coord_x,coord_y,stress_xx,stress_yy,tau_xy,velocity_x,velocity_y,stress_1,eps,damage,lx,ly
5.0e+0, 1.2499334e+2, -1719946.3, -1724224.6, 0.00004011221, 0.00000000022155262, 0.000017597795, -1719946.3, -4880.9653, 0.0, 10.0, 9.994328 
5.0e+0, 1.349876e+2, -1622565.8, -1627434.9, 0.000040220817, 0.00000000021510166, -0.0000684036, -1622565.8, -5444.1777, 0.0, 10.0, 9.993545 
5.0e+0, 1.4497513e+2, -1534464.4, -1548146.3, 0.00003851055, 0.00000000021149135, 0.00007091608, -1534464.4, -15220.686, 0.0, 10.0, 9.981865 
5.0e+0, 1.5495701e+2, -1436736.6, -1450821.9, 0.000028726117, 0.00000000021072016, -0.000056981535, -1436736.6, -15315.503, 0.0, 10.0, 9.981333 
5.0e+0, 1.6493228e+2, -1348685.8, -1371952.4, 0.000027230524, 0.0000000002097288, 0.00004734125, -1348685.8, -25021.996, 0.0, 10.0, 9.969248 
5.0e+0, 1.7490156e+2, -1250727.6, -1274310.1, 0.000024461948, 0.00000000020851258, -0.00007383239, -1250727.6, -24762.977, 0.0, 10.0, 9.968835 
5.0e+0, 1.8486421e+2, -1162646.8, -1195720.1, 0.000023388848, 0.0000000002072816, 0.00006614317, -1162646.8, -34316.03, 0.0, 10.0, 9.956395 
5.0e+0, 1.9482064e+2, -1064497.0, -1097833.0, 0.000012434285, 0.00000000020603502, -0.000057657962, -1064497.0, -33739.363, 0.0, 10.0, 9.956052 
5.0e+0, 2.0477042e+2, -976333.0, -1019435.0, 0.000011345521, 0.00000000020505499, 0.000068076726, -976333.0, -43083.11, 0.0, 10.0, 9.943291 
5.0e+0, 2.1471375e+2, -878046.0, -921409.9, 0.000009264546, 0.00000000020436353, -0.00012682883, -878046.0, -42240.695, 0.0, 10.0, 9.942949 
5.0e+0, 2.2465037e+2, -789759.9, -843144.9, 0.000009441507, 0.00000000020302138, 0.00012087835, -789759.9, -51333.59, 0.0, 10.0, 9.929908 
5.0e+0, 2.3458035e+2, -691326.4, -744966.44, -0.00000022215141, 0.00000000020094246, -0.000088819215, -691326.4, -50213.82, 0.0, 10.0, 9.929577 
5.0e+0, 2.4450338e+2, -603002.3, -667018.8, -0.00000062976983, 0.0000000002006266, 0.00007470806, -603002.3, -59135.418, 0.0, 10.0, 9.916136 
5.0e+0, 2.5441962e+2, -504249.63, -568343.3, -0.00000329802, 0.00000000020241733, -0.00010673754, -504249.63, -57562.08, 0.0, 10.0, 9.916036 
5.0e+0, 2.643288e+2, -416014.22, -490987.88, -0.0000009434805, 0.00000000020186894, 0.00014059343, -416014.22, -66436.55, 0.0, 10.0, 9.901964 
5.0e+0, 2.742313e+2, -316729.0, -391374.78, -0.0000087706285, 0.00000000019833851, -0.00020344478, -316729.0, -64195.996, 0.0, 10.0, 9.902385 
5.0e+0, 2.841256e+2, -230255.75, -318081.25, -0.000008788204, 0.00000000019684092, 0.00022904524, -230255.75, -74686.77, 0.0, 10.0, 9.885439 
5.0e+0, 2.940121e+2, -130549.61, -217765.02, -0.000013743196, 0.00000000019813906, -0.00025334352, -130549.61, -71868.21, 0.0, 10.0, 9.886217 
5.0e+0, 3.0392656e+2, -40805.59, -84750.16, -0.00000915184, 0.00000000019934791, 0.00017313573, -40805.59, -40805.59, 0.0, 10.0, 9.942173 
5.0e+0, 3.138706e+2, -39727.58, -82511.21, -0.000010504209, 0.00000000020039793, -0.00005514293, -39727.58, -39727.58, 0.0, 10.0, 9.943685 
1.5e+1, 1.2499334e+2, -1719946.3, -1724224.6, -0.000054425498, 0.0000000006646579, 0.00001759781, -1719946.3, -4880.9653, 0.0, 10.0, 9.994328 
1.5e+1, 1.349876e+2, -1622565.8, -1627434.9, -0.00005433985, 0.000000000645305, -0.000068403606, -1622565.8, -5444.1777, 0.0, 10.0, 9.993545 
1.5e+1, 1.4497513e+2, -1534464.4, -1548146.3, -0.000050220944, 0.00000000063447403, 0.00007091608, -1534464.4, -15220.686, 0.0, 10.0, 9.981865 
1.5e+1, 1.5495701e+2, -1436736.6, -1450821.9, -0.00005999673, 0.0000000006321605, -0.00005698152, -1436736.6, -15315.503, 0.0, 10.0, 9.981333 
1.5e+1, 1.6493228e+2, -1348685.8, -1371952.4, -0.000052145548, 0.0000000006291864, 0.000047341262, -1348685.8, -25021.996, 0.0, 10.0, 9.969248 
1.5e+1, 1.7490156e+2, -1250727.6, -1274310.1, -0.000054865508, 0.00000000062553773, -0.000073832394, -1250727.6, -24762.977, 0.0, 10.0, 9.968835 
1.5e+1, 1.8486421e+2, -1162646.8, -1195720.1, -0.000044764594, 0.0000000006218448, 0.000066143155, -1162646.8, -34316.03, 0.0, 10.0, 9.956395 
1.5e+1, 1.9482064e+2, -1064497.0, -1097833.0, -0.000055590506, 0.00000000061810507, -0.000057657948, -1064497.0, -33739.363, 0.0, 10.0, 9.956052 
1.5e+1, 2.0477042e+2, -976333.0, -1019435.0, -0.000045492547, 0.000000000615165, 0.00006807674, -976333.0, -43083.11, 0.0, 10.0, 9.943291 
1.5e+1, 2.1471375e+2, -878046.0, -921409.9, -0.00004734324, 0.0000000006130906, -0.00012682883, -878046.0, -42240.695, 0.0, 10.0, 9.942949 
1.5e+1, 2.2465037e+2, -789759.9, -843144.9, -0.00003542391, 0.00000000060906413, 0.00012087834, -789759.9, -51333.59, 0.0, 10.0, 9.929908 
1.5e+1, 2.3458035e+2, -691326.4, -744966.44, -0.00004470424, 0.0000000006028274, -0.00008881921, -691326.4, -50213.82, 0.0, 10.0, 9.929577 
1.5e+1, 2.4450338e+2, -603002.3, -667018.8, -0.000032577125, 0.0000000006018798, 0.00007470807, -603002.3, -59135.418, 0.0, 10.0, 9.916136 
1.5e+1, 2.5441962e+2, -504249.63, -568343.3, -0.000034643897, 0.00000000060725197, -0.000106737534, -504249.63, -57562.08, 0.0, 10.0, 9.916036 
1.5e+1, 2.643288e+2, -416014.22, -490987.88, -0.000016985368, 0.00000000060560684, 0.00014059343, -416014.22, -66436.55, 0.0, 10.0, 9.901964 
1.5e+1, 2.742313e+2, -316729.0, -391374.78, -0.000023787414, 0.00000000059501554, -0.00020344478, -316729.0, -64195.996, 0.0, 10.0, 9.902385 
1.5e+1, 2.841256e+2, -230255.75, -318081.25, -0.000009419066, 0.00000000059052274, 0.00022904524, -230255.75, -74686.77, 0.0, 10.0, 9.885439 
1.5e+1, 2.940121e+2, -130549.61, -217765.02, -0.0000130788685, 0.0000000005944172, -0.00025334352, -130549.61, -71868.21, 0.0, 10.0, 9.886217 
1.5e+1, 3.0392656e+2, -40805.59, -84750.16, 0.00000891043, 0.0000000005980437, 0.00017313573, -40805.59, -40805.59, 0.0, 10.0, 9.942173 
1.5e+1, 3.138706e+2, -39727.58, -82511.21, 0.000009599371, 0.0000000006011938, -0.000055142944, -39727.58, -39727.58, 0.0, 10.0, 9.943685 
2.5e+1, 1.2499334e+2, -1719946.3, -1724224.6, 0.000047141784, 0.0000000011009574, 0.000017597817, -1719946.3, -4880.965, 0.0, 10.0, 9.994328 
2.5e+1, 1.349876e+2, -1622565.8, -1627434.9, 0.000028987328, 0.0000000010762887, -0.0000684036, -1622565.8, -5444.1777, 0.0, 10.0, 9.993545 
2.5e+1, 1.4497513e+2, -1534464.4, -1548146.3, 0.00002625235, 0.0000000010615467, 0.00007091609, -1534464.4, -15220.686, 0.0, 10.0, 9.981865 
2.5e+1, 1.5495701e+2, -1436736.6, -1450821.9, 0.0000032703756, 0.0000000010566998, -0.00005698151, -1436736.6, -15315.503, 0.0, 10.0, 9.981333 
2.5e+1, 1.6493228e+2, -1348685.8, -1371952.4, 0.000006857083, 0.0000000010504914, 0.00004734127, -1348685.8, -25021.996, 0.0, 10.0, 9.969248 
2.5e+1, 1.7490156e+2, -1250727.6, -1274310.1, -0.000009628105, 0.0000000010428926, -0.000073832394, -1250727.6, -24762.977, 0.0, 10.0, 9.968835 
2.5e+1, 1.8486421e+2, -1162646.8, -1195720.1, -0.0000022842949, 0.000000001036311, 0.000066143155, -1162646.8, -34316.027, 0.0, 10.0, 9.956395 
2.5e+1, 1.9482064e+2, -1064497.0, -1097833.0, -0.00002601377, 0.0000000010307935, -0.00005765794, -1064497.0, -33739.363, 0.0, 10.0, 9.956052 
2.5e+1, 2.0477042e+2, -976333.0, -1019435.0, -0.00001769618, 0.0000000010257644, 0.00006807675, -976333.0, -43083.11, 0.0, 10.0, 9.943291 
2.5e+1, 2.1471375e+2, -878046.0, -921409.9, -0.000032883418, 0.0000000010212637, -0.00012682883, -878046.0, -42240.695, 0.0, 10.0, 9.942949 
2.5e+1, 2.2465037e+2, -789759.9, -843144.9, -0.000021455004, 0.0000000010156749, 0.00012087834, -789759.9, -51333.586, 0.0, 10.0, 9.929908 
2.5e+1, 2.3458035e+2, -691326.4, -744966.44, -0.000041807747, 0.0000000010088532, -0.00008881921, -691326.4, -50213.82, 0.0, 10.0, 9.929577 
2.5e+1, 2.4450338e+2, -603002.3, -667018.8, -0.000028987852, 0.0000000010059974, 0.00007470808, -603002.3, -59135.418, 0.0, 10.0, 9.916136 
2.5e+1, 2.5441962e+2, -504249.63, -568343.3, -0.000044190565, 0.000000001007879, -0.000106737534, -504249.63, -57562.08, 0.0, 10.0, 9.916036 
2.5e+1, 2.643288e+2, -416014.22, -490987.88, -0.000024547926, 0.0000000010049953, 0.00014059343, -416014.22, -66436.55, 0.0, 10.0, 9.901964 
2.5e+1, 2.742313e+2, -316729.0, -391374.78, -0.000040891206, 0.0000000009960347, -0.00020344478, -316729.0, -64195.996, 0.0, 10.0, 9.902385 
2.5e+1, 2.841256e+2, -230255.75, -318081.25, -0.000022863313, 0.000000000991594, 0.00022904524, -230255.75, -74686.77, 0.0, 10.0, 9.885439 
2.5e+1, 2.940121e+2, -130549.61, -217765.02, -0.00003721579, 0.0000000009933665, -0.00025334352, -130549.61, -71868.21, 0.0, 10.0, 9.886217 
2.5e+1, 3.0392656e+2, -40805.59, -84750.16, -0.000010311177, 0.0000000009964878, 0.00017313573, -40805.59, -40805.59, 0.0, 10.0, 9.942173 
2.5e+1, 3.138706e+2, -39727.58, -82511.21, -0.000018664328, 0.0000000010015527, -0.000055142955, -39727.58, -39727.58, 0.0, 10.0, 9.943685 
3.5e+1, 1.2499334e+2, -1719946.3, -1724224.6, -0.00005133192, 0.0000000015304513, 0.000017597813, -1719946.3, -4880.965, 0.0, 10.0, 9.994328 
3.5e+1, 1.349876e+2, -1622565.8, -1627434.9, -0.00006951012, 0.0000000015080528, -0.00006840359, -1622565.8, -5444.1777, 0.0, 10.0, 9.993545 
3.5e+1, 1.4497513e+2, -1534464.4, -1548146.3, -0.000061082996, 0.0000000014927093, 0.00007091612, -1534464.4, -15220.686, 0.0, 10.0, 9.981865 
3.5e+1, 1.5495701e+2, -1436736.6, -1450822.0, -0.00008404814, 0.0000000014843381, -0.000056981502, -1436736.6, -15315.503, 0.0, 10.0, 9.981333 
3.5e+1, 1.6493228e+2, -1348685.8, -1371952.4, -0.000071987146, 0.0000000014736439, 0.00004734127, -1348685.8, -25021.996, 0.0, 10.0, 9.969248 
3.5e+1, 1.7490156e+2, -1250727.6, -1274310.1, -0.0000884283, 0.0000000014605771, -0.00007383239, -1250727.6, -24762.977, 0.0, 10.0, 9.968835 
3.5e+1, 1.8486421e+2, -1162646.8, -1195720.1, -0.00007148864, 0.0000000014506805, 0.00006614317, -1162646.8, -34316.03, 0.0, 10.0, 9.956395 
3.5e+1, 1.9482064e+2, -1064497.0, -1097833.0, -0.00009510773, 0.0000000014441001, -0.00005765794, -1064497.0, -33739.363, 0.0, 10.0, 9.956052 
3.5e+1, 2.0477042e+2, -976333.0, -1019435.0, -0.00007542474, 0.0000000014368531, 0.00006807675, -976333.0, -43083.11, 0.0, 10.0, 9.943291 
3.5e+1, 2.1471375e+2, -878046.0, -921409.9, -0.000090377995, 0.0000000014288831, -0.00012682882, -878046.0, -42240.695, 0.0, 10.0, 9.942949 
3.5e+1, 2.2465037e+2, -789759.9, -843144.9, -0.0000668424, 0.0000000014228537, 0.00012087835, -789759.9, -51333.586, 0.0, 10.0, 9.929908 
3.5e+1, 2.3458035e+2, -691326.4, -744966.44, -0.0000867999, 0.0000000014190201, -0.00008881921, -691326.4, -50213.82, 0.0, 10.0, 9.929577 
3.5e+1, 2.4450338e+2, -603002.3, -667018.8, -0.0000603297, 0.0000000014129793, 0.00007470808, -603002.3, -59135.418, 0.0, 10.0, 9.916136 
3.5e+1, 2.5441962e+2, -504249.63, -568343.3, -0.00007487733, 0.0000000014042985, -0.00010673753, -504249.63, -57562.08, 0.0, 10.0, 9.916036 
3.5e+1, 2.643288e+2, -416014.22, -490987.88, -0.000041994266, 0.0000000014000343, 0.00014059345, -416014.22, -66436.55, 0.0, 10.0, 9.901964 
3.5e+1, 2.742313e+2, -316729.0, -391374.78, -0.0000574508, 0.0000000014013961, -0.00020344478, -316729.0, -64195.996, 0.0, 10.0, 9.902385 
3.5e+1, 2.841256e+2, -230255.75, -318081.25, -0.000024161263, 0.0000000014000548, 0.00022904524, -230255.75, -74686.77, 0.0, 10.0, 9.885439 
3.5e+1, 2.940121e+2, -130549.61, -217765.02, -0.000037139656, 0.0000000013949871, -0.00025334352, -130549.61, -71868.21, 0.0, 10.0, 9.886217 
3.5e+1, 3.0392656e+2, -40805.59, -84750.16, 0.00000469716, 0.0000000013946799, 0.00017313573, -40805.59, -40805.59, 0.0, 10.0, 9.942173 
3.5e+1, 3.138706e+2, -39727.58, -82511.21, -0.0000019041596, 0.0000000014014746, -0.00005514296, -39727.58, -39727.58, 0.0, 10.0, 9.943685 
4.5e+1, 1.2499334e+2, -1719946.3, -1724224.6, 0.00006842298, 0.0000000019612474, 0.000017597811, -1719946.3, -4880.9644, 0.0, 10.0, 9.994328 
4.5e+1, 1.349876e+2, -1622565.8, -1627434.9, 0.000018216242, 0.0000000019380453, -0.00006840358, -1622565.8, -5444.1772, 0.0, 10.0, 9.993545 
4.5e+1, 1.4497513e+2, -1534464.4, -1548146.3, 0.000018137267, 0.0000000019215303, 0.00007091615, -1534464.4, -15220.685, 0.0, 10.0, 9.981865 
4.5e+1, 1.5495701e+2, -1436736.6, -1450821.9, -0.00001254584, 0.0000000019115844, -0.0000569815, -1436736.6, -15315.503, 0.0, 10.0, 9.981333 
4.5e+1, 1.6493228e+2, -1348685.8, -1371952.4, -0.0000063977227, 0.0000000018981807, 0.00004734127, -1348685.8, -25021.996, 0.0, 10.0, 9.969248 
4.5e+1, 1.7490156e+2, -1250727.6, -1274310.1, -0.000047267928, 0.000000001881246, -0.000073832365, -1250727.6, -24762.975, 0.0, 10.0, 9.968835 
4.5e+1, 1.8486421e+2, -1162646.8, -1195720.1, -0.00003399212, 0.0000000018681987, 0.00006614319, -1162646.8, -34316.027, 0.0, 10.0, 9.956395 
4.5e+1, 1.9482064e+2, -1064497.0, -1097833.0, -0.000059568105, 0.0000000018592179, -0.00005765794, -1064497.0, -33739.363, 0.0, 10.0, 9.956052 
4.5e+1, 2.0477042e+2, -976333.0, -1019435.0, -0.00004058944, 0.0000000018493886, 0.00006807675, -976333.0, -43083.11, 0.0, 10.0, 9.943291 
4.5e+1, 2.1471375e+2, -878046.0, -921409.9, -0.000078545054, 0.0000000018386391, -0.0001268288, -878046.0, -42240.69, 0.0, 10.0, 9.942949 
4.5e+1, 2.2465037e+2, -789759.9, -843144.9, -0.000057314424, 0.0000000018314724, 0.00012087837, -789759.9, -51333.586, 0.0, 10.0, 9.929908 
4.5e+1, 2.3458035e+2, -691326.4, -744966.44, -0.00008138027, 0.0000000018283606, -0.00008881921, -691326.4, -50213.82, 0.0, 10.0, 9.929577 
4.5e+1, 2.4450338e+2, -603002.3, -667018.8, -0.0000514526, 0.0000000018201003, 0.00007470807, -603002.3, -59135.418, 0.0, 10.0, 9.916136 
4.5e+1, 2.5441962e+2, -504249.63, -568343.3, -0.00008396653, 0.0000000018056846, -0.00010673752, -504249.63, -57562.08, 0.0, 10.0, 9.916036 
4.5e+1, 2.643288e+2, -416014.22, -490987.88, -0.000052775657, 0.0000000018003724, 0.00014059345, -416014.22, -66436.55, 0.0, 10.0, 9.901964 
4.5e+1, 2.742313e+2, -316729.0, -391374.78, -0.000074945114, 0.0000000018066583, -0.00020344478, -316729.0, -64195.996, 0.0, 10.0, 9.902385 
4.5e+1, 2.841256e+2, -230255.75, -318081.25, -0.000034639805, 0.0000000018067607, 0.00022904524, -230255.75, -74686.77, 0.0, 10.0, 9.885439 
4.5e+1, 2.940121e+2, -130549.6, -217765.02, -0.000058509795, 0.0000000017983455, -0.00025334352, -130549.6, -71868.21, 0.0, 10.0, 9.886217 
4.5e+1, 3.0392656e+2, -40805.59, -84750.16, -0.000016446424, 0.000000001794647, 0.00017313573, -40805.59, -40805.59, 0.0, 10.0, 9.942173 
4.5e+1, 3.138706e+2, -39727.58, -82511.21, -0.00004183633, 0.0000000017980311, -0.000055142948, -39727.58, -39727.58, 0.0, 10.0, 9.943685 
5.5e+1, 1.2499334e+2, -1719946.3, -1724224.6, -0.000033600074, 0.0000000023933457, 0.000017597813, -1719946.3, -4880.965, 0.0, 10.0, 9.994328 
5.5e+1, 1.349876e+2, -1622565.8, -1627434.9, -0.00008383158, 0.0000000023662663, -0.00006840357, -1622565.8, -5444.1772, 0.0, 10.0, 9.993545 
5.5e+1, 1.4497513e+2, -1534464.4, -1548146.3, -0.00007302432, 0.0000000023480093, 0.000070916176, -1534464.4, -15220.685, 0.0, 10.0, 9.981865 
5.5e+1, 1.5495701e+2, -1436736.6, -1450822.0, -0.00010369097, 0.0000000023384386, -0.000056981506, -1436736.6, -15315.503, 0.0, 10.0, 9.981333 
5.5e+1, 1.6493228e+2, -1348685.8, -1371952.4, -0.0000865368, 0.0000000023241022, 0.000047341266, -1348685.8, -25021.996, 0.0, 10.0, 9.969248 
5.5e+1, 1.7490156e+2, -1250727.6, -1274310.1, -0.00012734963, 0.0000000023048994, -0.00007383233, -1250727.6, -24762.975, 0.0, 10.0, 9.968835 
5.5e+1, 1.8486421e+2, -1162646.8, -1195720.1, -0.00010446354, 0.0000000022888658, 0.00006614322, -1162646.8, -34316.027, 0.0, 10.0, 9.956395 
5.5e+1, 1.9482064e+2, -1064497.0, -1097833.0, -0.00012992899, 0.0000000022761468, -0.000057657944, -1064497.0, -33739.363, 0.0, 10.0, 9.956052 
5.5e+1, 2.0477042e+2, -976333.0, -1019435.0, -0.000099790705, 0.0000000022633708, 0.00006807673, -976333.0, -43083.11, 0.0, 10.0, 9.943291 
5.5e+1, 2.1471375e+2, -878046.0, -921409.9, -0.00013751659, 0.0000000022505315, -0.00012682879, -878046.0, -42240.69, 0.0, 10.0, 9.942949 
5.5e+1, 2.2465037e+2, -789759.9, -843144.9, -0.00010439983, 0.0000000022415312, 0.000120878394, -789759.9, -51333.586, 0.0, 10.0, 9.929908 
5.5e+1, 2.3458035e+2, -691326.4, -744966.44, -0.00012807765, 0.0000000022368747, -0.0000888192, -691326.4, -50213.82, 0.0, 10.0, 9.929577 
5.5e+1, 2.4450338e+2, -603002.3, -667018.8, -0.00008325974, 0.0000000022273605, 0.00007470807, -603002.3, -59135.418, 0.0, 10.0, 9.916136 
5.5e+1, 2.5441962e+2, -504249.63, -568343.3, -0.000115059, 0.0000000022120377, -0.00010673751, -504249.63, -57562.08, 0.0, 10.0, 9.916036 
5.5e+1, 2.643288e+2, -416014.22, -490987.88, -0.00007303737, 0.0000000022060094, 0.00014059346, -416014.22, -66436.55, 0.0, 10.0, 9.901964 
5.5e+1, 2.742313e+2, -316729.0, -391374.78, -0.00009448167, 0.0000000022118214, -0.00020344477, -316729.0, -64195.996, 0.0, 10.0, 9.902385 
5.5e+1, 2.841256e+2, -230255.75, -318081.25, -0.000036259786, 0.0000000022117117, 0.00022904524, -230255.75, -74686.77, 0.0, 10.0, 9.885439 
5.5e+1, 2.940121e+2, -130549.6, -217765.02, -0.000058516493, 0.0000000022034417, -0.00025334352, -130549.6, -71868.21, 0.0, 10.0, 9.886217 
5.5e+1, 3.0392656e+2, -40805.59, -84750.16, -0.00000012710179, 0.0000000021963886, 0.00017313573, -40805.59, -40805.59, 0.0, 10.0, 9.942173 
5.5e+1, 3.138706e+2, -39727.58, -82511.21, -0.000023601582, 0.000000002191222, -0.00005514292, -39727.58, -39727.58, 0.0, 10.0, 9.943685 
6.5e+1, 1.2499334e+2, -1719946.3, -1724224.6, 0.00005564898, 0.0000000028406912, 0.00001759786, -1719946.3, -4880.964, 0.0, 10.0, 9.994328 
6.5e+1, 1.349876e+2, -1622565.8, -1627434.9, 0.000003591043, 0.000000002800392, -0.00006840357, -1622565.8, -5444.177, 0.0, 10.0, 9.993545 
6.5e+1, 1.4497513e+2, -1534464.4, -1548146.3, 0.000012924056, 0.0000000027752796, 0.00007091619, -1534464.4, -15220.685, 0.0, 10.0, 9.981865 
6.5e+1, 1.5495701e+2, -1436736.6, -1450821.9, -0.000037542508, 0.000000002765228, -0.000056981484, -1436736.6, -15315.502, 0.0, 10.0, 9.981333 
6.5e+1, 1.6493228e+2, -1348685.8, -1371952.4, -0.000024870236, 0.0000000027503961, 0.000047341284, -1348685.8, -25021.996, 0.0, 10.0, 9.969248 
6.5e+1, 1.7490156e+2, -1250727.6, -1274310.1, -0.00007683777, 0.0000000027306828, -0.000073832314, -1250727.6, -24762.975, 0.0, 10.0, 9.968835 
6.5e+1, 1.8486421e+2, -1162646.8, -1195720.1, -0.000056888537, 0.0000000027124238, 0.000066143235, -1162646.8, -34316.027, 0.0, 10.0, 9.956395 
6.5e+1, 1.9482064e+2, -1064497.0, -1097833.0, -0.00009981034, 0.0000000026956852, -0.000057657926, -1064497.0, -33739.363, 0.0, 10.0, 9.956052 
6.5e+1, 2.0477042e+2, -976333.0, -1019435.0, -0.00007147627, 0.0000000026802964, 0.00006807675, -976333.0, -43083.11, 0.0, 10.0, 9.943291 
6.5e+1, 2.1471375e+2, -878046.0, -921409.9, -0.00011730448, 0.000000002666368, -0.00012682877, -878046.0, -42240.69, 0.0, 10.0, 9.942949 
6.5e+1, 2.2465037e+2, -789759.9, -843144.9, -0.00008456967, 0.0000000026544453, 0.0001208784, -789759.9, -51333.586, 0.0, 10.0, 9.929908 
6.5e+1, 2.3458035e+2, -691326.4, -744966.44, -0.00012559057, 0.0000000026447908, -0.000088819186, -691326.4, -50213.82, 0.0, 10.0, 9.929577 
6.5e+1, 2.4450338e+2, -603002.3, -667018.8, -0.00008019409, 0.0000000026351825, 0.00007470808, -603002.3, -59135.418, 0.0, 10.0, 9.916136 
6.5e+1, 2.5441962e+2, -504249.63, -568343.3, -0.000118003314, 0.0000000026256255, -0.00010673751, -504249.63, -57562.08, 0.0, 10.0, 9.916036 
6.5e+1, 2.643288e+2, -416014.22, -490987.88, -0.00007318594, 0.00000000261878, 0.00014059346, -416014.22, -66436.55, 0.0, 10.0, 9.901964 
6.5e+1, 2.742313e+2, -316729.0, -391374.78, -0.00011105007, 0.000000002615383, -0.00020344477, -316729.0, -64195.996, 0.0, 10.0, 9.902385 
6.5e+1, 2.841256e+2, -230255.73, -318081.25, -0.000051933188, 0.0000000026116167, 0.00022904525, -230255.73, -74686.766, 0.0, 10.0, 9.885439 
6.5e+1, 2.940121e+2, -130549.6, -217765.02, -0.0000845116, 0.000000002607327, -0.00025334352, -130549.6, -71868.21, 0.0, 10.0, 9.886217 
6.5e+1, 3.0392656e+2, -40805.59, -84750.16, -0.000019374298, 0.0000000026013882, 0.00017313573, -40805.59, -40805.59, 0.0, 10.0, 9.942173 
6.5e+1, 3.138706e+2, -39727.58, -82511.21, -0.00005102062, 0.0000000025930103, -0.000055142915, -39727.58, -39727.58, 0.0, 10.0, 9.943685 
7.5e+1, 1.2499334e+2, -1719946.3, -1724224.6, -0.00004657352, 0.000000003303284, 0.000017597951, -1719946.3, -4880.9644, 0.0, 10.0, 9.994328 
7.5e+1, 1.349876e+2, -1622565.8, -1627434.9, -0.00009865639, 0.0000000032404222, -0.00006840358, -1622565.8, -5444.177, 0.0, 10.0, 9.993545 
7.5e+1, 1.4497513e+2, -1534464.4, -1548146.3, -0.00008243487, 0.0000000032033405, 0.00007091619, -1534464.4, -15220.685, 0.0, 10.0, 9.981865 
7.5e+1, 1.5495701e+2, -1436736.6, -1450822.0, -0.0001328912, 0.000000003191953, -0.00005698144, -1436736.6, -15315.502, 0.0, 10.0, 9.981333 
7.5e+1, 1.6493228e+2, -1348685.8, -1371952.4, -0.00010977056, 0.0000000031770628, 0.000047341327, -1348685.8, -25021.996, 0.0, 10.0, 9.969248 
7.5e+1, 1.7490156e+2, -1250727.6, -1274310.1, -0.00016168368, 0.0000000031585965, -0.00007383232, -1250727.6, -24762.975, 0.0, 10.0, 9.968835 
7.5e+1, 1.8486421e+2, -1162646.8, -1195720.1, -0.00012918621, 0.0000000031388734, 0.00006614323, -1162646.8, -34316.027, 0.0, 10.0, 9.956395 
7.5e+1, 1.9482064e+2, -1064497.0, -1097833.0, -0.00017196345, 0.000000003117833, -0.00005765789, -1064497.0, -33739.363, 0.0, 10.0, 9.956052 
7.5e+1, 2.0477042e+2, -976333.0, -1019435.0, -0.00013257391, 0.0000000031001655, 0.00006807679, -976333.0, -43083.11, 0.0, 10.0, 9.943291 
7.5e+1, 2.1471375e+2, -878046.0, -921409.9, -0.00017817455, 0.0000000030861484, -0.00012682879, -878046.0, -42240.69, 0.0, 10.0, 9.942949 
7.5e+1, 2.2465037e+2, -789759.9, -843144.9, -0.00013299142, 0.0000000030702152, 0.00012087839, -789759.9, -51333.586, 0.0, 10.0, 9.929908 
7.5e+1, 2.3458035e+2, -691326.4, -744966.44, -0.00017360593, 0.000000003052109, -0.000088819164, -691326.4, -50213.82, 0.0, 10.0, 9.929577 
7.5e+1, 2.4450338e+2, -603002.3, -667018.8, -0.00011678659, 0.0000000030435667, 0.00007470811, -603002.3, -59135.418, 0.0, 10.0, 9.916136 
7.5e+1, 2.5441962e+2, -504249.63, -568343.3, -0.00015404778, 0.0000000030464484, -0.00010673752, -504249.63, -57562.08, 0.0, 10.0, 9.916036 
7.5e+1, 2.643288e+2, -416014.22, -490987.88, -0.00009191946, 0.0000000030386846, 0.00014059345, -416014.22, -66436.55, 0.0, 10.0, 9.901964 
7.5e+1, 2.742313e+2, -316729.0, -391374.78, -0.00012862397, 0.0000000030173435, -0.00020344477, -316729.0, -64195.996, 0.0, 10.0, 9.902385 
7.5e+1, 2.841256e+2, -230255.73, -318081.25, -0.000055566943, 0.0000000030064755, 0.00022904527, -230255.73, -74686.77, 0.0, 10.0, 9.885439 
7.5e+1, 2.940121e+2, -130549.6, -217765.02, -0.000086890395, 0.000000003010002, -0.00025334352, -130549.6, -71868.21, 0.0, 10.0, 9.886217 
7.5e+1, 3.0392656e+2, -40805.59, -84750.16, -0.000003012032, 0.0000000030096456, 0.00017313575, -40805.59, -40805.59, 0.0, 10.0, 9.942173 
7.5e+1, 3.138706e+2, -39727.58, -82511.21, -0.00003245945, 0.000000003003395, -0.000055142937, -39727.58, -39727.58, 0.0, 10.0, 9.943685 
8.5e+1, 1.2499334e+2, -1719946.3, -1724224.6, 0.00003700729, 0.0000000037652104, 0.000017598017, -1719946.3, -4880.9634, 0.0, 10.0, 9.994328 
8.5e+1, 1.349876e+2, -1622565.8, -1627434.9, -0.000012809015, 0.0000000036897776, -0.00006840357, -1622565.8, -5444.176, 0.0, 10.0, 9.993545 
8.5e+1, 1.4497513e+2, -1534464.4, -1548146.3, 0.0000009647433, 0.0000000036439836, 0.00007091622, -1534464.4, -15220.684, 0.0, 10.0, 9.981865 
8.5e+1, 1.5495701e+2, -1436736.6, -1450821.9, -0.00007189831, 0.0000000036277361, -0.0000569814, -1436736.6, -15315.501, 0.0, 10.0, 9.981333 
8.5e+1, 1.6493228e+2, -1348685.8, -1371952.4, -0.000050243318, 0.0000000036087187, 0.00004734136, -1348685.8, -25021.994, 0.0, 10.0, 9.969248 
8.5e+1, 1.7490156e+2, -1250727.6, -1274310.1, -0.00010090618, 0.0000000035868721, -0.00007383232, -1250727.6, -24762.975, 0.0, 10.0, 9.968835 
8.5e+1, 1.8486421e+2, -1162646.8, -1195720.1, -0.00007033861, 0.0000000035649668, 0.00006614323, -1162646.8, -34316.027, 0.0, 10.0, 9.956395 
8.5e+1, 1.9482064e+2, -1064497.0, -1097833.0, -0.0001431851, 0.0000000035429975, -0.000057657853, -1064497.0, -33739.36, 0.0, 10.0, 9.956052 
8.5e+1, 2.0477042e+2, -976333.0, -1019435.0, -0.00010785469, 0.0000000035237604, 0.00006807683, -976333.0, -43083.105, 0.0, 10.0, 9.943291 
8.5e+1, 2.1471375e+2, -878046.0, -921409.9, -0.00015353588, 0.0000000035074803, -0.00012682877, -878046.0, -42240.69, 0.0, 10.0, 9.942949 
8.5e+1, 2.2465037e+2, -789759.9, -843144.9, -0.00010551663, 0.0000000034892926, 0.00012087839, -789759.9, -51333.586, 0.0, 10.0, 9.929908 
8.5e+1, 2.3458035e+2, -691326.4, -744966.44, -0.00016710334, 0.0000000034689422, -0.00008881915, -691326.4, -50213.82, 0.0, 10.0, 9.929577 
8.5e+1, 2.4450338e+2, -603002.3, -667018.8, -0.00011406791, 0.0000000034589933, 0.00007470813, -603002.3, -59135.418, 0.0, 10.0, 9.916136 
8.5e+1, 2.5441962e+2, -504249.63, -568343.3, -0.00015874757, 0.0000000034614684, -0.000106737505, -504249.63, -57562.074, 0.0, 10.0, 9.916036 
8.5e+1, 2.643288e+2, -416014.22, -490987.88, -0.00008944328, 0.0000000034519476, 0.00014059345, -416014.22, -66436.55, 0.0, 10.0, 9.901964 
8.5e+1, 2.742313e+2, -316729.0, -391374.78, -0.0001399723, 0.0000000034271277, -0.00020344475, -316729.0, -64195.996, 0.0, 10.0, 9.902385 
8.5e+1, 2.841256e+2, -230255.73, -318081.25, -0.00006815717, 0.0000000034142045, 0.00022904528, -230255.73, -74686.766, 0.0, 10.0, 9.885439 
8.5e+1, 2.940121e+2, -130549.6, -217765.02, -0.000110268484, 0.0000000034176308, -0.0002533435, -130549.6, -71868.21, 0.0, 10.0, 9.886217 
8.5e+1, 3.0392656e+2, -40805.59, -84750.16, -0.000014933914, 0.0000000034204604, 0.00017313575, -40805.59, -40805.59, 0.0, 10.0, 9.942173 
8.5e+1, 3.138706e+2, -39727.58, -82511.21, -0.000039628136, 0.0000000034222536, -0.000055142966, -39727.58, -39727.58, 0.0, 10.0, 9.943685 
9.5e+1, 1.2499334e+2, -1719946.3, -1724224.6, -0.00006563473, 0.0000000042264703, 0.000017598057, -1719946.3, -4880.9634, 0.0, 10.0, 9.994328 
9.5e+1, 1.349876e+2, -1622565.8, -1627434.9, -0.00011547593, 0.0000000041484585, -0.000068403555, -1622565.8, -5444.1763, 0.0, 10.0, 9.993545 
9.5e+1, 1.4497513e+2, -1534464.4, -1548146.3, -0.00009427762, 0.0000000040972084, 0.00007091628, -1534464.4, -15220.684, 0.0, 10.0, 9.981865 
9.5e+1, 1.5495701e+2, -1436736.6, -1450822.0, -0.00016712962, 0.000000004072578, -0.000056981356, -1436736.6, -15315.502, 0.0, 10.0, 9.981333 
9.5e+1, 1.6493228e+2, -1348685.8, -1371952.4, -0.00013806678, 0.0000000040453636, 0.000047341386, -1348685.8, -25021.994, 0.0, 10.0, 9.969248 
9.5e+1, 1.7490156e+2, -1250727.6, -1274310.1, -0.00018869125, 0.0000000040155097, -0.00007383232, -1250727.6, -24762.975, 0.0, 10.0, 9.968835 
9.5e+1, 1.8486421e+2, -1162646.8, -1195720.1, -0.00014696209, 0.000000003990704, 0.000066143235, -1162646.8, -34316.027, 0.0, 10.0, 9.956395 
9.5e+1, 1.9482064e+2, -1064497.0, -1097833.0, -0.00021968008, 0.000000003971178, -0.000057657828, -1064497.0, -33739.36, 0.0, 10.0, 9.956052 
9.5e+1, 2.0477042e+2, -976333.0, -1019435.0, -0.00017224008, 0.0000000039510812, 0.00006807686, -976333.0, -43083.105, 0.0, 10.0, 9.943291 
9.5e+1, 2.1471375e+2, -878046.0, -921409.9, -0.00021767194, 0.0000000039303636, -0.00012682876, -878046.0, -42240.69, 0.0, 10.0, 9.942949 
9.5e+1, 2.2465037e+2, -789759.9, -843144.9, -0.0001564766, 0.000000003911678, 0.000120878394, -789759.9, -51333.586, 0.0, 10.0, 9.929908 
9.5e+1, 2.3458035e+2, -691326.4, -744966.44, -0.0002176331, 0.0000000038952908, -0.00008881914, -691326.4, -50213.82, 0.0, 10.0, 9.929577 
9.5e+1, 2.4450338e+2, -603002.3, -667018.8, -0.00015326771, 0.0000000038814623, 0.00007470814, -603002.3, -59135.418, 0.0, 10.0, 9.916136 
9.5e+1, 2.5441962e+2, -504249.63, -568343.3, -0.00019740388, 0.000000003870686, -0.00010673749, -504249.63, -57562.074, 0.0, 10.0, 9.916036 
9.5e+1, 2.643288e+2, -416014.22, -490987.88, -0.00010907953, 0.000000003858569, 0.00014059346, -416014.22, -66436.55, 0.0, 10.0, 9.901964 
9.5e+1, 2.742313e+2, -316729.0, -391374.78, -0.00015833435, 0.000000003844736, -0.00020344475, -316729.0, -64195.996, 0.0, 10.0, 9.902385 
9.5e+1, 2.841256e+2, -230255.73, -318081.25, -0.00007547603, 0.0000000038348036, 0.00022904527, -230255.73, -74686.766, 0.0, 10.0, 9.885439 
9.5e+1, 2.940121e+2, -130549.6, -217765.02, -0.00011659348, 0.000000003830214, -0.0002533435, -130549.6, -71868.21, 0.0, 10.0, 9.886217 
9.5e+1, 3.0392656e+2, -40805.59, -84750.16, -0.000005639439, 0.0000000038338324, 0.00017313575, -40805.59, -40805.59, 0.0, 10.0, 9.942173 
9.5e+1, 3.138706e+2, -39727.58, -82511.21, -0.00002850127, 0.0000000038495855, -0.000055142995, -39727.58, -39727.58, 0.0, 10.0, 9.943685 
1.05e+2, 1.2499334e+2, -1719946.3, -1724224.6, 0.00007962275, 0.0000000046748068, 0.000017598046, -1719946.3, -4880.9624, 0.0, 10.0, 9.994328 
1.05e+2, 1.349876e+2, -1622565.8, -1627434.9, -0.000018338376, 0.000000004600612, -0.000068403526, -1622565.8, -5444.175, 0.0, 10.0, 9.993545 
1.05e+2, 1.4497513e+2, -1534464.4, -1548146.3, -0.000011221877, 0.0000000045498165, 0.00007091636, -1534464.4, -15220.683, 0.0, 10.0, 9.981865 
1.05e+2, 1.5495701e+2, -1436736.6, -1450821.9, -0.00008594321, 0.0000000045222364, -0.000056981342, -1436736.6, -15315.5, 0.0, 10.0, 9.981333 
1.05e+2, 1.6493228e+2, -1348685.8, -1371952.4, -0.00006127078, 0.0000000044893276, 0.00004734139, -1348685.8, -25021.994, 0.0, 10.0, 9.969248 
1.05e+2, 1.7490156e+2, -1250727.6, -1274310.1, -0.00013963849, 0.0000000044509765, -0.00007383227, -1250727.6, -24762.973, 0.0, 10.0, 9.968835 
1.05e+2, 1.8486421e+2, -1162646.8, -1195720.1, -0.000102085374, 0.000000004422086, 0.00006614328, -1162646.8, -34316.027, 0.0, 10.0, 9.956395 
1.05e+2, 1.9482064e+2, -1064497.0, -1097833.0, -0.00017276943, 0.000000004403092, -0.000057657824, -1064497.0, -33739.36, 0.0, 10.0, 9.956052 
1.05e+2, 2.0477042e+2, -976333.0, -1019435.0, -0.00012551188, 0.0000000043812616, 0.00006807686, -976333.0, -43083.105, 0.0, 10.0, 9.943291 
1.05e+2, 2.1471375e+2, -878046.0, -921409.9, -0.00019935683, 0.0000000043563566, -0.00012682873, -878046.0, -42240.69, 0.0, 10.0, 9.942949 
1.05e+2, 2.2465037e+2, -789759.9, -843144.9, -0.00014073981, 0.0000000043373785, 0.00012087843, -789759.9, -51333.586, 0.0, 10.0, 9.929908 
1.05e+2, 2.3458035e+2, -691326.4, -744966.44, -0.00020250713, 0.0000000043251074, -0.000088819135, -691326.4, -50213.82, 0.0, 10.0, 9.929577 
1.05e+2, 2.4450338e+2, -603002.3, -667018.8, -0.00013473185, 0.000000004307232, 0.00007470814, -603002.3, -59135.418, 0.0, 10.0, 9.916136 
1.05e+2, 2.5441962e+2, -504249.63, -568343.3, -0.00020242222, 0.000000004282652, -0.00010673747, -504249.63, -57562.074, 0.0, 10.0, 9.916036 
1.05e+2, 2.643288e+2, -416014.22, -490987.88, -0.00011631359, 0.000000004268988, 0.00014059349, -416014.22, -66436.55, 0.0, 10.0, 9.901964 
1.05e+2, 2.742313e+2, -316729.0, -391374.78, -0.00016761466, 0.0000000042692263, -0.00020344475, -316729.0, -64195.996, 0.0, 10.0, 9.902385 
1.05e+2, 2.841256e+2, -230255.73, -318081.25, -0.00007547267, 0.0000000042641197, 0.00022904527, -230255.73, -74686.766, 0.0, 10.0, 9.885439 
1.05e+2, 2.940121e+2, -130549.6, -217765.02, -0.00012741725, 0.0000000042516293, -0.0002533435, -130549.6, -71868.21, 0.0, 10.0, 9.886217 
1.05e+2, 3.0392656e+2, -40805.59, -84750.16, -0.000017544993, 0.0000000042502006, 0.00017313575, -40805.59, -40805.59, 0.0, 10.0, 9.942173 
1.05e+2, 3.138706e+2, -39727.58, -82511.21, -0.00006149314, 0.0000000042652624, -0.000055142984, -39727.58, -39727.58, 0.0, 10.0, 9.943685 
1.15e+2, 1.2499334e+2, -1719946.3, -1724224.6, -0.00003433696, 0.00000000511022, 0.000017597988, -1719946.3, -4880.9624, 0.0, 10.0, 9.994328 
1.15e+2, 1.349876e+2, -1622565.8, -1627434.9, -0.000132326, 0.000000005046238, -0.00006840348, -1622565.8, -5444.1753, 0.0, 10.0, 9.993545 
1.15e+2, 1.4497513e+2, -1534464.4, -1548146.3, -0.0001114662, 0.0000000050018087, 0.00007091646, -1534464.4, -15220.683, 0.0, 10.0, 9.981865 
1.15e+2, 1.5495701e+2, -1436736.6, -1450822.0, -0.0001861664, 0.0000000049767115, -0.000056981356, -1436736.6, -15315.501, 0.0, 10.0, 9.981333 
1.15e+2, 1.6493228e+2, -1348685.8, -1371952.4, -0.00014910597, 0.00000000494061, 0.000047341364, -1348685.8, -25021.994, 0.0, 10.0, 9.969248 
1.15e+2, 1.7490156e+2, -1250727.6, -1274310.1, -0.00022740901, 0.000000004893272, -0.00007383219, -1250727.6, -24762.973, 0.0, 10.0, 9.968835 
1.15e+2, 1.8486421e+2, -1162646.8, -1195720.1, -0.00018342446, 0.0000000048591122, 0.000066143366, -1162646.8, -34316.027, 0.0, 10.0, 9.956395 
1.15e+2, 1.9482064e+2, -1064497.0, -1097833.0, -0.00025403476, 0.000000004838739, -0.000057657842, -1064497.0, -33739.36, 0.0, 10.0, 9.956052 
1.15e+2, 2.0477042e+2, -976333.0, -1019435.0, -0.00019437693, 0.0000000048143023, 0.00006807682, -976333.0, -43083.105, 0.0, 10.0, 9.943291 
1.15e+2, 2.1471375e+2, -878046.0, -921409.9, -0.0002679666, 0.00000000478546, -0.00012682869, -878046.0, -42240.69, 0.0, 10.0, 9.942949 
1.15e+2, 2.2465037e+2, -789759.9, -843144.9, -0.00019662104, 0.000000004766394, 0.00012087849, -789759.9, -51333.586, 0.0, 10.0, 9.929908 
1.15e+2, 2.3458035e+2, -691326.4, -744966.44, -0.0002579728, 0.000000004758393, -0.000088819135, -691326.4, -50213.82, 0.0, 10.0, 9.929577 
1.15e+2, 2.4450338e+2, -603002.3, -667018.8, -0.00017184287, 0.0000000047363025, 0.00007470812, -603002.3, -59135.418, 0.0, 10.0, 9.916136 
1.15e+2, 2.5441962e+2, -504249.63, -568343.3, -0.00023865218, 0.0000000046973674, -0.00010673745, -504249.63, -57562.074, 0.0, 10.0, 9.916036 
1.15e+2, 2.643288e+2, -416014.22, -490987.88, -0.00014635679, 0.0000000046832036, 0.00014059352, -416014.22, -66436.55, 0.0, 10.0, 9.901964 
1.15e+2, 2.742313e+2, -316729.0, -391374.78, -0.00019724415, 0.000000004700599, -0.00020344474, -316729.0, -64195.996, 0.0, 10.0, 9.902385 
1.15e+2, 2.841256e+2, -230255.73, -318081.25, -0.00008401566, 0.0000000047021533, 0.00022904525, -230255.73, -74686.766, 0.0, 10.0, 9.885439 
1.15e+2, 2.940121e+2, -130549.6, -217765.02, -0.00013406147, 0.0000000046818767, -0.00025334352, -130549.6, -71868.21, 0.0, 10.0, 9.886217 
1.15e+2, 3.0392656e+2, -40805.59, -84750.16, -0.000009080193, 0.0000000046695647, 0.00017313575, -40805.59, -40805.59, 0.0, 10.0, 9.942173 
1.15e+2, 3.138706e+2, -39727.58, -82511.21, -0.00005125596, 0.000000004669284, -0.000055142933, -39727.58, -39727.58, 0.0, 10.0, 9.943685 
1.25e+2, 1.2499334e+2, -1719946.3, -1724224.6, 0.00009712984, 0.000000005566629, 0.000017598022, -1719946.3, -4880.961, 0.0, 10.0, 9.994328 
1.25e+2, 1.349876e+2, -1622565.8, -1627434.9, -0.000023228218, 0.00000000549309, -0.00006840346, -1622565.8, -5444.174, 0.0, 10.0, 9.993545 
1.25e+2, 1.4497513e+2, -1534464.4, -1548146.3, -0.000008687053, 0.0000000054457447, 0.00007091652, -1534464.4, -15220.682, 0.0, 10.0, 9.981865 
1.25e+2, 1.5495701e+2, -1436736.6, -1450821.9, -0.00009623137, 0.000000005424405, -0.000056981342, -1436736.6, -15315.499, 0.0, 10.0, 9.981333 
1.25e+2, 1.6493228e+2, -1348685.8, -1371952.4, -0.000066764806, 0.0000000053908153, 0.00004734138, -1348685.8, -25021.992, 0.0, 10.0, 9.969248 
1.25e+2, 1.7490156e+2, -1250727.6, -1274310.1, -0.0001758202, 0.000000005344717, -0.00007383213, -1250727.6, -24762.973, 0.0, 10.0, 9.968835 
1.25e+2, 1.8486421e+2, -1162646.8, -1195720.1, -0.0001369074, 0.000000005307557, 0.000066143424, -1162646.8, -34316.027, 0.0, 10.0, 9.956395 
1.25e+2, 1.9482064e+2, -1064497.0, -1097833.0, -0.00020596615, 0.000000005279747, -0.000057657828, -1064497.0, -33739.36, 0.0, 10.0, 9.956052 
1.25e+2, 2.0477042e+2, -976333.0, -1019435.0, -0.00014457466, 0.000000005251355, 0.00006807683, -976333.0, -43083.105, 0.0, 10.0, 9.943291 
1.25e+2, 2.1471375e+2, -878046.0, -921409.9, -0.00024080607, 0.000000005222329, -0.00012682866, -878046.0, -42240.69, 0.0, 10.0, 9.942949 
1.25e+2, 2.2465037e+2, -789759.9, -843144.9, -0.0001734383, 0.000000005200385, 0.000120878525, -789759.9, -51333.586, 0.0, 10.0, 9.929908 
1.25e+2, 2.3458035e+2, -691326.4, -744966.44, -0.00024515422, 0.000000005186453, -0.00008881911, -691326.4, -50213.816, 0.0, 10.0, 9.929577 
1.25e+2, 2.4450338e+2, -603002.3, -667018.8, -0.00015359173, 0.000000005164313, 0.000074708136, -603002.3, -59135.414, 0.0, 10.0, 9.916136 
1.25e+2, 2.5441962e+2, -504249.63, -568343.3, -0.00022984832, 0.0000000051323554, -0.00010673744, -504249.63, -57562.074, 0.0, 10.0, 9.916036 
1.25e+2, 2.643288e+2, -416014.22, -490987.88, -0.00014026942, 0.0000000051184266, 0.00014059353, -416014.22, -66436.55, 0.0, 10.0, 9.901964 
1.25e+2, 2.742313e+2, -316729.0, -391374.78, -0.00020681658, 0.00000000512746, -0.00020344472, -316729.0, -64195.992, 0.0, 10.0, 9.902385 
1.25e+2, 2.841256e+2, -230255.73, -318081.25, -0.00008863415, 0.000000005125712, 0.00022904527, -230255.73, -74686.766, 0.0, 10.0, 9.885439 
1.25e+2, 2.940121e+2, -130549.6, -217765.02, -0.00015072284, 0.0000000051090994, -0.00025334352, -130549.6, -71868.2, 0.0, 10.0, 9.886217 
1.25e+2, 3.0392656e+2, -40805.59, -84750.16, -0.000027449585, 0.0000000050938436, 0.00017313575, -40805.59, -40805.59, 0.0, 10.0, 9.942173 
1.25e+2, 3.138706e+2, -39727.58, -82511.21, -0.00009561092, 0.000000005080749, -0.0000551429, -39727.58, -39727.58, 0.0, 10.0, 9.943684 
1.35e+2, 1.2499334e+2, -1719946.3, -1724224.6, -0.000022445725, 0.000000006044034, 0.00001759815, -1719946.3, -4880.9614, 0.0, 10.0, 9.994328 
1.35e+2, 1.349876e+2, -1622565.8, -1627434.9, -0.00014283332, 0.000000005941168, -0.000068403475, -1622565.8, -5444.1743, 0.0, 10.0, 9.993545 
1.35e+2, 1.4497513e+2, -1534464.4, -1548146.3, -0.00012038744, 0.000000005881625, 0.00007091653, -1534464.4, -15220.682, 0.0, 10.0, 9.981865 
1.35e+2, 1.5495701e+2, -1436736.6, -1450821.9, -0.00020791993, 0.0000000058653162, -0.000056981295, -1436736.6, -15315.5, 0.0, 10.0, 9.981333 
1.35e+2, 1.6493228e+2, -1348685.8, -1371952.4, -0.00016341759, 0.0000000058399423, 0.000047341433, -1348685.8, -25021.992, 0.0, 10.0, 9.969248 
1.35e+2, 1.7490156e+2, -1250727.6, -1274310.1, -0.00027239425, 0.000000005805312, -0.00007383211, -1250727.6, -24762.973, 0.0, 10.0, 9.968835 
1.35e+2, 1.8486421e+2, -1162646.8, -1195720.1, -0.00022055785, 0.0000000057674208, 0.00006614344, -1162646.8, -34316.027, 0.0, 10.0, 9.956395 
1.35e+2, 1.9482064e+2, -1064497.0, -1097833.0, -0.00028946775, 0.0000000057261147, -0.000057657777, -1064497.0, -33739.36, 0.0, 10.0, 9.956052 
1.35e+2, 2.0477042e+2, -976333.0, -1019435.0, -0.00021719748, 0.0000000056924194, 0.00006807687, -976333.0, -43083.105, 0.0, 10.0, 9.943291 
1.35e+2, 2.1471375e+2, -878046.0, -921409.9, -0.00031320498, 0.000000005666964, -0.00012682866, -878046.0, -42240.69, 0.0, 10.0, 9.942949 
1.35e+2, 2.2465037e+2, -789759.9, -843144.9, -0.0002325348, 0.0000000056393508, 0.000120878525, -789759.9, -51333.586, 0.0, 10.0, 9.929908 
1.35e+2, 2.3458035e+2, -691326.4, -744966.44, -0.00030381646, 0.000000005609289, -0.00008881908, -691326.4, -50213.816, 0.0, 10.0, 9.929577 
1.35e+2, 2.4450338e+2, -603002.3, -667018.8, -0.00019904619, 0.0000000055912643, 0.00007470818, -603002.3, -59135.414, 0.0, 10.0, 9.916136 
1.35e+2, 2.5441962e+2, -504249.63, -568343.3, -0.00027466906, 0.0000000055876166, -0.00010673744, -504249.63, -57562.074, 0.0, 10.0, 9.916036 
1.35e+2, 2.643288e+2, -416014.22, -490987.88, -0.00017115806, 0.0000000055746567, 0.00014059352, -416014.22, -66436.55, 0.0, 10.0, 9.901964 
1.35e+2, 2.742313e+2, -316729.0, -391374.78, -0.00023677228, 0.0000000055498077, -0.00020344471, -316729.0, -64195.992, 0.0, 10.0, 9.902385 
1.35e+2, 2.841256e+2, -230255.73, -318081.25, -0.00009925517, 0.0000000055347957, 0.0002290453, -230255.73, -74686.766, 0.0, 10.0, 9.885439 
1.35e+2, 2.940121e+2, -130549.6, -217765.02, -0.00015960298, 0.0000000055332965, -0.0002533435, -130549.6, -71868.2, 0.0, 10.0, 9.886217 
1.35e+2, 3.0392656e+2, -40805.59, -84750.16, -0.000016066242, 0.000000005523037, 0.00017313576, -40805.59, -40805.59, 0.0, 10.0, 9.942173 
1.35e+2, 3.138706e+2, -39727.58, -82511.21, -0.00008185014, 0.000000005499658, -0.000055142897, -39727.58, -39727.58, 0.0, 10.0, 9.943684 
1.45e+2, 1.2499334e+2, -1719946.3, -1724224.6, 0.00003748437, 0.000000006538715, 0.000017598308, -1719946.3, -4880.96, 0.0, 10.0, 9.994328 
1.45e+2, 1.349876e+2, -1622565.8, -1627434.9, -0.000046529898, 0.0000000064149996, -0.00006840348, -1622565.8, -5444.1724, 0.0, 10.0, 9.993545 
1.45e+2, 1.4497513e+2, -1534464.4, -1548146.3, -0.000017306806, 0.0000000063421117, 0.000070916554, -1534464.4, -15220.68, 0.0, 10.0, 9.981865 
1.45e+2, 1.5495701e+2, -1436736.6, -1450821.9, -0.00014062646, 0.0000000063199987, -0.00005698121, -1436736.6, -15315.498, 0.0, 10.0, 9.981333 
1.45e+2, 1.6493228e+2, -1348685.8, -1371952.4, -0.00009591605, 0.0000000062936856, 0.000047341502, -1348685.8, -25021.992, 0.0, 10.0, 9.969248 
1.45e+2, 1.7490156e+2, -1250727.6, -1274310.1, -0.00018880251, 0.000000006263084, -0.00007383212, -1250727.6, -24762.97, 0.0, 10.0, 9.968835 
1.45e+2, 1.8486421e+2, -1162646.8, -1195720.1, -0.00013664446, 0.0000000062247882, 0.00006614343, -1162646.8, -34316.023, 0.0, 10.0, 9.956395 
1.45e+2, 1.9482064e+2, -1064497.0, -1097833.0, -0.0002546788, 0.0000000061784373, -0.00005765771, -1064497.0, -33739.36, 0.0, 10.0, 9.956052 
1.45e+2, 2.0477042e+2, -976333.0, -1019435.0, -0.00018973603, 0.000000006141969, 0.00006807695, -976333.0, -43083.105, 0.0, 10.0, 9.943291 
1.45e+2, 2.1471375e+2, -878046.0, -921409.9, -0.0002718371, 0.0000000061162018, -0.00012682864, -878046.0, -42240.688, 0.0, 10.0, 9.942949 
1.45e+2, 2.2465037e+2, -789759.9, -843144.9, -0.00018437869, 0.000000006085022, 0.00012087852, -789759.9, -51333.582, 0.0, 10.0, 9.929908 
1.45e+2, 2.3458035e+2, -691326.4, -744966.44, -0.0002858936, 0.000000006047707, -0.00008881904, -691326.4, -50213.816, 0.0, 10.0, 9.929577 
1.45e+2, 2.4450338e+2, -603002.3, -667018.8, -0.00018802343, 0.000000006030599, 0.000074708216, -603002.3, -59135.414, 0.0, 10.0, 9.916136 
1.45e+2, 2.5441962e+2, -504249.63, -568343.3, -0.00026421994, 0.0000000060376317, -0.00010673743, -504249.63, -57562.074, 0.0, 10.0, 9.916036 
1.45e+2, 2.643288e+2, -416014.22, -490987.88, -0.0001500016, 0.0000000060225944, 0.0001405935, -416014.22, -66436.55, 0.0, 10.0, 9.901964 
1.45e+2, 2.742313e+2, -316729.0, -391374.78, -0.00023853884, 0.0000000059794085, -0.0002034447, -316729.0, -64195.992, 0.0, 10.0, 9.902385 
1.45e+2, 2.841256e+2, -230255.73, -318081.25, -0.000108415334, 0.0000000059565823, 0.00022904533, -230255.73, -74686.766, 0.0, 10.0, 9.885439 
1.45e+2, 2.940121e+2, -130549.6, -217765.02, -0.00018104784, 0.0000000059617444, -0.00025334346, -130549.6, -71868.2, 0.0, 10.0, 9.886217 
1.45e+2, 3.0392656e+2, -40805.586, -84750.16, -0.00002067428, 0.000000005959081, 0.00017313578, -40805.586, -40805.586, 0.0, 10.0, 9.942173 
1.45e+2, 3.138706e+2, -39727.574, -82511.21, -0.00006954659, 0.0000000059445475, -0.000055142937, -39727.574, -39727.574, 0.0, 10.0, 9.943684 
1.55e+2, 1.2499334e+2, -1719946.3, -1724224.6, -0.000079106314, 0.0000000070506707, 0.000017598493, -1719946.3, -4880.96, 0.0, 10.0, 9.994328 
1.55e+2, 1.349876e+2, -1622565.8, -1627434.9, -0.0001631491, 0.000000006914585, -0.000068403475, -1622565.8, -5444.173, 0.0, 10.0, 9.993545 
1.55e+2, 1.4497513e+2, -1534464.4, -1548146.3, -0.00013014738, 0.000000006827205, 0.0000709166, -1534464.4, -15220.681, 0.0, 10.0, 9.981865 
1.55e+2, 1.5495701e+2, -1436736.6, -1450821.9, -0.00025346168, 0.000000006788451, -0.000056981098, -1436736.6, -15315.498, 0.0, 10.0, 9.981333 
1.55e+2, 1.6493228e+2, -1348685.8, -1371952.4, -0.00020381811, 0.0000000067520447, 0.000047341593, -1348685.8, -25021.992, 0.0, 10.0, 9.969248 
1.55e+2, 1.7490156e+2, -1250727.6, -1274310.1, -0.0002966792, 0.000000006718034, -0.000073832154, -1250727.6, -24762.97, 0.0, 10.0, 9.968835 
1.55e+2, 1.8486421e+2, -1162646.8, -1195720.1, -0.00022596374, 0.0000000066796595, 0.000066143395, -1162646.8, -34316.023, 0.0, 10.0, 9.956395 
1.55e+2, 1.9482064e+2, -1064497.0, -1097833.0, -0.00034378393, 0.000000006636714, -0.000057657624, -1064497.0, -33739.36, 0.0, 10.0, 9.956052 
1.55e+2, 2.0477042e+2, -976333.0, -1019435.0, -0.00026669653, 0.000000006600003, 0.00006807705, -976333.0, -43083.105, 0.0, 10.0, 9.943291 
1.55e+2, 2.1471375e+2, -878046.0, -921409.9, -0.0003485476, 0.0000000065700427, -0.00012682863, -878046.0, -42240.688, 0.0, 10.0, 9.942949 
1.55e+2, 2.2465037e+2, -789759.9, -843144.9, -0.00024719877, 0.0000000065373973, 0.000120878496, -789759.9, -51333.582, 0.0, 10.0, 9.929908 
1.55e+2, 2.3458035e+2, -691326.4, -744966.44, -0.0003482602, 0.000000006501706, -0.00008881902, -691326.4, -50213.816, 0.0, 10.0, 9.929577 
1.55e+2, 2.4450338e+2, -603002.3, -667018.8, -0.00024334114, 0.0000000064823173, 0.00007470826, -603002.3, -59135.414, 0.0, 10.0, 9.916136 
1.55e+2, 2.5441962e+2, -504249.63, -568343.3, -0.0003192, 0.000000006482401, -0.00010673741, -504249.63, -57562.074, 0.0, 10.0, 9.916036 
1.55e+2, 2.643288e+2, -416014.22, -490987.88, -0.00017522814, 0.0000000064622396, 0.00014059352, -416014.22, -66436.55, 0.0, 10.0, 9.901964 
1.55e+2, 2.742313e+2, -316729.0, -391374.78, -0.00026177173, 0.000000006416262, -0.0002034447, -316729.0, -64195.992, 0.0, 10.0, 9.902385 
1.55e+2, 2.841256e+2, -230255.73, -318081.25, -0.0001263085, 0.0000000063910712, 0.00022904534, -230255.73, -74686.766, 0.0, 10.0, 9.885439 
1.55e+2, 2.940121e+2, -130549.6, -217765.02, -0.00019846123, 0.0000000063944428, -0.00025334343, -130549.6, -71868.2, 0.0, 10.0, 9.886217 
1.55e+2, 3.0392656e+2, -40805.586, -84750.16, -0.000020921945, 0.000000006401974, 0.00017313578, -40805.586, -40805.586, 0.0, 10.0, 9.942173 
1.55e+2, 3.138706e+2, -39727.574, -82511.21, -0.00006778058, 0.0000000064154184, -0.000055143028, -39727.574, -39727.574, 0.0, 10.0, 9.943684 
1.65e+2, 1.2499334e+2, -1719946.3, -1724224.6, 0.0000658615, 0.000000007542183, 0.000017598544, -1719946.3, -4880.958, 0.0, 10.0, 9.994328 
1.65e+2, 1.349876e+2, -1622565.8, -1627434.9, -0.00006128571, 0.000000007413568, -0.00006840343, -1622565.8, -5444.171, 0.0, 10.0, 9.993545 
1.65e+2, 1.4497513e+2, -1534464.4, -1548146.3, -0.00003929998, 0.000000007325818, 0.000070916714, -1534464.4, -15220.679, 0.0, 10.0, 9.981865 
1.65e+2, 1.5495701e+2, -1436736.6, -1450821.9, -0.00016530874, 0.000000007278794, -0.000056981044, -1436736.6, -15315.496, 0.0, 10.0, 9.981333 
1.65e+2, 1.6493228e+2, -1348685.8, -1371952.4, -0.000115351046, 0.000000007229271, 0.000047341622, -1348685.8, -25021.99, 0.0, 10.0, 9.969248 
1.65e+2, 1.7490156e+2, -1250727.6, -1274310.1, -0.00022163006, 0.0000000071771944, -0.00007383211, -1250727.6, -24762.969, 0.0, 10.0, 9.968835 
1.65e+2, 1.8486421e+2, -1162646.8, -1195720.1, -0.00015229396, 0.000000007134149, 0.00006614344, -1162646.8, -34316.023, 0.0, 10.0, 9.956395 
1.65e+2, 1.9482064e+2, -1064497.0, -1097833.0, -0.00028210293, 0.0000000071005473, -0.000057657595, -1064497.0, -33739.355, 0.0, 10.0, 9.956052 
1.65e+2, 2.0477042e+2, -976333.0, -1019435.0, -0.00020830394, 0.0000000070653603, 0.00006807708, -976333.0, -43083.1, 0.0, 10.0, 9.943291 
1.65e+2, 2.1471375e+2, -878046.0, -921409.9, -0.00031332206, 0.000000007028452, -0.0001268286, -878046.0, -42240.688, 0.0, 10.0, 9.942949 
1.65e+2, 2.2465037e+2, -789759.9, -843144.9, -0.00021189328, 0.000000006995974, 0.00012087853, -789759.9, -51333.582, 0.0, 10.0, 9.929908 
1.65e+2, 2.3458035e+2, -691326.4, -744966.44, -0.0003154014, 0.0000000069685075, -0.000088819004, -691326.4, -50213.816, 0.0, 10.0, 9.929577 
1.65e+2, 2.4450338e+2, -603002.3, -667018.8, -0.00021094663, 0.000000006942749, 0.00007470827, -603002.3, -59135.414, 0.0, 10.0, 9.916136 
1.65e+2, 2.5441962e+2, -504249.63, -568343.3, -0.00031596003, 0.0000000069190205, -0.00010673738, -504249.63, -57562.07, 0.0, 10.0, 9.916036 
1.65e+2, 2.643288e+2, -416014.22, -490987.88, -0.00017106191, 0.00000000689539, 0.00014059355, -416014.22, -66436.55, 0.0, 10.0, 9.901964 
1.65e+2, 2.742313e+2, -316729.0, -391374.78, -0.00025609412, 0.0000000068718733, -0.00020344468, -316729.0, -64195.992, 0.0, 10.0, 9.902385 
1.65e+2, 2.841256e+2, -230255.73, -318081.25, -0.000111703695, 0.0000000068550974, 0.00022904534, -230255.73, -74686.766, 0.0, 10.0, 9.885439 
1.65e+2, 2.940121e+2, -130549.6, -217765.02, -0.00019222301, 0.0000000068475403, -0.00025334343, -130549.6, -71868.2, 0.0, 10.0, 9.886217 
1.65e+2, 3.0392656e+2, -40805.586, -84750.16, -0.00000932368, 0.0000000068514305, 0.00017313578, -40805.586, -40805.586, 0.0, 10.0, 9.942173 
1.65e+2, 3.138706e+2, -39727.574, -82511.21, -0.0000661286, 0.00000000687223, -0.000055143046, -39727.574, -39727.574, 0.0, 10.0, 9.943684 
1.75e+2, 1.2499334e+2, -1719946.3, -1724224.6, -0.00006792641, 0.000000008013251, 0.000017598455, -1719946.3, -4880.9585, 0.0, 10.0, 9.994328 
1.75e+2, 1.349876e+2, -1622565.8, -1627434.9, -0.00019510645, 0.000000007911948, -0.000068403344, -1622565.8, -5444.1714, 0.0, 10.0, 9.993545 
1.75e+2, 1.4497513e+2, -1534464.4, -1548146.3, -0.00015391885, 0.00000000783795, 0.000070916896, -1534464.4, -15220.679, 0.0, 10.0, 9.981865 
1.75e+2, 1.5495703e+2, -1436736.6, -1450821.9, -0.0002798978, 0.000000007791027, -0.00005698105, -1436736.6, -15315.497, 0.0, 10.0, 9.981333 
1.75e+2, 1.6493228e+2, -1348685.8, -1371952.4, -0.00021912207, 0.000000007725365, 0.000047341593, -1348685.8, -25021.99, 0.0, 10.0, 9.969248 
1.75e+2, 1.7490156e+2, -1250727.6, -1274310.1, -0.00032534468, 0.0000000076405655, -0.00007383199, -1250727.6, -24762.969, 0.0, 10.0, 9.968835 
1.75e+2, 1.8486421e+2, -1162646.8, -1195720.1, -0.00025256313, 0.000000007588256, 0.00006614356, -1162646.8, -34316.023, 0.0, 10.0, 9.956395 
1.75e+2, 1.9482064e+2, -1064497.0, -1097833.0, -0.00038233298, 0.000000007569938, -0.00005765762, -1064497.0, -33739.355, 0.0, 10.0, 9.956052 
1.75e+2, 2.0477042e+2, -976333.0, -1019435.0, -0.00029288977, 0.00000000753804, 0.00006807703, -976333.0, -43083.1, 0.0, 10.0, 9.943291 
1.75e+2, 2.1471375e+2, -878046.0, -921409.9, -0.00039758562, 0.000000007491431, -0.00012682853, -878046.0, -42240.688, 0.0, 10.0, 9.942949 
1.75e+2, 2.2465037e+2, -789759.9, -843144.9, -0.0002827953, 0.000000007460753, 0.00012087863, -789759.9, -51333.582, 0.0, 10.0, 9.929908 
1.75e+2, 2.3458035e+2, -691326.4, -744966.44, -0.0003858673, 0.0000000074481115, -0.000088819004, -691326.4, -50213.816, 0.0, 10.0, 9.929577 
1.75e+2, 2.4450338e+2, -603002.3, -667018.8, -0.00025957313, 0.000000007411894, 0.00007470825, -603002.3, -59135.414, 0.0, 10.0, 9.916136 
1.75e+2, 2.5441962e+2, -504249.63, -568343.3, -0.0003635381, 0.0000000073474897, -0.00010673733, -504249.63, -57562.07, 0.0, 10.0, 9.916036 
1.75e+2, 2.643288e+2, -416014.22, -490987.88, -0.00021360535, 0.000000007322045, 0.00014059362, -416014.22, -66436.55, 0.0, 10.0, 9.901964 
1.75e+2, 2.742313e+2, -316729.0, -391374.78, -0.00029830125, 0.000000007346242, -0.00020344467, -316729.0, -64195.992, 0.0, 10.0, 9.902385 
1.75e+2, 2.841256e+2, -230255.73, -318081.25, -0.0001341182, 0.0000000073486603, 0.00022904531, -230255.73, -74686.766, 0.0, 10.0, 9.885439 
1.75e+2, 2.940121e+2, -130549.6, -217765.02, -0.00021285558, 0.0000000073210367, -0.00025334346, -130549.6, -71868.2, 0.0, 10.0, 9.886217 
1.75e+2, 3.0392656e+2, -40805.586, -84750.16, -0.00001505016, 0.0000000073074498, 0.00017313576, -40805.586, -40805.586, 0.0, 10.0, 9.942173 
1.75e+2, 3.138706e+2, -39727.574, -82511.21, -0.0000701068, 0.000000007314982, -0.000055142995, -39727.574, -39727.574, 0.0, 10.0, 9.943684 
1.85e+2, 1.2499334e+2, -1719946.3, -1724224.6, 0.00014539078, 0.000000008505497, 0.000017598437, -1719946.3, -4880.9565, 0.0, 10.0, 9.994328 
1.85e+2, 1.349876e+2, -1622565.8, -1627434.9, -0.000048964364, 0.000000008394668, -0.00006840331, -1622565.8, -5444.1694, 0.0, 10.0, 9.993545 
1.85e+2, 1.4497513e+2, -1534464.4, -1548146.3, -0.000024751289, 0.000000008321116, 0.00007091702, -1534464.4, -15220.677, 0.0, 10.0, 9.981865 
1.85e+2, 1.5495703e+2, -1436736.6, -1450821.9, -0.00014993819, 0.000000008284682, -0.000056981047, -1436736.6, -15315.495, 0.0, 10.0, 9.981333 
1.85e+2, 1.6493228e+2, -1348685.8, -1371952.4, -0.00010137549, 0.000000008221132, 0.00004734159, -1348685.8, -25021.988, 0.0, 10.0, 9.969248 
1.85e+2, 1.7490156e+2, -1250727.6, -1274310.1, -0.00026834497, 0.000000008129893, -0.00007383188, -1250727.6, -24762.967, 0.0, 10.0, 9.968835 
1.85e+2, 1.8486421e+2, -1162646.8, -1195720.1, -0.00020555884, 0.000000008071345, 0.00006614368, -1162646.8, -34316.02, 0.0, 10.0, 9.956395 
1.85e+2, 1.9482064e+2, -1064497.0, -1097833.0, -0.00030348377, 0.000000008047, -0.000057657617, -1064497.0, -33739.355, 0.0, 10.0, 9.956052 
1.85e+2, 2.0477042e+2, -976333.0, -1019435.0, -0.00020355132, 0.000000008011452, 0.00006807702, -976333.0, -43083.1, 0.0, 10.0, 9.943291 
1.85e+2, 2.1471375e+2, -878046.0, -921409.9, -0.00035113792, 0.000000007963762, -0.00012682847, -878046.0, -42240.688, 0.0, 10.0, 9.942949 
1.85e+2, 2.2465037e+2, -789759.9, -843144.9, -0.00024856773, 0.000000007930688, 0.00012087869, -789759.9, -51333.582, 0.0, 10.0, 9.929908 
1.85e+2, 2.3458035e+2, -691326.4, -744966.44, -0.0003586899, 0.000000007914157, -0.00008881897, -691326.4, -50213.813, 0.0, 10.0, 9.929577 
1.85e+2, 2.4450338e+2, -603002.3, -667018.8, -0.00022186973, 0.000000007876249, 0.00007470827, -603002.3, -59135.41, 0.0, 10.0, 9.916136 
1.85e+2, 2.5441962e+2, -504249.63, -568343.3, -0.00033768365, 0.0000000078127815, -0.00010673731, -504249.63, -57562.07, 0.0, 10.0, 9.916036 
1.85e+2, 2.643288e+2, -416014.22, -490987.88, -0.00019527043, 0.000000007789338, 0.00014059363, -416014.22, -66436.54, 0.0, 10.0, 9.901964 
1.85e+2, 2.742313e+2, -316729.0, -391374.78, -0.000291058, 0.000000007816886, -0.00020344465, -316729.0, -64195.99, 0.0, 10.0, 9.902385 
1.85e+2, 2.841256e+2, -230255.73, -318081.25, -0.0001159883, 0.000000007820087, 0.00022904531, -230255.73, -74686.766, 0.0, 10.0, 9.885439 
1.85e+2, 2.940121e+2, -130549.6, -217765.0, -0.00020915415, 0.000000007789727, -0.0002533435, -130549.6, -71868.2, 0.0, 10.0, 9.886217 
1.85e+2, 3.0392656e+2, -40805.586, -84750.16, -0.000024148136, 0.000000007767352, 0.00017313576, -40805.586, -40805.586, 0.0, 10.0, 9.942173 
1.85e+2, 3.138706e+2, -39727.574, -82511.21, -0.00012985796, 0.000000007757151, -0.000055142933, -39727.574, -39727.574, 0.0, 10.0, 9.943684 
1.95e+2, 1.2499334e+2, -1719946.3, -1724224.6, -0.00000085877775, 0.00000000901892, 0.000017598488, -1719946.3, -4880.957, 0.0, 10.0, 9.994328 
1.95e+2, 1.349876e+2, -1622565.8, -1627434.9, -0.00019525038, 0.0000000088617265, -0.0000684033, -1622565.8, -5444.17, 0.0, 10.0, 9.993545 
1.95e+2, 1.4497513e+2, -1534464.4, -1548146.3, -0.0001587051, 0.0000000087753165, 0.00007091709, -1534464.4, -15220.677, 0.0, 10.0, 9.981865 
1.95e+2, 1.5495703e+2, -1436736.6, -1450821.9, -0.00028387303, 0.000000008759758, -0.000056981033, -1436736.6, -15315.495, 0.0, 10.0, 9.981333 
1.95e+2, 1.6493228e+2, -1348685.8, -1371952.4, -0.00021232494, 0.000000008716572, 0.00004734161, -1348685.8, -25021.988, 0.0, 10.0, 9.969248 
1.95e+2, 1.7490156e+2, -1250727.6, -1274310.1, -0.00037917375, 0.000000008645177, -0.000073831776, -1250727.6, -24762.969, 0.0, 10.0, 9.968835 
1.95e+2, 1.8486421e+2, -1162646.8, -1195720.1, -0.00030930774, 0.0000000085834175, 0.00006614379, -1162646.8, -34316.023, 0.0, 10.0, 9.956395 
1.95e+2, 1.9482064e+2, -1064497.0, -1097833.0, -0.00040715147, 0.000000008531734, -0.000057657577, -1064497.0, -33739.355, 0.0, 10.0, 9.956052 
1.95e+2, 2.0477042e+2, -976333.0, -1019435.0, -0.00029447212, 0.000000008485594, 0.000068077024, -976333.0, -43083.1, 0.0, 10.0, 9.943291 
1.95e+2, 2.1471375e+2, -878046.0, -921409.9, -0.0004417963, 0.000000008445447, -0.00012682845, -878046.0, -42240.688, 0.0, 10.0, 9.942949 
1.95e+2, 2.2465037e+2, -789759.9, -843144.9, -0.0003246816, 0.000000008405779, 0.000120878736, -789759.9, -51333.582, 0.0, 10.0, 9.929908 
1.95e+2, 2.3458035e+2, -691326.4, -744966.44, -0.00043432898, 0.000000008366644, -0.00008881891, -691326.4, -50213.813, 0.0, 10.0, 9.929577 
1.95e+2, 2.4450338e+2, -603002.3, -667018.8, -0.00027897602, 0.000000008335813, 0.00007470832, -603002.3, -59135.41, 0.0, 10.0, 9.916136 
1.95e+2, 2.5441962e+2, -504249.63, -568343.3, -0.00039390047, 0.0000000083148946, -0.000106737316, -504249.63, -57562.07, 0.0, 10.0, 9.916036 
1.95e+2, 2.643288e+2, -416014.22, -490987.88, -0.00024758014, 0.0000000082972695, 0.00014059362, -416014.22, -66436.54, 0.0, 10.0, 9.901964 
1.95e+2, 2.742313e+2, -316729.0, -391374.78, -0.00034310712, 0.000000008283804, -0.00020344464, -316729.0, -64195.992, 0.0, 10.0, 9.902385 
1.95e+2, 2.841256e+2, -230255.73, -318081.25, -0.0001392065, 0.000000008269378, 0.00022904536, -230255.73, -74686.766, 0.0, 10.0, 9.885439 
1.95e+2, 2.940121e+2, -130549.6, -217765.02, -0.00022977607, 0.000000008253611, -0.00025334346, -130549.6, -71868.2, 0.0, 10.0, 9.886217 
1.95e+2, 3.0392656e+2, -40805.586, -84750.16, -0.000022512424, 0.0000000082311375, 0.00017313578, -40805.586, -40805.586, 0.0, 10.0, 9.942173 
1.95e+2, 3.138706e+2, -39727.574, -82511.21, -0.00012561103, 0.000000008198738, -0.00005514286, -39727.574, -39727.574, 0.0, 10.0, 9.943684 
2.05e+2, 1.2499334e+2, -1719946.3, -1724224.6, 0.00008940974, 0.000000009554938, 0.00001759867, -1719946.3, -4880.9546, 0.0, 10.0, 9.994328 
2.05e+2, 1.349876e+2, -1622565.8, -1627434.9, -0.000056603672, 0.000000009363101, -0.000068403315, -1622565.8, -5444.1675, 0.0, 10.0, 9.993545 
2.05e+2, 1.4497513e+2, -1534464.4, -1548146.3, -0.000014515765, 0.000000009258588, 0.000070917136, -1534464.4, -15220.675, 0.0, 10.0, 9.981865 
2.05e+2, 1.5495703e+2, -1436736.6, -1450821.9, -0.00018763833, 0.00000000924158, -0.00005698093, -1436736.6, -15315.493, 0.0, 10.0, 9.981333 
2.05e+2, 1.6493228e+2, -1348685.8, -1371952.4, -0.000119192046, 0.000000009208442, 0.000047341702, -1348685.8, -25021.986, 0.0, 10.0, 9.969248 
2.05e+2, 1.7490156e+2, -1250727.6, -1274310.1, -0.00027079822, 0.000000009158834, -0.00007383176, -1250727.6, -24762.967, 0.0, 10.0, 9.968835 
2.05e+2, 1.8486421e+2, -1162646.8, -1195720.1, -0.00019961841, 0.000000009098063, 0.000066143795, -1162646.8, -34316.02, 0.0, 10.0, 9.956395 
2.05e+2, 1.9482064e+2, -1064497.0, -1097833.0, -0.0003527477, 0.000000009025605, -0.00005765749, -1064497.0, -33739.35, 0.0, 10.0, 9.956052 
2.05e+2, 2.0477042e+2, -976333.0, -1019435.0, -0.00024849185, 0.000000008970977, 0.00006807712, -976333.0, -43083.098, 0.0, 10.0, 9.943291 
2.05e+2, 2.1471375e+2, -878046.0, -921409.9, -0.00037712397, 0.000000008935653, -0.00012682842, -878046.0, -42240.684, 0.0, 10.0, 9.942949 
2.05e+2, 2.2465037e+2, -789759.9, -843144.9, -0.00025191408, 0.000000008891943, 0.000120878736, -789759.9, -51333.58, 0.0, 10.0, 9.929908 
2.05e+2, 2.3458035e+2, -691326.4, -744966.44, -0.00039548078, 0.000000008838728, -0.00008881886, -691326.4, -50213.813, 0.0, 10.0, 9.929577 
2.05e+2, 2.4450338e+2, -603002.3, -667018.8, -0.00024590082, 0.000000008812662, 0.00007470837, -603002.3, -59135.41, 0.0, 10.0, 9.916136 
2.05e+2, 2.5441962e+2, -504249.63, -568343.3, -0.0003554672, 0.000000008819029, -0.00010673731, -504249.63, -57562.07, 0.0, 10.0, 9.916036 
2.05e+2, 2.643288e+2, -416014.22, -490987.88, -0.00019925594, 0.0000000088006225, 0.00014059362, -416014.22, -66436.54, 0.0, 10.0, 9.901964 
2.05e+2, 2.742313e+2, -316729.0, -391374.78, -0.00032937562, 0.000000008750605, -0.00020344462, -316729.0, -64195.99, 0.0, 10.0, 9.902385 
2.05e+2, 2.841256e+2, -230255.73, -318081.25, -0.00013944643, 0.000000008720176, 0.00022904538, -230255.73, -74686.76, 0.0, 10.0, 9.885439 
2.05e+2, 2.940121e+2, -130549.59, -217765.0, -0.0002493593, 0.000000008716693, -0.00025334343, -130549.59, -71868.2, 0.0, 10.0, 9.886217 
2.05e+2, 3.0392656e+2, -40805.582, -84750.16, -0.000028304199, 0.000000008704851, 0.0001731358, -40805.582, -40805.582, 0.0, 10.0, 9.942173 
2.05e+2, 3.138706e+2, -39727.57, -82511.21, -0.00011311976, 0.000000008680364, -0.000055142886, -39727.57, -39727.57, 0.0, 10.0, 9.943684 
2.15e+2, 1.2499334e+2, -1719946.3, -1724224.6, -0.00004876476, 0.000000010113553, 0.000017598986, -1719946.3, -4880.955, 0.0, 10.0, 9.994328 
2.15e+2, 1.349876e+2, -1622565.8, -1627434.9, -0.00019481218, 0.000000009898794, -0.000068403344, -1622565.8, -5444.168, 0.0, 10.0, 9.993545 
2.15e+2, 1.4497513e+2, -1534464.4, -1548146.3, -0.00015608745, 0.000000009770929, 0.00007091716, -1534464.4, -15220.675, 0.0, 10.0, 9.981865 
2.15e+2, 1.5495703e+2, -1436736.6, -1450821.9, -0.0003292159, 0.000000009730148, -0.000056980745, -1436736.6, -15315.493, 0.0, 10.0, 9.981333 
2.15e+2, 1.6493228e+2, -1348685.8, -1371952.4, -0.00025748194, 0.000000009696741, 0.000047341862, -1348685.8, -25021.986, 0.0, 10.0, 9.969248 
2.15e+2, 1.7490156e+2, -1250727.6, -1274310.1, -0.00040907142, 0.000000009670863, -0.000073831834, -1250727.6, -24762.967, 0.0, 10.0, 9.968835 
2.15e+2, 1.8486421e+2, -1162646.8, -1195720.1, -0.00030477848, 0.000000009615282, 0.000066143715, -1162646.8, -34316.02, 0.0, 10.0, 9.956395 
2.15e+2, 1.9482064e+2, -1064497.0, -1097833.0, -0.00045752505, 0.000000009528612, -0.00005765735, -1064497.0, -33739.35, 0.0, 10.0, 9.956052 
2.15e+2, 2.0477042e+2, -976333.0, -1019435.0, -0.00034349583, 0.000000009467601, 0.000068077294, -976333.0, -43083.098, 0.0, 10.0, 9.943291 
2.15e+2, 2.1471375e+2, -878046.0, -921409.9, -0.000471927, 0.000000009434379, -0.00012682841, -878046.0, -42240.684, 0.0, 10.0, 9.942949 
2.15e+2, 2.2465037e+2, -789759.9, -843144.9, -0.00033330073, 0.00000000938918, 0.00012087871, -789759.9, -51333.58, 0.0, 10.0, 9.929908 
2.15e+2, 2.3458035e+2, -691326.4, -744966.44, -0.00047642953, 0.000000009330409, -0.00008881884, -691326.4, -50213.813, 0.0, 10.0, 9.929577 
2.15e+2, 2.4450338e+2, -603002.3, -667018.8, -0.0003244264, 0.000000009306795, 0.00007470841, -603002.3, -59135.41, 0.0, 10.0, 9.916136 
2.15e+2, 2.5441962e+2, -504249.63, -568343.3, -0.00043387755, 0.000000009325184, -0.00010673729, -504249.63, -57562.07, 0.0, 10.0, 9.916036 
2.15e+2, 2.643288e+2, -416014.22, -490987.88, -0.00023611238, 0.0000000092993995, 0.00014059362, -416014.22, -66436.54, 0.0, 10.0, 9.901964 
2.15e+2, 2.742313e+2, -316729.0, -391374.78, -0.0003634474, 0.000000009217288, -0.0002034446, -316729.0, -64195.99, 0.0, 10.0, 9.902385 
2.15e+2, 2.841256e+2, -230255.73, -318081.25, -0.00017121182, 0.00000000917248, 0.00022904543, -230255.73, -74686.766, 0.0, 10.0, 9.885439 
2.15e+2, 2.940121e+2, -130549.59, -217765.02, -0.0002809185, 0.000000009178975, -0.00025334334, -130549.59, -71868.2, 0.0, 10.0, 9.886217 
2.15e+2, 3.0392656e+2, -40805.582, -84750.16, -0.0000428014, 0.000000009188493, 0.00017313585, -40805.582, -40805.582, 0.0, 10.0, 9.942173 
2.15e+2, 3.138706e+2, -39727.57, -82511.21, -0.00012561578, 0.000000009202031, -0.000055143013, -39727.57, -39727.57, 0.0, 10.0, 9.943684 
2.25e+2, 1.2499334e+2, -1719946.3, -1724224.6, 0.00006539962, 0.000000010645136, 0.000017599159, -1719946.3, -4880.952, 0.0, 10.0, 9.994328 
2.25e+2, 1.349876e+2, -1622565.8, -1627434.9, -0.00009022397, 0.000000010456554, -0.0000684033, -1622565.8, -5444.165, 0.0, 10.0, 9.993545 
2.25e+2, 1.4497513e+2, -1534464.4, -1548146.3, -0.00004970325, 0.000000010331924, 0.00007091728, -1534464.4, -15220.673, 0.0, 10.0, 9.981865 
2.25e+2, 1.5495703e+2, -1436736.6, -1450821.9, -0.00023557164, 0.000000010271299, -0.00005698062, -1436736.6, -15315.491, 0.0, 10.0, 9.981333 
2.25e+2, 1.6493228e+2, -1348685.8, -1371952.4, -0.00015431589, 0.000000010216339, 0.000047341946, -1348685.8, -25021.984, 0.0, 10.0, 9.969248 
2.25e+2, 1.7490156e+2, -1250727.6, -1274310.1, -0.00028615785, 0.000000010167159, -0.00007383182, -1250727.6, -24762.963, 0.0, 10.0, 9.968835 
2.25e+2, 1.8486421e+2, -1162646.8, -1195720.1, -0.00017469797, 0.000000010108995, 0.00006614372, -1162646.8, -34316.016, 0.0, 10.0, 9.956395 
2.25e+2, 1.9482064e+2, -1064497.0, -1097833.0, -0.00037504983, 0.000000010041425, -0.00005765728, -1064497.0, -33739.35, 0.0, 10.0, 9.956052 
2.25e+2, 2.0477042e+2, -976333.0, -1019435.0, -0.00027660534, 0.000000009986019, 0.00006807739, -976333.0, -43083.098, 0.0, 10.0, 9.943291 
2.25e+2, 2.1471375e+2, -878046.0, -921409.9, -0.0004157073, 0.0000000099437845, -0.00012682835, -878046.0, -42240.684, 0.0, 10.0, 9.942949 
2.25e+2, 2.2465037e+2, -789759.9, -843144.9, -0.0002672096, 0.000000009897866, 0.00012087874, -789759.9, -51333.58, 0.0, 10.0, 9.929908 
2.25e+2, 2.3458035e+2, -691326.4, -744966.44, -0.0004074862, 0.000000009847765, -0.00008881882, -691326.4, -50213.81, 0.0, 10.0, 9.929577 
2.25e+2, 2.4450338e+2, -603002.3, -667018.8, -0.0002609446, 0.000000009815742, 0.00007470843, -603002.3, -59135.406, 0.0, 10.0, 9.916136 
2.25e+2, 2.5441962e+2, -504249.63, -568343.3, -0.00041364107, 0.0000000098053095, -0.000106737236, -504249.63, -57562.066, 0.0, 10.0, 9.916036 
2.25e+2, 2.643288e+2, -416014.22, -490987.88, -0.00021435446, 0.000000009773073, 0.00014059368, -416014.22, -66436.54, 0.0, 10.0, 9.901964 
2.25e+2, 2.742313e+2, -316729.0, -391374.78, -0.00033899024, 0.000000009713025, -0.00020344458, -316729.0, -64195.99, 0.0, 10.0, 9.902385 
2.25e+2, 2.841256e+2, -230255.73, -318081.25, -0.00013955343, 0.000000009678221, 0.00022904543, -230255.73, -74686.76, 0.0, 10.0, 9.885439 
2.25e+2, 2.940121e+2, -130549.59, -217765.0, -0.0002531893, 0.0000000096780814, -0.0002533433, -130549.59, -71868.2, 0.0, 10.0, 9.886217 
2.25e+2, 3.0392656e+2, -40805.582, -84750.16, 0.0000012366681, 0.000000009687488, 0.00017313584, -40805.582, -40805.582, 0.0, 10.0, 9.942173 
2.25e+2, 3.138706e+2, -39727.57, -82511.21, -0.00007086371, 0.000000009710747, -0.00005514308, -39727.57, -39727.57, 0.0, 10.0, 9.943684 
2.35e+2, 1.2499334e+2, -1719946.3, -1724224.6, -0.000102175014, 0.000000011149689, 0.000017599188, -1719946.3, -4880.9526, 0.0, 10.0, 9.994328 
2.35e+2, 1.349876e+2, -1622565.8, -1627434.9, -0.0002578397, 0.000000011036383, -0.000068403184, -1622565.8, -5444.1655, 0.0, 10.0, 9.993545 
2.35e+2, 1.4497513e+2, -1534464.4, -1548146.3, -0.00018919165, 0.000000010941571, 0.00007091751, -1534464.4, -15220.673, 0.0, 10.0, 9.981865 
2.35e+2, 1.5495703e+2, -1436736.6, -1450821.9, -0.00037501607, 0.000000010865034, -0.00005698057, -1436736.6, -15315.491, 0.0, 10.0, 9.981333 
2.35e+2, 1.6493228e+2, -1348685.8, -1371952.4, -0.00028568078, 0.000000010767234, 0.000047341957, -1348685.8, -25021.984, 0.0, 10.0, 9.969248 
2.35e+2, 1.7490156e+2, -1250727.6, -1274310.1, -0.00041748074, 0.000000010647719, -0.00007383172, -1250727.6, -24762.965, 0.0, 10.0, 9.968835 
2.35e+2, 1.8486421e+2, -1162646.8, -1195720.1, -0.00029952207, 0.000000010579203, 0.000066143824, -1162646.8, -34316.02, 0.0, 10.0, 9.956395 
2.35e+2, 1.9482064e+2, -1064497.0, -1097833.0, -0.00049979944, 0.000000010564046, -0.000057657275, -1064497.0, -33739.35, 0.0, 10.0, 9.956052 
2.35e+2, 2.0477042e+2, -976333.0, -1019435.0, -0.00038288737, 0.000000010526232, 0.00006807739, -976333.0, -43083.098, 0.0, 10.0, 9.943291 
2.35e+2, 2.1471375e+2, -878046.0, -921409.9, -0.0005216088, 0.0000000104638715, -0.00012682825, -878046.0, -42240.684, 0.0, 10.0, 9.942949 
2.35e+2, 2.2465037e+2, -789759.9, -843144.9, -0.0003581645, 0.000000010418, 0.00012087884, -789759.9, -51333.58, 0.0, 10.0, 9.929908 
2.35e+2, 2.3458035e+2, -691326.4, -744966.44, -0.0004979532, 0.000000010390796, -0.00008881882, -691326.4, -50213.813, 0.0, 10.0, 9.929577 
2.35e+2, 2.4450338e+2, -603002.3, -667018.8, -0.00032822727, 0.000000010339502, 0.00007470842, -603002.3, -59135.406, 0.0, 10.0, 9.916136 
2.35e+2, 2.5441962e+2, -504249.63, -568343.3, -0.00047981087, 0.000000010259405, -0.000106737156, -504249.63, -57562.066, 0.0, 10.0, 9.916036 
2.35e+2, 2.643288e+2, -416014.22, -490987.88, -0.00027112715, 0.000000010221644, 0.00014059378, -416014.22, -66436.54, 0.0, 10.0, 9.901964 
2.35e+2, 2.742313e+2, -316729.0, -391374.78, -0.00039513438, 0.000000010237817, -0.00020344455, -316729.0, -64195.99, 0.0, 10.0, 9.902385 
2.35e+2, 2.841256e+2, -230255.73, -318081.25, -0.00018139923, 0.0000000102373985, 0.0002290454, -230255.73, -74686.76, 0.0, 10.0, 9.885439 
2.35e+2, 2.940121e+2, -130549.59, -217765.02, -0.00029374854, 0.0000000102140145, -0.00025334337, -130549.59, -71868.2, 0.0, 10.0, 9.886217 
2.35e+2, 3.0392656e+2, -40805.582, -84750.16, -0.000023910521, 0.000000010201837, 0.0001731358, -40805.582, -40805.582, 0.0, 10.0, 9.942173 
2.35e+2, 3.138706e+2, -39727.57, -82511.21, -0.0000942036, 0.00000001020651, -0.000055143075, -39727.57, -39727.57, 0.0, 10.0, 9.943684 
2.45e+2, 1.2499334e+2, -1719946.3, -1724224.6, 0.00014252009, 0.000000011710781, 0.000017599203, -1719946.3, -4880.9497, 0.0, 10.0, 9.994328 
2.45e+2, 1.349876e+2, -1622565.8, -1627434.9, -0.00009514094, 0.000000011590943, -0.000068403104, -1622565.8, -5444.1626, 0.0, 10.0, 9.993545 
2.45e+2, 1.4497513e+2, -1534464.4, -1548146.3, -0.00003221638, 0.00000001149736, 0.0000709177, -1534464.4, -15220.671, 0.0, 10.0, 9.981865 
2.45e+2, 1.5495703e+2, -1436736.6, -1450821.9, -0.00020237573, 0.0000000114298775, -0.00005698057, -1436736.6, -15315.488, 0.0, 10.0, 9.981333 
2.45e+2, 1.6493228e+2, -1348685.8, -1371952.4, -0.00012468445, 0.00000001132424, 0.000047341946, -1348685.8, -25021.982, 0.0, 10.0, 9.969248 
2.45e+2, 1.7490156e+2, -1250727.6, -1274310.1, -0.00033963707, 0.000000011179641, -0.000073831565, -1250727.6, -24762.96, 0.0, 10.0, 9.968835 
2.45e+2, 1.8486421e+2, -1162646.8, -1195720.1, -0.00023774114, 0.0000000111026885, 0.00006614399, -1162646.8, -34316.016, 0.0, 10.0, 9.956395 
2.45e+2, 1.9482064e+2, -1064497.0, -1097833.0, -0.00038272873, 0.000000011096514, -0.000057657264, -1064497.0, -33739.348, 0.0, 10.0, 9.956052 
2.45e+2, 2.0477042e+2, -976333.0, -1019435.0, -0.00024239768, 0.000000011058713, 0.00006807735, -976333.0, -43083.094, 0.0, 10.0, 9.943291 
2.45e+2, 2.1471375e+2, -878046.0, -921409.9, -0.00043341037, 0.000000010986648, -0.0001268282, -878046.0, -42240.68, 0.0, 10.0, 9.942949 
2.45e+2, 2.2465037e+2, -789759.9, -843144.9, -0.00029201305, 0.000000010937561, 0.00012087892, -789759.9, -51333.574, 0.0, 10.0, 9.929908 
2.45e+2, 2.3458035e+2, -691326.4, -744966.44, -0.00045460725, 0.000000010914491, -0.00008881876, -691326.4, -50213.81, 0.0, 10.0, 9.929577 
2.45e+2, 2.4450338e+2, -603002.3, -667018.8, -0.00027600108, 0.000000010859495, 0.00007470846, -603002.3, -59135.406, 0.0, 10.0, 9.916136 
2.45e+2, 2.5441962e+2, -504249.63, -568343.3, -0.00043237096, 0.000000010766328, -0.00010673712, -504249.63, -57562.066, 0.0, 10.0, 9.916036 
2.45e+2, 2.643288e+2, -416014.22, -490987.88, -0.00022776458, 0.000000010730436, 0.0001405938, -416014.22, -66436.54, 0.0, 10.0, 9.901964 
2.45e+2, 2.742313e+2, -316729.0, -391374.78, -0.00035590952, 0.000000010767512, -0.00020344454, -316729.0, -64195.984, 0.0, 10.0, 9.902385 
2.45e+2, 2.841256e+2, -230255.73, -318081.25, -0.0001264951, 0.000000010775229, 0.0002290454, -230255.73, -74686.76, 0.0, 10.0, 9.885439 
2.45e+2, 2.940121e+2, -130549.59, -217765.0, -0.0002543799, 0.0000000107424185, -0.0002533434, -130549.59, -71868.195, 0.0, 10.0, 9.886217 
2.45e+2, 3.0392656e+2, -40805.58, -84750.16, -0.0000037606744, 0.000000010716321, 0.00017313579, -40805.58, -40805.58, 0.0, 10.0, 9.942173 
2.45e+2, 3.138706e+2, -39727.566, -82511.21, -0.00014270589, 0.000000010700575, -0.000055143002, -39727.566, -39727.566, 0.0, 10.0, 9.943684 
2.55e+2, 1.2499334e+2, -1719946.3, -1724224.6, -0.000044336663, 0.000000012328409, 0.000017599206, -1719946.3, -4880.95, 0.0, 10.0, 9.994328 
2.55e+2, 1.349876e+2, -1622565.8, -1627434.9, -0.00028204432, 0.000000012120234, -0.00006840305, -1622565.8, -5444.1636, 0.0, 10.0, 9.993545 
2.55e+2, 1.4497513e+2, -1534464.4, -1548146.3, -0.00019336058, 0.000000011999292, 0.00007091785, -1534464.4, -15220.671, 0.0, 10.0, 9.981865 
2.55e+2, 1.5495703e+2, -1436736.6, -1450821.9, -0.00036347957, 0.00000001196583, -0.000056980618, -1436736.6, -15315.489, 0.0, 10.0, 9.981333 
2.55e+2, 1.6493228e+2, -1348685.8, -1371952.4, -0.00025210384, 0.000000011887358, 0.000047341917, -1348685.8, -25021.982, 0.0, 10.0, 9.969248 
2.55e+2, 1.7490156e+2, -1250727.6, -1274310.1, -0.00046687934, 0.000000011762924, -0.00007383135, -1250727.6, -24762.963, 0.0, 10.0, 9.968835 
2.55e+2, 1.8486421e+2, -1162646.8, -1195720.1, -0.00037328582, 0.00000001167945, 0.000066144225, -1162646.8, -34316.016, 0.0, 10.0, 9.956395 
2.55e+2, 1.9482064e+2, -1064497.0, -1097833.0, -0.00051837036, 0.0000000116388295, -0.00005765725, -1064497.0, -33739.348, 0.0, 10.0, 9.956052 
2.55e+2, 2.0477042e+2, -976333.0, -1019435.0, -0.000357982, 0.000000011583461, 0.00006807729, -976333.0, -43083.094, 0.0, 10.0, 9.943291 
2.55e+2, 2.1471375e+2, -878046.0, -921409.9, -0.0005485814, 0.000000011512114, -0.0001268282, -878046.0, -42240.68, 0.0, 10.0, 9.942949 
2.55e+2, 2.2465037e+2, -789759.9, -843144.9, -0.00038922785, 0.0000000114565495, 0.00012087898, -789759.9, -51333.574, 0.0, 10.0, 9.929908 
2.55e+2, 2.3458035e+2, -691326.4, -744966.44, -0.00055123575, 0.00000001141885, -0.00008881863, -691326.4, -50213.81, 0.0, 10.0, 9.929577 
2.55e+2, 2.4450338e+2, -603002.3, -667018.8, -0.00034791045, 0.000000011375722, 0.00007470857, -603002.3, -59135.406, 0.0, 10.0, 9.916136 
2.55e+2, 2.5441962e+2, -504249.63, -568343.3, -0.00050309376, 0.000000011326079, -0.00010673712, -504249.63, -57562.066, 0.0, 10.0, 9.916036 
2.55e+2, 2.643288e+2, -416014.22, -490987.88, -0.00030637157, 0.000000011299449, 0.00014059377, -416014.22, -66436.54, 0.0, 10.0, 9.901964 
2.55e+2, 2.742313e+2, -316729.0, -391374.78, -0.00043504676, 0.000000011302112, -0.00020344452, -316729.0, -64195.984, 0.0, 10.0, 9.902385 
2.55e+2, 2.841256e+2, -230255.73, -318081.25, -0.00016943921, 0.0000000112917125, 0.00022904543, -230255.73, -74686.76, 0.0, 10.0, 9.885439 
2.55e+2, 2.940121e+2, -130549.59, -217765.02, -0.0002940647, 0.000000011263293, -0.0002533434, -130549.59, -71868.195, 0.0, 10.0, 9.886217 
2.55e+2, 3.0392656e+2, -40805.58, -84750.16, -0.000017165676, 0.0000000112309415, 0.00017313582, -40805.58, -40805.58, 0.0, 10.0, 9.942173 
2.55e+2, 3.138706e+2, -39727.566, -82511.21, -0.00015302788, 0.00000001119294, -0.00005514286, -39727.566, -39727.566, 0.0, 10.0, 9.943684 
2.65e+2, 1.2499334e+2, -1719946.3, -1724224.6, 0.00015294671, 0.000000012955201, 0.000017599314, -1719946.3, -4880.9473, 0.0, 10.0, 9.994328 
2.65e+2, 1.349876e+2, -1622565.8, -1627434.9, -0.000072031646, 0.000000012669486, -0.000068403046, -1622565.8, -5444.16, 0.0, 10.0, 9.993545 
2.65e+2, 1.4497513e+2, -1534464.4, -1548146.3, 0.0000057344396, 0.00000001251477, 0.00007091796, -1534464.4, -15220.668, 0.0, 10.0, 9.981865 
2.65e+2, 1.5495703e+2, -1436736.6, -1450821.9, -0.00021079114, 0.000000012491594, -0.000056980538, -1436736.6, -15315.486, 0.0, 10.0, 9.981333 
2.65e+2, 1.6493228e+2, -1348685.6, -1371952.4, -0.00011279039, 0.000000012440742, 0.000047341993, -1348685.6, -25021.979, 0.0, 10.0, 9.969248 
2.65e+2, 1.7490156e+2, -1250727.6, -1274310.1, -0.000342365, 0.000000012361629, -0.00007383126, -1250727.6, -24762.959, 0.0, 10.0, 9.968835 
2.65e+2, 1.8486421e+2, -1162646.8, -1195720.1, -0.00024802407, 0.0000000122771855, 0.00006614431, -1162646.8, -34316.01, 0.0, 10.0, 9.956395 
2.65e+2, 1.9482064e+2, -1064497.0, -1097833.0, -0.00042131857, 0.000000012187154, -0.000057657177, -1064497.0, -33739.348, 0.0, 10.0, 9.956052 
2.65e+2, 2.0477042e+2, -976333.0, -1019435.0, -0.00026111968, 0.000000012111514, 0.000068077345, -976333.0, -43083.094, 0.0, 10.0, 9.943291 
2.65e+2, 2.1471375e+2, -878046.0, -921409.9, -0.00044938346, 0.000000012051453, -0.00012682815, -878046.0, -42240.676, 0.0, 10.0, 9.942949 
2.65e+2, 2.2465037e+2, -789759.9, -843144.9, -0.00029079404, 0.0000000119961925, 0.000120879035, -789759.9, -51333.57, 0.0, 10.0, 9.929908 
2.65e+2, 2.3458035e+2, -691326.4, -744966.44, -0.00048672187, 0.000000011946351, -0.000088818575, -691326.4, -50213.805, 0.0, 10.0, 9.929577 
2.65e+2, 2.4450338e+2, -603002.3, -667018.8, -0.0002817025, 0.000000011911765, 0.000074708616, -603002.3, -59135.402, 0.0, 10.0, 9.916136 
2.65e+2, 2.5441962e+2, -504249.63, -568343.3, -0.00042359508, 0.000000011895388, -0.00010673711, -504249.63, -57562.063, 0.0, 10.0, 9.916036 
2.65e+2, 2.643288e+2, -416014.22, -490987.88, -0.00022070775, 0.000000011869979, 0.00014059377, -416014.22, -66436.53, 0.0, 10.0, 9.901964 
2.65e+2, 2.742313e+2, -316729.0, -391374.78, -0.0003952825, 0.000000011833024, -0.00020344449, -316729.0, -64195.98, 0.0, 10.0, 9.902385 
2.65e+2, 2.841256e+2, -230255.73, -318081.25, -0.00014834794, 0.00000001180198, 0.00022904547, -230255.73, -74686.76, 0.0, 10.0, 9.885439 
2.65e+2, 2.940121e+2, -130549.59, -217765.0, -0.0003020291, 0.0000000117790675, -0.00025334334, -130549.59, -71868.195, 0.0, 10.0, 9.886217 
2.65e+2, 3.0392656e+2, -40805.58, -84750.16, -0.000024387651, 0.000000011754059, 0.00017313585, -40805.58, -40805.58, 0.0, 10.0, 9.942173 
2.65e+2, 3.138706e+2, -39727.566, -82511.21, -0.00015809044, 0.00000001172589, -0.00005514284, -39727.566, -39727.566, 0.0, 10.0, 9.943684 
2.75e+2, 1.2499334e+2, -1719946.3, -1724224.6, -0.000006732962, 0.000000013591155, 0.000017599526, -1719946.3, -4880.9478, 0.0, 10.0, 9.994328 
2.75e+2, 1.349876e+2, -1622565.8, -1627434.9, -0.00023175031, 0.0000000132387, -0.0000684031, -1622565.8, -5444.1606, 0.0, 10.0, 9.993545 
2.75e+2, 1.4497513e+2, -1534464.4, -1548146.3, -0.00016985134, 0.0000000130437945, 0.00007091804, -1534464.4, -15220.668, 0.0, 10.0, 9.981865 
2.75e+2, 1.5495703e+2, -1436736.6, -1450821.9, -0.00038640256, 0.000000013007171, -0.000056980323, -1436736.6, -15315.486, 0.0, 10.0, 9.981333 
2.75e+2, 1.6493228e+2, -1348685.8, -1371952.4, -0.00028858997, 0.000000012984394, 0.000047342164, -1348685.8, -25021.98, 0.0, 10.0, 9.969248 
2.75e+2, 1.7490156e+2, -1250727.6, -1274310.1, -0.00051816617, 0.0000000129757565, -0.000073831296, -1250727.6, -24762.959, 0.0, 10.0, 9.968835 
2.75e+2, 1.8486421e+2, -1162646.8, -1195720.1, -0.0003722923, 0.000000012895893, 0.00006614426, -1162646.8, -34316.01, 0.0, 10.0, 9.956395 
2.75e+2, 1.9482064e+2, -1064497.0, -1097833.0, -0.0005449908, 0.000000012741489, -0.00005765705, -1064497.0, -33739.348, 0.0, 10.0, 9.956052 
2.75e+2, 2.0477042e+2, -976333.0, -1019435.0, -0.00037867393, 0.00000001264287, 0.000068077534, -976333.0, -43083.094, 0.0, 10.0, 9.943291 
2.75e+2, 2.1471375e+2, -878046.0, -921409.9, -0.0005668124, 0.000000012604666, -0.00012682805, -878046.0, -42240.68, 0.0, 10.0, 9.942949 
2.75e+2, 2.2465037e+2, -789759.9, -843144.9, -0.00039877888, 0.00000001255649, 0.00012087908, -789759.9, -51333.574, 0.0, 10.0, 9.929908 
2.75e+2, 2.3458035e+2, -691326.4, -744966.44, -0.00059439894, 0.000000012496992, -0.000088818575, -691326.4, -50213.805, 0.0, 10.0, 9.929577 
2.75e+2, 2.4450338e+2, -603002.3, -667018.8, -0.0003855536, 0.000000012467625, 0.00007470861, -603002.3, -59135.402, 0.0, 10.0, 9.916136 
2.75e+2, 2.5441962e+2, -504249.63, -568343.3, -0.0005272638, 0.0000000124742545, -0.0001067371, -504249.63, -57562.063, 0.0, 10.0, 9.916036 
2.75e+2, 2.643288e+2, -416014.22, -490987.88, -0.00027779385, 0.000000012442026, 0.0001405938, -416014.22, -66436.53, 0.0, 10.0, 9.901964 
2.75e+2, 2.742313e+2, -316729.0, -391374.78, -0.0004492471, 0.00000001236025, -0.00020344445, -316729.0, -64195.984, 0.0, 10.0, 9.902385 
2.75e+2, 2.841256e+2, -230255.73, -318081.25, -0.00019558321, 0.000000012306031, 0.00022904554, -230255.73, -74686.76, 0.0, 10.0, 9.885439 
2.75e+2, 2.940121e+2, -130549.59, -217765.02, -0.00034866002, 0.000000012289741, -0.00025334326, -130549.59, -71868.195, 0.0, 10.0, 9.886217 
2.75e+2, 3.0392656e+2, -40805.58, -84750.16, -0.000058370093, 0.000000012285675, 0.00017313591, -40805.58, -40805.58, 0.0, 10.0, 9.942173 
2.75e+2, 3.138706e+2, -39727.566, -82511.21, -0.00019059028, 0.000000012299424, -0.000055142933, -39727.566, -39727.566, 0.0, 10.0, 9.943684 
2.85e+2, 1.2499334e+2, -1719946.3, -1724224.6, 0.00016713249, 0.000000014141604, 0.000017599723, -1719946.3, -4880.9443, 0.0, 10.0, 9.994328 
2.85e+2, 1.349876e+2, -1622565.8, -1627434.9, -0.000076077245, 0.000000013846116, -0.000068403075, -1622565.8, -5444.157, 0.0, 10.0, 9.993545 
2.85e+2, 1.4497513e+2, -1534464.4, -1548146.3, -0.000028439386, 0.0000000136694664, 0.00007091819, -1534464.4, -15220.665, 0.0, 10.0, 9.981865 
2.85e+2, 1.5495703e+2, -1436736.6, -1450821.9, -0.00027206502, 0.000000013612182, -0.000056980134, -1436736.6, -15315.483, 0.0, 10.0, 9.981333 
2.85e+2, 1.6493228e+2, -1348685.6, -1371952.4, -0.00015607913, 0.000000013565606, 0.0000473423, -1348685.6, -25021.977, 0.0, 10.0, 9.969248 
2.85e+2, 1.7490156e+2, -1250727.6, -1274310.1, -0.0003347211, 0.000000013529967, -0.00007383131, -1250727.6, -24762.957, 0.0, 10.0, 9.968835 
2.85e+2, 1.8486421e+2, -1162646.8, -1195720.1, -0.000169633, 0.0000000134475355, 0.00006614423, -1162646.8, -34316.01, 0.0, 10.0, 9.956395 
2.85e+2, 1.9482064e+2, -1064497.0, -1097833.0, -0.0004273294, 0.000000013316129, -0.00005765694, -1064497.0, -33739.344, 0.0, 10.0, 9.956052 
2.85e+2, 2.0477042e+2, -976333.0, -1019435.0, -0.00030076565, 0.000000013229476, 0.00006807769, -976333.0, -43083.09, 0.0, 10.0, 9.943291 
2.85e+2, 2.1471375e+2, -878045.94, -921409.9, -0.00050297944, 0.000000013191292, -0.00012682793, -878045.94, -42240.676, 0.0, 10.0, 9.942949 
2.85e+2, 2.2465037e+2, -789759.9, -843144.9, -0.00030591903, 0.000000013139757, 0.00012087913, -789759.9, -51333.57, 0.0, 10.0, 9.929908 
2.85e+2, 2.3458035e+2, -691326.4, -744966.44, -0.00045742324, 0.000000013073084, -0.00008881859, -691326.4, -50213.805, 0.0, 10.0, 9.929577 
2.85e+2, 2.4450338e+2, -603002.3, -667018.8, -0.00024929352, 0.000000013031606, 0.00007470859, -603002.3, -59135.402, 0.0, 10.0, 9.916136 
2.85e+2, 2.5441962e+2, -504249.63, -568343.3, -0.00047325328, 0.000000013020232, -0.00010673704, -504249.63, -57562.06, 0.0, 10.0, 9.916036 
2.85e+2, 2.643288e+2, -416014.22, -490987.88, -0.00024181863, 0.000000012982919, 0.00014059388, -416014.22, -66436.53, 0.0, 10.0, 9.901964 
2.85e+2, 2.742313e+2, -316729.0, -391374.78, -0.00041382507, 0.00000001291251, -0.0002034444, -316729.0, -64195.98, 0.0, 10.0, 9.902385 
2.85e+2, 2.841256e+2, -230255.72, -318081.25, -0.00014675908, 0.000000012866838, 0.00022904557, -230255.72, -74686.75, 0.0, 10.0, 9.885439 
2.85e+2, 2.940121e+2, -130549.586, -217765.0, -0.0002914426, 0.0000000128551605, -0.00025334323, -130549.586, -71868.195, 0.0, 10.0, 9.886217 
2.85e+2, 3.0392656e+2, -40805.574, -84750.16, 0.000023445586, 0.000000012853069, 0.00017313591, -40805.574, -40805.574, 0.0, 10.0, 9.942173 
2.85e+2, 3.138706e+2, -39727.563, -82511.21, -0.000091372225, 0.000000012864907, -0.000055143017, -39727.563, -39727.563, 0.0, 10.0, 9.943684 
2.95e+2, 1.2499334e+2, -1719946.3, -1724224.6, -0.00004399594, 0.000000014606549, 0.000017599898, -1719946.3, -4880.945, 0.0, 10.0, 9.994328 
2.95e+2, 1.349876e+2, -1622565.8, -1627434.9, -0.00028725748, 0.000000014491735, -0.000068402995, -1622565.8, -5444.158, 0.0, 10.0, 9.993545 
2.95e+2, 1.4497513e+2, -1534464.4, -1548146.3, -0.00020853613, 0.000000014391787, 0.00007091841, -1534464.4, -15220.666, 0.0, 10.0, 9.981865 
2.95e+2, 1.5495703e+2, -1436736.6, -1450821.9, -0.00045211308, 0.000000014306627, -0.00005697997, -1436736.6, -15315.483, 0.0, 10.0, 9.981333 
2.95e+2, 1.6493228e+2, -1348685.6, -1371952.4, -0.00032388233, 0.000000014184381, 0.000047342397, -1348685.6, -25021.977, 0.0, 10.0, 9.969248 
2.95e+2, 1.7490156e+2, -1250727.6, -1274310.1, -0.0005024603, 0.000000014024263, -0.0000738313, -1250727.6, -24762.957, 0.0, 10.0, 9.968835 
2.95e+2, 1.8486421e+2, -1162646.8, -1195720.1, -0.0003209436, 0.000000013932113, 0.00006614424, -1162646.8, -34316.01, 0.0, 10.0, 9.956395 
2.95e+2, 1.9482064e+2, -1064497.0, -1097833.0, -0.00057845056, 0.000000013911075, -0.000057656853, -1064497.0, -33739.344, 0.0, 10.0, 9.956052 
2.95e+2, 2.0477042e+2, -976333.0, -1019435.0, -0.00043602556, 0.000000013871335, 0.00006807782, -976333.0, -43083.09, 0.0, 10.0, 9.943291 
2.95e+2, 2.1471375e+2, -878045.94, -921409.9, -0.0006379128, 0.000000013811329, -0.00012682781, -878045.94, -42240.676, 0.0, 10.0, 9.942949 
2.95e+2, 2.2465037e+2, -789759.9, -843144.9, -0.00041890517, 0.000000013745994, 0.0001208792, -789759.9, -51333.57, 0.0, 10.0, 9.929908 
2.95e+2, 2.3458035e+2, -691326.4, -744966.44, -0.00056969264, 0.000000013674626, -0.00008881862, -691326.4, -50213.805, 0.0, 10.0, 9.929577 
2.95e+2, 2.4450338e+2, -603002.3, -667018.8, -0.0003402574, 0.0000000136037075, 0.000074708565, -603002.3, -59135.402, 0.0, 10.0, 9.916136 
2.95e+2, 2.5441962e+2, -504249.63, -568343.3, -0.0005631948, 0.00000001353332, -0.00010673694, -504249.63, -57562.06, 0.0, 10.0, 9.916036 
2.95e+2, 2.643288e+2, -416014.22, -490987.88, -0.00031986888, 0.000000013492656, 0.00014059403, -416014.22, -66436.53, 0.0, 10.0, 9.901964 
2.95e+2, 2.742313e+2, -316729.0, -391374.78, -0.00049107976, 0.000000013489804, -0.00020344435, -316729.0, -64195.98, 0.0, 10.0, 9.902385 
2.95e+2, 2.841256e+2, -230255.72, -318081.25, -0.0002081574, 0.000000013484402, 0.00022904556, -230255.72, -74686.75, 0.0, 10.0, 9.885439 
2.95e+2, 2.940121e+2, -130549.586, -217765.02, -0.00035141435, 0.000000013475327, -0.00025334329, -130549.586, -71868.195, 0.0, 10.0, 9.886217 
2.95e+2, 3.0392656e+2, -40805.574, -84750.16, -0.000018901044, 0.0000000134562415, 0.00017313584, -40805.574, -40805.574, 0.0, 10.0, 9.942173 
2.95e+2, 3.138706e+2, -39727.563, -82511.21, -0.00013165221, 0.000000013422341, -0.000055143097, -39727.563, -39727.563, 0.0, 10.0, 9.943684 
3.05e+2, 1.2499334e+2, -1719946.3, -1724224.6, 0.00010348142, 0.000000015226949, 0.000017600152, -1719946.3, -4880.941, 0.0, 10.0, 9.994328 
3.05e+2, 1.349876e+2, -1622565.8, -1627434.9, -0.00013531944, 0.000000015140213, -0.000068402915, -1622565.8, -5444.1543, 0.0, 10.0, 9.993545 
3.05e+2, 1.4497513e+2, -1534464.4, -1548146.3, -0.000011973205, 0.000000015049322, 0.00007091858, -1534464.4, -15220.662, 0.0, 10.0, 9.981865 
3.05e+2, 1.5495703e+2, -1436736.6, -1450821.9, -0.00025037501, 0.0000000149541, -0.00005697991, -1436736.6, -15315.48, 0.0, 10.0, 9.981333 
3.05e+2, 1.6493228e+2, -1348685.6, -1371952.4, -0.00011981605, 0.000000014804503, 0.000047342444, -1348685.6, -25021.973, 0.0, 10.0, 9.969248 
3.05e+2, 1.7490156e+2, -1250727.6, -1274310.1, -0.00036288254, 0.000000014599379, -0.00007383118, -1250727.6, -24762.953, 0.0, 10.0, 9.968835 
3.05e+2, 1.8486421e+2, -1162646.8, -1195720.1, -0.00020819304, 0.000000014505099, 0.00006614438, -1162646.8, -34316.008, 0.0, 10.0, 9.956395 
3.05e+2, 1.9482064e+2, -1064497.0, -1097833.0, -0.00043950003, 0.000000014526799, -0.000057656755, -1064497.0, -33739.34, 0.0, 10.0, 9.956052 
3.05e+2, 2.0477042e+2, -976333.0, -1019435.0, -0.00026134547, 0.000000014494756, 0.00006807786, -976333.0, -43083.086, 0.0, 10.0, 9.943291 
3.05e+2, 2.1471375e+2, -878045.94, -921409.9, -0.00047186067, 0.000000014404489, -0.00012682783, -878045.94, -42240.67, 0.0, 10.0, 9.942949 
3.05e+2, 2.2465037e+2, -789759.9, -843144.9, -0.0002737684, 0.000000014327304, 0.00012087921, -789759.9, -51333.566, 0.0, 10.0, 9.929908 
3.05e+2, 2.3458035e+2, -691326.4, -744966.44, -0.0005112202, 0.000000014264942, -0.00008881849, -691326.4, -50213.8, 0.0, 10.0, 9.929577 
3.05e+2, 2.4450338e+2, -603002.3, -667018.8, -0.00029542416, 0.000000014196649, 0.00007470872, -603002.3, -59135.4, 0.0, 10.0, 9.916136 
3.05e+2, 2.5441962e+2, -504249.63, -568343.3, -0.00048745546, 0.000000014121241, -0.00010673689, -504249.63, -57562.06, 0.0, 10.0, 9.916036 
3.05e+2, 2.643288e+2, -416014.22, -490987.88, -0.00022220486, 0.000000014077476, 0.00014059401, -416014.22, -66436.53, 0.0, 10.0, 9.901964 
3.05e+2, 2.742313e+2, -316728.97, -391374.78, -0.00039894797, 0.000000014073982, -0.00020344435, -316728.97, -64195.977, 0.0, 10.0, 9.902385 
3.05e+2, 2.841256e+2, -230255.72, -318081.25, -0.000113009984, 0.000000014072135, 0.00022904556, -230255.72, -74686.75, 0.0, 10.0, 9.885439 
3.05e+2, 2.940121e+2, -130549.586, -217765.0, -0.00028249907, 0.000000014072348, -0.00025334329, -130549.586, -71868.19, 0.0, 10.0, 9.886217 
3.05e+2, 3.0392656e+2, -40805.57, -84750.16, 0.000039027804, 0.000000014058248, 0.00017313585, -40805.57, -40805.57, 0.0, 10.0, 9.942173 
3.05e+2, 3.138706e+2, -39727.563, -82511.21, -0.00011836466, 0.000000014022886, -0.000055143097, -39727.563, -39727.563, 0.0, 10.0, 9.943684 
3.15e+2, 1.2499334e+2, -1719946.3, -1724224.6, -0.0001416748, 0.000000016002803, 0.000017600485, -1719946.3, -4880.942, 0.0, 10.0, 9.994328 
3.15e+2, 1.349876e+2, -1622565.8, -1627434.9, -0.00038053663, 0.000000015791548, -0.00006840283, -1622565.8, -5444.1553, 0.0, 10.0, 9.993545 
3.15e+2, 1.4497513e+2, -1534464.4, -1548146.3, -0.00021033872, 0.000000015642073, 0.0000709187, -1534464.4, -15220.663, 0.0, 10.0, 9.981865 
3.15e+2, 1.5495703e+2, -1436736.6, -1450821.9, -0.00044866672, 0.000000015554603, -0.000056979945, -1436736.6, -15315.48, 0.0, 10.0, 9.981333 
3.15e+2, 1.6493228e+2, -1348685.6, -1371952.4, -0.0002687311, 0.000000015425973, 0.000047342444, -1348685.6, -25021.975, 0.0, 10.0, 9.969248 
3.15e+2, 1.7490156e+2, -1250727.6, -1274310.1, -0.00051153766, 0.000000015255313, -0.00007383094, -1250727.6, -24762.953, 0.0, 10.0, 9.968835 
3.15e+2, 1.8486421e+2, -1162646.8, -1195720.1, -0.00038777597, 0.000000015166494, 0.000066144654, -1162646.8, -34316.008, 0.0, 10.0, 9.956395 
3.15e+2, 1.9482064e+2, -1064497.0, -1097833.0, -0.000619442, 0.000000015163302, -0.000057656653, -1064497.0, -33739.34, 0.0, 10.0, 9.956052 
3.15e+2, 2.0477042e+2, -976333.0, -1019435.0, -0.0004058267, 0.000000015099737, 0.00006807782, -976333.0, -43083.086, 0.0, 10.0, 9.943291 
3.15e+2, 2.1471375e+2, -878045.94, -921409.9, -0.0006156105, 0.000000014970771, -0.00012682799, -878045.94, -42240.67, 0.0, 10.0, 9.942949 
3.15e+2, 2.2465037e+2, -789759.9, -843144.9, -0.00039106695, 0.000000014883689, 0.00012087916, -789759.9, -51333.566, 0.0, 10.0, 9.929908 
3.15e+2, 2.3458035e+2, -691326.4, -744966.44, -0.00062765466, 0.000000014844032, -0.000088818204, -691326.4, -50213.8, 0.0, 10.0, 9.929577 
3.15e+2, 2.4450338e+2, -603002.3, -667018.8, -0.00039315192, 0.000000014810429, 0.00007470904, -603002.3, -59135.4, 0.0, 10.0, 9.916136 
3.15e+2, 2.5441962e+2, -504249.63, -568343.3, -0.00058428576, 0.000000014783996, -0.00010673689, -504249.63, -57562.06, 0.0, 10.0, 9.916036 
3.15e+2, 2.643288e+2, -416014.22, -490987.88, -0.00031652313, 0.000000014737378, 0.00014059388, -416014.22, -66436.53, 0.0, 10.0, 9.901964 
3.15e+2, 2.742313e+2, -316728.97, -391374.78, -0.00049309974, 0.0000000146650425, -0.0002034444, -316728.97, -64195.977, 0.0, 10.0, 9.902385 
3.15e+2, 2.841256e+2, -230255.72, -318081.25, -0.0001876961, 0.000000014630036, 0.00022904557, -230255.72, -74686.75, 0.0, 10.0, 9.885439 
3.15e+2, 2.940121e+2, -130549.586, -217765.02, -0.00035543347, 0.000000014646224, -0.00025334323, -130549.586, -71868.19, 0.0, 10.0, 9.886217 
3.15e+2, 3.0392656e+2, -40805.574, -84750.16, 0.00000088885736, 0.000000014659087, 0.00017313592, -40805.574, -40805.574, 0.0, 10.0, 9.942173 
3.15e+2, 3.138706e+2, -39727.563, -82511.21, -0.00015242131, 0.000000014666542, -0.00005514302, -39727.563, -39727.563, 0.0, 10.0, 9.943684 
3.25e+2, 1.2499334e+2, -1719946.3, -1724224.6, 0.000118733835, 0.0000000167998, 0.000017600596, -1719946.3, -4880.938, 0.0, 10.0, 9.994328 
3.25e+2, 1.349876e+2, -1622565.8, -1627434.9, -0.00012985565, 0.000000016441334, -0.00006840278, -1622565.8, -5444.151, 0.0, 10.0, 9.993545 
3.25e+2, 1.4497513e+2, -1534464.4, -1548146.3, 0.000035071233, 0.000000016222568, 0.0000709189, -1534464.4, -15220.658, 0.0, 10.0, 9.981865 
3.25e+2, 1.5495703e+2, -1436736.6, -1450821.9, -0.00023183106, 0.000000016144208, -0.000056979883, -1436736.6, -15315.477, 0.0, 10.0, 9.981333 
3.25e+2, 1.6493228e+2, -1348685.6, -1371952.4, -0.0000775519, 0.00000001605797, 0.0000473425, -1348685.6, -25021.97, 0.0, 10.0, 9.969248 
3.25e+2, 1.7490156e+2, -1250727.6, -1274310.1, -0.00037407933, 0.000000015963684, -0.00007383076, -1250727.6, -24762.951, 0.0, 10.0, 9.968835 
3.25e+2, 1.8486421e+2, -1162646.8, -1195720.1, -0.00024620374, 0.000000015871978, 0.00006614484, -1162646.8, -34316.004, 0.0, 10.0, 9.956395 
3.25e+2, 1.9482064e+2, -1064497.0, -1097833.0, -0.00045738355, 0.000000015782959, -0.000057656605, -1064497.0, -33739.336, 0.0, 10.0, 9.956052 
3.25e+2, 2.0477042e+2, -976333.0, -1019435.0, -0.00022005095, 0.000000015680056, 0.000068077825, -976333.0, -43083.082, 0.0, 10.0, 9.943291 
3.25e+2, 2.1471375e+2, -878045.94, -921409.9, -0.0004497147, 0.000000015562106, -0.00012682793, -878045.94, -42240.668, 0.0, 10.0, 9.942949 
3.25e+2, 2.2465037e+2, -789759.9, -843144.9, -0.00025332984, 0.000000015488862, 0.000120879246, -789759.9, -51333.563, 0.0, 10.0, 9.929908 
3.25e+2, 2.3458035e+2, -691326.3, -744966.44, -0.0005484568, 0.000000015466213, -0.000088818095, -691326.3, -50213.797, 0.0, 10.0, 9.929577 
3.25e+2, 2.4450338e+2, -603002.3, -667018.8, -0.0003099528, 0.00000001544231, 0.000074709125, -603002.3, -59135.395, 0.0, 10.0, 9.916136 
3.25e+2, 2.5441962e+2, -504249.63, -568343.3, -0.00046535244, 0.000000015416848, -0.000106736865, -504249.63, -57562.055, 0.0, 10.0, 9.916036 
3.25e+2, 2.643288e+2, -416014.22, -490987.88, -0.00017347369, 0.000000015368432, 0.00014059387, -416014.22, -66436.52, 0.0, 10.0, 9.901964 
3.25e+2, 2.742313e+2, -316728.97, -391374.78, -0.0003965179, 0.000000015290794, -0.00020344439, -316728.97, -64195.973, 0.0, 10.0, 9.902385 
3.25e+2, 2.841256e+2, -230255.72, -318081.25, -0.00012932853, 0.000000015242456, 0.00022904562, -230255.72, -74686.75, 0.0, 10.0, 9.885439 
3.25e+2, 2.940121e+2, -130549.586, -217765.0, -0.0003478085, 0.000000015234331, -0.00025334317, -130549.586, -71868.19, 0.0, 10.0, 9.886217 
3.25e+2, 3.0392656e+2, -40805.57, -84750.16, -0.000008843342, 0.000000015247727, 0.00017313598, -40805.57, -40805.57, 0.0, 10.0, 9.942173 
3.25e+2, 3.138706e+2, -39727.56, -82511.21, -0.00016621972, 0.0000000152927, -0.000055142966, -39727.56, -39727.56, 0.0, 10.0, 9.943684 
3.35e+2, 1.2499334e+2, -1719946.3, -1724224.6, -0.00006128064, 0.00000001761794, 0.000017600487, -1719946.3, -4880.9385, 0.0, 10.0, 9.994328 
3.35e+2, 1.349876e+2, -1622565.8, -1627434.9, -0.00030991255, 0.00000001708957, -0.000068402755, -1622565.8, -5444.152, 0.0, 10.0, 9.993545 
3.35e+2, 1.4497513e+2, -1534464.4, -1548146.3, -0.00016619402, 0.000000016790809, 0.00007091919, -1534464.4, -15220.659, 0.0, 10.0, 9.981865 
3.35e+2, 1.5495703e+2, -1436736.6, -1450821.9, -0.00043313045, 0.000000016722913, -0.00005697972, -1436736.6, -15315.478, 0.0, 10.0, 9.981333 
3.35e+2, 1.6493228e+2, -1348685.6, -1371952.4, -0.00029929166, 0.000000016700486, 0.00004734261, -1348685.6, -25021.97, 0.0, 10.0, 9.969248 
3.35e+2, 1.7490156e+2, -1250727.6, -1274310.1, -0.00059592765, 0.000000016724488, -0.000073830626, -1250727.6, -24762.951, 0.0, 10.0, 9.968835 
3.35e+2, 1.8486421e+2, -1162646.8, -1195720.1, -0.00039508694, 0.000000016621552, 0.00006614493, -1162646.8, -34316.004, 0.0, 10.0, 9.956395 
3.35e+2, 1.9482064e+2, -1064497.0, -1097833.0, -0.0006054228, 0.00000001638577, -0.000057656613, -1064497.0, -33739.34, 0.0, 10.0, 9.956052 
3.35e+2, 2.0477042e+2, -976333.0, -1019435.0, -0.00035933076, 0.000000016235711, 0.00006807787, -976333.0, -43083.086, 0.0, 10.0, 9.943291 
3.35e+2, 2.1471375e+2, -878045.94, -921409.9, -0.00058881467, 0.000000016178493, -0.00012682767, -878045.94, -42240.668, 0.0, 10.0, 9.942949 
3.35e+2, 2.2465037e+2, -789759.9, -843144.9, -0.0003999112, 0.00000001614282, 0.00012087948, -789759.9, -51333.563, 0.0, 10.0, 9.929908 
3.35e+2, 2.3458035e+2, -691326.3, -744966.44, -0.0006952843, 0.000000016131485, -0.00008881817, -691326.3, -50213.797, 0.0, 10.0, 9.929577 
3.35e+2, 2.4450338e+2, -603002.3, -667018.8, -0.00043605463, 0.000000016092294, 0.00007470898, -603002.3, -59135.395, 0.0, 10.0, 9.916136 
3.35e+2, 2.5441962e+2, -504249.63, -568343.3, -0.00059045997, 0.000000016019797, -0.000106736814, -504249.63, -57562.055, 0.0, 10.0, 9.916036 
3.35e+2, 2.643288e+2, -416014.22, -490987.88, -0.00025098582, 0.000000015970635, 0.000140594, -416014.22, -66436.52, 0.0, 10.0, 9.901964 
3.35e+2, 2.742313e+2, -316728.97, -391374.78, -0.00047084093, 0.00000001595124, -0.00020344432, -316728.97, -64195.977, 0.0, 10.0, 9.902385 
3.35e+2, 2.841256e+2, -230255.72, -318081.25, -0.00020113209, 0.000000015909395, 0.00022904566, -230255.72, -74686.75, 0.0, 10.0, 9.885439 
3.35e+2, 2.940121e+2, -130549.586, -217765.02, -0.0004193874, 0.00000001583667, -0.0002533431, -130549.586, -71868.19, 0.0, 10.0, 9.886217 
3.35e+2, 3.0392656e+2, -40805.57, -84750.16, -0.00008216444, 0.000000015824163, 0.00017313604, -40805.57, -40805.57, 0.0, 10.0, 9.942173 
3.35e+2, 3.138706e+2, -39727.56, -82511.21, -0.00023974807, 0.00000001590136, -0.00005514293, -39727.56, -39727.56, 0.0, 10.0, 9.943684 
3.45e+2, 1.2499334e+2, -1719946.3, -1724224.6, 0.0004136605, 0.000000018204673, 0.000017600414, -1719946.3, -4880.934, 0.0, 10.0, 9.994328 
3.45e+2, 1.349876e+2, -1622565.8, -1627434.9, -0.000010891489, 0.000000017738312, -0.000068402755, -1622565.8, -5444.1475, 0.0, 10.0, 9.993545 
3.45e+2, 1.4497513e+2, -1534464.4, -1548146.3, 0.000034084067, 0.00000001748039, 0.000070919465, -1534464.4, -15220.655, 0.0, 10.0, 9.981865 
3.45e+2, 1.5495703e+2, -1436736.6, -1450821.9, -0.00025470057, 0.000000017432066, -0.000056979512, -1436736.6, -15315.474, 0.0, 10.0, 9.981333 
3.45e+2, 1.6493228e+2, -1348685.6, -1371952.4, -0.000105574974, 0.000000017394733, 0.000047342735, -1348685.6, -25021.967, 0.0, 10.0, 9.969248 
3.45e+2, 1.7490156e+2, -1250727.6, -1274310.1, -0.0003639251, 0.00000001736863, -0.00007383059, -1250727.6, -24762.947, 0.0, 10.0, 9.968835 
3.45e+2, 1.8486421e+2, -1162646.8, -1195720.1, -0.00012949617, 0.00000001724552, 0.000066144945, -1162646.8, -34316.0, 0.0, 10.0, 9.956395 
3.45e+2, 1.9482064e+2, -1064497.0, -1097833.0, -0.0004132457, 0.000000017020897, -0.000057656547, -1064497.0, -33739.332, 0.0, 10.0, 9.956052 
3.45e+2, 2.0477042e+2, -976333.0, -1019435.0, -0.00024157329, 0.000000016897056, 0.000068078014, -976333.0, -43083.082, 0.0, 10.0, 9.943291 
3.45e+2, 2.1471375e+2, -878045.94, -921409.9, -0.0005556938, 0.000000016882371, -0.0001268274, -878045.94, -42240.664, 0.0, 10.0, 9.942949 
3.45e+2, 2.2465037e+2, -789759.9, -843144.9, -0.00031492786, 0.000000016844847, 0.00012087967, -789759.9, -51333.56, 0.0, 10.0, 9.929908 
3.45e+2, 2.3458035e+2, -691326.3, -744966.44, -0.00044453345, 0.00000001678142, -0.000088818284, -691326.3, -50213.793, 0.0, 10.0, 9.929577 
3.45e+2, 2.4450338e+2, -603002.25, -667018.8, -0.00015569064, 0.000000016706364, 0.00007470881, -603002.25, -59135.39, 0.0, 10.0, 9.916136 
3.45e+2, 2.5441962e+2, -504249.63, -568343.3, -0.00048946525, 0.00000001661743, -0.00010673673, -504249.63, -57562.05, 0.0, 10.0, 9.916036 
3.45e+2, 2.643288e+2, -416014.2, -490987.88, -0.00023330131, 0.000000016584123, 0.00014059419, -416014.2, -66436.52, 0.0, 10.0, 9.901964 
3.45e+2, 2.742313e+2, -316728.97, -391374.78, -0.00044155848, 0.000000016621627, -0.00020344422, -316728.97, -64195.973, 0.0, 10.0, 9.902385 
3.45e+2, 2.841256e+2, -230255.72, -318081.25, -0.00011751697, 0.00000001660378, 0.00022904568, -230255.72, -74686.74, 0.0, 10.0, 9.885439 
3.45e+2, 2.940121e+2, -130549.58, -217765.0, -0.0002995046, 0.000000016509839, -0.00025334314, -130549.58, -71868.19, 0.0, 10.0, 9.886217 
3.45e+2, 3.0392656e+2, -40805.566, -84750.16, 0.000040150753, 0.000000016455004, 0.000173136, -40805.566, -40805.566, 0.0, 10.0, 9.942173 
3.45e+2, 3.138706e+2, -39727.555, -82511.21, -0.00017662352, 0.000000016458971, -0.000055142897, -39727.555, -39727.555, 0.0, 10.0, 9.943684 
3.55e+2, 1.2499334e+2, -1719946.3, -1724224.6, 0.0001590611, 0.000000018559994, 0.000017600376, -1719946.3, -4880.935, 0.0, 10.0, 9.994328 
3.55e+2, 1.349876e+2, -1622565.8, -1627434.9, -0.000265553, 0.00000001838756, -0.00006840278, -1622565.8, -5444.1484, 0.0, 10.0, 9.993545 
3.55e+2, 1.4497513e+2, -1534464.4, -1548146.3, -0.00020052229, 0.00000001829131, 0.000070919734, -1534464.4, -15220.655, 0.0, 10.0, 9.981865 
3.55e+2, 1.5495703e+2, -1436736.6, -1450821.9, -0.0004892757, 0.000000018271663, -0.00005697927, -1436736.6, -15315.475, 0.0, 10.0, 9.981333 
3.55e+2, 1.6493228e+2, -1348685.6, -1371952.4, -0.00030670155, 0.00000001814071, 0.00004734287, -1348685.6, -25021.967, 0.0, 10.0, 9.969248 
3.55e+2, 1.7490156e+2, -1250727.6, -1274310.1, -0.00056487595, 0.000000017896104, -0.00007383065, -1250727.6, -24762.947, 0.0, 10.0, 9.968835 
3.55e+2, 1.8486421e+2, -1162646.8, -1195720.1, -0.00030530855, 0.000000017743888, 0.00006614488, -1162646.8, -34316.0, 0.0, 10.0, 9.956395 
3.55e+2, 1.9482064e+2, -1064497.0, -1097833.0, -0.00058876787, 0.000000017688338, -0.000057656413, -1064497.0, -33739.336, 0.0, 10.0, 9.956052 
3.55e+2, 2.0477042e+2, -976333.0, -1019435.0, -0.00041799824, 0.000000017664092, 0.00006807826, -976333.0, -43083.082, 0.0, 10.0, 9.943291 
3.55e+2, 2.1471375e+2, -878045.94, -921409.9, -0.00073213864, 0.000000017673736, -0.00012682713, -878045.94, -42240.668, 0.0, 10.0, 9.942949 
3.55e+2, 2.2465037e+2, -789759.9, -843144.9, -0.0004458589, 0.00000001759494, 0.000120879806, -789759.9, -51333.563, 0.0, 10.0, 9.929908 
3.55e+2, 2.3458035e+2, -691326.3, -744966.44, -0.000573977, 0.00000001741602, -0.00008881845, -691326.3, -50213.793, 0.0, 10.0, 9.929577 
3.55e+2, 2.4450338e+2, -603002.25, -667018.8, -0.00026474343, 0.00000001728452, 0.00007470863, -603002.25, -59135.39, 0.0, 10.0, 9.916136 
3.55e+2, 2.5441962e+2, -504249.63, -568343.3, -0.0005975399, 0.000000017209748, -0.000106736596, -504249.63, -57562.05, 0.0, 10.0, 9.916036 
3.55e+2, 2.643288e+2, -416014.2, -490987.88, -0.00036333044, 0.000000017208892, 0.00014059445, -416014.2, -66436.52, 0.0, 10.0, 9.901964 
3.55e+2, 2.742313e+2, -316728.97, -391374.78, -0.00057306164, 0.000000017301957, -0.00020344408, -316728.97, -64195.973, 0.0, 10.0, 9.902385 
3.55e+2, 2.841256e+2, -230255.72, -318081.25, -0.00018479154, 0.000000017325611, 0.00022904569, -230255.72, -74686.74, 0.0, 10.0, 9.885439 
3.55e+2, 2.940121e+2, -130549.58, -217765.02, -0.00036099434, 0.000000017253836, -0.00025334326, -130549.58, -71868.19, 0.0, 10.0, 9.886217 
3.55e+2, 3.0392656e+2, -40805.566, -84750.16, -0.0000015199821, 0.000000017140247, 0.00017313588, -40805.566, -40805.566, 0.0, 10.0, 9.942173 
3.55e+2, 3.138706e+2, -39727.555, -82511.21, -0.00021597052, 0.000000016965533, -0.000055142867, -39727.555, -39727.555, 0.0, 10.0, 9.943684 
3.65e+2, 1.2499334e+2, -1719946.3, -1724224.6, 0.00017887112, 0.000000019170914, 0.000017600894, -1719946.3, -4880.93, 0.0, 10.0, 9.994328 
3.65e+2, 1.349876e+2, -1622565.8, -1627434.9, -0.00008326826, 0.00000001911413, -0.00006840275, -1622565.8, -5444.1436, 0.0, 10.0, 9.993545 
3.65e+2, 1.4497513e+2, -1534464.4, -1548146.3, 0.00007980228, 0.000000019057921, 0.000070919836, -1534464.4, -15220.651, 0.0, 10.0, 9.981865 
3.65e+2, 1.5495703e+2, -1436736.6, -1450821.9, -0.00025885605, 0.00000001900226, -0.00005697913, -1436736.6, -15315.47, 0.0, 10.0, 9.981333 
3.65e+2, 1.6493228e+2, -1348685.6, -1371952.4, -0.000048937578, 0.000000018827684, 0.000047342994, -1348685.6, -25021.963, 0.0, 10.0, 9.969248 
3.65e+2, 1.7490156e+2, -1250727.6, -1274310.1, -0.00031796072, 0.000000018531681, -0.0000738306, -1250727.6, -24762.943, 0.0, 10.0, 9.968835 
3.65e+2, 1.8486421e+2, -1162646.6, -1195720.1, -0.00010425699, 0.000000018394337, 0.00006614497, -1162646.6, -34315.996, 0.0, 10.0, 9.956395 
3.65e+2, 1.9482064e+2, -1064497.0, -1097833.0, -0.0004495514, 0.000000018422998, -0.00005765619, -1064497.0, -33739.332, 0.0, 10.0, 9.956052 
3.65e+2, 2.0477042e+2, -976333.0, -1019435.0, -0.00024498184, 0.0000000184114, 0.000068078436, -976333.0, -43083.08, 0.0, 10.0, 9.943291 
3.65e+2, 2.1471375e+2, -878045.94, -921409.9, -0.00047148854, 0.000000018356175, -0.0001268272, -878045.94, -42240.664, 0.0, 10.0, 9.942949 
3.65e+2, 2.2465037e+2, -789759.8, -843144.9, -0.00017698268, 0.000000018246844, 0.000120879726, -789759.8, -51333.555, 0.0, 10.0, 9.929908 
3.65e+2, 2.3458035e+2, -691326.3, -744966.44, -0.00048469804, 0.000000018076282, -0.00008881827, -691326.3, -50213.79, 0.0, 10.0, 9.929577 
3.65e+2, 2.4450338e+2, -603002.25, -667018.8, -0.00022853918, 0.000000017972935, 0.00007470886, -603002.25, -59135.387, 0.0, 10.0, 9.916136 
3.65e+2, 2.5441962e+2, -504249.63, -568343.3, -0.00047087204, 0.000000017949924, -0.00010673655, -504249.63, -57562.047, 0.0, 10.0, 9.916036 
3.65e+2, 2.643288e+2, -416014.2, -490987.88, -0.00018601998, 0.000000017933097, 0.0001405944, -416014.2, -66436.516, 0.0, 10.0, 9.901964 
3.65e+2, 2.742313e+2, -316728.97, -391374.78, -0.00042630994, 0.000000017923934, -0.00020344408, -316728.97, -64195.97, 0.0, 10.0, 9.902385 
3.65e+2, 2.841256e+2, -230255.72, -318081.25, -0.000053164382, 0.000000017918264, 0.00022904572, -230255.72, -74686.74, 0.0, 10.0, 9.885439 
3.65e+2, 2.940121e+2, -130549.58, -217765.0, -0.00028372, 0.000000017917335, -0.0002533432, -130549.58, -71868.18, 0.0, 10.0, 9.886217 
3.65e+2, 3.0392656e+2, -40805.563, -84750.16, 0.00007757783, 0.000000017847277, 0.00017313591, -40805.563, -40805.563, 0.0, 10.0, 9.942173 
3.65e+2, 3.138706e+2, -39727.55, -82511.21, -0.00012551961, 0.000000017674603, -0.00005514294, -39727.55, -39727.55, 0.0, 10.0, 9.943684 
3.75e+2, 1.2499334e+2, -1719946.3, -1724224.6, -0.00014015617, 0.000000020037431, 0.000017601971, -1719946.3, -4880.9307, 0.0, 10.0, 9.994328 
3.75e+2, 1.349876e+2, -1622565.8, -1627434.9, -0.0004023746, 0.000000019918023, -0.000068402675, -1622565.8, -5444.1445, 0.0, 10.0, 9.993545 
3.75e+2, 1.4497513e+2, -1534464.4, -1548146.3, -0.00017898517, 0.000000019780224, 0.00007091978, -1534464.4, -15220.652, 0.0, 10.0, 9.981865 
3.75e+2, 1.5495703e+2, -1436736.6, -1450821.9, -0.0005175485, 0.000000019623853, -0.00005697909, -1436736.6, -15315.471, 0.0, 10.0, 9.981333 
3.75e+2, 1.6493228e+2, -1348685.6, -1371952.4, -0.00022696867, 0.000000019455651, 0.000047343106, -1348685.6, -25021.963, 0.0, 10.0, 9.969248 
3.75e+2, 1.7490156e+2, -1250727.6, -1274310.1, -0.0004955668, 0.000000019275364, -0.00007383044, -1250727.6, -24762.943, 0.0, 10.0, 9.968835 
3.75e+2, 1.8486421e+2, -1162646.6, -1195720.1, -0.0003291135, 0.000000019196868, 0.000066145185, -1162646.6, -34315.996, 0.0, 10.0, 9.956395 
3.75e+2, 1.9482064e+2, -1064497.0, -1097833.0, -0.0006749562, 0.000000019224881, -0.00005765589, -1064497.0, -33739.332, 0.0, 10.0, 9.956052 
3.75e+2, 2.0477042e+2, -976333.0, -1019435.0, -0.00042291838, 0.000000019138978, 0.00006807854, -976333.0, -43083.08, 0.0, 10.0, 9.943291 
3.75e+2, 2.1471375e+2, -878045.94, -921409.9, -0.0006484459, 0.000000018929684, -0.00012682762, -878045.94, -42240.664, 0.0, 10.0, 9.942949 
3.75e+2, 2.2465037e+2, -789759.8, -843144.9, -0.00030819225, 0.000000018800558, 0.00012087943, -789759.8, -51333.56, 0.0, 10.0, 9.929908 
3.75e+2, 2.3458035e+2, -691326.3, -744966.44, -0.0006144124, 0.000000018762204, -0.000088817746, -691326.3, -50213.793, 0.0, 10.0, 9.929577 
3.75e+2, 2.4450338e+2, -603002.25, -667018.8, -0.00037041228, 0.00000001877161, 0.00007470952, -603002.25, -59135.39, 0.0, 10.0, 9.916136 
3.75e+2, 2.5441962e+2, -504249.63, -568343.3, -0.00061333127, 0.000000018837959, -0.000106736596, -504249.63, -57562.047, 0.0, 10.0, 9.916036 
3.75e+2, 2.643288e+2, -416014.2, -490987.88, -0.0002807247, 0.000000018756737, 0.00014059406, -416014.2, -66436.52, 0.0, 10.0, 9.901964 
3.75e+2, 2.742313e+2, -316728.97, -391374.78, -0.0005178152, 0.000000018487558, -0.00020344422, -316728.97, -64195.97, 0.0, 10.0, 9.902385 
3.75e+2, 2.841256e+2, -230255.72, -318081.25, -0.00015636982, 0.00000001838174, 0.00022904578, -230255.72, -74686.74, 0.0, 10.0, 9.885439 
3.75e+2, 2.940121e+2, -130549.58, -217765.02, -0.00038798217, 0.000000018500337, -0.00025334297, -130549.58, -71868.18, 0.0, 10.0, 9.886217 
3.75e+2, 3.0392656e+2, -40805.563, -84750.16, 0.000021908225, 0.0000000185761, 0.0001731361, -40805.563, -40805.563, 0.0, 10.0, 9.942173 
3.75e+2, 3.138706e+2, -39727.55, -82511.21, -0.00017548756, 0.00000001858618, -0.000055143115, -39727.55, -39727.55, 0.0, 10.0, 9.943684 
3.85e+2, 1.2499334e+2, -1719946.3, -1724224.6, -0.00003796487, 0.000000021014129, 0.000017602346, -1719946.3, -4880.9263, 0.0, 10.0, 9.994328 
3.85e+2, 1.349876e+2, -1622565.8, -1627434.9, -0.00024682828, 0.000000020736074, -0.00006840248, -1622565.8, -5444.1396, 0.0, 10.0, 9.993545 
3.85e+2, 1.4497513e+2, -1534464.4, -1548146.3, 0.00006101212, 0.000000020492708, 0.00007092008, -1534464.4, -15220.647, 0.0, 10.0, 9.981865 
3.85e+2, 1.5495703e+2, -1436736.6, -1450821.9, -0.00024857282, 0.000000020284103, -0.00005697907, -1436736.6, -15315.466, 0.0, 10.0, 9.981333 
3.85e+2, 1.6493228e+2, -1348685.6, -1371952.4, 0.000015237849, 0.000000020150388, 0.00004734312, -1348685.6, -25021.959, 0.0, 10.0, 9.969248 
3.85e+2, 1.7490156e+2, -1250727.6, -1274310.1, -0.00034755605, 0.000000020093138, -0.00007383014, -1250727.6, -24762.94, 0.0, 10.0, 9.968835 
3.85e+2, 1.8486421e+2, -1162646.6, -1195720.1, -0.00016199953, 0.000000020032937, 0.00006614549, -1162646.6, -34315.992, 0.0, 10.0, 9.956395 
3.85e+2, 1.9482064e+2, -1064497.0, -1097833.0, -0.0004232284, 0.000000019969638, -0.000057655878, -1064497.0, -33739.33, 0.0, 10.0, 9.956052 
3.85e+2, 2.0477042e+2, -976333.0, -1019435.0, -0.00010504685, 0.000000019814998, 0.00006807844, -976333.0, -43083.074, 0.0, 10.0, 9.943291 
3.85e+2, 2.1471375e+2, -878045.94, -921409.9, -0.0003783766, 0.000000019561421, -0.00012682761, -878045.94, -42240.656, 0.0, 10.0, 9.942949 
3.85e+2, 2.2465037e+2, -789759.8, -843144.9, -0.0001243529, 0.000000019461389, 0.00012087954, -789759.8, -51333.555, 0.0, 10.0, 9.929908 
3.85e+2, 2.3458035e+2, -691326.3, -744966.44, -0.00053716364, 0.00000001953518, -0.00008881754, -691326.3, -50213.785, 0.0, 10.0, 9.929577 
3.85e+2, 2.4450338e+2, -603002.25, -667018.8, -0.0002865335, 0.000000019570257, 0.00007470969, -603002.25, -59135.383, 0.0, 10.0, 9.916136 
3.85e+2, 2.5441962e+2, -504249.6, -568343.3, -0.00045860096, 0.000000019558897, -0.00010673658, -504249.6, -57562.043, 0.0, 10.0, 9.916036 
3.85e+2, 2.643288e+2, -416014.2, -490987.88, -0.00006046992, 0.000000019442014, 0.00014059401, -416014.2, -66436.516, 0.0, 10.0, 9.901964 
3.85e+2, 2.742313e+2, -316728.97, -391374.78, -0.00035255833, 0.000000019190933, -0.0002034442, -316728.97, -64195.965, 0.0, 10.0, 9.902385 
3.85e+2, 2.841256e+2, -230255.7, -318081.25, -0.000068299014, 0.000000019085187, 0.00022904585, -230255.7, -74686.734, 0.0, 10.0, 9.885439 
3.85e+2, 2.940121e+2, -130549.57, -217765.0, -0.00034562708, 0.000000019178932, -0.00025334288, -130549.57, -71868.18, 0.0, 10.0, 9.886217 
3.85e+2, 3.0392656e+2, -40805.56, -84750.16, 0.00007434048, 0.000000019281662, 0.00017313613, -40805.56, -40805.56, 0.0, 10.0, 9.942173 
3.85e+2, 3.138706e+2, -39727.547, -82511.21, -0.00006767564, 0.000000019395845, -0.00005514318, -39727.547, -39727.547, 0.0, 10.0, 9.943684 
3.95e+2, 1.2499334e+2, -1719946.3, -1724224.6, -0.00027232632, 0.000000022101007, 0.000017602018, -1719946.3, -4880.927, 0.0, 10.0, 9.994328 
3.95e+2, 1.349876e+2, -1622565.8, -1627434.9, -0.0004812423, 0.000000021568285, -0.00006840216, -1622565.8, -5444.14, 0.0, 10.0, 9.993545 
3.95e+2, 1.4497513e+2, -1534464.4, -1548146.3, -0.00014925654, 0.000000021195374, 0.000070920745, -1534464.4, -15220.647, 0.0, 10.0, 9.981865 
3.95e+2, 1.5495703e+2, -1436736.6, -1450821.9, -0.0004588039, 0.000000020983009, -0.000056979075, -1436736.6, -15315.466, 0.0, 10.0, 9.981333 
3.95e+2, 1.6493228e+2, -1348685.6, -1371952.4, -0.00026760413, 0.000000020911893, 0.00004734304, -1348685.6, -25021.959, 0.0, 10.0, 9.969248 
3.95e+2, 1.7490156e+2, -1250727.6, -1274310.1, -0.0006307823, 0.000000020985006, -0.00007382969, -1250727.6, -24762.94, 0.0, 10.0, 9.968835 
3.95e+2, 1.8486421e+2, -1162646.6, -1195720.1, -0.0003474057, 0.000000020902544, 0.000066145876, -1162646.6, -34315.992, 0.0, 10.0, 9.956395 
3.95e+2, 1.9482064e+2, -1064497.0, -1097833.0, -0.00060750294, 0.000000020657271, -0.00005765617, -1064497.0, -33739.33, 0.0, 10.0, 9.956052 
3.95e+2, 2.0477042e+2, -976333.0, -1019435.0, -0.00024792773, 0.000000020439456, 0.00006807816, -976333.0, -43083.074, 0.0, 10.0, 9.943291 
3.95e+2, 2.1471375e+2, -878045.94, -921409.9, -0.0005204039, 0.000000020251383, -0.00012682716, -878045.94, -42240.66, 0.0, 10.0, 9.942949 
3.95e+2, 2.2465037e+2, -789759.8, -843144.9, -0.00033526187, 0.000000020229344, 0.000120880075, -789759.8, -51333.555, 0.0, 10.0, 9.929908 
3.95e+2, 2.3458035e+2, -691326.3, -744966.44, -0.00075032766, 0.00000002039521, -0.00008881765, -691326.3, -50213.79, 0.0, 10.0, 9.929577 
3.95e+2, 2.4450338e+2, -603002.25, -667018.8, -0.0004227909, 0.000000020368871, 0.000074709395, -603002.25, -59135.387, 0.0, 10.0, 9.916136 
3.95e+2, 2.5441962e+2, -504249.6, -568343.3, -0.0005911646, 0.000000020112735, -0.00010673651, -504249.6, -57562.043, 0.0, 10.0, 9.916036 
3.95e+2, 2.643288e+2, -416014.2, -490987.88, -0.00013801303, 0.00000001998893, 0.00014059426, -416014.2, -66436.516, 0.0, 10.0, 9.901964 
3.95e+2, 2.742313e+2, -316728.97, -391374.78, -0.00042641466, 0.000000020034058, -0.00020344403, -316728.97, -64195.965, 0.0, 10.0, 9.902385 
3.95e+2, 2.841256e+2, -230255.7, -318081.25, -0.00018188822, 0.000000020028606, 0.00022904592, -230255.7, -74686.734, 0.0, 10.0, 9.885439 
3.95e+2, 2.940121e+2, -130549.57, -217765.02, -0.0004627992, 0.000000019953122, -0.00025334297, -130549.57, -71868.18, 0.0, 10.0, 9.886217 
3.95e+2, 3.0392656e+2, -40805.56, -84750.16, -0.000059777456, 0.000000019963963, 0.00017313601, -40805.56, -40805.56, 0.0, 10.0, 9.942173 
3.95e+2, 3.138706e+2, -39727.547, -82511.21, -0.00020378605, 0.000000020103599, -0.000055143137, -39727.547, -39727.547, 0.0, 10.0, 9.943684 
4.05e+2, 1.2499334e+2, -1719946.1, -1724224.6, 0.00061380275, 0.000000022894707, 0.000017601611, -1719946.1, -4880.9214, 0.0, 10.0, 9.994328 
4.05e+2, 1.349876e+2, -1622565.8, -1627434.9, -0.00003685834, 0.00000002229113, -0.00006840212, -1622565.8, -5444.135, 0.0, 10.0, 9.993545 
4.05e+2, 1.4497513e+2, -1534464.3, -1548146.3, 0.00010608194, 0.000000021944539, 0.00007092122, -1534464.3, -15220.643, 0.0, 10.0, 9.981865 
4.05e+2, 1.5495703e+2, -1436736.6, -1450821.9, -0.00016291505, 0.000000021856234, -0.00005697893, -1436736.6, -15315.461, 0.0, 10.0, 9.981333 
4.05e+2, 1.6493228e+2, -1348685.6, -1371952.4, 0.000028685783, 0.000000021789951, 0.00004734308, -1348685.6, -25021.955, 0.0, 10.0, 9.969248 
4.05e+2, 1.7490156e+2, -1250727.6, -1274310.1, -0.00038189345, 0.000000021746159, -0.00007382953, -1250727.6, -24762.936, 0.0, 10.0, 9.968835 
4.05e+2, 1.8486421e+2, -1162646.6, -1195720.1, -0.00006278733, 0.000000021598662, 0.00006614602, -1162646.6, -34315.99, 0.0, 10.0, 9.956395 
4.05e+2, 1.9482064e+2, -1064496.9, -1097833.0, -0.00031173162, 0.000000021342634, -0.000057656187, -1064496.9, -33739.32, 0.0, 10.0, 9.956052 
4.05e+2, 2.0477042e+2, -976332.94, -1019435.0, -0.000033164775, 0.000000021185327, 0.00006807822, -976332.94, -43083.07, 0.0, 10.0, 9.943291 
4.05e+2, 2.1471375e+2, -878045.94, -921409.9, -0.00051383756, 0.000000021134936, -0.00012682677, -878045.94, -42240.652, 0.0, 10.0, 9.942949 
4.05e+2, 2.2465037e+2, -789759.8, -843144.9, -0.00028770126, 0.000000021111795, 0.00012088042, -789759.8, -51333.55, 0.0, 10.0, 9.929908 
4.05e+2, 2.3458035e+2, -691326.3, -744966.44, -0.00039504806, 0.000000021119442, -0.00008881782, -691326.3, -50213.78, 0.0, 10.0, 9.929577 
4.05e+2, 2.4450338e+2, -603002.25, -667018.8, 0.000024537674, 0.000000021004112, 0.000074709125, -603002.25, -59135.38, 0.0, 10.0, 9.916136 
4.05e+2, 2.5441962e+2, -504249.6, -568343.3, -0.00042362852, 0.000000020741835, -0.000106736414, -504249.6, -57562.04, 0.0, 10.0, 9.916036 
4.05e+2, 2.643288e+2, -416014.2, -490987.88, -0.00014257996, 0.000000020688374, 0.00014059452, -416014.2, -66436.51, 0.0, 10.0, 9.901964 
4.05e+2, 2.742313e+2, -316728.97, -391374.78, -0.00040619247, 0.000000020900991, -0.00020344387, -316728.97, -64195.96, 0.0, 10.0, 9.902385 
4.05e+2, 2.841256e+2, -230255.7, -318081.25, -0.000044957153, 0.00000002095452, 0.00022904595, -230255.7, -74686.734, 0.0, 10.0, 9.885439 
4.05e+2, 2.940121e+2, -130549.57, -217765.0, -0.00021898802, 0.000000020789077, -0.0002533431, -130549.57, -71868.17, 0.0, 10.0, 9.886217 
4.05e+2, 3.0392656e+2, -40805.555, -84750.16, 0.00015744583, 0.000000020691807, 0.0001731359, -40805.555, -40805.555, 0.0, 10.0, 9.942173 
4.05e+2, 3.138706e+2, -39727.543, -82511.21, -0.00021099551, 0.000000020697813, -0.000055142962, -39727.543, -39727.543, 0.0, 10.0, 9.943684 
4.15e+2, 1.2499334e+2, -1719946.1, -1724224.6, 0.0003216903, 0.000000023395229, 0.000017601124, -1719946.1, -4880.923, 0.0, 10.0, 9.994328 
4.15e+2, 1.349876e+2, -1622565.8, -1627434.9, -0.00032904086, 0.000000022904615, -0.00006840236, -1622565.8, -5444.136, 0.0, 10.0, 9.993545 
4.15e+2, 1.4497513e+2, -1534464.3, -1548146.3, -0.0001877419, 0.0000000227402, 0.00007092151, -1534464.3, -15220.644, 0.0, 10.0, 9.981865 
4.15e+2, 1.5495703e+2, -1436736.6, -1450821.9, -0.00045674236, 0.00000002290378, -0.000056978628, -1436736.6, -15315.462, 0.0, 10.0, 9.981333 
4.15e+2, 1.6493228e+2, -1348685.6, -1371952.4, -0.00018842927, 0.000000022784564, 0.00004734325, -1348685.6, -25021.955, 0.0, 10.0, 9.969248 
4.15e+2, 1.7490156e+2, -1250727.6, -1274310.1, -0.00059860473, 0.000000022376597, -0.00007382965, -1250727.6, -24762.936, 0.0, 10.0, 9.968835 
4.15e+2, 1.8486421e+2, -1162646.6, -1195720.1, -0.00026995924, 0.000000022121295, 0.00006614592, -1162646.6, -34315.99, 0.0, 10.0, 9.956395 
4.15e+2, 1.9482064e+2, -1064496.9, -1097833.0, -0.0005187943, 0.000000022025729, -0.000057655932, -1064496.9, -33739.324, 0.0, 10.0, 9.956052 
4.15e+2, 2.0477042e+2, -976332.94, -1019435.0, -0.00025695766, 0.00000002205261, 0.000068078625, -976332.94, -43083.07, 0.0, 10.0, 9.943291 
4.15e+2, 2.1471375e+2, -878045.94, -921409.9, -0.0007379774, 0.00000002221208, -0.00012682642, -878045.94, -42240.656, 0.0, 10.0, 9.942949 
4.15e+2, 2.2465037e+2, -789759.8, -843144.9, -0.00042839424, 0.000000022108743, 0.000120880555, -789759.8, -51333.55, 0.0, 10.0, 9.929908 
4.15e+2, 2.3458035e+2, -691326.3, -744966.44, -0.00053301296, 0.000000021707876, -0.00008881804, -691326.3, -50213.785, 0.0, 10.0, 9.929577 
4.15e+2, 2.4450338e+2, -603002.25, -667018.8, -0.0000877483, 0.00000002147598, 0.00007470887, -603002.25, -59135.383, 0.0, 10.0, 9.916136 
4.15e+2, 2.5441962e+2, -504249.6, -568343.3, -0.0005346823, 0.000000021446198, -0.0001067363, -504249.6, -57562.04, 0.0, 10.0, 9.916036 
4.15e+2, 2.643288e+2, -416014.2, -490987.88, -0.00036016596, 0.000000021540346, 0.00014059478, -416014.2, -66436.516, 0.0, 10.0, 9.901964 
4.15e+2, 2.742313e+2, -316728.97, -391374.78, -0.00063092343, 0.00000002179173, -0.00020344372, -316728.97, -64195.96, 0.0, 10.0, 9.902385 
4.15e+2, 2.841256e+2, -230255.7, -318081.25, -0.00011508284, 0.000000021862924, 0.00022904594, -230255.7, -74686.734, 0.0, 10.0, 9.885439 
4.15e+2, 2.940121e+2, -130549.57, -217765.02, -0.00027518574, 0.000000021686803, -0.00025334334, -130549.57, -71868.17, 0.0, 10.0, 9.886217 
4.15e+2, 3.0392656e+2, -40805.555, -84750.16, 0.00013322548, 0.0000000214652, 0.00017313575, -40805.555, -40805.555, 0.0, 10.0, 9.942173 
4.15e+2, 3.138706e+2, -39727.543, -82511.21, -0.0002314651, 0.000000021178488, -0.000055142656, -39727.543, -39727.543, 0.0, 10.0, 9.943684 
4.25e+2, 1.2499334e+2, -1719946.1, -1724224.6, 0.00034938336, 0.000000024113646, 0.000017601833, -1719946.1, -4880.917, 0.0, 10.0, 9.994327 
4.25e+2, 1.349876e+2, -1622565.8, -1627434.9, 0.000076081444, 0.00000002370464, -0.000068402645, -1622565.8, -5444.1304, 0.0, 10.0, 9.993545 
4.25e+2, 1.4497513e+2, -1534464.3, -1548146.3, 0.00028675297, 0.000000023571648, 0.00007092139, -1534464.3, -15220.638, 0.0, 10.0, 9.981865 
4.25e+2, 1.5495703e+2, -1436736.6, -1450821.9, -0.00022083834, 0.000000023716128, -0.000056978228, -1436736.6, -15315.456, 0.0, 10.0, 9.981333 
4.25e+2, 1.6493228e+2, -1348685.6, -1371952.4, 0.000090638896, 0.000000023575625, 0.000047343627, -1348685.6, -25021.951, 0.0, 10.0, 9.969248 
4.25e+2, 1.7490156e+2, -1250727.6, -1274310.1, -0.00018755814, 0.000000023144139, -0.00007382983, -1250727.6, -24762.93, 0.0, 10.0, 9.968835 
4.25e+2, 1.8486421e+2, -1162646.6, -1195720.1, 0.0000772138, 0.000000022901977, 0.00006614576, -1162646.6, -34315.984, 0.0, 10.0, 9.956395 
4.25e+2, 1.9482064e+2, -1064496.9, -1097833.0, -0.00042556715, 0.00000002285791, -0.00005765546, -1064496.9, -33739.316, 0.0, 10.0, 9.956052 
4.25e+2, 2.0477042e+2, -976332.94, -1019435.0, -0.00016193833, 0.000000022900439, 0.00006807911, -976332.94, -43083.063, 0.0, 10.0, 9.943291 
4.25e+2, 2.1471375e+2, -878045.94, -921409.9, -0.00036115994, 0.000000023036728, -0.00012682658, -878045.94, -42240.65, 0.0, 10.0, 9.942949 
4.25e+2, 2.2465037e+2, -789759.8, -843144.9, 0.00003974915, 0.000000022887962, 0.00012088027, -789759.8, -51333.543, 0.0, 10.0, 9.929908 
4.25e+2, 2.3458035e+2, -691326.3, -744966.44, -0.0004025016, 0.000000022416494, -0.000088817826, -691326.3, -50213.777, 0.0, 10.0, 9.929577 
4.25e+2, 2.4450338e+2, -603002.25, -667018.8, -0.00009175323, 0.000000022238254, 0.00007470923, -603002.25, -59135.375, 0.0, 10.0, 9.916136 
4.25e+2, 2.5441962e+2, -504249.6, -568343.3, -0.00033544409, 0.000000022410582, -0.000106736225, -504249.6, -57562.035, 0.0, 10.0, 9.916036 
4.25e+2, 2.643288e+2, -416014.2, -490987.88, -0.00004749667, 0.000000022498376, 0.0001405947, -416014.2, -66436.51, 0.0, 10.0, 9.901964 
4.25e+2, 2.742313e+2, -316728.97, -391374.78, -0.00038046454, 0.000000022477751, -0.00020344384, -316728.97, -64195.957, 0.0, 10.0, 9.902385 
4.25e+2, 2.841256e+2, -230255.7, -318081.25, 0.000057361638, 0.000000022441771, 0.00022904591, -230255.7, -74686.73, 0.0, 10.0, 9.885439 
4.25e+2, 2.940121e+2, -130549.56, -217765.0, -0.0003082899, 0.000000022385287, -0.00025334308, -130549.56, -71868.17, 0.0, 10.0, 9.886217 
4.25e+2, 3.0392656e+2, -40805.55, -84750.16, 0.00005084761, 0.00000002227316, 0.00017313601, -40805.55, -40805.55, 0.0, 10.0, 9.942173 
4.25e+2, 3.138706e+2, -39727.54, -82511.21, -0.00019870434, 0.000000022078712, -0.000055142733, -39727.54, -39727.54, 0.0, 10.0, 9.943684 
4.35e+2, 1.2499334e+2, -1719946.1, -1724224.6, 0.000017189848, 0.000000025049959, 0.000017603737, -1719946.1, -4880.9175, 0.0, 10.0, 9.994327 
4.35e+2, 1.349876e+2, -1622565.8, -1627434.9, -0.00025619275, 0.000000024691207, -0.000068402966, -1622565.8, -5444.1313, 0.0, 10.0, 9.993545 
4.35e+2, 1.4497513e+2, -1534464.3, -1548146.3, -0.000050085433, 0.000000024438878, 0.00007092089, -1534464.3, -15220.639, 0.0, 10.0, 9.981865 
4.35e+2, 1.5495703e+2, -1436736.6, -1450821.9, -0.00055768504, 0.000000024293277, -0.000056977737, -1436736.6, -15315.458, 0.0, 10.0, 9.981333 
4.35e+2, 1.6493228e+2, -1348685.6, -1371952.4, -0.00012756894, 0.000000024163139, 0.000047344212, -1348685.6, -25021.951, 0.0, 10.0, 9.969248 
4.35e+2, 1.7490156e+2, -1250727.6, -1274310.1, -0.0004051408, 0.000000024048786, -0.00007383007, -1250727.6, -24762.932, 0.0, 10.0, 9.968835 
4.35e+2, 1.8486421e+2, -1162646.6, -1195720.1, -0.0001674315, 0.000000023940707, 0.00006614554, -1162646.6, -34315.984, 0.0, 10.0, 9.956395 
4.35e+2, 1.9482064e+2, -1064496.9, -1097833.0, -0.00067052734, 0.000000023839176, -0.000057654765, -1064496.9, -33739.32, 0.0, 10.0, 9.956052 
4.35e+2, 2.0477042e+2, -976332.94, -1019435.0, -0.00039409532, 0.000000023728814, 0.00006807968, -976332.94, -43083.066, 0.0, 10.0, 9.943291 
4.35e+2, 2.1471375e+2, -878045.94, -921409.9, -0.00059305417, 0.000000023608884, -0.00012682728, -878045.94, -42240.652, 0.0, 10.0, 9.942949 
4.35e+2, 2.2465037e+2, -789759.8, -843144.9, -0.000076445554, 0.000000023449452, 0.00012087956, -789759.8, -51333.547, 0.0, 10.0, 9.929908 
4.35e+2, 2.3458035e+2, -691326.3, -744966.44, -0.00051491277, 0.000000023245295, -0.000088817185, -691326.3, -50213.777, 0.0, 10.0, 9.929577 
4.35e+2, 2.4450338e+2, -603002.25, -667018.8, -0.00031489157, 0.000000023290935, 0.00007471019, -603002.25, -59135.375, 0.0, 10.0, 9.916136 
4.35e+2, 2.5441962e+2, -504249.6, -568343.3, -0.0005639058, 0.000000023634989, -0.000106736195, -504249.6, -57562.035, 0.0, 10.0, 9.916036 
4.35e+2, 2.643288e+2, -416014.2, -490987.88, -0.00011965751, 0.000000023562464, 0.00014059423, -416014.2, -66436.51, 0.0, 10.0, 9.901964 
4.35e+2, 2.742313e+2, -316728.97, -391374.78, -0.0004421486, 0.000000022959057, -0.00020344423, -316728.97, -64195.957, 0.0, 10.0, 9.902385 
4.35e+2, 2.841256e+2, -230255.7, -318081.25, -0.000065948196, 0.000000022691061, 0.00022904588, -230255.7, -74686.73, 0.0, 10.0, 9.885439 
4.35e+2, 2.940121e+2, -130549.56, -217765.02, -0.00043715507, 0.000000022884528, -0.00025334238, -130549.56, -71868.17, 0.0, 10.0, 9.886217 
4.35e+2, 3.0392656e+2, -40805.55, -84750.16, -0.00004851931, 0.000000023115687, 0.00017313668, -40805.55, -40805.55, 0.0, 10.0, 9.942173 
4.35e+2, 3.138706e+2, -39727.54, -82511.21, -0.00029461135, 0.000000023398483, -0.0000551432, -39727.54, -39727.54, 0.0, 10.0, 9.943684 
4.45e+2, 1.2499334e+2, -1719946.1, -1724224.6, -0.000050386472, 0.000000026013353, 0.000017604372, -1719946.1, -4880.9116, 0.0, 10.0, 9.994327 
4.45e+2, 1.349876e+2, -1622565.8, -1627434.9, -0.00021003016, 0.000000025716995, -0.000068402725, -1622565.8, -5444.1255, 0.0, 10.0, 9.993545 
4.45e+2, 1.4497513e+2, -1534464.3, -1548146.3, 0.00014908408, 0.000000025393184, 0.000070921276, -1534464.3, -15220.633, 0.0, 10.0, 9.981865 
4.45e+2, 1.5495703e+2, -1436736.6, -1450821.9, -0.00030007178, 0.00000002504123, -0.000056977584, -1436736.6, -15315.451, 0.0, 10.0, 9.981333 
4.45e+2, 1.6493228e+2, -1348685.6, -1371952.4, 0.00011621945, 0.000000024892287, 0.000047344325, -1348685.6, -25021.945, 0.0, 10.0, 9.969248 
4.45e+2, 1.7490156e+2, -1250727.6, -1274310.1, -0.0002045152, 0.000000024950635, -0.000073829804, -1250727.6, -24762.926, 0.0, 10.0, 9.968835 
4.45e+2, 1.8486421e+2, -1162646.6, -1195720.1, 0.000108836975, 0.000000024916135, 0.00006614578, -1162646.6, -34315.98, 0.0, 10.0, 9.956395 
4.45e+2, 1.9482064e+2, -1064496.9, -1097833.0, -0.00030078314, 0.000000024784466, -0.000057654768, -1064496.9, -33739.313, 0.0, 10.0, 9.956052 
4.45e+2, 2.0477042e+2, -976332.94, -1019435.0, 0.000026638889, 0.00000002456738, 0.00006807962, -976332.94, -43083.06, 0.0, 10.0, 9.943291 
4.45e+2, 2.1471375e+2, -878045.94, -921409.9, -0.00028239572, 0.000000024257785, -0.00012682719, -878045.94, -42240.645, 0.0, 10.0, 9.942949 
4.45e+2, 2.2465037e+2, -789759.8, -843144.9, 0.00013971665, 0.0000000241446, 0.000120879704, -789759.8, -51333.54, 0.0, 10.0, 9.929908 
4.45e+2, 2.3458035e+2, -691326.3, -744966.44, -0.00032988697, 0.000000024253747, -0.00008881707, -691326.3, -50213.773, 0.0, 10.0, 9.929577 
4.45e+2, 2.4450338e+2, -603002.25, -667018.8, -0.00014432993, 0.000000024353275, 0.0000747103, -603002.25, -59135.37, 0.0, 10.0, 9.916136 
4.45e+2, 2.5441962e+2, -504249.6, -568343.3, -0.00045109936, 0.000000024441075, -0.00010673606, -504249.6, -57562.03, 0.0, 10.0, 9.916036 
4.45e+2, 2.643288e+2, -416014.2, -490987.88, 0.000075866825, 0.000000024256494, 0.00014059433, -416014.2, -66436.5, 0.0, 10.0, 9.901964 
4.45e+2, 2.742313e+2, -316728.97, -391374.78, -0.00022294883, 0.00000002372527, -0.0002034442, -316728.97, -64195.95, 0.0, 10.0, 9.902385 
4.45e+2, 2.841256e+2, -230255.7, -318081.25, 0.0000711232, 0.000000023500146, 0.00022904588, -230255.7, -74686.73, 0.0, 10.0, 9.885439 
4.45e+2, 2.940121e+2, -130549.56, -217765.0, -0.00033173704, 0.000000023695495, -0.0002533423, -130549.56, -71868.164, 0.0, 10.0, 9.886217 
4.45e+2, 3.0392656e+2, -40805.547, -84750.16, 0.00009139283, 0.000000023964875, 0.00017313672, -40805.547, -40805.547, 0.0, 10.0, 9.942173 
4.45e+2, 3.138706e+2, -39727.535, -82511.21, -0.000014049288, 0.000000024340167, -0.000055143413, -39727.535, -39727.535, 0.0, 10.0, 9.943684 
4.55e+2, 1.2499334e+2, -1719946.1, -1724224.6, -0.00037939506, 0.000000027003834, 0.000017603737, -1719946.1, -4880.912, 0.0, 10.0, 9.994327 
4.55e+2, 1.349876e+2, -1622565.8, -1627434.9, -0.00053910905, 0.000000026782, -0.00006840192, -1622565.8, -5444.126, 0.0, 10.0, 9.993545 
4.55e+2, 1.4497513e+2, -1534464.3, -1548146.3, -0.000043667667, 0.000000026434565, 0.00007092256, -1534464.3, -15220.635, 0.0, 10.0, 9.981865 
4.55e+2, 1.5495703e+2, -1436736.6, -1450821.9, -0.00049260876, 0.000000025959983, -0.000056977766, -1436736.6, -15315.452, 0.0, 10.0, 9.981333 
4.55e+2, 1.6493228e+2, -1348685.6, -1371952.4, -0.00024154776, 0.000000025763072, 0.000047343965, -1348685.6, -25021.945, 0.0, 10.0, 9.969248 
4.55e+2, 1.7490156e+2, -1250727.6, -1274310.1, -0.00056315603, 0.000000025849683, -0.00007382903, -1250727.6, -24762.926, 0.0, 10.0, 9.968835 
4.55e+2, 1.8486421e+2, -1162646.6, -1195720.1, -0.000120464865, 0.000000025828262, 0.000066146466, -1162646.6, -34315.98, 0.0, 10.0, 9.956395 
4.55e+2, 1.9482064e+2, -1064496.9, -1097833.0, -0.0005285887, 0.000000025693781, -0.000057655463, -1064496.9, -33739.313, 0.0, 10.0, 9.956052 
4.55e+2, 2.0477042e+2, -976332.94, -1019435.0, -0.00010510244, 0.000000025416133, 0.000068078945, -976332.94, -43083.06, 0.0, 10.0, 9.943291 
4.55e+2, 2.1471375e+2, -878045.94, -921409.9, -0.00041215465, 0.000000024983432, -0.00012682633, -878045.94, -42240.645, 0.0, 10.0, 9.942949 
4.55e+2, 2.2465037e+2, -789759.8, -843144.9, -0.00015029869, 0.000000024973405, 0.00012088071, -789759.8, -51333.54, 0.0, 10.0, 9.929908 
4.55e+2, 2.3458035e+2, -691326.3, -744966.44, -0.000625147, 0.00000002544185, -0.000088817476, -691326.3, -50213.773, 0.0, 10.0, 9.929577 
4.55e+2, 2.4450338e+2, -603002.25, -667018.8, -0.00027285807, 0.000000025425274, 0.00007470957, -603002.25, -59135.37, 0.0, 10.0, 9.916136 
4.55e+2, 2.5441962e+2, -504249.6, -568343.3, -0.00057161733, 0.00000002482884, -0.00010673582, -504249.6, -57562.03, 0.0, 10.0, 9.916036 
4.55e+2, 2.643288e+2, -416014.2, -490987.88, 0.000014769732, 0.00000002458047, 0.00014059502, -416014.2, -66436.5, 0.0, 10.0, 9.901964 
4.55e+2, 2.742313e+2, -316728.97, -391374.78, -0.00028006407, 0.000000024776394, -0.00020344378, -316728.97, -64195.953, 0.0, 10.0, 9.902385 
4.55e+2, 2.841256e+2, -230255.7, -318081.25, -0.000089384186, 0.000000024869024, 0.00022904592, -230255.7, -74686.73, 0.0, 10.0, 9.885439 
4.55e+2, 2.940121e+2, -130549.56, -217765.02, -0.0005015636, 0.00000002481819, -0.00025334282, -130549.56, -71868.164, 0.0, 10.0, 9.886217 
4.55e+2, 3.0392656e+2, -40805.547, -84750.16, -0.000118342876, 0.000000024820721, 0.00017313611, -40805.547, -40805.547, 0.0, 10.0, 9.942173 
4.55e+2, 3.138706e+2, -39727.535, -82511.21, -0.00022847354, 0.000000024903763, -0.00005514337, -39727.535, -39727.535, 0.0, 10.0, 9.943684 
4.65e+2, 1.2499334e+2, -1719946.1, -1724224.6, 0.0008154449, 0.000000027880157, 0.000017603024, -1719946.1, -4880.9053, 0.0, 10.0, 9.994327 
4.65e+2, 1.349876e+2, -1622565.8, -1627434.9, -0.00010309932, 0.000000027562557, -0.000068401605, -1622565.8, -5444.119, 0.0, 10.0, 9.993545 
4.65e+2, 1.4497513e+2, -1534464.3, -1548146.3, 0.00020756846, 0.000000027292092, 0.00007092341, -1534464.3, -15220.628, 0.0, 10.0, 9.981865 
4.65e+2, 1.5495703e+2, -1436736.6, -1450821.9, -0.0000014836791, 0.000000027068152, -0.000056977897, -1436736.6, -15315.446, 0.0, 10.0, 9.981333 
4.65e+2, 1.6493228e+2, -1348685.6, -1371952.4, 0.0002482043, 0.000000026876368, 0.000047343692, -1348685.6, -25021.94, 0.0, 10.0, 9.969248 
4.65e+2, 1.7490156e+2, -1250727.6, -1274310.1, -0.0003322721, 0.000000026717414, -0.00007382858, -1250727.6, -24762.92, 0.0, 10.0, 9.968835 
4.65e+2, 1.8486421e+2, -1162646.6, -1195720.1, 0.00010583865, 0.000000026591643, 0.00006614696, -1162646.6, -34315.973, 0.0, 10.0, 9.956395 
4.65e+2, 1.9482064e+2, -1064496.9, -1097833.0, -0.0001159086, 0.000000026500574, -0.000057655616, -1064496.9, -33739.31, 0.0, 10.0, 9.956052 
4.65e+2, 2.0477042e+2, -976332.94, -1019435.0, 0.00028914452, 0.000000026313007, 0.00006807875, -976332.94, -43083.055, 0.0, 10.0, 9.943291 
4.65e+2, 2.1471375e+2, -878045.94, -921409.9, -0.00036997, 0.000000026020908, -0.00012682591, -878045.94, -42240.64, 0.0, 10.0, 9.942949 
4.65e+2, 2.2465037e+2, -789759.8, -843144.9, -0.00015850252, 0.000000026002699, 0.00012088121, -789759.8, -51333.535, 0.0, 10.0, 9.929908 
4.65e+2, 2.3458035e+2, -691326.3, -744966.44, -0.00025736622, 0.000000026294536, -0.00008881752, -691326.3, -50213.77, 0.0, 10.0, 9.929577 
4.65e+2, 2.4450338e+2, -603002.25, -667018.8, 0.00029680016, 0.00000002615331, 0.00007470933, -603002.25, -59135.367, 0.0, 10.0, 9.916136 
4.65e+2, 2.5441962e+2, -504249.6, -568343.3, -0.0002921854, 0.000000025494455, -0.000106735846, -504249.6, -57562.023, 0.0, 10.0, 9.916036 
4.65e+2, 2.643288e+2, -416014.2, -490987.88, 0.000018863862, 0.00000002535215, 0.00014059518, -416014.2, -66436.5, 0.0, 10.0, 9.901964 
4.65e+2, 2.742313e+2, -316728.94, -391374.78, -0.0002989322, 0.00000002586843, -0.00020344346, -316728.94, -64195.945, 0.0, 10.0, 9.902385 
4.65e+2, 2.841256e+2, -230255.69, -318081.25, 0.00009654156, 0.00000002609153, 0.00022904608, -230255.69, -74686.72, 0.0, 10.0, 9.885439 
4.65e+2, 2.940121e+2, -130549.555, -217765.0, -0.00001431399, 0.000000025910328, -0.00025334326, -130549.555, -71868.16, 0.0, 10.0, 9.886217 
4.65e+2, 3.0392656e+2, -40805.54, -84750.16, 0.00037173482, 0.00000002568849, 0.00017313565, -40805.54, -40805.54, 0.0, 10.0, 9.942173 
4.65e+2, 3.138706e+2, -39727.53, -82511.21, -0.00024568033, 0.000000025410127, -0.00005514304, -39727.53, -39727.53, 0.0, 10.0, 9.943684 
4.75e+2, 1.2499334e+2, -1719946.1, -1724224.6, 0.0004269153, 0.000000028642324, 0.000017602233, -1719946.1, -4880.9077, 0.0, 10.0, 9.994327 
4.75e+2, 1.349876e+2, -1622565.8, -1627434.9, -0.00049172196, 0.000000028058663, -0.00006840178, -1622565.8, -5444.1216, 0.0, 10.0, 9.993545 
4.75e+2, 1.4497513e+2, -1534464.3, -1548146.3, -0.00016648356, 0.000000027965765, 0.00007092383, -1534464.3, -15220.628, 0.0, 10.0, 9.981865 
4.75e+2, 1.5495703e+2, -1436736.6, -1450821.9, -0.00037551398, 0.000000028365738, -0.000056977973, -1436736.6, -15315.447, 0.0, 10.0, 9.981333 
4.75e+2, 1.6493228e+2, -1348685.6, -1371952.4, 0.000046328674, 0.000000028232172, 0.000047343514, -1348685.6, -25021.941, 0.0, 10.0, 9.969248 
4.75e+2, 1.7490156e+2, -1250727.6, -1274310.1, -0.0005332409, 0.000000027553828, -0.00007382846, -1250727.6, -24762.922, 0.0, 10.0, 9.968835 
4.75e+2, 1.8486421e+2, -1162646.6, -1195720.1, -0.00015239714, 0.000000027206276, 0.00006614727, -1162646.6, -34315.973, 0.0, 10.0, 9.956395 
4.75e+2, 1.9482064e+2, -1064496.9, -1097833.0, -0.00037480937, 0.000000027204846, -0.000057655227, -1064496.9, -33739.31, 0.0, 10.0, 9.956052 
4.75e+2, 2.0477042e+2, -976332.94, -1019435.0, 0.000039171708, 0.000000027257997, 0.00006807904, -976332.94, -43083.055, 0.0, 10.0, 9.943291 
4.75e+2, 2.1471375e+2, -878045.94, -921409.9, -0.00061976, 0.000000027370211, -0.0001268259, -878045.94, -42240.64, 0.0, 10.0, 9.942949 
4.75e+2, 2.2465037e+2, -789759.8, -843144.9, -0.00032781737, 0.000000027232481, 0.00012088121, -789759.8, -51333.535, 0.0, 10.0, 9.929908 
4.75e+2, 2.3458035e+2, -691326.3, -744966.44, -0.00042405078, 0.000000026811806, -0.0000888172, -691326.3, -50213.77, 0.0, 10.0, 9.929577 
4.75e+2, 2.4450338e+2, -603002.25, -667018.8, 0.00022186844, 0.000000026537384, 0.00007470957, -603002.25, -59135.367, 0.0, 10.0, 9.916136 
4.75e+2, 2.5441962e+2, -504249.6, -568343.3, -0.00036270954, 0.000000026437919, -0.000106736145, -504249.6, -57562.027, 0.0, 10.0, 9.916036 
4.75e+2, 2.643288e+2, -416014.2, -490987.88, -0.00031602918, 0.00000002657154, 0.00014059483, -416014.2, -66436.5, 0.0, 10.0, 9.901964 
4.75e+2, 2.742313e+2, -316728.94, -391374.78, -0.00065155287, 0.000000027001379, -0.00020344323, -316728.94, -64195.945, 0.0, 10.0, 9.902385 
4.75e+2, 2.841256e+2, -230255.69, -318081.25, 0.00002591615, 0.000000027167665, 0.00022904639, -230255.69, -74686.72, 0.0, 10.0, 9.885439 
4.75e+2, 2.940121e+2, -130549.555, -217765.0, -0.000059533006, 0.00000002697191, -0.00025334358, -130549.555, -71868.164, 0.0, 10.0, 9.886217 
4.75e+2, 3.0392656e+2, -40805.543, -84750.16, 0.000449722, 0.000000026568179, 0.00017313534, -40805.543, -40805.543, 0.0, 10.0, 9.942173 
4.75e+2, 3.138706e+2, -39727.53, -82511.21, -0.00015323241, 0.000000025859265, -0.000055142424, -39727.53, -39727.53, 0.0, 10.0, 9.943684 
4.85e+2, 1.2499334e+2, -1719946.1, -1724224.6, 0.00040593286, 0.000000029633192, 0.000017603159, -1719946.1, -4880.901, 0.0, 10.0, 9.994327 
4.85e+2, 1.349876e+2, -1622565.6, -1627434.9, 0.00015144695, 0.000000028959654, -0.00006840222, -1622565.6, -5444.1143, 0.0, 10.0, 9.993545 
4.85e+2, 1.4497514e+2, -1534464.3, -1548146.3, 0.00056192826, 0.000000028829165, 0.00007092357, -1534464.3, -15220.621, 0.0, 10.0, 9.981865 
4.85e+2, 1.5495703e+2, -1436736.6, -1450821.9, -0.00006430441, 0.000000029244008, -0.000056977617, -1436736.6, -15315.44, 0.0, 10.0, 9.981333 
4.85e+2, 1.6493228e+2, -1348685.6, -1371952.4, 0.00039325305, 0.000000029153894, 0.00004734392, -1348685.6, -25021.934, 0.0, 10.0, 9.969248 
4.85e+2, 1.7490156e+2, -1250727.6, -1274310.1, -0.00002209714, 0.000000028548184, -0.00007382859, -1250727.6, -24762.914, 0.0, 10.0, 9.968835 
4.85e+2, 1.8486421e+2, -1162646.6, -1195720.1, 0.0002564769, 0.00000002819594, 0.0000661472, -1162646.6, -34315.97, 0.0, 10.0, 9.956395 
4.85e+2, 1.9482064e+2, -1064496.9, -1097833.0, -0.00032554407, 0.000000028108902, -0.00005765461, -1064496.9, -33739.3, 0.0, 10.0, 9.956052 
4.85e+2, 2.0477042e+2, -976332.94, -1019435.0, 0.00012303771, 0.000000028173199, 0.00006807958, -976332.94, -43083.047, 0.0, 10.0, 9.943291 
4.85e+2, 2.1471375e+2, -878045.94, -921409.9, -0.000029802386, 0.000000028401354, -0.00012682627, -878045.94, -42240.637, 0.0, 10.0, 9.942949 
4.85e+2, 2.2465037e+2, -789759.8, -843144.9, 0.00036256434, 0.000000028208074, 0.00012088079, -789759.8, -51333.527, 0.0, 10.0, 9.929908 
4.85e+2, 2.3458035e+2, -691326.3, -744966.44, -0.00039745375, 0.000000027537695, -0.00008881672, -691326.3, -50213.76, 0.0, 10.0, 9.929577 
4.85e+2, 2.4450338e+2, -603002.25, -667018.8, 0.00005640193, 0.000000027337151, 0.0000747102, -603002.25, -59135.36, 0.0, 10.0, 9.916136 
4.85e+2, 2.5441962e+2, -504249.6, -568343.3, 0.000027808048, 0.000000027698281, -0.000106736254, -504249.6, -57562.02, 0.0, 10.0, 9.916036 
4.85e+2, 2.643288e+2, -416014.16, -490987.88, 0.00031310128, 0.000000027873272, 0.00014059439, -416014.16, -66436.49, 0.0, 10.0, 9.901964 
4.85e+2, 2.742313e+2, -316728.94, -391374.78, -0.00027390907, 0.000000027810042, -0.00020344346, -316728.94, -64195.94, 0.0, 10.0, 9.902385 
4.85e+2, 2.841256e+2, -230255.69, -318081.25, 0.00014638939, 0.000000027733853, 0.00022904648, -230255.69, -74686.71, 0.0, 10.0, 9.885439 
4.85e+2, 2.940121e+2, -130549.55, -217765.0, -0.0003798012, 0.000000027641041, -0.000253343, -130549.55, -71868.16, 0.0, 10.0, 9.886217 
4.85e+2, 3.0392656e+2, -40805.535, -84750.16, 0.000057925005, 0.000000027452087, 0.0001731359, -40805.535, -40805.535, 0.0, 10.0, 9.942173 
4.85e+2, 3.138706e+2, -39727.527, -82511.21, -0.00017879317, 0.00000002712073, -0.0000551426, -39727.527, -39727.527, 0.0, 10.0, 9.943684 
4.95e+2, 1.2499334e+2, -1719946.1, -1724224.6, 0.00008061497, 0.00000003085276, 0.000017605802, -1719946.1, -4880.9014, 0.0, 10.0, 9.994327 
4.95e+2, 1.349876e+2, -1622565.6, -1627434.9, -0.0001739468, 0.000000030265532, -0.00006840294, -1622565.6, -5444.115, 0.0, 10.0, 9.993545 
4.95e+2, 1.4497514e+2, -1534464.3, -1548146.3, 0.00013589827, 0.00000002988229, 0.00007092263, -1534464.3, -15220.622, 0.0, 10.0, 9.981865 
4.95e+2, 1.5495703e+2, -1436736.6, -1450821.9, -0.00049049594, 0.000000029702962, -0.000056976824, -1436736.6, -15315.441, 0.0, 10.0, 9.981333 
4.95e+2, 1.6493228e+2, -1348685.6, -1371952.4, 0.00012391317, 0.000000029641528, 0.00004734491, -1348685.6, -25021.936, 0.0, 10.0, 9.969248 
4.95e+2, 1.7490156e+2, -1250727.6, -1274310.1, -0.00029061062, 0.000000029700482, -0.000073828975, -1250727.6, -24762.916, 0.0, 10.0, 9.968835 
4.95e+2, 1.8486421e+2, -1162646.6, -1195720.1, 0.000020862353, 0.000000029560635, 0.00006614675, -1162646.6, -34315.97, 0.0, 10.0, 9.956395 
4.95e+2, 1.9482064e+2, -1064496.9, -1097833.0, -0.0005607799, 0.000000029212742, -0.000057653775, -1064496.9, -33739.305, 0.0, 10.0, 9.956052 
4.95e+2, 2.0477042e+2, -976332.94, -1019435.0, -0.000164925, 0.00000002905861, 0.00006808036, -976332.94, -43083.05, 0.0, 10.0, 9.943291 
4.95e+2, 2.1471375e+2, -878045.94, -921409.9, -0.0003188565, 0.000000029114336, -0.00012682701, -878045.94, -42240.637, 0.0, 10.0, 9.942949 
4.95e+2, 2.2465037e+2, -789759.8, -843144.9, 0.00027701337, 0.00000002892948, 0.00012087994, -789759.8, -51333.53, 0.0, 10.0, 9.929908 
4.95e+2, 2.3458035e+2, -691326.3, -744966.44, -0.00047634877, 0.000000028472204, -0.00008881608, -691326.3, -50213.766, 0.0, 10.0, 9.929577 
4.95e+2, 2.4450338e+2, -603002.25, -667018.8, -0.00027920806, 0.000000028552607, 0.00007471122, -603002.25, -59135.36, 0.0, 10.0, 9.916136 
4.95e+2, 2.5441962e+2, -504249.6, -568343.3, -0.00032014135, 0.00000002927554, -0.00010673618, -504249.6, -57562.02, 0.0, 10.0, 9.916036 
4.95e+2, 2.643288e+2, -416014.2, -490987.88, 0.00029629734, 0.000000029257343, 0.00014059387, -416014.2, -66436.49, 0.0, 10.0, 9.901964 
4.95e+2, 2.742313e+2, -316728.94, -391374.78, -0.00026851372, 0.00000002829442, -0.00020344414, -316728.94, -64195.94, 0.0, 10.0, 9.902385 
4.95e+2, 2.841256e+2, -230255.69, -318081.25, 0.000025702184, 0.000000027790096, 0.00022904636, -230255.69, -74686.71, 0.0, 10.0, 9.885439 
4.95e+2, 2.940121e+2, -130549.55, -217765.0, -0.00051185134, 0.000000027917723, -0.00025334154, -130549.55, -71868.16, 0.0, 10.0, 9.886217 
4.95e+2, 3.0392656e+2, -40805.535, -84750.16, -0.0001060047, 0.000000028340216, 0.00017313733, -40805.535, -40805.535, 0.0, 10.0, 9.942173 
4.95e+2, 3.138706e+2, -39727.527, -82511.21, -0.00034646812, 0.000000029194522, -0.00005514356, -39727.527, -39727.527, 0.0, 10.0, 9.943684 
5.05e+2, 1.2499334e+2, -1719946.1, -1724224.6, 0.000012345037, 0.000000031969115, 0.000017606553, -1719946.1, -4880.8945, 0.0, 10.0, 9.994327 
5.05e+2, 1.349876e+2, -1622565.6, -1627434.9, -0.00019262856, 0.000000031586243, -0.00006840267, -1622565.6, -5444.1084, 0.0, 10.0, 9.993545 
5.05e+2, 1.4497514e+2, -1534464.3, -1548146.3, 0.0002798735, 0.000000031108673, 0.00007092317, -1534464.3, -15220.616, 0.0, 10.0, 9.981865 
5.05e+2, 1.5495703e+2, -1436736.6, -1450821.9, -0.0002627675, 0.000000030534135, -0.0000569765, -1436736.6, -15315.435, 0.0, 10.0, 9.981333 
5.05e+2, 1.6493228e+2, -1348685.6, -1371952.4, 0.000344236, 0.000000030393185, 0.000047345133, -1348685.6, -25021.928, 0.0, 10.0, 9.969248 
5.05e+2, 1.7490156e+2, -1250727.6, -1274310.1, -0.000013512943, 0.00000003069496, -0.000073828734, -1250727.6, -24762.908, 0.0, 10.0, 9.968835 
5.05e+2, 1.8486421e+2, -1162646.6, -1195720.1, 0.00047197452, 0.000000030689, 0.00006614686, -1162646.6, -34315.96, 0.0, 10.0, 9.956395 
5.05e+2, 1.9482064e+2, -1064496.9, -1097833.0, -0.000019056923, 0.000000030361015, -0.000057653946, -1064496.9, -33739.297, 0.0, 10.0, 9.956052 
5.05e+2, 2.0477042e+2, -976332.94, -1019435.0, 0.00031313725, 0.000000030088582, 0.00006808032, -976332.94, -43083.043, 0.0, 10.0, 9.943291 
5.05e+2, 2.1471375e+2, -878045.94, -921409.9, -0.00018611322, 0.000000029876333, -0.00012682646, -878045.94, -42240.63, 0.0, 10.0, 9.942949 
5.05e+2, 2.2465037e+2, -789759.8, -843144.9, 0.00041350946, 0.000000029752433, 0.00012088039, -789759.8, -51333.523, 0.0, 10.0, 9.929908 
5.05e+2, 2.3458035e+2, -691326.3, -744966.44, 0.00008158396, 0.000000029728495, -0.000088816494, -691326.3, -50213.758, 0.0, 10.0, 9.929577 
5.05e+2, 2.4450338e+2, -603002.25, -667018.8, 0.00022567072, 0.000000029847197, 0.00007471077, -603002.25, -59135.355, 0.0, 10.0, 9.916136 
5.05e+2, 2.5441962e+2, -504249.56, -568343.3, -0.0004071803, 0.000000030136178, -0.00010673567, -504249.56, -57562.016, 0.0, 10.0, 9.916036 
5.05e+2, 2.643288e+2, -416014.16, -490987.88, 0.00020462481, 0.00000002995824, 0.0001405946, -416014.16, -66436.484, 0.0, 10.0, 9.901964 
5.05e+2, 2.742313e+2, -316728.94, -391374.78, -0.000050513016, 0.000000029185648, -0.00020344413, -316728.94, -64195.934, 0.0, 10.0, 9.902385 
5.05e+2, 2.841256e+2, -230255.67, -318081.25, 0.00029133653, 0.000000028784957, 0.00022904608, -230255.67, -74686.71, 0.0, 10.0, 9.885439 
5.05e+2, 2.940121e+2, -130549.55, -217765.0, -0.00023637626, 0.000000028895919, -0.00025334157, -130549.55, -71868.15, 0.0, 10.0, 9.886217 
5.05e+2, 3.0392656e+2, -40805.53, -84750.16, 0.00017561152, 0.000000029364726, 0.00017313735, -40805.53, -40805.53, 0.0, 10.0, 9.942173 
5.05e+2, 3.138706e+2, -39727.52, -82511.21, 0.00010919199, 0.00000003035988, -0.00005514388, -39727.52, -39727.52, 0.0, 10.0, 9.943684 
5.15e+2, 1.2499334e+2, -1719946.1, -1724224.6, -0.00040848678, 0.000000032982264, 0.000017605418, -1719946.1, -4880.895, 0.0, 10.0, 9.994327 
5.15e+2, 1.349876e+2, -1622565.6, -1627434.9, -0.000613544, 0.000000032921786, -0.000068401416, -1622565.6, -5444.1094, 0.0, 10.0, 9.993545 
5.15e+2, 1.4497514e+2, -1534464.3, -1548146.3, 0.0001500738, 0.000000032508307, 0.00007092519, -1534464.3, -15220.617, 0.0, 10.0, 9.981865 
5.15e+2, 1.5495703e+2, -1436736.6, -1450821.9, -0.00039210808, 0.000000031737525, -0.00005697664, -1436736.6, -15315.436, 0.0, 10.0, 9.981333 
5.15e+2, 1.6493228e+2, -1348685.6, -1371952.4, -0.00010039242, 0.00000003140886, 0.00004734459, -1348685.6, -25021.928, 0.0, 10.0, 9.969248 
5.15e+2, 1.7490156e+2, -1250727.6, -1274310.1, -0.0004598081, 0.000000031531613, -0.000073827876, -1250727.6, -24762.91, 0.0, 10.0, 9.968835 
5.15e+2, 1.8486421e+2, -1162646.6, -1195720.1, 0.00019167476, 0.000000031581045, 0.00006614753, -1162646.6, -34315.965, 0.0, 10.0, 9.956395 
5.15e+2, 1.9482064e+2, -1064496.9, -1097833.0, -0.00029743655, 0.00000003155373, -0.00005765513, -1064496.9, -33739.297, 0.0, 10.0, 9.956052 
5.15e+2, 2.0477042e+2, -976332.94, -1019435.0, 0.00019549906, 0.000000031263113, 0.00006807947, -976332.94, -43083.043, 0.0, 10.0, 9.943291 
5.15e+2, 2.1471375e+2, -878045.94, -921409.9, -0.00030043378, 0.000000030687342, -0.00012682463, -878045.94, -42240.63, 0.0, 10.0, 9.942949 
5.15e+2, 2.2465037e+2, -789759.8, -843144.9, 0.00007475753, 0.000000030676937, 0.00012088214, -789759.8, -51333.523, 0.0, 10.0, 9.929908 
5.15e+2, 2.3458035e+2, -691326.3, -744966.44, -0.00026451246, 0.00000003130657, -0.00008881797, -691326.3, -50213.758, 0.0, 10.0, 9.929577 
5.15e+2, 2.4450338e+2, -603002.25, -667018.8, 0.00010398896, 0.000000031220917, 0.00007470885, -603002.25, -59135.355, 0.0, 10.0, 9.916136 
5.15e+2, 2.5441962e+2, -504249.56, -568343.3, -0.00051808025, 0.00000003028019, -0.00010673473, -504249.56, -57562.016, 0.0, 10.0, 9.916036 
5.15e+2, 2.643288e+2, -416014.16, -490987.88, 0.00015666684, 0.000000029975958, 0.00014059659, -416014.16, -66436.484, 0.0, 10.0, 9.901964 
5.15e+2, 2.742313e+2, -316728.94, -391374.78, -0.00009425263, 0.00000003048373, -0.0002034434, -316728.94, -64195.934, 0.0, 10.0, 9.902385 
5.15e+2, 2.841256e+2, -230255.69, -318081.25, 0.00010291512, 0.000000030718436, 0.00022904565, -230255.69, -74686.71, 0.0, 10.0, 9.885439 
5.15e+2, 2.940121e+2, -130549.55, -217765.02, -0.00043783718, 0.000000030575627, -0.00025334302, -130549.55, -71868.15, 0.0, 10.0, 9.886217 
5.15e+2, 3.0392656e+2, -40805.53, -84750.16, -0.0001442145, 0.000000030525616, 0.00017313597, -40805.53, -40805.53, 0.0, 10.0, 9.942173 
5.15e+2, 3.138706e+2, -39727.52, -82511.21, -0.00022453308, 0.000000030616807, -0.00005514356, -39727.52, -39727.52, 0.0, 10.0, 9.943684 
5.25e+2, 1.2499334e+2, -1719946.1, -1724224.6, 0.0010166474, 0.000000034059536, 0.000017604589, -1719946.1, -4880.8867, 0.0, 10.0, 9.994327 
5.25e+2, 1.349876e+2, -1622565.6, -1627434.9, -0.00017591567, 0.00000003375774, -0.00006840103, -1622565.6, -5444.1006, 0.0, 10.0, 9.993545 
5.25e+2, 1.4497514e+2, -1534464.3, -1548146.3, 0.0003849319, 0.00000003345374, 0.00007092629, -1534464.3, -15220.609, 0.0, 10.0, 9.981865 
5.25e+2, 1.5495703e+2, -1436736.6, -1450821.9, 0.00020895603, 0.000000033145085, -0.00005697673, -1436736.6, -15315.429, 0.0, 10.0, 9.981333 
5.25e+2, 1.6493228e+2, -1348685.6, -1371952.4, 0.00052674895, 0.000000032843083, 0.00004734427, -1348685.6, -25021.922, 0.0, 10.0, 9.969248 
5.25e+2, 1.7490156e+2, -1250727.6, -1274310.1, -0.00016152447, 0.00000003254787, -0.00007382745, -1250727.6, -24762.902, 0.0, 10.0, 9.968835 
5.25e+2, 1.8486421e+2, -1162646.6, -1195720.1, 0.00044874434, 0.00000003242961, 0.000066148044, -1162646.6, -34315.957, 0.0, 10.0, 9.956395 
5.25e+2, 1.9482064e+2, -1064496.9, -1097833.0, 0.00016543469, 0.000000032496498, -0.000057655216, -1064496.9, -33739.29, 0.0, 10.0, 9.956052 
5.25e+2, 2.0477042e+2, -976332.94, -1019435.0, 0.00068030495, 0.000000032314652, 0.00006807931, -976332.94, -43083.035, 0.0, 10.0, 9.943291 
5.25e+2, 2.1471375e+2, -878045.94, -921409.9, -0.00015410552, 0.000000031863394, -0.00012682426, -878045.94, -42240.62, 0.0, 10.0, 9.942949 
5.25e+2, 2.2465037e+2, -789759.8, -843144.9, 0.00011292668, 0.00000003186244, 0.000120882585, -789759.8, -51333.516, 0.0, 10.0, 9.929908 
5.25e+2, 2.3458035e+2, -691326.3, -744966.44, 0.000069850794, 0.000000032371286, -0.00008881795, -691326.3, -50213.75, 0.0, 10.0, 9.929577 
5.25e+2, 2.4450338e+2, -603002.25, -667018.8, 0.00070942455, 0.00000003213936, 0.000074708696, -603002.25, -59135.348, 0.0, 10.0, 9.916136 
5.25e+2, 2.5441962e+2, -504249.56, -568343.3, -0.00014799768, 0.00000003102204, -0.00010673476, -504249.56, -57562.008, 0.0, 10.0, 9.916036 
5.25e+2, 2.643288e+2, -416014.16, -490987.88, 0.00017083892, 0.000000030810657, 0.00014059675, -416014.16, -66436.48, 0.0, 10.0, 9.901964 
5.25e+2, 2.742313e+2, -316728.94, -391374.78, -0.0001176167, 0.00000003175426, -0.00020344296, -316728.94, -64195.93, 0.0, 10.0, 9.902385 
5.25e+2, 2.841256e+2, -230255.67, -318081.25, 0.00039532004, 0.000000032220175, 0.00022904582, -230255.67, -74686.7, 0.0, 10.0, 9.885439 
5.25e+2, 2.940121e+2, -130549.54, -217765.0, 0.00033983734, 0.00000003202697, -0.00025334384, -130549.54, -71868.14, 0.0, 10.0, 9.886217 
5.25e+2, 3.0392656e+2, -40805.523, -84750.16, 0.00061211974, 0.000000031636958, 0.00017313515, -40805.523, -40805.523, 0.0, 10.0, 9.942173 
5.25e+2, 3.138706e+2, -39727.51, -82511.21, -0.0004094887, 0.00000003096094, -0.00005514286, -39727.51, -39727.51, 0.0, 10.0, 9.943684 
5.35e+2, 1.2499334e+2, -1719946.1, -1724224.6, 0.00060205505, 0.000000035200934, 0.000017604068, -1719946.1, -4880.8896, 0.0, 10.0, 9.994327 
5.35e+2, 1.349876e+2, -1622565.6, -1627434.9, -0.0005906059, 0.00000003409411, -0.0000684015, -1622565.6, -5444.1035, 0.0, 10.0, 9.993545 
5.35e+2, 1.4497514e+2, -1534464.3, -1548146.3, -0.00010215568, 0.00000003394497, 0.000070926464, -1534464.3, -15220.609, 0.0, 10.0, 9.981865 
5.35e+2, 1.5495703e+2, -1436736.6, -1450821.9, -0.00027824883, 0.000000034756813, -0.000056976765, -1436736.6, -15315.43, 0.0, 10.0, 9.981333 
5.35e+2, 1.6493228e+2, -1348685.6, -1371952.4, 0.00035737027, 0.00000003469586, 0.00004734418, -1348685.6, -25021.924, 0.0, 10.0, 9.969248 
5.35e+2, 1.7490156e+2, -1250727.6, -1274310.1, -0.0003292286, 0.000000033743728, -0.00007382745, -1250727.6, -24762.904, 0.0, 10.0, 9.968835 
5.35e+2, 1.8486421e+2, -1162646.6, -1195720.1, 0.0001660357, 0.000000033234706, 0.00006614841, -1162646.6, -34315.957, 0.0, 10.0, 9.956395 
5.35e+2, 1.9482064e+2, -1064496.9, -1097833.0, -0.00011860852, 0.000000033189327, -0.000057654215, -1064496.9, -33739.29, 0.0, 10.0, 9.956052 
5.35e+2, 2.0477042e+2, -976332.94, -1019435.0, 0.00038784993, 0.000000033243197, 0.000068079855, -976332.94, -43083.04, 0.0, 10.0, 9.943291 
5.35e+2, 2.1471375e+2, -878045.94, -921409.9, -0.00044673632, 0.000000033404483, -0.00012682535, -878045.94, -42240.625, 0.0, 10.0, 9.942949 
5.35e+2, 2.2465037e+2, -789759.8, -843144.9, -0.000091152346, 0.00000003330894, 0.00012088173, -789759.8, -51333.516, 0.0, 10.0, 9.929908 
5.35e+2, 2.3458035e+2, -691326.3, -744966.44, -0.00013133454, 0.000000032922642, -0.00008881643, -691326.3, -50213.75, 0.0, 10.0, 9.929577 
5.35e+2, 2.4450338e+2, -603002.25, -667018.8, 0.00072068727, 0.000000032602525, 0.00007471032, -603002.25, -59135.35, 0.0, 10.0, 9.916136 
5.35e+2, 2.5441962e+2, -504249.56, -568343.3, -0.00012652684, 0.000000032361726, -0.00010673576, -504249.56, -57562.008, 0.0, 10.0, 9.916036 
5.35e+2, 2.643288e+2, -416014.16, -490987.88, -0.00028733746, 0.00000003246234, 0.00014059509, -416014.16, -66436.48, 0.0, 10.0, 9.901964 
5.35e+2, 2.742313e+2, -316728.94, -391374.78, -0.0006079546, 0.00000003299725, -0.0002034428, -316728.94, -64195.93, 0.0, 10.0, 9.902385 
5.35e+2, 2.841256e+2, -230255.67, -318081.25, 0.0003062327, 0.000000033290178, 0.00022904662, -230255.67, -74686.7, 0.0, 10.0, 9.885439 
5.35e+2, 2.940121e+2, -130549.54, -217765.0, 0.00028690216, 0.000000033249954, -0.00025334404, -130549.54, -71868.14, 0.0, 10.0, 9.886217 
5.35e+2, 3.0392656e+2, -40805.523, -84750.164, 0.0008595072, 0.000000032698743, 0.00017313489, -40805.523, -40805.523, 0.0, 10.0, 9.942173 
5.35e+2, 3.138706e+2, -39727.51, -82511.21, -0.00012684694, 0.00000003139229, -0.000055141783, -39727.51, -39727.51, 0.0, 10.0, 9.943684 
5.45e+2, 1.2499334e+2, -1719946.1, -1724224.6, 0.00049805065, 0.000000036368576, 0.000017605378, -1719946.1, -4880.8813, 0.0, 10.0, 9.994327 
5.45e+2, 1.349876e+2, -1622565.6, -1627434.9, 0.00036722573, 0.000000035181774, -0.000068402376, -1622565.6, -5444.095, 0.0, 10.0, 9.993545 
5.45e+2, 1.4497514e+2, -1534464.3, -1548146.3, 0.00092763, 0.000000034978097, 0.00007092583, -1534464.3, -15220.601, 0.0, 10.0, 9.981865 
5.45e+2, 1.5495703e+2, -1436736.6, -1450821.9, 0.000053141994, 0.000000035760653, -0.00005697624, -1436736.6, -15315.421, 0.0, 10.0, 9.981333 
5.45e+2, 1.6493228e+2, -1348685.6, -1371952.4, 0.00069889845, 0.000000035764508, 0.000047344856, -1348685.6, -25021.916, 0.0, 10.0, 9.969248 
5.45e+2, 1.7490156e+2, -1250727.6, -1274310.1, 0.00021963303, 0.000000034973276, -0.00007382764, -1250727.6, -24762.896, 0.0, 10.0, 9.968835 
5.45e+2, 1.8486421e+2, -1162646.6, -1195720.1, 0.0005907409, 0.000000034460673, 0.000066148285, -1162646.6, -34315.95, 0.0, 10.0, 9.956395 
5.45e+2, 1.9482064e+2, -1064496.9, -1097833.0, -0.00013258556, 0.0000000342396, -0.00005765327, -1064496.9, -33739.28, 0.0, 10.0, 9.956052 
5.45e+2, 2.0477042e+2, -976332.94, -1019435.0, 0.00048269605, 0.00000003429941, 0.000068080575, -976332.94, -43083.03, 0.0, 10.0, 9.943291 
5.45e+2, 2.1471375e+2, -878045.9, -921409.9, 0.0004873099, 0.000000034663366, -0.00012682627, -878045.9, -42240.617, 0.0, 10.0, 9.942949 
5.45e+2, 2.2465037e+2, -789759.8, -843144.9, 0.00090994017, 0.000000034470645, 0.00012088086, -789759.8, -51333.508, 0.0, 10.0, 9.929908 
5.45e+2, 2.3458035e+2, -691326.3, -744966.44, -0.0003781863, 0.000000033647694, -0.00008881535, -691326.3, -50213.742, 0.0, 10.0, 9.929577 
5.45e+2, 2.4450338e+2, -603002.25, -667018.8, 0.00021415041, 0.00000003344566, 0.00007471163, -603002.25, -59135.344, 0.0, 10.0, 9.916136 
5.45e+2, 2.5441962e+2, -504249.56, -568343.3, 0.0005488854, 0.00000003398592, -0.00010673623, -504249.56, -57562.004, 0.0, 10.0, 9.916036 
5.45e+2, 2.643288e+2, -416014.16, -490987.88, 0.0008199284, 0.000000034184584, 0.00014059395, -416014.16, -66436.48, 0.0, 10.0, 9.901964 
5.45e+2, 2.742313e+2, -316728.94, -391374.78, -0.00011402869, 0.000000033946773, -0.00020344315, -316728.94, -64195.92, 0.0, 10.0, 9.902385 
5.45e+2, 2.841256e+2, -230255.67, -318081.25, 0.00023866419, 0.00000003382273, 0.000229047, -230255.67, -74686.695, 0.0, 10.0, 9.885439 
5.45e+2, 2.940121e+2, -130549.53, -217765.0, -0.0005034862, 0.000000033856427, -0.00025334297, -130549.53, -71868.13, 0.0, 10.0, 9.886217 
5.45e+2, 3.0392656e+2, -40805.516, -84750.16, 0.000046459838, 0.000000033649435, 0.00017313582, -40805.516, -40805.516, 0.0, 10.0, 9.942173 
5.45e+2, 3.138706e+2, -39727.508, -82511.21, -0.00014035075, 0.000000033083868, -0.000055142194, -39727.508, -39727.508, 0.0, 10.0, 9.943684 
5.55e+2, 1.2499334e+2, -1719946.1, -1724224.6, 0.0001572643, 0.000000037562458, 0.000017608516, -1719946.1, -4880.882, 0.0, 10.0, 9.994327 
5.55e+2, 1.349876e+2, -1622565.6, -1627434.9, 0.000026364558, 0.000000037020722, -0.00006840365, -1622565.6, -5444.0957, 0.0, 10.0, 9.993545 
5.55e+2, 1.4497514e+2, -1534464.3, -1548146.3, 0.00042531008, 0.00000003655312, 0.0000709244, -1534464.3, -15220.604, 0.0, 10.0, 9.981865 
5.55e+2, 1.5495703e+2, -1436736.6, -1450821.9, -0.00044943765, 0.000000036156603, -0.000056975157, -1436736.6, -15315.423, 0.0, 10.0, 9.981333 
5.55e+2, 1.6493228e+2, -1348685.6, -1371952.4, 0.00039834873, 0.000000036049034, 0.0000473463, -1348685.6, -25021.916, 0.0, 10.0, 9.969248 
5.55e+2, 1.7490156e+2, -1250727.6, -1274310.1, -0.00007985286, 0.00000003623651, -0.000073828036, -1250727.6, -24762.896, 0.0, 10.0, 9.968835 
5.55e+2, 1.8486421e+2, -1162646.6, -1195720.1, 0.0003714595, 0.00000003610751, 0.00006614768, -1162646.6, -34315.95, 0.0, 10.0, 9.956395 
5.55e+2, 1.9482064e+2, -1064496.9, -1097833.0, -0.00035094138, 0.000000035647325, -0.00005765238, -1064496.9, -33739.285, 0.0, 10.0, 9.956052 
5.55e+2, 2.0477042e+2, -976332.94, -1019435.0, 0.0001393897, 0.000000035483296, 0.00006808147, -976332.94, -43083.03, 0.0, 10.0, 9.943291 
5.55e+2, 2.1471375e+2, -878045.9, -921409.9, 0.00014141927, 0.000000035640035, -0.00012682698, -878045.9, -42240.617, 0.0, 10.0, 9.942949 
5.55e+2, 2.2465037e+2, -789759.8, -843144.9, 0.00088486687, 0.000000035347558, 0.000120879995, -789759.8, -51333.51, 0.0, 10.0, 9.929908 
5.55e+2, 2.3458035e+2, -691326.3, -744966.44, -0.00039276556, 0.000000034546446, -0.000088814726, -691326.3, -50213.746, 0.0, 10.0, 9.929577 
5.55e+2, 2.4450338e+2, -603002.25, -667018.8, -0.00024305366, 0.000000034668762, 0.00007471264, -603002.25, -59135.344, 0.0, 10.0, 9.916136 
5.55e+2, 2.5441962e+2, -504249.56, -568343.3, 0.00007040733, 0.000000035894615, -0.00010673618, -504249.56, -57562.004, 0.0, 10.0, 9.916036 
5.55e+2, 2.643288e+2, -416014.16, -490987.88, 0.00088478846, 0.000000035977394, 0.00014059334, -416014.16, -66436.48, 0.0, 10.0, 9.901964 
5.55e+2, 2.742313e+2, -316728.94, -391374.78, -0.000012742567, 0.00000003460283, -0.00020344403, -316728.94, -64195.92, 0.0, 10.0, 9.902385 
5.55e+2, 2.841256e+2, -230255.67, -318081.25, 0.00014685794, 0.000000033817837, 0.00022904697, -230255.67, -74686.695, 0.0, 10.0, 9.885439 
5.55e+2, 2.940121e+2, -130549.53, -217765.0, -0.0006126925, 0.000000033846394, -0.00025334064, -130549.53, -71868.13, 0.0, 10.0, 9.886217 
5.55e+2, 3.0392656e+2, -40805.52, -84750.16, -0.00019389852, 0.000000034489034, 0.00017313795, -40805.52, -40805.52, 0.0, 10.0, 9.942173 
5.55e+2, 3.138706e+2, -39727.508, -82511.21, -0.0003961075, 0.000000036035676, -0.000055144093, -39727.508, -39727.508, 0.0, 10.0, 9.943684 
5.65e+2, 1.2499334e+2, -1719946.1, -1724224.6, 0.00026093013, 0.000000038762497, 0.00001760915, -1719946.1, -4880.873, 0.0, 10.0, 9.994327 
5.65e+2, 1.349876e+2, -1622565.6, -1627434.9, -0.000056576682, 0.000000038666887, -0.00006840333, -1622565.6, -5444.088, 0.0, 10.0, 9.993545 
5.65e+2, 1.4497514e+2, -1534464.3, -1548146.3, 0.0005281707, 0.000000038104503, 0.00007092517, -1534464.3, -15220.596, 0.0, 10.0, 9.981865 
5.65e+2, 1.5495703e+2, -1436736.6, -1450821.9, -0.00014852345, 0.000000037068343, -0.000056974804, -1436736.6, -15315.413, 0.0, 10.0, 9.981333 
5.65e+2, 1.6493228e+2, -1348685.6, -1371952.4, 0.00068580854, 0.000000036802504, 0.000047346475, -1348685.6, -25021.906, 0.0, 10.0, 9.969248 
5.65e+2, 1.7490156e+2, -1250727.6, -1274310.1, 0.00028019462, 0.00000003732321, -0.00007382779, -1250727.6, -24762.887, 0.0, 10.0, 9.968835 
5.65e+2, 1.8486421e+2, -1162646.6, -1195720.1, 0.0009498695, 0.000000037436664, 0.000066147746, -1162646.6, -34315.94, 0.0, 10.0, 9.956395 
5.65e+2, 1.9482064e+2, -1064496.9, -1097833.0, 0.00035576365, 0.000000037123932, -0.000057652775, -1064496.9, -33739.277, 0.0, 10.0, 9.956052 
5.65e+2, 2.0477042e+2, -976332.94, -1019435.0, 0.00066787086, 0.0000000368053, 0.00006808141, -976332.94, -43083.023, 0.0, 10.0, 9.943291 
5.65e+2, 2.1471375e+2, -878045.9, -921409.9, -0.00009197281, 0.00000003648031, -0.00012682585, -878045.9, -42240.605, 0.0, 10.0, 9.942949 
5.65e+2, 2.2465037e+2, -789759.8, -843144.9, 0.0007675124, 0.000000036225224, 0.00012088089, -789759.8, -51333.504, 0.0, 10.0, 9.929908 
5.65e+2, 2.3458035e+2, -691326.25, -744966.44, 0.00067475846, 0.000000036049226, -0.00008881571, -691326.25, -50213.74, 0.0, 10.0, 9.929577 
5.65e+2, 2.4450338e+2, -603002.25, -667018.8, 0.00076271425, 0.000000036248817, 0.00007471151, -603002.25, -59135.336, 0.0, 10.0, 9.916136 
5.65e+2, 2.5441962e+2, -504249.56, -568343.3, -0.00028998492, 0.000000036896953, -0.000106735366, -504249.56, -57561.992, 0.0, 10.0, 9.916036 
5.65e+2, 2.643288e+2, -416014.16, -490987.88, 0.00039263166, 0.000000036768117, 0.00014059468, -416014.16, -66436.47, 0.0, 10.0, 9.901964 
5.65e+2, 2.742313e+2, -316728.9, -391374.78, 0.00017668221, 0.000000035649386, -0.000203444, -316728.9, -64195.914, 0.0, 10.0, 9.902385 
5.65e+2, 2.841256e+2, -230255.66, -318081.25, 0.0005869922, 0.000000035004447, 0.00022904645, -230255.66, -74686.69, 0.0, 10.0, 9.885439 
5.65e+2, 2.940121e+2, -130549.52, -217765.0, -0.000017186765, 0.00000003501241, -0.0002533407, -130549.52, -71868.125, 0.0, 10.0, 9.886217 
5.65e+2, 3.0392656e+2, -40805.51, -84750.16, 0.00039903802, 0.000000035733535, 0.00017313793, -40805.51, -40805.51, 0.0, 10.0, 9.942173 
5.65e+2, 3.138706e+2, -39727.5, -82511.21, 0.0003594026, 0.00000003750714, -0.00005514478, -39727.5, -39727.5, 0.0, 10.0, 9.943684 
5.75e+2, 1.2499334e+2, -1719946.1, -1724224.6, -0.0002877018, 0.00000003996869, 0.000017607286, -1719946.1, -4880.874, 0.0, 10.0, 9.994327 
5.75e+2, 1.349876e+2, -1622565.6, -1627434.9, -0.000605312, 0.000000040120266, -0.00006840143, -1622565.6, -5444.089, 0.0, 10.0, 9.993545 
5.75e+2, 1.4497514e+2, -1534464.3, -1548146.3, 0.00050132646, 0.00000003963224, 0.00007092816, -1534464.3, -15220.598, 0.0, 10.0, 9.981865 
5.75e+2, 1.5495703e+2, -1436736.6, -1450821.9, -0.00017454455, 0.00000003849587, -0.000056975186, -1436736.6, -15315.415, 0.0, 10.0, 9.981333 
5.75e+2, 1.6493228e+2, -1348685.6, -1371952.4, 0.00015528355, 0.00000003802491, 0.00004734538, -1348685.6, -25021.908, 0.0, 10.0, 9.969248 
5.75e+2, 1.7490156e+2, -1250727.6, -1274310.1, -0.00025299756, 0.00000003823338, -0.00007382689, -1250727.6, -24762.889, 0.0, 10.0, 9.968835 
5.75e+2, 1.8486421e+2, -1162646.6, -1195720.1, 0.000570145, 0.000000038448132, 0.00006614848, -1162646.6, -34315.945, 0.0, 10.0, 9.956395 
5.75e+2, 1.9482064e+2, -1064496.9, -1097833.0, -0.000022186972, 0.000000038669427, -0.000057654455, -1064496.9, -33739.277, 0.0, 10.0, 9.956052 
5.75e+2, 2.0477042e+2, -976332.94, -1019435.0, 0.00065486296, 0.00000003826542, 0.00006808039, -976332.94, -43083.023, 0.0, 10.0, 9.943291 
5.75e+2, 2.1471375e+2, -878045.9, -921409.9, -0.000097445925, 0.00000003718418, -0.00012682285, -878045.9, -42240.61, 0.0, 10.0, 9.942949 
5.75e+2, 2.2465037e+2, -789759.8, -843144.9, 0.0003750779, 0.00000003710364, 0.000120883546, -789759.8, -51333.504, 0.0, 10.0, 9.929908 
5.75e+2, 2.3458035e+2, -691326.25, -744966.44, 0.00026966174, 0.000000038156035, -0.000088818306, -691326.25, -50213.74, 0.0, 10.0, 9.929577 
5.75e+2, 2.4450338e+2, -603002.25, -667018.8, 0.0006153016, 0.000000038185824, 0.00007470826, -603002.25, -59135.336, 0.0, 10.0, 9.916136 
5.75e+2, 2.5441962e+2, -504249.56, -568343.3, -0.00042501732, 0.00000003699293, -0.00010673378, -504249.56, -57561.996, 0.0, 10.0, 9.916036 
5.75e+2, 2.643288e+2, -416014.16, -490987.88, 0.00040383553, 0.000000036556752, 0.00014059794, -416014.16, -66436.47, 0.0, 10.0, 9.901964 
5.75e+2, 2.742313e+2, -316728.9, -391374.78, 0.00019768979, 0.00000003708644, -0.00020344308, -316728.9, -64195.914, 0.0, 10.0, 9.902385 
5.75e+2, 2.841256e+2, -230255.66, -318081.25, 0.00038659948, 0.000000037382552, 0.00022904541, -230255.66, -74686.69, 0.0, 10.0, 9.885439 
5.75e+2, 2.940121e+2, -130549.52, -217765.02, -0.000237531, 0.000000037354464, -0.00025334314, -130549.52, -71868.13, 0.0, 10.0, 9.886217 
5.75e+2, 3.0392656e+2, -40805.51, -84750.16, -0.000029381981, 0.000000037382947, 0.00017313575, -40805.51, -40805.51, 0.0, 10.0, 9.942173 
5.75e+2, 3.138706e+2, -39727.5, -82511.21, -0.00009344767, 0.000000037498268, -0.000055144254, -39727.5, -39727.5, 0.0, 10.0, 9.943684 
5.85e+2, 1.2499334e+2, -1719946.1, -1724224.6, 0.001138342, 0.000000041281822, 0.0000176064, -1719946.1, -4880.8643, 0.0, 10.0, 9.994327 
5.85e+2, 1.349876e+2, -1622565.6, -1627434.9, -0.0003245677, 0.000000040935646, -0.00006840073, -1622565.6, -5444.078, 0.0, 10.0, 9.993545 
5.85e+2, 1.4497514e+2, -1534464.3, -1548146.3, 0.00061080477, 0.000000040589505, 0.0000709297, -1534464.3, -15220.587, 0.0, 10.0, 9.981865 
5.85e+2, 1.5495703e+2, -1436736.6, -1450821.9, 0.00049858243, 0.000000040238046, -0.00005697539, -1436736.6, -15315.407, 0.0, 10.0, 9.981333 
5.85e+2, 1.6493228e+2, -1348685.6, -1371952.4, 0.00091694045, 0.000000039885187, 0.000047344813, -1348685.6, -25021.9, 0.0, 10.0, 9.969248 
5.85e+2, 1.7490156e+2, -1250727.6, -1274310.1, 0.0001150112, 0.000000039530896, -0.0000738264, -1250727.6, -24762.88, 0.0, 10.0, 9.968835 
5.85e+2, 1.8486421e+2, -1162646.6, -1195720.1, 0.00087278447, 0.00000003943563, 0.00006614915, -1162646.6, -34315.934, 0.0, 10.0, 9.956395 
5.85e+2, 1.9482064e+2, -1064496.9, -1097833.0, 0.0004674469, 0.000000039611383, -0.000057654524, -1064496.9, -33739.27, 0.0, 10.0, 9.956052 
5.85e+2, 2.0477042e+2, -976332.94, -1019435.0, 0.001249156, 0.00000003932958, 0.00006808017, -976332.94, -43083.016, 0.0, 10.0, 9.943291 
5.85e+2, 2.1471375e+2, -878045.9, -921409.9, 0.00029336876, 0.000000038552194, -0.00012682263, -878045.9, -42240.6, 0.0, 10.0, 9.942949 
5.85e+2, 2.2465037e+2, -789759.75, -843144.9, 0.00051104755, 0.000000038604245, 0.000120883924, -789759.75, -51333.496, 0.0, 10.0, 9.929908 
5.85e+2, 2.3458035e+2, -691326.25, -744966.44, 0.0003953507, 0.00000003959533, -0.00008881812, -691326.25, -50213.73, 0.0, 10.0, 9.929577 
5.85e+2, 2.4450338e+2, -603002.2, -667018.8, 0.0011077354, 0.000000039393182, 0.000074708296, -603002.2, -59135.33, 0.0, 10.0, 9.916136 
5.85e+2, 2.5441962e+2, -504249.53, -568343.3, 0.000118500044, 0.000000037764725, -0.00010673386, -504249.53, -57561.984, 0.0, 10.0, 9.916036 
5.85e+2, 2.643288e+2, -416014.13, -490987.88, 0.00061203016, 0.00000003736856, 0.00014059799, -416014.13, -66436.45, 0.0, 10.0, 9.901964 
5.85e+2, 2.742313e+2, -316728.9, -391374.78, 0.00025559266, 0.000000038543977, -0.00020344264, -316728.9, -64195.906, 0.0, 10.0, 9.902385 
5.85e+2, 2.841256e+2, -230255.66, -318081.25, 0.0006947487, 0.000000039227128, 0.00022904557, -230255.66, -74686.68, 0.0, 10.0, 9.885439 
5.85e+2, 2.940121e+2, -130549.516, -217765.0, 0.0005728322, 0.000000039229278, -0.00025334413, -130549.516, -71868.125, 0.0, 10.0, 9.886217 
5.85e+2, 3.0392656e+2, -40805.5, -84750.16, 0.00071100984, 0.00000003880749, 0.00017313482, -40805.5, -40805.5, 0.0, 10.0, 9.942173 
5.85e+2, 3.138706e+2, -39727.49, -82511.21, -0.0005955191, 0.00000003776264, -0.000055143235, -39727.49, -39727.49, 0.0, 10.0, 9.943684 
5.95e+2, 1.2499334e+2, -1719946.1, -1724224.6, 0.00076909177, 0.000000042701895, 0.000017606493, -1719946.1, -4880.868, 0.0, 10.0, 9.994327 
5.95e+2, 1.349876e+2, -1622565.6, -1627434.9, -0.00069390214, 0.000000041113026, -0.00006840124, -1622565.6, -5444.082, 0.0, 10.0, 9.993545 
5.95e+2, 1.4497514e+2, -1534464.3, -1548146.3, -0.000036291643, 0.00000004097629, 0.0000709298, -1534464.3, -15220.588, 0.0, 10.0, 9.981865 
5.95e+2, 1.5495703e+2, -1436736.6, -1450821.9, -0.00014895886, 0.000000042294875, -0.000056975423, -1436736.6, -15315.408, 0.0, 10.0, 9.981333 
5.95e+2, 1.6493228e+2, -1348685.6, -1371952.4, 0.00076497876, 0.00000004238333, 0.000047344776, -1348685.6, -25021.902, 0.0, 10.0, 9.969248 
5.95e+2, 1.7490156e+2, -1250727.6, -1274310.1, -0.000034339682, 0.000000041215756, -0.00007382631, -1250727.6, -24762.883, 0.0, 10.0, 9.968835 
5.95e+2, 1.8486421e+2, -1162646.6, -1195720.1, 0.00065712107, 0.000000040399165, 0.000066149754, -1162646.6, -34315.934, 0.0, 10.0, 9.956395 
5.95e+2, 1.9482064e+2, -1064496.9, -1097833.0, 0.00025101143, 0.0000000399498, -0.000057652975, -1064496.9, -33739.27, 0.0, 10.0, 9.956052 
5.95e+2, 2.0477042e+2, -976332.94, -1019435.0, 0.00087611366, 0.00000003999779, 0.00006808072, -976332.94, -43083.016, 0.0, 10.0, 9.943291 
5.95e+2, 2.1471375e+2, -878045.9, -921409.9, -0.00008291083, 0.000000040584347, -0.00012682517, -878045.9, -42240.6, 0.0, 10.0, 9.942949 
5.95e+2, 2.2465037e+2, -789759.75, -843144.9, 0.00023328984, 0.000000040727038, 0.00012088202, -789759.75, -51333.496, 0.0, 10.0, 9.929908 
5.95e+2, 2.3458035e+2, -691326.25, -744966.44, 0.000120811834, 0.000000040367112, -0.00008881515, -691326.25, -50213.73, 0.0, 10.0, 9.929577 
5.95e+2, 2.4450338e+2, -603002.2, -667018.8, 0.0012813727, 0.000000039870887, 0.000074711614, -603002.2, -59135.332, 0.0, 10.0, 9.916136 
5.95e+2, 2.5441962e+2, -504249.56, -568343.3, 0.0003136744, 0.00000003921234, -0.000106735606, -504249.56, -57561.99, 0.0, 10.0, 9.916036 
5.95e+2, 2.643288e+2, -416014.13, -490987.88, 0.00006366615, 0.00000003920354, 0.00014059478, -416014.13, -66436.46, 0.0, 10.0, 9.901964 
5.95e+2, 2.742313e+2, -316728.9, -391374.78, -0.00034262546, 0.000000040022005, -0.0002034427, -316728.9, -64195.91, 0.0, 10.0, 9.902385 
5.95e+2, 2.841256e+2, -230255.66, -318081.25, 0.0005521587, 0.000000040538175, 0.00022904696, -230255.66, -74686.68, 0.0, 10.0, 9.885439 
5.95e+2, 2.940121e+2, -130549.516, -217765.0, 0.00047129474, 0.000000040636852, -0.00025334372, -130549.516, -71868.125, 0.0, 10.0, 9.886217 
5.95e+2, 3.0392656e+2, -40805.504, -84750.164, 0.0011307875, 0.000000040007162, 0.00017313512, -40805.504, -40805.504, 0.0, 10.0, 9.942173 
5.95e+2, 3.138706e+2, -39727.492, -82511.21, -0.00011454163, 0.00000003830026, -0.000055141725, -39727.492, -39727.492, 0.0, 10.0, 9.943684 
6.05e+2, 1.2499334e+2, -1719946.1, -1724224.6, 0.000576033, 0.000000043970736, 0.000017608152, -1719946.1, -4880.858, 0.0, 10.0, 9.994327 
6.05e+2, 1.349876e+2, -1622565.6, -1627434.9, 0.0005382897, 0.00000004246932, -0.00006840239, -1622565.6, -5444.0723, 0.0, 10.0, 9.993545 
6.05e+2, 1.4497514e+2, -1534464.3, -1548146.3, 0.001246031, 0.00000004232376, 0.000070928945, -1534464.3, -15220.577, 0.0, 10.0, 9.981865 
6.05e+2, 1.5495703e+2, -1436736.5, -1450821.9, 0.00016656183, 0.00000004353598, -0.00005697487, -1436736.5, -15315.397, 0.0, 10.0, 9.981333 
6.05e+2, 1.6493228e+2, -1348685.6, -1371952.4, 0.0010700345, 0.000000043635637, 0.00004734561, -1348685.6, -25021.893, 0.0, 10.0, 9.969248 
6.05e+2, 1.7490156e+2, -1250727.6, -1274310.1, 0.00043947555, 0.000000042599314, -0.000073826355, -1250727.6, -24762.873, 0.0, 10.0, 9.968835 
6.05e+2, 1.8486421e+2, -1162646.6, -1195720.1, 0.0010241567, 0.00000004177516, 0.0000661498, -1162646.6, -34315.926, 0.0, 10.0, 9.956395 
6.05e+2, 1.9482064e+2, -1064496.9, -1097833.0, 0.00024292778, 0.000000041172974, -0.000057651854, -1064496.9, -33739.258, 0.0, 10.0, 9.956052 
6.05e+2, 2.0477042e+2, -976332.9, -1019435.0, 0.0009824733, 0.000000041314916, 0.00006808143, -976332.9, -43083.008, 0.0, 10.0, 9.943291 
6.05e+2, 2.1471375e+2, -878045.9, -921409.9, 0.0010818199, 0.00000004226271, -0.00012682649, -878045.9, -42240.594, 0.0, 10.0, 9.942949 
6.05e+2, 2.2465037e+2, -789759.75, -843144.9, 0.0015316159, 0.000000042209003, 0.00012088085, -789759.75, -51333.49, 0.0, 10.0, 9.929908 
6.05e+2, 2.3458035e+2, -691326.25, -744966.44, -0.00026282202, 0.000000041021373, -0.00008881369, -691326.25, -50213.72, 0.0, 10.0, 9.929577 
6.05e+2, 2.4450338e+2, -603002.2, -667018.8, 0.00052759657, 0.000000040595683, 0.0000747134, -603002.2, -59135.32, 0.0, 10.0, 9.916136 
6.05e+2, 2.5441962e+2, -504249.53, -568343.3, 0.0010780641, 0.000000041081258, -0.0001067362, -504249.53, -57561.98, 0.0, 10.0, 9.916036 
6.05e+2, 2.643288e+2, -416014.13, -490987.88, 0.0013017665, 0.000000041346908, 0.00014059331, -416014.13, -66436.45, 0.0, 10.0, 9.901964 
6.05e+2, 2.742313e+2, -316728.9, -391374.78, 0.0001278476, 0.000000041330516, -0.0002034431, -316728.9, -64195.9, 0.0, 10.0, 9.902385 
6.05e+2, 2.841256e+2, -230255.64, -318081.25, 0.0003767592, 0.00000004129948, 0.00022904748, -230255.64, -74686.67, 0.0, 10.0, 9.885439 
6.05e+2, 2.940121e+2, -130549.51, -217765.0, -0.00061438634, 0.000000041249727, -0.0002533425, -130549.51, -71868.11, 0.0, 10.0, 9.886217 
6.05e+2, 3.0392656e+2, -40805.492, -84750.16, 0.000038177175, 0.000000040943974, 0.00017313621, -40805.492, -40805.492, 0.0, 10.0, 9.942173 
6.05e+2, 3.138706e+2, -39727.484, -82511.21, -0.00014532151, 0.00000004025858, -0.000055142056, -39727.484, -39727.484, 0.0, 10.0, 9.943684 
6.15e+2, 1.2499334e+2, -1719946.1, -1724224.6, 0.000119164724, 0.000000045088342, 0.000017611374, -1719946.1, -4880.8584, 0.0, 10.0, 9.994327 
6.15e+2, 1.349876e+2, -1622565.6, -1627434.9, 0.00008132329, 0.000000045004526, -0.000068404195, -1622565.6, -5444.0728, 0.0, 10.0, 9.993545 
6.15e+2, 1.4497514e+2, -1534464.3, -1548146.3, 0.00068993936, 0.000000044631907, 0.00007092714, -1534464.3, -15220.58, 0.0, 10.0, 9.981865 
6.15e+2, 1.5495703e+2, -1436736.5, -1450821.9, -0.00038969365, 0.00000004396136, -0.00005697373, -1436736.5, -15315.4, 0.0, 10.0, 9.981333 
6.15e+2, 1.6493228e+2, -1348685.6, -1371952.4, 0.00080704514, 0.000000043642117, 0.000047347305, -1348685.6, -25021.895, 0.0, 10.0, 9.969248 
6.15e+2, 1.7490156e+2, -1250727.6, -1274310.1, 0.0001780299, 0.000000043681574, -0.00007382653, -1250727.6, -24762.875, 0.0, 10.0, 9.968835 
6.15e+2, 1.8486421e+2, -1162646.6, -1195720.1, 0.0008077091, 0.000000043563613, 0.00006614927, -1162646.6, -34315.926, 0.0, 10.0, 9.956395 
6.15e+2, 1.9482064e+2, -1064496.9, -1097833.0, 0.000026996593, 0.000000043280895, -0.000057651167, -1064496.9, -33739.26, 0.0, 10.0, 9.956052 
6.15e+2, 2.0477042e+2, -976332.9, -1019435.0, 0.00052191433, 0.00000004328096, 0.00006808229, -976332.9, -43083.008, 0.0, 10.0, 9.943291 
6.15e+2, 2.1471375e+2, -878045.9, -921409.9, 0.00061620295, 0.000000043587285, -0.00012682656, -878045.9, -42240.594, 0.0, 10.0, 9.942949 
6.15e+2, 2.2465037e+2, -789759.75, -843144.9, 0.0016837473, 0.000000043050143, 0.00012088044, -789759.75, -51333.492, 0.0, 10.0, 9.929908 
6.15e+2, 2.3458035e+2, -691326.25, -744966.44, -0.00009048203, 0.000000041558117, -0.000088813766, -691326.25, -50213.723, 0.0, 10.0, 9.929577 
6.15e+2, 2.4450338e+2, -603002.2, -667018.8, -0.000026158204, 0.000000041567567, 0.000074713666, -603002.2, -59135.316, 0.0, 10.0, 9.916136 
6.15e+2, 2.5441962e+2, -504249.53, -568343.3, 0.0004894126, 0.00000004337148, -0.000106735635, -504249.53, -57561.98, 0.0, 10.0, 9.916036 
6.15e+2, 2.643288e+2, -416014.13, -490987.88, 0.0013548302, 0.000000043798654, 0.00014059359, -416014.13, -66436.45, 0.0, 10.0, 9.901964 
6.15e+2, 2.742313e+2, -316728.9, -391374.78, 0.00022393373, 0.00000004246952, -0.00020344385, -316728.9, -64195.902, 0.0, 10.0, 9.902385 
6.15e+2, 2.841256e+2, -230255.64, -318081.25, 0.00039469523, 0.000000041511036, 0.00022904713, -230255.64, -74686.67, 0.0, 10.0, 9.885439 
6.15e+2, 2.940121e+2, -130549.51, -217765.0, -0.00060349185, 0.00000004106791, -0.0002533404, -130549.51, -71868.11, 0.0, 10.0, 9.886217 
6.15e+2, 3.0392656e+2, -40805.496, -84750.16, -0.00025715327, 0.00000004161792, 0.0001731381, -40805.496, -40805.496, 0.0, 10.0, 9.942173 
6.15e+2, 3.138706e+2, -39727.484, -82511.21, -0.0004766014, 0.0000000436376, -0.000055144224, -39727.484, -39727.484, 0.0, 10.0, 9.943684 
6.25e+2, 1.2499334e+2, -1719946.1, -1724224.6, 0.0005664664, 0.000000046618666, 0.000017611748, -1719946.1, -4880.848, 0.0, 10.0, 9.994327 
6.25e+2, 1.349876e+2, -1622565.6, -1627434.9, 0.000060242925, 0.000000047013167, -0.00006840391, -1622565.6, -5444.0635, 0.0, 10.0, 9.993545 
6.25e+2, 1.4497514e+2, -1534464.3, -1548146.3, 0.00087611796, 0.000000046442185, 0.00007092815, -1534464.3, -15220.571, 0.0, 10.0, 9.981865 
6.25e+2, 1.5495703e+2, -1436736.5, -1450821.9, 0.000072308205, 0.00000004489145, -0.000056973415, -1436736.5, -15315.389, 0.0, 10.0, 9.981333 
6.25e+2, 1.6493228e+2, -1348685.6, -1371952.4, 0.0012455039, 0.000000044367468, 0.00004734737, -1348685.6, -25021.88, 0.0, 10.0, 9.969248 
6.25e+2, 1.7490156e+2, -1250727.5, -1274310.1, 0.0007046005, 0.000000044891856, -0.00007382627, -1250727.5, -24762.863, 0.0, 10.0, 9.968835 
6.25e+2, 1.8486421e+2, -1162646.6, -1195720.1, 0.0014869337, 0.000000045213827, 0.0000661493, -1162646.6, -34315.918, 0.0, 10.0, 9.956395 
6.25e+2, 1.9482064e+2, -1064496.9, -1097833.0, 0.0008038014, 0.00000004532397, -0.000057651778, -1064496.9, -33739.254, 0.0, 10.0, 9.956052 
6.25e+2, 2.0477042e+2, -976332.9, -1019435.0, 0.0010549574, 0.000000045043873, 0.000068082234, -976332.9, -43082.996, 0.0, 10.0, 9.943291 
6.25e+2, 2.1471375e+2, -878045.9, -921409.9, -0.00004475008, 0.00000004434116, -0.00012682477, -878045.9, -42240.582, 0.0, 10.0, 9.942949 
6.25e+2, 2.2465037e+2, -789759.75, -843144.9, 0.0012292833, 0.000000043746102, 0.00012088185, -789759.75, -51333.48, 0.0, 10.0, 9.929908 
6.25e+2, 2.3458035e+2, -691326.25, -744966.44, 0.0014081043, 0.000000043273, -0.00008881524, -691326.25, -50213.715, 0.0, 10.0, 9.929577 
6.25e+2, 2.4450338e+2, -603002.2, -667018.75, 0.001409455, 0.000000043572022, 0.00007471187, -603002.2, -59135.31, 0.0, 10.0, 9.916136 
6.25e+2, 2.5441962e+2, -504249.53, -568343.3, -0.00008640214, 0.00000004479318, -0.00010673467, -504249.53, -57561.97, 0.0, 10.0, 9.916036 
6.25e+2, 2.643288e+2, -416014.13, -490987.88, 0.0005605875, 0.000000044906425, 0.00014059538, -416014.13, -66436.445, 0.0, 10.0, 9.901964 
6.25e+2, 2.742313e+2, -316728.9, -391374.78, 0.0003785649, 0.00000004360753, -0.0002034437, -316728.9, -64195.89, 0.0, 10.0, 9.902385 
6.25e+2, 2.841256e+2, -230255.64, -318081.25, 0.0010472356, 0.000000042725972, 0.00022904646, -230255.64, -74686.664, 0.0, 10.0, 9.885439 
6.25e+2, 2.940121e+2, -130549.5, -217765.0, 0.0004463928, 0.000000042422023, -0.00025334075, -130549.5, -71868.1, 0.0, 10.0, 9.886217 
6.25e+2, 3.0392656e+2, -40805.484, -84750.16, 0.0007333295, 0.00000004310802, 0.00017313779, -40805.484, -40805.484, 0.0, 10.0, 9.942173 
6.25e+2, 3.138706e+2, -39727.477, -82511.21, 0.0003941464, 0.00000004525824, -0.000055144996, -39727.477, -39727.477, 0.0, 10.0, 9.943684 
6.35e+2, 1.2499334e+2, -1719946.1, -1724224.6, -0.000046993173, 0.000000048561706, 0.000017609274, -1719946.1, -4880.85, 0.0, 10.0, 9.994327 
6.35e+2, 1.349876e+2, -1622565.6, -1627434.9, -0.00055332266, 0.000000048495245, -0.00006840153, -1622565.6, -5444.065, 0.0, 10.0, 9.993545 
6.35e+2, 1.4497514e+2, -1534464.3, -1548146.3, 0.00097034493, 0.000000047754593, 0.000070931965, -1534464.3, -15220.573, 0.0, 10.0, 9.981865 
6.35e+2, 1.5495703e+2, -1436736.5, -1450821.9, 0.00016765052, 0.000000046326246, -0.00005697392, -1436736.5, -15315.391, 0.0, 10.0, 9.981333 
6.35e+2, 1.6493228e+2, -1348685.6, -1371952.4, 0.0006300974, 0.00000004581169, 0.0000473458, -1348685.6, -25021.883, 0.0, 10.0, 9.969248 
6.35e+2, 1.7490156e+2, -1250727.5, -1274310.1, 0.000085435684, 0.000000046230156, -0.00007382559, -1250727.5, -24762.865, 0.0, 10.0, 9.968835 
6.35e+2, 1.8486421e+2, -1162646.6, -1195720.1, 0.0009372135, 0.000000046725802, 0.0000661499, -1162646.6, -34315.918, 0.0, 10.0, 9.956395 
6.35e+2, 1.9482064e+2, -1064496.9, -1097833.0, 0.00025488008, 0.00000004730219, -0.000057653695, -1064496.9, -33739.254, 0.0, 10.0, 9.956052 
6.35e+2, 2.0477042e+2, -976332.9, -1019435.0, 0.0013081076, 0.000000046603656, 0.00006808124, -976332.9, -43083.0, 0.0, 10.0, 9.943291 
6.35e+2, 2.1471375e+2, -878045.9, -921409.9, 0.00022496299, 0.000000044524334, -0.00012682112, -878045.9, -42240.586, 0.0, 10.0, 9.942949 
6.35e+2, 2.2465037e+2, -789759.75, -843144.9, 0.0007405171, 0.000000044296872, 0.0001208851, -789759.75, -51333.48, 0.0, 10.0, 9.929908 
6.35e+2, 2.3458035e+2, -691326.25, -744966.44, 0.00089452096, 0.000000046166033, -0.000088818124, -691326.25, -50213.715, 0.0, 10.0, 9.929577 
6.35e+2, 2.4450338e+2, -603002.2, -667018.8, 0.0011743197, 0.000000046609046, 0.00007470803, -603002.2, -59135.313, 0.0, 10.0, 9.916136 
6.35e+2, 2.5441962e+2, -504249.53, -568343.3, -0.00030815942, 0.000000045346347, -0.0001067333, -504249.53, -57561.973, 0.0, 10.0, 9.916036 
6.35e+2, 2.643288e+2, -416014.13, -490987.88, 0.0007075131, 0.000000044670216, 0.00014059868, -416014.13, -66436.445, 0.0, 10.0, 9.901964 
6.35e+2, 2.742313e+2, -316728.9, -391374.78, 0.00055020954, 0.000000044744546, -0.00020344266, -316728.9, -64195.89, 0.0, 10.0, 9.902385 
6.35e+2, 2.841256e+2, -230255.64, -318081.25, 0.00087354204, 0.000000044944283, 0.00022904547, -230255.64, -74686.664, 0.0, 10.0, 9.885439 
6.35e+2, 2.940121e+2, -130549.5, -217765.0, 0.00024158192, 0.000000045312067, -0.0002533435, -130549.5, -71868.1, 0.0, 10.0, 9.886217 
6.35e+2, 3.0392656e+2, -40805.484, -84750.16, 0.0003231046, 0.00000004541428, 0.00017313528, -40805.484, -40805.484, 0.0, 10.0, 9.942173 
6.35e+2, 3.138706e+2, -39727.477, -82511.21, -0.00004019452, 0.000000045120515, -0.000055144363, -39727.477, -39727.477, 0.0, 10.0, 9.943684 
6.45e+2, 1.2499334e+2, -1719946.1, -1724224.6, 0.0011804212, 0.00000005026211, 0.000017608574, -1719946.1, -4880.8384, 0.0, 10.0, 9.994327 
6.45e+2, 1.349876e+2, -1622565.6, -1627434.9, -0.0005268794, 0.000000049353783, -0.0000684006, -1622565.6, -5444.052, 0.0, 10.0, 9.993545 
6.45e+2, 1.4497514e+2, -1534464.3, -1548146.3, 0.0008417781, 0.00000004873038, 0.00007093392, -1534464.3, -15220.561, 0.0, 10.0, 9.981865 
6.45e+2, 1.5495703e+2, -1436736.5, -1450821.9, 0.0007547564, 0.000000048383416, -0.000056974, -1436736.5, -15315.381, 0.0, 10.0, 9.981333 
6.45e+2, 1.6493228e+2, -1348685.6, -1371952.4, 0.0013534802, 0.000000048149026, 0.000047345187, -1348685.6, -25021.875, 0.0, 10.0, 9.969248 
6.45e+2, 1.7490156e+2, -1250727.5, -1274310.1, 0.00049115496, 0.000000048029598, -0.00007382519, -1250727.5, -24762.855, 0.0, 10.0, 9.968835 
6.45e+2, 1.8486421e+2, -1162646.6, -1195720.1, 0.0013428166, 0.00000004799871, 0.000066150526, -1162646.6, -34315.906, 0.0, 10.0, 9.956395 
6.45e+2, 1.9482064e+2, -1064496.9, -1097833.0, 0.0007368882, 0.00000004806045, -0.000057653662, -1064496.9, -33739.242, 0.0, 10.0, 9.956052 
6.45e+2, 2.0477042e+2, -976332.9, -1019435.0, 0.0020138444, 0.000000047481553, 0.00006808107, -976332.9, -43082.99, 0.0, 10.0, 9.943291 
6.45e+2, 2.1471375e+2, -878045.9, -921409.9, 0.0009902448, 0.000000046208793, -0.00012682108, -878045.9, -42240.574, 0.0, 10.0, 9.942949 
6.45e+2, 2.2465037e+2, -789759.75, -843144.9, 0.0010232412, 0.000000046370538, 0.00012088532, -789759.75, -51333.47, 0.0, 10.0, 9.929908 
6.45e+2, 2.3458035e+2, -691326.25, -744966.44, 0.0007077148, 0.000000048156252, -0.00008881779, -691326.25, -50213.703, 0.0, 10.0, 9.929577 
6.45e+2, 2.4450338e+2, -603002.2, -667018.8, 0.0014973137, 0.00000004818487, 0.00007470821, -603002.2, -59135.3, 0.0, 10.0, 9.916136 
6.45e+2, 2.5441962e+2, -504249.53, -568343.3, 0.00057032215, 0.00000004611295, -0.000106733576, -504249.53, -57561.96, 0.0, 10.0, 9.916036 
6.45e+2, 2.643288e+2, -416014.1, -490987.88, 0.0013355615, 0.000000045363386, 0.00014059845, -416014.1, -66436.43, 0.0, 10.0, 9.901964 
6.45e+2, 2.742313e+2, -316728.88, -391374.75, 0.0006252181, 0.000000046301583, -0.00020344222, -316728.88, -64195.88, 0.0, 10.0, 9.902385 
6.45e+2, 2.841256e+2, -230255.63, -318081.25, 0.00083198125, 0.000000047053714, 0.00022904585, -230255.63, -74686.66, 0.0, 10.0, 9.885439 
6.45e+2, 2.940121e+2, -130549.49, -217765.0, 0.00055575155, 0.000000047543324, -0.0002533442, -130549.49, -71868.09, 0.0, 10.0, 9.886217 
6.45e+2, 3.0392656e+2, -40805.477, -84750.16, 0.00071746856, 0.000000047209696, 0.00017313454, -40805.477, -40805.477, 0.0, 10.0, 9.942173 
6.45e+2, 3.138706e+2, -39727.46, -82511.21, -0.000523063, 0.00000004565625, -0.00005514363, -39727.46, -39727.46, 0.0, 10.0, 9.943684 
6.55e+2, 1.2499334e+2, -1719946.1, -1724224.6, 0.0009334865, 0.000000051719876, 0.000017609647, -1719946.1, -4880.843, 0.0, 10.0, 9.994327 
6.55e+2, 1.349876e+2, -1622565.6, -1627434.9, -0.0007738611, 0.000000049588788, -0.000068401096, -1622565.6, -5444.056, 0.0, 10.0, 9.993545 
6.55e+2, 1.4497514e+2, -1534464.3, -1548146.3, 0.0000693192, 0.000000049369554, 0.00007093402, -1534464.3, -15220.561, 0.0, 10.0, 9.981865 
6.55e+2, 1.5495703e+2, -1436736.5, -1450821.9, -0.00001854366, 0.00000005106296, -0.00005697366, -1436736.5, -15315.382, 0.0, 10.0, 9.981333 
6.55e+2, 1.6493228e+2, -1348685.6, -1371952.4, 0.0011483185, 0.000000051379487, 0.000047345537, -1348685.6, -25021.877, 0.0, 10.0, 9.969248 
6.55e+2, 1.7490156e+2, -1250727.5, -1274310.1, 0.0002889843, 0.00000005029018, -0.000073825075, -1250727.5, -24762.857, 0.0, 10.0, 9.968835 
6.55e+2, 1.8486421e+2, -1162646.6, -1195720.1, 0.0013190523, 0.000000049032558, 0.00006615117, -1162646.6, -34315.91, 0.0, 10.0, 9.956395 
6.55e+2, 1.9482064e+2, -1064496.9, -1097833.0, 0.0007151837, 0.000000047598743, -0.000057651683, -1064496.9, -33739.242, 0.0, 10.0, 9.956052 
6.55e+2, 2.0477042e+2, -976332.9, -1019435.0, 0.0015014219, 0.000000047677556, 0.000068081725, -976332.9, -43082.992, 0.0, 10.0, 9.943291 
6.55e+2, 2.1471375e+2, -878045.9, -921409.9, 0.00046768316, 0.000000049394533, -0.00012682463, -878045.9, -42240.58, 0.0, 10.0, 9.942949 
6.55e+2, 2.2465037e+2, -789759.75, -843144.9, 0.00066076615, 0.000000049967095, 0.000120882505, -789759.75, -51333.47, 0.0, 10.0, 9.929908 
6.55e+2, 2.3458035e+2, -691326.25, -744966.44, 0.00035047118, 0.000000049243667, -0.00008881424, -691326.25, -50213.703, 0.0, 10.0, 9.929577 
6.55e+2, 2.4450338e+2, -603002.2, -667018.8, 0.001898464, 0.0000000482995, 0.00007471243, -603002.2, -59135.305, 0.0, 10.0, 9.916136 
6.55e+2, 2.5441962e+2, -504249.53, -568343.3, 0.0010079183, 0.000000047092982, -0.00010673549, -504249.53, -57561.96, 0.0, 10.0, 9.916036 
6.55e+2, 2.643288e+2, -416014.1, -490987.88, 0.00077017077, 0.000000046985924, 0.00014059468, -416014.1, -66436.43, 0.0, 10.0, 9.901964 
6.55e+2, 2.742313e+2, -316728.88, -391374.78, -0.0000074205627, 0.000000048278633, -0.00020344238, -316728.88, -64195.883, 0.0, 10.0, 9.902385 
6.55e+2, 2.841256e+2, -230255.63, -318081.25, 0.00063119765, 0.00000004905426, 0.00022904761, -230255.63, -74686.66, 0.0, 10.0, 9.885439 
6.55e+2, 2.940121e+2, -130549.49, -217765.0, 0.00039387995, 0.000000049115794, -0.00025334285, -130549.49, -71868.09, 0.0, 10.0, 9.886217 
6.55e+2, 3.0392656e+2, -40805.477, -84750.164, 0.001242155, 0.000000048494275, 0.00017313554, -40805.477, -40805.477, 0.0, 10.0, 9.942173 
6.55e+2, 3.138706e+2, -39727.465, -82511.21, 0.000082225284, 0.00000004686544, -0.000055142802, -39727.465, -39727.465, 0.0, 10.0, 9.943684 
6.65e+2, 1.2499334e+2, -1719946.1, -1724224.6, 0.00073512114, 0.00000005303243, 0.00001761162, -1719946.1, -4880.83, 0.0, 10.0, 9.994327 
6.65e+2, 1.349876e+2, -1622565.6, -1627434.9, 0.0007479918, 0.000000051270085, -0.0000684026, -1622565.6, -5444.045, 0.0, 10.0, 9.993545 
6.65e+2, 1.4497514e+2, -1534464.3, -1548146.3, 0.001588036, 0.00000005117713, 0.000070932925, -1534464.3, -15220.55, 0.0, 10.0, 9.981865 
6.65e+2, 1.5495703e+2, -1436736.5, -1450821.9, 0.00030405345, 0.000000052751798, -0.00005697307, -1436736.5, -15315.37, 0.0, 10.0, 9.981333 
6.65e+2, 1.6493228e+2, -1348685.6, -1371952.4, 0.0014138621, 0.00000005295415, 0.000047346548, -1348685.6, -25021.865, 0.0, 10.0, 9.969248 
6.65e+2, 1.7490156e+2, -1250727.5, -1274310.1, 0.0006253884, 0.00000005175532, -0.00007382493, -1250727.5, -24762.846, 0.0, 10.0, 9.968835 
6.65e+2, 1.8486421e+2, -1162646.6, -1195720.1, 0.0016247068, 0.000000050458752, 0.00006615138, -1162646.6, -34315.9, 0.0, 10.0, 9.956395 
6.65e+2, 1.9482064e+2, -1064496.9, -1097833.0, 0.0007438828, 0.000000049059842, -0.000057650457, -1064496.9, -33739.23, 0.0, 10.0, 9.956052 
6.65e+2, 2.0477042e+2, -976332.9, -1019435.0, 0.0014613995, 0.00000004939631, 0.00006808242, -976332.9, -43082.98, 0.0, 10.0, 9.943291 
6.65e+2, 2.1471375e+2, -878045.9, -921409.9, 0.0015589036, 0.00000005161219, -0.00012682613, -878045.9, -42240.566, 0.0, 10.0, 9.942949 
6.65e+2, 2.2465037e+2, -789759.75, -843144.9, 0.0021640076, 0.00000005185495, 0.00012088116, -789759.75, -51333.46, 0.0, 10.0, 9.929908 
6.65e+2, 2.3458035e+2, -691326.25, -744966.44, 0.00013402573, 0.000000049863605, -0.00008881281, -691326.25, -50213.69, 0.0, 10.0, 9.929577 
6.65e+2, 2.4450338e+2, -603002.2, -667018.8, 0.0011218272, 0.00000004888141, 0.000074714386, -603002.2, -59135.29, 0.0, 10.0, 9.916136 
6.65e+2, 2.5441962e+2, -504249.5, -568343.3, 0.0013768701, 0.00000004910691, -0.000106735686, -504249.5, -57561.95, 0.0, 10.0, 9.916036 
6.65e+2, 2.643288e+2, -416014.1, -490987.88, 0.0014778259, 0.000000049489987, 0.00014059356, -416014.1, -66436.42, 0.0, 10.0, 9.901964 
6.65e+2, 2.742313e+2, -316728.88, -391374.78, 0.00044195738, 0.000000050070724, -0.00020344288, -316728.88, -64195.87, 0.0, 10.0, 9.902385 
6.65e+2, 2.841256e+2, -230255.61, -318081.25, 0.0008200487, 0.000000050254474, 0.00022904777, -230255.61, -74686.64, 0.0, 10.0, 9.885439 
6.65e+2, 2.940121e+2, -130549.48, -217765.0, -0.0003413029, 0.00000004989405, -0.000253342, -130549.48, -71868.086, 0.0, 10.0, 9.886217 
6.65e+2, 3.0392656e+2, -40805.465, -84750.16, 0.00037315485, 0.000000049536034, 0.00017313642, -40805.465, -40805.465, 0.0, 10.0, 9.942173 
6.65e+2, 3.138706e+2, -39727.457, -82511.21, 0.000051387553, 0.00000004918681, -0.000055142864, -39727.457, -39727.457, 0.0, 10.0, 9.943684 
6.75e+2, 1.2499334e+2, -1719946.1, -1724224.6, 0.00015007808, 0.000000054199763, 0.000017614486, -1719946.1, -4880.8306, 0.0, 10.0, 9.994327 
6.75e+2, 1.349876e+2, -1622565.6, -1627434.9, 0.00016282358, 0.00000005439767, -0.00006840511, -1622565.6, -5444.0454, 0.0, 10.0, 9.993545 
6.75e+2, 1.4497514e+2, -1534464.3, -1548146.3, 0.0009754616, 0.000000054153112, 0.00007093065, -1534464.3, -15220.553, 0.0, 10.0, 9.981865 
6.75e+2, 1.5495703e+2, -1436736.5, -1450821.9, -0.00030857528, 0.000000053449934, -0.00005697223, -1436736.5, -15315.373, 0.0, 10.0, 9.981333 
6.75e+2, 1.6493228e+2, -1348685.6, -1371952.4, 0.0012579137, 0.000000052873027, 0.000047348218, -1348685.6, -25021.867, 0.0, 10.0, 9.969248 
6.75e+2, 1.7490156e+2, -1250727.5, -1274310.1, 0.0004718431, 0.000000052425023, -0.00007382476, -1250727.5, -24762.848, 0.0, 10.0, 9.968835 
6.75e+2, 1.8486421e+2, -1162646.6, -1195720.1, 0.0014302748, 0.000000052277294, 0.00006615113, -1162646.6, -34315.9, 0.0, 10.0, 9.956395 
6.75e+2, 1.9482064e+2, -1064496.9, -1097833.0, 0.0005489708, 0.00000005244374, -0.00005764999, -1064496.9, -33739.234, 0.0, 10.0, 9.956052 
6.75e+2, 2.0477042e+2, -976332.9, -1019435.0, 0.00081326364, 0.0000000526378, 0.00006808318, -976332.9, -43082.98, 0.0, 10.0, 9.943291 
6.75e+2, 2.1471375e+2, -878045.9, -921409.9, 0.0009013987, 0.000000052861758, -0.00012682554, -878045.9, -42240.566, 0.0, 10.0, 9.942949 
6.75e+2, 2.2465037e+2, -789759.75, -843144.9, 0.0025788073, 0.000000052034107, 0.00012088126, -789759.75, -51333.465, 0.0, 10.0, 9.929908 
6.75e+2, 2.3458035e+2, -691326.25, -744966.44, 0.0005839055, 0.00000005001607, -0.00008881352, -691326.25, -50213.695, 0.0, 10.0, 9.929577 
6.75e+2, 2.4450338e+2, -603002.2, -667018.8, 0.00054514053, 0.0000000499306, 0.00007471408, -603002.2, -59135.29, 0.0, 10.0, 9.916136 
6.75e+2, 2.5441962e+2, -504249.5, -568343.3, 0.00075084734, 0.000000052154732, -0.000106734165, -504249.5, -57561.95, 0.0, 10.0, 9.916036 
6.75e+2, 2.643288e+2, -416014.1, -490987.88, 0.0014476016, 0.00000005287557, 0.00014059508, -416014.1, -66436.42, 0.0, 10.0, 9.901964 
6.75e+2, 2.742313e+2, -316728.88, -391374.78, 0.00045167748, 0.00000005167786, -0.00020344369, -316728.88, -64195.875, 0.0, 10.0, 9.902385 
6.75e+2, 2.841256e+2, -230255.61, -318081.25, 0.00096002803, 0.000000050654346, 0.00022904635, -230255.61, -74686.65, 0.0, 10.0, 9.885439 
6.75e+2, 2.940121e+2, -130549.48, -217765.0, -0.00018958366, 0.0000000498781, -0.00025334166, -130549.48, -71868.086, 0.0, 10.0, 9.886217 
6.75e+2, 3.0392656e+2, -40805.465, -84750.16, 0.000013020868, 0.000000050334965, 0.00017313714, -40805.465, -40805.465, 0.0, 10.0, 9.942173 
6.75e+2, 3.138706e+2, -39727.457, -82511.21, -0.0003688331, 0.00000005262035, -0.000055143817, -39727.457, -39727.457, 0.0, 10.0, 9.943684 
6.85e+2, 1.2499334e+2, -1719946.1, -1724224.6, 0.001101167, 0.000000056012436, 0.000017614528, -1719946.1, -4880.819, 0.0, 10.0, 9.994327 
6.85e+2, 1.349876e+2, -1622565.6, -1627434.9, 0.0003287918, 0.00000005681142, -0.00006840508, -1622565.6, -5444.034, 0.0, 10.0, 9.993545 
6.85e+2, 1.4497514e+2, -1534464.3, -1548146.3, 0.0013420034, 0.000000056299868, 0.000070931696, -1534464.3, -15220.542, 0.0, 10.0, 9.981865 
6.85e+2, 1.5495703e+2, -1436736.5, -1450821.9, 0.0003771016, 0.000000054454897, -0.000056971992, -1436736.5, -15315.358, 0.0, 10.0, 9.981333 
6.85e+2, 1.6493228e+2, -1348685.5, -1371952.4, 0.0019142631, 0.000000053576574, 0.000047348225, -1348685.5, -25021.852, 0.0, 10.0, 9.969248 
6.85e+2, 1.7490156e+2, -1250727.5, -1274310.1, 0.0010987225, 0.000000053685223, -0.00007382439, -1250727.5, -24762.834, 0.0, 10.0, 9.968835 
6.85e+2, 1.8486421e+2, -1162646.6, -1195720.1, 0.0020189034, 0.000000054262927, 0.00006615123, -1162646.6, -34315.887, 0.0, 10.0, 9.956395 
6.85e+2, 1.9482064e+2, -1064496.9, -1097833.0, 0.0013609176, 0.000000055331427, -0.000057650825, -1064496.9, -33739.227, 0.0, 10.0, 9.956052 
6.85e+2, 2.0477042e+2, -976332.9, -1019435.0, 0.0015606271, 0.000000055084367, 0.00006808294, -976332.9, -43082.97, 0.0, 10.0, 9.943291 
6.85e+2, 2.1471375e+2, -878045.8, -921409.9, 0.00013295721, 0.0000000534125, -0.00012682352, -878045.8, -42240.55, 0.0, 10.0, 9.942949 
6.85e+2, 2.2465037e+2, -789759.75, -843144.9, 0.0018278189, 0.000000052319457, 0.000120883036, -789759.75, -51333.45, 0.0, 10.0, 9.929908 
6.85e+2, 2.3458035e+2, -691326.25, -744966.44, 0.0019345785, 0.000000051882072, -0.000088814806, -691326.25, -50213.684, 0.0, 10.0, 9.929577 
6.85e+2, 2.4450338e+2, -603002.2, -667018.75, 0.0019267485, 0.00000005245954, 0.000074712225, -603002.2, -59135.28, 0.0, 10.0, 9.916136 
6.85e+2, 2.5441962e+2, -504249.5, -568343.3, 0.00039859305, 0.000000054248517, -0.00010673358, -504249.5, -57561.94, 0.0, 10.0, 9.916036 
6.85e+2, 2.643288e+2, -416014.1, -490987.88, 0.0010128786, 0.00000005454474, 0.0001405965, -416014.1, -66436.414, 0.0, 10.0, 9.901964 
6.85e+2, 2.742313e+2, -316728.88, -391374.75, 0.0006297872, 0.000000052938415, -0.00020344344, -316728.88, -64195.86, 0.0, 10.0, 9.902385 
6.85e+2, 2.841256e+2, -230255.61, -318081.25, 0.0015163581, 0.000000051849685, 0.0002290459, -230255.61, -74686.63, 0.0, 10.0, 9.885439 
6.85e+2, 2.940121e+2, -130549.47, -217765.0, 0.0009107576, 0.00000005147805, -0.00025334212, -130549.47, -71868.07, 0.0, 10.0, 9.886217 
6.85e+2, 3.0392656e+2, -40805.453, -84750.16, 0.00091288844, 0.000000052124943, 0.00017313672, -40805.453, -40805.453, 0.0, 10.0, 9.942173 
6.85e+2, 3.138706e+2, -39727.445, -82511.21, -0.00007591766, 0.000000054277333, -0.000055144134, -39727.445, -39727.445, 0.0, 10.0, 9.943684 
6.95e+2, 1.2499334e+2, -1719946.1, -1724224.6, 0.00040750386, 0.000000058470437, 0.000017611745, -1719946.1, -4880.8213, 0.0, 10.0, 9.994327 
6.95e+2, 1.349876e+2, -1622565.6, -1627434.9, -0.00036498663, 0.000000058511336, -0.000068402536, -1622565.6, -5444.0366, 0.0, 10.0, 9.993545 
6.95e+2, 1.4497514e+2, -1534464.3, -1548146.3, 0.0015451394, 0.000000057617406, 0.00007093607, -1534464.3, -15220.545, 0.0, 10.0, 9.981865 
6.95e+2, 1.5495703e+2, -1436736.5, -1450821.9, 0.0005816482, 0.000000055766687, -0.000056972352, -1436736.5, -15315.361, 0.0, 10.0, 9.981333 
6.95e+2, 1.6493228e+2, -1348685.5, -1371952.4, 0.0013049858, 0.0000000550648, 0.000047346573, -1348685.5, -25021.854, 0.0, 10.0, 9.969248 
6.95e+2, 1.7490156e+2, -1250727.5, -1274310.1, 0.00048513958, 0.000000055535928, -0.00007382382, -1250727.5, -24762.836, 0.0, 10.0, 9.968835 
6.95e+2, 1.8486421e+2, -1162646.6, -1195720.1, 0.0011742843, 0.000000056415644, 0.000066151675, -1162646.6, -34315.89, 0.0, 10.0, 9.956395 
6.95e+2, 1.9482064e+2, -1064496.9, -1097833.0, 0.0005136145, 0.00000005772291, -0.000057652964, -1064496.9, -33739.227, 0.0, 10.0, 9.956052 
6.95e+2, 2.0477042e+2, -976332.9, -1019435.0, 0.0022623283, 0.000000056736006, 0.00006808171, -976332.9, -43082.973, 0.0, 10.0, 9.943291 
6.95e+2, 2.1471375e+2, -878045.8, -921409.9, 0.0008666479, 0.00000005326441, -0.00012682007, -878045.8, -42240.555, 0.0, 10.0, 9.942949 
6.95e+2, 2.2465037e+2, -789759.75, -843144.9, 0.0011782625, 0.000000052711002, 0.000120886485, -789759.75, -51333.45, 0.0, 10.0, 9.929908 
6.95e+2, 2.3458035e+2, -691326.25, -744966.44, 0.0012397647, 0.000000055461605, -0.00008881668, -691326.25, -50213.684, 0.0, 10.0, 9.929577 
6.95e+2, 2.4450338e+2, -603002.2, -667018.8, 0.0015761075, 0.000000056468235, 0.000074708834, -603002.2, -59135.28, 0.0, 10.0, 9.916136 
6.95e+2, 2.5441962e+2, -504249.5, -568343.3, 0.000064488544, 0.00000005538827, -0.00010673395, -504249.5, -57561.94, 0.0, 10.0, 9.916036 
6.95e+2, 2.643288e+2, -416014.1, -490987.88, 0.0013486501, 0.000000054497495, 0.00014059784, -416014.1, -66436.414, 0.0, 10.0, 9.901964 
6.95e+2, 2.742313e+2, -316728.88, -391374.78, 0.001010473, 0.000000053852386, -0.00020344213, -316728.88, -64195.86, 0.0, 10.0, 9.902385 
6.95e+2, 2.841256e+2, -230255.61, -318081.25, 0.0013827737, 0.000000053840484, 0.00022904645, -230255.61, -74686.63, 0.0, 10.0, 9.885439 
6.95e+2, 2.940121e+2, -130549.47, -217765.0, 0.000730837, 0.000000054693896, -0.00025334337, -130549.47, -71868.07, 0.0, 10.0, 9.886217 
6.95e+2, 3.0392656e+2, -40805.457, -84750.164, 0.00066635094, 0.000000054905957, 0.00017313515, -40805.457, -40805.457, 0.0, 10.0, 9.942173 
6.95e+2, 3.138706e+2, -39727.445, -82511.21, -0.0003302728, 0.000000054157756, -0.000055143806, -39727.445, -39727.445, 0.0, 10.0, 9.943684 
7.05e+2, 1.2499334e+2, -1719946.0, -1724224.6, 0.0009930852, 0.000000060737854, 0.00001761172, -1719946.0, -4880.808, 0.0, 10.0, 9.994327 
7.05e+2, 1.349876e+2, -1622565.6, -1627434.9, -0.0007648258, 0.0000000594928, -0.00006840147, -1622565.6, -5444.021, 0.0, 10.0, 9.993545 
7.05e+2, 1.4497514e+2, -1534464.1, -1548146.3, 0.001104752, 0.000000058572304, 0.00007093832, -1534464.1, -15220.528, 0.0, 10.0, 9.981865 
7.05e+2, 1.5495703e+2, -1436736.5, -1450821.9, 0.00081562303, 0.000000057960833, -0.00005697195, -1436736.5, -15315.35, 0.0, 10.0, 9.981333 
7.05e+2, 1.6493228e+2, -1348685.5, -1371952.4, 0.0017116828, 0.000000057804193, 0.000047346217, -1348685.5, -25021.844, 0.0, 10.0, 9.969248 
7.05e+2, 1.7490156e+2, -1250727.5, -1274310.1, 0.0009890582, 0.000000058111993, -0.00007382383, -1250727.5, -24762.824, 0.0, 10.0, 9.968835 
7.05e+2, 1.8486421e+2, -1162646.5, -1195720.1, 0.0018304094, 0.00000005822229, 0.00006615187, -1162646.5, -34315.875, 0.0, 10.0, 9.956395 
7.05e+2, 1.9482064e+2, -1064496.9, -1097833.0, 0.00089376984, 0.0000000581259, -0.000057652705, -1064496.9, -33739.207, 0.0, 10.0, 9.956052 
7.05e+2, 2.0477042e+2, -976332.9, -1019435.0, 0.0028744491, 0.000000057230153, 0.00006808195, -976332.9, -43082.957, 0.0, 10.0, 9.943291 
7.05e+2, 2.1471375e+2, -878045.8, -921409.9, 0.001736741, 0.000000055468657, -0.00012681994, -878045.8, -42240.543, 0.0, 10.0, 9.942949 
7.05e+2, 2.2465037e+2, -789759.7, -843144.9, 0.0015072366, 0.000000055641358, 0.00012088658, -789759.7, -51333.438, 0.0, 10.0, 9.929908 
7.05e+2, 2.3458035e+2, -691326.2, -744966.44, 0.001123714, 0.0000000580037, -0.000088816545, -691326.2, -50213.67, 0.0, 10.0, 9.929577 
7.05e+2, 2.4450338e+2, -603002.1, -667018.8, 0.0020942893, 0.00000005831009, 0.00007470881, -603002.1, -59135.27, 0.0, 10.0, 9.916136 
7.05e+2, 2.5441962e+2, -504249.5, -568343.3, 0.0011750703, 0.00000005615839, -0.000106734355, -504249.5, -57561.926, 0.0, 10.0, 9.916036 
7.05e+2, 2.643288e+2, -416014.06, -490987.88, 0.002134552, 0.000000055143325, 0.00014059752, -416014.06, -66436.4, 0.0, 10.0, 9.901964 
7.05e+2, 2.742313e+2, -316728.84, -391374.75, 0.0008529353, 0.00000005558049, -0.00020344174, -316728.84, -64195.848, 0.0, 10.0, 9.902385 
7.05e+2, 2.841256e+2, -230255.6, -318081.25, 0.000690781, 0.000000056221868, 0.00022904709, -230255.6, -74686.625, 0.0, 10.0, 9.885439 
7.05e+2, 2.940121e+2, -130549.45, -217765.0, 0.00014625987, 0.000000057135907, -0.00025334308, -130549.45, -71868.06, 0.0, 10.0, 9.886217 
7.05e+2, 3.0392656e+2, -40805.445, -84750.16, 0.00053565606, 0.000000056983367, 0.00017313511, -40805.445, -40805.445, 0.0, 10.0, 9.942173 
7.05e+2, 3.138706e+2, -39727.43, -82511.21, -0.000187489, 0.000000055244737, -0.000055144188, -39727.43, -39727.43, 0.0, 10.0, 9.943684 
7.15e+2, 1.2499334e+2, -1719946.1, -1724224.6, 0.0008729839, 0.00000006281467, 0.000017614455, -1719946.1, -4880.8125, 0.0, 10.0, 9.994327 
7.15e+2, 1.349876e+2, -1622565.6, -1627434.9, -0.0008849289, 0.000000059755806, -0.00006840189, -1622565.6, -5444.0254, 0.0, 10.0, 9.993545 
7.15e+2, 1.4497514e+2, -1534464.1, -1548146.3, 0.00032545274, 0.000000059164563, 0.00007093844, -1534464.1, -15220.53, 0.0, 10.0, 9.981865 
7.15e+2, 1.5495703e+2, -1436736.5, -1450821.9, 0.000035265955, 0.00000006103733, -0.000056970784, -1436736.5, -15315.351, 0.0, 10.0, 9.981333 
7.15e+2, 1.6493228e+2, -1348685.5, -1371952.4, 0.0013079303, 0.00000006179476, 0.000047347155, -1348685.5, -25021.846, 0.0, 10.0, 9.969248 
7.15e+2, 1.7490156e+2, -1250727.5, -1274310.1, 0.0005872813, 0.00000006141342, -0.00007382441, -1250727.5, -24762.826, 0.0, 10.0, 9.968835 
7.15e+2, 1.8486421e+2, -1162646.5, -1195720.1, 0.0021306532, 0.00000005968287, 0.000066151835, -1162646.5, -34315.88, 0.0, 10.0, 9.956395 
7.15e+2, 1.9482064e+2, -1064496.9, -1097833.0, 0.001202134, 0.000000056540404, -0.000057650053, -1064496.9, -33739.21, 0.0, 10.0, 9.956052 
7.15e+2, 2.0477042e+2, -976332.9, -1019435.0, 0.002142431, 0.00000005656681, 0.00006808365, -976332.9, -43082.957, 0.0, 10.0, 9.943291 
7.15e+2, 2.1471375e+2, -878045.8, -921409.9, 0.0009832297, 0.00000006002523, -0.00012682313, -878045.8, -42240.547, 0.0, 10.0, 9.942949 
7.15e+2, 2.2465037e+2, -789759.7, -843144.9, 0.0011838826, 0.00000006111052, 0.00012088332, -789759.7, -51333.438, 0.0, 10.0, 9.929908 
7.15e+2, 2.3458035e+2, -691326.2, -744966.44, 0.00081442524, 0.00000005950836, -0.0000888144, -691326.2, -50213.67, 0.0, 10.0, 9.929577 
7.15e+2, 2.4450338e+2, -603002.1, -667018.8, 0.0026632387, 0.000000057985112, 0.000074712174, -603002.1, -59135.273, 0.0, 10.0, 9.916136 
7.15e+2, 2.5441962e+2, -504249.5, -568343.3, 0.0017862255, 0.00000005655889, -0.0001067348, -504249.5, -57561.93, 0.0, 10.0, 9.916036 
7.15e+2, 2.643288e+2, -416014.06, -490987.88, 0.001603798, 0.00000005648223, 0.00014059556, -416014.06, -66436.4, 0.0, 10.0, 9.901964 
7.15e+2, 2.742313e+2, -316728.84, -391374.78, 0.00024562178, 0.000000058122726, -0.0002034423, -316728.84, -64195.85, 0.0, 10.0, 9.902385 
7.15e+2, 2.841256e+2, -230255.6, -318081.25, 0.00051408226, 0.000000058993837, 0.00022904783, -230255.6, -74686.625, 0.0, 10.0, 9.885439 
7.15e+2, 2.940121e+2, -130549.46, -217765.0, 0.000008364159, 0.000000058804076, -0.00025334122, -130549.46, -71868.06, 0.0, 10.0, 9.886217 
7.15e+2, 3.0392656e+2, -40805.445, -84750.164, 0.0010337268, 0.00000005835717, 0.00017313659, -40805.445, -40805.445, 0.0, 10.0, 9.942173 
7.15e+2, 3.138706e+2, -39727.434, -82511.21, 0.00038524895, 0.00000005753828, -0.000055145276, -39727.434, -39727.434, 0.0, 10.0, 9.943684 
7.25e+2, 1.2499334e+2, -1719946.0, -1724224.6, 0.00086891185, 0.000000064250244, 0.000017616318, -1719946.0, -4880.797, 0.0, 10.0, 9.994327 
7.25e+2, 1.349876e+2, -1622565.6, -1627434.9, 0.00080292096, 0.000000061680346, -0.000068403264, -1622565.6, -5444.0117, 0.0, 10.0, 9.993545 
7.25e+2, 1.4497514e+2, -1534464.1, -1548146.3, 0.0019070294, 0.00000006140943, 0.00007093764, -1534464.1, -15220.517, 0.0, 10.0, 9.981865 
7.25e+2, 1.5495703e+2, -1436736.5, -1450821.9, 0.00059820374, 0.00000006343131, -0.000056970537, -1436736.5, -15315.338, 0.0, 10.0, 9.981333 
7.25e+2, 1.6493228e+2, -1348685.5, -1371952.4, 0.001791618, 0.000000063943396, 0.0000473478, -1348685.5, -25021.832, 0.0, 10.0, 9.969248 
7.25e+2, 1.7490156e+2, -1250727.5, -1274310.1, 0.00079261814, 0.00000006291396, -0.00007382403, -1250727.5, -24762.81, 0.0, 10.0, 9.968835 
7.25e+2, 1.8486421e+2, -1162646.5, -1195720.1, 0.0023886673, 0.00000006104769, 0.00006615247, -1162646.5, -34315.863, 0.0, 10.0, 9.956395 
7.25e+2, 1.9482064e+2, -1064496.8, -1097833.0, 0.0012280149, 0.000000058305634, -0.000057648635, -1064496.8, -33739.2, 0.0, 10.0, 9.956052 
7.25e+2, 2.0477042e+2, -976332.8, -1019435.0, 0.0017708527, 0.00000005874373, 0.00006808435, -976332.8, -43082.945, 0.0, 10.0, 9.943291 
7.25e+2, 2.1471375e+2, -878045.8, -921409.9, 0.00189018, 0.00000006262601, -0.00012682477, -878045.8, -42240.535, 0.0, 10.0, 9.942949 
7.25e+2, 2.2465037e+2, -789759.7, -843144.9, 0.0028578504, 0.0000000633226, 0.00012088175, -789759.7, -51333.426, 0.0, 10.0, 9.929908 
7.25e+2, 2.3458035e+2, -691326.2, -744966.44, 0.00072066154, 0.00000006041198, -0.000088813176, -691326.2, -50213.656, 0.0, 10.0, 9.929577 
7.25e+2, 2.4450338e+2, -603002.1, -667018.75, 0.0017089252, 0.00000005879275, 0.00007471429, -603002.1, -59135.254, 0.0, 10.0, 9.916136 
7.25e+2, 2.5441962e+2, -504249.47, -568343.3, 0.0012751698, 0.000000058719777, -0.000106734056, -504249.47, -57561.918, 0.0, 10.0, 9.916036 
7.25e+2, 2.643288e+2, -416014.06, -490987.88, 0.0014219366, 0.000000059177452, 0.00014059528, -416014.06, -66436.39, 0.0, 10.0, 9.901964 
7.25e+2, 2.742313e+2, -316728.84, -391374.75, 0.0010134153, 0.000000060306725, -0.00020344312, -316728.84, -64195.836, 0.0, 10.0, 9.902385 
7.25e+2, 2.841256e+2, -230255.58, -318081.25, 0.0017655531, 0.00000006066467, 0.00022904699, -230255.58, -74686.61, 0.0, 10.0, 9.885439 
7.25e+2, 2.940121e+2, -130549.44, -217765.0, 0.00035251962, 0.00000005996393, -0.00025334134, -130549.44, -71868.05, 0.0, 10.0, 9.886217 
7.25e+2, 3.0392656e+2, -40805.43, -84750.16, 0.0008618266, 0.0000000597108, 0.0001731369, -40805.43, -40805.43, 0.0, 10.0, 9.942173 
7.25e+2, 3.138706e+2, -39727.42, -82511.21, 0.00021539426, 0.00000006013201, -0.00005514499, -39727.42, -39727.42, 0.0, 10.0, 9.943684 
7.35e+2, 1.2499334e+2, -1719946.0, -1724224.6, 0.00034454974, 0.000000065044574, 0.000017617309, -1719946.0, -4880.798, 0.0, 10.0, 9.994327 
7.35e+2, 1.349876e+2, -1622565.6, -1627434.9, 0.00027844845, 0.00000006526641, -0.0000684056, -1622565.6, -5444.012, 0.0, 10.0, 9.993545 
7.35e+2, 1.4497514e+2, -1534464.1, -1548146.3, 0.0011335803, 0.0000000653069, 0.00007093591, -1534464.1, -15220.5205, 0.0, 10.0, 9.981865 
7.35e+2, 1.5495703e+2, -1436736.5, -1450821.9, -0.00017565687, 0.00000006514274, -0.000056971217, -1436736.5, -15315.341, 0.0, 10.0, 9.981333 
7.35e+2, 1.6493228e+2, -1348685.5, -1371952.4, 0.0017858308, 0.000000064250116, 0.00004734815, -1348685.5, -25021.834, 0.0, 10.0, 9.969248 
7.35e+2, 1.7490156e+2, -1250727.5, -1274310.1, 0.0007908728, 0.00000006261363, -0.00007382268, -1250727.5, -24762.814, 0.0, 10.0, 9.968835 
7.35e+2, 1.8486421e+2, -1162646.5, -1195720.1, 0.002307083, 0.00000006231675, 0.00006615377, -1162646.5, -34315.867, 0.0, 10.0, 9.956395 
7.35e+2, 1.9482064e+2, -1064496.8, -1097833.0, 0.0011454979, 0.00000006342159, -0.000057648453, -1064496.8, -33739.2, 0.0, 10.0, 9.956052 
7.35e+2, 2.0477042e+2, -976332.8, -1019435.0, 0.000934762, 0.00000006376089, 0.00006808405, -976332.8, -43082.945, 0.0, 10.0, 9.943291 
7.35e+2, 2.1471375e+2, -878045.8, -921409.9, 0.0010385126, 0.00000006327101, -0.00012682486, -878045.8, -42240.535, 0.0, 10.0, 9.942949 
7.35e+2, 2.2465037e+2, -789759.7, -843144.9, 0.0034063288, 0.000000062277614, 0.000120881865, -789759.7, -51333.43, 0.0, 10.0, 9.929908 
7.35e+2, 2.3458035e+2, -691326.2, -744966.44, 0.0013149458, 0.00000006071456, -0.00008881288, -691326.2, -50213.66, 0.0, 10.0, 9.929577 
7.35e+2, 2.4450338e+2, -603002.1, -667018.8, 0.0012615116, 0.00000006073301, 0.00007471517, -603002.1, -59135.258, 0.0, 10.0, 9.916136 
7.35e+2, 2.5441962e+2, -504249.47, -568343.3, 0.00077769405, 0.00000006264105, -0.00010673212, -504249.47, -57561.918, 0.0, 10.0, 9.916036 
7.35e+2, 2.643288e+2, -416014.06, -490987.88, 0.0013667189, 0.00000006322899, 0.0001405967, -416014.06, -66436.39, 0.0, 10.0, 9.901964 
7.35e+2, 2.742313e+2, -316728.84, -391374.78, 0.0009878488, 0.0000000621325, -0.00020344424, -316728.84, -64195.84, 0.0, 10.0, 9.902385 
7.35e+2, 2.841256e+2, -230255.58, -318081.25, 0.0019295342, 0.00000006123437, 0.00022904456, -230255.58, -74686.61, 0.0, 10.0, 9.885439 
7.35e+2, 2.940121e+2, -130549.445, -217765.0, 0.00053358654, 0.00000006061548, -0.00025334343, -130549.445, -71868.055, 0.0, 10.0, 9.886217 
7.35e+2, 3.0392656e+2, -40805.43, -84750.16, 0.00049810536, 0.000000061044254, 0.00017313605, -40805.43, -40805.43, 0.0, 10.0, 9.942173 
7.35e+2, 3.138706e+2, -39727.42, -82511.21, -0.0002122756, 0.00000006302594, -0.000055143322, -39727.42, -39727.42, 0.0, 10.0, 9.943684 
7.45e+2, 1.2499334e+2, -1719946.0, -1724224.6, 0.0020505758, 0.00000006671523, 0.000017616903, -1719946.0, -4880.782, 0.0, 10.0, 9.994327 
7.45e+2, 1.349876e+2, -1622565.5, -1627434.9, 0.0007355892, 0.000000068254145, -0.00006840598, -1622565.5, -5443.9995, 0.0, 10.0, 9.993545 
7.45e+2, 1.4497514e+2, -1534464.1, -1548146.3, 0.00174487, 0.00000006816774, 0.000070936905, -1534464.1, -15220.508, 0.0, 10.0, 9.981865 
7.45e+2, 1.5495703e+2, -1436736.5, -1450821.9, 0.0007324472, 0.000000066422075, -0.000056971112, -1436736.5, -15315.323, 0.0, 10.0, 9.981333 
7.45e+2, 1.6493228e+2, -1348685.5, -1371952.4, 0.0026692704, 0.00000006492855, 0.000047348192, -1348685.5, -25021.816, 0.0, 10.0, 9.969248 
7.45e+2, 1.7490156e+2, -1250727.5, -1274310.1, 0.0012453524, 0.0000000636924, -0.000073821844, -1250727.5, -24762.797, 0.0, 10.0, 9.968835 
7.45e+2, 1.8486421e+2, -1162646.5, -1195720.1, 0.0024064786, 0.00000006445537, 0.00006615422, -1162646.5, -34315.85, 0.0, 10.0, 9.956395 
7.45e+2, 1.9482064e+2, -1064496.8, -1097833.0, 0.002108656, 0.00000006731023, -0.000057649628, -1064496.8, -33739.19, 0.0, 10.0, 9.956052 
7.45e+2, 2.0477042e+2, -976332.8, -1019435.0, 0.002381364, 0.00000006720118, 0.00006808327, -976332.8, -43082.934, 0.0, 10.0, 9.943291 
7.45e+2, 2.1471375e+2, -878045.8, -921409.9, 0.0006075397, 0.00000006388199, -0.00012682308, -878045.8, -42240.516, 0.0, 10.0, 9.942949 
7.45e+2, 2.2465037e+2, -789759.7, -843144.9, 0.0024728817, 0.000000062261634, 0.00012088384, -789759.7, -51333.41, 0.0, 10.0, 9.929908 
7.45e+2, 2.3458035e+2, -691326.2, -744966.44, 0.0020795409, 0.000000062565356, -0.00008881338, -691326.2, -50213.65, 0.0, 10.0, 9.929577 
7.45e+2, 2.4450338e+2, -603002.1, -667018.75, 0.0023079014, 0.00000006354324, 0.00007471377, -603002.1, -59135.246, 0.0, 10.0, 9.916136 
7.45e+2, 2.5441962e+2, -504249.47, -568343.3, 0.001201471, 0.00000006532433, -0.00010673253, -504249.47, -57561.906, 0.0, 10.0, 9.916036 
7.45e+2, 2.643288e+2, -416014.06, -490987.88, 0.0018224611, 0.000000065553444, 0.00014059701, -416014.06, -66436.375, 0.0, 10.0, 9.901964 
7.45e+2, 2.742313e+2, -316728.8, -391374.75, 0.00081842643, 0.00000006380564, -0.00020344355, -316728.8, -64195.824, 0.0, 10.0, 9.902385 
7.45e+2, 2.841256e+2, -230255.56, -318081.25, 0.0015958381, 0.00000006272158, 0.00022904505, -230255.56, -74686.59, 0.0, 10.0, 9.885439 
7.45e+2, 2.940121e+2, -130549.43, -217765.0, 0.0010441953, 0.00000006255496, -0.0002533439, -130549.43, -71868.04, 0.0, 10.0, 9.886217 
7.45e+2, 3.0392656e+2, -40805.418, -84750.16, 0.0009000329, 0.000000063040325, 0.00017313544, -40805.418, -40805.418, 0.0, 10.0, 9.942173 
7.45e+2, 3.138706e+2, -39727.406, -82511.21, -0.00080668274, 0.00000006448529, -0.000055142813, -39727.406, -39727.406, 0.0, 10.0, 9.943684 
7.55e+2, 1.2499334e+2, -1719946.0, -1724224.6, 0.00089512335, 0.00000006926222, 0.000017615104, -1719946.0, -4880.786, 0.0, 10.0, 9.994327 
7.55e+2, 1.349876e+2, -1622565.5, -1627434.9, -0.00042009007, 0.00000007064354, -0.000068404406, -1622565.5, -5444.0034, 0.0, 10.0, 9.993545 
7.55e+2, 1.4497514e+2, -1534464.1, -1548146.3, 0.0021014784, 0.000000069991984, 0.00007094063, -1534464.1, -15220.511, 0.0, 10.0, 9.981865 
7.55e+2, 1.5495703e+2, -1436736.5, -1450821.9, 0.0010914344, 0.000000067269305, -0.000056970228, -1436736.5, -15315.326, 0.0, 10.0, 9.981333 
7.55e+2, 1.6493228e+2, -1348685.5, -1371952.4, 0.0023306003, 0.000000065978696, 0.000047347934, -1348685.5, -25021.82, 0.0, 10.0, 9.969248 
7.55e+2, 1.7490156e+2, -1250727.5, -1274310.1, 0.0009029867, 0.000000066150264, -0.00007382152, -1250727.5, -24762.8, 0.0, 10.0, 9.968835 
7.55e+2, 1.8486421e+2, -1162646.5, -1195720.1, 0.0010202961, 0.00000006746355, 0.00006615381, -1162646.5, -34315.855, 0.0, 10.0, 9.956395 
7.55e+2, 1.9482064e+2, -1064496.8, -1097833.0, 0.00071037223, 0.000000069971584, -0.00005765216, -1064496.8, -33739.19, 0.0, 10.0, 9.956052 
7.55e+2, 2.0477042e+2, -976332.8, -1019435.0, 0.0036087604, 0.00000006906459, 0.00006808199, -976332.8, -43082.938, 0.0, 10.0, 9.943291 
7.55e+2, 2.1471375e+2, -878045.8, -921409.9, 0.0018891632, 0.000000064458945, -0.00012681945, -878045.8, -42240.52, 0.0, 10.0, 9.942949 
7.55e+2, 2.2465037e+2, -789759.7, -843144.9, 0.0017710691, 0.00000006327465, 0.00012088767, -789759.7, -51333.41, 0.0, 10.0, 9.929908 
7.55e+2, 2.3458035e+2, -691326.2, -744966.44, 0.001312835, 0.00000006596435, -0.00008881469, -691326.2, -50213.65, 0.0, 10.0, 9.929577 
7.55e+2, 2.4450338e+2, -603002.1, -667018.8, 0.0018269402, 0.00000006722344, 0.00007471008, -603002.1, -59135.246, 0.0, 10.0, 9.916136 
7.55e+2, 2.5441962e+2, -504249.47, -568343.3, 0.00073423877, 0.0000000667696, -0.00010673529, -504249.47, -57561.906, 0.0, 10.0, 9.916036 
7.55e+2, 2.643288e+2, -416014.06, -490987.88, 0.0022427123, 0.00000006615081, 0.00014059622, -416014.06, -66436.38, 0.0, 10.0, 9.901964 
7.55e+2, 2.742313e+2, -316728.8, -391374.78, 0.0012981837, 0.000000065326155, -0.00020344103, -316728.8, -64195.824, 0.0, 10.0, 9.902385 
7.55e+2, 2.841256e+2, -230255.56, -318081.25, 0.0016135159, 0.00000006512631, 0.0002290485, -230255.56, -74686.6, 0.0, 10.0, 9.885439 
7.55e+2, 2.940121e+2, -130549.43, -217765.0, 0.0010202433, 0.000000065782395, -0.00025334276, -130549.43, -71868.04, 0.0, 10.0, 9.886217 
7.55e+2, 3.0392656e+2, -40805.418, -84750.164, 0.0009756038, 0.00000006569901, 0.00017313506, -40805.418, -40805.418, 0.0, 10.0, 9.942173 
7.55e+2, 3.138706e+2, -39727.41, -82511.22, -0.00071941834, 0.00000006451008, -0.000055143457, -39727.41, -39727.41, 0.0, 10.0, 9.943684 
7.65e+2, 1.2499334e+2, -1719946.0, -1724224.6, 0.00021511204, 0.000000072809726, 0.000017616407, -1719946.0, -4880.773, 0.0, 10.0, 9.994327 
7.65e+2, 1.349876e+2, -1622565.5, -1627434.9, -0.0009953986, 0.00000007177982, -0.000068403664, -1622565.5, -5443.984, 0.0, 10.0, 9.993545 
7.65e+2, 1.4497514e+2, -1534464.1, -1548146.3, 0.0017512541, 0.000000070565896, 0.000070942704, -1534464.1, -15220.49, 0.0, 10.0, 9.981865 
7.65e+2, 1.5495703e+2, -1436736.5, -1450821.9, 0.000604546, 0.00000006913918, -0.000056968813, -1436736.5, -15315.311, 0.0, 10.0, 9.981333 
7.65e+2, 1.6493228e+2, -1348685.5, -1371952.4, 0.0019859464, 0.00000006895742, 0.000047348356, -1348685.5, -25021.807, 0.0, 10.0, 9.969248 
7.65e+2, 1.7490156e+2, -1250727.5, -1274310.1, 0.0019259616, 0.000000070046866, -0.000073822426, -1250727.5, -24762.79, 0.0, 10.0, 9.968835 
7.65e+2, 1.8486421e+2, -1162646.5, -1195720.1, 0.0024520408, 0.00000007040125, 0.00006615298, -1162646.5, -34315.84, 0.0, 10.0, 9.956395 
7.65e+2, 1.9482064e+2, -1064496.8, -1097833.0, 0.0007319096, 0.00000006998644, -0.00005765144, -1064496.8, -33739.168, 0.0, 10.0, 9.956052 
7.65e+2, 2.0477042e+2, -976332.8, -1019435.0, 0.0034301956, 0.00000006892634, 0.00006808322, -976332.8, -43082.918, 0.0, 10.0, 9.943291 
7.65e+2, 2.1471375e+2, -878045.8, -921409.9, 0.0021436687, 0.000000067167385, -0.0001268188, -878045.8, -42240.508, 0.0, 10.0, 9.942949 
7.65e+2, 2.2465037e+2, -789759.7, -843144.9, 0.0018788411, 0.000000067136625, 0.00012088779, -789759.7, -51333.402, 0.0, 10.0, 9.929908 
7.65e+2, 2.3458035e+2, -691326.2, -744966.44, 0.001753578, 0.000000069062246, -0.000088815, -691326.2, -50213.637, 0.0, 10.0, 9.929577 
7.65e+2, 2.4450338e+2, -603002.1, -667018.75, 0.0029177747, 0.000000069366614, 0.00007470957, -603002.1, -59135.23, 0.0, 10.0, 9.916136 
7.65e+2, 2.5441962e+2, -504249.44, -568343.3, 0.0016776561, 0.00000006773237, -0.00010673574, -504249.44, -57561.887, 0.0, 10.0, 9.916036 
7.65e+2, 2.643288e+2, -416014.03, -490987.88, 0.002631282, 0.00000006694384, 0.00014059605, -416014.03, -66436.36, 0.0, 10.0, 9.901964 
7.65e+2, 2.742313e+2, -316728.8, -391374.75, 0.0008825104, 0.0000000672361, -0.00020344071, -316728.8, -64195.81, 0.0, 10.0, 9.902385 
7.65e+2, 2.841256e+2, -230255.55, -318081.25, 0.0005965811, 0.0000000676695, 0.00022904933, -230255.55, -74686.586, 0.0, 10.0, 9.885439 
7.65e+2, 2.940121e+2, -130549.414, -217765.0, -0.0002803, 0.00000006829093, -0.00025334142, -130549.414, -71868.02, 0.0, 10.0, 9.886217 
7.65e+2, 3.0392656e+2, -40805.406, -84750.16, 0.00042827107, 0.00000006800159, 0.00017313576, -40805.406, -40805.406, 0.0, 10.0, 9.942173 
7.65e+2, 3.138706e+2, -39727.39, -82511.21, 0.00032367551, 0.00000006635844, -0.00005514509, -39727.39, -39727.39, 0.0, 10.0, 9.943684 
7.75e+2, 1.2499334e+2, -1719946.0, -1724224.6, 0.0005492862, 0.00000007735774, 0.000017620812, -1719946.0, -4880.7764, 0.0, 10.0, 9.994327 
7.75e+2, 1.349876e+2, -1622565.5, -1627434.9, -0.0006610921, 0.000000071663, -0.000068403744, -1622565.5, -5443.9873, 0.0, 10.0, 9.993545 
7.75e+2, 1.4497514e+2, -1534464.1, -1548146.3, 0.0010554234, 0.00000006988949, 0.000070943126, -1534464.1, -15220.493, 0.0, 10.0, 9.981865 
7.75e+2, 1.5495703e+2, -1436736.5, -1450821.9, -0.00009293524, 0.0000000720317, -0.000056966863, -1436736.5, -15315.313, 0.0, 10.0, 9.981333 
7.75e+2, 1.6493228e+2, -1348685.5, -1371952.4, 0.0010552701, 0.00000007386471, 0.000047349466, -1348685.5, -25021.807, 0.0, 10.0, 9.969248 
7.75e+2, 1.7490156e+2, -1250727.5, -1274310.1, 0.0009940354, 0.0000000753822, -0.00007382458, -1250727.5, -24762.791, 0.0, 10.0, 9.968835 
7.75e+2, 1.8486421e+2, -1162646.5, -1195720.1, 0.0033512125, 0.00000007326845, 0.00006615171, -1162646.5, -34315.844, 0.0, 10.0, 9.956395 
7.75e+2, 1.9482064e+2, -1064496.8, -1097833.0, 0.0016522725, 0.000000067354826, -0.000057647467, -1064496.8, -33739.17, 0.0, 10.0, 9.956052 
7.75e+2, 2.0477042e+2, -976332.8, -1019435.0, 0.002389265, 0.00000006678645, 0.000068086985, -976332.8, -43082.92, 0.0, 10.0, 9.943291 
7.75e+2, 2.1471375e+2, -878045.8, -921409.9, 0.0010622226, 0.00000007200731, -0.00012682116, -878045.8, -42240.508, 0.0, 10.0, 9.942949 
7.75e+2, 2.2465037e+2, -789759.7, -843144.9, 0.0017035524, 0.000000073847566, 0.00012088419, -789759.7, -51333.402, 0.0, 10.0, 9.929908 
7.75e+2, 2.3458035e+2, -691326.2, -744966.44, 0.001607925, 0.00000007185904, -0.00008881432, -691326.2, -50213.637, 0.0, 10.0, 9.929577 
7.75e+2, 2.4450338e+2, -603002.1, -667018.8, 0.0035569149, 0.00000006997277, 0.00007471223, -603002.1, -59135.234, 0.0, 10.0, 9.916136 
7.75e+2, 2.5441962e+2, -504249.44, -568343.3, 0.0023545115, 0.00000006821263, -0.000106733845, -504249.44, -57561.89, 0.0, 10.0, 9.916036 
7.75e+2, 2.643288e+2, -416014.03, -490987.88, 0.0022025919, 0.00000006793252, 0.00014059649, -416014.03, -66436.36, 0.0, 10.0, 9.901964 
7.75e+2, 2.742313e+2, -316728.8, -391374.78, 0.00037970237, 0.00000006953549, -0.00020344257, -316728.8, -64195.813, 0.0, 10.0, 9.902385 
7.75e+2, 2.841256e+2, -230255.55, -318081.25, 0.0005196723, 0.00000007035114, 0.00022904752, -230255.55, -74686.586, 0.0, 10.0, 9.885439 
7.75e+2, 2.940121e+2, -130549.414, -217765.0, -0.0003188261, 0.000000070080574, -0.0002533399, -130549.414, -71868.02, 0.0, 10.0, 9.886217 
7.75e+2, 3.0392656e+2, -40805.406, -84750.16, 0.00084513327, 0.000000069948065, 0.0001731375, -40805.406, -40805.406, 0.0, 10.0, 9.942173 
7.75e+2, 3.138706e+2, -39727.39, -82511.21, 0.0007940115, 0.00000007003034, -0.000055147713, -39727.39, -39727.39, 0.0, 10.0, 9.943684 
7.85e+2, 1.2499334e+2, -1719946.0, -1724224.6, 0.0014591967, 0.000000078738516, 0.000017621474, -1719946.0, -4880.757, 0.0, 10.0, 9.994327 
7.85e+2, 1.349876e+2, -1622565.5, -1627434.9, 0.00050527905, 0.0000000738633, -0.00006840381, -1622565.5, -5443.9707, 0.0, 10.0, 9.993545 
7.85e+2, 1.4497514e+2, -1534464.1, -1548146.3, 0.0018082728, 0.00000007279209, 0.0000709439, -1534464.1, -15220.479, 0.0, 10.0, 9.981865 
7.85e+2, 1.5495703e+2, -1436736.5, -1450821.9, 0.001265923, 0.000000075516674, -0.00005696785, -1436736.5, -15315.3, 0.0, 10.0, 9.981333 
7.85e+2, 1.6493228e+2, -1348685.5, -1371952.4, 0.0023807439, 0.0000000768388, 0.000047348592, -1348685.5, -25021.791, 0.0, 10.0, 9.969248 
7.85e+2, 1.7490156e+2, -1250727.5, -1274310.1, 0.00057228905, 0.00000007672907, -0.00007382343, -1250727.5, -24762.77, 0.0, 10.0, 9.968835 
7.85e+2, 1.8486421e+2, -1162646.5, -1195720.1, 0.0030266268, 0.000000074359235, 0.000066153654, -1162646.5, -34315.824, 0.0, 10.0, 9.956395 
7.85e+2, 1.9482064e+2, -1064496.8, -1097833.0, 0.001808017, 0.000000069624264, -0.000057646026, -1064496.8, -33739.156, 0.0, 10.0, 9.956052 
7.85e+2, 2.0477042e+2, -976332.8, -1019435.0, 0.0021491905, 0.000000069642546, 0.00006808713, -976332.8, -43082.906, 0.0, 10.0, 9.943291 
7.85e+2, 2.1471375e+2, -878045.75, -921409.9, 0.0023359645, 0.00000007480883, -0.00012682319, -878045.75, -42240.492, 0.0, 10.0, 9.942949 
7.85e+2, 2.2465037e+2, -789759.7, -843144.9, 0.0036785381, 0.000000076216956, 0.000120882425, -789759.7, -51333.387, 0.0, 10.0, 9.929908 
7.85e+2, 2.3458035e+2, -691326.1, -744966.44, 0.0010229594, 0.000000073369186, -0.00008881312, -691326.1, -50213.617, 0.0, 10.0, 9.929577 
7.85e+2, 2.4450338e+2, -603002.1, -667018.75, 0.00183388, 0.000000071447104, 0.000074714684, -603002.1, -59135.215, 0.0, 10.0, 9.916136 
7.85e+2, 2.5441962e+2, -504249.44, -568343.3, 0.0010688828, 0.00000007063515, -0.00010673219, -504249.44, -57561.875, 0.0, 10.0, 9.916036 
7.85e+2, 2.643288e+2, -416014.03, -490987.88, 0.0015861597, 0.00000007071082, 0.00014059697, -416014.03, -66436.35, 0.0, 10.0, 9.901964 
7.85e+2, 2.742313e+2, -316728.78, -391374.75, 0.0016978197, 0.00000007191333, -0.00020344375, -316728.78, -64195.797, 0.0, 10.0, 9.902385 
7.85e+2, 2.841256e+2, -230255.53, -318081.25, 0.0028497914, 0.000000072349614, 0.00022904563, -230255.53, -74686.57, 0.0, 10.0, 9.885439 
7.85e+2, 2.940121e+2, -130549.4, -217765.0, 0.0011688194, 0.00000007173207, -0.00025334122, -130549.4, -71868.01, 0.0, 10.0, 9.886217 
7.85e+2, 3.0392656e+2, -40805.387, -84750.16, 0.0013653463, 0.000000071821944, 0.00017313706, -40805.387, -40805.387, 0.0, 10.0, 9.942173 
7.85e+2, 3.138706e+2, -39727.38, -82511.21, 0.00018233022, 0.00000007297158, -0.000055146913, -39727.38, -39727.38, 0.0, 10.0, 9.943684 
7.95e+2, 1.2499334e+2, -1719946.0, -1724224.6, 0.0011090783, 0.000000076952055, 0.000017618393, -1719946.0, -4880.76, 0.0, 10.0, 9.994327 
7.95e+2, 1.349876e+2, -1622565.5, -1627434.9, 0.0001550852, 0.0000000783807, -0.00006840384, -1622565.5, -5443.9736, 0.0, 10.0, 9.993545 
7.95e+2, 1.4497514e+2, -1534464.1, -1548146.3, 0.00079278986, 0.0000000792737, 0.00007094501, -1534464.1, -15220.48, 0.0, 10.0, 9.981865 
7.95e+2, 1.5495703e+2, -1436736.5, -1450821.9, 0.00024935862, 0.000000079594095, -0.00005697177, -1436736.5, -15315.302, 0.0, 10.0, 9.981333 
7.95e+2, 1.6493228e+2, -1348685.5, -1371952.4, 0.0026364974, 0.00000007787969, 0.00004734574, -1348685.5, -25021.797, 0.0, 10.0, 9.969248 
7.95e+2, 1.7490156e+2, -1250727.5, -1274310.1, 0.00083473924, 0.000000074087495, -0.00007381897, -1250727.5, -24762.775, 0.0, 10.0, 9.968835 
7.95e+2, 1.8486421e+2, -1162646.5, -1195720.1, 0.002986119, 0.00000007367361, 0.000066158806, -1162646.5, -34315.83, 0.0, 10.0, 9.956395 
7.95e+2, 1.9482064e+2, -1064496.8, -1097833.0, 0.0017639911, 0.00000007679474, -0.00005764712, -1064496.8, -33739.16, 0.0, 10.0, 9.956052 
7.95e+2, 2.0477042e+2, -976332.8, -1019435.0, 0.0013038446, 0.000000077494626, 0.00006808365, -976332.8, -43082.906, 0.0, 10.0, 9.943291 
7.95e+2, 2.1471375e+2, -878045.75, -921409.9, 0.0014740503, 0.00000007557197, -0.00012682485, -878045.75, -42240.492, 0.0, 10.0, 9.942949 
7.95e+2, 2.2465037e+2, -789759.7, -843144.9, 0.0040939706, 0.0000000742448, 0.0001208825, -789759.7, -51333.39, 0.0, 10.0, 9.929908 
7.95e+2, 2.3458035e+2, -691326.2, -744966.44, 0.0014801809, 0.00000007359267, -0.000088811394, -691326.2, -50213.62, 0.0, 10.0, 9.929577 
7.95e+2, 2.4450338e+2, -603002.1, -667018.8, 0.0016747023, 0.000000073789614, 0.00007471694, -603002.1, -59135.22, 0.0, 10.0, 9.916136 
7.95e+2, 2.5441962e+2, -504249.44, -568343.3, 0.00088008266, 0.00000007499995, -0.00010673076, -504249.44, -57561.88, 0.0, 10.0, 9.916036 
7.95e+2, 2.643288e+2, -416014.03, -490987.88, 0.0016315217, 0.000000075278734, 0.00014059749, -416014.03, -66436.35, 0.0, 10.0, 9.901964 
7.95e+2, 2.742313e+2, -316728.78, -391374.75, 0.0017588827, 0.000000074369616, -0.00020344426, -316728.78, -64195.797, 0.0, 10.0, 9.902385 
7.95e+2, 2.841256e+2, -230255.53, -318081.25, 0.0029469875, 0.00000007366492, 0.00022904365, -230255.53, -74686.57, 0.0, 10.0, 9.885439 
7.95e+2, 2.940121e+2, -130549.41, -217765.0, 0.001269283, 0.000000073245424, -0.00025334532, -130549.41, -71868.01, 0.0, 10.0, 9.886217 
7.95e+2, 3.0392656e+2, -40805.39, -84750.16, 0.001053605, 0.00000007362323, 0.00017313444, -40805.39, -40805.39, 0.0, 10.0, 9.942173 
7.95e+2, 3.138706e+2, -39727.38, -82511.21, -0.00017778791, 0.00000007518217, -0.000055142697, -39727.38, -39727.38, 0.0, 10.0, 9.943684 
8.05e+2, 1.2499334e+2, -1719946.0, -1724224.6, 0.0029696128, 0.00000007812573, 0.00001761852, -1719946.0, -4880.7383, 0.0, 10.0, 9.994327 
8.05e+2, 1.349876e+2, -1622565.5, -1627434.9, 0.0013387877, 0.00000008211443, -0.00006840554, -1622565.5, -5443.9595, 0.0, 10.0, 9.993545 
8.05e+2, 1.4497514e+2, -1534464.1, -1548146.3, 0.0022134967, 0.00000008322613, 0.000070944945, -1534464.1, -15220.466, 0.0, 10.0, 9.981865 
8.05e+2, 1.5495703e+2, -1436736.4, -1450821.9, 0.00080999115, 0.00000008140731, -0.00005697112, -1436736.4, -15315.281, 0.0, 10.0, 9.981333 
8.05e+2, 1.6493228e+2, -1348685.5, -1371952.4, 0.003162974, 0.00000007866111, 0.000047346795, -1348685.5, -25021.775, 0.0, 10.0, 9.969248 
8.05e+2, 1.7490156e+2, -1250727.5, -1274310.1, 0.0012945373, 0.00000007496783, -0.000073817835, -1250727.5, -24762.754, 0.0, 10.0, 9.968834 
8.05e+2, 1.8486421e+2, -1162646.5, -1195720.1, 0.0027829544, 0.00000007584623, 0.00006615906, -1162646.5, -34315.81, 0.0, 10.0, 9.956395 
8.05e+2, 1.9482064e+2, -1064496.8, -1097833.0, 0.0028421485, 0.00000008150845, -0.000057648747, -1064496.8, -33739.15, 0.0, 10.0, 9.956052 
8.05e+2, 2.0477042e+2, -976332.8, -1019435.0, 0.003321545, 0.00000008196951, 0.00006808251, -976332.8, -43082.895, 0.0, 10.0, 9.943291 
8.05e+2, 2.1471375e+2, -878045.75, -921409.9, 0.0010210194, 0.00000007679721, -0.00012682297, -878045.75, -42240.473, 0.0, 10.0, 9.942949 
8.05e+2, 2.2465037e+2, -789759.6, -843144.9, 0.0028764836, 0.000000074424584, 0.00012088477, -789759.6, -51333.367, 0.0, 10.0, 9.929908 
8.05e+2, 2.3458035e+2, -691326.1, -744966.44, 0.0023921584, 0.00000007522305, -0.000088811736, -691326.1, -50213.6, 0.0, 10.0, 9.929577 
8.05e+2, 2.4450338e+2, -603002.06, -667018.75, 0.0031839143, 0.000000076415986, 0.000074715346, -603002.06, -59135.2, 0.0, 10.0, 9.916136 
8.05e+2, 2.5441962e+2, -504249.4, -568343.3, 0.0019911134, 0.00000007807669, -0.00010673197, -504249.4, -57561.863, 0.0, 10.0, 9.916036 
8.05e+2, 2.643288e+2, -416014.0, -490987.88, 0.002379725, 0.00000007831272, 0.00014059721, -416014.0, -66436.336, 0.0, 10.0, 9.901964 
8.05e+2, 2.742313e+2, -316728.78, -391374.75, 0.00066542457, 0.00000007673467, -0.00020344288, -316728.78, -64195.777, 0.0, 10.0, 9.902385 
8.05e+2, 2.841256e+2, -230255.52, -318081.25, 0.0012423542, 0.00000007576879, 0.00022904521, -230255.52, -74686.555, 0.0, 10.0, 9.885439 
8.05e+2, 2.940121e+2, -130549.38, -217765.0, 0.0009358634, 0.00000007564903, -0.0002533456, -130549.38, -71867.99, 0.0, 10.0, 9.886217 
8.05e+2, 3.0392656e+2, -40805.37, -84750.16, 0.0010356491, 0.00000007585608, 0.00017313371, -40805.37, -40805.37, 0.0, 10.0, 9.942173 
8.05e+2, 3.138706e+2, -39727.36, -82511.21, -0.0011872663, 0.000000076540864, -0.000055141794, -39727.36, -39727.36, 0.0, 10.0, 9.943684 
8.15e+2, 1.2499334e+2, -1719946.0, -1724224.6, 0.00086065, 0.000000082259525, 0.000017621855, -1719946.0, -4880.7427, 0.0, 10.0, 9.994327 
8.15e+2, 1.349876e+2, -1622565.5, -1627434.9, -0.00077064533, 0.00000008506449, -0.0000684089, -1622565.5, -5443.964, 0.0, 10.0, 9.993545 
8.15e+2, 1.4497514e+2, -1534464.1, -1548146.3, 0.002771779, 0.00000008464941, 0.00007094371, -1534464.1, -15220.47, 0.0, 10.0, 9.981865 
8.15e+2, 1.5495703e+2, -1436736.4, -1450821.9, 0.001372474, 0.0000000809563, -0.000056965895, -1436736.4, -15315.285, 0.0, 10.0, 9.981333 
8.15e+2, 1.6493228e+2, -1348685.5, -1371952.4, 0.0033221198, 0.00000007918307, 0.000047351747, -1348685.5, -25021.78, 0.0, 10.0, 9.969248 
8.15e+2, 1.7490156e+2, -1250727.5, -1274310.1, 0.0014515369, 0.00000007937006, -0.000073820025, -1250727.5, -24762.758, 0.0, 10.0, 9.968834 
8.15e+2, 1.8486421e+2, -1162646.5, -1195720.1, 0.00072008756, 0.00000008087708, 0.00006615443, -1162646.5, -34315.81, 0.0, 10.0, 9.956395 
8.15e+2, 1.9482064e+2, -1064496.8, -1097833.0, 0.0007535532, 0.000000083765414, -0.0000576509, -1064496.8, -33739.15, 0.0, 10.0, 9.956052 
8.15e+2, 2.0477042e+2, -976332.8, -1019435.0, 0.004952422, 0.000000083067206, 0.00006808368, -976332.8, -43082.9, 0.0, 10.0, 9.943291 
8.15e+2, 2.1471375e+2, -878045.75, -921409.9, 0.002728715, 0.00000007848456, -0.00012681753, -878045.75, -42240.477, 0.0, 10.0, 9.942949 
8.15e+2, 2.2465037e+2, -789759.6, -843144.9, 0.0024348577, 0.00000007675628, 0.000120889235, -789759.6, -51333.37, 0.0, 10.0, 9.929908 
8.15e+2, 2.3458035e+2, -691326.1, -744966.44, 0.0018802102, 0.000000078260314, -0.00008881414, -691326.1, -50213.605, 0.0, 10.0, 9.929577 
8.15e+2, 2.4450338e+2, -603002.06, -667018.8, 0.0024805286, 0.00000007932623, 0.00007470991, -603002.06, -59135.203, 0.0, 10.0, 9.916136 
8.15e+2, 2.5441962e+2, -504249.4, -568343.3, 0.0012785263, 0.000000079865366, -0.00010673583, -504249.4, -57561.863, 0.0, 10.0, 9.916036 
8.15e+2, 2.643288e+2, -416014.0, -490987.88, 0.0027875216, 0.00000007981279, 0.00014059614, -416014.0, -66436.336, 0.0, 10.0, 9.901964 
8.15e+2, 2.742313e+2, -316728.78, -391374.75, 0.0011483456, 0.00000007900849, -0.00020343962, -316728.78, -64195.78, 0.0, 10.0, 9.902385 
8.15e+2, 2.841256e+2, -230255.52, -318081.25, 0.0015025563, 0.00000007866122, 0.00022905032, -230255.52, -74686.555, 0.0, 10.0, 9.885439 
8.15e+2, 2.940121e+2, -130549.38, -217765.0, 0.0011760079, 0.000000078942875, -0.00025334206, -130549.38, -71867.99, 0.0, 10.0, 9.886217 
8.15e+2, 3.0392656e+2, -40805.375, -84750.164, 0.0014509653, 0.0000000785205, 0.00017313487, -40805.375, -40805.375, 0.0, 10.0, 9.942173 
8.15e+2, 3.138706e+2, -39727.363, -82511.22, -0.00075136655, 0.00000007704766, -0.00005514421, -39727.363, -39727.363, 0.0, 10.0, 9.943684 
8.25e+2, 1.2499334e+2, -1719946.0, -1724224.6, -0.001014728, 0.000000088032394, 0.000017624336, -1719946.0, -4880.7334, 0.0, 10.0, 9.994327 
8.25e+2, 1.349876e+2, -1622565.5, -1627434.9, -0.0011205658, 0.00000008633076, -0.000068408786, -1622565.5, -5443.9395, 0.0, 10.0, 9.993545 
8.25e+2, 1.4497514e+2, -1534464.1, -1548146.3, 0.0028526825, 0.00000008438445, 0.00007094534, -1534464.1, -15220.443, 0.0, 10.0, 9.981865 
8.25e+2, 1.5495703e+2, -1436736.4, -1450821.9, 0.00022891424, 0.00000008215131, -0.00005696353, -1436736.4, -15315.264, 0.0, 10.0, 9.981333 
8.25e+2, 1.6493228e+2, -1348685.5, -1371952.4, 0.002211869, 0.000000082336385, 0.000047352987, -1348685.5, -25021.762, 0.0, 10.0, 9.969248 
8.25e+2, 1.7490156e+2, -1250727.4, -1274310.1, 0.003134712, 0.000000084990695, -0.00007382182, -1250727.4, -24762.748, 0.0, 10.0, 9.968834 
8.25e+2, 1.8486421e+2, -1162646.5, -1195720.1, 0.0031086358, 0.000000085400224, 0.00006615262, -1162646.5, -34315.797, 0.0, 10.0, 9.956395 
8.25e+2, 1.9482064e+2, -1064496.8, -1097833.0, 0.00022130889, 0.000000083460776, -0.000057649566, -1064496.8, -33739.12, 0.0, 10.0, 9.956052 
8.25e+2, 2.0477042e+2, -976332.75, -1019435.0, 0.0035324853, 0.000000082118234, 0.000068085996, -976332.75, -43082.87, 0.0, 10.0, 9.943291 
8.25e+2, 2.1471375e+2, -878045.75, -921409.9, 0.0022908472, 0.00000008142229, -0.00012681658, -878045.75, -42240.46, 0.0, 10.0, 9.942949 
8.25e+2, 2.2465037e+2, -789759.6, -843144.9, 0.0023007533, 0.000000081402874, 0.00012088935, -789759.6, -51333.355, 0.0, 10.0, 9.929908 
8.25e+2, 2.3458035e+2, -691326.1, -744966.44, 0.0020494813, 0.00000008214891, -0.000088814246, -691326.1, -50213.59, 0.0, 10.0, 9.929577 
8.25e+2, 2.4450338e+2, -603002.06, -667018.75, 0.0031413662, 0.000000082123286, 0.00007470966, -603002.06, -59135.188, 0.0, 10.0, 9.916136 
8.25e+2, 2.5441962e+2, -504249.4, -568343.3, 0.0018421884, 0.00000008117511, -0.00010673614, -504249.4, -57561.84, 0.0, 10.0, 9.916036 
8.25e+2, 2.643288e+2, -416014.0, -490987.88, 0.0031141043, 0.00000008078445, 0.00014059582, -416014.0, -66436.31, 0.0, 10.0, 9.901964 
8.25e+2, 2.742313e+2, -316728.75, -391374.75, 0.0012124648, 0.00000008110543, -0.0002034399, -316728.75, -64195.76, 0.0, 10.0, 9.902385 
8.25e+2, 2.841256e+2, -230255.5, -318081.22, 0.00097362115, 0.000000081370516, 0.00022905077, -230255.5, -74686.54, 0.0, 10.0, 9.885439 
8.25e+2, 2.940121e+2, -130549.37, -217765.0, -0.00060973025, 0.000000081555754, -0.0002533399, -130549.37, -71867.98, 0.0, 10.0, 9.886217 
8.25e+2, 3.0392656e+2, -40805.36, -84750.16, 0.00024881755, 0.00000008112904, 0.00017313643, -40805.36, -40805.36, 0.0, 10.0, 9.942173 
8.25e+2, 3.138706e+2, -39727.348, -82511.21, 0.0006926394, 0.00000007979484, -0.0000551466, -39727.348, -39727.348, 0.0, 10.0, 9.943684 
8.35e+2, 1.2499334e+2, -1719946.0, -1724224.6, 0.00041328234, 0.000000095444335, 0.000017625965, -1719946.0, -4880.734, 0.0, 10.0, 9.994327 
8.35e+2, 1.349876e+2, -1622565.5, -1627434.9, 0.00030786742, 0.00000008591324, -0.00006840518, -1622565.5, -5443.9404, 0.0, 10.0, 9.993545 
8.35e+2, 1.4497514e+2, -1534464.1, -1548146.3, 0.0021620195, 0.00000008243129, 0.00007094982, -1534464.1, -15220.449, 0.0, 10.0, 9.981865 
8.35e+2, 1.5495703e+2, -1436736.4, -1450821.9, -0.00046512985, 0.00000008499233, -0.000056964025, -1436736.4, -15315.27, 0.0, 10.0, 9.981333 
8.35e+2, 1.6493228e+2, -1348685.5, -1371952.4, 0.00046581813, 0.000000088121055, 0.00004735051, -1348685.5, -25021.76, 0.0, 10.0, 9.969248 
8.35e+2, 1.7490156e+2, -1250727.4, -1274310.1, 0.0013830793, 0.00000009182974, -0.00007382323, -1250727.4, -24762.746, 0.0, 10.0, 9.968834 
8.35e+2, 1.8486421e+2, -1162646.5, -1195720.1, 0.0049696798, 0.00000008941567, 0.00006615363, -1162646.5, -34315.805, 0.0, 10.0, 9.956395 
8.35e+2, 1.9482064e+2, -1064496.8, -1097833.0, 0.0021241722, 0.00000008059456, -0.00005764474, -1064496.8, -33739.13, 0.0, 10.0, 9.956052 
8.35e+2, 2.0477042e+2, -976332.75, -1019435.0, 0.0020569589, 0.00000007912261, 0.00006808945, -976332.75, -43082.87, 0.0, 10.0, 9.943291 
8.35e+2, 2.1471375e+2, -878045.75, -921409.9, 0.00074553204, 0.00000008561041, -0.00012682012, -878045.75, -42240.465, 0.0, 10.0, 9.942949 
8.35e+2, 2.2465037e+2, -789759.6, -843144.9, 0.002176549, 0.00000008836436, 0.00012088511, -789759.6, -51333.355, 0.0, 10.0, 9.929908 
8.35e+2, 2.3458035e+2, -691326.1, -744966.44, 0.001971759, 0.00000008688884, -0.000088812056, -691326.1, -50213.59, 0.0, 10.0, 9.929577 
8.35e+2, 2.4450338e+2, -603002.06, -667018.8, 0.0039967387, 0.00000008480716, 0.00007471458, -603002.06, -59135.188, 0.0, 10.0, 9.916136 
8.35e+2, 2.5441962e+2, -504249.4, -568343.3, 0.0027424041, 0.000000082005926, -0.00010673291, -504249.4, -57561.844, 0.0, 10.0, 9.916036 
8.35e+2, 2.643288e+2, -416014.0, -490987.88, 0.0027742097, 0.000000081227704, 0.00014059624, -416014.0, -66436.32, 0.0, 10.0, 9.901964 
8.35e+2, 2.742313e+2, -316728.78, -391374.78, 0.0007894343, 0.0000000830255, -0.00020344369, -316728.78, -64195.766, 0.0, 10.0, 9.902385 
8.35e+2, 2.841256e+2, -230255.5, -318081.25, 0.000955237, 0.00000008389667, 0.00022904659, -230255.5, -74686.54, 0.0, 10.0, 9.885439 
8.35e+2, 2.940121e+2, -130549.37, -217765.0, -0.0005916403, 0.00000008348766, -0.0002533392, -130549.37, -71867.98, 0.0, 10.0, 9.886217 
8.35e+2, 3.0392656e+2, -40805.36, -84750.16, 0.000609468, 0.0000000836817, 0.00017313835, -40805.36, -40805.36, 0.0, 10.0, 9.942173 
8.35e+2, 3.138706e+2, -39727.344, -82511.21, 0.0010935258, 0.00000008478237, -0.000055148957, -39727.344, -39727.344, 0.0, 10.0, 9.943684 
8.45e+2, 1.2499334e+2, -1719946.0, -1724224.6, 0.002963085, 0.00000009627106, 0.000017624594, -1719946.0, -4880.7065, 0.0, 10.0, 9.994327 
8.45e+2, 1.349876e+2, -1622565.5, -1627434.9, -0.0003023651, 0.0000000885906, -0.00006840256, -1622565.5, -5443.922, 0.0, 10.0, 9.993545 
8.45e+2, 1.4497514e+2, -1534464.1, -1548146.3, 0.0007214138, 0.00000008643552, 0.0000709536, -1534464.1, -15220.434, 0.0, 10.0, 9.981865 
8.45e+2, 1.5495703e+2, -1436736.4, -1450821.9, 0.00220212, 0.000000089794085, -0.000056966823, -1436736.4, -15315.256, 0.0, 10.0, 9.981333 
8.45e+2, 1.6493228e+2, -1348685.4, -1371952.4, 0.0032974046, 0.00000009185224, 0.00004734723, -1348685.4, -25021.742, 0.0, 10.0, 9.969248 
8.45e+2, 1.7490156e+2, -1250727.4, -1274310.1, -0.0004166354, 0.000000092582816, -0.00007382075, -1250727.4, -24762.719, 0.0, 10.0, 9.968834 
8.45e+2, 1.8486421e+2, -1162646.5, -1195720.1, 0.0031827553, 0.00000008996925, 0.00006615759, -1162646.5, -34315.777, 0.0, 10.0, 9.956395 
8.45e+2, 1.9482064e+2, -1064496.8, -1097833.0, 0.0027800202, 0.00000008385617, -0.00005764375, -1064496.8, -33739.113, 0.0, 10.0, 9.956052 
8.45e+2, 2.0477042e+2, -976332.75, -1019435.0, 0.0029093856, 0.0000000832454, 0.00006808838, -976332.75, -43082.855, 0.0, 10.0, 9.943291 
8.45e+2, 2.1471375e+2, -878045.75, -921409.9, 0.0027602005, 0.00000008859396, -0.00012682225, -878045.75, -42240.445, 0.0, 10.0, 9.942949 
8.45e+2, 2.2465037e+2, -789759.6, -843144.9, 0.0044680466, 0.00000009058693, 0.00012088352, -789759.6, -51333.336, 0.0, 10.0, 9.929908 
8.45e+2, 2.3458035e+2, -691326.1, -744966.44, 0.0013009582, 0.000000088779366, -0.00008881129, -691326.1, -50213.57, 0.0, 10.0, 9.929577 
8.45e+2, 2.4450338e+2, -603002.06, -667018.75, 0.0020784452, 0.00000008692565, 0.00007471667, -603002.06, -59135.168, 0.0, 10.0, 9.916136 
8.45e+2, 2.5441962e+2, -504249.38, -568343.3, 0.0010649645, 0.00000008502081, -0.00010673074, -504249.38, -57561.83, 0.0, 10.0, 9.916036 
8.45e+2, 2.643288e+2, -416013.97, -490987.88, 0.001749697, 0.00000008446661, 0.00014059748, -416013.97, -66436.3, 0.0, 10.0, 9.901964 
8.45e+2, 2.742313e+2, -316728.75, -391374.75, 0.0019069428, 0.00000008563122, -0.00020344467, -316728.75, -64195.746, 0.0, 10.0, 9.902385 
8.45e+2, 2.841256e+2, -230255.48, -318081.22, 0.003423535, 0.00000008609971, 0.00022904431, -230255.48, -74686.516, 0.0, 10.0, 9.885439 
8.45e+2, 2.940121e+2, -130549.35, -217765.0, 0.0017816555, 0.000000085607425, -0.00025334157, -130549.35, -71867.95, 0.0, 10.0, 9.886217 
8.45e+2, 3.0392656e+2, -40805.336, -84750.15, 0.0018060401, 0.00000008606059, 0.00017313712, -40805.336, -40805.336, 0.0, 10.0, 9.942173 
8.45e+2, 3.138706e+2, -39727.33, -82511.2, -0.00031112402, 0.000000087925756, -0.000055147317, -39727.33, -39727.33, 0.0, 10.0, 9.943684 
8.55e+2, 1.2499334e+2, -1719946.0, -1724224.6, 0.0023373635, 0.0000000905126, 0.000017620221, -1719946.0, -4880.715, 0.0, 10.0, 9.994327 
8.55e+2, 1.349876e+2, -1622565.5, -1627434.9, -0.0009282455, 0.000000094362846, -0.000068400914, -1622565.5, -5443.9297, 0.0, 10.0, 9.993545 
8.55e+2, 1.4497514e+2, -1534464.1, -1548146.3, -0.00036037978, 0.00000009639711, 0.000070956696, -1534464.1, -15220.431, 0.0, 10.0, 9.981865 
8.55e+2, 1.5495703e+2, -1436736.4, -1450821.9, 0.0011195613, 0.000000096556576, -0.000056971927, -1436736.4, -15315.253, 0.0, 10.0, 9.981333 
8.55e+2, 1.6493228e+2, -1348685.5, -1371952.4, 0.0040001688, 0.00000009352997, 0.000047343146, -1348685.5, -25021.752, 0.0, 10.0, 9.969248 
8.55e+2, 1.7490156e+2, -1250727.4, -1274310.1, 0.0002955277, 0.00000008724996, -0.00007381441, -1250727.4, -24762.729, 0.0, 10.0, 9.968834 
8.55e+2, 1.8486421e+2, -1162646.5, -1195720.1, 0.002690845, 0.000000087060975, 0.000066164495, -1162646.5, -34315.777, 0.0, 10.0, 9.956395 
8.55e+2, 1.9482064e+2, -1064496.8, -1097833.0, 0.0022741524, 0.0000000932456, -0.0000576466, -1064496.8, -33739.113, 0.0, 10.0, 9.956052 
8.55e+2, 2.0477042e+2, -976332.75, -1019435.0, 0.0024943375, 0.00000009448658, 0.00006808279, -976332.75, -43082.86, 0.0, 10.0, 9.943291 
8.55e+2, 2.1471375e+2, -878045.75, -921409.9, 0.002347006, 0.00000009037295, -0.000126823, -878045.75, -42240.445, 0.0, 10.0, 9.942949 
8.55e+2, 2.2465037e+2, -789759.6, -843144.9, 0.004709361, 0.00000008807061, 0.00012088456, -789759.6, -51333.344, 0.0, 10.0, 9.929908 
8.55e+2, 2.3458035e+2, -691326.1, -744966.44, 0.0015636862, 0.00000008782051, -0.000088811954, -691326.1, -50213.574, 0.0, 10.0, 9.929577 
8.55e+2, 2.4450338e+2, -603002.06, -667018.75, 0.0019830514, 0.00000008847877, 0.00007471592, -603002.06, -59135.17, 0.0, 10.0, 9.916136 
8.55e+2, 2.5441962e+2, -504249.38, -568343.3, 0.0009523612, 0.00000009021976, -0.00010672963, -504249.38, -57561.83, 0.0, 10.0, 9.916036 
8.55e+2, 2.643288e+2, -416013.97, -490987.88, 0.002025865, 0.000000090501175, 0.00014059954, -416013.97, -66436.3, 0.0, 10.0, 9.901964 
8.55e+2, 2.742313e+2, -316728.75, -391374.75, 0.0022091803, 0.0000000889226, -0.00020344283, -316728.75, -64195.746, 0.0, 10.0, 9.902385 
8.55e+2, 2.841256e+2, -230255.48, -318081.25, 0.003583773, 0.00000008797962, 0.0002290439, -230255.48, -74686.52, 0.0, 10.0, 9.885439 
8.55e+2, 2.940121e+2, -130549.35, -217765.0, 0.0019291166, 0.00000008791504, -0.00025334698, -130549.35, -71867.96, 0.0, 10.0, 9.886217 
8.55e+2, 3.0392656e+2, -40805.34, -84750.164, 0.0015352763, 0.00000008826571, 0.00017313274, -40805.34, -40805.34, 0.0, 10.0, 9.942173 
8.55e+2, 3.138706e+2, -39727.332, -82511.21, -0.00063096196, 0.00000008922499, -0.000055141678, -39727.332, -39727.332, 0.0, 10.0, 9.943684 
8.65e+2, 1.2499334e+2, -1719945.9, -1724224.6, 0.00256284, 0.00000009144829, 0.000017622906, -1719945.9, -4880.688, 0.0, 10.0, 9.994327 
8.65e+2, 1.349876e+2, -1622565.5, -1627434.9, 0.002295338, 0.000000098712555, -0.000068405476, -1622565.5, -5443.913, 0.0, 10.0, 9.993545 
8.65e+2, 1.4497514e+2, -1534464.0, -1548146.3, 0.0034842202, 0.00000010126702, 0.00007095384, -1534464.0, -15220.413, 0.0, 10.0, 9.981865 
8.65e+2, 1.5495703e+2, -1436736.4, -1450821.9, 0.00012123394, 0.000000099032555, -0.000056969177, -1436736.4, -15315.229, 0.0, 10.0, 9.981333 
8.65e+2, 1.6493228e+2, -1348685.4, -1371952.4, 0.002851998, 0.000000094808215, 0.000047346904, -1348685.4, -25021.727, 0.0, 10.0, 9.969248 
8.65e+2, 1.7490156e+2, -1250727.4, -1274310.1, 0.002133519, 0.00000008855178, -0.00007381433, -1250727.4, -24762.705, 0.0, 10.0, 9.968834 
8.65e+2, 1.8486421e+2, -1162646.4, -1195720.1, 0.0038267644, 0.000000089551335, 0.000066162844, -1162646.4, -34315.754, 0.0, 10.0, 9.956395 
8.65e+2, 1.9482064e+2, -1064496.8, -1097833.0, 0.0028724284, 0.0000000981436, -0.00005764797, -1064496.8, -33739.098, 0.0, 10.0, 9.956052 
8.65e+2, 2.0477042e+2, -976332.75, -1019435.0, 0.0036292777, 0.0000000993183, 0.00006808275, -976332.75, -43082.844, 0.0, 10.0, 9.943291 
8.65e+2, 2.1471375e+2, -878045.7, -921409.9, 0.0009836335, 0.00000009245899, -0.0001268206, -878045.7, -42240.42, 0.0, 10.0, 9.942949 
8.65e+2, 2.2465037e+2, -789759.56, -843144.9, 0.002882254, 0.00000008908429, 0.0001208869, -789759.56, -51333.316, 0.0, 10.0, 9.929908 
8.65e+2, 2.3458035e+2, -691326.06, -744966.44, 0.0029652657, 0.0000000896569, -0.00008881252, -691326.06, -50213.55, 0.0, 10.0, 9.929577 
8.65e+2, 2.4450338e+2, -603002.0, -667018.75, 0.0043361993, 0.000000091069445, 0.00007471396, -603002.0, -59135.15, 0.0, 10.0, 9.916136 
8.65e+2, 2.5441962e+2, -504249.38, -568343.3, 0.0023754209, 0.000000093480985, -0.00010673118, -504249.38, -57561.81, 0.0, 10.0, 9.916036 
8.65e+2, 2.643288e+2, -416013.94, -490987.88, 0.0026428953, 0.00000009391763, 0.00014059915, -416013.94, -66436.28, 0.0, 10.0, 9.901964 
8.65e+2, 2.742313e+2, -316728.72, -391374.75, 0.00044444614, 0.00000009183873, -0.0002034411, -316728.72, -64195.727, 0.0, 10.0, 9.902385 
8.65e+2, 2.841256e+2, -230255.47, -318081.22, 0.00079666136, 0.00000009072566, 0.00022904614, -230255.47, -74686.5, 0.0, 10.0, 9.885439 
8.65e+2, 2.940121e+2, -130549.33, -217765.0, 0.00045804863, 0.00000009094601, -0.00025334643, -130549.33, -71867.94, 0.0, 10.0, 9.886217 
8.65e+2, 3.0392656e+2, -40805.32, -84750.16, 0.0009915354, 0.00000009095881, 0.00017313239, -40805.32, -40805.32, 0.0, 10.0, 9.942173 
8.65e+2, 3.138706e+2, -39727.305, -82511.21, -0.0010323843, 0.00000009065172, -0.000055141718, -39727.305, -39727.305, 0.0, 10.0, 9.943684 
8.75e+2, 1.2499334e+2, -1719945.9, -1724224.6, -0.00030897633, 0.00000009907812, 0.000017632645, -1719945.9, -4880.6895, 0.0, 10.0, 9.994327 
8.75e+2, 1.349876e+2, -1622565.5, -1627434.9, -0.00057715876, 0.00000010163973, -0.00006841624, -1622565.5, -5443.914, 0.0, 10.0, 9.993545 
8.75e+2, 1.4497514e+2, -1534464.1, -1548146.3, 0.004101937, 0.000000101045266, 0.00007094506, -1534464.1, -15220.422, 0.0, 10.0, 9.981865 
8.75e+2, 1.5495703e+2, -1436736.4, -1450821.9, 0.00074444787, 0.000000097222035, -0.000056958575, -1436736.4, -15315.236, 0.0, 10.0, 9.981333 
8.75e+2, 1.6493228e+2, -1348685.4, -1371952.4, 0.0033513324, 0.000000095686985, 0.0000473585, -1348685.4, -25021.729, 0.0, 10.0, 9.969248 
8.75e+2, 1.7490156e+2, -1250727.4, -1274310.1, 0.0026321742, 0.00000009648824, -0.00007382051, -1250727.4, -24762.707, 0.0, 10.0, 9.968834 
8.75e+2, 1.8486421e+2, -1162646.4, -1195720.1, 0.0015651672, 0.00000009744031, 0.000066152614, -1162646.4, -34315.758, 0.0, 10.0, 9.956395 
8.75e+2, 1.9482064e+2, -1064496.8, -1097833.0, 0.00057883695, 0.00000009855019, -0.000057647852, -1064496.8, -33739.1, 0.0, 10.0, 9.956052 
8.75e+2, 2.0477042e+2, -976332.75, -1019435.0, 0.0052834684, 0.00000009774058, 0.00006808826, -976332.75, -43082.85, 0.0, 10.0, 9.943291 
8.75e+2, 2.1471375e+2, -878045.7, -921409.9, 0.002719359, 0.000000094852076, -0.00012681504, -878045.7, -42240.426, 0.0, 10.0, 9.942949 
8.75e+2, 2.2465037e+2, -789759.56, -843144.9, 0.0027030618, 0.00000009362796, 0.000120890545, -789759.56, -51333.316, 0.0, 10.0, 9.929908 
8.75e+2, 2.3458035e+2, -691326.06, -744966.44, 0.0027234154, 0.00000009428853, -0.00008881298, -691326.06, -50213.55, 0.0, 10.0, 9.929577 
8.75e+2, 2.4450338e+2, -603002.0, -667018.75, 0.0036278646, 0.00000009469769, 0.0000747108, -603002.0, -59135.152, 0.0, 10.0, 9.916136 
8.75e+2, 2.5441962e+2, -504249.38, -568343.3, 0.0016446697, 0.0000000948045, -0.00010673537, -504249.38, -57561.813, 0.0, 10.0, 9.916036 
8.75e+2, 2.643288e+2, -416013.97, -490987.88, 0.003069745, 0.00000009471598, 0.00014059633, -416013.97, -66436.29, 0.0, 10.0, 9.901964 
8.75e+2, 2.742313e+2, -316728.72, -391374.75, 0.00094892044, 0.000000094379615, -0.0002034395, -316728.72, -64195.73, 0.0, 10.0, 9.902385 
8.75e+2, 2.841256e+2, -230255.47, -318081.25, 0.0011146709, 0.00000009433783, 0.00022905099, -230255.47, -74686.5, 0.0, 10.0, 9.885439 
8.75e+2, 2.940121e+2, -130549.33, -217765.0, 0.0007592721, 0.00000009470033, -0.00025333994, -130549.33, -71867.94, 0.0, 10.0, 9.886217 
8.75e+2, 3.0392656e+2, -40805.324, -84750.164, 0.0018306541, 0.000000094139864, 0.00017313607, -40805.324, -40805.324, 0.0, 10.0, 9.942173 
8.75e+2, 3.138706e+2, -39727.31, -82511.22, -0.00013008888, 0.00000009220593, -0.000055147433, -39727.31, -39727.31, 0.0, 10.0, 9.943684 
8.85e+2, 1.2499334e+2, -1719945.9, -1724224.6, -0.0008246747, 0.00000010690321, 0.0000176339, -1719945.9, -4880.682, 0.0, 10.0, 9.994327 
8.85e+2, 1.349876e+2, -1622565.4, -1627434.9, -0.0014003863, 0.00000010318291, -0.00006841553, -1622565.4, -5443.884, 0.0, 10.0, 9.993545 
8.85e+2, 1.4497514e+2, -1534464.0, -1548146.3, 0.0035107215, 0.00000010024258, 0.00007094758, -1534464.0, -15220.389, 0.0, 10.0, 9.981864 
8.85e+2, 1.5495703e+2, -1436736.4, -1450821.9, 0.0006472503, 0.00000009803071, -0.00005695717, -1436736.4, -15315.21, 0.0, 10.0, 9.981333 
8.85e+2, 1.6493228e+2, -1348685.4, -1371952.4, 0.0031228568, 0.00000009905573, 0.000047358757, -1348685.4, -25021.705, 0.0, 10.0, 9.969248 
8.85e+2, 1.7490156e+2, -1250727.4, -1274310.1, 0.0033315448, 0.00000010338598, -0.00007382144, -1250727.4, -24762.693, 0.0, 10.0, 9.968834 
8.85e+2, 1.8486421e+2, -1162646.4, -1195720.1, 0.0028884385, 0.00000010320345, 0.0000661521, -1162646.4, -34315.746, 0.0, 10.0, 9.956395 
8.85e+2, 1.9482064e+2, -1064496.6, -1097833.0, -0.000048781887, 0.00000009829867, -0.000057646303, -1064496.6, -33739.066, 0.0, 10.0, 9.956052 
8.85e+2, 2.0477042e+2, -976332.7, -1019435.0, 0.0039584097, 0.00000009653688, 0.0000680901, -976332.7, -43082.813, 0.0, 10.0, 9.943291 
8.85e+2, 2.1471375e+2, -878045.7, -921409.9, 0.002833698, 0.00000009817933, -0.00012681482, -878045.7, -42240.406, 0.0, 10.0, 9.942949 
8.85e+2, 2.2465037e+2, -789759.56, -843144.9, 0.0029186946, 0.000000098974795, 0.00012089046, -789759.56, -51333.3, 0.0, 10.0, 9.929908 
8.85e+2, 2.3458035e+2, -691326.06, -744966.44, 0.0013135789, 0.00000009881017, -0.00008881188, -691326.06, -50213.535, 0.0, 10.0, 9.929577 
8.85e+2, 2.4450338e+2, -603002.0, -667018.75, 0.0022279774, 0.00000009800387, 0.00007471201, -603002.0, -59135.133, 0.0, 10.0, 9.916136 
8.85e+2, 2.5441962e+2, -504249.34, -568343.3, 0.0016255248, 0.00000009643212, -0.00010673534, -504249.34, -57561.785, 0.0, 10.0, 9.916036 
8.85e+2, 2.643288e+2, -416013.94, -490987.88, 0.0037108369, 0.000000096027094, 0.00014059557, -416013.94, -66436.26, 0.0, 10.0, 9.901964 
8.85e+2, 2.742313e+2, -316728.72, -391374.75, 0.0018873264, 0.00000009710859, -0.00020344056, -316728.72, -64195.707, 0.0, 10.0, 9.902385 
8.85e+2, 2.841256e+2, -230255.45, -318081.22, 0.0017029383, 0.00000009764324, 0.00022905065, -230255.45, -74686.48, 0.0, 10.0, 9.885439 
8.85e+2, 2.940121e+2, -130549.31, -217765.0, -0.0006717054, 0.000000097422536, -0.00025333813, -130549.31, -71867.914, 0.0, 10.0, 9.886217 
8.85e+2, 3.0392656e+2, -40805.3, -84750.16, 0.00038970655, 0.000000096879816, 0.00017313773, -40805.3, -40805.3, 0.0, 10.0, 9.942173 
8.85e+2, 3.138706e+2, -39727.29, -82511.21, 0.0009448763, 0.00000009586625, -0.00005514935, -39727.29, -39727.29, 0.0, 10.0, 9.943684 
8.95e+2, 1.2499334e+2, -1719945.9, -1724224.6, 0.0016386326, 0.000000114923544, 0.00001762667, -1719945.9, -4880.684, 0.0, 10.0, 9.994327 
8.95e+2, 1.349876e+2, -1622565.4, -1627434.9, 0.0010636006, 0.00000010334212, -0.00006840335, -1622565.4, -5443.886, 0.0, 10.0, 9.993545 
8.95e+2, 1.4497514e+2, -1534464.0, -1548146.3, 0.0027682602, 0.00000009885896, 0.00007096142, -1534464.0, -15220.396, 0.0, 10.0, 9.981864 
8.95e+2, 1.5495703e+2, -1436736.4, -1450821.9, -0.00010032319, 0.000000101458575, -0.000056964956, -1436736.4, -15315.217, 0.0, 10.0, 9.981333 
8.95e+2, 1.6493228e+2, -1348685.4, -1371952.4, 0.0008141644, 0.000000104914456, 0.00004734768, -1348685.4, -25021.705, 0.0, 10.0, 9.969248 
8.95e+2, 1.7490156e+2, -1250727.4, -1274310.1, 0.0010145737, 0.000000109245, -0.000073817086, -1250727.4, -24762.693, 0.0, 10.0, 9.968834 
8.95e+2, 1.8486421e+2, -1162646.4, -1195720.1, 0.0055346666, 0.00000010684077, 0.000066161294, -1162646.4, -34315.754, 0.0, 10.0, 9.956395 
8.95e+2, 1.9482064e+2, -1064496.6, -1097833.0, 0.0026549017, 0.000000097389055, -0.000057643323, -1064496.6, -33739.074, 0.0, 10.0, 9.956052 
8.95e+2, 2.0477042e+2, -976332.7, -1019435.0, 0.0019817462, 0.000000095707186, 0.00006808827, -976332.7, -43082.816, 0.0, 10.0, 9.943291 
8.95e+2, 2.1471375e+2, -878045.7, -921409.9, 0.00076034747, 0.00000010244074, -0.00012681994, -878045.7, -42240.41, 0.0, 10.0, 9.942949 
8.95e+2, 2.2465037e+2, -789759.56, -843144.9, 0.002947758, 0.000000105124776, 0.00012088663, -789759.56, -51333.305, 0.0, 10.0, 9.929908 
8.95e+2, 2.3458035e+2, -691326.06, -744966.44, 0.001411415, 0.00000010322182, -0.000088809225, -691326.06, -50213.54, 0.0, 10.0, 9.929577 
8.95e+2, 2.4450338e+2, -603002.0, -667018.75, 0.0033525596, 0.00000010098801, 0.000074717595, -603002.0, -59135.133, 0.0, 10.0, 9.916136 
8.95e+2, 2.5441962e+2, -504249.34, -568343.3, 0.0027994504, 0.00000009836385, -0.00010673107, -504249.34, -57561.79, 0.0, 10.0, 9.916036 
8.95e+2, 2.643288e+2, -416013.94, -490987.88, 0.0032337273, 0.00000009785096, 0.00014059688, -416013.94, -66436.26, 0.0, 10.0, 9.901964 
8.95e+2, 2.742313e+2, -316728.72, -391374.78, 0.0012995331, 0.00000010002566, -0.00020344429, -316728.72, -64195.71, 0.0, 10.0, 9.902385 
8.95e+2, 2.841256e+2, -230255.45, -318081.25, 0.0019634354, 0.00000010064188, 0.00022904512, -230255.45, -74686.484, 0.0, 10.0, 9.885439 
8.95e+2, 2.940121e+2, -130549.31, -217765.0, -0.00033475162, 0.00000009911262, -0.00025334104, -130549.31, -71867.92, 0.0, 10.0, 9.886217 
8.95e+2, 3.0392656e+2, -40805.3, -84750.16, 0.0005532026, 0.00000009917866, 0.00017313733, -40805.3, -40805.3, 0.0, 10.0, 9.942173 
8.95e+2, 3.138706e+2, -39727.29, -82511.21, 0.001088038, 0.000000101632665, -0.000055147462, -39727.29, -39727.29, 0.0, 10.0, 9.943684 
9.05e+2, 1.2499334e+2, -1719945.9, -1724224.6, 0.0036893825, 0.00000011542507, 0.000017625522, -1719945.9, -4880.648, 0.0, 10.0, 9.994327 
9.05e+2, 1.349876e+2, -1622565.4, -1627434.9, -0.0010649541, 0.000000106702934, -0.00006839902, -1622565.4, -5443.865, 0.0, 10.0, 9.993545 
9.05e+2, 1.4497514e+2, -1534464.0, -1548146.3, -0.0002646224, 0.0000001039626, 0.000070967006, -1534464.0, -15220.378, 0.0, 10.0, 9.981864 
9.05e+2, 1.5495703e+2, -1436736.4, -1450821.9, 0.0023739538, 0.000000107179225, -0.000056967863, -1436736.4, -15315.199, 0.0, 10.0, 9.981333 
9.05e+2, 1.6493228e+2, -1348685.4, -1371952.4, 0.003794569, 0.000000109050724, 0.000047343725, -1348685.4, -25021.686, 0.0, 10.0, 9.969248 
9.05e+2, 1.7490156e+2, -1250727.4, -1274310.1, -0.0010474033, 0.000000109548964, -0.00007381448, -1250727.4, -24762.66, 0.0, 10.0, 9.968834 
9.05e+2, 1.8486421e+2, -1162646.4, -1195720.1, 0.0036226108, 0.000000107326734, 0.00006616547, -1162646.4, -34315.72, 0.0, 10.0, 9.956395 
9.05e+2, 1.9482064e+2, -1064496.6, -1097833.0, 0.0037350662, 0.00000010225761, -0.000057642792, -1064496.6, -33739.06, 0.0, 10.0, 9.956052 
9.05e+2, 2.0477042e+2, -976332.7, -1019435.0, 0.0033327565, 0.00000010148285, 0.00006808693, -976332.7, -43082.8, 0.0, 10.0, 9.943291 
9.05e+2, 2.1471375e+2, -878045.7, -921409.9, 0.002259855, 0.00000010535915, -0.00012682125, -878045.7, -42240.387, 0.0, 10.0, 9.942949 
9.05e+2, 2.2465037e+2, -789759.56, -843144.9, 0.0048903646, 0.00000010673101, 0.00012088562, -789759.56, -51333.277, 0.0, 10.0, 9.929908 
9.05e+2, 2.3458035e+2, -691326.06, -744966.44, 0.0024585037, 0.000000105266196, -0.00008880963, -691326.06, -50213.51, 0.0, 10.0, 9.929577 
9.05e+2, 2.4450338e+2, -603002.0, -667018.75, 0.0034433892, 0.000000103851846, 0.00007471809, -603002.0, -59135.11, 0.0, 10.0, 9.916136 
9.05e+2, 2.5441962e+2, -504249.3, -568343.3, 0.0013014378, 0.00000010250074, -0.0001067293, -504249.3, -57561.77, 0.0, 10.0, 9.916036 
9.05e+2, 2.643288e+2, -416013.9, -490987.88, 0.0013924931, 0.000000102028196, 0.0001405986, -416013.9, -66436.24, 0.0, 10.0, 9.901964 
9.05e+2, 2.742313e+2, -316728.7, -391374.75, 0.0011749315, 0.00000010267342, -0.0002034443, -316728.7, -64195.688, 0.0, 10.0, 9.902385 
9.05e+2, 2.841256e+2, -230255.42, -318081.22, 0.003393531, 0.00000010270528, 0.00022904362, -230255.42, -74686.46, 0.0, 10.0, 9.885439 
9.05e+2, 2.940121e+2, -130549.29, -217765.0, 0.0021976263, 0.000000101892354, -0.0002533437, -130549.29, -71867.9, 0.0, 10.0, 9.886217 
9.05e+2, 3.0392656e+2, -40805.277, -84750.15, 0.0019630417, 0.00000010232019, 0.00017313566, -40805.277, -40805.277, 0.0, 10.0, 9.942173 
9.05e+2, 3.138706e+2, -39727.266, -82511.2, -0.0015832238, 0.00000010459761, -0.000055144927, -39727.266, -39727.266, 0.0, 10.0, 9.943684 
9.15e+2, 1.2499334e+2, -1719945.9, -1724224.6, 0.0026251043, 0.00000010840781, 0.000017630453, -1719945.9, -4880.6597, 0.0, 10.0, 9.994327 
9.15e+2, 1.349876e+2, -1622565.4, -1627434.9, -0.0021295252, 0.00000011326536, -0.000068402536, -1622565.4, -5443.8765, 0.0, 10.0, 9.993545 
9.15e+2, 1.4497514e+2, -1534464.0, -1548146.3, -0.0012077582, 0.00000011555347, 0.00007096434, -1534464.0, -15220.372, 0.0, 10.0, 9.981864 
9.15e+2, 1.5495703e+2, -1436736.4, -1450821.9, 0.0014309519, 0.00000011519267, -0.0000569659, -1436736.4, -15315.194, 0.0, 10.0, 9.981333 
9.15e+2, 1.6493228e+2, -1348685.4, -1371952.4, 0.004818742, 0.000000111464544, 0.00004734689, -1348685.4, -25021.697, 0.0, 10.0, 9.969248 
9.15e+2, 1.7490156e+2, -1250727.4, -1274310.1, -0.000012875777, 0.0000001042979, -0.000073813615, -1250727.4, -24762.672, 0.0, 10.0, 9.968834 
9.15e+2, 1.8486421e+2, -1162646.4, -1195720.1, 0.002262087, 0.000000104661346, 0.00006616464, -1162646.4, -34315.72, 0.0, 10.0, 9.956395 
9.15e+2, 1.9482064e+2, -1064496.6, -1097833.0, 0.0023467846, 0.0000001129043, -0.000057644706, -1064496.6, -33739.06, 0.0, 10.0, 9.956052 
9.15e+2, 2.0477042e+2, -976332.7, -1019435.0, 0.003890242, 0.000000113863834, 0.000068086054, -976332.7, -43082.805, 0.0, 10.0, 9.943291 
9.15e+2, 2.1471375e+2, -878045.7, -921409.9, 0.002857505, 0.00000010693457, -0.00012681878, -878045.7, -42240.387, 0.0, 10.0, 9.942949 
9.15e+2, 2.2465037e+2, -789759.56, -843144.9, 0.004936589, 0.0000001037935, 0.0001208874, -789759.56, -51333.28, 0.0, 10.0, 9.929908 
9.15e+2, 2.3458035e+2, -691326.06, -744966.44, 0.002486687, 0.000000104943304, -0.00008881312, -691326.06, -50213.516, 0.0, 10.0, 9.929576 
9.15e+2, 2.4450338e+2, -603002.0, -667018.75, 0.0029927935, 0.00000010659538, 0.0000747135, -603002.0, -59135.113, 0.0, 10.0, 9.916136 
9.15e+2, 2.5441962e+2, -504249.3, -568343.3, 0.0008278365, 0.00000010884279, -0.00010673002, -504249.3, -57561.773, 0.0, 10.0, 9.916036 
9.15e+2, 2.643288e+2, -416013.9, -490987.88, 0.0021715036, 0.000000108558794, 0.00014060075, -416013.9, -66436.24, 0.0, 10.0, 9.901964 
9.15e+2, 2.742313e+2, -316728.7, -391374.75, 0.0020379326, 0.00000010505188, -0.00020344058, -316728.7, -64195.688, 0.0, 10.0, 9.902385 
9.15e+2, 2.841256e+2, -230255.42, -318081.25, 0.0035819844, 0.00000010383343, 0.00022904616, -230255.42, -74686.46, 0.0, 10.0, 9.885439 
9.15e+2, 2.940121e+2, -130549.29, -217765.0, 0.0023253236, 0.00000010576173, -0.00025334614, -130549.29, -71867.9, 0.0, 10.0, 9.886217 
9.15e+2, 3.0392656e+2, -40805.28, -84750.164, 0.002056004, 0.0000001063044, 0.0001731327, -40805.28, -40805.28, 0.0, 10.0, 9.942173 
9.15e+2, 3.138706e+2, -39727.273, -82511.22, -0.0014943033, 0.0000001047611, -0.000055141736, -39727.273, -39727.273, 0.0, 10.0, 9.943684 
9.25e+2, 1.2499335e+2, -1719945.9, -1724224.6, 0.0014973196, 0.0000001095255, 0.000017634782, -1719945.9, -4880.6294, 0.0, 10.0, 9.994327 
9.25e+2, 1.349876e+2, -1622565.4, -1627434.9, 0.0030591236, 0.00000011817708, -0.00006840922, -1622565.4, -5443.8545, 0.0, 10.0, 9.993545 
9.25e+2, 1.4497514e+2, -1534464.0, -1548146.3, 0.004849241, 0.0000001212017, 0.00007095955, -1534464.0, -15220.352, 0.0, 10.0, 9.981864 
9.25e+2, 1.5495703e+2, -1436736.3, -1450821.9, -0.00087305944, 0.00000011849823, -0.000056961446, -1436736.3, -15315.166, 0.0, 10.0, 9.981333 
9.25e+2, 1.6493228e+2, -1348685.4, -1371952.4, 0.0021180823, 0.00000011372218, 0.00004735255, -1348685.4, -25021.668, 0.0, 10.0, 9.969248 
9.25e+2, 1.7490156e+2, -1250727.4, -1274310.1, 0.0032471945, 0.000000106829546, -0.000073814954, -1250727.4, -24762.646, 0.0, 10.0, 9.968834 
9.25e+2, 1.8486421e+2, -1162646.4, -1195720.1, 0.0048976634, 0.00000010783504, 0.00006616126, -1162646.4, -34315.695, 0.0, 10.0, 9.956395 
9.25e+2, 1.9482064e+2, -1064496.6, -1097833.0, 0.0018538858, 0.00000011710519, -0.000057644935, -1064496.6, -33739.035, 0.0, 10.0, 9.956052 
9.25e+2, 2.0477042e+2, -976332.7, -1019435.0, 0.0034760367, 0.000000118060264, 0.00006808774, -976332.7, -43082.78, 0.0, 10.0, 9.943291 
9.25e+2, 2.1471375e+2, -878045.6, -921409.9, 0.0012707179, 0.000000110009225, -0.0001268165, -878045.6, -42240.363, 0.0, 10.0, 9.942949 
9.25e+2, 2.2465037e+2, -789759.5, -843144.9, 0.0026764707, 0.00000010641852, 0.00012088923, -789759.5, -51333.258, 0.0, 10.0, 9.929908 
9.25e+2, 2.3458035e+2, -691326.0, -744966.44, 0.0021587163, 0.00000010787992, -0.00008881289, -691326.0, -50213.492, 0.0, 10.0, 9.929576 
9.25e+2, 2.4450338e+2, -603001.94, -667018.75, 0.003902679, 0.00000010966933, 0.00007471264, -603001.94, -59135.09, 0.0, 10.0, 9.916136 
9.25e+2, 2.5441962e+2, -504249.3, -568343.3, 0.0023302163, 0.00000011184507, -0.000106731364, -504249.3, -57561.746, 0.0, 10.0, 9.916036 
9.25e+2, 2.643288e+2, -416013.88, -490987.88, 0.0035224718, 0.00000011166196, 0.00014060002, -416013.88, -66436.22, 0.0, 10.0, 9.901964 
9.25e+2, 2.742313e+2, -316728.66, -391374.75, 0.0006429823, 0.00000010847606, -0.00020343928, -316728.66, -64195.664, 0.0, 10.0, 9.902385 
9.25e+2, 2.841256e+2, -230255.4, -318081.22, 0.00031548098, 0.00000010740128, 0.00022904844, -230255.4, -74686.44, 0.0, 10.0, 9.885439 
9.25e+2, 2.940121e+2, -130549.266, -217765.0, -0.00077304814, 0.00000010922957, -0.0002533443, -130549.266, -71867.875, 0.0, 10.0, 9.886217 
9.25e+2, 3.0392656e+2, -40805.258, -84750.16, 0.0006999616, 0.00000010943208, 0.0001731332, -40805.258, -40805.258, 0.0, 10.0, 9.942173 
9.25e+2, 3.138706e+2, -39727.242, -82511.21, 0.00032371978, 0.000000107194516, -0.00005514399, -39727.242, -39727.242, 0.0, 10.0, 9.943684 
9.35e+2, 1.2499335e+2, -1719945.9, -1724224.6, -0.0015100874, 0.00000011877811, 0.000017638511, -1719945.9, -4880.6265, 0.0, 10.0, 9.994327 
9.35e+2, 1.349876e+2, -1622565.4, -1627434.9, 0.00005096855, 0.00000012143809, -0.000068419075, -1622565.4, -5443.8516, 0.0, 10.0, 9.993545 
9.35e+2, 1.4497514e+2, -1534464.0, -1548146.3, 0.0054088896, 0.0000001209073, 0.000070952614, -1534464.0, -15220.365, 0.0, 10.0, 9.981864 
9.35e+2, 1.5495703e+2, -1436736.4, -1450821.9, -0.00030779536, 0.00000011709592, -0.000056954505, -1436736.4, -15315.18, 0.0, 10.0, 9.981333 
9.35e+2, 1.6493228e+2, -1348685.4, -1371952.4, 0.0025115511, 0.00000011582364, 0.00004736071, -1348685.4, -25021.666, 0.0, 10.0, 9.969248 
9.35e+2, 1.7490156e+2, -1250727.4, -1274310.1, 0.0036397183, 0.000000117143884, -0.0000738185, -1250727.4, -24762.645, 0.0, 10.0, 9.968834 
9.35e+2, 1.8486421e+2, -1162646.4, -1195720.1, 0.0033499396, 0.000000116847794, 0.00006615534, -1162646.4, -34315.7, 0.0, 10.0, 9.956395 
9.35e+2, 1.9482064e+2, -1064496.6, -1097833.0, 0.00028366025, 0.00000011486029, -0.000057643472, -1064496.6, -33739.04, 0.0, 10.0, 9.956052 
9.35e+2, 2.0477042e+2, -976332.7, -1019435.0, 0.0045192637, 0.000000114072186, 0.00006809199, -976332.7, -43082.785, 0.0, 10.0, 9.943291 
9.35e+2, 2.1471375e+2, -878045.6, -921409.9, 0.0023679167, 0.000000114583116, -0.00012681447, -878045.6, -42240.367, 0.0, 10.0, 9.942949 
9.35e+2, 2.2465037e+2, -789759.5, -843144.9, 0.0024477555, 0.00000011460603, 0.00012089108, -789759.5, -51333.258, 0.0, 10.0, 9.929908 
9.35e+2, 2.3458035e+2, -691326.0, -744966.44, 0.0018866089, 0.00000011407604, -0.00008880895, -691326.0, -50213.492, 0.0, 10.0, 9.929576 
9.35e+2, 2.4450338e+2, -603001.94, -667018.75, 0.0038972944, 0.00000011307368, 0.000074715506, -603001.94, -59135.094, 0.0, 10.0, 9.916136 
9.35e+2, 2.5441962e+2, -504249.3, -568343.3, 0.0023376523, 0.00000011150759, -0.00010673333, -504249.3, -57561.75, 0.0, 10.0, 9.916036 
9.35e+2, 2.643288e+2, -416013.9, -490987.88, 0.0037552768, 0.000000111337705, 0.00014059643, -416013.9, -66436.22, 0.0, 10.0, 9.901964 
9.35e+2, 2.742313e+2, -316728.66, -391374.75, 0.0008909159, 0.00000011294595, -0.00020344042, -316728.66, -64195.668, 0.0, 10.0, 9.902385 
9.35e+2, 2.841256e+2, -230255.4, -318081.25, 0.00059071946, 0.00000011340881, 0.00022905048, -230255.4, -74686.44, 0.0, 10.0, 9.885439 
9.35e+2, 2.940121e+2, -130549.266, -217765.0, -0.00049532915, 0.00000011229587, -0.00025333813, -130549.266, -71867.875, 0.0, 10.0, 9.886217 
9.35e+2, 3.0392656e+2, -40805.26, -84750.164, 0.0016525567, 0.00000011170323, 0.00017313713, -40805.26, -40805.26, 0.0, 10.0, 9.942173 
9.35e+2, 3.138706e+2, -39727.246, -82511.21, 0.0013555821, 0.00000011189785, -0.00005515169, -39727.246, -39727.246, 0.0, 10.0, 9.943684 
9.45e+2, 1.2499335e+2, -1719945.9, -1724224.6, 0.0016299675, 0.00000012770904, 0.00001763683, -1719945.9, -4880.615, 0.0, 10.0, 9.994327 
9.45e+2, 1.349876e+2, -1622565.4, -1627434.9, -0.0019814123, 0.00000012325624, -0.000068416884, -1622565.4, -5443.817, 0.0, 10.0, 9.993545 
9.45e+2, 1.4497514e+2, -1534464.0, -1548146.3, 0.0031691263, 0.00000012019633, 0.00007095689, -1534464.0, -15220.326, 0.0, 10.0, 9.981864 
9.45e+2, 1.5495703e+2, -1436736.3, -1450821.9, 0.0021767737, 0.00000011846469, -0.00005695565, -1436736.3, -15315.148, 0.0, 10.0, 9.981333 
9.45e+2, 1.6493228e+2, -1348685.4, -1371952.4, 0.0047732224, 0.00000011974093, 0.000047358673, -1348685.4, -25021.639, 0.0, 10.0, 9.969248 
9.45e+2, 1.7490156e+2, -1250727.3, -1274310.1, 0.0018474314, 0.0000001240886, -0.000073816795, -1250727.3, -24762.625, 0.0, 10.0, 9.968834 
9.45e+2, 1.8486421e+2, -1162646.4, -1195720.1, 0.0016447501, 0.0000001227602, 0.00006615801, -1162646.4, -34315.684, 0.0, 10.0, 9.956395 
9.45e+2, 1.9482064e+2, -1064496.6, -1097833.0, 0.00048711427, 0.00000011549217, -0.000057642734, -1064496.6, -33739.004, 0.0, 10.0, 9.956052 
9.45e+2, 2.0477042e+2, -976332.6, -1019435.0, 0.0049298136, 0.00000011401724, 0.00006809171, -976332.6, -43082.75, 0.0, 10.0, 9.943291 
9.45e+2, 2.1471375e+2, -878045.6, -921409.9, 0.003185896, 0.000000118816736, -0.00012681478, -878045.6, -42240.344, 0.0, 10.0, 9.942949 
9.45e+2, 2.2465037e+2, -789759.5, -843144.9, 0.0034663796, 0.0000001203822, 0.000120891156, -789759.5, -51333.24, 0.0, 10.0, 9.929908 
9.45e+2, 2.3458035e+2, -691326.0, -744966.44, 0.0011794257, 0.00000011828454, -0.00008880802, -691326.0, -50213.47, 0.0, 10.0, 9.929576 
9.45e+2, 2.4450338e+2, -603001.94, -667018.75, 0.0023469077, 0.00000011613233, 0.00007471679, -603001.94, -59135.063, 0.0, 10.0, 9.916136 
9.45e+2, 2.5441962e+2, -504249.28, -568343.3, 0.0009049802, 0.000000113918716, -0.00010673233, -504249.28, -57561.723, 0.0, 10.0, 9.916036 
9.45e+2, 2.643288e+2, -416013.88, -490987.88, 0.002866646, 0.0000001138985, 0.00014059662, -416013.88, -66436.195, 0.0, 10.0, 9.901964 
9.45e+2, 2.742313e+2, -316728.66, -391374.75, 0.0020447646, 0.00000011666968, -0.00020344173, -316728.66, -64195.645, 0.0, 10.0, 9.902385 
9.45e+2, 2.841256e+2, -230255.38, -318081.22, 0.0030017388, 0.000000117420164, 0.00022904886, -230255.38, -74686.414, 0.0, 10.0, 9.885439 
9.45e+2, 2.940121e+2, -130549.24, -217765.0, 0.0005546248, 0.00000011539221, -0.00025333842, -130549.24, -71867.85, 0.0, 10.0, 9.886217 
9.45e+2, 3.0392656e+2, -40805.23, -84750.15, 0.0012687842, 0.0000001146811, 0.00017313768, -40805.23, -40805.23, 0.0, 10.0, 9.942173 
9.45e+2, 3.138706e+2, -39727.223, -82511.2, -0.00017737433, 0.000000115950904, -0.000055151082, -39727.223, -39727.223, 0.0, 10.0, 9.943684 
9.55e+2, 1.2499335e+2, -1719945.9, -1724224.6, 0.004171676, 0.0000001363183, 0.000017629738, -1719945.9, -4880.6245, 0.0, 10.0, 9.994327 
9.55e+2, 1.349876e+2, -1622565.4, -1627434.9, 0.00056095014, 0.00000012363157, -0.000068402645, -1622565.4, -5443.8257, 0.0, 10.0, 9.993545 
9.55e+2, 1.4497514e+2, -1534464.0, -1548146.3, 0.00222907, 0.00000011906881, 0.00007097239, -1534464.0, -15220.33, 0.0, 10.0, 9.981864 
9.55e+2, 1.5495703e+2, -1436736.3, -1450821.9, 0.0012311535, 0.0000001226045, -0.00005696488, -1436736.3, -15315.151, 0.0, 10.0, 9.981333 
9.55e+2, 1.6493228e+2, -1348685.4, -1371952.4, 0.0027636962, 0.00000012547406, 0.000047346442, -1348685.4, -25021.645, 0.0, 10.0, 9.969248 
9.55e+2, 1.7490156e+2, -1250727.4, -1274310.1, -0.00016775215, 0.00000012766374, -0.000073809846, -1250727.4, -24762.633, 0.0, 10.0, 9.968834 
9.55e+2, 1.8486421e+2, -1162646.4, -1195720.1, 0.0040506357, 0.00000012557227, 0.00006616927, -1162646.4, -34315.684, 0.0, 10.0, 9.956395 
9.55e+2, 1.9482064e+2, -1064496.6, -1097833.0, 0.0029441696, 0.00000011900083, -0.00005764272, -1064496.6, -33739.008, 0.0, 10.0, 9.956052 
9.55e+2, 2.0477042e+2, -976332.6, -1019435.0, 0.0028029098, 0.0000001178954, 0.0000680869, -976332.6, -43082.754, 0.0, 10.0, 9.943291 
9.55e+2, 2.1471375e+2, -878045.6, -921409.9, 0.00096428924, 0.00000012271009, -0.00012681745, -878045.6, -42240.348, 0.0, 10.0, 9.942949 
9.55e+2, 2.2465037e+2, -789759.5, -843144.9, 0.004152893, 0.00000012374701, 0.00012088944, -789759.5, -51333.242, 0.0, 10.0, 9.929908 
9.55e+2, 2.3458035e+2, -691326.0, -744966.44, 0.0019610736, 0.00000012050545, -0.000088810084, -691326.0, -50213.473, 0.0, 10.0, 9.929576 
9.55e+2, 2.4450338e+2, -603001.94, -667018.75, 0.0029892763, 0.00000011884526, 0.000074716474, -603001.94, -59135.066, 0.0, 10.0, 9.916136 
9.55e+2, 2.5441962e+2, -504249.28, -568343.3, 0.0015406585, 0.00000011907845, -0.00010672837, -504249.28, -57561.723, 0.0, 10.0, 9.916036 
9.55e+2, 2.643288e+2, -416013.88, -490987.88, 0.0024213374, 0.00000011934434, 0.00014060056, -416013.88, -66436.195, 0.0, 10.0, 9.901964 
9.55e+2, 2.742313e+2, -316728.66, -391374.75, 0.0015269908, 0.00000011964727, -0.00020344324, -316728.66, -64195.645, 0.0, 10.0, 9.902385 
9.55e+2, 2.841256e+2, -230255.39, -318081.25, 0.0037551124, 0.00000011943534, 0.0002290436, -230255.39, -74686.42, 0.0, 10.0, 9.885438 
9.55e+2, 2.940121e+2, -130549.25, -217765.0, 0.0014225648, 0.00000011851858, -0.00025334512, -130549.25, -71867.86, 0.0, 10.0, 9.886217 
9.55e+2, 3.0392656e+2, -40805.234, -84750.16, 0.0012114074, 0.0000001183657, 0.00017313486, -40805.234, -40805.234, 0.0, 10.0, 9.942173 
9.55e+2, 3.138706e+2, -39727.227, -82511.21, -0.00034334234, 0.00000011935369, -0.000055142173, -39727.227, -39727.227, 0.0, 10.0, 9.943684 
9.65e+2, 1.2499335e+2, -1719945.9, -1724224.6, 0.001400519, 0.00000013773492, 0.00001763284, -1719945.9, -4880.584, 0.0, 10.0, 9.994327 
9.65e+2, 1.349876e+2, -1622565.4, -1627434.9, -0.00084978814, 0.00000012791025, -0.0000683995, -1622565.4, -5443.8003, 0.0, 10.0, 9.993545 
9.65e+2, 1.4497514e+2, -1534464.0, -1548146.3, 0.00035251942, 0.00000012474688, 0.00007097647, -1534464.0, -15220.306, 0.0, 10.0, 9.981864 
9.65e+2, 1.5495703e+2, -1436736.3, -1450821.9, 0.00038466512, 0.0000001282077, -0.0000569647, -1436736.3, -15315.126, 0.0, 10.0, 9.981333 
9.65e+2, 1.6493228e+2, -1348685.3, -1371952.4, 0.0027814019, 0.00000012953474, 0.000047345442, -1348685.3, -25021.62, 0.0, 10.0, 9.969248 
9.65e+2, 1.7490156e+2, -1250727.3, -1274310.1, 0.00008475011, 0.00000012868318, -0.00007380924, -1250727.3, -24762.596, 0.0, 10.0, 9.968834 
9.65e+2, 1.8486421e+2, -1162646.4, -1195720.1, 0.005151916, 0.00000012727457, 0.00006617052, -1162646.4, -34315.65, 0.0, 10.0, 9.956395 
9.65e+2, 1.9482064e+2, -1064496.6, -1097833.0, 0.00360899, 0.00000012528295, -0.000057641835, -1064496.6, -33738.99, 0.0, 10.0, 9.956052 
9.65e+2, 2.0477042e+2, -976332.6, -1019435.0, 0.0026699528, 0.00000012453646, 0.00006808725, -976332.6, -43082.734, 0.0, 10.0, 9.943291 
9.65e+2, 2.1471375e+2, -878045.56, -921409.9, 0.0010392646, 0.00000012513847, -0.00012681782, -878045.56, -42240.313, 0.0, 10.0, 9.942949 
9.65e+2, 2.2465037e+2, -789759.5, -843144.9, 0.004904392, 0.00000012485746, 0.00012088895, -789759.5, -51333.207, 0.0, 10.0, 9.929908 
9.65e+2, 2.3458035e+2, -691326.0, -744966.44, 0.0030067735, 0.00000012357634, -0.00008881005, -691326.0, -50213.44, 0.0, 10.0, 9.929576 
9.65e+2, 2.4450338e+2, -603001.94, -667018.75, 0.004030489, 0.00000012324281, 0.000074716656, -603001.94, -59135.04, 0.0, 10.0, 9.916136 
9.65e+2, 2.5441962e+2, -504249.25, -568343.3, 0.002057254, 0.00000012404222, -0.00010672851, -504249.25, -57561.7, 0.0, 10.0, 9.916036 
9.65e+2, 2.643288e+2, -416013.84, -490987.88, 0.00228758, 0.00000012380605, 0.00014060063, -416013.84, -66436.17, 0.0, 10.0, 9.901964 
9.65e+2, 2.742313e+2, -316728.63, -391374.75, 0.00021523739, 0.00000012224922, -0.00020344228, -316728.63, -64195.613, 0.0, 10.0, 9.902385 
9.65e+2, 2.841256e+2, -230255.36, -318081.22, 0.0021974759, 0.00000012160372, 0.00022904447, -230255.36, -74686.39, 0.0, 10.0, 9.885438 
9.65e+2, 2.940121e+2, -130549.22, -217765.0, 0.0009624315, 0.00000012221146, -0.0002533456, -130549.22, -71867.83, 0.0, 10.0, 9.886217 
9.65e+2, 3.0392656e+2, -40805.207, -84750.16, 0.00092279975, 0.00000012248658, 0.00017313422, -40805.207, -40805.207, 0.0, 10.0, 9.942173 
9.65e+2, 3.138706e+2, -39727.195, -82511.2, -0.0020992775, 0.00000012225648, -0.00005514109, -39727.195, -39727.195, 0.0, 10.0, 9.943684 
9.75e+2, 1.2499335e+2, -1719945.9, -1724224.6, 0.0004824741, 0.00000013195888, 0.00001764613, -1719945.9, -4880.59, 0.0, 10.0, 9.994327 
9.75e+2, 1.349876e+2, -1622565.4, -1627434.9, -0.0017681336, 0.00000013609231, -0.000068407455, -1622565.4, -5443.806, 0.0, 10.0, 9.993545 
9.75e+2, 1.4497514e+2, -1534464.0, -1548146.3, -0.0004022361, 0.00000013723051, 0.00007096915, -1534464.0, -15220.307, 0.0, 10.0, 9.981864 
9.75e+2, 1.5495703e+2, -1436736.3, -1450821.9, -0.00036989735, 0.00000013527429, -0.00005695512, -1436736.3, -15315.127, 0.0, 10.0, 9.981333 
9.75e+2, 1.6493228e+2, -1348685.3, -1371952.4, 0.0035418335, 0.00000013192299, 0.000047355672, -1348685.3, -25021.627, 0.0, 10.0, 9.969248 
9.75e+2, 1.7490156e+2, -1250727.3, -1274310.1, 0.0008531402, 0.00000012714696, -0.000073814976, -1250727.3, -24762.602, 0.0, 10.0, 9.968834 
9.75e+2, 1.8486421e+2, -1162646.4, -1195720.1, 0.0033902442, 0.00000012786714, 0.00006616176, -1162646.4, -34315.652, 0.0, 10.0, 9.956395 
9.75e+2, 1.9482064e+2, -1064496.6, -1097833.0, 0.0018179889, 0.00000013433853, -0.00005764008, -1064496.6, -33738.992, 0.0, 10.0, 9.956052 
9.75e+2, 2.0477042e+2, -976332.6, -1019435.0, 0.0041191466, 0.00000013394039, 0.00006809276, -976332.6, -43082.74, 0.0, 10.0, 9.943291 
9.75e+2, 2.1471375e+2, -878045.56, -921409.9, 0.00255536, 0.00000012610187, -0.00012681585, -878045.56, -42240.316, 0.0, 10.0, 9.942949 
9.75e+2, 2.2465037e+2, -789759.5, -843144.9, 0.0043640207, 0.00000012371356, 0.000120889694, -789759.5, -51333.21, 0.0, 10.0, 9.929908 
9.75e+2, 2.3458035e+2, -691326.0, -744966.44, 0.0023991184, 0.00000012749722, -0.0000888079, -691326.0, -50213.445, 0.0, 10.0, 9.929576 
9.75e+2, 2.4450338e+2, -603001.94, -667018.75, 0.0037237015, 0.000000129325, 0.00007471732, -603001.94, -59135.047, 0.0, 10.0, 9.916136 
9.75e+2, 2.5441962e+2, -504249.25, -568343.3, 0.0017649268, 0.00000012881002, -0.00010673277, -504249.25, -57561.707, 0.0, 10.0, 9.916036 
9.75e+2, 2.643288e+2, -416013.84, -490987.88, 0.0034147894, 0.00000012728363, 0.0001405968, -416013.84, -66436.17, 0.0, 10.0, 9.901964 
9.75e+2, 2.742313e+2, -316728.63, -391374.75, 0.0014376371, 0.00000012447555, -0.00020343887, -316728.63, -64195.62, 0.0, 10.0, 9.902385 
9.75e+2, 2.841256e+2, -230255.36, -318081.25, 0.0021212404, 0.00000012392532, 0.00022905151, -230255.36, -74686.39, 0.0, 10.0, 9.885438 
9.75e+2, 2.940121e+2, -130549.22, -217765.0, 0.0007692089, 0.00000012647084, -0.0002533399, -130549.22, -71867.83, 0.0, 10.0, 9.886217 
9.75e+2, 3.0392656e+2, -40805.215, -84750.164, 0.0018640126, 0.00000012704375, 0.00017313578, -40805.215, -40805.215, 0.0, 10.0, 9.942173 
9.75e+2, 3.138706e+2, -39727.2, -82511.22, -0.0010248392, 0.00000012465928, -0.00005514783, -39727.2, -39727.2, 0.0, 10.0, 9.943684 
9.85e+2, 1.2499335e+2, -1719945.8, -1724224.6, 0.0030744746, 0.00000013331012, 0.000017647333, -1719945.8, -4880.553, 0.0, 10.0, 9.994327 
9.85e+2, 1.349876e+2, -1622565.4, -1627434.9, 0.0022067584, 0.00000014169653, -0.000068411886, -1622565.4, -5443.779, 0.0, 10.0, 9.993545 
9.85e+2, 1.4497514e+2, -1534463.9, -1548146.3, 0.004130661, 0.00000014380618, 0.0000709671, -1534463.9, -15220.282, 0.0, 10.0, 9.981864 
9.85e+2, 1.5495703e+2, -1436736.3, -1450821.9, -0.00018290964, 0.00000013951677, -0.000056952456, -1436736.3, -15315.097, 0.0, 10.0, 9.981333 
9.85e+2, 1.6493228e+2, -1348685.3, -1371952.4, 0.002974703, 0.00000013525235, 0.000047358844, -1348685.3, -25021.594, 0.0, 10.0, 9.969248 
9.85e+2, 1.7490156e+2, -1250727.3, -1274310.1, 0.0026244728, 0.00000013101314, -0.00007381559, -1250727.3, -24762.572, 0.0, 10.0, 9.968834 
9.85e+2, 1.8486421e+2, -1162646.3, -1195720.1, 0.004152758, 0.00000013179299, 0.000066160246, -1162646.3, -34315.625, 0.0, 10.0, 9.956395 
9.85e+2, 1.9482064e+2, -1064496.5, -1097832.9, 0.00086245453, 0.00000013782478, -0.000057639496, -1064496.5, -33738.957, 0.0, 10.0, 9.956052 
9.85e+2, 2.0477042e+2, -976332.56, -1019435.0, 0.0039589596, 0.00000013750758, 0.00006809447, -976332.56, -43082.703, 0.0, 10.0, 9.943291 
9.85e+2, 2.1471375e+2, -878045.56, -921409.9, 0.0020196987, 0.00000013031377, -0.00012681409, -878045.56, -42240.29, 0.0, 10.0, 9.942949 
9.85e+2, 2.2465037e+2, -789759.44, -843144.9, 0.002480106, 0.00000012809778, 0.00012089099, -789759.44, -51333.184, 0.0, 10.0, 9.929908 
9.85e+2, 2.3458035e+2, -691325.94, -744966.44, 0.0006218764, 0.00000013151885, -0.00008880766, -691325.94, -50213.418, 0.0, 10.0, 9.929576 
9.85e+2, 2.4450338e+2, -603001.9, -667018.75, 0.0027672132, 0.00000013286588, 0.0000747173, -603001.9, -59135.016, 0.0, 10.0, 9.916136 
9.85e+2, 2.5441962e+2, -504249.22, -568343.3, 0.0011569164, 0.00000013172951, -0.00010673207, -504249.22, -57561.67, 0.0, 10.0, 9.916036 
9.85e+2, 2.643288e+2, -416013.8, -490987.88, 0.003109684, 0.0000001303838, 0.0001405977, -416013.8, -66436.14, 0.0, 10.0, 9.901964 
9.85e+2, 2.742313e+2, -316728.6, -391374.75, 0.0007969841, 0.00000012877744, -0.00020343845, -316728.6, -64195.59, 0.0, 10.0, 9.902385 
9.85e+2, 2.841256e+2, -230255.33, -318081.22, 0.0008364069, 0.00000012848007, 0.00022905196, -230255.33, -74686.37, 0.0, 10.0, 9.885438 
9.85e+2, 2.940121e+2, -130549.19, -217765.0, -0.0010193583, 0.00000012997509, -0.00025333877, -130549.19, -71867.8, 0.0, 10.0, 9.886217 
9.85e+2, 3.0392656e+2, -40805.184, -84750.16, 0.0013432954, 0.00000013028726, 0.0001731362, -40805.184, -40805.184, 0.0, 10.0, 9.942173 
9.85e+2, 3.138706e+2, -39727.17, -82511.21, 0.001526332, 0.00000012882664, -0.00005515024, -39727.17, -39727.17, 0.0, 10.0, 9.943684 
9.95e+2, 1.2499335e+2, -1719945.8, -1724224.6, -0.000046095753, 0.00000014178862, 0.000017636445, -1719945.8, -4880.556, 0.0, 10.0, 9.994327 
9.95e+2, 1.349876e+2, -1622565.4, -1627434.9, -0.00091462187, 0.00000014472293, -0.000068412795, -1622565.4, -5443.7817, 0.0, 10.0, 9.993545 
9.95e+2, 1.4497514e+2, -1534463.9, -1548146.3, 0.004878776, 0.00000014447387, 0.000070970316, -1534463.9, -15220.293, 0.0, 10.0, 9.981864 
9.95e+2, 1.5495703e+2, -1436736.3, -1450821.9, 0.00057128747, 0.00000014093516, -0.000056956713, -1436736.3, -15315.106, 0.0, 10.0, 9.981333 
9.95e+2, 1.6493228e+2, -1348685.3, -1371952.4, 0.002797761, 0.00000013952284, 0.000047354963, -1348685.3, -25021.594, 0.0, 10.0, 9.969248 
9.95e+2, 1.7490156e+2, -1250727.3, -1274310.1, 0.0024425671, 0.00000014028166, -0.00007381107, -1250727.3, -24762.574, 0.0, 10.0, 9.968834 
9.95e+2, 1.8486421e+2, -1162646.3, -1195720.1, 0.00374328, 0.0000001390521, 0.00006616597, -1162646.3, -34315.633, 0.0, 10.0, 9.956395 
9.95e+2, 1.9482064e+2, -1064496.5, -1097833.0, 0.0004503068, 0.00000013574173, -0.000057640078, -1064496.5, -33738.965, 0.0, 10.0, 9.956052 
9.95e+2, 2.0477042e+2, -976332.56, -1019435.0, 0.0040690172, 0.00000013523805, 0.00006809237, -976332.56, -43082.71, 0.0, 10.0, 9.943291 
9.95e+2, 2.1471375e+2, -878045.56, -921409.9, 0.0021405264, 0.00000013777418, -0.00012681252, -878045.56, -42240.293, 0.0, 10.0, 9.942949 
9.95e+2, 2.2465037e+2, -789759.44, -843144.9, 0.002271944, 0.0000001380101, 0.00012089285, -789759.44, -51333.188, 0.0, 10.0, 9.929908 
9.95e+2, 2.3458035e+2, -691325.94, -744966.44, 0.0004029369, 0.0000001356412, -0.000088809335, -691325.94, -50213.42, 0.0, 10.0, 9.929576 
9.95e+2, 2.4450338e+2, -603001.9, -667018.75, 0.0034455026, 0.00000013386543, 0.000074716605, -603001.9, -59135.02, 0.0, 10.0, 9.916136 
9.95e+2, 2.5441962e+2, -504249.22, -568343.3, 0.0018783269, 0.00000013280071, -0.00010672643, -504249.22, -57561.676, 0.0, 10.0, 9.916036 
9.95e+2, 2.643288e+2, -416013.8, -490987.88, 0.0029747738, 0.00000013310657, 0.0001406033, -416013.8, -66436.15, 0.0, 10.0, 9.901964 
9.95e+2, 2.742313e+2, -316728.6, -391374.75, 0.00060467934, 0.00000013515492, -0.00020344098, -316728.6, -64195.598, 0.0, 10.0, 9.902385 
9.95e+2, 2.841256e+2, -230255.33, -318081.25, 0.0014829638, 0.00000013526794, 0.00022904584, -230255.33, -74686.37, 0.0, 10.0, 9.885438 
9.95e+2, 2.940121e+2, -130549.195, -217765.0, -0.00029719033, 0.00000013272422, -0.00025334218, -130549.195, -71867.805, 0.0, 10.0, 9.886217 
9.95e+2, 3.0392656e+2, -40805.184, -84750.16, 0.0015479177, 0.00000013221714, 0.00017313547, -40805.184, -40805.184, 0.0, 10.0, 9.942173 
9.95e+2, 3.138706e+2, -39727.17, -82511.21, 0.0016702382, 0.00000013475854, -0.00005514832, -39727.17, -39727.17, 0.0, 10.0, 9.943684 
1.005e+3, 1.2499335e+2, -1719945.8, -1724224.6, 0.0022140325, 0.00000015076256, 0.000017635852, -1719945.8, -4880.537, 0.0, 10.0, 9.994327 
1.005e+3, 1.349876e+2, -1622565.3, -1627434.9, -0.0017300319, 0.00000014676591, -0.00006841175, -1622565.3, -5443.7407, 0.0, 10.0, 9.993545 
1.005e+3, 1.4497514e+2, -1534463.9, -1548146.3, 0.0040839114, 0.00000014457983, 0.00007097312, -1534463.9, -15220.247, 0.0, 10.0, 9.981864 
1.005e+3, 1.5495703e+2, -1436736.3, -1450821.9, 0.0026963206, 0.00000014412628, -0.00005695769, -1436736.3, -15315.071, 0.0, 10.0, 9.981333 
1.005e+3, 1.6493228e+2, -1348685.3, -1371952.4, 0.00463141, 0.0000001446675, 0.000047353926, -1348685.3, -25021.563, 0.0, 10.0, 9.969248 
1.005e+3, 1.7490156e+2, -1250727.3, -1274310.1, 0.0006589517, 0.00000014622455, -0.00007380837, -1250727.3, -24762.545, 0.0, 10.0, 9.968834 
1.005e+3, 1.8486421e+2, -1162646.3, -1195720.1, 0.0020025915, 0.00000014407622, 0.000066169094, -1162646.3, -34315.6, 0.0, 10.0, 9.956395 
1.005e+3, 1.9482064e+2, -1064496.5, -1097832.9, 0.0012491869, 0.00000013805035, -0.00005764, -1064496.5, -33738.93, 0.0, 10.0, 9.956052 
1.005e+3, 2.0477042e+2, -976332.56, -1019435.0, 0.0050040907, 0.00000013757868, 0.000068091314, -976332.56, -43082.676, 0.0, 10.0, 9.943291 
1.005e+3, 2.1471375e+2, -878045.56, -921409.9, 0.0025362403, 0.0000001431225, -0.00012681264, -878045.56, -42240.266, 0.0, 10.0, 9.942949 
1.005e+3, 2.2465037e+2, -789759.44, -843144.9, 0.0037369155, 0.00000014384592, 0.00012089316, -789759.44, -51333.16, 0.0, 10.0, 9.929908 
1.005e+3, 2.3458035e+2, -691325.94, -744966.44, 0.002153436, 0.00000013911074, -0.00008880918, -691325.94, -50213.387, 0.0, 10.0, 9.929576 
1.005e+3, 2.4450338e+2, -603001.9, -667018.75, 0.004176787, 0.00000013658804, 0.00007471681, -603001.9, -59134.984, 0.0, 10.0, 9.916136 
1.005e+3, 2.5441962e+2, -504249.2, -568343.3, 0.0009804226, 0.00000013671372, -0.00010672592, -504249.2, -57561.645, 0.0, 10.0, 9.916036 
1.005e+3, 2.643288e+2, -416013.78, -490987.88, 0.001949603, 0.000000137586, 0.00014060354, -416013.78, -66436.12, 0.0, 10.0, 9.901964 
1.005e+3, 2.742313e+2, -316728.56, -391374.75, 0.0014840957, 0.00000013940209, -0.00020344177, -316728.56, -64195.566, 0.0, 10.0, 9.902385 
1.005e+3, 2.841256e+2, -230255.3, -318081.22, 0.0038139967, 0.0000001393645, 0.00022904451, -230255.3, -74686.336, 0.0, 10.0, 9.885438 
1.005e+3, 2.940121e+2, -130549.164, -217765.0, 0.001531377, 0.00000013678572, -0.0002533434, -130549.164, -71867.77, 0.0, 10.0, 9.886217 
1.005e+3, 3.0392656e+2, -40805.152, -84750.15, 0.0011749557, 0.00000013611265, 0.00017313533, -40805.152, -40805.152, 0.0, 10.0, 9.942173 
1.005e+3, 3.138706e+2, -39727.14, -82511.2, -0.002820848, 0.00000013829282, -0.000055146007, -39727.14, -39727.14, 0.0, 10.0, 9.943684 
1.015e+3, 1.2499335e+2, -1719945.8, -1724224.6, 0.0042472524, 0.00000016023193, 0.000017645552, -1719945.8, -4880.5474, 0.0, 10.0, 9.994327 
1.015e+3, 1.349876e+2, -1622565.3, -1627434.9, 0.00030359154, 0.00000014782546, -0.00006840874, -1622565.3, -5443.7505, 0.0, 10.0, 9.993545 
1.015e+3, 1.4497514e+2, -1534463.9, -1548146.3, 0.002472542, 0.00000014412403, 0.0000709755, -1534463.9, -15220.251, 0.0, 10.0, 9.981864 
1.015e+3, 1.5495703e+2, -1436736.3, -1450821.9, 0.0010791154, 0.0000001490901, -0.000056955392, -1436736.3, -15315.075, 0.0, 10.0, 9.981333 
1.015e+3, 1.6493228e+2, -1348685.3, -1371952.4, 0.0039722077, 0.0000001506863, 0.00004735573, -1348685.3, -25021.572, 0.0, 10.0, 9.969248 
1.015e+3, 1.7490156e+2, -1250727.3, -1274310.1, 0.000004762034, 0.00000014884182, -0.00007380749, -1250727.3, -24762.555, 0.0, 10.0, 9.968834 
1.015e+3, 1.8486421e+2, -1162646.3, -1195720.1, 0.0029029525, 0.00000014686535, 0.00006616961, -1162646.3, -34315.6, 0.0, 10.0, 9.956395 
1.015e+3, 1.9482064e+2, -1064496.5, -1097833.0, 0.0021675145, 0.00000014475064, -0.000057639263, -1064496.5, -33738.934, 0.0, 10.0, 9.956052 
1.015e+3, 2.0477042e+2, -976332.56, -1019435.0, 0.0035291591, 0.00000014452941, 0.0000680913, -976332.56, -43082.68, 0.0, 10.0, 9.94329 
1.015e+3, 2.1471375e+2, -878045.56, -921409.9, 0.0010118508, 0.00000014635876, -0.00012681444, -878045.56, -42240.27, 0.0, 10.0, 9.942949 
1.015e+3, 2.2465037e+2, -789759.44, -843144.9, 0.0049985712, 0.0000001456053, 0.000120891906, -789759.44, -51333.164, 0.0, 10.0, 9.929908 
1.015e+3, 2.3458035e+2, -691325.94, -744966.44, 0.0035062288, 0.00000014192743, -0.00008880722, -691325.94, -50213.39, 0.0, 10.0, 9.929576 
1.015e+3, 2.4450338e+2, -603001.9, -667018.75, 0.003785558, 0.00000014103371, 0.000074717915, -603001.9, -59134.992, 0.0, 10.0, 9.916136 
1.015e+3, 2.5441962e+2, -504249.2, -568343.3, 0.0005053883, 0.00000014346854, -0.00010673054, -504249.2, -57561.652, 0.0, 10.0, 9.916036 
1.015e+3, 2.643288e+2, -416013.78, -490987.88, 0.0022115489, 0.0000001438221, 0.0001405984, -416013.78, -66436.12, 0.0, 10.0, 9.901964 
1.015e+3, 2.742313e+2, -316728.56, -391374.75, 0.0017954614, 0.00000014151897, -0.0002034408, -316728.56, -64195.566, 0.0, 10.0, 9.902385 
1.015e+3, 2.841256e+2, -230255.31, -318081.25, 0.0044310973, 0.00000014076976, 0.00022904799, -230255.31, -74686.34, 0.0, 10.0, 9.885438 
1.015e+3, 2.940121e+2, -130549.17, -217765.0, 0.0021760575, 0.00000014215956, -0.0002533424, -130549.17, -71867.78, 0.0, 10.0, 9.886217 
1.015e+3, 3.0392656e+2, -40805.16, -84750.164, 0.0019221514, 0.00000014197377, 0.00017313575, -40805.16, -40805.16, 0.0, 10.0, 9.942173 
1.015e+3, 3.138706e+2, -39727.15, -82511.22, -0.0020615687, 0.0000001394295, -0.0000551433, -39727.15, -39727.15, 0.0, 10.0, 9.943684 
1.025e+3, 1.2499335e+2, -1719945.8, -1724224.6, 0.000021482712, 0.0000001635392, 0.000017650495, -1719945.8, -4880.505, 0.0, 10.0, 9.994327 
1.025e+3, 1.349876e+2, -1622565.3, -1627434.9, -0.00049272494, 0.00000015327106, -0.000068406924, -1622565.3, -5443.7197, 0.0, 10.0, 9.993545 
1.025e+3, 1.4497514e+2, -1534463.9, -1548146.3, 0.0010359621, 0.00000014998842, 0.000070978254, -1534463.9, -15220.222, 0.0, 10.0, 9.981864 
1.025e+3, 1.5495703e+2, -1436736.1, -1450821.9, -0.001736431, 0.00000015364074, -0.000056953053, -1436736.1, -15315.041, 0.0, 10.0, 9.981333 
1.025e+3, 1.6493228e+2, -1348685.3, -1371952.4, 0.0023607656, 0.00000015439383, 0.00004735697, -1348685.3, -25021.537, 0.0, 10.0, 9.969248 
1.025e+3, 1.7490156e+2, -1250727.3, -1274310.1, 0.0014294205, 0.00000015218666, -0.000073808034, -1250727.3, -24762.518, 0.0, 10.0, 9.968834 
1.025e+3, 1.8486421e+2, -1162646.3, -1195720.1, 0.0052987677, 0.0000001510752, 0.00006616903, -1162646.3, -34315.566, 0.0, 10.0, 9.956395 
1.025e+3, 1.9482064e+2, -1064496.5, -1097832.9, 0.0022019432, 0.0000001511102, -0.000057638044, -1064496.5, -33738.902, 0.0, 10.0, 9.956052 
1.025e+3, 2.0477042e+2, -976332.5, -1019435.0, 0.002319618, 0.00000015037479, 0.000068092806, -976332.5, -43082.652, 0.0, 10.0, 9.94329 
1.025e+3, 2.1471375e+2, -878045.5, -921409.9, 0.0003684142, 0.0000001488048, -0.0001268143, -878045.5, -42240.23, 0.0, 10.0, 9.942949 
1.025e+3, 2.2465037e+2, -789759.4, -843144.8, 0.0042671226, 0.00000014765763, 0.00012089222, -789759.4, -51333.125, 0.0, 10.0, 9.929908 
1.025e+3, 2.3458035e+2, -691325.9, -744966.44, 0.0010233978, 0.0000001469892, -0.00008880502, -691325.9, -50213.36, 0.0, 10.0, 9.929576 
1.025e+3, 2.4450338e+2, -603001.8, -667018.75, 0.0017547465, 0.00000014706386, 0.00007471974, -603001.8, -59134.96, 0.0, 10.0, 9.916136 
1.025e+3, 2.5441962e+2, -504249.16, -568343.3, 0.0018913999, 0.00000014802558, -0.00010673177, -504249.16, -57561.617, 0.0, 10.0, 9.916036 
1.025e+3, 2.643288e+2, -416013.75, -490987.88, 0.004060296, 0.00000014750718, 0.0001405968, -416013.75, -66436.086, 0.0, 10.0, 9.901964 
1.025e+3, 2.742313e+2, -316728.53, -391374.75, -0.0004405951, 0.0000001451029, -0.00020343933, -316728.53, -64195.53, 0.0, 10.0, 9.902385 
1.025e+3, 2.841256e+2, -230255.27, -318081.22, 0.00010899146, 0.00000014446334, 0.00022905081, -230255.27, -74686.305, 0.0, 10.0, 9.885438 
1.025e+3, 2.940121e+2, -130549.13, -217765.0, -0.0014625652, 0.0000001462476, -0.00025334058, -130549.13, -71867.74, 0.0, 10.0, 9.886217 
1.025e+3, 3.0392656e+2, -40805.13, -84750.16, 0.0005534331, 0.00000014626599, 0.00017313611, -40805.13, -40805.13, 0.0, 10.0, 9.942173 
1.025e+3, 3.138706e+2, -39727.113, -82511.21, 0.0005242209, 0.0000001436405, -0.000055145072, -39727.113, -39727.113, 0.0, 10.0, 9.943684 
1.035e+3, 1.2499335e+2, -1719945.8, -1724224.6, -0.0005194926, 0.0000001606844, 0.000017650682, -1719945.8, -4880.507, 0.0, 10.0, 9.994327 
1.035e+3, 1.349876e+2, -1622565.3, -1627434.9, -0.0010339518, 0.00000016310265, -0.000068406276, -1622565.3, -5443.7217, 0.0, 10.0, 9.993545 
1.035e+3, 1.4497514e+2, -1534463.9, -1548146.3, 0.000789427, 0.00000016217297, 0.0000709814, -1534463.9, -15220.2295, 0.0, 10.0, 9.981864 
1.035e+3, 1.5495703e+2, -1436736.1, -1450821.9, -0.0019825667, 0.00000015777823, -0.000056950677, -1436736.1, -15315.048, 0.0, 10.0, 9.981333 
1.035e+3, 1.6493228e+2, -1348685.3, -1371952.4, 0.0019657337, 0.00000015579008, 0.000047357647, -1348685.3, -25021.54, 0.0, 10.0, 9.969248 
1.035e+3, 1.7490156e+2, -1250727.3, -1274310.1, 0.001033553, 0.00000015625905, -0.000073810006, -1250727.3, -24762.52, 0.0, 10.0, 9.968834 
1.035e+3, 1.8486421e+2, -1162646.3, -1195720.1, 0.0044845063, 0.00000015670575, 0.00006616735, -1162646.3, -34315.574, 0.0, 10.0, 9.956395 
1.035e+3, 1.9482064e+2, -1064496.5, -1097833.0, 0.0013828014, 0.00000015712907, -0.000057636353, -1064496.5, -33738.91, 0.0, 10.0, 9.956052 
1.035e+3, 2.0477042e+2, -976332.56, -1019435.0, 0.0033256656, 0.00000015511483, 0.00006809581, -976332.56, -43082.656, 0.0, 10.0, 9.94329 
1.035e+3, 2.1471375e+2, -878045.5, -921409.9, 0.0014121364, 0.00000015046064, -0.0001268122, -878045.5, -42240.24, 0.0, 10.0, 9.942949 
1.035e+3, 2.2465037e+2, -789759.4, -843144.9, 0.0033974499, 0.00000015000289, 0.000120894096, -789759.4, -51333.133, 0.0, 10.0, 9.929908 
1.035e+3, 2.3458035e+2, -691325.9, -744966.44, 0.000091121634, 0.000000154296, -0.00008880259, -691325.9, -50213.367, 0.0, 10.0, 9.929576 
1.035e+3, 2.4450338e+2, -603001.8, -667018.75, 0.002293631, 0.0000001546785, 0.000074722295, -603001.8, -59134.96, 0.0, 10.0, 9.916136 
1.035e+3, 2.5441962e+2, -504249.16, -568343.3, 0.002500975, 0.00000015038484, -0.0001067296, -504249.16, -57561.617, 0.0, 10.0, 9.916036 
1.035e+3, 2.643288e+2, -416013.75, -490987.88, 0.0046150903, 0.00000014864125, 0.00014059876, -416013.75, -66436.09, 0.0, 10.0, 9.901964 
1.035e+3, 2.742313e+2, -316728.53, -391374.78, 0.00011055119, 0.00000015015385, -0.00020343735, -316728.53, -64195.54, 0.0, 10.0, 9.902385 
1.035e+3, 2.841256e+2, -230255.28, -318081.25, 0.0004053947, 0.00000015044525, 0.000229053, -230255.28, -74686.31, 0.0, 10.0, 9.885438 
1.035e+3, 2.940121e+2, -130549.14, -217765.0, -0.0011890912, 0.00000014904984, -0.0002533379, -130549.14, -71867.75, 0.0, 10.0, 9.886217 
1.035e+3, 3.0392656e+2, -40805.13, -84750.16, 0.0011856216, 0.00000014898929, 0.00017313642, -40805.13, -40805.13, 0.0, 10.0, 9.942173 
1.035e+3, 3.138706e+2, -39727.117, -82511.21, 0.0011985651, 0.0000001509258, -0.00005515132, -39727.117, -39727.117, 0.0, 10.0, 9.943684 
1.045e+3, 1.2499335e+2, -1719945.8, -1724224.6, 0.0052226917, 0.00000016309453, 0.000017649076, -1719945.8, -4880.464, 0.0, 10.000001, 9.994327 
1.045e+3, 1.349876e+2, -1622565.3, -1627434.9, 0.0005259317, 0.00000016903793, -0.00006840649, -1622565.3, -5443.6865, 0.0, 10.0, 9.993545 
1.045e+3, 1.4497514e+2, -1534463.9, -1548146.3, 0.0025225247, 0.00000016909782, 0.00007098338, -1534463.9, -15220.195, 0.0, 10.0, 9.981864 
1.045e+3, 1.5495703e+2, -1436736.1, -1450821.9, 0.0013265384, 0.00000016313923, -0.00005695091, -1436736.1, -15315.012, 0.0, 10.0, 9.981333 
1.045e+3, 1.6493228e+2, -1348685.1, -1371952.4, 0.0043482063, 0.00000016028883, 0.000047357076, -1348685.1, -25021.502, 0.0, 10.0, 9.969248 
1.045e+3, 1.7490156e+2, -1250727.1, -1274310.1, 0.0007411969, 0.00000016061188, -0.000073809, -1250727.1, -24762.484, 0.0, 10.0, 9.968834 
1.045e+3, 1.8486421e+2, -1162646.3, -1195720.1, 0.0031037817, 0.00000016103476, 0.00006616886, -1162646.3, -34315.54, 0.0, 10.0, 9.956395 
1.045e+3, 1.9482064e+2, -1064496.5, -1097832.9, 0.00085690897, 0.000000161562, -0.000057635447, -1064496.5, -33738.87, 0.0, 10.0, 9.956052 
1.045e+3, 2.0477042e+2, -976332.5, -1019435.0, 0.004074929, 0.00000015965976, 0.00006809667, -976332.5, -43082.617, 0.0, 10.0, 9.94329 
1.045e+3, 2.1471375e+2, -878045.5, -921409.8, 0.0015952743, 0.00000015512629, -0.00012681079, -878045.5, -42240.203, 0.0, 10.0, 9.942949 
1.045e+3, 2.2465037e+2, -789759.4, -843144.9, 0.002976134, 0.00000015468504, 0.00012089467, -789759.4, -51333.098, 0.0, 10.0, 9.929908 
1.045e+3, 2.3458035e+2, -691325.9, -744966.44, 0.0017080988, 0.00000015887676, -0.000088804416, -691325.9, -50213.332, 0.0, 10.0, 9.929576 
1.045e+3, 2.4450338e+2, -603001.8, -667018.75, 0.004120507, 0.00000015906994, 0.000074721036, -603001.8, -59134.926, 0.0, 10.0, 9.916136 
1.045e+3, 2.5441962e+2, -504249.13, -568343.25, -0.00056604005, 0.00000015448201, -0.000106726766, -504249.13, -57561.582, 0.0, 10.0, 9.916036 
1.045e+3, 2.643288e+2, -416013.72, -490987.88, 0.00042546747, 0.00000015276947, 0.00014060218, -416013.72, -66436.055, 0.0, 10.0, 9.901964 
1.045e+3, 2.742313e+2, -316728.5, -391374.75, 0.00058580184, 0.00000015472742, -0.00020343784, -316728.5, -64195.508, 0.0, 10.0, 9.902385 
1.045e+3, 2.841256e+2, -230255.23, -318081.22, 0.0033971998, 0.00000015516838, 0.00022905067, -230255.23, -74686.27, 0.0, 10.0, 9.885438 
1.045e+3, 2.940121e+2, -130549.1, -217764.98, 0.0009962989, 0.00000015351591, -0.0002533392, -130549.1, -71867.71, 0.0, 10.0, 9.886217 
1.045e+3, 3.0392656e+2, -40805.094, -84750.15, 0.0016125949, 0.00000015330855, 0.00017313633, -40805.094, -40805.094, 0.0, 10.0, 9.942173 
1.045e+3, 3.138706e+2, -39727.082, -82511.2, -0.0019819932, 0.00000015526574, -0.000055149914, -39727.082, -39727.082, 0.0, 10.0, 9.943684 
1.055e+3, 1.2499335e+2, -1719945.8, -1724224.6, 0.0028333005, 0.00000017076955, 0.000017645678, -1719945.8, -4880.4756, 0.0, 10.000001, 9.994327 
1.055e+3, 1.349876e+2, -1622565.3, -1627434.9, -0.0018641817, 0.0000001710769, -0.00006840754, -1622565.3, -5443.698, 0.0, 10.0, 9.993545 
1.055e+3, 1.4497514e+2, -1534463.9, -1548146.3, 0.0028071292, 0.00000017076299, 0.00007098419, -1534463.9, -15220.199, 0.0, 10.0, 9.981864 
1.055e+3, 1.5495703e+2, -1436736.1, -1450821.9, 0.0016153133, 0.00000016972376, -0.000056953755, -1436736.1, -15315.016, 0.0, 10.0, 9.981333 
1.055e+3, 1.6493228e+2, -1348685.3, -1371952.4, 0.0039676013, 0.0000001678901, 0.00004735525, -1348685.3, -25021.512, 0.0, 10.0, 9.969248 
1.055e+3, 1.7490156e+2, -1250727.1, -1274310.1, 0.00035700877, 0.00000016524514, -0.00007380503, -1250727.1, -24762.492, 0.0, 10.0, 9.968834 
1.055e+3, 1.8486421e+2, -1162646.3, -1195720.1, 0.0028639862, 0.00000016406221, 0.00006617356, -1162646.3, -34315.543, 0.0, 10.0, 9.956395 
1.055e+3, 1.9482064e+2, -1064496.5, -1097833.0, 0.0006187499, 0.00000016440903, -0.000057635327, -1064496.5, -33738.88, 0.0, 10.0, 9.956052 
1.055e+3, 2.0477042e+2, -976332.5, -1019435.0, 0.0042343065, 0.00000016400959, 0.000068095374, -976332.5, -43082.62, 0.0, 10.0, 9.94329 
1.055e+3, 2.1471375e+2, -878045.5, -921409.9, 0.0017628415, 0.00000016280173, -0.00012681008, -878045.5, -42240.207, 0.0, 10.0, 9.942949 
1.055e+3, 2.2465037e+2, -789759.4, -843144.9, 0.0025269995, 0.0000001617041, 0.00012089394, -789759.4, -51333.1, 0.0, 10.0, 9.929908 
1.055e+3, 2.3458035e+2, -691325.9, -744966.44, 0.0012387707, 0.00000016073149, -0.000088810484, -691325.9, -50213.336, 0.0, 10.0, 9.929576 
1.055e+3, 2.4450338e+2, -603001.8, -667018.75, 0.0048339684, 0.00000016023819, 0.000074715965, -603001.8, -59134.934, 0.0, 10.0, 9.916136 
1.055e+3, 2.5441962e+2, -504249.16, -568343.3, 0.0002042735, 0.0000001603171, -0.00010672326, -504249.16, -57561.59, 0.0, 10.0, 9.916036 
1.055e+3, 2.643288e+2, -416013.72, -490987.88, 0.00047459884, 0.00000015989187, 0.00014060705, -416013.72, -66436.055, 0.0, 10.0, 9.901964 
1.055e+3, 2.742313e+2, -316728.5, -391374.75, 0.00058658596, 0.00000015882355, -0.0002034408, -316728.5, -64195.508, 0.0, 10.0, 9.902385 
1.055e+3, 2.841256e+2, -230255.25, -318081.25, 0.0039150505, 0.00000015863274, 0.00022904384, -230255.25, -74686.28, 0.0, 10.0, 9.885438 
1.055e+3, 2.940121e+2, -130549.11, -217765.0, 0.0015607679, 0.0000001596458, -0.00025334448, -130549.11, -71867.72, 0.0, 10.0, 9.886217 
1.055e+3, 3.0392656e+2, -40805.1, -84750.164, 0.0022570442, 0.00000015922377, 0.00017313586, -40805.1, -40805.1, 0.0, 10.0, 9.942172 
1.055e+3, 3.138706e+2, -39727.09, -82511.22, -0.0013281055, 0.00000015666032, -0.00005514086, -39727.09, -39727.09, 0.0, 10.0, 9.943684 
1.065e+3, 1.2499335e+2, -1719945.6, -1724224.6, 0.00045136828, 0.00000017783547, 0.000017648588, -1719945.6, -4880.4414, 0.0, 10.000001, 9.994327 
1.065e+3, 1.349876e+2, -1622565.3, -1627434.9, -0.00073425693, 0.00000017487405, -0.00006840904, -1622565.3, -5443.6543, 0.0, 10.000001, 9.993545 
1.065e+3, 1.4497514e+2, -1534463.8, -1548146.3, 0.004903049, 0.00000017388814, 0.000070984, -1534463.8, -15220.153, 0.0, 10.000001, 9.981864 
1.065e+3, 1.5495703e+2, -1436736.1, -1450821.9, 0.00051451783, 0.0000001747879, -0.000056951692, -1436736.1, -15314.977, 0.0, 10.000001, 9.981333 
1.065e+3, 1.6493228e+2, -1348685.1, -1371952.4, 0.0024450256, 0.00000017370348, 0.00004735785, -1348685.1, -25021.475, 0.0, 10.000001, 9.969248 
1.065e+3, 1.7490156e+2, -1250727.1, -1274310.1, 0.00048671867, 0.00000017059304, -0.00007380363, -1250727.1, -24762.453, 0.0, 10.000001, 9.968834 
1.065e+3, 1.8486421e+2, -1162646.1, -1195720.1, 0.0033777908, 0.00000016866655, 0.00006617428, -1162646.1, -34315.504, 0.0, 10.000001, 9.956395 
1.065e+3, 1.9482064e+2, -1064496.4, -1097832.9, 0.00068534765, 0.00000016797877, -0.00005763473, -1064496.4, -33738.836, 0.0, 10.000001, 9.956052 
1.065e+3, 2.0477042e+2, -976332.44, -1019435.0, 0.0041810623, 0.00000016825162, 0.00006809578, -976332.44, -43082.586, 0.0, 10.000001, 9.94329 
1.065e+3, 2.1471375e+2, -878045.44, -921409.8, 0.0020343137, 0.00000016956463, -0.00012680993, -878045.44, -42240.176, 0.0, 10.000001, 9.942949 
1.065e+3, 2.2465037e+2, -789759.3, -843144.8, 0.0029879336, 0.00000016825952, 0.00012089458, -789759.3, -51333.066, 0.0, 10.000001, 9.929908 
1.065e+3, 2.3458035e+2, -691325.8, -744966.44, -0.00014168037, 0.00000016399045, -0.00008880851, -691325.8, -50213.293, 0.0, 10.000001, 9.929576 
1.065e+3, 2.4450338e+2, -603001.75, -667018.75, 0.003463734, 0.00000016287446, 0.00007471734, -603001.75, -59134.895, 0.0, 10.000001, 9.916136 
1.065e+3, 2.5441962e+2, -504249.1, -568343.3, 0.0025976242, 0.00000016552764, -0.00010672478, -504249.1, -57561.56, 0.0, 10.000001, 9.916036 
1.065e+3, 2.643288e+2, -416013.7, -490987.88, 0.0039745695, 0.00000016602138, 0.00014060497, -416013.7, -66436.02, 0.0, 10.000001, 9.901964 
1.065e+3, 2.742313e+2, -316728.47, -391374.75, 0.0002835582, 0.00000016375796, -0.00020344046, -316728.47, -64195.47, 0.0, 10.000001, 9.902385 
1.065e+3, 2.841256e+2, -230255.2, -318081.22, 0.0013223126, 0.00000016285559, 0.00022904541, -230255.2, -74686.24, 0.0, 10.000001, 9.885438 
1.065e+3, 2.940121e+2, -130549.07, -217764.98, -0.001116523, 0.00000016382877, -0.0002533433, -130549.07, -71867.68, 0.0, 10.000001, 9.886217 
1.065e+3, 3.0392656e+2, -40805.063, -84750.16, 0.00070574234, 0.00000016354971, 0.00017313618, -40805.063, -40805.063, 0.0, 10.000001, 9.942172 
1.065e+3, 3.138706e+2, -39727.05, -82511.21, -0.00056539965, 0.00000016139464, -0.00005514199, -39727.05, -39727.05, 0.0, 10.000001, 9.943684 
1.075e+3, 1.2499335e+2, -1719945.6, -1724224.6, 0.00033076073, 0.00000018429228, 0.000017657807, -1719945.6, -4880.4453, 0.0, 10.000001, 9.994327 
1.075e+3, 1.349876e+2, -1622565.3, -1627434.9, -0.00085512974, 0.00000018042937, -0.000068410984, -1622565.3, -5443.658, 0.0, 10.000001, 9.993545 
1.075e+3, 1.4497514e+2, -1534463.8, -1548146.3, 0.0036845612, 0.00000017847326, 0.00007098281, -1534463.8, -15220.164, 0.0, 10.000001, 9.981864 
1.075e+3, 1.5495703e+2, -1436736.1, -1450821.9, -0.0007057733, 0.00000017833166, -0.000056944722, -1436736.1, -15314.987, 0.0, 10.000001, 9.981333 
1.075e+3, 1.6493228e+2, -1348685.1, -1371952.4, 0.0026598137, 0.00000017772902, 0.000047364883, -1348685.1, -25021.48, 0.0, 10.000001, 9.969248 
1.075e+3, 1.7490156e+2, -1250727.1, -1274310.1, 0.0007090313, 0.00000017665558, -0.00007380482, -1250727.1, -24762.459, 0.0, 10.000001, 9.968834 
1.075e+3, 1.8486421e+2, -1162646.1, -1195720.1, 0.002965055, 0.00000017484771, 0.000066171015, -1162646.1, -34315.508, 0.0, 10.000001, 9.956395 
1.075e+3, 1.9482064e+2, -1064496.4, -1097833.0, 0.0002652201, 0.0000001722712, -0.000057633657, -1064496.4, -33738.844, 0.0, 10.000001, 9.956052 
1.075e+3, 2.0477042e+2, -976332.44, -1019435.0, 0.0032724356, 0.00000017238582, 0.0000680979, -976332.44, -43082.59, 0.0, 10.000001, 9.94329 
1.075e+3, 2.1471375e+2, -878045.44, -921409.9, 0.001115572, 0.00000017541501, -0.00012681034, -878045.44, -42240.18, 0.0, 10.000001, 9.942949 
1.075e+3, 2.2465037e+2, -789759.3, -843144.9, 0.0044692126, 0.00000017435133, 0.00012089659, -789759.3, -51333.074, 0.0, 10.000001, 9.929908 
1.075e+3, 2.3458035e+2, -691325.8, -744966.44, 0.0014181058, 0.00000016865367, -0.00008879851, -691325.8, -50213.3, 0.0, 10.000001, 9.929576 
1.075e+3, 2.4450338e+2, -603001.75, -667018.75, 0.002454193, 0.00000016697874, 0.00007472516, -603001.75, -59134.895, 0.0, 10.000001, 9.916136 
1.075e+3, 2.5441962e+2, -504249.1, -568343.3, 0.0014646058, 0.00000017011361, -0.00010673132, -504249.1, -57561.56, 0.0, 10.000001, 9.916036 
1.075e+3, 2.643288e+2, -416013.7, -490987.88, 0.004876094, 0.00000017115804, 0.00014059595, -416013.7, -66436.03, 0.0, 10.000001, 9.901964 
1.075e+3, 2.742313e+2, -316728.47, -391374.75, 0.0013215054, 0.00000016953061, -0.00020343681, -316728.47, -64195.477, 0.0, 10.000001, 9.902385 
1.075e+3, 2.841256e+2, -230255.22, -318081.25, 0.0018175602, 0.00000016783689, 0.0002290554, -230255.22, -74686.25, 0.0, 10.000001, 9.885438 
1.075e+3, 2.940121e+2, -130549.08, -217765.0, -0.000670152, 0.00000016606485, -0.00025333572, -130549.08, -71867.69, 0.0, 10.000001, 9.886217 
1.075e+3, 3.0392656e+2, -40805.066, -84750.164, 0.0014933819, 0.0000001662864, 0.0001731373, -40805.066, -40805.066, 0.0, 10.000001, 9.942172 
1.075e+3, 3.138706e+2, -39727.055, -82511.21, 0.0002623522, 0.00000016946868, -0.00005515331, -39727.055, -39727.055, 0.0, 10.000001, 9.943684 
1.085e+3, 1.2499335e+2, -1719945.6, -1724224.6, 0.002800374, 0.00000019141252, 0.000017659444, -1719945.6, -4880.405, 0.0, 10.000001, 9.994327 
1.085e+3, 1.349876e+2, -1622565.1, -1627434.9, -0.0008776796, 0.00000018538867, -0.0000684093, -1622565.1, -5443.616, 0.0, 10.000001, 9.993545 
1.085e+3, 1.4497514e+2, -1534463.8, -1548146.3, 0.0024038318, 0.00000018254352, 0.00007098573, -1534463.8, -15220.123, 0.0, 10.000001, 9.981864 
1.085e+3, 1.5495703e+2, -1436736.1, -1450821.9, -0.000177154, 0.00000018279091, -0.000056943667, -1436736.1, -15314.942, 0.0, 10.000001, 9.981333 
1.085e+3, 1.6493228e+2, -1348685.1, -1371952.4, 0.0039905068, 0.00000018276015, 0.0000473652, -1348685.1, -25021.434, 0.0, 10.000001, 9.969248 
1.085e+3, 1.7490156e+2, -1250727.1, -1274310.1, 0.0012316224, 0.00000018244535, -0.00007380409, -1250727.1, -24762.42, 0.0, 10.000001, 9.968834 
1.085e+3, 1.8486421e+2, -1162646.1, -1195720.1, 0.0037330305, 0.00000018086804, 0.0000661718, -1162646.1, -34315.473, 0.0, 10.000001, 9.956395 
1.085e+3, 1.9482064e+2, -1064496.4, -1097832.9, 0.0011232487, 0.00000017796951, -0.00005763319, -1064496.4, -33738.805, 0.0, 10.000001, 9.956052 
1.085e+3, 2.0477042e+2, -976332.44, -1019435.0, 0.0029096697, 0.00000017724136, 0.0000680985, -976332.44, -43082.547, 0.0, 10.000001, 9.94329 
1.085e+3, 2.1471375e+2, -878045.4, -921409.8, -0.0005882162, 0.00000017886379, -0.0001268091, -878045.4, -42240.133, 0.0, 10.000001, 9.942949 
1.085e+3, 2.2465037e+2, -789759.3, -843144.8, 0.0034289283, 0.00000017830823, 0.000120897974, -789759.3, -51333.03, 0.0, 10.000001, 9.929908 
1.085e+3, 2.3458035e+2, -691325.8, -744966.44, 0.0011416676, 0.00000017528633, -0.00008879752, -691325.8, -50213.266, 0.0, 10.000001, 9.929576 
1.085e+3, 2.4450338e+2, -603001.75, -667018.75, 0.0012750928, 0.00000017383617, 0.000074726035, -603001.75, -59134.86, 0.0, 10.000001, 9.916136 
1.085e+3, 2.5441962e+2, -504249.06, -568343.25, -0.0014866153, 0.00000017426592, -0.00010673023, -504249.06, -57561.516, 0.0, 10.000001, 9.916036 
1.085e+3, 2.643288e+2, -416013.66, -490987.88, 0.0018687875, 0.0000001745285, 0.00014059719, -416013.66, -66435.984, 0.0, 10.000001, 9.901964 
1.085e+3, 2.742313e+2, -316728.44, -391374.75, -0.00048267088, 0.0000001745737, -0.00020343553, -316728.44, -64195.438, 0.0, 10.000001, 9.902385 
1.085e+3, 2.841256e+2, -230255.17, -318081.22, 0.0012747361, 0.00000017355029, 0.00022905628, -230255.17, -74686.21, 0.0, 10.000001, 9.885438 
1.085e+3, 2.940121e+2, -130549.04, -217764.98, -0.00042089575, 0.00000017106534, -0.00025333583, -130549.04, -71867.65, 0.0, 10.000001, 9.886217 
1.085e+3, 3.0392656e+2, -40805.027, -84750.15, 0.0016458767, 0.0000001709861, 0.00017313696, -40805.027, -40805.027, 0.0, 10.000001, 9.942172 
1.085e+3, 3.138706e+2, -39727.016, -82511.2, -0.0004919993, 0.00000017449217, -0.000055152792, -39727.016, -39727.016, 0.0, 10.000001, 9.943684 
1.095e+3, 1.2499335e+2, -1719945.6, -1724224.6, 0.0030351288, 0.00000019919621, 0.000017653501, -1719945.6, -4880.414, 0.0, 10.000001, 9.994327 
1.095e+3, 1.349876e+2, -1622565.1, -1627434.9, -0.0006430852, 0.00000018975199, -0.00006840401, -1622565.1, -5443.6255, 0.0, 10.000001, 9.993545 
1.095e+3, 1.4497514e+2, -1534463.8, -1548146.3, 0.001920838, 0.00000018609892, 0.00007099276, -1534463.8, -15220.13, 0.0, 10.000001, 9.981864 
1.095e+3, 1.5495703e+2, -1436736.1, -1450821.9, -0.00066135026, 0.00000018816566, -0.000056948527, -1436736.1, -15314.949, 0.0, 10.000001, 9.981333 
1.095e+3, 1.6493228e+2, -1348685.1, -1371952.4, 0.00263573, 0.00000018879686, 0.000047358804, -1348685.1, -25021.441, 0.0, 10.000001, 9.969248 
1.095e+3, 1.7490156e+2, -1250727.1, -1274310.1, -0.00012780311, 0.00000018796234, -0.00007380145, -1250727.1, -24762.426, 0.0, 10.000001, 9.968834 
1.095e+3, 1.8486421e+2, -1162646.1, -1195720.1, 0.0042430772, 0.00000018672753, 0.00006617663, -1162646.1, -34315.48, 0.0, 10.000001, 9.956395 
1.095e+3, 1.9482064e+2, -1064496.4, -1097832.9, 0.0016549106, 0.0000001850737, -0.00005763333, -1064496.4, -33738.81, 0.0, 10.000001, 9.956052 
1.095e+3, 2.0477042e+2, -976332.44, -1019435.0, 0.0026726478, 0.0000001828182, 0.0000680976, -976332.44, -43082.555, 0.0, 10.000001, 9.94329 
1.095e+3, 2.1471375e+2, -878045.44, -921409.9, -0.00084113824, 0.00000017991097, -0.00012680622, -878045.44, -42240.14, 0.0, 10.000001, 9.942949 
1.095e+3, 2.2465037e+2, -789759.3, -843144.9, 0.0028379916, 0.00000018013021, 0.00012089874, -789759.3, -51333.035, 0.0, 10.000001, 9.929908 
1.095e+3, 2.3458035e+2, -691325.8, -744966.44, 0.00053966156, 0.00000018388843, -0.000088805544, -691325.8, -50213.27, 0.0, 10.000001, 9.929576 
1.095e+3, 2.4450338e+2, -603001.75, -667018.75, 0.0022359586, 0.00000018344673, 0.00007471996, -603001.75, -59134.867, 0.0, 10.000001, 9.916136 
1.095e+3, 2.5441962e+2, -504249.06, -568343.3, -0.00045064982, 0.00000017798456, -0.000106721505, -504249.06, -57561.523, 0.0, 10.000001, 9.916036 
1.095e+3, 2.643288e+2, -416013.66, -490987.88, 0.0017064327, 0.00000017613276, 0.00014060868, -416013.66, -66435.99, 0.0, 10.000001, 9.901964 
1.095e+3, 2.742313e+2, -316728.44, -391374.75, -0.0007253562, 0.00000017888725, -0.0002034366, -316728.44, -64195.44, 0.0, 10.000001, 9.902385 
1.095e+3, 2.841256e+2, -230255.17, -318081.22, 0.00209493, 0.00000017999581, 0.00022904809, -230255.17, -74686.21, 0.0, 10.000001, 9.885438 
1.095e+3, 2.940121e+2, -130549.04, -217765.0, 0.0004950867, 0.0000001788302, -0.0002533436, -130549.04, -71867.65, 0.0, 10.000001, 9.886217 
1.095e+3, 3.0392656e+2, -40805.035, -84750.16, 0.001822218, 0.0000001776488, 0.00017313515, -40805.035, -40805.035, 0.0, 10.000001, 9.942172 
1.095e+3, 3.138706e+2, -39727.023, -82511.21, -0.00040245018, 0.00000017646514, -0.00005514044, -39727.023, -39727.023, 0.0, 10.000001, 9.943684 
1.105e+3, 1.2499335e+2, -1719945.6, -1724224.6, 0.0022429668, 0.00000020338594, 0.000017655619, -1719945.6, -4880.3667, 0.0, 10.000001, 9.994327 
1.105e+3, 1.349876e+2, -1622565.1, -1627434.9, -0.0008050202, 0.00000019608032, -0.00006840113, -1622565.1, -5443.5806, 0.0, 10.000001, 9.993545 
1.105e+3, 1.4497514e+2, -1534463.8, -1548146.3, 0.0015315902, 0.00000019313985, 0.000070996284, -1534463.8, -15220.085, 0.0, 10.000001, 9.981864 
1.105e+3, 1.5495703e+2, -1436736.0, -1450821.9, -0.0003275941, 0.00000019448342, -0.000056948193, -1436736.0, -15314.908, 0.0, 10.000001, 9.981333 
1.105e+3, 1.6493228e+2, -1348685.1, -1371952.4, 0.0032337725, 0.00000019426861, 0.000047358488, -1348685.1, -25021.4, 0.0, 10.000001, 9.969248 
1.105e+3, 1.7490156e+2, -1250727.0, -1274310.1, -0.00054584624, 0.0000001924626, -0.00007379983, -1250727.0, -24762.379, 0.0, 10.000001, 9.968834 
1.105e+3, 1.8486421e+2, -1162646.1, -1195720.0, 0.0033805138, 0.00000019155473, 0.00006617899, -1162646.1, -34315.43, 0.0, 10.000001, 9.956395 
1.105e+3, 1.9482064e+2, -1064496.4, -1097832.9, 0.0006710342, 0.00000019158658, -0.00005763149, -1064496.4, -33738.77, 0.0, 10.000001, 9.956052 
1.105e+3, 2.0477042e+2, -976332.4, -1019435.0, 0.003040641, 0.00000018935684, 0.00006809867, -976332.4, -43082.516, 0.0, 10.000001, 9.94329 
1.105e+3, 2.1471375e+2, -878045.4, -921409.8, 0.0010908521, 0.00000018467753, -0.00012680618, -878045.4, -42240.098, 0.0, 10.000001, 9.942949 
1.105e+3, 2.2465037e+2, -789759.25, -843144.8, 0.004374256, 0.00000018440996, 0.000120898265, -789759.25, -51332.99, 0.0, 10.000001, 9.929908 
1.105e+3, 2.3458035e+2, -691325.75, -744966.44, 0.0014950942, 0.00000018913687, -0.00008880593, -691325.75, -50213.227, 0.0, 10.000001, 9.929576 
1.105e+3, 2.4450338e+2, -603001.7, -667018.75, 0.003999825, 0.0000001891832, 0.00007471997, -603001.7, -59134.824, 0.0, 10.000001, 9.916136 
1.105e+3, 2.5441962e+2, -504249.03, -568343.25, 0.0007675596, 0.00000018363336, -0.00010672074, -504249.03, -57561.48, 0.0, 10.000001, 9.916036 
1.105e+3, 2.643288e+2, -416013.63, -490987.88, 0.002186808, 0.00000018143221, 0.0001406093, -416013.63, -66435.95, 0.0, 10.000001, 9.901964 
1.105e+3, 2.742313e+2, -316728.4, -391374.75, 0.00019733593, 0.00000018350573, -0.00020343724, -316728.4, -64195.4, 0.0, 10.000001, 9.902385 
1.105e+3, 2.841256e+2, -230255.14, -318081.22, 0.0029441288, 0.00000018469541, 0.00022904716, -230255.14, -74686.17, 0.0, 10.000001, 9.885438 
1.105e+3, 2.940121e+2, -130549.0, -217764.98, -0.00015484104, 0.00000018465546, -0.00025334346, -130549.0, -71867.61, 0.0, 10.000001, 9.886217 
1.105e+3, 3.0392656e+2, -40804.996, -84750.15, 0.00023541736, 0.00000018344643, 0.00017313604, -40804.996, -40804.996, 0.0, 10.000001, 9.942172 
1.105e+3, 3.138706e+2, -39726.977, -82511.2, -0.0035514368, 0.00000018051328, -0.000055139313, -39726.977, -39726.977, 0.0, 10.000001, 9.943684 
1.115e+3, 1.2499335e+2, -1719945.6, -1724224.6, 0.0019966462, 0.00000020398176, 0.000017665798, -1719945.6, -4880.375, 0.0, 10.000001, 9.994327 
1.115e+3, 1.349876e+2, -1622565.1, -1627434.9, -0.0010517454, 0.00000020437368, -0.00006840067, -1622565.1, -5443.5884, 0.0, 10.000001, 9.993545 
1.115e+3, 1.4497514e+2, -1534463.8, -1548146.3, 0.00019246136, 0.00000020366629, 0.0000709963, -1534463.8, -15220.09, 0.0, 10.000001, 9.981864 
1.115e+3, 1.5495703e+2, -1436736.0, -1450821.9, -0.0016685318, 0.00000020174417, -0.000056942663, -1436736.0, -15314.913, 0.0, 10.000001, 9.981333 
1.115e+3, 1.6493228e+2, -1348685.1, -1371952.4, 0.0035596627, 0.00000019917539, 0.00004736425, -1348685.1, -25021.41, 0.0, 10.000001, 9.969248 
1.115e+3, 1.7490156e+2, -1250727.0, -1274310.1, -0.00021120383, 0.00000019594611, -0.00007379922, -1250727.0, -24762.389, 0.0, 10.000001, 9.968834 
1.115e+3, 1.8486421e+2, -1162646.1, -1195720.1, 0.002120132, 0.00000019534967, 0.00006617888, -1162646.1, -34315.438, 0.0, 10.000001, 9.956395 
1.115e+3, 1.9482064e+2, -1064496.4, -1097832.9, -0.0006078538, 0.00000019750814, -0.000057627673, -1064496.4, -33738.777, 0.0, 10.000001, 9.956052 
1.115e+3, 2.0477042e+2, -976332.4, -1019435.0, 0.0038770766, 0.00000019685726, 0.00006810172, -976332.4, -43082.523, 0.0, 10.000001, 9.94329 
1.115e+3, 2.1471375e+2, -878045.4, -921409.9, 0.001970955, 0.00000019316343, -0.000126809, -878045.4, -42240.1, 0.0, 10.000001, 9.942949 
1.115e+3, 2.2465037e+2, -789759.25, -843144.9, 0.0036571214, 0.00000019114744, 0.000120896555, -789759.25, -51332.996, 0.0, 10.000001, 9.929908 
1.115e+3, 2.3458035e+2, -691325.75, -744966.44, 0.0007256877, 0.00000019103165, -0.00008879867, -691325.75, -50213.234, 0.0, 10.000001, 9.929576 
1.115e+3, 2.4450338e+2, -603001.7, -667018.75, 0.00443407, 0.00000019104559, 0.000074726064, -603001.7, -59134.832, 0.0, 10.000001, 9.916136 
1.115e+3, 2.5441962e+2, -504249.03, -568343.3, 0.0012596494, 0.00000019121231, -0.00010672794, -504249.03, -57561.49, 0.0, 10.000001, 9.916036 
1.115e+3, 2.643288e+2, -416013.63, -490987.88, 0.0026613676, 0.00000019042686, 0.00014059906, -416013.63, -66435.96, 0.0, 10.000001, 9.901964 
1.115e+3, 2.742313e+2, -316728.4, -391374.75, 0.00067071756, 0.00000018842914, -0.00020343746, -316728.4, -64195.402, 0.0, 10.000001, 9.902385 
1.115e+3, 2.841256e+2, -230255.14, -318081.25, 0.002927188, 0.0000001876491, 0.00022905349, -230255.14, -74686.18, 0.0, 10.000001, 9.885438 
1.115e+3, 2.940121e+2, -130549.01, -217765.0, -0.00021594443, 0.00000018854111, -0.0002533354, -130549.01, -71867.62, 0.0, 10.000001, 9.886217 
1.115e+3, 3.0392656e+2, -40805.004, -84750.164, 0.002144267, 0.00000018837898, 0.00017313962, -40805.004, -40805.004, 0.0, 10.000001, 9.942172 
1.115e+3, 3.138706e+2, -39726.984, -82511.22, -0.0014112687, 0.0000001866366, -0.000055149412, -39726.984, -39726.984, 0.0, 10.000001, 9.943684 
1.125e+3, 1.2499335e+2, -1719945.5, -1724224.6, 0.003778003, 0.00000020698377, 0.000017667156, -1719945.5, -4880.317, 0.0, 10.000001, 9.994327 
1.125e+3, 1.349876e+2, -1622565.1, -1627434.9, 0.0004675734, 0.00000021226471, -0.00006840214, -1622565.1, -5443.5474, 0.0, 10.000001, 9.993545 
1.125e+3, 1.4497514e+2, -1534463.6, -1548146.3, 0.0027999873, 0.00000021240479, 0.00007099621, -1534463.6, -15220.052, 0.0, 10.000001, 9.981864 
1.125e+3, 1.5495703e+2, -1436736.0, -1450821.9, -0.0011595739, 0.00000020726289, -0.00005694009, -1436736.0, -15314.863, 0.0, 10.000001, 9.981333 
1.125e+3, 1.6493228e+2, -1348685.0, -1371952.3, 0.0032689485, 0.00000020380453, 0.00004736696, -1348685.0, -25021.36, 0.0, 10.000001, 9.969248 
1.125e+3, 1.7490156e+2, -1250727.0, -1274310.1, 0.00088185107, 0.00000020206491, -0.00007379895, -1250727.0, -24762.344, 0.0, 10.000001, 9.968834 
1.125e+3, 1.8486421e+2, -1162646.0, -1195720.0, 0.003243565, 0.00000020155608, 0.000066178436, -1162646.0, -34315.395, 0.0, 10.000001, 9.956395 
1.125e+3, 1.9482064e+2, -1064496.4, -1097832.9, -0.00036710248, 0.00000020233496, -0.000057627025, -1064496.4, -33738.727, 0.0, 10.000001, 9.956052 
1.125e+3, 2.0477042e+2, -976332.4, -1019435.0, 0.0036773442, 0.00000020190559, 0.00006810318, -976332.4, -43082.473, 0.0, 10.000001, 9.94329 
1.125e+3, 2.1471375e+2, -878045.3, -921409.8, 0.00022082755, 0.00000020016746, -0.000126807, -878045.3, -42240.063, 0.0, 10.000001, 9.942949 
1.125e+3, 2.2465037e+2, -789759.25, -843144.8, 0.00081588654, 0.00000019812235, 0.000120898636, -789759.25, -51332.957, 0.0, 10.000001, 9.929908 
1.125e+3, 2.3458035e+2, -691325.7, -744966.44, -0.0023505383, 0.00000019573018, -0.00008879699, -691325.7, -50213.188, 0.0, 10.000001, 9.929576 
1.125e+3, 2.4450338e+2, -603001.6, -667018.75, 0.0020102873, 0.0000001952501, 0.00007472721, -603001.6, -59134.785, 0.0, 10.000001, 9.916136 
1.125e+3, 2.5441962e+2, -504249.0, -568343.25, 0.00041678027, 0.00000019705412, -0.00010672747, -504249.0, -57561.445, 0.0, 10.000001, 9.916036 
1.125e+3, 2.643288e+2, -416013.6, -490987.88, 0.0024279226, 0.0000001968974, 0.0001405994, -416013.6, -66435.914, 0.0, 10.000001, 9.901964 
1.125e+3, 2.742313e+2, -316728.34, -391374.75, -0.0013312164, 0.00000019423977, -0.00020343655, -316728.34, -64195.363, 0.0, 10.000001, 9.902385 
1.125e+3, 2.841256e+2, -230255.1, -318081.22, -0.000012631663, 0.0000001927892, 0.00022905483, -230255.1, -74686.13, 0.0, 10.000001, 9.885438 
1.125e+3, 2.940121e+2, -130548.96, -217764.98, -0.0024997871, 0.0000001930021, -0.00025333386, -130548.96, -71867.57, 0.0, 10.000001, 9.886217 
1.125e+3, 3.0392656e+2, -40804.957, -84750.15, 0.0021789537, 0.00000019319327, 0.00017314011, -40804.957, -40804.957, 0.0, 10.000001, 9.942172 
1.125e+3, 3.138706e+2, -39726.95, -82511.2, 0.0023492645, 0.00000019333706, -0.000055151773, -39726.95, -39726.95, 0.0, 10.000001, 9.943684 
1.135e+3, 1.2499335e+2, -1719945.5, -1724224.6, -0.0005077119, 0.00000021239198, 0.000017659695, -1719945.5, -4880.325, 0.0, 10.000001, 9.994327 
1.135e+3, 1.349876e+2, -1622565.1, -1627434.9, -0.0038194926, 0.00000021975345, -0.00006840555, -1622565.1, -5443.556, 0.0, 10.000001, 9.993545 
1.135e+3, 1.4497514e+2, -1534463.8, -1548146.3, 0.004122702, 0.00000021935533, 0.00007099604, -1534463.8, -15220.062, 0.0, 10.000001, 9.981864 
1.135e+3, 1.5495703e+2, -1436736.0, -1450821.9, 0.00017196027, 0.00000021103956, -0.00005694047, -1436736.0, -15314.873, 0.0, 10.000001, 9.981333 
1.135e+3, 1.6493228e+2, -1348685.0, -1371952.4, 0.0020897589, 0.00000020815602, 0.000047366622, -1348685.0, -25021.365, 0.0, 10.000001, 9.969248 
1.135e+3, 1.7490156e+2, -1250727.0, -1274310.1, -0.00031064032, 0.000000210819, -0.000073799, -1250727.0, -24762.35, 0.0, 10.000001, 9.968834 
1.135e+3, 1.8486421e+2, -1162646.0, -1195720.1, 0.0031380262, 0.00000021017392, 0.00006617767, -1162646.0, -34315.402, 0.0, 10.000001, 9.956395 
1.135e+3, 1.9482064e+2, -1064496.4, -1097832.9, -0.00046008817, 0.00000020606706, -0.00005762955, -1064496.4, -33738.734, 0.0, 10.000001, 9.956052 
1.135e+3, 2.0477042e+2, -976332.4, -1019435.0, 0.0030043384, 0.00000020450189, 0.000068103065, -976332.4, -43082.48, 0.0, 10.000001, 9.94329 
1.135e+3, 2.1471375e+2, -878045.3, -921409.9, -0.00046417775, 0.00000020568964, -0.0001268002, -878045.3, -42240.07, 0.0, 10.000001, 9.942949 
1.135e+3, 2.2465037e+2, -789759.25, -843144.9, 0.0014388943, 0.00000020533473, 0.000120904515, -789759.25, -51332.965, 0.0, 10.000001, 9.929908 
1.135e+3, 2.3458035e+2, -691325.75, -744966.44, -0.0016847525, 0.00000020323243, -0.000088800894, -691325.75, -50213.195, 0.0, 10.000001, 9.929576 
1.135e+3, 2.4450338e+2, -603001.7, -667018.75, 0.0016062445, 0.00000020179671, 0.00007472341, -603001.7, -59134.79, 0.0, 10.000001, 9.916136 
1.135e+3, 2.5441962e+2, -504249.0, -568343.3, -0.000038692313, 0.00000020115884, -0.00010671934, -504249.0, -57561.45, 0.0, 10.000001, 9.916036 
1.135e+3, 2.643288e+2, -416013.6, -490987.88, 0.0030267243, 0.00000020084386, 0.00014061033, -416013.6, -66435.92, 0.0, 10.000001, 9.901964 
1.135e+3, 2.742313e+2, -316728.38, -391374.75, -0.00066172465, 0.00000020093765, -0.0002034345, -316728.38, -64195.37, 0.0, 10.000001, 9.902385 
1.135e+3, 2.841256e+2, -230255.11, -318081.25, 0.0008215926, 0.0000002001157, 0.00022905118, -230255.11, -74686.14, 0.0, 10.000001, 9.885438 
1.135e+3, 2.940121e+2, -130548.97, -217765.0, -0.0016507108, 0.00000019803845, -0.0002533389, -130548.97, -71867.58, 0.0, 10.000001, 9.886217 
1.135e+3, 3.0392656e+2, -40804.957, -84750.16, 0.001870455, 0.00000019788935, 0.00017313752, -40804.957, -40804.957, 0.0, 10.000001, 9.942172 
1.135e+3, 3.138706e+2, -39726.95, -82511.21, 0.0019049008, 0.00000020061466, -0.0000551464, -39726.95, -39726.95, 0.0, 10.000001, 9.943684 
1.145e+3, 1.2499335e+2, -1719945.5, -1724224.6, 0.0021359832, 0.00000022356359, 0.000017660292, -1719945.5, -4880.2896, 0.0, 10.000001, 9.994327 
1.145e+3, 1.349876e+2, -1622565.0, -1627434.8, -0.0015799191, 0.00000022312025, -0.000068405345, -1622565.0, -5443.495, 0.0, 10.000001, 9.993545 
1.145e+3, 1.4497514e+2, -1534463.6, -1548146.3, 0.0067622727, 0.0000002211423, 0.000070996975, -1534463.6, -15219.997, 0.0, 10.000001, 9.981864 
1.145e+3, 1.5495703e+2, -1436736.0, -1450821.9, 0.0023935738, 0.00000021750986, -0.00005693978, -1436736.0, -15314.824, 0.0, 10.000001, 9.981333 
1.145e+3, 1.6493228e+2, -1348685.0, -1371952.3, 0.0033153011, 0.00000021631675, 0.000047367586, -1348685.0, -25021.32, 0.0, 10.000001, 9.969248 
1.145e+3, 1.7490156e+2, -1250727.0, -1274310.1, -0.0002862968, 0.00000021761433, -0.00007379722, -1250727.0, -24762.3, 0.0, 10.000001, 9.968834 
1.145e+3, 1.8486421e+2, -1162646.0, -1195720.0, 0.003394543, 0.0000002159479, 0.00006617941, -1162646.0, -34315.35, 0.0, 10.000001, 9.956395 
1.145e+3, 1.9482064e+2, -1064496.3, -1097832.9, 0.00027307463, 0.00000021117965, -0.000057628764, -1064496.3, -33738.688, 0.0, 10.000001, 9.956052 
1.145e+3, 2.0477042e+2, -976332.3, -1019435.0, 0.0035076658, 0.00000020979866, 0.00006810339, -976332.3, -43082.43, 0.0, 10.000001, 9.94329 
1.145e+3, 2.1471375e+2, -878045.3, -921409.8, 0.0003574837, 0.00000021208626, -0.00012679979, -878045.3, -42240.02, 0.0, 10.000001, 9.942949 
1.145e+3, 2.2465037e+2, -789759.2, -843144.8, 0.0039478806, 0.00000021196904, 0.0001209047, -789759.2, -51332.914, 0.0, 10.000001, 9.929908 
1.145e+3, 2.3458035e+2, -691325.7, -744966.4, 0.0016947873, 0.00000020912819, -0.00008880131, -691325.7, -50213.15, 0.0, 10.000001, 9.929576 
1.145e+3, 2.4450338e+2, -603001.6, -667018.75, 0.0033834847, 0.00000020734808, 0.00007472328, -603001.6, -59134.742, 0.0, 10.000001, 9.916136 
1.145e+3, 2.5441962e+2, -504248.94, -568343.25, -0.0016318972, 0.00000020683767, -0.00010671815, -504248.94, -57561.402, 0.0, 10.000001, 9.916036 
1.145e+3, 2.643288e+2, -416013.53, -490987.88, 0.0011906375, 0.00000020663991, 0.00014061181, -416013.53, -66435.875, 0.0, 10.000001, 9.901964 
1.145e+3, 2.742313e+2, -316728.3, -391374.75, -0.000019341569, 0.00000020683679, -0.00020343404, -316728.3, -64195.32, 0.0, 10.000001, 9.902385 
1.145e+3, 2.841256e+2, -230255.06, -318081.22, 0.0028666956, 0.0000002060678, 0.00022905065, -230255.06, -74686.09, 0.0, 10.000001, 9.885438 
1.145e+3, 2.940121e+2, -130548.92, -217764.98, -0.000004616404, 0.00000020397503, -0.0002533403, -130548.92, -71867.53, 0.0, 10.000001, 9.886217 
1.145e+3, 3.0392656e+2, -40804.914, -84750.14, 0.00082809594, 0.00000020365736, 0.00017313703, -40804.914, -40804.914, 0.0, 10.000001, 9.942172 
1.145e+3, 3.138706e+2, -39726.9, -82511.195, -0.004725426, 0.00000020598767, -0.000055143286, -39726.9, -39726.9, 0.0, 10.000001, 9.943684 
1.155e+3, 1.2499335e+2, -1719945.5, -1724224.6, 0.003780151, 0.00000024049854, 0.000017668946, -1719945.5, -4880.2993, 0.0, 10.000001, 9.994327 
1.155e+3, 1.349876e+2, -1622565.0, -1627434.9, 0.00006417474, 0.0000002223652, -0.00006840152, -1622565.0, -5443.505, 0.0, 10.000001, 9.993545 
1.155e+3, 1.4497514e+2, -1534463.6, -1548146.3, 0.004404317, 0.00000021776576, 0.000070999035, -1534463.6, -15220.008, 0.0, 10.000001, 9.981864 
1.155e+3, 1.5495703e+2, -1436736.0, -1450821.9, 0.000029220866, 0.00000022667376, -0.00005693802, -1436736.0, -15314.835, 0.0, 10.000001, 9.981333 
1.155e+3, 1.6493228e+2, -1348685.0, -1371952.4, 0.0030687444, 0.00000022828668, 0.000047369856, -1348685.0, -25021.328, 0.0, 10.000001, 9.969248 
1.155e+3, 1.7490156e+2, -1250727.0, -1274310.1, -0.00052172435, 0.00000022245094, -0.00007379361, -1250727.0, -24762.309, 0.0, 10.000001, 9.968834 
1.155e+3, 1.8486421e+2, -1162646.0, -1195720.1, 0.0033045076, 0.00000021887801, 0.00006618364, -1162646.0, -34315.36, 0.0, 10.000001, 9.956395 
1.155e+3, 1.9482064e+2, -1064496.3, -1097832.9, 0.00018469492, 0.00000021767275, -0.00005762467, -1064496.3, -33738.695, 0.0, 10.000001, 9.956052 
1.155e+3, 2.0477042e+2, -976332.3, -1019435.0, 0.0027276499, 0.00000021779589, 0.00006810417, -976332.3, -43082.438, 0.0, 10.000001, 9.94329 
1.155e+3, 2.1471375e+2, -878045.3, -921409.9, -0.00043684084, 0.00000021935733, -0.00012680577, -878045.3, -42240.027, 0.0, 10.000001, 9.942949 
1.155e+3, 2.2465037e+2, -789759.2, -843144.8, 0.0040769842, 0.00000021802529, 0.00012089916, -789759.2, -51332.918, 0.0, 10.000001, 9.929908 
1.155e+3, 2.3458035e+2, -691325.7, -744966.44, 0.0018540787, 0.00000021341747, -0.000088798224, -691325.7, -50213.152, 0.0, 10.000001, 9.929576 
1.155e+3, 2.4450338e+2, -603001.6, -667018.75, 0.0035292865, 0.00000021190422, 0.00007472681, -603001.6, -59134.754, 0.0, 10.000001, 9.916136 
1.155e+3, 2.5441962e+2, -504248.97, -568343.3, -0.0014867451, 0.00000021409059, -0.00010672391, -504248.97, -57561.41, 0.0, 10.000001, 9.916036 
1.155e+3, 2.643288e+2, -416013.53, -490987.88, 0.0014171749, 0.00000021428555, 0.00014060384, -416013.53, -66435.875, 0.0, 10.000001, 9.901964 
1.155e+3, 2.742313e+2, -316728.3, -391374.75, 0.00021263148, 0.00000021193722, -0.0002034352, -316728.3, -64195.324, 0.0, 10.000001, 9.902385 
1.155e+3, 2.841256e+2, -230255.06, -318081.22, 0.0032442743, 0.00000021064554, 0.00022905329, -230255.06, -74686.1, 0.0, 10.000001, 9.885438 
1.155e+3, 2.940121e+2, -130548.93, -217765.0, 0.00038608687, 0.00000021081186, -0.00025333808, -130548.93, -71867.54, 0.0, 10.000001, 9.886217 
1.155e+3, 3.0392656e+2, -40804.926, -84750.164, 0.0020058095, 0.00000021049732, 0.00017313864, -40804.926, -40804.926, 0.0, 10.000001, 9.942172 
1.155e+3, 3.138706e+2, -39726.91, -82511.22, -0.0034552757, 0.00000020945608, -0.000055142435, -39726.91, -39726.91, 0.0, 10.000001, 9.943684 
1.165e+3, 1.2499335e+2, -1719945.5, -1724224.6, 0.0010225328, 0.0000002476131, 0.000017673405, -1719945.5, -4880.2417, 0.0, 10.000001, 9.994327 
1.165e+3, 1.349876e+2, -1622565.0, -1627434.8, -0.002560802, 0.00000022905347, -0.00006839688, -1622565.0, -5443.4536, 0.0, 10.000001, 9.993545 
1.165e+3, 1.4497514e+2, -1534463.6, -1548146.3, 0.00005338428, 0.00000022422516, 0.00007100316, -1534463.6, -15219.958, 0.0, 10.000001, 9.981864 
1.165e+3, 1.5495703e+2, -1436735.9, -1450821.9, -0.002629442, 0.00000023310342, -0.000056936125, -1436735.9, -15314.78, 0.0, 10.000001, 9.981333 
1.165e+3, 1.6493228e+2, -1348685.0, -1371952.3, 0.0023989696, 0.000000234549, 0.00004737107, -1348685.0, -25021.273, 0.0, 10.000001, 9.969248 
1.165e+3, 1.7490156e+2, -1250726.9, -1274310.1, -0.0013913662, 0.00000022840538, -0.000073791496, -1250726.9, -24762.256, 0.0, 10.000001, 9.968834 
1.165e+3, 1.8486421e+2, -1162646.0, -1195720.0, 0.0026126637, 0.00000022526197, 0.00006618589, -1162646.0, -34315.31, 0.0, 10.000001, 9.956395 
1.165e+3, 1.9482064e+2, -1064496.3, -1097832.9, -0.00043328007, 0.00000022525785, -0.000057623085, -1064496.3, -33738.645, 0.0, 10.000001, 9.956052 
1.165e+3, 2.0477042e+2, -976332.25, -1019435.0, 0.0018304539, 0.00000022508583, 0.00006810532, -976332.25, -43082.39, 0.0, 10.000001, 9.94329 
1.165e+3, 2.1471375e+2, -878045.25, -921409.8, -0.0013522785, 0.00000022473148, -0.0001268048, -878045.25, -42239.977, 0.0, 10.000001, 9.942949 
1.165e+3, 2.2465037e+2, -789759.1, -843144.8, 0.0028591903, 0.00000022313819, 0.000120900615, -789759.1, -51332.867, 0.0, 10.000001, 9.929908 
1.165e+3, 2.3458035e+2, -691325.6, -744966.4, -0.0017114242, 0.00000022014248, -0.00008879552, -691325.6, -50213.1, 0.0, 10.000001, 9.929576 
1.165e+3, 2.4450338e+2, -603001.56, -667018.75, 0.00039052035, 0.00000021904334, 0.000074728974, -603001.56, -59134.703, 0.0, 10.000001, 9.916136 
1.165e+3, 2.5441962e+2, -504248.9, -568343.25, -0.000098932804, 0.00000022021088, -0.00010672445, -504248.9, -57561.363, 0.0, 10.000001, 9.916036 
1.165e+3, 2.643288e+2, -416013.5, -490987.84, 0.0040260404, 0.00000021995635, 0.00014060261, -416013.5, -66435.83, 0.0, 10.000001, 9.901964 
1.165e+3, 2.742313e+2, -316728.28, -391374.75, -0.0011729784, 0.00000021788647, -0.00020343451, -316728.28, -64195.277, 0.0, 10.000001, 9.902385 
1.165e+3, 2.841256e+2, -230255.02, -318081.22, -0.00013510633, 0.0000002168489, 0.00022905512, -230255.02, -74686.05, 0.0, 10.000001, 9.885438 
1.165e+3, 2.940121e+2, -130548.88, -217764.98, -0.0026489764, 0.00000021723264, -0.00025333615, -130548.88, -71867.484, 0.0, 10.000001, 9.886217 
1.165e+3, 3.0392656e+2, -40804.875, -84750.16, 0.0016151137, 0.00000021672321, 0.00017313928, -40804.875, -40804.875, 0.0, 10.000001, 9.942172 
1.165e+3, 3.138706e+2, -39726.863, -82511.21, 0.0016559956, 0.00000021487544, -0.000055145203, -39726.863, -39726.863, 0.0, 10.000001, 9.943684 
1.175e+3, 1.2499335e+2, -1719945.5, -1724224.6, 0.0010740065, 0.00000024490737, 0.000017673668, -1719945.5, -4880.251, 0.0, 10.000001, 9.994327 
1.175e+3, 1.349876e+2, -1622565.0, -1627434.9, -0.0025098168, 0.00000024318499, -0.000068391455, -1622565.0, -5443.463, 0.0, 10.000001, 9.993545 
1.175e+3, 1.4497514e+2, -1534463.6, -1548146.3, -0.001154733, 0.00000024052045, 0.00007100937, -1534463.6, -15219.965, 0.0, 10.000001, 9.981864 
1.175e+3, 1.5495703e+2, -1436735.9, -1450821.9, -0.0038396309, 0.00000023679887, -0.000056934095, -1436735.9, -15314.788, 0.0, 10.000001, 9.981333 
1.175e+3, 1.6493228e+2, -1348685.0, -1371952.4, 0.0015385905, 0.00000023510376, 0.000047371224, -1348685.0, -25021.283, 0.0, 10.000001, 9.969248 
1.175e+3, 1.7490156e+2, -1250726.9, -1274310.1, -0.0022499328, 0.00000023547764, -0.000073790885, -1250726.9, -24762.266, 0.0, 10.000001, 9.968834 
1.175e+3, 1.8486421e+2, -1162646.0, -1195720.1, 0.0021080442, 0.00000023509973, 0.000066186156, -1162646.0, -34315.316, 0.0, 10.000001, 9.956395 
1.175e+3, 1.9482064e+2, -1064496.3, -1097832.9, -0.0009338309, 0.00000023393494, -0.000057624, -1064496.3, -33738.652, 0.0, 10.000001, 9.956052 
1.175e+3, 2.0477042e+2, -976332.25, -1019435.0, 0.0014020074, 0.00000023166845, 0.00006810685, -976332.25, -43082.4, 0.0, 10.000001, 9.94329 
1.175e+3, 2.1471375e+2, -878045.25, -921409.9, -0.0017792569, 0.00000022820873, -0.0001267969, -878045.25, -42239.984, 0.0, 10.000001, 9.942949 
1.175e+3, 2.2465037e+2, -789759.1, -843144.9, 0.0031454943, 0.00000022730774, 0.00012090904, -789759.1, -51332.88, 0.0, 10.000001, 9.929908 
1.175e+3, 2.3458035e+2, -691325.6, -744966.44, -0.0014017927, 0.00000022930323, -0.00008879318, -691325.6, -50213.113, 0.0, 10.000001, 9.929576 
1.175e+3, 2.4450338e+2, -603001.56, -667018.75, 0.000040567258, 0.00000022876543, 0.00007472977, -603001.56, -59134.703, 0.0, 10.000001, 9.916136 
1.175e+3, 2.5441962e+2, -504248.9, -568343.25, -0.00048062115, 0.0000002251985, -0.000106719766, -504248.9, -57561.363, 0.0, 10.000001, 9.916036 
1.175e+3, 2.643288e+2, -416013.5, -490987.88, 0.004427372, 0.0000002236523, 0.00014060816, -416013.5, -66435.84, 0.0, 10.000001, 9.901964 
1.175e+3, 2.742313e+2, -316728.28, -391374.75, -0.0007191517, 0.00000022468453, -0.00020343199, -316728.28, -64195.29, 0.0, 10.000001, 9.902385 
1.175e+3, 2.841256e+2, -230255.02, -318081.22, 0.00060771627, 0.00000022467789, 0.00022905615, -230255.02, -74686.055, 0.0, 10.000001, 9.885438 
1.175e+3, 2.940121e+2, -130548.88, -217765.0, -0.0018801213, 0.00000022323736, -0.00025333447, -130548.88, -71867.49, 0.0, 10.000001, 9.886217 
1.175e+3, 3.0392656e+2, -40804.88, -84750.16, 0.0019911735, 0.00000022233507, 0.00017313893, -40804.88, -40804.88, 0.0, 10.000001, 9.942172 
1.175e+3, 3.138706e+2, -39726.867, -82511.21, 0.0019859604, 0.00000022224575, -0.000055151595, -39726.867, -39726.867, 0.0, 10.000001, 9.943684 
1.185e+3, 1.2499335e+2, -1719945.4, -1724224.6, 0.00540875, 0.00000024876627, 0.000017674876, -1719945.4, -4880.1846, 0.0, 10.000001, 9.994327 
1.185e+3, 1.349876e+2, -1622564.9, -1627434.8, 0.0011697575, 0.0000002521307, -0.0000683901, -1622564.9, -5443.41, 0.0, 10.000001, 9.993545 
1.185e+3, 1.4497514e+2, -1534463.5, -1548146.3, 0.0024593612, 0.00000025063622, 0.000071010734, -1534463.5, -15219.915, 0.0, 10.000001, 9.981864 
1.185e+3, 1.5495703e+2, -1436735.9, -1450821.9, -0.0011691803, 0.00000024414504, -0.00005693272, -1436735.9, -15314.733, 0.0, 10.000001, 9.981333 
1.185e+3, 1.6493228e+2, -1348684.9, -1371952.3, 0.0038101529, 0.00000024110386, 0.00004737225, -1348684.9, -25021.227, 0.0, 10.000001, 9.969248 
1.185e+3, 1.7490156e+2, -1250726.9, -1274310.1, 0.0002524534, 0.00000024158516, -0.00007379057, -1250726.9, -24762.209, 0.0, 10.000001, 9.968834 
1.185e+3, 1.8486421e+2, -1162645.9, -1195720.0, 0.0040466534, 0.0000002418178, 0.000066186476, -1162645.9, -34315.26, 0.0, 10.000001, 9.956395 
1.185e+3, 1.9482064e+2, -1064496.1, -1097832.9, -0.000055181055, 0.00000024179005, -0.00005762291, -1064496.1, -33738.6, 0.0, 10.000001, 9.956052 
1.185e+3, 2.0477042e+2, -976332.2, -1019435.0, 0.0025758166, 0.00000023910275, 0.00006810842, -976332.2, -43082.344, 0.0, 10.000001, 9.94329 
1.185e+3, 2.1471375e+2, -878045.2, -921409.8, -0.0015941727, 0.00000023353502, -0.00012679517, -878045.2, -42239.926, 0.0, 10.000001, 9.942949 
1.185e+3, 2.2465037e+2, -789759.06, -843144.8, 0.0026393496, 0.00000023261286, 0.000120910016, -789759.06, -51332.82, 0.0, 10.000001, 9.929908 
1.185e+3, 2.3458035e+2, -691325.56, -744966.44, 0.0007329225, 0.00000023694992, -0.000088794004, -691325.56, -50213.063, 0.0, 10.000001, 9.929576 
1.185e+3, 2.4450338e+2, -603001.5, -667018.75, 0.0027991238, 0.00000023681797, 0.00007472936, -603001.5, -59134.656, 0.0, 10.000001, 9.916136 
1.185e+3, 2.5441962e+2, -504248.84, -568343.25, -0.0031949216, 0.00000023134223, -0.0001067171, -504248.84, -57561.31, 0.0, 10.000001, 9.916036 
1.185e+3, 2.643288e+2, -416013.44, -490987.84, -0.00031872437, 0.00000022906933, 0.00014061129, -416013.44, -66435.78, 0.0, 10.000001, 9.901964 
1.185e+3, 2.742313e+2, -316728.22, -391374.75, -0.0013516768, 0.00000023088475, -0.00020343169, -316728.22, -64195.234, 0.0, 10.000001, 9.902385 
1.185e+3, 2.841256e+2, -230254.97, -318081.22, 0.0023262813, 0.00000023143389, 0.00022905524, -230254.97, -74686.01, 0.0, 10.000001, 9.885438 
1.185e+3, 2.940121e+2, -130548.836, -217764.98, -0.0012808521, 0.00000023023084, -0.00025333435, -130548.836, -71867.445, 0.0, 10.000001, 9.886217 
1.185e+3, 3.0392656e+2, -40804.832, -84750.14, 0.0005923455, 0.000000229115, 0.00017314013, -40804.832, -40804.832, 0.0, 10.000001, 9.942172 
1.185e+3, 3.138706e+2, -39726.813, -82511.195, -0.004210068, 0.00000022814547, -0.000055149205, -39726.813, -39726.813, 0.0, 10.000001, 9.943684 
1.195e+3, 1.2499335e+2, -1719945.4, -1724224.6, 0.0024934283, 0.00000025918976, 0.00001767703, -1719945.4, -4880.196, 0.0, 10.000001, 9.994327 
1.195e+3, 1.349876e+2, -1622565.0, -1627434.9, -0.001746853, 0.00000025589057, -0.00006839284, -1622565.0, -5443.421, 0.0, 10.000001, 9.993545 
1.195e+3, 1.4497514e+2, -1534463.5, -1548146.3, 0.002247812, 0.00000025457254, 0.00007100726, -1534463.5, -15219.924, 0.0, 10.000001, 9.981864 
1.195e+3, 1.5495703e+2, -1436735.9, -1450821.9, -0.0013764959, 0.00000025514188, -0.000056932004, -1436735.9, -15314.742, 0.0, 10.000001, 9.981333 
1.195e+3, 1.6493228e+2, -1348684.9, -1371952.4, 0.0031677794, 0.0000002525493, 0.00004737415, -1348684.9, -25021.236, 0.0, 10.000001, 9.969248 
1.195e+3, 1.7490156e+2, -1250726.9, -1274310.1, -0.00039225168, 0.00000024672792, -0.00007379056, -1250726.9, -24762.217, 0.0, 10.000001, 9.968834 
1.195e+3, 1.8486421e+2, -1162645.9, -1195720.1, 0.002701552, 0.00000024541617, 0.00006618686, -1162645.9, -34315.27, 0.0, 10.000001, 9.956395 
1.195e+3, 1.9482064e+2, -1064496.3, -1097832.9, -0.0014084092, 0.0000002488231, -0.000057619804, -1064496.3, -33738.61, 0.0, 10.000001, 9.956052 
1.195e+3, 2.0477042e+2, -976332.25, -1019435.0, 0.0038103077, 0.00000024738867, 0.000068110035, -976332.25, -43082.355, 0.0, 10.000001, 9.94329 
1.195e+3, 2.1471375e+2, -878045.2, -921409.8, -0.00030624506, 0.00000024071034, -0.00012679963, -878045.2, -42239.934, 0.0, 10.000001, 9.942949 
1.195e+3, 2.2465037e+2, -789759.06, -843144.8, 0.00039417457, 0.00000023905355, 0.000120903525, -789759.06, -51332.824, 0.0, 10.000001, 9.929908 
1.195e+3, 2.3458035e+2, -691325.56, -744966.44, -0.0016278696, 0.00000024308258, -0.000088797984, -691325.56, -50213.07, 0.0, 10.000001, 9.929576 
1.195e+3, 2.4450338e+2, -603001.56, -667018.75, 0.004454751, 0.000000243201, 0.000074727766, -603001.56, -59134.67, 0.0, 10.000001, 9.916136 
1.195e+3, 2.5441962e+2, -504248.88, -568343.3, -0.0013462936, 0.000000238642, -0.00010671646, -504248.88, -57561.32, 0.0, 10.000001, 9.916036 
1.195e+3, 2.643288e+2, -416013.47, -490987.88, -0.0007136889, 0.00000023620743, 0.00014061203, -416013.47, -66435.79, 0.0, 10.000001, 9.901964 
1.195e+3, 2.742313e+2, -316728.25, -391374.75, -0.0018971001, 0.00000023648712, -0.00020343359, -316728.25, -64195.24, 0.0, 10.000001, 9.902385 
1.195e+3, 2.841256e+2, -230254.98, -318081.22, 0.0023271316, 0.00000023711691, 0.0002290524, -230254.98, -74686.016, 0.0, 10.000001, 9.885438 
1.195e+3, 2.940121e+2, -130548.84, -217765.0, -0.0012307912, 0.00000023821305, -0.0002533358, -130548.84, -71867.45, 0.0, 10.000001, 9.886217 
1.195e+3, 3.0392656e+2, -40804.84, -84750.164, 0.0023596948, 0.00000023706302, 0.0001731429, -40804.84, -40804.84, 0.0, 10.000001, 9.942172 
1.195e+3, 3.138706e+2, -39726.824, -82511.21, -0.0022410846, 0.00000023257462, -0.000055138036, -39726.824, -39726.824, 0.0, 10.000001, 9.943684 
1.205e+3, 1.2499335e+2, -1719945.4, -1724224.6, 0.0024343042, 0.00000026641388, 0.00001767836, -1719945.4, -4880.1377, 0.0, 10.000001, 9.994327 
1.205e+3, 1.349876e+2, -1622564.9, -1627434.8, -0.0017548316, 0.00000026355025, -0.00006839201, -1622564.9, -5443.358, 0.0, 10.000001, 9.993545 
1.205e+3, 1.4497514e+2, -1534463.5, -1548146.3, 0.0035281444, 0.00000026220533, 0.000071007795, -1534463.5, -15219.86, 0.0, 10.000001, 9.981864 
1.205e+3, 1.5495703e+2, -1436735.8, -1450821.9, -0.0008573598, 0.0000002622845, -0.00005693011, -1436735.8, -15314.684, 0.0, 10.000001, 9.981333 
1.205e+3, 1.6493228e+2, -1348684.9, -1371952.3, 0.003150585, 0.0000002598675, 0.000047376587, -1348684.9, -25021.18, 0.0, 10.000001, 9.969248 
1.205e+3, 1.7490156e+2, -1250726.9, -1274310.1, -0.0010619847, 0.00000025490158, -0.000073788404, -1250726.9, -24762.16, 0.0, 10.000001, 9.968834 
1.205e+3, 1.8486421e+2, -1162645.9, -1195720.0, 0.0014883124, 0.00000025287167, 0.00006618876, -1162645.9, -34315.21, 0.0, 10.000001, 9.956395 
1.205e+3, 1.9482064e+2, -1064496.1, -1097832.9, -0.0024475195, 0.00000025391378, -0.000057618134, -1064496.1, -33738.547, 0.0, 10.000001, 9.956052 
1.205e+3, 2.0477042e+2, -976332.2, -1019434.94, 0.004162946, 0.00000025311687, 0.000068111294, -976332.2, -43082.293, 0.0, 10.000001, 9.94329 
1.205e+3, 2.1471375e+2, -878045.1, -921409.8, 0.0015530508, 0.00000025032787, -0.00012679897, -878045.1, -42239.887, 0.0, 10.000001, 9.942949 
1.205e+3, 2.2465037e+2, -789759.06, -843144.8, 0.0015134165, 0.00000024852363, 0.00012090428, -789759.06, -51332.777, 0.0, 10.000001, 9.929908 
1.205e+3, 2.3458035e+2, -691325.5, -744966.4, -0.0037878465, 0.0000002478347, -0.0000887963, -691325.5, -50213.004, 0.0, 10.000001, 9.929576 
1.205e+3, 2.4450338e+2, -603001.5, -667018.75, 0.0027311426, 0.00000024716724, 0.00007472921, -603001.5, -59134.6, 0.0, 10.000001, 9.916136 
1.205e+3, 2.5441962e+2, -504248.8, -568343.25, 0.0012952494, 0.00000024652397, -0.00010671666, -504248.8, -57561.27, 0.0, 10.000001, 9.916036 
1.205e+3, 2.643288e+2, -416013.4, -490987.84, 0.0029627495, 0.0000002453027, 0.00014061142, -416013.4, -66435.74, 0.0, 10.000001, 9.901964 
1.205e+3, 2.742313e+2, -316728.2, -391374.75, -0.0020510117, 0.00000024334545, -0.00020343305, -316728.2, -64195.184, 0.0, 10.000001, 9.902385 
1.205e+3, 2.841256e+2, -230254.92, -318081.22, 0.00011903362, 0.00000024273663, 0.0002290535, -230254.92, -74685.95, 0.0, 10.000001, 9.885438 
1.205e+3, 2.940121e+2, -130548.79, -217764.98, -0.0032559852, 0.0000002439765, -0.00025333493, -130548.79, -71867.39, 0.0, 10.000001, 9.886217 
1.205e+3, 3.0392656e+2, -40804.785, -84750.15, 0.002014787, 0.0000002434438, 0.0001731432, -40804.785, -40804.785, 0.0, 10.000001, 9.942172 
1.205e+3, 3.138706e+2, -39726.773, -82511.2, 0.0005905724, 0.00000024026315, -0.000055138826, -39726.773, -39726.773, 0.0, 10.000001, 9.943684 
1.215e+3, 1.2499335e+2, -1719945.4, -1724224.6, 0.0006167816, 0.00000027043868, 0.000017678865, -1719945.4, -4880.1484, 0.0, 10.000001, 9.994327 
1.215e+3, 1.349876e+2, -1622564.9, -1627434.9, -0.0035734747, 0.00000027510964, -0.00006838763, -1622564.9, -5443.3687, 0.0, 10.000001, 9.993545 
1.215e+3, 1.4497514e+2, -1534463.5, -1548146.3, 0.0022792406, 0.0000002735346, 0.00007101232, -1534463.5, -15219.872, 0.0, 10.000001, 9.981864 
1.215e+3, 1.5495703e+2, -1436735.8, -1450821.9, -0.002105404, 0.00000026557285, -0.00005692704, -1436735.8, -15314.694, 0.0, 10.000001, 9.981333 
1.215e+3, 1.6493228e+2, -1348684.9, -1371952.4, 0.002679209, 0.0000002630585, 0.000047379566, -1348684.9, -25021.19, 0.0, 10.000001, 9.969248 
1.215e+3, 1.7490156e+2, -1250726.9, -1274310.1, -0.0015292756, 0.00000026610607, -0.00007378411, -1250726.9, -24762.17, 0.0, 10.000001, 9.968834 
1.215e+3, 1.8486421e+2, -1162645.9, -1195720.0, 0.001131333, 0.00000026418422, 0.000066192166, -1162645.9, -34315.223, 0.0, 10.000001, 9.956395 
1.215e+3, 1.9482064e+2, -1064496.1, -1097832.9, -0.002803238, 0.00000025706203, -0.000057617897, -1064496.1, -33738.555, 0.0, 10.000001, 9.956052 
1.215e+3, 2.0477042e+2, -976332.2, -1019435.0, 0.002383867, 0.00000025628736, 0.000068112204, -976332.2, -43082.3, 0.0, 10.000001, 9.94329 
1.215e+3, 2.1471375e+2, -878045.2, -921409.8, -0.00025544662, 0.00000026238757, -0.00012679322, -878045.2, -42239.895, 0.0, 10.000001, 9.942949 
1.215e+3, 2.2465037e+2, -789759.06, -843144.9, 0.0032313298, 0.00000026102305, 0.00012091229, -789759.06, -51332.79, 0.0, 10.000001, 9.929908 
1.215e+3, 2.3458035e+2, -691325.56, -744966.44, -0.0019545788, 0.0000002512063, -0.00008878896, -691325.56, -50213.016, 0.0, 10.000001, 9.929576 
1.215e+3, 2.4450338e+2, -603001.5, -667018.75, 0.0010455027, 0.00000024871676, 0.00007473368, -603001.5, -59134.61, 0.0, 10.000001, 9.916136 
1.215e+3, 2.5441962e+2, -504248.8, -568343.25, -0.0005595364, 0.00000025498807, -0.00010671769, -504248.8, -57561.273, 0.0, 10.000001, 9.916036 
1.215e+3, 2.643288e+2, -416013.4, -490987.88, 0.0038952215, 0.00000025635507, 0.00014060947, -416013.4, -66435.75, 0.0, 10.000001, 9.901964 
1.215e+3, 2.742313e+2, -316728.2, -391374.75, -0.0009316946, 0.00000025145974, -0.00020343007, -316728.2, -64195.195, 0.0, 10.000001, 9.902385 
1.215e+3, 2.841256e+2, -230254.94, -318081.22, 0.0009216139, 0.00000024829308, 0.00022905857, -230254.94, -74685.96, 0.0, 10.000001, 9.885438 
1.215e+3, 2.940121e+2, -130548.8, -217765.0, -0.002481973, 0.00000024752126, -0.0002533317, -130548.8, -71867.4, 0.0, 10.000001, 9.886217 
1.215e+3, 3.0392656e+2, -40804.79, -84750.16, 0.0016254188, 0.00000024825735, 0.00017314104, -40804.79, -40804.79, 0.0, 10.000001, 9.942172 
1.215e+3, 3.138706e+2, -39726.78, -82511.21, 0.000064633976, 0.00000025121102, -0.000055151566, -39726.78, -39726.78, 0.0, 10.000001, 9.943684 
1.225e+3, 1.2499335e+2, -1719945.3, -1724224.6, 0.0038661328, 0.00000028008924, 0.00001768059, -1719945.3, -4880.0845, 0.0, 10.000001, 9.994327 
1.225e+3, 1.349876e+2, -1622564.9, -1627434.8, -0.00061057793, 0.00000028251964, -0.00006838624, -1622564.9, -5443.3057, 0.0, 10.000001, 9.993545 
1.225e+3, 1.4497514e+2, -1534463.4, -1548146.3, 0.0057902643, 0.00000027990433, 0.00007101274, -1534463.4, -15219.809, 0.0, 10.000001, 9.981864 
1.225e+3, 1.5495703e+2, -1436735.8, -1450821.9, 0.00029514503, 0.00000027211243, -0.000056925255, -1436735.8, -15314.626, 0.0, 10.000001, 9.981333 
1.225e+3, 1.6493228e+2, -1348684.8, -1371952.3, 0.0038599411, 0.0000002702163, 0.00004738177, -1348684.8, -25021.121, 0.0, 10.000001, 9.969248 
1.225e+3, 1.7490156e+2, -1250726.8, -1274310.1, -0.00031340768, 0.00000027433998, -0.00007378245, -1250726.8, -24762.11, 0.0, 10.000001, 9.968834 
1.225e+3, 1.8486421e+2, -1162645.9, -1195720.0, 0.00349357, 0.00000027253088, 0.000066193395, -1162645.9, -34315.164, 0.0, 10.000001, 9.956395 
1.225e+3, 1.9482064e+2, -1064496.1, -1097832.9, -0.00052002445, 0.0000002645134, -0.000057616995, -1064496.1, -33738.496, 0.0, 10.000001, 9.956052 
1.225e+3, 2.0477042e+2, -976332.1, -1019434.94, 0.0021198045, 0.0000002632096, 0.00006811343, -976332.1, -43082.24, 0.0, 10.000001, 9.94329 
1.225e+3, 2.1471375e+2, -878045.06, -921409.8, -0.0036034358, 0.00000026917732, -0.00012679097, -878045.06, -42239.83, 0.0, 10.000001, 9.942949 
1.225e+3, 2.2465037e+2, -789759.0, -843144.8, 0.0013245017, 0.00000026819862, 0.00012091459, -789759.0, -51332.727, 0.0, 10.000001, 9.929907 
1.225e+3, 2.3458035e+2, -691325.5, -744966.4, -0.0007446889, 0.00000025935418, -0.00008878775, -691325.5, -50212.96, 0.0, 10.000001, 9.929576 
1.225e+3, 2.4450338e+2, -603001.44, -667018.75, 0.0012212422, 0.00000025682672, 0.00007473458, -603001.44, -59134.555, 0.0, 10.000001, 9.916136 
1.225e+3, 2.5441962e+2, -504248.75, -568343.25, -0.0041136555, 0.0000002618528, -0.000106716194, -504248.75, -57561.215, 0.0, 10.000001, 9.916036 
1.225e+3, 2.643288e+2, -416013.34, -490987.84, 0.0004249493, 0.0000002628019, 0.00014061105, -416013.34, -66435.69, 0.0, 10.000001, 9.901964 
1.225e+3, 2.742313e+2, -316728.13, -391374.75, -0.0018234705, 0.00000025854447, -0.00020342905, -316728.13, -64195.137, 0.0, 10.000001, 9.902385 
1.225e+3, 2.841256e+2, -230254.88, -318081.22, 0.0015065904, 0.00000025581755, 0.00022905912, -230254.88, -74685.91, 0.0, 10.000001, 9.885438 
1.225e+3, 2.940121e+2, -130548.74, -217764.98, -0.0017046934, 0.0000002552094, -0.00025333147, -130548.74, -71867.35, 0.0, 10.000001, 9.886217 
1.225e+3, 3.0392656e+2, -40804.734, -84750.14, 0.0015956783, 0.00000025568465, 0.00017314109, -40804.734, -40804.734, 0.0, 10.000001, 9.942172 
1.225e+3, 3.138706e+2, -39726.72, -82511.195, -0.0021501482, 0.0000002577498, -0.000055151475, -39726.72, -39726.72, 0.0, 10.000001, 9.943684 
1.235e+3, 1.2499335e+2, -1719945.3, -1724224.6, 0.0018732613, 0.0000002953655, 0.000017683533, -1719945.3, -4880.0967, 0.0, 10.000001, 9.994327 
1.235e+3, 1.349876e+2, -1622564.9, -1627434.9, -0.0026046215, 0.00000028578023, -0.00006838784, -1622564.9, -5443.3174, 0.0, 10.000001, 9.993545 
1.235e+3, 1.4497514e+2, -1534463.4, -1548146.3, 0.0056968383, 0.0000002813146, 0.00007100907, -1534463.4, -15219.822, 0.0, 10.000001, 9.981864 
1.235e+3, 1.5495703e+2, -1436735.8, -1450821.9, 0.00020472756, 0.00000028190317, -0.000056924757, -1436735.8, -15314.64, 0.0, 10.000001, 9.981333 
1.235e+3, 1.6493228e+2, -1348684.8, -1371952.3, 0.0016273465, 0.00000028134085, 0.0000473832, -1348684.8, -25021.13, 0.0, 10.000001, 9.969248 
1.235e+3, 1.7490156e+2, -1250726.8, -1274310.1, -0.0025573222, 0.00000027960328, -0.00007378342, -1250726.8, -24762.12, 0.0, 10.000001, 9.968834 
1.235e+3, 1.8486421e+2, -1162645.9, -1195720.0, 0.0034702825, 0.00000027791165, 0.000066192435, -1162645.9, -34315.17, 0.0, 10.000001, 9.956395 
1.235e+3, 1.9482064e+2, -1064496.1, -1097832.9, -0.0005175981, 0.0000002762678, -0.000057615423, -1064496.1, -33738.504, 0.0, 10.000001, 9.956052 
1.235e+3, 2.0477042e+2, -976332.1, -1019435.0, 0.001475308, 0.00000027388356, 0.00006811498, -976332.1, -43082.25, 0.0, 10.000001, 9.94329 
1.235e+3, 2.1471375e+2, -878045.1, -921409.9, -0.0042612855, 0.00000027069717, -0.00012679219, -878045.1, -42239.84, 0.0, 10.000001, 9.942949 
1.235e+3, 2.2465037e+2, -789759.0, -843144.8, 0.00042130612, 0.00000027005035, 0.00012091119, -789759.0, -51332.73, 0.0, 10.000001, 9.929907 
1.235e+3, 2.3458035e+2, -691325.5, -744966.44, -0.0016559403, 0.0000002722783, -0.00008879266, -691325.5, -50212.97, 0.0, 10.000001, 9.929576 
1.235e+3, 2.4450338e+2, -603001.44, -667018.75, 0.0017635726, 0.00000027149704, 0.0000747319, -603001.44, -59134.566, 0.0, 10.000001, 9.916136 
1.235e+3, 2.5441962e+2, -504248.78, -568343.3, -0.0035015112, 0.00000026711817, -0.00010671217, -504248.78, -57561.223, 0.0, 10.000001, 9.916036 
1.235e+3, 2.643288e+2, -416013.38, -490987.88, 0.00036855057, 0.0000002646433, 0.00014061618, -416013.38, -66435.695, 0.0, 10.000001, 9.901964 
1.235e+3, 2.742313e+2, -316728.13, -391374.75, -0.0019247411, 0.00000026459963, -0.00020343, -316728.13, -64195.14, 0.0, 10.000001, 9.902385 
1.235e+3, 2.841256e+2, -230254.89, -318081.22, 0.0015970318, 0.00000026531004, 0.00022905516, -230254.89, -74685.914, 0.0, 10.000001, 9.885438 
1.235e+3, 2.940121e+2, -130548.75, -217765.0, -0.001597021, 0.00000026704092, -0.00025333426, -130548.75, -71867.35, 0.0, 10.000001, 9.886217 
1.235e+3, 3.0392656e+2, -40804.742, -84750.16, 0.002792061, 0.00000026572565, 0.00017314333, -40804.742, -40804.742, 0.0, 10.000001, 9.942172 
1.235e+3, 3.138706e+2, -39726.727, -82511.21, -0.0008259605, 0.00000025987953, -0.000055138553, -39726.727, -39726.727, 0.0, 10.000001, 9.943684 
1.245e+3, 1.2499335e+2, -1719945.3, -1724224.6, 0.0006103936, 0.0000003061378, 0.0000176867, -1719945.3, -4880.0366, 0.0, 10.000001, 9.994327 
1.245e+3, 1.349876e+2, -1622564.8, -1627434.8, -0.004319716, 0.0000002921689, -0.0000683821, -1622564.8, -5443.2417, 0.0, 10.000001, 9.993545 
1.245e+3, 1.4497514e+2, -1534463.4, -1548146.3, 0.003038861, 0.00000028713495, 0.00007101294, -1534463.4, -15219.745, 0.0, 10.000001, 9.981864 
1.245e+3, 1.5495703e+2, -1436735.8, -1450821.9, -0.0008089505, 0.00000029099706, -0.000056922574, -1436735.8, -15314.577, 0.0, 10.000001, 9.981333 
1.245e+3, 1.6493228e+2, -1348684.8, -1371952.3, 0.0016473288, 0.0000002909019, 0.000047384772, -1348684.8, -25021.07, 0.0, 10.000001, 9.969248 
1.245e+3, 1.7490156e+2, -1250726.8, -1274310.1, -0.0030727321, 0.000000286766, -0.00007378135, -1250726.8, -24762.05, 0.0, 10.000001, 9.968834 
1.245e+3, 1.8486421e+2, -1162645.8, -1195720.0, 0.0029414198, 0.0000002847408, 0.000066194785, -1162645.8, -34315.1, 0.0, 10.000001, 9.956395 
1.245e+3, 1.9482064e+2, -1064496.0, -1097832.9, -0.0016106319, 0.00000028492394, -0.000057613004, -1064496.0, -33738.44, 0.0, 10.000001, 9.956052 
1.245e+3, 2.0477042e+2, -976332.06, -1019434.94, 0.0017221206, 0.0000002827795, 0.00006811667, -976332.06, -43082.19, 0.0, 10.000001, 9.94329 
1.245e+3, 2.1471375e+2, -878045.06, -921409.8, -0.0005839826, 0.0000002781138, -0.00012679209, -878045.06, -42239.777, 0.0, 10.000001, 9.942949 
1.245e+3, 2.2465037e+2, -789758.94, -843144.8, 0.0043460205, 0.0000002770643, 0.00012091102, -789758.94, -51332.668, 0.0, 10.000001, 9.929907 
1.245e+3, 2.3458035e+2, -691325.44, -744966.4, -0.0016168066, 0.00000028010888, -0.000088791574, -691325.44, -50212.902, 0.0, 10.000001, 9.929576 
1.245e+3, 2.4450338e+2, -603001.4, -667018.75, 0.0012911272, 0.0000002795751, 0.000074733296, -603001.4, -59134.5, 0.0, 10.000001, 9.916136 
1.245e+3, 2.5441962e+2, -504248.72, -568343.25, -0.0013577766, 0.00000027476264, -0.00010671157, -504248.72, -57561.164, 0.0, 10.000001, 9.916036 
1.245e+3, 2.643288e+2, -416013.3, -490987.84, 0.0029624058, 0.00000027216495, 0.00014061645, -416013.3, -66435.63, 0.0, 10.000001, 9.901964 
1.245e+3, 2.742313e+2, -316728.1, -391374.72, -0.001644924, 0.0000002723957, -0.00020342936, -316728.1, -64195.082, 0.0, 10.000001, 9.902385 
1.245e+3, 2.841256e+2, -230254.83, -318081.22, 0.0006975792, 0.00000027309733, 0.00022905588, -230254.83, -74685.85, 0.0, 10.000001, 9.885438 
1.245e+3, 2.940121e+2, -130548.69, -217764.98, -0.0031974432, 0.00000027442988, -0.00025333383, -130548.69, -71867.29, 0.0, 10.000001, 9.886217 
1.245e+3, 3.0392656e+2, -40804.68, -84750.14, 0.0009916018, 0.00000027299262, 0.00017314382, -40804.68, -40804.68, 0.0, 10.000001, 9.942172 
1.245e+3, 3.138706e+2, -39726.67, -82511.195, -0.00224634, 0.00000026743848, -0.000055137483, -39726.67, -39726.67, 0.0, 10.000001, 9.943684 
1.255e+3, 1.2499335e+2, -1719945.3, -1724224.6, 0.0022907224, 0.00000031240614, 0.000017690094, -1719945.3, -4880.0493, 0.0, 10.000001, 9.994327 
1.255e+3, 1.349876e+2, -1622564.8, -1627434.9, -0.0026398653, 0.00000030168562, -0.00006836902, -1622564.8, -5443.2544, 0.0, 10.000001, 9.993545 
1.255e+3, 1.4497514e+2, -1534463.4, -1548146.3, -0.00024820011, 0.00000029736535, 0.00007102436, -1534463.4, -15219.756, 0.0, 10.000001, 9.981864 
1.255e+3, 1.5495703e+2, -1436735.8, -1450821.9, -0.0041038794, 0.00000029939412, -0.000056918707, -1436735.8, -15314.587, 0.0, 10.000001, 9.981333 
1.255e+3, 1.6493228e+2, -1348684.8, -1371952.3, 0.0014229062, 0.0000002988995, 0.00004738649, -1348684.8, -25021.082, 0.0, 10.000001, 9.969248 
1.255e+3, 1.7490156e+2, -1250726.8, -1274310.1, -0.003280945, 0.00000029582813, -0.00007377626, -1250726.8, -24762.063, 0.0, 10.000001, 9.968834 
1.255e+3, 1.8486421e+2, -1162645.8, -1195720.0, 0.0015910942, 0.0000002930183, 0.00006620044, -1162645.8, -34315.113, 0.0, 10.000001, 9.956395 
1.255e+3, 1.9482064e+2, -1064496.0, -1097832.9, -0.002974169, 0.00000029048184, -0.000057609737, -1064496.0, -33738.453, 0.0, 10.000001, 9.956052 
1.255e+3, 2.0477042e+2, -976332.06, -1019435.0, 0.0009883796, 0.00000028989749, 0.000068118505, -976332.06, -43082.195, 0.0, 10.000001, 9.94329 
1.255e+3, 2.1471375e+2, -878045.06, -921409.8, -0.0013047156, 0.00000029142709, -0.00012679068, -878045.06, -42239.785, 0.0, 10.000001, 9.942949 
1.255e+3, 2.2465037e+2, -789758.94, -843144.8, 0.004341771, 0.00000028924032, 0.0001209141, -789758.94, -51332.68, 0.0, 10.000001, 9.929907 
1.255e+3, 2.3458035e+2, -691325.44, -744966.44, -0.0015976286, 0.0000002828459, -0.00008878449, -691325.44, -50212.914, 0.0, 10.000001, 9.929576 
1.255e+3, 2.4450338e+2, -603001.4, -667018.75, 0.0007192517, 0.00000028106095, 0.000074738775, -603001.4, -59134.508, 0.0, 10.000001, 9.916136 
1.255e+3, 2.5441962e+2, -504248.72, -568343.25, -0.0019581097, 0.00000028478613, -0.000106714426, -504248.72, -57561.168, 0.0, 10.000001, 9.916036 
1.255e+3, 2.643288e+2, -416013.3, -490987.88, 0.0030325477, 0.00000028536684, 0.00014061191, -416013.3, -66435.64, 0.0, 10.000001, 9.901964 
1.255e+3, 2.742313e+2, -316728.1, -391374.75, -0.0015298966, 0.00000028193267, -0.00020342715, -316728.1, -64195.09, 0.0, 10.000001, 9.902385 
1.255e+3, 2.841256e+2, -230254.83, -318081.22, 0.0015829259, 0.0000002791794, 0.00022906128, -230254.83, -74685.86, 0.0, 10.000001, 9.885438 
1.255e+3, 2.940121e+2, -130548.695, -217765.0, -0.002242755, 0.00000027737633, -0.00025333016, -130548.695, -71867.3, 0.0, 10.000001, 9.886217 
1.255e+3, 3.0392656e+2, -40804.69, -84750.16, 0.000983961, 0.00000027748558, 0.00017314259, -40804.69, -40804.69, 0.0, 10.000001, 9.942172 
1.255e+3, 3.138706e+2, -39726.68, -82511.21, -0.002366981, 0.00000028042652, -0.000055148266, -39726.68, -39726.68, 0.0, 10.000001, 9.943684 
1.265e+3, 1.2499335e+2, -1719945.1, -1724224.6, 0.0051976233, 0.00000031820608, 0.000017693146, -1719945.1, -4879.9614, 0.0, 10.000001, 9.994327 
1.265e+3, 1.349876e+2, -1622564.8, -1627434.8, -0.00012018695, 0.00000031177143, -0.000068365465, -1622564.8, -5443.191, 0.0, 10.000001, 9.993545 
1.265e+3, 1.4497514e+2, -1534463.3, -1548146.1, 0.0012102503, 0.00000030855742, 0.00007102557, -1534463.3, -15219.696, 0.0, 10.000001, 9.981864 
1.265e+3, 1.5495703e+2, -1436735.6, -1450821.9, -0.0032752564, 0.00000030849694, -0.000056916277, -1436735.6, -15314.515, 0.0, 10.000001, 9.981333 
1.265e+3, 1.6493228e+2, -1348684.6, -1371952.3, 0.0027367533, 0.00000030687218, 0.00004738914, -1348684.6, -25021.008, 0.0, 10.000001, 9.969248 
1.265e+3, 1.7490156e+2, -1250726.6, -1274310.1, -0.0018863087, 0.00000030364993, -0.00007377441, -1250726.6, -24761.994, 0.0, 10.000001, 9.968834 
1.265e+3, 1.8486421e+2, -1162645.8, -1195720.0, 0.0029619618, 0.00000030126398, 0.00006620175, -1162645.8, -34315.047, 0.0, 10.000001, 9.956395 
1.265e+3, 1.9482064e+2, -1064496.0, -1097832.9, -0.0012413153, 0.00000029975286, -0.000057608693, -1064496.0, -33738.387, 0.0, 10.000001, 9.956052 
1.265e+3, 2.0477042e+2, -976332.0, -1019434.94, 0.0016311826, 0.00000029896728, 0.00006812004, -976332.0, -43082.13, 0.0, 10.000001, 9.94329 
1.265e+3, 2.1471375e+2, -878045.0, -921409.8, -0.0048952107, 0.0000002989674, -0.00012678783, -878045.0, -42239.715, 0.0, 10.000001, 9.942949 
1.265e+3, 2.2465037e+2, -789758.9, -843144.8, -0.00002822865, 0.00000029659105, 0.00012091695, -789758.9, -51332.613, 0.0, 10.000001, 9.929907 
1.265e+3, 2.3458035e+2, -691325.4, -744966.4, -0.0024882636, 0.00000029152432, -0.00008878312, -691325.4, -50212.85, 0.0, 10.000001, 9.929576 
1.265e+3, 2.4450338e+2, -603001.3, -667018.75, 0.0010563286, 0.00000028999213, 0.000074739604, -603001.3, -59134.445, 0.0, 10.000001, 9.916136 
1.265e+3, 2.5441962e+2, -504248.66, -568343.25, -0.004083109, 0.00000029268455, -0.00010671302, -504248.66, -57561.1, 0.0, 10.000001, 9.916036 
1.265e+3, 2.643288e+2, -416013.25, -490987.84, 0.00006950401, 0.00000029283362, 0.00014061345, -416013.25, -66435.58, 0.0, 10.000001, 9.901964 
1.265e+3, 2.742313e+2, -316728.03, -391374.75, -0.0033641304, 0.0000002897359, -0.00020342604, -316728.03, -64195.027, 0.0, 10.000001, 9.902385 
1.265e+3, 2.841256e+2, -230254.77, -318081.22, 0.0011412528, 0.00000028734874, 0.00022906222, -230254.77, -74685.8, 0.0, 10.000001, 9.885438 
1.265e+3, 2.940121e+2, -130548.63, -217764.98, -0.002177821, 0.00000028594883, -0.00025332897, -130548.63, -71867.24, 0.0, 10.000001, 9.886217 
1.265e+3, 3.0392656e+2, -40804.63, -84750.14, 0.0014626725, 0.0000002858496, 0.00017314334, -40804.63, -40804.63, 0.0, 10.000001, 9.942172 
1.265e+3, 3.138706e+2, -39726.613, -82511.195, -0.0015709302, 0.00000028767357, -0.00005514895, -39726.613, -39726.613, 0.0, 10.000001, 9.943684 
1.275e+3, 1.2499335e+2, -1719945.1, -1724224.6, 0.0011664313, 0.00000032353768, 0.000017695855, -1719945.1, -4879.975, 0.0, 10.000001, 9.994327 
1.275e+3, 1.349876e+2, -1622564.8, -1627434.9, -0.0041532307, 0.0000003224263, -0.00006837143, -1622564.8, -5443.2046, 0.0, 10.000001, 9.993545 
1.275e+3, 1.4497514e+2, -1534463.4, -1548146.3, 0.0010204936, 0.00000032071114, 0.000071016555, -1534463.4, -15219.707, 0.0, 10.000001, 9.981864 
1.275e+3, 1.5495703e+2, -1436735.6, -1450821.9, -0.0034589113, 0.00000031830547, -0.00005691528, -1436735.6, -15314.525, 0.0, 10.000001, 9.981333 
1.275e+3, 1.6493228e+2, -1348684.6, -1371952.3, 0.0010021412, 0.00000031481994, 0.00004739273, -1348684.6, -25021.02, 0.0, 10.000001, 9.969248 
1.275e+3, 1.7490156e+2, -1250726.6, -1274310.1, -0.0036290926, 0.00000031023143, -0.0000737758, -1250726.6, -24762.006, 0.0, 10.000001, 9.968834 
1.275e+3, 1.8486421e+2, -1162645.8, -1195720.0, 0.0018670292, 0.00000030947785, 0.000066198714, -1162645.8, -34315.06, 0.0, 10.000001, 9.956395 
1.275e+3, 1.9482064e+2, -1064496.0, -1097832.9, -0.0023287188, 0.00000031273692, -0.000057609876, -1064496.0, -33738.395, 0.0, 10.000001, 9.956052 
1.275e+3, 2.0477042e+2, -976332.0, -1019435.0, 0.0014177735, 0.0000003099889, 0.00006812128, -976332.0, -43082.14, 0.0, 10.000001, 9.94329 
1.275e+3, 2.1471375e+2, -878045.0, -921409.8, -0.0050905496, 0.0000003007347, -0.00012678355, -878045.0, -42239.727, 0.0, 10.000001, 9.942949 
1.275e+3, 2.2465037e+2, -789758.9, -843144.8, -0.0012267515, 0.00000029911655, 0.000120919576, -789758.9, -51332.617, 0.0, 10.000001, 9.929907 
1.275e+3, 2.3458035e+2, -691325.4, -744966.44, -0.0037196102, 0.00000030614402, -0.00008878747, -691325.4, -50212.855, 0.0, 10.000001, 9.929576 
1.275e+3, 2.4450338e+2, -603001.3, -667018.75, 0.00132941, 0.00000030636852, 0.00007473577, -603001.3, -59134.457, 0.0, 10.000001, 9.916136 
1.275e+3, 2.5441962e+2, -504248.66, -568343.25, -0.003737791, 0.0000002984579, -0.00010670737, -504248.66, -57561.113, 0.0, 10.000001, 9.916036 
1.275e+3, 2.643288e+2, -416013.25, -490987.88, -0.00011295568, 0.0000002945654, 0.00014062106, -416013.25, -66435.586, 0.0, 10.000001, 9.901964 
1.275e+3, 2.742313e+2, -316728.03, -391374.75, -0.003582054, 0.00000029580536, -0.00020342605, -316728.03, -64195.035, 0.0, 10.000001, 9.902385 
1.275e+3, 2.841256e+2, -230254.78, -318081.22, 0.0012531803, 0.00000029760525, 0.00022905871, -230254.78, -74685.805, 0.0, 10.000001, 9.885438 
1.275e+3, 2.940121e+2, -130548.64, -217765.0, -0.002036289, 0.0000003001473, -0.00025333028, -130548.64, -71867.25, 0.0, 10.000001, 9.886217 
1.275e+3, 3.0392656e+2, -40804.637, -84750.16, 0.0025911734, 0.0000002980846, 0.00017314608, -40804.637, -40804.637, 0.0, 10.000001, 9.942172 
1.275e+3, 3.138706e+2, -39726.62, -82511.21, -0.00032664882, 0.00000028917964, -0.000055139542, -39726.62, -39726.62, 0.0, 10.000001, 9.943684 
1.285e+3, 1.2499335e+2, -1719945.1, -1724224.6, 0.0037241946, 0.00000033271857, 0.000017696882, -1719945.1, -4879.9043, 0.0, 10.000001, 9.994327 
1.285e+3, 1.349876e+2, -1622564.6, -1627434.8, -0.0011501309, 0.0000003315235, -0.000068369154, -1622564.6, -5443.1226, 0.0, 10.000001, 9.993545 
1.285e+3, 1.4497514e+2, -1534463.3, -1548146.1, 0.004818547, 0.000000329878, 0.00007101627, -1534463.3, -15219.625, 0.0, 10.000001, 9.981864 
1.285e+3, 1.5495703e+2, -1436735.6, -1450821.9, -0.00092496927, 0.0000003277007, -0.00005691353, -1436735.6, -15314.455, 0.0, 10.000001, 9.981333 
1.285e+3, 1.6493228e+2, -1348684.6, -1371952.3, 0.0032734734, 0.0000003241828, 0.000047395126, -1348684.6, -25020.95, 0.0, 10.000001, 9.969248 
1.285e+3, 1.7490156e+2, -1250726.6, -1274310.1, -0.0016654078, 0.00000031929568, -0.00007377418, -1250726.6, -24761.93, 0.0, 10.000001, 9.968834 
1.285e+3, 1.8486421e+2, -1162645.6, -1195720.0, 0.0025115572, 0.00000031821241, 0.000066200286, -1162645.6, -34314.98, 0.0, 10.000001, 9.956395 
1.285e+3, 1.9482064e+2, -1064495.9, -1097832.9, -0.003079628, 0.00000032110927, -0.000057607613, -1064495.9, -33738.32, 0.0, 10.000001, 9.956052 
1.285e+3, 2.0477042e+2, -976331.94, -1019434.94, 0.0028665094, 0.00000031846332, 0.000068123205, -976331.94, -43082.07, 0.0, 10.000001, 9.94329 
1.285e+3, 2.1471375e+2, -878044.94, -921409.8, 0.00014750478, 0.00000030981388, -0.00012678307, -878044.94, -42239.66, 0.0, 10.000001, 9.942949 
1.285e+3, 2.2465037e+2, -789758.8, -843144.8, 0.003574576, 0.00000030821204, 0.00012091967, -789758.8, -51332.547, 0.0, 10.000001, 9.929907 
1.285e+3, 2.3458035e+2, -691325.3, -744966.4, -0.0026930291, 0.00000031458953, -0.00008878657, -691325.3, -50212.785, 0.0, 10.000001, 9.929576 
1.285e+3, 2.4450338e+2, -603001.25, -667018.75, 0.0019410409, 0.00000031454883, 0.00007473712, -603001.25, -59134.387, 0.0, 10.000001, 9.916136 
1.285e+3, 2.5441962e+2, -504248.6, -568343.25, -0.0020211132, 0.00000030683316, -0.00010670599, -504248.6, -57561.047, 0.0, 10.000001, 9.916036 
1.285e+3, 2.643288e+2, -416013.2, -490987.84, 0.0013798549, 0.00000030308996, 0.00014062224, -416013.2, -66435.516, 0.0, 10.000001, 9.901964 
1.285e+3, 2.742313e+2, -316727.97, -391374.72, -0.002994811, 0.00000030441998, -0.00020342534, -316727.97, -64194.965, 0.0, 10.000001, 9.902385 
1.285e+3, 2.841256e+2, -230254.7, -318081.22, 0.0012710866, 0.00000030614802, 0.00022905921, -230254.7, -74685.74, 0.0, 10.000001, 9.885438 
1.285e+3, 2.940121e+2, -130548.58, -217764.98, -0.00349193, 0.0000003083969, -0.00025332966, -130548.58, -71867.18, 0.0, 10.000001, 9.886216 
1.285e+3, 3.0392656e+2, -40804.57, -84750.14, 0.00015912563, 0.00000030631188, 0.00017314711, -40804.57, -40804.57, 0.0, 10.000001, 9.942172 
1.285e+3, 3.138706e+2, -39726.56, -82511.195, -0.004072553, 0.0000002977884, -0.000055137614, -39726.56, -39726.56, 0.0, 10.000001, 9.943684 
1.295e+3, 1.2499335e+2, -1719945.1, -1724224.6, 0.0023870356, 0.00000034574873, 0.000017696231, -1719945.1, -4879.917, 0.0, 10.000001, 9.994327 
1.295e+3, 1.349876e+2, -1622564.6, -1627434.8, -0.0024886623, 0.00000033906304, -0.00006835863, -1622564.6, -5443.1353, 0.0, 10.000001, 9.993545 
1.295e+3, 1.4497514e+2, -1534463.3, -1548146.3, 0.002013856, 0.000000336058, 0.000071024726, -1534463.3, -15219.64, 0.0, 10.000001, 9.981864 
1.295e+3, 1.5495703e+2, -1436735.6, -1450821.9, -0.0037320103, 0.00000033668263, -0.000056911023, -1436735.6, -15314.469, 0.0, 10.000001, 9.981333 
1.295e+3, 1.6493228e+2, -1348684.6, -1371952.3, 0.0030629635, 0.00000033496067, 0.000047396334, -1348684.6, -25020.963, 0.0, 10.000001, 9.969248 
1.295e+3, 1.7490156e+2, -1250726.6, -1274310.1, -0.0018621789, 0.00000033084265, -0.00007376953, -1250726.6, -24761.943, 0.0, 10.000001, 9.968834 
1.295e+3, 1.8486421e+2, -1162645.6, -1195720.0, 0.00069072266, 0.00000032746772, 0.00006620646, -1162645.6, -34314.996, 0.0, 10.000001, 9.956395 
1.295e+3, 1.9482064e+2, -1064495.9, -1097832.9, -0.004919218, 0.00000032486992, -0.000057601905, -1064495.9, -33738.336, 0.0, 10.000001, 9.956052 
1.295e+3, 2.0477042e+2, -976331.94, -1019435.0, 0.002381827, 0.0000003243905, 0.000068125824, -976331.94, -43082.08, 0.0, 10.000001, 9.94329 
1.295e+3, 2.1471375e+2, -878044.94, -921409.8, -0.00030914517, 0.00000032620486, -0.00012678638, -878044.94, -42239.664, 0.0, 10.000001, 9.942949 
1.295e+3, 2.2465037e+2, -789758.8, -843144.8, 0.0027277635, 0.00000032387737, 0.00012091723, -789758.8, -51332.563, 0.0, 10.000001, 9.929907 
1.295e+3, 2.3458035e+2, -691325.3, -744966.44, -0.0035526145, 0.00000031686093, -0.000088780405, -691325.3, -50212.8, 0.0, 10.000001, 9.929576 
1.295e+3, 2.4450338e+2, -603001.25, -667018.75, 0.0018788392, 0.00000031453308, 0.00007474366, -603001.25, -59134.395, 0.0, 10.000001, 9.916136 
1.295e+3, 2.5441962e+2, -504248.6, -568343.25, -0.0020450347, 0.00000031781025, -0.000106708896, -504248.6, -57561.055, 0.0, 10.000001, 9.916036 
1.295e+3, 2.643288e+2, -416013.2, -490987.88, 0.0010135908, 0.00000031840722, 0.00014061699, -416013.2, -66435.52, 0.0, 10.000001, 9.901964 
1.295e+3, 2.742313e+2, -316727.97, -391374.75, -0.0033841175, 0.0000003155797, -0.0002034239, -316727.97, -64194.977, 0.0, 10.000001, 9.902385 
1.295e+3, 2.841256e+2, -230254.72, -318081.25, 0.0017158415, 0.00000031297705, 0.0002290637, -230254.72, -74685.75, 0.0, 10.000001, 9.885438 
1.295e+3, 2.940121e+2, -130548.586, -217765.0, -0.0029721817, 0.00000031069771, -0.00025332716, -130548.586, -71867.19, 0.0, 10.000001, 9.886216 
1.295e+3, 3.0392656e+2, -40804.58, -84750.16, 0.0006080375, 0.00000031053148, 0.00017314646, -40804.58, -40804.58, 0.0, 10.000001, 9.942172 
1.295e+3, 3.138706e+2, -39726.566, -82511.21, -0.0036320619, 0.00000031349973, -0.000055143166, -39726.566, -39726.566, 0.0, 10.000001, 9.943684 
1.305e+3, 1.2499335e+2, -1719945.0, -1724224.6, 0.0052658957, 0.00000035609537, 0.000017698314, -1719945.0, -4879.832, 0.0, 10.000001, 9.994327 
1.305e+3, 1.349876e+2, -1622564.6, -1627434.8, -0.0011037091, 0.00000034910937, -0.00006835479, -1622564.6, -5443.059, 0.0, 10.000001, 9.993545 
1.305e+3, 1.4497514e+2, -1534463.1, -1548146.1, 0.0033245573, 0.00000034540076, 0.00007102512, -1534463.1, -15219.563, 0.0, 10.000001, 9.981864 
1.305e+3, 1.5495703e+2, -1436735.5, -1450821.9, -0.002287098, 0.00000034492086, -0.00005690879, -1436735.5, -15314.384, 0.0, 10.000001, 9.981333 
1.305e+3, 1.6493228e+2, -1348684.5, -1371952.3, 0.0044373837, 0.00000034350234, 0.000047399317, -1348684.5, -25020.877, 0.0, 10.000001, 9.969248 
1.305e+3, 1.7490156e+2, -1250726.5, -1274310.1, -0.0013131144, 0.0000003411254, -0.0000737669, -1250726.5, -24761.867, 0.0, 10.000001, 9.968834 
1.305e+3, 1.8486421e+2, -1162645.6, -1195720.0, 0.001774739, 0.00000033777124, 0.00006620849, -1162645.6, -34314.92, 0.0, 10.000001, 9.956395 
1.305e+3, 1.9482064e+2, -1064495.9, -1097832.9, -0.002695897, 0.000000333394, -0.000057600704, -1064495.9, -33738.258, 0.0, 10.000001, 9.956052 
1.305e+3, 2.0477042e+2, -976331.9, -1019434.94, 0.0030010638, 0.0000003326728, 0.00006812717, -976331.9, -43082.0, 0.0, 10.000001, 9.94329 
1.305e+3, 2.1471375e+2, -878044.9, -921409.8, -0.0040534483, 0.00000033591093, -0.00012678382, -878044.9, -42239.594, 0.0, 10.000001, 9.942949 
1.305e+3, 2.2465037e+2, -789758.75, -843144.8, -0.0012470766, 0.0000003337348, 0.0001209201, -789758.75, -51332.49, 0.0, 10.000001, 9.929907 
1.305e+3, 2.3458035e+2, -691325.25, -744966.4, -0.00473778, 0.00000032542863, -0.00008877823, -691325.25, -50212.723, 0.0, 10.000001, 9.929576 
1.305e+3, 2.4450338e+2, -603001.2, -667018.75, 0.0015435943, 0.00000032281363, 0.000074745156, -603001.2, -59134.32, 0.0, 10.000001, 9.916136 
1.305e+3, 2.5441962e+2, -504248.53, -568343.25, -0.0032729749, 0.00000032700282, -0.000106708074, -504248.53, -57560.984, 0.0, 10.000001, 9.916036 
1.305e+3, 2.643288e+2, -416013.13, -490987.84, -0.00028520948, 0.0000003278514, 0.00014061773, -416013.13, -66435.45, 0.0, 10.000001, 9.901964 
1.305e+3, 2.742313e+2, -316727.9, -391374.72, -0.0048930366, 0.00000032443234, -0.00020342249, -316727.9, -64194.902, 0.0, 10.000001, 9.902384 
1.305e+3, 2.841256e+2, -230254.64, -318081.22, 0.0008918474, 0.00000032152843, 0.00022906529, -230254.64, -74685.68, 0.0, 10.000001, 9.885438 
1.305e+3, 2.940121e+2, -130548.516, -217764.98, -0.0025002018, 0.0000003193491, -0.00025332608, -130548.516, -71867.12, 0.0, 10.000001, 9.886216 
1.305e+3, 3.0392656e+2, -40804.51, -84750.14, 0.002349333, 0.00000031937466, 0.0001731468, -40804.51, -40804.51, 0.0, 10.000001, 9.942172 
1.305e+3, 3.138706e+2, -39726.5, -82511.195, -0.0007647694, 0.0000003226671, -0.00005514384, -39726.5, -39726.5, 0.0, 10.000001, 9.943684 
1.315e+3, 1.2499335e+2, -1719945.0, -1724224.6, 0.0019603004, 0.00000036375855, 0.000017703129, -1719945.0, -4879.8486, 0.0, 10.000001, 9.994327 
1.315e+3, 1.349876e+2, -1622564.6, -1627434.9, -0.004411117, 0.0000003616625, -0.00006835762, -1622564.6, -5443.075, 0.0, 10.000001, 9.993545 
1.315e+3, 1.4497514e+2, -1534463.1, -1548146.3, 0.0026861113, 0.0000003579062, 0.00007101746, -1534463.1, -15219.577, 0.0, 10.000001, 9.981864 
1.315e+3, 1.5495703e+2, -1436735.5, -1450821.9, -0.0029213664, 0.00000035241544, -0.00005690683, -1436735.5, -15314.397, 0.0, 10.000001, 9.981333 
1.315e+3, 1.6493228e+2, -1348684.5, -1371952.3, 0.0017338463, 0.00000034980772, 0.000047404075, -1348684.5, -25020.89, 0.0, 10.000001, 9.969248 
1.315e+3, 1.7490156e+2, -1250726.5, -1274310.1, -0.004027525, 0.00000035014392, -0.00007376631, -1250726.5, -24761.88, 0.0, 10.000001, 9.968834 
1.315e+3, 1.8486421e+2, -1162645.6, -1195720.0, 0.0014835612, 0.00000034912296, 0.00006620638, -1162645.6, -34314.934, 0.0, 10.000001, 9.956395 
1.315e+3, 1.9482064e+2, -1064495.9, -1097832.9, -0.0029589331, 0.00000034668145, -0.00005760402, -1064495.9, -33738.266, 0.0, 10.000001, 9.956052 
1.315e+3, 2.0477042e+2, -976331.9, -1019435.0, 0.0011625368, 0.00000034331026, 0.00006812724, -976331.9, -43082.016, 0.0, 10.000001, 9.94329 
1.315e+3, 2.1471375e+2, -878044.9, -921409.8, -0.005924426, 0.00000033893218, -0.00012677541, -878044.9, -42239.61, 0.0, 10.000001, 9.942949 
1.315e+3, 2.2465037e+2, -789758.75, -843144.8, -0.0011236608, 0.00000033778431, 0.00012092827, -789758.75, -51332.5, 0.0, 10.000001, 9.929907 
1.315e+3, 2.3458035e+2, -691325.25, -744966.4, -0.004549073, 0.00000034029256, -0.000088780034, -691325.25, -50212.73, 0.0, 10.000001, 9.929576 
1.315e+3, 2.4450338e+2, -603001.2, -667018.75, 0.00042129023, 0.0000003393904, 0.00007474161, -603001.2, -59134.33, 0.0, 10.000001, 9.916136 
1.315e+3, 2.5441962e+2, -504248.53, -568343.25, -0.004458346, 0.00000033441086, -0.00010670354, -504248.53, -57560.992, 0.0, 10.000001, 9.916036 
1.315e+3, 2.643288e+2, -416013.13, -490987.88, -0.000057106034, 0.00000033142263, 0.00014062447, -416013.13, -66435.47, 0.0, 10.000001, 9.901964 
1.315e+3, 2.742313e+2, -316727.9, -391374.75, -0.0045702658, 0.00000033097785, -0.00020342109, -316727.9, -64194.914, 0.0, 10.000001, 9.902384 
1.315e+3, 2.841256e+2, -230254.66, -318081.22, 0.0009723822, 0.0000003318021, 0.00022906398, -230254.66, -74685.69, 0.0, 10.000001, 9.885438 
1.315e+3, 2.940121e+2, -130548.52, -217765.0, -0.002441732, 0.00000033435097, -0.0002533265, -130548.52, -71867.125, 0.0, 10.000001, 9.886216 
1.315e+3, 3.0392656e+2, -40804.52, -84750.16, 0.0026133477, 0.00000033284144, 0.00017314812, -40804.52, -40804.52, 0.0, 10.000001, 9.942172 
1.315e+3, 3.138706e+2, -39726.508, -82511.21, -0.00047684868, 0.0000003252905, -0.000055139626, -39726.508, -39726.508, 0.0, 10.000001, 9.943684 
1.325e+3, 1.2499335e+2, -1719945.0, -1724224.6, 0.003146856, 0.0000003752142, 0.00001770578, -1719945.0, -4879.77, 0.0, 10.000001, 9.994327 
1.325e+3, 1.349876e+2, -1622564.5, -1627434.8, -0.0019861686, 0.00000037115268, -0.00006835173, -1622564.5, -5442.9834, 0.0, 10.000001, 9.993545 
1.325e+3, 1.4497514e+2, -1534463.1, -1548146.1, 0.005095203, 0.0000003669522, 0.00007101915, -1534463.1, -15219.485, 0.0, 10.000001, 9.981864 
1.325e+3, 1.5495703e+2, -1436735.4, -1450821.9, -0.0013306448, 0.00000036255378, -0.00005690404, -1436735.4, -15314.317, 0.0, 10.000001, 9.981333 
1.325e+3, 1.6493228e+2, -1348684.5, -1371952.3, 0.0033092804, 0.0000003601163, 0.000047406927, -1348684.5, -25020.813, 0.0, 10.000001, 9.969248 
1.325e+3, 1.7490156e+2, -1250726.5, -1274310.1, -0.0020023147, 0.0000003596812, -0.00007376446, -1250726.5, -24761.795, 0.0, 10.000001, 9.968834 
1.325e+3, 1.8486421e+2, -1162645.5, -1195720.0, 0.0033663295, 0.00000035863343, 0.000066208195, -1162645.5, -34314.848, 0.0, 10.000001, 9.956395 
1.325e+3, 1.9482064e+2, -1064495.8, -1097832.9, -0.0029688396, 0.00000035694418, -0.000057601228, -1064495.8, -33738.188, 0.0, 10.000001, 9.956052 
1.325e+3, 2.0477042e+2, -976331.8, -1019434.94, 0.0021404207, 0.00000035338135, 0.00006812981, -976331.8, -43081.938, 0.0, 10.000001, 9.94329 
1.325e+3, 2.1471375e+2, -878044.8, -921409.8, -0.0013831209, 0.00000034778924, -0.00012677434, -878044.8, -42239.523, 0.0, 10.000001, 9.942949 
1.325e+3, 2.2465037e+2, -789758.7, -843144.8, 0.00403232, 0.00000034663915, 0.00012092878, -789758.7, -51332.414, 0.0, 10.000001, 9.929907 
1.325e+3, 2.3458035e+2, -691325.2, -744966.4, -0.0023725976, 0.00000035051715, -0.00008877902, -691325.2, -50212.656, 0.0, 10.000001, 9.929576 
1.325e+3, 2.4450338e+2, -603001.1, -667018.75, 0.0014438889, 0.00000034980926, 0.00007474298, -603001.1, -59134.258, 0.0, 10.000001, 9.916136 
1.325e+3, 2.5441962e+2, -504248.47, -568343.25, -0.003317668, 0.0000003436184, -0.00010670198, -504248.47, -57560.914, 0.0, 10.000001, 9.916036 
1.325e+3, 2.643288e+2, -416013.06, -490987.84, 0.0014175065, 0.000000340219, 0.00014062582, -416013.06, -66435.38, 0.0, 10.000001, 9.901964 
1.325e+3, 2.742313e+2, -316727.84, -391374.72, -0.003157125, 0.00000034038487, -0.00020342045, -316727.84, -64194.836, 0.0, 10.000001, 9.902384 
1.325e+3, 2.841256e+2, -230254.58, -318081.22, 0.0016193071, 0.00000034145697, 0.00022906424, -230254.58, -74685.61, 0.0, 10.000001, 9.885438 
1.325e+3, 2.940121e+2, -130548.45, -217764.98, -0.0036473828, 0.00000034375228, -0.00025332614, -130548.45, -71867.055, 0.0, 10.000001, 9.886216 
1.325e+3, 3.0392656e+2, -40804.445, -84750.13, 0.00018870435, 0.00000034210805, 0.00017314889, -40804.445, -40804.445, 0.0, 10.000001, 9.942172 
1.325e+3, 3.138706e+2, -39726.43, -82511.19, -0.0046474617, 0.00000033460316, -0.00005513796, -39726.43, -39726.43, 0.0, 10.000001, 9.943684 
1.335e+3, 1.2499335e+2, -1719945.0, -1724224.6, 0.0029759097, 0.00000039046228, 0.00001770627, -1719945.0, -4879.7837, 0.0, 10.000001, 9.994327 
1.335e+3, 1.3498761e+2, -1622564.5, -1627434.8, -0.0021584604, 0.00000037758, -0.00006833711, -1622564.5, -5442.997, 0.0, 10.000001, 9.993545 
1.335e+3, 1.4497514e+2, -1534463.1, -1548146.3, 0.0017723882, 0.00000037253884, 0.000071030205, -1534463.1, -15219.502, 0.0, 10.000001, 9.981864 
1.335e+3, 1.5495703e+2, -1436735.4, -1450821.9, -0.0046585063, 0.00000037533584, -0.00005690042, -1436735.4, -15314.333, 0.0, 10.000001, 9.981333 
1.335e+3, 1.6493228e+2, -1348684.5, -1371952.3, 0.0023878887, 0.000000374428, 0.000047407866, -1348684.5, -25020.826, 0.0, 10.000001, 9.969248 
1.335e+3, 1.7490156e+2, -1250726.5, -1274310.1, -0.0029108792, 0.0000003697372, -0.00007376135, -1250726.5, -24761.809, 0.0, 10.000001, 9.968834 
1.335e+3, 1.8486421e+2, -1162645.5, -1195720.0, 0.0011266505, 0.00000036630271, 0.00006621394, -1162645.5, -34314.863, 0.0, 10.000001, 9.956395 
1.335e+3, 1.9482064e+2, -1064495.8, -1097832.9, -0.005223788, 0.00000036418228, -0.00005759234, -1064495.8, -33738.203, 0.0, 10.000001, 9.956052 
1.335e+3, 2.0477042e+2, -976331.8, -1019434.94, 0.001994614, 0.00000036288606, 0.00006813489, -976331.8, -43081.945, 0.0, 10.000001, 9.94329 
1.335e+3, 2.1471375e+2, -878044.8, -921409.8, -0.0014852455, 0.00000036248204, -0.00012678061, -878044.8, -42239.53, 0.0, 10.000001, 9.942949 
1.335e+3, 2.2465037e+2, -789758.7, -843144.8, 0.0021460128, 0.00000036029923, 0.000120921635, -789758.7, -51332.43, 0.0, 10.000001, 9.929907 
1.335e+3, 2.3458035e+2, -691325.2, -744966.44, -0.004317197, 0.00000035610245, -0.00008877521, -691325.2, -50212.67, 0.0, 10.000001, 9.929576 
1.335e+3, 2.4450338e+2, -603001.1, -667018.75, 0.0016565386, 0.0000003540702, 0.00007474926, -603001.1, -59134.266, 0.0, 10.000001, 9.916136 
1.335e+3, 2.5441962e+2, -504248.47, -568343.25, -0.0030013665, 0.00000035462537, -0.00010670338, -504248.47, -57560.926, 0.0, 10.000001, 9.916036 
1.335e+3, 2.643288e+2, -416013.06, -490987.88, 0.0009379954, 0.00000035424046, 0.0001406218, -416013.06, -66435.4, 0.0, 10.000001, 9.901964 
1.335e+3, 2.742313e+2, -316727.84, -391374.75, -0.003690152, 0.0000003526533, -0.00020342058, -316727.84, -64194.844, 0.0, 10.000001, 9.902384 
1.335e+3, 2.841256e+2, -230254.6, -318081.22, 0.0014497109, 0.00000035049294, 0.00022906606, -230254.6, -74685.625, 0.0, 10.000001, 9.885438 
1.335e+3, 2.940121e+2, -130548.46, -217765.0, -0.003784478, 0.0000003475531, -0.00025332504, -130548.46, -71867.06, 0.0, 10.000001, 9.886216 
1.335e+3, 3.0392656e+2, -40804.457, -84750.16, 0.0010493249, 0.0000003471746, 0.00017314912, -40804.457, -40804.457, 0.0, 10.000001, 9.942172 
1.335e+3, 3.138706e+2, -39726.44, -82511.21, -0.0036700424, 0.0000003506049, -0.000055138833, -39726.44, -39726.44, 0.0, 10.000001, 9.943684 
1.345e+3, 1.2499335e+2, -1719944.9, -1724224.5, 0.005616849, 0.0000003999539, 0.000017709219, -1719944.9, -4879.684, 0.0, 10.000001, 9.994327 
1.345e+3, 1.3498761e+2, -1622564.4, -1627434.8, -0.002083808, 0.00000038880282, -0.00006833082, -1622564.4, -5442.911, 0.0, 10.000001, 9.993545 
1.345e+3, 1.4497514e+2, -1534463.0, -1548146.1, 0.00053877657, 0.0000003841997, 0.00007103143, -1534463.0, -15219.418, 0.0, 10.000001, 9.981864 
1.345e+3, 1.5495703e+2, -1436735.4, -1450821.9, -0.004401271, 0.0000003861407, -0.00005689761, -1436735.4, -15314.242, 0.0, 10.000001, 9.981333 
1.345e+3, 1.6493228e+2, -1348684.4, -1371952.3, 0.0037576994, 0.00000038480164, 0.000047411257, -1348684.4, -25020.734, 0.0, 10.000001, 9.969248 
1.345e+3, 1.7490156e+2, -1250726.4, -1274310.1, -0.0027003177, 0.0000003801131, -0.000073758405, -1250726.4, -24761.725, 0.0, 10.000001, 9.968834 
1.345e+3, 1.8486421e+2, -1162645.4, -1195720.0, 0.0012431403, 0.00000037653896, 0.000066216395, -1162645.4, -34314.777, 0.0, 10.000001, 9.956395 
1.345e+3, 1.9482064e+2, -1064495.6, -1097832.9, -0.003919569, 0.00000037413034, -0.000057590445, -1064495.6, -33738.113, 0.0, 10.000001, 9.956052 
1.345e+3, 2.0477042e+2, -976331.75, -1019434.94, 0.0027143275, 0.0000003729995, 0.00006813682, -976331.75, -43081.86, 0.0, 10.000001, 9.94329 
1.345e+3, 2.1471375e+2, -878044.7, -921409.8, -0.0043674656, 0.00000037325188, -0.000126778, -878044.7, -42239.453, 0.0, 10.000001, 9.942949 
1.345e+3, 2.2465037e+2, -789758.6, -843144.8, -0.0014408503, 0.00000037095228, 0.00012092431, -789758.6, -51332.35, 0.0, 10.000001, 9.929907 
1.345e+3, 2.3458035e+2, -691325.1, -744966.4, -0.005718796, 0.00000036576336, -0.00008877312, -691325.1, -50212.582, 0.0, 10.000001, 9.929576 
1.345e+3, 2.4450338e+2, -603001.06, -667018.75, 0.001442866, 0.0000003635184, 0.000074750846, -603001.06, -59134.18, 0.0, 10.000001, 9.916136 
1.345e+3, 2.5441962e+2, -504248.4, -568343.25, -0.003773261, 0.00000036479275, -0.00010670217, -504248.4, -57560.844, 0.0, 10.000001, 9.916036 
1.345e+3, 2.643288e+2, -416013.0, -490987.84, 0.00009879545, 0.00000036475242, 0.00014062294, -416013.0, -66435.32, 0.0, 10.000001, 9.901964 
1.345e+3, 2.742313e+2, -316727.78, -391374.72, -0.0049076737, 0.00000036303103, -0.00020341914, -316727.78, -64194.766, 0.0, 10.000001, 9.902384 
1.345e+3, 2.841256e+2, -230254.52, -318081.22, 0.00081106665, 0.0000003604493, 0.00022906747, -230254.52, -74685.54, 0.0, 10.000001, 9.885438 
1.345e+3, 2.940121e+2, -130548.38, -217764.98, -0.00300697, 0.00000035669768, -0.0002533241, -130548.38, -71866.984, 0.0, 10.000001, 9.886216 
1.345e+3, 3.0392656e+2, -40804.38, -84750.14, 0.0032951455, 0.00000035636455, 0.00017314943, -40804.38, -40804.38, 0.0, 10.000001, 9.942172 
1.345e+3, 3.138706e+2, -39726.367, -82511.19, -0.0003862802, 0.00000036111595, -0.0000551393, -39726.367, -39726.367, 0.0, 10.000001, 9.943684 
1.355e+3, 1.2499335e+2, -1719944.9, -1724224.6, 0.0023108087, 0.00000040368923, 0.000017714628, -1719944.9, -4879.704, 0.0, 10.000001, 9.994327 
1.355e+3, 1.3498761e+2, -1622564.4, -1627434.8, -0.0053921184, 0.00000040482104, -0.00006833283, -1622564.4, -5442.93, 0.0, 10.000001, 9.993545 
1.355e+3, 1.4497514e+2, -1534463.0, -1548146.3, -0.0011519139, 0.00000040193464, 0.00007102282, -1534463.0, -15219.431, 0.0, 10.000001, 9.981864 
1.355e+3, 1.5495703e+2, -1436735.4, -1450821.9, -0.006089447, 0.00000039496837, -0.000056895613, -1436735.4, -15314.255, 0.0, 10.000001, 9.981333 
1.355e+3, 1.6493228e+2, -1348684.4, -1371952.3, 0.0015160065, 0.00000039123725, 0.0000474171, -1348684.4, -25020.75, 0.0, 10.000001, 9.969248 
1.355e+3, 1.7490156e+2, -1250726.4, -1274310.1, -0.0049447045, 0.0000003908089, -0.00007375562, -1250726.4, -24761.738, 0.0, 10.000001, 9.968834 
1.355e+3, 1.8486421e+2, -1162645.4, -1195720.0, 0.00016538058, 0.0000003893421, 0.00006621554, -1162645.4, -34314.79, 0.0, 10.000001, 9.956395 
1.355e+3, 1.9482064e+2, -1064495.8, -1097832.9, -0.0049835644, 0.00000038678834, -0.00005759554, -1064495.8, -33738.13, 0.0, 10.000001, 9.956052 
1.355e+3, 2.0477042e+2, -976331.75, -1019434.94, 0.0005867204, 0.00000038372167, 0.0000681356, -976331.75, -43081.875, 0.0, 10.000001, 9.94329 
1.355e+3, 2.1471375e+2, -878044.75, -921409.8, -0.0065167723, 0.00000038009875, -0.00012676655, -878044.75, -42239.47, 0.0, 10.000001, 9.942949 
1.355e+3, 2.2465037e+2, -789758.6, -843144.8, -0.0014025213, 0.00000037859826, 0.0001209368, -789758.6, -51332.36, 0.0, 10.000001, 9.929907 
1.355e+3, 2.3458035e+2, -691325.1, -744966.4, -0.0056088073, 0.0000003794998, -0.000088772766, -691325.1, -50212.594, 0.0, 10.000001, 9.929576 
1.355e+3, 2.4450338e+2, -603001.06, -667018.75, -0.000087122025, 0.00000037815371, 0.00007474775, -603001.06, -59134.19, 0.0, 10.000001, 9.916136 
1.355e+3, 2.5441962e+2, -504248.4, -568343.25, -0.005382048, 0.0000003741205, -0.00010669835, -504248.4, -57560.855, 0.0, 10.000001, 9.916036 
1.355e+3, 2.643288e+2, -416013.0, -490987.88, 0.00015436445, 0.00000037175494, 0.00014062921, -416013.0, -66435.33, 0.0, 10.000001, 9.901964 
1.355e+3, 2.742313e+2, -316727.78, -391374.75, -0.0047406596, 0.00000037151798, -0.00020341613, -316727.78, -64194.777, 0.0, 10.000001, 9.902384 
1.355e+3, 2.841256e+2, -230254.52, -318081.22, 0.0010727473, 0.00000037132597, 0.00022906848, -230254.52, -74685.55, 0.0, 10.000001, 9.885438 
1.355e+3, 2.940121e+2, -130548.39, -217765.0, -0.0027371123, 0.0000003711859, -0.0002533234, -130548.39, -71866.99, 0.0, 10.000001, 9.886216 
1.355e+3, 3.0392656e+2, -40804.387, -84750.16, 0.0030480726, 0.0000003696778, 0.00017314979, -40804.387, -40804.387, 0.0, 10.000001, 9.942172 
1.355e+3, 3.138706e+2, -39726.375, -82511.21, -0.0006944695, 0.00000036613625, -0.00005513936, -39726.375, -39726.375, 0.0, 10.000001, 9.943684 
1.365e+3, 1.2499335e+2, -1719944.8, -1724224.5, 0.0050532073, 0.00000041393702, 0.000017716402, -1719944.8, -4879.6074, 0.0, 10.000001, 9.994327 
1.365e+3, 1.3498761e+2, -1622564.4, -1627434.8, 0.000058087786, 0.00000041681366, -0.00006832826, -1622564.4, -5442.8335, 0.0, 10.000001, 9.993545 
1.365e+3, 1.4497514e+2, -1534462.9, -1548146.1, 0.005477163, 0.00000041413358, 0.000071021816, -1534462.9, -15219.335, 0.0, 10.000001, 9.981864 
1.365e+3, 1.5495703e+2, -1436735.3, -1450821.9, -0.002369813, 0.00000040583345, -0.000056893026, -1436735.3, -15314.163, 0.0, 10.000001, 9.981333 
1.365e+3, 1.6493228e+2, -1348684.3, -1371952.3, 0.0041251495, 0.00000040170326, 0.000047420748, -1348684.3, -25020.658, 0.0, 10.000001, 9.969248 
1.365e+3, 1.7490156e+2, -1250726.3, -1274310.1, -0.0017675579, 0.00000040182994, -0.00007375348, -1250726.3, -24761.645, 0.0, 10.000001, 9.968834 
1.365e+3, 1.8486421e+2, -1162645.4, -1195720.0, 0.0030476162, 0.0000004005028, 0.00006621727, -1162645.4, -34314.695, 0.0, 10.000001, 9.956395 
1.365e+3, 1.9482064e+2, -1064495.6, -1097832.9, -0.0036933012, 0.0000003976544, -0.000057593086, -1064495.6, -33738.04, 0.0, 10.000001, 9.956052 
1.365e+3, 2.0477042e+2, -976331.6, -1019434.94, 0.0026204041, 0.0000003944007, 0.00006813798, -976331.6, -43081.79, 0.0, 10.000001, 9.94329 
1.365e+3, 2.1471375e+2, -878044.6, -921409.8, -0.002107819, 0.00000039070753, -0.00012676512, -878044.6, -42239.375, 0.0, 10.000001, 9.942949 
1.365e+3, 2.2465037e+2, -789758.5, -843144.8, 0.003323197, 0.00000038928525, 0.00012093787, -789758.5, -51332.266, 0.0, 10.000001, 9.929907 
1.365e+3, 2.3458035e+2, -691325.0, -744966.4, -0.0033251895, 0.00000039043292, -0.00008877142, -691325.0, -50212.51, 0.0, 10.000001, 9.929576 
1.365e+3, 2.4450338e+2, -603001.0, -667018.75, 0.0012555547, 0.00000038897042, 0.00007474933, -603001.0, -59134.11, 0.0, 10.000001, 9.916136 
1.365e+3, 2.5441962e+2, -504248.3, -568343.25, -0.004171427, 0.0000003843875, -0.0001066966, -504248.3, -57560.77, 0.0, 10.000001, 9.916036 
1.365e+3, 2.643288e+2, -416012.9, -490987.84, 0.0014001697, 0.0000003819742, 0.00014063086, -416012.9, -66435.24, 0.0, 10.000001, 9.901964 
1.365e+3, 2.742313e+2, -316727.7, -391374.72, -0.0037928873, 0.00000038232923, -0.00020341494, -316727.7, -64194.69, 0.0, 10.000001, 9.902384 
1.365e+3, 2.841256e+2, -230254.44, -318081.22, 0.001335515, 0.0000003822497, 0.00022906942, -230254.44, -74685.47, 0.0, 10.000001, 9.885438 
1.365e+3, 2.940121e+2, -130548.31, -217764.98, -0.004463462, 0.0000003815633, -0.0002533224, -130548.31, -71866.91, 0.0, 10.000001, 9.886216 
1.365e+3, 3.0392656e+2, -40804.305, -84750.13, 0.000024508303, 0.00000037982076, 0.00017315095, -40804.305, -40804.305, 0.0, 10.000001, 9.942172 
1.365e+3, 3.138706e+2, -39726.29, -82511.19, -0.0049039866, 0.0000003765138, -0.00005513789, -39726.29, -39726.29, 0.0, 10.000001, 9.943684 
1.375e+3, 1.2499335e+2, -1719944.8, -1724224.6, 0.001839444, 0.0000004306971, 0.000017714545, -1719944.8, -4879.621, 0.0, 10.000001, 9.994327 
1.375e+3, 1.3498761e+2, -1622564.4, -1627434.8, -0.0031584757, 0.00000042478075, -0.000068317095, -1622564.4, -5442.847, 0.0, 10.000001, 9.993545 
1.375e+3, 1.4497514e+2, -1534463.0, -1548146.3, 0.0031395622, 0.00000042079648, 0.000071028415, -1534463.0, -15219.355, 0.0, 10.000001, 9.981864 
1.375e+3, 1.5495703e+2, -1436735.3, -1450821.9, -0.00470571, 0.00000041873574, -0.000056889854, -1436735.3, -15314.183, 0.0, 10.000001, 9.981333 
1.375e+3, 1.6493228e+2, -1348684.4, -1371952.3, 0.0024825751, 0.00000041619955, 0.000047422214, -1348684.4, -25020.674, 0.0, 10.000001, 9.969248 
1.375e+3, 1.7490156e+2, -1250726.3, -1274310.1, -0.0034060604, 0.0000004131762, -0.00007375197, -1250726.3, -24761.66, 0.0, 10.000001, 9.968834 
1.375e+3, 1.8486421e+2, -1162645.4, -1195720.0, 0.0006043267, 0.00000041002107, 0.00006622157, -1162645.4, -34314.71, 0.0, 10.000001, 9.956395 
1.375e+3, 1.9482064e+2, -1064495.6, -1097832.9, -0.006145601, 0.00000040672847, -0.00005758309, -1064495.6, -33738.055, 0.0, 10.000001, 9.956052 
1.375e+3, 2.0477042e+2, -976331.7, -1019434.94, 0.0020941596, 0.00000040503653, 0.000068143956, -976331.7, -43081.8, 0.0, 10.000001, 9.94329 
1.375e+3, 2.1471375e+2, -878044.6, -921409.8, -0.0025939378, 0.0000004050781, -0.0001267737, -878044.6, -42239.387, 0.0, 10.000001, 9.942949 
1.375e+3, 2.2465037e+2, -789758.56, -843144.8, 0.0010306443, 0.00000040301327, 0.000120927514, -789758.56, -51332.28, 0.0, 10.000001, 9.929907 
1.375e+3, 2.3458035e+2, -691325.06, -744966.4, -0.0056765643, 0.00000039856275, -0.00008876908, -691325.06, -50212.527, 0.0, 10.000001, 9.929576 
1.375e+3, 2.4450338e+2, -603001.0, -667018.75, 0.0014595552, 0.00000039596844, 0.0000747556, -603001.0, -59134.125, 0.0, 10.000001, 9.916136 
1.375e+3, 2.5441962e+2, -504248.34, -568343.25, -0.003844589, 0.0000003955937, -0.00010669691, -504248.34, -57560.78, 0.0, 10.000001, 9.916036 
1.375e+3, 2.643288e+2, -416012.9, -490987.84, 0.00056964817, 0.00000039541004, 0.00014062788, -416012.9, -66435.25, 0.0, 10.000001, 9.901964 
1.375e+3, 2.742313e+2, -316727.72, -391374.75, -0.004701166, 0.00000039546467, -0.00020341558, -316727.72, -64194.703, 0.0, 10.000001, 9.902384 
1.375e+3, 2.841256e+2, -230254.45, -318081.22, 0.0010243317, 0.00000039322057, 0.00022907031, -230254.45, -74685.484, 0.0, 10.000001, 9.885438 
1.375e+3, 2.940121e+2, -130548.32, -217765.0, -0.0047213025, 0.00000038782994, -0.00025332114, -130548.32, -71866.92, 0.0, 10.000001, 9.886216 
1.375e+3, 3.0392656e+2, -40804.316, -84750.16, 0.0010365114, 0.00000038679352, 0.00017315289, -40804.316, -40804.316, 0.0, 10.000001, 9.942172 
1.375e+3, 3.138706e+2, -39726.3, -82511.21, -0.0037435414, 0.00000039224852, -0.000055134897, -39726.3, -39726.3, 0.0, 10.000001, 9.943684 
1.385e+3, 1.2499335e+2, -1719944.8, -1724224.5, 0.005472087, 0.0000004435184, 0.00001771635, -1719944.8, -4879.5176, 0.0, 10.000001, 9.994327 
1.385e+3, 1.3498761e+2, -1622564.3, -1627434.8, -0.0036433083, 0.00000043639568, -0.00006831066, -1622564.3, -5442.747, 0.0, 10.000001, 9.993545 
1.385e+3, 1.4497514e+2, -1534462.9, -1548146.1, 0.003104755, 0.000000431786, 0.00007102851, -1534462.9, -15219.255, 0.0, 10.000001, 9.981864 
1.385e+3, 1.5495703e+2, -1436735.1, -1450821.9, -0.0028691958, 0.00000042969222, -0.00005688697, -1436735.1, -15314.08, 0.0, 10.000001, 9.981333 
1.385e+3, 1.6493228e+2, -1348684.3, -1371952.3, 0.0041232407, 0.000000427546, 0.00004742609, -1348684.3, -25020.572, 0.0, 10.000001, 9.969248 
1.385e+3, 1.7490156e+2, -1250726.3, -1274310.1, -0.0031540273, 0.00000042534415, -0.00007374894, -1250726.3, -24761.564, 0.0, 10.000001, 9.968834 
1.385e+3, 1.8486422e+2, -1162645.3, -1195720.0, 0.0012842368, 0.00000042198482, 0.00006622402, -1162645.3, -34314.617, 0.0, 10.000001, 9.956394 
1.385e+3, 1.9482064e+2, -1064495.5, -1097832.9, -0.0046875924, 0.00000041741436, -0.000057580964, -1064495.5, -33737.957, 0.0, 10.000001, 9.956052 
1.385e+3, 2.0477042e+2, -976331.56, -1019434.94, 0.0027298795, 0.00000041574117, 0.00006814608, -976331.56, -43081.7, 0.0, 10.000001, 9.94329 
1.385e+3, 2.1471375e+2, -878044.56, -921409.8, -0.004483415, 0.00000041720645, -0.0001267712, -878044.56, -42239.297, 0.0, 10.000001, 9.942949 
1.385e+3, 2.2465037e+2, -789758.44, -843144.8, -0.00097495713, 0.00000041515486, 0.000120930075, -789758.44, -51332.195, 0.0, 10.000001, 9.929907 
1.385e+3, 2.3458035e+2, -691324.94, -744966.4, -0.006326262, 0.00000040912118, -0.00008876679, -691324.94, -50212.43, 0.0, 10.000001, 9.929576 
1.385e+3, 2.4450338e+2, -603000.9, -667018.75, 0.0014947408, 0.00000040614214, 0.000074757474, -603000.9, -59134.023, 0.0, 10.000001, 9.916136 
1.385e+3, 2.5441962e+2, -504248.25, -568343.25, -0.004331073, 0.00000040681613, -0.00010669559, -504248.25, -57560.69, 0.0, 10.000001, 9.916036 
1.385e+3, 2.643288e+2, -416012.84, -490987.84, 0.00007527872, 0.00000040715523, 0.00014062907, -416012.84, -66435.164, 0.0, 10.000001, 9.901964 
1.385e+3, 2.742313e+2, -316727.63, -391374.72, -0.0053782687, 0.00000040705984, -0.00020341398, -316727.63, -64194.613, 0.0, 10.000001, 9.902384 
1.385e+3, 2.841256e+2, -230254.36, -318081.22, 0.001230228, 0.00000040433312, 0.0002290719, -230254.36, -74685.39, 0.0, 10.000001, 9.885438 
1.385e+3, 2.940121e+2, -130548.234, -217764.98, -0.0032182117, 0.00000039800744, -0.0002533201, -130548.234, -71866.83, 0.0, 10.000001, 9.886216 
1.385e+3, 3.0392656e+2, -40804.23, -84750.13, 0.0034417766, 0.00000039705455, 0.00017315346, -40804.23, -40804.23, 0.0, 10.000001, 9.942172 
1.385e+3, 3.138706e+2, -39726.22, -82511.19, -0.0011642947, 0.00000040410904, -0.000055134624, -39726.22, -39726.22, 0.0, 10.000001, 9.943684 
1.395e+3, 1.2499335e+2, -1719944.8, -1724224.6, 0.0015538906, 0.0000004524009, 0.00001772182, -1719944.8, -4879.541, 0.0, 10.000001, 9.994327 
1.395e+3, 1.3498761e+2, -1622564.3, -1627434.8, -0.0075648925, 0.00000045165828, -0.00006830897, -1622564.3, -5442.77, 0.0, 10.000001, 9.993545 
1.395e+3, 1.4497514e+2, -1534462.9, -1548146.1, 0.0014637358, 0.000000447102, 0.0000710221, -1534462.9, -15219.2705, 0.0, 10.000001, 9.981864 
1.395e+3, 1.5495703e+2, -1436735.1, -1450821.9, -0.004505817, 0.00000043870293, -0.00005688438, -1436735.1, -15314.095, 0.0, 10.000001, 9.981333 
1.395e+3, 1.6493228e+2, -1348684.3, -1371952.3, 0.0008644449, 0.00000043574266, 0.00004743238, -1348684.3, -25020.59, 0.0, 10.000001, 9.969248 
1.395e+3, 1.7490156e+2, -1250726.3, -1274310.1, -0.006420841, 0.00000043833376, -0.00007374437, -1250726.3, -24761.582, 0.0, 10.000001, 9.968834 
1.395e+3, 1.8486422e+2, -1162645.3, -1195720.0, 0.00033466757, 0.00000043639398, 0.00006622461, -1162645.3, -34314.633, 0.0, 10.000001, 9.956394 
1.395e+3, 1.9482064e+2, -1064495.5, -1097832.9, -0.0056096883, 0.0000004297119, -0.000057586716, -1064495.5, -33737.97, 0.0, 10.000001, 9.956052 
1.395e+3, 2.0477042e+2, -976331.56, -1019434.94, -0.00015599841, 0.00000042651456, 0.00006814436, -976331.56, -43081.72, 0.0, 10.000001, 9.94329 
1.395e+3, 2.1471375e+2, -878044.56, -921409.8, -0.0074095447, 0.0000004270925, -0.00012675764, -878044.56, -42239.316, 0.0, 10.000001, 9.942949 
1.395e+3, 2.2465037e+2, -789758.44, -843144.8, -0.00089005387, 0.0000004257099, 0.000120945544, -789758.44, -51332.207, 0.0, 10.000001, 9.929907 
1.395e+3, 2.3458035e+2, -691324.94, -744966.4, -0.0061426274, 0.00000042210812, -0.00008876456, -691324.94, -50212.44, 0.0, 10.000001, 9.929576 
1.395e+3, 2.4450338e+2, -603000.9, -667018.75, -0.00048603752, 0.0000004194914, 0.00007475498, -603000.9, -59134.04, 0.0, 10.000001, 9.916136 
1.395e+3, 2.5441962e+2, -504248.25, -568343.25, -0.0064158193, 0.00000041805467, -0.00010669263, -504248.25, -57560.707, 0.0, 10.000001, 9.916036 
1.395e+3, 2.643288e+2, -416012.84, -490987.84, -0.000088601104, 0.0000004172097, 0.00014063442, -416012.84, -66435.18, 0.0, 10.000001, 9.901964 
1.395e+3, 2.742313e+2, -316727.63, -391374.75, -0.005413548, 0.00000041711465, -0.00020341016, -316727.63, -64194.625, 0.0, 10.000001, 9.902384 
1.395e+3, 2.841256e+2, -230254.38, -318081.22, 0.0015458566, 0.00000041558712, 0.0002290742, -230254.38, -74685.4, 0.0, 10.000001, 9.885438 
1.395e+3, 2.940121e+2, -130548.24, -217765.0, -0.0028714433, 0.0000004120957, -0.0002533193, -130548.24, -71866.836, 0.0, 10.000001, 9.886216 
1.395e+3, 3.0392656e+2, -40804.24, -84750.16, 0.0027348537, 0.00000041060386, 0.00017315269, -40804.24, -40804.24, 0.0, 10.000001, 9.942172 
1.395e+3, 3.138706e+2, -39726.23, -82511.21, -0.0019956236, 0.00000041209535, -0.000055137072, -39726.23, -39726.23, 0.0, 10.000001, 9.943684 
1.405e+3, 1.2499335e+2, -1719944.6, -1724224.5, 0.0035773586, 0.00000046583756, 0.00001772464, -1719944.6, -4879.4355, 0.0, 10.000001, 9.994327 
1.405e+3, 1.3498761e+2, -1622564.1, -1627434.8, -0.0019453146, 0.0000004635455, -0.000068301546, -1622564.1, -5442.66, 0.0, 10.000001, 9.993545 
1.405e+3, 1.4497514e+2, -1534462.8, -1548146.1, 0.008476883, 0.0000004585597, 0.00007102208, -1534462.8, -15219.161, 0.0, 10.000001, 9.981864 
1.405e+3, 1.5495703e+2, -1436735.1, -1450821.9, -0.0004488272, 0.0000004508648, -0.000056881086, -1436735.1, -15313.992, 0.0, 10.000001, 9.981333 
1.405e+3, 1.6493228e+2, -1348684.1, -1371952.3, 0.0032447302, 0.00000044813285, 0.0000474365, -1348684.1, -25020.486, 0.0, 10.000001, 9.969248 
1.405e+3, 1.7490156e+2, -1250726.1, -1274310.1, -0.003221533, 0.0000004504657, -0.000073741954, -1250726.1, -24761.477, 0.0, 10.000001, 9.968834 
1.405e+3, 1.8486422e+2, -1162645.1, -1195720.0, 0.004458019, 0.0000004484819, 0.00006622652, -1162645.1, -34314.53, 0.0, 10.000001, 9.956394 
1.405e+3, 1.9482064e+2, -1064495.5, -1097832.9, -0.0028851898, 0.00000044198046, -0.00005758405, -1064495.5, -33737.875, 0.0, 10.000001, 9.956052 
1.405e+3, 2.0477042e+2, -976331.5, -1019434.94, 0.0021874253, 0.0000004385658, 0.00006814706, -976331.5, -43081.62, 0.0, 10.000001, 9.94329 
1.405e+3, 2.1471375e+2, -878044.44, -921409.8, -0.0037941814, 0.00000043849485, -0.0001267557, -878044.44, -42239.21, 0.0, 10.000001, 9.942948 
1.405e+3, 2.2465037e+2, -789758.4, -843144.8, 0.0033989563, 0.00000043714107, 0.000120947174, -789758.4, -51332.1, 0.0, 10.000001, 9.929907 
1.405e+3, 2.3458035e+2, -691324.9, -744966.4, -0.0036389513, 0.00000043433582, -0.00008876275, -691324.9, -50212.348, 0.0, 10.000001, 9.929576 
1.405e+3, 2.4450338e+2, -603000.8, -667018.75, 0.00097114965, 0.0000004317905, 0.00007475683, -603000.8, -59133.95, 0.0, 10.000001, 9.916136 
1.405e+3, 2.5441962e+2, -504248.16, -568343.25, -0.0050084214, 0.0000004295587, -0.00010669092, -504248.16, -57560.61, 0.0, 10.000001, 9.916036 
1.405e+3, 2.643288e+2, -416012.75, -490987.8, 0.0016407995, 0.00000042846315, 0.00014063597, -416012.75, -66435.08, 0.0, 10.000001, 9.901964 
1.405e+3, 2.742313e+2, -316727.53, -391374.72, -0.004439762, 0.00000042881268, -0.0002034088, -316727.53, -64194.53, 0.0, 10.000001, 9.902384 
1.405e+3, 2.841256e+2, -230254.28, -318081.22, 0.0015465631, 0.0000004274824, 0.00022907545, -230254.28, -74685.305, 0.0, 10.000001, 9.885438 
1.405e+3, 2.940121e+2, -130548.16, -217764.97, -0.00468153, 0.00000042384616, -0.00025331802, -130548.16, -71866.75, 0.0, 10.000001, 9.886216 
1.405e+3, 3.0392656e+2, -40804.152, -84750.13, -0.00007359886, 0.00000042221234, 0.0001731539, -40804.152, -40804.152, 0.0, 10.000001, 9.942172 
1.405e+3, 3.138706e+2, -39726.137, -82511.18, -0.0051578428, 0.00000042356882, -0.000055136054, -39726.137, -39726.137, 0.0, 10.000001, 9.943684 
1.415e+3, 1.2499335e+2, -1719944.6, -1724224.6, 0.00081969803, 0.0000004838281, 0.000017724811, -1719944.6, -4879.4507, 0.0, 10.000001, 9.994327 
1.415e+3, 1.3498761e+2, -1622564.1, -1627434.8, -0.00470648, 0.00000047205728, -0.00006828841, -1622564.1, -5442.675, 0.0, 10.000001, 9.993545 
1.415e+3, 1.4497514e+2, -1534462.8, -1548146.3, 0.0055151535, 0.00000046615898, 0.00007102844, -1534462.8, -15219.184, 0.0, 10.000001, 9.981864 
1.415e+3, 1.5495703e+2, -1436735.1, -1450821.9, -0.0034096336, 0.00000046617768, -0.000056877092, -1436735.1, -15314.014, 0.0, 10.000001, 9.981332 
1.415e+3, 1.6493228e+2, -1348684.1, -1371952.3, 0.0007057015, 0.0000004647165, 0.000047438458, -1348684.1, -25020.504, 0.0, 10.000001, 9.969248 
1.415e+3, 1.7490156e+2, -1250726.1, -1274310.1, -0.00575762, 0.00000046173997, -0.0000737417, -1250726.1, -24761.492, 0.0, 10.000001, 9.968834 
1.415e+3, 1.8486422e+2, -1162645.1, -1195720.0, 0.0019629716, 0.00000045824845, 0.00006622975, -1162645.1, -34314.547, 0.0, 10.000001, 9.956394 
1.415e+3, 1.9482064e+2, -1064495.5, -1097832.9, -0.0053790486, 0.00000045421996, -0.000057572965, -1064495.5, -33737.89, 0.0, 10.000001, 9.956052 
1.415e+3, 2.0477042e+2, -976331.5, -1019434.94, 0.0011198043, 0.00000045189486, 0.00006815418, -976331.5, -43081.637, 0.0, 10.000001, 9.94329 
1.415e+3, 2.1471375e+2, -878044.5, -921409.8, -0.0048316848, 0.0000004514134, -0.00012676537, -878044.5, -42239.223, 0.0, 10.000001, 9.942948 
1.415e+3, 2.2465037e+2, -789758.4, -843144.8, 0.0010087092, 0.0000004494482, 0.000120934965, -789758.4, -51332.12, 0.0, 10.000001, 9.929907 
1.415e+3, 2.3458035e+2, -691324.9, -744966.4, -0.0060732565, 0.0000004458042, -0.00008876136, -691324.9, -50212.363, 0.0, 10.000001, 9.929576 
1.415e+3, 2.4450338e+2, -603000.8, -667018.75, 0.0006124739, 0.00000044303928, 0.00007476302, -603000.8, -59133.96, 0.0, 10.000001, 9.916136 
1.415e+3, 2.5441962e+2, -504248.16, -568343.25, -0.0052675214, 0.00000044132807, -0.00010669046, -504248.16, -57560.62, 0.0, 10.000001, 9.916036 
1.415e+3, 2.643288e+2, -416012.75, -490987.84, 0.0008469811, 0.00000044091553, 0.00014063371, -416012.75, -66435.09, 0.0, 10.000001, 9.901964 
1.415e+3, 2.742313e+2, -316727.53, -391374.75, -0.005269719, 0.00000044215392, -0.00020340989, -316727.53, -64194.543, 0.0, 10.000001, 9.902384 
1.415e+3, 2.841256e+2, -230254.3, -318081.22, 0.00088943035, 0.00000044001888, 0.00022907568, -230254.3, -74685.32, 0.0, 10.000001, 9.885438 
1.415e+3, 2.940121e+2, -130548.164, -217765.0, -0.005323652, 0.00000043325883, -0.00025331628, -130548.164, -71866.766, 0.0, 10.000001, 9.886216 
1.415e+3, 3.0392656e+2, -40804.164, -84750.16, 0.00078236597, 0.00000043187998, 0.00017315707, -40804.164, -40804.164, 0.0, 10.000001, 9.942172 
1.415e+3, 3.138706e+2, -39726.15, -82511.21, -0.004126844, 0.00000043852938, -0.00005513156, -39726.15, -39726.15, 0.0, 10.000001, 9.943684 
1.425e+3, 1.2499335e+2, -1719944.5, -1724224.5, 0.005187085, 0.00000049756267, 0.000017727676, -1719944.5, -4879.336, 0.0, 10.000002, 9.994327 
1.425e+3, 1.3498761e+2, -1622564.0, -1627434.8, -0.00521302, 0.00000048428217, -0.00006827948, -1622564.0, -5442.561, 0.0, 10.000002, 9.993544 
1.425e+3, 1.4497514e+2, -1534462.6, -1548146.1, 0.0034779697, 0.0000004784398, 0.000071028975, -1534462.6, -15219.07, 0.0, 10.000002, 9.981864 
1.425e+3, 1.5495703e+2, -1436735.0, -1450821.9, -0.0025385742, 0.00000048009264, -0.000056873723, -1436735.0, -15313.904, 0.0, 10.000002, 9.981332 
1.425e+3, 1.6493228e+2, -1348684.0, -1371952.3, 0.0030731482, 0.00000047865746, 0.00004744274, -1348684.0, -25020.395, 0.0, 10.000002, 9.969248 
1.425e+3, 1.7490156e+2, -1250726.0, -1274310.1, -0.004850109, 0.00000047406584, -0.00007373846, -1250726.0, -24761.385, 0.0, 10.000001, 9.968834 
1.425e+3, 1.8486422e+2, -1162645.1, -1195720.0, 0.0026228002, 0.0000004702002, 0.000066232446, -1162645.1, -34314.438, 0.0, 10.000001, 9.956394 
1.425e+3, 1.9482064e+2, -1064495.4, -1097832.9, -0.0043773353, 0.0000004670967, -0.000057570287, -1064495.4, -33737.78, 0.0, 10.000001, 9.956052 
1.425e+3, 2.0477042e+2, -976331.4, -1019434.94, 0.0019487358, 0.00000046498192, 0.00006815677, -976331.4, -43081.527, 0.0, 10.000001, 9.94329 
1.425e+3, 2.1471375e+2, -878044.4, -921409.8, -0.0053956555, 0.00000046393689, -0.00012676297, -878044.4, -42239.125, 0.0, 10.000001, 9.942948 
1.425e+3, 2.2465037e+2, -789758.25, -843144.8, 0.0005553706, 0.0000004617235, 0.00012093721, -789758.25, -51332.02, 0.0, 10.000001, 9.929907 
1.425e+3, 2.3458035e+2, -691324.75, -744966.4, -0.0057272096, 0.00000045818803, -0.00008875923, -691324.75, -50212.254, 0.0, 10.000001, 9.929576 
1.425e+3, 2.4450338e+2, -603000.75, -667018.7, 0.0011426297, 0.0000004553961, 0.00007476495, -603000.75, -59133.85, 0.0, 10.000001, 9.916136 
1.425e+3, 2.5441962e+2, -504248.06, -568343.25, -0.005690896, 0.00000045349455, -0.000106688814, -504248.06, -57560.52, 0.0, 10.000001, 9.916036 
1.425e+3, 2.643288e+2, -416012.66, -490987.8, 0.000600136, 0.00000045315647, 0.00014063525, -416012.66, -66434.99, 0.0, 10.000001, 9.901964 
1.425e+3, 2.742313e+2, -316727.44, -391374.72, -0.0052222516, 0.0000004548069, -0.00020340829, -316727.44, -64194.445, 0.0, 10.000001, 9.902384 
1.425e+3, 2.841256e+2, -230254.2, -318081.22, 0.001734193, 0.0000004525533, 0.00022907714, -230254.2, -74685.22, 0.0, 10.000001, 9.885438 
1.425e+3, 2.940121e+2, -130548.06, -217764.97, -0.0033809203, 0.00000044494703, -0.00025331526, -130548.06, -71866.664, 0.0, 10.000001, 9.886216 
1.425e+3, 3.0392656e+2, -40804.066, -84750.13, 0.003527749, 0.0000004435585, 0.00017315778, -40804.066, -40804.066, 0.0, 10.000001, 9.942172 
1.425e+3, 3.138706e+2, -39726.055, -82511.18, -0.0020123117, 0.0000004514465, -0.000055130942, -39726.055, -39726.055, 0.0, 10.000001, 9.943684 
1.435e+3, 1.24993354e+2, -1719944.5, -1724224.6, 0.0023747259, 0.0000005070419, 0.000017733237, -1719944.5, -4879.363, 0.0, 10.000002, 9.994327 
1.435e+3, 1.3498761e+2, -1622564.1, -1627434.8, -0.00802894, 0.0000005002202, -0.00006827475, -1622564.1, -5442.587, 0.0, 10.000002, 9.993544 
1.435e+3, 1.4497514e+2, -1534462.6, -1548146.1, -0.00021120481, 0.000000495402, 0.0000710237, -1534462.6, -15219.087, 0.0, 10.000002, 9.981864 
1.435e+3, 1.5495703e+2, -1436735.0, -1450821.9, -0.00622809, 0.0000004926095, -0.000056870977, -1436735.0, -15313.92, 0.0, 10.000002, 9.981332 
1.435e+3, 1.6493228e+2, -1348684.0, -1371952.3, 0.0004406943, 0.00000048995565, 0.000047449354, -1348684.0, -25020.414, 0.0, 10.000002, 9.969248 
1.435e+3, 1.7490156e+2, -1250726.0, -1274310.1, -0.007475783, 0.0000004874432, -0.00007373225, -1250726.0, -24761.404, 0.0, 10.000001, 9.968834 
1.435e+3, 1.8486422e+2, -1162645.1, -1195720.0, 0.00061439886, 0.000000484337, 0.00006623461, -1162645.1, -34314.457, 0.0, 10.000001, 9.956394 
1.435e+3, 1.9482066e+2, -1064495.4, -1097832.9, -0.006377969, 0.0000004806104, -0.000057576013, -1064495.4, -33737.797, 0.0, 10.000001, 9.956052 
1.435e+3, 2.0477042e+2, -976331.4, -1019434.94, -0.0008474801, 0.0000004778267, 0.00006815482, -976331.4, -43081.543, 0.0, 10.000001, 9.94329 
1.435e+3, 2.1471375e+2, -878044.4, -921409.8, -0.008207721, 0.00000047606517, -0.00012674849, -878044.4, -42239.14, 0.0, 10.000001, 9.942948 
1.435e+3, 2.2465037e+2, -789758.3, -843144.8, 0.00006571427, 0.00000047396676, 0.00012095392, -789758.3, -51332.035, 0.0, 10.000001, 9.929907 
1.435e+3, 2.3458035e+2, -691324.8, -744966.4, -0.0061405483, 0.00000047148717, -0.00008875639, -691324.8, -50212.27, 0.0, 10.000001, 9.929576 
1.435e+3, 2.4450338e+2, -603000.75, -667018.75, -0.000967117, 0.0000004688608, 0.0000747626, -603000.75, -59133.867, 0.0, 10.000001, 9.916136 
1.435e+3, 2.5441962e+2, -504248.1, -568343.25, -0.007882231, 0.00000046605805, -0.00010668597, -504248.1, -57560.535, 0.0, 10.000001, 9.916036 
1.435e+3, 2.643288e+2, -416012.7, -490987.84, 0.00015133314, 0.00000046518585, 0.00014064056, -416012.7, -66435.01, 0.0, 10.000001, 9.901964 
1.435e+3, 2.742313e+2, -316727.47, -391374.75, -0.0055547804, 0.00000046677144, -0.00020340398, -316727.47, -64194.457, 0.0, 10.000001, 9.902384 
1.435e+3, 2.841256e+2, -230254.2, -318081.22, 0.0016082979, 0.00000046508558, 0.00022907984, -230254.2, -74685.234, 0.0, 10.000001, 9.885438 
1.435e+3, 2.940121e+2, -130548.08, -217765.0, -0.0034888787, 0.0000004589107, -0.00025331497, -130548.08, -71866.67, 0.0, 10.000001, 9.886216 
1.435e+3, 3.0392656e+2, -40804.08, -84750.16, 0.0028473174, 0.00000045724784, 0.00017315603, -40804.08, -40804.08, 0.0, 10.000001, 9.942172 
1.435e+3, 3.138706e+2, -39726.07, -82511.21, -0.0027608722, 0.00000046232017, -0.000055134202, -39726.07, -39726.07, 0.0, 10.000001, 9.943684 
1.445e+3, 1.24993354e+2, -1719944.4, -1724224.5, 0.0055249333, 0.00000051999143, 0.00001773569, -1719944.4, -4879.24, 0.0, 10.000002, 9.994327 
1.445e+3, 1.3498761e+2, -1622564.0, -1627434.8, -0.0002123273, 0.0000005143256, -0.00006826682, -1622564.0, -5442.4683, 0.0, 10.000002, 9.993544 
1.445e+3, 1.4497514e+2, -1534462.5, -1548146.1, 0.007597871, 0.0000005098851, 0.00007102221, -1534462.5, -15218.97, 0.0, 10.000002, 9.981864 
1.445e+3, 1.5495703e+2, -1436734.9, -1450821.9, -0.002163442, 0.0000005066854, -0.000056867753, -1436734.9, -15313.804, 0.0, 10.000002, 9.981332 
1.445e+3, 1.6493228e+2, -1348683.9, -1371952.3, 0.0040850854, 0.0000005035622, 0.00004745408, -1348683.9, -25020.299, 0.0, 10.000002, 9.969248 
1.445e+3, 1.7490156e+2, -1250725.9, -1274310.1, -0.003317889, 0.000000500521, -0.00007372929, -1250725.9, -24761.29, 0.0, 10.000002, 9.968834 
1.445e+3, 1.8486422e+2, -1162645.0, -1195720.0, 0.0046427655, 0.0000004974767, 0.00006623689, -1162645.0, -34314.34, 0.0, 10.000002, 9.956394 
1.445e+3, 1.9482066e+2, -1064495.3, -1097832.9, -0.003089474, 0.0000004944301, -0.000057573263, -1064495.3, -33737.688, 0.0, 10.000002, 9.956052 
1.445e+3, 2.0477042e+2, -976331.3, -1019434.94, 0.0025688065, 0.0000004915719, 0.000068157606, -976331.3, -43081.434, 0.0, 10.000002, 9.94329 
1.445e+3, 2.1471375e+2, -878044.25, -921409.8, -0.0046921317, 0.00000048891883, -0.00012674613, -878044.25, -42239.027, 0.0, 10.000002, 9.942948 
1.445e+3, 2.2465037e+2, -789758.2, -843144.75, 0.003673747, 0.00000048666055, 0.000120956014, -789758.2, -51331.92, 0.0, 10.000002, 9.929907 
1.445e+3, 2.3458035e+2, -691324.7, -744966.4, -0.0038307863, 0.00000048484907, -0.000088754336, -691324.7, -50212.164, 0.0, 10.000002, 9.929576 
1.445e+3, 2.4450338e+2, -603000.6, -667018.7, 0.00076703035, 0.00000048226553, 0.000074764546, -603000.6, -59133.766, 0.0, 10.000002, 9.916135 
1.445e+3, 2.5441962e+2, -504247.97, -568343.25, -0.0057969186, 0.00000047875767, -0.0001066842, -504247.97, -57560.426, 0.0, 10.000002, 9.916036 
1.445e+3, 2.643288e+2, -416012.56, -490987.8, 0.002586277, 0.00000047774495, 0.00014064215, -416012.56, -66434.9, 0.0, 10.000002, 9.901964 
1.445e+3, 2.742313e+2, -316727.34, -391374.72, -0.004340153, 0.0000004799095, -0.00020340257, -316727.34, -64194.35, 0.0, 10.000002, 9.902384 
1.445e+3, 2.841256e+2, -230254.11, -318081.2, 0.0015449352, 0.0000004783569, 0.00022908112, -230254.11, -74685.125, 0.0, 10.000002, 9.885438 
1.445e+3, 2.940121e+2, -130547.98, -217764.97, -0.0052978247, 0.00000047170192, -0.00025331377, -130547.98, -71866.57, 0.0, 10.000002, 9.886216 
1.445e+3, 3.0392656e+2, -40803.977, -84750.125, 0.00054372504, 0.00000046988038, 0.00017315712, -40803.977, -40803.977, 0.0, 10.000002, 9.942172 
1.445e+3, 3.138706e+2, -39725.965, -82511.18, -0.004826402, 0.0000004752765, -0.000055133285, -39725.965, -39725.965, 0.0, 10.000002, 9.943684 
1.455e+3, 1.24993354e+2, -1719944.4, -1724224.5, 0.0018786682, 0.00000053641025, 0.000017735081, -1719944.4, -4879.2563, 0.0, 10.000002, 9.994327 
1.455e+3, 1.3498761e+2, -1622564.0, -1627434.8, -0.0038624597, 0.000000526598, -0.00006825569, -1622564.0, -5442.4844, 0.0, 10.000002, 9.993544 
1.455e+3, 1.4497514e+2, -1534462.6, -1548146.1, 0.0037928615, 0.0000005218891, 0.000071024515, -1534462.6, -15218.994, 0.0, 10.000002, 9.981864 
1.455e+3, 1.5495703e+2, -1436734.9, -1450821.9, -0.005967518, 0.00000052232025, -0.000056864057, -1436734.9, -15313.828, 0.0, 10.000002, 9.981332 
1.455e+3, 1.6493228e+2, -1348684.0, -1371952.3, 0.0016367931, 0.0000005194771, 0.00004745692, -1348684.0, -25020.316, 0.0, 10.000002, 9.969248 
1.455e+3, 1.7490156e+2, -1250726.0, -1274310.1, -0.005758059, 0.0000005132992, -0.00007372958, -1250726.0, -24761.307, 0.0, 10.000002, 9.968834 
1.455e+3, 1.8486422e+2, -1162645.0, -1195720.0, 0.0014979047, 0.0000005096191, 0.00006623931, -1162645.0, -34314.36, 0.0, 10.000002, 9.956394 
1.455e+3, 1.9482066e+2, -1064495.3, -1097832.9, -0.006241471, 0.0000005085552, -0.000057562032, -1064495.3, -33737.707, 0.0, 10.000002, 9.956052 
1.455e+3, 2.0477042e+2, -976331.3, -1019434.94, 0.0011227331, 0.0000005062174, 0.000068165114, -976331.3, -43081.453, 0.0, 10.000002, 9.94329 
1.455e+3, 2.1471375e+2, -878044.3, -921409.8, -0.0061025415, 0.0000005024976, -0.00012675591, -878044.3, -42239.043, 0.0, 10.000002, 9.942948 
1.455e+3, 2.2465037e+2, -789758.2, -843144.8, 0.0012401218, 0.0000004998046, 0.0001209435, -789758.2, -51331.938, 0.0, 10.000002, 9.929907 
1.455e+3, 2.3458035e+2, -691324.7, -744966.4, -0.0062979367, 0.00000049827355, -0.00008875309, -691324.7, -50212.18, 0.0, 10.000002, 9.929576 
1.455e+3, 2.4450338e+2, -603000.6, -667018.75, -0.000054782362, 0.0000004956102, 0.000074770775, -603000.6, -59133.78, 0.0, 10.000002, 9.916135 
1.455e+3, 2.5441962e+2, -504248.0, -568343.25, -0.00653997, 0.0000004915933, -0.000106683496, -504248.0, -57560.44, 0.0, 10.000002, 9.916036 
1.455e+3, 2.643288e+2, -416012.6, -490987.84, 0.0014966466, 0.00000049083377, 0.00014064003, -416012.6, -66434.914, 0.0, 10.000002, 9.901964 
1.455e+3, 2.742313e+2, -316727.38, -391374.75, -0.00545343, 0.000000494221, -0.00020340408, -316727.38, -64194.367, 0.0, 10.000002, 9.902384 
1.455e+3, 2.841256e+2, -230254.13, -318081.22, 0.000616026, 0.00000049236723, 0.00022908095, -230254.13, -74685.14, 0.0, 10.000002, 9.885438 
1.455e+3, 2.940121e+2, -130547.99, -217765.0, -0.0062108724, 0.0000004833206, -0.00025331165, -130547.99, -71866.586, 0.0, 10.000002, 9.886216 
1.455e+3, 3.0392656e+2, -40803.992, -84750.16, 0.0011222806, 0.00000048145614, 0.00017316107, -40803.992, -40803.992, 0.0, 10.000002, 9.942172 
1.455e+3, 3.138706e+2, -39725.977, -82511.21, -0.0040735845, 0.0000004903154, -0.000055128192, -39725.977, -39725.977, 0.0, 10.000002, 9.943684 
1.465e+3, 1.24993354e+2, -1719944.3, -1724224.5, 0.007495742, 0.0000005515352, 0.000017736827, -1719944.3, -4879.128, 0.0, 10.000002, 9.994327 
1.465e+3, 1.3498761e+2, -1622563.9, -1627434.8, -0.0038873306, 0.0000005408354, -0.00006824686, -1622563.9, -5442.36, 0.0, 10.000002, 9.993544 
1.465e+3, 1.4497514e+2, -1534462.5, -1548146.1, 0.002765443, 0.00000053589747, 0.00007102292, -1534462.5, -15218.871, 0.0, 10.000002, 9.981864 
1.465e+3, 1.5495703e+2, -1436734.8, -1450821.9, -0.0041973367, 0.0000005367651, -0.000056860754, -1436734.8, -15313.703, 0.0, 10.000002, 9.981332 
1.465e+3, 1.6493228e+2, -1348683.9, -1371952.3, 0.0047939843, 0.0000005339471, 0.00004746185, -1348683.9, -25020.193, 0.0, 10.000002, 9.969248 
1.465e+3, 1.7490156e+2, -1250725.9, -1274310.0, -0.004074289, 0.0000005273751, -0.000073726376, -1250725.9, -24761.188, 0.0, 10.000002, 9.968834 
1.465e+3, 1.8486422e+2, -1162644.9, -1195720.0, 0.0024418335, 0.0000005235252, 0.00006624179, -1162644.9, -34314.242, 0.0, 10.000002, 9.956394 
1.465e+3, 1.9482066e+2, -1064495.1, -1097832.9, -0.0055019325, 0.00000052252585, -0.000057559224, -1064495.1, -33737.586, 0.0, 10.000002, 9.956052 
1.465e+3, 2.0477042e+2, -976331.2, -1019434.94, 0.0021413446, 0.0000005202034, 0.00006816803, -976331.2, -43081.332, 0.0, 10.000002, 9.94329 
1.465e+3, 2.1471375e+2, -878044.2, -921409.75, -0.005773941, 0.00000051644486, -0.00012675313, -878044.2, -42238.93, 0.0, 10.000002, 9.942948 
1.465e+3, 2.2465037e+2, -789758.06, -843144.75, 0.0015634366, 0.0000005136997, 0.00012094611, -789758.06, -51331.824, 0.0, 10.000002, 9.929907 
1.465e+3, 2.3458035e+2, -691324.56, -744966.4, -0.0055721137, 0.0000005120992, -0.00008875071, -691324.56, -50212.063, 0.0, 10.000002, 9.929576 
1.465e+3, 2.4450338e+2, -603000.5, -667018.7, 0.0008676398, 0.00000050931027, 0.0000747729, -603000.5, -59133.664, 0.0, 10.000002, 9.916135 
1.465e+3, 2.5441962e+2, -504247.88, -568343.25, -0.006737193, 0.0000005051012, -0.00010668166, -504247.88, -57560.33, 0.0, 10.000002, 9.916036 
1.465e+3, 2.643288e+2, -416012.47, -490987.8, 0.0013595714, 0.0000005044577, 0.00014064164, -416012.47, -66434.805, 0.0, 10.000002, 9.901964 
1.465e+3, 2.742313e+2, -316727.25, -391374.72, -0.0048397304, 0.0000005083532, -0.00020340257, -316727.25, -64194.258, 0.0, 10.000002, 9.902384 
1.465e+3, 2.841256e+2, -230254.02, -318081.2, 0.0022638268, 0.00000050632656, 0.00022908226, -230254.02, -74685.03, 0.0, 10.000002, 9.885438 
1.465e+3, 2.940121e+2, -130547.88, -217764.97, -0.0037414734, 0.00000049617256, -0.0002533106, -130547.88, -71866.48, 0.0, 10.000002, 9.886216 
1.465e+3, 3.0392656e+2, -40803.883, -84750.125, 0.0041510854, 0.0000004942207, 0.0001731619, -40803.883, -40803.883, 0.0, 10.000002, 9.942172 
1.465e+3, 3.138706e+2, -39725.87, -82511.18, -0.0023162924, 0.0000005045153, -0.000055127468, -39725.87, -39725.87, 0.0, 10.000002, 9.943684 
1.475e+3, 1.24993354e+2, -1719944.3, -1724224.5, 0.0030538961, 0.0000005653654, 0.000017741013, -1719944.3, -4879.157, 0.0, 10.000002, 9.994327 
1.475e+3, 1.3498761e+2, -1622563.9, -1627434.8, -0.008332935, 0.00000055703765, -0.00006824033, -1622563.9, -5442.3887, 0.0, 10.000002, 9.993544 
1.475e+3, 1.4497514e+2, -1534462.5, -1548146.1, -0.00066194515, 0.00000055191, 0.00007101744, -1534462.5, -15218.89, 0.0, 10.000002, 9.981864 
1.475e+3, 1.5495703e+2, -1436734.8, -1450821.9, -0.007621477, 0.00000055001937, -0.00005685784, -1436734.8, -15313.722, 0.0, 10.000002, 9.981332 
1.475e+3, 1.6493228e+2, -1348683.9, -1371952.3, 0.0013903901, 0.00000054697136, 0.00004746886, -1348683.9, -25020.215, 0.0, 10.000002, 9.969248 
1.475e+3, 1.7490156e+2, -1250725.9, -1274310.1, -0.00747576, 0.0000005427486, -0.000073719675, -1250725.9, -24761.209, 0.0, 10.000002, 9.968834 
1.475e+3, 1.8486422e+2, -1162644.9, -1195720.0, -0.00004405233, 0.0000005391951, 0.000066244334, -1162644.9, -34314.26, 0.0, 10.000002, 9.956394 
1.475e+3, 1.9482066e+2, -1064495.1, -1097832.9, -0.007976812, 0.00000053634164, -0.000057564837, -1064495.1, -33737.605, 0.0, 10.000002, 9.956052 
1.475e+3, 2.0477042e+2, -976331.2, -1019434.94, -0.0006075127, 0.0000005335293, 0.00006816636, -976331.2, -43081.35, 0.0, 10.000002, 9.94329 
1.475e+3, 2.1471375e+2, -878044.2, -921409.8, -0.008528867, 0.0000005307604, -0.00012673777, -878044.2, -42238.95, 0.0, 10.000002, 9.942948 
1.475e+3, 2.2465037e+2, -789758.06, -843144.8, 0.00018749287, 0.0000005283459, 0.00012096385, -789758.06, -51331.84, 0.0, 10.000002, 9.929907 
1.475e+3, 2.3458035e+2, -691324.6, -744966.4, -0.0069030495, 0.0000005263259, -0.0000887472, -691324.6, -50212.082, 0.0, 10.000002, 9.929576 
1.475e+3, 2.4450338e+2, -603000.56, -667018.75, -0.0011204237, 0.0000005233655, 0.00007477091, -603000.56, -59133.68, 0.0, 10.000002, 9.916135 
1.475e+3, 2.5441962e+2, -504247.9, -568343.25, -0.00875742, 0.0000005192811, -0.00010667871, -504247.9, -57560.348, 0.0, 10.000002, 9.916036 
1.475e+3, 2.643288e+2, -416012.5, -490987.84, 0.00044657706, 0.0000005186166, 0.00014064701, -416012.5, -66434.82, 0.0, 10.000002, 9.901964 
1.475e+3, 2.742313e+2, -316727.28, -391374.75, -0.005679081, 0.00000052230615, -0.00020339806, -316727.28, -64194.27, 0.0, 10.000002, 9.902384 
1.475e+3, 2.841256e+2, -230254.02, -318081.22, 0.0017778182, 0.0000005202349, 0.00022908507, -230254.02, -74685.05, 0.0, 10.000002, 9.885438 
1.475e+3, 2.940121e+2, -130547.9, -217765.0, -0.00419624, 0.00000051025773, -0.00025331063, -130547.9, -71866.49, 0.0, 10.000002, 9.886216 
1.475e+3, 3.0392656e+2, -40803.895, -84750.16, 0.0035356837, 0.00000050817414, 0.00017315961, -40803.895, -40803.895, 0.0, 10.000002, 9.942172 
1.475e+3, 3.138706e+2, -39725.887, -82511.21, -0.0029512988, 0.00000051787623, -0.000055131117, -39725.887, -39725.887, 0.0, 10.000002, 9.943684 
1.485e+3, 1.24993354e+2, -1719944.1, -1724224.5, 0.006118847, 0.0000005810961, 0.00001774292, -1719944.1, -4879.0225, 0.0, 10.000002, 9.994327 
1.485e+3, 1.3498761e+2, -1622563.8, -1627434.8, -0.000535472, 0.0000005723751, -0.00006822989, -1622563.8, -5442.256, 0.0, 10.000002, 9.993544 
1.485e+3, 1.4497514e+2, -1534462.4, -1548146.1, 0.00869955, 0.00000056681057, 0.000071015056, -1534462.4, -15218.758, 0.0, 10.000002, 9.981864 
1.485e+3, 1.5495703e+2, -1436734.6, -1450821.8, -0.0023221814, 0.00000056445583, -0.0000568542, -1436734.6, -15313.591, 0.0, 10.000002, 9.981332 
1.485e+3, 1.6493228e+2, -1348683.8, -1371952.3, 0.004877596, 0.000000561534, 0.0000474744, -1348683.8, -25020.086, 0.0, 10.000002, 9.969248 
1.485e+3, 1.7490156e+2, -1250725.8, -1274310.0, -0.0033998287, 0.0000005580383, -0.000073716474, -1250725.8, -24761.08, 0.0, 10.000002, 9.968834 
1.485e+3, 1.8486422e+2, -1162644.8, -1195720.0, 0.004747039, 0.00000055440876, 0.000066246655, -1162644.8, -34314.133, 0.0, 10.000002, 9.956394 
1.485e+3, 1.9482066e+2, -1064495.0, -1097832.9, -0.003884622, 0.0000005506326, -0.000057561872, -1064495.0, -33737.48, 0.0, 10.000002, 9.956052 
1.485e+3, 2.0477042e+2, -976331.06, -1019434.9, 0.0032568453, 0.000000547606, 0.00006816945, -976331.06, -43081.227, 0.0, 10.000002, 9.94329 
1.485e+3, 2.1471375e+2, -878044.06, -921409.75, -0.0050288695, 0.0000005453894, -0.0001267351, -878044.06, -42238.82, 0.0, 10.000002, 9.942948 
1.485e+3, 2.2465037e+2, -789757.94, -843144.75, 0.0034600557, 0.0000005431875, 0.000120966266, -789757.94, -51331.715, 0.0, 10.000002, 9.929907 
1.485e+3, 2.3458035e+2, -691324.5, -744966.4, -0.004751801, 0.0000005409951, -0.000088744826, -691324.5, -50211.96, 0.0, 10.000002, 9.929576 
1.485e+3, 2.4450338e+2, -603000.44, -667018.7, 0.0008860442, 0.0000005378792, 0.00007477314, -603000.44, -59133.563, 0.0, 10.000002, 9.916135 
1.485e+3, 2.5441962e+2, -504247.78, -568343.25, -0.006335338, 0.0000005336589, -0.000106676736, -504247.78, -57560.227, 0.0, 10.000002, 9.916036 
1.485e+3, 2.643288e+2, -416012.38, -490987.8, 0.0029397346, 0.0000005330052, 0.00014064879, -416012.38, -66434.695, 0.0, 10.000002, 9.901964 
1.485e+3, 2.742313e+2, -316727.16, -391374.72, -0.0048270067, 0.0000005368924, -0.00020339638, -316727.16, -64194.152, 0.0, 10.000002, 9.902384 
1.485e+3, 2.841256e+2, -230253.9, -318081.2, 0.0013495536, 0.00000053472564, 0.00022908665, -230253.9, -74684.93, 0.0, 10.000002, 9.885438 
1.485e+3, 2.940121e+2, -130547.78, -217764.97, -0.0061753755, 0.0000005242506, -0.00025330918, -130547.78, -71866.375, 0.0, 10.000002, 9.886216 
1.485e+3, 3.0392656e+2, -40803.785, -84750.125, 0.0012790122, 0.0000005220608, 0.0001731608, -40803.785, -40803.785, 0.0, 10.000002, 9.942172 
1.485e+3, 3.138706e+2, -39725.773, -82511.18, -0.004452965, 0.00000053224164, -0.000055130393, -39725.773, -39725.773, 0.0, 10.000002, 9.943684 
1.495e+3, 1.24993354e+2, -1719944.1, -1724224.5, 0.0012781323, 0.00000059873116, 0.000017743238, -1719944.1, -4879.041, 0.0, 10.000002, 9.994327 
1.495e+3, 1.3498761e+2, -1622563.8, -1627434.8, -0.005380036, 0.000000586849, -0.00006821553, -1622563.8, -5442.274, 0.0, 10.000002, 9.993544 
1.495e+3, 1.4497514e+2, -1534462.4, -1548146.1, 0.005183722, 0.00000058059834, 0.00007101576, -1534462.4, -15218.786, 0.0, 10.000002, 9.981864 
1.495e+3, 1.5495703e+2, -1436734.8, -1450821.9, -0.005832438, 0.0000005800744, -0.00005684983, -1436734.8, -15313.618, 0.0, 10.000002, 9.981332 
1.495e+3, 1.6493228e+2, -1348683.8, -1371952.3, 0.0012175742, 0.0000005776349, 0.00004747846, -1348683.8, -25020.105, 0.0, 10.000002, 9.969248 
1.495e+3, 1.7490156e+2, -1250725.8, -1274310.1, -0.0070569636, 0.00000057324206, -0.000073716765, -1250725.8, -24761.102, 0.0, 10.000002, 9.968834 
1.495e+3, 1.8486422e+2, -1162644.8, -1195720.0, 0.0016602781, 0.00000056916457, 0.00006624876, -1162644.8, -34314.156, 0.0, 10.000002, 9.956394 
1.495e+3, 1.9482066e+2, -1064495.0, -1097832.9, -0.0069650053, 0.00000056539864, -0.000057550333, -1064495.0, -33737.5, 0.0, 10.000002, 9.956052 
1.495e+3, 2.0477042e+2, -976331.06, -1019434.94, 0.0010552902, 0.0000005624337, 0.00006817731, -976331.06, -43081.246, 0.0, 10.000002, 9.94329 
1.495e+3, 2.1471375e+2, -878044.06, -921409.8, -0.007214004, 0.0000005603316, -0.00012674514, -878044.06, -42238.84, 0.0, 10.000002, 9.942948 
1.495e+3, 2.2465037e+2, -789758.0, -843144.8, 0.00087144884, 0.0000005582241, 0.00012095335, -789758.0, -51331.734, 0.0, 10.000002, 9.929907 
1.495e+3, 2.3458035e+2, -691324.5, -744966.4, -0.007354104, 0.00000055610667, -0.0000887436, -691324.5, -50211.98, 0.0, 10.000002, 9.929576 
1.495e+3, 2.4450338e+2, -603000.44, -667018.75, -0.0004951684, 0.0000005528514, 0.00007477958, -603000.44, -59133.58, 0.0, 10.000002, 9.916135 
1.495e+3, 2.5441962e+2, -504247.78, -568343.25, -0.007657996, 0.0000005482345, -0.00010667576, -504247.78, -57560.242, 0.0, 10.000002, 9.916036 
1.495e+3, 2.643288e+2, -416012.38, -490987.84, 0.001652932, 0.0000005476235, 0.00014064698, -416012.38, -66434.72, 0.0, 10.000002, 9.901964 
1.495e+3, 2.742313e+2, -316727.16, -391374.75, -0.006111801, 0.000000552112, -0.00020339752, -316727.16, -64194.168, 0.0, 10.000002, 9.902384 
1.495e+3, 2.841256e+2, -230253.92, -318081.22, 0.00042501732, 0.0000005497987, 0.00022908699, -230253.92, -74684.945, 0.0, 10.000002, 9.885438 
1.495e+3, 2.940121e+2, -130547.8, -217765.0, -0.007067873, 0.0000005381511, -0.00025330624, -130547.8, -71866.39, 0.0, 10.000002, 9.886216 
1.495e+3, 3.0392656e+2, -40803.797, -84750.16, 0.0012593295, 0.0000005358807, 0.00017316549, -40803.797, -40803.797, 0.0, 10.000002, 9.942172 
1.495e+3, 3.138706e+2, -39725.785, -82511.21, -0.004370624, 0.00000054761153, -0.0000551253, -39725.785, -39725.785, 0.0, 10.000002, 9.943684 
1.5050001e+3, 1.24993354e+2, -1719944.0, -1724224.5, 0.007393598, 0.0000006155777, 0.000017745084, -1719944.0, -4878.9, 0.0, 10.000002, 9.994327 
1.5050001e+3, 1.3498761e+2, -1622563.6, -1627434.8, -0.0053317887, 0.00000060237744, -0.00006820215, -1622563.6, -5442.1323, 0.0, 10.000002, 9.993544 
1.5050001e+3, 1.4497514e+2, -1534462.3, -1548146.1, 0.004543433, 0.0000005957929, 0.000071012815, -1534462.3, -15218.6455, 0.0, 10.000002, 9.981864 
1.5050001e+3, 1.5495703e+2, -1436734.5, -1450821.8, -0.0034629651, 0.0000005959337, -0.00005684583, -1436734.5, -15313.481, 0.0, 10.000002, 9.981332 
1.5050001e+3, 1.6493228e+2, -1348683.6, -1371952.3, 0.0046308422, 0.00000059363504, 0.000047484704, -1348683.6, -25019.97, 0.0, 10.000002, 9.969248 
1.505e+3, 1.7490156e+2, -1250725.6, -1274310.0, -0.0050513307, 0.0000005888511, -0.00007371304, -1250725.6, -24760.965, 0.0, 10.000002, 9.968834 
1.505e+3, 1.8486422e+2, -1162644.6, -1195720.0, 0.0032600528, 0.0000005845605, 0.00006625144, -1162644.6, -34314.02, 0.0, 10.000002, 9.956394 
1.505e+3, 1.9482066e+2, -1064494.9, -1097832.9, -0.0058322856, 0.0000005807602, -0.000057547128, -1064494.9, -33737.367, 0.0, 10.000002, 9.956052 
1.505e+3, 2.0477042e+2, -976330.94, -1019434.9, 0.0023766756, 0.0000005777733, 0.0000681805, -976330.94, -43081.113, 0.0, 10.000002, 9.94329 
1.505e+3, 2.1471375e+2, -878043.94, -921409.75, -0.0061696596, 0.0000005756619, -0.0001267425, -878043.94, -42238.71, 0.0, 10.000002, 9.942948 
1.505e+3, 2.2465037e+2, -789757.9, -843144.75, 0.0020481043, 0.00000057355584, 0.00012095571, -789757.9, -51331.61, 0.0, 10.000002, 9.929907 
1.505e+3, 2.3458035e+2, -691324.4, -744966.4, -0.00598226, 0.00000057145354, -0.00008874121, -691324.4, -50211.85, 0.0, 10.000002, 9.929576 
1.505e+3, 2.4450338e+2, -603000.3, -667018.7, 0.0009856186, 0.0000005681193, 0.00007478189, -603000.3, -59133.45, 0.0, 10.000002, 9.916135 
1.505e+3, 2.5441962e+2, -504247.66, -568343.25, -0.00765411, 0.0000005633102, -0.000106673666, -504247.66, -57560.117, 0.0, 10.000002, 9.916036 
1.505e+3, 2.643288e+2, -416012.25, -490987.8, 0.0015311732, 0.00000056268226, 0.00014064893, -416012.25, -66434.59, 0.0, 10.000002, 9.901964 
1.505e+3, 2.742313e+2, -316727.06, -391374.72, -0.005346883, 0.00000056737656, -0.0002033956, -316727.06, -64194.047, 0.0, 10.000002, 9.902384 
1.505e+3, 2.841256e+2, -230253.8, -318081.2, 0.0023973912, 0.0000005649972, 0.00022908878, -230253.8, -74684.82, 0.0, 10.000002, 9.885438 
1.505e+3, 2.940121e+2, -130547.67, -217764.97, -0.0043430245, 0.00000055291036, -0.00025330472, -130547.67, -71866.266, 0.0, 10.000002, 9.886216 
1.505e+3, 3.0392656e+2, -40803.676, -84750.125, 0.004309506, 0.0000005505916, 0.00017316669, -40803.676, -40803.676, 0.0, 10.000002, 9.942172 
1.505e+3, 3.138706e+2, -39725.668, -82511.17, -0.0029150906, 0.0000005628576, -0.000055124423, -39725.668, -39725.668, 0.0, 10.000002, 9.943684 
1.5150002e+3, 1.24993354e+2, -1719944.1, -1724224.5, 0.002786863, 0.0000006316257, 0.000017749078, -1719944.1, -4878.9326, 0.0, 10.000002, 9.994327 
1.5150002e+3, 1.3498761e+2, -1622563.6, -1627434.8, -0.009939942, 0.00000061895753, -0.00006818975, -1622563.6, -5442.1646, 0.0, 10.000002, 9.993544 
1.5150002e+3, 1.4497514e+2, -1534462.3, -1548146.1, 0.00026073787, 0.00000061239285, 0.000071006216, -1534462.3, -15218.666, 0.0, 10.000002, 9.981864 
1.5150002e+3, 1.5495703e+2, -1436734.6, -1450821.9, -0.0077460385, 0.0000006120292, -0.000056842196, -1436734.6, -15313.503, 0.0, 10.000002, 9.981332 
1.5150002e+3, 1.6493228e+2, -1348683.6, -1371952.3, 0.00091544795, 0.0000006095295, 0.000047493122, -1348683.6, -25019.994, 0.0, 10.000002, 9.969248 
1.5150002e+3, 1.7490156e+2, -1250725.6, -1274310.1, -0.008764186, 0.00000060486536, -0.0000737053, -1250725.6, -24760.99, 0.0, 10.000002, 9.968834 
1.5150002e+3, 1.8486422e+2, -1162644.6, -1195720.0, 0.000056987672, 0.0000006005964, 0.00006625472, -1162644.6, -34314.043, 0.0, 10.000002, 9.956394 
1.5150002e+3, 1.9482066e+2, -1064494.9, -1097832.9, -0.009029563, 0.0000005967166, -0.000057552257, -1064494.9, -33737.387, 0.0, 10.000002, 9.956051 
1.5150002e+3, 2.0477042e+2, -976331.0, -1019434.94, -0.00057121983, 0.00000059362407, 0.000068179055, -976331.0, -43081.137, 0.0, 10.000002, 9.94329 
1.5150002e+3, 2.1471375e+2, -878044.0, -921409.8, -0.009112558, 0.00000059138006, -0.00012672719, -878044.0, -42238.73, 0.0, 10.000002, 9.942948 
1.5150002e+3, 2.2465037e+2, -789757.9, -843144.8, -0.000115710325, 0.0000005891826, 0.00012097333, -789757.9, -51331.625, 0.0, 10.000002, 9.929907 
1.5150002e+3, 2.3458035e+2, -691324.4, -744966.4, -0.008120677, 0.00000058703546, -0.00008873765, -691324.4, -50211.867, 0.0, 10.000002, 9.929576 
1.5150002e+3, 2.4450338e+2, -603000.3, -667018.75, -0.0010073952, 0.0000005836825, 0.00007478007, -603000.3, -59133.47, 0.0, 10.000002, 9.916135 
1.5150002e+3, 2.5441962e+2, -504247.7, -568343.25, -0.0096402215, 0.000000578886, -0.000106670464, -504247.7, -57560.137, 0.0, 10.000002, 9.916036 
1.5150002e+3, 2.643288e+2, -416012.28, -490987.84, 0.00018553367, 0.0000005781816, 0.00014065465, -416012.28, -66434.61, 0.0, 10.000002, 9.901964 
1.5150002e+3, 2.742313e+2, -316727.06, -391374.75, -0.006649649, 0.0000005826862, -0.0002033906, -316727.06, -64194.063, 0.0, 10.000002, 9.902384 
1.5150002e+3, 2.841256e+2, -230253.81, -318081.22, 0.0015218674, 0.00000058032117, 0.000229092, -230253.81, -74684.836, 0.0, 10.000002, 9.885438 
1.5150002e+3, 2.940121e+2, -130547.69, -217765.0, -0.0051801307, 0.00000056852843, -0.0002533047, -130547.69, -71866.28, 0.0, 10.000002, 9.886216 
1.5150002e+3, 3.0392656e+2, -40803.695, -84750.16, 0.0038239218, 0.0000005661935, 0.0001731644, -40803.695, -40803.695, 0.0, 10.000002, 9.942172 
1.5150002e+3, 3.138706e+2, -39725.684, -82511.21, -0.0033594903, 0.00000057797985, -0.00005512776, -39725.684, -39725.684, 0.0, 10.000002, 9.943684 
1.5250002e+3, 1.24993354e+2, -1719943.9, -1724224.5, 0.0066608493, 0.00000064752993, 0.000017751661, -1719943.9, -4878.7837, 0.0, 10.000002, 9.994327 
1.5250002e+3, 1.3498761e+2, -1622563.5, -1627434.8, -0.0009502217, 0.00000063616665, -0.00006817664, -1622563.5, -5442.015, 0.0, 10.000002, 9.993544 
1.5250002e+3, 1.4497514e+2, -1534462.1, -1548146.1, 0.009693392, 0.0000006298381, 0.00007100348, -1534462.1, -15218.519, 0.0, 10.000002, 9.981864 
1.5250002e+3, 1.5495703e+2, -1436734.4, -1450821.8, -0.0023147126, 0.0000006286171, -0.000056838053, -1436734.4, -15313.358, 0.0, 10.000002, 9.981332 
1.5250002e+3, 1.6493228e+2, -1348683.5, -1371952.3, 0.00547232, 0.00000062574264, 0.00004749946, -1348683.5, -25019.852, 0.0, 10.000002, 9.969247 
1.5250002e+3, 1.7490156e+2, -1250725.5, -1274310.0, -0.0038533253, 0.000000621198, -0.00007370151, -1250725.5, -24760.846, 0.0, 10.000002, 9.968834 
1.5250002e+3, 1.8486422e+2, -1162644.5, -1195720.0, 0.0052329423, 0.00000061701724, 0.0000662575, -1162644.5, -34313.9, 0.0, 10.000002, 9.956394 
1.5250002e+3, 1.9482066e+2, -1064494.8, -1097832.9, -0.004269505, 0.00000061319827, -0.000057548903, -1064494.8, -33737.25, 0.0, 10.000002, 9.956051 
1.5250002e+3, 2.0477042e+2, -976330.8, -1019434.9, 0.0040324517, 0.00000061002675, 0.000068182424, -976330.8, -43080.996, 0.0, 10.000002, 9.94329 
1.5250002e+3, 2.1471375e+2, -878043.8, -921409.75, -0.0052346895, 0.00000060755394, -0.00012672441, -878043.8, -42238.594, 0.0, 10.000002, 9.942948 
1.5250002e+3, 2.2465037e+2, -789757.75, -843144.75, 0.0036002717, 0.0000006051773, 0.00012097583, -789757.75, -51331.49, 0.0, 10.000002, 9.929907 
1.5250002e+3, 2.3458035e+2, -691324.25, -744966.3, -0.005520415, 0.0000006029051, -0.00008873512, -691324.25, -50211.734, 0.0, 10.000002, 9.929576 
1.5250002e+3, 2.4450338e+2, -603000.2, -667018.7, 0.0014761188, 0.0000005995455, 0.0000747825, -603000.2, -59133.336, 0.0, 10.000002, 9.916135 
1.5250002e+3, 2.5441962e+2, -504247.53, -568343.25, -0.006529396, 0.0000005948843, -0.00010666829, -504247.53, -57560.004, 0.0, 10.000002, 9.916035 
1.5250002e+3, 2.643288e+2, -416012.16, -490987.8, 0.003421085, 0.0000005941184, 0.00014065664, -416012.16, -66434.48, 0.0, 10.000002, 9.901964 
1.5250002e+3, 2.742313e+2, -316726.94, -391374.7, -0.005215624, 0.00000059831115, -0.00020338867, -316726.94, -64193.93, 0.0, 10.000002, 9.902384 
1.5250002e+3, 2.841256e+2, -230253.69, -318081.2, 0.0016976069, 0.0000005959703, 0.0002290938, -230253.69, -74684.71, 0.0, 10.000002, 9.885438 
1.5250002e+3, 2.940121e+2, -130547.56, -217764.97, -0.006641098, 0.0000005846626, -0.00025330318, -130547.56, -71866.16, 0.0, 10.000002, 9.886216 
1.5250002e+3, 3.0392656e+2, -40803.566, -84750.125, 0.0019866547, 0.00000058234355, 0.00017316561, -40803.566, -40803.566, 0.0, 10.000002, 9.942172 
1.5250002e+3, 3.138706e+2, -39725.56, -82511.17, -0.0044619455, 0.00000059344524, -0.000055126904, -39725.56, -39725.56, 0.0, 10.000002, 9.943684 
1.535e+3, 1.24993354e+2, -1719943.9, -1724224.5, 0.002261557, 0.0000006632797, 0.000017751807, -1719943.9, -4878.805, 0.0, 10.000002, 9.994327 
1.535e+3, 1.3498761e+2, -1622563.5, -1627434.8, -0.0053445445, 0.0000006540019, -0.00006816281, -1622563.5, -5442.036, 0.0, 10.000002, 9.993544 
1.535e+3, 1.4497514e+2, -1534462.1, -1548146.1, 0.0046780976, 0.0000006481274, 0.000071004615, -1534462.1, -15218.549, 0.0, 10.000002, 9.981864 
1.535e+3, 1.5495703e+2, -1436734.5, -1450821.9, -0.0073318793, 0.0000006456932, -0.0000568334, -1436734.5, -15313.389, 0.0, 10.000002, 9.981332 
1.535e+3, 1.6493228e+2, -1348683.5, -1371952.3, 0.0017839045, 0.0000006422699, 0.00004750372, -1348683.5, -25019.875, 0.0, 10.000002, 9.969247 
1.535e+3, 1.7490156e+2, -1250725.5, -1274310.1, -0.0075376746, 0.00000063784904, -0.00007370166, -1250725.5, -24760.87, 0.0, 10.000002, 9.968834 
1.535e+3, 1.8486422e+2, -1162644.5, -1195720.0, 0.0015637841, 0.0000006338227, 0.00006625976, -1162644.5, -34313.92, 0.0, 10.000002, 9.956394 
1.535e+3, 1.9482066e+2, -1064494.9, -1097832.9, -0.0079381205, 0.0000006302047, -0.00005753707, -1064494.9, -33737.273, 0.0, 10.000002, 9.956051 
1.535e+3, 2.0477042e+2, -976330.9, -1019434.94, 0.00089896703, 0.0000006269806, 0.000068190624, -976330.9, -43081.02, 0.0, 10.000002, 9.94329 
1.535e+3, 2.1471375e+2, -878043.9, -921409.8, -0.0083554825, 0.00000062418343, -0.00012673414, -878043.9, -42238.617, 0.0, 10.000002, 9.942948 
1.535e+3, 2.2465037e+2, -789757.75, -843144.8, 0.0011917924, 0.00000062153975, 0.000120963196, -789757.75, -51331.51, 0.0, 10.000002, 9.929907 
1.535e+3, 2.3458035e+2, -691324.25, -744966.4, -0.007905206, 0.0000006190624, -0.000088733614, -691324.25, -50211.754, 0.0, 10.000002, 9.929576 
1.535e+3, 2.4450338e+2, -603000.2, -667018.75, -0.0006308191, 0.0000006157081, 0.00007478919, -603000.2, -59133.35, 0.0, 10.000002, 9.916135 
1.535e+3, 2.5441962e+2, -504247.56, -568343.25, -0.008622951, 0.000000611305, -0.000106667154, -504247.56, -57560.02, 0.0, 10.000002, 9.916035 
1.535e+3, 2.643288e+2, -416012.16, -490987.84, 0.0018308001, 0.0000006104926, 0.00014065494, -416012.16, -66434.49, 0.0, 10.000002, 9.901964 
1.535e+3, 2.742313e+2, -316726.94, -391374.75, -0.0067718495, 0.0000006142515, -0.00020338976, -316726.94, -64193.95, 0.0, 10.000002, 9.902384 
1.535e+3, 2.841256e+2, -230253.7, -318081.22, 0.0007370859, 0.00000061194453, 0.00022909418, -230253.7, -74684.73, 0.0, 10.000002, 9.885438 
1.535e+3, 2.940121e+2, -130547.58, -217765.0, -0.0075476537, 0.0000006013127, -0.00025330018, -130547.58, -71866.17, 0.0, 10.000002, 9.886216 
1.535e+3, 3.0392656e+2, -40803.582, -84750.16, 0.0013916092, 0.0000005990418, 0.00017317031, -40803.582, -40803.582, 0.0, 10.000002, 9.942172 
1.535e+3, 3.138706e+2, -39725.574, -82511.21, -0.0050201435, 0.0000006092538, -0.000055121858, -39725.574, -39725.574, 0.0, 10.000002, 9.943684 
1.5450001e+3, 1.24993354e+2, -1719943.8, -1724224.5, 0.008916416, 0.00000068088883, 0.000017754724, -1719943.8, -4878.647, 0.0, 10.000002, 9.994326 
1.5450001e+3, 1.3498761e+2, -1622563.4, -1627434.8, -0.0044763256, 0.00000067128946, -0.00006815285, -1622563.4, -5441.882, 0.0, 10.000002, 9.993544 
1.5450001e+3, 1.4497514e+2, -1534462.0, -1548146.1, 0.004047408, 0.0000006655451, 0.000071003065, -1534462.0, -15218.3955, 0.0, 10.000002, 9.981864 
1.5450001e+3, 1.5495703e+2, -1436734.3, -1450821.8, -0.004841264, 0.0000006636723, -0.00005682934, -1436734.3, -15313.234, 0.0, 10.000002, 9.981332 
1.5450001e+3, 1.6493228e+2, -1348683.4, -1371952.3, 0.006000167, 0.0000006600386, 0.000047509526, -1348683.4, -25019.72, 0.0, 10.000002, 9.969247 
1.5450001e+3, 1.7490156e+2, -1250725.4, -1274310.0, -0.0047780834, 0.00000065461654, -0.000073698066, -1250725.4, -24760.719, 0.0, 10.000002, 9.968834 
1.5450001e+3, 1.8486422e+2, -1162644.4, -1195720.0, 0.0037092005, 0.00000065049534, 0.0000662625, -1162644.4, -34313.773, 0.0, 10.000002, 9.956394 
1.5450001e+3, 1.9482066e+2, -1064494.6, -1097832.9, -0.0061721876, 0.000000647739, -0.000057533736, -1064494.6, -33737.125, 0.0, 10.000002, 9.956051 
1.5450001e+3, 2.0477042e+2, -976330.7, -1019434.9, 0.002818036, 0.00000064459846, 0.00006819407, -976330.7, -43080.87, 0.0, 10.000002, 9.94329 
1.5450001e+3, 2.1471375e+2, -878043.7, -921409.75, -0.0069217826, 0.0000006410418, -0.00012673107, -878043.7, -42238.47, 0.0, 10.000002, 9.942948 
1.5450001e+3, 2.2465037e+2, -789757.6, -843144.75, 0.0028809623, 0.00000063808466, 0.00012096601, -789757.6, -51331.367, 0.0, 10.000002, 9.929907 
1.5450001e+3, 2.3458035e+2, -691324.1, -744966.3, -0.0060091815, 0.00000063579944, -0.000088730885, -691324.1, -50211.613, 0.0, 10.000002, 9.929576 
1.5450001e+3, 2.4450338e+2, -603000.06, -667018.7, 0.0013607956, 0.00000063253236, 0.00007479171, -603000.06, -59133.215, 0.0, 10.000002, 9.916135 
1.5450001e+3, 2.5441962e+2, -504247.44, -568343.2, -0.008083547, 0.0000006280916, -0.000106664986, -504247.44, -57559.88, 0.0, 10.000002, 9.916035 
1.5450001e+3, 2.643288e+2, -416012.03, -490987.8, 0.0022463596, 0.0000006271491, 0.00014065686, -416012.03, -66434.35, 0.0, 10.000002, 9.901964 
1.5450001e+3, 2.742313e+2, -316726.8, -391374.7, -0.0055365455, 0.0000006306605, -0.00020338794, -316726.8, -64193.813, 0.0, 10.000002, 9.902384 
1.5450001e+3, 2.841256e+2, -230253.56, -318081.2, 0.0032563931, 0.00000062841264, 0.00022909585, -230253.56, -74684.586, 0.0, 10.000002, 9.885438 
1.5450001e+3, 2.940121e+2, -130547.445, -217764.97, -0.004345994, 0.00000061826046, -0.00025329864, -130547.445, -71866.03, 0.0, 10.000002, 9.886216 
1.5450001e+3, 3.0392656e+2, -40803.45, -84750.12, 0.004793587, 0.0000006160403, 0.00017317156, -40803.45, -40803.45, 0.0, 10.000002, 9.942172 
1.5450001e+3, 3.138706e+2, -39725.438, -82511.17, -0.003273091, 0.00000062566306, -0.00005512111, -39725.438, -39725.438, 0.0, 10.000002, 9.943684 
1.5550001e+3, 1.24993354e+2, -1719943.8, -1724224.5, 0.003827528, 0.0000007003611, 0.000017759787, -1719943.8, -4878.682, 0.0, 10.000002, 9.994326 
1.5550001e+3, 1.3498761e+2, -1622563.4, -1627434.8, -0.009563125, 0.0000006880307, -0.000068146765, -1622563.4, -5441.916, 0.0, 10.000002, 9.993544 
1.5550001e+3, 1.4497514e+2, -1534462.0, -1548146.1, -0.00071417575, 0.0000006820901, 0.000070998845, -1534462.0, -15218.419, 0.0, 10.000002, 9.981864 
1.5550001e+3, 1.5495703e+2, -1436734.3, -1450821.9, -0.009603799, 0.0000006825544, -0.000056825877, -1436734.3, -15313.258, 0.0, 10.000002, 9.981332 
1.5550001e+3, 1.6493228e+2, -1348683.4, -1371952.3, 0.0016024596, 0.0000006790484, 0.000047516878, -1348683.4, -25019.748, 0.0, 10.000002, 9.969247 
1.5550001e+3, 1.7490156e+2, -1250725.4, -1274310.1, -0.009175719, 0.00000067149807, -0.00007369074, -1250725.4, -24760.746, 0.0, 10.000002, 9.968834 
1.5550001e+3, 1.8486422e+2, -1162644.4, -1195720.0, -0.000097212054, 0.0000006670335, 0.00006626572, -1162644.4, -34313.8, 0.0, 10.000002, 9.956394 
1.5550001e+3, 1.9482066e+2, -1064494.8, -1097832.9, -0.009972113, 0.0000006658012, -0.000057538906, -1064494.8, -33737.15, 0.0, 10.000002, 9.956051 
1.5550001e+3, 2.0477042e+2, -976330.75, -1019434.94, -0.00036336234, 0.0000006628804, 0.000068192785, -976330.75, -43080.895, 0.0, 10.000002, 9.94329 
1.5550001e+3, 2.1471375e+2, -878043.75, -921409.8, -0.010089867, 0.00000065812884, -0.00012671521, -878043.75, -42238.492, 0.0, 10.000002, 9.942948 
1.5550001e+3, 2.2465037e+2, -789757.6, -843144.8, -0.00016325977, 0.0000006548115, 0.000120984274, -789757.6, -51331.387, 0.0, 10.000002, 9.929907 
1.5550001e+3, 2.3458035e+2, -691324.1, -744966.4, -0.009049378, 0.00000065311616, -0.00008872693, -691324.1, -50211.633, 0.0, 10.000002, 9.929576 
1.5550001e+3, 2.4450338e+2, -603000.06, -667018.75, -0.00065044704, 0.0000006500183, 0.00007479008, -603000.06, -59133.234, 0.0, 10.000002, 9.916135 
1.5550001e+3, 2.5441962e+2, -504247.44, -568343.25, -0.010044781, 0.00000064524414, -0.00010666178, -504247.44, -57559.902, 0.0, 10.000002, 9.916035 
1.5550001e+3, 2.643288e+2, -416012.03, -490987.84, 0.0004868765, 0.00000064408806, 0.00014066242, -416012.03, -66434.375, 0.0, 10.000002, 9.901964 
1.5550001e+3, 2.742313e+2, -316726.84, -391374.72, -0.0072820494, 0.0000006475382, -0.00020338323, -316726.84, -64193.83, 0.0, 10.000002, 9.902384 
1.5550001e+3, 2.841256e+2, -230253.58, -318081.22, 0.0020000513, 0.00000064537466, 0.00022909885, -230253.58, -74684.61, 0.0, 10.000002, 9.885438 
1.5550001e+3, 2.940121e+2, -130547.46, -217765.0, -0.005557801, 0.0000006355056, -0.00025329855, -130547.46, -71866.055, 0.0, 10.000002, 9.886216 
1.5550001e+3, 3.0392656e+2, -40803.47, -84750.16, 0.004403402, 0.0000006333391, 0.00017316936, -40803.47, -40803.47, 0.0, 10.000002, 9.942172 
1.5550001e+3, 3.138706e+2, -39725.457, -82511.21, -0.0035662104, 0.00000064267294, -0.000055124656, -39725.457, -39725.457, 0.0, 10.000002, 9.943684 
1.5650001e+3, 1.24993354e+2, -1719943.6, -1724224.5, 0.007925512, 0.0000007188928, 0.0000177629, -1719943.6, -4878.5146, 0.0, 10.000002, 9.994326 
1.5650001e+3, 1.3498761e+2, -1622563.1, -1627434.8, -0.0008706628, 0.00000070660224, -0.00006813816, -1622563.1, -5441.753, 0.0, 10.000002, 9.993544 
1.5650001e+3, 1.4497514e+2, -1534461.8, -1548146.1, 0.009283123, 0.000000700452, 0.00007099917, -1534461.8, -15218.258, 0.0, 10.000002, 9.981864 
1.5650001e+3, 1.5495703e+2, -1436734.1, -1450821.8, -0.0033839094, 0.0000007004469, -0.00005682178, -1436734.1, -15313.096, 0.0, 10.000002, 9.981332 
1.5650001e+3, 1.6493228e+2, -1348683.3, -1371952.3, 0.006143064, 0.0000006969185, 0.000047522204, -1348683.3, -25019.588, 0.0, 10.000002, 9.969247 
1.5650001e+3, 1.7490156e+2, -1250725.3, -1274310.0, -0.0041471943, 0.00000068979926, -0.00007368678, -1250725.3, -24760.588, 0.0, 10.000002, 9.968834 
1.5650001e+3, 1.8486422e+2, -1162644.3, -1195720.0, 0.0058603, 0.0000006853146, 0.00006626904, -1162644.3, -34313.645, 0.0, 10.000002, 9.956394 
1.5650001e+3, 1.9482066e+2, -1064494.5, -1097832.9, -0.0047159675, 0.00000068358895, -0.00005753545, -1064494.5, -33736.992, 0.0, 10.000002, 9.956051 
1.5650001e+3, 2.0477043e+2, -976330.56, -1019434.9, 0.0045323637, 0.00000068050684, 0.000068196256, -976330.56, -43080.74, 0.0, 10.000002, 9.94329 
1.5650001e+3, 2.1471375e+2, -878043.56, -921409.75, -0.005474028, 0.0000006759536, -0.00012671185, -878043.56, -42238.344, 0.0, 10.000002, 9.942948 
1.5650001e+3, 2.2465037e+2, -789757.5, -843144.75, 0.004423262, 0.00000067265006, 0.00012098742, -789757.5, -51331.24, 0.0, 10.000002, 9.929907 
1.5650001e+3, 2.3458035e+2, -691324.0, -744966.3, -0.0058671017, 0.00000067076195, -0.00008872413, -691324.0, -50211.48, 0.0, 10.000002, 9.929576 
1.5650001e+3, 2.4450338e+2, -602999.94, -667018.7, 0.0023284797, 0.0000006676529, 0.00007479257, -602999.94, -59133.082, 0.0, 10.000002, 9.916135 
1.5650001e+3, 2.5441962e+2, -504247.28, -568343.2, -0.0067399754, 0.0000006630839, -0.0001066595, -504247.28, -57559.754, 0.0, 10.000002, 9.916035 
1.5650001e+3, 2.643288e+2, -416011.9, -490987.78, 0.0037172302, 0.0000006617802, 0.00014066446, -416011.9, -66434.23, 0.0, 10.000002, 9.901963 
1.5650001e+3, 2.742313e+2, -316726.7, -391374.7, -0.0058496576, 0.00000066463326, -0.00020338144, -316726.7, -64193.684, 0.0, 10.000002, 9.902384 
1.5650001e+3, 2.841256e+2, -230253.44, -318081.2, 0.0023068856, 0.0000006625284, 0.00022910038, -230253.44, -74684.46, 0.0, 10.000002, 9.885438 
1.5650001e+3, 2.940121e+2, -130547.31, -217764.95, -0.006909957, 0.0000006536179, -0.0002532973, -130547.31, -71865.91, 0.0, 10.000002, 9.886216 
1.5650001e+3, 3.0392656e+2, -40803.324, -84750.12, 0.0024954393, 0.0000006514812, 0.00017317038, -40803.324, -40803.324, 0.0, 10.000002, 9.942172 
1.5650001e+3, 3.138706e+2, -39725.316, -82511.17, -0.004869618, 0.0000006594584, -0.000055123808, -39725.316, -39725.316, 0.0, 10.000002, 9.943684 
1.5750001e+3, 1.24993354e+2, -1719943.6, -1724224.5, 0.0019476705, 0.000000736483, 0.000017763992, -1719943.6, -4878.539, 0.0, 10.000002, 9.994326 
1.5750001e+3, 1.3498761e+2, -1622563.3, -1627434.8, -0.0068473234, 0.0000007270038, -0.00006812702, -1622563.3, -5441.7773, 0.0, 10.000002, 9.993544 
1.5750001e+3, 1.4497514e+2, -1534461.9, -1548146.1, 0.004664992, 0.0000007206306, 0.00007100405, -1534461.9, -15218.29, 0.0, 10.000002, 9.981864 
1.5750001e+3, 1.5495703e+2, -1436734.1, -1450821.9, -0.0080007715, 0.00000071734917, -0.000056817047, -1436734.1, -15313.128, 0.0, 10.000002, 9.981332 
1.5750001e+3, 1.6493228e+2, -1348683.3, -1371952.3, 0.0010959557, 0.00000071364803, 0.00004752551, -1348683.3, -25019.615, 0.0, 10.000002, 9.969247 
1.5750001e+3, 1.7490156e+2, -1250725.3, -1274310.1, -0.009197479, 0.00000070951995, -0.0000736862, -1250725.3, -24760.615, 0.0, 10.000002, 9.968834 
1.5750001e+3, 1.8486422e+2, -1162644.3, -1195720.0, 0.0022272677, 0.00000070533866, 0.00006627247, -1162644.3, -34313.668, 0.0, 10.000002, 9.956394 
1.5750001e+3, 1.9482066e+2, -1064494.5, -1097832.9, -0.008333443, 0.0000007011019, -0.000057523368, -1064494.5, -33737.016, 0.0, 10.000002, 9.956051 
1.5750001e+3, 2.0477043e+2, -976330.56, -1019434.94, 0.00054394355, 0.00000069747733, 0.0000682045, -976330.56, -43080.766, 0.0, 10.000002, 9.94329 
1.5750001e+3, 2.1471375e+2, -878043.6, -921409.8, -0.009470569, 0.0000006945159, -0.00012672099, -878043.6, -42238.367, 0.0, 10.000002, 9.942948 
1.5750001e+3, 2.2465037e+2, -789757.5, -843144.8, 0.0018429718, 0.0000006916002, 0.00012097543, -789757.5, -51331.26, 0.0, 10.000002, 9.929907 
1.5750001e+3, 2.3458035e+2, -691324.0, -744966.4, -0.008400934, 0.0000006887367, -0.0000887225, -691324.0, -50211.504, 0.0, 10.000002, 9.929576 
1.5750001e+3, 2.445034e+2, -602999.94, -667018.7, -0.00039144792, 0.0000006854359, 0.000074799216, -602999.94, -59133.105, 0.0, 10.000002, 9.916135 
1.5750001e+3, 2.5441962e+2, -504247.3, -568343.25, -0.009468652, 0.00000068161086, -0.00010665815, -504247.3, -57559.773, 0.0, 10.000002, 9.916035 
1.5750001e+3, 2.643288e+2, -416011.9, -490987.84, 0.0018749629, 0.0000006802254, 0.00014066299, -416011.9, -66434.25, 0.0, 10.000002, 9.901963 
1.5750001e+3, 2.742313e+2, -316726.72, -391374.75, -0.0076321545, 0.00000068194583, -0.00020338257, -316726.72, -64193.703, 0.0, 10.000002, 9.902384 
1.5750001e+3, 2.841256e+2, -230253.45, -318081.22, 0.0013443867, 0.000000679874, 0.00022910045, -230253.45, -74684.484, 0.0, 10.000002, 9.885438 
1.5750001e+3, 2.940121e+2, -130547.336, -217765.0, -0.0077979104, 0.00000067259725, -0.00025329491, -130547.336, -71865.93, 0.0, 10.000002, 9.886216 
1.5750001e+3, 3.0392656e+2, -40803.344, -84750.16, 0.0012335053, 0.00000067046665, 0.00017317459, -40803.344, -40803.344, 0.0, 10.000002, 9.942172 
1.5750001e+3, 3.138706e+2, -39725.336, -82511.21, -0.0061747404, 0.0000006760193, -0.000055118562, -39725.336, -39725.336, 0.0, 10.000002, 9.943683 
1.5850002e+3, 1.24993354e+2, -1719943.5, -1724224.5, 0.009128234, 0.00000075693737, 0.000017768654, -1719943.5, -4878.3623, 0.0, 10.000002, 9.994326 
1.5850002e+3, 1.3498761e+2, -1622563.0, -1627434.6, -0.005547569, 0.0000007461591, -0.00006811908, -1622563.0, -5441.6045, 0.0, 10.000002, 9.993544 
1.5850002e+3, 1.4497514e+2, -1534461.6, -1548146.1, 0.006009158, 0.0000007391481, 0.0000710055, -1534461.6, -15218.12, 0.0, 10.000002, 9.981863 
1.5850002e+3, 1.5495703e+2, -1436734.0, -1450821.8, -0.0039686244, 0.000000735891, -0.00005681263, -1436734.0, -15312.96, 0.0, 10.000002, 9.981332 
1.5850002e+3, 1.6493228e+2, -1348683.0, -1371952.1, 0.005527039, 0.00000073249, 0.000047530815, -1348683.0, -25019.445, 0.0, 10.000002, 9.969247 
1.5850002e+3, 1.7490156e+2, -1250725.0, -1274310.0, -0.0062846327, 0.00000072894005, -0.00007368212, -1250725.0, -24760.447, 0.0, 10.000002, 9.968833 
1.5850002e+3, 1.8486422e+2, -1162644.1, -1195719.9, 0.0051433463, 0.0000007246032, 0.00006627599, -1162644.1, -34313.504, 0.0, 10.000002, 9.956394 
1.5850002e+3, 1.9482066e+2, -1064494.4, -1097832.9, -0.005708631, 0.0000007194424, -0.00005751972, -1064494.4, -33736.855, 0.0, 10.000002, 9.956051 
1.5850002e+3, 2.0477043e+2, -976330.44, -1019434.9, 0.0030345104, 0.00000071571765, 0.000068208006, -976330.44, -43080.6, 0.0, 10.000002, 9.94329 
1.5850002e+3, 2.1471375e+2, -878043.44, -921409.75, -0.008043097, 0.0000007135487, -0.00012671792, -878043.44, -42238.203, 0.0, 10.000002, 9.942948 
1.5850002e+3, 2.2465037e+2, -789757.3, -843144.75, 0.0031851162, 0.00000071071315, 0.00012097824, -789757.3, -51331.098, 0.0, 10.000002, 9.929907 
1.5850002e+3, 2.3458035e+2, -691323.9, -744966.3, -0.0065987385, 0.00000070712326, -0.00008871979, -691323.9, -50211.348, 0.0, 10.000002, 9.929576 
1.5850002e+3, 2.445034e+2, -602999.8, -667018.7, 0.001955751, 0.0000007036764, 0.00007480177, -602999.8, -59132.95, 0.0, 10.000002, 9.916135 
1.5850002e+3, 2.5441962e+2, -504247.16, -568343.2, -0.008568286, 0.00000070039977, -0.000106655854, -504247.16, -57559.617, 0.0, 10.000002, 9.916035 
1.5850002e+3, 2.643288e+2, -416011.75, -490987.78, 0.0023650667, 0.0000006990674, 0.00014066506, -416011.75, -66434.09, 0.0, 10.000002, 9.901963 
1.5850002e+3, 2.742313e+2, -316726.56, -391374.7, -0.006610952, 0.0000007002098, -0.00020338068, -316726.56, -64193.55, 0.0, 10.000002, 9.902384 
1.5850002e+3, 2.841256e+2, -230253.31, -318081.2, 0.0037376897, 0.0000006979616, 0.00022910218, -230253.31, -74684.33, 0.0, 10.000002, 9.885438 
1.5850002e+3, 2.940121e+2, -130547.19, -217764.95, -0.00457009, 0.00000069106113, -0.00025329328, -130547.19, -71865.77, 0.0, 10.000002, 9.886216 
1.5850002e+3, 3.0392656e+2, -40803.195, -84750.12, 0.004776383, 0.0000006889988, 0.00017317603, -40803.195, -40803.195, 0.0, 10.000002, 9.942172 
1.5850002e+3, 3.138706e+2, -39725.184, -82511.164, -0.0040328265, 0.0000006941577, -0.000055117456, -39725.184, -39725.184, 0.0, 10.000002, 9.943683 
1.5950002e+3, 1.24993354e+2, -1719943.5, -1724224.5, 0.0022578032, 0.00000078025465, 0.00001777685, -1719943.5, -4878.401, 0.0, 10.000002, 9.994326 
1.5950002e+3, 1.3498761e+2, -1622563.1, -1627434.8, -0.012416304, 0.000000764068, -0.00006811434, -1622563.1, -5441.6426, 0.0, 10.000002, 9.993544 
1.5950002e+3, 1.4497514e+2, -1534461.6, -1548146.1, 0.0010755144, 0.0000007560042, 0.00007100355, -1534461.6, -15218.146, 0.0, 10.000002, 9.981863 
1.5950002e+3, 1.5495703e+2, -1436734.0, -1450821.9, -0.008900303, 0.0000007560722, -0.000056808527, -1436734.0, -15312.986, 0.0, 10.000002, 9.981332 
1.5950002e+3, 1.6493228e+2, -1348683.1, -1371952.3, 0.0005620127, 0.00000075344434, 0.000047538124, -1348683.1, -25019.477, 0.0, 10.000002, 9.969247 
1.5950002e+3, 1.7490156e+2, -1250725.1, -1274310.0, -0.011251014, 0.00000074805934, -0.00007367453, -1250725.1, -24760.477, 0.0, 10.000002, 9.968833 
1.5950002e+3, 1.8486422e+2, -1162644.1, -1195720.0, 0.00057537225, 0.00000074310776, 0.000066279616, -1162644.1, -34313.53, 0.0, 10.000002, 9.956394 
1.5950002e+3, 1.9482066e+2, -1064494.4, -1097832.9, -0.01027269, 0.00000073861014, -0.000057524507, -1064494.4, -33736.883, 0.0, 10.000002, 9.956051 
1.5950002e+3, 2.0477043e+2, -976330.44, -1019434.94, -0.00011549067, 0.0000007352278, 0.000068206784, -976330.44, -43080.63, 0.0, 10.000002, 9.94329 
1.5950002e+3, 2.1471375e+2, -878043.44, -921409.8, -0.011164495, 0.00000073305165, -0.00012670261, -878043.44, -42238.227, 0.0, 10.000002, 9.942948 
1.5950002e+3, 2.2465037e+2, -789757.4, -843144.75, -0.0008305343, 0.0000007299886, 0.00012099585, -789757.4, -51331.12, 0.0, 10.000002, 9.929907 
1.5950002e+3, 2.3458035e+2, -691323.9, -744966.4, -0.010643974, 0.00000072592155, -0.00008871598, -691323.9, -50211.37, 0.0, 10.000002, 9.929576 
1.5950002e+3, 2.445034e+2, -602999.8, -667018.7, 0.000026380105, 0.0000007223743, 0.00007480023, -602999.8, -59132.973, 0.0, 10.000002, 9.916135 
1.5950002e+3, 2.5441962e+2, -504247.2, -568343.25, -0.010395927, 0.00000071945067, -0.00010665262, -504247.2, -57559.64, 0.0, 10.000002, 9.916035 
1.5950002e+3, 2.643288e+2, -416011.78, -490987.84, 0.000035649966, 0.0000007183062, 0.00014067067, -416011.78, -66434.11, 0.0, 10.000002, 9.901963 
1.5950002e+3, 2.742313e+2, -316726.56, -391374.72, -0.00897347, 0.0000007194251, -0.00020337576, -316726.56, -64193.57, 0.0, 10.000002, 9.902384 
1.5950002e+3, 2.841256e+2, -230253.33, -318081.22, 0.0020239756, 0.0000007167911, 0.00022910562, -230253.33, -74684.35, 0.0, 10.000002, 9.885438 
1.5950002e+3, 2.940121e+2, -130547.2, -217765.0, -0.0062247636, 0.0000007090096, -0.0002532924, -130547.2, -71865.8, 0.0, 10.000002, 9.886216 
1.5950002e+3, 3.0392656e+2, -40803.215, -84750.16, 0.0044919443, 0.0000007070775, 0.00017317467, -40803.215, -40803.215, 0.0, 10.000002, 9.942172 
1.5950002e+3, 3.138706e+2, -39725.203, -82511.21, -0.004155556, 0.00000071387336, -0.00005512049, -39725.203, -39725.203, 0.0, 10.000002, 9.943683 
1.605e+3, 1.24993354e+2, -1719943.4, -1724224.5, 0.00802853, 0.00000079976587, 0.000017782308, -1719943.4, -4878.218, 0.0, 10.000003, 9.994326 
1.605e+3, 1.3498761e+2, -1622562.9, -1627434.6, -0.002477575, 0.00000078551636, -0.00006810576, -1622562.9, -5441.458, 0.0, 10.000003, 9.993544 
1.605e+3, 1.4497514e+2, -1534461.5, -1548146.1, 0.012237563, 0.0000007773638, 0.00007100765, -1534461.5, -15217.963, 0.0, 10.000003, 9.981863 
1.605e+3, 1.5495703e+2, -1436733.9, -1450821.8, -0.0018146461, 0.00000077529614, -0.000056803525, -1436733.9, -15312.809, 0.0, 10.000003, 9.981332 
1.605e+3, 1.6493228e+2, -1348682.9, -1371952.1, 0.0063967947, 0.00000077234915, 0.00004754324, -1348682.9, -25019.3, 0.0, 10.000003, 9.969247 
1.605e+3, 1.7490156e+2, -1250724.9, -1274310.0, -0.005044713, 0.00000076849943, -0.00007367012, -1250724.9, -24760.3, 0.0, 10.000002, 9.968833 
1.605e+3, 1.8486422e+2, -1162644.0, -1195719.9, 0.006792342, 0.00000076376574, 0.00006628363, -1162644.0, -34313.355, 0.0, 10.000002, 9.956394 
1.605e+3, 1.9482066e+2, -1064494.3, -1097832.8, -0.005258618, 0.0000007581069, -0.000057520567, -1064494.3, -33736.707, 0.0, 10.000002, 9.956051 
1.605e+3, 2.0477043e+2, -976330.25, -1019434.9, 0.0051981313, 0.00000075442836, 0.00006821052, -976330.25, -43080.457, 0.0, 10.000002, 9.94329 
1.605e+3, 2.1471375e+2, -878043.3, -921409.75, -0.0054699862, 0.00000075289256, -0.0001266992, -878043.3, -42238.063, 0.0, 10.000002, 9.942948 
1.605e+3, 2.246504e+2, -789757.2, -843144.75, 0.004645401, 0.00000074993824, 0.00012099899, -789757.2, -51330.957, 0.0, 10.000002, 9.929907 
1.605e+3, 2.3458035e+2, -691323.7, -744966.3, -0.0070310812, 0.00000074537803, -0.00008871301, -691323.7, -50211.203, 0.0, 10.000002, 9.929576 
1.605e+3, 2.445034e+2, -602999.6, -667018.7, 0.0034643621, 0.0000007417135, 0.00007480296, -602999.6, -59132.805, 0.0, 10.000002, 9.916135 
1.605e+3, 2.5441962e+2, -504247.0, -568343.2, -0.0066358023, 0.0000007391228, -0.0001066502, -504247.0, -57559.477, 0.0, 10.000002, 9.916035 
1.605e+3, 2.643288e+2, -416011.63, -490987.78, 0.0036816648, 0.0000007379052, 0.0001406729, -416011.63, -66433.95, 0.0, 10.000002, 9.901963 
1.605e+3, 2.742313e+2, -316726.4, -391374.7, -0.006794205, 0.00000073843233, -0.00020337358, -316726.4, -64193.41, 0.0, 10.000002, 9.902384 
1.605e+3, 2.841256e+2, -230253.16, -318081.2, 0.0032025569, 0.00000073577957, 0.00022910758, -230253.16, -74684.19, 0.0, 10.000002, 9.885438 
1.605e+3, 2.940121e+2, -130547.05, -217764.95, -0.007025445, 0.0000007287662, -0.0002532909, -130547.05, -71865.63, 0.0, 10.000002, 9.886216 
1.605e+3, 3.0392656e+2, -40803.055, -84750.11, 0.0029893543, 0.00000072683525, 0.00017317578, -40803.055, -40803.055, 0.0, 10.000002, 9.942172 
1.605e+3, 3.138706e+2, -39725.05, -82511.164, -0.005565609, 0.00000073248657, -0.000055119683, -39725.05, -39725.05, 0.0, 10.000002, 9.943683 
1.615e+3, 1.24993354e+2, -1719943.4, -1724224.5, 0.0015815306, 0.00000081547154, 0.000017785023, -1719943.4, -4878.247, 0.0, 10.000003, 9.994326 
1.615e+3, 1.3498761e+2, -1622562.9, -1627434.8, -0.00892324, 0.0000008105044, -0.000068093315, -1622562.9, -5441.487, 0.0, 10.000003, 9.993544 
1.615e+3, 1.4497514e+2, -1534461.5, -1548146.1, 0.0061045117, 0.00000080322667, 0.0000710178, -1534461.5, -15218.0, 0.0, 10.000003, 9.981863 
1.615e+3, 1.5495703e+2, -1436733.9, -1450821.9, -0.007948438, 0.0000007935627, -0.000056797617, -1436733.9, -15312.844, 0.0, 10.000003, 9.981332 
1.615e+3, 1.6493228e+2, -1348682.9, -1371952.3, 0.0014978189, 0.0000007892043, 0.000047546164, -1348682.9, -25019.33, 0.0, 10.000003, 9.969247 
1.615e+3, 1.7490156e+2, -1250724.9, -1274310.0, -0.009937911, 0.00000079026023, -0.000073668874, -1250724.9, -24760.33, 0.0, 10.000002, 9.968833 
1.615e+3, 1.8486422e+2, -1162644.0, -1195720.0, 0.00226879, 0.0000007865769, 0.00006628805, -1162644.0, -34313.383, 0.0, 10.000002, 9.956394 
1.615e+3, 1.9482066e+2, -1064494.3, -1097832.9, -0.009778638, 0.00000077793254, -0.000057507903, -1064494.3, -33736.74, 0.0, 10.000002, 9.956051 
1.615e+3, 2.0477043e+2, -976330.3, -1019434.9, 0.00072093727, 0.000000773319, 0.00006821922, -976330.3, -43080.484, 0.0, 10.000002, 9.94329 
1.615e+3, 2.1471375e+2, -878043.3, -921409.75, -0.009946958, 0.0000007730712, -0.0001267077, -878043.3, -42238.086, 0.0, 10.000002, 9.942948 
1.615e+3, 2.246504e+2, -789757.2, -843144.75, 0.0019476487, 0.00000077056194, 0.00012098767, -789757.2, -51330.984, 0.0, 10.000002, 9.929907 
1.615e+3, 2.3458035e+2, -691323.75, -744966.4, -0.009670836, 0.0000007654926, -0.00008871088, -691323.75, -50211.227, 0.0, 10.000002, 9.929575 
1.615e+3, 2.445034e+2, -602999.7, -667018.7, 0.0001094403, 0.00000076169374, 0.00007480996, -602999.7, -59132.83, 0.0, 10.000002, 9.916135 
1.615e+3, 2.5441962e+2, -504247.03, -568343.25, -0.010024944, 0.0000007594162, -0.0001066486, -504247.03, -57559.5, 0.0, 10.000002, 9.916035 
1.615e+3, 2.643288e+2, -416011.63, -490987.84, 0.0015151702, 0.0000007578643, 0.00014067173, -416011.63, -66433.98, 0.0, 10.000002, 9.901963 
1.615e+3, 2.742313e+2, -316726.44, -391374.72, -0.008878572, 0.00000075723125, -0.00020337413, -316726.44, -64193.434, 0.0, 10.000002, 9.902384 
1.615e+3, 2.841256e+2, -230253.19, -318081.22, 0.0018958725, 0.00000075492693, 0.00022910807, -230253.19, -74684.21, 0.0, 10.000002, 9.885438 
1.615e+3, 2.940121e+2, -130547.07, -217765.0, -0.008261578, 0.00000075033097, -0.00025328874, -130547.07, -71865.66, 0.0, 10.000002, 9.886216 
1.615e+3, 3.0392656e+2, -40803.074, -84750.16, 0.0013856523, 0.00000074827193, 0.00017317936, -40803.074, -40803.074, 0.0, 10.000002, 9.942172 
1.615e+3, 3.138706e+2, -39725.07, -82511.21, -0.007211723, 0.0000007499971, -0.000055115037, -39725.07, -39725.07, 0.0, 10.000002, 9.943683 
1.6250001e+3, 1.2499336e+2, -1719943.1, -1724224.4, 0.009771063, 0.00000083615373, 0.000017790655, -1719943.1, -4878.0557, 0.0, 10.000003, 9.994326 
1.6250001e+3, 1.3498761e+2, -1622562.8, -1627434.6, -0.005520148, 0.0000008322212, -0.00006808692, -1622562.8, -5441.2935, 0.0, 10.000003, 9.993544 
1.6250001e+3, 1.4497514e+2, -1534461.4, -1548146.1, 0.0077015227, 0.00000082527254, 0.00007102159, -1534461.4, -15217.807, 0.0, 10.000003, 9.981863 
1.6250001e+3, 1.5495703e+2, -1436733.6, -1450821.8, -0.0041898997, 0.0000008152155, -0.000056792593, -1436733.6, -15312.656, 0.0, 10.000003, 9.981332 
1.6250001e+3, 1.6493228e+2, -1348682.8, -1371952.1, 0.0072434386, 0.0000008104064, 0.00004755128, -1348682.8, -25019.143, 0.0, 10.000003, 9.969247 
1.6250001e+3, 1.7490156e+2, -1250724.8, -1274310.0, -0.0059194434, 0.0000008109538, -0.000073664836, -1250724.8, -24760.143, 0.0, 10.000003, 9.968833 
1.6250001e+3, 1.8486422e+2, -1162643.8, -1195719.9, 0.0052769952, 0.0000008071191, 0.00006629171, -1162643.8, -34313.2, 0.0, 10.000003, 9.956394 
1.6250001e+3, 1.9482066e+2, -1064494.1, -1097832.8, -0.006505838, 0.0000007986966, -0.000057503883, -1064494.1, -33736.56, 0.0, 10.000003, 9.956051 
1.6250001e+3, 2.0477043e+2, -976330.1, -1019434.9, 0.0044239177, 0.0000007942231, 0.0000682231, -976330.1, -43080.305, 0.0, 10.000003, 9.943289 
1.6250001e+3, 2.1471375e+2, -878043.1, -921409.75, -0.008413429, 0.0000007940273, -0.0001267045, -878043.1, -42237.902, 0.0, 10.000003, 9.942948 
1.6250001e+3, 2.246504e+2, -789757.0, -843144.75, 0.0027741825, 0.0000007913118, 0.00012099056, -789757.0, -51330.8, 0.0, 10.000003, 9.929907 
1.6250001e+3, 2.3458035e+2, -691323.56, -744966.3, -0.007857242, 0.00000078574317, -0.000088707915, -691323.56, -50211.055, 0.0, 10.000003, 9.929575 
1.6250001e+3, 2.445034e+2, -602999.5, -667018.7, 0.002974226, 0.000000781861, 0.00007481282, -602999.5, -59132.656, 0.0, 10.000003, 9.916135 
1.6250001e+3, 2.5441962e+2, -504246.84, -568343.2, -0.008392644, 0.00000077999584, -0.000106646075, -504246.84, -57559.324, 0.0, 10.000003, 9.916035 
1.6250001e+3, 2.643288e+2, -416011.47, -490987.78, 0.0027130616, 0.00000077849853, 0.00014067399, -416011.47, -66433.8, 0.0, 10.000003, 9.901963 
1.6250001e+3, 2.742313e+2, -316726.25, -391374.7, -0.0075619263, 0.00000077746347, -0.00020337207, -316726.25, -64193.258, 0.0, 10.000003, 9.902384 
1.6250001e+3, 2.841256e+2, -230253.02, -318081.2, 0.004268819, 0.0000007750001, 0.00022911001, -230253.02, -74684.04, 0.0, 10.000003, 9.885437 
1.6250001e+3, 2.940121e+2, -130546.9, -217764.95, -0.0049881605, 0.00000077058013, -0.00025328688, -130546.9, -71865.49, 0.0, 10.000003, 9.886216 
1.6250001e+3, 3.0392656e+2, -40802.91, -84750.11, 0.005536196, 0.00000076859243, 0.00017318099, -40802.91, -40802.91, 0.0, 10.000003, 9.942172 
1.6250001e+3, 3.138706e+2, -39724.9, -82511.164, -0.003913777, 0.0000007702311, -0.00005511391, -39724.9, -39724.9, 0.0, 10.000003, 9.943683 
1.6350001e+3, 1.2499336e+2, -1719943.1, -1724224.5, 0.004035923, 0.0000008618121, 0.000017799199, -1719943.1, -4878.096, 0.0, 10.000003, 9.994326 
1.6350001e+3, 1.3498761e+2, -1622562.8, -1627434.8, -0.01125404, 0.0000008506669, -0.000068086556, -1622562.8, -5441.333, 0.0, 10.000003, 9.993544 
1.6350001e+3, 1.4497516e+2, -1534461.4, -1548146.1, 0.00065623684, 0.00000084350154, 0.000071019014, -1534461.4, -15217.839, 0.0, 10.000003, 9.981863 
1.6350001e+3, 1.5495703e+2, -1436733.8, -1450821.8, -0.011238154, 0.0000008402543, -0.000056788453, -1436733.8, -15312.6875, 0.0, 10.000003, 9.981332 
1.6350001e+3, 1.6493228e+2, -1348682.8, -1371952.3, 0.0024134412, 0.0000008359553, 0.000047558584, -1348682.8, -25019.176, 0.0, 10.000003, 9.969247 
1.6350001e+3, 1.7490156e+2, -1250724.8, -1274310.0, -0.010738294, 0.00000083058023, -0.000073658, -1250724.8, -24760.176, 0.0, 10.000003, 9.968833 
1.6350001e+3, 1.8486422e+2, -1162643.8, -1195720.0, -0.00045918243, 0.0000008253921, 0.00006629463, -1162643.8, -34313.23, 0.0, 10.000003, 9.956394 
1.6350001e+3, 1.9482066e+2, -1064494.1, -1097832.9, -0.012253346, 0.000000820399, -0.000057508507, -1064494.1, -33736.586, 0.0, 10.000003, 9.956051 
1.6350001e+3, 2.0477043e+2, -976330.1, -1019434.9, 0.0012806671, 0.00000081714063, 0.00006822216, -976330.1, -43080.336, 0.0, 10.000003, 9.943289 
1.6350001e+3, 2.1471375e+2, -878043.1, -921409.75, -0.011503218, 0.00000081576076, -0.00012668959, -878043.1, -42237.934, 0.0, 10.000003, 9.942948 
1.6350001e+3, 2.246504e+2, -789757.06, -843144.75, -0.002123806, 0.0000008121876, 0.00012100765, -789757.06, -51330.83, 0.0, 10.000003, 9.929907 
1.6350001e+3, 2.3458035e+2, -691323.56, -744966.4, -0.012814737, 0.0000008061298, -0.00008870411, -691323.56, -50211.082, 0.0, 10.000003, 9.929575 
1.6350001e+3, 2.445034e+2, -602999.56, -667018.7, 0.0008944764, 0.000000802215, 0.00007481154, -602999.56, -59132.684, 0.0, 10.000003, 9.916135 
1.6350001e+3, 2.5441962e+2, -504246.88, -568343.25, -0.010334269, 0.00000080086164, -0.00010664263, -504246.88, -57559.35, 0.0, 10.000003, 9.916035 
1.6350001e+3, 2.643288e+2, -416011.5, -490987.8, 0.0000096888125, 0.00000079980776, 0.00014067967, -416011.5, -66433.82, 0.0, 10.000003, 9.901963 
1.6350001e+3, 2.742313e+2, -316726.28, -391374.72, -0.01031628, 0.0000007991289, -0.00020336738, -316726.28, -64193.28, 0.0, 10.000003, 9.902384 
1.6350001e+3, 2.841256e+2, -230253.03, -318081.22, 0.0019875716, 0.0000007959991, 0.00022911336, -230253.03, -74684.06, 0.0, 10.000003, 9.885437 
1.6350001e+3, 2.940121e+2, -130546.92, -217765.0, -0.007226386, 0.00000078951376, -0.0002532853, -130546.92, -71865.51, 0.0, 10.000003, 9.886216 
1.6350001e+3, 3.0392656e+2, -40802.934, -84750.16, 0.005293694, 0.0000007877968, 0.00017318066, -40802.934, -40802.934, 0.0, 10.000003, 9.942172 
1.6350001e+3, 3.138706e+2, -39724.92, -82511.21, -0.003921359, 0.0000007931884, -0.000055116303, -39724.92, -39724.92, 0.0, 10.000003, 9.943683 
1.6450001e+3, 1.2499336e+2, -1719943.0, -1724224.4, 0.010461871, 0.0000008841475, 0.000017804305, -1719943.0, -4877.8906, 0.0, 10.000003, 9.994326 
1.6450001e+3, 1.3498761e+2, -1622562.5, -1627434.6, -0.0017463424, 0.0000008730059, -0.00006808116, -1622562.5, -5441.1323, 0.0, 10.000003, 9.993544 
1.6450001e+3, 1.4497516e+2, -1534461.1, -1548146.0, 0.009805513, 0.0000008659823, 0.00007102381, -1534461.1, -15217.639, 0.0, 10.000003, 9.981863 
1.6450001e+3, 1.5495704e+2, -1436733.5, -1450821.8, -0.004847846, 0.0000008630026, -0.00005678359, -1436733.5, -15312.486, 0.0, 10.000003, 9.981332 
1.6450001e+3, 1.6493228e+2, -1348682.5, -1371952.1, 0.008826367, 0.00000085836143, 0.000047563528, -1348682.5, -25018.977, 0.0, 10.000003, 9.969247 
1.6450001e+3, 1.7490156e+2, -1250724.6, -1274310.0, -0.0039959745, 0.00000085202197, -0.000073652955, -1250724.6, -24759.984, 0.0, 10.000003, 9.968833 
1.6450001e+3, 1.8486422e+2, -1162643.6, -1195719.9, 0.0061187423, 0.0000008468672, 0.00006629929, -1162643.6, -34313.04, 0.0, 10.000003, 9.956394 
1.6450001e+3, 1.9482066e+2, -1064493.9, -1097832.8, -0.007335401, 0.0000008429521, -0.000057504727, -1064493.9, -33736.39, 0.0, 10.000003, 9.956051 
1.6450001e+3, 2.0477043e+2, -976329.94, -1019434.8, 0.006868295, 0.00000083950636, 0.000068225694, -976329.94, -43080.14, 0.0, 10.000003, 9.943289 
1.6450001e+3, 2.1471375e+2, -878042.94, -921409.75, -0.0044101514, 0.00000083656806, -0.0001266856, -878042.94, -42237.75, 0.0, 10.000003, 9.942948 
1.6450001e+3, 2.246504e+2, -789756.9, -843144.7, 0.0051204604, 0.0000008328718, 0.00012101163, -789756.9, -51330.645, 0.0, 10.000003, 9.929907 
1.6450001e+3, 2.3458035e+2, -691323.4, -744966.3, -0.008037386, 0.0000008283155, -0.00008870063, -691323.4, -50210.89, 0.0, 10.000003, 9.929575 
1.6450001e+3, 2.445034e+2, -602999.3, -667018.6, 0.004929296, 0.0000008247145, 0.00007481451, -602999.3, -59132.492, 0.0, 10.000003, 9.916135 
1.6450001e+3, 2.5441962e+2, -504246.7, -568343.2, -0.0064571383, 0.0000008222545, -0.00010664016, -504246.7, -57559.168, 0.0, 10.000003, 9.916035 
1.6450001e+3, 2.643288e+2, -416011.3, -490987.78, 0.0039513847, 0.0000008205822, 0.0001406819, -416011.3, -66433.65, 0.0, 10.000003, 9.901963 
1.6450001e+3, 2.742313e+2, -316726.1, -391374.7, -0.0073693567, 0.00000081991, -0.000203365, -316726.1, -64193.1, 0.0, 10.000003, 9.902384 
1.6450001e+3, 2.841256e+2, -230252.86, -318081.16, 0.0038915782, 0.0000008171947, 0.00022911557, -230252.86, -74683.88, 0.0, 10.000003, 9.885437 
1.6450001e+3, 2.940121e+2, -130546.74, -217764.95, -0.0075162896, 0.000000811679, -0.00025328377, -130546.74, -71865.33, 0.0, 10.000003, 9.886216 
1.6450001e+3, 3.0392656e+2, -40802.754, -84750.11, 0.004147834, 0.0000008098422, 0.0001731817, -40802.754, -40802.754, 0.0, 10.000003, 9.942171 
1.6450001e+3, 3.138706e+2, -39724.75, -82511.164, -0.005798503, 0.0000008134918, -0.000055115543, -39724.75, -39724.75, 0.0, 10.000003, 9.943683 
1.6550002e+3, 1.2499336e+2, -1719943.0, -1724224.5, 0.0037035507, 0.0000009031599, 0.000017805967, -1719943.0, -4877.9243, 0.0, 10.000003, 9.994326 
1.6550002e+3, 1.3498761e+2, -1622562.5, -1627434.8, -0.008504109, 0.000000899238, -0.00006807073, -1622562.5, -5441.166, 0.0, 10.000003, 9.993544 
1.6550002e+3, 1.4497516e+2, -1534461.1, -1548146.1, 0.0032251829, 0.0000008927148, 0.00007103597, -1534461.1, -15217.678, 0.0, 10.000003, 9.981863 
1.6550002e+3, 1.5495704e+2, -1436733.5, -1450821.8, -0.011428243, 0.0000008834605, -0.000056778008, -1436733.5, -15312.523, 0.0, 10.000003, 9.981332 
1.6550002e+3, 1.6493228e+2, -1348682.6, -1371952.3, 0.0024833323, 0.00000087762487, 0.00004756611, -1348682.6, -25019.01, 0.0, 10.000003, 9.969247 
1.6550002e+3, 1.7490157e+2, -1250724.6, -1274310.0, -0.010338291, 0.0000008752789, -0.00007364972, -1250724.6, -24760.016, 0.0, 10.000003, 9.968833 
1.6550002e+3, 1.8486422e+2, -1162643.6, -1195720.0, 0.0016007115, 0.0000008715441, 0.00006630569, -1162643.6, -34313.07, 0.0, 10.000003, 9.956394 
1.6550002e+3, 1.9482066e+2, -1064493.9, -1097832.9, -0.011832658, 0.00000086635566, -0.00005749255, -1064493.9, -33736.42, 0.0, 10.000003, 9.956051 
1.6550002e+3, 2.0477043e+2, -976330.0, -1019434.9, 0.0013613903, 0.0000008613202, 0.000068233705, -976330.0, -43080.168, 0.0, 10.000003, 9.943289 
1.6550002e+3, 2.1471375e+2, -878043.0, -921409.75, -0.009938404, 0.00000085644916, -0.00012669254, -878043.0, -42237.777, 0.0, 10.000003, 9.942948 
1.6550002e+3, 2.246504e+2, -789756.9, -843144.75, 0.0023864782, 0.0000008533643, 0.00012100251, -789756.9, -51330.676, 0.0, 10.000003, 9.929907 
1.6550002e+3, 2.3458035e+2, -691323.44, -744966.4, -0.010680305, 0.00000085230016, -0.00008869749, -691323.44, -50210.92, 0.0, 10.000003, 9.929575 
1.6550002e+3, 2.445034e+2, -602999.4, -667018.7, 0.00076316757, 0.00000084935925, 0.00007482172, -602999.4, -59132.52, 0.0, 10.000003, 9.916135 
1.6550002e+3, 2.5441962e+2, -504246.72, -568343.25, -0.01069658, 0.0000008441743, -0.00010663868, -504246.72, -57559.195, 0.0, 10.000003, 9.916035 
1.6550002e+3, 2.643288e+2, -416011.34, -490987.8, 0.0016851317, 0.0000008408219, 0.00014068074, -416011.34, -66433.67, 0.0, 10.000003, 9.901963 
1.6550002e+3, 2.742313e+2, -316726.13, -391374.72, -0.009503231, 0.0000008398067, -0.00020336486, -316726.13, -64193.13, 0.0, 10.000003, 9.902384 
1.6550002e+3, 2.841256e+2, -230252.89, -318081.22, 0.0022530572, 0.0000008385867, 0.00022911665, -230252.89, -74683.91, 0.0, 10.000003, 9.885437 
1.6550002e+3, 2.940121e+2, -130546.766, -217765.0, -0.009109804, 0.0000008370757, -0.0002532822, -130546.766, -71865.35, 0.0, 10.000003, 9.886216 
1.6550002e+3, 3.0392656e+2, -40802.777, -84750.16, 0.0022004193, 0.00000083472855, 0.00017318415, -40802.777, -40802.777, 0.0, 10.000003, 9.942171 
1.6550002e+3, 3.138706e+2, -39724.773, -82511.21, -0.0077869156, 0.00000083114134, -0.000055111628, -39724.773, -39724.773, 0.0, 10.000003, 9.943683 
1.6650002e+3, 1.2499336e+2, -1719942.8, -1724224.4, 0.011826474, 0.0000009285517, 0.000017812403, -1719942.8, -4877.708, 0.0, 10.000003, 9.994326 
1.6650002e+3, 1.3498761e+2, -1622562.4, -1627434.6, -0.004351719, 0.0000009218312, -0.000068066634, -1622562.4, -5440.953, 0.0, 10.000003, 9.993544 
1.6650002e+3, 1.4497516e+2, -1534461.0, -1548146.0, 0.006554002, 0.00000091459225, 0.00007104099, -1534461.0, -15217.467, 0.0, 10.000003, 9.981863 
1.6650002e+3, 1.5495704e+2, -1436733.4, -1450821.8, -0.0063533587, 0.0000009067037, -0.00005677279, -1436733.4, -15312.316, 0.0, 10.000003, 9.981332 
1.6650002e+3, 1.649323e+2, -1348682.4, -1371952.1, 0.008372268, 0.00000090130675, 0.00004757112, -1348682.4, -25018.805, 0.0, 10.000003, 9.969247 
1.6650002e+3, 1.7490157e+2, -1250724.4, -1274310.0, -0.0060736807, 0.00000089845344, -0.00007364534, -1250724.4, -24759.809, 0.0, 10.000003, 9.968833 
1.6650002e+3, 1.8486422e+2, -1162643.4, -1195719.9, 0.006171547, 0.0000008944317, 0.00006630989, -1162643.4, -34312.867, 0.0, 10.000003, 9.956394 
1.6650002e+3, 1.9482066e+2, -1064493.8, -1097832.8, -0.0067450665, 0.00000088918654, -0.000057488065, -1064493.8, -33736.227, 0.0, 10.000003, 9.956051 
1.6650002e+3, 2.0477043e+2, -976329.75, -1019434.8, 0.0056228573, 0.00000088414845, 0.00006823786, -976329.75, -43079.973, 0.0, 10.000003, 9.943289 
1.6650002e+3, 2.1471375e+2, -878042.8, -921409.7, -0.009054218, 0.00000087933324, -0.00012668938, -878042.8, -42237.574, 0.0, 10.000003, 9.942948 
1.6650002e+3, 2.246504e+2, -789756.7, -843144.7, 0.0029830679, 0.00000087609413, 0.00012100521, -789756.7, -51330.473, 0.0, 10.000003, 9.929907 
1.6650002e+3, 2.3458035e+2, -691323.2, -744966.3, -0.008540296, 0.0000008746381, -0.00008869465, -691323.2, -50210.73, 0.0, 10.000003, 9.929575 
1.6650002e+3, 2.445034e+2, -602999.2, -667018.6, 0.0038256603, 0.00000087168894, 0.00007482463, -602999.2, -59132.332, 0.0, 10.000003, 9.916135 
1.6650002e+3, 2.5441962e+2, -504246.53, -568343.2, -0.008641977, 0.0000008669541, -0.000106635795, -504246.53, -57559.0, 0.0, 10.000003, 9.916035 
1.6650002e+3, 2.643288e+2, -416011.13, -490987.78, 0.0036038172, 0.00000086356783, 0.00014068339, -416011.13, -66433.48, 0.0, 10.000003, 9.901963 
1.6650002e+3, 2.742313e+2, -316725.94, -391374.66, -0.008062016, 0.0000008619015, -0.00020336272, -316725.94, -64192.938, 0.0, 10.000003, 9.902384 
1.6650002e+3, 2.841256e+2, -230252.69, -318081.16, 0.004485501, 0.00000086052194, 0.00022911851, -230252.69, -74683.72, 0.0, 10.000003, 9.885437 
1.6650002e+3, 2.940121e+2, -130546.58, -217764.95, -0.0058300807, 0.0000008595265, -0.00025328033, -130546.58, -71865.17, 0.0, 10.000003, 9.886216 
1.6650002e+3, 3.0392656e+2, -40802.594, -84750.11, 0.0065484587, 0.0000008573511, 0.00017318595, -40802.594, -40802.594, 0.0, 10.000003, 9.942171 
1.6650002e+3, 3.138706e+2, -39724.586, -82511.16, -0.0035412763, 0.000000853419, -0.000055110024, -39724.586, -39724.586, 0.0, 10.000003, 9.943683 
1.6750002e+3, 1.2499336e+2, -1719942.8, -1724224.5, 0.0043301075, 0.0000009603225, 0.000017823608, -1719942.8, -4877.7515, 0.0, 10.000003, 9.994326 
1.6750002e+3, 1.3498761e+2, -1622562.4, -1627434.8, -0.011848187, 0.00000094078575, -0.00006806887, -1622562.4, -5440.996, 0.0, 10.000003, 9.993544 
1.6750002e+3, 1.4497516e+2, -1534461.0, -1548146.1, -0.00056525285, 0.00000093161475, 0.00007103887, -1534461.0, -15217.502, 0.0, 10.000003, 9.981863 
1.6750002e+3, 1.5495704e+2, -1436733.4, -1450821.8, -0.01347213, 0.00000093273195, -0.000056767934, -1436733.4, -15312.351, 0.0, 10.000003, 9.981332 
1.6750002e+3, 1.649323e+2, -1348682.4, -1371952.3, 0.0024309275, 0.0000009294068, 0.00004757855, -1348682.4, -25018.842, 0.0, 10.000003, 9.969247 
1.6750002e+3, 1.7490157e+2, -1250724.4, -1274310.0, -0.012009108, 0.00000092154556, -0.000073639814, -1250724.4, -24759.846, 0.0, 10.000003, 9.968833 
1.6750002e+3, 1.8486422e+2, -1162643.5, -1195720.0, 0.00014695895, 0.00000091553, 0.000066311884, -1162643.5, -34312.9, 0.0, 10.000003, 9.956394 
1.6750002e+3, 1.9482066e+2, -1064493.8, -1097832.9, -0.0127710765, 0.00000091144466, -0.000057491274, -1064493.8, -33736.258, 0.0, 10.000003, 9.956051 
1.6750002e+3, 2.0477043e+2, -976329.8, -1019434.9, 0.0016255706, 0.00000090799097, 0.000068238165, -976329.8, -43080.008, 0.0, 10.000003, 9.943289 
1.6750002e+3, 2.1471377e+2, -878042.8, -921409.75, -0.013009922, 0.0000009052203, -0.00012667612, -878042.8, -42237.61, 0.0, 10.000003, 9.942948 
1.6750002e+3, 2.246504e+2, -789756.7, -843144.75, -0.0021874679, 0.00000090106107, 0.00012101973, -789756.7, -51330.5, 0.0, 10.000003, 9.929907 
1.6750002e+3, 2.3458035e+2, -691323.25, -744966.4, -0.013750757, 0.0000008953293, -0.000088692104, -691323.25, -50210.758, 0.0, 10.000003, 9.929575 
1.6750002e+3, 2.445034e+2, -602999.2, -667018.7, 0.0012339115, 0.0000008917034, 0.00007482324, -602999.2, -59132.36, 0.0, 10.000003, 9.916135 
1.6750002e+3, 2.5441962e+2, -504246.56, -568343.25, -0.011107987, 0.0000008905939, -0.000106631494, -504246.56, -57559.03, 0.0, 10.000003, 9.916035 
1.6750002e+3, 2.643288e+2, -416011.16, -490987.8, 0.00048548312, 0.00000088882, 0.00014068987, -416011.16, -66433.5, 0.0, 10.000003, 9.901963 
1.6750002e+3, 2.742313e+2, -316725.97, -391374.72, -0.01122407, 0.00000088619436, -0.00020335855, -316725.97, -64192.965, 0.0, 10.000003, 9.902384 
1.6750002e+3, 2.841256e+2, -230252.72, -318081.22, 0.0021514697, 0.0000008830003, 0.00022912114, -230252.72, -74683.74, 0.0, 10.000003, 9.885437 
1.6750002e+3, 2.940121e+2, -130546.6, -217765.0, -0.008089316, 0.0000008790315, -0.00025327812, -130546.6, -71865.195, 0.0, 10.000003, 9.886216 
1.6750002e+3, 3.0392656e+2, -40802.62, -84750.16, 0.0058610206, 0.00000087770985, 0.00017318713, -40802.62, -40802.62, 0.0, 10.000003, 9.942171 
1.6750002e+3, 3.138706e+2, -39724.61, -82511.21, -0.004043878, 0.0000008803246, -0.000055110733, -39724.61, -39724.61, 0.0, 10.000003, 9.943683 
1.685e+3, 1.2499336e+2, -1719942.6, -1724224.4, 0.0126964515, 0.0000009856425, 0.000017831593, -1719942.6, -4877.52, 0.0, 10.000003, 9.994326 
1.685e+3, 1.3498761e+2, -1622562.1, -1627434.6, -0.0017654732, 0.0000009654007, -0.00006806297, -1622562.1, -5440.7754, 0.0, 10.000003, 9.993544 
1.685e+3, 1.4497516e+2, -1534460.8, -1548146.0, 0.010928778, 0.0000009558487, 0.00007104724, -1534460.8, -15217.283, 0.0, 10.000003, 9.981863 
1.685e+3, 1.5495704e+2, -1436733.1, -1450821.8, -0.004928646, 0.0000009568978, -0.00005676207, -1436733.1, -15312.129, 0.0, 10.000003, 9.981332 
1.685e+3, 1.649323e+2, -1348682.1, -1371952.1, 0.0097728735, 0.00000095359246, 0.00004758339, -1348682.1, -25018.621, 0.0, 10.000003, 9.969247 
1.685e+3, 1.7490157e+2, -1250724.3, -1274310.0, -0.0044961707, 0.000000945841, -0.00007363448, -1250724.3, -24759.63, 0.0, 10.000003, 9.968833 
1.685e+3, 1.8486422e+2, -1162643.3, -1195719.9, 0.0076085837, 0.0000009398534, 0.00006631704, -1162643.3, -34312.684, 0.0, 10.000003, 9.956394 
1.685e+3, 1.9482066e+2, -1064493.5, -1097832.8, -0.007584346, 0.00000093571043, -0.00005748698, -1064493.5, -33736.04, 0.0, 10.000003, 9.956051 
1.685e+3, 2.0477043e+2, -976329.56, -1019434.8, 0.0073930174, 0.0000009319821, 0.00006824226, -976329.56, -43079.793, 0.0, 10.000003, 9.943289 
1.685e+3, 2.1471377e+2, -878042.6, -921409.7, -0.0046469634, 0.00000092870215, -0.00012667151, -878042.6, -42237.402, 0.0, 10.000003, 9.942948 
1.685e+3, 2.246504e+2, -789756.5, -843144.7, 0.0068953666, 0.00000092455576, 0.000121024226, -789756.5, -51330.3, 0.0, 10.000003, 9.929906 
1.685e+3, 2.3458035e+2, -691323.0, -744966.25, -0.007926926, 0.0000009194276, -0.00008868846, -691323.0, -50210.547, 0.0, 10.000003, 9.929575 
1.685e+3, 2.445034e+2, -602999.0, -667018.6, 0.005761077, 0.0000009158306, 0.000074826276, -602999.0, -59132.15, 0.0, 10.000003, 9.916135 
1.685e+3, 2.5441962e+2, -504246.34, -568343.2, -0.0069115483, 0.0000009140629, -0.000106628795, -504246.34, -57558.83, 0.0, 10.000003, 9.916035 
1.685e+3, 2.643288e+2, -416010.97, -490987.75, 0.004777775, 0.00000091192993, 0.00014069237, -416010.97, -66433.305, 0.0, 10.000003, 9.901963 
1.685e+3, 2.742313e+2, -316725.75, -391374.66, -0.0076608937, 0.0000009093275, -0.00020335607, -316725.75, -64192.766, 0.0, 10.000003, 9.902384 
1.685e+3, 2.841256e+2, -230252.52, -318081.16, 0.005052064, 0.00000090646716, 0.00022912335, -230252.52, -74683.54, 0.0, 10.000003, 9.885437 
1.685e+3, 2.940121e+2, -130546.4, -217764.94, -0.0075200624, 0.0000009032549, -0.0002532765, -130546.4, -71864.99, 0.0, 10.000003, 9.886216 
1.685e+3, 3.0392656e+2, -40802.42, -84750.1, 0.004979148, 0.00000090183397, 0.00017318805, -40802.42, -40802.42, 0.0, 10.000003, 9.942171 
1.685e+3, 3.138706e+2, -39724.418, -82511.16, -0.0065062135, 0.0000009030756, -0.000055110766, -39724.418, -39724.418, 0.0, 10.000003, 9.943683 
1.6950001e+3, 1.2499336e+2, -1719942.6, -1724224.5, 0.0028104885, 0.0000010045121, 0.000017836359, -1719942.6, -4877.5596, 0.0, 10.000003, 9.994326 
1.6950001e+3, 1.3498761e+2, -1622562.1, -1627434.8, -0.0116523905, 0.0000009956756, -0.00006804893, -1622562.1, -5440.8145, 0.0, 10.000003, 9.993544 
1.6950001e+3, 1.4497516e+2, -1534460.8, -1548146.1, 0.004621624, 0.0000009872937, 0.0000710661, -1534460.8, -15217.325, 0.0, 10.000003, 9.981863 
1.6950001e+3, 1.5495704e+2, -1436733.1, -1450821.8, -0.0112301605, 0.0000009792012, -0.00005675519, -1436733.1, -15312.17, 0.0, 10.000003, 9.981332 
1.6950001e+3, 1.649323e+2, -1348682.3, -1371952.1, 0.0026429275, 0.000000973864, 0.000047585647, -1348682.3, -25018.658, 0.0, 10.000003, 9.969247 
1.6950001e+3, 1.7490157e+2, -1250724.3, -1274310.0, -0.011630734, 0.0000009713398, -0.00007362934, -1250724.3, -24759.668, 0.0, 10.000003, 9.968833 
1.6950001e+3, 1.8486422e+2, -1162643.3, -1195720.0, 0.0024511297, 0.0000009674019, 0.00006632537, -1162643.3, -34312.723, 0.0, 10.000003, 9.956394 
1.6950001e+3, 1.9482066e+2, -1064493.6, -1097832.9, -0.012719137, 0.0000009619837, -0.000057475183, -1064493.6, -33736.08, 0.0, 10.000003, 9.956051 
1.6950001e+3, 2.0477043e+2, -976329.6, -1019434.9, 0.0012380158, 0.0000009561219, 0.00006825014, -976329.6, -43079.824, 0.0, 10.000003, 9.943289 
1.6950001e+3, 2.1471377e+2, -878042.6, -921409.75, -0.010823294, 0.00000094977895, -0.00012667554, -878042.6, -42237.434, 0.0, 10.000003, 9.942948 
1.6950001e+3, 2.246504e+2, -789756.56, -843144.75, 0.0036343047, 0.0000009465781, 0.00012101869, -789756.56, -51330.332, 0.0, 10.000003, 9.929906 
1.6950001e+3, 2.3458035e+2, -691323.06, -744966.3, -0.011092783, 0.00000094693274, -0.0000886837, -691323.06, -50210.582, 0.0, 10.000003, 9.929575 
1.6950001e+3, 2.445034e+2, -602999.0, -667018.7, 0.0012497692, 0.0000009440703, 0.00007483374, -602999.0, -59132.18, 0.0, 10.000003, 9.916135 
1.6950001e+3, 2.5441962e+2, -504246.38, -568343.25, -0.011487602, 0.0000009373611, -0.0001066277, -504246.38, -57558.86, 0.0, 10.000003, 9.916035 
1.6950001e+3, 2.643288e+2, -416011.0, -490987.8, 0.0020815954, 0.00000093289776, 0.0001406909, -416011.0, -66433.336, 0.0, 10.000003, 9.901963 
1.6950001e+3, 2.742313e+2, -316725.78, -391374.72, -0.010230999, 0.0000009313009, -0.0002033553, -316725.78, -64192.793, 0.0, 10.000003, 9.902384 
1.6950001e+3, 2.841256e+2, -230252.55, -318081.22, 0.0032051527, 0.00000093092217, 0.00022912516, -230252.55, -74683.57, 0.0, 10.000003, 9.885437 
1.6950001e+3, 2.940121e+2, -130546.43, -217765.0, -0.009301657, 0.0000009321963, -0.0002532754, -130546.43, -71865.02, 0.0, 10.000003, 9.886216 
1.6950001e+3, 3.0392656e+2, -40802.45, -84750.16, 0.0029628754, 0.0000009297233, 0.0001731887, -40802.45, -40802.45, 0.0, 10.000003, 9.942171 
1.6950001e+3, 3.138706e+2, -39724.445, -82511.21, -0.008549789, 0.0000009216721, -0.00005511012, -39724.445, -39724.445, 0.0, 10.000003, 9.943683 
1.7050001e+3, 1.2499336e+2, -1719942.4, -1724224.4, 0.01238319, 0.0000010290794, 0.000017844144, -1719942.4, -4877.331, 0.0, 10.000003, 9.994326 
1.7050001e+3, 1.3498761e+2, -1622561.9, -1627434.6, -0.0044281166, 0.0000010221275, -0.000068044705, -1622561.9, -5440.5737, 0.0, 10.000003, 9.993544 
1.7050001e+3, 1.4497516e+2, -1534460.5, -1548146.0, 0.011463508, 0.0000010142197, 0.00007107468, -1534460.5, -15217.084, 0.0, 10.000003, 9.981863 
1.7050001e+3, 1.5495704e+2, -1436732.9, -1450821.8, -0.0043406314, 0.0000010051697, -0.00005674937, -1436732.9, -15311.941, 0.0, 10.000003, 9.981332 
1.7050001e+3, 1.649323e+2, -1348682.0, -1371952.1, 0.009871305, 0.000000999347, 0.00004759018, -1348682.0, -25018.432, 0.0, 10.000003, 9.969247 
1.7050001e+3, 1.7490157e+2, -1250724.0, -1274310.0, -0.006045793, 0.0000009968197, -0.000073624586, -1250724.0, -24759.436, 0.0, 10.000003, 9.968833 
1.7050001e+3, 1.8486422e+2, -1162643.0, -1195719.9, 0.007998643, 0.000000992662, 0.00006633036, -1162643.0, -34312.492, 0.0, 10.000003, 9.956394 
1.7050001e+3, 1.9482066e+2, -1064493.4, -1097832.8, -0.006169383, 0.0000009867973, -0.00005746993, -1064493.4, -33735.86, 0.0, 10.000003, 9.956051 
1.7050001e+3, 2.0477043e+2, -976329.4, -1019434.8, 0.007076459, 0.0000009811328, 0.00006825479, -976329.4, -43079.605, 0.0, 10.000003, 9.943289 
1.7050001e+3, 2.1471377e+2, -878042.4, -921409.7, -0.009679036, 0.0000009756847, -0.00012667243, -878042.4, -42237.207, 0.0, 10.000003, 9.942948 
1.7050001e+3, 2.246504e+2, -789756.3, -843144.7, 0.0038426486, 0.0000009722633, 0.00012102125, -789756.3, -51330.11, 0.0, 10.000003, 9.929906 
1.7050001e+3, 2.3458035e+2, -691322.9, -744966.25, -0.008884811, 0.0000009711349, -0.0000886806, -691322.9, -50210.367, 0.0, 10.000003, 9.929575 
1.7050001e+3, 2.445034e+2, -602998.8, -667018.6, 0.004833042, 0.000000968006, 0.00007483702, -602998.8, -59131.97, 0.0, 10.000003, 9.916135 
1.7050001e+3, 2.5441962e+2, -504246.16, -568343.2, -0.009028652, 0.0000009624847, -0.00010662466, -504246.16, -57558.64, 0.0, 10.000003, 9.916035 
1.7050001e+3, 2.643288e+2, -416010.78, -490987.75, 0.004076833, 0.0000009583882, 0.00014069346, -416010.78, -66433.12, 0.0, 10.000003, 9.901963 
1.7050001e+3, 2.742313e+2, -316725.56, -391374.66, -0.0091459565, 0.0000009561101, -0.00020335348, -316725.56, -64192.58, 0.0, 10.000003, 9.902384 
1.7050001e+3, 2.841256e+2, -230252.33, -318081.16, 0.0050287843, 0.0000009553598, 0.00022912656, -230252.33, -74683.36, 0.0, 10.000003, 9.885437 
1.7050001e+3, 2.940121e+2, -130546.23, -217764.94, -0.0065732156, 0.0000009566919, -0.00025327396, -130546.23, -71864.81, 0.0, 10.000003, 9.886215 
1.7050001e+3, 3.0392656e+2, -40802.242, -84750.1, 0.0068268008, 0.0000009543004, 0.00017319029, -40802.242, -40802.242, 0.0, 10.000003, 9.942171 
1.7050001e+3, 3.138706e+2, -39724.234, -82511.16, -0.0041144793, 0.00000094636226, -0.00005510817, -39724.234, -39724.234, 0.0, 10.000003, 9.943683 
1.7150001e+3, 1.2499336e+2, -1719942.4, -1724224.5, 0.0055633206, 0.000001059344, 0.000017854947, -1719942.4, -4877.377, 0.0, 10.000003, 9.994326 
1.7150001e+3, 1.3498761e+2, -1622562.0, -1627434.6, -0.011248412, 0.0000010447569, -0.00006805028, -1622562.0, -5440.6187, 0.0, 10.000003, 9.993544 
1.7150001e+3, 1.4497516e+2, -1534460.6, -1548146.1, 0.0025443, 0.000001036627, 0.000071072995, -1534460.6, -15217.126, 0.0, 10.000003, 9.981863 
1.7150001e+3, 1.5495704e+2, -1436733.0, -1450821.8, -0.013263224, 0.0000010348028, -0.000056744604, -1436733.0, -15311.982, 0.0, 10.000003, 9.981332 
1.7150001e+3, 1.649323e+2, -1348682.0, -1371952.1, 0.003971592, 0.0000010300414, 0.000047596994, -1348682.0, -25018.473, 0.0, 10.000003, 9.969247 
1.7150001e+3, 1.7490157e+2, -1250724.0, -1274310.0, -0.011929704, 0.0000010222809, -0.00007362022, -1250724.0, -24759.477, 0.0, 10.000003, 9.968833 
1.7150001e+3, 1.8486422e+2, -1162643.1, -1195719.9, 0.0007186357, 0.000001015634, 0.000066332024, -1162643.1, -34312.53, 0.0, 10.000003, 9.956394 
1.7150001e+3, 1.9482066e+2, -1064493.4, -1097832.9, -0.013465765, 0.0000010101512, -0.000057471218, -1064493.4, -33735.895, 0.0, 10.000003, 9.956051 
1.7150001e+3, 2.0477043e+2, -976329.44, -1019434.9, 0.0027983168, 0.0000010070149, 0.00006825622, -976329.44, -43079.645, 0.0, 10.000003, 9.943289 
1.7150001e+3, 2.1471377e+2, -878042.44, -921409.75, -0.013894997, 0.0000010064191, -0.00012666215, -878042.44, -42237.246, 0.0, 10.000003, 9.942948 
1.7150001e+3, 2.246504e+2, -789756.3, -843144.75, -0.0020286834, 0.0000010016113, 0.000121031895, -789756.3, -51330.14, 0.0, 10.000003, 9.929906 
1.7150001e+3, 2.3458035e+2, -691322.9, -744966.3, -0.014810482, 0.0000009920343, -0.00008867916, -691322.9, -50210.4, 0.0, 10.000003, 9.929575 
1.7150001e+3, 2.445034e+2, -602998.8, -667018.7, 0.0018632376, 0.0000009876378, 0.00007483612, -602998.8, -59132.004, 0.0, 10.000003, 9.916135 
1.7150001e+3, 2.5441962e+2, -504246.2, -568343.25, -0.011856466, 0.0000009894335, -0.00010661969, -504246.2, -57558.67, 0.0, 10.000003, 9.916035 
1.7150001e+3, 2.643288e+2, -416010.8, -490987.8, 0.00055210857, 0.0000009884013, 0.00014070007, -416010.8, -66433.15, 0.0, 10.000003, 9.901963 
1.7150001e+3, 2.742313e+2, -316725.6, -391374.72, -0.012717439, 0.0000009837547, -0.00020335063, -316725.6, -64192.61, 0.0, 10.000003, 9.902383 
1.7150001e+3, 2.841256e+2, -230252.36, -318081.22, 0.002589188, 0.0000009797802, 0.00022912755, -230252.36, -74683.39, 0.0, 10.000003, 9.885437 
1.7150001e+3, 2.940121e+2, -130546.25, -217765.0, -0.008910735, 0.0000009767418, -0.0002532722, -130546.25, -71864.84, 0.0, 10.000003, 9.886215 
1.7150001e+3, 3.0392656e+2, -40802.27, -84750.16, 0.0057083354, 0.0000009755654, 0.00017319282, -40802.27, -40802.27, 0.0, 10.000003, 9.942171 
1.7150001e+3, 3.138706e+2, -39724.26, -82511.21, -0.0050897575, 0.0000009771459, -0.00005510491, -39724.26, -39724.26, 0.0, 10.000003, 9.943683 
1.7250001e+3, 1.2499336e+2, -1719942.1, -1724224.4, 0.013568203, 0.000001086843, 0.000017862476, -1719942.1, -4877.1226, 0.0, 10.000004, 9.994326 
1.7250001e+3, 1.3498762e+2, -1622561.8, -1627434.6, -0.003096665, 0.0000010712063, -0.00006804846, -1622561.8, -5440.376, 0.0, 10.000004, 9.993544 
1.7250001e+3, 1.4497516e+2, -1534460.4, -1548146.0, 0.010478247, 0.0000010632108, 0.00007108097, -1534460.4, -15216.885, 0.0, 10.000004, 9.981863 
1.7250001e+3, 1.5495704e+2, -1436732.8, -1450821.6, -0.0062152776, 0.0000010627006, -0.00005673912, -1436732.8, -15311.733, 0.0, 10.000004, 9.981332 
1.7250001e+3, 1.649323e+2, -1348681.8, -1371952.1, 0.011200477, 0.000001057643, 0.000047601767, -1348681.8, -25018.225, 0.0, 10.000003, 9.969247 
1.7250001e+3, 1.7490157e+2, -1250723.8, -1274309.9, -0.0047491645, 0.0000010479424, -0.000073614334, -1250723.8, -24759.24, 0.0, 10.000003, 9.968833 
1.7250001e+3, 1.8486422e+2, -1162642.9, -1195719.9, 0.0076886616, 0.0000010412483, 0.000066337605, -1162642.9, -34312.297, 0.0, 10.000003, 9.956393 
1.7250001e+3, 1.9482066e+2, -1064493.1, -1097832.8, -0.008956215, 0.000001037699, -0.00005746744, -1064493.1, -33735.652, 0.0, 10.000003, 9.956051 
1.7250001e+3, 2.0477043e+2, -976329.2, -1019434.8, 0.008580768, 0.000001034494, 0.000068259775, -976329.2, -43079.406, 0.0, 10.000003, 9.943289 
1.7250001e+3, 2.1471377e+2, -878042.2, -921409.7, -0.004576557, 0.0000010316608, -0.0001266571, -878042.2, -42237.02, 0.0, 10.000003, 9.942948 
1.7250001e+3, 2.246504e+2, -789756.1, -843144.7, 0.007846184, 0.00000102659, 0.00012103723, -789756.1, -51329.914, 0.0, 10.000003, 9.929906 
1.7250001e+3, 2.3458035e+2, -691322.6, -744966.25, -0.008766214, 0.0000010189862, -0.00008867492, -691322.6, -50210.164, 0.0, 10.000003, 9.929575 
1.7250001e+3, 2.445034e+2, -602998.6, -667018.6, 0.006798916, 0.0000010149563, 0.000074839416, -602998.6, -59131.77, 0.0, 10.000003, 9.916135 
1.7250001e+3, 2.5441962e+2, -504245.97, -568343.1, -0.0072206096, 0.0000010151973, -0.00010661717, -504245.97, -57558.45, 0.0, 10.000003, 9.916035 
1.7250001e+3, 2.643288e+2, -416010.56, -490987.75, 0.0053475425, 0.000001013604, 0.0001407024, -416010.56, -66432.92, 0.0, 10.000003, 9.901963 
1.7250001e+3, 2.742313e+2, -316725.38, -391374.66, -0.008486949, 0.0000010096652, -0.00020334778, -316725.38, -64192.387, 0.0, 10.000003, 9.902383 
1.7250001e+3, 2.841256e+2, -230252.14, -318081.16, 0.0061273915, 0.0000010060702, 0.00022913041, -230252.14, -74683.164, 0.0, 10.000003, 9.885437 
1.7250001e+3, 2.940121e+2, -130546.03, -217764.94, -0.007753927, 0.000001002956, -0.00025327006, -130546.03, -71864.62, 0.0, 10.000003, 9.886215 
1.7250001e+3, 3.0392656e+2, -40802.05, -84750.09, 0.005471101, 0.0000010014638, 0.00017319404, -40802.05, -40802.05, 0.0, 10.000003, 9.942171 
1.7250001e+3, 3.138706e+2, -39724.047, -82511.15, -0.0073735663, 0.0000010023768, -0.000055104876, -39724.047, -39724.047, 0.0, 10.000003, 9.943683 
1.7350002e+3, 1.2499336e+2, -1719942.1, -1724224.4, 0.004278297, 0.0000011115767, 0.000017866729, -1719942.1, -4877.1685, 0.0, 10.000004, 9.994326 
1.7350002e+3, 1.3498762e+2, -1622561.8, -1627434.6, -0.012387578, 0.0000011014757, -0.00006803925, -1622561.8, -5440.421, 0.0, 10.000004, 9.993543 
1.7350002e+3, 1.4497516e+2, -1534460.4, -1548146.0, 0.0035138393, 0.0000010939707, 0.000071098606, -1534460.4, -15216.929, 0.0, 10.000004, 9.981863 
1.7350002e+3, 1.5495704e+2, -1436732.8, -1450821.8, -0.013176082, 0.0000010888629, -0.000056732923, -1436732.8, -15311.777, 0.0, 10.000004, 9.981331 
1.7350002e+3, 1.649323e+2, -1348681.8, -1371952.1, 0.0024574324, 0.000001082152, 0.0000476045, -1348681.8, -25018.266, 0.0, 10.000003, 9.969247 
1.7350002e+3, 1.7490157e+2, -1250723.9, -1274310.0, -0.013501771, 0.0000010738044, -0.00007360693, -1250723.9, -24759.281, 0.0, 10.000003, 9.968833 
1.7350002e+3, 1.8486422e+2, -1162642.9, -1195719.9, 0.0023088036, 0.000001069505, 0.00006634709, -1162642.9, -34312.34, 0.0, 10.000003, 9.956393 
1.7350002e+3, 1.9482066e+2, -1064493.1, -1097832.8, -0.014297166, 0.0000010694406, -0.000057458594, -1064493.1, -33735.695, 0.0, 10.000003, 9.956051 
1.7350002e+3, 2.0477043e+2, -976329.2, -1019434.9, 0.0019124008, 0.0000010635698, 0.000068265465, -976329.2, -43079.438, 0.0, 10.000003, 9.943289 
1.7350002e+3, 2.1471377e+2, -878042.25, -921409.75, -0.011272559, 0.0000010514096, -0.00012665728, -878042.25, -42237.05, 0.0, 10.000003, 9.942948 
1.7350002e+3, 2.246504e+2, -789756.1, -843144.75, 0.0037021968, 0.0000010471996, 0.000121037236, -789756.1, -51329.953, 0.0, 10.000003, 9.929906 
1.7350002e+3, 2.3458035e+2, -691322.7, -744966.3, -0.0128267715, 0.00000105199, -0.00008866786, -691322.7, -50210.203, 0.0, 10.000003, 9.929575 
1.7350002e+3, 2.445034e+2, -602998.6, -667018.7, 0.0020300015, 0.000001049961, 0.000074846925, -602998.6, -59131.805, 0.0, 10.000003, 9.916135 
1.7350002e+3, 2.5441962e+2, -504246.0, -568343.2, -0.0120236585, 0.0000010397762, -0.00010661709, -504246.0, -57558.48, 0.0, 10.000003, 9.916035 
1.7350002e+3, 2.643288e+2, -416010.6, -490987.8, 0.0024377767, 0.0000010339966, 0.00014070043, -416010.6, -66432.96, 0.0, 10.000003, 9.901963 
1.7350002e+3, 2.742313e+2, -316725.4, -391374.72, -0.011269821, 0.0000010338416, -0.00020334491, -316725.4, -64192.418, 0.0, 10.000003, 9.902383 
1.7350002e+3, 2.841256e+2, -230252.17, -318081.22, 0.0035392344, 0.0000010342297, 0.00022913514, -230252.17, -74683.195, 0.0, 10.000003, 9.885437 
1.7350002e+3, 2.940121e+2, -130546.06, -217765.0, -0.010324496, 0.000001035334, -0.00025326756, -130546.06, -71864.65, 0.0, 10.000003, 9.886215 
1.7350002e+3, 3.0392656e+2, -40802.082, -84750.16, 0.0036061304, 0.0000010319952, 0.00017319397, -40802.082, -40802.082, 0.0, 10.000003, 9.942171 
1.7350002e+3, 3.138706e+2, -39724.08, -82511.21, -0.009155708, 0.0000010220552, -0.000055108067, -39724.08, -39724.08, 0.0, 10.000003, 9.943683 
1.7450002e+3, 1.2499337e+2, -1719941.9, -1724224.4, 0.013431814, 0.0000011412463, 0.00001787464, -1719941.9, -4876.9087, 0.0, 10.000004, 9.994326 
1.7450002e+3, 1.3498762e+2, -1622561.5, -1627434.6, -0.00477165, 0.0000011296142, -0.00006803796, -1622561.5, -5440.156, 0.0, 10.000004, 9.993543 
1.7450002e+3, 1.4497516e+2, -1534460.1, -1548146.0, 0.010637205, 0.0000011213525, 0.00007110791, -1534460.1, -15216.666, 0.0, 10.000004, 9.981863 
1.7450002e+3, 1.5495704e+2, -1436732.5, -1450821.6, -0.0060897553, 0.000001116256, -0.00005672691, -1436732.5, -15311.526, 0.0, 10.000004, 9.981331 
1.7450002e+3, 1.649323e+2, -1348681.5, -1371952.1, 0.009498691, 0.0000011098147, 0.000047608988, -1348681.5, -25018.018, 0.0, 10.000004, 9.969247 
1.7450002e+3, 1.7490157e+2, -1250723.5, -1274309.9, -0.0075488356, 0.0000011019999, -0.000073602154, -1250723.5, -24759.027, 0.0, 10.000004, 9.968833 
1.7450002e+3, 1.8486422e+2, -1162642.6, -1195719.9, 0.009680953, 0.0000010976833, 0.0000663522, -1162642.6, -34312.082, 0.0, 10.000004, 9.956393 
1.7450002e+3, 1.9482066e+2, -1064492.9, -1097832.8, -0.0062689083, 0.0000010970261, -0.000057453093, -1064492.9, -33735.445, 0.0, 10.000004, 9.956051 
1.7450002e+3, 2.0477043e+2, -976329.0, -1019434.75, 0.007573526, 0.0000010909623, 0.00006827042, -976329.0, -43079.195, 0.0, 10.000004, 9.943289 
1.7450002e+3, 2.1471377e+2, -878042.0, -921409.7, -0.01078463, 0.0000010790422, -0.0001266539, -878042.0, -42236.81, 0.0, 10.000004, 9.942947 
1.7450002e+3, 2.246504e+2, -789755.9, -843144.7, 0.004696887, 0.0000010748093, 0.000121039884, -789755.9, -51329.707, 0.0, 10.000004, 9.929906 
1.7450002e+3, 2.3458035e+2, -691322.44, -744966.25, -0.00907743, 0.0000010792792, -0.000088665, -691322.44, -50209.965, 0.0, 10.000004, 9.929575 
1.7450002e+3, 2.445034e+2, -602998.4, -667018.6, 0.006172561, 0.0000010771745, 0.00007485007, -602998.4, -59131.566, 0.0, 10.000004, 9.916135 
1.7450002e+3, 2.5441962e+2, -504245.75, -568343.1, -0.009693325, 0.0000010672073, -0.00010661359, -504245.75, -57558.242, 0.0, 10.000004, 9.916035 
1.7450002e+3, 2.643288e+2, -416010.38, -490987.75, 0.005058958, 0.0000010614161, 0.00014070368, -416010.38, -66432.72, 0.0, 10.000004, 9.901963 
1.7450002e+3, 2.742313e+2, -316725.16, -391374.66, -0.009190909, 0.0000010609572, -0.00020334269, -316725.16, -64192.184, 0.0, 10.000004, 9.902383 
1.7450002e+3, 2.841256e+2, -230251.94, -318081.16, 0.005938578, 0.0000010612198, 0.00022913684, -230251.94, -74682.97, 0.0, 10.000004, 9.885437 
1.7450002e+3, 2.940121e+2, -130545.83, -217764.92, -0.0072819274, 0.000001062444, -0.0002532657, -130545.83, -71864.414, 0.0, 10.000004, 9.886215 
1.7450002e+3, 3.0392656e+2, -40801.85, -84750.09, 0.0077262097, 0.0000010590936, 0.00017319604, -40801.85, -40801.85, 0.0, 10.000003, 9.942171 
1.7450002e+3, 3.138706e+2, -39723.848, -82511.15, -0.0045505636, 0.0000010489455, -0.000055105655, -39723.848, -39723.848, 0.0, 10.000003, 9.943683 
1.755e+3, 1.2499337e+2, -1719942.0, -1724224.4, 0.0055330982, 0.0000011758516, 0.000017886212, -1719942.0, -4876.9585, 0.0, 10.000004, 9.994326 
1.755e+3, 1.3498762e+2, -1622561.5, -1627434.6, -0.0126712015, 0.000001155622, -0.0000680446, -1622561.5, -5440.2046, 0.0, 10.000004, 9.993543 
1.755e+3, 1.4497516e+2, -1534460.1, -1548146.0, 0.0009370114, 0.0000011453565, 0.000071108894, -1534460.1, -15216.711, 0.0, 10.000004, 9.981863 
1.755e+3, 1.5495704e+2, -1436732.5, -1450821.8, -0.015792944, 0.00000114488, -0.000056721085, -1436732.5, -15311.57, 0.0, 10.000004, 9.981331 
1.755e+3, 1.649323e+2, -1348681.6, -1371952.1, 0.0025325161, 0.0000011406307, 0.00004761523, -1348681.6, -25018.063, 0.0, 10.000004, 9.969247 
1.755e+3, 1.7490157e+2, -1250723.6, -1274310.0, -0.0145007055, 0.000001132529, -0.000073600015, -1250723.6, -24759.07, 0.0, 10.000004, 9.968833 
1.755e+3, 1.8486422e+2, -1162642.6, -1195719.9, 0.002623447, 0.0000011257833, 0.000066352935, -1162642.6, -34312.125, 0.0, 10.000004, 9.956393 
1.755e+3, 1.9482066e+2, -1064493.0, -1097832.8, -0.0133278025, 0.0000011204556, -0.000057450932, -1064493.0, -33735.49, 0.0, 10.000004, 9.956051 
1.755e+3, 2.0477043e+2, -976329.0, -1019434.9, 0.0013333941, 0.0000011166715, 0.00006827463, -976329.0, -43079.24, 0.0, 10.000004, 9.943289 
1.755e+3, 2.1471377e+2, -878042.0, -921409.75, -0.017007925, 0.0000011145581, -0.00012664695, -878042.0, -42236.85, 0.0, 10.000004, 9.942947 
1.755e+3, 2.246504e+2, -789755.94, -843144.75, -0.0001206726, 0.000001109419, 0.00012104518, -789755.94, -51329.742, 0.0, 10.000004, 9.929906 
1.755e+3, 2.3458035e+2, -691322.44, -744966.3, -0.013849181, 0.0000011008536, -0.00008866634, -691322.44, -50209.996, 0.0, 10.000004, 9.929575 
1.755e+3, 2.445034e+2, -602998.44, -667018.7, 0.0015507308, 0.0000010965972, 0.00007484884, -602998.44, -59131.6, 0.0, 10.000004, 9.916135 
1.755e+3, 2.5441962e+2, -504245.78, -568343.2, -0.014307996, 0.0000010974908, -0.00010660667, -504245.78, -57558.28, 0.0, 10.000004, 9.916035 
1.755e+3, 2.643288e+2, -416010.4, -490987.8, 0.0016875666, 0.0000010958624, 0.00014071216, -416010.4, -66432.76, 0.0, 10.000004, 9.901963 
1.755e+3, 2.742313e+2, -316725.2, -391374.72, -0.012479007, 0.000001091012, -0.00020334107, -316725.2, -64192.215, 0.0, 10.000004, 9.902383 
1.755e+3, 2.841256e+2, -230251.97, -318081.22, 0.0032971045, 0.0000010870405, 0.0002291355, -230251.97, -74683.0, 0.0, 10.000004, 9.885437 
1.755e+3, 2.940121e+2, -130545.86, -217765.0, -0.009865173, 0.0000010842858, -0.00025326453, -130545.86, -71864.445, 0.0, 10.000004, 9.886215 
1.755e+3, 3.0392656e+2, -40801.88, -84750.16, 0.0056622652, 0.0000010827592, 0.00017320024, -40801.88, -40801.88, 0.0, 10.000003, 9.942171 
1.755e+3, 3.138706e+2, -39723.88, -82511.21, -0.006553614, 0.000001083047, -0.000055097644, -39723.88, -39723.88, 0.0, 10.000003, 9.943683 
1.7650001e+3, 1.2499337e+2, -1719941.6, -1724224.4, 0.0151637215, 0.0000012079646, 0.000017897557, -1719941.6, -4876.6675, 0.0, 10.000004, 9.994326 
1.7650001e+3, 1.3498762e+2, -1622561.3, -1627434.6, -0.0038385252, 0.0000011846046, -0.00006804156, -1622561.3, -5439.9395, 0.0, 10.000004, 9.993543 
1.7650001e+3, 1.4497516e+2, -1534459.9, -1548146.0, 0.011304535, 0.0000011733262, 0.00007112088, -1534459.9, -15216.449, 0.0, 10.000004, 9.981863 
1.7650001e+3, 1.5495704e+2, -1436732.3, -1450821.6, -0.006515753, 0.0000011739568, -0.000056714292, -1436732.3, -15311.298, 0.0, 10.000004, 9.981331 
1.7650001e+3, 1.649323e+2, -1348681.3, -1371952.0, 0.011098136, 0.0000011703562, 0.000047619953, -1348681.3, -25017.79, 0.0, 10.000004, 9.969247 
1.7650001e+3, 1.7490157e+2, -1250723.4, -1274309.9, -0.006971872, 0.0000011624353, -0.00007359416, -1250723.4, -24758.807, 0.0, 10.000004, 9.968833 
1.7650001e+3, 1.8486422e+2, -1162642.4, -1195719.9, 0.009782328, 0.0000011551548, 0.00006635877, -1162642.4, -34311.863, 0.0, 10.000004, 9.956393 
1.7650001e+3, 1.9482066e+2, -1064492.8, -1097832.8, -0.008103521, 0.0000011485436, -0.000057446323, -1064492.8, -33735.227, 0.0, 10.000004, 9.956051 
1.7650001e+3, 2.0477043e+2, -976328.75, -1019434.75, 0.007809114, 0.0000011448067, 0.00006827911, -976328.75, -43078.98, 0.0, 10.000004, 9.943289 
1.7650001e+3, 2.1471377e+2, -878041.75, -921409.6, -0.00707974, 0.000001144182, -0.00012664143, -878041.75, -42236.59, 0.0, 10.000004, 9.942947 
1.7650001e+3, 2.246504e+2, -789755.7, -843144.6, 0.010560714, 0.0000011391261, 0.00012105066, -789755.7, -51329.49, 0.0, 10.000004, 9.929906 
1.7650001e+3, 2.3458035e+2, -691322.2, -744966.25, -0.0078050764, 0.0000011290525, -0.00008866211, -691322.2, -50209.746, 0.0, 10.000004, 9.929575 
1.7650001e+3, 2.445034e+2, -602998.2, -667018.6, 0.0061580935, 0.0000011244273, 0.00007485231, -602998.2, -59131.35, 0.0, 10.000004, 9.916134 
1.7650001e+3, 2.5441962e+2, -504245.53, -568343.1, -0.008731279, 0.0000011263146, -0.000106603344, -504245.53, -57558.03, 0.0, 10.000004, 9.916035 
1.7650001e+3, 2.643288e+2, -416010.16, -490987.72, 0.008098966, 0.000001124981, 0.00014071522, -416010.16, -66432.51, 0.0, 10.000004, 9.901963 
1.7650001e+3, 2.742313e+2, -316724.97, -391374.63, -0.007692799, 0.0000011195325, -0.00020333841, -316724.97, -64191.97, 0.0, 10.000004, 9.902383 
1.7650001e+3, 2.841256e+2, -230251.72, -318081.13, 0.006906022, 0.0000011151344, 0.00022913802, -230251.72, -74682.75, 0.0, 10.000004, 9.885437 
1.7650001e+3, 2.940121e+2, -130545.61, -217764.92, -0.007855852, 0.0000011121921, -0.00025326188, -130545.61, -71864.2, 0.0, 10.000004, 9.886215 
1.7650001e+3, 3.0392656e+2, -40801.64, -84750.09, 0.007003653, 0.0000011108942, 0.00017320212, -40801.64, -40801.64, 0.0, 10.000004, 9.942171 
1.7650001e+3, 3.138706e+2, -39723.633, -82511.15, -0.006989732, 0.0000011120269, -0.000055097964, -39723.633, -39723.633, 0.0, 10.000004, 9.943683 
1.7750001e+3, 1.2499337e+2, -1719941.8, -1724224.4, 0.0015903604, 0.0000012375858, 0.000017908676, -1719941.8, -4876.7197, 0.0, 10.000004, 9.994326 
1.7750001e+3, 1.3498762e+2, -1622561.3, -1627434.6, -0.017414054, 0.0000012165619, -0.00006802883, -1622561.3, -5439.9907, 0.0, 10.000004, 9.993543 
1.7750001e+3, 1.4497516e+2, -1534459.9, -1548146.0, 0.0044039367, 0.0000012052612, 0.00007114388, -1534459.9, -15216.497, 0.0, 10.000004, 9.981863 
1.7750001e+3, 1.5495704e+2, -1436732.3, -1450821.8, -0.013405954, 0.0000012034864, -0.000056706533, -1436732.3, -15311.346, 0.0, 10.000004, 9.981331 
1.7750001e+3, 1.649323e+2, -1348681.4, -1371952.1, 0.0021015438, 0.0000011989913, 0.00004762316, -1348681.4, -25017.836, 0.0, 10.000004, 9.969247 
1.7750001e+3, 1.7490157e+2, -1250723.4, -1274310.0, -0.015979707, 0.0000011917188, -0.00007358459, -1250723.4, -24758.854, 0.0, 10.000004, 9.968833 
1.7750001e+3, 1.8486422e+2, -1162642.4, -1195719.9, 0.0030320531, 0.0000011857976, 0.0000663697, -1162642.4, -34311.91, 0.0, 10.000004, 9.956393 
1.7750001e+3, 1.9482066e+2, -1064492.8, -1097832.8, -0.014827787, 0.0000011812896, -0.000057439265, -1064492.8, -33735.27, 0.0, 10.000004, 9.956051 
1.7750001e+3, 2.0477043e+2, -976328.75, -1019434.8, 0.00143515, 0.0000011753679, 0.000068283836, -976328.75, -43079.016, 0.0, 10.000004, 9.943289 
1.7750001e+3, 2.1471377e+2, -878041.8, -921409.7, -0.013446665, 0.000001167914, -0.00012663736, -878041.8, -42236.63, 0.0, 10.000004, 9.942947 
1.7750001e+3, 2.246504e+2, -789755.7, -843144.75, 0.0049300585, 0.0000011639306, 0.00012105632, -789755.7, -51329.53, 0.0, 10.000004, 9.929906 
1.7750001e+3, 2.3458035e+2, -691322.25, -744966.3, -0.0134117035, 0.0000011638754, -0.00008865234, -691322.25, -50209.79, 0.0, 10.000004, 9.929575 
1.7750001e+3, 2.445034e+2, -602998.2, -667018.7, 0.0017178437, 0.0000011606644, 0.00007486047, -602998.2, -59131.387, 0.0, 10.000004, 9.916134 
1.7750001e+3, 2.5441965e+2, -504245.56, -568343.2, -0.013115596, 0.0000011536789, -0.00010660363, -504245.56, -57558.066, 0.0, 10.000004, 9.916035 
1.7750001e+3, 2.643288e+2, -416010.2, -490987.8, 0.0045137354, 0.0000011487722, 0.00014071287, -416010.2, -66432.54, 0.0, 10.000004, 9.901963 
1.7750001e+3, 2.742313e+2, -316725.0, -391374.72, -0.0112245185, 0.0000011465187, -0.00020333467, -316725.0, -64192.004, 0.0, 10.000004, 9.902383 
1.7750001e+3, 2.841256e+2, -230251.75, -318081.2, 0.0036712938, 0.0000011455014, 0.00022914437, -230251.75, -74682.79, 0.0, 10.000004, 9.885437 
1.7750001e+3, 2.940121e+2, -130545.65, -217764.98, -0.011063896, 0.0000011461624, -0.00025325772, -130545.65, -71864.24, 0.0, 10.000004, 9.886215 
1.7750001e+3, 3.0392656e+2, -40801.67, -84750.16, 0.005527585, 0.0000011434985, 0.00017320167, -40801.67, -40801.67, 0.0, 10.000004, 9.942171 
1.7750001e+3, 3.138706e+2, -39723.668, -82511.21, -0.008262602, 0.0000011358852, -0.00005510662, -39723.668, -39723.668, 0.0, 10.000004, 9.943683 
1.7850001e+3, 1.2499337e+2, -1719941.4, -1724224.3, 0.014601051, 0.0000012655545, 0.000017919088, -1719941.4, -4876.444, 0.0, 10.000004, 9.994326 
1.7850001e+3, 1.3498762e+2, -1622561.0, -1627434.5, -0.0047298083, 0.0000012502405, -0.00006802536, -1622561.0, -5439.6934, 0.0, 10.000004, 9.993543 
1.7850001e+3, 1.4497516e+2, -1534459.6, -1548145.9, 0.017540824, 0.0000012397044, 0.00007115837, -1534459.6, -15216.199, 0.0, 10.000004, 9.981863 
1.7850001e+3, 1.5495704e+2, -1436732.0, -1450821.6, -0.0029704208, 0.0000012337082, -0.00005669984, -1436732.0, -15311.065, 0.0, 10.000004, 9.981331 
1.7850001e+3, 1.649323e+2, -1348681.0, -1371952.0, 0.011841322, 0.0000012281964, 0.000047627123, -1348681.0, -25017.56, 0.0, 10.000004, 9.969246 
1.7850001e+3, 1.7490157e+2, -1250723.1, -1274309.9, -0.0070051765, 0.0000012231793, -0.00007357818, -1250723.1, -24758.57, 0.0, 10.000004, 9.968833 
1.7850001e+3, 1.8486422e+2, -1162642.1, -1195719.8, 0.0118870335, 0.0000012174733, 0.00006637683, -1162642.1, -34311.63, 0.0, 10.000004, 9.956393 
1.7850001e+3, 1.9482066e+2, -1064492.5, -1097832.8, -0.00613891, 0.0000012110452, -0.000057433248, -1064492.5, -33734.996, 0.0, 10.000004, 9.95605 
1.7850001e+3, 2.0477043e+2, -976328.5, -1019434.75, 0.009201824, 0.0000012048126, 0.00006828858, -976328.5, -43078.746, 0.0, 10.000004, 9.943289 
1.7850001e+3, 2.1471377e+2, -878041.5, -921409.6, -0.010632792, 0.0000011987913, -0.00012663407, -878041.5, -42236.36, 0.0, 10.000004, 9.942947 
1.7850001e+3, 2.246504e+2, -789755.44, -843144.6, 0.0067773643, 0.0000011949504, 0.00012105926, -789755.44, -51329.26, 0.0, 10.000004, 9.929906 
1.7850001e+3, 2.3458035e+2, -691322.0, -744966.25, -0.008876074, 0.0000011935768, -0.000088648485, -691322.0, -50209.52, 0.0, 10.000004, 9.929575 
1.7850001e+3, 2.445034e+2, -602997.94, -667018.56, 0.0073677483, 0.0000011900188, 0.0000748644, -602997.94, -59131.12, 0.0, 10.000004, 9.916134 
1.7850001e+3, 2.5441965e+2, -504245.3, -568343.1, -0.010550382, 0.0000011838479, -0.00010660063, -504245.3, -57557.8, 0.0, 10.000004, 9.916035 
1.7850001e+3, 2.643288e+2, -416009.9, -490987.72, 0.0064050527, 0.0000011791195, 0.00014071533, -416009.9, -66432.28, 0.0, 10.000004, 9.901963 
1.7850001e+3, 2.742313e+2, -316724.72, -391374.63, -0.008839761, 0.0000011762321, -0.00020333227, -316724.72, -64191.746, 0.0, 10.000004, 9.902383 
1.7850001e+3, 2.841256e+2, -230251.48, -318081.13, 0.006851359, 0.0000011749532, 0.0002291465, -230251.48, -74682.52, 0.0, 10.000004, 9.885437 
1.7850001e+3, 2.940121e+2, -130545.38, -217764.92, -0.008246359, 0.0000011758661, -0.00025325615, -130545.38, -71863.98, 0.0, 10.000004, 9.886215 
1.7850001e+3, 3.0392656e+2, -40801.418, -84750.086, 0.008836305, 0.0000011733696, 0.00017320307, -40801.418, -40801.418, 0.0, 10.000004, 9.942171 
1.7850001e+3, 3.138706e+2, -39723.414, -82511.15, -0.0054935915, 0.000001165793, -0.000055104752, -39723.414, -39723.414, 0.0, 10.000004, 9.943683 
1.7950001e+3, 1.2499337e+2, -1719941.5, -1724224.4, 0.006258093, 0.0000012918708, 0.000017928796, -1719941.5, -4876.4976, 0.0, 10.000004, 9.994325 
1.7950001e+3, 1.3498762e+2, -1622561.0, -1627434.6, -0.013073891, 0.0000012856402, -0.00006803115, -1622561.0, -5439.7456, 0.0, 10.000004, 9.993543 
1.7950001e+3, 1.4497516e+2, -1534459.6, -1548146.0, 0.006345027, 0.0000012766554, 0.000071164366, -1534459.6, -15216.254, 0.0, 10.000004, 9.981863 
1.7950001e+3, 1.5495704e+2, -1436732.0, -1450821.8, -0.014170831, 0.000001264622, -0.00005669421, -1436732.0, -15311.119, 0.0, 10.000004, 9.981331 
1.7950001e+3, 1.649323e+2, -1348681.1, -1371952.1, 0.0047662314, 0.0000012579715, 0.000047631846, -1348681.1, -25017.61, 0.0, 10.000004, 9.969246 
1.7950001e+3, 1.7490157e+2, -1250723.1, -1274310.0, -0.014058631, 0.000001256817, -0.00007357491, -1250723.1, -24758.62, 0.0, 10.000004, 9.968833 
1.7950001e+3, 1.8486422e+2, -1162642.1, -1195719.9, 0.0032102724, 0.0000012501818, 0.000066380155, -1162642.1, -34311.67, 0.0, 10.000004, 9.956393 
1.7950001e+3, 1.9482066e+2, -1064492.5, -1097832.8, -0.014834607, 0.0000012378104, -0.00005742827, -1064492.5, -33735.043, 0.0, 10.000004, 9.95605 
1.7950001e+3, 2.0477043e+2, -976328.56, -1019434.8, 0.0031910639, 0.0000012331412, 0.000068293324, -976328.56, -43078.797, 0.0, 10.000004, 9.943289 
1.7950001e+3, 2.1471377e+2, -878041.56, -921409.7, -0.016588185, 0.0000012368137, -0.00012663158, -878041.56, -42236.406, 0.0, 10.000004, 9.942947 
1.7950001e+3, 2.246504e+2, -789755.5, -843144.7, 0.0009046354, 0.0000012321852, 0.00012105948, -789755.5, -51329.3, 0.0, 10.000004, 9.929906 
1.7950001e+3, 2.3458035e+2, -691322.0, -744966.3, -0.014746262, 0.0000012181573, -0.00008865055, -691322.0, -50209.56, 0.0, 10.000004, 9.929575 
1.7950001e+3, 2.445034e+2, -602998.0, -667018.7, 0.0024381094, 0.000001212491, 0.00007486409, -602998.0, -59131.164, 0.0, 10.000004, 9.916134 
1.7950001e+3, 2.5441965e+2, -504245.34, -568343.2, -0.015434885, 0.0000012168213, -0.000106594365, -504245.34, -57557.844, 0.0, 10.000004, 9.916035 
1.7950001e+3, 2.643288e+2, -416009.97, -490987.78, 0.00247785, 0.0000012160228, 0.00014072258, -416009.97, -66432.32, 0.0, 10.000004, 9.901963 
1.7950001e+3, 2.742313e+2, -316724.75, -391374.7, -0.012702916, 0.0000012086725, -0.00020333118, -316724.75, -64191.78, 0.0, 10.000004, 9.902383 
1.7950001e+3, 2.841256e+2, -230251.53, -318081.2, 0.0040857727, 0.00000120349, 0.00022914444, -230251.53, -74682.56, 0.0, 10.000004, 9.885437 
1.7950001e+3, 2.940121e+2, -130545.42, -217764.98, -0.010913168, 0.0000012013037, -0.0002532572, -130545.42, -71864.016, 0.0, 10.000004, 9.886215 
1.7950001e+3, 3.0392656e+2, -40801.45, -84750.16, 0.0065890453, 0.0000012005075, 0.00017320632, -40801.45, -40801.45, 0.0, 10.000004, 9.942171 
1.7950001e+3, 3.138706e+2, -39723.45, -82511.22, -0.0076917484, 0.00000120175, -0.00005509236, -39723.45, -39723.45, 0.0, 10.000004, 9.943683 
1.8050002e+3, 1.2499337e+2, -1719941.1, -1724224.3, 0.015806433, 0.0000013244329, 0.000017938091, -1719941.1, -4876.1885, 0.0, 10.000004, 9.994325 
1.8050002e+3, 1.3498762e+2, -1622560.8, -1627434.5, -0.005576933, 0.0000013178108, -0.00006803316, -1622560.8, -5439.4473, 0.0, 10.000004, 9.993543 
1.8050002e+3, 1.4497516e+2, -1534459.4, -1548145.9, 0.012412488, 0.0000013092709, 0.00007117555, -1534459.4, -15215.956, 0.0, 10.000004, 9.981863 
1.8050002e+3, 1.5495704e+2, -1436731.8, -1450821.6, -0.0071410635, 0.000001298515, -0.00005668752, -1436731.8, -15310.815, 0.0, 10.000004, 9.981331 
1.8050002e+3, 1.649323e+2, -1348680.8, -1371952.0, 0.013605069, 0.0000012913364, 0.000047636837, -1348680.8, -25017.307, 0.0, 10.000004, 9.969246 
1.8050002e+3, 1.7490157e+2, -1250722.9, -1274309.9, -0.0064422255, 0.0000012878105, -0.000073568764, -1250722.9, -24758.33, 0.0, 10.000004, 9.968833 
1.8050002e+3, 1.8486422e+2, -1162641.9, -1195719.8, 0.00974151, 0.0000012809531, 0.00006638617, -1162641.9, -34311.387, 0.0, 10.000004, 9.956393 
1.8050002e+3, 1.9482066e+2, -1064492.3, -1097832.6, -0.0097428, 0.0000012706085, -0.00005742372, -1064492.3, -33734.754, 0.0, 10.000004, 9.95605 
1.8050002e+3, 2.0477043e+2, -976328.25, -1019434.75, 0.010633336, 0.0000012662144, 0.00006829786, -976328.25, -43078.504, 0.0, 10.000004, 9.943289 
1.8050002e+3, 2.1471377e+2, -878041.25, -921409.6, -0.0069393553, 0.0000012682647, -0.0001266255, -878041.25, -42236.117, 0.0, 10.000004, 9.942947 
1.8050002e+3, 2.246504e+2, -789755.2, -843144.6, 0.009413094, 0.0000012630525, 0.00012106551, -789755.2, -51329.016, 0.0, 10.000004, 9.929906 
1.8050002e+3, 2.3458037e+2, -691321.75, -744966.2, -0.010087281, 0.0000012496166, -0.00008864639, -691321.75, -50209.28, 0.0, 10.000004, 9.929575 
1.8050002e+3, 2.445034e+2, -602997.7, -667018.56, 0.008059363, 0.0000012441467, 0.00007486739, -602997.7, -59130.887, 0.0, 10.000004, 9.916134 
1.8050002e+3, 2.5441965e+2, -504245.06, -568343.1, -0.008256867, 0.0000012481995, -0.000106590735, -504245.06, -57557.563, 0.0, 10.000004, 9.916034 
1.8050002e+3, 2.643288e+2, -416009.66, -490987.72, 0.009122131, 0.0000012473018, 0.0001407262, -416009.66, -66432.04, 0.0, 10.000004, 9.901963 
1.8050002e+3, 2.742313e+2, -316724.5, -391374.63, -0.008795637, 0.0000012400803, -0.00020332797, -316724.5, -64191.508, 0.0, 10.000004, 9.902383 
1.8050002e+3, 2.841256e+2, -230251.25, -318081.13, 0.0071640075, 0.0000012348702, 0.00022914707, -230251.25, -74682.29, 0.0, 10.000004, 9.885437 
1.8050002e+3, 2.940121e+2, -130545.15, -217764.9, -0.009169966, 0.0000012324408, -0.00025325533, -130545.15, -71863.75, 0.0, 10.000004, 9.886215 
1.8050002e+3, 3.0392656e+2, -40801.184, -84750.086, 0.008537589, 0.0000012315157, 0.00017320746, -40801.184, -40801.184, 0.0, 10.000004, 9.942171 
1.8050002e+3, 3.138706e+2, -39723.176, -82511.14, -0.0058661904, 0.0000012328009, -0.000055091834, -39723.176, -39723.176, 0.0, 10.000004, 9.943683 
1.8150002e+3, 1.2499337e+2, -1719941.3, -1724224.4, 0.005353797, 0.0000013632406, 0.000017946975, -1719941.3, -4876.2476, 0.0, 10.000004, 9.994325 
1.8150002e+3, 1.3498762e+2, -1622560.8, -1627434.6, -0.01603113, 0.0000013467521, -0.00006803138, -1622560.8, -5439.505, 0.0, 10.000004, 9.993543 
1.8150002e+3, 1.4497516e+2, -1534459.4, -1548146.0, 0.0029770478, 0.0000013375512, 0.00007119191, -1534459.4, -15216.009, 0.0, 10.000004, 9.981862 
1.8150002e+3, 1.5495704e+2, -1436731.8, -1450821.8, -0.016575005, 0.0000013353867, -0.000056679764, -1436731.8, -15310.867, 0.0, 10.000004, 9.981331 
1.8150002e+3, 1.649323e+2, -1348680.9, -1371952.1, 0.0038262017, 0.000001328291, 0.000047642105, -1348680.9, -25017.36, 0.0, 10.000004, 9.969246 
1.8150002e+3, 1.7490157e+2, -1250722.9, -1274310.0, -0.016223034, 0.0000013161601, -0.00007355974, -1250722.9, -24758.38, 0.0, 10.000004, 9.968833 
1.8150002e+3, 1.8486422e+2, -1162641.9, -1195719.9, 0.0020081492, 0.0000013097875, 0.000066394874, -1162641.9, -34311.438, 0.0, 10.000004, 9.956393 
1.8150002e+3, 1.9482066e+2, -1064492.3, -1097832.8, -0.017452586, 0.0000013094391, -0.000057419602, -1064492.3, -33734.8, 0.0, 10.000004, 9.95605 
1.8150002e+3, 2.0477043e+2, -976328.3, -1019434.8, 0.0042980304, 0.0000013040319, 0.000068302164, -976328.3, -43078.55, 0.0, 10.000004, 9.943289 
1.8150002e+3, 2.1471377e+2, -878041.3, -921409.7, -0.013246432, 0.0000012931448, -0.00012661584, -878041.3, -42236.16, 0.0, 10.000004, 9.942947 
1.8150002e+3, 2.246504e+2, -789755.25, -843144.7, 0.0019507657, 0.0000012875523, 0.00012107734, -789755.25, -51329.063, 0.0, 10.000004, 9.929906 
1.8150002e+3, 2.3458037e+2, -691321.75, -744966.3, -0.01758749, 0.0000012879543, -0.000088636, -691321.75, -50209.33, 0.0, 10.000004, 9.929575 
1.8150002e+3, 2.445034e+2, -602997.75, -667018.6, 0.0043533584, 0.0000012849853, 0.00007487429, -602997.75, -59130.93, 0.0, 10.000004, 9.916134 
1.8150002e+3, 2.5441965e+2, -504245.1, -568343.2, -0.011780712, 0.0000012779825, -0.00010658976, -504245.1, -57557.6, 0.0, 10.000004, 9.916034 
1.8150002e+3, 2.643288e+2, -416009.72, -490987.78, 0.004279504, 0.000001272957, 0.0001407262, -416009.72, -66432.08, 0.0, 10.000004, 9.901962 
1.8150002e+3, 2.742313e+2, -316724.53, -391374.7, -0.013726768, 0.0000012704559, -0.00020332265, -316724.53, -64191.547, 0.0, 10.000004, 9.902383 
1.8150002e+3, 2.841256e+2, -230251.3, -318081.2, 0.0038162328, 0.0000012690937, 0.0002291544, -230251.3, -74682.33, 0.0, 10.000004, 9.885437 
1.8150002e+3, 2.940121e+2, -130545.19, -217764.98, -0.012375221, 0.0000012692772, -0.00025325062, -130545.19, -71863.78, 0.0, 10.000004, 9.886215 
1.8150002e+3, 3.0392656e+2, -40801.22, -84750.16, 0.0073565627, 0.000001266394, 0.00017320647, -40801.22, -40801.22, 0.0, 10.000004, 9.942171 
1.8150002e+3, 3.138706e+2, -39723.21, -82511.21, -0.0068097953, 0.0000012589459, -0.000055103166, -39723.21, -39723.21, 0.0, 10.000004, 9.943683 
1.825e+3, 1.2499338e+2, -1719940.9, -1724224.3, 0.01750061, 0.0000013992742, 0.000017958353, -1719940.9, -4875.9272, 0.0, 10.000005, 9.994325 
1.825e+3, 1.3498762e+2, -1622560.5, -1627434.5, -0.0039420044, 0.000001380328, -0.00006803229, -1622560.5, -5439.1846, 0.0, 10.000005, 9.993543 
1.825e+3, 1.4497516e+2, -1534459.1, -1548145.9, 0.014347368, 0.0000013703066, 0.0000712056, -1534459.1, -15215.69, 0.0, 10.000005, 9.981862 
1.825e+3, 1.5495704e+2, -1436731.5, -1450821.6, -0.0066388636, 0.0000013689593, -0.000056672106, -1436731.5, -15310.558, 0.0, 10.000005, 9.981331 
1.825e+3, 1.649323e+2, -1348680.5, -1371952.0, 0.013789281, 0.000001362, 0.000047647252, -1348680.5, -25017.053, 0.0, 10.000005, 9.969246 
1.825e+3, 1.7490157e+2, -1250722.5, -1274309.9, -0.0066058356, 0.000001349311, -0.00007355351, -1250722.5, -24758.072, 0.0, 10.000005, 9.968832 
1.825e+3, 1.8486424e+2, -1162641.6, -1195719.8, 0.012614785, 0.0000013433615, 0.00006640161, -1162641.6, -34311.125, 0.0, 10.000005, 9.956393 
1.825e+3, 1.9482066e+2, -1064491.9, -1097832.6, -0.008142338, 0.0000013444635, -0.000057412984, -1064491.9, -33734.492, 0.0, 10.000005, 9.95605 
1.825e+3, 2.0477043e+2, -976328.0, -1019434.7, 0.011571868, 0.0000013382178, 0.00006830794, -976328.0, -43078.246, 0.0, 10.000004, 9.943289 
1.825e+3, 2.1471377e+2, -878041.0, -921409.6, -0.008587901, 0.0000013240133, -0.00012661169, -878041.0, -42235.87, 0.0, 10.000004, 9.942947 
1.825e+3, 2.246504e+2, -789754.94, -843144.6, 0.00807715, 0.0000013185894, 0.00012108104, -789754.94, -51328.77, 0.0, 10.000004, 9.929906 
1.825e+3, 2.3458037e+2, -691321.44, -744966.2, -0.010052186, 0.0000013231065, -0.00008863143, -691321.44, -50209.02, 0.0, 10.000004, 9.929575 
1.825e+3, 2.445034e+2, -602997.44, -667018.56, 0.010635218, 0.0000013206788, 0.00007487871, -602997.44, -59130.625, 0.0, 10.000004, 9.916134 
1.825e+3, 2.5441965e+2, -504244.8, -568343.1, -0.009819926, 0.0000013099443, -0.000106586696, -504244.8, -57557.316, 0.0, 10.000004, 9.916034 
1.825e+3, 2.643288e+2, -416009.44, -490987.72, 0.006072537, 0.000001303692, 0.00014072849, -416009.44, -66431.8, 0.0, 10.000004, 9.901962 
1.825e+3, 2.742313e+2, -316724.22, -391374.63, -0.010172724, 0.0000013031622, -0.00020332036, -316724.22, -64191.258, 0.0, 10.000004, 9.902383 
1.825e+3, 2.841256e+2, -230251.0, -318081.13, 0.008638853, 0.0000013028482, 0.00022915678, -230251.0, -74682.04, 0.0, 10.000004, 9.885437 
1.825e+3, 2.940121e+2, -130544.89, -217764.9, -0.008912254, 0.0000013028018, -0.00025324797, -130544.89, -71863.49, 0.0, 10.000004, 9.886215 
1.825e+3, 3.0392656e+2, -40800.934, -84750.08, 0.009386106, 0.0000012993103, 0.00017320861, -40800.934, -40800.934, 0.0, 10.000004, 9.942171 
1.825e+3, 3.138706e+2, -39722.934, -82511.14, -0.0076187295, 0.0000012907041, -0.000055102675, -39722.934, -39722.934, 0.0, 10.000004, 9.943682 
1.835e+3, 1.2499338e+2, -1719940.9, -1724224.4, 0.007334658, 0.0000014325338, 0.000017972228, -1719940.9, -4875.987, 0.0, 10.000005, 9.994325 
1.835e+3, 1.3498762e+2, -1622560.5, -1627434.6, -0.014109582, 0.0000014185382, -0.0000680359, -1622560.5, -5439.243, 0.0, 10.000005, 9.993543 
1.835e+3, 1.4497516e+2, -1534459.1, -1548146.0, 0.0031103857, 0.0000014075367, 0.00007121661, -1534459.1, -15215.747, 0.0, 10.000005, 9.981862 
1.835e+3, 1.5495704e+2, -1436731.5, -1450821.6, -0.017877629, 0.0000013992327, -0.000056664547, -1436731.5, -15310.613, 0.0, 10.000005, 9.981331 
1.835e+3, 1.649323e+2, -1348680.6, -1371952.1, 0.00465402, 0.0000013924639, 0.00004765228, -1348680.6, -25017.107, 0.0, 10.000005, 9.969246 
1.835e+3, 1.7490157e+2, -1250722.6, -1274309.9, -0.01573013, 0.0000013872627, -0.00007355006, -1250722.6, -24758.125, 0.0, 10.000005, 9.968832 
1.835e+3, 1.8486424e+2, -1162641.6, -1195719.9, 0.00497547, 0.000001381675, 0.00006640638, -1162641.6, -34311.18, 0.0, 10.000005, 9.956393 
1.835e+3, 1.9482066e+2, -1064492.0, -1097832.8, -0.01576458, 0.0000013756818, -0.000057403868, -1064492.0, -33734.547, 0.0, 10.000005, 9.95605 
1.835e+3, 2.0477043e+2, -976328.0, -1019434.8, 0.0022982794, 0.0000013687722, 0.00006831518, -976328.0, -43078.297, 0.0, 10.000004, 9.943289 
1.835e+3, 2.1471377e+2, -878041.06, -921409.7, -0.01789572, 0.0000013608698, -0.00012661304, -878041.06, -42235.918, 0.0, 10.000004, 9.942947 
1.835e+3, 2.246504e+2, -789755.0, -843144.7, 0.0043235566, 0.0000013561632, 0.00012107659, -789755.0, -51328.816, 0.0, 10.000004, 9.929906 
1.835e+3, 2.3458037e+2, -691321.5, -744966.3, -0.013624251, 0.0000013550736, -0.00008863269, -691321.5, -50209.066, 0.0, 10.000004, 9.929575 
1.835e+3, 2.445034e+2, -602997.44, -667018.6, 0.0031665403, 0.0000013512276, 0.00007488065, -602997.44, -59130.67, 0.0, 10.000004, 9.916134 
1.835e+3, 2.5441965e+2, -504244.84, -568343.2, -0.017475918, 0.0000013440848, -0.00010658156, -504244.84, -57557.363, 0.0, 10.000004, 9.916034 
1.835e+3, 2.643288e+2, -416009.47, -490987.78, 0.0027521038, 0.0000013395068, 0.00014073309, -416009.47, -66431.836, 0.0, 10.000004, 9.901962 
1.835e+3, 2.742313e+2, -316724.28, -391374.7, -0.013202686, 0.0000013381994, -0.00020332112, -316724.28, -64191.297, 0.0, 10.000004, 9.902383 
1.835e+3, 2.841256e+2, -230251.03, -318081.2, 0.0057862694, 0.000001336134, 0.00022915423, -230251.03, -74682.08, 0.0, 10.000004, 9.885437 
1.835e+3, 2.940121e+2, -130544.94, -217764.98, -0.011748999, 0.0000013330149, -0.00025324742, -130544.94, -71863.53, 0.0, 10.000004, 9.886215 
1.835e+3, 3.0392656e+2, -40800.973, -84750.164, 0.005864304, 0.0000013302648, 0.00017321385, -40800.973, -40800.973, 0.0, 10.000004, 9.942171 
1.835e+3, 3.138706e+2, -39722.977, -82511.23, -0.011221117, 0.0000013280751, -0.000055090353, -39722.977, -39722.977, 0.0, 10.000004, 9.943682 
1.8450001e+3, 1.2499338e+2, -1719940.5, -1724224.3, 0.017397894, 0.0000014715571, 0.000017984525, -1719940.5, -4875.6396, 0.0, 10.000005, 9.994325 
1.8450001e+3, 1.3498762e+2, -1622560.1, -1627434.5, -0.0054041166, 0.0000014528666, -0.00006803557, -1622560.1, -5438.9146, 0.0, 10.000005, 9.993543 
1.8450001e+3, 1.4497517e+2, -1534458.8, -1548145.9, 0.012720152, 0.0000014406409, 0.00007123288, -1534458.8, -15215.423, 0.0, 10.000005, 9.981862 
1.8450001e+3, 1.5495704e+2, -1436731.1, -1450821.6, -0.008669976, 0.0000014345957, -0.000056657318, -1436731.1, -15310.283, 0.0, 10.000005, 9.981331 
1.8450001e+3, 1.649323e+2, -1348680.3, -1371952.0, 0.013631389, 0.0000014289018, 0.00004765602, -1348680.3, -25016.777, 0.0, 10.000005, 9.969246 
1.8450001e+3, 1.7490157e+2, -1250722.3, -1274309.9, -0.008703688, 0.000001423567, -0.00007354414, -1250722.3, -24757.799, 0.0, 10.000005, 9.968832 
1.8450001e+3, 1.8486424e+2, -1162641.4, -1195719.8, 0.012279595, 0.0000014168781, 0.00006641291, -1162641.4, -34310.86, 0.0, 10.000005, 9.956393 
1.8450001e+3, 1.9482066e+2, -1064491.6, -1097832.6, -0.008331545, 0.000001408771, -0.00005739834, -1064491.6, -33734.23, 0.0, 10.000005, 9.95605 
1.8450001e+3, 2.0477043e+2, -976327.7, -1019434.7, 0.0098712165, 0.000001402411, 0.0000683204, -976327.7, -43077.98, 0.0, 10.000005, 9.943288 
1.8450001e+3, 2.1471377e+2, -878040.75, -921409.56, -0.010944811, 0.0000013979427, -0.0001266074, -878040.75, -42235.594, 0.0, 10.000005, 9.942947 
1.8450001e+3, 2.246504e+2, -789754.6, -843144.56, 0.011479601, 0.000001393128, 0.000121081546, -789754.6, -51328.496, 0.0, 10.000005, 9.929906 
1.8450001e+3, 2.3458037e+2, -691321.2, -744966.2, -0.0098445965, 0.0000013879194, -0.00008862975, -691321.2, -50208.76, 0.0, 10.000005, 9.929574 
1.8450001e+3, 2.445034e+2, -602997.2, -667018.56, 0.0065479414, 0.0000013832298, 0.00007488361, -602997.2, -59130.375, 0.0, 10.000005, 9.916134 
1.8450001e+3, 2.5441965e+2, -504244.53, -568343.1, -0.010474387, 0.0000013791595, -0.00010657616, -504244.53, -57557.05, 0.0, 10.000005, 9.916034 
1.8450001e+3, 2.643288e+2, -416009.16, -490987.7, 0.011618229, 0.0000013756433, 0.00014073853, -416009.16, -66431.52, 0.0, 10.000005, 9.901962 
1.8450001e+3, 2.742313e+2, -316723.97, -391374.6, -0.009169013, 0.0000013728294, -0.00020331865, -316723.97, -64190.992, 0.0, 10.000005, 9.902383 
1.8450001e+3, 2.841256e+2, -230250.73, -318081.1, 0.0076511977, 0.0000013697373, 0.0002291555, -230250.73, -74681.78, 0.0, 10.000005, 9.885437 
1.8450001e+3, 2.940121e+2, -130544.64, -217764.9, -0.009491684, 0.00000136626, -0.0002532449, -130544.64, -71863.234, 0.0, 10.000005, 9.886215 
1.8450001e+3, 3.0392656e+2, -40800.68, -84750.08, 0.009891416, 0.0000013638829, 0.00017321685, -40800.68, -40800.68, 0.0, 10.000005, 9.942171 
1.8450001e+3, 3.138706e+2, -39722.676, -82511.14, -0.004658891, 0.0000013631454, -0.000055088007, -39722.676, -39722.676, 0.0, 10.000005, 9.943682 
1.8550001e+3, 1.2499338e+2, -1719940.6, -1724224.4, 0.0031974963, 0.0000015163434, 0.000017995242, -1719940.6, -4875.703, 0.0, 10.000005, 9.994325 
1.8550001e+3, 1.3498762e+2, -1622560.3, -1627434.6, -0.019607142, 0.0000014833133, -0.00006803131, -1622560.3, -5438.977, 0.0, 10.000005, 9.993543 
1.8550001e+3, 1.4497517e+2, -1534458.9, -1548146.0, 0.0030693468, 0.0000014696192, 0.00007125439, -1534458.9, -15215.48, 0.0, 10.000005, 9.981862 
1.8550001e+3, 1.5495704e+2, -1436731.3, -1450821.6, -0.0183137, 0.0000014750477, -0.000056650413, -1436731.3, -15310.34, 0.0, 10.000005, 9.981331 
1.8550001e+3, 1.649323e+2, -1348680.3, -1371952.1, 0.0036769595, 0.0000014713135, 0.000047658465, -1348680.3, -25016.834, 0.0, 10.000005, 9.969246 
1.8550001e+3, 1.7490157e+2, -1250722.4, -1274309.9, -0.018659873, 0.000001458224, -0.000073535775, -1250722.4, -24757.857, 0.0, 10.000005, 9.968832 
1.8550001e+3, 1.8486424e+2, -1162641.4, -1195719.9, 0.003205746, 0.0000014489709, 0.000066421206, -1162641.4, -34310.91, 0.0, 10.000005, 9.956393 
1.8550001e+3, 1.9482067e+2, -1064491.8, -1097832.8, -0.017395321, 0.0000014437312, -0.000057396403, -1064491.8, -33734.28, 0.0, 10.000005, 9.95605 
1.8550001e+3, 2.0477043e+2, -976327.75, -1019434.8, 0.0031431527, 0.0000014391342, 0.00006832359, -976327.75, -43078.03, 0.0, 10.000005, 9.943288 
1.8550001e+3, 2.1471377e+2, -878040.75, -921409.7, -0.017624779, 0.0000014352321, -0.0001265947, -878040.75, -42235.645, 0.0, 10.000005, 9.942947 
1.8550001e+3, 2.246504e+2, -789754.7, -843144.7, 0.0034812195, 0.0000014294836, 0.00012109589, -789754.7, -51328.547, 0.0, 10.000005, 9.929906 
1.8550001e+3, 2.3458037e+2, -691321.25, -744966.3, -0.017886218, 0.0000014216441, -0.000088622604, -691321.25, -50208.813, 0.0, 10.000005, 9.929574 
1.8550001e+3, 2.445034e+2, -602997.2, -667018.6, 0.0020097306, 0.0000014166852, 0.00007488759, -602997.2, -59130.414, 0.0, 10.000005, 9.916134 
1.8550001e+3, 2.5441965e+2, -504244.56, -568343.2, -0.014844468, 0.0000014151683, -0.00010657051, -504244.56, -57557.094, 0.0, 10.000005, 9.916034 
1.8550001e+3, 2.643288e+2, -416009.2, -490987.78, 0.006851693, 0.0000014121014, 0.00014074486, -416009.2, -66431.57, 0.0, 10.000005, 9.901962 
1.8550001e+3, 2.742313e+2, -316724.0, -391374.7, -0.013962225, 0.0000014070524, -0.00020331294, -316724.0, -64191.04, 0.0, 10.000005, 9.902383 
1.8550001e+3, 2.841256e+2, -230250.78, -318081.2, 0.0037718883, 0.0000014036582, 0.00022916058, -230250.78, -74681.82, 0.0, 10.000005, 9.885436 
1.8550001e+3, 2.940121e+2, -130544.68, -217764.98, -0.013288848, 0.000001402537, -0.00025324046, -130544.68, -71863.28, 0.0, 10.000005, 9.886215 
1.8550001e+3, 3.0392656e+2, -40800.715, -84750.16, 0.008030507, 0.0000014001644, 0.00017321757, -40800.715, -40800.715, 0.0, 10.000005, 9.942171 
1.8550001e+3, 3.138706e+2, -39722.71, -82511.21, -0.0062928004, 0.0000013959154, -0.000055095632, -39722.71, -39722.71, 0.0, 10.000005, 9.943682 
1.8650001e+3, 1.2499338e+2, -1719940.3, -1724224.3, 0.020408574, 0.0000015514192, 0.000018008745, -1719940.3, -4875.352, 0.0, 10.000005, 9.994325 
1.8650001e+3, 1.3498762e+2, -1622559.9, -1627434.5, -0.0041982513, 0.0000015222896, -0.00006802974, -1622559.9, -5438.623, 0.0, 10.000005, 9.993543 
1.8650001e+3, 1.4497517e+2, -1534458.5, -1548145.9, 0.019554842, 0.000001509376, 0.000071273374, -1534458.5, -15215.128, 0.0, 10.000005, 9.981862 
1.8650001e+3, 1.5495706e+2, -1436730.9, -1450821.5, -0.0048996867, 0.0000015124377, -0.00005664295, -1436730.9, -15309.993, 0.0, 10.000005, 9.981331 
1.8650001e+3, 1.649323e+2, -1348679.9, -1371952.0, 0.015447123, 0.0000015077898, 0.000047662368, -1348679.9, -25016.492, 0.0, 10.000005, 9.969246 
1.8650001e+3, 1.7490157e+2, -1250722.0, -1274309.8, -0.007475161, 0.0000014952699, -0.0000735273, -1250722.0, -24757.516, 0.0, 10.000005, 9.968832 
1.8650001e+3, 1.8486424e+2, -1162641.0, -1195719.8, 0.014079105, 0.0000014859446, 0.00006643045, -1162641.0, -34310.57, 0.0, 10.000005, 9.956393 
1.8650001e+3, 1.9482067e+2, -1064491.4, -1097832.6, -0.008472948, 0.0000014799608, -0.00005739037, -1064491.4, -33733.945, 0.0, 10.000005, 9.95605 
1.8650001e+3, 2.0477043e+2, -976327.44, -1019434.7, 0.012508363, 0.0000014752882, 0.00006832833, -976327.44, -43077.7, 0.0, 10.000005, 9.943288 
1.8650001e+3, 2.1471377e+2, -878040.44, -921409.56, -0.009358646, 0.0000014720345, -0.00012658919, -878040.44, -42235.32, 0.0, 10.000005, 9.942947 
1.8650001e+3, 2.246504e+2, -789754.4, -843144.56, 0.011563339, 0.0000014662703, 0.000121102, -789754.4, -51328.22, 0.0, 10.000005, 9.929906 
1.8650001e+3, 2.3458037e+2, -691320.9, -744966.2, -0.008493323, 0.0000014576636, -0.00008861613, -691320.9, -50208.484, 0.0, 10.000005, 9.929574 
1.8650001e+3, 2.445034e+2, -602996.9, -667018.5, 0.011608652, 0.0000014524076, 0.00007489285, -602996.9, -59130.086, 0.0, 10.000005, 9.916134 
1.8650001e+3, 2.5441965e+2, -504244.25, -568343.06, -0.0113344295, 0.0000014511556, -0.00010656835, -504244.25, -57556.77, 0.0, 10.000005, 9.916034 
1.8650001e+3, 2.6432884e+2, -416008.88, -490987.7, 0.008460139, 0.0000014482132, 0.00014074626, -416008.88, -66431.25, 0.0, 10.000005, 9.901962 
1.8650001e+3, 2.742313e+2, -316723.7, -391374.6, -0.009338761, 0.0000014431083, -0.00020330929, -316723.7, -64190.723, 0.0, 10.000005, 9.902383 
1.8650001e+3, 2.841256e+2, -230250.45, -318081.1, 0.010638032, 0.0000014396136, 0.00022916493, -230250.45, -74681.5, 0.0, 10.000005, 9.885436 
1.8650001e+3, 2.940121e+2, -130544.36, -217764.89, -0.008178197, 0.0000014383314, -0.00025323758, -130544.36, -71862.96, 0.0, 10.000005, 9.886215 
1.8650001e+3, 3.0392656e+2, -40800.4, -84750.07, 0.010544707, 0.000001435925, 0.0001732187, -40800.4, -40800.4, 0.0, 10.000005, 9.94217 
1.8650001e+3, 3.138706e+2, -39722.4, -82511.125, -0.010232641, 0.0000014318321, -0.00005509667, -39722.4, -39722.4, 0.0, 10.000005, 9.943682 
1.8750001e+3, 1.2499338e+2, -1719940.3, -1724224.3, 0.007121824, 0.0000015767852, 0.000018025035, -1719940.3, -4875.4204, 0.0, 10.000005, 9.994325 
1.8750001e+3, 1.3498762e+2, -1622559.9, -1627434.6, -0.017487433, 0.0000015697948, -0.00006803086, -1622559.9, -5438.6904, 0.0, 10.000005, 9.993543 
1.8750001e+3, 1.4497517e+2, -1534458.5, -1548145.9, 0.008614397, 0.0000015599107, 0.0000712898, -1534458.5, -15215.193, 0.0, 10.000005, 9.981862 
1.8750001e+3, 1.5495706e+2, -1436730.9, -1450821.6, -0.015836507, 0.0000015467662, -0.000056634934, -1436730.9, -15310.058, 0.0, 10.000005, 9.981331 
1.8750001e+3, 1.649323e+2, -1348680.0, -1371952.0, 0.005119264, 0.000001538331, 0.00004766773, -1348680.0, -25016.553, 0.0, 10.000005, 9.969246 
1.8750001e+3, 1.7490157e+2, -1250722.0, -1274309.9, -0.01779992, 0.0000015347049, -0.00007351872, -1250722.0, -24757.576, 0.0, 10.000005, 9.968832 
1.8750001e+3, 1.8486424e+2, -1162641.1, -1195719.9, 0.004663371, 0.000001527799, 0.00006644065, -1162641.1, -34310.63, 0.0, 10.000005, 9.956393 
1.8750001e+3, 1.9482067e+2, -1064491.4, -1097832.8, -0.017878303, 0.0000015174601, -0.00005738025, -1064491.4, -33734.004, 0.0, 10.000005, 9.95605 
1.8750001e+3, 2.0477043e+2, -976327.44, -1019434.75, 0.004701001, 0.0000015108733, 0.00006833461, -976327.44, -43077.754, 0.0, 10.000005, 9.943288 
1.8750001e+3, 2.1471377e+2, -878040.5, -921409.7, -0.017133154, 0.0000015083497, -0.00012659084, -878040.5, -42235.37, 0.0, 10.000005, 9.942947 
1.8750001e+3, 2.246504e+2, -789754.4, -843144.7, 0.0046360544, 0.0000015034882, 0.000121099874, -789754.4, -51328.27, 0.0, 10.000005, 9.929906 
1.8750001e+3, 2.3458037e+2, -691320.94, -744966.25, -0.01539308, 0.0000014959778, -0.00008861031, -691320.94, -50208.53, 0.0, 10.000005, 9.929574 
1.8750001e+3, 2.445034e+2, -602996.94, -667018.6, 0.005735052, 0.0000014903966, 0.0000748994, -602996.94, -59130.14, 0.0, 10.000005, 9.916134 
1.8750001e+3, 2.5441965e+2, -504244.3, -568343.2, -0.01715881, 0.0000014871214, -0.000106569685, -504244.3, -57556.824, 0.0, 10.000005, 9.916034 
1.8750001e+3, 2.6432884e+2, -416008.9, -490987.78, 0.003509325, 0.0000014839785, 0.00014074275, -416008.9, -66431.3, 0.0, 10.000005, 9.901962 
1.8750001e+3, 2.742313e+2, -316723.72, -391374.7, -0.014231245, 0.0000014809972, -0.00020330767, -316723.72, -64190.766, 0.0, 10.000005, 9.902383 
1.8750001e+3, 2.841256e+2, -230250.5, -318081.2, 0.0073291967, 0.0000014776034, 0.00022916852, -230250.5, -74681.55, 0.0, 10.000005, 9.885436 
1.8750001e+3, 2.940121e+2, -130544.4, -217764.98, -0.011344545, 0.0000014736432, -0.0002532363, -130544.4, -71863.0, 0.0, 10.000005, 9.886215 
1.8750001e+3, 3.0392656e+2, -40800.445, -84750.17, 0.007985319, 0.0000014711651, 0.00017322019, -40800.445, -40800.445, 0.0, 10.000005, 9.94217 
1.8750001e+3, 3.138706e+2, -39722.445, -82511.23, -0.012720916, 0.0000014708952, -0.000055091114, -39722.445, -39722.445, 0.0, 10.000005, 9.943682 
1.8850003e+3, 1.2499338e+2, -1719939.9, -1724224.1, 0.017197592, 0.000001613752, 0.000018037388, -1719939.9, -4875.06, 0.0, 10.000006, 9.994325 
1.8850003e+3, 1.3498762e+2, -1622559.5, -1627434.5, -0.0075844275, 0.0000016108979, -0.00006803573, -1622559.5, -5438.3135, 0.0, 10.000005, 9.993543 
1.8850003e+3, 1.4497517e+2, -1534458.1, -1548145.8, 0.017250026, 0.0000016015931, 0.00007130478, -1534458.1, -15214.815, 0.0, 10.000005, 9.981862 
1.8850002e+3, 1.5495706e+2, -1436730.5, -1450821.5, -0.007159461, 0.0000015854403, -0.000056626668, -1436730.5, -15309.695, 0.0, 10.000005, 9.981331 
1.8850002e+3, 1.6493231e+2, -1348679.6, -1371951.9, 0.015773611, 0.0000015757869, 0.00004767317, -1348679.6, -25016.193, 0.0, 10.000005, 9.969246 
1.8850002e+3, 1.7490157e+2, -1250721.6, -1274309.8, -0.007949658, 0.0000015727696, -0.000073512136, -1250721.6, -24757.219, 0.0, 10.000005, 9.968832 
1.8850002e+3, 1.8486424e+2, -1162640.8, -1195719.8, 0.014108718, 0.0000015665754, 0.000066447676, -1162640.8, -34310.273, 0.0, 10.000005, 9.956393 
1.8850002e+3, 1.9482067e+2, -1064491.0, -1097832.6, -0.0098182615, 0.0000015570554, -0.00005737351, -1064491.0, -33733.65, 0.0, 10.000005, 9.95605 
1.8850002e+3, 2.0477043e+2, -976327.1, -1019434.7, 0.012995136, 0.0000015500195, 0.00006834059, -976327.1, -43077.402, 0.0, 10.000005, 9.943288 
1.8850002e+3, 2.1471377e+2, -878040.1, -921409.56, -0.010176564, 0.0000015456737, -0.00012658612, -878040.1, -42235.023, 0.0, 10.000005, 9.942947 
1.8850002e+3, 2.246504e+2, -789754.06, -843144.56, 0.010080463, 0.0000015404177, 0.000121103774, -789754.06, -51327.92, 0.0, 10.000005, 9.929905 
1.8850002e+3, 2.3458037e+2, -691320.6, -744966.2, -0.012925425, 0.0000015341293, -0.00008860671, -691320.6, -50208.19, 0.0, 10.000005, 9.929574 
1.8850002e+3, 2.445034e+2, -602996.56, -667018.5, 0.009591921, 0.0000015289758, 0.000074903204, -602996.56, -59129.8, 0.0, 10.000005, 9.916134 
1.8850002e+3, 2.5441965e+2, -504243.97, -568343.06, -0.01007593, 0.0000015251777, -0.00010656509, -504243.97, -57556.484, 0.0, 10.000005, 9.916034 
1.8850002e+3, 2.6432884e+2, -416008.56, -490987.66, 0.011132412, 0.0000015216124, 0.00014074708, -416008.56, -66430.96, 0.0, 10.000005, 9.901962 
1.8850002e+3, 2.742313e+2, -316723.38, -391374.6, -0.011075794, 0.0000015183385, -0.00020330495, -316723.38, -64190.43, 0.0, 10.000005, 9.902383 
1.8850002e+3, 2.841256e+2, -230250.16, -318081.1, 0.008516208, 0.0000015148139, 0.00022917015, -230250.16, -74681.21, 0.0, 10.000005, 9.885436 
1.8850002e+3, 2.940121e+2, -130544.07, -217764.89, -0.0114776315, 0.0000015109432, -0.00025323505, -130544.07, -71862.67, 0.0, 10.000005, 9.886215 
1.8850002e+3, 3.0392656e+2, -40800.12, -84750.08, 0.010469801, 0.0000015086059, 0.00017322198, -40800.12, -40800.12, 0.0, 10.000005, 9.94217 
1.8850002e+3, 3.138706e+2, -39722.113, -82511.13, -0.00500615, 0.0000015085509, -0.00005508743, -39722.113, -39722.113, 0.0, 10.000005, 9.943682 
1.8950002e+3, 1.24993384e+2, -1719940.0, -1724224.3, 0.007925949, 0.000001662319, 0.000018045806, -1719940.0, -4875.129, 0.0, 10.000006, 9.994325 
1.8950002e+3, 1.3498764e+2, -1622559.6, -1627434.5, -0.016857678, 0.0000016455998, -0.00006804438, -1622559.6, -5438.382, 0.0, 10.000005, 9.993543 
1.8950002e+3, 1.4497517e+2, -1534458.3, -1548145.9, 0.0031285032, 0.0000016344238, 0.000071318274, -1534458.3, -15214.882, 0.0, 10.000005, 9.981862 
1.8950002e+3, 1.5495706e+2, -1436730.6, -1450821.6, -0.021288732, 0.00000162846, -0.000056618162, -1436730.6, -15309.76, 0.0, 10.000005, 9.981331 
1.8950002e+3, 1.6493231e+2, -1348679.6, -1371952.0, 0.0056545096, 0.0000016201566, 0.000047678688, -1348679.6, -25016.258, 0.0, 10.000005, 9.969246 
1.8950002e+3, 1.7490159e+2, -1250721.8, -1274309.9, -0.018047757, 0.0000016094643, -0.00007350755, -1250721.8, -24757.28, 0.0, 10.000005, 9.968832 
1.8950002e+3, 1.8486424e+2, -1162640.8, -1195719.8, 0.004392222, 0.000001602274, 0.00006645153, -1162640.8, -34310.336, 0.0, 10.000005, 9.956393 
1.8950002e+3, 1.9482067e+2, -1064491.1, -1097832.8, -0.019530471, 0.0000015987468, -0.000057370147, -1064491.1, -33733.707, 0.0, 10.000005, 9.95605 
1.8950002e+3, 2.0477043e+2, -976327.1, -1019434.75, 0.0048321798, 0.000001592727, 0.00006834627, -976327.1, -43077.46, 0.0, 10.000005, 9.943288 
1.8950002e+3, 2.1471377e+2, -878040.2, -921409.6, -0.018307665, 0.0000015840064, -0.00012657506, -878040.2, -42235.08, 0.0, 10.000005, 9.942947 
1.8950002e+3, 2.246504e+2, -789754.1, -843144.6, 0.0022699682, 0.0000015770588, 0.00012111369, -789754.1, -51327.977, 0.0, 10.000005, 9.929905 
1.8950002e+3, 2.3458037e+2, -691320.6, -744966.25, -0.020725582, 0.0000015721181, -0.000088605324, -691320.6, -50208.246, 0.0, 10.000005, 9.929574 
1.8950002e+3, 2.445034e+2, -602996.6, -667018.6, 0.0038908483, 0.000001568145, 0.00007490426, -602996.6, -59129.848, 0.0, 10.000005, 9.916134 
1.8950002e+3, 2.5441965e+2, -504244.0, -568343.2, -0.015676368, 0.0000015653244, -0.00010655456, -504244.0, -57556.53, 0.0, 10.000005, 9.916034 
1.8950002e+3, 2.6432884e+2, -416008.63, -490987.75, 0.006093483, 0.0000015611146, 0.00014075926, -416008.63, -66431.01, 0.0, 10.000005, 9.901962 
1.8950002e+3, 2.742313e+2, -316723.44, -391374.7, -0.016077222, 0.0000015551325, -0.00020330113, -316723.44, -64190.48, 0.0, 10.000005, 9.902383 
1.8950002e+3, 2.841256e+2, -230250.2, -318081.2, 0.0043980326, 0.0000015512451, 0.0002291698, -230250.2, -74681.266, 0.0, 10.000005, 9.885436 
1.8950002e+3, 2.940121e+2, -130544.11, -217764.98, -0.015516448, 0.0000015502314, -0.00025323383, -130544.11, -71862.72, 0.0, 10.000005, 9.886215 
1.8950002e+3, 3.0392656e+2, -40800.16, -84750.16, 0.008739072, 0.0000015482476, 0.00017322406, -40800.16, -40800.16, 0.0, 10.000005, 9.94217 
1.8950002e+3, 3.138706e+2, -39722.152, -82511.22, -0.006466269, 0.0000015447993, -0.000055085613, -39722.152, -39722.152, 0.0, 10.000005, 9.943682 
1.9050002e+3, 1.24993384e+2, -1719939.6, -1724224.1, 0.02166629, 0.0000017087057, 0.00001806013, -1719939.6, -4874.7217, 0.0, 10.000006, 9.994325 
1.9050002e+3, 1.3498764e+2, -1622559.1, -1627434.4, -0.0048072105, 0.0000016841295, -0.000068047324, -1622559.1, -5438.0054, 0.0, 10.000006, 9.993542 
1.9050002e+3, 1.4497517e+2, -1534457.9, -1548145.8, 0.01480943, 0.0000016712321, 0.00007133669, -1534457.9, -15214.512, 0.0, 10.000006, 9.981862 
1.9050002e+3, 1.5495706e+2, -1436730.3, -1450821.5, -0.009591978, 0.0000016697119, -0.000056608853, -1436730.3, -15309.376, 0.0, 10.000006, 9.98133 
1.9050002e+3, 1.6493231e+2, -1348679.3, -1371951.9, 0.017394798, 0.000001662587, 0.000047684105, -1348679.3, -25015.871, 0.0, 10.000006, 9.969246 
1.9050002e+3, 1.7490159e+2, -1250721.4, -1274309.8, -0.008539799, 0.0000016497395, -0.00007350071, -1250721.4, -24756.904, 0.0, 10.000006, 9.968832 
1.9050002e+3, 1.8486424e+2, -1162640.4, -1195719.6, 0.014319475, 0.0000016420025, 0.00006645857, -1162640.4, -34309.965, 0.0, 10.000006, 9.956392 
1.9050002e+3, 1.9482067e+2, -1064490.8, -1097832.6, -0.010272158, 0.000001639612, -0.00005736421, -1064490.8, -33733.336, 0.0, 10.000006, 9.95605 
1.9050002e+3, 2.0477045e+2, -976326.75, -1019434.6, 0.013996195, 0.0000016332322, 0.0000683523, -976326.75, -43077.09, 0.0, 10.000006, 9.943288 
1.9050002e+3, 2.1471377e+2, -878039.8, -921409.56, -0.009212938, 0.0000016225304, -0.00012656764, -878039.8, -42234.72, 0.0, 10.000006, 9.942947 
1.9050002e+3, 2.246504e+2, -789753.75, -843144.56, 0.013153058, 0.0000016156753, 0.000121120924, -789753.75, -51327.62, 0.0, 10.000006, 9.929905 
1.9050002e+3, 2.3458037e+2, -691320.25, -744966.1, -0.010168553, 0.0000016131753, -0.00008860004, -691320.25, -50207.883, 0.0, 10.000005, 9.929574 
1.9050002e+3, 2.445034e+2, -602996.25, -667018.5, 0.012966531, 0.0000016093876, 0.000074908545, -602996.25, -59129.484, 0.0, 10.000005, 9.916134 
1.9050002e+3, 2.5441965e+2, -504243.63, -568343.06, -0.010896821, 0.0000016040564, -0.000106550135, -504243.63, -57556.176, 0.0, 10.000005, 9.916034 
1.9050002e+3, 2.6432884e+2, -416008.25, -490987.66, 0.0104553895, 0.0000015989791, 0.00014076344, -416008.25, -66430.66, 0.0, 10.000005, 9.901962 
1.9050002e+3, 2.742313e+2, -316723.1, -391374.56, -0.01019894, 0.0000015942273, -0.00020329768, -316723.1, -64190.13, 0.0, 10.000005, 9.902382 
1.9050002e+3, 2.841256e+2, -230249.86, -318081.1, 0.01177901, 0.0000015912212, 0.0002291732, -230249.86, -74680.91, 0.0, 10.000005, 9.885436 
1.9050002e+3, 2.940121e+2, -130543.76, -217764.88, -0.009365079, 0.0000015906011, -0.0002532296, -130543.76, -71862.37, 0.0, 10.000005, 9.886214 
1.9050002e+3, 3.0392656e+2, -40799.81, -84750.06, 0.012093453, 0.0000015880726, 0.00017322684, -40799.81, -40799.81, 0.0, 10.000005, 9.94217 
1.9050002e+3, 3.138706e+2, -39721.816, -82511.125, -0.009226276, 0.0000015826912, -0.000055087683, -39721.816, -39721.816, 0.0, 10.000005, 9.943682 
1.9150002e+3, 1.24993384e+2, -1719939.6, -1724224.3, 0.0054695704, 0.0000017529121, 0.00001808036, -1719939.6, -4874.7954, 0.0, 10.000006, 9.994325 
1.9150002e+3, 1.3498764e+2, -1622559.3, -1627434.5, -0.021007113, 0.000001726487, -0.00006804457, -1622559.3, -5438.078, 0.0, 10.000006, 9.993542 
1.9150002e+3, 1.4497517e+2, -1534457.9, -1548145.9, 0.0042905463, 0.0000017120177, 0.00007136, -1534457.9, -15214.578, 0.0, 10.000006, 9.981862 
1.9150002e+3, 1.5495706e+2, -1436730.3, -1450821.6, -0.02010203, 0.0000017091962, -0.000056598736, -1436730.3, -15309.441, 0.0, 10.000006, 9.98133 
1.9150002e+3, 1.6493231e+2, -1348679.4, -1371952.0, 0.005048749, 0.0000017030782, 0.00004768942, -1348679.4, -25015.94, 0.0, 10.000006, 9.969246 
1.9150002e+3, 1.7490159e+2, -1250721.4, -1274309.9, -0.020895656, 0.0000016935948, -0.00007349162, -1250721.4, -24756.97, 0.0, 10.000006, 9.968832 
1.9150002e+3, 1.8486424e+2, -1162640.5, -1195719.8, 0.0052889986, 0.0000016857606, 0.000066468776, -1162640.5, -34310.027, 0.0, 10.000006, 9.956392 
1.9150002e+3, 1.9482067e+2, -1064490.8, -1097832.8, -0.019264286, 0.0000016796512, -0.00005735569, -1064490.8, -33733.4, 0.0, 10.000006, 9.95605 
1.9150002e+3, 2.0477045e+2, -976326.8, -1019434.75, 0.003964274, 0.0000016715353, 0.00006835869, -976326.8, -43077.15, 0.0, 10.000006, 9.943288 
1.9150002e+3, 2.1471377e+2, -878039.9, -921409.6, -0.019266546, 0.0000016612453, -0.00012656387, -878039.9, -42234.773, 0.0, 10.000006, 9.942946 
1.9150002e+3, 2.246504e+2, -789753.8, -843144.6, 0.006707495, 0.0000016562669, 0.00012112547, -789753.8, -51327.676, 0.0, 10.000006, 9.929905 
1.9150002e+3, 2.3458037e+2, -691320.3, -744966.25, -0.016496256, 0.0000016573008, -0.00008859087, -691320.3, -50207.938, 0.0, 10.000005, 9.929574 
1.9150002e+3, 2.445034e+2, -602996.3, -667018.6, 0.005853041, 0.0000016527039, 0.000074916046, -602996.3, -59129.543, 0.0, 10.000005, 9.916134 
1.9150002e+3, 2.5441965e+2, -504243.7, -568343.2, -0.01804824, 0.0000016413737, -0.00010655182, -504243.7, -57556.23, 0.0, 10.000005, 9.916034 
1.9150002e+3, 2.6432884e+2, -416008.3, -490987.75, 0.005453229, 0.0000016352061, 0.00014075963, -416008.3, -66430.71, 0.0, 10.000005, 9.901962 
1.9150002e+3, 2.742313e+2, -316723.13, -391374.66, -0.015057251, 0.0000016356231, -0.00020329459, -316723.13, -64190.18, 0.0, 10.000005, 9.902382 
1.9150002e+3, 2.841256e+2, -230249.9, -318081.2, 0.0084294835, 0.0000016347419, 0.00022918031, -230249.9, -74680.96, 0.0, 10.000005, 9.885436 
1.9150002e+3, 2.940121e+2, -130543.805, -217764.97, -0.012578867, 0.0000016320523, -0.0002532224, -130543.805, -71862.414, 0.0, 10.000005, 9.886214 
1.9150002e+3, 3.0392656e+2, -40799.86, -84750.164, 0.0077664442, 0.000001628081, 0.00017323032, -40799.86, -40799.86, 0.0, 10.000005, 9.94217 
1.9150002e+3, 3.138706e+2, -39721.867, -82511.23, -0.013684214, 0.0000016222265, -0.000055093646, -39721.867, -39721.867, 0.0, 10.000005, 9.943682 
1.9250003e+3, 1.24993384e+2, -1719939.3, -1724224.1, 0.022788499, 0.0000017954653, 0.000018094497, -1719939.3, -4874.3896, 0.0, 10.000006, 9.994325 
1.9250003e+3, 1.3498764e+2, -1622558.9, -1627434.4, -0.005903353, 0.0000017701312, -0.00006804417, -1622558.9, -5437.665, 0.0, 10.000006, 9.993542 
1.9250003e+3, 1.4497517e+2, -1534457.5, -1548145.8, 0.019958006, 0.0000017555249, 0.00007138304, -1534457.5, -15214.166, 0.0, 10.000006, 9.981862 
1.9250003e+3, 1.5495706e+2, -1436729.9, -1450821.5, -0.007256412, 0.0000017513225, -0.00005659132, -1436729.9, -15309.045, 0.0, 10.000006, 9.98133 
1.9250003e+3, 1.6493231e+2, -1348678.9, -1371951.9, 0.017091064, 0.0000017451924, 0.00004769201, -1348678.9, -25015.549, 0.0, 10.000006, 9.969246 
1.9250003e+3, 1.7490159e+2, -1250721.0, -1274309.8, -0.009423635, 0.0000017370943, -0.00007348282, -1250721.0, -24756.574, 0.0, 10.000006, 9.968832 
1.9250003e+3, 1.8486424e+2, -1162640.0, -1195719.6, 0.017059961, 0.0000017286708, 0.00006647939, -1162640.0, -34309.63, 0.0, 10.000006, 9.956392 
1.9250003e+3, 1.9482067e+2, -1064490.4, -1097832.6, -0.0084416075, 0.0000017199055, -0.00005734785, -1064490.4, -33733.01, 0.0, 10.000006, 9.95605 
1.9250003e+3, 2.0477045e+2, -976326.44, -1019434.6, 0.013724346, 0.0000017119294, 0.00006836465, -976326.44, -43076.766, 0.0, 10.000006, 9.943288 
1.9250003e+3, 2.1471377e+2, -878039.5, -921409.5, -0.013011742, 0.000001704807, -0.00012655882, -878039.5, -42234.387, 0.0, 10.000006, 9.942946 
1.9250003e+3, 2.246504e+2, -789753.4, -843144.5, 0.012636777, 0.0000017000134, 0.00012112992, -789753.4, -51327.29, 0.0, 10.000006, 9.929905 
1.9250003e+3, 2.3458037e+2, -691319.94, -744966.1, -0.011433933, 0.0000016978543, -0.00008858667, -691319.94, -50207.56, 0.0, 10.000006, 9.929574 
1.9250003e+3, 2.445034e+2, -602995.94, -667018.5, 0.010846146, 0.0000016922721, 0.00007492028, -602995.94, -59129.168, 0.0, 10.000006, 9.916134 
1.9250003e+3, 2.5441965e+2, -504243.3, -568343.06, -0.012763115, 0.0000016825974, -0.00010654722, -504243.3, -57555.855, 0.0, 10.000006, 9.916034 
1.9250003e+3, 2.6432884e+2, -416007.94, -490987.63, 0.0113365725, 0.0000016773369, 0.00014076379, -416007.94, -66430.336, 0.0, 10.000006, 9.901962 
1.9250003e+3, 2.742313e+2, -316722.75, -391374.56, -0.012136851, 0.0000016777021, -0.0002032919, -316722.75, -64189.805, 0.0, 10.000006, 9.902382 
1.9250003e+3, 2.841256e+2, -230249.53, -318081.06, 0.010794301, 0.0000016762323, 0.00022918194, -230249.53, -74680.59, 0.0, 10.000006, 9.885436 
1.9250003e+3, 2.940121e+2, -130543.44, -217764.88, -0.00983518, 0.0000016722234, -0.00025322122, -130543.44, -71862.055, 0.0, 10.000006, 9.886214 
1.9250003e+3, 3.0392656e+2, -40799.5, -84750.07, 0.011918255, 0.0000016681984, 0.00017323205, -40799.5, -40799.5, 0.0, 10.000006, 9.94217 
1.9250003e+3, 3.138706e+2, -39721.492, -82511.125, -0.00861291, 0.0000016641756, -0.000055089786, -39721.492, -39721.492, 0.0, 10.000006, 9.943682 
1.9350003e+3, 1.24993384e+2, -1719939.3, -1724224.3, 0.008533756, 0.0000018363656, 0.000018102543, -1719939.3, -4874.4697, 0.0, 10.000006, 9.994325 
1.9350003e+3, 1.3498764e+2, -1622558.9, -1627434.5, -0.020160902, 0.0000018150623, -0.00006804612, -1622558.9, -5437.7437, 0.0, 10.000006, 9.993542 
1.9350003e+3, 1.4497517e+2, -1534457.5, -1548145.9, 0.006054738, 0.0000018017533, 0.000071405775, -1534457.5, -15214.24, 0.0, 10.000006, 9.981862 
1.9350003e+3, 1.5495706e+2, -1436729.9, -1450821.6, -0.021159275, 0.0000017960909, -0.000056586614, -1436729.9, -15309.117, 0.0, 10.000006, 9.98133 
1.9350003e+3, 1.6493231e+2, -1348679.0, -1371952.0, 0.0067321626, 0.0000017889297, 0.000047691876, -1348679.0, -25015.617, 0.0, 10.000006, 9.969246 
1.9350003e+3, 1.7490159e+2, -1250721.0, -1274309.9, -0.019763986, 0.0000017802383, -0.00007347432, -1250721.0, -24756.643, 0.0, 10.000006, 9.968832 
1.9350003e+3, 1.8486424e+2, -1162640.1, -1195719.8, 0.0054087685, 0.0000017707332, 0.00006649041, -1162640.1, -34309.695, 0.0, 10.000006, 9.956392 
1.9350003e+3, 1.9482067e+2, -1064490.4, -1097832.6, -0.020108161, 0.0000017603751, -0.00005734069, -1064490.4, -33733.08, 0.0, 10.000006, 9.95605 
1.9350003e+3, 2.0477045e+2, -976326.5, -1019434.75, 0.005253594, 0.0000017544144, 0.00006837018, -976326.5, -43076.832, 0.0, 10.000006, 9.943288 
1.9350003e+3, 2.1471377e+2, -878039.56, -921409.6, -0.021416616, 0.0000017532154, -0.00012655252, -878039.56, -42234.453, 0.0, 10.000006, 9.942946 
1.9350003e+3, 2.246504e+2, -789753.44, -843144.6, 0.0045225094, 0.0000017469146, 0.00012113425, -789753.44, -51327.348, 0.0, 10.000006, 9.929905 
1.9350003e+3, 2.3458037e+2, -691320.0, -744966.25, -0.019538924, 0.0000017348361, -0.00008858743, -691320.0, -50207.617, 0.0, 10.000006, 9.929574 
1.9350003e+3, 2.445034e+2, -602996.0, -667018.56, 0.0040831976, 0.0000017280929, 0.000074921256, -602996.0, -59129.227, 0.0, 10.000006, 9.916133 
1.9350003e+3, 2.5441965e+2, -504243.38, -568343.1, -0.019461755, 0.0000017277272, -0.00010653633, -504243.38, -57555.914, 0.0, 10.000006, 9.916034 
1.9350003e+3, 2.6432884e+2, -416007.97, -490987.75, 0.0060120295, 0.0000017253708, 0.00014077591, -416007.97, -66430.39, 0.0, 10.000006, 9.901962 
1.9350003e+3, 2.742313e+2, -316722.8, -391374.66, -0.017369509, 0.0000017204645, -0.00020328962, -316722.8, -64189.86, 0.0, 10.000006, 9.902382 
1.9350003e+3, 2.841256e+2, -230249.58, -318081.16, 0.006227294, 0.0000017156925, 0.00022917808, -230249.58, -74680.64, 0.0, 10.000006, 9.885436 
1.9350003e+3, 2.9401213e+2, -130543.484, -217764.97, -0.014342502, 0.0000017111148, -0.00025322614, -130543.484, -71862.1, 0.0, 10.000006, 9.886214 
1.9350003e+3, 3.0392656e+2, -40799.547, -84750.17, 0.010491386, 0.0000017084246, 0.00017323202, -40799.547, -40799.547, 0.0, 10.000006, 9.94217 
1.9350003e+3, 3.138706e+2, -39721.543, -82511.23, -0.009678428, 0.0000017085382, -0.000055076107, -39721.543, -39721.543, 0.0, 10.000006, 9.943682 
1.9450003e+3, 1.24993384e+2, -1719938.9, -1724224.1, 0.02126885, 0.0000018802832, 0.000018119135, -1719938.9, -4874.0396, 0.0, 10.000006, 9.994324 
1.9450003e+3, 1.3498764e+2, -1622558.5, -1627434.4, -0.006270888, 0.0000018605356, -0.00006805104, -1622558.5, -5437.318, 0.0, 10.000006, 9.993542 
1.9450003e+3, 1.4497517e+2, -1534457.1, -1548145.8, 0.020549566, 0.000001847777, 0.000071425384, -1534457.1, -15213.815, 0.0, 10.000006, 9.981862 
1.9450003e+3, 1.5495706e+2, -1436729.5, -1450821.4, -0.00897953, 0.0000018416456, -0.00005657663, -1436729.5, -15308.69, 0.0, 10.000006, 9.98133 
1.9450003e+3, 1.6493231e+2, -1348678.5, -1371951.9, 0.018901775, 0.0000018336265, 0.000047697748, -1348678.5, -25015.193, 0.0, 10.000006, 9.969245 
1.9450003e+3, 1.7490159e+2, -1250720.6, -1274309.8, -0.0086161485, 0.0000018236801, -0.00007346693, -1250720.6, -24756.23, 0.0, 10.000006, 9.968832 
1.9450003e+3, 1.8486424e+2, -1162639.6, -1195719.6, 0.015804624, 0.0000018140126, 0.00006649826, -1162639.6, -34309.29, 0.0, 10.000006, 9.956392 
1.9450003e+3, 1.9482067e+2, -1064490.0, -1097832.5, -0.011892334, 0.0000018046355, -0.0000573335, -1064490.0, -33732.668, 0.0, 10.000006, 9.956049 
1.9450003e+3, 2.0477045e+2, -976326.06, -1019434.56, 0.015181269, 0.0000017991124, 0.00006837672, -976326.06, -43076.42, 0.0, 10.000006, 9.943288 
1.9450003e+3, 2.1471377e+2, -878039.1, -921409.5, -0.010270184, 0.000001797762, -0.0001265466, -878039.1, -42234.047, 0.0, 10.000006, 9.942946 
1.9450003e+3, 2.246504e+2, -789753.06, -843144.5, 0.014828342, 0.0000017905954, 0.00012114036, -789753.06, -51326.945, 0.0, 10.000006, 9.929905 
1.9450003e+3, 2.3458037e+2, -691319.6, -744966.1, -0.012197637, 0.0000017768427, -0.00008858019, -691319.6, -50207.223, 0.0, 10.000006, 9.929574 
1.9450003e+3, 2.445034e+2, -602995.56, -667018.44, 0.012314981, 0.0000017702755, 0.000074927826, -602995.56, -59128.832, 0.0, 10.000006, 9.916133 
1.9450003e+3, 2.5441965e+2, -504242.97, -568343.0, -0.011200308, 0.000001772297, -0.000106532585, -504242.97, -57555.516, 0.0, 10.000006, 9.916034 
1.9450003e+3, 2.6432884e+2, -416007.6, -490987.63, 0.014089683, 0.0000017702343, 0.00014077872, -416007.6, -66430.0, 0.0, 10.000006, 9.901962 
1.9450003e+3, 2.742313e+2, -316722.4, -391374.56, -0.010939239, 0.0000017629526, -0.00020328537, -316722.4, -64189.473, 0.0, 10.000006, 9.902382 
1.9450003e+3, 2.841256e+2, -230249.19, -318081.06, 0.011616534, 0.0000017572644, 0.0002291829, -230249.19, -74680.25, 0.0, 10.000006, 9.885436 
1.9450003e+3, 2.9401213e+2, -130543.09, -217764.86, -0.012084704, 0.0000017537801, -0.00025322198, -130543.09, -71861.71, 0.0, 10.000006, 9.886214 
1.9450003e+3, 3.0392656e+2, -40799.16, -84750.06, 0.012249526, 0.0000017516171, 0.00017323479, -40799.16, -40799.16, 0.0, 10.000006, 9.94217 
1.9450003e+3, 3.138706e+2, -39721.164, -82511.125, -0.008605296, 0.0000017513986, -0.000055075827, -39721.164, -39721.164, 0.0, 10.000006, 9.943682 
1.9550003e+3, 1.2499339e+2, -1719938.9, -1724224.3, 0.006426119, 0.0000019272177, 0.000018144276, -1719938.9, -4874.1177, 0.0, 10.000006, 9.994324 
1.9550003e+3, 1.3498764e+2, -1622558.5, -1627434.5, -0.021116609, 0.000001906551, -0.000068058915, -1622558.5, -5437.3945, 0.0, 10.000006, 9.993542 
1.9550003e+3, 1.4497517e+2, -1534457.1, -1548145.9, 0.007578625, 0.0000018935956, 0.00007144186, -1534457.1, -15213.8955, 0.0, 10.000006, 9.981862 
1.9550003e+3, 1.5495706e+2, -1436729.5, -1450821.5, -0.021947594, 0.0000018879866, -0.00005656137, -1436729.5, -15308.769, 0.0, 10.000006, 9.98133 
1.9550003e+3, 1.6493231e+2, -1348678.6, -1371952.0, 0.005616118, 0.000001879283, 0.000047709622, -1348678.6, -25015.266, 0.0, 10.000006, 9.969245 
1.9550003e+3, 1.7490159e+2, -1250720.6, -1274309.9, -0.021903662, 0.0000018674197, -0.000073460644, -1250720.6, -24756.303, 0.0, 10.000006, 9.968832 
1.9550003e+3, 1.8486424e+2, -1162639.8, -1195719.8, 0.005407764, 0.0000018585091, 0.00006650294, -1162639.8, -34309.36, 0.0, 10.000006, 9.956392 
1.9550003e+3, 1.9482067e+2, -1064490.1, -1097832.6, -0.022255894, 0.0000018526868, -0.000057326277, -1064490.1, -33732.734, 0.0, 10.000006, 9.956049 
1.9550003e+3, 2.0477045e+2, -976326.1, -1019434.7, 0.0061060125, 0.0000018460231, 0.00006838428, -976326.1, -43076.484, 0.0, 10.000006, 9.943288 
1.9550003e+3, 2.1471377e+2, -878039.2, -921409.6, -0.01931906, 0.0000018384474, -0.0001265411, -878039.2, -42234.11, 0.0, 10.000006, 9.942946 
1.9550003e+3, 2.246504e+2, -789753.1, -843144.6, 0.005233638, 0.0000018310564, 0.00012114824, -789753.1, -51327.01, 0.0, 10.000006, 9.929905 
1.9550003e+3, 2.3458037e+2, -691319.7, -744966.25, -0.021810343, 0.0000018238736, -0.00008856495, -691319.7, -50207.29, 0.0, 10.000006, 9.929574 
1.9550003e+3, 2.445034e+2, -602995.6, -667018.56, 0.0063706613, 0.0000018188196, 0.00007493999, -602995.6, -59128.89, 0.0, 10.000006, 9.916133 
1.9550003e+3, 2.5441965e+2, -504243.0, -568343.1, -0.01696866, 0.0000018163067, -0.00010653599, -504243.0, -57555.574, 0.0, 10.000006, 9.916034 
1.9550003e+3, 2.6432884e+2, -416007.66, -490987.75, 0.008077991, 0.0000018119277, 0.00014077219, -416007.66, -66430.055, 0.0, 10.000006, 9.901962 
1.9550003e+3, 2.742313e+2, -316722.47, -391374.66, -0.016967421, 0.0000018051663, -0.00020327917, -316722.47, -64189.53, 0.0, 10.000006, 9.902382 
1.9550003e+3, 2.841256e+2, -230249.23, -318081.16, 0.00745299, 0.0000018009479, 0.00022919638, -230249.23, -74680.31, 0.0, 10.000006, 9.885436 
1.9550003e+3, 2.9401213e+2, -130543.15, -217764.97, -0.016080497, 0.0000018002191, -0.00025320877, -130543.15, -71861.766, 0.0, 10.000006, 9.886214 
1.9550003e+3, 3.0392656e+2, -40799.21, -84750.164, 0.008887382, 0.0000017977757, 0.00017324033, -40799.21, -40799.21, 0.0, 10.000006, 9.94217 
1.9550003e+3, 3.138706e+2, -39721.215, -82511.23, -0.0118933935, 0.0000017927568, -0.000055088938, -39721.215, -39721.215, 0.0, 10.000006, 9.943682 
1.9650002e+3, 1.2499339e+2, -1719938.4, -1724224.0, 0.024630638, 0.00000197412, 0.000018160892, -1719938.4, -4873.6685, 0.0, 10.000007, 9.994324 
1.9650002e+3, 1.3498764e+2, -1622558.0, -1627434.4, -0.0076508825, 0.0000019548586, -0.000068063906, -1622558.0, -5436.943, 0.0, 10.000007, 9.993542 
1.9650002e+3, 1.4497517e+2, -1534456.6, -1548145.6, 0.019910323, 0.0000019416482, 0.00007146335, -1534456.6, -15213.446, 0.0, 10.000007, 9.981861 
1.9650002e+3, 1.5495706e+2, -1436729.1, -1450821.4, -0.008297631, 0.0000019341057, -0.000056551205, -1436729.1, -15308.329, 0.0, 10.000007, 9.98133 
1.9650002e+3, 1.6493231e+2, -1348678.1, -1371951.9, 0.019756392, 0.0000019247163, 0.000047715544, -1348678.1, -25014.83, 0.0, 10.000007, 9.969245 
1.9650002e+3, 1.7490159e+2, -1250720.3, -1274309.6, -0.0101337265, 0.0000019134418, -0.00007345172, -1250720.3, -24755.865, 0.0, 10.000007, 9.968831 
1.9650002e+3, 1.8486424e+2, -1162639.3, -1195719.6, 0.017614702, 0.0000019053166, 0.000066512184, -1162639.3, -34308.92, 0.0, 10.000007, 9.956392 
1.9650002e+3, 1.9482067e+2, -1064489.6, -1097832.5, -0.011036966, 0.0000019004852, -0.000057319492, -1064489.6, -33732.305, 0.0, 10.000007, 9.956049 
1.9650002e+3, 2.0477045e+2, -976325.7, -1019434.56, 0.016428145, 0.0000018925737, 0.00006839046, -976325.7, -43076.06, 0.0, 10.000007, 9.943288 
1.9650002e+3, 2.1471378e+2, -878038.75, -921409.5, -0.011851584, 0.000001881325, -0.00012653353, -878038.75, -42233.69, 0.0, 10.000006, 9.942946 
1.9650002e+3, 2.2465041e+2, -789752.7, -843144.5, 0.013182764, 0.0000018742496, 0.00012115542, -789752.7, -51326.598, 0.0, 10.000006, 9.929905 
1.9650002e+3, 2.3458037e+2, -691319.25, -744966.06, -0.012445711, 0.0000018718978, -0.00008856018, -691319.25, -50206.863, 0.0, 10.000006, 9.929574 
1.9650002e+3, 2.445034e+2, -602995.2, -667018.44, 0.01531444, 0.00000186741, 0.000074943724, -602995.2, -59128.47, 0.0, 10.000006, 9.916133 
1.9650002e+3, 2.5441965e+2, -504242.6, -568343.0, -0.013754656, 0.0000018603646, -0.00010653166, -504242.6, -57555.164, 0.0, 10.000006, 9.916033 
1.9650002e+3, 2.6432884e+2, -416007.22, -490987.63, 0.010281834, 0.000001854419, 0.00014077651, -416007.22, -66429.65, 0.0, 10.000006, 9.901962 
1.9650002e+3, 2.742313e+2, -316722.06, -391374.53, -0.012619818, 0.0000018498774, -0.00020327562, -316722.06, -64189.12, 0.0, 10.000006, 9.902382 
1.9650002e+3, 2.841256e+2, -230248.83, -318081.03, 0.014052571, 0.0000018468643, 0.00022919945, -230248.83, -74679.9, 0.0, 10.000006, 9.885436 
1.9650002e+3, 2.9401213e+2, -130542.74, -217764.84, -0.010099241, 0.0000018459347, -0.00025320577, -130542.74, -71861.36, 0.0, 10.000006, 9.886214 
1.9650002e+3, 3.0392656e+2, -40798.81, -84750.055, 0.013955387, 0.0000018430768, 0.00017324244, -40798.81, -40798.81, 0.0, 10.000006, 9.94217 
1.9650002e+3, 3.138706e+2, -39720.813, -82511.12, -0.0097775925, 0.0000018373398, -0.000055088916, -39720.813, -39720.813, 0.0, 10.000006, 9.943682 
1.9750002e+3, 1.2499339e+2, -1719938.5, -1724224.3, 0.010598627, 0.0000020209907, 0.00001816899, -1719938.5, -4873.758, 0.0, 10.000007, 9.994324 
1.9750002e+3, 1.3498764e+2, -1622558.1, -1627434.5, -0.021685611, 0.000002005458, -0.00006806602, -1622558.1, -5437.0313, 0.0, 10.000007, 9.993542 
1.9750002e+3, 1.4497519e+2, -1534456.8, -1548145.8, 0.0050585954, 0.0000019919344, 0.000071489856, -1534456.8, -15213.523, 0.0, 10.000007, 9.981861 
1.9750002e+3, 1.5495706e+2, -1436729.1, -1450821.5, -0.02315084, 0.0000019800027, -0.000056546134, -1436729.1, -15308.405, 0.0, 10.000007, 9.98133 
1.9750002e+3, 1.6493231e+2, -1348678.3, -1371952.0, 0.007088304, 0.0000019699269, 0.000047715515, -1348678.3, -25014.908, 0.0, 10.000007, 9.969245 
1.9750002e+3, 1.7490159e+2, -1250720.3, -1274309.8, -0.022790434, 0.0000019617466, -0.00007344018, -1250720.3, -24755.943, 0.0, 10.000007, 9.968831 
1.9750002e+3, 1.8486424e+2, -1162639.4, -1195719.8, 0.0062455772, 0.000001954435, 0.000066526, -1162639.4, -34308.996, 0.0, 10.000007, 9.956392 
1.9750002e+3, 1.9482067e+2, -1064489.8, -1097832.6, -0.022391379, 0.0000019480312, -0.00005731314, -1064489.8, -33732.38, 0.0, 10.000007, 9.956049 
1.9750002e+3, 2.0477045e+2, -976325.75, -1019434.7, 0.005695882, 0.0000019387642, 0.000068395246, -976325.75, -43076.133, 0.0, 10.000007, 9.943288 
1.9750002e+3, 2.1471378e+2, -878038.8, -921409.56, -0.022571197, 0.000001926395, -0.0001265239, -878038.8, -42233.76, 0.0, 10.000006, 9.942946 
1.9750002e+3, 2.2465041e+2, -789752.75, -843144.56, 0.005656358, 0.000001920175, 0.00012116191, -789752.75, -51326.66, 0.0, 10.000006, 9.929905 
1.9750002e+3, 2.3458037e+2, -691319.3, -744966.2, -0.019867932, 0.0000019209153, -0.000088565874, -691319.3, -50206.926, 0.0, 10.000006, 9.929574 
1.9750002e+3, 2.445034e+2, -602995.25, -667018.56, 0.0070705283, 0.000001916047, 0.000074939024, -602995.25, -59128.535, 0.0, 10.000006, 9.916133 
1.9750002e+3, 2.5441965e+2, -504242.66, -568343.1, -0.022038175, 0.0000019044707, -0.0001065196, -504242.66, -57555.23, 0.0, 10.000006, 9.916033 
1.9750002e+3, 2.6432884e+2, -416007.28, -490987.72, 0.0048731905, 0.0000018977081, 0.00014079169, -416007.28, -66429.7, 0.0, 10.000006, 9.901961 
1.9750002e+3, 2.742313e+2, -316722.1, -391374.66, -0.017836092, 0.0000018970859, -0.00020327473, -316722.1, -64189.176, 0.0, 10.000006, 9.902382 
1.9750002e+3, 2.841256e+2, -230248.89, -318081.16, 0.009626694, 0.0000018950136, 0.00022919211, -230248.89, -74679.96, 0.0, 10.000006, 9.885436 
1.9750002e+3, 2.9401213e+2, -130542.8, -217764.97, -0.014454162, 0.0000018909266, -0.000253213, -130542.8, -71861.42, 0.0, 10.000006, 9.886214 
1.9750002e+3, 3.0392656e+2, -40798.867, -84750.17, 0.010707228, 0.0000018875207, 0.00017324115, -40798.867, -40798.867, 0.0, 10.000006, 9.94217 
1.9750002e+3, 3.138706e+2, -39720.867, -82511.234, -0.012896104, 0.0000018851474, -0.000055075758, -39720.867, -39720.867, 0.0, 10.000006, 9.943681 
1.9850002e+3, 1.2499339e+2, -1719938.0, -1724224.0, 0.023884118, 0.000002073795, 0.000018182905, -1719938.0, -4873.274, 0.0, 10.000007, 9.994324 
1.9850002e+3, 1.3498764e+2, -1622557.6, -1627434.3, -0.0071952627, 0.0000020527623, -0.00006806935, -1622557.6, -5436.5635, 0.0, 10.000007, 9.993542 
1.9850002e+3, 1.4497519e+2, -1534456.3, -1548145.6, 0.019765928, 0.0000020379273, 0.000071515315, -1534456.3, -15213.06, 0.0, 10.000007, 9.981861 
1.9850002e+3, 1.5495706e+2, -1436728.6, -1450821.4, -0.011157261, 0.0000020288917, -0.00005653768, -1436728.6, -15307.942, 0.0, 10.000007, 9.98133 
1.9850002e+3, 1.6493231e+2, -1348677.8, -1371951.8, 0.019669993, 0.0000020199543, 0.000047718368, -1348677.8, -25014.45, 0.0, 10.000007, 9.969245 
1.9850002e+3, 1.7490159e+2, -1250719.9, -1274309.6, -0.010424642, 0.0000020111174, -0.000073431285, -1250719.9, -24755.486, 0.0, 10.000007, 9.968831 
1.9850002e+3, 1.8486424e+2, -1162638.9, -1195719.6, 0.019080004, 0.0000020027396, 0.00006653679, -1162638.9, -34308.543, 0.0, 10.000007, 9.956392 
1.9850002e+3, 1.9482067e+2, -1064489.3, -1097832.5, -0.0110254055, 0.00000199484, -0.00005730479, -1064489.3, -33731.926, 0.0, 10.000007, 9.956049 
1.9850002e+3, 2.0477045e+2, -976325.3, -1019434.56, 0.016427355, 0.00000198584, 0.00006840228, -976325.3, -43075.68, 0.0, 10.000007, 9.943288 
1.9850002e+3, 2.1471378e+2, -878038.4, -921409.44, -0.01304399, 0.0000019756476, -0.00012651697, -878038.4, -42233.316, 0.0, 10.000007, 9.942946 
1.9850002e+3, 2.2465041e+2, -789752.25, -843144.44, 0.015364161, 0.0000019693832, 0.00012116795, -789752.25, -51326.215, 0.0, 10.000007, 9.929905 
1.9850002e+3, 2.3458037e+2, -691318.8, -744966.06, -0.014203394, 0.0000019675642, -0.000088561574, -691318.8, -50206.49, 0.0, 10.000007, 9.929574 
1.9850002e+3, 2.445034e+2, -602994.8, -667018.44, 0.012658057, 0.0000019620043, 0.0000749435, -602994.8, -59128.1, 0.0, 10.000007, 9.916133 
1.9850002e+3, 2.5441965e+2, -504242.22, -568343.0, -0.012302487, 0.0000019519703, -0.00010651266, -504242.22, -57554.793, 0.0, 10.000007, 9.916033 
1.9850002e+3, 2.6432884e+2, -416006.84, -490987.6, 0.01580676, 0.0000019458025, 0.00014079847, -416006.84, -66429.266, 0.0, 10.000007, 9.901961 
1.9850002e+3, 2.742313e+2, -316721.7, -391374.53, -0.01345901, 0.0000019445638, -0.00020327144, -316721.7, -64188.746, 0.0, 10.000007, 9.902382 
1.9850002e+3, 2.841256e+2, -230248.45, -318081.03, 0.011365255, 0.0000019421368, 0.00022919328, -230248.45, -74679.53, 0.0, 10.000007, 9.885436 
1.9850002e+3, 2.9401213e+2, -130542.37, -217764.84, -0.013029857, 0.0000019380589, -0.00025321203, -130542.37, -71860.99, 0.0, 10.000007, 9.886214 
1.9850002e+3, 3.0392656e+2, -40798.445, -84750.055, 0.013554179, 0.0000019343613, 0.00017324284, -40798.445, -40798.445, 0.0, 10.000007, 9.94217 
1.9850002e+3, 3.138706e+2, -39720.445, -82511.12, -0.009222843, 0.0000019312465, -0.000055072, -39720.445, -39720.445, 0.0, 10.000007, 9.943681 
1.9950002e+3, 1.249934e+2, -1719938.1, -1724224.1, 0.0064764554, 0.000002132533, 0.000018202645, -1719938.1, -4873.3613, 0.0, 10.000007, 9.994324 
1.9950002e+3, 1.3498764e+2, -1622557.8, -1627434.4, -0.024606576, 0.0000020967711, -0.00006807388, -1622557.8, -5436.6494, 0.0, 10.000007, 9.993542 
1.9950002e+3, 1.4497519e+2, -1534456.4, -1548145.8, 0.0049635274, 0.0000020796276, 0.00007153971, -1534456.4, -15213.145, 0.0, 10.000007, 9.981861 
1.9950002e+3, 1.5495707e+2, -1436728.8, -1450821.5, -0.025955722, 0.0000020807727, -0.00005652584, -1436728.8, -15308.025, 0.0, 10.000007, 9.98133 
1.9950002e+3, 1.6493231e+2, -1348677.9, -1371951.9, 0.006711623, 0.000002074798, 0.0000477241, -1348677.9, -25014.53, 0.0, 10.000007, 9.969245 
1.9950002e+3, 1.7490159e+2, -1250719.9, -1274309.8, -0.023373552, 0.0000020615546, -0.00007342505, -1250719.9, -24755.564, 0.0, 10.000007, 9.968831 
1.9950002e+3, 1.8486425e+2, -1162639.0, -1195719.8, 0.0073397737, 0.00000205023, 0.00006654455, -1162639.0, -34308.617, 0.0, 10.000007, 9.956392 
1.9950002e+3, 1.9482067e+2, -1064489.3, -1097832.6, -0.022751821, 0.0000020409116, -0.000057294434, -1064489.3, -33732.004, 0.0, 10.000007, 9.956049 
1.9950002e+3, 2.0477045e+2, -976325.4, -1019434.7, 0.0054103835, 0.0000020338016, 0.00006841155, -976325.4, -43075.754, 0.0, 10.000007, 9.943287 
1.9950002e+3, 2.1471378e+2, -878038.44, -921409.56, -0.024046516, 0.000002029083, -0.00012651276, -878038.44, -42233.387, 0.0, 10.000007, 9.942946 
1.9950002e+3, 2.2465041e+2, -789752.3, -843144.56, 0.006597634, 0.000002021874, 0.00012117355, -789752.3, -51326.29, 0.0, 10.000007, 9.929905 
1.9950002e+3, 2.3458037e+2, -691318.9, -744966.2, -0.022896992, 0.0000020118446, -0.000088547284, -691318.9, -50206.56, 0.0, 10.000007, 9.929573 
1.9950002e+3, 2.445034e+2, -602994.9, -667018.56, 0.005301266, 0.0000020052826, 0.00007495713, -602994.9, -59128.164, 0.0, 10.000007, 9.916133 
1.9950002e+3, 2.5441965e+2, -504242.28, -568343.1, -0.019595372, 0.0000020028635, -0.00010651084, -504242.28, -57554.855, 0.0, 10.000007, 9.916033 
1.9950002e+3, 2.6432884e+2, -416006.9, -490987.72, 0.009153504, 0.000001998702, 0.00014079687, -416006.9, -66429.336, 0.0, 10.000007, 9.901961 
1.9950002e+3, 2.742313e+2, -316721.75, -391374.66, -0.02006956, 0.0000019923114, -0.00020326575, -316721.75, -64188.816, 0.0, 10.000007, 9.902382 
1.9950002e+3, 2.841256e+2, -230248.52, -318081.16, 0.0067475825, 0.0000019882339, 0.00022920297, -230248.52, -74679.59, 0.0, 10.000007, 9.885435 
1.9950002e+3, 2.9401213e+2, -130542.42, -217764.95, -0.017468313, 0.0000019873312, -0.0002532029, -130542.42, -71861.055, 0.0, 10.000007, 9.886214 
1.9950002e+3, 3.0392656e+2, -40798.5, -84750.17, 0.010949284, 0.0000019835982, 0.00017324748, -40798.5, -40798.5, 0.0, 10.000007, 9.94217 
1.9950002e+3, 3.138706e+2, -39720.5, -82511.23, -0.011612888, 0.0000019756374, -0.000055077646, -39720.5, -39720.5, 0.0, 10.000007, 9.943681 
2.0050003e+3, 1.249934e+2, -1719937.6, -1724224.0, 0.028156029, 0.0000021838694, 0.000018225137, -1719937.6, -4872.863, 0.0, 10.000008, 9.994324 
2.0050003e+3, 1.3498765e+2, -1622557.3, -1627434.3, -0.006281971, 0.0000021487156, -0.00006807816, -1622557.3, -5436.157, 0.0, 10.000007, 9.993542 
2.0050003e+3, 1.4497519e+2, -1534455.9, -1548145.6, 0.023900358, 0.000002131535, 0.00007156441, -1534455.9, -15212.654, 0.0, 10.000007, 9.981861 
2.0050003e+3, 1.5495707e+2, -1436728.3, -1450821.4, -0.009016151, 0.0000021319852, -0.000056514178, -1436728.3, -15307.536, 0.0, 10.000007, 9.98133 
2.0050003e+3, 1.6493231e+2, -1348677.4, -1371951.8, 0.022262214, 0.000002125735, 0.000047730267, -1348677.4, -25014.043, 0.0, 10.000007, 9.969245 
2.0050003e+3, 1.7490159e+2, -1250719.4, -1274309.6, -0.011319243, 0.0000021126439, -0.00007341668, -1250719.4, -24755.084, 0.0, 10.000007, 9.968831 
2.0050003e+3, 1.8486425e+2, -1162638.5, -1195719.5, 0.018339995, 0.0000021007354, 0.00006655392, -1162638.5, -34308.14, 0.0, 10.000007, 9.956392 
2.0050003e+3, 1.9482067e+2, -1064488.9, -1097832.5, -0.01223572, 0.0000020900632, -0.000057285335, -1064488.9, -33731.535, 0.0, 10.000007, 9.956049 
2.0050003e+3, 2.0477045e+2, -976324.9, -1019434.5, 0.017431235, 0.0000020832813, 0.00006841932, -976324.9, -43075.29, 0.0, 10.000007, 9.943287 
2.0050003e+3, 2.1471378e+2, -878037.94, -921409.44, -0.013016231, 0.0000020807117, -0.00012650748, -878037.94, -42232.914, 0.0, 10.000007, 9.942946 
2.0050003e+3, 2.2465041e+2, -789751.9, -843144.44, 0.017470583, 0.0000020732518, 0.00012117932, -789751.9, -51325.82, 0.0, 10.000007, 9.929905 
2.0050003e+3, 2.3458037e+2, -691318.44, -744966.06, -0.012557552, 0.0000020602536, -0.00008853765, -691318.44, -50206.098, 0.0, 10.000007, 9.929573 
2.0050003e+3, 2.445034e+2, -602994.44, -667018.4, 0.015199636, 0.0000020530395, 0.000074965894, -602994.44, -59127.707, 0.0, 10.000007, 9.916133 
2.0050003e+3, 2.5441965e+2, -504241.8, -568343.0, -0.014706354, 0.0000020527389, -0.0001065086, -504241.8, -57554.4, 0.0, 10.000007, 9.916033 
2.0050003e+3, 2.6432884e+2, -416006.44, -490987.6, 0.013530219, 0.0000020493337, 0.00014079736, -416006.44, -66428.88, 0.0, 10.000007, 9.901961 
2.0050003e+3, 2.742313e+2, -316721.28, -391374.53, -0.012724131, 0.0000020419598, -0.00020326089, -316721.28, -64188.363, 0.0, 10.000007, 9.902382 
2.0050003e+3, 2.841256e+2, -230248.05, -318081.03, 0.015965011, 0.0000020370965, 0.00022921008, -230248.05, -74679.14, 0.0, 10.000007, 9.885435 
2.0050003e+3, 2.9401213e+2, -130541.97, -217764.83, -0.011359994, 0.000002035686, -0.00025319643, -130541.97, -71860.6, 0.0, 10.000007, 9.886214 
2.0050003e+3, 3.0392656e+2, -40798.055, -84750.05, 0.014713279, 0.0000020321543, 0.00017325151, -40798.055, -40798.055, 0.0, 10.000007, 9.942169 
2.0050003e+3, 3.138706e+2, -39720.06, -82511.11, -0.01221625, 0.000002025445, -0.000055078588, -39720.06, -39720.06, 0.0, 10.000007, 9.943681 
2.0150003e+3, 1.249934e+2, -1719937.6, -1724224.1, 0.009682224, 0.0000022278048, 0.000018250383, -1719937.6, -4872.959, 0.0, 10.000008, 9.994324 
2.0150003e+3, 1.3498765e+2, -1622557.3, -1627434.4, -0.02475954, 0.0000022085949, -0.00006808218, -1622557.3, -5436.2515, 0.0, 10.000007, 9.993542 
2.0150003e+3, 1.4497519e+2, -1534455.9, -1548145.8, 0.009243562, 0.0000021936485, 0.00007158941, -1534455.9, -15212.744, 0.0, 10.000007, 9.981861 
2.0150003e+3, 1.5495707e+2, -1436728.3, -1450821.5, -0.02366714, 0.0000021825297, -0.000056502686, -1436728.3, -15307.624, 0.0, 10.000007, 9.98133 
2.0150003e+3, 1.6493233e+2, -1348677.4, -1371951.9, 0.008339477, 0.0000021727656, 0.00004773686, -1348677.4, -25014.13, 0.0, 10.000007, 9.969245 
2.0150003e+3, 1.7490159e+2, -1250719.5, -1274309.8, -0.025238262, 0.0000021643848, -0.00007340618, -1250719.5, -24755.17, 0.0, 10.000007, 9.968831 
2.0150003e+3, 1.8486425e+2, -1162638.5, -1195719.6, 0.0050552385, 0.0000021542555, 0.00006656489, -1162638.5, -34308.223, 0.0, 10.000007, 9.956392 
2.0150003e+3, 1.9482067e+2, -1064488.9, -1097832.6, -0.025513416, 0.0000021422948, -0.00005727749, -1064488.9, -33731.61, 0.0, 10.000007, 9.956049 
2.0150003e+3, 2.0477045e+2, -976324.94, -1019434.6, 0.007848331, 0.000002134279, 0.00006842559, -976324.94, -43075.367, 0.0, 10.000007, 9.943287 
2.0150003e+3, 2.1471378e+2, -878038.0, -921409.56, -0.022523083, 0.0000021305348, -0.00012650111, -878038.0, -42232.992, 0.0, 10.000007, 9.942946 
2.0150003e+3, 2.2465041e+2, -789751.94, -843144.56, 0.006925883, 0.0000021235167, 0.00012118528, -789751.94, -51325.895, 0.0, 10.000007, 9.929904 
2.0150003e+3, 2.3458037e+2, -691318.5, -744966.2, -0.023136426, 0.0000021127903, -0.00008853267, -691318.5, -50206.17, 0.0, 10.000007, 9.929573 
2.0150003e+3, 2.4450341e+2, -602994.5, -667018.56, 0.0075570014, 0.0000021052747, 0.00007496978, -602994.5, -59127.78, 0.0, 10.000007, 9.916133 
2.0150003e+3, 2.5441965e+2, -504241.88, -568343.1, -0.022208145, 0.0000021015965, -0.000106505955, -504241.88, -57554.47, 0.0, 10.000007, 9.916033 
2.0150003e+3, 2.6432884e+2, -416006.5, -490987.72, 0.0074890153, 0.0000020976981, 0.00014079995, -416006.5, -66428.95, 0.0, 10.000007, 9.901961 
2.0150003e+3, 2.742313e+2, -316721.34, -391374.63, -0.018667761, 0.0000020935088, -0.00020325684, -316721.34, -64188.426, 0.0, 10.000007, 9.902382 
2.0150003e+3, 2.841256e+2, -230248.11, -318081.16, 0.011037226, 0.000002088724, 0.00022921462, -230248.11, -74679.2, 0.0, 10.000007, 9.885435 
2.0150003e+3, 2.9401213e+2, -130542.03, -217764.95, -0.01619654, 0.0000020831237, -0.0002531927, -130542.03, -71860.664, 0.0, 10.000007, 9.886214 
2.0150003e+3, 3.0392656e+2, -40798.117, -84750.18, 0.011114594, 0.00000208003, 0.00017325491, -40798.117, -40798.117, 0.0, 10.000007, 9.942169 
2.0150003e+3, 3.138706e+2, -39720.12, -82511.24, -0.015669871, 0.0000020806688, -0.00005507483, -39720.12, -39720.12, 0.0, 10.000007, 9.943681 
2.0250003e+3, 1.249934e+2, -1719937.1, -1724224.0, 0.025220962, 0.000002278492, 0.000018265835, -1719937.1, -4872.449, 0.0, 10.000008, 9.994324 
2.0250003e+3, 1.3498765e+2, -1622556.8, -1627434.3, -0.008871888, 0.0000022648535, -0.000068087975, -1622556.8, -5435.7266, 0.0, 10.000008, 9.993541 
2.0250003e+3, 1.4497519e+2, -1534455.4, -1548145.5, 0.0246011, 0.0000022509857, 0.00007161639, -1534455.4, -15212.218, 0.0, 10.000008, 9.981861 
2.0250003e+3, 1.5495707e+2, -1436727.8, -1450821.3, -0.010939101, 0.0000022364165, -0.000056492972, -1436727.8, -15307.11, 0.0, 10.000008, 9.98133 
2.0250003e+3, 1.6493233e+2, -1348676.9, -1371951.8, 0.022032186, 0.0000022245556, 0.000047741196, -1348676.9, -25013.623, 0.0, 10.000008, 9.969245 
2.0250003e+3, 1.7490159e+2, -1250719.0, -1274309.6, -0.010052389, 0.0000022154604, -0.00007339508, -1250719.0, -24754.67, 0.0, 10.000008, 9.968831 
2.0250003e+3, 1.8486425e+2, -1162638.0, -1195719.5, 0.02072515, 0.0000022065371, 0.00006657697, -1162638.0, -34307.723, 0.0, 10.000008, 9.956392 
2.0250003e+3, 1.9482069e+2, -1064488.4, -1097832.4, -0.013764525, 0.000002197792, -0.00005727048, -1064488.4, -33731.11, 0.0, 10.000008, 9.956049 
2.0250003e+3, 2.0477045e+2, -976324.44, -1019434.5, 0.018561108, 0.0000021890323, 0.0000684316, -976324.44, -43074.867, 0.0, 10.000008, 9.943287 
2.0250003e+3, 2.1471378e+2, -878037.5, -921409.4, -0.014104016, 0.0000021802564, -0.00012649168, -878037.5, -42232.504, 0.0, 10.000008, 9.942946 
2.0250003e+3, 2.2465041e+2, -789751.44, -843144.4, 0.014785798, 0.0000021726, 0.00012119397, -789751.44, -51325.41, 0.0, 10.000008, 9.929904 
2.0250003e+3, 2.3458037e+2, -691318.0, -744966.0, -0.015651623, 0.0000021662095, -0.00008852945, -691318.0, -50205.684, 0.0, 10.000008, 9.929573 
2.0250003e+3, 2.4450341e+2, -602994.0, -667018.4, 0.016080413, 0.0000021597673, 0.0000749722, -602994.0, -59127.293, 0.0, 10.000007, 9.916133 
2.0250003e+3, 2.5441965e+2, -504241.4, -568342.94, -0.01458013, 0.0000021532605, -0.00010649876, -504241.4, -57553.992, 0.0, 10.000007, 9.916033 
2.0250003e+3, 2.6432884e+2, -416006.03, -490987.56, 0.014946408, 0.0000021479884, 0.00014080785, -416006.03, -66428.48, 0.0, 10.000007, 9.901961 
2.0250003e+3, 2.742313e+2, -316720.88, -391374.5, -0.014812805, 0.0000021442863, -0.00020325347, -316720.88, -64187.953, 0.0, 10.000007, 9.902382 
2.0250003e+3, 2.841256e+2, -230247.64, -318081.0, 0.013589028, 0.0000021399594, 0.0002292154, -230247.64, -74678.734, 0.0, 10.000007, 9.885435 
2.0250003e+3, 2.9401213e+2, -130541.56, -217764.81, -0.013953102, 0.0000021347682, -0.00025319192, -130541.56, -71860.2, 0.0, 10.000007, 9.886214 
2.0250003e+3, 3.0392656e+2, -40797.652, -84750.05, 0.015638558, 0.0000021317232, 0.00017325646, -40797.652, -40797.652, 0.0, 10.000007, 9.942169 
2.0250003e+3, 3.138706e+2, -39719.656, -82511.11, -0.00842271, 0.0000021318756, -0.00005507139, -39719.656, -39719.656, 0.0, 10.000007, 9.943681 
2.0350002e+3, 1.249934e+2, -1719937.3, -1724224.1, 0.010734394, 0.000002335931, 0.0000182715, -1719937.3, -4872.546, 0.0, 10.000008, 9.994324 
2.0350002e+3, 1.3498765e+2, -1622556.9, -1627434.4, -0.023361403, 0.0000023174916, -0.00006809553, -1622556.9, -5435.8213, 0.0, 10.000008, 9.993541 
2.0350002e+3, 1.4497519e+2, -1534455.5, -1548145.8, 0.0073554823, 0.0000023035468, 0.00007164535, -1534455.5, -15212.314, 0.0, 10.000008, 9.981861 
2.0350002e+3, 1.5495707e+2, -1436727.9, -1450821.5, -0.028189156, 0.0000022936451, -0.000056485038, -1436727.9, -15307.205, 0.0, 10.000008, 9.981329 
2.0350002e+3, 1.6493233e+2, -1348677.0, -1371951.9, 0.0070438497, 0.000002281105, 0.00004774327, -1348677.0, -25013.709, 0.0, 10.000008, 9.969245 
2.0350002e+3, 1.749016e+2, -1250719.0, -1274309.8, -0.025029117, 0.000002265871, -0.00007338339, -1250719.0, -24754.754, 0.0, 10.000008, 9.968831 
2.0350002e+3, 1.8486425e+2, -1162638.1, -1195719.6, 0.008264756, 0.0000022575807, 0.00006659016, -1162638.1, -34307.813, 0.0, 10.000008, 9.956391 
2.0350002e+3, 1.9482069e+2, -1064488.5, -1097832.6, -0.02619596, 0.0000022565541, -0.000057264308, -1064488.5, -33731.195, 0.0, 10.000008, 9.956049 
2.0350002e+3, 2.0477045e+2, -976324.5, -1019434.6, 0.0065897903, 0.000002247541, 0.00006843736, -976324.5, -43074.95, 0.0, 10.000008, 9.943287 
2.0350002e+3, 2.1471378e+2, -878037.56, -921409.56, -0.02606607, 0.0000022298768, -0.0001264792, -878037.56, -42232.586, 0.0, 10.000008, 9.942946 
2.0350002e+3, 2.2465041e+2, -789751.5, -843144.56, 0.005509064, 0.0000022205015, 0.000121205376, -789751.5, -51325.49, 0.0, 10.000008, 9.929904 
2.0350002e+3, 2.3458037e+2, -691318.06, -744966.2, -0.02484081, 0.0000022205109, -0.00008852798, -691318.06, -50205.758, 0.0, 10.000008, 9.929573 
2.0350002e+3, 2.4450341e+2, -602994.06, -667018.5, 0.0072655897, 0.0000022165173, 0.00007497316, -602994.06, -59127.37, 0.0, 10.000007, 9.916133 
2.0350002e+3, 2.5441965e+2, -504241.47, -568343.06, -0.023377249, 0.0000022077309, -0.00010648702, -504241.47, -57554.066, 0.0, 10.000007, 9.916033 
2.0350002e+3, 2.6432884e+2, -416006.1, -490987.7, 0.008639068, 0.000002200205, 0.00014082104, -416006.1, -66428.55, 0.0, 10.000007, 9.901961 
2.0350002e+3, 2.742313e+2, -316720.94, -391374.63, -0.020953516, 0.0000021942922, -0.00020325072, -316720.94, -64188.023, 0.0, 10.000007, 9.902381 
2.0350002e+3, 2.841256e+2, -230247.7, -318081.13, 0.008428087, 0.0000021908024, 0.00022921241, -230247.7, -74678.805, 0.0, 10.000007, 9.885435 
2.0350002e+3, 2.9401213e+2, -130541.625, -217764.95, -0.019026093, 0.0000021906196, -0.00025319413, -130541.625, -71860.266, 0.0, 10.000007, 9.886213 
2.0350002e+3, 3.0392656e+2, -40797.71, -84750.17, 0.012457892, 0.0000021872338, 0.00017325615, -40797.71, -40797.71, 0.0, 10.000007, 9.942169 
2.0350002e+3, 3.138706e+2, -39719.715, -82511.234, -0.011381716, 0.0000021790656, -0.00005506827, -39719.715, -39719.715, 0.0, 10.000007, 9.943681 
2.0450002e+3, 1.24993406e+2, -1719936.6, -1724223.9, 0.028993132, 0.000002397784, 0.000018291756, -1719936.6, -4871.983, 0.0, 10.000008, 9.994324 
2.0450002e+3, 1.3498765e+2, -1622556.3, -1627434.3, -0.009510225, 0.00000237075, -0.00006810423, -1622556.3, -5435.2837, 0.0, 10.000008, 9.993541 
2.0450002e+3, 1.4497519e+2, -1534454.9, -1548145.5, 0.02090109, 0.000002354772, 0.00007167099, -1534454.9, -15211.783, 0.0, 10.000008, 9.981861 
2.0450002e+3, 1.5495707e+2, -1436727.4, -1450821.3, -0.0119133135, 0.0000023494301, -0.000056472185, -1436727.4, -15306.671, 0.0, 10.000008, 9.981329 
2.0450002e+3, 1.6493233e+2, -1348676.4, -1371951.6, 0.02378106, 0.0000023388038, 0.000047750284, -1348676.4, -25013.176, 0.0, 10.000008, 9.969245 
2.0450002e+3, 1.749016e+2, -1250718.5, -1274309.5, -0.013160586, 0.0000023227826, -0.0000733751, -1250718.5, -24754.227, 0.0, 10.000008, 9.968831 
2.0450002e+3, 1.8486425e+2, -1162637.5, -1195719.5, 0.020771727, 0.0000023130515, 0.00006659934, -1162637.5, -34307.285, 0.0, 10.000008, 9.956391 
2.0450002e+3, 1.9482069e+2, -1064487.9, -1097832.4, -0.013086389, 0.0000023099005, -0.000057254616, -1064487.9, -33730.67, 0.0, 10.000008, 9.956049 
2.0450002e+3, 2.0477045e+2, -976324.0, -1019434.44, 0.01954947, 0.00000230084, 0.00006844659, -976324.0, -43074.43, 0.0, 10.000008, 9.943287 
2.0450002e+3, 2.1471378e+2, -878037.06, -921409.4, -0.014023688, 0.0000022853778, -0.00012647145, -878037.06, -42232.07, 0.0, 10.000008, 9.9429455 
2.0450002e+3, 2.2465041e+2, -789751.0, -843144.4, 0.018588273, 0.0000022764295, 0.00012121258, -789751.0, -51324.977, 0.0, 10.000008, 9.929904 
2.0450002e+3, 2.3458037e+2, -691317.56, -744966.0, -0.014739832, 0.0000022748561, -0.000088520224, -691317.56, -50205.254, 0.0, 10.000008, 9.929573 
2.0450002e+3, 2.4450341e+2, -602993.56, -667018.4, 0.01632382, 0.000002270169, 0.00007498029, -602993.56, -59126.863, 0.0, 10.000008, 9.916133 
2.0450002e+3, 2.5441965e+2, -504240.94, -568342.94, -0.015640004, 0.0000022617537, -0.000106481915, -504240.94, -57553.56, 0.0, 10.000008, 9.916033 
2.0450002e+3, 2.6432884e+2, -416005.6, -490987.56, 0.016274154, 0.0000022542606, 0.00014082526, -416005.6, -66428.04, 0.0, 10.000008, 9.901961 
2.0450002e+3, 2.742313e+2, -316720.44, -391374.5, -0.014494352, 0.000002247948, -0.00020324593, -316720.44, -64187.527, 0.0, 10.000008, 9.902381 
2.0450002e+3, 2.841256e+2, -230247.2, -318081.0, 0.015574213, 0.0000022445276, 0.00022921742, -230247.2, -74678.31, 0.0, 10.000008, 9.885435 
2.0450002e+3, 2.9401213e+2, -130541.125, -217764.81, -0.013099746, 0.0000022450583, -0.00025318938, -130541.125, -71859.77, 0.0, 10.000008, 9.886213 
2.0450002e+3, 3.0392656e+2, -40797.223, -84750.04, 0.016508704, 0.0000022413612, 0.00017325926, -40797.223, -40797.223, 0.0, 10.000008, 9.942169 
2.0450002e+3, 3.138706e+2, -39719.227, -82511.1, -0.013272248, 0.0000022313548, -0.000055068704, -39719.227, -39719.227, 0.0, 10.000008, 9.943681 
2.0550002e+3, 1.24993406e+2, -1719936.8, -1724224.0, 0.00910578, 0.0000024640512, 0.000018326607, -1719936.8, -4872.0903, 0.0, 10.000008, 9.994323 
2.0550002e+3, 1.3498765e+2, -1622556.4, -1627434.4, -0.02940164, 0.0000024246285, -0.00006811408, -1622556.4, -5435.389, 0.0, 10.000008, 9.993541 
2.0550002e+3, 1.4497519e+2, -1534455.0, -1548145.6, 0.004725021, 0.0000024046615, 0.000071693314, -1534455.0, -15211.875, 0.0, 10.000008, 9.981861 
2.0550002e+3, 1.5495707e+2, -1436727.4, -1450821.4, -0.02808388, 0.0000024037718, -0.00005645442, -1436727.4, -15306.761, 0.0, 10.000008, 9.981329 
2.0550002e+3, 1.6493233e+2, -1348676.5, -1371951.9, 0.008177323, 0.0000023976527, 0.000047762238, -1348676.5, -25013.273, 0.0, 10.000008, 9.969245 
2.0550002e+3, 1.749016e+2, -1250718.5, -1274309.8, -0.028761536, 0.0000023861946, -0.000073370225, -1250718.5, -24754.322, 0.0, 10.000008, 9.968831 
2.0550002e+3, 1.8486425e+2, -1162637.6, -1195719.6, 0.008241287, 0.0000023729492, 0.00006660452, -1162637.6, -34307.375, 0.0, 10.000008, 9.956391 
2.0550002e+3, 1.9482069e+2, -1064488.0, -1097832.5, -0.025581565, 0.0000023578314, -0.000057241406, -1064488.0, -33730.76, 0.0, 10.000008, 9.956049 
2.0550002e+3, 2.0477045e+2, -976324.06, -1019434.6, 0.006450639, 0.0000023489297, 0.0000684593, -976324.06, -43074.516, 0.0, 10.000008, 9.943287 
2.0550002e+3, 2.1471378e+2, -878037.1, -921409.5, -0.027135246, 0.0000023467587, -0.00012646847, -878037.1, -42232.156, 0.0, 10.000008, 9.9429455 
2.0550002e+3, 2.2465041e+2, -789751.06, -843144.5, 0.008596871, 0.0000023403834, 0.00012121557, -789751.06, -51325.06, 0.0, 10.000008, 9.929904 
2.0550002e+3, 2.3458038e+2, -691317.6, -744966.1, -0.02462948, 0.000002329245, -0.00008850619, -691317.6, -50205.336, 0.0, 10.000008, 9.929573 
2.0550002e+3, 2.4450341e+2, -602993.6, -667018.5, 0.008481504, 0.0000023207228, 0.0000749936, -602993.6, -59126.945, 0.0, 10.000008, 9.916132 
2.0550002e+3, 2.5441965e+2, -504241.03, -568343.06, -0.023384202, 0.000002315329, -0.00010648344, -504241.03, -57553.637, 0.0, 10.000008, 9.916033 
2.0550002e+3, 2.6432884e+2, -416005.66, -490987.7, 0.008395087, 0.0000023101559, 0.0001408205, -416005.66, -66428.12, 0.0, 10.000008, 9.901961 
2.0550002e+3, 2.742313e+2, -316720.5, -391374.63, -0.022382783, 0.0000023052535, -0.00020323909, -316720.5, -64187.6, 0.0, 10.000008, 9.902381 
2.0550002e+3, 2.841256e+2, -230247.28, -318081.13, 0.010617232, 0.0000023011346, 0.00022923041, -230247.28, -74678.38, 0.0, 10.000008, 9.885435 
2.0550002e+3, 2.9401213e+2, -130541.195, -217764.94, -0.017792996, 0.0000022980846, -0.00025317774, -130541.195, -71859.84, 0.0, 10.000008, 9.886213 
2.0550002e+3, 3.0392656e+2, -40797.293, -84750.18, 0.01299102, 0.000002294106, 0.00017326583, -40797.293, -40797.293, 0.0, 10.000008, 9.942169 
2.0550002e+3, 3.138706e+2, -39719.297, -82511.24, -0.016652223, 0.0000022887427, -0.00005507269, -39719.297, -39719.297, 0.0, 10.000008, 9.943681 
2.0650002e+3, 1.24993406e+2, -1719936.1, -1724223.9, 0.03157353, 0.000002522838, 0.00001834936, -1719936.1, -4871.5127, 0.0, 10.000009, 9.994323 
2.0650002e+3, 1.3498765e+2, -1622555.8, -1627434.1, -0.007076937, 0.000002484857, -0.000068117166, -1622555.8, -5434.819, 0.0, 10.000009, 9.993541 
2.0650002e+3, 1.4497519e+2, -1534454.4, -1548145.5, 0.027574578, 0.0000024643211, 0.000071725146, -1534454.4, -15211.306, 0.0, 10.000009, 9.981861 
2.0650002e+3, 1.5495707e+2, -1436726.8, -1450821.3, -0.011391812, 0.0000024608298, -0.00005644405, -1436726.8, -15306.2, 0.0, 10.000009, 9.981329 
2.0650002e+3, 1.6493233e+2, -1348675.9, -1371951.6, 0.023668254, 0.0000024545975, 0.000047765698, -1348675.9, -25012.719, 0.0, 10.000009, 9.969244 
2.0650002e+3, 1.749016e+2, -1250718.0, -1274309.5, -0.013695361, 0.000002445568, -0.00007335881, -1250718.0, -24753.762, 0.0, 10.000009, 9.968831 
2.0650002e+3, 1.8486425e+2, -1162637.1, -1195719.4, 0.022360746, 0.000002432021, 0.000066618246, -1162637.1, -34306.816, 0.0, 10.000009, 9.956391 
2.0650002e+3, 1.9482069e+2, -1064487.4, -1097832.4, -0.013726884, 0.0000024137448, -0.000057231282, -1064487.4, -33730.223, 0.0, 10.000008, 9.956048 
2.0650002e+3, 2.0477046e+2, -976323.5, -1019434.44, 0.019100277, 0.0000024045905, 0.00006846676, -976323.5, -43073.98, 0.0, 10.000008, 9.943287 
2.0650002e+3, 2.1471378e+2, -878036.56, -921409.3, -0.01614744, 0.0000024053145, -0.00012646266, -878036.56, -42231.613, 0.0, 10.000008, 9.9429455 
2.0650002e+3, 2.2465041e+2, -789750.5, -843144.3, 0.018766794, 0.000002399205, 0.0001212214, -789750.5, -51324.516, 0.0, 10.000008, 9.929904 
2.0650002e+3, 2.3458038e+2, -691317.06, -744966.0, -0.01688297, 0.0000023853554, -0.00008849843, -691317.06, -50204.797, 0.0, 10.000008, 9.929573 
2.0650002e+3, 2.4450341e+2, -602993.06, -667018.4, 0.016345317, 0.0000023757593, 0.000075001364, -602993.06, -59126.41, 0.0, 10.000008, 9.916132 
2.0650002e+3, 2.5441965e+2, -504240.5, -568342.94, -0.016088584, 0.0000023712505, -0.00010647794, -504240.5, -57553.113, 0.0, 10.000008, 9.916033 
2.0650002e+3, 2.6432884e+2, -416005.13, -490987.53, 0.016430125, 0.0000023668736, 0.00014082486, -416005.13, -66427.6, 0.0, 10.000008, 9.901961 
2.0650002e+3, 2.742313e+2, -316719.97, -391374.47, -0.015478324, 0.0000023626503, -0.00020323445, -316719.97, -64187.08, 0.0, 10.000008, 9.902381 
2.0650002e+3, 2.841256e+2, -230246.75, -318080.97, 0.017093124, 0.000002358055, 0.00022923482, -230246.75, -74677.85, 0.0, 10.000008, 9.885435 
2.0650002e+3, 2.9401213e+2, -130540.67, -217764.8, -0.014575211, 0.000002352948, -0.00025317428, -130540.67, -71859.32, 0.0, 10.000008, 9.886213 
2.0650002e+3, 3.0392656e+2, -40796.777, -84750.04, 0.016382143, 0.0000023488383, 0.00017326884, -40796.777, -40796.777, 0.0, 10.000008, 9.942169 
2.0650002e+3, 3.138706e+2, -39718.78, -82511.1, -0.011775669, 0.0000023462185, -0.00005506944, -39718.78, -39718.78, 0.0, 10.000008, 9.943681 
2.0750003e+3, 1.24993406e+2, -1719936.3, -1724224.0, 0.010463966, 0.000002574145, 0.00001836002, -1719936.3, -4871.6216, 0.0, 10.000009, 9.994323 
2.0750003e+3, 1.3498765e+2, -1622555.9, -1627434.4, -0.028190905, 0.0000025514348, -0.0000681135, -1622555.9, -5434.926, 0.0, 10.000009, 9.993541 
2.0750003e+3, 1.449752e+2, -1534454.5, -1548145.6, 0.009888152, 0.0000025337501, 0.00007176649, -1534454.5, -15211.412, 0.0, 10.000009, 9.98186 
2.0750003e+3, 1.5495707e+2, -1436726.9, -1450821.4, -0.029073112, 0.0000025206036, -0.000056441073, -1436726.9, -15306.305, 0.0, 10.000009, 9.981329 
2.0750003e+3, 1.6493233e+2, -1348676.0, -1371951.8, 0.009534126, 0.0000025096392, 0.000047760663, -1348676.0, -25012.818, 0.0, 10.000009, 9.969244 
2.0750003e+3, 1.749016e+2, -1250718.1, -1274309.8, -0.027810993, 0.0000025009033, -0.00007334086, -1250718.1, -24753.86, 0.0, 10.000009, 9.96883 
2.0750003e+3, 1.8486425e+2, -1162637.1, -1195719.6, 0.0057991906, 0.0000024902668, 0.00006664051, -1162637.1, -34306.91, 0.0, 10.000009, 9.956391 
2.0750003e+3, 1.9482069e+2, -1064487.5, -1097832.5, -0.030317063, 0.00000247764, -0.000057224242, -1064487.5, -33730.313, 0.0, 10.000008, 9.956048 
2.0750003e+3, 2.0477046e+2, -976323.56, -1019434.56, 0.008585512, 0.0000024678222, 0.000068468966, -976323.56, -43074.07, 0.0, 10.000008, 9.943287 
2.0750003e+3, 2.1471378e+2, -878036.6, -921409.5, -0.026537074, 0.0000024610456, -0.00012645405, -878036.6, -42231.7, 0.0, 10.000008, 9.9429455 
2.0750003e+3, 2.2465041e+2, -789750.56, -843144.5, 0.0076437243, 0.0000024528952, 0.000121230056, -789750.56, -51324.605, 0.0, 10.000008, 9.929904 
2.0750003e+3, 2.3458038e+2, -691317.2, -744966.1, -0.028030237, 0.0000024431872, -0.00008849698, -691317.2, -50204.887, 0.0, 10.000008, 9.929573 
2.0750003e+3, 2.4450341e+2, -602993.1, -667018.5, 0.006568408, 0.000002435278, 0.0000750036, -602993.1, -59126.492, 0.0, 10.000008, 9.916132 
2.0750003e+3, 2.5441965e+2, -504240.56, -568343.06, -0.02580003, 0.0000024295177, -0.000106465406, -504240.56, -57553.19, 0.0, 10.000008, 9.916032 
2.0750003e+3, 2.6432884e+2, -416005.2, -490987.7, 0.010057509, 0.000002424414, 0.00014083833, -416005.2, -66427.68, 0.0, 10.000008, 9.901961 
2.0750003e+3, 2.742313e+2, -316720.03, -391374.63, -0.021627469, 0.0000024201386, -0.000203232, -316720.03, -64187.152, 0.0, 10.000008, 9.902381 
2.0750003e+3, 2.841256e+2, -230246.81, -318081.13, 0.011372194, 0.0000024152891, 0.00022923066, -230246.81, -74677.93, 0.0, 10.000008, 9.885435 
2.0750003e+3, 2.9401213e+2, -130540.74, -217764.94, -0.020257868, 0.0000024096485, -0.00025317897, -130540.74, -71859.4, 0.0, 10.000008, 9.886213 
2.0750003e+3, 3.0392656e+2, -40796.848, -84750.18, 0.013065278, 0.0000024055585, 0.0001732683, -40796.848, -40796.848, 0.0, 10.000008, 9.942169 
2.0750003e+3, 3.138706e+2, -39718.85, -82511.24, -0.01481523, 0.000002403782, -0.00005505894, -39718.85, -39718.85, 0.0, 10.000008, 9.943681 
2.0850003e+3, 1.2499341e+2, -1719935.6, -1724223.8, 0.02899456, 0.0000026317675, 0.000018377648, -1719935.6, -4871.033, 0.0, 10.000009, 9.994323 
2.0850003e+3, 1.3498767e+2, -1622555.3, -1627434.1, -0.00955904, 0.0000026144348, -0.00006812093, -1622555.3, -5434.3228, 0.0, 10.000009, 9.993541 
2.0850003e+3, 1.449752e+2, -1534453.9, -1548145.4, 0.02821643, 0.0000025985933, 0.000071798466, -1534453.9, -15210.809, 0.0, 10.000009, 9.98186 
2.0850003e+3, 1.5495707e+2, -1436726.3, -1450821.1, -0.013476784, 0.0000025837235, -0.00005642933, -1436726.3, -15305.708, 0.0, 10.000009, 9.981329 
2.0850003e+3, 1.6493233e+2, -1348675.4, -1371951.6, 0.025994655, 0.0000025699906, 0.000047765483, -1348675.4, -25012.227, 0.0, 10.000009, 9.969244 
2.0850003e+3, 1.749016e+2, -1250717.5, -1274309.5, -0.011154199, 0.0000025574186, -0.00007332936, -1250717.5, -24753.287, 0.0, 10.000009, 9.96883 
2.0850003e+3, 1.8486425e+2, -1162636.5, -1195719.4, 0.022470282, 0.0000025480072, 0.00006665328, -1162636.5, -34306.34, 0.0, 10.000009, 9.956391 
2.0850003e+3, 1.9482069e+2, -1064486.9, -1097832.4, -0.016682541, 0.0000025419006, -0.0000572159, -1064486.9, -33729.73, 0.0, 10.000009, 9.956048 
2.0850003e+3, 2.0477046e+2, -976323.0, -1019434.4, 0.02166559, 0.0000025321945, 0.00006847658, -976323.0, -43073.49, 0.0, 10.000009, 9.943287 
2.0850003e+3, 2.1471378e+2, -878036.06, -921409.3, -0.016622685, 0.0000025185884, -0.00012644318, -878036.06, -42231.137, 0.0, 10.000009, 9.9429455 
2.0850003e+3, 2.2465041e+2, -789750.0, -843144.3, 0.017666858, 0.000002508451, 0.00012124054, -789750.0, -51324.047, 0.0, 10.000009, 9.929904 
2.0850003e+3, 2.3458038e+2, -691316.6, -744965.94, -0.016498664, 0.0000025022396, -0.000088491004, -691316.6, -50204.33, 0.0, 10.000009, 9.929573 
2.0850003e+3, 2.4450341e+2, -602992.56, -667018.3, 0.018890303, 0.0000024960325, 0.00007500815, -602992.56, -59125.938, 0.0, 10.000009, 9.916132 
2.0850003e+3, 2.5441965e+2, -504240.0, -568342.9, -0.017184362, 0.0000024898243, -0.00010645859, -504240.0, -57552.637, 0.0, 10.000009, 9.916032 
2.0850003e+3, 2.6432884e+2, -416004.63, -490987.5, 0.017636813, 0.0000024837946, 0.0001408452, -416004.63, -66427.125, 0.0, 10.000009, 9.90196 
2.0850003e+3, 2.742313e+2, -316719.47, -391374.44, -0.016998732, 0.0000024779895, -0.00020322792, -316719.47, -64186.605, 0.0, 10.000009, 9.902381 
2.0850003e+3, 2.841256e+2, -230246.27, -318080.97, 0.015557472, 0.0000024729632, 0.00022923331, -230246.27, -74677.39, 0.0, 10.000009, 9.885435 
2.0850003e+3, 2.9401213e+2, -130540.195, -217764.78, -0.015574793, 0.0000024689998, -0.0002531759, -130540.195, -71858.85, 0.0, 10.000009, 9.886213 
2.0850003e+3, 3.0392656e+2, -40796.31, -84750.03, 0.018629314, 0.0000024649107, 0.00017327117, -40796.31, -40796.31, 0.0, 10.000009, 9.942169 
2.0850003e+3, 3.138706e+2, -39718.316, -82511.09, -0.011425126, 0.0000024606295, -0.000055057113, -39718.316, -39718.316, 0.0, 10.000009, 9.94368 
2.0950003e+3, 1.2499341e+2, -1719935.6, -1724224.0, 0.011856527, 0.0000026957046, 0.00001840225, -1719935.6, -4871.1426, 0.0, 10.000009, 9.994323 
2.0950003e+3, 1.3498767e+2, -1622555.4, -1627434.3, -0.026700636, 0.0000026738578, -0.00006813945, -1622555.4, -5434.43, 0.0, 10.000009, 9.993541 
2.0950003e+3, 1.449752e+2, -1534454.0, -1548145.6, 0.009492372, 0.0000026588511, 0.000071821094, -1534454.0, -15210.923, 0.0, 10.000009, 9.98186 
2.0950003e+3, 1.5495709e+2, -1436726.4, -1450821.4, -0.032203384, 0.000002650189, -0.000056408822, -1436726.4, -15305.819, 0.0, 10.000009, 9.981329 
2.0950003e+3, 1.6493233e+2, -1348675.5, -1371951.8, 0.007876795, 0.000002635651, 0.000047780162, -1348675.5, -25012.326, 0.0, 10.000009, 9.969244 
2.0950003e+3, 1.749016e+2, -1250717.6, -1274309.6, -0.0292693, 0.000002615114, -0.000073324285, -1250717.6, -24753.385, 0.0, 10.000009, 9.96883 
2.0950003e+3, 1.8486425e+2, -1162636.6, -1195719.6, 0.009462285, 0.0000026052417, 0.000066656554, -1162636.6, -34306.44, 0.0, 10.000009, 9.956391 
2.0950003e+3, 1.9482069e+2, -1064487.0, -1097832.5, -0.029631639, 0.000002606527, -0.000057206256, -1064487.0, -33729.832, 0.0, 10.000009, 9.956048 
2.0950003e+3, 2.0477046e+2, -976323.06, -1019434.56, 0.0076610944, 0.0000025977074, 0.000068489586, -976323.06, -43073.586, 0.0, 10.000009, 9.943286 
2.0950003e+3, 2.1471378e+2, -878036.2, -921409.5, -0.030649228, 0.0000025779425, -0.00012643007, -878036.2, -42231.23, 0.0, 10.000009, 9.9429455 
2.0950003e+3, 2.2465041e+2, -789750.06, -843144.5, 0.0065207863, 0.0000025658717, 0.00012125285, -789750.06, -51324.133, 0.0, 10.000009, 9.929904 
2.0950003e+3, 2.3458038e+2, -691316.7, -744966.1, -0.027550938, 0.0000025625127, -0.000088480505, -691316.7, -50204.414, 0.0, 10.000009, 9.929572 
2.0950003e+3, 2.4450341e+2, -602992.7, -667018.5, 0.009766128, 0.0000025580223, 0.00007501502, -602992.7, -59126.023, 0.0, 10.000009, 9.916132 
2.0950003e+3, 2.5441965e+2, -504240.06, -568343.06, -0.026216201, 0.0000025521697, -0.00010645749, -504240.06, -57552.723, 0.0, 10.000009, 9.916032 
2.0950003e+3, 2.6432884e+2, -416004.72, -490987.66, 0.010086371, 0.0000025450147, 0.00014084547, -416004.72, -66427.21, 0.0, 10.000009, 9.90196 
2.0950003e+3, 2.742313e+2, -316719.56, -391374.63, -0.024450166, 0.0000025362028, -0.00020322218, -316719.56, -64186.688, 0.0, 10.000009, 9.902381 
2.0950003e+3, 2.841256e+2, -230246.34, -318081.13, 0.00998296, 0.0000025310771, 0.00022924275, -230246.34, -74677.46, 0.0, 10.000009, 9.885435 
2.0950003e+3, 2.9401213e+2, -130540.266, -217764.94, -0.020980615, 0.0000025310017, -0.00025316514, -130540.266, -71858.93, 0.0, 10.000009, 9.886213 
2.0950003e+3, 3.0392656e+2, -40796.38, -84750.18, 0.014276481, 0.0000025268948, 0.00017327744, -40796.38, -40796.38, 0.0, 10.000009, 9.942169 
2.0950003e+3, 3.138706e+2, -39718.387, -82511.25, -0.015654828, 0.000002516761, -0.000055063963, -39718.387, -39718.387, 0.0, 10.000009, 9.94368 
2.1050003e+3, 1.2499341e+2, -1719935.0, -1724223.8, 0.034251384, 0.0000027655194, 0.00001842949, -1719935.0, -4870.498, 0.0, 10.00001, 9.994323 
2.1050003e+3, 1.3498767e+2, -1622554.6, -1627434.1, -0.012030508, 0.0000027354538, -0.000068151945, -1622554.6, -5433.8076, 0.0, 10.00001, 9.993541 
2.1050003e+3, 1.449752e+2, -1534453.3, -1548145.4, 0.023715837, 0.0000027181711, 0.00007184866, -1534453.3, -15210.304, 0.0, 10.00001, 9.98186 
2.1050003e+3, 1.5495709e+2, -1436725.8, -1450821.1, -0.012704547, 0.0000027132012, -0.00005639269, -1436725.8, -15305.202, 0.0, 10.00001, 9.981329 
2.1050003e+3, 1.6493233e+2, -1348674.9, -1371951.5, 0.027524093, 0.0000027010476, 0.00004779004, -1348674.9, -25011.713, 0.0, 10.00001, 9.969244 
2.1050003e+3, 1.749016e+2, -1250716.9, -1274309.5, -0.016409589, 0.0000026815599, -0.00007331536, -1250716.9, -24752.771, 0.0, 10.000009, 9.96883 
2.1050003e+3, 1.8486427e+2, -1162636.0, -1195719.4, 0.023181068, 0.0000026696498, 0.00006666575, -1162636.0, -34305.832, 0.0, 10.000009, 9.956391 
2.1050003e+3, 1.9482069e+2, -1064486.4, -1097832.3, -0.015408646, 0.0000026656667, -0.000057195506, -1064486.4, -33729.23, 0.0, 10.000009, 9.956048 
2.1050003e+3, 2.0477046e+2, -976322.5, -1019434.4, 0.022016812, 0.0000026564214, 0.000068500296, -976322.5, -43072.992, 0.0, 10.000009, 9.943286 
2.1050003e+3, 2.1471378e+2, -878035.56, -921409.3, -0.016222727, 0.0000026414757, -0.00012642112, -878035.56, -42230.637, 0.0, 10.000009, 9.9429455 
2.1050003e+3, 2.2465041e+2, -789749.5, -843144.25, 0.021247836, 0.0000026310443, 0.00012126098, -789749.5, -51323.54, 0.0, 10.000009, 9.929904 
2.1050003e+3, 2.3458038e+2, -691316.06, -744965.94, -0.018016584, 0.000002625723, -0.00008847216, -691316.06, -50203.824, 0.0, 10.000009, 9.929572 
2.1050003e+3, 2.4450341e+2, -602992.06, -667018.3, 0.018157102, 0.000002619721, 0.00007502223, -602992.06, -59125.44, 0.0, 10.000009, 9.916132 
2.1050003e+3, 2.5441965e+2, -504239.5, -568342.9, -0.018841198, 0.0000026128987, -0.00010645303, -504239.5, -57552.14, 0.0, 10.000009, 9.916032 
2.1050003e+3, 2.6432884e+2, -416004.13, -490987.5, 0.01791085, 0.0000026054956, 0.00014084934, -416004.13, -66426.625, 0.0, 10.000009, 9.90196 
2.1050003e+3, 2.742313e+2, -316718.97, -391374.44, -0.01650643, 0.0000025973536, -0.00020321614, -316718.97, -64186.117, 0.0, 10.000009, 9.902381 
2.1050003e+3, 2.841256e+2, -230245.77, -318080.94, 0.018927932, 0.0000025924862, 0.00022924988, -230245.77, -74676.89, 0.0, 10.000009, 9.885434 
2.1050003e+3, 2.9401213e+2, -130539.695, -217764.77, -0.014798436, 0.0000025921015, -0.00025315845, -130539.695, -71858.36, 0.0, 10.000009, 9.886213 
2.1050003e+3, 3.0392656e+2, -40795.816, -84750.02, 0.01879286, 0.0000025881081, 0.00017328179, -40795.816, -40795.816, 0.0, 10.000009, 9.942168 
2.1050003e+3, 3.138706e+2, -39717.82, -82511.09, -0.014860048, 0.0000025787197, -0.000055064786, -39717.82, -39717.82, 0.0, 10.000009, 9.94368 
2.1150002e+3, 1.2499342e+2, -1719935.1, -1724224.0, 0.012556663, 0.0000028412112, 0.000018459375, -1719935.1, -4870.627, 0.0, 10.00001, 9.994323 
2.1150002e+3, 1.3498767e+2, -1622554.8, -1627434.3, -0.033729445, 0.0000027992228, -0.00006815841, -1622554.8, -5433.9336, 0.0, 10.00001, 9.99354 
2.1150002e+3, 1.449752e+2, -1534453.4, -1548145.5, 0.0050615924, 0.0000027765534, 0.00007188117, -1534453.4, -15210.406, 0.0, 10.00001, 9.98186 
2.1150002e+3, 1.5495709e+2, -1436725.9, -1450821.3, -0.031354573, 0.000002772761, -0.00005638094, -1436725.9, -15305.303, 0.0, 10.00001, 9.981329 
2.1150002e+3, 1.6493234e+2, -1348674.9, -1371951.8, 0.009761263, 0.0000027661806, 0.000047795114, -1348674.9, -25011.828, 0.0, 10.00001, 9.969244 
2.1150002e+3, 1.749016e+2, -1250717.0, -1274309.6, -0.034167863, 0.000002756755, -0.000073302566, -1250717.0, -24752.887, 0.0, 10.000009, 9.96883 
2.1150002e+3, 1.8486427e+2, -1162636.1, -1195719.5, 0.008400237, 0.0000027412302, 0.000066680885, -1162636.1, -34305.934, 0.0, 10.000009, 9.956391 
2.1150002e+3, 1.9482069e+2, -1064486.5, -1097832.5, -0.030155446, 0.0000027193207, -0.00005718365, -1064486.5, -33729.33, 0.0, 10.000009, 9.956048 
2.1150002e+3, 2.0477046e+2, -976322.56, -1019434.5, 0.007900464, 0.0000027083377, 0.00006850871, -976322.56, -43073.09, 0.0, 10.000009, 9.943286 
2.1150002e+3, 2.147138e+2, -878035.6, -921409.44, -0.030326383, 0.0000027091876, -0.00012641631, -878035.6, -42230.734, 0.0, 10.000009, 9.9429455 
2.1150002e+3, 2.2465041e+2, -789749.56, -843144.44, 0.009591174, 0.0000027039675, 0.00012126491, -789749.56, -51323.637, 0.0, 10.000009, 9.929903 
2.1150002e+3, 2.3458038e+2, -691316.2, -744966.06, -0.02959353, 0.0000026918708, -0.000088465975, -691316.2, -50203.92, 0.0, 10.000009, 9.929572 
2.1150002e+3, 2.4450341e+2, -602992.1, -667018.44, 0.009041509, 0.000002681129, 0.000075029784, -602992.1, -59125.53, 0.0, 10.000009, 9.916132 
2.1150002e+3, 2.5441965e+2, -504239.56, -568343.06, -0.027838832, 0.000002672011, -0.00010644521, -504239.56, -57552.23, 0.0, 10.000009, 9.916032 
2.1150002e+3, 2.6432884e+2, -416004.22, -490987.66, 0.009445302, 0.0000026652378, 0.00014085682, -416004.22, -66426.71, 0.0, 10.000009, 9.90196 
2.1150002e+3, 2.742313e+2, -316719.06, -391374.6, -0.02493674, 0.0000026614418, -0.00020320977, -316719.06, -64186.2, 0.0, 10.000009, 9.902381 
2.1150002e+3, 2.841256e+2, -230245.84, -318081.1, 0.012944962, 0.0000026571904, 0.00022925469, -230245.84, -74676.98, 0.0, 10.000009, 9.885434 
2.1150002e+3, 2.9401213e+2, -130539.77, -217764.92, -0.020561341, 0.0000026522996, -0.00025315586, -130539.77, -71858.445, 0.0, 10.000009, 9.886213 
2.1150002e+3, 3.0392656e+2, -40795.895, -84750.195, 0.015580366, 0.0000026485502, 0.00017328419, -40795.895, -40795.895, 0.0, 10.000009, 9.942168 
2.1150002e+3, 3.138706e+2, -39717.9, -82511.26, -0.017773446, 0.0000026465045, -0.000055059587, -39717.9, -39717.9, 0.0, 10.000009, 9.94368 
2.1250002e+3, 1.2499342e+2, -1719934.4, -1724223.8, 0.03336516, 0.0000029090136, 0.000018480652, -1719934.4, -4869.958, 0.0, 10.00001, 9.994323 
2.1250002e+3, 1.3498767e+2, -1622554.1, -1627434.0, -0.008384215, 0.0000028678862, -0.0000681617, -1622554.1, -5433.277, 0.0, 10.00001, 9.99354 
2.1250002e+3, 1.449752e+2, -1534452.8, -1548145.3, 0.031198721, 0.0000028442905, 0.00007192011, -1534452.8, -15209.755, 0.0, 10.00001, 9.98186 
2.1250002e+3, 1.5495709e+2, -1436725.1, -1450821.1, -0.015243604, 0.000002837761, -0.000056371962, -1436725.1, -15304.66, 0.0, 10.00001, 9.981328 
2.1250002e+3, 1.6493234e+2, -1348674.3, -1371951.5, 0.025230302, 0.0000028308798, 0.000047795897, -1348674.3, -25011.19, 0.0, 10.00001, 9.969244 
2.1250002e+3, 1.7490162e+2, -1250716.4, -1274309.4, -0.015249716, 0.0000028236411, -0.000073287745, -1250716.4, -24752.24, 0.0, 10.00001, 9.96883 
2.1250002e+3, 1.8486427e+2, -1162635.5, -1195719.3, 0.026832774, 0.0000028083612, 0.00006669934, -1162635.5, -34305.29, 0.0, 10.00001, 9.95639 
2.1250002e+3, 1.9482069e+2, -1064485.9, -1097832.3, -0.016692897, 0.0000027846647, -0.000057172467, -1064485.9, -33728.703, 0.0, 10.00001, 9.956048 
2.1250002e+3, 2.0477046e+2, -976321.94, -1019434.3, 0.020986391, 0.000002773104, 0.000068515794, -976321.94, -43072.47, 0.0, 10.00001, 9.943286 
2.1250002e+3, 2.147138e+2, -878035.0, -921409.25, -0.019454993, 0.000002774686, -0.0001264099, -878035.0, -42230.11, 0.0, 10.00001, 9.9429455 
2.1250002e+3, 2.2465043e+2, -789748.94, -843144.25, 0.02031687, 0.0000027693657, 0.00012127148, -789748.94, -51323.016, 0.0, 10.00001, 9.929903 
2.1250002e+3, 2.3458038e+2, -691315.5, -744965.9, -0.02010061, 0.000002756226, -0.000088458335, -691315.5, -50203.3, 0.0, 10.00001, 9.929572 
2.1250002e+3, 2.4450341e+2, -602991.5, -667018.25, 0.019132273, 0.0000027449503, 0.00007503849, -602991.5, -59124.918, 0.0, 10.00001, 9.916132 
2.1250002e+3, 2.5441965e+2, -504238.97, -568342.9, -0.018234694, 0.0000027359076, -0.00010643542, -504238.97, -57551.625, 0.0, 10.00001, 9.916032 
2.1250002e+3, 2.6432884e+2, -416003.6, -490987.47, 0.019455558, 0.0000027294986, 0.00014086528, -416003.6, -66426.11, 0.0, 10.00001, 9.90196 
2.1250002e+3, 2.7423134e+2, -316718.44, -391374.4, -0.018152906, 0.0000027264336, -0.00020320572, -316718.44, -64185.598, 0.0, 10.00001, 9.90238 
2.1250002e+3, 2.841256e+2, -230245.23, -318080.94, 0.018336724, 0.000002722057, 0.0002292559, -230245.23, -74676.375, 0.0, 10.00001, 9.885434 
2.1250002e+3, 2.9401213e+2, -130539.17, -217764.75, -0.018115805, 0.0000027158676, -0.00025315527, -130539.17, -71857.84, 0.0, 10.00001, 9.886212 
2.1250002e+3, 3.0392656e+2, -40795.3, -84750.02, 0.01896844, 0.0000027116828, 0.00017328588, -40795.3, -40795.3, 0.0, 10.00001, 9.942168 
2.1250002e+3, 3.138706e+2, -39717.313, -82511.09, -0.01208904, 0.0000027104954, -0.00005505415, -39717.313, -39717.313, 0.0, 10.00001, 9.94368 
2.1350005e+3, 1.2499342e+2, -1719934.5, -1724223.9, 0.009382153, 0.0000029689272, 0.00001849333, -1719934.5, -4870.077, 0.0, 10.00001, 9.994323 
2.1350005e+3, 1.3498767e+2, -1622554.3, -1627434.3, -0.03237241, 0.0000029414437, -0.00006816181, -1622554.3, -5433.394, 0.0, 10.00001, 9.99354 
2.1350002e+3, 1.449752e+2, -1534452.9, -1548145.5, 0.01096874, 0.000002921381, 0.00007196549, -1534452.9, -15209.881, 0.0, 10.00001, 9.98186 
2.1350002e+3, 1.5495709e+2, -1436725.3, -1450821.3, -0.035467878, 0.0000029082005, -0.000056365756, -1436725.3, -15304.784, 0.0, 10.00001, 9.981328 
2.1350002e+3, 1.6493234e+2, -1348674.4, -1371951.8, 0.009430501, 0.0000028951454, 0.000047792386, -1348674.4, -25011.297, 0.0, 10.00001, 9.969244 
2.1350002e+3, 1.7490162e+2, -1250716.5, -1274309.6, -0.03102666, 0.000002882219, -0.000073270894, -1250716.5, -24752.346, 0.0, 10.00001, 9.96883 
2.1350002e+3, 1.8486427e+2, -1162635.5, -1195719.5, 0.008269861, 0.0000028710433, 0.0000667211, -1162635.5, -34305.402, 0.0, 10.00001, 9.95639 
2.1350002e+3, 1.948207e+2, -1064485.9, -1097832.5, -0.035288278, 0.000002861697, -0.00005716196, -1064485.9, -33728.816, 0.0, 10.00001, 9.956048 
2.1350002e+3, 2.0477046e+2, -976322.0, -1019434.5, 0.00822891, 0.0000028507188, 0.00006852155, -976322.0, -43072.57, 0.0, 10.00001, 9.943286 
2.1350002e+3, 2.147138e+2, -878035.06, -921409.44, -0.032092374, 0.0000028379714, -0.00012640185, -878035.06, -42230.21, 0.0, 10.00001, 9.942945 
2.1350002e+3, 2.2465043e+2, -789749.0, -843144.44, 0.00845047, 0.0000028272395, 0.00012128069, -789749.0, -51323.117, 0.0, 10.00001, 9.929903 
2.1350002e+3, 2.3458038e+2, -691315.6, -744966.06, -0.031942055, 0.0000028187885, -0.00008844925, -691315.6, -50203.402, 0.0, 10.00001, 9.929572 
2.1350002e+3, 2.4450341e+2, -602991.6, -667018.44, 0.007823231, 0.0000028111845, 0.00007504836, -602991.6, -59125.01, 0.0, 10.00001, 9.916132 
2.1350002e+3, 2.5441965e+2, -504239.03, -568343.0, -0.029518632, 0.0000028045877, -0.00010642368, -504239.03, -57551.72, 0.0, 10.00001, 9.916032 
2.1350002e+3, 2.6432884e+2, -416003.7, -490987.66, 0.011930279, 0.000002798278, 0.00014087469, -416003.7, -66426.2, 0.0, 10.00001, 9.90196 
2.1350002e+3, 2.7423134e+2, -316718.53, -391374.6, -0.025426595, 0.0000027923293, -0.000203204, -316718.53, -64185.688, 0.0, 10.00001, 9.90238 
2.1350002e+3, 2.841256e+2, -230245.31, -318081.1, 0.012267994, 0.0000027870863, 0.00022925355, -230245.31, -74676.46, 0.0, 10.00001, 9.885434 
2.1350002e+3, 2.9401213e+2, -130539.25, -217764.92, -0.024076298, 0.0000027828046, -0.00025315676, -130539.25, -71857.93, 0.0, 10.00001, 9.886212 
2.1350002e+3, 3.0392656e+2, -40795.38, -84750.19, 0.014544676, 0.0000027775059, 0.00017328687, -40795.38, -40795.38, 0.0, 10.00001, 9.942168 
2.1350002e+3, 3.138706e+2, -39717.387, -82511.25, -0.016333042, 0.000002770693, -0.000055048473, -39717.387, -39717.387, 0.0, 10.00001, 9.94368 
2.1450005e+3, 1.2499343e+2, -1719933.9, -1724223.6, 0.03635699, 0.0000030350227, 0.000018516705, -1719933.9, -4869.3965, 0.0, 10.0000105, 9.994322 
2.1450005e+3, 1.3498767e+2, -1622553.5, -1627434.0, -0.011317867, 0.0000030126462, -0.00006817272, -1622553.5, -5432.7007, 0.0, 10.0000105, 9.99354 
2.1450005e+3, 1.4497522e+2, -1534452.1, -1548145.3, 0.031110754, 0.0000029945556, 0.00007200111, -1534452.1, -15209.187, 0.0, 10.0000105, 9.98186 
2.1450005e+3, 1.5495709e+2, -1436724.5, -1450821.0, -0.014479827, 0.0000029801809, -0.00005634966, -1436724.5, -15304.096, 0.0, 10.0000105, 9.981328 
2.1450005e+3, 1.6493234e+2, -1348673.6, -1371951.5, 0.030822206, 0.0000029641783, 0.000047800106, -1348673.6, -25010.617, 0.0, 10.0000105, 9.969244 
2.1450005e+3, 1.7490162e+2, -1250715.8, -1274309.4, -0.015044176, 0.0000029465145, -0.00007326016, -1250715.8, -24751.688, 0.0, 10.00001, 9.96883 
2.1450005e+3, 1.8486427e+2, -1162634.9, -1195719.3, 0.02347428, 0.0000029365424, 0.00006673274, -1162634.9, -34304.746, 0.0, 10.00001, 9.95639 
2.1450002e+3, 1.948207e+2, -1064485.3, -1097832.3, -0.018877335, 0.0000029346168, -0.000057151632, -1064485.3, -33728.15, 0.0, 10.00001, 9.956048 
2.1450002e+3, 2.0477046e+2, -976321.3, -1019434.25, 0.025602097, 0.0000029241749, 0.00006853204, -976321.3, -43071.902, 0.0, 10.00001, 9.943286 
2.1450002e+3, 2.147138e+2, -878034.44, -921409.2, -0.01935809, 0.0000029045077, -0.00012638958, -878034.44, -42229.56, 0.0, 10.00001, 9.942945 
2.1450002e+3, 2.2465043e+2, -789748.4, -843144.25, 0.020802004, 0.00000289113, 0.00012129241, -789748.4, -51322.47, 0.0, 10.00001, 9.929903 
2.1450002e+3, 2.3458038e+2, -691314.94, -744965.9, -0.018782305, 0.0000028848729, -0.00008844066, -691314.94, -50202.76, 0.0, 10.00001, 9.929572 
2.1450002e+3, 2.4450341e+2, -602990.94, -667018.25, 0.021180937, 0.000002878989, 0.000075054566, -602990.94, -59124.37, 0.0, 10.00001, 9.916131 
2.1450002e+3, 2.5441965e+2, -504238.38, -568342.8, -0.020689523, 0.0000028735417, -0.00010641893, -504238.38, -57551.08, 0.0, 10.00001, 9.916032 
2.1450002e+3, 2.6432884e+2, -416003.03, -490987.44, 0.019599907, 0.0000028670177, 0.00014087922, -416003.03, -66425.56, 0.0, 10.00001, 9.90196 
2.1450002e+3, 2.7423134e+2, -316717.9, -391374.4, -0.019768389, 0.0000028591205, -0.00020319808, -316717.9, -64185.055, 0.0, 10.00001, 9.90238 
2.1450002e+3, 2.841256e+2, -230244.69, -318080.9, 0.018876376, 0.000002853231, 0.00022926013, -230244.69, -74675.836, 0.0, 10.00001, 9.885434 
2.1450002e+3, 2.9401213e+2, -130538.625, -217764.73, -0.016378328, 0.000002850093, -0.00025315047, -130538.625, -71857.305, 0.0, 10.00001, 9.886212 
2.1450002e+3, 3.0392656e+2, -40794.758, -84750.016, 0.021546064, 0.000002844478, 0.00017329141, -40794.758, -40794.758, 0.0, 10.00001, 9.942168 
2.1450002e+3, 3.138706e+2, -39716.766, -82511.08, -0.016137902, 0.0000028351662, -0.000055047774, -39716.766, -39716.766, 0.0, 10.00001, 9.94368 
2.1550004e+3, 1.2499343e+2, -1719933.9, -1724223.9, 0.015955055, 0.0000031072987, 0.00001855078, -1719933.9, -4869.5303, 0.0, 10.0000105, 9.994322 
2.1550004e+3, 1.3498768e+2, -1622553.6, -1627434.1, -0.031723816, 0.0000030814942, -0.00006819442, -1622553.6, -5432.8325, 0.0, 10.0000105, 9.99354 
2.1550004e+3, 1.4497522e+2, -1534452.3, -1548145.5, 0.0100383265, 0.000003063815, 0.000072026975, -1534452.3, -15209.3125, 0.0, 10.0000105, 9.98186 
2.1550004e+3, 1.5495709e+2, -1436724.6, -1450821.3, -0.035553567, 0.0000030537021, -0.00005632368, -1436724.6, -15304.219, 0.0, 10.0000105, 9.981328 
2.1550004e+3, 1.6493234e+2, -1348673.8, -1371951.6, 0.01044785, 0.0000030379783, 0.00004781905, -1348673.8, -25010.738, 0.0, 10.0000105, 9.969243 
2.1550004e+3, 1.7490162e+2, -1250715.9, -1274309.5, -0.0354152, 0.0000030165265, -0.00007325554, -1250715.9, -24751.807, 0.0, 10.00001, 9.96883 
2.1550004e+3, 1.8486427e+2, -1162635.0, -1195719.5, 0.008562528, 0.0000030048582, 0.00006673425, -1162635.0, -34304.86, 0.0, 10.00001, 9.95639 
2.1550004e+3, 1.948207e+2, -1064485.4, -1097832.4, -0.03372636, 0.0000030034246, -0.000057141482, -1064485.4, -33728.254, 0.0, 10.00001, 9.956047 
2.1550004e+3, 2.0477046e+2, -976321.44, -1019434.44, 0.009935212, 0.0000029934731, 0.00006854728, -976321.44, -43072.016, 0.0, 10.00001, 9.943286 
2.1550004e+3, 2.147138e+2, -878034.5, -921409.4, -0.03504209, 0.000002974295, -0.00012637311, -878034.5, -42229.668, 0.0, 10.00001, 9.942945 
2.1550004e+3, 2.2465043e+2, -789748.44, -843144.4, 0.0077320836, 0.000002961036, 0.00012130665, -789748.44, -51322.57, 0.0, 10.00001, 9.929903 
2.1550004e+3, 2.3458038e+2, -691315.06, -744966.06, -0.031767268, 0.0000029544785, -0.00008843258, -691315.06, -50202.86, 0.0, 10.00001, 9.929572 
2.1550004e+3, 2.4450341e+2, -602991.06, -667018.44, 0.011304294, 0.000002948364, 0.00007505711, -602991.06, -59124.477, 0.0, 10.00001, 9.916131 
2.1550004e+3, 2.5441965e+2, -504238.47, -568343.0, -0.030417116, 0.0000029427697, -0.00010642118, -504238.47, -57551.176, 0.0, 10.00001, 9.916032 
2.1550004e+3, 2.6432884e+2, -416003.13, -490987.63, 0.010781852, 0.0000029357177, 0.00014087888, -416003.13, -66425.664, 0.0, 10.00001, 9.90196 
2.1550003e+3, 2.7423134e+2, -316717.97, -391374.6, -0.028525872, 0.0000029268072, -0.00020318797, -316717.97, -64185.15, 0.0, 10.00001, 9.90238 
2.1550003e+3, 2.841256e+2, -230244.77, -318081.1, 0.012438191, 0.0000029204914, 0.00022927567, -230244.77, -74675.92, 0.0, 10.00001, 9.885434 
2.1550003e+3, 2.9401213e+2, -130538.7, -217764.9, -0.022608096, 0.0000029177327, -0.00025313644, -130538.7, -71857.39, 0.0, 10.00001, 9.886212 
2.1550003e+3, 3.0392656e+2, -40794.844, -84750.195, 0.017220931, 0.0000029125997, 0.00017329952, -40794.844, -40794.844, 0.0, 10.00001, 9.942168 
2.1550003e+3, 3.138706e+2, -39716.855, -82511.266, -0.020239793, 0.000002903915, -0.000055052053, -39716.855, -39716.855, 0.0, 10.00001, 9.94368 
2.1650004e+3, 1.2499343e+2, -1719933.1, -1724223.6, 0.037238438, 0.000003185943, 0.000018581088, -1719933.1, -4868.7935, 0.0, 10.0000105, 9.994322 
2.1650004e+3, 1.3498768e+2, -1622552.9, -1627433.9, -0.01285346, 0.0000031521433, -0.00006820789, -1622552.9, -5432.1133, 0.0, 10.0000105, 9.99354 
2.1650004e+3, 1.4497522e+2, -1534451.5, -1548145.3, 0.029000372, 0.0000031320178, 0.00007206081, -1534451.5, -15208.596, 0.0, 10.0000105, 9.981859 
2.1650004e+3, 1.549571e+2, -1436723.9, -1450821.0, -0.016158499, 0.000003125028, -0.000056306617, -1436723.9, -15303.506, 0.0, 10.0000105, 9.981328 
2.1650004e+3, 1.6493234e+2, -1348673.0, -1371951.4, 0.03000108, 0.0000031121701, 0.00004782853, -1348673.0, -25010.031, 0.0, 10.0000105, 9.969243 
2.1650004e+3, 1.7490162e+2, -1250715.1, -1274309.4, -0.01784053, 0.0000030933227, -0.00007324425, -1250715.1, -24751.102, 0.0, 10.0000105, 9.968829 
2.1650004e+3, 1.8486427e+2, -1162634.3, -1195719.3, 0.027380688, 0.0000030791036, 0.000066746325, -1162634.3, -34304.156, 0.0, 10.0000105, 9.95639 
2.1650004e+3, 1.948207e+2, -1064484.6, -1097832.1, -0.019358853, 0.0000030697252, -0.000057129717, -1064484.6, -33727.566, 0.0, 10.0000105, 9.956047 
2.1650004e+3, 2.0477046e+2, -976320.75, -1019434.25, 0.023309272, 0.0000030589945, 0.000068558504, -976320.75, -43071.332, 0.0, 10.0000105, 9.943286 
2.1650004e+3, 2.147138e+2, -878033.8, -921409.2, -0.019700365, 0.000003046797, -0.00012636268, -878033.8, -42228.99, 0.0, 10.0000105, 9.942945 
2.1650004e+3, 2.2465043e+2, -789747.75, -843144.2, 0.023622721, 0.0000030361225, 0.000121316094, -789747.75, -51321.887, 0.0, 10.0000105, 9.929903 
2.1650004e+3, 2.3458038e+2, -691314.4, -744965.8, -0.022280429, 0.000003027171, -0.00008842439, -691314.4, -50202.18, 0.0, 10.0000105, 9.929572 
2.1650004e+3, 2.4450341e+2, -602990.4, -667018.2, 0.020072876, 0.000003018945, 0.00007506412, -602990.4, -59123.8, 0.0, 10.0000105, 9.916131 
2.1650004e+3, 2.5441965e+2, -504237.8, -568342.8, -0.02124322, 0.0000030115823, -0.0001064153, -504237.8, -57550.508, 0.0, 10.0000105, 9.916031 
2.1650004e+3, 2.6432884e+2, -416002.44, -490987.44, 0.021033078, 0.0000030039562, 0.00014088459, -416002.44, -66425.0, 0.0, 10.0000105, 9.90196 
2.1650004e+3, 2.7423134e+2, -316717.3, -391374.38, -0.019409755, 0.0000029959904, -0.00020318129, -316717.3, -64184.49, 0.0, 10.0000105, 9.90238 
2.1650004e+3, 2.8412563e+2, -230244.1, -318080.88, 0.020989368, 0.0000029900132, 0.00022928284, -230244.1, -74675.266, 0.0, 10.0000105, 9.885434 
2.1650004e+3, 2.9401213e+2, -130538.05, -217764.72, -0.01883683, 0.0000029867567, -0.0002531294, -130538.05, -71856.734, 0.0, 10.0000105, 9.886212 
2.1650004e+3, 3.0392656e+2, -40794.195, -84750.016, 0.020829136, 0.0000029822102, 0.00017330458, -40794.195, -40794.195, 0.0, 10.0000105, 9.942168 
2.1650004e+3, 3.138706e+2, -39716.203, -82511.086, -0.015031477, 0.000002975728, -0.000055051638, -39716.203, -39716.203, 0.0, 10.0000105, 9.94368 
2.1750005e+3, 1.24993436e+2, -1719933.3, -1724223.8, 0.0132613955, 0.0000032709552, 0.000018607643, -1719933.3, -4868.9346, 0.0, 10.0000105, 9.994322 
2.1750005e+3, 1.3498768e+2, -1622553.0, -1627434.1, -0.036835212, 0.0000032245935, -0.000068213114, -1622553.0, -5432.2515, 0.0, 10.0000105, 9.99354 
2.1750005e+3, 1.4497522e+2, -1534451.6, -1548145.4, 0.0076786424, 0.000003199164, 0.00007210261, -1534451.6, -15208.722, 0.0, 10.0000105, 9.981859 
2.1750005e+3, 1.549571e+2, -1436724.0, -1450821.1, -0.03747657, 0.0000031941584, -0.00005629848, -1436724.0, -15303.629, 0.0, 10.0000105, 9.981328 
2.1750005e+3, 1.6493234e+2, -1348673.1, -1371951.6, 0.009635083, 0.000003186754, 0.000047828544, -1348673.1, -25010.158, 0.0, 10.0000105, 9.969243 
2.1750005e+3, 1.7490162e+2, -1250715.3, -1274309.5, -0.038201805, 0.0000031769014, -0.00007322627, -1250715.3, -24751.227, 0.0, 10.0000105, 9.968829 
2.1750005e+3, 1.8486427e+2, -1162634.4, -1195719.4, 0.010294303, 0.0000031592776, 0.00006676896, -1162634.4, -34304.277, 0.0, 10.0000105, 9.95639 
2.1750005e+3, 1.948207e+2, -1064484.8, -1097832.4, -0.03640776, 0.0000031335196, -0.000057116344, -1064484.8, -33727.684, 0.0, 10.0000105, 9.956047 
2.1750005e+3, 2.0477048e+2, -976320.8, -1019434.44, 0.0077492553, 0.0000031207394, 0.000068565714, -976320.8, -43071.44, 0.0, 10.0000105, 9.943286 
2.1750005e+3, 2.147138e+2, -878033.94, -921409.4, -0.035230108, 0.0000031220134, -0.00012635827, -878033.94, -42229.094, 0.0, 10.0000105, 9.942945 
2.1750005e+3, 2.2465043e+2, -789747.9, -843144.4, 0.010411508, 0.0000031163893, 0.000121320736, -789747.9, -51322.004, 0.0, 10.0000105, 9.929903 
2.1750005e+3, 2.3458038e+2, -691314.44, -744966.0, -0.03541612, 0.00000310295, -0.00008841608, -691314.44, -50202.293, 0.0, 10.0000105, 9.929572 
2.1750005e+3, 2.4450341e+2, -602990.44, -667018.4, 0.009100116, 0.000003090732, 0.000075075586, -602990.44, -59123.902, 0.0, 10.0000105, 9.916131 
2.1750005e+3, 2.5441965e+2, -504237.9, -568343.0, -0.03211254, 0.0000030799793, -0.000106401254, -504237.9, -57550.61, 0.0, 10.0000105, 9.916031 
2.1750005e+3, 2.6432884e+2, -416002.53, -490987.63, 0.012057253, 0.0000030717329, 0.00014089631, -416002.53, -66425.09, 0.0, 10.0000105, 9.901959 
2.1750005e+3, 2.7423134e+2, -316717.4, -391374.56, -0.028259085, 0.0000030666697, -0.00020317806, -316717.4, -64184.586, 0.0, 10.0000105, 9.90238 
2.1750005e+3, 2.8412563e+2, -230244.19, -318081.06, 0.014194602, 0.0000030617964, 0.00022928168, -230244.19, -74675.36, 0.0, 10.0000105, 9.885434 
2.1750005e+3, 2.9401213e+2, -130538.13, -217764.9, -0.025446929, 0.0000030571653, -0.00025312937, -130538.13, -71856.83, 0.0, 10.0000105, 9.886212 
2.1750005e+3, 3.0392656e+2, -40794.28, -84750.195, 0.017045507, 0.000003053309, 0.0001733066, -40794.28, -40794.28, 0.0, 10.0000105, 9.942168 
2.1750005e+3, 3.138706e+2, -39716.29, -82511.266, -0.018483782, 0.0000030506046, -0.000055046534, -39716.29, -39716.29, 0.0, 10.0000105, 9.943679 
2.1850005e+3, 1.24993436e+2, -1719932.5, -1724223.5, 0.03786518, 0.0000033473227, 0.000018631594, -1719932.5, -4868.1655, 0.0, 10.000011, 9.994322 
2.1850005e+3, 1.3498768e+2, -1622552.1, -1627433.9, -0.011679753, 0.0000033025271, -0.000068218884, -1622552.1, -5431.496, 0.0, 10.000011, 9.99354 
2.1850005e+3, 1.4497522e+2, -1534450.8, -1548145.1, 0.033370286, 0.0000032767346, 0.000072146795, -1534450.8, -15207.974, 0.0, 10.000011, 9.981859 
2.1850005e+3, 1.549571e+2, -1436723.3, -1450820.9, -0.01777201, 0.0000032694095, -0.000056288616, -1436723.3, -15302.89, 0.0, 10.000011, 9.981328 
2.1850005e+3, 1.6493234e+2, -1348672.4, -1371951.4, 0.02907847, 0.0000032608855, 0.00004782915, -1348672.4, -25009.42, 0.0, 10.000011, 9.969243 
2.1850005e+3, 1.7490162e+2, -1250714.5, -1274309.3, -0.018597586, 0.0000032511384, -0.00007320932, -1250714.5, -24750.484, 0.0, 10.000011, 9.968829 
2.1850005e+3, 1.8486427e+2, -1162633.6, -1195719.1, 0.0296189, 0.0000032341532, 0.00006679016, -1162633.6, -34303.54, 0.0, 10.000011, 9.95639 
2.1850005e+3, 1.948207e+2, -1064484.0, -1097832.1, -0.019784464, 0.000003209591, -0.00005710357, -1064484.0, -33726.96, 0.0, 10.0000105, 9.956047 
2.1850005e+3, 2.0477048e+2, -976320.06, -1019434.2, 0.024294492, 0.000003196426, 0.0000685737, -976320.06, -43070.723, 0.0, 10.0000105, 9.943285 
2.1850005e+3, 2.147138e+2, -878033.2, -921409.1, -0.022740701, 0.0000031956033, -0.00012635112, -878033.2, -42228.375, 0.0, 10.0000105, 9.942945 
2.1850005e+3, 2.2465043e+2, -789747.1, -843144.1, 0.022819478, 0.0000031891582, 0.000121328376, -789747.1, -51321.29, 0.0, 10.0000105, 9.929903 
2.1850005e+3, 2.3458038e+2, -691313.75, -744965.8, -0.02252926, 0.0000031763425, -0.00008840645, -691313.75, -50201.582, 0.0, 10.0000105, 9.929571 
2.1850005e+3, 2.4450342e+2, -602989.75, -667018.2, 0.022399826, 0.0000031642717, 0.00007508672, -602989.75, -59123.195, 0.0, 10.0000105, 9.916131 
2.1850005e+3, 2.5441965e+2, -504237.2, -568342.75, -0.022421509, 0.0000031530951, -0.00010638925, -504237.2, -57549.91, 0.0, 10.0000105, 9.916031 
2.1850005e+3, 2.6432884e+2, -416001.84, -490987.4, 0.02132439, 0.0000031447687, 0.00014090618, -416001.84, -66424.4, 0.0, 10.0000105, 9.901959 
2.1850005e+3, 2.7423134e+2, -316716.72, -391374.38, -0.021130383, 0.0000031400639, -0.00020317419, -316716.72, -64183.89, 0.0, 10.0000105, 9.90238 
2.1850005e+3, 2.8412563e+2, -230243.5, -318080.88, 0.021231238, 0.0000031352633, 0.00022928204, -230243.5, -74674.67, 0.0, 10.0000105, 9.885433 
2.1850005e+3, 2.9401213e+2, -130537.44, -217764.7, -0.01987697, 0.0000031303116, -0.00025312908, -130537.44, -71856.14, 0.0, 10.0000105, 9.886212 
2.1850005e+3, 3.0392656e+2, -40793.598, -84750.01, 0.02283534, 0.0000031259078, 0.00017330817, -40793.598, -40793.598, 0.0, 10.0000105, 9.942167 
2.1850005e+3, 3.138706e+2, -39715.613, -82511.08, -0.01422565, 0.0000031223235, -0.000055041713, -39715.613, -39715.613, 0.0, 10.0000105, 9.943679 
2.1950005e+3, 1.24993436e+2, -1719932.6, -1724223.8, 0.011404877, 0.0000034150476, 0.000018652954, -1719932.6, -4868.306, 0.0, 10.000011, 9.994322 
2.1950005e+3, 1.3498768e+2, -1622552.3, -1627434.1, -0.038145676, 0.0000033859444, -0.0000682252, -1622552.3, -5431.635, 0.0, 10.000011, 9.993539 
2.1950005e+3, 1.4497522e+2, -1534450.9, -1548145.4, 0.010506464, 0.0000033647277, 0.00007219337, -1534450.9, -15208.114, 0.0, 10.000011, 9.981859 
2.1950005e+3, 1.549571e+2, -1436723.4, -1450821.1, -0.04063048, 0.0000033507804, -0.00005627703, -1436723.4, -15303.027, 0.0, 10.000011, 9.981328 
2.1950005e+3, 1.6493236e+2, -1348672.5, -1371951.6, 0.010473438, 0.0000033345652, 0.00004783035, -1348672.5, -25009.549, 0.0, 10.000011, 9.969243 
2.1950005e+3, 1.7490162e+2, -1250714.6, -1274309.5, -0.0371808, 0.0000033160354, -0.00007319338, -1250714.6, -24750.611, 0.0, 10.000011, 9.968829 
2.1950005e+3, 1.8486428e+2, -1162633.8, -1195719.4, 0.0095105525, 0.0000033037309, 0.000066809924, -1162633.8, -34303.668, 0.0, 10.000011, 9.95639 
2.1950005e+3, 1.948207e+2, -1064484.1, -1097832.4, -0.039910708, 0.0000032979372, -0.000057091405, -1064484.1, -33727.09, 0.0, 10.0000105, 9.956047 
2.1950005e+3, 2.0477048e+2, -976320.2, -1019434.4, 0.00913093, 0.0000032860519, 0.000068582456, -976320.2, -43070.844, 0.0, 10.0000105, 9.943285 
2.1950005e+3, 2.147138e+2, -878033.3, -921409.3, -0.037802335, 0.0000032675673, -0.00012634124, -878033.3, -42228.492, 0.0, 10.0000105, 9.942945 
2.1950005e+3, 2.2465043e+2, -789747.25, -843144.4, 0.009130123, 0.000003254431, 0.000121339006, -789747.25, -51321.402, 0.0, 10.0000105, 9.929902 
2.1950005e+3, 2.345804e+2, -691313.8, -744966.0, -0.036174126, 0.0000032473492, -0.00008839547, -691313.8, -50201.695, 0.0, 10.0000105, 9.929571 
2.1950005e+3, 2.4450342e+2, -602989.9, -667018.4, 0.010185045, 0.000003239564, 0.00007509751, -602989.9, -59123.31, 0.0, 10.0000105, 9.916131 
2.1950005e+3, 2.5441965e+2, -504237.28, -568343.0, -0.03456803, 0.0000032309297, -0.00010637927, -504237.28, -57550.02, 0.0, 10.0000105, 9.916031 
2.1950005e+3, 2.6432884e+2, -416001.94, -490987.6, 0.012504794, 0.000003223063, 0.00014091417, -416001.94, -66424.51, 0.0, 10.0000105, 9.901959 
2.1950005e+3, 2.7423134e+2, -316716.8, -391374.56, -0.029727459, 0.000003216173, -0.0002031697, -316716.8, -64183.992, 0.0, 10.0000105, 9.90238 
2.1950005e+3, 2.8412563e+2, -230243.6, -318081.06, 0.014343021, 0.0000032104138, 0.00022928395, -230243.6, -74674.766, 0.0, 10.0000105, 9.885433 
2.1950005e+3, 2.9401213e+2, -130537.53, -217764.9, -0.02661162, 0.0000032061953, -0.00025312853, -130537.53, -71856.24, 0.0, 10.0000105, 9.886212 
2.1950005e+3, 3.0392656e+2, -40793.688, -84750.195, 0.01734, 0.0000032000066, 0.0001733093, -40793.688, -40793.688, 0.0, 10.0000105, 9.942167 
2.1950005e+3, 3.138706e+2, -39715.703, -82511.266, -0.019576235, 0.000003190885, -0.000055037173, -39715.703, -39715.703, 0.0, 10.0000105, 9.943679 
2.2050005e+3, 1.2499344e+2, -1719931.8, -1724223.5, 0.043108534, 0.00000349194, 0.000018681138, -1719931.8, -4867.514, 0.0, 10.000012, 9.994322 
2.2050005e+3, 1.3498768e+2, -1622551.5, -1627433.9, -0.012917391, 0.0000034668167, -0.00006823898, -1622551.5, -5430.8394, 0.0, 10.000011, 9.993539 
2.2050005e+3, 1.4497522e+2, -1534450.1, -1548145.1, 0.03480418, 0.0000034468565, 0.00007223415, -1534450.1, -15207.317, 0.0, 10.000011, 9.981859 
2.2050005e+3, 1.549571e+2, -1436722.6, -1450820.9, -0.016578037, 0.000003431411, -0.000056258203, -1436722.6, -15302.238, 0.0, 10.000011, 9.981327 
2.2050005e+3, 1.6493236e+2, -1348671.8, -1371951.3, 0.03458974, 0.0000034127436, 0.000047839578, -1348671.8, -25008.77, 0.0, 10.000011, 9.969243 
2.2050005e+3, 1.7490163e+2, -1250713.9, -1274309.3, -0.01934798, 0.000003390788, -0.000073181116, -1250713.9, -24749.848, 0.0, 10.000011, 9.968829 
2.2050005e+3, 1.8486428e+2, -1162632.9, -1195719.1, 0.026095, 0.0000033795402, 0.00006682287, -1162632.9, -34302.906, 0.0, 10.000011, 9.956389 
2.2050005e+3, 1.948207e+2, -1064483.4, -1097832.1, -0.02156835, 0.000003379494, -0.000057080233, -1064483.4, -33726.32, 0.0, 10.000011, 9.956047 
2.2050005e+3, 2.0477048e+2, -976319.44, -1019434.1, 0.029042184, 0.0000033679626, 0.000068593974, -976319.44, -43070.082, 0.0, 10.000011, 9.943285 
2.2050005e+3, 2.147138e+2, -878032.5, -921409.1, -0.022705153, 0.0000033439899, -0.00012632707, -878032.5, -42227.746, 0.0, 10.000011, 9.942945 
2.2050005e+3, 2.2465043e+2, -789746.5, -843144.1, 0.023242814, 0.0000033284018, 0.00012135252, -789746.5, -51320.656, 0.0, 10.000011, 9.929902 
2.2050005e+3, 2.345804e+2, -691313.06, -744965.75, -0.02337154, 0.000003322307, -0.000088386376, -691313.06, -50200.953, 0.0, 10.000011, 9.929571 
2.2050005e+3, 2.4450342e+2, -602989.1, -667018.1, 0.023288362, 0.0000033158176, 0.00007510345, -602989.1, -59122.57, 0.0, 10.000011, 9.916131 
2.2050005e+3, 2.5441965e+2, -504236.53, -568342.75, -0.02370098, 0.000003308844, -0.00010637495, -504236.53, -57549.28, 0.0, 10.000011, 9.916031 
2.2050005e+3, 2.6432884e+2, -416001.2, -490987.38, 0.022793695, 0.0000033012805, 0.00014091907, -416001.2, -66423.77, 0.0, 10.000011, 9.901959 
2.2050005e+3, 2.7423134e+2, -316716.06, -391374.34, -0.022836516, 0.0000032929645, -0.00020316138, -316716.06, -64183.27, 0.0, 10.000011, 9.902379 
2.2050005e+3, 2.8412563e+2, -230242.86, -318080.84, 0.021655185, 0.0000032864236, 0.00022929338, -230242.86, -74674.05, 0.0, 10.000011, 9.885433 
2.2050005e+3, 2.9401213e+2, -130536.81, -217764.69, -0.018964704, 0.0000032823127, -0.0002531211, -130536.81, -71855.52, 0.0, 10.000011, 9.886211 
2.2050005e+3, 3.0392656e+2, -40792.977, -84750.0, 0.024170768, 0.0000032755004, 0.00017331426, -40792.977, -40792.977, 0.0, 10.000011, 9.942167 
2.2050005e+3, 3.138706e+2, -39714.984, -82511.07, -0.019616311, 0.0000032646612, -0.000055035354, -39714.984, -39714.984, 0.0, 10.000011, 9.943679 
2.2150005e+3, 1.2499344e+2, -1719931.9, -1724223.8, 0.018058412, 0.0000035779988, 0.000018716162, -1719931.9, -4867.6714, 0.0, 10.000012, 9.994321 
2.2150005e+3, 1.349877e+2, -1622551.6, -1627434.0, -0.037972268, 0.0000035451444, -0.00006826022, -1622551.6, -5430.9937, 0.0, 10.000011, 9.993539 
2.2150005e+3, 1.4497523e+2, -1534450.3, -1548145.3, 0.010814902, 0.000003523122, 0.00007226915, -1534450.3, -15207.46, 0.0, 10.000011, 9.981859 
2.2150005e+3, 1.549571e+2, -1436722.6, -1450821.1, -0.040566176, 0.000003511301, -0.000056232133, -1436722.6, -15302.378, 0.0, 10.000011, 9.981327 
2.2150005e+3, 1.6493236e+2, -1348671.9, -1371951.5, 0.012739907, 0.00000349542, 0.000047856836, -1348671.9, -25008.914, 0.0, 10.000011, 9.969243 
2.2150005e+3, 1.7490163e+2, -1250714.0, -1274309.5, -0.041186806, 0.0000034753944, -0.00007317253, -1250714.0, -24749.988, 0.0, 10.000011, 9.968829 
2.2150005e+3, 1.8486428e+2, -1162633.0, -1195719.4, 0.0078521725, 0.0000034615803, 0.00006682901, -1162633.0, -34303.03, 0.0, 10.000011, 9.956389 
2.2150005e+3, 1.948207e+2, -1064483.4, -1097832.3, -0.039770275, 0.000003454263, -0.000057070054, -1064483.4, -33726.445, 0.0, 10.000011, 9.956047 
2.2150005e+3, 2.0477048e+2, -976319.5, -1019434.4, 0.011686216, 0.0000034421594, 0.000068608264, -976319.5, -43070.215, 0.0, 10.000011, 9.943285 
2.2150005e+3, 2.1471381e+2, -878032.6, -921409.3, -0.040043894, 0.0000034248706, -0.00012630862, -878032.6, -42227.875, 0.0, 10.000011, 9.942944 
2.2150005e+3, 2.2465043e+2, -789746.56, -843144.3, 0.008887966, 0.0000034110692, 0.00012136889, -789746.56, -51320.773, 0.0, 10.000011, 9.929902 
2.2150005e+3, 2.345804e+2, -691313.2, -744965.94, -0.037629414, 0.0000034012155, -0.00008837917, -691313.2, -50201.07, 0.0, 10.000011, 9.929571 
2.2150005e+3, 2.4450342e+2, -602989.2, -667018.4, 0.011691735, 0.0000033930326, 0.00007510456, -602989.2, -59122.688, 0.0, 10.000011, 9.916131 
2.2150005e+3, 2.5441965e+2, -504236.63, -568342.94, -0.035170123, 0.000003386839, -0.00010637629, -504236.63, -57549.395, 0.0, 10.000011, 9.916031 
2.2150005e+3, 2.6432884e+2, -416001.28, -490987.6, 0.012455816, 0.0000033794215, 0.0001409209, -416001.28, -66423.88, 0.0, 10.000011, 9.901959 
2.2150005e+3, 2.7423134e+2, -316716.16, -391374.53, -0.033099033, 0.000003370439, -0.00020314926, -316716.16, -64183.38, 0.0, 10.000011, 9.902379 
2.2150005e+3, 2.8412563e+2, -230242.95, -318081.06, 0.014422559, 0.0000033632928, 0.00022931036, -230242.95, -74674.15, 0.0, 10.000011, 9.885433 
2.2150005e+3, 2.9401213e+2, -130536.91, -217764.89, -0.025925022, 0.0000033586646, -0.00025310676, -130536.91, -71855.625, 0.0, 10.000011, 9.886211 
2.2150005e+3, 3.0392656e+2, -40793.08, -84750.21, 0.020234223, 0.000003352389, 0.00017332307, -40793.08, -40793.08, 0.0, 10.000011, 9.942167 
2.2150005e+3, 3.138706e+2, -39715.086, -82511.28, -0.023198185, 0.0000033436518, -0.00005503625, -39715.086, -39715.086, 0.0, 10.000011, 9.943679 
2.2250006e+3, 1.2499344e+2, -1719931.0, -1724223.4, 0.0401553, 0.0000036670601, 0.000018748695, -1719931.0, -4866.8354, 0.0, 10.000012, 9.994321 
2.2250006e+3, 1.349877e+2, -1622550.8, -1627433.8, -0.013832521, 0.0000036257393, -0.000068274916, -1622550.8, -5430.164, 0.0, 10.000012, 9.993539 
2.2250006e+3, 1.4497523e+2, -1534449.4, -1548145.0, 0.03522825, 0.0000036009944, 0.00007231053, -1534449.4, -15206.632, 0.0, 10.000012, 9.981859 
2.2250006e+3, 1.549571e+2, -1436721.9, -1450820.8, -0.020447655, 0.0000035922144, -0.000056213965, -1436721.9, -15301.555, 0.0, 10.000012, 9.981327 
2.2250006e+3, 1.6493236e+2, -1348671.0, -1371951.3, 0.032977294, 0.0000035794378, 0.0000478655, -1348671.0, -25008.096, 0.0, 10.000012, 9.969242 
2.2250006e+3, 1.7490163e+2, -1250713.1, -1274309.1, -0.019208068, 0.0000035625812, -0.00007315937, -1250713.1, -24749.184, 0.0, 10.000012, 9.968829 
2.2250006e+3, 1.8486428e+2, -1162632.3, -1195719.1, 0.031311363, 0.0000035460282, 0.000066843946, -1162632.3, -34302.23, 0.0, 10.000012, 9.956389 
2.2250006e+3, 1.9482073e+2, -1064482.6, -1097832.0, -0.02429372, 0.0000035297892, -0.000057056168, -1064482.6, -33725.65, 0.0, 10.000012, 9.956046 
2.2250006e+3, 2.0477048e+2, -976318.7, -1019434.1, 0.0250713, 0.0000035168557, 0.00006862107, -976318.7, -43069.418, 0.0, 10.000012, 9.943285 
2.2250006e+3, 2.1471381e+2, -878031.8, -921409.06, -0.023994515, 0.0000035075007, -0.00012629692, -878031.8, -42227.086, 0.0, 10.000012, 9.942944 
2.2250006e+3, 2.2465043e+2, -789745.75, -843144.06, 0.026420372, 0.000003496414, 0.00012137956, -789745.75, -51319.992, 0.0, 10.000012, 9.929902 
2.2250006e+3, 2.345804e+2, -691312.4, -744965.75, -0.026066521, 0.0000034833638, -0.000088369445, -691312.4, -50200.293, 0.0, 10.000012, 9.929571 
2.2250006e+3, 2.4450342e+2, -602988.44, -667018.1, 0.022518612, 0.0000034728137, 0.00007511333, -602988.44, -59121.914, 0.0, 10.000011, 9.91613 
2.2250006e+3, 2.5441965e+2, -504235.84, -568342.7, -0.02461397, 0.0000034652496, -0.00010636849, -504235.84, -57548.63, 0.0, 10.000011, 9.916031 
2.2250006e+3, 2.6432884e+2, -416000.53, -490987.34, 0.023942886, 0.0000034573695, 0.00014092785, -416000.53, -66423.125, 0.0, 10.000011, 9.901959 
2.2250006e+3, 2.7423134e+2, -316715.4, -391374.3, -0.023096291, 0.0000034490765, -0.000203143, -316715.4, -64182.617, 0.0, 10.000011, 9.902379 
2.2250006e+3, 2.8412563e+2, -230242.19, -318080.8, 0.023425393, 0.0000034421323, 0.00022931682, -230242.19, -74673.39, 0.0, 10.000011, 9.885433 
2.2250006e+3, 2.9401213e+2, -130536.14, -217764.66, -0.022979587, 0.0000034370323, -0.00025309887, -130536.14, -71854.87, 0.0, 10.000011, 9.886211 
2.2250006e+3, 3.0392656e+2, -40792.33, -84750.01, 0.02344472, 0.0000034314326, 0.00017332965, -40792.33, -40792.33, 0.0, 10.000011, 9.942167 
2.2250006e+3, 3.138706e+2, -39714.344, -82511.08, -0.016333364, 0.0000034250793, -0.00005503511, -39714.344, -39714.344, 0.0, 10.000011, 9.943679 
2.2350004e+3, 1.2499345e+2, -1719931.1, -1724223.6, 0.014297087, 0.000003759124, 0.000018778752, -1719931.1, -4866.9893, 0.0, 10.000012, 9.994321 
2.2350004e+3, 1.349877e+2, -1622550.9, -1627434.0, -0.039695986, 0.0000037086006, -0.00006828309, -1622550.9, -5430.315, 0.0, 10.000012, 9.993539 
2.2350004e+3, 1.4497523e+2, -1534449.5, -1548145.3, 0.010850829, 0.000003680474, 0.0000723583, -1534449.5, -15206.785, 0.0, 10.000012, 9.981858 
2.2350004e+3, 1.5495712e+2, -1436722.0, -1450821.0, -0.044823032, 0.000003674151, -0.00005620369, -1436722.0, -15301.705, 0.0, 10.000012, 9.981327 
2.2350004e+3, 1.6493236e+2, -1348671.1, -1371951.5, 0.009130496, 0.0000036647966, 0.00004786556, -1348671.1, -25008.236, 0.0, 10.000012, 9.969242 
2.2350004e+3, 1.7490163e+2, -1250713.3, -1274309.4, -0.043052733, 0.0000036523486, -0.000073141644, -1250713.3, -24749.32, 0.0, 10.000012, 9.968828 
2.2350004e+3, 1.8486428e+2, -1162632.4, -1195719.3, 0.01268574, 0.0000036328836, 0.000066867695, -1162632.4, -34302.375, 0.0, 10.000012, 9.956389 
2.2350004e+3, 1.9482073e+2, -1064482.8, -1097832.3, -0.042859275, 0.0000036060728, -0.000057038575, -1064482.8, -33725.79, 0.0, 10.000012, 9.956046 
2.2350004e+3, 2.0477048e+2, -976318.8, -1019434.3, 0.007139372, 0.0000035920516, 0.00006863239, -976318.8, -43069.547, 0.0, 10.000012, 9.943285 
2.2350004e+3, 2.1471381e+2, -878031.94, -921409.25, -0.041914, 0.0000035918804, -0.00012629197, -878031.94, -42227.207, 0.0, 10.000012, 9.942944 
2.2350004e+3, 2.2465044e+2, -789745.9, -843144.3, 0.0111738, 0.000003584436, 0.000121384524, -789745.9, -51320.12, 0.0, 10.000012, 9.929902 
2.2350004e+3, 2.345804e+2, -691312.5, -744965.94, -0.041226026, 0.0000035687515, -0.00008835721, -691312.5, -50200.42, 0.0, 10.000012, 9.929571 
2.2350004e+3, 2.4450342e+2, -602988.5, -667018.3, 0.010070844, 0.0000035551604, 0.000075129756, -602988.5, -59122.03, 0.0, 10.000011, 9.91613 
2.2350004e+3, 2.5441965e+2, -504235.97, -568342.94, -0.036932103, 0.0000035440764, -0.000106351574, -504235.97, -57548.746, 0.0, 10.000011, 9.91603 
2.2350004e+3, 2.6432884e+2, -416000.63, -490987.56, 0.014080174, 0.0000035351247, 0.0001409399, -416000.63, -66423.234, 0.0, 10.000011, 9.901959 
2.2350004e+3, 2.7423134e+2, -316715.5, -391374.53, -0.032794856, 0.0000035288779, -0.00020314264, -316715.5, -64182.73, 0.0, 10.000011, 9.902379 
2.2350004e+3, 2.8412563e+2, -230242.3, -318081.03, 0.015724551, 0.000003522942, 0.00022931276, -230242.3, -74673.5, 0.0, 10.000011, 9.885433 
2.2350004e+3, 2.9401213e+2, -130536.24, -217764.88, -0.030500894, 0.0000035174162, -0.0002530974, -130536.24, -71854.98, 0.0, 10.000011, 9.886211 
2.2350004e+3, 3.0392656e+2, -40792.426, -84750.21, 0.018418306, 0.0000035126302, 0.000173334, -40792.426, -40792.426, 0.0, 10.000011, 9.942167 
2.2350004e+3, 3.138706e+2, -39714.44, -82511.28, -0.021067604, 0.0000035089438, -0.00005503193, -39714.44, -39714.44, 0.0, 10.000011, 9.943679 
2.2450005e+3, 1.2499345e+2, -1719930.3, -1724223.4, 0.045426305, 0.000003844335, 0.000018807503, -1719930.3, -4866.103, 0.0, 10.000013, 9.994321 
2.2450005e+3, 1.349877e+2, -1622550.0, -1627433.8, -0.015564642, 0.0000037970376, -0.000068292145, -1622550.0, -5429.4487, 0.0, 10.000013, 9.993539 
2.2450005e+3, 1.4497523e+2, -1534448.6, -1548145.0, 0.03489897, 0.00000376948, 0.00007240812, -1534448.6, -15205.927, 0.0, 10.000013, 9.981858 
2.2450005e+3, 1.5495712e+2, -1436721.1, -1450820.8, -0.019589977, 0.0000037610353, -0.00005619111, -1436721.1, -15300.855, 0.0, 10.000013, 9.981327 
2.2450005e+3, 1.6493236e+2, -1348670.3, -1371951.3, 0.034463216, 0.0000037495506, 0.000047867416, -1348670.3, -25007.389, 0.0, 10.000013, 9.969242 
2.2450005e+3, 1.7490163e+2, -1250712.4, -1274309.1, -0.0235207, 0.0000037349637, -0.00007312343, -1250712.4, -24748.467, 0.0, 10.000012, 9.968828 
2.2450005e+3, 1.8486428e+2, -1162631.5, -1195719.0, 0.031946044, 0.0000037164216, 0.000066890236, -1162631.5, -34301.527, 0.0, 10.000012, 9.956389 
2.2450005e+3, 1.9482073e+2, -1064481.9, -1097832.0, -0.022607971, 0.0000036937379, -0.000057024303, -1064481.9, -33724.96, 0.0, 10.000012, 9.956046 
2.2450005e+3, 2.0477048e+2, -976318.0, -1019434.06, 0.028304089, 0.0000036795352, 0.00006864212, -976318.0, -43068.723, 0.0, 10.000012, 9.943285 
2.2450005e+3, 2.1471381e+2, -878031.06, -921409.0, -0.026483022, 0.0000036745155, -0.00012628276, -878031.06, -42226.383, 0.0, 10.000012, 9.942944 
2.2450005e+3, 2.2465044e+2, -789745.06, -843144.0, 0.025820646, 0.0000036656947, 0.00012139388, -789745.06, -51319.3, 0.0, 10.000012, 9.929902 
2.2450005e+3, 2.345804e+2, -691311.7, -744965.7, -0.025864324, 0.0000036525662, -0.00008834695, -691311.7, -50199.605, 0.0, 10.000012, 9.929571 
2.2450005e+3, 2.4450342e+2, -602987.7, -667018.06, 0.025581233, 0.0000036398746, 0.00007514123, -602987.7, -59121.22, 0.0, 10.000012, 9.91613 
2.2450005e+3, 2.5441968e+2, -504235.16, -568342.7, -0.027121127, 0.0000036277072, -0.00010633849, -504235.16, -57547.94, 0.0, 10.000012, 9.91603 
2.2450005e+3, 2.6432884e+2, -415999.8, -490987.34, 0.023257028, 0.0000036180195, 0.0001409512, -415999.8, -66422.44, 0.0, 10.000012, 9.901958 
2.2450005e+3, 2.7423134e+2, -316714.7, -391374.28, -0.02470236, 0.0000036114825, -0.00020313739, -316714.7, -64181.934, 0.0, 10.000012, 9.902379 
2.2450005e+3, 2.8412563e+2, -230241.5, -318080.8, 0.024882568, 0.0000036056244, 0.00022931428, -230241.5, -74672.71, 0.0, 10.000012, 9.885433 
2.2450005e+3, 2.9401213e+2, -130535.45, -217764.66, -0.021377193, 0.0000036006772, -0.00025309643, -130535.45, -71854.19, 0.0, 10.000012, 9.886211 
2.2450005e+3, 3.0392656e+2, -40791.64, -84749.984, 0.027110856, 0.0000035955643, 0.00017333585, -40791.64, -40791.64, 0.0, 10.000012, 9.942167 
2.2450005e+3, 3.138706e+2, -39713.66, -82511.06, -0.017497204, 0.0000035902015, -0.00005502714, -39713.66, -39713.66, 0.0, 10.000012, 9.943678 
2.2550005e+3, 1.2499346e+2, -1719930.4, -1724223.6, 0.015765654, 0.0000039226948, 0.000018834966, -1719930.4, -4866.2744, 0.0, 10.000013, 9.994321 
2.2550005e+3, 1.349877e+2, -1622550.1, -1627434.0, -0.04523114, 0.0000038910493, -0.000068302084, -1622550.1, -5429.617, 0.0, 10.000013, 9.993538 
2.2550005e+3, 1.4497523e+2, -1534448.8, -1548145.1, 0.009204482, 0.0000038680105, 0.00007245999, -1534448.8, -15206.079, 0.0, 10.000013, 9.981858 
2.2550005e+3, 1.5495712e+2, -1436721.3, -1450821.0, -0.04527894, 0.0000038528665, -0.000056176224, -1436721.3, -15301.005, 0.0, 10.000013, 9.981327 
2.2550005e+3, 1.6493237e+2, -1348670.4, -1371951.5, 0.012764783, 0.0000038337002, 0.00004787106, -1348670.4, -25007.543, 0.0, 10.000013, 9.969242 
2.2550005e+3, 1.7490163e+2, -1250712.5, -1274309.4, -0.045198575, 0.0000038104279, -0.00007310473, -1250712.5, -24748.62, 0.0, 10.000012, 9.968828 
2.2550005e+3, 1.8486428e+2, -1162631.6, -1195719.3, 0.009315418, 0.000003796643, 0.00006691156, -1162631.6, -34301.67, 0.0, 10.000012, 9.956389 
2.2550005e+3, 1.9482073e+2, -1064482.0, -1097832.3, -0.045250125, 0.0000037927825, -0.000057013352, -1064482.0, -33725.1, 0.0, 10.000012, 9.956046 
2.2550005e+3, 2.0477048e+2, -976318.1, -1019434.3, 0.0112078, 0.000003779304, 0.00006865024, -976318.1, -43068.863, 0.0, 10.000012, 9.943284 
2.2550005e+3, 2.1471381e+2, -878031.2, -921409.25, -0.043465406, 0.0000037554064, -0.0001262693, -878031.2, -42226.52, 0.0, 10.000012, 9.942944 
2.2550005e+3, 2.2465044e+2, -789745.2, -843144.25, 0.009989795, 0.0000037401921, 0.000121407626, -789745.2, -51319.43, 0.0, 10.000012, 9.929902 
2.2550005e+3, 2.345804e+2, -691311.8, -744965.94, -0.04165801, 0.0000037348082, -0.000088338675, -691311.8, -50199.734, 0.0, 10.000012, 9.92957 
2.2550005e+3, 2.4450342e+2, -602987.8, -667018.3, 0.011789718, 0.0000037269556, 0.00007514776, -602987.8, -59121.35, 0.0, 10.000012, 9.91613 
2.2550005e+3, 2.5441968e+2, -504235.25, -568342.94, -0.040816918, 0.0000037161417, -0.00010632925, -504235.25, -57548.07, 0.0, 10.000012, 9.91603 
2.2550005e+3, 2.6432884e+2, -415999.94, -490987.56, 0.013380763, 0.0000037060527, 0.00014096178, -415999.94, -66422.555, 0.0, 10.000012, 9.901958 
2.2550005e+3, 2.7423134e+2, -316714.8, -391374.5, -0.034323238, 0.0000036968902, -0.00020312726, -316714.8, -64182.05, 0.0, 10.000012, 9.902379 
2.2550005e+3, 2.8412563e+2, -230241.6, -318081.03, 0.016927296, 0.000003690179, 0.00022932136, -230241.6, -74672.82, 0.0, 10.000012, 9.885432 
2.2550005e+3, 2.9401213e+2, -130535.555, -217764.88, -0.029182918, 0.0000036868155, -0.00025309593, -130535.555, -71854.3, 0.0, 10.000012, 9.886211 
2.2550005e+3, 3.0392656e+2, -40791.746, -84750.21, 0.020864902, 0.0000036802344, 0.00017333521, -40791.746, -40791.746, 0.0, 10.000012, 9.942166 
2.2550005e+3, 3.138706e+2, -39713.766, -82511.29, -0.023560762, 0.0000036688527, -0.000055020733, -39713.766, -39713.766, 0.0, 10.000012, 9.943678 
2.2650005e+3, 1.2499346e+2, -1719929.5, -1724223.3, 0.047499787, 0.000004011992, 0.000018868457, -1719929.5, -4865.3574, 0.0, 10.000014, 9.994321 
2.2650005e+3, 1.349877e+2, -1622549.1, -1627433.6, -0.014001028, 0.0000039825236, -0.00006831972, -1622549.1, -5428.705, 0.0, 10.000013, 9.993538 
2.2650005e+3, 1.4497524e+2, -1534447.8, -1548144.9, 0.04032392, 0.000003959834, 0.000072506096, -1534447.8, -15205.167, 0.0, 10.000013, 9.981858 
2.2650005e+3, 1.5495712e+2, -1436720.3, -1450820.6, -0.02088227, 0.0000039431825, -0.00005615479, -1436720.3, -15300.103, 0.0, 10.000013, 9.981326 
2.2650005e+3, 1.6493237e+2, -1348669.4, -1371951.1, 0.03697639, 0.0000039224933, 0.0000478818, -1348669.4, -25006.652, 0.0, 10.000013, 9.969242 
2.2650005e+3, 1.7490163e+2, -1250711.6, -1274309.1, -0.02236881, 0.0000038976823, -0.0000730904, -1250711.6, -24747.74, 0.0, 10.000013, 9.968828 
2.2650005e+3, 1.848643e+2, -1162630.6, -1195719.0, 0.031028273, 0.000003884429, 0.00006692661, -1162630.6, -34300.793, 0.0, 10.000013, 9.956389 
2.2650005e+3, 1.9482073e+2, -1064481.1, -1097831.9, -0.025805699, 0.0000038832677, -0.000057000623, -1064481.1, -33724.223, 0.0, 10.000013, 9.956046 
2.2650005e+3, 2.0477049e+2, -976317.2, -1019434.0, 0.03138735, 0.0000038697963, 0.000068662885, -976317.2, -43067.99, 0.0, 10.000013, 9.943284 
2.2650005e+3, 2.1471381e+2, -878030.3, -921408.94, -0.027197588, 0.0000038429916, -0.00012625431, -878030.3, -42225.664, 0.0, 10.000013, 9.942944 
2.2650005e+3, 2.2465044e+2, -789744.3, -843144.0, 0.02563207, 0.0000038261246, 0.00012142214, -789744.3, -51318.574, 0.0, 10.000013, 9.929901 
2.2650005e+3, 2.345804e+2, -691310.94, -744965.6, -0.027985597, 0.0000038205076, -0.00008832781, -691310.94, -50198.88, 0.0, 10.000013, 9.92957 
2.2650005e+3, 2.4450342e+2, -602986.94, -667018.06, 0.026195737, 0.0000038131511, 0.00007515541, -602986.94, -59120.504, 0.0, 10.000013, 9.91613 
2.2650005e+3, 2.5441968e+2, -504234.4, -568342.6, -0.027479177, 0.0000038037026, -0.00010632428, -504234.4, -57547.223, 0.0, 10.000013, 9.91603 
2.2650005e+3, 2.6432884e+2, -415999.06, -490987.28, 0.026367795, 0.0000037940713, 0.00014096723, -415999.06, -66421.71, 0.0, 10.000013, 9.901958 
2.2650005e+3, 2.7423134e+2, -316713.97, -391374.28, -0.026236637, 0.0000037842094, -0.00020311732, -316713.97, -64181.22, 0.0, 10.000013, 9.902379 
2.2650005e+3, 2.8412563e+2, -230240.77, -318080.78, 0.02422467, 0.0000037769776, 0.0002293326, -230240.77, -74671.99, 0.0, 10.000013, 9.885432 
2.2650005e+3, 2.9401213e+2, -130534.73, -217764.63, -0.02304714, 0.000003773343, -0.00025308775, -130534.73, -71853.48, 0.0, 10.000013, 9.886211 
2.2650005e+3, 3.0392656e+2, -40790.93, -84749.984, 0.027051147, 0.0000037659852, 0.00017334035, -40790.93, -40790.93, 0.0, 10.000013, 9.942166 
2.2650005e+3, 3.138706e+2, -39712.94, -82511.06, -0.021475183, 0.000003753074, -0.00005501855, -39712.94, -39712.94, 0.0, 10.000013, 9.943678 
2.2750005e+3, 1.2499346e+2, -1719929.6, -1724223.5, 0.017414905, 0.0000041122257, 0.000018908, -1719929.6, -4865.5317, 0.0, 10.000014, 9.99432 
2.2750005e+3, 1.3498771e+2, -1622549.3, -1627433.9, -0.04409175, 0.000004071461, -0.00006834506, -1622549.3, -5428.876, 0.0, 10.000013, 9.993538 
2.2750005e+3, 1.4497524e+2, -1534447.9, -1548145.1, 0.012976692, 0.000004044952, 0.000072546456, -1534447.9, -15205.336, 0.0, 10.000013, 9.981858 
2.2750005e+3, 1.5495712e+2, -1436720.4, -1450820.9, -0.04822576, 0.000004031984, -0.000056126813, -1436720.4, -15300.268, 0.0, 10.000013, 9.981326 
2.2750005e+3, 1.6493237e+2, -1348669.6, -1371951.4, 0.013235729, 0.0000040159293, 0.00004789963, -1348669.6, -25006.813, 0.0, 10.000013, 9.969242 
2.2750005e+3, 1.7490166e+2, -1250711.8, -1274309.4, -0.046090975, 0.000003996724, -0.00007308042, -1250711.8, -24747.896, 0.0, 10.000013, 9.968828 
2.2750005e+3, 1.848643e+2, -1162630.8, -1195719.3, 0.009463809, 0.0000039797787, 0.00006693538, -1162630.8, -34300.94, 0.0, 10.000013, 9.956388 
2.2750005e+3, 1.9482073e+2, -1064481.3, -1097832.1, -0.047345933, 0.0000039651945, -0.000056986115, -1064481.3, -33724.367, 0.0, 10.000013, 9.956046 
2.2750005e+3, 2.0477049e+2, -976317.3, -1019434.25, 0.011764957, 0.0000039510146, 0.000068680056, -976317.3, -43068.14, 0.0, 10.000013, 9.943284 
2.2750005e+3, 2.1471381e+2, -878030.44, -921409.2, -0.0467807, 0.000003937271, -0.0001262378, -878030.44, -42225.81, 0.0, 10.000013, 9.942943 
2.2750005e+3, 2.2465044e+2, -789744.44, -843144.2, 0.009635777, 0.0000039234897, 0.00012143743, -789744.44, -51318.71, 0.0, 10.000013, 9.929901 
2.2750005e+3, 2.345804e+2, -691311.06, -744965.9, -0.04386539, 0.0000039096635, -0.000088314366, -691311.06, -50199.01, 0.0, 10.000013, 9.92957 
2.2750005e+3, 2.4450342e+2, -602987.06, -667018.3, 0.012930954, 0.0000038984617, 0.000075164186, -602987.06, -59120.637, 0.0, 10.000013, 9.91613 
2.2750005e+3, 2.5441968e+2, -504234.53, -568342.9, -0.04061873, 0.0000038903904, -0.000106323576, -504234.53, -57547.35, 0.0, 10.000013, 9.91603 
2.2750005e+3, 2.6432884e+2, -415999.2, -490987.53, 0.01433481, 0.000003882076, 0.00014096755, -415999.2, -66421.84, 0.0, 10.000013, 9.901958 
2.2750005e+3, 2.7423134e+2, -316714.1, -391374.5, -0.038196005, 0.00000387344, -0.0002031076, -316714.1, -64181.344, 0.0, 10.000013, 9.902378 
2.2750005e+3, 2.8412563e+2, -230240.88, -318081.0, 0.015952343, 0.0000038660196, 0.00022934796, -230240.88, -74672.11, 0.0, 10.000013, 9.885432 
2.2750005e+3, 2.9401213e+2, -130534.836, -217764.86, -0.030988075, 0.0000038602598, -0.00025307192, -130534.836, -71853.586, 0.0, 10.000013, 9.88621 
2.2750005e+3, 3.0392656e+2, -40791.043, -84750.23, 0.02317034, 0.0000038528165, 0.00017335123, -40791.043, -40791.043, 0.0, 10.000013, 9.942166 
2.2750005e+3, 3.138706e+2, -39713.055, -82511.3, -0.024879763, 0.000003842864, -0.000055020588, -39713.055, -39713.055, 0.0, 10.000013, 9.943678 
2.2850005e+3, 1.24993466e+2, -1719928.6, -1724223.3, 0.046159092, 0.0000042124425, 0.000018942646, -1719928.6, -4864.582, 0.0, 10.000014, 9.99432 
2.2850005e+3, 1.3498771e+2, -1622548.4, -1627433.6, -0.01608051, 0.0000041634785, -0.000068361245, -1622548.4, -5427.9214, 0.0, 10.000014, 9.993538 
2.2850005e+3, 1.4497524e+2, -1534446.9, -1548144.8, 0.040660236, 0.000004134236, 0.00007259644, -1534446.9, -15204.383, 0.0, 10.000014, 9.981858 
2.2850005e+3, 1.5495715e+2, -1436719.5, -1450820.6, -0.023543121, 0.0000041240146, -0.00005610809, -1436719.5, -15299.32, 0.0, 10.000014, 9.981326 
2.2850005e+3, 1.6493237e+2, -1348668.6, -1371951.1, 0.03784782, 0.0000041107337, 0.000047906837, -1348668.6, -25005.871, 0.0, 10.000014, 9.969241 
2.2850005e+3, 1.7490166e+2, -1250710.8, -1274309.0, -0.022925831, 0.000004094331, -0.000073064555, -1250710.8, -24746.975, 0.0, 10.000014, 9.968828 
2.2850005e+3, 1.848643e+2, -1162629.9, -1195718.9, 0.033716157, 0.000004074902, 0.00006695437, -1162629.9, -34300.027, 0.0, 10.000014, 9.956388 
2.2850005e+3, 1.9482073e+2, -1064480.3, -1097831.9, -0.028948663, 0.0000040523023, -0.000056969784, -1064480.3, -33723.453, 0.0, 10.000014, 9.956046 
2.2850005e+3, 2.0477049e+2, -976316.4, -1019433.94, 0.028748889, 0.0000040375035, 0.00006869419, -976316.4, -43067.223, 0.0, 10.000014, 9.943284 
2.2850005e+3, 2.1471381e+2, -878029.56, -921408.94, -0.027879842, 0.0000040311506, -0.00012622536, -878029.56, -42224.902, 0.0, 10.000014, 9.942943 
2.2850005e+3, 2.2465044e+2, -789743.5, -843143.94, 0.02975638, 0.000004019432, 0.000121449186, -789743.5, -51317.813, 0.0, 10.000014, 9.929901 
2.2850005e+3, 2.345804e+2, -691310.1, -744965.6, -0.031217383, 0.000004001635, -0.00008830214, -691310.1, -50198.125, 0.0, 10.000014, 9.92957 
2.2850005e+3, 2.4450342e+2, -602986.2, -667018.0, 0.024442049, 0.000003988153, 0.000075175856, -602986.2, -59119.75, 0.0, 10.000014, 9.916129 
2.2850005e+3, 2.5441968e+2, -504233.63, -568342.6, -0.028780447, 0.0000039798288, -0.000106313644, -504233.63, -57546.473, 0.0, 10.000013, 9.91603 
2.2850005e+3, 2.6432884e+2, -415998.3, -490987.28, 0.027325448, 0.0000039716438, 0.00014097552, -415998.3, -66420.97, 0.0, 10.000013, 9.901958 
2.2850005e+3, 2.7423134e+2, -316713.2, -391374.25, -0.026939217, 0.00000396362, -0.00020310184, -316713.2, -64180.473, 0.0, 10.000013, 9.902378 
2.2850005e+3, 2.8412563e+2, -230239.98, -318080.75, 0.026618015, 0.0000039560123, 0.00022935357, -230239.98, -74671.234, 0.0, 10.000013, 9.885432 
2.2850005e+3, 2.9401213e+2, -130533.96, -217764.61, -0.026648723, 0.000003948969, -0.00025306368, -130533.96, -71852.72, 0.0, 10.000013, 9.88621 
2.2850005e+3, 3.0392656e+2, -40790.184, -84749.984, 0.027127944, 0.000003941948, 0.00017335881, -40790.184, -40790.184, 0.0, 10.000013, 9.942166 
2.2850005e+3, 3.138706e+2, -39712.207, -82511.06, -0.01880466, 0.00000393496, -0.00005501856, -39712.207, -39712.207, 0.0, 10.000013, 9.943678 
2.2950006e+3, 1.24993466e+2, -1719928.8, -1724223.5, 0.018114617, 0.000004312644, 0.000018972425, -1719928.8, -4864.7593, 0.0, 10.000014, 9.99432 
2.2950006e+3, 1.3498771e+2, -1622548.5, -1627433.9, -0.04413064, 0.0000042585752, -0.00006836827, -1622548.5, -5428.0957, 0.0, 10.000014, 9.993538 
2.2950006e+3, 1.4497524e+2, -1534447.1, -1548145.1, 0.012683889, 0.0000042276847, 0.00007265607, -1534447.1, -15204.56, 0.0, 10.000014, 9.981857 
2.2950006e+3, 1.5495715e+2, -1436719.6, -1450820.9, -0.051519584, 0.0000042192723, -0.000056098612, -1436719.6, -15299.494, 0.0, 10.000014, 9.981326 
2.2950006e+3, 1.6493237e+2, -1348668.8, -1371951.4, 0.010367071, 0.0000042069055, 0.000047903417, -1348668.8, -25006.033, 0.0, 10.000014, 9.969241 
2.2950006e+3, 1.7490166e+2, -1250710.9, -1274309.3, -0.05040481, 0.000004190503, -0.000073042815, -1250710.9, -24747.135, 0.0, 10.000014, 9.968827 
2.2950006e+3, 1.848643e+2, -1162630.0, -1195719.1, 0.013284079, 0.0000041697995, 0.00006698358, -1162630.0, -34300.19, 0.0, 10.000014, 9.956388 
2.2950006e+3, 1.9482075e+2, -1064480.4, -1097832.1, -0.049299598, 0.0000041445905, -0.000056951634, -1064480.4, -33723.613, 0.0, 10.000014, 9.956045 
2.2950006e+3, 2.0477049e+2, -976316.5, -1019434.2, 0.0077885, 0.000004129262, 0.00006870529, -976316.5, -43067.37, 0.0, 10.000014, 9.943284 
2.2950006e+3, 2.1471381e+2, -878029.7, -921409.2, -0.048853643, 0.0000041246317, -0.00012621698, -878029.7, -42225.047, 0.0, 10.000014, 9.942943 
2.2950006e+3, 2.2465044e+2, -789743.6, -843144.2, 0.012527639, 0.0000041139524, 0.000121457415, -789743.6, -51317.965, 0.0, 10.000014, 9.929901 
2.2950006e+3, 2.3458041e+2, -691310.25, -744965.9, -0.04832394, 0.00000409642, -0.00008829116, -691310.25, -50198.273, 0.0, 10.000014, 9.92957 
2.2950006e+3, 2.4450344e+2, -602986.3, -667018.25, 0.010409139, 0.000004082224, 0.00007519043, -602986.3, -59119.883, 0.0, 10.000014, 9.916129 
2.2950006e+3, 2.5441968e+2, -504233.75, -568342.9, -0.042666588, 0.000004072017, -0.0001062945, -504233.75, -57546.6, 0.0, 10.000013, 9.91603 
2.2950006e+3, 2.6432884e+2, -415998.44, -490987.53, 0.015898973, 0.0000040627756, 0.00014099115, -415998.44, -66421.1, 0.0, 10.000013, 9.901958 
2.2950006e+3, 2.7423134e+2, -316713.3, -391374.5, -0.038201313, 0.0000040547498, -0.00020310003, -316713.3, -64180.6, 0.0, 10.000013, 9.902378 
2.2950006e+3, 2.8412563e+2, -230240.11, -318081.0, 0.018063052, 0.000004046956, 0.0002293494, -230240.11, -74671.37, 0.0, 10.000013, 9.885432 
2.2950006e+3, 2.9401213e+2, -130534.08, -217764.86, -0.034960262, 0.000004039471, -0.00025306304, -130534.08, -71852.84, 0.0, 10.000013, 9.88621 
2.2950006e+3, 3.0392656e+2, -40790.293, -84750.22, 0.020679545, 0.00000403338, 0.00017336309, -40790.293, -40790.293, 0.0, 10.000013, 9.942166 
2.2950006e+3, 3.138706e+2, -39712.316, -82511.3, -0.025035275, 0.0000040293617, -0.00005501248, -39712.316, -39712.316, 0.0, 10.000013, 9.943678 
2.3050004e+3, 1.2499347e+2, -1719927.6, -1724223.1, 0.052834004, 0.0000044086, 0.000019007311, -1719927.6, -4863.739, 0.0, 10.000015, 9.99432 
2.3050004e+3, 1.3498771e+2, -1622547.5, -1627433.5, -0.018641405, 0.000004358705, -0.00006838098, -1622547.5, -5427.104, 0.0, 10.000015, 9.993538 
2.3050004e+3, 1.4497524e+2, -1534446.1, -1548144.8, 0.037964236, 0.00000432884, 0.00007271263, -1534446.1, -15203.575, 0.0, 10.000015, 9.981857 
2.3050004e+3, 1.5495715e+2, -1436718.6, -1450820.5, -0.022781244, 0.000004318265, -0.000056082048, -1436718.6, -15298.517, 0.0, 10.000015, 9.981326 
2.3050004e+3, 1.6493237e+2, -1348667.8, -1371951.0, 0.039692607, 0.000004303196, 0.000047907266, -1348667.8, -25005.059, 0.0, 10.000015, 9.969241 
2.3050004e+3, 1.7490166e+2, -1250709.9, -1274309.0, -0.027941039, 0.00000428354, -0.00007302381, -1250709.9, -24746.154, 0.0, 10.000015, 9.968827 
2.3050004e+3, 1.848643e+2, -1162629.0, -1195718.9, 0.035658255, 0.0000042641286, 0.000067006586, -1162629.0, -34299.215, 0.0, 10.000015, 9.956388 
2.3050004e+3, 1.9482075e+2, -1064479.5, -1097831.9, -0.026088439, 0.0000042449687, -0.0000569363, -1064479.5, -33722.664, 0.0, 10.000015, 9.956045 
2.3050004e+3, 2.0477049e+2, -976315.56, -1019433.9, 0.031700518, 0.000004229292, 0.00006871711, -976315.56, -43066.43, 0.0, 10.000014, 9.943284 
2.3050004e+3, 2.1471383e+2, -878028.7, -921408.9, -0.031911753, 0.0000042173842, -0.00012620416, -878028.7, -42224.098, 0.0, 10.000014, 9.942943 
2.3050004e+3, 2.2465044e+2, -789742.7, -843143.9, 0.028924443, 0.000004204926, 0.00012146969, -789742.7, -51317.02, 0.0, 10.000014, 9.929901 
2.3050004e+3, 2.3458041e+2, -691309.3, -744965.56, -0.029253282, 0.00000419184, -0.00008828118, -691309.3, -50197.336, 0.0, 10.000014, 9.92957 
2.3050004e+3, 2.4450344e+2, -602985.3, -667017.94, 0.02977406, 0.0000041793915, 0.00007520043, -602985.3, -59118.953, 0.0, 10.000014, 9.916129 
2.3050004e+3, 2.5441968e+2, -504232.8, -568342.56, -0.031679418, 0.0000041677013, -0.000106281725, -504232.8, -57545.684, 0.0, 10.000014, 9.916029 
2.3050004e+3, 2.6432887e+2, -415997.5, -490987.25, 0.025638714, 0.000004156977, 0.00014100347, -415997.5, -66420.19, 0.0, 10.000014, 9.9019575 
2.3050004e+3, 2.7423134e+2, -316712.38, -391374.22, -0.029217854, 0.0000041474764, -0.00020309229, -316712.38, -64179.688, 0.0, 10.000014, 9.902378 
2.3050004e+3, 2.8412563e+2, -230239.19, -318080.75, 0.028619489, 0.0000041396497, 0.00022935393, -230239.19, -74670.45, 0.0, 10.000014, 9.885432 
2.3050004e+3, 2.9401213e+2, -130533.164, -217764.6, -0.023728406, 0.000004134105, -0.00025305978, -130533.164, -71851.94, 0.0, 10.000014, 9.88621 
2.3050004e+3, 3.0392656e+2, -40789.395, -84749.97, 0.031090569, 0.0000041280687, 0.00017336648, -40789.395, -40789.395, 0.0, 10.000014, 9.942166 
2.3050004e+3, 3.138706e+2, -39711.418, -82511.05, -0.021976324, 0.0000041212884, -0.000055006934, -39711.418, -39711.418, 0.0, 10.000014, 9.943677 
2.3150004e+3, 1.2499347e+2, -1719927.9, -1724223.4, 0.018985176, 0.000004500313, 0.000019047331, -1719927.9, -4863.9395, 0.0, 10.000015, 9.99432 
2.3150004e+3, 1.3498773e+2, -1622547.6, -1627433.8, -0.052496493, 0.0000044638673, -0.000068399386, -1622547.6, -5427.301, 0.0, 10.000015, 9.993537 
2.3150004e+3, 1.4497526e+2, -1534446.3, -1548145.0, 0.009199798, 0.0000044377, 0.00007276613, -1534446.3, -15203.746, 0.0, 10.000015, 9.981857 
2.3150004e+3, 1.5495715e+2, -1436718.8, -1450820.8, -0.05153883, 0.0000044209914, -0.000056058398, -1436718.8, -15298.684, 0.0, 10.000015, 9.981326 
2.3150004e+3, 1.6493239e+2, -1348667.9, -1371951.3, 0.014647858, 0.0000043996047, 0.000047918376, -1348667.9, -25005.24, 0.0, 10.000015, 9.969241 
2.3150004e+3, 1.7490166e+2, -1250710.0, -1274309.3, -0.052966557, 0.000004373442, -0.00007300755, -1250710.0, -24746.33, 0.0, 10.000015, 9.968827 
2.3150004e+3, 1.848643e+2, -1162629.1, -1195719.1, 0.009431899, 0.00000435789, 0.00006702339, -1162629.1, -34299.38, 0.0, 10.000015, 9.956388 
2.3150004e+3, 1.9482075e+2, -1064479.6, -1097832.1, -0.052329514, 0.000004353436, -0.000056923778, -1064479.6, -33722.824, 0.0, 10.000015, 9.956045 
2.3150004e+3, 2.0477049e+2, -976315.7, -1019434.2, 0.013160375, 0.000004337592, 0.00006872966, -976315.7, -43066.59, 0.0, 10.000014, 9.943283 
2.3150004e+3, 2.1471383e+2, -878028.8, -921409.1, -0.05029351, 0.0000043094096, -0.00012618689, -878028.8, -42224.258, 0.0, 10.000014, 9.942943 
2.3150004e+3, 2.2465044e+2, -789742.8, -843144.1, 0.0105692735, 0.000004292354, 0.00012148602, -789742.8, -51317.164, 0.0, 10.000014, 9.929901 
2.3150004e+3, 2.3458041e+2, -691309.44, -744965.8, -0.047608275, 0.0000042878946, -0.00008827221, -691309.44, -50197.48, 0.0, 10.000014, 9.929569 
2.3150004e+3, 2.4450344e+2, -602985.5, -667018.25, 0.01363091, 0.000004279654, 0.00007520585, -602985.5, -59119.1, 0.0, 10.000014, 9.916129 
2.3150004e+3, 2.5441968e+2, -504232.94, -568342.9, -0.047716778, 0.000004266881, -0.00010627531, -504232.94, -57545.832, 0.0, 10.000014, 9.916029 
2.3150004e+3, 2.6432887e+2, -415997.63, -490987.5, 0.014957239, 0.0000042542483, 0.00014101248, -415997.63, -66420.32, 0.0, 10.000014, 9.9019575 
2.3150004e+3, 2.7423134e+2, -316712.5, -391374.47, -0.039541114, 0.0000042418, -0.00020307864, -316712.5, -64179.82, 0.0, 10.000014, 9.902378 
2.3150004e+3, 2.8412563e+2, -230239.31, -318081.0, 0.019329194, 0.0000042340935, 0.00022936717, -230239.31, -74670.586, 0.0, 10.000014, 9.885431 
2.3150004e+3, 2.9401213e+2, -130533.29, -217764.84, -0.032926332, 0.00000423287, -0.00025305388, -130533.29, -71852.07, 0.0, 10.000014, 9.88621 
2.3150004e+3, 3.0392656e+2, -40789.52, -84750.23, 0.024346774, 0.0000042260135, 0.00017336899, -40789.52, -40789.52, 0.0, 10.000014, 9.942165 
2.3150004e+3, 3.138706e+2, -39711.543, -82511.31, -0.028432576, 0.0000042107404, -0.000055001925, -39711.543, -39711.543, 0.0, 10.000014, 9.943677 
2.3250008e+3, 1.2499349e+2, -1719926.8, -1724223.0, 0.05166606, 0.0000046026494, 0.000019086081, -1719926.8, -4862.8867, 0.0, 10.000016, 9.99432 
2.3250005e+3, 1.3498773e+2, -1622546.5, -1627433.4, -0.016070433, 0.0000045670827, -0.00006842118, -1622546.5, -5426.2544, 0.0, 10.000016, 9.993537 
2.3250005e+3, 1.4497526e+2, -1534445.1, -1548144.6, 0.046155546, 0.0000045407805, 0.000072818875, -1534445.1, -15202.702, 0.0, 10.000016, 9.981857 
2.3250005e+3, 1.5495715e+2, -1436717.6, -1450820.4, -0.02605655, 0.000004522894, -0.00005603437, -1436717.6, -15297.654, 0.0, 10.000016, 9.981325 
2.3250005e+3, 1.6493239e+2, -1348666.9, -1371951.0, 0.039647657, 0.000004500896, 0.00004793003, -1348666.9, -25004.22, 0.0, 10.000015, 9.969241 
2.3250005e+3, 1.7490168e+2, -1250709.0, -1274308.9, -0.025442166, 0.0000044747017, -0.00007299157, -1250709.0, -24745.324, 0.0, 10.000015, 9.968827 
2.3250005e+3, 1.8486431e+2, -1162628.1, -1195718.8, 0.036272064, 0.0000044585763, 0.000067040775, -1162628.1, -34298.37, 0.0, 10.000015, 9.956388 
2.3250005e+3, 1.9482075e+2, -1064478.5, -1097831.8, -0.031560645, 0.000004452983, -0.000056908033, -1064478.5, -33721.813, 0.0, 10.000015, 9.956045 
2.3250005e+3, 2.0477049e+2, -976314.7, -1019433.8, 0.034072787, 0.0000044370618, 0.00006874468, -976314.7, -43065.586, 0.0, 10.000015, 9.943283 
2.3250005e+3, 2.1471383e+2, -878027.8, -921408.8, -0.031647593, 0.0000044099534, -0.00012617162, -878027.8, -42223.273, 0.0, 10.000015, 9.942943 
2.3250005e+3, 2.2465046e+2, -789741.8, -843143.8, 0.028491423, 0.00000439263, 0.00012150084, -789741.8, -51316.188, 0.0, 10.000015, 9.9299 
2.3250005e+3, 2.3458041e+2, -691308.44, -744965.5, -0.033590604, 0.0000043863847, -0.000088258654, -691308.44, -50196.504, 0.0, 10.000015, 9.929569 
2.3250005e+3, 2.4450344e+2, -602984.5, -667017.94, 0.028638007, 0.000004377198, 0.000075216994, -602984.5, -59118.133, 0.0, 10.000015, 9.916129 
2.3250005e+3, 2.5441968e+2, -504231.97, -568342.56, -0.03243128, 0.0000043644823, -0.00010626793, -504231.97, -57544.86, 0.0, 10.000015, 9.916029 
2.3250005e+3, 2.6432887e+2, -415996.63, -490987.2, 0.030497612, 0.0000043522723, 0.00014101925, -415996.63, -66419.35, 0.0, 10.000015, 9.9019575 
2.3250005e+3, 2.7423134e+2, -316711.56, -391374.2, -0.029891374, 0.0000043407113, -0.00020306848, -316711.56, -64178.867, 0.0, 10.000015, 9.902378 
2.3250005e+3, 2.8412563e+2, -230238.36, -318080.72, 0.026887579, 0.0000043330933, 0.00022937839, -230238.36, -74669.64, 0.0, 10.000015, 9.885431 
2.3250005e+3, 2.9401213e+2, -130532.336, -217764.56, -0.028438617, 0.000004330865, -0.0002530448, -130532.336, -71851.125, 0.0, 10.000015, 9.88621 
2.3250005e+3, 3.0392656e+2, -40788.582, -84749.98, 0.030304855, 0.000004323158, 0.00017337488, -40788.582, -40788.582, 0.0, 10.000015, 9.942165 
2.3250005e+3, 3.138706e+2, -39710.598, -82511.055, -0.02184387, 0.0000043072755, -0.00005500072, -39710.598, -39710.598, 0.0, 10.000015, 9.943677 
2.3350008e+3, 1.2499349e+2, -1719926.9, -1724223.4, 0.017214565, 0.0000047156072, 0.000019123587, -1719926.9, -4863.0806, 0.0, 10.000016, 9.994319 
2.3350008e+3, 1.3498773e+2, -1622546.6, -1627433.8, -0.050528873, 0.000004668352, -0.00006844635, -1622546.6, -5426.445, 0.0, 10.000016, 9.993537 
2.3350008e+3, 1.4497526e+2, -1534445.3, -1548144.9, 0.015024022, 0.0000046380824, 0.00007287086, -1534445.3, -15202.9, 0.0, 10.000016, 9.981857 
2.3350008e+3, 1.5495716e+2, -1436717.9, -1450820.8, -0.05718326, 0.0000046239725, -0.000056009965, -1436717.9, -15297.849, 0.0, 10.000016, 9.981325 
2.3350008e+3, 1.6493239e+2, -1348667.0, -1371951.3, 0.0127341645, 0.00000460707, 0.00004794222, -1348667.0, -25004.398, 0.0, 10.000015, 9.969241 
2.3350008e+3, 1.7490168e+2, -1250709.1, -1274309.1, -0.05233446, 0.000004587317, -0.00007297589, -1250709.1, -24745.496, 0.0, 10.000015, 9.968827 
2.3350005e+3, 1.8486431e+2, -1162628.3, -1195719.0, 0.012327052, 0.0000045661873, 0.00006705874, -1162628.3, -34298.547, 0.0, 10.000015, 9.9563875 
2.3350005e+3, 1.9482075e+2, -1064478.8, -1097832.0, -0.055472124, 0.0000045436113, -0.000056889065, -1064478.8, -33721.984, 0.0, 10.000015, 9.956045 
2.3350005e+3, 2.047705e+2, -976314.8, -1019434.1, 0.011120209, 0.0000045277034, 0.00006876216, -976314.8, -43065.754, 0.0, 10.000015, 9.943283 
2.3350005e+3, 2.1471383e+2, -878028.0, -921409.1, -0.054580875, 0.000004519014, -0.00012615834, -878028.0, -42223.44, 0.0, 10.000015, 9.942942 
2.3350005e+3, 2.2465046e+2, -789741.94, -843144.1, 0.01012146, 0.0000045057527, 0.00012151415, -789741.94, -51316.344, 0.0, 10.000015, 9.9299 
2.3350005e+3, 2.3458041e+2, -691308.56, -744965.8, -0.051812306, 0.0000044873104, -0.000088240515, -691308.56, -50196.656, 0.0, 10.000015, 9.929569 
2.3350005e+3, 2.4450344e+2, -602984.6, -667018.2, 0.0142325945, 0.0000044720227, 0.00007523387, -602984.6, -59118.285, 0.0, 10.000015, 9.916129 
2.3350005e+3, 2.5441968e+2, -504232.1, -568342.8, -0.046653874, 0.0000044605044, -0.00010625959, -504232.1, -57545.008, 0.0, 10.000015, 9.916029 
2.3350005e+3, 2.6432887e+2, -415996.78, -490987.47, 0.01644665, 0.00000445105, 0.00014102376, -415996.78, -66419.5, 0.0, 10.000015, 9.9019575 
2.3350005e+3, 2.7423134e+2, -316711.7, -391374.47, -0.04393142, 0.000004444208, -0.0002030618, -316711.7, -64179.01, 0.0, 10.000015, 9.902377 
2.3350005e+3, 2.8412563e+2, -230238.48, -318080.97, 0.017337, 0.0000044366484, 0.00022938763, -230238.48, -74669.77, 0.0, 10.000015, 9.885431 
2.3350005e+3, 2.9401213e+2, -130532.46, -217764.83, -0.03758558, 0.000004428089, -0.00025303254, -130532.46, -71851.26, 0.0, 10.000015, 9.8862095 
2.3350005e+3, 3.0392656e+2, -40788.707, -84750.234, 0.025678147, 0.0000044195026, 0.00017338418, -40788.707, -40788.707, 0.0, 10.000015, 9.942165 
2.3350005e+3, 3.138706e+2, -39710.723, -82511.31, -0.025940742, 0.0000044108924, -0.000055003322, -39710.723, -39710.723, 0.0, 10.000015, 9.943677 
2.3450008e+3, 1.24993496e+2, -1719925.8, -1724223.0, 0.05536052, 0.0000048280226, 0.000019160278, -1719925.8, -4861.9927, 0.0, 10.000017, 9.994319 
2.3450008e+3, 1.3498773e+2, -1622545.5, -1627433.4, -0.019153863, 0.000004773001, -0.000068464346, -1622545.5, -5425.35, 0.0, 10.000017, 9.993537 
2.3450008e+3, 1.4497526e+2, -1534444.1, -1548144.5, 0.04530578, 0.0000047402336, 0.000072930525, -1534444.1, -15201.808, 0.0, 10.000017, 9.981856 
2.3450008e+3, 1.5495716e+2, -1436716.8, -1450820.4, -0.025602866, 0.000004728905, -0.000055991542, -1436716.8, -15296.764, 0.0, 10.000016, 9.981325 
2.3450008e+3, 1.6493239e+2, -1348665.9, -1371950.9, 0.04418029, 0.0000047139806, 0.000047947393, -1348665.9, -25003.32, 0.0, 10.000016, 9.96924 
2.3450008e+3, 1.7490168e+2, -1250708.1, -1274308.8, -0.028944146, 0.0000046953865, -0.00007295536, -1250708.1, -24744.438, 0.0, 10.000016, 9.968827 
2.3450008e+3, 1.8486431e+2, -1162627.1, -1195718.8, 0.035896055, 0.0000046724517, 0.0000670836, -1162627.1, -34297.5, 0.0, 10.000016, 9.9563875 
2.3450008e+3, 1.9482075e+2, -1064477.6, -1097831.8, -0.032915883, 0.000004644972, -0.000056871402, -1064477.6, -33720.938, 0.0, 10.000016, 9.956044 
2.3450008e+3, 2.047705e+2, -976313.75, -1019433.75, 0.033507854, 0.0000046287855, 0.000068775975, -976313.75, -43064.71, 0.0, 10.000016, 9.943283 
2.3450008e+3, 2.1471383e+2, -878026.94, -921408.75, -0.032386858, 0.0000046248297, -0.00012614473, -878026.94, -42222.402, 0.0, 10.000016, 9.942942 
2.3450008e+3, 2.2465046e+2, -789740.9, -843143.75, 0.033448502, 0.000004612181, 0.00012152759, -789740.9, -51315.316, 0.0, 10.000016, 9.9299 
2.3450008e+3, 2.3458041e+2, -691307.56, -744965.44, -0.036401216, 0.000004589686, -0.00008822721, -691307.56, -50195.637, 0.0, 10.000016, 9.929569 
2.3450005e+3, 2.4450344e+2, -602983.56, -667017.9, 0.027750444, 0.000004572913, 0.00007524694, -602983.56, -59117.266, 0.0, 10.000016, 9.916128 
2.3450005e+3, 2.5441968e+2, -504231.06, -568342.5, -0.034022495, 0.0000045629813, -0.000106246865, -504231.06, -57544.0, 0.0, 10.000016, 9.916029 
2.3450005e+3, 2.6432887e+2, -415995.75, -490987.2, 0.029931743, 0.0000045543143, 0.00014103443, -415995.75, -66418.5, 0.0, 10.000016, 9.9019575 
2.3450005e+3, 2.7423134e+2, -316710.7, -391374.16, -0.031128854, 0.000004547237, -0.00020305533, -316710.7, -64178.01, 0.0, 10.000016, 9.902377 
2.3450005e+3, 2.8412563e+2, -230237.47, -318080.7, 0.031500388, 0.0000045388574, 0.00022939238, -230237.47, -74668.77, 0.0, 10.000016, 9.885431 
2.3450005e+3, 2.9401213e+2, -130531.45, -217764.53, -0.028664945, 0.000004528683, -0.0002530261, -130531.45, -71850.266, 0.0, 10.000016, 9.8862095 
2.3450005e+3, 3.0392656e+2, -40787.72, -84749.96, 0.03227321, 0.00000452007, 0.00017339096, -40787.72, -40787.72, 0.0, 10.000016, 9.942165 
2.3450005e+3, 3.138706e+2, -39709.75, -82511.05, -0.023462208, 0.0000045138004, -0.00005499818, -39709.75, -39709.75, 0.0, 10.000016, 9.943677 
2.3550007e+3, 1.24993496e+2, -1719926.0, -1724223.3, 0.02341451, 0.000004939896, 0.000019196186, -1719926.0, -4862.2036, 0.0, 10.000017, 9.994319 
2.3550007e+3, 1.3498774e+2, -1622545.8, -1627433.6, -0.05110588, 0.0000048810284, -0.00006847514, -1622545.8, -5425.5576, 0.0, 10.000017, 9.993537 
2.3550007e+3, 1.4497527e+2, -1534444.4, -1548144.9, 0.013065184, 0.000004847234, 0.000072997864, -1534444.4, -15202.005, 0.0, 10.000017, 9.981856 
2.3550007e+3, 1.5495716e+2, -1436716.9, -1450820.6, -0.057844527, 0.000004837691, -0.000055979104, -1436716.9, -15296.957, 0.0, 10.000016, 9.981325 
2.3550007e+3, 1.6493239e+2, -1348666.0, -1371951.1, 0.013834844, 0.0000048216284, 0.000047945552, -1348666.0, -25003.516, 0.0, 10.000016, 9.96924 
2.3550007e+3, 1.7490168e+2, -1250708.3, -1274309.1, -0.05928026, 0.000004798911, -0.000072929986, -1250708.3, -24744.63, 0.0, 10.000016, 9.968826 
2.3550007e+3, 1.8486431e+2, -1162627.4, -1195719.0, 0.01203472, 0.0000047773715, 0.00006711537, -1162627.4, -34297.68, 0.0, 10.000016, 9.9563875 
2.3550007e+3, 1.9482076e+2, -1064477.8, -1097832.0, -0.05670305, 0.000004757061, -0.000056855046, -1064477.8, -33721.113, 0.0, 10.000016, 9.956044 
2.3550007e+3, 2.047705e+2, -976313.9, -1019434.06, 0.009497064, 0.0000047403064, 0.00006878613, -976313.9, -43064.88, 0.0, 10.000016, 9.943283 
2.3550007e+3, 2.1471383e+2, -878027.06, -921409.06, -0.056403246, 0.0000047274007, -0.0001261308, -878027.06, -42222.57, 0.0, 10.000016, 9.942942 
2.3550007e+3, 2.2465046e+2, -789741.06, -843144.06, 0.014689956, 0.000004711917, 0.00012154115, -789741.06, -51315.492, 0.0, 10.000016, 9.9299 
2.3550007e+3, 2.3458041e+2, -691307.7, -744965.75, -0.054988116, 0.0000046935115, -0.00008821872, -691307.7, -50195.805, 0.0, 10.000016, 9.929569 
2.3550007e+3, 2.4450344e+2, -602983.75, -667018.1, 0.011134087, 0.0000046798677, 0.000075256234, -602983.75, -59117.418, 0.0, 10.000016, 9.916128 
2.3550007e+3, 2.5441968e+2, -504231.22, -568342.8, -0.050545175, 0.0000046719115, -0.00010622977, -504231.22, -57544.15, 0.0, 10.000016, 9.916028 
2.3550007e+3, 2.6432887e+2, -415995.9, -490987.44, 0.016626762, 0.0000046620657, 0.00014105126, -415995.9, -66418.65, 0.0, 10.000016, 9.9019575 
2.3550007e+3, 2.7423134e+2, -316710.8, -391374.44, -0.044218943, 0.0000046497985, -0.00020304906, -316710.8, -64178.16, 0.0, 10.000016, 9.902377 
2.3550007e+3, 2.8412563e+2, -230237.61, -318080.97, 0.022116395, 0.0000046397204, 0.00022939265, -230237.61, -74668.92, 0.0, 10.000016, 9.885431 
2.3550007e+3, 2.9401213e+2, -130531.59, -217764.81, -0.037715595, 0.0000046326454, -0.00025302553, -130531.59, -71850.41, 0.0, 10.000016, 9.8862095 
2.3550007e+3, 3.0392656e+2, -40787.855, -84750.234, 0.02470027, 0.0000046248597, 0.00017339522, -40787.855, -40787.855, 0.0, 10.000016, 9.942165 
2.3550007e+3, 3.138706e+2, -39709.883, -82511.32, -0.03086259, 0.0000046160003, -0.000054985307, -39709.883, -39709.883, 0.0, 10.000016, 9.943676 
2.3650007e+3, 1.249935e+2, -1719924.8, -1724222.9, 0.058075134, 0.000005049097, 0.000019239787, -1719924.8, -4861.0376, 0.0, 10.000018, 9.994319 
2.3650007e+3, 1.3498774e+2, -1622544.5, -1627433.3, -0.020518163, 0.000004994502, -0.00006849378, -1622544.5, -5424.423, 0.0, 10.000017, 9.993536 
2.3650007e+3, 1.4497527e+2, -1534443.1, -1548144.5, 0.043826453, 0.000004961356, 0.00007306045, -1534443.1, -15200.876, 0.0, 10.000017, 9.981856 
2.3650007e+3, 1.5495716e+2, -1436715.8, -1450820.3, -0.028652737, 0.0000049487912, -0.0000559565, -1436715.8, -15295.832, 0.0, 10.000017, 9.981325 
2.3650007e+3, 1.649324e+2, -1348664.9, -1371950.8, 0.043964837, 0.000004930027, 0.000047953396, -1348664.9, -25002.396, 0.0, 10.000017, 9.96924 
2.3650007e+3, 1.7490168e+2, -1250707.1, -1274308.8, -0.030850697, 0.0000049049363, -0.000072911134, -1250707.1, -24743.51, 0.0, 10.000017, 9.968826 
2.3650007e+3, 1.8486431e+2, -1162626.3, -1195718.6, 0.040926285, 0.0000048851402, 0.000067137444, -1162626.3, -34296.566, 0.0, 10.000017, 9.9563875 
2.3650007e+3, 1.9482076e+2, -1064476.6, -1097831.6, -0.031254377, 0.00000487088, -0.000056837882, -1064476.6, -33720.03, 0.0, 10.000017, 9.956044 
2.3650007e+3, 2.047705e+2, -976312.8, -1019433.7, 0.03458706, 0.000004853193, 0.00006880126, -976312.8, -43063.805, 0.0, 10.000017, 9.943282 
2.3650007e+3, 2.1471383e+2, -878025.94, -921408.7, -0.03832462, 0.000004831792, -0.00012611458, -878025.94, -42221.48, 0.0, 10.000017, 9.942942 
2.3650007e+3, 2.2465046e+2, -789739.94, -843143.75, 0.032310024, 0.000004814549, 0.000121556586, -789739.94, -51314.402, 0.0, 10.000017, 9.9299 
2.3650007e+3, 2.3458041e+2, -691306.6, -744965.44, -0.034162875, 0.00000480201, -0.000088206165, -691306.6, -50194.734, 0.0, 10.000017, 9.929568 
2.3650007e+3, 2.4450344e+2, -602982.6, -667017.8, 0.033282265, 0.00000479055, 0.00007526697, -602982.6, -59116.36, 0.0, 10.000017, 9.916128 
2.3650007e+3, 2.5441968e+2, -504230.13, -568342.44, -0.035526518, 0.00000478037, -0.00010621955, -504230.13, -57543.1, 0.0, 10.000017, 9.916028 
2.3650007e+3, 2.6432887e+2, -415994.84, -490987.13, 0.030336399, 0.0000047684484, 0.00014106136, -415994.84, -66417.6, 0.0, 10.000017, 9.901957 
2.3650007e+3, 2.7423134e+2, -316709.75, -391374.13, -0.034751613, 0.000004754303, -0.00020303855, -316709.75, -64177.11, 0.0, 10.000017, 9.902377 
2.3650007e+3, 2.8412563e+2, -230236.55, -318080.66, 0.03106951, 0.000004744277, 0.0002294027, -230236.55, -74667.875, 0.0, 10.000016, 9.885431 
2.3650007e+3, 2.9401213e+2, -130530.55, -217764.52, -0.028641673, 0.0000047398935, -0.0002530171, -130530.55, -71849.37, 0.0, 10.000016, 9.8862095 
2.3650007e+3, 3.0392656e+2, -40786.83, -84749.95, 0.034381583, 0.0000047323497, 0.0001734017, -40786.83, -40786.83, 0.0, 10.000016, 9.942164 
2.3650007e+3, 3.138706e+2, -39708.85, -82511.04, -0.02554368, 0.000004720069, -0.00005498116, -39708.85, -39708.85, 0.0, 10.000016, 9.943676 
2.3750007e+3, 1.249935e+2, -1719925.0, -1724223.3, 0.019866113, 0.0000051556276, 0.00001929111, -1719925.0, -4861.2603, 0.0, 10.000018, 9.994319 
2.3750007e+3, 1.3498774e+2, -1622544.8, -1627433.6, -0.05873437, 0.0000051134207, -0.000068520254, -1622544.8, -5424.641, 0.0, 10.000017, 9.993536 
2.3750007e+3, 1.4497527e+2, -1534443.4, -1548144.8, 0.011612196, 0.000005082598, 0.00007311827, -1534443.4, -15201.078, 0.0, 10.000017, 9.981856 
2.3750007e+3, 1.5495716e+2, -1436715.9, -1450820.6, -0.06085868, 0.0000050622048, -0.000055923734, -1436715.9, -15296.03, 0.0, 10.000017, 9.981324 
2.3750007e+3, 1.649324e+2, -1348665.0, -1371951.1, 0.014740762, 0.0000050391773, 0.00004797092, -1348665.0, -25002.598, 0.0, 10.000017, 9.96924 
2.3750007e+3, 1.749017e+2, -1250707.3, -1274309.0, -0.060059655, 0.000005013462, -0.000072898816, -1250707.3, -24743.707, 0.0, 10.000017, 9.968826 
2.3750007e+3, 1.8486431e+2, -1162626.4, -1195718.9, 0.0110378135, 0.0000049957566, 0.000067149835, -1162626.4, -34296.754, 0.0, 10.000017, 9.9563875 
2.3750007e+3, 1.9482076e+2, -1064476.9, -1097832.0, -0.06115167, 0.000004986428, -0.000056819907, -1064476.9, -33720.22, 0.0, 10.000017, 9.956044 
2.3750007e+3, 2.047705e+2, -976312.94, -1019434.0, 0.01438138, 0.000004967445, 0.00006882137, -976312.94, -43063.99, 0.0, 10.000017, 9.943282 
2.3750007e+3, 2.1471384e+2, -878026.1, -921409.0, -0.05833088, 0.0000049380037, -0.00012609609, -878026.1, -42221.664, 0.0, 10.000017, 9.942942 
2.3750007e+3, 2.2465046e+2, -789740.06, -843144.0, 0.010539613, 0.000004920076, 0.00012157391, -789740.06, -51314.574, 0.0, 10.000017, 9.929899 
2.3750007e+3, 2.3458043e+2, -691306.75, -744965.75, -0.055991884, 0.000004915181, -0.00008818954, -691306.75, -50194.9, 0.0, 10.000017, 9.929568 
2.3750007e+3, 2.4450344e+2, -602982.8, -667018.1, 0.015086667, 0.000004904959, 0.000075279175, -602982.8, -59116.527, 0.0, 10.000017, 9.916128 
2.3750007e+3, 2.5441968e+2, -504230.28, -568342.75, -0.05354824, 0.000004888358, -0.00010621622, -504230.28, -57543.266, 0.0, 10.000017, 9.916028 
2.3750007e+3, 2.6432887e+2, -415995.0, -490987.44, 0.01847267, 0.0000048734637, 0.00014106474, -415995.0, -66417.766, 0.0, 10.000017, 9.901957 
2.3750007e+3, 2.7423134e+2, -316709.88, -391374.44, -0.046203304, 0.000004860751, -0.00020302381, -316709.88, -64177.266, 0.0, 10.000017, 9.902377 
2.3750007e+3, 2.8412563e+2, -230236.69, -318080.94, 0.020060439, 0.0000048525258, 0.00022942253, -230236.69, -74668.02, 0.0, 10.000016, 9.88543 
2.3750007e+3, 2.9401213e+2, -130530.68, -217764.8, -0.039611787, 0.0000048504276, -0.00025300088, -130530.68, -71849.516, 0.0, 10.000016, 9.8862095 
2.3750007e+3, 3.0392656e+2, -40786.97, -84750.25, 0.027398571, 0.000004842539, 0.00017341042, -40786.97, -40786.97, 0.0, 10.000016, 9.942164 
2.3750007e+3, 3.138706e+2, -39708.996, -82511.336, -0.032059193, 0.0000048260063, -0.000054985732, -39708.996, -39708.996, 0.0, 10.000016, 9.943676 
2.3850007e+3, 1.2499351e+2, -1719923.8, -1724222.8, 0.05915457, 0.0000052721316, 0.000019332461, -1719923.8, -4860.056, 0.0, 10.000018, 9.994318 
2.3850007e+3, 1.3498774e+2, -1622543.5, -1627433.1, -0.020370154, 0.000005229669, -0.00006854358, -1622543.5, -5423.4434, 0.0, 10.000018, 9.993536 
2.3850007e+3, 1.4497527e+2, -1534442.1, -1548144.4, 0.050556753, 0.0000051984216, 0.00007318232, -1534442.1, -15199.886, 0.0, 10.000018, 9.981856 
2.3850007e+3, 1.5495718e+2, -1436714.6, -1450820.1, -0.029802801, 0.0000051774064, -0.00005589904, -1436714.6, -15294.854, 0.0, 10.000018, 9.981324 
2.3850007e+3, 1.649324e+2, -1348663.9, -1371950.8, 0.044927143, 0.000005154625, 0.00004798035, -1348663.9, -25001.432, 0.0, 10.000018, 9.96924 
2.3850007e+3, 1.749017e+2, -1250706.0, -1274308.6, -0.030400261, 0.0000051300417, -0.00007288005, -1250706.0, -24742.557, 0.0, 10.000018, 9.968826 
2.3850007e+3, 1.8486433e+2, -1162625.1, -1195718.5, 0.04021386, 0.000005110514, 0.00006717185, -1162625.1, -34295.605, 0.0, 10.000018, 9.956387 
2.3850007e+3, 1.9482076e+2, -1064475.6, -1097831.5, -0.037778586, 0.0000050962703, -0.000056801022, -1064475.6, -33719.055, 0.0, 10.000018, 9.956044 
2.3850007e+3, 2.047705e+2, -976311.75, -1019433.6, 0.03823116, 0.0000050771637, 0.00006883847, -976311.75, -43062.832, 0.0, 10.000018, 9.943282 
2.3850007e+3, 2.1471384e+2, -878024.94, -921408.6, -0.03602322, 0.0000050527874, -0.0001260793, -878024.94, -42220.54, 0.0, 10.000018, 9.942941 
2.3850007e+3, 2.2465046e+2, -789738.94, -843143.7, 0.031920273, 0.000005036063, 0.00012158966, -789738.94, -51313.46, 0.0, 10.000018, 9.929899 
2.3850007e+3, 2.3458043e+2, -691305.6, -744965.4, -0.039736968, 0.0000050279996, -0.00008817561, -691305.6, -50193.79, 0.0, 10.000018, 9.929568 
2.3850007e+3, 2.4450345e+2, -602981.7, -667017.8, 0.031738285, 0.0000050154977, 0.00007529195, -602981.7, -59115.418, 0.0, 10.000018, 9.916128 
2.3850007e+3, 2.5441968e+2, -504229.16, -568342.44, -0.03889712, 0.000004997682, -0.000106203785, -504229.16, -57542.15, 0.0, 10.000017, 9.916028 
2.3850007e+3, 2.6432887e+2, -415993.84, -490987.1, 0.033515543, 0.000004983066, 0.00014107629, -415993.84, -66416.65, 0.0, 10.000017, 9.901957 
2.3850007e+3, 2.7423134e+2, -316708.78, -391374.1, -0.034086645, 0.0000049725295, -0.00020301383, -316708.78, -64176.176, 0.0, 10.000017, 9.902376 
2.3850007e+3, 2.8412563e+2, -230235.6, -318080.63, 0.031357467, 0.000004964758, 0.00022943136, -230235.6, -74666.945, 0.0, 10.000017, 9.88543 
2.3850007e+3, 2.9401213e+2, -130529.59, -217764.48, -0.032920357, 0.000004960746, -0.0002529926, -130529.59, -71848.44, 0.0, 10.000017, 9.886209 
2.3850007e+3, 3.0392656e+2, -40785.89, -84749.95, 0.035175152, 0.0000049523082, 0.0001734166, -40785.89, -40785.89, 0.0, 10.000017, 9.942164 
2.3850007e+3, 3.138706e+2, -39707.918, -82511.04, -0.022805233, 0.000004937273, -0.000054983837, -39707.918, -39707.918, 0.0, 10.000017, 9.943676 
2.3950008e+3, 1.2499352e+2, -1719923.9, -1724223.1, 0.020497177, 0.000005398607, 0.00001936388, -1719923.9, -4860.2827, 0.0, 10.000018, 9.994318 
2.3950008e+3, 1.3498776e+2, -1622543.6, -1627433.5, -0.059035096, 0.0000053432495, -0.00006856375, -1622543.6, -5423.6655, 0.0, 10.000018, 9.993536 
2.3950008e+3, 1.4497529e+2, -1534442.3, -1548144.6, 0.01550358, 0.000005308829, 0.00007325258, -1534442.3, -15200.108, 0.0, 10.000018, 9.981855 
2.3950008e+3, 1.5495718e+2, -1436714.9, -1450820.5, -0.0648509, 0.0000052943956, -0.000055882407, -1436714.9, -15295.071, 0.0, 10.000018, 9.981324 
2.3950008e+3, 1.649324e+2, -1348664.0, -1371951.0, 0.013391304, 0.0000052763685, 0.000047981688, -1348664.0, -25001.635, 0.0, 10.000018, 9.969239 
2.3950008e+3, 1.749017e+2, -1250706.3, -1274309.0, -0.061918873, 0.0000052546734, -0.00007285483, -1250706.3, -24742.756, 0.0, 10.000018, 9.968825 
2.3950008e+3, 1.8486433e+2, -1162625.4, -1195718.9, 0.014371472, 0.0000052294104, 0.00006720349, -1162625.4, -34295.81, 0.0, 10.000018, 9.956387 
2.3950008e+3, 1.9482076e+2, -1064475.8, -1097831.9, -0.063555874, 0.000005200409, -0.00005678123, -1064475.8, -33719.254, 0.0, 10.000018, 9.956043 
2.3950008e+3, 2.0477052e+2, -976311.94, -1019433.94, 0.0111032, 0.0000051823504, 0.00006885256, -976311.94, -43063.023, 0.0, 10.000018, 9.943282 
2.3950008e+3, 2.1471384e+2, -878025.1, -921408.94, -0.06317978, 0.0000051761403, -0.00012606425, -878025.1, -42220.727, 0.0, 10.000018, 9.942941 
2.3950008e+3, 2.2465047e+2, -789739.1, -843144.0, 0.011046489, 0.0000051625084, 0.000121603836, -789739.1, -51313.64, 0.0, 10.000018, 9.929899 
2.3950008e+3, 2.3458043e+2, -691305.75, -744965.7, -0.06040637, 0.000005140467, -0.00008816438, -691305.75, -50193.965, 0.0, 10.000018, 9.929568 
2.3950008e+3, 2.4450345e+2, -602981.8, -667018.1, 0.015708987, 0.0000051221673, 0.00007530531, -602981.8, -59115.59, 0.0, 10.000018, 9.916127 
2.3950008e+3, 2.5441968e+2, -504229.3, -568342.75, -0.05470419, 0.0000051083425, -0.000106182255, -504229.3, -57542.32, 0.0, 10.000017, 9.916028 
2.3950008e+3, 2.6432887e+2, -415994.0, -490987.4, 0.017365959, 0.0000050972553, 0.00014109602, -415994.0, -66416.82, 0.0, 10.000017, 9.901957 
2.3950008e+3, 2.7423134e+2, -316708.94, -391374.4, -0.050259914, 0.000005089638, -0.00020300859, -316708.94, -64176.34, 0.0, 10.000017, 9.902376 
2.3950008e+3, 2.8412563e+2, -230235.75, -318080.9, 0.020651387, 0.0000050809717, 0.00022942922, -230235.75, -74667.1, 0.0, 10.000017, 9.88543 
2.3950008e+3, 2.9401213e+2, -130529.74, -217764.78, -0.04313479, 0.0000050708495, -0.00025299232, -130529.74, -71848.586, 0.0, 10.000017, 9.886209 
2.3950008e+3, 3.0392656e+2, -40786.03, -84750.24, 0.028452652, 0.0000050616572, 0.00017342027, -40786.03, -40786.03, 0.0, 10.000017, 9.942164 
2.3950008e+3, 3.138706e+2, -39708.06, -82511.33, -0.029119106, 0.0000050538674, -0.00005497547, -39708.06, -39708.06, 0.0, 10.000017, 9.943676 
2.4050008e+3, 1.2499352e+2, -1719922.6, -1724222.6, 0.063669235, 0.0000055235746, 0.000019406622, -1719922.6, -4859.0317, 0.0, 10.000019, 9.994318 
2.4050008e+3, 1.3498776e+2, -1622542.4, -1627433.1, -0.021747753, 0.0000054617844, -0.0000685864, -1622542.4, -5422.414, 0.0, 10.000019, 9.993536 
2.4050008e+3, 1.4497529e+2, -1534441.0, -1548144.3, 0.05160421, 0.0000054259535, 0.000073320356, -1534441.0, -15198.858, 0.0, 10.000019, 9.981855 
2.4050008e+3, 1.5495718e+2, -1436713.5, -1450820.1, -0.028974283, 0.000005415137, -0.00005586195, -1436713.5, -15293.837, 0.0, 10.000019, 9.981324 
2.4050008e+3, 1.6493241e+2, -1348662.8, -1371950.6, 0.049198244, 0.0000053976773, 0.000047987556, -1348662.8, -25000.41, 0.0, 10.000019, 9.969239 
2.4050008e+3, 1.749017e+2, -1250705.0, -1274308.6, -0.035335716, 0.000005373439, -0.00007283011, -1250705.0, -24741.537, 0.0, 10.000019, 9.968825 
2.4050008e+3, 1.8486433e+2, -1162624.1, -1195718.5, 0.040790074, 0.000005346962, 0.000067232766, -1162624.1, -34294.598, 0.0, 10.000019, 9.956387 
2.4050008e+3, 1.9482078e+2, -1064474.6, -1097831.5, -0.036811076, 0.000005318138, -0.000056762383, -1064474.6, -33718.063, 0.0, 10.000019, 9.956043 
2.4050008e+3, 2.0477052e+2, -976310.75, -1019433.56, 0.037802532, 0.0000053006265, 0.00006886646, -976310.75, -43061.84, 0.0, 10.000019, 9.943282 
2.4050008e+3, 2.1471384e+2, -878023.94, -921408.56, -0.038427226, 0.0000052953633, -0.00012604936, -878023.94, -42219.543, 0.0, 10.000019, 9.942941 
2.4050008e+3, 2.2465047e+2, -789737.9, -843143.6, 0.037457697, 0.000005280466, 0.000121619116, -789737.9, -51312.46, 0.0, 10.000019, 9.929899 
2.4050008e+3, 2.3458043e+2, -691304.56, -744965.3, -0.041164145, 0.0000052546566, -0.00008814941, -691304.56, -50192.79, 0.0, 10.000019, 9.929568 
2.4050008e+3, 2.4450345e+2, -602980.6, -667017.75, 0.032907464, 0.000005235895, 0.00007531986, -602980.6, -59114.42, 0.0, 10.000018, 9.916127 
2.4050008e+3, 2.5441968e+2, -504228.16, -568342.4, -0.039319362, 0.0000052255596, -0.000106168256, -504228.16, -57541.17, 0.0, 10.000018, 9.916027 
2.4050008e+3, 2.6432887e+2, -415992.84, -490987.06, 0.0332461, 0.0000052156665, 0.00014110809, -415992.84, -66415.68, 0.0, 10.000018, 9.901956 
2.4050008e+3, 2.7423134e+2, -316707.78, -391374.06, -0.03580943, 0.000005206312, -0.00020300024, -316707.78, -64175.2, 0.0, 10.000018, 9.902376 
2.4050008e+3, 2.8412563e+2, -230234.6, -318080.6, 0.036943294, 0.0000051963643, 0.00022943517, -230234.6, -74665.96, 0.0, 10.000018, 9.88543 
2.4050008e+3, 2.9401213e+2, -130528.59, -217764.47, -0.030863924, 0.0000051855977, -0.00025298697, -130528.59, -71847.45, 0.0, 10.000018, 9.886209 
2.4050008e+3, 3.0392656e+2, -40784.906, -84749.94, 0.03726615, 0.000005175948, 0.0001734262, -40784.906, -40784.906, 0.0, 10.000018, 9.942164 
2.4050008e+3, 3.138706e+2, -39706.938, -82511.02, -0.029572414, 0.0000051679717, -0.000054967208, -39706.938, -39706.938, 0.0, 10.000018, 9.943675 
2.4150008e+3, 1.24993525e+2, -1719922.8, -1724223.0, 0.02631138, 0.000005647035, 0.00001946072, -1719922.8, -4859.274, 0.0, 10.000019, 9.994318 
2.4150008e+3, 1.3498776e+2, -1622542.6, -1627433.5, -0.05911246, 0.000005585273, -0.00006861153, -1622542.6, -5422.652, 0.0, 10.000019, 9.993535 
2.4150008e+3, 1.4497529e+2, -1534441.1, -1548144.6, 0.014057853, 0.0000055497944, 0.000073385636, -1534441.1, -15199.083, 0.0, 10.000019, 9.981855 
2.4150008e+3, 1.5495718e+2, -1436713.8, -1450820.5, -0.06652195, 0.0000055396285, -0.000055837678, -1436713.8, -15294.057, 0.0, 10.000019, 9.981324 
2.4150008e+3, 1.6493241e+2, -1348663.0, -1371951.0, 0.017040001, 0.000005518553, 0.000047997954, -1348663.0, -25000.635, 0.0, 10.000019, 9.969239 
2.4150008e+3, 1.749017e+2, -1250705.1, -1274309.0, -0.067466155, 0.00000548634, -0.00007280587, -1250705.1, -24741.76, 0.0, 10.000019, 9.968825 
2.4150008e+3, 1.8486433e+2, -1162624.3, -1195718.8, 0.01158037, 0.000005463169, 0.00006725968, -1162624.3, -34294.8, 0.0, 10.000019, 9.956387 
2.4150008e+3, 1.9482078e+2, -1064474.8, -1097831.9, -0.065988034, 0.000005449455, -0.00005674448, -1064474.8, -33718.26, 0.0, 10.000019, 9.956043 
2.4150008e+3, 2.0477052e+2, -976310.9, -1019433.9, 0.011204736, 0.000005431989, 0.00006888017, -976310.9, -43062.035, 0.0, 10.000019, 9.943281 
2.4150008e+3, 2.1471384e+2, -878024.06, -921408.9, -0.06497293, 0.000005410458, -0.00012603463, -878024.06, -42219.734, 0.0, 10.000019, 9.942941 
2.4150008e+3, 2.2465047e+2, -789738.06, -843143.94, 0.01667709, 0.0000053899403, 0.00012163548, -789738.06, -51312.656, 0.0, 10.000019, 9.929899 
2.4150008e+3, 2.3458043e+2, -691304.75, -744965.6, -0.06175675, 0.000005370569, -0.0000881307, -691304.75, -50192.98, 0.0, 10.000019, 9.929567 
2.4150008e+3, 2.4450345e+2, -602980.8, -667018.06, 0.013190474, 0.000005356679, 0.000075335614, -602980.8, -59114.6, 0.0, 10.000018, 9.916127 
2.4150008e+3, 2.5441968e+2, -504228.3, -568342.7, -0.058995157, 0.0000053493322, -0.00010616178, -504228.3, -57541.348, 0.0, 10.000018, 9.916027 
2.4150008e+3, 2.6432887e+2, -415993.0, -490987.38, 0.018277666, 0.0000053382983, 0.00014111247, -415993.0, -66415.85, 0.0, 10.000018, 9.901956 
2.4150008e+3, 2.7423134e+2, -316707.94, -391374.38, -0.050463557, 0.0000053225513, -0.00020298874, -316707.94, -64175.363, 0.0, 10.000018, 9.902376 
2.4150008e+3, 2.8412563e+2, -230234.75, -318080.9, 0.025857726, 0.0000053109356, 0.00022944924, -230234.75, -74666.125, 0.0, 10.000018, 9.88543 
2.4150008e+3, 2.9401213e+2, -130528.75, -217764.78, -0.041628685, 0.00000530499, -0.00025297655, -130528.75, -71847.62, 0.0, 10.000018, 9.886209 
2.4150008e+3, 3.0392656e+2, -40785.063, -84750.266, 0.029617487, 0.000005295179, 0.0001734344, -40785.063, -40785.063, 0.0, 10.000018, 9.942163 
2.4150008e+3, 3.138706e+2, -39707.094, -82511.35, -0.03685596, 0.000005279587, -0.00005495904, -39707.094, -39707.094, 0.0, 10.000018, 9.943675 
2.4250007e+3, 1.24993525e+2, -1719921.4, -1724222.5, 0.065186866, 0.000005771854, 0.000019511399, -1719921.4, -4857.9487, 0.0, 10.00002, 9.994317 
2.4250007e+3, 1.3498776e+2, -1622541.3, -1627433.0, -0.022338526, 0.0000057139755, -0.00006863721, -1622541.3, -5421.355, 0.0, 10.00002, 9.993535 
2.4250007e+3, 1.4497529e+2, -1534439.9, -1548144.1, 0.05073371, 0.000005678023, 0.0000734553, -1534439.9, -15197.791, 0.0, 10.00002, 9.981855 
2.4250007e+3, 1.5495719e+2, -1436712.4, -1450820.0, -0.0351699, 0.0000056629724, -0.00005580992, -1436712.4, -15292.763, 0.0, 10.00002, 9.981323 
2.4250007e+3, 1.6493241e+2, -1348661.6, -1371950.5, 0.049566496, 0.000005639865, 0.0000480089, -1348661.6, -24999.348, 0.0, 10.00002, 9.969239 
2.4250007e+3, 1.7490171e+2, -1250703.9, -1274308.5, -0.03408576, 0.0000056085332, -0.0000727861, -1250703.9, -24740.486, 0.0, 10.00002, 9.968825 
2.4250007e+3, 1.8486434e+2, -1162623.0, -1195718.4, 0.045168176, 0.0000055873898, 0.00006728241, -1162623.0, -34293.54, 0.0, 10.00002, 9.956386 
2.4250007e+3, 1.9482078e+2, -1064473.5, -1097831.4, -0.038073003, 0.000005576902, -0.000056724955, -1064473.5, -33717.02, 0.0, 10.00002, 9.956043 
2.4250007e+3, 2.0477052e+2, -976309.6, -1019433.5, 0.03875853, 0.0000055575997, 0.0000688984, -976309.6, -43060.797, 0.0, 10.00002, 9.943281 
2.4250007e+3, 2.1471386e+2, -878022.8, -921408.5, -0.044465557, 0.0000055287483, -0.00012601561, -878022.8, -42218.49, 0.0, 10.00002, 9.942941 
2.4250007e+3, 2.2465047e+2, -789736.8, -843143.56, 0.035863582, 0.000005507146, 0.00012165409, -789736.8, -51311.414, 0.0, 10.00002, 9.929898 
2.4250007e+3, 2.3458043e+2, -691303.5, -744965.25, -0.04175508, 0.000005493748, -0.00008811386, -691303.5, -50191.76, 0.0, 10.000019, 9.929567 
2.4250007e+3, 2.4450345e+2, -602979.56, -667017.7, 0.03511041, 0.000005481632, 0.00007534933, -602979.56, -59113.39, 0.0, 10.000019, 9.916127 
2.4250007e+3, 2.5441968e+2, -504227.1, -568342.3, -0.040328808, 0.0000054710326, -0.00010615282, -504227.1, -57540.145, 0.0, 10.000019, 9.916027 
2.4250007e+3, 2.6432887e+2, -415991.78, -490987.03, 0.03640058, 0.000005457936, 0.00014112075, -415991.78, -66414.65, 0.0, 10.000019, 9.901956 
2.4250007e+3, 2.7423137e+2, -316706.72, -391374.03, -0.040732954, 0.000005441652, -0.00020297599, -316706.72, -64174.168, 0.0, 10.000019, 9.902376 
2.4250007e+3, 2.8412563e+2, -230233.53, -318080.56, 0.03290856, 0.000005430236, 0.000229464, -230233.53, -74664.93, 0.0, 10.000019, 9.885429 
2.4250007e+3, 2.9401213e+2, -130527.55, -217764.44, -0.035356365, 0.000005425492, -0.00025296325, -130527.55, -71846.43, 0.0, 10.000019, 9.886209 
2.4250007e+3, 3.0392656e+2, -40783.887, -84749.94, 0.038641077, 0.000005415697, 0.00017344384, -40783.887, -40783.887, 0.0, 10.000019, 9.942163 
2.4250007e+3, 3.138706e+2, -39705.92, -82511.03, -0.026913833, 0.0000053983517, -0.000054957058, -39705.92, -39705.92, 0.0, 10.000019, 9.943675 
2.4350007e+3, 1.2499353e+2, -1719921.6, -1724222.9, 0.022274312, 0.0000058980327, 0.000019558705, -1719921.6, -4858.1978, 0.0, 10.00002, 9.994317 
2.4350007e+3, 1.3498777e+2, -1622541.4, -1627433.4, -0.06525929, 0.0000058478904, -0.00006866343, -1622541.4, -5421.5996, 0.0, 10.00002, 9.993535 
2.4350007e+3, 1.449753e+2, -1534440.0, -1548144.5, 0.014874545, 0.0000058106393, 0.00007352935, -1534440.0, -15198.029, 0.0, 10.00002, 9.981855 
2.4350007e+3, 1.5495719e+2, -1436712.6, -1450820.4, -0.071018875, 0.000005785169, -0.000055778677, -1436712.6, -15292.996, 0.0, 10.00002, 9.981323 
2.4350007e+3, 1.6493241e+2, -1348661.9, -1371950.9, 0.014929049, 0.000005761614, 0.000048020396, -1348661.9, -24999.574, 0.0, 10.00002, 9.969238 
2.4350007e+3, 1.7490171e+2, -1250704.0, -1274308.9, -0.06871782, 0.0000057400166, -0.000072770774, -1250704.0, -24740.709, 0.0, 10.00002, 9.968825 
2.4350007e+3, 1.8486434e+2, -1162623.1, -1195718.8, 0.012418178, 0.0000057196225, 0.000067300956, -1162623.1, -34293.758, 0.0, 10.00002, 9.956386 
2.4350007e+3, 1.9482078e+2, -1064473.6, -1097831.8, -0.07080232, 0.000005700482, -0.00005670381, -1064473.6, -33717.23, 0.0, 10.00002, 9.956042 
2.4350007e+3, 2.0477052e+2, -976309.8, -1019433.9, 0.015255774, 0.0000056774606, 0.00006892116, -976309.8, -43061.008, 0.0, 10.00002, 9.943281 
2.4350007e+3, 2.1471386e+2, -878023.0, -921408.9, -0.06777861, 0.000005650235, -0.00012599229, -878023.0, -42218.695, 0.0, 10.00002, 9.94294 
2.4350007e+3, 2.2465047e+2, -789737.0, -843143.9, 0.010840122, 0.000005632081, 0.00012167495, -789737.0, -51311.613, 0.0, 10.00002, 9.929898 
2.4350007e+3, 2.3458043e+2, -691303.7, -744965.6, -0.06683537, 0.000005624194, -0.00008809888, -691303.7, -50191.953, 0.0, 10.000019, 9.929567 
2.4350007e+3, 2.4450345e+2, -602979.75, -667018.0, 0.015032578, 0.0000056107524, 0.00007536101, -602979.75, -59113.582, 0.0, 10.000019, 9.916127 
2.4350007e+3, 2.5441968e+2, -504227.25, -568342.7, -0.06016759, 0.000005590662, -0.00010614135, -504227.25, -57540.33, 0.0, 10.000019, 9.916027 
2.4350007e+3, 2.6432887e+2, -415991.97, -490987.38, 0.022049734, 0.000005574581, 0.00014113291, -415991.97, -66414.836, 0.0, 10.000019, 9.901956 
2.4350007e+3, 2.7423137e+2, -316706.9, -391374.38, -0.054716397, 0.000005563613, -0.00020296196, -316706.9, -64174.35, 0.0, 10.000019, 9.902375 
2.4350007e+3, 2.8412563e+2, -230233.7, -318080.88, 0.020828707, 0.0000055542646, 0.00022947941, -230233.7, -74665.1, 0.0, 10.000019, 9.885429 
2.4350007e+3, 2.9401213e+2, -130527.7, -217764.75, -0.047265925, 0.000005547104, -0.00025294707, -130527.7, -71846.59, 0.0, 10.000019, 9.886208 
2.4350007e+3, 3.0392656e+2, -40784.043, -84750.266, 0.030257752, 0.0000055375017, 0.0001734545, -40784.043, -40784.043, 0.0, 10.000019, 9.942163 
2.4350007e+3, 3.138706e+2, -39706.08, -82511.36, -0.034884207, 0.0000055242635, -0.000054961256, -39706.08, -39706.08, 0.0, 10.000019, 9.943675 
2.4450007e+3, 1.2499354e+2, -1719920.1, -1724222.5, 0.06743511, 0.0000060313437, 0.0000196043, -1719920.1, -4856.8257, 0.0, 10.000022, 9.994317 
2.4450007e+3, 1.3498777e+2, -1622540.0, -1627432.9, -0.025639297, 0.0000059783592, -0.00006868744, -1622540.0, -5420.229, 0.0, 10.000021, 9.993535 
2.4450007e+3, 1.449753e+2, -1534438.6, -1548144.0, 0.055118486, 0.000005939978, 0.00007360701, -1534438.6, -15196.664, 0.0, 10.000021, 9.981854 
2.4450007e+3, 1.5495719e+2, -1436711.3, -1450819.9, -0.03351167, 0.0000059150702, -0.00005575326, -1436711.3, -15291.652, 0.0, 10.000021, 9.981323 
2.4450007e+3, 1.6493243e+2, -1348660.5, -1371950.4, 0.0513537, 0.000005892568, 0.000048026926, -1348660.5, -24998.244, 0.0, 10.000021, 9.969238 
2.4450007e+3, 1.7490171e+2, -1250702.6, -1274308.4, -0.036520693, 0.0000058725245, -0.00007274906, -1250702.6, -24739.393, 0.0, 10.000021, 9.968824 
2.4450007e+3, 1.8486434e+2, -1162621.9, -1195718.3, 0.044836108, 0.0000058497308, 0.000067328, -1162621.9, -34292.44, 0.0, 10.000021, 9.956386 
2.4450007e+3, 1.9482078e+2, -1064472.3, -1097831.4, -0.043792736, 0.000005824054, -0.000056681765, -1064472.3, -33715.906, 0.0, 10.000021, 9.956042 
2.4450007e+3, 2.0477054e+2, -976308.44, -1019433.44, 0.042415366, 0.0000058005335, 0.000068940535, -976308.44, -43059.688, 0.0, 10.000021, 9.943281 
2.4450007e+3, 2.1471386e+2, -878021.7, -921408.44, -0.042111475, 0.0000057793454, -0.00012597308, -878021.7, -42217.414, 0.0, 10.000021, 9.94294 
2.4450007e+3, 2.2465047e+2, -789735.7, -843143.5, 0.036719874, 0.0000057631314, 0.00012169197, -789735.7, -51310.34, 0.0, 10.000021, 9.929898 
2.4450007e+3, 2.3458044e+2, -691302.4, -744965.2, -0.04406964, 0.000005752544, -0.00008808637, -691302.4, -50190.68, 0.0, 10.00002, 9.929567 
2.4450007e+3, 2.4450345e+2, -602978.44, -667017.6, 0.03758053, 0.0000057367706, 0.000075373304, -602978.44, -59112.31, 0.0, 10.00002, 9.916126 
2.4450007e+3, 2.544197e+2, -504225.97, -568342.25, -0.045866087, 0.0000057147936, -0.00010612411, -504225.97, -57539.055, 0.0, 10.00002, 9.916026 
2.4450007e+3, 2.6432887e+2, -415990.7, -490986.97, 0.035627138, 0.0000056982585, 0.0001411497, -415990.7, -66413.57, 0.0, 10.00002, 9.901956 
2.4450007e+3, 2.7423137e+2, -316705.63, -391374.0, -0.038791794, 0.0000056886597, -0.0002029525, -316705.63, -64173.1, 0.0, 10.00002, 9.902375 
2.4450007e+3, 2.8412563e+2, -230232.44, -318080.5, 0.0386965, 0.000005679809, 0.00022948536, -230232.44, -74663.86, 0.0, 10.00002, 9.885429 
2.4450007e+3, 2.9401213e+2, -130526.46, -217764.4, -0.03571592, 0.000005671945, -0.00025293938, -130526.46, -71845.36, 0.0, 10.00002, 9.886208 
2.4450007e+3, 3.0392656e+2, -40782.816, -84749.93, 0.039958715, 0.0000056624117, 0.00017346203, -40782.816, -40782.816, 0.0, 10.00002, 9.942163 
2.4450007e+3, 3.138706e+2, -39704.848, -82511.02, -0.028744916, 0.0000056503986, -0.00005495663, -39704.848, -39704.848, 0.0, 10.00002, 9.943674 
2.455001e+3, 1.2499354e+2, -1719920.4, -1724222.9, 0.025369307, 0.0000061717856, 0.000019648236, -1719920.4, -4857.09, 0.0, 10.000022, 9.994317 
2.4550007e+3, 1.3498777e+2, -1622540.3, -1627433.3, -0.06771286, 0.000006105384, -0.000068709225, -1622540.3, -5420.489, 0.0, 10.000021, 9.993534 
2.4550007e+3, 1.449753e+2, -1534438.9, -1548144.4, 0.015167119, 0.0000060660414, 0.00007368828, -1534438.9, -15196.911, 0.0, 10.000021, 9.981854 
2.4550007e+3, 1.549572e+2, -1436711.4, -1450820.3, -0.0734607, 0.0000060526754, -0.00005573366, -1436711.4, -15291.894, 0.0, 10.000021, 9.981323 
2.4550007e+3, 1.6493243e+2, -1348660.6, -1371950.8, 0.014648197, 0.000006032725, 0.00004802849, -1348660.6, -24998.48, 0.0, 10.000021, 9.969238 
2.4550007e+3, 1.7490171e+2, -1250702.9, -1274308.8, -0.073210455, 0.0000060060565, -0.00007272094, -1250702.9, -24739.625, 0.0, 10.000021, 9.968824 
2.4550007e+3, 1.8486434e+2, -1162622.0, -1195718.6, 0.016060797, 0.000005977716, 0.000067363544, -1162622.0, -34292.676, 0.0, 10.000021, 9.956386 
2.4550007e+3, 1.9482079e+2, -1064472.5, -1097831.8, -0.07247725, 0.00000594762, -0.00005665881, -1064472.5, -33716.133, 0.0, 10.000021, 9.956042 
2.4550007e+3, 2.0477054e+2, -976308.6, -1019433.8, 0.011717777, 0.000005926818, 0.00006895653, -976308.6, -43059.906, 0.0, 10.000021, 9.94328 
2.4550007e+3, 2.1471386e+2, -878021.9, -921408.8, -0.07285151, 0.000005916078, -0.00012595796, -878021.9, -42217.625, 0.0, 10.000021, 9.94294 
2.4550007e+3, 2.2465049e+2, -789735.9, -843143.8, 0.012505067, 0.0000059002964, 0.000121705154, -789735.9, -51310.543, 0.0, 10.000021, 9.929898 
2.4550007e+3, 2.3458044e+2, -691302.56, -744965.56, -0.06807252, 0.0000058788, -0.00008807634, -691302.56, -50190.883, 0.0, 10.00002, 9.929566 
2.4550007e+3, 2.4450347e+2, -602978.6, -667018.0, 0.019117374, 0.0000058596884, 0.00007538623, -602978.6, -59112.516, 0.0, 10.00002, 9.916126 
2.4550007e+3, 2.544197e+2, -504226.13, -568342.6, -0.064063594, 0.000005843426, -0.00010610109, -504226.13, -57539.258, 0.0, 10.00002, 9.916026 
2.4550007e+3, 2.6432887e+2, -415990.84, -490987.3, 0.01796567, 0.000005828968, 0.00014117113, -415990.84, -66413.76, 0.0, 10.00002, 9.901955 
2.4550007e+3, 2.7423137e+2, -316705.78, -391374.34, -0.056418583, 0.000005816792, -0.00020294759, -316705.78, -64173.285, 0.0, 10.00002, 9.902375 
2.4550007e+3, 2.8412563e+2, -230232.61, -318080.88, 0.025905978, 0.0000058068695, 0.00022948184, -230232.61, -74664.04, 0.0, 10.00002, 9.885429 
2.4550007e+3, 2.9401213e+2, -130526.63, -217764.75, -0.048071645, 0.0000058000146, -0.00025294026, -130526.63, -71845.54, 0.0, 10.00002, 9.886208 
2.4550007e+3, 3.0392656e+2, -40782.98, -84750.266, 0.03200507, 0.0000057904253, 0.00017346645, -40782.98, -40782.98, 0.0, 10.00002, 9.9421625 
2.4550007e+3, 3.138706e+2, -39705.016, -82511.37, -0.03618305, 0.0000057767575, -0.000054943182, -39705.016, -39705.016, 0.0, 10.00002, 9.943674 
2.465001e+3, 1.2499355e+2, -1719918.9, -1724222.4, 0.072061166, 0.000006308299, 0.000019698335, -1719918.9, -4855.6455, 0.0, 10.000023, 9.994316 
2.465001e+3, 1.3498779e+2, -1622538.8, -1627432.8, -0.024426429, 0.0000062405534, -0.00006873762, -1622538.8, -5419.0645, 0.0, 10.000022, 9.993534 
2.465001e+3, 1.4497532e+2, -1534437.4, -1548143.9, 0.057708595, 0.0000062019444, 0.00007376533, -1534437.4, -15195.494, 0.0, 10.000022, 9.981854 
2.465001e+3, 1.549572e+2, -1436710.0, -1450819.8, -0.03473324, 0.0000061913715, -0.000055709264, -1436710.0, -15290.492, 0.0, 10.000022, 9.981322 
2.465001e+3, 1.6493243e+2, -1348659.3, -1371950.4, 0.05338034, 0.000006169849, 0.00004803614, -1348659.3, -24997.084, 0.0, 10.000022, 9.969238 
2.465001e+3, 1.7490172e+2, -1250701.5, -1274308.4, -0.04188995, 0.000006137149, -0.00007269336, -1250701.5, -24738.227, 0.0, 10.000022, 9.968824 
2.4650007e+3, 1.8486434e+2, -1162620.6, -1195718.3, 0.047137775, 0.0000061078426, 0.00006739583, -1162620.6, -34291.285, 0.0, 10.000022, 9.956385 
2.4650007e+3, 1.9482079e+2, -1064471.1, -1097831.3, -0.042101875, 0.000006082082, -0.000056637782, -1064471.1, -33714.773, 0.0, 10.000022, 9.956042 
2.4650007e+3, 2.0477054e+2, -976307.25, -1019433.3, 0.042303246, 0.000006062985, 0.00006897208, -976307.25, -43058.56, 0.0, 10.000022, 9.94328 
2.4650007e+3, 2.1471386e+2, -878020.5, -921408.4, -0.04483052, 0.0000060511015, -0.00012594162, -878020.5, -42216.277, 0.0, 10.000022, 9.94294 
2.4650007e+3, 2.2465049e+2, -789734.5, -843143.4, 0.04096348, 0.0000060327047, 0.00012172261, -789734.5, -51309.195, 0.0, 10.000022, 9.929897 
2.4650007e+3, 2.3458044e+2, -691301.2, -744965.1, -0.049221292, 0.0000060069297, -0.000088057386, -691301.2, -50189.535, 0.0, 10.000022, 9.929566 
2.4650007e+3, 2.4450347e+2, -602977.25, -667017.56, 0.03667167, 0.0000059875783, 0.00007540433, -602977.25, -59111.18, 0.0, 10.000021, 9.916126 
2.4650007e+3, 2.544197e+2, -504224.8, -568342.25, -0.044284426, 0.0000059759045, -0.00010608665, -504224.8, -57537.94, 0.0, 10.000021, 9.916026 
2.4650007e+3, 2.6432887e+2, -415989.53, -490986.94, 0.039269008, 0.000005963093, 0.00014118316, -415989.53, -66412.45, 0.0, 10.000021, 9.901955 
2.4650007e+3, 2.7423137e+2, -316704.47, -391373.97, -0.041687325, 0.0000059488093, -0.00020293632, -316704.47, -64171.98, 0.0, 10.000021, 9.902375 
2.4650007e+3, 2.8412563e+2, -230231.3, -318080.47, 0.039901298, 0.000005937319, 0.00022949144, -230231.3, -74662.74, 0.0, 10.000021, 9.885428 
2.4650007e+3, 2.9401216e+2, -130525.32, -217764.38, -0.036426432, 0.000005929653, -0.00025293347, -130525.32, -71844.24, 0.0, 10.000021, 9.886208 
2.4650007e+3, 3.0392656e+2, -40781.69, -84749.914, 0.043256562, 0.0000059194203, 0.00017347219, -40781.69, -40781.69, 0.0, 10.000021, 9.9421625 
2.4650007e+3, 3.138706e+2, -39703.73, -82511.016, -0.030742502, 0.0000059053514, -0.000054935816, -39703.73, -39703.73, 0.0, 10.000021, 9.943674 
2.4750009e+3, 1.24993555e+2, -1719919.1, -1724222.8, 0.026566647, 0.0000064408855, 0.00001975465, -1719919.1, -4855.92, 0.0, 10.000023, 9.994316 
2.4750009e+3, 1.3498779e+2, -1622539.0, -1627433.3, -0.069929495, 0.0000063838665, -0.00006877262, -1622539.0, -5419.3335, 0.0, 10.000022, 9.993534 
2.4750009e+3, 1.4497532e+2, -1534437.6, -1548144.3, 0.015429855, 0.000006347685, 0.000073838164, -1534437.6, -15195.751, 0.0, 10.000022, 9.981854 
2.4750009e+3, 1.549572e+2, -1436710.1, -1450820.1, -0.077008285, 0.00000633116, -0.000055680066, -1436710.1, -15290.744, 0.0, 10.000022, 9.981322 
2.4750009e+3, 1.6493243e+2, -1348659.4, -1371950.8, 0.01872529, 0.00000630394, 0.00004804987, -1348659.4, -24997.34, 0.0, 10.000022, 9.969237 
2.4750009e+3, 1.7490172e+2, -1250701.6, -1274308.8, -0.07650569, 0.000006265803, -0.000072666306, -1250701.6, -24738.477, 0.0, 10.000022, 9.968824 
2.4750009e+3, 1.8486437e+2, -1162620.8, -1195718.6, 0.01215161, 0.000006240112, 0.00006742485, -1162620.8, -34291.52, 0.0, 10.000022, 9.956385 
2.4750009e+3, 1.9482079e+2, -1064471.3, -1097831.6, -0.0770935, 0.0000062274366, -0.000056618675, -1064471.3, -33715.004, 0.0, 10.000022, 9.956041 
2.4750009e+3, 2.0477054e+2, -976307.44, -1019433.7, 0.012703003, 0.000006209031, 0.000068987196, -976307.44, -43058.78, 0.0, 10.000022, 9.94328 
2.4750009e+3, 2.1471386e+2, -878020.7, -921408.75, -0.074320935, 0.000006184416, -0.00012592407, -878020.7, -42216.496, 0.0, 10.000022, 9.942939 
2.4750009e+3, 2.2465049e+2, -789734.7, -843143.8, 0.017495422, 0.000006160359, 0.000121744335, -789734.7, -51309.42, 0.0, 10.000022, 9.929897 
2.4750009e+3, 2.3458044e+2, -691301.4, -744965.5, -0.07249292, 0.000006136932, -0.00008802953, -691301.4, -50189.758, 0.0, 10.000022, 9.929566 
2.4750008e+3, 2.4450347e+2, -602977.44, -667017.94, 0.013857051, 0.00000612044, 0.0000754276, -602977.44, -59111.383, 0.0, 10.000021, 9.916126 
2.4750008e+3, 2.544197e+2, -504224.97, -568342.6, -0.06707842, 0.0000061122273, -0.00010608079, -504224.97, -57538.14, 0.0, 10.000021, 9.916026 
2.4750008e+3, 2.6432887e+2, -415989.72, -490987.3, 0.022376895, 0.000006100633, 0.00014118584, -415989.72, -66412.65, 0.0, 10.000021, 9.901955 
2.4750008e+3, 2.7423137e+2, -316704.66, -391374.3, -0.05818502, 0.0000060847115, -0.00020291875, -316704.66, -64172.176, 0.0, 10.000021, 9.902374 
2.4750008e+3, 2.8412563e+2, -230231.47, -318080.84, 0.027066201, 0.000006071158, 0.00022951417, -230231.47, -74662.93, 0.0, 10.000021, 9.885428 
2.4750008e+3, 2.9401216e+2, -130525.49, -217764.73, -0.048932496, 0.000006060861, -0.00025291907, -130525.49, -71844.43, 0.0, 10.000021, 9.886207 
2.4750008e+3, 3.039266e+2, -40781.867, -84750.28, 0.034362726, 0.0000060493962, 0.00017347923, -40781.867, -40781.867, 0.0, 10.000021, 9.9421625 
2.4750008e+3, 3.138706e+2, -39703.906, -82511.38, -0.03921342, 0.0000060361804, -0.00005493452, -39703.906, -39703.906, 0.0, 10.000021, 9.943674 
2.485001e+3, 1.2499356e+2, -1719917.6, -1724222.3, 0.07567736, 0.0000065855197, 0.000019810894, -1719917.6, -4854.4204, 0.0, 10.000024, 9.994316 
2.485001e+3, 1.3498779e+2, -1622537.5, -1627432.8, -0.024531117, 0.0000065273853, -0.00006880723, -1622537.5, -5417.8477, 0.0, 10.000024, 9.993534 
2.485001e+3, 1.4497532e+2, -1534436.0, -1548143.8, 0.060253836, 0.0000064889527, 0.00007391515, -1534436.0, -15194.267, 0.0, 10.000024, 9.9818535 
2.485001e+3, 1.549572e+2, -1436708.6, -1450819.6, -0.039365876, 0.0000064690016, -0.000055648627, -1436708.6, -15289.261, 0.0, 10.000023, 9.981322 
2.485001e+3, 1.6493244e+2, -1348657.9, -1371950.3, 0.057071462, 0.000006441426, 0.000048062993, -1348657.9, -24995.87, 0.0, 10.000023, 9.969237 
2.485001e+3, 1.7490172e+2, -1250700.1, -1274308.3, -0.0386954, 0.000006406069, -0.00007264368, -1250700.1, -24737.033, 0.0, 10.000023, 9.968823 
2.485001e+3, 1.8486437e+2, -1162619.3, -1195718.1, 0.049264695, 0.0000063818256, 0.000067450426, -1162619.3, -34290.086, 0.0, 10.000023, 9.956385 
2.485001e+3, 1.9482079e+2, -1064469.9, -1097831.1, -0.045233037, 0.0000063692055, -0.000056597008, -1064469.9, -33713.58, 0.0, 10.000023, 9.956041 
2.485001e+3, 2.0477054e+2, -976306.0, -1019433.25, 0.044215813, 0.000006348466, 0.00006900759, -976306.0, -43057.36, 0.0, 10.000023, 9.94328 
2.485001e+3, 2.1471387e+2, -878019.2, -921408.3, -0.0513097, 0.00000631893, -0.00012590208, -878019.2, -42215.074, 0.0, 10.000023, 9.942939 
2.485001e+3, 2.2465049e+2, -789733.25, -843143.3, 0.0402103, 0.00000629448, 0.00012176577, -789733.25, -51308.008, 0.0, 10.000023, 9.929897 
2.485001e+3, 2.3458044e+2, -691299.94, -744965.06, -0.047554743, 0.000006275786, -0.000088011075, -691299.94, -50188.367, 0.0, 10.000023, 9.929566 
2.485001e+3, 2.4450347e+2, -602976.06, -667017.5, 0.039647583, 0.000006260299, 0.00007544266, -602976.06, -59110.0, 0.0, 10.000023, 9.916125 
2.485001e+3, 2.544197e+2, -504223.6, -568342.2, -0.048359506, 0.000006248632, -0.0001060696, -504223.6, -57536.76, 0.0, 10.000023, 9.916025 
2.485001e+3, 2.6432887e+2, -415988.3, -490986.88, 0.039923247, 0.0000062354557, 0.0001411964, -415988.3, -66411.28, 0.0, 10.000022, 9.901955 
2.485001e+3, 2.7423137e+2, -316703.28, -391373.94, -0.046107974, 0.000006220345, -0.00020290463, -316703.28, -64170.813, 0.0, 10.000022, 9.902374 
2.485001e+3, 2.841257e+2, -230230.1, -318080.44, 0.038611863, 0.0000062072095, 0.00022952967, -230230.1, -74661.56, 0.0, 10.000022, 9.885428 
2.485001e+3, 2.9401216e+2, -130524.125, -217764.34, -0.039485306, 0.000006196781, -0.00025290519, -130524.125, -71843.07, 0.0, 10.000022, 9.886207 
2.485001e+3, 3.039266e+2, -40780.523, -84749.914, 0.044149917, 0.000006184623, 0.00017348994, -40780.523, -40780.523, 0.0, 10.000022, 9.9421625 
2.485001e+3, 3.138706e+2, -39702.566, -82511.016, -0.032951757, 0.0000061698843, -0.00005492928, -39702.566, -39702.566, 0.0, 10.000022, 9.943673 
2.495001e+3, 1.2499356e+2, -1719917.8, -1724222.6, 0.028309034, 0.000006742197, 0.000019867131, -1719917.8, -4854.706, 0.0, 10.000024, 9.994316 
2.495001e+3, 1.349878e+2, -1622537.6, -1627433.1, -0.071908146, 0.000006671111, -0.00006884147, -1622537.6, -5418.128, 0.0, 10.000024, 9.993533 
2.495001e+3, 1.4497533e+2, -1534436.3, -1548144.3, 0.018986482, 0.0000066257503, 0.000073996285, -1534436.3, -15194.543, 0.0, 10.000024, 9.9818535 
2.495001e+3, 1.5495722e+2, -1436708.9, -1450820.1, -0.080624506, 0.000006604898, -0.000055614935, -1436708.9, -15289.531, 0.0, 10.000023, 9.981322 
2.495001e+3, 1.6493244e+2, -1348658.1, -1371950.6, 0.017064229, 0.0000065823065, 0.00004807551, -1348658.1, -24996.127, 0.0, 10.000023, 9.969237 
2.495001e+3, 1.7490172e+2, -1250700.4, -1274308.6, -0.07869723, 0.0000065579425, -0.00007262548, -1250700.4, -24737.287, 0.0, 10.000023, 9.968823 
2.495001e+3, 1.8486437e+2, -1162619.5, -1195718.5, 0.01360065, 0.0000065329814, 0.00006747256, -1162619.5, -34290.332, 0.0, 10.000023, 9.956385 
2.495001e+3, 1.948208e+2, -1064470.0, -1097831.6, -0.08084829, 0.000006507389, -0.00005657278, -1064470.0, -33713.82, 0.0, 10.000023, 9.956041 
2.495001e+3, 2.0477055e+2, -976306.2, -1019433.7, 0.015964232, 0.000006481291, 0.00006903327, -976306.2, -43057.605, 0.0, 10.000023, 9.943279 
2.495001e+3, 2.1471387e+2, -878019.44, -921408.7, -0.079410024, 0.000006454642, -0.00012587565, -878019.44, -42215.313, 0.0, 10.000023, 9.942939 
2.495001e+3, 2.2465049e+2, -789733.44, -843143.75, 0.0124325305, 0.000006435065, 0.00012178691, -789733.44, -51308.23, 0.0, 10.000023, 9.929897 
2.495001e+3, 2.3458044e+2, -691300.1, -744965.44, -0.07532331, 0.0000064234896, -0.00008800202, -691300.1, -50188.586, 0.0, 10.000023, 9.929565 
2.495001e+3, 2.4450347e+2, -602976.25, -667017.9, 0.017104669, 0.0000064071537, 0.00007544952, -602976.25, -59110.22, 0.0, 10.000023, 9.916125 
2.495001e+3, 2.544197e+2, -504223.78, -568342.56, -0.0706525, 0.00000638512, -0.0001060531, -504223.78, -57536.977, 0.0, 10.000023, 9.916025 
2.495001e+3, 2.643289e+2, -415988.5, -490987.28, 0.022378767, 0.0000063675625, 0.00014121487, -415988.5, -66411.49, 0.0, 10.000022, 9.901954 
2.495001e+3, 2.7423137e+2, -316703.47, -391374.3, -0.06333506, 0.0000063557104, -0.00020289399, -316703.47, -64171.02, 0.0, 10.000022, 9.902374 
2.495001e+3, 2.841257e+2, -230230.28, -318080.8, 0.025262747, 0.000006345473, 0.00022953791, -230230.28, -74661.76, 0.0, 10.000022, 9.885428 
2.495001e+3, 2.9401216e+2, -130524.305, -217764.7, -0.05248655, 0.0000063374127, -0.00025289186, -130524.305, -71843.266, 0.0, 10.000022, 9.886207 
2.495001e+3, 3.039266e+2, -40780.707, -84750.3, 0.034752157, 0.000006325099, 0.00017350429, -40780.707, -40780.707, 0.0, 10.000022, 9.942162 
2.495001e+3, 3.138706e+2, -39702.75, -82511.4, -0.041927397, 0.000006306462, -0.000054920103, -39702.75, -39702.75, 0.0, 10.000022, 9.943673 
2.5050008e+3, 1.2499357e+2, -1719916.3, -1724222.1, 0.07327723, 0.000006894052, 0.00001992156, -1719916.3, -4853.1465, 0.0, 10.000025, 9.994315 
2.5050008e+3, 1.349878e+2, -1622536.0, -1627432.6, -0.031036962, 0.000006818168, -0.00006886659, -1622536.0, -5416.5645, 0.0, 10.000025, 9.993533 
2.5050008e+3, 1.4497533e+2, -1534434.6, -1548143.6, 0.060077555, 0.000006770683, 0.00007408853, -1534434.6, -15192.984, 0.0, 10.000025, 9.9818535 
2.5050008e+3, 1.5495722e+2, -1436707.3, -1450819.5, -0.04049369, 0.000006750362, -0.000055586534, -1436707.3, -15287.998, 0.0, 10.000025, 9.981321 
2.5050008e+3, 1.6493244e+2, -1348656.5, -1371950.1, 0.057350717, 0.0000067292062, 0.000048081205, -1348656.5, -24994.607, 0.0, 10.000024, 9.969237 
2.5050008e+3, 1.7490174e+2, -1250698.9, -1274308.1, -0.04290963, 0.0000067072015, -0.00007260047, -1250698.9, -24735.781, 0.0, 10.000024, 9.968823 
2.5050008e+3, 1.8486439e+2, -1162618.0, -1195718.0, 0.05047029, 0.000006680315, 0.0000675044, -1162618.0, -34288.832, 0.0, 10.000024, 9.956384 
2.5050008e+3, 1.948208e+2, -1064468.5, -1097831.1, -0.050494026, 0.0000066483144, -0.000056547156, -1064468.5, -33712.316, 0.0, 10.000024, 9.956041 
2.5050008e+3, 2.0477055e+2, -976304.7, -1019433.2, 0.04644709, 0.0000066210087, 0.00006905513, -976304.7, -43056.105, 0.0, 10.000024, 9.943279 
2.5050008e+3, 2.1471387e+2, -878017.94, -921408.25, -0.048806254, 0.0000065987833, -0.00012585489, -878017.94, -42213.844, 0.0, 10.000024, 9.942939 
2.5050008e+3, 2.246505e+2, -789731.94, -843143.25, 0.043109827, 0.0000065811073, 0.00012180567, -789731.94, -51306.773, 0.0, 10.000024, 9.929896 
2.5050008e+3, 2.3458046e+2, -691298.7, -744965.0, -0.05131393, 0.0000065685736, -0.00008798633, -691298.7, -50187.133, 0.0, 10.000024, 9.929565 
2.5050008e+3, 2.4450347e+2, -602974.75, -667017.44, 0.041350517, 0.00000655064, 0.000075464704, -602974.75, -59108.77, 0.0, 10.000024, 9.916125 
2.5050008e+3, 2.544197e+2, -504222.3, -568342.1, -0.05045311, 0.0000065262466, -0.00010603538, -504222.3, -57535.53, 0.0, 10.000024, 9.916025 
2.5050008e+3, 2.643289e+2, -415987.03, -490986.84, 0.0428441, 0.0000065074364, 0.00014123127, -415987.03, -66410.05, 0.0, 10.000024, 9.901954 
2.5050008e+3, 2.7423137e+2, -316702.03, -391373.88, -0.0444663, 0.0000064957408, -0.00020288386, -316702.03, -64169.59, 0.0, 10.000024, 9.902374 
2.5050008e+3, 2.841257e+2, -230228.84, -318080.38, 0.043735508, 0.000006485818, 0.00022954583, -230228.84, -74660.336, 0.0, 10.000024, 9.885427 
2.5050008e+3, 2.9401216e+2, -130522.88, -217764.3, -0.04174495, 0.0000064782816, -0.0002528806, -130522.88, -71841.85, 0.0, 10.000023, 9.886207 
2.5050008e+3, 3.039266e+2, -40779.305, -84749.91, 0.044707775, 0.0000064665383, 0.00017351468, -40779.305, -40779.305, 0.0, 10.000023, 9.942162 
2.5050008e+3, 3.138706e+2, -39701.348, -82511.01, -0.032315575, 0.0000064485375, -0.000054916847, -39701.348, -39701.348, 0.0, 10.000023, 9.943673 
2.515001e+3, 1.2499358e+2, -1719916.4, -1724222.5, 0.028298743, 0.0000070410883, 0.00001997425, -1719916.4, -4853.444, 0.0, 10.000025, 9.994315 
2.515001e+3, 1.349878e+2, -1622536.3, -1627433.0, -0.07602405, 0.000006968557, -0.00006888259, -1622536.3, -5416.8564, 0.0, 10.000025, 9.993533 
2.515001e+3, 1.4497533e+2, -1534434.9, -1548144.1, 0.014109188, 0.000006923748, 0.00007419188, -1534434.9, -15193.266, 0.0, 10.000025, 9.981853 
2.515001e+3, 1.5495722e+2, -1436707.5, -1450820.0, -0.08646454, 0.0000069053913, -0.000055563418, -1436707.5, -15288.273, 0.0, 10.000025, 9.981321 
2.515001e+3, 1.6493246e+2, -1348656.8, -1371950.5, 0.01548898, 0.0000068821237, 0.000048080074, -1348656.8, -24994.877, 0.0, 10.000024, 9.969236 
2.515001e+3, 1.7490174e+2, -1250699.0, -1274308.6, -0.084751435, 0.0000068538466, -0.00007256867, -1250699.0, -24736.045, 0.0, 10.000024, 9.9688225 
2.515001e+3, 1.8486439e+2, -1162618.3, -1195718.5, 0.0171463, 0.0000068238282, 0.00006754595, -1162618.3, -34289.098, 0.0, 10.000024, 9.956384 
2.515001e+3, 1.948208e+2, -1064468.8, -1097831.5, -0.0837204, 0.000006791981, -0.00005652014, -1064468.8, -33712.574, 0.0, 10.000024, 9.95604 
2.515001e+3, 2.0477055e+2, -976304.9, -1019433.56, 0.0126108145, 0.000006767616, 0.00006907318, -976304.9, -43056.35, 0.0, 10.000024, 9.943279 
2.515001e+3, 2.1471387e+2, -878018.1, -921408.6, -0.08265647, 0.0000067513515, -0.00012583975, -878018.1, -42214.086, 0.0, 10.000024, 9.942938 
2.515001e+3, 2.246505e+2, -789732.1, -843143.7, 0.015058657, 0.0000067326046, 0.00012182205, -789732.1, -51307.01, 0.0, 10.000024, 9.929896 
2.515001e+3, 2.3458046e+2, -691298.9, -744965.44, -0.07917678, 0.0000067110404, -0.000087964, -691298.9, -50187.367, 0.0, 10.000024, 9.929565 
2.515001e+3, 2.4450347e+2, -602974.94, -667017.9, 0.01978731, 0.00000669076, 0.0000754882, -602974.94, -59109.0, 0.0, 10.000024, 9.916124 
2.515001e+3, 2.544197e+2, -504222.5, -568342.5, -0.071714856, 0.0000066720113, -0.00010601644, -504222.5, -57535.754, 0.0, 10.000024, 9.916025 
2.515001e+3, 2.643289e+2, -415987.25, -490987.25, 0.02358039, 0.0000066550747, 0.00014124557, -415987.25, -66410.266, 0.0, 10.000024, 9.901954 
2.515001e+3, 2.7423137e+2, -316702.22, -391374.28, -0.06359724, 0.0000066404345, -0.00020287423, -316702.22, -64169.8, 0.0, 10.000024, 9.902373 
2.515001e+3, 2.841257e+2, -230229.03, -318080.78, 0.028606381, 0.000006628244, 0.0002295534, -230229.03, -74660.55, 0.0, 10.000024, 9.885427 
2.515001e+3, 2.9401216e+2, -130523.08, -217764.7, -0.056514494, 0.0000066193884, -0.00025287142, -130523.08, -71842.06, 0.0, 10.000023, 9.886206 
2.515001e+3, 3.039266e+2, -40779.492, -84750.3, 0.035602048, 0.0000066089406, 0.00017352114, -40779.492, -40779.492, 0.0, 10.000023, 9.942162 
2.515001e+3, 3.138706e+2, -39701.535, -82511.4, -0.040758077, 0.000006596109, -0.000054919503, -39701.535, -39701.535, 0.0, 10.000023, 9.943673 
2.525001e+3, 1.24993585e+2, -1719914.8, -1724222.0, 0.0857853, 0.000007188293, 0.000020028756, -1719914.8, -4851.7764, 0.0, 10.000026, 9.994315 
2.525001e+3, 1.3498782e+2, -1622534.6, -1627432.5, -0.027626019, 0.000007123976, -0.000068915564, -1622534.6, -5415.2437, 0.0, 10.000026, 9.993532 
2.525001e+3, 1.4497536e+2, -1534433.3, -1548143.5, 0.062126674, 0.000007082493, 0.000074282194, -1534433.3, -15191.664, 0.0, 10.000026, 9.981853 
2.525001e+3, 1.5495723e+2, -1436705.9, -1450819.4, -0.040381413, 0.0000070625097, -0.000055536344, -1436705.9, -15286.675, 0.0, 10.000026, 9.981321 
2.525001e+3, 1.6493246e+2, -1348655.1, -1371950.0, 0.06114984, 0.000007035265, 0.00004808656, -1348655.1, -24993.287, 0.0, 10.000026, 9.969236 
2.525001e+3, 1.7490174e+2, -1250697.4, -1274308.0, -0.04793531, 0.00000700061, -0.000072539195, -1250697.4, -24734.453, 0.0, 10.000026, 9.9688225 
2.525001e+3, 1.8486439e+2, -1162616.6, -1195717.9, 0.05348192, 0.000006970179, 0.00006758128, -1162616.6, -34287.51, 0.0, 10.000025, 9.956384 
2.525001e+3, 1.948208e+2, -1064467.1, -1097831.0, -0.048376918, 0.0000069441608, -0.00005649691, -1064467.1, -33711.023, 0.0, 10.000025, 9.95604 
2.525001e+3, 2.0477055e+2, -976303.3, -1019433.06, 0.04782411, 0.0000069215876, 0.00006909131, -976303.3, -43054.813, 0.0, 10.000025, 9.943279 
2.525001e+3, 2.1471389e+2, -878016.56, -921408.1, -0.05345838, 0.000006902743, -0.00012581918, -878016.56, -42212.547, 0.0, 10.000025, 9.942938 
2.525001e+3, 2.246505e+2, -789730.56, -843143.2, 0.043762513, 0.0000068812305, 0.00012184302, -789730.56, -51305.473, 0.0, 10.000025, 9.929896 
2.525001e+3, 2.3458046e+2, -691297.3, -744964.94, -0.055962723, 0.000006856694, -0.00008794498, -691297.3, -50185.836, 0.0, 10.000025, 9.929565 
2.525001e+3, 2.4450348e+2, -602973.44, -667017.4, 0.042474616, 0.00000683632, 0.0000755064, -602973.44, -59107.477, 0.0, 10.000025, 9.916124 
2.525001e+3, 2.544197e+2, -504220.97, -568342.06, -0.05334646, 0.0000068209165, -0.0001059977, -504220.97, -57534.254, 0.0, 10.000025, 9.916024 
2.525001e+3, 2.643289e+2, -415985.72, -490986.78, 0.041777514, 0.0000068050795, 0.0001412631, -415985.72, -66408.77, 0.0, 10.000025, 9.901953 
2.525001e+3, 2.7423137e+2, -316700.72, -391373.84, -0.048795413, 0.0000067886745, -0.00020286017, -316700.72, -64168.316, 0.0, 10.000025, 9.902373 
2.525001e+3, 2.841257e+2, -230227.53, -318080.34, 0.04495409, 0.0000067752453, 0.00022956393, -230227.53, -74659.07, 0.0, 10.000025, 9.885427 
2.525001e+3, 2.9401216e+2, -130521.586, -217764.27, -0.041000687, 0.0000067658866, -0.0002528646, -130521.586, -71840.58, 0.0, 10.000025, 9.886206 
2.525001e+3, 3.039266e+2, -40778.023, -84749.89, 0.051180694, 0.0000067549768, 0.00017352698, -40778.023, -40778.023, 0.0, 10.000025, 9.942162 
2.525001e+3, 3.138706e+2, -39700.074, -82510.99, -0.033289805, 0.0000067417377, -0.00005491064, -39700.074, -39700.074, 0.0, 10.000025, 9.943672 
2.535001e+3, 1.24993585e+2, -1719915.0, -1724222.5, 0.029541137, 0.000007335667, 0.000020085155, -1719915.0, -4852.097, 0.0, 10.000026, 9.994314 
2.535001e+3, 1.3498782e+2, -1622534.9, -1627433.0, -0.08388002, 0.0000072844246, -0.0000689655, -1622534.9, -5415.5586, 0.0, 10.000026, 9.993532 
2.535001e+3, 1.4497536e+2, -1534433.5, -1548144.0, 0.016717067, 0.0000072469156, 0.000074359494, -1534433.5, -15191.951, 0.0, 10.000026, 9.981853 
2.535001e+3, 1.5495723e+2, -1436706.1, -1450819.9, -0.08577644, 0.000007221717, -0.000055505312, -1436706.1, -15286.957, 0.0, 10.000026, 9.98132 
2.535001e+3, 1.6493246e+2, -1348655.4, -1371950.5, 0.0211137, 0.00000718863, 0.00004810066, -1348655.4, -24993.578, 0.0, 10.000026, 9.969236 
2.535001e+3, 1.7490175e+2, -1250697.6, -1274308.5, -0.08794398, 0.0000071474924, -0.00007251204, -1250697.6, -24734.74, 0.0, 10.000026, 9.9688225 
2.535001e+3, 1.8486439e+2, -1162616.8, -1195718.4, 0.013729498, 0.000007119367, 0.00006761039, -1162616.8, -34287.78, 0.0, 10.000025, 9.956384 
2.535001e+3, 1.9482082e+2, -1064467.4, -1097831.4, -0.088127896, 0.000007104851, -0.000056477456, -1064467.4, -33711.285, 0.0, 10.000025, 9.95604 
2.535001e+3, 2.0477057e+2, -976303.56, -1019433.5, 0.014984145, 0.000007082921, 0.0000691095, -976303.56, -43055.07, 0.0, 10.000025, 9.943278 
2.535001e+3, 2.1471389e+2, -878016.75, -921408.56, -0.086157076, 0.0000070529577, -0.00012579316, -878016.75, -42212.8, 0.0, 10.000025, 9.942938 
2.535001e+3, 2.246505e+2, -789730.8, -843143.6, 0.015739005, 0.000007026987, 0.00012186858, -789730.8, -51305.727, 0.0, 10.000025, 9.929896 
2.535001e+3, 2.3458046e+2, -691297.56, -744965.4, -0.08383441, 0.000007005535, -0.000087929264, -691297.56, -50186.082, 0.0, 10.000025, 9.929564 
2.535001e+3, 2.4450348e+2, -602973.6, -667017.8, 0.01728762, 0.0000069873195, 0.00007551932, -602973.6, -59107.72, 0.0, 10.000025, 9.916124 
2.535001e+3, 2.544197e+2, -504221.2, -568342.5, -0.0784057, 0.0000069729613, -0.00010597916, -504221.2, -57534.49, 0.0, 10.000025, 9.916024 
2.535001e+3, 2.643289e+2, -415985.94, -490987.22, 0.022444192, 0.000006957451, 0.00014128383, -415985.94, -66409.0, 0.0, 10.000025, 9.901953 
2.535001e+3, 2.7423137e+2, -316700.9, -391374.25, -0.06774652, 0.000006940459, -0.00020284165, -316700.9, -64168.535, 0.0, 10.000025, 9.902373 
2.535001e+3, 2.841257e+2, -230227.73, -318080.75, 0.030097567, 0.0000069268217, 0.00022957737, -230227.73, -74659.28, 0.0, 10.000025, 9.8854265 
2.535001e+3, 2.9401216e+2, -130521.78, -217764.67, -0.05548969, 0.000006917776, -0.0002528601, -130521.78, -71840.79, 0.0, 10.000025, 9.886206 
2.535001e+3, 3.039266e+2, -40778.223, -84750.305, 0.04019156, 0.000006904646, 0.0001735322, -40778.223, -40778.223, 0.0, 10.000025, 9.942161 
2.535001e+3, 3.138706e+2, -39700.273, -82511.414, -0.043869488, 0.0000068854247, -0.000054890264, -39700.273, -39700.273, 0.0, 10.000025, 9.943672 
2.545001e+3, 1.2499359e+2, -1719913.3, -1724221.9, 0.082652636, 0.0000075022695, 0.00002014984, -1719913.3, -4850.406, 0.0, 10.000028, 9.994314 
2.545001e+3, 1.3498785e+2, -1622533.1, -1627432.4, -0.027760662, 0.0000074430236, -0.00006901159, -1622533.1, -5413.8535, 0.0, 10.000027, 9.993532 
2.545001e+3, 1.4497536e+2, -1534431.8, -1548143.4, 0.0738848, 0.0000074022078, 0.00007444294, -1534431.8, -15190.245, 0.0, 10.000027, 9.981853 
2.545001e+3, 1.5495723e+2, -1436704.4, -1450819.3, -0.043460485, 0.0000073783917, -0.000055469194, -1436704.4, -15285.272, 0.0, 10.000027, 9.98132 
2.545001e+3, 1.6493247e+2, -1348653.6, -1371949.9, 0.062196072, 0.0000073464603, 0.0000481175, -1348653.6, -24991.91, 0.0, 10.000027, 9.969235 
2.545001e+3, 1.7490175e+2, -1250696.0, -1274308.0, -0.045567103, 0.0000073062474, -0.0000724858, -1250696.0, -24733.094, 0.0, 10.000027, 9.9688225 
2.545001e+3, 1.848644e+2, -1162615.1, -1195717.8, 0.055313196, 0.000007277798, 0.000067639565, -1162615.1, -34286.14, 0.0, 10.000027, 9.956383 
2.545001e+3, 1.9482082e+2, -1064465.6, -1097830.9, -0.053413417, 0.0000072616494, -0.000056452118, -1064465.6, -33709.656, 0.0, 10.000027, 9.95604 
2.545001e+3, 2.0477057e+2, -976301.9, -1019433.0, 0.050339565, 0.0000072386392, 0.00006913253, -976301.9, -43053.45, 0.0, 10.000027, 9.943278 
2.545001e+3, 2.1471389e+2, -878015.1, -921408.06, -0.05606022, 0.000007208193, -0.00012577075, -878015.1, -42211.188, 0.0, 10.000026, 9.942937 
2.545001e+3, 2.246505e+2, -789729.2, -843143.1, 0.046299998, 0.0000071816903, 0.000121890494, -789729.2, -51304.12, 0.0, 10.000026, 9.929895 
2.545001e+3, 2.3458046e+2, -691295.94, -744964.9, -0.05572734, 0.0000071596487, -0.00008790767, -691295.94, -50184.492, 0.0, 10.000026, 9.929564 
2.545001e+3, 2.4450348e+2, -602972.0, -667017.3, 0.0454343, 0.0000071411187, 0.00007553789, -602972.0, -59106.137, 0.0, 10.000026, 9.916124 
2.545001e+3, 2.544197e+2, -504219.6, -568342.0, -0.05389495, 0.000007126772, -0.0001059668, -504219.6, -57532.914, 0.0, 10.000026, 9.916024 
2.545001e+3, 2.643289e+2, -415984.34, -490986.75, 0.047169223, 0.0000071112695, 0.00014129447, -415984.34, -66407.44, 0.0, 10.000026, 9.901953 
2.545001e+3, 2.7423137e+2, -316699.34, -391373.78, -0.0505578, 0.0000070942815, -0.00020282701, -316699.34, -64166.98, 0.0, 10.000026, 9.902372 
2.545001e+3, 2.841257e+2, -230226.17, -318080.3, 0.044866275, 0.000007080332, 0.00022959369, -230226.17, -74657.734, 0.0, 10.000026, 9.8854265 
2.545001e+3, 2.9401216e+2, -130520.23, -217764.23, -0.045695897, 0.000007070542, -0.00025284532, -130520.23, -71839.25, 0.0, 10.000026, 9.886205 
2.545001e+3, 3.039266e+2, -40776.69, -84749.89, 0.049010098, 0.0000070565065, 0.00017354419, -40776.69, -40776.69, 0.0, 10.000026, 9.942161 
2.545001e+3, 3.138706e+2, -39698.74, -82511.0, -0.039431877, 0.0000070361434, -0.000054882963, -39698.74, -39698.74, 0.0, 10.000026, 9.943672 
2.555001e+3, 1.249936e+2, -1719913.5, -1724222.4, 0.03098011, 0.000007688092, 0.000020222898, -1719913.5, -4850.722, 0.0, 10.000028, 9.994314 
2.555001e+3, 1.3498785e+2, -1622533.4, -1627432.9, -0.07944329, 0.000007599774, -0.00006905383, -1622533.4, -5414.1646, 0.0, 10.000027, 9.993531 
2.555001e+3, 1.4497538e+2, -1534432.0, -1548143.9, 0.024748892, 0.000007548373, 0.000074532545, -1534432.0, -15190.569, 0.0, 10.000027, 9.981852 
2.555001e+3, 1.5495725e+2, -1436704.6, -1450819.8, -0.092592746, 0.000007532534, -0.000055427994, -1436704.6, -15285.59, 0.0, 10.000027, 9.98132 
2.555001e+3, 1.6493247e+2, -1348653.9, -1371950.4, 0.018618809, 0.0000075087546, 0.00004813708, -1348653.9, -24992.203, 0.0, 10.000027, 9.969235 
2.555001e+3, 1.7490175e+2, -1250696.3, -1274308.4, -0.08911694, 0.000007476872, -0.00007246047, -1250696.3, -24733.379, 0.0, 10.000027, 9.968822 
2.555001e+3, 1.848644e+2, -1162615.4, -1195718.3, 0.014944237, 0.0000074454683, 0.00006766881, -1162615.4, -34286.426, 0.0, 10.000027, 9.956383 
2.555001e+3, 1.9482082e+2, -1064465.9, -1097831.4, -0.09374691, 0.0000074145587, -0.000056420897, -1064465.9, -33709.934, 0.0, 10.000027, 9.956039 
2.555001e+3, 2.0477057e+2, -976302.1, -1019433.44, 0.016363332, 0.0000073887454, 0.00006916042, -976302.1, -43053.723, 0.0, 10.000027, 9.943278 
2.555001e+3, 2.1471389e+2, -878015.4, -921408.5, -0.089906536, 0.0000073684473, -0.00012575195, -878015.4, -42211.457, 0.0, 10.000026, 9.942937 
2.555001e+3, 2.2465052e+2, -789729.4, -843143.56, 0.016560707, 0.000007345337, 0.00012190878, -789729.4, -51304.38, 0.0, 10.000026, 9.929895 
2.555001e+3, 2.3458047e+2, -691296.1, -744965.3, -0.08533387, 0.000007319036, -0.00008788021, -691296.1, -50184.742, 0.0, 10.000026, 9.929564 
2.555001e+3, 2.4450348e+2, -602972.25, -667017.75, 0.019196695, 0.0000072977173, 0.00007556213, -602972.25, -59106.383, 0.0, 10.000026, 9.916123 
2.555001e+3, 2.544197e+2, -504219.8, -568342.44, -0.079971924, 0.0000072823473, -0.00010596064, -504219.8, -57533.156, 0.0, 10.000026, 9.916024 
2.555001e+3, 2.643289e+2, -415984.56, -490987.2, 0.026721345, 0.0000072665357, 0.000141295, -415984.56, -66407.68, 0.0, 10.000026, 9.901953 
2.555001e+3, 2.7423137e+2, -316699.56, -391374.25, -0.07062966, 0.000007250141, -0.00020281627, -316699.56, -64167.22, 0.0, 10.000026, 9.902372 
2.555001e+3, 2.841257e+2, -230226.38, -318080.75, 0.029313918, 0.0000072357766, 0.00022961288, -230226.38, -74657.95, 0.0, 10.000026, 9.8854265 
2.555001e+3, 2.9401216e+2, -130520.43, -217764.66, -0.060842615, 0.000007224186, -0.00025282017, -130520.43, -71839.47, 0.0, 10.000026, 9.886205 
2.555001e+3, 3.039266e+2, -40776.902, -84750.33, 0.03922942, 0.0000072105577, 0.00017356296, -40776.902, -40776.902, 0.0, 10.000026, 9.942161 
2.555001e+3, 3.138706e+2, -39698.95, -82511.44, -0.04858348, 0.000007193892, -0.000054888744, -39698.95, -39698.95, 0.0, 10.000026, 9.943671 
2.5650012e+3, 1.2499361e+2, -1719911.6, -1724221.6, 0.08439754, 0.000007861972, 0.000020283964, -1719911.6, -4848.9473, 0.0, 10.000029, 9.994313 
2.5650012e+3, 1.3498785e+2, -1622531.5, -1627432.3, -0.037074927, 0.000007764966, -0.00006908176, -1622531.5, -5412.389, 0.0, 10.000029, 9.993531 
2.5650012e+3, 1.4497538e+2, -1534430.1, -1548143.3, 0.06488694, 0.000007709563, 0.000074640586, -1534430.1, -15188.798, 0.0, 10.000029, 9.981852 
2.5650012e+3, 1.5495725e+2, -1436702.8, -1450819.1, -0.04762998, 0.0000076944025, -0.0000553972, -1436702.8, -15283.833, 0.0, 10.000028, 9.981319 
2.5650012e+3, 1.6493247e+2, -1348652.1, -1371949.8, 0.06591515, 0.0000076728475, 0.000048141523, -1348652.1, -24990.46, 0.0, 10.000028, 9.969235 
2.5650012e+3, 1.7490177e+2, -1250694.5, -1274307.9, -0.05023882, 0.000007644769, -0.0000724304, -1250694.5, -24731.666, 0.0, 10.000028, 9.968822 
2.565001e+3, 1.848644e+2, -1162613.6, -1195717.8, 0.055038594, 0.0000076124047, 0.0000677066, -1162613.6, -34284.723, 0.0, 10.000028, 9.956383 
2.565001e+3, 1.9482082e+2, -1064464.1, -1097830.8, -0.057633944, 0.0000075755497, -0.000056394132, -1064464.1, -33708.227, 0.0, 10.000028, 9.956039 
2.565001e+3, 2.0477057e+2, -976300.4, -1019432.9, 0.05122326, 0.00000754746, 0.00006918281, -976300.4, -43052.02, 0.0, 10.000028, 9.943277 
2.565001e+3, 2.147139e+2, -878013.6, -921407.94, -0.05920479, 0.0000075288585, -0.00012572673, -878013.6, -42209.777, 0.0, 10.000028, 9.942937 
2.565001e+3, 2.2465052e+2, -789727.7, -843143.0, 0.04785601, 0.000007507396, 0.00012193325, -789727.7, -51302.715, 0.0, 10.000028, 9.929895 
2.565001e+3, 2.3458047e+2, -691294.44, -744964.8, -0.060189955, 0.000007482685, -0.00008786055, -691294.44, -50183.09, 0.0, 10.000028, 9.9295635 
2.565001e+3, 2.4450348e+2, -602970.56, -667017.25, 0.043638185, 0.0000074606346, 0.0000755798, -602970.56, -59104.734, 0.0, 10.000027, 9.916123 
2.565001e+3, 2.544197e+2, -504218.13, -568341.94, -0.058889624, 0.0000074417603, -0.000105941566, -504218.13, -57531.51, 0.0, 10.000027, 9.916023 
2.565001e+3, 2.643289e+2, -415982.9, -490986.7, 0.04900388, 0.0000074242257, 0.00014131273, -415982.9, -66406.04, 0.0, 10.000027, 9.901952 
2.565001e+3, 2.7423137e+2, -316697.9, -391373.75, -0.05191026, 0.0000074083814, -0.00020280333, -316697.9, -64165.594, 0.0, 10.000027, 9.902372 
2.565001e+3, 2.841257e+2, -230224.73, -318080.25, 0.0482811, 0.0000073942933, 0.00022962397, -230224.73, -74656.336, 0.0, 10.000027, 9.8854265 
2.565001e+3, 2.9401216e+2, -130518.805, -217764.19, -0.047431946, 0.000007382594, -0.00025280687, -130518.805, -71837.85, 0.0, 10.000027, 9.886205 
2.565001e+3, 3.039266e+2, -40775.3, -84749.88, 0.05340829, 0.0000073692727, 0.00017357424, -40775.3, -40775.3, 0.0, 10.000027, 9.94216 
2.565001e+3, 3.138706e+2, -39697.363, -82511.0, -0.033025116, 0.0000073535343, -0.00005488587, -39697.363, -39697.363, 0.0, 10.000027, 9.943671 
2.575001e+3, 1.24993615e+2, -1719911.9, -1724222.3, 0.03440082, 0.000008023916, 0.000020333138, -1719911.9, -4849.292, 0.0, 10.000029, 9.994313 
2.575001e+3, 1.3498786e+2, -1622531.8, -1627432.8, -0.08708056, 0.0000079385945, -0.00006909538, -1622531.8, -5412.728, 0.0, 10.000029, 9.993531 
2.575001e+3, 1.449754e+2, -1534430.4, -1548143.8, 0.013755194, 0.000007885772, 0.00007476707, -1534430.4, -15189.113, 0.0, 10.000029, 9.981852 
2.575001e+3, 1.5495726e+2, -1436703.1, -1450819.6, -0.09876483, 0.000007863995, -0.000055376804, -1436703.1, -15284.142, 0.0, 10.000028, 9.981319 
2.575001e+3, 1.6493249e+2, -1348652.4, -1371950.3, 0.016911607, 0.00000783874, 0.000048130823, -1348652.4, -24990.773, 0.0, 10.000028, 9.969234 
2.575001e+3, 1.7490177e+2, -1250694.8, -1274308.4, -0.09923278, 0.00000780994, -0.00007239558, -1250694.8, -24731.973, 0.0, 10.000028, 9.968822 
2.575001e+3, 1.8486442e+2, -1162613.9, -1195718.1, 0.017503632, 0.000007778609, 0.00006775294, -1162613.9, -34285.02, 0.0, 10.000028, 9.956382 
2.575001e+3, 1.9482084e+2, -1064464.4, -1097831.3, -0.0950379, 0.00000774462, -0.000056371824, -1064464.4, -33708.516, 0.0, 10.000028, 9.956039 
2.575001e+3, 2.0477058e+2, -976300.6, -1019433.4, 0.012864617, 0.00000771478, 0.0000691997, -976300.6, -43052.3, 0.0, 10.000028, 9.943277 
2.575001e+3, 2.147139e+2, -878013.9, -921408.44, -0.09758459, 0.000007689428, -0.00012569509, -878013.9, -42210.055, 0.0, 10.000028, 9.942936 
2.575001e+3, 2.2465052e+2, -789727.94, -843143.5, 0.016640645, 0.000007667868, 0.000121963894, -789727.94, -51302.99, 0.0, 10.000028, 9.929894 
2.575001e+3, 2.3458047e+2, -691294.7, -744965.25, -0.091172256, 0.000007650595, -0.0000878487, -691294.7, -50183.355, 0.0, 10.000028, 9.9295635 
2.575001e+3, 2.445035e+2, -602970.8, -667017.7, 0.017746806, 0.000007629869, 0.00007559092, -602970.8, -59104.99, 0.0, 10.000027, 9.916123 
2.575001e+3, 2.5441974e+2, -504218.38, -568342.4, -0.08453852, 0.000007605011, -0.000105909596, -504218.38, -57531.76, 0.0, 10.000027, 9.916023 
2.575001e+3, 2.643289e+2, -415983.13, -490987.16, 0.027270082, 0.00000758434, 0.00014134769, -415983.13, -66406.29, 0.0, 10.000027, 9.901952 
2.575001e+3, 2.7423137e+2, -316698.13, -391374.22, -0.0733827, 0.000007569002, -0.0002027882, -316698.13, -64165.836, 0.0, 10.000027, 9.902371 
2.575001e+3, 2.841257e+2, -230224.95, -318080.72, 0.03206959, 0.0000075558814, 0.00022962698, -230224.95, -74656.57, 0.0, 10.000027, 9.885426 
2.575001e+3, 2.9401216e+2, -130519.02, -217764.64, -0.06317087, 0.000007545765, -0.00025280536, -130519.02, -71838.086, 0.0, 10.000027, 9.886205 
2.575001e+3, 3.039266e+2, -40775.51, -84750.32, 0.040863715, 0.00000753265, 0.00017357802, -40775.51, -40775.51, 0.0, 10.000027, 9.94216 
2.575001e+3, 3.138706e+2, -39697.57, -82511.43, -0.045197167, 0.00000751507, -0.000054874352, -39697.57, -39697.57, 0.0, 10.000027, 9.943671 
2.5850013e+3, 1.2499362e+2, -1719910.0, -1724221.5, 0.09560237, 0.000008188542, 0.000020398027, -1719910.0, -4847.395, 0.0, 10.00003, 9.994313 
2.5850013e+3, 1.3498786e+2, -1622529.9, -1627432.1, -0.031362914, 0.0000081139, -0.00006913233, -1622529.9, -5410.888, 0.0, 10.00003, 9.99353 
2.5850013e+3, 1.449754e+2, -1534428.5, -1548143.1, 0.06871784, 0.000008065392, 0.00007487228, -1534428.5, -15187.287, 0.0, 10.00003, 9.981851 
2.5850013e+3, 1.5495726e+2, -1436701.3, -1450819.0, -0.04813604, 0.000008041489, -0.00005534528, -1436701.3, -15282.329, 0.0, 10.00003, 9.981319 
2.5850013e+3, 1.6493249e+2, -1348650.5, -1371949.6, 0.06778252, 0.00000801133, 0.000048136997, -1348650.5, -24988.969, 0.0, 10.00003, 9.969234 
2.5850013e+3, 1.7490177e+2, -1250692.9, -1274307.8, -0.054224323, 0.000007974786, -0.00007236537, -1250692.9, -24730.158, 0.0, 10.00003, 9.968821 
2.5850013e+3, 1.8486442e+2, -1162612.0, -1195717.5, 0.062191274, 0.000007943386, 0.00006779054, -1162612.0, -34283.21, 0.0, 10.000029, 9.956382 
2.5850013e+3, 1.9482084e+2, -1064462.6, -1097830.6, -0.05544277, 0.000007917358, -0.00005634426, -1064462.6, -33706.75, 0.0, 10.000029, 9.956038 
2.5850013e+3, 2.0477058e+2, -976298.8, -1019432.8, 0.05289071, 0.000007888531, 0.00006922228, -976298.8, -43050.55, 0.0, 10.000029, 9.943277 
2.5850013e+3, 2.147139e+2, -878012.06, -921407.9, -0.062377546, 0.00000785667, -0.00012567201, -878012.06, -42208.297, 0.0, 10.000029, 9.942936 
2.5850013e+3, 2.2465052e+2, -789726.1, -843142.94, 0.051039547, 0.000007832762, 0.00012198578, -789726.1, -51301.23, 0.0, 10.000029, 9.929894 
2.5850013e+3, 2.3458047e+2, -691292.94, -744964.7, -0.059671603, 0.000007817853, -0.00008782993, -691292.94, -50181.625, 0.0, 10.000029, 9.9295635 
2.5850013e+3, 2.445035e+2, -602969.06, -667017.2, 0.050275333, 0.000007797903, 0.00007560925, -602969.06, -59103.273, 0.0, 10.000029, 9.916122 
2.5850013e+3, 2.5441974e+2, -504216.63, -568341.9, -0.06222693, 0.000007771918, -0.00010588849, -504216.63, -57530.05, 0.0, 10.000029, 9.916023 
2.5850013e+3, 2.643289e+2, -415981.4, -490986.63, 0.046559043, 0.000007750176, 0.00014136825, -415981.4, -66404.58, 0.0, 10.000029, 9.901952 
2.5850013e+3, 2.7423137e+2, -316696.4, -391373.72, -0.055452723, 0.000007733843, -0.00020277244, -316696.4, -64164.137, 0.0, 10.000029, 9.902371 
2.5850013e+3, 2.841257e+2, -230223.25, -318080.22, 0.052140325, 0.000007720909, 0.00022963891, -230223.25, -74654.88, 0.0, 10.000029, 9.885426 
2.5850013e+3, 2.9401216e+2, -130517.336, -217764.16, -0.046473365, 0.000007712596, -0.00025279587, -130517.336, -71836.414, 0.0, 10.000029, 9.886204 
2.5850013e+3, 3.039266e+2, -40773.848, -84749.86, 0.055210914, 0.000007698968, 0.00017358713, -40773.848, -40773.848, 0.0, 10.000029, 9.94216 
2.5850013e+3, 3.138706e+2, -39695.895, -82510.97, -0.04382467, 0.000007677421, -0.00005486246, -39695.895, -39695.895, 0.0, 10.000028, 9.94367 
2.5950012e+3, 1.2499363e+2, -1719910.3, -1724222.1, 0.03383121, 0.000008355849, 0.00002047873, -1719910.3, -4847.756, 0.0, 10.00003, 9.994312 
2.5950012e+3, 1.3498788e+2, -1622530.3, -1627432.6, -0.093144976, 0.000008290882, -0.0000691926, -1622530.3, -5411.242, 0.0, 10.00003, 9.99353 
2.5950012e+3, 1.449754e+2, -1534428.8, -1548143.6, 0.015885273, 0.000008248423, 0.000074956246, -1534428.8, -15187.614, 0.0, 10.00003, 9.981851 
2.5950012e+3, 1.5495726e+2, -1436701.5, -1450819.5, -0.100957364, 0.000008226884, -0.000055302637, -1436701.5, -15282.65, 0.0, 10.00003, 9.981319 
2.5950012e+3, 1.6493249e+2, -1348650.8, -1371950.1, 0.023054456, 0.000008190615, 0.00004816003, -1348650.8, -24989.297, 0.0, 10.00003, 9.969234 
2.5950012e+3, 1.7490178e+2, -1250693.1, -1274308.3, -0.098911, 0.000008139308, -0.00007233976, -1250693.1, -24730.48, 0.0, 10.00003, 9.968821 
2.5950012e+3, 1.8486442e+2, -1162612.3, -1195718.1, 0.016029833, 0.000008106737, 0.00006781941, -1162612.3, -34283.52, 0.0, 10.000029, 9.956382 
2.5950012e+3, 1.9482084e+2, -1064462.9, -1097831.1, -0.10162295, 0.000008093763, -0.000056311437, -1064462.9, -33707.055, 0.0, 10.000029, 9.956038 
2.5950012e+3, 2.0477058e+2, -976299.06, -1019433.25, 0.018215146, 0.000008068714, 0.000069250564, -976299.06, -43050.848, 0.0, 10.000029, 9.943276 
2.5950012e+3, 2.147139e+2, -878012.3, -921408.4, -0.09681709, 0.000008030584, -0.00012565746, -878012.3, -42208.586, 0.0, 10.000029, 9.942936 
2.5950012e+3, 2.2465053e+2, -789726.4, -843143.4, 0.015510105, 0.000008002075, 0.000121998906, -789726.4, -51301.51, 0.0, 10.000029, 9.929894 
2.5950012e+3, 2.3458047e+2, -691293.2, -744965.2, -0.09523871, 0.0000079844585, -0.00008780428, -691293.2, -50181.9, 0.0, 10.000029, 9.929563 
2.5950012e+3, 2.445035e+2, -602969.3, -667017.7, 0.02422577, 0.000007964736, 0.00007563478, -602969.3, -59103.55, 0.0, 10.000029, 9.916122 
2.5950012e+3, 2.5441974e+2, -504216.88, -568342.4, -0.08781992, 0.00000794248, -0.00010587822, -504216.88, -57530.324, 0.0, 10.000029, 9.916022 
2.5950012e+3, 2.643289e+2, -415981.63, -490987.1, 0.024007013, 0.0000079217325, 0.00014137443, -415981.63, -66404.836, 0.0, 10.000029, 9.901951 
2.5950012e+3, 2.742314e+2, -316696.63, -391374.16, -0.077803165, 0.000007902903, -0.00020275603, -316696.63, -64164.387, 0.0, 10.000029, 9.902371 
2.5950012e+3, 2.841257e+2, -230223.48, -318080.7, 0.03354254, 0.000007889375, 0.0002296598, -230223.48, -74655.125, 0.0, 10.000029, 9.885426 
2.5950012e+3, 2.9401216e+2, -130517.555, -217764.63, -0.064734705, 0.000007883086, -0.00025277847, -130517.555, -71836.65, 0.0, 10.000029, 9.886204 
2.5950012e+3, 3.039266e+2, -40774.082, -84750.34, 0.045264132, 0.000007868226, 0.00017360157, -40774.082, -40774.082, 0.0, 10.000029, 9.942159 
2.5950012e+3, 3.138706e+2, -39696.13, -82511.46, -0.0527962, 0.000007840587, -0.00005485019, -39696.13, -39696.13, 0.0, 10.000028, 9.94367 
2.6050013e+3, 1.2499364e+2, -1719908.3, -1724221.4, 0.095606245, 0.000008536714, 0.000020549545, -1719908.3, -4845.813, 0.0, 10.000031, 9.994312 
2.6050013e+3, 1.3498788e+2, -1622528.3, -1627432.0, -0.03130679, 0.000008472601, -0.0000692473, -1622528.3, -5409.313, 0.0, 10.000031, 9.99353 
2.6050013e+3, 1.4497541e+2, -1534426.8, -1548142.9, 0.079906255, 0.000008428788, 0.00007505194, -1534426.8, -15185.69, 0.0, 10.0000305, 9.981851 
2.6050013e+3, 1.5495728e+2, -1436699.5, -1450818.9, -0.051659632, 0.000008403635, -0.00005526302, -1436699.5, -15280.736, 0.0, 10.0000305, 9.981318 
2.6050013e+3, 1.649325e+2, -1348648.9, -1371949.5, 0.070368, 0.000008366982, 0.000048177753, -1348648.9, -24987.398, 0.0, 10.0000305, 9.9692335 
2.6050013e+3, 1.7490178e+2, -1250691.1, -1274307.6, -0.05338794, 0.000008318592, -0.00007230901, -1250691.1, -24728.61, 0.0, 10.0000305, 9.968821 
2.6050013e+3, 1.8486443e+2, -1162610.4, -1195717.5, 0.059613116, 0.000008285027, 0.000067854286, -1162610.4, -34281.656, 0.0, 10.0000305, 9.956381 
2.6050013e+3, 1.9482085e+2, -1064461.0, -1097830.5, -0.06426996, 0.000008266966, -0.000056281766, -1064461.0, -33705.19, 0.0, 10.0000305, 9.956038 
2.6050013e+3, 2.047706e+2, -976297.2, -1019432.7, 0.057703327, 0.000008242035, 0.00006927662, -976297.2, -43048.992, 0.0, 10.0000305, 9.943276 
2.6050013e+3, 2.1471392e+2, -878010.5, -921407.75, -0.061314434, 0.000008209658, -0.00012563329, -878010.5, -42206.766, 0.0, 10.0000305, 9.942935 
2.6050013e+3, 2.2465053e+2, -789724.56, -843142.8, 0.04937164, 0.000008180524, 0.00012202304, -789724.56, -51299.703, 0.0, 10.00003, 9.9298935 
2.6050013e+3, 2.3458049e+2, -691291.3, -744964.6, -0.07043729, 0.000008155061, -0.00008777812, -691291.3, -50180.08, 0.0, 10.00003, 9.929563 
2.6050013e+3, 2.445035e+2, -602967.44, -667017.1, 0.049663696, 0.000008133254, 0.000075658565, -602967.44, -59101.734, 0.0, 10.00003, 9.916122 
2.6050013e+3, 2.5441974e+2, -504215.06, -568341.8, -0.059841882, 0.000008115806, -0.00010586204, -504215.06, -57528.535, 0.0, 10.00003, 9.916022 
2.6050013e+3, 2.643289e+2, -415979.84, -490986.56, 0.05420677, 0.000008097197, 0.00014138743, -415979.84, -66403.06, 0.0, 10.00003, 9.901951 
2.6050013e+3, 2.742314e+2, -316694.84, -391373.66, -0.0579705, 0.000008077094, -0.0002027406, -316694.84, -64162.625, 0.0, 10.00003, 9.902371 
2.6050013e+3, 2.841257e+2, -230221.7, -318080.16, 0.049675938, 0.000008061817, 0.00022967649, -230221.7, -74653.37, 0.0, 10.00003, 9.885425 
2.6050013e+3, 2.9401216e+2, -130515.78, -217764.11, -0.053948957, 0.000008053146, -0.0002527621, -130515.78, -71834.89, 0.0, 10.00003, 9.886204 
2.6050013e+3, 3.039266e+2, -40772.33, -84749.87, 0.0586639, 0.000008037897, 0.00017361435, -40772.33, -40772.33, 0.0, 10.00003, 9.942159 
2.6050013e+3, 3.138706e+2, -39694.4, -82510.99, -0.03642216, 0.000008012833, -0.00005484584, -39694.4, -39694.4, 0.0, 10.00003, 9.94367 
2.6150012e+3, 1.2499364e+2, -1719908.5, -1724221.9, 0.03241044, 0.000008731129, 0.000020610592, -1719908.5, -4846.177, 0.0, 10.000031, 9.994312 
2.6150012e+3, 1.3498788e+2, -1622528.5, -1627432.5, -0.09451488, 0.000008659055, -0.0000692964, -1622528.5, -5409.6704, 0.0, 10.000031, 9.993529 
2.6150012e+3, 1.4497541e+2, -1534427.1, -1548143.5, 0.02617864, 0.000008606488, 0.000075159354, -1534427.1, -15186.055, 0.0, 10.0000305, 9.98185 
2.6150012e+3, 1.5495728e+2, -1436699.8, -1450819.4, -0.10537335, 0.000008571745, -0.000055226425, -1436699.8, -15281.093, 0.0, 10.0000305, 9.981318 
2.6150012e+3, 1.649325e+2, -1348649.1, -1371950.0, 0.020843007, 0.000008540434, 0.000048190166, -1348649.1, -24987.732, 0.0, 10.0000305, 9.9692335 
2.6150012e+3, 1.7490178e+2, -1250691.5, -1274308.1, -0.10289302, 0.000008512632, -0.00007227311, -1250691.5, -24728.938, 0.0, 10.0000305, 9.96882 
2.6150012e+3, 1.8486443e+2, -1162610.6, -1195718.0, 0.01522755, 0.000008478249, 0.00006789517, -1162610.6, -34281.984, 0.0, 10.0000305, 9.956381 
2.6150012e+3, 1.9482085e+2, -1064461.3, -1097831.1, -0.1085977, 0.000008436969, -0.000056255252, -1064461.3, -33705.508, 0.0, 10.0000305, 9.9560375 
2.6150012e+3, 2.047706e+2, -976297.44, -1019433.2, 0.016213369, 0.000008408497, 0.00006930046, -976297.44, -43049.3, 0.0, 10.0000305, 9.943276 
2.6150012e+3, 2.1471392e+2, -878010.75, -921408.25, -0.10274796, 0.0000083938885, -0.00012559946, -878010.75, -42207.07, 0.0, 10.0000305, 9.942935 
2.6150012e+3, 2.2465053e+2, -789724.8, -843143.4, 0.018407146, 0.000008368103, 0.00012205818, -789724.8, -51300.004, 0.0, 10.00003, 9.9298935 
2.6150012e+3, 2.3458049e+2, -691291.56, -744965.1, -0.101060435, 0.000008329657, -0.000087751476, -691291.56, -50180.375, 0.0, 10.00003, 9.929563 
2.6150012e+3, 2.445035e+2, -602967.7, -667017.56, 0.018426398, 0.000008303458, 0.00007568061, -602967.7, -59102.01, 0.0, 10.00003, 9.9161215 
2.6150012e+3, 2.5441974e+2, -504215.28, -568342.3, -0.091111146, 0.000008291894, -0.00010583995, -504215.28, -57528.81, 0.0, 10.00003, 9.916022 
2.6150012e+3, 2.643289e+2, -415980.1, -490987.06, 0.03083335, 0.000008276568, 0.0001414072, -415980.1, -66403.34, 0.0, 10.00003, 9.901951 
2.6150012e+3, 2.742314e+2, -316695.1, -391374.16, -0.080815695, 0.000008256413, -0.00020272618, -316695.1, -64162.895, 0.0, 10.00003, 9.90237 
2.6150012e+3, 2.841257e+2, -230221.94, -318080.66, 0.032732718, 0.000008238235, 0.00022968902, -230221.94, -74653.625, 0.0, 10.00003, 9.885425 
2.6150012e+3, 2.9401216e+2, -130516.016, -217764.6, -0.07036224, 0.000008222778, -0.00025274677, -130516.016, -71835.14, 0.0, 10.00003, 9.886203 
2.6150012e+3, 3.039266e+2, -40772.56, -84750.34, 0.04471022, 0.0000082079805, 0.00017362545, -40772.56, -40772.56, 0.0, 10.00003, 9.942159 
2.6150012e+3, 3.138706e+2, -39694.63, -82511.47, -0.050089493, 0.000008194153, -0.000054849414, -39694.63, -39694.63, 0.0, 10.00003, 9.943669 
2.625001e+3, 1.24993645e+2, -1719906.4, -1724221.3, 0.097667255, 0.000008929751, 0.00002067808, -1719906.4, -4844.1704, 0.0, 10.000032, 9.994311 
2.625001e+3, 1.3498789e+2, -1622526.4, -1627431.8, -0.03976478, 0.000008843131, -0.000069336464, -1622526.4, -5407.6465, 0.0, 10.000032, 9.993529 
2.625001e+3, 1.4497542e+2, -1534425.0, -1548142.8, 0.08094581, 0.000008784775, 0.00007527695, -1534425.0, -15184.03, 0.0, 10.000032, 9.98185 
2.625001e+3, 1.549573e+2, -1436697.8, -1450818.8, -0.05010854, 0.0000087530125, -0.000055191966, -1436697.8, -15279.091, 0.0, 10.000032, 9.9813175 
2.625001e+3, 1.6493252e+2, -1348647.1, -1371949.4, 0.075380266, 0.0000087248745, 0.00004819649, -1348647.1, -24985.748, 0.0, 10.000032, 9.9692335 
2.625001e+3, 1.749018e+2, -1250689.5, -1274307.5, -0.057171576, 0.000008700443, -0.00007223875, -1250689.5, -24726.984, 0.0, 10.000032, 9.96882 
2.625001e+3, 1.8486443e+2, -1162608.6, -1195717.4, 0.063199535, 0.0000086655145, 0.00006793697, -1162608.6, -34280.043, 0.0, 10.000031, 9.956381 
2.625001e+3, 1.9482085e+2, -1064459.3, -1097830.5, -0.06362496, 0.000008619594, -0.00005622759, -1064459.3, -33703.574, 0.0, 10.000031, 9.9560375 
2.625001e+3, 2.047706e+2, -976295.44, -1019432.56, 0.05788704, 0.00000858859, 0.00006932365, -976295.44, -43047.37, 0.0, 10.000031, 9.943275 
2.625001e+3, 2.1471392e+2, -878008.75, -921407.7, -0.070346415, 0.000008573736, -0.00012557027, -878008.75, -42205.15, 0.0, 10.000031, 9.942935 
2.625001e+3, 2.2465053e+2, -789722.9, -843142.75, 0.05392507, 0.000008548804, 0.00012208693, -789722.9, -51298.098, 0.0, 10.000031, 9.9298935 
2.625001e+3, 2.3458049e+2, -691289.6, -744964.56, -0.06527396, 0.000008512454, -0.00008773047, -691289.6, -50178.496, 0.0, 10.000031, 9.929562 
2.625001e+3, 2.4450351e+2, -602965.8, -667017.0, 0.05196014, 0.00000848624, 0.00007569862, -602965.8, -59100.145, 0.0, 10.000031, 9.9161215 
2.625001e+3, 2.5441974e+2, -504213.4, -568341.75, -0.069252424, 0.000008472141, -0.00010581924, -504213.4, -57526.94, 0.0, 10.000031, 9.916021 
2.625001e+3, 2.6432893e+2, -415978.2, -490986.5, 0.05245494, 0.000008455245, 0.0001414275, -415978.2, -66401.48, 0.0, 10.000031, 9.90195 
2.625001e+3, 2.742314e+2, -316693.22, -391373.6, -0.059106562, 0.000008434754, -0.00020271025, -316693.22, -64161.043, 0.0, 10.000031, 9.90237 
2.625001e+3, 2.841257e+2, -230220.08, -318080.13, 0.05742102, 0.000008416609, 0.00022970208, -230220.08, -74651.78, 0.0, 10.0000305, 9.885425 
2.625001e+3, 2.9401216e+2, -130514.17, -217764.06, -0.05088354, 0.000008401682, -0.00025273446, -130514.17, -71833.31, 0.0, 10.0000305, 9.886203 
2.625001e+3, 3.039266e+2, -40770.746, -84749.84, 0.06027253, 0.000008386729, 0.0001736368, -40770.746, -40770.746, 0.0, 10.0000305, 9.942158 
2.625001e+3, 3.1387064e+2, -39692.81, -82510.97, -0.04510238, 0.000008371725, -0.00005483934, -39692.81, -39692.81, 0.0, 10.0000305, 9.943669 
2.6350015e+3, 1.2499365e+2, -1719906.8, -1724221.8, 0.040317938, 0.000009132579, 0.000020752132, -1719906.8, -4844.5615, 0.0, 10.000032, 9.994311 
2.6350012e+3, 1.3498789e+2, -1622526.8, -1627432.4, -0.09712422, 0.0000090248295, -0.00006936748, -1622526.8, -5408.031, 0.0, 10.000032, 9.993529 
2.6350012e+3, 1.4497542e+2, -1534425.3, -1548143.4, 0.023698611, 0.000008963647, 0.00007540472, -1534425.3, -15184.396, 0.0, 10.000032, 9.98185 
2.6350012e+3, 1.549573e+2, -1436698.0, -1450819.3, -0.10735673, 0.0000089474315, -0.000055159635, -1436698.0, -15279.449, 0.0, 10.000032, 9.9813175 
2.6350012e+3, 1.6493252e+2, -1348647.4, -1371949.9, 0.020212904, 0.0000089203, 0.00004819672, -1348647.4, -24986.105, 0.0, 10.000032, 9.969233 
2.6350012e+3, 1.749018e+2, -1250689.8, -1274308.0, -0.11232962, 0.00000888203, -0.00007220591, -1250689.8, -24727.334, 0.0, 10.000032, 9.96882 
2.6350012e+3, 1.8486445e+2, -1162608.9, -1195717.9, 0.019019911, 0.00000884683, 0.00006797969, -1162608.9, -34280.38, 0.0, 10.000031, 9.95638 
2.6350012e+3, 1.9482087e+2, -1064459.5, -1097831.0, -0.10767977, 0.000008814835, -0.000056198776, -1064459.5, -33703.902, 0.0, 10.000031, 9.9560375 
2.6350012e+3, 2.0477061e+2, -976295.75, -1019433.1, 0.016124018, 0.000008782309, 0.000069346206, -976295.75, -43047.7, 0.0, 10.000031, 9.943275 
2.6350012e+3, 2.1471392e+2, -878009.06, -921408.2, -0.112063244, 0.000008749203, -0.00012554569, -878009.06, -42205.47, 0.0, 10.000031, 9.942934 
2.6350012e+3, 2.2465055e+2, -789723.1, -843143.25, 0.017510533, 0.00000872263, 0.0001221093, -789723.1, -51298.402, 0.0, 10.000031, 9.929893 
2.6350012e+3, 2.3458049e+2, -691289.94, -744965.06, -0.10151753, 0.000008703447, -0.00008771511, -691289.94, -50178.793, 0.0, 10.000031, 9.929562 
2.6350012e+3, 2.4450351e+2, -602966.06, -667017.56, 0.0222032, 0.000008681596, 0.000075712596, -602966.06, -59100.445, 0.0, 10.000031, 9.9161215 
2.6350012e+3, 2.5441974e+2, -504213.66, -568342.25, -0.09869889, 0.000008656546, -0.00010579992, -504213.66, -57527.234, 0.0, 10.000031, 9.916021 
2.6350012e+3, 2.6432893e+2, -415978.44, -490987.03, 0.027921507, 0.00000863323, 0.00014144833, -415978.44, -66401.76, 0.0, 10.000031, 9.90195 
2.6350012e+3, 2.742314e+2, -316693.47, -391374.13, -0.083313175, 0.000008612121, -0.00020269283, -316693.47, -64161.316, 0.0, 10.000031, 9.9023695 
2.6350012e+3, 2.841257e+2, -230220.33, -318080.63, 0.038128395, 0.0000085969405, 0.0002297157, -230220.33, -74652.05, 0.0, 10.0000305, 9.885424 
2.6350012e+3, 2.9401216e+2, -130514.414, -217764.58, -0.069735065, 0.0000085898555, -0.00025272518, -130514.414, -71833.58, 0.0, 10.0000305, 9.886203 
2.6350012e+3, 3.039266e+2, -40770.996, -84750.36, 0.04762559, 0.000008574139, 0.0001736484, -40770.996, -40770.996, 0.0, 10.0000305, 9.942158 
2.6350012e+3, 3.1387064e+2, -39693.06, -82511.49, -0.057022475, 0.0000085455495, -0.00005481563, -39693.06, -39693.06, 0.0, 10.0000305, 9.943669 
2.6450014e+3, 1.2499366e+2, -1719904.5, -1724221.0, 0.10084589, 0.000009324482, 0.000020829348, -1719904.5, -4842.4263, 0.0, 10.000034, 9.994311 
2.6450014e+3, 1.349879e+2, -1622524.5, -1627431.6, -0.04247856, 0.000009218415, -0.00006940665, -1622524.5, -5405.9297, 0.0, 10.000034, 9.993528 
2.6450014e+3, 1.4497544e+2, -1534423.1, -1548142.6, 0.07563131, 0.000009159134, 0.000075529366, -1534423.1, -15182.307, 0.0, 10.000034, 9.981849 
2.6450014e+3, 1.549573e+2, -1436695.9, -1450818.6, -0.057220526, 0.000009145, -0.00005512137, -1436695.9, -15277.386, 0.0, 10.000033, 9.9813175 
2.6450014e+3, 1.6493252e+2, -1348645.3, -1371949.3, 0.07347044, 0.000009115368, 0.000048203943, -1348645.3, -24984.057, 0.0, 10.000033, 9.969233 
2.6450014e+3, 1.7490181e+2, -1250687.6, -1274307.4, -0.06344017, 0.000009069919, -0.000072173185, -1250687.6, -24725.281, 0.0, 10.000033, 9.968819 
2.645001e+3, 1.8486445e+2, -1162606.8, -1195717.1, 0.06827417, 0.000009033799, 0.0000680213, -1162606.8, -34278.33, 0.0, 10.000033, 9.95638 
2.645001e+3, 1.9482087e+2, -1064457.5, -1097830.3, -0.06653435, 0.000009007433, -0.000056165674, -1064457.5, -33701.887, 0.0, 10.000033, 9.956037 
2.645001e+3, 2.0477061e+2, -976293.7, -1019432.44, 0.05823448, 0.00000897521, 0.00006937383, -976293.7, -43045.7, 0.0, 10.000033, 9.943275 
2.645001e+3, 2.1471393e+2, -878007.0, -921407.56, -0.070642784, 0.000008936643, -0.00012552024, -878007.0, -42203.477, 0.0, 10.000033, 9.942934 
2.645001e+3, 2.2465055e+2, -789721.06, -843142.6, 0.05786648, 0.000008908749, 0.00012213358, -789721.06, -51296.414, 0.0, 10.000033, 9.929893 
2.645001e+3, 2.345805e+2, -691287.9, -744964.44, -0.07171469, 0.000008892934, -0.00008769083, -691287.9, -50176.82, 0.0, 10.000032, 9.929562 
2.645001e+3, 2.4450351e+2, -602964.06, -667016.94, 0.053025134, 0.000008871546, 0.00007573552, -602964.06, -59098.484, 0.0, 10.000032, 9.916121 
2.645001e+3, 2.5441974e+2, -504211.7, -568341.7, -0.06822748, 0.0000088434845, -0.00010577998, -504211.7, -57525.29, 0.0, 10.000032, 9.916021 
2.645001e+3, 2.6432893e+2, -415976.47, -490986.44, 0.05828029, 0.000008818442, 0.00014146669, -415976.47, -66399.82, 0.0, 10.000032, 9.90195 
2.645001e+3, 2.742314e+2, -316691.53, -391373.53, -0.06369001, 0.000008797253, -0.00020267421, -316691.53, -64159.39, 0.0, 10.000032, 9.9023695 
2.645001e+3, 2.841257e+2, -230218.38, -318080.06, 0.05480512, 0.000008782436, 0.00022973343, -230218.38, -74650.125, 0.0, 10.000032, 9.885424 
2.645001e+3, 2.9401216e+2, -130512.484, -217764.02, -0.05671778, 0.000008776315, -0.0002527099, -130512.484, -71831.664, 0.0, 10.000032, 9.886202 
2.645001e+3, 3.039266e+2, -40769.098, -84749.84, 0.06276929, 0.000008760328, 0.00017366042, -40769.098, -40769.098, 0.0, 10.000032, 9.942158 
2.645001e+3, 3.1387064e+2, -39691.168, -82510.97, -0.043597788, 0.000008729627, -0.000054807962, -39691.168, -39691.168, 0.0, 10.000032, 9.943668 
2.6550016e+3, 1.24993674e+2, -1719904.9, -1724221.6, 0.03737303, 0.000009505467, 0.000020909863, -1719904.9, -4842.8345, 0.0, 10.000034, 9.99431 
2.6550016e+3, 1.349879e+2, -1622524.9, -1627432.3, -0.105962545, 0.000009423881, -0.00006945398, -1622524.9, -5406.3306, 0.0, 10.000034, 9.993528 
2.6550016e+3, 1.4497544e+2, -1534423.4, -1548143.1, 0.013795493, 0.000009371227, 0.0000756509, -1534423.4, -15182.68, 0.0, 10.000034, 9.981849 
2.6550016e+3, 1.5495731e+2, -1436696.1, -1450819.1, -0.11905652, 0.000009345717, -0.000055077184, -1436696.1, -15277.752, 0.0, 10.000033, 9.981317 
2.6550016e+3, 1.6493253e+2, -1348645.5, -1371949.9, 0.021453688, 0.00000931008, 0.000048218153, -1348645.5, -24984.426, 0.0, 10.000033, 9.969233 
2.6550016e+3, 1.7490181e+2, -1250687.9, -1274307.9, -0.11540716, 0.0000092641085, -0.00007214057, -1250687.9, -24725.643, 0.0, 10.000033, 9.968819 
2.6550016e+3, 1.8486445e+2, -1162607.1, -1195717.8, 0.018067464, 0.00000922642, 0.00006806181, -1162607.1, -34278.684, 0.0, 10.000033, 9.95638 
2.6550016e+3, 1.9482087e+2, -1064457.8, -1097830.9, -0.11672249, 0.00000919739, -0.000056128283, -1064457.8, -33702.234, 0.0, 10.000033, 9.956037 
2.6550016e+3, 2.0477061e+2, -976294.0, -1019433.0, 0.01653827, 0.000009167297, 0.00006940653, -976294.0, -43046.035, 0.0, 10.000033, 9.9432745 
2.6550016e+3, 2.1471393e+2, -878007.3, -921408.1, -0.11216599, 0.000009136051, -0.00012549393, -878007.3, -42203.805, 0.0, 10.000033, 9.942934 
2.6550016e+3, 2.2465055e+2, -789721.4, -843143.2, 0.019362936, 0.000009107156, 0.00012215979, -789721.4, -51296.742, 0.0, 10.000033, 9.929893 
2.6550016e+3, 2.345805e+2, -691288.2, -744965.0, -0.110120915, 0.000009080917, -0.00008765762, -691288.2, -50177.14, 0.0, 10.000032, 9.929561 
2.6550013e+3, 2.4450351e+2, -602964.3, -667017.5, 0.022107009, 0.000009056095, 0.000075767384, -602964.3, -59098.79, 0.0, 10.000032, 9.916121 
2.6550013e+3, 2.5441974e+2, -504211.94, -568342.2, -0.09878844, 0.000009032956, -0.00010575943, -504211.94, -57525.586, 0.0, 10.000032, 9.91602 
2.6550013e+3, 2.6432893e+2, -415976.75, -490987.0, 0.0327313, 0.000009010881, 0.00014148263, -415976.75, -66400.12, 0.0, 10.000032, 9.901949 
2.6550013e+3, 2.742314e+2, -316691.78, -391374.1, -0.08890415, 0.00000899015, -0.0002026544, -316691.78, -64159.684, 0.0, 10.000032, 9.9023695 
2.6550013e+3, 2.8412572e+2, -230218.64, -318080.6, 0.03479759, 0.000008973096, 0.00022975526, -230218.64, -74650.41, 0.0, 10.000032, 9.885424 
2.6550013e+3, 2.9401216e+2, -130512.74, -217764.55, -0.0762585, 0.000008961061, -0.00025268868, -130512.74, -71831.94, 0.0, 10.000032, 9.886202 
2.6550013e+3, 3.039266e+2, -40769.35, -84750.375, 0.048757937, 0.000008945293, 0.00017367289, -40769.35, -40769.35, 0.0, 10.000032, 9.942157 
2.6550013e+3, 3.1387064e+2, -39691.42, -82511.5, -0.05696217, 0.000008923954, -0.000054816323, -39691.42, -39691.42, 0.0, 10.000032, 9.943668 
2.6650015e+3, 1.2499368e+2, -1719902.5, -1724220.9, 0.11231768, 0.00000970295, 0.000020988591, -1719902.5, -4840.6035, 0.0, 10.000036, 9.99431 
2.6650015e+3, 1.3498792e+2, -1622522.6, -1627431.5, -0.033866856, 0.0000096291415, -0.00006951318, -1622522.6, -5404.15, 0.0, 10.000035, 9.993527 
2.6650015e+3, 1.4497545e+2, -1534421.3, -1548142.4, 0.08589934, 0.000009577899, 0.0000757643, -1534421.3, -15180.511, 0.0, 10.000035, 9.981848 
2.6650015e+3, 1.5495731e+2, -1436694.0, -1450818.4, -0.05962626, 0.000009547353, -0.000055036395, -1436694.0, -15275.584, 0.0, 10.000035, 9.981317 
2.6650015e+3, 1.6493253e+2, -1348643.4, -1371949.1, 0.07905841, 0.000009508908, 0.000048232505, -1348643.4, -24982.27, 0.0, 10.000035, 9.969232 
2.6650015e+3, 1.7490181e+2, -1250685.8, -1274307.3, -0.06317056, 0.000009462403, -0.00007210547, -1250685.8, -24723.512, 0.0, 10.000035, 9.968818 
2.6650015e+3, 1.8486446e+2, -1162604.9, -1195717.0, 0.068614066, 0.000009424123, 0.00006810332, -1162604.9, -34276.563, 0.0, 10.000035, 9.956379 
2.6650015e+3, 1.9482088e+2, -1064455.6, -1097830.1, -0.0714429, 0.000009394441, -0.00005609541, -1064455.6, -33700.125, 0.0, 10.000035, 9.956036 
2.6650015e+3, 2.0477062e+2, -976291.8, -1019432.3, 0.062148802, 0.000009364573, 0.00006943479, -976291.8, -43043.934, 0.0, 10.000034, 9.9432745 
2.6650015e+3, 2.1471393e+2, -878005.2, -921407.44, -0.07512072, 0.000009334501, -0.00012546594, -878005.2, -42201.727, 0.0, 10.000034, 9.942933 
2.6650015e+3, 2.2465056e+2, -789719.25, -843142.56, 0.05556964, 0.00000930464, 0.00012218674, -789719.25, -51294.676, 0.0, 10.000034, 9.929892 
2.6650015e+3, 2.345805e+2, -691286.06, -744964.4, -0.07627356, 0.000009275014, -0.00008763258, -691286.06, -50175.086, 0.0, 10.000034, 9.929561 
2.6650015e+3, 2.4450353e+2, -602962.25, -667016.8, 0.05648207, 0.000009248749, 0.00007579151, -602962.25, -59096.74, 0.0, 10.000034, 9.916121 
2.6650015e+3, 2.5441974e+2, -504209.88, -568341.56, -0.07498254, 0.000009226491, -0.00010573505, -504209.88, -57523.55, 0.0, 10.000034, 9.91602 
2.6650015e+3, 2.6432893e+2, -415974.7, -490986.38, 0.05551059, 0.0000092051505, 0.00014150445, -415974.7, -66398.09, 0.0, 10.000034, 9.901949 
2.6650015e+3, 2.742314e+2, -316689.75, -391373.5, -0.06544872, 0.000009184959, -0.00020263864, -316689.75, -64157.676, 0.0, 10.000034, 9.902369 
2.6650015e+3, 2.8412572e+2, -230216.61, -318080.0, 0.06128956, 0.000009167598, 0.00022976837, -230216.61, -74648.41, 0.0, 10.000034, 9.885423 
2.6650015e+3, 2.940122e+2, -130510.73, -217763.97, -0.05703174, 0.0000091541, -0.00025267352, -130510.73, -71829.945, 0.0, 10.000034, 9.886201 
2.6650015e+3, 3.039266e+2, -40767.37, -84749.83, 0.06590309, 0.0000091373995, 0.00017368687, -40767.37, -40767.37, 0.0, 10.000034, 9.942157 
2.6650015e+3, 3.1387064e+2, -39689.445, -82510.96, -0.046290785, 0.000009115925, -0.000054808337, -39689.445, -39689.445, 0.0, 10.000033, 9.943668 
2.6750013e+3, 1.2499369e+2, -1719902.9, -1724221.5, 0.038960423, 0.000009916924, 0.000021065685, -1719902.9, -4841.0215, 0.0, 10.000036, 9.994309 
2.6750013e+3, 1.3498792e+2, -1622523.0, -1627432.1, -0.10723779, 0.000009834198, -0.000069584254, -1622523.0, -5404.5605, 0.0, 10.000035, 9.993527 
2.6750013e+3, 1.4497545e+2, -1534421.5, -1548143.0, 0.025767628, 0.000009779153, 0.00007586958, -1534421.5, -15180.916, 0.0, 10.000035, 9.981848 
2.6750013e+3, 1.5495732e+2, -1436694.3, -1450819.0, -0.119739145, 0.00000974991, -0.000054999007, -1436694.3, -15275.98, 0.0, 10.000035, 9.981317 
2.6750013e+3, 1.6493255e+2, -1348643.6, -1371949.6, 0.023107788, 0.000009711852, 0.000048247002, -1348643.6, -24982.654, 0.0, 10.000035, 9.969232 
2.6750013e+3, 1.7490183e+2, -1250686.0, -1274307.8, -0.11910151, 0.000009664801, -0.00007206787, -1250686.0, -24723.889, 0.0, 10.000035, 9.968818 
2.6750013e+3, 1.8486446e+2, -1162605.3, -1195717.6, 0.017750513, 0.000009626907, 0.00006814581, -1162605.3, -34276.934, 0.0, 10.000035, 9.956379 
2.6750013e+3, 1.9482088e+2, -1064455.9, -1097830.8, -0.12224961, 0.000009598584, -0.00005606705, -1064455.9, -33700.49, 0.0, 10.000035, 9.956036 
2.6750013e+3, 2.0477062e+2, -976292.1, -1019432.9, 0.016925588, 0.0000095670375, 0.0000694586, -976292.1, -43044.29, 0.0, 10.000034, 9.943274 
2.6750013e+3, 2.1471395e+2, -878005.44, -921408.0, -0.12023055, 0.000009531994, -0.0001254363, -878005.44, -42202.07, 0.0, 10.000034, 9.942933 
2.6750013e+3, 2.2465056e+2, -789719.56, -843143.1, 0.016980728, 0.000009501204, 0.00012221442, -789719.56, -51295.01, 0.0, 10.000034, 9.929892 
2.6750013e+3, 2.345805e+2, -691286.4, -744964.94, -0.114651605, 0.000009475223, -0.000087615685, -691286.4, -50175.414, 0.0, 10.000034, 9.929561 
2.6750013e+3, 2.4450353e+2, -602962.56, -667017.44, 0.023949377, 0.000009449506, 0.000075807904, -602962.56, -59097.066, 0.0, 10.000034, 9.91612 
2.6750013e+3, 2.5441977e+2, -504210.16, -568342.2, -0.1072358, 0.00000942409, -0.00010570686, -504210.16, -57523.87, 0.0, 10.000034, 9.916019 
2.6750013e+3, 2.6432893e+2, -415974.97, -490986.94, 0.027798302, 0.000009401251, 0.0001415322, -415974.97, -66398.4, 0.0, 10.000034, 9.901948 
2.6750013e+3, 2.742314e+2, -316690.03, -391374.06, -0.09285935, 0.000009381681, -0.00020262695, -316690.03, -64157.973, 0.0, 10.000034, 9.902369 
2.6750013e+3, 2.8412572e+2, -230216.89, -318080.56, 0.04053737, 0.000009365944, 0.00022977273, -230216.89, -74648.695, 0.0, 10.000034, 9.885423 
2.6750013e+3, 2.940122e+2, -130511.0, -217764.52, -0.07718607, 0.000009355428, -0.00025266444, -130511.0, -71830.234, 0.0, 10.000034, 9.886201 
2.6750013e+3, 3.039266e+2, -40767.64, -84750.38, 0.051934112, 0.000009336642, 0.00017370236, -40767.64, -40767.64, 0.0, 10.000034, 9.942156 
2.6750013e+3, 3.1387064e+2, -39689.71, -82511.516, -0.059535976, 0.000009305545, -0.00005478402, -39689.71, -39689.71, 0.0, 10.000033, 9.943667 
2.6850015e+3, 1.249937e+2, -1719900.5, -1724220.8, 0.11038306, 0.000010135471, 0.00002114241, -1719900.5, -4838.7417, 0.0, 10.000037, 9.994309 
2.6850015e+3, 1.3498794e+2, -1622520.6, -1627431.4, -0.043649588, 0.00001004234, -0.00006963753, -1622520.6, -5402.2617, 0.0, 10.000037, 9.993527 
2.6850015e+3, 1.4497547e+2, -1534419.1, -1548142.3, 0.090304054, 0.00000998295, 0.00007599815, -1534419.1, -15178.619, 0.0, 10.000037, 9.981848 
2.6850015e+3, 1.5495732e+2, -1436691.9, -1450818.3, -0.06007166, 0.0000099554145, -0.000054959033, -1436691.9, -15273.717, 0.0, 10.000037, 9.981316 
2.6850015e+3, 1.6493255e+2, -1348641.4, -1371948.9, 0.082814425, 0.000009918865, 0.000048256632, -1348641.4, -24980.41, 0.0, 10.000037, 9.969231 
2.6850015e+3, 1.7490183e+2, -1250683.8, -1274307.0, -0.066791795, 0.000009873118, -0.00007202908, -1250683.8, -24721.664, 0.0, 10.000037, 9.968818 
2.6850015e+3, 1.8486448e+2, -1162603.0, -1195716.9, 0.06937131, 0.000009834765, 0.00006819197, -1162603.0, -34274.72, 0.0, 10.000036, 9.956378 
2.6850015e+3, 1.9482088e+2, -1064453.6, -1097830.0, -0.075017445, 0.000009804136, -0.000056036362, -1064453.6, -33698.293, 0.0, 10.000036, 9.956036 
2.6850015e+3, 2.0477062e+2, -976289.9, -1019432.2, 0.065875895, 0.00000977132, 0.0000694839, -976289.9, -43042.105, 0.0, 10.000036, 9.943274 
2.6850015e+3, 2.1471395e+2, -878003.25, -921407.3, -0.07631043, 0.000009736131, -0.00012540548, -878003.25, -42199.902, 0.0, 10.000036, 9.942933 
2.6850015e+3, 2.2465056e+2, -789717.4, -843142.44, 0.060884148, 0.0000097045095, 0.00012224591, -789717.4, -51292.85, 0.0, 10.000036, 9.929891 
2.6850015e+3, 2.3458052e+2, -691284.2, -744964.25, -0.079413086, 0.0000096769245, -0.000087589055, -691284.2, -50173.266, 0.0, 10.000036, 9.92956 
2.6850015e+3, 2.4450353e+2, -602960.4, -667016.75, 0.058457028, 0.000009651053, 0.00007583057, -602960.4, -59094.93, 0.0, 10.000036, 9.91612 
2.6850015e+3, 2.5441977e+2, -504208.03, -568341.5, -0.07393418, 0.000009627219, -0.00010568711, -504208.03, -57521.758, 0.0, 10.000036, 9.916019 
2.6850015e+3, 2.6432893e+2, -415972.84, -490986.3, 0.06204997, 0.000009604487, 0.0001415508, -415972.84, -66396.3, 0.0, 10.000035, 9.901948 
2.6850015e+3, 2.742314e+2, -316687.9, -391373.44, -0.069086365, 0.000009583142, -0.00020260729, -316687.9, -64155.875, 0.0, 10.000035, 9.902369 
2.6850015e+3, 2.8412572e+2, -230214.77, -318079.94, 0.062260147, 0.000009566182, 0.00022979139, -230214.77, -74646.61, 0.0, 10.000035, 9.885422 
2.6850015e+3, 2.940122e+2, -130508.9, -217763.92, -0.060237974, 0.000009555207, -0.00025264962, -130508.9, -71828.15, 0.0, 10.000035, 9.886201 
2.6850015e+3, 3.039266e+2, -40765.57, -84749.81, 0.068005554, 0.00000953622, 0.00017371477, -40765.57, -40765.57, 0.0, 10.000035, 9.942156 
2.6850015e+3, 3.1387064e+2, -39687.652, -82510.95, -0.049819376, 0.000009505301, -0.000054771917, -39687.652, -39687.652, 0.0, 10.000035, 9.943667 
2.6950014e+3, 1.24993704e+2, -1719900.9, -1724221.4, 0.04346586, 0.00001035859, 0.000021218939, -1719900.9, -4839.1816, 0.0, 10.000037, 9.994309 
2.6950014e+3, 1.3498794e+2, -1622520.9, -1627432.0, -0.1105791, 0.0000102535705, -0.00006967301, -1622520.9, -5402.694, 0.0, 10.000037, 9.993526 
2.6950014e+3, 1.4497547e+2, -1534419.5, -1548142.9, 0.024172334, 0.000010189291, 0.00007614998, -1534419.5, -15179.038, 0.0, 10.000037, 9.981847 
2.6950014e+3, 1.5495734e+2, -1436692.3, -1450818.9, -0.12620361, 0.000010163867, -0.000054916476, -1436692.3, -15274.128, 0.0, 10.000037, 9.981316 
2.6950014e+3, 1.6493258e+2, -1348641.6, -1371949.5, 0.024314256, 0.000010129945, 0.000048261398, -1348641.6, -24980.814, 0.0, 10.000037, 9.969231 
2.6950014e+3, 1.7490184e+2, -1250684.1, -1274307.6, -0.12525387, 0.000010087353, -0.000071989074, -1250684.1, -24722.06, 0.0, 10.000037, 9.968817 
2.6950014e+3, 1.8486448e+2, -1162603.3, -1195717.5, 0.015890112, 0.0000100476955, 0.00006824178, -1162603.3, -34275.1, 0.0, 10.000036, 9.956378 
2.6950014e+3, 1.948209e+2, -1064454.0, -1097830.6, -0.12844339, 0.000010011097, -0.000056003348, -1064454.0, -33698.668, 0.0, 10.000036, 9.956035 
2.6950014e+3, 2.0477064e+2, -976290.2, -1019432.8, 0.019391008, 0.000009977422, 0.00006951067, -976290.2, -43042.473, 0.0, 10.000036, 9.943274 
2.6950014e+3, 2.1471395e+2, -878003.56, -921407.94, -0.122654624, 0.000009946909, -0.00012537348, -878003.56, -42200.26, 0.0, 10.000036, 9.942932 
2.6950014e+3, 2.2465056e+2, -789717.7, -843143.0, 0.021348631, 0.000009914556, 0.00012228118, -789717.7, -51293.203, 0.0, 10.000036, 9.929891 
2.6950014e+3, 2.3458052e+2, -691284.5, -744964.9, -0.11872746, 0.0000098801165, -0.00008755269, -691284.5, -50173.613, 0.0, 10.000036, 9.92956 
2.6950014e+3, 2.4450353e+2, -602960.6, -667017.3, 0.02243471, 0.000009853392, 0.00007585949, -602960.6, -59095.26, 0.0, 10.000036, 9.916119 
2.6950014e+3, 2.5441977e+2, -504208.3, -568342.1, -0.10980085, 0.000009835877, -0.0001056758, -504208.3, -57522.082, 0.0, 10.000036, 9.916019 
2.6950014e+3, 2.6432893e+2, -415973.13, -490986.9, 0.034340564, 0.000009814855, 0.00014156023, -415973.13, -66396.62, 0.0, 10.000035, 9.901948 
2.6950014e+3, 2.742314e+2, -316688.2, -391374.03, -0.09625122, 0.00000978934, -0.0002025797, -316688.2, -64156.195, 0.0, 10.000035, 9.902368 
2.6950014e+3, 2.8412572e+2, -230215.05, -318080.53, 0.04114996, 0.000009768313, 0.00022982432, -230215.05, -74646.914, 0.0, 10.000035, 9.885422 
2.6950014e+3, 2.940122e+2, -130509.17, -217764.5, -0.08080472, 0.000009753439, -0.00025262902, -130509.17, -71828.445, 0.0, 10.000035, 9.8862 
2.6950014e+3, 3.039266e+2, -40765.85, -84750.4, 0.052255098, 0.000009736136, 0.00017372411, -40765.85, -40765.85, 0.0, 10.000035, 9.942156 
2.6950014e+3, 3.1387064e+2, -39687.934, -82511.54, -0.06500663, 0.000009715188, -0.000054772023, -39687.934, -39687.934, 0.0, 10.000035, 9.943666 
2.7050018e+3, 1.2499371e+2, -1719898.4, -1724220.5, 0.11763723, 0.000010579011, 0.00002130418, -1719898.4, -4836.767, 0.0, 10.000039, 9.994308 
2.7050018e+3, 1.3498795e+2, -1622518.5, -1627431.1, -0.045343854, 0.000010471025, -0.00006972354, -1622518.5, -5400.314, 0.0, 10.000039, 9.993526 
2.7050015e+3, 1.4497548e+2, -1534417.0, -1548142.0, 0.08735603, 0.000010405142, 0.000076288634, -1534417.0, -15176.666, 0.0, 10.000039, 9.981847 
2.7050015e+3, 1.5495734e+2, -1436689.9, -1450818.0, -0.06576831, 0.000010379443, -0.000054873457, -1436689.9, -15271.766, 0.0, 10.000039, 9.981315 
2.7050015e+3, 1.6493258e+2, -1348639.3, -1371948.8, 0.08639424, 0.00001034575, 0.000048269663, -1348639.3, -24978.473, 0.0, 10.000039, 9.969231 
2.7050015e+3, 1.7490184e+2, -1250681.8, -1274306.9, -0.06857501, 0.000010303903, -0.00007195337, -1250681.8, -24719.748, 0.0, 10.000038, 9.968817 
2.7050015e+3, 1.8486448e+2, -1162600.9, -1195716.8, 0.07394993, 0.000010263244, 0.000068286936, -1162600.9, -34272.797, 0.0, 10.000038, 9.956378 
2.7050015e+3, 1.948209e+2, -1064451.6, -1097829.9, -0.0782045, 0.000010223818, -0.000055967586, -1064451.6, -33696.37, 0.0, 10.000038, 9.956035 
2.7050015e+3, 2.0477064e+2, -976287.9, -1019432.06, 0.06670479, 0.000010188279, 0.00006954179, -976287.9, -43040.188, 0.0, 10.000038, 9.943273 
2.7050015e+3, 2.1471396e+2, -878001.25, -921407.2, -0.08468411, 0.000010156942, -0.00012534186, -878001.25, -42197.996, 0.0, 10.000038, 9.942932 
2.7050015e+3, 2.2465058e+2, -789715.4, -843142.3, 0.05922953, 0.0000101255155, 0.00012231164, -789715.4, -51290.953, 0.0, 10.000038, 9.929891 
2.7050015e+3, 2.3458052e+2, -691282.25, -744964.2, -0.08281459, 0.000010093977, -0.00008752529, -691282.25, -50171.387, 0.0, 10.000037, 9.929559 
2.7050015e+3, 2.4450354e+2, -602958.4, -667016.6, 0.059835676, 0.000010066807, 0.000075884156, -602958.4, -59093.047, 0.0, 10.000037, 9.916119 
2.7050015e+3, 2.5441977e+2, -504206.06, -568341.44, -0.08093187, 0.000010044847, -0.00010565347, -504206.06, -57519.867, 0.0, 10.000037, 9.9160185 
2.7050015e+3, 2.6432893e+2, -415970.9, -490986.25, 0.061732862, 0.000010021635, 0.00014158132, -415970.9, -66394.414, 0.0, 10.000037, 9.901947 
2.7050015e+3, 2.742314e+2, -316685.97, -391373.38, -0.07495421, 0.000009996806, -0.00020255845, -316685.97, -64154.004, 0.0, 10.000037, 9.902368 
2.7050015e+3, 2.8412572e+2, -230212.84, -318079.88, 0.062928334, 0.00000997656, 0.00022984487, -230212.84, -74644.73, 0.0, 10.000037, 9.885422 
2.7050015e+3, 2.940122e+2, -130506.99, -217763.86, -0.062985696, 0.000009962583, -0.0002526103, -130506.99, -71826.28, 0.0, 10.000037, 9.8862 
2.7050015e+3, 3.039266e+2, -40763.703, -84749.81, 0.07115837, 0.000009945016, 0.00017373922, -40763.703, -40763.703, 0.0, 10.000037, 9.942155 
2.7050015e+3, 3.1387064e+2, -39685.78, -82510.95, -0.05060093, 0.00000992208, -0.000054763183, -39685.78, -39685.78, 0.0, 10.000037, 9.943666 
2.7150017e+3, 1.2499372e+2, -1719898.8, -1724221.3, 0.044681992, 0.000010796739, 0.000021398324, -1719898.8, -4837.2314, 0.0, 10.000039, 9.994308 
2.7150017e+3, 1.3498797e+2, -1622518.9, -1627431.9, -0.11831132, 0.000010694703, -0.000069789094, -1622518.9, -5400.77, 0.0, 10.000039, 9.9935255 
2.7150017e+3, 1.4497548e+2, -1534417.4, -1548142.6, 0.02060553, 0.0000106305, 0.00007641409, -1534417.4, -15177.095, 0.0, 10.000039, 9.981846 
2.7150017e+3, 1.5495735e+2, -1436690.1, -1450818.6, -0.1325118, 0.00001060214, -0.00005482998, -1436690.1, -15272.187, 0.0, 10.000039, 9.981315 
2.7150017e+3, 1.649326e+2, -1348639.6, -1371949.4, 0.022876197, 0.000010566278, 0.00004828142, -1348639.6, -24978.89, 0.0, 10.000039, 9.96923 
2.7150017e+3, 1.7490186e+2, -1250682.0, -1274307.5, -0.13207842, 0.000010522766, -0.000071921975, -1250682.0, -24720.16, 0.0, 10.000038, 9.968816 
2.7150017e+3, 1.8486449e+2, -1162601.3, -1195717.4, 0.020948391, 0.00001048141, 0.00006832742, -1162601.3, -34273.2, 0.0, 10.000038, 9.956377 
2.7150014e+3, 1.9482091e+2, -1064451.9, -1097830.5, -0.13108717, 0.000010442297, -0.000055929075, -1064451.9, -33696.76, 0.0, 10.000038, 9.956034 
2.7150014e+3, 2.0477064e+2, -976288.2, -1019432.7, 0.017836677, 0.000010403887, 0.00006957726, -976288.2, -43040.574, 0.0, 10.000038, 9.943273 
2.7150014e+3, 2.1471396e+2, -878001.56, -921407.9, -0.13347028, 0.000010366234, -0.00012531059, -878001.56, -42198.375, 0.0, 10.000038, 9.942931 
2.7150014e+3, 2.2465058e+2, -789715.7, -843142.94, 0.015104214, 0.000010337387, 0.0001223373, -789715.7, -51291.313, 0.0, 10.000038, 9.92989 
2.7150014e+3, 2.3458053e+2, -691282.5, -744964.75, -0.12679069, 0.000010318499, -0.00008750686, -691282.5, -50171.74, 0.0, 10.000037, 9.929559 
2.7150014e+3, 2.4450354e+2, -602958.7, -667017.25, 0.025532413, 0.000010291293, 0.00007590455, -602958.7, -59093.4, 0.0, 10.000037, 9.916119 
2.7150014e+3, 2.5441977e+2, -504206.38, -568342.06, -0.114772715, 0.000010254133, -0.000105620136, -504206.38, -57520.21, 0.0, 10.000037, 9.9160185 
2.7150014e+3, 2.6432893e+2, -415971.2, -490986.84, 0.0320816, 0.00001022483, 0.00014161406, -415971.2, -66394.75, 0.0, 10.000037, 9.901947 
2.7150014e+3, 2.7423143e+2, -316686.28, -391374.0, -0.10432635, 0.000010205539, -0.00020254357, -316686.28, -64154.336, 0.0, 10.000037, 9.902367 
2.7150014e+3, 2.8412572e+2, -230213.14, -318080.47, 0.039448105, 0.000010190919, 0.00022985307, -230213.14, -74645.05, 0.0, 10.000037, 9.885421 
2.7150014e+3, 2.940122e+2, -130507.27, -217764.45, -0.08593833, 0.000010182634, -0.00025259343, -130507.27, -71826.59, 0.0, 10.000037, 9.886199 
2.7150014e+3, 3.0392662e+2, -40763.992, -84750.414, 0.055948086, 0.0000101628575, 0.00017376008, -40763.992, -40763.992, 0.0, 10.000037, 9.942155 
2.7150014e+3, 3.1387064e+2, -39686.074, -82511.555, -0.064904906, 0.000010125981, -0.000054745396, -39686.074, -39686.074, 0.0, 10.000037, 9.943666 
2.7250016e+3, 1.24993734e+2, -1719896.1, -1724220.3, 0.12068426, 0.000011020145, 0.00002148776, -1719896.1, -4834.7188, 0.0, 10.000041, 9.9943075 
2.7250016e+3, 1.3498797e+2, -1622516.3, -1627431.0, -0.044484966, 0.000010922835, -0.00006984953, -1622516.3, -5398.282, 0.0, 10.000041, 9.9935255 
2.7250016e+3, 1.449755e+2, -1534414.9, -1548141.8, 0.09458955, 0.000010860081, 0.00007655124, -1534414.9, -15174.619, 0.0, 10.000041, 9.981846 
2.7250016e+3, 1.5495735e+2, -1436687.6, -1450817.9, -0.06767122, 0.000010829829, -0.000054786047, -1436687.6, -15269.741, 0.0, 10.000041, 9.981314 
2.7250016e+3, 1.649326e+2, -1348637.1, -1371948.6, 0.086834796, 0.000010791055, 0.00004829244, -1348637.1, -24976.46, 0.0, 10.00004, 9.96923 
2.7250016e+3, 1.7490186e+2, -1250679.5, -1274306.8, -0.0752133, 0.000010743587, -0.00007188227, -1250679.5, -24717.729, 0.0, 10.00004, 9.968816 
2.7250016e+3, 1.8486449e+2, -1162598.8, -1195716.6, 0.07675277, 0.000010701149, 0.00006837693, -1162598.8, -34270.777, 0.0, 10.00004, 9.956377 
2.7250016e+3, 1.9482091e+2, -1064449.5, -1097829.8, -0.08356016, 0.000010663963, -0.00005588951, -1064449.5, -33694.375, 0.0, 10.00004, 9.956034 
2.7250016e+3, 2.0477065e+2, -976285.75, -1019431.94, 0.06798671, 0.0000106263815, 0.000069609734, -976285.75, -43038.203, 0.0, 10.00004, 9.943272 
2.7250016e+3, 2.1471396e+2, -877999.1, -921407.06, -0.08184523, 0.000010588368, -0.0001252821, -877999.1, -42196.02, 0.0, 10.00004, 9.942931 
2.7250016e+3, 2.2465058e+2, -789713.25, -843142.2, 0.06716803, 0.000010558017, 0.00012236381, -789713.25, -51288.97, 0.0, 10.000039, 9.92989 
2.7250016e+3, 2.3458053e+2, -691280.1, -744964.06, -0.08748545, 0.000010536329, -0.00008748007, -691280.1, -50169.402, 0.0, 10.000039, 9.929558 
2.7250016e+3, 2.4450354e+2, -602956.3, -667016.56, 0.06319217, 0.000010508169, 0.00007593201, -602956.3, -59091.074, 0.0, 10.000039, 9.916118 
2.7250016e+3, 2.5441977e+2, -504204.03, -568341.4, -0.08304206, 0.000010472262, -0.00010559155, -504204.03, -57517.906, 0.0, 10.000039, 9.916018 
2.7250016e+3, 2.6432896e+2, -415968.88, -490986.16, 0.06478932, 0.0000104432565, 0.00014163929, -415968.88, -66392.46, 0.0, 10.000039, 9.901946 
2.7250016e+3, 2.7423143e+2, -316683.97, -391373.3, -0.07366207, 0.000010423041, -0.00020252736, -316683.97, -64152.06, 0.0, 10.000039, 9.902367 
2.7250016e+3, 2.8412572e+2, -230210.83, -318079.8, 0.070220284, 0.000010407429, 0.0002298656, -230210.83, -74642.77, 0.0, 10.000039, 9.885421 
2.7250016e+3, 2.940122e+2, -130504.99, -217763.8, -0.065543324, 0.000010398064, -0.0002525772, -130504.99, -71824.33, 0.0, 10.000039, 9.886199 
2.7250016e+3, 3.0392662e+2, -40761.746, -84749.8, 0.073906064, 0.0000103782395, 0.00017377592, -40761.746, -40761.746, 0.0, 10.000039, 9.942154 
2.7250016e+3, 3.1387064e+2, -39683.836, -82510.945, -0.052894656, 0.000010342846, -0.00005473605, -39683.836, -39683.836, 0.0, 10.000039, 9.9436655 
2.7350017e+3, 1.2499374e+2, -1719896.5, -1724221.0, 0.044089228, 0.00001124923, 0.000021572707, -1719896.5, -4835.192, 0.0, 10.000041, 9.9943075 
2.7350017e+3, 1.3498798e+2, -1622516.6, -1627431.8, -0.121094726, 0.000011155421, -0.000069904854, -1622516.6, -5398.7476, 0.0, 10.000041, 9.993525 
2.7350017e+3, 1.449755e+2, -1534415.3, -1548142.5, 0.022717647, 0.0000110938845, 0.000076700046, -1534415.3, -15175.073, 0.0, 10.000041, 9.981845 
2.7350017e+3, 1.5495737e+2, -1436688.0, -1450818.5, -0.13953815, 0.000011062509, -0.000054741664, -1436688.0, -15270.186, 0.0, 10.000041, 9.981314 
2.7350017e+3, 1.6493261e+2, -1348637.5, -1371949.3, 0.02567073, 0.000011020077, 0.000048302718, -1348637.5, -24976.898, 0.0, 10.00004, 9.969229 
2.7350017e+3, 1.7490187e+2, -1250679.9, -1274307.4, -0.13632375, 0.000010966366, -0.00007183426, -1250679.9, -24718.158, 0.0, 10.00004, 9.968815 
2.7350017e+3, 1.848645e+2, -1162599.1, -1195717.3, 0.017910726, 0.000010922464, 0.000068435475, -1162599.1, -34271.2, 0.0, 10.00004, 9.956376 
2.7350017e+3, 1.9482091e+2, -1064449.9, -1097830.5, -0.1423774, 0.000010888813, -0.0000558489, -1064449.9, -33694.79, 0.0, 10.00004, 9.956033 
2.7350017e+3, 2.0477065e+2, -976286.1, -1019432.56, 0.017289212, 0.000010855758, 0.00006963922, -976286.1, -43038.594, 0.0, 10.00004, 9.943272 
2.7350017e+3, 2.1471398e+2, -877999.5, -921407.75, -0.13237916, 0.00001082334, -0.00012525635, -877999.5, -42196.402, 0.0, 10.00004, 9.94293 
2.7350017e+3, 2.2465059e+2, -789713.6, -843142.9, 0.023026552, 0.000010787402, 0.0001223912, -789713.6, -51289.36, 0.0, 10.000039, 9.929889 
2.7350017e+3, 2.3458053e+2, -691280.5, -744964.7, -0.13141906, 0.000010747471, -0.00008744491, -691280.5, -50169.785, 0.0, 10.000039, 9.929558 
2.7350017e+3, 2.4450354e+2, -602956.7, -667017.2, 0.025735667, 0.00001071744, 0.000075966534, -602956.7, -59091.44, 0.0, 10.000039, 9.916118 
2.7350017e+3, 2.5441977e+2, -504204.34, -568342.0, -0.12018989, 0.000010699231, -0.00010556771, -504204.34, -57518.266, 0.0, 10.000039, 9.916018 
2.7350017e+3, 2.6432896e+2, -415969.2, -490986.8, 0.034218565, 0.000010676906, 0.00014165703, -415969.2, -66392.805, 0.0, 10.000039, 9.901946 
2.7350017e+3, 2.7423143e+2, -316684.28, -391373.94, -0.103794985, 0.000010649306, -0.00020250984, -316684.28, -64152.395, 0.0, 10.000039, 9.902366 
2.7350017e+3, 2.8412572e+2, -230211.14, -318080.44, 0.045969002, 0.000010626088, 0.00022988247, -230211.14, -74643.11, 0.0, 10.000039, 9.88542 
2.7350017e+3, 2.940122e+2, -130505.3, -217764.44, -0.08926655, 0.000010608879, -0.00025256164, -130505.3, -71824.66, 0.0, 10.000039, 9.886199 
2.7350017e+3, 3.0392662e+2, -40762.047, -84750.43, 0.056929506, 0.000010591167, 0.00017378671, -40762.047, -40762.047, 0.0, 10.000039, 9.942154 
2.7350017e+3, 3.1387064e+2, -39684.14, -82511.58, -0.06908225, 0.000010572668, -0.00005473514, -39684.14, -39684.14, 0.0, 10.000039, 9.9436655 
2.7450016e+3, 1.2499375e+2, -1719893.9, -1724220.1, 0.13052866, 0.000011485421, 0.00002165998, -1719893.9, -4832.571, 0.0, 10.000043, 9.994307 
2.7450016e+3, 1.3498798e+2, -1622514.0, -1627430.8, -0.046440583, 0.000011392312, -0.00006997053, -1622514.0, -5396.1646, 0.0, 10.000043, 9.993525 
2.7450016e+3, 1.4497551e+2, -1534412.5, -1548141.6, 0.09707459, 0.000011329362, 0.00007684328, -1534412.5, -15172.498, 0.0, 10.000043, 9.981845 
2.7450016e+3, 1.5495737e+2, -1436685.4, -1450817.6, -0.0722059, 0.000011294401, -0.00005469563, -1436685.4, -15267.613, 0.0, 10.000043, 9.981314 
2.7450016e+3, 1.6493261e+2, -1348634.9, -1371948.4, 0.09280889, 0.000011250575, 0.000048315145, -1348634.9, -24974.344, 0.0, 10.000042, 9.969229 
2.7450016e+3, 1.7490187e+2, -1250677.4, -1274306.6, -0.07730128, 0.000011197705, -0.00007179047, -1250677.4, -24715.637, 0.0, 10.000042, 9.968815 
2.7450016e+3, 1.848645e+2, -1162596.5, -1195716.4, 0.07638379, 0.000011154102, 0.00006848619, -1162596.5, -34268.695, 0.0, 10.000042, 9.956376 
2.7450016e+3, 1.9482093e+2, -1064447.3, -1097829.6, -0.08568704, 0.000011120184, -0.000055816847, -1064447.3, -33692.3, 0.0, 10.000042, 9.956033 
2.7450016e+3, 2.0477067e+2, -976283.56, -1019431.75, 0.072984286, 0.000011086494, 0.00006966652, -976283.56, -43036.117, 0.0, 10.000042, 9.943271 
2.7450016e+3, 2.1471398e+2, -877996.94, -921406.94, -0.09372072, 0.0000110530455, -0.00012521872, -877996.94, -42193.945, 0.0, 10.000042, 9.94293 
2.7450016e+3, 2.2465059e+2, -789711.1, -843142.06, 0.060211245, 0.00001101546, 0.00012243014, -789711.1, -51286.91, 0.0, 10.000041, 9.929889 
2.7450016e+3, 2.3458055e+2, -691278.0, -744963.94, -0.09380381, 0.000010973184, -0.00008741487, -691278.0, -50167.348, 0.0, 10.000041, 9.929558 
2.7450016e+3, 2.4450356e+2, -602954.2, -667016.44, 0.064982176, 0.00001094274, 0.000075991054, -602954.2, -59089.016, 0.0, 10.000041, 9.916117 
2.7450016e+3, 2.5441977e+2, -504201.9, -568341.25, -0.08801749, 0.0000109264265, -0.000105544656, -504201.9, -57515.867, 0.0, 10.000041, 9.916017 
2.7450016e+3, 2.6432896e+2, -415966.78, -490986.1, 0.06635857, 0.000010904796, 0.00014167982, -415966.78, -66390.42, 0.0, 10.000041, 9.901946 
2.7450016e+3, 2.7423143e+2, -316681.88, -391373.25, -0.08081696, 0.000010876358, -0.00020248583, -316681.88, -64150.023, 0.0, 10.000041, 9.902366 
2.7450016e+3, 2.8412572e+2, -230208.75, -318079.75, 0.069143854, 0.000010851926, 0.00022990469, -230208.75, -74640.74, 0.0, 10.000041, 9.88542 
2.7450016e+3, 2.940122e+2, -130502.92, -217763.75, -0.06707348, 0.000010832998, -0.00025254535, -130502.92, -71822.3, 0.0, 10.000041, 9.886198 
2.7450016e+3, 3.0392662e+2, -40759.703, -84749.78, 0.080630906, 0.000010814375, 0.00017379923, -40759.703, -40759.703, 0.0, 10.000041, 9.942153 
2.7450016e+3, 3.1387064e+2, -39681.8, -82510.94, -0.052529804, 0.000010796171, -0.000054723216, -39681.8, -39681.8, 0.0, 10.000041, 9.943665 
2.7550018e+3, 1.2499376e+2, -1719894.3, -1724220.9, 0.04728407, 0.000011728717, 0.000021749813, -1719894.3, -4833.0757, 0.0, 10.000043, 9.994307 
2.7550018e+3, 1.34988e+2, -1622514.4, -1627431.5, -0.12969948, 0.000011633509, -0.00007004653, -1622514.4, -5396.66, 0.0, 10.000043, 9.993524 
2.7550018e+3, 1.4497553e+2, -1534412.9, -1548142.3, 0.026647212, 0.000011566514, 0.00007698095, -1534412.9, -15172.972, 0.0, 10.000043, 9.981844 
2.7550018e+3, 1.5495738e+2, -1436685.8, -1450818.4, -0.14261627, 0.000011525509, -0.000054647946, -1436685.8, -15268.077, 0.0, 10.000043, 9.981313 
2.7550018e+3, 1.6493262e+2, -1348635.3, -1371949.1, 0.02585597, 0.000011482549, 0.000048329726, -1348635.3, -24974.803, 0.0, 10.000042, 9.969228 
2.7550018e+3, 1.7490187e+2, -1250677.8, -1274307.3, -0.14423774, 0.0000114376, -0.000071750874, -1250677.8, -24716.088, 0.0, 10.000042, 9.968814 
2.7550018e+3, 1.8486452e+2, -1162596.9, -1195717.1, 0.015626507, 0.000011396059, 0.0000685291, -1162596.9, -34269.12, 0.0, 10.000042, 9.956375 
2.7550018e+3, 1.9482093e+2, -1064447.6, -1097830.3, -0.14637613, 0.000011358071, -0.000055793345, -1064447.6, -33692.723, 0.0, 10.000042, 9.956033 
2.7550018e+3, 2.0477067e+2, -976283.94, -1019432.5, 0.020021306, 0.0000113185915, 0.00006969165, -976283.94, -43036.543, 0.0, 10.000042, 9.943271 
2.7550018e+3, 2.1471399e+2, -877997.3, -921407.6, -0.14652537, 0.00001127749, -0.00012516922, -877997.3, -42194.363, 0.0, 10.000042, 9.942929 
2.7550018e+3, 2.2465059e+2, -789711.44, -843142.75, 0.01573571, 0.000011242193, 0.00012248063, -789711.44, -51287.305, 0.0, 10.000041, 9.929888 
2.7550018e+3, 2.3458055e+2, -691278.3, -744964.6, -0.1380102, 0.000011213458, -0.00008738994, -691278.3, -50167.73, 0.0, 10.000041, 9.929557 
2.7550018e+3, 2.4450356e+2, -602954.56, -667017.1, 0.023555879, 0.000011184058, 0.00007600559, -602954.56, -59089.4, 0.0, 10.000041, 9.916117 
2.7550018e+3, 2.544198e+2, -504202.25, -568341.94, -0.12931241, 0.000011153849, -0.00010552238, -504202.25, -57516.242, 0.0, 10.000041, 9.916017 
2.7550018e+3, 2.6432896e+2, -415967.1, -490986.75, 0.034753222, 0.000011126933, 0.00014170763, -415967.1, -66390.79, 0.0, 10.000041, 9.901945 
2.7550018e+3, 2.7423143e+2, -316682.22, -391373.9, -0.11177586, 0.000011104197, -0.00020245535, -316682.22, -64150.38, 0.0, 10.000041, 9.902366 
2.7550018e+3, 2.8412572e+2, -230209.06, -318080.4, 0.044879094, 0.0000110849405, 0.00022993227, -230209.06, -74641.086, 0.0, 10.000041, 9.885419 
2.7550018e+3, 2.940122e+2, -130503.23, -217764.4, -0.0907386, 0.000011070412, -0.0002525283, -130503.23, -71822.63, 0.0, 10.000041, 9.886198 
2.7550018e+3, 3.0392662e+2, -40760.02, -84750.445, 0.06236974, 0.000011047859, 0.00017381346, -40760.02, -40760.02, 0.0, 10.000041, 9.942153 
2.7550018e+3, 3.1387064e+2, -39682.117, -82511.6, -0.070159756, 0.000011013363, -0.00005470029, -39682.117, -39682.117, 0.0, 10.000041, 9.943665 
2.765002e+3, 1.2499377e+2, -1719891.4, -1724219.9, 0.12718849, 0.000011982078, 0.000021846265, -1719891.4, -4830.375, 0.0, 10.000045, 9.994306 
2.765002e+3, 1.3498801e+2, -1622511.5, -1627430.6, -0.052481465, 0.000011873807, -0.00007011085, -1622511.5, -5393.9414, 0.0, 10.000045, 9.993524 
2.7650017e+3, 1.4497553e+2, -1534410.1, -1548141.4, 0.103788435, 0.00001180243, 0.00007713396, -1534410.1, -15170.255, 0.0, 10.000045, 9.981844 
2.7650017e+3, 1.549574e+2, -1436683.0, -1450817.4, -0.07454782, 0.000011765728, -0.00005459824, -1436683.0, -15265.405, 0.0, 10.000045, 9.981313 
2.7650017e+3, 1.6493262e+2, -1348632.5, -1371948.3, 0.093729116, 0.000011725852, 0.000048341004, -1348632.5, -24972.158, 0.0, 10.000044, 9.969228 
2.7650017e+3, 1.7490189e+2, -1250675.0, -1274306.4, -0.079747096, 0.000011682744, -0.00007171174, -1250675.0, -24713.469, 0.0, 10.000044, 9.968814 
2.7650017e+3, 1.8486452e+2, -1162594.3, -1195716.3, 0.080900736, 0.000011639018, 0.0000685787, -1162594.3, -34266.51, 0.0, 10.000044, 9.956375 
2.7650017e+3, 1.9482094e+2, -1064445.0, -1097829.5, -0.09327365, 0.000011594635, -0.000055751494, -1064445.0, -33690.117, 0.0, 10.000044, 9.956032 
2.7650017e+3, 2.0477067e+2, -976281.25, -1019431.6, 0.07307817, 0.000011552903, 0.00006972763, -976281.25, -43033.953, 0.0, 10.000044, 9.943271 
2.7650017e+3, 2.1471399e+2, -877994.7, -921406.8, -0.093239956, 0.000011514037, -0.00012513707, -877994.7, -42191.793, 0.0, 10.000044, 9.942929 
2.7650017e+3, 2.246506e+2, -789708.9, -843141.94, 0.07098623, 0.000011480434, 0.00012251108, -789708.9, -51284.75, 0.0, 10.000043, 9.929888 
2.7650017e+3, 2.3458055e+2, -691275.75, -744963.8, -0.094085336, 0.00001145278, -0.00008735876, -691275.75, -50165.21, 0.0, 10.000043, 9.929557 
2.7650017e+3, 2.4450356e+2, -602952.0, -667016.4, 0.0660465, 0.0000114220475, 0.00007603475, -602952.0, -59086.89, 0.0, 10.000043, 9.916116 
2.7650017e+3, 2.544198e+2, -504199.7, -568341.2, -0.091574565, 0.000011387623, -0.000105498526, -504199.7, -57513.73, 0.0, 10.000043, 9.916016 
2.7650017e+3, 2.6432896e+2, -415964.56, -490986.0, 0.07238367, 0.000011359051, 0.00014172889, -415964.56, -66388.28, 0.0, 10.000043, 9.901945 
2.7650017e+3, 2.7423143e+2, -316679.7, -391373.2, -0.082831085, 0.000011337926, -0.0002024332, -316679.7, -64147.902, 0.0, 10.000043, 9.902365 
2.7650017e+3, 2.8412572e+2, -230206.56, -318079.66, 0.07174279, 0.000011319363, 0.00022995456, -230206.56, -74638.61, 0.0, 10.000043, 9.885419 
2.7650017e+3, 2.940122e+2, -130500.75, -217763.69, -0.07359949, 0.000011304263, -0.0002525068, -130500.75, -71820.18, 0.0, 10.000043, 9.886197 
2.7650017e+3, 3.0392662e+2, -40757.582, -84749.77, 0.076929905, 0.00001128082, 0.00017383226, -40757.582, -40757.582, 0.0, 10.000043, 9.942153 
2.7650017e+3, 3.1387064e+2, -39679.676, -82510.93, -0.06250136, 0.000011244977, -0.000054686912, -39679.676, -39679.676, 0.0, 10.000043, 9.943664 
2.7750018e+3, 1.2499378e+2, -1719891.9, -1724220.6, 0.050554883, 0.000012245497, 0.000021949585, -1719891.9, -4830.89, 0.0, 10.000045, 9.994306 
2.7750018e+3, 1.3498801e+2, -1622512.0, -1627431.4, -0.12913007, 0.000012113211, -0.0000701635, -1622512.0, -5394.4473, 0.0, 10.000045, 9.993523 
2.7750018e+3, 1.4497554e+2, -1534410.5, -1548142.1, 0.025204165, 0.000012037112, 0.00007730232, -1534410.5, -15170.753, 0.0, 10.000045, 9.981844 
2.7750018e+3, 1.549574e+2, -1436683.4, -1450818.1, -0.153136, 0.0000120150535, -0.00005454651, -1436683.4, -15265.893, 0.0, 10.000045, 9.981312 
2.7750018e+3, 1.6493264e+2, -1348632.9, -1371949.0, 0.02319716, 0.000011980479, 0.00004834899, -1348632.9, -24972.629, 0.0, 10.000044, 9.969227 
2.7750018e+3, 1.749019e+2, -1250675.4, -1274307.1, -0.15024008, 0.000011933136, -0.00007167304, -1250675.4, -24713.93, 0.0, 10.000044, 9.968814 
2.7750018e+3, 1.8486454e+2, -1162594.6, -1195717.0, 0.020630233, 0.000011882983, 0.000068635, -1162594.6, -34266.97, 0.0, 10.000044, 9.956374 
2.7750018e+3, 1.9482094e+2, -1064445.4, -1097830.1, -0.1534281, 0.000011829878, -0.000055691304, -1064445.4, -33690.566, 0.0, 10.000044, 9.956032 
2.7750018e+3, 2.0477068e+2, -976281.6, -1019432.3, 0.017224109, 0.000011789429, 0.000069774454, -976281.6, -43034.383, 0.0, 10.000044, 9.94327 
2.7750018e+3, 2.1471399e+2, -877995.06, -921407.56, -0.14900781, 0.0000117626805, -0.00012512227, -877995.06, -42192.215, 0.0, 10.000044, 9.942929 
2.7750018e+3, 2.246506e+2, -789709.2, -843142.6, 0.0209926, 0.00001173018, 0.00012252151, -789709.2, -51285.168, 0.0, 10.000043, 9.929887 
2.7750018e+3, 2.3458056e+2, -691276.1, -744964.5, -0.14389269, 0.000011691153, -0.00008732134, -691276.1, -50165.62, 0.0, 10.000043, 9.929556 
2.7750018e+3, 2.4450357e+2, -602952.3, -667017.06, 0.027353413, 0.000011656713, 0.00007607851, -602952.3, -59087.29, 0.0, 10.000043, 9.916116 
2.7750018e+3, 2.544198e+2, -504200.03, -568341.9, -0.1297366, 0.000011627745, -0.000105473104, -504200.03, -57514.117, 0.0, 10.000043, 9.916016 
2.7750018e+3, 2.6432896e+2, -415964.9, -490986.7, 0.037605643, 0.000011601147, 0.00014174361, -415964.9, -66388.67, 0.0, 10.000043, 9.901944 
2.7750018e+3, 2.7423143e+2, -316680.03, -391373.88, -0.11738437, 0.00001157754, -0.00020241941, -316680.03, -64148.277, 0.0, 10.000043, 9.902365 
2.7750018e+3, 2.8412575e+2, -230206.9, -318080.34, 0.04525091, 0.000011555196, 0.0002299716, -230206.9, -74638.98, 0.0, 10.000043, 9.885418 
2.7750018e+3, 2.940122e+2, -130501.086, -217764.38, -0.099368334, 0.000011534555, -0.0002524809, -130501.086, -71820.54, 0.0, 10.000043, 9.886197 
2.7750018e+3, 3.0392662e+2, -40757.918, -84750.47, 0.06003467, 0.0000115132625, 0.00017385563, -40757.918, -40757.918, 0.0, 10.000043, 9.942152 
2.7750018e+3, 3.1387064e+2, -39680.01, -82511.625, -0.07835779, 0.000011491005, -0.00005468308, -39680.01, -39680.01, 0.0, 10.000043, 9.943664 
2.785002e+3, 1.2499379e+2, -1719888.9, -1724219.6, 0.13793406, 0.000012495349, 0.000022048367, -1719888.9, -4828.0254, 0.0, 10.000047, 9.994305 
2.785002e+3, 1.3498802e+2, -1622509.1, -1627430.4, -0.054470804, 0.000012368792, -0.000070227536, -1622509.1, -5391.645, 0.0, 10.000047, 9.993523 
2.785002e+3, 1.4497554e+2, -1534407.6, -1548141.1, 0.098227516, 0.000012294047, 0.000077464334, -1534407.6, -15167.967, 0.0, 10.000047, 9.981843 
2.785002e+3, 1.5495741e+2, -1436680.5, -1450817.3, -0.08022376, 0.000012268894, -0.000054500357, -1436680.5, -15263.113, 0.0, 10.000047, 9.981312 
2.785002e+3, 1.6493264e+2, -1348630.0, -1371948.0, 0.09684841, 0.000012230997, 0.00004835575, -1348630.0, -24969.861, 0.0, 10.000047, 9.969227 
2.785002e+3, 1.749019e+2, -1250672.5, -1274306.3, -0.08905728, 0.000012180093, -0.00007162756, -1250672.5, -24711.184, 0.0, 10.000046, 9.968813 
2.785002e+3, 1.8486454e+2, -1162591.8, -1195716.0, 0.08241758, 0.000012129617, 0.00006869272, -1162591.8, -34264.24, 0.0, 10.000046, 9.956374 
2.785002e+3, 1.9482096e+2, -1064442.5, -1097829.3, -0.09661751, 0.000012079578, -0.00005564906, -1064442.5, -33687.863, 0.0, 10.000046, 9.956031 
2.785002e+3, 2.0477068e+2, -976278.9, -1019431.44, 0.07256457, 0.000012039358, 0.00006980871, -976278.9, -43031.695, 0.0, 10.000046, 9.94327 
2.785002e+3, 2.14714e+2, -877992.3, -921406.7, -0.102093555, 0.000012009767, -0.00012508788, -877992.3, -42189.547, 0.0, 10.000046, 9.942928 
2.785002e+3, 2.2465062e+2, -789706.5, -843141.8, 0.06766842, 0.000011975262, 0.00012255498, -789706.5, -51282.516, 0.0, 10.000045, 9.929887 
2.785002e+3, 2.3458056e+2, -691273.44, -744963.7, -0.104577705, 0.000011935185, -0.00008729004, -691273.44, -50162.973, 0.0, 10.000045, 9.929556 
2.785002e+3, 2.4450357e+2, -602949.6, -667016.25, 0.066716485, 0.000011900797, 0.000076109136, -602949.6, -59084.65, 0.0, 10.000045, 9.916115 
2.785002e+3, 2.544198e+2, -504197.38, -568341.06, -0.098584905, 0.000011873201, -0.00010544139, -504197.38, -57511.516, 0.0, 10.000045, 9.916016 
2.785002e+3, 2.6432896e+2, -415962.28, -490985.94, 0.06968263, 0.000011846299, 0.00014177218, -415962.28, -66386.086, 0.0, 10.000045, 9.901944 
2.785002e+3, 2.7423143e+2, -316677.44, -391373.13, -0.08762215, 0.000011820251, -0.00020239937, -316677.44, -64145.695, 0.0, 10.000045, 9.902364 
2.7850017e+3, 2.8412575e+2, -230204.3, -318079.6, 0.07769754, 0.000011796251, 0.00022998791, -230204.3, -74636.4, 0.0, 10.000045, 9.885418 
2.7850017e+3, 2.940122e+2, -130498.49, -217763.63, -0.073374525, 0.000011775037, -0.0002524617, -130498.49, -71817.97, 0.0, 10.000045, 9.886196 
2.7850017e+3, 3.0392662e+2, -40755.367, -84749.766, 0.086654216, 0.000011754369, 0.00017387292, -40755.367, -40755.367, 0.0, 10.000045, 9.942152 
2.7850017e+3, 3.1387064e+2, -39677.484, -82510.94, -0.0549844, 0.000011734503, -0.000054674943, -39677.484, -39677.484, 0.0, 10.000045, 9.943663 
2.795002e+3, 1.2499381e+2, -1719889.4, -1724220.5, 0.04927025, 0.000012731649, 0.000022142898, -1719889.4, -4828.574, 0.0, 10.000047, 9.994305 
2.795002e+3, 1.3498804e+2, -1622509.5, -1627431.3, -0.14315054, 0.00001264054, -0.00007030296, -1622509.5, -5392.184, 0.0, 10.000047, 9.993522 
2.795002e+3, 1.4497556e+2, -1534408.0, -1548141.9, 0.020400604, 0.00001257322, 0.00007762001, -1534408.0, -15168.469, 0.0, 10.000047, 9.981843 
2.795002e+3, 1.5495741e+2, -1436680.9, -1450818.0, -0.15803747, 0.000012527252, -0.00005445978, -1436680.9, -15263.6045, 0.0, 10.000047, 9.981311 
2.795002e+3, 1.6493265e+2, -1348630.5, -1371948.8, 0.024241315, 0.00001247741, 0.000048361282, -1348630.5, -24970.363, 0.0, 10.000047, 9.969226 
2.795002e+3, 1.7490192e+2, -1250673.0, -1274307.0, -0.16163893, 0.0000124236185, -0.00007157529, -1250673.0, -24711.676, 0.0, 10.000046, 9.968812 
2.795002e+3, 1.8486455e+2, -1162592.3, -1195716.9, 0.017960707, 0.000012378922, 0.00006875188, -1162592.3, -34264.71, 0.0, 10.000046, 9.956373 
2.795002e+3, 1.9482096e+2, -1064443.0, -1097830.0, -0.16098265, 0.000012343728, -0.000055624758, -1064443.0, -33688.33, 0.0, 10.000046, 9.956031 
2.795002e+3, 2.047707e+2, -976279.25, -1019432.2, 0.013845706, 0.000012302683, 0.00006983041, -976279.25, -43032.145, 0.0, 10.000046, 9.943269 
2.795002e+3, 2.14714e+2, -877992.7, -921407.44, -0.16069904, 0.000012255298, -0.00012503388, -877992.7, -42189.992, 0.0, 10.000046, 9.942928 
2.795002e+3, 2.2465062e+2, -789706.9, -843142.56, 0.01849186, 0.000012215689, 0.00012261145, -789706.9, -51282.953, 0.0, 10.000045, 9.929886 
2.795002e+3, 2.3458056e+2, -691273.8, -744964.44, -0.15344794, 0.000012184875, -0.00008726485, -691273.8, -50163.402, 0.0, 10.000045, 9.929555 
2.795002e+3, 2.4450357e+2, -602950.0, -667016.94, 0.022486528, 0.000012154299, 0.00007612663, -602950.0, -59085.066, 0.0, 10.000045, 9.916115 
2.795002e+3, 2.544198e+2, -504197.75, -568341.8, -0.14259535, 0.000012123989, -0.000105403386, -504197.75, -57511.92, 0.0, 10.000045, 9.916015 
2.795002e+3, 2.6432896e+2, -415962.63, -490986.66, 0.035800412, 0.000012094505, 0.0001418146, -415962.63, -66386.48, 0.0, 10.000045, 9.901943 
2.795002e+3, 2.7423143e+2, -316677.78, -391373.8, -0.12082897, 0.000012066059, -0.0002023731, -316677.78, -64146.082, 0.0, 10.000045, 9.902364 
2.795002e+3, 2.8412575e+2, -230204.64, -318080.3, 0.05052359, 0.0000120425275, 0.00023000353, -230204.64, -74636.77, 0.0, 10.000045, 9.885418 
2.795002e+3, 2.940122e+2, -130498.836, -217764.33, -0.10000806, 0.000012025705, -0.00025244916, -130498.836, -71818.336, 0.0, 10.000045, 9.886196 
2.795002e+3, 3.0392662e+2, -40755.707, -84750.47, 0.065217756, 0.000012004135, 0.00017388412, -40755.707, -40755.707, 0.0, 10.000045, 9.942151 
2.795002e+3, 3.1387064e+2, -39677.824, -82511.64, -0.07581541, 0.000011975471, -0.0000546625, -39677.824, -39677.824, 0.0, 10.000045, 9.943663 
2.805002e+3, 1.24993816e+2, -1719886.3, -1724219.4, 0.14400609, 0.000012993411, 0.000022242879, -1719886.3, -4825.609, 0.0, 10.00005, 9.994304 
2.805002e+3, 1.3498804e+2, -1622506.5, -1627430.1, -0.05203584, 0.00001290494, -0.00007038135, -1622506.5, -5389.2515, 0.0, 10.000049, 9.993522 
2.805002e+3, 1.4497557e+2, -1534405.0, -1548140.9, 0.11389039, 0.000012837959, 0.00007778033, -1534405.0, -15165.547, 0.0, 10.000049, 9.981842 
2.805002e+3, 1.5495743e+2, -1436677.9, -1450817.0, -0.080093406, 0.000012789969, -0.000054407625, -1436677.9, -15260.709, 0.0, 10.000049, 9.981311 
2.805002e+3, 1.6493265e+2, -1348627.5, -1371947.9, 0.099471286, 0.0000127372605, 0.00004837496, -1348627.5, -24967.488, 0.0, 10.000049, 9.969226 
2.805002e+3, 1.7490192e+2, -1250670.0, -1274306.0, -0.0911292, 0.0000126797395, -0.0000715289, -1250670.0, -24708.81, 0.0, 10.000049, 9.968812 
2.805002e+3, 1.8486455e+2, -1162589.3, -1195715.9, 0.08717419, 0.000012634964, 0.00006880653, -1162589.3, -34261.86, 0.0, 10.000048, 9.956373 
2.805002e+3, 1.9482097e+2, -1064440.1, -1097829.1, -0.09879458, 0.000012603511, -0.000055587443, -1064440.1, -33685.516, 0.0, 10.000048, 9.95603 
2.805002e+3, 2.047707e+2, -976276.4, -1019431.3, 0.07821106, 0.0000125624665, 0.00006986265, -976276.4, -43029.355, 0.0, 10.000048, 9.943269 
2.805002e+3, 2.1471402e+2, -877989.9, -921406.5, -0.106360115, 0.000012511027, -0.00012499341, -877989.9, -42187.203, 0.0, 10.000048, 9.942927 
2.805002e+3, 2.2465062e+2, -789704.06, -843141.6, 0.07162612, 0.000012469332, 0.00012265162, -789704.06, -51280.17, 0.0, 10.000048, 9.929886 
2.805002e+3, 2.3458058e+2, -691271.0, -744963.56, -0.104178086, 0.000012438664, -0.00008723463, -691271.0, -50160.652, 0.0, 10.000048, 9.929555 
2.805002e+3, 2.4450359e+2, -602947.25, -667016.1, 0.07228125, 0.000012407803, 0.00007615216, -602947.25, -59082.336, 0.0, 10.000047, 9.916114 
2.805002e+3, 2.544198e+2, -504195.0, -568340.94, -0.102803804, 0.000012376693, -0.00010537626, -504195.0, -57509.2, 0.0, 10.000047, 9.916015 
2.805002e+3, 2.64329e+2, -415959.88, -490985.8, 0.07411338, 0.000012347006, 0.0001418422, -415959.88, -66383.766, 0.0, 10.000047, 9.901943 
2.805002e+3, 2.7423146e+2, -316675.06, -391373.03, -0.09196402, 0.0000123191185, -0.00020234645, -316675.06, -64143.39, 0.0, 10.000047, 9.902363 
2.805002e+3, 2.8412575e+2, -230201.94, -318079.53, 0.07790202, 0.000012295722, 0.00023002739, -230201.94, -74634.1, 0.0, 10.000047, 9.885417 
2.805002e+3, 2.9401222e+2, -130496.15, -217763.56, -0.07812114, 0.000012278451, -0.00025243062, -130496.15, -71815.68, 0.0, 10.000047, 9.886195 
2.805002e+3, 3.0392662e+2, -40753.063, -84749.74, 0.08548294, 0.00001225539, 0.00017389958, -40753.063, -40753.063, 0.0, 10.000047, 9.942151 
2.805002e+3, 3.1387064e+2, -39675.164, -82510.914, -0.06744807, 0.0000122236925, -0.00005464687, -39675.164, -39675.164, 0.0, 10.000047, 9.943662 
2.8150022e+3, 1.2499383e+2, -1719886.8, -1724220.3, 0.050227784, 0.000013280617, 0.00002234862, -1719886.8, -4826.171, 0.0, 10.00005, 9.994304 
2.8150022e+3, 1.3498805e+2, -1622506.9, -1627431.0, -0.14583266, 0.000013162001, -0.0000704627, -1622506.9, -5389.8037, 0.0, 10.000049, 9.993521 
2.815002e+3, 1.4497557e+2, -1534405.5, -1548141.8, 0.032323394, 0.000013088279, 0.00007794527, -1534405.5, -15166.089, 0.0, 10.000049, 9.981841 
2.815002e+3, 1.5495744e+2, -1436678.4, -1450817.8, -0.1616431, 0.000013057047, -0.000054343902, -1436678.4, -15261.24, 0.0, 10.000049, 9.98131 
2.815002e+3, 1.6493267e+2, -1348627.9, -1371948.6, 0.027016053, 0.000013010542, 0.000048396774, -1348627.9, -24968.004, 0.0, 10.000049, 9.969225 
2.815002e+3, 1.7490193e+2, -1250670.4, -1274306.9, -0.16353881, 0.000012948449, -0.00007148839, -1250670.4, -24709.316, 0.0, 10.000049, 9.968811 
2.815002e+3, 1.8486457e+2, -1162589.6, -1195716.6, 0.015145558, 0.000012897741, 0.00006885669, -1162589.6, -34262.35, 0.0, 10.000048, 9.956372 
2.815002e+3, 1.9482097e+2, -1064440.5, -1097829.9, -0.17082159, 0.0000128589345, -0.000055537126, -1064440.5, -33686.0, 0.0, 10.000048, 9.95603 
2.815002e+3, 2.0477071e+2, -976276.8, -1019432.06, 0.02144033, 0.000012818712, 0.00006990544, -976276.8, -43029.832, 0.0, 10.000048, 9.943268 
2.815002e+3, 2.1471402e+2, -877990.25, -921407.3, -0.16281827, 0.000012776949, -0.00012496646, -877990.25, -42187.668, 0.0, 10.000048, 9.942926 
2.815002e+3, 2.2465064e+2, -789704.44, -843142.44, 0.017463906, 0.000012736187, 0.0001226755, -789704.44, -51280.617, 0.0, 10.000048, 9.929885 
2.815002e+3, 2.3458058e+2, -691271.4, -744964.3, -0.15826868, 0.000012696552, -0.00008719938, -691271.4, -50161.09, 0.0, 10.000048, 9.929554 
2.815002e+3, 2.4450359e+2, -602947.6, -667016.9, 0.02791079, 0.000012661313, 0.000076185715, -602947.6, -59082.773, 0.0, 10.000047, 9.916114 
2.815002e+3, 2.544198e+2, -504195.38, -568341.75, -0.14670947, 0.000012631313, -0.00010536002, -504195.38, -57509.63, 0.0, 10.000047, 9.916014 
2.815002e+3, 2.64329e+2, -415960.25, -490986.6, 0.03708354, 0.0000126038, 0.00014185501, -415960.25, -66384.18, 0.0, 10.000047, 9.901942 
2.815002e+3, 2.7423146e+2, -316675.4, -391373.78, -0.12853687, 0.000012579427, -0.00020231941, -316675.4, -64143.797, 0.0, 10.000047, 9.902363 
2.815002e+3, 2.8412575e+2, -230202.3, -318080.25, 0.04862222, 0.000012555832, 0.00023005952, -230202.3, -74634.49, 0.0, 10.000047, 9.885417 
2.815002e+3, 2.9401222e+2, -130496.51, -217764.3, -0.1067476, 0.000012533277, -0.00025240603, -130496.51, -71816.06, 0.0, 10.000047, 9.886195 
2.815002e+3, 3.0392662e+2, -40753.426, -84750.5, 0.06699092, 0.000012508136, 0.00017391925, -40753.426, -40753.426, 0.0, 10.000047, 9.94215 
2.815002e+3, 3.1387064e+2, -39675.53, -82511.67, -0.08475361, 0.000012479163, -0.000054628053, -39675.53, -39675.53, 0.0, 10.000047, 9.943662 
2.825002e+3, 1.2499384e+2, -1719883.5, -1724219.1, 0.1436065, 0.000013565707, 0.00002245716, -1719883.5, -4823.116, 0.0, 10.0000515, 9.994303 
2.825002e+3, 1.3498807e+2, -1622503.8, -1627430.0, -0.06262757, 0.000013430746, -0.00007054037, -1622503.8, -5386.732, 0.0, 10.0000515, 9.993521 
2.825002e+3, 1.4497559e+2, -1534402.3, -1548140.6, 0.11294942, 0.00001335106, 0.00007811617, -1534402.3, -15163.019, 0.0, 10.0000515, 9.981841 
2.825002e+3, 1.5495744e+2, -1436675.3, -1450816.8, -0.088116914, 0.000013324254, -0.00005428784, -1436675.3, -15258.207, 0.0, 10.000051, 9.981309 
2.825002e+3, 1.6493268e+2, -1348624.9, -1371947.6, 0.102049135, 0.000013282224, 0.000048410675, -1348624.9, -24965.004, 0.0, 10.000051, 9.969225 
2.825002e+3, 1.7490193e+2, -1250667.4, -1274305.9, -0.09489117, 0.0000132246605, -0.000071442395, -1250667.4, -24706.365, 0.0, 10.000051, 9.968811 
2.825002e+3, 1.8486457e+2, -1162586.6, -1195715.6, 0.08416143, 0.000013170609, 0.0000689137, -1162586.6, -34259.41, 0.0, 10.000051, 9.956372 
2.825002e+3, 1.9482099e+2, -1064437.4, -1097828.9, -0.11165482, 0.000013120222, -0.00005549117, -1064437.4, -33683.04, 0.0, 10.00005, 9.956029 
2.825002e+3, 2.0477071e+2, -976273.8, -1019431.1, 0.0787155, 0.000013078006, 0.000069944435, -976273.8, -43026.883, 0.0, 10.00005, 9.943268 
2.825002e+3, 2.1471404e+2, -877987.3, -921406.4, -0.111909285, 0.000013044633, -0.00012493, -877987.3, -42184.78, 0.0, 10.00005, 9.942926 
2.825002e+3, 2.2465064e+2, -789701.5, -843141.5, 0.06946728, 0.000013006099, 0.00012271169, -789701.5, -51277.75, 0.0, 10.00005, 9.929885 
2.825002e+3, 2.3458058e+2, -691268.44, -744963.44, -0.11680995, 0.000012961713, -0.00008716092, -691268.44, -50158.223, 0.0, 10.00005, 9.929554 
2.825002e+3, 2.4450359e+2, -602944.7, -667016.0, 0.06950219, 0.000012923349, 0.00007622129, -602944.7, -59079.91, 0.0, 10.00005, 9.916113 
2.825002e+3, 2.5441983e+2, -504192.47, -568340.9, -0.10716573, 0.000012892176, -0.00010533348, -504192.47, -57506.793, 0.0, 10.00005, 9.916013 
2.825002e+3, 2.64329e+2, -415957.4, -490985.72, 0.07831334, 0.000012864763, 0.00014187723, -415957.4, -66381.36, 0.0, 10.000049, 9.901942 
2.825002e+3, 2.7423146e+2, -316672.6, -391372.94, -0.097013354, 0.00001284211, -0.00020229547, -316672.6, -64141.0, 0.0, 10.000049, 9.902362 
2.825002e+3, 2.8412575e+2, -230199.47, -318079.44, 0.07953015, 0.000012818425, 0.00023008413, -230199.47, -74631.695, 0.0, 10.000049, 9.885416 
2.825002e+3, 2.9401222e+2, -130493.695, -217763.48, -0.08320897, 0.000012793295, -0.00025238213, -130493.695, -71813.27, 0.0, 10.000049, 9.886194 
2.825002e+3, 3.0392662e+2, -40750.66, -84749.74, 0.09185799, 0.0000127672965, 0.00017393938, -40750.66, -40750.66, 0.0, 10.000049, 9.942149 
2.825002e+3, 3.1387064e+2, -39672.785, -82510.92, -0.062475324, 0.000012740042, -0.00005461615, -39672.785, -39672.785, 0.0, 10.000049, 9.943661 
2.8350022e+3, 1.2499385e+2, -1719884.0, -1724220.0, 0.056519322, 0.0000138486885, 0.000022568827, -1719884.0, -4823.7065, 0.0, 10.0000515, 9.994303 
2.8350022e+3, 1.3498807e+2, -1622504.3, -1627430.9, -0.14973062, 0.000013711171, -0.00007061437, -1622504.3, -5387.312, 0.0, 10.0000515, 9.99352 
2.8350022e+3, 1.449756e+2, -1534402.8, -1548141.5, 0.024993297, 0.000013626296, 0.00007829303, -1534402.8, -15163.581, 0.0, 10.0000515, 9.98184 
2.8350022e+3, 1.5495746e+2, -1436675.6, -1450817.6, -0.17607507, 0.0000135915925, -0.00005423944, -1436675.6, -15258.758, 0.0, 10.000051, 9.981309 
2.8350022e+3, 1.6493268e+2, -1348625.3, -1371948.5, 0.02083123, 0.000013552313, 0.000048416674, -1348625.3, -24965.537, 0.0, 10.000051, 9.969224 
2.8350022e+3, 1.7490195e+2, -1250667.9, -1274306.8, -0.17607717, 0.000013508371, -0.00007139091, -1250667.9, -24706.889, 0.0, 10.000051, 9.96881 
2.8350022e+3, 1.8486458e+2, -1162587.1, -1195716.5, 0.018919498, 0.000013453563, 0.00006897757, -1162587.1, -34259.926, 0.0, 10.000051, 9.956371 
2.8350022e+3, 1.9482099e+2, -1064437.9, -1097829.8, -0.17671487, 0.000013387374, -0.00005544957, -1064437.9, -33683.543, 0.0, 10.00005, 9.956028 
2.8350022e+3, 2.0477074e+2, -976274.2, -1019431.94, 0.010579903, 0.000013340351, 0.00006997964, -976274.2, -43027.38, 0.0, 10.00005, 9.943267 
2.8350022e+3, 2.1471404e+2, -877987.75, -921407.2, -0.1801106, 0.000013314082, -0.00012488403, -877987.75, -42185.26, 0.0, 10.00005, 9.942925 
2.8350022e+3, 2.2465065e+2, -789701.9, -843142.3, 0.017656507, 0.000013279068, 0.00012276019, -789701.9, -51278.227, 0.0, 10.00005, 9.929884 
2.8350022e+3, 2.3458059e+2, -691268.9, -744964.25, -0.16808815, 0.000013234142, -0.00008711926, -691268.9, -50158.688, 0.0, 10.00005, 9.929553 
2.8350022e+3, 2.445036e+2, -602945.1, -667016.8, 0.022276066, 0.000013193908, 0.000076258875, -602945.1, -59080.36, 0.0, 10.00005, 9.916113 
2.8350022e+3, 2.5441983e+2, -504192.88, -568341.6, -0.15420125, 0.000013159277, -0.00010529666, -504192.88, -57507.227, 0.0, 10.00005, 9.916013 
2.835002e+3, 2.64329e+2, -415957.78, -490986.53, 0.038912736, 0.000013129895, 0.00014190887, -415957.78, -66381.8, 0.0, 10.000049, 9.901941 
2.835002e+3, 2.7423146e+2, -316672.97, -391373.75, -0.13590504, 0.000013107168, -0.00020227465, -316672.97, -64141.426, 0.0, 10.000049, 9.902362 
2.835002e+3, 2.8412575e+2, -230199.84, -318080.22, 0.050319836, 0.0000130835015, 0.00023010126, -230199.84, -74632.1, 0.0, 10.000049, 9.885415 
2.835002e+3, 2.9401222e+2, -130494.06, -217764.25, -0.1115517, 0.000013058504, -0.00025235896, -130494.06, -71813.67, 0.0, 10.000049, 9.886194 
2.835002e+3, 3.0392662e+2, -40751.03, -84750.51, 0.069637, 0.00001303287, 0.00017395992, -40751.03, -40751.03, 0.0, 10.000049, 9.942149 
2.835002e+3, 3.1387064e+2, -39673.156, -82511.695, -0.083982565, 0.0000130063245, -0.000054611162, -39673.156, -39673.156, 0.0, 10.000049, 9.943661 
2.845002e+3, 1.2499387e+2, -1719880.6, -1724218.9, 0.15404758, 0.000014129032, 0.000022677701, -1719880.6, -4820.477, 0.0, 10.000054, 9.994302 
2.845002e+3, 1.3498808e+2, -1622500.9, -1627429.8, -0.06028551, 0.000013997125, -0.00007068644, -1622500.9, -5384.137, 0.0, 10.000053, 9.99352 
2.845002e+3, 1.4497562e+2, -1534399.5, -1548140.4, 0.11327464, 0.0000139130025, 0.000078478966, -1534399.5, -15160.422, 0.0, 10.000053, 9.98184 
2.845002e+3, 1.5495747e+2, -1436672.5, -1450816.5, -0.08998199, 0.000013874103, -0.00005419005, -1436672.5, -15255.614, 0.0, 10.000053, 9.981308 
2.845002e+3, 1.649327e+2, -1348622.0, -1371947.4, 0.10641528, 0.000013830928, 0.000048420283, -1348622.0, -24962.41, 0.0, 10.000053, 9.969224 
2.845002e+3, 1.7490196e+2, -1250664.6, -1274305.6, -0.10448955, 0.000013783402, -0.000071340364, -1250664.6, -24703.773, 0.0, 10.000052, 9.96881 
2.845002e+3, 1.8486458e+2, -1162583.9, -1195715.5, 0.0916392, 0.000013729962, 0.00006904281, -1162583.9, -34256.832, 0.0, 10.000052, 9.956371 
2.845002e+3, 1.94821e+2, -1064434.8, -1097828.8, -0.10991899, 0.000013670321, -0.000055403394, -1064434.8, -33680.508, 0.0, 10.000052, 9.956028 
2.845002e+3, 2.0477074e+2, -976271.1, -1019430.94, 0.07650355, 0.000013622046, 0.000070016504, -976271.1, -43024.35, 0.0, 10.000052, 9.943266 
2.845002e+3, 2.1471404e+2, -877984.6, -921406.2, -0.1204824, 0.000013586075, -0.00012484587, -877984.6, -42182.227, 0.0, 10.0000515, 9.942925 
2.845002e+3, 2.2465065e+2, -789698.8, -843141.4, 0.078937694, 0.000013548268, 0.00012279724, -789698.8, -51275.2, 0.0, 10.0000515, 9.929884 
2.845002e+3, 2.3458059e+2, -691265.8, -744963.3, -0.1161552, 0.000013508368, -0.000087085995, -691265.8, -50155.707, 0.0, 10.0000515, 9.929553 
2.845002e+3, 2.445036e+2, -602942.06, -667015.9, 0.07158916, 0.000013470355, 0.00007629115, -602942.06, -59077.4, 0.0, 10.0000515, 9.916112 
2.845002e+3, 2.5441983e+2, -504189.88, -568340.75, -0.11637672, 0.000013434584, -0.00010526203, -504189.88, -57504.28, 0.0, 10.0000515, 9.916012 
2.845002e+3, 2.64329e+2, -415954.8, -490985.66, 0.07706047, 0.000013403126, 0.000141941, -415954.8, -66378.86, 0.0, 10.0000515, 9.90194 
2.845002e+3, 2.7423146e+2, -316670.0, -391372.88, -0.100659676, 0.000013377139, -0.00020225119, -316670.0, -64138.504, 0.0, 10.0000515, 9.902361 
2.845002e+3, 2.8412575e+2, -230196.89, -318079.34, 0.08697725, 0.0000133519925, 0.00023012029, -230196.89, -74629.19, 0.0, 10.0000515, 9.885415 
2.845002e+3, 2.9401222e+2, -130491.14, -217763.42, -0.08513227, 0.000013327956, -0.00025233853, -130491.14, -71810.78, 0.0, 10.000051, 9.886193 
2.845002e+3, 3.0392662e+2, -40748.16, -84749.72, 0.0922777, 0.000013303078, 0.00017397963, -40748.16, -40748.16, 0.0, 10.000051, 9.942148 
2.845002e+3, 3.1387067e+2, -39670.28, -82510.91, -0.07192544, 0.00001327696, -0.000054595457, -39670.28, -39670.28, 0.0, 10.000051, 9.94366 
2.8550023e+3, 1.24993876e+2, -1719881.1, -1724219.8, 0.057041958, 0.000014406743, 0.000022784172, -1719881.1, -4821.091, 0.0, 10.000054, 9.994301 
2.8550023e+3, 1.349881e+2, -1622501.4, -1627430.6, -0.15730976, 0.000014288607, -0.000070756585, -1622501.4, -5384.74, 0.0, 10.000053, 9.993519 
2.8550023e+3, 1.4497562e+2, -1534399.9, -1548141.3, 0.024265131, 0.000014211172, 0.00007867397, -1534399.9, -15160.993, 0.0, 10.000053, 9.981839 
2.8550023e+3, 1.5495747e+2, -1436672.9, -1450817.4, -0.17898208, 0.000014171775, -0.00005413968, -1436672.9, -15256.175, 0.0, 10.000053, 9.981308 
2.8550023e+3, 1.6493271e+2, -1348622.5, -1371948.3, 0.024945186, 0.000014118065, 0.0000484215, -1348622.5, -24962.979, 0.0, 10.000053, 9.969223 
2.8550023e+3, 1.7490196e+2, -1250665.1, -1274306.5, -0.18592168, 0.000014049765, -0.00007129075, -1250665.1, -24704.334, 0.0, 10.000052, 9.968809 
2.8550023e+3, 1.848646e+2, -1162584.4, -1195716.4, 0.016084848, 0.000013999815, 0.000069109425, -1162584.4, -34257.367, 0.0, 10.000052, 9.95637 
2.8550023e+3, 1.94821e+2, -1064435.1, -1097829.6, -0.18540852, 0.000013969053, -0.00005535265, -1064435.1, -33681.027, 0.0, 10.000052, 9.956027 
2.8550023e+3, 2.0477076e+2, -976271.56, -1019431.8, 0.014096285, 0.000013923075, 0.00007005505, -976271.56, -43024.863, 0.0, 10.000052, 9.943266 
2.8550023e+3, 2.1471405e+2, -877985.06, -921407.06, -0.18262362, 0.000013860614, -0.00012481555, -877985.06, -42182.723, 0.0, 10.0000515, 9.9429245 
2.8550023e+3, 2.2465067e+2, -789699.25, -843142.2, 0.018940197, 0.000013813704, 0.00012282286, -789699.25, -51275.695, 0.0, 10.0000515, 9.929883 
2.8550023e+3, 2.345806e+2, -691266.25, -744964.1, -0.17608489, 0.000013784393, -0.000087061126, -691266.25, -50156.19, 0.0, 10.0000515, 9.929552 
2.8550023e+3, 2.445036e+2, -602942.5, -667016.7, 0.023131462, 0.000013752688, 0.00007631811, -602942.5, -59077.87, 0.0, 10.0000515, 9.916112 
2.8550023e+3, 2.5441983e+2, -504190.28, -568341.56, -0.16428743, 0.000013718093, -0.00010522959, -504190.28, -57504.742, 0.0, 10.0000515, 9.916012 
2.8550023e+3, 2.64329e+2, -415955.22, -490986.47, 0.03803012, 0.000013684453, 0.00014197364, -415955.22, -66379.31, 0.0, 10.0000515, 9.90194 
2.8550023e+3, 2.7423146e+2, -316670.4, -391373.7, -0.1390995, 0.00001365202, -0.0002022251, -316670.4, -64138.938, 0.0, 10.0000515, 9.90236 
2.8550023e+3, 2.8412575e+2, -230197.28, -318080.16, 0.054375168, 0.000013623898, 0.00023014122, -230197.28, -74629.62, 0.0, 10.0000515, 9.885414 
2.8550023e+3, 2.9401222e+2, -130491.53, -217764.23, -0.1172116, 0.0000136016515, -0.0002523208, -130491.53, -71811.2, 0.0, 10.000051, 9.886193 
2.8550023e+3, 3.0392665e+2, -40748.55, -84750.54, 0.06999375, 0.00001357792, 0.00017399847, -40748.55, -40748.55, 0.0, 10.000051, 9.942148 
2.8550023e+3, 3.1387067e+2, -39670.676, -82511.73, -0.093063846, 0.0000135519485, -0.00005456905, -39670.676, -39670.676, 0.0, 10.000051, 9.943659 
2.8650025e+3, 1.2499389e+2, -1719877.6, -1724218.6, 0.16075893, 0.0000146976745, 0.000022899567, -1719877.6, -4817.729, 0.0, 10.000056, 9.994301 
2.8650025e+3, 1.3498811e+2, -1622498.0, -1627429.5, -0.06463439, 0.000014583713, -0.00007084684, -1622498.0, -5381.429, 0.0, 10.000056, 9.993518 
2.8650025e+3, 1.4497563e+2, -1534396.5, -1548140.1, 0.11653707, 0.000014507845, 0.00007885549, -1534396.5, -15157.695, 0.0, 10.000056, 9.981839 
2.8650022e+3, 1.5495749e+2, -1436669.5, -1450816.3, -0.09929085, 0.000014467337, -0.00005407853, -1436669.5, -15252.901, 0.0, 10.000055, 9.981307 
2.8650022e+3, 1.6493271e+2, -1348619.1, -1371947.1, 0.10544483, 0.0000144101505, 0.000048437825, -1348619.1, -24959.73, 0.0, 10.000055, 9.969222 
2.8650022e+3, 1.7490198e+2, -1250661.8, -1274305.5, -0.10882191, 0.0000143359575, -0.00007124209, -1250661.8, -24701.102, 0.0, 10.000055, 9.968809 
2.8650022e+3, 1.8486461e+2, -1162581.0, -1195715.3, 0.0908036, 0.000014284892, 0.00006916779, -1162581.0, -34254.145, 0.0, 10.000055, 9.956369 
2.8650022e+3, 1.9482102e+2, -1064431.9, -1097828.5, -0.121312946, 0.000014258013, -0.00005530828, -1064431.9, -33677.836, 0.0, 10.000054, 9.956027 
2.8650022e+3, 2.0477076e+2, -976268.3, -1019430.75, 0.08014639, 0.000014212885, 0.00007009494, -976268.3, -43021.695, 0.0, 10.000054, 9.943265 
2.8650022e+3, 2.1471405e+2, -877981.8, -921406.06, -0.12830517, 0.000014147983, -0.00012476982, -877981.8, -42179.59, 0.0, 10.000054, 9.9429245 
2.8650022e+3, 2.2465067e+2, -789696.06, -843141.2, 0.07076254, 0.00001409904, 0.00012286706, -789696.06, -51272.57, 0.0, 10.000054, 9.929883 
2.8650022e+3, 2.345806e+2, -691263.06, -744963.2, -0.1270071, 0.000014068152, -0.00008702676, -691263.06, -50153.074, 0.0, 10.000054, 9.929551 
2.8650022e+3, 2.4450362e+2, -602939.3, -667015.75, 0.0754446, 0.000014035437, 0.00007634734, -602939.3, -59074.77, 0.0, 10.000053, 9.916111 
2.8650022e+3, 2.5441983e+2, -504187.16, -568340.6, -0.12107739, 0.000014000511, -0.00010519987, -504187.16, -57501.67, 0.0, 10.000053, 9.916011 
2.8650022e+3, 2.64329e+2, -415952.1, -490985.53, 0.08064923, 0.000013966754, 0.00014200357, -415952.1, -66376.25, 0.0, 10.000053, 9.901939 
2.8650022e+3, 2.7423146e+2, -316667.3, -391372.78, -0.10806632, 0.000013934474, -0.0002021953, -316667.3, -64135.902, 0.0, 10.000053, 9.90236 
2.8650022e+3, 2.8412578e+2, -230194.22, -318079.25, 0.08396963, 0.0000139059575, 0.0002301691, -230194.22, -74626.586, 0.0, 10.000053, 9.885414 
2.8650022e+3, 2.9401222e+2, -130488.484, -217763.36, -0.090379626, 0.000013882569, -0.00025229732, -130488.484, -71808.19, 0.0, 10.000053, 9.886192 
2.8650022e+3, 3.0392665e+2, -40745.555, -84749.72, 0.10014575, 0.000013857712, 0.00017401675, -40745.555, -40745.555, 0.0, 10.000053, 9.942147 
2.8650022e+3, 3.1387067e+2, -39667.688, -82510.91, -0.069336, 0.000013830645, -0.00005455721, -39667.688, -39667.688, 0.0, 10.000053, 9.943659 
2.8750023e+3, 1.24993905e+2, -1719878.1, -1724219.6, 0.05483457, 0.000015001817, 0.000023024257, -1719878.1, -4818.3735, 0.0, 10.000056, 9.9943 
2.8750023e+3, 1.3498813e+2, -1622498.5, -1627430.5, -0.17057653, 0.000014882442, -0.00007095719, -1622498.5, -5382.062, 0.0, 10.000056, 9.993518 
2.8750023e+3, 1.4497565e+2, -1534397.0, -1548141.0, 0.024554923, 0.000014803024, 0.00007902352, -1534397.0, -15158.301, 0.0, 10.000056, 9.981838 
2.8750023e+3, 1.549575e+2, -1436670.0, -1450817.1, -0.19125512, 0.000014760794, -0.000054006607, -1436670.0, -15253.494, 0.0, 10.000055, 9.981307 
2.8750023e+3, 1.6493273e+2, -1348619.6, -1371948.1, 0.022932153, 0.000014707181, 0.000048469243, -1348619.6, -24960.31, 0.0, 10.000055, 9.969222 
2.8750023e+3, 1.7490198e+2, -1250662.3, -1274306.4, -0.1912869, 0.000014641966, -0.00007119438, -1250662.3, -24701.672, 0.0, 10.000055, 9.968808 
2.8750023e+3, 1.8486461e+2, -1162581.5, -1195716.1, 0.010881057, 0.000014585185, 0.00006921791, -1162581.5, -34254.703, 0.0, 10.000055, 9.956369 
2.8750023e+3, 1.9482103e+2, -1064432.4, -1097829.5, -0.20120943, 0.000014537214, -0.000055270277, -1064432.4, -33678.387, 0.0, 10.000054, 9.956026 
2.8750023e+3, 2.0477077e+2, -976268.75, -1019431.7, 0.013006579, 0.000014491485, 0.00007013617, -976268.75, -43022.23, 0.0, 10.000054, 9.943265 
2.8750023e+3, 2.1471407e+2, -877982.3, -921406.94, -0.19518553, 0.000014448175, -0.00012470875, -877982.3, -42180.117, 0.0, 10.000054, 9.942924 
2.8750023e+3, 2.2465067e+2, -789696.5, -843142.06, 0.011629065, 0.00001440426, 0.00012292982, -789696.5, -51273.074, 0.0, 10.000054, 9.929882 
2.8750023e+3, 2.345806e+2, -691263.5, -744964.0, -0.18589236, 0.000014359642, -0.000086982895, -691263.5, -50153.566, 0.0, 10.000054, 9.929551 
2.8750023e+3, 2.4450362e+2, -602939.75, -667016.6, 0.022828128, 0.000014318606, 0.00007637886, -602939.75, -59075.26, 0.0, 10.000053, 9.91611 
2.8750023e+3, 2.5441983e+2, -504187.6, -568341.5, -0.17339617, 0.000014281842, -0.00010517286, -504187.6, -57502.156, 0.0, 10.000053, 9.916011 
2.8750023e+3, 2.6432902e+2, -415952.53, -490986.4, 0.039215025, 0.000014250029, 0.00014203083, -415952.53, -66376.73, 0.0, 10.000053, 9.901939 
2.8750023e+3, 2.7423146e+2, -316667.75, -391373.63, -0.14877512, 0.000014224496, -0.00020216177, -316667.75, -64136.363, 0.0, 10.000053, 9.902359 
2.8750023e+3, 2.8412578e+2, -230194.63, -318080.1, 0.051096097, 0.000014198168, 0.00023020392, -230194.63, -74627.03, 0.0, 10.000053, 9.885413 
2.8750023e+3, 2.9401222e+2, -130488.88, -217764.17, -0.12255258, 0.000014170705, -0.00025226802, -130488.88, -71808.62, 0.0, 10.000053, 9.886192 
2.8750023e+3, 3.0392665e+2, -40745.957, -84750.555, 0.07608569, 0.000014142451, 0.00017403447, -40745.957, -40745.957, 0.0, 10.000053, 9.942147 
2.8750023e+3, 3.1387067e+2, -39668.094, -82511.76, -0.092447765, 0.000014113051, -0.00005455993, -39668.094, -39668.094, 0.0, 10.000053, 9.943658 
2.8850025e+3, 1.2499391e+2, -1719874.6, -1724218.4, 0.16270584, 0.000015319692, 0.000023142169, -1719874.6, -4814.9165, 0.0, 10.000059, 9.9943 
2.8850025e+3, 1.3498813e+2, -1622494.9, -1627429.3, -0.065074876, 0.0000151822815, -0.00007104941, -1622494.9, -5378.592, 0.0, 10.000058, 9.993517 
2.8850025e+3, 1.4497566e+2, -1534393.4, -1548139.8, 0.1292315, 0.000015096865, 0.00007921304, -1534393.4, -15154.837, 0.0, 10.000058, 9.981837 
2.8850025e+3, 1.5495752e+2, -1436666.5, -1450816.0, -0.10173625, 0.000015060702, -0.000053947057, -1436666.5, -15250.071, 0.0, 10.000058, 9.981306 
2.8850025e+3, 1.6493274e+2, -1348616.1, -1371946.9, 0.109871045, 0.000015011697, 0.000048482696, -1348616.1, -24956.918, 0.0, 10.000058, 9.969221 
2.8850025e+3, 1.7490199e+2, -1250658.8, -1274305.3, -0.11277227, 0.000014949601, -0.000071141345, -1250658.8, -24698.326, 0.0, 10.000057, 9.968807 
2.8850025e+3, 1.8486463e+2, -1162578.1, -1195715.0, 0.09002766, 0.000014888665, 0.00006928341, -1162578.1, -34251.375, 0.0, 10.000057, 9.956368 
2.8850025e+3, 1.9482103e+2, -1064429.0, -1097828.4, -0.13063888, 0.000014828923, -0.000055220695, -1064429.0, -33675.05, 0.0, 10.000057, 9.956026 
2.8850025e+3, 2.0477077e+2, -976265.4, -1019430.56, 0.082424365, 0.000014781721, 0.000070176844, -976265.4, -43018.91, 0.0, 10.000057, 9.943264 
2.8850025e+3, 2.1471407e+2, -877978.94, -921405.9, -0.13209346, 0.000014748092, -0.00012466939, -877978.94, -42176.84, 0.0, 10.000057, 9.942924 
2.8850025e+3, 2.2465068e+2, -789693.2, -843141.0, 0.07604209, 0.000014706682, 0.00012296946, -789693.2, -51269.83, 0.0, 10.000056, 9.929881 
2.8850025e+3, 2.3458062e+2, -691260.2, -744963.0, -0.13550358, 0.0000146564425, -0.00008694115, -691260.2, -50150.34, 0.0, 10.000056, 9.92955 
2.8850025e+3, 2.4450363e+2, -602936.5, -667015.6, 0.07102783, 0.000014611242, 0.000076418655, -602936.5, -59072.043, 0.0, 10.000056, 9.91611 
2.8850025e+3, 2.5441986e+2, -504184.34, -568340.5, -0.13001704, 0.000014572054, -0.00010513985, -504184.34, -57498.945, 0.0, 10.000056, 9.91601 
2.8850025e+3, 2.6432902e+2, -415949.28, -490985.44, 0.08428866, 0.000014540585, 0.00014205884, -415949.28, -66373.53, 0.0, 10.000056, 9.901938 
2.8850025e+3, 2.742315e+2, -316664.53, -391372.7, -0.11100273, 0.000014518909, -0.00020213643, -316664.53, -64133.203, 0.0, 10.000056, 9.902359 
2.8850025e+3, 2.8412578e+2, -230191.44, -318079.16, 0.089010075, 0.000014493201, 0.00023022787, -230191.44, -74623.88, 0.0, 10.000056, 9.885413 
2.8850025e+3, 2.9401222e+2, -130485.73, -217763.27, -0.09680175, 0.000014461912, -0.00025224368, -130485.73, -71805.484, 0.0, 10.000055, 9.886191 
2.8850025e+3, 3.0392665e+2, -40742.844, -84749.695, 0.09933021, 0.00001443174, 0.00017405611, -40742.844, -40742.844, 0.0, 10.000055, 9.942146 
2.8850022e+3, 3.1387067e+2, -39664.98, -82510.9, -0.07509961, 0.0000144032965, -0.000054545613, -39664.98, -39664.98, 0.0, 10.000055, 9.943658 
2.8950024e+3, 1.2499393e+2, -1719875.1, -1724219.4, 0.06287696, 0.000015651292, 0.00002325416, -1719875.1, -4815.572, 0.0, 10.000059, 9.994299 
2.8950024e+3, 1.3498814e+2, -1622495.4, -1627430.3, -0.16492112, 0.000015483238, -0.000071123526, -1622495.4, -5379.236, 0.0, 10.000058, 9.993516 
2.8950024e+3, 1.4497566e+2, -1534394.0, -1548140.8, 0.030328799, 0.000015389372, 0.00007942402, -1534394.0, -15155.481, 0.0, 10.000058, 9.981837 
2.8950024e+3, 1.5495752e+2, -1436667.0, -1450817.0, -0.20063557, 0.000015367057, -0.00005389987, -1436667.0, -15250.703, 0.0, 10.000058, 9.981305 
2.8950024e+3, 1.6493274e+2, -1348616.6, -1371947.9, 0.019238394, 0.000015323694, 0.000048478203, -1348616.6, -24957.523, 0.0, 10.000058, 9.969221 
2.8950024e+3, 1.74902e+2, -1250659.3, -1274306.1, -0.20336415, 0.00001525886, -0.000071083, -1250659.3, -24698.92, 0.0, 10.000057, 9.968807 
2.8950024e+3, 1.8486464e+2, -1162578.6, -1195716.0, 0.01451329, 0.00001519533, 0.000069364265, -1162578.6, -34251.957, 0.0, 10.000057, 9.956368 
2.8950024e+3, 1.9482104e+2, -1064429.4, -1097829.3, -0.20598261, 0.000015133129, -0.000055159548, -1064429.4, -33675.62, 0.0, 10.000057, 9.956025 
2.8950024e+3, 2.0477079e+2, -976265.8, -1019431.5, 0.0065197963, 0.000015083586, 0.00007021695, -976265.8, -43019.465, 0.0, 10.000057, 9.943263 
2.8950024e+3, 2.1471408e+2, -877979.4, -921406.8, -0.20801511, 0.000015047739, -0.00012465175, -877979.4, -42177.387, 0.0, 10.000057, 9.942923 
2.8950024e+3, 2.2465068e+2, -789693.6, -843141.94, 0.014682067, 0.000015006313, 0.00012298599, -789693.6, -51270.363, 0.0, 10.000056, 9.929881 
2.8950024e+3, 2.3458062e+2, -691260.7, -744963.94, -0.19639191, 0.000014958554, -0.00008690153, -691260.7, -50150.867, 0.0, 10.000056, 9.92955 
2.8950024e+3, 2.4450363e+2, -602936.94, -667016.5, 0.019337628, 0.000014913336, 0.00007646672, -602936.94, -59072.55, 0.0, 10.000056, 9.916109 
2.8950024e+3, 2.5441986e+2, -504184.78, -568341.4, -0.18127002, 0.000014871145, -0.000105100844, -504184.78, -57499.44, 0.0, 10.000056, 9.916009 
2.8950024e+3, 2.6432902e+2, -415949.72, -490986.3, 0.037695423, 0.000014838418, 0.00014208764, -415949.72, -66374.02, 0.0, 10.000056, 9.901938 
2.8950024e+3, 2.742315e+2, -316664.97, -391373.6, -0.15728758, 0.000014817711, -0.0002021193, -316664.97, -64133.684, 0.0, 10.000056, 9.902358 
2.8950024e+3, 2.8412578e+2, -230191.88, -318080.03, 0.054687534, 0.000014791057, 0.00023024096, -230191.88, -74624.35, 0.0, 10.000056, 9.885412 
2.8950024e+3, 2.9401222e+2, -130486.15, -217764.14, -0.13005066, 0.00001475619, -0.00025222424, -130486.15, -71805.945, 0.0, 10.000055, 9.88619 
2.8950024e+3, 3.0392665e+2, -40743.26, -84750.57, 0.07525431, 0.000014725577, 0.0001740817, -40743.26, -40743.26, 0.0, 10.000055, 9.942145 
2.8950024e+3, 3.1387067e+2, -39665.4, -82511.77, -0.09810461, 0.000014701377, -0.000054514272, -39665.4, -39665.4, 0.0, 10.000055, 9.943657 
2.9050028e+3, 1.2499394e+2, -1719871.4, -1724218.0, 0.17323834, 0.000015968339, 0.000023376308, -1719871.4, -4811.9346, 0.0, 10.000062, 9.994298 
2.9050028e+3, 1.3498816e+2, -1622491.8, -1627429.0, -0.075171895, 0.000015800624, -0.000071203955, -1622491.8, -5375.6416, 0.0, 10.000061, 9.993516 
2.9050025e+3, 1.4497568e+2, -1534390.3, -1548139.5, 0.115346305, 0.000015705831, 0.00007963317, -1534390.3, -15151.899, 0.0, 10.000061, 9.981836 
2.9050025e+3, 1.5495753e+2, -1436663.4, -1450815.8, -0.11056018, 0.000015681262, -0.000053844476, -1436663.4, -15247.147, 0.0, 10.000061, 9.981305 
2.9050025e+3, 1.6493276e+2, -1348613.0, -1371946.6, 0.113721006, 0.000015634892, 0.000048482358, -1348613.0, -24953.992, 0.0, 10.00006, 9.96922 
2.9050025e+3, 1.7490202e+2, -1250655.6, -1274305.0, -0.12542208, 0.000015566282, -0.0000710253, -1250655.6, -24695.406, 0.0, 10.00006, 9.968806 
2.9050025e+3, 1.8486464e+2, -1162575.0, -1195714.8, 0.09153923, 0.000015504549, 0.000069437425, -1162575.0, -34248.465, 0.0, 10.00006, 9.9563675 
2.9050025e+3, 1.9482104e+2, -1064425.9, -1097828.1, -0.13477336, 0.000015449968, -0.000055110762, -1064425.9, -33672.188, 0.0, 10.00006, 9.956024 
2.9050025e+3, 2.0477079e+2, -976262.3, -1019430.4, 0.07760285, 0.000015398597, 0.00007025553, -976262.3, -43016.047, 0.0, 10.000059, 9.943263 
2.9050025e+3, 2.147141e+2, -877975.9, -921405.7, -0.14613698, 0.000015350683, -0.00012460799, -877975.9, -42173.965, 0.0, 10.000059, 9.942922 
2.9050025e+3, 2.246507e+2, -789690.1, -843140.9, 0.07756587, 0.000015305699, 0.00012302984, -789690.1, -51266.95, 0.0, 10.000059, 9.92988 
2.9050025e+3, 2.3458064e+2, -691257.2, -744962.9, -0.14159177, 0.000015264019, -0.000086863365, -691257.2, -50147.49, 0.0, 10.000059, 9.929549 
2.9050025e+3, 2.4450363e+2, -602933.5, -667015.44, 0.07377675, 0.000015221743, 0.00007650176, -602933.5, -59069.195, 0.0, 10.000059, 9.916109 
2.9050025e+3, 2.5441986e+2, -504181.4, -568340.4, -0.13785636, 0.000015178737, -0.00010506587, -504181.4, -57496.12, 0.0, 10.000059, 9.916009 
2.9050025e+3, 2.6432902e+2, -415946.38, -490985.34, 0.07992836, 0.000015143843, 0.00014212079, -415946.38, -66370.72, 0.0, 10.000058, 9.9019375 
2.9050025e+3, 2.742315e+2, -316661.63, -391372.63, -0.12193399, 0.000015119254, -0.00020209022, -316661.63, -64130.387, 0.0, 10.000058, 9.902357 
2.9050025e+3, 2.8412578e+2, -230188.53, -318079.06, 0.093104824, 0.000015090961, 0.0002302666, -230188.53, -74621.055, 0.0, 10.000058, 9.885411 
2.9050025e+3, 2.9401225e+2, -130482.84, -217763.19, -0.097695716, 0.000015057534, -0.00025220116, -130482.84, -71802.67, 0.0, 10.000058, 9.88619 
2.9050025e+3, 3.0392665e+2, -40740.016, -84749.68, 0.105739966, 0.000015027105, 0.00017410329, -40740.016, -40740.016, 0.0, 10.000058, 9.942145 
2.9050025e+3, 3.1387067e+2, -39662.164, -82510.89, -0.08153768, 0.000015001195, -0.000054492502, -39662.164, -39662.164, 0.0, 10.000058, 9.943656 
2.9150027e+3, 1.2499396e+2, -1719871.9, -1724219.1, 0.06655312, 0.00001627084, 0.000023509683, -1719871.9, -4812.643, 0.0, 10.000062, 9.994298 
2.9150027e+3, 1.3498817e+2, -1622492.3, -1627430.0, -0.18187179, 0.000016134425, -0.000071290706, -1622492.3, -5376.3374, 0.0, 10.000061, 9.993515 
2.9150027e+3, 1.4497569e+2, -1534390.8, -1548140.5, 0.013002783, 0.00001604622, 0.00007984051, -1534390.8, -15152.537, 0.0, 10.000061, 9.981836 
2.9150027e+3, 1.5495755e+2, -1436663.9, -1450816.6, -0.21290374, 0.000016003312, -0.000053780892, -1436663.9, -15247.772, 0.0, 10.000061, 9.981304 
2.9150027e+3, 1.6493277e+2, -1348613.5, -1371947.6, 0.02234054, 0.00001594529, 0.00004849515, -1348613.5, -24954.639, 0.0, 10.00006, 9.969219 
2.9150027e+3, 1.7490202e+2, -1250656.3, -1274306.0, -0.21674739, 0.000015871869, -0.000070968264, -1250656.3, -24696.04, 0.0, 10.00006, 9.968805 
2.9150027e+3, 1.8486466e+2, -1162575.5, -1195715.8, 0.005302124, 0.000015816322, 0.0000695029, -1162575.5, -34249.066, 0.0, 10.00006, 9.956367 
2.9150024e+3, 1.9482106e+2, -1064426.4, -1097829.1, -0.22095712, 0.000015779435, -0.000055074335, -1064426.4, -33672.773, 0.0, 10.00006, 9.956024 
2.9150024e+3, 2.047708e+2, -976262.8, -1019431.3, 0.0061165807, 0.000015726742, 0.00007029259, -976262.8, -43016.63, 0.0, 10.000059, 9.943262 
2.9150024e+3, 2.147141e+2, -877976.4, -921406.6, -0.21732521, 0.000015656922, -0.00012453816, -877976.4, -42174.53, 0.0, 10.000059, 9.942922 
2.9150024e+3, 2.246507e+2, -789690.6, -843141.8, 0.010963629, 0.000015604843, 0.00012310094, -789690.6, -51267.508, 0.0, 10.000059, 9.92988 
2.9150024e+3, 2.3458064e+2, -691257.7, -744963.8, -0.20804708, 0.000015572836, -0.00008682666, -691257.7, -50148.035, 0.0, 10.000059, 9.929548 
2.9150024e+3, 2.4450365e+2, -602934.0, -667016.4, 0.016374264, 0.00001553646, 0.00007652379, -602934.0, -59069.73, 0.0, 10.000059, 9.916108 
2.9150024e+3, 2.5441986e+2, -504181.84, -568341.3, -0.19482829, 0.000015494827, -0.000105034924, -504181.84, -57496.645, 0.0, 10.000059, 9.916008 
2.9150024e+3, 2.6432902e+2, -415946.84, -490986.25, 0.034783933, 0.000015456857, 0.00014215829, -415946.84, -66371.23, 0.0, 10.000058, 9.901937 
2.9150024e+3, 2.742315e+2, -316662.1, -391373.53, -0.16629119, 0.000015423539, -0.00020204922, -316662.1, -64130.883, 0.0, 10.000058, 9.902357 
2.9150024e+3, 2.8412578e+2, -230188.98, -318079.97, 0.05682393, 0.000015392918, 0.00023030478, -230188.98, -74621.54, 0.0, 10.000058, 9.885411 
2.9150024e+3, 2.9401225e+2, -130483.27, -217764.1, -0.13325343, 0.000015365944, -0.00025217448, -130483.27, -71803.14, 0.0, 10.000058, 9.886189 
2.9150024e+3, 3.0392665e+2, -40740.46, -84750.61, 0.07902647, 0.00001533632, 0.00017412094, -40740.46, -40740.46, 0.0, 10.000058, 9.942144 
2.9150024e+3, 3.1387067e+2, -39662.613, -82511.82, -0.10721585, 0.000015302749, -0.00005448029, -39662.613, -39662.613, 0.0, 10.000058, 9.943656 
2.9250026e+3, 1.2499397e+2, -1719868.0, -1724217.8, 0.17937708, 0.000016590007, 0.00002364081, -1719868.0, -4808.8354, 0.0, 10.000064, 9.994297 
2.9250026e+3, 1.3498819e+2, -1622488.4, -1627428.8, -0.06740891, 0.000016469077, -0.00007139098, -1622488.4, -5372.6074, 0.0, 10.000064, 9.993514 
2.9250026e+3, 1.449757e+2, -1534386.9, -1548139.1, 0.12993455, 0.000016382952, 0.00008004609, -1534386.9, -15148.825, 0.0, 10.000064, 9.981835 
2.9250026e+3, 1.5495756e+2, -1436660.0, -1450815.4, -0.11809681, 0.000016328559, -0.000053713735, -1436660.0, -15244.07, 0.0, 10.000064, 9.981303 
2.9250026e+3, 1.6493279e+2, -1348609.8, -1371946.4, 0.11404672, 0.000016265712, 0.000048510654, -1348609.8, -24950.959, 0.0, 10.000063, 9.969219 
2.9250026e+3, 1.7490204e+2, -1250652.5, -1274304.8, -0.12598827, 0.000016194268, -0.000070915725, -1250652.5, -24692.395, 0.0, 10.000063, 9.968805 
2.9250026e+3, 1.8486467e+2, -1162571.8, -1195714.5, 0.094850786, 0.000016139047, 0.00006956764, -1162571.8, -34245.438, 0.0, 10.000063, 9.956367 
2.9250026e+3, 1.9482107e+2, -1064422.8, -1097827.9, -0.14573886, 0.000016100768, -0.00005502337, -1064422.8, -33669.17, 0.0, 10.000062, 9.956023 
2.9250026e+3, 2.0477082e+2, -976259.1, -1019430.2, 0.08284305, 0.000016046615, 0.00007033864, -976259.1, -43013.047, 0.0, 10.000062, 9.943262 
2.9250026e+3, 2.1471411e+2, -877972.75, -921405.5, -0.15269889, 0.000015975265, -0.00012448741, -877972.75, -42170.98, 0.0, 10.000062, 9.942921 
2.9250026e+3, 2.2465071e+2, -789687.0, -843140.7, 0.07091411, 0.000015922547, 0.00012314942, -789687.0, -51263.977, 0.0, 10.000062, 9.929879 
2.9250026e+3, 2.3458065e+2, -691254.1, -744962.7, -0.15298723, 0.000015890912, -0.00008678833, -691254.1, -50144.535, 0.0, 10.000062, 9.929548 
2.9250026e+3, 2.4450365e+2, -602930.44, -667015.3, 0.076517306, 0.000015853664, 0.00007655691, -602930.44, -59066.246, 0.0, 10.000061, 9.916107 
2.9250026e+3, 2.5441986e+2, -504178.3, -568340.25, -0.14341393, 0.000015809681, -0.000105001105, -504178.3, -57493.17, 0.0, 10.000061, 9.916008 
2.9250026e+3, 2.6432902e+2, -415943.3, -490985.22, 0.084676325, 0.000015770043, 0.00014219187, -415943.3, -66367.766, 0.0, 10.000061, 9.901937 
2.9250026e+3, 2.742315e+2, -316658.6, -391372.5, -0.1300971, 0.000015735937, -0.00020201707, -316658.6, -64127.453, 0.0, 10.000061, 9.902356 
2.9250026e+3, 2.8412578e+2, -230185.52, -318078.97, 0.08913603, 0.000015705384, 0.0002303356, -230185.52, -74618.12, 0.0, 10.000061, 9.88541 
2.9250026e+3, 2.9401225e+2, -130479.85, -217763.11, -0.10995238, 0.000015679645, -0.00025214485, -130479.85, -71799.75, 0.0, 10.000061, 9.8861885 
2.9250026e+3, 3.0392665e+2, -40737.09, -84749.68, 0.105893016, 0.000015649619, 0.00017414482, -40737.09, -40737.09, 0.0, 10.000061, 9.942143 
2.9250026e+3, 3.1387067e+2, -39659.24, -82510.9, -0.081762716, 0.000015613205, -0.00005446889, -39659.24, -39659.24, 0.0, 10.000061, 9.943655 
2.9350027e+3, 1.2499398e+2, -1719868.5, -1724218.8, 0.057929143, 0.000016925815, 0.00002376915, -1719868.5, -4809.546, 0.0, 10.000064, 9.994296 
2.9350027e+3, 1.349882e+2, -1622489.0, -1627429.8, -0.18887533, 0.00001680458, -0.00007150477, -1622489.0, -5373.3057, 0.0, 10.000064, 9.993514 
2.9350027e+3, 1.4497572e+2, -1534387.5, -1548140.3, 0.028475573, 0.000016716032, 0.00008024991, -1534387.5, -15149.519, 0.0, 10.000064, 9.981834 
2.9350027e+3, 1.5495758e+2, -1436660.5, -1450816.4, -0.2195286, 0.000016657, -0.000053643005, -1436660.5, -15244.75, 0.0, 10.000064, 9.981303 
2.9350027e+3, 1.6493279e+2, -1348610.3, -1371947.5, 0.017921051, 0.000016596148, 0.00004852888, -1348610.3, -24951.613, 0.0, 10.000063, 9.969218 
2.9350027e+3, 1.7490205e+2, -1250653.0, -1274305.8, -0.22209452, 0.000016533462, -0.000070867674, -1250653.0, -24693.035, 0.0, 10.000063, 9.968804 
2.9350027e+3, 1.8486467e+2, -1162572.3, -1195715.6, 0.005403784, 0.000016472717, 0.000069631664, -1162572.3, -34246.074, 0.0, 10.000063, 9.956366 
2.9350027e+3, 1.9482107e+2, -1064423.3, -1097829.0, -0.2351124, 0.00001641398, -0.00005495789, -1064423.3, -33669.797, 0.0, 10.000062, 9.956022 
2.9350027e+3, 2.0477082e+2, -976259.7, -1019431.2, 0.00787884, 0.000016358228, 0.00007039367, -976259.7, -43013.656, 0.0, 10.000062, 9.943261 
2.9350027e+3, 2.1471411e+2, -877973.25, -921406.5, -0.22736736, 0.000016305703, -0.00012445572, -877973.25, -42171.574, 0.0, 10.000062, 9.94292 
2.9350027e+3, 2.2465071e+2, -789687.5, -843141.6, -0.000494126, 0.000016258798, 0.00012317533, -789687.5, -51264.547, 0.0, 10.000062, 9.929878 
2.9350027e+3, 2.3458065e+2, -691254.6, -744963.7, -0.22429395, 0.000016218237, -0.000086748376, -691254.6, -50145.094, 0.0, 10.000062, 9.929547 
2.9350027e+3, 2.4450366e+2, -602930.94, -667016.3, 0.019595386, 0.000016173357, 0.00007660111, -602930.94, -59066.8, 0.0, 10.000061, 9.916107 
2.9350027e+3, 2.544199e+2, -504178.8, -568341.25, -0.19964978, 0.000016123302, -0.00010496441, -504178.8, -57493.71, 0.0, 10.000061, 9.916007 
2.9350027e+3, 2.6432905e+2, -415943.8, -490986.2, 0.03601246, 0.00001608341, 0.00014222156, -415943.8, -66368.305, 0.0, 10.000061, 9.901936 
2.9350027e+3, 2.742315e+2, -316659.1, -391373.47, -0.17825554, 0.000016056447, -0.00020199375, -316659.1, -64127.977, 0.0, 10.000061, 9.902355 
2.9350027e+3, 2.8412578e+2, -230185.98, -318079.9, 0.049430076, 0.000016028353, 0.00023035906, -230185.98, -74618.625, 0.0, 10.000061, 9.885409 
2.9350027e+3, 2.9401225e+2, -130480.305, -217764.05, -0.14890163, 0.000015998634, -0.0002521123, -130480.305, -71800.24, 0.0, 10.000061, 9.8861885 
2.9350027e+3, 3.0392665e+2, -40737.543, -84750.625, 0.080251746, 0.000015967, 0.00017417493, -40737.543, -40737.543, 0.0, 10.000061, 9.942143 
2.9350027e+3, 3.1387067e+2, -39659.69, -82511.836, -0.1058475, 0.000015932555, -0.000054458294, -39659.69, -39659.69, 0.0, 10.000061, 9.943654 
2.945003e+3, 1.24993995e+2, -1719864.5, -1724217.4, 0.18356113, 0.000017276876, 0.000023899556, -1719864.5, -4805.643, 0.0, 10.000067, 9.994295 
2.945003e+3, 1.3498822e+2, -1622484.9, -1627428.4, -0.08320046, 0.000017140124, -0.00007161308, -1622484.9, -5369.387, 0.0, 10.000067, 9.993513 
2.945003e+3, 1.4497574e+2, -1534383.5, -1548138.9, 0.13371134, 0.000017046947, 0.00008046648, -1534383.5, -15145.605, 0.0, 10.000067, 9.981833 
2.9450026e+3, 1.5495758e+2, -1436656.6, -1450815.1, -0.11892663, 0.000016994154, -0.00005357794, -1436656.6, -15240.894, 0.0, 10.000066, 9.981302 
2.9450026e+3, 1.649328e+2, -1348606.4, -1371946.1, 0.11663208, 0.00001693643, 0.000048540765, -1348606.4, -24947.795, 0.0, 10.000066, 9.969217 
2.9450026e+3, 1.7490205e+2, -1250649.1, -1274304.5, -0.13884808, 0.000016873695, -0.00007080854, -1250649.1, -24689.256, 0.0, 10.000066, 9.968803 
2.9450026e+3, 1.8486468e+2, -1162568.4, -1195714.4, 0.08817606, 0.000016807526, 0.00006970598, -1162568.4, -34242.305, 0.0, 10.000066, 9.956365 
2.9450026e+3, 1.9482109e+2, -1064419.4, -1097827.8, -0.16029426, 0.00001673775, -0.00005490195, -1064419.4, -33666.027, 0.0, 10.000065, 9.956022 
2.9450026e+3, 2.0477083e+2, -976255.8, -1019429.94, 0.08248802, 0.000016682632, 0.00007043926, -976255.8, -43009.91, 0.0, 10.000065, 9.94326 
2.9450026e+3, 2.1471412e+2, -877969.5, -921405.3, -0.15803808, 0.000016643386, -0.00012441177, -877969.5, -42167.9, 0.0, 10.000065, 9.94292 
2.9450026e+3, 2.2465073e+2, -789683.75, -843140.5, 0.07174213, 0.000016597578, 0.00012321828, -789683.75, -51260.895, 0.0, 10.000065, 9.929878 
2.9450026e+3, 2.3458067e+2, -691250.9, -744962.5, -0.16583323, 0.000016544325, -0.00008670562, -691250.9, -50141.438, 0.0, 10.000065, 9.929546 
2.9450026e+3, 2.4450366e+2, -602927.25, -667015.2, 0.0745547, 0.000016494536, 0.00007664307, -602927.25, -59063.156, 0.0, 10.000064, 9.916106 
2.9450026e+3, 2.544199e+2, -504175.16, -568340.1, -0.15591364, 0.000016448883, -0.000104923914, -504175.16, -57490.105, 0.0, 10.000064, 9.916006 
2.9450026e+3, 2.6432905e+2, -415940.16, -490985.1, 0.08210515, 0.00001641101, 0.00014225746, -415940.16, -66364.72, 0.0, 10.000064, 9.901935 
2.9450026e+3, 2.7423152e+2, -316655.47, -391372.44, -0.13324685, 0.000016383012, -0.00020196638, -316655.47, -64124.418, 0.0, 10.000064, 9.902355 
2.9450026e+3, 2.841258e+2, -230182.39, -318078.88, 0.09902595, 0.000016353335, 0.00023038163, -230182.39, -74615.07, 0.0, 10.000064, 9.885409 
2.9450026e+3, 2.9401225e+2, -130476.73, -217763.02, -0.10912768, 0.000016321297, -0.00025208938, -130476.73, -71796.7, 0.0, 10.000064, 9.886188 
2.9450026e+3, 3.0392665e+2, -40734.023, -84749.66, 0.11718993, 0.000016289443, 0.00017419655, -40734.023, -40734.023, 0.0, 10.000064, 9.9421425 
2.9450026e+3, 3.1387067e+2, -39656.2, -82510.88, -0.08259876, 0.0000162579, -0.000054440523, -39656.2, -39656.2, 0.0, 10.000063, 9.943654 
2.9550028e+3, 1.2499401e+2, -1719865.1, -1724218.5, 0.06913178, 0.000017643182, 0.000024032794, -1719865.1, -4806.4063, 0.0, 10.000067, 9.994295 
2.9550028e+3, 1.3498823e+2, -1622485.5, -1627429.5, -0.19764185, 0.000017475717, -0.000071715935, -1622485.5, -5370.1367, 0.0, 10.000067, 9.993512 
2.9550028e+3, 1.4497575e+2, -1534384.0, -1548139.9, 0.022107212, 0.000017375702, 0.0000806958, -1534384.0, -15146.315, 0.0, 10.000067, 9.981833 
2.9550028e+3, 1.5495759e+2, -1436657.1, -1450816.1, -0.2305332, 0.000017340015, -0.000053518528, -1436657.1, -15241.589, 0.0, 10.000066, 9.981301 
2.9550028e+3, 1.6493282e+2, -1348606.9, -1371947.3, 0.015006879, 0.000017286553, 0.000048546324, -1348606.9, -24948.486, 0.0, 10.000066, 9.969217 
2.9550028e+3, 1.7490207e+2, -1250649.6, -1274305.6, -0.24042705, 0.000017214968, -0.00007073834, -1250649.6, -24689.936, 0.0, 10.000066, 9.968803 
2.9550028e+3, 1.848647e+2, -1162569.0, -1195715.4, 0.0018818952, 0.000017143477, 0.000069790585, -1162569.0, -34242.96, 0.0, 10.000066, 9.956365 
2.9550028e+3, 1.948211e+2, -1064419.9, -1097828.8, -0.24641621, 0.000017072069, -0.000054855536, -1064419.9, -33666.67, 0.0, 10.000065, 9.956021 
2.9550028e+3, 2.0477085e+2, -976256.4, -1019431.0, -0.00565806, 0.00001701982, 0.00007047543, -976256.4, -43010.535, 0.0, 10.000065, 9.943259 
2.9550028e+3, 2.1471412e+2, -877970.0, -921406.3, -0.24623077, 0.000016988308, -0.0001243556, -877970.0, -42168.51, 0.0, 10.000065, 9.942919 
2.9550028e+3, 2.2465074e+2, -789684.3, -843141.5, 0.0043623303, 0.00001693889, 0.0001232783, -789684.3, -51261.5, 0.0, 10.000065, 9.929877 
2.9550028e+3, 2.3458067e+2, -691251.4, -744963.56, -0.2325376, 0.00001686918, -0.00008666009, -691251.4, -50142.03, 0.0, 10.000065, 9.929546 
2.9550028e+3, 2.4450368e+2, -602927.75, -667016.2, 0.011881108, 0.000016817203, 0.0000766828, -602927.75, -59063.734, 0.0, 10.000064, 9.916105 
2.9550028e+3, 2.544199e+2, -504175.66, -568341.1, -0.21839626, 0.000016786413, -0.00010487962, -504175.66, -57490.676, 0.0, 10.000064, 9.916006 
2.9550028e+3, 2.6432905e+2, -415940.66, -490986.1, 0.030766975, 0.00001675283, 0.0001422996, -415940.66, -66365.266, 0.0, 10.000064, 9.901935 
2.9550028e+3, 2.7423152e+2, -316655.97, -391373.4, -0.18384473, 0.00001671563, -0.00020193498, -316655.97, -64124.945, 0.0, 10.000064, 9.902354 
2.9550028e+3, 2.841258e+2, -230182.86, -318079.84, 0.0594697, 0.000016680333, 0.00023040333, -230182.86, -74615.59, 0.0, 10.000064, 9.885408 
2.9550028e+3, 2.9401225e+2, -130477.2, -217764.0, -0.14769296, 0.000016647637, -0.00025207602, -130477.2, -71797.21, 0.0, 10.000064, 9.886187 
2.9550028e+3, 3.0392665e+2, -40734.5, -84750.65, 0.0860606, 0.000016616947, 0.0001742097, -40734.5, -40734.5, 0.0, 10.000064, 9.942142 
2.9550028e+3, 3.1387067e+2, -39656.68, -82511.88, -0.11285948, 0.000016589234, -0.000054415574, -39656.68, -39656.68, 0.0, 10.000063, 9.943653 
2.965003e+3, 1.24994025e+2, -1719860.9, -1724217.1, 0.18727084, 0.000018002453, 0.000024174378, -1719860.9, -4802.309, 0.0, 10.000071, 9.994294 
2.965003e+3, 1.3498823e+2, -1622481.4, -1627428.1, -0.080930375, 0.000017826256, -0.00007182447, -1622481.4, -5366.078, 0.0, 10.00007, 9.993512 
2.965003e+3, 1.4497577e+2, -1534379.9, -1548138.5, 0.13549654, 0.000017723483, 0.00008092815, -1534379.9, -15142.272, 0.0, 10.00007, 9.9818325 
2.965003e+3, 1.549576e+2, -1436653.0, -1450814.8, -0.13067305, 0.000017690978, -0.000053451462, -1436653.0, -15237.576, 0.0, 10.00007, 9.981301 
2.965003e+3, 1.6493283e+2, -1348602.8, -1371945.9, 0.11499462, 0.000017635712, 0.000048555983, -1348602.8, -24944.498, 0.0, 10.000069, 9.969216 
2.965003e+3, 1.7490208e+2, -1250645.5, -1274304.3, -0.1493164, 0.000017557231, -0.0000706759, -1250645.5, -24685.97, 0.0, 10.000069, 9.968802 
2.965003e+3, 1.848647e+2, -1162564.9, -1195714.0, 0.095359586, 0.000017486504, 0.00006986844, -1162564.9, -34239.023, 0.0, 10.000069, 9.956364 
2.965003e+3, 1.948211e+2, -1064415.9, -1097827.5, -0.16074848, 0.000017423876, -0.000054801363, -1064415.9, -33662.8, 0.0, 10.000068, 9.95602 
2.965003e+3, 2.0477085e+2, -976252.4, -1019429.7, 0.07623115, 0.00001737047, 0.000070519105, -976252.4, -43006.684, 0.0, 10.000068, 9.943259 
2.965003e+3, 2.1471414e+2, -877966.06, -921405.06, -0.17786132, 0.000017327045, -0.00012430812, -877966.06, -42164.652, 0.0, 10.000068, 9.942918 
2.965003e+3, 2.2465074e+2, -789680.4, -843140.3, 0.075201765, 0.000017273462, 0.0001233276, -789680.4, -51257.652, 0.0, 10.000068, 9.929876 
2.965003e+3, 2.345807e+2, -691247.5, -744962.4, -0.17212805, 0.000017208366, -0.00008661123, -691247.5, -50138.23, 0.0, 10.000068, 9.929545 
2.965003e+3, 2.4450368e+2, -602923.9, -667015.0, 0.07047975, 0.00001715862, 0.00007672667, -602923.9, -59059.96, 0.0, 10.000067, 9.916105 
2.965003e+3, 2.544199e+2, -504171.84, -568340.0, -0.16428429, 0.000017127211, -0.00010484617, -504171.84, -57486.93, 0.0, 10.000067, 9.916005 
2.965003e+3, 2.6432905e+2, -415936.88, -490984.97, 0.08696097, 0.000017092165, 0.00014232959, -415936.88, -66361.54, 0.0, 10.000067, 9.901934 
2.965003e+3, 2.7423152e+2, -316652.2, -391372.3, -0.14517318, 0.00001705243, -0.00020189956, -316652.2, -64121.24, 0.0, 10.000067, 9.902353 
2.965003e+3, 2.841258e+2, -230179.13, -318078.75, 0.09461306, 0.000017015915, 0.00023043895, -230179.13, -74611.89, 0.0, 10.000067, 9.885407 
2.9650027e+3, 2.9401225e+2, -130473.49, -217762.94, -0.11927591, 0.0000169838, -0.00025204732, -130473.49, -71793.54, 0.0, 10.000067, 9.886187 
2.9650027e+3, 3.0392668e+2, -40730.85, -84749.65, 0.11521129, 0.0000169525, 0.00017423244, -40730.85, -40730.85, 0.0, 10.000066, 9.942142 
2.9650027e+3, 3.1387067e+2, -39653.023, -82510.88, -0.09149952, 0.000016922386, -0.000054397242, -39653.023, -39653.023, 0.0, 10.000066, 9.943652 
2.9750028e+3, 1.2499405e+2, -1719861.5, -1724218.3, 0.0674404, 0.000018354698, 0.000024325136, -1719861.5, -4803.0815, 0.0, 10.000071, 9.994293 
2.9750028e+3, 1.3498825e+2, -1622482.0, -1627429.3, -0.2007803, 0.00001819173, -0.0000719387, -1622482.0, -5366.837, 0.0, 10.00007, 9.993511 
2.9750028e+3, 1.4497577e+2, -1534380.5, -1548139.6, 0.02002977, 0.000018090272, 0.000081163525, -1534380.5, -15143.02, 0.0, 10.00007, 9.981832 
2.9750028e+3, 1.5495762e+2, -1436653.6, -1450815.9, -0.24613675, 0.000018047042, -0.000053376752, -1436653.6, -15238.308, 0.0, 10.00007, 9.9813 
2.9750028e+3, 1.6493285e+2, -1348603.4, -1371947.0, 0.011349684, 0.000017983913, 0.000048569742, -1348603.4, -24945.217, 0.0, 10.000069, 9.969215 
2.9750028e+3, 1.749021e+2, -1250646.1, -1274305.4, -0.252905, 0.000017900486, -0.00007062122, -1250646.1, -24686.674, 0.0, 10.000069, 9.9688015 
2.9750028e+3, 1.8486471e+2, -1162565.5, -1195715.1, -0.0028117336, 0.000017836604, 0.00006993957, -1162565.5, -34239.703, 0.0, 10.000069, 9.956363 
2.9750028e+3, 1.9482112e+2, -1064416.5, -1097828.5, -0.25886378, 0.000017793154, -0.000054739434, -1064416.5, -33663.465, 0.0, 10.000068, 9.95602 
2.9750028e+3, 2.0477086e+2, -976252.94, -1019430.8, -0.006950607, 0.000017734577, 0.00007057029, -976252.94, -43007.344, 0.0, 10.000068, 9.943258 
2.9750028e+3, 2.1471415e+2, -877966.6, -921406.2, -0.26073995, 0.00001765961, -0.00012426933, -877966.6, -42165.297, 0.0, 10.000068, 9.942917 
2.9750028e+3, 2.2465076e+2, -789680.94, -843141.4, 0.00042349953, 0.00001760131, 0.00012336619, -789680.94, -51258.285, 0.0, 10.000068, 9.929875 
2.9750028e+3, 2.345807e+2, -691248.06, -744963.44, -0.2466451, 0.000017561868, -0.000086559055, -691248.06, -50138.848, 0.0, 10.000068, 9.929544 
2.9750028e+3, 2.4450369e+2, -602924.44, -667016.06, 0.0038487385, 0.000017518772, 0.000076774675, -602924.44, -59060.56, 0.0, 10.000067, 9.916104 
2.9750028e+3, 2.544199e+2, -504172.34, -568341.06, -0.2305425, 0.000017471279, -0.00010482356, -504172.34, -57487.51, 0.0, 10.000067, 9.916004 
2.9750028e+3, 2.6432905e+2, -415937.38, -490986.03, 0.03454459, 0.00001742902, 0.00014234745, -415937.38, -66362.12, 0.0, 10.000067, 9.901933 
2.9750028e+3, 2.7423152e+2, -316652.72, -391373.34, -0.19666597, 0.000017393413, -0.00020186015, -316652.72, -64121.81, 0.0, 10.000067, 9.902353 
2.9750028e+3, 2.841258e+2, -230179.61, -318079.78, 0.052137893, 0.000017360073, 0.00023048851, -230179.61, -74612.44, 0.0, 10.000067, 9.885407 
2.9750028e+3, 2.9401225e+2, -130473.98, -217763.94, -0.1609436, 0.000017329785, -0.00025200332, -130473.98, -71794.06, 0.0, 10.000067, 9.886186 
2.9750028e+3, 3.0392668e+2, -40731.348, -84750.68, 0.085227184, 0.000017296097, 0.00017426476, -40731.348, -40731.348, 0.0, 10.000066, 9.942141 
2.9750028e+3, 3.138707e+2, -39653.52, -82511.914, -0.12011652, 0.000017257358, -0.000054385513, -39653.52, -39653.52, 0.0, 10.000066, 9.943652 
2.9850033e+3, 1.2499406e+2, -1719857.0, -1724216.8, 0.2002486, 0.000018718032, 0.000024469102, -1719857.0, -4798.8027, 0.0, 10.000073, 9.994292 
2.9850033e+3, 1.3498826e+2, -1622477.6, -1627427.8, -0.08919535, 0.000018560131, -0.00007205353, -1622477.6, -5362.617, 0.0, 10.0000725, 9.99351 
2.9850033e+3, 1.4497578e+2, -1534376.1, -1548138.1, 0.12771149, 0.00001845768, 0.000081408914, -1534376.1, -15138.815, 0.0, 10.0000725, 9.981832 
2.9850033e+3, 1.5495764e+2, -1436649.3, -1450814.5, -0.14290069, 0.0000184073, -0.00005330481, -1436649.3, -15234.126, 0.0, 10.0000725, 9.981299 
2.9850033e+3, 1.6493286e+2, -1348599.1, -1371945.6, 0.11678478, 0.000018342353, 0.00004857877, -1348599.1, -24941.068, 0.0, 10.000072, 9.969214 
2.985003e+3, 1.7490211e+2, -1250641.9, -1274304.0, -0.15743534, 0.000018262548, -0.00007056218, -1250641.9, -24682.576, 0.0, 10.000072, 9.968801 
2.985003e+3, 1.8486473e+2, -1162561.3, -1195713.8, 0.089699805, 0.000018198823, 0.000070015514, -1162561.3, -34235.625, 0.0, 10.000072, 9.956362 
2.985003e+3, 1.9482113e+2, -1064412.4, -1097827.3, -0.18022002, 0.0000181519, -0.000054681263, -1064412.4, -33659.41, 0.0, 10.000072, 9.956019 
2.985003e+3, 2.0477088e+2, -976248.8, -1019429.5, 0.074271746, 0.000018089526, 0.00007062133, -976248.8, -43003.3, 0.0, 10.000071, 9.943257 
2.985003e+3, 2.1471415e+2, -877962.5, -921404.9, -0.18895754, 0.000018010407, -0.00012421391, -877962.5, -42161.285, 0.0, 10.000071, 9.942917 
2.985003e+3, 2.2465076e+2, -789676.8, -843140.06, 0.07000733, 0.000017952709, 0.00012341862, -789676.8, -51254.3, 0.0, 10.000071, 9.929875 
2.985003e+3, 2.3458071e+2, -691244.06, -744962.2, -0.1834047, 0.000017919247, -0.00008651793, -691244.06, -50134.914, 0.0, 10.000071, 9.9295435 
2.985003e+3, 2.4450369e+2, -602920.44, -667014.8, 0.070220694, 0.000017875742, 0.000076811535, -602920.44, -59056.64, 0.0, 10.00007, 9.916103 
2.985003e+3, 2.5441992e+2, -504168.38, -568339.8, -0.1785642, 0.000017820203, -0.00010478254, -504168.38, -57483.598, 0.0, 10.00007, 9.916003 
2.985003e+3, 2.6432908e+2, -415933.44, -490984.84, 0.08462483, 0.000017774557, 0.00014238762, -415933.44, -66358.23, 0.0, 10.00007, 9.901932 
2.985003e+3, 2.7423152e+2, -316648.8, -391372.22, -0.15399855, 0.000017741511, -0.00020182724, -316648.8, -64117.953, 0.0, 10.00007, 9.902352 
2.985003e+3, 2.841258e+2, -230175.72, -318078.66, 0.096890464, 0.000017709475, 0.00023051821, -230175.72, -74608.59, 0.0, 10.00007, 9.8854065 
2.985003e+3, 2.9401228e+2, -130470.12, -217762.83, -0.126172, 0.000017678745, -0.00025197127, -130470.12, -71790.24, 0.0, 10.00007, 9.886185 
2.985003e+3, 3.0392668e+2, -40727.547, -84749.63, 0.12004011, 0.00001764373, 0.00017429424, -40727.547, -40727.547, 0.0, 10.00007, 9.94214 
2.985003e+3, 3.138707e+2, -39649.74, -82510.88, -0.09308315, 0.000017602368, -0.000054365886, -39649.74, -39649.74, 0.0, 10.000069, 9.943651 
2.9950032e+3, 1.2499408e+2, -1719857.8, -1724218.0, 0.07041159, 0.000019092442, 0.00002460713, -1719857.8, -4799.6304, 0.0, 10.000073, 9.994292 
2.9950032e+3, 1.3498828e+2, -1622478.3, -1627429.0, -0.21904713, 0.000018931463, -0.000072168965, -1622478.3, -5363.4307, 0.0, 10.0000725, 9.993509 
2.9950032e+3, 1.449758e+2, -1534376.8, -1548139.3, 0.010384878, 0.000018825715, 0.00008166429, -1534376.8, -15139.578, 0.0, 10.0000725, 9.981831 
2.9950032e+3, 1.5495765e+2, -1436649.9, -1450815.6, -0.2602158, 0.00001877175, -0.000053235643, -1436649.9, -15234.873, 0.0, 10.0000725, 9.981298 
2.9950032e+3, 1.6493286e+2, -1348599.8, -1371946.8, 0.005440891, 0.000018711024, 0.000048583086, -1348599.8, -24941.813, 0.0, 10.000072, 9.969214 
2.9950032e+3, 1.7490211e+2, -1250642.5, -1274305.1, -0.26875407, 0.0000186434, -0.00007049878, -1250642.5, -24683.307, 0.0, 10.000072, 9.968801 
2.9950032e+3, 1.8486474e+2, -1162561.9, -1195714.9, -0.010038624, 0.000018573151, 0.00007009626, -1162561.9, -34236.34, 0.0, 10.000072, 9.956362 
2.9950032e+3, 1.9482115e+2, -1064412.9, -1097828.4, -0.27983055, 0.000018500134, -0.000054626835, -1064412.9, -33660.11, 0.0, 10.000072, 9.956018 
2.9950032e+3, 2.0477088e+2, -976249.4, -1019430.6, -0.0121095525, 0.000018435332, 0.00007067221, -976249.4, -43003.984, 0.0, 10.000071, 9.943257 
2.9950032e+3, 2.1471417e+2, -877963.06, -921406.0, -0.2750712, 0.00001837942, -0.00012414191, -877963.06, -42161.957, 0.0, 10.000071, 9.942916 
2.9950032e+3, 2.2465077e+2, -789677.4, -843141.2, -0.01292899, 0.000018327633, 0.00012348488, -789677.4, -51254.95, 0.0, 10.000071, 9.929874 
2.9950032e+3, 2.3458071e+2, -691244.56, -744963.3, -0.26624313, 0.0000182805, -0.000086487846, -691244.56, -50135.547, 0.0, 10.000071, 9.9295435 
2.995003e+3, 2.445037e+2, -602921.0, -667015.94, 0.00580379, 0.000018229537, 0.000076837256, -602921.0, -59057.266, 0.0, 10.00007, 9.916102 
2.995003e+3, 2.5441992e+2, -504168.9, -568340.94, -0.24210197, 0.000018173983, -0.000104723134, -504168.9, -57484.21, 0.0, 10.00007, 9.916003 
2.995003e+3, 2.6432908e+2, -415933.97, -490985.94, 0.026758729, 0.000018128774, 0.00014245008, -415933.97, -66358.83, 0.0, 10.00007, 9.901932 
2.995003e+3, 2.7423152e+2, -316649.34, -391373.3, -0.21148793, 0.000018096724, -0.00020180078, -316649.34, -64118.54, 0.0, 10.00007, 9.902351 
2.995003e+3, 2.841258e+2, -230176.23, -318079.72, 0.05245953, 0.00001806412, 0.00023052811, -230176.23, -74609.16, 0.0, 10.00007, 9.885406 
2.995003e+3, 2.9401228e+2, -130470.625, -217763.88, -0.16943328, 0.000018030682, -0.00025195116, -130470.625, -71790.8, 0.0, 10.00007, 9.886185 
2.995003e+3, 3.0392668e+2, -40728.06, -84750.7, 0.08716334, 0.000017995397, 0.00017432091, -40728.06, -40728.06, 0.0, 10.00007, 9.942139 
2.995003e+3, 3.138707e+2, -39650.25, -82511.95, -0.124746785, 0.000017957407, -0.00005433837, -39650.25, -39650.25, 0.0, 10.000069, 9.94365 
3.005003e+3, 1.2499409e+2, -1719853.1, -1724216.4, 0.2020329, 0.000019469853, 0.000024760768, -1719853.1, -4795.1816, 0.0, 10.000076, 9.994291 
3.005003e+3, 1.3498831e+2, -1622473.6, -1627427.5, -0.089844994, 0.000019311192, -0.000072294424, -1622473.6, -5359.0293, 0.0, 10.000076, 9.993508 
3.005003e+3, 1.4497581e+2, -1534372.1, -1548137.8, 0.1430218, 0.000019205529, 0.000081914404, -1534372.1, -15135.195, 0.0, 10.000075, 9.98183 
3.005003e+3, 1.5495767e+2, -1436645.4, -1450814.1, -0.14474836, 0.000019149333, -0.000053164575, -1436645.4, -15230.536, 0.0, 10.000075, 9.981298 
3.005003e+3, 1.6493288e+2, -1348595.3, -1371945.3, 0.115425825, 0.000019087103, 0.000048591537, -1348595.3, -24937.51, 0.0, 10.000075, 9.9692135 
3.005003e+3, 1.7490213e+2, -1250638.1, -1274303.8, -0.16968949, 0.00001901872, -0.00007043402, -1250638.1, -24679.031, 0.0, 10.000074, 9.9688 
3.005003e+3, 1.8486476e+2, -1162557.5, -1195713.5, 0.09032778, 0.000018944833, 0.000070179456, -1162557.5, -34232.082, 0.0, 10.000074, 9.956361 
3.005003e+3, 1.9482115e+2, -1064408.5, -1097827.0, -0.19031137, 0.000018865167, -0.00005456487, -1064408.5, -33655.875, 0.0, 10.000074, 9.9560175 
3.005003e+3, 2.047709e+2, -976245.06, -1019429.25, 0.07689718, 0.000018800922, 0.00007072232, -976245.06, -42999.78, 0.0, 10.000074, 9.943256 
3.005003e+3, 2.1471418e+2, -877958.8, -921404.7, -0.19526692, 0.000018753366, -0.00012409348, -877958.8, -42157.81, 0.0, 10.000073, 9.942915 
3.005003e+3, 2.2465079e+2, -789673.2, -843139.9, 0.06546535, 0.00001870121, 0.00012353265, -789673.2, -51250.83, 0.0, 10.000073, 9.929873 
3.005003e+3, 2.3458073e+2, -691240.4, -744962.0, -0.20120761, 0.00001864383, -0.00008643959, -691240.4, -50131.43, 0.0, 10.000073, 9.929543 
3.005003e+3, 2.445037e+2, -602916.8, -667014.7, 0.07223122, 0.00001858918, 0.00007688449, -602916.8, -59053.168, 0.0, 10.000073, 9.916102 
3.005003e+3, 2.5441992e+2, -504164.78, -568339.7, -0.18677598, 0.000018537785, -0.00010467876, -504164.78, -57480.156, 0.0, 10.0000725, 9.916002 
3.005003e+3, 2.6432908e+2, -415929.88, -490984.72, 0.0815517, 0.000018493361, 0.00014248927, -415929.88, -66354.79, 0.0, 10.0000725, 9.901931 
3.005003e+3, 2.7423155e+2, -316645.25, -391372.1, -0.16220576, 0.000018457788, -0.00020176976, -316645.25, -64114.523, 0.0, 10.0000725, 9.90235 
3.005003e+3, 2.8412583e+2, -230172.19, -318078.53, 0.10380528, 0.0000184236, 0.0002305557, -230172.19, -74605.16, 0.0, 10.0000725, 9.885406 
3.005003e+3, 2.9401228e+2, -130466.61, -217762.73, -0.13247676, 0.00001839125, -0.00025192054, -130466.61, -71786.83, 0.0, 10.0000725, 9.886184 
3.005003e+3, 3.0392668e+2, -40724.113, -84749.62, 0.12131752, 0.00001835514, 0.00017434995, -40724.113, -40724.113, 0.0, 10.0000725, 9.942139 
3.005003e+3, 3.138707e+2, -39646.3, -82510.875, -0.10251376, 0.00001831346, -0.000054317883, -39646.3, -39646.3, 0.0, 10.0000725, 9.943649 
3.0150035e+3, 1.2499411e+2, -1719853.8, -1724217.6, 0.0649984, 0.000019850266, 0.000024930952, -1719853.8, -4796.022, 0.0, 10.000076, 9.99429 
3.0150035e+3, 1.3498832e+2, -1622474.4, -1627428.8, -0.22690101, 0.000019699313, -0.00007242989, -1622474.4, -5359.855, 0.0, 10.000076, 9.993508 
3.0150035e+3, 1.4497583e+2, -1534372.9, -1548139.0, 0.018692926, 0.000019597112, 0.00008215925, -1534372.9, -15136.004, 0.0, 10.000075, 9.981829 
3.0150035e+3, 1.5495768e+2, -1436646.0, -1450815.4, -0.26906273, 0.000019540035, -0.000053091615, -1436646.0, -15231.327, 0.0, 10.000075, 9.9812975 
3.0150032e+3, 1.6493289e+2, -1348595.9, -1371946.5, 0.0013150005, 0.000019470586, 0.00004860412, -1348595.9, -24938.285, 0.0, 10.000075, 9.969213 
3.0150032e+3, 1.7490214e+2, -1250638.8, -1274304.9, -0.28375393, 0.000019388517, -0.000070367896, -1250638.8, -24679.791, 0.0, 10.000074, 9.968799 
3.0150032e+3, 1.8486476e+2, -1162558.1, -1195714.8, -0.011779534, 0.000019313877, 0.00007026509, -1162558.1, -34232.824, 0.0, 10.000074, 9.95636 
3.0150032e+3, 1.9482116e+2, -1064409.1, -1097828.1, -0.29228583, 0.000019246985, -0.000054495376, -1064409.1, -33656.605, 0.0, 10.000074, 9.956017 
3.0150032e+3, 2.0477091e+2, -976245.7, -1019430.4, -0.019819979, 0.000019186273, 0.00007077167, -976245.7, -43000.49, 0.0, 10.000074, 9.943255 
3.0150032e+3, 2.1471418e+2, -877959.44, -921405.8, -0.29188147, 0.000019132243, -0.00012406863, -877959.44, -42158.504, 0.0, 10.000073, 9.942914 
3.0150032e+3, 2.2465079e+2, -789673.75, -843141.06, -0.015216596, 0.000019073444, 0.00012356193, -789673.75, -51251.508, 0.0, 10.000073, 9.9298725 
3.0150032e+3, 2.3458074e+2, -691240.94, -744963.1, -0.28137574, 0.00001900924, -0.00008637318, -691240.94, -50132.094, 0.0, 10.000073, 9.929542 
3.0150032e+3, 2.4450372e+2, -602917.4, -667015.8, 0.0012865152, 0.00001895467, 0.0000769532, -602917.4, -59053.82, 0.0, 10.000073, 9.916101 
3.0150032e+3, 2.5441992e+2, -504165.34, -568340.8, -0.257281, 0.0000189116, -0.000104649385, -504165.34, -57480.797, 0.0, 10.0000725, 9.916001 
3.0150032e+3, 2.6432908e+2, -415930.4, -490985.84, 0.022150591, 0.000018868313, 0.0001425052, -415930.4, -66355.41, 0.0, 10.0000725, 9.90193 
3.0150032e+3, 2.7423155e+2, -316645.8, -391373.22, -0.22087096, 0.000018824705, -0.00020173418, -316645.8, -64115.125, 0.0, 10.0000725, 9.90235 
3.0150032e+3, 2.8412583e+2, -230172.73, -318079.66, 0.05551076, 0.000018787918, 0.00023060096, -230172.73, -74605.75, 0.0, 10.0000725, 9.885405 
3.0150032e+3, 2.9401228e+2, -130467.15, -217763.84, -0.17984043, 0.000018760446, -0.0002518794, -130467.15, -71787.41, 0.0, 10.0000725, 9.886183 
3.0150032e+3, 3.0392668e+2, -40724.652, -84750.734, 0.088856794, 0.000018722953, 0.00017438136, -40724.652, -40724.652, 0.0, 10.0000725, 9.942138 
3.0150032e+3, 3.138707e+2, -39646.84, -82511.99, -0.13322978, 0.000018670526, -0.00005430442, -39646.84, -39646.84, 0.0, 10.0000725, 9.943649 
3.0250034e+3, 1.2499414e+2, -1719849.0, -1724216.0, 0.20998706, 0.000020245969, 0.00002508566, -1719849.0, -4791.41, 0.0, 10.00008, 9.994289 
3.0250034e+3, 1.3498834e+2, -1622469.6, -1627427.1, -0.10047004, 0.000020093274, -0.00007256412, -1622469.6, -5355.277, 0.0, 10.000079, 9.993507 
3.0250034e+3, 1.4497586e+2, -1534368.1, -1548137.4, 0.14376834, 0.000019989371, 0.00008242058, -1534368.1, -15131.44, 0.0, 10.000079, 9.981828 
3.0250034e+3, 1.549577e+2, -1436641.4, -1450813.8, -0.15271561, 0.000019930567, -0.000053017342, -1436641.4, -15226.805, 0.0, 10.000079, 9.981297 
3.0250034e+3, 1.649329e+2, -1348591.3, -1371945.0, 0.11809009, 0.000019858437, 0.000048613216, -1348591.3, -24933.793, 0.0, 10.000078, 9.969212 
3.0250034e+3, 1.7490216e+2, -1250634.1, -1274303.4, -0.18157795, 0.000019772719, -0.00007029949, -1250634.1, -24675.33, 0.0, 10.000078, 9.968798 
3.0250034e+3, 1.8486477e+2, -1162553.5, -1195713.3, 0.087357394, 0.00001969755, 0.00007035107, -1162553.5, -34228.39, 0.0, 10.000078, 9.956359 
3.0250034e+3, 1.9482118e+2, -1064404.6, -1097826.8, -0.20230666, 0.000019633399, -0.000054435517, -1064404.6, -33652.23, 0.0, 10.000077, 9.956017 
3.0250034e+3, 2.0477091e+2, -976241.25, -1019429.0, 0.070856534, 0.000019572564, 0.0000708208, -976241.25, -42996.137, 0.0, 10.000077, 9.943254 
3.025003e+3, 2.147142e+2, -877955.0, -921404.44, -0.21243688, 0.000019515317, -0.00012401353, -877955.0, -42154.168, 0.0, 10.000077, 9.942914 
3.025003e+3, 2.246508e+2, -789669.4, -843139.7, 0.06515361, 0.000019452564, 0.00012361798, -789669.4, -51247.19, 0.0, 10.000077, 9.9298725 
3.025003e+3, 2.3458074e+2, -691236.56, -744961.8, -0.21551464, 0.000019383566, -0.00008632183, -691236.56, -50127.813, 0.0, 10.000076, 9.929541 
3.025003e+3, 2.4450372e+2, -602913.0, -667014.5, 0.06494206, 0.00001932872, 0.00007699925, -602913.0, -59049.563, 0.0, 10.000076, 9.9161005 
3.025003e+3, 2.5441995e+2, -504161.06, -568339.56, -0.19831051, 0.000019290768, -0.000104609375, -504161.06, -57476.582, 0.0, 10.000076, 9.916 
3.025003e+3, 2.6432908e+2, -415926.16, -490984.6, 0.08405248, 0.000019248562, 0.00014254339, -415926.16, -66351.22, 0.0, 10.000076, 9.901929 
3.025003e+3, 2.7423155e+2, -316641.6, -391371.97, -0.17720565, 0.000019200883, -0.00020169247, -316641.6, -64110.96, 0.0, 10.000075, 9.902349 
3.025003e+3, 2.8412583e+2, -230168.53, -318078.4, 0.097597755, 0.000019160547, 0.00023064071, -230168.53, -74601.59, 0.0, 10.000075, 9.885404 
3.025003e+3, 2.9401228e+2, -130462.96, -217762.64, -0.14073816, 0.00001913026, -0.0002518491, -130462.96, -71783.266, 0.0, 10.000075, 9.886182 
3.025003e+3, 3.0392668e+2, -40720.535, -84749.6, 0.13296634, 0.000019092464, 0.00017440466, -40720.535, -40720.535, 0.0, 10.000075, 9.942137 
3.025003e+3, 3.138707e+2, -39642.76, -82510.875, -0.09511504, 0.000019043453, -0.00005428431, -39642.76, -39642.76, 0.0, 10.000075, 9.943648 
3.0350035e+3, 1.2499415e+2, -1719849.6, -1724217.4, 0.069176294, 0.000020656951, 0.000025225932, -1719849.6, -4792.301, 0.0, 10.00008, 9.994288 
3.0350035e+3, 1.3498835e+2, -1622470.3, -1627428.5, -0.24129942, 0.000020493073, -0.00007269713, -1622470.3, -5356.152, 0.0, 10.000079, 9.993506 
3.0350035e+3, 1.4497587e+2, -1534368.8, -1548138.6, 0.013682388, 0.000020382311, 0.000082698374, -1534368.8, -15132.274, 0.0, 10.000079, 9.981828 
3.0350035e+3, 1.5495771e+2, -1436642.0, -1450815.0, -0.28279248, 0.000020320931, -0.000052941752, -1436642.0, -15227.622, 0.0, 10.000079, 9.981296 
3.0350035e+3, 1.6493292e+2, -1348592.0, -1371946.3, 0.0008821527, 0.000020250656, 0.000048618822, -1348592.0, -24934.605, 0.0, 10.000078, 9.969211 
3.0350035e+3, 1.7490217e+2, -1250634.9, -1274304.8, -0.29872274, 0.000020171316, -0.00007022881, -1250634.9, -24676.129, 0.0, 10.000078, 9.968797 
3.0350035e+3, 1.8486479e+2, -1162554.3, -1195714.4, -0.024810536, 0.000020095846, 0.000070437396, -1162554.3, -34229.16, 0.0, 10.000078, 9.956359 
3.0350035e+3, 1.948212e+2, -1064405.3, -1097827.9, -0.31442368, 0.000020024403, -0.000054385277, -1064405.3, -33652.984, 0.0, 10.000077, 9.956016 
3.0350035e+3, 2.0477092e+2, -976241.9, -1019430.2, -0.025485996, 0.0000199598, 0.000070869726, -976241.9, -42996.875, 0.0, 10.000077, 9.9432535 
3.0350035e+3, 2.1471421e+2, -877955.6, -921405.6, -0.30846173, 0.000019902589, -0.00012392826, -877955.6, -42154.887, 0.0, 10.000077, 9.942913 
3.0350035e+3, 2.246508e+2, -789670.0, -843140.9, -0.019644152, 0.00001983856, 0.00012370075, -789670.0, -51247.906, 0.0, 10.000077, 9.929872 
3.0350035e+3, 2.3458076e+2, -691237.2, -744963.0, -0.2999478, 0.0000197668, -0.00008628552, -691237.2, -50128.51, 0.0, 10.000076, 9.929541 
3.0350035e+3, 2.4450374e+2, -602913.6, -667015.6, -0.012987064, 0.000019711324, 0.00007702265, -602913.6, -59050.23, 0.0, 10.000076, 9.9161 
3.0350035e+3, 2.5441995e+2, -504161.66, -568340.7, -0.2759368, 0.000019675292, -0.000104558734, -504161.66, -57477.234, 0.0, 10.000076, 9.916 
3.0350035e+3, 2.643291e+2, -415926.75, -490985.78, 0.022946766, 0.000019634112, 0.00014260379, -415926.75, -66351.875, 0.0, 10.000076, 9.901929 
3.0350035e+3, 2.7423155e+2, -316642.16, -391373.16, -0.23720828, 0.000019586318, -0.00020164465, -316642.16, -64111.6, 0.0, 10.000075, 9.9023485 
3.0350035e+3, 2.8412583e+2, -230169.08, -318079.56, 0.048920013, 0.00001954148, 0.00023067497, -230169.08, -74602.2, 0.0, 10.000075, 9.885403 
3.0350035e+3, 2.9401228e+2, -130463.51, -217763.77, -0.18840317, 0.000019500701, -0.00025182968, -130463.51, -71783.86, 0.0, 10.000075, 9.886182 
3.0350035e+3, 3.0392668e+2, -40721.086, -84750.75, 0.09282108, 0.000019463678, 0.00017441987, -40721.086, -40721.086, 0.0, 10.000075, 9.942136 
3.0350035e+3, 3.138707e+2, -39643.313, -82512.02, -0.13438629, 0.000019432227, -0.00005425757, -39643.313, -39643.313, 0.0, 10.000075, 9.943647 
3.0450037e+3, 1.24994166e+2, -1719844.8, -1724215.6, 0.2155078, 0.000021077514, 0.000025389585, -1719844.8, -4787.5176, 0.0, 10.000083, 9.994288 
3.0450037e+3, 1.3498837e+2, -1622465.4, -1627426.8, -0.10199909, 0.000020896228, -0.00007283351, -1622465.4, -5351.379, 0.0, 10.000083, 9.9935055 
3.0450037e+3, 1.4497589e+2, -1534363.9, -1548137.0, 0.1477912, 0.000020779074, 0.00008297598, -1534363.9, -15127.509, 0.0, 10.000083, 9.981827 
3.0450034e+3, 1.5495773e+2, -1436637.1, -1450813.4, -0.1661372, 0.000020722304, -0.000052862506, -1436637.1, -15222.902, 0.0, 10.000082, 9.981295 
3.0450034e+3, 1.6493294e+2, -1348587.1, -1371944.6, 0.11697722, 0.000020654474, 0.000048628634, -1348587.1, -24929.932, 0.0, 10.000082, 9.96921 
3.0450034e+3, 1.7490219e+2, -1250630.1, -1274303.1, -0.18916422, 0.00002057537, -0.00007015675, -1250630.1, -24671.518, 0.0, 10.000082, 9.968797 
3.0450034e+3, 1.848648e+2, -1162549.5, -1195712.9, 0.08609404, 0.000020498172, 0.00007052727, -1162549.5, -34224.574, 0.0, 10.000081, 9.956358 
3.0450034e+3, 1.9482121e+2, -1064400.6, -1097826.4, -0.21690375, 0.000020422947, -0.00005432411, -1064400.6, -33648.41, 0.0, 10.000081, 9.956015 
3.0450034e+3, 2.0477094e+2, -976237.2, -1019428.7, 0.069268815, 0.000020354335, 0.00007092161, -976237.2, -42992.32, 0.0, 10.000081, 9.9432535 
3.0450034e+3, 2.1471421e+2, -877951.0, -921404.2, -0.23050779, 0.000020292875, -0.00012386461, -877951.0, -42150.38, 0.0, 10.00008, 9.942912 
3.0450034e+3, 2.2465082e+2, -789665.4, -843139.44, 0.060183287, 0.00002023013, 0.0001237637, -789665.4, -51243.426, 0.0, 10.00008, 9.929871 
3.0450034e+3, 2.3458076e+2, -691232.7, -744961.6, -0.22052802, 0.000020165915, -0.00008623741, -691232.7, -50124.082, 0.0, 10.00008, 9.92954 
3.0450034e+3, 2.4450374e+2, -602909.1, -667014.3, 0.06813748, 0.000020109266, 0.00007706388, -602909.1, -59045.824, 0.0, 10.00008, 9.916099 
3.0450034e+3, 2.5441998e+2, -504157.16, -568339.4, -0.21529958, 0.000020061638, -0.00010451489, -504157.16, -57472.836, 0.0, 10.000079, 9.915999 
3.0450034e+3, 2.643291e+2, -415922.3, -490984.44, 0.082034916, 0.00002001625, 0.00014264682, -415922.3, -66347.49, 0.0, 10.000079, 9.901928 
3.0450034e+3, 2.7423155e+2, -316637.75, -391371.88, -0.18275625, 0.000019973673, -0.00020160683, -316637.75, -64107.26, 0.0, 10.000079, 9.902348 
3.0450034e+3, 2.8412583e+2, -230164.7, -318078.28, 0.10613894, 0.000019931751, 0.00023070892, -230164.7, -74597.88, 0.0, 10.000079, 9.885402 
3.0450034e+3, 2.9401228e+2, -130459.19, -217762.53, -0.14521345, 0.000019890693, -0.00025179773, -130459.19, -71779.58, 0.0, 10.000079, 9.886181 
3.0450034e+3, 3.039267e+2, -40716.832, -84749.586, 0.13081978, 0.000019850266, 0.00017444942, -40716.832, -40716.832, 0.0, 10.000079, 9.942135 
3.0450034e+3, 3.138707e+2, -39639.04, -82510.86, -0.11403239, 0.000019810801, -0.000054231008, -39639.04, -39639.04, 0.0, 10.000078, 9.943646 
3.0550036e+3, 1.2499419e+2, -1719845.5, -1724217.0, 0.07646069, 0.000021507652, 0.000025577674, -1719845.5, -4788.4316, 0.0, 10.000083, 9.9942875 
3.0550036e+3, 1.3498838e+2, -1622466.1, -1627428.1, -0.24106862, 0.000021302743, -0.00007297326, -1622466.1, -5352.2773, 0.0, 10.000083, 9.993505 
3.0550036e+3, 1.449759e+2, -1534364.5, -1548138.3, 0.010824041, 0.000021179661, 0.000083253406, -1534364.5, -15128.39, 0.0, 10.000083, 9.981826 
3.0550036e+3, 1.5495774e+2, -1436637.9, -1450814.8, -0.3031007, 0.000021134676, -0.000052779604, -1436637.9, -15223.765, 0.0, 10.000082, 9.981294 
3.0550036e+3, 1.6493295e+2, -1348587.9, -1371945.9, -0.010935772, 0.00002106988, 0.000048642647, -1348587.9, -24930.766, 0.0, 10.000082, 9.96921 
3.0550036e+3, 1.749022e+2, -1250630.8, -1274304.4, -0.31703904, 0.000020984879, -0.0000700833, -1250630.8, -24672.336, 0.0, 10.000082, 9.968796 
3.0550036e+3, 1.8486482e+2, -1162550.1, -1195714.1, -0.025249127, 0.00002090453, 0.00007062069, -1162550.1, -34225.375, 0.0, 10.000081, 9.956357 
3.0550036e+3, 1.9482121e+2, -1064401.3, -1097827.8, -0.32806128, 0.000020829024, -0.000054252032, -1064401.3, -33649.2, 0.0, 10.000081, 9.956014 
3.0550036e+3, 2.0477095e+2, -976237.8, -1019430.0, -0.033794146, 0.00002075617, 0.00007097646, -976237.8, -42993.098, 0.0, 10.000081, 9.943253 
3.0550033e+3, 2.1471423e+2, -877951.6, -921405.44, -0.3334075, 0.000020686175, -0.00012382255, -877951.6, -42151.14, 0.0, 10.00008, 9.942911 
3.0550033e+3, 2.2465083e+2, -789666.0, -843140.7, -0.032253444, 0.000020627269, 0.00012380684, -789666.0, -51244.15, 0.0, 10.00008, 9.92987 
3.0550033e+3, 2.3458077e+2, -691233.3, -744962.8, -0.31263414, 0.000020580896, -0.00008617749, -691233.3, -50124.79, 0.0, 10.00008, 9.929539 
3.0550033e+3, 2.4450375e+2, -602909.75, -667015.56, -0.007988917, 0.00002052253, 0.00007712292, -602909.75, -59046.535, 0.0, 10.00008, 9.916099 
3.0550033e+3, 2.5441998e+2, -504157.78, -568340.6, -0.29066128, 0.000020449808, -0.00010447782, -504157.78, -57473.535, 0.0, 10.000079, 9.915998 
3.0550033e+3, 2.643291e+2, -415922.9, -490985.66, 0.014705925, 0.000020394986, 0.0001426725, -415922.9, -66348.164, 0.0, 10.000079, 9.901927 
3.0550033e+3, 2.742316e+2, -316638.34, -391373.1, -0.24955554, 0.000020362953, -0.00020157901, -316638.34, -64107.918, 0.0, 10.000079, 9.902347 
3.0550033e+3, 2.8412583e+2, -230165.3, -318079.47, 0.051744904, 0.000020331352, 0.00023074257, -230165.3, -74598.52, 0.0, 10.000079, 9.885402 
3.0550033e+3, 2.940123e+2, -130459.76, -217763.72, -0.19849694, 0.000020300216, -0.00025175323, -130459.76, -71780.2, 0.0, 10.000079, 9.88618 
3.0550033e+3, 3.039267e+2, -40717.418, -84750.805, 0.09495649, 0.000020252211, 0.00017449333, -40717.418, -40717.418, 0.0, 10.000079, 9.942135 
3.0550033e+3, 3.138707e+2, -39639.63, -82512.08, -0.1478552, 0.000020179197, -0.00005420463, -39639.63, -39639.63, 0.0, 10.000078, 9.9436455 
3.0650038e+3, 1.249942e+2, -1719840.3, -1724215.3, 0.22531284, 0.000021929418, 0.000025749674, -1719840.3, -4783.4185, 0.0, 10.000087, 9.994287 
3.0650038e+3, 1.349884e+2, -1622461.0, -1627426.4, -0.112886354, 0.000021725378, -0.00007310582, -1622461.0, -5347.3223, 0.0, 10.000087, 9.993504 
3.0650038e+3, 1.4497592e+2, -1534359.5, -1548136.5, 0.13321483, 0.00002160198, 0.00008355112, -1534359.5, -15123.454, 0.0, 10.000086, 9.981825 
3.0650038e+3, 1.5495776e+2, -1436632.9, -1450813.0, -0.17797327, 0.000021555412, -0.000052703796, -1436632.9, -15218.88, 0.0, 10.000086, 9.981294 
3.0650038e+3, 1.6493297e+2, -1348582.9, -1371944.3, 0.11800761, 0.000021488051, 0.00004864375, -1348582.9, -24925.924, 0.0, 10.000086, 9.969209 
3.0650038e+3, 1.7490222e+2, -1250625.8, -1274302.8, -0.20941325, 0.00002139949, -0.00007000656, -1250625.8, -24667.52, 0.0, 10.000085, 9.968795 
3.0650038e+3, 1.8486483e+2, -1162545.3, -1195712.6, 0.080890104, 0.000021317117, 0.00007072071, -1162545.3, -34220.574, 0.0, 10.000085, 9.956356 
3.0650038e+3, 1.9482122e+2, -1064396.4, -1097826.1, -0.23073456, 0.000021241198, -0.000054183543, -1064396.4, -33644.45, 0.0, 10.000085, 9.956013 
3.0650038e+3, 2.0477097e+2, -976233.0, -1019428.44, 0.06674566, 0.000021167554, 0.00007103002, -976233.0, -42988.383, 0.0, 10.000084, 9.943252 
3.0650038e+3, 2.1471424e+2, -877946.9, -921403.94, -0.23756085, 0.000021096368, -0.00012376592, -877946.9, -42146.465, 0.0, 10.000084, 9.94291 
3.0650038e+3, 2.2465084e+2, -789661.25, -843139.2, 0.060880717, 0.00002103583, 0.00012386372, -789661.25, -51239.496, 0.0, 10.000084, 9.929869 
3.0650038e+3, 2.3458079e+2, -691228.56, -744961.4, -0.24508016, 0.000020987327, -0.00008612357, -691228.56, -50120.164, 0.0, 10.000083, 9.929538 
3.0650038e+3, 2.4450377e+2, -602905.06, -667014.1, 0.05933907, 0.000020927635, 0.00007717438, -602905.06, -59041.934, 0.0, 10.000083, 9.916098 
3.0650038e+3, 2.5441998e+2, -504153.16, -568339.2, -0.22400692, 0.000020854548, -0.000104428225, -504153.16, -57468.977, 0.0, 10.000083, 9.9159975 
3.0650038e+3, 2.643291e+2, -415918.3, -490984.28, 0.08351407, 0.000020798523, 0.00014271816, -415918.3, -66343.63, 0.0, 10.000083, 9.901926 
3.0650038e+3, 2.742316e+2, -316633.78, -391371.75, -0.19667064, 0.000020764222, -0.00020153995, -316633.78, -64103.414, 0.0, 10.000083, 9.902347 
3.0650038e+3, 2.8412586e+2, -230160.73, -318078.16, 0.103678495, 0.00002073071, 0.00023077763, -230160.73, -74594.03, 0.0, 10.000082, 9.885401 
3.0650038e+3, 2.940123e+2, -130455.234, -217762.4, -0.15761808, 0.000020698153, -0.0002517186, -130455.234, -71775.73, 0.0, 10.000082, 9.886179 
3.0650035e+3, 3.039267e+2, -40712.973, -84749.58, 0.13946113, 0.000020649502, 0.00017452499, -40712.973, -40712.973, 0.0, 10.000082, 9.942134 
3.0650035e+3, 3.138707e+2, -39635.223, -82510.88, -0.105736904, 0.000020576981, -0.00005417974, -39635.223, -39635.223, 0.0, 10.000082, 9.943645 
3.075004e+3, 1.24994226e+2, -1719841.0, -1724216.6, 0.07709195, 0.00002234283, 0.000025906847, -1719841.0, -4784.387, 0.0, 10.000087, 9.994286 
3.075004e+3, 1.3498843e+2, -1622461.8, -1627427.9, -0.2611257, 0.000022164113, -0.00007323119, -1622461.8, -5348.2744, 0.0, 10.000087, 9.993503 
3.075004e+3, 1.4497593e+2, -1534360.1, -1548137.9, -0.011878819, 0.00002204601, 0.00008386908, -1534360.1, -15124.336, 0.0, 10.000086, 9.981824 
3.075004e+3, 1.5495779e+2, -1436633.5, -1450814.4, -0.32307225, 0.000021984506, -0.000052635067, -1436633.5, -15219.744, 0.0, 10.000086, 9.981293 
3.0750036e+3, 1.6493298e+2, -1348583.5, -1371945.6, -0.011376893, 0.00002190899, 0.000048631966, -1348583.5, -24926.813, 0.0, 10.000086, 9.969208 
3.0750036e+3, 1.7490223e+2, -1250626.5, -1274304.3, -0.33871913, 0.000021819202, -0.00006992653, -1250626.5, -24668.39, 0.0, 10.000085, 9.968794 
3.0750036e+3, 1.8486485e+2, -1162545.9, -1195713.9, -0.038390625, 0.000021735932, 0.000070827315, -1162545.9, -34221.406, 0.0, 10.000085, 9.956355 
3.0750036e+3, 1.9482124e+2, -1064397.1, -1097827.5, -0.3499071, 0.000021659464, -0.00005411864, -1064397.1, -33645.26, 0.0, 10.000085, 9.956012 
3.0750036e+3, 2.0477097e+2, -976233.7, -1019429.75, -0.041129727, 0.000021588485, 0.00007108232, -976233.7, -42989.176, 0.0, 10.000084, 9.943251 
3.0750036e+3, 2.1471426e+2, -877947.5, -921405.25, -0.3452131, 0.00002152344, -0.0001236947, -877947.5, -42147.242, 0.0, 10.000084, 9.942909 
3.0750036e+3, 2.2465084e+2, -789661.94, -843140.5, -0.03414203, 0.000021455808, 0.00012393435, -789661.94, -51240.273, 0.0, 10.000084, 9.929868 
3.0750036e+3, 2.3458079e+2, -691229.25, -744962.7, -0.33969122, 0.00002138523, -0.00008607562, -691229.25, -50120.926, 0.0, 10.000083, 9.929537 
3.0750036e+3, 2.4450377e+2, -602905.7, -667015.4, -0.022996109, 0.0000213246, 0.00007721827, -602905.7, -59042.656, 0.0, 10.000083, 9.916097 
3.0750036e+3, 2.5441998e+2, -504153.78, -568340.44, -0.3057653, 0.000021275839, -0.00010436613, -504153.78, -57469.68, 0.0, 10.000083, 9.915997 
3.0750036e+3, 2.6432914e+2, -415918.94, -490985.56, 0.013263805, 0.000021226833, 0.00014278373, -415918.94, -66344.336, 0.0, 10.000083, 9.901925 
3.0750036e+3, 2.742316e+2, -316634.4, -391373.03, -0.26615474, 0.000021177471, -0.00020148967, -316634.4, -64104.105, 0.0, 10.000083, 9.902346 
3.0750036e+3, 2.8412586e+2, -230161.34, -318079.4, 0.048626732, 0.000021129832, 0.00023081411, -230161.34, -74594.695, 0.0, 10.000082, 9.8854 
3.0750036e+3, 2.940123e+2, -130455.83, -217763.64, -0.21137628, 0.000021084528, -0.00025169377, -130455.83, -71776.375, 0.0, 10.000082, 9.886178 
3.0750036e+3, 3.039267e+2, -40713.566, -84750.82, 0.09528051, 0.00002104215, 0.00017454445, -40713.566, -40713.566, 0.0, 10.000082, 9.942133 
3.0750036e+3, 3.1387073e+2, -39635.82, -82512.12, -0.14880456, 0.000021004122, -0.000054156346, -39635.82, -39635.82, 0.0, 10.000082, 9.943644 
3.0850038e+3, 1.2499425e+2, -1719835.6, -1724214.8, 0.2412186, 0.000022776583, 0.000026095304, -1719835.6, -4779.1436, 0.0, 10.000091, 9.994285 
3.0850038e+3, 1.3498844e+2, -1622456.4, -1627426.0, -0.10077082, 0.000022606884, -0.0000733984, -1622456.4, -5343.147, 0.0, 10.000091, 9.993502 
3.0850038e+3, 1.4497595e+2, -1534354.9, -1548136.1, 0.1493137, 0.000022489763, 0.00008415299, -1534354.9, -15119.234, 0.0, 10.00009, 9.981823 
3.0850038e+3, 1.549578e+2, -1436628.3, -1450812.5, -0.18844602, 0.000022421089, -0.00005254198, -1436628.3, -15214.653, 0.0, 10.00009, 9.981292 
3.0850038e+3, 1.64933e+2, -1348578.4, -1371943.9, 0.119747356, 0.000022339453, 0.00004865279, -1348578.4, -24921.756, 0.0, 10.00009, 9.969207 
3.0850038e+3, 1.7490225e+2, -1250621.4, -1274302.5, -0.21251509, 0.000022244612, -0.000069856855, -1250621.4, -24663.38, 0.0, 10.000089, 9.968793 
3.0850038e+3, 1.8486486e+2, -1162540.8, -1195712.3, 0.08674593, 0.000022161319, 0.00007091373, -1162540.8, -34216.42, 0.0, 10.000089, 9.956354 
3.0850038e+3, 1.9482125e+2, -1064392.0, -1097825.8, -0.24071594, 0.000022090084, -0.00005404912, -1064392.0, -33640.332, 0.0, 10.000088, 9.956011 
3.0850038e+3, 2.0477098e+2, -976228.6, -1019428.1, 0.06512258, 0.000022018517, 0.00007114534, -976228.6, -42984.28, 0.0, 10.000088, 9.94325 
3.0850038e+3, 2.1471426e+2, -877942.5, -921403.7, -0.259607, 0.000021946584, -0.00012362693, -877942.5, -42142.37, 0.0, 10.000088, 9.942909 
3.0850038e+3, 2.2465086e+2, -789656.94, -843138.94, 0.052759442, 0.000021875036, 0.00012399895, -789656.94, -51235.42, 0.0, 10.000088, 9.929868 
3.0850038e+3, 2.345808e+2, -691224.3, -744961.2, -0.24914393, 0.000021803902, -0.00008602315, -691224.3, -50116.117, 0.0, 10.000087, 9.929536 
3.0850038e+3, 2.4450378e+2, -602900.8, -667013.9, 0.07003838, 0.000021743737, 0.0000772651, -602900.8, -59037.883, 0.0, 10.000087, 9.916096 
3.0850038e+3, 2.5442e+2, -504148.94, -568339.0, -0.2394049, 0.000021696656, -0.00010431718, -504148.94, -57464.95, 0.0, 10.000087, 9.915996 
3.0850038e+3, 2.6432914e+2, -415914.13, -490984.16, 0.07519181, 0.000021646003, 0.00014283234, -415914.13, -66339.625, 0.0, 10.000087, 9.901924 
3.0850038e+3, 2.742316e+2, -316629.66, -391371.63, -0.21031652, 0.000021590753, -0.00020144456, -316629.66, -64099.414, 0.0, 10.000086, 9.902345 
3.0850038e+3, 2.8412586e+2, -230156.61, -318078.0, 0.10853416, 0.000021540642, 0.0002308553, -230156.61, -74590.016, 0.0, 10.000086, 9.885399 
3.0850038e+3, 2.940123e+2, -130451.15, -217762.3, -0.15967534, 0.000021497563, -0.00025165715, -130451.15, -71771.74, 0.0, 10.000086, 9.886177 
3.0850038e+3, 3.039267e+2, -40708.973, -84749.56, 0.14463517, 0.000021455984, 0.00017457477, -40708.973, -40708.973, 0.0, 10.000086, 9.942132 
3.0850038e+3, 3.1387073e+2, -39631.223, -82510.87, -0.12042731, 0.000021416607, -0.00005413489, -39631.223, -39631.223, 0.0, 10.000086, 9.943644 
3.095004e+3, 1.2499426e+2, -1719836.4, -1724216.3, 0.07050584, 0.000023230657, 0.000026316267, -1719836.4, -4780.1304, 0.0, 10.000091, 9.994284 
3.095004e+3, 1.3498846e+2, -1622457.3, -1627427.5, -0.27150872, 0.00002305369, -0.000073607385, -1622457.3, -5344.1157, 0.0, 10.000091, 9.993501 
3.095004e+3, 1.4497599e+2, -1534355.6, -1548137.5, 0.0059469338, 0.00002293325, 0.000084402905, -1534355.6, -15120.184, 0.0, 10.00009, 9.981822 
3.095004e+3, 1.5495782e+2, -1436629.0, -1450814.0, -0.33177924, 0.00002286516, -0.000052424573, -1436629.0, -15215.584, 0.0, 10.00009, 9.981291 
3.095004e+3, 1.6493301e+2, -1348579.1, -1371945.4, -0.01575531, 0.000022779432, 0.000048706177, -1348579.1, -24922.662, 0.0, 10.00009, 9.969206 
3.095004e+3, 1.7490226e+2, -1250622.1, -1274303.9, -0.34798113, 0.000022675722, -0.00006979751, -1250622.1, -24664.27, 0.0, 10.000089, 9.968792 
3.095004e+3, 1.8486488e+2, -1162541.5, -1195713.6, -0.041358177, 0.000022593276, 0.00007097997, -1162541.5, -34217.293, 0.0, 10.000089, 9.956353 
3.095004e+3, 1.9482127e+2, -1064392.8, -1097827.3, -0.36874354, 0.000022533044, -0.00005397499, -1064392.8, -33641.188, 0.0, 10.000088, 9.956011 
3.095004e+3, 2.04771e+2, -976229.4, -1019429.56, -0.044416927, 0.000022457647, 0.00007121905, -976229.4, -42985.125, 0.0, 10.000088, 9.943249 
3.095004e+3, 2.1471427e+2, -877943.25, -921405.06, -0.3687691, 0.000022365815, -0.00012356261, -877943.25, -42143.195, 0.0, 10.000088, 9.942908 
3.095004e+3, 2.2465087e+2, -789657.6, -843140.25, -0.048238523, 0.000022293521, 0.00012405754, -789657.6, -51236.2, 0.0, 10.000088, 9.929867 
3.095004e+3, 2.3458081e+2, -691225.0, -744962.5, -0.3498892, 0.000022243317, -0.00008596618, -691225.0, -50116.88, 0.0, 10.000087, 9.929535 
3.095004e+3, 2.4450378e+2, -602901.5, -667015.25, -0.017783638, 0.000022185019, 0.00007731485, -602901.5, -59038.66, 0.0, 10.000087, 9.916095 
3.095004e+3, 2.5442e+2, -504149.63, -568340.4, -0.32660732, 0.000022117012, -0.000104281346, -504149.63, -57465.71, 0.0, 10.000087, 9.915995 
3.095004e+3, 2.6432914e+2, -415914.78, -490985.47, 0.003565484, 0.000022056056, 0.00014286402, -415914.78, -66340.34, 0.0, 10.000087, 9.901923 
3.095004e+3, 2.7423164e+2, -316630.28, -391372.94, -0.2809105, 0.000022004075, -0.00020140459, -316630.28, -64100.12, 0.0, 10.000086, 9.902344 
3.095004e+3, 2.8412586e+2, -230157.23, -318079.28, 0.046619836, 0.000021963131, 0.00023090115, -230157.23, -74590.7, 0.0, 10.000086, 9.885398 
3.095004e+3, 2.940123e+2, -130451.766, -217763.58, -0.22081695, 0.000021937223, -0.00025160876, -130451.766, -71772.414, 0.0, 10.000086, 9.886176 
3.095004e+3, 3.039267e+2, -40709.605, -84750.88, 0.10071049, 0.000021890984, 0.00017461597, -40709.605, -40709.605, 0.0, 10.000086, 9.942131 
3.095004e+3, 3.1387073e+2, -39631.86, -82512.195, -0.16233385, 0.000021814465, -0.000054115368, -39631.86, -39631.86, 0.0, 10.000086, 9.943643 
3.105004e+3, 1.24994285e+2, -1719830.8, -1724214.4, 0.23947693, 0.00002369631, 0.000026494008, -1719830.8, -4774.768, 0.0, 10.000094, 9.994283 
3.105004e+3, 1.3498849e+2, -1622451.6, -1627425.6, -0.11573223, 0.000023504996, -0.00007377028, -1622451.6, -5338.7256, 0.0, 10.000094, 9.9935 
3.105004e+3, 1.44976e+2, -1534350.1, -1548135.6, 0.16100557, 0.000023377592, 0.00008471539, -1534350.1, -15114.814, 0.0, 10.000093, 9.981821 
3.105004e+3, 1.5495785e+2, -1436623.5, -1450812.1, -0.19522837, 0.000023309902, -0.000052329888, -1436623.5, -15210.294, 0.0, 10.000093, 9.98129 
3.105004e+3, 1.6493304e+2, -1348573.6, -1371943.5, 0.11850816, 0.000023226597, 0.000048720995, -1348573.6, -24917.412, 0.0, 10.000093, 9.969205 
3.1050038e+3, 1.7490229e+2, -1250616.8, -1274302.1, -0.22345416, 0.000023127379, -0.00006972168, -1250616.8, -24659.072, 0.0, 10.0000925, 9.968791 
3.1050038e+3, 1.848649e+2, -1162536.1, -1195711.9, 0.08164085, 0.000023040922, 0.00007107814, -1162536.1, -34212.125, 0.0, 10.0000925, 9.956352 
3.1050038e+3, 1.9482128e+2, -1064387.5, -1097825.5, -0.26225117, 0.000022967783, -0.000053894957, -1064387.5, -33636.043, 0.0, 10.000092, 9.95601 
3.1050038e+3, 2.0477101e+2, -976224.1, -1019427.9, 0.065477975, 0.000022890501, 0.00007128593, -976224.1, -42980.004, 0.0, 10.000092, 9.943248 
3.1050038e+3, 2.1471429e+2, -877938.06, -921403.44, -0.26109922, 0.000022808721, -0.00012350346, -877938.06, -42138.15, 0.0, 10.000092, 9.942907 
3.1050038e+3, 2.2465089e+2, -789652.5, -843138.7, 0.058102638, 0.000022737224, 0.00012411595, -789652.5, -51231.188, 0.0, 10.000092, 9.929866 
3.1050038e+3, 2.3458081e+2, -691219.9, -744960.94, -0.2735095, 0.000022677343, -0.00008590056, -691219.9, -50111.887, 0.0, 10.000091, 9.929535 
3.1050038e+3, 2.445038e+2, -602896.44, -667013.7, 0.055887032, 0.000022614238, 0.00007737852, -602896.44, -59033.688, 0.0, 10.000091, 9.916094 
3.1050038e+3, 2.5442e+2, -504144.6, -568338.9, -0.24770997, 0.000022547249, -0.00010423054, -504144.6, -57460.773, 0.0, 10.000091, 9.915994 
3.1050038e+3, 2.6432914e+2, -415909.8, -490983.97, 0.08996967, 0.00002248739, 0.00014290636, -415909.8, -66335.445, 0.0, 10.00009, 9.901923 
3.1050038e+3, 2.7423164e+2, -316625.38, -391371.5, -0.2152624, 0.000022436585, -0.00020136514, -316625.38, -64095.27, 0.0, 10.00009, 9.902343 
3.1050038e+3, 2.8412586e+2, -230152.33, -318077.88, 0.10575208, 0.000022393997, 0.00023094036, -230152.33, -74585.86, 0.0, 10.00009, 9.885397 
3.1050038e+3, 2.9401234e+2, -130446.89, -217762.17, -0.17700216, 0.000022362583, -0.00025156623, -130446.89, -71767.59, 0.0, 10.00009, 9.886176 
3.1050038e+3, 3.039267e+2, -40704.813, -84749.56, 0.14710741, 0.000022314844, 0.00017465412, -40704.813, -40704.813, 0.0, 10.00009, 9.94213 
3.1050038e+3, 3.1387073e+2, -39627.105, -82510.9, -0.112689056, 0.000022242806, -0.00005409292, -39627.105, -39627.105, 0.0, 10.00009, 9.943642 
3.115004e+3, 1.2499431e+2, -1719831.6, -1724215.9, 0.08015865, 0.000024173532, 0.000026630296, -1719831.6, -4775.793, 0.0, 10.000094, 9.994282 
3.115004e+3, 1.3498852e+2, -1622452.4, -1627427.1, -0.2750776, 0.0000239608, -0.00007388716, -1622452.4, -5339.7334, 0.0, 10.000094, 9.993499 
3.115004e+3, 1.4497602e+2, -1534350.9, -1548137.1, 0.0031496347, 0.00002382279, 0.00008509035, -1534350.9, -15115.814, 0.0, 10.000093, 9.98182 
3.115004e+3, 1.5495786e+2, -1436624.4, -1450813.6, -0.35307932, 0.000023755321, -0.000052257885, -1436624.4, -15211.273, 0.0, 10.000093, 9.981289 
3.115004e+3, 1.6493306e+2, -1348574.4, -1371945.0, -0.024645189, 0.00002368095, 0.000048697308, -1348574.4, -24918.346, 0.0, 10.000093, 9.969204 
3.115004e+3, 1.749023e+2, -1250617.5, -1274303.6, -0.36654085, 0.000023599556, -0.000069629394, -1250617.5, -24659.99, 0.0, 10.0000925, 9.96879 
3.115004e+3, 1.8486491e+2, -1162536.9, -1195713.4, -0.046859905, 0.000023504243, 0.00007120818, -1162536.9, -34213.04, 0.0, 10.0000925, 9.956351 
3.115004e+3, 1.948213e+2, -1064388.3, -1097827.0, -0.39058784, 0.000023394321, -0.000053809028, -1064388.3, -33636.938, 0.0, 10.000092, 9.956009 
3.115004e+3, 2.0477103e+2, -976224.8, -1019429.25, -0.05598977, 0.0000233171, 0.000071346, -976224.8, -42980.86, 0.0, 10.000092, 9.943247 
3.115004e+3, 2.147143e+2, -877938.75, -921404.8, -0.3824389, 0.000023275268, -0.00012344947, -877938.75, -42138.984, 0.0, 10.000092, 9.942906 
3.115004e+3, 2.2465089e+2, -789653.25, -843140.1, -0.044051584, 0.000023206112, 0.00012417421, -789653.25, -51232.03, 0.0, 10.000092, 9.929865 
3.115004e+3, 2.3458083e+2, -691220.56, -744962.3, -0.37503946, 0.000023105995, -0.000085826316, -691220.56, -50112.715, 0.0, 10.000091, 9.929534 
3.115004e+3, 2.4450381e+2, -602897.1, -667015.06, -0.03600748, 0.000023031422, 0.0000774561, -602897.1, -59034.465, 0.0, 10.000091, 9.916093 
3.115004e+3, 2.5442004e+2, -504145.28, -568340.2, -0.33915618, 0.000022987362, -0.00010416477, -504145.28, -57461.53, 0.0, 10.000091, 9.915993 
3.115004e+3, 2.6432917e+2, -415910.5, -490985.38, 0.0107731065, 0.000022939977, 0.00014295932, -415910.5, -66336.21, 0.0, 10.00009, 9.901922 
3.115004e+3, 2.7423164e+2, -316626.03, -391372.88, -0.29364148, 0.000022888262, -0.00020132618, -316626.03, -64096.02, 0.0, 10.00009, 9.902342 
3.115004e+3, 2.841259e+2, -230152.98, -318079.22, 0.043741904, 0.000022833237, 0.00023097292, -230152.98, -74586.586, 0.0, 10.00009, 9.885396 
3.115004e+3, 2.9401234e+2, -130447.53, -217763.5, -0.23754667, 0.000022773673, -0.00025152965, -130447.53, -71768.29, 0.0, 10.00009, 9.886175 
3.115004e+3, 3.0392674e+2, -40705.445, -84750.875, 0.09480841, 0.000022727589, 0.00017468925, -40705.445, -40705.445, 0.0, 10.00009, 9.942129 
3.115004e+3, 3.1387073e+2, -39627.74, -82512.21, -0.16403621, 0.000022701593, -0.000054067557, -39627.74, -39627.74, 0.0, 10.00009, 9.943641 
3.1250045e+3, 1.2499433e+2, -1719825.8, -1724213.9, 0.26360044, 0.000024647119, 0.000026814118, -1719825.8, -4770.136, 0.0, 10.000099, 9.994281 
3.1250045e+3, 1.3498853e+2, -1622446.6, -1627425.3, -0.12284581, 0.000024424782, -0.00007403504, -1622446.6, -5334.1675, 0.0, 10.000098, 9.993498 
3.1250042e+3, 1.4497603e+2, -1534345.1, -1548135.3, 0.15146355, 0.000024284223, 0.000085430365, -1534345.1, -15110.268, 0.0, 10.000098, 9.981819 
3.1250042e+3, 1.5495788e+2, -1436618.6, -1450811.8, -0.19927451, 0.000024221235, -0.000052178504, -1436618.6, -15205.757, 0.0, 10.000097, 9.981288 
3.1250042e+3, 1.6493307e+2, -1348568.8, -1371943.1, 0.130074, 0.000024145955, 0.000048692502, -1348568.8, -24912.877, 0.0, 10.000097, 9.969203 
3.1250042e+3, 1.7490232e+2, -1250611.9, -1274301.8, -0.23833779, 0.000024058148, -0.00006953813, -1250611.9, -24654.588, 0.0, 10.000096, 9.968789 
3.1250042e+3, 1.8486492e+2, -1162531.4, -1195711.5, 0.0835911, 0.000023961193, 0.000071326416, -1162531.4, -34207.67, 0.0, 10.000096, 9.95635 
3.1250042e+3, 1.9482131e+2, -1064382.8, -1097825.1, -0.2639313, 0.00002385461, -0.000053736127, -1064382.8, -33631.613, 0.0, 10.000096, 9.956008 
3.1250042e+3, 2.0477104e+2, -976219.4, -1019427.5, 0.06633021, 0.000023774817, 0.000071401904, -976219.4, -42975.56, 0.0, 10.000095, 9.943246 
3.1250042e+3, 2.1471432e+2, -877933.4, -921403.1, -0.28432888, 0.000023724011, -0.00012337985, -877933.4, -42133.71, 0.0, 10.000095, 9.942905 
3.1250042e+3, 2.246509e+2, -789647.9, -843138.44, 0.057100922, 0.000023652734, 0.00012424616, -789647.9, -51226.793, 0.0, 10.000095, 9.929864 
3.1250042e+3, 2.3458084e+2, -691215.3, -744960.7, -0.2732622, 0.00002355826, -0.000085764914, -691215.3, -50107.535, 0.0, 10.000094, 9.929533 
3.1250042e+3, 2.4450381e+2, -602891.9, -667013.44, 0.06539918, 0.000023483875, 0.000077512304, -602891.9, -59029.316, 0.0, 10.000094, 9.916092 
3.1250042e+3, 2.5442004e+2, -504140.06, -568338.6, -0.2670702, 0.000023433486, -0.000104107356, -504140.06, -57456.418, 0.0, 10.000094, 9.915993 
3.1250042e+3, 2.6432917e+2, -415905.3, -490983.84, 0.07824592, 0.00002338291, 0.00014301379, -415905.3, -66331.12, 0.0, 10.000094, 9.901921 
3.1250042e+3, 2.7423164e+2, -316620.9, -391371.38, -0.22709881, 0.00002333202, -0.00020127998, -316620.9, -64090.96, 0.0, 10.000093, 9.902341 
3.1250042e+3, 2.841259e+2, -230147.88, -318077.72, 0.11849377, 0.000023277244, 0.00023101395, -230147.88, -74581.55, 0.0, 10.000093, 9.885395 
3.1250042e+3, 2.9401234e+2, -130442.484, -217762.06, -0.17493452, 0.000023217117, -0.00025148952, -130442.484, -71763.305, 0.0, 10.000093, 9.886174 
3.1250042e+3, 3.0392674e+2, -40700.48, -84749.52, 0.14780635, 0.00002316758, 0.00017472966, -40700.48, -40700.48, 0.0, 10.000093, 9.942128 
3.1250042e+3, 3.1387073e+2, -39622.766, -82510.85, -0.1420909, 0.00002313385, -0.000054025044, -39622.766, -39622.766, 0.0, 10.000093, 9.94364 
3.1350043e+3, 1.2499435e+2, -1719826.6, -1724215.5, 0.08802531, 0.000025117075, 0.000027046985, -1719826.6, -4771.243, 0.0, 10.000099, 9.99428 
3.1350043e+3, 1.3498855e+2, -1622447.5, -1627426.9, -0.29843643, 0.000024896934, -0.00007421387, -1622447.5, -5335.255, 0.0, 10.000098, 9.993497 
3.1350043e+3, 1.4497606e+2, -1534346.0, -1548136.8, -0.009034804, 0.000024761872, 0.000085735504, -1534346.0, -15111.263, 0.0, 10.000098, 9.981818 
3.1350043e+3, 1.5495789e+2, -1436619.5, -1450813.3, -0.3597615, 0.000024707622, -0.000052091757, -1436619.5, -15206.732, 0.0, 10.000097, 9.981287 
3.1350043e+3, 1.6493309e+2, -1348569.6, -1371944.8, -0.023984767, 0.000024621602, 0.00004870654, -1348569.6, -24913.879, 0.0, 10.000097, 9.969202 
3.1350043e+3, 1.7490233e+2, -1250612.8, -1274303.4, -0.3923661, 0.00002450319, -0.00006944791, -1250612.8, -24655.57, 0.0, 10.000096, 9.968788 
3.1350043e+3, 1.8486494e+2, -1162532.1, -1195713.0, -0.05073526, 0.000024411795, 0.000071432856, -1162532.1, -34208.6, 0.0, 10.000096, 9.956349 
3.1350043e+3, 1.9482133e+2, -1064383.5, -1097826.6, -0.39804202, 0.000024348608, -0.000053676235, -1064383.5, -33632.523, 0.0, 10.000096, 9.956007 
3.135004e+3, 2.0477106e+2, -976220.2, -1019429.0, -0.057046264, 0.00002426361, 0.00007145366, -976220.2, -42976.473, 0.0, 10.000095, 9.943245 
3.135004e+3, 2.1471433e+2, -877934.1, -921404.6, -0.4074877, 0.000024154984, -0.00012329464, -877934.1, -42134.605, 0.0, 10.000095, 9.942904 
3.135004e+3, 2.2465092e+2, -789648.6, -843139.9, -0.054438096, 0.000024077135, 0.0001243318, -789648.6, -51227.645, 0.0, 10.000095, 9.929863 
3.135004e+3, 2.3458086e+2, -691216.0, -744962.1, -0.38443416, 0.000024034109, -0.00008571632, -691216.0, -50108.367, 0.0, 10.000094, 9.929532 
3.135004e+3, 2.4450383e+2, -602892.56, -667014.94, -0.030148132, 0.000023971552, 0.000077547185, -602892.56, -59030.156, 0.0, 10.000094, 9.916091 
3.135004e+3, 2.5442004e+2, -504140.78, -568340.1, -0.36186966, 0.000023885617, -0.00010405829, -504140.78, -57457.24, 0.0, 10.000094, 9.915992 
3.135004e+3, 2.6432917e+2, -415906.0, -490985.22, -0.0037917052, 0.000023816216, 0.00014306973, -415906.0, -66331.9, 0.0, 10.000094, 9.90192 
3.135004e+3, 2.7423167e+2, -316621.6, -391372.75, -0.3082955, 0.000023767885, -0.00020122653, -316621.6, -64091.72, 0.0, 10.000093, 9.90234 
3.135004e+3, 2.841259e+2, -230148.56, -318079.13, 0.049627095, 0.00002372602, 0.00023106346, -230148.56, -74582.29, 0.0, 10.000093, 9.885394 
3.135004e+3, 2.9401234e+2, -130443.16, -217763.45, -0.24269868, 0.000023692872, -0.00025144592, -130443.16, -71764.03, 0.0, 10.000093, 9.886173 
3.135004e+3, 3.0392674e+2, -40701.17, -84750.95, 0.097488455, 0.000023634784, 0.00017477536, -40701.17, -40701.17, 0.0, 10.000093, 9.942127 
3.135004e+3, 3.1387073e+2, -39623.457, -82512.3, -0.19036391, 0.00002353963, -0.000053965417, -39623.457, -39623.457, 0.0, 10.000093, 9.943639 
3.1450045e+3, 1.24994375e+2, -1719820.6, -1724213.4, 0.25148156, 0.000025602876, 0.000027264561, -1719820.6, -4765.3984, 0.0, 10.000103, 9.994279 
3.1450045e+3, 1.3498858e+2, -1622441.5, -1627424.9, -0.1265772, 0.00002538438, -0.000074385316, -1622441.5, -5329.4536, 0.0, 10.000103, 9.993496 
3.1450045e+3, 1.4497608e+2, -1534340.0, -1548134.6, 0.16457872, 0.000025248351, 0.00008607112, -1534340.0, -15105.482, 0.0, 10.000102, 9.981817 
3.1450045e+3, 1.5495792e+2, -1436613.5, -1450811.3, -0.2128293, 0.000025190415, -0.000051992494, -1436613.5, -15201.036, 0.0, 10.000102, 9.981286 
3.1450045e+3, 1.649331e+2, -1348563.8, -1371942.8, 0.12362986, 0.000025099862, 0.00004872107, -1348563.8, -24908.238, 0.0, 10.000101, 9.969201 
3.1450045e+3, 1.7490236e+2, -1250606.9, -1274301.4, -0.24822466, 0.000024976054, -0.00006936322, -1250606.9, -24649.941, 0.0, 10.000101, 9.968787 
3.1450045e+3, 1.8486495e+2, -1162526.4, -1195711.1, 0.092983276, 0.000024883544, 0.00007154152, -1162526.4, -34202.99, 0.0, 10.0001, 9.956348 
3.1450045e+3, 1.9482134e+2, -1064377.8, -1097824.9, -0.27664533, 0.000024823727, -0.000053591943, -1064377.8, -33626.99, 0.0, 10.0001, 9.956006 
3.1450045e+3, 2.0477107e+2, -976214.5, -1019427.25, 0.06740519, 0.00002473726, 0.00007152568, -976214.5, -42970.984, 0.0, 10.0001, 9.943244 
3.1450045e+3, 2.1471435e+2, -877928.56, -921402.9, -0.28627425, 0.000024621924, -0.00012322175, -877928.56, -42129.152, 0.0, 10.000099, 9.9429035 
3.1450045e+3, 2.2465093e+2, -789643.06, -843138.1, 0.06522292, 0.000024541152, 0.00012440303, -789643.06, -51222.215, 0.0, 10.000099, 9.929862 
3.1450045e+3, 2.3458086e+2, -691210.5, -744960.44, -0.28931376, 0.00002449948, -0.0000856496, -691210.5, -50102.973, 0.0, 10.000099, 9.929531 
3.1450045e+3, 2.4450384e+2, -602887.1, -667013.25, 0.066155, 0.000024436225, 0.00007760823, -602887.1, -59024.793, 0.0, 10.000098, 9.91609 
3.1450045e+3, 2.5442007e+2, -504135.38, -568338.5, -0.26493055, 0.000024347131, -0.00010400431, -504135.38, -57451.92, 0.0, 10.000098, 9.915991 
3.1450045e+3, 2.643292e+2, -415900.63, -490983.63, 0.0955844, 0.00002427524, 0.0001431214, -415900.63, -66326.61, 0.0, 10.000098, 9.901919 
3.1450042e+3, 2.7423167e+2, -316616.25, -391371.22, -0.2355541, 0.000024225272, -0.0002011711, -316616.25, -64086.47, 0.0, 10.000098, 9.902339 
3.1450042e+3, 2.841259e+2, -230143.25, -318077.56, 0.11451206, 0.000024182675, 0.00023111812, -230143.25, -74577.055, 0.0, 10.000097, 9.885393 
3.1450042e+3, 2.9401234e+2, -130437.89, -217761.94, -0.18962158, 0.000024150037, -0.00025139822, -130437.89, -71758.83, 0.0, 10.000097, 9.886172 
3.1450042e+3, 3.0392674e+2, -40696.0, -84749.55, 0.15764779, 0.000024089846, 0.00017481328, -40696.0, -40696.0, 0.0, 10.000097, 9.942126 
3.1450042e+3, 3.1387073e+2, -39618.32, -82510.91, -0.12636887, 0.000023988709, -0.00005394134, -39618.32, -39618.32, 0.0, 10.000097, 9.943638 
3.1550047e+3, 1.249944e+2, -1719821.5, -1724215.0, 0.070948124, 0.000026104495, 0.000027469654, -1719821.5, -4766.494, 0.0, 10.000103, 9.994278 
3.1550047e+3, 1.3498859e+2, -1622442.4, -1627426.4, -0.30714023, 0.0000258871, -0.00007454936, -1622442.4, -5330.531, 0.0, 10.000103, 9.993495 
3.1550047e+3, 1.4497611e+2, -1534340.9, -1548136.3, -0.010925371, 0.000025743653, 0.00008643716, -1534340.9, -15106.547, 0.0, 10.000102, 9.981816 
3.1550047e+3, 1.5495794e+2, -1436614.4, -1450812.9, -0.38832983, 0.000025669626, -0.000051880732, -1436614.4, -15202.079, 0.0, 10.000102, 9.981285 
3.1550047e+3, 1.6493313e+2, -1348564.6, -1371944.4, -0.02789171, 0.000025580734, 0.00004873609, -1348564.6, -24909.254, 0.0, 10.000101, 9.9692 
3.1550044e+3, 1.7490238e+2, -1250607.8, -1274303.0, -0.399634, 0.000025476702, -0.00006928405, -1250607.8, -24650.94, 0.0, 10.000101, 9.968786 
3.1550044e+3, 1.8486497e+2, -1162527.3, -1195712.8, -0.054836616, 0.000025376416, 0.00007165241, -1162527.3, -34203.973, 0.0, 10.0001, 9.956347 
3.1550044e+3, 1.9482137e+2, -1064378.6, -1097826.4, -0.42442888, 0.000025280011, -0.000053483298, -1064378.6, -33627.953, 0.0, 10.0001, 9.956005 
3.1550044e+3, 2.0477109e+2, -976215.3, -1019428.75, -0.05951042, 0.0000251958, 0.00007161795, -976215.3, -42971.91, 0.0, 10.0001, 9.943243 
3.1550044e+3, 2.1471438e+2, -877929.3, -921404.4, -0.41277114, 0.00002512478, -0.00012316118, -877929.3, -42130.06, 0.0, 10.000099, 9.942903 
3.1550044e+3, 2.2465095e+2, -789643.8, -843139.7, -0.050110508, 0.000025044721, 0.00012445988, -789643.8, -51223.12, 0.0, 10.000099, 9.929861 
3.1550044e+3, 2.3458087e+2, -691211.25, -744962.0, -0.40428483, 0.000024954405, -0.000085564774, -691211.25, -50103.86, 0.0, 10.000099, 9.92953 
3.1550044e+3, 2.4450386e+2, -602887.9, -667014.75, -0.035950795, 0.000024877945, 0.00007769539, -602887.9, -59025.64, 0.0, 10.000098, 9.916089 
3.1550044e+3, 2.5442007e+2, -504136.1, -568339.94, -0.3664331, 0.000024818022, -0.00010394544, -504136.1, -57452.75, 0.0, 10.000098, 9.91599 
3.1550044e+3, 2.643292e+2, -415901.38, -490985.16, 0.009351983, 0.000024759946, 0.0001431688, -415901.38, -66327.445, 0.0, 10.000098, 9.901918 
3.1550044e+3, 2.7423167e+2, -316617.0, -391372.72, -0.32076767, 0.000024704153, -0.00020111371, -316617.0, -64087.285, 0.0, 10.000098, 9.902338 
3.1550044e+3, 2.8412592e+2, -230143.95, -318079.03, 0.043130774, 0.00002464721, 0.00023117792, -230143.95, -74577.836, 0.0, 10.000097, 9.885392 
3.1550044e+3, 2.9401237e+2, -130438.586, -217763.38, -0.25976405, 0.00002458865, -0.00025134647, -130438.586, -71759.586, 0.0, 10.000097, 9.886171 
3.1550044e+3, 3.0392674e+2, -40696.69, -84750.98, 0.10053819, 0.000024532797, 0.00017484343, -40696.69, -40696.69, 0.0, 10.000097, 9.942125 
3.1550044e+3, 3.1387076e+2, -39619.01, -82512.336, -0.1819617, 0.000024481024, -0.000053952754, -39619.01, -39619.01, 0.0, 10.000097, 9.943637 
3.1650046e+3, 1.2499442e+2, -1719815.1, -1724212.9, 0.2806983, 0.000026620155, 0.00002768137, -1719815.1, -4760.402, 0.0, 10.000108, 9.994277 
3.1650046e+3, 1.3498862e+2, -1622436.3, -1627424.4, -0.12847376, 0.00002639227, -0.00007473762, -1622436.3, -5324.5425, 0.0, 10.000107, 9.993494 
3.1650046e+3, 1.4497612e+2, -1534334.6, -1548134.1, 0.16543432, 0.000026242044, 0.000086789565, -1534334.6, -15100.584, 0.0, 10.000107, 9.981815 
3.1650046e+3, 1.5495795e+2, -1436608.3, -1450810.8, -0.21956156, 0.000026164866, -0.000051773284, -1436608.3, -15196.121, 0.0, 10.000106, 9.981284 
3.1650046e+3, 1.6493315e+2, -1348558.5, -1371942.3, 0.1415344, 0.000026075531, 0.00004875407, -1348558.5, -24903.344, 0.0, 10.000106, 9.969199 
3.1650046e+3, 1.749024e+2, -1250601.8, -1274301.0, -0.24942572, 0.000025973817, -0.000069196736, -1250601.8, -24645.127, 0.0, 10.000105, 9.968785 
3.1650046e+3, 1.8486498e+2, -1162521.3, -1195710.8, 0.09577998, 0.000025869893, 0.00007176263, -1162521.3, -34198.195, 0.0, 10.000105, 9.9563465 
3.1650046e+3, 1.9482139e+2, -1064372.6, -1097824.5, -0.28280014, 0.00002576363, -0.000053398733, -1064372.6, -33622.188, 0.0, 10.000104, 9.956004 
3.1650046e+3, 2.047711e+2, -976209.44, -1019426.9, 0.07943682, 0.000025677604, 0.000071691604, -976209.44, -42966.168, 0.0, 10.000104, 9.943242 
3.1650046e+3, 2.1471438e+2, -877923.5, -921402.56, -0.2990395, 0.000025613477, -0.00012308243, -877923.5, -42124.387, 0.0, 10.000104, 9.942902 
3.1650046e+3, 2.2465096e+2, -789638.06, -843137.9, 0.06441507, 0.000025533014, 0.00012453731, -789638.06, -51217.49, 0.0, 10.000103, 9.92986 
3.1650043e+3, 2.3458089e+2, -691205.56, -744960.2, -0.29110613, 0.00002543403, -0.00008549592, -691205.56, -50098.27, 0.0, 10.000103, 9.929529 
3.1650043e+3, 2.4450386e+2, -602882.2, -667013.0, 0.07798227, 0.000025353625, 0.00007775939, -602882.2, -59020.074, 0.0, 10.000103, 9.916088 
3.1650043e+3, 2.5442007e+2, -504130.47, -568338.25, -0.27950764, 0.000025295409, -0.000103881845, -504130.47, -57447.22, 0.0, 10.000102, 9.915988 
3.1650043e+3, 2.643292e+2, -415895.78, -490983.5, 0.09309399, 0.000025237023, 0.00014323014, -415895.78, -66321.945, 0.0, 10.000102, 9.901917 
3.1650043e+3, 2.7423167e+2, -316611.47, -391371.1, -0.24080935, 0.000025178342, -0.000201057, -316611.47, -64081.832, 0.0, 10.000102, 9.902337 
3.1650043e+3, 2.8412592e+2, -230138.45, -318077.4, 0.13040194, 0.000025119063, 0.00023123006, -230138.45, -74572.4, 0.0, 10.000102, 9.885391 
3.1650043e+3, 2.9401237e+2, -130433.13, -217761.8, -0.18042395, 0.000025058933, -0.00025129877, -130433.13, -71754.195, 0.0, 10.000101, 9.88617 
3.1650043e+3, 3.0392674e+2, -40691.34, -84749.51, 0.17802529, 0.000025004052, 0.0001748834, -40691.34, -40691.34, 0.0, 10.000101, 9.942124 
3.1650043e+3, 3.1387076e+2, -39613.676, -82510.88, -0.12545472, 0.000024957018, -0.00005392539, -39613.676, -39613.676, 0.0, 10.000101, 9.943636 
3.175005e+3, 1.2499445e+2, -1719816.1, -1724214.6, 0.08124904, 0.000027149854, 0.000027901995, -1719816.1, -4761.5796, 0.0, 10.000108, 9.994276 
3.175005e+3, 1.3498864e+2, -1622437.1, -1627426.1, -0.32794082, 0.000026899897, -0.000074950054, -1622437.1, -5325.6997, 0.0, 10.000107, 9.993493 
3.175005e+3, 1.4497614e+2, -1534335.5, -1548135.8, -0.006525373, 0.000026743524, 0.00008712835, -1534335.5, -15101.675, 0.0, 10.000107, 9.981814 
3.1750047e+3, 1.5495798e+2, -1436609.1, -1450812.4, -0.39149517, 0.000026676118, -0.000051670137, -1436609.1, -15197.19, 0.0, 10.000106, 9.981283 
3.1750047e+3, 1.6493316e+2, -1348559.4, -1371944.0, -0.027859883, 0.00002658424, 0.00004877502, -1348559.4, -24904.412, 0.0, 10.000106, 9.969198 
3.1750047e+3, 1.7490241e+2, -1250602.6, -1274302.8, -0.41881236, 0.000026467415, -0.000069101305, -1250602.6, -24646.174, 0.0, 10.000105, 9.968784 
3.1750047e+3, 1.8486501e+2, -1162522.1, -1195712.4, -0.049209874, 0.000026363985, 0.00007187219, -1162522.1, -34199.207, 0.0, 10.000105, 9.956346 
3.1750047e+3, 1.948214e+2, -1064373.5, -1097826.1, -0.42752066, 0.000026274543, -0.0000533382, -1064373.5, -33623.176, 0.0, 10.000104, 9.956003 
3.1750047e+3, 2.0477112e+2, -976210.25, -1019428.5, -0.058938034, 0.000026182639, 0.000071746705, -976210.25, -42967.152, 0.0, 10.000104, 9.943241 
3.1750047e+3, 2.147144e+2, -877924.3, -921404.1, -0.43728438, 0.000026088052, -0.00012298556, -877924.3, -42125.35, 0.0, 10.000104, 9.942901 
3.1750047e+3, 2.2465096e+2, -789638.8, -843139.44, -0.055831425, 0.000026006066, 0.00012463526, -789638.8, -51218.41, 0.0, 10.000103, 9.929859 
3.1750047e+3, 2.345809e+2, -691206.3, -744961.75, -0.41078147, 0.000025938321, -0.00008544301, -691206.3, -50099.168, 0.0, 10.000103, 9.929527 
3.1750047e+3, 2.4450387e+2, -602883.0, -667014.56, -0.02710454, 0.000025863217, 0.00007780027, -602883.0, -59020.98, 0.0, 10.000103, 9.916087 
3.1750047e+3, 2.544201e+2, -504131.25, -568339.8, -0.3838963, 0.000025779289, -0.00010381354, -504131.25, -57448.105, 0.0, 10.000102, 9.915987 
3.1750047e+3, 2.6432922e+2, -415896.53, -490985.03, 0.0012164392, 0.000025706495, 0.00014330537, -415896.53, -66322.8, 0.0, 10.000102, 9.9019165 
3.1750047e+3, 2.742317e+2, -316612.2, -391372.63, -0.33186123, 0.000025647858, -0.000201001, -316612.2, -64082.66, 0.0, 10.000102, 9.902336 
3.1750047e+3, 2.8412592e+2, -230139.17, -318078.9, 0.052057482, 0.000025598232, 0.00023127455, -230139.17, -74573.195, 0.0, 10.000102, 9.88539 
3.1750047e+3, 2.9401237e+2, -130433.84, -217763.28, -0.2576373, 0.00002556084, -0.00025125511, -130433.84, -71754.98, 0.0, 10.000101, 9.886169 
3.1750047e+3, 3.0392677e+2, -40692.066, -84751.02, 0.11647925, 0.000025503574, 0.00017493317, -40692.066, -40692.066, 0.0, 10.000101, 9.942123 
3.1750047e+3, 3.1387076e+2, -39614.41, -82512.41, -0.18517044, 0.000025416732, -0.000053859312, -39614.41, -39614.41, 0.0, 10.000101, 9.943635 
3.185005e+3, 1.2499447e+2, -1719809.5, -1724212.4, 0.28277236, 0.000027672831, 0.000028111828, -1719809.5, -4755.296, 0.0, 10.000113, 9.994274 
3.185005e+3, 1.3498867e+2, -1622430.6, -1627423.9, -0.12836449, 0.000027419805, -0.000075139746, -1622430.6, -5319.417, 0.0, 10.000112, 9.993492 
3.185005e+3, 1.4497617e+2, -1534329.0, -1548133.6, 0.19279853, 0.00002726167, 0.000087508895, -1534329.0, -15095.423, 0.0, 10.000112, 9.981813 
3.185005e+3, 1.54958e+2, -1436602.8, -1450810.3, -0.21969436, 0.00002719373, -0.000051560888, -1436602.8, -15191.056, 0.0, 10.000111, 9.981282 
3.185005e+3, 1.6493319e+2, -1348553.1, -1371941.9, 0.14343259, 0.0000270988, 0.000048788304, -1348553.1, -24898.322, 0.0, 10.000111, 9.969197 
3.185005e+3, 1.7490242e+2, -1250596.4, -1274300.6, -0.25423768, 0.000026976357, -0.00006900493, -1250596.4, -24640.09, 0.0, 10.00011, 9.968783 
3.185005e+3, 1.8486504e+2, -1162515.9, -1195710.4, 0.11651404, 0.000026870557, 0.000071996226, -1162515.9, -34193.156, 0.0, 10.00011, 9.956345 
3.185005e+3, 1.9482142e+2, -1064367.4, -1097824.1, -0.2829037, 0.00002678214, -0.000053244556, -1064367.4, -33617.215, 0.0, 10.000109, 9.956001 
3.185005e+3, 2.0477113e+2, -976204.2, -1019426.5, 0.08896798, 0.00002668913, 0.00007182351, -976204.2, -42961.23, 0.0, 10.000109, 9.94324 
3.1850046e+3, 2.1471441e+2, -877918.25, -921402.25, -0.2890588, 0.000026591131, -0.00012291092, -877918.25, -42119.46, 0.0, 10.000108, 9.9429 
3.1850046e+3, 2.2465098e+2, -789632.8, -843137.56, 0.09469502, 0.000026505682, 0.0001247108, -789632.8, -51212.543, 0.0, 10.000108, 9.929858 
3.1850046e+3, 2.3458092e+2, -691200.4, -744959.94, -0.2922161, 0.000026434416, -0.0000853631, -691200.4, -50093.34, 0.0, 10.000108, 9.929526 
3.1850046e+3, 2.4450389e+2, -602877.06, -667012.75, 0.085695915, 0.000026358073, 0.00007787778, -602877.06, -59015.184, 0.0, 10.000107, 9.916086 
3.1850046e+3, 2.544201e+2, -504125.4, -568338.06, -0.2719029, 0.000026275626, -0.00010374651, -504125.4, -57442.367, 0.0, 10.000107, 9.915986 
3.1850046e+3, 2.6432922e+2, -415890.75, -490983.3, 0.11869576, 0.00002620237, 0.00014336385, -415890.75, -66317.1, 0.0, 10.000107, 9.901915 
3.1850046e+3, 2.742317e+2, -316606.44, -391370.94, -0.2353543, 0.00002614079, -0.00020094856, -316606.44, -64077.0, 0.0, 10.000106, 9.902335 
3.1850046e+3, 2.8412592e+2, -230133.44, -318077.22, 0.13926704, 0.000026088215, 0.0002313254, -230133.44, -74567.55, 0.0, 10.000106, 9.885389 
3.1850046e+3, 2.9401237e+2, -130428.16, -217761.64, -0.19289574, 0.000026047877, -0.00025119985, -130428.16, -71749.36, 0.0, 10.000106, 9.8861685 
3.1850046e+3, 3.0392677e+2, -40686.49, -84749.49, 0.17388973, 0.000025989437, 0.00017498818, -40686.49, -40686.49, 0.0, 10.000106, 9.942122 
3.1850046e+3, 3.1387076e+2, -39608.867, -82510.9, -0.13833094, 0.000025904046, -0.000053811527, -39608.867, -39608.867, 0.0, 10.000106, 9.943633 
3.195005e+3, 1.249945e+2, -1719810.5, -1724214.1, 0.08874279, 0.000028189112, 0.00002831364, -1719810.5, -4756.488, 0.0, 10.000113, 9.994273 
3.195005e+3, 1.3498868e+2, -1622431.5, -1627425.6, -0.3224296, 0.000027951983, -0.00007530672, -1622431.5, -5320.589, 0.0, 10.000112, 9.993491 
3.1950048e+3, 1.4497618e+2, -1534330.0, -1548135.4, -0.0016287969, 0.000027796465, 0.00008793112, -1534330.0, -15096.587, 0.0, 10.000112, 9.9818125 
3.1950048e+3, 1.5495801e+2, -1436603.6, -1450812.0, -0.41412044, 0.000027717699, -0.000051445546, -1436603.6, -15192.195, 0.0, 10.000111, 9.98128 
3.1950048e+3, 1.6493322e+2, -1348554.0, -1371943.6, -0.021622112, 0.000027619213, 0.000048793943, -1348554.0, -24899.414, 0.0, 10.000111, 9.969196 
3.1950048e+3, 1.7490245e+2, -1250597.3, -1274302.4, -0.41915637, 0.000027500631, -0.000068907604, -1250597.3, -24641.162, 0.0, 10.00011, 9.968782 
3.1950048e+3, 1.8486506e+2, -1162516.8, -1195712.0, -0.044344664, 0.000027389598, 0.0000721347, -1162516.8, -34194.223, 0.0, 10.00011, 9.956344 
3.1950048e+3, 1.9482143e+2, -1064368.3, -1097825.8, -0.44371897, 0.000027286433, -0.00005311785, -1064368.3, -33618.26, 0.0, 10.000109, 9.956 
3.1950048e+3, 2.0477115e+2, -976205.0, -1019428.1, -0.050996624, 0.000027197082, 0.00007192198, -976205.0, -42962.227, 0.0, 10.000109, 9.943239 
3.1950048e+3, 2.1471442e+2, -877919.1, -921403.9, -0.42861307, 0.00002712267, -0.00012285849, -877919.1, -42120.434, 0.0, 10.000108, 9.942898 
3.1950048e+3, 2.24651e+2, -789633.7, -843139.25, -0.029287368, 0.000027031821, 0.00012476397, -789633.7, -51213.53, 0.0, 10.000108, 9.929856 
3.1950048e+3, 2.3458093e+2, -691201.25, -744961.56, -0.41569003, 0.000026922342, -0.00008525624, -691201.25, -50094.313, 0.0, 10.000108, 9.929525 
3.1950048e+3, 2.445039e+2, -602877.9, -667014.4, -0.028429667, 0.00002683823, 0.00007799186, -602877.9, -59016.1, 0.0, 10.000107, 9.916085 
3.1950048e+3, 2.544201e+2, -504126.2, -568339.7, -0.38559553, 0.000026784406, -0.000103680766, -504126.2, -57443.26, 0.0, 10.000107, 9.915985 
3.1950048e+3, 2.6432922e+2, -415891.53, -490984.9, 0.02305106, 0.000026724605, 0.00014340562, -415891.53, -66317.99, 0.0, 10.000107, 9.901914 
3.1950048e+3, 2.742317e+2, -316607.22, -391372.53, -0.3297958, 0.000026657104, -0.00020089965, -316607.22, -64077.875, 0.0, 10.000106, 9.902334 
3.1950048e+3, 2.8412595e+2, -230134.2, -318078.8, 0.057658404, 0.000026589003, 0.00023138257, -230134.2, -74568.39, 0.0, 10.000106, 9.885388 
3.1950048e+3, 2.9401237e+2, -130428.914, -217763.2, -0.273358, 0.000026520085, -0.00025113302, -130428.914, -71750.19, 0.0, 10.000106, 9.886168 
3.1950048e+3, 3.0392677e+2, -40687.242, -84751.06, 0.10391759, 0.000026461676, 0.00017504842, -40687.242, -40687.242, 0.0, 10.000106, 9.9421215 
3.1950048e+3, 3.1387076e+2, -39609.62, -82512.47, -0.20708491, 0.000026418926, -0.000053782005, -39609.62, -39609.62, 0.0, 10.000106, 9.943632 
3.2050052e+3, 1.24994524e+2, -1719803.6, -1724211.8, 0.31392342, 0.000028724478, 0.000028538356, -1719803.6, -4749.8926, 0.0, 10.000117, 9.994272 
3.2050052e+3, 1.3498871e+2, -1622424.9, -1627423.4, -0.13344271, 0.00002849026, -0.00007549787, -1622424.9, -5314.129, 0.0, 10.000116, 9.99349 
3.2050052e+3, 1.4497621e+2, -1534323.3, -1548133.0, 0.18737139, 0.000028333106, 0.000088329405, -1534323.3, -15090.148, 0.0, 10.000116, 9.981812 
3.2050052e+3, 1.5495804e+2, -1436597.0, -1450809.8, -0.22084801, 0.000028248061, -0.000051347408, -1436597.0, -15185.757, 0.0, 10.000115, 9.981279 
3.2050052e+3, 1.6493323e+2, -1348547.4, -1371941.4, 0.17572343, 0.000028147664, 0.000048794995, -1348547.4, -24893.031, 0.0, 10.000114, 9.969194 
3.2050052e+3, 1.7490247e+2, -1250590.8, -1274300.3, -0.2514132, 0.000028031629, -0.000068796275, -1250590.8, -24634.896, 0.0, 10.000114, 9.968781 
3.2050052e+3, 1.8486507e+2, -1162510.4, -1195710.0, 0.12369674, 0.00002791992, 0.0000722759, -1162510.4, -34187.996, 0.0, 10.0001135, 9.956343 
3.2050052e+3, 1.9482146e+2, -1064361.9, -1097823.8, -0.27877912, 0.000027812699, -0.000053030944, -1064361.9, -33612.047, 0.0, 10.0001135, 9.955999 
3.205005e+3, 2.0477116e+2, -976198.6, -1019426.1, 0.11260566, 0.000027718967, 0.00007199324, -976198.6, -42956.035, 0.0, 10.0001135, 9.943238 
3.205005e+3, 2.1471445e+2, -877912.8, -921401.9, -0.29993427, 0.000027639822, -0.00012276102, -877912.8, -42114.293, 0.0, 10.000113, 9.942897 
3.205005e+3, 2.2465101e+2, -789627.44, -843137.25, 0.09591317, 0.000027548609, 0.0001248631, -789627.44, -51207.438, 0.0, 10.000113, 9.929855 
3.205005e+3, 2.3458095e+2, -691195.06, -744959.7, -0.28624588, 0.000027443712, -0.00008518328, -691195.06, -50088.285, 0.0, 10.000112, 9.929524 
3.205005e+3, 2.4450392e+2, -602871.75, -667012.5, 0.10713272, 0.000027357986, 0.00007805572, -602871.75, -59010.105, 0.0, 10.000112, 9.916084 
3.205005e+3, 2.5442013e+2, -504120.1, -568337.8, -0.27746916, 0.00002729515, -0.00010360561, -504120.1, -57437.28, 0.0, 10.000112, 9.915984 
3.205005e+3, 2.6432925e+2, -415885.47, -490983.13, 0.12487377, 0.00002723208, 0.00014348158, -415885.47, -66312.04, 0.0, 10.000111, 9.901913 
3.205005e+3, 2.7423173e+2, -316601.25, -391370.78, -0.23457631, 0.000027168635, -0.00020083628, -316601.25, -64071.98, 0.0, 10.000111, 9.902333 
3.205005e+3, 2.8412595e+2, -230128.27, -318077.1, 0.15953718, 0.00002710156, 0.00023143819, -230128.27, -74562.53, 0.0, 10.000111, 9.885387 
3.205005e+3, 2.940124e+2, -130423.02, -217761.53, -0.18291694, 0.000027029479, -0.00025107845, -130423.02, -71744.37, 0.0, 10.000111, 9.886166 
3.205005e+3, 3.0392677e+2, -40681.44, -84749.48, 0.18869029, 0.00002696299, 0.00017510312, -40681.44, -40681.44, 0.0, 10.00011, 9.942121 
3.205005e+3, 3.1387076e+2, -39603.824, -82510.89, -0.1418319, 0.00002690491, -0.000053725405, -39603.824, -39603.824, 0.0, 10.00011, 9.943631 
3.2150054e+3, 1.24994546e+2, -1719804.6, -1724213.6, 0.09419201, 0.000029278906, 0.000028788496, -1719804.6, -4751.1797, 0.0, 10.000117, 9.994271 
3.2150054e+3, 1.3498873e+2, -1622425.9, -1627425.3, -0.3531884, 0.00002903463, -0.00007571313, -1622425.9, -5315.3936, 0.0, 10.000116, 9.993488 
3.215005e+3, 1.4497624e+2, -1534324.3, -1548134.8, -0.0016397148, 0.000028871606, 0.00008870381, -1534324.3, -15091.312, 0.0, 10.000116, 9.981811 
3.215005e+3, 1.5495805e+2, -1436598.0, -1450811.5, -0.4098272, 0.000028784816, -0.000051266445, -1436598.0, -15186.896, 0.0, 10.000115, 9.981278 
3.215005e+3, 1.6493326e+2, -1348548.4, -1371943.3, -0.011194, 0.000028684151, 0.000048791462, -1348548.4, -24894.197, 0.0, 10.000114, 9.969193 
3.215005e+3, 1.7490248e+2, -1250591.8, -1274302.0, -0.43832415, 0.00002856935, -0.00006867097, -1250591.8, -24636.043, 0.0, 10.000114, 9.96878 
3.215005e+3, 1.8486509e+2, -1162511.3, -1195711.6, -0.034747433, 0.000028461507, 0.00007241982, -1162511.3, -34189.08, 0.0, 10.0001135, 9.956342 
3.215005e+3, 1.9482148e+2, -1064362.8, -1097825.5, -0.436911, 0.000028360906, -0.000052983756, -1064362.8, -33613.105, 0.0, 10.0001135, 9.955998 
3.215005e+3, 2.0477118e+2, -976199.56, -1019427.9, -0.033395357, 0.000028254768, 0.00007203734, -976199.56, -42957.11, 0.0, 10.0001135, 9.943237 
3.215005e+3, 2.1471447e+2, -877913.7, -921403.6, -0.44568703, 0.00002814262, -0.0001226186, -877913.7, -42115.348, 0.0, 10.000113, 9.942896 
3.215005e+3, 2.2465104e+2, -789628.3, -843138.94, -0.039812833, 0.000028056073, 0.00012500807, -789628.3, -51208.426, 0.0, 10.000113, 9.929854 
3.215005e+3, 2.3458096e+2, -691195.9, -744961.4, -0.42166033, 0.000027998469, -0.000085144165, -691195.9, -50089.254, 0.0, 10.000112, 9.929523 
3.215005e+3, 2.4450392e+2, -602872.56, -667014.2, -0.0052868924, 0.000027917276, 0.00007806944, -602872.56, -59011.082, 0.0, 10.000112, 9.916083 
3.215005e+3, 2.5442013e+2, -504120.94, -568339.5, -0.3887942, 0.000027807864, -0.000103521066, -504120.94, -57438.24, 0.0, 10.000112, 9.915983 
3.215005e+3, 2.6432925e+2, -415886.28, -490984.75, 0.019869275, 0.000027724833, 0.00014359168, -415886.28, -66312.95, 0.0, 10.000111, 9.901912 
3.2150048e+3, 2.7423173e+2, -316602.06, -391372.44, -0.33917275, 0.000027675405, -0.00020075847, -316602.06, -64072.88, 0.0, 10.000111, 9.902332 
3.2150048e+3, 2.8412595e+2, -230129.06, -318078.72, 0.07342763, 0.000027625872, 0.00023149226, -230129.06, -74563.41, 0.0, 10.000111, 9.885386 
3.2150048e+3, 2.940124e+2, -130423.805, -217763.14, -0.26737145, 0.000027575998, -0.00025103617, -130423.805, -71745.22, 0.0, 10.000111, 9.886165 
3.2150048e+3, 3.0392677e+2, -40682.23, -84751.12, 0.11828153, 0.000027493337, 0.00017515231, -40682.23, -40682.23, 0.0, 10.00011, 9.942119 
3.2150048e+3, 3.138708e+2, -39604.62, -82512.54, -0.21060479, 0.00002736207, -0.000053641772, -39604.62, -39604.62, 0.0, 10.00011, 9.94363 
3.2250053e+3, 1.24994576e+2, -1719797.6, -1724211.3, 0.29773843, 0.000029851397, 0.000029054994, -1719797.6, -4744.4194, 0.0, 10.000122, 9.99427 
3.2250053e+3, 1.3498875e+2, -1622418.9, -1627422.9, -0.14059384, 0.000029587241, -0.000075918106, -1622418.9, -5308.6406, 0.0, 10.000121, 9.993487 
3.2250053e+3, 1.4497626e+2, -1534317.3, -1548132.4, 0.22073677, 0.000029417959, 0.00008911103, -1534317.3, -15084.571, 0.0, 10.000121, 9.981809 
3.2250053e+3, 1.5495808e+2, -1436591.1, -1450809.1, -0.21379405, 0.000029338547, -0.00005113981, -1436591.1, -15180.274, 0.0, 10.00012, 9.981277 
3.2250053e+3, 1.6493328e+2, -1348541.6, -1371941.0, 0.18539618, 0.000029237739, 0.00004881551, -1348541.6, -24887.65, 0.0, 10.00012, 9.9691925 
3.2250053e+3, 1.7490251e+2, -1250585.0, -1274299.8, -0.246826, 0.000029115121, -0.00006856772, -1250585.0, -24629.5, 0.0, 10.000119, 9.968779 
3.2250053e+3, 1.8486512e+2, -1162504.5, -1195709.5, 0.16191752, 0.000029004106, 0.00007255173, -1162504.5, -34182.547, 0.0, 10.000119, 9.956341 
3.2250053e+3, 1.9482149e+2, -1064356.1, -1097823.3, -0.26557943, 0.00002890519, -0.000052876065, -1064356.1, -33606.656, 0.0, 10.000118, 9.955997 
3.2250053e+3, 2.0477119e+2, -976193.0, -1019425.8, 0.1425751, 0.000028798295, 0.000072130504, -976193.0, -42950.72, 0.0, 10.000118, 9.943236 
3.2250053e+3, 2.1471448e+2, -877907.2, -921401.56, -0.2664529, 0.000028682745, -0.00012252947, -877907.2, -42109.004, 0.0, 10.000117, 9.942895 
3.2250053e+3, 2.2465105e+2, -789621.8, -843136.9, 0.14250606, 0.000028594142, 0.00012509513, -789621.8, -51202.1, 0.0, 10.000117, 9.929853 
3.2250053e+3, 2.3458096e+2, -691189.44, -744959.4, -0.26622215, 0.000028536013, -0.00008505693, -691189.44, -50082.95, 0.0, 10.000116, 9.9295225 
3.2250053e+3, 2.4450393e+2, -602866.2, -667012.25, 0.14747044, 0.000028453713, 0.00007814999, -602866.2, -59004.816, 0.0, 10.000116, 9.916082 
3.2250053e+3, 2.5442016e+2, -504114.63, -568337.6, -0.24788594, 0.000028342494, -0.00010345541, -504114.63, -57432.047, 0.0, 10.000116, 9.915982 
3.2250053e+3, 2.6432925e+2, -415880.0, -490982.9, 0.15501185, 0.000028255494, 0.00014365552, -415880.0, -66306.79, 0.0, 10.000115, 9.901911 
3.2250053e+3, 2.7423173e+2, -316595.8, -391370.6, -0.22945307, 0.000028199345, -0.0002006798, -316595.8, -64066.734, 0.0, 10.000115, 9.90233 
3.2250053e+3, 2.8412598e+2, -230122.84, -318076.88, 0.1761854, 0.000028147762, 0.00023157145, -230122.84, -74557.28, 0.0, 10.000115, 9.8853855 
3.2250053e+3, 2.940124e+2, -130417.66, -217761.38, -0.17787264, 0.000028102244, -0.0002509761, -130417.66, -71739.15, 0.0, 10.000115, 9.886164 
3.2250053e+3, 3.039268e+2, -40676.21, -84749.484, 0.20556189, 0.000028017274, 0.00017519621, -40676.21, -40676.21, 0.0, 10.000114, 9.942118 
3.2250053e+3, 3.138708e+2, -39598.625, -82510.92, -0.14027536, 0.000027873743, -0.000053609445, -39598.625, -39598.625, 0.0, 10.000114, 9.943629 
3.2350057e+3, 1.24994606e+2, -1719798.6, -1724213.1, 0.08237576, 0.00003044193, 0.000029340756, -1719798.6, -4745.6963, 0.0, 10.000122, 9.994268 
3.2350057e+3, 1.3498878e+2, -1622419.9, -1627424.8, -0.35598564, 0.000030148089, -0.00007611281, -1622419.9, -5309.896, 0.0, 10.000121, 9.993486 
3.2350054e+3, 1.4497629e+2, -1534318.3, -1548134.3, 0.009449587, 0.000029972169, 0.00008955101, -1534318.3, -15085.806, 0.0, 10.000121, 9.981808 
3.2350054e+3, 1.5495811e+2, -1436592.1, -1450811.0, -0.4250854, 0.000029909232, -0.000050967607, -1436592.1, -15181.483, 0.0, 10.00012, 9.9812765 
3.2350054e+3, 1.6493331e+2, -1348542.5, -1371942.8, 0.0030851304, 0.000029808405, 0.00004886707, -1348542.5, -24888.838, 0.0, 10.00012, 9.969192 
3.2350054e+3, 1.7490253e+2, -1250585.9, -1274301.6, -0.42899173, 0.000029668936, -0.0000684865, -1250585.9, -24630.666, 0.0, 10.000119, 9.968778 
3.2350054e+3, 1.8486513e+2, -1162505.5, -1195711.3, -0.009917331, 0.000029547731, 0.00007267167, -1162505.5, -34183.69, 0.0, 10.000119, 9.956339 
3.2350054e+3, 1.948215e+2, -1064357.0, -1097825.1, -0.43730745, 0.000029445575, -0.000052707994, -1064357.0, -33607.777, 0.0, 10.000118, 9.9559965 
3.2350054e+3, 2.0477122e+2, -976193.9, -1019427.56, -0.009896257, 0.000029349545, 0.00007227261, -976193.9, -42951.797, 0.0, 10.000118, 9.943234 
3.2350054e+3, 2.147145e+2, -877908.06, -921403.3, -0.41854578, 0.00002926013, -0.00012249353, -877908.06, -42110.063, 0.0, 10.000117, 9.942894 
3.2350054e+3, 2.2465107e+2, -789622.7, -843138.7, 0.0073445393, 0.00002916277, 0.00012512442, -789622.7, -51203.152, 0.0, 10.000117, 9.9298525 
3.2350054e+3, 2.3458098e+2, -691190.3, -744961.1, -0.4008431, 0.000029056391, -0.00008492167, -691190.3, -50083.98, 0.0, 10.000116, 9.929522 
3.2350054e+3, 2.4450395e+2, -602867.06, -667014.0, 0.024325311, 0.000028967354, 0.00007829722, -602867.06, -59005.83, 0.0, 10.000116, 9.91608 
3.2350054e+3, 2.5442016e+2, -504115.47, -568339.4, -0.37048554, 0.00002889901, -0.000103408594, -504115.47, -57433.03, 0.0, 10.000116, 9.915981 
3.235005e+3, 2.6432928e+2, -415880.88, -490984.66, 0.050363034, 0.000028824003, 0.0001436732, -415880.88, -66307.766, 0.0, 10.000115, 9.90191 
3.235005e+3, 2.7423176e+2, -316596.66, -391372.34, -0.3329129, 0.000028740433, -0.00020060028, -316596.66, -64067.688, 0.0, 10.000115, 9.902329 
3.235005e+3, 2.8412598e+2, -230123.66, -318078.56, 0.08146799, 0.000028667248, 0.00023167572, -230123.66, -74558.19, 0.0, 10.000115, 9.885385 
3.235005e+3, 2.940124e+2, -130418.47, -217763.05, -0.27181107, 0.00002860827, -0.0002508983, -130418.47, -71740.04, 0.0, 10.000115, 9.886163 
3.235005e+3, 3.039268e+2, -40677.035, -84751.195, 0.12927853, 0.000028534825, 0.00017523483, -40677.035, -40677.035, 0.0, 10.000114, 9.942117 
3.235005e+3, 3.138708e+2, -39599.453, -82512.64, -0.21448971, 0.000028439834, -0.000053628315, -39599.453, -39599.453, 0.0, 10.000114, 9.943628 
3.2450056e+3, 1.2499463e+2, -1719791.3, -1724210.6, 0.34060723, 0.000031024043, 0.000029595885, -1719791.3, -4738.616, 0.0, 10.000127, 9.994267 
3.2450056e+3, 1.3498881e+2, -1622412.6, -1627422.4, -0.12587662, 0.00003072908, -0.00007633585, -1622412.6, -5302.9463, 0.0, 10.000127, 9.993485 
3.2450056e+3, 1.4497632e+2, -1534311.1, -1548131.9, 0.23485078, 0.000030549952, 0.0000899751, -1534311.1, -15078.906, 0.0, 10.000126, 9.981807 
3.2450056e+3, 1.5495813e+2, -1436585.0, -1450808.6, -0.21705171, 0.000030481613, -0.000050827686, -1436585.0, -15174.601, 0.0, 10.000125, 9.981276 
3.2450056e+3, 1.6493332e+2, -1348535.5, -1371940.4, 0.22015283, 0.000030376954, 0.00004889901, -1348535.5, -24881.982, 0.0, 10.000125, 9.969191 
3.2450056e+3, 1.7490256e+2, -1250578.9, -1274299.4, -0.22229621, 0.000030235262, -0.00006838254, -1250578.9, -24623.889, 0.0, 10.000124, 9.968777 
3.2450056e+3, 1.8486516e+2, -1162498.5, -1195709.0, 0.199424, 0.000030110235, 0.00007280398, -1162498.5, -34176.965, 0.0, 10.000124, 9.956338 
3.2450053e+3, 1.9482154e+2, -1064350.1, -1097822.9, -0.24483603, 0.00003000258, -0.000052593034, -1064350.1, -33601.086, 0.0, 10.000123, 9.955995 
3.2450053e+3, 2.0477124e+2, -976187.0, -1019425.3, 0.17757803, 0.0000299076, 0.00007237371, -976187.0, -42945.125, 0.0, 10.000123, 9.9432335 
3.2450053e+3, 2.1471451e+2, -877901.3, -921401.2, -0.25782707, 0.00002982632, -0.0001224025, -877901.3, -42103.45, 0.0, 10.000122, 9.942893 
3.2450053e+3, 2.2465108e+2, -789616.0, -843136.56, 0.16579798, 0.000029726354, 0.00012521478, -789616.0, -51196.59, 0.0, 10.000122, 9.929852 
3.2450053e+3, 2.34581e+2, -691183.7, -744959.06, -0.2598003, 0.000029605213, -0.00008482136, -691183.7, -50077.453, 0.0, 10.000122, 9.92952 
3.2450053e+3, 2.4450396e+2, -602860.44, -667012.0, 0.16353314, 0.000029511988, 0.00007839671, -602860.44, -58999.316, 0.0, 10.000121, 9.9160795 
3.2450053e+3, 2.5442016e+2, -504108.9, -568337.4, -0.23704702, 0.00002945209, -0.00010332279, -504108.9, -57426.57, 0.0, 10.000121, 9.915979 
3.2450053e+3, 2.6432928e+2, -415874.34, -490982.72, 0.19005786, 0.000029379655, 0.00014374792, -415874.34, -66301.36, 0.0, 10.000121, 9.901909 
3.2450053e+3, 2.7423176e+2, -316590.2, -391370.47, -0.21157199, 0.000029291154, -0.00020053332, -316590.2, -64061.33, 0.0, 10.00012, 9.9023285 
3.2450053e+3, 2.8412598e+2, -230117.22, -318076.7, 0.19780572, 0.000029211124, 0.00023174079, -230117.22, -74551.83, 0.0, 10.00012, 9.885383 
3.2450053e+3, 2.9401243e+2, -130412.06, -217761.19, -0.16494726, 0.000029142717, -0.00025082708, -130412.06, -71733.72, 0.0, 10.00012, 9.886162 
3.2450053e+3, 3.039268e+2, -40670.77, -84749.47, 0.23892169, 0.000029071158, 0.00017529758, -40670.77, -40670.77, 0.0, 10.000119, 9.942116 
3.2450053e+3, 3.138708e+2, -39593.26, -82510.95, -0.10276226, 0.000028994873, -0.000053595802, -39593.26, -39593.26, 0.0, 10.000119, 9.943626 
3.2550058e+3, 1.2499466e+2, -1719792.4, -1724212.6, 0.10113364, 0.00003159776, 0.000029823603, -1719792.4, -4739.97, 0.0, 10.000127, 9.9942665 
3.2550058e+3, 1.3498883e+2, -1622413.8, -1627424.4, -0.3653807, 0.000031330186, -0.00007658718, -1622413.8, -5304.2773, 0.0, 10.000127, 9.993484 
3.2550055e+3, 1.4497633e+2, -1534312.1, -1548133.8, 0.025301326, 0.00003115127, 0.000090383364, -1534312.1, -15080.19, 0.0, 10.000126, 9.981806 
3.2550055e+3, 1.5495816e+2, -1436586.0, -1450810.5, -0.42656267, 0.0000310557, -0.000050719977, -1436586.0, -15175.859, 0.0, 10.000125, 9.981274 
3.2550055e+3, 1.6493335e+2, -1348536.5, -1371942.3, 0.025783492, 0.000030943404, 0.00004891137, -1348536.5, -24883.203, 0.0, 10.000125, 9.969189 
3.2550055e+3, 1.7490257e+2, -1250579.9, -1274301.3, -0.41660458, 0.000030814084, -0.0000682559, -1250579.9, -24625.088, 0.0, 10.000124, 9.968776 
3.2550055e+3, 1.8486518e+2, -1162499.5, -1195710.9, 0.025551783, 0.000030691594, 0.00007294865, -1162499.5, -34178.156, 0.0, 10.000124, 9.956337 
3.2550055e+3, 1.9482155e+2, -1064351.1, -1097824.8, -0.41847995, 0.000030576186, -0.000052531064, -1064351.1, -33602.254, 0.0, 10.000123, 9.955994 
3.2550055e+3, 2.0477125e+2, -976188.0, -1019427.2, 0.01662612, 0.000030472458, 0.00007243389, -976188.0, -42946.27, 0.0, 10.000123, 9.943233 
3.2550055e+3, 2.1471453e+2, -877902.25, -921403.0, -0.41852364, 0.000030381354, -0.00012225649, -877902.25, -42104.57, 0.0, 10.000122, 9.942891 
3.2550055e+3, 2.2465111e+2, -789616.94, -843138.44, 0.02776266, 0.000030284924, 0.00012536607, -789616.94, -51197.688, 0.0, 10.000122, 9.92985 
3.2550055e+3, 2.3458101e+2, -691184.56, -744960.9, -0.39710677, 0.000030182437, -0.00008475594, -691184.56, -50078.53, 0.0, 10.000122, 9.929519 
3.2550055e+3, 2.4450399e+2, -602861.3, -667013.75, 0.034986693, 0.000030087562, 0.00007844856, -602861.3, -59000.348, 0.0, 10.000121, 9.916079 
3.2550055e+3, 2.544202e+2, -504109.78, -568339.1, -0.3651954, 0.000030001755, -0.00010319806, -504109.78, -57427.574, 0.0, 10.000121, 9.915978 
3.2550055e+3, 2.6432928e+2, -415875.25, -490984.56, 0.07917191, 0.000029922492, 0.00014387956, -415875.25, -66302.375, 0.0, 10.000121, 9.901907 
3.2550055e+3, 2.7423176e+2, -316591.1, -391372.28, -0.32130393, 0.0000298515, -0.00020047891, -316591.1, -64062.324, 0.0, 10.00012, 9.902328 
3.2550055e+3, 2.8412598e+2, -230118.06, -318078.4, 0.099116966, 0.000029779352, 0.00023176675, -230118.06, -74552.766, 0.0, 10.00012, 9.885382 
3.2550055e+3, 2.9401243e+2, -130412.89, -217762.9, -0.26266584, 0.000029705541, -0.00025076242, -130412.89, -71734.63, 0.0, 10.00012, 9.886161 
3.2550055e+3, 3.039268e+2, -40671.594, -84751.19, 0.14509997, 0.000029626246, 0.0001753844, -40671.594, -40671.594, 0.0, 10.000119, 9.942115 
3.2550055e+3, 3.138708e+2, -39594.09, -82512.67, -0.19615515, 0.000029538893, -0.000053511998, -39594.09, -39594.09, 0.0, 10.000119, 9.943625 
3.265006e+3, 1.2499469e+2, -1719784.8, -1724210.0, 0.36569563, 0.000032193668, 0.000030067948, -1719784.8, -4732.6772, 0.0, 10.000133, 9.994266 
3.265006e+3, 1.3498886e+2, -1622406.3, -1627421.8, -0.1190957, 0.000031924475, -0.000076788005, -1622406.3, -5297.025, 0.0, 10.000132, 9.993483 
3.265006e+3, 1.4497636e+2, -1534304.6, -1548131.1, 0.2809626, 0.00003174288, 0.00009085664, -1534304.6, -15072.962, 0.0, 10.000132, 9.981805 
3.265006e+3, 1.5495819e+2, -1436578.6, -1450808.0, -0.18254682, 0.000031643434, -0.000050603252, -1436578.6, -15168.724, 0.0, 10.000131, 9.981273 
3.265006e+3, 1.6493337e+2, -1348529.1, -1371939.9, 0.2719074, 0.000031528863, 0.000048915157, -1348529.1, -24876.129, 0.0, 10.00013, 9.969188 
3.265006e+3, 1.749026e+2, -1250572.6, -1274298.8, -0.19835688, 0.000031398915, -0.00006811625, -1250572.6, -24618.06, 0.0, 10.00013, 9.968774 
3.265006e+3, 1.8486519e+2, -1162492.3, -1195708.5, 0.24405251, 0.000031275988, 0.00007312481, -1162492.3, -34171.168, 0.0, 10.000129, 9.956336 
3.2650056e+3, 1.9482157e+2, -1064344.0, -1097822.5, -0.2084595, 0.00003116034, -0.00005242234, -1064344.0, -33595.332, 0.0, 10.000129, 9.955993 
3.2650056e+3, 2.0477127e+2, -976180.9, -1019424.94, 0.23913561, 0.000031051524, 0.00007251995, -976180.9, -42939.37, 0.0, 10.000128, 9.943232 
3.2650056e+3, 2.1471454e+2, -877895.2, -921400.8, -0.20242615, 0.000030950083, -0.00012214461, -877895.2, -42097.688, 0.0, 10.000128, 9.94289 
3.2650056e+3, 2.2465113e+2, -789609.9, -843136.25, 0.24869172, 0.000030853123, 0.00012547913, -789609.9, -51190.848, 0.0, 10.000127, 9.929849 
3.2650056e+3, 2.3458104e+2, -691177.7, -744958.75, -0.19182013, 0.000030761203, -0.00008466965, -691177.7, -50071.76, 0.0, 10.000127, 9.929518 
3.2650056e+3, 2.44504e+2, -602854.44, -667011.7, 0.23145834, 0.000030665695, 0.00007852826, -602854.44, -58993.613, 0.0, 10.000127, 9.916078 
3.2650056e+3, 2.544202e+2, -504102.9, -568337.06, -0.2042745, 0.000030565872, -0.000103100836, -504102.9, -57420.86, 0.0, 10.000126, 9.9159775 
3.2650056e+3, 2.643293e+2, -415868.44, -490982.5, 0.23192935, 0.000030482299, 0.00014397442, -415868.44, -66295.68, 0.0, 10.000126, 9.901906 
3.2650056e+3, 2.742318e+2, -316584.34, -391370.3, -0.16815853, 0.000030419382, -0.00020041177, -316584.34, -64055.695, 0.0, 10.000126, 9.902327 
3.2650056e+3, 2.84126e+2, -230111.38, -318076.47, 0.2494606, 0.0000303511, 0.0002318226, -230111.38, -74546.18, 0.0, 10.000125, 9.885381 
3.2650056e+3, 2.9401243e+2, -130406.27, -217761.02, -0.14997362, 0.000030275343, -0.00025069527, -130406.27, -71728.09, 0.0, 10.000125, 9.886159 
3.2650056e+3, 3.0392683e+2, -40665.07, -84749.41, 0.22187439, 0.00003018729, 0.00017546113, -40665.07, -40665.07, 0.0, 10.000125, 9.942113 
3.2650056e+3, 3.1387082e+2, -39587.547, -82510.89, -0.16790605, 0.000030081119, -0.00005342841, -39587.547, -39587.547, 0.0, 10.000124, 9.9436245 
3.275006e+3, 1.2499472e+2, -1719785.9, -1724212.0, 0.12342502, 0.00003281172, 0.000030333274, -1719785.9, -4734.0864, 0.0, 10.000133, 9.994264 
3.275006e+3, 1.3498889e+2, -1622407.4, -1627423.9, -0.36139417, 0.000032511976, -0.000076938435, -1622407.4, -5298.4106, 0.0, 10.000132, 9.993482 
3.275006e+3, 1.4497639e+2, -1534305.6, -1548133.1, 0.05535395, 0.000032324813, 0.000091394795, -1534305.6, -15074.286, 0.0, 10.000132, 9.981803 
3.2750058e+3, 1.549582e+2, -1436579.6, -1450810.0, -0.40813395, 0.000032244792, -0.00005047752, -1436579.6, -15170.0205, 0.0, 10.000131, 9.981272 
3.2750058e+3, 1.649334e+2, -1348530.3, -1371941.9, 0.07272214, 0.00003213331, 0.000048910395, -1348530.3, -24877.424, 0.0, 10.00013, 9.969187 
3.2750058e+3, 1.7490262e+2, -1250573.6, -1274300.8, -0.39741838, 0.000031989763, -0.00006796363, -1250573.6, -24619.332, 0.0, 10.00013, 9.968773 
3.2750058e+3, 1.8486522e+2, -1162493.3, -1195710.5, 0.060194213, 0.00003186342, 0.00007333239, -1162493.3, -34172.39, 0.0, 10.000129, 9.956334 
3.2750058e+3, 1.948216e+2, -1064345.0, -1097824.4, -0.392153, 0.00003175503, -0.00005226696, -1064345.0, -33596.53, 0.0, 10.000129, 9.955992 
3.2750058e+3, 2.047713e+2, -976181.9, -1019426.8, 0.08133562, 0.000031644777, 0.000072631825, -976181.9, -42940.54, 0.0, 10.000128, 9.94323 
3.2750058e+3, 2.1471457e+2, -877896.1, -921402.7, -0.3597158, 0.00003153249, -0.000122066755, -877896.1, -42098.832, 0.0, 10.000128, 9.942889 
3.2750058e+3, 2.2465114e+2, -789610.9, -843138.2, 0.09886541, 0.000031430947, 0.00012555403, -789610.9, -51191.99, 0.0, 10.000127, 9.929848 
3.2750058e+3, 2.3458105e+2, -691178.6, -744960.7, -0.34140724, 0.000031341522, -0.000084562525, -691178.6, -50072.883, 0.0, 10.000127, 9.929517 
3.2750058e+3, 2.4450402e+2, -602855.4, -667013.56, 0.10428694, 0.0000312464, 0.00007863574, -602855.4, -58994.723, 0.0, 10.000127, 9.916076 
3.2750058e+3, 2.5442022e+2, -504103.88, -568339.0, -0.33037606, 0.000031144427, -0.00010303107, -504103.88, -57421.945, 0.0, 10.000126, 9.915977 
3.2750055e+3, 2.643293e+2, -415869.34, -490984.34, 0.11170232, 0.00003105906, 0.00014403257, -415869.34, -66296.71, 0.0, 10.000126, 9.901905 
3.2750055e+3, 2.742318e+2, -316585.25, -391372.13, -0.28801814, 0.000030994794, -0.00020033194, -316585.25, -64056.7, 0.0, 10.000126, 9.902325 
3.2750055e+3, 2.84126e+2, -230112.28, -318078.34, 0.14416757, 0.000030926374, 0.00023190826, -230112.28, -74547.195, 0.0, 10.000125, 9.88538 
3.2750055e+3, 2.9401246e+2, -130407.17, -217762.88, -0.2539557, 0.000030852123, -0.00025062566, -130407.17, -71729.086, 0.0, 10.000125, 9.886158 
3.2750055e+3, 3.0392683e+2, -40665.99, -84751.31, 0.13282949, 0.00003075429, 0.00017552778, -40665.99, -40665.99, 0.0, 10.000125, 9.942112 
3.2750055e+3, 3.1387082e+2, -39588.47, -82512.805, -0.25520167, 0.000030621573, -0.000053345047, -39588.47, -39588.47, 0.0, 10.000124, 9.943624 
3.285006e+3, 1.2499475e+2, -1719778.0, -1724209.4, 0.3883426, 0.000033429722, 0.0000306264, -1719778.0, -4726.5327, 0.0, 10.000138, 9.994263 
3.285006e+3, 1.3498892e+2, -1622399.5, -1627421.3, -0.11718538, 0.000033125776, -0.000077171826, -1622399.5, -5290.932, 0.0, 10.000137, 9.99348 
3.285006e+3, 1.4497642e+2, -1534297.9, -1548130.5, 0.3050174, 0.000032932825, 0.0000918627, -1534297.9, -15066.809, 0.0, 10.000136, 9.981802 
3.285006e+3, 1.5495823e+2, -1436571.9, -1450807.4, -0.16530862, 0.000032845288, -0.000050337672, -1436571.9, -15162.603, 0.0, 10.000136, 9.98127 
3.285006e+3, 1.6493343e+2, -1348522.6, -1371939.4, 0.32933918, 0.000032732652, 0.000048936738, -1348522.6, -24870.094, 0.0, 10.000135, 9.969185 
3.285006e+3, 1.7490265e+2, -1250566.1, -1274298.4, -0.15665059, 0.000032594453, -0.00006783172, -1250566.1, -24612.084, 0.0, 10.000134, 9.968772 
3.285006e+3, 1.8486524e+2, -1162485.9, -1195708.0, 0.30818844, 0.000032467455, 0.00007349535, -1162485.9, -34165.156, 0.0, 10.000134, 9.956333 
3.285006e+3, 1.9482161e+2, -1064337.5, -1097822.0, -0.15972751, 0.00003235215, -0.00005215092, -1064337.5, -33589.316, 0.0, 10.0001335, 9.95599 
3.285006e+3, 2.0477131e+2, -976174.5, -1019424.5, 0.3082625, 0.000032237887, 0.00007273543, -976174.5, -42933.375, 0.0, 10.0001335, 9.943229 
3.285006e+3, 2.1471459e+2, -877888.9, -921400.4, -0.17130679, 0.000032124743, -0.00012193825, -877888.9, -42091.74, 0.0, 10.000133, 9.942888 
3.285006e+3, 2.2465116e+2, -789603.6, -843135.9, 0.278034, 0.000032022333, 0.00012568328, -789603.6, -51184.91, 0.0, 10.000133, 9.929847 
3.285006e+3, 2.3458107e+2, -691171.4, -744958.44, -0.16672395, 0.000031932035, -0.00008445991, -691171.4, -50065.83, 0.0, 10.000133, 9.929515 
3.285006e+3, 2.4450403e+2, -602848.25, -667011.4, 0.2924925, 0.0000318366, 0.000078723024, -602848.25, -58987.707, 0.0, 10.000132, 9.916075 
3.285006e+3, 2.5442022e+2, -504096.78, -568336.9, -0.1474335, 0.00003173499, -0.0001029456, -504096.78, -57414.992, 0.0, 10.000132, 9.915975 
3.285006e+3, 2.6432934e+2, -415862.28, -490982.25, 0.283752, 0.000031646407, 0.00014412159, -415862.28, -66289.78, 0.0, 10.000131, 9.901904 
3.285006e+3, 2.742318e+2, -316578.22, -391370.06, -0.156951, 0.00003157437, -0.00020023256, -316578.22, -64049.797, 0.0, 10.000131, 9.902324 
3.285006e+3, 2.84126e+2, -230105.28, -318076.28, 0.2652886, 0.0000315035, 0.00023200511, -230105.28, -74540.3, 0.0, 10.000131, 9.885378 
3.285006e+3, 2.9401246e+2, -130400.23, -217760.88, -0.12906134, 0.000031434094, -0.00025054903, -130400.23, -71722.234, 0.0, 10.000131, 9.886157 
3.285006e+3, 3.0392683e+2, -40659.176, -84749.46, 0.26921588, 0.00003133394, 0.00017558926, -40659.176, -40659.176, 0.0, 10.00013, 9.942111 
3.285006e+3, 3.1387082e+2, -39581.703, -82510.984, -0.11679501, 0.000031188207, -0.00005329108, -39581.703, -39581.703, 0.0, 10.00013, 9.943622 
3.2950065e+3, 1.24994785e+2, -1719779.3, -1724211.5, 0.13518994, 0.000034047687, 0.0000309519, -1719779.3, -4728.003, 0.0, 10.000138, 9.994261 
3.2950065e+3, 1.3498895e+2, -1622400.8, -1627423.4, -0.37034497, 0.000033765835, -0.000077487995, -1622400.8, -5292.377, 0.0, 10.000137, 9.993479 
3.2950065e+3, 1.4497645e+2, -1534299.0, -1548132.5, 0.07155553, 0.000033566866, 0.000092260525, -1534299.0, -15068.16, 0.0, 10.000136, 9.981801 
3.2950062e+3, 1.5495826e+2, -1436573.0, -1450809.4, -0.39876467, 0.00003344494, -0.00005018373, -1436573.0, -15163.928, 0.0, 10.000136, 9.981269 
3.2950062e+3, 1.6493344e+2, -1348523.8, -1371941.4, 0.11760134, 0.000033326927, 0.00004899411, -1348523.8, -24871.436, 0.0, 10.000135, 9.969184 
3.2950062e+3, 1.7490268e+2, -1250567.3, -1274300.4, -0.3682796, 0.000033212957, -0.00006772049, -1250567.3, -24613.402, 0.0, 10.000134, 9.96877 
3.2950062e+3, 1.8486527e+2, -1162486.9, -1195710.0, 0.1254443, 0.000033088065, 0.00007361379, -1162486.9, -34166.42, 0.0, 10.000134, 9.956332 
3.2950062e+3, 1.9482164e+2, -1064338.6, -1097824.0, -0.34215885, 0.000032951706, -0.000052074112, -1064338.6, -33590.56, 0.0, 10.0001335, 9.955989 
3.2950062e+3, 2.0477132e+2, -976175.56, -1019426.56, 0.14073323, 0.000032830874, 0.00007283078, -976175.56, -42934.637, 0.0, 10.0001335, 9.943228 
3.2950062e+3, 2.147146e+2, -877889.9, -921402.44, -0.33852664, 0.00003272683, -0.00012175921, -877889.9, -42092.973, 0.0, 10.000133, 9.942886 
3.2950062e+3, 2.2465117e+2, -789604.6, -843137.8, 0.1290976, 0.000032627268, 0.00012586672, -789604.6, -51186.074, 0.0, 10.000133, 9.929845 
3.2950062e+3, 2.3458108e+2, -691172.4, -744960.4, -0.3150869, 0.00003253273, -0.0000843618, -691172.4, -50066.96, 0.0, 10.000133, 9.929514 
3.2950062e+3, 2.4450405e+2, -602849.2, -667013.4, 0.1579441, 0.000032436295, 0.000078790144, -602849.2, -58988.84, 0.0, 10.000132, 9.916074 
3.2950062e+3, 2.5442025e+2, -504097.72, -568338.8, -0.2813373, 0.000032337557, -0.00010284449, -504097.72, -57416.098, 0.0, 10.000132, 9.915974 
3.2950062e+3, 2.6432934e+2, -415863.25, -490984.25, 0.16390772, 0.00003224434, 0.00014424139, -415863.25, -66290.89, 0.0, 10.000131, 9.901902 
3.295006e+3, 2.7423182e+2, -316579.2, -391372.06, -0.27585983, 0.00003215812, -0.00020011369, -316579.2, -64050.887, 0.0, 10.000131, 9.902323 
3.295006e+3, 2.8412604e+2, -230106.19, -318078.2, 0.15623274, 0.000032082487, 0.00023211313, -230106.19, -74541.31, 0.0, 10.000131, 9.885377 
3.295006e+3, 2.9401246e+2, -130401.125, -217762.73, -0.23725246, 0.000032021257, -0.00025046532, -130401.125, -71723.22, 0.0, 10.000131, 9.886156 
3.295006e+3, 3.0392683e+2, -40660.09, -84751.36, 0.17030619, 0.000031926233, 0.00017564559, -40660.09, -40660.09, 0.0, 10.00013, 9.942109 
3.295006e+3, 3.1387082e+2, -39582.62, -82512.89, -0.21463525, 0.00003178098, -0.00005326644, -39582.62, -39582.62, 0.0, 10.00013, 9.943621 
3.3050063e+3, 1.24994814e+2, -1719771.0, -1724208.6, 0.4056041, 0.000034694593, 0.000031268355, -1719771.0, -4720.1626, 0.0, 10.000144, 9.99426 
3.3050063e+3, 1.3498898e+2, -1622392.8, -1627420.6, -0.08778988, 0.000034397388, -0.000077743156, -1622392.8, -5284.669, 0.0, 10.000143, 9.993478 
3.3050063e+3, 1.4497648e+2, -1534291.0, -1548129.8, 0.37421498, 0.00003419367, 0.00009274184, -1534291.0, -15060.507, 0.0, 10.000142, 9.981799 
3.3050063e+3, 1.549583e+2, -1436565.1, -1450806.8, -0.13199402, 0.00003407755, -0.000050018905, -1436565.1, -15156.309, 0.0, 10.000142, 9.981268 
3.3050063e+3, 1.6493347e+2, -1348515.9, -1371938.8, 0.38716754, 0.000033954315, 0.0000490385, -1348515.9, -24863.846, 0.0, 10.000141, 9.969183 
3.3050063e+3, 1.7490269e+2, -1250559.5, -1274297.9, -0.10132902, 0.00003382386, -0.00006759634, -1250559.5, -24605.854, 0.0, 10.00014, 9.968769 
3.3050063e+3, 1.848653e+2, -1162479.1, -1195707.5, 0.4051261, 0.000033694283, 0.00007377119, -1162479.1, -34158.91, 0.0, 10.00014, 9.95633 
3.3050063e+3, 1.9482166e+2, -1064330.9, -1097821.5, -0.090341754, 0.00003356558, -0.000051932147, -1064330.9, -33583.105, 0.0, 10.000139, 9.955988 
3.3050063e+3, 2.0477137e+2, -976167.94, -1019424.1, 0.3996533, 0.000033447744, 0.000072955954, -976167.94, -42927.223, 0.0, 10.000139, 9.943226 
3.305006e+3, 2.1471463e+2, -877882.3, -921400.06, -0.0709561, 0.000033341657, -0.000121652265, -877882.3, -42085.6, 0.0, 10.000138, 9.942885 
3.305006e+3, 2.246512e+2, -789597.06, -843135.44, 0.40460277, 0.000033238182, 0.00012597049, -789597.06, -51178.727, 0.0, 10.000138, 9.929844 
3.305006e+3, 2.345811e+2, -691164.9, -744958.06, -0.07423532, 0.00003313763, -0.00008424414, -691164.9, -50059.652, 0.0, 10.000137, 9.929513 
3.305006e+3, 2.4450406e+2, -602841.75, -667011.06, 0.38263562, 0.000033040178, 0.00007890936, -602841.75, -58981.56, 0.0, 10.000137, 9.916072 
3.305006e+3, 2.5442025e+2, -504090.34, -568336.56, -0.08326997, 0.00003294641, -0.000102738486, -504090.34, -57408.848, 0.0, 10.000137, 9.915973 
3.305006e+3, 2.6432937e+2, -415855.9, -490982.1, 0.35783628, 0.000032852662, 0.00014433621, -415855.9, -66283.68, 0.0, 10.000136, 9.901901 
3.305006e+3, 2.7423182e+2, -316571.88, -391369.94, -0.087909244, 0.00003275889, -0.00020002744, -316571.88, -64043.71, 0.0, 10.000136, 9.902321 
3.305006e+3, 2.8412604e+2, -230098.9, -318076.03, 0.33482724, 0.000032679833, 0.0002321962, -230098.9, -74534.14, 0.0, 10.000136, 9.885376 
3.305006e+3, 2.940125e+2, -130393.91, -217760.66, -0.09144765, 0.000032620865, -0.0002503781, -130393.91, -71716.11, 0.0, 10.000135, 9.886154 
3.305006e+3, 3.0392686e+2, -40653.02, -84749.43, 0.28998432, 0.000032528777, 0.00017572183, -40653.02, -40653.02, 0.0, 10.000135, 9.942108 
3.305006e+3, 3.1387085e+2, -39575.59, -82510.984, -0.12437345, 0.000032387412, -0.000053223743, -39575.59, -39575.59, 0.0, 10.000135, 9.943619 
3.3150065e+3, 1.2499485e+2, -1719772.1, -1724210.8, 0.12877823, 0.000035370387, 0.000031580665, -1719772.1, -4721.6187, 0.0, 10.000144, 9.994259 
3.3150065e+3, 1.3498901e+2, -1622393.9, -1627422.8, -0.3646646, 0.000035020475, -0.00007793747, -1622393.9, -5286.101, 0.0, 10.000143, 9.993476 
3.3150065e+3, 1.4497651e+2, -1534292.1, -1548131.9, 0.13896559, 0.000034813263, 0.00009330643, -1534292.1, -15061.954, 0.0, 10.000142, 9.981798 
3.3150065e+3, 1.5495832e+2, -1436566.3, -1450808.9, -0.36717814, 0.00003474306, -0.000049843216, -1436566.3, -15157.727, 0.0, 10.000142, 9.981266 
3.3150065e+3, 1.649335e+2, -1348517.0, -1371940.9, 0.17258759, 0.000034614754, 0.000049069946, -1348517.0, -24865.207, 0.0, 10.000141, 9.969181 
3.3150065e+3, 1.7490272e+2, -1250560.5, -1274299.9, -0.31582153, 0.00003442719, -0.0000674593, -1250560.5, -24607.19, 0.0, 10.00014, 9.968768 
3.3150065e+3, 1.8486531e+2, -1162480.3, -1195709.6, 0.21520291, 0.00003428616, 0.00007396747, -1162480.3, -34160.25, 0.0, 10.00014, 9.956329 
3.3150065e+3, 1.9482169e+2, -1064332.0, -1097823.5, -0.27999082, 0.000034193756, -0.000051725183, -1064332.0, -33584.418, 0.0, 10.000139, 9.955986 
3.3150065e+3, 2.0477138e+2, -976168.94, -1019426.1, 0.22848694, 0.00003408847, 0.00007311089, -976168.94, -42928.477, 0.0, 10.000139, 9.943225 
3.3150065e+3, 2.1471465e+2, -877883.3, -921402.06, -0.24176338, 0.00003396921, -0.00012161725, -877883.3, -42086.832, 0.0, 10.000138, 9.9428835 
3.3150065e+3, 2.2465122e+2, -789598.1, -843137.5, 0.25336075, 0.000033855078, 0.0001259948, -789598.1, -51179.97, 0.0, 10.000138, 9.929843 
3.3150065e+3, 2.3458111e+2, -691165.94, -744960.1, -0.22485396, 0.000033746728, -0.00008410695, -691165.94, -50060.87, 0.0, 10.000137, 9.929511 
3.3150065e+3, 2.4450408e+2, -602842.75, -667013.1, 0.24718906, 0.000033648263, 0.00007908055, -602842.75, -58982.754, 0.0, 10.000137, 9.916071 
3.3150065e+3, 2.5442028e+2, -504091.34, -568338.6, -0.21799546, 0.00003356156, -0.00010262759, -504091.34, -57410.016, 0.0, 10.000137, 9.915971 
3.3150065e+3, 2.6432937e+2, -415856.9, -490984.1, 0.2355622, 0.00003347136, 0.00014440613, -415856.9, -66284.81, 0.0, 10.000136, 9.901899 
3.3150065e+3, 2.7423185e+2, -316572.88, -391371.94, -0.2093663, 0.000033376647, -0.00019997371, -316572.88, -64044.82, 0.0, 10.000136, 9.90232 
3.3150065e+3, 2.8412607e+2, -230099.88, -318078.03, 0.21878844, 0.000033295502, 0.00023225437, -230099.88, -74535.23, 0.0, 10.000136, 9.885374 
3.3150065e+3, 2.940125e+2, -130394.87, -217762.64, -0.20701206, 0.0000332329, -0.00025028732, -130394.87, -71717.164, 0.0, 10.000135, 9.886153 
3.3150062e+3, 3.0392686e+2, -40653.992, -84751.445, 0.18273152, 0.00003314157, 0.00017581793, -40653.992, -40653.992, 0.0, 10.000135, 9.942106 
3.3150062e+3, 3.1387085e+2, -39576.563, -82513.01, -0.23066245, 0.000033007498, -0.000053163032, -39576.563, -39576.563, 0.0, 10.000135, 9.943618 
3.325007e+3, 1.2499488e+2, -1719763.8, -1724207.9, 0.44701123, 0.000036035646, 0.000031863285, -1719763.8, -4713.5815, 0.0, 10.00015, 9.994257 
3.3250067e+3, 1.3498904e+2, -1622385.5, -1627419.9, -0.09853771, 0.00003566832, -0.00007816517, -1622385.5, -5278.09, 0.0, 10.000149, 9.993475 
3.3250067e+3, 1.4497654e+2, -1534283.9, -1548129.1, 0.415014, 0.000035454414, 0.00009385492, -1534283.9, -15053.971, 0.0, 10.000148, 9.981796 
3.3250067e+3, 1.5495835e+2, -1436558.0, -1450806.1, -0.08317107, 0.000035388184, -0.000049693106, -1436558.0, -15149.855, 0.0, 10.000148, 9.981265 
3.3250067e+3, 1.6493353e+2, -1348508.9, -1371938.1, 0.47944012, 0.00003525941, 0.000049085826, -1348508.9, -24857.395, 0.0, 10.000147, 9.96918 
3.3250067e+3, 1.7490275e+2, -1250552.5, -1274297.3, -0.038731523, 0.000035066845, -0.00006730788, -1250552.5, -24599.395, 0.0, 10.000146, 9.968766 
3.3250067e+3, 1.8486534e+2, -1162472.3, -1195707.0, 0.49308154, 0.00003492088, 0.00007416376, -1162472.3, -34152.48, 0.0, 10.000146, 9.956328 
3.3250067e+3, 1.948217e+2, -1064324.0, -1097821.0, -0.00980446, 0.00003482358, -0.000051578907, -1064324.0, -33576.715, 0.0, 10.000145, 9.955985 
3.3250067e+3, 2.0477141e+2, -976161.06, -1019423.56, 0.5033585, 0.00003471834, 0.0000732316, -976161.06, -42920.797, 0.0, 10.000145, 9.943224 
3.3250067e+3, 2.1471466e+2, -877875.5, -921399.56, 0.004500606, 0.000034604476, -0.000121495614, -877875.5, -42079.188, 0.0, 10.000144, 9.942883 
3.3250067e+3, 2.2465123e+2, -789590.3, -843135.1, 0.49939644, 0.00003448873, 0.00012611784, -789590.3, -51172.36, 0.0, 10.000144, 9.929841 
3.3250064e+3, 2.3458114e+2, -691158.1, -744957.7, 0.0011978329, 0.00003437083, -0.00008398201, -691158.1, -50053.26, 0.0, 10.000143, 9.92951 
3.3250064e+3, 2.4450411e+2, -602835.0, -667010.75, 0.466088, 0.00003426887, 0.000079203885, -602835.0, -58975.152, 0.0, 10.000143, 9.91607 
3.3250064e+3, 2.5442028e+2, -504083.66, -568336.3, -0.007343956, 0.000034185912, -0.00010251004, -504083.66, -57402.484, 0.0, 10.000143, 9.91597 
3.3250064e+3, 2.643294e+2, -415849.28, -490981.84, 0.44798428, 0.00003409957, 0.00014451199, -415849.28, -66277.33, 0.0, 10.000142, 9.901898 
3.3250064e+3, 2.7423185e+2, -316565.28, -391369.72, -0.019570723, 0.00003400884, -0.00019988703, -316565.28, -64037.37, 0.0, 10.000142, 9.902318 
3.3250064e+3, 2.8412607e+2, -230092.31, -318075.84, 0.39619163, 0.000033926695, 0.00023233533, -230092.31, -74527.79, 0.0, 10.000142, 9.885373 
3.3250064e+3, 2.940125e+2, -130387.336, -217760.47, -0.046850957, 0.00003385627, -0.0002501937, -130387.336, -71709.74, 0.0, 10.000141, 9.886151 
3.3250064e+3, 3.0392686e+2, -40646.582, -84749.42, 0.32471156, 0.00003376145, 0.00017591282, -40646.582, -40646.582, 0.0, 10.000141, 9.942105 
3.3250064e+3, 3.1387085e+2, -39569.207, -82511.016, -0.10329106, 0.000033630382, -0.00005308398, -39569.207, -39569.207, 0.0, 10.000141, 9.943617 
3.3350068e+3, 1.2499492e+2, -1719765.0, -1724210.3, 0.17153446, 0.0000366904, 0.000032121963, -1719765.0, -4715.1724, 0.0, 10.00015, 9.994256 
3.3350068e+3, 1.3498907e+2, -1622386.8, -1627422.3, -0.37402648, 0.000036340873, -0.00007842618, -1622386.8, -5279.6543, 0.0, 10.000149, 9.993473 
3.3350068e+3, 1.4497657e+2, -1534285.0, -1548131.3, 0.15978834, 0.00003611709, 0.00009438737, -1534285.0, -15055.413, 0.0, 10.000148, 9.981795 
3.3350068e+3, 1.5495838e+2, -1436559.1, -1450808.3, -0.33838913, 0.000036012992, -0.00004956851, -1436559.1, -15151.269, 0.0, 10.000148, 9.981264 
3.3350068e+3, 1.6493356e+2, -1348510.0, -1371940.4, 0.2684111, 0.00003588834, 0.000049086182, -1348510.0, -24858.834, 0.0, 10.000147, 9.969179 
3.3350068e+3, 1.7490278e+2, -1250553.6, -1274299.4, -0.24954177, 0.000035742756, -0.00006714212, -1250553.6, -24600.809, 0.0, 10.000146, 9.968765 
3.3350068e+3, 1.8486537e+2, -1162473.3, -1195709.1, 0.29531518, 0.00003559834, 0.00007436007, -1162473.3, -34153.85, 0.0, 10.000146, 9.9563265 
3.3350065e+3, 1.9482173e+2, -1064325.1, -1097823.1, -0.2074336, 0.000035455072, -0.00005149316, -1064325.1, -33578.055, 0.0, 10.000145, 9.955983 
3.3350065e+3, 2.0477143e+2, -976162.1, -1019425.7, 0.33040422, 0.000035337413, 0.00007331819, -976162.1, -42922.12, 0.0, 10.000145, 9.943222 
3.3350065e+3, 2.1471469e+2, -877876.56, -921401.7, -0.16796601, 0.000035247453, -0.00012128756, -877876.56, -42080.484, 0.0, 10.000144, 9.942882 
3.3350065e+3, 2.2465126e+2, -789591.4, -843137.25, 0.3551399, 0.000035139103, 0.00012633935, -789591.4, -51173.652, 0.0, 10.000144, 9.92984 
3.3350065e+3, 2.3458116e+2, -691159.2, -744959.9, -0.1421406, 0.00003500991, -0.00008386929, -691159.2, -50054.53, 0.0, 10.000143, 9.929508 
3.3350065e+3, 2.4450412e+2, -602836.06, -667012.9, 0.3217646, 0.00003490199, 0.00007927949, -602836.06, -58976.375, 0.0, 10.000143, 9.916068 
3.3350065e+3, 2.544203e+2, -504084.7, -568338.4, -0.15174022, 0.00003481947, -0.00010238586, -504084.7, -57403.68, 0.0, 10.000143, 9.915968 
3.3350065e+3, 2.643294e+2, -415850.3, -490983.94, 0.32311916, 0.000034737288, 0.00014465372, -415850.3, -66278.516, 0.0, 10.000142, 9.901897 
3.3350065e+3, 2.7423188e+2, -316566.3, -391371.8, -0.14314552, 0.000034655448, -0.00019976747, -316566.3, -64038.535, 0.0, 10.000142, 9.902317 
3.3350065e+3, 2.8412607e+2, -230093.33, -318077.9, 0.28282925, 0.000034573386, 0.00023243898, -230093.33, -74528.914, 0.0, 10.000142, 9.885372 
3.3350065e+3, 2.9401252e+2, -130388.33, -217762.53, -0.15931201, 0.00003449098, -0.00025009725, -130388.33, -71710.84, 0.0, 10.000141, 9.88615 
3.3350065e+3, 3.039269e+2, -40647.582, -84751.5, 0.20667584, 0.000034388435, 0.00017600649, -40647.582, -40647.582, 0.0, 10.000141, 9.942104 
3.3350065e+3, 3.1387085e+2, -39570.207, -82513.09, -0.22200695, 0.000034256085, -0.000052986623, -39570.207, -39570.207, 0.0, 10.000141, 9.943615 
3.345007e+3, 1.2499495e+2, -1719756.4, -1724207.3, 0.49532342, 0.000037362974, 0.00003243016, -1719756.4, -4706.8433, 0.0, 10.000155, 9.994254 
3.345007e+3, 1.3498911e+2, -1622378.3, -1627419.4, -0.044616807, 0.00003701092, -0.000078697434, -1622378.3, -5271.439, 0.0, 10.0001545, 9.993472 
3.345007e+3, 1.449766e+2, -1534276.5, -1548128.3, 0.5087906, 0.00003677868, 0.000094924435, -1534276.5, -15047.191, 0.0, 10.0001545, 9.981794 
3.3450067e+3, 1.5495843e+2, -1436550.6, -1450805.3, -0.024799332, 0.000036660025, -0.00004941015, -1436550.6, -15143.048, 0.0, 10.000154, 9.981262 
3.3450067e+3, 1.6493359e+2, -1348501.6, -1371937.5, 0.58879817, 0.000036537505, 0.00004911694, -1348501.6, -24850.691, 0.0, 10.000153, 9.969177 
3.3450067e+3, 1.749028e+2, -1250545.4, -1274296.8, 0.060906027, 0.000036411104, -0.00006698251, -1250545.4, -24592.8, 0.0, 10.000153, 9.968763 
3.3450067e+3, 1.8486539e+2, -1162465.1, -1195706.4, 0.62441474, 0.000036270165, 0.00007455378, -1162465.1, -34145.88, 0.0, 10.000152, 9.956326 
3.3450067e+3, 1.9482176e+2, -1064316.9, -1097820.5, 0.10530944, 0.000036113965, -0.000051364463, -1064316.9, -33570.07, 0.0, 10.000152, 9.955982 
3.3450067e+3, 2.0477146e+2, -976153.94, -1019423.06, 0.6466471, 0.000035984547, 0.000073434654, -976153.94, -42914.133, 0.0, 10.000151, 9.943221 
3.3450067e+3, 2.147147e+2, -877868.4, -921399.06, 0.122592926, 0.000035884113, -0.000121126155, -877868.4, -42072.496, 0.0, 10.000151, 9.94288 
3.3450067e+3, 2.2465128e+2, -789583.25, -843134.7, 0.64572895, 0.000035781108, 0.00012650297, -789583.25, -51165.703, 0.0, 10.00015, 9.929838 
3.3450067e+3, 2.3458117e+2, -691151.2, -744957.4, 0.14737563, 0.00003567514, -0.00008375182, -691151.2, -50046.7, 0.0, 10.00015, 9.929507 
3.3450067e+3, 2.4450414e+2, -602828.06, -667010.44, 0.61552435, 0.00003556992, 0.000079378384, -602828.06, -58968.574, 0.0, 10.000149, 9.916067 
3.3450067e+3, 2.544203e+2, -504076.66, -568336.0, 0.10667423, 0.000035465557, -0.00010227255, -504076.66, -57395.824, 0.0, 10.000149, 9.915967 
3.3450067e+3, 2.6432943e+2, -415842.28, -490981.56, 0.55634475, 0.00003537422, 0.00014477482, -415842.28, -66270.65, 0.0, 10.000149, 9.9018955 
3.3450067e+3, 2.7423188e+2, -316558.38, -391369.5, 0.06498779, 0.00003529942, -0.00019964707, -316558.38, -64030.73, 0.0, 10.000148, 9.902316 
3.3450067e+3, 2.841261e+2, -230085.42, -318075.6, 0.47598174, 0.000035224824, 0.00023255168, -230085.42, -74521.14, 0.0, 10.000148, 9.88537 
3.3450067e+3, 2.9401252e+2, -130380.516, -217760.28, 0.009361896, 0.000035150388, -0.00025000173, -130380.516, -71703.14, 0.0, 10.000148, 9.886149 
3.3450067e+3, 3.039269e+2, -40639.89, -84749.41, 0.34710148, 0.00003504148, 0.00017609367, -40639.89, -40639.89, 0.0, 10.000147, 9.942102 
3.3450067e+3, 3.1387088e+2, -39562.47, -82510.99, -0.11876914, 0.000034881497, -0.000052894502, -39562.47, -39562.47, 0.0, 10.000147, 9.943614 
3.3550075e+3, 1.24994986e+2, -1719757.6, -1724209.5, 0.20082448, 0.000038053335, 0.00003279229, -1719757.6, -4708.4375, 0.0, 10.000155, 9.994253 
3.3550072e+3, 1.3498916e+2, -1622379.4, -1627421.6, -0.33914033, 0.000037678477, -0.00007897889, -1622379.4, -5273.007, 0.0, 10.0001545, 9.99347 
3.3550072e+3, 1.4497665e+2, -1534277.8, -1548130.5, 0.26015696, 0.000037439215, 0.00009546614, -1534277.8, -15048.7295, 0.0, 10.0001545, 9.981792 
3.3550072e+3, 1.5495846e+2, -1436551.9, -1450807.5, -0.2733647, 0.000037329235, -0.000049218113, -1436551.9, -15144.556, 0.0, 10.000154, 9.981261 
3.3550072e+3, 1.6493362e+2, -1348502.8, -1371939.8, 0.35290524, 0.00003720687, 0.000049178023, -1348502.8, -24852.168, 0.0, 10.000153, 9.969176 
3.3550072e+3, 1.7490283e+2, -1250546.5, -1274298.9, -0.17493814, 0.000037071924, -0.00006682904, -1250546.5, -24594.25, 0.0, 10.000153, 9.968762 
3.3550072e+3, 1.8486542e+2, -1162466.3, -1195708.6, 0.43682417, 0.00003693639, 0.00007474494, -1162466.3, -34147.297, 0.0, 10.000152, 9.956324 
3.3550072e+3, 1.9482177e+2, -1064318.0, -1097822.6, -0.08174466, 0.000036800193, -0.000051192925, -1064318.0, -33571.46, 0.0, 10.000152, 9.955981 
3.3550072e+3, 2.0477149e+2, -976155.06, -1019425.3, 0.48191038, 0.000036659687, 0.000073580915, -976155.06, -42915.527, 0.0, 10.000151, 9.943219 
3.355007e+3, 2.1471474e+2, -877869.5, -921401.3, -0.041690893, 0.0000365145, -0.00012101127, -877869.5, -42073.863, 0.0, 10.000151, 9.942879 
3.355007e+3, 2.2465129e+2, -789584.3, -843136.9, 0.48023844, 0.000036414778, 0.00012660887, -789584.3, -51167.016, 0.0, 10.00015, 9.929837 
3.355007e+3, 2.3458119e+2, -691152.25, -744959.56, -0.018177686, 0.000036366477, -0.0000836296, -691152.25, -50047.984, 0.0, 10.00015, 9.929506 
3.355007e+3, 2.4450415e+2, -602829.2, -667012.7, 0.49174026, 0.000036272584, 0.000079500525, -602829.2, -58969.88, 0.0, 10.000149, 9.916065 
3.355007e+3, 2.5442034e+2, -504077.78, -568338.2, -0.015116681, 0.000036124165, -0.00010217008, -504077.78, -57397.098, 0.0, 10.000149, 9.915965 
3.355007e+3, 2.6432943e+2, -415843.38, -490983.78, 0.4256367, 0.000036010395, 0.00014487535, -415843.38, -66271.9, 0.0, 10.000149, 9.901895 
3.355007e+3, 2.742319e+2, -316559.44, -391371.7, -0.066334434, 0.000035940786, -0.00019952585, -316559.44, -64031.953, 0.0, 10.000148, 9.902314 
3.355007e+3, 2.841261e+2, -230086.48, -318077.78, 0.35293165, 0.000035881018, 0.00023267341, -230086.48, -74522.33, 0.0, 10.000148, 9.885369 
3.355007e+3, 2.9401252e+2, -130381.555, -217762.44, -0.112956114, 0.000035834455, -0.00024990717, -130381.555, -71704.3, 0.0, 10.000148, 9.8861475 
3.355007e+3, 3.039269e+2, -40640.957, -84751.625, 0.24044563, 0.000035720554, 0.00017617436, -40640.957, -40640.957, 0.0, 10.000147, 9.942101 
3.355007e+3, 3.1387088e+2, -39563.543, -82513.22, -0.22360201, 0.000035506644, -0.000052807594, -39563.543, -39563.543, 0.0, 10.000147, 9.943612 
3.3650073e+3, 1.2499502e+2, -1719748.8, -1724206.5, 0.5050839, 0.000038733597, 0.000033155808, -1719748.8, -4699.896, 0.0, 10.000162, 9.994251 
3.3650073e+3, 1.3498919e+2, -1622370.6, -1627418.6, -0.05172173, 0.000038364084, -0.00007925427, -1622370.6, -5264.4927, 0.0, 10.000161, 9.993469 
3.3650073e+3, 1.4497669e+2, -1534268.9, -1548127.5, 0.5758958, 0.00003812993, 0.00009602831, -1534268.9, -15040.252, 0.0, 10.00016, 9.9817915 
3.3650073e+3, 1.5495849e+2, -1436543.1, -1450804.6, 0.044677693, 0.000038024664, -0.000049041202, -1436543.1, -15136.199, 0.0, 10.000159, 9.981259 
3.3650073e+3, 1.6493365e+2, -1348494.1, -1371936.9, 0.69708306, 0.00003789381, 0.000049217073, -1348494.1, -24843.852, 0.0, 10.000159, 9.969174 
3.365007e+3, 1.7490286e+2, -1250537.9, -1274296.0, 0.14951518, 0.000037736896, -0.000066675246, -1250537.9, -24585.883, 0.0, 10.000158, 9.9687605 
3.365007e+3, 1.8486544e+2, -1162457.6, -1195705.8, 0.7748117, 0.0000375975, 0.00007494253, -1162457.6, -34138.92, 0.0, 10.000158, 9.956323 
3.365007e+3, 1.948218e+2, -1064309.5, -1097819.9, 0.23438978, 0.000037476377, -0.000051025763, -1064309.5, -33563.16, 0.0, 10.000157, 9.955979 
3.365007e+3, 2.047715e+2, -976146.6, -1019422.6, 0.80632955, 0.000037345373, 0.00007372615, -976146.6, -42907.297, 0.0, 10.000157, 9.943218 
3.365007e+3, 2.1471475e+2, -877861.1, -921398.7, 0.27398494, 0.000037203652, -0.00012087873, -877861.1, -42065.7, 0.0, 10.000156, 9.942877 
3.365007e+3, 2.2465132e+2, -789575.94, -843134.25, 0.7937428, 0.000037096568, 0.00012674037, -789575.94, -51158.83, 0.0, 10.000156, 9.929835 
3.365007e+3, 2.3458122e+2, -691143.8, -744956.9, 0.26328394, 0.000037028643, -0.000083485946, -691143.8, -50039.72, 0.0, 10.000155, 9.929504 
3.365007e+3, 2.4450418e+2, -602820.75, -667010.1, 0.7689305, 0.000036934347, 0.00007964252, -602820.75, -58961.63, 0.0, 10.000155, 9.916064 
3.365007e+3, 2.5442037e+2, -504069.47, -568335.7, 0.24940832, 0.000036808484, -0.00010204628, -504069.47, -57388.965, 0.0, 10.0001545, 9.915964 
3.365007e+3, 2.6432946e+2, -415835.13, -490981.34, 0.6807141, 0.000036700127, 0.00014498948, -415835.13, -66263.81, 0.0, 10.0001545, 9.901893 
3.365007e+3, 2.742319e+2, -316551.2, -391369.3, 0.16664092, 0.00003661407, -0.00019941051, -316551.2, -64023.844, 0.0, 10.0001545, 9.902312 
3.365007e+3, 2.8412613e+2, -230078.2, -318075.34, 0.5718464, 0.00003654445, 0.00023278718, -230078.2, -74514.18, 0.0, 10.000154, 9.885367 
3.3650067e+3, 2.9401255e+2, -130373.29, -217760.05, 0.09047747, 0.000036497167, -0.00024979888, -130373.29, -71696.16, 0.0, 10.000154, 9.886147 
3.3650067e+3, 3.0392691e+2, -40632.867, -84749.42, 0.4246362, 0.00003638775, 0.00017627026, -40632.867, -40632.867, 0.0, 10.000154, 9.9421 
3.3650067e+3, 3.1387088e+2, -39555.563, -82511.086, -0.058392633, 0.00003618597, -0.000052734336, -39555.563, -39555.563, 0.0, 10.000153, 9.94361 
3.3750075e+3, 1.2499506e+2, -1719750.0, -1724208.9, 0.21198173, 0.00003940381, 0.000033529665, -1719750.0, -4701.5444, 0.0, 10.000162, 9.99425 
3.3750075e+3, 1.3498922e+2, -1622371.9, -1627421.0, -0.34483874, 0.000039067712, -0.00007952361, -1622371.9, -5266.1143, 0.0, 10.000161, 9.993467 
3.3750075e+3, 1.4497672e+2, -1534270.1, -1548129.8, 0.3056788, 0.000038850765, 0.0000966109, -1534270.1, -15041.801, 0.0, 10.00016, 9.98179 
3.3750072e+3, 1.5495852e+2, -1436544.4, -1450806.9, -0.22552456, 0.00003874625, -0.000048879374, -1436544.4, -15137.717, 0.0, 10.000159, 9.981258 
3.3750072e+3, 1.6493368e+2, -1348495.4, -1371939.3, 0.48111072, 0.000038598286, 0.000049234153, -1348495.4, -24845.385, 0.0, 10.000159, 9.969173 
3.3750072e+3, 1.7490289e+2, -1250539.0, -1274298.4, -0.066187106, 0.000038406026, -0.00006652114, -1250539.0, -24587.39, 0.0, 10.000158, 9.96876 
3.3750072e+3, 1.8486547e+2, -1162458.8, -1195708.1, 0.5773972, 0.000038253525, 0.000075146556, -1162458.8, -34140.4, 0.0, 10.000158, 9.956321 
3.3750072e+3, 1.9482183e+2, -1064310.6, -1097822.1, 0.037168685, 0.000038142563, -0.000050862967, -1064310.6, -33564.61, 0.0, 10.000157, 9.955978 
3.3750072e+3, 2.0477153e+2, -976147.75, -1019424.94, 0.63281876, 0.0000380416, 0.00007387036, -976147.75, -42908.723, 0.0, 10.000157, 9.943216 
3.3750072e+3, 2.1471478e+2, -877862.25, -921400.94, 0.10094996, 0.00003795143, -0.00012072859, -877862.25, -42067.098, 0.0, 10.000156, 9.942876 
3.3750072e+3, 2.2465134e+2, -789577.06, -843136.56, 0.6553978, 0.000037826358, 0.00012689742, -789577.06, -51160.22, 0.0, 10.000156, 9.929834 
3.3750072e+3, 2.3458123e+2, -691144.94, -744959.2, 0.12604702, 0.000037661746, -0.00008332089, -691144.94, -50041.08, 0.0, 10.000155, 9.9295025 
3.3750072e+3, 2.445042e+2, -602821.9, -667012.4, 0.6270375, 0.000037555346, 0.00007980432, -602821.9, -58962.973, 0.0, 10.000155, 9.916062 
3.3750072e+3, 2.5442037e+2, -504070.6, -568338.0, 0.10727812, 0.000037518468, -0.00010190119, -504070.6, -57390.277, 0.0, 10.0001545, 9.915962 
3.3750072e+3, 2.6432946e+2, -415836.28, -490983.66, 0.5613249, 0.000037443293, 0.00014511718, -415836.28, -66265.12, 0.0, 10.0001545, 9.901891 
3.3750072e+3, 2.7423194e+2, -316552.3, -391371.6, 0.048755735, 0.0000373192, -0.00019930104, -316552.3, -64025.117, 0.0, 10.0001545, 9.902311 
3.3750072e+3, 2.8412613e+2, -230079.28, -318077.6, 0.45460472, 0.000037215123, 0.00023289298, -230079.28, -74515.4, 0.0, 10.000154, 9.885366 
3.3750072e+3, 2.9401255e+2, -130374.36, -217762.27, -0.026735626, 0.000037138612, -0.00024967684, -130374.36, -71697.35, 0.0, 10.000154, 9.886145 
3.3750072e+3, 3.0392691e+2, -40633.97, -84751.72, 0.29454878, 0.000037043137, 0.00017638135, -40633.97, -40633.97, 0.0, 10.000154, 9.942098 
3.3750072e+3, 3.1387088e+2, -39556.668, -82513.39, -0.19000646, 0.000036919344, -0.000052674677, -39556.668, -39556.668, 0.0, 10.000153, 9.943609 
3.3850077e+3, 1.24995105e+2, -1719740.8, -1724205.6, 0.55447894, 0.000040113922, 0.000033863787, -1719740.8, -4692.707, 0.0, 10.000169, 9.994248 
3.3850077e+3, 1.3498926e+2, -1622362.9, -1627417.9, -0.0077094124, 0.000039772112, -0.0000798094, -1622362.9, -5257.44, 0.0, 10.000168, 9.993466 
3.3850077e+3, 1.4497675e+2, -1534261.1, -1548126.6, 0.6745182, 0.000039553524, 0.00009721603, -1534261.1, -15033.152, 0.0, 10.000167, 9.981789 
3.3850077e+3, 1.5495855e+2, -1436535.4, -1450803.8, 0.11877287, 0.00003945132, -0.000048695405, -1436535.4, -15129.036, 0.0, 10.000166, 9.9812565 
3.3850077e+3, 1.6493371e+2, -1348486.4, -1371936.3, 0.8544001, 0.00003930198, 0.000049269056, -1348486.4, -24836.727, 0.0, 10.000165, 9.969172 
3.3850077e+3, 1.7490293e+2, -1250530.1, -1274295.4, 0.298781, 0.00003910459, -0.0000663575, -1250530.1, -24578.79, 0.0, 10.000165, 9.968758 
3.3850077e+3, 1.848655e+2, -1162449.9, -1195705.1, 0.95232207, 0.000038951108, 0.00007535698, -1162449.9, -34131.832, 0.0, 10.000164, 9.95632 
3.3850077e+3, 1.9482186e+2, -1064301.9, -1097819.3, 0.39199325, 0.000038843504, -0.000050691528, -1064301.9, -33556.06, 0.0, 10.000164, 9.9559765 
3.3850074e+3, 2.0477156e+2, -976138.94, -1019422.06, 0.9981123, 0.000038744394, 0.00007401932, -976138.94, -42900.152, 0.0, 10.000163, 9.943215 
3.3850074e+3, 2.1471481e+2, -877853.44, -921398.1, 0.45282757, 0.00003865446, -0.00012058423, -877853.44, -42058.523, 0.0, 10.000163, 9.942874 
3.3850074e+3, 2.2465137e+2, -789568.3, -843133.8, 1.0164924, 0.000038528728, 0.00012704132, -789568.3, -51151.68, 0.0, 10.000162, 9.929832 
3.3850074e+3, 2.3458126e+2, -691136.2, -744956.5, 0.45782414, 0.00003836245, -0.00008317275, -691136.2, -50032.58, 0.0, 10.000162, 9.929502 
3.3850074e+3, 2.4450421e+2, -602813.2, -667009.75, 0.9368206, 0.00003825547, 0.0000799539, -602813.2, -58954.465, 0.0, 10.000162, 9.916061 
3.3850074e+3, 2.544204e+2, -504061.88, -568335.4, 0.3992321, 0.000038219303, -0.0001017535, -504061.88, -57381.758, 0.0, 10.000161, 9.915961 
3.3850074e+3, 2.643295e+2, -415827.6, -490981.1, 0.8510055, 0.000038145423, 0.00014525121, -415827.6, -66256.61, 0.0, 10.000161, 9.90189 
3.3850074e+3, 2.7423194e+2, -316543.7, -391369.06, 0.31511286, 0.000038023358, -0.00019919564, -316543.7, -64016.65, 0.0, 10.000161, 9.902309 
3.3850074e+3, 2.8412616e+2, -230070.67, -318075.06, 0.69061524, 0.00003791944, 0.0002329922, -230070.67, -74506.94, 0.0, 10.00016, 9.885365 
3.3850074e+3, 2.9401258e+2, -130365.81, -217759.81, 0.16939752, 0.000037840528, -0.00024955298, -130365.81, -71688.93, 0.0, 10.00016, 9.886143 
3.3850074e+3, 3.0392691e+2, -40625.543, -84749.414, 0.44746202, 0.00003774007, 0.0001765048, -40625.543, -40625.543, 0.0, 10.00016, 9.942097 
3.3850074e+3, 3.138709e+2, -39548.22, -82511.08, -0.05948618, 0.000037607493, -0.0000525891, -39548.22, -39548.22, 0.0, 10.000159, 9.943607 
3.3950078e+3, 1.2499514e+2, -1719742.1, -1724208.0, 0.23165593, 0.000040863837, 0.000034166616, -1719742.1, -4694.3843, 0.0, 10.000169, 9.994247 
3.3950078e+3, 1.3498929e+2, -1622364.1, -1627420.4, -0.33057347, 0.0000404773, -0.00008011158, -1622364.1, -5259.09, 0.0, 10.000168, 9.993464 
3.3950078e+3, 1.449768e+2, -1534262.4, -1548129.0, 0.4191203, 0.000040238283, 0.00009784364, -1534262.4, -15034.773, 0.0, 10.000167, 9.981787 
3.3950078e+3, 1.5495859e+2, -1436536.6, -1450806.1, -0.13654216, 0.000040139945, -0.00004848936, -1436536.6, -15130.624, 0.0, 10.000166, 9.981256 
3.3950078e+3, 1.6493374e+2, -1348487.6, -1371938.6, 0.63339126, 0.00004000493, 0.00004932173, -1348487.6, -24838.295, 0.0, 10.000165, 9.96917 
3.3950076e+3, 1.7490296e+2, -1250531.4, -1274297.8, 0.07793089, 0.000039832525, -0.00006618435, -1250531.4, -24580.328, 0.0, 10.000165, 9.968757 
3.3950076e+3, 1.8486553e+2, -1162451.1, -1195707.5, 0.7589083, 0.00003969015, 0.000075573786, -1162451.1, -34133.367, 0.0, 10.000164, 9.956318 
3.3950076e+3, 1.948219e+2, -1064303.0, -1097821.6, 0.1988866, 0.000039579114, -0.00005051147, -1064303.0, -33557.566, 0.0, 10.000164, 9.955975 
3.3950076e+3, 2.047716e+2, -976140.1, -1019424.4, 0.8340804, 0.000039453764, 0.00007417301, -976140.1, -42901.62, 0.0, 10.000163, 9.943213 
3.3950076e+3, 2.1471483e+2, -877854.6, -921400.44, 0.28936344, 0.000039312894, -0.00012044563, -877854.6, -42059.96, 0.0, 10.000163, 9.942873 
3.3950076e+3, 2.246514e+2, -789569.56, -843136.25, 0.87735945, 0.000039203784, 0.00012717214, -789569.56, -51153.14, 0.0, 10.000162, 9.929831 
3.3950076e+3, 2.3458128e+2, -691137.44, -744958.94, 0.3194803, 0.000039130588, -0.00008304148, -691137.44, -50034.01, 0.0, 10.000162, 9.9295 
3.3950076e+3, 2.4450424e+2, -602814.4, -667012.1, 0.80596185, 0.000039034512, 0.0000800913, -602814.4, -58955.855, 0.0, 10.000162, 9.9160595 
3.3950076e+3, 2.544204e+2, -504063.06, -568337.7, 0.26870313, 0.000038911046, -0.000101603226, -504063.06, -57383.117, 0.0, 10.000161, 9.915959 
3.3950076e+3, 2.643295e+2, -415828.78, -490983.5, 0.7323475, 0.00003880666, 0.00014539153, -415828.78, -66257.97, 0.0, 10.000161, 9.901888 
3.3950076e+3, 2.7423197e+2, -316544.84, -391371.47, 0.19723597, 0.000038726568, -0.00019909433, -316544.84, -64017.98, 0.0, 10.000161, 9.902308 
3.3950073e+3, 2.8412616e+2, -230071.83, -318077.47, 0.5706709, 0.000038657327, 0.00023308488, -230071.83, -74508.24, 0.0, 10.00016, 9.885363 
3.3950073e+3, 2.9401258e+2, -130366.96, -217762.19, 0.04925049, 0.000038602764, -0.00024942728, -130366.96, -71690.21, 0.0, 10.00016, 9.886142 
3.3950073e+3, 3.0392694e+2, -40626.688, -84751.8, 0.3250638, 0.000038478454, 0.00017664058, -40626.688, -40626.688, 0.0, 10.00016, 9.942095 
3.3950073e+3, 3.138709e+2, -39549.363, -82513.47, -0.18217969, 0.000038250568, -0.000052477684, -39549.363, -39549.363, 0.0, 10.000159, 9.943605 
3.405008e+3, 1.2499518e+2, -1719732.8, -1724204.8, 0.6328957, 0.000041596042, 0.000034486435, -1719732.8, -4685.4473, 0.0, 10.0001745, 9.994246 
3.405008e+3, 1.3498934e+2, -1622354.8, -1627417.1, 0.029257227, 0.000041189323, -0.00008041278, -1622354.8, -5250.0845, 0.0, 10.0001745, 9.993463 
3.405008e+3, 1.4497682e+2, -1534252.9, -1548125.8, 0.8022128, 0.00004093934, 0.00009847699, -1534252.9, -15025.726, 0.0, 10.000174, 9.981786 
3.4050077e+3, 1.5495862e+2, -1436527.3, -1450803.0, 0.23160493, 0.000040839146, -0.00004830755, -1436527.3, -15121.653, 0.0, 10.000173, 9.981254 
3.4050077e+3, 1.6493377e+2, -1348478.4, -1371935.5, 1.019993, 0.000040718074, 0.000049356036, -1348478.4, -24829.396, 0.0, 10.000172, 9.969169 
3.4050077e+3, 1.74903e+2, -1250522.3, -1274294.8, 0.4415125, 0.000040575753, -0.0000659871, -1250522.3, -24571.496, 0.0, 10.000172, 9.968755 
3.4050077e+3, 1.8486556e+2, -1162442.0, -1195704.5, 1.1483169, 0.000040436516, 0.00007581227, -1162442.0, -34124.54, 0.0, 10.000171, 9.956317 
3.4050077e+3, 1.9482192e+2, -1064293.9, -1097818.6, 0.58277386, 0.000040300438, -0.000050359104, -1064293.9, -33548.703, 0.0, 10.000171, 9.955974 
3.4050077e+3, 2.0477161e+2, -976131.0, -1019421.44, 1.2269232, 0.000040163206, 0.000074304495, -976131.0, -42892.734, 0.0, 10.00017, 9.943212 
3.4050077e+3, 2.1471485e+2, -877845.44, -921397.5, 0.647771, 0.000040024705, -0.000120264376, -877845.44, -42051.055, 0.0, 10.00017, 9.942871 
3.4050077e+3, 2.2465141e+2, -789560.44, -843133.4, 1.2317569, 0.00003992698, 0.0001273582, -789560.44, -51144.258, 0.0, 10.000169, 9.92983 
3.4050077e+3, 2.3458132e+2, -691128.4, -744956.1, 0.67032677, 0.00003987537, -0.0000829015, -691128.4, -50025.184, 0.0, 10.000169, 9.929499 
3.4050074e+3, 2.4450426e+2, -602805.3, -667009.4, 1.1592616, 0.00003977973, 0.00008021375, -602805.3, -58947.035, 0.0, 10.000169, 9.916058 
3.4050074e+3, 2.5442043e+2, -504053.97, -568335.0, 0.58525586, 0.000039631428, -0.00010146415, -504053.97, -57374.246, 0.0, 10.000168, 9.915958 
3.4050074e+3, 2.6432952e+2, -415819.7, -490980.78, 1.0223163, 0.000039519895, 0.00014553513, -415819.7, -66249.08, 0.0, 10.000168, 9.901886 
3.4050074e+3, 2.7423197e+2, -316535.84, -391368.8, 0.46962342, 0.00003945521, -0.00019896169, -316535.84, -64009.13, 0.0, 10.000168, 9.902307 
3.4050074e+3, 2.841262e+2, -230062.84, -318074.84, 0.827377, 0.00003939514, 0.00023320605, -230062.84, -74499.41, 0.0, 10.000167, 9.885362 
3.4050074e+3, 2.940126e+2, -130357.99, -217759.61, 0.28593606, 0.00003934111, -0.0002493182, -130357.99, -71681.375, 0.0, 10.000167, 9.88614 
3.4050074e+3, 3.0392694e+2, -40617.844, -84749.38, 0.523065, 0.00003920729, 0.00017674302, -40617.844, -40617.844, 0.0, 10.000167, 9.942093 
3.4050074e+3, 3.1387094e+2, -39540.535, -82511.07, -0.02647667, 0.00003895507, -0.000052373787, -39540.535, -39540.535, 0.0, 10.000166, 9.943604 
3.4150082e+3, 1.24995224e+2, -1719734.1, -1724207.4, 0.33422878, 0.000042310596, 0.000034831864, -1719734.1, -4687.2383, 0.0, 10.0001745, 9.994244 
3.4150082e+3, 1.3498937e+2, -1622356.1, -1627419.8, -0.26940632, 0.00004190818, -0.000080713, -1622356.1, -5251.8467, 0.0, 10.0001745, 9.993462 
3.4150082e+3, 1.4497687e+2, -1534254.3, -1548128.3, 0.5362408, 0.000041656676, 0.00009911609, -1534254.3, -15027.396, 0.0, 10.000174, 9.981784 
3.4150082e+3, 1.5495865e+2, -1436528.5, -1450805.4, -0.034314837, 0.000041548912, -0.000048149886, -1436528.5, -15123.291, 0.0, 10.000173, 9.981253 
3.4150082e+3, 1.6493382e+2, -1348479.6, -1371938.0, 0.7919031, 0.000041441413, 0.000049372025, -1348479.6, -24831.033, 0.0, 10.000172, 9.969167 
3.4150082e+3, 1.7490304e+2, -1250523.5, -1274297.1, 0.2135946, 0.00004133425, -0.00006576582, -1250523.5, -24573.104, 0.0, 10.000172, 9.968753 
3.4150082e+3, 1.848656e+2, -1162443.3, -1195707.0, 0.9713329, 0.000041190215, 0.00007607238, -1162443.3, -34126.105, 0.0, 10.000171, 9.956315 
3.4150082e+3, 1.9482195e+2, -1064295.1, -1097821.1, 0.40635592, 0.000041007537, -0.000050234332, -1064295.1, -33550.24, 0.0, 10.000171, 9.955972 
3.4150082e+3, 2.0477164e+2, -976132.25, -1019423.94, 1.0763038, 0.000040872743, 0.00007441385, -976132.25, -42894.29, 0.0, 10.00017, 9.943211 
3.415008e+3, 2.1471488e+2, -877846.7, -921400.0, 0.49766082, 0.000040789757, -0.0001200406, -877846.7, -42052.582, 0.0, 10.00017, 9.942869 
3.415008e+3, 2.2465144e+2, -789561.6, -843135.8, 1.0877129, 0.0000406982, 0.00012759936, -789561.6, -51145.742, 0.0, 10.000169, 9.929828 
3.415008e+3, 2.3458134e+2, -691129.56, -744958.56, 0.5264643, 0.000040596897, -0.00008275283, -691129.56, -50026.64, 0.0, 10.000169, 9.929497 
3.415008e+3, 2.4450429e+2, -602806.56, -667011.9, 1.0489204, 0.00004049125, 0.000080321304, -602806.56, -58948.508, 0.0, 10.000169, 9.916057 
3.415008e+3, 2.5442046e+2, -504055.22, -568337.5, 0.47650653, 0.000040380397, -0.000101336234, -504055.22, -57375.69, 0.0, 10.000168, 9.9159565 
3.415008e+3, 2.6432955e+2, -415820.9, -490983.25, 0.903971, 0.000040285, 0.00014568199, -415820.9, -66250.484, 0.0, 10.000168, 9.901885 
3.415008e+3, 2.74232e+2, -316537.03, -391371.25, 0.35060087, 0.000040209237, -0.00019879783, -316537.03, -64010.504, 0.0, 10.000168, 9.902305 
3.415008e+3, 2.841262e+2, -230064.03, -318077.3, 0.7136989, 0.00004013291, 0.00023335565, -230064.03, -74500.76, 0.0, 10.000167, 9.88536 
3.415008e+3, 2.940126e+2, -130359.17, -217762.06, 0.17272477, 0.000040055667, -0.00024922565, -130359.17, -71682.695, 0.0, 10.000167, 9.886138 
3.415008e+3, 3.0392697e+2, -40619.063, -84751.92, 0.39981976, 0.00003992664, 0.00017681226, -40619.063, -40619.063, 0.0, 10.000167, 9.942091 
3.415008e+3, 3.1387094e+2, -39541.758, -82513.62, -0.15092415, 0.00003972085, -0.000052277388, -39541.758, -39541.758, 0.0, 10.000166, 9.943603 
3.4250084e+3, 1.2499526e+2, -1719724.4, -1724204.0, 0.65808326, 0.000043023578, 0.000035252968, -1719724.4, -4677.94, 0.0, 10.000182, 9.994243 
3.4250084e+3, 1.3498941e+2, -1622346.5, -1627416.4, 0.07074518, 0.000042642576, -0.00008100857, -1622346.5, -5242.681, 0.0, 10.000181, 9.99346 
3.4250084e+3, 1.449769e+2, -1534244.6, -1548124.9, 0.9348228, 0.000042405085, 0.00009976339, -1534244.6, -15018.235, 0.0, 10.00018, 9.981782 
3.4250084e+3, 1.549587e+2, -1436519.0, -1450802.1, 0.3664112, 0.000042303716, -0.000047970712, -1436519.0, -15114.129, 0.0, 10.000179, 9.981251 
3.4250084e+3, 1.6493386e+2, -1348470.3, -1371934.8, 1.2257317, 0.000042187938, 0.000049396313, -1348470.3, -24821.89, 0.0, 10.000178, 9.969166 
3.4250084e+3, 1.7490306e+2, -1250514.0, -1274294.0, 0.6224256, 0.00004205753, -0.00006557658, -1250514.0, -24563.922, 0.0, 10.000178, 9.968752 
3.425008e+3, 1.8486562e+2, -1162433.8, -1195703.8, 1.4025863, 0.000041912666, 0.00007631341, -1162433.8, -34116.883, 0.0, 10.000177, 9.956313 
3.425008e+3, 1.9482198e+2, -1064285.6, -1097817.9, 0.81811666, 0.000041752617, -0.00005005988, -1064285.6, -33541.035, 0.0, 10.000177, 9.955971 
3.425008e+3, 2.0477167e+2, -976122.8, -1019420.94, 1.4938205, 0.00004163174, 0.00007456582, -976122.8, -42885.145, 0.0, 10.000176, 9.943209 
3.425008e+3, 2.1471491e+2, -877837.3, -921397.0, 0.891823, 0.000041553245, -0.00011986336, -877837.3, -42043.457, 0.0, 10.000176, 9.942868 
3.425008e+3, 2.2465147e+2, -789552.2, -843132.8, 1.4789693, 0.000041455874, 0.00012777974, -789552.2, -51136.56, 0.0, 10.000176, 9.929827 
3.425008e+3, 2.3458137e+2, -691120.06, -744955.56, 0.89835685, 0.00004133709, -0.000082594335, -691120.06, -50017.375, 0.0, 10.000175, 9.929495 
3.425008e+3, 2.445043e+2, -602797.1, -667009.0, 1.4223752, 0.00004123209, 0.00008046272, -602797.1, -58939.254, 0.0, 10.000175, 9.916055 
3.425008e+3, 2.544205e+2, -504045.8, -568334.6, 0.8322978, 0.000041143543, -0.000101206126, -504045.8, -57366.48, 0.0, 10.000175, 9.915955 
3.425008e+3, 2.6432955e+2, -415811.5, -490980.47, 1.229939, 0.0000410548, 0.00014581386, -415811.5, -66241.27, 0.0, 10.0001745, 9.901883 
3.425008e+3, 2.74232e+2, -316527.63, -391368.5, 0.6322334, 0.000040965726, -0.00019864758, -316527.63, -64001.27, 0.0, 10.0001745, 9.902304 
3.425008e+3, 2.8412622e+2, -230054.6, -318074.53, 0.9628308, 0.00004088316, 0.00023350205, -230054.6, -74491.48, 0.0, 10.0001745, 9.885358 
3.4250078e+3, 2.9401264e+2, -130349.766, -217759.33, 0.403258, 0.00004080945, -0.00024911357, -130349.766, -71673.44, 0.0, 10.0001745, 9.886137 
3.4250078e+3, 3.0392697e+2, -40609.813, -84749.414, 0.5932155, 0.000040682444, 0.00017690484, -40609.813, -40609.813, 0.0, 10.000174, 9.942089 
3.4250078e+3, 3.1387094e+2, -39532.5, -82511.12, 0.009596304, 0.00004047635, -0.00005218192, -39532.5, -39532.5, 0.0, 10.000174, 9.943601 
3.4350085e+3, 1.24995306e+2, -1719725.8, -1724206.5, 0.33707184, 0.000043735014, 0.00003576189, -1719725.8, -4679.71, 0.0, 10.000182, 9.994241 
3.4350085e+3, 1.3498946e+2, -1622347.9, -1627419.0, -0.25027806, 0.000043392476, -0.00008129951, -1622347.9, -5244.4224, 0.0, 10.000181, 9.993458 
3.4350085e+3, 1.4497694e+2, -1534246.0, -1548127.4, 0.6766301, 0.000043184496, 0.00010041889, -1534246.0, -15019.919, 0.0, 10.00018, 9.981781 
3.4350085e+3, 1.5495872e+2, -1436520.3, -1450804.5, 0.10828729, 0.00004310344, -0.000047770078, -1436520.3, -15115.779, 0.0, 10.000179, 9.981249 
3.4350082e+3, 1.6493389e+2, -1348471.5, -1371937.4, 1.0157136, 0.000042957603, 0.00004942888, -1348471.5, -24823.598, 0.0, 10.000178, 9.969164 
3.4350082e+3, 1.749031e+2, -1250515.4, -1274296.6, 0.41265562, 0.000042745734, -0.0000654193, -1250515.4, -24565.6, 0.0, 10.000178, 9.96875 
3.4350082e+3, 1.8486567e+2, -1162435.0, -1195706.3, 1.2290485, 0.00004260401, 0.000076535434, -1162435.0, -34118.508, 0.0, 10.000177, 9.956312 
3.4350082e+3, 1.9482203e+2, -1064286.9, -1097820.4, 0.64496225, 0.000042535583, -0.000049835897, -1064286.9, -33542.63, 0.0, 10.000177, 9.955969 
3.4350082e+3, 2.047717e+2, -976124.1, -1019423.5, 1.3471984, 0.000042440064, 0.00007476027, -976124.1, -42886.766, 0.0, 10.000176, 9.943207 
3.4350082e+3, 2.1471494e+2, -877838.6, -921399.56, 0.7457507, 0.000042315205, -0.00011973251, -877838.6, -42045.047, 0.0, 10.000176, 9.942866 
3.4350082e+3, 2.2465149e+2, -789553.5, -843135.4, 1.3623186, 0.000042200074, 0.00012789958, -789553.5, -51138.098, 0.0, 10.000176, 9.929825 
3.4350082e+3, 2.345814e+2, -691121.3, -744958.06, 0.78262544, 0.00004209593, -0.000082426035, -691121.3, -50018.887, 0.0, 10.000175, 9.929494 
3.4350082e+3, 2.4450433e+2, -602798.4, -667011.56, 1.3122953, 0.000042002197, 0.00008063789, -602798.4, -58940.777, 0.0, 10.000175, 9.916053 
3.435008e+3, 2.544205e+2, -504047.06, -568337.25, 0.7224727, 0.00004192086, -0.000101073834, -504047.06, -57367.973, 0.0, 10.000175, 9.915953 
3.435008e+3, 2.6432958e+2, -415812.8, -490983.13, 1.1271725, 0.00004182931, 0.00014593078, -415812.8, -66242.78, 0.0, 10.0001745, 9.901881 
3.435008e+3, 2.7423203e+2, -316528.9, -391371.16, 0.5299213, 0.0000417247, -0.0001985109, -316528.9, -64002.74, 0.0, 10.0001745, 9.902302 
3.435008e+3, 2.8412622e+2, -230055.83, -318077.1, 0.85439956, 0.000041645882, 0.00023364527, -230055.83, -74492.88, 0.0, 10.0001745, 9.885357 
3.435008e+3, 2.9401264e+2, -130350.984, -217761.84, 0.29424322, 0.000041602358, -0.00024898205, -130350.984, -71674.805, 0.0, 10.0001745, 9.886135 
3.435008e+3, 3.03927e+2, -40611.086, -84752.07, 0.4748278, 0.000041474617, 0.00017702072, -40611.086, -40611.086, 0.0, 10.000174, 9.942088 
3.435008e+3, 3.1387097e+2, -39533.78, -82513.79, -0.10991508, 0.000041221632, -0.000052087376, -39533.78, -39533.78, 0.0, 10.000174, 9.943599 
3.4450087e+3, 1.2499535e+2, -1719716.0, -1724203.1, 0.7078774, 0.00004450384, 0.00003617462, -1719716.0, -4670.341, 0.0, 10.000189, 9.994239 
3.4450087e+3, 1.3498949e+2, -1622338.1, -1627415.5, 0.11101197, 0.00004415158, -0.00008164251, -1622338.1, -5235.0264, 0.0, 10.000188, 9.993457 
3.4450087e+3, 1.4497699e+2, -1534236.1, -1548123.9, 1.0790002, 0.0000439404, 0.00010108881, -1534236.1, -15010.492, 0.0, 10.000187, 9.981779 
3.4450084e+3, 1.5495877e+2, -1436510.5, -1450801.1, 0.4853764, 0.000043862492, -0.000047529677, -1436510.5, -15106.371, 0.0, 10.000186, 9.981248 
3.4450084e+3, 1.6493393e+2, -1348461.8, -1371934.1, 1.4413925, 0.000043716496, 0.00004950053, -1348461.8, -24814.207, 0.0, 10.000186, 9.969162 
3.4450084e+3, 1.7490314e+2, -1250505.5, -1274293.3, 0.84305954, 0.000043501077, -0.00006525018, -1250505.5, -24556.148, 0.0, 10.000185, 9.968748 
3.4450084e+3, 1.8486571e+2, -1162425.3, -1195703.0, 1.6740544, 0.00004336425, 0.00007675317, -1162425.3, -34109.03, 0.0, 10.000185, 9.95631 
3.4450084e+3, 1.9482206e+2, -1064277.1, -1097817.3, 1.0546751, 0.000043309552, -0.00004962071, -1064277.1, -33533.164, 0.0, 10.000184, 9.955967 
3.4450084e+3, 2.0477173e+2, -976114.4, -1019420.4, 1.7755196, 0.000043217893, 0.000074950854, -976114.4, -42877.28, 0.0, 10.000184, 9.943206 
3.4450084e+3, 2.1471497e+2, -877828.8, -921396.44, 1.1803688, 0.000043086202, -0.000119590375, -877828.8, -42035.516, 0.0, 10.000184, 9.942864 
3.4450084e+3, 2.2465152e+2, -789543.7, -843132.25, 1.8069168, 0.00004296974, 0.0001280337, -789543.7, -51128.55, 0.0, 10.000183, 9.929823 
3.4450084e+3, 2.3458141e+2, -691111.5, -744955.0, 1.1805522, 0.000042870484, -0.00008225417, -691111.5, -50009.31, 0.0, 10.000183, 9.929492 
3.4450084e+3, 2.4450435e+2, -602788.56, -667008.56, 1.6805142, 0.00004278409, 0.00008081858, -602788.56, -58931.18, 0.0, 10.000183, 9.916051 
3.4450084e+3, 2.5442052e+2, -504037.25, -568334.25, 1.0707253, 0.000042712996, -0.0001009189, -504037.25, -57358.36, 0.0, 10.000182, 9.915952 
3.4450084e+3, 2.643296e+2, -415803.0, -490980.25, 1.4648354, 0.000042622276, 0.00014606457, -415803.0, -66233.164, 0.0, 10.000182, 9.901879 
3.4450084e+3, 2.7423206e+2, -316519.1, -391368.28, 0.84639466, 0.000042506508, -0.00019839233, -316519.1, -63993.098, 0.0, 10.000182, 9.9023 
3.4450084e+3, 2.8412625e+2, -230045.95, -318074.2, 1.134711, 0.00004242329, 0.00023376534, -230045.95, -74483.17, 0.0, 10.000182, 9.885355 
3.4450084e+3, 2.9401267e+2, -130341.11, -217758.97, 0.5332374, 0.00004238467, -0.0002488377, -130341.11, -71665.08, 0.0, 10.000181, 9.886133 
3.4450084e+3, 3.03927e+2, -40601.367, -84749.42, 0.65474117, 0.000042264175, 0.00017715734, -40601.367, -40601.367, 0.0, 10.000181, 9.942086 
3.4450084e+3, 3.1387097e+2, -39524.098, -82511.18, 0.036379963, 0.000042021828, -0.000052006188, -39524.098, -39524.098, 0.0, 10.000181, 9.943597 
3.4550092e+3, 1.249954e+2, -1719717.4, -1724205.6, 0.4021456, 0.000045329878, 0.00003650459, -1719717.4, -4672.1494, 0.0, 10.000189, 9.994238 
3.455009e+3, 1.3498953e+2, -1622339.4, -1627418.1, -0.19474879, 0.000044919885, -0.0000820374, -1622339.4, -5236.806, 0.0, 10.000188, 9.993455 
3.455009e+3, 1.4497702e+2, -1534237.5, -1548126.5, 0.8244262, 0.000044672895, 0.00010177312, -1534237.5, -15012.25, 0.0, 10.000187, 9.981778 
3.455009e+3, 1.549588e+2, -1436511.9, -1450803.6, 0.23084405, 0.000044581044, -0.00004724963, -1436511.9, -15108.095, 0.0, 10.000186, 9.981246 
3.455009e+3, 1.6493396e+2, -1348463.1, -1371936.6, 1.2542032, 0.000044464676, 0.000049611135, -1348463.1, -24815.922, 0.0, 10.000186, 9.969161 
3.455009e+3, 1.7490317e+2, -1250506.9, -1274295.9, 0.6561918, 0.00004432336, -0.00006506924, -1250506.9, -24557.834, 0.0, 10.000185, 9.968747 
3.455009e+3, 1.8486574e+2, -1162426.6, -1195705.8, 1.5073972, 0.00004419318, 0.000076966644, -1162426.6, -34110.75, 0.0, 10.000185, 9.956308 
3.455009e+3, 1.9482209e+2, -1064278.5, -1097819.9, 0.8882488, 0.000044074586, -0.00004941429, -1064278.5, -33534.848, 0.0, 10.000184, 9.955965 
3.4550086e+3, 2.0477176e+2, -976115.7, -1019422.94, 1.6485553, 0.00004396536, 0.000075137585, -976115.7, -42878.906, 0.0, 10.000184, 9.943204 
3.4550086e+3, 2.1471502e+2, -877830.1, -921399.0, 1.0541718, 0.00004386624, -0.00011943699, -877830.1, -42037.11, 0.0, 10.000184, 9.9428625 
3.4550086e+3, 2.2465155e+2, -789545.0, -843135.0, 1.7069556, 0.000043764812, 0.00012818207, -789545.0, -51130.2, 0.0, 10.000183, 9.929821 
3.4550086e+3, 2.3458144e+2, -691112.9, -744957.7, 1.081435, 0.000043660733, -0.00008207873, -691112.9, -50010.926, 0.0, 10.000183, 9.92949 
3.4550086e+3, 2.4450438e+2, -602789.9, -667011.25, 1.5839286, 0.000043577755, 0.000081004786, -602789.9, -58932.76, 0.0, 10.000183, 9.91605 
3.4550086e+3, 2.5442055e+2, -504038.56, -568336.9, 0.9742351, 0.000043519944, -0.0001007414, -504038.56, -57359.906, 0.0, 10.000182, 9.91595 
3.4550086e+3, 2.643296e+2, -415804.34, -490982.97, 1.3792702, 0.000043433676, 0.00014621516, -415804.34, -66234.72, 0.0, 10.000182, 9.901878 
3.4550086e+3, 2.7423206e+2, -316520.4, -391371.0, 0.7615461, 0.000043311105, -0.00019829179, -316520.4, -63994.62, 0.0, 10.000182, 9.902298 
3.4550086e+3, 2.8412625e+2, -230047.27, -318076.88, 1.0402781, 0.000043215365, 0.00023386232, -230047.27, -74484.66, 0.0, 10.000182, 9.885353 
3.4550086e+3, 2.9401267e+2, -130342.4, -217761.66, 0.4379031, 0.000043156444, -0.00024868056, -130342.4, -71666.53, 0.0, 10.000181, 9.886131 
3.4550086e+3, 3.03927e+2, -40602.7, -84752.2, 0.5314914, 0.000043051157, 0.00017731465, -40602.7, -40602.7, 0.0, 10.000181, 9.942084 
3.4550086e+3, 3.1387097e+2, -39525.44, -82513.98, -0.09016351, 0.000042876785, -0.000051938303, -39525.44, -39525.44, 0.0, 10.000181, 9.943595 
3.465009e+3, 1.2499545e+2, -1719707.3, -1724202.1, 0.8667183, 0.000046108213, 0.000036849768, -1719707.3, -4662.4946, 0.0, 10.0001955, 9.994236 
3.465009e+3, 1.3498957e+2, -1622329.4, -1627414.6, 0.23211338, 0.00004568965, -0.00008241094, -1622329.4, -5227.1943, 0.0, 10.000195, 9.993453 
3.465009e+3, 1.4497706e+2, -1534227.4, -1548123.0, 1.2848477, 0.00004543502, 0.00010247053, -1534227.4, -15002.597, 0.0, 10.000195, 9.981776 
3.465009e+3, 1.5495884e+2, -1436501.8, -1450800.1, 0.6602662, 0.00004533627, -0.000047039433, -1436501.8, -15098.35, 0.0, 10.000194, 9.981244 
3.465009e+3, 1.6493401e+2, -1348453.0, -1371933.3, 1.7051084, 0.00004523167, 0.000049654253, -1348453.0, -24806.166, 0.0, 10.000193, 9.969159 
3.465009e+3, 1.7490321e+2, -1250496.8, -1274292.5, 1.0828665, 0.000045121174, -0.00006486634, -1250496.8, -24548.16, 0.0, 10.000193, 9.968745 
3.4650087e+3, 1.8486577e+2, -1162416.5, -1195702.4, 1.9653454, 0.000044999626, 0.00007721682, -1162416.5, -34101.082, 0.0, 10.000192, 9.956306 
3.4650087e+3, 1.9482212e+2, -1064268.4, -1097816.5, 1.3479389, 0.00004486644, -0.00004923453, -1064268.4, -33525.082, 0.0, 10.000192, 9.955964 
3.4650087e+3, 2.0477179e+2, -976105.5, -1019419.6, 2.1240067, 0.000044751847, 0.0000752905, -976105.5, -42869.055, 0.0, 10.000192, 9.943202 
3.4650087e+3, 2.1471505e+2, -877819.9, -921395.7, 1.4832151, 0.00004465735, -0.0001192637, -877819.9, -42027.188, 0.0, 10.000191, 9.942862 
3.4650087e+3, 2.2465158e+2, -789534.8, -843131.8, 2.1234193, 0.000044565193, 0.00012836045, -789534.8, -51120.277, 0.0, 10.000191, 9.929819 
3.4650087e+3, 2.3458147e+2, -691102.7, -744954.56, 1.4859111, 0.000044475633, -0.00008191255, -691102.7, -50001.016, 0.0, 10.000191, 9.929488 
3.4650087e+3, 2.445044e+2, -602779.7, -667008.1, 1.9815364, 0.000044395518, 0.00008116572, -602779.7, -58922.81, 0.0, 10.000191, 9.916048 
3.4650087e+3, 2.5442058e+2, -504028.28, -568333.75, 1.3419621, 0.000044326644, -0.00010057738, -504028.28, -57349.88, 0.0, 10.00019, 9.915948 
3.4650087e+3, 2.6432964e+2, -415794.03, -490979.9, 1.7293576, 0.00004423934, 0.00014636334, -415794.03, -66224.65, 0.0, 10.00019, 9.901876 
3.4650087e+3, 2.742321e+2, -316510.1, -391367.97, 1.0938108, 0.00004412852, -0.00019818354, -316510.1, -63984.516, 0.0, 10.00019, 9.902296 
3.4650084e+3, 2.8412628e+2, -230036.95, -318073.9, 1.330479, 0.000044040527, 0.00023396408, -230036.95, -74474.52, 0.0, 10.00019, 9.885351 
3.4650084e+3, 2.940127e+2, -130332.11, -217758.7, 0.68068427, 0.000043983826, -0.00024853947, -130332.11, -71656.41, 0.0, 10.00019, 9.886129 
3.4650084e+3, 3.0392703e+2, -40592.51, -84749.42, 0.7105958, 0.000043878586, 0.00017745527, -40592.51, -40592.51, 0.0, 10.000189, 9.942082 
3.4650084e+3, 3.13871e+2, -39515.176, -82511.164, 0.06148191, 0.00004370109, -0.000051857638, -39515.176, -39515.176, 0.0, 10.000189, 9.943593 
3.4750092e+3, 1.2499549e+2, -1719708.8, -1724204.8, 0.5600383, 0.000046839035, 0.00003722335, -1719708.8, -4664.4106, 0.0, 10.0001955, 9.994234 
3.4750092e+3, 1.3498962e+2, -1622330.9, -1627417.4, -0.07455402, 0.000046460897, -0.00008276322, -1622330.9, -5229.08, 0.0, 10.000195, 9.993452 
3.4750092e+3, 1.4497711e+2, -1534228.9, -1548125.6, 1.0596825, 0.000046226694, 0.00010318101, -1534228.9, -15004.443, 0.0, 10.000195, 9.981774 
3.4750092e+3, 1.5495889e+2, -1436503.1, -1450802.9, 0.43524256, 0.00004612807, -0.00004689883, -1436503.1, -15100.159, 0.0, 10.000194, 9.981243 
3.4750092e+3, 1.6493405e+2, -1348454.4, -1371935.9, 1.5083611, 0.000046017438, 0.000049630125, -1348454.4, -24807.951, 0.0, 10.000193, 9.969157 
3.475009e+3, 1.7490324e+2, -1250498.1, -1274295.1, 0.8862391, 0.000045894645, -0.00006464156, -1250498.1, -24549.914, 0.0, 10.000193, 9.968743 
3.475009e+3, 1.8486582e+2, -1162417.9, -1195705.0, 1.8318013, 0.000045783694, 0.00007750358, -1162417.9, -34102.813, 0.0, 10.000192, 9.9563055 
3.475009e+3, 1.9482216e+2, -1064269.8, -1097819.1, 1.2150761, 0.00004568505, -0.00004908133, -1064269.8, -33526.777, 0.0, 10.000192, 9.955962 
3.475009e+3, 2.0477183e+2, -976106.9, -1019422.4, 2.0240965, 0.000045577257, 0.00007540975, -976106.9, -42870.79, 0.0, 10.000192, 9.9432 
3.475009e+3, 2.1471508e+2, -877821.25, -921398.44, 1.3839742, 0.000045459536, -0.00011907057, -877821.25, -42028.89, 0.0, 10.000191, 9.94286 
3.475009e+3, 2.246516e+2, -789536.25, -843134.56, 2.0319705, 0.000045370896, 0.00012856875, -789536.25, -51121.97, 0.0, 10.000191, 9.929818 
3.475009e+3, 2.345815e+2, -691104.06, -744957.3, 1.3946937, 0.000045315126, -0.00008175558, -691104.06, -50002.67, 0.0, 10.000191, 9.929486 
3.475009e+3, 2.4450442e+2, -602781.06, -667010.94, 1.9127667, 0.00004523732, 0.00008130149, -602781.06, -58924.457, 0.0, 10.000191, 9.916046 
3.475009e+3, 2.5442058e+2, -504029.7, -568336.56, 1.2742434, 0.00004513313, -0.00010042679, -504029.7, -57351.496, 0.0, 10.00019, 9.915946 
3.475009e+3, 2.6432967e+2, -415795.44, -490982.72, 1.6631283, 0.00004503932, 0.00014650913, -415795.44, -66226.25, 0.0, 10.00019, 9.901875 
3.475009e+3, 2.7423212e+2, -316511.47, -391370.75, 1.027646, 0.00004495873, -0.00019806756, -316511.47, -63986.082, 0.0, 10.00019, 9.902294 
3.475009e+3, 2.841263e+2, -230038.34, -318076.78, 1.2469919, 0.000044898698, 0.0002340706, -230038.34, -74476.11, 0.0, 10.00019, 9.885349 
3.475009e+3, 2.940127e+2, -130333.49, -217761.58, 0.5956278, 0.00004486666, -0.00024841438, -130333.49, -71657.95, 0.0, 10.00019, 9.886127 
3.475009e+3, 3.0392703e+2, -40593.895, -84752.305, 0.60806423, 0.000044746364, 0.00017757925, -40593.895, -40593.895, 0.0, 10.000189, 9.9420805 
3.475009e+3, 3.13871e+2, -39516.563, -82514.055, -0.043145586, 0.000044494875, -0.000051764222, -39516.563, -39516.563, 0.0, 10.000189, 9.943591 
3.4850097e+3, 1.2499554e+2, -1719698.4, -1724201.3, 0.8680655, 0.000047611982, 0.000037690992, -1719698.4, -4654.5825, 0.0, 10.000203, 9.994233 
3.4850097e+3, 1.3498966e+2, -1622320.5, -1627413.8, 0.247944, 0.000047236095, -0.00008309029, -1622320.5, -5219.195, 0.0, 10.000202, 9.99345 
3.4850097e+3, 1.4497715e+2, -1534218.5, -1548122.0, 1.471117, 0.00004701398, 0.00010392253, -1534218.5, -14994.52, 0.0, 10.000201, 9.981772 
3.4850097e+3, 1.5495893e+2, -1436492.8, -1450799.3, 0.87103254, 0.00004693712, -0.000046711, -1436492.8, -15090.286, 0.0, 10.000201, 9.981241 
3.4850094e+3, 1.6493408e+2, -1348444.1, -1371932.4, 1.9982733, 0.000046828925, 0.000049627874, -1348444.1, -24798.07, 0.0, 10.0002, 9.969155 
3.4850094e+3, 1.7490329e+2, -1250487.8, -1274291.6, 1.3502738, 0.000046688838, -0.00006446266, -1250487.8, -24539.879, 0.0, 10.0002, 9.968742 
3.4850094e+3, 1.8486585e+2, -1162407.4, -1195701.6, 2.3133447, 0.000046573998, 0.00007775066, -1162407.4, -34092.684, 0.0, 10.000199, 9.956304 
3.4850094e+3, 1.9482219e+2, -1064259.3, -1097815.8, 1.6551799, 0.000046485486, -0.000048884263, -1064259.3, -33516.61, 0.0, 10.000199, 9.95596 
3.4850094e+3, 2.0477186e+2, -976096.4, -1019419.0, 2.4689422, 0.00004639403, 0.000075584256, -976096.4, -42860.617, 0.0, 10.000199, 9.943198 
3.4850094e+3, 2.1471511e+2, -877810.75, -921395.06, 1.8232313, 0.000046299374, -0.000118888885, -877810.75, -42018.72, 0.0, 10.000198, 9.942858 
3.4850094e+3, 2.2465163e+2, -789525.7, -843131.25, 2.4808476, 0.000046220022, 0.00012874235, -789525.7, -51111.754, 0.0, 10.000198, 9.929816 
3.485009e+3, 2.3458153e+2, -691093.44, -744954.0, 1.818989, 0.00004615796, -0.000081607366, -691093.44, -49992.324, 0.0, 10.000198, 9.929484 
3.485009e+3, 2.4450445e+2, -602770.4, -667007.6, 2.3254147, 0.00004607305, 0.00008143686, -602770.4, -58914.027, 0.0, 10.000198, 9.916044 
3.485009e+3, 2.5442064e+2, -504018.94, -568333.3, 1.6584084, 0.00004596082, -0.00010028924, -504018.94, -57341.01, 0.0, 10.000198, 9.915944 
3.485009e+3, 2.643297e+2, -415784.7, -490979.5, 2.0093875, 0.000045874353, 0.00014665312, -415784.7, -66215.734, 0.0, 10.000198, 9.901873 
3.485009e+3, 2.7423212e+2, -316500.75, -391367.6, 1.3318235, 0.000045820685, -0.00019791174, -316500.75, -63975.57, 0.0, 10.000198, 9.902292 
3.485009e+3, 2.841263e+2, -230027.6, -318073.66, 1.5150344, 0.0000457755, 0.00023421521, -230027.6, -74465.55, 0.0, 10.000197, 9.885347 
3.485009e+3, 2.9401273e+2, -130322.68, -217758.45, 0.8497125, 0.000045741723, -0.0002483125, -130322.68, -71647.31, 0.0, 10.000197, 9.886126 
3.485009e+3, 3.0392706e+2, -40583.152, -84749.37, 0.8068562, 0.00004561362, 0.00017766163, -40583.152, -40583.152, 0.0, 10.000197, 9.942079 
3.485009e+3, 3.1387103e+2, -39505.74, -82511.086, 0.09840927, 0.000045345478, -0.000051666422, -39505.74, -39505.74, 0.0, 10.000197, 9.943589 
3.4950098e+3, 1.2499559e+2, -1719699.9, -1724203.9, 0.58415204, 0.00004842692, 0.000038271875, -1719699.9, -4656.4814, 0.0, 10.000203, 9.994231 
3.4950098e+3, 1.3498971e+2, -1622321.9, -1627416.4, -0.035960723, 0.00004801526, -0.00008339227, -1622321.9, -5221.064, 0.0, 10.000202, 9.993448 
3.4950098e+3, 1.449772e+2, -1534219.9, -1548124.6, 1.242205, 0.000047796926, 0.00010469499, -1534219.9, -14996.328, 0.0, 10.000201, 9.981771 
3.4950095e+3, 1.5495898e+2, -1436494.1, -1450801.9, 0.6421477, 0.000047763395, -0.000046476114, -1436494.1, -15092.06, 0.0, 10.000201, 9.981239 
3.4950095e+3, 1.6493413e+2, -1348445.5, -1371935.3, 1.8474681, 0.00004766606, 0.000049647435, -1348445.5, -24799.93, 0.0, 10.0002, 9.969154 
3.4950095e+3, 1.7490332e+2, -1250489.3, -1274294.4, 1.1998743, 0.000047503712, -0.00006432946, -1250489.3, -24541.707, 0.0, 10.0002, 9.96874 
3.4950095e+3, 1.8486589e+2, -1162408.9, -1195704.4, 2.199659, 0.000047370555, 0.00007795822, -1162408.9, -34094.52, 0.0, 10.000199, 9.956302 
3.4950095e+3, 1.9482224e+2, -1064260.6, -1097818.5, 1.541893, 0.000047267844, -0.000048643487, -1064260.6, -33518.41, 0.0, 10.000199, 9.955958 
3.4950095e+3, 2.0477189e+2, -976097.8, -1019421.8, 2.379052, 0.000047202237, 0.00007581382, -976097.8, -42862.383, 0.0, 10.000199, 9.943197 
3.4950095e+3, 2.1471514e+2, -877812.2, -921397.9, 1.7337941, 0.000047176763, -0.00011871858, -877812.2, -42020.45, 0.0, 10.000198, 9.942856 
3.4950092e+3, 2.2465168e+2, -789527.1, -843134.1, 2.4303758, 0.00004711245, 0.0001288814, -789527.1, -51113.508, 0.0, 10.000198, 9.929814 
3.4950092e+3, 2.3458156e+2, -691094.9, -744956.9, 1.7697705, 0.00004700415, -0.000081467886, -691094.9, -49994.047, 0.0, 10.000198, 9.929482 
3.4950092e+3, 2.4450448e+2, -602771.8, -667010.56, 2.2820544, 0.000046902773, 0.00008157185, -602771.8, -58915.75, 0.0, 10.000198, 9.916042 
3.4950092e+3, 2.5442067e+2, -504020.38, -568336.2, 1.6152947, 0.000046809677, -0.000100164674, -504020.38, -57342.695, 0.0, 10.000198, 9.915942 
3.4950092e+3, 2.643297e+2, -415786.16, -490982.47, 1.9559456, 0.000046744353, 0.00014679531, -415786.16, -66217.43, 0.0, 10.000198, 9.901871 
3.4950092e+3, 2.7423215e+2, -316502.2, -391370.53, 1.2776581, 0.000046714296, -0.00019771622, -316502.2, -63977.227, 0.0, 10.000198, 9.90229 
3.4950092e+3, 2.8412634e+2, -230029.02, -318076.6, 1.4629347, 0.00004667091, 0.00023439777, -230029.02, -74467.164, 0.0, 10.000197, 9.885345 
3.4950092e+3, 2.9401273e+2, -130324.08, -217761.36, 0.7977802, 0.000046609075, -0.00024823385, -130324.08, -71648.89, 0.0, 10.000197, 9.886124 
3.4950092e+3, 3.039271e+2, -40584.63, -84752.44, 0.7284743, 0.000046480396, 0.00017770253, -40584.63, -40584.63, 0.0, 10.000197, 9.942076 
3.4950092e+3, 3.1387103e+2, -39507.227, -82514.19, 0.016882103, 0.000046252746, -0.00005156425, -39507.227, -39507.227, 0.0, 10.000197, 9.943587 
3.50501e+3, 1.24995634e+2, -1719689.4, -1724200.1, 0.98314065, 0.000049246803, 0.00003868326, -1719689.4, -4646.4995, 0.0, 10.00021, 9.994229 
3.50501e+3, 1.3498977e+2, -1622311.5, -1627412.8, 0.35198188, 0.000048816994, -0.00008382551, -1622311.5, -5211.0693, 0.0, 10.00021, 9.993446 
3.5050097e+3, 1.4497724e+2, -1534209.3, -1548120.9, 1.6699393, 0.00004859165, 0.00010542241, -1534209.3, -14986.259, 0.0, 10.000209, 9.98177 
3.5050097e+3, 1.5495901e+2, -1436483.5, -1450798.1, 1.0201281, 0.000048562095, -0.00004621731, -1436483.5, -15081.857, 0.0, 10.000208, 9.981238 
3.5050097e+3, 1.6493417e+2, -1348434.9, -1371931.6, 2.2715788, 0.000048476093, 0.00004972415, -1348434.9, -24789.686, 0.0, 10.000208, 9.969152 
3.5050097e+3, 1.7490336e+2, -1250478.5, -1274290.8, 1.6337942, 0.000048332582, -0.0000641423, -1250478.5, -24531.443, 0.0, 10.000208, 9.968739 
3.5050097e+3, 1.8486592e+2, -1162398.3, -1195700.9, 2.6799889, 0.000048210422, 0.00007817848, -1162398.3, -34084.24, 0.0, 10.000207, 9.9563 
3.5050097e+3, 1.9482227e+2, -1064249.9, -1097815.0, 2.0028238, 0.00004811052, -0.000048471084, -1064249.9, -33508.0, 0.0, 10.000207, 9.955956 
3.5050094e+3, 2.0477194e+2, -976086.94, -1019418.25, 2.8390176, 0.000048044283, 0.00007597107, -976086.94, -42851.836, 0.0, 10.000207, 9.943195 
3.5050094e+3, 2.1471517e+2, -877801.2, -921394.3, 2.1651907, 0.00004801445, -0.00011854107, -877801.2, -42009.79, 0.0, 10.000207, 9.942854 
3.5050094e+3, 2.2465171e+2, -789516.1, -843130.7, 2.8681245, 0.00004795776, 0.00012905314, -789516.1, -51102.8, 0.0, 10.000207, 9.929812 
3.5050094e+3, 2.3458159e+2, -691083.9, -744953.4, 2.190138, 0.000047870635, -0.000081331345, -691083.9, -49983.313, 0.0, 10.000207, 9.9294815 
3.5050094e+3, 2.4450451e+2, -602760.8, -667007.2, 2.6912506, 0.000047786758, 0.000081693695, -602760.8, -58904.99, 0.0, 10.000207, 9.91604 
3.5050094e+3, 2.5442067e+2, -504009.25, -568332.8, 1.9867898, 0.00004770676, -0.000100033016, -504009.25, -57331.832, 0.0, 10.000207, 9.91594 
3.5050094e+3, 2.6432973e+2, -415774.97, -490979.2, 2.2803738, 0.000047641548, 0.00014693609, -415774.97, -66206.484, 0.0, 10.000207, 9.901869 
3.5050094e+3, 2.7423218e+2, -316490.94, -391367.25, 1.5634996, 0.000047595102, -0.0001975673, -316490.94, -63966.176, 0.0, 10.000206, 9.902288 
3.5050094e+3, 2.8412637e+2, -230017.64, -318073.22, 1.7135473, 0.000047546804, 0.00023453754, -230017.64, -74455.99, 0.0, 10.000206, 9.885344 
3.5050094e+3, 2.9401276e+2, -130312.68, -217758.02, 1.0244613, 0.000047495843, -0.00024812686, -130312.68, -71637.664, 0.0, 10.000206, 9.886122 
3.5050094e+3, 3.039271e+2, -40573.375, -84749.4, 0.8942791, 0.000047389683, 0.00017779089, -40573.375, -40573.375, 0.0, 10.000206, 9.942074 
3.5050094e+3, 3.1387106e+2, -39495.875, -82511.125, 0.13004608, 0.000047201687, -0.00005147322, -39495.875, -39495.875, 0.0, 10.000206, 9.943585 
3.5150102e+3, 1.24995686e+2, -1719690.8, -1724202.9, 0.71173316, 0.00005007165, 0.000038945298, -1719690.8, -4648.439, 0.0, 10.00021, 9.994227 
3.51501e+3, 1.3498981e+2, -1622312.9, -1627415.5, 0.08053202, 0.00004964124, -0.0000843895, -1622312.9, -5212.9795, 0.0, 10.00021, 9.993445 
3.51501e+3, 1.449773e+2, -1534210.8, -1548123.8, 1.4808289, 0.00004939814, 0.00010610499, -1534210.8, -14988.196, 0.0, 10.000209, 9.981768 
3.51501e+3, 1.5495907e+2, -1436485.0, -1450800.9, 0.8311115, 0.000049333372, -0.00004593467, -1436485.0, -15083.758, 0.0, 10.000208, 9.981236 
3.51501e+3, 1.6493422e+2, -1348436.4, -1371934.3, 2.1351087, 0.000049259164, 0.000049857794, -1348436.4, -24791.54, 0.0, 10.000208, 9.969151 
3.51501e+3, 1.7490341e+2, -1250480.0, -1274293.5, 1.4975485, 0.00004917542, -0.00006390138, -1250480.0, -24533.266, 0.0, 10.000208, 9.968737 
3.51501e+3, 1.8486597e+2, -1162399.8, -1195703.9, 2.6067915, 0.000049093473, 0.000078411394, -1162399.8, -34086.133, 0.0, 10.000207, 9.956298 
3.51501e+3, 1.948223e+2, -1064251.4, -1097817.9, 1.930346, 0.000049013328, -0.00004836677, -1064251.4, -33509.855, 0.0, 10.000207, 9.955955 
3.51501e+3, 2.0477197e+2, -976088.44, -1019421.2, 2.7871022, 0.00004892008, 0.00007605628, -976088.44, -42853.676, 0.0, 10.000207, 9.943193 
3.51501e+3, 2.147152e+2, -877802.7, -921397.2, 2.1136634, 0.000048812628, -0.00011835639, -877802.7, -42011.594, 0.0, 10.000207, 9.942852 
3.51501e+3, 2.2465174e+2, -789517.6, -843133.6, 2.8358366, 0.00004875617, 0.00012925746, -789517.6, -51104.61, 0.0, 10.000207, 9.929811 
3.51501e+3, 2.3458162e+2, -691085.3, -744956.3, 2.1584344, 0.000048757378, -0.00008119774, -691085.3, -49985.082, 0.0, 10.000207, 9.92948 
3.51501e+3, 2.4450454e+2, -602762.3, -667010.25, 2.6838303, 0.00004872484, 0.00008180244, -602762.3, -58906.797, 0.0, 10.000207, 9.9160385 
3.51501e+3, 2.544207e+2, -504010.78, -568335.9, 1.9805316, 0.000048651928, -0.000099894285, -504010.78, -57333.605, 0.0, 10.000207, 9.915938 
3.51501e+3, 2.6432976e+2, -415776.5, -490982.28, 2.264553, 0.000048565882, 0.00014707542, -415776.5, -66208.26, 0.0, 10.000207, 9.901866 
3.51501e+3, 2.7423218e+2, -316492.44, -391370.34, 1.547028, 0.00004846319, -0.00019746483, -316492.44, -63967.914, 0.0, 10.000206, 9.902287 
3.51501e+3, 2.8412637e+2, -230019.11, -318076.25, 1.6860701, 0.0000484033, 0.0002346347, -230019.11, -74457.664, 0.0, 10.000206, 9.885342 
3.5150096e+3, 2.9401278e+2, -130314.125, -217761.02, 0.9959205, 0.00004840199, -0.00024799167, -130314.125, -71639.3, 0.0, 10.000206, 9.88612 
3.5150096e+3, 3.0392712e+2, -40574.938, -84752.66, 0.84410816, 0.00004834137, 0.00017792653, -40574.938, -40574.938, 0.0, 10.000206, 9.942072 
3.5150096e+3, 3.1387106e+2, -39497.457, -82514.414, 0.07732368, 0.000048192192, -0.000051393297, -39497.457, -39497.457, 0.0, 10.000206, 9.943583 
3.5250103e+3, 1.2499574e+2, -1719680.0, -1724199.1, 1.1553798, 0.000050820676, 0.000039228722, -1719680.0, -4638.1543, 0.0, 10.000217, 9.994226 
3.5250103e+3, 1.3498987e+2, -1622302.1, -1627411.8, 0.46949363, 0.0000504696, -0.00008479966, -1622302.1, -5202.7266, 0.0, 10.000217, 9.9934435 
3.5250103e+3, 1.4497735e+2, -1534200.0, -1548120.0, 1.9286038, 0.000050251245, 0.00010690411, -1534200.0, -14977.917, 0.0, 10.0002165, 9.981766 
3.5250103e+3, 1.5495911e+2, -1436474.1, -1450797.3, 1.2566941, 0.000050156126, -0.00004581223, -1436474.1, -15073.385, 0.0, 10.0002165, 9.981235 
3.5250103e+3, 1.6493426e+2, -1348425.4, -1371930.6, 2.5924327, 0.00005006577, 0.00004979313, -1348425.4, -24781.025, 0.0, 10.000216, 9.969149 
3.5250103e+3, 1.7490345e+2, -1250468.9, -1274289.8, 1.9120016, 0.000049980365, -0.000063653446, -1250468.9, -24522.582, 0.0, 10.000216, 9.968735 
3.52501e+3, 1.8486601e+2, -1162388.6, -1195700.1, 3.0393426, 0.0000499243, 0.00007872641, -1162388.6, -34075.414, 0.0, 10.000216, 9.956296 
3.52501e+3, 1.9482234e+2, -1064240.3, -1097814.3, 2.363172, 0.000049898823, -0.000048241458, -1064240.3, -33499.17, 0.0, 10.000216, 9.955954 
3.52501e+3, 2.0477201e+2, -976077.3, -1019417.6, 3.253673, 0.000049821396, 0.00007612564, -976077.3, -42842.938, 0.0, 10.000215, 9.943192 
3.52501e+3, 2.1471524e+2, -877791.4, -921393.56, 2.5465834, 0.00004968772, -0.00011819821, -877791.4, -42000.652, 0.0, 10.000215, 9.94285 
3.52501e+3, 2.2465177e+2, -789506.2, -843130.0, 3.2433434, 0.00004961984, 0.00012945147, -789506.2, -51093.51, 0.0, 10.000216, 9.929809 
3.52501e+3, 2.3458165e+2, -691073.75, -744952.7, 2.5206544, 0.000049626382, -0.00008102795, -691073.75, -49973.836, 0.0, 10.000216, 9.929477 
3.52501e+3, 2.4450457e+2, -602750.75, -667006.7, 3.0247335, 0.00004961566, 0.00008195374, -602750.75, -58895.49, 0.0, 10.000216, 9.916037 
3.52501e+3, 2.5442073e+2, -503999.22, -568332.4, 2.3169584, 0.000049584218, -0.00009975459, -503999.22, -57322.313, 0.0, 10.000216, 9.915936 
3.52501e+3, 2.643298e+2, -415764.9, -490978.88, 2.60861, 0.000049513237, 0.0001471863, -415764.9, -66196.914, 0.0, 10.000216, 9.901864 
3.5250098e+3, 2.742322e+2, -316480.7, -391366.88, 1.8788388, 0.000049391965, -0.00019740473, -316480.7, -63956.383, 0.0, 10.000216, 9.902285 
3.5250098e+3, 2.841264e+2, -230007.22, -318072.75, 1.958606, 0.000049323702, 0.00023469147, -230007.22, -74445.97, 0.0, 10.000216, 9.88534 
3.5250098e+3, 2.9401278e+2, -130302.13, -217757.53, 1.1867772, 0.000049328144, -0.0002478732, -130302.13, -71627.484, 0.0, 10.000216, 9.886118 
3.5250098e+3, 3.0392712e+2, -40563.043, -84749.42, 0.94361776, 0.000049288326, 0.0001780566, -40563.043, -40563.043, 0.0, 10.000216, 9.942069 
3.5250098e+3, 3.138711e+2, -39485.504, -82511.17, 0.15039046, 0.000049182163, -0.000051326613, -39485.504, -39485.504, 0.0, 10.000216, 9.943581 
3.5350105e+3, 1.2499579e+2, -1719681.6, -1724202.0, 0.8864202, 0.000051494222, 0.00003955332, -1719681.6, -4640.2393, 0.0, 10.000217, 9.994225 
3.5350105e+3, 1.3498992e+2, -1622303.8, -1627414.8, 0.20057602, 0.000051302104, -0.00008505661, -1622303.8, -5204.781, 0.0, 10.000217, 9.993442 
3.5350105e+3, 1.4497739e+2, -1534201.5, -1548122.9, 1.7692986, 0.000051150808, 0.000107819316, -1534201.5, -14979.922, 0.0, 10.0002165, 9.981764 
3.5350105e+3, 1.5495917e+2, -1436475.6, -1450800.1, 1.0976443, 0.000051030187, -0.000045849334, -1436475.6, -15075.349, 0.0, 10.0002165, 9.981233 
3.5350105e+3, 1.6493429e+2, -1348426.9, -1371933.5, 2.5068116, 0.00005089585, 0.000049530954, -1348426.9, -24782.988, 0.0, 10.000216, 9.969147 
3.5350102e+3, 1.7490348e+2, -1250470.4, -1274292.6, 1.8266573, 0.00005074761, -0.000063398526, -1250470.4, -24524.512, 0.0, 10.000216, 9.968733 
3.5350102e+3, 1.8486604e+2, -1162390.1, -1195703.0, 2.9690597, 0.000050703144, 0.00007912321, -1162390.1, -34077.324, 0.0, 10.000216, 9.956294 
3.5350102e+3, 1.9482239e+2, -1064241.8, -1097817.1, 2.2930632, 0.000050767107, -0.00004809522, -1064241.8, -33501.043, 0.0, 10.000216, 9.955952 
3.5350102e+3, 2.0477206e+2, -976078.9, -1019420.7, 3.2612803, 0.000050748164, 0.00007617919, -976078.9, -42844.863, 0.0, 10.000215, 9.94319 
3.5350102e+3, 2.1471527e+2, -877792.94, -921396.6, 2.5557303, 0.00005063946, -0.00011806641, -877792.94, -42002.54, 0.0, 10.000215, 9.942848 
3.5350102e+3, 2.2465181e+2, -789507.8, -843133.2, 3.2598627, 0.00005054855, 0.0001296352, -789507.8, -51095.42, 0.0, 10.000216, 9.929807 
3.5350102e+3, 2.3458168e+2, -691075.3, -744955.8, 2.5374215, 0.000050477767, -0.00008082213, -691075.3, -49975.707, 0.0, 10.000216, 9.929475 
3.5350102e+3, 2.4450459e+2, -602752.25, -667009.8, 3.026836, 0.00005045945, 0.00008214741, -602752.25, -58897.316, 0.0, 10.000216, 9.916035 
3.5350102e+3, 2.5442076e+2, -504000.72, -568335.44, 2.3183024, 0.000050503724, -0.00009961391, -504000.72, -57324.1, 0.0, 10.000216, 9.915935 
3.53501e+3, 2.6432982e+2, -415766.47, -490982.03, 2.649593, 0.00005048356, 0.00014726882, -415766.47, -66198.73, 0.0, 10.000216, 9.901862 
3.53501e+3, 2.7423224e+2, -316482.22, -391370.03, 1.9224423, 0.000050381237, -0.00019738682, -316482.22, -63958.156, 0.0, 10.000216, 9.902283 
3.53501e+3, 2.8412643e+2, -230008.83, -318076.1, 1.9753214, 0.000050307815, 0.00023470804, -230008.83, -74447.79, 0.0, 10.000216, 9.885337 
3.53501e+3, 2.940128e+2, -130303.73, -217760.84, 1.2010709, 0.000050274266, -0.00024777136, -130303.73, -71629.27, 0.0, 10.000216, 9.886116 
3.53501e+3, 3.0392715e+2, -40564.66, -84752.79, 0.9141911, 0.000050230625, 0.0001781811, -40564.66, -40564.66, 0.0, 10.000216, 9.942067 
3.53501e+3, 3.138711e+2, -39487.125, -82514.55, 0.11577294, 0.000050171653, -0.00005127311, -39487.125, -39487.125, 0.0, 10.000216, 9.943578 
3.5450107e+3, 1.2499584e+2, -1719670.9, -1724198.4, 1.0275236, 0.000052352694, 0.000040085248, -1719670.9, -4630.0513, 0.0, 10.000225, 9.994223 
3.5450107e+3, 1.3498996e+2, -1622292.9, -1627411.0, 0.3545396, 0.000052127685, -0.00008537465, -1622292.9, -5194.408, 0.0, 10.000225, 9.99344 
3.5450107e+3, 1.4497745e+2, -1534190.4, -1548118.9, 2.080942, 0.000051970936, 0.00010865135, -1534190.4, -14969.272, 0.0, 10.000224, 9.981763 
3.5450107e+3, 1.5495922e+2, -1436464.5, -1450796.0, 1.5100207, 0.000051872223, -0.00004580756, -1436464.5, -15064.593, 0.0, 10.000224, 9.981231 
3.5450107e+3, 1.6493434e+2, -1348415.9, -1371929.9, 2.9995868, 0.000051754407, 0.000049360293, -1348415.9, -24772.355, 0.0, 10.000224, 9.969145 
3.5450104e+3, 1.7490353e+2, -1250459.3, -1274289.0, 2.229328, 0.000051617182, -0.00006319191, -1250459.3, -24513.785, 0.0, 10.000223, 9.968731 
3.5450104e+3, 1.8486609e+2, -1162378.8, -1195699.3, 3.3629782, 0.000051563526, 0.000079433594, -1162378.8, -34066.31, 0.0, 10.000223, 9.956292 
3.5450104e+3, 1.9482242e+2, -1064230.1, -1097813.3, 2.6889899, 0.000051597177, -0.00004796713, -1064230.1, -33489.76, 0.0, 10.000223, 9.95595 
3.5450104e+3, 2.0477208e+2, -976067.2, -1019416.94, 3.6806476, 0.000051592317, 0.00007625593, -976067.2, -42833.566, 0.0, 10.000223, 9.943188 
3.5450104e+3, 2.147153e+2, -877781.25, -921392.94, 2.9231784, 0.000051545743, -0.00011789925, -877781.25, -41991.242, 0.0, 10.000223, 9.942846 
3.5450104e+3, 2.2465184e+2, -789496.06, -843129.5, 3.6214254, 0.00005149228, 0.00012981123, -789496.06, -51084.055, 0.0, 10.000224, 9.929805 
3.5450104e+3, 2.3458171e+2, -691063.56, -744952.1, 2.9042583, 0.000051430998, -0.00008072952, -691063.56, -49964.24, 0.0, 10.000224, 9.929473 
3.5450104e+3, 2.4450463e+2, -602740.4, -667006.1, 3.3799322, 0.00005139609, 0.00008221685, -602740.4, -58885.688, 0.0, 10.000224, 9.916032 
3.5450104e+3, 2.544208e+2, -503988.53, -568331.7, 2.6135418, 0.00005139265, -0.000099495606, -503988.53, -57312.176, 0.0, 10.000224, 9.915933 
3.5450104e+3, 2.6432985e+2, -415754.16, -490978.3, 2.896382, 0.000051383147, 0.00014740847, -415754.16, -66186.664, 0.0, 10.000224, 9.90186 
3.5450104e+3, 2.7423227e+2, -316469.97, -391366.38, 2.1313875, 0.000051365823, -0.000197261, -316469.97, -63946.137, 0.0, 10.000224, 9.90228 
3.5450104e+3, 2.8412643e+2, -229996.58, -318072.56, 2.1590638, 0.00005133821, 0.00023480212, -229996.58, -74435.75, 0.0, 10.000225, 9.885335 
3.5450104e+3, 2.940128e+2, -130291.33, -217757.28, 1.3788698, 0.00005129652, -0.00024773338, -130291.33, -71617.06, 0.0, 10.000225, 9.886113 
3.5450104e+3, 3.0392715e+2, -40552.21, -84749.414, 1.0331447, 0.000051232008, 0.00017820284, -40552.21, -40552.21, 0.0, 10.000225, 9.942065 
3.5450104e+3, 3.1387112e+2, -39474.324, -82511.02, 0.16390014, 0.000051133764, -0.000051208284, -39474.324, -39474.324, 0.0, 10.000225, 9.943576 
3.555011e+3, 1.24995895e+2, -1719672.4, -1724201.3, 0.81126857, 0.00005339532, 0.000040850897, -1719672.4, -4632.1187, 0.0, 10.000225, 9.994221 
3.555011e+3, 1.3499e+2, -1622294.4, -1627413.9, 0.13836828, 0.000052946412, -0.0000857536, -1622294.4, -5196.4414, 0.0, 10.000225, 9.993438 
3.555011e+3, 1.449775e+2, -1534191.8, -1548121.4, 1.9556184, 0.000052711996, 0.00010940059, -1534191.8, -14971.061, 0.0, 10.000224, 9.981761 
3.555011e+3, 1.5495926e+2, -1436465.8, -1450798.5, 1.3846895, 0.00005268241, -0.000045687226, -1436465.8, -15066.347, 0.0, 10.000224, 9.98123 
3.555011e+3, 1.6493438e+2, -1348417.5, -1371933.3, 2.9467218, 0.000052641353, 0.000049280767, -1348417.5, -24774.531, 0.0, 10.000224, 9.969143 
3.555011e+3, 1.7490359e+2, -1250460.9, -1274292.3, 2.1768897, 0.00005258869, -0.00006303338, -1250460.9, -24515.924, 0.0, 10.000223, 9.968729 
3.555011e+3, 1.8486613e+2, -1162380.3, -1195702.1, 3.3667316, 0.000052505144, 0.00007965793, -1162380.3, -34068.227, 0.0, 10.000223, 9.956291 
3.555011e+3, 1.9482246e+2, -1064231.6, -1097816.1, 2.6933277, 0.000052389234, -0.000047857102, -1064231.6, -33491.64, 0.0, 10.000223, 9.955948 
3.555011e+3, 2.0477213e+2, -976068.9, -1019420.2, 3.7011986, 0.000052354237, 0.00007635577, -976068.9, -42835.61, 0.0, 10.000223, 9.943185 
3.555011e+3, 2.1471535e+2, -877782.94, -921396.2, 2.9440644, 0.00005240679, -0.00011769688, -877782.94, -41993.25, 0.0, 10.000223, 9.942844 
3.555011e+3, 2.2465187e+2, -789497.7, -843132.6, 3.673218, 0.000052450996, 0.0001299796, -789497.7, -51085.965, 0.0, 10.000224, 9.929802 
3.555011e+3, 2.3458174e+2, -691065.1, -744955.25, 2.9570343, 0.000052485695, -0.00008074967, -691065.1, -49966.105, 0.0, 10.000224, 9.929471 
3.5550106e+3, 2.4450466e+2, -602742.0, -667009.44, 3.4660127, 0.000052425243, 0.000082162565, -602742.0, -58887.637, 0.0, 10.000224, 9.91603 
3.5550106e+3, 2.5442082e+2, -503990.16, -568335.0, 2.7011652, 0.00005225117, -0.00009939956, -503990.16, -57314.09, 0.0, 10.000224, 9.91593 
3.5550106e+3, 2.6432985e+2, -415755.78, -490981.66, 2.9449644, 0.000052212345, 0.00014760502, -415755.78, -66188.555, 0.0, 10.000224, 9.901858 
3.5550106e+3, 2.742323e+2, -316471.6, -391369.7, 2.1773114, 0.000052345793, -0.00019702772, -316471.6, -63947.99, 0.0, 10.000224, 9.902278 
3.5550106e+3, 2.8412646e+2, -229998.2, -318075.9, 2.2289164, 0.00005241475, 0.00023497338, -229998.2, -74437.586, 0.0, 10.000225, 9.885333 
3.5550106e+3, 2.9401284e+2, -130292.94, -217760.63, 1.4508913, 0.000052394647, -0.00024775893, -130292.94, -71618.86, 0.0, 10.000225, 9.886111 
3.5550106e+3, 3.0392718e+2, -40553.945, -84753.02, 1.0953212, 0.00005229229, 0.00017812221, -40553.945, -40553.945, 0.0, 10.000225, 9.942062 
3.5550106e+3, 3.1387112e+2, -39476.074, -82514.664, 0.22486028, 0.000052068666, -0.000051132178, -39476.074, -39476.074, 0.0, 10.000225, 9.943573 
3.5650113e+3, 1.2499595e+2, -1719661.9, -1724197.6, 1.1052647, 0.000054400763, 0.00004130958, -1719661.9, -4622.0933, 0.0, 10.000233, 9.994219 
3.5650113e+3, 1.3499007e+2, -1622283.4, -1627410.0, 0.47967616, 0.000053782915, -0.00008645971, -1622283.4, -5185.9136, 0.0, 10.000233, 9.993436 
3.5650113e+3, 1.4497754e+2, -1534180.4, -1548117.3, 2.3101473, 0.000053486543, 0.00011001281, -1534180.4, -14960.168, 0.0, 10.000232, 9.981759 
3.5650113e+3, 1.549593e+2, -1436454.3, -1450794.4, 1.6128097, 0.000053502354, -0.000045368874, -1436454.3, -15055.295, 0.0, 10.000232, 9.981228 
3.565011e+3, 1.6493444e+2, -1348406.1, -1371929.5, 3.199014, 0.000053510023, 0.00004941785, -1348406.1, -24763.605, 0.0, 10.000232, 9.969141 
3.565011e+3, 1.7490363e+2, -1250449.5, -1274288.6, 2.4840922, 0.000053509495, -0.00006296248, -1250449.5, -24504.941, 0.0, 10.000232, 9.968727 
3.565011e+3, 1.8486618e+2, -1162368.5, -1195698.3, 3.7587802, 0.000053430937, 0.00007973487, -1162368.5, -34056.99, 0.0, 10.000232, 9.956289 
3.565011e+3, 1.948225e+2, -1064219.6, -1097812.1, 3.0321548, 0.000053270705, -0.000047698697, -1064219.6, -33480.13, 0.0, 10.000232, 9.955946 
3.565011e+3, 2.0477216e+2, -976056.9, -1019416.44, 4.014261, 0.000053224085, 0.00007653222, -976056.9, -42824.01, 0.0, 10.000233, 9.943183 
3.565011e+3, 2.1471538e+2, -877770.8, -921392.4, 3.2576106, 0.00005330041, -0.00011757104, -877770.8, -41981.51, 0.0, 10.000233, 9.9428425 
3.565011e+3, 2.246519e+2, -789485.4, -843128.7, 4.003773, 0.000053370037, 0.00013007635, -789485.4, -51074.04, 0.0, 10.000233, 9.9298 
3.5650107e+3, 2.3458177e+2, -691052.75, -744951.3, 3.2636397, 0.000053432002, -0.00008065762, -691052.75, -49954.066, 0.0, 10.000233, 9.929469 
3.5650107e+3, 2.4450469e+2, -602729.6, -667005.75, 3.7735631, 0.000053394248, 0.00008224138, -602729.6, -58875.582, 0.0, 10.000234, 9.916028 
3.5650107e+3, 2.5442085e+2, -503977.7, -568331.3, 2.956843, 0.000053237425, -0.000099344215, -503977.7, -57301.89, 0.0, 10.000234, 9.915928 
3.5650107e+3, 2.6432988e+2, -415743.16, -490977.9, 3.115978, 0.00005320171, 0.00014767952, -415743.16, -66176.17, 0.0, 10.000234, 9.901855 
3.5650107e+3, 2.742323e+2, -316458.78, -391365.88, 2.2960002, 0.00005332031, -0.00019687988, -316458.78, -63935.402, 0.0, 10.000235, 9.902276 
3.5650107e+3, 2.841265e+2, -229985.19, -318072.0, 2.3374975, 0.000053397915, 0.0002351094, -229985.19, -74424.78, 0.0, 10.000235, 9.88533 
3.5650107e+3, 2.9401287e+2, -130279.82, -217756.72, 1.568763, 0.000053418695, -0.0002477516, -130279.82, -71605.93, 0.0, 10.000235, 9.886109 
3.5650107e+3, 3.0392718e+2, -40540.984, -84749.57, 1.1890526, 0.000053362517, 0.00017806391, -40540.984, -40540.984, 0.0, 10.000236, 9.9420595 
3.5650107e+3, 3.1387115e+2, -39462.906, -82511.16, 0.25485677, 0.000053192587, -0.000051161383, -39462.906, -39462.906, 0.0, 10.000236, 9.943571 
3.5750115e+3, 1.24996e+2, -1719663.3, -1724200.3, 1.0156841, 0.000055369204, 0.000041490013, -1719663.3, -4624.058, 0.0, 10.000233, 9.994217 
3.5750115e+3, 1.3499011e+2, -1622284.9, -1627412.6, 0.39008793, 0.000054637152, -0.00008749155, -1622284.9, -5187.849, 0.0, 10.000233, 9.993435 
3.5750115e+3, 1.449776e+2, -1534181.9, -1548120.3, 2.2326345, 0.00005429448, 0.000110488654, -1534181.9, -14962.254, 0.0, 10.000232, 9.981757 
3.5750115e+3, 1.5495935e+2, -1436455.8, -1450797.4, 1.535169, 0.00005433205, -0.000044853372, -1436455.8, -15057.343, 0.0, 10.000232, 9.981226 
3.5750112e+3, 1.649345e+2, -1348407.8, -1371932.6, 3.1696973, 0.000054360535, 0.000049770573, -1348407.8, -24765.672, 0.0, 10.000232, 9.969139 
3.5750112e+3, 1.7490368e+2, -1250451.1, -1274291.6, 2.4550908, 0.00005437986, -0.00006297882, -1250451.1, -24506.967, 0.0, 10.000232, 9.968725 
3.5750112e+3, 1.8486622e+2, -1162370.1, -1195701.4, 3.8384502, 0.000054341006, 0.00007966506, -1162370.1, -34059.027, 0.0, 10.000232, 9.956286 
3.5750112e+3, 1.9482253e+2, -1064221.3, -1097815.3, 3.1129704, 0.00005424125, -0.00004749212, -1064221.3, -33482.133, 0.0, 10.000232, 9.955944 
3.5750112e+3, 2.047722e+2, -976058.56, -1019419.7, 4.081856, 0.000054201442, 0.00007678492, -976058.56, -42826.066, 0.0, 10.000233, 9.943181 
3.5750112e+3, 2.1471542e+2, -877772.5, -921395.6, 3.3249235, 0.000054226508, -0.00011752142, -877772.5, -41983.523, 0.0, 10.000233, 9.942841 
3.5750112e+3, 2.2465195e+2, -789487.0, -843131.9, 4.095601, 0.00005424961, 0.0001301018, -789487.0, -51076.004, 0.0, 10.000233, 9.929798 
3.575011e+3, 2.345818e+2, -691054.3, -744954.5, 3.3561711, 0.000054270422, -0.00008045385, -691054.3, -49955.992, 0.0, 10.000233, 9.929467 
3.575011e+3, 2.4450472e+2, -602731.44, -667009.3, 3.9094512, 0.000054303415, 0.0000824527, -602731.44, -58877.645, 0.0, 10.000234, 9.916025 
3.575011e+3, 2.5442088e+2, -503979.44, -568334.8, 3.0948794, 0.00005435092, -0.000099329394, -503979.44, -57303.91, 0.0, 10.000234, 9.915926 
3.575011e+3, 2.6432994e+2, -415744.88, -490981.44, 3.227323, 0.00005435062, 0.00014763245, -415744.88, -66178.164, 0.0, 10.000234, 9.901854 
3.575011e+3, 2.7423233e+2, -316460.5, -391369.4, 2.4055078, 0.000054289452, -0.00019681707, -316460.5, -63937.35, 0.0, 10.000235, 9.902273 
3.575011e+3, 2.8412652e+2, -229986.81, -318075.34, 2.4539342, 0.000054288157, 0.00023521033, -229986.81, -74426.62, 0.0, 10.000235, 9.885328 
3.575011e+3, 2.9401287e+2, -130281.414, -217760.02, 1.6857247, 0.000054369037, -0.0002477115, -130281.414, -71607.72, 0.0, 10.000235, 9.8861065 
3.575011e+3, 3.039272e+2, -40542.816, -84753.4, 1.3094698, 0.0000544427, 0.00017802785, -40542.816, -40542.816, 0.0, 10.000236, 9.942058 
3.575011e+3, 3.1387115e+2, -39464.773, -82515.05, 0.37571493, 0.00005450479, -0.000051295465, -39464.773, -39464.773, 0.0, 10.000236, 9.943568 
3.5850117e+3, 1.24996066e+2, -1719651.8, -1724196.1, 1.428283, 0.000056033157, 0.000041662446, -1719651.8, -4613.097, 0.0, 10.00024, 9.994216 
3.5850117e+3, 1.3499017e+2, -1622273.5, -1627408.6, 0.7500138, 0.00005549216, -0.00008834066, -1622273.5, -5177.052, 0.0, 10.00024, 9.993433 
3.5850117e+3, 1.4497764e+2, -1534170.8, -1548116.8, 2.5699844, 0.000055234985, 0.00011110672, -1534170.8, -14951.633, 0.0, 10.00024, 9.981755 
3.5850114e+3, 1.549594e+2, -1436444.4, -1450793.6, 1.7473154, 0.000055251792, -0.000044525877, -1436444.4, -15046.421, 0.0, 10.00024, 9.981224 
3.5850114e+3, 1.6493455e+2, -1348395.9, -1371928.5, 3.4105608, 0.000055230837, 0.000049871822, -1348395.9, -24754.229, 0.0, 10.00024, 9.969137 
3.5850114e+3, 1.7490372e+2, -1250438.8, -1274287.4, 2.756534, 0.000055171477, -0.000063037965, -1250438.8, -24495.127, 0.0, 10.00024, 9.968723 
3.5850114e+3, 1.8486625e+2, -1162358.0, -1195697.4, 4.175155, 0.000055162516, 0.0000796343, -1162358.0, -34047.24, 0.0, 10.00024, 9.9562845 
3.5850114e+3, 1.9482258e+2, -1064209.3, -1097811.4, 3.369053, 0.00005520617, -0.00004729717, -1064209.3, -33470.5, 0.0, 10.000241, 9.955942 
3.5850114e+3, 2.0477225e+2, -976046.44, -1019415.9, 4.3326087, 0.000055218614, 0.00007699109, -976046.44, -42814.35, 0.0, 10.000241, 9.943179 
3.5850114e+3, 2.1471545e+2, -877760.06, -921391.7, 3.5614014, 0.000055197263, -0.00011753615, -877760.06, -41971.484, 0.0, 10.000241, 9.942838 
3.5850114e+3, 2.2465198e+2, -789474.4, -843127.94, 4.3074393, 0.000055176057, 0.00013007295, -789474.4, -51063.69, 0.0, 10.000242, 9.929796 
3.5850114e+3, 2.3458183e+2, -691041.4, -744950.44, 3.4791498, 0.000055154997, -0.00008026287, -691041.4, -49943.363, 0.0, 10.000242, 9.929465 
3.5850114e+3, 2.4450475e+2, -602718.4, -667005.25, 4.000081, 0.000055227112, 0.00008267583, -602718.4, -58864.906, 0.0, 10.000243, 9.916023 
3.5850114e+3, 2.544209e+2, -503966.56, -568330.9, 3.2435946, 0.000055410448, -0.000099298435, -503966.56, -57291.305, 0.0, 10.000243, 9.915923 
3.5850114e+3, 2.6432997e+2, -415732.0, -490977.7, 3.425999, 0.000055448836, 0.00014755927, -415732.0, -66165.53, 0.0, 10.000243, 9.901851 
3.5850114e+3, 2.7423236e+2, -316447.22, -391365.53, 2.5574536, 0.000055302553, -0.00019688194, -316447.22, -63924.31, 0.0, 10.000244, 9.902271 
3.5850114e+3, 2.8412652e+2, -229973.19, -318071.28, 2.514404, 0.000055265235, 0.00023520661, -229973.19, -74413.2, 0.0, 10.000245, 9.885326 
3.5850114e+3, 2.940129e+2, -130267.63, -217755.92, 1.6443188, 0.000055377823, -0.00024758233, -130267.63, -71594.125, 0.0, 10.000245, 9.886105 
3.5850114e+3, 3.039272e+2, -40529.203, -84749.695, 1.201805, 0.000055539414, 0.00017814372, -40529.203, -40529.203, 0.0, 10.000246, 9.942055 
3.5850114e+3, 3.1387115e+2, -39451.14, -82511.37, 0.28830686, 0.000055772198, -0.00005141051, -39451.14, -39451.14, 0.0, 10.000246, 9.943565 
3.5950118e+3, 1.2499612e+2, -1719653.4, -1724199.0, 1.3109629, 0.00005639407, 0.000041865074, -1719653.4, -4615.1978, 0.0, 10.00024, 9.994214 
3.5950118e+3, 1.3499022e+2, -1622275.0, -1627411.5, 0.632691, 0.000056347973, -0.000089007895, -1622275.0, -5179.123, 0.0, 10.00024, 9.993431 
3.5950118e+3, 1.4497769e+2, -1534172.6, -1548120.3, 2.5710316, 0.000056307483, 0.00011186637, -1534172.6, -14954.014, 0.0, 10.00024, 9.981753 
3.5950118e+3, 1.5495946e+2, -1436446.3, -1450797.1, 1.7487042, 0.0000562612, -0.00004438554, -1436446.3, -15048.753, 0.0, 10.00024, 9.981222 
3.5950118e+3, 1.6493459e+2, -1348397.4, -1371931.3, 3.487042, 0.000056120887, 0.00004972272, -1348397.4, -24756.166, 0.0, 10.00024, 9.969135 
3.5950118e+3, 1.7490377e+2, -1250440.3, -1274290.1, 2.833297, 0.00005588476, -0.000063139734, -1250440.3, -24497.03, 0.0, 10.00024, 9.968721 
3.5950118e+3, 1.8486631e+2, -1162359.8, -1195700.9, 4.2301764, 0.00005589592, 0.000079642436, -1162359.8, -34049.457, 0.0, 10.00024, 9.956283 
3.5950118e+3, 1.9482264e+2, -1064211.0, -1097814.9, 3.4237719, 0.000056165536, -0.00004711378, -1064211.0, -33472.68, 0.0, 10.000241, 9.955939 
3.5950118e+3, 2.0477228e+2, -976048.2, -1019419.2, 4.487739, 0.000056275458, 0.000077150944, -976048.2, -42816.44, 0.0, 10.000241, 9.943177 
3.5950118e+3, 2.147155e+2, -877761.75, -921395.0, 3.7186131, 0.000056212517, -0.000117614945, -877761.75, -41973.53, 0.0, 10.000241, 9.942836 
3.5950118e+3, 2.24652e+2, -789476.2, -843131.5, 4.490444, 0.000056149227, 0.00012999, -789476.2, -51065.84, 0.0, 10.000242, 9.929793 
3.5950115e+3, 2.3458187e+2, -691043.2, -744954.0, 3.6629522, 0.00005608558, -0.00008008464, -691043.2, -49945.473, 0.0, 10.000242, 9.929462 
3.5950115e+3, 2.4450478e+2, -602720.0, -667008.56, 4.120585, 0.000056165343, 0.000082910694, -602720.0, -58866.86, 0.0, 10.000243, 9.916021 
3.5950115e+3, 2.5442094e+2, -503968.2, -568334.2, 3.3609807, 0.000056416295, -0.00009925141, -503968.2, -57293.21, 0.0, 10.000243, 9.915921 
3.5950115e+3, 2.6433e+2, -415733.8, -490981.4, 3.6470265, 0.000056496618, 0.00014746006, -415733.8, -66167.61, 0.0, 10.000243, 9.901849 
3.5950115e+3, 2.742324e+2, -316449.03, -391369.22, 2.7854097, 0.000056359477, -0.00019707391, -316449.03, -63926.35, 0.0, 10.000244, 9.902268 
3.5950115e+3, 2.8412655e+2, -229974.98, -318075.0, 2.6945224, 0.00005632883, 0.0002350987, -229974.98, -74415.22, 0.0, 10.000245, 9.885324 
3.5950115e+3, 2.9401293e+2, -130269.414, -217759.61, 1.8200713, 0.000056444864, -0.00024736454, -130269.414, -71596.09, 0.0, 10.000245, 9.886102 
3.5950115e+3, 3.0392724e+2, -40531.02, -84753.484, 1.3378965, 0.00005665265, 0.0001784108, -40531.02, -40531.02, 0.0, 10.000246, 9.942052 
3.5950115e+3, 3.1387118e+2, -39452.965, -82515.17, 0.4197456, 0.00005699506, -0.0000515066, -39452.965, -39452.965, 0.0, 10.000246, 9.9435625 
3.6050123e+3, 1.2499617e+2, -1719641.8, -1724194.9, 1.2073777, 0.000056976383, 0.000042189124, -1719641.8, -4604.183, 0.0, 10.000249, 9.994212 
3.6050123e+3, 1.3499027e+2, -1622263.4, -1627407.5, 0.49124208, 0.000057150522, -0.000089400964, -1622263.4, -5168.0127, 0.0, 10.000249, 9.993429 
3.6050123e+3, 1.4497775e+2, -1534161.0, -1548116.4, 2.6079519, 0.00005722062, 0.000112817455, -1534161.0, -14942.892, 0.0, 10.000249, 9.981751 
3.605012e+3, 1.549595e+2, -1436434.4, -1450793.3, 1.9313893, 0.000057174588, -0.000044429096, -1436434.4, -15037.466, 0.0, 10.000249, 9.981219 
3.605012e+3, 1.6493464e+2, -1348385.3, -1371927.1, 3.7850144, 0.00005703003, 0.000049357473, -1348385.3, -24744.566, 0.0, 10.000249, 9.969133 
3.605012e+3, 1.7490381e+2, -1250428.0, -1274285.9, 3.04636, 0.000056785073, -0.00006313996, -1250428.0, -24485.215, 0.0, 10.000249, 9.9687195 
3.605012e+3, 1.8486635e+2, -1162347.5, -1195697.0, 4.376797, 0.00005679031, 0.00007983037, -1162347.5, -34037.617, 0.0, 10.00025, 9.956281 
3.605012e+3, 1.9482267e+2, -1064198.4, -1097810.9, 3.5185804, 0.00005705704, -0.000046922665, -1064198.4, -33460.42, 0.0, 10.00025, 9.955937 
3.605012e+3, 2.0477232e+2, -976035.1, -1019414.9, 4.620834, 0.000057181205, 0.00007726773, -976035.1, -42803.8, 0.0, 10.000251, 9.943175 
3.605012e+3, 2.1471553e+2, -877748.7, -921390.7, 3.8708444, 0.000057151043, -0.00011765633, -877748.7, -41960.84, 0.0, 10.000251, 9.942834 
3.605012e+3, 2.2465205e+2, -789463.25, -843127.6, 4.655263, 0.000057136407, 0.00012991409, -789463.25, -51053.3, 0.0, 10.000252, 9.929791 
3.6050117e+3, 2.345819e+2, -691030.3, -744950.2, 3.788741, 0.00005713936, -0.00008005521, -691030.3, -49932.926, 0.0, 10.000252, 9.929461 
3.6050117e+3, 2.4450482e+2, -602706.8, -667004.5, 4.1885357, 0.000057212295, 0.00008299231, -602706.8, -58853.957, 0.0, 10.000253, 9.916019 
3.6050117e+3, 2.5442097e+2, -503954.44, -568329.9, 3.3471506, 0.00005736874, -0.000099181234, -503954.44, -57279.76, 0.0, 10.000254, 9.915919 
3.6050117e+3, 2.6433003e+2, -415719.94, -490977.25, 3.6162283, 0.000057445362, 0.00014748359, -415719.94, -66153.99, 0.0, 10.000254, 9.901846 
3.6050117e+3, 2.742324e+2, -316435.22, -391365.2, 2.7437239, 0.00005742023, -0.00019714168, -316435.22, -63912.78, 0.0, 10.000255, 9.9022665 
3.6050117e+3, 2.8412658e+2, -229961.17, -318071.1, 2.5980408, 0.000057461577, 0.0002350419, -229961.17, -74401.61, 0.0, 10.000256, 9.885321 
3.6050117e+3, 2.9401293e+2, -130255.445, -217755.66, 1.6618272, 0.00005759432, -0.00024727028, -130255.445, -71582.305, 0.0, 10.000256, 9.8861 
3.6050117e+3, 3.0392727e+2, -40516.86, -84749.52, 1.1412952, 0.00005780602, 0.00017849628, -40516.86, -40516.86, 0.0, 10.000257, 9.94205 
3.6050117e+3, 3.1387118e+2, -39438.25, -82510.95, 0.21271336, 0.00005813382, -0.000051668383, -39438.25, -39438.25, 0.0, 10.0002575, 9.943561 
3.6150125e+3, 1.2499623e+2, -1719643.5, -1724198.0, 1.1236877, 0.000057779067, 0.000042673073, -1719643.5, -4606.3726, 0.0, 10.000249, 9.99421 
3.6150125e+3, 1.3499032e+2, -1622265.0, -1627410.5, 0.40762308, 0.000057900106, -0.0000895212, -1622265.0, -5170.171, 0.0, 10.000249, 9.993427 
3.6150125e+3, 1.449778e+2, -1534162.5, -1548119.3, 2.6558673, 0.00005797519, 0.000113959075, -1534162.5, -14944.944, 0.0, 10.000249, 9.98175 
3.6150122e+3, 1.5495954e+2, -1436436.0, -1450796.1, 1.9795059, 0.00005799245, -0.000044655677, -1436436.0, -15039.474, 0.0, 10.000249, 9.981218 
3.6150122e+3, 1.6493468e+2, -1348386.9, -1371930.3, 3.9248586, 0.00005795822, 0.00004877711, -1348386.9, -24746.693, 0.0, 10.000249, 9.969131 
3.6150122e+3, 1.7490385e+2, -1250429.6, -1274289.0, 3.1864905, 0.00005787158, -0.00006303914, -1250429.6, -24487.307, 0.0, 10.000249, 9.968718 
3.6150122e+3, 1.848664e+2, -1162349.4, -1195700.8, 4.543144, 0.000057844976, 0.00008019724, -1162349.4, -34039.953, 0.0, 10.00025, 9.956278 
3.6150122e+3, 1.9482271e+2, -1064200.3, -1097814.5, 3.6852639, 0.000057881054, -0.000046723875, -1064200.3, -33462.71, 0.0, 10.00025, 9.955935 
3.6150122e+3, 2.0477235e+2, -976036.8, -1019418.1, 4.8007035, 0.00005793662, 0.00007734163, -976036.8, -42805.85, 0.0, 10.000251, 9.943172 
3.6150122e+3, 2.1471556e+2, -877750.3, -921393.94, 4.050946, 0.000058013255, -0.00011766047, -877750.3, -41962.85, 0.0, 10.000251, 9.942832 
3.6150122e+3, 2.2465208e+2, -789465.2, -843131.4, 4.8529363, 0.00005813758, 0.00012984518, -789465.2, -51055.527, 0.0, 10.000252, 9.929789 
3.615012e+3, 2.3458193e+2, -691032.2, -744953.9, 3.986929, 0.00005831581, -0.00008017387, -691032.2, -49935.113, 0.0, 10.000252, 9.929458 
3.615012e+3, 2.4450484e+2, -602708.6, -667008.1, 4.4522915, 0.000058367514, 0.00008292138, -602708.6, -58856.066, 0.0, 10.000253, 9.916017 
3.615012e+3, 2.5442097e+2, -503956.22, -568333.44, 3.6140213, 0.0000582681, -0.000099088014, -503956.22, -57281.824, 0.0, 10.000254, 9.915916 
3.615012e+3, 2.6433006e+2, -415721.8, -490981.03, 3.8505661, 0.000058295598, 0.00014762927, -415721.8, -66156.09, 0.0, 10.000254, 9.901844 
3.615012e+3, 2.7423242e+2, -316437.06, -391368.94, 2.9758813, 0.000058484868, -0.00019708586, -316437.06, -63914.844, 0.0, 10.000255, 9.902264 
3.615012e+3, 2.8412658e+2, -229963.1, -318075.03, 2.8359969, 0.000058663212, 0.00023503593, -229963.1, -74403.73, 0.0, 10.000256, 9.885319 
3.615012e+3, 2.9401296e+2, -130257.336, -217759.6, 1.9002931, 0.00005882587, -0.000247299, -130257.336, -71584.38, 0.0, 10.000256, 9.886097 
3.615012e+3, 3.0392727e+2, -40518.703, -84753.37, 1.4135665, 0.0000589994, 0.000178401, -40518.703, -40518.703, 0.0, 10.000257, 9.942047 
3.615012e+3, 3.138712e+2, -39440.09, -82514.79, 0.48891893, 0.000059188947, -0.00005189558, -39440.09, -39440.09, 0.0, 10.0002575, 9.943558 
3.6250126e+3, 1.2499628e+2, -1719632.8, -1724194.4, 1.1359533, 0.00005874602, 0.00004298737, -1719632.8, -4596.188, 0.0, 10.000257, 9.994208 
3.6250126e+3, 1.349904e+2, -1622253.5, -1627406.5, 0.42515638, 0.00005873134, -0.00009012958, -1622253.5, -5159.101, 0.0, 10.000257, 9.993425 
3.6250126e+3, 1.4497785e+2, -1534150.3, -1548114.8, 2.7507808, 0.000058738027, 0.00011468835, -1534150.3, -14933.17, 0.0, 10.0002575, 9.981748 
3.6250126e+3, 1.5495959e+2, -1436423.4, -1450791.5, 2.092166, 0.000058754464, -0.000044865603, -1436423.4, -15027.38, 0.0, 10.0002575, 9.981216 
3.6250123e+3, 1.6493472e+2, -1348374.5, -1371926.3, 4.034492, 0.000058796028, 0.00004838418, -1348374.5, -24734.732, 0.0, 10.0002575, 9.96913 
3.6250123e+3, 1.749039e+2, -1250417.1, -1274285.0, 3.151236, 0.000058863337, -0.000062843465, -1250417.1, -24475.309, 0.0, 10.000258, 9.968716 
3.6250123e+3, 1.8486644e+2, -1162336.9, -1195696.9, 4.5023108, 0.000058881014, 0.000080531536, -1162336.9, -34027.86, 0.0, 10.000258, 9.956276 
3.6250123e+3, 1.9482276e+2, -1064187.4, -1097810.5, 3.6716518, 0.00005884671, -0.000046721496, -1064187.4, -33450.32, 0.0, 10.000259, 9.955933 
3.6250123e+3, 2.047724e+2, -976023.56, -1019413.75, 4.8018456, 0.00005885959, 0.000077218756, -976023.56, -42792.996, 0.0, 10.00026, 9.943171 
3.6250123e+3, 2.147156e+2, -877736.8, -921389.44, 4.016175, 0.00005892352, -0.00011768489, -877736.8, -41949.664, 0.0, 10.00026, 9.94283 
3.6250123e+3, 2.2465211e+2, -789451.6, -843127.3, 4.768989, 0.00005906356, 0.0001298684, -789451.6, -51042.348, 0.0, 10.000261, 9.929787 
3.6250123e+3, 2.3458198e+2, -691018.56, -744949.8, 3.8481631, 0.000059289643, -0.000080160666, -691018.5, -49921.793, 0.0, 10.000262, 9.929456 
3.6250123e+3, 2.4450487e+2, -602694.8, -667003.9, 4.3211803, 0.000059393562, 0.0000829363, -602694.8, -58842.566, 0.0, 10.000263, 9.916015 
3.6250123e+3, 2.54421e+2, -503942.44, -568329.25, 3.458131, 0.00005935154, -0.000099057346, -503942.44, -57268.297, 0.0, 10.000263, 9.915915 
3.6250123e+3, 2.6433006e+2, -415707.9, -490976.94, 3.6812382, 0.000059413964, 0.00014762144, -415707.9, -66142.44, 0.0, 10.000264, 9.901841 
3.6250123e+3, 2.7423245e+2, -316422.84, -391364.72, 2.7975678, 0.00005960958, -0.00019720124, -316422.84, -63900.84, 0.0, 10.000265, 9.902262 
3.6250123e+3, 2.841266e+2, -229948.63, -318070.88, 2.6453326, 0.000059771883, 0.0002348717, -229948.63, -74389.46, 0.0, 10.000266, 9.885316 
3.6250123e+3, 2.9401296e+2, -130242.59, -217755.36, 1.6923252, 0.00005988798, -0.00024743148, -130242.59, -71569.805, 0.0, 10.000267, 9.886094 
3.6250123e+3, 3.039273e+2, -40503.797, -84749.125, 1.2061592, 0.00006007663, 0.00017831523, -40503.797, -40503.797, 0.0, 10.000268, 9.942044 
3.6250123e+3, 3.138712e+2, -39424.945, -82510.42, 0.2500496, 0.000060373084, -0.000051913055, -39424.945, -39424.945, 0.0, 10.000269, 9.943555 
3.6350128e+3, 1.24996334e+2, -1719634.4, -1724197.5, 1.268409, 0.000059876424, 0.0000431827, -1719634.4, -4598.363, 0.0, 10.000257, 9.994206 
3.6350128e+3, 1.3499044e+2, -1622255.1, -1627409.6, 0.5577539, 0.00005964387, -0.00009122373, -1622255.1, -5161.2417, 0.0, 10.000257, 9.993423 
3.6350128e+3, 1.4497791e+2, -1534151.8, -1548117.6, 2.8840392, 0.000059509148, 0.000115007344, -1534151.8, -14935.178, 0.0, 10.0002575, 9.981746 
3.6350128e+3, 1.5495965e+2, -1436424.9, -1450794.4, 2.225212, 0.000059460963, -0.00004505895, -1436424.9, -15029.35, 0.0, 10.0002575, 9.981215 
3.6350128e+3, 1.6493477e+2, -1348376.5, -1371930.0, 4.195507, 0.000059543945, 0.000048177746, -1348376.5, -24737.18, 0.0, 10.0002575, 9.969127 
3.6350128e+3, 1.7490394e+2, -1250419.1, -1274288.8, 3.3124318, 0.000059760852, -0.00006255342, -1250419.1, -24477.713, 0.0, 10.000258, 9.968713 
3.6350128e+3, 1.8486649e+2, -1162338.6, -1195700.4, 4.749672, 0.000059898553, 0.00008083339, -1162338.6, -34030.13, 0.0, 10.000258, 9.956273 
3.6350128e+3, 1.948228e+2, -1064189.3, -1097814.1, 3.9200327, 0.000059953363, -0.00004691458, -1064189.3, -33452.547, 0.0, 10.000259, 9.955931 
3.6350128e+3, 2.0477243e+2, -976025.3, -1019417.2, 5.0747385, 0.000059949347, 0.000076900054, -976025.3, -42795.113, 0.0, 10.00026, 9.943169 
3.6350128e+3, 2.1471563e+2, -877738.5, -921392.8, 4.28943, 0.000059881655, -0.00011772949, -877738.5, -41951.742, 0.0, 10.00026, 9.942827 
3.6350128e+3, 2.2465214e+2, -789453.6, -843131.25, 5.017596, 0.00005991477, 0.00012998324, -789453.6, -51044.68, 0.0, 10.000261, 9.929784 
3.6350128e+3, 2.34582e+2, -691020.5, -744953.75, 4.0959086, 0.0000600619, -0.000080016245, -691020.5, -49924.082, 0.0, 10.000262, 9.929453 
3.6350128e+3, 2.445049e+2, -602696.7, -667007.6, 4.6051126, 0.000060291124, 0.000083036626, -602696.7, -58844.723, 0.0, 10.000263, 9.916012 
3.6350125e+3, 2.5442103e+2, -503944.28, -568333.0, 3.7438304, 0.00006061823, -0.000099088924, -503944.28, -57270.402, 0.0, 10.000263, 9.915912 
3.6350125e+3, 2.643301e+2, -415709.78, -490980.72, 4.0137634, 0.000060799226, 0.00014746083, -415709.78, -66144.555, 0.0, 10.000264, 9.901839 
3.6350125e+3, 2.7423248e+2, -316424.7, -391368.5, 3.1332572, 0.000060794155, -0.00019748701, -316424.7, -63902.902, 0.0, 10.000265, 9.902259 
3.6350125e+3, 2.8412664e+2, -229950.56, -318074.88, 2.9794574, 0.000060788097, 0.00023454992, -229950.56, -74391.59, 0.0, 10.000266, 9.885313 
3.6350125e+3, 2.94013e+2, -130244.52, -217759.38, 2.02612, 0.000060781545, -0.00024766728, -130244.52, -71571.9, 0.0, 10.000267, 9.886091 
3.6350125e+3, 3.039273e+2, -40505.7, -84753.086, 1.5440981, 0.00006103833, 0.00017823896, -40505.7, -40505.7, 0.0, 10.000268, 9.942041 
3.6350125e+3, 3.1387123e+2, -39426.848, -82514.39, 0.5882136, 0.000061685685, -0.00005172183, -39426.848, -39426.848, 0.0, 10.000269, 9.943552 
3.6450133e+3, 1.249964e+2, -1719622.9, -1724193.4, 1.2845104, 0.000060721697, 0.000043378936, -1719622.9, -4587.4683, 0.0, 10.000264, 9.9942045 
3.6450133e+3, 1.349905e+2, -1622243.4, -1627405.5, 0.62416214, 0.00006055005, -0.00009222983, -1622243.4, -5150.0513, 0.0, 10.000265, 9.993422 
3.6450133e+3, 1.4497797e+2, -1534139.8, -1548113.5, 2.9255757, 0.00006043605, 0.000115488045, -1534139.8, -14923.678, 0.0, 10.000265, 9.981744 
3.6450133e+3, 1.5495971e+2, -1436412.3, -1450790.0, 2.0957706, 0.000060368126, -0.00004506594, -1436412.3, -15017.259, 0.0, 10.000266, 9.981213 
3.6450133e+3, 1.6493481e+2, -1348363.8, -1371926.0, 3.9976165, 0.00006045166, 0.000048065616, -1348363.8, -24724.873, 0.0, 10.000267, 9.969125 
3.645013e+3, 1.7490399e+2, -1250406.0, -1274284.6, 3.1404967, 0.000060689847, -0.000062380204, -1250406.0, -24465.014, 0.0, 10.000268, 9.968711 
3.645013e+3, 1.8486653e+2, -1162325.3, -1195695.9, 4.6493635, 0.00006083303, 0.000080918115, -1162325.3, -34017.09, 0.0, 10.000268, 9.956271 
3.645013e+3, 1.9482283e+2, -1064175.8, -1097809.6, 3.8467293, 0.000060876802, -0.000047309262, -1064175.8, -33439.45, 0.0, 10.000269, 9.955928 
3.645013e+3, 2.0477247e+2, -976011.8, -1019412.9, 4.993326, 0.00006090914, 0.0000765207, -976011.8, -42781.99, 0.0, 10.00027, 9.943166 
3.645013e+3, 2.1471569e+2, -877724.9, -921388.5, 4.0918927, 0.000060929102, -0.000117558084, -877724.9, -41938.48, 0.0, 10.000271, 9.942825 
3.645013e+3, 2.2465219e+2, -789440.0, -843127.25, 4.739628, 0.000060992854, 0.00013025539, -789440.0, -51031.363, 0.0, 10.000272, 9.929782 
3.645013e+3, 2.3458204e+2, -691006.5, -744949.6, 3.7634697, 0.00006110611, -0.000080152524, -691006.5, -49910.355, 0.0, 10.000273, 9.92945 
3.645013e+3, 2.4450493e+2, -602682.25, -667003.1, 4.2408605, 0.000061288, 0.000082775245, -602682.25, -58830.574, 0.0, 10.000274, 9.916009 
3.645013e+3, 2.5442106e+2, -503929.84, -568328.5, 3.3973691, 0.00006155177, -0.00009913663, -503929.84, -57256.22, 0.0, 10.000275, 9.91591 
3.645013e+3, 2.6433012e+2, -415695.3, -490976.34, 3.7396379, 0.00006180068, 0.0001474726, -415695.3, -66130.336, 0.0, 10.000276, 9.901836 
3.6450127e+3, 2.7423248e+2, -316410.2, -391364.13, 2.8831787, 0.0000620305, -0.00019761271, -316410.2, -63888.6, 0.0, 10.000277, 9.902256 
3.6450127e+3, 2.8412664e+2, -229936.0, -318070.94, 2.7333694, 0.00006210871, 0.00023430912, -229936.0, -74377.2, 0.0, 10.0002775, 9.88531 
3.6450127e+3, 2.94013e+2, -130229.375, -217755.22, 1.6254535, 0.000061979605, -0.0002479917, -130229.375, -71556.91, 0.0, 10.000278, 9.886088 
3.6450127e+3, 3.039273e+2, -40490.113, -84748.9, 0.96716684, 0.00006206735, 0.00017811115, -40490.113, -40490.113, 0.0, 10.00028, 9.942039 
3.6450127e+3, 3.1387123e+2, -39410.594, -82509.89, -0.22234944, 0.00006247868, -0.000051237475, -39410.594, -39410.594, 0.0, 10.000281, 9.943549 
3.6550134e+3, 1.2499645e+2, -1719624.4, -1724196.3, 1.496297, 0.00006128333, 0.000043636555, -1719624.4, -4589.522, 0.0, 10.000264, 9.994203 
3.6550134e+3, 1.3499054e+2, -1622244.9, -1627408.3, 0.8358154, 0.00006144996, -0.00009314835, -1622244.9, -5152.075, 0.0, 10.000265, 9.99342 
3.6550134e+3, 1.4497802e+2, -1534141.6, -1548117.1, 3.2070408, 0.00006151795, 0.000116129624, -1534141.6, -14926.07, 0.0, 10.000265, 9.981742 
3.6550134e+3, 1.5495975e+2, -1436414.1, -1450793.5, 2.3773737, 0.000061474944, -0.00004488755, -1436414.1, -15019.6045, 0.0, 10.000266, 9.98121 
3.6550134e+3, 1.6493487e+2, -1348365.6, -1371929.6, 4.263497, 0.0000615184, 0.000048047266, -1348365.6, -24727.254, 0.0, 10.000267, 9.969122 
3.655013e+3, 1.7490403e+2, -1250407.9, -1274288.3, 3.406386, 0.00006165023, -0.00006232323, -1250407.9, -24467.352, 0.0, 10.000268, 9.968709 
3.655013e+3, 1.8486656e+2, -1162327.0, -1195699.4, 4.922005, 0.00006168493, 0.00008078679, -1162327.0, -34019.293, 0.0, 10.000268, 9.956269 
3.655013e+3, 1.9482288e+2, -1064177.5, -1097813.0, 4.119391, 0.000061618004, -0.000047904534, -1064177.5, -33441.605, 0.0, 10.000269, 9.955926 
3.655013e+3, 2.047725e+2, -976013.75, -1019416.75, 5.3112607, 0.00006173969, 0.00007608101, -976013.75, -42784.336, 0.0, 10.00027, 9.943164 
3.655013e+3, 2.1471572e+2, -877726.9, -921392.4, 4.410431, 0.00006206547, -0.000117171774, -877726.9, -41940.793, 0.0, 10.000271, 9.942822 
3.655013e+3, 2.2465222e+2, -789442.06, -843131.44, 5.100035, 0.000062296735, 0.00013068406, -789442.06, -51033.797, 0.0, 10.000272, 9.929779 
3.655013e+3, 2.3458207e+2, -691008.56, -744953.8, 4.125752, 0.00006242097, -0.000080568134, -691008.56, -49912.734, 0.0, 10.000273, 9.929447 
3.655013e+3, 2.4450496e+2, -602684.1, -667006.8, 4.5501266, 0.00006238376, 0.00008215394, -602684.1, -58832.68, 0.0, 10.000274, 9.916007 
3.655013e+3, 2.544211e+2, -503931.66, -568332.1, 3.7036083, 0.00006215391, -0.00009920039, -503931.66, -57258.27, 0.0, 10.000275, 9.915907 
3.655013e+3, 2.6433015e+2, -415697.16, -490980.06, 4.1085906, 0.00006242032, 0.00014765587, -415697.16, -66132.4, 0.0, 10.000276, 9.901834 
3.655013e+3, 2.742325e+2, -316411.97, -391367.84, 3.2561865, 0.000063318425, -0.00019757914, -316411.97, -63890.613, 0.0, 10.000277, 9.902254 
3.655013e+3, 2.8412667e+2, -229938.22, -318075.53, 3.231578, 0.00006373226, 0.00023414886, -229938.22, -74379.6, 0.0, 10.0002775, 9.885307 
3.655013e+3, 2.9401302e+2, -130231.61, -217759.84, 2.1353428, 0.000063480715, -0.00024840434, -130231.61, -71559.28, 0.0, 10.000278, 9.8860855 
3.6550128e+3, 3.0392733e+2, -40492.44, -84753.75, 1.4809998, 0.00006316345, 0.00017793202, -40492.44, -40492.44, 0.0, 10.00028, 9.942036 
3.6550128e+3, 3.1387123e+2, -39412.938, -82514.77, 0.29187375, 0.000062754756, -0.00005046152, -39412.938, -39412.938, 0.0, 10.000281, 9.943546 
3.6650136e+3, 1.24996506e+2, -1719612.3, -1724191.9, 1.2639573, 0.000061924075, 0.00004367664, -1719612.3, -4577.8564, 0.0, 10.000273, 9.994201 
3.6650136e+3, 1.3499059e+2, -1622232.4, -1627403.9, 0.4519649, 0.0000622948, -0.00009393287, -1622232.4, -5140.073, 0.0, 10.000274, 9.993418 
3.6650136e+3, 1.4497806e+2, -1534129.1, -1548112.9, 2.801598, 0.00006251184, 0.00011693485, -1534129.1, -14914.019, 0.0, 10.000275, 9.98174 
3.6650136e+3, 1.549598e+2, -1436401.5, -1450789.4, 1.9917933, 0.00006256255, -0.000044872922, -1436401.5, -15007.407, 0.0, 10.000276, 9.981208 
3.6650136e+3, 1.6493492e+2, -1348352.8, -1371925.4, 3.9370885, 0.00006262998, 0.000047764748, -1348352.8, -24714.771, 0.0, 10.000277, 9.96912 
3.6650136e+3, 1.7490408e+2, -1250394.5, -1274283.9, 3.135049, 0.00006271462, -0.000062399384, -1250394.5, -24454.408, 0.0, 10.0002775, 9.968706 
3.6650133e+3, 1.848666e+2, -1162313.1, -1195694.8, 4.6847887, 0.000062683364, 0.00008064649, -1162313.1, -34005.785, 0.0, 10.000278, 9.956266 
3.6650133e+3, 1.948229e+2, -1064163.0, -1097808.1, 3.8306363, 0.00006253086, -0.00004839188, -1064163.0, -33427.43, 0.0, 10.000279, 9.955924 
3.6650133e+3, 2.0477255e+2, -975999.5, -1019412.56, 4.797718, 0.00006268434, 0.000075805576, -975999.5, -42770.4, 0.0, 10.00028, 9.943161 
3.6650133e+3, 2.1471575e+2, -877712.94, -921388.44, 3.6419322, 0.0000631689, -0.00011663039, -877712.94, -41927.195, 0.0, 10.000281, 9.94282 
3.6650133e+3, 2.2465225e+2, -789427.9, -843126.75, 4.4600253, 0.00006349511, 0.00013112309, -789427.9, -51019.86, 0.0, 10.000282, 9.929776 
3.6650133e+3, 2.345821e+2, -690994.3, -744949.06, 3.8692229, 0.000063642045, -0.00008127127, -690994.3, -49898.74, 0.0, 10.000283, 9.929445 
3.6650133e+3, 2.4450499e+2, -602669.9, -667002.9, 4.3913307, 0.00006350016, 0.00008118503, -602669.9, -58818.67, 0.0, 10.000284, 9.916004 
3.6650133e+3, 2.5442111e+2, -503916.4, -568327.8, 3.1727288, 0.00006301368, -0.00009938786, -503916.4, -57243.28, 0.0, 10.000286, 9.915904 
3.6650133e+3, 2.6433015e+2, -415681.44, -490975.22, 3.1849868, 0.00006324899, 0.00014798768, -415681.44, -66116.88, 0.0, 10.000287, 9.901832 
3.6650133e+3, 2.7423254e+2, -316396.84, -391363.3, 2.194176, 0.00006440321, -0.00019706394, -316396.84, -63875.652, 0.0, 10.000288, 9.902251 
3.6650133e+3, 2.8412667e+2, -229923.33, -318071.22, 2.4401824, 0.00006501213, 0.00023443245, -229923.33, -74364.87, 0.0, 10.000289, 9.885304 
3.6650133e+3, 2.9401302e+2, -130216.52, -217755.48, 1.6798804, 0.00006487088, -0.0002489185, -130216.52, -71544.32, 0.0, 10.00029, 9.886083 
3.6650133e+3, 3.0392733e+2, -40477.24, -84750.08, 1.3388296, 0.00006446558, 0.00017711287, -40477.24, -40477.24, 0.0, 10.000292, 9.942032 
3.6650133e+3, 3.1387123e+2, -39396.44, -82510.555, 0.13007936, 0.000063675245, -0.000050848634, -39396.44, -39396.44, 0.0, 10.000295, 9.9435425 
3.675014e+3, 1.2499656e+2, -1719614.1, -1724195.4, 1.5662196, 0.00006264352, 0.000043566393, -1719614.1, -4580.2446, 0.0, 10.000273, 9.994199 
3.6750138e+3, 1.3499065e+2, -1622234.3, -1627407.4, 0.7542545, 0.00006308493, -0.00009458415, -1622234.3, -5142.428, 0.0, 10.000274, 9.993416 
3.6750138e+3, 1.4497812e+2, -1534130.9, -1548116.4, 3.1263554, 0.000063418236, 0.0001179028, -1534130.9, -14916.349, 0.0, 10.000275, 9.981737 
3.6750138e+3, 1.5495986e+2, -1436403.3, -1450792.8, 2.316577, 0.000063631094, -0.000045021225, -1436403.3, -15009.687, 0.0, 10.000276, 9.981206 
3.6750138e+3, 1.6493495e+2, -1348354.5, -1371928.9, 4.3243823, 0.00006378618, 0.00004721944, -1348354.5, -24717.01, 0.0, 10.000277, 9.969118 
3.6750138e+3, 1.7490412e+2, -1250396.3, -1274287.3, 3.5223389, 0.00006388251, -0.000062607956, -1250396.3, -24456.605, 0.0, 10.0002775, 9.968704 
3.6750138e+3, 1.8486665e+2, -1162315.0, -1195698.4, 5.1306076, 0.00006382762, 0.00008049723, -1162315.0, -34008.082, 0.0, 10.000278, 9.9562645 
3.6750138e+3, 1.9482295e+2, -1064164.9, -1097811.8, 4.2771235, 0.000063614556, -0.00004877189, -1064164.9, -33429.684, 0.0, 10.000279, 9.955921 
3.6750138e+3, 2.0477258e+2, -976002.0, -1019417.5, 5.050578, 0.00006374257, 0.000075693526, -976002.0, -42773.254, 0.0, 10.00028, 9.943158 
3.6750138e+3, 2.1471578e+2, -877715.4, -921393.3, 3.8908856, 0.000064239626, -0.000115934825, -877715.4, -41930.008, 0.0, 10.000281, 9.942817 
3.6750138e+3, 2.2465228e+2, -789429.2, -843129.44, 4.84182, 0.00006458858, 0.0001315724, -789429.2, -51021.52, 0.0, 10.000282, 9.929775 
3.6750138e+3, 2.3458213e+2, -690995.56, -744951.7, 4.2551584, 0.000064769854, -0.0000822604, -690995.56, -49900.324, 0.0, 10.000283, 9.929443 
3.6750138e+3, 2.44505e+2, -602672.4, -667007.94, 4.9547696, 0.00006463716, 0.00007987036, -602672.4, -58821.45, 0.0, 10.000284, 9.916001 
3.6750138e+3, 2.5442111e+2, -503918.97, -568332.94, 3.7448475, 0.000064129854, -0.00009969841, -503918.97, -57246.06, 0.0, 10.000286, 9.915901 
3.6750138e+3, 2.6433018e+2, -415683.56, -490979.53, 3.4518797, 0.00006428572, 0.00014846717, -415683.56, -66119.195, 0.0, 10.000287, 9.901829 
3.6750138e+3, 2.7423254e+2, -316398.9, -391367.53, 2.4404864, 0.00006528598, -0.00019606971, -316398.9, -63877.883, 0.0, 10.000288, 9.902248 
3.6750138e+3, 2.841267e+2, -229925.02, -318074.7, 2.9949958, 0.00006595016, 0.00023515748, -229925.02, -74366.695, 0.0, 10.000289, 9.885303 
3.6750138e+3, 2.9401305e+2, -130218.16, -217758.88, 2.2626579, 0.000066150744, -0.00024953374, -130218.16, -71546.07, 0.0, 10.00029, 9.886081 
3.6750138e+3, 3.0392733e+2, -40479.566, -84754.93, 2.1742277, 0.000065972745, 0.00017565707, -40479.566, -40479.566, 0.0, 10.000292, 9.942029 
3.6750138e+3, 3.1387126e+2, -39398.855, -82515.58, 0.9955512, 0.00006523692, -0.00005239277, -39398.855, -39398.855, 0.0, 10.000295, 9.94354 
3.6850145e+3, 1.2499661e+2, -1719602.0, -1724191.5, 1.377331, 0.00006349787, 0.000043602897, -1719602.0, -4568.722, 0.0, 10.000281, 9.994197 
3.6850145e+3, 1.3499069e+2, -1622221.5, -1627403.1, 0.5187704, 0.00006406335, -0.000095507756, -1622221.5, -5130.242, 0.0, 10.000282, 9.993414 
3.6850142e+3, 1.4497817e+2, -1534117.5, -1548111.8, 2.8929899, 0.00006444411, 0.00011844648, -1534117.5, -14903.413, 0.0, 10.000284, 9.981735 
3.6850142e+3, 1.549599e+2, -1436389.1, -1450787.9, 2.0719526, 0.00006462748, -0.00004548141, -1436389.1, -14996.009, 0.0, 10.000285, 9.981204 
3.6850142e+3, 1.64935e+2, -1348340.1, -1371924.1, 3.949726, 0.00006478949, 0.000046529116, -1348340.1, -24703.113, 0.0, 10.000287, 9.969115 
3.6850142e+3, 1.7490415e+2, -1250381.9, -1274282.5, 2.9108636, 0.000064929874, -0.00006273908, -1250381.9, -24442.56, 0.0, 10.000288, 9.968701 
3.6850142e+3, 1.8486668e+2, -1162300.5, -1195693.5, 4.3955703, 0.00006504876, 0.000080562466, -1162300.5, -33993.977, 0.0, 10.000289, 9.956263 
3.6850142e+3, 1.9482298e+2, -1064150.6, -1097807.1, 3.5343764, 0.0000651451, -0.000048889677, -1064150.6, -33415.89, 0.0, 10.00029, 9.955919 
3.6850142e+3, 2.047726e+2, -975988.0, -1019413.9, 4.2975316, 0.00006518216, 0.000075402895, -975988.0, -42759.64, 0.0, 10.000291, 9.943154 
3.685014e+3, 2.1471582e+2, -877700.3, -921389.1, 3.1639972, 0.00006515507, -0.00011638725, -877700.3, -41915.22, 0.0, 10.000293, 9.942814 
3.685014e+3, 2.2465232e+2, -789412.7, -843123.2, 4.015826, 0.000065293854, 0.00013122731, -789412.7, -51005.297, 0.0, 10.000294, 9.929773 
3.685014e+3, 2.3458216e+2, -690979.4, -744945.6, 3.2823372, 0.00006562023, -0.00008219375, -690979.4, -49884.395, 0.0, 10.000295, 9.929441 
3.685014e+3, 2.4450503e+2, -602657.8, -667004.2, 4.0457983, 0.00006584909, 0.000079928286, -602657.8, -58807.113, 0.0, 10.000296, 9.9159975 
3.685014e+3, 2.5442114e+2, -503905.5, -568329.9, 2.9703362, 0.00006596135, -0.00010015145, -503905.5, -57232.797, 0.0, 10.000297, 9.915897 
3.685014e+3, 2.643302e+2, -415669.56, -490975.94, 2.7589407, 0.00006601932, 0.00014789535, -415669.56, -66105.39, 0.0, 10.000298, 9.901826 
3.685014e+3, 2.7423257e+2, -316382.84, -391362.94, 1.6260731, 0.0000660085, -0.00019626031, -316382.84, -63861.977, 0.0, 10.000299, 9.9022455 
3.685014e+3, 2.841267e+2, -229907.48, -318068.47, 2.1376946, 0.000066258704, 0.00023515176, -229907.48, -74349.29, 0.0, 10.000301, 9.885301 
3.685014e+3, 2.9401305e+2, -130201.36, -217752.98, 1.5423474, 0.000066866334, -0.0002496256, -130201.36, -71529.375, 0.0, 10.000302, 9.886079 
3.685014e+3, 3.0392736e+2, -40464.62, -84750.9, 1.8181864, 0.00006741967, 0.00017521535, -40464.62, -40464.62, 0.0, 10.000303, 9.942026 
3.685014e+3, 3.1387126e+2, -39385.723, -82512.54, 1.0012704, 0.000067888526, -0.00005357317, -39385.723, -39385.723, 0.0, 10.000304, 9.943537 
3.6950147e+3, 1.2499667e+2, -1719604.0, -1724195.1, 1.8438927, 0.00006448637, 0.000043871358, -1719604.0, -4571.206, 0.0, 10.000281, 9.994194 
3.6950147e+3, 1.3499074e+2, -1622223.5, -1627406.9, 0.9855852, 0.00006522906, -0.00009670222, -1622223.5, -5132.6836, 0.0, 10.000282, 9.993411 
3.6950144e+3, 1.4497821e+2, -1534119.4, -1548115.4, 3.4024522, 0.000065588836, 0.00011856826, -1534119.4, -14905.746, 0.0, 10.000284, 9.981733 
3.6950144e+3, 1.5495993e+2, -1436391.0, -1450791.4, 2.5814824, 0.00006555218, -0.000046251742, -1436391.0, -14998.293, 0.0, 10.000285, 9.981201 
3.6950144e+3, 1.6493504e+2, -1348342.5, -1371928.6, 4.385751, 0.00006564083, 0.000045694553, -1348342.5, -24705.852, 0.0, 10.000287, 9.969112 
3.6950144e+3, 1.7490421e+2, -1250384.1, -1274286.9, 3.346351, 0.00006585745, -0.0000627932, -1250384.1, -24445.25, 0.0, 10.000288, 9.968699 
3.6950144e+3, 1.8486673e+2, -1162302.4, -1195697.3, 4.780669, 0.00006634644, 0.00008084095, -1162302.4, -33996.27, 0.0, 10.000289, 9.95626 
3.6950144e+3, 1.9482303e+2, -1064152.5, -1097810.8, 3.9189272, 0.000067120054, -0.000048746744, -1064152.5, -33418.13, 0.0, 10.00029, 9.955916 
3.6950144e+3, 2.0477265e+2, -975990.5, -1019418.6, 4.8427997, 0.00006700106, 0.000074934615, -975990.5, -42762.41, 0.0, 10.000291, 9.943151 
3.6950144e+3, 2.1471584e+2, -877702.75, -921393.94, 3.7129962, 0.00006591618, -0.0001179814, -877702.75, -41917.93, 0.0, 10.000293, 9.942811 
3.6950144e+3, 2.2465235e+2, -789414.4, -843126.5, 4.3484774, 0.00006561318, 0.00013009216, -789414.4, -51007.203, 0.0, 10.000294, 9.92977 
3.6950144e+3, 2.3458217e+2, -690981.0, -744948.8, 3.6069036, 0.00006619481, -0.00008107716, -690981.0, -49886.258, 0.0, 10.000295, 9.92944 
3.695014e+3, 2.4450506e+2, -602660.06, -667008.75, 4.367982, 0.00006713561, 0.000081351216, -602660.06, -58809.633, 0.0, 10.000296, 9.915995 
3.695014e+3, 2.5442117e+2, -503907.8, -568334.5, 3.2932682, 0.00006850427, -0.000100746234, -503907.8, -57235.277, 0.0, 10.000297, 9.9158945 
3.695014e+3, 2.643302e+2, -415671.9, -490980.7, 3.5201252, 0.00006844599, 0.00014627793, -415671.9, -66107.875, 0.0, 10.000298, 9.901822 
3.695014e+3, 2.7423257e+2, -316385.16, -391367.66, 2.416773, 0.00006657172, -0.00019762928, -316385.16, -63864.41, 0.0, 10.000299, 9.902243 
3.695014e+3, 2.8412673e+2, -229908.94, -318071.47, 2.5741093, 0.00006594134, 0.00023441919, -229908.94, -74350.84, 0.0, 10.000301, 9.885299 
3.695014e+3, 2.9401305e+2, -130202.72, -217755.83, 1.9457461, 0.00006702087, -0.00024919695, -130202.72, -71530.836, 0.0, 10.000302, 9.886077 
3.695014e+3, 3.0392736e+2, -40466.34, -84754.48, 2.2261791, 0.00006880676, 0.00017578214, -40466.34, -40466.34, 0.0, 10.000303, 9.942023 
3.695014e+3, 3.1387126e+2, -39387.484, -82516.21, 1.4095986, 0.00007162408, -0.000054391767, -39387.484, -39387.484, 0.0, 10.000304, 9.943534 
3.705015e+3, 1.24996714e+2, -1719591.6, -1724191.0, 0.96367675, 0.00006542896, 0.000044305372, -1719591.6, -4559.324, 0.0, 10.00029, 9.994192 
3.705015e+3, 1.3499078e+2, -1622210.4, -1627402.3, 0.21096458, 0.00006628603, -0.000097507116, -1622210.4, -5119.9854, 0.0, 10.000292, 9.993409 
3.705015e+3, 1.4497826e+2, -1534105.5, -1548110.5, 2.6978269, 0.000066756875, 0.00011919712, -1534105.5, -14892.36, 0.0, 10.000294, 9.981731 
3.705015e+3, 1.5495998e+2, -1436376.5, -1450786.3, 1.8700327, 0.00006682808, -0.00004648838, -1436376.5, -14984.263, 0.0, 10.000296, 9.981199 
3.7050146e+3, 1.6493508e+2, -1348328.0, -1371924.4, 3.5457022, 0.000066888184, 0.00004509815, -1348328.0, -24691.73, 0.0, 10.000298, 9.96911 
3.7050146e+3, 1.7490424e+2, -1250368.9, -1274282.4, 2.3779216, 0.00006693715, -0.00006323331, -1250368.9, -24430.371, 0.0, 10.0002985, 9.968696 
3.7050146e+3, 1.8486676e+2, -1162286.4, -1195691.6, 3.586333, 0.000067427914, 0.00008072133, -1162286.4, -33980.563, 0.0, 10.0003, 9.956258 
3.7050146e+3, 1.9482306e+2, -1064136.6, -1097805.3, 2.7229643, 0.00006838042, -0.000048374302, -1064136.6, -33402.58, 0.0, 10.000301, 9.9559145 
3.7050146e+3, 2.0477268e+2, -975975.0, -1019413.7, 3.9541123, 0.00006838909, 0.00007479229, -975975.0, -42747.227, 0.0, 10.000302, 9.943149 
3.7050146e+3, 2.1471587e+2, -877687.4, -921389.1, 3.1312363, 0.00006737647, -0.00011972794, -877687.4, -41902.848, 0.0, 10.000304, 9.942808 
3.7050146e+3, 2.2465236e+2, -789399.2, -843122.25, 3.4191942, 0.00006697989, 0.00012854465, -789399.2, -50992.266, 0.0, 10.000305, 9.929768 
3.7050146e+3, 2.345822e+2, -690965.5, -744944.44, 1.9301116, 0.000067280394, -0.00008038577, -690965.5, -49870.953, 0.0, 10.000306, 9.929437 
3.7050146e+3, 2.4450508e+2, -602643.8, -667003.2, 2.4850693, 0.000068127054, 0.00008255597, -602643.8, -58793.57, 0.0, 10.000307, 9.915993 
3.7050146e+3, 2.5442117e+2, -503891.66, -568328.94, 1.9887521, 0.00006962494, -0.00010108995, -503891.66, -57219.305, 0.0, 10.000308, 9.915893 
3.7050146e+3, 2.6433024e+2, -415656.44, -490976.25, 3.0166419, 0.00006970165, 0.00014497923, -415656.44, -66092.56, 0.0, 10.000309, 9.901819 
3.7050146e+3, 2.7423257e+2, -316370.13, -391363.53, 2.105989, 0.00006796919, -0.00019912336, -316370.13, -63849.5, 0.0, 10.000311, 9.90224 
3.7050146e+3, 2.8412673e+2, -229893.89, -318067.44, 1.7778895, 0.000067346395, 0.00023344971, -229893.89, -74335.88, 0.0, 10.000313, 9.885295 
3.7050146e+3, 2.9401308e+2, -130187.04, -217751.52, 0.3063573, 0.000068249916, -0.00024866048, -130187.04, -71515.21, 0.0, 10.000315, 9.886074 
3.7050146e+3, 3.0392736e+2, -40450.004, -84749.695, 0.029768227, 0.00006996793, 0.00017696, -40450.004, -40450.004, 0.0, 10.000316, 9.94202 
3.7050146e+3, 3.1387126e+2, -39370.516, -82511.09, -0.9997481, 0.000072879586, -0.000053865333, -39370.516, -39370.516, 0.0, 10.000318, 9.943531 
3.715015e+3, 1.2499677e+2, -1719593.4, -1724194.3, 1.6321247, 0.0000663259, 0.000045007415, -1719593.4, -4561.526, 0.0, 10.00029, 9.99419 
3.715015e+3, 1.3499083e+2, -1622212.1, -1627405.5, 0.878874, 0.000067234956, -0.00009792478, -1622212.1, -5122.153, 0.0, 10.000292, 9.993407 
3.715015e+3, 1.449783e+2, -1534107.4, -1548114.0, 3.369674, 0.00006794815, 0.00012033008, -1534107.4, -14894.68, 0.0, 10.000294, 9.981729 
3.715015e+3, 1.5496002e+2, -1436378.4, -1450789.8, 2.5418684, 0.0000684532, -0.000046194476, -1436378.4, -14986.535, 0.0, 10.000296, 9.981197 
3.715015e+3, 1.6493513e+2, -1348330.6, -1371929.3, 4.173637, 0.00006852933, 0.000044738452, -1348330.6, -24694.719, 0.0, 10.000298, 9.969107 
3.7150148e+3, 1.7490429e+2, -1250371.4, -1274287.3, 3.00596, 0.00006816818, -0.000064057254, -1250371.4, -24433.297, 0.0, 10.0002985, 9.968693 
3.7150148e+3, 1.8486679e+2, -1162288.3, -1195695.3, 3.9516447, 0.00006829453, 0.00008020582, -1162288.3, -33982.805, 0.0, 10.0003, 9.956255 
3.7150148e+3, 1.9482309e+2, -1064138.5, -1097808.9, 3.0845506, 0.00006893036, -0.000047773738, -1064138.5, -33404.777, 0.0, 10.000301, 9.955913 
3.7150148e+3, 2.0477271e+2, -975976.8, -1019417.3, 4.4856267, 0.00006934882, 0.00007497399, -975976.8, -42749.332, 0.0, 10.000302, 9.943147 
3.7150148e+3, 2.147159e+2, -877689.2, -921392.7, 3.6666195, 0.00006953202, -0.00012162597, -877689.2, -41904.902, 0.0, 10.000304, 9.942805 
3.7150148e+3, 2.246524e+2, -789402.3, -843128.4, 3.854974, 0.000069388065, 0.00012658713, -789402.3, -50995.61, 0.0, 10.000305, 9.929764 
3.7150148e+3, 2.3458222e+2, -690968.6, -744950.7, 2.3630338, 0.00006887414, -0.00008011728, -690968.6, -49874.27, 0.0, 10.000306, 9.929433 
3.7150148e+3, 2.4450509e+2, -602645.06, -667005.7, 2.7998877, 0.00006882518, 0.00008354364, -602645.06, -58794.97, 0.0, 10.000307, 9.915991 
3.7150148e+3, 2.544212e+2, -503892.78, -568331.25, 2.2972782, 0.00006933158, -0.000101184094, -503892.78, -57220.582, 0.0, 10.000308, 9.915891 
3.7150148e+3, 2.6433024e+2, -415658.4, -490980.22, 3.698726, 0.00006979307, 0.0001439974, -415658.4, -66094.65, 0.0, 10.000309, 9.901817 
3.7150148e+3, 2.742326e+2, -316372.13, -391367.6, 2.8132026, 0.00007019618, -0.0002007418, -316372.13, -63851.59, 0.0, 10.000311, 9.902237 
3.7150148e+3, 2.8412673e+2, -229896.78, -318073.38, 2.3790529, 0.0000704641, 0.00023224468, -229896.78, -74338.84, 0.0, 10.000313, 9.885291 
3.7150148e+3, 2.9401308e+2, -130189.97, -217757.6, 0.89836276, 0.00007054744, -0.0002480169, -130189.97, -71518.18, 0.0, 10.000315, 9.88607 
3.7150148e+3, 3.0392736e+2, -40452.23, -84754.34, 0.6029467, 0.00007090457, 0.00017874528, -40452.23, -40452.23, 0.0, 10.000316, 9.942018 
3.7150148e+3, 3.1387126e+2, -39372.66, -82515.58, -0.42881525, 0.00007166927, -0.000052001706, -39372.66, -39372.66, 0.0, 10.000318, 9.943528 
3.7250155e+3, 1.2499681e+2, -1719580.8, -1724190.4, 1.1837, 0.00006736602, 0.0000446901, -1719580.8, -4549.387, 0.0, 10.000299, 9.994187 
3.7250155e+3, 1.3499087e+2, -1622198.4, -1627401.3, 0.008735609, 0.00006815533, -0.000099203535, -1622198.4, -5108.8945, 0.0, 10.000301, 9.993404 
3.7250155e+3, 1.4497834e+2, -1534092.8, -1548108.9, 2.1779022, 0.00006892129, 0.00012090996, -1534092.8, -14880.4375, 0.0, 10.000304, 9.981727 
3.7250155e+3, 1.5496007e+2, -1436363.5, -1450784.4, 1.3172048, 0.00006965264, -0.000045964778, -1436363.5, -14971.99, 0.0, 10.000306, 9.9811945 
3.7250155e+3, 1.6493517e+2, -1348315.8, -1371924.8, 3.017157, 0.00006985041, 0.000044324363, -1348315.8, -24680.207, 0.0, 10.000308, 9.969104 
3.7250155e+3, 1.7490432e+2, -1250356.0, -1274282.5, 2.0457397, 0.00006950419, -0.00006541437, -1250356.0, -24418.178, 0.0, 10.00031, 9.96869 
3.7250155e+3, 1.8486682e+2, -1162272.3, -1195690.4, 2.6066313, 0.00006942333, 0.00007912044, -1162272.3, -33967.063, 0.0, 10.000312, 9.956252 
3.7250155e+3, 1.9482312e+2, -1064121.6, -1097803.6, 1.2214419, 0.00006961973, -0.00004731765, -1064121.6, -33388.17, 0.0, 10.000314, 9.955909 
3.7250152e+3, 2.0477274e+2, -975959.4, -1019410.56, 2.344355, 0.000070196584, 0.00007560656, -975959.4, -42732.18, 0.0, 10.000315, 9.943145 
3.7250152e+3, 2.1471591e+2, -877673.4, -921386.8, 1.7711692, 0.00007118505, -0.00012229392, -877673.4, -41889.332, 0.0, 10.000315, 9.942803 
3.7250152e+3, 2.2465241e+2, -789388.3, -843125.44, 2.3872955, 0.00007130949, 0.00012535923, -789388.3, -50981.816, 0.0, 10.000316, 9.92976 
3.7250152e+3, 2.3458223e+2, -690953.9, -744947.44, 1.1583788, 0.00007045655, -0.000081066995, -690953.9, -49859.727, 0.0, 10.000318, 9.929429 
3.7250152e+3, 2.445051e+2, -602628.1, -666999.56, 1.4800147, 0.00006992183, 0.00008296497, -602628.1, -58778.184, 0.0, 10.0003195, 9.915989 
3.7250152e+3, 2.544212e+2, -503874.53, -568324.44, 0.5357937, 0.00006976792, -0.0001012817, -503874.53, -57202.45, 0.0, 10.000321, 9.915889 
3.7250152e+3, 2.6433024e+2, -415640.88, -490974.38, 1.6390535, 0.00007035544, 0.00014402205, -415640.88, -66077.234, 0.0, 10.000322, 9.901814 
3.7250152e+3, 2.742326e+2, -316357.16, -391363.13, 0.8270731, 0.00007188512, -0.00020105146, -316357.16, -63836.703, 0.0, 10.000322, 9.902234 
3.7250152e+3, 2.8412673e+2, -229883.47, -318070.9, 0.8815127, 0.0000726455, 0.0002317937, -229883.47, -74325.56, 0.0, 10.000323, 9.885288 
3.7250152e+3, 2.9401308e+2, -130175.47, -217754.69, -0.29590383, 0.00007234928, -0.00024834313, -130175.47, -71503.69, 0.0, 10.000326, 9.886066 
3.7250152e+3, 3.0392736e+2, -40435.332, -84749.65, -0.18747826, 0.0000719484, 0.00017844983, -40435.332, -40435.332, 0.0, 10.000329, 9.942015 
3.7250152e+3, 3.1387126e+2, -39352.35, -82509.16, -1.1922176, 0.0000714018, -0.000052408275, -39352.35, -39352.35, 0.0, 10.000333, 9.943525 
3.735016e+3, 1.24996856e+2, -1719583.5, -1724195.5, 2.1224582, 0.00006854845, 0.000043480333, -1719583.4, -4552.5234, 0.0, 10.000299, 9.9941845 
3.735016e+3, 1.3499092e+2, -1622201.1, -1627406.3, 0.94811076, 0.0000690474, -0.00010133828, -1622201.1, -5111.973, 0.0, 10.000301, 9.993402 
3.7350157e+3, 1.4497837e+2, -1534094.8, -1548112.5, 2.9342506, 0.00006967769, 0.000120939985, -1534094.8, -14882.773, 0.0, 10.000304, 9.981724 
3.7350157e+3, 1.549601e+2, -1436365.4, -1450788.1, 2.0727983, 0.00007042902, -0.000045799003, -1436365.4, -14974.28, 0.0, 10.000306, 9.981193 
3.7350157e+3, 1.649352e+2, -1348317.9, -1371928.9, 3.8006566, 0.00007085342, 0.00004385612, -1348317.9, -24682.713, 0.0, 10.000308, 9.969101 
3.7350157e+3, 1.7490435e+2, -1250358.1, -1274286.6, 2.8296254, 0.000070944625, -0.00006730151, -1250358.1, -24420.629, 0.0, 10.00031, 9.968688 
3.7350157e+3, 1.8486685e+2, -1162275.3, -1195696.3, 3.1941874, 0.00007081283, 0.000077468554, -1162275.3, -33970.36, 0.0, 10.000312, 9.956248 
3.7350157e+3, 1.9482313e+2, -1064124.6, -1097809.5, 1.8065718, 0.00007044783, -0.0000470053, -1064124.6, -33391.414, 0.0, 10.000314, 9.955906 
3.7350157e+3, 2.0477277e+2, -975960.75, -1019413.2, 2.5148509, 0.00007093318, 0.000076687145, -975960.75, -42733.73, 0.0, 10.000315, 9.943143 
3.7350157e+3, 2.1471594e+2, -877674.7, -921389.3, 1.9328233, 0.00007233861, -0.00012173924, -877674.7, -41890.82, 0.0, 10.000315, 9.942802 
3.7350157e+3, 2.2465242e+2, -789390.9, -843130.56, 3.0086272, 0.000072747105, 0.00012485655, -789390.9, -50984.582, 0.0, 10.000316, 9.929757 
3.7350157e+3, 2.3458225e+2, -690956.5, -744952.6, 1.7953472, 0.00007202772, -0.00008322767, -690956.5, -49862.457, 0.0, 10.000318, 9.929425 
3.7350157e+3, 2.4450512e+2, -602630.2, -667003.7, 2.1334624, 0.00007141471, 0.000080829304, -602630.2, -58780.348, 0.0, 10.0003195, 9.915986 
3.7350157e+3, 2.5442123e+2, -503876.53, -568328.5, 1.1897379, 0.0000709298, -0.00010138285, -503876.53, -57204.555, 0.0, 10.000321, 9.915886 
3.7350157e+3, 2.6433027e+2, -415642.75, -490978.2, 1.7626647, 0.00007138609, 0.00014504704, -415642.75, -66079.18, 0.0, 10.000322, 9.901812 
3.7350157e+3, 2.742326e+2, -316359.0, -391366.88, 0.91516936, 0.000073039235, -0.00020006027, -316359.0, -63838.586, 0.0, 10.000322, 9.902232 
3.7350157e+3, 2.8412673e+2, -229885.84, -318075.84, 1.7443036, 0.000073896124, 0.00023209215, -229885.84, -74327.98, 0.0, 10.000323, 9.885284 
3.7350157e+3, 2.9401308e+2, -130177.88, -217759.69, 0.6373284, 0.000073658375, -0.0002496334, -130177.88, -71506.07, 0.0, 10.000326, 9.886063 
3.7350157e+3, 3.0392736e+2, -40437.508, -84754.19, 1.2041794, 0.00007309886, 0.00017608605, -40437.508, -40437.508, 0.0, 10.000329, 9.942012 
3.7350157e+3, 3.1387123e+2, -39354.51, -82513.65, 0.25373846, 0.00007207182, -0.000055071563, -39354.51, -39354.51, 0.0, 10.000333, 9.943522 
3.7450162e+3, 1.2499689e+2, -1719571.3, -1724192.0, 1.0999035, 0.00006960432, 0.000044440494, -1719571.3, -4540.757, 0.0, 10.000308, 9.994182 
3.7450162e+3, 1.3499095e+2, -1622187.4, -1627402.0, 0.24835058, 0.00007008293, -0.00010327773, -1622187.4, -5098.621, 0.0, 10.000312, 9.993399 
3.7450162e+3, 1.4497842e+2, -1534079.6, -1548107.8, 1.9951833, 0.00007058071, 0.000120491, -1534079.6, -14868.073, 0.0, 10.000315, 9.981722 
3.7450162e+3, 1.5496013e+2, -1436349.1, -1450782.8, 0.77883375, 0.000071087015, -0.000045416487, -1436349.1, -14958.356, 0.0, 10.000318, 9.98119 
3.745016e+3, 1.6493523e+2, -1348301.1, -1371922.9, 2.1831515, 0.000071712675, 0.000044023385, -1348301.1, -24666.246, 0.0, 10.0003195, 9.969099 
3.745016e+3, 1.7490438e+2, -1250342.1, -1274281.0, 1.3484758, 0.00007246031, -0.000068416775, -1250342.1, -24404.932, 0.0, 10.000321, 9.968685 
3.745016e+3, 1.8486688e+2, -1162260.8, -1195693.1, 1.6393472, 0.00007244343, 0.00007600507, -1162260.8, -33956.066, 0.0, 10.000323, 9.956244 
3.745016e+3, 1.9482316e+2, -1064109.9, -1097806.3, 0.109182276, 0.00007162733, -0.00004784049, -1064109.9, -33376.81, 0.0, 10.000325, 9.955901 
3.745016e+3, 2.0477279e+2, -975943.56, -1019406.6, 0.32083806, 0.000071717935, 0.00007645377, -975943.56, -42716.785, 0.0, 10.000326, 9.943141 
3.745016e+3, 2.1471596e+2, -877656.25, -921382.1, -0.527134, 0.00007278964, -0.0001213995, -877656.25, -41872.56, 0.0, 10.000328, 9.9428005 
3.745016e+3, 2.2465244e+2, -789373.2, -843124.7, 0.7145429, 0.00007337442, 0.00012486595, -789373.2, -50967.02, 0.0, 10.000329, 9.929754 
3.745016e+3, 2.3458226e+2, -690940.5, -744947.7, -0.055296853, 0.00007340808, -0.00008457037, -690940.5, -49846.566, 0.0, 10.00033, 9.929423 
3.745016e+3, 2.4450512e+2, -602615.7, -666999.7, 0.5165942, 0.00007324907, 0.00007920063, -602615.7, -58765.91, 0.0, 10.00033, 9.915983 
3.745016e+3, 2.5442123e+2, -503863.13, -568325.06, -0.60146564, 0.00007286064, -0.00010202389, -503863.13, -57191.207, 0.0, 10.000332, 9.915883 
3.745016e+3, 2.6433027e+2, -415628.22, -490973.84, -0.15748388, 0.00007298073, 0.00014498782, -415628.22, -66064.69, 0.0, 10.000333, 9.90181 
3.745016e+3, 2.742326e+2, -316341.16, -391360.9, -1.0468559, 0.00007374811, -0.00020005679, -316341.16, -63820.766, 0.0, 10.000336, 9.902229 
3.745016e+3, 2.8412673e+2, -229866.77, -318069.47, 0.18310645, 0.00007424689, 0.00023185286, -229866.77, -74308.88, 0.0, 10.000338, 9.885282 
3.745016e+3, 2.9401305e+2, -130160.18, -217754.08, -0.41656575, 0.00007437528, -0.00025053095, -130160.18, -71488.33, 0.0, 10.0003395, 9.886061 
3.745016e+3, 3.0392733e+2, -40421.85, -84749.46, 0.8718644, 0.00007440044, 0.0001747649, -40421.85, -40421.85, 0.0, 10.000341, 9.942009 
3.745016e+3, 3.1387123e+2, -39341.84, -82510.35, 0.34285936, 0.00007427546, -0.00005646377, -39341.84, -39341.84, 0.0, 10.000342, 9.94352 
3.7550163e+3, 1.2499694e+2, -1719573.3, -1724195.6, 2.4113333, 0.00007053447, 0.0000477009, -1719573.3, -4543.122, 0.0, 10.000308, 9.99418 
3.7550163e+3, 1.3499099e+2, -1622189.3, -1627405.6, 1.5617121, 0.0000712611, -0.00010502314, -1622189.3, -5100.921, 0.0, 10.000312, 9.993397 
3.7550163e+3, 1.4497845e+2, -1534082.4, -1548112.9, 3.051096, 0.0000716295, 0.000119566066, -1534082.4, -14871.16, 0.0, 10.000315, 9.981718 
3.7550163e+3, 1.5496016e+2, -1436351.9, -1450787.9, 1.833502, 0.00007162748, -0.00004481863, -1436351.9, -14961.383, 0.0, 10.000318, 9.981187 
3.7550163e+3, 1.6493526e+2, -1348303.0, -1371926.5, 2.7970893, 0.00007242919, 0.0000448221, -1348303.0, -24668.395, 0.0, 10.0003195, 9.969096 
3.7550163e+3, 1.749044e+2, -1250344.0, -1274284.6, 1.9606719, 0.00007405085, -0.00006876507, -1250344.0, -24407.033, 0.0, 10.000321, 9.968683 
3.7550163e+3, 1.8486689e+2, -1162264.0, -1195699.5, 2.3088455, 0.00007431368, 0.000074728734, -1162264.0, -33959.61, 0.0, 10.000323, 9.956241 
3.755016e+3, 1.9482318e+2, -1064113.1, -1097812.6, 0.7804532, 0.00007315609, -0.000049816146, -1064113.1, -33380.277, 0.0, 10.000325, 9.955897 
3.755016e+3, 2.047728e+2, -975945.44, -1019410.3, 0.8219453, 0.000072550625, 0.000074914526, -975945.44, -42718.8, 0.0, 10.000326, 9.943139 
3.755016e+3, 2.1471597e+2, -877658.06, -921385.7, -0.029790329, 0.00007254266, -0.0001212735, -877658.06, -41874.516, 0.0, 10.000328, 9.942798 
3.755016e+3, 2.2465245e+2, -789374.9, -843128.06, 0.9641125, 0.00007319662, 0.00012538415, -789374.9, -50968.86, 0.0, 10.000329, 9.929752 
3.755016e+3, 2.3458226e+2, -690942.2, -744951.06, 0.18612549, 0.00007459893, -0.00008510023, -690942.2, -49848.355, 0.0, 10.00033, 9.92942 
3.755016e+3, 2.4450512e+2, -602618.0, -667004.4, 0.90323865, 0.00007542283, 0.000078075755, -602618.0, -58768.332, 0.0, 10.00033, 9.91598 
3.755016e+3, 2.5442123e+2, -503865.5, -568329.9, -0.20736875, 0.00007555561, -0.00010320154, -503865.5, -57193.598, 0.0, 10.000332, 9.91588 
3.755016e+3, 2.6433027e+2, -415630.2, -490977.84, 0.75661075, 0.00007513579, 0.00014385102, -415630.2, -66066.65, 0.0, 10.000333, 9.901807 
3.755016e+3, 2.742326e+2, -316343.06, -391364.8, -0.09799568, 0.00007401467, -0.00020103497, -316343.06, -63822.656, 0.0, 10.000336, 9.902226 
3.755016e+3, 2.8412673e+2, -229868.31, -318072.66, 0.81668216, 0.000073703624, 0.00023107904, -229868.31, -74310.375, 0.0, 10.000338, 9.88528 
3.755016e+3, 2.9401305e+2, -130161.664, -217757.17, 0.18801895, 0.00007450386, -0.0002510383, -130161.664, -71489.76, 0.0, 10.0003395, 9.886058 
3.755016e+3, 3.0392733e+2, -40423.277, -84752.445, 1.5293949, 0.000075852266, 0.00017447988, -40423.277, -40423.277, 0.0, 10.000341, 9.942007 
3.755016e+3, 3.1387123e+2, -39343.26, -82513.33, 1.0059168, 0.00007800298, -0.000056592715, -39343.26, -39343.26, 0.0, 10.000342, 9.943518 
3.7650165e+3, 1.2499697e+2, -1719562.4, -1724190.8, -0.5250054, 0.000071843344, 0.00004871951, -1719562.4, -4532.6504, 0.0, 10.000316, 9.994179 
3.7650165e+3, 1.3499103e+2, -1622174.4, -1627398.6, -0.2878879, 0.00007267117, -0.000108139226, -1622174.4, -5086.381, 0.0, 10.000321, 9.993396 
3.7650165e+3, 1.4497848e+2, -1534067.3, -1548109.5, 0.9400519, 0.000072899, 0.00011771734, -1534067.3, -14856.356, 0.0, 10.000326, 9.981714 
3.7650165e+3, 1.5496019e+2, -1436334.9, -1450783.5, -0.8680356, 0.0000725137, -0.000045023196, -1436334.9, -14944.636, 0.0, 10.00033, 9.981183 
3.7650165e+3, 1.6493528e+2, -1348283.8, -1371918.5, -0.8704879, 0.000073299896, 0.000045313936, -1348283.8, -24649.379, 0.0, 10.000333, 9.969094 
3.7650165e+3, 1.7490442e+2, -1250325.8, -1274277.3, -1.4596884, 0.00007528109, -0.00006854305, -1250325.8, -24389.012, 0.0, 10.000334, 9.968681 
3.7650165e+3, 1.8486692e+2, -1162247.8, -1195694.8, -0.6074042, 0.00007575832, 0.00007415701, -1162247.8, -33943.586, 0.0, 10.000335, 9.956238 
3.7650165e+3, 1.9482319e+2, -1064098.0, -1097808.5, -1.4552165, 0.00007466344, -0.00005172939, -1064098.0, -33365.24, 0.0, 10.000337, 9.955894 
3.7650165e+3, 2.0477282e+2, -975930.25, -1019405.4, -1.2006202, 0.00007389564, 0.00007322225, -975930.25, -42703.727, 0.0, 10.000338, 9.943136 
3.7650165e+3, 2.1471597e+2, -877642.8, -921380.8, -2.2312508, 0.00007348184, -0.00012105422, -877642.8, -41859.406, 0.0, 10.000339, 9.942796 
3.7650165e+3, 2.2465245e+2, -789359.2, -843122.7, -1.5549299, 0.000074017335, 0.00012608922, -789359.2, -50953.254, 0.0, 10.00034, 9.9297495 
3.7650165e+3, 2.3458228e+2, -690925.94, -744945.44, -2.4057748, 0.00007562628, -0.00008552254, -690925.94, -49832.19, 0.0, 10.000341, 9.929419 
3.7650165e+3, 2.4450514e+2, -602601.44, -666999.1, -1.4095123, 0.000076517994, 0.000077056335, -602601.44, -58751.77, 0.0, 10.000342, 9.9159775 
3.7650165e+3, 2.5442123e+2, -503848.1, -568324.2, -2.2005951, 0.00007655253, -0.00010418347, -503848.1, -57176.207, 0.0, 10.000344, 9.915877 
3.7650165e+3, 2.6433027e+2, -415613.2, -490972.3, -0.900821, 0.000076223754, 0.00014297965, -415613.2, -66049.62, 0.0, 10.000345, 9.901804 
3.7650165e+3, 2.742326e+2, -316328.22, -391360.4, -1.7364992, 0.00007543486, -0.00020170436, -316328.22, -63807.754, 0.0, 10.000347, 9.902225 
3.7650165e+3, 2.8412673e+2, -229854.38, -318068.72, -0.9748892, 0.00007525089, 0.00023052242, -229854.38, -74296.37, 0.0, 10.000348, 9.885278 
3.7650165e+3, 2.9401305e+2, -130147.05, -217752.94, -1.9994005, 0.0000758965, -0.00025160462, -130147.05, -71475.04, 0.0, 10.00035, 9.886056 
3.7650165e+3, 3.0392733e+2, -40407.586, -84747.78, -0.851924, 0.00007709244, 0.00017427326, -40407.586, -40407.586, 0.0, 10.000353, 9.942004 
3.7650165e+3, 3.138712e+2, -39325.594, -82507.71, -1.811871, 0.00007909653, -0.00005589061, -39325.594, -39325.594, 0.0, 10.000356, 9.943515 
3.775017e+3, 1.24997005e+2, -1719561.9, -1724189.8, 1.749234, 0.00007352841, 0.000047684094, -1719561.9, -4532.3345, 0.0, 10.000316, 9.99418 
3.775017e+3, 1.3499105e+2, -1622173.9, -1627397.6, 1.9854034, 0.0000743117, -0.00011261727, -1622173.9, -5086.081, 0.0, 10.000321, 9.993397 
3.775017e+3, 1.449785e+2, -1534071.4, -1548117.3, 2.46202, 0.00007438784, 0.00011495069, -1534071.4, -14860.682, 0.0, 10.000326, 9.9817095 
3.775017e+3, 1.549602e+2, -1436338.9, -1450791.1, 0.65331745, 0.0000737435, -0.000046025205, -1436338.9, -14948.868, 0.0, 10.00033, 9.981178 
3.775017e+3, 1.649353e+2, -1348285.0, -1371921.0, -0.47104377, 0.00007432386, 0.000045500645, -1348285.0, -24650.863, 0.0, 10.000333, 9.969093 
3.775017e+3, 1.7490444e+2, -1250327.0, -1274279.8, -1.0652894, 0.00007615346, -0.000067754634, -1250327.0, -24390.467, 0.0, 10.000334, 9.968679 
3.775017e+3, 1.8486694e+2, -1162249.6, -1195698.4, -0.16364127, 0.00007678021, 0.00007428517, -1162249.6, -33945.59, 0.0, 10.000335, 9.956235 
3.775017e+3, 1.948232e+2, -1064099.8, -1097812.0, -1.0097141, 0.00007614961, -0.000053580698, -1064099.8, -33367.19, 0.0, 10.000337, 9.955893 
3.775017e+3, 2.0477282e+2, -975932.5, -1019409.7, -0.6823495, 0.000075749704, 0.00007137787, -975932.5, -42706.023, 0.0, 10.000338, 9.943133 
3.775017e+3, 2.1471599e+2, -877645.0, -921385.1, -1.7116802, 0.00007559952, -0.000120742334, -877645.0, -41861.668, 0.0, 10.000339, 9.942793 
3.775017e+3, 2.2465247e+2, -789361.06, -843126.4, -1.1572003, 0.000075830125, 0.00012697984, -789361.06, -50955.164, 0.0, 10.00034, 9.929748 
3.775017e+3, 2.3458228e+2, -690927.8, -744949.06, -2.0117311, 0.00007649123, -0.00008583811, -690927.8, -49834.04, 0.0, 10.000341, 9.929416 
3.775017e+3, 2.4450514e+2, -602603.2, -667002.6, -0.7974609, 0.00007654163, 0.00007614157, -602603.2, -58753.523, 0.0, 10.000342, 9.915976 
3.775017e+3, 2.5442123e+2, -503849.84, -568327.75, -1.5785006, 0.0000758626, -0.000104971004, -503849.84, -57177.918, 0.0, 10.000344, 9.915875 
3.775017e+3, 2.6433024e+2, -415615.1, -490976.2, -0.46677637, 0.000076251716, 0.00014237195, -415615.1, -66051.48, 0.0, 10.000345, 9.901802 
3.775017e+3, 2.742326e+2, -316330.13, -391364.28, -1.3148438, 0.0000780012, -0.00020206702, -316330.13, -63809.58, 0.0, 10.000347, 9.902222 
3.775017e+3, 2.841267e+2, -229856.63, -318073.34, -0.20229886, 0.00007887508, 0.00023018147, -229856.63, -74298.51, 0.0, 10.000348, 9.885274 
3.775017e+3, 2.9401302e+2, -130149.29, -217757.6, -1.1945705, 0.00007854499, -0.00025222963, -130149.29, -71477.14, 0.0, 10.00035, 9.886052 
3.775017e+3, 3.039273e+2, -40409.863, -84752.53, 0.2892306, 0.0000781224, 0.0001741443, -40409.863, -40409.863, 0.0, 10.000353, 9.942001 
3.775017e+3, 3.1387118e+2, -39327.88, -82512.48, -0.631198, 0.000077573415, -0.000054363136, -39327.88, -39327.88, 0.0, 10.000356, 9.943512 
3.7850174e+3, 1.2499702e+2, -1719546.4, -1724181.6, 0.19496983, 0.00007136189, 0.000043593544, -1719546.4, -4517.0757, 0.0, 10.000325, 9.99418 
3.7850174e+3, 1.3499106e+2, -1622156.3, -1627388.5, -0.20956823, 0.00007599975, -0.00011457583, -1622156.3, -5068.698, 0.0, 10.000332, 9.993396 
3.7850174e+3, 1.4497854e+2, -1534055.4, -1548114.0, -0.740678, 0.000077817334, 0.00011490275, -1534055.4, -14844.874, 0.0, 10.000339, 9.981705 
3.7850174e+3, 1.5496022e+2, -1436320.8, -1450786.9, -2.3749154, 0.00007679156, -0.000049372597, -1436320.8, -14930.93, 0.0, 10.000344, 9.9811735 
3.7850174e+3, 1.649353e+2, -1348263.9, -1371911.3, -4.8245635, 0.00007664452, 0.00004198801, -1348263.9, -24629.8, 0.0, 10.000347, 9.969092 
3.7850174e+3, 1.7490445e+2, -1250307.5, -1274270.9, -5.1254764, 0.00007739385, -0.00006823604, -1250307.5, -24371.021, 0.0, 10.000347, 9.968678 
3.7850174e+3, 1.8486695e+2, -1162231.9, -1195690.6, -3.6863768, 0.00007769716, 0.00007418396, -1162231.9, -33927.844, 0.0, 10.000347, 9.956234 
3.7850174e+3, 1.948232e+2, -1064083.5, -1097805.1, -3.8311763, 0.000077534176, -0.00005607278, -1064083.5, -33350.977, 0.0, 10.000347, 9.955891 
3.7850174e+3, 2.0477282e+2, -975918.06, -1019405.56, -2.9056957, 0.00007723902, 0.00006888322, -975918.06, -42691.652, 0.0, 10.000348, 9.9431305 
3.7850174e+3, 2.1471599e+2, -877630.4, -921380.94, -4.0317535, 0.0000768009, -0.00012065518, -877630.4, -41847.01, 0.0, 10.00035, 9.94279 
3.7850174e+3, 2.2465247e+2, -789345.25, -843120.8, -3.515258, 0.000076753575, 0.00012788663, -789345.25, -50939.324, 0.0, 10.000352, 9.929745 
3.785017e+3, 2.3458228e+2, -690911.06, -744943.06, -4.2087116, 0.00007714822, -0.000086105574, -690911.06, -49817.3, 0.0, 10.000353, 9.929414 
3.785017e+3, 2.4450512e+2, -602586.8, -666997.3, -3.0326333, 0.00007729305, 0.00007536179, -602586.8, -58737.113, 0.0, 10.000355, 9.915973 
3.785017e+3, 2.544212e+2, -503834.6, -568323.06, -4.0414915, 0.0000771392, -0.000105470885, -503834.6, -57162.61, 0.0, 10.000356, 9.915873 
3.785017e+3, 2.6433024e+2, -415600.16, -490971.53, -3.0301526, 0.00007777782, 0.00014199594, -415600.16, -66036.44, 0.0, 10.000357, 9.901799 
3.7850174e+3, 2.7423257e+2, -316314.78, -391359.44, -3.7714949, 0.00007942518, -0.00020251953, -316314.78, -63794.125, 0.0, 10.000359, 9.902219 
3.7850174e+3, 2.841267e+2, -229840.92, -318068.47, -2.0692291, 0.00008015754, 0.00022952036, -229840.92, -74282.664, 0.0, 10.0003605, 9.885272 
3.7850174e+3, 2.9401302e+2, -130133.14, -217752.56, -2.611449, 0.00007963366, -0.00025327914, -130133.14, -71460.82, 0.0, 10.000362, 9.88605 
3.7850174e+3, 3.039273e+2, -40393.93, -84748.24, -0.5524625, 0.000079093625, 0.00017317534, -40393.93, -40393.93, 0.0, 10.000365, 9.9419985 
3.7850174e+3, 3.1387118e+2, -39312.04, -82508.3, -1.350332, 0.000078541154, -0.000054553817, -39312.04, -39312.04, 0.0, 10.000368, 9.943509 
3.7950176e+3, 1.2499703e+2, -1719547.3, -1724183.4, 2.9776254, 0.00006537001, 0.00003666434, -1719547.3, -4518.069, 0.0, 10.000325, 9.994178 
3.7950176e+3, 1.3499108e+2, -1622157.3, -1627390.3, 2.571429, 0.00007773508, -0.000114031696, -1622157.3, -5069.773, 0.0, 10.000332, 9.993395 
3.7950176e+3, 1.4497855e+2, -1534059.0, -1548121.0, 1.2688382, 0.00008317442, 0.00011755524, -1534059.0, -14848.729, 0.0, 10.000339, 9.981701 
3.7950176e+3, 1.5496022e+2, -1436324.5, -1450793.9, -0.35805866, 0.000081645754, -0.000055049462, -1436324.5, -14934.647, 0.0, 10.000344, 9.981169 
3.7950176e+3, 1.649353e+2, -1348264.5, -1371912.5, -4.7809644, 0.000080253296, 0.00003480103, -1348264.5, -24630.486, 0.0, 10.000347, 9.969091 
3.7950176e+3, 1.7490445e+2, -1250308.1, -1274272.1, -5.089162, 0.0000789999, -0.000069978814, -1250308.1, -24371.707, 0.0, 10.000347, 9.9686775 
3.7950176e+3, 1.8486695e+2, -1162232.1, -1195691.3, -3.5943644, 0.000078509955, 0.00007385478, -1162232.1, -33928.242, 0.0, 10.000347, 9.956233 
3.7950176e+3, 1.948232e+2, -1064083.9, -1097805.8, -3.7366424, 0.00007881786, -0.000059201437, -1064083.9, -33351.344, 0.0, 10.000347, 9.955891 
3.7950176e+3, 2.0477282e+2, -975920.44, -1019410.25, -2.3039935, 0.00007836607, 0.00006574258, -975920.44, -42694.055, 0.0, 10.000348, 9.943128 
3.7950176e+3, 2.1471599e+2, -877632.75, -921385.7, -3.4201045, 0.0000770922, -0.000120791396, -877632.75, -41849.406, 0.0, 10.00035, 9.942786 
3.7950176e+3, 2.2465245e+2, -789346.75, -843123.9, -2.8871405, 0.00007679376, 0.00012880936, -789346.75, -50940.84, 0.0, 10.000352, 9.929743 
3.7950176e+3, 2.3458226e+2, -690912.56, -744946.06, -3.5803733, 0.00007759876, -0.000086325315, -690912.56, -49818.746, 0.0, 10.000353, 9.929412 
3.7950176e+3, 2.4450512e+2, -602589.0, -667001.75, -2.653601, 0.00007876743, 0.000074716016, -602589.0, -58739.227, 0.0, 10.000355, 9.91597 
3.7950176e+3, 2.544212e+2, -503836.78, -568327.5, -3.6742344, 0.00008036909, -0.000105685176, -503836.78, -57164.7, 0.0, 10.000356, 9.91587 
3.7950176e+3, 2.6433024e+2, -415601.9, -490975.06, -2.4990711, 0.000080791986, 0.00014184987, -415601.9, -66038.05, 0.0, 10.000357, 9.901797 
3.7950176e+3, 2.7423257e+2, -316316.47, -391362.9, -3.2292993, 0.00007971462, -0.00020306146, -316316.47, -63795.66, 0.0, 10.000359, 9.902217 
3.7950176e+3, 2.8412667e+2, -229842.4, -318071.53, -1.1555766, 0.00007911421, 0.00022854113, -229842.4, -74283.97, 0.0, 10.0003605, 9.88527 
3.7950176e+3, 2.94013e+2, -130134.586, -217755.58, -1.6647577, 0.00007917317, -0.00025475028, -130134.586, -71462.07, 0.0, 10.000362, 9.886048 
3.7950176e+3, 3.0392727e+2, -40395.977, -84752.51, 0.5902177, 0.00008000659, 0.0001713721, -40395.977, -40395.977, 0.0, 10.000365, 9.941996 
3.7950176e+3, 3.1387115e+2, -39314.164, -82512.72, -0.18438186, 0.000081982864, -0.000056450983, -39314.164, -39314.164, 0.0, 10.000368, 9.943505 
3.805018e+3, 1.2499703e+2, -1719514.1, -1724168.4, -10.36584, 0.00006361211, 0.000038433274, -1719514.0, -4484.824, 0.0, 10.000346, 9.994176 
3.805018e+3, 1.3499108e+2, -1622135.9, -1627381.8, -11.79753, 0.000078738965, -0.000107728396, -1622135.9, -5048.44, 0.0, 10.000347, 9.993393 
3.805018e+3, 1.4497854e+2, -1534042.9, -1548110.3, -11.403849, 0.000086043125, 0.00012402615, -1534042.9, -14832.547, 0.0, 10.000348, 9.981703 
3.805018e+3, 1.5496022e+2, -1436314.3, -1450786.3, -8.342958, 0.00008547848, -0.000057615944, -1436314.3, -14924.349, 0.0, 10.000349, 9.981171 
3.805018e+3, 1.649353e+2, -1348255.9, -1371906.6, -10.515459, 0.0000838056, 0.000029863724, -1348255.9, -24621.826, 0.0, 10.000352, 9.969092 
3.805018e+3, 1.7490445e+2, -1250295.6, -1274264.1, -9.367981, 0.000081002705, -0.0000704884, -1250295.6, -24359.217, 0.0, 10.000354, 9.968678 
3.805018e+3, 1.8486695e+2, -1162216.4, -1195681.8, -6.6351423, 0.000079562014, 0.00007422443, -1162216.4, -33912.39, 0.0, 10.000357, 9.956234 
3.805018e+3, 1.948232e+2, -1064065.0, -1097794.9, -5.6800275, 0.000079544974, -0.000061661696, -1064065.0, -33332.445, 0.0, 10.000359, 9.955892 
3.8050178e+3, 2.0477282e+2, -975903.6, -1019405.3, -3.6980872, 0.00007897473, 0.0000628774, -975903.6, -42677.22, 0.0, 10.0003605, 9.943125 
3.8050178e+3, 2.1471599e+2, -877616.5, -921381.1, -5.013013, 0.00007780569, -0.00012143735, -877616.5, -41833.125, 0.0, 10.000362, 9.942783 
3.8050178e+3, 2.2465245e+2, -789330.4, -843118.06, -4.716329, 0.000077665485, 0.00012922155, -789330.4, -50924.38, 0.0, 10.000363, 9.929741 
3.8050178e+3, 2.3458226e+2, -690897.1, -744940.75, -5.590774, 0.000078689, -0.000086169166, -690897.1, -49803.223, 0.0, 10.000364, 9.92941 
3.8050178e+3, 2.445051e+2, -602574.56, -666997.56, -4.8708286, 0.00008003845, 0.000074609234, -602574.56, -58724.66, 0.0, 10.000365, 9.915967 
3.8050178e+3, 2.544212e+2, -503822.44, -568323.5, -5.806264, 0.000081775805, -0.000106061685, -503822.44, -57150.21, 0.0, 10.000366, 9.915867 
3.8050178e+3, 2.643302e+2, -415586.63, -490969.94, -4.23461, 0.000082113605, 0.00014117174, -415586.63, -66022.62, 0.0, 10.000368, 9.901794 
3.8050178e+3, 2.7423254e+2, -316300.06, -391357.22, -4.8433676, 0.00008067044, -0.00020408188, -316300.06, -63779.074, 0.0, 10.00037, 9.902215 
3.805018e+3, 2.8412667e+2, -229825.7, -318065.9, -2.6462505, 0.00007991147, 0.00022742993, -229825.7, -74267.07, 0.0, 10.000372, 9.885267 
3.805018e+3, 2.9401296e+2, -130118.56, -217750.33, -3.3568199, 0.00008009664, -0.0002556081, -130118.56, -71445.81, 0.0, 10.000375, 9.886045 
3.805018e+3, 3.0392724e+2, -40381.26, -84748.445, -1.0208822, 0.00008116289, 0.0001708099, -40381.26, -40381.26, 0.0, 10.000377, 9.941993 
3.805018e+3, 3.1387112e+2, -39300.727, -82509.336, -1.6212542, 0.000083527506, -0.00005665824, -39300.727, -39300.727, 0.0, 10.000379, 9.943503 
3.8150182e+3, 1.2499701e+2, -1719517.4, -1724174.5, -10.27155, 0.00006605865, 0.000049015605, -1719517.4, -4487.8833, 0.0, 10.000346, 9.994172 
3.8150182e+3, 1.3499106e+2, -1622139.1, -1627387.9, -11.699403, 0.00007901665, -0.000095708696, -1622139.1, -5051.446, 0.0, 10.000347, 9.993389 
3.8150182e+3, 1.4497851e+2, -1534036.0, -1548097.1, -10.721527, 0.00008644092, 0.00013428688, -1534036.0, -14825.397, 0.0, 10.000348, 9.98171 
3.8150182e+3, 1.549602e+2, -1436307.4, -1450773.3, -7.668964, 0.00008829677, -0.0000570947, -1436307.4, -14917.321, 0.0, 10.000349, 9.981179 
3.8150182e+3, 1.6493529e+2, -1348253.4, -1371901.8, -9.525116, 0.00008730167, 0.000027159967, -1348253.4, -24619.092, 0.0, 10.000352, 9.969095 
3.8150182e+3, 1.7490444e+2, -1250293.1, -1274259.3, -8.3821945, 0.000083399405, -0.00006977373, -1250293.1, -24356.58, 0.0, 10.000354, 9.968681 
3.8150182e+3, 1.8486695e+2, -1162214.3, -1195677.9, -5.775916, 0.00008085168, 0.000075287855, -1162214.3, -33910.313, 0.0, 10.000357, 9.956237 
3.8150182e+3, 1.948232e+2, -1064063.0, -1097790.9, -4.8236823, 0.00007971956, -0.00006345823, -1064063.0, -33330.41, 0.0, 10.000359, 9.9558935 
3.8150182e+3, 2.0477282e+2, -975906.4, -1019410.7, -3.1860728, 0.00007906878, 0.00006028583, -975906.4, -42679.953, 0.0, 10.0003605, 9.943121 
3.8150182e+3, 2.1471597e+2, -877619.3, -921386.7, -4.506913, 0.000078938516, -0.0001225895, -877619.3, -41835.883, 0.0, 10.000362, 9.94278 
3.8150182e+3, 2.2465244e+2, -789332.3, -843121.8, -4.3052287, 0.00007936297, 0.00012912667, -789332.3, -50926.203, 0.0, 10.000363, 9.929739 
3.8150182e+3, 2.3458225e+2, -690899.0, -744944.44, -5.182834, 0.00008041453, -0.00008563989, -690899.0, -49804.977, 0.0, 10.000364, 9.929407 
3.8150182e+3, 2.4450509e+2, -602576.6, -667001.7, -4.502362, 0.0000811076, 0.000075037555, -602576.6, -58726.55, 0.0, 10.000365, 9.915964 
3.8150182e+3, 2.5442117e+2, -503824.47, -568327.56, -5.439931, 0.00008137216, -0.00010659933, -503824.47, -57152.047, 0.0, 10.000366, 9.915864 
3.8150182e+3, 2.6433018e+2, -415588.16, -490973.1, -3.4184272, 0.0000817546, 0.00013996522, -415588.16, -66023.96, 0.0, 10.000368, 9.901793 
3.8150182e+3, 2.742325e+2, -316301.56, -391360.28, -3.9970984, 0.00008228805, -0.00020557744, -316301.56, -63780.355, 0.0, 10.00037, 9.902213 
3.8150182e+3, 2.8412664e+2, -229827.56, -318069.72, -1.8411375, 0.00008253649, 0.00022618767, -229827.56, -74268.69, 0.0, 10.000372, 9.885265 
3.8150182e+3, 2.9401293e+2, -130120.43, -217754.2, -2.555181, 0.00008239443, -0.00025585698, -130120.43, -71447.42, 0.0, 10.000375, 9.886044 
3.8150182e+3, 3.039272e+2, -40383.082, -84752.234, -0.18174614, 0.00008256088, 0.00017147986, -40383.082, -40383.082, 0.0, 10.000377, 9.94199 
3.8150182e+3, 3.138711e+2, -39302.543, -82513.12, -0.778217, 0.000083188446, -0.000055187615, -39302.543, -39302.543, 0.0, 10.000379, 9.9435005 
3.8250187e+3, 1.24997005e+2, -1719491.8, -1724162.1, 0.8885312, 0.00007068312, 0.00004382973, -1719491.8, -4462.114, 0.0, 10.000363, 9.994171 
3.8250187e+3, 1.3499106e+2, -1622117.5, -1627377.8, 1.3855362, 0.00007991064, -0.00008832419, -1622117.5, -5029.783, 0.0, 10.0003605, 9.993387 
3.8250187e+3, 1.4497851e+2, -1534015.4, -1548084.3, 1.6436806, 0.000085899504, 0.00014370898, -1534015.4, -14804.731, 0.0, 10.00036, 9.981712 
3.8250187e+3, 1.5496019e+2, -1436289.6, -1450762.0, -0.15913548, 0.00008862639, -0.000060819148, -1436289.6, -14899.546, 0.0, 10.00036, 9.98118 
3.8250187e+3, 1.6493528e+2, -1348238.9, -1371895.5, -5.257235, 0.0000879906, 0.000019206722, -1348238.9, -24604.506, 0.0, 10.000361, 9.969094 
3.8250187e+3, 1.7490444e+2, -1250277.3, -1274252.5, -7.415077, 0.00008392591, -0.000072861716, -1250277.3, -24340.61, 0.0, 10.000365, 9.96868 
3.8250187e+3, 1.8486694e+2, -1162195.5, -1195666.5, -7.2090707, 0.00008138113, 0.00007448579, -1162195.5, -33891.52, 0.0, 10.000368, 9.956239 
3.8250184e+3, 1.9482319e+2, -1064044.4, -1097779.8, -7.067418, 0.0000804248, -0.00006467047, -1064044.4, -33311.84, 0.0, 10.00037, 9.955895 
3.8250184e+3, 2.047728e+2, -975891.5, -1019406.06, -5.938291, 0.00007991367, 0.000059220216, -975891.5, -42664.96, 0.0, 10.000372, 9.943118 
3.8250184e+3, 2.1471596e+2, -877604.9, -921382.5, -6.6573176, 0.00007988395, -0.00012290574, -877604.9, -41821.348, 0.0, 10.000373, 9.942777 
3.8250184e+3, 2.2465244e+2, -789317.75, -843117.25, -6.179499, 0.000080507874, 0.00012938783, -789317.75, -50911.54, 0.0, 10.000374, 9.929736 
3.8250184e+3, 2.3458223e+2, -690884.4, -744939.8, -7.0799513, 0.00008187083, -0.00008499609, -690884.4, -49790.168, 0.0, 10.000375, 9.929405 
3.8250184e+3, 2.4450508e+2, -602561.2, -666997.1, -6.2822056, 0.00008247109, 0.00007554084, -602561.2, -58710.97, 0.0, 10.000377, 9.915961 
3.8250184e+3, 2.5442114e+2, -503807.0, -568322.0, -7.3404064, 0.00008216024, -0.00010686076, -503807.0, -57134.395, 0.0, 10.00038, 9.915861 
3.8250184e+3, 2.6433018e+2, -415570.25, -490966.5, -5.530008, 0.0000824382, 0.00013927993, -415570.25, -66005.805, 0.0, 10.0003805, 9.901791 
3.8250187e+3, 2.742325e+2, -316286.47, -391355.1, -6.1152096, 0.00008346729, -0.00020625164, -316286.47, -63764.992, 0.0, 10.000381, 9.902211 
3.8250187e+3, 2.841266e+2, -229814.22, -318065.8, -3.5895267, 0.000084019295, 0.00022545007, -229814.22, -74255.07, 0.0, 10.000382, 9.8852625 
3.8250187e+3, 2.940129e+2, -130106.87, -217750.27, -4.1353755, 0.00008391525, -0.00025676194, -130106.87, -71433.57, 0.0, 10.000384, 9.886041 
3.8250187e+3, 3.0392718e+2, -40368.83, -84748.54, -1.4712094, 0.00008387384, 0.00017081945, -40368.83, -40368.83, 0.0, 10.000388, 9.941987 
3.8250187e+3, 3.1387106e+2, -39285.92, -82508.33, -2.2853658, 0.00008393103, -0.00005499126, -39285.92, -39285.92, 0.0, 10.000392, 9.943498 
3.8350192e+3, 1.2499699e+2, -1719490.5, -1724160.0, 0.053919468, 0.000077469565, 0.000023120503, -1719490.5, -4460.87, 0.0, 10.000363, 9.994172 
3.8350192e+3, 1.3499108e+2, -1622116.4, -1627375.6, 0.5502842, 0.00008141652, -0.00008553877, -1622116.4, -5028.746, 0.0, 10.0003605, 9.993389 
3.8350192e+3, 1.4497854e+2, -1534019.4, -1548092.0, 1.6315323, 0.00008442587, 0.00015230046, -1534019.4, -14808.933, 0.0, 10.00036, 9.981708 
3.8350192e+3, 1.5496019e+2, -1436293.6, -1450769.6, -0.1692659, 0.00008648562, -0.0000687573, -1436293.6, -14903.544, 0.0, 10.00036, 9.981175 
3.8350192e+3, 1.6493526e+2, -1348243.5, -1371904.6, -3.9229553, 0.000085893014, 0.0000060427014, -1348243.5, -24609.113, 0.0, 10.000361, 9.969089 
3.8350192e+3, 1.7490442e+2, -1250281.9, -1274261.4, -6.0717273, 0.00008259599, -0.000079724545, -1250281.9, -24345.148, 0.0, 10.000365, 9.968675 
3.8350192e+3, 1.8486692e+2, -1162195.4, -1195666.1, -6.3652835, 0.00008115598, 0.000071831695, -1162195.4, -33891.156, 0.0, 10.000368, 9.956239 
3.8350192e+3, 1.9482318e+2, -1064044.1, -1097779.1, -6.2308254, 0.000081656864, -0.00006530301, -1064044.1, -33311.453, 0.0, 10.00037, 9.955895 
3.8350192e+3, 2.0477279e+2, -975893.0, -1019409.06, -5.504871, 0.00008150395, 0.000059669113, -975893.0, -42666.39, 0.0, 10.000372, 9.943116 
3.8350192e+3, 2.1471596e+2, -877606.44, -921385.56, -6.2333274, 0.00008064338, -0.00012239226, -877606.44, -41822.766, 0.0, 10.000373, 9.942775 
3.8350192e+3, 2.2465242e+2, -789319.7, -843121.06, -5.7238054, 0.000081104234, 0.00013000242, -789319.7, -50913.3, 0.0, 10.000374, 9.929733 
3.8350192e+3, 2.3458222e+2, -690886.25, -744943.6, -6.623119, 0.000083059844, -0.00008423869, -690886.25, -49791.9, 0.0, 10.000375, 9.929402 
3.8350192e+3, 2.4450505e+2, -602563.5, -667001.7, -5.3982587, 0.000084126805, 0.00007611845, -602563.5, -58713.05, 0.0, 10.000377, 9.915958 
3.8350192e+3, 2.5442114e+2, -503809.28, -568326.6, -6.4362245, 0.00008413153, -0.0001068481, -503809.28, -57136.438, 0.0, 10.00038, 9.915858 
3.8350192e+3, 2.6433015e+2, -415571.8, -490969.66, -5.335301, 0.000084157, 0.00013911193, -415571.8, -66007.11, 0.0, 10.0003805, 9.901789 
3.8350192e+3, 2.7423248e+2, -316287.94, -391358.16, -5.968035, 0.00008421141, -0.00020611065, -316287.94, -63766.207, 0.0, 10.000381, 9.902208 
3.8350192e+3, 2.8412658e+2, -229815.81, -318069.13, -2.7664135, 0.000084368156, 0.00022521339, -229815.81, -74256.375, 0.0, 10.000382, 9.885261 
3.8350192e+3, 2.9401287e+2, -130108.46, -217753.6, -3.2507951, 0.00008466476, -0.00025831815, -130108.46, -71434.836, 0.0, 10.000384, 9.886039 
3.8350192e+3, 3.0392715e+2, -40371.047, -84753.16, -0.060562693, 0.000085102416, 0.0001688384, -40371.047, -40371.047, 0.0, 10.000388, 9.941984 
3.8350192e+3, 3.13871e+2, -39288.223, -82513.11, -0.8124892, 0.000085747524, -0.000056059962, -39288.223, -39288.223, 0.0, 10.000392, 9.943494 
3.8450196e+3, 1.24997e+2, -1719472.9, -1724149.5, -2.2640107, 0.000082591585, 0.000022617285, -1719472.9, -4443.2295, 0.0, 10.000374, 9.994173 
3.8450196e+3, 1.3499108e+2, -1622092.6, -1627361.9, -2.114735, 0.00008301215, -0.00007920967, -1622092.6, -5005.105, 0.0, 10.000375, 9.99339 
3.8450196e+3, 1.4497855e+2, -1533996.1, -1548084.4, -0.69813526, 0.000084150866, 0.00015942781, -1533996.1, -14785.804, 0.0, 10.000377, 9.981704 
3.8450196e+3, 1.5496019e+2, -1436269.0, -1450761.4, -2.0280285, 0.00008600401, -0.00007123321, -1436269.0, -14878.888, 0.0, 10.000378, 9.981172 
3.8450196e+3, 1.6493525e+2, -1348219.3, -1371896.4, -4.0360594, 0.000085146756, 0.0000006979754, -1348219.3, -24584.713, 0.0, 10.000379, 9.969085 
3.8450196e+3, 1.749044e+2, -1250260.0, -1274254.5, -4.9110036, 0.00008152602, -0.00008107089, -1250260.0, -24323.166, 0.0, 10.0003805, 9.968671 
3.8450196e+3, 1.8486692e+2, -1162173.6, -1195655.6, -5.554356, 0.00008065558, 0.00007170099, -1162173.6, -33869.37, 0.0, 10.000382, 9.956238 
3.8450196e+3, 1.9482318e+2, -1064025.9, -1097770.5, -6.201838, 0.00008265974, -0.00006712684, -1064025.9, -33293.047, 0.0, 10.000382, 9.955894 
3.8450196e+3, 2.0477277e+2, -975877.3, -1019404.2, -5.9835525, 0.00008305327, 0.00005765286, -975877.3, -42650.56, 0.0, 10.000383, 9.943113 
3.8450196e+3, 2.1471593e+2, -877589.06, -921379.9, -7.350242, 0.00008170382, -0.00012297698, -877589.06, -41805.24, 0.0, 10.000385, 9.942772 
3.8450196e+3, 2.246524e+2, -789301.44, -843114.5, -7.4254174, 0.00008198359, 0.00013047797, -789301.44, -50894.883, 0.0, 10.000387, 9.929731 
3.8450196e+3, 2.3458219e+2, -690868.8, -744937.5, -8.281178, 0.00008410664, -0.00008312341, -690868.8, -49774.24, 0.0, 10.000388, 9.9294 
3.8450196e+3, 2.4450503e+2, -602548.4, -666997.56, -6.9272394, 0.000085626045, 0.00007690108, -602548.4, -58697.69, 0.0, 10.000388, 9.915956 
3.8450196e+3, 2.5442111e+2, -503797.22, -568324.1, -8.058281, 0.00008642306, -0.00010755834, -503797.22, -57124.11, 0.0, 10.000389, 9.915855 
3.8450196e+3, 2.6433012e+2, -415558.97, -490965.7, -6.9338684, 0.0000863122, 0.00013778031, -415558.97, -65993.984, 0.0, 10.00039, 9.901787 
3.8450196e+3, 2.7423245e+2, -316271.28, -391352.22, -7.6018786, 0.000085048276, -0.00020695249, -316271.28, -63749.234, 0.0, 10.000393, 9.902206 
3.8450196e+3, 2.8412655e+2, -229797.22, -318061.97, -4.193382, 0.00008457655, 0.00022464118, -229797.22, -74237.46, 0.0, 10.000396, 9.885259 
3.8450196e+3, 2.9401284e+2, -130091.04, -217747.03, -4.3223, 0.00008519386, -0.00025892706, -130091.04, -71417.07, 0.0, 10.000398, 9.886037 
3.8450196e+3, 3.039271e+2, -40356.64, -84749.21, -0.56315756, 0.0000862885, 0.00016815607, -40356.64, -40356.64, 0.0, 10.000399, 9.941981 
3.8450196e+3, 3.1387097e+2, -39277.656, -82511.15, -0.96528023, 0.00008808077, -0.000056867353, -39277.656, -39277.656, 0.0, 10.000401, 9.943491 
3.8550198e+3, 1.2499701e+2, -1719472.5, -1724148.8, -1.6479992, 0.00008606183, 0.00004232466, -1719472.5, -4442.956, 0.0, 10.000374, 9.994173 
3.8550198e+3, 1.349911e+2, -1622092.3, -1627361.3, -1.4983511, 0.00008469696, -0.00006936491, -1622092.3, -5004.793, 0.0, 10.000375, 9.99339 
3.8550198e+3, 1.4497855e+2, -1533999.1, -1548090.0, -0.3396032, 0.00008506554, 0.00016510139, -1533999.1, -14788.814, 0.0, 10.000377, 9.9817 
3.8550198e+3, 1.5496019e+2, -1436272.0, -1450767.0, -1.6714417, 0.00008716909, -0.00006828907, -1436272.0, -14881.833, 0.0, 10.000378, 9.981168 
3.8550198e+3, 1.6493525e+2, -1348221.1, -1371900.0, -3.2531514, 0.00008574176, 0.0000031128102, -1348221.1, -24586.586, 0.0, 10.000379, 9.969082 
3.8550198e+3, 1.749044e+2, -1250261.9, -1274258.1, -4.128529, 0.000080714264, -0.00007694249, -1250261.9, -24325.0, 0.0, 10.0003805, 9.968669 
3.8550198e+3, 1.8486689e+2, -1162175.0, -1195658.4, -5.514042, 0.00007988217, 0.00007407488, -1162175.0, -33870.68, 0.0, 10.000382, 9.956236 
3.8550198e+3, 1.9482316e+2, -1064027.3, -1097773.1, -6.167059, 0.00008343516, -0.00007013271, -1064027.3, -33294.285, 0.0, 10.000382, 9.9558935 
3.8550198e+3, 2.0477276e+2, -975880.2, -1019409.8, -5.1386876, 0.000084561914, 0.00005319024, -975880.2, -42653.29, 0.0, 10.000383, 9.94311 
3.8550198e+3, 2.1471591e+2, -877592.0, -921385.56, -6.4884844, 0.00008306312, -0.00012465162, -877592.0, -41807.945, 0.0, 10.000385, 9.942769 
3.8550198e+3, 2.2465238e+2, -789303.3, -843118.2, -7.119342, 0.00008314399, 0.00013081546, -789303.3, -50896.535, 0.0, 10.000387, 9.9297285 
3.8550198e+3, 2.3458217e+2, -690870.6, -744941.1, -7.9936337, 0.00008501249, -0.00008165303, -690870.6, -49775.82, 0.0, 10.000388, 9.929398 
3.8550198e+3, 2.44505e+2, -602550.8, -667002.56, -6.7611895, 0.00008697007, 0.00007788714, -602550.8, -58699.91, 0.0, 10.000388, 9.915953 
3.8550198e+3, 2.544211e+2, -503799.7, -568329.1, -7.8967113, 0.00008903224, -0.000108986045, -503799.7, -57126.28, 0.0, 10.000389, 9.915853 
3.8550198e+3, 2.643301e+2, -415560.63, -490969.06, -5.859346, 0.00008890031, 0.00013529386, -415560.63, -65995.305, 0.0, 10.00039, 9.901784 
3.8550198e+3, 2.742324e+2, -316272.88, -391355.47, -6.4668818, 0.0000859773, -0.0002087698, -316272.84, -63750.46, 0.0, 10.000394, 9.9022045 
3.8550198e+3, 2.841265e+2, -229798.23, -318064.06, -3.545092, 0.000084645835, 0.00022373594, -229798.23, -74238.1, 0.0, 10.000396, 9.885257 
3.85502e+3, 2.940128e+2, -130091.984, -217749.0, -3.7193813, 0.000085504464, -0.00025859597, -130091.984, -71417.66, 0.0, 10.000398, 9.886036 
3.85502e+3, 3.0392706e+2, -40358.246, -84752.555, -0.059944343, 0.0000874325, 0.00016876253, -40358.246, -40358.246, 0.0, 10.000399, 9.941979 
3.85502e+3, 3.1387094e+2, -39279.34, -82514.664, -0.47356975, 0.000090926565, -0.000057415324, -39279.34, -39279.34, 0.0, 10.000401, 9.943489 
3.8650203e+3, 1.2499702e+2, -1719449.4, -1724135.9, -1.0131487, 0.00008994587, 0.00004528701, -1719449.4, -4419.868, 0.0, 10.000387, 9.994174 
3.8650203e+3, 1.349911e+2, -1622063.8, -1627345.5, -0.8435878, 0.000086543165, -0.00006620721, -1622063.8, -4976.2637, 0.0, 10.000393, 9.993391 
3.8650203e+3, 1.4497855e+2, -1533974.3, -1548082.1, -1.488356, 0.00008532091, 0.00016755925, -1533974.3, -14763.934, 0.0, 10.000394, 9.981695 
3.8650203e+3, 1.5496017e+2, -1436251.3, -1450761.4, -3.6651793, 0.00008628295, -0.00007152199, -1436251.3, -14861.004, 0.0, 10.000393, 9.981164 
3.8650203e+3, 1.6493523e+2, -1348202.8, -1371895.0, -5.615164, 0.000085050655, 0.00000008510397, -1348202.8, -24568.07, 0.0, 10.000393, 9.969078 
3.8650203e+3, 1.7490439e+2, -1250245.1, -1274254.1, -7.807044, 0.000081581326, -0.00007375306, -1250245.1, -24308.117, 0.0, 10.000394, 9.968664 
3.8650203e+3, 1.8486688e+2, -1162154.6, -1195647.5, -9.486262, 0.00008130456, 0.00007831741, -1162154.6, -33850.133, 0.0, 10.000395, 9.956236 
3.8650203e+3, 1.9482315e+2, -1064004.6, -1097761.3, -8.744921, 0.0000843647, -0.00007023506, -1064004.6, -33271.586, 0.0, 10.000397, 9.9558935 
3.8650203e+3, 2.0477274e+2, -975861.06, -1019403.75, -6.7682924, 0.00008566251, 0.000051325744, -975861.06, -42633.96, 0.0, 10.000398, 9.943107 
3.8650203e+3, 2.147159e+2, -877576.44, -921381.44, -7.9064374, 0.00008505326, -0.00012548344, -877576.44, -41792.19, 0.0, 10.000398, 9.942765 
3.8650203e+3, 2.2465235e+2, -789288.6, -843113.75, -8.569503, 0.00008528578, 0.0001312491, -789288.6, -50881.62, 0.0, 10.000398, 9.929727 
3.8650203e+3, 2.3458214e+2, -690855.0, -744936.25, -9.682372, 0.00008647113, -0.00007969189, -690855.0, -49759.98, 0.0, 10.0004, 9.929395 
3.8650203e+3, 2.4450497e+2, -602534.06, -666996.8, -8.385238, 0.00008809234, 0.00007943358, -602534.06, -58682.883, 0.0, 10.000401, 9.91595 
3.8650203e+3, 2.5442106e+2, -503781.97, -568322.94, -8.845685, 0.00009023295, -0.00011017303, -503781.97, -57108.246, 0.0, 10.0004015, 9.91585 
3.8650203e+3, 2.6433003e+2, -415543.4, -490963.28, -6.0155787, 0.000090197354, 0.0001327254, -415543.4, -65977.74, 0.0, 10.000403, 9.901782 
3.8650203e+3, 2.7423236e+2, -316257.88, -391350.84, -6.857715, 0.00008739242, -0.00021099477, -316257.88, -63735.105, 0.0, 10.000404, 9.902203 
3.8650203e+3, 2.8412646e+2, -229784.28, -318059.9, -4.6343217, 0.00008601708, 0.00022245948, -229784.28, -74223.77, 0.0, 10.000406, 9.885255 
3.8650203e+3, 2.9401278e+2, -130077.7, -217744.7, -5.6496515, 0.00008661018, -0.00025810426, -130077.7, -71402.984, 0.0, 10.000408, 9.886033 
3.8650203e+3, 3.0392703e+2, -40343.34, -84747.92, -2.4310997, 0.00008841575, 0.00017003118, -40343.34, -40343.34, 0.0, 10.00041, 9.941977 
3.8650206e+3, 3.1387088e+2, -39263.227, -82509.43, -2.7841039, 0.00009200188, -0.000056849512, -39263.227, -39263.227, 0.0, 10.000412, 9.943487 
3.8750204e+3, 1.24997005e+2, -1719449.0, -1724135.1, 0.9230426, 0.000094240335, 0.000031763393, -1719449.0, -4419.304, 0.0, 10.000387, 9.994174 
3.8750204e+3, 1.349911e+2, -1622063.4, -1627344.8, 1.0912912, 0.000088549794, -0.000069683345, -1622063.4, -4975.8403, 0.0, 10.000393, 9.993391 
3.8750204e+3, 1.4497855e+2, -1533979.1, -1548091.5, -2.0712574, 0.000084922474, 0.00016682704, -1533979.1, -14768.826, 0.0, 10.000394, 9.981689 
3.8750204e+3, 1.5496016e+2, -1436256.1, -1450770.6, -4.2512164, 0.00008336182, -0.00008088285, -1436256.1, -14865.711, 0.0, 10.000393, 9.981158 
3.8750204e+3, 1.6493522e+2, -1348207.5, -1371904.3, -5.19775, 0.00008308353, -0.000008342202, -1348207.5, -24572.693, 0.0, 10.000393, 9.969072 
3.8750204e+3, 1.7490438e+2, -1250249.9, -1274263.3, -7.381364, 0.000084113824, -0.00007149589, -1250249.9, -24312.693, 0.0, 10.000394, 9.968658 
3.8750204e+3, 1.8486686e+2, -1162153.0, -1195644.5, -8.902915, 0.000084905405, 0.000084413026, -1162153.0, -33848.367, 0.0, 10.000395, 9.956238 
3.8750204e+3, 1.9482312e+2, -1064003.0, -1097758.1, -8.164321, 0.00008544735, -0.00006745718, -1064003.0, -33269.79, 0.0, 10.000397, 9.955895 
3.8750204e+3, 2.0477273e+2, -975863.44, -1019408.44, -6.740031, 0.00008635848, 0.000052038813, -975863.44, -42636.18, 0.0, 10.000398, 9.943104 
3.8750204e+3, 2.1471587e+2, -877578.9, -921386.3, -7.8903856, 0.00008766926, -0.00012547908, -877578.9, -41794.42, 0.0, 10.000398, 9.942762 
3.8750204e+3, 2.2465234e+2, -789290.94, -843118.4, -8.056436, 0.00008840114, 0.0001317781, -789290.94, -50883.688, 0.0, 10.000398, 9.929724 
3.8750204e+3, 2.3458211e+2, -690857.3, -744940.8, -9.152694, 0.0000884782, -0.00007724399, -690857.3, -49761.996, 0.0, 10.0004, 9.929392 
3.8750204e+3, 2.4450494e+2, -602535.25, -666999.2, -7.9538684, 0.000088994726, 0.00008153585, -602535.25, -58683.76, 0.0, 10.000401, 9.915949 
3.8750204e+3, 2.54421e+2, -503783.1, -568325.2, -8.419623, 0.00009003658, -0.00011112117, -503783.1, -57109.03, 0.0, 10.0004015, 9.915849 
3.8750207e+3, 2.6433e+2, -415545.47, -490967.47, -5.4334507, 0.00009021375, 0.00013007571, -415545.47, -65979.45, 0.0, 10.000403, 9.901779 
3.8750207e+3, 2.7423233e+2, -316259.97, -391355.16, -6.264378, 0.000089289766, -0.00021362411, -316259.97, -63736.83, 0.0, 10.000404, 9.9022 
3.8750207e+3, 2.8412643e+2, -229786.78, -318065.03, -3.933543, 0.00008867986, 0.00022081469, -229786.78, -74225.87, 0.0, 10.000406, 9.885251 
3.8750207e+3, 2.9401273e+2, -130080.21, -217749.9, -4.9391403, 0.00008850464, -0.0002574534, -130080.21, -71405.055, 0.0, 10.000408, 9.88603 
3.8750207e+3, 3.0392697e+2, -40344.992, -84751.375, -1.6340762, 0.00008923961, 0.00017195652, -40344.992, -40344.992, 0.0, 10.00041, 9.941975 
3.8750207e+3, 3.1387085e+2, -39264.785, -82512.69, -1.9771955, 0.000091321075, -0.00005517903, -39264.785, -39264.785, 0.0, 10.000412, 9.943484 
3.885021e+3, 1.2499701e+2, -1719421.3, -1724120.8, 3.6712143, 0.00009598801, 0.00003654206, -1719421.3, -4391.5957, 0.0, 10.000404, 9.994174 
3.885021e+3, 1.349911e+2, -1622040.6, -1627333.3, 3.149298, 0.00009085499, -0.00006838668, -1622040.6, -4953.1255, 0.0, 10.000407, 9.993391 
3.885021e+3, 1.4497855e+2, -1533961.8, -1548089.0, -1.941795, 0.00008622587, 0.00016679613, -1533961.8, -14751.484, 0.0, 10.000408, 9.981684 
3.885021e+3, 1.5496016e+2, -1436235.5, -1450766.5, -4.179084, 0.00008209659, -0.00008392925, -1436235.5, -14845.012, 0.0, 10.000408, 9.981152 
3.885021e+3, 1.649352e+2, -1348184.9, -1371896.6, -4.0945582, 0.0000821684, -0.00001054771, -1348184.9, -24549.904, 0.0, 10.000408, 9.969069 
3.885021e+3, 1.7490436e+2, -1250230.0, -1274257.1, -4.708786, 0.00008652547, -0.00006892898, -1250230.0, -24292.717, 0.0, 10.000408, 9.968655 
3.885021e+3, 1.8486685e+2, -1162132.4, -1195634.9, -6.0085487, 0.00008809399, 0.000087397406, -1162132.4, -33827.56, 0.0, 10.000408, 9.956237 
3.885021e+3, 1.948231e+2, -1063982.5, -1097748.5, -7.448733, 0.00008674757, -0.00006860786, -1063982.5, -33249.05, 0.0, 10.00041, 9.955894 
3.885021e+3, 2.047727e+2, -975846.1, -1019403.8, -8.179686, 0.00008720873, 0.00004960877, -975846.1, -42618.66, 0.0, 10.00041, 9.9431 
3.885021e+3, 2.1471585e+2, -877563.6, -921382.8, -9.849823, 0.000089626184, -0.00012609853, -877563.6, -41778.88, 0.0, 10.000409, 9.942759 
3.885021e+3, 2.246523e+2, -789275.6, -843113.7, -9.411722, 0.00009076253, 0.00013229804, -789275.6, -50868.11, 0.0, 10.000409, 9.929721 
3.885021e+3, 2.3458208e+2, -690841.6, -744935.9, -10.266353, 0.000090449204, -0.00007634521, -690841.6, -49746.0, 0.0, 10.000411, 9.92939 
3.885021e+3, 2.4450491e+2, -602518.4, -666992.8, -9.132565, 0.000090329464, 0.000082193634, -602518.4, -58666.56, 0.0, 10.000413, 9.915947 
3.885021e+3, 2.5442097e+2, -503765.38, -568318.44, -9.896945, 0.00009044234, -0.000111443595, -503765.38, -57090.977, 0.0, 10.000414, 9.915847 
3.885021e+3, 2.6432997e+2, -415528.13, -490961.47, -6.9940734, 0.00009063999, 0.00012906287, -415528.13, -65961.75, 0.0, 10.000416, 9.901777 
3.885021e+3, 2.7423227e+2, -316243.78, -391349.8, -7.4568186, 0.00009094486, -0.00021495711, -316243.78, -63720.266, 0.0, 10.000417, 9.902197 
3.885021e+3, 2.8412637e+2, -229771.77, -318061.38, -4.604104, 0.00009080479, 0.0002195785, -229771.77, -74210.44, 0.0, 10.000418, 9.885248 
3.8850212e+3, 2.940127e+2, -130064.9, -217746.23, -5.517888, 0.00009005542, -0.00025802408, -130064.9, -71389.29, 0.0, 10.000421, 9.886026 
3.8850212e+3, 3.0392694e+2, -40328.81, -84746.29, -2.1360514, 0.000090000045, 0.00017198928, -40328.81, -40328.81, 0.0, 10.0004225, 9.941972 
3.8850212e+3, 3.138708e+2, -39248.246, -82507.31, -2.5786994, 0.00009098027, -0.000054640623, -39248.246, -39248.246, 0.0, 10.000424, 9.943482 
3.8950214e+3, 1.24997035e+2, -1719422.4, -1724123.0, 4.4689374, 0.000095209834, 0.00005957474, -1719422.4, -4392.92, 0.0, 10.000404, 9.994173 
3.8950214e+3, 1.3499111e+2, -1622041.8, -1627335.5, 3.947713, 0.00009345623, -0.00006235625, -1622041.8, -4954.3657, 0.0, 10.000407, 9.993389 
3.8950214e+3, 1.4497855e+2, -1533966.9, -1548098.5, -1.7447554, 0.00008921703, 0.00016746057, -1533966.9, -14756.522, 0.0, 10.000408, 9.981678 
3.8950214e+3, 1.5496014e+2, -1436240.5, -1450775.9, -3.9814737, 0.00008247377, -0.000080713384, -1436240.5, -14849.939, 0.0, 10.000408, 9.981146 
3.8950214e+3, 1.649352e+2, -1348186.3, -1371899.3, -4.327677, 0.000082296836, -0.000006582481, -1348186.3, -24551.191, 0.0, 10.000408, 9.969068 
3.8950214e+3, 1.7490435e+2, -1250231.4, -1274259.8, -4.944427, 0.00008881741, -0.000066054, -1250231.4, -24293.953, 0.0, 10.000408, 9.968654 
3.8950214e+3, 1.8486683e+2, -1162135.5, -1195640.8, -5.4443274, 0.00009087378, 0.00008729706, -1162135.5, -33830.484, 0.0, 10.000408, 9.956233 
3.8950214e+3, 1.9482309e+2, -1063985.6, -1097754.5, -6.8732224, 0.00008826368, -0.00007365453, -1063985.6, -33251.9, 0.0, 10.00041, 9.955891 
3.8950214e+3, 2.0477267e+2, -975849.7, -1019410.75, -8.601487, 0.0000882121, 0.000044061326, -975849.7, -42621.94, 0.0, 10.00041, 9.943096 
3.8950214e+3, 2.1471582e+2, -877567.1, -921389.7, -10.289967, 0.00009092953, -0.00012733683, -877567.1, -41782.1, 0.0, 10.000409, 9.942754 
3.8950214e+3, 2.2465226e+2, -789277.56, -843117.44, -8.800186, 0.00009237617, 0.00013280884, -789277.56, -50869.72, 0.0, 10.000409, 9.929718 
3.8950214e+3, 2.3458205e+2, -690843.44, -744939.56, -9.620231, 0.000092384485, -0.00007698284, -690843.44, -49747.508, 0.0, 10.000411, 9.929387 
3.8950214e+3, 2.4450488e+2, -602520.1, -666996.3, -8.476606, 0.00009209306, 0.000081418744, -602520.1, -58667.93, 0.0, 10.000413, 9.915944 
3.8950214e+3, 2.5442094e+2, -503767.06, -568321.9, -9.242644, 0.000091445334, -0.00011114566, -503767.06, -57092.31, 0.0, 10.000414, 9.915844 
3.8950214e+3, 2.6432994e+2, -415529.53, -490964.34, -6.645266, 0.00009147276, 0.0001296732, -415529.53, -65962.766, 0.0, 10.000416, 9.901775 
3.8950214e+3, 2.7423224e+2, -316245.16, -391352.63, -7.128643, 0.00009235978, -0.00021500455, -316245.16, -63721.23, 0.0, 10.000417, 9.902195 
3.8950214e+3, 2.8412634e+2, -229774.1, -318066.2, -3.818711, 0.00009239641, 0.00021874756, -229774.1, -74212.33, 0.0, 10.000418, 9.885245 
3.8950214e+3, 2.9401264e+2, -130067.27, -217751.17, -4.690098, 0.000091265494, -0.00025980614, -130067.27, -71391.195, 0.0, 10.000421, 9.8860235 
3.8950214e+3, 3.039269e+2, -40330.633, -84750.1, -1.260905, 0.000090697686, 0.0001701452, -40330.633, -40330.633, 0.0, 10.0004225, 9.941969 
3.8950217e+3, 3.1387073e+2, -39250.01, -82510.99, -1.6985921, 0.00009097664, -0.000055224886, -39250.01, -39250.01, 0.0, 10.000424, 9.94348 
3.9050218e+3, 1.24997035e+2, -1719393.3, -1724108.5, -0.45399687, 0.000095798496, 0.00006674305, -1719393.3, -4363.709, 0.0, 10.000423, 9.994171 
3.9050218e+3, 1.3499111e+2, -1622021.6, -1627325.9, -0.716076, 0.00009557507, -0.000062935585, -1622021.6, -4934.2373, 0.0, 10.00042, 9.993388 
3.9050218e+3, 1.4497854e+2, -1533953.4, -1548097.4, -5.2287316, 0.00009159494, 0.00016567708, -1533953.4, -14742.9375, 0.0, 10.00042, 9.981672 
3.9050218e+3, 1.5496013e+2, -1436223.9, -1450773.3, -6.977377, 0.000083833576, -0.00008074652, -1436223.9, -14833.232, 0.0, 10.000422, 9.981141 
3.9050218e+3, 1.6493519e+2, -1348165.9, -1371890.8, -8.11827, 0.00008349666, -0.000004846882, -1348165.9, -24530.654, 0.0, 10.0004225, 9.969065 
3.9050218e+3, 1.7490433e+2, -1250212.0, -1274251.9, -8.985051, 0.000090732385, -0.000062532694, -1250212.0, -24274.441, 0.0, 10.000422, 9.968652 
3.9050218e+3, 1.8486682e+2, -1162118.0, -1195634.5, -8.453351, 0.00009322635, 0.00008999637, -1162118.0, -33812.855, 0.0, 10.000421, 9.956231 
3.9050218e+3, 1.9482306e+2, -1063970.1, -1097749.4, -8.8690195, 0.00009076369, -0.00007450356, -1063970.1, -33236.273, 0.0, 10.000422, 9.955888 
3.9050218e+3, 2.0477265e+2, -975834.4, -1019406.44, -9.993055, 0.00009035633, 0.00004256688, -975834.4, -42606.336, 0.0, 10.000422, 9.943092 
3.9050218e+3, 2.147158e+2, -877548.56, -921383.8, -10.739623, 0.00009217347, -0.0001263358, -877548.56, -41763.273, 0.0, 10.0004225, 9.942751 
3.9050218e+3, 2.2465223e+2, -789257.25, -843109.56, -8.171515, 0.00009348141, 0.00013399175, -789257.25, -50849.09, 0.0, 10.000423, 9.929716 
3.9050218e+3, 2.3458202e+2, -690824.7, -744932.5, -8.771558, 0.00009421258, -0.00007823631, -690824.7, -49728.43, 0.0, 10.000424, 9.929385 
3.9050218e+3, 2.4450484e+2, -602503.3, -666991.8, -7.7933483, 0.00009396151, 0.00007939586, -602503.3, -58650.805, 0.0, 10.000425, 9.915941 
3.9050218e+3, 2.544209e+2, -503750.53, -568317.6, -9.549757, 0.00009253848, -0.00011194541, -503750.53, -57075.38, 0.0, 10.000427, 9.915841 
3.9050218e+3, 2.6432985e+2, -415512.1, -490958.03, -7.8881035, 0.00009223737, 0.00012965701, -415512.1, -65944.91, 0.0, 10.000428, 9.9017725 
3.9050218e+3, 2.742322e+2, -316227.9, -391346.38, -8.523772, 0.00009336609, -0.00021480095, -316227.9, -63703.543, 0.0, 10.000429, 9.902193 
3.9050218e+3, 2.8412628e+2, -229757.6, -318060.84, -4.6467776, 0.00009356379, 0.00021846843, -229757.6, -74195.375, 0.0, 10.00043, 9.885242 
3.9050218e+3, 2.9401258e+2, -130051.57, -217746.33, -4.8877525, 0.000092480936, -0.00026152655, -130051.57, -71375.0, 0.0, 10.000432, 9.886021 
3.9050218e+3, 3.0392683e+2, -40315.72, -84745.99, -1.0771174, 0.00009180883, 0.00016841874, -40315.72, -40315.72, 0.0, 10.000434, 9.941967 
3.9050218e+3, 3.1387067e+2, -39235.246, -82506.99, -1.7296236, 0.00009175839, -0.000054817876, -39235.246, -39235.246, 0.0, 10.000436, 9.943477 
3.9150223e+3, 1.2499702e+2, -1719393.8, -1724109.6, -1.715238, 0.00009774229, 0.00005827155, -1719393.8, -4364.0938, 0.0, 10.000423, 9.994171 
3.9150223e+3, 1.349911e+2, -1622022.3, -1627327.0, -1.9798515, 0.00009721561, -0.00007006876, -1622022.3, -4934.6685, 0.0, 10.00042, 9.993387 
3.9150223e+3, 1.4497851e+2, -1533957.3, -1548104.8, -4.272965, 0.00009336476, 0.00016146587, -1533957.3, -14746.717, 0.0, 10.00042, 9.9816675 
3.9150223e+3, 1.5496011e+2, -1436227.8, -1450780.6, -6.0224977, 0.00008616763, -0.000084001054, -1436227.8, -14836.911, 0.0, 10.000422, 9.981136 
3.9150223e+3, 1.6493516e+2, -1348167.9, -1371894.5, -8.552002, 0.00008575873, -0.0000053221324, -1348167.9, -24532.336, 0.0, 10.0004225, 9.969063 
3.9150223e+3, 1.7490432e+2, -1250213.9, -1274255.5, -9.424126, 0.000092273665, -0.000058371497, -1250213.9, -24276.105, 0.0, 10.000422, 9.968649 
3.9150223e+3, 1.848668e+2, -1162119.0, -1195636.4, -8.342644, 0.00009515535, 0.00009547052, -1162119.0, -33813.563, 0.0, 10.000421, 9.95623 
3.9150223e+3, 1.9482304e+2, -1063971.1, -1097751.1, -8.757314, 0.00009423913, -0.0000711912, -1063971.0, -33236.94, 0.0, 10.000422, 9.955887 
3.9150223e+3, 2.047726e+2, -975835.9, -1019409.44, -9.631296, 0.00009363162, 0.000045090805, -975835.9, -42607.61, 0.0, 10.000422, 9.94309 
3.9150223e+3, 2.1471576e+2, -877550.06, -921386.8, -10.37583, 0.00009335868, -0.00012311444, -877550.06, -41764.523, 0.0, 10.0004225, 9.942749 
3.9150223e+3, 2.246522e+2, -789258.7, -843112.44, -7.897365, 0.00009408278, 0.00013584124, -789258.7, -50850.242, 0.0, 10.000423, 9.929714 
3.9150223e+3, 2.3458199e+2, -690826.1, -744935.3, -8.49801, 0.000095934476, -0.00008010014, -690826.1, -49729.53, 0.0, 10.000424, 9.929383 
3.9150223e+3, 2.4450481e+2, -602506.94, -666999.1, -7.175589, 0.000095933974, 0.00007613579, -602506.94, -58654.082, 0.0, 10.000425, 9.915936 
3.9150223e+3, 2.5442085e+2, -503754.22, -568325.1, -8.915528, 0.000093721115, -0.00011383343, -503754.22, -57078.664, 0.0, 10.000427, 9.915835 
3.9150223e+3, 2.6432982e+2, -415513.88, -490961.66, -7.57729, 0.00009293453, 0.00012901965, -415513.88, -65946.234, 0.0, 10.000428, 9.901771 
3.9150223e+3, 2.7423215e+2, -316229.53, -391349.7, -8.235125, 0.000093967385, -0.00021434859, -316229.53, -63704.71, 0.0, 10.000429, 9.902191 
3.9150223e+3, 2.8412625e+2, -229758.89, -318063.53, -4.0206184, 0.00009431062, 0.00021873626, -229758.89, -74196.195, 0.0, 10.00043, 9.885241 
3.9150223e+3, 2.9401255e+2, -130052.81, -217748.92, -4.231084, 0.00009370173, -0.0002631858, -130052.81, -71375.75, 0.0, 10.000432, 9.886019 
3.9150223e+3, 3.0392677e+2, -40317.82, -84750.36, -0.24851584, 0.00009332996, 0.00016680891, -40317.82, -40317.82, 0.0, 10.000434, 9.941963 
3.9150223e+3, 3.1387064e+2, -39237.45, -82511.58, -0.88206714, 0.000093318784, -0.000053428183, -39237.45, -39237.45, 0.0, 10.000436, 9.943474 
3.9250228e+3, 1.2499703e+2, -1719368.8, -1724098.9, 5.242436, 0.00009802202, 0.000060963437, -1719368.8, -4339.135, 0.0, 10.00044, 9.994168 
3.9250228e+3, 1.3499108e+2, -1621999.4, -1627317.5, 3.728657, 0.000097763026, -0.00007171599, -1621999.4, -4911.7905, 0.0, 10.000435, 9.993385 
3.9250228e+3, 1.4497851e+2, -1533939.6, -1548103.3, 2.3699903, 0.00009499241, 0.00016001523, -1533939.6, -14729.083, 0.0, 10.000434, 9.981661 
3.9250228e+3, 1.549601e+2, -1436211.3, -1450779.6, -0.96520644, 0.0000896922, -0.00008407826, -1436211.3, -14820.24, 0.0, 10.000436, 9.98113 
3.9250228e+3, 1.6493514e+2, -1348146.8, -1371885.0, -5.089475, 0.0000894093, -0.000003962144, -1348146.8, -24511.14, 0.0, 10.000437, 9.969062 
3.9250228e+3, 1.749043e+2, -1250191.9, -1274245.5, -5.2804227, 0.00009424431, -0.000055511606, -1250191.9, -24253.906, 0.0, 10.000436, 9.968648 
3.9250228e+3, 1.8486677e+2, -1162099.4, -1195630.9, -4.7058177, 0.0000968411, 0.00009682229, -1162099.4, -33793.773, 0.0, 10.000436, 9.956225 
3.9250228e+3, 1.9482301e+2, -1063952.8, -1097746.5, -7.450126, 0.00009709818, -0.00007449257, -1063952.8, -33218.44, 0.0, 10.000435, 9.955883 
3.9250228e+3, 2.0477258e+2, -975817.44, -1019404.4, -9.678247, 0.00009640661, 0.00004179038, -975817.44, -42588.867, 0.0, 10.000436, 9.943087 
3.9250228e+3, 2.1471573e+2, -877530.44, -921381.2, -11.856377, 0.00009468891, -0.00012137821, -877530.44, -41744.61, 0.0, 10.000437, 9.942745 
3.9250228e+3, 2.2465217e+2, -789236.5, -843101.8, -10.064194, 0.00009485069, 0.0001388178, -789236.5, -50827.77, 0.0, 10.000438, 9.929713 
3.9250228e+3, 2.3458193e+2, -690805.2, -744925.3, -9.676639, 0.00009713871, -0.00008017953, -690805.2, -49708.293, 0.0, 10.000438, 9.929382 
3.9250228e+3, 2.4450476e+2, -602490.25, -666996.0, -7.3804855, 0.00009736066, 0.000074473435, -602490.25, -58636.977, 0.0, 10.000439, 9.915932 
3.9250228e+3, 2.5442082e+2, -503738.25, -568322.6, -9.076217, 0.00009511382, -0.00011531586, -503738.25, -57062.28, 0.0, 10.00044, 9.915831 
3.9250228e+3, 2.6432976e+2, -415496.3, -490955.9, -8.014405, 0.00009406849, 0.00012806158, -415496.3, -65928.24, 0.0, 10.000442, 9.901768 
3.9250228e+3, 2.7423212e+2, -316211.38, -391343.53, -8.9177475, 0.00009455729, -0.00021434842, -316211.38, -63686.08, 0.0, 10.0004425, 9.902188 
3.9250228e+3, 2.841262e+2, -229740.39, -318056.34, -4.7059293, 0.00009480593, 0.00021893575, -229740.39, -74177.21, 0.0, 10.000443, 9.885239 
3.925023e+3, 2.940125e+2, -130035.63, -217742.38, -4.8580923, 0.00009471866, -0.00026382733, -130035.63, -71358.06, 0.0, 10.000444, 9.886017 
3.925023e+3, 3.0392674e+2, -40303.66, -84747.55, -0.9418667, 0.00009485802, 0.00016623466, -40303.66, -40303.66, 0.0, 10.000445, 9.94196 
3.925023e+3, 3.1387058e+2, -39225.258, -82509.97, -2.0951355, 0.00009533637, -0.00005257721, -39225.258, -39225.258, 0.0, 10.000446, 9.94347 
3.9350232e+3, 1.2499705e+2, -1719372.3, -1724105.4, 3.4987278, 0.00009665267, 0.00007484368, -1719372.3, -4342.8394, 0.0, 10.00044, 9.994164 
3.9350232e+3, 1.349911e+2, -1622002.9, -1627324.0, 1.982801, 0.0000972272, -0.00006792511, -1622002.9, -4915.358, 0.0, 10.000435, 9.9933815 
3.9350232e+3, 1.4497851e+2, -1533947.1, -1548117.4, 3.076681, 0.00009647909, 0.00016130148, -1533947.1, -14736.6455, 0.0, 10.000434, 9.981652 
3.9350232e+3, 1.549601e+2, -1436218.6, -1450793.8, -0.2534054, 0.00009439656, -0.000081005935, -1436218.6, -14827.637, 0.0, 10.000436, 9.981121 
3.9350232e+3, 1.6493514e+2, -1348147.1, -1371885.8, -5.2734203, 0.00009443606, -0.0000007826705, -1348147.1, -24511.46, 0.0, 10.000437, 9.969061 
3.9350232e+3, 1.7490429e+2, -1250192.3, -1274246.3, -5.47037, 0.000096640644, -0.000053940425, -1250192.3, -24254.19, 0.0, 10.000436, 9.968647 
3.9350232e+3, 1.8486676e+2, -1162105.3, -1195642.4, -4.9016757, 0.00009828589, 0.000094089286, -1162105.3, -33799.527, 0.0, 10.000436, 9.956219 
3.9350232e+3, 1.9482298e+2, -1063958.8, -1097758.0, -7.6410832, 0.000099346384, -0.000084348605, -1063958.8, -33224.06, 0.0, 10.000435, 9.955875 
3.9350232e+3, 2.0477255e+2, -975822.0, -1019413.4, -9.019561, 0.00009868579, 0.000032717173, -975822.0, -42593.145, 0.0, 10.000436, 9.943081 
3.9350232e+3, 2.147157e+2, -877535.0, -921390.1, -11.17979, 0.00009616302, -0.00012111431, -877535.0, -41748.805, 0.0, 10.000438, 9.9427395 
3.9350232e+3, 2.2465214e+2, -789236.06, -843100.9, -10.060274, 0.00009578382, 0.00014291106, -789236.06, -50826.953, 0.0, 10.000438, 9.929714 
3.9350232e+3, 2.345819e+2, -690804.56, -744924.06, -9.69653, 0.00009783, -0.00007849051, -690804.56, -49707.332, 0.0, 10.000438, 9.929383 
3.9350232e+3, 2.4450473e+2, -602493.7, -667003.0, -6.905718, 0.000098246484, 0.000074394586, -602493.7, -58640.11, 0.0, 10.000439, 9.915927 
3.9350232e+3, 2.544208e+2, -503741.9, -568330.0, -8.577268, 0.00009671475, -0.00011639631, -503741.9, -57065.504, 0.0, 10.00044, 9.915826 
3.9350232e+3, 2.6432973e+2, -415498.53, -490960.4, -7.5628376, 0.000095635405, 0.00012678566, -415498.53, -65929.98, 0.0, 10.000442, 9.901765 
3.9350232e+3, 2.7423206e+2, -316213.44, -391347.78, -8.469893, 0.000095136034, -0.00021479641, -316213.44, -63687.668, 0.0, 10.0004425, 9.902185 
3.9350232e+3, 2.8412613e+2, -229741.64, -318058.94, -4.3623104, 0.000095052106, 0.00021906746, -229741.64, -74177.95, 0.0, 10.000443, 9.885238 
3.9350232e+3, 2.9401243e+2, -130036.79, -217744.78, -4.5253053, 0.000095533695, -0.0002634602, -130036.79, -71358.7, 0.0, 10.000444, 9.886016 
3.9350235e+3, 3.0392668e+2, -40306.65, -84753.766, -0.56732506, 0.00009639302, 0.00016668678, -40306.65, -40306.65, 0.0, 10.000445, 9.941956 
3.9350235e+3, 3.1387052e+2, -39228.46, -82516.64, -1.7139953, 0.00009780695, -0.00005226028, -39228.46, -39228.46, 0.0, 10.000446, 9.943465 
3.9450234e+3, 1.24997064e+2, -1719351.5, -1724100.6, 0.28162137, 0.00009431708, 0.00007561684, -1719351.5, -4322.191, 0.0, 10.000456, 9.994159 
3.9450234e+3, 1.349911e+2, -1621976.0, -1627316.0, -2.293054, 0.00009714071, -0.000070569135, -1621976.0, -4888.552, 0.0, 10.000455, 9.993376 
3.9450234e+3, 1.4497851e+2, -1533921.9, -1548113.0, -0.22996879, 0.00009867482, 0.00015919996, -1533921.9, -14711.39, 0.0, 10.000454, 9.981645 
3.9450234e+3, 1.549601e+2, -1436198.8, -1450792.1, -2.753206, 0.000098908175, -0.00008169401, -1436198.8, -14807.638, 0.0, 10.000452, 9.981113 
3.9450234e+3, 1.6493513e+2, -1348124.0, -1371875.3, -7.850868, 0.00009889864, 0.00000006570512, -1348124.0, -24488.186, 0.0, 10.000452, 9.96906 
3.9450234e+3, 1.7490427e+2, -1250167.9, -1274235.1, -8.765852, 0.000098642326, -0.00005143332, -1250167.9, -24229.738, 0.0, 10.000452, 9.968646 
3.9450234e+3, 1.8486674e+2, -1162082.3, -1195635.5, -7.5735598, 0.00009943322, 0.00009492018, -1162082.3, -33776.45, 0.0, 10.000452, 9.956214 
3.9450234e+3, 1.9482295e+2, -1063934.9, -1097750.8, -8.209607, 0.000101318714, -0.000088681016, -1063934.9, -33199.96, 0.0, 10.000452, 9.955871 
3.9450237e+3, 2.0477252e+2, -975799.8, -1019408.1, -8.003742, 0.00010071789, 0.000028085009, -975799.8, -42570.633, 0.0, 10.000452, 9.943076 
3.9450237e+3, 2.1471567e+2, -877515.9, -921386.44, -9.890006, 0.000097426666, -0.000120784025, -877515.9, -41729.33, 0.0, 10.000452, 9.942734 
3.9450237e+3, 2.2465211e+2, -789214.4, -843090.4, -9.264185, 0.000096558826, 0.00014528405, -789214.4, -50804.918, 0.0, 10.000452, 9.929713 
3.9450237e+3, 2.3458187e+2, -690782.25, -744913.1, -9.753674, 0.00009843326, -0.00007738007, -690782.25, -49684.65, 0.0, 10.000453, 9.929383 
3.9450237e+3, 2.4450469e+2, -602474.56, -666998.4, -7.005631, 0.00009896984, 0.00007415238, -602474.56, -58620.563, 0.0, 10.000453, 9.915922 
3.9450237e+3, 2.5442073e+2, -503723.66, -568326.06, -8.474771, 0.000097906246, -0.000118095355, -503723.66, -57046.832, 0.0, 10.000454, 9.915822 
3.9450237e+3, 2.6432967e+2, -415480.22, -490954.9, -7.564903, 0.00009698049, 0.00012479848, -415480.22, -65911.2, 0.0, 10.000455, 9.901762 
3.9450237e+3, 2.74232e+2, -316196.38, -391342.88, -8.707716, 0.00009623379, -0.000215585, -316196.38, -63670.09, 0.0, 10.000455, 9.902183 
3.9450237e+3, 2.841261e+2, -229725.11, -318053.63, -5.0452757, 0.00009614904, 0.00021934506, -229725.11, -74160.914, 0.0, 10.000456, 9.885235 
3.9450237e+3, 2.9401237e+2, -130020.94, -217739.8, -5.859432, 0.00009696897, -0.00026230438, -130020.94, -71342.32, 0.0, 10.000456, 9.886013 
3.9450237e+3, 3.0392662e+2, -40292.02, -84750.53, -1.8615128, 0.00009796847, 0.0001677042, -40292.02, -40292.02, 0.0, 10.000457, 9.941953 
3.945024e+3, 3.1387046e+2, -39213.945, -82513.586, -2.2595315, 0.000099225144, -0.000052888943, -39213.945, -39213.945, 0.0, 10.000458, 9.943462 
3.955024e+3, 1.2499706e+2, -1719357.4, -1724111.6, -0.014699085, 0.00009102363, 0.000063537635, -1719357.4, -4328.119, 0.0, 10.000456, 9.994152 
3.955024e+3, 1.349911e+2, -1621981.9, -1627327.0, -2.5893342, 0.00009749955, -0.0000795892, -1621981.9, -4894.3647, 0.0, 10.000455, 9.993369 
3.955024e+3, 1.449785e+2, -1533927.6, -1548123.8, -0.7508137, 0.000101573496, 0.00015374112, -1533927.6, -14716.989, 0.0, 10.000454, 9.981638 
3.955024e+3, 1.5496008e+2, -1436204.4, -1450802.9, -3.2684586, 0.000103228995, -0.000086108244, -1436204.4, -14813.114, 0.0, 10.000452, 9.981107 
3.955024e+3, 1.649351e+2, -1348126.0, -1371879.1, -7.7238226, 0.00010280226, -0.0000013959544, -1348126.0, -24489.984, 0.0, 10.000452, 9.969057 
3.955024e+3, 1.7490426e+2, -1250169.9, -1274238.9, -8.637752, 0.00010025307, -0.000047999714, -1250169.9, -24231.5, 0.0, 10.000452, 9.968643 
3.955024e+3, 1.8486673e+2, -1162083.8, -1195638.3, -7.498309, 0.000100285964, 0.00009928144, -1162083.8, -33777.668, 0.0, 10.000452, 9.956212 
3.955024e+3, 1.9482294e+2, -1063936.3, -1097753.5, -8.136729, 0.00010301796, -0.00008754084, -1063936.3, -33201.13, 0.0, 10.000452, 9.95587 
3.955024e+3, 2.0477249e+2, -975803.8, -1019415.9, -8.050638, 0.00010250543, 0.000027853239, -975803.8, -42574.355, 0.0, 10.000452, 9.94307 
3.955024e+3, 2.1471563e+2, -877519.8, -921394.3, -9.937899, 0.00009848188, -0.00012038767, -877519.8, -41732.996, 0.0, 10.000452, 9.942729 
3.955024e+3, 2.2465207e+2, -789215.56, -843092.8, -9.126473, 0.000097177195, 0.00014595293, -789215.56, -50805.777, 0.0, 10.000452, 9.929712 
3.955024e+3, 2.3458184e+2, -690783.4, -744915.3, -9.611642, 0.00009894939, -0.00007684278, -690783.4, -49685.4, 0.0, 10.000453, 9.929381 
3.9550242e+3, 2.4450466e+2, -602477.75, -667004.8, -6.6895947, 0.00009953238, 0.0000737484, -602477.75, -58623.395, 0.0, 10.000453, 9.915918 
3.9550242e+3, 2.544207e+2, -503726.94, -568332.7, -8.1490135, 0.00009869228, -0.000120407196, -503726.94, -57049.668, 0.0, 10.000454, 9.915817 
3.9550242e+3, 2.643296e+2, -415482.8, -490960.2, -7.4067273, 0.00009810594, 0.0001221067, -415482.8, -65913.32, 0.0, 10.000455, 9.901758 
3.9550242e+3, 2.7423197e+2, -316198.88, -391348.03, -8.559873, 0.0000978458, -0.00021671095, -316198.88, -63672.11, 0.0, 10.000455, 9.902179 
3.9550242e+3, 2.8412604e+2, -229727.53, -318058.63, -4.8679824, 0.00009808883, 0.00021976716, -229727.53, -74162.81, 0.0, 10.000456, 9.885232 
3.9550242e+3, 2.9401234e+2, -130023.32, -217744.77, -5.6801987, 0.00009901874, -0.0002603674, -130023.32, -71344.16, 0.0, 10.000456, 9.88601 
3.9550242e+3, 3.0392656e+2, -40293.887, -84754.42, -1.5056242, 0.00009958406, 0.00016928154, -40293.887, -40293.887, 0.0, 10.000457, 9.94195 
3.9550245e+3, 3.138704e+2, -39215.758, -82517.36, -1.8833802, 0.0000996009, -0.00005445418, -39215.758, -39215.758, 0.0, 10.000458, 9.9434595 
3.9650244e+3, 1.24997064e+2, -1719337.3, -1724108.8, -2.4413958, 0.0000919264, 0.00006339318, -1719337.3, -4307.9775, 0.0, 10.000471, 9.994145 
3.9650244e+3, 1.349911e+2, -1621957.0, -1627321.6, -5.0394306, 0.00009822807, -0.000080746824, -1621957.0, -4869.488, 0.0, 10.000474, 9.993362 
3.9650244e+3, 1.449785e+2, -1533900.0, -1548113.1, -3.3790903, 0.00010266093, 0.00015272458, -1533900.0, -14689.31, 0.0, 10.000473, 9.981634 
3.9650244e+3, 1.5496007e+2, -1436181.8, -1450795.0, -3.516727, 0.00010521131, -0.00008865624, -1436181.8, -14790.294, 0.0, 10.000468, 9.981103 
3.9650244e+3, 1.6493508e+2, -1348104.6, -1371872.0, -5.7165837, 0.00010515106, -0.0000035906726, -1348104.6, -24468.434, 0.0, 10.000467, 9.969053 
3.9650244e+3, 1.7490424e+2, -1250146.1, -1274230.6, -7.5292974, 0.00010242951, -0.000047922793, -1250146.1, -24207.584, 0.0, 10.000469, 9.96864 
3.9650244e+3, 1.8486671e+2, -1162058.8, -1195628.4, -7.718351, 0.00010157494, 0.00010040022, -1162058.8, -33752.496, 0.0, 10.000469, 9.956209 
3.9650244e+3, 1.948229e+2, -1063912.6, -1097744.4, -9.134709, 0.000102671904, -0.00008666709, -1063912.6, -33177.273, 0.0, 10.000469, 9.955867 
3.9650244e+3, 2.0477246e+2, -975782.4, -1019409.7, -9.226646, 0.00010211599, 0.00002804522, -975782.4, -42552.676, 0.0, 10.000468, 9.943067 
3.9650244e+3, 2.147156e+2, -877499.2, -921388.6, -10.530022, 0.000099771394, -0.00012135116, -877499.2, -41712.055, 0.0, 10.000468, 9.942725 
3.9650244e+3, 2.2465204e+2, -789193.75, -843084.44, -9.433945, 0.00009902998, 0.00014489665, -789193.75, -50783.6, 0.0, 10.000468, 9.929709 
3.9650244e+3, 2.345818e+2, -690761.2, -744906.8, -10.632022, 0.00010010284, -0.0000767907, -690761.2, -49662.88, 0.0, 10.000468, 9.929379 
3.9650244e+3, 2.445046e+2, -602457.5, -666998.6, -8.036061, 0.000100404686, 0.0000741363, -602457.5, -58602.75, 0.0, 10.000468, 9.915915 
3.9650247e+3, 2.5442064e+2, -503709.34, -568327.94, -8.954934, 0.000099784054, -0.00012060742, -503709.34, -57031.65, 0.0, 10.000467, 9.915813 
3.9650247e+3, 2.6432958e+2, -415465.88, -490955.06, -7.51485, 0.00009939151, 0.00012168914, -415465.88, -65895.914, 0.0, 10.000467, 9.901755 
3.9650247e+3, 2.742319e+2, -316181.34, -391342.6, -8.2451515, 0.000099291356, -0.0002168722, -316181.3, -63654.06, 0.0, 10.000468, 9.902176 
3.9650247e+3, 2.8412598e+2, -229710.42, -318054.28, -4.5504136, 0.00009960549, 0.00021979278, -229710.42, -74145.17, 0.0, 10.000469, 9.885228 
3.9650247e+3, 2.9401228e+2, -130006.93, -217740.88, -5.6413064, 0.00010048505, -0.00026025216, -130006.93, -71327.2, 0.0, 10.000469, 9.886006 
3.9650247e+3, 3.039265e+2, -40277.99, -84750.016, -1.6108274, 0.00010095299, 0.00016926476, -40277.99, -40277.99, 0.0, 10.000469, 9.941947 
3.9650247e+3, 3.1387034e+2, -39201.023, -82513.42, -2.1938438, 0.00010080377, -0.000054930984, -39201.023, -39201.023, 0.0, 10.000469, 9.943457 
3.9750248e+3, 1.2499707e+2, -1719343.3, -1724119.9, -1.6209992, 0.00009698483, 0.00007521265, -1719343.3, -4314.051, 0.0, 10.000471, 9.994139 
3.9750248e+3, 1.349911e+2, -1621962.9, -1627332.8, -4.2201877, 0.000099323035, -0.00007411801, -1621962.9, -4875.379, 0.0, 10.000474, 9.993355 
3.9750248e+3, 1.4497848e+2, -1533900.4, -1548113.8, -5.019008, 0.000101954734, 0.0001561076, -1533900.4, -14689.519, 0.0, 10.000473, 9.981634 
3.9750248e+3, 1.5496005e+2, -1436182.0, -1450795.5, -5.159978, 0.000104877356, -0.0000893552, -1436182.0, -14790.473, 0.0, 10.000468, 9.981102 
3.9750248e+3, 1.6493507e+2, -1348108.6, -1371879.5, -5.014826, 0.00010595976, -0.0000065106515, -1348108.6, -24472.246, 0.0, 10.000467, 9.9690485 
3.9750248e+3, 1.7490423e+2, -1250150.0, -1274238.1, -6.813931, 0.00010516647, -0.000051170042, -1250150.0, -24211.324, 0.0, 10.000469, 9.968636 
3.9750248e+3, 1.8486668e+2, -1162061.9, -1195634.4, -7.9250674, 0.000103296305, 0.00009830772, -1162061.9, -33755.36, 0.0, 10.000469, 9.956205 
3.9750248e+3, 1.9482288e+2, -1063915.6, -1097750.3, -9.355467, 0.00010030029, -0.00008605727, -1063915.6, -33180.063, 0.0, 10.000469, 9.955863 
3.9750248e+3, 2.0477243e+2, -975785.2, -1019415.2, -9.437401, 0.000099570454, 0.000028656821, -975785.2, -42555.18, 0.0, 10.000468, 9.943063 
3.9750248e+3, 2.1471556e+2, -877501.94, -921394.06, -10.737346, 0.00010129302, -0.00012366143, -877501.94, -41714.465, 0.0, 10.000468, 9.942721 
3.9750248e+3, 2.2465199e+2, -789196.4, -843089.6, -9.198324, 0.000102105485, 0.00014213174, -789196.4, -50785.844, 0.0, 10.000468, 9.929707 
3.9750248e+3, 2.3458175e+2, -690763.75, -744912.0, -10.380559, 0.0001018877, -0.00007721942, -690763.75, -49665.07, 0.0, 10.000468, 9.929376 
3.9750248e+3, 2.4450456e+2, -602459.7, -667003.06, -8.31219, 0.00010158396, 0.0000753082, -602459.7, -58604.56, 0.0, 10.000468, 9.915912 
3.9750248e+3, 2.5442058e+2, -503711.53, -568332.4, -9.258623, 0.00010117863, -0.00011871645, -503711.53, -57033.387, 0.0, 10.000467, 9.915811 
3.975025e+3, 2.6432952e+2, -415467.66, -490958.7, -7.2326097, 0.00010083564, 0.00012352396, -415467.66, -65897.23, 0.0, 10.000467, 9.901753 
3.975025e+3, 2.7423185e+2, -316183.06, -391346.13, -7.924312, 0.000100572186, -0.00021607785, -316183.06, -63655.297, 0.0, 10.000468, 9.902174 
3.975025e+3, 2.8412592e+2, -229713.25, -318060.13, -4.4990983, 0.00010070325, 0.00021942596, -229713.25, -74147.484, 0.0, 10.000469, 9.885224 
3.975025e+3, 2.9401222e+2, -130009.83, -217746.89, -5.6124597, 0.00010137367, -0.00026194096, -130009.83, -71329.52, 0.0, 10.000469, 9.886003 
3.975025e+3, 3.039264e+2, -40280.27, -84754.77, -1.5532068, 0.0001020777, 0.0001676693, -40280.27, -40280.27, 0.0, 10.000469, 9.941944 
3.975025e+3, 3.1387025e+2, -39203.24, -82518.05, -2.134147, 0.0001028257, -0.000054330038, -39203.24, -39203.24, 0.0, 10.000469, 9.943454 
3.9850253e+3, 1.2499707e+2, -1719323.9, -1724118.4, -0.38211268, 0.00010489723, 0.00007252034, -1719323.9, -4294.7393, 0.0, 10.000487, 9.994131 
3.9850253e+3, 1.3499108e+2, -1621943.6, -1627331.4, -3.55066, 0.00010168266, -0.00008012292, -1621943.6, -4855.9976, 0.0, 10.000489, 9.993347 
3.9850253e+3, 1.4497846e+2, -1533873.0, -1548100.0, -6.7147613, 0.00010091129, 0.00015211641, -1533873.0, -14662.088, 0.0, 10.00049, 9.981633 
3.9850253e+3, 1.5496004e+2, -1436150.8, -1450779.8, -7.0654297, 0.000102591075, -0.000088564986, -1436150.8, -14759.103, 0.0, 10.000488, 9.981102 
3.9850253e+3, 1.6493505e+2, -1348080.8, -1371869.3, -5.472575, 0.000104131905, -0.000005323836, -1348080.8, -24444.336, 0.0, 10.000486, 9.969045 
3.9850253e+3, 1.7490421e+2, -1250128.0, -1274231.0, -6.5135355, 0.00010553191, -0.000054062075, -1250128.0, -24189.162, 0.0, 10.000484, 9.968632 
3.9850253e+3, 1.8486665e+2, -1162043.4, -1195631.3, -7.9459124, 0.000104185885, 0.000095264426, -1162043.4, -33736.645, 0.0, 10.000484, 9.956201 
3.9850253e+3, 1.9482286e+2, -1063895.1, -1097746.3, -10.821337, 0.00009996912, -0.000085147534, -1063895.1, -33159.344, 0.0, 10.000485, 9.955857 
3.9850253e+3, 2.047724e+2, -975760.94, -1019404.9, -11.355345, 0.00009943093, 0.000031078645, -975760.94, -42530.633, 0.0, 10.000484, 9.943061 
3.9850253e+3, 2.1471553e+2, -877478.3, -921384.0, -11.4110775, 0.00010287365, -0.00012237024, -877478.3, -41690.473, 0.0, 10.000484, 9.942719 
3.9850253e+3, 2.2465196e+2, -789174.44, -843081.4, -8.641496, 0.00010419984, 0.00014236468, -789174.44, -50763.58, 0.0, 10.0004835, 9.929704 
3.9850253e+3, 2.3458172e+2, -690743.8, -744904.75, -9.210268, 0.00010313048, -0.00007796291, -690743.8, -49644.72, 0.0, 10.000483, 9.929374 
3.9850253e+3, 2.4450453e+2, -602441.75, -666998.6, -7.4927115, 0.00010251734, 0.00007434828, -602441.75, -58586.184, 0.0, 10.000483, 9.915908 
3.9850253e+3, 2.5442055e+2, -503693.34, -568327.9, -9.360977, 0.000102451384, -0.00011898613, -503693.34, -57014.754, 0.0, 10.000482, 9.915807 
3.9850253e+3, 2.643295e+2, -415448.8, -490952.5, -7.5504026, 0.00010242581, 0.00012385458, -415448.8, -65877.91, 0.0, 10.000482, 9.901751 
3.9850256e+3, 2.7423182e+2, -316165.22, -391340.4, -8.513106, 0.00010245032, -0.00021526372, -316165.22, -63636.97, 0.0, 10.000482, 9.902171 
3.9850256e+3, 2.841259e+2, -229696.16, -318055.13, -5.0833654, 0.00010249359, 0.00022012468, -229696.16, -74129.86, 0.0, 10.000482, 9.8852215 
3.9850256e+3, 2.9401216e+2, -129992.6, -217741.92, -5.483213, 0.00010256219, -0.00026217665, -129992.6, -71311.74, 0.0, 10.000483, 9.886 
3.9850256e+3, 3.0392635e+2, -40263.79, -84750.92, -1.2572714, 0.00010296545, 0.00016702006, -40263.79, -40263.79, 0.0, 10.000483, 9.94194 
3.9850256e+3, 3.138702e+2, -39187.49, -82514.625, -2.3015752, 0.00010386463, -0.00005461167, -39187.49, -39187.49, 0.0, 10.000482, 9.94345 
3.9950258e+3, 1.2499706e+2, -1719331.1, -1724132.0, 0.45693022, 0.00011563498, 0.000055616878, -1719331.1, -4301.948, 0.0, 10.000487, 9.9941225 
3.9950258e+3, 1.3499106e+2, -1621950.9, -1627344.9, -2.7174482, 0.00010529441, -0.0000986353, -1621950.9, -4863.0747, 0.0, 10.000489, 9.99334 
3.9950258e+3, 1.4497845e+2, -1533873.8, -1548101.5, -7.380942, 0.00009953402, 0.00014082449, -1533873.8, -14662.715, 0.0, 10.00049, 9.981632 
3.9950258e+3, 1.5496004e+2, -1436151.5, -1450781.3, -7.730422, 0.0000983722, -0.000086300846, -1436151.5, -14759.756, 0.0, 10.000488, 9.981101 
3.9950258e+3, 1.6493504e+2, -1348083.1, -1371873.6, -6.1054792, 0.00009969395, -0.000000071473735, -1348083.1, -24446.516, 0.0, 10.000486, 9.969043 
3.9950258e+3, 1.7490417e+2, -1250130.4, -1274235.4, -7.14671, 0.00010354923, -0.000056602297, -1250130.4, -24191.246, 0.0, 10.000484, 9.968629 
3.9950258e+3, 1.8486664e+2, -1162049.5, -1195643.3, -7.6688137, 0.000104251725, 0.00009127993, -1162049.5, -33742.555, 0.0, 10.000484, 9.956193 
3.9950258e+3, 1.9482283e+2, -1063901.4, -1097758.1, -10.533063, 0.00010165821, -0.00008394115, -1063901.3, -33165.18, 0.0, 10.000485, 9.95585 
3.9950258e+3, 2.0477237e+2, -975761.2, -1019405.4, -11.66644, 0.000101673744, 0.000035292316, -975761.2, -42530.57, 0.0, 10.000484, 9.943061 
3.9950258e+3, 2.147155e+2, -877478.44, -921384.3, -11.7365885, 0.000104512925, -0.00011751353, -877478.44, -41690.305, 0.0, 10.000484, 9.942719 
3.9950258e+3, 2.2465193e+2, -789175.75, -843084.0, -8.843062, 0.00010532293, 0.00014556576, -789175.75, -50764.59, 0.0, 10.0004835, 9.929702 
3.9950258e+3, 2.345817e+2, -690745.1, -744907.44, -9.409421, 0.00010383657, -0.00007901763, -690745.1, -49645.707, 0.0, 10.000483, 9.929372 
3.9950258e+3, 2.4450448e+2, -602445.6, -667006.5, -7.705162, 0.000103207305, 0.00007127819, -602445.6, -58589.69, 0.0, 10.000483, 9.915903 
3.9950258e+3, 2.544205e+2, -503697.3, -568335.94, -9.571619, 0.000103603656, -0.00012139476, -503697.3, -57018.28, 0.0, 10.000482, 9.915802 
3.9950258e+3, 2.6432943e+2, -415451.25, -490957.47, -7.4910274, 0.0001041607, 0.00012269594, -415451.25, -65879.84, 0.0, 10.000482, 9.901747 
3.995026e+3, 2.7423176e+2, -316167.53, -391345.13, -8.435245, 0.000104919854, -0.00021443024, -316167.53, -63638.76, 0.0, 10.000482, 9.902168 
3.995026e+3, 2.8412583e+2, -229697.75, -318058.4, -4.9894366, 0.00010496963, 0.00022187812, -229697.75, -74130.92, 0.0, 10.000482, 9.885219 
3.995026e+3, 2.940121e+2, -129994.11, -217745.06, -5.39019, 0.0001040477, -0.00026097367, -129994.11, -71312.7, 0.0, 10.000483, 9.885997 
3.995026e+3, 3.039263e+2, -40266.695, -84756.984, -1.3528905, 0.00010361873, 0.00016730773, -40266.695, -40266.695, 0.0, 10.000483, 9.941936 
3.995026e+3, 3.1387013e+2, -39190.56, -82521.03, -2.418054, 0.000103930535, -0.00005576699, -39190.56, -39190.56, 0.0, 10.000482, 9.943445 
4.0050262e+3, 1.24997064e+2, -1719299.1, -1724128.3, 2.5011923, 0.00012030197, 0.00005420472, -1719299.1, -4269.9814, 0.0, 10.000513, 9.994111 
4.0050262e+3, 1.3499105e+2, -1621931.5, -1627348.0, -3.057117, 0.00010722523, -0.00010525095, -1621931.5, -4843.711, 0.0, 10.000507, 9.993328 
4.0050262e+3, 1.4497843e+2, -1533848.8, -1548087.4, -7.9303193, 0.00009977547, 0.00013804465, -1533848.8, -14637.516, 0.0, 10.000505, 9.981633 
4.0050262e+3, 1.5496002e+2, -1436123.3, -1450765.5, -7.0358644, 0.00009797614, -0.00007855917, -1436123.3, -14731.554, 0.0, 10.000505, 9.981102 
4.0050262e+3, 1.6493504e+2, -1348055.6, -1371862.6, -4.9749618, 0.000099027384, 0.000008170756, -1348055.6, -24418.959, 0.0, 10.000505, 9.969039 
4.0050262e+3, 1.7490415e+2, -1250101.1, -1274223.5, -6.1685996, 0.00010298615, -0.00005808205, -1250101.1, -24161.857, 0.0, 10.0005045, 9.968626 
4.0050262e+3, 1.848666e+2, -1162025.5, -1195638.9, -6.5786095, 0.0001044838, 0.00008743021, -1162025.5, -33718.293, 0.0, 10.000504, 9.956185 
4.0050262e+3, 1.948228e+2, -1063882.8, -1097756.9, -9.13354, 0.00010340834, -0.00008247613, -1063882.8, -33146.39, 0.0, 10.000501, 9.955842 
4.0050262e+3, 2.0477234e+2, -975740.56, -1019396.4, -10.384929, 0.00010389656, 0.00003895532, -975740.56, -42509.652, 0.0, 10.000499, 9.943059 
4.0050262e+3, 2.1471547e+2, -877457.2, -921374.9, -11.288121, 0.00010607717, -0.00011502667, -877457.2, -41668.78, 0.0, 10.000499, 9.942718 
4.0050262e+3, 2.246519e+2, -789154.9, -843076.3, -8.984393, 0.00010668725, 0.0001463784, -789154.9, -50743.37, 0.0, 10.000498, 9.9297 
4.0050262e+3, 2.3458165e+2, -690723.44, -744899.44, -10.215235, 0.0001055202, -0.000080442354, -690723.44, -49623.645, 0.0, 10.000499, 9.929369 
4.0050262e+3, 2.4450444e+2, -602424.94, -667000.56, -8.694261, 0.000104758175, 0.00006941275, -602424.94, -58568.6, 0.0, 10.000498, 9.915899 
4.0050262e+3, 2.5442046e+2, -503677.7, -568330.75, -9.652229, 0.00010448145, -0.00012155591, -503677.7, -56998.207, 0.0, 10.000497, 9.915797 
4.0050262e+3, 2.643294e+2, -415432.0, -490951.2, -6.767231, 0.00010500184, 0.00012349323, -415432.0, -65860.12, 0.0, 10.000496, 9.901744 
4.0050265e+3, 2.742317e+2, -316149.8, -391339.6, -7.4920564, 0.00010653531, -0.00021362884, -316149.8, -63620.55, 0.0, 10.000495, 9.902165 
4.0050265e+3, 2.8412578e+2, -229681.02, -318053.88, -4.0469127, 0.000106926585, 0.0002226973, -229681.02, -74113.65, 0.0, 10.000495, 9.885216 
4.0050265e+3, 2.94012e+2, -129976.89, -217740.39, -5.3386235, 0.00010575011, -0.00026011342, -129976.89, -71294.92, 0.0, 10.000495, 9.885994 
4.0050265e+3, 3.0392623e+2, -40249.383, -84752.734, -1.863684, 0.000104878105, 0.00016766558, -40249.383, -40249.383, 0.0, 10.000496, 9.941933 
4.0050265e+3, 3.1387004e+2, -39172.832, -82516.64, -2.4933481, 0.00010447273, -0.00005671829, -39172.832, -39172.832, 0.0, 10.000496, 9.943441 
4.015027e+3, 1.2499709e+2, -1719311.9, -1724152.1, 0.37907955, 0.00011896156, 0.00006818844, -1719311.9, -4283.0073, 0.0, 10.000513, 9.994097 
4.015027e+3, 1.3499105e+2, -1621944.3, -1627371.9, -5.1681924, 0.00010749252, -0.000100093705, -1621944.3, -4856.3374, 0.0, 10.000507, 9.993313 
4.015027e+3, 1.4497843e+2, -1533846.6, -1548083.5, -7.8284674, 0.00010161849, 0.00014368784, -1533846.6, -14635.347, 0.0, 10.000505, 9.981636 
4.015027e+3, 1.5496002e+2, -1436121.3, -1450761.6, -6.942122, 0.0001013631, -0.00006539616, -1436121.3, -14729.49, 0.0, 10.000505, 9.981104 
4.015027e+3, 1.6493504e+2, -1348058.3, -1371867.6, -5.155725, 0.00010209326, 0.000019372754, -1348058.3, -24421.545, 0.0, 10.000505, 9.969036 
4.015027e+3, 1.7490414e+2, -1250103.8, -1274228.5, -6.347325, 0.000103828395, -0.000058512105, -1250103.8, -24164.336, 0.0, 10.0005045, 9.968622 
4.015027e+3, 1.8486659e+2, -1162031.0, -1195649.5, -7.5847783, 0.00010488071, 0.00008371393, -1162031.0, -33723.594, 0.0, 10.000504, 9.956179 
4.015027e+3, 1.9482279e+2, -1063888.3, -1097767.5, -10.147221, 0.000105218896, -0.00008075486, -1063888.3, -33151.617, 0.0, 10.000501, 9.955835 
4.015027e+3, 2.0477232e+2, -975742.56, -1019400.25, -10.571145, 0.00010609949, 0.000042073716, -975742.56, -42511.344, 0.0, 10.000499, 9.943057 
4.015027e+3, 2.1471544e+2, -877459.06, -921378.6, -11.457937, 0.00010756711, -0.000114885006, -877459.06, -41670.34, 0.0, 10.000499, 9.942716 
4.015027e+3, 2.2465186e+2, -789157.56, -843081.7, -8.945799, 0.00010829036, 0.00014482718, -789157.56, -50745.734, 0.0, 10.000498, 9.929696 
4.015027e+3, 2.345816e+2, -690726.2, -744904.9, -10.169485, 0.00010817144, -0.00008223354, -690726.2, -49625.977, 0.0, 10.000499, 9.929365 
4.015027e+3, 2.4450439e+2, -602427.2, -667005.0, -9.1028595, 0.0001071613, 0.0000687392, -602427.2, -58570.4, 0.0, 10.000498, 9.915896 
4.015027e+3, 2.544204e+2, -503679.84, -568335.06, -10.083253, 0.00010508779, -0.000119492914, -503679.84, -56999.93, 0.0, 10.000497, 9.915794 
4.015027e+3, 2.6432934e+2, -415433.94, -490955.16, -7.0758123, 0.00010495857, 0.00012622634, -415433.9, -65861.6, 0.0, 10.000496, 9.901741 
4.015027e+3, 2.7423167e+2, -316151.72, -391343.5, -7.793864, 0.00010730559, -0.00021285885, -316151.72, -63621.96, 0.0, 10.000495, 9.902163 
4.015027e+3, 2.8412572e+2, -229684.19, -318060.44, -3.842729, 0.00010836986, 0.00022259222, -229684.19, -74116.305, 0.0, 10.000495, 9.885211 
4.015027e+3, 2.9401195e+2, -129980.14, -217747.14, -5.0885777, 0.00010766722, -0.00025959237, -129980.14, -71297.61, 0.0, 10.000495, 9.885989 
4.015027e+3, 3.0392617e+2, -40251.688, -84757.55, -1.8369762, 0.00010673738, 0.00016809268, -40251.688, -40251.688, 0.0, 10.000496, 9.941929 
4.015027e+3, 3.1386998e+2, -39175.035, -82521.234, -2.4921608, 0.00010548635, -0.00005746764, -39175.035, -39175.035, 0.0, 10.000496, 9.943439 
4.0250275e+3, 1.24997094e+2, -1719287.1, -1724149.6, -1.152522, 0.000116414834, 0.00006963523, -1719287.1, -4258.383, 0.0, 10.000534, 9.994087 
4.0250275e+3, 1.3499103e+2, -1621918.8, -1627369.0, -2.6275976, 0.00010728322, -0.00010807623, -1621918.8, -4830.806, 0.0, 10.000528, 9.993303 
4.0250275e+3, 1.4497842e+2, -1533817.1, -1548071.5, -3.5606983, 0.000104014645, 0.00013699388, -1533817.1, -14605.712, 0.0, 10.000525, 9.981632 
4.0250275e+3, 1.5496002e+2, -1436094.9, -1450751.4, -6.8527536, 0.00010663437, -0.00006222845, -1436094.9, -14703.06, 0.0, 10.000524, 9.981101 
4.0250275e+3, 1.6493502e+2, -1348032.6, -1371856.1, -6.649669, 0.00010717567, 0.000025058132, -1348032.6, -24395.943, 0.0, 10.000522, 9.969034 
4.0250275e+3, 1.7490414e+2, -1250079.3, -1274217.6, -6.7033954, 0.00010559678, -0.00005779976, -1250079.3, -24139.82, 0.0, 10.000521, 9.968621 
4.0250275e+3, 1.8486658e+2, -1162010.8, -1195645.8, -7.7711506, 0.00010550517, 0.00008331198, -1162010.8, -33703.184, 0.0, 10.000519, 9.956173 
4.0250275e+3, 1.9482276e+2, -1063868.4, -1097764.0, -9.663754, 0.00010696793, -0.00007823756, -1063868.4, -33131.56, 0.0, 10.000516, 9.95583 
4.0250275e+3, 2.047723e+2, -975719.5, -1019391.5, -8.753025, 0.00010842531, 0.0000449375, -975719.5, -42488.05, 0.0, 10.000515, 9.943054 
4.0250275e+3, 2.147154e+2, -877434.3, -921369.0, -9.829367, 0.00010987663, -0.000114459675, -877434.3, -41645.273, 0.0, 10.000516, 9.942713 
4.0250275e+3, 2.2465183e+2, -789134.5, -843073.75, -7.9002557, 0.00011030581, 0.00014378015, -789134.5, -50722.324, 0.0, 10.000515, 9.929692 
4.0250275e+3, 2.3458157e+2, -690707.5, -744899.25, -9.02461, 0.0001095788, -0.00008366008, -690707.5, -49606.977, 0.0, 10.000512, 9.929362 
4.0250275e+3, 2.4450436e+2, -602409.6, -666999.8, -7.6386003, 0.00010830897, 0.00006791371, -602409.6, -58552.477, 0.0, 10.000511, 9.915893 
4.0250275e+3, 2.5442037e+2, -503659.88, -568328.7, -8.840859, 0.00010639199, -0.00011854831, -503659.88, -56979.574, 0.0, 10.000511, 9.9157915 
4.0250275e+3, 2.643293e+2, -415412.34, -490948.16, -6.271289, 0.000106291154, 0.00012768789, -415412.34, -65839.59, 0.0, 10.000511, 9.901738 
4.0250275e+3, 2.742316e+2, -316129.34, -391336.2, -7.549118, 0.00010850248, -0.00021247788, -316129.34, -63599.117, 0.0, 10.000511, 9.90216 
4.0250275e+3, 2.841257e+2, -229663.36, -318055.06, -3.8413062, 0.00010955488, 0.00022250607, -229663.36, -74094.96, 0.0, 10.000511, 9.885207 
4.0250275e+3, 2.9401192e+2, -129962.48, -217743.48, -5.0011954, 0.00010901055, -0.00025929871, -129962.48, -71279.39, 0.0, 10.000509, 9.885985 
4.0250275e+3, 3.039261e+2, -40235.133, -84752.79, -1.5243211, 0.00010811589, 0.00016852659, -40235.133, -40235.133, 0.0, 10.000508, 9.941926 
4.0250275e+3, 3.1386992e+2, -39158.9, -82516.48, -1.8827446, 0.00010671566, -0.000057256973, -39158.9, -39158.9, 0.0, 10.000508, 9.943436 
4.0350282e+3, 1.24997094e+2, -1719290.5, -1724156.0, -3.058911, 0.00011267462, 0.000058740316, -1719290.5, -4261.8247, 0.0, 10.000534, 9.994083 
4.0350282e+3, 1.3499103e+2, -1621922.1, -1627375.4, -4.543937, 0.0001066027, -0.0001290557, -1621922.0, -4834.082, 0.0, 10.000528, 9.9932995 
4.0350282e+3, 1.449784e+2, -1533824.5, -1548085.5, -4.174067, 0.00010695828, 0.00011809672, -1533824.5, -14612.997, 0.0, 10.000525, 9.981624 
4.0350282e+3, 1.5496e+2, -1436102.3, -1450765.4, -7.455422, 0.00011376965, -0.00006894931, -1436102.3, -14710.255, 0.0, 10.000524, 9.981092 
4.035028e+3, 1.6493502e+2, -1348032.9, -1371856.4, -7.0458865, 0.000114252776, 0.00002528501, -1348032.9, -24395.953, 0.0, 10.000522, 9.969034 
4.035028e+3, 1.7490412e+2, -1250079.4, -1274217.9, -7.104869, 0.00010828145, -0.00005595764, -1250079.4, -24139.826, 0.0, 10.000521, 9.96862 
4.035028e+3, 1.8486656e+2, -1162014.8, -1195653.5, -8.838268, 0.000106354826, 0.00008618897, -1162014.8, -33707.08, 0.0, 10.000519, 9.956168 
4.035028e+3, 1.9482274e+2, -1063872.5, -1097771.8, -10.741995, 0.000108656044, -0.00007493258, -1063872.4, -33135.367, 0.0, 10.000516, 9.955825 
4.035028e+3, 2.0477226e+2, -975721.9, -1019396.2, -8.5036125, 0.0001108727, 0.000047549573, -975721.9, -42490.184, 0.0, 10.000515, 9.943051 
4.035028e+3, 2.1471538e+2, -877436.6, -921373.56, -9.550537, 0.00011299726, -0.00011375364, -877436.6, -41647.332, 0.0, 10.000516, 9.94271 
4.035028e+3, 2.246518e+2, -789137.0, -843078.7, -8.879598, 0.000112729496, 0.00014323201, -789137.0, -50724.527, 0.0, 10.000515, 9.929689 
4.035028e+3, 2.3458154e+2, -690710.0, -744904.25, -10.046518, 0.00010975561, -0.00008472559, -690710.0, -49609.11, 0.0, 10.000512, 9.929359 
4.035028e+3, 2.4450432e+2, -602412.3, -667005.1, -7.495745, 0.00010821447, 0.00006693823, -602412.25, -58554.746, 0.0, 10.000511, 9.91589 
4.0350282e+3, 2.5442034e+2, -503662.5, -568334.0, -8.6427355, 0.00010838659, -0.00011870983, -503662.5, -56981.79, 0.0, 10.000511, 9.915788 
4.0350282e+3, 2.6432925e+2, -415415.34, -490954.25, -6.3196945, 0.000108984976, 0.00012789166, -415415.34, -65842.15, 0.0, 10.000512, 9.901734 
4.0350282e+3, 2.7423152e+2, -316132.34, -391342.3, -7.612429, 0.00011012166, -0.00021248186, -316132.34, -63601.617, 0.0, 10.000511, 9.902155 
4.0350282e+3, 2.841256e+2, -229666.47, -318061.5, -4.3198333, 0.00011048467, 0.0002224385, -229666.47, -74097.555, 0.0, 10.000511, 9.885203 
4.0350282e+3, 2.9401186e+2, -129965.56, -217749.9, -5.5176215, 0.00010978638, -0.00025922997, -129965.56, -71281.914, 0.0, 10.000509, 9.885981 
4.0350282e+3, 3.0392605e+2, -40236.926, -84756.55, -1.6989979, 0.00010901885, 0.0001689673, -40236.926, -40236.926, 0.0, 10.000508, 9.941923 
4.0350282e+3, 3.1386986e+2, -39160.55, -82519.94, -2.0199819, 0.00010815834, -0.00005609656, -39160.55, -39160.55, 0.0, 10.000508, 9.943434 
4.0450287e+3, 1.2499712e+2, -1719271.1, -1724155.9, 2.9954007, 0.00011315946, 0.00005827919, -1719271.1, -4242.674, 0.0, 10.00055, 9.994075 
4.0450287e+3, 1.3499103e+2, -1621894.8, -1627371.0, -2.1743805, 0.000108618275, -0.00013713303, -1621894.8, -4806.8003, 0.0, 10.00055, 9.993291 
4.0450287e+3, 1.449784e+2, -1533791.9, -1548073.3, -2.246589, 0.00010962611, 0.00011147662, -1533791.9, -14580.341, 0.0, 10.000547, 9.981619 
4.0450287e+3, 1.5496e+2, -1436074.6, -1450755.8, -2.279339, 0.000116207055, -0.00006697991, -1436074.6, -14682.635, 0.0, 10.000543, 9.981088 
4.0450287e+3, 1.6493501e+2, -1348008.8, -1371847.3, -1.0180868, 0.00011673643, 0.00002887436, -1348008.8, -24371.842, 0.0, 10.000539, 9.969031 
4.0450287e+3, 1.7490411e+2, -1250059.6, -1274211.1, -3.2819238, 0.00011109366, -0.000057856905, -1250059.6, -24119.908, 0.0, 10.000535, 9.968617 
4.0450287e+3, 1.8486655e+2, -1161997.3, -1195652.1, -6.2760878, 0.0001093483, 0.000083771505, -1161997.3, -33689.457, 0.0, 10.000534, 9.9561615 
4.0450287e+3, 1.9482273e+2, -1063849.4, -1097767.6, -9.521225, 0.0001116768, -0.00007267245, -1063849.4, -33112.11, 0.0, 10.000534, 9.955818 
4.0450287e+3, 2.0477225e+2, -975694.6, -1019384.44, -7.5788293, 0.00011340159, 0.000051224833, -975694.6, -42462.67, 0.0, 10.000534, 9.943049 
4.0450287e+3, 2.1471536e+2, -877414.5, -921364.44, -7.8599563, 0.00011447247, -0.00011219429, -877414.5, -41624.97, 0.0, 10.000531, 9.942708 
4.0450287e+3, 2.2465177e+2, -789117.75, -843073.4, -7.3191967, 0.00011370633, 0.00014290144, -789117.75, -50704.977, 0.0, 10.000529, 9.929686 
4.0450287e+3, 2.345815e+2, -690687.75, -744897.5, -9.07058, 0.00011086238, -0.00008668988, -690687.75, -49586.53, 0.0, 10.000528, 9.929355 
4.0450287e+3, 2.4450429e+2, -602388.6, -666997.56, -6.237266, 0.00010972251, 0.00006522133, -602388.6, -58530.72, 0.0, 10.000528, 9.915886 
4.0450287e+3, 2.5442028e+2, -503639.7, -568326.9, -7.598225, 0.0001106192, -0.000117934076, -503639.7, -56958.582, 0.0, 10.000528, 9.915784 
4.0450287e+3, 2.6432922e+2, -415393.06, -490946.9, -5.432924, 0.00011110169, 0.00012973562, -415393.06, -65819.445, 0.0, 10.000528, 9.901731 
4.0450287e+3, 2.742315e+2, -316111.1, -391335.5, -6.1708093, 0.00011105232, -0.00021138777, -316111.1, -63579.926, 0.0, 10.000527, 9.902152 
4.0450287e+3, 2.8412554e+2, -229646.7, -318056.72, -2.9225817, 0.00011091974, 0.00022271785, -229646.7, -74077.3, 0.0, 10.000526, 9.885199 
4.0450287e+3, 2.940118e+2, -129946.14, -217745.47, -4.289412, 0.000110675646, -0.00025984566, -129946.14, -71261.945, 0.0, 10.0005245, 9.885977 
4.0450287e+3, 3.03926e+2, -40218.023, -84751.61, -0.8295777, 0.00011033945, 0.00016827854, -40218.023, -40218.023, 0.0, 10.000524, 9.941919 
4.0450287e+3, 3.138698e+2, -39143.434, -82515.77, -2.1266212, 0.0001098674, -0.000055636752, -39143.434, -39143.434, 0.0, 10.000522, 9.94343 
4.0550292e+3, 1.2499715e+2, -1719283.0, -1724178.1, 2.9513776, 0.000117821306, 0.00006821632, -1719283.0, -4254.953, 0.0, 10.00055, 9.9940605 
4.0550292e+3, 1.3499105e+2, -1621906.5, -1627393.1, -2.2075138, 0.0001133002, -0.00013245312, -1621906.5, -4818.765, 0.0, 10.00055, 9.993278 
4.0550292e+3, 1.4497842e+2, -1533792.0, -1548073.4, -3.9997842, 0.00011202185, 0.00011699531, -1533792.0, -14580.511, 0.0, 10.000547, 9.981619 
4.0550292e+3, 1.5496002e+2, -1436074.6, -1450755.9, -4.039277, 0.00011399918, -0.000056416055, -1436074.6, -14682.838, 0.0, 10.000543, 9.981088 
4.0550292e+3, 1.6493502e+2, -1348013.8, -1371856.9, -2.4186776, 0.0001146777, 0.00003579049, -1348013.8, -24376.922, 0.0, 10.000539, 9.969026 
4.0550292e+3, 1.7490411e+2, -1250064.5, -1274220.6, -4.6821957, 0.00011403158, -0.000063455096, -1250064.5, -24124.795, 0.0, 10.000535, 9.968612 
4.0550292e+3, 1.8486653e+2, -1162004.3, -1195665.6, -5.993193, 0.00011446145, 0.00007611871, -1162004.3, -33696.266, 0.0, 10.000534, 9.956153 
4.0550292e+3, 1.9482271e+2, -1063856.3, -1097781.0, -9.213854, 0.00011601571, -0.00007144574, -1063856.3, -33118.84, 0.0, 10.000534, 9.95581 
4.0550292e+3, 2.0477223e+2, -975695.44, -1019386.2, -8.5150795, 0.000116011506, 0.000055951263, -975695.44, -42463.332, 0.0, 10.000534, 9.9430485 
4.0550292e+3, 2.1471535e+2, -877415.25, -921365.9, -8.824737, 0.00011432053, -0.00010979099, -877415.25, -41625.48, 0.0, 10.000531, 9.942707 
4.0550292e+3, 2.2465175e+2, -789121.3, -843080.5, -7.5841885, 0.00011325222, 0.00014278627, -789121.3, -50708.33, 0.0, 10.000529, 9.929681 
4.0550292e+3, 2.3458147e+2, -690691.4, -744904.75, -9.313758, 0.000112888854, -0.00008954281, -690691.4, -49589.855, 0.0, 10.000528, 9.92935 
4.0550292e+3, 2.4450424e+2, -602391.75, -667003.94, -6.230153, 0.00011281549, 0.00006277125, -602391.75, -58533.527, 0.0, 10.000528, 9.915881 
4.0550292e+3, 2.5442025e+2, -503642.8, -568333.2, -7.578412, 0.000113087415, -0.000116231575, -503642.8, -56961.324, 0.0, 10.000528, 9.91578 
4.0550292e+3, 2.643292e+2, -415395.03, -490950.9, -5.713874, 0.00011264791, 0.0001332015, -415395.03, -65821.02, 0.0, 10.000528, 9.901729 
4.0550292e+3, 2.7423146e+2, -316112.97, -391339.34, -6.4736414, 0.00011130226, -0.00020920772, -316112.97, -63581.367, 0.0, 10.000527, 9.902149 
4.0550292e+3, 2.841255e+2, -229649.98, -318063.5, -3.4599166, 0.00011086571, 0.00022334055, -229649.98, -74080.11, 0.0, 10.000526, 9.885194 
4.0550292e+3, 2.9401174e+2, -129949.49, -217752.45, -4.8475356, 0.00011167728, -0.0002611378, -129949.49, -71264.78, 0.0, 10.0005245, 9.885972 
4.0550292e+3, 3.0392593e+2, -40221.51, -84758.9, -1.4382912, 0.00011207319, 0.00016647314, -40221.51, -40221.51, 0.0, 10.000524, 9.941915 
4.0550292e+3, 3.1386974e+2, -39146.945, -82523.11, -2.7393281, 0.000111839836, -0.000055869878, -39146.945, -39146.945, 0.0, 10.000522, 9.943425 
4.0650296e+3, 1.24997176e+2, -1719252.1, -1724171.8, 1.768393, 0.00011985005, 0.000067816094, -1719252.1, -4224.3774, 0.0, 10.000574, 9.994052 
4.0650296e+3, 1.3499108e+2, -1621885.4, -1627392.0, 0.25941926, 0.00011650434, -0.00012865516, -1621885.4, -4797.7783, 0.0, 10.000568, 9.993268 
4.0650296e+3, 1.4497843e+2, -1533768.8, -1548063.8, -0.83622056, 0.000114972405, 0.00012332227, -1533768.8, -14557.484, 0.0, 10.000564, 9.981617 
4.0650296e+3, 1.5496004e+2, -1436049.0, -1450745.1, -2.566902, 0.00011526, -0.00005100965, -1436049.0, -14657.378, 0.0, 10.000561, 9.981086 
4.0650296e+3, 1.6493504e+2, -1347988.5, -1371851.4, -1.5153985, 0.000116038114, 0.000038322756, -1347988.5, -24351.793, 0.0, 10.000558, 9.969019 
4.0650296e+3, 1.7490411e+2, -1250035.1, -1274213.0, -4.389229, 0.00011731664, -0.00006579008, -1250035.1, -24095.355, 0.0, 10.000557, 9.968605 
4.0650296e+3, 1.8486653e+2, -1161975.3, -1195657.6, -4.731208, 0.000117855656, 0.00007380453, -1161975.3, -33667.24, 0.0, 10.000555, 9.956147 
4.0650296e+3, 1.948227e+2, -1063833.9, -1097776.5, -6.1201916, 0.00011762105, -0.000068629466, -1063833.9, -33096.355, 0.0, 10.000552, 9.955804 
4.0650296e+3, 2.0477222e+2, -975672.5, -1019377.06, -5.189414, 0.00011707526, 0.00005974056, -975672.5, -42440.227, 0.0, 10.000549, 9.943046 
4.0650296e+3, 2.1471532e+2, -877390.2, -921355.75, -6.568186, 0.00011619268, -0.00010952827, -877390.2, -41600.285, 0.0, 10.000548, 9.942705 
4.0650296e+3, 2.2465172e+2, -789096.56, -843073.75, -5.381138, 0.00011539826, 0.00014092229, -789096.56, -50683.32, 0.0, 10.000548, 9.929676 
4.0650296e+3, 2.3458144e+2, -690664.8, -744897.25, -7.477651, 0.00011470349, -0.000091948656, -690664.8, -49562.996, 0.0, 10.000548, 9.929345 
4.0650296e+3, 2.4450421e+2, -602365.3, -666995.0, -5.0478587, 0.00011419686, 0.000061370105, -602365.3, -58506.74, 0.0, 10.000547, 9.915877 
4.0650296e+3, 2.5442022e+2, -503621.1, -568326.7, -6.19639, 0.00011391452, -0.000114783375, -503621.1, -56939.27, 0.0, 10.000545, 9.915776 
4.0650296e+3, 2.6432914e+2, -415375.34, -490944.94, -4.133751, 0.00011343566, 0.00013566727, -415375.34, -65800.98, 0.0, 10.000543, 9.901725 
4.0650296e+3, 2.742314e+2, -316092.72, -391333.1, -5.475378, 0.00011270606, -0.00020805976, -316092.72, -63560.723, 0.0, 10.000543, 9.902146 
4.0650296e+3, 2.8412545e+2, -229630.0, -318058.7, -3.0170312, 0.00011258689, 0.0002234851, -229630.0, -74059.68, 0.0, 10.000542, 9.88519 
4.06503e+3, 2.9401168e+2, -129929.12, -217747.63, -4.347668, 0.000113304035, -0.00026155557, -129929.12, -71243.9, 0.0, 10.000541, 9.885967 
4.06503e+3, 3.0392587e+2, -40200.85, -84753.48, -0.78783435, 0.00011358307, 0.00016608577, -40200.85, -40200.85, 0.0, 10.000539, 9.941911 
4.06503e+3, 3.1386968e+2, -39126.703, -82517.83, -1.3988229, 0.00011320326, -0.00005535033, -39126.703, -39126.703, 0.0, 10.000537, 9.94342 
4.0750304e+3, 1.249972e+2, -1719255.6, -1724178.3, -0.49520212, 0.00011927692, 0.00005727286, -1719255.6, -4228.0605, 0.0, 10.000574, 9.994048 
4.0750304e+3, 1.349911e+2, -1621888.8, -1627398.5, -2.00642, 0.00011824785, -0.00012572797, -1621888.8, -4801.457, 0.0, 10.000568, 9.993264 
4.0750304e+3, 1.4497846e+2, -1533772.6, -1548071.1, -2.0012581, 0.00011847069, 0.00013044907, -1533772.6, -14561.598, 0.0, 10.000564, 9.981612 
4.07503e+3, 1.5496005e+2, -1436052.9, -1450752.4, -3.7313557, 0.00011994881, -0.000050700903, -1436052.9, -14661.35, 0.0, 10.000561, 9.981081 
4.07503e+3, 1.6493504e+2, -1347994.9, -1371863.5, -1.8767349, 0.000120778, 0.000036521575, -1347994.9, -24358.207, 0.0, 10.000558, 9.969011 
4.07503e+3, 1.7490411e+2, -1250041.4, -1274225.1, -4.742708, 0.000120945355, -0.00006490015, -1250041.4, -24101.67, 0.0, 10.000557, 9.968597 
4.07503e+3, 1.8486652e+2, -1161978.3, -1195663.5, -5.9765725, 0.00011955134, 0.000076767086, -1161978.3, -33670.273, 0.0, 10.000555, 9.956143 
4.07503e+3, 1.948227e+2, -1063836.9, -1097782.3, -7.37908, 0.00011652441, -0.000064241336, -1063836.9, -33099.277, 0.0, 10.000552, 9.9558 
4.07503e+3, 2.0477222e+2, -975675.44, -1019382.94, -5.6525755, 0.00011661047, 0.00006260439, -975675.44, -42443.1, 0.0, 10.000549, 9.943042 
4.07503e+3, 2.147153e+2, -877393.1, -921361.56, -7.014014, 0.000120065495, -0.000111381065, -877393.1, -41603.066, 0.0, 10.000548, 9.942701 
4.07503e+3, 2.2465171e+2, -789101.0, -843082.56, -5.1507654, 0.000120114615, 0.00013732977, -789101.0, -50687.55, 0.0, 10.000548, 9.92967 
4.07503e+3, 2.3458143e+2, -690669.25, -744906.1, -7.2245255, 0.00011630918, -0.000093912495, -690669.25, -49567.184, 0.0, 10.000548, 9.929339 
4.07503e+3, 2.4450418e+2, -602368.06, -667000.56, -6.1344647, 0.0001138868, 0.000061005936, -602368.06, -58509.22, 0.0, 10.000547, 9.9158745 
4.07503e+3, 2.544202e+2, -503623.75, -568332.06, -7.3469567, 0.000113119546, -0.000113586306, -503623.75, -56941.598, 0.0, 10.000545, 9.915772 
4.07503e+3, 2.643291e+2, -415378.4, -490951.16, -4.3294415, 0.00011347362, 0.00013714477, -415378.4, -65803.66, 0.0, 10.000543, 9.901721 
4.0750304e+3, 2.7423137e+2, -316095.75, -391339.34, -5.6078258, 0.00011525039, -0.00020793188, -316095.75, -63563.344, 0.0, 10.000543, 9.902143 
4.0750304e+3, 2.8412542e+2, -229633.22, -318065.34, -3.4002151, 0.00011606284, 0.00022315694, -229633.22, -74062.445, 0.0, 10.000542, 9.885185 
4.0750304e+3, 2.9401165e+2, -129932.31, -217754.28, -4.754168, 0.00011554885, -0.00026110926, -129932.31, -71246.61, 0.0, 10.000541, 9.8859625 
4.0750304e+3, 3.0392584e+2, -40203.13, -84758.25, -1.4874433, 0.000114871895, 0.00016709995, -40203.13, -40203.13, 0.0, 10.000539, 9.941908 
4.0750304e+3, 3.1386963e+2, -39128.88, -82522.38, -2.133416, 0.00011396495, -0.000054086504, -39128.88, -39128.88, 0.0, 10.000537, 9.943418 
4.085031e+3, 1.2499723e+2, -1719233.4, -1724172.3, 0.44547096, 0.00011977805, 0.000054769138, -1719233.4, -4206.0576, 0.0, 10.00059, 9.994042 
4.085031e+3, 1.3499112e+2, -1621862.0, -1627390.1, -1.8830398, 0.0001207898, -0.00012702831, -1621862.0, -4774.9604, 0.0, 10.000587, 9.993259 
4.085031e+3, 1.4497848e+2, -1533742.4, -1548060.9, -1.5659685, 0.00012187562, 0.0001310117, -1533742.4, -14531.509, 0.0, 10.000585, 9.981607 
4.085031e+3, 1.5496007e+2, -1436020.1, -1450740.9, -3.604411, 0.00012303334, -0.00004916886, -1436020.1, -14628.816, 0.0, 10.000584, 9.981075 
4.085031e+3, 1.6493505e+2, -1347964.5, -1371854.5, -1.4623078, 0.00012325517, 0.000037443355, -1347964.5, -24328.055, 0.0, 10.000581, 9.969005 
4.085031e+3, 1.7490411e+2, -1250016.9, -1274219.3, -3.0901444, 0.00012252237, -0.00006620025, -1250016.9, -24077.19, 0.0, 10.000576, 9.968592 
4.085031e+3, 1.8486652e+2, -1161954.6, -1195657.3, -4.1007504, 0.00012074834, 0.00007585548, -1161954.6, -33646.535, 0.0, 10.000573, 9.956138 
4.085031e+3, 1.948227e+2, -1063810.1, -1097774.5, -6.664692, 0.00011788498, -0.000062036066, -1063810.1, -33072.49, 0.0, 10.000571, 9.955794 
4.085031e+3, 2.047722e+2, -975645.5, -1019371.4, -4.927607, 0.0001182905, 0.00006509724, -975645.5, -42413.06, 0.0, 10.00057, 9.943039 
4.0850306e+3, 2.1471529e+2, -877362.94, -921349.94, -5.9875035, 0.00012223367, -0.000111662775, -877362.94, -41572.71, 0.0, 10.000569, 9.942698 
4.0850306e+3, 2.2465168e+2, -789074.6, -843075.25, -3.8382854, 0.00012197579, 0.00013579255, -789074.6, -50661.02, 0.0, 10.000567, 9.929665 
4.0850306e+3, 2.345814e+2, -690648.1, -744901.6, -5.672283, 0.00011696371, -0.00009498582, -690648.1, -49545.84, 0.0, 10.000566, 9.929334 
4.085031e+3, 2.4450417e+2, -602346.6, -666993.75, -4.7008905, 0.00011434407, 0.00006100469, -602346.6, -58487.484, 0.0, 10.000564, 9.915871 
4.085031e+3, 2.5442016e+2, -503598.66, -568323.4, -5.841055, 0.00011458572, -0.0001117913, -503598.66, -56916.223, 0.0, 10.000563, 9.91577 
4.085031e+3, 2.6432908e+2, -415353.0, -490943.5, -2.6113489, 0.00011559127, 0.00013927104, -415353.0, -65777.94, 0.0, 10.000562, 9.901716 
4.085031e+3, 2.7423134e+2, -316072.63, -391332.94, -4.124724, 0.00011756187, -0.0002073405, -316072.63, -63539.848, 0.0, 10.00056, 9.902138 
4.085031e+3, 2.8412536e+2, -229612.1, -318060.34, -2.3073907, 0.00011820767, 0.00022302964, -229612.1, -74040.88, 0.0, 10.000558, 9.88518 
4.085031e+3, 2.940116e+2, -129912.48, -217750.0, -3.929002, 0.00011703585, -0.00026082952, -129912.48, -71226.3, 0.0, 10.000556, 9.885958 
4.085031e+3, 3.0392578e+2, -40183.137, -84752.5, -1.0268953, 0.000116075236, 0.00016767754, -40183.137, -40183.137, 0.0, 10.000554, 9.941904 
4.085031e+3, 3.1386957e+2, -39108.453, -82516.26, -1.8848758, 0.00011544507, -0.000053383406, -39108.453, -39108.453, 0.0, 10.000553, 9.943415 
4.0950316e+3, 1.24997266e+2, -1719238.6, -1724182.3, -0.7508253, 0.00012133972, 0.00006031005, -1719238.6, -4211.789, 0.0, 10.00059, 9.994037 
4.0950316e+3, 1.3499115e+2, -1621867.3, -1627400.1, -3.0824795, 0.00012412059, -0.00013250527, -1621867.3, -4780.4844, 0.0, 10.000587, 9.993253 
4.0950313e+3, 1.449785e+2, -1533747.0, -1548069.5, -2.1189477, 0.00012518876, 0.00012508883, -1533747.0, -14536.267, 0.0, 10.000585, 9.981602 
4.0950313e+3, 1.549601e+2, -1436024.8, -1450749.5, -4.151168, 0.00012453322, -0.000046428457, -1436024.8, -14633.546, 0.0, 10.000584, 9.9810705 
4.0950313e+3, 1.6493507e+2, -1347968.1, -1371861.4, -3.142215, 0.00012349694, 0.000041055373, -1347968.1, -24331.83, 0.0, 10.000581, 9.969001 
4.0950313e+3, 1.7490412e+2, -1250020.4, -1274226.1, -4.78077, 0.00012207209, -0.00006966344, -1250020.4, -24080.813, 0.0, 10.000576, 9.968587 
4.0950313e+3, 1.8486652e+2, -1161960.1, -1195667.9, -4.611359, 0.00012145226, 0.00007111682, -1161960.1, -33652.035, 0.0, 10.000573, 9.956131 
4.0950313e+3, 1.948227e+2, -1063815.6, -1097785.1, -7.157425, 0.0001216733, -0.00006198767, -1063815.6, -33077.9, 0.0, 10.000571, 9.955788 
4.0950313e+3, 2.047722e+2, -975647.94, -1019376.1, -5.2667546, 0.00012208994, 0.00006722314, -975647.94, -42415.395, 0.0, 10.00057, 9.943035 
4.0950313e+3, 2.1471529e+2, -877365.25, -921354.5, -6.325343, 0.0001227181, -0.00011039237, -877365.25, -41574.945, 0.0, 10.000569, 9.942695 
4.0950313e+3, 2.2465166e+2, -789078.56, -843083.1, -4.8165536, 0.000121016325, 0.00013628606, -789078.56, -50664.832, 0.0, 10.000567, 9.92966 
4.0950313e+3, 2.3458138e+2, -690652.06, -744909.56, -6.6735997, 0.00011667831, -0.000095179195, -690652.06, -49549.58, 0.0, 10.000566, 9.929329 
4.0950313e+3, 2.4450414e+2, -602349.2, -666998.94, -4.9637523, 0.000115559225, 0.00006136216, -602349.2, -58489.81, 0.0, 10.000564, 9.915867 
4.0950313e+3, 2.5442013e+2, -503601.13, -568328.44, -6.0692663, 0.00011828613, -0.00010940538, -503601.13, -56918.438, 0.0, 10.000563, 9.915766 
4.0950313e+3, 2.6432905e+2, -415356.5, -490950.63, -3.2489352, 0.00011976403, 0.00014203848, -415356.5, -65781.15, 0.0, 10.000562, 9.901711 
4.0950313e+3, 2.7423128e+2, -316076.16, -391340.2, -4.7893715, 0.000119643526, -0.00020629102, -316076.16, -63543.02, 0.0, 10.00056, 9.902133 
4.0950313e+3, 2.8412533e+2, -229615.8, -318068.0, -3.0075383, 0.000119037475, 0.00022310096, -229615.8, -74044.18, 0.0, 10.000558, 9.885176 
4.0950313e+3, 2.9401156e+2, -129916.15, -217757.66, -4.6316, 0.00011777426, -0.0002607142, -129916.15, -71229.516, 0.0, 10.000556, 9.885953 
4.0950313e+3, 3.0392572e+2, -40185.79, -84758.055, -1.6768807, 0.00011719423, 0.00016782385, -40185.79, -40185.79, 0.0, 10.000555, 9.9419 
4.0950316e+3, 3.138695e+2, -39110.996, -82521.58, -2.52879, 0.00011763509, -0.000053234326, -39110.992, -39110.992, 0.0, 10.000553, 9.943411 
4.105032e+3, 1.2499732e+2, -1719207.0, -1724174.1, 1.2915865, 0.00012409955, 0.000062088475, -1719207.0, -4180.573, 0.0, 10.000614, 9.994029 
4.1050318e+3, 1.3499118e+2, -1621836.6, -1627392.5, -2.126384, 0.00012663803, -0.0001316072, -1621836.6, -4750.0747, 0.0, 10.00061, 9.993245 
4.1050318e+3, 1.4497854e+2, -1533714.8, -1548056.1, -0.57007104, 0.00012712028, 0.00012697565, -1533714.8, -14504.283, 0.0, 10.000607, 9.981599 
4.1050318e+3, 1.5496013e+2, -1435996.3, -1450738.1, -0.9507411, 0.00012553368, -0.000043018692, -1435996.3, -14605.289, 0.0, 10.000603, 9.981067 
4.1050318e+3, 1.649351e+2, -1347942.6, -1371855.5, -0.218236, 0.0001242611, 0.00004328762, -1347942.6, -24306.535, 0.0, 10.0006, 9.968994 
4.1050318e+3, 1.7490412e+2, -1249991.6, -1274218.6, -3.5001724, 0.00012330833, -0.00007136306, -1249991.6, -24052.207, 0.0, 10.000598, 9.96858 
4.1050318e+3, 1.8486653e+2, -1161928.5, -1195657.1, -2.7235045, 0.00012318905, 0.00006933788, -1161928.5, -33620.535, 0.0, 10.000596, 9.956126 
4.1050318e+3, 1.948227e+2, -1063784.4, -1097774.6, -3.872801, 0.0001239403, -0.000059818663, -1063784.4, -33046.68, 0.0, 10.000594, 9.955783 
4.1050318e+3, 2.047722e+2, -975617.9, -1019365.0, -1.8535932, 0.00012387629, 0.00006984202, -975617.9, -42385.367, 0.0, 10.000591, 9.943031 
4.1050318e+3, 2.1471527e+2, -877339.44, -921345.6, -3.4986668, 0.00012292975, -0.00011110964, -877339.44, -41549.113, 0.0, 10.000588, 9.942691 
4.1050318e+3, 2.2465166e+2, -789055.6, -843078.3, -2.4703128, 0.000121168654, 0.00013438411, -789055.6, -50641.77, 0.0, 10.000586, 9.929654 
4.1050318e+3, 2.3458137e+2, -690626.7, -744903.7, -5.0653315, 0.000118486045, -0.00009583056, -690626.7, -49524.01, 0.0, 10.000585, 9.929323 
4.1050318e+3, 2.4450412e+2, -602321.6, -666989.4, -3.70524, 0.00011813808, 0.00006201871, -602321.6, -58462.03, 0.0, 10.000584, 9.915863 
4.1050318e+3, 2.544201e+2, -503575.72, -568319.9, -5.0845118, 0.00012057847, -0.00010737518, -503575.72, -56892.773, 0.0, 10.000582, 9.915763 
4.1050318e+3, 2.6432902e+2, -415333.2, -490944.22, -2.578702, 0.00012174672, 0.00014425989, -415333.2, -65757.53, 0.0, 10.00058, 9.901708 
4.1050318e+3, 2.7423126e+2, -316053.34, -391334.16, -4.0312886, 0.000121289595, -0.00020538336, -316053.34, -63519.875, 0.0, 10.000578, 9.902128 
4.1050318e+3, 2.841253e+2, -229593.4, -318062.38, -2.09449, 0.0001206363, 0.00022319052, -229593.4, -74021.414, 0.0, 10.000576, 9.885171 
4.1050318e+3, 2.940115e+2, -129894.055, -217752.25, -3.4713922, 0.00011972194, -0.00026075754, -129894.055, -71206.99, 0.0, 10.000573, 9.885948 
4.1050318e+3, 3.039257e+2, -40163.816, -84751.625, -0.48132673, 0.00011917673, 0.00016783687, -40163.816, -40163.816, 0.0, 10.000571, 9.941896 
4.1050318e+3, 3.1386948e+2, -39090.266, -82515.62, -1.3590802, 0.0001191824, -0.000052889824, -39090.266, -39090.266, 0.0, 10.000568, 9.943407 
4.115033e+3, 1.24997355e+2, -1719214.9, -1724188.9, -0.08452674, 0.00012804226, 0.00006024042, -1719214.9, -4188.8667, 0.0, 10.000614, 9.9940195 
4.115033e+3, 1.3499123e+2, -1621844.4, -1627407.1, -3.4939938, 0.00012835243, -0.0001244144, -1621844.4, -4758.236, 0.0, 10.00061, 9.993237 
4.115033e+3, 1.4497858e+2, -1533715.5, -1548057.8, -1.9589001, 0.0001276876, 0.00013657367, -1533715.5, -14505.467, 0.0, 10.000607, 9.981598 
4.115033e+3, 1.5496016e+2, -1435997.0, -1450739.8, -2.348314, 0.00012604057, -0.00003894697, -1435997.0, -14606.422, 0.0, 10.000603, 9.981066 
4.115033e+3, 1.6493513e+2, -1347949.9, -1371869.4, -1.1143496, 0.00012554061, 0.000044158503, -1347949.9, -24313.996, 0.0, 10.0006, 9.968986 
4.1150323e+3, 1.7490414e+2, -1249998.9, -1274232.4, -4.3898034, 0.00012621017, -0.00007132121, -1249998.9, -24059.514, 0.0, 10.000598, 9.968572 
4.1150323e+3, 1.8486655e+2, -1161931.1, -1195662.1, -3.259529, 0.00012594614, 0.000070481576, -1161931.1, -33623.195, 0.0, 10.000596, 9.956123 
4.1150323e+3, 1.9482271e+2, -1063786.9, -1097779.5, -4.406079, 0.00012470529, -0.00005555489, -1063786.9, -33049.266, 0.0, 10.000594, 9.95578 
4.1150323e+3, 2.047722e+2, -975621.44, -1019372.0, -3.186143, 0.00012367479, 0.000072948584, -975621.44, -42388.99, 0.0, 10.000591, 9.9430275 
4.1150323e+3, 2.1471527e+2, -877343.0, -921352.6, -4.8483043, 0.0001228718, -0.000113789385, -877343.0, -41552.62, 0.0, 10.000588, 9.942686 
4.1150323e+3, 2.2465163e+2, -789061.06, -843089.2, -2.855926, 0.00012241876, 0.00013011672, -789061.06, -50647.133, 0.0, 10.000586, 9.9296465 
4.1150323e+3, 2.3458135e+2, -690632.1, -744914.56, -5.417993, 0.00012236118, -0.00009693407, -690632.1, -49529.324, 0.0, 10.000585, 9.929316 
4.1150323e+3, 2.445041e+2, -602324.8, -666995.8, -4.432428, 0.00012206416, 0.00006297072, -602324.8, -58465.027, 0.0, 10.000584, 9.915859 
4.1150323e+3, 2.544201e+2, -503578.75, -568326.06, -5.8284917, 0.00012148047, -0.00010569627, -503578.75, -56895.586, 0.0, 10.000582, 9.915758 
4.1150323e+3, 2.64329e+2, -415336.53, -490951.06, -3.3265152, 0.000121566605, 0.00014594202, -415336.53, -65760.61, 0.0, 10.00058, 9.901703 
4.1150323e+3, 2.7423123e+2, -316056.66, -391341.0, -4.7803674, 0.0001225056, -0.00020461573, -316056.66, -63522.88, 0.0, 10.000578, 9.902123 
4.1150323e+3, 2.8412527e+2, -229596.66, -318069.13, -2.8377059, 0.00012299472, 0.00022329816, -229596.66, -74024.29, 0.0, 10.000576, 9.885166 
4.115033e+3, 2.9401147e+2, -129897.25, -217758.92, -4.2148542, 0.00012286402, -0.00026095737, -129897.25, -71209.78, 0.0, 10.000573, 9.885943 
4.115033e+3, 3.0392563e+2, -40166.44, -84757.13, -1.445115, 0.00012201217, 0.00016771846, -40166.44, -40166.44, 0.0, 10.000571, 9.941893 
4.115033e+3, 3.1386942e+2, -39092.824, -82521.0, -2.3483553, 0.00012009515, -0.00005235214, -39092.824, -39092.824, 0.0, 10.000568, 9.943403 
4.1250333e+3, 1.249974e+2, -1719185.0, -1724179.4, 0.32794544, 0.00013094395, 0.000058363083, -1719185.0, -4159.3594, 0.0, 10.000635, 9.994015 
4.1250333e+3, 1.3499126e+2, -1621814.1, -1627397.6, -0.5772272, 0.0001296938, -0.00012258026, -1621814.1, -4728.3853, 0.0, 10.000632, 9.993231 
4.1250333e+3, 1.4497861e+2, -1533683.6, -1548046.1, 0.9402826, 0.00012857231, 0.00013917721, -1533683.6, -14473.962, 0.0, 10.000628, 9.981593 
4.1250333e+3, 1.5496019e+2, -1435964.3, -1450727.8, -2.1272707, 0.00012757748, -0.000039638555, -1435964.3, -14573.965, 0.0, 10.000626, 9.981062 
4.1250333e+3, 1.6493516e+2, -1347919.1, -1371861.4, -1.3676552, 0.00012735355, 0.000042485688, -1347919.1, -24283.508, 0.0, 10.000623, 9.968978 
4.1250333e+3, 1.7490417e+2, -1249968.9, -1274224.9, -3.4820607, 0.00012791547, -0.000071614624, -1249968.9, -24029.742, 0.0, 10.00062, 9.968565 
4.1250333e+3, 1.8486655e+2, -1161900.4, -1195650.4, -1.922276, 0.00012734183, 0.000071514245, -1161900.4, -33592.582, 0.0, 10.000617, 9.95612 
4.1250333e+3, 1.9482271e+2, -1063759.5, -1097769.5, -3.4726236, 0.0001255801, -0.000053251813, -1063759.5, -33022.07, 0.0, 10.000613, 9.955776 
4.1250333e+3, 2.0477222e+2, -975595.2, -1019364.0, -2.5536165, 0.0001246328, 0.000074607626, -975595.2, -42362.773, 0.0, 10.000611, 9.943023 
4.1250333e+3, 2.1471527e+2, -877313.25, -921342.94, -4.4832973, 0.0001245667, -0.000114846036, -877313.25, -41522.895, 0.0, 10.000609, 9.942681 
4.1250333e+3, 2.2465163e+2, -789032.3, -843081.9, -2.2744863, 0.0001245036, 0.00012840668, -789032.3, -50618.3, 0.0, 10.0006075, 9.929641 
4.1250333e+3, 2.3458134e+2, -690606.8, -744909.1, -4.367704, 0.00012444315, -0.0000969636, -690606.8, -49503.867, 0.0, 10.000605, 9.929309 
4.1250333e+3, 2.4450408e+2, -602299.5, -666987.25, -3.0226889, 0.00012408153, 0.00006430821, -602299.5, -58439.535, 0.0, 10.000602, 9.915855 
4.1250333e+3, 2.5442007e+2, -503554.1, -568317.75, -4.061465, 0.00012335996, -0.00010336858, -503554.1, -56870.74, 0.0, 10.0006, 9.915755 
4.1250333e+3, 2.64329e+2, -415313.13, -490944.9, -1.3796157, 0.00012339072, 0.00014816223, -415313.13, -65736.984, 0.0, 10.000597, 9.901698 
4.1250333e+3, 2.742312e+2, -316033.16, -391334.97, -3.135786, 0.00012437945, -0.00020389898, -316033.16, -63499.086, 0.0, 10.000596, 9.902119 
4.1250333e+3, 2.841252e+2, -229573.13, -318062.97, -1.5504755, 0.00012489758, 0.00022302761, -229573.13, -74000.42, 0.0, 10.000594, 9.885161 
4.1250333e+3, 2.9401144e+2, -129874.21, -217753.1, -3.1996858, 0.00012476697, -0.00026150246, -129874.21, -71186.35, 0.0, 10.000591, 9.885939 
4.1250333e+3, 3.039256e+2, -40142.742, -84749.74, -0.65264565, 0.00012397095, 0.00016731789, -40142.742, -40142.742, 0.0, 10.000589, 9.941889 
4.1250333e+3, 3.138694e+2, -39068.293, -82513.05, -1.4575723, 0.00012219275, -0.000051991967, -39068.293, -39068.293, 0.0, 10.000587, 9.9434 
4.1350338e+3, 1.24997444e+2, -1719187.0, -1724183.3, -0.9357469, 0.00013281804, 0.000056539873, -1719187.0, -4161.8857, 0.0, 10.000635, 9.994012 
4.1350338e+3, 1.349913e+2, -1621816.1, -1627401.5, -1.8478713, 0.00013066722, -0.00012603364, -1621816.1, -4730.859, 0.0, 10.000632, 9.993228 
4.1350338e+3, 1.4497866e+2, -1533690.5, -1548059.1, -0.20934424, 0.00012977025, 0.0001348782, -1533690.5, -14481.246, 0.0, 10.000628, 9.981585 
4.1350338e+3, 1.5496022e+2, -1435971.1, -1450740.8, -3.269394, 0.00013013098, -0.000045031953, -1435971.1, -14581.087, 0.0, 10.000626, 9.981053 
4.1350338e+3, 1.6493517e+2, -1347923.9, -1371870.4, -2.4004502, 0.0001296929, 0.00003830158, -1347923.9, -24288.42, 0.0, 10.000623, 9.968973 
4.1350338e+3, 1.749042e+2, -1249973.5, -1274233.9, -4.5146303, 0.00012843982, -0.000072238836, -1249973.5, -24034.557, 0.0, 10.00062, 9.968559 
4.1350338e+3, 1.8486658e+2, -1161903.8, -1195657.0, -3.2468946, 0.00012739372, 0.00007243767, -1161903.8, -33596.145, 0.0, 10.000617, 9.956115 
4.1350338e+3, 1.9482273e+2, -1063762.9, -1097776.1, -4.8010435, 0.00012656304, -0.000052884236, -1063762.9, -33025.527, 0.0, 10.000613, 9.955772 
4.1350338e+3, 2.0477222e+2, -975599.3, -1019372.1, -3.0275445, 0.00012673518, 0.00007483756, -975599.3, -42366.973, 0.0, 10.000611, 9.943017 
4.1350338e+3, 2.1471527e+2, -877317.4, -921351.06, -4.940141, 0.00012799223, -0.00011430078, -877317.4, -41527.02, 0.0, 10.000609, 9.942677 
4.1350338e+3, 2.2465162e+2, -789036.8, -843090.9, -3.4089031, 0.00012741286, 0.00012922092, -789036.8, -50622.824, 0.0, 10.0006075, 9.929635 
4.1350338e+3, 2.3458132e+2, -690611.3, -744918.1, -5.5251045, 0.00012475516, -0.00009593298, -690611.3, -49508.285, 0.0, 10.000605, 9.929303 
4.1350338e+3, 2.4450408e+2, -602301.94, -666992.2, -3.9359581, 0.00012421473, 0.00006602637, -602301.94, -58441.84, 0.0, 10.000602, 9.915853 
4.1350338e+3, 2.5442007e+2, -503556.4, -568322.44, -4.9642897, 0.00012620438, -0.0001004002, -503556.4, -56872.9, 0.0, 10.0006, 9.915751 
4.1350338e+3, 2.6432896e+2, -415317.0, -490952.8, -2.0676115, 0.00012719336, 0.00015091384, -415317.0, -65740.664, 0.0, 10.000597, 9.901692 
4.1350338e+3, 2.742312e+2, -316037.1, -391343.03, -3.808987, 0.00012690286, -0.00020323221, -316037.1, -63502.75, 0.0, 10.000596, 9.902114 
4.1350338e+3, 2.8412518e+2, -229576.88, -318070.75, -2.3757362, 0.00012635093, 0.0002223839, -229576.88, -74003.86, 0.0, 10.000594, 9.885157 
4.1350338e+3, 2.9401138e+2, -129877.91, -217760.8, -4.037552, 0.00012544701, -0.0002623883, -129877.91, -71189.68, 0.0, 10.000591, 9.885934 
4.1350338e+3, 3.0392554e+2, -40145.227, -84754.96, -1.4517541, 0.00012506459, 0.00016663881, -40145.227, -40145.227, 0.0, 10.000589, 9.941886 
4.1350338e+3, 3.1386933e+2, -39070.64, -82517.99, -2.2529798, 0.00012546005, -0.00005180686, -39070.64, -39070.64, 0.0, 10.000587, 9.943397 
4.1450346e+3, 1.24997504e+2, -1719156.1, -1724172.8, 0.7679674, 0.00013483365, 0.000058645244, -1719156.1, -4131.4966, 0.0, 10.000657, 9.994007 
4.1450346e+3, 1.3499135e+2, -1621784.3, -1627390.5, -2.234498, 0.00013245354, -0.00012611368, -1621784.3, -4699.4063, 0.0, 10.000654, 9.993223 
4.1450346e+3, 1.4497869e+2, -1533658.6, -1548048.5, -0.7125875, 0.00013146791, 0.00013444928, -1533658.6, -14449.747, 0.0, 10.000651, 9.98158 
4.1450343e+3, 1.5496024e+2, -1435939.9, -1450730.5, -1.7298497, 0.00013188136, -0.00004483593, -1435939.9, -14550.314, 0.0, 10.0006485, 9.981048 
4.1450343e+3, 1.649352e+2, -1347894.1, -1371861.4, 0.14818919, 0.00013117571, 0.00003888451, -1347894.1, -24258.984, 0.0, 10.000645, 9.968967 
4.1450343e+3, 1.7490423e+2, -1249945.3, -1274225.6, -2.057486, 0.0001293283, -0.00007151041, -1249945.3, -24006.576, 0.0, 10.000641, 9.968554 
4.1450343e+3, 1.8486659e+2, -1161874.4, -1195646.8, -0.84116006, 0.00012857164, 0.0000734082, -1161874.4, -33567.016, 0.0, 10.000638, 9.956111 
4.1450343e+3, 1.9482274e+2, -1063732.0, -1097765.1, -2.565003, 0.00012895427, -0.00005157038, -1063732.0, -32994.863, 0.0, 10.000635, 9.955768 
4.1450343e+3, 2.0477223e+2, -975569.8, -1019363.06, -0.59619844, 0.00012935307, 0.00007568167, -975569.8, -42337.57, 0.0, 10.000633, 9.943012 
4.1450343e+3, 2.1471529e+2, -877290.7, -921343.5, -2.6309788, 0.00012976892, -0.00011480606, -877290.7, -41500.38, 0.0, 10.000629, 9.942671 
4.1450343e+3, 2.2465162e+2, -789011.94, -843085.3, -1.576508, 0.00012890947, 0.00012873705, -789011.94, -50597.95, 0.0, 10.0006275, 9.929628 
4.1450343e+3, 2.3458132e+2, -690585.9, -744912.4, -3.996539, 0.00012660681, -0.00009484411, -690585.9, -49482.816, 0.0, 10.000625, 9.929297 
4.1450343e+3, 2.4450406e+2, -602274.3, -666982.5, -2.5782237, 0.0001264139, 0.000067863366, -602274.3, -58414.117, 0.0, 10.000622, 9.915849 
4.1450343e+3, 2.5442004e+2, -503528.84, -568312.75, -3.9971728, 0.00012874129, -0.0000988012, -503528.84, -56845.203, 0.0, 10.00062, 9.915749 
4.1450343e+3, 2.6432893e+2, -415291.13, -490945.72, -1.1950544, 0.00012968268, 0.00015197597, -415291.13, -65714.625, 0.0, 10.000617, 9.901688 
4.1450343e+3, 2.7423117e+2, -316012.5, -391336.78, -2.843124, 0.00012885424, -0.00020308496, -316012.5, -63477.94, 0.0, 10.000614, 9.902108 
4.1450343e+3, 2.8412515e+2, -229552.53, -318064.16, -1.2003922, 0.00012803425, 0.00022218555, -229552.53, -73979.23, 0.0, 10.000612, 9.885152 
4.1450343e+3, 2.9401135e+2, -129853.34, -217754.11, -2.5303686, 0.00012723388, -0.00026215144, -129853.34, -71164.79, 0.0, 10.00061, 9.885929 
4.1450343e+3, 3.039255e+2, -40119.992, -84746.99, 0.15536502, 0.00012682762, 0.00016704833, -40119.992, -40119.992, 0.0, 10.000608, 9.941882 
4.1450343e+3, 3.138693e+2, -39045.13, -82509.76, -0.88028914, 0.00012700679, -0.000051621486, -39045.13, -39045.13, 0.0, 10.000607, 9.943393 
4.155035e+3, 1.2499756e+2, -1719163.0, -1724185.6, -0.22095437, 0.00013698802, 0.000064716296, -1719163.0, -4138.9873, 0.0, 10.000657, 9.993999 
4.155035e+3, 1.349914e+2, -1621791.0, -1627403.4, -3.2192528, 0.0001350418, -0.00012286655, -1621791.0, -4706.722, 0.0, 10.000654, 9.993216 
4.155035e+3, 1.4497875e+2, -1533660.9, -1548052.8, -1.9901294, 0.00013365866, 0.0001378369, -1533660.9, -14452.462, 0.0, 10.000651, 9.981577 
4.155035e+3, 1.5496029e+2, -1435942.1, -1450734.9, -3.0127532, 0.00013283927, -0.000039125236, -1435942.1, -14553.0, 0.0, 10.0006485, 9.981046 
4.155035e+3, 1.6493525e+2, -1347898.9, -1371870.8, -1.2151115, 0.00013181311, 0.00004417157, -1347898.9, -24264.242, 0.0, 10.000645, 9.968961 
4.155035e+3, 1.7490426e+2, -1249950.1, -1274235.0, -3.4223356, 0.00013057588, -0.00006944716, -1249950.1, -24011.697, 0.0, 10.000641, 9.968548 
4.155035e+3, 1.8486662e+2, -1161878.3, -1195654.1, -1.7799276, 0.0001308605, 0.00007442534, -1161878.3, -33571.03, 0.0, 10.000638, 9.956106 
4.1550347e+3, 1.9482277e+2, -1063735.8, -1097772.4, -3.4984918, 0.00013273513, -0.0000493227, -1063735.8, -32998.797, 0.0, 10.000635, 9.955763 
4.1550347e+3, 2.0477225e+2, -975574.2, -1019371.7, -1.7027676, 0.00013247976, 0.00007713212, -975574.2, -42342.145, 0.0, 10.000633, 9.9430065 
4.1550347e+3, 2.1471529e+2, -877295.06, -921352.2, -3.7423882, 0.00012991883, -0.000116347415, -877295.06, -41504.84, 0.0, 10.000629, 9.942665 
4.1550347e+3, 2.2465163e+2, -789017.1, -843095.56, -2.5715504, 0.00012901227, 0.00012697282, -789017.1, -50603.125, 0.0, 10.0006275, 9.929622 
4.1550347e+3, 2.3458132e+2, -690591.0, -744922.6, -4.9852138, 0.00012997772, -0.000093697585, -690591.0, -49487.902, 0.0, 10.000625, 9.929291 
4.1550347e+3, 2.4450406e+2, -602277.56, -666989.06, -3.480008, 0.00013065162, 0.00006981771, -602277.56, -58417.277, 0.0, 10.000622, 9.915844 
4.1550347e+3, 2.5442004e+2, -503531.94, -568319.06, -4.894648, 0.00013097507, -0.0000985533, -503531.94, -56848.19, 0.0, 10.00062, 9.915744 
4.1550347e+3, 2.6432893e+2, -415294.88, -490953.4, -2.1361597, 0.00013087648, 0.00015137112, -415294.88, -65718.2, 0.0, 10.000617, 9.901683 
4.1550347e+3, 2.7423114e+2, -316016.25, -391344.47, -3.788643, 0.00013024143, -0.00020345027, -316016.25, -63481.465, 0.0, 10.000615, 9.902103 
4.1550347e+3, 2.8412515e+2, -229555.69, -318070.7, -1.9720311, 0.00012994459, 0.00022242672, -229555.69, -73982.12, 0.0, 10.000612, 9.885147 
4.1550347e+3, 2.9401132e+2, -129856.41, -217760.52, -3.286533, 0.00013011295, -0.0002608067, -129856.41, -71167.555, 0.0, 10.00061, 9.885925 
4.1550347e+3, 3.0392548e+2, -40122.813, -84752.914, -0.58905935, 0.00012925138, 0.00016853212, -40122.813, -40122.813, 0.0, 10.000608, 9.941878 
4.155035e+3, 3.1386927e+2, -39047.926, -82515.63, -1.6219952, 0.0001268564, -0.00005143583, -39047.926, -39047.926, 0.0, 10.000607, 9.943389 
4.1650358e+3, 1.2499763e+2, -1719129.4, -1724175.3, 2.2808952, 0.00013891365, 0.000064815555, -1719129.4, -4105.9067, 0.0, 10.000682, 9.993992 
4.1650358e+3, 1.3499147e+2, -1621760.1, -1627394.5, 0.31371817, 0.00013704626, -0.000121677986, -1621760.1, -4676.34, 0.0, 10.000677, 9.993209 
4.1650358e+3, 1.4497879e+2, -1533630.0, -1548041.6, 1.3262827, 0.00013559606, 0.00013926798, -1533630.0, -14421.987, 0.0, 10.000673, 9.981572 
4.1650358e+3, 1.5496035e+2, -1435912.0, -1450724.1, -1.0685104, 0.00013456268, -0.00003892378, -1435912.0, -14523.259, 0.0, 10.0006695, 9.981041 
4.1650358e+3, 1.6493529e+2, -1347870.1, -1371862.9, -0.009929052, 0.00013365789, 0.000044154975, -1347870.1, -24235.816, 0.0, 10.000666, 9.968955 
4.1650358e+3, 1.7490429e+2, -1249920.3, -1274226.8, -2.6013718, 0.00013288458, -0.00006864934, -1249920.3, -23982.178, 0.0, 10.000663, 9.968541 
4.1650358e+3, 1.8486665e+2, -1161846.9, -1195643.0, -0.94334674, 0.0001333251, 0.000075603944, -1161846.9, -33539.97, 0.0, 10.00066, 9.956101 
4.1650358e+3, 1.9482279e+2, -1063705.6, -1097762.0, -2.5460222, 0.00013503355, -0.000048216174, -1063705.6, -32968.953, 0.0, 10.000657, 9.955758 
4.1650358e+3, 2.0477226e+2, -975546.25, -1019364.25, -0.95971483, 0.0001346439, 0.00007764083, -975546.25, -42314.367, 0.0, 10.000654, 9.943001 
4.1650358e+3, 2.147153e+2, -877267.56, -921345.06, -3.4020329, 0.0001319832, -0.000117005264, -877267.56, -41477.504, 0.0, 10.00065, 9.942659 
4.1650358e+3, 2.2465163e+2, -788989.7, -843088.06, -1.9610283, 0.00013113838, 0.00012658989, -788989.7, -50575.758, 0.0, 10.000648, 9.929616 
4.1650358e+3, 2.3458132e+2, -690563.8, -744915.3, -3.6459174, 0.00013234817, -0.00009217409, -690563.8, -49460.758, 0.0, 10.000645, 9.929285 
4.1650358e+3, 2.4450405e+2, -602249.5, -666979.7, -1.647321, 0.00013299195, 0.00007183078, -602249.5, -58389.215, 0.0, 10.000643, 9.91584 
4.1650358e+3, 2.5442e+2, -503504.25, -568309.9, -3.0177372, 0.00013295727, -0.00009774403, -503504.25, -56820.426, 0.0, 10.00064, 9.91574 
4.1650358e+3, 2.643289e+2, -415268.38, -490946.53, -0.3922737, 0.00013265276, 0.00015147841, -415268.38, -65691.58, 0.0, 10.000637, 9.901677 
4.1650358e+3, 2.742311e+2, -315989.6, -391337.72, -2.487585, 0.00013200617, -0.00020340223, -315989.6, -63454.61, 0.0, 10.000635, 9.902098 
4.1650358e+3, 2.8412512e+2, -229528.3, -318062.3, -0.9153657, 0.00013172117, 0.00022264376, -229528.3, -73954.49, 0.0, 10.000633, 9.885143 
4.1650358e+3, 2.940113e+2, -129829.81, -217752.45, -2.3169067, 0.00013193236, -0.0002601113, -129829.81, -71140.68, 0.0, 10.00063, 9.885921 
4.1650358e+3, 3.0392545e+2, -40096.695, -84744.27, 0.44776738, 0.00013097003, 0.00016923125, -40096.695, -40096.695, 0.0, 10.0006275, 9.9418745 
4.1650358e+3, 3.138692e+2, -39022.652, -82507.3, -0.20720568, 0.0001282608, -0.000051440584, -39022.652, -39022.652, 0.0, 10.000626, 9.943385 
4.1750365e+3, 1.2499769e+2, -1719133.9, -1724183.8, 0.6796903, 0.00014061324, 0.000059102964, -1719133.9, -4111.0483, 0.0, 10.000682, 9.993987 
4.1750365e+3, 1.3499153e+2, -1621764.6, -1627402.9, -1.2882981, 0.00013847488, -0.00012251831, -1621764.6, -4681.413, 0.0, 10.000677, 9.993203 
4.1750365e+3, 1.4497884e+2, -1533635.4, -1548051.8, -0.10968003, 0.00013728358, 0.0001387708, -1533635.4, -14427.923, 0.0, 10.000673, 9.981566 
4.1750363e+3, 1.549604e+2, -1435917.4, -1450734.3, -2.503308, 0.00013704048, -0.000044154523, -1435917.4, -14529.032, 0.0, 10.0006695, 9.981034 
4.1750363e+3, 1.6493532e+2, -1347875.9, -1371873.9, -1.0923713, 0.00013669285, 0.000038908594, -1347875.9, -24241.922, 0.0, 10.000666, 9.968948 
4.1750363e+3, 1.7490432e+2, -1249925.9, -1274237.6, -3.6783845, 0.00013623975, -0.000069099544, -1249925.9, -23988.182, 0.0, 10.000663, 9.968534 
4.1750363e+3, 1.8486668e+2, -1161850.4, -1195649.9, -2.1380436, 0.00013596322, 0.00007694166, -1161850.4, -33543.805, 0.0, 10.00066, 9.956098 
4.1750363e+3, 1.9482282e+2, -1063709.1, -1097768.8, -3.7439098, 0.0001358702, -0.00004823495, -1063709.1, -32972.68, 0.0, 10.000657, 9.955754 
4.1750363e+3, 2.0477228e+2, -975551.44, -1019374.56, -2.1493351, 0.0001358588, 0.00007722085, -975551.44, -42319.8, 0.0, 10.000654, 9.942994 
4.1750363e+3, 2.1471532e+2, -877272.8, -921355.4, -4.589427, 0.00013593557, -0.00011679209, -877272.8, -41482.844, 0.0, 10.00065, 9.942653 
4.1750363e+3, 2.2465166e+2, -788993.4, -843095.5, -2.9844866, 0.0001352599, 0.00012756884, -788993.4, -50579.555, 0.0, 10.000648, 9.929611 
4.1750363e+3, 2.3458132e+2, -690567.44, -744922.6, -4.6664596, 0.00013373235, -0.00009027881, -690567.44, -49464.42, 0.0, 10.000645, 9.92928 
4.1750363e+3, 2.4450405e+2, -602252.6, -666985.9, -2.6092267, 0.00013346142, 0.000073901996, -602252.6, -58392.305, 0.0, 10.000643, 9.915836 
4.1750363e+3, 2.5442e+2, -503507.28, -568316.0, -3.9783695, 0.00013469151, -0.000096380856, -503507.28, -56823.41, 0.0, 10.00064, 9.915736 
4.1750363e+3, 2.643289e+2, -415272.94, -490955.88, -1.246267, 0.00013500355, 0.00015228828, -415272.94, -65696.05, 0.0, 10.000637, 9.901671 
4.1750363e+3, 2.742311e+2, -315994.2, -391347.22, -3.332229, 0.00013414353, -0.00020294644, -315994.2, -63459.06, 0.0, 10.000635, 9.902091 
4.1750363e+3, 2.841251e+2, -229531.67, -318069.3, -1.8426112, 0.00013336618, 0.00022283704, -229531.67, -73957.66, 0.0, 10.000633, 9.8851385 
4.1750363e+3, 2.940113e+2, -129833.04, -217759.2, -3.2524786, 0.0001327072, -0.0002600563, -129833.04, -71143.65, 0.0, 10.00063, 9.885916 
4.1750363e+3, 3.0392542e+2, -40098.883, -84748.9, -0.5258975, 0.00013199361, 0.00016915661, -40098.883, -40098.883, 0.0, 10.0006275, 9.941871 
4.1750363e+3, 3.1386918e+2, -39024.72, -82511.67, -1.1884788, 0.00013119847, -0.000051632764, -39024.72, -39024.72, 0.0, 10.000626, 9.943382 
4.185037e+3, 1.2499776e+2, -1719102.3, -1724173.1, 1.0100113, 0.00014201435, 0.0000588675, -1719102.3, -4080.0771, 0.0, 10.000704, 9.993981 
4.185037e+3, 1.3499159e+2, -1621733.0, -1627392.5, -1.1962367, 0.00014046107, -0.00012249436, -1621733.0, -4650.45, 0.0, 10.0007, 9.993197 
4.185037e+3, 1.449789e+2, -1533604.1, -1548042.3, 0.15324438, 0.0001395449, 0.00013884458, -1533604.1, -14397.246, 0.0, 10.000696, 9.98156 
4.185037e+3, 1.5496044e+2, -1435885.8, -1450724.6, -2.08092, 0.00013926529, -0.000044705528, -1435885.8, -14498.003, 0.0, 10.000692, 9.981029 
4.185037e+3, 1.6493537e+2, -1347844.3, -1371863.6, 0.06372112, 0.00013908258, 0.000038856007, -1347844.3, -24210.832, 0.0, 10.000689, 9.968943 
4.185037e+3, 1.7490436e+2, -1249895.8, -1274228.3, -1.5249331, 0.00013900001, -0.00006750814, -1249895.8, -23958.387, 0.0, 10.000685, 9.968529 
4.185037e+3, 1.8486671e+2, -1161820.6, -1195640.1, 0.2706092, 0.00013865971, 0.00007872647, -1161820.6, -33514.363, 0.0, 10.000682, 9.956092 
4.1850367e+3, 1.9482285e+2, -1063679.8, -1097759.4, -1.8601382, 0.00013804874, -0.000047773086, -1063679.8, -32943.58, 0.0, 10.000678, 9.9557495 
4.1850367e+3, 2.0477231e+2, -975522.7, -1019366.44, -0.15869646, 0.0001378516, 0.00007720193, -975522.7, -42291.27, 0.0, 10.000675, 9.942988 
4.1850367e+3, 2.1471533e+2, -877243.56, -921347.1, -2.046468, 0.00013810226, -0.00011638021, -877243.56, -41453.832, 0.0, 10.000672, 9.942647 
4.1850367e+3, 2.2465166e+2, -788964.2, -843087.06, -0.4654869, 0.00013755243, 0.00012825237, -788964.2, -50550.484, 0.0, 10.0006695, 9.9296055 
4.1850367e+3, 2.3458134e+2, -690539.25, -744914.75, -2.8233213, 0.000136096, -0.00008950308, -690539.25, -49436.293, 0.0, 10.000667, 9.929275 
4.1850367e+3, 2.4450406e+2, -602223.8, -666976.75, -1.058281, 0.00013571014, 0.00007451596, -602223.8, -58363.53, 0.0, 10.000664, 9.915832 
4.1850367e+3, 2.5442e+2, -503477.63, -568306.44, -2.880061, 0.00013660318, -0.000096231495, -503477.63, -56793.74, 0.0, 10.000662, 9.915731 
4.1850367e+3, 2.643289e+2, -415243.9, -490947.56, -0.28253692, 0.00013661565, 0.00015239601, -415243.9, -65666.94, 0.0, 10.000659, 9.901666 
4.1850367e+3, 2.742311e+2, -315966.38, -391339.66, -1.7984173, 0.00013550417, -0.00020234108, -315966.38, -63431.117, 0.0, 10.000656, 9.902086 
4.1850367e+3, 2.841251e+2, -229504.2, -318061.3, -0.059189126, 0.00013467263, 0.00022366454, -229504.2, -73930.016, 0.0, 10.000653, 9.885134 
4.1850367e+3, 2.9401127e+2, -129805.984, -217751.42, -1.700416, 0.00013422921, -0.00025938635, -129805.984, -71116.375, 0.0, 10.000651, 9.885911 
4.1850367e+3, 3.039254e+2, -40071.31, -84740.34, 0.6600963, 0.00013382749, 0.00016949893, -40071.31, -40071.31, 0.0, 10.0006485, 9.941867 
4.1850367e+3, 3.1386915e+2, -38995.605, -82502.305, -0.91108686, 0.0001334845, -0.00005186668, -38995.605, -38995.605, 0.0, 10.000648, 9.943378 
4.195038e+3, 1.2499783e+2, -1719107.3, -1724182.6, -0.5553812, 0.00014312075, 0.0000639411, -1719107.3, -4085.8816, 0.0, 10.000704, 9.993976 
4.195038e+3, 1.3499166e+2, -1621738.0, -1627401.9, -2.763544, 0.00014299678, -0.000121618774, -1621738.0, -4656.104, 0.0, 10.0007, 9.993192 
4.1950375e+3, 1.4497896e+2, -1533609.1, -1548051.9, -1.166739, 0.00014237135, 0.00013948047, -1533609.1, -14402.852, 0.0, 10.000696, 9.981554 
4.1950375e+3, 1.549605e+2, -1435890.8, -1450734.1, -3.3996465, 0.00014124006, -0.000040644834, -1435890.8, -14503.519, 0.0, 10.000692, 9.981023 
4.1950375e+3, 1.6493542e+2, -1347847.9, -1371870.5, -1.2935793, 0.0001408357, 0.000043922, -1347847.9, -24214.86, 0.0, 10.000689, 9.968938 
4.1950375e+3, 1.749044e+2, -1249899.1, -1274234.9, -2.8871043, 0.00014117359, -0.00006390433, -1249899.1, -23962.313, 0.0, 10.000685, 9.968525 
4.1950375e+3, 1.8486676e+2, -1161825.3, -1195649.1, -0.99077517, 0.00014141353, 0.00008095238, -1161825.3, -33519.395, 0.0, 10.000682, 9.956086 
4.1950375e+3, 1.9482288e+2, -1063684.4, -1097768.3, -3.1188788, 0.0001415498, -0.00004683731, -1063684.4, -32948.508, 0.0, 10.000678, 9.955744 
4.1950375e+3, 2.0477234e+2, -975526.8, -1019374.5, -1.2106844, 0.00014061108, 0.000077578385, -975526.8, -42295.66, 0.0, 10.000675, 9.942983 
4.1950375e+3, 2.1471536e+2, -877247.6, -921355.1, -3.09617, 0.00013850917, -0.00011577201, -877247.6, -41458.12, 0.0, 10.000672, 9.942642 
4.1950375e+3, 2.246517e+2, -788969.25, -843097.06, -1.6962277, 0.00013804244, 0.00012864529, -788969.25, -50555.695, 0.0, 10.0006695, 9.9296 
4.1950375e+3, 2.3458135e+2, -690544.25, -744924.75, -4.059153, 0.0001394251, -0.00008983048, -690544.25, -49441.395, 0.0, 10.000667, 9.929268 
4.1950375e+3, 2.4450406e+2, -602227.9, -666984.9, -1.7934163, 0.0001397126, 0.00007369374, -602227.9, -58367.613, 0.0, 10.000664, 9.915826 
4.1950375e+3, 2.5442e+2, -503481.6, -568314.5, -3.5879114, 0.0001386901, -0.00009727864, -503481.6, -56797.684, 0.0, 10.000662, 9.915726 
4.1950375e+3, 2.643289e+2, -415247.44, -490954.84, -1.3598496, 0.0001375001, 0.00015181149, -415247.44, -65670.43, 0.0, 10.000659, 9.901661 
4.1950375e+3, 2.7423108e+2, -315969.84, -391346.84, -2.9037235, 0.00013609957, -0.00020158819, -315969.84, -63434.496, 0.0, 10.000656, 9.9020815 
4.1950375e+3, 2.8412506e+2, -229507.89, -318068.97, -1.0812713, 0.00013564558, 0.0002251174, -229507.89, -73933.57, 0.0, 10.000653, 9.885128 
4.1950375e+3, 2.9401124e+2, -129809.64, -217759.08, -2.7155921, 0.00013648778, -0.00025810997, -129809.64, -71119.85, 0.0, 10.000651, 9.885906 
4.1950375e+3, 3.0392537e+2, -40075.098, -84748.305, 0.027830485, 0.00013646024, 0.00017025245, -40075.098, -40075.098, 0.0, 10.0006485, 9.941861 
4.1950375e+3, 3.1386912e+2, -38999.426, -82510.32, -1.4948161, 0.00013512884, -0.00005214204, -38999.426, -38999.426, 0.0, 10.000648, 9.943373 
4.2050385e+3, 1.24997914e+2, -1719074.6, -1724173.0, 3.1377301, 0.00014497766, 0.00006467351, -1719074.6, -4054.0557, 0.0, 10.000728, 9.993969 
4.2050385e+3, 1.3499174e+2, -1621705.3, -1627392.3, 0.25956303, 0.00014498158, -0.00012140395, -1621705.3, -4624.042, 0.0, 10.000724, 9.993185 
4.2050385e+3, 1.4497903e+2, -1533575.9, -1548040.6, 1.741989, 0.00014450296, 0.00013991063, -1533575.9, -14370.197, 0.0, 10.000719, 9.981548 
4.2050385e+3, 1.5496056e+2, -1435858.6, -1450723.6, -0.24580489, 0.00014353686, -0.00003957069, -1435858.6, -14472.002, 0.0, 10.000715, 9.981017 
4.2050385e+3, 1.6493547e+2, -1347816.5, -1371860.9, 1.480409, 0.00014322922, 0.000045131834, -1347816.5, -24184.033, 0.0, 10.000711, 9.968932 
4.2050385e+3, 1.7490447e+2, -1249867.5, -1274225.3, -1.4298346, 0.00014359379, -0.00006307596, -1249867.5, -23931.139, 0.0, 10.000709, 9.968518 
4.205038e+3, 1.848668e+2, -1161793.0, -1195638.4, -0.0156119205, 0.00014379207, 0.00008169115, -1161793.0, -33487.574, 0.0, 10.000705, 9.956081 
4.205038e+3, 1.9482292e+2, -1063652.5, -1097757.9, -1.8095683, 0.0001438149, -0.000045883495, -1063652.5, -32917.027, 0.0, 10.000702, 9.955738 
4.205038e+3, 2.0477237e+2, -975496.1, -1019365.4, 0.14504728, 0.00014272101, 0.000078071935, -975496.1, -42265.277, 0.0, 10.000698, 9.942977 
4.205038e+3, 2.1471539e+2, -877218.06, -921346.7, -2.265282, 0.0001404187, -0.00011646896, -877218.06, -41428.79, 0.0, 10.000694, 9.9426365 
4.205038e+3, 2.2465171e+2, -788939.7, -843089.1, -0.90027046, 0.00013999612, 0.00012803913, -788939.7, -50526.332, 0.0, 10.000692, 9.929593 
4.205038e+3, 2.3458137e+2, -690512.94, -744916.06, -3.0942988, 0.0001416996, -0.000088895285, -690512.94, -49410.234, 0.0, 10.0006895, 9.929262 
4.205038e+3, 2.4450408e+2, -602195.2, -666973.25, -0.3754212, 0.00014189605, 0.000075081596, -602195.2, -58335.06, 0.0, 10.000688, 9.915822 
4.205038e+3, 2.5442e+2, -503451.6, -568304.1, -1.3063636, 0.00014029037, -0.000096739335, -503451.6, -56767.74, 0.0, 10.000684, 9.915722 
4.205038e+3, 2.643289e+2, -415219.7, -490947.56, 1.119965, 0.00013887926, 0.0001518199, -415219.7, -65642.664, 0.0, 10.000681, 9.901655 
4.205038e+3, 2.7423108e+2, -315941.06, -391339.25, -1.2762041, 0.00013771949, -0.00020170285, -315941.06, -63405.68, 0.0, 10.000679, 9.902076 
4.205038e+3, 2.8412506e+2, -229478.08, -318060.47, -0.06436469, 0.00013748741, 0.00022508523, -229478.08, -73903.63, 0.0, 10.000676, 9.885123 
4.205038e+3, 2.9401124e+2, -129779.63, -217750.55, -1.9378496, 0.00013852358, -0.00025778034, -129779.63, -71089.67, 0.0, 10.000674, 9.8859005 
4.205038e+3, 3.0392537e+2, -40045.56, -84738.85, 1.0327102, 0.00013842, 0.0001709154, -40045.56, -40045.56, 0.0, 10.000671, 9.941857 
4.205038e+3, 3.138691e+2, -38972.613, -82502.04, 0.4378389, 0.00013661184, -0.000051190633, -38972.613, -38972.613, 0.0, 10.000668, 9.943369 
4.2150396e+3, 1.24997996e+2, -1719081.3, -1724185.4, 1.6318567, 0.00014757202, 0.00006107605, -1719081.3, -4061.5034, 0.0, 10.000728, 9.993961 
4.2150396e+3, 1.3499181e+2, -1621711.8, -1627404.6, -1.2429969, 0.00014642338, -0.00012184013, -1621711.8, -4631.3555, 0.0, 10.000724, 9.993177 
4.215039e+3, 1.4497909e+2, -1533580.3, -1548049.1, 0.1718527, 0.00014595024, 0.00014013774, -1533580.3, -14375.367, 0.0, 10.00072, 9.981544 
4.215039e+3, 1.5496062e+2, -1435863.0, -1450732.0, -1.8176161, 0.00014615, -0.000041437972, -1435863.0, -14477.048, 0.0, 10.000715, 9.981011 
4.215039e+3, 1.6493553e+2, -1347822.9, -1371873.1, 0.21864073, 0.00014625263, 0.000042543837, -1347822.9, -24191.02, 0.0, 10.000711, 9.9689245 
4.215039e+3, 1.7490451e+2, -1249873.9, -1274237.5, -2.685058, 0.00014625695, -0.00006498144, -1249873.9, -23937.986, 0.0, 10.000709, 9.968511 
4.215039e+3, 1.8486685e+2, -1161796.9, -1195646.1, -1.3246875, 0.00014580111, 0.000080964746, -1161796.9, -33491.953, 0.0, 10.000705, 9.956077 
4.215039e+3, 1.9482297e+2, -1063656.4, -1097765.5, -3.1209574, 0.00014486283, -0.000044911736, -1063656.4, -32921.305, 0.0, 10.000702, 9.955733 
4.215039e+3, 2.0477241e+2, -975501.25, -1019375.56, -1.1349645, 0.00014419132, 0.00007868104, -975501.25, -42270.813, 0.0, 10.000698, 9.94297 
4.215039e+3, 2.147154e+2, -877223.2, -921356.9, -3.5445607, 0.00014380849, -0.000118451535, -877223.2, -41434.195, 0.0, 10.000694, 9.94263 
4.215039e+3, 2.2465172e+2, -788944.4, -843098.56, -1.6748058, 0.00014339169, 0.0001264487, -788944.4, -50531.266, 0.0, 10.000692, 9.929587 
4.2150387e+3, 2.3458138e+2, -690517.6, -744925.44, -3.849117, 0.0001429357, -0.00008671657, -690517.6, -49415.074, 0.0, 10.0006895, 9.929256 
4.2150387e+3, 2.445041e+2, -602197.56, -666978.0, -1.693746, 0.00014228813, 0.000078646495, -602197.56, -58337.555, 0.0, 10.000688, 9.915819 
4.2150387e+3, 2.5442004e+2, -503453.78, -568308.6, -2.6574733, 0.00014141142, -0.00009463682, -503453.78, -56770.055, 0.0, 10.000684, 9.915719 
4.2150387e+3, 2.643289e+2, -415224.7, -490957.8, 0.28918156, 0.0001407458, 0.00015241296, -415224.7, -65647.73, 0.0, 10.000681, 9.9016485 
4.2150387e+3, 2.7423108e+2, -315946.22, -391349.84, -2.070635, 0.0001403489, -0.00020267187, -315946.22, -63410.785, 0.0, 10.000679, 9.902068 
4.2150387e+3, 2.8412503e+2, -229482.31, -318069.28, -0.98173374, 0.00014018558, 0.0002235901, -229482.31, -73907.77, 0.0, 10.000676, 9.885118 
4.2150387e+3, 2.940112e+2, -129783.75, -217759.13, -2.8642752, 0.00014034046, -0.0002583836, -129783.75, -71093.63, 0.0, 10.000674, 9.885895 
4.2150387e+3, 3.0392534e+2, -40047.832, -84743.66, -0.24588852, 0.0001397173, 0.00017148907, -40047.832, -40047.832, 0.0, 10.000671, 9.941854 
4.2150387e+3, 3.138691e+2, -38974.668, -82506.414, -0.8861627, 0.00013793592, -0.00004903021, -38974.668, -38974.668, 0.0, 10.000668, 9.943366 
4.22504e+3, 1.24998085e+2, -1719047.3, -1724174.6, 0.89035714, 0.00015000888, 0.00006001218, -1719047.3, -4028.3162, 0.0, 10.0007515, 9.993955 
4.22504e+3, 1.3499188e+2, -1621678.8, -1627394.4, -1.0479008, 0.00014822277, -0.0001211118, -1621678.8, -4599.1196, 0.0, 10.000748, 9.993172 
4.22504e+3, 1.4497918e+2, -1533546.8, -1548038.3, 0.77064383, 0.0001477104, 0.00014124191, -1533546.8, -14342.547, 0.0, 10.000744, 9.981537 
4.22504e+3, 1.5496069e+2, -1435828.1, -1450720.6, -1.7781261, 0.00014847185, -0.00004172167, -1435828.1, -14442.845, 0.0, 10.00074, 9.981006 
4.22504e+3, 1.6493559e+2, -1347788.1, -1371862.0, 0.5355258, 0.00014861363, 0.000042342526, -1347788.1, -24156.941, 0.0, 10.000736, 9.968919 
4.2250395e+3, 1.7490457e+2, -1249840.9, -1274227.3, -1.1551447, 0.00014812297, -0.00006359808, -1249840.9, -23905.496, 0.0, 10.000732, 9.968505 
4.2250395e+3, 1.8486689e+2, -1161764.1, -1195635.3, 0.7467776, 0.00014750732, 0.000082397266, -1161764.1, -33459.676, 0.0, 10.000729, 9.956071 
4.2250395e+3, 1.9482301e+2, -1063623.6, -1097754.8, -1.4813672, 0.0001467594, -0.000045034576, -1063623.6, -32889.086, 0.0, 10.000725, 9.955728 
4.2250395e+3, 2.0477244e+2, -975468.94, -1019366.44, 0.472352, 0.00014626958, 0.000078022174, -975468.94, -42238.863, 0.0, 10.000722, 9.942964 
4.2250395e+3, 2.1471544e+2, -877189.6, -921347.2, -1.9595442, 0.00014605881, -0.00011854191, -877189.6, -41400.945, 0.0, 10.00072, 9.942623 
4.2250395e+3, 2.2465175e+2, -788910.8, -843087.2, 0.1483017, 0.0001454136, 0.00012721396, -788910.8, -50497.953, 0.0, 10.000716, 9.929583 
4.2250395e+3, 2.345814e+2, -690488.1, -744916.1, -1.2007569, 0.00014427617, -0.000084770705, -690488.1, -49385.797, 0.0, 10.000711, 9.929251 
4.2250395e+3, 2.4450411e+2, -602168.7, -666969.1, 1.0703977, 0.00014361402, 0.00008023189, -602168.7, -58308.855, 0.0, 10.000709, 9.915814 
4.2250395e+3, 2.5442004e+2, -503421.53, -568298.1, -1.3778213, 0.00014351953, -0.000095251984, -503421.53, -56737.918, 0.0, 10.000708, 9.915714 
4.2250395e+3, 2.643289e+2, -415192.63, -490949.25, 0.71630603, 0.00014311714, 0.00015113388, -415192.63, -65615.71, 0.0, 10.000705, 9.901642 
4.2250395e+3, 2.7423108e+2, -315916.38, -391342.6, -1.3729726, 0.0001423212, -0.0002026546, -315916.38, -63380.94, 0.0, 10.000702, 9.902061 
4.2250395e+3, 2.8412503e+2, -229453.13, -318060.75, 0.086264625, 0.00014185593, 0.00022457207, -229453.13, -73878.52, 0.0, 10.000698, 9.885112 
4.2250395e+3, 2.940112e+2, -129755.76, -217751.13, -1.2672658, 0.00014184482, -0.00025690012, -129755.76, -71065.54, 0.0, 10.000695, 9.88589 
4.2250395e+3, 3.0392534e+2, -40019.418, -84734.89, 1.2781779, 0.00014143602, 0.00017263093, -40019.418, -40019.418, 0.0, 10.000692, 9.94185 
4.2250395e+3, 3.1386906e+2, -38943.785, -82496.37, -0.40630615, 0.0001404325, -0.00004947788, -38943.785, -38943.785, 0.0, 10.00069, 9.943361 
4.235041e+3, 1.2499817e+2, -1719051.8, -1724182.9, -0.79389715, 0.00015228929, 0.000061351144, -1719051.8, -4033.6265, 0.0, 10.0007515, 9.99395 
4.235041e+3, 1.3499197e+2, -1621683.1, -1627402.6, -2.7355275, 0.0001503738, -0.000119237404, -1621683.1, -4604.3257, 0.0, 10.000748, 9.993166 
4.2350405e+3, 1.4497925e+2, -1533552.5, -1548049.1, -0.43887734, 0.0001497789, 0.00014320893, -1533552.5, -14349.027, 0.0, 10.000744, 9.98153 
4.2350405e+3, 1.5496077e+2, -1435833.9, -1450731.4, -2.9849482, 0.00015050688, -0.000040446204, -1435833.9, -14449.192, 0.0, 10.00074, 9.980999 
4.2350405e+3, 1.6493566e+2, -1347791.9, -1371869.1, -1.0625716, 0.00015032185, 0.000044490862, -1347791.9, -24161.32, 0.0, 10.000736, 9.968914 
4.2350405e+3, 1.7490463e+2, -1249844.5, -1274234.4, -2.7590322, 0.00014920419, -0.000058976533, -1249844.5, -23909.795, 0.0, 10.000732, 9.9685 
4.2350405e+3, 1.8486696e+2, -1161769.0, -1195644.6, -0.5579489, 0.00014891532, 0.00008595585, -1161769.0, -33465.07, 0.0, 10.000729, 9.956065 
4.2350405e+3, 1.9482306e+2, -1063628.5, -1097764.1, -2.783667, 0.00014949132, -0.000046234672, -1063628.5, -32894.34, 0.0, 10.000725, 9.955722 
4.2350405e+3, 2.0477249e+2, -975474.2, -1019376.8, -0.46613672, 0.00014894638, 0.00007611519, -975474.2, -42244.516, 0.0, 10.000722, 9.942958 
4.2350405e+3, 2.1471548e+2, -877194.8, -921357.5, -2.8870897, 0.000147188, -0.000116769355, -877194.8, -41406.516, 0.0, 10.00072, 9.942616 
4.23504e+3, 2.2465178e+2, -788913.9, -843093.3, -1.5615951, 0.00014608374, 0.00013029865, -788913.9, -50501.344, 0.0, 10.000716, 9.929578 
4.23504e+3, 2.3458143e+2, -690491.06, -744922.06, -2.9416275, 0.00014571928, -0.00008305342, -690491.06, -49389.016, 0.0, 10.000711, 9.929247 
4.23504e+3, 2.4450412e+2, -602173.9, -666979.56, 0.54918104, 0.00014585909, 0.000079869, -602173.9, -58314.223, 0.0, 10.000709, 9.915807 
4.23504e+3, 2.5442007e+2, -503426.75, -568308.75, -1.8367938, 0.00014659991, -0.000098542936, -503426.75, -56743.254, 0.0, 10.000708, 9.915708 
4.23504e+3, 2.643289e+2, -415197.3, -490958.84, -0.52868044, 0.00014598618, 0.00014801117, -415197.3, -65620.46, 0.0, 10.000705, 9.901636 
4.23504e+3, 2.7423108e+2, -315920.97, -391352.03, -2.6695485, 0.00014364696, -0.0002016664, -315920.97, -63385.56, 0.0, 10.000702, 9.902056 
4.23504e+3, 2.8412503e+2, -229456.39, -318067.53, -1.1368818, 0.00014251453, 0.00022799299, -229456.39, -73881.766, 0.0, 10.000698, 9.885108 
4.23504e+3, 2.940112e+2, -129758.84, -217757.63, -2.4872289, 0.00014304156, -0.00025336162, -129758.84, -71068.57, 0.0, 10.000695, 9.885886 
4.23504e+3, 3.039253e+2, -40023.35, -84743.164, 0.53245276, 0.00014356973, 0.00017433261, -40023.35, -40023.35, 0.0, 10.000692, 9.941844 
4.23504e+3, 3.1386903e+2, -38947.83, -82504.87, -1.0953656, 0.00014408407, -0.000052493608, -38947.83, -38947.83, 0.0, 10.00069, 9.943356 
4.2450416e+3, 1.2499827e+2, -1719017.0, -1724171.6, 2.503615, 0.00015436571, 0.00006247682, -1719017.0, -3999.8103, 0.0, 10.000776, 9.993943 
4.2450416e+3, 1.3499206e+2, -1621647.1, -1627390.9, -0.35094702, 0.0001527094, -0.00011825213, -1621647.1, -4569.2227, 0.0, 10.000773, 9.993159 
4.2450416e+3, 1.4497934e+2, -1533516.5, -1548036.9, 1.8751239, 0.00015203046, 0.00014443819, -1533516.5, -14313.903, 0.0, 10.000769, 9.981524 
4.2450416e+3, 1.5496084e+2, -1435800.0, -1450720.4, -0.093261465, 0.00015232898, -0.000038886243, -1435800.0, -14416.072, 0.0, 10.000765, 9.980993 
4.2450416e+3, 1.6493572e+2, -1347758.4, -1371858.3, 1.6248724, 0.00015202236, 0.000046016994, -1347758.4, -24128.479, 0.0, 10.000761, 9.968908 
4.245041e+3, 1.7490469e+2, -1249810.0, -1274223.0, -1.0448767, 0.00015109632, -0.000057849793, -1249810.0, -23875.887, 0.0, 10.000757, 9.968494 
4.245041e+3, 1.8486702e+2, -1161734.0, -1195633.8, 0.769191, 0.00015089217, 0.00008653514, -1161734.0, -33430.703, 0.0, 10.000754, 9.9560585 
4.245041e+3, 1.948231e+2, -1063592.9, -1097753.0, -1.7647666, 0.00015144133, -0.000046356818, -1063592.9, -32859.3, 0.0, 10.0007515, 9.955716 
4.245041e+3, 2.0477253e+2, -975439.56, -1019365.3, 0.58544177, 0.00015062522, 0.00007614491, -975439.56, -42210.344, 0.0, 10.000748, 9.942952 
4.245041e+3, 2.1471553e+2, -877164.3, -921348.2, -1.0175067, 0.00014833108, -0.00011566244, -877164.3, -41376.375, 0.0, 10.000742, 9.942611 
4.245041e+3, 2.2465183e+2, -788883.3, -843084.3, 0.39976668, 0.00014754993, 0.00013157829, -788883.3, -50471.094, 0.0, 10.000739, 9.929572 
4.245041e+3, 2.3458146e+2, -690455.56, -744910.6, -2.372675, 0.00014848032, -0.00008262448, -690455.56, -49353.793, 0.0, 10.000738, 9.929241 
4.245041e+3, 2.4450415e+2, -602137.8, -666968.0, 0.80677855, 0.000148758, 0.00007967632, -602137.8, -58278.44, 0.0, 10.000735, 9.915801 
4.245041e+3, 2.5442007e+2, -503395.47, -568299.7, -0.7315044, 0.00014825424, -0.00009908203, -503395.47, -56712.133, 0.0, 10.0007305, 9.915702 
4.245041e+3, 2.6432893e+2, -415168.7, -490951.25, 0.9408902, 0.00014721426, 0.00014784165, -415168.7, -65591.945, 0.0, 10.000727, 9.901629 
4.245041e+3, 2.7423108e+2, -315892.47, -391344.6, -0.9250875, 0.00014549328, -0.00020055517, -315892.47, -63357.12, 0.0, 10.000724, 9.90205 
4.245041e+3, 2.8412503e+2, -229426.83, -318059.25, 0.73196745, 0.00014484508, 0.0002295839, -229426.83, -73852.21, 0.0, 10.000721, 9.885102 
4.245041e+3, 2.940112e+2, -129727.305, -217748.44, -1.4852667, 0.00014566808, -0.0002523917, -129727.305, -71036.98, 0.0, 10.000719, 9.88588 
4.245041e+3, 3.039253e+2, -39991.645, -84734.11, 1.0451295, 0.00014610952, 0.00017469551, -39991.645, -39991.645, 0.0, 10.000717, 9.941838 
4.245041e+3, 3.1386903e+2, -38917.867, -82496.67, -0.47515112, 0.00014597029, -0.000052706306, -38917.867, -38917.867, 0.0, 10.000714, 9.94335 
4.2550424e+3, 1.2499837e+2, -1719023.5, -1724184.0, 1.1321294, 0.00015624095, 0.00006347104, -1719023.5, -4007.368, 0.0, 10.000776, 9.993936 
4.2550424e+3, 1.3499215e+2, -1621653.6, -1627403.1, -1.7187735, 0.00015522713, -0.00011814171, -1621653.6, -4576.618, 0.0, 10.000773, 9.993153 
4.2550424e+3, 1.4497943e+2, -1533520.9, -1548045.4, 0.21614431, 0.0001544618, 0.00014494192, -1533520.9, -14319.165, 0.0, 10.00077, 9.981519 
4.255042e+3, 1.5496092e+2, -1435804.3, -1450728.8, -1.7548245, 0.00015394081, -0.000037045847, -1435804.3, -14421.237, 0.0, 10.000765, 9.980988 
4.255042e+3, 1.6493581e+2, -1347764.3, -1371869.5, 0.29638538, 0.00015371456, 0.000046931727, -1347764.3, -24135.098, 0.0, 10.000761, 9.968901 
4.255042e+3, 1.7490476e+2, -1249815.8, -1274234.3, -2.3698187, 0.00015378608, -0.000060161277, -1249815.8, -23882.35, 0.0, 10.000757, 9.968487 
4.255042e+3, 1.8486708e+2, -1161739.6, -1195644.5, -0.34199587, 0.00015342895, 0.00008418314, -1161739.6, -33436.81, 0.0, 10.000754, 9.956052 
4.255042e+3, 1.9482316e+2, -1063598.4, -1097763.8, -2.8703449, 0.00015262271, -0.00004541866, -1063598.4, -32865.31, 0.0, 10.0007515, 9.9557085 
4.255042e+3, 2.0477258e+2, -975443.1, -1019372.3, -1.2858219, 0.00015132262, 0.00007808008, -975443.1, -42214.395, 0.0, 10.000748, 9.942947 
4.255042e+3, 2.1471557e+2, -877167.75, -921355.06, -2.9091477, 0.00014948766, -0.00011520996, -877167.75, -41380.273, 0.0, 10.000742, 9.942607 
4.2550415e+3, 2.2465186e+2, -788889.1, -843095.9, -0.12066146, 0.00014979932, 0.00013108231, -788889.1, -50477.277, 0.0, 10.000739, 9.929565 
4.2550415e+3, 2.3458149e+2, -690461.4, -744922.3, -2.843468, 0.00015253891, -0.00008346363, -690461.4, -49359.914, 0.0, 10.000738, 9.929234 
4.2550415e+3, 2.4450417e+2, -602141.5, -666975.44, -0.734271, 0.0001523012, 0.000079650585, -602141.5, -58282.355, 0.0, 10.000735, 9.915796 
4.2550415e+3, 2.544201e+2, -503399.0, -568306.9, -2.3256443, 0.00014850569, -0.00009691324, -503399.0, -56715.875, 0.0, 10.0007305, 9.915697 
4.2550415e+3, 2.6432893e+2, -415172.72, -490959.5, -0.36698374, 0.00014682763, 0.0001505785, -415172.72, -65596.16, 0.0, 10.000727, 9.901625 
4.2550415e+3, 2.742311e+2, -315896.47, -391352.88, -2.2165377, 0.00014785193, -0.00019932246, -315896.47, -63361.234, 0.0, 10.000724, 9.902044 
4.2550415e+3, 2.8412503e+2, -229431.61, -318069.2, 0.008872199, 0.00014882114, 0.00022937432, -229431.61, -73857.02, 0.0, 10.000721, 9.885096 
4.2550415e+3, 2.940112e+2, -129732.11, -217758.45, -2.1551325, 0.0001497021, -0.0002539494, -129732.1, -71041.734, 0.0, 10.000719, 9.885874 
4.2550415e+3, 3.039253e+2, -39995.58, -84742.37, -0.047560096, 0.00014904945, 0.00017374079, -39995.58, -39995.58, 0.0, 10.000717, 9.941833 
4.2550415e+3, 3.13869e+2, -38921.71, -82504.734, -1.6158582, 0.00014611964, -0.000050160692, -38921.71, -38921.71, 0.0, 10.000714, 9.943345 
4.2650434e+3, 1.2499847e+2, -1718986.8, -1724171.9, 1.3076766, 0.0001583642, 0.000063064275, -1718986.8, -3971.5718, 0.0, 10.000803, 9.993929 
4.2650428e+3, 1.3499224e+2, -1621618.0, -1627391.8, -0.803844, 0.0001574556, -0.00011716281, -1621618.0, -4541.9453, 0.0, 10.000798, 9.993146 
4.2650428e+3, 1.4497952e+2, -1533484.9, -1548033.0, 1.1752123, 0.00015670303, 0.00014621041, -1533484.9, -14284.049, 0.0, 10.000794, 9.981513 
4.2650428e+3, 1.5496102e+2, -1435767.6, -1450716.1, -1.3289754, 0.0001561026, -0.0000369493, -1435767.6, -14385.339, 0.0, 10.000791, 9.980982 
4.2650428e+3, 1.649359e+2, -1347727.8, -1371858.0, 0.85780424, 0.00015587421, 0.00004675601, -1347727.8, -24099.375, 0.0, 10.000787, 9.968894 
4.2650428e+3, 1.7490484e+2, -1249779.5, -1274222.9, -1.4642531, 0.00015602233, -0.000059686783, -1249779.5, -23846.71, 0.0, 10.000784, 9.968481 
4.2650425e+3, 1.8486714e+2, -1161704.3, -1195632.9, 0.92388237, 0.00015533197, 0.000084933155, -1161704.3, -33402.105, 0.0, 10.000779, 9.956046 
4.2650425e+3, 1.9482322e+2, -1063566.4, -1097753.9, -0.8937931, 0.000153764, -0.000044783832, -1063566.4, -32833.83, 0.0, 10.000774, 9.955703 
4.2650425e+3, 2.0477265e+2, -975410.75, -1019362.56, 0.64948463, 0.0001527275, 0.00007845692, -975410.75, -42182.547, 0.0, 10.0007715, 9.942942 
4.2650425e+3, 2.1471561e+2, -877131.06, -921343.2, -2.1629403, 0.0001522656, -0.00011524387, -877131.06, -41344.05, 0.0, 10.000769, 9.9426 
4.2650425e+3, 2.246519e+2, -788852.2, -843084.0, 0.8513395, 0.00015272261, 0.00013130155, -788852.2, -50440.758, 0.0, 10.000766, 9.929559 
4.2650425e+3, 2.3458153e+2, -690428.8, -744912.75, -0.7415585, 0.00015421839, -0.00008224002, -690428.8, -49327.684, 0.0, 10.000762, 9.929228 
4.2650425e+3, 2.445042e+2, -602110.6, -666965.94, 1.2424453, 0.00015359485, 0.000080953265, -602110.6, -58251.742, 0.0, 10.000758, 9.9157915 
4.2650425e+3, 2.5442013e+2, -503368.03, -568297.3, -0.80010134, 0.00015043931, -0.0000966364, -503368.03, -56685.145, 0.0, 10.000754, 9.915691 
4.2650425e+3, 2.6432896e+2, -415141.63, -490951.3, 1.1226631, 0.00014927408, 0.00015047738, -415141.63, -65565.26, 0.0, 10.000751, 9.901618 
4.2650425e+3, 2.742311e+2, -315863.47, -391343.9, -1.442136, 0.00015064703, -0.000198974, -315863.47, -63328.332, 0.0, 10.000749, 9.902038 
4.2650425e+3, 2.8412506e+2, -229398.17, -318059.72, 0.571902, 0.00015158537, 0.00023002275, -229398.17, -73823.64, 0.0, 10.000747, 9.885089 
4.2650425e+3, 2.940112e+2, -129701.055, -217750.23, -1.1849555, 0.0001519168, -0.00025320976, -129701.055, -71010.68, 0.0, 10.000743, 9.885867 
4.2650425e+3, 3.0392528e+2, -39965.535, -84733.484, 1.0999242, 0.00015100802, 0.00017440101, -39965.535, -39965.535, 0.0, 10.00074, 9.941828 
4.2650425e+3, 3.13869e+2, -38891.97, -82495.86, -0.076678626, 0.00014826289, -0.00004983136, -38891.97, -38891.97, 0.0, 10.000736, 9.943339 
4.275044e+3, 1.2499858e+2, -1718991.5, -1724181.0, -0.28899407, 0.00016073081, 0.00006121191, -1718991.5, -3977.421, 0.0, 10.000803, 9.993923 
4.275044e+3, 1.3499236e+2, -1621622.9, -1627400.8, -2.402943, 0.00015939964, -0.000115330535, -1621622.9, -4547.711, 0.0, 10.000799, 9.99314 
4.275044e+3, 1.4497961e+2, -1533490.5, -1548043.8, -0.2695672, 0.00015875799, 0.0001482311, -1533490.5, -14290.591, 0.0, 10.000794, 9.981506 
4.275044e+3, 1.549611e+2, -1435773.1, -1450726.8, -2.771186, 0.00015880528, -0.000038567185, -1435773.1, -14391.725, 0.0, 10.000791, 9.980975 
4.2750433e+3, 1.6493598e+2, -1347732.9, -1371867.9, -0.45160866, 0.00015849336, 0.00004550791, -1347732.9, -24105.275, 0.0, 10.000787, 9.968888 
4.2750433e+3, 1.7490491e+2, -1249784.5, -1274232.8, -2.771362, 0.00015781316, -0.00005647292, -1249784.5, -23852.53, 0.0, 10.000784, 9.968474 
4.2750433e+3, 1.8486722e+2, -1161708.3, -1195640.6, -0.9283217, 0.00015661221, 0.00008873367, -1161708.3, -33406.793, 0.0, 10.000779, 9.956041 
4.2750433e+3, 1.948233e+2, -1063570.3, -1097761.5, -2.7568378, 0.00015486573, -0.000044446522, -1063570.3, -32838.37, 0.0, 10.000774, 9.955698 
4.2750433e+3, 2.047727e+2, -975416.75, -1019374.4, -0.16153154, 0.00015482798, 0.000077302044, -975416.75, -42189.094, 0.0, 10.0007715, 9.942934 
4.2750433e+3, 2.1471567e+2, -877137.06, -921355.0, -2.9474857, 0.00015663859, -0.000115756426, -877137.06, -41350.504, 0.0, 10.000769, 9.942593 
4.2750433e+3, 2.2465195e+2, -788855.9, -843091.3, -0.62564594, 0.0001563094, 0.00013222372, -788855.9, -50444.848, 0.0, 10.000766, 9.929554 
4.275043e+3, 2.3458156e+2, -690432.4, -744919.9, -2.2436662, 0.0001535585, -0.000078987476, -690432.4, -49331.633, 0.0, 10.000762, 9.929223 
4.275043e+3, 2.4450424e+2, -602115.0, -666974.8, -0.3010442, 0.00015267631, 0.000083563005, -602115.0, -58256.48, 0.0, 10.000758, 9.915786 
4.275043e+3, 2.5442016e+2, -503372.38, -568306.25, -2.3472347, 0.00015402745, -0.00009821989, -503372.38, -56689.77, 0.0, 10.000754, 9.915686 
4.275043e+3, 2.6432896e+2, -415147.1, -490962.5, 0.33366036, 0.000154507, 0.00014758528, -415147.1, -65570.914, 0.0, 10.000751, 9.90161 
4.275043e+3, 2.742311e+2, -315868.94, -391355.16, -2.1767106, 0.0001538719, -0.0001994953, -315868.94, -63333.945, 0.0, 10.000749, 9.902031 
4.275043e+3, 2.8412506e+2, -229402.36, -318068.44, -0.62579393, 0.00015315841, 0.00023151477, -229402.36, -73827.92, 0.0, 10.000747, 9.885083 
4.275043e+3, 2.940112e+2, -129705.08, -217758.66, -2.4241266, 0.00015234263, -0.00025021072, -129705.08, -71014.74, 0.0, 10.000743, 9.885862 
4.275043e+3, 3.0392528e+2, -39968.684, -84740.125, -0.1392596, 0.0001520017, 0.00017664961, -39968.684, -39968.684, 0.0, 10.00074, 9.941823 
4.275043e+3, 3.13869e+2, -38895.008, -82502.29, -1.3201679, 0.00015236733, -0.000051681345, -38895.008, -38895.008, 0.0, 10.000736, 9.943336 
4.285045e+3, 1.2499869e+2, -1718953.8, -1724167.9, 2.060265, 0.00016287802, 0.000061933264, -1718953.8, -3940.7676, 0.0, 10.00083, 9.993917 
4.285045e+3, 1.3499247e+2, -1621585.1, -1627387.8, -0.4426419, 0.00016179962, -0.0001148601, -1621585.1, -4511.0737, 0.0, 10.000825, 9.993134 
4.2850444e+3, 1.449797e+2, -1533453.4, -1548031.5, 1.6791118, 0.00016122189, 0.0001487787, -1533453.4, -14254.358, 0.0, 10.000821, 9.981501 
4.2850444e+3, 1.5496118e+2, -1435736.4, -1450714.8, -0.706694, 0.00016114327, -0.00003794381, -1435736.4, -14355.81, 0.0, 10.000817, 9.980968 
4.2850444e+3, 1.6493605e+2, -1347696.9, -1371855.6, 1.6973788, 0.00016054808, 0.00004628092, -1347696.9, -24070.031, 0.0, 10.000813, 9.968883 
4.2850444e+3, 1.74905e+2, -1249750.6, -1274221.8, -0.42273247, 0.00015942492, -0.00005547077, -1249750.6, -23819.37, 0.0, 10.000809, 9.968469 
4.2850444e+3, 1.848673e+2, -1161674.3, -1195630.4, 1.0398006, 0.00015842909, 0.000089466506, -1161674.3, -33373.523, 0.0, 10.000805, 9.956035 
4.2850444e+3, 1.9482335e+2, -1063533.1, -1097749.8, -1.994323, 0.00015756508, -0.000044503846, -1063533.1, -32801.848, 0.0, 10.000802, 9.955691 
4.285044e+3, 2.0477276e+2, -975379.1, -1019362.06, 0.7721918, 0.00015766804, 0.000077303695, -975379.1, -42152.066, 0.0, 10.000798, 9.942927 
4.285044e+3, 2.1471573e+2, -877102.56, -921344.44, -0.9574131, 0.00015881678, -0.000114775496, -877102.56, -41316.57, 0.0, 10.000794, 9.942587 
4.285044e+3, 2.2465199e+2, -788822.9, -843080.8, 1.1977907, 0.0001580929, 0.00013360596, -788822.9, -50412.37, 0.0, 10.000791, 9.929549 
4.285044e+3, 2.345816e+2, -690400.4, -744909.9, -1.0642278, 0.00015524977, -0.00007785776, -690400.4, -49300.082, 0.0, 10.000786, 9.929217 
4.285044e+3, 2.4450427e+2, -602082.7, -666965.8, 0.81526256, 0.00015470224, 0.000084080995, -602082.7, -58224.523, 0.0, 10.000783, 9.915779 
4.285044e+3, 2.544202e+2, -503336.7, -568295.7, -1.6862843, 0.00015689748, -0.00009874146, -503336.7, -56654.375, 0.0, 10.000781, 9.915679 
4.285044e+3, 2.64329e+2, -415111.1, -490951.84, 0.97471, 0.00015750424, 0.00014697663, -415111.1, -65535.15, 0.0, 10.000778, 9.901605 
4.285044e+3, 2.7423114e+2, -315836.75, -391346.5, -0.74707896, 0.00015608291, -0.00019897753, -315836.75, -63301.945, 0.0, 10.000773, 9.902024 
4.285044e+3, 2.8412506e+2, -229371.7, -318059.7, 1.2975866, 0.00015499251, 0.00023280445, -229371.7, -73797.38, 0.0, 10.00077, 9.885078 
4.285044e+3, 2.940112e+2, -129674.33, -217749.86, -0.42679346, 0.00015436421, -0.00024864008, -129674.33, -70984.06, 0.0, 10.000767, 9.885857 
4.285044e+3, 3.0392528e+2, -39937.38, -84731.49, 1.6734624, 0.00015426941, 0.00017751472, -39937.38, -39937.38, 0.0, 10.000764, 9.941817 
4.285044e+3, 3.13869e+2, -38861.38, -82492.57, -0.5811999, 0.00015496304, -0.000052982017, -38861.38, -38861.38, 0.0, 10.000762, 9.94333 
4.295046e+3, 1.249988e+2, -1718959.5, -1724178.6, 0.49097097, 0.00016480905, 0.00006497538, -1718959.5, -3947.6484, 0.0, 10.00083, 9.993911 
4.2950454e+3, 1.3499257e+2, -1621590.9, -1627398.5, -2.0125365, 0.00016464802, -0.000115727744, -1621590.9, -4517.8022, 0.0, 10.000825, 9.993127 
4.2950454e+3, 1.4497982e+2, -1533458.8, -1548041.6, 0.19210258, 0.00016408761, 0.00014787792, -1533458.8, -14260.705, 0.0, 10.000821, 9.981494 
4.2950454e+3, 1.5496129e+2, -1435741.6, -1450724.9, -2.1917725, 0.00016312275, -0.0000351178, -1435741.6, -14362.063, 0.0, 10.000817, 9.980963 
4.2950454e+3, 1.6493614e+2, -1347701.5, -1371864.8, -0.07890226, 0.00016204803, 0.000049040533, -1347701.5, -24075.615, 0.0, 10.000813, 9.968877 
4.2950454e+3, 1.7490508e+2, -1249755.3, -1274230.8, -2.2042964, 0.0001608605, -0.000056641184, -1249755.3, -23824.805, 0.0, 10.000809, 9.968463 
4.2950448e+3, 1.8486735e+2, -1161680.8, -1195643.3, -0.014064386, 0.00016077343, 0.000087185166, -1161680.8, -33380.832, 0.0, 10.000805, 9.956027 
4.2950448e+3, 1.9482343e+2, -1063539.6, -1097762.5, -3.0346057, 0.00016183515, -0.000044949495, -1063539.6, -32809.035, 0.0, 10.000802, 9.955684 
4.2950448e+3, 2.0477283e+2, -975383.0, -1019369.7, -0.72558945, 0.00016123561, 0.000078441444, -975383.0, -42156.56, 0.0, 10.000798, 9.942923 
4.2950448e+3, 2.147158e+2, -877106.3, -921351.94, -2.4673047, 0.0001588382, -0.000112326394, -877106.3, -41320.93, 0.0, 10.000794, 9.942582 
4.2950448e+3, 2.2465205e+2, -788827.75, -843090.44, -0.5015819, 0.00015810427, 0.00013544099, -788827.75, -50417.75, 0.0, 10.000791, 9.929543 
4.2950448e+3, 2.3458165e+2, -690405.2, -744919.56, -2.7702804, 0.00015925194, -0.00007881434, -690405.2, -49305.332, 0.0, 10.000786, 9.929212 
4.2950448e+3, 2.4450432e+2, -602088.0, -666976.6, 0.12373571, 0.00015962232, 0.00008254298, -602088.0, -58230.25, 0.0, 10.000783, 9.915772 
4.2950445e+3, 2.5442022e+2, -503342.03, -568306.5, -2.3271687, 0.00015906242, -0.00009821949, -503342.03, -56660.027, 0.0, 10.000781, 9.915672 
4.2950445e+3, 2.6432902e+2, -415115.16, -490960.16, -0.6206718, 0.0001583049, 0.00014861219, -415115.16, -65539.484, 0.0, 10.000778, 9.901599 
4.2950445e+3, 2.7423117e+2, -315840.7, -391354.6, -2.4072368, 0.00015729776, -0.0001974383, -315840.7, -63306.082, 0.0, 10.000773, 9.902019 
4.2950445e+3, 2.841251e+2, -229375.63, -318067.88, 0.07410476, 0.00015708322, 0.00023389557, -229375.63, -73801.47, 0.0, 10.00077, 9.885073 
4.2950445e+3, 2.940112e+2, -129678.2, -217758.0, -1.612392, 0.00015795438, -0.00024847293, -129678.2, -70988.04, 0.0, 10.000767, 9.885851 
4.2950445e+3, 3.039253e+2, -39942.36, -84741.96, 0.9864314, 0.00015778968, 0.00017702028, -39942.36, -39942.36, 0.0, 10.000764, 9.941811 
4.2950445e+3, 3.13869e+2, -38866.51, -82503.32, -1.2075384, 0.0001560765, -0.000053743006, -38866.51, -38866.51, 0.0, 10.000763, 9.943322 
4.3050465e+3, 1.2499893e+2, -1718920.0, -1724165.5, 2.1899338, 0.0001671897, 0.000065191416, -1718920.0, -3909.3352, 0.0, 10.000857, 9.993904 
4.3050465e+3, 1.3499267e+2, -1621552.8, -1627386.3, -0.56456596, 0.00016701319, -0.000114960705, -1621552.8, -4480.8154, 0.0, 10.000853, 9.99312 
4.3050465e+3, 1.4497992e+2, -1533420.9, -1548028.4, 1.804796, 0.00016634875, 0.0001487182, -1533420.9, -14223.887, 0.0, 10.000848, 9.981488 
4.3050465e+3, 1.5496138e+2, -1435704.9, -1450712.3, -0.25045267, 0.00016519136, -0.000034682456, -1435704.9, -14326.259, 0.0, 10.000843, 9.980956 
4.305046e+3, 1.6493624e+2, -1347665.3, -1371853.6, 1.5857137, 0.00016424217, 0.000049160004, -1347665.3, -24040.316, 0.0, 10.000839, 9.96887 
4.305046e+3, 1.7490517e+2, -1249717.4, -1274218.9, -1.5120822, 0.00016350477, -0.00005674486, -1249717.4, -23787.83, 0.0, 10.000835, 9.968456 
4.305046e+3, 1.8486744e+2, -1161643.0, -1195631.1, 0.97534424, 0.00016348468, 0.000087297776, -1161643.0, -33343.797, 0.0, 10.000832, 9.95602 
4.305046e+3, 1.948235e+2, -1063504.0, -1097751.8, -0.96520495, 0.00016421307, -0.00004416051, -1063504.0, -32774.19, 0.0, 10.000828, 9.955677 
4.305046e+3, 2.0477289e+2, -975348.2, -1019358.3, 1.3013375, 0.00016333484, 0.00007942574, -975348.2, -42122.406, 0.0, 10.000824, 9.942917 
4.305046e+3, 2.1471585e+2, -877072.4, -921341.06, -1.1123885, 0.00016071781, -0.00011166657, -877072.4, -41287.555, 0.0, 10.000819, 9.942576 
4.3050453e+3, 2.246521e+2, -788793.1, -843080.3, 0.7478528, 0.00016031171, 0.00013584465, -788793.1, -50383.7, 0.0, 10.000816, 9.929536 
4.3050453e+3, 2.3458171e+2, -690367.1, -744907.75, -1.720251, 0.00016240652, -0.00007858906, -690367.1, -49267.73, 0.0, 10.0008135, 9.929205 
4.3050453e+3, 2.4450436e+2, -602050.4, -666965.1, 1.2092646, 0.0001627077, 0.00008277248, -602050.4, -58193.02, 0.0, 10.000811, 9.915766 
4.3050453e+3, 2.5442025e+2, -503309.6, -568297.75, -0.8409319, 0.00016086445, -0.00009776753, -503309.6, -56627.973, 0.0, 10.000806, 9.915666 
4.3050453e+3, 2.6432905e+2, -415083.97, -490951.1, 0.9423041, 0.00015972153, 0.00014928206, -415083.97, -65508.59, 0.0, 10.000801, 9.901593 
4.3050453e+3, 2.742312e+2, -315807.2, -391344.44, -1.0668404, 0.00015947444, -0.00019655646, -315807.2, -63272.844, 0.0, 10.000799, 9.902013 
4.3050453e+3, 2.8412512e+2, -229340.63, -318057.34, 1.3995031, 0.00015970739, 0.00023457625, -229340.63, -73766.66, 0.0, 10.000796, 9.885067 
4.3050453e+3, 2.9401124e+2, -129642.38, -217747.22, -0.6664962, 0.00016059287, -0.00024855896, -129642.38, -70952.35, 0.0, 10.000793, 9.885845 
4.3050453e+3, 3.039253e+2, -39907.99, -84732.83, 1.8644876, 0.00016021695, 0.00017665964, -39907.99, -39907.99, 0.0, 10.000791, 9.941804 
4.3050453e+3, 3.13869e+2, -38835.11, -82495.73, 0.06773928, 0.00015796162, -0.000053641626, -38835.11, -38835.11, 0.0, 10.000787, 9.9433155 
4.3150473e+3, 1.2499905e+2, -1718926.4, -1724177.5, 0.34169668, 0.00017001228, 0.00006276748, -1718926.4, -3916.856, 0.0, 10.000857, 9.9938965 
4.3150473e+3, 1.349928e+2, -1621559.0, -1627398.1, -2.4088185, 0.00016890423, -0.00011258831, -1621559.0, -4488.224, 0.0, 10.000853, 9.993113 
4.3150473e+3, 1.4498003e+2, -1533425.4, -1548037.1, 0.11512184, 0.00016801659, 0.00015126732, -1533425.4, -14229.587, 0.0, 10.000848, 9.9814825 
4.315047e+3, 1.5496148e+2, -1435709.4, -1450721.0, -1.9453902, 0.00016734777, -0.000036594156, -1435709.4, -14331.821, 0.0, 10.000843, 9.980951 
4.315047e+3, 1.6493633e+2, -1347672.1, -1371866.8, 0.23513392, 0.00016711828, 0.00004668736, -1347672.1, -24048.084, 0.0, 10.000839, 9.968862 
4.315047e+3, 1.7490526e+2, -1249724.1, -1274232.0, -2.8550484, 0.00016733655, -0.00005580145, -1249724.1, -23795.473, 0.0, 10.000835, 9.968448 
4.315047e+3, 1.8486752e+2, -1161647.3, -1195639.5, -0.5585395, 0.00016655671, 0.00008976079, -1161647.3, -33348.906, 0.0, 10.000832, 9.956015 
4.315047e+3, 1.9482358e+2, -1063508.3, -1097760.0, -2.5054667, 0.00016473292, -0.000042158408, -1063508.3, -32779.176, 0.0, 10.000828, 9.955671 
4.3150464e+3, 2.0477296e+2, -975353.4, -1019368.56, -0.36976096, 0.00016399215, 0.00008026011, -975353.4, -42128.324, 0.0, 10.000824, 9.94291 
4.3150464e+3, 2.1471591e+2, -877077.5, -921351.25, -2.7858236, 0.00016442256, -0.00011276406, -877077.5, -41293.34, 0.0, 10.000819, 9.94257 
4.3150464e+3, 2.2465216e+2, -788798.44, -843090.9, -0.0654786, 0.0001646763, 0.00013484228, -788798.44, -50389.57, 0.0, 10.000816, 9.929529 
4.3150464e+3, 2.3458175e+2, -690372.4, -744918.3, -2.5041072, 0.00016472938, -0.00007720297, -690372.4, -49273.508, 0.0, 10.000814, 9.929198 
4.3150464e+3, 2.445044e+2, -602055.0, -666974.44, -0.64806145, 0.00016399185, 0.00008473818, -602055.0, -58198.094, 0.0, 10.000811, 9.91576 
4.3150464e+3, 2.5442028e+2, -503314.13, -568306.94, -2.7502239, 0.00016231014, -0.000097384116, -503314.13, -56632.87, 0.0, 10.000806, 9.91566 
4.3150464e+3, 2.6432908e+2, -415088.38, -490960.13, -0.15125917, 0.00016174307, 0.00014900362, -415088.38, -65513.313, 0.0, 10.000801, 9.9015875 
4.3150464e+3, 2.7423123e+2, -315811.53, -391353.38, -2.106783, 0.00016259619, -0.00019632021, -315811.53, -63277.453, 0.0, 10.000799, 9.902007 
4.3150464e+3, 2.8412512e+2, -229345.3, -318067.06, 0.47134742, 0.00016285613, 0.00023485377, -229345.3, -73771.55, 0.0, 10.000796, 9.88506 
4.3150464e+3, 2.9401124e+2, -129647.04, -217756.94, -1.5840863, 0.00016229726, -0.0002488938, -129647.04, -70957.15, 0.0, 10.000793, 9.8858385 
4.3150458e+3, 3.039253e+2, -39912.39, -84742.07, 0.52759635, 0.00016157122, 0.00017643037, -39912.39, -39912.39, 0.0, 10.000791, 9.941797 
4.3150458e+3, 3.13869e+2, -38839.48, -82504.92, -1.31688, 0.00016060482, -0.00005269293, -38839.48, -38839.48, 0.0, 10.000787, 9.943309 
4.3250483e+3, 1.2499917e+2, -1718887.5, -1724163.9, 1.618663, 0.00017216186, 0.000062857434, -1718887.5, -3879.2478, 0.0, 10.000885, 9.99389 
4.3250483e+3, 1.3499293e+2, -1621519.9, -1627384.4, -0.32928136, 0.0001710686, -0.000111555826, -1621519.9, -4450.327, 0.0, 10.00088, 9.993107 
4.3250477e+3, 1.4498015e+2, -1533386.6, -1548024.6, 2.18478, 0.00017037071, 0.00015213633, -1533386.6, -14191.954, 0.0, 10.000875, 9.981476 
4.3250477e+3, 1.549616e+2, -1435670.3, -1450708.4, -1.0694858, 0.0001700674, -0.00003699841, -1435670.3, -14293.725, 0.0, 10.000872, 9.980944 
4.3250477e+3, 1.6493645e+2, -1347633.0, -1371853.8, 1.2495736, 0.00016984851, 0.0000462563, -1347633.0, -24009.969, 0.0, 10.000868, 9.968855 
4.3250477e+3, 1.7490534e+2, -1249686.4, -1274219.9, -0.62689304, 0.0001697157, -0.00005498777, -1249686.4, -23758.658, 0.0, 10.000863, 9.968441 
4.3250474e+3, 1.8486762e+2, -1161610.5, -1195627.9, 1.708691, 0.00016873082, 0.00009097667, -1161610.5, -33312.984, 0.0, 10.000858, 9.956008 
4.3250474e+3, 1.9482365e+2, -1063472.3, -1097748.9, -1.1904547, 0.00016685468, -0.000041419924, -1063472.3, -32743.979, 0.0, 10.0008545, 9.955666 
4.3250474e+3, 2.0477304e+2, -975316.75, -1019357.25, 0.68323976, 0.00016642777, 0.00008063655, -975316.75, -42092.406, 0.0, 10.000851, 9.942904 
4.3250474e+3, 2.1471599e+2, -877038.6, -921338.9, -1.7443109, 0.00016756829, -0.0001126246, -877038.6, -41255.164, 0.0, 10.000848, 9.942563 
4.3250474e+3, 2.2465222e+2, -788760.25, -843078.8, 1.1905373, 0.00016762654, 0.00013507337, -788760.25, -50352.004, 0.0, 10.000844, 9.9295225 
4.3250474e+3, 2.3458181e+2, -690338.4, -744908.44, -0.9634368, 0.00016645968, -0.00007650808, -690338.4, -49240.098, 0.0, 10.000839, 9.929192 
4.3250474e+3, 2.4450445e+2, -602021.6, -666964.75, 0.7837857, 0.00016546488, 0.00008556441, -602021.6, -58165.254, 0.0, 10.000835, 9.915753 
4.3250468e+3, 2.5442034e+2, -503277.7, -568295.75, -1.4913744, 0.00016467634, -0.000096823744, -503277.7, -56596.87, 0.0, 10.000833, 9.915653 
4.3250468e+3, 2.6432914e+2, -415050.66, -490948.47, 1.2249737, 0.00016451017, 0.00014938317, -415050.66, -65475.965, 0.0, 10.00083, 9.901581 
4.3250468e+3, 2.7423126e+2, -315774.88, -391342.38, -0.98891807, 0.00016513512, -0.00019601213, -315774.88, -63241.09, 0.0, 10.000826, 9.902001 
4.3250468e+3, 2.8412515e+2, -229310.03, -318056.97, 1.462856, 0.00016509878, 0.00023513324, -229310.03, -73736.53, 0.0, 10.000823, 9.885054 
4.3250468e+3, 2.9401127e+2, -129613.67, -217747.89, -0.5443068, 0.00016415333, -0.00024858487, -129613.67, -70923.97, 0.0, 10.000819, 9.885832 
4.3250468e+3, 3.0392534e+2, -39879.22, -84732.64, 1.7018088, 0.00016341363, 0.00017670308, -39879.22, -39879.22, 0.0, 10.000816, 9.941792 
4.3250468e+3, 3.13869e+2, -38804.3, -82494.45, 0.1531404, 0.00016298844, -0.000052554373, -38804.3, -38804.3, 0.0, 10.000814, 9.943303 
4.3350494e+3, 1.24999315e+2, -1718891.9, -1724172.3, -0.12090935, 0.00017365135, 0.000065413034, -1718891.9, -3885.0054, 0.0, 10.000885, 9.993885 
4.3350488e+3, 1.3499306e+2, -1621524.3, -1627392.8, -2.0756366, 0.00017350157, -0.00011183757, -1621524.3, -4455.966, 0.0, 10.00088, 9.993101 
4.3350488e+3, 1.4498027e+2, -1533394.0, -1548038.5, 0.62999314, 0.00017339858, 0.00015135758, -1533394.0, -14200.429, 0.0, 10.000875, 9.981467 
4.3350488e+3, 1.5496172e+2, -1435677.4, -1450722.3, -2.6176784, 0.0001733402, -0.0000359237, -1435677.4, -14302.047, 0.0, 10.000872, 9.980935 
4.3350488e+3, 1.6493656e+2, -1347637.1, -1371861.8, -0.366653, 0.0001724359, 0.000047828085, -1347637.1, -24015.15, 0.0, 10.000868, 9.96885 
4.3350482e+3, 1.7490545e+2, -1249690.5, -1274227.8, -2.2492769, 0.00017066958, -0.000054300726, -1249690.5, -23763.73, 0.0, 10.000863, 9.968436 
4.3350482e+3, 1.8486771e+2, -1161616.8, -1195640.0, 0.021798892, 0.00017002405, 0.00009096946, -1161616.8, -33320.188, 0.0, 10.000859, 9.956 
4.3350482e+3, 1.9482374e+2, -1063478.4, -1097761.0, -2.8752818, 0.00017054881, -0.000041921678, -1063478.4, -32751.041, 0.0, 10.0008545, 9.955657 
4.3350482e+3, 2.0477311e+2, -975322.0, -1019367.6, -0.41011927, 0.00017060898, 0.000080563084, -975322.0, -42098.438, 0.0, 10.000851, 9.942898 
4.3350482e+3, 2.1471605e+2, -877043.8, -921349.2, -2.825421, 0.00017016605, -0.00011127112, -877043.8, -41261.07, 0.0, 10.000848, 9.942556 
4.3350482e+3, 2.246523e+2, -788765.0, -843088.25, -0.5670388, 0.00016918924, 0.00013651531, -788765.0, -50357.402, 0.0, 10.000844, 9.929517 
4.335048e+3, 2.3458187e+2, -690343.06, -744917.8, -2.7445385, 0.00016760833, -0.00007649145, -690343.06, -49245.344, 0.0, 10.000839, 9.929186 
4.335048e+3, 2.4450451e+2, -602026.5, -666974.6, -0.3319551, 0.00016712327, 0.00008527235, -602026.5, -58170.656, 0.0, 10.000835, 9.915747 
4.335048e+3, 2.5442037e+2, -503282.5, -568305.6, -2.5756931, 0.0001679467, -0.000096089585, -503282.5, -56602.168, 0.0, 10.000833, 9.9156475 
4.335048e+3, 2.6432917e+2, -415055.6, -490958.6, -0.016639087, 0.0001680099, 0.00015040861, -415055.6, -65481.31, 0.0, 10.00083, 9.901574 
4.335048e+3, 2.7423128e+2, -315779.75, -391352.47, -2.240077, 0.0001671025, -0.00019563352, -315779.75, -63246.313, 0.0, 10.000827, 9.901995 
4.335048e+3, 2.8412518e+2, -229314.67, -318066.6, 0.11832948, 0.00016645234, 0.00023541469, -229314.67, -73741.43, 0.0, 10.000823, 9.885048 
4.335048e+3, 2.940113e+2, -129618.22, -217757.4, -1.8968196, 0.00016615841, -0.0002476439, -129618.22, -70928.73, 0.0, 10.000819, 9.885826 
4.335048e+3, 3.0392534e+2, -39883.1, -84740.82, 0.7822737, 0.0001657354, 0.00017746864, -39883.1, -39883.1, 0.0, 10.000816, 9.941786 
4.335048e+3, 3.13869e+2, -38808.12, -82502.5, -0.71961063, 0.00016511799, -0.000053210864, -38808.12, -38808.12, 0.0, 10.000814, 9.943298 
4.3450502e+3, 1.2499945e+2, -1718851.6, -1724158.9, 2.395274, 0.00017609377, 0.000066813416, -1718851.6, -3846.099, 0.0, 10.000914, 9.993878 
4.34505e+3, 1.3499318e+2, -1621483.3, -1627379.1, -0.97966933, 0.00017593363, -0.00011169124, -1621483.3, -4416.2944, 0.0, 10.000909, 9.993094 
4.34505e+3, 1.4498039e+2, -1533353.0, -1548024.8, 1.6431556, 0.00017581416, 0.00015137954, -1533353.0, -14160.646, 0.0, 10.000905, 9.98146 
4.34505e+3, 1.5496184e+2, -1435637.4, -1450709.1, -0.3396328, 0.0001757331, -0.00003489161, -1435637.4, -14263.197, 0.0, 10.0009, 9.980928 
4.3450493e+3, 1.6493666e+2, -1347597.8, -1371848.8, 1.9070382, 0.00017476814, 0.000048910235, -1347597.8, -23976.863, 0.0, 10.0008955, 9.968843 
4.3450493e+3, 1.7490557e+2, -1249652.0, -1274215.3, -1.1778132, 0.00017290254, -0.000054146614, -1249652.0, -23726.27, 0.0, 10.000891, 9.96843 
4.3450493e+3, 1.8486781e+2, -1161578.3, -1195628.1, 0.9648933, 0.00017241757, 0.00009091196, -1161578.3, -33282.688, 0.0, 10.000887, 9.955994 
4.3450493e+3, 1.9482383e+2, -1063438.5, -1097748.5, -1.4052037, 0.00017337446, -0.0000414418, -1063438.5, -32711.996, 0.0, 10.000883, 9.95565 
4.3450493e+3, 2.047732e+2, -975282.2, -1019354.7, 1.4245209, 0.00017337668, 0.0000812511, -975282.2, -42059.47, 0.0, 10.000879, 9.942891 
4.345049e+3, 2.1471612e+2, -877006.8, -921337.75, -0.97333485, 0.00017234567, -0.000110730805, -877006.8, -41224.81, 0.0, 10.000875, 9.94255 
4.345049e+3, 2.2465236e+2, -788728.7, -843077.3, 0.9526332, 0.00017122316, 0.00013699205, -788728.7, -50321.813, 0.0, 10.000871, 9.92951 
4.345049e+3, 2.3458193e+2, -690305.4, -744906.25, -1.60242, 0.00016999713, -0.00007598275, -690305.4, -49208.297, 0.0, 10.000867, 9.929179 
4.345049e+3, 2.4450456e+2, -601988.44, -666963.0, 0.94915074, 0.00016963966, 0.00008562095, -601988.44, -58133.15, 0.0, 10.000864, 9.91574 
4.345049e+3, 2.5442043e+2, -503245.28, -568294.5, -1.4215871, 0.00017031882, -0.00009613025, -503245.28, -56565.42, 0.0, 10.00086, 9.915641 
4.345049e+3, 2.643292e+2, -415018.88, -490947.66, 0.9955973, 0.00017022641, 0.00015036618, -415018.88, -65445.03, 0.0, 10.000857, 9.901568 
4.345049e+3, 2.742313e+2, -315743.66, -391341.9, -1.0816447, 0.00016914959, -0.00019518404, -315743.66, -63210.594, 0.0, 10.000854, 9.901988 
4.345049e+3, 2.841252e+2, -229278.42, -318055.88, 1.4685583, 0.00016849602, 0.00023626204, -229278.42, -73705.49, 0.0, 10.000851, 9.885041 
4.345049e+3, 2.940113e+2, -129581.24, -217746.4, -0.4810547, 0.00016842596, -0.00024652958, -129581.24, -70892.0, 0.0, 10.000848, 9.885819 
4.3450484e+3, 3.0392537e+2, -39846.957, -84730.83, 1.9379582, 0.00016811381, 0.00017816912, -39846.957, -39846.957, 0.0, 10.000844, 9.941779 
4.3450484e+3, 3.1386903e+2, -38773.79, -82493.43, -0.49640098, 0.00016743728, -0.000053933803, -38773.79, -38773.79, 0.0, 10.000841, 9.943292 
4.355051e+3, 1.249996e+2, -1718859.4, -1724173.4, 0.8574057, 0.00017947097, 0.00006708201, -1718859.4, -3855.2437, 0.0, 10.000914, 9.993869 
4.355051e+3, 1.3499331e+2, -1621491.0, -1627393.6, -2.511074, 0.00017836531, -0.00011112559, -1621491.0, -4425.265, 0.0, 10.000909, 9.993086 
4.355051e+3, 1.4498053e+2, -1533357.4, -1548033.3, -0.089276336, 0.00017762986, 0.00015218594, -1533357.4, -14166.326, 0.0, 10.000905, 9.981455 
4.355051e+3, 1.5496196e+2, -1435641.8, -1450717.5, -2.077747, 0.00017726366, -0.000033900596, -1435641.8, -14268.781, 0.0, 10.0009, 9.980923 
4.3550503e+3, 1.6493678e+2, -1347604.5, -1371861.8, 0.11866926, 0.0001768506, 0.0000495131, -1347604.5, -23984.785, 0.0, 10.0008955, 9.968835 
4.3550503e+3, 1.7490567e+2, -1249658.6, -1274228.3, -2.9630122, 0.0001763902, -0.000054515385, -1249658.6, -23734.023, 0.0, 10.000891, 9.968421 
4.3550503e+3, 1.848679e+2, -1161583.5, -1195638.3, -0.31381944, 0.00017589041, 0.00009080462, -1161583.5, -33288.836, 0.0, 10.000887, 9.955987 
4.3550503e+3, 1.9482394e+2, -1063443.6, -1097758.5, -2.6798306, 0.0001753489, -0.00003999895, -1063443.6, -32718.027, 0.0, 10.000883, 9.955644 
4.3550497e+3, 2.0477329e+2, -975287.44, -1019364.94, -0.27897078, 0.00017475865, 0.00008268641, -975287.44, -42065.55, 0.0, 10.000879, 9.942884 
4.3550497e+3, 2.1471621e+2, -877012.0, -921348.0, -2.6860032, 0.00017411528, -0.000110987814, -877012.0, -41230.742, 0.0, 10.000875, 9.942543 
4.3550497e+3, 2.2465244e+2, -788734.2, -843088.25, -0.44314963, 0.00017371938, 0.0001365222, -788734.2, -50328.008, 0.0, 10.000871, 9.929503 
4.3550497e+3, 2.34582e+2, -690310.8, -744917.1, -2.9873552, 0.00017360295, -0.00007499135, -690310.8, -49214.375, 0.0, 10.000867, 9.9291725 
4.3550497e+3, 2.4450463e+2, -601993.6, -666973.5, -0.29415187, 0.00017299832, 0.000086597945, -601993.6, -58138.938, 0.0, 10.000864, 9.915733 
4.3550497e+3, 2.544205e+2, -503250.4, -568304.94, -2.6584482, 0.00017181021, -0.000096930926, -503250.4, -56571.06, 0.0, 10.00086, 9.915633 
4.3550497e+3, 2.6432925e+2, -415023.56, -490957.22, -0.35414535, 0.00017118445, 0.00014927633, -415023.56, -65450.15, 0.0, 10.000857, 9.901562 
4.3550494e+3, 2.7423134e+2, -315748.25, -391351.38, -2.438783, 0.0001712752, -0.000194665, -315748.25, -63215.566, 0.0, 10.000854, 9.901981 
4.3550494e+3, 2.8412524e+2, -229282.92, -318065.22, 0.33735874, 0.00017121714, 0.00023766466, -229282.92, -73710.336, 0.0, 10.000851, 9.8850355 
4.3550494e+3, 2.9401132e+2, -129585.67, -217755.7, -1.5934775, 0.00017095171, -0.00024524488, -129585.67, -70896.72, 0.0, 10.000848, 9.885814 
4.3550494e+3, 3.0392537e+2, -39852.42, -84742.3, 0.62739646, 0.00017054846, 0.00017880599, -39852.42, -39852.42, 0.0, 10.000844, 9.9417715 
4.3550494e+3, 3.1386903e+2, -38779.375, -82505.17, -1.8276136, 0.00016994285, -0.000054722208, -38779.375, -38779.375, 0.0, 10.000841, 9.943283 
4.3650517e+3, 1.2499974e+2, -1718816.4, -1724158.9, 1.7302723, 0.00018215808, 0.00006669753, -1718816.4, -3813.6042, 0.0, 10.000944, 9.993861 
4.3650517e+3, 1.3499345e+2, -1621449.4, -1627379.9, -0.44250396, 0.00018073435, -0.00010984647, -1621449.4, -4385.0923, 0.0, 10.000938, 9.993078 
4.3650517e+3, 1.4498065e+2, -1533316.3, -1548019.1, 1.9570842, 0.00017979479, 0.00015358166, -1533316.3, -14126.524, 0.0, 10.000934, 9.981448 
4.3650514e+3, 1.5496208e+2, -1435601.3, -1450703.9, -1.1181763, 0.00017933881, -0.00003394128, -1435601.3, -14229.471, 0.0, 10.000929, 9.980916 
4.3650514e+3, 1.6493689e+2, -1347564.0, -1371848.9, 1.0562086, 0.00017911909, 0.000049169754, -1347564.0, -23945.371, 0.0, 10.000925, 9.968828 
4.3650514e+3, 1.7490578e+2, -1249616.5, -1274214.6, -1.3856972, 0.0001791406, -0.000054005868, -1249616.5, -23692.998, 0.0, 10.000921, 9.968414 
4.3650514e+3, 1.8486801e+2, -1161541.5, -1195624.3, 1.4099761, 0.00017865008, 0.00009161796, -1161541.5, -33247.89, 0.0, 10.000917, 9.95598 
4.3650508e+3, 1.9482404e+2, -1063404.5, -1097746.0, -1.2784528, 0.00017762401, -0.000039455063, -1063404.5, -32679.922, 0.0, 10.000912, 9.955637 
4.3650508e+3, 2.0477338e+2, -975249.3, -1019353.06, 0.93231463, 0.0001768323, 0.00008304056, -975249.3, -42028.313, 0.0, 10.000908, 9.942878 
4.3650508e+3, 2.147163e+2, -876972.94, -921335.7, -1.6033269, 0.00017629383, -0.000110736895, -876972.94, -41192.52, 0.0, 10.000904, 9.942536 
4.3650508e+3, 2.2465251e+2, -788694.7, -843076.06, 0.83318347, 0.0001761082, 0.00013673525, -788694.7, -50289.29, 0.0, 10.0009, 9.929496 
4.3650508e+3, 2.3458208e+2, -690271.25, -744905.06, -1.624857, 0.00017632102, -0.0000747421, -690271.25, -49175.504, 0.0, 10.000896, 9.929165 
4.3650508e+3, 2.445047e+2, -601954.75, -666961.9, 0.9949668, 0.00017567437, 0.000086894936, -601954.75, -58100.66, 0.0, 10.000893, 9.915727 
4.3650502e+3, 2.5442052e+2, -503213.16, -568294.25, -1.4872309, 0.00017400093, -0.00009657233, -503213.16, -56534.383, 0.0, 10.000889, 9.915627 
4.3650502e+3, 2.643293e+2, -414986.44, -490945.9, 0.90381783, 0.00017319842, 0.00014973013, -414986.44, -65413.53, 0.0, 10.000885, 9.901555 
4.3650502e+3, 2.742314e+2, -315710.63, -391339.84, -1.1728524, 0.0001735061, -0.00019407309, -315710.63, -63178.38, 0.0, 10.000882, 9.901976 
4.3650502e+3, 2.8412527e+2, -229245.5, -318054.3, 1.5472108, 0.00017356094, 0.00023812581, -229245.5, -73673.29, 0.0, 10.000878, 9.885029 
4.3650502e+3, 2.9401135e+2, -129548.945, -217745.3, -0.7413374, 0.00017326417, -0.00024528278, -129548.945, -70860.3, 0.0, 10.000875, 9.885807 
4.3650502e+3, 3.039254e+2, -39816.195, -84732.94, 1.449555, 0.00017294454, 0.00017884935, -39816.195, -39816.195, 0.0, 10.000873, 9.941764 
4.3650502e+3, 3.1386906e+2, -38741.758, -82495.22, -0.54552484, 0.00017259452, -0.0000537322, -38741.758, -38741.758, 0.0, 10.00087, 9.943275 
4.3750528e+3, 1.24999896e+2, -1718821.3, -1724168.3, -0.10621816, 0.00018416974, 0.00006567272, -1718821.3, -3820.027, 0.0, 10.000944, 9.993855 
4.3750528e+3, 1.3499361e+2, -1621454.3, -1627389.3, -2.2824264, 0.00018304256, -0.000107867425, -1621454.3, -4391.426, 0.0, 10.000939, 9.9930725 
4.3750528e+3, 1.4498079e+2, -1533323.1, -1548032.3, 0.13775925, 0.0001823023, 0.0001555556, -1533323.1, -14134.772, 0.0, 10.000934, 9.98144 
4.3750522e+3, 1.549622e+2, -1435608.0, -1450716.9, -2.935724, 0.00018194794, -0.000034993263, -1435608.0, -14237.531, 0.0, 10.000929, 9.980908 
4.3750522e+3, 1.64937e+2, -1347569.4, -1371859.3, -0.30685064, 0.0001815702, 0.000047898746, -1347569.4, -23951.926, 0.0, 10.000925, 9.968822 
4.3750522e+3, 1.749059e+2, -1249621.9, -1274224.9, -2.7475135, 0.00018116922, -0.0000526352, -1249621.9, -23699.453, 0.0, 10.000921, 9.968408 
4.3750522e+3, 1.8486813e+2, -1161547.4, -1195635.6, -0.5091997, 0.00018071153, 0.0000933341, -1161547.4, -33254.824, 0.0, 10.000917, 9.955973 
4.375052e+3, 1.9482413e+2, -1063410.4, -1097757.4, -3.2038162, 0.00018019402, -0.00003979219, -1063410.4, -32686.695, 0.0, 10.000912, 9.95563 
4.375052e+3, 2.0477349e+2, -975254.75, -1019363.9, -0.5099168, 0.000179584, 0.00008233496, -975254.75, -42034.71, 0.0, 10.000908, 9.942871 
4.375052e+3, 2.1471639e+2, -876978.3, -921346.44, -3.035807, 0.00017887374, -0.00010998814, -876978.3, -41198.793, 0.0, 10.000904, 9.94253 
4.375052e+3, 2.246526e+2, -788700.06, -843086.7, -0.47777963, 0.00017839232, 0.00013761765, -788700.06, -50295.414, 0.0, 10.0009, 9.929489 
4.375052e+3, 2.3458216e+2, -690276.5, -744915.6, -2.9329772, 0.00017816937, -0.00007522017, -690276.5, -49181.49, 0.0, 10.000896, 9.929158 
4.3750513e+3, 2.4450476e+2, -601960.2, -666972.8, -0.59362304, 0.00017768174, 0.0000865256, -601960.2, -58106.727, 0.0, 10.000893, 9.915719 
4.3750513e+3, 2.5442058e+2, -503218.5, -568305.1, -3.0875833, 0.00017687753, -0.00009507729, -503218.5, -56540.32, 0.0, 10.000889, 9.91562 
4.3750513e+3, 2.6432934e+2, -414991.1, -490955.5, -0.3001058, 0.00017624788, 0.00015169717, -414991.1, -65418.74, 0.0, 10.000885, 9.901549 
4.3750513e+3, 2.7423143e+2, -315715.2, -391349.28, -2.3530002, 0.00017584075, -0.00019340955, -315715.2, -63183.418, 0.0, 10.000882, 9.901969 
4.3750513e+3, 2.8412533e+2, -229250.64, -318065.0, 0.32243302, 0.0001755354, 0.0002376642, -229250.64, -73678.83, 0.0, 10.000878, 9.885021 
4.3750513e+3, 2.9401138e+2, -129554.07, -217756.03, -1.9696275, 0.00017536782, -0.0002466173, -129554.07, -70865.734, 0.0, 10.000875, 9.885799 
4.3750513e+3, 3.0392542e+2, -39820.953, -84742.945, 0.4665828, 0.0001753031, 0.00017831085, -39820.953, -39820.953, 0.0, 10.000873, 9.941757 
4.3750513e+3, 3.1386906e+2, -38746.49, -82505.16, -1.4984361, 0.00017539015, -0.000050998395, -38746.49, -38746.49, 0.0, 10.00087, 9.943269 
4.3850538e+3, 1.2500006e+2, -1718778.8, -1724153.1, 2.0208015, 0.00018647143, 0.00006659858, -1718778.8, -3779.0278, 0.0, 10.000974, 9.993849 
4.3850538e+3, 1.3499376e+2, -1621411.4, -1627374.1, -0.8367193, 0.00018533328, -0.000107336724, -1621411.4, -4349.949, 0.0, 10.000969, 9.993066 
4.3850538e+3, 1.4498094e+2, -1533280.5, -1548018.5, 1.4578998, 0.00018471827, 0.00015594796, -1533280.5, -14093.481, 0.0, 10.000965, 9.981432 
4.3850532e+3, 1.5496235e+2, -1435564.6, -1450702.9, -1.33192, 0.00018462587, -0.00003448168, -1435564.6, -14195.371, 0.0, 10.00096, 9.980901 
4.3850532e+3, 1.6493715e+2, -1347525.9, -1371844.1, 1.4070468, 0.00018414203, 0.00004846898, -1347525.9, -23909.666, 0.0, 10.000956, 9.968815 
4.3850532e+3, 1.74906e+2, -1249581.0, -1274211.3, -1.2156618, 0.00018325994, -0.000052067768, -1249581.0, -23659.713, 0.0, 10.000951, 9.968401 
4.3850526e+3, 1.8486825e+2, -1161507.3, -1195623.1, 0.8889581, 0.00018274917, 0.00009392019, -1161507.3, -33215.824, 0.0, 10.000946, 9.955966 
4.3850526e+3, 1.9482423e+2, -1063368.5, -1097744.0, -1.8272982, 0.0001826257, -0.000039165006, -1063368.5, -32645.889, 0.0, 10.000942, 9.955623 
4.3850526e+3, 2.0477358e+2, -975212.3, -1019350.0, 0.96873003, 0.00018224055, 0.000082820545, -975212.3, -41993.254, 0.0, 10.000938, 9.942863 
4.3850526e+3, 2.1471648e+2, -876937.2, -921333.3, -1.5835793, 0.00018157215, -0.000109841574, -876937.2, -41158.555, 0.0, 10.000934, 9.942523 
4.3850526e+3, 2.2465268e+2, -788660.4, -843074.7, 0.95842916, 0.00018089727, 0.00013769079, -788660.4, -50256.555, 0.0, 10.00093, 9.929482 
4.3850523e+3, 2.3458223e+2, -690238.2, -744904.44, -1.7419895, 0.00018021485, -0.00007491998, -690238.2, -49143.94, 0.0, 10.000925, 9.929152 
4.3850523e+3, 2.4450484e+2, -601921.7, -666961.1, 0.6310356, 0.00017976716, 0.00008698205, -601921.7, -58068.918, 0.0, 10.000921, 9.915712 
4.3850523e+3, 2.5442067e+2, -503178.8, -568292.94, -1.5644774, 0.00017959932, -0.00009454918, -503178.8, -56501.27, 0.0, 10.000918, 9.915613 
4.3850523e+3, 2.643294e+2, -414951.44, -490943.7, 1.2597262, 0.00017916335, 0.00015211683, -414951.44, -65379.62, 0.0, 10.000915, 9.901543 
4.3850523e+3, 2.742315e+2, -315676.7, -391338.22, -1.3644749, 0.00017838532, -0.00019332723, -315676.7, -63145.42, 0.0, 10.000911, 9.901962 
4.3850523e+3, 2.8412536e+2, -229212.86, -318054.47, 1.0753392, 0.00017789136, 0.00023768762, -229212.86, -73641.47, 0.0, 10.000908, 9.885015 
4.3850523e+3, 2.9401144e+2, -129516.44, -217745.67, -1.1783488, 0.0001777873, -0.0002462707, -129516.44, -70828.45, 0.0, 10.000904, 9.885793 
4.3850523e+3, 3.0392545e+2, -39783.656, -84732.21, 1.4567792, 0.00017770764, 0.00017885985, -39783.656, -39783.656, 0.0, 10.000901, 9.941751 
4.3850523e+3, 3.138691e+2, -38710.168, -82494.82, -0.2776062, 0.00017766106, -0.000050429717, -38710.168, -38710.168, 0.0, 10.000898, 9.943263 
4.3950546e+3, 1.2500021e+2, -1718785.3, -1724165.5, 0.33149746, 0.00018905748, 0.00006943455, -1718785.3, -3787.1482, 0.0, 10.000974, 9.993841 
4.3950546e+3, 1.3499391e+2, -1621417.9, -1627386.4, -2.5268867, 0.0001876073, -0.000108224354, -1621417.9, -4357.8965, 0.0, 10.000969, 9.993058 
4.3950546e+3, 1.4498109e+2, -1533286.8, -1548030.5, -0.11884081, 0.00018704518, 0.00015479159, -1533286.8, -14101.133, 0.0, 10.000965, 9.981424 
4.3950543e+3, 1.5496248e+2, -1435570.8, -1450714.6, -2.9076886, 0.00018737192, -0.000032438646, -1435570.8, -14202.906, 0.0, 10.00096, 9.980893 
4.3950543e+3, 1.6493727e+2, -1347531.6, -1371855.3, -0.5165451, 0.00018683271, 0.000050842555, -1347531.6, -23916.736, 0.0, 10.000956, 9.968807 
4.3950543e+3, 1.7490615e+2, -1249586.6, -1274222.4, -3.1425886, 0.00018541173, -0.000052286927, -1249586.6, -23666.621, 0.0, 10.000951, 9.968394 
4.3950537e+3, 1.8486837e+2, -1161513.1, -1195634.6, -0.5679138, 0.0001847637, 0.00009339962, -1161513.1, -33222.85, 0.0, 10.000946, 9.955958 
4.3950537e+3, 1.9482435e+2, -1063374.3, -1097755.5, -3.2784004, 0.0001849226, -0.00003759324, -1063374.3, -32652.8, 0.0, 10.000942, 9.955615 
4.3950537e+3, 2.0477368e+2, -975217.9, -1019360.94, -0.7198561, 0.00018480465, 0.00008447292, -975217.9, -41999.813, 0.0, 10.000938, 9.942857 
4.3950537e+3, 2.1471657e+2, -876942.6, -921344.2, -3.2785907, 0.0001843871, -0.00011028458, -876942.6, -41164.957, 0.0, 10.000934, 9.942515 
4.3950537e+3, 2.2465277e+2, -788666.2, -843086.3, -0.6417002, 0.0001836188, 0.00013697153, -788666.2, -50263.234, 0.0, 10.00093, 9.929475 
4.395053e+3, 2.345823e+2, -690243.94, -744916.0, -3.3370457, 0.00018245373, -0.0000738575, -690243.94, -49150.5, 0.0, 10.000925, 9.929144 
4.395053e+3, 2.4450491e+2, -601926.5, -666970.94, -0.63644177, 0.00018192944, 0.00008824731, -601926.5, -58074.5, 0.0, 10.000921, 9.915707 
4.395053e+3, 2.5442073e+2, -503183.56, -568302.56, -2.8200011, 0.00018217006, -0.00009496799, -503183.56, -56506.68, 0.0, 10.000918, 9.9156065 
4.395053e+3, 2.6432946e+2, -414957.16, -490955.38, -0.15564296, 0.00018194821, 0.00015102104, -414957.16, -65385.92, 0.0, 10.000915, 9.901534 
4.395053e+3, 2.7423155e+2, -315682.4, -391349.97, -2.7876194, 0.00018113594, -0.0001938142, -315682.4, -63151.637, 0.0, 10.000911, 9.901955 
4.395053e+3, 2.8412542e+2, -229218.03, -318065.22, -0.14529449, 0.00018062146, 0.00023818611, -229218.03, -73647.086, 0.0, 10.000908, 9.885007 
4.395053e+3, 2.9401147e+2, -129521.49, -217756.27, -2.379874, 0.00018051678, -0.0002442772, -129521.49, -70833.9, 0.0, 10.000904, 9.885786 
4.3950528e+3, 3.0392548e+2, -39788.035, -84741.44, 0.23952399, 0.00018015783, 0.00018047432, -39788.035, -39788.035, 0.0, 10.000901, 9.941745 
4.3950528e+3, 3.1386912e+2, -38714.477, -82503.9, -1.5020335, 0.00017941817, -0.000051982013, -38714.477, -38714.477, 0.0, 10.000898, 9.943256 
4.4050556e+3, 1.2500039e+2, -1718740.0, -1724150.3, 2.2206585, 0.00019156765, 0.00007001628, -1718740.0, -3743.4429, 0.0, 10.001006, 9.993834 
4.4050556e+3, 1.3499406e+2, -1621373.0, -1627371.6, -0.86485386, 0.00019030401, -0.00010797885, -1621373.0, -4314.6772, 0.0, 10.001001, 9.993051 
4.4050556e+3, 1.4498124e+2, -1533242.1, -1548015.1, 1.5462979, 0.00018966578, 0.00015509578, -1533242.1, -14058.048, 0.0, 10.000997, 9.981418 
4.405055e+3, 1.5496263e+2, -1435527.4, -1450700.1, -1.110572, 0.00018965268, -0.00003167914, -1435527.4, -14160.9, 0.0, 10.000992, 9.9808855 
4.405055e+3, 1.649374e+2, -1347488.5, -1371841.1, 1.0603931, 0.0001890906, 0.000051588322, -1347488.5, -23875.004, 0.0, 10.000987, 9.968801 
4.405055e+3, 1.7490627e+2, -1249542.9, -1274208.0, -1.9022198, 0.0001879697, -0.000052032974, -1249542.9, -23624.133, 0.0, 10.000982, 9.968387 
4.4050547e+3, 1.8486848e+2, -1161469.5, -1195620.1, 0.7564656, 0.00018738548, 0.00009357992, -1161469.5, -33180.402, 0.0, 10.0009775, 9.955952 
4.4050547e+3, 1.9482446e+2, -1063332.1, -1097741.9, -1.8685197, 0.0001873614, -0.000037049584, -1063332.1, -32611.783, 0.0, 10.000973, 9.955608 
4.4050547e+3, 2.0477378e+2, -975176.56, -1019348.1, 0.546393, 0.00018715794, 0.00008502458, -975176.56, -41959.547, 0.0, 10.000969, 9.942849 
4.4050547e+3, 2.1471667e+2, -876901.2, -921331.44, -2.3387873, 0.00018676027, -0.00011010936, -876901.2, -41124.46, 0.0, 10.000964, 9.942509 
4.4050542e+3, 2.2465286e+2, -788624.44, -843073.06, 0.33035937, 0.00018611974, 0.0001371498, -788624.44, -50222.387, 0.0, 10.00096, 9.929468 
4.4050542e+3, 2.345824e+2, -690202.5, -744903.06, -2.0155363, 0.00018520435, -0.00007324681, -690202.5, -49109.918, 0.0, 10.000956, 9.929136 
4.4050542e+3, 2.4450499e+2, -601885.94, -666958.8, 0.7775206, 0.00018469058, 0.00008884924, -601885.94, -58034.69, 0.0, 10.000952, 9.915699 
4.4050542e+3, 2.5442082e+2, -503144.16, -568291.2, -2.126416, 0.00018465615, -0.00009490187, -503144.16, -56467.96, 0.0, 10.000948, 9.915599 
4.4050542e+3, 2.6432952e+2, -414918.03, -490944.0, 0.3692023, 0.00018438303, 0.00015093293, -414918.03, -65347.418, 0.0, 10.000944, 9.901527 
4.4050542e+3, 2.7423164e+2, -315642.97, -391338.5, -1.7600889, 0.00018380479, -0.00019356968, -315642.97, -63112.758, 0.0, 10.000941, 9.901947 
4.4050542e+3, 2.8412545e+2, -229178.5, -318053.53, 1.3251963, 0.00018337448, 0.00023876631, -229178.5, -73608.03, 0.0, 10.000937, 9.885 
4.405054e+3, 2.940115e+2, -129482.73, -217745.03, -0.7341146, 0.00018314751, -0.00024335938, -129482.73, -70795.555, 0.0, 10.000934, 9.885778 
4.405054e+3, 3.039255e+2, -39750.27, -84731.625, 1.6357418, 0.00018266973, 0.00018116077, -39750.27, -39750.27, 0.0, 10.000931, 9.941737 
4.405054e+3, 3.1386915e+2, -38676.203, -82493.93, -1.1751853, 0.00018181837, -0.000052371754, -38676.203, -38676.203, 0.0, 10.000928, 9.943249 
4.4150567e+3, 1.2500055e+2, -1718747.0, -1724163.6, 0.45036632, 0.00019400434, 0.00006839311, -1718747.0, -3752.156, 0.0, 10.001006, 9.993826 
4.4150567e+3, 1.3499424e+2, -1621380.0, -1627384.8, -2.631814, 0.00019341492, -0.00010662443, -1621380.0, -4323.249, 0.0, 10.001001, 9.993042 
4.4150567e+3, 1.4498138e+2, -1533248.1, -1548026.5, -0.24457616, 0.00019257418, 0.00015682903, -1533248.1, -14065.502, 0.0, 10.000997, 9.98141 
4.415056e+3, 1.5496276e+2, -1435533.3, -1450711.4, -2.9042015, 0.00019147854, -0.000032175365, -1435533.3, -14168.203, 0.0, 10.000992, 9.980879 
4.415056e+3, 1.6493756e+2, -1347495.0, -1371853.8, -0.6487648, 0.00019092551, 0.00005074155, -1347495.0, -23882.875, 0.0, 10.000987, 9.968792 
4.415056e+3, 1.749064e+2, -1249549.4, -1274220.5, -3.6095378, 0.00019092589, -0.000051315925, -1249549.4, -23631.863, 0.0, 10.000982, 9.968379 
4.4150558e+3, 1.848686e+2, -1161475.1, -1195631.3, -1.0000507, 0.00019060216, 0.00009444611, -1161475.1, -33187.344, 0.0, 10.0009775, 9.955944 
4.4150558e+3, 1.9482459e+2, -1063337.8, -1097753.0, -3.627383, 0.00018993944, -0.000037511873, -1063337.8, -32618.57, 0.0, 10.000973, 9.955602 
4.4150558e+3, 2.0477389e+2, -975182.75, -1019360.4, -1.0559546, 0.0001893052, 0.000084499196, -975182.75, -41966.832, 0.0, 10.000969, 9.942842 
4.4150558e+3, 2.1471678e+2, -876907.3, -921343.6, -3.9359345, 0.00018870163, -0.00010932915, -876907.3, -41131.617, 0.0, 10.000964, 9.942501 
4.4150552e+3, 2.2465296e+2, -788629.56, -843083.4, -1.2896764, 0.00018840544, 0.00013820638, -788629.56, -50228.46, 0.0, 10.00096, 9.9294615 
4.4150552e+3, 2.3458248e+2, -690207.56, -744913.2, -3.6393476, 0.00018845646, -0.000073078, -690207.56, -49115.824, 0.0, 10.000956, 9.92913 
4.4150552e+3, 2.4450506e+2, -601892.1, -666971.4, -0.71689117, 0.00018803838, 0.000088802255, -601892.1, -58041.71, 0.0, 10.000952, 9.915691 
4.4150552e+3, 2.5442088e+2, -503150.38, -568303.8, -3.611205, 0.00018705978, -0.000094361254, -503150.38, -56474.883, 0.0, 10.000948, 9.915591 
4.4150552e+3, 2.6432958e+2, -414922.88, -490953.97, -0.92790866, 0.00018647559, 0.0001518309, -414922.88, -65352.926, 0.0, 10.000944, 9.901521 
4.4150552e+3, 2.742317e+2, -315647.7, -391348.25, -3.0473251, 0.00018639419, -0.00019260906, -315647.7, -63118.055, 0.0, 10.000941, 9.901941 
4.4150546e+3, 2.841255e+2, -229183.28, -318063.5, -0.019938478, 0.00018615053, 0.00023942681, -229183.28, -73613.34, 0.0, 10.000937, 9.884994 
4.4150546e+3, 2.9401156e+2, -129487.45, -217754.97, -2.0864437, 0.00018568196, -0.00024349413, -129487.45, -70800.74, 0.0, 10.000934, 9.885773 
4.4150546e+3, 3.0392557e+2, -39756.44, -84744.58, 0.53515434, 0.0001852424, 0.00018093902, -39756.44, -39756.44, 0.0, 10.000931, 9.941729 
4.4150546e+3, 3.1386918e+2, -38682.55, -82507.26, -2.2409828, 0.00018484876, -0.000051623698, -38682.55, -38682.55, 0.0, 10.000928, 9.94324 
4.4250575e+3, 1.2500073e+2, -1718700.9, -1724147.5, 1.7715282, 0.00019674869, 0.000068245274, -1718700.9, -3707.7097, 0.0, 10.001039, 9.993818 
4.4250575e+3, 1.349944e+2, -1621334.0, -1627368.9, -0.7844445, 0.0001959455, -0.00010576589, -1621334.0, -4278.884, 0.0, 10.001034, 9.993034 
4.4250575e+3, 1.4498155e+2, -1533202.6, -1548011.3, 1.5398504, 0.00019502164, 0.00015778866, -1533202.6, -14021.573, 0.0, 10.001029, 9.981402 
4.4250572e+3, 1.5496293e+2, -1435488.3, -1450696.5, -1.6426754, 0.00019397387, -0.00003202338, -1435488.3, -14124.757, 0.0, 10.001023, 9.980871 
4.4250572e+3, 1.649377e+2, -1347450.4, -1371838.9, 0.5822008, 0.00019349802, 0.00005078267, -1347450.4, -23839.578, 0.0, 10.001019, 9.968784 
4.4250572e+3, 1.7490654e+2, -1249505.0, -1274206.0, -2.1463673, 0.00019360558, -0.000050675713, -1249505.0, -23588.836, 0.0, 10.001015, 9.968371 
4.4250566e+3, 1.8486872e+2, -1161431.0, -1195616.9, 0.38097468, 0.00019326374, 0.00009518629, -1161431.0, -33144.44, 0.0, 10.00101, 9.955936 
4.4250566e+3, 1.9482471e+2, -1063293.9, -1097738.9, -2.5912347, 0.00019245195, -0.000037193102, -1063293.9, -32575.852, 0.0, 10.001005, 9.955594 
4.4250566e+3, 2.0477402e+2, -975139.4, -1019346.5, 0.0152784875, 0.00019177578, 0.00008477908, -975139.4, -41924.574, 0.0, 10.001, 9.942834 
4.4250566e+3, 2.1471688e+2, -876865.1, -921330.5, -2.5216427, 0.00019124616, -0.00010867435, -876865.1, -41090.477, 0.0, 10.000996, 9.942493 
4.4250563e+3, 2.2465307e+2, -788587.7, -843070.44, 0.21622412, 0.00019099515, 0.00013883242, -788587.7, -50187.594, 0.0, 10.000991, 9.929454 
4.4250563e+3, 2.3458257e+2, -690165.3, -744900.2, -2.696878, 0.00019105879, -0.00007293733, -690165.3, -49074.49, 0.0, 10.000987, 9.929123 
4.4250563e+3, 2.4450515e+2, -601850.1, -666958.75, 0.1686017, 0.00019067919, 0.00008893693, -601850.1, -58000.508, 0.0, 10.000983, 9.915684 
4.4250563e+3, 2.5442097e+2, -503109.2, -568291.7, -2.1421385, 0.00018976987, -0.000093659815, -503109.2, -56434.457, 0.0, 10.000978, 9.915584 
4.4250563e+3, 2.6432967e+2, -414882.16, -490941.78, 0.85888547, 0.00018918481, 0.00015270173, -414882.16, -65312.875, 0.0, 10.000975, 9.901514 
4.4250563e+3, 2.7423176e+2, -315607.66, -391336.53, -1.7465247, 0.00018901323, -0.00019207563, -315607.66, -63078.645, 0.0, 10.000971, 9.901934 
4.4250557e+3, 2.8412557e+2, -229143.47, -318052.03, 0.89498895, 0.00018872286, 0.0002395499, -229143.47, -73574.07, 0.0, 10.000968, 9.884987 
4.4250557e+3, 2.940116e+2, -129447.28, -217743.44, -1.589481, 0.00018826741, -0.00024387901, -129447.28, -70761.04, 0.0, 10.000964, 9.885765 
4.4250557e+3, 3.039256e+2, -39716.81, -84734.09, 1.2861838, 0.00018785302, 0.00018076481, -39716.81, -39716.81, 0.0, 10.000961, 9.941721 
4.4250557e+3, 3.138692e+2, -38643.18, -82496.97, -0.55659443, 0.0001875019, -0.00005051886, -38643.18, -38643.18, 0.0, 10.000958, 9.943233 
4.435059e+3, 1.250009e+2, -1718706.6, -1724158.5, 0.030341696, 0.00019979426, 0.0000695393, -1718706.6, -3715.284, 0.0, 10.001039, 9.993812 
4.4350585e+3, 1.3499457e+2, -1621339.8, -1627379.9, -2.5291102, 0.00019790935, -0.00010539187, -1621339.8, -4286.329, 0.0, 10.001034, 9.993028 
4.4350585e+3, 1.4498173e+2, -1533209.8, -1548024.8, -0.32910702, 0.0001970192, 0.00015799236, -1533209.8, -14030.296, 0.0, 10.001029, 9.981394 
4.4350582e+3, 1.5496309e+2, -1435495.3, -1450710.0, -3.5103626, 0.00019712438, -0.000031237643, -1435495.3, -14133.3125, 0.0, 10.001024, 9.980863 
4.4350582e+3, 1.6493785e+2, -1347456.3, -1371850.5, -1.1472604, 0.00019679224, 0.000051691804, -1347456.3, -23847.016, 0.0, 10.0010195, 9.968778 
4.4350582e+3, 1.7490667e+2, -1249510.9, -1274217.5, -3.876724, 0.00019601537, -0.000050110386, -1249510.9, -23596.13, 0.0, 10.001015, 9.968364 
4.4350582e+3, 1.8486887e+2, -1161437.5, -1195629.5, -1.3810277, 0.00019538304, 0.00009580353, -1161437.5, -33152.19, 0.0, 10.00101, 9.955929 
4.4350576e+3, 1.9482483e+2, -1063300.3, -1097751.4, -4.3523793, 0.00019490108, -0.000036110632, -1063300.3, -32583.459, 0.0, 10.001005, 9.9555855 
4.4350576e+3, 2.0477413e+2, -975144.9, -1019357.4, -1.8144612, 0.00019456322, 0.000085846346, -975144.9, -41931.234, 0.0, 10.001, 9.942827 
4.4350576e+3, 2.14717e+2, -876870.56, -921341.25, -4.3559833, 0.00019438103, -0.000108141794, -876870.56, -41096.98, 0.0, 10.000996, 9.942487 
4.435057e+3, 2.2465317e+2, -788593.94, -843082.94, -1.2636502, 0.00019388256, 0.0001390378, -788593.94, -50194.848, 0.0, 10.000991, 9.929446 
4.435057e+3, 2.3458268e+2, -690171.5, -744912.7, -4.16323, 0.0001930262, -0.00007282432, -690171.5, -49081.62, 0.0, 10.000987, 9.929114 
4.435057e+3, 2.4450523e+2, -601855.25, -666969.2, -1.4628695, 0.00019262913, 0.00008924909, -601855.25, -58006.51, 0.0, 10.000983, 9.915677 
4.435057e+3, 2.5442103e+2, -503114.22, -568302.0, -3.783978, 0.00019278031, -0.000092800714, -503114.22, -56440.28, 0.0, 10.000978, 9.915577 
4.435057e+3, 2.6432973e+2, -414887.84, -490953.5, -0.5710653, 0.00019249767, 0.00015354654, -414887.84, -65319.313, 0.0, 10.000975, 9.901506 
4.435057e+3, 2.7423182e+2, -315613.34, -391348.25, -3.1614044, 0.00019166167, -0.0001919598, -315613.34, -63084.973, 0.0, 10.000971, 9.901926 
4.4350567e+3, 2.8412563e+2, -229149.08, -318063.7, -0.31660777, 0.00019109633, 0.00023914722, -229149.08, -73580.25, 0.0, 10.000968, 9.884979 
4.4350567e+3, 2.9401165e+2, -129452.81, -217755.03, -2.7817125, 0.00019090339, -0.0002445089, -129452.81, -70767.06, 0.0, 10.000964, 9.885757 
4.4350567e+3, 3.0392563e+2, -39721.51, -84744.0, 0.15695292, 0.00019050138, 0.00018063694, -39721.51, -39721.51, 0.0, 10.000961, 9.941714 
4.4350567e+3, 3.1386924e+2, -38647.793, -82506.69, -1.6807636, 0.00018978644, -0.000049064412, -38647.793, -38647.793, 0.0, 10.000958, 9.943226 
4.4450602e+3, 1.2500109e+2, -1718658.4, -1724141.6, 2.41708, 0.00020252129, 0.000070625094, -1718658.4, -3668.8506, 0.0, 10.001072, 9.993803 
4.4450596e+3, 1.3499475e+2, -1621292.9, -1627363.8, -0.7910346, 0.00020047877, -0.00010519153, -1621292.9, -4241.101, 0.0, 10.001066, 9.99302 
4.4450596e+3, 1.4498189e+2, -1533163.5, -1548009.8, 1.2644495, 0.00019961123, 0.00015806928, -1533163.5, -13985.785, 0.0, 10.001061, 9.981386 
4.4450596e+3, 1.5496324e+2, -1435448.8, -1450694.9, -1.7248558, 0.00019991984, -0.000030519477, -1435448.8, -14088.314, 0.0, 10.001058, 9.980855 
4.445059e+3, 1.64938e+2, -1347409.5, -1371834.8, 0.5653177, 0.00019959977, 0.000052511186, -1347409.5, -23801.736, 0.0, 10.001053, 9.96877 
4.445059e+3, 1.7490683e+2, -1249465.1, -1274202.4, -2.454613, 0.00019864002, -0.00004973991, -1249465.1, -23551.807, 0.0, 10.001047, 9.968356 
4.445059e+3, 1.84869e+2, -1161392.6, -1195615.0, -0.006083645, 0.00019793893, 0.000096117416, -1161392.6, -33108.668, 0.0, 10.001042, 9.955921 
4.4450587e+3, 1.9482496e+2, -1063256.1, -1097737.4, -2.7937207, 0.00019750748, -0.000035443587, -1063256.1, -32540.592, 0.0, 10.001038, 9.955578 
4.4450587e+3, 2.0477425e+2, -975100.7, -1019343.44, -0.31548092, 0.00019724958, 0.00008649463, -975100.7, -41888.207, 0.0, 10.001033, 9.94282 
4.4450587e+3, 2.147171e+2, -876825.56, -921327.06, -3.4339006, 0.00019717921, -0.00010791449, -876825.56, -41053.105, 0.0, 10.001028, 9.942478 
4.4450587e+3, 2.2465327e+2, -788549.4, -843069.0, -0.48133877, 0.00019662446, 0.00013922664, -788549.4, -50151.35, 0.0, 10.001024, 9.929438 
4.445058e+3, 2.3458278e+2, -690129.06, -744899.9, -3.0619133, 0.00019552177, -0.00007224134, -690129.06, -49040.11, 0.0, 10.001019, 9.929107 
4.445058e+3, 2.4450533e+2, -601813.3, -666956.4, -0.22879529, 0.00019508413, 0.000089900495, -601813.3, -57965.43, 0.0, 10.001015, 9.915669 
4.445058e+3, 2.5442111e+2, -503071.6, -568289.0, -2.9912996, 0.00019544049, -0.00009247001, -503071.6, -56398.504, 0.0, 10.001011, 9.915569 
4.445058e+3, 2.6432982e+2, -414845.22, -490940.9, 0.11309317, 0.00019524014, 0.00015368217, -414845.22, -65277.434, 0.0, 10.001007, 9.901499 
4.445058e+3, 2.7423188e+2, -315571.16, -391336.03, -2.361523, 0.0001943295, -0.00019185853, -315571.16, -63043.465, 0.0, 10.001003, 9.901918 
4.4450575e+3, 2.8412572e+2, -229107.4, -318051.7, 0.7563067, 0.00019371616, 0.0002393363, -229107.4, -73539.18, 0.0, 10.000999, 9.884972 
4.4450575e+3, 2.940117e+2, -129412.17, -217743.64, -1.5257504, 0.00019351236, -0.00024406568, -129412.17, -70726.95, 0.0, 10.000996, 9.88575 
4.4450575e+3, 3.039257e+2, -39681.59, -84732.78, 1.4617935, 0.00019306505, 0.0001810408, -39681.59, -39681.59, 0.0, 10.000992, 9.941707 
4.4450575e+3, 3.1386927e+2, -38607.902, -82495.45, -0.795289, 0.00019225337, -0.00004913706, -38607.902, -38607.902, 0.0, 10.000989, 9.943218 
4.455061e+3, 1.2500128e+2, -1718665.8, -1724155.4, 0.4274435, 0.00020493809, 0.00007150805, -1718665.8, -3678.0427, 0.0, 10.001072, 9.993795 
4.4550607e+3, 1.3499494e+2, -1621300.0, -1627377.5, -2.7794542, 0.00020364026, -0.00010516079, -1621300.0, -4250.112, 0.0, 10.001067, 9.993011 
4.4550607e+3, 1.4498205e+2, -1533170.3, -1548022.5, -0.4498635, 0.0002027844, 0.00015802232, -1533170.3, -13994.14, 0.0, 10.001061, 9.981379 
4.4550607e+3, 1.549634e+2, -1435455.3, -1450707.5, -3.4390724, 0.00020236909, -0.000029866977, -1435455.3, -14096.529, 0.0, 10.001058, 9.980846 
4.45506e+3, 1.6493815e+2, -1347416.1, -1371847.5, -1.352552, 0.00020193262, 0.00005324324, -1347416.1, -23809.908, 0.0, 10.001053, 9.968761 
4.45506e+3, 1.7490697e+2, -1249471.6, -1274215.0, -4.373511, 0.00020147527, -0.00004955978, -1249471.6, -23559.816, 0.0, 10.001047, 9.9683485 
4.45506e+3, 1.8486914e+2, -1161398.6, -1195626.9, -1.887641, 0.00020092199, 0.00009613495, -1161398.6, -33116.1, 0.0, 10.001042, 9.955914 
4.4550595e+3, 1.948251e+2, -1063262.1, -1097749.1, -4.676676, 0.00020026797, -0.00003518202, -1063262.1, -32547.873, 0.0, 10.001038, 9.95557 
4.4550595e+3, 2.0477438e+2, -975107.4, -1019356.7, -1.9058193, 0.00019983767, 0.00008673386, -975107.4, -41896.137, 0.0, 10.001033, 9.942811 
4.4550595e+3, 2.1471722e+2, -876832.2, -921340.2, -5.0158534, 0.00019964915, -0.00010798565, -876832.2, -41060.887, 0.0, 10.001029, 9.942471 
4.4550595e+3, 2.2465338e+2, -788555.06, -843080.25, -2.3856547, 0.00019922499, 0.00013939911, -788555.06, -50158.07, 0.0, 10.001024, 9.929431 
4.4550592e+3, 2.3458287e+2, -690134.56, -744911.06, -4.978187, 0.00019853402, -0.00007119874, -690134.56, -49046.65, 0.0, 10.001019, 9.9291 
4.4550592e+3, 2.4450544e+2, -601819.25, -666968.5, -1.6762838, 0.00019803307, 0.00009088381, -601819.25, -57972.332, 0.0, 10.001015, 9.915662 
4.4550592e+3, 2.544212e+2, -503077.53, -568301.06, -4.4163394, 0.0001977589, -0.00009265582, -503077.53, -56405.273, 0.0, 10.001011, 9.915562 
4.4550592e+3, 2.6432988e+2, -414850.78, -490952.3, -1.3441023, 0.0001974258, 0.00015312443, -414850.78, -65283.76, 0.0, 10.001007, 9.901491 
4.4550592e+3, 2.7423194e+2, -315576.6, -391347.3, -3.8209083, 0.00019701697, -0.00019177145, -315576.6, -63049.63, 0.0, 10.001003, 9.901911 
4.4550586e+3, 2.8412578e+2, -229112.69, -318062.7, -0.6468241, 0.00019657737, 0.00024010395, -229112.69, -73545.1, 0.0, 10.000999, 9.884964 
4.4550586e+3, 2.9401177e+2, -129417.37, -217754.55, -2.9241421, 0.00019609545, -0.00024257318, -129417.37, -70732.72, 0.0, 10.000996, 9.885742 
4.4550586e+3, 3.0392575e+2, -39686.984, -84744.14, 0.3002631, 0.0001955464, 0.00018196466, -39686.984, -39686.984, 0.0, 10.000992, 9.941699 
4.4550586e+3, 3.1386933e+2, -38613.332, -82506.88, -1.9307677, 0.00019489911, -0.000050702612, -38613.332, -38613.332, 0.0, 10.000989, 9.943211 
4.465062e+3, 1.2500148e+2, -1718617.0, -1724139.0, 1.7907593, 0.00020750429, 0.0000719063, -1718617.0, -3631.2207, 0.0, 10.001106, 9.993787 
4.465062e+3, 1.3499512e+2, -1621250.4, -1627360.6, -1.2921282, 0.00020658963, -0.00010476593, -1621250.4, -4202.214, 0.0, 10.0011015, 9.993003 
4.4650614e+3, 1.4498223e+2, -1533120.6, -1548005.4, 0.9915648, 0.00020577532, 0.00015843428, -1533120.6, -13946.301, 0.0, 10.001097, 9.98137 
4.4650614e+3, 1.5496358e+2, -1435407.8, -1450691.6, -2.0664318, 0.00020505866, -0.000029417304, -1435407.8, -14050.598, 0.0, 10.001091, 9.980839 
4.4650614e+3, 1.6493833e+2, -1347369.5, -1371832.3, 0.012334983, 0.00020452947, 0.00005373601, -1347369.5, -23764.842, 0.0, 10.001086, 9.968754 
4.465061e+3, 1.7490712e+2, -1249425.0, -1274199.9, -3.053326, 0.00020419197, -0.000049018443, -1249425.0, -23514.598, 0.0, 10.001081, 9.96834 
4.465061e+3, 1.8486929e+2, -1161351.6, -1195611.5, -0.7109573, 0.00020375344, 0.00009658367, -1161351.6, -33070.55, 0.0, 10.001077, 9.955906 
4.465061e+3, 1.9482525e+2, -1063215.1, -1097733.9, -3.826681, 0.00020320885, -0.00003497328, -1063215.1, -32502.236, 0.0, 10.001071, 9.955563 
4.4650605e+3, 2.047745e+2, -975061.25, -1019342.0, -0.97734904, 0.00020263995, 0.00008693517, -975061.25, -41851.293, 0.0, 10.001066, 9.942803 
4.4650605e+3, 2.1471734e+2, -876788.0, -921326.7, -3.7050722, 0.0002020447, -0.00010754034, -876788.0, -41017.87, 0.0, 10.001061, 9.942462 
4.4650605e+3, 2.246535e+2, -788510.9, -843066.44, -0.9193117, 0.00020162053, 0.00013995227, -788510.9, -50114.992, 0.0, 10.001057, 9.929423 
4.4650605e+3, 2.3458298e+2, -690089.0, -744896.6, -3.7805045, 0.00020138943, -0.000070691734, -690089.0, -49002.133, 0.0, 10.001053, 9.929092 
4.46506e+3, 2.4450552e+2, -601773.94, -666954.7, -0.5468053, 0.00020095803, 0.000091343616, -601773.94, -57928.008, 0.0, 10.001048, 9.915653 
4.46506e+3, 2.544213e+2, -503034.06, -568288.3, -3.316059, 0.00020028718, -0.000092244336, -503034.06, -56362.695, 0.0, 10.001043, 9.915554 
4.46506e+3, 2.6433e+2, -414808.0, -490939.56, -0.1058419, 0.00019979787, 0.00015348244, -414808.0, -65241.797, 0.0, 10.001039, 9.901484 
4.46506e+3, 2.7423203e+2, -315534.0, -391334.75, -2.5998476, 0.00019953979, -0.00019147342, -315534.0, -63007.758, 0.0, 10.001035, 9.901904 
4.46506e+3, 2.8412583e+2, -229069.97, -318050.03, 0.6202677, 0.00019920297, 0.0002404115, -229069.97, -73503.055, 0.0, 10.001032, 9.884957 
4.4650596e+3, 2.9401183e+2, -129374.6, -217741.97, -1.7263732, 0.00019875671, -0.00024216119, -129374.6, -70690.555, 0.0, 10.001028, 9.8857355 
4.4650596e+3, 3.0392578e+2, -39645.17, -84733.055, 1.4417752, 0.0001982313, 0.00018230222, -39645.17, -39645.17, 0.0, 10.001024, 9.94169 
4.4650596e+3, 3.1386936e+2, -38571.945, -82496.1, -1.1260034, 0.00019759046, -0.000050705745, -38571.945, -38571.945, 0.0, 10.001021, 9.943202 
4.475063e+3, 1.2500167e+2, -1718624.0, -1724152.3, 0.098179184, 0.0002102168, 0.0000718315, -1718624.0, -3640.1824, 0.0, 10.001106, 9.993778 
4.475063e+3, 1.349953e+2, -1621257.3, -1627373.9, -2.9845448, 0.00020933287, -0.00010401548, -1621257.3, -4211.033, 0.0, 10.001102, 9.992995 
4.475063e+3, 1.4498243e+2, -1533127.4, -1548018.4, -1.1286931, 0.00020858929, 0.00015929437, -1533127.4, -13954.907, 0.0, 10.001097, 9.981362 
4.4750625e+3, 1.5496376e+2, -1435414.5, -1450704.5, -4.1879554, 0.00020798341, -0.000029165583, -1435414.5, -14059.036, 0.0, 10.001091, 9.98083 
4.4750625e+3, 1.649385e+2, -1347376.3, -1371845.3, -1.8287355, 0.00020738451, 0.0000539953, -1347376.3, -23773.176, 0.0, 10.001086, 9.968745 
4.475062e+3, 1.7490728e+2, -1249431.6, -1274212.9, -4.8928857, 0.00020679351, -0.000048124242, -1249431.6, -23522.783, 0.0, 10.001081, 9.968332 
4.475062e+3, 1.8486944e+2, -1161358.4, -1195624.6, -2.5249612, 0.00020643765, 0.00009745349, -1161358.4, -33078.766, 0.0, 10.001077, 9.955897 
4.475062e+3, 1.9482538e+2, -1063221.8, -1097747.0, -5.639963, 0.00020632669, -0.00003481629, -1063221.8, -32510.285, 0.0, 10.001072, 9.955554 
4.475062e+3, 2.0477465e+2, -975067.2, -1019353.75, -2.9603832, 0.00020565209, 0.00008709937, -975067.2, -41858.5, 0.0, 10.001066, 9.942796 
4.4750616e+3, 2.1471748e+2, -876793.8, -921338.25, -5.6939216, 0.00020436803, -0.00010659038, -876793.8, -41024.92, 0.0, 10.001061, 9.942454 
4.4750616e+3, 2.2465362e+2, -788517.0, -843078.75, -2.4517734, 0.00020381635, 0.00014087753, -788517.0, -50122.3, 0.0, 10.001057, 9.929416 
4.4750616e+3, 2.345831e+2, -690095.06, -744908.94, -5.298093, 0.00020409247, -0.00007070767, -690095.06, -49009.3, 0.0, 10.001053, 9.929084 
4.475061e+3, 2.4450563e+2, -601780.0, -666967.0, -2.3500447, 0.0002038605, 0.00009129222, -601780.0, -57935.07, 0.0, 10.001048, 9.915646 
4.475061e+3, 2.544214e+2, -503040.03, -568300.5, -5.1322584, 0.00020302102, -0.00009124933, -503040.03, -56369.598, 0.0, 10.001043, 9.915545 
4.475061e+3, 2.643301e+2, -414813.6, -490951.06, -1.5723989, 0.00020235243, 0.000154735, -414813.6, -65248.246, 0.0, 10.0010395, 9.901476 
4.475061e+3, 2.7423212e+2, -315539.5, -391346.13, -4.044553, 0.00020190235, -0.00019096915, -315539.5, -63014.04, 0.0, 10.001036, 9.901896 
4.475061e+3, 2.8412592e+2, -229075.38, -318061.3, -0.71200985, 0.00020159908, 0.00024026977, -229075.38, -73509.17, 0.0, 10.001032, 9.88495 
4.475061e+3, 2.940119e+2, -129379.94, -217753.19, -3.0491595, 0.00020149499, -0.00024280437, -129379.94, -70696.516, 0.0, 10.001028, 9.885728 
4.4750604e+3, 3.0392584e+2, -39651.184, -84745.69, 0.20562837, 0.0002011157, 0.00018206728, -39651.184, -39651.184, 0.0, 10.001025, 9.941682 
4.4750604e+3, 3.1386942e+2, -38578.043, -82508.914, -2.3483708, 0.00020032692, -0.00004918273, -38578.043, -38578.043, 0.0, 10.001021, 9.943193 
4.4850644e+3, 1.2500188e+2, -1718572.3, -1724134.0, 2.1139412, 0.00021312734, 0.00007251651, -1718572.3, -3590.4067, 0.0, 10.0011425, 9.993771 
4.4850639e+3, 1.349955e+2, -1621207.5, -1627356.9, -1.0125632, 0.00021197769, -0.00010324699, -1621207.5, -4163.2197, 0.0, 10.001137, 9.992987 
4.4850639e+3, 1.449826e+2, -1533078.4, -1548002.0, 0.63297105, 0.00021123387, 0.00015998891, -1533078.4, -13907.691, 0.0, 10.001132, 9.981354 
4.4850636e+3, 1.5496393e+2, -1435364.6, -1450687.9, -2.6184084, 0.00021089392, -0.000028703076, -1435364.6, -14011.027, 0.0, 10.001127, 9.980823 
4.4850636e+3, 1.6493866e+2, -1347326.4, -1371828.4, -0.27899826, 0.0002103661, 0.00005437972, -1347326.4, -23725.002, 0.0, 10.0011215, 9.968738 
4.4850636e+3, 1.7490746e+2, -1249382.8, -1274196.6, -3.3423114, 0.00020964775, -0.000047661106, -1249382.8, -23475.594, 0.0, 10.001116, 9.968324 
4.485063e+3, 1.848696e+2, -1161310.6, -1195609.3, -0.888727, 0.00020917198, 0.00009799108, -1161310.6, -33032.465, 0.0, 10.001111, 9.955889 
4.485063e+3, 1.9482552e+2, -1063174.8, -1097732.1, -3.9637754, 0.00020894888, -0.000034208748, -1063174.8, -32464.682, 0.0, 10.001106, 9.955546 
4.485063e+3, 2.0477478e+2, -975020.06, -1019338.6, -1.4898498, 0.00020833182, 0.00008765291, -975020.06, -41812.77, 0.0, 10.001101, 9.942788 
4.4850624e+3, 2.1471761e+2, -876746.44, -921323.2, -4.6324215, 0.0002072886, -0.000106224805, -876746.44, -40978.816, 0.0, 10.001096, 9.942447 
4.4850624e+3, 2.2465374e+2, -788470.2, -843064.06, -1.3995166, 0.00020667615, 0.00014112025, -788470.2, -50076.695, 0.0, 10.001091, 9.929407 
4.4850624e+3, 2.345832e+2, -690050.0, -744895.2, -4.2594995, 0.00020655051, -0.00007051422, -690050.0, -48965.36, 0.0, 10.001086, 9.929076 
4.4850624e+3, 2.4450573e+2, -601735.4, -666953.5, -1.2616645, 0.00020624828, 0.00009155732, -601735.4, -57891.49, 0.0, 10.001081, 9.915638 
4.485062e+3, 2.544215e+2, -502994.7, -568286.75, -3.9517157, 0.00020573445, -0.00009076828, -502994.7, -56325.21, 0.0, 10.001078, 9.915538 
4.485062e+3, 2.6433018e+2, -414768.28, -490937.47, -0.32636636, 0.00020516684, 0.00015525591, -414768.28, -65203.816, 0.0, 10.001073, 9.901468 
4.485062e+3, 2.7423218e+2, -315495.3, -391333.22, -3.0689528, 0.00020453111, -0.0001906327, -315495.28, -62970.65, 0.0, 10.001069, 9.901888 
4.485062e+3, 2.8412598e+2, -229031.81, -318048.56, 0.22420664, 0.000204127, 0.00024040077, -229031.81, -73466.336, 0.0, 10.001064, 9.884942 
4.485062e+3, 2.9401195e+2, -129336.96, -217740.83, -2.238308, 0.00020403952, -0.00024290664, -129336.96, -70654.195, 0.0, 10.0010605, 9.88572 
4.485062e+3, 3.039259e+2, -39608.92, -84734.08, 1.3018944, 0.00020372203, 0.000182148, -39608.92, -39608.92, 0.0, 10.001058, 9.941674 
4.4850615e+3, 3.1386948e+2, -38535.56, -82497.234, -0.6473102, 0.00020306114, -0.000048300513, -38535.56, -38535.56, 0.0, 10.001054, 9.943186 
4.4950655e+3, 1.2500209e+2, -1718579.4, -1724147.5, 0.0060953274, 0.00021623194, 0.00007394256, -1718579.4, -3599.5813, 0.0, 10.0011425, 9.993762 
4.4950655e+3, 1.349957e+2, -1621214.6, -1627370.3, -3.1213205, 0.0002145271, -0.000102460726, -1621214.6, -4172.2246, 0.0, 10.001137, 9.992978 
4.495065e+3, 1.449828e+2, -1533085.6, -1548015.9, -1.2590114, 0.00021371375, 0.0001605222, -1533085.6, -13916.8125, 0.0, 10.001132, 9.981345 
4.495065e+3, 1.5496412e+2, -1435371.9, -1450701.6, -4.5102386, 0.0002137914, -0.000028034756, -1435371.9, -14019.986, 0.0, 10.001127, 9.980814 
4.4950643e+3, 1.6493882e+2, -1347333.1, -1371841.4, -2.3094287, 0.00021347203, 0.00005488638, -1347333.1, -23733.424, 0.0, 10.0011215, 9.968729 
4.4950643e+3, 1.7490762e+2, -1249389.4, -1274209.6, -5.3743615, 0.00021274918, -0.000047618265, -1249389.4, -23483.854, 0.0, 10.001117, 9.968316 
4.4950643e+3, 1.8486975e+2, -1161317.3, -1195622.3, -2.8318818, 0.0002119558, 0.00009820485, -1161317.3, -33040.67, 0.0, 10.001111, 9.955881 
4.495064e+3, 1.9482566e+2, -1063181.3, -1097745.1, -5.905972, 0.00021108819, -0.000033161283, -1063181.3, -32472.736, 0.0, 10.001106, 9.955538 
4.495064e+3, 2.0477492e+2, -975026.8, -1019352.0, -3.343924, 0.00021068794, 0.00008858655, -975026.8, -41820.914, 0.0, 10.001101, 9.94278 
4.495064e+3, 2.1471775e+2, -876753.06, -921336.44, -6.4841633, 0.00021079274, -0.00010642932, -876753.06, -40986.79, 0.0, 10.001096, 9.942438 
4.4950634e+3, 2.2465387e+2, -788476.4, -843076.5, -3.2826698, 0.00021018452, 0.0001406971, -788476.4, -50084.125, 0.0, 10.001091, 9.9293995 
4.4950634e+3, 2.3458333e+2, -690056.1, -744907.56, -6.144101, 0.00020876995, -0.00007011633, -690056.1, -48972.63, 0.0, 10.001086, 9.929069 
4.4950634e+3, 2.4450584e+2, -601741.25, -666965.4, -2.8448923, 0.00020813437, 0.0000921314, -601741.25, -57898.434, 0.0, 10.001081, 9.91563 
4.4950634e+3, 2.544216e+2, -503000.47, -568298.6, -5.522079, 0.00020842873, -0.00009078857, -503000.47, -56331.996, 0.0, 10.001078, 9.91553 
4.495063e+3, 2.6433027e+2, -414774.38, -490950.03, -1.9843874, 0.00020823568, 0.00015506303, -414774.38, -65210.836, 0.0, 10.001073, 9.90146 
4.495063e+3, 2.7423227e+2, -315501.34, -391345.75, -4.7318006, 0.0002074203, -0.00019045985, -315501.34, -62977.535, 0.0, 10.001069, 9.90188 
4.495063e+3, 2.8412607e+2, -229037.52, -318060.44, -1.2062837, 0.00020678417, 0.00024079796, -229037.52, -73472.8, 0.0, 10.001064, 9.884934 
4.495063e+3, 2.94012e+2, -129342.56, -217752.6, -3.6480348, 0.00020639552, -0.00024248107, -129342.56, -70660.48, 0.0, 10.0010605, 9.885713 
4.495063e+3, 3.0392596e+2, -39613.957, -84744.7, 0.11591793, 0.00020605758, 0.00018253678, -39613.957, -39613.957, 0.0, 10.001058, 9.941668 
4.495063e+3, 3.138695e+2, -38540.543, -82507.74, -1.810547, 0.0002057938, -0.00004804322, -38540.543, -38540.543, 0.0, 10.001055, 9.943179 
4.5050663e+3, 1.2500231e+2, -1718527.1, -1724129.5, 1.9336665, 0.00021897804, 0.00007476692, -1718527.1, -3549.415, 0.0, 10.00118, 9.993753 
4.5050663e+3, 1.3499591e+2, -1621162.1, -1627352.1, -1.4087756, 0.00021746104, -0.00010213793, -1621162.1, -4121.7124, 0.0, 10.001174, 9.9929695 
4.5050663e+3, 1.4498301e+2, -1533033.5, -1547998.3, 0.38187358, 0.00021667632, 0.0001607871, -1533033.5, -13866.633, 0.0, 10.001169, 9.981337 
4.505066e+3, 1.5496431e+2, -1435320.8, -1450684.8, -2.927167, 0.00021662281, -0.00002738286, -1435320.8, -13970.806, 0.0, 10.0011635, 9.980804 
4.505066e+3, 1.6493902e+2, -1347282.5, -1371824.5, -0.9060042, 0.00021627374, 0.000055539615, -1347282.5, -23684.61, 0.0, 10.001158, 9.968721 
4.5050654e+3, 1.7490779e+2, -1249339.4, -1274193.0, -4.1583104, 0.00021562453, -0.00004735638, -1249339.4, -23435.43, 0.0, 10.001152, 9.9683075 
4.5050654e+3, 1.8486992e+2, -1161267.6, -1195606.0, -1.6655989, 0.00021479973, 0.00009834514, -1161267.6, -32992.613, 0.0, 10.001147, 9.955873 
4.5050654e+3, 1.9482584e+2, -1063132.4, -1097729.3, -4.772389, 0.000213791, -0.000032860946, -1063132.4, -32425.357, 0.0, 10.001142, 9.955529 
4.505065e+3, 2.0477507e+2, -974978.5, -1019336.8, -2.0403705, 0.00021337761, 0.000088986795, -974978.5, -41774.004, 0.0, 10.001136, 9.942771 
4.505065e+3, 2.1471788e+2, -876704.94, -921321.44, -5.1265564, 0.00021360765, -0.00010599427, -876704.94, -40939.996, 0.0, 10.001131, 9.94243 
4.505065e+3, 2.2465399e+2, -788428.4, -843061.3, -2.0314572, 0.0002130599, 0.0001411393, -788428.4, -50037.375, 0.0, 10.001126, 9.929391 
4.5050645e+3, 2.3458345e+2, -690008.9, -744892.9, -4.987269, 0.00021163249, -0.00006969812, -690008.9, -48926.543, 0.0, 10.001121, 9.92906 
4.5050645e+3, 2.4450597e+2, -601694.75, -666951.2, -1.5742308, 0.00021089756, 0.000092471906, -601694.75, -57853.0, 0.0, 10.001116, 9.915622 
4.5050645e+3, 2.544217e+2, -502954.84, -568285.0, -4.5121627, 0.00021098957, -0.000090589805, -502954.84, -56287.402, 0.0, 10.001111, 9.915522 
4.5050645e+3, 2.6433036e+2, -414729.2, -490936.72, -1.0467869, 0.00021077052, 0.00015523168, -414729.2, -65166.6, 0.0, 10.001107, 9.901452 
4.505064e+3, 2.7423236e+2, -315456.22, -391332.6, -3.6597476, 0.00021015362, -0.0001901791, -315456.22, -62933.285, 0.0, 10.001102, 9.901872 
4.505064e+3, 2.8412613e+2, -228992.52, -318047.25, 0.083304, 0.00020961068, 0.0002412317, -228992.52, -73428.59, 0.0, 10.001099, 9.884926 
4.505064e+3, 2.9401213e+2, -129298.34, -217739.89, -2.3807654, 0.00020917009, -0.00024183914, -129298.34, -70616.984, 0.0, 10.001095, 9.885705 
4.505064e+3, 3.0392602e+2, -39570.74, -84732.695, 1.3223124, 0.00020875406, 0.00018302505, -39570.74, -39570.74, 0.0, 10.001091, 9.941659 
4.505064e+3, 3.1386957e+2, -38497.793, -82495.97, -1.1795143, 0.00020837477, -0.000048246064, -38497.793, -38497.793, 0.0, 10.001087, 9.943171 
4.515068e+3, 1.2500252e+2, -1718534.8, -1724143.9, -0.049679782, 0.00022137562, 0.000075005424, -1718534.8, -3559.1707, 0.0, 10.00118, 9.993744 
4.5150673e+3, 1.3499613e+2, -1621169.6, -1627366.5, -3.392276, 0.00022077057, -0.000102266415, -1621169.6, -4131.2974, 0.0, 10.001174, 9.992961 
4.5150673e+3, 1.449832e+2, -1533040.9, -1548012.4, -1.7006185, 0.00022011001, 0.00016079067, -1533040.9, -13875.972, 0.0, 10.001169, 9.981328 
4.5150673e+3, 1.549645e+2, -1435328.1, -1450698.8, -5.0089855, 0.00021939052, -0.000026746777, -1435328.1, -13979.9795, 0.0, 10.0011635, 9.980796 
4.515067e+3, 1.649392e+2, -1347289.6, -1371838.3, -2.9834154, 0.0002187797, 0.000056335844, -1347289.6, -23693.527, 0.0, 10.001158, 9.968712 
4.515067e+3, 1.7490795e+2, -1249346.4, -1274206.8, -6.235914, 0.00021828033, -0.00004688091, -1249346.4, -23444.178, 0.0, 10.001152, 9.968299 
4.5150664e+3, 1.848701e+2, -1161274.3, -1195619.1, -3.7236638, 0.00021770304, 0.00009841388, -1161274.3, -33000.965, 0.0, 10.001147, 9.955864 
4.5150664e+3, 1.9482599e+2, -1063139.0, -1097742.4, -6.8314643, 0.00021704381, -0.000033288714, -1063139.0, -32433.541, 0.0, 10.001142, 9.955522 
4.5150664e+3, 2.0477523e+2, -974985.1, -1019349.94, -3.8794951, 0.00021639308, 0.0000888673, -974985.1, -41782.11, 0.0, 10.001136, 9.942762 
4.5150658e+3, 2.1471801e+2, -876711.5, -921334.5, -6.9611616, 0.00021575144, -0.000104935556, -876711.5, -40947.953, 0.0, 10.001131, 9.942421 
4.5150658e+3, 2.2465412e+2, -788434.75, -843074.1, -4.0308504, 0.00021531903, 0.0001424253, -788434.75, -50045.08, 0.0, 10.001126, 9.929383 
4.5150658e+3, 2.3458357e+2, -690015.2, -744905.56, -6.992472, 0.00021512271, -0.000069259906, -690015.2, -48934.07, 0.0, 10.0011215, 9.929052 
4.5150656e+3, 2.4450608e+2, -601701.1, -666964.2, -3.3204992, 0.00021451656, 0.00009258491, -601701.1, -57860.547, 0.0, 10.001116, 9.915613 
4.5150656e+3, 2.544218e+2, -502961.16, -568297.94, -6.245791, 0.00021342092, -0.00009017741, -502961.16, -56294.8, 0.0, 10.001112, 9.915514 
4.5150656e+3, 2.6433045e+2, -414735.06, -490948.8, -2.6655688, 0.00021278535, 0.00015575287, -414735.06, -65173.473, 0.0, 10.001107, 9.901444 
4.5150656e+3, 2.7423245e+2, -315462.0, -391344.56, -5.272352, 0.00021273569, -0.00018979299, -315462.0, -62939.973, 0.0, 10.001102, 9.901864 
4.515065e+3, 2.8412622e+2, -228998.25, -318059.22, -1.4694345, 0.00021260304, 0.00024170132, -228998.25, -73435.164, 0.0, 10.001099, 9.884918 
4.515065e+3, 2.940122e+2, -129304.01, -217751.78, -3.9278724, 0.00021235348, -0.00024098589, -129304.01, -70623.4, 0.0, 10.001095, 9.885696 
4.515065e+3, 3.039261e+2, -39576.79, -84745.445, 0.016699672, 0.00021180311, 0.00018361055, -39576.79, -39576.79, 0.0, 10.001091, 9.94165 
4.515065e+3, 3.1386963e+2, -38503.902, -82508.836, -2.456675, 0.00021080842, -0.000048897793, -38503.902, -38503.902, 0.0, 10.001087, 9.943162 
4.5250687e+3, 1.2500274e+2, -1718479.9, -1724124.9, 1.7794777, 0.00022436984, 0.000075690936, -1718479.9, -3506.4863, 0.0, 10.001218, 9.993735 
4.5250687e+3, 1.3499634e+2, -1621115.9, -1627348.3, -1.6654154, 0.00022374651, -0.00010191853, -1621115.9, -4079.6401, 0.0, 10.001212, 9.992951 
4.5250684e+3, 1.4498341e+2, -1532987.6, -1547994.1, -0.02841452, 0.00022302436, 0.00016108972, -1532987.6, -13824.726, 0.0, 10.001206, 9.981318 
4.5250684e+3, 1.549647e+2, -1435275.4, -1450681.0, -3.2815642, 0.0002221996, -0.000026207039, -1435275.4, -13929.255, 0.0, 10.001201, 9.980787 
4.5250684e+3, 1.6493939e+2, -1347237.4, -1371820.9, -1.2363472, 0.0002215704, 0.00005697224, -1347237.4, -23643.219, 0.0, 10.001195, 9.968703 
4.5250678e+3, 1.7490815e+2, -1249294.6, -1274189.8, -4.558792, 0.00022114119, -0.000046294463, -1249294.6, -23394.271, 0.0, 10.001189, 9.96829 
4.5250678e+3, 1.8487026e+2, -1161223.0, -1195602.3, -2.162748, 0.00022064832, 0.00009890078, -1161223.0, -32951.3, 0.0, 10.0011835, 9.955855 
4.5250675e+3, 1.9482616e+2, -1063088.3, -1097726.0, -5.488444, 0.00022008836, -0.00003295315, -1063088.3, -32384.303, 0.0, 10.001179, 9.955513 
4.5250675e+3, 2.0477538e+2, -974935.0, -1019333.75, -2.552656, 0.00021932539, 0.00008919451, -974935.0, -41733.547, 0.0, 10.001173, 9.942754 
4.5250675e+3, 2.1471816e+2, -876662.94, -921319.3, -5.6468787, 0.00021834284, -0.0001044621, -876662.94, -40900.83, 0.0, 10.001167, 9.942413 
4.525067e+3, 2.2465427e+2, -788386.6, -843059.2, -2.6774142, 0.00021791717, 0.00014289226, -788386.6, -49998.31, 0.0, 10.001162, 9.929375 
4.525067e+3, 2.345837e+2, -689966.5, -744890.5, -5.7426057, 0.00021812058, -0.00006897219, -689966.5, -48886.65, 0.0, 10.001157, 9.929044 
4.525067e+3, 2.445062e+2, -601652.75, -666949.44, -2.1001914, 0.00021760851, 0.000092853246, -601652.75, -57813.363, 0.0, 10.001152, 9.915606 
4.5250663e+3, 2.5442192e+2, -502914.25, -568284.06, -5.010947, 0.00021624181, -0.00008973749, -502914.25, -56248.996, 0.0, 10.001146, 9.915505 
4.5250663e+3, 2.6433057e+2, -414688.94, -490935.22, -1.2913992, 0.00021548862, 0.00015623467, -414688.94, -65128.367, 0.0, 10.001142, 9.901436 
4.5250663e+3, 2.7423254e+2, -315416.3, -391331.3, -4.136698, 0.00021551733, -0.00018943466, -315416.3, -62895.24, 0.0, 10.001138, 9.901855 
4.5250663e+3, 2.841263e+2, -228952.53, -318045.72, -0.36067423, 0.00021545158, 0.0002419967, -228952.53, -73390.305, 0.0, 10.001133, 9.884911 
4.5250663e+3, 2.9401228e+2, -129258.336, -217738.39, -2.7996628, 0.00021525228, -0.0002406699, -129258.336, -70578.516, 0.0, 10.001129, 9.885689 
4.525066e+3, 3.0392617e+2, -39532.254, -84733.6, 1.2650062, 0.00021467914, 0.00018397672, -39532.254, -39532.254, 0.0, 10.001125, 9.941642 
4.525066e+3, 3.1386968e+2, -38460.05, -82497.43, -1.1978263, 0.00021355345, -0.00004843799, -38460.05, -38460.05, 0.0, 10.0011215, 9.943153 
4.5350704e+3, 1.2500298e+2, -1718487.6, -1724139.8, -0.3946161, 0.00022794557, 0.00007681162, -1718487.6, -3516.579, 0.0, 10.001219, 9.993726 
4.5350698e+3, 1.3499655e+2, -1621123.6, -1627363.0, -3.839664, 0.00022639854, -0.00010110683, -1621123.6, -4089.5535, 0.0, 10.001212, 9.992943 
4.5350698e+3, 1.4498362e+2, -1532994.9, -1548007.9, -2.184656, 0.00022543392, 0.00016167657, -1532994.9, -13834.027, 0.0, 10.001206, 9.98131 
4.5350695e+3, 1.5496491e+2, -1435282.6, -1450694.8, -5.4397674, 0.0002250498, -0.000025760846, -1435282.6, -13938.393, 0.0, 10.001201, 9.980779 
4.5350695e+3, 1.649396e+2, -1347244.6, -1371834.9, -3.3651123, 0.00022463917, 0.000057453344, -1347244.6, -23652.379, 0.0, 10.001195, 9.968695 
4.5350695e+3, 1.7490833e+2, -1249301.9, -1274203.6, -6.6873627, 0.00022420248, -0.000045599667, -1249301.9, -23403.264, 0.0, 10.001189, 9.968281 
4.535069e+3, 1.8487044e+2, -1161230.1, -1195616.4, -4.2768497, 0.0002236352, 0.0000997951, -1161230.1, -32960.215, 0.0, 10.001184, 9.955847 
4.535069e+3, 1.9482632e+2, -1063095.3, -1097739.9, -7.6019225, 0.00022293099, -0.000031874115, -1063095.3, -32393.047, 0.0, 10.001179, 9.955503 
4.5350683e+3, 2.0477554e+2, -974941.7, -1019347.0, -4.692457, 0.00022217756, 0.00008995683, -974941.7, -41741.77, 0.0, 10.001173, 9.942745 
4.5350683e+3, 2.1471833e+2, -876669.5, -921332.4, -7.7890396, 0.00022137084, -0.00010455842, -876669.5, -40908.88, 0.0, 10.001167, 9.942405 
4.5350683e+3, 2.246544e+2, -788393.25, -843072.44, -4.4857187, 0.00022084608, 0.0001425618, -788393.25, -50006.29, 0.0, 10.001162, 9.929366 
4.535068e+3, 2.3458384e+2, -689973.0, -744903.6, -7.5400367, 0.00022063969, -0.000068830894, -689973.0, -48894.477, 0.0, 10.001157, 9.929035 
4.535068e+3, 2.4450631e+2, -601659.1, -666962.4, -4.1228614, 0.00022018797, 0.00009327303, -601659.1, -57820.977, 0.0, 10.001152, 9.915597 
4.535068e+3, 2.5442204e+2, -502920.53, -568296.9, -7.044798, 0.0002194429, -0.00008927049, -502920.53, -56256.434, 0.0, 10.001146, 9.915497 
4.535068e+3, 2.643307e+2, -414695.28, -490948.28, -2.9748788, 0.00021886313, 0.00015667839, -414695.28, -65135.77, 0.0, 10.001142, 9.901427 
4.5350674e+3, 2.7423266e+2, -315422.6, -391344.28, -5.796704, 0.00021849402, -0.00018910326, -315422.6, -62902.484, 0.0, 10.001138, 9.901847 
4.5350674e+3, 2.841264e+2, -228958.28, -318057.72, -1.8693625, 0.0002181607, 0.00024212245, -228958.28, -73396.96, 0.0, 10.001133, 9.884902 
4.5350674e+3, 2.9401237e+2, -129263.97, -217750.23, -4.295926, 0.00021787458, -0.00024087727, -129263.97, -70584.98, 0.0, 10.001129, 9.885681 
4.5350674e+3, 3.0392623e+2, -39538.313, -84746.36, -0.17913333, 0.00021738737, 0.00018412939, -39538.313, -39538.313, 0.0, 10.001125, 9.941633 
4.5350674e+3, 3.1386977e+2, -38466.164, -82510.305, -2.6343052, 0.00021660248, -0.000046894922, -38466.164, -38466.164, 0.0, 10.0011215, 9.943145 
4.5450714e+3, 1.2500322e+2, -1718431.3, -1724120.3, 1.9388521, 0.00023097674, 0.00007747706, -1718431.3, -3462.53, 0.0, 10.001258, 9.993717 
4.5450714e+3, 1.3499679e+2, -1621068.0, -1627344.1, -1.6113863, 0.00022936433, -0.00010041357, -1621068.0, -4036.1755, 0.0, 10.001252, 9.992933 
4.5450708e+3, 1.4498384e+2, -1532939.8, -1547989.1, -0.1520587, 0.00022839659, 0.00016231551, -1532939.8, -13781.058, 0.0, 10.0012455, 9.981301 
4.5450708e+3, 1.5496512e+2, -1435228.3, -1450676.5, -3.743485, 0.00022807169, -0.000025258718, -1435228.3, -13886.117, 0.0, 10.00124, 9.98077 
4.5450702e+3, 1.6493979e+2, -1347190.9, -1371816.8, -1.7998812, 0.00022763705, 0.000057874757, -1347190.9, -23600.475, 0.0, 10.001234, 9.968686 
4.5450702e+3, 1.7490852e+2, -1249248.6, -1274186.0, -5.1541085, 0.00022709163, -0.000045201792, -1249248.6, -23351.924, 0.0, 10.001228, 9.968272 
4.5450702e+3, 1.8487062e+2, -1161177.5, -1195599.1, -2.722929, 0.00022649436, 0.00010023019, -1161177.5, -32909.355, 0.0, 10.001222, 9.955838 
4.54507e+3, 1.948265e+2, -1063043.4, -1097723.1, -6.0152774, 0.0002258423, -0.000031338426, -1063043.4, -32342.76, 0.0, 10.001216, 9.955495 
4.54507e+3, 2.0477569e+2, -974890.2, -1019330.56, -3.2321439, 0.00022517325, 0.00009050617, -974890.2, -41691.88, 0.0, 10.00121, 9.942737 
4.5450693e+3, 2.1471848e+2, -876618.5, -921316.4, -6.6309185, 0.0002244857, -0.00010408944, -876618.5, -40859.4, 0.0, 10.0012045, 9.942396 
4.5450693e+3, 2.2465456e+2, -788342.94, -843056.56, -3.288986, 0.00022386553, 0.00014295043, -788342.94, -49957.44, 0.0, 10.001199, 9.929358 
4.5450693e+3, 2.3458399e+2, -689924.3, -744888.75, -6.35464, 0.00022332117, -0.000068522495, -689924.3, -48847.145, 0.0, 10.001193, 9.929027 
4.5450687e+3, 2.4450645e+2, -601611.0, -666947.9, -2.9489594, 0.0002228772, 0.00009354865, -601611.0, -57774.1, 0.0, 10.001188, 9.915588 
4.5450687e+3, 2.5442216e+2, -502871.88, -568282.25, -5.960737, 0.00022255255, -0.000088971094, -502871.88, -56208.957, 0.0, 10.0011835, 9.915488 
4.5450687e+3, 2.6433077e+2, -414646.8, -490933.9, -1.8034855, 0.00022208857, 0.00015704423, -414646.8, -65088.414, 0.0, 10.001178, 9.901419 
4.5450687e+3, 2.7423275e+2, -315375.38, -391330.7, -4.634501, 0.00022144684, -0.00018861683, -315375.38, -62856.29, 0.0, 10.001173, 9.901838 
4.5450684e+3, 2.841265e+2, -228911.77, -318044.1, -0.59977424, 0.00022093576, 0.00024255176, -228911.77, -73351.375, 0.0, 10.001168, 9.884894 
4.5450684e+3, 2.9401246e+2, -129218.33, -217737.14, -3.2045603, 0.00022060343, -0.00024074852, -129218.33, -70540.19, 0.0, 10.001164, 9.885673 
4.5450684e+3, 3.0392632e+2, -39493.555, -84734.164, 1.0277094, 0.00022015798, 0.00018426875, -39493.555, -39493.555, 0.0, 10.00116, 9.941625 
4.5450684e+3, 3.1386983e+2, -38421.035, -82497.96, -1.1948974, 0.00021954435, -0.00004628042, -38421.035, -38421.035, 0.0, 10.001157, 9.943136 
4.5550728e+3, 1.2500346e+2, -1718439.4, -1724135.6, -0.34854096, 0.00023347948, 0.00007770029, -1718439.4, -3472.9785, 0.0, 10.001258, 9.993708 
4.5550722e+3, 1.3499703e+2, -1621076.0, -1627359.3, -3.8980675, 0.00023263622, -0.00009983507, -1621076.0, -4046.4385, 0.0, 10.001252, 9.992924 
4.5550722e+3, 1.4498405e+2, -1532947.8, -1548004.4, -2.4264486, 0.00023189794, 0.00016300543, -1532947.8, -13791.225, 0.0, 10.0012455, 9.981292 
4.555072e+3, 1.5496533e+2, -1435236.1, -1450691.6, -6.0170217, 0.00023126137, -0.000024702, -1435236.1, -13896.099, 0.0, 10.00124, 9.980761 
4.555072e+3, 1.6493998e+2, -1347198.1, -1371831.0, -4.012904, 0.00023056683, 0.000058238253, -1347198.1, -23609.793, 0.0, 10.001234, 9.968677 
4.555072e+3, 1.7490873e+2, -1249255.9, -1274200.1, -7.3684573, 0.00022981422, -0.000045092555, -1249255.9, -23361.07, 0.0, 10.001228, 9.968264 
4.5550713e+3, 1.8487081e+2, -1161184.6, -1195613.0, -4.9280777, 0.00022923014, 0.00010021881, -1161184.6, -32918.285, 0.0, 10.001223, 9.955829 
4.5550713e+3, 1.9482668e+2, -1063050.4, -1097737.0, -8.220907, 0.00022882124, -0.000031330976, -1063050.4, -32351.518, 0.0, 10.001216, 9.955486 
4.5550707e+3, 2.0477587e+2, -974897.44, -1019345.0, -5.4270053, 0.00022830935, 0.000090848625, -974897.44, -41700.816, 0.0, 10.00121, 9.942727 
4.5550707e+3, 2.1471864e+2, -876625.7, -921330.75, -8.823788, 0.000227686, -0.00010307032, -876625.7, -40868.168, 0.0, 10.0012045, 9.942387 
4.5550707e+3, 2.246547e+2, -788349.56, -843069.9, -5.4145374, 0.00022697393, 0.00014403882, -788349.56, -49965.555, 0.0, 10.001199, 9.929349 
4.5550704e+3, 2.3458412e+2, -689930.8, -744901.94, -8.479853, 0.00022616131, -0.00006805129, -689930.8, -48855.074, 0.0, 10.001193, 9.929018 
4.5550704e+3, 2.445066e+2, -601617.5, -666961.2, -4.7942147, 0.00022567387, 0.00009368421, -601617.5, -57781.957, 0.0, 10.001188, 9.91558 
4.5550704e+3, 2.5442228e+2, -502878.34, -568295.5, -7.7927737, 0.00022557407, -0.00008883468, -502878.34, -56216.65, 0.0, 10.0011835, 9.91548 
4.5550698e+3, 2.643309e+2, -414653.2, -490947.03, -3.7041333, 0.0002251698, 0.00015733438, -414653.2, -65095.934, 0.0, 10.001179, 9.90141 
4.5550698e+3, 2.742329e+2, -315381.66, -391343.72, -6.5396867, 0.00022437722, -0.00018797933, -315381.66, -62863.64, 0.0, 10.001173, 9.90183 
4.5550698e+3, 2.8412658e+2, -228917.84, -318056.8, -2.2777898, 0.00022377571, 0.00024327677, -228917.84, -73358.44, 0.0, 10.001168, 9.884886 
4.5550698e+3, 2.9401255e+2, -129224.33, -217749.75, -4.8627715, 0.00022343661, -0.00024029249, -129224.33, -70547.08, 0.0, 10.001164, 9.885664 
4.5550692e+3, 3.039264e+2, -39499.277, -84746.24, -0.33676222, 0.00022298995, 0.00018439526, -39499.277, -39499.277, 0.0, 10.00116, 9.941617 
4.5550692e+3, 3.138699e+2, -38426.742, -82510.0, -2.5272892, 0.00022238269, -0.000046569545, -38426.742, -38426.742, 0.0, 10.001157, 9.943128 
4.565074e+3, 1.2500371e+2, -1718382.0, -1724115.8, 1.5100613, 0.00023645346, 0.00007824041, -1718382.0, -3418.038, 0.0, 10.001298, 9.993698 
4.5650738e+3, 1.3499725e+2, -1621018.5, -1627339.6, -2.0275226, 0.00023570242, -0.00009955814, -1621018.5, -3991.3787, 0.0, 10.001292, 9.992914 
4.5650738e+3, 1.4498429e+2, -1532890.5, -1547985.0, -0.5750017, 0.00023502811, 0.00016332668, -1532890.5, -13736.285, 0.0, 10.0012865, 9.981282 
4.5650733e+3, 1.5496555e+2, -1435179.5, -1450672.6, -4.113086, 0.00023442703, -0.00002402841, -1435179.5, -13841.647, 0.0, 10.00128, 9.980751 
4.5650733e+3, 1.6494021e+2, -1347142.3, -1371812.3, -2.2377427, 0.00023370056, 0.00005897501, -1347142.3, -23555.98, 0.0, 10.001274, 9.968668 
4.5650727e+3, 1.7490892e+2, -1249201.4, -1274182.3, -5.8553786, 0.00023284742, -0.000044586843, -1249201.4, -23308.53, 0.0, 10.001267, 9.968254 
4.5650727e+3, 1.84871e+2, -1161130.8, -1195595.4, -3.5074427, 0.00023218227, 0.00010057744, -1161130.8, -32866.367, 0.0, 10.001261, 9.95582 
4.5650724e+3, 1.9482686e+2, -1062997.3, -1097719.8, -6.91806, 0.0002317126, -0.000031031836, -1062997.3, -32300.2, 0.0, 10.001255, 9.955477 
4.5650724e+3, 2.0477605e+2, -974844.8, -1019328.1, -4.0276966, 0.0002312392, 0.000091243906, -974844.8, -41649.84, 0.0, 10.001248, 9.9427185 
4.5650718e+3, 2.1471879e+2, -876573.44, -921314.2, -7.207106, 0.0002307616, -0.00010241071, -876573.44, -40817.5, 0.0, 10.001243, 9.942378 
4.5650718e+3, 2.2465487e+2, -788297.8, -843053.75, -3.7860155, 0.00023010426, 0.00014473517, -788297.8, -49915.293, 0.0, 10.001237, 9.92934 
4.5650718e+3, 2.3458427e+2, -689879.8, -744886.3, -7.138567, 0.00022924348, -0.0000675754, -689879.8, -48805.48, 0.0, 10.001231, 9.929009 
4.5650712e+3, 2.4450673e+2, -601567.2, -666945.75, -3.3943884, 0.00022867178, 0.00009405754, -601567.2, -57732.96, 0.0, 10.001225, 9.915571 
4.5650712e+3, 2.5442243e+2, -502829.16, -568280.8, -6.435449, 0.00022844475, -0.00008842297, -502829.16, -56168.723, 0.0, 10.00122, 9.915471 
4.5650712e+3, 2.64331e+2, -414604.6, -490932.66, -2.3350625, 0.00022801648, 0.00015775244, -414604.6, -65048.523, 0.0, 10.001215, 9.9014015 
4.5650712e+3, 2.7423298e+2, -315333.3, -391329.63, -5.183962, 0.00022733121, -0.00018759593, -315333.3, -62816.4, 0.0, 10.001209, 9.901821 
4.565071e+3, 2.841267e+2, -228869.75, -318042.8, -0.7822881, 0.000226783, 0.00024370258, -228869.75, -73311.34, 0.0, 10.0012045, 9.884877 
4.565071e+3, 2.9401264e+2, -129176.84, -217736.2, -3.4599612, 0.00022642264, -0.00023971876, -129176.84, -70500.52, 0.0, 10.001201, 9.885655 
4.565071e+3, 3.0392653e+2, -39452.926, -84733.54, 1.045976, 0.00022590728, 0.00018484991, -39452.926, -39452.926, 0.0, 10.001196, 9.941608 
4.565071e+3, 3.1386998e+2, -38381.285, -82497.75, -1.4969326, 0.00022516162, -0.000046630983, -38381.285, -38381.285, 0.0, 10.001192, 9.943119 
4.5750752e+3, 1.2500396e+2, -1718390.0, -1724131.0, -0.69472283, 0.00023988594, 0.00007908836, -1718390.0, -3428.5435, 0.0, 10.001299, 9.993689 
4.5750752e+3, 1.349975e+2, -1621026.5, -1627354.8, -4.23516, 0.00023856976, -0.000099573954, -1621026.5, -4001.7048, 0.0, 10.001292, 9.992905 
4.5750746e+3, 1.4498453e+2, -1532898.4, -1548000.0, -2.9140048, 0.00023779874, 0.00016329011, -1532898.4, -13746.431, 0.0, 10.0012865, 9.981273 
4.5750746e+3, 1.5496577e+2, -1435187.3, -1450687.6, -6.45155, 0.00023757039, -0.000023240918, -1435187.3, -13851.619, 0.0, 10.00128, 9.9807415 
4.5750743e+3, 1.6494042e+2, -1347150.1, -1371827.5, -4.7043533, 0.0002370334, 0.000060074737, -1347150.1, -23565.982, 0.0, 10.001274, 9.968658 
4.5750743e+3, 1.7490911e+2, -1249209.1, -1274197.5, -8.321812, 0.00023618329, -0.00004369563, -1249209.1, -23318.342, 0.0, 10.001267, 9.968245 
4.5750737e+3, 1.848712e+2, -1161138.1, -1195609.8, -5.8058105, 0.00023534545, 0.00010129581, -1161138.1, -32875.637, 0.0, 10.001261, 9.9558115 
4.5750737e+3, 1.9482704e+2, -1063004.5, -1097734.1, -9.215949, 0.00023451971, -0.000030449119, -1063004.5, -32309.293, 0.0, 10.001255, 9.955468 
4.575073e+3, 2.0477623e+2, -974851.6, -1019341.7, -6.247528, 0.0002339695, 0.000091690694, -974851.6, -41658.414, 0.0, 10.001249, 9.94271 
4.575073e+3, 2.1471897e+2, -876580.2, -921327.7, -9.427195, 0.0002337168, -0.000102100166, -876580.2, -40825.9, 0.0, 10.001243, 9.942369 
4.575073e+3, 2.2465503e+2, -788305.0, -843068.2, -6.0282807, 0.00023325671, 0.00014505089, -788305.0, -49924.06, 0.0, 10.001237, 9.929331 
4.5750728e+3, 2.3458442e+2, -689886.94, -744900.7, -9.380363, 0.00023256187, -0.000067094734, -689886.94, -48814.082, 0.0, 10.001231, 9.929 
4.5750728e+3, 2.4450687e+2, -601573.9, -666959.3, -5.453856, 0.00023186624, 0.0000946622, -601573.9, -57741.023, 0.0, 10.001225, 9.915562 
4.5750728e+3, 2.5442255e+2, -502835.72, -568294.25, -8.486911, 0.00023116954, -0.000087743356, -502835.72, -56176.598, 0.0, 10.00122, 9.9154625 
4.5750722e+3, 2.6433113e+2, -414611.0, -490945.84, -4.2433043, 0.00023063582, 0.00015829512, -414611.0, -65056.152, 0.0, 10.001215, 9.901393 
4.5750722e+3, 2.742331e+2, -315339.63, -391342.72, -7.0837107, 0.00023030897, -0.00018745942, -315339.63, -62823.848, 0.0, 10.00121, 9.901813 
4.5750722e+3, 2.841268e+2, -228876.02, -318055.94, -2.5411913, 0.00022995379, 0.00024383768, -228876.02, -73318.68, 0.0, 10.001205, 9.884869 
4.5750722e+3, 2.9401273e+2, -129183.04, -217749.23, -5.2052574, 0.00022955814, -0.00023903025, -129183.04, -70507.69, 0.0, 10.001201, 9.885647 
4.5750716e+3, 3.0392662e+2, -39459.3, -84746.984, -0.5287909, 0.00022890841, 0.0001856239, -39459.3, -39459.3, 0.0, 10.001196, 9.941599 
4.5750716e+3, 3.1387007e+2, -38387.695, -82511.26, -3.0520513, 0.00022788343, -0.000046470966, -38387.695, -38387.695, 0.0, 10.001192, 9.94311 
4.5850766e+3, 1.2500422e+2, -1718329.3, -1724110.0, 1.8784155, 0.00024332623, 0.000079983205, -1718329.3, -3370.2534, 0.0, 10.001341, 9.993678 
4.5850763e+3, 1.3499776e+2, -1620967.5, -1627334.9, -2.1247253, 0.00024174139, -0.00009901111, -1620967.5, -3945.201, 0.0, 10.001334, 9.992895 
4.5850763e+3, 1.4498477e+2, -1532840.1, -1547979.9, -1.023329, 0.00024082762, 0.00016372051, -1532840.1, -13690.519, 0.0, 10.0013275, 9.981263 
4.5850757e+3, 1.54966e+2, -1435129.9, -1450668.1, -4.5379186, 0.00024058264, -0.000022743088, -1435129.9, -13796.473, 0.0, 10.001321, 9.980732 
4.5850757e+3, 1.6494064e+2, -1347093.3, -1371808.6, -2.7770884, 0.00024010729, 0.000060674294, -1347093.3, -23511.275, 0.0, 10.001314, 9.968649 
4.585075e+3, 1.7490934e+2, -1249152.4, -1274178.8, -6.339986, 0.00023939848, -0.00004295939, -1249152.4, -23263.615, 0.0, 10.001308, 9.968235 
4.585075e+3, 1.848714e+2, -1161081.9, -1195591.4, -3.885158, 0.00023858988, 0.00010204135, -1161081.9, -32821.37, 0.0, 10.001302, 9.955802 
4.5850748e+3, 1.9482724e+2, -1062949.6, -1097716.5, -7.512251, 0.0002376765, -0.000029827206, -1062949.6, -32256.336, 0.0, 10.001295, 9.955459 
4.5850748e+3, 2.047764e+2, -974797.44, -1019324.1, -4.627837, 0.00023702043, 0.0000921962, -974797.44, -41606.066, 0.0, 10.001288, 9.942701 
4.5850748e+3, 2.1471915e+2, -876526.75, -921310.7, -8.088163, 0.0002366422, -0.000101703285, -876526.75, -40774.223, 0.0, 10.001282, 9.94236 
4.5850742e+3, 2.246552e+2, -788252.2, -843051.75, -4.7546196, 0.00023619058, 0.00014543798, -788252.2, -49872.91, 0.0, 10.001276, 9.929321 
4.5850742e+3, 2.3458458e+2, -689834.56, -744884.6, -7.980126, 0.00023565553, -0.00006660577, -689834.56, -48763.285, 0.0, 10.00127, 9.92899 
4.5850736e+3, 2.4450701e+2, -601522.0, -666943.44, -3.9167266, 0.00023497047, 0.00009519577, -601522.0, -57690.598, 0.0, 10.001264, 9.915553 
4.5850736e+3, 2.544227e+2, -502784.84, -568278.94, -7.062524, 0.00023410618, -0.000087233624, -502784.84, -56127.082, 0.0, 10.001258, 9.915453 
4.5850736e+3, 2.6433128e+2, -414560.78, -490930.97, -2.7500114, 0.00023351403, 0.00015872528, -414560.78, -65007.19, 0.0, 10.001252, 9.901383 
4.5850736e+3, 2.7423322e+2, -315289.9, -391328.2, -5.7549405, 0.00023326796, -0.00018717951, -315289.9, -62775.305, 0.0, 10.001247, 9.901804 
4.5850733e+3, 2.8412694e+2, -228826.55, -318041.28, -1.1480945, 0.00023294856, 0.00024409672, -228826.55, -73270.305, 0.0, 10.001243, 9.88486 
4.5850733e+3, 2.940128e+2, -129134.31, -217735.06, -3.690427, 0.0002325264, -0.0002386149, -129134.31, -70459.984, 0.0, 10.001237, 9.885638 
4.5850733e+3, 3.039267e+2, -39411.984, -84734.4, 1.1736078, 0.00023183617, 0.00018611955, -39411.984, -39411.984, 0.0, 10.001233, 9.941589 
4.5850733e+3, 3.1387016e+2, -38340.824, -82498.98, -1.3883266, 0.00023075055, -0.00004600924, -38340.824, -38340.824, 0.0, 10.001228, 9.943101 
4.5950782e+3, 1.2500449e+2, -1718338.3, -1724127.3, -0.6966348, 0.00024677534, 0.00008092416, -1718338.3, -3381.9646, 0.0, 10.001342, 9.993668 
4.5950776e+3, 1.34998e+2, -1620976.5, -1627352.0, -4.696673, 0.00024520932, -0.00009788649, -1620976.5, -3956.7002, 0.0, 10.001334, 9.992885 
4.5950776e+3, 1.4498502e+2, -1532847.9, -1547994.9, -3.4864025, 0.00024410799, 0.00016460418, -1532847.9, -13700.708, 0.0, 10.0013275, 9.981255 
4.595077e+3, 1.5496625e+2, -1435137.6, -1450683.0, -7.0040007, 0.00024346854, -0.000022526154, -1435137.6, -13806.483, 0.0, 10.001321, 9.980722 
4.595077e+3, 1.6494086e+2, -1347101.0, -1371823.6, -5.189179, 0.00024293081, 0.00006078875, -1347101.0, -23521.254, 0.0, 10.001315, 9.968639 
4.5950767e+3, 1.7490956e+2, -1249160.0, -1274193.6, -8.752327, 0.00024249755, -0.00004237321, -1249160.0, -23273.418, 0.0, 10.001308, 9.9682255 
4.5950767e+3, 1.8487161e+2, -1161089.6, -1195606.6, -6.4483385, 0.00024191425, 0.000102813625, -1161089.6, -32831.22, 0.0, 10.001302, 9.955791 
4.595076e+3, 1.9482744e+2, -1062957.4, -1097731.8, -10.076335, 0.0002411737, -0.000029166835, -1062957.4, -32265.99, 0.0, 10.001295, 9.955449 
4.595076e+3, 2.047766e+2, -974804.9, -1019338.9, -6.963064, 0.0002403835, 0.00009275902, -974804.9, -41615.33, 0.0, 10.001288, 9.942692 
4.5950755e+3, 2.1471933e+2, -876534.1, -921325.25, -10.418588, 0.00023953956, -0.000101222475, -876534.1, -40783.305, 0.0, 10.001282, 9.94235 
4.5950755e+3, 2.2465536e+2, -788259.2, -843065.75, -7.0305486, 0.00023891305, 0.00014589445, -788259.1, -49881.527, 0.0, 10.001276, 9.929313 
4.5950752e+3, 2.3458473e+2, -689841.44, -744898.5, -10.255642, 0.0002385318, -0.00006610846, -689841.44, -48771.715, 0.0, 10.00127, 9.928982 
4.5950752e+3, 2.4450718e+2, -601528.9, -666957.44, -6.1488056, 0.0002379879, 0.00009566065, -601528.9, -57698.96, 0.0, 10.001264, 9.915544 
4.5950752e+3, 2.5442284e+2, -502791.63, -568292.9, -9.292994, 0.00023724943, -0.00008688862, -502791.63, -56135.27, 0.0, 10.001258, 9.915444 
4.5950747e+3, 2.6433143e+2, -414567.5, -490944.84, -4.7192736, 0.00023664453, 0.00015904637, -414567.5, -65015.24, 0.0, 10.001252, 9.901375 
4.5950747e+3, 2.7423334e+2, -315296.56, -391342.0, -7.706659, 0.00023620957, -0.00018676011, -315296.56, -62783.18, 0.0, 10.001247, 9.901795 
4.5950747e+3, 2.8412706e+2, -228832.64, -318054.03, -3.022895, 0.00023577311, 0.0002444763, -228832.64, -73277.54, 0.0, 10.001243, 9.884851 
4.5950747e+3, 2.9401293e+2, -129140.29, -217747.64, -5.5599465, 0.00023533298, -0.0002384647, -129140.29, -70467.01, 0.0, 10.001238, 9.885631 
4.5950744e+3, 3.039268e+2, -39418.43, -84748.0, -0.5039683, 0.00023469345, 0.0001863451, -39418.43, -39418.43, 0.0, 10.001233, 9.941581 
4.5950744e+3, 3.1387025e+2, -38347.34, -82512.72, -3.042517, 0.00023375967, -0.00004525403, -38347.34, -38347.34, 0.0, 10.001228, 9.943091 
4.605079e+3, 1.2500475e+2, -1718276.5, -1724106.0, 1.5694307, 0.00024997044, 0.000081239144, -1718276.5, -3322.7778, 0.0, 10.001385, 9.993658 
4.605079e+3, 1.3499828e+2, -1620915.0, -1627331.0, -2.13114, 0.00024854505, -0.000096902906, -1620915.0, -3897.744, 0.0, 10.001378, 9.992874 
4.6050787e+3, 1.4498526e+2, -1532786.9, -1547973.9, -1.0114392, 0.00024748032, 0.00016569988, -1532786.9, -13642.182, 0.0, 10.001371, 9.981244 
4.6050787e+3, 1.5496647e+2, -1435078.0, -1450663.0, -4.9841638, 0.00024677307, -0.000021876205, -1435078.0, -13749.292, 0.0, 10.001364, 9.980713 
4.605078e+3, 1.649411e+2, -1347042.4, -1371803.9, -3.3505182, 0.0002461258, 0.000061185594, -1347042.4, -23464.875, 0.0, 10.001356, 9.96863 
4.605078e+3, 1.7490977e+2, -1249102.5, -1274174.6, -7.020058, 0.00024554064, -0.000042033356, -1249102.5, -23218.066, 0.0, 10.001349, 9.968216 
4.6050775e+3, 1.8487182e+2, -1161032.6, -1195588.0, -4.7525167, 0.0002449791, 0.00010325367, -1161032.6, -32776.29, 0.0, 10.001343, 9.955782 
4.6050775e+3, 1.9482763e+2, -1062900.4, -1097713.3, -8.327122, 0.00024444147, -0.000028462717, -1062900.4, -32210.992, 0.0, 10.001336, 9.95544 
4.6050772e+3, 2.047768e+2, -974748.4, -1019320.56, -5.1428747, 0.00024366341, 0.00009351254, -974748.4, -41560.758, 0.0, 10.001329, 9.942682 
4.6050772e+3, 2.1471952e+2, -876479.25, -921307.94, -8.601701, 0.00024262551, -0.00010065143, -876479.25, -40730.25, 0.0, 10.001323, 9.942341 
4.6050766e+3, 2.2465554e+2, -788205.1, -843048.8, -5.1076407, 0.00024188668, 0.00014638471, -788205.1, -49829.24, 0.0, 10.001316, 9.929303 
4.6050766e+3, 2.345849e+2, -689787.9, -744881.94, -8.534946, 0.00024148541, -0.00006558401, -689787.9, -48719.773, 0.0, 10.001309, 9.928972 
4.6050766e+3, 2.4450733e+2, -601475.6, -666941.1, -4.541654, 0.0002409827, 0.000096184005, -601475.6, -57647.29, 0.0, 10.001304, 9.915535 
4.6050763e+3, 2.54423e+2, -502738.97, -568277.0, -7.7796197, 0.00024035828, -0.00008640859, -502738.97, -56084.04, 0.0, 10.001298, 9.915435 
4.6050763e+3, 2.6433155e+2, -414515.5, -490929.34, -3.0773273, 0.00023973233, 0.0001595359, -414515.5, -64964.586, 0.0, 10.001291, 9.901365 
4.6050763e+3, 2.7423346e+2, -315245.78, -391327.25, -6.0639567, 0.00023910441, -0.00018619378, -315245.78, -62733.664, 0.0, 10.001286, 9.901786 
4.6050757e+3, 2.8412718e+2, -228782.4, -318039.2, -1.3218309, 0.00023858697, 0.0002449625, -228782.4, -73228.48, 0.0, 10.00128, 9.884843 
4.6050757e+3, 2.9401305e+2, -129090.62, -217733.2, -4.0826354, 0.00023821968, -0.00023827374, -129090.62, -70418.44, 0.0, 10.001275, 9.885622 
4.6050757e+3, 3.039269e+2, -39369.98, -84734.836, 1.0015392, 0.0002376217, 0.00018652336, -39369.98, -39369.98, 0.0, 10.00127, 9.941571 
4.6050757e+3, 3.1387034e+2, -38299.42, -82499.87, -1.4281307, 0.00023668165, -0.000044666704, -38299.42, -38299.42, 0.0, 10.001266, 9.943082 
4.6150807e+3, 1.2500504e+2, -1718284.9, -1724121.9, -1.0040091, 0.0002529204, 0.00008094763, -1718284.9, -3333.897, 0.0, 10.001385, 9.993648 
4.6150807e+3, 1.3499853e+2, -1620923.3, -1627346.9, -4.7059064, 0.00025175384, -0.00009605546, -1620923.3, -3908.683, 0.0, 10.001378, 9.992865 
4.61508e+3, 1.4498553e+2, -1532795.8, -1547990.8, -3.740169, 0.00025094298, 0.00016700171, -1532795.8, -13653.537, 0.0, 10.001371, 9.981234 
4.61508e+3, 1.5496674e+2, -1435086.8, -1450679.8, -7.7106895, 0.00025048453, -0.000020806152, -1435086.8, -13760.437, 0.0, 10.001364, 9.980702 
4.6150795e+3, 1.6494133e+2, -1347050.4, -1371819.4, -5.9513116, 0.0002496819, 0.00006185638, -1347050.4, -23475.188, 0.0, 10.001357, 9.96862 
4.6150795e+3, 1.7491001e+2, -1249110.4, -1274190.0, -9.621996, 0.00024853024, -0.000041932137, -1249110.4, -23228.193, 0.0, 10.001349, 9.968206 
4.6150792e+3, 1.8487205e+2, -1161040.4, -1195603.1, -7.2448244, 0.00024779318, 0.000103371814, -1161040.4, -32786.117, 0.0, 10.001343, 9.955772 
4.6150792e+3, 1.9482785e+2, -1062908.0, -1097728.3, -10.81807, 0.00024748783, -0.000027715916, -1062908.0, -32220.64, 0.0, 10.001336, 9.95543 
4.6150786e+3, 2.0477699e+2, -974755.8, -1019335.3, -7.7883177, 0.00024686378, 0.000094451316, -974755.8, -41570.137, 0.0, 10.001329, 9.942673 
4.6150786e+3, 2.147197e+2, -876486.56, -921322.56, -11.251818, 0.00024589532, -0.00009999238, -876486.56, -40739.434, 0.0, 10.001323, 9.942331 
4.6150783e+3, 2.2465572e+2, -788212.5, -843063.56, -7.4274015, 0.00024510478, 0.00014690826, -788212.5, -49838.363, 0.0, 10.001316, 9.929294 
4.6150783e+3, 2.3458508e+2, -689795.1, -744896.6, -10.843559, 0.000244515, -0.000065032924, -689795.1, -48728.723, 0.0, 10.001309, 9.928963 
4.6150777e+3, 2.4450749e+2, -601482.7, -666955.5, -6.82801, 0.00024395647, 0.00009676431, -601482.7, -57655.95, 0.0, 10.001304, 9.915525 
4.6150777e+3, 2.5442314e+2, -502745.94, -568291.3, -10.06513, 0.00024343465, -0.000085797285, -502745.94, -56092.51, 0.0, 10.001298, 9.915425 
4.6150777e+3, 2.643317e+2, -414522.25, -490943.28, -5.2700024, 0.00024277958, 0.00016018919, -414522.25, -64972.754, 0.0, 10.001291, 9.901357 
4.615077e+3, 2.742336e+2, -315252.44, -391341.06, -8.251315, 0.00024195472, -0.0001854845, -315252.44, -62741.64, 0.0, 10.001286, 9.901776 
4.615077e+3, 2.841273e+2, -228788.9, -318052.8, -3.2859743, 0.00024139124, 0.00024555245, -228788.9, -73236.22, 0.0, 10.001281, 9.884834 
4.615077e+3, 2.9401314e+2, -129097.03, -217746.7, -6.0270634, 0.00024118506, -0.00023804307, -129097.03, -70425.99, 0.0, 10.001275, 9.8856125 
4.6150768e+3, 3.03927e+2, -39376.31, -84748.2, -0.7946888, 0.00024061973, 0.0001866559, -39376.31, -39376.31, 0.0, 10.00127, 9.941563 
4.6150768e+3, 3.1387046e+2, -38305.758, -82513.24, -3.2080452, 0.00023951984, -0.000044242068, -38305.758, -38305.758, 0.0, 10.001266, 9.943073 
4.625082e+3, 1.2500532e+2, -1718221.0, -1724099.5, 1.5081645, 0.00025623353, 0.00008179919, -1718221.0, -3272.8843, 0.0, 10.00143, 9.993638 
4.625082e+3, 1.3499881e+2, -1620860.5, -1627325.1, -2.4420059, 0.00025502383, -0.00009565248, -1620860.5, -3848.5754, 0.0, 10.001422, 9.992854 
4.6250814e+3, 1.449858e+2, -1532733.5, -1547969.6, -1.5512931, 0.00025424577, 0.00016739244, -1532733.5, -13593.924, 0.0, 10.001415, 9.981224 
4.625081e+3, 1.54967e+2, -1435024.8, -1450658.9, -5.308572, 0.00025389603, -0.000019990786, -1435024.8, -13701.004, 0.0, 10.001408, 9.980692 
4.625081e+3, 1.649416e+2, -1346989.1, -1371798.8, -3.5867255, 0.00025309695, 0.000062770494, -1346989.1, -23416.348, 0.0, 10.0014, 9.96861 
4.6250805e+3, 1.7491025e+2, -1249050.6, -1274170.4, -7.5131392, 0.00025184182, -0.00004125062, -1249050.6, -23170.81, 0.0, 10.001392, 9.968196 
4.6250805e+3, 1.8487227e+2, -1160981.6, -1195583.5, -5.12261, 0.00025096998, 0.00010395096, -1160981.6, -32729.56, 0.0, 10.001386, 9.955763 
4.62508e+3, 1.9482806e+2, -1062850.5, -1097709.5, -8.70905, 0.0002504972, -0.000027103317, -1062850.5, -32165.285, 0.0, 10.001378, 9.9554205 
4.62508e+3, 2.0477721e+2, -974698.94, -1019317.2, -5.7672124, 0.0002499148, 0.00009505779, -974698.94, -41515.31, 0.0, 10.001371, 9.942663 
4.6250796e+3, 2.1471989e+2, -876429.56, -921304.5, -9.467198, 0.00024921383, -0.000099434816, -876429.56, -40684.355, 0.0, 10.001365, 9.942322 
4.6250796e+3, 2.246559e+2, -788155.9, -843045.6, -5.6258774, 0.0002484296, 0.00014741985, -788155.9, -49783.594, 0.0, 10.001357, 9.929284 
4.625079e+3, 2.3458526e+2, -689740.1, -744879.6, -9.006376, 0.0002475511, -0.00006456393, -689740.1, -48675.453, 0.0, 10.00135, 9.928953 
4.625079e+3, 2.4450766e+2, -601428.6, -666939.0, -4.8276253, 0.00024688017, 0.000097267424, -601428.6, -57603.508, 0.0, 10.001344, 9.915516 
4.625079e+3, 2.544233e+2, -502692.28, -568275.2, -8.111719, 0.00024645647, -0.000085168555, -502692.28, -56040.43, 0.0, 10.001338, 9.915416 
4.6250787e+3, 2.6433185e+2, -414469.03, -490927.38, -3.3371937, 0.00024584963, 0.00016083039, -414469.03, -64920.98, 0.0, 10.001331, 9.901347 
4.6250787e+3, 2.7423373e+2, -315199.94, -391325.7, -6.4543343, 0.00024500903, -0.00018497481, -315199.94, -62690.504, 0.0, 10.001326, 9.901768 
4.6250787e+3, 2.841274e+2, -228737.02, -318037.6, -1.408212, 0.0002444055, 0.00024602457, -228737.02, -73185.59, 0.0, 10.00132, 9.884825 
4.625078e+3, 2.9401326e+2, -129046.234, -217732.17, -4.202251, 0.00024412625, -0.00023747951, -129046.234, -70376.38, 0.0, 10.001314, 9.885604 
4.625078e+3, 3.0392712e+2, -39326.875, -84734.7, 1.0590824, 0.00024353294, 0.00018718331, -39326.875, -39326.875, 0.0, 10.001308, 9.941553 
4.625078e+3, 3.1387055e+2, -38256.91, -82500.055, -1.4960818, 0.00024247235, -0.000043940945, -38256.91, -38256.91, 0.0, 10.001304, 9.943064 
4.6350834e+3, 1.2500562e+2, -1718230.0, -1724116.5, -1.2173694, 0.0002598994, 0.00008375773, -1718230.0, -3284.7053, 0.0, 10.00143, 9.993628 
4.6350834e+3, 1.349991e+2, -1620869.4, -1627342.1, -5.170184, 0.00025835415, -0.000095679774, -1620869.4, -3860.1855, 0.0, 10.001423, 9.992844 
4.635083e+3, 1.4498606e+2, -1532741.8, -1547985.5, -4.2647443, 0.0002573948, 0.00016690124, -1532741.8, -13604.895, 0.0, 10.001415, 9.981214 
4.6350825e+3, 1.5496725e+2, -1435033.0, -1450674.8, -8.022258, 0.00025701817, -0.000019421519, -1435033.0, -13711.798, 0.0, 10.001408, 9.980682 
4.6350825e+3, 1.6494183e+2, -1346997.6, -1371815.4, -6.4813547, 0.00025637654, 0.000063920845, -1346997.6, -23427.363, 0.0, 10.001401, 9.968599 
4.635082e+3, 1.7491049e+2, -1249059.1, -1274186.9, -10.406859, 0.0002554664, -0.000040006635, -1249059.1, -23181.621, 0.0, 10.001392, 9.968185 
4.635082e+3, 1.848725e+2, -1160989.3, -1195598.6, -7.8488026, 0.00025449917, 0.00010497697, -1160989.3, -32739.533, 0.0, 10.001386, 9.955753 
4.6350816e+3, 1.9482829e+2, -1062858.1, -1097724.6, -11.436257, 0.00025347157, -0.000026620306, -1062858.1, -32175.066, 0.0, 10.001378, 9.955411 
4.6350816e+3, 2.047774e+2, -974706.9, -1019332.8, -8.302962, 0.00025282206, 0.00009534275, -974706.9, -41525.28, 0.0, 10.001371, 9.942653 
4.635081e+3, 2.1472012e+2, -876437.4, -921320.1, -11.997385, 0.00025258062, -0.00009897535, -876437.4, -40694.145, 0.0, 10.001365, 9.942312 
4.635081e+3, 2.2465609e+2, -788163.2, -843060.3, -8.246771, 0.00025185896, 0.00014792007, -788163.2, -49792.773, 0.0, 10.001357, 9.929275 
4.6350807e+3, 2.3458543e+2, -689747.3, -744894.2, -11.632175, 0.00025059446, -0.00006417416, -689747.3, -48684.434, 0.0, 10.00135, 9.928944 
4.6350807e+3, 2.4450783e+2, -601435.75, -666953.6, -7.1625614, 0.00024975624, 0.00009769618, -601435.75, -57612.363, 0.0, 10.001344, 9.915506 
4.63508e+3, 2.5442347e+2, -502699.38, -568289.7, -10.433103, 0.00024942635, -0.00008452253, -502699.34, -56049.11, 0.0, 10.001338, 9.915406 
4.63508e+3, 2.64332e+2, -414476.03, -490941.84, -5.6323743, 0.0002489427, 0.00016146021, -414476.03, -64929.516, 0.0, 10.001331, 9.901338 
4.63508e+3, 2.7423388e+2, -315206.84, -391340.06, -8.748377, 0.00024826208, -0.00018465829, -315206.84, -62698.848, 0.0, 10.001326, 9.901758 
4.6350795e+3, 2.8412756e+2, -228743.66, -318051.5, -3.5714781, 0.00024762424, 0.0002463828, -228743.66, -73193.56, 0.0, 10.00132, 9.884816 
4.6350795e+3, 2.9401344e+2, -129052.766, -217745.92, -6.3534417, 0.00024704487, -0.00023659284, -129052.766, -70384.16, 0.0, 10.001314, 9.885594 
4.6350795e+3, 3.039272e+2, -39333.477, -84748.664, -0.88739455, 0.00024636477, 0.00018809392, -39333.477, -39333.477, 0.0, 10.001308, 9.941544 
4.6350795e+3, 3.1387067e+2, -38263.54, -82514.055, -3.4207752, 0.00024553656, -0.000043759304, -38263.54, -38263.54, 0.0, 10.001304, 9.943054 
4.645085e+3, 1.2500592e+2, -1718162.9, -1724093.4, 1.8227904, 0.00026358123, 0.00008465573, -1718162.9, -3220.5913, 0.0, 10.001477, 9.993616 
4.6450844e+3, 1.349994e+2, -1620804.0, -1627320.0, -2.5413148, 0.00026184478, -0.000094818686, -1620804.0, -3797.744, 0.0, 10.001469, 9.992832 
4.6450844e+3, 1.4498635e+2, -1532677.4, -1547963.0, -1.8560436, 0.0002607233, 0.00016762731, -1532677.4, -13543.161, 0.0, 10.001461, 9.981204 
4.6450838e+3, 1.5496752e+2, -1434970.3, -1450653.1, -5.7035637, 0.00026021365, -0.000018928775, -1434970.3, -13651.701, 0.0, 10.001452, 9.980672 
4.6450838e+3, 1.6494209e+2, -1346935.9, -1371794.6, -4.116155, 0.0002595902, 0.00006447208, -1346935.9, -23368.145, 0.0, 10.001445, 9.968589 
4.6450835e+3, 1.7491074e+2, -1248997.5, -1274166.4, -7.885262, 0.00025885206, -0.000039100123, -1248997.5, -23122.5, 0.0, 10.001437, 9.968176 
4.6450835e+3, 1.8487275e+2, -1160928.3, -1195578.5, -5.3676167, 0.000257935, 0.00010586687, -1160928.3, -32680.803, 0.0, 10.00143, 9.955744 
4.645083e+3, 1.9482853e+2, -1062798.1, -1097705.1, -9.332306, 0.00025683048, -0.000026134852, -1062798.1, -32117.385, 0.0, 10.001422, 9.9554 
4.645083e+3, 2.0477763e+2, -974647.8, -1019313.7, -6.119231, 0.00025606583, 0.00009576833, -974647.8, -41468.35, 0.0, 10.001414, 9.942643 
4.6450827e+3, 2.1472031e+2, -876379.5, -921301.75, -9.635945, 0.0002556681, -0.000098237506, -876379.5, -40638.344, 0.0, 10.001407, 9.942303 
4.6450827e+3, 2.246563e+2, -788106.1, -843042.44, -5.908986, 0.00025495316, 0.00014871461, -788106.1, -49737.668, 0.0, 10.001399, 9.929265 
4.645082e+3, 2.3458563e+2, -689690.75, -744876.75, -9.568691, 0.0002538795, -0.00006361161, -689690.75, -48629.703, 0.0, 10.001392, 9.928934 
4.645082e+3, 2.4450801e+2, -601379.7, -666936.3, -5.0626626, 0.0002530426, 0.0000981705, -601379.7, -57558.063, 0.0, 10.001386, 9.915497 
4.6450815e+3, 2.5442362e+2, -502644.47, -568273.1, -8.394002, 0.000252488, -0.00008396478, -502644.47, -55995.88, 0.0, 10.001379, 9.915397 
4.6450815e+3, 2.6433215e+2, -414421.94, -490925.88, -3.5546434, 0.00025192587, 0.00016202043, -414421.94, -64876.984, 0.0, 10.001372, 9.901328 
4.6450812e+3, 2.7423403e+2, -315153.22, -391324.47, -6.767874, 0.0002513531, -0.00018419886, -315153.22, -62646.688, 0.0, 10.001367, 9.901749 
4.6450812e+3, 2.8412768e+2, -228690.22, -318035.6, -1.5554328, 0.00025077673, 0.00024686768, -228690.22, -73141.516, 0.0, 10.00136, 9.884807 
4.6450812e+3, 2.9401356e+2, -129000.26, -217730.61, -4.3084383, 0.00025019445, -0.00023590948, -129000.26, -70332.945, 0.0, 10.001354, 9.885586 
4.6450812e+3, 3.0392733e+2, -39282.67, -84735.13, 1.1991525, 0.00024946177, 0.00018877313, -39282.67, -39282.67, 0.0, 10.001348, 9.941534 
4.6450806e+3, 3.1387076e+2, -38213.496, -82500.984, -1.6172787, 0.0002485079, -0.000043386222, -38213.496, -38213.496, 0.0, 10.001343, 9.943045 
4.6550864e+3, 1.2500623e+2, -1718172.8, -1724112.1, -1.2410042, 0.0002672798, 0.00008452895, -1718172.8, -3233.5098, 0.0, 10.001477, 9.993605 
4.6550858e+3, 1.3499968e+2, -1620813.9, -1627338.8, -5.599533, 0.0002654917, -0.0000930978, -1620813.9, -3810.447, 0.0, 10.001469, 9.992821 
4.6550858e+3, 1.4498663e+2, -1532685.9, -1547979.4, -4.8913755, 0.0002642266, 0.00016953102, -1532685.9, -13554.473, 0.0, 10.001461, 9.981194 
4.6550855e+3, 1.549678e+2, -1434978.8, -1450669.5, -8.742316, 0.0002634811, -0.000018509867, -1434978.6, -13662.808, 0.0, 10.001452, 9.980661 
4.6550855e+3, 1.6494237e+2, -1346944.1, -1371810.5, -6.9768834, 0.00026274106, 0.00006444407, -1346944.1, -23378.92, 0.0, 10.001445, 9.968579 
4.655085e+3, 1.7491099e+2, -1249005.6, -1274182.3, -10.746788, 0.00026200767, -0.00003851955, -1249005.6, -23133.094, 0.0, 10.001437, 9.968165 
4.655085e+3, 1.8487298e+2, -1160936.8, -1195595.1, -8.290204, 0.0002612817, 0.000106625615, -1160936.8, -32691.72, 0.0, 10.00143, 9.955733 
4.6550846e+3, 1.9482875e+2, -1062806.6, -1097721.8, -12.253198, 0.0002605627, -0.000025646765, -1062806.6, -32128.096, 0.0, 10.001422, 9.95539 
4.655084e+3, 2.0477787e+2, -974655.3, -1019328.6, -8.870684, 0.0002596364, 0.000096330274, -974655.3, -41478.09, 0.0, 10.001414, 9.942634 
4.655084e+3, 2.1472053e+2, -876386.94, -921316.56, -12.386433, 0.00025848616, -0.00009722965, -876386.94, -40647.89, 0.0, 10.001407, 9.942292 
4.6550834e+3, 2.246565e+2, -788113.94, -843058.2, -8.573052, 0.000257724, 0.00014979468, -788113.94, -49747.516, 0.0, 10.0014, 9.929255 
4.6550834e+3, 2.3458584e+2, -689698.5, -744892.44, -12.229104, 0.00025739954, -0.00006288143, -689698.5, -48639.36, 0.0, 10.001392, 9.928924 
4.655083e+3, 2.4450819e+2, -601387.0, -666951.2, -7.6008835, 0.00025672727, 0.00009868921, -601387.0, -57567.184, 0.0, 10.001386, 9.915487 
4.655083e+3, 2.5442383e+2, -502651.66, -568287.9, -10.9278, 0.00025563952, -0.000083492145, -502651.66, -56004.8, 0.0, 10.001379, 9.915387 
4.655083e+3, 2.6433232e+2, -414429.16, -490940.75, -5.8958464, 0.0002548036, 0.00016251364, -414429.16, -64885.816, 0.0, 10.001372, 9.901319 
4.6550825e+3, 2.742342e+2, -315160.3, -391339.28, -9.096683, 0.00025428823, -0.0001836007, -315160.3, -62655.34, 0.0, 10.001367, 9.901738 
4.6550825e+3, 2.8412783e+2, -228696.83, -318049.44, -3.8711839, 0.00025386602, 0.00024747557, -228696.83, -73149.56, 0.0, 10.00136, 9.884797 
4.6550825e+3, 2.940137e+2, -129006.73, -217744.27, -6.6244617, 0.0002535687, -0.00023542266, -129006.73, -70340.77, 0.0, 10.001354, 9.885576 
4.655082e+3, 3.0392748e+2, -39289.773, -84750.14, -0.9256451, 0.00025281648, 0.00018922861, -39289.773, -39289.773, 0.0, 10.0013485, 9.941524 
4.655082e+3, 3.1387088e+2, -38220.69, -82516.18, -3.718406, 0.00025139013, -0.00004282743, -38220.69, -38220.69, 0.0, 10.001343, 9.943034 
4.6650878e+3, 1.2500654e+2, -1718104.5, -1724088.1, 1.4395849, 0.0002707476, 0.00008492223, -1718104.5, -3168.3103, 0.0, 10.001525, 9.993593 
4.6650878e+3, 1.35e+2, -1620746.5, -1627315.4, -2.374415, 0.00026899227, -0.00009190028, -1620746.5, -3746.1172, 0.0, 10.001516, 9.99281 
4.6650875e+3, 1.4498693e+2, -1532619.4, -1547956.5, -1.6096362, 0.0002677436, 0.0001708752, -1532619.4, -13490.951, 0.0, 10.001508, 9.981182 
4.665087e+3, 1.5496808e+2, -1434913.4, -1450647.4, -5.9217696, 0.00026699802, -0.000017677898, -1434913.4, -13600.3125, 0.0, 10.001499, 9.980651 
4.665087e+3, 1.6494264e+2, -1346879.6, -1371788.5, -4.3601966, 0.00026618186, 0.00006498785, -1346879.6, -23317.133, 0.0, 10.001491, 9.968569 
4.6650866e+3, 1.7491126e+2, -1248942.8, -1274161.1, -8.353875, 0.00026529512, -0.000038036036, -1248942.8, -23072.768, 0.0, 10.001482, 9.968155 
4.665086e+3, 1.8487324e+2, -1160874.8, -1195574.8, -5.8309484, 0.0002645529, 0.00010724308, -1160874.8, -32632.268, 0.0, 10.001474, 9.955723 
4.665086e+3, 1.94829e+2, -1062745.3, -1097701.9, -9.559926, 0.0002639605, -0.000024692969, -1062745.3, -32069.145, 0.0, 10.001466, 9.9553795 
4.6650854e+3, 2.0477809e+2, -974594.6, -1019308.9, -6.1185136, 0.00026301807, 0.00009724894, -974594.6, -41419.684, 0.0, 10.001458, 9.942623 
4.6650854e+3, 2.1472076e+2, -876327.6, -921297.7, -9.944601, 0.00026169748, -0.000096747084, -876327.6, -40590.758, 0.0, 10.001451, 9.942283 
4.665085e+3, 2.2465672e+2, -788055.44, -843039.94, -6.0290465, 0.0002609042, 0.00015024624, -788055.44, -49691.094, 0.0, 10.001443, 9.929245 
4.665085e+3, 2.3458603e+2, -689640.2, -744874.44, -9.613333, 0.0002607059, -0.00006200342, -689640.2, -48583.086, 0.0, 10.001435, 9.928914 
4.6650845e+3, 2.4450839e+2, -601329.25, -666933.44, -5.021299, 0.00026008044, 0.0000996327, -601329.25, -57511.285, 0.0, 10.001429, 9.915477 
4.6650845e+3, 2.54424e+2, -502595.1, -568270.9, -8.54146, 0.00025894464, -0.00008291391, -502595.1, -55950.016, 0.0, 10.001421, 9.915378 
4.6650845e+3, 2.643325e+2, -414373.56, -490924.3, -3.4236715, 0.00025802234, 0.0001629893, -414373.56, -64831.914, 0.0, 10.001414, 9.901308 
4.665084e+3, 2.7423438e+2, -315105.72, -391323.5, -6.696628, 0.00025737216, -0.0001828928, -315105.72, -62602.336, 0.0, 10.001408, 9.901729 
4.665084e+3, 2.8412798e+2, -228642.48, -318033.38, -1.5031822, 0.00025692358, 0.0002481984, -228642.48, -73096.73, 0.0, 10.001401, 9.8847885 
4.6650836e+3, 2.9401383e+2, -128952.766, -217728.5, -4.4480424, 0.00025674838, -0.00023498363, -128952.766, -70288.21, 0.0, 10.001395, 9.885567 
4.6650836e+3, 3.039276e+2, -39237.33, -84736.08, 1.2102641, 0.0002560188, 0.00018966924, -39237.33, -39237.33, 0.0, 10.001389, 9.941513 
4.6650836e+3, 3.13871e+2, -38169.344, -82502.734, -1.4520051, 0.00025446608, -0.00004195857, -38169.344, -38169.344, 0.0, 10.001383, 9.943024 
4.6750894e+3, 1.2500687e+2, -1718113.1, -1724104.5, -1.7585706, 0.00027399376, 0.000085817876, -1718113.1, -3180.0999, 0.0, 10.001525, 9.993584 
4.6750894e+3, 1.350003e+2, -1620755.0, -1627331.8, -5.578296, 0.0002723527, -0.00009120769, -1620755.0, -3757.7146, 0.0, 10.001516, 9.9928 
4.6750888e+3, 1.4498723e+2, -1532629.0, -1547974.9, -4.8357406, 0.0002712751, 0.00017167974, -1532629.0, -13503.465, 0.0, 10.001508, 9.981171 
4.6750885e+3, 1.5496837e+2, -1434922.9, -1450665.6, -9.144268, 0.00027075727, -0.00001644616, -1434922.9, -13612.609, 0.0, 10.001499, 9.980639 
4.6750885e+3, 1.6494292e+2, -1346888.3, -1371805.4, -7.5065255, 0.0002699041, 0.000066084496, -1346888.3, -23328.549, 0.0, 10.001491, 9.968558 
4.675088e+3, 1.7491153e+2, -1248951.3, -1274177.9, -11.500445, 0.00026871113, -0.00003764609, -1248951.3, -23083.977, 0.0, 10.001482, 9.968144 
4.675088e+3, 1.848735e+2, -1160882.8, -1195590.5, -8.813149, 0.00026775213, 0.00010772441, -1160882.8, -32642.809, 0.0, 10.001474, 9.955712 
4.6750873e+3, 1.9482926e+2, -1062753.1, -1097717.5, -12.541645, 0.00026703617, -0.000023288303, -1062753.1, -32079.498, 0.0, 10.001466, 9.95537 
4.675087e+3, 2.0477833e+2, -974602.8, -1019325.1, -9.121118, 0.00026621827, 0.000098513075, -974602.8, -41430.207, 0.0, 10.001458, 9.942614 
4.675087e+3, 2.1472098e+2, -876335.7, -921313.8, -12.948735, 0.00026529012, -0.00009677207, -876335.7, -40601.07, 0.0, 10.001451, 9.942272 
4.6750864e+3, 2.2465694e+2, -788063.2, -843055.44, -8.677187, 0.00026448126, 0.00015009046, -788063.1, -49700.938, 0.0, 10.001443, 9.9292345 
4.6750864e+3, 2.3458624e+2, -689647.8, -744889.9, -12.249965, 0.00026380672, -0.0000609819, -689647.8, -48592.742, 0.0, 10.001436, 9.928904 
4.6750858e+3, 2.445086e+2, -601336.94, -666949.06, -7.771143, 0.00026311417, 0.00010098754, -601336.94, -57520.914, 0.0, 10.001429, 9.915467 
4.6750858e+3, 2.5442418e+2, -502602.66, -568286.4, -11.297256, 0.0002623994, -0.000082233084, -502602.66, -55959.438, 0.0, 10.001421, 9.915367 
4.6750855e+3, 2.6433268e+2, -414380.9, -490939.56, -5.9378967, 0.00026157196, 0.0001634484, -414380.9, -64841.035, 0.0, 10.001414, 9.9012985 
4.6750855e+3, 2.7423453e+2, -315113.0, -391338.63, -9.1955805, 0.00026060094, -0.00018207829, -315113.0, -62611.26, 0.0, 10.001408, 9.901719 
4.6750855e+3, 2.8412813e+2, -228649.44, -318047.94, -3.8488402, 0.0002599514, 0.00024903292, -228649.44, -73105.24, 0.0, 10.001401, 9.884778 
4.675085e+3, 2.9401398e+2, -128959.61, -217742.94, -6.78067, 0.0002597409, -0.00023459051, -128959.61, -70296.52, 0.0, 10.001395, 9.885557 
4.675085e+3, 3.0392778e+2, -39244.254, -84750.73, -1.1549194, 0.00025907467, 0.00019009586, -39244.254, -39244.254, 0.0, 10.001389, 9.941504 
4.675085e+3, 3.1387115e+2, -38176.29, -82517.43, -3.8214622, 0.00025773028, -0.000040789168, -38176.29, -38176.29, 0.0, 10.001383, 9.943014 
4.6850914e+3, 1.2500721e+2, -1718042.8, -1724079.6, 1.8219463, 0.00027762243, 0.00008719041, -1718042.8, -3112.9639, 0.0, 10.0015745, 9.993572 
4.6850908e+3, 1.3500063e+2, -1620685.9, -1627307.8, -2.718194, 0.00027588272, -0.00009072745, -1620685.9, -3691.771, 0.0, 10.001565, 9.992788 
4.6850902e+3, 1.4498755e+2, -1532560.8, -1547951.4, -2.150925, 0.00027477244, 0.00017200237, -1532560.8, -13438.356, 0.0, 10.001556, 9.98116 
4.68509e+3, 1.5496868e+2, -1434855.8, -1450642.9, -6.12634, 0.00027428786, -0.00001554577, -1434855.8, -13548.46, 0.0, 10.001547, 9.980629 
4.68509e+3, 1.649432e+2, -1346822.1, -1371782.9, -4.328507, 0.00027342665, 0.00006721258, -1346822.1, -23265.232, 0.0, 10.001538, 9.968548 
4.6850893e+3, 1.749118e+2, -1248886.5, -1274156.4, -8.429698, 0.00027218368, -0.00003664609, -1248886.5, -23021.965, 0.0, 10.001529, 9.968134 
4.6850893e+3, 1.8487376e+2, -1160818.9, -1195569.0, -5.6925616, 0.00027113326, 0.000108601, -1160818.9, -32581.521, 0.0, 10.00152, 9.955703 
4.685089e+3, 1.948295e+2, -1062690.5, -1097696.8, -9.594949, 0.0002702827, -0.000022530165, -1062690.5, -32019.416, 0.0, 10.001512, 9.955359 
4.6850884e+3, 2.0477858e+2, -974541.2, -1019305.5, -6.2105737, 0.00026952339, 0.00009922784, -974541.2, -41370.99, 0.0, 10.001503, 9.942602 
4.6850884e+3, 2.1472122e+2, -876274.2, -921294.5, -10.204915, 0.00026886232, -0.00009601979, -876274.2, -40541.89, 0.0, 10.001495, 9.942262 
4.6850878e+3, 2.2465716e+2, -788002.06, -843035.8, -5.8826976, 0.00026801278, 0.0001508386, -788002.06, -49642.09, 0.0, 10.001488, 9.929225 
4.6850878e+3, 2.3458646e+2, -689588.7, -744871.3, -9.468788, 0.00026695005, -0.000060284816, -689588.7, -48535.73, 0.0, 10.001479, 9.928894 
4.6850875e+3, 2.445088e+2, -601278.8, -666931.56, -4.8819976, 0.00026618718, 0.000101684214, -601278.8, -57464.867, 0.0, 10.0014715, 9.915457 
4.6850875e+3, 2.5442436e+2, -502544.38, -568269.0, -8.501721, 0.00026578148, -0.00008147652, -502544.38, -55903.086, 0.0, 10.001465, 9.915357 
4.685087e+3, 2.6433286e+2, -414322.84, -490922.22, -3.1701992, 0.0002650686, 0.00016420569, -414322.84, -64784.785, 0.0, 10.001458, 9.901288 
4.685087e+3, 2.742347e+2, -315056.13, -391322.03, -6.5499187, 0.00026396423, -0.00018139549, -315056.13, -62556.12, 0.0, 10.001451, 9.901709 
4.685087e+3, 2.8412834e+2, -228593.48, -318031.53, -1.1773865, 0.00026316952, 0.00024969777, -228593.48, -73050.91, 0.0, 10.001444, 9.8847685 
4.6850863e+3, 2.9401413e+2, -128905.04, -217727.33, -4.210915, 0.00026279886, -0.00023386622, -128905.04, -70243.484, 0.0, 10.001436, 9.885548 
4.6850863e+3, 3.039279e+2, -39191.043, -84736.28, 1.3695939, 0.00026210732, 0.00019079242, -39191.043, -39191.043, 0.0, 10.00143, 9.941493 
4.6850863e+3, 3.1387126e+2, -38122.996, -82502.984, -1.3677157, 0.00026093805, -0.000040250055, -38122.996, -38122.996, 0.0, 10.001424, 9.943004 
4.6950927e+3, 1.2500755e+2, -1718053.0, -1724099.3, -1.5950739, 0.0002816215, 0.00008902392, -1718053.0, -3126.595, 0.0, 10.0015745, 9.99356 
4.695092e+3, 1.3500096e+2, -1620696.1, -1627327.1, -6.133391, 0.00027957762, -0.00009045191, -1620696.1, -3705.1655, 0.0, 10.001565, 9.992777 
4.6950918e+3, 1.4498785e+2, -1532569.5, -1547968.3, -5.5336637, 0.00027823806, 0.00017186014, -1532569.5, -13450.244, 0.0, 10.001556, 9.98115 
4.6950918e+3, 1.5496898e+2, -1434864.4, -1450659.6, -9.510913, 0.00027759903, -0.0000149645475, -1434864.4, -13560.16, 0.0, 10.001547, 9.9806185 
4.6950912e+3, 1.6494352e+2, -1346831.0, -1371800.3, -7.7260027, 0.00027675778, 0.00006837184, -1346831.0, -23277.05, 0.0, 10.001538, 9.968536 
4.695091e+3, 1.749121e+2, -1248895.4, -1274173.6, -11.82642, 0.0002757121, -0.000035056484, -1248895.4, -23033.574, 0.0, 10.001529, 9.968123 
4.695091e+3, 1.8487404e+2, -1160827.3, -1195585.4, -8.904432, 0.00027469124, 0.0001098597, -1160827.3, -32592.594, 0.0, 10.00152, 9.955692 
4.6950904e+3, 1.9482978e+2, -1062698.8, -1097713.1, -12.807158, 0.00027369533, -0.000022395841, -1062698.8, -32030.277, 0.0, 10.001512, 9.955349 
4.6950898e+3, 2.0477884e+2, -974549.7, -1019322.44, -9.164692, 0.0002729309, 0.000099412675, -974549.7, -41382.0, 0.0, 10.001503, 9.942592 
4.6950898e+3, 2.1472147e+2, -876282.6, -921311.3, -13.151479, 0.0002724161, -0.00009451624, -876282.6, -40552.71, 0.0, 10.001495, 9.942251 
4.6950895e+3, 2.246574e+2, -788009.8, -843051.44, -8.910262, 0.00027150157, 0.00015246026, -788009.8, -49652.125, 0.0, 10.001488, 9.9292145 
4.6950895e+3, 2.3458669e+2, -689596.3, -744886.8, -12.503144, 0.00027013538, -0.000059900678, -689596.3, -48545.54, 0.0, 10.001479, 9.928884 
4.695089e+3, 2.4450901e+2, -601286.7, -666947.56, -7.5170693, 0.00026929914, 0.00010174562, -601286.7, -57474.805, 0.0, 10.0014715, 9.915446 
4.695089e+3, 2.5442457e+2, -502552.16, -568284.94, -11.116977, 0.00026909445, -0.00008064623, -502552.16, -55912.844, 0.0, 10.001465, 9.915346 
4.6950883e+3, 2.6433307e+2, -414330.44, -490937.94, -5.8843718, 0.00026851532, 0.00016525155, -414330.44, -64794.29, 0.0, 10.001458, 9.901278 
4.6950883e+3, 2.742349e+2, -315063.63, -391337.66, -9.27201, 0.00026745864, -0.00018083952, -315063.63, -62565.41, 0.0, 10.001451, 9.901698 
4.6950883e+3, 2.8412852e+2, -228600.64, -318046.56, -3.7966983, 0.00026657264, 0.0002501991, -228600.64, -73059.75, 0.0, 10.001444, 9.884759 
4.695088e+3, 2.940143e+2, -128912.07, -217742.2, -6.8211713, 0.00026592097, -0.0002328213, -128912.07, -70252.12, 0.0, 10.001437, 9.885537 
4.695088e+3, 3.0392805e+2, -39198.105, -84751.25, -0.9936684, 0.00026511846, 0.00019175033, -39198.105, -39198.105, 0.0, 10.0014305, 9.9414835 
4.6950874e+3, 3.1387144e+2, -38130.086, -82517.99, -3.7056875, 0.0002640923, -0.000040319726, -38130.086, -38130.086, 0.0, 10.001424, 9.942994 
4.705094e+3, 1.250079e+2, -1717979.3, -1724073.5, 1.8776724, 0.00028549638, 0.00008973198, -1717979.3, -3056.3752, 0.0, 10.001626, 9.993548 
4.7050938e+3, 1.350013e+2, -1620624.8, -1627303.0, -2.5671954, 0.00028327093, -0.000089175104, -1620624.8, -3637.2131, 0.0, 10.001616, 9.992764 
4.7050938e+3, 1.449882e+2, -1532499.4, -1547943.6, -1.9542439, 0.00028179336, 0.00017316442, -1532499.4, -13383.326, 0.0, 10.001606, 9.981139 
4.7050932e+3, 1.549693e+2, -1434796.3, -1450636.3, -6.1883636, 0.0002810598, -0.00001417458, -1434796.3, -13495.096, 0.0, 10.0015955, 9.980607 
4.705093e+3, 1.6494381e+2, -1346764.0, -1371777.4, -4.3518744, 0.00028019832, 0.00006908524, -1346764.0, -23213.03, 0.0, 10.001586, 9.968526 
4.705093e+3, 1.749124e+2, -1248829.0, -1274151.4, -8.40525, 0.00027920798, -0.00003397481, -1248829.0, -22970.111, 0.0, 10.001576, 9.968112 
4.7050923e+3, 1.8487433e+2, -1160761.5, -1195563.8, -5.4302597, 0.00027822895, 0.000110937646, -1160761.5, -32529.72, 0.0, 10.001568, 9.955681 
4.7050917e+3, 1.9483005e+2, -1062634.0, -1097692.0, -9.620289, 0.00027726084, -0.000021709355, -1062634.0, -31968.205, 0.0, 10.001558, 9.9553385 
4.7050917e+3, 2.047791e+2, -974485.7, -1019301.56, -5.7999916, 0.00027641008, 0.0001001183, -974485.7, -41320.617, 0.0, 10.00155, 9.942581 
4.7050914e+3, 2.1472172e+2, -876220.0, -921291.3, -9.546397, 0.00027568583, -0.00009334819, -876220.0, -40492.605, 0.0, 10.001541, 9.942241 
4.7050908e+3, 2.2465764e+2, -787948.06, -843032.2, -5.326303, 0.00027478614, 0.00015365434, -787948.06, -49592.754, 0.0, 10.0015335, 9.929204 
4.7050908e+3, 2.3458691e+2, -689534.7, -744867.8, -9.41801, 0.00027368782, -0.000059173373, -689534.7, -48486.19, 0.0, 10.001525, 9.928873 
4.7050902e+3, 2.4450924e+2, -601225.5, -666928.6, -4.4403405, 0.00027285246, 0.00010233053, -601225.5, -57415.78, 0.0, 10.001517, 9.915436 
4.7050902e+3, 2.5442478e+2, -502492.53, -568266.9, -7.974037, 0.0002723302, -0.00007981662, -502492.53, -55855.293, 0.0, 10.00151, 9.915337 
4.70509e+3, 2.6433325e+2, -414271.88, -490920.78, -2.7233167, 0.00027165527, 0.00016612762, -414271.88, -64737.695, 0.0, 10.001502, 9.901267 
4.70509e+3, 2.7423507e+2, -315005.44, -391320.84, -6.2882614, 0.00027078524, -0.00018016977, -315005.44, -62509.066, 0.0, 10.001494, 9.901688 
4.70509e+3, 2.8412867e+2, -228542.4, -318029.25, -0.8618299, 0.0002700135, 0.00025086213, -228542.4, -73003.29, 0.0, 10.001488, 9.884748 
4.7050893e+3, 2.9401445e+2, -128854.55, -217725.38, -3.9305182, 0.00026937577, -0.0002318912, -128854.55, -70196.26, 0.0, 10.00148, 9.885528 
4.7050893e+3, 3.0392823e+2, -39142.504, -84736.41, 1.7507054, 0.0002684409, 0.00019260633, -39142.504, -39142.504, 0.0, 10.001473, 9.941473 
4.7050887e+3, 3.138716e+2, -38075.945, -82503.95, -1.4088722, 0.0002670664, -0.000040046114, -38075.945, -38075.945, 0.0, 10.001466, 9.942983 
4.7150958e+3, 1.2500826e+2, -1717989.4, -1724092.6, -2.0014665, 0.00028925325, 0.00008935631, -1717989.4, -3069.9604, 0.0, 10.001626, 9.993536 
4.7150958e+3, 1.3500164e+2, -1620634.8, -1627322.0, -6.443536, 0.00028696412, -0.00008693234, -1620634.8, -3650.588, 0.0, 10.001616, 9.992753 
4.7150952e+3, 1.4498852e+2, -1532508.8, -1547961.5, -5.706204, 0.00028543637, 0.00017586355, -1532508.8, -13395.992, 0.0, 10.001606, 9.981128 
4.715095e+3, 1.5496963e+2, -1434805.5, -1450654.1, -9.942036, 0.00028466605, -0.000013182987, -1434805.5, -13507.533, 0.0, 10.0015955, 9.980596 
4.7150943e+3, 1.6494414e+2, -1346772.8, -1371794.5, -7.8159604, 0.00028374555, 0.00006936927, -1346772.8, -23224.89, 0.0, 10.001586, 9.968515 
4.7150943e+3, 1.749127e+2, -1248837.6, -1274168.4, -11.870619, 0.00028267366, -0.00003338217, -1248837.6, -22981.775, 0.0, 10.001576, 9.9681015 
4.7150937e+3, 1.8487464e+2, -1160770.5, -1195581.4, -8.772058, 0.00028174842, 0.000111842084, -1160770.5, -32541.578, 0.0, 10.001568, 9.95567 
4.7150934e+3, 1.9483034e+2, -1062642.9, -1097709.6, -12.959065, 0.00028097513, -0.000020489808, -1062642.9, -31979.854, 0.0, 10.001558, 9.955327 
4.7150934e+3, 2.0477937e+2, -974493.7, -1019317.56, -8.998936, 0.00027995964, 0.0001013267, -974493.7, -41331.3, 0.0, 10.00155, 9.942571 
4.7150928e+3, 2.1472198e+2, -876227.94, -921307.2, -12.746869, 0.00027868268, -0.00009250302, -876227.94, -40503.08, 0.0, 10.001541, 9.94223 
4.7150928e+3, 2.246579e+2, -787956.8, -843049.75, -8.31005, 0.0002778748, 0.00015443677, -787956.75, -49603.934, 0.0, 10.0015335, 9.929193 
4.7150922e+3, 2.3458716e+2, -689543.3, -744885.3, -12.392461, 0.0002775958, -0.000058114416, -689543.3, -48497.176, 0.0, 10.001525, 9.928862 
4.715092e+3, 2.4450946e+2, -601233.25, -666944.5, -7.362979, 0.0002768329, 0.00010342095, -601233.25, -57425.793, 0.0, 10.001517, 9.915425 
4.715092e+3, 2.5442502e+2, -502500.16, -568282.56, -10.897523, 0.0002754925, -0.00007898712, -502500.16, -55865.07, 0.0, 10.00151, 9.915326 
4.7150913e+3, 2.6433346e+2, -414279.8, -490937.16, -5.4567084, 0.00027450023, 0.00016684044, -414279.8, -64747.656, 0.0, 10.001502, 9.901257 
4.7150913e+3, 2.7423528e+2, -315013.25, -391337.2, -9.009113, 0.00027395098, -0.00017938965, -315013.25, -62518.844, 0.0, 10.001495, 9.901677 
4.7150913e+3, 2.8412887e+2, -228549.66, -318044.5, -3.571948, 0.00027349195, 0.00025168166, -228549.66, -73012.375, 0.0, 10.001488, 9.884739 
4.7150907e+3, 2.9401466e+2, -128861.66, -217740.42, -6.6407394, 0.00027315295, -0.00023107133, -128861.66, -70205.1, 0.0, 10.00148, 9.885518 
4.7150907e+3, 3.0392838e+2, -39150.34, -84753.01, -0.9442287, 0.00027206505, 0.00019336453, -39150.34, -39150.34, 0.0, 10.001473, 9.941462 
4.7150904e+3, 3.1387174e+2, -38083.883, -82520.76, -4.100961, 0.00026986757, -0.000039440736, -38083.883, -38083.883, 0.0, 10.001466, 9.942971 
4.7250977e+3, 1.2500864e+2, -1717915.0, -1724066.1, 1.9565835, 0.00029299, 0.00009040543, -1717915.0, -2999.2358, 0.0, 10.001678, 9.993525 
4.725097e+3, 1.3500202e+2, -1620561.8, -1627296.4, -2.2805533, 0.00029067596, -0.00008560688, -1620561.8, -3581.1501, 0.0, 10.001667, 9.992742 
4.7250968e+3, 1.4498888e+2, -1532437.0, -1547936.8, -1.3958563, 0.00028914982, 0.00017722741, -1532437.0, -13327.61, 0.0, 10.001657, 9.981116 
4.7250962e+3, 1.5496998e+2, -1434734.9, -1450630.1, -5.879082, 0.00028840752, -0.000012019228, -1434734.9, -13440.191, 0.0, 10.001646, 9.980584 
4.7250962e+3, 1.6494446e+2, -1346703.0, -1371770.8, -3.7735736, 0.00028743225, 0.00007033923, -1346703.0, -23158.373, 0.0, 10.001636, 9.968504 
4.7250956e+3, 1.74913e+2, -1248769.5, -1274145.5, -8.12608, 0.00028622153, -0.000032599448, -1248769.5, -22916.752, 0.0, 10.001626, 9.96809 
4.7250953e+3, 1.8487494e+2, -1160703.5, -1195559.1, -4.8998613, 0.0002852277, 0.00011275107, -1160703.5, -32477.543, 0.0, 10.001616, 9.955659 
4.7250953e+3, 1.9483063e+2, -1062576.9, -1097688.0, -8.940382, 0.00028445898, -0.000019127952, -1062576.9, -31916.738, 0.0, 10.001607, 9.955316 
4.7250947e+3, 2.0477967e+2, -974428.4, -1019296.4, -4.944962, 0.00028344677, 0.00010260483, -974428.4, -41268.746, 0.0, 10.001597, 9.94256 
4.725094e+3, 2.1472226e+2, -876163.3, -921286.56, -9.179731, 0.00028217168, -0.00009188763, -876163.3, -40441.13, 0.0, 10.001589, 9.94222 
4.725094e+3, 2.2465816e+2, -787892.9, -843029.9, -4.650952, 0.00028136108, 0.00015500962, -787892.9, -49542.57, 0.0, 10.00158, 9.929182 
4.7250938e+3, 2.345874e+2, -689479.94, -744865.94, -8.514541, 0.00028107432, -0.00005688412, -689479.94, -48436.273, 0.0, 10.001573, 9.92885 
4.7250938e+3, 2.4450971e+2, -601170.4, -666925.1, -3.5374796, 0.00028029067, 0.000104755076, -601170.4, -57365.266, 0.0, 10.001564, 9.915415 
4.7250932e+3, 2.5442526e+2, -502438.3, -568263.94, -7.460859, 0.0002789139, -0.00007820946, -502438.3, -55805.477, 0.0, 10.001555, 9.915315 
4.7250932e+3, 2.6433367e+2, -414218.88, -490919.2, -2.0310302, 0.00027787455, 0.0001674397, -414218.88, -64688.844, 0.0, 10.001548, 9.901246 
4.7250926e+3, 2.742355e+2, -314953.2, -391319.8, -5.6286116, 0.0002772647, -0.00017848705, -314953.2, -62460.78, 0.0, 10.00154, 9.901666 
4.7250926e+3, 2.8412905e+2, -228489.8, -318026.7, -0.23769593, 0.0002767922, 0.00025263964, -228489.8, -72954.43, 0.0, 10.001533, 9.884728 
4.7250924e+3, 2.9401484e+2, -128802.48, -217723.08, -3.4491048, 0.0002765042, -0.0002303992, -128802.48, -70147.734, 0.0, 10.001525, 9.885508 
4.7250924e+3, 3.0392855e+2, -39092.996, -84737.85, 2.0900671, 0.00027541857, 0.00019402853, -39092.996, -39092.996, 0.0, 10.001518, 9.94145 
4.7250924e+3, 3.138719e+2, -38027.426, -82506.16, -0.9962288, 0.00027315057, -0.000038369446, -38027.426, -38027.426, 0.0, 10.00151, 9.94296 
4.735099e+3, 1.2500903e+2, -1717924.5, -1724084.4, -2.1476974, 0.00029670895, 0.000092826085, -1717924.5, -3012.5537, 0.0, 10.001678, 9.993513 
4.7350988e+3, 1.3500239e+2, -1620571.3, -1627314.5, -6.3899484, 0.00029440716, -0.00008516369, -1620571.3, -3594.2375, 0.0, 10.001667, 9.99273 
4.7350988e+3, 1.4498924e+2, -1532446.9, -1547955.8, -5.3304973, 0.00029293244, 0.00017730703, -1532446.9, -13341.021, 0.0, 10.001657, 9.981104 
4.7350982e+3, 1.5497032e+2, -1434744.6, -1450649.0, -9.8112955, 0.0002922806, -0.000010688641, -1434744.6, -13453.385, 0.0, 10.001646, 9.980573 
4.7350976e+3, 1.649448e+2, -1346712.5, -1371789.0, -7.525251, 0.00029125466, 0.00007197041, -1346712.5, -23171.1, 0.0, 10.001636, 9.9684925 
4.7350973e+3, 1.7491335e+2, -1248778.9, -1274163.8, -11.8768, 0.0002898499, -0.00003163317, -1248778.9, -22929.254, 0.0, 10.001626, 9.968079 
4.7350973e+3, 1.8487525e+2, -1160712.1, -1195576.1, -8.394725, 0.00028866957, 0.000113665046, -1160712.1, -32489.266, 0.0, 10.0016165, 9.955648 
4.7350967e+3, 1.9483094e+2, -1062585.5, -1097705.0, -12.436656, 0.00028772213, -0.000017628083, -1062585.4, -31928.25, 0.0, 10.001607, 9.955305 
4.735096e+3, 2.0477995e+2, -974437.4, -1019314.4, -8.231099, 0.00028687512, 0.00010395099, -974437.4, -41280.62, 0.0, 10.001597, 9.942549 
4.735096e+3, 2.1472253e+2, -876172.2, -921304.44, -12.462344, 0.00028613617, -0.00009149317, -876172.2, -40452.78, 0.0, 10.001589, 9.942207 
4.7350958e+3, 2.2465843e+2, -787901.2, -843046.6, -7.6809816, 0.00028523177, 0.00015538096, -787901.2, -49553.5, 0.0, 10.00158, 9.929171 
4.7350952e+3, 2.3458765e+2, -689488.1, -744882.56, -11.538195, 0.0002841402, -0.000055487904, -689488.1, -48446.996, 0.0, 10.001573, 9.92884 
4.7350952e+3, 2.4450995e+2, -601178.9, -666942.5, -6.630185, 0.000283246, 0.00010632492, -601178.9, -57376.184, 0.0, 10.001564, 9.915403 
4.7350946e+3, 2.5442547e+2, -502446.72, -568281.2, -10.55794, 0.00028258638, -0.00007748118, -502446.72, -55816.176, 0.0, 10.001556, 9.915304 
4.7350946e+3, 2.6433393e+2, -414226.9, -490935.88, -4.8918533, 0.00028176044, 0.00016793002, -414226.9, -64699.09, 0.0, 10.001548, 9.901235 
4.7350943e+3, 2.742357e+2, -314961.13, -391336.34, -8.474671, 0.0002807223, -0.00017746574, -314961.13, -62470.81, 0.0, 10.00154, 9.901655 
4.7350943e+3, 2.8412926e+2, -228497.3, -318042.47, -3.0422897, 0.00027992186, 0.00025373173, -228497.3, -72963.93, 0.0, 10.001533, 9.884718 
4.7350937e+3, 2.9401505e+2, -128809.85, -217738.69, -6.251561, 0.00027944596, -0.000229869, -128809.85, -70157.0, 0.0, 10.001526, 9.885497 
4.7350937e+3, 3.0392873e+2, -39100.72, -84754.23, -0.79972893, 0.00027851237, 0.00019460224, -39100.72, -39100.72, 0.0, 10.001518, 9.941439 
4.7350937e+3, 3.1387207e+2, -38035.195, -82522.65, -3.8965476, 0.0002768994, -0.000036848076, -38035.195, -38035.195, 0.0, 10.001511, 9.942949 
4.745101e+3, 1.2500942e+2, -1717848.3, -1724057.5, 2.771963, 0.00030075837, 0.000094612, -1717848.3, -2940.174, 0.0, 10.001732, 9.993502 
4.7451004e+3, 1.3500278e+2, -1620496.3, -1627288.6, -2.0678384, 0.00029831304, -0.00008427909, -1620496.3, -3523.062, 0.0, 10.00172, 9.992718 
4.7451e+3, 1.4498961e+2, -1532372.9, -1547930.0, -1.0524423, 0.00029672807, 0.0001779812, -1532372.9, -13270.655, 0.0, 10.001709, 9.981092 
4.7450995e+3, 1.5497069e+2, -1434672.1, -1450624.1, -5.354984, 0.00029599908, -0.000009533747, -1434672.1, -13384.452, 0.0, 10.001698, 9.980561 
4.7450995e+3, 1.6494514e+2, -1346641.4, -1371765.0, -2.7838254, 0.00029491878, 0.00007336572, -1346641.4, -23103.395, 0.0, 10.001686, 9.968481 
4.7450992e+3, 1.7491367e+2, -1248709.3, -1274140.6, -7.153707, 0.0002934828, -0.000030241568, -1248709.3, -22862.906, 0.0, 10.001676, 9.968067 
4.7450987e+3, 1.8487558e+2, -1160643.4, -1195553.5, -3.5256157, 0.00029226037, 0.000114949136, -1160643.4, -32423.645, 0.0, 10.001666, 9.955637 
4.745098e+3, 1.9483124e+2, -1062517.3, -1097682.9, -8.015757, 0.00029125946, -0.000016559548, -1062517.3, -31863.162, 0.0, 10.001657, 9.955294 
4.745098e+3, 2.0478025e+2, -974369.94, -1019292.94, -3.8568208, 0.00029044936, 0.000104972656, -974369.94, -41216.098, 0.0, 10.001647, 9.942537 
4.7450978e+3, 2.1472283e+2, -876105.3, -921283.5, -8.19434, 0.00028984481, -0.00009033651, -876105.3, -40388.707, 0.0, 10.001638, 9.942196 
4.7450972e+3, 2.2465871e+2, -787834.75, -843025.5, -3.4265409, 0.00028887865, 0.00015649658, -787834.75, -49489.824, 0.0, 10.001629, 9.92916 
4.7450972e+3, 2.3458794e+2, -689423.3, -744862.4, -7.490546, 0.00028750396, -0.00005461191, -689423.3, -48384.8, 0.0, 10.00162, 9.928829 
4.7450966e+3, 2.445102e+2, -601115.06, -666923.5, -2.602828, 0.0002865711, 0.00010714693, -601115.06, -57314.867, 0.0, 10.001612, 9.915392 
4.7450966e+3, 2.5442573e+2, -502382.72, -568262.3, -6.687783, 0.00028616446, -0.00007649194, -502382.72, -55754.57, 0.0, 10.001604, 9.915292 
4.7450963e+3, 2.6433414e+2, -414163.03, -490916.75, -1.1178626, 0.00028540634, 0.00016896937, -414163.03, -64637.5, 0.0, 10.0015955, 9.901224 
4.7450963e+3, 2.7423593e+2, -314898.66, -391318.1, -4.8393836, 0.00028420013, -0.00017652535, -314898.66, -62410.54, 0.0, 10.001588, 9.901644 
4.7450957e+3, 2.841295e+2, -228435.77, -318024.34, 0.5075371, 0.00028325475, 0.00025459364, -228435.77, -72904.48, 0.0, 10.001579, 9.884707 
4.7450957e+3, 2.9401523e+2, -128749.58, -217721.33, -2.9033303, 0.00028266656, -0.00022905706, -128749.58, -70098.695, 0.0, 10.001572, 9.885487 
4.745095e+3, 3.039289e+2, -39041.953, -84738.44, 2.3643034, 0.0002817547, 0.00019538534, -39041.953, -39041.953, 0.0, 10.001563, 9.941427 
4.745095e+3, 3.1387225e+2, -37976.348, -82506.89, -0.81107086, 0.0002803622, -0.00003606222, -37976.348, -37976.348, 0.0, 10.001555, 9.942938 
4.7551024e+3, 1.2500982e+2, -1717859.3, -1724078.4, -1.5510408, 0.00030512697, 0.00009578922, -1717859.3, -2955.113, 0.0, 10.001732, 9.993488 
4.755102e+3, 1.3500318e+2, -1620507.1, -1627309.3, -6.3843493, 0.0003023884, -0.000082969345, -1620507.1, -3537.752, 0.0, 10.00172, 9.992705 
4.755102e+3, 1.4499e+2, -1532382.3, -1547948.3, -5.2444806, 0.0003005377, 0.00017922749, -1532382.3, -13283.876, 0.0, 10.001709, 9.981081 
4.7551015e+3, 1.5497105e+2, -1434681.5, -1450642.4, -9.546007, 0.00029957035, -0.000008547171, -1434681.5, -13397.454, 0.0, 10.001698, 9.98055 
4.7551012e+3, 1.6494551e+2, -1346650.8, -1371783.4, -6.7870407, 0.0002984321, 0.00007453512, -1346650.8, -23116.37, 0.0, 10.001687, 9.96847 
4.7551006e+3, 1.7491403e+2, -1248718.5, -1274159.0, -11.16215, 0.00029712144, -0.00002843979, -1248718.5, -22875.654, 0.0, 10.001676, 9.968056 
4.7551e+3, 1.8487592e+2, -1160653.0, -1195572.4, -7.08679, 0.00029599582, 0.00011659017, -1160653.0, -32436.541, 0.0, 10.001666, 9.955625 
4.7551e+3, 1.9483158e+2, -1062526.8, -1097701.6, -11.574614, 0.000295062, -0.00001590533, -1062526.8, -31875.822, 0.0, 10.001657, 9.955282 
4.7550997e+3, 2.0478056e+2, -974379.2, -1019311.4, -7.1858773, 0.0002941654, 0.00010568283, -974379.2, -41228.395, 0.0, 10.001647, 9.942525 
4.755099e+3, 2.1472313e+2, -876114.44, -921301.8, -11.519186, 0.0002933087, -0.00008844546, -876114.44, -40400.79, 0.0, 10.001638, 9.942184 
4.755099e+3, 2.24659e+2, -787843.44, -843043.1, -6.7526007, 0.00029231163, 0.00015832923, -787843.44, -49501.375, 0.0, 10.001629, 9.929149 
4.7550985e+3, 2.345882e+2, -689431.94, -744879.9, -10.820967, 0.00029115568, -0.000054236018, -689431.9, -48396.1, 0.0, 10.00162, 9.928818 
4.7550982e+3, 2.4451049e+2, -601123.8, -666941.5, -5.574649, 0.00029025343, 0.00010724978, -601123.8, -57326.266, 0.0, 10.001612, 9.9153805 
4.7550982e+3, 2.5442597e+2, -502391.4, -568280.25, -9.641183, 0.00028965305, -0.00007525074, -502391.4, -55765.766, 0.0, 10.001604, 9.91528 
4.7550976e+3, 2.6433438e+2, -414171.34, -490934.0, -4.2245774, 0.0002888226, 0.000170538, -414171.34, -64648.203, 0.0, 10.001596, 9.901213 
4.7550976e+3, 2.7423614e+2, -314906.84, -391335.2, -7.958902, 0.00028769881, -0.00017566227, -314906.84, -62420.99, 0.0, 10.001588, 9.901632 
4.755097e+3, 2.841297e+2, -228443.64, -318040.9, -2.5362775, 0.00028678463, 0.0002552346, -228443.64, -72914.49, 0.0, 10.001579, 9.884696 
4.755097e+3, 2.9401544e+2, -128757.31, -217737.73, -5.9406595, 0.0002861569, -0.00022797313, -128757.31, -70108.484, 0.0, 10.001572, 9.885475 
4.7550967e+3, 3.0392915e+2, -39049.824, -84755.17, -0.51216316, 0.00028514134, 0.00019637065, -39049.824, -39049.824, 0.0, 10.001564, 9.941417 
4.7550967e+3, 3.1387243e+2, -37984.254, -82523.69, -3.6727653, 0.00028355082, -0.000035984267, -37984.254, -37984.254, 0.0, 10.001556, 9.942926 
4.7651044e+3, 1.2501025e+2, -1717781.4, -1724050.8, 3.1296527, 0.00030908477, 0.000096849784, -1717781.4, -2881.3757, 0.0, 10.001786, 9.993477 
4.765104e+3, 1.3500357e+2, -1620431.0, -1627282.8, -1.161204, 0.0003062779, -0.00008132562, -1620431.0, -3465.6191, 0.0, 10.001774, 9.992693 
4.7651035e+3, 1.4499038e+2, -1532306.9, -1547921.3, 0.45797008, 0.00030435174, 0.00018099541, -1532306.9, -13212.355, 0.0, 10.001761, 9.98107 
4.7651032e+3, 1.5497144e+2, -1434607.5, -1450616.3, -3.797163, 0.00030330158, -0.000007114151, -1434607.5, -13327.171, 0.0, 10.00175, 9.980538 
4.7651026e+3, 1.6494587e+2, -1346578.4, -1371759.8, -1.0008008, 0.0003021511, 0.00007580696, -1346578.4, -23047.654, 0.0, 10.001739, 9.968457 
4.7651026e+3, 1.7491439e+2, -1248646.5, -1274135.6, -6.0077963, 0.00030090002, -0.00002715268, -1248646.5, -22807.205, 0.0, 10.001728, 9.968043 
4.765102e+3, 1.8487626e+2, -1160581.5, -1195549.5, -1.9940413, 0.00029981005, 0.00011783147, -1160581.5, -32368.484, 0.0, 10.001718, 9.955612 
4.7651017e+3, 1.9483191e+2, -1062456.3, -1097679.4, -6.761939, 0.00029888694, -0.000014773566, -1062456.3, -31808.611, 0.0, 10.001708, 9.95527 
4.765101e+3, 2.0478088e+2, -974309.25, -1019289.06, -2.3444564, 0.00029789243, 0.00010686671, -974309.25, -41161.676, 0.0, 10.001698, 9.942513 
4.765101e+3, 2.1472344e+2, -876045.8, -921280.3, -6.747854, 0.00029682068, -0.000087034976, -876045.8, -40335.227, 0.0, 10.001689, 9.942172 
4.7651005e+3, 2.2465931e+2, -787775.56, -843022.25, -2.0928311, 0.00029582673, 0.00015962894, -787775.56, -49436.43, 0.0, 10.001679, 9.929136 
4.7651002e+3, 2.345885e+2, -689364.2, -744859.3, -6.6421046, 0.00029492, -0.00005342786, -689364.2, -48331.223, 0.0, 10.001671, 9.928805 
4.7651002e+3, 2.4451075e+2, -601056.6, -666920.9, -1.4199085, 0.0002940155, 0.000107969834, -601056.6, -57261.723, 0.0, 10.001662, 9.915369 
4.7650996e+3, 2.5442624e+2, -502325.84, -568260.6, -5.380846, 0.00029311312, -0.00007413783, -502325.84, -55702.78, 0.0, 10.001653, 9.915269 
4.7650996e+3, 2.6433465e+2, -414106.8, -490915.22, -0.014816323, 0.0002921821, 0.00017174383, -414106.8, -64586.145, 0.0, 10.001645, 9.9012 
4.765099e+3, 2.7423638e+2, -314842.63, -391316.75, -4.058027, 0.0002912143, -0.00017474551, -314842.63, -62359.15, 0.0, 10.0016365, 9.901621 
4.765099e+3, 2.8412992e+2, -228379.33, -318021.88, 1.2050612, 0.000290412, 0.0002560931, -228379.33, -72852.44, 0.0, 10.001628, 9.8846855 
4.7650987e+3, 2.9401565e+2, -128693.7, -217719.14, -2.2764795, 0.0002898347, -0.0002268558, -128693.7, -70047.016, 0.0, 10.00162, 9.885465 
4.7650987e+3, 3.0392936e+2, -38988.3, -84738.85, 2.872719, 0.00028871003, 0.00019742057, -38988.3, -38988.3, 0.0, 10.001612, 9.941404 
4.765098e+3, 3.138726e+2, -37924.223, -82508.21, -0.7691689, 0.0002867745, -0.00003548789, -37924.223, -37924.223, 0.0, 10.001603, 9.942914 
4.7751063e+3, 1.2501068e+2, -1717791.0, -1724069.3, -1.497864, 0.00031265005, 0.00009779917, -1717791.0, -2895.3015, 0.0, 10.001786, 9.993465 
4.775106e+3, 1.35004e+2, -1620440.5, -1627301.1, -5.7877774, 0.00030999063, -0.00007936019, -1620440.5, -3479.3188, 0.0, 10.001774, 9.9926815 
4.7751054e+3, 1.449908e+2, -1532316.3, -1547939.4, -3.9669123, 0.0003081715, 0.00018326544, -1532316.3, -13225.7295, 0.0, 10.001762, 9.981058 
4.775105e+3, 1.5497184e+2, -1434616.8, -1450634.3, -8.227199, 0.00030718785, -0.000005250997, -1434616.8, -13340.3125, 0.0, 10.00175, 9.980527 
4.7751045e+3, 1.6494626e+2, -1346589.3, -1371780.8, -5.0177374, 0.00030606912, 0.00007717845, -1346589.3, -23062.262, 0.0, 10.001739, 9.968444 
4.775104e+3, 1.7491476e+2, -1248657.3, -1274156.6, -10.021266, 0.00030481452, -0.000026359026, -1248657.3, -22821.56, 0.0, 10.001728, 9.96803 
4.7751036e+3, 1.8487662e+2, -1160591.8, -1195569.6, -5.6965523, 0.0003037015, 0.000118689626, -1160591.8, -32382.209, 0.0, 10.001718, 9.9556 
4.7751036e+3, 1.9483227e+2, -1062466.4, -1097699.4, -10.46134, 0.00030273502, -0.000013182056, -1062466.4, -31822.094, 0.0, 10.001708, 9.955256 
4.775103e+3, 2.0478122e+2, -974318.7, -1019307.8, -5.8929596, 0.00030163157, 0.00010850659, -974318.7, -41174.34, 0.0, 10.0016985, 9.942501 
4.7751024e+3, 2.1472377e+2, -876055.06, -921298.94, -10.296749, 0.0003003803, -0.00008608546, -876055.06, -40347.645, 0.0, 10.001689, 9.942161 
4.7751024e+3, 2.246596e+2, -787785.25, -843041.8, -5.3793917, 0.0002994222, 0.00016041733, -787785.25, -49449.14, 0.0, 10.001679, 9.929124 
4.775102e+3, 2.3458879e+2, -689373.8, -744878.75, -9.918534, 0.00029879416, -0.000052203428, -689373.75, -48343.707, 0.0, 10.001671, 9.928793 
4.7751015e+3, 2.4451104e+2, -601065.25, -666938.56, -4.698141, 0.00029785582, 0.00010928384, -601065.25, -57273.152, 0.0, 10.001662, 9.915358 
4.7751015e+3, 2.544265e+2, -502334.3, -568278.1, -8.663431, 0.00029654708, -0.000073147494, -502334.3, -55713.95, 0.0, 10.001654, 9.915257 
4.775101e+3, 2.643349e+2, -414115.7, -490933.6, -3.1333954, 0.00029548837, 0.00017260166, -414115.7, -64597.566, 0.0, 10.001645, 9.901189 
4.7751006e+3, 2.7423665e+2, -314851.4, -391335.1, -7.165255, 0.00029474735, -0.00017377647, -314851.4, -62370.367, 0.0, 10.0016365, 9.901608 
4.7751006e+3, 2.8413016e+2, -228387.36, -318038.78, -1.9197584, 0.0002941346, 0.0002571615, -228387.36, -72862.805, 0.0, 10.001628, 9.884674 
4.7751e+3, 2.940159e+2, -128701.57, -217735.84, -5.4039435, 0.0002936943, -0.00022570559, -128701.57, -70057.1, 0.0, 10.00162, 9.885453 
4.7751e+3, 3.0392957e+2, -38996.984, -84757.3, -0.33894667, 0.00029245525, 0.00019853342, -38996.984, -38996.984, 0.0, 10.001612, 9.941392 
4.7750998e+3, 3.1387284e+2, -37933.016, -82526.89, -3.990121, 0.0002900331, -0.000034588495, -37933.016, -37933.016, 0.0, 10.001603, 9.942902 
4.785108e+3, 1.2501113e+2, -1717713.5, -1724040.9, 3.4418533, 0.00031631216, 0.00009940568, -1717713.5, -2822.1423, 0.0, 10.001841, 9.993454 
4.7851074e+3, 1.3500445e+2, -1620363.3, -1627273.1, -0.8258355, 0.0003136887, -0.0000780202, -1620363.3, -3406.3167, 0.0, 10.001828, 9.99267 
4.785107e+3, 1.4499122e+2, -1532239.6, -1547912.5, 0.982288, 0.000311968, 0.00018452454, -1532239.6, -13153.201, 0.0, 10.001816, 9.981047 
4.785107e+3, 1.5497224e+2, -1434540.1, -1450607.6, -3.8162231, 0.00031114498, -0.000003887589, -1434540.1, -13267.763, 0.0, 10.001804, 9.980515 
4.7851065e+3, 1.6494668e+2, -1346514.0, -1371756.4, -0.49879816, 0.00031007951, 0.000078507444, -1346514.0, -22990.945, 0.0, 10.001793, 9.9684305 
4.785106e+3, 1.7491515e+2, -1248583.0, -1274132.9, -5.3957653, 0.00030876917, -0.000025205194, -1248583.0, -22751.086, 0.0, 10.001781, 9.968017 
4.7851056e+3, 1.84877e+2, -1160518.1, -1195546.1, -0.74618053, 0.00030757653, 0.000119853656, -1160518.1, -32312.34, 0.0, 10.001771, 9.955586 
4.785105e+3, 1.9483261e+2, -1062394.0, -1097676.8, -5.569813, 0.00030650545, -0.000011814803, -1062394.0, -31753.293, 0.0, 10.0017605, 9.955244 
4.7851044e+3, 2.0478158e+2, -974246.9, -1019285.2, -0.96802044, 0.0003053858, 0.000109796034, -974246.9, -41105.93, 0.0, 10.001751, 9.942489 
4.7851044e+3, 2.147241e+2, -875983.9, -921276.8, -5.743488, 0.00030421352, -0.00008517689, -875983.9, -40279.7, 0.0, 10.001741, 9.942148 
4.785104e+3, 2.2465993e+2, -787714.75, -843020.2, -0.7510353, 0.00030323706, 0.00016134306, -787714.75, -49381.78, 0.0, 10.001732, 9.9291115 
4.7851035e+3, 2.3458911e+2, -689304.44, -744857.9, -5.162934, 0.0003024809, -0.000050811544, -689304.44, -48277.35, 0.0, 10.001722, 9.928781 
4.7851035e+3, 2.4451134e+2, -600996.44, -666917.75, -0.034632627, 0.00030149327, 0.00011069743, -600996.44, -57207.28, 0.0, 10.001713, 9.915345 
4.785103e+3, 2.544268e+2, -502266.38, -568257.94, -4.4634495, 0.00030022912, -0.000072241884, -502266.38, -55648.785, 0.0, 10.001704, 9.915245 
4.7851026e+3, 2.643352e+2, -414048.47, -490913.94, 0.9852208, 0.00029917495, 0.00017335513, -414048.47, -64533.02, 0.0, 10.001696, 9.901176 
4.7851026e+3, 2.7423692e+2, -314785.03, -391316.03, -3.0528638, 0.00029838755, -0.00017272214, -314785.03, -62306.543, 0.0, 10.001687, 9.901597 
4.785102e+3, 2.841304e+2, -228321.14, -318019.13, 2.130183, 0.00029774086, 0.00025830825, -228321.14, -72799.0, 0.0, 10.001678, 9.884663 
4.785102e+3, 2.9401612e+2, -128636.13, -217716.7, -1.5001969, 0.00029728387, -0.00022475334, -128636.13, -69993.984, 0.0, 10.00167, 9.885442 
4.7851014e+3, 3.0392978e+2, -38933.49, -84740.695, 3.3305545, 0.0002960415, 0.00019948544, -38933.49, -38933.49, 0.0, 10.001661, 9.94138 
4.7851014e+3, 3.1387305e+2, -37869.953, -82510.66, -0.33533132, 0.00029363576, -0.000033345677, -37869.953, -37869.953, 0.0, 10.001652, 9.942889 
4.79511e+3, 1.250116e+2, -1717723.1, -1724059.3, -1.1535237, 0.00032006856, 0.00010164271, -1717723.1, -2836.2522, 0.0, 10.001841, 9.993443 
4.7951093e+3, 1.3500488e+2, -1620372.8, -1627291.4, -5.4268136, 0.00031737433, -0.00007727872, -1620372.8, -3420.1882, 0.0, 10.001828, 9.992659 
4.795109e+3, 1.4499167e+2, -1532250.1, -1547932.9, -3.3752563, 0.00031574382, 0.00018481557, -1532250.1, -13168.019, 0.0, 10.001816, 9.981033 
4.7951084e+3, 1.5497267e+2, -1434550.6, -1450627.9, -8.16952, 0.00031517178, -0.0000030027718, -1434550.6, -13282.332, 0.0, 10.001804, 9.980502 
4.7951078e+3, 1.6494706e+2, -1346524.6, -1371777.0, -4.6465955, 0.0003141802, 0.00007979622, -1346524.6, -23005.535, 0.0, 10.001793, 9.968417 
4.7951075e+3, 1.7491554e+2, -1248593.5, -1274153.5, -9.544183, 0.000312764, -0.000023704968, -1248593.5, -22765.426, 0.0, 10.001782, 9.968004 
4.7951075e+3, 1.8487738e+2, -1160528.5, -1195566.5, -4.6439357, 0.00031143738, 0.00012131211, -1160528.5, -32326.41, 0.0, 10.001771, 9.955574 
4.795107e+3, 1.9483298e+2, -1062404.3, -1097697.0, -9.4660635, 0.00031020297, -0.000010661781, -1062404.3, -31767.11, 0.0, 10.0017605, 9.955231 
4.7951064e+3, 2.0478192e+2, -974257.0, -1019305.44, -4.5705833, 0.00030915608, 0.000110750116, -974257.0, -41119.574, 0.0, 10.001751, 9.942476 
4.795106e+3, 2.1472444e+2, -875993.9, -921296.94, -9.340595, 0.000308311, -0.00008430688, -875993.9, -40293.098, 0.0, 10.001741, 9.942135 
4.795106e+3, 2.2466026e+2, -787724.2, -843039.25, -4.2146597, 0.00030726413, 0.00016240137, -787724.2, -49394.46, 0.0, 10.001732, 9.929099 
4.7951055e+3, 2.3458943e+2, -689313.7, -744876.8, -8.623832, 0.00030598926, -0.00004925792, -689313.7, -48289.785, 0.0, 10.001722, 9.928768 
4.795105e+3, 2.4451165e+2, -601005.94, -666937.25, -3.4322245, 0.00030493748, 0.0001122076, -601005.94, -57219.793, 0.0, 10.001714, 9.915333 
4.795105e+3, 2.544271e+2, -502275.78, -568277.3, -7.85878, 0.0003041509, -0.00007141696, -502275.78, -55661.05, 0.0, 10.001704, 9.915233 
4.7951046e+3, 2.6433545e+2, -414057.38, -490932.47, -2.2456062, 0.00030322833, 0.00017400902, -414057.38, -64544.688, 0.0, 10.001696, 9.901164 
4.795104e+3, 2.742372e+2, -314793.8, -391334.4, -6.2741933, 0.0003021321, -0.0001715851, -314793.8, -62317.957, 0.0, 10.001687, 9.901585 
4.795104e+3, 2.8413066e+2, -228329.4, -318036.6, -1.1105846, 0.00030123684, 0.0002595311, -228329.4, -72809.8, 0.0, 10.001678, 9.884651 
4.7951034e+3, 2.9401636e+2, -128644.26, -217733.95, -4.744265, 0.00030061541, -0.00022399057, -128644.26, -70004.516, 0.0, 10.00167, 9.88543 
4.7951034e+3, 3.0393e+2, -38942.188, -84759.2, 0.03233413, 0.00029947644, 0.00020028364, -38942.188, -38942.188, 0.0, 10.001661, 9.941366 
4.795103e+3, 3.1387326e+2, -37878.73, -82529.336, -3.640335, 0.0002975706, -0.000031771997, -37878.73, -37878.73, 0.0, 10.001653, 9.942876 
4.805112e+3, 1.2501206e+2, -1717643.3, -1724030.5, 3.6587555, 0.00032404327, 0.000103114035, -1717643.3, -2760.89, 0.0, 10.001896, 9.99343 
4.8051113e+3, 1.3500534e+2, -1620293.4, -1627263.0, -1.1923288, 0.00032132215, -0.00007624631, -1620293.4, -3345.253, 0.0, 10.0018835, 9.992646 
4.8051107e+3, 1.4499211e+2, -1532171.4, -1547905.3, 0.9677643, 0.00031966218, 0.00018577818, -1532171.4, -13093.591, 0.0, 10.001871, 9.981022 
4.8051104e+3, 1.549731e+2, -1434472.5, -1450600.9, -3.5074391, 0.00031905796, -0.0000017412264, -1434472.5, -13208.535, 0.0, 10.00186, 9.98049 
4.8051098e+3, 1.649475e+2, -1346448.0, -1371752.0, 0.31031322, 0.00031806837, 0.000081184335, -1346448.0, -22933.04, 0.0, 10.001848, 9.968404 
4.8051095e+3, 1.7491595e+2, -1248517.6, -1274129.0, -4.774935, 0.00031668897, -0.000022365119, -1248517.6, -22693.516, 0.0, 10.001837, 9.967991 
4.805109e+3, 1.8487778e+2, -1160453.1, -1195542.4, 0.22484124, 0.00031537245, 0.00012257445, -1160453.1, -32254.873, 0.0, 10.001826, 9.955561 
4.805109e+3, 1.9483335e+2, -1062329.5, -1097673.4, -4.7529206, 0.0003141204, -0.000009507455, -1062329.5, -31696.15, 0.0, 10.001816, 9.955217 
4.8051083e+3, 2.047823e+2, -974183.0, -1019282.4, 0.3018623, 0.00031305294, 0.000111890484, -974183.0, -41049.17, 0.0, 10.001805, 9.942463 
4.805108e+3, 2.147248e+2, -875920.9, -921274.56, -4.544332, 0.00031218422, -0.000083079045, -875920.9, -40223.547, 0.0, 10.001795, 9.9421215 
4.8051074e+3, 2.246606e+2, -787651.7, -843016.75, 0.59301555, 0.00031108662, 0.00016360861, -787651.7, -49325.28, 0.0, 10.001785, 9.929087 
4.8051068e+3, 2.3458976e+2, -689242.25, -744855.0, -4.0067625, 0.00030973039, -0.000048193124, -689242.25, -48221.523, 0.0, 10.001776, 9.928756 
4.8051068e+3, 2.4451196e+2, -600935.3, -666916.3, 1.1895765, 0.0003086926, 0.00011325437, -600935.3, -57152.242, 0.0, 10.001766, 9.915319 
4.8051065e+3, 2.544274e+2, -502205.5, -568256.75, -3.3587906, 0.00030803363, -0.00007024008, -502205.5, -55593.75, 0.0, 10.001758, 9.91522 
4.805106e+3, 2.6433575e+2, -413987.4, -490911.78, 2.17347, 0.00030712367, 0.00017521491, -413987.4, -64477.574, 0.0, 10.001748, 9.901152 
4.805106e+3, 2.7423745e+2, -314725.13, -391314.53, -2.0413969, 0.0003058938, -0.0001704787, -314725.13, -62251.992, 0.0, 10.001739, 9.901572 
4.8051053e+3, 2.8413096e+2, -228261.27, -318016.47, 2.977803, 0.0003048945, 0.00026054218, -228261.27, -72744.266, 0.0, 10.00173, 9.884639 
4.8051053e+3, 2.9401663e+2, -128577.0, -217714.44, -0.8592608, 0.0003042101, -0.0002230688, -128577.0, -69939.76, 0.0, 10.001721, 9.885419 
4.805105e+3, 3.0393025e+2, -38876.63, -84741.81, 3.6749806, 0.00030307323, 0.0002011886, -38876.63, -38876.63, 0.0, 10.001712, 9.941354 
4.805105e+3, 3.138735e+2, -37813.293, -82512.125, -0.11522, 0.00030126583, -0.000030775842, -37813.293, -37813.293, 0.0, 10.001703, 9.942863 
4.8151138e+3, 1.2501255e+2, -1717654.1, -1724051.4, -0.9710957, 0.0003282286, 0.00010385396, -1717654.1, -2776.5737, 0.0, 10.001896, 9.993417 
4.8151132e+3, 1.3500582e+2, -1620304.3, -1627283.9, -5.815786, 0.0003255227, -0.00007493474, -1620304.3, -3360.6782, 0.0, 10.0018835, 9.992634 
4.8151127e+3, 1.4499258e+2, -1532181.3, -1547924.3, -3.4589024, 0.00032371873, 0.00018738421, -1532181.3, -13107.898, 0.0, 10.001872, 9.9810095 
4.8151124e+3, 1.5497355e+2, -1434482.3, -1450619.8, -7.938083, 0.0003228112, -0.00000011784065, -1434482.3, -13222.613, 0.0, 10.00186, 9.980478 
4.8151118e+3, 1.6494794e+2, -1346459.0, -1371773.5, -3.9137065, 0.00032175484, 0.00008266885, -1346459.0, -22948.275, 0.0, 10.001848, 9.96839 
4.8151115e+3, 1.7491637e+2, -1248528.5, -1274150.4, -8.997937, 0.00032054872, -0.000021177975, -1248528.5, -22708.486, 0.0, 10.001837, 9.967977 
4.815111e+3, 1.8487817e+2, -1160463.8, -1195563.4, -3.746272, 0.00031938034, 0.00012364973, -1160463.8, -32269.498, 0.0, 10.001826, 9.955547 
4.8151103e+3, 1.9483376e+2, -1062340.0, -1097694.3, -8.721807, 0.00031825024, -0.000008351022, -1062340.0, -31710.514, 0.0, 10.001816, 9.955204 
4.81511e+3, 2.0478268e+2, -974193.3, -1019303.0, -3.441529, 0.00031707282, 0.00011321028, -974193.3, -41063.203, 0.0, 10.001805, 9.94245 
4.81511e+3, 2.1472515e+2, -875931.06, -921295.0, -8.283378, 0.00031584414, -0.000081507285, -875931.06, -40237.324, 0.0, 10.001795, 9.942109 
4.8151094e+3, 2.2466096e+2, -787661.5, -843036.56, -3.032501, 0.00031471465, 0.00016495948, -787661.5, -49338.56, 0.0, 10.001785, 9.929073 
4.8151088e+3, 2.345901e+2, -689251.9, -744874.75, -7.6317325, 0.00031369636, -0.000047596226, -689251.9, -48234.53, 0.0, 10.001776, 9.928742 
4.8151085e+3, 2.4451229e+2, -600945.06, -666936.3, -2.208418, 0.0003127475, 0.00011385767, -600945.06, -57165.195, 0.0, 10.001766, 9.915306 
4.8151085e+3, 2.5442773e+2, -502215.13, -568276.7, -6.7445498, 0.00031188052, -0.000068724774, -502215.13, -55606.47, 0.0, 10.001758, 9.915207 
4.815108e+3, 2.6433605e+2, -413996.7, -490931.06, -1.2687302, 0.00031086904, 0.00017695103, -413996.7, -64489.8, 0.0, 10.001748, 9.901139 
4.8151073e+3, 2.7423775e+2, -314734.25, -391333.63, -5.489665, 0.00030967352, -0.00016940096, -314734.25, -62263.945, 0.0, 10.0017395, 9.90156 
4.8151073e+3, 2.8413123e+2, -228269.9, -318034.72, -0.4046104, 0.0003087088, 0.00026135085, -228269.9, -72755.61, 0.0, 10.00173, 9.884627 
4.815107e+3, 2.940169e+2, -128585.484, -217732.48, -4.2364497, 0.00030805878, -0.00022199372, -128585.484, -69950.83, 0.0, 10.001721, 9.8854065 
4.815107e+3, 3.0393052e+2, -38885.535, -84760.8, 0.3581647, 0.00030682684, 0.00020219668, -38885.535, -38885.535, 0.0, 10.001712, 9.941341 
4.8151064e+3, 3.138737e+2, -37822.27, -82531.24, -3.4281275, 0.0003047326, -0.000030333227, -37822.27, -37822.27, 0.0, 10.001703, 9.94285 
4.8251158e+3, 1.2501304e+2, -1717572.1, -1724021.6, 3.4312835, 0.0003323105, 0.00010469012, -1717572.1, -2699.359, 0.0, 10.001953, 9.993404 
4.8251152e+3, 1.3500631e+2, -1620222.9, -1627254.6, -0.9350422, 0.0003296011, -0.00007336408, -1620222.9, -3284.0337, 0.0, 10.001941, 9.992621 
4.8251146e+3, 1.4499304e+2, -1532100.6, -1547895.9, 1.6449505, 0.0003277626, 0.00018915806, -1532100.6, -13031.942, 0.0, 10.001928, 9.980997 
4.8251143e+3, 1.5497401e+2, -1434402.6, -1450592.0, -3.2417161, 0.00032678922, 0.0000013282227, -1434402.6, -13147.449, 0.0, 10.001916, 9.980466 
4.8251137e+3, 1.6494837e+2, -1346380.9, -1371748.0, 0.84103715, 0.00032569497, 0.00008393456, -1346380.9, -22874.486, 0.0, 10.0019045, 9.968377 
4.8251134e+3, 1.749168e+2, -1248450.8, -1274125.3, -4.288656, 0.0003244794, -0.000019943007, -1248450.8, -22634.996, 0.0, 10.001893, 9.967963 
4.8251128e+3, 1.848786e+2, -1160386.4, -1195538.6, 1.1336077, 0.0003233298, 0.00012485827, -1160386.4, -32196.248, 0.0, 10.001883, 9.955534 
4.8251122e+3, 1.9483417e+2, -1062263.4, -1097670.1, -3.9281087, 0.00032224788, -0.000007164432, -1062263.4, -31637.848, 0.0, 10.001871, 9.955191 
4.825112e+3, 2.0478307e+2, -974117.3, -1019279.06, 1.4786321, 0.00032104293, 0.00011445963, -974117.3, -40991.027, 0.0, 10.001861, 9.942436 
4.8251113e+3, 2.1472554e+2, -875856.1, -921271.9, -3.4210541, 0.0003197052, -0.00008010383, -875856.1, -40166.098, 0.0, 10.00185, 9.942096 
4.8251113e+3, 2.2466134e+2, -787587.25, -843013.94, 1.8489933, 0.00031856747, 0.00016627491, -787587.25, -49267.867, 0.0, 10.001841, 9.92906 
4.8251107e+3, 2.3459046e+2, -689178.1, -744852.5, -3.0813446, 0.00031765466, -0.000046641737, -689178.1, -48164.184, 0.0, 10.001831, 9.928729 
4.8251104e+3, 2.4451263e+2, -600871.7, -666914.1, 2.3561068, 0.00031670023, 0.00011479058, -600871.7, -57095.133, 0.0, 10.001821, 9.915294 
4.8251098e+3, 2.5442803e+2, -502142.94, -568255.25, -2.0932374, 0.00031569548, -0.000067409244, -502142.94, -55537.46, 0.0, 10.001811, 9.915194 
4.8251098e+3, 2.6433638e+2, -413925.28, -490910.28, 3.3667233, 0.00031463793, 0.00017833813, -413925.28, -64421.445, 0.0, 10.001802, 9.901126 
4.8251092e+3, 2.7423805e+2, -314663.28, -391313.3, -1.123374, 0.00031351295, -0.00016833787, -314663.28, -62195.9, 0.0, 10.001793, 9.9015465 
4.825109e+3, 2.841315e+2, -228198.8, -318013.66, 3.803704, 0.00031259665, 0.00026231032, -228198.8, -72687.32, 0.0, 10.001783, 9.884615 
4.825109e+3, 2.940172e+2, -128515.13, -217711.92, -0.15045801, 0.00031196416, -0.00022083524, -128515.13, -69883.164, 0.0, 10.001775, 9.885394 
4.8251083e+3, 3.039308e+2, -38817.29, -84742.82, 4.144408, 0.00031065373, 0.00020331758, -38817.29, -38817.29, 0.0, 10.001765, 9.941328 
4.8251083e+3, 3.13874e+2, -37754.94, -82513.87, -0.023075078, 0.0003083392, -0.000029602785, -37754.94, -37754.94, 0.0, 10.001756, 9.942837 
4.8351178e+3, 1.2501355e+2, -1717581.9, -1724040.4, -1.250225, 0.0003362954, 0.00010561882, -1717581.9, -2714.1526, 0.0, 10.001953, 9.993393 
4.8351172e+3, 1.3500679e+2, -1620232.5, -1627273.3, -5.6195784, 0.0003335646, -0.00007154447, -1620232.5, -3298.599, 0.0, 10.001941, 9.99261 
4.8351166e+3, 1.4499353e+2, -1532111.4, -1547916.5, -2.9016318, 0.0003317961, 0.00019109366, -1532111.4, -13047.421, 0.0, 10.001928, 9.980984 
4.8351163e+3, 1.5497449e+2, -1434413.3, -1450612.6, -7.7867117, 0.00033098395, 0.0000026054745, -1434413.3, -13162.661, 0.0, 10.001917, 9.980453 
4.8351157e+3, 1.6494884e+2, -1346391.9, -1371769.6, -3.3828812, 0.00032987943, 0.000084991705, -1346391.9, -22890.031, 0.0, 10.0019045, 9.968364 
4.8351154e+3, 1.7491725e+2, -1248461.6, -1274146.8, -8.512738, 0.00032847968, -0.000018661343, -1248461.6, -22650.285, 0.0, 10.001893, 9.96795 
4.8351148e+3, 1.8487903e+2, -1160397.3, -1195560.0, -2.9091697, 0.0003272252, 0.00012619529, -1160397.3, -32211.283, 0.0, 10.001883, 9.955521 
4.8351142e+3, 1.9483458e+2, -1062274.1, -1097691.4, -7.969307, 0.0003261208, -0.000005948091, -1062274.1, -31652.617, 0.0, 10.001872, 9.955177 
4.835114e+3, 2.0478348e+2, -974127.75, -1019299.94, -2.426835, 0.00032496723, 0.00011564247, -974127.75, -41005.4, 0.0, 10.001861, 9.942423 
4.8351133e+3, 2.1472594e+2, -875866.44, -921292.56, -7.3253417, 0.00032376044, -0.000078860525, -875866.44, -40180.2, 0.0, 10.001851, 9.942082 
4.8351127e+3, 2.246617e+2, -787597.7, -843035.2, -1.7974352, 0.0003226371, 0.0001675574, -787597.7, -49282.023, 0.0, 10.001841, 9.929047 
4.8351127e+3, 2.345908e+2, -689188.44, -744873.6, -6.7186093, 0.0003216073, -0.000045344066, -689188.44, -48178.082, 0.0, 10.001831, 9.928716 
4.8351124e+3, 2.4451298e+2, -600881.3, -666933.9, -1.2272017, 0.00032055698, 0.000116039824, -600881.3, -57108.152, 0.0, 10.0018215, 9.91528 
4.8351118e+3, 2.544284e+2, -502152.38, -568274.8, -5.6772003, 0.0003194815, -0.00006628418, -502152.38, -55550.2, 0.0, 10.001812, 9.915181 
4.8351112e+3, 2.643367e+2, -413935.0, -490930.56, -0.09601176, 0.0003184309, 0.00017939192, -413935.0, -64434.348, 0.0, 10.001802, 9.901113 
4.8351112e+3, 2.7423838e+2, -314672.9, -391333.47, -4.577978, 0.00031741126, -0.00016728797, -314672.9, -62208.563, 0.0, 10.001793, 9.901533 
4.835111e+3, 2.841318e+2, -228207.69, -318032.4, 0.33234444, 0.0003165566, 0.00026341504, -228207.69, -72699.1, 0.0, 10.001784, 9.884603 
4.8351103e+3, 2.9401746e+2, -128523.83, -217730.44, -3.6240304, 0.00031592554, -0.000219596, -128523.83, -69894.65, 0.0, 10.001775, 9.885382 
4.8351103e+3, 3.0393103e+2, -38826.84, -84763.17, 0.6304006, 0.00031455257, 0.00020454741, -38826.84, -38826.84, 0.0, 10.001765, 9.941314 
4.83511e+3, 3.1387424e+2, -37764.605, -82534.46, -3.5421658, 0.00031208136, -0.000028595878, -37764.605, -37764.605, 0.0, 10.001756, 9.942822 
4.8451197e+3, 1.2501407e+2, -1717498.4, -1724009.6, 3.7887294, 0.00034038333, 0.00010714911, -1717498.4, -2635.7612, 0.0, 10.002011, 9.9933815 
4.845119e+3, 1.3500729e+2, -1620149.5, -1627243.0, -0.9022153, 0.0003376327, -0.00007025388, -1620149.5, -3220.511, 0.0, 10.001999, 9.992598 
4.8451185e+3, 1.4499402e+2, -1532029.1, -1547887.8, 1.8725606, 0.00033589365, 0.00019233802, -1532029.1, -12970.064, 0.0, 10.0019865, 9.980971 
4.8451182e+3, 1.5497497e+2, -1434331.3, -1450584.1, -2.9445858, 0.0003351599, 0.0000039964216, -1434331.3, -13085.392, 0.0, 10.001974, 9.98044 
4.8451176e+3, 1.6494931e+2, -1346311.3, -1371743.3, 1.6339325, 0.0003340425, 0.000086404936, -1346311.3, -22814.014, 0.0, 10.001963, 9.968349 
4.8451173e+3, 1.7491771e+2, -1248382.3, -1274121.1, -3.6745682, 0.00033253743, -0.000017351633, -1248382.3, -22575.258, 0.0, 10.001951, 9.967936 
4.8451167e+3, 1.8487947e+2, -1160318.4, -1195534.8, 2.0419312, 0.00033120502, 0.00012747636, -1160318.4, -32136.809, 0.0, 10.00194, 9.955506 
4.845116e+3, 1.94835e+2, -1062196.1, -1097666.6, -3.1002216, 0.0003300512, -0.0000046178848, -1062196.1, -31578.781, 0.0, 10.001928, 9.955164 
4.8451158e+3, 2.0478389e+2, -974050.06, -1019275.56, 2.5233157, 0.00032891898, 0.00011690677, -974050.06, -40931.79, 0.0, 10.001918, 9.9424095 
4.8451152e+3, 2.1472633e+2, -875789.06, -921268.56, -2.5587106, 0.00032780968, -0.000077786, -875789.06, -40106.766, 0.0, 10.001907, 9.942068 
4.8451146e+3, 2.246621e+2, -787520.94, -843011.7, 3.0686517, 0.00032670048, 0.00016869756, -787520.94, -49209.05, 0.0, 10.001897, 9.929033 
4.8451144e+3, 2.3459119e+2, -689112.75, -744850.94, -1.8206162, 0.00032559075, -0.000043850527, -689112.75, -48106.047, 0.0, 10.001887, 9.928702 
4.8451144e+3, 2.4451333e+2, -600806.06, -666911.1, 3.6525252, 0.00032449412, 0.00011752638, -600806.06, -57036.457, 0.0, 10.001877, 9.915268 
4.8451138e+3, 2.544287e+2, -502077.84, -568252.6, -1.1364179, 0.0003234124, -0.00006523365, -502077.84, -55479.043, 0.0, 10.001867, 9.915168 
4.8451132e+3, 2.6433703e+2, -413861.1, -490909.03, 4.3701878, 0.00032234838, 0.0001802915, -413861.1, -64363.71, 0.0, 10.001858, 9.901099 
4.845113e+3, 2.7423868e+2, -314599.7, -391312.53, -0.16753066, 0.00032130632, -0.00016617669, -314599.7, -62138.49, 0.0, 10.001848, 9.90152 
4.845113e+3, 2.8413212e+2, -228134.36, -318010.63, 4.6659784, 0.0003204373, 0.00026461447, -228134.36, -72628.79, 0.0, 10.00184, 9.88459 
4.8451123e+3, 2.9401776e+2, -128451.15, -217709.11, 0.5880842, 0.00031980296, -0.00021847898, -128451.15, -69824.85, 0.0, 10.00183, 9.885369 
4.8451123e+3, 3.0393133e+2, -38756.203, -84744.73, 4.6060715, 0.000318436, 0.00020564544, -38756.203, -38756.203, 0.0, 10.001821, 9.941299 
4.8451117e+3, 3.138745e+2, -37694.31, -82516.375, 0.31104732, 0.00031598462, -0.000027420843, -37694.31, -37694.31, 0.0, 10.001811, 9.942808 
4.8551217e+3, 1.250146e+2, -1717509.0, -1724029.9, -0.88906306, 0.00034457137, 0.00010925447, -1717509.0, -2651.5415, 0.0, 10.002011, 9.993368 
4.855121e+3, 1.3500783e+2, -1620159.9, -1627263.0, -5.5809665, 0.00034180254, -0.0000694675, -1620159.9, -3236.0347, 0.0, 10.001999, 9.992585 
4.8551205e+3, 1.4499453e+2, -1532039.8, -1547908.3, -2.6191301, 0.0003400542, 0.00019292349, -1532039.8, -12985.603, 0.0, 10.0019865, 9.980959 
4.8551202e+3, 1.5497546e+2, -1434341.6, -1450604.5, -7.4355206, 0.00033931984, 0.0000054970715, -1434341.6, -13100.688, 0.0, 10.001975, 9.980427 
4.8551196e+3, 1.6494979e+2, -1346322.8, -1371765.5, -2.7567425, 0.00033818715, 0.00008815925, -1346322.8, -22830.197, 0.0, 10.001963, 9.968336 
4.8551193e+3, 1.7491816e+2, -1248393.5, -1274143.4, -8.064834, 0.0003366519, -0.000016014257, -1248393.5, -22591.162, 0.0, 10.001951, 9.967922 
4.8551187e+3, 1.8487993e+2, -1160329.4, -1195556.5, -2.0848331, 0.0003352673, 0.00012870488, -1160329.4, -32152.24, 0.0, 10.00194, 9.955493 
4.855118e+3, 1.9483545e+2, -1062207.0, -1097688.3, -7.225508, 0.00033403834, -0.0000031779264, -1062207.0, -31593.941, 0.0, 10.001928, 9.95515 
4.8551178e+3, 2.0478432e+2, -974060.9, -1019297.1, -1.3563774, 0.00033289875, 0.00011824982, -974060.9, -40946.766, 0.0, 10.001918, 9.942395 
4.8551172e+3, 2.1472675e+2, -875799.75, -921290.06, -6.4345703, 0.00033185515, -0.00007687193, -875799.75, -40121.473, 0.0, 10.001907, 9.942055 
4.8551166e+3, 2.246625e+2, -787531.4, -843032.8, -0.73301506, 0.00033075974, 0.00016970257, -787531.4, -49223.367, 0.0, 10.001898, 9.929019 
4.8551163e+3, 2.3459157e+2, -689123.06, -744871.9, -5.620066, 0.00032960545, -0.000042168722, -689123.06, -48120.098, 0.0, 10.001887, 9.928688 
4.8551157e+3, 2.4451372e+2, -600816.3, -666932.2, -0.002178703, 0.00032850986, 0.00011924079, -600816.3, -57050.336, 0.0, 10.001878, 9.915254 
4.8551157e+3, 2.5442907e+2, -502087.94, -568273.5, -4.7857356, 0.00032748358, -0.00006425362, -502087.94, -55492.656, 0.0, 10.001867, 9.915154 
4.855115e+3, 2.6433736e+2, -413870.97, -490929.6, 0.84311795, 0.0003263868, 0.00018104438, -413870.97, -64376.945, 0.0, 10.001858, 9.901086 
4.8551148e+3, 2.74239e+2, -314609.44, -391332.94, -3.6873522, 0.00032519997, -0.00016500578, -314609.44, -62151.457, 0.0, 10.001849, 9.901506 
4.8551148e+3, 2.8413242e+2, -228143.44, -318029.84, 1.126775, 0.0003242439, 0.00026590534, -228143.44, -72640.98, 0.0, 10.00184, 9.884577 
4.8551142e+3, 2.9401806e+2, -128460.05, -217728.08, -2.9543579, 0.00032360177, -0.00021747813, -128460.05, -69836.734, 0.0, 10.00183, 9.885357 
4.8551136e+3, 3.0393162e+2, -38765.945, -84765.52, 1.0361096, 0.00032230647, 0.00020661815, -38765.945, -38765.945, 0.0, 10.001821, 9.941285 
4.8551136e+3, 3.1387478e+2, -37704.164, -82537.41, -3.2626286, 0.00032004388, -0.000026084024, -37704.164, -37704.164, 0.0, 10.001811, 9.942794 
4.8651236e+3, 1.2501515e+2, -1717422.9, -1723998.4, 4.0023336, 0.0003488543, 0.00011071809, -1717422.8, -2570.7244, 0.0, 10.002071, 9.993356 
4.865123e+3, 1.3500836e+2, -1620074.6, -1627232.4, -0.8450958, 0.00034606212, -0.000068184214, -1620074.6, -3156.0247, 0.0, 10.002058, 9.992572 
4.8651224e+3, 1.4499506e+2, -1531955.4, -1547878.1, 2.2412927, 0.0003442494, 0.00019417536, -1531955.4, -12906.328, 0.0, 10.002046, 9.980946 
4.865122e+3, 1.5497597e+2, -1434258.3, -1450575.1, -2.574961, 0.00034340937, 0.0000068661006, -1434258.3, -13022.256, 0.0, 10.002033, 9.980414 
4.8651215e+3, 1.6495028e+2, -1346241.1, -1371739.0, 2.261329, 0.00034225165, 0.00008957701, -1346241.1, -22753.363, 0.0, 10.002022, 9.968322 
4.865121e+3, 1.7491865e+2, -1248312.3, -1274117.3, -3.112979, 0.00034077308, -0.000014617115, -1248312.3, -22514.576, 0.0, 10.002009, 9.967908 
4.8651206e+3, 1.8488039e+2, -1160248.4, -1195530.4, 3.0081463, 0.00033941885, 0.00013006032, -1160248.4, -32075.764, 0.0, 10.001999, 9.955479 
4.86512e+3, 1.948359e+2, -1062126.5, -1097662.8, -2.2905052, 0.00033819285, -0.0000018861313, -1062126.5, -31517.975, 0.0, 10.001987, 9.955136 
4.8651198e+3, 2.0478477e+2, -973981.1, -1019272.2, 3.6646814, 0.00033701523, 0.000119512784, -973981.1, -40871.32, 0.0, 10.001976, 9.942382 
4.8651192e+3, 2.1472718e+2, -875720.9, -921265.75, -1.5515378, 0.0003358894, -0.000075600365, -875720.9, -40046.78, 0.0, 10.0019655, 9.94204 
4.8651186e+3, 2.246629e+2, -787452.8, -843008.56, 4.192275, 0.000334767, 0.00017097991, -787452.8, -49148.855, 0.0, 10.001955, 9.929006 
4.8651183e+3, 2.3459196e+2, -689044.94, -744848.06, -0.7655627, 0.0003336478, -0.000040888746, -689044.94, -48045.883, 0.0, 10.0019455, 9.928675 
4.8651177e+3, 2.445141e+2, -600738.75, -666909.06, 4.87449, 0.00033257995, 0.00012050435, -600738.75, -56976.535, 0.0, 10.001935, 9.915239 
4.8651177e+3, 2.5442946e+2, -502011.0, -568250.94, -0.09343456, 0.00033157258, -0.00006302924, -502011.0, -55419.313, 0.0, 10.001925, 9.91514 
4.865117e+3, 2.6433775e+2, -413794.44, -490907.13, 5.466354, 0.00033044306, 0.0001822386, -413794.44, -64303.883, 0.0, 10.001916, 9.9010725 
4.8651168e+3, 2.7423936e+2, -314533.84, -391311.13, 0.79773104, 0.00032915786, -0.00016383007, -314533.84, -62079.215, 0.0, 10.001906, 9.901492 
4.8651162e+3, 2.8413275e+2, -228068.0, -318007.47, 5.4930453, 0.00032814726, 0.0002670383, -228068.0, -72568.734, 0.0, 10.001896, 9.884564 
4.8651162e+3, 2.9401836e+2, -128385.22, -217706.16, 1.2147074, 0.00032751053, -0.00021642141, -128385.22, -69764.984, 0.0, 10.001886, 9.885344 
4.8651156e+3, 3.0393192e+2, -38692.996, -84746.34, 4.9490504, 0.00032624076, 0.00020765104, -38692.996, -38692.996, 0.0, 10.001877, 9.941271 
4.8651153e+3, 3.1387505e+2, -37631.31, -82518.45, 0.5091974, 0.00032403317, -0.000024996387, -37631.31, -37631.31, 0.0, 10.001868, 9.94278 
4.8751256e+3, 1.250157e+2, -1717433.8, -1724019.3, -0.78752905, 0.00035322958, 0.00011157151, -1717433.8, -2587.101, 0.0, 10.002071, 9.993342 
4.875125e+3, 1.350089e+2, -1620085.5, -1627253.1, -5.6317234, 0.00035040922, -0.00006642632, -1620085.5, -3172.1482, 0.0, 10.002059, 9.992559 
4.8751244e+3, 1.4499559e+2, -1531965.9, -1547898.6, -2.3681293, 0.00034847952, 0.00019606315, -1531965.9, -12922.102, 0.0, 10.002047, 9.980933 
4.875124e+3, 1.5497649e+2, -1434268.6, -1450595.5, -7.186542, 0.0003474337, 0.000008110475, -1434268.6, -13037.775, 0.0, 10.002034, 9.980401 
4.8751235e+3, 1.6495079e+2, -1346252.6, -1371761.6, -2.1168172, 0.00034624164, 0.000090674905, -1346252.6, -22769.914, 0.0, 10.002022, 9.9683075 
4.875123e+3, 1.7491914e+2, -1248323.6, -1274139.8, -7.4906516, 0.00034490263, -0.000013161936, -1248323.6, -22530.854, 0.0, 10.00201, 9.967894 
4.8751226e+3, 1.8488087e+2, -1160259.8, -1195552.8, -1.1694981, 0.00034365754, 0.00013153774, -1160259.8, -32091.766, 0.0, 10.001999, 9.955464 
4.875122e+3, 1.9483636e+2, -1062137.8, -1097685.0, -6.4666243, 0.00034250904, -0.0000007347621, -1062137.8, -31533.695, 0.0, 10.001987, 9.955122 
4.8751217e+3, 2.047852e+2, -973992.2, -1019294.4, -0.32608417, 0.00034126404, 0.000120700286, -973992.2, -40886.805, 0.0, 10.001977, 9.942368 
4.875121e+3, 2.1472761e+2, -875731.8, -921287.8, -5.538531, 0.00033991493, -0.00007398668, -875731.8, -40061.996, 0.0, 10.001966, 9.942026 
4.8751205e+3, 2.2466332e+2, -787463.4, -843029.94, 0.38779807, 0.0003387265, 0.000172518, -787463.4, -49163.535, 0.0, 10.001956, 9.928991 
4.8751202e+3, 2.3459238e+2, -689055.4, -744869.3, -4.5674095, 0.00033771852, -0.000039991482, -689055.4, -48060.28, 0.0, 10.0019455, 9.92866 
4.8751196e+3, 2.4451448e+2, -600749.4, -666930.9, 1.1808274, 0.00033670387, 0.00012133849, -600749.4, -56990.99, 0.0, 10.001936, 9.915226 
4.875119e+3, 2.5442985e+2, -502021.47, -568272.6, -3.7804465, 0.00033568055, -0.000061570594, -502021.47, -55433.504, 0.0, 10.001925, 9.915126 
4.875119e+3, 2.643381e+2, -413804.6, -490928.25, 1.8117903, 0.0003345182, 0.00018385511, -413804.6, -64317.6, 0.0, 10.001916, 9.901058 
4.8751187e+3, 2.7423972e+2, -314543.8, -391332.1, -2.8570395, 0.000333179, -0.00016264894, -314543.8, -62092.64, 0.0, 10.001906, 9.901479 
4.875118e+3, 2.8413308e+2, -228077.42, -318027.4, 1.8923095, 0.00033214485, 0.00026802122, -228077.42, -72581.47, 0.0, 10.001897, 9.884551 
4.875118e+3, 2.9401872e+2, -128394.47, -217725.89, -2.3820703, 0.0003315262, -0.00021531049, -128394.47, -69777.414, 0.0, 10.001887, 9.885331 
4.8751175e+3, 3.0393222e+2, -38702.99, -84767.69, 1.382718, 0.00033023793, 0.0002087422, -38702.99, -38702.99, 0.0, 10.001878, 9.9412565 
4.8751172e+3, 3.1387538e+2, -37641.402, -82540.016, -3.0558307, 0.0003279575, -0.000024146117, -37641.402, -37641.402, 0.0, 10.001868, 9.942765 
4.8851278e+3, 1.2501629e+2, -1717345.9, -1723986.9, 4.0784736, 0.0003575132, 0.00011276209, -1717345.9, -2504.9075, 0.0, 10.002132, 9.99333 
4.885127e+3, 1.3500947e+2, -1619998.4, -1627221.3, -0.5852161, 0.0003546547, -0.00006478805, -1619998.4, -3090.5234, 0.0, 10.002119, 9.992547 
4.8851264e+3, 1.4499612e+2, -1531879.8, -1547868.0, 2.838438, 0.00035270074, 0.00019774593, -1531879.8, -12841.301, 0.0, 10.002107, 9.98092 
4.885126e+3, 1.5497702e+2, -1434183.3, -1450565.5, -2.2152112, 0.00035164432, 0.000009435189, -1434183.3, -12957.61, 0.0, 10.002094, 9.980389 
4.8851255e+3, 1.6495131e+2, -1346168.9, -1371734.1, 2.967656, 0.00035044312, 0.00009190319, -1346168.9, -22691.24, 0.0, 10.002082, 9.968293 
4.885125e+3, 1.7491965e+2, -1248240.5, -1274112.8, -2.5052872, 0.00034909655, -0.000011764791, -1248240.5, -22452.592, 0.0, 10.00207, 9.967879 
4.8851246e+3, 1.8488136e+2, -1160176.9, -1195526.1, 3.9404714, 0.00034785108, 0.00013294676, -1160176.9, -32013.73, 0.0, 10.002059, 9.95545 
4.885124e+3, 1.9483685e+2, -1062055.4, -1097658.9, -1.4605602, 0.00034670968, 0.00000052288453, -1062055.4, -31456.027, 0.0, 10.002048, 9.955108 
4.8851237e+3, 2.0478567e+2, -973910.3, -1019268.6, 4.7853975, 0.00034546189, 0.0001219719, -973910.3, -40809.41, 0.0, 10.002036, 9.942353 
4.885123e+3, 2.1472806e+2, -875650.6, -921262.6, -0.4744089, 0.00034409936, -0.000072523064, -875650.6, -39985.156, 0.0, 10.002026, 9.942012 
4.8851225e+3, 2.2466376e+2, -787382.6, -843005.2, 5.4885755, 0.000342888, 0.00017394416, -787382.6, -49087.063, 0.0, 10.002015, 9.928977 
4.8851222e+3, 2.3459281e+2, -688975.25, -744845.06, 0.21306367, 0.00034184632, -0.000038861275, -688975.25, -47984.277, 0.0, 10.002005, 9.928646 
4.8851216e+3, 2.445149e+2, -600669.6, -666906.8, 5.938667, 0.00034080184, 0.0001224095, -600669.6, -56915.234, 0.0, 10.001995, 9.915212 
4.8851216e+3, 2.5443023e+2, -501942.38, -568249.1, 1.0388962, 0.0003397532, -0.000060276936, -501942.38, -55358.24, 0.0, 10.001985, 9.915112 
4.885121e+3, 2.6433846e+2, -413725.97, -490905.3, 6.618208, 0.0003385904, 0.00018519706, -413725.97, -64242.695, 0.0, 10.001975, 9.901044 
4.8851207e+3, 2.7424008e+2, -314465.75, -391309.66, 1.6850617, 0.00033728222, -0.00016148039, -314465.75, -62018.098, 0.0, 10.0019655, 9.901464 
4.88512e+3, 2.8413346e+2, -227999.14, -318004.16, 6.2800813, 0.00033626214, 0.00026913825, -227999.14, -72506.6, 0.0, 10.001956, 9.884538 
4.8851195e+3, 2.9401904e+2, -128316.81, -217703.1, 1.8587774, 0.0003356342, -0.00021407791, -128316.81, -69703.05, 0.0, 10.0019455, 9.885318 
4.8851195e+3, 3.0393255e+2, -38627.49, -84747.91, 5.3445964, 0.00033429955, 0.00020992679, -38627.49, -38627.49, 0.0, 10.001936, 9.941242 
4.8851192e+3, 3.1387568e+2, -37566.4, -82520.67, 0.6109383, 0.00033191807, -0.00002325268, -37566.4, -37566.4, 0.0, 10.001926, 9.94275 
4.8951298e+3, 1.2501687e+2, -1717356.4, -1724007.0, -0.76012814, 0.0003617117, 0.00011427415, -1717356.4, -2521.1052, 0.0, 10.002132, 9.993318 
4.8951295e+3, 1.3501003e+2, -1620008.8, -1627241.3, -5.4256024, 0.00035880556, -0.00006326255, -1620008.6, -3106.4739, 0.0, 10.00212, 9.992535 
4.895129e+3, 1.4499669e+2, -1531890.9, -1547889.4, -1.8466753, 0.0003569156, 0.00019923484, -1531890.9, -12857.851, 0.0, 10.002107, 9.9809065 
4.895128e+3, 1.5497757e+2, -1434194.3, -1450586.8, -6.89954, 0.00035603432, 0.000010837393, -1434194.3, -12973.891, 0.0, 10.002094, 9.980375 
4.8951274e+3, 1.6495185e+2, -1346180.8, -1371757.3, -1.4337811, 0.00035484787, 0.00009325651, -1346180.8, -22708.236, 0.0, 10.002082, 9.968278 
4.8951268e+3, 1.7492017e+2, -1248252.1, -1274135.8, -6.906269, 0.0003533537, -0.000010421963, -1248252.1, -22469.31, 0.0, 10.00207, 9.967865 
4.8951265e+3, 1.8488187e+2, -1160188.4, -1195549.0, -0.2513695, 0.00035200367, 0.00013429161, -1160188.4, -32030.186, 0.0, 10.002059, 9.955436 
4.895126e+3, 1.9483735e+2, -1062066.8, -1097681.5, -5.6509724, 0.0003508023, 0.0000018827062, -1062066.8, -31472.2, 0.0, 10.002048, 9.955092 
4.8951256e+3, 2.0478615e+2, -973921.5, -1019291.0, 0.73373055, 0.00034961328, 0.00012332456, -973921.5, -40825.227, 0.0, 10.002037, 9.942339 
4.895125e+3, 2.1472852e+2, -875661.6, -921284.9, -4.524667, 0.0003484373, -0.000071201415, -875661.6, -40000.688, 0.0, 10.002026, 9.941998 
4.8951244e+3, 2.246642e+2, -787393.8, -843027.9, 1.641402, 0.00034724394, 0.0001752647, -787393.8, -49102.613, 0.0, 10.002015, 9.928963 
4.895124e+3, 2.3459323e+2, -688986.3, -744867.6, -3.626996, 0.00034603052, -0.000037508195, -688986.3, -47999.547, 0.0, 10.002006, 9.928632 
4.8951235e+3, 2.445153e+2, -600680.1, -666928.44, 2.2016983, 0.00034487704, 0.00012370708, -600680.1, -56929.8, 0.0, 10.001995, 9.915197 
4.8951235e+3, 2.5443062e+2, -501952.72, -568270.56, -2.6963563, 0.0003437942, -0.000059139646, -501952.72, -55372.508, 0.0, 10.001986, 9.915097 
4.895123e+3, 2.6433888e+2, -413736.6, -490927.44, 2.9454393, 0.00034266178, 0.00018627824, -413736.6, -64257.094, 0.0, 10.001975, 9.90103 
4.8951226e+3, 2.7424043e+2, -314476.22, -391331.66, -1.9833417, 0.00034146575, -0.00016032295, -314476.22, -62032.234, 0.0, 10.0019655, 9.90145 
4.895122e+3, 2.841338e+2, -228008.83, -318024.72, 2.627377, 0.00034049564, 0.00027038393, -228008.83, -72519.81, 0.0, 10.001956, 9.884523 
4.8951215e+3, 2.9401937e+2, -128326.32, -217723.39, -1.7933377, 0.0003398324, -0.00021272842, -128326.32, -69715.93, 0.0, 10.001946, 9.8853035 
4.8951215e+3, 3.039329e+2, -38637.977, -84770.33, 1.691136, 0.00033842467, 0.00021120135, -38637.977, -38637.977, 0.0, 10.001937, 9.941227 
4.8951212e+3, 3.1387597e+2, -37577.02, -82543.37, -3.0441263, 0.0003359152, -0.000022317317, -37577.02, -37577.02, 0.0, 10.001926, 9.942735 
4.9051318e+3, 1.2501746e+2, -1717267.0, -1723973.8, 4.367007, 0.00036598154, 0.000115943316, -1717267.0, -2437.5288, 0.0, 10.002194, 9.993305 
4.9051315e+3, 1.3501061e+2, -1619919.9, -1627208.6, -0.50511783, 0.00036305925, -0.000061940154, -1619919.9, -3023.4106, 0.0, 10.002181, 9.992521 
4.905131e+3, 1.4499727e+2, -1531802.9, -1547858.3, 3.1906855, 0.00036119466, 0.000200483, -1531802.9, -12775.545, 0.0, 10.002169, 9.980893 
4.9051303e+3, 1.5497814e+2, -1434106.5, -1450555.9, -1.8701835, 0.00036037993, 0.000012282778, -1434106.5, -12891.699, 0.0, 10.002156, 9.980362 
4.90513e+3, 1.649524e+2, -1346094.5, -1371728.9, 3.7619543, 0.000359193, 0.00009475183, -1346094.5, -22627.398, 0.0, 10.002144, 9.968264 
4.9051294e+3, 1.749207e+2, -1248166.8, -1274108.0, -1.8257856, 0.0003576305, -0.000009025751, -1248166.8, -22389.19, 0.0, 10.002132, 9.96785 
4.9051285e+3, 1.8488239e+2, -1160103.6, -1195521.8, 4.9658384, 0.00035623251, 0.00013565588, -1160103.6, -31950.53, 0.0, 10.00212, 9.955421 
4.905128e+3, 1.9483782e+2, -1061982.8, -1097654.9, -0.55337715, 0.00035500436, 0.0000032847886, -1061982.8, -31393.066, 0.0, 10.002109, 9.955078 
4.9051276e+3, 2.0478664e+2, -973837.7, -1019264.56, 5.903556, 0.00035383157, 0.00012467905, -973837.7, -40746.195, 0.0, 10.002098, 9.942324 
4.905127e+3, 2.1472898e+2, -875578.06, -921258.8, 0.47650212, 0.00035271802, -0.000069986374, -875578.06, -39921.727, 0.0, 10.002088, 9.941983 
4.9051264e+3, 2.2466466e+2, -787310.7, -843002.4, 6.7027674, 0.00035153434, 0.00017650735, -787310.7, -49023.94, 0.0, 10.002077, 9.928948 
4.905126e+3, 2.3459367e+2, -688903.94, -744842.75, 1.4228112, 0.0003502711, -0.000036049874, -688903.94, -47921.492, 0.0, 10.002067, 9.9286175 
4.905126e+3, 2.4451573e+2, -600598.1, -666903.7, 7.2373185, 0.0003490748, 0.00012514713, -600598.1, -56852.004, 0.0, 10.002056, 9.915183 
4.9051255e+3, 2.5443104e+2, -501871.34, -568246.4, 2.019973, 0.00034795757, -0.000057996156, -501871.34, -55295.195, 0.0, 10.002046, 9.915083 
4.905125e+3, 2.6433927e+2, -413655.72, -490903.84, 7.567496, 0.0003468201, 0.00018731804, -413655.72, -64180.133, 0.0, 10.002036, 9.901015 
4.9051246e+3, 2.7424082e+2, -314395.75, -391308.53, 2.5785546, 0.00034565624, -0.0001591417, -314395.75, -61955.54, 0.0, 10.002027, 9.901435 
4.905124e+3, 2.8413418e+2, -227928.05, -318000.63, 7.117084, 0.00034469995, 0.000271642, -227928.05, -72442.65, 0.0, 10.002017, 9.88451 
4.905124e+3, 2.9401976e+2, -128246.07, -217699.73, 2.5596378, 0.0003440253, -0.0002114831, -128246.07, -69639.164, 0.0, 10.0020075, 9.88529 
4.9051234e+3, 3.0393323e+2, -38559.97, -84750.06, 5.7775383, 0.00034259818, 0.00021240661, -38559.97, -38559.97, 0.0, 10.001997, 9.941211 
4.905123e+3, 3.138763e+2, -37499.332, -82523.5, 0.81356055, 0.00034005792, -0.000021191176, -37499.332, -37499.332, 0.0, 10.001987, 9.9427185 
4.9151343e+3, 1.2501808e+2, -1717277.9, -1723994.8, -0.5100341, 0.00037032127, 0.000117762655, -1717277.9, -2454.4507, 0.0, 10.002194, 9.993292 
4.9151337e+3, 1.3501121e+2, -1619930.8, -1627229.5, -5.3828597, 0.0003674127, -0.000060809733, -1619930.6, -3040.0676, 0.0, 10.002181, 9.992509 
4.9151328e+3, 1.4499785e+2, -1531814.0, -1547879.8, -1.4390323, 0.0003655368, 0.00020150344, -1531814.0, -12792.34, 0.0, 10.002169, 9.98088 
4.9151322e+3, 1.5497869e+2, -1434117.5, -1450577.3, -6.4991536, 0.00036468558, 0.000013770226, -1434117.5, -12908.237, 0.0, 10.002156, 9.980349 
4.915132e+3, 1.6495295e+2, -1346106.5, -1371752.4, -0.7345681, 0.0003634837, 0.00009638309, -1346106.5, -22644.893, 0.0, 10.002144, 9.968248 
4.9151313e+3, 1.7492124e+2, -1248178.8, -1274131.4, -6.3224444, 0.00036192808, -0.0000075778194, -1248178.8, -22406.393, 0.0, 10.002132, 9.967835 
4.9151307e+3, 1.8488291e+2, -1160115.5, -1195545.1, 0.7234942, 0.00036053595, 0.00013703963, -1160115.5, -31967.469, 0.0, 10.002121, 9.955406 
4.9151304e+3, 1.9483835e+2, -1061994.4, -1097678.0, -4.7939644, 0.0003593126, 0.000004728058, -1061994.4, -31409.715, 0.0, 10.00211, 9.955063 
4.9151298e+3, 2.0478712e+2, -973849.2, -1019287.7, 1.9107636, 0.00035811556, 0.00012603626, -973849.2, -40762.59, 0.0, 10.002098, 9.942309 
4.9151295e+3, 2.1472947e+2, -875589.44, -921281.75, -3.512599, 0.00035694655, -0.00006887186, -875589.44, -39937.832, 0.0, 10.002088, 9.941968 
4.915129e+3, 2.2466514e+2, -787321.9, -843025.1, 2.7853017, 0.0003557646, 0.00017767685, -787321.9, -49039.742, 0.0, 10.002077, 9.928933 
4.9151284e+3, 2.3459414e+2, -688915.0, -744865.4, -2.4927435, 0.00035456748, -0.000034490346, -688915.0, -47937.004, 0.0, 10.002067, 9.928602 
4.915128e+3, 2.4451618e+2, -600609.25, -666926.56, 3.454459, 0.00035339137, 0.00012672377, -600609.25, -56867.406, 0.0, 10.002056, 9.915168 
4.9151275e+3, 2.544315e+2, -501882.3, -568269.06, -1.7577429, 0.00035223956, -0.00005684593, -501882.3, -55310.31, 0.0, 10.002047, 9.915069 
4.915127e+3, 2.6433966e+2, -413666.47, -490926.28, 3.9091377, 0.00035106333, 0.00018831926, -413666.47, -64194.87, 0.0, 10.002036, 9.901 
4.9151266e+3, 2.742412e+2, -314406.34, -391330.78, -1.0732617, 0.00034985543, -0.00015793685, -314406.34, -61969.984, 0.0, 10.002027, 9.901421 
4.915126e+3, 2.8413457e+2, -227937.97, -318021.7, 3.4379268, 0.0003488786, 0.00027291273, -227937.97, -72456.3, 0.0, 10.002017, 9.884496 
4.915126e+3, 2.9402012e+2, -128255.805, -217720.56, -1.1232309, 0.0003482153, -0.00021033616, -128255.805, -69652.49, 0.0, 10.0020075, 9.885276 
4.9151254e+3, 3.0393356e+2, -38570.84, -84773.32, 2.0822642, 0.00034682, 0.00021354672, -38570.84, -38570.84, 0.0, 10.001998, 9.9411955 
4.915125e+3, 3.1387666e+2, -37510.35, -82547.06, -2.8835201, 0.00034434156, -0.000019882407, -37510.35, -37510.35, 0.0, 10.001987, 9.942702 
4.925137e+3, 1.250187e+2, -1717186.4, -1723961.0, 4.60394, 0.00037471813, 0.00011926008, -1717186.4, -2369.0393, 0.0, 10.002258, 9.9932785 
4.9251357e+3, 1.3501184e+2, -1619839.8, -1627196.1, -0.3997492, 0.00037181168, -0.00005936795, -1619839.8, -2955.0786, 0.0, 10.002245, 9.992496 
4.9251354e+3, 1.4499845e+2, -1531723.8, -1547847.4, 3.7008734, 0.0003699032, 0.0002029235, -1531723.8, -12708.016, 0.0, 10.002232, 9.980866 
4.9251348e+3, 1.5497929e+2, -1434028.1, -1450545.6, -1.3720534, 0.00036898445, 0.000015202257, -1434028.1, -12824.661, 0.0, 10.002219, 9.980334 
4.9251342e+3, 1.6495351e+2, -1346019.0, -1371723.6, 4.548799, 0.00036777175, 0.00009782227, -1346019.0, -22562.94, 0.0, 10.002207, 9.968234 
4.9251333e+3, 1.749218e+2, -1248091.4, -1274103.1, -1.1664429, 0.0003662627, -0.0000061363194, -1248091.4, -22324.58, 0.0, 10.002195, 9.96782 
4.9251327e+3, 1.8488346e+2, -1160028.4, -1195517.0, 6.008066, 0.0003648997, 0.0001384615, -1160028.4, -31885.72, 0.0, 10.002184, 9.955391 
4.9251324e+3, 1.9483888e+2, -1061907.8, -1097650.5, 0.35960338, 0.00036368717, 0.000006107527, -1061907.8, -31328.256, 0.0, 10.002172, 9.955049 
4.9251318e+3, 2.0478764e+2, -973763.06, -1019260.56, 7.1449285, 0.0003624621, 0.0001273872, -973763.06, -40681.477, 0.0, 10.002161, 9.942294 
4.9251312e+3, 2.1472996e+2, -875504.1, -921255.25, 1.5673139, 0.00036122327, -0.00006753453, -875504.1, -39857.375, 0.0, 10.002151, 9.941954 
4.925131e+3, 2.246656e+2, -787236.9, -842998.9, 7.8943615, 0.0003600223, 0.00017899631, -787236.9, -48959.434, 0.0, 10.00214, 9.928919 
4.9251303e+3, 2.3459458e+2, -688830.2, -744839.44, 2.5153875, 0.0003588633, -0.000033193493, -688830.2, -47856.81, 0.0, 10.00213, 9.928588 
4.92513e+3, 2.4451663e+2, -600524.9, -666901.3, 8.4623995, 0.0003577173, 0.00012801256, -600524.9, -56787.47, 0.0, 10.002119, 9.915153 
4.9251294e+3, 2.544319e+2, -501798.44, -568244.3, 3.0914788, 0.0003565861, -0.000055547993, -501798.44, -55230.703, 0.0, 10.00211, 9.915053 
4.9251288e+3, 2.643401e+2, -413582.9, -490901.75, 8.700036, 0.0003553969, 0.00018960341, -413582.9, -64115.438, 0.0, 10.002099, 9.900985 
4.9251285e+3, 2.7424163e+2, -314323.5, -391306.84, 3.5359733, 0.00035413366, -0.00015669545, -314323.5, -61891.105, 0.0, 10.0020895, 9.901405 
4.9251285e+3, 2.8413495e+2, -227854.95, -317997.0, 7.896958, 0.00035312254, 0.00027410057, -227854.95, -72377.11, 0.0, 10.00208, 9.884481 
4.925128e+3, 2.9402047e+2, -128173.195, -217696.22, 3.1539004, 0.00035245388, -0.00020921677, -128173.195, -69573.57, 0.0, 10.002069, 9.885262 
4.9251273e+3, 3.0393392e+2, -38490.316, -84752.37, 6.1116066, 0.00035107636, 0.00021466108, -38490.316, -38490.316, 0.0, 10.00206, 9.941179 
4.925127e+3, 3.13877e+2, -37429.83, -82526.35, 1.0043628, 0.00034865004, -0.00001867835, -37429.83, -37429.83, 0.0, 10.00205, 9.942686 
4.9351385e+3, 1.2501934e+2, -1717197.6, -1723982.5, -0.28884417, 0.0003791713, 0.00012045357, -1717197.6, -2386.5083, 0.0, 10.002258, 9.993265 
4.9351382e+3, 1.3501246e+2, -1619850.8, -1627217.6, -5.2900257, 0.00037625612, -0.0000576299, -1619850.8, -2972.286, 0.0, 10.002245, 9.992482 
4.9351376e+3, 1.4499907e+2, -1531734.9, -1547868.9, -1.0205443, 0.00037429482, 0.0002047234, -1531734.9, -12725.082, 0.0, 10.002233, 9.980853 
4.9351367e+3, 1.5497988e+2, -1434039.1, -1450567.0, -6.0954947, 0.0003732791, 0.00001658269, -1434039.1, -12841.459, 0.0, 10.002219, 9.980321 
4.935136e+3, 1.649541e+2, -1346031.3, -1371747.8, 0.09567898, 0.0003720595, 0.00009908031, -1346031.3, -22580.945, 0.0, 10.002208, 9.968219 
4.9351358e+3, 1.7492238e+2, -1248103.6, -1274127.0, -5.6185975, 0.0003706348, -0.0000046998884, -1248103.6, -22342.293, 0.0, 10.002195, 9.967805 
4.9351352e+3, 1.84884e+2, -1160040.5, -1195540.9, 1.7742784, 0.0003693229, 0.00013992054, -1160040.5, -31903.176, 0.0, 10.002184, 9.955376 
4.9351346e+3, 1.9483942e+2, -1061919.6, -1097674.1, -3.8725562, 0.000368127, 0.0000074274108, -1061919.6, -31345.414, 0.0, 10.002172, 9.955033 
4.9351338e+3, 2.0478816e+2, -973774.9, -1019284.3, 3.0716512, 0.00036687028, 0.00012873323, -973774.9, -40698.42, 0.0, 10.002162, 9.942279 
4.9351332e+3, 2.1473049e+2, -875515.8, -921278.9, -2.5029643, 0.00036554795, -0.00006598461, -875515.8, -39874.027, 0.0, 10.002151, 9.941938 
4.935133e+3, 2.246661e+2, -787248.3, -843022.06, 4.0260067, 0.00036430822, 0.0001804591, -787248.3, -48975.66, 0.0, 10.00214, 9.928904 
4.9351323e+3, 2.3459508e+2, -688841.5, -744862.5, -1.3492544, 0.00036316077, -0.0000321453, -688841.5, -47872.74, 0.0, 10.00213, 9.928573 
4.935132e+3, 2.4451709e+2, -600536.3, -666924.8, 4.6812525, 0.00036205444, 0.00012902883, -600536.3, -56803.4, 0.0, 10.00212, 9.915137 
4.935132e+3, 2.5443235e+2, -501809.7, -568267.7, -0.68500143, 0.00036099623, -0.00005410866, -501809.7, -55246.344, 0.0, 10.00211, 9.915038 
4.9351314e+3, 2.6434052e+2, -413593.97, -490924.9, 4.9873266, 0.00035981872, 0.00019115744, -413593.97, -64130.742, 0.0, 10.0021, 9.90097 
4.9351308e+3, 2.7424204e+2, -314334.4, -391329.84, -0.17450137, 0.00035848925, -0.0001554184, -314334.4, -61906.1, 0.0, 10.0020895, 9.90139 
4.9351305e+3, 2.8413534e+2, -227865.2, -318018.75, 4.221967, 0.0003574308, 0.00027521048, -227865.2, -72391.29, 0.0, 10.00208, 9.884467 
4.93513e+3, 2.9402086e+2, -128183.24, -217717.73, -0.5191244, 0.00035674078, -0.00020812273, -128183.24, -69587.414, 0.0, 10.00207, 9.885247 
4.9351293e+3, 3.0393434e+2, -38501.426, -84776.164, 2.4568214, 0.00035536784, 0.00021575179, -38501.426, -38501.426, 0.0, 10.002061, 9.941163 
4.9351293e+3, 3.1387734e+2, -37441.08, -82550.44, -2.6500545, 0.0003529844, -0.000017573064, -37441.08, -37441.08, 0.0, 10.00205, 9.94267 
4.945141e+3, 1.2502e+2, -1717104.3, -1723947.8, 4.766975, 0.0003836204, 0.00012184605, -1717104.3, -2299.5076, 0.0, 10.002322, 9.993252 
4.9451405e+3, 1.3501309e+2, -1619758.1, -1627183.4, -0.12530689, 0.00038065968, -0.000056029916, -1619758.1, -2885.8174, 0.0, 10.00231, 9.992469 
4.9451396e+3, 1.449997e+2, -1531643.0, -1547836.0, 4.30945, 0.00037869078, 0.00020633533, -1531643.0, -12639.345, 0.0, 10.002296, 9.980839 
4.9451393e+3, 1.549805e+2, -1433947.6, -1450534.5, -0.9817782, 0.0003777051, 0.0000180114, -1433947.6, -12756.006, 0.0, 10.002284, 9.980308 
4.9451387e+3, 1.6495469e+2, -1345941.5, -1371718.1, 5.343997, 0.00037649297, 0.00010044646, -1345941.5, -22496.95, 0.0, 10.002272, 9.968204 
4.9451378e+3, 1.7492296e+2, -1248014.3, -1274097.9, -0.45320588, 0.00037505318, -0.0000032740472, -1248014.3, -22258.629, 0.0, 10.00226, 9.96779 
4.9451372e+3, 1.8488456e+2, -1159951.5, -1195512.3, 7.07844, 0.00037372683, 0.00014135089, -1159951.5, -31819.74, 0.0, 10.002249, 9.95536 
4.9451366e+3, 1.9483997e+2, -1061831.1, -1097646.0, 1.3102454, 0.0003725171, 0.000008804927, -1061831.1, -31262.303, 0.0, 10.002237, 9.955018 
4.9451363e+3, 2.047887e+2, -973686.7, -1019256.44, 8.344438, 0.00037126645, 0.0001301193, -973686.7, -40615.445, 0.0, 10.002226, 9.942264 
4.9451357e+3, 2.1473101e+2, -875427.94, -921251.44, 2.687031, 0.00036997144, -0.000064523934, -875427.94, -39791.27, 0.0, 10.002215, 9.941923 
4.945135e+3, 2.2466661e+2, -787160.8, -842995.06, 9.243211, 0.00036872996, 0.00018186551, -787160.8, -48893.105, 0.0, 10.002205, 9.928888 
4.9451348e+3, 2.3459557e+2, -688754.56, -744836.06, 3.5978022, 0.00036754803, -0.00003093814, -688754.56, -47790.598, 0.0, 10.002194, 9.928557 
4.9451342e+3, 2.4451756e+2, -600449.7, -666898.75, 9.601078, 0.0003664311, 0.00013020773, -600449.7, -56721.43, 0.0, 10.002184, 9.915122 
4.945134e+3, 2.5443283e+2, -501723.44, -568242.06, 4.212313, 0.0003653906, -0.000052754734, -501723.44, -55164.57, 0.0, 10.002174, 9.915022 
4.9451333e+3, 2.6434097e+2, -413508.06, -490899.8, 9.846721, 0.0003642253, 0.000192545, -413508.06, -64049.156, 0.0, 10.002164, 9.900954 
4.9451327e+3, 2.7424246e+2, -314248.9, -391305.22, 4.4558954, 0.00036290108, -0.00015417671, -314248.9, -61824.797, 0.0, 10.002154, 9.901375 
4.9451324e+3, 2.8413576e+2, -227779.34, -317993.2, 8.699957, 0.00036184324, 0.0002763879, -227779.34, -72309.47, 0.0, 10.002145, 9.884453 
4.9451318e+3, 2.9402128e+2, -128097.84, -217692.55, 3.7832623, 0.00036114754, -0.00020689772, -128097.84, -69505.914, 0.0, 10.002135, 9.885233 
4.9451318e+3, 3.039347e+2, -38418.285, -84754.516, 6.480888, 0.00035974715, 0.00021693963, -38418.28, -38418.28, 0.0, 10.002125, 9.941146 
4.9451312e+3, 3.138777e+2, -37358.137, -82529.14, 1.1213851, 0.00035730426, -0.000016548083, -37358.137, -37358.137, 0.0, 10.002115, 9.942654 
4.9551436e+3, 1.2502065e+2, -1717115.1, -1723968.8, -0.16084498, 0.00038806797, 0.00012342766, -1717115.1, -2316.966, 0.0, 10.002323, 9.993239 
4.9551424e+3, 1.3501374e+2, -1619768.9, -1627204.4, -5.0550056, 0.0003850268, -0.000054559525, -1619768.9, -2903.0159, 0.0, 10.00231, 9.9924555 
4.955142e+3, 1.4500032e+2, -1531654.5, -1547858.4, -0.39691105, 0.0003830932, 0.00020777051, -1531654.5, -12657.144, 0.0, 10.002296, 9.980824 
4.9551415e+3, 1.5498112e+2, -1433959.1, -1450556.9, -5.6873426, 0.00038225774, 0.000019486837, -1433959.1, -12773.527, 0.0, 10.002284, 9.980293 
4.9551407e+3, 1.649553e+2, -1345953.9, -1371742.5, 0.892817, 0.00038106687, 0.00010191591, -1345953.9, -22515.37, 0.0, 10.002272, 9.968188 
4.95514e+3, 1.7492355e+2, -1248026.5, -1274122.1, -4.9040728, 0.00037951776, -0.0000018572418, -1248026.5, -22276.756, 0.0, 10.00226, 9.967774 
4.9551398e+3, 1.8488514e+2, -1159963.8, -1195536.6, 2.8467307, 0.00037811484, 0.00014275509, -1159963.8, -31837.69, 0.0, 10.002249, 9.955345 
4.9551392e+3, 1.9484054e+2, -1061843.3, -1097670.3, -2.9197123, 0.00037686244, 0.000010238046, -1061843.3, -31279.95, 0.0, 10.002237, 9.955002 
4.9551386e+3, 2.0478925e+2, -973698.7, -1019280.56, 4.298186, 0.0003756535, 0.00013154431, -973698.7, -40632.797, 0.0, 10.002226, 9.942248 
4.9551377e+3, 2.1473154e+2, -875439.75, -921275.4, -1.3570758, 0.00037449098, -0.000063146836, -875439.75, -39808.316, 0.0, 10.002215, 9.941907 
4.955137e+3, 2.2466713e+2, -787172.75, -843019.4, 5.354747, 0.00037328285, 0.00018321953, -787172.75, -48910.105, 0.0, 10.002205, 9.928872 
4.9551368e+3, 2.3459607e+2, -688766.3, -744860.2, -0.28565088, 0.0003720228, -0.000029579276, -688766.3, -47807.297, 0.0, 10.002194, 9.928541 
4.9551362e+3, 2.4451806e+2, -600461.1, -666922.4, 5.8550234, 0.00037084753, 0.00013154175, -600461.1, -56737.63, 0.0, 10.002185, 9.915107 
4.955136e+3, 2.5443327e+2, -501734.72, -568265.5, 0.4702082, 0.0003697723, -0.000051480896, -501734.72, -55180.46, 0.0, 10.002174, 9.915007 
4.9551353e+3, 2.6434144e+2, -413519.53, -490923.8, 6.150105, 0.0003686198, 0.00019377562, -413519.53, -64065.086, 0.0, 10.002165, 9.900939 
4.9551353e+3, 2.742429e+2, -314260.25, -391329.13, 0.7618868, 0.0003673686, -0.00015296765, -314260.25, -61840.434, 0.0, 10.002154, 9.901359 
4.9551347e+3, 2.841362e+2, -227789.9, -318015.66, 5.0254607, 0.00036635692, 0.0002776303, -227789.9, -72324.17, 0.0, 10.002145, 9.884438 
4.9551344e+3, 2.9402167e+2, -128108.2, -217714.75, 0.10959242, 0.00036567048, -0.00020554746, -128108.2, -69520.266, 0.0, 10.002135, 9.885219 
4.9551338e+3, 3.0393508e+2, -38429.824, -84779.25, 2.8203554, 0.0003642122, 0.00021822058, -38429.824, -38429.824, 0.0, 10.002126, 9.94113 
4.9551332e+3, 3.138781e+2, -37369.832, -82554.195, -2.5395386, 0.00036161265, -0.00001559859, -37369.832, -37369.832, 0.0, 10.002115, 9.9426365 
4.9651456e+3, 1.2502134e+2, -1717020.1, -1723933.3, 5.057942, 0.00039255078, 0.00012504056, -1717020.1, -2228.5527, 0.0, 10.002389, 9.993226 
4.965145e+3, 1.3501441e+2, -1619674.3, -1627169.3, -0.03212252, 0.0003895085, -0.000053165066, -1619674.3, -2814.8765, 0.0, 10.002376, 9.992442 
4.9651444e+3, 1.4500098e+2, -1531560.8, -1547824.8, 4.7888308, 0.00038758622, 0.00020913364, -1531560.8, -12569.665, 0.0, 10.002362, 9.980811 
4.9651435e+3, 1.5498176e+2, -1433865.5, -1450523.6, -0.49763247, 0.00038677422, 0.000021004633, -1433865.5, -12686.207, 0.0, 10.00235, 9.980279 
4.9651432e+3, 1.6495593e+2, -1345862.0, -1371712.1, 6.2520204, 0.00038558056, 0.00010345666, -1345862.0, -22429.51, 0.0, 10.002338, 9.968172 
4.9651426e+3, 1.7492417e+2, -1247935.1, -1274092.4, 0.30692604, 0.00038400223, -0.00000042660912, -1247935.1, -22191.318, 0.0, 10.002326, 9.967758 
4.965142e+3, 1.8488574e+2, -1159872.8, -1195507.3, 8.187317, 0.00038258312, 0.00014415276, -1159872.8, -31752.492, 0.0, 10.002315, 9.95533 
4.965141e+3, 1.9484112e+2, -1061752.6, -1097641.3, 2.3049188, 0.00038132805, 0.0000116827405, -1061752.6, -31195.006, 0.0, 10.002303, 9.954987 
4.9651405e+3, 2.0478982e+2, -973608.3, -1019252.0, 9.604685, 0.00038012807, 0.00013296673, -973608.3, -40547.906, 0.0, 10.002293, 9.942232 
4.9651402e+3, 2.1473207e+2, -875349.6, -921247.2, 3.7741199, 0.00037898705, -0.00006182117, -875349.6, -39723.508, 0.0, 10.002282, 9.941892 
4.9651396e+3, 2.2466767e+2, -787082.9, -842991.75, 10.51541, 0.00037779365, 0.00018453962, -787082.9, -48825.42, 0.0, 10.002272, 9.928857 
4.965139e+3, 2.3459658e+2, -688676.9, -744833.0, 4.807728, 0.00037654067, -0.000028162229, -688676.9, -47722.875, 0.0, 10.002261, 9.928526 
4.9651387e+3, 2.4451855e+2, -600371.94, -666895.44, 10.93968, 0.00037535065, 0.00013294347, -600371.94, -56653.313, 0.0, 10.002251, 9.915091 
4.965138e+3, 2.5443375e+2, -501646.06, -568239.06, 5.299302, 0.00037423466, -0.000050227914, -501646.06, -55096.504, 0.0, 10.002241, 9.914991 
4.9651378e+3, 2.643419e+2, -413431.25, -490898.06, 10.88831, 0.00037307647, 0.00019496527, -413431.25, -63981.36, 0.0, 10.002231, 9.900923 
4.9651372e+3, 2.7424338e+2, -314172.22, -391303.75, 5.384829, 0.00037186395, -0.00015173286, -314172.22, -61756.785, 0.0, 10.002221, 9.901342 
4.9651366e+3, 2.8413662e+2, -227701.3, -317989.2, 9.545454, 0.00037087247, 0.00027889365, -227701.3, -72239.81, 0.0, 10.002212, 9.884422 
4.9651363e+3, 2.9402208e+2, -128019.94, -217688.64, 4.480446, 0.00037018076, -0.00020427891, -128019.94, -69436.1, 0.0, 10.002202, 9.885203 
4.9651358e+3, 3.039355e+2, -38343.934, -84757.01, 6.9041705, 0.00036870837, 0.00021944485, -38343.93, -38343.93, 0.0, 10.0021925, 9.9411125 
4.9651358e+3, 3.1387848e+2, -37284.164, -82532.34, 1.2795542, 0.000366082, -0.000014490882, -37284.164, -37284.164, 0.0, 10.002183, 9.942618 
4.9751478e+3, 1.2502204e+2, -1717031.5, -1723955.3, 0.15395036, 0.00039706926, 0.00012668414, -1717031.5, -2246.7124, 0.0, 10.002389, 9.993212 
4.9751475e+3, 1.3501509e+2, -1619685.5, -1627191.1, -4.935637, 0.00039410088, -0.000051841384, -1619685.5, -2832.764, 0.0, 10.002376, 9.992429 
4.975147e+3, 1.4500165e+2, -1531572.3, -1547847.1, 0.13527067, 0.0003921673, 0.00021042961, -1531572.3, -12587.688, 0.0, 10.002363, 9.980797 
4.975146e+3, 1.5498242e+2, -1433876.9, -1450545.9, -5.15098, 0.00039125892, 0.000022563525, -1433876.9, -12703.961, 0.0, 10.002351, 9.980266 
4.9751455e+3, 1.6495657e+2, -1345874.8, -1371737.1, 1.7833772, 0.00039003984, 0.00010506586, -1345874.8, -22448.5, 0.0, 10.002338, 9.968157 
4.9751452e+3, 1.7492478e+2, -1247947.8, -1274117.3, -4.161815, 0.0003885079, 0.0000010181062, -1247947.8, -22210.0, 0.0, 10.002326, 9.967743 
4.975144e+3, 1.8488635e+2, -1159885.3, -1195532.1, 3.9774501, 0.00038712975, 0.00014554526, -1159885.3, -31770.92, 0.0, 10.002315, 9.955314 
4.9751437e+3, 1.9484168e+2, -1061765.0, -1097666.0, -1.9035214, 0.00038590987, 0.000013139424, -1061765.0, -31213.123, 0.0, 10.002303, 9.954971 
4.975143e+3, 2.0479037e+2, -973620.6, -1019276.8, 5.6218452, 0.00038468785, 0.0001343877, -973620.6, -40565.848, 0.0, 10.002293, 9.942217 
4.9751425e+3, 2.1473263e+2, -875361.8, -921271.9, -0.20544569, 0.0003834633, -0.000060543236, -875361.8, -39741.14, 0.0, 10.002282, 9.941875 
4.9751422e+3, 2.246682e+2, -787094.94, -843016.3, 6.649699, 0.00038226706, 0.00018582858, -787094.94, -48842.785, 0.0, 10.002272, 9.928841 
4.9751416e+3, 2.345971e+2, -688688.8, -744857.44, 0.94470966, 0.0003811019, -0.00002668905, -688688.8, -47739.92, 0.0, 10.002261, 9.92851 
4.9751407e+3, 2.4451905e+2, -600383.9, -666920.1, 7.189591, 0.00037993834, 0.00013441034, -600383.9, -56670.227, 0.0, 10.002251, 9.915075 
4.97514e+3, 2.5443426e+2, -501657.84, -568263.56, 1.5531598, 0.0003787759, -0.000048993774, -501657.84, -55113.105, 0.0, 10.002241, 9.914975 
4.97514e+3, 2.6434237e+2, -413442.94, -490922.56, 7.260903, 0.0003775944, 0.00019611696, -413442.94, -63997.727, 0.0, 10.002232, 9.900907 
4.9751398e+3, 2.7424383e+2, -314183.75, -391328.1, 1.7638433, 0.00037638808, -0.00015047277, -314183.75, -61772.836, 0.0, 10.002222, 9.901327 
4.9751392e+3, 2.8413704e+2, -227712.13, -318012.22, 5.905457, 0.00037539224, 0.00028017774, -227712.13, -72254.984, 0.0, 10.002213, 9.884407 
4.9751386e+3, 2.9402253e+2, -128030.55, -217711.4, 0.8374448, 0.00037468152, -0.00020308692, -128030.55, -69450.91, 0.0, 10.002202, 9.885188 
4.9751383e+3, 3.0393592e+2, -38355.914, -84782.7, 3.2384303, 0.00037323651, 0.00022061632, -38355.914, -38355.914, 0.0, 10.0021925, 9.941094 
4.9751377e+3, 3.1387886e+2, -37296.32, -82558.41, -2.3893456, 0.00037070655, -0.0000132323175, -37296.32, -37296.32, 0.0, 10.002183, 9.942601 
4.9851504e+3, 1.2502274e+2, -1716934.4, -1723919.0, 5.2583933, 0.00040163755, 0.00012814197, -1716934.4, -2156.4988, 0.0, 10.002456, 9.993198 
4.9851498e+3, 1.3501579e+2, -1619588.8, -1627155.4, 0.11877722, 0.00039868816, -0.000050330753, -1619588.8, -2742.834, 0.0, 10.002442, 9.992414 
4.985149e+3, 1.4500232e+2, -1531476.3, -1547812.5, 5.3812113, 0.00039674033, 0.00021194846, -1531476.3, -12498.36, 0.0, 10.00243, 9.9807825 
4.9851483e+3, 1.5498307e+2, -1433781.5, -1450511.8, 0.028048977, 0.0003957843, 0.000024046016, -1433781.5, -12615.082, 0.0, 10.002418, 9.980251 
4.985148e+3, 1.6495721e+2, -1345781.1, -1371706.4, 7.1247354, 0.00039456104, 0.000106534215, -1345781.1, -22361.25, 0.0, 10.002405, 9.968141 
4.985147e+3, 1.7492542e+2, -1247854.4, -1274086.8, 1.0534931, 0.0003930689, 0.0000024948793, -1247854.4, -22122.756, 0.0, 10.002394, 9.967727 
4.9851465e+3, 1.8488696e+2, -1159791.9, -1195501.9, 9.32646, 0.00039171753, 0.00014699699, -1159791.9, -31683.627, 0.0, 10.002382, 9.955297 
4.985146e+3, 1.948423e+2, -1061672.0, -1097636.3, 3.304426, 0.0003905109, 0.000014531398, -1061672.0, -31125.959, 0.0, 10.002371, 9.954955 
4.9851456e+3, 2.0479096e+2, -973527.94, -1019247.56, 10.911223, 0.0003892749, 0.00013576364, -973527.94, -40478.85, 0.0, 10.00236, 9.942201 
4.9851444e+3, 2.147332e+2, -875269.56, -921243.06, 4.944737, 0.00038800703, -0.000059136408, -875269.56, -39654.477, 0.0, 10.00235, 9.941859 
4.985144e+3, 2.2466874e+2, -787002.9, -842987.8, 11.836267, 0.0003868028, 0.00018722207, -787002.9, -48756.15, 0.0, 10.002339, 9.928824 
4.9851435e+3, 2.3459764e+2, -688596.94, -744829.3, 5.998357, 0.0003856693, -0.000025358555, -688596.94, -47653.31, 0.0, 10.002329, 9.9284935 
4.985143e+3, 2.4451958e+2, -600292.25, -666892.56, 12.215173, 0.00038453177, 0.00013571444, -600292.25, -56583.69, 0.0, 10.002319, 9.915058 
4.9851426e+3, 2.5443476e+2, -501566.47, -568236.5, 6.4072995, 0.0003833887, -0.000047672685, -501566.47, -55026.688, 0.0, 10.00231, 9.914959 
4.985142e+3, 2.6434287e+2, -413351.84, -490895.84, 12.053801, 0.00038220154, 0.00019742781, -413351.84, -63911.387, 0.0, 10.0023, 9.90089 
4.9851415e+3, 2.7424428e+2, -314093.13, -391301.88, 6.3759336, 0.00038095802, -0.00014920656, -314093.13, -61686.816, 0.0, 10.00229, 9.90131 
4.9851412e+3, 2.8413752e+2, -227621.05, -317985.03, 10.366489, 0.0003799438, 0.00028139382, -227621.05, -72168.37, 0.0, 10.00228, 9.884392 
4.9851406e+3, 2.9402295e+2, -127939.73, -217684.53, 5.1164765, 0.00037924052, -0.00020192866, -127939.73, -69364.39, 0.0, 10.002272, 9.885173 
4.9851403e+3, 3.0393633e+2, -38267.34, -84759.76, 7.2556705, 0.00037782337, 0.00022176195, -38267.336, -38267.336, 0.0, 10.002262, 9.941077 
4.9851403e+3, 3.1387928e+2, -37207.566, -82535.67, 1.4692565, 0.00037535143, -0.00001203165, -37207.566, -37207.566, 0.0, 10.002253, 9.942583 
4.995153e+3, 1.2502345e+2, -1716945.9, -1723941.1, 0.3796413, 0.00040625533, 0.00012942583, -1716945.9, -2175.0198, 0.0, 10.002456, 9.993185 
4.9951524e+3, 1.350165e+2, -1619600.1, -1627177.4, -4.757997, 0.00040327324, -0.000048642723, -1619600.1, -2761.086, 0.0, 10.002443, 9.992401 
4.9951515e+3, 1.4500302e+2, -1531487.9, -1547835.3, 0.7133619, 0.00040130838, 0.0002136785, -1531487.9, -12516.779, 0.0, 10.00243, 9.980768 
4.995151e+3, 1.5498376e+2, -1433793.0, -1450534.4, -4.640743, 0.00040035066, 0.00002545744, -1433793.0, -12633.217, 0.0, 10.002418, 9.980237 
4.9951503e+3, 1.6495788e+2, -1345794.1, -1371731.9, 2.7395175, 0.00039914317, 0.00010787075, -1345794.1, -22380.746, 0.0, 10.002406, 9.968124 
4.9951494e+3, 1.7492606e+2, -1247867.1, -1274112.1, -3.331704, 0.00039768463, 0.0000040029795, -1247867.1, -22141.941, 0.0, 10.002394, 9.9677105 
4.9951488e+3, 1.848876e+2, -1159804.8, -1195527.4, 5.1716332, 0.00039634673, 0.00014850564, -1159804.8, -31702.59, 0.0, 10.002382, 9.955281 
4.9951485e+3, 1.948429e+2, -1061684.6, -1097661.5, -0.8496395, 0.00039513267, 0.000015863277, -1061684.6, -31144.604, 0.0, 10.002372, 9.954939 
4.9951476e+3, 2.0479156e+2, -973540.5, -1019272.94, 6.9339414, 0.00039389025, 0.00013709808, -973540.5, -40497.313, 0.0, 10.00236, 9.942184 
4.995147e+3, 2.1473378e+2, -875282.06, -921268.3, 0.9701337, 0.0003926171, -0.000057606787, -875282.06, -39672.617, 0.0, 10.00235, 9.941843 
4.9951464e+3, 2.2466931e+2, -787015.25, -843013.0, 8.050966, 0.00039139995, 0.0001887153, -787015.25, -48774.004, 0.0, 10.002339, 9.928808 
4.995146e+3, 2.3459819e+2, -688609.1, -744854.3, 2.216437, 0.00039024506, -0.000024161962, -688609.1, -47670.84, 0.0, 10.00233, 9.928477 
4.9951455e+3, 2.4452011e+2, -600304.5, -666917.94, 8.526361, 0.00038913323, 0.00013686567, -600304.5, -56601.156, 0.0, 10.002319, 9.915042 
4.995145e+3, 2.5443527e+2, -501578.6, -568261.7, 2.7228878, 0.00038807173, -0.0000462684, -501578.6, -55043.836, 0.0, 10.00231, 9.914942 
4.9951446e+3, 2.6434335e+2, -413363.88, -490921.1, 8.44114, 0.00038689567, 0.0001988901, -413363.88, -63928.305, 0.0, 10.0023, 9.900873 
4.995144e+3, 2.742448e+2, -314105.0, -391326.97, 2.7659974, 0.0003855739, -0.00014793366, -314105.0, -61703.41, 0.0, 10.002291, 9.901294 
4.9951434e+3, 2.84138e+2, -227632.17, -318008.75, 6.7820163, 0.0003845281, 0.0002825464, -227632.17, -72184.055, 0.0, 10.002281, 9.884376 
4.995143e+3, 2.940234e+2, -127950.64, -217707.98, 1.5327917, 0.0003838572, -0.00020080144, -127950.64, -69379.72, 0.0, 10.002272, 9.885157 
4.9951425e+3, 3.0393678e+2, -38279.582, -84786.055, 3.6839309, 0.00038246837, 0.00022288402, -38279.582, -38279.582, 0.0, 10.002262, 9.941059 
4.9951422e+3, 3.138797e+2, -37219.98, -82562.33, -2.1029515, 0.0003800183, -0.000010884909, -37219.98, -37219.98, 0.0, 10.002253, 9.942565 
5.005155e+3, 1.250242e+2, -1716846.9, -1723904.0, 5.4747696, 0.0004108663, 0.00013090172, -1716846.9, -2083.284, 0.0, 10.002524, 9.993171 
5.0051546e+3, 1.3501722e+2, -1619501.6, -1627140.6, 0.35473582, 0.00040786827, -0.000047089692, -1619501.6, -2669.6282, 0.0, 10.002511, 9.992388 
5.005154e+3, 1.4500372e+2, -1531390.1, -1547800.0, 6.0102005, 0.00040591392, 0.00021522956, -1531390.1, -12425.943, 0.0, 10.002499, 9.980754 
5.0051534e+3, 1.5498444e+2, -1433695.5, -1450499.4, 0.48999283, 0.00040499272, 0.000026927504, -1433695.5, -12542.419, 0.0, 10.002486, 9.980223 
5.005153e+3, 1.6495855e+2, -1345698.3, -1371700.3, 8.03105, 0.00040379848, 0.000109303284, -1345698.3, -22291.42, 0.0, 10.002475, 9.968108 
5.0051516e+3, 1.7492671e+2, -1247771.5, -1274080.9, 1.8668373, 0.00040232964, 0.0000054421134, -1247771.5, -22052.764, 0.0, 10.002463, 9.967694 
5.0051516e+3, 1.8488824e+2, -1159709.4, -1195496.5, 10.507841, 0.00040098338, 0.00014993874, -1159709.4, -31613.5, 0.0, 10.002452, 9.955265 
5.005151e+3, 1.9484353e+2, -1061589.5, -1097631.1, 4.342236, 0.00039976294, 0.000017277178, -1061589.5, -31055.639, 0.0, 10.00244, 9.954923 
5.00515e+3, 2.0479217e+2, -973445.56, -1019242.9, 12.212296, 0.0003985316, 0.00013850925, -973445.56, -40408.313, 0.0, 10.00243, 9.942167 
5.005149e+3, 2.1473438e+2, -875187.25, -921238.6, 6.1436095, 0.00039728827, -0.000056180597, -875187.25, -39583.64, 0.0, 10.002419, 9.941827 
5.0051486e+3, 2.2466989e+2, -786920.7, -842983.8, 13.248318, 0.0003960766, 0.00019010487, -786920.7, -48685.09, 0.0, 10.00241, 9.928792 
5.0051486e+3, 2.3459874e+2, -688514.9, -744825.56, 7.1769843, 0.00039489975, -0.000022867041, -688514.9, -47582.105, 0.0, 10.002399, 9.928461 
5.005148e+3, 2.4452066e+2, -600210.44, -666889.56, 13.458788, 0.0003937865, 0.0001381352, -600210.44, -56512.395, 0.0, 10.00239, 9.915026 
5.0051475e+3, 2.544358e+2, -501484.7, -568233.6, 7.582271, 0.00039274796, -0.000044941997, -501484.7, -54955.082, 0.0, 10.00238, 9.914926 
5.005147e+3, 2.6434386e+2, -413270.22, -490893.7, 13.242345, 0.00039158447, 0.00020021379, -413270.2, -63839.62, 0.0, 10.002371, 9.900857 
5.005146e+3, 2.7424526e+2, -314011.63, -391300.03, 7.34688, 0.00039026208, -0.00014668821, -314011.63, -61614.85, 0.0, 10.002361, 9.901277 
5.005146e+3, 2.8413847e+2, -227538.2, -317980.72, 11.207488, 0.00038922226, 0.0002837582, -227538.2, -72094.74, 0.0, 10.002352, 9.88436 
5.0051457e+3, 2.9402387e+2, -127856.9, -217680.23, 5.7669063, 0.00038856623, -0.0001995624, -127856.9, -69290.484, 0.0, 10.002342, 9.88514 
5.005145e+3, 3.039372e+2, -38188.203, -84762.35, 7.623663, 0.00038717774, 0.00022407903, -38188.2, -38188.2, 0.0, 10.002334, 9.941041 
5.0051445e+3, 3.1388012e+2, -37128.59, -82538.92, 1.5826842, 0.00038470668, -0.00000983893, -37128.59, -37128.59, 0.0, 10.002324, 9.942546 
5.015158e+3, 1.2502494e+2, -1716858.4, -1723926.0, 0.6241112, 0.00041547354, 0.00013255926, -1716858.4, -2102.0117, 0.0, 10.002524, 9.993157 
5.0151575e+3, 1.3501795e+2, -1619512.9, -1627162.6, -4.496533, 0.00041247532, -0.000045662604, -1619512.9, -2688.08, 0.0, 10.002512, 9.992373 
5.015157e+3, 1.4500444e+2, -1531402.1, -1547823.4, 1.4222591, 0.0004105574, 0.00021661338, -1531402.1, -12444.975, 0.0, 10.002499, 9.98074 
5.0151557e+3, 1.5498516e+2, -1433707.4, -1450522.6, -4.09709, 0.0004097088, 0.0000284539, -1433707.4, -12561.16, 0.0, 10.002487, 9.980207 
5.015155e+3, 1.6495924e+2, -1345711.4, -1371726.1, 3.696733, 0.0004085253, 0.000110827255, -1345711.4, -22311.354, 0.0, 10.002475, 9.968092 
5.0151545e+3, 1.7492738e+2, -1247784.6, -1274106.6, -2.4682827, 0.00040700485, 0.000006817347, -1247784.6, -22072.377, 0.0, 10.002463, 9.967678 
5.015154e+3, 1.848889e+2, -1159722.5, -1195522.5, 6.4085855, 0.00040562972, 0.00015130178, -1159722.5, -31632.998, 0.0, 10.002452, 9.955249 
5.015153e+3, 1.9484417e+2, -1061602.5, -1097657.0, 0.24444197, 0.00040440392, 0.000018769426, -1061602.5, -31074.813, 0.0, 10.002441, 9.9549055 
5.015152e+3, 2.047928e+2, -973458.4, -1019268.7, 8.317853, 0.0004032002, 0.00013999373, -973458.4, -40427.215, 0.0, 10.00243, 9.942151 
5.015152e+3, 2.1473499e+2, -875199.94, -921264.25, 2.2509153, 0.0004020198, -0.00005485091, -875199.94, -39602.215, 0.0, 10.00242, 9.941811 
5.0151515e+3, 2.2467048e+2, -786933.44, -843009.9, 9.509205, 0.00040083085, 0.00019139775, -786933.44, -48703.637, 0.0, 10.00241, 9.928775 
5.015151e+3, 2.3459932e+2, -688527.5, -744851.5, 3.4423952, 0.0003996316, -0.000021478401, -688527.5, -47600.33, 0.0, 10.002399, 9.928444 
5.0151503e+3, 2.4452122e+2, -600222.8, -666915.2, 9.860047, 0.00039849136, 0.00013951724, -600222.8, -56530.22, 0.0, 10.00239, 9.915009 
5.01515e+3, 2.5443634e+2, -501496.9, -568259.1, 3.987146, 0.00039742046, -0.00004368813, -501496.9, -54972.57, 0.0, 10.00238, 9.914908 
5.015149e+3, 2.643444e+2, -413282.63, -490919.78, 9.694419, 0.00039627103, 0.00020140767, -413282.63, -63857.152, 0.0, 10.002371, 9.90084 
5.0151485e+3, 2.742458e+2, -314023.9, -391325.97, 3.8014486, 0.00039502137, -0.00014546773, -314023.9, -61632.06, 0.0, 10.002361, 9.901259 
5.0151485e+3, 2.8413895e+2, -227549.67, -318005.2, 7.6895766, 0.0003940229, 0.0002850269, -227549.67, -72110.98, 0.0, 10.002353, 9.884344 
5.015148e+3, 2.9402435e+2, -127868.15, -217704.42, 2.2503407, 0.00039336525, -0.00019821686, -127868.15, -69306.336, 0.0, 10.002343, 9.885124 
5.0151473e+3, 3.0393764e+2, -38200.87, -84789.586, 4.109036, 0.00039195077, 0.00022534383, -38200.87, -38200.87, 0.0, 10.002334, 9.941022 
5.015147e+3, 3.1388056e+2, -37141.44, -82566.54, -1.9338434, 0.00038941824, -0.000008887386, -37141.44, -37141.44, 0.0, 10.002324, 9.942528 
5.025161e+3, 1.2502569e+2, -1716757.8, -1723888.1, 5.728118, 0.00042012354, 0.00013412634, -1716757.8, -2008.8081, 0.0, 10.002594, 9.993143 
5.02516e+3, 1.3501869e+2, -1619412.4, -1627125.0, 0.45200765, 0.00041716, -0.00004422246, -1619412.4, -2594.8647, 0.0, 10.002582, 9.99236 
5.025159e+3, 1.4500517e+2, -1531302.4, -1547787.3, 6.560704, 0.0004152609, 0.00021802771, -1531302.4, -12352.276, 0.0, 10.002569, 9.980724 
5.025158e+3, 1.5498587e+2, -1433607.6, -1450487.0, 1.0193164, 0.00041441515, 0.000029942734, -1433607.6, -12468.495, 0.0, 10.002557, 9.980193 
5.025158e+3, 1.6495995e+2, -1345613.4, -1371693.8, 8.982742, 0.0004132298, 0.00011232284, -1345613.4, -22220.223, 0.0, 10.002545, 9.968075 
5.025157e+3, 1.7492807e+2, -1247686.9, -1274074.6, 2.655442, 0.0004117029, 0.000008251436, -1247686.9, -21981.367, 0.0, 10.002534, 9.967662 
5.025156e+3, 1.8488955e+2, -1159624.9, -1195491.0, 11.672882, 0.00041033383, 0.0001527165, -1159624.9, -31541.988, 0.0, 10.002522, 9.955232 
5.0251555e+3, 1.9484483e+2, -1061505.1, -1097625.8, 5.406606, 0.00040912698, 0.000020208432, -1061505.1, -30983.803, 0.0, 10.002512, 9.954889 
5.025155e+3, 2.0479342e+2, -973361.1, -1019237.94, 13.563302, 0.00040793844, 0.00014140666, -973361.1, -40336.14, 0.0, 10.0025015, 9.942134 
5.0251544e+3, 2.147356e+2, -875102.75, -921233.8, 7.304201, 0.00040676925, -0.000053518106, -875102.75, -39511.113, 0.0, 10.002491, 9.941793 
5.025154e+3, 2.2467108e+2, -786836.44, -842980.0, 14.589072, 0.0004055917, 0.00019271739, -786836.44, -48612.516, 0.0, 10.002481, 9.928758 
5.025153e+3, 2.345999e+2, -688430.7, -744821.94, 8.438662, 0.00040440404, -0.000020096733, -688430.7, -47509.23, 0.0, 10.002472, 9.928427 
5.0251526e+3, 2.4452177e+2, -600126.2, -666886.0, 14.838785, 0.00040326055, 0.00014088502, -600126.1, -56439.082, 0.0, 10.002462, 9.914991 
5.0251526e+3, 2.5443688e+2, -501400.53, -568230.4, 8.713676, 0.0004021687, -0.00004242442, -501400.53, -54881.56, 0.0, 10.002453, 9.914891 
5.0251514e+3, 2.643449e+2, -413186.47, -490891.7, 14.321181, 0.00040102823, 0.00020261803, -413186.47, -63766.18, 0.0, 10.002443, 9.900822 
5.025151e+3, 2.7424628e+2, -313927.78, -391298.2, 8.299236, 0.00039982543, -0.00014424624, -313927.78, -61540.984, 0.0, 10.002435, 9.901242 
5.02515e+3, 2.8413942e+2, -227452.8, -317976.22, 12.080201, 0.00039884986, 0.00028626472, -227452.8, -72018.97, 0.0, 10.002425, 9.884327 
5.02515e+3, 2.9402483e+2, -127771.44, -217675.73, 6.4809895, 0.00039818225, -0.00019695616, -127771.44, -69214.33, 0.0, 10.002416, 9.885108 
5.0251496e+3, 3.0393812e+2, -38106.633, -84765.25, 8.043798, 0.00039676772, 0.00022656337, -38106.633, -38106.633, 0.0, 10.002407, 9.941004 
5.0251496e+3, 3.13881e+2, -37047.17, -82542.51, 1.7306287, 0.00039425032, -0.000007802967, -37047.17, -37047.17, 0.0, 10.002398, 9.942509 
5.035163e+3, 1.2502646e+2, -1716769.5, -1723910.9, 0.97241616, 0.00042481642, 0.00013560968, -1716769.5, -2028.1378, 0.0, 10.002594, 9.993129 
5.0351626e+3, 1.3501945e+2, -1619424.0, -1627147.6, -4.302445, 0.00042192033, -0.000042768992, -1619424.0, -2613.911, 0.0, 10.002582, 9.992346 
5.0351614e+3, 1.4500593e+2, -1531314.4, -1547810.8, 2.0583715, 0.00042002354, 0.00021947175, -1531314.4, -12371.589, 0.0, 10.002569, 9.98071 
5.0351614e+3, 1.549866e+2, -1433619.5, -1450510.3, -3.4832985, 0.0004191151, 0.000031397365, -1433619.5, -12487.517, 0.0, 10.002557, 9.980179 
5.03516e+3, 1.6496067e+2, -1345627.0, -1371720.4, 4.7058477, 0.00041791613, 0.000113792885, -1345627.0, -22240.744, 0.0, 10.002545, 9.968059 
5.0351596e+3, 1.7492877e+2, -1247700.3, -1274101.1, -1.6215256, 0.0004164252, 0.000009741907, -1247700.3, -22001.559, 0.0, 10.002534, 9.967645 
5.0351584e+3, 1.8489024e+2, -1159638.3, -1195517.5, 7.66154, 0.00041509504, 0.00015418085, -1159638.3, -31561.926, 0.0, 10.002522, 9.955215 
5.0351584e+3, 1.9484548e+2, -1061518.3, -1097652.0, 1.3959293, 0.00041393004, 0.000021598406, -1061518.3, -31003.408, 0.0, 10.002512, 9.954872 
5.035158e+3, 2.0479408e+2, -973374.3, -1019264.5, 9.76443, 0.00041274508, 0.00014275333, -973374.3, -40355.66, 0.0, 10.0025015, 9.942117 
5.0351566e+3, 2.1473624e+2, -875115.8, -921260.3, 3.508174, 0.00041153838, -0.000052181404, -875115.8, -39530.3, 0.0, 10.002492, 9.941776 
5.035156e+3, 2.2467169e+2, -786849.44, -843006.44, 10.936217, 0.00041036156, 0.00019406313, -786849.44, -48631.45, 0.0, 10.002481, 9.9287405 
5.035156e+3, 2.346005e+2, -688443.5, -744848.25, 4.788667, 0.00040921758, -0.000018720595, -688443.5, -47527.824, 0.0, 10.002472, 9.92841 
5.0351554e+3, 2.4452235e+2, -600139.0, -666912.7, 11.301769, 0.00040809315, 0.0001422404, -600139.0, -56457.6, 0.0, 10.002462, 9.914974 
5.035155e+3, 2.5443745e+2, -501413.22, -568256.9, 5.180812, 0.00040699114, -0.000041150528, -501413.22, -54899.742, 0.0, 10.002453, 9.914874 
5.0351536e+3, 2.6434547e+2, -413199.13, -490918.28, 10.896979, 0.0004058549, 0.0002038448, -413199.13, -63784.156, 0.0, 10.002444, 9.9008045 
5.035153e+3, 2.742468e+2, -313940.28, -391324.66, 4.880195, 0.0004046746, -0.00014302293, -313940.28, -61558.617, 0.0, 10.002435, 9.901224 
5.035153e+3, 2.8413996e+2, -227464.53, -318001.28, 8.652872, 0.00040370456, 0.0002874744, -227464.53, -72035.67, 0.0, 10.002425, 9.884311 
5.0351524e+3, 2.9402533e+2, -127782.95, -217700.53, 3.0516126, 0.00040301916, -0.00019577454, -127782.95, -69230.65, 0.0, 10.002417, 9.885092 
5.035152e+3, 3.039386e+2, -38119.746, -84793.47, 4.595313, 0.00040162914, 0.00022774111, -38119.746, -38119.746, 0.0, 10.002407, 9.940984 
5.035151e+3, 3.1388146e+2, -37060.484, -82571.15, -1.7210935, 0.00039919902, -0.0000065924, -37060.484, -37060.484, 0.0, 10.0023985, 9.942489 
5.045166e+3, 1.2502725e+2, -1716666.8, -1723872.3, 5.942828, 0.00042955065, 0.00013703697, -1716666.8, -1933.1233, 0.0, 10.002665, 9.993115 
5.045165e+3, 1.3502021e+2, -1619321.5, -1627109.4, 0.62571967, 0.00042666873, -0.000041259667, -1619321.5, -2518.9614, 0.0, 10.002652, 9.9923315 
5.045164e+3, 1.4500667e+2, -1531212.5, -1547773.9, 7.1838527, 0.00042477474, 0.00022098595, -1531212.5, -12277.138, 0.0, 10.002641, 9.980695 
5.0451636e+3, 1.5498734e+2, -1433517.9, -1450473.8, 1.5421383, 0.00042385753, 0.000032839536, -1433517.9, -12393.158, 0.0, 10.002628, 9.980164 
5.0451624e+3, 1.6496138e+2, -1345527.1, -1371687.4, 9.903252, 0.000422669, 0.00011521502, -1345527.1, -22147.965, 0.0, 10.002617, 9.968041 
5.045162e+3, 1.7492947e+2, -1247600.4, -1274068.4, 3.466702, 0.0004212079, 0.000011196627, -1247600.4, -21908.615, 0.0, 10.002606, 9.967628 
5.045162e+3, 1.8489093e+2, -1159538.3, -1195485.1, 12.885975, 0.0004199008, 0.00015562041, -1159538.3, -31468.81, 0.0, 10.002595, 9.955198 
5.0451607e+3, 1.9484617e+2, -1061418.4, -1097620.0, 6.44951, 0.00041875194, 0.000022973329, -1061418.4, -30910.232, 0.0, 10.002584, 9.954855 
5.04516e+3, 2.0479473e+2, -973274.7, -1019233.0, 14.888813, 0.00041757163, 0.00014410421, -973274.7, -40262.457, 0.0, 10.002575, 9.9421 
5.0451595e+3, 2.1473688e+2, -875016.4, -921229.2, 8.500848, 0.00041635733, -0.000050811035, -875016.4, -39437.125, 0.0, 10.002564, 9.941759 
5.045159e+3, 2.2467232e+2, -786750.0, -842975.7, 15.957321, 0.00041518695, 0.00019541803, -786750.0, -48538.152, 0.0, 10.002555, 9.928723 
5.045158e+3, 2.3460111e+2, -688344.2, -744817.8, 9.641692, 0.00041406514, -0.000017420381, -688344.2, -47434.44, 0.0, 10.002545, 9.928392 
5.0451577e+3, 2.4452294e+2, -600039.8, -666882.8, 16.129278, 0.00041296452, 0.0001435173, -600039.8, -56364.15, 0.0, 10.002537, 9.914956 
5.045157e+3, 2.54438e+2, -501314.1, -568227.4, 9.860566, 0.00041188824, -0.000039859762, -501314.1, -54806.207, 0.0, 10.002527, 9.914857 
5.0451565e+3, 2.64346e+2, -413100.13, -490889.3, 15.511275, 0.00041076238, 0.0002051222, -413100.13, -63690.56, 0.0, 10.002519, 9.900786 
5.045156e+3, 2.7424735e+2, -313841.53, -391296.06, 9.282631, 0.00040957305, -0.00014179331, -313841.53, -61465.082, 0.0, 10.002509, 9.901207 
5.045155e+3, 2.8414047e+2, -227365.03, -317971.53, 12.89074, 0.00040860186, 0.00028866166, -227365.03, -71941.234, 0.0, 10.002501, 9.884294 
5.0451547e+3, 2.940258e+2, -127683.51, -217671.0, 7.109981, 0.000407926, -0.00019462238, -127683.51, -69136.1, 0.0, 10.002492, 9.885075 
5.045154e+3, 3.0393907e+2, -38022.684, -84768.414, 8.387365, 0.00040655906, 0.00022887613, -38022.68, -38022.68, 0.0, 10.002483, 9.940965 
5.045154e+3, 3.1388193e+2, -36963.043, -82546.26, 1.878455, 0.0004041722, -0.0000054471598, -36963.043, -36963.043, 0.0, 10.002474, 9.942469 
5.055168e+3, 1.2502806e+2, -1716678.6, -1723895.1, 1.2662822, 0.0004343265, 0.00013841284, -1716678.6, -1952.7904, 0.0, 10.0026655, 9.993101 
5.0551677e+3, 1.3502102e+2, -1619333.3, -1627132.1, -4.048941, 0.0004314088, -0.00003969687, -1619333.3, -2538.3423, 0.0, 10.002653, 9.992317 
5.055167e+3, 1.4500745e+2, -1531224.8, -1547797.8, 2.7534144, 0.00042951808, 0.000222567, -1531224.8, -12296.906, 0.0, 10.002641, 9.98068 
5.055166e+3, 1.549881e+2, -1433530.0, -1450497.5, -2.8892725, 0.00042864267, 0.00003427106, -1433530.0, -12412.626, 0.0, 10.002629, 9.980148 
5.055165e+3, 1.6496213e+2, -1345540.9, -1371714.5, 5.752904, 0.0004274871, 0.00011659328, -1345540.9, -22168.945, 0.0, 10.002618, 9.968024 
5.0551647e+3, 1.749302e+2, -1247614.0, -1274095.3, -0.6837483, 0.00042605016, 0.000012618878, -1247614.0, -21929.26, 0.0, 10.002606, 9.96761 
5.055164e+3, 1.8489163e+2, -1159552.0, -1195512.3, 8.97826, 0.0004247514, 0.00015703776, -1159551.9, -31489.336, 0.0, 10.002596, 9.955181 
5.055163e+3, 1.9484685e+2, -1061431.9, -1097647.0, 2.5427835, 0.0004235944, 0.000024335126, -1061431.9, -30930.414, 0.0, 10.002585, 9.954838 
5.0551623e+3, 2.047954e+2, -973288.1, -1019260.2, 11.175556, 0.00042241983, 0.00014546003, -973288.1, -40282.465, 0.0, 10.002575, 9.942082 
5.0551623e+3, 2.1473752e+2, -875029.6, -921256.1, 4.7899823, 0.00042122602, -0.00004940803, -875029.6, -39456.79, 0.0, 10.002565, 9.941742 
5.055161e+3, 2.2467294e+2, -786763.3, -843002.8, 12.418474, 0.00042006746, 0.00019678252, -786763.3, -48557.633, 0.0, 10.002556, 9.928705 
5.0551605e+3, 2.3460172e+2, -688357.25, -744844.75, 6.1060553, 0.0004189477, -0.000016190597, -688357.25, -47453.574, 0.0, 10.002546, 9.928374 
5.05516e+3, 2.4452354e+2, -600053.0, -666910.06, 12.710195, 0.0004178754, 0.00014472139, -600052.94, -56383.16, 0.0, 10.002537, 9.914939 
5.05516e+3, 2.544386e+2, -501327.1, -568254.44, 6.4460006, 0.00041685862, -0.000038552153, -501327.1, -54824.87, 0.0, 10.002527, 9.914839 
5.0551593e+3, 2.643466e+2, -413113.2, -490916.75, 12.172985, 0.00041574892, 0.00020644814, -413113.2, -63709.125, 0.0, 10.002519, 9.900768 
5.055159e+3, 2.7424788e+2, -313854.4, -391323.38, 5.9477487, 0.00041452094, -0.00014055689, -313854.4, -61483.305, 0.0, 10.00251, 9.901189 
5.055158e+3, 2.84141e+2, -227377.08, -317997.3, 9.580905, 0.00041354232, 0.00028982872, -227377.08, -71958.445, 0.0, 10.0025015, 9.884276 
5.0551575e+3, 2.9402635e+2, -127695.32, -217696.48, 3.8006253, 0.0004129017, -0.00019349706, -127695.32, -69152.91, 0.0, 10.002492, 9.885057 
5.055157e+3, 3.0393958e+2, -38036.113, -84797.34, 5.0916834, 0.00041155663, 0.00022997179, -38036.11, -38036.11, 0.0, 10.002483, 9.940945 
5.055157e+3, 3.1388238e+2, -36976.676, -82575.625, -1.4175049, 0.0004091716, -0.0000043626105, -36976.676, -36976.676, 0.0, 10.002475, 9.942449 
5.065171e+3, 1.2502886e+2, -1716574.3, -1723855.6, 6.126029, 0.00043909668, 0.00013987241, -1716574.3, -1856.2974, 0.0, 10.002737, 9.993087 
5.0651705e+3, 1.350218e+2, -1619228.9, -1627092.9, 0.79883945, 0.00043619063, -0.00003823262, -1619228.9, -2441.7578, 0.0, 10.002725, 9.992303 
5.0651693e+3, 1.4500822e+2, -1531121.0, -1547760.1, 7.7986255, 0.00043431838, 0.00022402246, -1531121.0, -12200.815, 0.0, 10.002713, 9.980665 
5.065169e+3, 1.5498886e+2, -1433426.3, -1450460.1, 2.010709, 0.00043346785, 0.00003570397, -1433426.3, -12316.34, 0.0, 10.002702, 9.980133 
5.065168e+3, 1.6496287e+2, -1345438.6, -1371680.6, 10.810212, 0.00043233662, 0.000118003205, -1345438.6, -22074.098, 0.0, 10.00269, 9.968007 
5.0651675e+3, 1.7493095e+2, -1247511.9, -1274061.8, 4.252815, 0.00043092348, 0.000014005568, -1247511.9, -21834.299, 0.0, 10.00268, 9.967593 
5.0651664e+3, 1.8489236e+2, -1159449.9, -1195479.3, 14.049513, 0.00042963354, 0.000158413, -1159449.9, -31394.287, 0.0, 10.002669, 9.955163 
5.065166e+3, 1.9484755e+2, -1061329.9, -1097614.3, 7.4763265, 0.00042846982, 0.000025710997, -1061329.9, -30835.26, 0.0, 10.002659, 9.954821 
5.065165e+3, 2.0479608e+2, -973186.1, -1019227.9, 16.18957, 0.00042730884, 0.00014682452, -973186.1, -40187.14, 0.0, 10.002649, 9.942065 
5.0651646e+3, 2.1473819e+2, -874927.7, -921224.2, 9.664577, 0.0004261504, -0.000048067748, -874927.7, -39361.32, 0.0, 10.00264, 9.941724 
5.065164e+3, 2.246736e+2, -786661.4, -842971.4, 17.311277, 0.00042501188, 0.00019809142, -786661.4, -48462.05, 0.0, 10.00263, 9.928688 
5.0651634e+3, 2.3460235e+2, -688255.44, -744813.6, 10.798577, 0.00042389496, -0.000014921119, -688255.44, -47357.902, 0.0, 10.002622, 9.928357 
5.065163e+3, 2.4452415e+2, -599951.1, -666879.4, 17.37311, 0.00042283465, 0.00014597505, -599951.1, -56287.3, 0.0, 10.002612, 9.914921 
5.065162e+3, 2.544392e+2, -501225.3, -568224.06, 10.973842, 0.0004218406, -0.000037286318, -501225.3, -54728.875, 0.0, 10.002604, 9.914821 
5.0651616e+3, 2.6434714e+2, -413011.53, -490887.03, 16.63462, 0.00042074962, 0.00020769481, -413011.53, -63613.07, 0.0, 10.002595, 9.90075 
5.065161e+3, 2.7424845e+2, -313752.84, -391294.03, 10.220916, 0.0004195352, -0.00013936892, -313752.84, -61387.152, 0.0, 10.002586, 9.90117 
5.0651604e+3, 2.8414154e+2, -227274.63, -317966.66, 13.713631, 0.00041856905, 0.00029099121, -227274.63, -71861.234, 0.0, 10.002578, 9.884259 
5.0651604e+3, 2.9402685e+2, -127592.85, -217666.05, 7.7299314, 0.00041793936, -0.00019231503, -127592.85, -69055.516, 0.0, 10.00257, 9.88504 
5.06516e+3, 3.0394006e+2, -37936.1, -84771.51, 8.727615, 0.0004166103, 0.00023111115, -37936.1, -37936.1, 0.0, 10.002562, 9.940925 
5.065159e+3, 3.138829e+2, -36876.426, -82550.016, 1.9705784, 0.000414249, -0.0000033573692, -36876.426, -36876.426, 0.0, 10.002553, 9.942429 
5.075174e+3, 1.2502968e+2, -1716586.0, -1723878.6, 1.5681936, 0.00044386444, 0.00014141116, -1716586.0, -1876.222, 0.0, 10.002738, 9.9930725 
5.0751734e+3, 1.3502261e+2, -1619240.6, -1627115.8, -3.7596252, 0.00044101453, -0.000036859474, -1619240.5, -2461.3916, 0.0, 10.002726, 9.992289 
5.075172e+3, 1.4500901e+2, -1531133.5, -1547784.6, 3.507194, 0.00043917497, 0.00022536152, -1531133.5, -12221.136, 0.0, 10.002713, 9.98065 
5.0751716e+3, 1.5498964e+2, -1433438.6, -1450484.5, -2.279627, 0.00043833358, 0.000037139205, -1433438.6, -12336.353, 0.0, 10.002702, 9.980118 
5.075171e+3, 1.6496363e+2, -1345452.6, -1371708.3, 6.777238, 0.00043721858, 0.00011944374, -1345452.6, -22095.559, 0.0, 10.002691, 9.96799 
5.07517e+3, 1.7493168e+2, -1247525.6, -1274089.1, 0.21876185, 0.00043582893, 0.000015359969, -1247525.6, -21855.418, 0.0, 10.00268, 9.967576 
5.075169e+3, 1.8489309e+2, -1159463.8, -1195507.0, 10.257714, 0.0004345483, 0.00015974979, -1159463.8, -31415.314, 0.0, 10.002669, 9.955146 
5.0751686e+3, 1.9484827e+2, -1061343.6, -1097641.9, 3.6857579, 0.0004333792, 0.000027101038, -1061343.6, -30855.94, 0.0, 10.00266, 9.9548025 
5.075168e+3, 2.0479678e+2, -973199.9, -1019255.6, 12.603206, 0.0004322392, 0.00014819812, -973199.9, -40207.645, 0.0, 10.00265, 9.942047 
5.0751674e+3, 2.1473886e+2, -874941.25, -921251.7, 6.079967, 0.00043113, -0.00004678528, -874941.25, -39381.473, 0.0, 10.002641, 9.941706 
5.075166e+3, 2.2467425e+2, -786675.06, -842999.3, 13.890421, 0.00043001928, 0.0001993492, -786675.06, -48482.137, 0.0, 10.002631, 9.92867 
5.075166e+3, 2.3460299e+2, -688268.94, -744841.44, 7.382042, 0.0004289061, -0.000013613494, -688268.94, -47377.633, 0.0, 10.002622, 9.928339 
5.0751656e+3, 2.4452478e+2, -599964.56, -666907.2, 14.08657, 0.00042784243, 0.00014727609, -599964.56, -56306.773, 0.0, 10.002613, 9.914903 
5.0751644e+3, 2.544398e+2, -501238.53, -568251.7, 7.691041, 0.00042683672, -0.00003605881, -501238.53, -54747.99, 0.0, 10.0026045, 9.914803 
5.075164e+3, 2.6434773e+2, -413024.9, -490915.22, 13.42389, 0.00042576686, 0.000208868, -413024.9, -63632.176, 0.0, 10.002596, 9.900732 
5.075164e+3, 2.7424902e+2, -313766.06, -391322.06, 7.013774, 0.00042461505, -0.00013822553, -313766.06, -61405.906, 0.0, 10.002587, 9.901152 
5.075163e+3, 2.8414208e+2, -227287.03, -317993.25, 10.542792, 0.00042368003, 0.00029215027, -227287.03, -71878.984, 0.0, 10.002579, 9.884241 
5.0751626e+3, 2.940274e+2, -127605.016, -217692.31, 4.5610795, 0.00042303844, -0.00019107889, -127605.016, -69072.86, 0.0, 10.00257, 9.885023 
5.075162e+3, 3.039406e+2, -37949.945, -84801.36, 5.557088, 0.00042171997, 0.00023229231, -37949.945, -37949.945, 0.0, 10.002562, 9.940905 
5.0751615e+3, 3.1388336e+2, -36890.477, -82580.32, -1.2022481, 0.00041940302, -0.0000024259168, -36890.477, -36890.477, 0.0, 10.002553, 9.942408 
5.085177e+3, 1.2503053e+2, -1716479.8, -1723838.5, 6.371108, 0.00044866203, 0.00014285765, -1716479.8, -1778.1339, 0.0, 10.0028105, 9.993057 
5.0851756e+3, 1.3502344e+2, -1619134.1, -1627075.8, 0.8779975, 0.00044587525, -0.000035457168, -1619134.1, -2363.048, 0.0, 10.002799, 9.992274 
5.085175e+3, 1.4500983e+2, -1531027.6, -1547746.3, 8.331962, 0.00044407175, 0.00022674666, -1531027.6, -12123.159, 0.0, 10.002788, 9.980635 
5.0851744e+3, 1.5499043e+2, -1433332.6, -1450446.3, 2.5141366, 0.0004432393, 0.000038533737, -1433332.6, -12238.129, 0.0, 10.002776, 9.980103 
5.085173e+3, 1.6496442e+2, -1345348.4, -1371673.8, 11.736949, 0.00044213113, 0.0001208376, -1345348.4, -21998.846, 0.0, 10.002766, 9.967972 
5.0851727e+3, 1.7493244e+2, -1247421.4, -1274054.9, 5.003792, 0.0004407463, 0.00001674314, -1247421.4, -21758.514, 0.0, 10.002755, 9.967558 
5.085172e+3, 1.8489382e+2, -1159359.5, -1195473.3, 15.158654, 0.00043948696, 0.00016111233, -1159359.4, -31318.197, 0.0, 10.002746, 9.955128 
5.0851715e+3, 1.9484898e+2, -1061239.3, -1097608.4, 8.462552, 0.000438356, 0.000028432616, -1061239.3, -30758.617, 0.0, 10.002735, 9.954784 
5.08517e+3, 2.0479749e+2, -973095.5, -1019222.6, 17.451252, 0.0004372392, 0.00014950572, -973095.44, -40110.137, 0.0, 10.002727, 9.942029 
5.0851697e+3, 2.1473955e+2, -874836.8, -921219.0, 10.739038, 0.00043613723, -0.00004549418, -874836.8, -39283.75, 0.0, 10.002717, 9.941688 
5.0851697e+3, 2.2467493e+2, -786570.6, -842967.06, 18.570232, 0.00043504394, 0.00020062673, -786570.6, -48384.207, 0.0, 10.002708, 9.928651 
5.0851685e+3, 2.3460364e+2, -688164.5, -744809.44, 11.942854, 0.00043395965, -0.000012346251, -688164.5, -47279.54, 0.0, 10.002699, 9.92832 
5.085168e+3, 2.445254e+2, -599860.1, -666875.7, 18.625673, 0.00043290912, 0.00014851682, -599860.1, -56208.496, 0.0, 10.00269, 9.914884 
5.085167e+3, 2.5444043e+2, -501134.13, -568220.5, 12.011293, 0.00043189782, -0.00003486387, -501134.13, -54649.59, 0.0, 10.002683, 9.914784 
5.085167e+3, 2.6434833e+2, -412920.56, -490884.72, 17.659082, 0.00043084208, 0.00021003417, -412920.56, -63533.64, 0.0, 10.002674, 9.900713 
5.0851667e+3, 2.742496e+2, -313661.66, -391291.84, 11.0863085, 0.00042972935, -0.00013706645, -313661.66, -61307.113, 0.0, 10.002666, 9.901133 
5.0851655e+3, 2.8414264e+2, -227181.63, -317961.7, 14.49953, 0.00042882198, 0.00029330028, -227181.63, -71779.03, 0.0, 10.002658, 9.884223 
5.085165e+3, 2.9402792e+2, -127499.57, -217660.97, 8.348196, 0.00042819238, -0.00018994104, -127499.57, -68972.68, 0.0, 10.00265, 9.885005 
5.0851643e+3, 3.039411e+2, -37847.008, -84774.836, 9.066879, 0.0004268971, 0.00023338984, -37847.008, -37847.008, 0.0, 10.002642, 9.940884 
5.0851643e+3, 3.1388384e+2, -36787.14, -82553.97, 2.0466998, 0.00042462023, -0.0000014092974, -36787.14, -36787.14, 0.0, 10.002634, 9.942387 
5.0951797e+3, 1.2503137e+2, -1716492.0, -1723862.1, 1.9682393, 0.00045349047, 0.0001442192, -1716492.0, -1798.6671, 0.0, 10.002811, 9.993043 
5.0951785e+3, 1.3502426e+2, -1619146.3, -1627099.3, -3.5227375, 0.00045077337, -0.000034026696, -1619146.3, -2383.2805, 0.0, 10.002799, 9.992259 
5.095178e+3, 1.4501064e+2, -1531040.3, -1547770.9, 4.1959724, 0.0004490091, 0.0002281757, -1531040.3, -12143.759, 0.0, 10.002788, 9.9806185 
5.095177e+3, 1.5499124e+2, -1433345.1, -1450470.8, -1.6227599, 0.00044818543, 0.000039891285, -1433345.1, -12258.42, 0.0, 10.002777, 9.980087 
5.095176e+3, 1.649652e+2, -1345362.8, -1371702.0, 7.8383007, 0.0004470754, 0.00012218893, -1345362.8, -22020.902, 0.0, 10.002767, 9.967955 
5.0951755e+3, 1.749332e+2, -1247435.5, -1274083.0, 1.1053292, 0.00044567804, 0.00001815415, -1247435.5, -21780.215, 0.0, 10.002756, 9.967541 
5.095175e+3, 1.8489458e+2, -1159373.6, -1195501.5, 11.507924, 0.00044445109, 0.0001624998, -1159373.6, -31339.691, 0.0, 10.002746, 9.95511 
5.095174e+3, 1.9484971e+2, -1061253.3, -1097636.4, 4.8118696, 0.000443399, 0.000029710489, -1061253.3, -30779.752, 0.0, 10.002736, 9.954767 
5.095173e+3, 2.047982e+2, -973109.56, -1019251.1, 14.010765, 0.00044230753, 0.00015075259, -973109.56, -40131.227, 0.0, 10.002727, 9.942011 
5.095173e+3, 2.1474025e+2, -874850.75, -921247.3, 7.3014984, 0.00044117347, -0.00004419411, -874850.75, -39304.48, 0.0, 10.002717, 9.941669 
5.095172e+3, 2.246756e+2, -786584.5, -842995.5, 15.287626, 0.00044008804, 0.00020192355, -786584.5, -48404.723, 0.0, 10.002708, 9.928633 
5.0951713e+3, 2.346043e+2, -688178.2, -744837.75, 8.66301, 0.00043905625, -0.000011115898, -688178.2, -47299.69, 0.0, 10.0027, 9.928302 
5.095171e+3, 2.4452604e+2, -599873.94, -666904.4, 15.468225, 0.00043803427, 0.00014970201, -599873.94, -56228.574, 0.0, 10.002691, 9.9148655 
5.09517e+3, 2.5444102e+2, -501147.78, -568249.06, 8.858359, 0.00043702303, -0.000033698594, -501147.78, -54669.31, 0.0, 10.002683, 9.914765 
5.0951695e+3, 2.6434892e+2, -412934.25, -490913.56, 14.617402, 0.00043597491, 0.00021119457, -412934.25, -63553.23, 0.0, 10.002674, 9.900694 
5.095169e+3, 2.7425018e+2, -313675.16, -391320.53, 8.050129, 0.00043487936, -0.00013589185, -313675.16, -61326.336, 0.0, 10.002666, 9.9011135 
5.0951684e+3, 2.841432e+2, -227194.33, -317988.9, 11.483499, 0.00043399644, 0.00029444264, -227194.33, -71797.26, 0.0, 10.002659, 9.884205 
5.095168e+3, 2.9402846e+2, -127512.016, -217687.88, 5.3325787, 0.0004334011, -0.00018889454, -127512.016, -68990.48, 0.0, 10.00265, 9.884987 
5.095168e+3, 3.039416e+2, -37861.28, -84805.64, 6.060385, 0.00043214086, 0.0002344098, -37861.277, -37861.277, 0.0, 10.002643, 9.940863 
5.095167e+3, 3.1388438e+2, -36801.633, -82585.266, -0.9600652, 0.00042990022, -0.00000031210763, -36801.633, -36801.633, 0.0, 10.002635, 9.942366 
5.1051825e+3, 1.2503223e+2, -1716383.8, -1723821.1, 6.5120482, 0.00045835928, 0.00014557745, -1716383.8, -1698.8379, 0.0, 10.002886, 9.993028 
5.105182e+3, 1.3502511e+2, -1619037.8, -1627058.5, 1.0021291, 0.00045568426, -0.000032650732, -1619037.8, -2283.1084, 0.0, 10.002874, 9.992245 
5.105181e+3, 1.4501147e+2, -1530932.3, -1547731.6, 8.90597, 0.00045395095, 0.00022955195, -1530932.3, -12043.919, 0.0, 10.002863, 9.980603 
5.1051795e+3, 1.5499204e+2, -1433237.0, -1450431.8, 2.9391856, 0.00045314696, 0.00004125022, -1433237.0, -12158.353, 0.0, 10.002852, 9.980072 
5.105179e+3, 1.64966e+2, -1345256.4, -1371666.9, 12.550367, 0.00045206063, 0.00012353051, -1345256.4, -21922.355, 0.0, 10.002842, 9.9679365 
5.1051784e+3, 1.7493398e+2, -1247329.0, -1274048.1, 5.714882, 0.0004506911, 0.000019478546, -1247329.0, -21681.281, 0.0, 10.002832, 9.967523 
5.105178e+3, 1.8489534e+2, -1159266.9, -1195467.0, 16.22918, 0.00044948567, 0.00016380259, -1159266.9, -31240.441, 0.0, 10.002823, 9.955091 
5.1051766e+3, 1.9485046e+2, -1061146.4, -1097602.1, 9.338541, 0.00044844858, 0.000030987023, -1061146.4, -30680.193, 0.0, 10.002813, 9.954748 
5.105176e+3, 2.0479892e+2, -973002.7, -1019217.3, 18.593035, 0.00044737547, 0.0001520118, -973002.7, -40031.426, 0.0, 10.002805, 9.941992 
5.1051754e+3, 2.1474095e+2, -874743.8, -921213.75, 11.756349, 0.00044626332, -0.000042942647, -874743.8, -39204.47, 0.0, 10.002796, 9.941651 
5.105175e+3, 2.2467628e+2, -786477.5, -842962.44, 19.76081, 0.00044519815, 0.0002031571, -786477.5, -48304.477, 0.0, 10.002788, 9.928614 
5.105174e+3, 2.3460497e+2, -688071.2, -744804.94, 12.941094, 0.0004441848, -0.000009911691, -688071.2, -47199.2, 0.0, 10.002779, 9.928283 
5.1051736e+3, 2.4452668e+2, -599766.8, -666872.1, 19.71157, 0.00044318737, 0.0001508797, -599766.8, -56127.85, 0.0, 10.00277, 9.914846 
5.105173e+3, 2.5444168e+2, -501040.63, -568217.06, 12.947305, 0.00044220788, -0.000032544143, -501040.63, -54568.332, 0.0, 10.002763, 9.914746 
5.1051724e+3, 2.6434955e+2, -412827.13, -490882.22, 18.652811, 0.00044118077, 0.00021232622, -412827.1, -63452.063, 0.0, 10.002755, 9.900675 
5.105172e+3, 2.7425078e+2, -313568.0, -391289.5, 11.887873, 0.00044009273, -0.00013478234, -313568.0, -61224.996, 0.0, 10.002748, 9.901094 
5.1051706e+3, 2.8414378e+2, -227086.17, -317956.56, 15.187424, 0.0004392213, 0.0002955312, -227086.17, -71694.72, 0.0, 10.00274, 9.884187 
5.1051706e+3, 2.9402903e+2, -127403.695, -217655.66, 8.854776, 0.0004386428, -0.00018782559, -127403.695, -68887.59, 0.0, 10.002732, 9.884969 
5.10517e+3, 3.0394217e+2, -37755.42, -84778.375, 9.3462515, 0.00043742248, 0.0002354472, -37755.418, -37755.418, 0.0, 10.002725, 9.940842 
5.1051694e+3, 3.1388488e+2, -36695.145, -82558.08, 2.1168828, 0.00043525582, 0.0000006770957, -36695.145, -36695.145, 0.0, 10.002718, 9.942344 
5.115185e+3, 1.2503311e+2, -1716396.0, -1723844.9, 2.288003, 0.00046326878, 0.00014693347, -1716396.0, -1719.6278, 0.0, 10.002886, 9.993013 
5.115185e+3, 1.3502596e+2, -1619049.9, -1627082.1, -3.220849, 0.00046061023, -0.000031324522, -1619049.9, -2303.5962, 0.0, 10.002874, 9.992229 
5.1151836e+3, 1.4501232e+2, -1530945.1, -1547756.9, 4.919723, 0.0004589002, 0.00023088005, -1530945.1, -12065.061, 0.0, 10.002864, 9.980587 
5.1151824e+3, 1.5499288e+2, -1433249.8, -1450456.9, -1.0471319, 0.00045812601, 0.000042611315, -1433249.8, -12179.172, 0.0, 10.002853, 9.980056 
5.1151824e+3, 1.649668e+2, -1345270.9, -1371695.6, 8.835254, 0.00045708724, 0.00012486384, -1345270.9, -21944.826, 0.0, 10.002843, 9.967918 
5.115181e+3, 1.7493477e+2, -1247343.4, -1274076.6, 1.9988545, 0.00045578324, 0.000020723113, -1247343.4, -21703.393, 0.0, 10.002833, 9.9675045 
5.11518e+3, 1.848961e+2, -1159281.4, -1195496.0, 12.744993, 0.0004545893, 0.00016502735, -1159281.4, -31262.541, 0.0, 10.002823, 9.955073 
5.1151794e+3, 1.948512e+2, -1061160.8, -1097631.0, 5.855283, 0.0004535077, 0.000032263157, -1061160.8, -30701.928, 0.0, 10.002814, 9.95473 
5.115179e+3, 2.0479965e+2, -973017.0, -1019246.3, 15.299034, 0.00045244646, 0.0001532833, -973017.0, -40052.965, 0.0, 10.002805, 9.941974 
5.115178e+3, 2.1474166e+2, -874758.0, -921242.6, 8.46398, 0.00045140658, -0.00004173569, -874757.94, -39225.64, 0.0, 10.002796, 9.941632 
5.1151776e+3, 2.2467698e+2, -786491.75, -842991.7, 16.634573, 0.00045037334, 0.00020433242, -786491.75, -48325.563, 0.0, 10.002788, 9.928596 
5.115177e+3, 2.3460564e+2, -688085.25, -744834.0, 9.818374, 0.00044934667, -0.000008731116, -688085.25, -47219.918, 0.0, 10.00278, 9.928264 
5.1151764e+3, 2.4452735e+2, -599780.94, -666901.44, 16.718437, 0.00044837006, 0.00015205111, -599780.94, -56148.406, 0.0, 10.002771, 9.914827 
5.115176e+3, 2.544423e+2, -501054.53, -568246.2, 9.958847, 0.00044745192, -0.00003139902, -501054.53, -54588.51, 0.0, 10.002764, 9.914727 
5.1151747e+3, 2.6435015e+2, -412841.16, -490911.84, 15.763061, 0.00044645843, 0.00021343179, -412841.16, -63472.19, 0.0, 10.002756, 9.900655 
5.115174e+3, 2.7425137e+2, -313581.88, -391319.0, 9.00303, 0.0004453689, -0.00013373294, -313581.88, -61244.75, 0.0, 10.0027485, 9.901074 
5.115174e+3, 2.8414434e+2, -227099.19, -317984.47, 12.356206, 0.00044449687, 0.00029657024, -227099.19, -71713.43, 0.0, 10.002741, 9.884169 
5.1151735e+3, 2.9402956e+2, -127416.45, -217683.27, 6.0266614, 0.000443919, -0.00018673492, -127416.45, -68905.87, 0.0, 10.002733, 9.88495 
5.115173e+3, 3.039427e+2, -37770.035, -84809.97, 6.5634975, 0.00044274318, 0.00023650158, -37770.035, -37770.035, 0.0, 10.002726, 9.94082 
5.115172e+3, 3.1388542e+2, -36709.99, -82590.164, -0.6620183, 0.0004406859, 0.0000015658766, -36709.99, -36709.99, 0.0, 10.002718, 9.942322 
5.125188e+3, 1.2503399e+2, -1716285.9, -1723803.1, 6.6688538, 0.00046818267, 0.00014823233, -1716285.9, -1618.1796, 0.0, 10.002961, 9.992998 
5.1251876e+3, 1.3502684e+2, -1618939.5, -1627040.4, 1.0777049, 0.0004655817, -0.0000299649, -1618939.5, -2201.7158, 0.0, 10.002951, 9.992215 
5.1251864e+3, 1.4501317e+2, -1530835.3, -1547717.0, 9.392074, 0.0004639074, 0.00023223004, -1530835.3, -11963.472, 0.0, 10.00294, 9.980572 
5.125185e+3, 1.5499371e+2, -1433139.4, -1450417.0, 3.318555, 0.000463147, 0.000043881646, -1433139.4, -12077.037, 0.0, 10.002931, 9.98004 
5.1251847e+3, 1.6496763e+2, -1345162.1, -1371659.6, 13.328548, 0.000462135, 0.00012610717, -1345162.1, -21844.084, 0.0, 10.002921, 9.967899 
5.125184e+3, 1.7493558e+2, -1247234.4, -1274040.8, 6.3242188, 0.00046087094, 0.000021992622, -1247234.4, -21602.291, 0.0, 10.002912, 9.967485 
5.125183e+3, 1.848969e+2, -1159172.4, -1195460.8, 17.169386, 0.00045970574, 0.0001662881, -1159172.4, -31161.176, 0.0, 10.002902, 9.955054 
5.125183e+3, 1.9485198e+2, -1061051.5, -1097595.9, 10.140696, 0.00045864133, 0.000033479082, -1061051.5, -30600.2, 0.0, 10.002893, 9.954711 
5.1251817e+3, 2.048004e+2, -972907.7, -1019211.75, 19.625975, 0.0004576011, 0.00015447722, -972907.6, -39950.9, 0.0, 10.002885, 9.941955 
5.125181e+3, 2.1474239e+2, -874648.5, -921208.25, 12.609016, 0.00045658636, -0.00004053935, -874648.5, -39123.27, 0.0, 10.002876, 9.941613 
5.12518e+3, 2.2467768e+2, -786382.25, -842957.9, 20.782755, 0.00045557725, 0.00020550987, -786382.25, -48222.945, 0.0, 10.002869, 9.9285755 
5.12518e+3, 2.3460633e+2, -687975.6, -744800.44, 13.794017, 0.00045457363, -0.000007596395, -687975.6, -47117.023, 0.0, 10.002861, 9.928245 
5.125179e+3, 2.4452803e+2, -599671.2, -666868.3, 20.672647, 0.0004536198, 0.00015316095, -599671.2, -56045.19, 0.0, 10.002853, 9.914807 
5.125178e+3, 2.5444296e+2, -500944.7, -568213.4, 13.748279, 0.00045272408, -0.000030293013, -500944.66, -54485.008, 0.0, 10.002846, 9.914707 
5.1251775e+3, 2.643508e+2, -412731.28, -490879.72, 19.492813, 0.00045175376, 0.00021451354, -412731.28, -63368.49, 0.0, 10.002838, 9.900635 
5.1251775e+3, 2.74252e+2, -313471.94, -391287.16, 12.546522, 0.00045068833, -0.0001327012, -313471.94, -61140.773, 0.0, 10.002831, 9.901055 
5.125177e+3, 2.8414497e+2, -226988.13, -317951.25, 15.794789, 0.00044983698, 0.00029758533, -226988.13, -71608.15, 0.0, 10.002824, 9.88415 
5.1251763e+3, 2.9403016e+2, -127305.16, -217650.16, 9.270713, 0.00044927522, -0.00018569149, -127305.16, -68800.164, 0.0, 10.002817, 9.884932 
5.125175e+3, 3.0394328e+2, -37661.25, -84781.914, 9.580891, 0.0004481395, 0.00023750629, -37661.25, -37661.25, 0.0, 10.0028105, 9.940798 
5.1251745e+3, 3.1388593e+2, -36600.66, -82562.234, 2.1424978, 0.00044615794, 0.0000024334643, -36600.66, -36600.66, 0.0, 10.002804, 9.9423 
5.1351917e+3, 1.2503488e+2, -1716298.4, -1723827.3, 2.6455991, 0.0004731038, 0.00014947898, -1716298.4, -1639.3608, 0.0, 10.002962, 9.992984 
5.1351905e+3, 1.3502772e+2, -1618951.8, -1627064.4, -2.945446, 0.00047059866, -0.00002857338, -1618951.8, -2222.5884, 0.0, 10.002952, 9.9922 
5.135189e+3, 1.4501403e+2, -1530848.4, -1547742.6, 5.6321754, 0.00046897176, 0.00023360118, -1530848.4, -11985.045, 0.0, 10.002941, 9.980556 
5.1351887e+3, 1.5499456e+2, -1433152.4, -1450442.5, -0.44106692, 0.00046821043, 0.000045068435, -1433152.4, -12098.28, 0.0, 10.002931, 9.980023 
5.1351875e+3, 1.6496846e+2, -1345177.0, -1371689.0, 9.790399, 0.00046720594, 0.00012726772, -1345177.0, -21867.107, 0.0, 10.002921, 9.967881 
5.135187e+3, 1.7493638e+2, -1247249.1, -1274070.0, 2.7850108, 0.00046595788, 0.000023286153, -1247249.1, -21624.945, 0.0, 10.002912, 9.967467 
5.1351863e+3, 1.8489769e+2, -1159187.3, -1195490.4, 13.865805, 0.0004648376, 0.00016758312, -1159187.3, -31183.748, 0.0, 10.002903, 9.955035 
5.135186e+3, 1.9485275e+2, -1061066.1, -1097625.4, 6.837806, 0.0004638479, 0.000034639754, -1061066.1, -30622.396, 0.0, 10.002894, 9.954693 
5.1351845e+3, 2.0480116e+2, -972922.4, -1019241.5, 16.501404, 0.0004628372, 0.00015559972, -972922.4, -39972.984, 0.0, 10.002886, 9.941936 
5.135184e+3, 2.1474314e+2, -874663.0, -921237.8, 9.485726, 0.0004618037, -0.000039352148, -874663.0, -39144.98, 0.0, 10.002877, 9.941594 
5.1351833e+3, 2.2467841e+2, -786396.8, -842987.8, 17.823017, 0.00046081157, 0.00020669, -786396.8, -48244.547, 0.0, 10.002869, 9.928556 
5.135183e+3, 2.3460703e+2, -687990.0, -744830.25, 10.838143, 0.00045986497, -0.000006503695, -687990.0, -47138.242, 0.0, 10.002861, 9.9282255 
5.135182e+3, 2.445287e+2, -599685.56, -666898.3, 17.853682, 0.0004589357, 0.00015421408, -599685.56, -56066.227, 0.0, 10.002853, 9.914788 
5.135181e+3, 2.5444362e+2, -500958.88, -568243.2, 10.933594, 0.00045802616, -0.000029222785, -500958.88, -54505.664, 0.0, 10.002846, 9.914688 
5.135181e+3, 2.6435143e+2, -412745.7, -490910.1, 16.780706, 0.00045706928, 0.00021557373, -412745.7, -63389.12, 0.0, 10.002839, 9.900615 
5.1351804e+3, 2.742526e+2, -313486.13, -391317.38, 9.839933, 0.0004560518, -0.00013168523, -313486.13, -61161.02, 0.0, 10.002831, 9.901034 
5.13518e+3, 2.8414553e+2, -227001.48, -317979.94, 13.169734, 0.00045524116, 0.00029857873, -227001.47, -71627.35, 0.0, 10.002825, 9.8841305 
5.1351786e+3, 2.9403073e+2, -127318.25, -217678.53, 6.6519156, 0.00045470992, -0.00018469155, -127318.24, -68818.92, 0.0, 10.002818, 9.8849125 
5.135178e+3, 3.039438e+2, -37676.227, -84814.32, 7.0043426, 0.0004536103, 0.00023846519, -37676.227, -37676.227, 0.0, 10.0028105, 9.940776 
5.135178e+3, 3.1388646e+2, -36615.863, -82595.14, -0.43153074, 0.00045167308, 0.0000032818537, -36615.863, -36615.863, 0.0, 10.002804, 9.942277 
5.1451945e+3, 1.250358e+2, -1716186.4, -1723784.8, 6.8330526, 0.00047806796, 0.0001507636, -1716186.4, -1536.2092, 0.0, 10.003039, 9.992969 
5.1451933e+3, 1.3502862e+2, -1618839.3, -1627021.9, 1.1000036, 0.00047562894, -0.000027348116, -1618839.3, -2118.7815, 0.0, 10.003029, 9.992185 
5.145192e+3, 1.4501491e+2, -1530736.1, -1547701.9, 9.823248, 0.0004740484, 0.000234812, -1530736.1, -11881.395, 0.0, 10.003019, 9.980539 
5.1451916e+3, 1.5499543e+2, -1433039.8, -1450401.9, 3.6544054, 0.00047331362, 0.00004630893, -1433039.8, -11994.107, 0.0, 10.00301, 9.980007 
5.145191e+3, 1.649693e+2, -1345066.1, -1371652.4, 13.993772, 0.00047233302, 0.00012849816, -1345066.1, -21764.389, 0.0, 10.003, 9.967862 
5.14519e+3, 1.749372e+2, -1247137.8, -1274033.5, 6.817208, 0.00047110632, 0.000024466779, -1247137.8, -21521.67, 0.0, 10.002992, 9.967448 
5.145189e+3, 1.8489848e+2, -1159075.6, -1195454.3, 17.963467, 0.00047002026, 0.00016874501, -1159075.6, -31080.064, 0.0, 10.002983, 9.955016 
5.1451886e+3, 1.9485353e+2, -1060954.5, -1097589.5, 10.779437, 0.00046907808, 0.000035814926, -1060954.5, -30518.365, 0.0, 10.002975, 9.954673 
5.1451874e+3, 2.0480193e+2, -972810.56, -1019206.2, 20.47521, 0.00046809937, 0.00015675074, -972810.5, -39868.65, 0.0, 10.002967, 9.9419155 
5.145187e+3, 2.1474388e+2, -874550.94, -921202.75, 13.26849, 0.0004670812, -0.000038265247, -874550.94, -39040.23, 0.0, 10.002959, 9.941575 
5.145186e+3, 2.2467914e+2, -786284.6, -842953.1, 21.597132, 0.0004661076, 0.00020775401, -786284.56, -48139.434, 0.0, 10.002952, 9.928536 
5.1451856e+3, 2.3460773e+2, -687877.7, -744795.8, 14.45991, 0.00046518302, -0.000005416471, -687877.7, -47032.844, 0.0, 10.002944, 9.9282055 
5.1451844e+3, 2.4452938e+2, -599573.2, -666864.44, 21.450241, 0.00046427498, 0.00015528292, -599573.2, -55960.555, 0.0, 10.002937, 9.914768 
5.145184e+3, 2.5444427e+2, -500846.4, -568209.6, 14.324956, 0.00046338572, -0.000028221555, -500846.4, -54399.71, 0.0, 10.002931, 9.914668 
5.145184e+3, 2.6435208e+2, -412633.13, -490877.2, 20.11517, 0.00046245716, 0.0002165409, -412633.13, -63282.902, 0.0, 10.002924, 9.900595 
5.145183e+3, 2.7425325e+2, -313373.4, -391284.72, 13.006591, 0.00046147816, -0.00013070958, -313373.4, -61054.414, 0.0, 10.002917, 9.901014 
5.145182e+3, 2.8414616e+2, -226887.58, -317945.84, 16.266968, 0.00046069882, 0.0002995521, -226887.56, -71519.375, 0.0, 10.002911, 9.884111 
5.1451814e+3, 2.9403132e+2, -127204.13, -217644.56, 9.595235, 0.0004601891, -0.00018373548, -127204.13, -68710.55, 0.0, 10.002904, 9.884893 
5.1451814e+3, 3.039444e+2, -37564.656, -84785.62, 9.761291, 0.0004591244, 0.00023938302, -37564.656, -37564.656, 0.0, 10.002898, 9.940753 
5.145181e+3, 3.1388703e+2, -36503.48, -82566.46, 2.0626707, 0.0004572422, 0.0000041317603, -36503.48, -36503.48, 0.0, 10.002892, 9.942254 
5.1551974e+3, 1.250367e+2, -1716199.1, -1723809.5, 3.0602708, 0.00048307524, 0.00015208419, -1716199.1, -1557.9125, 0.0, 10.003039, 9.992953 
5.155196e+3, 1.3502951e+2, -1618851.9, -1627046.5, -2.669951, 0.0004806749, -0.000026276302, -1618851.9, -2140.1626, 0.0, 10.00303, 9.992169 
5.1551956e+3, 1.4501579e+2, -1530749.5, -1547728.0, 6.286549, 0.0004791399, 0.00023587488, -1530749.5, -11903.356, 0.0, 10.003019, 9.980522 
5.1551944e+3, 1.5499629e+2, -1433052.9, -1450427.8, 0.11628113, 0.00047845714, 0.000047600046, -1433052.9, -12015.735, 0.0, 10.003011, 9.979991 
5.155194e+3, 1.6497016e+2, -1345081.4, -1371682.5, 10.6796665, 0.00047751574, 0.00012979418, -1345081.4, -21787.959, 0.0, 10.003001, 9.967843 
5.1551926e+3, 1.7493805e+2, -1247152.9, -1274063.5, 3.5029593, 0.00047631547, 0.00002554327, -1247152.9, -21544.857, 0.0, 10.002993, 9.967429 
5.155192e+3, 1.8489929e+2, -1159090.8, -1195484.5, 14.837838, 0.0004752538, 0.00016978402, -1159090.8, -31103.129, 0.0, 10.002984, 9.954997 
5.1551914e+3, 1.9485432e+2, -1060969.4, -1097619.6, 7.6530023, 0.00047433382, 0.000037004284, -1060969.4, -30541.045, 0.0, 10.002975, 9.954654 
5.15519e+3, 2.0480269e+2, -972825.6, -1019236.75, 17.546896, 0.0004733894, 0.00015792892, -972825.56, -39891.29, 0.0, 10.002968, 9.941896 
5.15519e+3, 2.1474463e+2, -874565.8, -921233.1, 10.342767, 0.0004724184, -0.000037270955, -874565.8, -39062.484, 0.0, 10.00296, 9.941555 
5.155189e+3, 2.2467987e+2, -786299.5, -842983.75, 18.808033, 0.0004714648, 0.00020871068, -786299.44, -48161.492, 0.0, 10.002953, 9.928517 
5.1551884e+3, 2.3460844e+2, -687892.4, -744826.25, 11.67272, 0.00047052972, -0.000004333687, -687892.4, -47054.51, 0.0, 10.002945, 9.928185 
5.155187e+3, 2.4453008e+2, -599588.0, -666895.25, 18.802631, 0.00046963984, 0.000156367, -599587.94, -55982.137, 0.0, 10.002938, 9.914748 
5.155187e+3, 2.5444496e+2, -500861.0, -568240.25, 11.68292, 0.00046880255, -0.000027283959, -500861.0, -54420.902, 0.0, 10.002931, 9.914648 
5.1551867e+3, 2.643527e+2, -412647.84, -490908.25, 17.6102, 0.0004679162, 0.00021742203, -412647.84, -63303.992, 0.0, 10.002924, 9.900575 
5.155186e+3, 2.7425385e+2, -313387.9, -391315.63, 10.508968, 0.00046696697, -0.00012977097, -313387.9, -61075.11, 0.0, 10.002917, 9.900994 
5.155185e+3, 2.8414676e+2, -226901.19, -317975.16, 13.845601, 0.0004662103, 0.00030050744, -226901.19, -71538.99, 0.0, 10.002911, 9.884091 
5.155185e+3, 2.9403192e+2, -127217.48, -217673.53, 7.1792235, 0.00046571362, -0.0001828197, -127217.48, -68729.7, 0.0, 10.002905, 9.884873 
5.155184e+3, 3.0394495e+2, -37580.08, -84819.01, 7.454757, 0.00046468287, 0.00024026317, -37580.074, -37580.074, 0.0, 10.002898, 9.94073 
5.1551837e+3, 3.1388757e+2, -36519.15, -82600.4, -0.23159426, 0.00046286578, 0.0000049834644, -36519.15, -36519.15, 0.0, 10.0028925, 9.942231 
5.1652e+3, 1.2503763e+2, -1716085.0, -1723766.1, 6.8736277, 0.0004880805, 0.00015325323, -1716085.0, -1452.9423, 0.0, 10.003118, 9.992937 
5.165199e+3, 1.3503042e+2, -1618737.1, -1627003.1, 1.1311967, 0.00048576746, -0.000025111847, -1618737.1, -2034.3945, 0.0, 10.003109, 9.992154 
5.1651984e+3, 1.450167e+2, -1530635.1, -1547686.4, 10.221987, 0.00048428428, 0.00023702603, -1530635.1, -11797.748, 0.0, 10.003099, 9.980506 
5.165198e+3, 1.5499716e+2, -1432938.0, -1450386.3, 3.866181, 0.00048361797, 0.00004872902, -1432938.0, -11909.455, 0.0, 10.003091, 9.979975 
5.1651967e+3, 1.6497101e+2, -1344968.0, -1371645.1, 14.496323, 0.0004827172, 0.00013091815, -1344968.0, -21683.068, 0.0, 10.003082, 9.967824 
5.165196e+3, 1.7493889e+2, -1247039.1, -1274026.1, 7.190501, 0.00048158193, 0.000026679625, -1247039.1, -21439.41, 0.0, 10.003075, 9.96741 
5.1651955e+3, 1.8490012e+2, -1158976.9, -1195447.8, 18.567253, 0.000480552, 0.00017089224, -1158976.9, -30997.229, 0.0, 10.003066, 9.954977 
5.165194e+3, 1.9485514e+2, -1060855.0, -1097582.9, 11.168168, 0.00047962944, 0.00003804255, -1060855.0, -30434.545, 0.0, 10.003058, 9.954635 
5.165193e+3, 2.0480348e+2, -972711.06, -1019200.56, 21.056698, 0.00047870475, 0.00015893778, -972711.0, -39784.375, 0.0, 10.003052, 9.941876 
5.165193e+3, 2.1474539e+2, -874451.2, -921197.2, 13.708126, 0.00047777742, -0.000036248242, -874451.2, -38955.293, 0.0, 10.003044, 9.941535 
5.165192e+3, 2.246806e+2, -786184.7, -842948.3, 22.160645, 0.00047685727, 0.00020972342, -786184.7, -48054.0, 0.0, 10.0030365, 9.928497 
5.165191e+3, 2.3460916e+2, -687777.44, -744791.06, 14.811321, 0.00047594437, -0.0000033575188, -687777.44, -46946.645, 0.0, 10.00303, 9.928165 
5.1651907e+3, 2.4453078e+2, -599472.9, -666860.56, 21.899935, 0.0004750806, 0.0001573183, -599472.9, -55873.914, 0.0, 10.003023, 9.914727 
5.16519e+3, 2.5444564e+2, -500745.84, -568205.9, 14.633792, 0.0004742741, -0.000026343752, -500745.84, -54312.4, 0.0, 10.003017, 9.914627 
5.1651895e+3, 2.643534e+2, -412532.63, -490874.56, 20.548834, 0.00047342293, 0.00021833979, -412532.63, -63195.258, 0.0, 10.003011, 9.900554 
5.165189e+3, 2.742545e+2, -313272.63, -391282.25, 13.260852, 0.00047251454, -0.00012888988, -313272.63, -60966.08, 0.0, 10.003005, 9.900973 
5.165188e+3, 2.841474e+2, -226784.66, -317940.25, 16.534575, 0.00047177498, 0.0003013691, -226784.66, -71428.52, 0.0, 10.002998, 9.884071 
5.165188e+3, 2.940325e+2, -127100.53, -217638.69, 9.689113, 0.00047126305, -0.0001819544, -127100.53, -68618.625, 0.0, 10.002994, 9.884853 
5.165187e+3, 3.039455e+2, -37465.652, -84789.54, 9.849045, 0.00047027174, 0.00024109732, -37465.65, -37465.65, 0.0, 10.002988, 9.940707 
5.1651865e+3, 3.1388813e+2, -36403.953, -82570.98, 2.01568, 0.00046857505, 0.000005736094, -36403.953, -36403.953, 0.0, 10.002982, 9.942207 
5.1752037e+3, 1.2503856e+2, -1716097.8, -1723790.9, 3.3906374, 0.0004930873, 0.00015428268, -1716097.8, -1474.8356, 0.0, 10.0031185, 9.992922 
5.1752025e+3, 1.3503134e+2, -1618749.8, -1627027.6, -2.3531952, 0.00049090665, -0.000023860892, -1618749.8, -2055.9712, 0.0, 10.003109, 9.992139 
5.175202e+3, 1.450176e+2, -1530648.8, -1547713.3, 6.9411674, 0.0004894812, 0.00023825957, -1530648.8, -11820.295, 0.0, 10.0031, 9.980489 
5.1752007e+3, 1.5499805e+2, -1432951.6, -1450413.0, 0.5867055, 0.0004887985, 0.000049708407, -1432951.6, -11931.65, 0.0, 10.003092, 9.979958 
5.1751995e+3, 1.6497187e+2, -1344983.5, -1371675.8, 11.408323, 0.00048793972, 0.00013188338, -1344983.5, -21707.064, 0.0, 10.003083, 9.967805 
5.1751995e+3, 1.7493972e+2, -1247054.4, -1274056.6, 4.099796, 0.00048690516, 0.000027872116, -1247054.4, -21463.016, 0.0, 10.003075, 9.967391 
5.1751983e+3, 1.8490095e+2, -1158992.4, -1195478.9, 15.67936, 0.00048591386, 0.00017206515, -1158992.4, -31020.893, 0.0, 10.003067, 9.954957 
5.175197e+3, 1.9485594e+2, -1060870.4, -1097613.9, 8.281567, 0.00048496586, 0.000038941253, -1060870.4, -30457.814, 0.0, 10.003059, 9.954615 
5.1751965e+3, 2.0480426e+2, -972726.4, -1019231.7, 18.294714, 0.00048404754, 0.00015979016, -972726.4, -39807.45, 0.0, 10.003052, 9.941856 
5.175196e+3, 2.1474615e+2, -874466.3, -921228.1, 10.945551, 0.00048316052, -0.00003519857, -874466.3, -38977.97, 0.0, 10.003044, 9.941515 
5.1751953e+3, 2.2468136e+2, -786200.0, -842979.75, 19.562494, 0.00048228644, 0.00021078873, -786200.0, -48076.617, 0.0, 10.003037, 9.928476 
5.175194e+3, 2.3460989e+2, -687792.56, -744822.3, 12.21749, 0.00048142602, -0.0000024798635, -687792.5, -46968.867, 0.0, 10.003031, 9.928145 
5.175194e+3, 2.445315e+2, -599487.94, -666892.0, 19.428415, 0.0004805958, 0.00015814678, -599487.94, -55895.91, 0.0, 10.003024, 9.914707 
5.175193e+3, 2.5444633e+2, -500760.7, -568237.06, 12.166074, 0.0004798004, -0.00002540064, -500760.7, -54333.992, 0.0, 10.003017, 9.914607 
5.1751924e+3, 2.6435405e+2, -412547.66, -490906.38, 18.229393, 0.00047897804, 0.00021929201, -412547.66, -63216.824, 0.0, 10.003012, 9.900533 
5.175192e+3, 2.7425513e+2, -313287.44, -391313.88, 10.950248, 0.00047812078, -0.00012806179, -313287.44, -60987.242, 0.0, 10.003005, 9.900952 
5.175191e+3, 2.84148e+2, -226798.6, -317970.28, 14.367912, 0.00047739316, 0.00030214415, -226798.6, -71448.586, 0.0, 10.002999, 9.884051 
5.1751906e+3, 2.940331e+2, -127114.195, -217668.39, 7.5340686, 0.00047683986, -0.00018113566, -127114.195, -68638.22, 0.0, 10.002994, 9.884834 
5.17519e+3, 3.0394614e+2, -37481.332, -84823.54, 7.808376, 0.00047589318, 0.0002418891, -37481.332, -37481.332, 0.0, 10.002988, 9.940684 
5.1751894e+3, 3.1388867e+2, -36419.875, -82605.51, -0.013397871, 0.00047436834, 0.0000063970374, -36419.875, -36419.875, 0.0, 10.002983, 9.9421835 
5.1852065e+3, 1.2503952e+2, -1715981.6, -1723746.9, 7.0154896, 0.0004981085, 0.00015530143, -1715981.6, -1367.941, 0.0, 10.003198, 9.992907 
5.1852053e+3, 1.3503227e+2, -1618632.9, -1626983.5, 1.0500984, 0.00049605063, -0.000022727561, -1618632.9, -1948.2823, 0.0, 10.00319, 9.992123 
5.185205e+3, 1.450185e+2, -1530532.3, -1547671.0, 10.436252, 0.00049470604, 0.00023939187, -1530532.1, -11712.644, 0.0, 10.003181, 9.980472 
5.1852036e+3, 1.5499894e+2, -1432834.3, -1450370.6, 4.0241017, 0.00049406243, 0.000050725037, -1432834.3, -11823.104, 0.0, 10.003174, 9.97994 
5.185203e+3, 1.6497275e+2, -1344867.8, -1371637.6, 14.877625, 0.0004932302, 0.00013286254, -1344867.8, -21599.861, 0.0, 10.003166, 9.967785 
5.1852024e+3, 1.749406e+2, -1246938.1, -1274018.5, 7.3142943, 0.00049220957, 0.000028892551, -1246938.1, -21355.055, 0.0, 10.003159, 9.967371 
5.185201e+3, 1.8490179e+2, -1158875.6, -1195441.3, 18.881275, 0.0004912576, 0.00017307549, -1158875.6, -30912.406, 0.0, 10.003151, 9.954937 
5.1852006e+3, 1.9485675e+2, -1060753.5, -1097576.4, 11.363748, 0.000490375, 0.00003988847, -1060753.5, -30348.924, 0.0, 10.003144, 9.954595 
5.1852e+3, 2.0480508e+2, -972609.3, -1019194.8, 21.348946, 0.00048949436, 0.00016070929, -972609.3, -39698.207, 0.0, 10.003138, 9.941836 
5.185199e+3, 2.1474694e+2, -874349.0, -921191.44, 13.75725, 0.00048861536, -0.00003427007, -874349.0, -38868.242, 0.0, 10.003131, 9.941495 
5.185198e+3, 2.2468211e+2, -786082.5, -842943.5, 22.322632, 0.00048776658, 0.0002117014, -786082.5, -47966.527, 0.0, 10.003124, 9.928455 
5.1851976e+3, 2.3461065e+2, -687675.06, -744786.4, 14.840098, 0.0004869506, -0.0000016112492, -687675.06, -46858.586, 0.0, 10.003118, 9.928124 
5.185197e+3, 2.4453221e+2, -599370.4, -666856.56, 22.047697, 0.00048614907, 0.00015899095, -599370.3, -55785.32, 0.0, 10.003112, 9.914686 
5.1851964e+3, 2.54447e+2, -500642.9, -568201.9, 14.588427, 0.00048536377, -0.000024557727, -500642.9, -54222.992, 0.0, 10.003106, 9.914586 
5.185195e+3, 2.6435474e+2, -412429.75, -490871.84, 20.627731, 0.0004845545, 0.00022011607, -412429.75, -63105.496, 0.0, 10.0031, 9.900511 
5.1851946e+3, 2.742558e+2, -313169.38, -391279.66, 13.19898, 0.00048371416, -0.00012727873, -313169.38, -60875.563, 0.0, 10.003095, 9.90093 
5.1851946e+3, 2.8414866e+2, -226679.34, -317934.6, 16.620214, 0.00048302006, 0.00030290257, -226679.33, -71335.51, 0.0, 10.003089, 9.884031 
5.185194e+3, 2.9403374e+2, -126994.69, -217632.81, 9.629483, 0.00048252277, -0.00018038001, -126994.69, -68524.7, 0.0, 10.003084, 9.884813 
5.185193e+3, 3.039467e+2, -37364.41, -84793.42, 9.831212, 0.0004816359, 0.00024261557, -37364.41, -37364.41, 0.0, 10.003079, 9.94066 
5.185192e+3, 3.1388927e+2, -36301.965, -82575.336, 1.80081, 0.00048017647, 0.000007056254, -36301.965, -36301.965, 0.0, 10.003075, 9.94216 
5.19521e+3, 1.2504047e+2, -1715994.9, -1723772.5, 3.8149676, 0.0005031467, 0.00015631106, -1715994.9, -1390.5146, 0.0, 10.003199, 9.99289 
5.195209e+3, 1.350332e+2, -1618646.0, -1627009.1, -2.1466463, 0.0005012027, -0.000021702497, -1618646.0, -1970.5126, 0.0, 10.00319, 9.992106 
5.195208e+3, 1.4501943e+2, -1530546.0, -1547698.1, 7.4684224, 0.0004999603, 0.00024043099, -1530546.0, -11735.447, 0.0, 10.003182, 9.980455 
5.195207e+3, 1.5499985e+2, -1432847.9, -1450397.5, 1.0531454, 0.00049940724, 0.000051776708, -1432847.9, -11845.557, 0.0, 10.003174, 9.979923 
5.195206e+3, 1.6497363e+2, -1344883.8, -1371669.3, 12.060549, 0.0004985873, 0.00013385517, -1344883.8, -21624.55, 0.0, 10.003166, 9.967765 
5.195205e+3, 1.7494145e+2, -1246953.9, -1274050.0, 4.4981947, 0.0004975005, 0.00002975426, -1246953.9, -21379.338, 0.0, 10.0031595, 9.967351 
5.1952046e+3, 1.8490264e+2, -1158891.4, -1195472.9, 16.186493, 0.0004965886, 0.00017393586, -1158891.4, -30936.44, 0.0, 10.003152, 9.954917 
5.1952034e+3, 1.9485758e+2, -1060769.0, -1097607.8, 8.66601, 0.0004958553, 0.0000408811, -1060769.0, -30372.555, 0.0, 10.003145, 9.954575 
5.195203e+3, 2.0480587e+2, -972625.1, -1019226.94, 18.799543, 0.0004950413, 0.00016169062, -972625.1, -39721.9, 0.0, 10.003138, 9.941815 
5.195202e+3, 2.1474773e+2, -874364.56, -921223.4, 11.210614, 0.0004941408, -0.00003345343, -874364.56, -38891.53, 0.0, 10.003131, 9.941474 
5.195201e+3, 2.2468288e+2, -786098.0, -842975.5, 19.873636, 0.000493298, 0.00021247307, -786098.0, -47989.535, 0.0, 10.003125, 9.928435 
5.1952004e+3, 2.3461138e+2, -687690.4, -744818.2, 12.391752, 0.000492519, -0.0000007506116, -687690.4, -46881.184, 0.0, 10.0031185, 9.928103 
5.1952e+3, 2.4453293e+2, -599385.75, -666888.75, 19.779198, 0.00049174175, 0.00015985001, -599385.75, -55807.81, 0.0, 10.003112, 9.914665 
5.195199e+3, 2.544477e+2, -500658.13, -568233.94, 12.327911, 0.0004909657, -0.000023807368, -500658.13, -54245.074, 0.0, 10.003106, 9.914565 
5.1951987e+3, 2.6435542e+2, -412445.06, -490904.28, 18.510899, 0.000490155, 0.00022082162, -412445.06, -63127.457, 0.0, 10.0031, 9.90049 
5.1951975e+3, 2.7425644e+2, -313184.5, -391311.9, 11.089972, 0.00048929994, -0.00012653712, -313184.5, -60897.11, 0.0, 10.003095, 9.900909 
5.1951975e+3, 2.841493e+2, -226693.56, -317965.25, 14.668942, 0.0004886594, 0.00030364582, -226693.56, -71355.97, 0.0, 10.00309, 9.884011 
5.195197e+3, 2.9403433e+2, -127008.63, -217663.16, 7.691503, 0.0004883083, -0.00017968255, -127008.63, -68544.68, 0.0, 10.003085, 9.884793 
5.195196e+3, 3.039473e+2, -37380.465, -84828.26, 8.104173, 0.00048749548, 0.00024328174, -37380.465, -37380.465, 0.0, 10.00308, 9.940637 
5.1951957e+3, 3.138898e+2, -36318.27, -82610.73, 0.09741607, 0.0004860029, 0.000007714022, -36318.27, -36318.27, 0.0, 10.003076, 9.942136 
5.205213e+3, 1.2504143e+2, -1715876.9, -1723727.8, 6.9379706, 0.0005082641, 0.00015736894, -1715876.9, -1281.9591, 0.0, 10.00328, 9.992874 
5.2052116e+3, 1.3503414e+2, -1618526.8, -1626964.0, 0.9864154, 0.00050640147, -0.000020808193, -1618526.8, -1860.574, 0.0, 10.003272, 9.992091 
5.205211e+3, 1.4502035e+2, -1530426.9, -1547654.9, 10.6496935, 0.00050522847, 0.00024130619, -1530426.9, -11625.415, 0.0, 10.003265, 9.980437 
5.2052104e+3, 1.5500076e+2, -1432728.0, -1450354.3, 3.9578946, 0.00050473254, 0.00005277517, -1432728.0, -11734.634, 0.0, 10.003258, 9.979906 
5.205209e+3, 1.6497454e+2, -1344765.4, -1371630.4, 14.941508, 0.0005039679, 0.0001348324, -1344765.4, -21514.926, 0.0, 10.003251, 9.967745 
5.2052087e+3, 1.7494231e+2, -1246834.9, -1274011.0, 7.2977242, 0.0005029347, 0.00003056541, -1246834.9, -21268.902, 0.0, 10.003244, 9.967331 
5.2052075e+3, 1.8490349e+2, -1158772.1, -1195434.5, 18.90709, 0.00050204893, 0.00017471795, -1158772.1, -30825.467, 0.0, 10.003239, 9.954897 
5.205207e+3, 1.9485842e+2, -1060649.4, -1097569.5, 11.08946, 0.00050131377, 0.00004177525, -1060649.3, -30261.004, 0.0, 10.003232, 9.954554 
5.205206e+3, 2.0480669e+2, -972505.25, -1019189.1, 21.137123, 0.0005005399, 0.00016258897, -972505.25, -39609.945, 0.0, 10.003225, 9.941794 
5.205205e+3, 2.147485e+2, -874244.7, -921185.8, 13.444441, 0.00049972435, -0.000032666012, -874244.7, -38779.36, 0.0, 10.00322, 9.941453 
5.2052045e+3, 2.2468366e+2, -785978.0, -842938.5, 22.082842, 0.00049891457, 0.00021321193, -785978.0, -47877.05, 0.0, 10.003213, 9.928414 
5.205204e+3, 2.3461212e+2, -687570.1, -744781.44, 14.378124, 0.0004981104, 0.000000009440744, -687570.1, -46768.273, 0.0, 10.003207, 9.928082 
5.205203e+3, 2.4453366e+2, -599265.4, -666852.44, 21.74374, 0.0004973376, 0.00016059706, -599265.4, -55694.535, 0.0, 10.0032015, 9.914643 
5.2052027e+3, 2.544484e+2, -500537.8, -568197.94, 14.171423, 0.00049660075, -0.000023113762, -500537.78, -54131.66, 0.0, 10.003197, 9.914543 
5.2052015e+3, 2.6435608e+2, -412324.75, -490869.06, 20.388798, 0.000495831, 0.00022149063, -412324.75, -63013.855, 0.0, 10.003191, 9.900468 
5.205201e+3, 2.7425712e+2, -313064.0, -391277.0, 12.7848835, 0.00049501884, -0.00012585611, -313064.0, -60783.11, 0.0, 10.003186, 9.9008875 
5.205201e+3, 2.8414994e+2, -226571.77, -317928.78, 16.37545, 0.0004943992, 0.0003043296, -226571.77, -71240.45, 0.0, 10.003181, 9.88399 
5.2052e+3, 2.94035e+2, -126886.49, -217626.75, 9.263482, 0.0004940392, -0.0001790091, -126886.49, -68428.61, 0.0, 10.003178, 9.884773 
5.205199e+3, 3.039479e+2, -37260.98, -84797.47, 9.709431, 0.00049328344, 0.00024392188, -37260.98, -37260.98, 0.0, 10.003173, 9.940613 
5.2051985e+3, 3.1389037e+2, -36197.945, -82579.98, 1.555074, 0.00049194566, 0.000008288216, -36197.945, -36197.945, 0.0, 10.003169, 9.942111 
5.215216e+3, 1.250424e+2, -1715890.0, -1723753.5, 4.1643634, 0.000513458, 0.00015847111, -1715890.0, -1304.6294, 0.0, 10.00328, 9.992858 
5.215215e+3, 1.3503511e+2, -1618539.8, -1626989.5, -1.7899439, 0.0005116471, -0.00002003365, -1618539.8, -1882.9064, 0.0, 10.003273, 9.992075 
5.2152145e+3, 1.4502129e+2, -1530441.3, -1547683.3, 7.9873133, 0.00051051326, 0.00024203112, -1530441.3, -11648.97, 0.0, 10.003265, 9.98042 
5.2152133e+3, 1.5500169e+2, -1432742.1, -1450382.4, 1.2979296, 0.0005100438, 0.000053724674, -1432742.1, -11757.814, 0.0, 10.003259, 9.979888 
5.215212e+3, 1.6497543e+2, -1344781.5, -1371662.4, 12.411681, 0.0005093742, 0.0001357954, -1344781.5, -21539.885, 0.0, 10.003252, 9.967724 
5.215212e+3, 1.7494321e+2, -1246850.9, -1274042.9, 4.7637215, 0.00050850486, 0.000031330415, -1246850.9, -21293.453, 0.0, 10.003245, 9.96731 
5.215211e+3, 1.8490434e+2, -1158788.5, -1195467.3, 16.442963, 0.0005076327, 0.00017542837, -1158788.5, -30850.234, 0.0, 10.003239, 9.954876 
5.21521e+3, 1.9485925e+2, -1060665.5, -1097602.1, 8.6266575, 0.0005067563, 0.00004257858, -1060665.5, -30285.357, 0.0, 10.003233, 9.954533 
5.21521e+3, 2.0480749e+2, -972521.25, -1019221.7, 18.740425, 0.0005059982, 0.0001634107, -972521.2, -39633.94, 0.0, 10.003226, 9.941773 
5.2152085e+3, 2.147493e+2, -874260.44, -921218.2, 11.045642, 0.00050536584, -0.000031905267, -874260.44, -38802.938, 0.0, 10.00322, 9.941432 
5.2152073e+3, 2.2468442e+2, -785993.94, -842971.44, 19.834824, 0.0005046139, 0.00021392084, -785993.94, -47900.59, 0.0, 10.003214, 9.928392 
5.215207e+3, 2.3461288e+2, -687585.9, -744814.1, 12.135464, 0.0005037275, 0.00000067666565, -687585.9, -46791.406, 0.0, 10.003208, 9.9280615 
5.215207e+3, 2.4453439e+2, -599281.0, -666885.1, 19.619167, 0.0005029408, 0.00016124068, -599281.0, -55717.355, 0.0, 10.003202, 9.914622 
5.2152056e+3, 2.5444913e+2, -500553.22, -568230.5, 12.050694, 0.00050227094, -0.000022472406, -500553.22, -54154.06, 0.0, 10.003197, 9.914522 
5.215205e+3, 2.643568e+2, -412340.4, -490902.25, 18.48122, 0.00050158123, 0.0002221261, -412340.4, -63036.25, 0.0, 10.003192, 9.900446 
5.2152044e+3, 2.7425778e+2, -313079.47, -391310.0, 10.891091, 0.00050086534, -0.00012523106, -313079.47, -60805.094, 0.0, 10.003187, 9.900866 
5.215204e+3, 2.8415057e+2, -226586.25, -317960.03, 14.67114, 0.00050023646, 0.00030495835, -226586.25, -71261.26, 0.0, 10.003182, 9.883969 
5.215203e+3, 2.9403558e+2, -126900.69, -217657.66, 7.5751343, 0.000499724, -0.00017835782, -126900.69, -68448.93, 0.0, 10.003178, 9.884752 
5.2152026e+3, 3.0394852e+2, -37277.316, -84832.95, 8.266071, 0.00049900985, 0.00024453798, -37277.316, -37277.316, 0.0, 10.003174, 9.940588 
5.2152014e+3, 3.1389096e+2, -36214.535, -82616.016, 0.13970065, 0.00049800077, 0.000008785153, -36214.535, -36214.535, 0.0, 10.00317, 9.942087 
5.22522e+3, 1.2504338e+2, -1715769.8, -1723707.9, 7.002761, 0.0005185492, 0.00015918516, -1715769.8, -1193.9087, 0.0, 10.003363, 9.992842 
5.2252185e+3, 1.3503607e+2, -1618418.4, -1626943.8, 0.7641936, 0.00051695714, -0.00001906967, -1618418.4, -1770.9518, 0.0, 10.003357, 9.992059 
5.225218e+3, 1.4502223e+2, -1530319.8, -1547639.3, 10.530775, 0.00051592645, 0.00024299025, -1530319.8, -11536.746, 0.0, 10.00335, 9.980402 
5.225217e+3, 1.5500261e+2, -1432619.5, -1450338.1, 3.8139818, 0.00051544554, 0.000054427277, -1432619.5, -11644.211, 0.0, 10.003345, 9.979871 
5.2252156e+3, 1.6497633e+2, -1344660.3, -1371622.5, 14.808831, 0.0005148092, 0.00013644838, -1344660.3, -21427.516, 0.0, 10.003339, 9.967704 
5.225215e+3, 1.7494409e+2, -1246729.1, -1274003.0, 6.835536, 0.0005140181, 0.000032141364, -1246729.1, -21180.37, 0.0, 10.003333, 9.96729 
5.2252144e+3, 1.8490522e+2, -1158666.4, -1195428.0, 18.373348, 0.0005132077, 0.0001762391, -1158666.4, -30736.615, 0.0, 10.003327, 9.954855 
5.225213e+3, 1.9486009e+2, -1060543.0, -1097563.0, 10.474124, 0.00051237596, 0.00004322631, -1060543.0, -30171.178, 0.0, 10.003322, 9.954512 
5.2252126e+3, 2.0480832e+2, -972398.56, -1019183.0, 20.463308, 0.0005116203, 0.00016402111, -972398.56, -39519.32, 0.0, 10.003316, 9.941752 
5.225212e+3, 2.1475011e+2, -874137.7, -921179.75, 12.496309, 0.0005109454, -0.000031198135, -874137.7, -38687.992, 0.0, 10.00331, 9.941411 
5.225211e+3, 2.2468519e+2, -785871.1, -842933.44, 21.230797, 0.0005102112, 0.00021462743, -785871.06, -47785.363, 0.0, 10.0033045, 9.928371 
5.22521e+3, 2.3461363e+2, -687463.2, -744776.56, 13.454815, 0.00050941, 0.0000012741336, -687463.2, -46676.133, 0.0, 10.003299, 9.92804 
5.2252096e+3, 2.4453512e+2, -599158.3, -666848.1, 20.967745, 0.0005086732, 0.00016180566, -599158.3, -55601.87, 0.0, 10.003294, 9.9146 
5.225209e+3, 2.5444984e+2, -500430.44, -568193.75, 13.212442, 0.0005080116, -0.000021849477, -500430.44, -54038.277, 0.0, 10.003289, 9.9145 
5.225208e+3, 2.6435748e+2, -412217.66, -490866.28, 19.693493, 0.00050734973, 0.00022274928, -412217.63, -62920.277, 0.0, 10.003284, 9.900424 
5.225208e+3, 2.7425846e+2, -312956.72, -391274.44, 11.993892, 0.00050668634, -0.00012468031, -312956.72, -60688.938, 0.0, 10.00328, 9.900844 
5.225207e+3, 2.8415123e+2, -226462.3, -317922.9, 15.891733, 0.00050608435, 0.00030547509, -226462.28, -71143.66, 0.0, 10.003276, 9.883948 
5.2252066e+3, 2.940362e+2, -126776.28, -217620.6, 8.664326, 0.00050556386, -0.00017782315, -126776.28, -68330.67, 0.0, 10.003272, 9.884731 
5.2252054e+3, 3.039491e+2, -37155.49, -84801.49, 9.446725, 0.0005048711, 0.00024506604, -37155.49, -37155.49, 0.0, 10.003269, 9.940564 
5.225205e+3, 3.1389153e+2, -36091.695, -82584.516, 1.2001144, 0.00050392695, 0.000009271109, -36091.695, -36091.695, 0.0, 10.003266, 9.942061 
5.235223e+3, 1.2504436e+2, -1715783.6, -1723734.8, 4.6125536, 0.0005235501, 0.00015954376, -1715783.6, -1217.3566, 0.0, 10.003364, 9.9928255 
5.235222e+3, 1.3503703e+2, -1618432.0, -1626970.4, -1.6227628, 0.00052233035, -0.000017931929, -1618432.0, -1794.0352, 0.0, 10.003357, 9.992042 
5.2352214e+3, 1.4502318e+2, -1530334.1, -1547667.6, 8.29535, 0.0005214615, 0.00024416394, -1530334.1, -11560.438, 0.0, 10.003351, 9.980384 
5.23522e+3, 1.5500353e+2, -1432633.6, -1450366.3, 1.5754656, 0.0005209346, 0.000054903274, -1432633.6, -11667.524, 0.0, 10.0033455, 9.979853 
5.235219e+3, 1.6497725e+2, -1344677.1, -1371655.9, 12.536317, 0.0005202749, 0.00013681693, -1344677.0, -21453.27, 0.0, 10.00334, 9.967683 
5.2352184e+3, 1.74945e+2, -1246745.6, -1274036.3, 4.563524, 0.0005194833, 0.000032994394, -1246745.6, -21205.693, 0.0, 10.003334, 9.967269 
5.235217e+3, 1.8490608e+2, -1158682.9, -1195461.1, 16.13855, 0.000518779, 0.00017714173, -1158682.9, -30761.613, 0.0, 10.003328, 9.954833 
5.2352166e+3, 1.9486095e+2, -1060559.3, -1097596.0, 8.236505, 0.0005181631, 0.00004373106, -1060559.3, -30195.764, 0.0, 10.003323, 9.954491 
5.235216e+3, 2.0480914e+2, -972415.06, -1019216.6, 18.240725, 0.0005173977, 0.00016443733, -972415.06, -39543.95, 0.0, 10.003317, 9.9417305 
5.235215e+3, 2.1475092e+2, -874154.0, -921213.25, 10.27649, 0.0005164724, -0.000030540567, -874154.0, -38712.2, 0.0, 10.003311, 9.941389 
5.235214e+3, 2.24686e+2, -785887.2, -842966.6, 19.098106, 0.0005157192, 0.00021533156, -785887.2, -47809.13, 0.0, 10.003305, 9.9283495 
5.2352136e+3, 2.346144e+2, -687479.06, -744809.56, 11.322588, 0.0005151572, 0.0000018073649, -687479.06, -46699.473, 0.0, 10.0033, 9.928019 
5.235213e+3, 2.4453586e+2, -599174.3, -666881.56, 19.018707, 0.000514529, 0.0001622983, -599174.3, -55625.117, 0.0, 10.003294, 9.914578 
5.2352124e+3, 2.5445056e+2, -500446.25, -568227.06, 11.272602, 0.00051382184, -0.000021243619, -500446.25, -54061.105, 0.0, 10.003289, 9.914478 
5.235211e+3, 2.643582e+2, -412233.5, -490899.94, 17.94954, 0.00051313976, 0.00022336094, -412233.5, -62942.96, 0.0, 10.003284, 9.900402 
5.2352107e+3, 2.7425912e+2, -312972.38, -391307.9, 10.262528, 0.0005124885, -0.00012419818, -312972.38, -60711.188, 0.0, 10.003281, 9.900822 
5.23521e+3, 2.8415188e+2, -226477.02, -317954.75, 14.452999, 0.0005119467, 0.00030588842, -226477.02, -71164.78, 0.0, 10.003276, 9.883927 
5.2352095e+3, 2.9403687e+2, -126790.73, -217652.06, 7.2507777, 0.0005115514, -0.00017739618, -126790.73, -68351.305, 0.0, 10.003273, 9.88471 
5.235209e+3, 3.039497e+2, -37172.08, -84837.54, 8.329308, 0.00051086134, 0.0002455127, -37172.074, -37172.074, 0.0, 10.003269, 9.940539 
5.235208e+3, 3.1389213e+2, -36108.535, -82621.12, 0.1163069, 0.00050973915, 0.000009746853, -36108.535, -36108.535, 0.0, 10.003266, 9.942037 
5.2452266e+3, 1.2504534e+2, -1715661.5, -1723688.8, 6.797987, 0.0005288229, 0.00016040915, -1715661.5, -1104.9512, 0.0, 10.003448, 9.992808 
5.2452254e+3, 1.35038e+2, -1618308.0, -1626923.8, 0.5348835, 0.00052767654, -0.000017398954, -1618308.0, -1679.6003, 0.0, 10.003443, 9.992024 
5.245225e+3, 1.4502414e+2, -1530209.8, -1547622.6, 10.368581, 0.00052688044, 0.00024464662, -1530209.8, -11445.404, 0.0, 10.003438, 9.980366 
5.2452236e+3, 1.5500449e+2, -1432508.1, -1450321.0, 3.3622954, 0.0005264252, 0.00005561335, -1432508.1, -11551.189, 0.0, 10.003433, 9.979835 
5.2452224e+3, 1.6497816e+2, -1344553.0, -1371615.1, 14.070402, 0.00052581803, 0.00013753535, -1344553.0, -21338.135, 0.0, 10.003428, 9.967661 
5.245222e+3, 1.7494588e+2, -1246620.6, -1273995.4, 5.9858003, 0.0005250599, 0.000033501972, -1246620.6, -21089.47, 0.0, 10.003424, 9.967247 
5.2452207e+3, 1.8490694e+2, -1158557.5, -1195420.8, 17.288383, 0.0005244074, 0.00017761908, -1158557.5, -30644.85, 0.0, 10.003419, 9.954812 
5.24522e+3, 1.948618e+2, -1060434.1, -1097555.9, 9.117958, 0.00052386225, 0.00004436373, -1060434.1, -30078.967, 0.0, 10.003413, 9.954469 
5.2452195e+3, 2.0480998e+2, -972289.94, -1019177.06, 19.03093, 0.0005231436, 0.00016506127, -972289.9, -39426.926, 0.0, 10.0034075, 9.941709 
5.245218e+3, 2.1475172e+2, -874028.75, -921174.0, 11.053511, 0.00052223954, -0.000030100107, -874028.75, -38594.914, 0.0, 10.003403, 9.941368 
5.2452177e+3, 2.2468677e+2, -785761.94, -842927.9, 19.842518, 0.0005214781, 0.0002157258, -785761.94, -47691.574, 0.0, 10.003398, 9.928328 
5.245217e+3, 2.3461516e+2, -687353.9, -744771.2, 11.847518, 0.000520875, 0.0000023085154, -687353.9, -46581.79, 0.0, 10.003392, 9.927997 
5.2452165e+3, 2.4453661e+2, -599049.1, -666843.7, 19.57493, 0.0005202544, 0.00016284994, -599049.1, -55507.22, 0.0, 10.003387, 9.9145565 
5.245215e+3, 2.5445127e+2, -500321.16, -568189.56, 11.754459, 0.0005196122, -0.000020708087, -500321.16, -53943.1, 0.0, 10.003383, 9.914456 
5.2452147e+3, 2.6435888e+2, -412108.44, -490863.22, 18.56842, 0.00051897246, 0.00022385611, -412108.44, -62824.76, 0.0, 10.003379, 9.900379 
5.245214e+3, 2.742598e+2, -312847.2, -391271.47, 10.771213, 0.000518335, -0.00012377359, -312847.2, -60592.62, 0.0, 10.003375, 9.900799 
5.2452135e+3, 2.8415254e+2, -226350.67, -317916.88, 15.118707, 0.00051781576, 0.0003062737, -226350.67, -71044.84, 0.0, 10.003371, 9.883905 
5.245213e+3, 2.9403746e+2, -126664.27, -217614.42, 7.799817, 0.00051745505, -0.0001770082, -126664.27, -68231.06, 0.0, 10.003368, 9.884688 
5.2452123e+3, 3.039503e+2, -37048.414, -84805.65, 9.078397, 0.0005168259, 0.00024590478, -37048.41, -37048.41, 0.0, 10.0033655, 9.940515 
5.245212e+3, 3.138927e+2, -35983.813, -82589.164, 0.7468537, 0.0005158034, 0.000010145811, -35983.813, -35983.813, 0.0, 10.003364, 9.942012 
5.25523e+3, 1.2504634e+2, -1715675.4, -1723715.8, 4.9747524, 0.00053434825, 0.00016173761, -1715675.4, -1128.5492, 0.0, 10.003448, 9.992791 
5.255229e+3, 1.3503899e+2, -1618321.6, -1626950.5, -1.2864887, 0.0005330023, -0.000017419903, -1618321.6, -1702.8086, 0.0, 10.003444, 9.992008 
5.255228e+3, 1.450251e+2, -1530224.8, -1547652.3, 8.532326, 0.0005321975, 0.00024449668, -1530224.8, -11469.797, 0.0, 10.003439, 9.980348 
5.255227e+3, 1.5500541e+2, -1432523.0, -1450350.4, 1.5258499, 0.00053192157, 0.00005653773, -1432523.0, -11575.189, 0.0, 10.003434, 9.9798155 
5.255226e+3, 1.649791e+2, -1344570.0, -1371649.0, 12.144617, 0.0005314365, 0.00013857383, -1344570.0, -21364.168, 0.0, 10.003429, 9.96764 
5.2552253e+3, 1.7494677e+2, -1246637.5, -1274029.0, 4.059611, 0.00053074333, 0.000033692613, -1246637.5, -21115.072, 0.0, 10.003425, 9.967226 
5.255224e+3, 1.8490784e+2, -1158574.5, -1195455.0, 15.150883, 0.000530093, 0.00017770643, -1158574.5, -30670.463, 0.0, 10.003419, 9.95479 
5.2552235e+3, 1.9486265e+2, -1060450.9, -1097590.0, 6.98065, 0.0005294852, 0.00004511333, -1060450.9, -30104.152, 0.0, 10.003414, 9.954447 
5.255223e+3, 2.0481081e+2, -972306.44, -1019210.75, 16.969574, 0.00052886526, 0.00016587517, -972306.4, -39451.61, 0.0, 10.003408, 9.941687 
5.255222e+3, 2.1475254e+2, -874045.06, -921207.44, 8.993658, 0.00052823196, -0.000029859124, -874045.06, -38619.18, 0.0, 10.003404, 9.941346 
5.255221e+3, 2.2468756e+2, -785778.44, -842961.94, 17.843254, 0.0005274722, 0.00021583555, -785778.44, -47715.83, 0.0, 10.003398, 9.928306 
5.25522e+3, 2.3461594e+2, -687370.2, -744805.06, 9.85313, 0.0005265705, 0.0000027798392, -687370.2, -46605.613, 0.0, 10.003393, 9.927975 
5.25522e+3, 2.4453735e+2, -599065.25, -666877.5, 17.763792, 0.00052586466, 0.00016345526, -599065.25, -55530.664, 0.0, 10.003388, 9.914535 
5.255219e+3, 2.5445202e+2, -500337.06, -568223.2, 9.950796, 0.00052538904, -0.000020237509, -500337.06, -53966.113, 0.0, 10.003384, 9.914434 
5.255218e+3, 2.643596e+2, -412124.5, -490897.34, 17.030376, 0.00052484917, 0.00022424402, -412124.5, -62847.703, 0.0, 10.00338, 9.900357 
5.2552176e+3, 2.7426046e+2, -312863.03, -391305.4, 9.250521, 0.00052422716, -0.00012340215, -312863.03, -60615.137, 0.0, 10.003376, 9.900776 
5.255217e+3, 2.841532e+2, -226365.64, -317949.25, 13.870897, 0.0005236959, 0.00030663286, -226365.64, -71066.25, 0.0, 10.003372, 9.883884 
5.2552164e+3, 2.9403812e+2, -126678.96, -217646.44, 6.5766163, 0.00052328623, -0.00017665638, -126678.96, -68251.97, 0.0, 10.003369, 9.884667 
5.255216e+3, 3.0395097e+2, -37065.266, -84842.29, 8.291907, 0.0005227717, 0.0002462463, -37065.26, -37065.26, 0.0, 10.003366, 9.94049 
5.2552146e+3, 3.1389332e+2, -36000.93, -82626.37, 0.01057969, 0.0005221049, 0.000010473781, -36000.93, -36000.93, 0.0, 10.003365, 9.941986 
5.2652335e+3, 1.2504734e+2, -1715551.1, -1723668.8, 6.440201, 0.0005396383, 0.00016226225, -1715551.1, -1014.15173, 0.0, 10.003533, 9.992775 
5.2652323e+3, 1.3503996e+2, -1618195.1, -1626902.6, 0.09444655, 0.0005384956, -0.00001698992, -1618195.1, -1585.8385, 0.0, 10.0035305, 9.991991 
5.265232e+3, 1.4502606e+2, -1530097.6, -1547606.5, 9.683391, 0.00053777714, 0.00024487844, -1530097.6, -11352.096, 0.0, 10.003528, 9.980329 
5.2652305e+3, 1.5500636e+2, -1432394.3, -1450304.1, 2.5142233, 0.0005374721, 0.000056916906, -1432394.3, -11455.715, 0.0, 10.003525, 9.979797 
5.2652293e+3, 1.6498001e+2, -1344442.5, -1371606.9, 12.730783, 0.0005370427, 0.00013899131, -1344442.5, -21245.73, 0.0, 10.003521, 9.967618 
5.265229e+3, 1.7494768e+2, -1246509.6, -1273987.0, 4.4821186, 0.00053649, 0.000034189306, -1246509.6, -20996.086, 0.0, 10.003516, 9.967204 
5.2652276e+3, 1.849087e+2, -1158446.5, -1195413.6, 15.241717, 0.0005358769, 0.0001781739, -1158446.5, -30551.047, 0.0, 10.003512, 9.954768 
5.265227e+3, 1.9486351e+2, -1060322.6, -1097548.9, 7.0122137, 0.0005352, 0.000045440225, -1060322.6, -29984.313, 0.0, 10.003507, 9.954425 
5.2652264e+3, 2.0481165e+2, -972178.1, -1019169.8, 16.870415, 0.0005345887, 0.0001661743, -972178.1, -39331.543, 0.0, 10.003502, 9.941665 
5.265225e+3, 2.1475336e+2, -873917.56, -921167.25, 8.773115, 0.00053404673, -0.000029467705, -873917.56, -38499.664, 0.0, 10.003497, 9.941324 
5.2652246e+3, 2.2468835e+2, -785651.25, -842922.5, 17.74034, 0.00053333526, 0.00021623164, -785651.25, -47596.445, 0.0, 10.003491, 9.928284 
5.2652234e+3, 2.346167e+2, -687242.94, -744765.94, 9.765517, 0.0005324337, 0.0000030829533, -687242.9, -46485.902, 0.0, 10.003488, 9.927952 
5.2652234e+3, 2.445381e+2, -598937.94, -666838.9, 17.776655, 0.0005317165, 0.0001637451, -598937.94, -55410.652, 0.0, 10.003483, 9.914512 
5.265222e+3, 2.5445274e+2, -500209.78, -568184.94, 9.813202, 0.0005312158, -0.00001986705, -500209.78, -53845.945, 0.0, 10.003479, 9.914412 
5.2652216e+3, 2.6436028e+2, -411997.34, -490859.88, 17.024006, 0.0005306892, 0.00022464556, -411997.3, -62727.41, 0.0, 10.003475, 9.900334 
5.265221e+3, 2.7426118e+2, -312735.97, -391268.4, 9.147658, 0.00053012866, -0.00012303179, -312735.97, -60494.723, 0.0, 10.003471, 9.900754 
5.2652204e+3, 2.8415385e+2, -226237.4, -317910.78, 13.999073, 0.00052963465, 0.00030696945, -226237.39, -70944.46, 0.0, 10.0034685, 9.8838625 
5.26522e+3, 2.9403874e+2, -126550.32, -217608.05, 6.6458316, 0.00052922906, -0.00017635718, -126550.32, -68129.57, 0.0, 10.003467, 9.884645 
5.265219e+3, 3.0395156e+2, -36939.547, -84809.81, 8.641399, 0.00052878354, 0.00024652432, -36939.547, -36939.547, 0.0, 10.003465, 9.940464 
5.265218e+3, 3.1389388e+2, -35874.754, -82594.13, 0.27659327, 0.00052828173, 0.0000107557335, -35874.754, -35874.754, 0.0, 10.003463, 9.94196 
5.275237e+3, 1.2504835e+2, -1715565.1, -1723696.1, 5.3106837, 0.00054471736, 0.00016205301, -1715565.1, -1037.9064, 0.0, 10.003534, 9.992758 
5.275236e+3, 1.3504095e+2, -1618208.9, -1626929.8, -1.0411851, 0.0005441463, -0.00001614848, -1618208.9, -1609.2616, 0.0, 10.003531, 9.991974 
5.2752346e+3, 1.4502703e+2, -1530112.9, -1547636.8, 8.348188, 0.0005436012, 0.00024574492, -1530112.9, -11376.8955, 0.0, 10.003529, 9.9803095 
5.275234e+3, 1.550073e+2, -1432409.4, -1450334.1, 1.1859598, 0.00054307684, 0.000056797013, -1432409.4, -11480.097, 0.0, 10.003525, 9.979778 
5.275233e+3, 1.6498095e+2, -1344459.8, -1371641.4, 11.018773, 0.0005426424, 0.00013884073, -1344459.8, -21272.127, 0.0, 10.003521, 9.967596 
5.275232e+3, 1.7494859e+2, -1246526.8, -1274021.4, 2.7710352, 0.0005422992, 0.000034965356, -1246526.8, -21022.043, 0.0, 10.003517, 9.967182 
5.2752316e+3, 1.849096e+2, -1158463.6, -1195448.0, 13.296651, 0.0005417554, 0.00017898822, -1158463.6, -30576.787, 0.0, 10.003512, 9.954746 
5.2752304e+3, 1.9486438e+2, -1060339.6, -1097583.1, 5.072825, 0.000541004, 0.000045379773, -1060339.6, -30009.646, 0.0, 10.003508, 9.954403 
5.275229e+3, 2.0481248e+2, -972194.9, -1019204.0, 14.777074, 0.0005403188, 0.00016600199, -972194.9, -39356.508, 0.0, 10.003503, 9.941643 
5.275229e+3, 2.1475416e+2, -873934.06, -921201.2, 6.681059, 0.0005397035, -0.000028939112, -873934.06, -38524.188, 0.0, 10.003497, 9.941302 
5.275228e+3, 2.2468914e+2, -785667.7, -842956.56, 15.925982, 0.000539083, 0.00021688915, -785667.7, -47620.676, 0.0, 10.003492, 9.928261 
5.275227e+3, 2.3461747e+2, -687259.1, -744799.75, 7.9594784, 0.00053845556, 0.0000032315095, -687259.1, -46509.715, 0.0, 10.003488, 9.92793 
5.275227e+3, 2.4453884e+2, -598954.3, -666873.25, 16.117064, 0.0005377946, 0.00016374564, -598954.3, -55434.418, 0.0, 10.003484, 9.91449 
5.2752256e+3, 2.5445345e+2, -500226.0, -568219.1, 8.162148, 0.00053709326, -0.000019588815, -500226.0, -53869.28, 0.0, 10.003479, 9.91439 
5.275225e+3, 2.64361e+2, -412013.6, -490894.44, 15.639385, 0.0005365006, 0.00022505898, -412013.6, -62750.586, 0.0, 10.003476, 9.900311 
5.2752244e+3, 2.7426183e+2, -312752.0, -391302.75, 7.7803, 0.0005360436, -0.00012266297, -312752.0, -60517.457, 0.0, 10.003472, 9.900731 
5.275224e+3, 2.841545e+2, -226252.52, -317943.47, 13.01361, 0.000535632, 0.00030728494, -226252.5, -70966.04, 0.0, 10.003469, 9.883841 
5.275223e+3, 2.940394e+2, -126565.14, -217640.39, 5.6934958, 0.00053527945, -0.00017610665, -126565.14, -68150.66, 0.0, 10.003467, 9.884624 
5.2752227e+3, 3.039522e+2, -36956.613, -84846.92, 8.051035, 0.00053486123, 0.0002467437, -36956.613, -36956.613, 0.0, 10.003465, 9.940439 
5.275222e+3, 3.1389448e+2, -35892.082, -82631.81, -0.27092946, 0.00053434895, 0.000010995003, -35892.082, -35892.082, 0.0, 10.003464, 9.941935 
5.285241e+3, 1.2504935e+2, -1715436.4, -1723647.5, 5.6814756, 0.0005499575, 0.00016239441, -1715436.4, -919.03973, 0.0, 10.003622, 9.99274 
5.285239e+3, 1.3504194e+2, -1618079.5, -1626881.0, -1.0604149, 0.0005496119, -0.000016167935, -1618079.5, -1489.51, 0.0, 10.003621, 9.991957 
5.285238e+3, 1.45028e+2, -1529983.3, -1547589.6, 8.123449, 0.0005492476, 0.0002457433, -1529983.3, -11256.659, 0.0, 10.003619, 9.98029 
5.285238e+3, 1.5500826e+2, -1432277.9, -1450286.5, 1.0798426, 0.0005488593, 0.000057185334, -1432277.9, -11357.986, 0.0, 10.003617, 9.979759 
5.285237e+3, 1.6498187e+2, -1344329.5, -1371598.4, 10.434809, 0.0005484972, 0.00013924825, -1344329.5, -21150.99, 0.0, 10.003614, 9.967574 
5.2852356e+3, 1.749495e+2, -1246395.6, -1273978.1, 2.0825143, 0.0005481627, 0.00003502175, -1246395.6, -20899.805, 0.0, 10.003612, 9.96716 
5.285235e+3, 1.8491048e+2, -1158332.3, -1195404.8, 12.12438, 0.0005476052, 0.00017899375, -1158332.3, -30454.178, 0.0, 10.003608, 9.954724 
5.285234e+3, 1.9486524e+2, -1060209.6, -1097540.9, 4.0683513, 0.000546817, 0.000045642475, -1060209.6, -29888.152, 0.0, 10.003602, 9.954381 
5.285233e+3, 2.0481333e+2, -972065.3, -1019162.44, 13.957233, 0.000546094, 0.00016634764, -972065.3, -39235.17, 0.0, 10.003597, 9.941621 
5.2852327e+3, 2.1475498e+2, -873804.0, -921159.75, 5.8996034, 0.00054543966, -0.000028695684, -873804.0, -38402.133, 0.0, 10.0035925, 9.94128 
5.2852315e+3, 2.2468996e+2, -785537.7, -842915.8, 15.243488, 0.0005448587, 0.0002170919, -785537.7, -47498.477, 0.0, 10.003588, 9.928239 
5.285231e+3, 2.3461826e+2, -687129.8, -744759.75, 7.1677012, 0.0005443585, 0.0000034619793, -687129.8, -46387.95, 0.0, 10.003584, 9.927908 
5.2852297e+3, 2.4453962e+2, -598825.3, -666834.1, 15.484794, 0.0005437618, 0.00016399102, -598825.3, -55312.785, 0.0, 10.003579, 9.914467 
5.2852297e+3, 2.544542e+2, -500096.94, -568180.3, 7.499278, 0.0005430505, -0.000019343644, -500096.94, -53747.37, 0.0, 10.003576, 9.914367 
5.2852285e+3, 2.6436168e+2, -411884.53, -490856.38, 15.172333, 0.00054245617, 0.0002252981, -411884.53, -62628.45, 0.0, 10.003572, 9.900289 
5.285228e+3, 2.7426252e+2, -312622.9, -391265.1, 7.2154026, 0.0005420081, -0.00012243704, -312622.9, -60395.055, 0.0, 10.00357, 9.900707 
5.2852273e+3, 2.8415516e+2, -226122.39, -317904.38, 12.683987, 0.00054162677, 0.00030751672, -226122.39, -70842.4, 0.0, 10.003568, 9.883819 
5.285227e+3, 2.9404002e+2, -126435.16, -217601.66, 5.2635903, 0.0005413332, -0.0001758437, -126435.16, -68026.92, 0.0, 10.003566, 9.884602 
5.285226e+3, 3.0395278e+2, -36829.54, -84814.08, 7.987988, 0.00054095325, 0.0002469895, -36829.54, -36829.54, 0.0, 10.003564, 9.940413 
5.2852255e+3, 3.1389508e+2, -35763.79, -82598.836, -0.35443434, 0.0005404485, 0.000011153721, -35763.79, -35763.79, 0.0, 10.003564, 9.941909 
5.295244e+3, 1.2505035e+2, -1715451.1, -1723676.4, 4.8488517, 0.00055534876, 0.0001632358, -1715451.1, -943.63513, 0.0, 10.003623, 9.992722 
5.295243e+3, 1.3504292e+2, -1618094.0, -1626909.8, -1.8954651, 0.00055491354, -0.000016972988, -1618094.0, -1513.7277, 0.0, 10.003621, 9.991939 
5.295242e+3, 1.4502896e+2, -1529998.1, -1547619.3, 7.3188133, 0.0005547366, 0.00024495006, -1529998.1, -11281.091, 0.0, 10.003619, 9.980271 
5.2952415e+3, 1.5500921e+2, -1432292.8, -1450316.0, 0.25506333, 0.00055480836, 0.000058036512, -1432292.8, -11382.078, 0.0, 10.003618, 9.97974 
5.29524e+3, 1.6498281e+2, -1344347.1, -1371633.3, 9.044604, 0.0005545894, 0.00014016365, -1344347.1, -21177.64, 0.0, 10.003615, 9.967552 
5.295239e+3, 1.749504e+2, -1246412.9, -1274012.8, 0.738825, 0.0005540808, 0.00003442044, -1246412.9, -20926.021, 0.0, 10.0036125, 9.967138 
5.2952385e+3, 1.8491136e+2, -1158349.0, -1195438.5, 10.030948, 0.0005534339, 0.00017826051, -1158349.0, -30479.557, 0.0, 10.003608, 9.954702 
5.295238e+3, 1.948661e+2, -1060226.1, -1097574.4, 1.9681284, 0.0005526429, 0.00004619932, -1060226.1, -29913.104, 0.0, 10.003603, 9.95436 
5.295237e+3, 2.0481418e+2, -972081.94, -1019196.4, 12.147413, 0.0005519149, 0.00016716513, -972081.94, -39260.035, 0.0, 10.003598, 9.941599 
5.295236e+3, 2.1475582e+2, -873820.44, -921193.5, 4.095847, 0.00055125344, -0.000028713339, -873820.44, -38426.58, 0.0, 10.003593, 9.941258 
5.2952355e+3, 2.2469075e+2, -785554.4, -842950.25, 13.439227, 0.0005506653, 0.00021687886, -785554.3, -47522.938, 0.0, 10.003589, 9.928217 
5.2952343e+3, 2.3461904e+2, -687146.25, -744794.0, 5.366501, 0.0005501577, 0.0000037666446, -687146.25, -46411.977, 0.0, 10.003584, 9.927885 
5.295234e+3, 2.4454036e+2, -598841.8, -666868.6, 14.006887, 0.00054963253, 0.0001644593, -598841.8, -55336.617, 0.0, 10.00358, 9.914444 
5.295233e+3, 2.544549e+2, -500113.2, -568214.6, 6.035984, 0.0005490857, -0.000019129366, -500113.2, -53770.77, 0.0, 10.003576, 9.914344 
5.2952325e+3, 2.643624e+2, -411901.0, -490891.34, 13.979611, 0.00054854865, 0.00022537734, -411901.0, -62651.832, 0.0, 10.003573, 9.900265 
5.2952313e+3, 2.742632e+2, -312639.16, -391299.88, 6.041253, 0.0005480231, -0.00012234235, -312639.16, -60418.004, 0.0, 10.003571, 9.900684 
5.295231e+3, 2.8415582e+2, -226137.73, -317937.56, 11.84217, 0.0005476242, 0.00030767132, -226137.72, -70864.21, 0.0, 10.003568, 9.883797 
5.295231e+3, 2.9404068e+2, -126450.195, -217634.48, 4.4512944, 0.000547395, -0.00017557005, -126450.195, -68048.23, 0.0, 10.003566, 9.88458 
5.2952296e+3, 3.039534e+2, -36846.723, -84851.47, 7.7649446, 0.0005470634, 0.00024725887, -36846.723, -36846.723, 0.0, 10.003565, 9.940388 
5.295229e+3, 3.1389567e+2, -35781.25, -82636.8, -0.50989026, 0.00054658327, 0.000011238164, -35781.25, -35781.25, 0.0, 10.003565, 9.941883 
5.3052473e+3, 1.2505135e+2, -1715317.6, -1723626.3, 4.1383967, 0.00056089426, 0.00016326045, -1715317.5, -819.8971, 0.0, 10.0037155, 9.992703 
5.305247e+3, 1.3504392e+2, -1617959.6, -1626859.5, -2.9073386, 0.0005605206, -0.00001701988, -1617959.6, -1389.024, 0.0, 10.003715, 9.9919195 
5.3052455e+3, 1.4502993e+2, -1529864.8, -1547571.6, 5.5584564, 0.0005604109, 0.00024476694, -1529864.8, -11157.161, 0.0, 10.003713, 9.980251 
5.305245e+3, 1.5501016e+2, -1432159.6, -1450268.9, -2.494747, 0.0005605551, 0.00005765325, -1432159.6, -11258.3, 0.0, 10.003712, 9.97972 
5.3052443e+3, 1.6498372e+2, -1344213.8, -1371585.8, 6.103082, 0.00056038145, 0.00013987868, -1344213.8, -21053.414, 0.0, 10.00371, 9.967532 
5.305243e+3, 1.7495131e+2, -1246279.9, -1273965.9, -0.4458786, 0.0005598911, 0.000034532255, -1246279.9, -20801.904, 0.0, 10.003706, 9.967118 
5.305242e+3, 1.8491225e+2, -1158217.5, -1195395.1, 8.975546, 0.00055924954, 0.00017848083, -1158217.5, -30356.73, 0.0, 10.003703, 9.95468 
5.3052413e+3, 1.9486696e+2, -1060094.1, -1097531.1, 0.7212312, 0.0005584508, 0.00004623241, -1060094.1, -29789.586, 0.0, 10.003698, 9.954338 
5.30524e+3, 2.0481502e+2, -971949.9, -1019153.6, 10.933498, 0.0005577531, 0.00016719446, -971949.9, -39136.25, 0.0, 10.003694, 9.941577 
5.3052396e+3, 2.1475662e+2, -873688.9, -921151.4, 2.8099053, 0.0005571624, -0.00002849277, -873688.9, -38303.094, 0.0, 10.00369, 9.9412365 
5.305239e+3, 2.2469154e+2, -785423.06, -842909.0, 12.2209215, 0.0005565865, 0.00021715299, -785423.06, -47399.45, 0.0, 10.003685, 9.928194 
5.305238e+3, 2.346198e+2, -687014.6, -744752.94, 4.1521044, 0.00055602595, 0.000003941163, -687014.6, -46287.957, 0.0, 10.003681, 9.927863 
5.305237e+3, 2.4454111e+2, -598710.25, -666828.4, 12.974004, 0.00055551884, 0.00016459051, -598710.25, -55212.47, 0.0, 10.003678, 9.914421 
5.3052366e+3, 2.5445566e+2, -499982.1, -568175.0, 4.899785, 0.0005550737, -0.000018975277, -499982.1, -53646.813, 0.0, 10.0036745, 9.914321 
5.305236e+3, 2.643631e+2, -411770.22, -490852.7, 13.056332, 0.00055459974, 0.00022554185, -411770.22, -62527.996, 0.0, 10.003672, 9.900242 
5.3052354e+3, 2.742639e+2, -312508.53, -391261.7, 5.0653815, 0.0005540884, -0.0001221829, -312508.53, -60294.074, 0.0, 10.003669, 9.900661 
5.305234e+3, 2.841565e+2, -226006.02, -317898.0, 11.168683, 0.0005536837, 0.0003078161, -226006.02, -70738.97, 0.0, 10.003667, 9.883774 
5.3052336e+3, 2.9404134e+2, -126318.14, -217595.06, 3.7148678, 0.0005534216, -0.00017545332, -126318.14, -67922.43, 0.0, 10.003666, 9.884558 
5.3052336e+3, 3.03954e+2, -36717.777, -84818.01, 7.4274297, 0.0005531301, 0.0002473669, -36717.773, -36717.773, 0.0, 10.003665, 9.940362 
5.305233e+3, 3.1389624e+2, -35652.227, -82603.75, -0.9134836, 0.0005527973, 0.000011367201, -35652.227, -35652.227, 0.0, 10.003665, 9.941856 
5.3152514e+3, 1.2505236e+2, -1715332.9, -1723656.4, 3.6755753, 0.0005665845, 0.00016254252, -1715332.9, -845.0351, 0.0, 10.0037155, 9.992684 
5.315251e+3, 1.3504489e+2, -1617974.8, -1626889.5, -3.3827405, 0.0005664103, -0.000016378614, -1617974.8, -1413.847, 0.0, 10.003715, 9.9919 
5.3152496e+3, 1.450309e+2, -1529881.9, -1547605.6, 4.8598433, 0.0005662585, 0.0002451363, -1529881.9, -11183.794, 0.0, 10.003714, 9.98023 
5.3152484e+3, 1.5501109e+2, -1432176.6, -1450302.6, -3.1730814, 0.0005661228, 0.00005614444, -1432176.6, -11284.54, 0.0, 10.003713, 9.979699 
5.315248e+3, 1.6498464e+2, -1344227.3, -1371613.1, 4.8670855, 0.00056590553, 0.00013849993, -1344227.3, -21075.994, 0.0, 10.00371, 9.967515 
5.3152466e+3, 1.7495221e+2, -1246293.4, -1273993.0, -1.6958694, 0.00056560803, 0.000035292545, -1246293.4, -20824.178, 0.0, 10.003707, 9.967101 
5.3152454e+3, 1.8491313e+2, -1158234.6, -1195429.6, 7.1454196, 0.00056505826, 0.00017956854, -1158234.6, -30382.516, 0.0, 10.003703, 9.9546585 
5.3152454e+3, 1.9486783e+2, -1060111.0, -1097565.4, -1.0994618, 0.0005642476, 0.000045787856, -1060111.0, -29814.932, 0.0, 10.003699, 9.954315 
5.315244e+3, 2.0481585e+2, -971966.6, -1019187.9, 9.1698475, 0.0005636122, 0.00016650543, -971966.6, -39161.25, 0.0, 10.003695, 9.941555 
5.315243e+3, 2.1475744e+2, -873705.44, -921185.44, 1.0488095, 0.0005631628, -0.000028056118, -873705.44, -38327.668, 0.0, 10.00369, 9.941214 
5.3152424e+3, 2.2469236e+2, -785439.6, -842943.4, 10.665618, 0.00056261686, 0.00021786982, -785439.6, -47423.883, 0.0, 10.003686, 9.928172 
5.315242e+3, 2.3462057e+2, -687031.0, -744787.1, 2.603589, 0.0005619623, 0.0000039962893, -687031.0, -46311.96, 0.0, 10.003682, 9.92784 
5.315241e+3, 2.4454187e+2, -598726.94, -666863.4, 11.57847, 0.00056142476, 0.00016441394, -598726.94, -55236.504, 0.0, 10.003678, 9.914398 
5.31524e+3, 2.544564e+2, -499998.53, -568209.75, 3.5139127, 0.000561024, -0.000018876828, -499998.53, -53670.41, 0.0, 10.003675, 9.914298 
5.31524e+3, 2.643638e+2, -411786.78, -490887.94, 12.0149, 0.0005606182, 0.00022578325, -411786.78, -62551.49, 0.0, 10.003673, 9.900219 
5.315239e+3, 2.7426457e+2, -312524.88, -391296.75, 4.045611, 0.00056020473, -0.00012196515, -312524.88, -60317.125, 0.0, 10.00367, 9.900638 
5.315238e+3, 2.8415713e+2, -226021.5, -317931.53, 10.583407, 0.0005598049, 0.0003079512, -226021.5, -70760.94, 0.0, 10.003668, 9.883752 
5.3152376e+3, 2.9404196e+2, -126333.35, -217628.25, 3.1682868, 0.0005594217, -0.00017548047, -126333.35, -67943.89, 0.0, 10.003667, 9.884535 
5.315237e+3, 3.0395463e+2, -36735.176, -84855.86, 7.312219, 0.0005591626, 0.000247327, -36735.176, -36735.176, 0.0, 10.003666, 9.940336 
5.3152364e+3, 3.1389683e+2, -35669.89, -82642.17, -0.97768664, 0.0005590888, 0.000011536195, -35669.89, -35669.89, 0.0, 10.003666, 9.941831 
5.3252554e+3, 1.2505336e+2, -1715193.8, -1723604.8, 3.6377313, 0.0005724201, 0.00016258915, -1715193.8, -715.7545, 0.0, 10.003812, 9.992664 
5.325254e+3, 1.3504589e+2, -1617836.8, -1626838.9, -4.072729, 0.0005723052, -0.000016328477, -1617836.8, -1285.3998, 0.0, 10.003811, 9.991881 
5.3252536e+3, 1.4503185e+2, -1529745.5, -1547556.9, 3.8656406, 0.0005721026, 0.0002450852, -1529745.5, -11056.79, 0.0, 10.003809, 9.980209 
5.3252524e+3, 1.5501204e+2, -1432041.6, -1450255.0, -3.569689, 0.00057180756, 0.000055887762, -1432041.6, -11158.778, 0.0, 10.003807, 9.979678 
5.325251e+3, 1.6498557e+2, -1344091.3, -1371562.5, 4.0016184, 0.0005715086, 0.00013827767, -1344091.3, -20948.982, 0.0, 10.003805, 9.967497 
5.3252506e+3, 1.7495312e+2, -1246157.9, -1273943.1, -3.192225, 0.0005712072, 0.0000353456, -1246157.9, -20697.613, 0.0, 10.003802, 9.967083 
5.3252494e+3, 1.8491402e+2, -1158101.6, -1195385.0, 5.1069193, 0.00057075405, 0.000179728, -1158101.6, -30258.178, 0.0, 10.003799, 9.954638 
5.325248e+3, 1.948687e+2, -1059977.4, -1097520.9, -2.746772, 0.000570143, 0.000045879682, -1059977.4, -29689.74, 0.0, 10.003796, 9.954294 
5.325248e+3, 2.048167e+2, -971832.94, -1019144.44, 7.67558, 0.0005695898, 0.00016656033, -971832.94, -39035.81, 0.0, 10.003792, 9.941533 
5.325247e+3, 2.1475828e+2, -873571.7, -921142.3, -0.49827296, 0.0005690977, -0.00002800498, -873571.7, -38201.957, 0.0, 10.003788, 9.941192 
5.325246e+3, 2.2469315e+2, -785306.06, -842901.1, 9.203006, 0.0005685606, 0.00021794844, -785306.06, -47298.14, 0.0, 10.003784, 9.928149 
5.325246e+3, 2.3462135e+2, -686897.8, -744745.44, 1.054261, 0.0005679722, 0.0000041369285, -686897.8, -46186.34, 0.0, 10.00378, 9.927818 
5.3252447e+3, 2.4454261e+2, -598593.94, -666822.56, 10.175949, 0.0005674572, 0.00016456115, -598593.94, -55110.92, 0.0, 10.0037775, 9.914375 
5.325244e+3, 2.5445712e+2, -499865.53, -568169.4, 2.1113193, 0.0005670277, -0.00001878822, -499865.53, -53544.582, 0.0, 10.003775, 9.914275 
5.325243e+3, 2.6436454e+2, -411654.0, -490848.56, 10.873459, 0.0005666246, 0.0002258444, -411654.0, -62425.625, 0.0, 10.003772, 9.900195 
5.325243e+3, 2.7426526e+2, -312392.22, -391257.88, 2.7915394, 0.00056625373, -0.0001218921, -312392.22, -60191.176, 0.0, 10.00377, 9.900615 
5.3252417e+3, 2.841578e+2, -225888.02, -317891.38, 9.620864, 0.00056589424, 0.0003080365, -225888.02, -70633.92, 0.0, 10.003768, 9.883729 
5.325241e+3, 2.9404262e+2, -126200.17, -217588.55, 2.155629, 0.00056554825, -0.00017538315, -126200.17, -67816.97, 0.0, 10.003767, 9.884513 
5.3252405e+3, 3.0395526e+2, -36605.21, -84822.16, 6.7429605, 0.0005653192, 0.00024740087, -36605.21, -36605.21, 0.0, 10.003767, 9.9403105 
5.3252405e+3, 3.1389743e+2, -35539.168, -82608.55, -1.5445459, 0.0005652652, 0.000011535846, -35539.168, -35539.168, 0.0, 10.003768, 9.941804 
5.3352594e+3, 1.2505437e+2, -1715210.5, -1723637.8, 3.1192687, 0.0005783926, 0.00016332694, -1715210.5, -742.3702, 0.0, 10.003813, 9.992643 
5.335258e+3, 1.3504685e+2, -1617853.4, -1626871.6, -4.58313, 0.00057821, -0.000016816004, -1617853.4, -1311.6537, 0.0, 10.003812, 9.99186 
5.335257e+3, 1.4503282e+2, -1529761.3, -1547588.1, 3.0238392, 0.0005779487, 0.0002446518, -1529761.3, -11081.961, 0.0, 10.00381, 9.98019 
5.3352565e+3, 1.5501298e+2, -1432057.3, -1450286.1, -4.4232383, 0.0005776034, 0.00005676641, -1432057.3, -11183.606, 0.0, 10.003808, 9.979658 
5.335255e+3, 1.6498649e+2, -1344106.1, -1371592.5, 2.790055, 0.0005771883, 0.00013910356, -1344106.1, -20972.945, 0.0, 10.003806, 9.967478 
5.3352547e+3, 1.7495403e+2, -1246172.6, -1273973.0, -4.3948774, 0.00057670474, 0.00003475517, -1246172.6, -20721.201, 0.0, 10.003803, 9.967064 
5.3352535e+3, 1.849149e+2, -1158117.8, -1195417.8, 3.6376035, 0.0005763526, 0.00017904358, -1158117.8, -30283.006, 0.0, 10.003799, 9.954617 
5.335252e+3, 1.9486955e+2, -1059993.4, -1097553.5, -4.2244654, 0.00057613285, 0.000046457502, -1059993.4, -29714.184, 0.0, 10.003796, 9.954273 
5.3352517e+3, 2.0481753e+2, -971849.75, -1019178.9, 6.104237, 0.0005756798, 0.0001672897, -971849.75, -39060.887, 0.0, 10.003793, 9.941511 
5.335251e+3, 2.147591e+2, -873588.3, -921176.56, -2.0667808, 0.0005749784, -0.000028304934, -873588.3, -38226.6, 0.0, 10.003789, 9.94117 
5.33525e+3, 2.2469394e+2, -785322.9, -842935.9, 7.7480974, 0.00057443103, 0.0002174466, -785322.9, -47322.715, 0.0, 10.003785, 9.928126 
5.3352493e+3, 2.3462214e+2, -686914.3, -744780.0, -0.3958287, 0.00057405396, 0.0000043543246, -686914.3, -46210.49, 0.0, 10.003781, 9.927795 
5.335249e+3, 2.4454336e+2, -598610.6, -666857.5, 8.972634, 0.0005736096, 0.00016500152, -598610.6, -55134.938, 0.0, 10.003778, 9.914352 
5.3352475e+3, 2.5445783e+2, -499881.97, -568204.1, 0.91842717, 0.00057308516, -0.000018709407, -499881.97, -53568.156, 0.0, 10.003776, 9.914252 
5.335247e+3, 2.6436523e+2, -411670.78, -490884.3, 9.991948, 0.00057262566, 0.00022574094, -411670.78, -62449.33, 0.0, 10.003773, 9.900171 
5.3352463e+3, 2.7426594e+2, -312408.8, -391293.44, 1.9319346, 0.00057224697, -0.00012195149, -312408.8, -60214.45, 0.0, 10.003771, 9.900591 
5.335246e+3, 2.8415847e+2, -225903.66, -317925.25, 9.143748, 0.00057196006, 0.0003080756, -225903.64, -70656.016, 0.0, 10.003769, 9.883707 
5.335245e+3, 2.940432e+2, -126215.516, -217622.05, 1.7114164, 0.0005717949, -0.00017517344, -126215.516, -67838.55, 0.0, 10.003768, 9.88449 
5.3352445e+3, 3.0395588e+2, -36622.69, -84860.21, 6.883911, 0.0005715939, 0.0002475774, -36622.69, -36622.69, 0.0, 10.003768, 9.940284 
5.335244e+3, 3.13898e+2, -35556.926, -82647.164, -1.3363167, 0.0005713424, 0.000011380638, -35556.926, -35556.926, 0.0, 10.003769, 9.941777 
5.3452635e+3, 1.2505537e+2, -1715067.9, -1723585.0, 3.5356998, 0.00058438396, 0.00016353792, -1715067.9, -609.60284, 0.0, 10.003911, 9.992623 
5.3452617e+3, 1.3504785e+2, -1617712.6, -1626820.3, -4.021864, 0.00058406655, -0.000016637587, -1617712.6, -1180.6215, 0.0, 10.00391, 9.991839 
5.3452605e+3, 1.4503378e+2, -1529622.0, -1547538.0, 3.1276546, 0.0005837547, 0.00024478146, -1529622.0, -10952.169, 0.0, 10.003907, 9.980169 
5.3452605e+3, 1.5501393e+2, -1431919.0, -1450236.9, -4.9348736, 0.00058344123, 0.00005683119, -1431919.0, -11054.678, 0.0, 10.003905, 9.979638 
5.3452593e+3, 1.6498743e+2, -1343967.0, -1371540.9, 1.8084555, 0.0005830264, 0.0001391674, -1343967.0, -20842.816, 0.0, 10.003903, 9.967459 
5.345258e+3, 1.7495492e+2, -1246033.9, -1273922.0, -5.139122, 0.00058251165, 0.000034881705, -1246033.9, -20591.387, 0.0, 10.003901, 9.967045 
5.3452575e+3, 1.8491578e+2, -1157981.5, -1195371.5, 2.597243, 0.0005821732, 0.00017918211, -1157981.5, -30155.416, 0.0, 10.003898, 9.954595 
5.3452563e+3, 1.9487043e+2, -1059857.3, -1097507.8, -5.634372, 0.00058201305, 0.000046556448, -1059857.3, -29586.633, 0.0, 10.003894, 9.954251 
5.345255e+3, 2.0481838e+2, -971714.1, -1019134.44, 4.471604, 0.0005816163, 0.00016736126, -971714.1, -38933.527, 0.0, 10.003891, 9.941488 
5.345255e+3, 2.147599e+2, -873452.6, -921132.5, -3.6625073, 0.00058096764, -0.00002824814, -873452.6, -38098.96, 0.0, 10.003887, 9.941148 
5.345254e+3, 2.2469473e+2, -785187.4, -842892.8, 6.2293243, 0.0005804501, 0.00021749112, -785187.4, -47195.08, 0.0, 10.003884, 9.928103 
5.345253e+3, 2.3462291e+2, -686779.06, -744737.4, -1.9710387, 0.00058007735, 0.0000043896243, -686779.06, -46082.773, 0.0, 10.003881, 9.9277725 
5.345252e+3, 2.4454413e+2, -598475.56, -666815.9, 7.540755, 0.0005796483, 0.00016504196, -598475.56, -55007.258, 0.0, 10.003879, 9.91433 
5.3452516e+3, 2.5445858e+2, -499747.13, -568163.0, -0.6482115, 0.00057915197, -0.000018647153, -499747.13, -53440.44, 0.0, 10.003876, 9.914229 
5.345251e+3, 2.6436594e+2, -411536.3, -490844.34, 8.625652, 0.0005787161, 0.00022580371, -411536.3, -62321.76, 0.0, 10.003874, 9.900147 
5.34525e+3, 2.7426663e+2, -312274.63, -391254.06, 0.54315645, 0.00057835557, -0.00012191462, -312274.63, -60086.94, 0.0, 10.003872, 9.900567 
5.34525e+3, 2.8415912e+2, -225768.64, -317884.66, 8.074929, 0.0005780845, 0.0003080932, -225768.64, -70527.45, 0.0, 10.003871, 9.883684 
5.345249e+3, 2.9404384e+2, -126080.58, -217581.78, 0.54600054, 0.00057793217, -0.00017516648, -126080.58, -67709.836, 0.0, 10.00387, 9.884468 
5.345248e+3, 3.0395648e+2, -36491.113, -84825.97, 6.141731, 0.0005777574, 0.00024758806, -36491.113, -36491.113, 0.0, 10.00387, 9.940258 
5.3452474e+3, 3.138986e+2, -35425.367, -82613.375, -2.1274614, 0.0005775521, 0.000011417123, -35425.363, -35425.363, 0.0, 10.003871, 9.941751 
5.355267e+3, 1.2505639e+2, -1715084.3, -1723617.3, 2.7527785, 0.00059039803, 0.0001632723, -1715084.3, -635.8241, 0.0, 10.003912, 9.992603 
5.3552663e+3, 1.3504882e+2, -1617728.9, -1626852.4, -4.814824, 0.000589885, -0.000015857693, -1617728.9, -1206.4999, 0.0, 10.00391, 9.991819 
5.355265e+3, 1.4503475e+2, -1529639.0, -1547571.9, 2.2087667, 0.00058952975, 0.00024541904, -1529639.0, -10978.711, 0.0, 10.003908, 9.980148 
5.355264e+3, 1.5501487e+2, -1431936.0, -1450270.6, -5.846301, 0.0005893223, 0.000056158464, -1431936.0, -11080.823, 0.0, 10.003906, 9.979616 
5.3552634e+3, 1.6498834e+2, -1343981.3, -1371569.9, 0.6822762, 0.00058901304, 0.0001385409, -1343981.3, -20866.15, 0.0, 10.003903, 9.967441 
5.355262e+3, 1.7495584e+2, -1246048.0, -1273950.8, -6.276368, 0.0005886037, 0.000035656343, -1246048.0, -20614.395, 0.0, 10.0039015, 9.967027 
5.355261e+3, 1.8491669e+2, -1157998.4, -1195405.9, 1.2492211, 0.0005881999, 0.00018006444, -1157998.4, -30181.004, 0.0, 10.003898, 9.954573 
5.3552604e+3, 1.9487129e+2, -1059874.0, -1097541.8, -6.979429, 0.00058779924, 0.00004622074, -1059874.0, -29611.803, 0.0, 10.003895, 9.954229 
5.355259e+3, 2.0481923e+2, -971730.8, -1019168.7, 3.1137152, 0.0005874192, 0.0001668363, -971730.8, -38958.457, 0.0, 10.003892, 9.941466 
5.3552586e+3, 2.1476072e+2, -873469.1, -921166.5, -5.0238504, 0.0005870605, -0.000027869239, -873469.1, -38123.473, 0.0, 10.003888, 9.941125 
5.355258e+3, 2.2469555e+2, -785204.25, -842927.75, 4.9295073, 0.00058660907, 0.00021802943, -785204.25, -47219.73, 0.0, 10.003885, 9.9280815 
5.355257e+3, 2.3462367e+2, -686795.7, -744772.2, -3.2683926, 0.00058605324, 0.000004259037, -686795.7, -46106.984, 0.0, 10.003881, 9.92775 
5.355256e+3, 2.4454488e+2, -598492.44, -666851.44, 6.4846654, 0.0005855894, 0.00016471927, -598492.44, -55031.504, 0.0, 10.003879, 9.914306 
5.3552556e+3, 2.544593e+2, -499763.8, -568198.3, -1.6920232, 0.0005852326, -0.000018600895, -499763.8, -53464.254, 0.0, 10.003877, 9.914206 
5.355255e+3, 2.6436663e+2, -411553.16, -490880.22, 7.875999, 0.0005848931, 0.00022601611, -411553.16, -62345.508, 0.0, 10.003875, 9.900124 
5.355254e+3, 2.7426732e+2, -312291.28, -391289.75, -0.18910982, 0.00058457407, -0.000121791374, -312291.28, -60110.24, 0.0, 10.003873, 9.900543 
5.355253e+3, 2.8415978e+2, -225784.48, -317918.97, 7.7639866, 0.0005842675, 0.00030809053, -225784.48, -70549.734, 0.0, 10.003872, 9.883661 
5.355253e+3, 2.940445e+2, -126096.15, -217615.78, 0.27267337, 0.0005839757, -0.0001753443, -126096.15, -67731.62, 0.0, 10.003871, 9.884445 
5.355252e+3, 3.039571e+2, -36508.785, -84864.44, 6.3632607, 0.00058382575, 0.00024744726, -36508.785, -36508.785, 0.0, 10.003871, 9.940231 
5.3552514e+3, 3.1389916e+2, -35443.31, -82652.41, -1.8484021, 0.0005838875, 0.000011626703, -35443.31, -35443.31, 0.0, 10.003872, 9.941724 
5.365271e+3, 1.2505738e+2, -1714938.9, -1723563.8, 3.7437167, 0.0005964027, 0.00016347517, -1714938.9, -500.34753, 0.0, 10.004013, 9.992582 
5.36527e+3, 1.3504982e+2, -1617584.9, -1626799.9, -4.3727455, 0.00059583434, -0.000015548629, -1617584.9, -1072.1755, 0.0, 10.004011, 9.991798 
5.365269e+3, 1.4503571e+2, -1529496.4, -1547520.6, 2.3217168, 0.0005954669, 0.0002456681, -1529496.4, -10845.448, 0.0, 10.004008, 9.980126 
5.365268e+3, 1.5501583e+2, -1431794.4, -1450220.4, -5.6446886, 0.0005952893, 0.00005618339, -1431794.4, -10948.535, 0.0, 10.004006, 9.979595 
5.365267e+3, 1.6498928e+2, -1343838.8, -1371516.9, 0.51019573, 0.00059501437, 0.00013855027, -1343838.8, -20732.682, 0.0, 10.004004, 9.967422 
5.365266e+3, 1.7495674e+2, -1245906.4, -1273898.6, -6.9511223, 0.000594644, 0.000035858953, -1245906.4, -20481.602, 0.0, 10.004001, 9.967008 
5.365265e+3, 1.8491757e+2, -1157859.3, -1195358.6, 0.21267337, 0.00059422856, 0.00018030728, -1157859.3, -30050.6, 0.0, 10.003998, 9.954551 
5.3652644e+3, 1.9487214e+2, -1059735.1, -1097495.1, -7.9833503, 0.00059376453, 0.000046346657, -1059735.1, -29481.398, 0.0, 10.003995, 9.954207 
5.365263e+3, 2.0482007e+2, -971592.5, -1019123.2, 1.9692241, 0.0005933776, 0.00016689673, -971592.5, -38828.36, 0.0, 10.003992, 9.941444 
5.3652626e+3, 2.1476156e+2, -873331.2, -921121.6, -6.409667, 0.0005930722, -0.000027819298, -873331.2, -37993.59, 0.0, 10.003988, 9.941103 
5.3652614e+3, 2.2469634e+2, -785066.7, -842883.94, 3.482362, 0.0005926586, 0.0002180821, -785066.7, -47090.004, 0.0, 10.003985, 9.928059 
5.365261e+3, 2.3462445e+2, -686658.2, -744728.7, -4.816101, 0.00059212337, 0.000004328914, -686658.2, -45977.074, 0.0, 10.0039835, 9.927727 
5.36526e+3, 2.4454562e+2, -598355.25, -666809.0, 5.0518928, 0.00059168227, 0.00016477337, -598355.25, -54901.688, 0.0, 10.003981, 9.914283 
5.365259e+3, 2.5446004e+2, -499627.0, -568156.56, -3.1762521, 0.00059135095, -0.000018601215, -499627.0, -53334.58, 0.0, 10.003979, 9.914183 
5.365259e+3, 2.6436734e+2, -411416.84, -490839.66, 6.5868626, 0.0005910316, 0.0002259935, -411416.84, -62216.098, 0.0, 10.003977, 9.9001 
5.365258e+3, 2.7426797e+2, -312155.25, -391249.78, -1.6330309, 0.0005907261, -0.00012179577, -312155.25, -59980.887, 0.0, 10.003975, 9.900519 
5.365257e+3, 2.8416044e+2, -225647.78, -317877.84, 6.5820227, 0.00059043046, 0.00030810767, -225647.78, -70419.45, 0.0, 10.003974, 9.883638 
5.3652567e+3, 2.9404515e+2, -125959.84, -217575.16, -0.957448, 0.0005901462, -0.00017530184, -125959.84, -67601.51, 0.0, 10.003974, 9.884421 
5.365256e+3, 3.0395767e+2, -36375.96, -84829.86, 5.5642166, 0.00059001904, 0.0002474685, -36375.96, -36375.96, 0.0, 10.003975, 9.940205 
5.3652555e+3, 3.1389976e+2, -35310.37, -82618.21, -2.6686013, 0.0005901258, 0.000011559787, -35310.37, -35310.37, 0.0, 10.003976, 9.941697 
5.375275e+3, 1.250584e+2, -1714956.5, -1723598.4, 2.8160844, 0.0006024047, 0.00016409917, -1714956.5, -527.8374, 0.0, 10.004014, 9.99256 
5.375274e+3, 1.3505082e+2, -1617602.3, -1626834.4, -5.2928495, 0.00060190726, -0.000015665039, -1617602.3, -1099.2761, 0.0, 10.004011, 9.991776 
5.375273e+3, 1.4503668e+2, -1529513.1, -1547554.1, 1.3154684, 0.00060155557, 0.0002455662, -1529513.1, -10871.722, 0.0, 10.004009, 9.980105 
5.375272e+3, 1.5501676e+2, -1431811.0, -1450253.6, -6.659936, 0.0006013393, 0.00005683688, -1431811.0, -10974.435, 0.0, 10.004006, 9.979574 
5.375271e+3, 1.6499019e+2, -1343854.0, -1371547.9, -0.63730484, 0.0006010345, 0.00013913221, -1343854.0, -20757.105, 0.0, 10.0040045, 9.9674015 
5.37527e+3, 1.7495765e+2, -1245921.5, -1273929.5, -8.095273, 0.000600643, 0.000035544304, -1245921.5, -20505.65, 0.0, 10.004002, 9.966988 
5.375269e+3, 1.8491846e+2, -1157876.0, -1195392.6, -0.9836401, 0.0006002645, 0.00017997214, -1157876.0, -30076.033, 0.0, 10.003999, 9.954529 
5.375268e+3, 1.9487302e+2, -1059751.8, -1097529.0, -9.187629, 0.00059989706, 0.00004688837, -1059751.8, -29506.441, 0.0, 10.003996, 9.9541855 
5.375268e+3, 2.048209e+2, -971609.6, -1019158.4, 0.6947328, 0.00059948204, 0.00016748457, -971609.6, -38853.75, 0.0, 10.003992, 9.9414215 
5.3752667e+3, 2.1476236e+2, -873348.1, -921156.6, -7.683755, 0.000599016, -0.000028067348, -873348.1, -38018.543, 0.0, 10.003989, 9.94108 
5.3752655e+3, 2.2469713e+2, -785083.7, -842919.25, 2.3708587, 0.00059861474, 0.00021769544, -785083.7, -47114.8, 0.0, 10.003986, 9.928035 
5.375265e+3, 2.3462524e+2, -686675.0, -744763.9, -5.924407, 0.0005982842, 0.000004578869, -686675.0, -46001.44, 0.0, 10.0039835, 9.927704 
5.375264e+3, 2.4454637e+2, -598372.25, -666844.75, 4.106415, 0.000597918, 0.00016516676, -598372.25, -54926.008, 0.0, 10.003982, 9.914259 
5.375263e+3, 2.5446075e+2, -499643.78, -568192.06, -4.1157494, 0.0005975089, -0.000018644516, -499643.78, -53358.453, 0.0, 10.003979, 9.914159 
5.3752625e+3, 2.6436803e+2, -411434.0, -490876.22, 5.967872, 0.0005971409, 0.00022575773, -411434.0, -62240.113, 0.0, 10.003978, 9.900076 
5.3752625e+3, 2.742687e+2, -312172.2, -391286.16, -2.2304347, 0.0005968235, -0.00012191649, -312172.2, -60004.47, 0.0, 10.003976, 9.900495 
5.3752613e+3, 2.841611e+2, -225663.77, -317912.5, 6.3675723, 0.00059658097, 0.00030814172, -225663.77, -70441.85, 0.0, 10.003975, 9.883615 
5.375261e+3, 2.9404575e+2, -125975.54, -217609.45, -1.1396722, 0.00059643725, -0.00017506105, -125975.54, -67623.39, 0.0, 10.003975, 9.884398 
5.37526e+3, 3.039583e+2, -36393.754, -84868.62, 5.8896537, 0.0005963308, 0.00024763538, -36393.754, -36393.754, 0.0, 10.003975, 9.940179 
5.3752595e+3, 3.1390032e+2, -35328.44, -82657.52, -2.284194, 0.0005962818, 0.000011241812, -35328.44, -35328.44, 0.0, 10.003977, 9.94167 
5.385279e+3, 1.2505941e+2, -1714807.6, -1723543.6, 3.6256247, 0.00060852, 0.00016430985, -1714807.6, -388.90924, 0.0, 10.004117, 9.992538 
5.385278e+3, 1.350518e+2, -1617455.0, -1626780.9, -4.4176397, 0.0006079927, -0.000015381202, -1617455.0, -961.7079, 0.0, 10.004114, 9.9917555 
5.3852767e+3, 1.4503767e+2, -1529367.1, -1547501.9, 1.9423438, 0.00060763455, 0.0002458636, -1529367.1, -10735.277, 0.0, 10.004111, 9.980083 
5.385276e+3, 1.5501772e+2, -1431666.3, -1450202.4, -6.535291, 0.00060743437, 0.000057089208, -1431666.3, -10838.909, 0.0, 10.004108, 9.979552 
5.385275e+3, 1.6499113e+2, -1343708.3, -1371494.0, -0.83420783, 0.0006071326, 0.00013933213, -1343708.3, -20620.334, 0.0, 10.0041065, 9.9673815 
5.3852737e+3, 1.7495856e+2, -1245776.5, -1273876.3, -8.279566, 0.0006067312, 0.00003568439, -1245776.5, -20369.447, 0.0, 10.004104, 9.966968 
5.385273e+3, 1.8491934e+2, -1157733.8, -1195344.4, -1.4154165, 0.00060635124, 0.00018008104, -1157733.8, -29942.377, 0.0, 10.004101, 9.954507 
5.3852725e+3, 1.9487387e+2, -1059610.3, -1097481.5, -10.015718, 0.0006059906, 0.000046995738, -1059610.3, -29373.402, 0.0, 10.004097, 9.954164 
5.3852713e+3, 2.0482175e+2, -971468.75, -1019112.0, -0.35297, 0.0006055721, 0.00016759269, -971468.75, -38721.105, 0.0, 10.004095, 9.941399 
5.385271e+3, 2.1476318e+2, -873207.4, -921110.7, -8.807574, 0.0006050916, -0.00002795632, -873207.4, -37885.82, 0.0, 10.004092, 9.941057 
5.3852695e+3, 2.2469792e+2, -784943.44, -842874.44, 1.2320156, 0.0006047039, 0.00021778358, -784943.44, -46982.31, 0.0, 10.004089, 9.928012 
5.385269e+3, 2.34626e+2, -686535.25, -744719.7, -7.233795, 0.000604418, 0.0000046157006, -686535.25, -45869.31, 0.0, 10.0040865, 9.927681 
5.3852683e+3, 2.4454711e+2, -598233.06, -666801.7, 2.8261147, 0.00060407614, 0.00016517643, -598233.06, -54794.176, 0.0, 10.004085, 9.914235 
5.385268e+3, 2.5446147e+2, -499504.88, -568149.56, -5.5619717, 0.0006036675, -0.000018633824, -499504.88, -53226.676, 0.0, 10.004083, 9.914135 
5.3852665e+3, 2.6436874e+2, -411295.66, -490835.0, 4.6833115, 0.0006033105, 0.00022577148, -411295.66, -62108.652, 0.0, 10.004081, 9.900051 
5.385266e+3, 2.7426934e+2, -312034.38, -391245.63, -3.573978, 0.00060301716, -0.000121896905, -312034.38, -59873.277, 0.0, 10.00408, 9.900471 
5.3852654e+3, 2.8416175e+2, -225525.4, -317870.9, 5.290204, 0.00060279807, 0.00030814655, -225525.4, -70309.88, 0.0, 10.00408, 9.883592 
5.385265e+3, 2.9404637e+2, -125837.64, -217568.4, -2.3398488, 0.0006026768, -0.00017509934, -125837.64, -67491.66, 0.0, 10.004079, 9.884376 
5.385264e+3, 3.039589e+2, -36259.438, -84833.555, 5.0616226, 0.00060257927, 0.0002475902, -36259.438, -36259.438, 0.0, 10.00408, 9.940152 
5.3852636e+3, 3.1390092e+2, -35194.29, -82622.97, -3.1414406, 0.0006025191, 0.00001124442, -35194.29, -35194.29, 0.0, 10.004081, 9.941644 
5.395283e+3, 1.2506042e+2, -1714825.0, -1723578.0, 2.5198374, 0.00061474304, 0.00016414886, -1714825.0, -416.21136, 0.0, 10.004118, 9.992517 
5.3952825e+3, 1.350528e+2, -1617472.1, -1626815.0, -5.5299797, 0.00061409525, -0.000014738148, -1617472.1, -988.63074, 0.0, 10.004115, 9.991734 
5.3952813e+3, 1.4503863e+2, -1529385.0, -1547537.5, 0.84624875, 0.00061371055, 0.0002465191, -1529385.0, -10762.676, 0.0, 10.004112, 9.980062 
5.39528e+3, 1.5501866e+2, -1431683.9, -1450237.8, -7.6256814, 0.0006135756, 0.000056979887, -1431683.9, -10865.892, 0.0, 10.004109, 9.979529 
5.3952795e+3, 1.6499205e+2, -1343723.5, -1371524.9, -1.9599869, 0.0006133066, 0.00013918776, -1343723.5, -20644.66, 0.0, 10.0041065, 9.967362 
5.3952783e+3, 1.7495947e+2, -1245791.5, -1273907.0, -9.414796, 0.0006129056, 0.000036232814, -1245791.5, -20393.422, 0.0, 10.004104, 9.9669485 
5.395277e+3, 1.8492022e+2, -1157751.3, -1195380.0, -2.6246188, 0.00061248924, 0.00018058853, -1157751.3, -29968.63, 0.0, 10.004101, 9.954484 
5.3952765e+3, 1.9487473e+2, -1059627.6, -1097517.0, -11.223473, 0.0006120546, 0.000046711324, -1059627.6, -29399.227, 0.0, 10.004098, 9.954141 
5.3952754e+3, 2.0482258e+2, -971486.0, -1019147.5, -1.4617811, 0.0006116549, 0.00016726827, -971486.0, -38746.582, 0.0, 10.004095, 9.941376 
5.395274e+3, 2.1476401e+2, -873224.44, -921145.94, -9.919426, 0.00061129173, -0.000027522947, -873224.44, -37910.88, 0.0, 10.004093, 9.941034 
5.395274e+3, 2.2469872e+2, -784960.75, -842910.44, 0.1758604, 0.00061091856, 0.00021829816, -784960.75, -47007.418, 0.0, 10.00409, 9.927988 
5.395273e+3, 2.3462677e+2, -686552.4, -744755.56, -8.288774, 0.0006105331, 0.0000044597173, -686552.4, -45893.97, 0.0, 10.004087, 9.927657 
5.3952724e+3, 2.4454787e+2, -598250.4, -666838.1, 2.011412, 0.00061017013, 0.00016483976, -598250.4, -54818.773, 0.0, 10.004086, 9.914211 
5.395272e+3, 2.544622e+2, -499521.97, -568185.8, -6.3667145, 0.0006098325, -0.000018575443, -499521.97, -53250.836, 0.0, 10.004084, 9.914111 
5.395271e+3, 2.6436946e+2, -411312.94, -490871.84, 4.1510477, 0.0006095401, 0.00022600898, -411312.94, -62132.773, 0.0, 10.004082, 9.900027 
5.39527e+3, 2.7427003e+2, -312051.44, -391282.28, -4.090521, 0.00060930324, -0.00012175174, -312051.44, -59896.95, 0.0, 10.004081, 9.900446 
5.3952694e+3, 2.8416237e+2, -225541.66, -317906.16, 5.1518083, 0.00060908083, 0.00030812417, -225541.64, -70332.51, 0.0, 10.00408, 9.883568 
5.395269e+3, 2.9404703e+2, -125853.6, -217603.3, -2.4443316, 0.0006088757, -0.00017539022, -125853.6, -67513.766, 0.0, 10.00408, 9.884352 
5.395268e+3, 3.039595e+2, -36277.375, -84872.64, 5.4261074, 0.0006087763, 0.00024735287, -36277.375, -36277.375, 0.0, 10.004081, 9.940125 
5.3952676e+3, 3.1390148e+2, -35212.492, -82662.58, -2.7249067, 0.0006088354, 0.000011535426, -35212.492, -35212.492, 0.0, 10.004082, 9.941616 
5.405287e+3, 1.2506145e+2, -1714673.3, -1723522.3, 3.650364, 0.00062094437, 0.00016436948, -1714673.3, -274.4269, 0.0, 10.004223, 9.992495 
5.405286e+3, 1.3505378e+2, -1617321.5, -1626760.3, -4.838374, 0.00062027405, -0.00001443348, -1617321.5, -847.7415, 0.0, 10.00422, 9.991712 
5.4052854e+3, 1.450396e+2, -1529235.6, -1547484.1, 1.3354664, 0.00061987777, 0.00024685048, -1529235.6, -10622.764, 0.0, 10.004217, 9.980039 
5.405284e+3, 1.5501961e+2, -1431535.6, -1450185.4, -7.134185, 0.00061974186, 0.000057281035, -1431535.6, -10726.913, 0.0, 10.004214, 9.979507 
5.405283e+3, 1.6499299e+2, -1343574.3, -1371469.9, -1.7035326, 0.0006194739, 0.00013943133, -1343574.3, -20504.566, 0.0, 10.004211, 9.967341 
5.4052824e+3, 1.7496037e+2, -1245643.4, -1273853.0, -9.593854, 0.00061907625, 0.000036392023, -1245643.4, -20254.21, 0.0, 10.004209, 9.966928 
5.405281e+3, 1.8492112e+2, -1157605.9, -1195330.8, -3.0580447, 0.00061865035, 0.00018069858, -1157605.9, -29831.969, 0.0, 10.004206, 9.954461 
5.4052806e+3, 1.9487561e+2, -1059482.8, -1097468.4, -11.722475, 0.00061819283, 0.000046807978, -1059482.8, -29262.895, 0.0, 10.004203, 9.954118 
5.40528e+3, 2.0482342e+2, -971341.94, -1019100.0, -2.071683, 0.00061780034, 0.00016736696, -971341.94, -38610.76, 0.0, 10.0042, 9.941352 
5.405279e+3, 2.1476482e+2, -873081.25, -921099.4, -10.814157, 0.00061747624, -0.000027405533, -873081.25, -37775.684, 0.0, 10.004197, 9.941011 
5.4052776e+3, 2.2469951e+2, -784818.2, -842864.94, -0.81322896, 0.00061711535, 0.00021840757, -784818.2, -46872.64, 0.0, 10.004194, 9.927964 
5.4052776e+3, 2.3462753e+2, -686410.1, -744710.56, -9.4225025, 0.00061671226, 0.000004531248, -686410.1, -45759.3, 0.0, 10.004192, 9.927633 
5.4052764e+3, 2.4454862e+2, -598108.7, -666794.25, 0.9342861, 0.0006163565, 0.00016488477, -598108.7, -54684.42, 0.0, 10.00419, 9.914187 
5.405276e+3, 2.5446293e+2, -499380.9, -568142.7, -7.581593, 0.0006160553, -0.000018543542, -499380.9, -53116.883, 0.0, 10.004189, 9.914087 
5.4052746e+3, 2.6437014e+2, -411172.6, -490830.03, 3.0533283, 0.0006157901, 0.00022602364, -411172.6, -61999.297, 0.0, 10.004188, 9.9000025 
5.4052746e+3, 2.7427068e+2, -311911.7, -391241.2, -5.3535447, 0.00061556895, -0.00012175944, -311911.7, -59763.816, 0.0, 10.004187, 9.900421 
5.4052734e+3, 2.8416306e+2, -225401.44, -317863.97, 4.1151333, 0.00061535323, 0.0003081191, -225401.44, -70198.65, 0.0, 10.004186, 9.883544 
5.405273e+3, 2.9404762e+2, -125713.98, -217561.73, -3.5310893, 0.0006151427, -0.00017535944, -125713.98, -67380.27, 0.0, 10.004186, 9.884329 
5.405272e+3, 3.039601e+2, -36141.49, -84837.195, 4.68091, 0.0006150435, 0.00024736676, -36141.49, -36141.49, 0.0, 10.004187, 9.940098 
5.4052716e+3, 3.1390208e+2, -35076.89, -82627.7, -3.587535, 0.0006151113, 0.000011456314, -35076.89, -35076.89, 0.0, 10.004188, 9.941589 
5.415292e+3, 1.2506247e+2, -1714691.5, -1723558.5, 2.4664564, 0.00062713254, 0.00016493106, -1714691.5, -302.7521, 0.0, 10.004224, 9.992472 
5.4152906e+3, 1.350548e+2, -1617339.6, -1626796.4, -6.0153394, 0.00062652724, -0.000014432748, -1617339.6, -875.6497, 0.0, 10.004221, 9.991689 
5.4152894e+3, 1.4504057e+2, -1529253.4, -1547519.6, 0.16341972, 0.0006261329, 0.00024689088, -1529253.4, -10650.109, 0.0, 10.004218, 9.980017 
5.415289e+3, 1.5502056e+2, -1431553.3, -1450220.8, -8.312947, 0.0006259366, 0.00005794948, -1431553.3, -10753.8545, 0.0, 10.004215, 9.979485 
5.4152876e+3, 1.6499391e+2, -1343590.4, -1371502.6, -2.8957577, 0.0006256414, 0.00014002185, -1343590.4, -20529.84, 0.0, 10.004212, 9.96732 
5.4152864e+3, 1.7496128e+2, -1245659.4, -1273885.5, -10.784767, 0.0006252495, 0.00003620138, -1245659.4, -20279.094, 0.0, 10.0042095, 9.966907 
5.415286e+3, 1.84922e+2, -1157623.5, -1195366.8, -4.1954565, 0.000624838, 0.00018045153, -1157623.5, -29858.297, 0.0, 10.004207, 9.954438 
5.4152846e+3, 1.9487646e+2, -1059500.3, -1097504.1, -12.865902, 0.00062440376, 0.00004724573, -1059500.3, -29288.813, 0.0, 10.004204, 9.954095 
5.4152834e+3, 2.0482428e+2, -971359.7, -1019136.7, -3.1938574, 0.00062400807, 0.00016784438, -971359.7, -38636.8, 0.0, 10.004201, 9.941328 
5.4152834e+3, 2.1476564e+2, -873098.8, -921135.75, -11.93539, 0.00062365254, -0.000027572516, -873098.8, -37801.273, 0.0, 10.004198, 9.940988 
5.415282e+3, 2.247003e+2, -784835.75, -842901.5, -1.7484686, 0.00062330184, 0.0002181526, -784835.75, -46897.984, 0.0, 10.004195, 9.92794 
5.415281e+3, 2.346283e+2, -686427.5, -744747.0, -10.355867, 0.000622955, 0.000004806168, -686427.5, -45784.203, 0.0, 10.004193, 9.927609 
5.415281e+3, 2.4454936e+2, -598126.2, -666831.25, 0.17172962, 0.000622632, 0.00016527146, -598126.2, -54709.27, 0.0, 10.004191, 9.914163 
5.41528e+3, 2.5446364e+2, -499398.22, -568179.44, -8.33752, 0.0006223358, -0.00001853628, -499398.22, -53141.273, 0.0, 10.0041895, 9.9140625 
5.415279e+3, 2.6437083e+2, -411190.2, -490867.56, 2.586591, 0.00062206417, 0.00022583731, -411190.2, -62023.703, 0.0, 10.004188, 9.899978 
5.415278e+3, 2.7427137e+2, -311929.06, -391278.56, -5.801765, 0.0006218222, -0.000121905425, -311929.06, -59787.773, 0.0, 10.004187, 9.900396 
5.415278e+3, 2.8416368e+2, -225417.8, -317899.53, 4.028419, 0.00062162225, 0.00030812868, -225417.8, -70221.375, 0.0, 10.004187, 9.88352 
5.4152775e+3, 2.9404828e+2, -125730.055, -217596.9, -3.5893366, 0.0006214768, -0.00017504029, -125730.055, -67402.484, 0.0, 10.004187, 9.884305 
5.415276e+3, 3.0396068e+2, -36159.7, -84876.88, 5.050867, 0.00062137964, 0.0002476056, -36159.695, -36159.695, 0.0, 10.004188, 9.940071 
5.4152757e+3, 3.1390262e+2, -35095.383, -82667.95, -3.1653664, 0.00062135665, 0.000011043327, -35095.383, -35095.383, 0.0, 10.004189, 9.941562 
5.425296e+3, 1.250635e+2, -1714536.4, -1723501.6, 3.4912982, 0.0006334222, 0.00016523035, -1714536.4, -157.66843, 0.0, 10.004332, 9.99245 
5.4252946e+3, 1.3505578e+2, -1617185.8, -1626740.5, -4.9812384, 0.00063279574, -0.00001411211, -1617185.8, -731.55756, 0.0, 10.004329, 9.991666 
5.425294e+3, 1.4504156e+2, -1529100.8, -1547465.3, 1.0099524, 0.00063238246, 0.00024721734, -1529100.8, -10507.062, 0.0, 10.004325, 9.979993 
5.425293e+3, 1.5502153e+2, -1431401.8, -1450167.3, -7.8857875, 0.00063216925, 0.00005826634, -1431401.8, -10611.706, 0.0, 10.004322, 9.979462 
5.425292e+3, 1.6499484e+2, -1343438.0, -1371446.6, -2.6994848, 0.0006318582, 0.0001402826, -1343438.0, -20386.55, 0.0, 10.004319, 9.967299 
5.425291e+3, 1.7496221e+2, -1245507.9, -1273830.5, -10.662204, 0.0006314516, 0.000036359706, -1245507.9, -20136.566, 0.0, 10.004315, 9.966886 
5.42529e+3, 1.849229e+2, -1157475.0, -1195316.4, -4.232544, 0.0006310511, 0.00018057194, -1157475.0, -29718.418, 0.0, 10.0043125, 9.954414 
5.425289e+3, 1.9487734e+2, -1059352.6, -1097454.9, -13.247237, 0.0006306541, 0.000047394304, -1059352.6, -29149.744, 0.0, 10.00431, 9.954071 
5.425288e+3, 2.0482512e+2, -971212.94, -1019088.44, -3.7201195, 0.00063026475, 0.00016799374, -971212.94, -38498.293, 0.0, 10.004307, 9.941304 
5.425287e+3, 2.1476646e+2, -872952.56, -921088.2, -12.5745535, 0.0006298828, -0.00002745159, -872952.56, -37663.082, 0.0, 10.004305, 9.940964 
5.425287e+3, 2.2470109e+2, -784690.25, -842855.1, -2.413434, 0.00062953803, 0.00021825921, -784690.25, -46760.29, 0.0, 10.004302, 9.927917 
5.4252857e+3, 2.3462908e+2, -686282.9, -744701.4, -11.259333, 0.0006292331, 0.0000049143123, -686282.9, -45647.125, 0.0, 10.0043, 9.927586 
5.4252845e+3, 2.4455011e+2, -597982.3, -666786.75, -0.7322136, 0.00062893156, 0.00016535861, -597982.3, -54572.68, 0.0, 10.004298, 9.914139 
5.425284e+3, 2.5446436e+2, -499254.94, -568135.7, -9.3962345, 0.0006286329, -0.00001849677, -499254.94, -53005.047, 0.0, 10.004296, 9.914038 
5.4252833e+3, 2.643715e+2, -411047.63, -490825.06, 1.6611503, 0.0006283582, 0.000225856, -411047.63, -61887.977, 0.0, 10.004295, 9.899953 
5.425283e+3, 2.7427202e+2, -311787.22, -391236.88, -6.8279066, 0.00062811264, -0.00012187369, -311787.22, -59652.516, 0.0, 10.004294, 9.900372 
5.425282e+3, 2.8416434e+2, -225275.64, -317856.84, 3.1808574, 0.0006279203, 0.00030815974, -225275.64, -70085.56, 0.0, 10.004293, 9.883496 
5.4252815e+3, 2.9404888e+2, -125588.695, -217554.95, -4.6287637, 0.0006277976, -0.00017502914, -125588.695, -67267.23, 0.0, 10.004293, 9.884281 
5.425281e+3, 3.039613e+2, -36022.125, -84840.87, 4.3074975, 0.00062770885, 0.00024759473, -36022.125, -36022.125, 0.0, 10.004294, 9.940043 
5.4252803e+3, 3.139032e+2, -34958.195, -82632.52, -3.8641617, 0.00062767306, 0.000011008849, -34958.195, -34958.195, 0.0, 10.004295, 9.941534 
5.4353005e+3, 1.2506452e+2, -1714554.6, -1723537.8, 2.2229822, 0.000639809, 0.00016529506, -1714554.6, -185.93956, 0.0, 10.004333, 9.992427 
5.4352987e+3, 1.350568e+2, -1617203.8, -1626776.4, -6.2560673, 0.00063908426, -0.000013506235, -1617203.8, -759.4274, 0.0, 10.00433, 9.991643 
5.435298e+3, 1.4504254e+2, -1529119.4, -1547502.6, -0.2419621, 0.0006386335, 0.00024779866, -1529119.4, -10535.355, 0.0, 10.004326, 9.97997 
5.435297e+3, 1.5502247e+2, -1431420.1, -1450204.4, -9.132704, 0.0006384421, 0.000058268397, -1431420.1, -10639.563, 0.0, 10.004323, 9.979438 
5.4352957e+3, 1.6499577e+2, -1343454.1, -1371479.6, -3.91461, 0.0006381254, 0.00014024814, -1343454.1, -20411.941, 0.0, 10.00432, 9.9672785 
5.435295e+3, 1.749631e+2, -1245524.0, -1273863.3, -11.8848095, 0.00063768576, 0.000036829362, -1245524.0, -20161.576, 0.0, 10.004316, 9.966865 
5.4352945e+3, 1.8492378e+2, -1157493.3, -1195353.8, -5.4235516, 0.00063729315, 0.00018102002, -1157493.3, -29745.463, 0.0, 10.004313, 9.954391 
5.4352933e+3, 1.948782e+2, -1059370.8, -1097492.0, -14.437045, 0.00063694577, 0.00004728349, -1059370.8, -29176.348, 0.0, 10.004311, 9.954047 
5.435293e+3, 2.0482595e+2, -971230.94, -1019125.5, -4.7696643, 0.00063657126, 0.00016784904, -971230.94, -38524.516, 0.0, 10.004308, 9.94128 
5.4352915e+3, 2.1476728e+2, -872970.3, -921125.06, -13.626953, 0.0006361676, -0.000027073827, -872970.3, -37688.863, 0.0, 10.004306, 9.94094 
5.4352903e+3, 2.247019e+2, -784708.25, -842892.7, -3.3543472, 0.00063582504, 0.00021868847, -784708.25, -46786.09, 0.0, 10.004303, 9.927892 
5.4352903e+3, 2.3462985e+2, -686300.7, -744738.75, -12.196947, 0.00063554896, 0.000004872379, -686300.7, -45672.465, 0.0, 10.004301, 9.927561 
5.435289e+3, 2.4455085e+2, -598000.1, -666824.3, -1.4342533, 0.00063525874, 0.0001651769, -598000.1, -54597.79, 0.0, 10.004299, 9.914114 
5.4352885e+3, 2.5446507e+2, -499272.53, -568173.06, -10.090236, 0.0006349509, -0.000018429238, -499272.53, -53029.7, 0.0, 10.004297, 9.914014 
5.4352874e+3, 2.6437223e+2, -411065.38, -490863.03, 1.2335256, 0.0006346763, 0.00022605737, -411065.38, -61912.563, 0.0, 10.004295, 9.899927 
5.4352874e+3, 2.742727e+2, -311804.78, -391274.66, -7.240793, 0.00063444243, -0.00012168345, -311804.78, -59676.64, 0.0, 10.004295, 9.900346 
5.435286e+3, 2.8416497e+2, -225292.39, -317893.25, 3.0946066, 0.00063425046, 0.00030820927, -225292.39, -70108.64, 0.0, 10.004294, 9.883472 
5.4352856e+3, 2.940495e+2, -125605.164, -217590.98, -4.684026, 0.0006341126, -0.00017529506, -125605.164, -67289.78, 0.0, 10.004294, 9.884256 
5.435285e+3, 3.0396187e+2, -36040.332, -84880.61, 4.659348, 0.00063403795, 0.00024735907, -36040.332, -36040.332, 0.0, 10.004295, 9.940017 
5.4352844e+3, 3.1390378e+2, -34976.65, -82672.74, -3.4716265, 0.00063405914, 0.000011313202, -34976.65, -34976.65, 0.0, 10.004296, 9.941506 
5.4453045e+3, 1.2506555e+2, -1714396.3, -1723479.9, 3.5855815, 0.00064619083, 0.00016558141, -1714396.3, -37.652912, 0.0, 10.004442, 9.992403 
5.4453033e+3, 1.350578e+2, -1617046.6, -1626719.5, -5.3275075, 0.0006454341, -0.000013139794, -1617046.6, -612.1302, 0.0, 10.004439, 9.99162 
5.445302e+3, 1.4504352e+2, -1528963.5, -1547447.1, 0.48213792, 0.00064496085, 0.0002481587, -1528963.5, -10389.104, 0.0, 10.004436, 9.979946 
5.4453015e+3, 1.5502344e+2, -1431265.5, -1450150.0, -8.450781, 0.0006447559, 0.000058536752, -1431265.5, -10494.258, 0.0, 10.004432, 9.979414 
5.4453003e+3, 1.6499671e+2, -1343298.6, -1371422.8, -3.386636, 0.0006444316, 0.00014047585, -1343298.6, -20265.596, 0.0, 10.004429, 9.967257 
5.445299e+3, 1.7496403e+2, -1245369.5, -1273807.4, -11.721315, 0.0006439905, 0.000037067603, -1245369.5, -20016.12, 0.0, 10.004426, 9.966843 
5.4452986e+3, 1.8492466e+2, -1157341.6, -1195302.6, -5.4323015, 0.0006435987, 0.00018123351, -1157341.6, -29602.61, 0.0, 10.004422, 9.954366 
5.445298e+3, 1.9487907e+2, -1059220.0, -1097441.6, -14.550777, 0.00064325426, 0.000047435984, -1059220.0, -29034.14, 0.0, 10.004419, 9.954022 
5.445297e+3, 2.048268e+2, -971081.1, -1019076.3, -4.954468, 0.000642893, 0.00016799028, -971081.1, -38382.984, 0.0, 10.004416, 9.9412565 
5.445296e+3, 2.147681e+2, -872821.56, -921076.8, -14.107551, 0.0006425133, -0.000026890948, -872821.5, -37548.094, 0.0, 10.004414, 9.940915 
5.445295e+3, 2.247027e+2, -784560.3, -842845.5, -3.8989975, 0.0006421777, 0.00021886115, -784560.3, -46645.91, 0.0, 10.004412, 9.927868 
5.4452944e+3, 2.3463061e+2, -686153.4, -744692.4, -12.868314, 0.00064188975, 0.000004977265, -686153.4, -45532.742, 0.0, 10.004409, 9.927536 
5.445293e+3, 2.445516e+2, -597853.6, -666779.06, -2.0525274, 0.00064159697, 0.00016524718, -597853.6, -54458.58, 0.0, 10.004407, 9.914089 
5.445293e+3, 2.5446582e+2, -499126.84, -568128.6, -10.904423, 0.0006412973, -0.00001835455, -499126.84, -52891.09, 0.0, 10.004406, 9.913988 
5.445292e+3, 2.6437292e+2, -410920.63, -490819.94, 0.48146942, 0.0006410329, 0.0002261287, -410920.63, -61774.61, 0.0, 10.004404, 9.899901 
5.4452914e+3, 2.7427337e+2, -311660.88, -391232.4, -8.177693, 0.0006408115, -0.00012162511, -311660.88, -59539.313, 0.0, 10.004403, 9.900321 
5.445291e+3, 2.8416562e+2, -225148.2, -317849.9, 2.3548284, 0.0006406234, 0.00030824737, -225148.2, -69970.766, 0.0, 10.004403, 9.883448 
5.44529e+3, 2.9405013e+2, -125461.76, -217548.38, -5.4266367, 0.00064047775, -0.00017528748, -125461.76, -67152.45, 0.0, 10.004403, 9.8842325 
5.4452896e+3, 3.039625e+2, -35900.863, -84844.14, 4.1580644, 0.00064039003, 0.0002473521, -35900.863, -35900.863, 0.0, 10.004403, 9.939989 
5.4452884e+3, 3.1390432e+2, -34837.7, -82636.95, -4.241405, 0.00064039085, 0.000011316829, -34837.7, -34837.7, 0.0, 10.004405, 9.941479 
5.455309e+3, 1.2506658e+2, -1714415.4, -1723517.9, 2.222072, 0.0006525752, 0.00016606455, -1714415.4, -66.944244, 0.0, 10.004443, 9.992379 
5.455308e+3, 1.350588e+2, -1617065.6, -1626757.4, -6.6839547, 0.00065184524, -0.000012987174, -1617065.6, -640.9873, 0.0, 10.00444, 9.991596 
5.455307e+3, 1.450445e+2, -1528982.3, -1547484.6, -0.84317803, 0.00065136264, 0.0002483211, -1528982.3, -10417.459, 0.0, 10.0044365, 9.979922 
5.4553056e+3, 1.550244e+2, -1431284.0, -1450187.3, -9.782093, 0.0006511127, 0.0000590418, -1431284.0, -10522.183, 0.0, 10.004433, 9.979391 
5.455305e+3, 1.6499765e+2, -1343315.6, -1371457.3, -4.663533, 0.0006507792, 0.0001409365, -1343315.6, -20291.783, 0.0, 10.00443, 9.967235 
5.4553044e+3, 1.7496495e+2, -1245386.4, -1273841.8, -12.997044, 0.0006503646, 0.000037098976, -1245386.4, -20041.9, 0.0, 10.004427, 9.966821 
5.455303e+3, 1.8492557e+2, -1157360.1, -1195340.4, -6.625771, 0.0006499672, 0.00018123737, -1157360.1, -29629.834, 0.0, 10.004423, 9.954342 
5.455302e+3, 1.9487995e+2, -1059238.4, -1097479.3, -15.749457, 0.00064958446, 0.000047822577, -1059238.4, -29060.932, 0.0, 10.00442, 9.953999 
5.4553014e+3, 2.0482765e+2, -971099.6, -1019114.56, -6.045378, 0.00064923486, 0.00016838573, -971099.6, -38409.797, 0.0, 10.004417, 9.941232 
5.4553e+3, 2.1476892e+2, -872839.9, -921114.9, -15.196273, 0.00064891967, -0.000026882606, -872839.9, -37574.445, 0.0, 10.004415, 9.94089 
5.455299e+3, 2.2470349e+2, -784578.5, -842883.56, -4.7999473, 0.0006485953, 0.00021880434, -784578.5, -46671.926, 0.0, 10.004413, 9.927842 
5.455299e+3, 2.3463139e+2, -686171.4, -744730.25, -13.767903, 0.00064825924, 0.000005212425, -686171.4, -45558.293, 0.0, 10.00441, 9.927511 
5.455298e+3, 2.4455234e+2, -597871.75, -666817.5, -2.7526252, 0.0006479514, 0.00016554155, -597871.75, -54484.05, 0.0, 10.004408, 9.914063 
5.455297e+3, 2.5446653e+2, -499144.8, -568166.9, -11.596568, 0.0006476755, -0.000018274171, -499144.8, -52916.094, 0.0, 10.004407, 9.913963 
5.4552966e+3, 2.6437363e+2, -410938.72, -490858.7, 0.05471942, 0.0006474301, 0.00022608321, -410938.72, -61799.527, 0.0, 10.004405, 9.899877 
5.455296e+3, 2.7427405e+2, -311678.78, -391270.97, -8.587399, 0.0006472219, -0.000121685516, -311678.78, -59563.76, 0.0, 10.004404, 9.900295 
5.455295e+3, 2.8416625e+2, -225164.97, -317886.44, 2.2739396, 0.0006470408, 0.0003082744, -225164.97, -69993.85, 0.0, 10.004404, 9.883424 
5.455294e+3, 2.9405075e+2, -125478.234, -217584.48, -5.484588, 0.00064689375, -0.00017503604, -125478.234, -67175.01, 0.0, 10.004404, 9.884208 
5.4552937e+3, 3.0396307e+2, -35919.574, -84884.98, 4.452438, 0.0006467689, 0.00024754895, -35919.57, -35919.57, 0.0, 10.004404, 9.939961 
5.455293e+3, 3.139049e+2, -34856.707, -82678.375, -3.900873, 0.0006466801, 0.00001105053, -34856.703, -34856.703, 0.0, 10.004405, 9.94145 
5.465313e+3, 1.2506762e+2, -1714253.8, -1723458.9, 3.4653828, 0.00065903715, 0.00016645138, -1714253.8, 84.60456, 0.0, 10.004556, 9.992355 
5.4653126e+3, 1.3505983e+2, -1616905.3, -1626699.4, -5.45158, 0.0006582944, -0.000012689698, -1616905.3, -490.53882, 0.0, 10.004552, 9.991572 
5.4653114e+3, 1.450455e+2, -1528823.3, -1547428.1, 0.23947124, 0.00065779325, 0.0002485977, -1528823.3, -10268.144, 0.0, 10.004548, 9.9798975 
5.465311e+3, 1.5502536e+2, -1431126.1, -1450131.9, -9.095068, 0.0006575188, 0.000059364145, -1431126.1, -10373.8, 0.0, 10.004544, 9.979366 
5.4653096e+3, 1.6499859e+2, -1343157.0, -1371399.4, -4.153533, 0.0006571782, 0.00014124524, -1343157.0, -20142.348, 0.0, 10.004541, 9.967213 
5.4653084e+3, 1.7496587e+2, -1245228.9, -1273784.9, -12.5783, 0.0006567739, 0.000037335216, -1245228.9, -19893.396, 0.0, 10.004538, 9.966799 
5.465308e+3, 1.8492647e+2, -1157205.5, -1195288.3, -6.3128195, 0.0006563798, 0.00018144553, -1157205.5, -29484.03, 0.0, 10.004535, 9.954317 
5.4653066e+3, 1.9488081e+2, -1059084.8, -1097428.1, -15.756288, 0.00065599306, 0.000048048114, -1059084.8, -28915.938, 0.0, 10.004531, 9.953974 
5.4653054e+3, 2.0482849e+2, -970947.06, -1019064.56, -6.147705, 0.0006556465, 0.00016860016, -970947.06, -38265.484, 0.0, 10.004528, 9.941207 
5.465305e+3, 2.1476974e+2, -872688.2, -921065.75, -15.418724, 0.0006553418, -0.00002670951, -872688.2, -37430.813, 0.0, 10.004525, 9.9408655 
5.465304e+3, 2.2470428e+2, -784427.75, -842835.6, -5.0225663, 0.00065501826, 0.00021895669, -784427.75, -46528.938, 0.0, 10.004523, 9.927817 
5.465303e+3, 2.3463215e+2, -686021.56, -744683.1, -14.24436, 0.0006546724, 0.00000536699, -686021.56, -45416.016, 0.0, 10.00452, 9.927486 
5.4653025e+3, 2.4455309e+2, -597722.8, -666771.5, -3.2329679, 0.0006543625, 0.00016567897, -597722.8, -54342.4, 0.0, 10.0045185, 9.914038 
5.465302e+3, 2.5446725e+2, -498996.75, -568121.75, -12.22866, 0.0006540935, -0.000018176752, -498996.75, -52775.094, 0.0, 10.004517, 9.913938 
5.4653007e+3, 2.643743e+2, -410791.56, -490814.84, -0.45373756, 0.00065384957, 0.00022614795, -410791.56, -61659.17, 0.0, 10.004516, 9.89985 
5.4653e+3, 2.742747e+2, -311532.53, -391228.03, -9.197515, 0.0006536358, -0.000121644014, -311532.53, -59424.066, 0.0, 10.004515, 9.9002695 
5.4652995e+3, 2.8416693e+2, -225018.58, -317842.53, 1.7708371, 0.00065345364, 0.00030832796, -225018.58, -69853.76, 0.0, 10.004514, 9.883399 
5.465299e+3, 2.9405135e+2, -125332.87, -217541.44, -6.268406, 0.0006533116, -0.0001749234, -125332.87, -67035.7, 0.0, 10.004514, 9.884183 
5.465298e+3, 3.039637e+2, -35778.18, -84847.91, 3.8767123, 0.00065318047, 0.000247632, -35778.18, -35778.18, 0.0, 10.004515, 9.939933 
5.4652977e+3, 3.1390545e+2, -34715.832, -82641.95, -4.3612046, 0.0006530687, 0.000010975426, -34715.832, -34715.832, 0.0, 10.004515, 9.9414215 
5.475318e+3, 1.2506865e+2, -1714272.9, -1723496.9, 1.9966303, 0.0006655749, 0.00016675214, -1714272.9, 55.301525, 0.0, 10.004557, 9.9923315 
5.4753166e+3, 1.3506083e+2, -1616924.1, -1626737.3, -6.9253883, 0.0006647843, -0.000012263823, -1616924.1, -519.41345, 0.0, 10.004553, 9.991549 
5.475316e+3, 1.4504649e+2, -1528842.8, -1547467.4, -1.1674194, 0.00066425645, 0.00024897544, -1528842.8, -10297.4, 0.0, 10.004549, 9.979873 
5.475315e+3, 1.5502633e+2, -1431145.5, -1450170.8, -10.497312, 0.00066397554, 0.000059523714, -1431145.5, -10402.601, 0.0, 10.004545, 9.9793415 
5.475314e+3, 1.6499954e+2, -1343174.1, -1371434.3, -5.489816, 0.00066362973, 0.0001414185, -1343174.1, -20168.705, 0.0, 10.004542, 9.967191 
5.475313e+3, 1.7496678e+2, -1245245.8, -1273819.5, -13.920904, 0.00066322135, 0.00003775293, -1245245.8, -19919.35, 0.0, 10.004539, 9.966777 
5.475312e+3, 1.8492737e+2, -1157224.6, -1195327.4, -7.554367, 0.00066283834, 0.00018183468, -1157224.6, -29511.926, 0.0, 10.004536, 9.954292 
5.475311e+3, 1.9488168e+2, -1059103.8, -1097467.0, -16.996664, 0.0006624781, 0.00004812993, -1059103.6, -28943.379, 0.0, 10.004532, 9.953949 
5.47531e+3, 2.0482935e+2, -970965.75, -1019103.3, -7.249665, 0.0006621269, 0.00016865315, -970965.75, -38292.508, 0.0, 10.004529, 9.941181 
5.4753095e+3, 2.1477056e+2, -872706.7, -921104.25, -16.522911, 0.00066178455, -0.000026390546, -872706.7, -37457.37, 0.0, 10.004526, 9.940841 
5.4753083e+3, 2.2470509e+2, -784446.44, -842874.7, -5.947925, 0.0006614527, 0.00021929434, -784446.44, -46555.438, 0.0, 10.004524, 9.927792 
5.475308e+3, 2.3463294e+2, -686040.06, -744722.0, -15.1651535, 0.000661131, 0.0000054492234, -686040.06, -45442.047, 0.0, 10.004521, 9.927461 
5.475307e+3, 2.4455383e+2, -597741.25, -666810.56, -3.938491, 0.00066083047, 0.00016567613, -597741.25, -54368.145, 0.0, 10.004519, 9.914012 
5.475306e+3, 2.5446796e+2, -499014.97, -568160.56, -12.926689, 0.00066055363, -0.000018064939, -499014.94, -52800.36, 0.0, 10.004518, 9.913912 
5.4753053e+3, 2.64375e+2, -410809.88, -490854.06, -0.8876939, 0.00066029537, 0.00022631006, -410809.88, -61684.266, 0.0, 10.004517, 9.899824 
5.475305e+3, 2.742754e+2, -311550.6, -391267.03, -9.6179905, 0.0006600593, -0.00012151221, -311550.6, -59448.688, 0.0, 10.004516, 9.900243 
5.475304e+3, 2.8416756e+2, -225035.88, -317880.2, 1.6360468, 0.0006598688, 0.00030840468, -225035.88, -69877.35, 0.0, 10.004515, 9.883373 
5.475303e+3, 2.9405198e+2, -125349.88, -217578.75, -6.375148, 0.0006597375, -0.00017493556, -125349.88, -67058.766, 0.0, 10.004515, 9.884158 
5.475303e+3, 3.0396426e+2, -35796.758, -84888.54, 4.1184583, 0.0006596275, 0.00024761268, -35796.758, -35796.758, 0.0, 10.004515, 9.939905 
5.4753023e+3, 3.1390604e+2, -34734.637, -82683.02, -4.0876174, 0.00065955194, 0.000011070515, -34734.637, -34734.637, 0.0, 10.004516, 9.941394 
5.4853225e+3, 1.2506971e+2, -1714108.0, -1723436.8, 3.5572217, 0.000672121, 0.00016709091, -1714108.0, 209.89285, 0.0, 10.004671, 9.992308 
5.485322e+3, 1.3506186e+2, -1616760.5, -1626678.1, -5.757869, 0.00067130296, -0.000011853971, -1616760.5, -365.80847, 0.0, 10.004667, 9.991524 
5.48532e+3, 1.4504749e+2, -1528680.5, -1547409.9, -0.16434738, 0.0006707665, 0.0002493621, -1528680.5, -10144.931, 0.0, 10.004663, 9.979848 
5.4853195e+3, 1.550273e+2, -1430984.5, -1450114.4, -9.565552, 0.0006704952, 0.00005979465, -1430984.5, -10251.15, 0.0, 10.00466, 9.979317 
5.4853183e+3, 1.6500048e+2, -1343012.4, -1371375.5, -4.67351, 0.0006701423, 0.00014166057, -1343012.4, -20016.242, 0.0, 10.004656, 9.967168 
5.485317e+3, 1.749677e+2, -1245085.3, -1273761.8, -13.430601, 0.00066971045, 0.00003805277, -1245085.3, -19767.855, 0.0, 10.004652, 9.966754 
5.4853165e+3, 1.8492825e+2, -1157067.1, -1195274.4, -7.175698, 0.00066932774, 0.00018213381, -1157067.1, -29363.17, 0.0, 10.004648, 9.954267 
5.485316e+3, 1.9488256e+2, -1058947.3, -1097415.0, -16.744204, 0.0006689922, 0.000048368554, -1058947.3, -28795.488, 0.0, 10.004645, 9.953923 
5.485315e+3, 2.0483018e+2, -970810.25, -1019052.44, -7.0391016, 0.0006686386, 0.00016886427, -970810.25, -38145.324, 0.0, 10.0046425, 9.941156 
5.485314e+3, 2.1477138e+2, -872552.2, -921054.3, -16.584057, 0.0006682654, -0.00002617195, -872552.2, -37310.94, 0.0, 10.00464, 9.940815 
5.485313e+3, 2.2470587e+2, -784292.9, -842825.9, -6.0483494, 0.0006679252, 0.00021949381, -784292.9, -46409.73, 0.0, 10.004637, 9.927766 
5.4853123e+3, 2.346337e+2, -685887.56, -744674.2, -15.412874, 0.00066762016, 0.000005600045, -685887.56, -45297.137, 0.0, 10.004634, 9.927435 
5.485312e+3, 2.4455458e+2, -597589.7, -666763.8, -4.1301246, 0.00066732353, 0.00016579713, -597589.7, -54223.895, 0.0, 10.004632, 9.913986 
5.4853106e+3, 2.5446868e+2, -498864.38, -568114.75, -13.302367, 0.0006670357, -0.000017951708, -498864.38, -52656.832, 0.0, 10.00463, 9.913886 
5.48531e+3, 2.6437572e+2, -410660.28, -490809.53, -1.2197634, 0.0006667706, 0.00022642741, -410660.28, -61541.492, 0.0, 10.004629, 9.899798 
5.4853094e+3, 2.7427602e+2, -311402.13, -391223.53, -10.167577, 0.00066653296, -0.000121375786, -311402.13, -59306.734, 0.0, 10.004628, 9.900217 
5.485309e+3, 2.841682e+2, -224887.27, -317835.66, 1.229917, 0.0006663408, 0.00030851166, -224887.27, -69735.03, 0.0, 10.004627, 9.883348 
5.485308e+3, 2.940526e+2, -125202.27, -217535.05, -6.775271, 0.0006662075, -0.00017492395, -125202.27, -66917.2, 0.0, 10.004626, 9.884133 
5.485307e+3, 3.0396485e+2, -35653.21, -84850.89, 3.8799708, 0.0006660891, 0.00024761044, -35653.21, -35653.21, 0.0, 10.004627, 9.939877 
5.4853064e+3, 3.1390658e+2, -34591.79, -82646.11, -4.6613255, 0.00066599593, 0.000011176058, -34591.79, -34591.79, 0.0, 10.004627, 9.941365 
5.495327e+3, 1.2507075e+2, -1714128.0, -1723476.5, 2.0029974, 0.00067868177, 0.00016746338, -1714128.0, 179.66562, 0.0, 10.004672, 9.992282 
5.495326e+3, 1.3506289e+2, -1616780.3, -1626717.6, -7.3076463, 0.0006778543, -0.000011459044, -1616780.3, -395.5875, 0.0, 10.004668, 9.991499 
5.4953253e+3, 1.4504848e+2, -1528700.1, -1547449.3, -1.6586517, 0.0006773253, 0.00024975586, -1528700.1, -10174.332, 0.0, 10.004664, 9.979823 
5.495324e+3, 1.5502827e+2, -1431003.9, -1450153.5, -11.063465, 0.00067707757, 0.00006016384, -1431003.9, -10280.096, 0.0, 10.004661, 9.979292 
5.4953235e+3, 1.6500144e+2, -1343030.1, -1371411.8, -6.0839167, 0.000676716, 0.00014196339, -1343030.1, -20043.316, 0.0, 10.004657, 9.967145 
5.4953223e+3, 1.7496863e+2, -1245102.8, -1273797.8, -14.840395, 0.0006762434, 0.000038247785, -1245102.8, -19794.506, 0.0, 10.004653, 9.966731 
5.495321e+3, 1.8492916e+2, -1157086.4, -1195313.9, -8.468779, 0.00067585154, 0.00018235267, -1157086.4, -29391.305, 0.0, 10.004649, 9.954242 
5.4953206e+3, 1.9488344e+2, -1058966.4, -1097454.4, -18.041122, 0.00067553885, 0.000048745555, -1058966.4, -28823.166, 0.0, 10.004646, 9.953898 
5.4953194e+3, 2.0483103e+2, -970829.5, -1019092.25, -8.173934, 0.00067518494, 0.0001692149, -970829.5, -38172.9, 0.0, 10.004643, 9.94113 
5.495318e+3, 2.147722e+2, -872571.2, -921093.94, -17.71686, 0.0006747868, -0.00002604282, -872571.2, -37338.04, 0.0, 10.004641, 9.940789 
5.4953176e+3, 2.2470668e+2, -784311.8, -842865.6, -7.0133047, 0.00067443826, 0.00021957033, -784311.8, -46436.504, 0.0, 10.004638, 9.92774 
5.495317e+3, 2.3463447e+2, -685906.25, -744713.6, -16.375938, 0.0006741432, 0.000005811087, -685906.25, -45323.43, 0.0, 10.004635, 9.927409 
5.495316e+3, 2.4455532e+2, -597608.44, -666803.56, -4.8606014, 0.00067384564, 0.00016602733, -597608.44, -54249.973, 0.0, 10.004633, 9.91396 
5.495315e+3, 2.544694e+2, -498882.9, -568154.3, -14.024593, 0.0006735439, -0.000017837652, -498882.9, -52682.43, 0.0, 10.004631, 9.913859 
5.4953146e+3, 2.643764e+2, -410678.97, -490849.66, -1.6983079, 0.00067327864, 0.00022650452, -410678.97, -61566.99, 0.0, 10.00463, 9.899772 
5.495314e+3, 2.742767e+2, -311420.6, -391263.4, -10.630624, 0.0006730578, -0.00012123619, -311420.6, -59331.75, 0.0, 10.004629, 9.90019 
5.4953134e+3, 2.8416884e+2, -224904.56, -317873.4, 1.0523326, 0.00067286973, 0.00030864473, -224904.56, -69758.625, 0.0, 10.004628, 9.883323 
5.495312e+3, 2.9405323e+2, -125219.27, -217572.38, -6.9332194, 0.0006727234, -0.00017489135, -125219.266, -66940.24, 0.0, 10.004627, 9.884108 
5.495312e+3, 3.0396545e+2, -35672.38, -84892.83, 4.0158277, 0.00067257043, 0.00024762333, -35672.38, -35672.38, 0.0, 10.004627, 9.939848 
5.4953116e+3, 3.1390718e+2, -34611.246, -82688.625, -4.4881253, 0.00067241135, 0.000011289698, -34611.246, -34611.246, 0.0, 10.004628, 9.941336 
5.505332e+3, 1.2507181e+2, -1713959.8, -1723415.3, 3.5482504, 0.0006852819, 0.00016791596, -1713959.8, 337.61743, 0.0, 10.004789, 9.992257 
5.505331e+3, 1.3506392e+2, -1616613.5, -1626657.8, -5.8727717, 0.0006844648, -0.000011096824, -1616613.5, -238.86375, 0.0, 10.004785, 9.991474 
5.50533e+3, 1.4504948e+2, -1528534.8, -1547390.9, -0.35881248, 0.00068393163, 0.00025007862, -1528534.8, -10018.778, 0.0, 10.004781, 9.979798 
5.5053294e+3, 1.5502925e+2, -1430839.9, -1450096.1, -10.087913, 0.0006836652, 0.00006049639, -1430839.9, -10125.581, 0.0, 10.004776, 9.979266 
5.505328e+3, 1.6500239e+2, -1342865.3, -1371351.9, -5.222074, 0.0006832992, 0.0001422919, -1342865.3, -19887.82, 0.0, 10.004772, 9.967121 
5.505327e+3, 1.7496955e+2, -1244939.1, -1273739.0, -14.098661, 0.0006828365, 0.000038558726, -1244939.1, -19639.979, 0.0, 10.004768, 9.966707 
5.5053264e+3, 1.8493007e+2, -1156925.8, -1195260.0, -7.8020835, 0.0006824362, 0.00018264481, -1156925.8, -29239.516, 0.0, 10.004765, 9.954216 
5.505325e+3, 1.9488432e+2, -1058806.9, -1097401.5, -17.655293, 0.00068209646, 0.000049017654, -1058806.9, -28672.293, 0.0, 10.004762, 9.953872 
5.505324e+3, 2.048319e+2, -970671.06, -1019040.5, -7.843639, 0.00068173825, 0.00016946287, -970671.06, -38022.844, 0.0, 10.004758, 9.941104 
5.5053234e+3, 2.1477304e+2, -872413.94, -921043.2, -17.54085, 0.0006813598, -0.000025823305, -872413.94, -37188.902, 0.0, 10.004755, 9.9407625 
5.505322e+3, 2.2470747e+2, -784155.6, -842816.0, -6.832255, 0.00068100716, 0.00021976787, -784155.6, -46288.113, 0.0, 10.004752, 9.927714 
5.5053216e+3, 2.3463525e+2, -685751.06, -744665.0, -16.413645, 0.0006806815, 0.00000599392, -685751.06, -45175.785, 0.0, 10.004749, 9.927382 
5.505321e+3, 2.4455607e+2, -597454.2, -666756.06, -4.8883452, 0.0006803758, 0.00016620112, -597454.2, -54103.043, 0.0, 10.004747, 9.913934 
5.50532e+3, 2.544701e+2, -498729.78, -568107.8, -14.238033, 0.0006800921, -0.000017666383, -498729.78, -52536.375, 0.0, 10.0047455, 9.913834 
5.505319e+3, 2.643771e+2, -410526.94, -490804.44, -1.8302219, 0.0006798332, 0.00022664906, -410526.94, -61421.758, 0.0, 10.004744, 9.899745 
5.5053186e+3, 2.742774e+2, -311269.7, -391219.22, -10.874564, 0.00067960424, -0.0001211484, -311269.7, -59187.39, 0.0, 10.004743, 9.900164 
5.505318e+3, 2.841695e+2, -224753.61, -317828.2, 0.89105636, 0.000679409, 0.0003087298, -224753.61, -69613.945, 0.0, 10.004742, 9.883297 
5.5053174e+3, 2.9405382e+2, -125069.445, -217528.06, -7.355528, 0.00067925674, -0.00017473678, -125069.445, -66796.45, 0.0, 10.004741, 9.884083 
5.505317e+3, 3.0396605e+2, -35526.68, -84854.65, 3.7311978, 0.000679087, 0.00024776268, -35526.68, -35526.68, 0.0, 10.004741, 9.939819 
5.5053157e+3, 3.139077e+2, -34466.074, -82651.1, -4.7420363, 0.000678895, 0.000011290953, -34466.074, -34466.074, 0.0, 10.004742, 9.941307 
5.515337e+3, 1.2507287e+2, -1713979.9, -1723455.4, 1.8603276, 0.00069192436, 0.00016843835, -1713979.9, 307.123, 0.0, 10.00479, 9.992232 
5.515336e+3, 1.3506494e+2, -1616633.5, -1626697.6, -7.5611234, 0.0006911349, -0.00001076334, -1616633.4, -268.90067, 0.0, 10.004786, 9.991448 
5.515335e+3, 1.450505e+2, -1528555.1, -1547431.6, -1.9499717, 0.0006905873, 0.00025033898, -1528555.1, -10048.921, 0.0, 10.004782, 9.979772 
5.5153334e+3, 1.5503022e+2, -1430859.9, -1450136.8, -11.677336, 0.0006902649, 0.000060796196, -1430859.9, -10155.247, 0.0, 10.004778, 9.97924 
5.515332e+3, 1.6500334e+2, -1342883.3, -1371388.6, -6.697053, 0.00068989827, 0.00014264246, -1342883.3, -19915.14, 0.0, 10.004773, 9.967097 
5.5153316e+3, 1.749705e+2, -1244956.9, -1273775.5, -15.577458, 0.00068948994, 0.000038971568, -1244956.9, -19666.875, 0.0, 10.004769, 9.966683 
5.5153304e+3, 1.8493097e+2, -1156945.6, -1195300.6, -9.1617985, 0.0006890819, 0.00018300129, -1156945.6, -29268.248, 0.0, 10.004766, 9.954189 
5.51533e+3, 1.948852e+2, -1058826.5, -1097441.9, -19.014677, 0.000688671, 0.000049196784, -1058826.5, -28700.549, 0.0, 10.004763, 9.953846 
5.515329e+3, 2.0483275e+2, -970690.56, -1019080.94, -9.045637, 0.0006883049, 0.00016961986, -970690.56, -38050.71, 0.0, 10.004759, 9.941078 
5.515328e+3, 2.1477386e+2, -872433.25, -921083.4, -18.743965, 0.00068798545, -0.000025524425, -872433.25, -37216.29, 0.0, 10.004756, 9.940737 
5.515327e+3, 2.2470829e+2, -784174.94, -842856.56, -7.827948, 0.0006876323, 0.0002200718, -784174.94, -46315.31, 0.0, 10.004753, 9.927688 
5.515326e+3, 2.3463604e+2, -685770.2, -744705.3, -17.404802, 0.00068724045, 0.0000061514233, -685770.2, -45202.496, 0.0, 10.004751, 9.927356 
5.5153257e+3, 2.4455683e+2, -597473.3, -666796.56, -5.6759834, 0.0006869202, 0.00016632465, -597473.3, -54129.473, 0.0, 10.004748, 9.913907 
5.5153245e+3, 2.5447085e+2, -498748.66, -568148.1, -15.018345, 0.0006866825, -0.000017445198, -498748.66, -52562.313, 0.0, 10.004746, 9.913807 
5.5153245e+3, 2.6437777e+2, -410545.84, -490845.0, -2.3656745, 0.00068643584, 0.00022685259, -410545.84, -61447.457, 0.0, 10.004745, 9.899717 
5.515323e+3, 2.7427804e+2, -311288.34, -391259.6, -11.397348, 0.00068617665, -0.000121106576, -311288.34, -59212.594, 0.0, 10.004744, 9.900136 
5.5153227e+3, 2.8417012e+2, -224771.38, -317866.97, 0.63441265, 0.00068596425, 0.00030877223, -224771.38, -69638.01, 0.0, 10.004743, 9.883271 
5.515322e+3, 2.9405445e+2, -125086.93, -217566.48, -7.5892024, 0.0006858125, -0.00017447525, -125086.93, -66819.97, 0.0, 10.004742, 9.884056 
5.5153215e+3, 3.039666e+2, -35545.844, -84896.66, 3.8099582, 0.00068564154, 0.0002480129, -35545.844, -35545.844, 0.0, 10.004742, 9.939791 
5.515321e+3, 3.1390828e+2, -34485.484, -82693.58, -4.631013, 0.0006854457, 0.00001119272, -34485.484, -34485.484, 0.0, 10.004743, 9.9412775 
5.5253416e+3, 1.2507392e+2, -1713808.5, -1723393.1, 3.612564, 0.00069864595, 0.00016889971, -1713808.5, 468.08444, 0.0, 10.0049095, 9.992207 
5.525341e+3, 1.3506597e+2, -1616463.4, -1626636.5, -6.072945, 0.00069781125, -0.000010363652, -1616463.4, -109.00982, 0.0, 10.004905, 9.991423 
5.525339e+3, 1.450515e+2, -1528386.5, -1547372.1, -0.5736221, 0.0006972427, 0.00025070095, -1528386.5, -9890.2295, 0.0, 10.0049, 9.979746 
5.5253386e+3, 1.5503122e+2, -1430692.6, -1450078.4, -10.474282, 0.00069692277, 0.000061143284, -1430692.6, -9997.583, 0.0, 10.004896, 9.979215 
5.5253375e+3, 1.650043e+2, -1342715.3, -1371327.6, -5.5956516, 0.0006965546, 0.00014298316, -1342715.1, -19756.451, 0.0, 10.004891, 9.967073 
5.525336e+3, 1.7497143e+2, -1244790.3, -1273715.8, -14.728261, 0.0006961408, 0.00003931453, -1244790.3, -19509.332, 0.0, 10.004888, 9.96666 
5.5253357e+3, 1.8493189e+2, -1156782.0, -1195245.9, -8.370128, 0.0006957289, 0.00018332523, -1156782.0, -29113.586, 0.0, 10.004884, 9.954163 
5.5253345e+3, 1.9488607e+2, -1058664.1, -1097388.1, -18.3838, 0.00069531554, 0.000049479942, -1058664.1, -28546.81, 0.0, 10.00488, 9.953819 
5.525334e+3, 2.048336e+2, -970529.25, -1019028.25, -8.453878, 0.0006949377, 0.00016987638, -970529.25, -37897.75, 0.0, 10.004876, 9.9410515 
5.525333e+3, 2.1477468e+2, -872273.06, -921031.8, -18.39729, 0.0006945966, -0.000025279522, -872273.0, -37064.23, 0.0, 10.004873, 9.94071 
5.525332e+3, 2.2470908e+2, -784015.8, -842806.06, -7.4908633, 0.0006942424, 0.00022030537, -784015.8, -46164.063, 0.0, 10.00487, 9.927661 
5.525331e+3, 2.3463681e+2, -685612.25, -744655.94, -17.240686, 0.00069387216, 0.0000063739803, -685612.25, -45052.207, 0.0, 10.004868, 9.927329 
5.5253303e+3, 2.4455757e+2, -597316.44, -666748.3, -5.4773655, 0.0006935539, 0.00016652931, -597316.44, -53979.984, 0.0, 10.004865, 9.91388 
5.52533e+3, 2.5447157e+2, -498592.97, -568100.9, -14.994452, 0.0006932952, -0.000017266548, -498592.97, -52413.715, 0.0, 10.004863, 9.913779 
5.525329e+3, 2.643785e+2, -410391.25, -490799.03, -2.2942917, 0.00069303554, 0.00022701442, -410391.25, -61299.68, 0.0, 10.004861, 9.899691 
5.525328e+3, 2.7427873e+2, -311134.94, -391214.66, -11.527952, 0.0006927733, -0.00012094992, -311134.94, -59065.734, 0.0, 10.004859, 9.900109 
5.525328e+3, 2.8417078e+2, -224617.98, -317821.16, 0.58652425, 0.0006925605, 0.0003089209, -224617.98, -69490.9, 0.0, 10.004858, 9.883245 
5.525327e+3, 2.9405504e+2, -124934.695, -217521.58, -7.744487, 0.00069241185, -0.00017433905, -124934.695, -66673.766, 0.0, 10.004857, 9.88403 
5.525326e+3, 3.0396724e+2, -35397.758, -84857.68, 3.7627532, 0.00069223327, 0.00024812334, -35397.758, -35397.758, 0.0, 10.004857, 9.939761 
5.5253255e+3, 3.1390885e+2, -34338.27, -82655.41, -4.8698907, 0.0006920142, 0.000011259619, -34338.27, -34338.27, 0.0, 10.004857, 9.941248 
5.535347e+3, 1.2507498e+2, -1713829.1, -1723434.4, 1.8282439, 0.00070544466, 0.00016930766, -1713829.1, 436.96158, 0.0, 10.00491, 9.992181 
5.5353457e+3, 1.3506702e+2, -1616483.9, -1626677.5, -7.8561306, 0.0007045009, -0.000009906209, -1616483.9, -139.66376, 0.0, 10.004906, 9.991397 
5.5353445e+3, 1.4505251e+2, -1528407.1, -1547413.6, -2.2533193, 0.00070390577, 0.00025115156, -1528407.1, -9920.768, 0.0, 10.004902, 9.97972 
5.535343e+3, 1.5503222e+2, -1430713.0, -1450119.6, -12.153222, 0.0007036395, 0.000061531704, -1430713.0, -10027.642, 0.0, 10.004897, 9.979188 
5.535342e+3, 1.6500527e+2, -1342733.6, -1371365.4, -7.1784325, 0.00070326886, 0.00014331509, -1342733.6, -19784.336, 0.0, 10.004892, 9.96705 
5.5353415e+3, 1.7497237e+2, -1244808.5, -1273753.4, -16.31236, 0.00070279697, 0.000039595816, -1244808.5, -19536.771, 0.0, 10.004889, 9.966636 
5.5353403e+3, 1.849328e+2, -1156802.1, -1195287.1, -9.79173, 0.00070238445, 0.00018362026, -1156802.1, -29142.645, 0.0, 10.004885, 9.954137 
5.535339e+3, 1.9488697e+2, -1058684.0, -1097429.3, -19.807909, 0.00070202904, 0.000049854258, -1058684.0, -28575.393, 0.0, 10.004881, 9.953793 
5.535339e+3, 2.0483446e+2, -970549.2, -1019069.7, -9.719718, 0.0007016361, 0.00017022011, -970549.2, -37926.125, 0.0, 10.004877, 9.941025 
5.535338e+3, 2.1477553e+2, -872292.75, -921073.0, -19.661325, 0.0007012026, -0.000025082421, -872292.75, -37092.11, 0.0, 10.004874, 9.940683 
5.535337e+3, 2.2470988e+2, -784035.5, -842847.4, -8.561697, 0.0007008468, 0.00022047674, -784035.5, -46191.594, 0.0, 10.004871, 9.927633 
5.535336e+3, 2.3463759e+2, -685631.7, -744696.94, -18.308975, 0.0007005752, 0.000006653377, -685631.7, -45079.242, 0.0, 10.0048685, 9.927302 
5.5353355e+3, 2.4455833e+2, -597335.9, -666789.56, -6.327685, 0.0007002733, 0.00016680494, -597335.9, -54006.746, 0.0, 10.004866, 9.913853 
5.5353343e+3, 2.5447232e+2, -498612.13, -568141.9, -15.837061, 0.0006999347, -0.000017125612, -498612.13, -52439.977, 0.0, 10.004864, 9.913753 
5.535334e+3, 2.6437917e+2, -410410.5, -490840.44, -2.8959818, 0.00069963984, 0.00022713924, -410410.5, -61325.754, 0.0, 10.004862, 9.899663 
5.535333e+3, 2.742794e+2, -311153.94, -391255.84, -12.116225, 0.0006993984, -0.00012069265, -311153.94, -59091.313, 0.0, 10.004861, 9.900082 
5.5353326e+3, 2.841714e+2, -224635.97, -317860.44, 0.25434256, 0.0006991999, 0.0003091625, -224635.97, -69515.17, 0.0, 10.004859, 9.883219 
5.5353314e+3, 2.940557e+2, -124952.37, -217560.47, -8.055423, 0.0006990568, -0.00017431352, -124952.37, -66697.47, 0.0, 10.004859, 9.884005 
5.535331e+3, 3.039678e+2, -35417.266, -84900.49, 3.6938872, 0.0006988649, 0.00024811042, -35417.266, -35417.266, 0.0, 10.004858, 9.939733 
5.535331e+3, 3.1390938e+2, -34358.027, -82698.71, -4.9151254, 0.000698605, 0.000011471534, -34358.027, -34358.027, 0.0, 10.004858, 9.941218 
5.5453515e+3, 1.2507606e+2, -1713654.5, -1723371.1, 3.6913195, 0.00071221194, 0.00016972832, -1713654.5, 601.1913, 0.0, 10.005033, 9.992154 
5.5453503e+3, 1.3506807e+2, -1616310.6, -1626615.4, -6.217491, 0.00071124156, -0.000009436433, -1616310.6, 23.402208, 0.0, 10.005027, 9.991371 
5.54535e+3, 1.4505352e+2, -1528235.3, -1547353.0, -0.7266048, 0.0007106412, 0.00025159953, -1528235.3, -9758.903, 0.0, 10.005022, 9.979693 
5.5453485e+3, 1.550332e+2, -1430542.6, -1450060.3, -10.831069, 0.0007103903, 0.00006188828, -1430542.6, -9866.979, 0.0, 10.005017, 9.979162 
5.5453473e+3, 1.6500622e+2, -1342562.5, -1371303.6, -5.913508, 0.0007100108, 0.00014364172, -1342562.5, -19622.703, 0.0, 10.005013, 9.967025 
5.545346e+3, 1.7497331e+2, -1244638.6, -1273692.5, -15.231493, 0.0007095063, 0.00003995359, -1244638.6, -19376.12, 0.0, 10.005009, 9.966611 
5.545345e+3, 1.8493372e+2, -1156635.4, -1195231.4, -8.783582, 0.0007090818, 0.00018397559, -1156635.4, -28984.873, 0.0, 10.005005, 9.954109 
5.545345e+3, 1.9488785e+2, -1058518.6, -1097374.6, -19.048319, 0.00070873555, 0.00005017298, -1058518.6, -28418.762, 0.0, 10.005, 9.953766 
5.545344e+3, 2.0483533e+2, -970385.0, -1019016.2, -8.976336, 0.00070834416, 0.00017051164, -970385.0, -37770.37, 0.0, 10.004996, 9.940997 
5.5453426e+3, 2.1477635e+2, -872129.75, -921020.5, -19.080927, 0.0007079043, -0.000024808176, -872129.75, -36937.27, 0.0, 10.004993, 9.940657 
5.545342e+3, 2.2471069e+2, -783873.56, -842796.06, -7.9871774, 0.0007075415, 0.0002207351, -783873.56, -46037.586, 0.0, 10.00499, 9.927607 
5.545341e+3, 2.3463836e+2, -685471.0, -744646.75, -17.953482, 0.0007072622, 0.0000068974814, -685471.0, -44926.23, 0.0, 10.004987, 9.927275 
5.54534e+3, 2.4455908e+2, -597176.25, -666740.44, -5.9505305, 0.00070695643, 0.00016703256, -597176.25, -53854.54, 0.0, 10.004984, 9.913826 
5.5453396e+3, 2.5447303e+2, -498453.75, -568093.8, -15.642619, 0.00070661824, -0.000016917176, -498453.75, -52288.7, 0.0, 10.004982, 9.913725 
5.545339e+3, 2.643799e+2, -410253.28, -490793.75, -2.6551735, 0.0007063218, 0.00022734425, -410253.28, -61175.38, 0.0, 10.00498, 9.899635 
5.545338e+3, 2.7428007e+2, -310998.03, -391210.25, -12.046934, 0.00070607633, -0.00012047117, -310998.03, -58941.94, 0.0, 10.004978, 9.900054 
5.545337e+3, 2.8417206e+2, -224480.05, -317813.8, 0.39903852, 0.0007058717, 0.00030935343, -224480.05, -69365.55, 0.0, 10.004977, 9.883192 
5.5453366e+3, 2.940563e+2, -124797.73, -217514.81, -8.045416, 0.00070571946, -0.00017421716, -124797.73, -66548.875, 0.0, 10.004975, 9.883978 
5.545336e+3, 3.0396837e+2, -35266.87, -84861.06, 3.7819061, 0.0007055051, 0.00024819007, -35266.87, -35266.87, 0.0, 10.004975, 9.939702 
5.5453354e+3, 3.1390995e+2, -34208.125, -82659.93, -5.039463, 0.0007052029, 0.000011650606, -34208.125, -34208.125, 0.0, 10.004974, 9.941189 
5.555357e+3, 1.2507713e+2, -1713675.6, -1723413.4, 1.7927401, 0.00071895996, 0.00017016008, -1713675.6, 569.5251, 0.0, 10.0050335, 9.992127 
5.5553555e+3, 1.350691e+2, -1616331.5, -1626657.4, -8.113363, 0.000718035, -0.000008956057, -1616331.5, -7.790979, 0.0, 10.005029, 9.991344 
5.5553544e+3, 1.4505455e+2, -1528256.3, -1547395.4, -2.5321689, 0.00071744795, 0.000252045, -1528256.3, -9789.922, 0.0, 10.005024, 9.979667 
5.555354e+3, 1.550342e+2, -1430563.4, -1450102.3, -12.636803, 0.0007171787, 0.00006221692, -1430563.4, -9897.496, 0.0, 10.005019, 9.979135 
5.5553526e+3, 1.650072e+2, -1342581.4, -1371342.1, -7.5599737, 0.00071678485, 0.00014396368, -1342581.4, -19650.992, 0.0, 10.005014, 9.967001 
5.5553514e+3, 1.7497426e+2, -1244657.3, -1273730.9, -16.880136, 0.00071627, 0.000040378167, -1244657.1, -19403.965, 0.0, 10.00501, 9.966587 
5.555351e+3, 1.8493463e+2, -1156656.0, -1195273.6, -10.319993, 0.00071582367, 0.00018438348, -1156656.0, -29014.47, 0.0, 10.005006, 9.9540825 
5.5553496e+3, 1.9488874e+2, -1058539.0, -1097416.8, -20.584787, 0.00071544363, 0.000050442773, -1058539.0, -28447.861, 0.0, 10.005002, 9.953739 
5.5553484e+3, 2.0483619e+2, -970405.25, -1019058.25, -10.303403, 0.0007150685, 0.00017075725, -970405.25, -37799.074, 0.0, 10.004998, 9.94097 
5.555348e+3, 2.1477719e+2, -872149.75, -921062.4, -20.408323, 0.0007146976, -0.000024466532, -872149.75, -36965.473, 0.0, 10.004994, 9.940629 
5.5553466e+3, 2.2471151e+2, -783893.6, -842838.2, -9.143261, 0.000714323, 0.0002210695, -783893.6, -46065.56, 0.0, 10.004992, 9.927579 
5.555346e+3, 2.3463914e+2, -685490.8, -744688.6, -19.105734, 0.0007139428, 0.000007110403, -685490.8, -44953.69, 0.0, 10.004988, 9.927247 
5.5553454e+3, 2.4455982e+2, -597196.0, -666782.44, -6.8695083, 0.0007136152, 0.00016721786, -597196.0, -53881.652, 0.0, 10.004986, 9.913798 
5.555344e+3, 2.5447375e+2, -498473.25, -568135.56, -16.554005, 0.00071334775, -0.000016649796, -498473.25, -52315.305, 0.0, 10.004983, 9.913697 
5.5553436e+3, 2.6438057e+2, -410272.84, -490835.88, -3.3422136, 0.00071307924, 0.00022761924, -410272.84, -61201.78, 0.0, 10.004981, 9.899608 
5.555343e+3, 2.7428073e+2, -311017.34, -391252.16, -12.720635, 0.000712808, -0.00012028151, -311017.34, -58967.832, 0.0, 10.004979, 9.900025 
5.5553424e+3, 2.841727e+2, -224498.27, -317853.7, -0.039146956, 0.0007125792, 0.00030949953, -224498.27, -69390.06, 0.0, 10.004978, 9.883165 
5.555342e+3, 2.9405692e+2, -124815.62, -217554.27, -8.468003, 0.0007124049, -0.00017405867, -124815.62, -66572.805, 0.0, 10.004977, 9.883951 
5.5553406e+3, 3.0396897e+2, -35286.754, -84904.76, 3.656149, 0.00071215985, 0.00024835087, -35286.754, -35286.754, 0.0, 10.004976, 9.939672 
5.55534e+3, 3.1391048e+2, -34228.29, -82704.16, -5.128769, 0.0007118143, 0.000011800201, -34228.29, -34228.29, 0.0, 10.004976, 9.941158 
5.565362e+3, 1.2507822e+2, -1713497.5, -1723348.9, 3.7860496, 0.00072578114, 0.00017068216, -1713497.5, 737.0166, 0.0, 10.005157, 9.992101 
5.565361e+3, 1.3507016e+2, -1616155.1, -1626594.3, -6.3025875, 0.00072488026, -0.000008563869, -1616155.1, 158.29385, 0.0, 10.005152, 9.991318 
5.5653596e+3, 1.4505558e+2, -1528081.4, -1547333.9, -0.7842679, 0.00072428246, 0.00025240588, -1528081.4, -9625.091, 0.0, 10.005147, 9.979639 
5.5653584e+3, 1.5503518e+2, -1430389.8, -1450041.9, -11.127081, 0.00072396826, 0.00006264203, -1430389.8, -9733.658, 0.0, 10.005141, 9.979108 
5.565357e+3, 1.6500817e+2, -1342407.0, -1371279.1, -6.1401224, 0.0007235669, 0.00014439512, -1342407.0, -19486.176, 0.0, 10.0051365, 9.966975 
5.5653566e+3, 1.749752e+2, -1244484.4, -1273669.1, -15.670825, 0.0007230819, 0.000040758863, -1244484.4, -19240.434, 0.0, 10.005132, 9.966561 
5.5653554e+3, 1.8493554e+2, -1156486.4, -1195217.0, -9.143635, 0.0007226315, 0.00018472894, -1156486.4, -28853.887, 0.0, 10.005128, 9.954055 
5.565354e+3, 1.9488963e+2, -1058370.6, -1097361.1, -19.584919, 0.00072221295, 0.000050768704, -1058370.6, -28288.203, 0.0, 10.005123, 9.9537115 
5.5653536e+3, 2.0483705e+2, -970237.94, -1019003.8, -9.332396, 0.0007218305, 0.00017107395, -970237.94, -37640.305, 0.0, 10.005119, 9.940943 
5.5653524e+3, 2.1477804e+2, -871983.94, -921009.06, -19.679909, 0.00072148524, -0.000024148165, -871983.94, -36807.883, 0.0, 10.0051155, 9.940601 
5.565352e+3, 2.2471231e+2, -783728.94, -842786.06, -8.409482, 0.0007211084, 0.00022137114, -783728.94, -45908.855, 0.0, 10.005112, 9.927551 
5.565351e+3, 2.3463993e+2, -685327.3, -744637.56, -18.539888, 0.0007206949, 0.0000073750316, -685327.3, -44797.867, 0.0, 10.005109, 9.927219 
5.56535e+3, 2.445606e+2, -597033.56, -666732.5, -6.283907, 0.00072035816, 0.00016747498, -597033.56, -53726.65, 0.0, 10.005106, 9.91377 
5.5653495e+3, 2.5447446e+2, -498312.2, -568086.8, -16.171879, 0.00072010973, -0.000016365722, -498312.2, -52161.387, 0.0, 10.005103, 9.91367 
5.565349e+3, 2.643813e+2, -410113.0, -490788.38, -2.9128733, 0.0007198397, 0.00022786655, -410113.0, -61048.797, 0.0, 10.005101, 9.899579 
5.565348e+3, 2.742814e+2, -310858.8, -391205.78, -12.436568, 0.0007195411, -0.000120150275, -310858.8, -58815.883, 0.0, 10.005099, 9.899998 
5.565347e+3, 2.8417334e+2, -224339.78, -317806.4, 0.28960928, 0.000719293, 0.00030963638, -224339.78, -69237.91, 0.0, 10.005097, 9.883139 
5.5653465e+3, 2.9405752e+2, -124658.31, -217507.94, -8.386561, 0.00071911066, -0.00017375297, -124658.31, -66421.55, 0.0, 10.005096, 9.8839245 
5.5653465e+3, 3.0396956e+2, -35133.69, -84864.46, 3.8024242, 0.00071886246, 0.00024863688, -35133.69, -35133.69, 0.0, 10.0050955, 9.939642 
5.565345e+3, 3.1391108e+2, -34076.176, -82664.71, -5.0040345, 0.00071852084, 0.000011791543, -34076.176, -34076.176, 0.0, 10.005095, 9.941128 
5.5753666e+3, 1.250793e+2, -1713519.0, -1723391.8, 1.7170371, 0.00073267455, 0.00017128259, -1713519.0, 704.88293, 0.0, 10.005158, 9.992074 
5.575366e+3, 1.3507123e+2, -1616176.4, -1626637.0, -8.369131, 0.0007317789, -0.000008248177, -1616176.4, 126.662575, 0.0, 10.005153, 9.99129 
5.575365e+3, 1.450566e+2, -1528102.9, -1547377.1, -2.6650147, 0.0007311494, 0.0002526935, -1528102.9, -9656.662, 0.0, 10.005148, 9.979611 
5.5753636e+3, 1.550362e+2, -1430411.0, -1450084.9, -13.0069475, 0.0007307672, 0.000063151056, -1430411.0, -9764.73, 0.0, 10.005143, 9.97908 
5.575363e+3, 1.6500916e+2, -1342426.1, -1371318.5, -7.921426, 0.00073036447, 0.00014492162, -1342426.1, -19514.947, 0.0, 10.005138, 9.96695 
5.575362e+3, 1.7497616e+2, -1244503.4, -1273708.3, -17.453337, 0.0007299438, 0.000041101208, -1244503.4, -19268.74, 0.0, 10.005134, 9.9665365 
5.5753607e+3, 1.8493648e+2, -1156507.3, -1195260.0, -10.738223, 0.0007295048, 0.00018502002, -1156507.3, -28883.86, 0.0, 10.005129, 9.954027 
5.57536e+3, 1.9489053e+2, -1058391.3, -1097404.0, -21.181389, 0.0007290438, 0.00005114361, -1058391.3, -28317.68, 0.0, 10.005125, 9.953684 
5.575359e+3, 2.0483792e+2, -970258.6, -1019046.9, -10.786108, 0.00072863355, 0.00017145257, -970258.6, -37669.52, 0.0, 10.00512, 9.940914 
5.5753577e+3, 2.1477889e+2, -872004.4, -921051.9, -21.132357, 0.0007282759, -0.000023850303, -872004.4, -36836.574, 0.0, 10.005116, 9.940574 
5.575357e+3, 2.2471313e+2, -783749.25, -842828.9, -9.618287, 0.0007279049, 0.00022164406, -783749.25, -45937.156, 0.0, 10.005114, 9.927524 
5.575356e+3, 2.3464072e+2, -685347.44, -744680.1, -19.744875, 0.00072751724, 0.00000768474, -685347.4, -44825.656, 0.0, 10.00511, 9.927192 
5.575355e+3, 2.4456136e+2, -597053.7, -666775.3, -7.307398, 0.0007271824, 0.0001677947, -597053.7, -53754.164, 0.0, 10.005107, 9.913742 
5.5753547e+3, 2.544752e+2, -498332.03, -568129.4, -17.188444, 0.00072690786, -0.000016067403, -498332.03, -52188.38, 0.0, 10.005104, 9.913641 
5.575354e+3, 2.6438197e+2, -410132.78, -490831.1, -3.6921167, 0.0007266105, 0.00022808943, -410132.78, -61075.473, 0.0, 10.005102, 9.89955 
5.575353e+3, 2.7428207e+2, -310878.34, -391248.25, -13.204742, 0.00072628295, -0.00012006992, -310878.34, -58842.03, 0.0, 10.0051, 9.899969 
5.5753523e+3, 2.84174e+2, -224358.44, -317847.28, -0.22323145, 0.00072602014, 0.00030976525, -224358.44, -69262.875, 0.0, 10.005098, 9.883111 
5.575352e+3, 2.9405814e+2, -124676.66, -217548.42, -8.876245, 0.0007258419, -0.0001733193, -124676.66, -66445.95, 0.0, 10.005097, 9.883897 
5.575351e+3, 3.0397016e+2, -35153.64, -84908.375, 3.5175352, 0.0007256145, 0.0002490316, -35153.64, -35153.64, 0.0, 10.005096, 9.939612 
5.5753505e+3, 3.1391162e+2, -34096.348, -82709.06, -5.2719464, 0.00072531775, 0.000011644881, -34096.348, -34096.348, 0.0, 10.0050955, 9.941097 
5.585372e+3, 1.2508039e+2, -1713338.0, -1723326.4, 3.8686569, 0.0007396404, 0.0001717394, -1713338.0, 875.23224, 0.0, 10.005284, 9.992046 
5.585371e+3, 1.3507228e+2, -1615996.5, -1626572.6, -6.4292665, 0.00073864893, -0.00000773529, -1615996.5, 296.06613, 0.0, 10.005279, 9.991263 
5.58537e+3, 1.4505765e+2, -1527924.6, -1547314.5, -0.7987972, 0.00073799945, 0.00025318912, -1527924.6, -9488.521, 0.0, 10.005274, 9.979584 
5.585369e+3, 1.550372e+2, -1430234.3, -1450023.5, -11.349654, 0.0007376708, 0.00006355759, -1430234.3, -9597.946, 0.0, 10.005268, 9.979053 
5.5853677e+3, 1.6501012e+2, -1342248.9, -1371254.5, -6.314356, 0.0007372704, 0.00014529847, -1342248.9, -19347.201, 0.0, 10.005262, 9.966925 
5.5853665e+3, 1.7497711e+2, -1244327.3, -1273645.4, -16.03431, 0.0007368014, 0.000041507283, -1244327.3, -19102.072, 0.0, 10.005258, 9.966511 
5.585366e+3, 1.849374e+2, -1156334.5, -1195202.4, -9.361292, 0.0007363551, 0.00018542593, -1156334.5, -28720.203, 0.0, 10.005253, 9.953999 
5.5853647e+3, 1.9489144e+2, -1058220.0, -1097347.5, -20.040115, 0.0007359281, 0.000051519528, -1058220.0, -28155.262, 0.0, 10.005248, 9.953655 
5.5853635e+3, 2.0483881e+2, -970088.56, -1018991.56, -9.659577, 0.00073550723, 0.00017179923, -970088.56, -37508.0, 0.0, 10.005244, 9.9408865 
5.5853635e+3, 2.1477972e+2, -871835.44, -920997.7, -20.181677, 0.00073509204, -0.000023532151, -871835.44, -36675.953, 0.0, 10.00524, 9.940545 
5.5853623e+3, 2.2471394e+2, -783581.5, -842775.8, -8.662763, 0.0007347163, 0.00022195774, -783581.5, -45777.414, 0.0, 10.005237, 9.927495 
5.585361e+3, 2.346415e+2, -685181.2, -744628.3, -19.00927, 0.00073438225, 0.000008020488, -685181.2, -44667.145, 0.0, 10.005233, 9.927163 
5.5853605e+3, 2.445621e+2, -596888.6, -666724.6, -6.5483665, 0.00073404936, 0.00016810276, -596888.6, -53596.566, 0.0, 10.00523, 9.913713 
5.58536e+3, 2.5447595e+2, -498168.22, -568079.75, -16.592497, 0.0007337163, -0.000015845217, -498168.2, -52031.734, 0.0, 10.005227, 9.913612 
5.585359e+3, 2.643827e+2, -409970.13, -490782.8, -3.0675607, 0.0007333887, 0.00022830731, -409970.13, -60919.703, 0.0, 10.005224, 9.899522 
5.585358e+3, 2.7428275e+2, -310717.0, -391201.1, -12.81111, 0.00073306647, -0.00011975429, -310717.0, -58687.297, 0.0, 10.005222, 9.8999405 
5.5853575e+3, 2.8417462e+2, -224197.22, -317799.2, 0.21542202, 0.0007328128, 0.0003100561, -224197.22, -69108.0, 0.0, 10.00522, 9.883083 
5.585357e+3, 2.9405877e+2, -124516.92, -217501.42, -8.519617, 0.00073264877, -0.00017321884, -124516.92, -66292.28, 0.0, 10.0052185, 9.883869 
5.5853564e+3, 3.0397072e+2, -34998.215, -84867.484, 3.9255364, 0.00073240243, 0.00024910585, -34998.215, -34998.215, 0.0, 10.005217, 9.939582 
5.585356e+3, 3.1391218e+2, -33941.484, -82668.83, -5.1434684, 0.0007320382, 0.000011935786, -33941.484, -33941.484, 0.0, 10.005216, 9.941066 
5.5953777e+3, 1.250815e+2, -1713359.9, -1723370.1, 1.744941, 0.00074667734, 0.00017207225, -1713359.9, 842.5872, 0.0, 10.005286, 9.992019 
5.5953765e+3, 1.3507336e+2, -1616018.3, -1626616.3, -8.552983, 0.00074550306, -0.0000070515393, -1616018.3, 263.90692, 0.0, 10.0052805, 9.991236 
5.595375e+3, 1.4505869e+2, -1527946.5, -1547358.6, -2.8407836, 0.000744844, 0.00025386483, -1527946.5, -9520.605, 0.0, 10.005275, 9.979556 
5.595374e+3, 1.5503822e+2, -1430256.0, -1450067.5, -13.388389, 0.00074467366, 0.000063875355, -1430255.9, -9629.506, 0.0, 10.005269, 9.979025 
5.595373e+3, 1.6501112e+2, -1342268.4, -1371294.6, -8.176219, 0.0007442786, 0.00014554581, -1342268.4, -19376.4, 0.0, 10.005264, 9.966899 
5.5953723e+3, 1.7497808e+2, -1244346.6, -1273685.4, -17.899172, 0.000743664, 0.000041968793, -1244346.6, -19130.807, 0.0, 10.0052595, 9.966485 
5.595371e+3, 1.8493834e+2, -1156355.9, -1195246.3, -11.089401, 0.0007431939, 0.00018593148, -1156355.9, -28750.697, 0.0, 10.005255, 9.953971 
5.59537e+3, 1.9489235e+2, -1058241.1, -1097391.3, -21.768429, 0.00074286695, 0.000051896248, -1058241.1, -28185.236, 0.0, 10.00525, 9.953628 
5.5953693e+3, 2.0483968e+2, -970109.56, -1019035.3, -11.165148, 0.0007424504, 0.00017211812, -970109.56, -37537.58, 0.0, 10.005245, 9.940858 
5.595368e+3, 2.1478058e+2, -871856.2, -921041.2, -21.68636, 0.00074193865, -0.000023196257, -871856.2, -36705.016, 0.0, 10.005241, 9.940516 
5.595367e+3, 2.2471477e+2, -783602.25, -842819.5, -10.008494, 0.0007415491, 0.00022230689, -783602.25, -45806.176, 0.0, 10.005238, 9.927466 
5.595367e+3, 2.3464228e+2, -685201.6, -744671.75, -20.352024, 0.0007412925, 0.000008378712, -685201.6, -44695.37, 0.0, 10.005234, 9.9271345 
5.595366e+3, 2.4456286e+2, -596909.0, -666768.06, -7.6416073, 0.00074096135, 0.00016840055, -596909.0, -53624.4, 0.0, 10.005231, 9.913685 
5.5953646e+3, 2.5447667e+2, -498188.3, -568122.94, -17.677914, 0.0007405417, -0.00001568907, -498188.3, -52059.03, 0.0, 10.005228, 9.913584 
5.595364e+3, 2.643834e+2, -409990.34, -490826.47, -3.9341934, 0.0007401816, 0.00022852102, -409990.34, -60946.82, 0.0, 10.005225, 9.899493 
5.5953634e+3, 2.742834e+2, -310736.97, -391244.53, -13.665054, 0.00073989434, -0.00011923437, -310736.97, -58713.89, 0.0, 10.005223, 9.899911 
5.595363e+3, 2.841753e+2, -224216.02, -317840.47, -0.4419489, 0.0007396705, 0.00031048743, -224216.02, -69133.14, 0.0, 10.005221, 9.883056 
5.595362e+3, 2.940594e+2, -124535.375, -217542.25, -9.163212, 0.0007395291, -0.00017340804, -124535.375, -66316.81, 0.0, 10.005219, 9.8838415 
5.5953616e+3, 3.0397135e+2, -35018.625, -84912.484, 3.5597875, 0.00073922914, 0.00024890163, -35018.625, -35018.625, 0.0, 10.005218, 9.93955 
5.595361e+3, 3.1391275e+2, -33962.168, -82714.35, -5.4803805, 0.00073870004, 0.000012607159, -33962.164, -33962.164, 0.0, 10.005218, 9.941035 
5.605383e+3, 1.2508258e+2, -1713175.1, -1723303.5, 4.063379, 0.0007536189, 0.00017257714, -1713175.1, 1016.4735, 0.0, 10.005415, 9.991991 
5.605382e+3, 1.3507444e+2, -1615835.4, -1626551.0, -6.4938664, 0.00075250695, -0.000006554407, -1615835.4, 436.22635, 0.0, 10.005408, 9.991207 
5.6053805e+3, 1.4505973e+2, -1527765.1, -1547295.0, -0.841295, 0.0007518501, 0.00025434472, -1527765.1, -9349.575, 0.0, 10.005403, 9.979527 
5.6053793e+3, 1.5503924e+2, -1430076.0, -1450004.9, -11.548443, 0.0007516235, 0.000064328255, -1430076.0, -9459.555, 0.0, 10.005397, 9.978996 
5.605378e+3, 1.6501212e+2, -1342087.8, -1371229.6, -6.3681965, 0.00075121294, 0.0001459819, -1342087.8, -19205.512, 0.0, 10.005391, 9.966873 
5.6053776e+3, 1.7497903e+2, -1244167.5, -1273621.6, -16.326939, 0.0007506232, 0.00004239848, -1244167.5, -18961.186, 0.0, 10.005386, 9.966459 
5.6053764e+3, 1.8493928e+2, -1156180.0, -1195187.6, -9.5649805, 0.0007501434, 0.00018634445, -1156180.0, -28584.088, 0.0, 10.005381, 9.953942 
5.605376e+3, 1.9489326e+2, -1058066.6, -1097333.8, -20.43242, 0.00074977166, 0.000052281997, -1058066.6, -28019.709, 0.0, 10.005376, 9.953599 
5.6053746e+3, 2.0484056e+2, -969936.4, -1018979.06, -9.823721, 0.00074935576, 0.00017249215, -969936.4, -37373.004, 0.0, 10.005371, 9.940829 
5.6053734e+3, 2.1478142e+2, -871684.5, -920986.1, -20.559944, 0.0007488924, -0.000022817585, -871684.5, -36541.67, 0.0, 10.005367, 9.940488 
5.605373e+3, 2.2471559e+2, -783431.75, -842765.6, -8.883037, 0.00074849423, 0.00022266331, -783431.75, -45643.76, 0.0, 10.0053625, 9.927438 
5.605372e+3, 2.346431e+2, -685032.4, -744619.0, -19.411556, 0.0007481663, 0.000008683233, -685032.4, -44533.902, 0.0, 10.00536, 9.927106 
5.605371e+3, 2.4456364e+2, -596740.8, -666716.44, -6.676887, 0.00074781186, 0.00016869463, -596740.8, -53463.77, 0.0, 10.005356, 9.913655 
5.6053704e+3, 2.544774e+2, -498021.6, -568072.5, -16.928291, 0.00074742513, -0.000015357122, -498021.6, -51899.543, 0.0, 10.005353, 9.913555 
5.60537e+3, 2.643841e+2, -409824.97, -490777.4, -3.1666362, 0.00074707816, 0.00022882858, -409824.97, -60788.395, 0.0, 10.005349, 9.899464 
5.6053686e+3, 2.742841e+2, -310573.1, -391196.72, -13.053713, 0.0007467792, -0.00011902861, -310573.1, -58556.664, 0.0, 10.005347, 9.899882 
5.605368e+3, 2.8417593e+2, -224052.16, -317791.56, 0.21313308, 0.00074653496, 0.0003106862, -224052.16, -68975.65, 0.0, 10.005344, 9.883028 
5.6053674e+3, 2.9406e+2, -124372.67, -217494.28, -8.7130995, 0.0007463617, -0.00017308944, -124372.67, -66160.2, 0.0, 10.0053425, 9.883814 
5.605367e+3, 3.0397192e+2, -34860.332, -84870.914, 4.022225, 0.0007460411, 0.00024920664, -34860.332, -34860.332, 0.0, 10.005342, 9.93952 
5.605366e+3, 3.139133e+2, -33804.74, -82673.62, -5.1941214, 0.00074550795, 0.000012704825, -33804.74, -33804.74, 0.0, 10.00534, 9.941004 
5.615388e+3, 1.250837e+2, -1713197.6, -1723348.5, 1.7347827, 0.0007604877, 0.00017323061, -1713197.6, 983.1598, 0.0, 10.005416, 9.991962 
5.615387e+3, 1.3507551e+2, -1615857.5, -1626595.6, -8.815281, 0.00075964874, -0.000006218185, -1615857.5, 403.43478, 0.0, 10.005409, 9.991179 
5.615386e+3, 1.450608e+2, -1527787.4, -1547339.8, -2.968297, 0.0007590043, 0.00025465596, -1527787.4, -9382.04, 0.0, 10.0054035, 9.979499 
5.6153846e+3, 1.5504025e+2, -1430097.9, -1450049.5, -13.678252, 0.00075853645, 0.000064898166, -1430097.9, -9491.497, 0.0, 10.005398, 9.978968 
5.615384e+3, 1.650131e+2, -1342107.8, -1371270.6, -8.3581505, 0.0007580924, 0.00014658122, -1342107.8, -19235.264, 0.0, 10.005392, 9.966846 
5.615383e+3, 1.7498001e+2, -1244187.3, -1273662.4, -18.316093, 0.0007576745, 0.000042800755, -1244187.3, -18990.455, 0.0, 10.005387, 9.966433 
5.6153816e+3, 1.8494022e+2, -1156201.8, -1195232.4, -11.3822565, 0.00075719703, 0.00018667754, -1156201.8, -28615.0, 0.0, 10.005383, 9.953913 
5.615381e+3, 1.9489416e+2, -1058088.1, -1097378.3, -22.251148, 0.0007566555, 0.00005267573, -1058088.1, -28050.096, 0.0, 10.005377, 9.953569 
5.61538e+3, 2.0484145e+2, -969957.75, -1019023.6, -11.462847, 0.0007562371, 0.000172914, -969957.75, -37403.047, 0.0, 10.005373, 9.940801 
5.6153786e+3, 2.1478228e+2, -871705.6, -921030.44, -22.198477, 0.0007559471, -0.00002240184, -871705.6, -36571.18, 0.0, 10.005368, 9.940459 
5.615378e+3, 2.2471641e+2, -783452.8, -842810.06, -10.293785, 0.00075554487, 0.0002230261, -783452.8, -45672.9, 0.0, 10.005364, 9.927408 
5.6153774e+3, 2.3464389e+2, -685053.2, -744663.1, -20.818048, 0.00075501704, 0.000008941454, -685053.1, -44562.5, 0.0, 10.005361, 9.927077 
5.615376e+3, 2.4456441e+2, -596761.56, -666760.75, -7.883276, 0.0007546178, 0.00016898569, -596761.56, -53492.035, 0.0, 10.005357, 9.913627 
5.6153756e+3, 2.5447816e+2, -498042.1, -568116.56, -18.128098, 0.0007543672, -0.000014872981, -498042.1, -51927.273, 0.0, 10.005354, 9.913526 
5.615375e+3, 2.643848e+2, -409845.44, -490821.72, -4.160746, 0.0007540726, 0.00022921726, -409845.44, -60815.82, 0.0, 10.005351, 9.899434 
5.615374e+3, 2.7428478e+2, -310593.3, -391240.75, -14.03622, 0.0007537215, -0.00011909492, -310593.3, -58583.54, 0.0, 10.005348, 9.899853 
5.615373e+3, 2.841766e+2, -224071.3, -317833.66, -0.51110786, 0.0007534135, 0.00031068374, -224071.3, -69001.164, 0.0, 10.005346, 9.883 
5.6153727e+3, 2.9406065e+2, -124391.484, -217535.95, -9.421, 0.0007531611, -0.00017233068, -124391.48, -66185.125, 0.0, 10.005344, 9.883786 
5.615372e+3, 3.0397254e+2, -34881.06, -84916.67, 3.5172641, 0.0007528486, 0.0002499528, -34881.06, -34881.06, 0.0, 10.0053425, 9.939488 
5.6153715e+3, 3.1391385e+2, -33825.734, -82719.9, -5.671615, 0.00075245055, 0.000012304888, -33825.734, -33825.734, 0.0, 10.005341, 9.940971 
5.6253934e+3, 1.2508482e+2, -1713009.9, -1723280.8, 4.140203, 0.00076758896, 0.00017379136, -1713009.9, 1159.9529, 0.0, 10.005547, 9.991934 
5.625393e+3, 1.350766e+2, -1615671.3, -1626529.1, -6.515073, 0.0007666808, -0.0000057528077, -1615671.3, 579.02606, 0.0, 10.00554, 9.991151 
5.6253916e+3, 1.4506185e+2, -1527602.8, -1547275.0, -0.6848543, 0.0007660132, 0.00025510223, -1527602.8, -9207.789, 0.0, 10.005534, 9.97947 
5.6253904e+3, 1.5504129e+2, -1429914.9, -1449986.0, -11.706586, 0.0007655665, 0.000065399, -1429914.9, -9318.494, 0.0, 10.0055275, 9.978939 
5.625389e+3, 1.6501412e+2, -1341923.9, -1371204.6, -6.4625516, 0.0007651218, 0.00014708519, -1341923.9, -19061.281, 0.0, 10.005522, 9.966821 
5.625388e+3, 1.7498098e+2, -1244005.0, -1273597.6, -16.564417, 0.00076468184, 0.00004325721, -1244005.0, -18817.75, 0.0, 10.005516, 9.966407 
5.6253874e+3, 1.8494117e+2, -1156022.8, -1195172.8, -9.625056, 0.0007641986, 0.00018709751, -1156022.8, -28445.395, 0.0, 10.005511, 9.953884 
5.625386e+3, 1.9489507e+2, -1057910.6, -1097319.9, -20.718805, 0.00076366763, 0.000053070446, -1057910.6, -27881.65, 0.0, 10.005506, 9.953541 
5.625385e+3, 2.0484233e+2, -969781.5, -1018966.44, -9.956403, 0.0007632369, 0.0001733021, -969781.5, -37235.547, 0.0, 10.005501, 9.940771 
5.6253844e+3, 2.1478315e+2, -871530.8, -920974.44, -20.901236, 0.0007629107, -0.000022000755, -871530.8, -36404.797, 0.0, 10.005496, 9.94043 
5.625383e+3, 2.2471726e+2, -783279.2, -842755.2, -8.971612, 0.0007624975, 0.00022341736, -783279.2, -45507.43, 0.0, 10.005491, 9.927379 
5.6253827e+3, 2.3464468e+2, -684881.0, -744609.5, -19.694155, 0.00076198636, 0.000009297741, -684881.0, -44398.164, 0.0, 10.005487, 9.927048 
5.625382e+3, 2.4456519e+2, -596590.7, -666708.4, -6.7646756, 0.00076159084, 0.00016931407, -596590.7, -53328.684, 0.0, 10.005484, 9.913597 
5.625381e+3, 2.544789e+2, -497872.66, -568065.4, -17.204367, 0.00076132885, -0.000014564298, -497872.66, -51765.125, 0.0, 10.005481, 9.913496 
5.62538e+3, 2.6438552e+2, -409677.22, -490771.75, -3.1858456, 0.0007610157, 0.00022951151, -409677.22, -60654.58, 0.0, 10.005477, 9.899405 
5.6253797e+3, 2.7428547e+2, -310426.34, -391191.94, -13.22625, 0.000760637, -0.000118808384, -310426.34, -58423.266, 0.0, 10.005474, 9.899823 
5.625379e+3, 2.8417724e+2, -223904.53, -317784.06, 0.29377413, 0.0007603192, 0.00031097006, -223904.53, -68840.805, 0.0, 10.005471, 9.882972 
5.6253785e+3, 2.9406124e+2, -124226.266, -217487.52, -8.886935, 0.0007600811, -0.00017203511, -124226.26, -66026.03, 0.0, 10.005469, 9.883758 
5.625377e+3, 3.039731e+2, -34720.2, -84874.2, 4.074156, 0.0007597702, 0.0002502134, -34720.2, -34720.2, 0.0, 10.005467, 9.939457 
5.6253767e+3, 3.1391442e+2, -33665.652, -82678.17, -5.11464, 0.000759355, 0.000012467721, -33665.652, -33665.652, 0.0, 10.0054655, 9.94094 
5.635399e+3, 1.2508593e+2, -1713032.5, -1723326.0, 1.7017095, 0.00077489903, 0.00017427265, -1713032.5, 1126.3489, 0.0, 10.0055485, 9.991905 
5.635398e+3, 1.350777e+2, -1615693.6, -1626574.3, -8.955132, 0.000773628, -0.000005175741, -1615693.6, 545.94763, 0.0, 10.005542, 9.991122 
5.635397e+3, 1.4506291e+2, -1527625.5, -1547321.1, -2.9468918, 0.00077290676, 0.00025566525, -1527625.5, -9241.012, 0.0, 10.005535, 9.979441 
5.635396e+3, 1.5504232e+2, -1429937.4, -1450031.9, -13.96205, 0.00077270635, 0.000065840526, -1429937.4, -9351.179, 0.0, 10.005529, 9.9789095 
5.635395e+3, 1.6501512e+2, -1341944.1, -1371246.3, -8.5727415, 0.00077228906, 0.00014750718, -1341944.1, -19091.377, 0.0, 10.005524, 9.966794 
5.635394e+3, 1.7498197e+2, -1244025.0, -1273639.0, -18.678566, 0.00077166036, 0.000043760618, -1244025.0, -18847.354, 0.0, 10.005518, 9.96638 
5.6353927e+3, 1.8494213e+2, -1156044.9, -1195218.4, -11.553138, 0.0007711643, 0.00018759265, -1156044.9, -28476.81, 0.0, 10.005512, 9.953855 
5.6353915e+3, 1.9489601e+2, -1057932.5, -1097365.3, -22.646866, 0.000770799, 0.00005346631, -1057932.5, -27912.535, 0.0, 10.005507, 9.953511 
5.635391e+3, 2.0484324e+2, -969803.25, -1019011.9, -11.697075, 0.00077034766, 0.00017366136, -969803.25, -37266.043, 0.0, 10.005502, 9.940742 
5.63539e+3, 2.1478401e+2, -871552.3, -921019.6, -22.640661, 0.00076980476, -0.00002161211, -871552.3, -36434.742, 0.0, 10.005497, 9.9404 
5.635389e+3, 2.2471808e+2, -783300.56, -842800.44, -10.489705, 0.00076937454, 0.00022383333, -783300.56, -45536.984, 0.0, 10.005493, 9.927349 
5.635388e+3, 2.3464549e+2, -684902.1, -744654.44, -21.20898, 0.0007690667, 0.0000097387765, -684902.1, -44427.176, 0.0, 10.005489, 9.927018 
5.6353873e+3, 2.4456595e+2, -596611.75, -666753.44, -8.097114, 0.0007687166, 0.00016967482, -596611.75, -53357.348, 0.0, 10.005486, 9.913568 
5.635387e+3, 2.5447965e+2, -497893.47, -568110.25, -18.52989, 0.00076831586, -0.000014406819, -497893.47, -51793.227, 0.0, 10.005482, 9.913466 
5.6353855e+3, 2.6438624e+2, -409697.97, -490816.72, -4.249395, 0.00076792284, 0.00022972455, -409697.97, -60682.32, 0.0, 10.005478, 9.899375 
5.6353855e+3, 2.7428615e+2, -310446.84, -391236.63, -14.279532, 0.00076753786, -0.00011821694, -310446.84, -58450.465, 0.0, 10.005475, 9.899793 
5.6353843e+3, 2.841779e+2, -223924.14, -317827.22, -0.58393836, 0.0007672571, 0.00031150575, -223924.14, -68866.84, 0.0, 10.005473, 9.882942 
5.635384e+3, 2.940619e+2, -124245.55, -217530.3, -9.743493, 0.0007671137, -0.00017213986, -124245.55, -66051.445, 0.0, 10.00547, 9.883729 
5.6353825e+3, 3.0397373e+2, -34740.926, -84920.09, 3.4437163, 0.0007667988, 0.00025005458, -34740.926, -34740.926, 0.0, 10.005468, 9.939425 
5.6353825e+3, 3.1391498e+2, -33686.582, -82724.46, -5.735917, 0.00076623476, 0.000013117508, -33686.582, -33686.582, 0.0, 10.005466, 9.940908 
5.645405e+3, 1.2508707e+2, -1712841.5, -1723257.3, 4.3374434, 0.00078203814, 0.00017476233, -1712841.5, 1306.2395, 0.0, 10.005681, 9.991877 
5.645404e+3, 1.350788e+2, -1615504.1, -1626506.8, -6.638907, 0.0007807271, -0.00000456498, -1615504.1, 724.7261, 0.0, 10.005674, 9.991093 
5.645402e+3, 1.4506398e+2, -1527437.5, -1547255.3, -0.68932223, 0.00077999465, 0.00025626644, -1527437.5, -9063.534, 0.0, 10.005668, 9.979412 
5.6454015e+3, 1.5504336e+2, -1429751.1, -1449967.3, -11.792561, 0.0007798109, 0.00006630478, -1429751.1, -9175.109, 0.0, 10.005661, 9.978881 
5.6454e+3, 1.6501613e+2, -1341757.3, -1371179.1, -6.387562, 0.0007793874, 0.00014792783, -1341757.3, -18914.385, 0.0, 10.005655, 9.966766 
5.6453997e+3, 1.7498295e+2, -1243839.5, -1273573.1, -16.756186, 0.00077873, 0.000044230026, -1243839.5, -18671.527, 0.0, 10.005649, 9.966352 
5.6453985e+3, 1.8494308e+2, -1155862.8, -1195157.8, -9.686027, 0.00077822385, 0.0001880762, -1155862.8, -28304.086, 0.0, 10.005643, 9.953825 
5.6453973e+3, 1.9489694e+2, -1057752.0, -1097305.9, -20.971992, 0.0007778673, 0.000053928863, -1057752.0, -27741.11, 0.0, 10.005638, 9.953482 
5.645397e+3, 2.0484413e+2, -969624.0, -1018953.7, -9.990242, 0.0007774068, 0.00017409177, -969624.0, -37095.59, 0.0, 10.005632, 9.940712 
5.6453955e+3, 2.1478486e+2, -871374.4, -920962.6, -21.129705, 0.000776836, -0.000021225595, -871374.4, -36265.336, 0.0, 10.005628, 9.940371 
5.6453943e+3, 2.2471891e+2, -783123.94, -842744.7, -8.998558, 0.0007764037, 0.00022420585, -783123.94, -45368.57, 0.0, 10.005623, 9.92732 
5.645394e+3, 2.346463e+2, -684727.1, -744600.0, -19.938019, 0.00077612186, 0.000010130288, -684727.1, -44260.098, 0.0, 10.005618, 9.926988 
5.645393e+3, 2.4456672e+2, -596437.94, -666700.1, -6.7835507, 0.0007757625, 0.00017005115, -596437.94, -53191.17, 0.0, 10.005614, 9.913537 
5.645392e+3, 2.544804e+2, -497720.88, -568058.0, -17.384768, 0.00077531097, -0.000014085601, -497720.88, -51627.965, 0.0, 10.00561, 9.913437 
5.6453913e+3, 2.6438692e+2, -409526.7, -490765.97, -3.1251183, 0.00077490235, 0.00023004509, -409526.7, -60518.09, 0.0, 10.005607, 9.899344 
5.645391e+3, 2.7428684e+2, -310277.25, -391187.22, -13.440959, 0.0007745456, -0.00011782899, -310277.25, -58287.613, 0.0, 10.005604, 9.899762 
5.6453896e+3, 2.8417856e+2, -223754.67, -317776.7, 0.30577716, 0.0007742767, 0.00031185307, -223754.67, -68703.83, 0.0, 10.005601, 9.882914 
5.645389e+3, 2.9406253e+2, -124077.39, -217480.78, -8.828192, 0.00077412324, -0.0001719792, -124077.39, -65889.46, 0.0, 10.005598, 9.883699 
5.645389e+3, 3.039743e+2, -34577.254, -84877.125, 4.3567476, 0.0007737724, 0.00025020784, -34577.254, -34577.254, 0.0, 10.005596, 9.939393 
5.6453884e+3, 3.1391555e+2, -33523.53, -82682.22, -5.34721, 0.00077313493, 0.000013528147, -33523.53, -33523.53, 0.0, 10.005594, 9.940875 
5.655411e+3, 1.250882e+2, -1712864.9, -1723303.9, 1.8100026, 0.00078904093, 0.00017526005, -1712864.9, 1271.8406, 0.0, 10.005683, 9.991847 
5.655409e+3, 1.3507989e+2, -1615527.1, -1626553.1, -9.159803, 0.0007879659, -0.000003925464, -1615527.1, 690.8452, 0.0, 10.005675, 9.991063 
5.655408e+3, 1.4506507e+2, -1527460.5, -1547301.6, -3.1097047, 0.00078725856, 0.0002569002, -1527460.5, -9097.008, 0.0, 10.005669, 9.9793825 
5.6554073e+3, 1.5504442e+2, -1429773.8, -1450013.5, -14.214653, 0.0007868946, 0.00006678914, -1429773.8, -9208.021, 0.0, 10.005663, 9.978851 
5.655406e+3, 1.6501716e+2, -1341778.0, -1371221.8, -8.596018, 0.00078643614, 0.00014834815, -1341778.0, -18945.1, 0.0, 10.005656, 9.96674 
5.6554055e+3, 1.7498395e+2, -1243860.1, -1273615.6, -18.963627, 0.00078588724, 0.00004467067, -1243860.0, -18701.746, 0.0, 10.0056505, 9.966326 
5.655404e+3, 1.8494405e+2, -1155885.3, -1195204.1, -11.751986, 0.0007853732, 0.00018855, -1155885.3, -28335.945, 0.0, 10.005645, 9.953795 
5.6554025e+3, 1.9489788e+2, -1057774.1, -1097352.0, -23.03977, 0.0007848905, 0.00005444888, -1057774.1, -27772.414, 0.0, 10.005639, 9.953451 
5.655402e+3, 2.0484503e+2, -969646.06, -1018999.94, -11.814262, 0.0007844308, 0.0001745835, -969646.06, -37126.51, 0.0, 10.005633, 9.940681 
5.6554013e+3, 2.1478575e+2, -871396.25, -921008.56, -22.951996, 0.0007839943, -0.000020840442, -871396.25, -36295.715, 0.0, 10.005629, 9.94034 
5.6554e+3, 2.2471976e+2, -783145.7, -842790.75, -10.67207, 0.0007835724, 0.00022454154, -783145.7, -45398.598, 0.0, 10.005624, 9.927289 
5.6553996e+3, 2.3464711e+2, -684748.6, -744645.8, -21.608936, 0.0007831644, 0.000010479459, -684748.56, -44289.55, 0.0, 10.00562, 9.926958 
5.6553984e+3, 2.4456751e+2, -596459.25, -666745.94, -8.170496, 0.0007827486, 0.0001704411, -596459.25, -53220.17, 0.0, 10.005615, 9.9135065 
5.655397e+3, 2.5448114e+2, -497741.97, -568103.5, -18.764053, 0.00078232225, -0.000013623124, -497741.97, -51656.414, 0.0, 10.005611, 9.913406 
5.655397e+3, 2.6438767e+2, -409547.94, -490812.06, -4.352333, 0.0007819532, 0.00023045836, -409547.94, -60546.406, 0.0, 10.005609, 9.899314 
5.655396e+3, 2.7428752e+2, -310298.22, -391233.1, -14.655265, 0.0007816538, -0.00011761634, -310298.22, -58315.363, 0.0, 10.005605, 9.899732 
5.6553954e+3, 2.841792e+2, -223774.2, -317819.84, -0.66764957, 0.0007813751, 0.00031203835, -223774.2, -68729.82, 0.0, 10.005602, 9.882884 
5.655395e+3, 2.9406315e+2, -124096.55, -217523.44, -9.79487, 0.00078112155, -0.00017158894, -124096.55, -65914.81, 0.0, 10.005599, 9.883671 
5.655394e+3, 3.0397493e+2, -34598.844, -84924.94, 3.6320648, 0.00078070763, 0.00025063066, -34598.844, -34598.844, 0.0, 10.005597, 9.93936 
5.6553936e+3, 3.1391615e+2, -33545.45, -82730.664, -6.031192, 0.0007800615, 0.000013731863, -33545.45, -33545.45, 0.0, 10.005595, 9.940842 
5.665417e+3, 1.2508935e+2, -1712670.1, -1723233.8, 4.5122113, 0.0007961707, 0.00017586918, -1712670.1, 1455.3202, 0.0, 10.005818, 9.991817 
5.665415e+3, 1.3508101e+2, -1615334.6, -1626484.6, -6.5747504, 0.000795183, -0.0000034260481, -1615334.6, 872.5036, 0.0, 10.005811, 9.991034 
5.6654143e+3, 1.4506614e+2, -1527269.5, -1547234.9, -0.51596826, 0.0007944779, 0.00025737853, -1527269.5, -8916.741, 0.0, 10.005804, 9.979352 
5.665413e+3, 1.5504546e+2, -1429584.1, -1449947.8, -11.916564, 0.0007940332, 0.00006733167, -1429584.1, -9028.73, 0.0, 10.005797, 9.978821 
5.6654114e+3, 1.6501817e+2, -1341587.6, -1371153.5, -6.3543205, 0.0007935556, 0.00014889393, -1341587.6, -18764.82, 0.0, 10.005791, 9.966712 
5.665411e+3, 1.7498495e+2, -1243671.5, -1273548.8, -16.868574, 0.0007930483, 0.00004515983, -1243671.5, -18522.938, 0.0, 10.005784, 9.966298 
5.6654096e+3, 1.84945e+2, -1155700.1, -1195142.5, -9.645563, 0.000792526, 0.00018900496, -1155700.1, -28160.29, 0.0, 10.005778, 9.953765 
5.665409e+3, 1.948988e+2, -1057590.4, -1097291.6, -21.167063, 0.00079198455, 0.000054892356, -1057590.4, -27597.807, 0.0, 10.005772, 9.953422 
5.665408e+3, 2.0484594e+2, -969463.56, -1018940.7, -9.964393, 0.0007915276, 0.00017503, -969463.56, -36952.91, 0.0, 10.005767, 9.940651 
5.6654066e+3, 2.1478662e+2, -871215.5, -920950.75, -21.306215, 0.00079115835, -0.000020375719, -871215.5, -36123.566, 0.0, 10.005761, 9.9403105 
5.665406e+3, 2.2472061e+2, -782966.25, -842734.2, -8.990198, 0.000790725, 0.0002249782, -782966.25, -45227.426, 0.0, 10.005756, 9.9272585 
5.6654054e+3, 2.3464793e+2, -684570.25, -744590.3, -20.118393, 0.0007902189, 0.000010837138, -684570.25, -44119.23, 0.0, 10.005752, 9.926928 
5.665404e+3, 2.445683e+2, -596282.2, -666691.6, -6.6990123, 0.00078978494, 0.00017079803, -596282.2, -53050.785, 0.0, 10.005747, 9.913476 
5.6654036e+3, 2.5448188e+2, -497566.66, -568050.6, -17.546408, 0.00078943366, -0.000013175877, -497566.66, -51488.51, 0.0, 10.005743, 9.913376 
5.665403e+3, 2.6438838e+2, -409374.0, -490760.5, -3.087349, 0.00078908296, 0.00023086459, -409374.0, -60379.582, 0.0, 10.005739, 9.899282 
5.665402e+3, 2.7428824e+2, -310125.6, -391182.7, -13.447565, 0.0007887311, -0.0001174144, -310125.6, -58149.54, 0.0, 10.005735, 9.899701 
5.665401e+3, 2.8417987e+2, -223601.67, -317768.56, 0.525586, 0.00078841223, 0.0003122542, -223601.67, -68563.8, 0.0, 10.005733, 9.882854 
5.6654006e+3, 2.9406378e+2, -123925.41, -217473.23, -9.066445, 0.0007881352, -0.0001710666, -123925.41, -65749.88, 0.0, 10.00573, 9.883641 
5.6654e+3, 3.0397552e+2, -34432.23, -84881.016, 4.3423476, 0.00078772753, 0.000251133, -34432.23, -34432.23, 0.0, 10.005727, 9.939327 
5.6653994e+3, 3.1391668e+2, -33379.797, -82687.6, -5.115897, 0.0007871306, 0.0000137379275, -33379.797, -33379.797, 0.0, 10.005724, 9.940809 
5.675422e+3, 1.250905e+2, -1712693.6, -1723281.0, 1.7298027, 0.00080341904, 0.00017657324, -1712693.6, 1420.5526, 0.0, 10.005819, 9.991788 
5.675421e+3, 1.3508214e+2, -1615357.9, -1626531.5, -9.353691, 0.0008023912, -0.0000030450058, -1615357.8, 838.3084, 0.0, 10.005813, 9.991004 
5.67542e+3, 1.4506723e+2, -1527293.1, -1547282.5, -2.9953272, 0.00080166874, 0.0002577255, -1527293.1, -8950.926, 0.0, 10.005805, 9.979322 
5.675419e+3, 1.5504652e+2, -1429607.4, -1449995.1, -14.393154, 0.00080122886, 0.00006792411, -1429607.4, -9062.367, 0.0, 10.005798, 9.978791 
5.675417e+3, 1.6501921e+2, -1341608.6, -1371196.8, -8.727305, 0.00080074545, 0.00014954679, -1341608.6, -18795.91, 0.0, 10.005792, 9.966683 
5.6754166e+3, 1.7498595e+2, -1243692.3, -1273591.8, -19.243551, 0.0008002221, 0.00004569093, -1243692.3, -18553.506, 0.0, 10.005785, 9.9662695 
5.6754154e+3, 1.8494599e+2, -1155722.9, -1195189.9, -11.788264, 0.0007996913, 0.00018944454, -1155722.9, -28192.682, 0.0, 10.005779, 9.953734 
5.675415e+3, 1.9489975e+2, -1057613.0, -1097338.8, -23.308922, 0.000799149, 0.00005527102, -1057613.0, -27629.65, 0.0, 10.005774, 9.953391 
5.6754136e+3, 2.0484684e+2, -969486.06, -1018987.75, -11.967259, 0.0007986962, 0.00017543828, -969486.0, -36984.297, 0.0, 10.005768, 9.94062 
5.6754124e+3, 2.1478751e+2, -871237.6, -920997.5, -23.310387, 0.0007983364, -0.000019842671, -871237.6, -36154.37, 0.0, 10.005762, 9.94028 
5.675412e+3, 2.2472146e+2, -782988.3, -842781.0, -10.698664, 0.0007978729, 0.00022550154, -782988.3, -45257.85, 0.0, 10.005757, 9.927228 
5.6754106e+3, 2.3464876e+2, -684592.1, -744636.9, -21.82065, 0.0007972932, 0.000011202763, -684592.1, -44149.098, 0.0, 10.005753, 9.926896 
5.67541e+3, 2.445691e+2, -596304.0, -666738.4, -8.274979, 0.00079687394, 0.00017112726, -596304.0, -53080.324, 0.0, 10.005749, 9.913445 
5.6754094e+3, 2.5448266e+2, -497588.2, -568097.1, -19.117157, 0.00079663977, -0.000012741798, -497588.2, -51517.47, 0.0, 10.005744, 9.913344 
5.675408e+3, 2.6438913e+2, -409395.3, -490806.84, -4.3890185, 0.000796289, 0.00023126487, -409395.3, -60408.016, 0.0, 10.00574, 9.899252 
5.6754076e+3, 2.7428892e+2, -310146.63, -391228.75, -14.7408905, 0.00079579104, -0.000117220225, -310146.63, -58177.39, 0.0, 10.005736, 9.899671 
5.6754065e+3, 2.8418055e+2, -223622.0, -317813.5, -0.5621364, 0.0007954063, 0.0003124975, -223622.0, -68590.66, 0.0, 10.0057335, 9.882825 
5.6754065e+3, 2.9406443e+2, -123945.43, -217517.8, -10.129012, 0.0007951714, -0.00017043226, -123945.43, -65776.14, 0.0, 10.005731, 9.883612 
5.675406e+3, 3.0397615e+2, -34453.496, -84928.27, 3.4627001, 0.00079482916, 0.00025170224, -34453.496, -34453.496, 0.0, 10.005728, 9.939295 
5.6754047e+3, 3.1391728e+2, -33401.25, -82735.23, -5.990667, 0.00079433044, 0.0000135766795, -33401.25, -33401.25, 0.0, 10.005726, 9.940776 
5.6854284e+3, 1.2509166e+2, -1712496.4, -1723210.0, 4.6399584, 0.00081077125, 0.00017714968, -1712496.4, 1606.5167, 0.0, 10.005958, 9.991757 
5.6854266e+3, 1.3508327e+2, -1615161.5, -1626461.5, -6.6732187, 0.0008095722, -0.0000024545882, -1615161.5, 1023.5273, 0.0, 10.00595, 9.990974 
5.685426e+3, 1.4506833e+2, -1527098.5, -1547214.4, -0.3368206, 0.00080881873, 0.000258298, -1527098.5, -8767.049, 0.0, 10.005942, 9.979292 
5.685425e+3, 1.550476e+2, -1429414.8, -1449928.5, -11.9204, 0.0008084832, 0.00006844718, -1429414.8, -8880.145, 0.0, 10.005935, 9.97876 
5.6854236e+3, 1.6502024e+2, -1341415.3, -1371127.5, -6.2627974, 0.00080800964, 0.00015005271, -1341415.3, -18612.727, 0.0, 10.005928, 9.966656 
5.6854224e+3, 1.7498696e+2, -1243500.3, -1273523.6, -16.998281, 0.000807403, 0.00004621169, -1243500.3, -18371.418, 0.0, 10.005921, 9.966242 
5.685421e+3, 1.8494695e+2, -1155534.5, -1195127.1, -9.557958, 0.00080686645, 0.00018995497, -1155534.5, -28013.809, 0.0, 10.005915, 9.953703 
5.6854206e+3, 1.9490069e+2, -1057426.3, -1097277.5, -21.25928, 0.0008063968, 0.000055745626, -1057426.3, -27452.254, 0.0, 10.005909, 9.95336 
5.6854194e+3, 2.0484777e+2, -969300.6, -1018927.7, -9.9057665, 0.0008059269, 0.00017589297, -969300.6, -36807.9, 0.0, 10.005903, 9.94059 
5.685418e+3, 2.1478839e+2, -871053.44, -920938.56, -21.492172, 0.00080545567, -0.000019391175, -871053.44, -35978.883, 0.0, 10.0058975, 9.9402485 
5.6854177e+3, 2.2472233e+2, -782805.4, -842723.25, -8.884545, 0.00080498494, 0.00022595536, -782805.4, -45083.32, 0.0, 10.005892, 9.927197 
5.6854165e+3, 2.3464958e+2, -684411.0, -744580.56, -20.202358, 0.0008045125, 0.00001166498, -684411.0, -43976.1, 0.0, 10.005887, 9.926866 
5.685415e+3, 2.4456988e+2, -596124.25, -666683.4, -6.628396, 0.0008041083, 0.00017154259, -596124.25, -52908.395, 0.0, 10.005882, 9.913414 
5.685415e+3, 2.544834e+2, -497409.72, -568043.25, -17.628302, 0.0008037817, -0.000012437769, -497409.72, -51346.49, 0.0, 10.0058775, 9.913314 
5.685414e+3, 2.6438987e+2, -409218.06, -490754.28, -2.904728, 0.0008033853, 0.0002315898, -409218.06, -60237.934, 0.0, 10.005874, 9.89922 
5.6854135e+3, 2.742896e+2, -309970.9, -391177.47, -13.593507, 0.0008028999, -0.000116709714, -309970.9, -58008.54, 0.0, 10.00587, 9.899639 
5.685413e+3, 2.841812e+2, -223446.56, -317761.38, 0.5965546, 0.00080253783, 0.00031297468, -223446.56, -68421.77, 0.0, 10.005866, 9.882794 
5.685412e+3, 2.9406506e+2, -123771.56, -217466.84, -8.922479, 0.0008023392, -0.0001702831, -123771.56, -65608.54, 0.0, 10.005862, 9.883581 
5.685411e+3, 3.0397674e+2, -34284.16, -84883.62, 4.6616664, 0.0008019777, 0.00025180783, -34284.16, -34284.16, 0.0, 10.005859, 9.939261 
5.6854105e+3, 3.1391785e+2, -33232.6, -82691.29, -5.288502, 0.00080137886, 0.000014057662, -33232.6, -33232.6, 0.0, 10.0058565, 9.9407425 
5.695434e+3, 1.2509282e+2, -1712520.3, -1723258.1, 1.8638947, 0.00081822113, 0.00017761887, -1712520.3, 1571.1681, 0.0, 10.005959, 9.991727 
5.6954324e+3, 1.3508439e+2, -1615185.3, -1626509.4, -9.447733, 0.00081674085, -0.0000016861228, -1615185.3, 988.71436, 0.0, 10.005951, 9.990944 
5.695432e+3, 1.4506942e+2, -1527122.3, -1547262.8, -3.037726, 0.0008159448, 0.0002590621, -1527122.3, -8801.741, 0.0, 10.005944, 9.97926 
5.6954306e+3, 1.5504867e+2, -1429438.3, -1449976.6, -14.616662, 0.00081579736, 0.00006891206, -1429438.3, -8914.244, 0.0, 10.005937, 9.978729 
5.6954294e+3, 1.6502129e+2, -1341436.8, -1371171.6, -8.706187, 0.0008153466, 0.00015043475, -1341436.6, -18644.342, 0.0, 10.00593, 9.966627 
5.695428e+3, 1.7498796e+2, -1243521.4, -1273567.6, -19.442953, 0.00081460015, 0.000046724246, -1243521.4, -18402.521, 0.0, 10.005923, 9.966213 
5.695427e+3, 1.8494795e+2, -1155557.6, -1195175.3, -11.879794, 0.0008140602, 0.00019052606, -1155557.6, -28046.637, 0.0, 10.005917, 9.953672 
5.6954265e+3, 1.9490166e+2, -1057449.1, -1097325.3, -23.583467, 0.0008137252, 0.00005630243, -1057449.1, -27484.502, 0.0, 10.00591, 9.953329 
5.695425e+3, 2.0484869e+2, -969323.5, -1018975.7, -11.952981, 0.00081322, 0.0001763878, -969323.5, -36839.82, 0.0, 10.005904, 9.940558 
5.695424e+3, 2.1478929e+2, -871076.06, -920986.3, -23.53489, 0.0008125351, -0.000019008474, -871076.06, -36010.234, 0.0, 10.005898, 9.940217 
5.6954235e+3, 2.2472318e+2, -782827.8, -842770.9, -10.790247, 0.00081207656, 0.00022635053, -782827.8, -45114.184, 0.0, 10.005894, 9.927166 
5.695422e+3, 2.346504e+2, -684433.2, -744627.94, -22.108229, 0.00081186456, 0.00001220972, -684433.2, -44006.38, 0.0, 10.005888, 9.926834 
5.6954217e+3, 2.4457067e+2, -596146.3, -666730.8, -8.265906, 0.0008114755, 0.00017203166, -596146.3, -52938.254, 0.0, 10.005883, 9.913383 
5.695421e+3, 2.544842e+2, -497431.47, -568090.4, -19.257431, 0.0008108785, -0.000012243386, -497431.47, -51375.76, 0.0, 10.005879, 9.913282 
5.69542e+3, 2.643906e+2, -409239.97, -490801.97, -4.3303375, 0.0008103979, 0.00023185146, -409239.97, -60267.04, 0.0, 10.005875, 9.899189 
5.6954193e+3, 2.7429032e+2, -309992.53, -391224.9, -15.006098, 0.00081005995, -0.00011593019, -309992.53, -58037.074, 0.0, 10.005871, 9.899607 
5.695419e+3, 2.841819e+2, -223466.78, -317806.2, -0.63997394, 0.0008097959, 0.00031365064, -223466.78, -68448.59, 0.0, 10.005867, 9.882765 
5.695418e+3, 2.940657e+2, -123791.41, -217511.19, -10.150599, 0.00080962817, -0.00017054583, -123791.41, -65634.68, 0.0, 10.005864, 9.883552 
5.6954175e+3, 3.0397737e+2, -34306.215, -84932.67, 3.6632373, 0.0008091754, 0.0002515202, -34306.215, -34306.215, 0.0, 10.005861, 9.939228 
5.6954163e+3, 3.139184e+2, -33254.94, -82740.92, -6.262194, 0.00080830755, 0.000015085479, -33254.94, -33254.94, 0.0, 10.005858, 9.940708 
5.70544e+3, 1.25094e+2, -1712319.0, -1723185.8, 4.90305, 0.00082546467, 0.00017820421, -1712319.0, 1760.9215, 0.0, 10.006099, 9.991696 
5.705439e+3, 1.3508554e+2, -1614986.1, -1626438.6, -6.643986, 0.00082410406, -0.0000010679258, -1614986.1, 1176.6814, 0.0, 10.006091, 9.990913 
5.7054377e+3, 1.4507054e+2, -1526924.9, -1547193.8, -0.2508306, 0.00082330813, 0.0002596645, -1526924.9, -8615.142, 0.0, 10.0060835, 9.97923 
5.7054365e+3, 1.5504974e+2, -1429242.1, -1449908.8, -11.992469, 0.0008230448, 0.000069450754, -1429242.1, -8728.647, 0.0, 10.006076, 9.978699 
5.705435e+3, 1.6502234e+2, -1341239.9, -1371101.1, -6.06998, 0.0008225782, 0.00015094772, -1341239.9, -18457.775, 0.0, 10.006068, 9.9665985 
5.7054347e+3, 1.7498899e+2, -1243326.4, -1273498.5, -17.010975, 0.00082191447, 0.000047249094, -1243326.4, -18217.508, 0.0, 10.006062, 9.966185 
5.705433e+3, 1.8494895e+2, -1155366.1, -1195111.6, -9.477438, 0.0008213717, 0.00019105607, -1155366.1, -27864.86, 0.0, 10.006054, 9.953641 
5.705432e+3, 1.9490261e+2, -1057259.0, -1097262.8, -21.427668, 0.0008209473, 0.000056830784, -1057259.0, -27303.78, 0.0, 10.006048, 9.953298 
5.705431e+3, 2.0484963e+2, -969134.7, -1018914.5, -9.766743, 0.0008204352, 0.00017689203, -969134.7, -36660.098, 0.0, 10.006042, 9.940527 
5.70543e+3, 2.147902e+2, -870889.0, -920926.5, -21.500463, 0.0008198299, -0.000018551895, -870889.0, -35831.96, 0.0, 10.006036, 9.940186 
5.7054293e+3, 2.2472404e+2, -782642.1, -842712.44, -8.757799, 0.00081937254, 0.00022678063, -782642.1, -44936.984, 0.0, 10.00603, 9.9271345 
5.705429e+3, 2.3465124e+2, -684248.8, -744570.6, -20.32597, 0.00081907574, 0.000012636675, -684248.8, -43830.23, 0.0, 10.006024, 9.926803 
5.7054275e+3, 2.4457149e+2, -595963.1, -666674.6, -6.4689975, 0.00081865466, 0.00017247343, -595963.1, -52762.965, 0.0, 10.00602, 9.913351 
5.705427e+3, 2.5448495e+2, -497249.84, -568035.56, -17.681147, 0.0008180872, -0.000011766111, -497249.84, -51201.684, 0.0, 10.006015, 9.913251 
5.705426e+3, 2.6439133e+2, -409059.8, -490748.66, -2.75577, 0.00081762543, 0.00023228409, -409059.8, -60094.14, 0.0, 10.00601, 9.899157 
5.705425e+3, 2.7429104e+2, -309814.1, -391172.97, -13.567268, 0.00081729324, -0.000115641524, -309814.1, -57865.55, 0.0, 10.006006, 9.899575 
5.7054245e+3, 2.8418255e+2, -223288.38, -317753.06, 0.8140054, 0.0008170101, 0.00031393286, -223288.38, -68276.82, 0.0, 10.006001, 9.882733 
5.705424e+3, 2.9406634e+2, -123614.29, -217459.08, -8.985787, 0.0008167899, -0.00017008645, -123614.29, -65463.89, 0.0, 10.005999, 9.883521 
5.7054234e+3, 3.0397797e+2, -34133.766, -84887.45, 4.781428, 0.00081631355, 0.0002519831, -34133.766, -34133.766, 0.0, 10.005995, 9.939194 
5.705422e+3, 3.13919e+2, -33083.12, -82696.445, -5.2949805, 0.0008154641, 0.000015299887, -33083.12, -33083.12, 0.0, 10.005992, 9.940674 
5.7154465e+3, 1.2509517e+2, -1712343.5, -1723234.8, 1.885351, 0.00083254563, 0.00017888822, -1712343.5, 1724.9233, 0.0, 10.006101, 9.991666 
5.7154447e+3, 1.3508669e+2, -1615010.3, -1626487.5, -9.653806, 0.00083164155, -0.00000057599243, -1615010.3, 1141.26, 0.0, 10.006092, 9.990882 
5.715444e+3, 1.4507167e+2, -1526949.0, -1547242.8, -3.0038776, 0.0008308816, 0.00026013103, -1526949.0, -8650.256, 0.0, 10.006084, 9.979198 
5.7154423e+3, 1.5505084e+2, -1429266.0, -1449957.5, -14.747148, 0.0008302467, 0.00007005262, -1429266.0, -8763.181, 0.0, 10.006077, 9.978667 
5.715442e+3, 1.6502339e+2, -1341261.6, -1371146.1, -8.698357, 0.00082973175, 0.00015157211, -1341261.6, -18489.912, 0.0, 10.00607, 9.96657 
5.7154405e+3, 1.7499003e+2, -1243347.9, -1273543.3, -19.639158, 0.0008293379, 0.000047785168, -1243347.9, -18249.105, 0.0, 10.0060625, 9.966156 
5.7154393e+3, 1.8494995e+2, -1155389.8, -1195160.6, -11.870542, 0.0008287925, 0.00019155207, -1155389.8, -27898.26, 0.0, 10.006056, 9.953609 
5.715439e+3, 1.9490358e+2, -1057282.4, -1097311.6, -23.8196, 0.00082808995, 0.00005733553, -1057282.4, -27336.6, 0.0, 10.006049, 9.953266 
5.7154375e+3, 2.0485055e+2, -969157.8, -1018963.06, -11.986032, 0.00082759507, 0.00017740477, -969157.8, -36692.38, 0.0, 10.006043, 9.9404955 
5.7154363e+3, 2.1479109e+2, -870911.8, -920974.8, -23.722307, 0.0008273168, -0.000018031931, -870911.8, -35863.652, 0.0, 10.006037, 9.940154 
5.715436e+3, 2.2472492e+2, -782665.0, -842761.06, -10.746692, 0.00082685123, 0.00022724118, -782665.0, -44968.387, 0.0, 10.006031, 9.927102 
5.7154346e+3, 2.3465209e+2, -684271.44, -744619.0, -22.308313, 0.0008261776, 0.000012964572, -684271.4, -43861.03, 0.0, 10.006026, 9.926771 
5.7154334e+3, 2.445723e+2, -595985.56, -666722.94, -8.221994, 0.0008256848, 0.00017287566, -595985.56, -52793.293, 0.0, 10.006021, 9.91332 
5.715433e+3, 2.5448573e+2, -497271.97, -568083.56, -19.42833, 0.0008254007, -0.000011048758, -497271.97, -51231.43, 0.0, 10.006016, 9.9132185 
5.715432e+3, 2.6439205e+2, -409081.9, -490796.9, -4.3397126, 0.0008250451, 0.00023286194, -409081.9, -60123.54, 0.0, 10.006012, 9.899124 
5.715431e+3, 2.7429175e+2, -309835.9, -391220.94, -15.14151, 0.00082459825, -0.00011576815, -309835.9, -57894.332, 0.0, 10.006007, 9.899543 
5.7154304e+3, 2.8418323e+2, -223309.06, -317799.03, -0.5067683, 0.0008241966, 0.00031388228, -223309.06, -68304.17, 0.0, 10.006003, 9.882703 
5.71543e+3, 2.94067e+2, -123634.625, -217504.58, -10.293678, 0.00082385354, -0.00016901406, -123634.625, -65490.594, 0.0, 10.006, 9.88349 
5.715429e+3, 3.0397856e+2, -34156.086, -84937.195, 3.704894, 0.0008234111, 0.0002530827, -34156.086, -34156.086, 0.0, 10.005997, 9.939159 
5.7154286e+3, 3.1391957e+2, -33105.73, -82746.734, -6.33681, 0.00082282396, 0.0000148244135, -33105.73, -33105.73, 0.0, 10.005994, 9.9406395 
5.7254523e+3, 1.2509637e+2, -1712139.1, -1723161.4, 5.055358, 0.00083994406, 0.00017952792, -1712139.1, 1917.616, 0.0, 10.006243, 9.991634 
5.725451e+3, 1.3508785e+2, -1614807.5, -1626415.4, -6.6189985, 0.00083897344, -0.000000029461946, -1614807.5, 1332.6375, 0.0, 10.006234, 9.990851 
5.72545e+3, 1.450728e+2, -1526748.0, -1547172.5, 0.06818258, 0.0008382118, 0.00026065888, -1526748.0, -8460.331, 0.0, 10.006227, 9.979167 
5.725449e+3, 1.5505193e+2, -1429066.8, -1449888.8, -11.966998, 0.0008376375, 0.00007063323, -1429066.8, -8574.653, 0.0, 10.006219, 9.978636 
5.7254475e+3, 1.6502446e+2, -1341061.6, -1371074.5, -5.983586, 0.0008371153, 0.0001521699, -1341061.6, -18300.342, 0.0, 10.006211, 9.96654 
5.725447e+3, 1.7499106e+2, -1243149.4, -1273473.0, -17.098198, 0.0008366474, 0.00004836534, -1243149.4, -18060.77, 0.0, 10.006204, 9.966126 
5.725445e+3, 1.8495095e+2, -1155194.9, -1195095.9, -9.282195, 0.0008360886, 0.00019208975, -1155194.8, -27713.188, 0.0, 10.006196, 9.953577 
5.7254446e+3, 1.9490455e+2, -1057089.1, -1097248.1, -21.40785, 0.0008354337, 0.000057805613, -1057089.1, -27152.885, 0.0, 10.006189, 9.953234 
5.7254434e+3, 2.0485151e+2, -968965.94, -1018900.94, -9.604655, 0.00083494495, 0.00017787142, -968965.94, -36509.746, 0.0, 10.006183, 9.940463 
5.725442e+3, 2.14792e+2, -870721.56, -920914.0, -21.620457, 0.0008346293, -0.000017501452, -870721.56, -35682.266, 0.0, 10.006176, 9.940123 
5.7254416e+3, 2.247258e+2, -782475.94, -842701.5, -8.603148, 0.0008341388, 0.00022777029, -782475.94, -44787.94, 0.0, 10.00617, 9.927071 
5.7254404e+3, 2.3465292e+2, -684083.75, -744560.6, -20.318937, 0.00083345355, 0.000013420688, -684083.75, -43681.676, 0.0, 10.006165, 9.926739 
5.72544e+3, 2.445731e+2, -595799.3, -666665.94, -6.251439, 0.0008329724, 0.00017329573, -595799.3, -52615.023, 0.0, 10.00616, 9.913287 
5.725439e+3, 2.544865e+2, -497087.56, -568028.0, -17.69993, 0.0008327268, -0.00001062182, -497087.56, -51054.67, 0.0, 10.006154, 9.913186 
5.725438e+3, 2.6439282e+2, -408898.78, -490742.6, -2.5705988, 0.00083235843, 0.00023327458, -408898.78, -59947.746, 0.0, 10.006149, 9.899092 
5.7254374e+3, 2.7429244e+2, -309654.0, -391167.75, -13.532088, 0.00083183503, -0.000115396, -309654.0, -57719.44, 0.0, 10.006145, 9.89951 
5.725437e+3, 2.8418392e+2, -223127.38, -317745.22, 1.065445, 0.00083140354, 0.00031426558, -223127.38, -68129.19, 0.0, 10.006141, 9.882671 
5.725436e+3, 2.9406765e+2, -123454.52, -217452.0, -9.050926, 0.00083109346, -0.00016855105, -123454.52, -65316.89, 0.0, 10.006137, 9.883459 
5.725435e+3, 3.039792e+2, -33980.62, -84890.73, 4.9172974, 0.00083067705, 0.00025350077, -33980.62, -33980.62, 0.0, 10.006133, 9.939125 
5.7254344e+3, 3.1392017e+2, -32931.45, -82701.2, -5.0661135, 0.00083010487, 0.000015017501, -32931.445, -32931.445, 0.0, 10.006129, 9.940605 
5.735459e+3, 1.2509756e+2, -1712163.8, -1723211.0, 1.9109646, 0.0008476197, 0.00018013114, -1712163.8, 1881.2059, 0.0, 10.006245, 9.991603 
5.7354575e+3, 1.3508902e+2, -1614831.9, -1626464.8, -9.761692, 0.0008461436, 0.0000005642148, -1614831.9, 1296.8243, 0.0, 10.006236, 9.99082 
5.7354563e+3, 1.4507394e+2, -1526772.8, -1547222.9, -2.8436592, 0.0008453488, 0.00026123953, -1526772.8, -8496.186, 0.0, 10.006228, 9.979135 
5.735455e+3, 1.5505303e+2, -1429091.1, -1449938.6, -14.87233, 0.000845198, 0.00007119671, -1429091.1, -8609.914, 0.0, 10.00622, 9.978603 
5.735454e+3, 1.6502553e+2, -1341083.6, -1371120.3, -8.70826, 0.0008447026, 0.00015274587, -1341083.6, -18332.926, 0.0, 10.006212, 9.966511 
5.735453e+3, 1.749921e+2, -1243171.3, -1273518.4, -19.824879, 0.0008438718, 0.00004898325, -1243171.3, -18092.8, 0.0, 10.006205, 9.966098 
5.7354516e+3, 1.8495196e+2, -1155218.8, -1195145.5, -11.820664, 0.00084329065, 0.00019266328, -1155218.8, -27747.02, 0.0, 10.006198, 9.953546 
5.7354504e+3, 1.9490553e+2, -1057112.8, -1097297.6, -23.947819, 0.0008429574, 0.00005824764, -1057112.8, -27186.127, 0.0, 10.006191, 9.953201 
5.73545e+3, 2.0485245e+2, -968989.56, -1018950.6, -11.94884, 0.00084246515, 0.00017830032, -968989.56, -36542.66, 0.0, 10.006185, 9.940431 
5.7354486e+3, 2.147929e+2, -870744.9, -920963.44, -23.962206, 0.0008418052, -0.000016961621, -870744.9, -35714.566, 0.0, 10.006178, 9.94009 
5.735448e+3, 2.2472669e+2, -782499.06, -842750.7, -10.674364, 0.0008412757, 0.00022835759, -782499.06, -44819.688, 0.0, 10.006172, 9.927038 
5.735447e+3, 2.3465377e+2, -684106.6, -744609.56, -22.38767, 0.00084088696, 0.000013985829, -684106.56, -43712.836, 0.0, 10.006166, 9.926706 
5.7354456e+3, 2.4457394e+2, -595822.2, -666715.2, -8.197151, 0.0008404874, 0.00017373175, -595822.2, -52645.88, 0.0, 10.006161, 9.913255 
5.735445e+3, 2.544873e+2, -497110.1, -568076.94, -19.63879, 0.0008400734, -0.000010439379, -497110.1, -51084.895, 0.0, 10.006156, 9.913154 
5.7354444e+3, 2.643936e+2, -408921.13, -490791.47, -4.1967936, 0.00083959196, 0.00023354848, -408921.13, -59977.46, 0.0, 10.00615, 9.899059 
5.735443e+3, 2.7429318e+2, -309676.03, -391216.34, -15.150299, 0.0008390245, -0.00011460161, -309676.03, -57748.56, 0.0, 10.006146, 9.899478 
5.7354426e+3, 2.841846e+2, -223148.64, -317792.47, -0.40111366, 0.00083863834, 0.00031501596, -223148.64, -68157.195, 0.0, 10.006142, 9.88264 
5.735442e+3, 2.940683e+2, -123475.445, -217498.84, -10.491377, 0.00083849276, -0.000168603, -123475.445, -65344.242, 0.0, 10.006138, 9.883427 
5.7354414e+3, 3.039798e+2, -34002.824, -84940.375, 3.6217625, 0.00083809515, 0.00025334323, -34002.824, -34002.824, 0.0, 10.006134, 9.939091 
5.735441e+3, 3.1392074e+2, -32953.813, -82751.21, -6.372915, 0.0008373284, 0.000015777501, -32953.813, -32953.813, 0.0, 10.00613, 9.940571 
5.7454646e+3, 1.2509876e+2, -1711956.3, -1723136.5, 5.2534633, 0.0008550854, 0.00018072642, -1711956.3, 2076.8674, 0.0, 10.00639, 9.991571 
5.745464e+3, 1.350902e+2, -1614625.8, -1626391.4, -6.685989, 0.0008535446, 0.0000012471224, -1614625.8, 1491.4961, 0.0, 10.006381, 9.9907875 
5.745462e+3, 1.4507507e+2, -1526568.3, -1547151.4, 0.19536972, 0.00085273286, 0.0002619127, -1526568.3, -8302.876, 0.0, 10.006372, 9.979103 
5.7454616e+3, 1.5505415e+2, -1428888.5, -1449868.8, -11.960617, 0.0008526108, 0.00007176526, -1428888.5, -8418.175, 0.0, 10.006364, 9.978572 
5.74546e+3, 1.650266e+2, -1340880.4, -1371047.5, -5.7255654, 0.0008521209, 0.00015326947, -1340880.4, -18140.205, 0.0, 10.006355, 9.966481 
5.745459e+3, 1.7499314e+2, -1242969.4, -1273447.0, -17.062124, 0.0008512726, 0.00004952071, -1242969.4, -17901.299, 0.0, 10.006348, 9.966067 
5.745458e+3, 1.8495299e+2, -1155020.5, -1195079.6, -9.118714, 0.0008506871, 0.00019321914, -1155020.5, -27558.824, 0.0, 10.006341, 9.953513 
5.745457e+3, 1.9490652e+2, -1056916.4, -1097233.1, -21.477428, 0.0008503627, 0.00005882647, -1056916.4, -26999.37, 0.0, 10.006333, 9.953169 
5.745456e+3, 2.0485342e+2, -968794.5, -1018887.56, -9.415862, 0.00084984745, 0.00017885052, -968794.5, -36356.926, 0.0, 10.006327, 9.940398 
5.745455e+3, 2.1479383e+2, -870551.06, -920901.5, -21.60551, 0.00084913097, -0.000016494105, -870551.06, -35529.81, 0.0, 10.00632, 9.940057 
5.745454e+3, 2.2472757e+2, -782306.6, -842690.06, -8.353369, 0.0008486156, 0.00022881616, -782306.6, -44635.992, 0.0, 10.006313, 9.927005 
5.745453e+3, 2.3465464e+2, -683916.2, -744550.5, -20.330217, 0.00084831874, 0.000014516392, -683916.2, -43530.824, 0.0, 10.006308, 9.926674 
5.745452e+3, 2.4457476e+2, -595633.06, -666657.3, -6.085062, 0.0008479089, 0.00017423628, -595633.06, -52464.844, 0.0, 10.006301, 9.913221 
5.7454515e+3, 2.544881e+2, -496922.06, -568020.1, -17.65395, 0.0008473658, -0.000010074937, -496922.03, -50904.598, 0.0, 10.006296, 9.913121 
5.745451e+3, 2.6439434e+2, -408734.47, -490736.25, -2.2521996, 0.0008468506, 0.00023392207, -408734.47, -59798.215, 0.0, 10.006291, 9.899026 
5.7454497e+3, 2.7429393e+2, -309491.28, -391162.63, -13.597735, 0.0008463677, -0.00011403316, -309491.28, -57570.887, 0.0, 10.006286, 9.899445 
5.7454485e+3, 2.841853e+2, -222964.06, -317737.5, 1.1694268, 0.0008460266, 0.0003155449, -222964.06, -67979.39, 0.0, 10.006281, 9.882608 
5.7454485e+3, 2.9406896e+2, -123292.4, -217445.05, -8.781991, 0.000845873, -0.00016842883, -123292.4, -65167.668, 0.0, 10.006277, 9.883395 
5.745448e+3, 3.0398044e+2, -33824.535, -84893.63, 5.296139, 0.0008454177, 0.0002534969, -33824.535, -33824.535, 0.0, 10.006273, 9.939055 
5.7454467e+3, 3.1392136e+2, -32775.723, -82705.02, -5.4294477, 0.00084452145, 0.000016402138, -32775.72, -32775.72, 0.0, 10.006269, 9.940535 
5.755471e+3, 1.2509999e+2, -1711981.5, -1723187.3, 2.0659003, 0.00086238683, 0.00018131622, -1711981.5, 2039.7627, 0.0, 10.006391, 9.991539 
5.7554704e+3, 1.3509136e+2, -1614650.6, -1626441.9, -9.867921, 0.00086115027, 0.000002005174, -1614650.6, 1454.9534, 0.0, 10.006382, 9.990756 
5.7554686e+3, 1.4507622e+2, -1526593.1, -1547202.1, -2.9035163, 0.00086033484, 0.00026266367, -1526593.1, -8339.123, 0.0, 10.006373, 9.979071 
5.755468e+3, 1.5505527e+2, -1428913.3, -1449919.1, -15.058068, 0.00085991103, 0.000072339084, -1428913.1, -8453.78, 0.0, 10.006366, 9.978539 
5.755466e+3, 1.6502771e+2, -1340902.9, -1371094.0, -8.546025, 0.0008594087, 0.00015375046, -1340902.9, -18173.332, 0.0, 10.006357, 9.966452 
5.7554656e+3, 1.749942e+2, -1242991.6, -1273493.3, -19.882475, 0.0008588324, 0.00004999186, -1242991.6, -17933.889, 0.0, 10.00635, 9.966038 
5.7554644e+3, 1.8495402e+2, -1155044.9, -1195130.4, -11.819502, 0.00085825735, 0.00019376108, -1155044.9, -27593.22, 0.0, 10.006342, 9.95348 
5.755463e+3, 1.9490752e+2, -1056940.4, -1097283.5, -24.180317, 0.00085767946, 0.00005952062, -1056940.4, -27033.14, 0.0, 10.006335, 9.953136 
5.7554626e+3, 2.0485437e+2, -968818.4, -1018937.94, -11.812844, 0.0008571249, 0.0001795031, -968818.4, -36390.246, 0.0, 10.006328, 9.940366 
5.7554615e+3, 2.1479477e+2, -870574.75, -920951.6, -23.999588, 0.00085659366, -0.000016086093, -870574.7, -35562.54, 0.0, 10.006322, 9.940024 
5.75546e+3, 2.2472847e+2, -782330.2, -842740.3, -10.655464, 0.00085613684, 0.00022916782, -782330.2, -44668.34, 0.0, 10.006315, 9.926972 
5.7554597e+3, 2.346555e+2, -683939.44, -744600.44, -22.631289, 0.0008557592, 0.0000150183505, -683939.44, -43562.527, 0.0, 10.006309, 9.9266405 
5.7554585e+3, 2.4457557e+2, -595656.06, -666707.06, -8.03143, 0.0008552619, 0.00017479884, -595656.06, -52495.96, 0.0, 10.006303, 9.913189 
5.755457e+3, 2.544889e+2, -496944.78, -568069.6, -19.59317, 0.0008546238, -0.000009556024, -496944.75, -50935.117, 0.0, 10.006298, 9.913088 
5.7554567e+3, 2.6439512e+2, -408757.5, -490786.7, -4.0780973, 0.00085414166, 0.00023438068, -408757.5, -59828.746, 0.0, 10.006292, 9.898993 
5.755456e+3, 2.7429464e+2, -309514.03, -391212.8, -15.406883, 0.0008538506, -0.00011365523, -309514.03, -57600.8, 0.0, 10.006288, 9.899411 
5.755455e+3, 2.84186e+2, -222985.02, -317784.3, -0.42845502, 0.000853554, 0.0003158874, -222985.02, -68007.18, 0.0, 10.006283, 9.882577 
5.7554543e+3, 2.9406965e+2, -123312.93, -217491.28, -10.386221, 0.00085324695, -0.00016806164, -123312.93, -65194.72, 0.0, 10.006279, 9.883364 
5.7554543e+3, 3.0398107e+2, -33847.918, -84945.91, 3.9975019, 0.0008526701, 0.0002539151, -33847.914, -33847.914, 0.0, 10.006274, 9.93902 
5.755453e+3, 3.1392193e+2, -32799.49, -82758.03, -6.6691456, 0.00085169997, 0.000016911015, -32799.484, -32799.484, 0.0, 10.006271, 9.940498 
5.7654774e+3, 1.2510121e+2, -1711770.0, -1723111.3, 5.506527, 0.00086979254, 0.00018196269, -1711770.0, 2239.2349, 0.0, 10.006538, 9.991507 
5.765477e+3, 1.3509257e+2, -1614441.6, -1626367.6, -6.5898933, 0.0008687052, 0.0000026237362, -1614441.5, 1652.3429, 0.0, 10.006529, 9.990724 
5.765475e+3, 1.4507738e+2, -1526385.9, -1547129.8, 0.4339412, 0.00086789246, 0.00026326507, -1526385.9, -8143.1646, 0.0, 10.00652, 9.979038 
5.765474e+3, 1.550564e+2, -1428707.0, -1449847.9, -11.966221, 0.0008673293, 0.000072932846, -1428707.0, -8258.585, 0.0, 10.006512, 9.978507 
5.765473e+3, 1.650288e+2, -1340695.8, -1371020.0, -5.504202, 0.0008668079, 0.00015433604, -1340695.8, -17977.05, 0.0, 10.006503, 9.966421 
5.7654715e+3, 1.7499527e+2, -1242786.8, -1273420.9, -17.013824, 0.00086633075, 0.00005056891, -1242786.6, -17739.39, 0.0, 10.006495, 9.966007 
5.765471e+3, 1.8495505e+2, -1154843.6, -1195063.6, -8.90851, 0.00086575345, 0.00019432767, -1154843.6, -27402.117, 0.0, 10.006487, 9.953447 
5.7654697e+3, 1.9490853e+2, -1056740.4, -1097218.0, -21.50811, 0.0008650707, 0.00006007488, -1056740.4, -26842.922, 0.0, 10.00648, 9.953103 
5.7654685e+3, 2.0485534e+2, -968619.7, -1018873.56, -9.1652355, 0.00086452597, 0.00018004906, -968619.7, -36201.06, 0.0, 10.006473, 9.940332 
5.765468e+3, 2.147957e+2, -870378.1, -920888.9, -21.547377, 0.0008641245, -0.000015544258, -870378.1, -35375.137, 0.0, 10.006465, 9.939991 
5.7654667e+3, 2.2472937e+2, -782135.06, -842679.0, -8.146716, 0.00086364936, 0.00022967024, -782135.06, -44482.008, 0.0, 10.006458, 9.926939 
5.765466e+3, 2.3465638e+2, -683745.25, -744540.1, -20.323296, 0.0008630909, 0.000015442703, -683745.25, -43376.844, 0.0, 10.006453, 9.926607 
5.765465e+3, 2.4457641e+2, -595463.06, -666648.0, -5.7648234, 0.00086256594, 0.00017525595, -595463.06, -52311.176, 0.0, 10.006447, 9.913156 
5.765464e+3, 2.544897e+2, -496753.84, -568012.06, -17.647976, 0.00086207787, -0.000008937596, -496753.84, -50752.06, 0.0, 10.00644, 9.913054 
5.765463e+3, 2.6439586e+2, -408568.16, -490730.63, -2.0936043, 0.00086164684, 0.00023492848, -408568.16, -59646.918, 0.0, 10.006434, 9.898959 
5.7654625e+3, 2.742954e+2, -309326.13, -391158.03, -13.378552, 0.00086128374, -0.00011346569, -309326.13, -57420.08, 0.0, 10.00643, 9.899377 
5.7654613e+3, 2.8418672e+2, -222797.16, -317728.63, 1.5769472, 0.0008609218, 0.00031610034, -222797.16, -67826.19, 0.0, 10.006425, 9.8825445 
5.765461e+3, 2.940703e+2, -123126.305, -217436.66, -9.036805, 0.00086055876, -0.00016731459, -123126.305, -65014.65, 0.0, 10.00642, 9.883331 
5.765461e+3, 3.0398172e+2, -33666.06, -84897.92, 5.263023, 0.00085999875, 0.0002546613, -33666.06, -33666.06, 0.0, 10.006416, 9.938984 
5.7654595e+3, 3.1392255e+2, -32618.92, -82711.07, -5.02927, 0.0008591512, 0.00001687678, -32618.92, -32618.92, 0.0, 10.006412, 9.940462 
5.7754844e+3, 1.2510245e+2, -1711795.5, -1723162.6, 2.0129063, 0.0008772973, 0.0001826571, -1711795.5, 2201.6023, 0.0, 10.00654, 9.991474 
5.7754827e+3, 1.3509376e+2, -1614466.8, -1626418.9, -10.077661, 0.0008762289, 0.000003127519, -1614466.8, 1615.3629, 0.0, 10.006531, 9.990691 
5.775482e+3, 1.4507855e+2, -1526411.3, -1547181.5, -2.6574793, 0.00087542407, 0.00026374334, -1526411.3, -8180.0225, 0.0, 10.006522, 9.979005 
5.77548e+3, 1.5505752e+2, -1428732.1, -1449899.4, -15.054987, 0.00087485794, 0.0000735442, -1428732.1, -8294.85, 0.0, 10.006514, 9.978474 
5.7754797e+3, 1.6502991e+2, -1340718.6, -1371067.3, -8.555862, 0.0008743119, 0.00015500959, -1340718.6, -18010.664, 0.0, 10.006505, 9.966391 
5.7754785e+3, 1.7499635e+2, -1242809.3, -1273467.8, -20.068142, 0.0008737888, 0.00005123524, -1242809.1, -17772.404, 0.0, 10.006496, 9.965977 
5.775477e+3, 1.8495609e+2, -1154868.4, -1195115.3, -11.633716, 0.00087319844, 0.00019491588, -1154868.4, -27437.07, 0.0, 10.006489, 9.953414 
5.775476e+3, 1.9490953e+2, -1056764.9, -1097269.3, -24.231087, 0.0008725359, 0.000060513452, -1056764.8, -26877.281, 0.0, 10.006481, 9.95307 
5.775475e+3, 2.048563e+2, -968643.94, -1018924.75, -11.812186, 0.00087204186, 0.00018050702, -968643.94, -36234.863, 0.0, 10.0064745, 9.940299 
5.7754743e+3, 2.1479665e+2, -870402.06, -920939.7, -24.198355, 0.0008717225, -0.000014889929, -870402.06, -35408.285, 0.0, 10.006467, 9.939958 
5.775473e+3, 2.2473027e+2, -782158.94, -842730.0, -10.425593, 0.00087116496, 0.00023029941, -782158.94, -44514.785, 0.0, 10.00646, 9.926906 
5.775472e+3, 2.3465724e+2, -683768.9, -744590.9, -22.594034, 0.0008703436, 0.000015803711, -683768.9, -43409.016, 0.0, 10.006454, 9.926574 
5.7754713e+3, 2.4457726e+2, -595486.7, -666699.0, -7.947447, 0.0008698411, 0.00017562613, -595486.7, -52343.008, 0.0, 10.006448, 9.913121 
5.77547e+3, 2.544905e+2, -496777.13, -568062.8, -19.825182, 0.0008697067, -0.00000823631, -496777.13, -50783.25, 0.0, 10.006442, 9.913021 
5.7754695e+3, 2.6439664e+2, -408591.03, -490780.9, -4.0076175, 0.00086934114, 0.00023555086, -408591.03, -59677.387, 0.0, 10.006436, 9.898926 
5.775469e+3, 2.742961e+2, -309348.7, -391207.97, -15.290277, 0.0008686858, -0.00011343078, -309348.7, -57449.887, 0.0, 10.006432, 9.8993435 
5.7754683e+3, 2.841874e+2, -222819.25, -317777.9, -0.08665541, 0.00086816715, 0.00031620768, -222819.25, -67855.195, 0.0, 10.006427, 9.882511 
5.775467e+3, 2.94071e+2, -123148.08, -217485.58, -10.663714, 0.00086783, -0.00016625159, -123148.08, -65043.023, 0.0, 10.006422, 9.883299 
5.7754666e+3, 3.0398235e+2, -33688.85, -84949.07, 3.7489667, 0.0008674025, 0.0002556798, -33688.85, -33688.85, 0.0, 10.006417, 9.938949 
5.775466e+3, 3.1392315e+2, -32641.855, -82762.53, -6.555023, 0.00086684065, 0.00001639177, -32641.854, -32641.854, 0.0, 10.006413, 9.940427 
5.785491e+3, 1.251037e+2, -1711581.5, -1723085.9, 5.6567097, 0.00088497146, 0.00018330938, -1711581.5, 2403.4846, 0.0, 10.006689, 9.991442 
5.7854897e+3, 1.3509499e+2, -1614253.6, -1626343.0, -6.6562057, 0.0008836612, 0.0000037591365, -1614253.6, 1816.6729, 0.0, 10.0066805, 9.990658 
5.7854885e+3, 1.4507973e+2, -1526199.9, -1547107.6, 0.7610355, 0.00088284066, 0.0002643587, -1526199.9, -7980.109, 0.0, 10.006671, 9.9789715 
5.785487e+3, 1.5505867e+2, -1428523.0, -1449827.1, -11.835127, 0.00088247657, 0.000074146825, -1428523.0, -8096.9727, 0.0, 10.006661, 9.97844 
5.785486e+3, 1.6503102e+2, -1340508.8, -1370992.3, -5.316819, 0.00088193617, 0.00015561149, -1340508.8, -17811.756, 0.0, 10.006653, 9.96636 
5.785485e+3, 1.7499743e+2, -1242600.4, -1273394.0, -17.053583, 0.0008812262, 0.000051848336, -1242600.4, -17574.246, 0.0, 10.006645, 9.965946 
5.785484e+3, 1.8495713e+2, -1154663.3, -1195047.0, -8.631896, 0.00088062807, 0.00019551013, -1154663.3, -27242.271, 0.0, 10.006637, 9.95338 
5.785483e+3, 1.9491056e+2, -1056562.0, -1097202.9, -21.38723, 0.0008801381, 0.00006105863, -1056562.0, -26684.377, 0.0, 10.006628, 9.953036 
5.7854813e+3, 2.0485729e+2, -968442.5, -1018859.7, -8.933178, 0.0008796383, 0.00018103051, -968442.5, -36043.055, 0.0, 10.00662, 9.940266 
5.785481e+3, 2.1479759e+2, -870201.7, -920875.7, -21.599836, 0.0008791269, -0.000014359426, -870201.6, -35217.16, 0.0, 10.006614, 9.939924 
5.7854795e+3, 2.2473119e+2, -781959.75, -842667.25, -7.833606, 0.00087854906, 0.00023084365, -781959.75, -44324.598, 0.0, 10.006607, 9.926871 
5.7854784e+3, 2.3465812e+2, -683571.8, -744529.75, -20.20176, 0.00087789557, 0.00001636901, -683571.75, -43220.574, 0.0, 10.006599, 9.92654 
5.785478e+3, 2.4457811e+2, -595291.1, -666639.3, -5.5385284, 0.000877432, 0.00017612889, -595291.1, -52155.77, 0.0, 10.006594, 9.913088 
5.785477e+3, 2.5449133e+2, -496582.97, -568004.3, -17.55443, 0.0008771869, -0.000007893121, -496582.97, -50597.063, 0.0, 10.006587, 9.912987 
5.785476e+3, 2.6439744e+2, -408398.06, -490723.75, -1.7463679, 0.0008767582, 0.00023594144, -408398.06, -59492.055, 0.0, 10.006581, 9.898891 
5.7854754e+3, 2.7429685e+2, -309157.16, -391152.06, -13.472458, 0.0008760986, -0.00011273596, -309157.13, -57265.645, 0.0, 10.006577, 9.899309 
5.785475e+3, 2.8418812e+2, -222628.02, -317721.22, 1.7197866, 0.00087561173, 0.0003168522, -222628.02, -67670.93, 0.0, 10.006571, 9.882478 
5.7854736e+3, 2.9407164e+2, -122958.76, -217430.28, -8.687086, 0.00087535434, -0.00016613289, -122958.76, -64860.348, 0.0, 10.006566, 9.8832655 
5.785473e+3, 3.03983e+2, -33504.367, -84900.41, 5.7045627, 0.0008749179, 0.00025574237, -33504.367, -33504.367, 0.0, 10.006561, 9.938912 
5.7854724e+3, 3.1392378e+2, -32457.857, -82714.5, -5.2484636, 0.00087421754, 0.000017087095, -32457.857, -32457.857, 0.0, 10.0065565, 9.940391 
5.7954973e+3, 1.2510495e+2, -1711607.4, -1723138.3, 2.2207258, 0.0008927965, 0.00018392823, -1711607.4, 2365.2495, 0.0, 10.006691, 9.991408 
5.795496e+3, 1.350962e+2, -1614279.3, -1626395.1, -10.08607, 0.00089103077, 0.000004497581, -1614279.3, 1779.0344, 0.0, 10.006682, 9.990625 
5.795495e+3, 1.4508092e+2, -1526225.6, -1547160.3, -2.6343462, 0.0008901751, 0.00026508849, -1526225.6, -8017.552, 0.0, 10.006673, 9.978938 
5.795494e+3, 1.5505983e+2, -1428548.5, -1449879.5, -15.226146, 0.00089018076, 0.000074743475, -1428548.5, -8133.7373, 0.0, 10.006663, 9.978407 
5.7954925e+3, 1.6503213e+2, -1340532.0, -1371040.5, -8.340436, 0.00088967086, 0.00015615528, -1340532.0, -17845.916, 0.0, 10.006655, 9.96633 
5.795492e+3, 1.7499852e+2, -1242623.4, -1273441.9, -20.077433, 0.000888659, 0.000052418152, -1242623.4, -17607.855, 0.0, 10.006646, 9.965916 
5.79549e+3, 1.8495819e+2, -1154688.4, -1195099.3, -11.630492, 0.00088805746, 0.00019611028, -1154688.4, -27277.656, 0.0, 10.006639, 9.953346 
5.7954895e+3, 1.9491157e+2, -1056586.6, -1097254.8, -24.391153, 0.0008878646, 0.00006169354, -1056586.6, -26719.1, 0.0, 10.00663, 9.953003 
5.7954884e+3, 2.0485827e+2, -968467.25, -1018911.94, -11.5606365, 0.0008873123, 0.00018160969, -968467.25, -36077.48, 0.0, 10.006622, 9.940231 
5.795487e+3, 2.1479854e+2, -870226.1, -920927.7, -24.219893, 0.0008863827, -0.000013930699, -870226.1, -35250.97, 0.0, 10.006616, 9.93989 
5.7954866e+3, 2.2473212e+2, -781984.0, -842719.1, -10.349741, 0.0008858365, 0.0002313182, -781984.0, -44357.863, 0.0, 10.006608, 9.926837 
5.7954854e+3, 2.3465902e+2, -683595.7, -744581.25, -22.719751, 0.00088570744, 0.000017104616, -683595.7, -43253.195, 0.0, 10.006601, 9.926506 
5.795484e+3, 2.4457896e+2, -595314.9, -666690.9, -7.798814, 0.00088529603, 0.00017674264, -595314.9, -52187.902, 0.0, 10.006595, 9.9130535 
5.7954836e+3, 2.5449213e+2, -496606.44, -568055.56, -19.807325, 0.0008845548, -0.000007845617, -496606.44, -50628.535, 0.0, 10.006589, 9.912952 
5.795483e+3, 2.643982e+2, -408421.75, -490775.75, -3.7399564, 0.00088395627, 0.00023614102, -408421.75, -59523.41, 0.0, 10.006583, 9.898856 
5.795482e+3, 2.742976e+2, -309180.53, -391203.8, -15.4484005, 0.0008835321, -0.000111492955, -309180.53, -57296.395, 0.0, 10.0065775, 9.899275 
5.795481e+3, 2.8418884e+2, -222649.78, -317769.94, -0.14861119, 0.00088323356, 0.00031794276, -222649.78, -67699.72, 0.0, 10.006573, 9.882445 
5.7954806e+3, 2.9407233e+2, -122980.086, -217478.45, -10.555115, 0.0008831001, -0.00016679718, -122980.086, -64888.363, 0.0, 10.006567, 9.883233 
5.7954794e+3, 3.0398363e+2, -33528.16, -84953.85, 4.105714, 0.00088253675, 0.00025501294, -33528.16, -33528.16, 0.0, 10.006562, 9.938876 
5.795479e+3, 3.1392437e+2, -32481.957, -82768.586, -6.818207, 0.0008813455, 0.000018764147, -32481.957, -32481.957, 0.0, 10.006558, 9.940352 
5.8055043e+3, 1.2510622e+2, -1711389.3, -1723059.8, 5.9336333, 0.00090030266, 0.00018461618, -1711389.3, 2571.0906, 0.0, 10.006844, 9.991375 
5.805503e+3, 1.3509743e+2, -1614063.4, -1626318.4, -6.537762, 0.0008987371, 0.000005135542, -1614063.4, 1982.9109, 0.0, 10.006833, 9.990592 
5.805502e+3, 1.450821e+2, -1526011.5, -1547085.5, 0.9254632, 0.00089786795, 0.000265713, -1526011.5, -7815.1167, 0.0, 10.006824, 9.978905 
5.805501e+3, 1.5506099e+2, -1428335.4, -1449805.9, -11.885551, 0.00089765375, 0.00007538886, -1428335.4, -7932.031, 0.0, 10.006815, 9.978374 
5.8054996e+3, 1.6503327e+2, -1340318.1, -1370963.9, -4.9663415, 0.00089714647, 0.00015677871, -1340318.1, -17643.102, 0.0, 10.006805, 9.966298 
5.8054984e+3, 1.7499962e+2, -1242411.8, -1273367.1, -16.849777, 0.00089635537, 0.00005297789, -1242411.8, -17407.025, 0.0, 10.006797, 9.965884 
5.805497e+3, 1.8495926e+2, -1154480.5, -1195030.4, -8.418829, 0.0008957518, 0.00019666455, -1154480.5, -27080.313, 0.0, 10.006788, 9.953312 
5.805496e+3, 1.949126e+2, -1056379.9, -1097187.0, -21.481266, 0.00089533266, 0.00006230104, -1056379.9, -26522.469, 0.0, 10.00678, 9.952969 
5.8054954e+3, 2.0485929e+2, -968261.75, -1018845.4, -8.619008, 0.0008947497, 0.00018221521, -968261.75, -35881.77, 0.0, 10.006772, 9.940197 
5.805494e+3, 2.1479951e+2, -870022.7, -920862.75, -21.410034, 0.0008939939, -0.000013384841, -870022.6, -35056.96, 0.0, 10.006764, 9.939856 
5.805493e+3, 2.2473305e+2, -781782.2, -842655.7, -7.5512233, 0.0008934971, 0.00023182365, -781782.2, -44165.13, 0.0, 10.006757, 9.926803 
5.8054924e+3, 2.3465991e+2, -683395.4, -744519.2, -20.193876, 0.0008932815, 0.000017590775, -683395.4, -43061.62, 0.0, 10.00675, 9.926472 
5.805491e+3, 2.4457982e+2, -595115.7, -666629.9, -5.242905, 0.00089281274, 0.00017725347, -595115.7, -51997.105, 0.0, 10.006743, 9.913019 
5.80549e+3, 2.5449294e+2, -496408.56, -567995.8, -17.491243, 0.000892048, -0.0000072593284, -496408.56, -50438.742, 0.0, 10.006737, 9.912918 
5.8054894e+3, 2.64399e+2, -408225.47, -490717.78, -1.4483663, 0.0008914642, 0.00023667223, -408225.47, -59334.883, 0.0, 10.006731, 9.898822 
5.805489e+3, 2.7429837e+2, -308986.3, -391147.47, -13.287341, 0.0008911021, -0.000111178146, -308986.3, -57109.574, 0.0, 10.006724, 9.89924 
5.8054876e+3, 2.8418955e+2, -222455.58, -317712.2, 2.0125089, 0.0008908031, 0.0003182591, -222455.58, -67512.59, 0.0, 10.006719, 9.882412 
5.805487e+3, 2.9407302e+2, -122787.05, -217421.67, -8.732259, 0.0008905854, -0.0001661888, -122787.05, -64702.07, 0.0, 10.006714, 9.8832 
5.8054864e+3, 3.039843e+2, -33340.11, -84904.62, 5.84469, 0.00088999304, 0.00025563958, -33340.11, -33340.11, 0.0, 10.006709, 9.938839 
5.805486e+3, 3.13925e+2, -32294.564, -82720.16, -5.249829, 0.0008888532, 0.000019011834, -32294.564, -32294.564, 0.0, 10.006704, 9.940315 
5.8155113e+3, 1.2510748e+2, -1711415.5, -1723112.9, 2.2264934, 0.00090755994, 0.00018536171, -1711415.5, 2532.338, 0.0, 10.006845, 9.991342 
5.8155096e+3, 1.3509868e+2, -1614089.4, -1626371.1, -10.240743, 0.00090673234, 0.0000056920835, -1614089.4, 1944.8053, 0.0, 10.006835, 9.990559 
5.815509e+3, 1.4508331e+2, -1526037.8, -1547139.0, -2.4517915, 0.000905867, 0.0002662523, -1526037.6, -7853.142, 0.0, 10.006825, 9.97887 
5.815507e+3, 1.5506217e+2, -1428361.3, -1449859.0, -15.258822, 0.0009049491, 0.00007607541, -1428361.3, -7969.403, 0.0, 10.006817, 9.978339 
5.8155066e+3, 1.6503441e+2, -1340341.5, -1371012.8, -8.272525, 0.00090442173, 0.00015746884, -1340341.5, -17677.693, 0.0, 10.006807, 9.966267 
5.815505e+3, 1.7500073e+2, -1242434.9, -1273415.6, -20.159456, 0.0009042805, 0.000053530934, -1242434.9, -17441.006, 0.0, 10.006799, 9.965853 
5.815504e+3, 1.8496032e+2, -1154506.1, -1195083.9, -11.397446, 0.00090367574, 0.00019718247, -1154506.1, -27116.398, 0.0, 10.00679, 9.953278 
5.815503e+3, 1.9491364e+2, -1056405.1, -1097240.1, -24.455141, 0.0009026, 0.00006288651, -1056405.1, -26557.924, 0.0, 10.006782, 9.952934 
5.815502e+3, 2.0486027e+2, -968286.7, -1018898.1, -11.4706, 0.00090200495, 0.00018284307, -968286.7, -35916.555, 0.0, 10.006774, 9.940163 
5.815501e+3, 2.1480048e+2, -870047.3, -920915.2, -24.266956, 0.00090191036, -0.000012740814, -870047.25, -35091.098, 0.0, 10.006766, 9.939821 
5.8154994e+3, 2.2473398e+2, -781806.9, -842708.6, -10.17151, 0.0009014772, 0.00023235618, -781806.9, -44198.996, 0.0, 10.006759, 9.926768 
5.815499e+3, 2.3466082e+2, -683419.75, -744571.8, -22.805761, 0.00090067036, 0.00001787188, -683419.75, -43094.816, 0.0, 10.006752, 9.926436 
5.815498e+3, 2.4458069e+2, -595139.9, -666682.4, -7.5561857, 0.0009000543, 0.00017768015, -595139.9, -52029.76, 0.0, 10.006745, 9.912984 
5.815497e+3, 2.544938e+2, -496432.44, -568048.06, -19.797564, 0.0008996572, -0.0000062268064, -496432.44, -50470.777, 0.0, 10.006739, 9.912883 
5.815496e+3, 2.6439977e+2, -408249.34, -490770.3, -3.6692066, 0.0008992406, 0.00023747832, -408249.34, -59366.57, 0.0, 10.006733, 9.898787 
5.815495e+3, 2.7429914e+2, -309009.84, -391199.7, -15.499837, 0.0008987964, -0.00011162998, -309009.84, -57140.566, 0.0, 10.006726, 9.899204 
5.8154947e+3, 2.8419027e+2, -222477.88, -317762.2, 0.10368991, 0.00089834054, 0.00031793656, -222477.88, -67542.0, 0.0, 10.006721, 9.882379 
5.8154935e+3, 2.9407373e+2, -122808.945, -217471.19, -10.6303215, 0.0008978669, -0.00016452587, -122808.945, -64730.77, 0.0, 10.006716, 9.883166 
5.815493e+3, 3.0398494e+2, -33364.215, -84958.83, 4.1689415, 0.00089732674, 0.00025738904, -33364.215, -33364.215, 0.0, 10.006711, 9.938801 
5.815492e+3, 3.139256e+2, -32318.979, -82774.96, -6.8826666, 0.0008966874, 0.000018076222, -32318.979, -32318.979, 0.0, 10.006706, 9.940277 
5.825518e+3, 1.2510876e+2, -1711194.1, -1723033.4, 6.1671567, 0.0009152653, 0.00018598286, -1711194.1, 2741.1057, 0.0, 10.007, 9.991308 
5.8255166e+3, 1.3509992e+2, -1613869.6, -1626293.1, -6.5471992, 0.00091430714, 0.0000063496345, -1613869.6, 2152.3167, 0.0, 10.0069895, 9.990524 
5.8255154e+3, 1.4508453e+2, -1525819.8, -1547062.9, 1.3162696, 0.0009134505, 0.00026690232, -1525819.8, -7647.1245, 0.0, 10.006979, 9.978836 
5.825514e+3, 1.5506335e+2, -1428145.3, -1449784.4, -11.683461, 0.00091267435, 0.00007667491, -1428145.3, -7764.933, 0.0, 10.006969, 9.978305 
5.825513e+3, 1.6503555e+2, -1340124.6, -1370935.3, -4.7665076, 0.0009121345, 0.00015807939, -1340124.6, -17472.043, 0.0, 10.00696, 9.966235 
5.8255124e+3, 1.7500184e+2, -1242219.4, -1273339.4, -16.903248, 0.00091182993, 0.00005421291, -1242219.4, -17236.426, 0.0, 10.006951, 9.965821 
5.8255106e+3, 1.8496141e+2, -1154294.4, -1195013.6, -8.064389, 0.0009112169, 0.00019782202, -1154294.4, -26915.27, 0.0, 10.006943, 9.953242 
5.82551e+3, 1.9491468e+2, -1056195.4, -1097171.4, -21.253675, 0.0009102886, 0.00006336929, -1056195.4, -26358.346, 0.0, 10.006934, 9.952899 
5.825509e+3, 2.048613e+2, -968078.4, -1018830.9, -8.321529, 0.00090972666, 0.0001833254, -968078.4, -35718.164, 0.0, 10.006926, 9.940127 
5.8255076e+3, 2.1480145e+2, -869840.56, -920849.25, -21.443909, 0.00090954604, -0.000012095744, -869840.56, -34893.977, 0.0, 10.006918, 9.939787 
5.8255064e+3, 2.2473492e+2, -781601.4, -842643.94, -7.2906156, 0.00090905005, 0.00023301315, -781601.4, -44002.72, 0.0, 10.00691, 9.926733 
5.825505e+3, 2.3466171e+2, -683215.5, -744508.3, -20.066557, 0.00090820575, 0.000018375697, -683215.5, -42899.457, 0.0, 10.006903, 9.926401 
5.8255047e+3, 2.4458157e+2, -594937.1, -666620.44, -4.8521395, 0.00090762257, 0.00017812688, -594937.1, -51835.582, 0.0, 10.006896, 9.912949 
5.825504e+3, 2.5449464e+2, -496231.94, -567987.8, -17.375763, 0.0009073398, -0.0000057257857, -496231.94, -50278.484, 0.0, 10.006888, 9.9128475 
5.825503e+3, 2.644006e+2, -408050.22, -490711.3, -1.2042218, 0.00090692996, 0.00023798131, -408050.22, -59175.293, 0.0, 10.006882, 9.898751 
5.8255017e+3, 2.742999e+2, -308811.75, -391141.78, -13.156664, 0.0009063589, -0.00011118986, -308811.75, -56949.977, 0.0, 10.006876, 9.899169 
5.8255017e+3, 2.84191e+2, -222279.97, -317703.78, 2.3914304, 0.00090585236, 0.0003183833, -222279.97, -67351.27, 0.0, 10.00687, 9.882344 
5.8255005e+3, 2.9407445e+2, -122612.8, -217414.14, -8.785933, 0.0009054303, -0.00016398003, -122612.8, -64541.465, 0.0, 10.006865, 9.883132 
5.8255e+3, 3.0398563e+2, -33172.95, -84908.11, 5.9403744, 0.00090492674, 0.00025789617, -33172.95, -33172.95, 0.0, 10.00686, 9.938764 
5.825499e+3, 3.1392625e+2, -32128.973, -82725.21, -4.935765, 0.0009043015, 0.000018345962, -32128.973, -32128.973, 0.0, 10.006854, 9.94024 
5.835525e+3, 1.2511006e+2, -1711221.0, -1723087.5, 2.3474956, 0.00092334935, 0.00018650402, -1711221.0, 2701.635, 0.0, 10.007002, 9.991274 
5.835524e+3, 1.3510118e+2, -1613896.0, -1626346.9, -10.357713, 0.00092155044, 0.000007090969, -1613896.0, 2113.5283, 0.0, 10.006991, 9.99049 
5.8355224e+3, 1.4508575e+2, -1525846.4, -1547117.1, -2.2472215, 0.00092070655, 0.00026764406, -1525846.4, -7685.6816, 0.0, 10.006981, 9.978801 
5.835521e+3, 1.5506452e+2, -1428171.5, -1449838.4, -15.246169, 0.0009207643, 0.000077204604, -1428171.5, -7802.8335, 0.0, 10.006971, 9.978271 
5.83552e+3, 1.6503671e+2, -1340148.5, -1370985.0, -8.128691, 0.00092021783, 0.00015862627, -1340148.5, -17507.293, 0.0, 10.006962, 9.966203 
5.835519e+3, 1.7500296e+2, -1242243.0, -1273388.9, -20.258865, 0.000919084, 0.00005500135, -1242243.0, -17271.05, 0.0, 10.006953, 9.965789 
5.8355176e+3, 1.8496251e+2, -1154320.1, -1195067.5, -11.226925, 0.0009184573, 0.00019856206, -1154320.1, -26951.717, 0.0, 10.006945, 9.953208 
5.8355165e+3, 1.9491574e+2, -1056220.8, -1097225.0, -24.419165, 0.0009183356, 0.000063769534, -1056220.8, -26394.152, 0.0, 10.006936, 9.952865 
5.835516e+3, 2.0486233e+2, -968103.94, -1018884.94, -11.296585, 0.0009178433, 0.00018369005, -968103.94, -35753.707, 0.0, 10.0069275, 9.940092 
5.8355147e+3, 2.1480244e+2, -869865.75, -920903.0, -24.414474, 0.0009169628, -0.000011449201, -869865.75, -34928.83, 0.0, 10.00692, 9.939752 
5.8355135e+3, 2.2473587e+2, -781626.25, -842697.44, -9.937117, 0.00091630075, 0.00023377287, -781626.25, -44036.92, 0.0, 10.006912, 9.926698 
5.835513e+3, 2.3466262e+2, -683240.06, -744561.5, -22.710737, 0.00091587467, 0.000019064088, -683240.06, -42933.03, 0.0, 10.006905, 9.926367 
5.8355117e+3, 2.4458244e+2, -594961.8, -666674.06, -7.4421325, 0.0009154721, 0.0001785916, -594961.8, -51868.887, 0.0, 10.006898, 9.912913 
5.8355105e+3, 2.5449547e+2, -496256.25, -568041.1, -19.95843, 0.0009150942, -0.0000056614635, -496256.25, -50311.086, 0.0, 10.00689, 9.912812 
5.83551e+3, 2.644014e+2, -408074.22, -490764.3, -3.4056978, 0.0009145589, 0.00023823585, -408074.22, -59207.227, 0.0, 10.006884, 9.898716 
5.835509e+3, 2.7430066e+2, -308835.44, -391194.44, -15.353044, 0.00091382524, -0.0001100131, -308835.44, -56981.266, 0.0, 10.006878, 9.899134 
5.835508e+3, 2.841918e+2, -222303.05, -317755.5, 0.31550366, 0.000913356, 0.00031946506, -222303.05, -67381.59, 0.0, 10.006872, 9.882309 
5.8355075e+3, 2.9407513e+2, -122635.516, -217465.47, -10.824773, 0.00091323827, -0.00016435536, -122635.516, -64571.066, 0.0, 10.006866, 9.883097 
5.835507e+3, 3.039863e+2, -33196.727, -84961.81, 4.035344, 0.00091275794, 0.00025737943, -33196.727, -33196.727, 0.0, 10.006861, 9.938726 
5.835506e+3, 3.1392685e+2, -32152.863, -82779.22, -6.871473, 0.0009117451, 0.000019612713, -32152.863, -32152.863, 0.0, 10.006856, 9.940203 
5.8455324e+3, 1.2511136e+2, -1710996.4, -1723006.8, 6.353579, 0.000931048, 0.00018722833, -1710996.4, 2913.469, 0.0, 10.007158, 9.99124 
5.8455306e+3, 1.3510245e+2, -1613672.6, -1626267.5, -6.4823112, 0.00092923717, 0.000007708795, -1613672.6, 2324.4514, 0.0, 10.007148, 9.990456 
5.84553e+3, 1.4508699e+2, -1525624.8, -1547039.9, 1.5873868, 0.0009283896, 0.0002682475, -1525624.8, -7476.2397, 0.0, 10.007137, 9.978766 
5.845528e+3, 1.5506573e+2, -1427952.0, -1449762.6, -11.657908, 0.0009284512, 0.000077881145, -1427951.9, -7595.0757, 0.0, 10.007128, 9.978235 
5.845527e+3, 1.6503789e+2, -1339928.1, -1370906.3, -4.4362903, 0.00092790683, 0.0001592945, -1339928.1, -17298.342, 0.0, 10.007117, 9.96617 
5.845526e+3, 1.7500411e+2, -1242024.0, -1273311.4, -16.711834, 0.00092677335, 0.000055581913, -1242024.0, -17063.19, 0.0, 10.007109, 9.965756 
5.8455247e+3, 1.8496361e+2, -1154105.0, -1194996.1, -7.771338, 0.0009261581, 0.00019913267, -1154105.0, -26747.406, 0.0, 10.007099, 9.953173 
5.845524e+3, 1.9491681e+2, -1056007.6, -1097155.3, -21.242601, 0.0009260592, 0.00006440831, -1056007.6, -26191.477, 0.0, 10.007091, 9.952829 
5.845522e+3, 2.0486334e+2, -967892.2, -1018816.6, -8.015226, 0.00092553993, 0.00018431249, -967892.2, -35552.05, 0.0, 10.007082, 9.940057 
5.8455217e+3, 2.1480344e+2, -869655.1, -920835.8, -21.293695, 0.00092458026, -0.000010931234, -869655.1, -34727.918, 0.0, 10.007073, 9.939715 
5.8455205e+3, 2.2473682e+2, -781417.0, -842631.56, -6.878458, 0.00092393294, 0.00023427507, -781417.0, -43837.074, 0.0, 10.007066, 9.926662 
5.8455193e+3, 2.3466356e+2, -683033.1, -744497.4, -19.954105, 0.0009236244, 0.000019647527, -683033.1, -42735.145, 0.0, 10.007058, 9.926331 
5.845519e+3, 2.4458332e+2, -594756.25, -666611.25, -4.641892, 0.0009232112, 0.00017915349, -594756.25, -51672.03, 0.0, 10.0070505, 9.912877 
5.8455175e+3, 2.5449634e+2, -496051.63, -567979.4, -17.25899, 0.0009226742, -0.0000052403147, -496051.63, -50114.81, 0.0, 10.007044, 9.912777 
5.8455163e+3, 2.644022e+2, -407871.03, -490704.34, -0.76537114, 0.0009221144, 0.00023869438, -407871.03, -59012.043, 0.0, 10.007037, 9.89868 
5.8455163e+3, 2.7430144e+2, -308634.4, -391136.16, -13.225433, 0.0009215232, -0.00010929613, -308634.4, -56787.867, 0.0, 10.0070305, 9.899097 
5.845515e+3, 2.841925e+2, -222102.17, -317695.75, 2.4733467, 0.0009211174, 0.00032010398, -222102.17, -67188.01, 0.0, 10.007024, 9.882275 
5.845514e+3, 2.9407585e+2, -122436.195, -217406.9, -8.339435, 0.00092095695, -0.00016424552, -122436.195, -64378.703, 0.0, 10.007018, 9.883062 
5.845514e+3, 3.0398697e+2, -33002.492, -84911.04, 6.4849234, 0.0009203856, 0.0002574717, -33002.492, -33002.492, 0.0, 10.007012, 9.938688 
5.8455133e+3, 3.139275e+2, -31958.566, -82728.92, -5.440551, 0.0009192124, 0.000020436555, -31958.564, -31958.564, 0.0, 10.007008, 9.940164 
5.8555394e+3, 1.2511268e+2, -1711023.3, -1723061.4, 2.526799, 0.00093844556, 0.00018811817, -1711023.3, 2873.6255, 0.0, 10.00716, 9.991204 
5.855538e+3, 1.3510373e+2, -1613699.4, -1626321.8, -10.309154, 0.0009372987, 0.000008227742, -1613699.4, 2285.209, 0.0, 10.00715, 9.990421 
5.8555365e+3, 1.4508824e+2, -1525651.9, -1547095.1, -2.189734, 0.0009364338, 0.0002687402, -1525651.9, -7515.521, 0.0, 10.007139, 9.978731 
5.855536e+3, 1.5506694e+2, -1427978.6, -1449817.6, -15.42676, 0.000935822, 0.00007867794, -1427978.6, -7633.6143, 0.0, 10.00713, 9.9782 
5.855534e+3, 1.6503906e+2, -1339952.3, -1370956.5, -7.8456964, 0.00093528716, 0.00016006207, -1339952.3, -17333.973, 0.0, 10.007119, 9.966138 
5.8555335e+3, 1.7500524e+2, -1242047.9, -1273361.5, -20.121218, 0.00093483133, 0.000055994537, -1242047.9, -17098.25, 0.0, 10.007111, 9.965724 
5.8555317e+3, 1.8496472e+2, -1154131.4, -1195051.1, -11.143206, 0.0009342477, 0.00019956692, -1154131.4, -26784.576, 0.0, 10.007101, 9.953136 
5.8555305e+3, 1.9491789e+2, -1056033.6, -1097209.9, -24.612782, 0.00093353074, 0.00006524269, -1056033.6, -26227.922, 0.0, 10.007092, 9.952793 
5.85553e+3, 2.0486438e+2, -967917.94, -1018871.3, -10.973687, 0.0009329058, 0.0001851461, -967917.94, -35587.97, 0.0, 10.007084, 9.9400215 
5.855529e+3, 2.1480444e+2, -869680.56, -920890.2, -24.248701, 0.0009323754, -0.000010516642, -869680.56, -34763.215, 0.0, 10.007075, 9.93968 
5.8555275e+3, 2.247378e+2, -781442.44, -842686.25, -9.8167305, 0.0009318904, 0.00023456845, -781442.44, -43872.01, 0.0, 10.007068, 9.926626 
5.8555263e+3, 2.3466448e+2, -683058.25, -744551.7, -22.889729, 0.000931452, 0.000020145459, -683058.25, -42769.36, 0.0, 10.00706, 9.926294 
5.855525e+3, 2.4458423e+2, -594781.0, -666665.25, -7.181103, 0.0009308717, 0.00017979549, -594781.0, -51705.555, 0.0, 10.007052, 9.912842 
5.855525e+3, 2.5449717e+2, -496076.1, -568033.0, -19.794773, 0.0009301245, -0.000004524412, -496076.1, -50147.676, 0.0, 10.007046, 9.912741 
5.855524e+3, 2.6440305e+2, -407896.0, -490759.38, -3.2099955, 0.00092962343, 0.00023932199, -407896.0, -59045.063, 0.0, 10.007039, 9.898643 
5.855523e+3, 2.7430224e+2, -308659.06, -391190.9, -15.643778, 0.0009294234, -0.00010895735, -308659.06, -56820.21, 0.0, 10.007032, 9.899061 
5.855522e+3, 2.8419325e+2, -222124.6, -317746.3, 0.28640696, 0.0009291015, 0.00032037916, -222124.6, -67217.77, 0.0, 10.007026, 9.88224 
5.8555216e+3, 2.9407653e+2, -122458.12, -217456.81, -10.5464735, 0.0009286139, -0.00016373316, -122458.12, -64407.637, 0.0, 10.00702, 9.883029 
5.8555204e+3, 3.0398765e+2, -33027.92, -84968.37, 4.6303005, 0.0009278587, 0.0002580679, -33027.92, -33027.92, 0.0, 10.007014, 9.938648 
5.85552e+3, 3.1392813e+2, -31984.465, -82787.15, -7.209725, 0.0009267128, 0.000020893736, -31984.463, -31984.463, 0.0, 10.0070095, 9.940124 
5.8655465e+3, 1.2511401e+2, -1710794.4, -1722979.0, 6.710551, 0.0009460254, 0.00018863208, -1710794.4, 3089.5244, 0.0, 10.007319, 9.99117 
5.865545e+3, 1.3510503e+2, -1613473.3, -1626241.5, -6.3899913, 0.00094513735, 0.000009024566, -1613473.3, 2498.6575, 0.0, 10.007308, 9.990386 
5.865544e+3, 1.4508949e+2, -1525427.6, -1547017.0, 1.8564061, 0.0009443037, 0.0002695338, -1525427.6, -7303.591, 0.0, 10.0072975, 9.978696 
5.865543e+3, 1.5506816e+2, -1427755.1, -1449740.4, -11.540851, 0.0009435038, 0.00007919261, -1427755.1, -7422.0337, 0.0, 10.007288, 9.978165 
5.8655417e+3, 1.6504024e+2, -1339727.8, -1370876.3, -4.038123, 0.0009429575, 0.00016054651, -1339727.8, -17121.117, 0.0, 10.0072775, 9.966105 
5.8655405e+3, 1.7500639e+2, -1241826.0, -1273283.0, -16.554012, 0.00094266335, 0.000056691784, -1241825.9, -16887.623, 0.0, 10.007268, 9.965692 
5.8655393e+3, 1.8496583e+2, -1153913.3, -1194979.0, -7.495135, 0.0009420622, 0.00020028715, -1153913.3, -26577.5, 0.0, 10.007258, 9.953101 
5.865538e+3, 1.9491898e+2, -1055816.3, -1097138.6, -21.173477, 0.0009411476, 0.00006579558, -1055816.3, -26021.188, 0.0, 10.00725, 9.952757 
5.8655363e+3, 2.0486543e+2, -967701.94, -1018801.4, -7.6011147, 0.0009405313, 0.00018567196, -967701.94, -35382.266, 0.0, 10.007241, 9.939985 
5.865536e+3, 2.1480545e+2, -869467.25, -920822.2, -21.113928, 0.0009402245, -0.000009871744, -869467.25, -34559.77, 0.0, 10.007232, 9.939644 
5.8655345e+3, 2.2473878e+2, -781230.6, -842619.75, -6.6103945, 0.0009397625, 0.00023517657, -781230.6, -43669.742, 0.0, 10.007223, 9.92659 
5.865534e+3, 2.3466542e+2, -682847.25, -744486.2, -19.852018, 0.0009391275, 0.000020546735, -682847.25, -42567.55, 0.0, 10.0072155, 9.926258 
5.865533e+3, 2.4458513e+2, -594571.25, -666601.2, -4.206099, 0.0009385028, 0.00018023505, -594571.25, -51504.645, 0.0, 10.007208, 9.912806 
5.8655316e+3, 2.5449803e+2, -495868.47, -567970.6, -17.243952, 0.0009378873, -0.0000037631064, -495868.47, -49948.55, 0.0, 10.0072, 9.912704 
5.865531e+3, 2.6440388e+2, -407689.94, -490698.38, -0.6331585, 0.0009374179, 0.00024001983, -407689.94, -58847.12, 0.0, 10.007194, 9.898606 
5.8655304e+3, 2.7430305e+2, -308454.5, -391131.25, -12.885974, 0.0009371256, -0.00010879936, -308454.5, -56623.418, 0.0, 10.007187, 9.899024 
5.865529e+3, 2.84194e+2, -221920.11, -317685.8, 3.0361025, 0.0009367388, 0.00032054711, -221920.11, -67020.695, 0.0, 10.00718, 9.882205 
5.8655286e+3, 2.9407728e+2, -122254.86, -217397.4, -8.687468, 0.0009362231, -0.00016282116, -122254.86, -64211.453, 0.0, 10.0071745, 9.882994 
5.865528e+3, 3.0398834e+2, -32829.832, -84916.12, 6.3642926, 0.0009355289, 0.0002589969, -32829.832, -32829.832, 0.0, 10.007168, 9.93861 
5.8655274e+3, 3.1392878e+2, -31787.96, -82736.09, -4.8196836, 0.00093457295, 0.000020781874, -31787.96, -31787.96, 0.0, 10.007162, 9.940084 
5.8755535e+3, 1.2511533e+2, -1710822.0, -1723034.8, 2.4910293, 0.00095376786, 0.0001888439, -1710822.0, 3048.8591, 0.0, 10.007321, 9.991135 
5.875553e+3, 1.3510633e+2, -1613500.4, -1626296.9, -10.602009, 0.0009528073, 0.000010047458, -1613500.4, 2458.7432, 0.0, 10.00731, 9.990351 
5.875551e+3, 1.4509076e+2, -1525454.9, -1547073.0, -1.8025217, 0.0009520443, 0.00027057176, -1525454.9, -7343.28, 0.0, 10.007299, 9.97866 
5.87555e+3, 1.550694e+2, -1427782.1, -1449796.0, -15.194101, 0.00095145224, 0.000079480116, -1427782.1, -7461.1035, 0.0, 10.00729, 9.978129 
5.875549e+3, 1.6504145e+2, -1339752.4, -1370927.6, -7.7825036, 0.0009508775, 0.0001608032, -1339752.4, -17157.453, 0.0, 10.007279, 9.966072 
5.8755475e+3, 1.7500757e+2, -1241850.1, -1273334.0, -20.296856, 0.0009503237, 0.00005762091, -1241850.1, -16923.252, 0.0, 10.00727, 9.965658 
5.8755463e+3, 1.8496697e+2, -1153939.9, -1195034.8, -10.741735, 0.00094966544, 0.00020124008, -1153939.9, -26615.152, 0.0, 10.00726, 9.953065 
5.875545e+3, 1.9492006e+2, -1055842.6, -1097194.3, -24.41629, 0.0009488972, 0.00006612127, -1055842.6, -26058.219, 0.0, 10.007252, 9.952721 
5.875544e+3, 2.0486648e+2, -967728.2, -1018857.0, -10.920012, 0.00094838225, 0.00018594948, -967728.2, -35418.83, 0.0, 10.007243, 9.939949 
5.875543e+3, 2.1480647e+2, -869493.06, -920877.5, -24.4367, 0.0009481294, -0.00000903885, -869493.06, -34595.582, 0.0, 10.007234, 9.939608 
5.875542e+3, 2.2473976e+2, -781256.3, -842675.0, -9.468354, 0.0009475766, 0.0002360415, -781256.3, -43705.03, 0.0, 10.007225, 9.926554 
5.875541e+3, 2.3466636e+2, -682872.6, -744541.2, -22.700941, 0.00094669295, 0.00002087185, -682872.6, -42602.188, 0.0, 10.007217, 9.926222 
5.87554e+3, 2.4458604e+2, -594596.8, -666656.9, -6.98486, 0.0009461243, 0.00018051185, -594596.8, -51539.13, 0.0, 10.00721, 9.912768 
5.875539e+3, 2.5449893e+2, -495893.72, -568026.0, -20.010923, 0.00094591745, -0.000002966069, -495893.72, -49982.344, 0.0, 10.007203, 9.912667 
5.875538e+3, 2.6440468e+2, -407714.47, -490752.7, -3.1588275, 0.000945457, 0.00024077413, -407714.47, -58879.84, 0.0, 10.007195, 9.89857 
5.8755374e+3, 2.7430382e+2, -308478.66, -391185.2, -15.420699, 0.0009446789, -0.00010878401, -308478.66, -56655.39, 0.0, 10.007189, 9.898988 
5.875537e+3, 2.8419477e+2, -221944.06, -317739.72, 0.7919501, 0.0009441065, 0.00032063227, -221944.06, -67052.125, 0.0, 10.007182, 9.882169 
5.8755356e+3, 2.94078e+2, -122278.516, -217451.0, -10.876496, 0.0009438073, -0.00016158668, -122278.516, -64242.234, 0.0, 10.007176, 9.882957 
5.875535e+3, 3.0398902e+2, -32854.22, -84971.36, 4.2436156, 0.0009433734, 0.00026019322, -32854.22, -32854.22, 0.0, 10.007171, 9.938572 
5.8755344e+3, 3.1392944e+2, -31812.438, -82791.57, -6.9746985, 0.00094273785, 0.000020212148, -31812.438, -31812.438, 0.0, 10.007164, 9.940045 
5.885562e+3, 1.2511669e+2, -1710590.9, -1722952.1, 6.773669, 0.00096176757, 0.00018955923, -1710590.9, 3266.744, 0.0, 10.007483, 9.991098 
5.88556e+3, 1.3510764e+2, -1613269.6, -1626214.9, -6.5449405, 0.0009603967, 0.000010747395, -1613269.6, 2676.642, 0.0, 10.007472, 9.990315 
5.885559e+3, 1.4509204e+2, -1525225.9, -1546992.8, 2.2505257, 0.00095963356, 0.0002712493, -1525225.9, -7126.7134, 0.0, 10.007462, 9.978624 
5.8855575e+3, 1.5507063e+2, -1427556.1, -1449717.9, -11.303166, 0.00095943443, 0.00008012734, -1427556.1, -7247.26, 0.0, 10.00745, 9.978093 
5.8855563e+3, 1.6504265e+2, -1339525.6, -1370846.8, -3.7747846, 0.00095887145, 0.00016141715, -1339525.6, -16942.494, 0.0, 10.00744, 9.966039 
5.8855546e+3, 1.7500873e+2, -1241623.8, -1273254.0, -16.506798, 0.0009579577, 0.0000581989, -1241623.6, -16708.26, 0.0, 10.00743, 9.965625 
5.885554e+3, 1.8496811e+2, -1153717.1, -1194960.8, -7.0078673, 0.0009572845, 0.00020182293, -1153717.1, -26403.592, 0.0, 10.007421, 9.953029 
5.885553e+3, 1.9492115e+2, -1055622.8, -1097122.3, -20.8671, 0.0009568473, 0.00006674987, -1055622.8, -25849.176, 0.0, 10.007411, 9.952684 
5.885551e+3, 2.0486756e+2, -967509.94, -1018786.7, -7.338021, 0.00095635117, 0.00018656629, -967509.94, -35211.023, 0.0, 10.007401, 9.939912 
5.8855504e+3, 2.148075e+2, -869275.4, -920808.06, -21.133217, 0.000955792, -0.000008493675, -869275.4, -34387.957, 0.0, 10.007393, 9.93957 
5.885549e+3, 2.2474076e+2, -781039.75, -842606.75, -6.2110853, 0.00095519057, 0.00023661283, -781039.7, -43498.164, 0.0, 10.007384, 9.926517 
5.8855486e+3, 2.3466733e+2, -682658.44, -744474.7, -19.694504, 0.00095453946, 0.000021576094, -682658.44, -42397.35, 0.0, 10.007377, 9.926186 
5.8855474e+3, 2.4458694e+2, -594384.44, -666592.1, -3.9379559, 0.00095405115, 0.00018111634, -594384.44, -51335.73, 0.0, 10.007368, 9.912731 
5.885546e+3, 2.544998e+2, -495682.84, -567962.6, -17.014599, 0.00095374865, -0.000002730413, -495682.84, -49780.086, 0.0, 10.00736, 9.91263 
5.8855456e+3, 2.6440555e+2, -407504.72, -490690.66, -0.17658114, 0.0009532026, 0.00024106207, -407504.72, -58678.363, 0.0, 10.007353, 9.898533 
5.8855444e+3, 2.7430463e+2, -308270.16, -391124.38, -13.051394, 0.0009523514, -0.00010792279, -308270.16, -56454.81, 0.0, 10.007346, 9.898951 
5.885544e+3, 2.8419554e+2, -221735.84, -317678.0, 3.10375, 0.000951805, 0.00032148708, -221735.84, -66851.445, 0.0, 10.0073395, 9.882133 
5.885543e+3, 2.9407874e+2, -122072.58, -217390.9, -8.204241, 0.0009516638, -0.00016151358, -122072.58, -64043.484, 0.0, 10.007333, 9.882921 
5.885542e+3, 3.039897e+2, -32653.582, -84918.56, 6.9112535, 0.00095125276, 0.00026017622, -32653.582, -32653.582, 0.0, 10.007326, 9.938532 
5.8855414e+3, 3.139301e+2, -31612.023, -82739.32, -5.237286, 0.0009504428, 0.000021116644, -31612.023, -31612.023, 0.0, 10.00732, 9.940006 
5.895569e+3, 1.2511805e+2, -1710618.9, -1723008.8, 2.7669864, 0.0009699861, 0.00019068051, -1710618.9, 3225.464, 0.0, 10.007484, 9.991063 
5.8955675e+3, 1.3510896e+2, -1613297.4, -1626271.3, -10.541656, 0.0009679373, 0.000011188109, -1613297.4, 2635.9888, 0.0, 10.007474, 9.990279 
5.8955663e+3, 1.4509332e+2, -1525253.5, -1547049.3, -1.8683213, 0.00096711697, 0.00027163775, -1525253.5, -7166.966, 0.0, 10.007463, 9.978588 
5.895565e+3, 1.5507188e+2, -1427583.4, -1449774.1, -15.419255, 0.0009674551, 0.000081065766, -1427583.3, -7286.729, 0.0, 10.007452, 9.978057 
5.8955634e+3, 1.6504386e+2, -1339550.6, -1370898.9, -7.284731, 0.0009669363, 0.00016232014, -1339550.6, -16979.348, 0.0, 10.0074415, 9.966005 
5.895563e+3, 1.7500992e+2, -1241648.4, -1273305.9, -20.007483, 0.0009655859, 0.00005849488, -1241648.4, -16744.545, 0.0, 10.007433, 9.965591 
5.895561e+3, 1.8496925e+2, -1153744.1, -1195017.4, -10.672977, 0.000964932, 0.00020210867, -1153744.1, -26441.813, 0.0, 10.007422, 9.9529915 
5.89556e+3, 1.9492227e+2, -1055649.4, -1097178.5, -24.537462, 0.00096497126, 0.000067624336, -1055649.3, -25886.629, 0.0, 10.007413, 9.952648 
5.8955586e+3, 2.0486861e+2, -967536.56, -1018843.44, -10.497905, 0.00096442696, 0.00018745815, -967536.56, -35248.188, 0.0, 10.007403, 9.939875 
5.8955574e+3, 2.1480854e+2, -869301.75, -920864.44, -24.283356, 0.00096327346, -0.000008179666, -869301.7, -34424.46, 0.0, 10.007396, 9.939534 
5.895557e+3, 2.2474174e+2, -781065.9, -842663.06, -9.363083, 0.000962658, 0.0002369482, -781065.9, -43534.1, 0.0, 10.007387, 9.926479 
5.8955556e+3, 2.3466828e+2, -682684.2, -744530.7, -22.848972, 0.0009626265, 0.000022587365, -682684.2, -42432.574, 0.0, 10.007379, 9.926148 
5.8955544e+3, 2.4458787e+2, -594410.0, -666648.0, -6.8062625, 0.0009622371, 0.00018198664, -594410.0, -51370.35, 0.0, 10.00737, 9.912694 
5.895554e+3, 2.545007e+2, -495708.03, -568018.2, -19.87564, 0.0009614315, -0.000002945907, -495708.03, -49813.977, 0.0, 10.007362, 9.912593 
5.8955526e+3, 2.644064e+2, -407530.34, -490747.38, -2.7231462, 0.00096072414, 0.00024097538, -407530.34, -58712.324, 0.0, 10.007355, 9.898495 
5.895552e+3, 2.7430546e+2, -308295.53, -391180.84, -15.57076, 0.00096013496, -0.00010637823, -308295.53, -56488.133, 0.0, 10.007348, 9.898912 
5.8955514e+3, 2.8419632e+2, -221759.16, -317730.66, 0.59637445, 0.00095978566, 0.00032296334, -221759.16, -66882.375, 0.0, 10.007341, 9.882097 
5.89555e+3, 2.9407948e+2, -122095.375, -217442.9, -10.727292, 0.00095975323, -0.00016237698, -122095.375, -64073.523, 0.0, 10.007335, 9.882886 
5.895549e+3, 3.0399042e+2, -32679.406, -84977.06, 4.7536836, 0.0009591722, 0.00025918166, -32679.406, -32679.406, 0.0, 10.007328, 9.938492 
5.895549e+3, 3.1393075e+2, -31638.227, -82798.59, -7.34355, 0.0009577885, 0.000023213946, -31638.225, -31638.225, 0.0, 10.007322, 9.939965 
5.905577e+3, 1.2511942e+2, -1710383.3, -1722924.0, 7.0752378, 0.0009776967, 0.00019132538, -1710383.3, 3447.6897, 0.0, 10.007649, 9.991027 
5.905575e+3, 1.3511029e+2, -1613064.5, -1626188.6, -6.3083997, 0.00097606395, 0.000011880783, -1613064.5, 2855.7278, 0.0, 10.007637, 9.990244 
5.905574e+3, 1.4509462e+2, -1525022.4, -1546968.6, 2.4178784, 0.0009751819, 0.00027230254, -1525022.4, -6948.531, 0.0, 10.007627, 9.978552 
5.905572e+3, 1.5507315e+2, -1427352.4, -1449694.3, -11.414686, 0.0009749996, 0.00008162946, -1427352.4, -7068.2085, 0.0, 10.007616, 9.978021 
5.9055716e+3, 1.6504508e+2, -1339318.8, -1370815.9, -3.2223244, 0.0009744791, 0.00016289736, -1339318.8, -16759.523, 0.0, 10.007606, 9.965972 
5.90557e+3, 1.7501111e+2, -1241419.6, -1273225.0, -16.037811, 0.0009736327, 0.000059197188, -1241419.5, -16527.408, 0.0, 10.007595, 9.965558 
5.9055686e+3, 1.8497041e+2, -1153519.5, -1194943.0, -6.696552, 0.0009730491, 0.00020280234, -1153519.5, -26228.455, 0.0, 10.007585, 9.952954 
5.9055674e+3, 1.949234e+2, -1055425.0, -1097105.0, -20.890097, 0.0009727237, 0.00006817578, -1055425.0, -25673.271, 0.0, 10.007576, 9.952611 
5.905566e+3, 2.048697e+2, -967313.44, -1018771.2, -6.8625093, 0.00097210944, 0.00018797684, -967313.4, -35035.617, 0.0, 10.007566, 9.939837 
5.9055656e+3, 2.1480958e+2, -869081.0, -920794.06, -20.80546, 0.00097119244, -0.0000075800967, -869081.0, -34213.973, 0.0, 10.007557, 9.939496 
5.905564e+3, 2.2474276e+2, -780846.8, -842594.3, -5.934178, 0.0009706295, 0.00023755323, -780846.8, -43324.957, 0.0, 10.007548, 9.926442 
5.905563e+3, 2.3466927e+2, -682466.56, -744463.25, -19.685587, 0.0009704498, 0.000023115885, -682466.56, -42224.42, 0.0, 10.00754, 9.92611 
5.905562e+3, 2.445888e+2, -594193.4, -666581.7, -3.629691, 0.0009699863, 0.00018253134, -594193.4, -51162.902, 0.0, 10.007531, 9.912657 
5.905561e+3, 2.5450158e+2, -495492.88, -567953.2, -16.98347, 0.0009691917, -0.0000022783156, -495492.88, -49607.61, 0.0, 10.007524, 9.912556 
5.90556e+3, 2.6440725e+2, -407317.1, -490684.5, 0.16593294, 0.0009685546, 0.00024155674, -407317.1, -58507.48, 0.0, 10.007516, 9.898457 
5.9055597e+3, 2.7430627e+2, -308084.72, -391119.84, -12.736394, 0.00096810824, -0.000106140804, -308084.72, -56285.375, 0.0, 10.007508, 9.898874 
5.9055585e+3, 2.8419712e+2, -221548.27, -317668.0, 3.4336903, 0.00096775225, 0.00032324018, -221548.27, -66679.16, 0.0, 10.007501, 9.882061 
5.905558e+3, 2.9408023e+2, -121885.21, -217381.06, -8.376524, 0.0009675136, -0.00016155065, -121885.21, -63870.68, 0.0, 10.007494, 9.88285 
5.905557e+3, 3.039911e+2, -32474.504, -84923.44, 6.984599, 0.0009668624, 0.0002600325, -32474.504, -32474.504, 0.0, 10.007488, 9.938451 
5.905556e+3, 3.1393144e+2, -31434.23, -82745.945, -5.117366, 0.00096560747, 0.000023328137, -31434.23, -31434.23, 0.0, 10.007482, 9.939924 
5.915584e+3, 1.2512079e+2, -1710411.3, -1722980.9, 2.692575, 0.0009850176, 0.00019159028, -1710411.3, 3406.0994, 0.0, 10.007651, 9.990991 
5.915583e+3, 1.3511164e+2, -1613092.3, -1626245.3, -10.695296, 0.0009846721, 0.0000127764515, -1613092.3, 2814.8347, 0.0, 10.00764, 9.990208 
5.9155816e+3, 1.4509593e+2, -1525050.5, -1547026.4, -1.4718821, 0.0009837241, 0.00027318957, -1525050.5, -6989.527, 0.0, 10.007628, 9.978515 
5.91558e+3, 1.5507442e+2, -1427380.3, -1449751.6, -15.290641, 0.0009821786, 0.00008189379, -1427380.3, -7108.523, 0.0, 10.007618, 9.977983 
5.9155786e+3, 1.6504632e+2, -1339343.9, -1370868.4, -7.169197, 0.0009816199, 0.0001632149, -1339343.9, -16796.76, 0.0, 10.007607, 9.965938 
5.9155774e+3, 1.7501232e+2, -1241444.4, -1273277.1, -19.994276, 0.0009820277, 0.000060227358, -1241444.3, -16563.941, 0.0, 10.007597, 9.965524 
5.915576e+3, 1.8497157e+2, -1153547.0, -1195001.0, -10.156004, 0.0009815544, 0.0002038249, -1153547.0, -26267.43, 0.0, 10.007587, 9.952917 
5.915575e+3, 1.9492453e+2, -1055452.3, -1097162.5, -24.334036, 0.0009801928, 0.00006846893, -1055452.3, -25711.55, 0.0, 10.007578, 9.952573 
5.915574e+3, 2.048708e+2, -967340.3, -1018828.56, -10.321784, 0.0009794922, 0.00018819694, -967340.3, -35073.24, 0.0, 10.007568, 9.9398 
5.9155726e+3, 2.1481064e+2, -869107.56, -920851.06, -24.274357, 0.0009794767, -0.0000067500273, -869107.56, -34250.87, 0.0, 10.007559, 9.939459 
5.915572e+3, 2.2474377e+2, -780873.4, -842651.6, -9.138367, 0.0009790187, 0.00023837603, -780873.4, -43361.484, 0.0, 10.00755, 9.926405 
5.915571e+3, 2.3467024e+2, -682492.75, -744520.25, -22.87946, 0.0009780745, 0.000023257815, -682492.75, -42260.23, 0.0, 10.007542, 9.926073 
5.9155697e+3, 2.4458975e+2, -594219.44, -666638.7, -6.553262, 0.0009773984, 0.00018281594, -594219.44, -51198.18, 0.0, 10.007533, 9.912619 
5.915569e+3, 2.5450248e+2, -495518.63, -568009.9, -19.89952, 0.0009770292, -0.00000089937197, -495518.63, -49642.21, 0.0, 10.007525, 9.912518 
5.915568e+3, 2.644081e+2, -407342.8, -490741.44, -2.6868186, 0.000976648, 0.0002426762, -407342.8, -58541.668, 0.0, 10.007518, 9.898418 
5.9155667e+3, 2.743071e+2, -308110.03, -391176.44, -15.579931, 0.00097624684, -0.00010695379, -308110.03, -56318.77, 0.0, 10.00751, 9.898836 
5.915566e+3, 2.8419787e+2, -221572.34, -317722.5, 1.0052351, 0.0009757198, 0.00032255385, -221572.34, -66710.95, 0.0, 10.007503, 9.882024 
5.9155655e+3, 2.9408097e+2, -121908.9, -217435.05, -10.785307, 0.00097502285, -0.00015936242, -121908.89, -63901.75, 0.0, 10.007496, 9.882813 
5.9155643e+3, 3.0399185e+2, -32500.406, -84982.15, 4.7153244, 0.000974383, 0.00026236966, -32500.406, -32500.406, 0.0, 10.00749, 9.938411 
5.915564e+3, 3.139321e+2, -31460.426, -82805.25, -7.350092, 0.0009738219, 0.000021845215, -31460.426, -31460.426, 0.0, 10.0074835, 9.939883 
5.9255916e+3, 1.2512219e+2, -1710172.5, -1722895.4, 7.296793, 0.0009931717, 0.00019231025, -1710172.5, 3631.168, 0.0, 10.007817, 9.990954 
5.9255904e+3, 1.3511299e+2, -1612855.0, -1626161.0, -6.500575, 0.0009923733, 0.000013292304, -1612855.0, 3038.8152, 0.0, 10.007806, 9.9901705 
5.9255886e+3, 1.4509726e+2, -1524815.0, -1546944.0, 2.8751738, 0.0009913974, 0.0002736904, -1524815.0, -6766.9893, 0.0, 10.007794, 9.9784775 
5.925588e+3, 1.5507571e+2, -1427147.3, -1449671.0, -10.983727, 0.0009902294, 0.00008255958, -1427147.3, -6888.048, 0.0, 10.007783, 9.977947 
5.925586e+3, 1.6504757e+2, -1339110.0, -1370785.0, -2.8908856, 0.0009896845, 0.00016393972, -1339110.0, -16575.088, 0.0, 10.007772, 9.965903 
5.925585e+3, 1.7501353e+2, -1241211.0, -1273194.8, -16.116802, 0.0009897519, 0.000060908176, -1241211.0, -16342.579, 0.0, 10.007762, 9.965489 
5.925584e+3, 1.8497276e+2, -1153317.3, -1194924.5, -6.173773, 0.0009892625, 0.0002044817, -1153317.3, -26049.242, 0.0, 10.007752, 9.952879 
5.9255826e+3, 1.9492567e+2, -1055224.5, -1097087.8, -20.35357, 0.0009882092, 0.00006912182, -1055224.5, -25495.078, 0.0, 10.007743, 9.952536 
5.9255815e+3, 2.0487191e+2, -967114.5, -1018755.8, -6.443597, 0.0009875917, 0.0001887782, -967114.5, -34858.21, 0.0, 10.007733, 9.939762 
5.925581e+3, 2.1481171e+2, -868883.1, -920779.7, -20.785686, 0.0009874258, -0.000006310764, -868883.1, -34036.895, 0.0, 10.007724, 9.939421 
5.925579e+3, 2.247448e+2, -780650.1, -842581.4, -5.675962, 0.0009868677, 0.0002388349, -780650.1, -43148.258, 0.0, 10.007714, 9.926367 
5.925578e+3, 2.3467124e+2, -682271.06, -744451.4, -19.578022, 0.000985878, 0.000023912387, -682271.06, -42048.242, 0.0, 10.007706, 9.926035 
5.925577e+3, 2.445907e+2, -593999.56, -666571.56, -3.2849839, 0.0009852445, 0.00018350182, -593999.56, -50987.57, 0.0, 10.007697, 9.9125805 
5.925576e+3, 2.545034e+2, -495301.03, -567944.5, -16.89975, 0.0009850196, -0.000000371923, -495301.03, -49433.56, 0.0, 10.0076885, 9.912479 
5.925575e+3, 2.64409e+2, -407126.5, -490677.34, 0.39336094, 0.0009846337, 0.00024313723, -407126.5, -58333.91, 0.0, 10.00768, 9.89838 
5.9255743e+3, 2.7430794e+2, -307894.5, -391113.34, -12.624574, 0.0009840442, -0.00010644536, -307894.5, -56111.426, 0.0, 10.007673, 9.898798 
5.925574e+3, 2.841987e+2, -221357.08, -317659.03, 3.919988, 0.0009834791, 0.0003230887, -221357.08, -66503.51, 0.0, 10.007666, 9.881987 
5.9255725e+3, 2.9408172e+2, -121695.86, -217373.23, -8.302169, 0.0009829446, -0.00015883002, -121695.86, -63696.16, 0.0, 10.007658, 9.882775 
5.9255725e+3, 3.0399254e+2, -32292.604, -84927.05, 7.11244, 0.0009823646, 0.00026284985, -32292.604, -32292.604, 0.0, 10.007651, 9.93837 
5.9255713e+3, 3.1393278e+2, -31253.566, -82750.98, -4.818395, 0.0009817135, 0.00002220382, -31253.564, -31253.564, 0.0, 10.007645, 9.939842 
5.9356e+3, 1.2512359e+2, -1710201.5, -1722954.0, 2.8496037, 0.0010020012, 0.00019339428, -1710201.5, 3588.4656, 0.0, 10.00782, 9.990917 
5.935598e+3, 1.3511437e+2, -1612883.5, -1626219.4, -10.925236, 0.0009993681, 0.000013506524, -1612883.5, 2996.8562, 0.0, 10.007808, 9.990133 
5.935597e+3, 1.4509858e+2, -1524843.1, -1547001.8, -1.3010094, 0.000998395, 0.000273885, -1524843.1, -6808.176, 0.0, 10.007796, 9.97844 
5.9355956e+3, 1.55077e+2, -1427175.1, -1449728.5, -15.175369, 0.0009989889, 0.00008354791, -1427175.1, -6928.6104, 0.0, 10.007785, 9.97791 
5.9355944e+3, 1.6504882e+2, -1339136.0, -1370839.3, -6.697993, 0.0009984979, 0.00016499081, -1339135.9, -16613.414, 0.0, 10.007774, 9.965868 
5.9355927e+3, 1.7501475e+2, -1241236.6, -1273248.6, -19.892845, 0.0009969563, 0.00006130952, -1241236.6, -16380.155, 0.0, 10.007765, 9.965454 
5.935592e+3, 1.8497394e+2, -1153344.6, -1194982.3, -9.823956, 0.0009963509, 0.00020484626, -1153344.6, -26088.29, 0.0, 10.007754, 9.952842 
5.93559e+3, 1.9492681e+2, -1055251.6, -1097145.1, -24.030113, 0.0009966767, 0.00007006403, -1055251.6, -25533.375, 0.0, 10.007745, 9.952498 
5.935589e+3, 2.0487301e+2, -967142.06, -1018814.7, -9.979336, 0.0009962766, 0.00018965037, -967142.06, -34896.695, 0.0, 10.007735, 9.939724 
5.9355885e+3, 2.1481277e+2, -868910.44, -920838.25, -24.300037, 0.0009951204, -0.0000061824467, -868910.4, -34074.68, 0.0, 10.007726, 9.939383 
5.9355867e+3, 2.2474584e+2, -780676.94, -842639.3, -8.964566, 0.0009942995, 0.00023900412, -780676.94, -43185.227, 0.0, 10.007716, 9.926329 
5.935586e+3, 2.3467222e+2, -682297.6, -744509.0, -22.867931, 0.0009938402, 0.000024978426, -682297.6, -42084.523, 0.0, 10.007708, 9.925997 
5.935585e+3, 2.4459165e+2, -594026.06, -666629.6, -6.487166, 0.0009934527, 0.00018450968, -594026.06, -51023.508, 0.0, 10.007699, 9.912541 
5.935584e+3, 2.5450432e+2, -495327.2, -568002.2, -20.088404, 0.000993145, -0.0000005253038, -495327.2, -49468.703, 0.0, 10.00769, 9.912441 
5.935583e+3, 2.6440987e+2, -407152.3, -490734.78, -2.3479092, 0.0009925461, 0.00024307279, -407152.3, -58368.355, 0.0, 10.007683, 9.898341 
5.935582e+3, 2.7430877e+2, -307920.0, -391170.44, -15.364074, 0.0009915832, -0.000104875806, -307920.0, -56145.18, 0.0, 10.007675, 9.89876 
5.9355813e+3, 2.841995e+2, -221381.95, -317715.2, 1.2321029, 0.0009910872, 0.00032460337, -221381.95, -66536.266, 0.0, 10.007668, 9.881948 
5.935581e+3, 2.940825e+2, -121720.32, -217428.97, -10.946789, 0.0009912108, -0.00015962559, -121720.32, -63728.12, 0.0, 10.007661, 9.882738 
5.9355795e+3, 3.0399328e+2, -32318.21, -84985.36, 4.6897817, 0.000990729, 0.00026184175, -32318.21, -32318.21, 0.0, 10.007653, 9.93833 
5.935579e+3, 3.1393346e+2, -31279.3, -82809.625, -7.2771626, 0.0009893597, 0.000024043353, -31279.3, -31279.3, 0.0, 10.007647, 9.939801 
5.9456074e+3, 1.2512502e+2, -1709958.6, -1722866.8, 7.3584275, 0.0010098111, 0.00019421919, -1709958.6, 3817.4106, 0.0, 10.007989, 9.99088 
5.945606e+3, 1.3511576e+2, -1612642.1, -1626133.4, -6.375008, 0.0010074044, 0.000014115775, -1612642.1, 3224.6953, 0.0, 10.0079775, 9.990097 
5.945605e+3, 1.4509992e+2, -1524604.4, -1546918.5, 3.029862, 0.0010064419, 0.00027447176, -1524604.4, -6582.5, 0.0, 10.007965, 9.978403 
5.945603e+3, 1.550783e+2, -1426939.4, -1449647.4, -11.390636, 0.0010068396, 0.00008429608, -1426939.4, -6705.62, 0.0, 10.007953, 9.977872 
5.945602e+3, 1.650501e+2, -1338898.9, -1370754.4, -2.304734, 0.0010063263, 0.0001656775, -1338898.9, -16388.78, 0.0, 10.007942, 9.965834 
5.945601e+3, 1.7501599e+2, -1241000.1, -1273164.6, -15.256356, 0.0010049309, 0.00006171781, -1241000.0, -16155.674, 0.0, 10.007932, 9.96542 
5.9455997e+3, 1.8497515e+2, -1153111.8, -1194905.3, -5.3320165, 0.0010043874, 0.0002052412, -1153111.8, -25867.104, 0.0, 10.007922, 9.952804 
5.945598e+3, 1.9492798e+2, -1055019.6, -1097069.3, -20.209105, 0.0010046905, 0.00007071096, -1055019.6, -25312.8, 0.0, 10.007913, 9.952459 
5.945597e+3, 2.0487414e+2, -966911.25, -1018739.75, -6.480665, 0.001004237, 0.00019035881, -966911.25, -34676.855, 0.0, 10.007903, 9.939686 
5.945596e+3, 2.1481386e+2, -868681.8, -920765.06, -20.726849, 0.0010029946, -0.000005610467, -868681.8, -33856.71, 0.0, 10.007893, 9.939344 
5.945595e+3, 2.2474688e+2, -780450.56, -842568.2, -5.2892246, 0.0010022098, 0.00023954321, -780450.56, -42969.043, 0.0, 10.007883, 9.92629 
5.945594e+3, 2.3467323e+2, -682073.5, -744439.7, -19.521692, 0.0010019203, 0.000025597657, -682073.5, -41870.277, 0.0, 10.007874, 9.925958 
5.9455925e+3, 2.4459264e+2, -593803.2, -666561.4, -3.0332918, 0.001001513, 0.00018510771, -593803.2, -50810.074, 0.0, 10.007865, 9.912503 
5.945592e+3, 2.5450525e+2, -495105.03, -567935.0, -16.697111, 0.0010009664, -0.00000006577528, -495105.03, -49255.66, 0.0, 10.007856, 9.912402 
5.945591e+3, 2.6441076e+2, -406931.78, -490669.75, 0.97485036, 0.0010003302, 0.00024357205, -406931.78, -58156.53, 0.0, 10.007848, 9.898302 
5.94559e+3, 2.7430964e+2, -307701.8, -391107.25, -12.650349, 0.000999579, -0.000104116174, -307701.8, -55935.34, 0.0, 10.00784, 9.89872 
5.945589e+3, 2.842003e+2, -221163.73, -317650.22, 3.959913, 0.0009991575, 0.00032528915, -221163.73, -66326.0, 0.0, 10.007833, 9.881911 
5.9455884e+3, 2.940833e+2, -121503.41, -217365.1, -7.7989964, 0.0009991729, -0.00015946069, -121503.41, -63518.79, 0.0, 10.007825, 9.882701 
5.945587e+3, 3.0399403e+2, -32106.867, -84930.24, 7.790295, 0.0009986084, 0.0002619876, -32106.865, -32106.865, 0.0, 10.007818, 9.938288 
5.945587e+3, 3.1393415e+2, -31068.137, -82755.17, -5.3602295, 0.0009971951, 0.000024904168, -31068.137, -31068.137, 0.0, 10.007812, 9.939759 
5.9556156e+3, 1.2512645e+2, -1709987.3, -1722925.1, 2.905732, 0.0010168301, 0.00019483911, -1709987.3, 3774.7542, 0.0, 10.007992, 9.990843 
5.9556144e+3, 1.3511714e+2, -1612670.6, -1626191.5, -10.841704, 0.0010162807, 0.000015040126, -1612670.6, 3182.629, 0.0, 10.007979, 9.99006 
5.9556127e+3, 1.451013e+2, -1524633.8, -1546978.8, -1.5828513, 0.0010153339, 0.00027537125, -1524633.8, -6625.162, 0.0, 10.007967, 9.978365 
5.9556115e+3, 1.5507962e+2, -1426968.3, -1449707.3, -15.970695, 0.0010139844, 0.00008485379, -1426968.3, -6747.434, 0.0, 10.007955, 9.977834 
5.9556097e+3, 1.6505137e+2, -1338924.0, -1370807.4, -5.894131, 0.0010133889, 0.00016607561, -1338924.0, -16426.492, 0.0, 10.007944, 9.965799 
5.955609e+3, 1.7501722e+2, -1241025.0, -1273217.3, -18.941305, 0.001013532, 0.000062134524, -1241025.0, -16192.81, 0.0, 10.007935, 9.965385 
5.955607e+3, 1.8497635e+2, -1153140.6, -1194966.0, -9.023149, 0.0010131906, 0.00020566302, -1153140.6, -25907.842, 0.0, 10.007925, 9.9527645 
5.9556067e+3, 1.9492915e+2, -1055048.1, -1097129.5, -23.800636, 0.0010123585, 0.00007112371, -1055048.1, -25352.7, 0.0, 10.0079155, 9.95242 
5.955605e+3, 2.0487528e+2, -966938.6, -1018798.2, -10.209978, 0.0010116367, 0.00019093734, -966938.56, -34715.266, 0.0, 10.007905, 9.939647 
5.955604e+3, 2.1481496e+2, -868708.9, -920823.2, -24.478354, 0.0010110273, -0.0000046839286, -868708.9, -33894.465, 0.0, 10.007895, 9.939306 
5.9556025e+3, 2.2474794e+2, -780478.0, -842627.44, -8.85118, 0.0010105158, 0.0002403782, -780478.0, -43006.824, 0.0, 10.007885, 9.92625 
5.9556013e+3, 2.3467425e+2, -682100.56, -744498.56, -23.070692, 0.0010101075, 0.000025861775, -682100.56, -41907.258, 0.0, 10.007875, 9.925919 
5.955601e+3, 2.4459359e+2, -593829.7, -666619.7, -6.1100335, 0.0010094688, 0.00018538062, -593829.7, -50846.156, 0.0, 10.007867, 9.912464 
5.9555995e+3, 2.5450617e+2, -495131.25, -567992.9, -19.776588, 0.0010085616, 0.0000008851629, -495131.25, -49291.043, 0.0, 10.007858, 9.912363 
5.9555984e+3, 2.644117e+2, -406958.75, -490729.6, -2.0425708, 0.0010080285, 0.00024452253, -406958.75, -58192.305, 0.0, 10.007851, 9.898262 
5.955598e+3, 2.743105e+2, -307728.44, -391166.84, -15.630705, 0.0010079526, -0.00010400409, -307728.44, -55970.367, 0.0, 10.007842, 9.89868 
5.9555966e+3, 2.8420112e+2, -221187.75, -317704.84, 1.2553332, 0.0010076092, 0.00032531327, -221187.75, -66358.04, 0.0, 10.007834, 9.881874 
5.955596e+3, 2.9408404e+2, -121526.875, -217418.98, -10.539978, 0.0010069063, -0.00015852363, -121526.875, -63549.926, 0.0, 10.007828, 9.882664 
5.9555954e+3, 3.0399477e+2, -32134.426, -84992.79, 5.3581543, 0.0010061163, 0.00026305963, -32134.426, -32134.426, 0.0, 10.00782, 9.938244 
5.955595e+3, 3.1393483e+2, -31096.225, -82818.734, -7.6840315, 0.0010051972, 0.000024979492, -31096.223, -31096.223, 0.0, 10.007813, 9.939714 
5.965623e+3, 1.251279e+2, -1709740.1, -1722836.1, 7.9586854, 0.001024668, 0.00019551338, -1709740.1, 4007.816, 0.0, 10.008163, 9.990806 
5.965622e+3, 1.3511854e+2, -1612426.6, -1626105.0, -6.236344, 0.0010243414, 0.000015681479, -1612426.6, 3412.7505, 0.0, 10.00815, 9.990022 
5.965621e+3, 1.4510266e+2, -1524391.8, -1546894.4, 3.1112416, 0.0010234205, 0.0002760769, -1524391.8, -6396.629, 0.0, 10.008138, 9.978327 
5.9656197e+3, 1.5508094e+2, -1426726.9, -1449623.8, -11.1571455, 0.0010219067, 0.00008571516, -1426726.8, -6519.0264, 0.0, 10.008126, 9.977796 
5.965618e+3, 1.6505267e+2, -1338682.9, -1370723.0, -1.1708107, 0.001021319, 0.0001667745, -1338682.9, -16197.924, 0.0, 10.008115, 9.965762 
5.965617e+3, 1.7501849e+2, -1240786.5, -1273135.0, -15.947383, 0.0010216378, 0.00006236194, -1240786.5, -15966.643, 0.0, 10.008104, 9.965348 
5.9656155e+3, 1.8497758e+2, -1152903.6, -1194885.4, -5.9015164, 0.0010212802, 0.0002058778, -1152903.6, -25682.797, 0.0, 10.008095, 9.952726 
5.9656143e+3, 1.9493033e+2, -1054811.5, -1097049.8, -19.390007, 0.0010202399, 0.00007178446, -1054811.5, -25127.648, 0.0, 10.008085, 9.952383 
5.9656125e+3, 2.0487642e+2, -966704.7, -1018722.5, -5.939376, 0.0010195195, 0.00019175178, -966704.7, -34492.527, 0.0, 10.008076, 9.939608 
5.965612e+3, 2.1481605e+2, -868477.9, -920749.6, -20.769117, 0.0010191294, -0.0000040189684, -868477.9, -33674.266, 0.0, 10.008064, 9.939267 
5.965611e+3, 2.24749e+2, -780248.56, -842555.4, -4.96002, 0.0010186279, 0.00024092148, -780248.56, -42787.813, 0.0, 10.008054, 9.926211 
5.9656096e+3, 2.3467527e+2, -681871.8, -744427.5, -19.277836, 0.0010180012, 0.000026313435, -681871.8, -41688.582, 0.0, 10.008045, 9.9258795 
5.9656084e+3, 2.4459459e+2, -593602.3, -666550.25, -2.3737872, 0.001017342, 0.00018591958, -593602.3, -50628.453, 0.0, 10.008036, 9.912425 
5.965607e+3, 2.5450712e+2, -494906.25, -567925.3, -16.595829, 0.0010166419, 0.0000017178102, -494906.22, -49075.31, 0.0, 10.008027, 9.912324 
5.9656066e+3, 2.6441258e+2, -406735.28, -490663.47, 1.1703882, 0.0010161583, 0.00024523537, -406735.28, -57977.727, 0.0, 10.0080185, 9.898223 
5.9656054e+3, 2.7431133e+2, -307506.34, -391102.0, -12.120337, 0.0010159371, -0.000103920764, -307506.34, -55756.746, 0.0, 10.00801, 9.898641 
5.965605e+3, 2.8420198e+2, -220965.7, -317639.3, 4.7280226, 0.0010155133, 0.00032545597, -220965.7, -66144.086, 0.0, 10.008002, 9.881836 
5.965604e+3, 2.9408485e+2, -121306.19, -217354.67, -8.202643, 0.0010148165, -0.00015740478, -121306.19, -63336.977, 0.0, 10.007995, 9.882626 
5.965603e+3, 3.0399552e+2, -31919.094, -84935.86, 7.513788, 0.0010140891, 0.00026418822, -31919.094, -31919.094, 0.0, 10.007988, 9.938202 
5.9656024e+3, 3.1393555e+2, -30882.316, -82762.945, -4.587844, 0.0010133134, 0.000024715628, -30882.316, -30882.316, 0.0, 10.00798, 9.939672 
5.975632e+3, 1.2512934e+2, -1709769.9, -1722896.6, 2.9756293, 0.0010331668, 0.00019623304, -1709769.9, 3963.7615, 0.0, 10.008166, 9.9907675 
5.97563e+3, 1.3511996e+2, -1612456.0, -1626165.0, -11.193582, 0.0010317734, 0.000016100774, -1612456.0, 3369.6023, 0.0, 10.008153, 9.989984 
5.975629e+3, 1.4510404e+2, -1524420.6, -1546953.9, -1.3143283, 0.0010308865, 0.0002766309, -1524420.6, -6438.9717, 0.0, 10.008141, 9.978289 
5.9756273e+3, 1.5508229e+2, -1426755.4, -1449683.0, -15.597134, 0.0010304591, 0.00008681852, -1426755.4, -6560.732, 0.0, 10.008128, 9.977757 
5.975626e+3, 1.6505396e+2, -1338712.0, -1370783.6, -5.147957, 0.0010299494, 0.00016771248, -1338712.0, -16239.813, 0.0, 10.008118, 9.965723 
5.975625e+3, 1.7501974e+2, -1240815.3, -1273195.3, -19.905075, 0.0010293662, 0.00006243944, -1240815.3, -16007.705, 0.0, 10.008107, 9.96531 
5.975624e+3, 1.8497878e+2, -1152929.4, -1194940.3, -9.253633, 0.0010288206, 0.00020592897, -1152929.4, -25720.535, 0.0, 10.008097, 9.952691 
5.9756225e+3, 1.9493152e+2, -1054837.0, -1097104.4, -22.756296, 0.0010283065, 0.0000726434, -1054837.0, -25164.885, 0.0, 10.008088, 9.952348 
5.9756213e+3, 2.0487757e+2, -966733.25, -1018783.25, -10.136014, 0.0010278005, 0.00019275506, -966733.25, -34532.426, 0.0, 10.008078, 9.9395685 
5.97562e+3, 2.1481717e+2, -868506.0, -920810.0, -24.952589, 0.0010273, -0.000003560242, -868506.0, -33713.277, 0.0, 10.008067, 9.939227 
5.9756184e+3, 2.2475007e+2, -780276.06, -842615.0, -8.387242, 0.0010266001, 0.00024123503, -780276.06, -42825.81, 0.0, 10.008057, 9.926172 
5.975618e+3, 2.346763e+2, -681899.0, -744486.75, -22.700872, 0.0010256793, 0.000026916825, -681899.0, -41725.883, 0.0, 10.008047, 9.92584 
5.9756166e+3, 2.4459559e+2, -593629.94, -666610.75, -5.730752, 0.0010251665, 0.00018667144, -593629.94, -50665.816, 0.0, 10.0080385, 9.912385 
5.975616e+3, 2.5450808e+2, -494933.5, -567985.5, -19.92953, 0.0010251205, 0.0000024546107, -494933.5, -49111.906, 0.0, 10.008029, 9.912284 
5.975615e+3, 2.6441348e+2, -406761.6, -490722.13, -1.8568472, 0.0010246428, 0.00024575906, -406761.6, -58012.98, 0.0, 10.00802, 9.898183 
5.9756136e+3, 2.7431223e+2, -307532.22, -391160.22, -15.167664, 0.001023628, -0.00010385307, -307532.22, -55791.188, 0.0, 10.008013, 9.898601 
5.975613e+3, 2.8420278e+2, -220991.72, -317698.22, 1.9466187, 0.0010229994, 0.00032569905, -220991.72, -66178.28, 0.0, 10.008005, 9.881796 
5.975612e+3, 2.9408562e+2, -121331.9, -217413.28, -10.907351, 0.001022883, -0.00015614799, -121331.9, -63370.477, 0.0, 10.0079975, 9.882586 
5.975611e+3, 3.0399626e+2, -31945.123, -84995.305, 4.8817086, 0.0010224455, 0.00026535484, -31945.123, -31945.123, 0.0, 10.00799, 9.938161 
5.9756106e+3, 3.139363e+2, -30908.38, -82822.52, -7.2846107, 0.0010215334, 0.000024192934, -30908.379, -30908.379, 0.0, 10.007983, 9.939631 
5.98564e+3, 1.2513082e+2, -1709521.3, -1722807.5, 7.792909, 0.0010414233, 0.00019695291, -1709521.3, 4197.9883, 0.0, 10.00834, 9.990728 
5.9856385e+3, 1.351214e+2, -1612206.6, -1626076.1, -6.353319, 0.001039503, 0.000016824297, -1612206.6, 3604.8628, 0.0, 10.0083275, 9.989945 
5.9856373e+3, 1.4510542e+2, -1524172.8, -1546867.3, 3.317618, 0.0010386506, 0.00027729425, -1524172.8, -6204.7607, 0.0, 10.008315, 9.97825 
5.9856355e+3, 1.5508364e+2, -1426510.5, -1449598.4, -11.49684, 0.0010387925, 0.000087359535, -1426510.5, -6329.062, 0.0, 10.008302, 9.977718 
5.9856343e+3, 1.650553e+2, -1338468.5, -1370700.5, -0.51471466, 0.0010383101, 0.00016827087, -1338468.5, -16009.248, 0.0, 10.00829, 9.965685 
5.985633e+3, 1.7502102e+2, -1240572.4, -1273113.1, -15.280775, 0.0010372272, 0.000063150925, -1240572.4, -15777.371, 0.0, 10.008281, 9.965271 
5.985632e+3, 1.8498002e+2, -1152686.4, -1194855.4, -4.740429, 0.0010366051, 0.00020663829, -1152686.4, -25489.662, 0.0, 10.00827, 9.952655 
5.98563e+3, 1.9493273e+2, -1054598.3, -1097022.4, -18.669859, 0.0010364365, 0.000073195944, -1054598.3, -24937.879, 0.0, 10.008259, 9.9523115 
5.9856296e+3, 2.0487872e+2, -966498.56, -1018707.75, -6.3571, 0.0010359808, 0.00019323596, -966498.56, -34309.117, 0.0, 10.008249, 9.939528 
5.985628e+3, 2.148183e+2, -868270.6, -920734.9, -21.107994, 0.0010352248, -0.0000030629644, -868270.6, -33488.957, 0.0, 10.008239, 9.939187 
5.985627e+3, 2.2475116e+2, -780041.5, -842541.25, -4.4084816, 0.0010345044, 0.00024182201, -780041.5, -42601.926, 0.0, 10.008229, 9.926132 
5.985626e+3, 2.3467736e+2, -681667.1, -744414.94, -19.147953, 0.0010338187, 0.000027673319, -681667.1, -41504.22, 0.0, 10.008219, 9.9258 
5.985625e+3, 2.4459659e+2, -593399.8, -666540.56, -2.1243606, 0.0010333579, 0.00018731461, -593399.8, -50445.5, 0.0, 10.008209, 9.912344 
5.9856236e+3, 2.5450906e+2, -494704.72, -567916.6, -16.243114, 0.0010331529, 0.0000026585485, -494704.72, -48892.59, 0.0, 10.008201, 9.912244 
5.9856224e+3, 2.644144e+2, -406534.13, -490654.97, 1.8340086, 0.0010326012, 0.0002460612, -406534.13, -57794.55, 0.0, 10.008192, 9.898143 
5.985622e+3, 2.7431312e+2, -307306.16, -391094.44, -12.28364, 0.001031617, -0.000102790145, -307306.16, -55573.77, 0.0, 10.0081835, 9.898561 
5.985621e+3, 2.8420365e+2, -220765.75, -317631.25, 4.7779436, 0.0010310492, 0.0003266975, -220765.75, -65960.586, 0.0, 10.008176, 9.881757 
5.98562e+3, 2.9408646e+2, -121108.16, -217347.94, -7.450655, 0.0010310333, -0.0001563139, -121108.16, -63154.605, 0.0, 10.008167, 9.882546 
5.9856194e+3, 3.0399704e+2, -31727.035, -84938.04, 8.314313, 0.001030573, 0.00026510278, -31727.035, -31727.035, 0.0, 10.00816, 9.938118 
5.985619e+3, 3.1393698e+2, -30690.379, -82765.8, -5.1923003, 0.001029459, 0.000025425814, -30690.377, -30690.377, 0.0, 10.008153, 9.939588 
5.9956485e+3, 1.2513229e+2, -1709550.6, -1722867.6, 3.3065884, 0.0010495025, 0.00019767268, -1709550.6, 4154.05, 0.0, 10.008342, 9.99069 
5.995647e+3, 1.3512284e+2, -1612235.9, -1626136.0, -10.854303, 0.0010474853, 0.000017787832, -1612235.9, 3561.482, 0.0, 10.008329, 9.989907 
5.9956455e+3, 1.4510682e+2, -1524202.9, -1546929.1, -1.5284058, 0.0010466672, 0.00027804516, -1524202.9, -6248.675, 0.0, 10.008317, 9.9782095 
5.9956443e+3, 1.5508501e+2, -1426540.0, -1449659.9, -16.314106, 0.0010469671, 0.000087460416, -1426540.0, -6372.0234, 0.0, 10.008305, 9.977679 
5.9956425e+3, 1.6505662e+2, -1338497.4, -1370761.0, -4.2923093, 0.0010464719, 0.00016853273, -1338497.4, -16051.134, 0.0, 10.008293, 9.965646 
5.9956414e+3, 1.750223e+2, -1240601.1, -1273173.4, -19.06822, 0.0010452112, 0.00006436213, -1240601.1, -15818.691, 0.0, 10.008283, 9.965232 
5.99564e+3, 1.8498127e+2, -1152713.1, -1194912.1, -8.84073, 0.0010445998, 0.00020786586, -1152713.1, -25528.607, 0.0, 10.008272, 9.952618 
5.995639e+3, 1.9493394e+2, -1054624.5, -1097078.6, -22.755404, 0.001044629, 0.00007350817, -1054624.5, -24976.023, 0.0, 10.008262, 9.952274 
5.995638e+3, 2.048799e+2, -966526.75, -1018768.06, -10.041523, 0.0010440947, 0.0001933074, -966526.75, -34348.777, 0.0, 10.008251, 9.939489 
5.995636e+3, 2.1481943e+2, -868298.56, -920794.9, -24.802488, 0.0010429736, -0.0000025325046, -868298.5, -33527.95, 0.0, 10.008242, 9.939148 
5.9956354e+3, 2.2475225e+2, -780069.94, -842602.6, -8.17974, 0.0010423735, 0.00024262615, -780069.94, -42641.03, 0.0, 10.008231, 9.926091 
5.9956336e+3, 2.346784e+2, -681695.1, -744476.0, -22.904928, 0.0010423355, 0.000028549135, -681695.06, -41542.527, 0.0, 10.008222, 9.92576 
5.995633e+3, 2.445976e+2, -593427.1, -666600.7, -5.5105047, 0.0010418512, 0.00018787208, -593427.1, -50482.758, 0.0, 10.008212, 9.912304 
5.995632e+3, 2.5451002e+2, -494731.66, -567976.4, -19.63143, 0.0010408495, 0.0000024489084, -494731.66, -48929.035, 0.0, 10.008203, 9.912204 
5.9956306e+3, 2.6441535e+2, -406561.88, -490716.78, -1.23582, 0.0010401619, 0.0002461938, -406561.88, -57831.453, 0.0, 10.008194, 9.898101 
5.99563e+3, 2.74314e+2, -307333.63, -391156.03, -15.311187, 0.0010398568, -0.00010094854, -307333.63, -55609.996, 0.0, 10.008186, 9.898519 
5.995629e+3, 2.8420445e+2, -220790.66, -317687.9, 1.7866966, 0.0010395582, 0.00032828597, -220790.66, -65993.82, 0.0, 10.008178, 9.881719 
5.995628e+3, 2.9408726e+2, -121132.445, -217403.81, -10.473732, 0.0010392639, -0.00015759117, -121132.44, -63186.84, 0.0, 10.00817, 9.882508 
5.9956276e+3, 3.039978e+2, -31755.184, -85002.17, 5.663126, 0.0010385346, 0.00026374398, -31755.184, -31755.184, 0.0, 10.0081625, 9.938073 
5.9956264e+3, 3.1393772e+2, -30718.994, -82830.89, -7.769168, 0.001037169, 0.000028035105, -30718.992, -30718.992, 0.0, 10.008155, 9.939543 
6.005657e+3, 1.2513378e+2, -1709295.8, -1722775.8, 8.274194, 0.0010571945, 0.00019819659, -1709295.8, 4394.3296, 0.0, 10.008519, 9.990652 
6.0056555e+3, 1.351243e+2, -1611985.0, -1626047.0, -6.3039837, 0.0010559078, 0.000018440776, -1611985.0, 3798.0967, 0.0, 10.008506, 9.989868 
6.005654e+3, 1.4510825e+2, -1523953.8, -1546842.4, 3.1870265, 0.0010551144, 0.0002787196, -1523953.8, -6013.3696, 0.0, 10.008493, 9.97817 
6.0056525e+3, 1.550864e+2, -1426289.9, -1449573.3, -11.574793, 0.001054765, 0.00008805216, -1426289.9, -6135.379, 0.0, 10.008482, 9.977639 
6.005651e+3, 1.6505796e+2, -1338248.8, -1370675.9, 0.56592727, 0.0010542378, 0.0001691274, -1338248.8, -15815.571, 0.0, 10.008471, 9.965606 
6.00565e+3, 1.750236e+2, -1240356.6, -1273091.0, -14.6415615, 0.0010535447, 0.000065043365, -1240356.6, -15586.942, 0.0, 10.008458, 9.965192 
6.0056484e+3, 1.8498254e+2, -1152468.3, -1194826.9, -4.3841968, 0.0010529703, 0.0002085256, -1152468.3, -25296.037, 0.0, 10.008447, 9.952581 
6.005647e+3, 1.9493514e+2, -1054380.0, -1096994.4, -18.309326, 0.0010525077, 0.000074038384, -1054380.0, -24743.488, 0.0, 10.008437, 9.952237 
6.005646e+3, 2.0488109e+2, -966286.0, -1018690.06, -5.720134, 0.0010519052, 0.00019384066, -966286.0, -34119.652, 0.0, 10.008427, 9.939449 
6.005645e+3, 2.1482058e+2, -868060.44, -920718.94, -20.928328, 0.001051155, -0.0000018585429, -868060.44, -33301.05, 0.0, 10.008416, 9.939108 
6.0056436e+3, 2.2475335e+2, -779833.5, -842528.44, -4.3871994, 0.0010506569, 0.00024325262, -779833.5, -42415.426, 0.0, 10.008406, 9.926051 
6.0056424e+3, 2.3467946e+2, -681459.75, -744403.0, -19.124813, 0.0010504285, 0.000028923447, -681459.75, -41317.586, 0.0, 10.008395, 9.925719 
6.005641e+3, 2.4459861e+2, -593192.75, -666529.06, -1.6113281, 0.0010498567, 0.00018830341, -593192.75, -50258.383, 0.0, 10.008386, 9.912264 
6.00564e+3, 2.54511e+2, -494498.6, -567906.06, -16.208672, 0.0010488854, 0.0000032930577, -494498.56, -48705.586, 0.0, 10.008377, 9.912163 
6.0056394e+3, 2.6441628e+2, -406330.66, -490648.6, 2.1352272, 0.0010482591, 0.00024695648, -406330.66, -57609.43, 0.0, 10.0083685, 9.89806 
6.005638e+3, 2.7431488e+2, -307104.9, -391089.78, -11.819248, 0.0010480527, -0.0001008755, -307104.9, -55390.063, 0.0, 10.008359, 9.898478 
6.005637e+3, 2.8420535e+2, -220561.72, -317619.94, 5.313946, 0.0010477367, 0.00032838588, -220561.72, -65773.305, 0.0, 10.00835, 9.88168 
6.0056365e+3, 2.9408807e+2, -120904.21, -217336.69, -7.6889353, 0.0010472708, -0.00015651272, -120904.21, -62966.645, 0.0, 10.008343, 9.882469 
6.005636e+3, 3.039986e+2, -31532.617, -84944.03, 8.275873, 0.0010465118, 0.0002648757, -31532.615, -31532.615, 0.0, 10.008335, 9.938029 
6.0056347e+3, 3.1393844e+2, -30497.297, -82773.76, -4.88531, 0.0010453232, 0.000027880142, -30497.297, -30497.297, 0.0, 10.008328, 9.939498 
6.0156655e+3, 1.251353e+2, -1709326.3, -1722837.8, 3.1092536, 0.0010646079, 0.00019857066, -1709326.3, 4349.073, 0.0, 10.008522, 9.990613 
6.0156643e+3, 1.3512576e+2, -1612015.0, -1626108.5, -11.443783, 0.0010646844, 0.000018852967, -1612015.0, 3753.7598, 0.0, 10.008509, 9.989829 
6.0156626e+3, 1.4510968e+2, -1523983.5, -1546904.0, -1.0728303, 0.0010639073, 0.0002793355, -1523983.5, -6057.1836, 0.0, 10.008495, 9.978131 
6.0156614e+3, 1.5508778e+2, -1426319.5, -1449634.6, -15.845119, 0.0010622897, 0.00008902848, -1426319.5, -6178.586, 0.0, 10.008484, 9.9776 
6.0156596e+3, 1.6505931e+2, -1338278.8, -1370738.4, -3.9569807, 0.0010617168, 0.00016998309, -1338278.8, -15858.766, 0.0, 10.008472, 9.965566 
6.0156584e+3, 1.7502491e+2, -1240386.1, -1273153.0, -19.143381, 0.0010621634, 0.00006531164, -1240386.1, -15629.257, 0.0, 10.008461, 9.965152 
6.0156566e+3, 1.849838e+2, -1152494.6, -1194883.4, -8.224879, 0.0010616456, 0.00020874328, -1152494.6, -25334.947, 0.0, 10.00845, 9.952544 
6.015656e+3, 1.9493638e+2, -1054406.3, -1097050.5, -22.162642, 0.0010601598, 0.00007474133, -1054406.3, -24781.791, 0.0, 10.008439, 9.952201 
6.015654e+3, 2.0488228e+2, -966315.1, -1018752.25, -9.743889, 0.001059499, 0.0001947367, -966315.1, -34160.48, 0.0, 10.008429, 9.939408 
6.0156536e+3, 2.1482173e+2, -868089.2, -920780.75, -24.941566, 0.0010596893, -0.0000010723679, -868089.1, -33341.09, 0.0, 10.008418, 9.939067 
6.015652e+3, 2.2475447e+2, -779861.75, -842589.75, -8.086091, 0.001059277, 0.00024374083, -779861.75, -42454.586, 0.0, 10.008408, 9.92601 
6.0156506e+3, 2.3468055e+2, -681487.56, -744463.9, -22.825027, 0.001058206, 0.000028909504, -681487.56, -41355.94, 0.0, 10.008398, 9.925679 
6.0156494e+3, 2.4459966e+2, -593220.94, -666591.06, -5.005386, 0.0010574979, 0.00018863933, -593220.94, -50296.707, 0.0, 10.0083885, 9.912223 
6.015648e+3, 2.5451198e+2, -494526.5, -567967.8, -19.585306, 0.001057204, 0.0000049592263, -494526.5, -48743.207, 0.0, 10.008379, 9.912122 
6.0156476e+3, 2.6441723e+2, -406358.2, -490710.0, -1.2166629, 0.0010567917, 0.00024821004, -406358.2, -57646.27, 0.0, 10.00837, 9.898019 
6.0156465e+3, 2.743158e+2, -307131.94, -391150.75, -15.169668, 0.0010562284, -0.0001021801, -307131.94, -55426.0, 0.0, 10.008362, 9.898437 
6.015645e+3, 2.842062e+2, -220587.81, -317679.34, 2.4222627, 0.001055671, 0.0003273278, -220587.81, -65807.88, 0.0, 10.008353, 9.881639 
6.015645e+3, 2.940889e+2, -120929.914, -217395.64, -10.551713, 0.0010551192, -0.00015359386, -120929.914, -63000.473, 0.0, 10.008346, 9.882429 
6.015644e+3, 3.0399936e+2, -31560.414, -85007.44, 5.5463977, 0.0010545187, 0.00026795146, -31560.412, -31560.412, 0.0, 10.008338, 9.937985 
6.015643e+3, 3.1393918e+2, -30525.38, -82837.73, -7.5817223, 0.0010538409, 0.000025566884, -30525.379, -30525.379, 0.0, 10.00833, 9.939453 
6.025674e+3, 1.2513682e+2, -1709069.8, -1722745.9, 8.139021, 0.0010731067, 0.0001991239, -1709069.8, 4590.6426, 0.0, 10.0087, 9.990573 
6.0256726e+3, 1.3512725e+2, -1611758.0, -1626016.9, -6.4802995, 0.001072455, 0.000019506053, -1611758.0, 3996.2568, 0.0, 10.008688, 9.98979 
6.025671e+3, 1.4511111e+2, -1523728.4, -1546814.8, 3.9563298, 0.0010716687, 0.00028003057, -1523728.4, -5816.1426, 0.0, 10.008676, 9.978091 
6.0256696e+3, 1.5508918e+2, -1426068.0, -1449547.9, -11.215317, 0.0010707253, 0.000089709036, -1426068.0, -5940.8555, 0.0, 10.008663, 9.97756 
6.025668e+3, 1.6506067e+2, -1338028.9, -1370653.3, 0.7245784, 0.001070194, 0.00017060318, -1338028.9, -15622.277, 0.0, 10.008651, 9.965526 
6.025667e+3, 1.7502624e+2, -1240136.5, -1273068.6, -14.467383, 0.0010700697, 0.0000658267, -1240136.5, -15392.586, 0.0, 10.008639, 9.965112 
6.0256654e+3, 1.8498509e+2, -1152244.0, -1194795.9, -3.4752474, 0.0010694752, 0.0002092622, -1152244.0, -25096.885, 0.0, 10.008628, 9.952507 
6.025664e+3, 1.9493763e+2, -1054158.6, -1096965.3, -17.81652, 0.0010684042, 0.00007537295, -1054158.6, -24546.375, 0.0, 10.008616, 9.952163 
6.0256624e+3, 2.0488349e+2, -966071.94, -1018673.75, -5.5342236, 0.001067841, 0.00019538819, -966071.94, -33929.09, 0.0, 10.008606, 9.939367 
6.025662e+3, 2.1482289e+2, -867847.1, -920703.5, -20.813202, 0.0010678011, -0.00000049723445, -867847.1, -33110.492, 0.0, 10.008595, 9.939026 
6.02566e+3, 2.2475559e+2, -779620.75, -842513.8, -3.861132, 0.0010672937, 0.00024431056, -779620.75, -42224.58, 0.0, 10.008585, 9.925969 
6.0256594e+3, 2.3468162e+2, -681247.9, -744389.3, -18.96239, 0.0010662735, 0.000029550893, -681247.8, -41126.816, 0.0, 10.008575, 9.925638 
6.025658e+3, 2.446007e+2, -592983.06, -666518.56, -1.2690313, 0.0010656513, 0.00018921592, -592983.06, -50069.004, 0.0, 10.008566, 9.912181 
6.025657e+3, 2.54513e+2, -494291.1, -567897.2, -16.010548, 0.0010654833, 0.0000053142244, -494291.1, -48517.617, 0.0, 10.008555, 9.91208 
6.0256565e+3, 2.6441818e+2, -406123.94, -490640.56, 2.4885411, 0.0010650397, 0.0002485955, -406123.94, -57421.41, 0.0, 10.008547, 9.897977 
6.025655e+3, 2.743167e+2, -306898.16, -391082.22, -11.70464, 0.001064251, -0.0001014541, -306898.13, -55201.184, 0.0, 10.008538, 9.898395 
6.025654e+3, 2.842071e+2, -220354.22, -317610.6, 5.7843823, 0.0010636506, 0.00032805864, -220354.22, -65582.87, 0.0, 10.00853, 9.881598 
6.0256535e+3, 2.9408976e+2, -120698.77, -217328.7, -7.5286655, 0.0010632986, -0.00015330531, -120698.77, -62777.51, 0.0, 10.008521, 9.882388 
6.025652e+3, 3.0400014e+2, -31334.873, -84947.62, 8.484051, 0.0010627889, 0.00026816313, -31334.871, -31334.871, 0.0, 10.008513, 9.937942 
6.0256517e+3, 3.1393993e+2, -30300.818, -82778.77, -4.629932, 0.0010620428, 0.00002623581, -30300.816, -30300.816, 0.0, 10.008505, 9.939409 
6.0356826e+3, 1.2513836e+2, -1709100.3, -1722808.0, 3.4391599, 0.0010824542, 0.00019981641, -1709100.3, 4545.195, 0.0, 10.008703, 9.990534 
6.0356814e+3, 1.3512874e+2, -1611788.1, -1626078.8, -11.181261, 0.0010794695, 0.000020347576, -1611788.1, 3951.4849, 0.0, 10.008691, 9.98975 
6.0356796e+3, 1.4511256e+2, -1523759.1, -1546878.1, -0.9078386, 0.0010786556, 0.00028078878, -1523759.1, -5861.1772, 0.0, 10.008678, 9.97805 
6.0356784e+3, 1.5509059e+2, -1426098.4, -1449610.9, -16.053719, 0.0010798781, 0.000090161026, -1426098.4, -5985.044, 0.0, 10.008665, 9.977519 
6.0356766e+3, 1.6506204e+2, -1338058.6, -1370715.5, -3.4960017, 0.0010794543, 0.00017104151, -1338058.6, -15665.491, 0.0, 10.008654, 9.965486 
6.0356754e+3, 1.7502758e+2, -1240166.0, -1273130.6, -18.698189, 0.0010774434, 0.00006653544, -1240166.0, -15435.084, 0.0, 10.008642, 9.965072 
6.0356736e+3, 1.8498638e+2, -1152271.4, -1194854.1, -7.755411, 0.0010766706, 0.00021001691, -1152271.4, -25136.92, 0.0, 10.008631, 9.952469 
6.035673e+3, 1.9493888e+2, -1054185.6, -1097023.1, -22.080614, 0.0010771229, 0.00007594988, -1054185.6, -24585.672, 0.0, 10.008619, 9.952126 
6.035671e+3, 2.0488471e+2, -966101.06, -1018736.1, -9.503095, 0.0010767765, 0.00019585068, -966101.06, -33970.117, 0.0, 10.008609, 9.939326 
6.0356706e+3, 2.1482407e+2, -867875.9, -920765.56, -24.7879, 0.0010756014, -0.000000083468464, -867875.9, -33150.734, 0.0, 10.008597, 9.938985 
6.035669e+3, 2.2475673e+2, -779649.6, -842576.56, -7.5562115, 0.00107486, 0.00024494604, -779649.6, -42264.605, 0.0, 10.008588, 9.925928 
6.035668e+3, 2.3468271e+2, -681276.44, -744451.75, -22.649593, 0.0010745842, 0.00003070155, -681276.44, -41166.12, 0.0, 10.008577, 9.925596 
6.0356665e+3, 2.4460174e+2, -593011.56, -666581.25, -4.957219, 0.0010742189, 0.00018997952, -593011.56, -50107.813, 0.0, 10.008568, 9.912139 
6.035665e+3, 2.54514e+2, -494319.13, -567959.44, -19.687887, 0.0010737465, 0.0000046530604, -494319.13, -48555.527, 0.0, 10.008558, 9.912038 
6.0356647e+3, 2.6441917e+2, -406151.75, -490702.84, -0.64749837, 0.0010730809, 0.00024830978, -406151.75, -57458.707, 0.0, 10.008549, 9.897935 
6.0356635e+3, 2.7431765e+2, -306925.66, -391144.13, -14.84022, 0.0010721724, -0.00009914861, -306925.66, -55237.78, 0.0, 10.008541, 9.898353 
6.035663e+3, 2.8420797e+2, -220380.98, -317671.38, 2.6059177, 0.0010716842, 0.00033017978, -220380.98, -65618.33, 0.0, 10.008533, 9.8815565 
6.0356617e+3, 2.9409057e+2, -120725.07, -217389.0, -10.65499, 0.0010717514, -0.00015506118, -120725.07, -62812.055, 0.0, 10.008524, 9.882347 
6.035661e+3, 3.0400097e+2, -31362.531, -85011.01, 5.5931325, 0.0010712785, 0.00026615028, -31362.531, -31362.531, 0.0, 10.008515, 9.937898 
6.03566e+3, 3.139407e+2, -30328.604, -82842.54, -7.5802636, 0.0010700139, 0.000029228047, -30328.602, -30328.602, 0.0, 10.008508, 9.939365 
6.0456914e+3, 1.251399e+2, -1708838.4, -1722713.8, 8.589574, 0.0010903291, 0.00020042279, -1708838.4, 4791.899, 0.0, 10.008885, 9.990494 
6.04569e+3, 1.3513026e+2, -1611529.0, -1625986.6, -6.2917027, 0.0010879311, 0.00002107543, -1611529.0, 4195.8477, 0.0, 10.008872, 9.989711 
6.0456884e+3, 1.4511405e+2, -1523502.0, -1546788.3, 3.9614456, 0.0010871387, 0.00028149592, -1523502.0, -5618.356, 0.0, 10.00886, 9.97801 
6.045687e+3, 1.5509203e+2, -1425842.0, -1449522.1, -11.180915, 0.0010878448, 0.00009071067, -1425842.0, -5742.6646, 0.0, 10.008847, 9.977479 
6.0456854e+3, 1.6506343e+2, -1337803.9, -1370628.5, 1.5629008, 0.0010873599, 0.0001715608, -1337803.9, -15424.248, 0.0, 10.008835, 9.965445 
6.045684e+3, 1.7502892e+2, -1239913.6, -1273045.5, -14.076549, 0.0010857282, 0.00006714777, -1239913.6, -15195.867, 0.0, 10.008822, 9.965031 
6.0456824e+3, 1.8498768e+2, -1152018.3, -1194765.8, -3.2579663, 0.0010850361, 0.00021064878, -1152018.3, -24896.494, 0.0, 10.008811, 9.952431 
6.045682e+3, 1.9494015e+2, -1053934.0, -1096936.3, -17.592216, 0.0010852723, 0.000076528166, -1053934.0, -24346.41, 0.0, 10.0088, 9.952087 
6.04568e+3, 2.0488593e+2, -965853.25, -1018655.94, -4.865942, 0.0010848376, 0.00019642749, -965853.25, -33734.35, 0.0, 10.008789, 9.939285 
6.045679e+3, 2.1482526e+2, -867629.44, -920686.75, -20.52034, 0.0010837056, 0.00000054575503, -867629.44, -32915.93, 0.0, 10.008779, 9.938944 
6.0456777e+3, 2.2475788e+2, -779404.94, -842499.6, -3.4577289, 0.0010830526, 0.00024556523, -779404.94, -42031.14, 0.0, 10.008768, 9.925886 
6.0456765e+3, 2.3468383e+2, -681034.25, -744376.75, -18.779331, 0.0010829151, 0.000031242947, -681034.25, -40934.734, 0.0, 10.008757, 9.925554 
6.045675e+3, 2.4460281e+2, -592770.5, -666507.44, -0.94046146, 0.0010824967, 0.0001904609, -592770.5, -49877.133, 0.0, 10.008747, 9.912097 
6.045674e+3, 2.5451502e+2, -494078.4, -567886.56, -15.7664385, 0.0010817514, 0.000005094567, -494078.4, -48324.805, 0.0, 10.0087385, 9.911997 
6.0456735e+3, 2.6442012e+2, -405912.8, -490632.53, 3.1216784, 0.0010810737, 0.00024880582, -405912.8, -57229.34, 0.0, 10.008729, 9.897893 
6.045672e+3, 2.7431858e+2, -306689.6, -391076.03, -11.743509, 0.0010804735, -0.000098481054, -306689.6, -55010.883, 0.0, 10.008719, 9.89831 
6.045671e+3, 2.8420886e+2, -220144.66, -317600.88, 5.764756, 0.0010800886, 0.00033079917, -220144.66, -65390.734, 0.0, 10.008711, 9.881516 
6.0456705e+3, 2.9409143e+2, -120489.68, -217319.42, -6.950758, 0.0010799858, -0.00015478379, -120489.68, -62585.02, 0.0, 10.008702, 9.882307 
6.0456693e+3, 3.0400178e+2, -31133.178, -84951.59, 9.219907, 0.0010793845, 0.00026642825, -31133.176, -31133.176, 0.0, 10.008695, 9.937852 
6.045669e+3, 3.1394148e+2, -30099.092, -82783.734, -5.3829517, 0.0010780536, 0.000030008587, -30099.092, -30099.092, 0.0, 10.008687, 9.939319 
6.0557e+3, 1.2514146e+2, -1708869.3, -1722777.0, 3.5732477, 0.0010970966, 0.00020096438, -1708869.3, 4745.6655, 0.0, 10.008888, 9.990454 
6.055699e+3, 1.3513176e+2, -1611559.6, -1626049.5, -11.295637, 0.0010975177, 0.000021716103, -1611559.6, 4150.32, 0.0, 10.008875, 9.98967 
6.055697e+3, 1.4511552e+2, -1523532.6, -1546851.6, -0.7533411, 0.001096783, 0.0002821644, -1523532.6, -5663.514, 0.0, 10.0088625, 9.977969 
6.055696e+3, 1.5509346e+2, -1425872.3, -1449585.1, -15.904853, 0.0010949189, 0.00009133799, -1425872.3, -5787.0024, 0.0, 10.008849, 9.977439 
6.055694e+3, 1.6506483e+2, -1337834.5, -1370692.6, -2.9452016, 0.0010942451, 0.00017214484, -1337834.5, -15468.631, 0.0, 10.008838, 9.965404 
6.055693e+3, 1.7503028e+2, -1239943.9, -1273109.3, -18.562918, 0.0010947299, 0.0000676864, -1239943.9, -15239.504, 0.0, 10.008825, 9.96499 
6.055691e+3, 1.8498902e+2, -1152045.4, -1194824.0, -7.5582986, 0.0010943158, 0.00021118653, -1152045.4, -24936.643, 0.0, 10.008814, 9.952394 
6.0556906e+3, 1.9494143e+2, -1053960.8, -1096994.1, -21.903938, 0.001093, 0.00007710963, -1053960.8, -24385.777, 0.0, 10.008802, 9.952049 
6.055689e+3, 2.0488718e+2, -965883.0, -1018719.8, -8.847751, 0.0010922437, 0.00019709485, -965883.0, -33776.277, 0.0, 10.008791, 9.939243 
6.0556877e+3, 2.1482645e+2, -867658.94, -920750.4, -24.490887, 0.0010920622, 0.0000013424948, -867658.94, -32957.156, 0.0, 10.0087805, 9.938902 
6.0556865e+3, 2.2475903e+2, -779434.3, -842563.3, -7.4333963, 0.001091745, 0.0002461725, -779434.3, -42071.8, 0.0, 10.00877, 9.925844 
6.055685e+3, 2.3468493e+2, -681063.1, -744440.0, -22.750507, 0.001091276, 0.00003131499, -681063.1, -40974.496, 0.0, 10.0087595, 9.925512 
6.055684e+3, 2.4460389e+2, -592799.0, -666570.44, -4.384342, 0.0010905663, 0.00019072645, -592799.0, -49916.14, 0.0, 10.00875, 9.912055 
6.055683e+3, 2.5451607e+2, -494106.63, -567949.2, -19.215363, 0.0010895764, 0.000006391261, -494106.63, -48363.094, 0.0, 10.00874, 9.911955 
6.0556823e+3, 2.644211e+2, -405941.97, -490697.5, -0.3967875, 0.0010890488, 0.0002499078, -405941.97, -57268.17, 0.0, 10.008731, 9.897849 
6.055681e+3, 2.7431953e+2, -306718.34, -391140.7, -15.208254, 0.0010890834, -0.00009908146, -306718.34, -55048.86, 0.0, 10.008722, 9.898267 
6.05568e+3, 2.8420976e+2, -220170.28, -317659.63, 2.6918573, 0.0010887932, 0.00033025732, -220170.28, -65425.184, 0.0, 10.008713, 9.881476 
6.0556793e+3, 2.940923e+2, -120514.72, -217377.33, -10.090371, 0.0010880673, -0.00015292708, -120514.72, -62618.508, 0.0, 10.008705, 9.882268 
6.055678e+3, 3.0400258e+2, -31163.26, -85020.12, 6.3963013, 0.001087212, 0.0002684838, -31163.26, -31163.26, 0.0, 10.0086975, 9.937804 
6.0556775e+3, 3.1394222e+2, -30129.828, -82853.51, -8.040873, 0.0010861653, 0.000029072342, -30129.826, -30129.826, 0.0, 10.00869, 9.93927 
6.0657096e+3, 1.2514304e+2, -1708603.8, -1722681.3, 8.887167, 0.0011054173, 0.00020150015, -1708603.8, 4995.7554, 0.0, 10.009073, 9.990414 
6.065708e+3, 1.351333e+2, -1611296.6, -1625955.9, -6.136147, 0.0011056417, 0.000022289387, -1611296.6, 4398.2417, 0.0, 10.009059, 9.98963 
6.065706e+3, 1.45117e+2, -1523271.8, -1546760.5, 4.623769, 0.001104883, 0.00028277488, -1523271.8, -5417.262, 0.0, 10.009047, 9.977928 
6.065705e+3, 1.550949e+2, -1425612.5, -1449495.3, -10.96076, 0.0011031573, 0.00009198387, -1425612.5, -5541.434, 0.0, 10.009034, 9.977397 
6.065703e+3, 1.6506624e+2, -1337576.3, -1370604.4, 1.8287278, 0.0011025236, 0.00017276463, -1337576.3, -15224.144, 0.0, 10.009022, 9.965362 
6.065702e+3, 1.7503165e+2, -1239688.0, -1273022.9, -13.801458, 0.001102955, 0.000068220856, -1239688.0, -14996.952, 0.0, 10.009008, 9.964948 
6.0657007e+3, 1.8499035e+2, -1151788.4, -1194734.3, -2.585769, 0.0011024954, 0.00021171589, -1151788.4, -24692.59, 0.0, 10.008997, 9.952354 
6.0656995e+3, 1.9494271e+2, -1053704.6, -1096905.6, -17.316664, 0.0011011414, 0.00007771379, -1053704.6, -24142.291, 0.0, 10.0089855, 9.952011 
6.0656977e+3, 2.0488843e+2, -965631.2, -1018638.25, -4.434294, 0.0011004464, 0.00019774231, -965631.2, -33536.67, 0.0, 10.008975, 9.939201 
6.065697e+3, 2.1482766e+2, -867409.75, -920670.9, -20.223051, 0.0011004296, 0.000002000713, -867409.75, -32719.83, 0.0, 10.008964, 9.93886 
6.065695e+3, 2.2476019e+2, -779186.5, -842485.44, -3.0058632, 0.0011000559, 0.0002467322, -779186.5, -41835.434, 0.0, 10.008952, 9.925802 
6.065694e+3, 2.3468605e+2, -680815.75, -744363.0, -18.514654, 0.0010992906, 0.00003165772, -680815.75, -40738.17, 0.0, 10.008943, 9.92547 
6.065693e+3, 2.4460496e+2, -592553.2, -666495.44, -0.31452674, 0.001098592, 0.0001911509, -592553.2, -49680.926, 0.0, 10.008933, 9.912013 
6.065692e+3, 2.5451708e+2, -493863.6, -567876.3, -15.73682, 0.0010979661, 0.000007240457, -493863.6, -48130.258, 0.0, 10.008923, 9.911912 
6.065691e+3, 2.6442212e+2, -405700.3, -490625.8, 3.2166758, 0.0010975144, 0.0002506581, -405700.3, -57036.28, 0.0, 10.008913, 9.897806 
6.06569e+3, 2.7432045e+2, -306477.47, -391070.06, -11.057205, 0.0010972708, -0.000099073346, -306477.47, -54817.305, 0.0, 10.008904, 9.898224 
6.065689e+3, 2.8421065e+2, -219929.52, -317588.8, 6.7447634, 0.0010968563, 0.00033032062, -219929.52, -65193.332, 0.0, 10.008895, 9.881434 
6.065688e+3, 2.9409316e+2, -120275.67, -217308.05, -7.6141925, 0.0010962113, -0.00015175068, -120275.664, -62387.97, 0.0, 10.008887, 9.882226 
6.065687e+3, 3.0400342e+2, -30929.828, -84958.195, 8.675779, 0.0010954771, 0.00026967868, -30929.826, -30929.826, 0.0, 10.008879, 9.937758 
6.065686e+3, 3.1394303e+2, -29898.002, -82792.77, -4.2301493, 0.0010946088, 0.000028702132, -29898.002, -29898.002, 0.0, 10.00887, 9.939224 
6.0757184e+3, 1.2514462e+2, -1708635.1, -1722745.3, 3.5548868, 0.0011149372, 0.00020203364, -1708635.1, 4948.8276, 0.0, 10.009076, 9.990373 
6.0757166e+3, 1.3513485e+2, -1611327.5, -1626019.4, -11.456403, 0.0011126675, 0.000022814207, -1611327.5, 4352.2827, 0.0, 10.009062, 9.989589 
6.0757154e+3, 1.4511852e+2, -1523303.3, -1546825.6, -0.03475251, 0.0011118242, 0.00028334334, -1523303.3, -5463.477, 0.0, 10.009048, 9.977886 
6.0757136e+3, 1.5509638e+2, -1425643.8, -1449560.0, -15.599337, 0.0011123025, 0.000092644026, -1425643.8, -5587.0215, 0.0, 10.009036, 9.977356 
6.0757124e+3, 1.6506766e+2, -1337606.9, -1370668.4, -2.9101064, 0.0011118826, 0.00017341197, -1337606.9, -15268.776, 0.0, 10.009024, 9.965321 
6.0757107e+3, 1.7503302e+2, -1239718.1, -1273086.5, -18.547327, 0.0011106028, 0.00006875474, -1239718.1, -15040.644, 0.0, 10.009011, 9.964907 
6.0757095e+3, 1.8499169e+2, -1151816.3, -1194794.0, -6.7830963, 0.001109852, 0.00021224181, -1151816.3, -24733.646, 0.0, 10.009, 9.952315 
6.075708e+3, 1.9494402e+2, -1053732.4, -1096965.0, -21.499327, 0.0011096185, 0.00007833649, -1053732.4, -24182.729, 0.0, 10.008988, 9.951972 
6.075707e+3, 2.0488968e+2, -965661.25, -1018702.7, -8.734895, 0.0011092767, 0.00019837484, -965661.25, -33579.11, 0.0, 10.008977, 9.939159 
6.075705e+3, 2.1482888e+2, -867439.4, -920734.94, -24.529345, 0.0011088199, 0.0000025534089, -867439.4, -32761.375, 0.0, 10.0089655, 9.938818 
6.075704e+3, 2.2476137e+2, -779216.06, -842549.75, -6.761792, 0.0011080902, 0.00024725744, -779216.06, -41876.508, 0.0, 10.008955, 9.925759 
6.075703e+3, 2.346872e+2, -680845.0, -744427.0, -22.266573, 0.0011070599, 0.00003221245, -680845.0, -40778.516, 0.0, 10.008945, 9.925427 
6.0757023e+3, 2.4460605e+2, -592582.94, -666560.8, -4.115017, 0.0011066042, 0.00019169982, -592582.94, -49721.348, 0.0, 10.008935, 9.911969 
6.0757005e+3, 2.5451815e+2, -493892.9, -567941.3, -19.50486, 0.001106804, 0.000007742388, -493892.9, -48169.816, 0.0, 10.008925, 9.911868 
6.0757e+3, 2.6442313e+2, -405728.28, -490688.6, -0.12878266, 0.00110637, 0.00025113672, -405728.28, -57074.086, 0.0, 10.008916, 9.897764 
6.075699e+3, 2.7432144e+2, -306504.97, -391132.34, -14.450355, 0.0011051515, -0.00009858754, -306504.97, -54854.25, 0.0, 10.008906, 9.898182 
6.0756975e+3, 2.8421158e+2, -219958.02, -317653.53, 3.5141063, 0.0011044468, 0.0003308576, -219958.02, -65230.84, 0.0, 10.008898, 9.881391 
6.075697e+3, 2.9409406e+2, -120303.87, -217372.53, -10.7160425, 0.0011044219, -0.00015110713, -120303.87, -62424.746, 0.0, 10.008889, 9.882182 
6.075696e+3, 3.0400425e+2, -30957.355, -85021.51, 5.659794, 0.0011040956, 0.00027020165, -30957.355, -30957.355, 0.0, 10.008882, 9.937715 
6.075695e+3, 3.1394377e+2, -29925.438, -82856.01, -7.3871713, 0.0011033213, 0.000028782755, -29925.438, -29925.438, 0.0, 10.008873, 9.93918 
6.085728e+3, 1.2514623e+2, -1708367.8, -1722649.3, 8.909858, 0.0011233292, 0.00020273743, -1708367.8, 5200.5225, 0.0, 10.009262, 9.990332 
6.085726e+3, 1.351364e+2, -1611059.3, -1625923.6, -6.337322, 0.0011207329, 0.000023508688, -1611059.3, 4605.182, 0.0, 10.00925, 9.989549 
6.085725e+3, 1.4512004e+2, -1523037.0, -1546732.4, 4.9549184, 0.0011198899, 0.0002839719, -1523037.0, -5212.0767, 0.0, 10.009236, 9.977845 
6.085723e+3, 1.5509786e+2, -1425381.4, -1449469.5, -10.625149, 0.0011206784, 0.00009315151, -1425381.4, -5339.1704, 0.0, 10.009223, 9.977314 
6.085722e+3, 1.6506909e+2, -1337346.3, -1370579.6, 2.3578546, 0.0011202663, 0.00017392526, -1337346.3, -15022.18, 0.0, 10.00921, 9.965279 
6.08572e+3, 1.7503442e+2, -1239457.3, -1272998.3, -13.685987, 0.001118702, 0.000069396534, -1239457.3, -14793.436, 0.0, 10.009198, 9.964865 
6.085719e+3, 1.8499303e+2, -1151554.1, -1194702.3, -2.0905108, 0.00111797, 0.00021290766, -1151554.1, -24484.77, 0.0, 10.009187, 9.952277 
6.085717e+3, 1.9494535e+2, -1053473.5, -1096875.6, -16.85166, 0.0011180562, 0.000078922785, -1053473.5, -23936.79, 0.0, 10.009174, 9.951933 
6.085716e+3, 2.0489097e+2, -965406.8, -1018620.56, -3.9316452, 0.0011176987, 0.00019888933, -965406.8, -33337.164, 0.0, 10.009163, 9.9391165 
6.085714e+3, 2.1483012e+2, -867185.25, -920653.6, -20.049746, 0.0011168801, 0.0000030040462, -867185.25, -32519.316, 0.0, 10.009151, 9.938775 
6.0857135e+3, 2.2476256e+2, -778963.25, -842470.2, -2.4066145, 0.0011161389, 0.0002477973, -778963.25, -41635.348, 0.0, 10.009141, 9.925716 
6.085712e+3, 2.3468834e+2, -680594.94, -744349.5, -18.272797, 0.0011154762, 0.000033007203, -680594.94, -40539.65, 0.0, 10.0091305, 9.9253845 
6.085711e+3, 2.4460717e+2, -592334.4, -666484.9, -0.01186286, 0.0011150806, 0.00019234749, -592334.4, -49483.61, 0.0, 10.00912, 9.911926 
6.08571e+3, 2.545192e+2, -493645.3, -567866.56, -15.204023, 0.0011149868, 0.000007781669, -493645.3, -47932.598, 0.0, 10.00911, 9.911825 
6.085709e+3, 2.6442415e+2, -405482.13, -490616.03, 4.066528, 0.0011144677, 0.0002513259, -405482.13, -56837.88, 0.0, 10.009101, 9.89772 
6.0857075e+3, 2.7432242e+2, -306260.63, -391061.44, -11.464547, 0.0011134197, -0.00009731708, -306260.63, -54619.43, 0.0, 10.009091, 9.898137 
6.0857064e+3, 2.8421253e+2, -219713.5, -317580.78, 6.486985, 0.0011128242, 0.00033202436, -219713.5, -64995.426, 0.0, 10.009083, 9.881349 
6.085706e+3, 2.9409495e+2, -120061.31, -217301.3, -6.4433, 0.0011128266, -0.00015161793, -120061.31, -62190.867, 0.0, 10.009073, 9.88214 
6.085705e+3, 3.040051e+2, -30721.068, -84959.945, 9.930848, 0.0011124266, 0.00026959926, -30721.066, -30721.066, 0.0, 10.009066, 9.937668 
6.085704e+3, 3.1394458e+2, -29688.967, -82794.97, -5.369713, 0.0011114334, 0.000030391668, -29688.967, -29688.967, 0.0, 10.009057, 9.939133 
6.0957366e+3, 1.2514783e+2, -1708399.4, -1722714.0, 4.1476693, 0.0011308824, 0.00020357069, -1708399.4, 5153.116, 0.0, 10.009265, 9.990291 
6.0957354e+3, 1.3513799e+2, -1611090.8, -1625988.3, -11.097339, 0.0011296076, 0.000024331397, -1611090.8, 4558.265, 0.0, 10.009253, 9.989507 
6.0957336e+3, 1.4512156e+2, -1523068.6, -1546797.5, -0.33492032, 0.0011288286, 0.0002846465, -1523068.6, -5258.7324, 0.0, 10.009239, 9.977803 
6.0957325e+3, 1.5509935e+2, -1425412.4, -1449534.1, -15.911176, 0.0011284853, 0.00009354606, -1425412.4, -5384.762, 0.0, 10.009225, 9.977272 
6.0957307e+3, 1.6507055e+2, -1337377.6, -1370645.4, -1.9868749, 0.0011279255, 0.00017433979, -1337377.6, -15067.686, 0.0, 10.0092125, 9.965236 
6.095729e+3, 1.7503583e+2, -1239488.4, -1273063.6, -18.014284, 0.001127165, 0.00007012082, -1239488.4, -14838.336, 0.0, 10.009201, 9.964823 
6.095728e+3, 1.849944e+2, -1151582.3, -1194762.1, -6.762317, 0.0011266866, 0.00021367981, -1151582.3, -24526.219, 0.0, 10.009189, 9.952238 
6.0957265e+3, 1.9494668e+2, -1053501.1, -1096935.1, -21.53048, 0.0011264789, 0.000079483005, -1053501.0, -23977.33, 0.0, 10.009176, 9.951894 
6.095725e+3, 2.0489225e+2, -965437.4, -1018686.2, -7.9619327, 0.0011258257, 0.00019931672, -965437.4, -33380.285, 0.0, 10.009165, 9.939074 
6.0957235e+3, 2.1483134e+2, -867215.5, -920719.0, -24.069677, 0.0011247098, 0.0000033802007, -867215.5, -32561.738, 0.0, 10.009154, 9.938732 
6.095723e+3, 2.2476377e+2, -778993.56, -842536.06, -6.48937, 0.0011242196, 0.00024834968, -778993.56, -41677.41, 0.0, 10.009144, 9.925673 
6.095721e+3, 2.3468949e+2, -680624.8, -744414.94, -22.346537, 0.0011244009, 0.000033982054, -680624.75, -40580.84, 0.0, 10.009133, 9.925342 
6.09572e+3, 2.4460828e+2, -592363.56, -666549.3, -3.7011647, 0.0011239244, 0.00019307004, -592363.56, -49523.66, 0.0, 10.009123, 9.911883 
6.095719e+3, 2.5452027e+2, -493674.03, -567930.56, -18.909933, 0.0011226892, 0.0000074782292, -493674.03, -47971.785, 0.0, 10.009113, 9.911782 
6.0957175e+3, 2.6442516e+2, -405512.38, -490683.6, 0.59898114, 0.0011220083, 0.00025130197, -405512.38, -56878.17, 0.0, 10.009104, 9.897675 
6.095717e+3, 2.743234e+2, -306290.6, -391128.8, -14.855354, 0.0011220016, -0.000095459145, -306290.6, -54659.004, 0.0, 10.009094, 9.898092 
6.095716e+3, 2.8421348e+2, -219739.61, -317640.7, 3.1735995, 0.0011218181, 0.00033366145, -219739.61, -65030.715, 0.0, 10.009086, 9.881309 
6.0957146e+3, 2.940958e+2, -120086.69, -217360.19, -9.850665, 0.0011213949, -0.00015299192, -120086.69, -62225.01, 0.0, 10.009076, 9.8821 
6.095714e+3, 3.0400595e+2, -30752.264, -85031.16, 6.9070716, 0.001120555, 0.0002681579, -30752.262, -30752.262, 0.0, 10.009068, 9.937618 
6.0957134e+3, 3.139454e+2, -29720.848, -82867.58, -8.231618, 0.0011191072, 0.00003315108, -29720.846, -29720.846, 0.0, 10.00906, 9.939082 
6.105746e+3, 1.2514947e+2, -1708125.0, -1722614.9, 9.567972, 0.0011387016, 0.00020414044, -1708125.0, 5411.4863, 0.0, 10.009457, 9.990249 
6.105745e+3, 1.3513957e+2, -1610821.9, -1625892.6, -5.836404, 0.0011382548, 0.00002485473, -1610821.9, 4811.5674, 0.0, 10.009441, 9.989466 
6.105743e+3, 1.4512311e+2, -1522801.8, -1546704.5, 5.161243, 0.0011375048, 0.00028518954, -1522801.8, -5007.0874, 0.0, 10.009427, 9.977761 
6.105742e+3, 1.5510085e+2, -1425144.0, -1449441.0, -10.765436, 0.0011364316, 0.00009416982, -1425144.0, -5131.0654, 0.0, 10.009416, 9.97723 
6.10574e+3, 1.6507201e+2, -1337110.4, -1370553.9, 3.0328374, 0.0011358389, 0.00017496834, -1337110.4, -14814.872, 0.0, 10.009403, 9.965194 
6.105739e+3, 1.7503725e+2, -1239225.6, -1272975.1, -13.084593, 0.0011357188, 0.00007068117, -1239225.6, -14589.46, 0.0, 10.009389, 9.96478 
6.105737e+3, 1.8499577e+2, -1151318.5, -1194670.3, -1.6768974, 0.0011352925, 0.00021421192, -1151318.5, -24276.02, 0.0, 10.0093775, 9.952198 
6.105736e+3, 1.9494802e+2, -1053237.0, -1096843.8, -16.774343, 0.0011345532, 0.000080026475, -1053237.0, -23726.4, 0.0, 10.009366, 9.951855 
6.105734e+3, 2.0489354e+2, -965177.3, -1018601.9, -3.295023, 0.0011338417, 0.00019989918, -965177.3, -33132.93, 0.0, 10.009355, 9.939031 
6.105733e+3, 2.148326e+2, -866958.44, -920636.94, -19.603483, 0.0011331551, 0.0000040301243, -866958.44, -32316.96, 0.0, 10.009343, 9.938688 
6.105732e+3, 2.2476497e+2, -778738.4, -842455.9, -1.9598814, 0.001132743, 0.00024888935, -778738.4, -41434.055, 0.0, 10.009332, 9.92563 
6.1057305e+3, 2.3469065e+2, -680370.6, -744336.06, -17.948101, 0.0011326225, 0.000034219367, -680370.6, -40338.098, 0.0, 10.009321, 9.925298 
6.1057293e+3, 2.4460939e+2, -592110.4, -666471.94, 0.66913813, 0.0011320625, 0.00019346795, -592110.4, -49281.516, 0.0, 10.009311, 9.911839 
6.105728e+3, 2.5452134e+2, -493422.34, -567854.6, -15.200024, 0.001130994, 0.000008566971, -493422.34, -47730.664, 0.0, 10.009301, 9.911738 
6.105727e+3, 2.644262e+2, -405262.47, -490609.78, 4.303773, 0.001130407, 0.00025220893, -405262.47, -56638.4, 0.0, 10.009292, 9.897631 
6.1057264e+3, 2.7432436e+2, -306043.06, -391056.9, -10.589785, 0.0011304051, -0.000095803436, -306043.03, -54421.14, 0.0, 10.009281, 9.898047 
6.105725e+3, 2.842144e+2, -219491.88, -317567.3, 7.415096, 0.0011301665, 0.00033338205, -219491.88, -64792.25, 0.0, 10.009273, 9.881266 
6.105724e+3, 2.9409674e+2, -119839.67, -217287.75, -7.1578126, 0.0011296087, -0.00015146335, -119839.67, -61986.86, 0.0, 10.009264, 9.882057 
6.1057234e+3, 3.0400681e+2, -30511.133, -84967.99, 9.362117, 0.001128777, 0.00026979734, -30511.13, -30511.13, 0.0, 10.009255, 9.937571 
6.105722e+3, 3.139462e+2, -29480.633, -82805.46, -4.4814754, 0.0011275447, 0.000032448683, -29480.633, -29480.633, 0.0, 10.009248, 9.939034 
6.115756e+3, 1.2515111e+2, -1708157.3, -1722680.5, 3.7910159, 0.0011467468, 0.00020451396, -1708157.3, 5363.195, 0.0, 10.009459, 9.990208 
6.1157537e+3, 1.3514118e+2, -1610853.4, -1625957.8, -11.597176, 0.0011467421, 0.00002515583, -1610853.4, 4764.393, 0.0, 10.009443, 9.989424 
6.1157525e+3, 1.4512467e+2, -1522833.9, -1546771.1, 0.633302, 0.0011459946, 0.0002856361, -1522833.9, -5054.419, 0.0, 10.00943, 9.977718 
6.115751e+3, 1.5510237e+2, -1425175.9, -1449507.3, -15.2866, 0.0011445072, 0.00009496668, -1425175.9, -5177.865, 0.0, 10.0094185, 9.977187 
6.1157495e+3, 1.6507347e+2, -1337142.1, -1370620.0, -2.0578494, 0.0011439689, 0.00017575838, -1337142.1, -14860.994, 0.0, 10.009405, 9.965151 
6.115748e+3, 1.7503868e+2, -1239256.6, -1273040.8, -18.17063, 0.0011443545, 0.00007112023, -1239256.6, -14634.529, 0.0, 10.009392, 9.964737 
6.1157465e+3, 1.8499716e+2, -1151347.0, -1194731.3, -5.894675, 0.0011438272, 0.00021456582, -1151347.0, -24318.129, 0.0, 10.009379, 9.952158 
6.1157453e+3, 1.9494936e+2, -1053265.3, -1096904.5, -20.986244, 0.0011423862, 0.000080558915, -1053265.3, -23767.896, 0.0, 10.009369, 9.951815 
6.1157435e+3, 2.0489486e+2, -965208.3, -1018668.4, -7.7204857, 0.0011417972, 0.00020059929, -965208.3, -33176.766, 0.0, 10.009357, 9.938987 
6.1157423e+3, 2.1483387e+2, -866989.0, -920703.06, -24.029774, 0.0011420817, 0.000004886737, -866989.0, -32359.916, 0.0, 10.009345, 9.938645 
6.115741e+3, 2.247662e+2, -778768.75, -842522.2, -5.960567, 0.0011416152, 0.00024942096, -778768.75, -41476.414, 0.0, 10.009335, 9.925586 
6.11574e+3, 2.3469183e+2, -680400.56, -744401.9, -21.943829, 0.0011403314, 0.000033905322, -680400.56, -40379.594, 0.0, 10.009324, 9.925254 
6.115739e+3, 2.4461052e+2, -592140.8, -666539.06, -3.0286129, 0.001139688, 0.00019362457, -592140.8, -49323.043, 0.0, 10.009314, 9.911795 
6.1157376e+3, 2.5452244e+2, -493452.44, -567921.44, -18.869026, 0.0011397734, 0.00001070244, -493452.44, -47771.453, 0.0, 10.009304, 9.911694 
6.1157364e+3, 2.6442724e+2, -405291.63, -490675.13, 0.63149893, 0.0011394724, 0.00025381538, -405291.63, -56677.79, 0.0, 10.0092945, 9.897586 
6.115735e+3, 2.7432537e+2, -306071.63, -391121.7, -14.294716, 0.0011386902, -0.00009780123, -306071.63, -54459.5, 0.0, 10.009284, 9.898004 
6.1157346e+3, 2.8421536e+2, -219520.64, -317632.97, 4.1881356, 0.0011380434, 0.00033166553, -219520.64, -64830.363, 0.0, 10.009275, 9.881221 
6.1157334e+3, 2.9409766e+2, -119868.125, -217353.13, -10.298114, 0.0011375735, -0.00014774888, -119868.125, -62024.26, 0.0, 10.009267, 9.882012 
6.115732e+3, 3.0400765e+2, -30540.28, -85034.91, 6.335378, 0.0011370904, 0.0002737545, -30540.277, -30540.277, 0.0, 10.009258, 9.937524 
6.1157316e+3, 3.1394702e+2, -29509.922, -82872.625, -7.5472975, 0.0011365783, 0.000029139816, -29509.92, -29509.92, 0.0, 10.00925, 9.938988 
6.125765e+3, 1.2515277e+2, -1707883.1, -1722582.3, 9.419006, 0.0011555906, 0.00020512672, -1707883.1, 5621.0527, 0.0, 10.00965, 9.990166 
6.1257637e+3, 1.3514277e+2, -1610577.1, -1625858.9, -6.259319, 0.0011544863, 0.000025781343, -1610577.1, 5024.8965, 0.0, 10.009637, 9.989382 
6.1257625e+3, 1.4512625e+2, -1522559.4, -1546674.8, 5.940963, 0.0011537235, 0.00028623684, -1522559.4, -4795.364, 0.0, 10.009624, 9.977675 
6.12576e+3, 1.5510389e+2, -1424906.6, -1449414.4, -10.124481, 0.0011532455, 0.00009550546, -1424906.6, -4923.5938, 0.0, 10.009609, 9.977144 
6.125759e+3, 1.6507496e+2, -1336874.5, -1370528.8, 3.2504506, 0.0011527847, 0.0001763017, -1336874.5, -14608.017, 0.0, 10.009596, 9.965108 
6.125757e+3, 1.7504011e+2, -1238988.0, -1272949.6, -13.137787, 0.0011523502, 0.00007173218, -1238988.0, -14379.992, 0.0, 10.009584, 9.964694 
6.125756e+3, 1.8499857e+2, -1151076.8, -1194636.6, -0.88338107, 0.001151724, 0.0002151779, -1151076.8, -24061.617, 0.0, 10.009572, 9.952118 
6.125754e+3, 1.9495071e+2, -1052998.6, -1096812.5, -16.145067, 0.0011508979, 0.00008110344, -1052998.6, -23514.549, 0.0, 10.00956, 9.951775 
6.125753e+3, 2.0489617e+2, -964946.44, -1018583.8, -2.886457, 0.0011504347, 0.00020108442, -964946.44, -32927.836, 0.0, 10.009548, 9.938943 
6.125752e+3, 2.1483514e+2, -866727.94, -920619.7, -19.456615, 0.0011503422, 0.0000053208414, -866727.94, -32111.363, 0.0, 10.009537, 9.938601 
6.1257505e+3, 2.2476743e+2, -778508.56, -842440.2, -1.3187817, 0.0011497571, 0.0002499465, -778508.56, -41228.316, 0.0, 10.009526, 9.925541 
6.125749e+3, 2.3469302e+2, -680141.8, -744321.4, -17.617811, 0.0011486333, 0.000034676083, -680141.8, -40132.46, 0.0, 10.009515, 9.92521 
6.125748e+3, 2.4461167e+2, -591884.0, -666460.75, 1.2253058, 0.001148103, 0.00019426884, -591884.0, -49077.41, 0.0, 10.009504, 9.91175 
6.125747e+3, 2.5452355e+2, -493198.28, -567845.2, -14.656567, 0.0011482481, 0.000010794767, -493198.28, -47528.063, 0.0, 10.009494, 9.911649 
6.125746e+3, 2.6442832e+2, -405038.63, -490600.2, 4.8986173, 0.0011478927, 0.00025401587, -405038.63, -56435.105, 0.0, 10.009484, 9.897541 
6.1257446e+3, 2.7432638e+2, -305818.78, -391047.6, -10.70678, 0.0011469164, -0.000096683696, -305818.78, -54216.563, 0.0, 10.009476, 9.897959 
6.1257434e+3, 2.8421634e+2, -219267.81, -317558.44, 7.6678762, 0.0011462523, 0.00033272427, -219267.81, -64586.992, 0.0, 10.009466, 9.881177 
6.125743e+3, 2.940986e+2, -119617.94, -217280.55, -6.448785, 0.0011459994, -0.00014804247, -119617.94, -61783.082, 0.0, 10.009458, 9.8819685 
6.1257416e+3, 3.0400854e+2, -30296.256, -84970.36, 10.116818, 0.0011455978, 0.00027334472, -30296.254, -30296.254, 0.0, 10.009448, 9.937476 
6.125741e+3, 3.1394786e+2, -29266.844, -82808.984, -4.696758, 0.00114497, 0.000030406767, -29266.844, -29266.844, 0.0, 10.009439, 9.938939 
6.135775e+3, 1.2515444e+2, -1707915.6, -1722648.9, 4.5390496, 0.0011650388, 0.00020591954, -1707915.6, 5572.1494, 0.0, 10.009653, 9.990123 
6.1357737e+3, 1.3514441e+2, -1610609.5, -1625925.4, -11.12884, 0.0011617034, 0.000026649597, -1610609.5, 4976.5615, 0.0, 10.00964, 9.98934 
6.135771e+3, 1.4512783e+2, -1522592.0, -1546742.0, 0.4607902, 0.0011609131, 0.0002869533, -1522592.0, -4843.5015, 0.0, 10.009626, 9.9776325 
6.13577e+3, 1.5510544e+2, -1424938.6, -1449481.1, -15.586914, 0.0011624912, 0.00009585341, -1424938.6, -4970.677, 0.0, 10.009612, 9.977101 
6.135768e+3, 1.6507646e+2, -1336906.5, -1370595.9, -1.1859486, 0.001162123, 0.00017666291, -1336906.5, -14654.663, 0.0, 10.009599, 9.965065 
6.135767e+3, 1.7504159e+2, -1239019.6, -1273016.4, -17.569376, 0.0011598909, 0.00007247466, -1239019.6, -14425.971, 0.0, 10.009587, 9.964651 
6.135766e+3, 1.8499999e+2, -1151105.8, -1194698.5, -5.6430483, 0.0011591696, 0.00021598395, -1151105.8, -24104.453, 0.0, 10.009575, 9.952078 
6.135764e+3, 1.9495209e+2, -1053027.1, -1096873.9, -20.900755, 0.0011599341, 0.0000816584, -1053027.1, -23556.514, 0.0, 10.0095625, 9.951735 
6.135763e+3, 2.0489751e+2, -964977.75, -1018651.25, -7.150499, 0.0011595967, 0.0002014106, -964977.75, -32972.24, 0.0, 10.009551, 9.938898 
6.135761e+3, 2.1483645e+2, -866758.9, -920686.75, -23.71465, 0.0011581222, 0.000005441193, -866758.9, -32154.936, 0.0, 10.00954, 9.938557 
6.1357605e+3, 2.2476867e+2, -778539.56, -842507.75, -5.3046975, 0.001157373, 0.0002504696, -778539.56, -41271.5, 0.0, 10.009528, 9.925497 
6.135759e+3, 2.3469423e+2, -680172.5, -744388.56, -21.597982, 0.0011574009, 0.00003625956, -680172.44, -40174.883, 0.0, 10.009518, 9.925165 
6.1357576e+3, 2.4461283e+2, -591914.44, -666528.0, -2.7920036, 0.0011571292, 0.0001952786, -591914.44, -49119.203, 0.0, 10.009507, 9.911705 
6.1357564e+3, 2.5452465e+2, -493228.22, -567912.0, -18.668905, 0.0011565099, 0.000009359487, -493228.22, -47568.832, 0.0, 10.009497, 9.911604 
6.135755e+3, 2.6442936e+2, -405068.88, -490668.16, 1.53182, 0.0011558454, 0.00025316697, -405068.88, -56475.78, 0.0, 10.009487, 9.897495 
6.1357546e+3, 2.7432743e+2, -305848.8, -391115.25, -14.050873, 0.0011551194, -0.00009323014, -305848.78, -54256.566, 0.0, 10.009479, 9.897913 
6.135753e+3, 2.842173e+2, -219296.03, -317622.84, 4.170195, 0.0011547327, 0.00033586237, -219296.03, -64624.77, 0.0, 10.009469, 9.881133 
6.135752e+3, 2.9409948e+2, -119645.53, -217344.23, -9.931431, 0.0011547905, -0.00015134049, -119645.53, -61819.766, 0.0, 10.0094595, 9.881925 
6.1357516e+3, 3.0400944e+2, -30326.799, -85040.51, 6.8821507, 0.0011542676, 0.00026966396, -30326.797, -30326.797, 0.0, 10.009451, 9.9374275 
6.1357504e+3, 3.139487e+2, -29297.656, -82879.85, -7.953031, 0.0011528962, 0.000035110916, -29297.656, -29297.656, 0.0, 10.009442, 9.93889 
6.145785e+3, 1.2515613e+2, -1707634.3, -1722547.3, 9.970402, 0.0011727642, 0.0002065216, -1707634.3, 5836.9717, 0.0, 10.009849, 9.990081 
6.145783e+3, 1.3514605e+2, -1610332.8, -1625826.9, -5.757219, 0.0011705597, 0.000027203507, -1610332.8, 5237.179, 0.0, 10.009834, 9.989297 
6.145781e+3, 1.4512944e+2, -1522317.3, -1546646.0, 5.9004836, 0.0011698077, 0.0002874984, -1522317.3, -4584.453, 0.0, 10.00982, 9.97759 
6.1457795e+3, 1.5510699e+2, -1424662.9, -1449385.3, -10.348059, 0.0011703908, 0.000096425014, -1424662.9, -4710.1753, 0.0, 10.009808, 9.977058 
6.1457783e+3, 1.6507797e+2, -1336632.1, -1370501.9, 4.1833873, 0.0011699463, 0.00017723982, -1336632.1, -14395.0625, 0.0, 10.009794, 9.965021 
6.145777e+3, 1.7504305e+2, -1238748.9, -1272925.0, -12.446836, 0.0011685214, 0.00007303688, -1238748.9, -14169.63, 0.0, 10.009781, 9.964607 
6.1457753e+3, 1.8500142e+2, -1150834.1, -1194603.8, -0.5839748, 0.0011679337, 0.00021652061, -1150834.1, -23846.81, 0.0, 10.0097685, 9.952038 
6.145774e+3, 1.9495347e+2, -1052756.0, -1096780.1, -16.041502, 0.0011681655, 0.00008215873, -1052756.0, -23299.0, 0.0, 10.009757, 9.951694 
6.1457723e+3, 2.0489885e+2, -964710.56, -1018564.7, -2.1716168, 0.0011676763, 0.00020192665, -964710.56, -32718.174, 0.0, 10.009746, 9.938854 
6.145771e+3, 2.1483774e+2, -866493.3, -920601.8, -18.981579, 0.0011664412, 0.0000060265147, -866493.3, -31902.092, 0.0, 10.009734, 9.938512 
6.1457694e+3, 2.2476994e+2, -778276.0, -842424.9, -0.686672, 0.0011658539, 0.0002510245, -778276.0, -41020.215, 0.0, 10.009723, 9.925451 
6.145769e+3, 2.3469543e+2, -679911.5, -744307.75, -17.250717, 0.0011659604, 0.00003667669, -679911.5, -39925.758, 0.0, 10.009711, 9.925119 
6.145767e+3, 2.4461399e+2, -591654.4, -666448.4, 1.7022767, 0.0011655947, 0.00019572712, -591654.4, -48870.55, 0.0, 10.009701, 9.911659 
6.1457664e+3, 2.5452578e+2, -492968.0, -567833.06, -14.370585, 0.0011646831, 0.000010032306, -492968.0, -47319.6, 0.0, 10.009691, 9.911558 
6.1457646e+3, 2.6443046e+2, -404810.56, -490592.2, 5.6637306, 0.0011640192, 0.00025379696, -404810.56, -56228.008, 0.0, 10.009682, 9.8974495 
6.1457634e+3, 2.7432844e+2, -305593.97, -391041.84, -10.34933, 0.0011636522, -0.000092968636, -305593.97, -54011.805, 0.0, 10.009671, 9.897866 
6.145763e+3, 2.8421828e+2, -219040.75, -317546.56, 7.910271, 0.0011633734, 0.00033611347, -219040.75, -64379.12, 0.0, 10.009662, 9.88109 
6.1457616e+3, 2.9410043e+2, -119390.8, -217268.73, -6.1245594, 0.0011632063, -0.00015062871, -119390.8, -61574.246, 0.0, 10.009653, 9.881882 
6.145761e+3, 3.040103e+2, -30078.469, -84976.37, 10.554052, 0.0011625446, 0.000270431, -30078.467, -30078.467, 0.0, 10.0096445, 9.937378 
6.14576e+3, 3.1394953e+2, -29048.895, -82816.28, -5.131839, 0.0011611608, 0.00003535338, -29048.895, -29048.895, 0.0, 10.009637, 9.93884 
6.155794e+3, 1.2515783e+2, -1707667.0, -1722614.1, 4.3409724, 0.0011792437, 0.00020698231, -1707667.0, 5787.5967, 0.0, 10.009851, 9.990038 
6.155793e+3, 1.3514772e+2, -1610365.0, -1625893.4, -11.384044, 0.0011806425, 0.000027526214, -1610365.0, 5188.6978, 0.0, 10.009836, 9.989254 
6.155791e+3, 1.4513104e+2, -1522350.0, -1546714.0, 1.0504285, 0.0011799757, 0.00028791884, -1522350.0, -4633.0703, 0.0, 10.009823, 9.977546 
6.1557895e+3, 1.5510857e+2, -1424695.3, -1449452.9, -15.197156, 0.001177317, 0.00009716409, -1424695.3, -4758.032, 0.0, 10.00981, 9.977015 
6.1557883e+3, 1.650795e+2, -1336664.6, -1370570.1, -0.8342854, 0.0011766732, 0.00017797793, -1336664.6, -14442.599, 0.0, 10.009797, 9.964977 
6.1557865e+3, 1.7504452e+2, -1238781.0, -1272992.8, -17.449408, 0.001177977, 0.000073466595, -1238781.0, -14216.26, 0.0, 10.009784, 9.964563 
6.1557853e+3, 1.8500285e+2, -1150863.3, -1194666.3, -5.0916977, 0.0011776894, 0.00021685884, -1150863.3, -23890.113, 0.0, 10.009771, 9.951997 
6.1557835e+3, 1.9495489e+2, -1052784.8, -1096842.3, -20.551361, 0.0011758183, 0.00008262027, -1052784.8, -23341.514, 0.0, 10.00976, 9.951653 
6.1557823e+3, 2.049002e+2, -964742.4, -1018633.1, -6.4875793, 0.0011749745, 0.0002025857, -964742.4, -32763.291, 0.0, 10.009748, 9.938809 
6.1557806e+3, 2.1483906e+2, -866524.8, -920669.9, -23.292765, 0.0011751826, 0.000006959337, -866524.8, -31946.44, 0.0, 10.009737, 9.938467 
6.1557794e+3, 2.247712e+2, -778307.5, -842493.5, -4.973894, 0.0011749971, 0.00025160436, -778307.5, -41064.137, 0.0, 10.009726, 9.925406 
6.155778e+3, 2.3469666e+2, -679942.44, -744375.9, -21.525324, 0.0011743807, 0.000036227008, -679942.44, -39968.676, 0.0, 10.009714, 9.925075 
6.155777e+3, 2.4461515e+2, -591685.06, -666516.4, -1.9066695, 0.0011736596, 0.00019576019, -591685.06, -48912.73, 0.0, 10.009704, 9.911614 
6.155776e+3, 2.545269e+2, -492998.4, -567900.7, -17.984512, 0.0011728138, 0.000012278426, -492998.38, -47361.082, 0.0, 10.009694, 9.911513 
6.1557746e+3, 2.644315e+2, -404841.78, -490661.9, 1.7967873, 0.0011723815, 0.00025552989, -404841.78, -56269.855, 0.0, 10.009685, 9.897403 
6.1557734e+3, 2.7432945e+2, -305624.66, -391111.2, -14.166401, 0.0011724478, -0.00009508769, -305624.66, -54052.633, 0.0, 10.009674, 9.8978195 
6.155772e+3, 2.8421926e+2, -219068.61, -317610.66, 4.6270843, 0.0011721484, 0.00033421366, -219068.61, -64416.68, 0.0, 10.009665, 9.881046 
6.1557716e+3, 2.941014e+2, -119418.086, -217332.03, -9.469931, 0.0011713603, -0.00014691931, -119418.086, -61610.855, 0.0, 10.009656, 9.881839 
6.1557704e+3, 3.0401123e+2, -30110.54, -85049.69, 7.5013328, 0.0011705497, 0.00027452013, -30110.54, -30110.54, 0.0, 10.009647, 9.937326 
6.15577e+3, 3.139504e+2, -29081.629, -82890.805, -8.009387, 0.0011697006, 0.000032260745, -29081.629, -29081.629, 0.0, 10.00964, 9.938788 
6.165805e+3, 1.2515953e+2, -1707383.9, -1722512.3, 10.193227, 0.0011879714, 0.00020743144, -1707383.9, 6053.9146, 0.0, 10.010049, 9.989995 
6.1658025e+3, 1.3514939e+2, -1610082.6, -1625792.5, -5.912886, 0.0011885961, 0.00002806434, -1610082.6, 5454.7114, 0.0, 10.010035, 9.989211 
6.165801e+3, 1.4513268e+2, -1522069.6, -1546615.8, 6.732753, 0.0011879246, 0.00028849926, -1522069.6, -4368.5635, 0.0, 10.01002, 9.977502 
6.1657995e+3, 1.5511015e+2, -1424417.4, -1449356.8, -9.787739, 0.0011859849, 0.00009774101, -1424417.4, -4495.64, 0.0, 10.010007, 9.976971 
6.165798e+3, 1.6508104e+2, -1336388.3, -1370475.6, 4.425653, 0.0011854158, 0.00017853365, -1336388.3, -14181.346, 0.0, 10.0099945, 9.964932 
6.1657965e+3, 1.7504603e+2, -1238505.8, -1272899.5, -12.345272, 0.001186176, 0.00007398422, -1238505.6, -13955.594, 0.0, 10.009981, 9.9645195 
6.165795e+3, 1.8500431e+2, -1150586.4, -1194569.5, 0.23117375, 0.0011857712, 0.0002173633, -1150586.4, -23627.47, 0.0, 10.009969, 9.951956 
6.1657935e+3, 1.949563e+2, -1052509.5, -1096747.0, -15.503347, 0.0011842033, 0.00008313632, -1052509.5, -23080.055, 0.0, 10.009957, 9.9516115 
6.165792e+3, 2.0490156e+2, -964471.8, -1018545.56, -1.6126128, 0.0011835211, 0.0002031188, -964471.8, -32506.178, 0.0, 10.009945, 9.938764 
6.1657906e+3, 2.1484038e+2, -866256.75, -920584.3, -18.65777, 0.001183746, 0.000007515091, -866256.7, -31691.318, 0.0, 10.009933, 9.938422 
6.165789e+3, 2.2477247e+2, -778040.44, -842409.44, -0.1369731, 0.0011834347, 0.0002521275, -778040.44, -40809.61, 0.0, 10.009922, 9.925361 
6.165788e+3, 2.346979e+2, -679675.44, -744292.56, -16.821733, 0.0011825383, 0.00003665782, -679675.44, -39713.746, 0.0, 10.009912, 9.925029 
6.1657864e+3, 2.4461634e+2, -591419.8, -666435.5, 2.6123047, 0.0011818764, 0.00019622892, -591419.8, -48659.125, 0.0, 10.009901, 9.911568 
6.165786e+3, 2.5452805e+2, -492736.66, -567822.3, -14.085131, 0.0011814777, 0.000012934237, -492736.66, -47110.52, 0.0, 10.009891, 9.911467 
6.165784e+3, 2.644326e+2, -404581.28, -490584.56, 5.839679, 0.0011811038, 0.00025610637, -404581.28, -56020.063, 0.0, 10.00988, 9.897357 
6.1657834e+3, 2.7433053e+2, -305364.06, -391034.53, -9.641896, 0.0011807525, -0.000094916715, -305364.06, -53802.332, 0.0, 10.0098715, 9.897774 
6.165782e+3, 2.8422028e+2, -218808.08, -317534.22, 9.015557, 0.0011803007, 0.00033444632, -218808.08, -64165.965, 0.0, 10.009862, 9.8810005 
6.165781e+3, 2.941023e+2, -119159.695, -217257.39, -6.5790997, 0.0011797111, -0.0001460076, -119159.695, -61361.848, 0.0, 10.009852, 9.881793 
6.1657804e+3, 3.0401215e+2, -29858.145, -84982.47, 10.16044, 0.0011790852, 0.00027540844, -29858.145, -29858.145, 0.0, 10.009844, 9.937278 
6.165779e+3, 3.1395122e+2, -28831.13, -82824.89, -3.9426832, 0.001178399, 0.00003211472, -28831.13, -28831.13, 0.0, 10.009834, 9.938739 
6.175814e+3, 1.2516128e+2, -1707417.5, -1722581.0, 4.6889396, 0.0011983643, 0.00020787607, -1707417.5, 6003.345, 0.0, 10.010052, 9.989951 
6.175813e+3, 1.3515107e+2, -1610115.6, -1625860.8, -11.386216, 0.0011950071, 0.00002876284, -1610115.6, 5405.1235, 0.0, 10.010037, 9.989167 
6.175811e+3, 1.4513433e+2, -1522102.9, -1546684.9, 1.6001152, 0.0011942673, 0.0002891982, -1522102.9, -4417.981, 0.0, 10.010023, 9.977457 
6.1758095e+3, 1.5511176e+2, -1424450.4, -1449425.5, -14.90279, 0.0011959528, 0.0000981993, -1424450.4, -4544.3223, 0.0, 10.01001, 9.976927 
6.1758083e+3, 1.6508259e+2, -1336421.1, -1370544.4, -0.47472137, 0.001195657, 0.00017895632, -1336421.1, -14229.403, 0.0, 10.009996, 9.964889 
6.175806e+3, 1.7504753e+2, -1238538.0, -1272967.9, -17.245255, 0.0011934689, 0.0000745687, -1238538.0, -14002.677, 0.0, 10.009984, 9.964475 
6.175805e+3, 1.8500577e+2, -1150616.1, -1194633.1, -4.3114085, 0.0011926425, 0.00021799242, -1150616.1, -23671.527, 0.0, 10.009972, 9.951914 
6.175803e+3, 1.9495772e+2, -1052538.9, -1096810.4, -20.034044, 0.00119315, 0.00008369431, -1052538.9, -23123.43, 0.0, 10.00996, 9.9515705 
6.175802e+3, 2.0490295e+2, -964504.1, -1018614.94, -6.1680346, 0.0011930076, 0.00020356014, -964504.1, -32552.01, 0.0, 10.009948, 9.938719 
6.1758006e+3, 2.1484171e+2, -866288.5, -920653.25, -23.210468, 0.0011921943, 0.000007792948, -866288.5, -31736.16, 0.0, 10.009936, 9.938376 
6.1757994e+3, 2.2477376e+2, -778072.06, -842478.44, -4.061284, 0.0011913696, 0.00025261065, -778072.06, -40853.83, 0.0, 10.009925, 9.925315 
6.1757976e+3, 2.3469913e+2, -679706.75, -744361.25, -20.748943, 0.001190526, 0.000037744267, -679706.75, -39757.227, 0.0, 10.009914, 9.924983 
6.1757964e+3, 2.4461755e+2, -591451.8, -666506.06, -1.5167727, 0.0011902293, 0.00019702228, -591451.8, -48702.87, 0.0, 10.009904, 9.911521 
6.175795e+3, 2.5452918e+2, -492768.13, -567892.44, -18.169582, 0.0011905521, 0.000012409114, -492768.13, -47153.254, 0.0, 10.009893, 9.91142 
6.1757946e+3, 2.644337e+2, -404611.28, -490652.25, 2.3842282, 0.0011901069, 0.00025582578, -404611.28, -56060.895, 0.0, 10.009883, 9.897311 
6.175793e+3, 2.7433157e+2, -305393.7, -391101.72, -13.161475, 0.001188715, -0.0000930384, -305393.7, -53842.32, 0.0, 10.009874, 9.897728 
6.175792e+3, 2.842213e+2, -218838.75, -317604.03, 5.491896, 0.0011880159, 0.0003362672, -218838.75, -64206.582, 0.0, 10.009865, 9.880954 
6.175791e+3, 2.941033e+2, -119190.03, -217326.97, -9.94211, 0.0011882295, -0.00014718036, -119190.03, -61401.62, 0.0, 10.009855, 9.881745 
6.17579e+3, 3.0401307e+2, -29887.79, -85050.91, 6.856787, 0.0011880329, 0.00027391425, -29887.79, -29887.79, 0.0, 10.009847, 9.93723 
6.175789e+3, 3.1395212e+2, -28860.63, -82893.234, -7.448968, 0.0011872301, 0.000034171295, -28860.63, -28860.63, 0.0, 10.009837, 9.938691 
6.185825e+3, 1.2516302e+2, -1707131.0, -1722477.6, 10.221094, 0.001206613, 0.00020858146, -1707131.0, 6272.796, 0.0, 10.010251, 9.989907 
6.185823e+3, 1.3515277e+2, -1609829.3, -1625758.3, -5.857001, 0.0012034922, 0.000029362442, -1609829.3, 5674.927, 0.0, 10.010238, 9.989124 
6.185821e+3, 1.4513597e+2, -1521818.4, -1546585.0, 6.981352, 0.0012027709, 0.00028971865, -1521818.4, -4149.6455, 0.0, 10.010224, 9.977413 
6.18582e+3, 1.5511335e+2, -1424168.9, -1449327.9, -9.647085, 0.0012042695, 0.00009866373, -1424168.9, -4278.527, 0.0, 10.01021, 9.976882 
6.185818e+3, 1.6508417e+2, -1336141.1, -1370448.8, 5.1632047, 0.001203935, 0.0001794356, -1336141.1, -13964.748, 0.0, 10.010197, 9.964844 
6.1858165e+3, 1.7504905e+2, -1238258.4, -1272873.1, -11.937328, 0.0012018502, 0.00007513125, -1238258.4, -13737.932, 0.0, 10.010184, 9.96443 
6.185815e+3, 1.8500724e+2, -1150335.0, -1194534.6, 0.76497227, 0.0012011097, 0.00021856716, -1150335.0, -23404.98, 0.0, 10.010172, 9.951872 
6.1858135e+3, 1.9495915e+2, -1052260.8, -1096714.1, -15.076894, 0.0012016867, 0.0000842111, -1052260.8, -22859.41, 0.0, 10.0101595, 9.951529 
6.185812e+3, 2.0490435e+2, -964230.44, -1018526.5, -0.97642595, 0.001201462, 0.00020402618, -964230.44, -32291.963, 0.0, 10.010147, 9.938673 
6.1858106e+3, 2.1484305e+2, -866014.9, -920565.56, -18.268595, 0.0012004101, 0.00000821558, -866014.9, -31475.744, 0.0, 10.010137, 9.938331 
6.1858094e+3, 2.2477506e+2, -777799.94, -842392.75, 0.71954536, 0.0011996583, 0.00025312355, -777799.94, -40594.457, 0.0, 10.010125, 9.925269 
6.185808e+3, 2.347004e+2, -679437.75, -744277.94, -16.427113, 0.0011992235, 0.000038491617, -679437.75, -39500.55, 0.0, 10.010114, 9.924937 
6.1858064e+3, 2.4461876e+2, -591184.2, -666424.1, 2.956065, 0.0011989293, 0.00019760727, -591184.2, -48447.07, 0.0, 10.010103, 9.911474 
6.185805e+3, 2.5453034e+2, -492500.63, -567811.4, -13.379432, 0.0011987906, 0.000012378214, -492500.63, -46897.133, 0.0, 10.010093, 9.911373 
6.185804e+3, 2.6443484e+2, -404345.4, -490574.1, 7.0186963, 0.0011982598, 0.00025596164, -404345.4, -55805.957, 0.0, 10.010083, 9.897264 
6.1858034e+3, 2.7433264e+2, -305130.34, -391025.66, -9.953276, 0.0011972415, -0.000091777925, -305130.34, -53589.45, 0.0, 10.010074, 9.89768 
6.185802e+3, 2.8422233e+2, -218574.9, -317525.16, 8.685702, 0.0011967147, 0.0003374264, -218574.9, -63952.734, 0.0, 10.010064, 9.880909 
6.185801e+3, 2.9410428e+2, -118927.71, -217249.39, -5.153059, 0.001196834, -0.00014774545, -118927.71, -61148.86, 0.0, 10.010055, 9.8817005 
6.1858e+3, 3.0401397e+2, -29632.32, -84984.87, 11.6250925, 0.0011964866, 0.00027325746, -29632.318, -29632.318, 0.0, 10.010046, 9.937179 
6.185799e+3, 3.13953e+2, -28604.412, -82827.6, -5.379602, 0.0011954539, 0.0000357874, -28604.412, -28604.412, 0.0, 10.010037, 9.938639 
6.195835e+3, 1.2516478e+2, -1707164.3, -1722546.1, 5.132684, 0.0012133191, 0.00020947457, -1707164.3, 6222.3105, 0.0, 10.010254, 9.989864 
6.1958337e+3, 1.3515449e+2, -1609862.4, -1625826.5, -10.958784, 0.0012135133, 0.000029890303, -1609862.4, 5624.917, 0.0, 10.010241, 9.98908 
6.1958313e+3, 1.4513765e+2, -1521852.1, -1546654.8, 1.4744682, 0.001212872, 0.000290111, -1521852.1, -4199.8037, 0.0, 10.010227, 9.977368 
6.19583e+3, 1.55115e+2, -1424201.9, -1449397.0, -15.142162, 0.0012113975, 0.0000991352, -1424201.9, -4327.5034, 0.0, 10.010213, 9.976838 
6.1958283e+3, 1.6508573e+2, -1336174.4, -1370518.9, 0.5438875, 0.0012107985, 0.00017995825, -1336174.4, -14013.532, 0.0, 10.0102, 9.964798 
6.1958265e+3, 1.750506e+2, -1238291.5, -1272942.9, -16.541124, 0.0012110508, 0.00007567845, -1238291.5, -13786.096, 0.0, 10.010187, 9.964385 
6.1958253e+3, 1.8500875e+2, -1150365.1, -1194598.9, -4.136608, 0.0012107659, 0.00021910263, -1150365.1, -23449.635, 0.0, 10.010175, 9.95183 
6.1958236e+3, 1.9496061e+2, -1052290.3, -1096777.9, -19.981936, 0.0012099397, 0.000084699146, -1052290.3, -22903.041, 0.0, 10.010162, 9.951487 
6.1958224e+3, 2.0490575e+2, -964263.0, -1018596.75, -5.175136, 0.0012091785, 0.00020451292, -964263.0, -32338.314, 0.0, 10.01015, 9.938626 
6.1958206e+3, 2.1484442e+2, -866047.2, -920635.56, -22.459902, 0.0012084796, 0.000008748362, -866047.2, -31521.387, 0.0, 10.010139, 9.938285 
6.1958194e+3, 2.2477637e+2, -777832.56, -842463.75, -3.6279025, 0.0012082304, 0.00025366005, -777832.56, -40639.945, 0.0, 10.010128, 9.925221 
6.1958176e+3, 2.3470166e+2, -679469.8, -744348.44, -20.75387, 0.0012084581, 0.00003898597, -679469.8, -39545.043, 0.0, 10.010117, 9.9248905 
6.195817e+3, 2.4461998e+2, -591215.3, -666493.2, -0.8197677, 0.0012078995, 0.00019803853, -591215.3, -48490.14, 0.0, 10.010106, 9.911428 
6.195815e+3, 2.5453153e+2, -492531.3, -567880.0, -17.191383, 0.0012064379, 0.000012723013, -492531.3, -46939.33, 0.0, 10.010096, 9.911327 
6.1958146e+3, 2.6443598e+2, -404378.25, -490647.5, 3.269907, 0.0012058129, 0.00025641252, -404378.25, -55849.83, 0.0, 10.010086, 9.897214 
6.195813e+3, 2.7433375e+2, -305162.84, -391098.88, -13.58592, 0.0012062025, -0.00009098641, -305162.84, -53632.508, 0.0, 10.0100765, 9.897631 
6.195812e+3, 2.8422332e+2, -218602.58, -317588.97, 5.2376637, 0.0012061539, 0.00033808642, -218602.58, -63990.496, 0.0, 10.010067, 9.880865 
6.195811e+3, 2.9410526e+2, -118954.555, -217312.03, -8.7590685, 0.0012055193, -0.0001478405, -118954.555, -61185.37, 0.0, 10.010057, 9.881658 
6.19581e+3, 3.0401492e+2, -29666.447, -85062.85, 8.416511, 0.001204597, 0.0002732416, -29666.445, -29666.445, 0.0, 10.010049, 9.937125 
6.195809e+3, 3.1395388e+2, -28639.418, -82907.32, -8.331647, 0.0012032554, 0.00003705715, -28639.418, -28639.418, 0.0, 10.01004, 9.938584 
6.2058455e+3, 1.2516654e+2, -1706871.3, -1722440.0, 11.004293, 0.001221455, 0.00020978154, -1706871.3, 6497.9873, 0.0, 10.010458, 9.98982 
6.2058437e+3, 1.3515621e+2, -1609574.9, -1625724.1, -5.453845, 0.0012221406, 0.00003035975, -1609574.9, 5895.4785, 0.0, 10.010443, 9.989037 
6.205842e+3, 1.4513932e+2, -1521566.6, -1546555.0, 7.354056, 0.0012215107, 0.00029067017, -1521566.6, -3930.7915, 0.0, 10.010428, 9.977324 
6.20584e+3, 1.5511662e+2, -1423914.5, -1449297.0, -9.545233, 0.001219593, 0.00009971383, -1423914.5, -4056.132, 0.0, 10.010416, 9.976792 
6.2058383e+3, 1.6508734e+2, -1335888.3, -1370420.6, 5.8756814, 0.0012189988, 0.00018049592, -1335888.3, -13743.023, 0.0, 10.010404, 9.964753 
6.205837e+3, 1.7505214e+2, -1238009.8, -1272847.8, -11.350283, 0.0012196864, 0.000076117554, -1238009.8, -13519.605, 0.0, 10.010389, 9.964339 
6.2058353e+3, 1.8501025e+2, -1150082.3, -1194500.1, 1.3433744, 0.0012194089, 0.00021952686, -1150082.3, -23181.488, 0.0, 10.010377, 9.951788 
6.205834e+3, 1.9496207e+2, -1052006.6, -1096679.4, -14.798652, 0.0012181676, 0.00008519109, -1052006.6, -22633.72, 0.0, 10.0103655, 9.951445 
6.2058324e+3, 2.0490716e+2, -963983.56, -1018506.06, -0.15883173, 0.0012174097, 0.00020508413, -963983.56, -32072.768, 0.0, 10.010354, 9.93858 
6.205831e+3, 2.1484578e+2, -865771.06, -920547.4, -17.70103, 0.0012171436, 0.000009410691, -865771.06, -31258.705, 0.0, 10.010342, 9.938238 
6.2058294e+3, 2.247777e+2, -777558.1, -842377.5, 1.2719108, 0.001216923, 0.00025416046, -777558.1, -40378.535, 0.0, 10.01033, 9.925175 
6.205828e+3, 2.3470293e+2, -679195.9, -744263.2, -15.874436, 0.0012167444, 0.00003905231, -679195.9, -39283.59, 0.0, 10.01032, 9.924843 
6.205827e+3, 2.4462122e+2, -590942.5, -666409.9, 3.9677124, 0.001216133, 0.00019830796, -590942.5, -48229.383, 0.0, 10.010309, 9.911381 
6.205826e+3, 2.5453272e+2, -492260.5, -567798.44, -13.316952, 0.0012150214, 0.000013922159, -492260.5, -46680.117, 0.0, 10.010299, 9.91128 
6.2058246e+3, 2.644371e+2, -404109.03, -490567.75, 7.1734357, 0.0012145065, 0.00025739064, -404109.03, -55591.723, 0.0, 10.010288, 9.897166 
6.2058234e+3, 2.7433482e+2, -304895.38, -391020.78, -8.697804, 0.0012147133, -0.0000916342, -304895.38, -53375.7, 0.0, 10.010279, 9.897583 
6.205822e+3, 2.842244e+2, -218334.97, -317510.03, 10.075083, 0.0012145442, 0.0003375425, -218334.97, -63733.082, 0.0, 10.010269, 9.880818 
6.205821e+3, 2.9410627e+2, -118687.78, -217234.19, -6.141015, 0.0012138719, -0.0001459977, -118687.78, -60928.355, 0.0, 10.010261, 9.881611 
6.2058204e+3, 3.0401587e+2, -29405.734, -84994.164, 10.69252, 0.0012130422, 0.00027522017, -29405.732, -29405.732, 0.0, 10.010252, 9.937074 
6.205819e+3, 3.1395477e+2, -28380.002, -82839.81, -3.9459372, 0.0012119804, 0.000035928548, -28380.002, -28380.002, 0.0, 10.010243, 9.938532 
6.215856e+3, 1.2516834e+2, -1706905.8, -1722510.4, 4.848986, 0.0012306529, 0.0002096695, -1706905.8, 6445.929, 0.0, 10.010461, 9.989776 
6.215854e+3, 1.3515796e+2, -1609608.5, -1625793.8, -11.567598, 0.0012297708, 0.00003078922, -1609608.5, 5844.793, 0.0, 10.010446, 9.988992 
6.2158525e+3, 1.4514102e+2, -1521600.6, -1546625.6, 2.7108076, 0.0012291038, 0.00029135094, -1521600.6, -3981.3628, 0.0, 10.010431, 9.977278 
6.215851e+3, 1.5511827e+2, -1423948.4, -1449367.5, -14.186948, 0.0012285904, 0.000100370686, -1423948.4, -4106.284, 0.0, 10.010419, 9.9767475 
6.215849e+3, 1.6508894e+2, -1335922.3, -1370491.4, 0.48766437, 0.0012281956, 0.00018104557, -1335922.3, -13792.685, 0.0, 10.010406, 9.964707 
6.215847e+3, 1.7505372e+2, -1238042.9, -1272917.9, -16.72644, 0.0012279266, 0.000076480515, -1238042.9, -13568.006, 0.0, 10.010392, 9.9642935 
6.215846e+3, 1.8501176e+2, -1150112.5, -1194565.3, -2.9693286, 0.0012273312, 0.00021987302, -1150112.5, -23226.66, 0.0, 10.01038, 9.951745 
6.215844e+3, 1.9496354e+2, -1052036.8, -1096744.4, -19.104053, 0.0012264025, 0.000085687956, -1052036.8, -22678.326, 0.0, 10.010368, 9.951402 
6.215843e+3, 2.049086e+2, -964016.9, -1018577.44, -4.818123, 0.0012260415, 0.00020571746, -964016.9, -32120.064, 0.0, 10.010356, 9.938533 
6.215841e+3, 2.1484716e+2, -865803.75, -920618.25, -22.355434, 0.0012262574, 0.0000101657915, -865803.75, -31304.977, 0.0, 10.0103445, 9.938191 
6.21584e+3, 2.2477904e+2, -777590.56, -842448.4, -2.8052454, 0.0012257191, 0.0002546358, -777590.56, -40424.04, 0.0, 10.010333, 9.925128 
6.215838e+3, 2.3470423e+2, -679227.9, -744333.6, -19.956917, 0.0012243628, 0.000038816197, -679227.8, -39328.207, 0.0, 10.010323, 9.924796 
6.2158376e+3, 2.4462245e+2, -590975.5, -666482.75, 0.058191396, 0.0012238546, 0.00019846534, -590975.5, -48274.54, 0.0, 10.010312, 9.911332 
6.215836e+3, 2.5453392e+2, -492293.13, -567871.0, -17.170021, 0.0012243076, 0.000015732607, -492293.13, -46724.453, 0.0, 10.010302, 9.911231 
6.215835e+3, 2.6443827e+2, -404139.88, -490637.2, 3.414877, 0.0012240496, 0.00025874487, -404139.88, -55633.816, 0.0, 10.010291, 9.8971195 
6.2158334e+3, 2.7433592e+2, -304925.6, -391089.56, -12.536689, 0.0012229147, -0.00009331064, -304925.6, -53416.664, 0.0, 10.010282, 9.897536 
6.215832e+3, 2.8422543e+2, -218366.58, -317582.22, 6.6658387, 0.0012221904, 0.00033614086, -218366.58, -63774.977, 0.0, 10.010272, 9.88077 
6.2158316e+3, 2.9410726e+2, -118719.15, -217306.22, -9.384653, 0.0012220048, -0.0001427624, -118719.15, -60969.56, 0.0, 10.010263, 9.881562 
6.2158304e+3, 3.0401683e+2, -29436.426, -85064.92, 7.476613, 0.0012217546, 0.00027862872, -29436.424, -29436.424, 0.0, 10.010255, 9.937024 
6.21583e+3, 3.1395566e+2, -28410.65, -82910.516, -7.3126507, 0.0012213978, 0.000033076267, -28410.648, -28410.648, 0.0, 10.010246, 9.938483 
6.225866e+3, 1.2517014e+2, -1706613.6, -1722405.4, 10.6500635, 0.0012396174, 0.00021033228, -1706613.6, 6720.3384, 0.0, 10.010665, 9.989731 
6.225865e+3, 1.3515972e+2, -1609312.6, -1625687.5, -5.864207, 0.0012376207, 0.00003132138, -1609312.6, 6123.501, 0.0, 10.010653, 9.988947 
6.2258625e+3, 1.4514275e+2, -1521306.5, -1546522.1, 8.228877, 0.0012369506, 0.00029181634, -1521306.5, -3704.0762, 0.0, 10.010638, 9.977233 
6.2258613e+3, 1.5511996e+2, -1423660.8, -1449268.1, -8.873756, 0.0012374779, 0.000100827194, -1423660.8, -3835.023, 0.0, 10.010623, 9.976702 
6.2258595e+3, 1.6509056e+2, -1335636.4, -1370394.0, 6.151094, 0.0012371512, 0.00018152285, -1335636.4, -13522.728, 0.0, 10.01061, 9.964662 
6.225858e+3, 1.7505528e+2, -1237754.6, -1272819.9, -11.306876, 0.001236019, 0.00007700732, -1237754.6, -13295.207, 0.0, 10.010598, 9.964248 
6.2258565e+3, 1.850133e+2, -1149822.3, -1194463.4, 2.311152, 0.0012353467, 0.00022041178, -1149822.3, -22951.469, 0.0, 10.010586, 9.951702 
6.225855e+3, 1.9496502e+2, -1051750.9, -1096645.5, -14.005681, 0.0012351152, 0.000086201726, -1051750.9, -22407.037, 0.0, 10.010573, 9.951359 
6.225853e+3, 2.0491005e+2, -963736.1, -1018486.75, 0.39244294, 0.0012348674, 0.0002061525, -963736.1, -31853.447, 0.0, 10.010561, 9.938486 
6.225852e+3, 2.1484858e+2, -865523.06, -920528.4, -17.360435, 0.0012345986, 0.000010467106, -865523.06, -31037.92, 0.0, 10.01055, 9.938144 
6.22585e+3, 2.2478038e+2, -777310.6, -842360.1, 2.1828535, 0.0012339517, 0.00025508093, -777310.6, -40157.324, 0.0, 10.010539, 9.92508 
6.2258494e+3, 2.3470552e+2, -678949.7, -744247.06, -15.439381, 0.0012328903, 0.00003970347, -678949.7, -39062.824, 0.0, 10.010529, 9.924748 
6.2258476e+3, 2.446237e+2, -590699.25, -666398.4, 4.5452166, 0.0012324974, 0.00019913449, -590699.25, -48010.6, 0.0, 10.010517, 9.911284 
6.2258464e+3, 2.545351e+2, -492019.22, -567788.56, -12.421899, 0.0012328612, 0.000015431282, -492019.2, -46462.33, 0.0, 10.010507, 9.911183 
6.225845e+3, 2.644394e+2, -403867.13, -490556.56, 8.1869755, 0.001232529, 0.00025865054, -403867.13, -55372.387, 0.0, 10.010497, 9.897071 
6.225844e+3, 2.74337e+2, -304653.06, -391009.88, -8.997571, 0.0012313378, -0.00009176093, -304653.06, -53154.99, 0.0, 10.010488, 9.897488 
6.225843e+3, 2.842265e+2, -218093.72, -317501.44, 10.057075, 0.0012306581, 0.0003375996, -218093.72, -63512.516, 0.0, 10.010479, 9.880723 
6.2258416e+3, 2.9410827e+2, -118449.0, -217227.47, -4.8165092, 0.0012306502, -0.00014368558, -118449.0, -60709.332, 0.0, 10.0104685, 9.8815155 
6.225841e+3, 3.0401778e+2, -29173.105, -84995.76, 12.012284, 0.0012304116, 0.0002775291, -29173.104, -29173.104, 0.0, 10.01046, 9.936973 
6.22584e+3, 3.1395656e+2, -28147.676, -82842.08, -4.774458, 0.0012298268, 0.00003498649, -28147.674, -28147.674, 0.0, 10.010451, 9.938431 
6.2358767e+3, 1.2517194e+2, -1706647.9, -1722475.8, 5.8635507, 0.0012484213, 0.00021154946, -1706647.9, 6668.373, 0.0, 10.010668, 9.989686 
6.2358755e+3, 1.3516149e+2, -1609346.9, -1625757.8, -10.659059, 0.0012456628, 0.0000319284, -1609346.9, 6071.854, 0.0, 10.010655, 9.988902 
6.2358737e+3, 1.4514448e+2, -1521341.4, -1546593.9, 2.3154652, 0.0012450146, 0.00029212923, -1521341.4, -3755.8862, 0.0, 10.010641, 9.977186 
6.2358713e+3, 1.5512162e+2, -1423694.8, -1449339.3, -14.754478, 0.0012462971, 0.00010114107, -1423694.8, -3885.4524, 0.0, 10.010626, 9.976656 
6.23587e+3, 1.6509221e+2, -1335670.3, -1370465.5, 1.7725035, 0.0012459421, 0.00018194922, -1335670.3, -13572.65, 0.0, 10.0106125, 9.964615 
6.235869e+3, 1.7505687e+2, -1237788.5, -1272891.1, -15.68497, 0.0012440336, 0.000077653465, -1237788.5, -13344.599, 0.0, 10.010601, 9.964202 
6.2358665e+3, 1.8501484e+2, -1149853.3, -1194529.5, -2.7294817, 0.0012434606, 0.00022109043, -1149853.3, -22997.592, 0.0, 10.010589, 9.951659 
6.2358654e+3, 1.9496654e+2, -1051781.3, -1096711.1, -19.035557, 0.0012441892, 0.00008672846, -1051781.3, -22452.09, 0.0, 10.010576, 9.951316 
6.2358636e+3, 2.049115e+2, -963769.5, -1018558.8, -3.877289, 0.0012438468, 0.00020644645, -963769.5, -31901.11, 0.0, 10.010564, 9.938438 
6.2358624e+3, 2.1484998e+2, -865556.06, -920600.06, -21.628342, 0.0012424047, 0.00001044565, -865556.06, -31084.764, 0.0, 10.010552, 9.938097 
6.2358606e+3, 2.2478174e+2, -777344.06, -842432.94, -1.9616791, 0.0012418033, 0.00025550713, -777344.06, -40204.086, 0.0, 10.010542, 9.925033 
6.2358594e+3, 2.3470683e+2, -678982.75, -744319.5, -19.56593, 0.0012420974, 0.00004139738, -678982.75, -39108.742, 0.0, 10.010531, 9.924701 
6.235858e+3, 2.4462497e+2, -590731.6, -666470.06, 0.44859755, 0.0012418256, 0.00020017083, -590731.6, -48055.383, 0.0, 10.01052, 9.911237 
6.235857e+3, 2.5453633e+2, -492050.94, -567859.7, -16.535437, 0.0012409034, 0.000013616066, -492050.94, -46505.977, 0.0, 10.0105095, 9.911136 
6.235855e+3, 2.644406e+2, -403900.2, -490630.84, 4.72774, 0.001240259, 0.00025752018, -403900.2, -55416.87, 0.0, 10.0105, 9.897021 
6.2358546e+3, 2.7433813e+2, -304685.94, -391083.94, -12.388797, 0.0012399456, -0.00008789052, -304685.9, -53198.83, 0.0, 10.01049, 9.897438 
6.2358534e+3, 2.8422758e+2, -218123.33, -317569.25, 6.4339685, 0.001239745, 0.00034111374, -218123.33, -63552.625, 0.0, 10.010482, 9.880676 
6.235852e+3, 2.941093e+2, -118477.805, -217294.3, -8.495724, 0.0012396866, -0.0001475995, -118477.805, -60748.13, 0.0, 10.010472, 9.88147 
6.2358516e+3, 3.0401877e+2, -29206.963, -85073.5, 8.655202, 0.0012390467, 0.00027319047, -29206.96, -29206.96, 0.0, 10.010463, 9.936918 
6.2358505e+3, 3.1395748e+2, -28182.037, -82921.02, -8.062539, 0.0012375611, 0.0000403296, -28182.037, -28182.037, 0.0, 10.010454, 9.938375 
6.245888e+3, 1.2517378e+2, -1706346.4, -1722366.3, 11.565181, 0.0012559943, 0.000211923, -1706346.4, 6951.868, 0.0, 10.010878, 9.989641 
6.245886e+3, 1.3516326e+2, -1609052.6, -1625652.9, -5.158801, 0.0012548605, 0.000032449818, -1609052.6, 6348.5376, 0.0, 10.010861, 9.988857 
6.2458843e+3, 1.451462e+2, -1521049.3, -1546491.9, 8.110292, 0.0012542736, 0.00029267088, -1521049.3, -3480.7852, 0.0, 10.010847, 9.97714 
6.2458825e+3, 1.5512332e+2, -1423399.0, -1449236.0, -9.108842, 0.0012541476, 0.000101581194, -1423399.0, -3606.3403, 0.0, 10.010836, 9.97661 
6.245881e+3, 1.6509385e+2, -1335375.8, -1370364.3, 7.3685107, 0.0012536846, 0.00018237001, -1335375.8, -13294.216, 0.0, 10.010822, 9.964568 
6.2458795e+3, 1.7505847e+2, -1237499.4, -1272793.5, -10.389145, 0.0012529115, 0.000078133984, -1237499.4, -13071.134, 0.0, 10.010809, 9.964155 
6.245877e+3, 1.8501641e+2, -1149563.1, -1194428.1, 2.660254, 0.0012525124, 0.00022157196, -1149563.1, -22722.645, 0.0, 10.010796, 9.951616 
6.245876e+3, 1.9496804e+2, -1051490.1, -1096610.0, -13.799696, 0.0012524691, 0.00008715326, -1051490.1, -22175.79, 0.0, 10.010784, 9.951273 
6.245875e+3, 2.0491296e+2, -963482.25, -1018465.56, 1.3971435, 0.0012519431, 0.00020691405, -963482.25, -31628.244, 0.0, 10.010773, 9.938391 
6.245873e+3, 2.148514e+2, -865271.2, -920508.9, -16.67919, 0.001250918, 0.000011057799, -865271.2, -30813.787, 0.0, 10.010761, 9.938049 
6.245872e+3, 2.2478311e+2, -777061.3, -842344.06, 2.915312, 0.0012505071, 0.00025600943, -777061.3, -39934.81, 0.0, 10.01075, 9.924984 
6.24587e+3, 2.3470816e+2, -678702.2, -744232.5, -14.819225, 0.0012507483, 0.000041516996, -678702.2, -38841.164, 0.0, 10.010738, 9.924652 
6.245869e+3, 2.4462625e+2, -590451.75, -666384.4, 5.329737, 0.0012503559, 0.00020042909, -590451.75, -47787.992, 0.0, 10.010729, 9.911188 
6.2458676e+3, 2.5453755e+2, -491770.72, -567774.6, -12.143078, 0.001249235, 0.00001460568, -491770.72, -46237.777, 0.0, 10.010719, 9.911087 
6.2458664e+3, 2.6444173e+2, -403621.94, -490548.9, 8.91904, 0.001248634, 0.00025837444, -403621.94, -55150.156, 0.0, 10.010709, 9.896972 
6.245865e+3, 2.7433926e+2, -304411.47, -391004.8, -8.146484, 0.0012486589, -0.00008822663, -304411.44, -52935.402, 0.0, 10.010698, 9.897388 
6.245864e+3, 2.8422862e+2, -217848.27, -317487.16, 10.731208, 0.0012485327, 0.0003408199, -217848.25, -63288.125, 0.0, 10.010689, 9.88063 
6.245863e+3, 2.9411033e+2, -118202.71, -217212.75, -4.8963127, 0.0012482003, -0.00014622911, -118202.71, -60483.164, 0.0, 10.01068, 9.881423 
6.2458616e+3, 3.0401975e+2, -28938.531, -85004.11, 12.00765, 0.0012474447, 0.00027466982, -28938.53, -28938.53, 0.0, 10.010673, 9.936865 
6.245861e+3, 3.1395844e+2, -27913.375, -82852.36, -4.6325126, 0.0012460728, 0.000039684688, -27913.375, -27913.375, 0.0, 10.010664, 9.938321 
6.255899e+3, 1.2517563e+2, -1706381.5, -1722437.8, 5.3529453, 0.0012627307, 0.00021169845, -1706381.5, 6898.7065, 0.0, 10.01088, 9.989595 
6.2558967e+3, 1.3516507e+2, -1609086.9, -1625723.8, -11.345545, 0.0012648886, 0.000032911095, -1609086.9, 6296.6763, 0.0, 10.010864, 9.9888115 
6.255895e+3, 1.4514796e+2, -1521083.9, -1546564.0, 3.500197, 0.0012643884, 0.0002933762, -1521083.9, -3532.6445, 0.0, 10.010851, 9.977095 
6.255894e+3, 1.5512504e+2, -1423433.6, -1449308.0, -13.728354, 0.0012613401, 0.00010211353, -1423433.6, -3657.684, 0.0, 10.0108385, 9.976563 
6.2558913e+3, 1.6509552e+2, -1335410.6, -1370437.3, 1.9626144, 0.0012607158, 0.00018278904, -1335410.6, -13345.473, 0.0, 10.010825, 9.964521 
6.25589e+3, 1.750601e+2, -1237533.5, -1272865.9, -15.765166, 0.0012624208, 0.00007849701, -1237533.5, -13121.176, 0.0, 10.010812, 9.9641075 
6.2558883e+3, 1.8501797e+2, -1149594.0, -1194494.6, -1.7175574, 0.0012622442, 0.0002219136, -1149594.0, -22768.936, 0.0, 10.010799, 9.951572 
6.2558866e+3, 1.9496958e+2, -1051520.8, -1096676.1, -18.18656, 0.0012602056, 0.00008750778, -1051520.8, -22221.385, 0.0, 10.010788, 9.951229 
6.2558854e+3, 2.0491445e+2, -963516.5, -1018539.06, -3.0936258, 0.001259437, 0.0002075081, -963516.5, -31676.977, 0.0, 10.0107765, 9.938343 
6.2558836e+3, 2.1485282e+2, -865305.0, -920581.94, -21.155897, 0.0012599609, 0.000012123059, -865305.0, -30861.61, 0.0, 10.010764, 9.938001 
6.2558824e+3, 2.247845e+2, -777094.94, -842417.3, -1.3947268, 0.0012598395, 0.00025656633, -777094.94, -39981.957, 0.0, 10.010753, 9.924935 
6.2558806e+3, 2.3470949e+2, -678735.2, -744305.25, -19.122631, 0.001259018, 0.00004051393, -678735.2, -38887.223, 0.0, 10.010742, 9.924603 
6.2558794e+3, 2.4462754e+2, -590484.94, -666457.94, 1.7151006, 0.0012583344, 0.000200135, -590484.94, -47833.785, 0.0, 10.010732, 9.911139 
6.255878e+3, 2.5453877e+2, -491803.7, -567847.9, -15.747235, 0.0012578017, 0.000017603585, -491803.7, -46282.887, 0.0, 10.010722, 9.911037 
6.255877e+3, 2.6444292e+2, -403655.06, -490623.06, 4.920325, 0.0012574985, 0.00026064797, -403655.06, -55194.96, 0.0, 10.010713, 9.896921 
6.255876e+3, 2.743404e+2, -304443.9, -391078.4, -12.120666, 0.0012574658, -0.000091574046, -304443.9, -52978.973, 0.0, 10.010702, 9.897338 
6.2558746e+3, 2.8422973e+2, -217878.81, -317557.5, 7.451698, 0.0012571213, 0.0003378033, -217878.81, -63329.33, 0.0, 10.010693, 9.880582 
6.2558734e+3, 2.941114e+2, -118232.81, -217282.47, -8.197163, 0.0012563603, -0.00014106762, -118232.81, -60523.508, 0.0, 10.010684, 9.881375 
6.255873e+3, 3.0402073e+2, -28972.459, -85081.81, 8.86949, 0.0012556978, 0.00028031928, -28972.457, -28972.457, 0.0, 10.010675, 9.9368105 
6.2558717e+3, 3.1395936e+2, -27947.86, -82931.03, -7.638145, 0.0012551688, 0.00003474354, -27947.86, -27947.86, 0.0, 10.010667, 9.938267 
6.2659097e+3, 1.2517749e+2, -1706081.5, -1722329.9, 11.384479, 0.0012720448, 0.00021218199, -1706081.4, 7180.518, 0.0, 10.011089, 9.98955 
6.265908e+3, 1.3516688e+2, -1608784.0, -1625615.1, -5.612048, 0.0012725352, 0.000033334134, -1608784.0, 6581.7363, 0.0, 10.011077, 9.988766 
6.265906e+3, 1.4514974e+2, -1520782.9, -1546458.0, 9.310895, 0.0012719869, 0.00029380698, -1520782.9, -3248.9397, 0.0, 10.011063, 9.977048 
6.2659043e+3, 1.5512675e+2, -1423138.0, -1449205.6, -8.241897, 0.0012704056, 0.00010261372, -1423138.0, -3378.9187, 0.0, 10.011048, 9.976517 
6.265903e+3, 1.6509718e+2, -1335116.8, -1370336.9, 7.492702, 0.0012699349, 0.0001832808, -1335116.8, -13067.974, 0.0, 10.011035, 9.964475 
6.265901e+3, 1.750617e+2, -1237238.1, -1272765.5, -10.310648, 0.0012705405, 0.00007890659, -1237238.1, -12841.769, 0.0, 10.0110235, 9.964061 
6.2658995e+3, 1.8501955e+2, -1149296.5, -1194390.1, 3.856362, 0.0012701714, 0.00022232796, -1149296.5, -22486.922, 0.0, 10.011011, 9.951529 
6.265898e+3, 1.9497111e+2, -1051226.3, -1096574.1, -12.974181, 0.0012688299, 0.00008801248, -1051226.3, -21941.982, 0.0, 10.010999, 9.951185 
6.265896e+3, 2.0491594e+2, -963227.3, -1018445.5, 2.0113194, 0.0012682995, 0.00020799103, -963227.3, -31402.418, 0.0, 10.010986, 9.938294 
6.265895e+3, 2.1485429e+2, -865017.25, -920489.94, -16.202755, 0.0012685938, 0.000012469952, -865017.25, -30588.057, 0.0, 10.010975, 9.937952 
6.265893e+3, 2.247859e+2, -776807.9, -842326.9, 3.755511, 0.0012682703, 0.0002569415, -776807.9, -39708.56, 0.0, 10.010964, 9.924887 
6.265892e+3, 2.3471084e+2, -678448.1, -744215.56, -14.236551, 0.0012672752, 0.000041093375, -678448.1, -38613.355, 0.0, 10.010954, 9.924555 
6.2658906e+3, 2.4462883e+2, -590199.94, -666371.06, 6.366566, 0.0012667276, 0.00020068127, -590199.94, -47561.496, 0.0, 10.010943, 9.911089 
6.2658894e+3, 2.5454003e+2, -491522.63, -567763.8, -11.535122, 0.0012666829, 0.000017847071, -491522.63, -46014.04, 0.0, 10.010933, 9.910988 
6.2658876e+3, 2.644441e+2, -403374.9, -490539.78, 9.328216, 0.0012664042, 0.00026089678, -403374.9, -54926.543, 0.0, 10.010922, 9.8968725 
6.2658864e+3, 2.7434155e+2, -304162.7, -390995.4, -7.5407043, 0.0012658308, -0.00009094497, -304162.7, -52709.03, 0.0, 10.010914, 9.897289 
6.265886e+3, 2.8423083e+2, -217597.55, -317475.03, 11.797916, 0.0012653241, 0.00033845392, -217597.55, -63058.832, 0.0, 10.010905, 9.880532 
6.265884e+3, 2.941124e+2, -117954.42, -217202.22, -4.915795, 0.0012648995, -0.0001408686, -117954.42, -60255.402, 0.0, 10.010896, 9.881326 
6.2658834e+3, 3.0402172e+2, -28700.52, -85009.31, 11.944167, 0.0012644716, 0.00028043255, -28700.518, -28700.518, 0.0, 10.010886, 9.936758 
6.265882e+3, 3.1396028e+2, -27677.521, -82859.695, -3.7039435, 0.0012640277, 0.00003530285, -27677.521, -27677.521, 0.0, 10.010878, 9.938213 
6.275921e+3, 1.2517937e+2, -1706116.9, -1722402.5, 6.207838, 0.0012831836, 0.00021316677, -1706116.9, 7126.654, 0.0, 10.011092, 9.989504 
6.275919e+3, 1.3516872e+2, -1608819.3, -1625687.5, -10.764167, 0.0012785336, 0.00003373232, -1608819.3, 6528.613, 0.0, 10.01108, 9.98872 
6.2759167e+3, 1.4515153e+2, -1520818.5, -1546531.8, 3.6999462, 0.0012778451, 0.0002940456, -1520818.5, -3302.0945, 0.0, 10.0110655, 9.977 
6.2759155e+3, 1.551285e+2, -1423173.1, -1449278.8, -13.816795, 0.0012808096, 0.00010309097, -1423173.1, -3430.9966, 0.0, 10.011051, 9.97647 
6.275914e+3, 1.6509888e+2, -1335151.5, -1370409.9, 2.869977, 0.0012807105, 0.00018382423, -1335151.5, -13119.292, 0.0, 10.011038, 9.964427 
6.275912e+3, 1.7506336e+2, -1237272.6, -1272838.1, -14.942367, 0.0012777029, 0.000079352125, -1237272.6, -12892.263, 0.0, 10.011026, 9.964014 
6.27591e+3, 1.8502115e+2, -1149328.4, -1194458.3, -0.92928964, 0.0012768526, 0.00022279691, -1149328.4, -22534.432, 0.0, 10.011014, 9.951485 
6.275909e+3, 1.9497265e+2, -1051257.6, -1096641.8, -17.73333, 0.0012781057, 0.00008862393, -1051257.6, -21988.605, 0.0, 10.011002, 9.95114 
6.275907e+3, 2.0491745e+2, -963261.7, -1018519.44, -2.4406056, 0.0012781493, 0.00020839494, -963261.7, -31451.54, 0.0, 10.01099, 9.938246 
6.275906e+3, 2.1485573e+2, -865051.1, -920563.44, -20.658035, 0.0012769542, 0.00001230898, -865051.1, -30636.166, 0.0, 10.010979, 9.937904 
6.275904e+3, 2.2478731e+2, -776841.9, -842401.1, -0.16363947, 0.0012760836, 0.00025719116, -776841.9, -39756.363, 0.0, 10.010967, 9.924838 
6.275903e+3, 2.347122e+2, -678481.9, -744289.5, -18.1553, 0.0012755524, 0.00004280009, -678481.9, -38660.4, 0.0, 10.010957, 9.924506 
6.275901e+3, 2.4463014e+2, -590234.2, -666446.5, 2.14167, 0.0012754422, 0.00020182514, -590234.2, -47608.547, 0.0, 10.010946, 9.911039 
6.2759e+3, 2.5454128e+2, -491556.16, -567838.7, -15.711716, 0.0012758033, 0.000016129972, -491556.16, -46059.887, 0.0, 10.010936, 9.910937 
6.275899e+3, 2.6444533e+2, -403407.38, -490613.06, 6.0185885, 0.0012753535, 0.0002597073, -403407.38, -54970.824, 0.0, 10.010926, 9.896823 
6.2758976e+3, 2.7434272e+2, -304194.84, -391068.22, -10.916384, 0.0012739074, -0.00008747711, -304194.84, -52752.555, 0.0, 10.010918, 9.89724 
6.2758964e+3, 2.8423193e+2, -217630.33, -317549.56, 8.137028, 0.0012732822, 0.00034171977, -217630.33, -63102.504, 0.0, 10.010908, 9.880482 
6.275895e+3, 2.941135e+2, -117986.69, -217276.38, -8.409507, 0.0012737329, -0.00014421226, -117986.69, -60298.008, 0.0, 10.010899, 9.881275 
6.275894e+3, 3.0402273e+2, -28732.799, -85083.93, 8.599351, 0.0012736354, 0.00027659736, -28732.797, -28732.797, 0.0, 10.01089, 9.936707 
6.275893e+3, 3.1396127e+2, -27709.709, -82934.38, -7.282925, 0.0012727345, 0.00003979767, -27709.707, -27709.707, 0.0, 10.01088, 9.938162 
6.285932e+3, 1.2518126e+2, -1705810.1, -1722291.4, 11.826518, 0.0012909503, 0.00021363329, -1705810.1, 7414.9297, 0.0, 10.011306, 9.989457 
6.28593e+3, 1.3517056e+2, -1608515.6, -1625578.6, -5.1418834, 0.001287618, 0.00003424867, -1608515.6, 6814.2363, 0.0, 10.011292, 9.988674 
6.2859285e+3, 1.451533e+2, -1520516.8, -1546425.9, 9.28926, 0.0012869864, 0.00029451822, -1520516.8, -3017.937, 0.0, 10.011278, 9.9769535 
6.2859267e+3, 1.5513024e+2, -1422871.3, -1449173.6, -8.300119, 0.0012888275, 0.00010343008, -1422871.3, -3146.2737, 0.0, 10.011265, 9.976422 
6.285925e+3, 1.6510059e+2, -1334851.0, -1370306.9, 8.701486, 0.0012886149, 0.00018418652, -1334851.0, -12835.439, 0.0, 10.011252, 9.964379 
6.285923e+3, 1.75065e+2, -1236974.6, -1272737.1, -9.53778, 0.0012864561, 0.0000798874, -1236974.6, -12610.474, 0.0, 10.01124, 9.963966 
6.2859213e+3, 1.8502276e+2, -1149029.0, -1194353.3, 4.3227234, 0.0012858001, 0.00022332731, -1149029.0, -22250.762, 0.0, 10.011228, 9.95144 
6.28592e+3, 1.9497423e+2, -1050959.5, -1096538.3, -12.492051, 0.001286606, 0.00008897514, -1050959.5, -21705.723, 0.0, 10.011215, 9.951097 
6.2859184e+3, 2.0491897e+2, -962967.7, -1018424.2, 3.0267603, 0.0012864463, 0.0002087134, -962967.7, -31172.42, 0.0, 10.011204, 9.938197 
6.2859166e+3, 2.1485719e+2, -864757.8, -920469.3, -15.547189, 0.0012852962, 0.00001274401, -864757.8, -30357.219, 0.0, 10.011193, 9.937855 
6.285915e+3, 2.2478873e+2, -776550.44, -842309.44, 4.737384, 0.0012846254, 0.00025769277, -776550.44, -39478.84, 0.0, 10.011182, 9.924788 
6.2859136e+3, 2.3471357e+2, -678193.6, -744200.25, -13.655594, 0.00128446, 0.000043315136, -678193.6, -38385.57, 0.0, 10.01117, 9.924457 
6.2859124e+3, 2.4463145e+2, -589946.7, -666358.3, 6.875363, 0.0012842608, 0.00020223808, -589946.7, -47333.992, 0.0, 10.011161, 9.91099 
6.285911e+3, 2.5454256e+2, -491267.78, -567750.9, -10.690952, 0.0012840163, 0.00001630867, -491267.78, -45783.965, 0.0, 10.011151, 9.910888 
6.2859094e+3, 2.6444656e+2, -403121.0, -490529.06, 10.761497, 0.0012835163, 0.00025999316, -403121.0, -54696.4, 0.0, 10.011142, 9.896771 
6.285909e+3, 2.7434388e+2, -303912.13, -390986.97, -7.6219573, 0.0012826957, -0.00008666686, -303912.13, -52481.293, 0.0, 10.011131, 9.897188 
6.285907e+3, 2.8423306e+2, -217346.63, -317464.4, 11.468154, 0.0012822901, 0.0003424402, -217346.63, -62829.766, 0.0, 10.011123, 9.880434 
6.2859064e+3, 2.9411456e+2, -117703.42, -217191.95, -3.4626064, 0.0012824255, -0.00014439382, -117703.42, -60025.227, 0.0, 10.011114, 9.8812275 
6.285905e+3, 3.0402374e+2, -28456.902, -85013.15, 13.441689, 0.0012820908, 0.00027641773, -28456.898, -28456.898, 0.0, 10.011106, 9.93665 
6.285904e+3, 3.1396222e+2, -27432.871, -82864.09, -5.273466, 0.0012810681, 0.00004092916, -27432.87, -27432.87, 0.0, 10.011098, 9.938105 
6.295943e+3, 1.2518317e+2, -1705845.5, -1722363.9, 6.3448296, 0.0012963901, 0.0002137353, -1705845.5, 7360.9336, 0.0, 10.01131, 9.989411 
6.2959415e+3, 1.3517243e+2, -1608550.6, -1625650.9, -10.635619, 0.001298881, 0.000034847402, -1608550.6, 6760.933, 0.0, 10.011295, 9.988627 
6.2959397e+3, 1.4515512e+2, -1520552.6, -1546499.8, 4.1082015, 0.0012984411, 0.00029515597, -1520552.6, -3071.4907, 0.0, 10.011281, 9.976906 
6.295938e+3, 1.5513201e+2, -1422906.4, -1449247.0, -13.47984, 0.0012951982, 0.00010367581, -1422906.4, -3198.7605, 0.0, 10.011268, 9.976376 
6.295936e+3, 1.6510229e+2, -1334886.8, -1370381.8, 3.8012698, 0.0012945363, 0.0001844246, -1334886.8, -12887.986, 0.0, 10.011255, 9.964331 
6.2959343e+3, 1.7506668e+2, -1237010.0, -1272811.6, -14.403067, 0.0012963484, 0.0000804847, -1237010.0, -12662.175, 0.0, 10.011243, 9.963918 
6.2959325e+3, 1.8502438e+2, -1149060.8, -1194421.4, -0.3412962, 0.0012963564, 0.00022389964, -1149060.8, -22298.441, 0.0, 10.01123, 9.951396 
6.2959313e+3, 1.949758e+2, -1050990.8, -1096605.8, -17.171747, 0.0012945813, 0.0000891459, -1050990.8, -21752.416, 0.0, 10.011218, 9.951052 
6.2959296e+3, 2.049205e+2, -963002.75, -1018499.56, -1.2110755, 0.0012936763, 0.0002089761, -963002.75, -31222.451, 0.0, 10.011207, 9.938148 
6.295928e+3, 2.1485867e+2, -864792.5, -920544.4, -19.769732, 0.0012936532, 0.00001360204, -864792.5, -30406.45, 0.0, 10.011196, 9.937805 
6.295926e+3, 2.2479014e+2, -776585.4, -842385.4, 0.40954897, 0.0012937047, 0.00025837193, -776585.4, -39527.79, 0.0, 10.011185, 9.924738 
6.295925e+3, 2.3471496e+2, -678227.94, -744275.6, -17.952875, 0.0012938275, 0.00004298579, -678227.94, -38433.383, 0.0, 10.011174, 9.924406 
6.2959236e+3, 2.4463278e+2, -589980.0, -666432.4, 3.2977386, 0.0012931696, 0.00020213595, -589980.0, -47380.363, 0.0, 10.011164, 9.91094 
6.2959224e+3, 2.5454384e+2, -491300.78, -567824.5, -14.325445, 0.0012916182, 0.000017838465, -491300.78, -45829.52, 0.0, 10.011154, 9.910838 
6.2959206e+3, 2.6444778e+2, -403156.5, -490608.22, 6.8807254, 0.0012911552, 0.00026132856, -403156.5, -54743.957, 0.0, 10.011145, 9.896718 
6.29592e+3, 2.7434507e+2, -303947.16, -391065.88, -11.34557, 0.0012920066, -0.00008774967, -303947.16, -52527.824, 0.0, 10.011135, 9.897135 
6.295918e+3, 2.842342e+2, -217376.17, -317532.7, 8.207426, 0.0012920551, 0.0003413505, -217376.17, -62870.33, 0.0, 10.011126, 9.880387 
6.2959176e+3, 2.9411563e+2, -117732.14, -217259.02, -6.947619, 0.001291039, -0.00014231508, -117732.14, -60064.547, 0.0, 10.011117, 9.881182 
6.2959164e+3, 3.040248e+2, -28494.08, -85097.945, 10.223891, 0.0012900705, 0.00027884732, -28494.078, -28494.078, 0.0, 10.011108, 9.936592 
6.295915e+3, 3.139632e+2, -27471.06, -82950.87, -8.127458, 0.0012891662, 0.000039656145, -27471.059, -27471.059, 0.0, 10.011101, 9.938045 
6.3059545e+3, 1.2518509e+2, -1705534.8, -1722251.4, 12.427222, 0.001305084, 0.00021395949, -1705534.8, 7652.8315, 0.0, 10.011526, 9.989365 
6.3059527e+3, 1.351743e+2, -1608243.3, -1625540.9, -5.018813, 0.0013070656, 0.000035169163, -1608243.3, 7050.019, 0.0, 10.011511, 9.988581 
6.305951e+3, 1.4515695e+2, -1520247.1, -1546392.8, 10.132761, 0.0013066437, 0.00029558773, -1520247.1, -2783.9248, 0.0, 10.011497, 9.976858 
6.305949e+3, 1.5513377e+2, -1422601.0, -1449140.8, -7.8085513, 0.0013039081, 0.00010422644, -1422601.0, -2910.8062, 0.0, 10.011484, 9.976328 
6.3059473e+3, 1.6510402e+2, -1334582.6, -1370277.4, 9.21163, 0.0013033157, 0.00018491906, -1334582.6, -12600.8125, 0.0, 10.011472, 9.964283 
6.3059455e+3, 1.7506836e+2, -1236708.3, -1272709.3, -9.009333, 0.0013047829, 0.00008075699, -1236708.3, -12376.993, 0.0, 10.011458, 9.963869 
6.305944e+3, 1.8502602e+2, -1148757.4, -1194315.0, 5.383602, 0.0013046836, 0.00022416329, -1148757.4, -22011.041, 0.0, 10.011447, 9.95135 
6.3059425e+3, 1.9497739e+2, -1050687.6, -1096500.4, -11.878483, 0.0013030326, 0.00008961006, -1050687.6, -21464.879, 0.0, 10.0114355, 9.951007 
6.305941e+3, 2.0492205e+2, -962704.4, -1018402.8, 3.853217, 0.0013022819, 0.00020953023, -962704.4, -30939.234, 0.0, 10.011424, 9.938098 
6.3059396e+3, 2.1486017e+2, -864496.94, -920449.8, -14.889901, 0.0013024443, 0.000014133812, -864496.94, -30125.502, 0.0, 10.011413, 9.937756 
6.305938e+3, 2.247916e+2, -776290.94, -842292.56, 5.5382824, 0.0013023868, 0.0002587281, -776290.94, -39247.5, 0.0, 10.011402, 9.924687 
6.305936e+3, 2.3471634e+2, -677933.4, -744183.6, -12.816274, 0.0013020851, 0.000043002212, -677933.4, -38152.465, 0.0, 10.011392, 9.9243555 
6.305935e+3, 2.4463412e+2, -589687.06, -666343.06, 8.20551, 0.0013014721, 0.00020237526, -589687.06, -47100.547, 0.0, 10.011382, 9.910889 
6.3059336e+3, 2.5454512e+2, -491010.75, -567737.56, -10.530068, 0.0013004981, 0.000018939347, -491010.75, -45552.125, 0.0, 10.011372, 9.910788 
6.3059324e+3, 2.6444903e+2, -402867.47, -490522.22, 10.805377, 0.0013001269, 0.00026220587, -402867.47, -54467.09, 0.0, 10.011362, 9.8966675 
6.305931e+3, 2.7434626e+2, -303658.5, -390980.88, -6.055961, 0.001300479, -0.000088414825, -303658.5, -52250.81, 0.0, 10.011353, 9.897083 
6.3059294e+3, 2.8423533e+2, -217087.6, -317448.1, 13.337995, 0.0013003455, 0.00034079392, -217087.58, -62592.887, 0.0, 10.011344, 9.880337 
6.305929e+3, 2.9411674e+2, -117445.234, -217176.06, -4.678803, 0.0012995648, -0.00014059307, -117445.234, -59788.305, 0.0, 10.011335, 9.881131 
6.3059276e+3, 3.0402583e+2, -28213.223, -85023.266, 12.110532, 0.001298793, 0.0002806827, -28213.22, -28213.22, 0.0, 10.011327, 9.936537 
6.305927e+3, 3.1396416e+2, -27191.383, -82877.21, -3.2801778, 0.0012980273, 0.000038498238, -27191.38, -27191.38, 0.0, 10.011318, 9.93799 
6.315966e+3, 1.2518701e+2, -1705571.6, -1722326.3, 6.402618, 0.0013160586, 0.00021427417, -1705571.6, 7596.99, 0.0, 10.011528, 9.989317 
6.3159645e+3, 1.3517618e+2, -1608279.1, -1625615.1, -10.979572, 0.0013131319, 0.000035301677, -1608279.1, 6995.641, 0.0, 10.011514, 9.988533 
6.3159627e+3, 1.4515878e+2, -1520283.4, -1546468.0, 5.322112, 0.0013126103, 0.00029587717, -1520283.4, -2838.174, 0.0, 10.011499, 9.97681 
6.31596e+3, 1.5513557e+2, -1422637.3, -1449215.8, -12.601237, 0.0013142704, 0.0001049874, -1422637.3, -2964.5535, 0.0, 10.011487, 9.976279 
6.315959e+3, 1.6510577e+2, -1334618.6, -1370352.3, 4.0820293, 0.0013141062, 0.00018559108, -1334618.6, -12653.853, 0.0, 10.011475, 9.964234 
6.3159573e+3, 1.7507005e+2, -1236743.5, -1272783.5, -14.137754, 0.0013122223, 0.00008080692, -1236743.5, -12428.733, 0.0, 10.011462, 9.963821 
6.3159555e+3, 1.8502766e+2, -1148789.9, -1194384.8, 1.0330015, 0.0013114812, 0.00022421667, -1148789.9, -22059.693, 0.0, 10.01145, 9.951305 
6.315954e+3, 1.9497898e+2, -1050719.9, -1096569.9, -16.205618, 0.001311843, 0.00009027966, -1050719.9, -21512.889, 0.0, 10.011438, 9.950961 
6.315952e+3, 2.0492359e+2, -962739.94, -1018478.94, -0.6678865, 0.0013118718, 0.00021028589, -962739.94, -30990.008, 0.0, 10.011427, 9.938048 
6.315951e+3, 2.1486168e+2, -864531.9, -920525.44, -19.4067, 0.0013115566, 0.00001443544, -864531.8, -30175.145, 0.0, 10.0114155, 9.937706 
6.315949e+3, 2.2479305e+2, -776325.6, -842368.3, 1.6451992, 0.0013108106, 0.0002588611, -776325.6, -39296.406, 0.0, 10.011405, 9.924638 
6.315948e+3, 2.3471774e+2, -677967.6, -744258.9, -16.726572, 0.001309595, 0.000043272532, -677967.6, -38200.484, 0.0, 10.0113945, 9.924306 
6.3159466e+3, 2.4463548e+2, -589722.8, -666421.75, 4.2684617, 0.0013093799, 0.00020285948, -589722.8, -47149.547, 0.0, 10.011385, 9.910836 
6.315945e+3, 2.5454643e+2, -491046.0, -567815.9, -14.370673, 0.0013102922, 0.000019722858, -491046.0, -45600.137, 0.0, 10.011374, 9.910735 
6.3159436e+3, 2.6445028e+2, -402900.1, -490595.75, 7.331196, 0.0013100482, 0.0002627513, -402900.1, -54511.957, 0.0, 10.011365, 9.896618 
6.3159424e+3, 2.7434745e+2, -303690.47, -391053.7, -9.683725, 0.0013083887, -0.00008875773, -303690.47, -52294.55, 0.0, 10.011356, 9.897035 
6.315941e+3, 2.842365e+2, -217122.44, -317527.38, 9.87122, 0.0013076313, 0.00034063793, -217122.44, -62639.0, 0.0, 10.011348, 9.880283 
6.31594e+3, 2.9411784e+2, -117479.86, -217255.33, -7.857017, 0.0013080548, -0.00013915404, -117479.86, -59833.652, 0.0, 10.011338, 9.881077 
6.315939e+3, 3.0402684e+2, -28245.373, -85097.64, 9.020955, 0.0013080589, 0.00028206516, -28245.371, -28245.371, 0.0, 10.01133, 9.936485 
6.315938e+3, 3.1396517e+2, -27223.275, -82951.14, -6.697608, 0.0013074434, 0.00003746197, -27223.275, -27223.275, 0.0, 10.011322, 9.937939 
6.325978e+3, 1.2518896e+2, -1705260.8, -1722214.1, 12.022048, 0.0013247235, 0.00021491053, -1705260.8, 7888.752, 0.0, 10.011745, 9.98927 
6.325976e+3, 1.3517809e+2, -1607964.8, -1625501.9, -5.2715054, 0.0013214602, 0.000035828107, -1607964.8, 7291.377, 0.0, 10.011733, 9.988486 
6.325974e+3, 1.4516065e+2, -1519970.8, -1546357.8, 10.797935, 0.0013209241, 0.00029626398, -1519970.8, -2543.7026, 0.0, 10.01172, 9.976762 
6.325972e+3, 1.5513737e+2, -1422330.1, -1449109.3, -7.24039, 0.0013228698, 0.0001052045, -1422330.1, -2675.1104, 0.0, 10.011705, 9.976231 
6.325971e+3, 1.6510753e+2, -1334313.1, -1370247.9, 9.965051, 0.0013227331, 0.00018586576, -1334313.1, -12365.654, 0.0, 10.011692, 9.964186 
6.3259685e+3, 1.7507176e+2, -1236436.3, -1272679.0, -8.639127, 0.0013206303, 0.000081355676, -1236436.3, -12138.297, 0.0, 10.011682, 9.963772 
6.325967e+3, 1.8502931e+2, -1148480.5, -1194276.0, 6.2650433, 0.0013199239, 0.00022478777, -1148480.5, -21766.629, 0.0, 10.01167, 9.95126 
6.3259655e+3, 1.949806e+2, -1050414.3, -1096463.9, -11.034489, 0.0013205693, 0.00009062707, -1050414.3, -21223.066, 0.0, 10.011658, 9.950916 
6.325964e+3, 2.0492515e+2, -962439.3, -1018381.7, 4.761095, 0.001320569, 0.00021050547, -962439.3, -30704.742, 0.0, 10.011646, 9.937998 
6.3259625e+3, 2.148632e+2, -864231.0, -920428.9, -14.245717, 0.0013199055, 0.0000146246575, -864231.0, -29889.18, 0.0, 10.011636, 9.937655 
6.32596e+3, 2.247945e+2, -776025.8, -842273.8, 6.656279, 0.0013191846, 0.00025928303, -776025.8, -39010.977, 0.0, 10.011625, 9.924587 
6.325959e+3, 2.3471916e+2, -677670.06, -744166.4, -12.3019, 0.0013183927, 0.000044208486, -677670.06, -37916.805, 0.0, 10.011615, 9.924254 
6.325958e+3, 2.4463683e+2, -589426.75, -666331.1, 8.7935505, 0.0013182235, 0.00020348521, -589426.75, -46866.848, 0.0, 10.011605, 9.910785 
6.3259566e+3, 2.5454774e+2, -490751.13, -567726.6, -9.229116, 0.0013187537, 0.000019103561, -490751.13, -45318.105, 0.0, 10.011596, 9.910684 
6.325955e+3, 2.6445153e+2, -402606.72, -490509.4, 12.33963, 0.0013184289, 0.00026242353, -402606.72, -54230.91, 0.0, 10.011586, 9.896565 
6.3259536e+3, 2.7434868e+2, -303398.22, -390968.8, -6.6583285, 0.0013170544, -0.00008692689, -303398.22, -52014.137, 0.0, 10.011578, 9.896982 
6.3259524e+3, 2.8423765e+2, -216829.14, -317439.8, 12.800347, 0.0013164219, 0.0003423412, -216829.14, -62357.04, 0.0, 10.011569, 9.880233 
6.325952e+3, 2.9411894e+2, -117188.39, -217169.34, -2.5791905, 0.0013167597, -0.00014058476, -117188.39, -59553.016, 0.0, 10.01156, 9.881027 
6.32595e+3, 3.0402792e+2, -27961.627, -85024.02, 14.291296, 0.0013166661, 0.00028042195, -27961.623, -27961.623, 0.0, 10.011552, 9.936429 
6.3259494e+3, 3.1396616e+2, -26939.516, -82878.31, -4.9924765, 0.001315937, 0.000039811282, -26939.516, -26939.516, 0.0, 10.011543, 9.9378805 
6.33599e+3, 1.2519093e+2, -1705296.8, -1722288.0, 7.3777146, 0.0013318127, 0.00021576334, -1705296.8, 7833.613, 0.0, 10.011748, 9.989223 
6.335988e+3, 1.3518e+2, -1608001.0, -1625575.8, -9.947719, 0.0013313818, 0.000036624926, -1608001.0, 7236.3784, 0.0, 10.011736, 9.98844 
6.3359857e+3, 1.4516251e+2, -1520007.9, -1546433.8, 4.9693203, 0.0013308886, 0.00029671958, -1520007.9, -2599.1409, 0.0, 10.011723, 9.976713 
6.335984e+3, 1.551392e+2, -1422366.1, -1449184.5, -13.034026, 0.0013302683, 0.000105049825, -1422366.1, -2728.9258, 0.0, 10.011708, 9.976182 
6.3359827e+3, 1.6510929e+2, -1334349.5, -1370324.3, 5.6938376, 0.0013298828, 0.0001858691, -1334349.5, -12419.263, 0.0, 10.011696, 9.964136 
6.33598e+3, 1.7507349e+2, -1236472.5, -1272755.1, -12.897899, 0.0013297375, 0.000082248094, -1236472.5, -12191.421, 0.0, 10.011684, 9.963723 
6.3359785e+3, 1.85031e+2, -1148513.5, -1194346.1, 1.3791167, 0.0013295335, 0.00022571483, -1148513.5, -21816.008, 0.0, 10.011673, 9.951214 
6.3359773e+3, 1.9498225e+2, -1050446.5, -1096533.4, -15.915207, 0.001329256, 0.00009075274, -1050446.5, -21271.219, 0.0, 10.011661, 9.9508705 
6.3359755e+3, 2.0492674e+2, -962475.1, -1018458.75, 0.69873405, 0.0013286661, 0.00021035821, -962475.1, -30755.99, 0.0, 10.011649, 9.937947 
6.335974e+3, 2.1486472e+2, -864266.5, -920505.56, -18.303993, 0.0013277534, 0.000014742292, -864266.5, -29939.605, 0.0, 10.011639, 9.937605 
6.335972e+3, 2.24796e+2, -776061.8, -842352.0, 2.602984, 0.0013275534, 0.00025990666, -776061.8, -39061.477, 0.0, 10.011628, 9.924535 
6.335971e+3, 2.3472059e+2, -677705.6, -744244.1, -16.319708, 0.0013281049, 0.0000455955, -677705.6, -37966.32, 0.0, 10.011619, 9.924203 
6.335969e+3, 2.4463823e+2, -589461.06, -666407.1, 4.9887047, 0.0013277354, 0.00020420464, -589461.06, -46914.652, 0.0, 10.011608, 9.910734 
6.335968e+3, 2.545491e+2, -490784.8, -567802.0, -13.093743, 0.0013263145, 0.000017533855, -490784.8, -45364.746, 0.0, 10.011599, 9.910633 
6.3359666e+3, 2.6445282e+2, -402643.16, -490590.9, 8.919594, 0.0013257673, 0.0002615075, -402643.16, -54279.797, 0.0, 10.011589, 9.89651 
6.3359654e+3, 2.743499e+2, -303434.47, -391050.22, -9.91598, 0.0013262702, -0.0000836159, -303434.47, -52062.31, 0.0, 10.01158, 9.896927 
6.335964e+3, 2.842388e+2, -216859.75, -317510.13, 9.458841, 0.001326281, 0.00034530798, -216859.75, -62399.063, 0.0, 10.011572, 9.880185 
6.335963e+3, 2.9412e+2, -117217.99, -217238.3, -6.130792, 0.0013256369, -0.00014396958, -117217.99, -59593.54, 0.0, 10.011563, 9.88098 
6.335962e+3, 3.04029e+2, -27999.736, -85111.07, 11.001045, 0.0013248392, 0.00027672248, -27999.734, -27999.734, 0.0, 10.011555, 9.936368 
6.335961e+3, 3.1396717e+2, -26978.492, -82967.29, -8.000843, 0.0013238149, 0.000044474556, -26978.492, -26978.492, 0.0, 10.011547, 9.9378195 
6.3460016e+3, 1.251929e+2, -1704976.1, -1722171.3, 13.219653, 0.0013396521, 0.0002158914, -1704976.1, 8134.863, 0.0, 10.011971, 9.989175 
6.345999e+3, 1.3518193e+2, -1607688.8, -1625464.3, -4.519292, 0.0013404461, 0.000036932648, -1607688.8, 7529.7573, 0.0, 10.011955, 9.988391 
6.3459975e+3, 1.4516439e+2, -1519697.6, -1546325.3, 10.917091, 0.0013400138, 0.0002971342, -1519697.6, -2307.2607, 0.0, 10.011942, 9.976665 
6.3459957e+3, 1.5514103e+2, -1422051.1, -1449074.3, -7.288825, 0.0013383665, 0.00010550074, -1422051.1, -2431.8655, 0.0, 10.011931, 9.976133 
6.345994e+3, 1.6511106e+2, -1334035.4, -1370216.1, 11.147512, 0.0013378992, 0.00018627632, -1334035.4, -12122.6875, 0.0, 10.011919, 9.964087 
6.345992e+3, 1.750752e+2, -1236164.4, -1272650.9, -7.652952, 0.0013385712, 0.000082536426, -1236164.4, -11900.203, 0.0, 10.011906, 9.963674 
6.345991e+3, 1.8503267e+2, -1148203.9, -1194237.8, 6.950381, 0.0013384699, 0.00022598491, -1148203.9, -21522.918, 0.0, 10.011893, 9.951168 
6.3459885e+3, 1.9498387e+2, -1050135.3, -1096424.9, -10.58722, 0.0013375959, 0.00009110261, -1050135.3, -20976.06, 0.0, 10.011884, 9.950825 
6.3459873e+3, 2.0492832e+2, -962168.0, -1018358.94, 5.9010816, 0.0013369265, 0.00021080705, -962168.0, -30464.47, 0.0, 10.011873, 9.937897 
6.3459855e+3, 2.1486625e+2, -863962.1, -920408.06, -13.418448, 0.0013364598, 0.000015309855, -863962.1, -29650.313, 0.0, 10.011862, 9.937554 
6.345984e+3, 2.2479749e+2, -775759.44, -842256.8, 7.539354, 0.0013363688, 0.0002602816, -775759.44, -38773.664, 0.0, 10.011851, 9.924483 
6.3459826e+3, 2.3472202e+2, -677404.6, -744150.5, -11.375398, 0.0013366697, 0.00004544551, -677404.6, -37679.402, 0.0, 10.011841, 9.924151 
6.345981e+3, 2.446396e+2, -589160.8, -666315.2, 9.937972, 0.001336216, 0.00020433204, -589160.8, -46627.94, 0.0, 10.011831, 9.910683 
6.3459796e+3, 2.545504e+2, -490484.7, -567711.06, -9.092092, 0.0013348989, 0.000018846635, -490484.66, -45077.67, 0.0, 10.011823, 9.910581 
6.3459784e+3, 2.644541e+2, -402344.66, -490502.66, 12.821008, 0.0013344197, 0.00026251806, -402344.66, -53993.836, 0.0, 10.011814, 9.896458 
6.345977e+3, 2.743511e+2, -303139.03, -390964.4, -5.038271, 0.0013349478, -0.00008471064, -303139.03, -51778.887, 0.0, 10.011805, 9.896873 
6.345976e+3, 2.8423995e+2, -216563.88, -317422.34, 14.304212, 0.001334955, 0.00034437314, -216563.88, -62114.7, 0.0, 10.011796, 9.880135 
6.345975e+3, 2.9412115e+2, -116922.305, -217151.3, -3.5099366, 0.001334269, -0.00014177446, -116922.305, -59308.875, 0.0, 10.011787, 9.880929 
6.3459736e+3, 3.0403006e+2, -27710.523, -85035.555, 13.252325, 0.0013334729, 0.00027907675, -27710.52, -27710.52, 0.0, 10.01178, 9.936311 
6.3459724e+3, 3.1396818e+2, -26689.012, -82892.41, -3.7060008, 0.0013325126, 0.000042733707, -26689.01, -26689.01, 0.0, 10.011773, 9.937761 
6.3560134e+3, 1.2519489e+2, -1705013.9, -1722247.6, 6.801869, 0.0013480468, 0.00021553008, -1705013.9, 8077.5903, 0.0, 10.011974, 9.989127 
6.3560116e+3, 1.3518387e+2, -1607725.1, -1625539.8, -10.870286, 0.0013489298, 0.000036907717, -1607725.1, 7474.2813, 0.0, 10.011958, 9.988343 
6.35601e+3, 1.4516628e+2, -1519734.4, -1546401.6, 6.717237, 0.0013485703, 0.00029752075, -1519734.4, -2362.5647, 0.0, 10.011945, 9.976615 
6.356008e+3, 1.5514287e+2, -1422088.1, -1449150.6, -11.505684, 0.0013469813, 0.00010636628, -1422088.1, -2486.9548, 0.0, 10.011934, 9.976085 
6.3560057e+3, 1.6511287e+2, -1334072.9, -1370293.8, 5.742251, 0.0013465491, 0.00018696043, -1334072.9, -12177.703, 0.0, 10.011922, 9.964037 
6.356004e+3, 1.7507695e+2, -1236200.8, -1272727.6, -13.019211, 0.0013472326, 0.00008241229, -1236200.8, -11953.647, 0.0, 10.011909, 9.963624 
6.3560027e+3, 1.8503438e+2, -1148236.9, -1194308.5, 2.9233944, 0.0013469566, 0.00022580723, -1148236.9, -21572.506, 0.0, 10.011897, 9.951121 
6.3560003e+3, 1.9498552e+2, -1050168.1, -1096495.5, -14.620684, 0.001345727, 0.00009160888, -1050168.1, -21025.078, 0.0, 10.011887, 9.950778 
6.355999e+3, 2.0492993e+2, -962204.75, -1018437.44, 1.5387304, 0.0013453321, 0.00021166545, -962204.75, -30516.93, 0.0, 10.011876, 9.937845 
6.3559973e+3, 2.1486782e+2, -863998.25, -920486.06, -17.759275, 0.0013457789, 0.00001618308, -863998.25, -29701.682, 0.0, 10.011865, 9.937503 
6.355996e+3, 2.2479898e+2, -775795.25, -842334.8, 3.5371857, 0.00134551, 0.00026048574, -775795.25, -38824.176, 0.0, 10.011854, 9.924432 
6.3559943e+3, 2.3472346e+2, -677439.8, -744228.0, -15.385113, 0.0013444677, 0.000044250883, -677439.8, -37728.773, 0.0, 10.011845, 9.9241 
6.355993e+3, 2.44641e+2, -589197.0, -666395.06, 6.506967, 0.0013440131, 0.00020406018, -589197.0, -46677.79, 0.0, 10.011835, 9.910629 
6.355992e+3, 2.5455177e+2, -490520.63, -567790.7, -12.465078, 0.0013442156, 0.00002212587, -490520.63, -45126.8, 0.0, 10.0118265, 9.910527 
6.35599e+3, 2.6445538e+2, -402379.34, -490580.25, 9.10852, 0.0013440032, 0.00026484125, -402379.34, -54041.188, 0.0, 10.011817, 9.896405 
6.355989e+3, 2.743523e+2, -303172.88, -391041.25, -8.819124, 0.0013432765, -0.000088810564, -303172.88, -51824.824, 0.0, 10.011807, 9.896822 
6.355988e+3, 2.8424114e+2, -216598.3, -317501.1, 11.178532, 0.0013428339, 0.0003407804, -216598.3, -62160.7, 0.0, 10.011799, 9.880081 
6.3559866e+3, 2.941223e+2, -116956.44, -217229.75, -6.501673, 0.0013427571, -0.00013576519, -116956.44, -59354.133, 0.0, 10.011791, 9.880876 
6.3559854e+3, 3.0403113e+2, -27745.36, -85115.5, 10.384159, 0.0013424511, 0.00028556498, -27745.357, -27745.357, 0.0, 10.011784, 9.936255 
6.355984e+3, 3.139692e+2, -26724.066, -82972.64, -6.6446104, 0.001341803, 0.00003661408, -26724.064, -26724.064, 0.0, 10.011776, 9.937705 
6.366026e+3, 1.2519689e+2, -1704696.9, -1722133.5, 12.652711, 0.0013574742, 0.0002159969, -1704696.9, 8374.92, 0.0, 10.012196, 9.9890785 
6.3660234e+3, 1.3518582e+2, -1607402.0, -1625423.0, -5.097337, 0.0013565342, 0.00003724279, -1607402.0, 7778.25, 0.0, 10.012184, 9.988295 
6.3660216e+3, 1.4516819e+2, -1519413.0, -1546288.1, 12.301455, 0.0013561328, 0.00029782264, -1519413.0, -2059.877, 0.0, 10.012172, 9.976565 
6.36602e+3, 1.5514474e+2, -1421774.6, -1449042.0, -6.26761, 0.0013561574, 0.000106724015, -1421774.6, -2191.6782, 0.0, 10.0121565, 9.976035 
6.366018e+3, 1.6511469e+2, -1333761.1, -1370187.1, 11.361618, 0.0013558838, 0.00018732039, -1333761.1, -11883.669, 0.0, 10.012144, 9.963987 
6.366016e+3, 1.7507872e+2, -1235885.3, -1272619.9, -7.4897738, 0.0013553465, 0.00008272397, -1235885.3, -11655.402, 0.0, 10.012135, 9.963573 
6.3660145e+3, 1.850361e+2, -1147918.8, -1194196.6, 8.335873, 0.0013548827, 0.00022614004, -1147918.8, -21271.11, 0.0, 10.012123, 9.951075 
6.3660127e+3, 1.9498718e+2, -1049854.3, -1096386.6, -9.55787, 0.0013544727, 0.00009203071, -1049854.3, -20727.535, 0.0, 10.012112, 9.950731 
6.3660115e+3, 2.0493154e+2, -961896.56, -1018337.7, 6.658201, 0.0013543107, 0.00021203206, -961896.56, -30224.563, 0.0, 10.0121, 9.937794 
6.366009e+3, 2.1486937e+2, -863690.5, -920387.4, -12.763241, 0.0013543951, 0.000016348076, -863690.5, -29409.232, 0.0, 10.012091, 9.937451 
6.366008e+3, 2.248005e+2, -775487.9, -842237.9, 8.640711, 0.0013539406, 0.00026076764, -775487.9, -38531.586, 0.0, 10.01208, 9.92438 
6.366006e+3, 2.3472492e+2, -677132.6, -744131.94, -10.728257, 0.0013529005, 0.000044989174, -677132.6, -37435.902, 0.0, 10.012072, 9.924047 
6.366005e+3, 2.446424e+2, -588891.8, -666301.8, 10.976206, 0.0013525743, 0.00020460114, -588891.8, -46386.39, 0.0, 10.012062, 9.910576 
6.366003e+3, 2.545531e+2, -490219.16, -567700.1, -7.969452, 0.0013530481, 0.000021730419, -490219.16, -44838.574, 0.0, 10.012052, 9.910475 
6.366002e+3, 2.644567e+2, -402078.84, -490491.16, 13.722635, 0.0013528427, 0.00026466645, -402078.84, -53753.402, 0.0, 10.012043, 9.896352 
6.366001e+3, 2.7435356e+2, -302871.03, -390952.38, -4.998541, 0.0013518018, -0.000087362576, -302871.03, -51535.22, 0.0, 10.012035, 9.896769 
6.3659996e+3, 2.8424233e+2, -216295.86, -317411.9, 14.741848, 0.001351263, 0.0003421175, -216295.86, -61869.96, 0.0, 10.012028, 9.880029 
6.3659984e+3, 2.9412344e+2, -116656.94, -217142.88, -2.4821205, 0.0013513768, -0.00013681335, -116656.94, -59065.8, 0.0, 10.012019, 9.880823 
6.365998e+3, 3.0403224e+2, -27453.09, -85038.06, 14.285774, 0.0013512356, 0.00028435764, -27453.086, -27453.086, 0.0, 10.012011, 9.936198 
6.365996e+3, 3.139702e+2, -26433.01, -82896.305, -3.8683736, 0.0013507132, 0.0000384461, -26433.01, -26433.01, 0.0, 10.012003, 9.937648 
6.376038e+3, 1.2519892e+2, -1704734.0, -1722209.6, 8.208827, 0.0013675971, 0.00021702058, -1704734.0, 8318.005, 0.0, 10.012198, 9.98903 
6.376036e+3, 1.3518779e+2, -1607439.4, -1625499.1, -9.554624, 0.0013635907, 0.000037823178, -1607439.4, 7721.552, 0.0, 10.012187, 9.988246 
6.3760334e+3, 1.4517011e+2, -1519451.4, -1546366.5, 6.4440722, 0.0013630725, 0.0002980696, -1519451.4, -2117.0837, 0.0, 10.012174, 9.976516 
6.376032e+3, 1.5514658e+2, -1421811.9, -1449119.6, -12.060759, 0.0013657211, 0.00010673682, -1421811.9, -2247.2363, 0.0, 10.012159, 9.975986 
6.3760304e+3, 1.651165e+2, -1333798.0, -1370264.6, 7.363274, 0.0013656848, 0.00018746019, -1333798.0, -11938.371, 0.0, 10.012148, 9.963937 
6.376028e+3, 1.750805e+2, -1235922.0, -1272697.1, -11.504882, 0.0013631242, 0.000083334184, -1235922.0, -11709.595, 0.0, 10.012137, 9.963524 
6.376026e+3, 1.850378e+2, -1147953.0, -1194269.1, 3.5730107, 0.0013624704, 0.00022682163, -1147953.0, -21322.26, 0.0, 10.012126, 9.951028 
6.376025e+3, 1.9498886e+2, -1049887.8, -1096458.6, -14.285165, 0.0013636575, 0.00009239386, -1049887.8, -20777.479, 0.0, 10.012115, 9.950685 
6.3760227e+3, 2.0493317e+2, -961933.25, -1018416.44, 2.630106, 0.0013636928, 0.00021206398, -961933.25, -30277.146, 0.0, 10.012103, 9.937742 
6.3760215e+3, 2.1487094e+2, -863726.7, -920465.7, -16.799454, 0.0013625546, 0.000016036245, -863726.7, -29460.832, 0.0, 10.012094, 9.9374 
6.3760203e+3, 2.2480202e+2, -775524.6, -842317.7, 4.9962373, 0.0013619154, 0.00026110647, -775524.6, -38583.27, 0.0, 10.012084, 9.924327 
6.3760185e+3, 2.347264e+2, -677169.1, -744211.44, -14.353038, 0.0013617973, 0.000047038786, -677169.1, -37486.77, 0.0, 10.012074, 9.923995 
6.3760173e+3, 2.4464382e+2, -588928.06, -666381.56, 7.020343, 0.0013616842, 0.00020569186, -588928.06, -46436.55, 0.0, 10.012065, 9.910523 
6.3760155e+3, 2.5455445e+2, -490254.56, -567779.25, -11.916241, 0.0013615681, 0.000018841954, -490254.56, -44887.33, 0.0, 10.012055, 9.910421 
6.3760144e+3, 2.64458e+2, -402114.72, -490571.75, 10.755551, 0.0013611924, 0.00026280058, -402114.7, -53802.086, 0.0, 10.012047, 9.896297 
6.3760126e+3, 2.7435482e+2, -302906.75, -391032.72, -7.950953, 0.0013604907, -0.000082141974, -302906.75, -51583.273, 0.0, 10.012039, 9.896714 
6.376012e+3, 2.8424355e+2, -216329.81, -317489.03, 11.343907, 0.001360101, 0.0003468033, -216329.81, -61915.723, 0.0, 10.012031, 9.879976 
6.37601e+3, 2.9412457e+2, -116690.055, -217219.16, -5.83223, 0.0013601125, -0.00014266276, -116690.055, -59110.14, 0.0, 10.012022, 9.880771 
6.376009e+3, 3.040333e+2, -27489.582, -85121.94, 11.137527, 0.0013599088, 0.0002779205, -27489.58, -27489.58, 0.0, 10.012014, 9.93614 
6.3760084e+3, 3.1397128e+2, -26469.746, -82980.98, -7.1123595, 0.0013593829, 0.000045698187, -26469.746, -26469.746, 0.0, 10.012006, 9.937589 
6.3860506e+3, 1.2520094e+2, -1704406.4, -1722090.3, 13.706971, 0.0013749261, 0.00021716923, -1704406.4, 8625.735, 0.0, 10.012426, 9.988981 
6.386048e+3, 1.3518977e+2, -1607119.4, -1625384.6, -4.2749066, 0.0013730803, 0.00003821373, -1607119.4, 8022.188, 0.0, 10.012411, 9.988197 
6.3860464e+3, 1.4517204e+2, -1519133.1, -1546255.0, 12.024932, 0.0013726518, 0.000298484, -1519133.1, -1817.8257, 0.0, 10.012399, 9.976466 
6.3860446e+3, 1.5514848e+2, -1421489.3, -1449006.6, -6.4820957, 0.001373464, 0.00010696963, -1421489.3, -1943.0912, 0.0, 10.012388, 9.975935 
6.386042e+3, 1.6511834e+2, -1333476.4, -1370153.9, 12.968107, 0.0013732658, 0.00018769359, -1333476.4, -11634.705, 0.0, 10.012377, 9.963886 
6.3860404e+3, 1.7508228e+2, -1235605.9, -1272590.0, -6.3741336, 0.0013721281, 0.000083741485, -1235605.9, -11410.941, 0.0, 10.012363, 9.963473 
6.3860387e+3, 1.8503954e+2, -1147635.5, -1194157.9, 8.779939, 0.0013717542, 0.00022722152, -1147635.5, -21021.775, 0.0, 10.012353, 9.950981 
6.386037e+3, 1.9499056e+2, -1049569.3, -1096347.6, -9.069444, 0.0013721074, 0.00009260941, -1049569.3, -20475.438, 0.0, 10.012342, 9.950637 
6.386035e+3, 2.049348e+2, -961618.5, -1018314.2, 7.9439483, 0.0013718507, 0.00021230428, -961618.5, -29978.46, 0.0, 10.012333, 9.93769 
6.386034e+3, 2.1487252e+2, -863413.4, -920365.0, -11.912293, 0.0013709692, 0.00001651344, -863413.4, -29163.082, 0.0, 10.012322, 9.937347 
6.386032e+3, 2.2480354e+2, -775213.6, -842219.75, 9.720509, 0.0013705944, 0.00026152993, -775213.56, -38287.24, 0.0, 10.012313, 9.924274 
6.386031e+3, 2.3472787e+2, -676861.06, -744115.9, -9.845097, 0.0013707489, 0.000047099402, -676861.06, -37193.195, 0.0, 10.012302, 9.923943 
6.386029e+3, 2.4464525e+2, -588620.44, -666287.25, 11.748835, 0.0013705232, 0.00020583582, -588620.44, -46142.863, 0.0, 10.012294, 9.91047 
6.386028e+3, 2.5455582e+2, -489945.25, -567684.94, -7.3455296, 0.001369859, 0.0000195724, -489945.25, -44591.453, 0.0, 10.012286, 9.910368 
6.386026e+3, 2.644593e+2, -401807.3, -490481.38, 14.991354, 0.0013694536, 0.0002634485, -401807.3, -53507.625, 0.0, 10.012278, 9.896243 
6.386025e+3, 2.743561e+2, -302603.8, -390945.56, -4.373067, 0.0013693502, -0.00008238401, -302603.8, -51292.69, 0.0, 10.012269, 9.896659 
6.386024e+3, 2.8424475e+2, -216025.69, -317397.78, 15.019661, 0.0013691563, 0.00034656795, -216025.69, -61623.46, 0.0, 10.01226, 9.879925 
6.3860226e+3, 2.9412574e+2, -116385.34, -217128.19, -1.7637368, 0.001368835, -0.00014172145, -116385.34, -58816.793, 0.0, 10.012254, 9.880719 
6.3860214e+3, 3.040344e+2, -27192.318, -85045.664, 14.912354, 0.001368403, 0.00027900602, -27192.314, -27192.314, 0.0, 10.012246, 9.93608 
6.386021e+3, 3.1397232e+2, -26171.42, -82905.23, -4.707531, 0.0013678013, 0.00004545982, -26171.42, -26171.42, 0.0, 10.012239, 9.937528 
6.3960624e+3, 1.2520298e+2, -1704444.6, -1722167.6, 7.777603, 0.001380436, 0.00021673425, -1704444.6, 8567.461, 0.0, 10.012429, 9.988933 
6.3960606e+3, 1.3519177e+2, -1607156.8, -1625461.4, -10.168732, 0.0013842047, 0.000038475577, -1607156.6, 7965.296, 0.0, 10.012414, 9.988149 
6.396059e+3, 1.45174e+2, -1519170.9, -1546333.1, 7.741056, 0.0013840001, 0.00029900938, -1519170.9, -1874.6759, 0.0, 10.012402, 9.976416 
6.3960564e+3, 1.5515037e+2, -1421527.0, -1449084.4, -10.788387, 0.0013800258, 0.000107353124, -1421527.0, -1999.3577, 0.0, 10.012391, 9.975885 
6.3960546e+3, 1.6512018e+2, -1333514.9, -1370233.8, 7.9023137, 0.0013794036, 0.00018799266, -1333514.9, -11691.319, 0.0, 10.01238, 9.963835 
6.396053e+3, 1.7508405e+2, -1235643.6, -1272669.1, -11.382856, 0.0013819726, 0.00008401088, -1235643.6, -11466.206, 0.0, 10.012367, 9.963422 
6.396051e+3, 1.850413e+2, -1147669.3, -1194230.1, 4.7767005, 0.0013821864, 0.00022743053, -1147669.3, -21072.656, 0.0, 10.012356, 9.950933 
6.396049e+3, 1.9499224e+2, -1049602.6, -1096419.4, -13.093889, 0.0013800889, 0.00009272843, -1049602.6, -20525.525, 0.0, 10.012345, 9.95059 
6.396048e+3, 2.0493646e+2, -961656.3, -1018394.8, 3.930498, 0.0013792192, 0.00021268832, -961656.3, -30032.398, 0.0, 10.012336, 9.937636 
6.3960457e+3, 2.1487413e+2, -863450.75, -920445.2, -15.899556, 0.0013795869, 0.000017522247, -863450.7, -29216.045, 0.0, 10.012325, 9.937294 
6.3960445e+3, 2.2480509e+2, -775250.8, -842300.44, 5.735342, 0.0013797724, 0.00026200918, -775250.8, -38339.594, 0.0, 10.012316, 9.924221 
6.396043e+3, 2.3472936e+2, -676897.5, -744195.94, -13.809647, 0.0013797532, 0.00004581983, -676897.5, -37244.273, 0.0, 10.012306, 9.923889 
6.3960415e+3, 2.4464668e+2, -588656.7, -666367.44, 8.663848, 0.0013791984, 0.00020534504, -588656.7, -46193.223, 0.0, 10.012298, 9.910417 
6.3960403e+3, 2.5455722e+2, -489981.3, -567764.75, -10.460232, 0.0013780302, 0.000022749418, -489981.3, -44641.11, 0.0, 10.012289, 9.910315 
6.3960385e+3, 2.6446062e+2, -401844.88, -490564.78, 11.309439, 0.0013776916, 0.00026579338, -401844.88, -53558.223, 0.0, 10.012281, 9.896187 
6.3960373e+3, 2.7435735e+2, -302640.6, -391028.44, -7.935064, 0.0013783451, -0.00008632063, -302640.6, -51341.902, 0.0, 10.012272, 9.896603 
6.396036e+3, 2.8424597e+2, -216058.47, -317473.2, 12.238198, 0.0013783734, 0.0003430087, -216058.47, -61668.145, 0.0, 10.012264, 9.879873 
6.396035e+3, 2.9412693e+2, -116417.516, -217202.66, -4.7183795, 0.0013775732, -0.00013617775, -116417.516, -58860.45, 0.0, 10.012257, 9.880669 
6.396034e+3, 3.040355e+2, -27231.455, -85134.664, 12.04873, 0.0013768069, 0.00028518462, -27231.453, -27231.453, 0.0, 10.01225, 9.936018 
6.3960326e+3, 3.1397337e+2, -26211.395, -82995.84, -7.2460055, 0.0013760811, 0.00004014185, -26211.395, -26211.395, 0.0, 10.012242, 9.937465 
6.4060754e+3, 1.2520505e+2, -1704118.3, -1722049.8, 13.575781, 0.0013898613, 0.00021709484, -1704118.3, 8873.617, 0.0, 10.012656, 9.988883 
6.406073e+3, 1.3519378e+2, -1606828.0, -1625343.0, -4.651771, 0.0013917704, 0.00003869815, -1606828.0, 8274.27, 0.0, 10.012645, 9.988099 
6.406071e+3, 1.4517595e+2, -1518844.1, -1546217.9, 13.461339, 0.0013915439, 0.000299234, -1518844.1, -1567.0328, 0.0, 10.012632, 9.976365 
6.4060694e+3, 1.5515228e+2, -1421204.8, -1448972.4, -5.5212727, 0.0013892483, 0.000107706655, -1421204.8, -1695.7991, 0.0, 10.012619, 9.975835 
6.4060676e+3, 1.6512205e+2, -1333194.0, -1370123.8, 13.142647, 0.001388798, 0.00018834966, -1333194.0, -11388.689, 0.0, 10.012608, 9.963784 
6.406065e+3, 1.7508587e+2, -1235321.4, -1272559.3, -6.0914326, 0.001390116, 0.000084253516, -1235321.4, -11161.644, 0.0, 10.012598, 9.96337 
6.4060634e+3, 1.8504305e+2, -1147344.4, -1194115.8, 10.260092, 0.00139008, 0.00022766412, -1147344.4, -20764.967, 0.0, 10.012588, 9.950886 
6.406062e+3, 1.9499396e+2, -1049280.3, -1096307.3, -8.094603, 0.0013887048, 0.000093055365, -1049280.3, -20219.818, 0.0, 10.012577, 9.950542 
6.40606e+3, 2.0493811e+2, -961339.4, -1018292.06, 8.786668, 0.0013881536, 0.00021303433, -961339.4, -29731.756, 0.0, 10.012567, 9.937584 
6.4060587e+3, 2.1487573e+2, -863135.44, -920344.1, -11.160368, 0.0013884314, 0.000017812452, -863135.44, -28916.486, 0.0, 10.012557, 9.937242 
6.406057e+3, 2.2480664e+2, -774935.94, -842201.0, 10.698042, 0.0013883761, 0.0002622724, -774935.94, -38039.918, 0.0, 10.0125475, 9.924168 
6.406055e+3, 2.3473087e+2, -676582.0, -744097.06, -9.007148, 0.0013879552, 0.000046086414, -676582.0, -36943.426, 0.0, 10.012539, 9.923836 
6.406054e+3, 2.4464813e+2, -588343.2, -666271.8, 13.15845, 0.001387529, 0.00020566165, -588343.2, -45893.86, 0.0, 10.01253, 9.910361 
6.406052e+3, 2.5455862e+2, -489671.78, -567672.1, -6.8052316, 0.0013870875, 0.000023169143, -489671.78, -44345.22, 0.0, 10.012522, 9.91026 
6.4060515e+3, 2.6446196e+2, -401535.88, -490472.6, 15.213038, 0.001386818, 0.0002661359, -401535.88, -53262.32, 0.0, 10.012513, 9.896132 
6.40605e+3, 2.7435863e+2, -302330.06, -390936.38, -3.0833237, 0.0013867443, -0.00008627358, -302330.06, -51043.96, 0.0, 10.0125065, 9.896548 
6.4060485e+3, 2.842472e+2, -215748.0, -317382.44, 16.754322, 0.0013865647, 0.00034313157, -215748.0, -61369.715, 0.0, 10.012499, 9.879819 
6.4060473e+3, 2.941281e+2, -116109.93, -217114.28, -2.5325294, 0.0013862369, -0.00013549387, -116109.93, -58564.363, 0.0, 10.012491, 9.880614 
6.406046e+3, 3.0403665e+2, -26930.17, -85054.09, 13.954004, 0.0013857265, 0.0002858496, -26930.168, -26930.168, 0.0, 10.012484, 9.93596 
6.406045e+3, 3.1397444e+2, -25910.871, -82916.03, -3.00053, 0.001384944, 0.00003996472, -25910.871, -25910.871, 0.0, 10.012477, 9.937407 
6.416088e+3, 1.2520713e+2, -1704157.1, -1722128.4, 8.550719, 0.0014018889, 0.00021798424, -1704157.1, 8814.481, 0.0, 10.012659, 9.988833 
6.416086e+3, 1.351958e+2, -1606866.4, -1625421.3, -9.633784, 0.0013970128, 0.000038897844, -1606866.4, 8216.137, 0.0, 10.012648, 9.9880495 
6.416084e+3, 1.4517792e+2, -1518883.1, -1546298.0, 8.372671, 0.0013966057, 0.00029926086, -1518883.1, -1625.4626, 0.0, 10.012635, 9.976315 
6.416082e+3, 1.551542e+2, -1421243.3, -1449052.1, -10.551055, 0.001400255, 0.00010803722, -1421243.3, -1753.1667, 0.0, 10.012623, 9.975783 
6.41608e+3, 1.651239e+2, -1333232.1, -1370203.1, 8.900174, 0.0014003664, 0.00018874258, -1333232.1, -11445.128, 0.0, 10.012611, 9.963733 
6.416078e+3, 1.7508769e+2, -1235359.0, -1272638.0, -10.353024, 0.0013971577, 0.0000844816, -1235359.0, -11217.079, 0.0, 10.012601, 9.96332 
6.4160764e+3, 1.8504481e+2, -1147379.4, -1194190.1, 5.998678, 0.0013963212, 0.00022791816, -1147379.4, -20817.383, 0.0, 10.01259, 9.950837 
6.4160746e+3, 1.9499569e+2, -1049314.8, -1096381.3, -12.311187, 0.0013977711, 0.00009352073, -1049314.8, -20271.295, 0.0, 10.01258, 9.950494 
6.416073e+3, 2.0493978e+2, -961377.3, -1018373.06, 4.817074, 0.001398152, 0.00021335286, -961377.3, -29786.05, 0.0, 10.012569, 9.9375305 
6.416071e+3, 2.1487735e+2, -863172.75, -920424.6, -15.13416, 0.001397446, 0.000017621927, -863172.7, -28969.637, 0.0, 10.01256, 9.937188 
6.416069e+3, 2.2480822e+2, -774973.4, -842282.25, 7.2983575, 0.0013966206, 0.00026239423, -774973.4, -38092.684, 0.0, 10.01255, 9.924114 
6.416068e+3, 2.3473237e+2, -676619.06, -744177.9, -12.417748, 0.0013956567, 0.000047394722, -676619.06, -36995.32, 0.0, 10.012543, 9.923781 
6.416066e+3, 2.446496e+2, -588381.44, -666355.6, 9.452136, 0.001395663, 0.00020652049, -588381.44, -45946.41, 0.0, 10.012534, 9.910306 
6.416065e+3, 2.5456002e+2, -489709.34, -567755.4, -10.407422, 0.0013967542, 0.000021730604, -489709.34, -44396.473, 0.0, 10.012525, 9.910204 
6.4160633e+3, 2.644633e+2, -401571.16, -490551.88, 12.433284, 0.001396553, 0.00026513237, -401571.16, -53310.78, 0.0, 10.012517, 9.896079 
6.416062e+3, 2.7435994e+2, -302364.94, -391015.06, -6.035034, 0.0013947769, -0.00008353368, -302364.94, -51091.516, 0.0, 10.012509, 9.896496 
6.416061e+3, 2.8424844e+2, -215785.48, -317467.03, 13.501397, 0.001394107, 0.00034574035, -215785.48, -61419.355, 0.0, 10.012503, 9.879762 
6.41606e+3, 2.9412928e+2, -116146.93, -217198.7, -5.448561, 0.0013948773, -0.00013809606, -116146.93, -58612.906, 0.0, 10.012495, 9.880556 
6.4160585e+3, 3.0403778e+2, -26965.094, -85134.64, 11.310547, 0.0013950126, 0.00028279042, -26965.092, -26965.092, 0.0, 10.012487, 9.9359045 
6.4160573e+3, 3.1397548e+2, -25945.553, -82996.234, -6.055341, 0.0013942202, 0.00004327078, -25945.55, -25945.55, 0.0, 10.01248, 9.937351 
6.426101e+3, 1.2520921e+2, -1703825.6, -1722007.9, 13.751565, 0.0014097656, 0.00021834159, -1703825.6, 9125.555, 0.0, 10.01289, 9.988784 
6.4260983e+3, 1.3519785e+2, -1606535.9, -1625302.1, -4.4091883, 0.0014061449, 0.00003932925, -1606535.9, 8526.623, 0.0, 10.012878, 9.988 
6.4260966e+3, 1.451799e+2, -1518554.4, -1546182.1, 13.53311, 0.0014057572, 0.00029959666, -1518554.4, -1316.1005, 0.0, 10.012867, 9.976263 
6.426095e+3, 1.5515615e+2, -1420915.3, -1448937.5, -5.349821, 0.0014082805, 0.00010811732, -1420915.3, -1444.094, 0.0, 10.012855, 9.975733 
6.426093e+3, 1.6512579e+2, -1332905.5, -1370091.0, 14.534343, 0.0014082892, 0.0001888442, -1332905.5, -11136.959, 0.0, 10.012844, 9.963681 
6.4260906e+3, 1.7508952e+2, -1235033.8, -1272527.6, -5.263913, 0.0014059426, 0.00008486702, -1235033.8, -10909.816, 0.0, 10.012834, 9.963267 
6.426089e+3, 1.850466e+2, -1147052.0, -1194075.0, 10.87507, 0.0014053233, 0.00022834465, -1147052.0, -20507.455, 0.0, 10.012823, 9.950789 
6.4260876e+3, 1.9499741e+2, -1048988.8, -1096267.6, -7.3750267, 0.0014063641, 0.00009375253, -1048988.8, -19962.246, 0.0, 10.012814, 9.950445 
6.426085e+3, 2.0494147e+2, -961055.94, -1018268.8, 10.003679, 0.0014065182, 0.00021349921, -961055.9, -29481.133, 0.0, 10.012804, 9.937477 
6.426084e+3, 2.1487898e+2, -862851.6, -920321.4, -10.334458, 0.0014057682, 0.000017793198, -862851.6, -28664.52, 0.0, 10.0127945, 9.937135 
6.426082e+3, 2.2480978e+2, -774653.9, -842181.56, 11.879212, 0.0014051605, 0.00026272555, -774653.9, -37788.61, 0.0, 10.012786, 9.92406 
6.4260805e+3, 2.3473391e+2, -676302.2, -744079.44, -8.348731, 0.0014046922, 0.000048030015, -676302.2, -36693.37, 0.0, 10.012777, 9.923727 
6.426079e+3, 2.4465106e+2, -588065.25, -666258.5, 13.751569, 0.0014046152, 0.00020692019, -588065.25, -45644.57, 0.0, 10.012769, 9.910252 
6.4260775e+3, 2.5456142e+2, -489392.44, -567658.8, -5.497925, 0.0014049703, 0.00002128559, -489392.44, -44093.4, 0.0, 10.012761, 9.91015 
6.426076e+3, 2.6446468e+2, -401256.28, -490459.56, 16.986029, 0.0014047158, 0.00026494384, -401256.28, -53009.188, 0.0, 10.0127535, 9.896023 
6.4260745e+3, 2.7436122e+2, -302053.16, -390925.28, -3.6337574, 0.0014037108, -0.00008213313, -302053.16, -50792.46, 0.0, 10.012746, 9.896439 
6.426074e+3, 2.842497e+2, -215471.94, -317372.7, 15.955029, 0.0014032671, 0.00034701996, -215471.94, -61117.992, 0.0, 10.012739, 9.879708 
6.426072e+3, 2.9413047e+2, -115833.45, -217104.97, -0.30612427, 0.0014035504, -0.00013917823, -115833.45, -58311.09, 0.0, 10.0127325, 9.880504 
6.4260715e+3, 3.040389e+2, -26659.95, -85056.36, 16.434607, 0.0014034424, 0.00028152342, -26659.943, -26659.943, 0.0, 10.012726, 9.9358425 
6.4260703e+3, 3.1397656e+2, -25640.002, -82918.82, -4.9638453, 0.0014027581, 0.0000449451, -25640.002, -25640.002, 0.0, 10.012719, 9.937288 
6.436113e+3, 1.252113e+2, -1703864.0, -1722086.1, 9.0006075, 0.0014149495, 0.00021834334, -1703864.0, 9066.556, 0.0, 10.012893, 9.988734 
6.4361113e+3, 1.3519989e+2, -1606574.3, -1625380.3, -9.182594, 0.0014178567, 0.00003990815, -1606574.3, 8468.1455, 0.0, 10.012881, 9.98795 
6.4361095e+3, 1.451819e+2, -1518593.6, -1546262.1, 8.672823, 0.0014176159, 0.00030013456, -1518593.6, -1374.9113, 0.0, 10.012869, 9.9762125 
6.436107e+3, 1.551581e+2, -1420953.6, -1449016.9, -10.209648, 0.0014143712, 0.00010803836, -1420953.6, -1501.5308, 0.0, 10.012857, 9.975681 
6.4361054e+3, 1.6512768e+2, -1332944.8, -1370172.8, 10.298567, 0.0014138444, 0.0001887589, -1332944.8, -11194.801, 0.0, 10.012847, 9.963629 
6.4361036e+3, 1.7509137e+2, -1235072.8, -1272608.8, -9.443385, 0.0014159034, 0.000085352156, -1235072.8, -10966.841, 0.0, 10.012836, 9.963215 
6.436102e+3, 1.8504839e+2, -1147087.0, -1194149.1, 6.739056, 0.0014161672, 0.0002288798, -1147087.0, -20560.014, 0.0, 10.012826, 9.950741 
6.4361e+3, 1.9499916e+2, -1049023.1, -1096341.1, -11.534267, 0.0014146678, 0.00009383223, -1049023.1, -20013.652, 0.0, 10.012816, 9.9503975 
6.436098e+3, 2.0494317e+2, -961094.56, -1018351.3, 6.3402114, 0.0014138337, 0.00021353745, -961094.56, -29536.389, 0.0, 10.012807, 9.937424 
6.4360964e+3, 2.1488062e+2, -862889.94, -920403.5, -13.9725485, 0.0014136652, 0.000018208528, -862889.94, -28718.844, 0.0, 10.012798, 9.937081 
6.4360946e+3, 2.2481138e+2, -774692.5, -842264.94, 8.237779, 0.0014139257, 0.0002631942, -774692.5, -37842.79, 0.0, 10.012789, 9.924005 
6.4360934e+3, 2.3473543e+2, -676340.25, -744162.3, -11.946312, 0.0014146292, 0.00004820769, -676340.25, -36746.383, 0.0, 10.01278, 9.923673 
6.4360917e+3, 2.4465252e+2, -588102.06, -666339.5, 10.688623, 0.0014141278, 0.00020701265, -588102.06, -45695.805, 0.0, 10.012772, 9.910197 
6.4360905e+3, 2.5456285e+2, -489428.72, -567739.25, -8.654528, 0.0014122593, 0.000021525842, -489428.72, -44143.6, 0.0, 10.012765, 9.910096 
6.4360887e+3, 2.6446605e+2, -401296.06, -490547.7, 13.758387, 0.0014118734, 0.00026531314, -401296.06, -53062.348, 0.0, 10.012757, 9.895964 
6.4360875e+3, 2.7436253e+2, -302092.5, -391013.25, -6.616371, 0.0014132649, -0.00008165901, -302092.5, -50844.6, 0.0, 10.01275, 9.896379 
6.436086e+3, 2.8425094e+2, -215504.2, -317446.75, 13.353031, 0.0014135179, 0.00034738507, -215504.2, -61162.5, 0.0, 10.012742, 9.879659 
6.436085e+3, 2.9413167e+2, -115864.72, -217177.52, -3.254816, 0.001412271, -0.00013920119, -115864.72, -58354.125, 0.0, 10.012735, 9.880454 
6.436084e+3, 3.0404004e+2, -26701.963, -85151.516, 13.598305, 0.0014113351, 0.0002815013, -26701.96, -26701.96, 0.0, 10.012729, 9.935777 
6.436083e+3, 3.1397763e+2, -25683.168, -83016.38, -7.3015738, 0.0014108372, 0.00004548389, -25683.168, -25683.168, 0.0, 10.012723, 9.937221 
6.4461267e+3, 1.2521341e+2, -1703526.9, -1721963.5, 14.6998205, 0.0014236091, 0.00021825929, -1703526.9, 9383.0625, 0.0, 10.013127, 9.988684 
6.4461243e+3, 1.3520195e+2, -1606241.8, -1625261.0, -3.979815, 0.0014261131, 0.000039884206, -1606241.8, 8780.496, 0.0, 10.013114, 9.9879 
6.4461225e+3, 1.4518392e+2, -1518262.9, -1546146.1, 14.343315, 0.0014258879, 0.0003003189, -1518262.9, -1063.9204, 0.0, 10.013103, 9.976161 
6.446121e+3, 1.5516005e+2, -1420621.1, -1448900.6, -4.982084, 0.0014230413, 0.00010856444, -1420621.1, -1188.2761, 0.0, 10.013093, 9.97563 
6.4461184e+3, 1.6512959e+2, -1332613.3, -1370058.5, 15.190967, 0.0014225793, 0.0001892136, -1332613.3, -10881.905, 0.0, 10.0130825, 9.963576 
6.4461166e+3, 1.7509322e+2, -1234744.3, -1272497.1, -4.4882917, 0.0014243913, 0.00008534709, -1234744.3, -10656.543, 0.0, 10.013072, 9.963163 
6.446115e+3, 1.8505019e+2, -1146756.6, -1194033.1, 12.080784, 0.0014245673, 0.00022884525, -1146756.6, -20247.26, 0.0, 10.013062, 9.950692 
6.446113e+3, 1.9500092e+2, -1048692.4, -1096225.9, -6.698614, 0.0014231325, 0.00009418532, -1048692.4, -19700.08, 0.0, 10.013053, 9.950349 
6.446111e+3, 2.0494486e+2, -960768.4, -1018245.3, 10.953782, 0.0014224387, 0.00021403201, -960768.4, -29226.895, 0.0, 10.013044, 9.937369 
6.4461094e+3, 2.1488227e+2, -862565.9, -920299.44, -9.516096, 0.001422487, 0.000018596524, -862565.9, -28410.947, 0.0, 10.013035, 9.937027 
6.4461076e+3, 2.2481295e+2, -774369.75, -842163.1, 12.871074, 0.0014226446, 0.0002633292, -774369.75, -37535.652, 0.0, 10.013026, 9.92395 
6.4461064e+3, 2.3473696e+2, -676017.94, -744061.6, -7.302863, 0.0014229061, 0.000047934187, -676017.94, -36439.16, 0.0, 10.013019, 9.923617 
6.446105e+3, 2.44654e+2, -587781.0, -666241.44, 15.136877, 0.001422473, 0.00020710386, -587781.0, -45389.33, 0.0, 10.013011, 9.910142 
6.4461035e+3, 2.5456426e+2, -489109.34, -567643.0, -5.460653, 0.0014212468, 0.000022852248, -489109.34, -43838.234, 0.0, 10.013003, 9.91004 
6.446102e+3, 2.6446742e+2, -400977.6, -490452.94, 17.036764, 0.001420935, 0.0002662539, -400977.6, -52757.3, 0.0, 10.012997, 9.895907 
6.4461005e+3, 2.7436388e+2, -301774.9, -390919.88, -1.6510135, 0.0014217154, -0.00008305912, -301774.9, -50539.887, 0.0, 10.012989, 9.896323 
6.446099e+3, 2.842522e+2, -215186.42, -317353.22, 18.154127, 0.0014217851, 0.00034618925, -215186.42, -60857.06, 0.0, 10.012982, 9.879603 
6.446098e+3, 2.941329e+2, -115548.23, -217085.52, -1.8690876, 0.0014209141, -0.00013687012, -115548.23, -58049.445, 0.0, 10.012977, 9.880399 
6.446097e+3, 3.040412e+2, -26391.76, -85069.2, 14.513055, 0.0014202332, 0.00028402408, -26391.756, -26391.756, 0.0, 10.01297, 9.935716 
6.446096e+3, 3.1397873e+2, -25373.023, -82934.664, -2.7868402, 0.0014198154, 0.000043442, -25373.023, -25373.023, 0.0, 10.012964, 9.93716 
6.4561397e+3, 1.2521555e+2, -1703567.3, -1722044.5, 9.019294, 0.0014345583, 0.0002181257, -1703567.3, 9321.809, 0.0, 10.01313, 9.988633 
6.456138e+3, 1.3520403e+2, -1606280.9, -1625341.0, -9.572438, 0.0014321371, 0.000039472485, -1606280.9, 8721.089, 0.0, 10.013117, 9.987849 
6.4561355e+3, 1.4518595e+2, -1518302.6, -1546227.8, 10.346243, 0.0014318457, 0.00030027394, -1518302.6, -1123.3969, 0.0, 10.013105, 9.976109 
6.456133e+3, 1.5516202e+2, -1420661.0, -1448982.1, -8.961158, 0.0014334265, 0.000109479304, -1420661.0, -1247.4121, 0.0, 10.013096, 9.975577 
6.4561313e+3, 1.6513151e+2, -1332652.8, -1370140.1, 10.566968, 0.0014334186, 0.00019001593, -1332652.8, -10940.321, 0.0, 10.013085, 9.963524 
6.45613e+3, 1.7509508e+2, -1234782.8, -1272577.8, -9.101178, 0.0014319383, 0.00008502707, -1234782.8, -10713.37, 0.0, 10.013075, 9.963111 
6.456128e+3, 1.85052e+2, -1146792.4, -1194109.3, 8.440476, 0.0014313936, 0.00022844531, -1146792.4, -20300.848, 0.0, 10.013065, 9.950643 
6.456126e+3, 1.9500269e+2, -1048728.0, -1096301.6, -10.307717, 0.0014317338, 0.00009471625, -1048728.0, -19752.99, 0.0, 10.013056, 9.950299 
6.456124e+3, 2.0494658e+2, -960807.6, -1018328.5, 7.194249, 0.0014319178, 0.00021482007, -960807.6, -29282.922, 0.0, 10.013047, 9.937315 
6.4561224e+3, 2.1488392e+2, -862604.44, -920382.1, -13.265407, 0.0014319373, 0.000018962064, -862604.44, -28465.781, 0.0, 10.013039, 9.936973 
6.456121e+3, 2.2481456e+2, -774408.25, -842246.3, 9.529896, 0.0014313561, 0.00026324808, -774408.25, -37589.85, 0.0, 10.01303, 9.923895 
6.4561194e+3, 2.3473851e+2, -676055.8, -744144.25, -10.665984, 0.0014301253, 0.00004738122, -676055.8, -36492.21, 0.0, 10.013021, 9.923563 
6.4561176e+3, 2.446555e+2, -587820.44, -666327.75, 12.061258, 0.0014300847, 0.00020720159, -587820.44, -45443.406, 0.0, 10.013014, 9.910084 
6.4561164e+3, 2.5456572e+2, -489148.44, -567728.94, -8.413272, 0.0014313727, 0.000024863237, -489148.44, -43891.402, 0.0, 10.013007, 9.909983 
6.4561146e+3, 2.6446882e+2, -401014.0, -490534.1, 14.146781, 0.001431268, 0.00026755052, -401014.0, -52807.25, 0.0, 10.013, 9.895853 
6.4561135e+3, 2.7436522e+2, -301810.47, -391000.16, -4.7302055, 0.0014294693, -0.00008564515, -301810.47, -50588.42, 0.0, 10.012993, 9.896269 
6.456112e+3, 2.8425348e+2, -215225.06, -317440.56, 15.399012, 0.0014287811, 0.00034400975, -215225.06, -60908.13, 0.0, 10.012986, 9.879544 
6.456111e+3, 2.9413405e+2, -115586.664, -217172.86, -4.28241, 0.0014295352, -0.00013304566, -115586.664, -58099.758, 0.0, 10.0129795, 9.88034 
6.45611e+3, 3.0404237e+2, -26427.646, -85151.43, 12.20366, 0.0014298186, 0.00028816, -26427.645, -26427.645, 0.0, 10.012974, 9.935658 
6.4561087e+3, 3.139798e+2, -25408.678, -83016.445, -5.478903, 0.0014294086, 0.00003976665, -25408.678, -25408.678, 0.0, 10.012967, 9.937103 
6.4661527e+3, 1.2521768e+2, -1703231.5, -1721923.0, 14.133517, 0.0014431485, 0.00021849468, -1703231.5, 9636.745, 0.0, 10.013365, 9.988582 
6.466151e+3, 1.3520612e+2, -1605939.6, -1625217.5, -4.3858876, 0.0014403447, 0.000039873292, -1605939.6, 9041.841, 0.0, 10.013355, 9.987798 
6.466149e+3, 1.4518797e+2, -1517963.1, -1546107.8, 15.222843, 0.0014400983, 0.00030053878, -1517963.1, -803.82806, 0.0, 10.013345, 9.976056 
6.466147e+3, 1.55164e+2, -1420328.0, -1448866.5, -4.2272987, 0.0014421176, 0.00010945005, -1420328.0, -933.8081, 0.0, 10.013332, 9.975526 
6.4661443e+3, 1.6513343e+2, -1332321.4, -1370026.5, 15.879972, 0.001442141, 0.00019004648, -1332321.4, -10627.728, 0.0, 10.013322, 9.963471 
6.466143e+3, 1.7509696e+2, -1234448.4, -1272463.5, -4.165661, 0.0014403082, 0.000085451116, -1234448.4, -10397.321, 0.0, 10.013314, 9.9630575 
6.4661413e+3, 1.8505384e+2, -1146455.1, -1193990.5, 13.098226, 0.0014397533, 0.00022890753, -1146455.1, -19981.457, 0.0, 10.013305, 9.950593 
6.466139e+3, 1.9500445e+2, -1048394.2, -1096185.5, -5.7275133, 0.0014404155, 0.00009487243, -1048394.2, -19436.625, 0.0, 10.013295, 9.95025 
6.466137e+3, 2.049483e+2, -960479.3, -1018222.0, 11.986674, 0.0014406388, 0.00021483033, -960479.3, -28971.502, 0.0, 10.013287, 9.937261 
6.466136e+3, 2.1488559e+2, -862276.3, -920276.6, -8.749561, 0.0014404126, 0.000018987992, -862276.3, -28154.01, 0.0, 10.013278, 9.936918 
6.466134e+3, 2.2481617e+2, -774080.8, -842143.06, 13.980753, 0.0014398322, 0.00026354293, -774080.8, -37278.207, 0.0, 10.013271, 9.92384 
6.4661324e+3, 2.3474006e+2, -675729.06, -744042.25, -6.793387, 0.0014388628, 0.000048213336, -675729.06, -36180.695, 0.0, 10.013264, 9.923507 
6.4661306e+3, 2.4465701e+2, -587495.0, -666227.9, 15.869604, 0.0014388387, 0.0002076729, -587495.0, -45132.67, 0.0, 10.013256, 9.910028 
6.4661294e+3, 2.5456715e+2, -488825.4, -567631.2, -4.05251, 0.0014398682, 0.00002396379, -488825.4, -43582.504, 0.0, 10.013248, 9.909926 
6.4661276e+3, 2.644702e+2, -400692.34, -490439.2, 18.499382, 0.0014397369, 0.00026702852, -400692.34, -52499.18, 0.0, 10.013242, 9.895796 
6.4661264e+3, 2.7436653e+2, -301488.5, -390906.1, -2.2683072, 0.0014381899, -0.00008368145, -301488.5, -50279.496, 0.0, 10.013236, 9.896212 
6.466125e+3, 2.8425473e+2, -214901.7, -317344.28, 17.615408, 0.0014376099, 0.00034575554, -214901.7, -60597.26, 0.0, 10.01323, 9.879489 
6.466124e+3, 2.9413527e+2, -115265.516, -217078.48, 0.12288771, 0.001438285, -0.00013504871, -115265.516, -57790.53, 0.0, 10.013224, 9.880284 
6.466123e+3, 3.0404353e+2, -26114.594, -85069.71, 16.595825, 0.0014384736, 0.00028602406, -26114.588, -26114.588, 0.0, 10.013218, 9.935596 
6.4661217e+3, 3.139809e+2, -25095.574, -82935.484, -4.597676, 0.0014379473, 0.000042670013, -25095.574, -25095.574, 0.0, 10.013212, 9.93704 
6.476166e+3, 1.2521982e+2, -1703270.8, -1722003.0, 10.327078, 0.0014502291, 0.0002191818, -1703270.8, 9576.418, 0.0, 10.013368, 9.988531 
6.476164e+3, 1.352082e+2, -1605979.5, -1625297.6, -8.233801, 0.0014500064, 0.00004079622, -1605979.5, 8981.434, 0.0, 10.013358, 9.987747 
6.476162e+3, 1.4519002e+2, -1518004.1, -1546190.6, 9.9325, 0.0014498752, 0.0003010036, -1518004.1, -864.925, 0.0, 10.013348, 9.976004 
6.47616e+3, 1.5516599e+2, -1420367.5, -1448948.3, -9.448324, 0.0014497269, 0.00010881233, -1420367.5, -992.92505, 0.0, 10.013335, 9.975473 
6.4761585e+3, 1.6513537e+2, -1332361.1, -1370109.3, 12.460647, 0.0014495075, 0.00018957962, -1332361.1, -10686.475, 0.0, 10.013325, 9.963418 
6.476156e+3, 1.7509885e+2, -1234488.3, -1272546.0, -7.5815134, 0.0014492467, 0.00008635462, -1234488.3, -10455.64, 0.0, 10.013317, 9.963005 
6.4761543e+3, 1.8505566e+2, -1146491.8, -1194067.0, 8.971243, 0.0014491443, 0.00022992444, -1146491.8, -20036.027, 0.0, 10.013308, 9.950543 
6.4761525e+3, 1.9500624e+2, -1048429.9, -1096261.5, -9.83235, 0.0014491724, 0.00009478456, -1048429.9, -19489.814, 0.0, 10.013298, 9.9502 
6.476151e+3, 2.0495003e+2, -960518.9, -1018306.2, 8.607595, 0.0014488881, 0.00021433934, -960518.9, -29027.996, 0.0, 10.013289, 9.937205 
6.476149e+3, 2.1488726e+2, -862315.4, -920360.25, -12.130812, 0.0014482824, 0.00001880153, -862315.4, -28209.479, 0.0, 10.013282, 9.936863 
6.476147e+3, 2.248178e+2, -774120.6, -842228.7, 10.912582, 0.0014481865, 0.0002640838, -774120.6, -37333.926, 0.0, 10.013274, 9.923783 
6.4761454e+3, 2.3474164e+2, -675768.5, -744127.5, -9.8085985, 0.0014486166, 0.00004992901, -675768.5, -36235.508, 0.0, 10.013267, 9.92345 
6.476144e+3, 2.4465853e+2, -587533.44, -666311.75, 12.644253, 0.0014483624, 0.00020837801, -587533.44, -45185.887, 0.0, 10.013259, 9.909972 
6.4761424e+3, 2.545686e+2, -488862.84, -567714.3, -7.3474464, 0.0014473278, 0.000021200962, -488862.84, -43634.19, 0.0, 10.013252, 9.90987 
6.476141e+3, 2.644716e+2, -400732.28, -490527.94, 16.04914, 0.001447019, 0.0002653472, -400732.28, -52552.785, 0.0, 10.013246, 9.895736 
6.4761394e+3, 2.7436787e+2, -301528.38, -390994.78, -4.548386, 0.0014475707, -0.00007879617, -301528.38, -50332.51, 0.0, 10.01324, 9.896152 
6.476139e+3, 2.84256e+2, -214936.6, -317423.2, 14.947612, 0.001447663, 0.0003500181, -214936.6, -60644.72, 0.0, 10.013233, 9.879436 
6.476137e+3, 2.941365e+2, -115299.23, -217156.0, -2.7365198, 0.0014471443, -0.00014079573, -115299.22, -57836.23, 0.0, 10.0132265, 9.880231 
6.4761364e+3, 3.0404466e+2, -26156.375, -85164.625, 14.076375, 0.001446547, 0.00027986304, -26156.371, -26156.371, 0.0, 10.013221, 9.935531 
6.4761347e+3, 3.1398204e+2, -25138.137, -83032.23, -6.868054, 0.0014458271, 0.000049804206, -25138.135, -25138.135, 0.0, 10.013215, 9.936973 
6.48618e+3, 1.2522198e+2, -1702924.0, -1721876.5, 15.2840395, 0.0014579339, 0.00021920605, -1702924.0, 9902.011, 0.0, 10.013609, 9.98848 
6.4861774e+3, 1.352103e+2, -1605641.9, -1625176.8, -3.7114387, 0.0014591248, 0.00004100194, -1605641.9, 9298.448, 0.0, 10.013595, 9.987696 
6.4861757e+3, 1.4519206e+2, -1517668.1, -1546072.6, 15.114364, 0.0014590529, 0.00030124962, -1517668.1, -549.0925, 0.0, 10.013584, 9.975951 
6.486173e+3, 1.55168e+2, -1420025.6, -1448828.1, -4.3407097, 0.0014577113, 0.00010896474, -1420025.6, -670.653, 0.0, 10.0135765, 9.975421 
6.4861715e+3, 1.6513734e+2, -1332020.0, -1369991.8, 17.258839, 0.0014574, 0.00018970939, -1332020.0, -10364.461, 0.0, 10.013568, 9.963364 
6.4861697e+3, 1.7510074e+2, -1234153.1, -1272432.4, -3.1162384, 0.0014580834, 0.000086529835, -1234153.1, -10139.077, 0.0, 10.0135565, 9.962951 
6.486168e+3, 1.850575e+2, -1146154.9, -1193948.8, 13.747497, 0.0014581563, 0.00023008081, -1146154.9, -19717.22, 0.0, 10.013548, 9.950494 
6.486166e+3, 1.9500802e+2, -1048091.2, -1096143.3, -5.2216625, 0.0014576145, 0.00009485928, -1048091.2, -19168.732, 0.0, 10.01354, 9.9501505 
6.4861643e+3, 2.0495176e+2, -960184.2, -1018197.4, 13.127958, 0.0014571579, 0.00021454356, -960184.2, -28710.383, 0.0, 10.013534, 9.93715 
6.4861625e+3, 2.1488896e+2, -861982.2, -920253.2, -8.002475, 0.00145678, 0.000019348408, -861982.2, -27892.863, 0.0, 10.013525, 9.936808 
6.486161e+3, 2.2481942e+2, -773789.44, -842124.2, 14.981624, 0.001456855, 0.00026441246, -773789.44, -37018.754, 0.0, 10.013517, 9.923727 
6.486159e+3, 2.3474321e+2, -675439.94, -744025.2, -5.726491, 0.001457396, 0.00004944626, -675439.94, -35922.344, 0.0, 10.01351, 9.923394 
6.486158e+3, 2.4466003e+2, -587205.4, -666211.44, 16.857212, 0.0014570693, 0.00020817705, -587205.4, -44872.703, 0.0, 10.013503, 9.909915 
6.486156e+3, 2.5457007e+2, -488533.03, -567614.06, -3.9826396, 0.0014557564, 0.00002250893, -488533.03, -43318.69, 0.0, 10.013498, 9.909814 
6.486155e+3, 2.64473e+2, -400403.84, -490430.7, 19.074085, 0.0014554603, 0.00026639673, -400403.84, -52238.098, 0.0, 10.013493, 9.895678 
6.4861536e+3, 2.743692e+2, -301204.3, -390900.72, -0.8984209, 0.0014563758, -0.00008013102, -301204.3, -50021.598, 0.0, 10.013485, 9.896093 
6.486152e+3, 2.8425732e+2, -214611.81, -317326.53, 18.738247, 0.0014565445, 0.0003488102, -214611.81, -60332.54, 0.0, 10.013479, 9.879379 
6.4861506e+3, 2.9413775e+2, -114973.305, -217059.53, -0.56079155, 0.0014557262, -0.0001386068, -114973.305, -57522.4, 0.0, 10.013474, 9.880176 
6.4861494e+3, 3.0404583e+2, -25837.258, -85081.664, 15.876322, 0.0014550244, 0.00028221606, -25837.254, -25837.254, 0.0, 10.01347, 9.935468 
6.486148e+3, 3.139831e+2, -24818.27, -82949.83, -3.7686253, 0.0014544793, 0.00004772374, -24818.27, -24818.27, 0.0, 10.013465, 9.936909 
6.4961934e+3, 1.2522416e+2, -1702965.6, -1721959.1, 9.493032, 0.0014660947, 0.00021881112, -1702965.6, 9839.079, 0.0, 10.013611, 9.988428 
6.4961916e+3, 1.3521244e+2, -1605681.9, -1625258.4, -9.40011, 0.0014678965, 0.000040746123, -1605681.9, 9237.713, 0.0, 10.0135975, 9.987644 
6.496189e+3, 1.4519414e+2, -1517708.3, -1546155.1, 11.828832, 0.001467846, 0.000301352, -1517708.3, -609.4783, 0.0, 10.013587, 9.975899 
6.496187e+3, 1.5517001e+2, -1420066.3, -1448910.6, -7.663365, 0.0014659825, 0.00010962402, -1420066.3, -730.9436, 0.0, 10.013579, 9.975368 
6.496185e+3, 1.6513929e+2, -1332061.5, -1370076.4, 12.634443, 0.0014656808, 0.00019022268, -1332061.5, -10425.202, 0.0, 10.01357, 9.96331 
6.496183e+3, 1.7510265e+2, -1234193.4, -1272516.1, -7.6694827, 0.0014668711, 0.00008623705, -1234193.4, -10198.012, 0.0, 10.01356, 9.962897 
6.496181e+3, 1.8505935e+2, -1146191.3, -1194025.8, 10.568424, 0.0014669346, 0.00022968515, -1146191.3, -19771.707, 0.0, 10.013551, 9.950444 
6.4961797e+3, 1.9500984e+2, -1048127.4, -1096219.8, -8.412345, 0.0014658849, 0.000095041134, -1048127.4, -19222.557, 0.0, 10.013543, 9.9501 
6.496178e+3, 2.0495352e+2, -960224.94, -1018283.4, 9.766399, 0.0014654793, 0.0002151944, -960224.94, -28768.326, 0.0, 10.0135355, 9.937094 
6.4961755e+3, 2.1489066e+2, -862022.4, -920338.6, -11.329987, 0.0014657141, 0.000020358817, -862022.4, -27949.666, 0.0, 10.013528, 9.936751 
6.4961743e+3, 2.2482106e+2, -773829.25, -842209.6, 11.681662, 0.0014657514, 0.0002646015, -773829.25, -37074.574, 0.0, 10.01352, 9.923671 
6.496173e+3, 2.347448e+2, -675478.8, -744109.94, -9.033381, 0.0014655662, 0.000047564765, -675478.8, -35976.742, 0.0, 10.013514, 9.923338 
6.496171e+3, 2.4466155e+2, -587245.3, -666298.7, 14.529401, 0.0014652734, 0.00020740442, -587245.3, -44927.574, 0.0, 10.013507, 9.909858 
6.4961696e+3, 2.5457153e+2, -488572.9, -567701.06, -6.254311, 0.0014648486, 0.000026416003, -488572.9, -43372.973, 0.0, 10.013501, 9.909756 
6.496168e+3, 2.644744e+2, -400443.06, -490517.0, 16.021332, 0.001464688, 0.00026918494, -400443.03, -52291.152, 0.0, 10.013495, 9.89562 
6.4961666e+3, 2.7437055e+2, -301242.38, -390986.2, -3.9854329, 0.0014648301, -0.00008544413, -301242.38, -50072.895, 0.0, 10.013488, 9.896035 
6.4961654e+3, 2.842586e+2, -214649.22, -317411.5, 16.680426, 0.0014646866, 0.0003441102, -214649.22, -60382.6, 0.0, 10.013482, 9.879322 
6.496164e+3, 2.94139e+2, -115010.445, -217144.08, -2.5461535, 0.0014641596, -0.00013133309, -115010.445, -57571.71, 0.0, 10.013477, 9.880118 
6.496163e+3, 3.0404702e+2, -25877.252, -85172.086, 13.862053, 0.0014637994, 0.00029001787, -25877.248, -25877.248, 0.0, 10.013473, 9.935405 
6.496162e+3, 3.1398422e+2, -24858.697, -83040.98, -5.726886, 0.0014636633, 0.00003973366, -24858.697, -24858.697, 0.0, 10.013468, 9.936846 
6.506207e+3, 1.2522633e+2, -1702623.9, -1721835.6, 14.5389, 0.0014757207, 0.00021914949, -1702623.9, 10159.516, 0.0, 10.013849, 9.988377 
6.506205e+3, 1.3521455e+2, -1605332.5, -1625131.8, -4.34466, 0.001475376, 0.00004077598, -1605332.5, 9566.164, 0.0, 10.013842, 9.987593 
6.506203e+3, 1.4519621e+2, -1517360.5, -1546032.0, 16.595076, 0.0014752223, 0.00030134144, -1517360.5, -281.99167, 0.0, 10.013832, 9.975845 
6.5062004e+3, 1.5517202e+2, -1419726.3, -1448792.5, -3.3973107, 0.0014751329, 0.00010981613, -1419726.3, -410.8857, 0.0, 10.013821, 9.975314 
6.5061986e+3, 1.6514125e+2, -1331723.3, -1369960.6, 17.274603, 0.0014750483, 0.00019046332, -1331723.3, -10106.298, 0.0, 10.013811, 9.963256 
6.506197e+3, 1.7510457e+2, -1233851.0, -1272399.1, -3.0096338, 0.0014749962, 0.00008638227, -1233851.0, -9874.517, 0.0, 10.013804, 9.962843 
6.506195e+3, 1.8506122e+2, -1145845.5, -1193903.9, 15.164725, 0.0014748148, 0.000229823, -1145845.5, -19444.31, 0.0, 10.013797, 9.950394 
6.506193e+3, 1.9501165e+2, -1047785.25, -1096100.8, -4.2391562, 0.0014744832, 0.00009525671, -1047785.25, -18898.238, 0.0, 10.013788, 9.950049 
6.5061915e+3, 2.049553e+2, -959888.9, -1018174.5, 13.952144, 0.0014743773, 0.00021533718, -959888.9, -28449.51, 0.0, 10.013781, 9.937037 
6.50619e+3, 2.1489236e+2, -861687.2, -920231.06, -7.261347, 0.0014744916, 0.000020277743, -861687.2, -27631.125, 0.0, 10.013774, 9.936695 
6.506188e+3, 2.2482271e+2, -773493.9, -842103.6, 15.839762, 0.001474288, 0.00026470807, -773493.9, -36755.375, 0.0, 10.013767, 9.923614 
6.506186e+3, 2.3474638e+2, -675142.4, -744004.3, -5.297173, 0.0014737336, 0.000048293707, -675142.4, -35655.895, 0.0, 10.0137615, 9.923282 
6.5061843e+3, 2.446631e+2, -586911.0, -666196.5, 17.976088, 0.0014736067, 0.00020790631, -586911.0, -44608.273, 0.0, 10.013756, 9.9098 
6.506183e+3, 2.5457302e+2, -488243.38, -567602.25, -2.9749157, 0.0014739478, 0.00002573836, -488243.38, -43057.895, 0.0, 10.013748, 9.909698 
6.5061814e+3, 2.644758e+2, -400114.16, -490419.28, 19.526062, 0.0014738246, 0.00026868837, -400114.16, -51976.133, 0.0, 10.013742, 9.895562 
6.50618e+3, 2.7437192e+2, -300910.63, -390887.97, -0.80880255, 0.0014731273, -0.000084122854, -300910.63, -49754.465, 0.0, 10.013739, 9.895978 
6.506179e+3, 2.842599e+2, -214316.6, -317313.53, 19.497139, 0.0014727766, 0.0003454153, -214316.6, -60062.73, 0.0, 10.013734, 9.879264 
6.506178e+3, 2.9414022e+2, -114681.42, -217048.86, -0.106179714, 0.0014728672, -0.00013243458, -114681.42, -57254.85, 0.0, 10.013728, 9.88006 
6.5061766e+3, 3.040482e+2, -25555.701, -85086.36, 16.210285, 0.0014728071, 0.00028868433, -25555.697, -25555.697, 0.0, 10.013723, 9.935343 
6.5061754e+3, 3.1398535e+2, -24537.805, -82956.055, -3.3322346, 0.0014725152, 0.00004127742, -24537.805, -24537.805, 0.0, 10.013718, 9.936783 
6.516221e+3, 1.2522852e+2, -1702664.4, -1721917.6, 11.112806, 0.0014862593, 0.00021994249, -1702664.4, 10097.462, 0.0, 10.013852, 9.988324 
6.516219e+3, 1.352167e+2, -1605373.5, -1625213.8, -7.8024626, 0.0014820965, 0.00004098856, -1605373.5, 9504.184, 0.0, 10.0138445, 9.98754 
6.516217e+3, 1.451983e+2, -1517403.0, -1546117.3, 11.589996, 0.0014817665, 0.00030126327, -1517403.0, -344.97995, 0.0, 10.013835, 9.975791 
6.5162146e+3, 1.5517406e+2, -1419767.5, -1448876.9, -8.303482, 0.0014848469, 0.000109709574, -1419767.5, -471.98053, 0.0, 10.0138235, 9.975261 
6.516212e+3, 1.6514324e+2, -1331763.9, -1370044.6, 14.197019, 0.0014851028, 0.00019052727, -1331763.9, -10166.326, 0.0, 10.013814, 9.9632015 
6.5162104e+3, 1.751065e+2, -1233891.6, -1272482.9, -6.1109867, 0.0014827391, 0.00008680482, -1233891.6, -9933.977, 0.0, 10.013807, 9.962789 
6.516209e+3, 1.850631e+2, -1145883.5, -1193983.0, 11.429421, 0.0014821735, 0.00023029995, -1145883.5, -19500.662, 0.0, 10.0138, 9.950342 
6.516207e+3, 1.9501348e+2, -1047822.44, -1096179.1, -7.9219923, 0.0014833171, 0.00009549345, -1047822.44, -18953.275, 0.0, 10.013791, 9.949999 
6.516205e+3, 2.0495705e+2, -959929.6, -1018260.7, 10.8444, 0.0014836597, 0.00021515752, -959929.6, -28507.58, 0.0, 10.013783, 9.936981 
6.516204e+3, 2.1489407e+2, -861727.3, -920316.75, -10.370809, 0.0014831907, 0.00001950513, -861727.3, -27688.031, 0.0, 10.013777, 9.936639 
6.5162015e+3, 2.2482437e+2, -773534.56, -842190.8, 13.275052, 0.0014826249, 0.00026476328, -773534.56, -36812.27, 0.0, 10.01377, 9.923556 
6.5162003e+3, 2.3474799e+2, -675182.75, -744091.06, -7.855053, 0.001481942, 0.00005067818, -675182.75, -35711.94, 0.0, 10.013764, 9.923224 
6.5161985e+3, 2.4466464e+2, -586951.6, -666284.5, 14.837064, 0.0014820602, 0.00020921457, -586951.6, -44664.023, 0.0, 10.013759, 9.909741 
6.516197e+3, 2.545745e+2, -488283.0, -567689.56, -6.0601487, 0.0014830644, 0.000022148646, -488283.0, -43112.008, 0.0, 10.013751, 9.909639 
6.5161955e+3, 2.6447722e+2, -400153.47, -490506.63, 17.686354, 0.0014829152, 0.00026610962, -400153.47, -52029.367, 0.0, 10.013746, 9.895503 
6.5161943e+3, 2.743733e+2, -300949.8, -390975.0, -2.7042806, 0.0014813634, -0.00007857925, -300949.8, -49807.07, 0.0, 10.0137415, 9.895919 
6.516193e+3, 2.842612e+2, -214355.44, -317400.28, 16.955784, 0.0014808807, 0.00035053684, -214355.42, -60114.406, 0.0, 10.013737, 9.879206 
6.5161914e+3, 2.9414147e+2, -114719.41, -217134.86, -2.46954, 0.0014817797, -0.00013887376, -114719.41, -57305.016, 0.0, 10.013731, 9.880002 
6.51619e+3, 3.0404937e+2, -25595.297, -85176.43, 14.161851, 0.0014819835, 0.00028153765, -25595.293, -25595.293, 0.0, 10.013726, 9.93528 
6.516189e+3, 3.1398648e+2, -24577.363, -83046.516, -5.650301, 0.0014811765, 0.000048908834, -24577.361, -24577.361, 0.0, 10.013721, 9.93672 
6.526235e+3, 1.2523073e+2, -1702310.9, -1721788.5, 15.653876, 0.0014933315, 0.00021973898, -1702310.9, 10429.465, 0.0, 10.014098, 9.988272 
6.526233e+3, 1.3521886e+2, -1605027.6, -1625089.6, -3.6256433, 0.0014916182, 0.00004116358, -1605027.6, 9828.985, 0.0, 10.014087, 9.987488 
6.5262306e+3, 1.4520039e+2, -1517059.0, -1545996.5, 16.052479, 0.0014914555, 0.00030154138, -1517058.9, -21.471298, 0.0, 10.014077, 9.975738 
6.526229e+3, 1.551761e+2, -1419418.6, -1448754.4, -3.7407916, 0.0014926043, 0.00010983374, -1419418.6, -143.15782, 0.0, 10.0140705, 9.975206 
6.5262264e+3, 1.6514522e+2, -1331415.8, -1369924.6, 18.78855, 0.0014925963, 0.00019056351, -1331415.8, -9837.629, 0.0, 10.014062, 9.963147 
6.5262246e+3, 1.7510843e+2, -1233548.3, -1272366.3, -2.077817, 0.0014915314, 0.000086816166, -1233548.3, -9609.582, 0.0, 10.014053, 9.962734 
6.526223e+3, 1.8506497e+2, -1145538.4, -1193861.6, 15.539672, 0.0014912818, 0.00023039164, -1145538.4, -19173.887, 0.0, 10.014046, 9.950292 
6.5262204e+3, 1.9501531e+2, -1047476.25, -1096058.3, -3.7800782, 0.001491794, 0.00009576659, -1047476.25, -18624.982, 0.0, 10.014039, 9.949947 
6.526219e+3, 2.0495883e+2, -959587.44, -1018149.4, 15.080884, 0.0014918775, 0.0002154418, -959587.44, -28182.771, 0.0, 10.014033, 9.936925 
6.5262175e+3, 2.1489578e+2, -861385.8, -920206.75, -6.5317397, 0.0014915223, 0.000019630073, -861385.8, -27363.393, 0.0, 10.014027, 9.936583 
6.5262157e+3, 2.2482604e+2, -773195.2, -842083.9, 16.90457, 0.0014912352, 0.00026479072, -773195.2, -36489.164, 0.0, 10.01402, 9.923498 
6.526214e+3, 2.3474959e+2, -674846.4, -743986.7, -4.603804, 0.0014910047, 0.000050673872, -674846.4, -35391.285, 0.0, 10.014014, 9.923166 
6.5262127e+3, 2.4466619e+2, -586615.25, -666181.0, 18.235851, 0.0014909599, 0.00020934708, -586615.25, -44342.777, 0.0, 10.0140085, 9.909683 
6.526211e+3, 2.5457597e+2, -487944.34, -567585.9, -2.5101707, 0.0014911114, 0.000022605607, -487944.34, -42787.945, 0.0, 10.014005, 9.909581 
6.52621e+3, 2.6447865e+2, -399816.97, -490407.8, 20.905048, 0.001490931, 0.00026647828, -399816.97, -51706.895, 0.0, 10.013999, 9.895443 
6.526208e+3, 2.7437466e+2, -300618.0, -390879.63, -0.72003335, 0.0014903351, -0.00007879163, -300618.0, -49488.64, 0.0, 10.013993, 9.895859 
6.526207e+3, 2.842625e+2, -214021.89, -317299.78, 18.983011, 0.0014901467, 0.0003503224, -214021.88, -59793.69, 0.0, 10.0139885, 9.879149 
6.5262055e+3, 2.9414272e+2, -114385.01, -217034.6, 0.84952074, 0.0014904779, -0.00013834274, -114385.01, -56982.906, 0.0, 10.013985, 9.879946 
6.5262043e+3, 3.0405056e+2, -25269.002, -85092.86, 17.415663, 0.0014903484, 0.00028221303, -25268.998, -25268.998, 0.0, 10.013982, 9.935214 
6.526203e+3, 3.139876e+2, -24249.174, -82963.2, -4.9635177, 0.0014895459, 0.000048887992, -24249.174, -24249.174, 0.0, 10.013978, 9.936653 
6.536249e+3, 1.2523293e+2, -1702353.1, -1721872.5, 10.68231, 0.0014983026, 0.0002189158, -1702353.1, 10365.502, 0.0, 10.0141, 9.988219 
6.536247e+3, 1.35221e+2, -1605068.9, -1625172.9, -8.541726, 0.0015028921, 0.00004131039, -1605068.9, 9766.588, 0.0, 10.01409, 9.987435 
6.536245e+3, 1.452025e+2, -1517100.5, -1546080.9, 12.771523, 0.001503105, 0.00030203717, -1517100.5, -83.691986, 0.0, 10.01408, 9.975684 
6.536243e+3, 1.5517816e+2, -1419460.1, -1448838.5, -7.06114, 0.001499181, 0.00011010383, -1419460.1, -204.82397, 0.0, 10.014072, 9.975153 
6.5362406e+3, 1.6514722e+2, -1331458.5, -1370011.5, 14.78444, 0.001498541, 0.00019058469, -1331458.5, -9899.969, 0.0, 10.014065, 9.963092 
6.536239e+3, 1.7511037e+2, -1233590.1, -1272452.3, -5.9756417, 0.0015010028, 0.00008656743, -1233590.1, -9670.405, 0.0, 10.014056, 9.962679 
6.536237e+3, 1.8506686e+2, -1145575.9, -1193940.3, 12.59931, 0.0015014991, 0.00023023822, -1145575.9, -19229.94, 0.0, 10.014049, 9.95024 
6.5362346e+3, 1.9501713e+2, -1047513.4, -1096136.5, -6.767657, 0.0015000751, 0.0000960605, -1047513.4, -18680.123, 0.0, 10.014042, 9.949897 
6.536233e+3, 2.0496061e+2, -959629.3, -1018237.4, 12.169529, 0.0014994636, 0.00021601755, -959629.3, -28242.15, 0.0, 10.014035, 9.936868 
6.5362316e+3, 2.1489753e+2, -861427.1, -920294.2, -9.392274, 0.0014996588, 0.00002032189, -861427.1, -27421.63, 0.0, 10.0140295, 9.936525 
6.536229e+3, 2.2482769e+2, -773236.75, -842172.6, 14.0123, 0.0015000466, 0.00026480068, -773236.75, -36547.1, 0.0, 10.014023, 9.92344 
6.536228e+3, 2.3475121e+2, -674887.1, -744074.75, -7.460517, 0.001500622, 0.00004915935, -674887.1, -35447.84, 0.0, 10.014017, 9.923108 
6.536226e+3, 2.4466774e+2, -586655.25, -666268.1, 16.170895, 0.0015001608, 0.00020873753, -586655.25, -44398.008, 0.0, 10.014011, 9.909625 
6.536225e+3, 2.545775e+2, -487984.06, -567672.56, -4.659967, 0.0014985267, 0.000025624364, -487984.06, -42842.355, 0.0, 10.014008, 9.909523 
6.536223e+3, 2.644801e+2, -399859.38, -490500.47, 18.247717, 0.0014983147, 0.0002687105, -399859.38, -51763.367, 0.0, 10.014002, 9.895381 
6.536222e+3, 2.7437603e+2, -300659.63, -390971.84, -3.1357532, 0.0014997942, -0.00008265247, -300659.63, -49543.72, 0.0, 10.013997, 9.895797 
6.536221e+3, 2.8426382e+2, -214057.84, -317381.2, 17.278185, 0.0015001604, 0.00034673078, -214057.84, -59842.504, 0.0, 10.013991, 9.879094 
6.536219e+3, 2.94144e+2, -114420.055, -217114.7, -1.1840861, 0.0014990647, -0.00013338537, -114420.055, -57030.355, 0.0, 10.013988, 9.879891 
6.5362185e+3, 3.040518e+2, -25313.451, -85192.58, 15.712377, 0.0014982347, 0.00028784946, -25313.447, -25313.447, 0.0, 10.013985, 9.935145 
6.536217e+3, 3.1398875e+2, -24294.912, -83065.13, -6.1042976, 0.0014977745, 0.000043999018, -24294.912, -24294.912, 0.0, 10.013981, 9.936583 
6.546263e+3, 1.2523516e+2, -1702000.9, -1721745.0, 15.302951, 0.0015077671, 0.00021907901, -1702000.9, 10695.914, 0.0, 10.014346, 9.988166 
6.5462613e+3, 1.3522318e+2, -1604714.0, -1625044.8, -4.1657867, 0.0015102878, 0.00004129107, -1604714.0, 10100.242, 0.0, 10.014338, 9.987382 
6.546259e+3, 1.4520462e+2, -1516747.4, -1545956.3, 17.213223, 0.0015104156, 0.00030202573, -1516747.4, 248.66542, 0.0, 10.014329, 9.975629 
6.5462565e+3, 1.5518022e+2, -1419111.6, -1448717.3, -3.2206223, 0.0015082206, 0.00011027045, -1419111.6, 123.533066, 0.0, 10.014319, 9.975099 
6.546255e+3, 1.6514923e+2, -1331111.0, -1369891.9, 18.745663, 0.001507838, 0.00019076731, -1331111.0, -9572.161, 0.0, 10.014312, 9.963037 
6.546253e+3, 1.7511232e+2, -1233241.0, -1272332.8, -1.7654911, 0.0015091837, 0.00008661596, -1233241.0, -9340.446, 0.0, 10.014306, 9.962624 
6.546251e+3, 1.8506877e+2, -1145224.1, -1193816.9, 16.98058, 0.0015094292, 0.0002302405, -1145224.1, -18896.758, 0.0, 10.014299, 9.950189 
6.546249e+3, 1.9501898e+2, -1047163.4, -1096014.9, -3.0731225, 0.0015085862, 0.000096100426, -1047163.4, -18348.25, 0.0, 10.014293, 9.949844 
6.546247e+3, 2.049624e+2, -959284.3, -1018125.06, 15.725563, 0.0015082457, 0.00021612848, -959284.3, -27914.697, 0.0, 10.014287, 9.9368105 
6.546246e+3, 2.1489924e+2, -861083.1, -920183.3, -5.8649178, 0.0015084017, 0.000020538175, -861083.1, -27094.637, 0.0, 10.014281, 9.936468 
6.5462434e+3, 2.2482938e+2, -772893.4, -842064.25, 17.662985, 0.0015085965, 0.00026494885, -772893.4, -36220.176, 0.0, 10.0142765, 9.923382 
6.546242e+3, 2.3475282e+2, -674543.3, -743967.1, -3.9314928, 0.0015088161, 0.00004905614, -674543.3, -35119.85, 0.0, 10.014272, 9.92305 
6.5462404e+3, 2.446693e+2, -586313.2, -666163.8, 19.285545, 0.001508483, 0.00020874532, -586313.2, -44071.21, 0.0, 10.014266, 9.909566 
6.5462387e+3, 2.5457898e+2, -487645.38, -567570.94, -2.69968, 0.0015075172, 0.000026149317, -487645.38, -42518.348, 0.0, 10.014261, 9.909464 
6.5462375e+3, 2.6448154e+2, -399521.03, -490399.1, 20.393173, 0.0015073899, 0.00026913628, -399521.03, -51439.137, 0.0, 10.0142565, 9.895322 
6.546236e+3, 2.743774e+2, -300320.53, -390871.03, 0.5486952, 0.0015082536, -0.000083065555, -300320.53, -49218.152, 0.0, 10.014253, 9.895738 
6.546235e+3, 2.8426516e+2, -213718.78, -317282.2, 20.887304, 0.0015083426, 0.0003463907, -213718.78, -59516.387, 0.0, 10.014249, 9.879035 
6.546233e+3, 2.9414526e+2, -114082.414, -217017.47, -0.6504848, 0.00150741, -0.00013246831, -114082.414, -56705.074, 0.0, 10.014245, 9.879831 
6.5462327e+3, 3.0405298e+2, -24981.998, -85103.375, 15.794309, 0.0015069126, 0.00028876765, -24981.994, -24981.994, 0.0, 10.014242, 9.9350815 
6.546231e+3, 3.1398988e+2, -23965.27, -82977.2, -2.6508355, 0.0015070223, 0.000043142525, -23965.27, -23965.27, 0.0, 10.014237, 9.936519 
6.556278e+3, 1.2523739e+2, -1702043.8, -1721830.0, 11.36199, 0.0015200103, 0.00021984946, -1702043.8, 10631.215, 0.0, 10.014348, 9.988112 
6.5562755e+3, 1.3522536e+2, -1604756.3, -1625129.4, -8.06625, 0.0015153311, 0.000041172992, -1604756.3, 10036.623, 0.0, 10.014339, 9.987329 
6.5562737e+3, 1.4520673e+2, -1516790.9, -1546043.5, 13.126691, 0.0015150945, 0.00030170233, -1516790.9, 184.44492, 0.0, 10.014331, 9.975574 
6.556271e+3, 1.551823e+2, -1419154.4, -1448803.9, -7.2240143, 0.0015188023, 0.00011036395, -1419154.4, 60.510174, 0.0, 10.014322, 9.975043 
6.556269e+3, 1.6515124e+2, -1331152.9, -1369977.4, 15.636889, 0.0015192208, 0.00019104248, -1331152.9, -9633.8, 0.0, 10.014315, 9.962982 
6.556267e+3, 1.7511427e+2, -1233282.6, -1272417.8, -4.933758, 0.0015165973, 0.00008685465, -1233282.6, -9401.2295, 0.0, 10.014308, 9.962569 
6.5562654e+3, 1.8507068e+2, -1145263.8, -1193898.9, 13.8999, 0.0015159821, 0.00023034593, -1145263.8, -18955.145, 0.0, 10.014301, 9.950135 
6.556263e+3, 1.9502084e+2, -1047202.3, -1096096.3, -6.0092998, 0.0015172705, 0.000095977906, -1047202.3, -18405.338, 0.0, 10.014296, 9.949792 
6.556262e+3, 2.049642e+2, -959326.1, -1018212.94, 13.110474, 0.0015177944, 0.00021594227, -959326.1, -27974.143, 0.0, 10.01429, 9.936753 
6.55626e+3, 2.1490099e+2, -861124.1, -920270.56, -8.556615, 0.0015175454, 0.000020454036, -861124.1, -27152.72, 0.0, 10.014284, 9.936411 
6.5562576e+3, 2.2483106e+2, -772935.0, -842153.25, 15.270308, 0.0015170118, 0.00026518622, -772935.0, -36278.285, 0.0, 10.014279, 9.923324 
6.5562564e+3, 2.3475444e+2, -674584.6, -744055.7, -6.325444, 0.001516162, 0.000049846356, -674584.6, -35177.07, 0.0, 10.014275, 9.922991 
6.5562546e+3, 2.4467085e+2, -586356.0, -666255.94, 16.760015, 0.0015162948, 0.00020914177, -586356.0, -44129.4, 0.0, 10.014269, 9.909505 
6.5562534e+3, 2.5458047e+2, -487687.6, -567662.56, -5.044487, 0.0015175134, 0.000025090945, -487687.6, -42575.28, 0.0, 10.014264, 9.909403 
6.556252e+3, 2.6448298e+2, -399560.1, -490485.16, 18.557802, 0.0015175396, 0.0002684181, -399560.1, -51492.363, 0.0, 10.014259, 9.895265 
6.5562505e+3, 2.7437878e+2, -300358.88, -390956.25, -1.5678058, 0.0015161178, -0.000081284794, -300358.88, -49270.105, 0.0, 10.014256, 9.89568 
6.556249e+3, 2.8426647e+2, -213760.94, -317375.84, 18.98593, 0.0015154183, 0.00034811627, -213760.92, -59571.566, 0.0, 10.014252, 9.878971 
6.5562475e+3, 2.941465e+2, -114124.336, -217111.17, -2.0290375, 0.0015156463, -0.00013412787, -114124.336, -56759.367, 0.0, 10.014249, 9.879768 
6.556247e+3, 3.040542e+2, -25020.633, -85190.71, 14.232298, 0.0015161199, 0.00028668507, -25020.63, -25020.63, 0.0, 10.014245, 9.935021 
6.556245e+3, 3.13991e+2, -24003.262, -83063.82, -4.839989, 0.0015169192, 0.000044870092, -24003.262, -24003.262, 0.0, 10.014241, 9.936459 
6.566292e+3, 1.2523963e+2, -1701686.1, -1721700.0, 15.39304, 0.0015275974, 0.00021989069, -1701686.0, 10966.939, 0.0, 10.014597, 9.988059 
6.56629e+3, 1.3522755e+2, -1604399.4, -1625000.6, -4.1414084, 0.0015244262, 0.00004150202, -1604399.4, 10372.082, 0.0, 10.014589, 9.987275 
6.566288e+3, 1.4520888e+2, -1516435.4, -1545918.3, 16.853481, 0.0015242463, 0.00030191633, -1516435.4, 518.99603, 0.0, 10.014582, 9.975519 
6.5662855e+3, 1.5518437e+2, -1418799.4, -1448679.8, -3.449037, 0.0015266804, 0.00011009006, -1418799.4, 395.17737, 0.0, 10.014574, 9.974988 
6.566284e+3, 1.6515326e+2, -1330799.9, -1369856.3, 19.506456, 0.001526963, 0.00019082247, -1330799.9, -9300.553, 0.0, 10.014566, 9.962926 
6.566282e+3, 1.7511624e+2, -1232932.3, -1272298.9, -1.9264147, 0.0015252649, 0.00008719552, -1232932.3, -9070.197, 0.0, 10.014559, 9.962513 
6.5662795e+3, 1.8507259e+2, -1144910.3, -1193773.9, 17.431221, 0.0015248809, 0.00023071893, -1144910.3, -18620.389, 0.0, 10.014553, 9.950084 
6.566278e+3, 1.950227e+2, -1046848.25, -1095971.9, -1.8415588, 0.0015257332, 0.00009587418, -1046848.25, -18069.494, 0.0, 10.014548, 9.94974 
6.566276e+3, 2.0496601e+2, -958976.75, -1018100.2, 17.426908, 0.0015260751, 0.00021571113, -958976.75, -27642.441, 0.0, 10.0145445, 9.936694 
6.566274e+3, 2.1490274e+2, -860774.25, -920158.44, -5.1703444, 0.0015258974, 0.00002044552, -860774.25, -26819.926, 0.0, 10.014541, 9.936352 
6.5662724e+3, 2.2483274e+2, -772585.94, -842042.9, 17.759626, 0.0015255405, 0.00026543537, -772585.94, -35945.75, 0.0, 10.014536, 9.9232645 
6.566271e+3, 2.3475607e+2, -674238.4, -743947.7, -4.2680006, 0.001524978, 0.000050390354, -674238.4, -34846.797, 0.0, 10.01453, 9.922933 
6.566269e+3, 2.4467242e+2, -586011.0, -666149.5, 19.196583, 0.0015250827, 0.00020935856, -586011.0, -43799.77, 0.0, 10.014525, 9.909446 
6.5662676e+3, 2.54582e+2, -487343.16, -567557.44, -1.6904622, 0.0015259209, 0.000024284645, -487343.16, -42245.65, 0.0, 10.014522, 9.909344 
6.566266e+3, 2.6448444e+2, -399217.66, -490384.66, 21.761707, 0.0015258254, 0.00026795105, -399217.66, -51164.125, 0.0, 10.014518, 9.895204 
6.5662646e+3, 2.7438018e+2, -300017.5, -390857.4, -0.87364155, 0.0015245914, -0.000079777026, -300017.5, -48942.33, 0.0, 10.014514, 9.895618 
6.5662634e+3, 2.842678e+2, -213417.19, -317272.03, 19.64202, 0.00152416, 0.00034946782, -213417.19, -59240.844, 0.0, 10.014511, 9.878914 
6.566262e+3, 2.941478e+2, -113782.35, -217008.92, 1.803589, 0.0015247602, -0.0001357046, -113782.35, -56429.82, 0.0, 10.014507, 9.879711 
6.5662605e+3, 3.040554e+2, -24687.715, -85105.18, 18.253792, 0.0015250158, 0.00028498622, -24687.709, -24687.709, 0.0, 10.014505, 9.934954 
6.56626e+3, 3.1399214e+2, -23667.707, -82978.125, -5.42089, 0.001524761, 0.000047052974, -23667.707, -23667.707, 0.0, 10.0145035, 9.93639 
6.576307e+3, 1.2524188e+2, -1701728.9, -1721785.3, 11.827221, 0.0015323793, 0.00021948035, -1701728.9, 10902.054, 0.0, 10.0146, 9.988006 
6.5763044e+3, 1.3522974e+2, -1604442.1, -1625085.8, -7.7127237, 0.0015360229, 0.00004209487, -1604442.1, 10307.74, 0.0, 10.014592, 9.987222 
6.576302e+3, 1.4521101e+2, -1516479.0, -1546005.4, 13.148484, 0.001536154, 0.0003024534, -1516479.0, 454.3357, 0.0, 10.014584, 9.975464 
6.5763e+3, 1.5518644e+2, -1418842.1, -1448766.3, -7.146841, 0.0015329379, 0.000109597284, -1418842.1, 332.01437, 0.0, 10.014576, 9.974933 
6.5762985e+3, 1.6515529e+2, -1330843.8, -1369945.6, 16.11202, 0.001532514, 0.00019030493, -1330843.8, -9364.38, 0.0, 10.014568, 9.962869 
6.576296e+3, 1.7511821e+2, -1232975.9, -1272387.8, -5.2177625, 0.0015347273, 0.00008759235, -1232975.9, -9133.096, 0.0, 10.014562, 9.962457 
6.5762943e+3, 1.8507451e+2, -1144948.4, -1193852.8, 15.024772, 0.0015352392, 0.00023124645, -1144948.4, -18677.31, 0.0, 10.014556, 9.950033 
6.5762925e+3, 1.9502456e+2, -1046885.7, -1096050.1, -4.52218, 0.0015340875, 0.00009577925, -1046885.7, -18125.217, 0.0, 10.014551, 9.94969 
6.576291e+3, 2.0496783e+2, -959020.8, -1018192.2, 15.016475, 0.0015336097, 0.00021545538, -959020.8, -27704.297, 0.0, 10.014547, 9.936635 
6.5762883e+3, 2.149045e+2, -860817.7, -920249.9, -7.30124, 0.0015337975, 0.000020490355, -860817.7, -26880.525, 0.0, 10.014544, 9.936292 
6.576287e+3, 2.2483444e+2, -772628.8, -842133.75, 15.220103, 0.0015341722, 0.00026569059, -772628.8, -36005.215, 0.0, 10.014539, 9.923205 
6.5762854e+3, 2.347577e+2, -674280.75, -744038.1, -6.758023, 0.0015347262, 0.00005076101, -674280.75, -34905.2, 0.0, 10.014533, 9.922873 
6.5762836e+3, 2.44674e+2, -586051.9, -666237.56, 17.068085, 0.0015344963, 0.00020945512, -586051.9, -43856.08, 0.0, 10.014528, 9.909388 
6.5762824e+3, 2.545835e+2, -487383.25, -567644.75, -3.9761121, 0.0015333772, 0.000023672514, -487383.25, -42300.61, 0.0, 10.014524, 9.909286 
6.5762806e+3, 2.644859e+2, -399261.94, -490481.16, 19.982595, 0.0015329953, 0.00026766566, -399261.94, -51222.68, 0.0, 10.014521, 9.895139 
6.5762794e+3, 2.7438155e+2, -300061.5, -390953.8, -2.2940872, 0.0015334785, -0.00007849545, -300061.5, -48999.984, 0.0, 10.014517, 9.895554 
6.5762776e+3, 2.8426912e+2, -213453.42, -317353.16, 18.122297, 0.0015339628, 0.00035053707, -213453.42, -59290.13, 0.0, 10.014514, 9.8788595 
6.576277e+3, 2.9414907e+2, -113817.3, -217088.3, -0.20670903, 0.0015344331, -0.00013715947, -113817.3, -56477.277, 0.0, 10.01451, 9.879657 
6.576275e+3, 3.040566e+2, -24734.41, -85209.43, 16.872435, 0.001533739, 0.0002836039, -24734.404, -24734.404, 0.0, 10.014508, 9.934882 
6.5762746e+3, 3.1399328e+2, -23715.701, -83085.01, -6.138953, 0.0015313812, 0.00004943893, -23715.701, -23715.701, 0.0, 10.014506, 9.9363165 
6.586321e+3, 1.2524414e+2, -1701365.5, -1721653.1, 16.157246, 0.0015410524, 0.0002193904, -1701365.5, 11243.372, 0.0, 10.014853, 9.987951 
6.586319e+3, 1.3523194e+2, -1604083.0, -1624956.8, -3.7989755, 0.0015440037, 0.000041887222, -1604083.0, 10645.393, 0.0, 10.014843, 9.987167 
6.586317e+3, 1.4521317e+2, -1516121.6, -1545879.8, 17.476168, 0.001544194, 0.00030235475, -1516121.6, 790.7539, 0.0, 10.014836, 9.975409 
6.586315e+3, 1.5518853e+2, -1418482.9, -1448640.5, -3.2513402, 0.0015417179, 0.00010980997, -1418482.9, 670.67334, 0.0, 10.014831, 9.974877 
6.586313e+3, 1.6515733e+2, -1330485.5, -1369822.3, 19.41611, 0.001541307, 0.00019060119, -1330485.5, -9026.057, 0.0, 10.014824, 9.962812 
6.586311e+3, 1.7512019e+2, -1232620.4, -1272266.8, -1.7461967, 0.0015428576, 0.00008776149, -1232620.4, -8796.984, 0.0, 10.014816, 9.9623995 
6.586309e+3, 1.8507643e+2, -1144592.1, -1193730.1, 18.931713, 0.0015432518, 0.00023115917, -1144592.1, -18339.896, 0.0, 10.014811, 9.949978 
6.586307e+3, 1.9502643e+2, -1046529.25, -1095928.4, -2.8356361, 0.0015425038, 0.000095310614, -1046529.25, -17787.092, 0.0, 10.014808, 9.949635 
6.586305e+3, 2.0496963e+2, -958665.7, -1018074.25, 16.478577, 0.001542265, 0.00021517488, -958665.7, -27366.906, 0.0, 10.014805, 9.936578 
6.586303e+3, 2.1490625e+2, -860463.1, -920133.25, -4.356509, 0.0015425271, 0.000020967744, -860463.1, -26543.2, 0.0, 10.014802, 9.936235 
6.586302e+3, 2.2483614e+2, -772276.94, -842022.25, 18.129984, 0.0015428058, 0.00026607246, -772276.94, -35670.01, 0.0, 10.014797, 9.923145 
6.5862995e+3, 2.3475935e+2, -673930.9, -743928.6, -3.8623617, 0.0015430842, 0.00005015064, -673930.9, -34571.39, 0.0, 10.014792, 9.922813 
6.5862983e+3, 2.4467558e+2, -585703.5, -666131.25, 19.987268, 0.0015428056, 0.00020912757, -585703.5, -43523.18, 0.0, 10.014788, 9.909327 
6.586297e+3, 2.5458503e+2, -487034.97, -567539.5, -2.5729308, 0.0015418904, 0.000025050858, -487034.97, -41967.2, 0.0, 10.014785, 9.9092245 
6.5862954e+3, 2.6448733e+2, -398914.16, -490377.2, 21.500547, 0.0015416787, 0.0002686892, -398914.16, -50889.168, 0.0, 10.014782, 9.895078 
6.586294e+3, 2.7438298e+2, -299715.94, -390851.94, 1.1250248, 0.0015422917, -0.000080292666, -299715.94, -48668.074, 0.0, 10.014778, 9.895493 
6.5862924e+3, 2.8427047e+2, -213107.86, -317251.63, 21.367981, 0.0015426001, 0.00034893036, -213107.84, -58957.633, 0.0, 10.014775, 9.8787985 
6.586292e+3, 2.9415032e+2, -113471.43, -216987.6, -0.62836903, 0.0015424975, -0.00013467266, -113471.43, -56143.926, 0.0, 10.014774, 9.879597 
6.58629e+3, 3.0405784e+2, -24394.523, -85119.02, 16.148838, 0.0015419348, 0.0002863352, -24394.52, -24394.52, 0.0, 10.014772, 9.934816 
6.586289e+3, 3.1399444e+2, -23375.916, -82995.266, -3.1634889, 0.0015407063, 0.00004696386, -23375.916, -23375.916, 0.0, 10.014771, 9.93625 
6.5963364e+3, 1.252464e+2, -1701410.5, -1721740.9, 11.748444, 0.0015521108, 0.00021949568, -1701410.5, 11176.175, 0.0, 10.014854, 9.987897 
6.596334e+3, 1.3523416e+2, -1604126.4, -1625043.5, -8.1003065, 0.0015498191, 0.00004119861, -1604126.4, 10580.293, 0.0, 10.014846, 9.987113 
6.596332e+3, 1.4521532e+2, -1516165.8, -1545968.4, 14.613714, 0.0015499179, 0.0003018721, -1516165.8, 725.50476, 0.0, 10.014838, 9.975352 
6.59633e+3, 1.5519065e+2, -1418527.1, -1448729.1, -6.094091, 0.0015520583, 0.0001104428, -1418527.1, 605.8176, 0.0, 10.0148325, 9.974821 
6.5963274e+3, 1.6515937e+2, -1330529.6, -1369911.0, 15.681865, 0.0015520961, 0.00019138248, -1330529.6, -9090.175, 0.0, 10.014826, 9.962756 
6.5963256e+3, 1.7512217e+2, -1232663.1, -1272354.6, -5.4607625, 0.0015502099, 0.00008779118, -1232663.1, -8859.272, 0.0, 10.014819, 9.962343 
6.596324e+3, 1.8507835e+2, -1144635.1, -1193819.0, 16.979406, 0.0015498725, 0.0002307012, -1144635.1, -18401.797, 0.0, 10.014813, 9.949921 
6.596322e+3, 1.950283e+2, -1046572.0, -1096017.0, -4.8013544, 0.00155099, 0.00009461735, -1046572.0, -17848.234, 0.0, 10.01481, 9.949577 
6.5963197e+3, 2.0497145e+2, -958706.5, -1018159.3, 14.606842, 0.0015516313, 0.00021487639, -958706.5, -27425.568, 0.0, 10.014807, 9.9365225 
6.5963185e+3, 2.14908e+2, -860503.56, -920217.75, -6.152685, 0.0015517889, 0.00002169418, -860503.56, -26600.92, 0.0, 10.014804, 9.93618 
6.5963167e+3, 2.2483784e+2, -772320.2, -842113.1, 15.417677, 0.0015514676, 0.00026652546, -772320.2, -35729.973, 0.0, 10.0148, 9.923086 
6.596315e+3, 2.3476098e+2, -673973.2, -744018.8, -6.6147313, 0.0015506244, 0.000048966118, -673973.2, -34629.81, 0.0, 10.014794, 9.922754 
6.596313e+3, 2.4467717e+2, -585747.6, -666225.8, 18.229757, 0.0015504744, 0.00020855512, -585747.6, -43582.813, 0.0, 10.014791, 9.909265 
6.5963113e+3, 2.5458655e+2, -487078.75, -567633.7, -4.1405115, 0.0015510838, 0.00002760051, -487078.75, -42025.934, 0.0, 10.014788, 9.909162 
6.59631e+3, 2.644888e+2, -398954.88, -490465.78, 19.783957, 0.0015513181, 0.00027047886, -398954.88, -50944.223, 0.0, 10.014784, 9.895019 
6.5963084e+3, 2.7438438e+2, -299755.7, -390939.6, -0.8415772, 0.0015510843, -0.00008390901, -299755.7, -48721.543, 0.0, 10.014781, 9.895434 
6.596307e+3, 2.842718e+2, -213151.03, -317347.2, 20.038717, 0.0015505513, 0.00034574824, -213151.03, -59013.938, 0.0, 10.014778, 9.878735 
6.596306e+3, 2.941516e+2, -113514.266, -217083.14, -1.5100049, 0.0015496175, -0.00012985143, -113514.266, -56199.297, 0.0, 10.014777, 9.879532 
6.596305e+3, 3.0405906e+2, -24435.057, -85209.91, 15.467353, 0.0015498485, 0.00029149503, -24435.053, -24435.053, 0.0, 10.014775, 9.934753 
6.5963036e+3, 3.1399557e+2, -23416.537, -83085.914, -4.235783, 0.0015517109, 0.00004159246, -23416.535, -23416.535, 0.0, 10.014773, 9.936188 
6.606352e+3, 1.2524869e+2, -1701048.5, -1721609.8, 15.459161, 0.0015605631, 0.00021959044, -1701048.5, 11515.9, 0.0, 10.015107, 9.987843 
6.6063493e+3, 1.3523637e+2, -1603758.8, -1624910.3, -4.3555336, 0.0015581074, 0.00004141987, -1603758.8, 10926.129, 0.0, 10.015102, 9.987058 
6.606347e+3, 1.4521748e+2, -1515799.5, -1545839.0, 17.838184, 0.0015581576, 0.00030200012, -1515799.5, 1070.478, 0.0, 10.015097, 9.975296 
6.6063446e+3, 1.5519275e+2, -1418166.8, -1448603.5, -3.0709217, 0.0015603529, 0.0001102726, -1418166.6, 945.6732, 0.0, 10.015088, 9.974765 
6.606343e+3, 1.6516142e+2, -1330170.1, -1369787.8, 18.97418, 0.0015604738, 0.00019116896, -1330170.1, -8750.7705, 0.0, 10.015082, 9.962699 
6.606341e+3, 1.7512418e+2, -1232300.3, -1272230.4, -2.6470804, 0.0015586965, 0.00008777275, -1232300.3, -8515.843, 0.0, 10.015079, 9.962286 
6.6063386e+3, 1.8508029e+2, -1144272.6, -1193697.0, 19.886805, 0.001558382, 0.00023081373, -1144272.6, -18058.191, 0.0, 10.015075, 9.9498625 
6.606337e+3, 1.9503018e+2, -1046213.0, -1095897.8, -2.4145205, 0.0015594398, 0.00009479867, -1046213.0, -17507.623, 0.0, 10.01507, 9.949519 
6.606335e+3, 2.0497327e+2, -958347.0, -1018036.7, 17.13199, 0.0015600289, 0.0002148676, -958347.0, -27083.87, 0.0, 10.015066, 9.936468 
6.606333e+3, 2.1490978e+2, -860146.1, -920097.2, -3.4886427, 0.0015601413, 0.000021238127, -860146.1, -26260.79, 0.0, 10.015063, 9.936126 
6.6063315e+3, 2.2483955e+2, -771966.94, -842001.9, 17.538546, 0.0015598509, 0.00026635177, -771966.94, -35393.44, 0.0, 10.01506, 9.923026 
6.6063297e+3, 2.3476264e+2, -673618.6, -743907.94, -5.0836625, 0.0015591179, 0.000049840317, -673618.6, -34291.367, 0.0, 10.015058, 9.922693 
6.606328e+3, 2.4467875e+2, -585393.6, -666116.94, 19.992405, 0.0015590369, 0.00020909306, -585393.6, -43244.367, 0.0, 10.015054, 9.909204 
6.6063267e+3, 2.5458807e+2, -486727.63, -567527.3, -1.6878227, 0.001559669, 0.000026259097, -486727.63, -41689.75, 0.0, 10.01505, 9.909101 
6.606325e+3, 2.6449028e+2, -398605.34, -490362.47, 22.147776, 0.0015598558, 0.00026952222, -398605.34, -50609.023, 0.0, 10.015047, 9.894957 
6.606324e+3, 2.7438578e+2, -299405.7, -390837.16, -0.47630283, 0.0015594893, -0.00008177137, -299405.7, -48385.31, 0.0, 10.015046, 9.895371 
6.6063225e+3, 2.8427318e+2, -212799.03, -317242.25, 20.574722, 0.0015590128, 0.00034772747, -212799.03, -58675.09, 0.0, 10.015044, 9.8786745 
6.606321e+3, 2.941529e+2, -113163.46, -216979.66, 1.3520602, 0.0015583809, -0.0001322487, -113163.46, -55861.023, 0.0, 10.015043, 9.879472 
6.6063195e+3, 3.0406025e+2, -24092.838, -85119.805, 18.182539, 0.0015586254, 0.0002887643, -24092.832, -24092.832, 0.0, 10.015041, 9.934686 
6.6063184e+3, 3.1399673e+2, -23075.814, -82997.34, -4.6540947, 0.0015600923, 0.00004427928, -23075.813, -23075.813, 0.0, 10.015039, 9.93612 
6.6163665e+3, 1.2525097e+2, -1701092.3, -1721696.5, 13.0487585, 0.0015674663, 0.00021966807, -1701092.3, 11449.767, 0.0, 10.015109, 9.987787 
6.616364e+3, 1.352386e+2, -1603803.3, -1624997.3, -6.8251324, 0.0015679247, 0.000042178217, -1603803.3, 10859.87, 0.0, 10.015104, 9.987003 
6.616362e+3, 1.4521965e+2, -1515845.4, -1545929.3, 13.855448, 0.0015679526, 0.00030248993, -1515845.4, 1003.3423, 0.0, 10.015099, 9.975239 
6.61636e+3, 1.5519486e+2, -1418210.9, -1448692.6, -6.983545, 0.0015674388, 0.00010962242, -1418210.9, 880.737, 0.0, 10.015091, 9.974709 
6.616358e+3, 1.6516349e+2, -1330214.6, -1369878.3, 16.597263, 0.0015674215, 0.0001903598, -1330214.6, -8815.421, 0.0, 10.015085, 9.962641 
6.616356e+3, 1.7512618e+2, -1232344.6, -1272320.6, -5.003501, 0.0015679017, 0.000087719374, -1232344.6, -8579.917, 0.0, 10.01508, 9.962229 
6.616354e+3, 1.8508223e+2, -1144317.6, -1193788.6, 17.44736, 0.0015680665, 0.00023126166, -1144317.6, -18122.24, 0.0, 10.015077, 9.949804 
6.616352e+3, 1.9503208e+2, -1046257.2, -1095988.8, -4.802419, 0.0015678974, 0.00009550296, -1046257.2, -17570.264, 0.0, 10.015072, 9.94946 
6.61635e+3, 2.049751e+2, -958387.3, -1018120.75, 15.2291975, 0.0015678693, 0.00021503493, -958387.3, -27142.086, 0.0, 10.015069, 9.936414 
6.616348e+3, 2.1491155e+2, -860186.0, -920180.8, -5.410899, 0.0015679734, 0.000020077912, -860186.0, -26317.992, 0.0, 10.015065, 9.93607 
6.616347e+3, 2.2484127e+2, -772011.5, -842095.2, 15.66092, 0.0015680972, 0.00026580086, -772011.5, -35454.76, 0.0, 10.015062, 9.922965 
6.6163445e+3, 2.347643e+2, -673662.7, -744000.8, -6.8994284, 0.0015682215, 0.000051931238, -673662.7, -34351.688, 0.0, 10.015059, 9.922632 
6.616343e+3, 2.4468035e+2, -585436.7, -666208.56, 17.964554, 0.0015681724, 0.00021028596, -585436.7, -43303.04, 0.0, 10.015056, 9.9091425 
6.616342e+3, 2.545896e+2, -486769.72, -567618.1, -3.7722714, 0.0015679152, 0.00002260708, -486769.72, -41746.81, 0.0, 10.015053, 9.90904 
6.61634e+3, 2.6449174e+2, -398649.97, -490459.28, 20.89464, 0.0015677551, 0.00026693824, -398649.97, -50668.023, 0.0, 10.01505, 9.894893 
6.616339e+3, 2.7438718e+2, -299449.97, -390933.7, -1.5417048, 0.001567691, -0.00007621291, -299449.97, -48443.39, 0.0, 10.015049, 9.895307 
6.6163373e+3, 2.8427452e+2, -212838.2, -317328.75, 19.651579, 0.0015678179, 0.0003527705, -212838.2, -58727.453, 0.0, 10.015047, 9.878616 
6.616336e+3, 2.9415417e+2, -113201.85, -217064.95, 0.2682565, 0.0015681768, -0.00013894803, -113201.85, -55911.96, 0.0, 10.015046, 9.879414 
6.616335e+3, 3.0406147e+2, -24139.066, -85222.15, 16.769173, 0.0015679585, 0.00028134184, -24139.063, -24139.063, 0.0, 10.015044, 9.934616 
6.616334e+3, 3.139979e+2, -23122.035, -83101.08, -5.911397, 0.0015669056, 0.000051780513, -23122.035, -23122.035, 0.0, 10.015043, 9.9360485 
6.626382e+3, 1.2525325e+2, -1700718.9, -1721560.4, 16.49822, 0.0015751298, 0.000219354, -1700718.9, 11800.7295, 0.0, 10.015368, 9.987732 
6.6263795e+3, 1.3524082e+2, -1603438.1, -1624866.5, -3.9583452, 0.0015767204, 0.000041980165, -1603438.1, 11203.115, 0.0, 10.01536, 9.986948 
6.6263777e+3, 1.4522183e+2, -1515481.9, -1545801.8, 17.106249, 0.0015768361, 0.00030245702, -1515481.9, 1345.5449, 0.0, 10.015355, 9.975183 
6.626375e+3, 1.5519698e+2, -1417841.8, -1448563.1, -3.9466026, 0.0015754533, 0.000109794004, -1417841.8, 1229.1604, 0.0, 10.015352, 9.974651 
6.626373e+3, 1.6516554e+2, -1329845.8, -1369751.3, 19.144756, 0.0015753529, 0.0001904511, -1329845.8, -8466.733, 0.0, 10.0153475, 9.962583 
6.626371e+3, 1.7512818e+2, -1231980.4, -1272197.0, -2.8227973, 0.0015764817, 0.00008746773, -1231980.4, -8235.284, 0.0, 10.015342, 9.96217 
6.6263694e+3, 1.8508418e+2, -1143955.3, -1193667.5, 20.129642, 0.0015767937, 0.00023099058, -1143955.3, -17778.953, 0.0, 10.015337, 9.949745 
6.626367e+3, 1.9503395e+2, -1045894.5, -1095868.3, -2.2296548, 0.0015762901, 0.000095521114, -1045894.5, -17226.016, 0.0, 10.015335, 9.949402 
6.626365e+3, 2.0497693e+2, -958021.94, -1017995.75, 17.627344, 0.0015761162, 0.00021522128, -958021.94, -26794.578, 0.0, 10.015332, 9.936358 
6.6263634e+3, 2.1491331e+2, -859822.3, -920057.75, -3.5010753, 0.0015762624, 0.000020312578, -859822.3, -25971.693, 0.0, 10.015329, 9.936015 
6.6263616e+3, 2.2484298e+2, -771653.4, -841982.0, 17.293802, 0.0015764751, 0.00026573968, -771653.4, -35113.445, 0.0, 10.0153265, 9.922904 
6.62636e+3, 2.3476595e+2, -673306.7, -743889.8, -5.2694325, 0.0015767374, 0.00005121428, -673306.7, -34011.855, 0.0, 10.015323, 9.922572 
6.6263586e+3, 2.4468192e+2, -585081.1, -666099.4, 19.589315, 0.0015767307, 0.00020999504, -585081.06, -42963.027, 0.0, 10.015321, 9.909081 
6.626357e+3, 2.5459114e+2, -486412.97, -567509.4, -2.8705194, 0.001576409, 0.000023945697, -486412.97, -41405.074, 0.0, 10.01532, 9.908979 
6.6263556e+3, 2.644932e+2, -398294.3, -490354.03, 21.88267, 0.0015761836, 0.00026791057, -398294.3, -50326.77, 0.0, 10.015318, 9.894829 
6.626354e+3, 2.7438858e+2, -299096.63, -390830.72, 0.03552551, 0.0015760533, -0.000077987956, -299096.63, -48103.78, 0.0, 10.015316, 9.895244 
6.6263527e+3, 2.8427586e+2, -212484.05, -317222.8, 21.052387, 0.0015763137, 0.00035113018, -212484.03, -58386.438, 0.0, 10.015315, 9.878556 
6.626351e+3, 2.9415545e+2, -112849.69, -216960.81, 0.16450714, 0.001577064, -0.00013672825, -112849.69, -55572.383, 0.0, 10.015313, 9.879354 
6.62635e+3, 3.040627e+2, -23794.04, -85132.52, 16.908937, 0.0015767599, 0.00028391872, -23794.033, -23794.033, 0.0, 10.015314, 9.934546 
6.6263485e+3, 3.1399906e+2, -22771.174, -83009.6, -4.8652296, 0.0015749452, 0.00004976796, -22771.174, -22771.174, 0.0, 10.015317, 9.935978 
6.636397e+3, 1.2525554e+2, -1700765.8, -1721650.8, 12.224798, 0.0015833058, 0.00021881177, -1700765.8, 11731.429, 0.0, 10.01537, 9.987676 
6.636395e+3, 1.3524307e+2, -1603483.0, -1624955.6, -8.100835, 0.0015849115, 0.000041210835, -1603483.0, 11136.271, 0.0, 10.015363, 9.986892 
6.6363925e+3, 1.4522402e+2, -1515527.1, -1545892.1, 15.100336, 0.0015851781, 0.00030210684, -1515527.1, 1278.933, 0.0, 10.015357, 9.975125 
6.6363907e+3, 1.5519911e+2, -1417887.4, -1448653.5, -5.9836326, 0.0015840689, 0.000110447094, -1417887.4, 1162.6715, 0.0, 10.015354, 9.974594 
6.6363883e+3, 1.651676e+2, -1329892.4, -1369844.0, 15.940098, 0.0015839237, 0.00019107327, -1329892.4, -8533.601, 0.0, 10.015349, 9.962523 
6.6363865e+3, 1.7513019e+2, -1232025.6, -1272288.8, -5.9290085, 0.0015847109, 0.000087099506, -1232025.6, -8300.209, 0.0, 10.015344, 9.962111 
6.636384e+3, 1.8508612e+2, -1144000.1, -1193759.3, 18.28377, 0.0015849654, 0.00023029353, -1144000.1, -17842.873, 0.0, 10.01534, 9.949686 
6.6363823e+3, 1.9503585e+2, -1045939.06, -1095959.6, -4.08709, 0.001584677, 0.000095127216, -1045939.06, -17289.13, 0.0, 10.015337, 9.949343 
6.6363806e+3, 2.0497876e+2, -958063.8, -1018082.1, 15.6864395, 0.001584645, 0.00021541225, -958063.8, -26854.438, 0.0, 10.015334, 9.936302 
6.636379e+3, 2.149151e+2, -859863.7, -920143.56, -5.404426, 0.0015848594, 0.000021370066, -859863.7, -26030.45, 0.0, 10.015331, 9.93596 
6.636377e+3, 2.248447e+2, -771698.0, -842075.2, 15.355253, 0.0015849628, 0.00026596876, -771698.0, -35174.91, 0.0, 10.015328, 9.922844 
6.636376e+3, 2.3476759e+2, -673350.5, -743982.3, -7.1917214, 0.0015849292, 0.00004883815, -673350.5, -34071.88, 0.0, 10.015326, 9.922511 
6.6363734e+3, 2.4468353e+2, -585125.56, -666193.9, 18.342148, 0.0015849713, 0.0002088274, -585125.56, -43023.137, 0.0, 10.015323, 9.909019 
6.636372e+3, 2.5459266e+2, -486457.13, -567603.5, -4.0949855, 0.0015850823, 0.00002823361, -486457.13, -41464.27, 0.0, 10.015322, 9.908916 
6.6363704e+3, 2.644947e+2, -398338.34, -490448.53, 20.568438, 0.0015849647, 0.00027098012, -398338.34, -50385.24, 0.0, 10.01532, 9.894767 
6.636369e+3, 2.7438998e+2, -299139.84, -390924.53, -1.223861, 0.0015845536, -0.000084110354, -299139.84, -48160.777, 0.0, 10.015319, 9.895181 
6.6363674e+3, 2.842772e+2, -212526.06, -317315.25, 19.972057, 0.0015846586, 0.0003455353, -212526.06, -58441.605, 0.0, 10.015317, 9.878494 
6.636367e+3, 2.9415676e+2, -112890.66, -217052.34, -0.9473336, 0.0015854153, -0.000129216, -112890.66, -55625.992, 0.0, 10.015316, 9.879292 
6.636365e+3, 3.0406392e+2, -23838.705, -85231.74, 17.271982, 0.0015852578, 0.00029242193, -23838.7, -23838.7, 0.0, 10.015316, 9.934479 
6.6363645e+3, 3.140002e+2, -22817.266, -83110.164, -4.221577, 0.0015837874, 0.000042095435, -22817.264, -22817.264, 0.0, 10.015319, 9.935909 
6.6464126e+3, 1.2525783e+2, -1700396.1, -1721517.3, 15.359064, 0.0015925089, 0.00021890346, -1700396.1, 12078.468, 0.0, 10.015628, 9.98762 
6.64641e+3, 1.3524531e+2, -1603106.1, -1624819.1, -4.9530816, 0.0015923277, 0.0000410372, -1603106.1, 11491.211, 0.0, 10.015626, 9.986836 
6.6464084e+3, 1.452262e+2, -1515151.8, -1545759.6, 17.710445, 0.0015925228, 0.00030186423, -1515151.8, 1632.9646, 0.0, 10.015622, 9.975067 
6.646406e+3, 1.5520123e+2, -1417519.1, -1448525.8, -3.8983088, 0.0015928982, 0.000110309156, -1417519.1, 1510.134, 0.0, 10.015615, 9.974536 
6.6464037e+3, 1.6516967e+2, -1329525.5, -1369718.4, 18.33669, 0.0015929705, 0.00019103732, -1329525.5, -8187.065, 0.0, 10.015611, 9.962465 
6.646402e+3, 1.7513219e+2, -1231655.4, -1272162.3, -3.5887372, 0.0015928005, 0.00008716484, -1231655.4, -7949.556, 0.0, 10.015609, 9.962052 
6.6464e+3, 1.8508807e+2, -1143630.1, -1193635.1, 20.39526, 0.0015928631, 0.00023034282, -1143630.1, -17492.047, 0.0, 10.015606, 9.949627 
6.646398e+3, 1.9503774e+2, -1045572.6, -1095838.3, -2.4436026, 0.0015931133, 0.000095047035, -1045572.6, -16941.22, 0.0, 10.015602, 9.949283 
6.646396e+3, 2.049806e+2, -957696.2, -1017956.75, 17.325214, 0.0015932618, 0.00021523585, -957696.2, -26504.768, 0.0, 10.015599, 9.936247 
6.646394e+3, 2.1491687e+2, -859497.4, -920019.9, -3.9109938, 0.0015933005, 0.000021132188, -859497.4, -25681.523, 0.0, 10.015596, 9.935904 
6.6463923e+3, 2.2484642e+2, -771335.56, -841960.25, 16.855772, 0.0015933107, 0.00026597542, -771335.56, -34829.336, 0.0, 10.0155945, 9.922783 
6.6463906e+3, 2.3476925e+2, -672987.75, -743868.25, -5.9974914, 0.0015932694, 0.000049409085, -672987.75, -33725.39, 0.0, 10.015594, 9.92245 
6.6463894e+3, 2.4468513e+2, -584764.6, -666083.5, 19.31364, 0.0015933111, 0.00020911376, -584764.6, -42677.8, 0.0, 10.015592, 9.908957 
6.6463876e+3, 2.545942e+2, -486099.0, -567495.56, -3.4903407, 0.0015934297, 0.000027292279, -486099.0, -41121.17, 0.0, 10.01559, 9.9088545 
6.6463864e+3, 2.6449615e+2, -397981.0, -490341.63, 21.301594, 0.0015934915, 0.00027024897, -397980.97, -50042.285, 0.0, 10.015589, 9.894704 
6.6463846e+3, 2.7439138e+2, -298782.66, -390818.72, -0.51195383, 0.0015934643, -0.0000829149, -298782.66, -47817.395, 0.0, 10.015589, 9.895119 
6.6463834e+3, 2.8427854e+2, -212167.88, -317210.2, 20.79575, 0.0015933181, 0.0003467217, -212167.88, -58096.605, 0.0, 10.015589, 9.878431 
6.6463816e+3, 2.9415804e+2, -112531.27, -216947.78, -0.73552847, 0.0015930028, -0.00013054378, -112531.27, -55279.16, 0.0, 10.01559, 9.87923 
6.646381e+3, 3.0406514e+2, -23486.484, -85136.82, 17.22585, 0.0015930508, 0.00029082366, -23486.479, -23486.479, 0.0, 10.01559, 9.934411 
6.646379e+3, 3.1400135e+2, -22470.922, -83018.59, -3.8504515, 0.0015935915, 0.00004341989, -22470.922, -22470.922, 0.0, 10.015589, 9.935842 
6.656428e+3, 1.2526014e+2, -1700441.9, -1721606.8, 13.478454, 0.0016022982, 0.00021935295, -1700441.9, 12010.187, 0.0, 10.01563, 9.987564 
6.6564256e+3, 1.3524756e+2, -1603152.4, -1624908.8, -6.8841166, 0.0015993564, 0.000041212646, -1603152.4, 11422.961, 0.0, 10.015628, 9.98678 
6.656424e+3, 1.4522837e+2, -1515199.8, -1545853.1, 14.157448, 0.0015993554, 0.0003016862, -1515199.8, 1563.4822, 0.0, 10.015623, 9.975008 
6.6564214e+3, 1.5520337e+2, -1417565.5, -1448618.1, -7.314029, 0.0016018605, 0.000109699555, -1417565.5, 1442.8115, 0.0, 10.015617, 9.974478 
6.6564196e+3, 1.6517176e+2, -1329571.5, -1369810.8, 16.596285, 0.0016022954, 0.00019060678, -1329571.5, -8253.309, 0.0, 10.015614, 9.962407 
6.656417e+3, 1.751342e+2, -1231701.3, -1272254.4, -5.3467417, 0.0016008514, 0.000087482615, -1231701.3, -8015.251, 0.0, 10.015611, 9.961994 
6.6564155e+3, 1.8509002e+2, -1143677.0, -1193729.4, 17.995993, 0.0016006529, 0.00023082948, -1143677.0, -17558.072, 0.0, 10.015608, 9.949567 
6.6564137e+3, 1.9503963e+2, -1045618.56, -1095931.8, -4.772625, 0.0016016075, 0.00009514664, -1045618.56, -17005.705, 0.0, 10.015604, 9.949223 
6.656412e+3, 2.0498241e+2, -957738.25, -1018043.56, 15.556299, 0.0016019507, 0.00021483941, -957738.25, -26564.83, 0.0, 10.015601, 9.936191 
6.6564095e+3, 2.1491866e+2, -859538.9, -920106.1, -5.6755795, 0.0016016775, 0.000020132864, -859538.9, -25740.469, 0.0, 10.015599, 9.935847 
6.6564083e+3, 2.2484815e+2, -771380.94, -842054.6, 15.480015, 0.0016016095, 0.00026585162, -771380.94, -34891.59, 0.0, 10.015597, 9.922721 
6.6564065e+3, 2.3477092e+2, -673032.75, -743962.25, -7.3859854, 0.0016017341, 0.00005170806, -673032.75, -33786.7, 0.0, 10.015595, 9.922388 
6.656405e+3, 2.4468672e+2, -584810.4, -666179.7, 17.764153, 0.0016017465, 0.00021024795, -584810.4, -42739.246, 0.0, 10.015594, 9.908894 
6.6564035e+3, 2.5459573e+2, -486143.84, -567591.1, -4.91948, 0.0016016182, 0.000023270533, -486143.84, -41181.027, 0.0, 10.015592, 9.908791 
6.656402e+3, 2.644976e+2, -398024.84, -490436.0, 20.477964, 0.0016018951, 0.0002672838, -398024.84, -50100.543, 0.0, 10.015591, 9.894641 
6.6564006e+3, 2.743928e+2, -298825.97, -390912.5, -1.4831103, 0.0016026336, -0.00007740552, -298825.97, -47874.56, 0.0, 10.015591, 9.895056 
6.656399e+3, 2.8427988e+2, -212211.58, -317305.22, 20.42966, 0.0016021916, 0.00035190085, -212211.56, -58153.543, 0.0, 10.015591, 9.878367 
6.6563976e+3, 2.941593e+2, -112574.6, -217042.38, -0.72456795, 0.001600208, -0.00013709339, -112574.6, -55335.016, 0.0, 10.015592, 9.879166 
6.6563964e+3, 3.0406636e+2, -23530.982, -85234.63, 16.354305, 0.0016004883, 0.0002832682, -23530.979, -23530.979, 0.0, 10.015593, 9.934344 
6.656395e+3, 3.140025e+2, -22514.62, -83116.35, -5.166529, 0.001603948, 0.000050064547, -22514.617, -22514.617, 0.0, 10.015592, 9.935774 
6.666444e+3, 1.2526244e+2, -1700060.8, -1721468.1, 16.04837, 0.0016092209, 0.00021896251, -1700060.8, 12368.698, 0.0, 10.015895, 9.987508 
6.666442e+3, 1.3524981e+2, -1602778.4, -1624774.8, -4.85796, 0.0016085935, 0.00004117923, -1602778.4, 11774.926, 0.0, 10.015889, 9.986723 
6.666439e+3, 1.4523058e+2, -1514827.1, -1545722.3, 16.323408, 0.001608757, 0.00030169048, -1514827.0, 1914.6461, 0.0, 10.015886, 9.97495 
6.6664374e+3, 1.552055e+2, -1417188.0, -1448485.6, -5.0193934, 0.0016094714, 0.00010944614, -1417188.0, 1799.4418, 0.0, 10.015884, 9.97442 
6.666435e+3, 1.6517383e+2, -1329194.9, -1369681.3, 18.628798, 0.0016096961, 0.00019035854, -1329194.9, -7897.0107, 0.0, 10.015882, 9.962347 
6.666433e+3, 1.7513621e+2, -1231329.6, -1272128.4, -3.9364436, 0.0016095059, 0.00008748562, -1231329.6, -7663.3022, 0.0, 10.015878, 9.961934 
6.6664314e+3, 1.8509199e+2, -1143307.1, -1193605.6, 19.387558, 0.0016095741, 0.00023085228, -1143307.1, -17207.352, 0.0, 10.015874, 9.949507 
6.666429e+3, 1.9504152e+2, -1045248.0, -1095808.6, -3.400034, 0.0016098534, 0.00009496642, -1045248.0, -16653.734, 0.0, 10.015873, 9.9491625 
6.666427e+3, 2.0498426e+2, -957364.7, -1017915.9, 16.926704, 0.0016099781, 0.00021469181, -957364.7, -26209.277, 0.0, 10.015871, 9.936133 
6.666426e+3, 2.1492043e+2, -859166.6, -919980.1, -4.669579, 0.0016099401, 0.000020253696, -859166.6, -25385.678, 0.0, 10.015869, 9.935791 
6.6664237e+3, 2.2484985e+2, -771014.44, -841938.9, 16.219353, 0.0016100287, 0.00026594012, -771014.44, -34541.945, 0.0, 10.015867, 9.922659 
6.6664225e+3, 2.3477258e+2, -672668.9, -743848.94, -7.1630425, 0.0016102268, 0.000051450275, -672668.9, -33439.07, 0.0, 10.015865, 9.922326 
6.6664207e+3, 2.4468832e+2, -584446.9, -666067.5, 18.252178, 0.0016102657, 0.00021001001, -584446.9, -42391.406, 0.0, 10.015864, 9.908831 
6.666419e+3, 2.5459728e+2, -485779.66, -567479.56, -4.065994, 0.001610111, 0.000023458184, -485779.66, -40831.875, 0.0, 10.015864, 9.908729 
6.666418e+3, 2.644991e+2, -397662.56, -490329.47, 21.02232, 0.0016101899, 0.0002674719, -397662.56, -49752.68, 0.0, 10.015864, 9.894576 
6.666416e+3, 2.743942e+2, -298465.72, -390808.2, -2.3998768, 0.0016105255, -0.00007771987, -298465.72, -47528.063, 0.0, 10.015863, 9.894991 
6.666415e+3, 2.8428122e+2, -211849.33, -317195.47, 19.830427, 0.0016104629, 0.00035160023, -211849.33, -57804.453, 0.0, 10.015864, 9.878307 
6.6664135e+3, 2.941606e+2, -112214.82, -216934.56, 0.3568194, 0.0016098683, -0.00013671932, -112214.82, -54987.805, 0.0, 10.015864, 9.879106 
6.6664124e+3, 3.0406755e+2, -23179.82, -85144.29, 17.70185, 0.0016099112, 0.00028372384, -23179.814, -23179.814, 0.0, 10.015866, 9.934273 
6.666411e+3, 3.1400365e+2, -22157.1, -83024.12, -6.3204813, 0.0016108355, 0.00004978478, -22157.1, -22157.1, 0.0, 10.015871, 9.935702 
6.67646e+3, 1.2526475e+2, -1700109.0, -1721560.8, 12.753356, 0.0016145628, 0.00021808747, -1700109.0, 12297.791, 0.0, 10.015897, 9.98745 
6.6764575e+3, 1.3525206e+2, -1602825.3, -1624866.5, -8.053004, 0.0016191041, 0.000041015057, -1602825.3, 11705.939, 0.0, 10.015891, 9.986666 
6.676456e+3, 1.4523277e+2, -1514874.0, -1545814.6, 14.613875, 0.0016196349, 0.0003017906, -1514874.0, 1846.1887, 0.0, 10.015888, 9.974892 
6.6764534e+3, 1.5520765e+2, -1417235.0, -1448577.9, -6.7923756, 0.0016163549, 0.00010939987, -1417235.0, 1731.5154, 0.0, 10.015886, 9.974361 
6.676451e+3, 1.651759e+2, -1329243.4, -1369776.9, 15.919131, 0.0016160469, 0.00019021674, -1329243.4, -7965.8794, 0.0, 10.0158825, 9.962287 
6.676449e+3, 1.7513825e+2, -1231377.0, -1272223.1, -6.522072, 0.0016185297, 0.00008729732, -1231377.0, -7730.4775, 0.0, 10.015879, 9.961874 
6.6764474e+3, 1.8509395e+2, -1143353.8, -1193699.6, 17.693785, 0.0016191601, 0.00023059636, -1143353.8, -17273.117, 0.0, 10.015876, 9.949447 
6.6764456e+3, 1.9504343e+2, -1045294.1, -1095902.1, -5.1121693, 0.0016179879, 0.000094621035, -1045294.1, -16718.465, 0.0, 10.015874, 9.949102 
6.676443e+3, 2.049861e+2, -957408.06, -1018004.4, 15.215432, 0.0016176647, 0.00021468943, -957408.06, -26270.668, 0.0, 10.015872, 9.936076 
6.6764414e+3, 2.149222e+2, -859209.44, -920068.1, -6.3465085, 0.0016181748, 0.000021025262, -859209.44, -25445.967, 0.0, 10.01587, 9.935734 
6.67644e+3, 2.2485158e+2, -771061.25, -842035.5, 14.634361, 0.0016185499, 0.00026614647, -771061.25, -34605.637, 0.0, 10.015868, 9.922596 
6.676438e+3, 2.3477423e+2, -672714.9, -743944.94, -8.666032, 0.0016187605, 0.00004969081, -672714.9, -33501.3, 0.0, 10.015867, 9.922263 
6.6764367e+3, 2.4468993e+2, -584491.75, -666161.9, 17.425167, 0.0016188584, 0.00020896814, -584491.75, -42451.9, 0.0, 10.015866, 9.90877 
6.676435e+3, 2.545988e+2, -485824.16, -567573.44, -5.025113, 0.0016188145, 0.000026115853, -485824.16, -40891.45, 0.0, 10.015866, 9.908667 
6.676433e+3, 2.645006e+2, -397710.1, -490430.22, 20.051151, 0.0016184623, 0.00026950758, -397710.1, -49814.66, 0.0, 10.015866, 9.894509 
6.676432e+3, 2.7439564e+2, -298512.4, -390908.4, -3.0195582, 0.0016177194, -0.00008145948, -298512.4, -47588.504, 0.0, 10.015865, 9.894924 
6.676431e+3, 2.8428257e+2, -211889.72, -317283.72, 19.551697, 0.0016184186, 0.00034808114, -211889.7, -57857.953, 0.0, 10.015866, 9.878248 
6.676429e+3, 2.941619e+2, -112254.195, -217021.38, -0.38576272, 0.0016209612, -0.00013227323, -112254.195, -55039.797, 0.0, 10.015867, 9.879046 
6.676428e+3, 3.0406877e+2, -23228.912, -85251.44, 18.081547, 0.0016205003, 0.00028888934, -23228.906, -23228.906, 0.0, 10.015869, 9.934199 
6.6764265e+3, 3.1400478e+2, -22207.514, -83133.52, -5.239704, 0.0016157761, 0.000045423105, -22207.514, -22207.514, 0.0, 10.015873, 9.935627 
6.686476e+3, 1.2526707e+2, -1699728.9, -1721423.4, 15.406538, 0.001623858, 0.00021805427, -1699728.9, 12655.276, 0.0, 10.016162, 9.987392 
6.6864735e+3, 1.3525432e+2, -1602441.4, -1624728.0, -5.5477104, 0.0016262804, 0.000040781142, -1602441.4, 12067.693, 0.0, 10.01616, 9.9866085 
6.686471e+3, 1.4523497e+2, -1514491.8, -1545680.1, 16.75232, 0.0016267728, 0.00030154496, -1514491.8, 2206.874, 0.0, 10.016157, 9.974833 
6.6864693e+3, 1.5520978e+2, -1416857.3, -1448446.6, -5.439554, 0.0016253341, 0.000109308, -1416857.3, 2088.2188, 0.0, 10.016154, 9.974302 
6.6864675e+3, 1.6517797e+2, -1328867.0, -1369647.8, 17.051914, 0.001625228, 0.00019013611, -1328866.9, -7609.8525, 0.0, 10.016151, 9.962227 
6.6864645e+3, 1.7514026e+2, -1230999.1, -1272094.3, -5.2238326, 0.0016263988, 0.00008709873, -1230999.1, -7372.39, 0.0, 10.0161495, 9.961814 
6.686463e+3, 1.850959e+2, -1142976.8, -1193573.5, 18.928747, 0.0016267565, 0.00023038223, -1142976.8, -16915.393, 0.0, 10.016148, 9.949386 
6.686461e+3, 1.9504532e+2, -1044919.7, -1095778.3, -4.5160413, 0.0016262998, 0.000094486975, -1044919.7, -16362.581, 0.0, 10.016146, 9.949041 
6.686459e+3, 2.0498794e+2, -957031.9, -1017876.06, 15.546426, 0.0016262842, 0.00021463934, -957031.9, -25912.5, 0.0, 10.016144, 9.936019 
6.6864574e+3, 2.14924e+2, -858834.8, -919941.56, -6.208859, 0.0016266973, 0.000021064925, -858834.8, -25088.813, 0.0, 10.016142, 9.935677 
6.6864556e+3, 2.248533e+2, -770690.94, -841918.06, 15.032827, 0.0016269006, 0.00026608002, -770690.94, -34252.17, 0.0, 10.016141, 9.922534 
6.686454e+3, 2.347759e+2, -672344.5, -743828.56, -8.198854, 0.001626861, 0.00004931357, -672344.5, -33147.2, 0.0, 10.016141, 9.922201 
6.6864526e+3, 2.446915e+2, -584123.5, -666049.4, 17.445314, 0.001626963, 0.00020872438, -584123.5, -42099.29, 0.0, 10.01614, 9.908705 
6.686451e+3, 2.5460035e+2, -485459.1, -567463.7, -6.3049746, 0.0016272048, 0.00002649906, -485459.1, -40541.414, 0.0, 10.01614, 9.908603 
6.686449e+3, 2.6450205e+2, -397345.2, -490320.38, 19.406033, 0.0016271052, 0.0002698301, -397345.16, -49464.117, 0.0, 10.01614, 9.894446 
6.686448e+3, 2.7439705e+2, -298146.88, -390799.3, -1.9275504, 0.0016265756, -0.00008201533, -298146.88, -47236.742, 0.0, 10.016142, 9.89486 
6.686446e+3, 2.842839e+2, -211524.4, -317176.9, 20.223442, 0.0016269225, 0.00034753446, -211524.4, -57505.79, 0.0, 10.016143, 9.878183 
6.6864455e+3, 2.9416317e+2, -111890.14, -216916.38, -3.0084822, 0.0016283841, -0.00013166697, -111890.14, -54688.25, 0.0, 10.016145, 9.878983 
6.6864437e+3, 3.0407e+2, -22871.035, -85154.76, 15.675087, 0.0016281906, 0.00028960427, -22871.031, -22871.031, 0.0, 10.016147, 9.934132 
6.686443e+3, 3.140059e+2, -21850.945, -83037.88, -4.473468, 0.0016256341, 0.000044788267, -21850.943, -21850.943, 0.0, 10.0161495, 9.935559 
6.6964924e+3, 1.252694e+2, -1699777.3, -1721516.4, 13.438112, 0.001635406, 0.00021848961, -1699777.3, 12584.151, 0.0, 10.016163, 9.987334 
6.6964895e+3, 1.3525657e+2, -1602489.4, -1624820.8, -7.4989877, 0.0016316108, 0.000040510185, -1602489.4, 11997.523, 0.0, 10.016161, 9.98655 
6.6964877e+3, 1.4523716e+2, -1514541.4, -1545776.5, 14.1785965, 0.0016318376, 0.000301104, -1514541.4, 2135.6465, 0.0, 10.016159, 9.974772 
6.696485e+3, 1.5521191e+2, -1416906.1, -1448542.3, -7.8905597, 0.0016355239, 0.000109177316, -1416906.1, 2018.4559, 0.0, 10.016155, 9.974241 
6.6964835e+3, 1.6518007e+2, -1328914.8, -1369742.3, 15.292019, 0.0016360318, 0.00019007735, -1328914.8, -7678.091, 0.0, 10.016152, 9.962167 
6.696482e+3, 1.7514229e+2, -1231046.5, -1272188.3, -7.023064, 0.0016336476, 0.000086894346, -1231046.5, -7439.579, 0.0, 10.016151, 9.961755 
6.696479e+3, 1.8509787e+2, -1143025.5, -1193670.5, 16.94573, 0.0016332653, 0.00023019547, -1143025.5, -16983.275, 0.0, 10.0161495, 9.949324 
6.6964775e+3, 1.9504721e+2, -1044967.6, -1095874.6, -6.3998613, 0.0016347485, 0.00009447102, -1044967.6, -16429.15, 0.0, 10.016147, 9.94898 
6.696476e+3, 2.0498978e+2, -957075.75, -1017965.3, 13.962398, 0.0016354634, 0.00021455289, -957075.75, -25974.45, 0.0, 10.016145, 9.935962 
6.6964734e+3, 2.1492578e+2, -858878.0, -920030.25, -7.7823477, 0.0016354077, 0.000020670048, -858878.0, -25149.498, 0.0, 10.016144, 9.935619 
6.6964716e+3, 2.2485502e+2, -770737.6, -842014.25, 13.925502, 0.0016351828, 0.00026585252, -770737.6, -34315.8, 0.0, 10.016143, 9.922471 
6.6964704e+3, 2.3477755e+2, -672390.9, -743924.4, -9.354378, 0.0016347569, 0.000049750517, -672390.9, -33209.863, 0.0, 10.016143, 9.922138 
6.6964686e+3, 2.4469312e+2, -584171.7, -666149.6, 16.187876, 0.0016348308, 0.00020894797, -584171.7, -42163.168, 0.0, 10.016142, 9.90864 
6.696467e+3, 2.5460187e+2, -485506.34, -567563.2, -7.3254457, 0.0016354405, 0.0000255334, -485506.34, -40603.633, 0.0, 10.016141, 9.908537 
6.6964656e+3, 2.645035e+2, -397388.94, -490413.56, 19.292896, 0.0016359823, 0.00026913776, -397388.9, -49522.24, 0.0, 10.016142, 9.894384 
6.696464e+3, 2.7439845e+2, -298190.3, -390891.8, -2.3690317, 0.001636419, -0.000080688194, -298190.3, -47293.945, 0.0, 10.016143, 9.894799 
6.6964626e+3, 2.8428525e+2, -211571.98, -317278.66, 19.734468, 0.0016357804, 0.0003487454, -211571.97, -57566.516, 0.0, 10.016145, 9.878116 
6.6964614e+3, 2.9416442e+2, -111936.82, -217017.83, -2.884729, 0.0016337385, -0.00013334042, -111936.82, -54747.383, 0.0, 10.016147, 9.878914 
6.69646e+3, 3.040712e+2, -22914.62, -85250.36, 16.512339, 0.0016342521, 0.00028768243, -22914.615, -22914.615, 0.0, 10.016149, 9.934066 
6.696459e+3, 3.1400704e+2, -21894.67, -83133.2, -4.1862507, 0.0016383433, 0.000046363468, -21894.67, -21894.67, 0.0, 10.016151, 9.935493 
6.7065084e+3, 1.2527171e+2, -1699389.6, -1721375.8, 15.399683, 0.0016426992, 0.00021804526, -1699389.6, 12949.038, 0.0, 10.016433, 9.987276 
6.706506e+3, 1.3525884e+2, -1602103.6, -1624682.1, -5.8941903, 0.0016406107, 0.000040638155, -1602103.6, 12361.117, 0.0, 10.016432, 9.986492 
6.7065036e+3, 1.4523938e+2, -1514157.3, -1545641.4, 15.339303, 0.0016408709, 0.00030121655, -1514157.3, 2498.2192, 0.0, 10.01643, 9.974712 
6.706501e+3, 1.5521406e+2, -1416521.6, -1448408.1, -6.6391582, 0.0016430743, 0.00010873736, -1416521.6, 2381.8752, 0.0, 10.016428, 9.974182 
6.7064995e+3, 1.6518214e+2, -1328531.6, -1369610.8, 16.467169, 0.0016434353, 0.00018960252, -1328531.6, -7315.3877, 0.0, 10.016426, 9.962106 
6.7064977e+3, 1.751443e+2, -1230665.5, -1272058.9, -6.594933, 0.0016421372, 0.00008686468, -1230665.5, -7078.42, 0.0, 10.016424, 9.961694 
6.706496e+3, 1.8509983e+2, -1142646.0, -1193543.5, 17.002207, 0.0016420472, 0.00023028202, -1142646.0, -16622.988, 0.0, 10.016422, 9.949262 
6.7064935e+3, 1.9504912e+2, -1044589.2, -1095749.1, -6.3082013, 0.0016430678, 0.00009435937, -1044589.2, -16069.34, 0.0, 10.016421, 9.948918 
6.706492e+3, 2.0499162e+2, -956694.9, -1017835.3, 14.186149, 0.0016435101, 0.00021428721, -956694.9, -25611.555, 0.0, 10.01642, 9.9359045 
6.70649e+3, 2.1492755e+2, -858498.0, -919901.75, -7.914292, 0.001643369, 0.000020295698, -858498.0, -24786.938, 0.0, 10.016419, 9.935561 
6.706488e+3, 2.2485675e+2, -770363.4, -841896.06, 13.388542, 0.0016433472, 0.00026570348, -770363.3, -33958.336, 0.0, 10.016418, 9.922408 
6.7064863e+3, 2.3477921e+2, -672019.44, -743808.75, -10.623975, 0.0016434247, 0.000050175317, -672019.44, -32854.652, 0.0, 10.0164175, 9.922074 
6.706485e+3, 2.446947e+2, -583800.6, -666034.9, 15.466488, 0.0016434963, 0.00020913365, -583800.6, -41807.656, 0.0, 10.0164175, 9.908576 
6.7064834e+3, 2.546034e+2, -485134.38, -567449.06, -7.0433235, 0.0016435435, 0.000024578696, -485134.38, -40246.65, 0.0, 10.016419, 9.908474 
6.706482e+3, 2.6450497e+2, -397019.53, -490304.6, 19.056517, 0.0016439315, 0.00026842766, -397019.53, -49167.18, 0.0, 10.01642, 9.894319 
6.7064804e+3, 2.7439985e+2, -297824.88, -390786.0, -5.161616, 0.0016447004, -0.000079503174, -297824.88, -46942.21, 0.0, 10.01642, 9.894733 
6.706479e+3, 2.842866e+2, -211204.1, -317167.78, 17.757597, 0.0016443481, 0.00034982857, -211204.1, -57211.71, 0.0, 10.016422, 9.878054 
6.7064774e+3, 2.941657e+2, -111567.07, -216906.8, -1.5851674, 0.0016425325, -0.00013493847, -111567.07, -54390.086, 0.0, 10.016427, 9.878853 
6.706477e+3, 3.040724e+2, -22553.918, -85156.164, 17.771542, 0.0016428585, 0.00028585887, -22553.914, -22553.914, 0.0, 10.01643, 9.933994 
6.706475e+3, 3.140082e+2, -21535.842, -83041.016, -6.8956475, 0.0016461791, 0.00004780587, -21535.842, -21535.842, 0.0, 10.016432, 9.935421 
6.716525e+3, 1.2527403e+2, -1699439.0, -1721470.4, 13.479028, 0.0016476454, 0.00021710183, -1699439.0, 12876.878, 0.0, 10.016434, 9.987218 
6.7165226e+3, 1.352611e+2, -1602152.9, -1624776.4, -7.785316, 0.0016516988, 0.000040970648, -1602152.9, 12289.757, 0.0, 10.016433, 9.986433 
6.716521e+3, 1.4524157e+2, -1514207.0, -1545737.4, 13.339481, 0.0016521569, 0.0003016242, -1514207.0, 2426.8477, 0.0, 10.016431, 9.974652 
6.716518e+3, 1.552162e+2, -1416570.6, -1448503.4, -8.654876, 0.0016491752, 0.00010812842, -1416570.5, 2311.973, 0.0, 10.016429, 9.974122 
6.716516e+3, 1.6518421e+2, -1328581.6, -1369708.9, 14.51568, 0.0016489662, 0.0001888996, -1328581.6, -7385.7974, 0.0, 10.016427, 9.962045 
6.716514e+3, 1.7514631e+2, -1230715.0, -1272156.4, -8.437979, 0.0016513598, 0.00008692126, -1230715.0, -7147.702, 0.0, 10.016425, 9.961632 
6.7165124e+3, 1.8510178e+2, -1142694.8, -1193640.3, 15.28789, 0.0016521381, 0.00023050679, -1142694.8, -16690.953, 0.0, 10.016424, 9.949201 
6.71651e+3, 1.9505101e+2, -1044637.2, -1095845.1, -8.032232, 0.0016513406, 0.00009418843, -1044637.2, -16135.922, 0.0, 10.016422, 9.948857 
6.716508e+3, 2.0499346e+2, -956739.9, -1017926.1, 12.782254, 0.0016509496, 0.00021392299, -956739.9, -25674.564, 0.0, 10.016421, 9.935845 
6.7165065e+3, 2.1492934e+2, -858542.56, -919992.06, -9.289975, 0.0016509504, 0.000019940124, -858542.56, -24848.92, 0.0, 10.01642, 9.935503 
6.716504e+3, 2.2485846e+2, -770412.2, -841995.56, 12.015876, 0.0016514848, 0.00026559512, -770412.1, -34024.0, 0.0, 10.016419, 9.922343 
6.716503e+3, 2.3478086e+2, -672067.44, -743907.56, -11.89334, 0.0016525487, 0.000050562077, -672067.44, -32918.836, 0.0, 10.016419, 9.92201 
6.716502e+3, 2.4469629e+2, -583846.6, -666130.5, 15.008371, 0.0016526348, 0.00020928102, -583846.6, -41869.27, 0.0, 10.016419, 9.908514 
6.7164993e+3, 2.546049e+2, -485180.06, -567544.1, -7.6584625, 0.00165162, 0.000023674005, -485180.06, -40307.305, 0.0, 10.01642, 9.908411 
6.716498e+3, 2.6450643e+2, -397069.34, -490408.88, 18.170862, 0.0016514038, 0.00026773819, -397069.3, -49231.33, 0.0, 10.016421, 9.89425 
6.7164963e+3, 2.7440122e+2, -297873.6, -390889.75, -5.6651635, 0.0016521118, -0.0000784707, -297873.6, -47004.633, 0.0, 10.016422, 9.894664 
6.716496e+3, 2.842879e+2, -211245.08, -317256.25, 18.667978, 0.0016527663, 0.00035077502, -211245.08, -57265.74, 0.0, 10.016424, 9.8779955 
6.716494e+3, 2.9416695e+2, -111607.74, -216994.0, -1.1020079, 0.0016533318, -0.00013641403, -111607.74, -54443.227, 0.0, 10.016428, 9.878795 
6.716493e+3, 3.040736e+2, -22605.66, -85266.83, 17.499495, 0.0016529651, 0.0002841871, -22605.656, -22605.656, 0.0, 10.016432, 9.933919 
6.7164916e+3, 3.1400934e+2, -21587.465, -83153.47, -6.6026464, 0.0016512581, 0.00004909151, -21587.463, -21587.463, 0.0, 10.016435, 9.935344 
6.7265415e+3, 1.2527636e+2, -1699046.0, -1721328.0, 15.273962, 0.0016562622, 0.00021692556, -1699046.0, 13247.177, 0.0, 10.016708, 9.987159 
6.726539e+3, 1.3526337e+2, -1601762.6, -1624636.4, -6.362658, 0.0016593054, 0.000040315703, -1601762.6, 12657.774, 0.0, 10.0167055, 9.986374 
6.7265373e+3, 1.4524378e+2, -1513818.9, -1545601.4, 14.680428, 0.0016597391, 0.00030109074, -1513818.9, 2793.3726, 0.0, 10.016705, 9.974592 
6.726535e+3, 1.5521833e+2, -1416182.1, -1448368.1, -7.983564, 0.0016576175, 0.00010825252, -1416182.1, 2679.414, 0.0, 10.016705, 9.974061 
6.7265326e+3, 1.6518632e+2, -1328194.1, -1369575.6, 14.512085, 0.0016575607, 0.00018904266, -1328194.1, -7018.6123, 0.0, 10.016704, 9.961983 
6.726531e+3, 1.7514835e+2, -1230329.5, -1272025.4, -8.389997, 0.0016594565, 0.00008649759, -1230329.5, -6781.997, 0.0, 10.016702, 9.961571 
6.7265284e+3, 1.8510374e+2, -1142310.9, -1193512.0, 15.362358, 0.0016600526, 0.00023, -1142310.9, -16326.267, 0.0, 10.016701, 9.949139 
6.7265266e+3, 1.950529e+2, -1044254.1, -1095718.4, -8.56624, 0.0016593708, 0.00009405573, -1044254.1, -15771.446, 0.0, 10.0167, 9.948794 
6.726525e+3, 2.0499529e+2, -956354.8, -1017794.8, 11.836381, 0.0016592081, 0.0002139946, -956354.8, -25307.484, 0.0, 10.016699, 9.935787 
6.726523e+3, 2.149311e+2, -858160.0, -919863.0, -10.502818, 0.0016595485, 0.00002005018, -858160.0, -24483.746, 0.0, 10.016698, 9.935445 
6.726521e+3, 2.2486018e+2, -770034.44, -841876.0, 11.0720625, 0.0016599245, 0.00026540997, -770034.44, -33663.1, 0.0, 10.016698, 9.922279 
6.7265195e+3, 2.3478252e+2, -671690.0, -743789.25, -12.680512, 0.0016603118, 0.00004973459, -671690.0, -32557.604, 0.0, 10.016698, 9.921947 
6.7265177e+3, 2.4469787e+2, -583471.2, -666015.25, 13.883879, 0.001660497, 0.00020885159, -583471.2, -41509.36, 0.0, 10.016699, 9.908449 
6.726516e+3, 2.5460646e+2, -484808.1, -567431.75, -10.205812, 0.0016604391, 0.000024793582, -484808.1, -39950.277, 0.0, 10.016699, 9.908346 
6.7265147e+3, 2.6450786e+2, -396697.88, -490297.78, 16.26492, 0.0016602706, 0.0002684736, -396697.88, -48874.156, 0.0, 10.016701, 9.894185 
6.726513e+3, 2.7440262e+2, -297500.44, -390778.88, -5.682491, 0.0016599455, -0.000080412654, -297500.44, -46645.07, 0.0, 10.016704, 9.894599 
6.7265123e+3, 2.8428924e+2, -210872.31, -317145.88, 18.283716, 0.0016604518, 0.00034902905, -210872.31, -56905.953, 0.0, 10.016706, 9.877931 
6.7265105e+3, 2.9416823e+2, -111240.88, -216887.63, -4.864673, 0.0016620096, -0.00013426726, -111240.88, -54088.746, 0.0, 10.016707, 9.87873 
6.7265093e+3, 3.040748e+2, -22245.092, -85170.69, 14.506727, 0.0016618865, 0.0002866885, -22245.088, -22245.088, 0.0, 10.016712, 9.933849 
6.726508e+3, 3.1401044e+2, -21219.193, -83054.164, -6.2250605, 0.0016593613, 0.000046979163, -21219.193, -21219.193, 0.0, 10.016721, 9.935274 
6.736558e+3, 1.2527868e+2, -1699097.4, -1721424.8, 12.904478, 0.0016669504, 0.00021716913, -1699097.4, 13172.955, 0.0, 10.016708, 9.987099 
6.7365557e+3, 1.3526562e+2, -1601812.5, -1624732.3, -8.652801, 0.0016650017, 0.000039114817, -1601812.5, 12585.65, 0.0, 10.016706, 9.986315 
6.736554e+3, 1.4524598e+2, -1513870.0, -1545700.1, 13.178227, 0.0016652915, 0.00030003386, -1513870.0, 2720.6726, 0.0, 10.0167055, 9.97453 
6.7365515e+3, 1.552205e+2, -1416233.3, -1448466.6, -9.4109535, 0.0016674029, 0.00010876832, -1416233.3, 2607.3225, 0.0, 10.0167055, 9.973999 
6.736549e+3, 1.6518839e+2, -1328244.6, -1369673.6, 12.52019, 0.0016678973, 0.0001896408, -1328244.6, -7089.553, 0.0, 10.016705, 9.961922 
6.7365474e+3, 1.7515036e+2, -1230379.0, -1272122.4, -10.384009, 0.0016669516, 0.00008580746, -1230379.0, -6851.2534, 0.0, 10.016703, 9.961509 
6.7365456e+3, 1.851057e+2, -1142361.1, -1193611.4, 13.831618, 0.0016667825, 0.00022908987, -1142361.1, -16395.717, 0.0, 10.016702, 9.949075 
6.736543e+3, 1.9505481e+2, -1044304.0, -1095817.3, -10.009719, 0.0016673073, 0.00009393754, -1044304.0, -15839.869, 0.0, 10.016701, 9.948731 
6.7365414e+3, 2.0499714e+2, -956400.9, -1017886.9, 10.3114605, 0.0016679628, 0.00021429594, -956400.9, -25371.535, 0.0, 10.0167, 9.935728 
6.7365396e+3, 2.1493289e+2, -858205.25, -919954.44, -12.015179, 0.0016687365, 0.000020404497, -858205.25, -24546.453, 0.0, 10.016699, 9.935386 
6.736538e+3, 2.2486189e+2, -770083.06, -841974.56, 10.109555, 0.0016685583, 0.00026517798, -770083.06, -33728.49, 0.0, 10.016699, 9.922216 
6.736536e+3, 2.3478417e+2, -671738.1, -743887.4, -13.6585, 0.0016673632, 0.000048250942, -671738.1, -32621.85, 0.0, 10.0167, 9.921883 
6.736535e+3, 2.4469946e+2, -583520.8, -666117.2, 12.913861, 0.0016676915, 0.00020810876, -583520.8, -41574.523, 0.0, 10.0167, 9.908382 
6.736533e+3, 2.5460798e+2, -484856.88, -567533.06, -11.004985, 0.0016696847, 0.000026995294, -484856.88, -40013.953, 0.0, 10.0167, 9.908279 
6.736531e+3, 2.6450935e+2, -396743.8, -490393.9, 16.557678, 0.0016699329, 0.00026996885, -396743.8, -48934.34, 0.0, 10.016702, 9.894122 
6.73653e+3, 2.74404e+2, -297546.06, -390874.38, -5.578035, 0.0016680819, -0.000083957675, -297546.06, -46704.305, 0.0, 10.016705, 9.894536 
6.736529e+3, 2.8429055e+2, -210920.84, -317248.34, 17.759684, 0.0016677907, 0.00034583692, -210920.83, -56967.453, 0.0, 10.016707, 9.877863 
6.736527e+3, 2.941695e+2, -111287.945, -216989.39, -4.994123, 0.0016694901, -0.00013017115, -111287.945, -54148.152, 0.0, 10.016709, 9.878662 
6.7365265e+3, 3.04076e+2, -22290.254, -85268.76, 16.939844, 0.0016701329, 0.00029143688, -22290.25, -22290.25, 0.0, 10.016713, 9.933782 
6.7365247e+3, 3.1401157e+2, -21265.81, -83152.74, -3.9921758, 0.0016692448, 0.000043032625, -21265.81, -21265.81, 0.0, 10.016721, 9.935206 
6.746575e+3, 1.2528099e+2, -1698703.3, -1721282.5, 14.288191, 0.0016748654, 0.00021688869, -1698703.1, 13544.409, 0.0, 10.016984, 9.98704 
6.746573e+3, 1.352679e+2, -1601414.4, -1624588.9, -7.564695, 0.0016730966, 0.000039113977, -1601414.4, 12961.609, 0.0, 10.016986, 9.986255 
6.7465705e+3, 1.4524819e+2, -1513473.4, -1545560.5, 13.327722, 0.0016734436, 0.0002999398, -1513473.4, 3095.676, 0.0, 10.016986, 9.974468 
6.746568e+3, 1.5522262e+2, -1415841.4, -1448330.5, -9.369387, 0.0016754993, 0.00010823981, -1415841.4, 2978.191, 0.0, 10.016983, 9.973938 
6.7465657e+3, 1.6519046e+2, -1327854.6, -1369540.3, 12.569767, 0.0016759487, 0.00018915231, -1327854.6, -6719.975, 0.0, 10.016982, 9.961859 
6.746564e+3, 1.7515238e+2, -1229988.1, -1271989.6, -10.958841, 0.0016749674, 0.000085797634, -1229988.1, -6480.214, 0.0, 10.016983, 9.961447 
6.746562e+3, 1.8510765e+2, -1141971.4, -1193480.8, 12.646033, 0.001674914, 0.00022915071, -1141971.4, -16025.139, 0.0, 10.016982, 9.949012 
6.7465603e+3, 1.9505669e+2, -1043917.4, -1095689.3, -11.279035, 0.0016756974, 0.000093680785, -1043917.4, -15471.754, 0.0, 10.016981, 9.9486685 
6.746558e+3, 2.0499894e+2, -956012.75, -1017754.9, 9.074984, 0.0016762292, 0.00021385212, -956012.75, -25001.316, 0.0, 10.01698, 9.935669 
6.746557e+3, 2.1493466e+2, -857818.1, -919824.0, -13.619936, 0.0016765015, 0.00001990436, -857818.1, -24176.625, 0.0, 10.01698, 9.935327 
6.746555e+3, 2.248636e+2, -769700.94, -841853.5, 8.331897, 0.0016764923, 0.0002650344, -769700.94, -33363.133, 0.0, 10.01698, 9.922152 
6.746553e+3, 2.3478581e+2, -671358.44, -743768.6, -15.990412, 0.0016761626, 0.000048893176, -671358.44, -32258.299, 0.0, 10.01698, 9.921818 
6.7465514e+3, 2.4470104e+2, -583142.44, -666000.8, 10.824614, 0.0016763794, 0.00020832662, -583142.44, -41211.637, 0.0, 10.016981, 9.908318 
6.7465496e+3, 2.546095e+2, -484479.0, -567417.94, -12.5477, 0.0016771817, 0.000025451778, -484478.97, -39650.875, 0.0, 10.016983, 9.908215 
6.7465484e+3, 2.6451078e+2, -396368.1, -490281.94, 14.943439, 0.0016775158, 0.00026882082, -396368.1, -48572.813, 0.0, 10.016985, 9.894055 
6.7465466e+3, 2.744054e+2, -297174.6, -390765.66, -8.899594, 0.0016772649, -0.000082148086, -297174.6, -46346.4, 0.0, 10.016986, 9.89447 
6.7465454e+3, 2.8429186e+2, -210547.52, -317137.2, 15.155991, 0.0016770203, 0.00034754092, -210547.52, -56607.04, 0.0, 10.01699, 9.877799 
6.746544e+3, 2.9417074e+2, -110910.39, -216877.08, -5.461926, 0.0016767674, -0.00013251713, -110910.39, -53782.855, 0.0, 10.016996, 9.878598 
6.746543e+3, 3.0407718e+2, -21921.48, -85170.43, 16.497677, 0.0016772312, 0.00028873273, -21921.477, -21921.477, 0.0, 10.017, 9.933711 
6.746542e+3, 3.140127e+2, -20905.467, -83059.34, -7.286624, 0.001678663, 0.00004519946, -20905.465, -20905.465, 0.0, 10.017002, 9.935135 
6.756592e+3, 1.2528333e+2, -1698754.5, -1721380.1, 13.534187, 0.0016812702, 0.00021630735, -1698754.5, 13470.34, 0.0, 10.016985, 9.986979 
6.75659e+3, 1.3527016e+2, -1601466.3, -1624686.5, -8.348347, 0.0016825623, 0.00003975759, -1601466.3, 12887.574, 0.0, 10.016986, 9.986195 
6.7565876e+3, 1.452504e+2, -1513526.1, -1545660.3, 11.018286, 0.0016830768, 0.00030036434, -1513526.1, 3021.363, 0.0, 10.016986, 9.974407 
6.756585e+3, 1.5522476e+2, -1415892.5, -1448429.1, -11.622443, 0.0016826844, 0.00010713701, -1415892.5, 2906.075, 0.0, 10.016984, 9.973876 
6.756583e+3, 1.6519254e+2, -1327906.4, -1369640.8, 11.266998, 0.0016827596, 0.00018806543, -1327906.4, -6791.995, 0.0, 10.016983, 9.961796 
6.756581e+3, 1.7515439e+2, -1230039.8, -1272089.9, -12.20225, 0.0016833149, 0.000086149106, -1230039.8, -6551.5664, 0.0, 10.016983, 9.961384 
6.756579e+3, 1.851096e+2, -1142022.6, -1193580.8, 10.802763, 0.0016838639, 0.00022973145, -1142022.6, -16095.529, 0.0, 10.016983, 9.948949 
6.756577e+3, 1.9505858e+2, -1043967.6, -1095788.4, -13.102713, 0.0016843622, 0.000093342445, -1043967.6, -15540.536, 0.0, 10.016981, 9.948606 
6.756575e+3, 2.0500077e+2, -956059.75, -1017848.5, 7.7555547, 0.0016842502, 0.00021299858, -956059.75, -25066.244, 0.0, 10.016981, 9.935609 
6.7565733e+3, 2.1493644e+2, -857864.56, -919917.06, -14.897475, 0.0016835248, 0.000018935823, -857864.56, -24240.4, 0.0, 10.016981, 9.9352665 
6.7565715e+3, 2.2486532e+2, -769751.2, -841954.6, 7.2381344, 0.0016840834, 0.00026493406, -769751.2, -33430.098, 0.0, 10.016981, 9.922087 
6.75657e+3, 2.3478745e+2, -671408.1, -743869.25, -17.038057, 0.0016859471, 0.00005068252, -671408.1, -32324.084, 0.0, 10.016981, 9.921753 
6.7565686e+3, 2.4470262e+2, -583191.25, -666100.3, 10.278808, 0.0016859149, 0.0002090591, -583191.25, -41275.9, 0.0, 10.016982, 9.908253 
6.756567e+3, 2.54611e+2, -484527.06, -567516.8, -13.111009, 0.001683768, 0.00002187143, -484527.06, -39713.746, 0.0, 10.016984, 9.90815 
6.7565656e+3, 2.6451224e+2, -396418.03, -490385.47, 14.4880705, 0.0016840002, 0.00026623794, -396418.03, -48636.91, 0.0, 10.016985, 9.893988 
6.756564e+3, 2.7440676e+2, -297223.7, -390868.63, -9.194857, 0.001687025, -0.0000774303, -297223.7, -46409.03, 0.0, 10.016987, 9.894402 
6.7565626e+3, 2.8429317e+2, -210591.95, -317230.97, 16.51209, 0.0016873004, 0.00035190175, -210591.95, -56664.363, 0.0, 10.016991, 9.877736 
6.756561e+3, 2.94172e+2, -110954.65, -216969.98, -4.1533203, 0.0016840195, -0.00013837627, -110954.65, -53839.33, 0.0, 10.016996, 9.878536 
6.75656e+3, 3.0407837e+2, -21973.326, -85279.85, 16.458717, 0.0016837816, 0.00028197168, -21973.32, -21973.32, 0.0, 10.017001, 9.933637 
6.756559e+3, 3.1401378e+2, -20956.533, -83169.71, -7.1618347, 0.001687792, 0.00005068905, -20956.533, -20956.533, 0.0, 10.017004, 9.93506 
6.766609e+3, 1.2528564e+2, -1698349.1, -1721233.3, 14.551578, 0.0016887476, 0.00021585311, -1698349.1, 13852.97, 0.0, 10.017267, 9.9869175 
6.766607e+3, 1.3527241e+2, -1601068.0, -1624544.5, -7.8876166, 0.0016909144, 0.000039180966, -1601068.0, 13263.692, 0.0, 10.017265, 9.986134 
6.766605e+3, 1.452526e+2, -1513129.9, -1545521.6, 11.293017, 0.0016915037, 0.0002999464, -1513129.9, 3396.1162, 0.0, 10.017265, 9.974344 
6.7666024e+3, 1.552269e+2, -1415492.6, -1448289.6, -11.790641, 0.001690461, 0.00010712413, -1415492.6, 3284.98, 0.0, 10.017267, 9.973814 
6.7666e+3, 1.6519463e+2, -1327507.6, -1369503.9, 10.205251, 0.0016905096, 0.00018801112, -1327507.6, -6413.5933, 0.0, 10.017267, 9.961733 
6.766598e+3, 1.751564e+2, -1229646.0, -1271956.5, -13.49577, 0.001691613, 0.00008564669, -1229646.0, -6177.462, 0.0, 10.017266, 9.96132 
6.7665964e+3, 1.8511155e+2, -1141631.1, -1193450.1, 9.345327, 0.0016921787, 0.0002291898, -1141631.1, -15723.09, 0.0, 10.017265, 9.948885 
6.766594e+3, 1.9506048e+2, -1043576.3, -1095658.9, -15.046148, 0.0016921893, 0.00009314622, -1043576.3, -15167.697, 0.0, 10.017265, 9.948542 
6.766592e+3, 2.050026e+2, -955666.06, -1017714.3, 5.558171, 0.001692146, 0.00021299388, -955666.06, -24690.426, 0.0, 10.017265, 9.935549 
6.766591e+3, 2.149382e+2, -857473.25, -919785.1, -17.32082, 0.0016920374, 0.000018973145, -857473.25, -23866.336, 0.0, 10.017265, 9.935206 
6.7665887e+3, 2.24867e+2, -769365.75, -841832.75, 4.720267, 0.001692517, 0.00026468266, -769365.75, -33061.277, 0.0, 10.017265, 9.922021 
6.766587e+3, 2.3478907e+2, -671025.06, -743749.6, -19.75684, 0.001693579, 0.000049799422, -671025.06, -31957.023, 0.0, 10.017265, 9.921688 
6.766586e+3, 2.4470419e+2, -582809.75, -665982.7, 7.7868733, 0.0016936761, 0.00020856714, -582809.75, -40909.74, 0.0, 10.017266, 9.908187 
6.766584e+3, 2.5461248e+2, -484147.22, -567401.06, -16.174088, 0.0016926853, 0.000022899165, -484147.22, -39348.63, 0.0, 10.017268, 9.908084 
6.766583e+3, 2.6451367e+2, -396039.6, -490272.94, 11.588636, 0.0016928081, 0.0002669343, -396039.6, -48272.54, 0.0, 10.01727, 9.893921 
6.766581e+3, 2.7440813e+2, -296845.7, -390757.47, -11.613235, 0.0016942233, -0.00007925447, -296845.7, -46044.42, 0.0, 10.017273, 9.894335 
6.76658e+3, 2.842945e+2, -210213.75, -317117.4, 14.460043, 0.0016946201, 0.00035022112, -210213.75, -56298.934, 0.0, 10.017277, 9.877672 
6.7665786e+3, 2.9417324e+2, -110582.07, -216860.1, -7.424602, 0.0016936857, -0.00013649465, -110582.07, -53478.918, 0.0, 10.01728, 9.878472 
6.7665774e+3, 3.0407953e+2, -21608.225, -85183.695, 13.943436, 0.0016935033, 0.00028411977, -21608.223, -21608.223, 0.0, 10.017285, 9.933564 
6.766576e+3, 3.1401488e+2, -20582.52, -83070.086, -8.307177, 0.0016943408, 0.00004849109, -20582.518, -20582.518, 0.0, 10.017296, 9.934987 
6.776627e+3, 1.2528796e+2, -1698403.5, -1721334.3, 12.250636, 0.0016968752, 0.00021546373, -1698403.5, 13775.776, 0.0, 10.017267, 9.986856 
6.776624e+3, 1.3527468e+2, -1601120.5, -1624644.1, -10.060993, 0.0016986645, 0.000037940397, -1601120.5, 13189.024, 0.0, 10.017266, 9.986072 
6.776622e+3, 1.4525479e+2, -1513182.8, -1545622.9, 10.452333, 0.0016992759, 0.0002990661, -1513182.8, 3321.6548, 0.0, 10.017266, 9.974281 
6.7766196e+3, 1.5522905e+2, -1415545.9, -1448390.8, -12.637103, 0.0016986137, 0.00010768805, -1415545.9, 3210.8032, 0.0, 10.017267, 9.973751 
6.776618e+3, 1.651967e+2, -1327561.1, -1369605.9, 8.03511, 0.00169883, 0.00018850357, -1327561.1, -6487.42, 0.0, 10.017267, 9.961669 
6.776616e+3, 1.7515841e+2, -1229698.1, -1272057.6, -15.601504, 0.001699905, 0.00008467819, -1229698.1, -6249.3633, 0.0, 10.017266, 9.961256 
6.776613e+3, 1.8511349e+2, -1141683.3, -1193552.0, 7.938969, 0.0017001628, 0.0002280382, -1141683.3, -15794.318, 0.0, 10.017265, 9.948821 
6.776611e+3, 1.9506235e+2, -1043628.06, -1095760.1, -16.399576, 0.0016996013, 0.00009301887, -1043628.06, -15237.865, 0.0, 10.017265, 9.948478 
6.77661e+3, 2.0500442e+2, -955714.25, -1017809.06, 4.137864, 0.0017000197, 0.00021343959, -955714.25, -24756.4, 0.0, 10.017265, 9.935489 
6.7766076e+3, 2.1493994e+2, -857520.9, -919879.3, -18.726519, 0.0017013919, 0.000019548821, -857520.8, -23931.19, 0.0, 10.017265, 9.935146 
6.776606e+3, 2.248687e+2, -769416.9, -841934.75, 3.4725451, 0.0017014372, 0.0002643446, -769416.9, -33129.047, 0.0, 10.017265, 9.921956 
6.7766047e+3, 2.3479071e+2, -671075.25, -743850.94, -20.952843, 0.0017000765, 0.00004746411, -671075.25, -32023.174, 0.0, 10.017265, 9.921622 
6.776602e+3, 2.4470575e+2, -582859.94, -666084.7, 7.3000407, 0.0017005081, 0.00020740749, -582859.94, -40975.266, 0.0, 10.017266, 9.908121 
6.776601e+3, 2.54614e+2, -484197.13, -567502.6, -16.63393, 0.0017028949, 0.000026418033, -484197.13, -39413.246, 0.0, 10.017268, 9.908018 
6.7766e+3, 2.645151e+2, -396089.28, -490374.63, 11.594866, 0.0017029105, 0.00026940196, -396089.28, -48336.28, 0.0, 10.01727, 9.893855 
6.776598e+3, 2.7440947e+2, -296894.47, -390858.34, -11.5173, 0.0017000851, -0.00008462828, -296894.47, -46106.566, 0.0, 10.017274, 9.894268 
6.776597e+3, 2.842958e+2, -210261.1, -317216.44, 14.715755, 0.0017003774, 0.00034526657, -210261.1, -56358.98, 0.0, 10.017277, 9.877607 
6.776596e+3, 2.9417446e+2, -110628.38, -216958.19, -7.182971, 0.0017046558, -0.00013042061, -110628.38, -53537.375, 0.0, 10.017281, 9.878407 
6.7765945e+3, 3.0408072e+2, -21657.451, -85287.9, 16.382517, 0.0017049473, 0.00029109727, -21657.447, -21657.447, 0.0, 10.017286, 9.933494 
6.7765933e+3, 3.1401598e+2, -20633.008, -83175.42, -5.6221895, 0.0016995781, 0.000042123374, -20633.008, -20633.008, 0.0, 10.017296, 9.934916 
6.786643e+3, 1.2529029e+2, -1697999.1, -1721188.8, 13.069171, 0.0017055755, 0.00021517699, -1697999.0, 14157.499, 0.0, 10.0175495, 9.986794 
6.7866415e+3, 1.3527693e+2, -1600710.8, -1624496.9, -9.456367, 0.0017059238, 0.000037880036, -1600710.8, 13576.698, 0.0, 10.017553, 9.98601 
6.786639e+3, 1.4525698e+2, -1512774.9, -1545479.5, 9.914505, 0.0017064972, 0.00029888802, -1512774.9, 3708.0044, 0.0, 10.017554, 9.974218 
6.7866373e+3, 1.5523118e+2, -1415144.6, -1448251.9, -13.698128, 0.001707053, 0.00010707748, -1415144.6, 3591.15, 0.0, 10.017552, 9.973687 
6.786635e+3, 1.6519876e+2, -1327162.1, -1369469.6, 6.595209, 0.001707398, 0.00018793294, -1327162.1, -6108.6426, 0.0, 10.017552, 9.961605 
6.7866325e+3, 1.7516042e+2, -1229297.9, -1271921.6, -17.38382, 0.001707603, 0.00008458317, -1229297.9, -5868.6597, 0.0, 10.017553, 9.961192 
6.786631e+3, 1.8511543e+2, -1141284.0, -1193418.4, 5.634967, 0.0017077728, 0.0002280104, -1141284.0, -15414.096, 0.0, 10.017553, 9.948756 
6.786629e+3, 1.9506422e+2, -1043232.25, -1095629.4, -19.02345, 0.0017078614, 0.00009267067, -1043232.25, -14860.424, 0.0, 10.017552, 9.948413 
6.786627e+3, 2.0500623e+2, -955317.75, -1017674.3, 1.1833999, 0.001708369, 0.00021297958, -955317.75, -24377.646, 0.0, 10.017551, 9.935428 
6.7866254e+3, 2.149417e+2, -857127.1, -919747.06, -22.067701, 0.0017092777, 0.000019184241, -857127.1, -23554.6, 0.0, 10.017551, 9.935085 
6.7866236e+3, 2.248704e+2, -769027.94, -841811.44, 0.36108324, 0.0017093323, 0.00026418924, -769027.94, -32756.67, 0.0, 10.017551, 9.92189 
6.786622e+3, 2.3479232e+2, -670686.94, -743729.0, -24.248652, 0.0017084699, 0.00004763622, -670686.94, -31650.754, 0.0, 10.017553, 9.921556 
6.78662e+3, 2.447073e+2, -582473.94, -665966.06, 3.7484052, 0.0017088257, 0.00020731596, -582473.94, -40604.543, 0.0, 10.017553, 9.908054 
6.786619e+3, 2.546155e+2, -483815.25, -567387.2, -20.544998, 0.0017105043, 0.000025412199, -483815.25, -39045.97, 0.0, 10.017554, 9.907951 
6.786617e+3, 2.645165e+2, -395709.03, -490260.47, 8.465178, 0.0017107184, 0.0002687076, -395709.03, -47969.965, 0.0, 10.017556, 9.893788 
6.786616e+3, 2.7441084e+2, -296515.13, -390745.72, -14.635621, 0.0017091637, -0.00008355752, -296515.13, -45740.51, 0.0, 10.01756, 9.894202 
6.786614e+3, 2.8429708e+2, -209881.3, -317104.3, 11.6219225, 0.0017092559, 0.00034618322, -209881.3, -55991.836, 0.0, 10.017565, 9.877542 
6.7866135e+3, 2.9417568e+2, -110248.71, -216847.22, -10.725735, 0.0017114471, -0.00013212403, -110248.7, -53169.68, 0.0, 10.01757, 9.878341 
6.7866117e+3, 3.0408186e+2, -21285.58, -85187.336, 13.586728, 0.0017118237, 0.00028926958, -21285.576, -21285.576, 0.0, 10.017575, 9.933423 
6.786611e+3, 3.1401706e+2, -20265.746, -83077.62, -8.51656, 0.0017095897, 0.000043708726, -20265.744, -20265.744, 0.0, 10.017581, 9.934844 
6.796661e+3, 1.2529261e+2, -1698053.0, -1721289.9, 12.7232685, 0.0017145734, 0.00021493089, -1698053.0, 14080.772, 0.0, 10.0175495, 9.9867325 
6.796659e+3, 1.352792e+2, -1600765.1, -1624598.0, -9.84606, 0.0017129905, 0.00003844007, -1600765.1, 13500.143, 0.0, 10.017552, 9.985948 
6.796657e+3, 1.4525917e+2, -1512830.8, -1545583.8, 7.687739, 0.0017134974, 0.00029907713, -1512830.8, 3630.6995, 0.0, 10.017553, 9.9741535 
6.796655e+3, 1.5523331e+2, -1415199.0, -1448355.1, -15.805807, 0.0017156568, 0.00010583107, -1415199.0, 3516.0007, 0.0, 10.017552, 9.973623 
6.796652e+3, 1.6520081e+2, -1327215.9, -1369572.8, 5.332815, 0.0017161008, 0.00018678622, -1327215.9, -6182.692, 0.0, 10.017552, 9.96154 
6.79665e+3, 1.7516242e+2, -1229351.5, -1272024.4, -18.638445, 0.0017150282, 0.000084946936, -1229351.5, -5941.9033, 0.0, 10.017553, 9.961128 
6.7966485e+3, 1.8511736e+2, -1141337.9, -1193521.9, 3.7760704, 0.0017152383, 0.00022857566, -1141337.9, -15486.943, 0.0, 10.017553, 9.948691 
6.796647e+3, 1.9506608e+2, -1043285.3, -1095732.3, -20.810379, 0.0017166112, 0.00009219778, -1043285.3, -14931.844, 0.0, 10.017552, 9.948348 
6.7966443e+3, 2.0500804e+2, -955367.06, -1017770.75, -0.4496691, 0.0017169975, 0.00021202781, -955367.06, -24444.688, 0.0, 10.017551, 9.935367 
6.796643e+3, 2.1494344e+2, -857175.5, -919842.75, -23.667517, 0.0017164011, 0.000018305665, -857175.5, -23620.133, 0.0, 10.017551, 9.935024 
6.7966413e+3, 2.2487207e+2, -769079.7, -841914.1, -0.4968049, 0.0017167103, 0.00026412445, -769079.7, -32824.9, 0.0, 10.017551, 9.921824 
6.796639e+3, 2.3479396e+2, -670738.6, -743831.44, -25.111155, 0.0017179262, 0.00004915345, -670738.56, -31718.277, 0.0, 10.017552, 9.921491 
6.796638e+3, 2.4470887e+2, -582525.94, -666069.9, 2.641146, 0.0017179854, 0.00020779486, -582525.94, -40671.74, 0.0, 10.017553, 9.907988 
6.796636e+3, 2.5461695e+2, -483865.84, -567490.0, -21.51965, 0.0017167463, 0.000021963344, -483865.84, -39111.07, 0.0, 10.017554, 9.907885 
6.796635e+3, 2.6451793e+2, -395758.53, -490361.97, 8.803351, 0.0017173175, 0.00026630604, -395758.53, -48033.348, 0.0, 10.017556, 9.893723 
6.796633e+3, 2.744122e+2, -296564.6, -390846.84, -14.380554, 0.0017199973, -0.00007901803, -296564.6, -45803.273, 0.0, 10.01756, 9.894136 
6.796632e+3, 2.8429836e+2, -209930.64, -317205.56, 12.306475, 0.0017198481, 0.00035026157, -209930.64, -56053.8, 0.0, 10.017565, 9.877475 
6.7966306e+3, 2.941769e+2, -110296.92, -216947.58, -9.704456, 0.0017160481, -0.00013802561, -110296.92, -53229.797, 0.0, 10.01757, 9.878274 
6.7966294e+3, 3.0408302e+2, -21335.693, -85292.52, 15.129748, 0.0017162947, 0.00028269438, -21335.69, -21335.69, 0.0, 10.017575, 9.9333515 
6.796628e+3, 3.1401816e+2, -20315.994, -83183.32, -7.1267157, 0.001722173, 0.00004957282, -20315.994, -20315.994, 0.0, 10.017582, 9.9347725 
6.8066794e+3, 1.2529492e+2, -1697636.4, -1721139.3, 13.059642, 0.0017214911, 0.00021441698, -1697636.4, 14474.783, 0.0, 10.01784, 9.98667 
6.806677e+3, 1.3528144e+2, -1600355.0, -1624452.0, -10.178096, 0.0017217229, 0.000037996142, -1600355.0, 13888.17, 0.0, 10.01784, 9.985885 
6.8066746e+3, 1.4526136e+2, -1512422.9, -1545441.3, 6.644359, 0.0017223179, 0.0002987164, -1512422.9, 4017.0928, 0.0, 10.017842, 9.97409 
6.806672e+3, 1.5523542e+2, -1414788.8, -1448212.4, -17.036743, 0.0017230124, 0.00010555868, -1414788.8, 3905.3738, 0.0, 10.017844, 9.973558 
6.8066704e+3, 1.6520289e+2, -1326807.3, -1369432.9, 3.292038, 0.0017233005, 0.00018648806, -1326807.3, -5794.2163, 0.0, 10.017844, 9.961475 
6.806668e+3, 1.7516442e+2, -1228947.5, -1271888.0, -21.240873, 0.0017232709, 0.000084521955, -1228947.5, -5557.4336, 0.0, 10.017843, 9.961062 
6.806666e+3, 1.8511929e+2, -1140936.6, -1193387.9, 0.6067541, 0.0017237102, 0.00022816673, -1140936.6, -15104.52, 0.0, 10.017842, 9.948626 
6.806664e+3, 1.9506794e+2, -1042886.0, -1095600.3, -24.235844, 0.0017245437, 0.000091937225, -1042886.0, -14550.746, 0.0, 10.017842, 9.948282 
6.806662e+3, 2.0500985e+2, -954965.6, -1017634.3, -3.908202, 0.0017247435, 0.00021181858, -954965.6, -24060.926, 0.0, 10.017841, 9.935306 
6.806661e+3, 2.1494518e+2, -856775.4, -919708.06, -27.431753, 0.001724307, 0.000018054634, -856775.4, -23236.994, 0.0, 10.017842, 9.934962 
6.8066585e+3, 2.2487375e+2, -768686.1, -841789.5, -4.739765, 0.0017247472, 0.00026380172, -768686.1, -32447.727, 0.0, 10.017841, 9.921758 
6.8066573e+3, 2.3479556e+2, -670350.5, -743710.75, -29.865223, 0.0017260646, 0.00004872896, -670350.5, -31345.902, 0.0, 10.01784, 9.921424 
6.8066555e+3, 2.447104e+2, -582139.06, -665950.25, -1.3192331, 0.0017261909, 0.00020750382, -582139.06, -40299.93, 0.0, 10.017841, 9.907921 
6.806654e+3, 2.5461844e+2, -483477.66, -567370.8, -25.16464, 0.0017249814, 0.000022063987, -483477.63, -38737.32, 0.0, 10.017844, 9.907819 
6.8066525e+3, 2.6451933e+2, -395373.06, -490247.38, 4.807308, 0.0017253541, 0.00026628928, -395373.06, -47661.664, 0.0, 10.017847, 9.893654 
6.806651e+3, 2.7441356e+2, -296184.9, -390736.34, -19.47196, 0.0017275659, -0.00007974934, -296184.88, -45436.676, 0.0, 10.017848, 9.894068 
6.80665e+3, 2.8429964e+2, -209550.1, -317090.8, 8.552832, 0.0017277021, 0.00034964524, -209550.1, -55685.72, 0.0, 10.017852, 9.877411 
6.8066484e+3, 2.9417813e+2, -109915.97, -216833.42, -12.143553, 0.0017251535, -0.00013746817, -109915.97, -52860.7, 0.0, 10.0178585, 9.878211 
6.806647e+3, 3.0408412e+2, -20963.168, -85194.17, 13.110224, 0.0017252764, 0.00028323746, -20963.166, -20963.166, 0.0, 10.017866, 9.933279 
6.806646e+3, 3.1401923e+2, -19942.727, -83085.62, -10.421992, 0.0017290976, 0.00004846402, -19942.725, -19942.725, 0.0, 10.017873, 9.934699 
6.8166965e+3, 1.2529723e+2, -1697693.4, -1721244.1, 11.421502, 0.001727386, 0.00021375211, -1697693.4, 14395.103, 0.0, 10.017839, 9.986606 
6.816695e+3, 1.352837e+2, -1600410.8, -1624555.9, -11.709227, 0.0017313366, 0.000037006477, -1600410.8, 13810.4375, 0.0, 10.01784, 9.985821 
6.8166924e+3, 1.4526355e+2, -1512478.6, -1545545.9, 5.657258, 0.0017320957, 0.0002980516, -1512478.6, 3939.9443, 0.0, 10.017841, 9.974025 
6.8166906e+3, 1.5523756e+2, -1414844.4, -1448316.6, -18.071243, 0.0017297626, 0.00010579465, -1414844.4, 3828.9988, 0.0, 10.017843, 9.973494 
6.816688e+3, 1.6520494e+2, -1326863.5, -1369539.0, 1.2086337, 0.0017297703, 0.00018663306, -1326863.5, -5870.695, 0.0, 10.017843, 9.96141 
6.816686e+3, 1.751664e+2, -1229002.9, -1271993.4, -23.203098, 0.0017319756, 0.000083670326, -1229002.9, -5632.3306, 0.0, 10.017843, 9.960997 
6.816684e+3, 1.8512121e+2, -1140991.1, -1193492.5, -1.19959, 0.0017327311, 0.00022723191, -1140991.1, -15177.897, 0.0, 10.017842, 9.94856 
6.816682e+3, 1.950698e+2, -1042939.75, -1095704.0, -26.037115, 0.0017320699, 0.000091779024, -1042939.7, -14622.704, 0.0, 10.017841, 9.948216 
6.8166804e+3, 2.0501164e+2, -955016.1, -1017732.2, -5.361981, 0.0017320615, 0.0002119957, -955016.1, -24129.004, 0.0, 10.017841, 9.935244 
6.816678e+3, 2.1494691e+2, -856825.6, -919805.5, -28.843847, 0.001732682, 0.000018134724, -856825.6, -23304.275, 0.0, 10.017841, 9.9349 
6.816677e+3, 2.248754e+2, -768739.9, -841894.75, -6.5569224, 0.0017331784, 0.00026333722, -768739.9, -32517.861, 0.0, 10.017841, 9.921691 
6.816675e+3, 2.3479716e+2, -670402.9, -743815.0, -31.592087, 0.0017335138, 0.000047256624, -670402.8, -31413.963, 0.0, 10.01784, 9.921357 
6.816673e+3, 2.4471194e+2, -582190.06, -666052.4, -1.4699804, 0.0017339039, 0.00020679332, -582190.06, -40365.992, 0.0, 10.017841, 9.907855 
6.816672e+3, 2.546199e+2, -483528.97, -567472.7, -25.394459, 0.0017343297, 0.000024064766, -483528.94, -38803.05, 0.0, 10.017844, 9.907752 
6.8166703e+3, 2.6452076e+2, -395426.44, -490354.16, 4.0085135, 0.0017342139, 0.0002675482, -395426.44, -47728.793, 0.0, 10.017846, 9.893585 
6.816669e+3, 2.744149e+2, -296236.56, -390842.1, -19.976126, 0.0017334209, -0.00008331691, -296236.56, -45501.387, 0.0, 10.017848, 9.893998 
6.8166673e+3, 2.843009e+2, -209596.47, -317186.66, 10.057188, 0.0017341136, 0.00034650596, -209596.47, -55744.492, 0.0, 10.017852, 9.877348 
6.816667e+3, 2.9417932e+2, -109962.43, -216928.45, -10.890218, 0.0017366906, -0.00013344741, -109962.43, -52918.984, 0.0, 10.0178585, 9.878148 
6.816665e+3, 3.0408528e+2, -21017.021, -85304.63, 14.502308, 0.0017367025, 0.00028760653, -21017.018, -21017.018, 0.0, 10.017865, 9.933205 
6.8166643e+3, 3.1402028e+2, -19996.416, -83197.2, -8.536066, 0.0017330482, 0.0000436156, -19996.414, -19996.414, 0.0, 10.017873, 9.934624 
6.826715e+3, 1.2529954e+2, -1697274.5, -1721093.5, 11.673294, 0.0017361215, 0.0002132707, -1697274.5, 14791.349, 0.0, 10.018132, 9.986541 
6.8267125e+3, 1.3528593e+2, -1599990.3, -1624405.5, -11.767453, 0.0017383494, 0.000036545953, -1599990.3, 14208.915, 0.0, 10.018135, 9.985757 
6.8267107e+3, 1.4526573e+2, -1512060.8, -1545399.8, 4.4692616, 0.001739039, 0.00029760718, -1512060.8, 4336.472, 0.0, 10.018137, 9.973959 
6.826708e+3, 1.5523966e+2, -1414431.1, -1448174.1, -20.096987, 0.0017381102, 0.00010535571, -1414431.1, 4221.5474, 0.0, 10.018137, 9.973428 
6.826706e+3, 1.6520698e+2, -1326452.5, -1369398.4, -1.7590505, 0.0017383458, 0.00018625108, -1326452.5, -5479.709, 0.0, 10.018137, 9.961344 
6.826704e+3, 1.7516838e+2, -1228593.1, -1271854.5, -26.260715, 0.0017397053, 0.000083395156, -1228593.1, -5242.074, 0.0, 10.018137, 9.960931 
6.8267024e+3, 1.8512315e+2, -1140583.4, -1193356.5, -4.6908603, 0.0017401982, 0.00022693239, -1140583.4, -14788.895, 0.0, 10.018136, 9.948494 
6.8267e+3, 1.9507165e+2, -1042534.3, -1095570.4, -30.145601, 0.0017398223, 0.00009132958, -1042534.25, -14235.39, 0.0, 10.018136, 9.948151 
6.826698e+3, 2.0501341e+2, -954610.4, -1017594.25, -10.122187, 0.0017401132, 0.00021157392, -954610.4, -23740.719, 0.0, 10.018134, 9.935181 
6.8266964e+3, 2.1494864e+2, -856425.06, -919671.4, -33.888496, 0.0017410466, 0.000017916818, -856425.06, -22920.557, 0.0, 10.018132, 9.934838 
6.8266946e+3, 2.2487707e+2, -768344.5, -841769.5, -11.103608, 0.0017413654, 0.00026313978, -768344.5, -32138.686, 0.0, 10.018132, 9.921624 
6.826693e+3, 2.3479876e+2, -670006.6, -743690.44, -36.126846, 0.0017410152, 0.000046890742, -670006.56, -31033.307, 0.0, 10.018133, 9.92129 
6.8266916e+3, 2.4471346e+2, -581796.94, -665931.3, -6.5059013, 0.0017414485, 0.00020644217, -581796.94, -39987.836, 0.0, 10.018134, 9.907787 
6.82669e+3, 2.5462136e+2, -483143.53, -567356.6, -31.43296, 0.001742719, 0.000023929688, -483143.53, -38431.89, 0.0, 10.018133, 9.907685 
6.8266886e+3, 2.6452214e+2, -395042.38, -490238.63, -0.7375913, 0.0017427839, 0.00026740436, -395042.38, -47358.344, 0.0, 10.018135, 9.893518 
6.826687e+3, 2.744162e+2, -295849.6, -390726.2, -23.43475, 0.0017413866, -0.0000837327, -295849.6, -45127.38, 0.0, 10.01814, 9.893931 
6.8266857e+3, 2.8430215e+2, -209210.45, -317072.38, 6.3779497, 0.0017417847, 0.00034609478, -209210.45, -55370.777, 0.0, 10.018145, 9.87728 
6.826684e+3, 2.941805e+2, -109583.78, -216818.98, -16.832907, 0.0017444668, -0.00013350161, -109583.78, -52551.99, 0.0, 10.018147, 9.878081 
6.826683e+3, 3.040864e+2, -20645.63, -85203.945, 10.154811, 0.0017447739, 0.0002877191, -20645.629, -20645.629, 0.0, 10.018153, 9.933134 
6.826682e+3, 3.1402132e+2, -19620.31, -83094.6, -10.623682, 0.0017416741, 0.000043656233, -19620.31, -19620.31, 0.0, 10.018165, 9.934552 
6.8367326e+3, 1.2530185e+2, -1697332.3, -1721199.5, 10.907932, 0.0017463376, 0.00021287416, -1697332.3, 14710.981, 0.0, 10.018131, 9.986477 
6.836731e+3, 1.3528818e+2, -1600047.5, -1624511.0, -12.540477, 0.0017440647, 0.000036358513, -1600047.5, 14129.67, 0.0, 10.018134, 9.985692 
6.8367285e+3, 1.452679e+2, -1512119.4, -1545508.6, 2.6318676, 0.0017445693, 0.00029727348, -1512119.4, 4256.413, 0.0, 10.018136, 9.973892 
6.8367267e+3, 1.5524177e+2, -1414489.0, -1448282.1, -21.786007, 0.0017473156, 0.00010454938, -1414489.0, 4142.9556, 0.0, 10.018136, 9.973361 
6.836724e+3, 1.6520903e+2, -1326509.1, -1369504.8, -3.582872, 0.0017480334, 0.00018557851, -1326509.1, -5556.3496, 0.0, 10.018136, 9.961278 
6.836722e+3, 1.7517036e+2, -1228649.1, -1271960.3, -28.117641, 0.0017469584, 0.00008341391, -1228649.1, -5317.3696, 0.0, 10.018136, 9.960865 
6.83672e+3, 1.8512505e+2, -1140640.0, -1193464.0, -6.678186, 0.0017468996, 0.00022696056, -1140640.0, -14864.249, 0.0, 10.018135, 9.948426 
6.8367183e+3, 1.950735e+2, -1042590.5, -1095677.3, -32.012814, 0.0017477457, 0.00009072145, -1042590.5, -14309.658, 0.0, 10.018135, 9.948083 
6.8367165e+3, 2.050152e+2, -954662.2, -1017693.5, -12.380885, 0.0017485876, 0.00021082879, -954662.2, -23809.975, 0.0, 10.018133, 9.935119 
6.836714e+3, 2.1495035e+2, -856475.7, -919769.7, -36.134747, 0.0017494126, 0.000017526172, -856475.7, -22988.025, 0.0, 10.018132, 9.934776 
6.836713e+3, 2.2487873e+2, -768398.2, -841874.4, -12.12279, 0.0017494416, 0.00026307305, -768398.2, -32208.594, 0.0, 10.018131, 9.921557 
6.836711e+3, 2.3480034e+2, -670060.5, -743795.06, -37.151882, 0.0017486144, 0.000047116966, -670060.44, -31102.729, 0.0, 10.018132, 9.921224 
6.8367094e+3, 2.4471498e+2, -581851.7, -666038.44, -8.273449, 0.0017489706, 0.00020628267, -581851.7, -40057.414, 0.0, 10.018132, 9.907719 
6.836708e+3, 2.5462282e+2, -483196.5, -567462.56, -33.007996, 0.0017506008, 0.000022636172, -483196.5, -38499.066, 0.0, 10.018132, 9.907617 
6.8367064e+3, 2.6452354e+2, -395092.53, -490339.53, -0.02110839, 0.0017511961, 0.00026649787, -395092.53, -47422.035, 0.0, 10.018134, 9.893453 
6.836705e+3, 2.7441752e+2, -295900.25, -390826.84, -22.899088, 0.0017505302, -0.000082452745, -295900.25, -45190.94, 0.0, 10.018139, 9.893867 
6.8367034e+3, 2.843034e+2, -209263.36, -317178.34, 6.1317883, 0.0017501967, 0.00034715608, -209263.36, -55435.938, 0.0, 10.018143, 9.877212 
6.836703e+3, 2.941817e+2, -109634.65, -216923.84, -16.593945, 0.0017502708, -0.00013575738, -109634.64, -52614.4, 0.0, 10.0181465, 9.878012 
6.836701e+3, 3.0408752e+2, -20694.813, -85306.0, 13.410049, 0.001751074, 0.00028553154, -20694.81, -20694.81, 0.0, 10.018153, 9.933065 
6.8367004e+3, 3.1402236e+2, -19671.033, -83197.28, -7.591016, 0.0017528221, 0.000046306828, -19671.031, -19671.031, 0.0, 10.018164, 9.934484 
6.8467516e+3, 1.2530415e+2, -1696904.6, -1721045.8, 10.726209, 0.0017533065, 0.00021237443, -1696904.6, 15116.119, 0.0, 10.01843, 9.986411 
6.846749e+3, 1.3529041e+2, -1599622.4, -1624359.8, -13.422431, 0.0017524163, 0.000036043348, -1599622.4, 14532.9, 0.0, 10.018434, 9.985626 
6.846747e+3, 1.4527008e+2, -1511696.8, -1545360.8, 0.38358676, 0.0017530433, 0.0002969557, -1511696.8, 4657.779, 0.0, 10.018435, 9.973825 
6.8467444e+3, 1.5524386e+2, -1414068.4, -1448136.5, -24.067444, 0.0017547803, 0.00010405442, -1414068.4, 4542.9375, 0.0, 10.0184355, 9.973295 
6.8467426e+3, 1.6521107e+2, -1326091.0, -1369362.1, -6.616192, 0.0017552925, 0.00018505921, -1326091.0, -5158.161, 0.0, 10.0184355, 9.96121 
6.84674e+3, 1.7517233e+2, -1228233.8, -1271820.1, -32.007065, 0.0017547453, 0.00008301309, -1228233.6, -4921.2583, 0.0, 10.018435, 9.960798 
6.8467385e+3, 1.8512696e+2, -1140227.4, -1193326.0, -11.529006, 0.0017550119, 0.00022663064, -1140227.4, -14470.326, 0.0, 10.018433, 9.9483595 
6.846736e+3, 1.9507533e+2, -1042182.5, -1095542.8, -36.933533, 0.0017559922, 0.00009041503, -1042182.5, -13919.6455, 0.0, 10.018431, 9.948016 
6.846735e+3, 2.0501697e+2, -954253.06, -1017554.9, -17.305504, 0.0017565383, 0.00021045652, -954253.06, -23418.2, 0.0, 10.018429, 9.935056 
6.846733e+3, 2.1495205e+2, -856067.4, -919632.6, -41.5014, 0.0017566457, 0.000017002434, -856067.4, -22596.418, 0.0, 10.018429, 9.934712 
6.846731e+3, 2.2488037e+2, -767996.75, -841746.94, -18.000832, 0.0017569317, 0.0002626799, -767996.75, -31823.23, 0.0, 10.018427, 9.92149 
6.8467295e+3, 2.348019e+2, -669666.3, -743672.5, -43.57436, 0.0017573666, 0.000047145924, -669666.3, -30723.986, 0.0, 10.018425, 9.921156 
6.846728e+3, 2.4471648e+2, -581459.3, -665917.2, -13.819919, 0.0017576336, 0.0002061832, -581459.3, -39679.82, 0.0, 10.018424, 9.907652 
6.846726e+3, 2.5462425e+2, -482802.22, -567341.44, -37.916813, 0.0017576909, 0.000021802227, -482802.22, -38118.875, 0.0, 10.018427, 9.907549 
6.846725e+3, 2.645249e+2, -394701.75, -490222.8, -5.165224, 0.0017582137, 0.00026580074, -394701.75, -47044.68, 0.0, 10.018428, 9.893384 
6.846723e+3, 2.7441883e+2, -295518.53, -390715.8, -29.77244, 0.0017592461, -0.000081981474, -295518.53, -44821.98, 0.0, 10.018428, 9.893798 
6.8467224e+3, 2.8430465e+2, -208880.72, -317063.16, 0.9421778, 0.0017592066, 0.00034762468, -208880.72, -55065.406, 0.0, 10.018432, 9.877147 
6.8467206e+3, 2.9418287e+2, -109247.055, -216807.06, -19.360746, 0.0017577766, -0.00013679499, -109247.055, -52238.28, 0.0, 10.01844, 9.877948 
6.84672e+3, 3.0408862e+2, -20316.553, -85205.03, 11.104447, 0.0017582338, 0.00028426756, -20316.55, -20316.55, 0.0, 10.018448, 9.932992 
6.846719e+3, 3.140234e+2, -19300.986, -83101.26, -12.605879, 0.0017612624, 0.00004664778, -19300.984, -19300.984, 0.0, 10.018453, 9.93441 
6.8567693e+3, 1.2530646e+2, -1696964.4, -1721155.0, 9.879795, 0.0017586596, 0.00021181075, -1696964.4, 15033.758, 0.0, 10.018429, 9.986344 
6.8567675e+3, 1.3529265e+2, -1599681.9, -1624468.4, -14.206587, 0.0017621506, 0.000035638175, -1599681.9, 14451.516, 0.0, 10.018432, 9.98556 
6.856765e+3, 1.4527224e+2, -1511756.1, -1545469.8, -1.3600131, 0.001763052, 0.00029662641, -1511756.1, 4577.2637, 0.0, 10.018434, 9.973759 
6.8567634e+3, 1.5524597e+2, -1414126.8, -1448244.6, -25.852352, 0.0017613858, 0.00010371885, -1414126.8, 4464.039, 0.0, 10.018434, 9.973228 
6.856761e+3, 1.6521311e+2, -1326150.1, -1369472.6, -8.723786, 0.0017613473, 0.00018461839, -1326150.1, -5237.28, 0.0, 10.018434, 9.961143 
6.8567586e+3, 1.7517428e+2, -1228292.5, -1271930.0, -33.974705, 0.001762855, 0.000082379156, -1228292.5, -4999.316, 0.0, 10.018433, 9.96073 
6.856757e+3, 1.8512884e+2, -1140284.8, -1193433.9, -14.109333, 0.0017638867, 0.00022609731, -1140284.8, -14546.3, 0.0, 10.018432, 9.948292 
6.856755e+3, 1.9507717e+2, -1042238.8, -1095649.8, -39.524105, 0.0017644174, 0.00009025593, -1042238.8, -13993.887, 0.0, 10.01843, 9.947949 
6.8567526e+3, 2.0501874e+2, -954306.2, -1017656.06, -19.244967, 0.0017642424, 0.00021027532, -954306.1, -23488.58, 0.0, 10.018428, 9.934992 
6.8567514e+3, 2.1495375e+2, -856120.4, -919733.4, -43.376328, 0.0017633635, 0.00001641155, -856120.3, -22666.055, 0.0, 10.018427, 9.934649 
6.8567497e+3, 2.24882e+2, -768052.8, -841854.6, -20.44305, 0.001764179, 0.00026210988, -768052.8, -31895.324, 0.0, 10.018426, 9.921421 
6.856747e+3, 2.3480348e+2, -669721.1, -743779.25, -45.93598, 0.0017667066, 0.00004704077, -669721.06, -30794.096, 0.0, 10.018423, 9.921087 
6.856746e+3, 2.4471799e+2, -581512.44, -666021.1, -14.412832, 0.0017668844, 0.00020609636, -581512.4, -39747.598, 0.0, 10.018423, 9.907585 
6.856745e+3, 2.5462568e+2, -482855.5, -567445.1, -38.579994, 0.0017644551, 0.000021242624, -482855.47, -38186.176, 0.0, 10.018425, 9.907482 
6.856743e+3, 2.6452625e+2, -394757.3, -490331.94, -6.534412, 0.0017645941, 0.0002652387, -394757.3, -47113.625, 0.0, 10.018427, 9.893313 
6.856742e+3, 2.744201e+2, -295572.34, -390823.9, -30.822989, 0.0017677202, -0.00008199294, -295572.34, -44888.48, 0.0, 10.018427, 9.893727 
6.85674e+3, 2.8430587e+2, -208928.27, -317159.0, 2.8991082, 0.0017685, 0.00034773085, -208928.27, -55124.97, 0.0, 10.018431, 9.877085 
6.8567395e+3, 2.9418403e+2, -109295.1, -216902.17, -17.628609, 0.0017662558, -0.00013713805, -109295.09, -52297.74, 0.0, 10.018438, 9.877886 
6.8567383e+3, 3.0408973e+2, -20373.293, -85318.516, 11.720838, 0.0017659438, 0.00028356392, -20373.291, -20373.291, 0.0, 10.018446, 9.932917 
6.8567365e+3, 3.1402442e+2, -19356.658, -83215.66, -11.474332, 0.0017682696, 0.000045719964, -19356.656, -19356.656, 0.0, 10.018452, 9.934333 
6.866788e+3, 1.2530874e+2, -1696528.6, -1720998.4, 9.618267, 0.0017667002, 0.00021132431, -1696528.6, 15447.041, 0.0, 10.018734, 9.986279 
6.866786e+3, 1.3529487e+2, -1599250.0, -1624315.0, -14.89796, 0.0017695266, 0.000034875986, -1599250.0, 14861.579, 0.0, 10.018735, 9.985494 
6.8667835e+3, 1.452744e+2, -1511327.4, -1545320.5, -3.267014, 0.0017703752, 0.00029595467, -1511327.4, 4984.8047, 0.0, 10.018737, 9.973691 
6.866782e+3, 1.5524806e+2, -1413699.5, -1448097.3, -28.727615, 0.0017691941, 0.00010345608, -1413699.5, 4870.774, 0.0, 10.018738, 9.97316 
6.8667793e+3, 1.6521512e+2, -1325725.4, -1369327.3, -13.046704, 0.001769368, 0.00018437041, -1325725.4, -4832.339, 0.0, 10.018737, 9.961075 
6.8667775e+3, 1.7517623e+2, -1227872.6, -1271788.4, -38.33084, 0.0017708404, 0.0000817905, -1227872.6, -4598.577, 0.0, 10.018735, 9.960662 
6.866775e+3, 1.8513073e+2, -1139867.9, -1193295.1, -18.986044, 0.0017716035, 0.00022546803, -1139867.9, -14147.89, 0.0, 10.018732, 9.948224 
6.8667734e+3, 1.9507898e+2, -1041823.9, -1095513.1, -45.14236, 0.0017716445, 0.00008986501, -1041823.8, -13596.697, 0.0, 10.01873, 9.947881 
6.8667716e+3, 2.0502047e+2, -953891.0, -1017515.06, -25.554277, 0.0017717928, 0.00021003878, -953891.0, -23090.586, 0.0, 10.018728, 9.934928 
6.86677e+3, 2.1495545e+2, -855711.56, -919596.75, -49.902, 0.0017720326, 0.000016248678, -855711.5, -22273.768, 0.0, 10.018724, 9.934586 
6.866768e+3, 2.2488362e+2, -767650.25, -841727.06, -26.697725, 0.0017726116, 0.00026173703, -767650.25, -31508.633, 0.0, 10.018722, 9.921353 
6.866766e+3, 2.3480502e+2, -669319.2, -743653.2, -52.25313, 0.0017735059, 0.00004616518, -669319.2, -30407.406, 0.0, 10.018721, 9.92102 
6.8667644e+3, 2.4471946e+2, -581114.0, -665898.0, -20.8184, 0.0017738347, 0.000205504, -581114.0, -39363.746, 0.0, 10.01872, 9.907517 
6.866763e+3, 2.546271e+2, -482464.88, -567327.0, -45.926292, 0.0017735137, 0.000021793961, -482464.84, -37809.434, 0.0, 10.018718, 9.907414 
6.8667614e+3, 2.645276e+2, -394368.66, -490215.06, -12.75544, 0.0017736976, 0.00026558357, -394368.66, -46738.188, 0.0, 10.018719, 9.893246 
6.86676e+3, 2.744214e+2, -295181.47, -390707.03, -35.677074, 0.0017744359, -0.000083443425, -295181.44, -44510.14, 0.0, 10.018723, 9.89366 
6.866759e+3, 2.843071e+2, -208539.06, -317042.8, -1.5982738, 0.0017750221, 0.00034636806, -208539.06, -54747.664, 0.0, 10.018725, 9.877018 
6.866758e+3, 2.941852e+2, -108916.01, -216792.03, -24.43297, 0.0017753928, -0.00013600742, -108916.0, -51929.91, 0.0, 10.018727, 9.877819 
6.8667567e+3, 3.040908e+2, -20001.688, -85217.97, 6.7723446, 0.001775441, 0.00028495947, -20001.688, -20001.688, 0.0, 10.018734, 9.932846 
6.8667555e+3, 3.1402543e+2, -18976.064, -83111.18, -13.525535, 0.0017749607, 0.00004429007, -18976.063, -18976.063, 0.0, 10.018746, 9.934261 
6.876807e+3, 1.2531103e+2, -1696590.6, -1721109.8, 8.183578, 0.0017761389, 0.00021086058, -1696590.6, 15362.655, 0.0, 10.018731, 9.986211 
6.876805e+3, 1.3529709e+2, -1599310.5, -1624425.4, -16.308077, 0.0017757367, 0.00003393513, -1599310.5, 14779.252, 0.0, 10.018734, 9.985426 
6.8768024e+3, 1.4527655e+2, -1511389.1, -1545433.8, -4.9285717, 0.001776371, 0.000295109, -1511389.1, 4902.0117, 0.0, 10.018735, 9.973621 
6.8768e+3, 1.5525015e+2, -1413761.1, -1448210.1, -30.27201, 0.0017776609, 0.0001032057, -1413761.1, 4788.7563, 0.0, 10.018736, 9.973091 
6.876798e+3, 1.6521713e+2, -1325785.6, -1369438.0, -15.818389, 0.001778427, 0.00018419656, -1325785.6, -4912.2686, 0.0, 10.018735, 9.961006 
6.8767965e+3, 1.7517819e+2, -1227931.6, -1271898.1, -41.12343, 0.0017787815, 0.00008122448, -1227931.6, -4676.7056, 0.0, 10.018733, 9.960594 
6.8767947e+3, 1.8513261e+2, -1139927.4, -1193406.4, -21.577803, 0.0017787581, 0.00022479348, -1139927.4, -14225.733, 0.0, 10.018731, 9.948154 
6.8767923e+3, 1.950808e+2, -1041882.94, -1095623.8, -47.600185, 0.0017783246, 0.00008934419, -1041882.94, -13673.558, 0.0, 10.018728, 9.947812 
6.8767905e+3, 2.0502223e+2, -953945.56, -1017617.44, -28.57267, 0.001779319, 0.00020975553, -953945.56, -23162.246, 0.0, 10.018726, 9.934864 
6.876789e+3, 2.1495712e+2, -855765.1, -919698.3, -52.9207, 0.0017816966, 0.000016285952, -855765.06, -22343.826, 0.0, 10.018723, 9.934522 
6.8767864e+3, 2.2488524e+2, -767706.6, -841834.8, -28.73073, 0.0017816559, 0.00026145883, -767706.6, -31580.857, 0.0, 10.018721, 9.921286 
6.876785e+3, 2.3480658e+2, -669375.3, -743760.5, -54.25935, 0.001779087, 0.00004491469, -669375.25, -30478.672, 0.0, 10.018719, 9.920951 
6.8767834e+3, 2.4472095e+2, -581170.44, -666006.6, -23.0205, 0.0017796853, 0.00020465876, -581170.44, -39434.645, 0.0, 10.018718, 9.907448 
6.8767816e+3, 2.546285e+2, -482520.16, -567434.7, -47.972363, 0.0017837266, 0.000022862752, -482520.13, -37878.535, 0.0, 10.018716, 9.907345 
6.8767804e+3, 2.6452893e+2, -394421.38, -490318.16, -12.768374, 0.0017841759, 0.00026635607, -394421.38, -46804.066, 0.0, 10.018717, 9.89318 
6.8767786e+3, 2.7442268e+2, -295234.16, -390809.6, -35.78815, 0.0017803473, -0.000085572894, -295234.16, -44575.32, 0.0, 10.01872, 9.893594 
6.876778e+3, 2.8430828e+2, -208593.14, -317149.1, -2.146494, 0.0017802264, 0.00034431045, -208593.14, -54813.57, 0.0, 10.0187235, 9.876949 
6.876776e+3, 2.9418632e+2, -108968.35, -216897.3, -24.598013, 0.001784828, -0.0001342062, -108968.34, -51993.418, 0.0, 10.018726, 9.87775 
6.8767756e+3, 3.0409187e+2, -20052.486, -85320.36, 10.297561, 0.0017858025, 0.0002873444, -20052.484, -20052.484, 0.0, 10.018733, 9.932777 
6.8767744e+3, 3.1402642e+2, -19028.473, -83214.21, -10.096809, 0.0017816066, 0.00004267678, -19028.47, -19028.47, 0.0, 10.018744, 9.934194 
6.886826e+3, 1.2531331e+2, -1696149.5, -1720952.1, 7.897887, 0.0017836598, 0.00021019162, -1696149.5, 15781.36, 0.0, 10.01904, 9.986142 
6.886824e+3, 1.352993e+2, -1598868.8, -1624268.5, -17.374083, 0.0017833085, 0.000033718206, -1598868.8, 15199.352, 0.0, 10.019044, 9.985357 
6.8868214e+3, 1.452787e+2, -1510950.3, -1545280.4, -7.983945, 0.0017840469, 0.00029484008, -1510950.3, 5319.7744, 0.0, 10.019046, 9.973553 
6.8868196e+3, 1.5525223e+2, -1413328.5, -1448061.1, -33.500202, 0.0017854808, 0.00010242662, -1413328.5, 5200.983, 0.0, 10.019044, 9.9730215 
6.886817e+3, 1.6521914e+2, -1325356.5, -1369292.1, -20.034061, 0.0017861128, 0.00018342376, -1325356.5, -4502.8833, 0.0, 10.019042, 9.960937 
6.886815e+3, 1.7518014e+2, -1227504.4, -1271754.4, -46.22156, 0.0017860804, 0.0000809316, -1227504.4, -4268.4365, 0.0, 10.01904, 9.960525 
6.886813e+3, 1.8513447e+2, -1139503.0, -1193264.5, -27.79185, 0.0017862914, 0.00022460024, -1139503.0, -13819.726, 0.0, 10.019037, 9.948086 
6.886811e+3, 1.9508259e+2, -1041464.75, -1095486.1, -53.888924, 0.001786673, 0.000088890854, -1041464.7, -13272.962, 0.0, 10.0190325, 9.947742 
6.886809e+3, 2.0502396e+2, -953527.8, -1017476.25, -35.18321, 0.0017874404, 0.00020915932, -953527.8, -22761.479, 0.0, 10.019028, 9.934799 
6.8868077e+3, 2.149588e+2, -855350.25, -919559.75, -60.06578, 0.0017885728, 0.000015662574, -855350.2, -21945.273, 0.0, 10.019025, 9.934457 
6.886806e+3, 2.2488683e+2, -767298.56, -841705.1, -36.000103, 0.0017887638, 0.00026108453, -767298.5, -31188.428, 0.0, 10.019021, 9.921217 
6.8868035e+3, 2.348081e+2, -668973.25, -743635.0, -61.91604, 0.0017879466, 0.00004507268, -668973.2, -30091.623, 0.0, 10.019017, 9.920883 
6.8868023e+3, 2.4472241e+2, -580771.44, -665883.2, -30.265074, 0.0017884241, 0.00020454265, -580771.44, -39050.027, 0.0, 10.019014, 9.90738 
6.8868005e+3, 2.546299e+2, -482123.2, -567313.44, -54.86337, 0.0017902942, 0.00002158737, -482123.13, -37495.223, 0.0, 10.019013, 9.907277 
6.8867993e+3, 2.6453027e+2, -394028.22, -490200.0, -19.018335, 0.0017907848, 0.0002653778, -394028.2, -46423.895, 0.0, 10.019012, 9.893111 
6.886798e+3, 2.7442393e+2, -294848.13, -390696.13, -43.20922, 0.0017896022, -0.000084536514, -294848.1, -44201.633, 0.0, 10.019012, 9.893525 
6.8867964e+3, 2.8430948e+2, -208207.17, -317033.38, -8.352591, 0.0017895994, 0.00034522812, -208207.17, -54439.3, 0.0, 10.019015, 9.8768835 
6.886795e+3, 2.9418743e+2, -108580.11, -216781.36, -29.081999, 0.0017910892, -0.00013613499, -108580.1, -51616.21, 0.0, 10.019021, 9.877685 
6.8867946e+3, 3.040929e+2, -19673.89, -85218.1, 7.1260114, 0.00179179, 0.00028522278, -19673.89, -19673.89, 0.0, 10.019027, 9.932705 
6.8867934e+3, 3.140274e+2, -18658.521, -83116.88, -15.452438, 0.0017912979, 0.000044116943, -18658.518, -18658.518, 0.0, 10.0190325, 9.93412 
6.896845e+3, 1.2531559e+2, -1696213.0, -1721066.8, 7.2918653, 0.0017902419, 0.00020940986, -1696213.0, 15695.581, 0.0, 10.019038, 9.9860735 
6.896843e+3, 1.3530152e+2, -1598932.5, -1624382.9, -17.947891, 0.0017916184, 0.000033835928, -1598932.5, 15113.957, 0.0, 10.019042, 9.985289 
6.8968403e+3, 1.4528084e+2, -1511013.8, -1545394.8, -10.691804, 0.0017926173, 0.00029483746, -1511013.8, 5235.3384, 0.0, 10.019043, 9.973483 
6.8968385e+3, 1.5525429e+2, -1413390.6, -1448174.4, -36.201054, 0.0017929943, 0.00010138365, -1413390.5, 5118.663, 0.0, 10.019042, 9.972952 
6.896836e+3, 1.6522114e+2, -1325418.9, -1369406.8, -22.736328, 0.0017931303, 0.00018235233, -1325418.9, -4584.8086, 0.0, 10.01904, 9.960867 
6.896834e+3, 1.7518207e+2, -1227566.5, -1271868.5, -48.80683, 0.0017931161, 0.0000807555, -1227566.5, -4349.496, 0.0, 10.019037, 9.960454 
6.896832e+3, 1.8513633e+2, -1139563.6, -1193376.1, -31.368244, 0.0017940698, 0.00022462565, -1139563.6, -13898.601, 0.0, 10.019034, 9.948017 
6.89683e+3, 1.950844e+2, -1041524.4, -1095596.9, -57.462955, 0.0017958726, 0.00008846344, -1041524.3, -13350.204, 0.0, 10.01903, 9.947674 
6.8968284e+3, 2.0502569e+2, -953584.0, -1017581.06, -38.404816, 0.0017958764, 0.00020840549, -953584.0, -22834.572, 0.0, 10.019026, 9.934734 
6.8968266e+3, 2.1496046e+2, -855405.9, -919663.9, -63.20207, 0.0017941106, 0.000014705687, -855405.8, -22017.156, 0.0, 10.019022, 9.934391 
6.896825e+3, 2.2488843e+2, -767356.7, -841814.75, -39.047867, 0.0017949587, 0.00026065196, -767356.7, -31262.2, 0.0, 10.019018, 9.921147 
6.896823e+3, 2.3480964e+2, -669030.9, -743744.06, -64.92354, 0.0017984576, 0.000045911725, -669030.8, -30164.172, 0.0, 10.019014, 9.920814 
6.896821e+3, 2.4472386e+2, -580827.7, -665990.25, -32.372143, 0.0017986211, 0.00020477812, -580827.7, -39120.56, 0.0, 10.0190115, 9.907311 
6.89682e+3, 2.5463128e+2, -482178.63, -567419.7, -56.94952, 0.001795101, 0.000019162466, -482178.6, -37564.277, 0.0, 10.019011, 9.907209 
6.896818e+3, 2.6453158e+2, -394084.47, -490308.66, -20.50407, 0.001795518, 0.00026353935, -394084.47, -46493.094, 0.0, 10.01901, 9.893042 
6.896817e+3, 2.7442518e+2, -294903.75, -390804.2, -44.493237, 0.0018005217, -0.00008196628, -294903.72, -44269.52, 0.0, 10.01901, 9.8934555 
6.8968153e+3, 2.8431067e+2, -208258.36, -317132.78, -7.48394, 0.0018010539, 0.00034759502, -208258.36, -54502.11, 0.0, 10.019012, 9.87682 
6.896815e+3, 2.9418856e+2, -108630.77, -216879.7, -28.223433, 0.0017958517, -0.00013988151, -108630.766, -51677.83, 0.0, 10.019018, 9.877621 
6.8968135e+3, 3.0409396e+2, -19730.855, -85330.18, 8.157924, 0.0017956807, 0.00028090735, -19730.854, -19730.854, 0.0, 10.019024, 9.932631 
6.8968123e+3, 3.1402838e+2, -18715.262, -83229.94, -13.990324, 0.0018024794, 0.00004701108, -18715.258, -18715.258, 0.0, 10.019031, 9.934045 
6.906864e+3, 1.2531786e+2, -1695759.0, -1720903.9, 6.7077756, 0.0017974213, 0.00020882106, -1695759.0, 16127.285, 0.0, 10.019356, 9.986004 
6.9068617e+3, 1.3530372e+2, -1598486.0, -1624225.1, -19.068815, 0.0017994839, 0.000032966524, -1598486.0, 15538.865, 0.0, 10.019356, 9.985219 
6.90686e+3, 1.4528297e+2, -1510571.1, -1545241.1, -13.390962, 0.001800461, 0.0002940865, -1510571.1, 5656.995, 0.0, 10.019357, 9.9734125 
6.9068575e+3, 1.5525635e+2, -1412948.6, -1448022.3, -39.77228, 0.0018001766, 0.00010109469, -1412948.6, 5540.417, 0.0, 10.019356, 9.972881 
6.906856e+3, 1.6522314e+2, -1324979.9, -1369256.9, -28.01835, 0.0018004098, 0.0001820644, -1324979.9, -4165.4033, 0.0, 10.019354, 9.960796 
6.9068533e+3, 1.75184e+2, -1227134.5, -1271723.4, -54.298164, 0.0018011827, 0.00008005494, -1227134.4, -3936.2603, 0.0, 10.019348, 9.960383 
6.9068515e+3, 1.851382e+2, -1139135.9, -1193233.9, -37.787228, 0.0018020548, 0.00022388095, -1139135.9, -13488.996, 0.0, 10.019343, 9.947947 
6.90685e+3, 1.9508617e+2, -1041100.4, -1095457.6, -64.60458, 0.00180296, 0.00008801597, -1041100.25, -12943.586, 0.0, 10.019338, 9.947604 
6.906848e+3, 2.050274e+2, -953160.0, -1017437.3, -46.01048, 0.0018030953, 0.00020811813, -953160.0, -22427.357, 0.0, 10.019332, 9.934669 
6.9068456e+3, 2.149621e+2, -854987.25, -919524.06, -70.97755, 0.0018024645, 0.0000144454725, -854987.2, -21614.701, 0.0, 10.019326, 9.934326 
6.906844e+3, 2.2489001e+2, -766945.94, -841684.5, -47.05977, 0.0018032077, 0.0002602011, -766945.9, -30866.902, 0.0, 10.0193205, 9.921079 
6.906842e+3, 2.3481114e+2, -668625.44, -743617.7, -73.235176, 0.0018053274, 0.000045044988, -668625.4, -29773.559, 0.0, 10.019315, 9.920745 
6.90684e+3, 2.4472532e+2, -580425.75, -665865.56, -39.984005, 0.0018056185, 0.00020419712, -580425.75, -38732.746, 0.0, 10.019311, 9.907244 
6.906839e+3, 2.5463265e+2, -481780.97, -567298.25, -64.9476, 0.0018038744, 0.000019633348, -481780.94, -37180.074, 0.0, 10.019308, 9.907141 
6.906837e+3, 2.645329e+2, -393690.34, -490190.1, -28.012094, 0.0018042236, 0.00026373877, -393690.34, -46111.76, 0.0, 10.019306, 9.892974 
6.906836e+3, 2.7442643e+2, -294513.75, -390688.8, -51.501984, 0.0018069915, -0.00008359043, -294513.72, -43891.65, 0.0, 10.019304, 9.893387 
6.906835e+3, 2.8431186e+2, -207870.25, -317016.06, -12.863477, 0.0018075325, 0.00034616323, -207870.25, -54125.45, 0.0, 10.019305, 9.876754 
6.9068336e+3, 2.9418966e+2, -108248.13, -216766.63, -34.462547, 0.0018052049, -0.00013854893, -108248.125, -51306.023, 0.0, 10.019309, 9.877556 
6.9068325e+3, 3.04095e+2, -19356.475, -85228.58, 3.4553661, 0.0018052399, 0.0002823571, -19356.475, -19356.475, 0.0, 10.019315, 9.93256 
6.906831e+3, 3.1402937e+2, -18337.797, -83127.414, -16.85919, 0.0018085096, 0.000044911772, -18337.793, -18337.793, 0.0, 10.019323, 9.933973 
6.9168836e+3, 1.2532014e+2, -1695825.3, -1721021.4, 4.6500354, 0.0018049635, 0.00020831169, -1695825.3, 16038.694, 0.0, 10.019353, 9.985933 
6.916881e+3, 1.3530593e+2, -1598550.6, -1624341.5, -21.079231, 0.0018071387, 0.000031609, -1598550.6, 15452.615, 0.0, 10.019354, 9.985148 
6.916879e+3, 1.452851e+2, -1510636.4, -1545359.1, -15.638759, 0.0018079547, 0.00029296314, -1510636.4, 5570.938, 0.0, 10.019354, 9.973341 
6.916877e+3, 1.552584e+2, -1413013.9, -1448139.9, -41.963608, 0.0018072579, 0.00010115381, -1413013.8, 5455.0024, 0.0, 10.019353, 9.97281 
6.916875e+3, 1.6522513e+2, -1325044.0, -1369372.8, -31.925293, 0.0018078825, 0.00018214085, -1325044.0, -4249.0, 0.0, 10.01935, 9.960725 
6.916872e+3, 1.751859e+2, -1227197.5, -1271838.4, -58.176445, 0.0018097783, 0.00007909498, -1227197.5, -4018.0774, 0.0, 10.019345, 9.960313 
6.9168705e+3, 1.8514003e+2, -1139198.5, -1193348.9, -41.763256, 0.0018101563, 0.00022275772, -1139198.5, -13569.67, 0.0, 10.0193405, 9.947876 
6.9168687e+3, 1.9508795e+2, -1041162.3, -1095571.9, -68.470665, 0.0018090532, 0.00008754274, -1041162.25, -13022.935, 0.0, 10.019335, 9.947533 
6.916867e+3, 2.050291e+2, -953217.44, -1017543.0, -50.00482, 0.0018097669, 0.00020804186, -953217.4, -22501.48, 0.0, 10.019329, 9.934603 
6.9168645e+3, 2.1496375e+2, -855044.4, -919629.25, -74.9678, 0.0018122388, 0.000014519184, -855044.25, -21687.867, 0.0, 10.019323, 9.93426 
6.9168633e+3, 2.2489159e+2, -767005.6, -841795.7, -50.980045, 0.0018124963, 0.00025973815, -767005.6, -30942.055, 0.0, 10.019318, 9.921009 
6.9168615e+3, 2.3481265e+2, -668684.0, -743727.94, -77.07237, 0.0018104381, 0.000043337517, -668683.9, -29846.809, 0.0, 10.019312, 9.920675 
6.91686e+3, 2.4472675e+2, -580483.3, -665974.44, -42.62086, 0.0018110764, 0.0002032078, -580483.3, -38804.363, 0.0, 10.019308, 9.907175 
6.9168586e+3, 2.5463402e+2, -481838.63, -567406.75, -67.52614, 0.0018146309, 0.000021509182, -481838.56, -37251.117, 0.0, 10.019304, 9.907072 
6.916857e+3, 2.6453418e+2, -393746.97, -490297.06, -29.98396, 0.001814919, 0.00026492967, -393746.97, -46181.1, 0.0, 10.019302, 9.892905 
6.9168556e+3, 2.7442765e+2, -294568.94, -390794.66, -53.399837, 0.0018113148, -0.00008726193, -294568.9, -43958.855, 0.0, 10.019301, 9.893319 
6.916854e+3, 2.8431302e+2, -207923.88, -317119.63, -13.054034, 0.0018116, 0.00034288084, -207923.88, -54190.44, 0.0, 10.019302, 9.876687 
6.916853e+3, 2.9419076e+2, -108301.586, -216869.61, -34.457813, 0.0018168284, -0.00013475367, -108301.57, -51370.24, 0.0, 10.019305, 9.877489 
6.9168514e+3, 3.0409604e+2, -19411.135, -85334.06, 5.4696093, 0.0018176022, 0.00028662098, -19411.135, -19411.135, 0.0, 10.019311, 9.93249 
6.916851e+3, 3.140303e+2, -18392.455, -83233.14, -14.763191, 0.0018120642, 0.000040396644, -18392.451, -18392.451, 0.0, 10.0193205, 9.933904 
6.926903e+3, 1.253224e+2, -1695366.6, -1720858.0, 4.5079813, 0.001812951, 0.00020761203, -1695366.6, 16475.242, 0.0, 10.019674, 9.985862 
6.926901e+3, 1.3530812e+2, -1598091.5, -1624179.0, -22.03391, 0.0018140324, 0.00003128761, -1598091.5, 15890.326, 0.0, 10.019677, 9.985077 
6.9268984e+3, 1.4528722e+2, -1510181.1, -1545200.5, -19.00903, 0.0018148848, 0.00029257184, -1510181.1, 6005.4214, 0.0, 10.019676, 9.9732685 
6.9268966e+3, 1.5526047e+2, -1412566.5, -1447986.5, -45.844677, 0.001815216, 0.00010028262, -1412566.5, 5882.2915, 0.0, 10.019672, 9.972737 
6.926895e+3, 1.652271e+2, -1324601.3, -1369222.3, -37.328205, 0.0018158691, 0.00018132456, -1324601.1, -3825.518, 0.0, 10.019667, 9.960653 
6.926892e+3, 1.7518781e+2, -1226758.1, -1271690.9, -64.28921, 0.0018168889, 0.00007882326, -1226758.0, -3597.3347, 0.0, 10.019662, 9.960241 
6.92689e+3, 1.8514188e+2, -1138762.6, -1193203.4, -48.975124, 0.0018172627, 0.00022252442, -1138762.6, -13151.738, 0.0, 10.019655, 9.947804 
6.926888e+3, 1.9508971e+2, -1040732.3, -1095430.6, -75.95197, 0.0018169676, 0.00008687127, -1040732.2, -12610.178, 0.0, 10.019648, 9.947462 
6.9268864e+3, 2.050308e+2, -952789.44, -1017398.3, -58.325035, 0.0018177256, 0.00020727946, -952789.4, -22090.088, 0.0, 10.019639, 9.934537 
6.926884e+3, 2.1496536e+2, -854623.5, -919489.4, -83.83697, 0.0018194977, 0.00001400475, -854623.4, -21282.914, 0.0, 10.0196295, 9.934195 
6.926883e+3, 2.2489314e+2, -766591.75, -841664.06, -59.432423, 0.0018197735, 0.00025943917, -766591.7, -30543.436, 0.0, 10.019623, 9.920939 
6.926881e+3, 2.3481414e+2, -668273.3, -743599.1, -85.64643, 0.0018184695, 0.000043219512, -668273.2, -29450.73, 0.0, 10.019616, 9.920606 
6.926879e+3, 2.4472816e+2, -580077.44, -665848.56, -51.348503, 0.0018190668, 0.00020284265, -580077.44, -38412.406, 0.0, 10.019609, 9.907105 
6.926878e+3, 2.546354e+2, -481441.38, -567286.4, -76.513374, 0.0018217117, 0.000020428748, -481441.3, -36867.1, 0.0, 10.019602, 9.907002 
6.9268763e+3, 2.6453546e+2, -393353.6, -490178.28, -37.30982, 0.0018221111, 0.0002641446, -393353.56, -45800.293, 0.0, 10.019598, 9.892838 
6.926875e+3, 2.7442887e+2, -294177.28, -390677.8, -60.758873, 0.0018198173, -0.00008655954, -294177.25, -43579.1, 0.0, 10.019597, 9.893251 
6.9268733e+3, 2.8431416e+2, -207533.98, -317002.6, -19.795465, 0.001820037, 0.00034342762, -207533.98, -53811.81, 0.0, 10.019597, 9.876621 
6.926873e+3, 2.9419184e+2, -107918.31, -216756.86, -41.03155, 0.0018234447, -0.00013645642, -107918.3, -50997.555, 0.0, 10.019597, 9.877423 
6.926871e+3, 3.0409706e+2, -19037.65, -85232.36, 1.470428, 0.001824178, 0.0002849324, -19037.65, -19037.65, 0.0, 10.019601, 9.93242 
6.9268703e+3, 3.1403124e+2, -18019.744, -83132.28, -19.181387, 0.0018210907, 0.000041925257, -18019.738, -18019.738, 0.0, 10.019609, 9.933833 
6.9369227e+3, 1.2532467e+2, -1695434.4, -1720978.6, 3.2166054, 0.0018211541, 0.0002068087, -1695434.4, 16385.201, 0.0, 10.019671, 9.985789 
6.93692e+3, 1.353103e+2, -1598159.5, -1624299.4, -23.313272, 0.0018206289, 0.00003144619, -1598159.5, 15800.839, 0.0, 10.019673, 9.985004 
6.9369185e+3, 1.4528933e+2, -1510249.0, -1545321.3, -22.77474, 0.0018216168, 0.00029251736, -1510249.0, 5916.713, 0.0, 10.019672, 9.973196 
6.936916e+3, 1.5526251e+2, -1412633.1, -1448106.4, -49.547256, 0.0018236177, 0.00009895611, -1412633.1, 5795.569, 0.0, 10.019669, 9.972665 
6.9369143e+3, 1.6522907e+2, -1324667.1, -1369341.3, -41.488495, 0.0018241145, 0.00018007045, -1324667.0, -3910.6982, 0.0, 10.019664, 9.960581 
6.936912e+3, 1.751897e+2, -1226823.5, -1271809.3, -68.37749, 0.0018233259, 0.00007886494, -1226823.5, -3681.3667, 0.0, 10.019658, 9.960169 
6.9369096e+3, 1.851437e+2, -1138826.9, -1193319.9, -53.857693, 0.001823943, 0.000222704, -1138826.9, -13233.91, 0.0, 10.019651, 9.947734 
6.936908e+3, 1.9509146e+2, -1040796.1, -1095546.4, -80.78389, 0.0018258087, 0.00008610151, -1040796.0, -12691.178, 0.0, 10.019644, 9.947391 
6.936906e+3, 2.0503248e+2, -952849.0, -1017506.7, -63.612896, 0.0018263389, 0.0002061839, -952848.94, -22166.188, 0.0, 10.019635, 9.93447 
6.936904e+3, 2.14967e+2, -854681.8, -919596.8, -89.04668, 0.0018255555, 0.000013190597, -854681.7, -21357.117, 0.0, 10.019627, 9.934127 
6.9369024e+3, 2.248947e+2, -766652.06, -841775.6, -63.49207, 0.0018261034, 0.00025920352, -766652.0, -30618.932, 0.0, 10.019619, 9.92087 
6.9369006e+3, 2.3481563e+2, -668334.0, -743710.56, -89.694885, 0.0018279757, 0.00004386709, -668333.9, -29525.94, 0.0, 10.019612, 9.920536 
6.936899e+3, 2.4472956e+2, -580137.4, -665959.2, -55.768036, 0.0018283392, 0.000202779, -580137.3, -38486.168, 0.0, 10.019606, 9.907036 
6.9368976e+3, 2.5463673e+2, -481499.38, -567395.6, -80.81828, 0.0018270168, 0.000017909084, -481499.28, -36938.24, 0.0, 10.019599, 9.906934 
6.936896e+3, 2.6453674e+2, -393410.22, -490285.4, -39.07397, 0.0018276105, 0.0002623961, -393410.2, -45869.4, 0.0, 10.019594, 9.89277 
6.9368947e+3, 2.7443007e+2, -294234.66, -390784.88, -62.449894, 0.0018304022, -0.00008374404, -294234.63, -43648.33, 0.0, 10.019593, 9.893183 
6.936893e+3, 2.8431532e+2, -207589.61, -317106.47, -21.178997, 0.0018306553, 0.00034583206, -207589.61, -53878.637, 0.0, 10.019592, 9.876555 
6.936892e+3, 2.9419294e+2, -107971.74, -216859.11, -42.20146, 0.0018276463, -0.00014082892, -107971.73, -51061.48, 0.0, 10.019593, 9.8773575 
6.9368905e+3, 3.0409804e+2, -19093.482, -85340.38, 3.4772286, 0.0018279505, 0.00028036014, -19093.482, -19093.482, 0.0, 10.019597, 9.932348 
6.93689e+3, 3.140322e+2, -18077.283, -83241.63, -16.848923, 0.0018328204, 0.000046355482, -18077.28, -18077.28, 0.0, 10.019606, 9.933762 
6.946942e+3, 1.2532692e+2, -1694961.3, -1720809.5, 2.8590376, 0.0018277363, 0.0002061626, -1694961.3, 16836.287, 0.0, 10.020002, 9.985716 
6.9469404e+3, 1.3531248e+2, -1597694.3, -1624135.8, -24.39645, 0.0018286421, 0.000030588293, -1597694.3, 16244.711, 0.0, 10.020001, 9.984931 
6.946938e+3, 1.4529145e+2, -1509788.8, -1545161.6, -26.11821, 0.0018297123, 0.0002917543, -1509788.8, 6356.3813, 0.0, 10.019999, 9.973122 
6.946936e+3, 1.5526454e+2, -1412175.8, -1447949.4, -53.575325, 0.0018305867, 0.00009854518, -1412175.8, 6233.0264, 0.0, 10.019995, 9.972591 
6.946934e+3, 1.6523103e+2, -1324213.6, -1369186.9, -47.358368, 0.0018309777, 0.00017963166, -1324213.6, -3476.501, 0.0, 10.019988, 9.960508 
6.9469315e+3, 1.751916e+2, -1226377.1, -1271659.6, -74.765236, 0.0018310088, 0.00007806039, -1226377.0, -3253.459, 0.0, 10.0199795, 9.960095 
6.9469297e+3, 1.8514551e+2, -1138386.1, -1193173.0, -61.68185, 0.0018317947, 0.00022193215, -1138386.0, -12810.941, 0.0, 10.01997, 9.947661 
6.946928e+3, 1.950932e+2, -1040362.6, -1095404.5, -89.15505, 0.0018332186, 0.000085730324, -1040362.5, -12274.76, 0.0, 10.0199585, 9.947318 
6.9469255e+3, 2.0503417e+2, -952416.4, -1017360.5, -72.25474, 0.0018336133, 0.00020588146, -952416.3, -21749.941, 0.0, 10.019948, 9.934402 
6.946924e+3, 2.1496859e+2, -854253.1, -919453.75, -97.938965, 0.0018329908, 0.000012634766, -854253.0, -20944.152, 0.0, 10.019938, 9.93406 
6.946922e+3, 2.2489622e+2, -766232.56, -841642.06, -73.02393, 0.0018336694, 0.00025853995, -766232.44, -30214.486, 0.0, 10.019928, 9.920799 
6.94692e+3, 2.3481709e+2, -667925.25, -743583.6, -99.70306, 0.001835641, 0.00004324506, -667925.1, -29131.56, 0.0, 10.019916, 9.920465 
6.9469184e+3, 2.4473098e+2, -579732.7, -665833.56, -64.4698, 0.0018359881, 0.00020236021, -579732.6, -38095.188, 0.0, 10.019906, 9.906967 
6.946917e+3, 2.5463808e+2, -481095.4, -567271.5, -89.35694, 0.0018345228, 0.000017869987, -481095.3, -36547.31, 0.0, 10.0199, 9.906865 
6.9469154e+3, 2.6453802e+2, -393011.38, -490164.8, -47.4666, 0.0018350675, 0.00026217574, -393011.34, -45482.918, 0.0, 10.019894, 9.892701 
6.946914e+3, 2.7443126e+2, -293847.56, -390671.28, -71.27863, 0.0018379217, -0.00008479723, -293847.5, -43272.91, 0.0, 10.019886, 9.893114 
6.946913e+3, 2.8431645e+2, -207204.64, -316990.2, -27.312233, 0.0018383175, 0.00034495018, -207204.64, -53504.69, 0.0, 10.019883, 9.876491 
6.946912e+3, 2.9419398e+2, -107585.375, -216742.95, -47.555313, 0.001835551, -0.00014025965, -107585.35, -50685.523, 0.0, 10.019886, 9.877293 
6.9469106e+3, 3.0409905e+2, -18716.742, -85237.5, -0.56118876, 0.0018357614, 0.00028083715, -18716.742, -18716.742, 0.0, 10.01989, 9.932278 
6.9469094e+3, 3.1403312e+2, -17708.447, -83143.28, -20.790575, 0.0018400721, 0.00004462692, -17708.441, -17708.441, 0.0, 10.019893, 9.93369 
6.9569623e+3, 1.2532918e+2, -1695032.1, -1720933.9, 0.1402723, 0.0018336232, 0.00020557009, -1695032.1, 16743.232, 0.0, 10.019999, 9.9856415 
6.9569606e+3, 1.3531467e+2, -1597764.0, -1624259.1, -27.072342, 0.0018373417, 0.000029235694, -1597764.0, 16153.548, 0.0, 10.019998, 9.984857 
6.956958e+3, 1.4529355e+2, -1509858.3, -1545285.3, -29.914982, 0.0018384617, 0.0002906459, -1509858.3, 6266.181, 0.0, 10.019995, 9.973047 
6.956956e+3, 1.5526657e+2, -1412245.0, -1448072.4, -57.356358, 0.0018369245, 0.00009855346, -1412244.9, 6143.914, 0.0, 10.019991, 9.972517 
6.9569534e+3, 1.6523299e+2, -1324282.0, -1369308.5, -52.72473, 0.0018372452, 0.00017956524, -1324281.9, -3563.9966, 0.0, 10.019984, 9.960434 
6.9569516e+3, 1.7519349e+2, -1226444.9, -1271780.6, -80.05456, 0.0018393294, 0.00007684524, -1226444.6, -3339.5781, 0.0, 10.019976, 9.960022 
6.95695e+3, 1.8514733e+2, -1138452.4, -1193292.0, -67.829216, 0.0018402322, 0.00022070015, -1138452.3, -12894.901, 0.0, 10.019965, 9.947589 
6.956948e+3, 1.9509494e+2, -1040427.75, -1095522.5, -95.231094, 0.0018399634, 0.0000855336, -1040427.56, -12356.928, 0.0, 10.019955, 9.947246 
6.9569457e+3, 2.0503582e+2, -952477.0, -1017469.94, -77.85074, 0.0018402808, 0.00020594375, -952476.94, -21826.941, 0.0, 10.019944, 9.934336 
6.956944e+3, 2.149702e+2, -854314.06, -919563.0, -103.49549, 0.0018411546, 0.000012200646, -854313.9, -21020.76, 0.0, 10.019934, 9.933992 
6.956942e+3, 2.2489777e+2, -766295.6, -841756.4, -79.41395, 0.0018418824, 0.0002576697, -766295.5, -30292.559, 0.0, 10.019923, 9.920729 
6.95694e+3, 2.3481856e+2, -667986.44, -743696.6, -106.00025, 0.0018424152, 0.0000420004, -667986.3, -29207.08, 0.0, 10.019912, 9.920395 
6.9569385e+3, 2.4473237e+2, -579792.0, -665943.1, -68.30964, 0.0018428586, 0.00020175887, -579791.94, -38168.13, 0.0, 10.019902, 9.9068985 
6.956937e+3, 2.546394e+2, -481155.66, -567381.06, -93.176605, 0.001843165, 0.000019023273, -481155.56, -36620.535, 0.0, 10.019896, 9.906796 
6.9569355e+3, 2.6453927e+2, -393071.6, -490274.97, -51.89566, 0.0018435438, 0.00026269405, -393071.6, -45555.45, 0.0, 10.019889, 9.892632 
6.9569343e+3, 2.7443242e+2, -293905.3, -390779.84, -75.51052, 0.0018439518, -0.000087721666, -293905.25, -43342.258, 0.0, 10.019882, 9.893045 
6.9569325e+3, 2.8431752e+2, -207258.23, -317090.9, -27.62582, 0.0018445351, 0.00034248343, -207258.22, -53569.22, 0.0, 10.019879, 9.876427 
6.9569314e+3, 2.9419503e+2, -107640.19, -216843.53, -47.79962, 0.0018453138, -0.00013731798, -107640.164, -50750.7, 0.0, 10.019881, 9.877229 
6.956931e+3, 3.0410004e+2, -18775.727, -85346.58, -0.8120567, 0.0018456036, 0.00028375973, -18775.727, -18775.727, 0.0, 10.019883, 9.932207 
6.9569296e+3, 3.1403401e+2, -17765.8, -83252.24, -20.731302, 0.0018451534, 0.00003994416, -17765.793, -17765.793, 0.0, 10.019888, 9.933619 
6.966983e+3, 1.2533142e+2, -1694551.1, -1720762.8, 0.45595917, 0.0018415969, 0.00020462816, -1694551.1, 17202.281, 0.0, 10.020336, 9.985566 
6.9669807e+3, 1.3531685e+2, -1597286.1, -1624090.9, -27.614143, 0.0018439726, 0.000028733055, -1597286.1, 16610.098, 0.0, 10.020334, 9.984781 
6.9669783e+3, 1.4529565e+2, -1509385.5, -1545121.3, -33.171623, 0.0018450406, 0.00029015978, -1509385.5, 6718.329, 0.0, 10.02033, 9.972972 
6.966976e+3, 1.552686e+2, -1411779.8, -1447913.5, -61.433075, 0.0018445776, 0.00009769538, -1411779.8, 6589.285, 0.0, 10.020323, 9.972442 
6.966974e+3, 1.6523494e+2, -1323822.3, -1369152.1, -58.969475, 0.001845114, 0.00017872803, -1323822.3, -3123.4326, 0.0, 10.020312, 9.96036 
6.966972e+3, 1.7519535e+2, -1225992.1, -1271629.1, -86.83588, 0.0018466404, 0.00007638969, -1225992.0, -2905.2454, 0.0, 10.020301, 9.959948 
6.96697e+3, 1.8514912e+2, -1138004.5, -1193143.0, -75.788994, 0.0018473067, 0.00022027826, -1138004.4, -12464.62, 0.0, 10.020289, 9.9475155 
6.9669676e+3, 1.9509667e+2, -1039985.44, -1095377.5, -103.71308, 0.0018470964, 0.00008481729, -1039985.25, -11931.484, 0.0, 10.020276, 9.947172 
6.966966e+3, 2.0503749e+2, -952037.94, -1017321.3, -87.4659, 0.0018476958, 0.000205221, -952037.8, -21404.063, 0.0, 10.020262, 9.934268 
6.966964e+3, 2.1497178e+2, -853886.0, -919421.25, -113.547745, 0.0018490683, 0.000011752125, -853885.75, -20608.225, 0.0, 10.020246, 9.933925 
6.9669616e+3, 2.2489928e+2, -765875.6, -841622.9, -88.91383, 0.001849594, 0.00025729116, -765875.5, -29887.438, 0.0, 10.020232, 9.920658 
6.9669604e+3, 2.3482e+2, -667568.7, -743565.44, -115.58307, 0.0018492064, 0.000041483145, -667568.5, -28803.473, 0.0, 10.020221, 9.920324 
6.9669586e+3, 2.4473375e+2, -579380.4, -665814.8, -78.08334, 0.0018497874, 0.0002011828, -579380.3, -37769.984, 0.0, 10.020207, 9.906829 
6.966957e+3, 2.546407e+2, -480757.6, -567260.75, -103.486206, 0.0018513857, 0.000018476403, -480757.47, -36235.277, 0.0, 10.020194, 9.906727 
6.9669557e+3, 2.645405e+2, -392678.13, -490155.78, -60.02977, 0.0018517909, 0.00026226902, -392678.1, -45174.12, 0.0, 10.020184, 9.892564 
6.966954e+3, 2.744336e+2, -293510.53, -390661.03, -82.90739, 0.0018507417, -0.000087910594, -293510.47, -42958.973, 0.0, 10.02018, 9.892978 
6.9669527e+3, 2.8431863e+2, -206867.0, -316972.88, -34.336193, 0.0018511766, 0.00034220924, -206866.98, -53188.83, 0.0, 10.020174, 9.876361 
6.9669515e+3, 2.9419607e+2, -107263.22, -216733.55, -55.454605, 0.0018534728, -0.00013808381, -107263.195, -50383.92, 0.0, 10.020168, 9.877163 
6.966951e+3, 3.0410102e+2, -18408.77, -85245.73, -5.014111, 0.0018540453, 0.00028315844, -18408.77, -18408.77, 0.0, 10.020168, 9.932138 
6.9669497e+3, 3.1403494e+2, -17392.64, -83148.64, -23.430136, 0.0018521528, 0.000040467457, -17392.633, -17392.633, 0.0, 10.020177, 9.93355 
6.977003e+3, 1.2533367e+2, -1694624.4, -1720890.8, -2.4617, 0.0018505602, 0.00020351776, -1694624.4, 17106.947, 0.0, 10.020332, 9.98549 
6.977001e+3, 1.3531901e+2, -1597358.9, -1624218.3, -30.521978, 0.0018496932, 0.000028613003, -1597358.9, 16516.043, 0.0, 10.02033, 9.984705 
6.9769984e+3, 1.4529777e+2, -1509458.1, -1545248.8, -38.32537, 0.0018506679, 0.00028994944, -1509458.1, 6625.1694, 0.0, 10.020326, 9.972896 
6.9769967e+3, 1.5527062e+2, -1411851.8, -1448040.3, -66.49127, 0.0018528835, 0.000096419986, -1411851.6, 6497.563, 0.0, 10.020318, 9.972364 
6.976994e+3, 1.6523689e+2, -1323892.5, -1369276.3, -65.43196, 0.0018537558, 0.00017752041, -1323892.4, -3212.6323, 0.0, 10.0203085, 9.960285 
6.976992e+3, 1.7519721e+2, -1226061.4, -1271752.3, -93.269325, 0.0018535036, 0.000076278586, -1226061.3, -2992.8438, 0.0, 10.020297, 9.959872 
6.97699e+3, 1.8515092e+2, -1138072.6, -1193264.4, -82.70267, 0.0018537827, 0.0002202255, -1138072.5, -12550.4375, 0.0, 10.020285, 9.947441 
6.9769883e+3, 1.9509839e+2, -1040053.56, -1095498.5, -110.51651, 0.0018544814, 0.000083849285, -1040053.3, -12016.475, 0.0, 10.020271, 9.947099 
6.976986e+3, 2.0503914e+2, -952101.0, -1017433.2, -95.339424, 0.0018555133, 0.00020412116, -952100.9, -21483.299, 0.0, 10.020257, 9.934199 
6.976984e+3, 2.1497338e+2, -853947.56, -919532.06, -121.37944, 0.001856854, 0.000011282081, -853947.4, -20685.332, 0.0, 10.020241, 9.933857 
6.9769824e+3, 2.249008e+2, -765938.9, -841737.2, -95.08079, 0.0018570736, 0.0002571338, -765938.75, -29965.541, 0.0, 10.020227, 9.920588 
6.9769806e+3, 2.3482144e+2, -667632.6, -743679.75, -121.712906, 0.0018560988, 0.000041314473, -667632.44, -28881.537, 0.0, 10.020215, 9.920253 
6.976979e+3, 2.4473512e+2, -579443.25, -665927.7, -85.05117, 0.001856827, 0.00020062062, -579443.2, -37846.348, 0.0, 10.020202, 9.906759 
6.976977e+3, 2.54642e+2, -480818.3, -567372.2, -110.312935, 0.001859369, 0.000017101856, -480818.2, -36308.75, 0.0, 10.020188, 9.906656 
6.976976e+3, 2.6454175e+2, -392736.28, -490262.47, -63.27968, 0.0018598941, 0.00026138264, -392736.25, -45244.37, 0.0, 10.020179, 9.892497 
6.976974e+3, 2.7443478e+2, -293569.9, -390767.8, -86.13854, 0.0018579982, -0.0000867858, -293569.84, -43029.79, 0.0, 10.020173, 9.892911 
6.9769734e+3, 2.8431973e+2, -206925.95, -317079.2, -38.101517, 0.0018581336, 0.00034299956, -206925.94, -53258.58, 0.0, 10.020168, 9.876294 
6.9769716e+3, 2.941971e+2, -107319.36, -216838.08, -58.876938, 0.0018608223, -0.00014064138, -107319.33, -50450.17, 0.0, 10.020163, 9.877097 
6.9769704e+3, 3.04102e+2, -18464.156, -85349.36, -3.2042992, 0.0018617525, 0.000280862, -18464.156, -18464.156, 0.0, 10.020163, 9.932071 
6.97697e+3, 3.1403583e+2, -17450.547, -83253.51, -21.444841, 0.0018601754, 0.00004347094, -17450.54, -17450.54, 0.0, 10.02017, 9.933482 
6.9870234e+3, 1.2533592e+2, -1694129.9, -1720714.9, -1.8972361, 0.001857059, 0.00020291071, -1694129.9, 17579.41, 0.0, 10.0206785, 9.985413 
6.9870216e+3, 1.3532118e+2, -1596871.0, -1624047.3, -30.884127, 0.0018573699, 0.000027771868, -1596871.0, 16982.63, 0.0, 10.020675, 9.984628 
6.987019e+3, 1.4529985e+2, -1508976.3, -1545081.5, -41.768547, 0.0018584726, 0.0002891313, -1508976.3, 7086.553, 0.0, 10.020667, 9.972818 
6.987017e+3, 1.5527263e+2, -1411377.0, -1447878.1, -70.50879, 0.0018598728, 0.00009583744, -1411376.9, 6952.509, 0.0, 10.020657, 9.972288 
6.9870144e+3, 1.6523881e+2, -1323423.4, -1369117.0, -71.51999, 0.0018605334, 0.00017694496, -1323423.3, -2762.582, 0.0, 10.020644, 9.960209 
6.9870126e+3, 1.7519908e+2, -1225599.4, -1271598.0, -100.167786, 0.0018606161, 0.000075510965, -1225599.1, -2548.9983, 0.0, 10.02063, 9.959796 
6.987011e+3, 1.8515271e+2, -1137617.1, -1193112.4, -91.40296, 0.0018612365, 0.00021948268, -1137617.0, -12112.42, 0.0, 10.020613, 9.947367 
6.9870085e+3, 1.9510011e+2, -1039608.56, -1095353.0, -119.571556, 0.0018622782, 0.000083328894, -1039608.25, -11588.215, 0.0, 10.020595, 9.947024 
6.987006e+3, 2.0504077e+2, -951658.6, -1017284.06, -104.83008, 0.0018629865, 0.00020361887, -951658.5, -21056.994, 0.0, 10.0205765, 9.934131 
6.987004e+3, 2.1497494e+2, -853510.1, -919386.6, -131.31415, 0.0018633555, 0.0000106007565, -853509.8, -20263.213, 0.0, 10.02056, 9.933787 
6.987003e+3, 2.249023e+2, -765511.56, -841600.6, -105.55029, 0.0018638904, 0.0002564832, -765511.4, -29552.902, 0.0, 10.020541, 9.920516 
6.987001e+3, 2.3482287e+2, -667218.6, -743551.1, -132.57535, 0.0018645473, 0.00004090972, -667218.4, -28481.541, 0.0, 10.020522, 9.920182 
6.986999e+3, 2.4473648e+2, -579034.7, -665800.56, -94.61536, 0.001865096, 0.00020021909, -579034.6, -37451.105, 0.0, 10.020506, 9.90669 
6.986998e+3, 2.546433e+2, -480411.3, -567246.9, -119.580696, 0.0018654859, 0.0000164395, -480411.13, -35914.367, 0.0, 10.020493, 9.906588 
6.986996e+3, 2.6454297e+2, -392335.8, -490140.72, -71.96041, 0.0018660558, 0.00026074637, -392335.78, -44855.887, 0.0, 10.020479, 9.892428 
6.986995e+3, 2.7443594e+2, -293184.44, -390654.63, -95.601395, 0.0018667798, -0.00008705339, -293184.34, -42655.61, 0.0, 10.020465, 9.892842 
6.986993e+3, 2.8432083e+2, -206543.53, -316963.25, -44.701473, 0.0018670997, 0.00034278815, -206543.52, -52886.83, 0.0, 10.020456, 9.87623 
6.9869924e+3, 2.9419816e+2, -106934.37, -216721.63, -63.920742, 0.0018668714, -0.00014119236, -106934.33, -50075.223, 0.0, 10.020454, 9.877033 
6.986991e+3, 3.0410293e+2, -18090.246, -85246.62, -6.327491, 0.0018674535, 0.0002801866, -18090.246, -18090.246, 0.0, 10.0204525, 9.932001 
6.98699e+3, 3.1403673e+2, -17090.063, -83157.94, -25.769842, 0.0018691169, 0.00004302533, -17090.053, -17090.053, 0.0, 10.020451, 9.933412 
6.9970447e+3, 1.2533817e+2, -1694206.0, -1720847.0, -5.7658534, 0.0018624811, 0.00020251749, -1694206.0, 17481.205, 0.0, 10.020674, 9.985333 
6.997042e+3, 1.3532336e+2, -1596946.8, -1624178.8, -34.710167, 0.0018659836, 0.000026579717, -1596946.8, 16885.617, 0.0, 10.020669, 9.9845495 
6.99704e+3, 1.4530194e+2, -1509051.0, -1545211.8, -47.999256, 0.0018673085, 0.00028801954, -1509050.9, 6991.336, 0.0, 10.020662, 9.97274 
6.9970375e+3, 1.5527464e+2, -1411450.9, -1448007.4, -76.74526, 0.0018662915, 0.00009556518, -1411450.6, 6858.996, 0.0, 10.020651, 9.97221 
6.997035e+3, 1.6524076e+2, -1323496.3, -1369244.9, -79.09342, 0.0018664979, 0.00017665251, -1323496.1, -2854.4263, 0.0, 10.020638, 9.960132 
6.9970334e+3, 1.7520094e+2, -1225672.0, -1271725.3, -107.62287, 0.0018679034, 0.000074426796, -1225671.8, -2639.8167, 0.0, 10.020624, 9.959719 
6.997031e+3, 1.851545e+2, -1137687.4, -1193235.6, -100.34064, 0.0018691852, 0.00021840866, -1137687.1, -12200.09, 0.0, 10.020608, 9.947292 
6.997029e+3, 1.9510183e+2, -1039677.56, -1095475.4, -128.47289, 0.00187027, 0.0000830062, -1039677.25, -11673.9795, 0.0, 10.020589, 9.946949 
6.997027e+3, 2.0504242e+2, -951723.2, -1017397.9, -113.19884, 0.0018703188, 0.0002033873, -951723.0, -21137.59, 0.0, 10.020572, 9.934061 
6.997025e+3, 2.1497652e+2, -853574.9, -919500.2, -139.594, 0.0018693479, 0.000009819194, -853574.56, -20343.334, 0.0, 10.020554, 9.933719 
6.997023e+3, 2.2490379e+2, -765577.6, -841717.4, -114.66046, 0.0018704712, 0.00025559717, -765577.44, -29633.623, 0.0, 10.020535, 9.9204445 
6.9970214e+3, 2.348243e+2, -667283.1, -743666.7, -141.61656, 0.0018736863, 0.000040375373, -667282.9, -28560.002, 0.0, 10.020516, 9.920111 
6.9970196e+3, 2.4473783e+2, -579096.94, -665911.9, -101.15303, 0.0018739139, 0.00019988214, -579096.8, -37526.594, 0.0, 10.0205, 9.906621 
6.997018e+3, 2.5464457e+2, -480474.13, -567358.06, -126.08625, 0.0018708435, 0.000016129692, -480473.94, -35989.797, 0.0, 10.020486, 9.906519 
6.9970167e+3, 2.645442e+2, -392398.53, -490252.2, -78.76457, 0.0018714212, 0.0002602438, -392398.47, -44930.54, 0.0, 10.020473, 9.892359 
6.997015e+3, 2.7443707e+2, -293245.1, -390764.7, -102.153755, 0.0018762132, -0.000088012544, -293245.0, -42727.527, 0.0, 10.020459, 9.892773 
6.9970137e+3, 2.8432193e+2, -206599.0, -317063.16, -46.8828, 0.0018769345, 0.00034208235, -206598.98, -52952.906, 0.0, 10.020451, 9.876167 
6.9970125e+3, 2.9419917e+2, -106990.73, -216821.1, -66.05949, 0.0018724382, -0.00014076891, -106990.69, -50141.59, 0.0, 10.020447, 9.876971 
6.9970113e+3, 3.0410388e+2, -18151.916, -85357.11, -8.286407, 0.0018723606, 0.0002803283, -18151.916, -18151.916, 0.0, 10.020445, 9.931931 
6.997011e+3, 3.140376e+2, -17150.418, -83268.65, -27.167068, 0.0018784084, 0.00004091596, -17150.406, -17150.406, 0.0, 10.020444, 9.93334 
7.007065e+3, 1.2534042e+2, -1693698.6, -1720666.6, -4.5008874, 0.0018699964, 0.00020162294, -1693698.6, 17966.605, 0.0, 10.021029, 9.985254 
7.007063e+3, 1.3532554e+2, -1596447.5, -1624003.9, -34.294994, 0.0018727543, 0.000025788833, -1596447.5, 17363.648, 0.0, 10.021022, 9.984469 
7.0070606e+3, 1.4530402e+2, -1508558.5, -1545041.4, -50.679546, 0.0018739981, 0.00028727518, -1508558.4, 7463.39, 0.0, 10.021011, 9.972661 
7.007059e+3, 1.5527666e+2, -1410965.4, -1447841.9, -80.479515, 0.0018734684, 0.00009480477, -1410965.3, 7324.775, 0.0, 10.020998, 9.972131 
7.007056e+3, 1.6524269e+2, -1323017.4, -1369082.0, -85.55589, 0.001873914, 0.0001759155, -1323017.3, -2394.4714, 0.0, 10.020981, 9.960054 
7.007054e+3, 1.752028e+2, -1225203.6, -1271569.0, -114.514084, 0.0018753385, 0.000073755895, -1225203.3, -2189.5608, 0.0, 10.020962, 9.959641 
7.007052e+3, 1.8515627e+2, -1137225.8, -1193082.1, -108.71928, 0.0018763302, 0.00021774748, -1137225.5, -11755.822, 0.0, 10.020941, 9.947217 
7.00705e+3, 1.9510351e+2, -1039223.06, -1095326.8, -137.58331, 0.0018768325, 0.00008229834, -1039222.75, -11236.133, 0.0, 10.02092, 9.946874 
7.007048e+3, 2.0504403e+2, -951273.0, -1017245.44, -123.41739, 0.001877247, 0.00020273193, -951272.75, -20703.299, 0.0, 10.020897, 9.933991 
7.007046e+3, 2.1497807e+2, -853137.2, -919355.4, -150.09386, 0.0018775595, 0.000009312576, -853136.9, -19920.895, 0.0, 10.020873, 9.933649 
7.007044e+3, 2.2490528e+2, -765149.9, -841581.06, -124.92917, 0.0018783718, 0.00025505142, -765149.7, -29220.445, 0.0, 10.02085, 9.920373 
7.007042e+3, 2.3482572e+2, -666860.9, -743534.4, -152.09549, 0.0018796477, 0.00003959852, -666860.56, -28151.592, 0.0, 10.020829, 9.920039 
7.0070404e+3, 2.4473917e+2, -578681.94, -665782.0, -111.234604, 0.0018801237, 0.00019922479, -578681.75, -37124.76, 0.0, 10.020808, 9.906551 
7.0070386e+3, 2.5464585e+2, -480072.94, -567236.2, -136.62897, 0.0018796831, 0.000015973521, -480072.72, -35601.086, 0.0, 10.020786, 9.906449 
7.0070374e+3, 2.6454538e+2, -392003.5, -490131.84, -87.39748, 0.001880216, 0.0002600016, -392003.4, -44547.313, 0.0, 10.020769, 9.892292 
7.0070356e+3, 2.7443823e+2, -292852.44, -390646.6, -109.91445, 0.0018818344, -0.000089021734, -292852.3, -42346.04, 0.0, 10.020756, 9.892706 
7.0070344e+3, 2.84323e+2, -206211.31, -316945.47, -52.805054, 0.0018823963, 0.0003411488, -206211.28, -52575.746, 0.0, 10.020742, 9.876102 
7.007033e+3, 2.9420015e+2, -106617.33, -216711.4, -72.984795, 0.0018815703, -0.00014055082, -106617.28, -49778.098, 0.0, 10.020732, 9.876906 
7.007032e+3, 3.0410483e+2, -17789.242, -85256.305, -11.780232, 0.001881904, 0.00028067394, -17789.24, -17789.24, 0.0, 10.020725, 9.931864 
7.0070314e+3, 3.140385e+2, -16784.057, -83166.266, -28.232807, 0.0018838135, 0.000040020423, -16784.045, -16784.045, 0.0, 10.020728, 9.933273 
7.017086e+3, 1.2534267e+2, -1693777.9, -1720802.8, -9.766275, 0.0018784986, 0.00020048372, -1693777.9, 17865.293, 0.0, 10.021024, 9.985174 
7.017084e+3, 1.353277e+2, -1596525.5, -1624139.0, -39.56631, 0.0018787271, 0.00002517358, -1596525.5, 17264.313, 0.0, 10.021016, 9.984389 
7.0170814e+3, 1.4530613e+2, -1508636.1, -1545176.3, -58.016014, 0.0018797573, 0.00028669223, -1508636.1, 7365.2085, 0.0, 10.021006, 9.972581 
7.0170796e+3, 1.5527867e+2, -1411042.9, -1447976.3, -87.71262, 0.0018810431, 0.000093804105, -1411042.8, 7227.56, 0.0, 10.020991, 9.972051 
7.017077e+3, 1.6524462e+2, -1323092.5, -1369212.0, -95.05951, 0.0018820337, 0.00017496027, -1323092.4, -2488.448, 0.0, 10.020975, 9.959976 
7.0170754e+3, 1.7520465e+2, -1225277.6, -1271698.1, -124.0029, 0.0018828616, 0.00007326853, -1225277.3, -2281.7056, 0.0, 10.020955, 9.959564 
7.017073e+3, 1.8515804e+2, -1137298.3, -1193208.9, -118.77433, 0.0018831386, 0.00021727204, -1137298.0, -11845.778, 0.0, 10.020935, 9.94714 
7.0170707e+3, 1.9510522e+2, -1039295.5, -1095452.9, -147.4974, 0.0018828148, 0.0000814043, -1039295.1, -11325.166, 0.0, 10.020913, 9.946797 
7.017069e+3, 2.0504567e+2, -951339.75, -1017361.0, -134.35368, 0.0018840488, 0.00020187064, -951339.44, -20785.945, 0.0, 10.02089, 9.933922 
7.017067e+3, 2.1497963e+2, -853202.94, -919470.06, -161.00407, 0.001886775, 0.000008920831, -853202.56, -20001.857, 0.0, 10.020866, 9.9335785 
7.0170647e+3, 2.2490677e+2, -765216.9, -841698.6, -134.66635, 0.0018868768, 0.00025465785, -765216.7, -29302.01, 0.0, 10.0208435, 9.920301 
7.017063e+3, 2.3482713e+2, -666927.9, -743651.56, -161.76422, 0.0018842467, 0.000038720358, -666927.56, -28232.43, 0.0, 10.020822, 9.919967 
7.017061e+3, 2.4474053e+2, -578747.25, -665896.2, -120.857735, 0.0018852233, 0.00019842315, -578747.06, -37203.223, 0.0, 10.020801, 9.906482 
7.0170593e+3, 2.5464714e+2, -480137.06, -567349.4, -146.11896, 0.0018900766, 0.000015855367, -480136.8, -35677.676, 0.0, 10.02078, 9.906379 
7.017058e+3, 2.645466e+2, -392064.72, -490239.56, -93.983086, 0.0018905425, 0.00025986234, -392064.63, -44620.35, 0.0, 10.0207615, 9.892225 
7.0170563e+3, 2.7443936e+2, -292913.75, -390753.8, -116.46919, 0.0018858144, -0.00009001288, -292913.63, -42418.484, 0.0, 10.020747, 9.892639 
7.017055e+3, 2.8432408e+2, -206271.72, -317051.25, -58.46982, 0.0018859677, 0.00034015664, -206271.7, -52646.668, 0.0, 10.020735, 9.876038 
7.017054e+3, 2.9420117e+2, -106676.305, -216816.0, -78.24463, 0.0018922789, -0.00014049381, -106676.24, -49846.93, 0.0, 10.020724, 9.876841 
7.017053e+3, 3.041058e+2, -17846.645, -85357.875, -12.359762, 0.0018934947, 0.0002810641, -17846.643, -17846.643, 0.0, 10.020718, 9.931799 
7.0170516e+3, 3.1403938e+2, -16842.62, -83268.26, -28.744642, 0.0018875566, 0.000039742958, -16842.605, -16842.605, 0.0, 10.020719, 9.933208 
7.0271075e+3, 1.2534493e+2, -1693258.1, -1720618.6, -7.450652, 0.001885176, 0.00019955415, -1693258.1, 18362.912, 0.0, 10.021389, 9.985092 
7.027105e+3, 1.3532986e+2, -1596012.0, -1623959.5, -38.425026, 0.0018858097, 0.000024407209, -1596012.0, 17756.553, 0.0, 10.0213785, 9.984307 
7.0271033e+3, 1.4530821e+2, -1508130.0, -1545000.5, -60.74289, 0.0018869807, 0.00028595445, -1508129.9, 7850.9395, 0.0, 10.021364, 9.9725 
7.0271003e+3, 1.5528066e+2, -1410548.0, -1447807.8, -91.03015, 0.0018881615, 0.000092967384, -1410547.8, 7702.7964, 0.0, 10.021345, 9.97197 
7.027098e+3, 1.6524655e+2, -1322605.4, -1369046.9, -100.86469, 0.0018889788, 0.00017414057, -1322605.1, -2020.1359, 0.0, 10.021324, 9.959897 
7.027096e+3, 1.752065e+2, -1224798.8, -1271538.6, -130.75618, 0.0018895748, 0.000072578645, -1224798.4, -1820.9696, 0.0, 10.0213, 9.959485 
7.027094e+3, 1.8515982e+2, -1136827.0, -1193051.4, -127.543236, 0.001890126, 0.0002166225, -1136826.8, -11391.84, 0.0, 10.021275, 9.947063 
7.027092e+3, 1.9510692e+2, -1038836.5, -1095303.0, -156.58527, 0.0018905414, 0.00008070791, -1038836.06, -10882.721, 0.0, 10.021247, 9.946721 
7.0270896e+3, 2.0504728e+2, -950885.7, -1017207.8, -144.30164, 0.0018914957, 0.00020114244, -950885.4, -20347.752, 0.0, 10.021219, 9.933851 
7.027088e+3, 2.1498117e+2, -852757.75, -919322.7, -171.49466, 0.0018929555, 0.000008175011, -852757.3, -19571.834, 0.0, 10.021191, 9.933508 
7.027086e+3, 2.2490825e+2, -764782.9, -841559.6, -145.23619, 0.0018933689, 0.00025404137, -764782.56, -28882.424, 0.0, 10.021163, 9.920229 
7.027084e+3, 2.3482853e+2, -666506.44, -743520.1, -172.60612, 0.0018926613, 0.000038382183, -666506.06, -27824.723, 0.0, 10.021134, 9.919895 
7.027082e+3, 2.4474186e+2, -578333.3, -665766.7, -130.89006, 0.0018934344, 0.00019795593, -578333.1, -36802.395, 0.0, 10.021108, 9.906412 
7.0270807e+3, 2.546484e+2, -479730.8, -567224.8, -155.9957, 0.0018957758, 0.000014816592, -479730.56, -35283.82, 0.0, 10.021083, 9.90631 
7.027079e+3, 2.645478e+2, -391666.16, -490117.78, -102.152115, 0.0018963118, 0.00025901227, -391666.03, -44233.5, 0.0, 10.02106, 9.892158 
7.027077e+3, 2.744405e+2, -292527.28, -390639.1, -125.16214, 0.0018946737, -0.000089777335, -292527.13, -42043.082, 0.0, 10.02104, 9.892572 
7.027076e+3, 2.8432512e+2, -205890.08, -316934.66, -64.84353, 0.001894996, 0.00034031563, -205890.03, -52275.457, 0.0, 10.021023, 9.875975 
7.0270747e+3, 2.9420218e+2, -106299.57, -216702.61, -83.243355, 0.0018977645, -0.00014187924, -106299.51, -49480.016, 0.0, 10.021009, 9.876779 
7.0270735e+3, 3.041067e+2, -17482.607, -85257.24, -13.950354, 0.0018986297, 0.00027960667, -17482.605, -17482.605, 0.0, 10.021, 9.931731 
7.027073e+3, 3.140402e+2, -16488.19, -83172.78, -31.48762, 0.0018967846, 0.000040332456, -16488.176, -16488.176, 0.0, 10.020994, 9.933141 
7.037129e+3, 1.2534718e+2, -1693340.3, -1720759.6, -13.418856, 0.0018910754, 0.00019870923, -1693340.3, 18258.637, 0.0, 10.021383, 9.985008 
7.0371264e+3, 1.3533205e+2, -1596094.3, -1624100.1, -44.36059, 0.0018934436, 0.000023552224, -1596094.1, 17653.01, 0.0, 10.021373, 9.984224 
7.037124e+3, 1.453103e+2, -1508210.5, -1545138.3, -70.15388, 0.0018949092, 0.0002851312, -1508210.4, 7749.932, 0.0, 10.021358, 9.972418 
7.037122e+3, 1.5528269e+2, -1410627.3, -1447944.4, -100.45122, 0.0018951041, 0.00009220073, -1410627.0, 7603.8203, 0.0, 10.021338, 9.971888 
7.03712e+3, 1.6524848e+2, -1322683.1, -1369181.3, -111.73697, 0.0018954298, 0.00017337955, -1322682.9, -2116.859, 0.0, 10.0213175, 9.959817 
7.0371175e+3, 1.7520836e+2, -1224876.4, -1271672.4, -141.49667, 0.0018959854, 0.00007178154, -1224876.0, -1916.7233, 0.0, 10.021294, 9.959404 
7.037115e+3, 1.8516159e+2, -1136901.8, -1193179.9, -139.97363, 0.0018972466, 0.00021587944, -1136901.4, -11483.927, 0.0, 10.021268, 9.946986 
7.0371133e+3, 1.951086e+2, -1038910.4, -1095430.6, -168.98013, 0.0018990663, 0.0000800966, -1038909.9, -10973.181, 0.0, 10.021239, 9.946644 
7.037111e+3, 2.0504892e+2, -950954.5, -1017325.94, -156.75908, 0.0018992517, 0.00020047544, -950954.1, -20432.42, 0.0, 10.021212, 9.93378 
7.037109e+3, 2.1498273e+2, -852826.25, -919440.25, -183.84401, 0.0018978388, 0.000007268898, -852825.75, -19655.422, 0.0, 10.021183, 9.933437 
7.037107e+3, 2.2490972e+2, -764852.0, -841678.8, -157.55128, 0.0018990173, 0.00025331756, -764851.7, -28966.016, 0.0, 10.021154, 9.9201565 
7.037105e+3, 2.3482995e+2, -666575.06, -743638.7, -184.86366, 0.0019027847, 0.000038269034, -666574.6, -27907.107, 0.0, 10.021127, 9.919823 
7.037103e+3, 2.447432e+2, -578399.4, -665880.44, -141.74387, 0.001903041, 0.00019763305, -578399.1, -36881.48, 0.0, 10.0211, 9.9063425 
7.0371014e+3, 2.5464967e+2, -479796.16, -567337.75, -166.78493, 0.0018994336, 0.000013388075, -479795.8, -35361.508, 0.0, 10.021075, 9.90624 
7.0371e+3, 2.64549e+2, -391730.38, -490228.78, -111.36681, 0.0019001031, 0.00025786305, -391730.25, -44309.45, 0.0, 10.021051, 9.89209 
7.0370984e+3, 2.7444163e+2, -292591.2, -390749.5, -134.12334, 0.0019057099, -0.000089034744, -292591.0, -42118.055, 0.0, 10.02103, 9.892504 
7.037097e+3, 2.843262e+2, -205949.17, -317035.47, -70.94478, 0.0019064555, 0.00034096764, -205949.13, -52344.99, 0.0, 10.021013, 9.875913 
7.0370954e+3, 2.942032e+2, -106357.65, -216802.05, -89.26476, 0.0019009734, -0.00014386796, -106357.58, -49547.906, 0.0, 10.021001, 9.876717 
7.037095e+3, 3.0410767e+2, -17544.766, -85365.41, -17.130365, 0.0019009415, 0.00027738628, -17544.762, -17544.762, 0.0, 10.02099, 9.931663 
7.0370936e+3, 3.140411e+2, -16551.168, -83282.03, -33.939953, 0.0019084483, 0.00004123415, -16551.15, -16551.15, 0.0, 10.020986, 9.933071 
7.04715e+3, 1.2534945e+2, -1692802.9, -1720568.9, -10.239176, 0.0018978802, 0.00019779839, -1692802.9, 18773.768, 0.0, 10.02176, 9.984924 
7.047148e+3, 1.3533422e+2, -1595569.3, -1623917.1, -42.100697, 0.001900368, 0.000022568856, -1595569.1, 18156.674, 0.0, 10.021744, 9.984139 
7.047146e+3, 1.453124e+2, -1507694.1, -1544960.0, -71.5978, 0.0019018102, 0.00028421587, -1507694.0, 8245.707, 0.0, 10.021724, 9.972335 
7.0471436e+3, 1.552847e+2, -1410119.4, -1447771.9, -103.0713, 0.0019018471, 0.000091473565, -1410119.1, 8092.02, 0.0, 10.021701, 9.971805 
7.047141e+3, 1.652504e+2, -1322183.3, -1369011.0, -117.52216, 0.0019023109, 0.00017265715, -1322182.9, -1635.8054, 0.0, 10.021675, 9.959736 
7.047139e+3, 1.7521021e+2, -1224389.5, -1271510.3, -147.75623, 0.0019032736, 0.00007090841, -1224389.1, -1447.9246, 0.0, 10.021645, 9.959324 
7.0471364e+3, 1.8516336e+2, -1136424.0, -1193020.8, -148.15982, 0.0019043811, 0.00021501588, -1136423.6, -11023.488, 0.0, 10.021613, 9.946908 
7.047134e+3, 1.951103e+2, -1038443.4, -1095278.4, -177.94702, 0.0019055224, 0.00007938782, -1038442.8, -10522.689, 0.0, 10.02158, 9.946566 
7.047132e+3, 2.0505054e+2, -950492.8, -1017169.56, -166.72125, 0.0019059349, 0.00019986123, -950492.4, -19986.545, 0.0, 10.021545, 9.933708 
7.0471305e+3, 2.1498427e+2, -852377.0, -919291.5, -194.0608, 0.0019056221, 0.0000066902776, -852376.44, -19221.309, 0.0, 10.021511, 9.933366 
7.0471287e+3, 2.2491121e+2, -764415.2, -841538.94, -168.0049, 0.0019066148, 0.00025263577, -764414.8, -28543.625, 0.0, 10.021476, 9.920084 
7.047126e+3, 2.3483135e+2, -666150.06, -743506.0, -195.6164, 0.0019088873, 0.000037341917, -666149.56, -27495.81, 0.0, 10.021441, 9.91975 
7.0471245e+3, 2.4474452e+2, -577982.7, -665749.6, -151.24825, 0.0019092937, 0.00019689796, -577982.44, -36477.816, 0.0, 10.021409, 9.906273 
7.047123e+3, 2.5465092e+2, -479390.2, -567213.44, -176.505, 0.0019076235, 0.000013320317, -479389.84, -34967.9, 0.0, 10.0213785, 9.906171 
7.047121e+3, 2.6455018e+2, -391332.8, -490106.72, -119.72997, 0.001908287, 0.00025764195, -391332.66, -43923.574, 0.0, 10.02135, 9.892022 
7.04712e+3, 2.7444276e+2, -292204.94, -390634.06, -141.95148, 0.0019116201, -0.000090357185, -292204.75, -41742.832, 0.0, 10.021322, 9.892437 
7.047118e+3, 2.8432727e+2, -205569.22, -316919.34, -75.453735, 0.0019122636, 0.00033978425, -205569.17, -51975.44, 0.0, 10.021299, 9.87585 
7.047117e+3, 2.942042e+2, -105986.28, -216690.95, -94.05751, 0.0019094327, -0.00014332743, -105986.195, -49186.344, 0.0, 10.021282, 9.876655 
7.0471156e+3, 3.041086e+2, -17185.54, -85264.32, -18.890095, 0.0019096838, 0.00027795456, -17185.535, -17185.535, 0.0, 10.021268, 9.931598 
7.047115e+3, 3.1404197e+2, -16198.846, -83184.555, -33.67074, 0.0019141623, 0.00003954518, -16198.828, -16198.828, 0.0, 10.021258, 9.933006 
7.0571727e+3, 1.2535173e+2, -1692888.8, -1720714.3, -18.598501, 0.0019051478, 0.00019684646, -1692888.8, 18665.576, 0.0, 10.021752, 9.9848385 
7.0571697e+3, 1.3533641e+2, -1595653.8, -1624061.4, -50.456882, 0.0019070097, 0.000021530082, -1595653.6, 18050.736, 0.0, 10.021737, 9.984055 
7.057167e+3, 1.453145e+2, -1507777.6, -1545102.9, -82.313156, 0.0019082866, 0.0002832604, -1507777.5, 8141.5967, 0.0, 10.021717, 9.97225 
7.057165e+3, 1.5528673e+2, -1410202.9, -1447914.1, -113.696075, 0.0019085599, 0.00009074346, -1410202.5, 7988.785, 0.0, 10.021694, 9.97172 
7.057163e+3, 1.6525234e+2, -1322263.8, -1369147.8, -130.89746, 0.001909438, 0.00017193492, -1322263.4, -1735.2354, 0.0, 10.021667, 9.959655 
7.057161e+3, 1.7521207e+2, -1224469.1, -1271646.1, -161.10643, 0.0019109783, 0.000070002614, -1224468.5, -1545.6185, 0.0, 10.021637, 9.959243 
7.0571584e+3, 1.8516515e+2, -1136501.4, -1193153.0, -162.55977, 0.0019115485, 0.0002141032, -1136501.0, -11118.222, 0.0, 10.021605, 9.946829 
7.057156e+3, 1.95112e+2, -1038520.3, -1095409.9, -192.19968, 0.001911118, 0.000078625875, -1038519.6, -10616.155, 0.0, 10.021571, 9.946486 
7.0571536e+3, 2.0505215e+2, -950563.6, -1017289.2, -181.56088, 0.0019121952, 0.0001992581, -950563.1, -20073.174, 0.0, 10.021537, 9.933637 
7.057152e+3, 2.1498582e+2, -852447.56, -919410.6, -208.86685, 0.0019147092, 0.000006252443, -852446.94, -19306.984, 0.0, 10.021502, 9.933294 
7.05715e+3, 2.2491269e+2, -764486.4, -841659.8, -182.65565, 0.0019150935, 0.0002519755, -764485.94, -28629.213, 0.0, 10.021467, 9.9200115 
7.057148e+3, 2.3483275e+2, -666220.2, -743625.94, -210.17508, 0.001913251, 0.00003606218, -666219.6, -27579.643, 0.0, 10.021433, 9.919677 
7.057146e+3, 2.4474587e+2, -578050.4, -665864.7, -164.15308, 0.0019141058, 0.00019598255, -578050.06, -36558.535, 0.0, 10.0213995, 9.906203 
7.057144e+3, 2.5465217e+2, -479458.22, -567328.2, -189.29362, 0.0019178381, 0.000013833862, -479457.8, -35048.27, 0.0, 10.021369, 9.906101 
7.057143e+3, 2.645514e+2, -391398.06, -490216.25, -131.20697, 0.0019184313, 0.00025782664, -391397.88, -44000.523, 0.0, 10.021339, 9.891956 
7.057141e+3, 2.7444386e+2, -292268.5, -390742.22, -153.3414, 0.0019152911, -0.000092562295, -292268.28, -41817.426, 0.0, 10.021313, 9.89237 
7.05714e+3, 2.843283e+2, -205630.14, -317022.44, -83.31326, 0.0019156019, 0.00033782824, -205630.08, -52046.793, 0.0, 10.02129, 9.875787 
7.057138e+3, 2.9420516e+2, -106047.87, -216793.73, -101.52178, 0.0019202308, -0.00014172086, -106047.78, -49257.766, 0.0, 10.021272, 9.876592 
7.0571375e+3, 3.041095e+2, -17246.727, -85366.04, -23.678295, 0.0019212835, 0.00027973473, -17246.719, -17246.719, 0.0, 10.021257, 9.931534 
7.057136e+3, 3.1404284e+2, -16258.975, -83285.734, -38.369038, 0.0019172664, 0.000036775917, -16258.952, -16258.952, 0.0, 10.021248, 9.932942 
7.0671946e+3, 1.25354e+2, -1692338.6, -1720519.6, -13.817607, 0.0019120725, 0.00019591913, -1692338.6, 19193.39, 0.0, 10.022139, 9.984752 
7.0671916e+3, 1.353386e+2, -1595111.5, -1623872.3, -46.935673, 0.0019136062, 0.000020855185, -1595111.4, 18571.377, 0.0, 10.0221195, 9.983967 
7.067189e+3, 1.4531662e+2, -1507244.8, -1544918.0, -83.27495, 0.0019149259, 0.00028253038, -1507244.5, 8653.868, 0.0, 10.022095, 9.972165 
7.067187e+3, 1.5528874e+2, -1409684.1, -1447738.1, -115.386925, 0.0019155674, 0.00008969187, -1409683.8, 8487.659, 0.0, 10.022064, 9.971635 
7.0671844e+3, 1.652543e+2, -1321754.9, -1368975.1, -135.64122, 0.0019164126, 0.00017090832, -1321754.5, -1245.3907, 0.0, 10.022031, 9.959572 
7.0671827e+3, 1.7521392e+2, -1223971.8, -1271480.8, -166.8122, 0.0019175636, 0.00006932139, -1223971.1, -1066.4249, 0.0, 10.021996, 9.95916 
7.06718e+3, 1.8516691e+2, -1136013.1, -1192989.8, -170.44272, 0.0019182361, 0.00021347262, -1136012.6, -10647.349, 0.0, 10.021957, 9.94675 
7.067178e+3, 1.9511369e+2, -1038045.5, -1095254.8, -200.47392, 0.0019183583, 0.000077770776, -1038044.8, -10157.986, 0.0, 10.021916, 9.946407 
7.0671755e+3, 2.0505378e+2, -950096.3, -1017131.06, -191.10735, 0.0019193594, 0.00019837027, -950095.75, -19621.723, 0.0, 10.021875, 9.933564 
7.067173e+3, 2.1498738e+2, -851994.4, -919261.0, -218.9617, 0.0019211897, 0.0000055167316, -851993.6, -18868.928, 0.0, 10.021832, 9.933222 
7.0671713e+3, 2.2491416e+2, -764045.44, -841518.1, -192.44368, 0.0019216612, 0.00025137092, -764044.94, -28202.764, 0.0, 10.021791, 9.919939 
7.0671695e+3, 2.3483415e+2, -665790.5, -743491.2, -220.14883, 0.0019206903, 0.00003556743, -665789.9, -27163.633, 0.0, 10.021751, 9.919604 
7.067168e+3, 2.4474719e+2, -577630.8, -665732.5, -173.69731, 0.0019215317, 0.00019534605, -577630.44, -36152.035, 0.0, 10.021711, 9.906134 
7.0671654e+3, 2.5465345e+2, -479054.34, -567205.0, -198.89745, 0.0019242949, 0.000012783597, -479053.88, -34656.746, 0.0, 10.021671, 9.906032 
7.067164e+3, 2.645526e+2, -391003.1, -490094.9, -138.0697, 0.0019248808, 0.00025700292, -391002.9, -43617.285, 0.0, 10.021635, 9.89189 
7.0671624e+3, 2.74445e+2, -291881.25, -390625.7, -160.19324, 0.0019228562, -0.000092399125, -291881.0, -41441.242, 0.0, 10.0216055, 9.892304 
7.067161e+3, 2.8432938e+2, -205249.88, -316905.13, -88.18382, 0.0019232357, 0.000337861, -205249.81, -51676.984, 0.0, 10.021576, 9.875725 
7.0671594e+3, 2.9420617e+2, -105682.87, -216684.72, -105.71786, 0.0019266071, -0.0001432209, -105682.766, -48902.605, 0.0, 10.021549, 9.87653 
7.067159e+3, 3.0411047e+2, -16896.088, -85268.35, -23.117126, 0.0019275658, 0.00027833527, -16896.08, -16896.08, 0.0, 10.021528, 9.93147 
7.067157e+3, 3.1404373e+2, -15911.149, -83189.68, -37.924164, 0.0019250537, 0.000037835453, -15911.128, -15911.128, 0.0, 10.021518, 9.9328785 
7.0772165e+3, 1.253563e+2, -1692427.4, -1720670.3, -23.20031, 0.001918875, 0.00019498903, -1692427.4, 19082.008, 0.0, 10.022132, 9.984663 
7.077214e+3, 1.3534082e+2, -1595200.5, -1624022.5, -56.314037, 0.0019202486, 0.00002031511, -1595200.4, 18460.723, 0.0, 10.022112, 9.983879 
7.077211e+3, 1.4531875e+2, -1507331.6, -1545064.5, -96.741844, 0.0019217008, 0.00028188387, -1507331.4, 8546.182, 0.0, 10.022086, 9.972078 
7.077209e+3, 1.5529078e+2, -1409769.9, -1447883.5, -128.83652, 0.0019227351, 0.00008850272, -1409769.5, 8381.98, 0.0, 10.022057, 9.971548 
7.0772064e+3, 1.6525625e+2, -1321838.3, -1369116.4, -151.06389, 0.0019233485, 0.00016975461, -1321837.8, -1347.8057, 0.0, 10.022023, 9.959488 
7.0772046e+3, 1.752158e+2, -1224054.8, -1271621.3, -182.12154, 0.0019237123, 0.00006872369, -1224054.0, -1167.6876, 0.0, 10.021987, 9.959076 
7.077202e+3, 1.851687e+2, -1136093.0, -1193124.0, -187.41, 0.001924767, 0.00021295216, -1136092.4, -10744.572, 0.0, 10.021948, 9.94667 
7.0772e+3, 1.951154e+2, -1038124.9, -1095388.4, -217.37523, 0.0019263532, 0.000076879005, -1038124.06, -10253.983, 0.0, 10.021908, 9.946327 
7.077198e+3, 2.050554e+2, -950169.7, -1017253.56, -208.80418, 0.001926947, 0.0001973652, -950169.06, -19711.008, 0.0, 10.021866, 9.933492 
7.077195e+3, 2.1498893e+2, -852066.8, -919382.7, -236.55074, 0.0019265617, 0.000004646172, -852066.0, -18956.564, 0.0, 10.021823, 9.933148 
7.077193e+3, 2.2491565e+2, -764118.06, -841639.94, -209.07423, 0.0019274302, 0.00025078363, -764117.5, -28289.844, 0.0, 10.021781, 9.919866 
7.077191e+3, 2.3483557e+2, -665863.56, -743612.75, -236.7294, 0.0019295136, 0.00003541439, -665862.8, -27250.473, 0.0, 10.02174, 9.919532 
7.077189e+3, 2.4474853e+2, -577700.94, -665848.7, -190.04388, 0.0019301331, 0.00019483957, -577700.56, -36235.26, 0.0, 10.0217, 9.906064 
7.0771873e+3, 2.5465474e+2, -479122.63, -567319.75, -215.13658, 0.0019291125, 0.000011064434, -479122.1, -34737.414, 0.0, 10.021661, 9.905962 
7.0771855e+3, 2.645538e+2, -391068.94, -490204.84, -150.74507, 0.0019297252, 0.0002557521, -391068.72, -43694.887, 0.0, 10.0216255, 9.891823 
7.0771843e+3, 2.7444613e+2, -291948.3, -390735.7, -172.64964, 0.0019321707, -0.000091225666, -291948.0, -41519.41, 0.0, 10.021593, 9.892238 
7.0771825e+3, 2.843305e+2, -205313.03, -317007.2, -99.407425, 0.0019327949, 0.00033876288, -205312.94, -51750.64, 0.0, 10.0215645, 9.875664 
7.0771813e+3, 2.942072e+2, -105743.36, -216784.67, -116.76061, 0.0019310417, -0.00014605049, -105743.234, -48972.98, 0.0, 10.021538, 9.87647 
7.07718e+3, 3.0411142e+2, -16958.184, -85372.04, -28.411823, 0.0019315092, 0.00027559482, -16958.172, -16958.172, 0.0, 10.021518, 9.931405 
7.077179e+3, 3.1404462e+2, -15975.91, -83295.0, -42.497917, 0.0019349311, 0.000040496674, -15975.884, -15975.884, 0.0, 10.021504, 9.932814 
7.087239e+3, 1.2535863e+2, -1691856.9, -1720467.8, -16.9551, 0.0019252304, 0.00019392758, -1691856.9, 19629.904, 0.0, 10.022532, 9.984573 
7.087236e+3, 1.3534304e+2, -1594645.0, -1623829.4, -51.177216, 0.001927179, 0.000019175519, -1594645.0, 18994.37, 0.0, 10.022505, 9.983789 
7.0872337e+3, 1.4532088e+2, -1506787.0, -1544876.3, -96.033554, 0.0019286578, 0.00028084934, -1506786.8, 9069.831, 0.0, 10.022473, 9.971991 
7.087231e+3, 1.5529284e+2, -1409236.9, -1447702.6, -129.26695, 0.0019292487, 0.000087744455, -1409236.5, 8894.902, 0.0, 10.022437, 9.97146 
7.087229e+3, 1.6525821e+2, -1321315.3, -1368938.1, -155.0428, 0.0019298533, 0.00016899704, -1321314.8, -844.0338, 0.0, 10.022397, 9.959404 
7.0872265e+3, 1.7521767e+2, -1223546.9, -1271452.3, -186.7511, 0.0019305997, 0.00006773027, -1223546.3, -678.23883, 0.0, 10.022353, 9.958992 
7.087224e+3, 1.851705e+2, -1135596.5, -1192958.1, -194.4029, 0.0019316999, 0.00021198408, -1135595.9, -10265.722, 0.0, 10.022306, 9.946589 
7.087222e+3, 1.9511713e+2, -1037643.44, -1095231.5, -225.07773, 0.0019330173, 0.0000761762, -1037642.56, -9789.297, 0.0, 10.022258, 9.946246 
7.08722e+3, 2.0505705e+2, -949695.3, -1017092.6, -217.48024, 0.0019335882, 0.00019670713, -949694.6, -19252.639, 0.0, 10.022209, 9.933418 
7.0872176e+3, 2.149905e+2, -851605.5, -919229.75, -245.52443, 0.0019334147, 0.000003820391, -851604.6, -18510.54, 0.0, 10.02216, 9.933076 
7.087215e+3, 2.2491714e+2, -763671.7, -841496.1, -218.54749, 0.0019343582, 0.00024992044, -763671.06, -27858.072, 0.0, 10.022109, 9.919792 
7.087213e+3, 2.34837e+2, -665435.06, -743479.25, -246.56747, 0.0019363792, 0.00003464748, -665434.3, -26835.83, 0.0, 10.0220585, 9.919458 
7.087211e+3, 2.4474987e+2, -577282.3, -665716.6, -198.1375, 0.0019369475, 0.00019423217, -577281.9, -35829.813, 0.0, 10.022011, 9.905994 
7.087209e+3, 2.54656e+2, -478713.13, -567193.4, -223.19415, 0.001935891, 0.000010684892, -478712.56, -34340.406, 0.0, 10.021967, 9.905892 
7.0872074e+3, 2.64555e+2, -390670.25, -490081.3, -157.48775, 0.0019365638, 0.00025521184, -390670.0, -43308.05, 0.0, 10.021923, 9.891757 
7.0872056e+3, 2.744473e+2, -291568.88, -390622.75, -179.28725, 0.0019391829, -0.000092362054, -291568.53, -41151.17, 0.0, 10.02188, 9.892172 
7.087204e+3, 2.8433153e+2, -204941.52, -316892.56, -101.83067, 0.0019398123, 0.00033781613, -204941.42, -51389.727, 0.0, 10.021844, 9.875604 
7.0872027e+3, 2.9420823e+2, -105376.64, -216673.1, -118.58421, 0.0019378534, -0.0001457988, -105376.516, -48616.273, 0.0, 10.021815, 9.87641 
7.0872015e+3, 3.0411237e+2, -16605.754, -85271.98, -27.025032, 0.0019383128, 0.0002756938, -16605.744, -16605.744, 0.0, 10.02179, 9.931342 
7.087201e+3, 3.140455e+2, -15640.016, -83203.27, -40.086136, 0.0019419756, 0.00003866917, -15639.992, -15639.992, 0.0, 10.021766, 9.93275 
7.097261e+3, 1.2536095e+2, -1691949.9, -1720623.5, -29.261606, 0.0019314677, 0.00019279757, -1691949.9, 19513.967, 0.0, 10.022524, 9.984483 
7.0972586e+3, 1.353453e+2, -1594736.9, -1623984.0, -63.492638, 0.0019342595, 0.000017782018, -1594736.8, 18880.58, 0.0, 10.022496, 9.983698 
7.097256e+3, 1.4532302e+2, -1506876.9, -1545027.5, -111.44696, 0.0019357142, 0.00027965373, -1506876.6, 8958.8955, 0.0, 10.022465, 9.971902 
7.097254e+3, 1.5529491e+2, -1409326.6, -1447853.3, -144.63438, 0.0019355381, 0.00008715626, -1409326.1, 8784.9795, 0.0, 10.022428, 9.971372 
7.0972514e+3, 1.652602e+2, -1321401.8, -1369082.6, -173.39777, 0.0019362356, 0.00016839949, -1321401.1, -949.8304, 0.0, 10.0223875, 9.959319 
7.097249e+3, 1.7521957e+2, -1223632.8, -1271596.0, -205.04024, 0.0019378471, 0.00006657168, -1223631.9, -782.4954, 0.0, 10.022343, 9.958907 
7.0972466e+3, 1.8517232e+2, -1135679.1, -1193096.0, -214.33026, 0.0019388358, 0.00021083158, -1135678.4, -10365.891, 0.0, 10.022297, 9.946507 
7.097244e+3, 1.9511884e+2, -1037725.3, -1095368.5, -244.88277, 0.0019391389, 0.00007554888, -1037724.25, -9887.943, 0.0, 10.022248, 9.946165 
7.097242e+3, 2.050587e+2, -949770.7, -1017216.75, -237.55525, 0.0019398611, 0.00019619269, -949769.8, -19344.04, 0.0, 10.022199, 9.933345 
7.0972395e+3, 2.1499208e+2, -851681.1, -919353.56, -265.524, 0.0019409619, 0.0000030199674, -851680.1, -18601.463, 0.0, 10.022148, 9.933002 
7.097237e+3, 2.2491863e+2, -763747.2, -841620.25, -239.09883, 0.0019418274, 0.00024894896, -763746.44, -27948.188, 0.0, 10.022098, 9.919719 
7.0972353e+3, 2.3483843e+2, -665509.06, -743602.2, -267.0317, 0.00194239, 0.00003362095, -665508.1, -26923.682, 0.0, 10.022047, 9.919384 
7.097233e+3, 2.4475123e+2, -577353.0, -665832.75, -215.87944, 0.0019429924, 0.00019358416, -577352.44, -35913.684, 0.0, 10.021999, 9.905925 
7.097231e+3, 2.546573e+2, -478784.88, -567309.5, -240.82355, 0.0019435838, 0.000010881438, -478784.22, -34424.707, 0.0, 10.021955, 9.905824 
7.0972294e+3, 2.645562e+2, -390739.4, -490192.4, -174.62991, 0.0019443277, 0.00025499126, -390739.1, -43389.094, 0.0, 10.021911, 9.891691 
7.0972276e+3, 2.7444845e+2, -291635.56, -390732.03, -196.2681, 0.0019451662, -0.00009447796, -291635.16, -41229.1, 0.0, 10.021869, 9.892106 
7.097226e+3, 2.8433263e+2, -205003.67, -316992.72, -113.51106, 0.0019456956, 0.00033610337, -205003.56, -51462.547, 0.0, 10.0218315, 9.875544 
7.0972246e+3, 2.9420927e+2, -105440.45, -216773.23, -129.918, 0.0019457642, -0.00014424462, -105440.305, -48690.2, 0.0, 10.021802, 9.876349 
7.0972234e+3, 3.0411333e+2, -16670.814, -85374.21, -36.616848, 0.0019464367, 0.00027703046, -16670.795, -16670.795, 0.0, 10.021775, 9.93128 
7.097222e+3, 3.140464e+2, -15703.092, -83304.73, -49.34767, 0.0019477444, 0.000034945875, -15703.056, -15703.056, 0.0, 10.021752, 9.932688 
7.1072835e+3, 1.253633e+2, -1691363.6, -1720416.0, -20.689713, 0.0019383057, 0.00019164014, -1691363.6, 20077.107, 0.0, 10.022935, 9.98439 
7.107281e+3, 1.3534755e+2, -1594162.5, -1623784.3, -56.27833, 0.0019405028, 0.00001695667, -1594162.4, 19432.803, 0.0, 10.0229025, 9.983605 
7.107279e+3, 1.453252e+2, -1506314.1, -1544832.4, -109.36378, 0.0019419463, 0.00027883117, -1506313.9, 9500.393, 0.0, 10.022863, 9.971811 
7.1072763e+3, 1.5529698e+2, -1408780.6, -1447668.3, -143.539, 0.0019422915, 0.000086067324, -1408780.1, 9310.585, 0.0, 10.022819, 9.971282 
7.107274e+3, 1.6526218e+2, -1320867.8, -1368900.9, -175.90459, 0.001943093, 0.00016733653, -1320867.1, -435.42365, 0.0, 10.022769, 9.959232 
7.1072716e+3, 1.7522147e+2, -1223114.3, -1271423.5, -208.41052, 0.0019444367, 0.00006580648, -1223113.3, -282.57614, 0.0, 10.022717, 9.95882 
7.107269e+3, 1.8517414e+2, -1135171.9, -1192926.1, -220.1313, 0.0019453267, 0.0002101026, -1135171.1, -9876.53, 0.0, 10.022662, 9.946425 
7.107267e+3, 1.9512059e+2, -1037233.6, -1095207.9, -251.25104, 0.001945685, 0.0000746145, -1037232.5, -9413.258, 0.0, 10.022606, 9.946083 
7.1072644e+3, 2.0506036e+2, -949288.6, -1017052.7, -245.41527, 0.0019465744, 0.00019524606, -949287.75, -18878.227, 0.0, 10.022547, 9.933271 
7.107262e+3, 2.1499367e+2, -851217.6, -919200.44, -273.8116, 0.0019479488, 0.0000022468594, -851216.56, -18153.492, 0.0, 10.022487, 9.932929 
7.1072596e+3, 2.2492015e+2, -763298.3, -841475.56, -247.029, 0.0019486626, 0.00024826583, -763297.5, -27514.105, 0.0, 10.022428, 9.919644 
7.107257e+3, 2.3483986e+2, -665072.44, -743464.94, -275.18112, 0.0019486424, 0.000032943804, -665071.44, -26501.129, 0.0, 10.02237, 9.919311 
7.1072555e+3, 2.4475262e+2, -576928.75, -665697.9, -223.46986, 0.001949404, 0.00019284464, -576928.2, -35502.85, 0.0, 10.022313, 9.905856 
7.1072537e+3, 2.5465858e+2, -478381.53, -567186.25, -248.57207, 0.0019509626, 0.000010005853, -478380.84, -34034.086, 0.0, 10.022256, 9.905754 
7.107251e+3, 2.6455742e+2, -390347.1, -490070.94, -179.25072, 0.0019516505, 0.00025424096, -390346.78, -43008.875, 0.0, 10.022204, 9.891625 
7.1072495e+3, 2.7444962e+2, -291251.03, -390615.4, -200.47128, 0.0019512398, -0.000094779076, -291250.63, -40856.01, 0.0, 10.022159, 9.892041 
7.1072483e+3, 2.8433374e+2, -204628.4, -316875.63, -115.23881, 0.0019517358, 0.0003357452, -204628.28, -51098.125, 0.0, 10.022114, 9.8754835 
7.1072465e+3, 2.9421028e+2, -105086.586, -216667.38, -131.47804, 0.0019533178, -0.00014528524, -105086.43, -48346.582, 0.0, 10.022071, 9.87629 
7.1072453e+3, 3.0411434e+2, -16333.116, -85278.63, -32.740353, 0.001954199, 0.00027608874, -16333.101, -16333.101, 0.0, 10.022036, 9.931219 
7.107244e+3, 3.1404734e+2, -15367.02, -83210.02, -44.28885, 0.001953868, 0.00003530707, -15366.99, -15366.99, 0.0, 10.022012, 9.932627 
7.1173066e+3, 1.2536569e+2, -1691460.1, -1720577.4, -34.91417, 0.0019454189, 0.00019047267, -1691460.1, 19957.309, 0.0, 10.022926, 9.984296 
7.117304e+3, 1.3534984e+2, -1594258.9, -1623945.0, -70.524376, 0.0019464645, 0.000016361917, -1594258.8, 19313.938, 0.0, 10.022893, 9.983511 
7.117302e+3, 1.4532739e+2, -1506408.0, -1544988.4, -128.07372, 0.001947905, 0.00027816143, -1506407.6, 9385.059, 0.0, 10.022853, 9.971721 
7.1172994e+3, 1.5529908e+2, -1408873.6, -1447823.4, -162.18933, 0.0019492791, 0.00008476688, -1408873.0, 9197.095, 0.0, 10.022808, 9.97119 
7.117297e+3, 1.6526419e+2, -1320957.3, -1369049.4, -197.14421, 0.0019501785, 0.00016608248, -1320956.4, -544.40485, 0.0, 10.022759, 9.959146 
7.117294e+3, 1.752234e+2, -1223203.1, -1271571.3, -229.5742, 0.0019507885, 0.00006520341, -1223202.1, -390.27368, 0.0, 10.022706, 9.958734 
7.1172917e+3, 1.8517599e+2, -1135257.4, -1193066.9, -243.01588, 0.0019515941, 0.00020955135, -1135256.4, -9979.859, 0.0, 10.022652, 9.946342 
7.1172893e+3, 1.9512235e+2, -1037318.8, -1095348.1, -274.01834, 0.0019524698, 0.00007355635, -1037317.56, -9515.526, 0.0, 10.022594, 9.946 
7.1172863e+3, 2.0506205e+2, -949366.7, -1017179.25, -269.40652, 0.0019535145, 0.00019412601, -949365.6, -18972.58, 0.0, 10.022535, 9.933197 
7.117284e+3, 2.1499527e+2, -851294.75, -919326.06, -297.72238, 0.001954693, 0.0000014907035, -851293.44, -18246.137, 0.0, 10.022475, 9.932855 
7.1172816e+3, 2.2492169e+2, -763375.25, -841600.7, -269.69305, 0.0019552386, 0.00024771082, -763374.3, -27605.922, 0.0, 10.022416, 9.919571 
7.11728e+3, 2.3484132e+2, -665150.0, -743589.94, -297.76132, 0.0019550757, 0.00003242274, -665148.9, -26592.875, 0.0, 10.022358, 9.919236 
7.1172774e+3, 2.44754e+2, -577002.7, -665815.9, -246.00418, 0.0019560368, 0.00019207783, -577002.0, -35590.26, 0.0, 10.0223, 9.9057865 
7.1172756e+3, 2.546599e+2, -478453.6, -567302.75, -270.98782, 0.0019581562, 0.0000086876735, -478452.78, -34118.918, 0.0, 10.0222435, 9.905684 
7.117273e+3, 2.6455867e+2, -390415.72, -490180.44, -197.42088, 0.0019587425, 0.00025328752, -390415.3, -43089.67, 0.0, 10.022191, 9.891561 
7.117272e+3, 2.744508e+2, -291320.97, -390724.9, -218.45262, 0.0019574456, -0.00009430716, -291320.5, -40937.523, 0.0, 10.022143, 9.891976 
7.11727e+3, 2.8433487e+2, -204694.66, -316977.44, -132.04651, 0.0019579437, 0.00033598693, -204694.5, -51175.348, 0.0, 10.022099, 9.875423 
7.1172684e+3, 2.9421136e+2, -105150.16, -216767.1, -147.98901, 0.001960645, -0.00014742692, -105149.96, -48420.527, 0.0, 10.022057, 9.876231 
7.117268e+3, 3.0411536e+2, -16396.121, -85377.375, -42.375095, 0.0019617171, 0.00027421647, -16396.096, -16396.096, 0.0, 10.022021, 9.931159 
7.117266e+3, 3.140483e+2, -15432.797, -83310.086, -53.396973, 0.0019602338, 0.000037392503, -15432.755, -15432.755, 0.0, 10.0219965, 9.932567 
7.1273303e+3, 1.253681e+2, -1690851.8, -1720361.6, -24.329071, 0.0019513706, 0.00018947024, -1690851.8, 20541.994, 0.0, 10.023354, 9.9842 
7.127328e+3, 1.3535216e+2, -1593668.4, -1623740.1, -61.23082, 0.0019532386, 0.00001532458, -1593668.3, 19881.76, 0.0, 10.023311, 9.983416 
7.127325e+3, 1.4532962e+2, -1505830.8, -1544788.3, -123.8841, 0.0019547702, 0.00027712627, -1505830.4, 9940.57, 0.0, 10.023263, 9.971628 
7.1273226e+3, 1.5530121e+2, -1408312.1, -1447632.8, -159.03934, 0.00195563, 0.00008379017, -1408311.5, 9737.791, 0.0, 10.02321, 9.971098 
7.1273196e+3, 1.6526623e+2, -1320408.4, -1368862.0, -197.94377, 0.0019564133, 0.0001651215, -1320407.5, -15.517927, 0.0, 10.023151, 9.959057 
7.127317e+3, 1.7522535e+2, -1222672.3, -1271394.6, -231.23763, 0.0019572612, 0.00006423215, -1222671.1, 121.5825, 0.0, 10.023089, 9.958645 
7.127314e+3, 1.8517785e+2, -1134740.1, -1192893.1, -247.3407, 0.0019582517, 0.0002086127, -1134739.0, -9480.817, 0.0, 10.023025, 9.946259 
7.127312e+3, 1.9512413e+2, -1036820.25, -1095185.4, -278.93243, 0.001959263, 0.00007269024, -1036818.94, -9034.342, 0.0, 10.022957, 9.945917 
7.1273094e+3, 2.0506373e+2, -948877.56, -1017012.6, -275.53397, 0.0019601104, 0.00019329933, -948876.5, -18500.127, 0.0, 10.022889, 9.933122 
7.127307e+3, 2.149969e+2, -850821.56, -919168.94, -304.268, 0.0019607695, 0.00000067089803, -850820.25, -17788.86, 0.0, 10.0228195, 9.932779 
7.1273047e+3, 2.2492325e+2, -762919.4, -841452.8, -276.58752, 0.0019615742, 0.00024689324, -762918.44, -27165.238, 0.0, 10.02275, 9.919497 
7.127302e+3, 2.348428e+2, -664715.4, -743454.1, -304.9284, 0.001962462, 0.000031602627, -664714.25, -26172.701, 0.0, 10.02268, 9.919163 
7.1273e+3, 2.447554e+2, -576580.4, -665681.7, -251.45221, 0.0019632254, 0.00019131902, -576579.7, -35181.734, 0.0, 10.022613, 9.905717 
7.127298e+3, 2.5466123e+2, -478043.44, -567175.75, -276.368, 0.0019638024, 0.000008059329, -478042.56, -33721.84, 0.0, 10.02255, 9.905616 
7.127296e+3, 2.6455995e+2, -390018.7, -490056.34, -200.89171, 0.001964504, 0.00025263577, -390018.28, -42705.105, 0.0, 10.022488, 9.891496 
7.127294e+3, 2.74452e+2, -290946.28, -390612.9, -221.98451, 0.0019652494, -0.000095139694, -290945.78, -40574.617, 0.0, 10.022427, 9.8919115 
7.127293e+3, 2.84336e+2, -204329.95, -316863.3, -131.2473, 0.0019658206, 0.00033520916, -204329.81, -50821.87, 0.0, 10.022372, 9.875366 
7.127291e+3, 2.9421246e+2, -104793.125, -216657.31, -146.13274, 0.0019661172, -0.00014783628, -104792.94, -48074.156, 0.0, 10.022326, 9.876174 
7.12729e+3, 3.0411637e+2, -16056.305, -85280.33, -36.529327, 0.0019669728, 0.00027380005, -16056.285, -16056.285, 0.0, 10.022284, 9.931099 
7.1272886e+3, 3.1404924e+2, -15112.942, -83223.016, -47.448147, 0.001968272, 0.00003658797, -15112.909, -15112.909, 0.0, 10.022244, 9.932507 
7.1373534e+3, 1.2537055e+2, -1690952.9, -1720528.9, -41.953087, 0.0019569339, 0.00018853156, -1690952.8, 20417.014, 0.0, 10.023343, 9.984102 
7.1373504e+3, 1.353545e+2, -1593768.5, -1623906.3, -78.86024, 0.001960378, 0.000014101037, -1593768.3, 19758.732, 0.0, 10.0233, 9.983318 
7.137348e+3, 1.4533186e+2, -1505927.8, -1544948.6, -145.41612, 0.001962028, 0.0002759449, -1505927.1, 9821.675, 0.0, 10.0232525, 9.971534 
7.1373457e+3, 1.5530337e+2, -1408408.9, -1447792.5, -180.5515, 0.001961771, 0.00008294973, -1408408.0, 9620.09, 0.0, 10.023198, 9.9710045 
7.1373427e+3, 1.652683e+2, -1320501.5, -1369014.9, -222.6872, 0.0019623605, 0.00016429009, -1320500.4, -128.66963, 0.0, 10.02314, 9.958967 
7.1373403e+3, 1.7522733e+2, -1222764.8, -1271546.6, -255.8852, 0.001963837, 0.00006311137, -1222763.5, 9.871654, 0.0, 10.023078, 9.958556 
7.1373373e+3, 1.8517974e+2, -1134828.3, -1193037.0, -273.98987, 0.0019651055, 0.00020751967, -1134827.0, -9587.316, 0.0, 10.023012, 9.946175 
7.137335e+3, 1.9512594e+2, -1036907.8, -1095328.3, -305.47153, 0.0019660757, 0.000071911076, -1036906.25, -9139.376, 0.0, 10.022944, 9.945832 
7.1373326e+3, 2.0506546e+2, -948958.06, -1017141.5, -302.51788, 0.0019665922, 0.00019260554, -948956.7, -18597.293, 0.0, 10.022876, 9.933047 
7.1373296e+3, 2.1499854e+2, -850902.25, -919297.5, -331.14648, 0.0019666408, -0.00000016237234, -850900.6, -17885.443, 0.0, 10.022806, 9.932704 
7.137327e+3, 2.2492482e+2, -762999.2, -841579.9, -303.9285, 0.0019678622, 0.00024598034, -762998.0, -27260.28, 0.0, 10.022737, 9.919422 
7.137325e+3, 2.348443e+2, -664794.06, -743580.2, -332.18387, 0.0019702038, 0.00003066826, -664792.7, -26265.88, 0.0, 10.022666, 9.919088 
7.137323e+3, 2.4475683e+2, -576655.06, -665799.56, -276.06226, 0.0019706204, 0.00019057663, -576654.25, -35270.297, 0.0, 10.022599, 9.905648 
7.13732e+3, 2.546626e+2, -478118.8, -567293.4, -300.8716, 0.0019688942, 0.000007739565, -478117.8, -33810.418, 0.0, 10.022534, 9.905546 
7.137318e+3, 2.6456124e+2, -390091.03, -490167.84, -224.28053, 0.0019697982, 0.0002521422, -390090.53, -42790.027, 0.0, 10.022472, 9.891431 
7.1373165e+3, 2.7445325e+2, -291016.88, -390722.9, -245.13464, 0.0019736437, -0.00009651079, -291016.25, -40657.14, 0.0, 10.022411, 9.891847 
7.1373147e+3, 2.843372e+2, -204394.8, -316961.5, -149.08423, 0.0019743163, 0.00033403767, -204394.61, -50898.105, 0.0, 10.022357, 9.875309 
7.137313e+3, 2.9421356e+2, -104858.945, -216754.97, -163.6945, 0.0019709175, -0.0001475092, -104858.71, -48150.824, 0.0, 10.02231, 9.876117 
7.137312e+3, 3.0411744e+2, -16124.146, -85381.76, -51.337955, 0.0019714055, 0.00027404432, -16124.108, -16124.108, 0.0, 10.022266, 9.931039 
7.1373105e+3, 3.1405023e+2, -15179.632, -83324.17, -61.641304, 0.0019768951, 0.0000345598, -15179.576, -15179.576, 0.0, 10.022228, 9.932446 
7.147377e+3, 1.2537302e+2, -1690325.6, -1720306.4, -28.317633, 0.0019638222, 0.0001874592, -1690325.6, 21019.928, 0.0, 10.023784, 9.984004 
7.147374e+3, 1.3535689e+2, -1593157.6, -1623694.0, -66.59856, 0.0019663994, 0.000013069682, -1593157.5, 20346.188, 0.0, 10.023733, 9.98322 
7.147372e+3, 1.4533415e+2, -1505331.3, -1544741.1, -138.83463, 0.0019679323, 0.00027491892, -1505330.8, 10395.744, 0.0, 10.023675, 9.971439 
7.147369e+3, 1.5530556e+2, -1407832.0, -1447596.9, -175.12062, 0.001968252, 0.0000819258, -1407831.3, 10175.383, 0.0, 10.02361, 9.97091 
7.1473664e+3, 1.652704e+2, -1319939.4, -1368822.8, -221.32712, 0.001969025, 0.00016328377, -1319938.4, 412.85233, 0.0, 10.023541, 9.958878 
7.1473634e+3, 1.7522933e+2, -1222221.9, -1271366.0, -255.34161, 0.0019703317, 0.00006214969, -1222220.6, 533.07916, 0.0, 10.023469, 9.958466 
7.147361e+3, 1.8518166e+2, -1134299.5, -1192859.0, -276.19577, 0.0019714183, 0.00020656976, -1134298.3, -9077.354, 0.0, 10.023394, 9.94609 
7.147358e+3, 1.9512776e+2, -1036398.06, -1095161.5, -308.34583, 0.0019721983, 0.000070944865, -1036396.44, -8647.583, 0.0, 10.023315, 9.945747 
7.1473557e+3, 2.0506722e+2, -948460.06, -1016971.06, -306.90405, 0.0019729666, 0.00019169934, -948458.75, -18116.496, 0.0, 10.023235, 9.932972 
7.1473527e+3, 2.1500023e+2, -850425.56, -919139.4, -335.8791, 0.001973691, -0.0000009372989, -850423.94, -17425.22, 0.0, 10.023154, 9.932629 
7.1473503e+3, 2.2492643e+2, -762540.06, -841430.75, -308.56464, 0.0019746665, 0.00024520728, -762538.9, -26816.842, 0.0, 10.023073, 9.919348 
7.147348e+3, 2.3484583e+2, -664351.8, -743440.8, -337.0762, 0.0019758318, 0.000029765473, -664350.4, -25838.549, 0.0, 10.022994, 9.919014 
7.147345e+3, 2.4475828e+2, -576227.56, -665662.75, -279.83597, 0.0019764798, 0.00018969465, -576226.7, -34857.04, 0.0, 10.022915, 9.905579 
7.147343e+3, 2.5466397e+2, -477713.63, -567168.9, -304.81613, 0.001976509, 0.0000070408573, -477712.56, -33418.805, 0.0, 10.022838, 9.905478 
7.147341e+3, 2.6456258e+2, -389699.34, -490045.06, -225.25697, 0.0019773282, 0.00025149828, -389698.84, -42411.31, 0.0, 10.022764, 9.891367 
7.147339e+3, 2.744545e+2, -290638.53, -390607.7, -245.5411, 0.0019789455, -0.000097226926, -290637.94, -40291.15, 0.0, 10.0226965, 9.891783 
7.147337e+3, 2.8433838e+2, -204028.31, -316845.78, -145.92827, 0.0019795846, 0.00033332914, -204028.13, -50543.375, 0.0, 10.022632, 9.875252 
7.1473354e+3, 2.942147e+2, -104514.32, -216650.66, -160.47983, 0.00197894, -0.0001480886, -104514.09, -47817.402, 0.0, 10.022571, 9.8760605 
7.147334e+3, 3.041185e+2, -15797.854, -85287.945, -42.68492, 0.0019796577, 0.00027347685, -15797.828, -15797.828, 0.0, 10.022518, 9.930982 
7.147333e+3, 3.1405127e+2, -14860.722, -83233.96, -51.151356, 0.0019818272, 0.000033999353, -14860.684, -14860.684, 0.0, 10.022474, 9.932388 
7.157401e+3, 1.2537555e+2, -1690430.5, -1720479.3, -48.81402, 0.0019712667, 0.00018632699, -1690430.4, 20890.424, 0.0, 10.023773, 9.983904 
7.157398e+3, 1.3535932e+2, -1593262.3, -1623866.3, -87.1381, 0.0019720406, 0.000012112676, -1593262.0, 20217.938, 0.0, 10.023722, 9.98312 
7.1573955e+3, 1.4533648e+2, -1505432.5, -1544907.0, -164.21544, 0.0019733668, 0.00027396454, -1505431.8, 10271.909, 0.0, 10.023663, 9.971343 
7.1573925e+3, 1.5530778e+2, -1407932.6, -1447761.8, -200.468, 0.0019749121, 0.00008083586, -1407931.6, 10053.226, 0.0, 10.023599, 9.970814 
7.1573895e+3, 1.6527252e+2, -1320035.5, -1368979.3, -249.79616, 0.0019760095, 0.00016222229, -1320034.3, 296.05185, 0.0, 10.023529, 9.958786 
7.1573865e+3, 1.7523137e+2, -1222317.8, -1271521.8, -283.71967, 0.0019768307, 0.00006125947, -1222316.1, 417.55734, 0.0, 10.023457, 9.958375 
7.157384e+3, 1.8518361e+2, -1134391.0, -1193006.3, -306.56717, 0.0019775573, 0.00020568992, -1134389.4, -9187.681, 0.0, 10.02338, 9.946004 
7.157381e+3, 1.9512963e+2, -1036489.25, -1095308.1, -338.58786, 0.0019781, 0.000069919915, -1036487.3, -8756.745, 0.0, 10.023301, 9.945662 
7.157378e+3, 2.0506902e+2, -948543.2, -1017102.0, -338.34073, 0.001979339, 0.00019072516, -948541.56, -18216.84, 0.0, 10.023221, 9.932896 
7.157376e+3, 2.1500194e+2, -850508.2, -919269.6, -367.22662, 0.0019812128, -0.0000016803461, -850506.25, -17524.299, 0.0, 10.023139, 9.932553 
7.157373e+3, 2.2492805e+2, -762621.9, -841559.2, -339.13116, 0.0019816838, 0.0002445045, -762620.4, -26914.436, 0.0, 10.023058, 9.919273 
7.1573704e+3, 2.3484738e+2, -664433.75, -743568.9, -367.55396, 0.0019806656, 0.000028907676, -664432.0, -25935.518, 0.0, 10.022978, 9.918939 
7.157368e+3, 2.4475978e+2, -576305.3, -665782.44, -309.44214, 0.001981772, 0.00018878633, -576304.25, -34949.2, 0.0, 10.022899, 9.905509 
7.157366e+3, 2.546654e+2, -477790.47, -567287.56, -334.26993, 0.001985101, 0.000006196218, -477789.22, -33509.37, 0.0, 10.022821, 9.905408 
7.157364e+3, 2.6456395e+2, -389771.84, -490154.72, -251.07864, 0.0019857264, 0.0002508185, -389771.22, -42496.938, 0.0, 10.022748, 9.891304 
7.157362e+3, 2.744558e+2, -290711.3, -390716.75, -271.23108, 0.001983065, -0.00009763476, -290710.56, -40376.445, 0.0, 10.022679, 9.89172 
7.15736e+3, 2.843396e+2, -204096.86, -316945.97, -168.99585, 0.0019836212, 0.00033287532, -204096.61, -50623.918, 0.0, 10.0226145, 9.875195 
7.1573585e+3, 2.942159e+2, -104581.55, -216749.31, -183.10208, 0.0019881926, -0.00014906008, -104581.25, -47896.055, 0.0, 10.022553, 9.876003 
7.157357e+3, 3.0411962e+2, -15863.768, -85383.65, -58.932667, 0.001989375, 0.00027260077, -15863.718, -15863.718, 0.0, 10.0225, 9.930925 
7.1573555e+3, 3.1405234e+2, -14928.113, -83330.18, -67.00822, 0.0019853457, 0.000034072273, -14928.048, -14928.048, 0.0, 10.022455, 9.932333 
7.1674246e+3, 1.2537812e+2, -1689779.6, -1720247.8, -32.01154, 0.0019769992, 0.0001850791, -1689779.6, 21516.053, 0.0, 10.024229, 9.983802 
7.1674216e+3, 1.3536178e+2, -1592632.1, -1623647.3, -71.76904, 0.0019786665, 0.000010884291, -1592632.0, 20823.773, 0.0, 10.024167, 9.983018 
7.167419e+3, 1.4533883e+2, -1504818.5, -1544693.4, -154.70517, 0.001980071, 0.0002728346, -1504817.9, 10862.572, 0.0, 10.024098, 9.971245 
7.167416e+3, 1.5531006e+2, -1407338.8, -1447560.1, -192.11726, 0.0019810277, 0.000079900325, -1407337.9, 10624.663, 0.0, 10.024023, 9.9707155 
7.167414e+3, 1.6527471e+2, -1319457.4, -1368780.9, -245.8101, 0.001981975, 0.00016129472, -1319456.1, 852.8683, 0.0, 10.023942, 9.958694 
7.167411e+3, 1.7523344e+2, -1221761.1, -1271336.1, -280.59506, 0.0019830305, 0.000060188737, -1221759.5, 953.7066, 0.0, 10.023857, 9.958282 
7.167408e+3, 1.851856e+2, -1133850.6, -1192823.9, -306.2624, 0.0019839734, 0.00020464581, -1133849.1, -8666.897, 0.0, 10.023769, 9.945918 
7.167405e+3, 1.9513154e+2, -1035970.7, -1095138.4, -338.8928, 0.0019847217, 0.00006906191, -1035968.75, -8256.879, 0.0, 10.023679, 9.945576 
7.167402e+3, 2.0507084e+2, -948036.94, -1016928.2, -340.1839, 0.0019857564, 0.00018987784, -948035.25, -17728.451, 0.0, 10.023586, 9.932819 
7.1673995e+3, 2.150037e+2, -850022.7, -919107.9, -369.46872, 0.0019870335, -0.0000026880612, -850020.7, -17055.895, 0.0, 10.023493, 9.932477 
7.1673965e+3, 2.2492974e+2, -762156.06, -841407.0, -341.41895, 0.0019877434, 0.00024354344, -762154.56, -26465.03, 0.0, 10.023399, 9.919198 
7.167394e+3, 2.3484899e+2, -663990.5, -743429.44, -370.11725, 0.0019878119, 0.000028201935, -663988.75, -25507.934, 0.0, 10.023307, 9.918864 
7.167391e+3, 2.447613e+2, -575877.44, -665645.0, -310.55026, 0.0019887437, 0.00018808531, -575876.4, -34536.32, 0.0, 10.023215, 9.90544 
7.1673894e+3, 2.5466686e+2, -477381.3, -567160.6, -335.28552, 0.0019905418, 0.000005228098, -477380.06, -33114.504, 0.0, 10.023127, 9.90534 
7.167387e+3, 2.6456535e+2, -389378.34, -490030.78, -249.32181, 0.001991304, 0.00024991774, -389377.75, -42117.12, 0.0, 10.023042, 9.89124 
7.1673846e+3, 2.7445713e+2, -290339.7, -390604.63, -269.59912, 0.0019907062, -0.00009805507, -290338.94, -40017.863, 0.0, 10.02296, 9.891657 
7.167383e+3, 2.843409e+2, -203737.47, -316831.2, -163.24655, 0.001991254, 0.0003324437, -203737.23, -50277.0, 0.0, 10.022883, 9.875139 
7.167381e+3, 2.942171e+2, -104237.65, -216642.58, -176.11584, 0.0019932212, -0.00015009819, -104237.375, -47564.098, 0.0, 10.022813, 9.875949 
7.167379e+3, 3.0412078e+2, -15540.705, -85290.805, -46.717678, 0.001994287, 0.00027146953, -15540.674, -15540.674, 0.0, 10.022749, 9.930869 
7.167378e+3, 3.1405345e+2, -14623.893, -83246.7, -54.807777, 0.001993535, 0.000033733348, -14623.85, -14623.85, 0.0, 10.022692, 9.932276 
7.177449e+3, 1.2538074e+2, -1689888.9, -1720426.8, -56.449284, 0.0019821338, 0.00018379658, -1689888.8, 21381.137, 0.0, 10.024218, 9.983698 
7.1774465e+3, 1.353643e+2, -1592741.0, -1623825.5, -96.25222, 0.0019857115, 0.000009563429, -1592740.6, 20690.42, 0.0, 10.024155, 9.982915 
7.1774435e+3, 1.4534125e+2, -1504923.6, -1544864.3, -183.88585, 0.0019873034, 0.00027165562, -1504922.8, 10734.084, 0.0, 10.024085, 9.971146 
7.1774405e+3, 1.5531237e+2, -1407443.5, -1447730.3, -221.26993, 0.0019869849, 0.000079027996, -1407442.4, 10497.521, 0.0, 10.02401, 9.970617 
7.1774375e+3, 1.6527691e+2, -1319557.3, -1368941.8, -278.52417, 0.0019876028, 0.00016043245, -1319555.6, 731.56165, 0.0, 10.023929, 9.958601 
7.1774346e+3, 1.7523558e+2, -1221860.5, -1271496.1, -313.224, 0.0019891604, 0.00005906745, -1221858.5, 833.84576, 0.0, 10.023843, 9.95819 
7.1774316e+3, 1.8518764e+2, -1133945.3, -1192974.4, -341.0264, 0.0019905337, 0.00020356398, -1133943.3, -8780.997, 0.0, 10.023755, 9.94583 
7.1774286e+3, 1.9513349e+2, -1036064.94, -1095288.3, -373.52762, 0.001991654, 0.00006828408, -1036062.56, -8369.806, 0.0, 10.0236635, 9.945489 
7.1774256e+3, 2.050727e+2, -948122.8, -1017061.5, -375.74445, 0.0019922208, 0.00018909854, -948120.75, -17832.281, 0.0, 10.023571, 9.932743 
7.1774226e+3, 2.1500547e+2, -850108.4, -919240.6, -404.90247, 0.0019922247, -0.0000037726215, -850106.0, -17158.752, 0.0, 10.023478, 9.9324 
7.1774197e+3, 2.2493145e+2, -762240.56, -841537.25, -376.7606, 0.0019934576, 0.00024250819, -762238.75, -26566.014, 0.0, 10.023383, 9.919123 
7.177417e+3, 2.3485063e+2, -664074.7, -743559.1, -405.38223, 0.001995863, 0.000027573704, -664072.6, -25607.887, 0.0, 10.02329, 9.918789 
7.1774143e+3, 2.4476288e+2, -575956.9, -665764.9, -343.93842, 0.0019963763, 0.00018749078, -575955.56, -34630.86, 0.0, 10.023198, 9.905372 
7.177412e+3, 2.5466835e+2, -477460.47, -567279.75, -368.57327, 0.0019947696, 0.000004266334, -477458.97, -33208.098, 0.0, 10.023109, 9.905272 
7.1774095e+3, 2.6456678e+2, -389453.94, -490142.44, -280.04498, 0.0019957982, 0.0002489903, -389453.16, -42206.57, 0.0, 10.023024, 9.891176 
7.177408e+3, 2.744585e+2, -290414.84, -390715.38, -300.01166, 0.001999705, -0.00009849165, -290413.94, -40106.285, 0.0, 10.022941, 9.891593 
7.177406e+3, 2.843422e+2, -203805.8, -316927.56, -189.34529, 0.0020002814, 0.00033204517, -203805.47, -50358.09, 0.0, 10.022864, 9.875085 
7.1774036e+3, 2.9421836e+2, -104305.53, -216737.6, -202.01103, 0.0019966203, -0.0001511054, -104305.17, -47644.215, 0.0, 10.022794, 9.8758955 
7.1774024e+3, 3.0412197e+2, -15610.54, -85389.46, -67.77151, 0.001997345, 0.00027035375, -15610.475, -15610.475, 0.0, 10.022729, 9.930812 
7.1774006e+3, 3.1405458e+2, -14694.405, -83345.94, -75.05261, 0.0020035116, 0.000033196648, -14694.323, -14694.323, 0.0, 10.022671, 9.932219 
7.187473e+3, 1.2538342e+2, -1689214.9, -1720186.6, -35.93267, 0.0019886147, 0.00018267882, -1689214.9, 22028.84, 0.0, 10.024691, 9.983593 
7.187471e+3, 1.3536687e+2, -1592089.0, -1623598.6, -77.23586, 0.0019914762, 0.000008585727, -1592088.8, 21317.09, 0.0, 10.024616, 9.98281 
7.187468e+3, 1.4534372e+2, -1504289.4, -1544642.9, -170.9848, 0.0019930373, 0.0002706307, -1504288.6, 11343.929, 0.0, 10.024534, 9.9710455 
7.187464e+3, 1.5531474e+2, -1406832.6, -1447522.5, -209.53053, 0.001993317, 0.000077816454, -1406831.6, 11085.011, 0.0, 10.024446, 9.970517 
7.187461e+3, 1.652792e+2, -1318963.8, -1368737.6, -271.24655, 0.0019940787, 0.0001592722, -1318962.3, 1302.7136, 0.0, 10.024352, 9.958507 
7.187458e+3, 1.7523776e+2, -1221290.0, -1271305.5, -306.84146, 0.0019953689, 0.000058185877, -1221288.1, 1382.9052, 0.0, 10.024255, 9.958096 
7.187455e+3, 1.8518971e+2, -1133392.1, -1192787.0, -337.69656, 0.0019965896, 0.00020270496, -1133390.1, -8248.4, 0.0, 10.024153, 9.945743 
7.1874523e+3, 1.951355e+2, -1035535.3, -1095114.4, -370.84543, 0.0019976718, 0.00006721814, -1035533.0, -7859.869, 0.0, 10.024049, 9.945401 
7.1874493e+3, 2.0507461e+2, -947607.06, -1016883.3, -374.48764, 0.0019984238, 0.00018804724, -947605.0, -17335.334, 0.0, 10.023943, 9.932666 
7.1874464e+3, 2.1500732e+2, -849616.0, -919075.94, -403.92218, 0.001998829, -0.000004600463, -849613.7, -16684.475, 0.0, 10.023835, 9.932323 
7.1874434e+3, 2.249332e+2, -761769.4, -841382.9, -375.96863, 0.0019999032, 0.00024167227, -761767.6, -26112.193, 0.0, 10.023728, 9.919048 
7.1874404e+3, 2.3485233e+2, -663626.5, -743417.7, -404.91077, 0.0020015892, 0.000026494652, -663624.44, -25176.266, 0.0, 10.023622, 9.918715 
7.187438e+3, 2.4476449e+2, -575525.7, -665625.7, -341.83478, 0.0020022758, 0.00018654029, -575524.4, -34215.58, 0.0, 10.023517, 9.905303 
7.1874356e+3, 2.5466993e+2, -477051.8, -567153.0, -366.6162, 0.002001804, 0.0000038403687, -477050.3, -32814.65, 0.0, 10.023415, 9.905203 
7.187433e+3, 2.6456824e+2, -389061.8, -490017.8, -275.26965, 0.0020027196, 0.00024846627, -389061.06, -41829.043, 0.0, 10.023315, 9.891114 
7.187431e+3, 2.744599e+2, -290043.88, -390602.16, -294.66028, 0.002005056, -0.00009980588, -290043.03, -39749.305, 0.0, 10.02322, 9.891531 
7.1874285e+3, 2.8434354e+2, -203449.25, -316813.13, -179.44531, 0.0020056914, 0.0003307891, -203448.97, -50014.953, 0.0, 10.02313, 9.875031 
7.1874267e+3, 2.9421967e+2, -103969.59, -216633.8, -191.9543, 0.0020041594, -0.00015120365, -103969.266, -47321.164, 0.0, 10.023047, 9.875842 
7.187425e+3, 3.0412322e+2, -15296.171, -85297.69, -52.5496, 0.0020050732, 0.0002703581, -15296.131, -15296.131, 0.0, 10.02297, 9.9307575 
7.187423e+3, 3.140558e+2, -14396.902, -83262.336, -58.05771, 0.0020086912, 0.00003202796, -14396.854, -14396.854, 0.0, 10.022901, 9.932165 
7.197498e+3, 1.2538615e+2, -1689328.9, -1720372.1, -64.54869, 0.0019956548, 0.00018164005, -1689328.8, 21888.059, 0.0, 10.024677, 9.983486 
7.197495e+3, 1.353695e+2, -1592202.5, -1623783.3, -105.880646, 0.0019968124, 0.000007745693, -1592202.1, 21177.91, 0.0, 10.024603, 9.982702 
7.197492e+3, 1.4534625e+2, -1504398.5, -1544819.0, -204.72249, 0.0019982602, 0.00026968398, -1504397.5, 11210.326, 0.0, 10.02452, 9.970944 
7.1974885e+3, 1.5531717e+2, -1406941.4, -1447697.9, -243.22934, 0.0019998325, 0.000076496224, -1406940.0, 10952.872, 0.0, 10.024431, 9.970415 
7.1974856e+3, 1.6528152e+2, -1319067.3, -1368902.8, -308.46225, 0.002000918, 0.00015802881, -1319065.4, 1176.7874, 0.0, 10.024338, 9.958411 
7.197483e+3, 1.7524e+2, -1221393.3, -1271469.9, -343.97003, 0.0020016578, 0.00005741123, -1221391.0, 1258.1852, 0.0, 10.024239, 9.958 
7.1974796e+3, 1.8519187e+2, -1133490.0, -1192941.0, -377.17807, 0.0020024986, 0.00020195232, -1133487.6, -8366.905, 0.0, 10.024137, 9.945654 
7.1974766e+3, 1.9513755e+2, -1035632.8, -1095267.5, -410.16974, 0.0020033673, 0.00006606455, -1035630.0, -7976.985, 0.0, 10.024032, 9.9453125 
7.197473e+3, 2.0507659e+2, -947695.44, -1017018.44, -414.80862, 0.0020045487, 0.00018692332, -947692.94, -17442.568, 0.0, 10.023926, 9.932589 
7.19747e+3, 2.1500921e+2, -849704.5, -919210.6, -444.1657, 0.002006002, -0.0000052943956, -849701.6, -16791.012, 0.0, 10.023818, 9.932246 
7.197467e+3, 2.2493502e+2, -761856.75, -841515.2, -416.1, 0.002006654, 0.00024095317, -761854.56, -26216.96, 0.0, 10.02371, 9.918972 
7.197464e+3, 2.3485407e+2, -663713.4, -743549.25, -444.91602, 0.0020064276, 0.000025290567, -663710.9, -25279.793, 0.0, 10.0236025, 9.918638 
7.197461e+3, 2.4476616e+2, -575607.6, -665747.0, -379.96252, 0.002007515, 0.00018549012, -575606.0, -34313.54, 0.0, 10.023498, 9.905234 
7.197459e+3, 2.546715e+2, -477133.8, -567273.75, -404.59805, 0.002009923, 0.000003635192, -477132.0, -32912.02, 0.0, 10.023395, 9.905133 
7.197456e+3, 2.645698e+2, -389138.78, -490128.06, -310.48846, 0.0020105839, 0.0002481379, -389137.8, -41920.844, 0.0, 10.023295, 9.891052 
7.1974534e+3, 2.7446136e+2, -290120.1, -390711.25, -329.74643, 0.0020090004, -0.000101387785, -290119.03, -39839.723, 0.0, 10.0232, 9.891469 
7.1974516e+3, 2.8434497e+2, -203520.08, -316910.78, -210.26874, 0.0020097077, 0.00032930687, -203519.69, -50099.535, 0.0, 10.023109, 9.874977 
7.19745e+3, 2.94221e+2, -104040.56, -216730.48, -222.30064, 0.0020132833, -0.00015096452, -104040.125, -47405.363, 0.0, 10.0230255, 9.875789 
7.197448e+3, 3.0412453e+2, -15366.078, -85391.6, -77.55665, 0.0020145876, 0.0002708399, -15365.992, -15365.992, 0.0, 10.022947, 9.930705 
7.197446e+3, 3.1405705e+2, -14466.773, -83356.01, -82.701355, 0.0020119979, 0.000030679766, -14466.675, -14466.675, 0.0, 10.022879, 9.932112 
7.207523e+3, 1.2538897e+2, -1688630.3, -1720122.4, -39.92118, 0.0020012942, 0.00018056048, -1688630.3, 22559.016, 0.0, 10.0251665, 9.983377 
7.20752e+3, 1.3537219e+2, -1591528.3, -1623548.1, -82.69531, 0.0020031596, 0.00000651104, -1591528.0, 21825.53, 0.0, 10.02508, 9.9825945 
7.207517e+3, 1.4534885e+2, -1503743.6, -1544589.4, -187.92232, 0.0020046413, 0.0002684736, -1503742.8, 11839.598, 0.0, 10.024983, 9.970841 
7.2075135e+3, 1.5531966e+2, -1406311.6, -1447483.1, -227.5844, 0.0020056823, 0.00007548143, -1406310.4, 11557.97, 0.0, 10.024881, 9.970313 
7.2075105e+3, 1.6528392e+2, -1318456.6, -1368692.0, -297.4176, 0.0020067191, 0.00015703034, -1318454.9, 1763.7133, 0.0, 10.024773, 9.958316 
7.2075075e+3, 1.7524229e+2, -1220808.5, -1271274.0, -333.80716, 0.002007828, 0.00005628836, -1220806.3, 1820.2783, 0.0, 10.02466, 9.957905 
7.207504e+3, 1.8519406e+2, -1132924.0, -1192748.3, -369.93427, 0.0020087496, 0.00020081327, -1132921.8, -7822.6445, 0.0, 10.024544, 9.945565 
7.2075003e+3, 1.9513966e+2, -1035091.6, -1095089.1, -403.51666, 0.0020094463, 0.0000650149, -1035088.9, -7456.63, 0.0, 10.0244255, 9.945224 
7.2074974e+3, 2.0507863e+2, -947169.5, -1016835.9, -409.95206, 0.0020105257, 0.00018596504, -947167.06, -16936.658, 0.0, 10.024304, 9.932511 
7.2074944e+3, 2.1501116e+2, -849204.56, -919042.94, -439.73297, 0.0020119501, -0.0000061608744, -849201.75, -16310.322, 0.0, 10.024181, 9.932169 
7.2074914e+3, 2.249369e+2, -761379.4, -841357.75, -411.51004, 0.00201278, 0.00024016418, -761377.25, -25758.068, 0.0, 10.024059, 9.918897 
7.207488e+3, 2.3485586e+2, -663260.1, -743405.4, -440.51062, 0.0020129425, 0.000024561958, -663257.7, -24844.29, 0.0, 10.023938, 9.918563 
7.207485e+3, 2.447679e+2, -575173.1, -665605.94, -374.18124, 0.0020139115, 0.00018460004, -575171.56, -33896.07, 0.0, 10.023818, 9.905166 
7.2074825e+3, 2.5467318e+2, -476724.56, -567146.5, -398.8369, 0.0020156587, 0.0000023390267, -476722.8, -32519.164, 0.0, 10.0237, 9.905066 
7.2074795e+3, 2.6457137e+2, -388747.72, -490003.38, -301.39008, 0.002016442, 0.0002470269, -388746.84, -41545.54, 0.0, 10.023586, 9.89099 
7.207477e+3, 2.744629e+2, -289751.03, -390598.34, -320.64734, 0.0020158729, -0.000101595666, -289750.03, -39485.813, 0.0, 10.023478, 9.891408 
7.2074753e+3, 2.8434643e+2, -203166.38, -316795.63, -197.14449, 0.0020165304, 0.00032909078, -203166.03, -49760.395, 0.0, 10.023374, 9.874925 
7.207473e+3, 2.9422244e+2, -103710.65, -216627.38, -208.17845, 0.0020187316, -0.00015230286, -103710.26, -47089.51, 0.0, 10.023274, 9.875736 
7.207471e+3, 3.041259e+2, -15060.516, -85302.95, -57.387257, 0.0020200063, 0.00026941492, -15060.469, -15060.469, 0.0, 10.023183, 9.930653 
7.2074693e+3, 3.1405836e+2, -14178.795, -83275.96, -62.234966, 0.002019197, 0.000030784817, -14178.738, -14178.738, 0.0, 10.023102, 9.932059 
7.2175485e+3, 1.2539184e+2, -1688748.6, -1720313.8, -73.03898, 0.0020064777, 0.00017947012, -1688748.4, 22412.592, 0.0, 10.025153, 9.983268 
7.217545e+3, 1.3537496e+2, -1591646.4, -1623738.8, -115.88736, 0.0020099275, 0.000005147122, -1591646.0, 21680.38, 0.0, 10.025064, 9.982485 
7.217542e+3, 1.4535151e+2, -1503857.1, -1544770.9, -226.51627, 0.0020115012, 0.00026720358, -1503855.9, 11700.366, 0.0, 10.024968, 9.970737 
7.2175384e+3, 1.5532222e+2, -1406424.8, -1447663.6, -266.1668, 0.0020113417, 0.00007460692, -1406423.0, 11420.249, 0.0, 10.024865, 9.970208 
7.2175354e+3, 1.6528638e+2, -1318564.0, -1368861.4, -339.7683, 0.0020121853, 0.00015615745, -1318561.8, 1632.7972, 0.0, 10.024756, 9.958219 
7.217532e+3, 1.7524466e+2, -1220915.4, -1271442.6, -376.0505, 0.0020139797, 0.0000550577, -1220912.6, 1690.789, 0.0, 10.024643, 9.957808 
7.217528e+3, 1.8519634e+2, -1133025.3, -1192905.5, -414.34448, 0.0020151546, 0.00019956748, -1133022.4, -7945.4966, 0.0, 10.024527, 9.945475 
7.2175246e+3, 1.9514185e+2, -1035192.8, -1095245.6, -447.7932, 0.0020157206, 0.00006404851, -1035189.44, -7578.5654, 0.0, 10.024407, 9.945133 
7.2175217e+3, 2.0508072e+2, -947261.25, -1016973.8, -455.63748, 0.0020164915, 0.00018511461, -947258.25, -17048.395, 0.0, 10.024285, 9.932433 
7.2175187e+3, 2.150132e+2, -849295.8, -919180.2, -485.27435, 0.0020174417, -0.000007064291, -849292.44, -16420.818, 0.0, 10.024162, 9.932091 
7.217515e+3, 2.2493885e+2, -761469.0, -841491.25, -456.52795, 0.00201867, 0.00023937719, -761466.4, -25866.258, 0.0, 10.02404, 9.918821 
7.217512e+3, 2.3485772e+2, -663350.06, -743538.56, -485.46094, 0.002020106, 0.000024063462, -663347.1, -24952.018, 0.0, 10.023917, 9.918488 
7.2175086e+3, 2.4476968e+2, -575257.75, -665728.3, -417.80243, 0.002020763, 0.00018382932, -575255.8, -33997.953, 0.0, 10.023797, 9.905097 
7.2175056e+3, 2.546749e+2, -476808.44, -567267.9, -442.3266, 0.0020204773, 0.00000069677503, -476806.28, -32619.54, 0.0, 10.023679, 9.904997 
7.217503e+3, 2.6457304e+2, -388826.94, -490114.8, -341.27487, 0.0020215272, 0.0002456937, -388825.78, -41640.76, 0.0, 10.023564, 9.890928 
7.2175e+3, 2.7446452e+2, -289830.75, -390709.28, -360.27597, 0.0020238634, -0.00010126067, -289829.47, -39580.95, 0.0, 10.023455, 9.891346 
7.217498e+3, 2.8434798e+2, -203238.81, -316891.03, -233.27074, 0.0020244278, 0.0003294224, -203238.33, -49847.82, 0.0, 10.02335, 9.874873 
7.217496e+3, 2.9422393e+2, -103781.66, -216720.89, -244.01936, 0.0020227595, -0.00015417776, -103781.125, -47174.99, 0.0, 10.023252, 9.875686 
7.217494e+3, 3.041274e+2, -15132.579, -85398.2, -86.571365, 0.002023833, 0.00026739767, -15132.473, -15132.473, 0.0, 10.023159, 9.930599 
7.2174925e+3, 3.1405976e+2, -14252.849, -83372.26, -90.59648, 0.0020278587, 0.000031422896, -14252.73, -14252.73, 0.0, 10.023077, 9.932006 
7.227574e+3, 1.2539482e+2, -1688023.5, -1720053.6, -43.513966, 0.002012682, 0.00017808401, -1688023.4, 23108.494, 0.0, 10.0256605, 9.983156 
7.2275704e+3, 1.3537782e+2, -1590949.0, -1623495.1, -87.92365, 0.002015565, 0.0000041001576, -1590948.9, 22349.525, 0.0, 10.0255575, 9.982373 
7.227567e+3, 1.4535426e+2, -1503181.3, -1544533.3, -205.03139, 0.0020171679, 0.00026622706, -1503180.3, 12349.004, 0.0, 10.025446, 9.970632 
7.227563e+3, 1.5532488e+2, -1405776.1, -1447442.0, -245.90747, 0.002017546, 0.000073472, -1405774.8, 12042.596, 0.0, 10.025329, 9.970103 
7.22756e+3, 1.6528893e+2, -1317935.8, -1368643.4, -324.21307, 0.0020183679, 0.00015497945, -1317933.6, 2235.9116, 0.0, 10.025205, 9.95812 
7.227557e+3, 1.752471e+2, -1220314.4, -1271240.4, -361.3344, 0.0020196394, 0.000053959662, -1220311.9, 2267.6108, 0.0, 10.025076, 9.957709 
7.227553e+3, 1.8519868e+2, -1132445.0, -1192707.0, -402.76266, 0.0020208205, 0.00019856161, -1132442.4, -7388.5356, 0.0, 10.024943, 9.945385 
7.2275496e+3, 1.951441e+2, -1034640.6, -1095063.3, -436.8821, 0.0020218892, 0.00006315398, -1034637.5, -7048.7583, 0.0, 10.024808, 9.945044 
7.2275466e+3, 2.0508291e+2, -946725.25, -1016786.5, -446.17886, 0.0020227584, 0.00018418767, -946722.44, -16533.887, 0.0, 10.024672, 9.932356 
7.227543e+3, 2.1501529e+2, -848786.0, -919007.8, -476.01566, 0.0020234305, -0.000008161423, -848782.8, -15931.7295, 0.0, 10.024533, 9.932013 
7.2275394e+3, 2.2494087e+2, -760983.94, -841330.44, -447.5407, 0.0020245442, 0.00023827203, -760981.44, -25401.15, 0.0, 10.024394, 9.918746 
7.227536e+3, 2.3485968e+2, -662893.25, -743393.44, -476.85437, 0.002026032, 0.000023109558, -662890.44, -24514.396, 0.0, 10.024256, 9.918412 
7.227533e+3, 2.4477156e+2, -574820.8, -665585.75, -407.30768, 0.0020268438, 0.00018305148, -574818.94, -33579.46, 0.0, 10.024119, 9.905028 
7.22753e+3, 2.546767e+2, -476395.84, -567138.56, -431.87146, 0.002026823, 0.000000114234794, -476393.78, -32224.777, 0.0, 10.023987, 9.904928 
7.227527e+3, 2.6457477e+2, -388434.4, -489988.7, -327.99567, 0.002027812, 0.00024493705, -388433.34, -41265.418, 0.0, 10.023856, 9.890866 
7.2275245e+3, 2.744662e+2, -289465.84, -390597.72, -346.75555, 0.0020297002, -0.00010258786, -289464.63, -39232.598, 0.0, 10.023729, 9.891285 
7.227522e+3, 2.8434962e+2, -202890.45, -316776.56, -214.6914, 0.0020303214, 0.00032823993, -202890.05, -49515.465, 0.0, 10.023609, 9.874823 
7.22752e+3, 2.942255e+2, -103454.555, -216617.14, -224.82253, 0.0020293535, -0.00015427747, -103454.11, -46863.42, 0.0, 10.023497, 9.875636 
7.2275174e+3, 3.041289e+2, -14831.43, -85309.484, -62.15048, 0.0020304497, 0.00026724604, -14831.375, -14831.375, 0.0, 10.02339, 9.930548 
7.2275156e+3, 3.1406122e+2, -13976.72, -83295.72, -64.95027, 0.002033531, 0.000029825598, -13976.658, -13976.658, 0.0, 10.023291, 9.931955 
7.237599e+3, 1.2539788e+2, -1688147.0, -1720251.9, -82.06431, 0.0020193155, 0.00017661981, -1688146.8, 22955.174, 0.0, 10.025645, 9.983043 
7.237596e+3, 1.3538077e+2, -1591072.0, -1623692.3, -126.53195, 0.0020208445, 0.0000031962306, -1591071.5, 22198.027, 0.0, 10.025541, 9.98226 
7.2375923e+3, 1.453571e+2, -1503298.9, -1544720.0, -248.96683, 0.0020224517, 0.000265401, -1503297.4, 12204.141, 0.0, 10.02543, 9.970525 
7.237589e+3, 1.5532759e+2, -1405893.6, -1447628.0, -289.79517, 0.0020239812, 0.00007227153, -1405891.6, 11898.994, 0.0, 10.025311, 9.969996 
7.237585e+3, 1.6529155e+2, -1318046.9, -1368817.0, -371.91632, 0.002024851, 0.00015373236, -1318044.3, 2099.6384, 0.0, 10.025187, 9.958021 
7.2375816e+3, 1.7524962e+2, -1220425.4, -1271413.1, -408.94226, 0.0020251833, 0.000052943098, -1220422.1, 2132.547, 0.0, 10.025058, 9.957611 
7.237578e+3, 1.8520112e+2, -1132550.0, -1192867.9, -452.8939, 0.0020262704, 0.00019769445, -1132546.6, -7516.6426, 0.0, 10.024924, 9.945293 
7.2375745e+3, 1.9514644e+2, -1034745.3, -1095223.3, -486.85767, 0.0020280285, 0.00006233399, -1034741.4, -7175.5757, 0.0, 10.024789, 9.944952 
7.237571e+3, 2.0508516e+2, -946819.56, -1016925.94, -497.07712, 0.0020291423, 0.0001832848, -946816.06, -16649.637, 0.0, 10.024651, 9.932278 
7.2375673e+3, 2.1501747e+2, -848880.6, -919146.94, -526.76715, 0.0020296427, -0.000009284617, -848876.6, -16046.913, 0.0, 10.024512, 9.931934 
7.237564e+3, 2.2494298e+2, -761077.06, -841466.56, -498.5501, 0.002030445, 0.00023709772, -761074.0, -25514.248, 0.0, 10.024373, 9.918669 
7.237561e+3, 2.348617e+2, -662985.6, -743528.7, -527.7854, 0.0020314741, 0.000022055165, -662982.2, -24625.973, 0.0, 10.024234, 9.918336 
7.237557e+3, 2.447735e+2, -574907.4, -665708.8, -455.937, 0.0020326118, 0.00018233694, -574905.06, -33684.695, 0.0, 10.024097, 9.90496 
7.2375536e+3, 2.5467858e+2, -476483.03, -567261.4, -480.3703, 0.0020337482, -0.000000015019175, -476480.5, -32329.926, 0.0, 10.023963, 9.9048605 
7.2375506e+3, 2.645766e+2, -388516.47, -490100.56, -374.05795, 0.002034558, 0.00024447433, -388515.1, -41364.98, 0.0, 10.023832, 9.890805 
7.2375476e+3, 2.7446795e+2, -289546.8, -390708.25, -392.61377, 0.0020347014, -0.000104468476, -289545.3, -39330.46, 0.0, 10.0237055, 9.891224 
7.237545e+3, 2.8435132e+2, -202963.98, -316871.06, -255.40439, 0.0020354316, 0.00032660287, -202963.4, -49605.49, 0.0, 10.023585, 9.874772 
7.237543e+3, 2.9422718e+2, -103528.89, -216710.75, -265.14035, 0.0020369152, -0.00015368796, -103528.266, -46953.766, 0.0, 10.023471, 9.8755865 
7.237541e+3, 3.041305e+2, -14906.022, -85402.79, -97.51352, 0.0020381056, 0.00026790667, -14905.887, -14905.887, 0.0, 10.023363, 9.930498 
7.237539e+3, 3.1406277e+2, -14050.802, -83388.695, -99.77048, 0.002038028, 0.000027462718, -14050.658, -14050.658, 0.0, 10.023264, 9.931905 
7.247625e+3, 1.2540103e+2, -1687395.8, -1719981.5, -47.23848, 0.002024927, 0.00017542372, -1687395.6, 23675.264, 0.0, 10.026172, 9.982927 
7.2476214e+3, 1.3538381e+2, -1590349.6, -1623439.0, -93.24956, 0.002026925, 0.0000020898249, -1590349.3, 22890.313, 0.0, 10.0260515, 9.982145 
7.2476184e+3, 1.4536004e+2, -1502599.4, -1544472.6, -222.45706, 0.0020284746, 0.0002643204, -1502598.1, 12874.544, 0.0, 10.025924, 9.970417 
7.247615e+3, 1.5533043e+2, -1405224.5, -1447398.1, -264.40088, 0.002029456, 0.0000711529, -1405222.9, 12540.033, 0.0, 10.025788, 9.969889 
7.2476107e+3, 1.6529426e+2, -1317400.5, -1368591.4, -351.1617, 0.0020304024, 0.00015255934, -1317398.0, 2719.091, 0.0, 10.025647, 9.957922 
7.247607e+3, 1.7525224e+2, -1219809.0, -1271204.9, -389.03082, 0.002031358, 0.00005172546, -1219806.0, 2722.93, 0.0, 10.0255, 9.957511 
7.247603e+3, 1.8520364e+2, -1131955.9, -1192663.8, -436.04477, 0.002032449, 0.00019659511, -1131952.8, -6947.5396, 0.0, 10.025352, 9.945201 
7.2475994e+3, 1.9514889e+2, -1034180.0, -1095035.6, -470.65048, 0.00203366, 0.000061508996, -1034176.4, -6634.458, 0.0, 10.025199, 9.94486 
7.247596e+3, 2.0508751e+2, -946271.75, -1016732.56, -482.4403, 0.002034768, 0.00018242773, -946268.44, -16125.068, 0.0, 10.025044, 9.9321995 
7.2475916e+3, 2.1501975e+2, -848362.7, -918970.5, -512.2828, 0.0020357904, -0.000010464115, -848358.94, -15551.509, 0.0, 10.024888, 9.931857 
7.2475886e+3, 2.2494517e+2, -760585.56, -841303.06, -483.92938, 0.0020366486, 0.00023597362, -760582.6, -25044.434, 0.0, 10.024732, 9.918592 
7.2475845e+3, 2.3486382e+2, -662521.1, -743380.3, -513.51807, 0.002037267, 0.000021359418, -662517.8, -24182.432, 0.0, 10.024577, 9.918259 
7.247581e+3, 2.4477556e+2, -574464.44, -665563.06, -440.42575, 0.0020383208, 0.00018164286, -574462.3, -33261.984, 0.0, 10.024423, 9.904892 
7.247578e+3, 2.5468057e+2, -476070.4, -567131.94, -464.9832, 0.0020397226, -0.0000011713499, -476068.03, -31936.877, 0.0, 10.02427, 9.904792 
7.247575e+3, 2.6457852e+2, -388125.25, -489974.16, -355.06863, 0.0020406973, 0.00024333234, -388124.03, -40992.676, 0.0, 10.024123, 9.890745 
7.247572e+3, 2.7446982e+2, -289180.38, -390594.97, -373.40765, 0.002040882, -0.000105027066, -289179.0, -38982.35, 0.0, 10.023981, 9.891164 
7.247569e+3, 2.843531e+2, -202616.0, -316755.2, -231.99037, 0.0020415455, 0.0003260515, -202615.52, -49275.25, 0.0, 10.023843, 9.874723 
7.2475666e+3, 2.942289e+2, -103210.664, -216609.77, -241.1546, 0.002042831, -0.00015490346, -103210.16, -46652.82, 0.0, 10.02371, 9.875538 
7.247564e+3, 3.041322e+2, -14616.134, -85317.41, -67.26827, 0.00204406, 0.00026669633, -14616.07, -14616.07, 0.0, 10.023586, 9.930449 
7.2475624e+3, 3.140644e+2, -13780.911, -83312.984, -68.6396, 0.00204435, 0.000027319502, -13780.843, -13780.843, 0.0, 10.023473, 9.931856 
7.257651e+3, 1.254043e+2, -1687523.6, -1720186.0, -91.168564, 0.002030238, 0.00017436073, -1687523.4, 23515.531, 0.0, 10.026155, 9.982811 
7.257648e+3, 1.3538696e+2, -1590477.8, -1623642.8, -137.23508, 0.0020333354, 0.0000009374616, -1590477.1, 22731.645, 0.0, 10.026034, 9.982028 
7.257644e+3, 1.4536306e+2, -1502721.6, -1544664.6, -272.30673, 0.002034814, 0.0002631958, -1502719.8, 12723.153, 0.0, 10.025906, 9.970307 
7.2576404e+3, 1.5533334e+2, -1405346.4, -1447589.3, -314.22345, 0.002034651, 0.00007009672, -1405344.0, 12390.237, 0.0, 10.025769, 9.96978 
7.257636e+3, 1.6529709e+2, -1317515.5, -1368769.1, -404.83218, 0.0020356772, 0.00015146955, -1317512.4, 2577.1692, 0.0, 10.025627, 9.957821 
7.2576326e+3, 1.7525496e+2, -1219924.0, -1271381.9, -442.63196, 0.0020377883, 0.00005049587, -1219920.1, 2582.1392, 0.0, 10.02548, 9.957411 
7.2576284e+3, 1.8520626e+2, -1132064.6, -1192828.3, -491.94205, 0.0020389142, 0.00019548408, -1132060.6, -7081.1553, 0.0, 10.025331, 9.945108 
7.257624e+3, 1.9515142e+2, -1034288.56, -1095199.3, -526.327, 0.0020391478, 0.00006071112, -1034284.06, -6766.9136, 0.0, 10.025177, 9.944767 
7.2576207e+3, 2.0508996e+2, -946368.8, -1016873.56, -539.4637, 0.0020401466, 0.00018162881, -946364.7, -16245.28, 0.0, 10.025022, 9.932121 
7.2576165e+3, 2.1502212e+2, -848459.56, -919110.9, -569.25476, 0.0020418947, -0.000011578971, -848454.94, -15670.689, 0.0, 10.024865, 9.931778 
7.2576135e+3, 2.2494745e+2, -760681.7, -841441.4, -540.4419, 0.0020429487, 0.00023495541, -760678.06, -25162.25, 0.0, 10.024709, 9.918516 
7.2576094e+3, 2.3486602e+2, -662617.56, -743518.25, -569.8902, 0.0020432235, 0.00002085362, -662613.56, -24299.813, 0.0, 10.024552, 9.918182 
7.257605e+3, 2.447777e+2, -574554.5, -665687.94, -495.6897, 0.0020440407, 0.00018100702, -574551.8, -33372.434, 0.0, 10.024399, 9.904823 
7.257602e+3, 2.5468266e+2, -476159.6, -567255.7, -520.12915, 0.0020453115, -0.0000026136763, -476156.63, -32045.736, 0.0, 10.024246, 9.904724 
7.257599e+3, 2.6458052e+2, -388208.9, -490086.0, -406.30927, 0.0020465648, 0.00024206274, -388207.28, -41095.582, 0.0, 10.024097, 9.890685 
7.2575957e+3, 2.7447173e+2, -289264.88, -390706.38, -424.43167, 0.0020474961, -0.000105033105, -289263.1, -39085.496, 0.0, 10.023954, 9.891104 
7.2575927e+3, 2.84355e+2, -202692.6, -316849.6, -279.6126, 0.002048032, 0.00032600926, -202691.92, -49370.164, 0.0, 10.023816, 9.874675 
7.25759e+3, 2.9423073e+2, -103285.8, -216702.11, -288.3787, 0.0020480985, -0.00015672912, -103285.06, -46745.766, 0.0, 10.023683, 9.87549 
7.257588e+3, 3.0413398e+2, -14691.468, -85409.44, -107.15161, 0.0020493125, 0.00026495635, -14691.305, -14691.305, 0.0, 10.023558, 9.9304 
7.257586e+3, 3.1406617e+2, -13858.659, -83406.11, -107.84336, 0.002051329, 0.000028045786, -13858.492, -13858.492, 0.0, 10.023443, 9.9318075 
7.267678e+3, 1.2540768e+2, -1686743.0, -1719903.5, -50.42266, 0.0020361631, 0.00017309665, -1686743.0, 24262.814, 0.0, 10.026701, 9.982693 
7.2676736e+3, 1.3539022e+2, -1589730.8, -1623380.0, -97.94599, 0.0020388279, -0.0000001380673, -1589730.5, 23446.27, 0.0, 10.026562, 9.981911 
7.2676706e+3, 1.4536622e+2, -1502000.0, -1544408.3, -239.5714, 0.002040404, 0.00026207708, -1501998.6, 13413.471, 0.0, 10.026415, 9.970197 
7.2676665e+3, 1.553364e+2, -1404656.5, -1447351.3, -282.6454, 0.0020407222, 0.00006871428, -1404654.6, 13049.783, 0.0, 10.026261, 9.969669 
7.267662e+3, 1.6530003e+2, -1316849.9, -1368535.6, -378.14014, 0.0020416933, 0.00015019844, -1316847.1, 3213.636, 0.0, 10.026101, 9.957719 
7.267658e+3, 1.752578e+2, -1219290.6, -1271167.0, -416.84567, 0.0020432812, 0.0000496921, -1219287.4, 3187.1917, 0.0, 10.025935, 9.957309 
7.2676545e+3, 1.8520902e+2, -1131455.1, -1192617.1, -468.9656, 0.002044397, 0.00019465155, -1131451.6, -6498.9023, 0.0, 10.025767, 9.945016 
7.26765e+3, 1.9515406e+2, -1033710.4, -1095005.9, -503.87204, 0.0020450992, 0.00005940581, -1033706.2, -6215.006, 0.0, 10.025596, 9.9446745 
7.267646e+3, 2.050925e+2, -945809.1, -1016674.75, -518.5464, 0.0020460638, 0.00018036382, -945805.4, -15711.01, 0.0, 10.025423, 9.932042 
7.267642e+3, 2.1502458e+2, -847930.25, -918929.3, -548.65344, 0.0020473192, -0.000012316903, -847926.0, -15166.048, 0.0, 10.025249, 9.9317 
7.267638e+3, 2.2494987e+2, -760181.06, -841273.4, -519.9618, 0.0020485143, 0.00023422568, -760177.75, -24685.484, 0.0, 10.025074, 9.918439 
7.2676337e+3, 2.3486836e+2, -662148.9, -743367.94, -549.60156, 0.0020495642, 0.000019607465, -662145.2, -23854.236, 0.0, 10.024899, 9.918106 
7.26763e+3, 2.4477996e+2, -574108.56, -665540.56, -473.58707, 0.0020504505, 0.00017979319, -574106.06, -32948.82, 0.0, 10.024726, 9.904756 
7.2676265e+3, 2.5468484e+2, -475741.47, -567123.44, -498.1529, 0.0020510294, -0.0000032152536, -475738.75, -31649.299, 0.0, 10.024557, 9.904656 
7.267623e+3, 2.6458263e+2, -387814.06, -489957.28, -381.5264, 0.0020521027, 0.00024150794, -387812.63, -40721.74, 0.0, 10.02439, 9.890625 
7.26762e+3, 2.7447382e+2, -288902.2, -390594.5, -399.62857, 0.0020534454, -0.00010618848, -288900.63, -38743.24, 0.0, 10.024227, 9.891044 
7.267617e+3, 2.8435698e+2, -202349.25, -316733.6, -249.6107, 0.0020541437, 0.00032475128, -202348.7, -49046.645, 0.0, 10.02407, 9.874627 
7.267614e+3, 2.9423273e+2, -102967.68, -216598.61, -257.45685, 0.0020540494, -0.00015739002, -102967.09, -46447.043, 0.0, 10.023921, 9.875443 
7.2676116e+3, 3.041359e+2, -14404.58, -85324.5, -71.007675, 0.0020552007, 0.00026438382, -14404.509, -14404.509, 0.0, 10.023778, 9.930352 
7.267609e+3, 3.1406802e+2, -13602.437, -83336.18, -71.22004, 0.0020573533, 0.000026949232, -13602.364, -13602.364, 0.0, 10.023643, 9.931759 
7.2777045e+3, 1.2541118e+2, -1686876.4, -1720114.4, -100.92726, 0.0020423657, 0.00017181566, -1686876.0, 24095.436, 0.0, 10.026683, 9.982573 
7.277701e+3, 1.3539362e+2, -1589863.5, -1623589.8, -148.49051, 0.0020440507, -0.0000011563527, -1589862.8, 23280.818, 0.0, 10.026544, 9.981791 
7.277697e+3, 1.4536949e+2, -1502126.1, -1544605.3, -295.58313, 0.0020457841, 0.00026102748, -1502124.1, 13255.912, 0.0, 10.026396, 9.970085 
7.2776926e+3, 1.5533954e+2, -1404782.9, -1447547.5, -338.65155, 0.0020471383, 0.00006729104, -1404780.1, 12893.327, 0.0, 10.02624, 9.969558 
7.2776884e+3, 1.6530307e+2, -1316969.3, -1368718.0, -438.2965, 0.0020480093, 0.00014895364, -1316965.6, 3065.2825, 0.0, 10.02608, 9.957616 
7.277684e+3, 1.7526074e+2, -1219409.9, -1271348.5, -476.9467, 0.0020485015, 0.00004908888, -1219405.5, 3040.1584, 0.0, 10.025914, 9.957206 
7.27768e+3, 1.8521185e+2, -1131567.5, -1192784.4, -531.222, 0.0020495823, 0.00019398796, -1131562.9, -6638.07, 0.0, 10.025744, 9.9449215 
7.277676e+3, 1.951568e+2, -1033823.0, -1095172.6, -565.9255, 0.002051218, 0.000057987432, -1033817.75, -6353.5522, 0.0, 10.025572, 9.944581 
7.277671e+3, 2.0509517e+2, -945910.3, -1016818.56, -581.64484, 0.0020521737, 0.00017900486, -945905.56, -15837.351, 0.0, 10.025398, 9.931964 
7.277667e+3, 2.1502718e+2, -848031.0, -919072.44, -611.4871, 0.0020525332, -0.000012866011, -848025.75, -15291.186, 0.0, 10.025224, 9.931621 
7.2776634e+3, 2.2495236e+2, -760280.0, -841413.2, -583.0044, 0.0020538392, 0.00023365319, -760275.8, -24808.184, 0.0, 10.025049, 9.918363 
7.2776586e+3, 2.3487079e+2, -662247.1, -743506.9, -612.7032, 0.0020560024, 0.000018183779, -662242.5, -23975.404, 0.0, 10.024874, 9.918029 
7.277655e+3, 2.4478231e+2, -574200.6, -665666.44, -534.671, 0.002057063, 0.00017846483, -574197.5, -33063.36, 0.0, 10.0247, 9.904687 
7.2776514e+3, 2.5468713e+2, -475834.47, -567249.1, -559.13556, 0.0020568047, -0.0000034199043, -475831.03, -31764.05, 0.0, 10.024529, 9.904588 
7.277647e+3, 2.6458487e+2, -387901.5, -490070.72, -440.0976, 0.0020575325, 0.00024133093, -387899.63, -40830.555, 0.0, 10.024363, 9.890564 
7.277644e+3, 2.74476e+2, -288988.84, -390706.66, -457.88715, 0.0020591072, -0.0001076646, -288986.78, -38850.65, 0.0, 10.024199, 9.890985 
7.277641e+3, 2.8435913e+2, -202426.66, -316825.7, -302.62643, 0.0020600592, 0.0003232125, -202425.86, -49144.51, 0.0, 10.024041, 9.874581 
7.2776383e+3, 2.942348e+2, -103045.77, -216689.63, -310.12155, 0.002060253, -0.00015755265, -103044.93, -46545.156, 0.0, 10.0238905, 9.875399 
7.2776353e+3, 3.0413792e+2, -14484.254, -85417.88, -118.46696, 0.0020612897, 0.00026441994, -14484.057, -14484.057, 0.0, 10.0237465, 9.930304 
7.277633e+3, 3.1407002e+2, -13681.971, -83429.62, -117.95673, 0.0020629615, 0.00002525325, -13681.771, -13681.771, 0.0, 10.023611, 9.93171 
7.287731e+3, 1.2541483e+2, -1686068.1, -1719820.5, -53.312588, 0.0020478687, 0.00017057918, -1686068.1, 24867.629, 0.0, 10.027247, 9.982451 
7.2877276e+3, 1.3539714e+2, -1589089.4, -1623315.9, -102.33577, 0.0020498654, -0.0000024227813, -1589089.1, 24019.94, 0.0, 10.027089, 9.981669 
7.2877234e+3, 1.453729e+2, -1501379.3, -1544338.1, -256.27216, 0.0020515716, 0.0002598976, -1501377.6, 13968.962, 0.0, 10.026922, 9.969973 
7.287719e+3, 1.5534283e+2, -1404071.4, -1447301.0, -300.4818, 0.0020524994, 0.000066396424, -1404069.4, 13571.849, 0.0, 10.026747, 9.969445 
7.287715e+3, 1.6530626e+2, -1316284.1, -1368476.6, -404.79486, 0.0020534853, 0.00014806964, -1316281.0, 3718.5996, 0.0, 10.0265665, 9.957513 
7.2877103e+3, 1.7526382e+2, -1218758.6, -1271126.4, -444.33707, 0.0020545796, 0.00004804907, -1218754.8, 3660.6292, 0.0, 10.0263815, 9.957103 
7.287706e+3, 1.8521485e+2, -1130941.8, -1192566.1, -501.75665, 0.0020555614, 0.00019290099, -1130937.8, -6042.2217, 0.0, 10.026193, 9.944828 
7.2877014e+3, 1.951597e+2, -1033232.2, -1094974.0, -537.1413, 0.0020564715, 0.000056958248, -1033227.5, -5791.629, 0.0, 10.026, 9.944488 
7.2876966e+3, 2.0509797e+2, -945338.9, -1016612.5, -553.37463, 0.002057463, 0.00017789265, -945334.56, -15293.857, 0.0, 10.025806, 9.931886 
7.2876924e+3, 2.1502991e+2, -847491.44, -918884.4, -582.76733, 0.0020586015, -0.000014196817, -847486.7, -14778.833, 0.0, 10.025614, 9.931543 
7.287688e+3, 2.2495502e+2, -759771.06, -841242.6, -554.3085, 0.0020599817, 0.00023232341, -759767.25, -24325.625, 0.0, 10.02542, 9.918284 
7.287684e+3, 2.3487337e+2, -661768.56, -743353.25, -584.8095, 0.0020615144, 0.000017073271, -661764.4, -23522.47, 0.0, 10.025227, 9.917951 
7.28768e+3, 2.4478482e+2, -573746.3, -665515.1, -506.17764, 0.002062529, 0.00017747407, -573743.5, -32633.879, 0.0, 10.025034, 9.904618 
7.287676e+3, 2.5468957e+2, -475414.78, -567116.3, -530.92255, 0.002062839, -0.0000044074013, -475411.7, -31368.545, 0.0, 10.024842, 9.904519 
7.287672e+3, 2.6458725e+2, -387506.34, -489940.38, -408.317, 0.0020636383, 0.00024046341, -387504.72, -40458.875, 0.0, 10.024654, 9.890506 
7.2876686e+3, 2.7447832e+2, -288623.2, -390591.75, -425.68262, 0.0020647245, -0.00010827732, -288621.4, -38507.918, 0.0, 10.024472, 9.890925 
7.287665e+3, 2.843614e+2, -202082.66, -316707.88, -265.8205, 0.0020656318, 0.00032257123, -202082.05, -48822.82, 0.0, 10.024295, 9.874536 
7.287662e+3, 2.94237e+2, -102735.375, -216588.45, -272.93613, 0.0020663128, -0.00015847526, -102734.72, -46256.62, 0.0, 10.024123, 9.875353 
7.287659e+3, 3.0414006e+2, -14207.119, -85335.516, -75.31305, 0.0020674465, 0.00026343405, -14207.039, -14207.039, 0.0, 10.023959, 9.930258 
7.2876567e+3, 3.140721e+2, -13430.148, -83359.62, -73.71006, 0.0020688272, 0.000024537741, -13430.071, -13430.071, 0.0, 10.023807, 9.931664 
7.297759e+3, 1.254186e+2, -1686206.0, -1720037.3, -110.26062, 0.0020531972, 0.00016942433, -1686205.6, 24693.012, 0.0, 10.027228, 9.982329 
7.297754e+3, 1.354008e+2, -1589227.6, -1623532.0, -159.30228, 0.0020559267, -0.000003722177, -1589226.9, 23846.313, 0.0, 10.027069, 9.981547 
7.297751e+3, 1.4537643e+2, -1501510.6, -1544540.8, -319.22485, 0.0020575488, 0.0002588279, -1501508.3, 13803.658, 0.0, 10.0269, 9.969858 
7.2977453e+3, 1.5534627e+2, -1404202.3, -1447502.4, -363.36313, 0.002057552, 0.00006573997, -1404199.3, 13408.324, 0.0, 10.026725, 9.969331 
7.297741e+3, 1.6530956e+2, -1316407.6, -1368663.4, -471.41913, 0.0020587132, 0.00014738171, -1316403.4, 3563.7139, 0.0, 10.026545, 9.957408 
7.297737e+3, 1.7526704e+2, -1218882.1, -1271312.5, -510.83316, 0.0020609694, 0.00004691647, -1218877.3, 3506.7566, 0.0, 10.026358, 9.956998 
7.2977316e+3, 1.8521796e+2, -1131058.1, -1192737.1, -570.89197, 0.0020618406, 0.00019176741, -1131052.9, -6187.835, 0.0, 10.026168, 9.944733 
7.2977275e+3, 1.9516271e+2, -1033348.7, -1095144.3, -606.15796, 0.0020614818, 0.00005615102, -1033342.75, -5936.4355, 0.0, 10.025974, 9.944392 
7.2977227e+3, 2.0510091e+2, -945441.56, -1016755.25, -622.9978, 0.002062517, 0.00017695643, -945436.1, -15424.155, 0.0, 10.025781, 9.931808 
7.2977185e+3, 2.1503276e+2, -847593.8, -919026.56, -652.8531, 0.0020649524, -0.000015723619, -847587.9, -14907.996, 0.0, 10.025587, 9.931466 
7.297714e+3, 2.249578e+2, -759874.56, -841386.94, -624.3402, 0.0020663745, 0.00023081327, -759869.8, -24455.336, 0.0, 10.025393, 9.918205 
7.297709e+3, 2.3487605e+2, -661871.75, -743496.8, -654.1484, 0.0020666872, 0.000016201917, -661866.5, -23651.06, 0.0, 10.025199, 9.917871 
7.297705e+3, 2.4478742e+2, -573842.2, -665643.4, -574.64935, 0.0020675755, 0.00017672915, -573838.56, -32754.637, 0.0, 10.025005, 9.90455 
7.2977006e+3, 2.546921e+2, -475510.94, -567244.0, -599.1718, 0.0020689229, -0.000005564405, -475507.03, -31488.906, 0.0, 10.024813, 9.90445 
7.297697e+3, 2.6458973e+2, -387595.84, -490053.06, -472.80722, 0.002069941, 0.00023947733, -387593.66, -40572.195, 0.0, 10.024625, 9.890447 
7.297693e+3, 2.744807e+2, -288712.97, -390703.66, -490.08148, 0.0020703278, -0.00010848529, -288710.63, -38620.973, 0.0, 10.024442, 9.890867 
7.2976893e+3, 2.8436378e+2, -202163.48, -316800.7, -326.5869, 0.0020710763, 0.0003224174, -202162.56, -48926.668, 0.0, 10.024263, 9.87449 
7.297686e+3, 2.942393e+2, -102815.06, -216679.3, -333.25082, 0.0020722745, -0.00015960545, -102814.086, -46358.87, 0.0, 10.024091, 9.875308 
7.2976834e+3, 3.0414236e+2, -14287.443, -85426.69, -128.46986, 0.0020735112, 0.0002622874, -14287.211, -14287.211, 0.0, 10.023926, 9.930211 
7.2976804e+3, 3.1407437e+2, -13512.9375, -83452.03, -126.25589, 0.0020747508, 0.00002428198, -13512.71, -13512.71, 0.0, 10.023772, 9.931619 
7.3077863e+3, 1.2542257e+2, -1685366.9, -1719729.9, -55.545986, 0.0020589, 0.00016823676, -1685366.9, 25493.098, 0.0, 10.027813, 9.982205 
7.3077816e+3, 1.3540462e+2, -1588428.1, -1623247.6, -105.88186, 0.0020613112, -0.0000047553244, -1588427.8, 24607.973, 0.0, 10.027632, 9.981423 
7.3077774e+3, 1.4538014e+2, -1500740.4, -1544263.5, -272.01498, 0.0020630253, 0.0002577475, -1500738.6, 14536.979, 0.0, 10.027443, 9.969744 
7.307773e+3, 1.5534985e+2, -1403468.3, -1447246.0, -317.11832, 0.0020633214, 0.000064372216, -1403465.9, 14106.495, 0.0, 10.027246, 9.969216 
7.307768e+3, 1.6531307e+2, -1315701.0, -1368412.0, -429.76422, 0.0020643396, 0.00014603548, -1315697.5, 4235.484, 0.0, 10.027045, 9.957303 
7.307763e+3, 1.7527042e+2, -1218212.1, -1271082.0, -469.82318, 0.002066093, 0.00004590462, -1218208.0, 4142.884, 0.0, 10.026838, 9.956893 
7.3077583e+3, 1.8522123e+2, -1130416.1, -1192512.1, -533.0426, 0.0020671922, 0.00019092529, -1130411.6, -5578.704, 0.0, 10.026627, 9.944637 
7.3077536e+3, 1.9516589e+2, -1032743.25, -1094939.8, -568.91864, 0.0020677194, 0.000055334243, -1032738.06, -5362.913, 0.0, 10.026412, 9.944297 
7.307749e+3, 2.0510401e+2, -944858.9, -1016547.5, -586.54724, 0.0020687385, 0.00017592817, -944854.06, -14872.395, 0.0, 10.026198, 9.931727 
7.307744e+3, 2.1503577e+2, -847044.8, -918837.75, -618.13605, 0.0020703275, -0.000017186838, -847039.5, -14389.127, 0.0, 10.025985, 9.931385 
7.307739e+3, 2.2496073e+2, -759353.0, -841206.1, -589.64825, 0.0020715676, 0.00022941301, -759348.75, -23963.04, 0.0, 10.025771, 9.918131 
7.3077345e+3, 2.3487893e+2, -661383.2, -743334.4, -618.21313, 0.0020723606, 0.000015362373, -661378.5, -23191.092, 0.0, 10.0255575, 9.917797 
7.30773e+3, 2.4479023e+2, -573381.25, -665487.9, -537.85175, 0.0020733443, 0.00017606774, -573378.1, -32321.523, 0.0, 10.025343, 9.904482 
7.3077255e+3, 2.5469482e+2, -475084.97, -567107.3, -562.28186, 0.002074364, -0.000006473627, -475081.53, -31090.074, 0.0, 10.025128, 9.904384 
7.307722e+3, 2.6459238e+2, -387197.56, -489921.5, -432.1689, 0.0020754656, 0.00023845605, -387195.75, -40200.344, 0.0, 10.024919, 9.890388 
7.307717e+3, 2.744833e+2, -288349.28, -390590.1, -449.81473, 0.0020764244, -0.000109448316, -288347.3, -38283.11, 0.0, 10.024714, 9.890809 
7.3077136e+3, 2.843663e+2, -201821.16, -316681.4, -281.5635, 0.0020772708, 0.00032141342, -201820.47, -48609.535, 0.0, 10.024515, 9.874446 
7.3077106e+3, 2.9424185e+2, -102503.15, -216574.98, -287.36688, 0.0020779266, -0.00016064731, -102502.42, -46071.742, 0.0, 10.024323, 9.875265 
7.307707e+3, 3.0414483e+2, -14012.463, -85345.1, -77.77975, 0.0020789949, 0.00026133427, -14012.378, -14012.378, 0.0, 10.024137, 9.930165 
7.3077047e+3, 3.1407678e+2, -13273.063, -83387.81, -75.52691, 0.0020808317, 0.000023577984, -13272.981, -13272.981, 0.0, 10.023959, 9.931572 
7.317814e+3, 1.2542666e+2, -1685510.3, -1719952.6, -120.19391, 0.002064777, 0.0001671327, -1685509.9, 25309.887, 0.0, 10.027792, 9.9820795 
7.3178095e+3, 1.354086e+2, -1588570.6, -1623469.0, -170.52602, 0.0020665128, -0.0000056447934, -1588569.9, 24426.89, 0.0, 10.02761, 9.981298 
7.3178047e+3, 1.45384e+2, -1500875.6, -1544470.3, -341.92154, 0.0020683876, 0.00025677058, -1500873.0, 14364.856, 0.0, 10.02742, 9.969627 
7.3178005e+3, 1.5535359e+2, -1403603.9, -1447452.1, -386.98358, 0.0020693846, 0.00006286132, -1403600.5, 13935.289, 0.0, 10.027223, 9.969101 
7.317795e+3, 1.6531669e+2, -1315828.9, -1368602.3, -503.7178, 0.0020701454, 0.00014457836, -1315824.0, 4073.3655, 0.0, 10.02702, 9.957197 
7.31779e+3, 1.7527394e+2, -1218339.6, -1271271.4, -543.6961, 0.002070833, 0.000044998244, -1218334.1, 3982.2202, 0.0, 10.026813, 9.956787 
7.317785e+3, 1.8522465e+2, -1130536.1, -1192686.5, -609.66516, 0.002072263, 0.00019027489, -1130530.1, -5730.853, 0.0, 10.026601, 9.944541 
7.31778e+3, 1.9516923e+2, -1032862.94, -1095113.4, -645.3445, 0.002074366, 0.00005457523, -1032856.25, -5513.728, 0.0, 10.026385, 9.9442005 
7.317775e+3, 2.0510724e+2, -944968.3, -1016700.44, -662.7955, 0.0020753474, 0.00017496572, -944962.2, -15012.263, 0.0, 10.026171, 9.931644 
7.31777e+3, 2.1503893e+2, -847154.5, -918990.3, -694.79297, 0.0020753741, -0.000018471866, -847147.75, -14528.342, 0.0, 10.025956, 9.931301 
7.3177654e+3, 2.249638e+2, -759456.0, -841344.2, -666.25116, 0.002076352, 0.00022820472, -759450.56, -24095.01, 0.0, 10.025742, 9.918057 
7.31776e+3, 2.3488191e+2, -661487.0, -743472.25, -694.0889, 0.0020781762, 0.000014644831, -661481.1, -23323.107, 0.0, 10.025527, 9.917724 
7.317755e+3, 2.4479315e+2, -573481.1, -665616.94, -613.72406, 0.0020793271, 0.00017552922, -573477.0, -32449.143, 0.0, 10.025311, 9.904414 
7.317751e+3, 2.5469768e+2, -475184.3, -567235.5, -638.17426, 0.002079588, -0.0000071625086, -475179.9, -31216.514, 0.0, 10.025097, 9.904316 
7.317747e+3, 2.6459518e+2, -387290.94, -490037.25, -504.46988, 0.0020807115, 0.00023759267, -387288.47, -40320.5, 0.0, 10.024886, 9.890328 
7.317742e+3, 2.7448606e+2, -288442.44, -390704.88, -521.79736, 0.0020826228, -0.00011057979, -288439.78, -38402.453, 0.0, 10.024681, 9.89075 
7.3177385e+3, 2.84369e+2, -201903.4, -316772.3, -348.91226, 0.0020836352, 0.00032029417, -201902.34, -48717.76, 0.0, 10.024481, 9.874402 
7.317735e+3, 2.9424447e+2, -102585.83, -216664.53, -354.39676, 0.0020834594, -0.0001615403, -102584.73, -46179.99, 0.0, 10.024288, 9.875223 
7.3177314e+3, 3.0414742e+2, -14097.846, -85439.34, -139.49565, 0.0020842035, 0.00026071706, -14097.573, -14097.573, 0.0, 10.024101, 9.930119 
7.3177284e+3, 3.1407934e+2, -13358.813, -83482.67, -136.44765, 0.0020868804, 0.000022791979, -13358.548, -13358.548, 0.0, 10.023923, 9.931525 
7.3278415e+3, 1.2543096e+2, -1684643.0, -1719633.0, -57.08754, 0.0020700442, 0.00016584308, -1684642.9, 26134.709, 0.0, 10.028396, 9.981954 
7.3278373e+3, 1.3541277e+2, -1587742.9, -1623172.3, -108.69379, 0.0020720465, -0.000006855526, -1587742.5, 25213.348, 0.0, 10.028192, 9.981173 
7.3278326e+3, 1.4538805e+2, -1500079.0, -1544181.1, -286.54688, 0.0020740384, 0.00025571967, -1500077.1, 15121.034, 0.0, 10.027979, 9.969511 
7.327828e+3, 1.5535752e+2, -1402848.0, -1447186.3, -332.53238, 0.0020748426, 0.0000619287, -1402845.5, 14651.721, 0.0, 10.02776, 9.968985 
7.3278224e+3, 1.6532052e+2, -1315102.5, -1368341.9, -453.31903, 0.0020755741, 0.00014352577, -1315098.6, 4761.2603, 0.0, 10.0275345, 9.957091 
7.3278177e+3, 1.7527765e+2, -1217651.0, -1271032.4, -493.94327, 0.002076407, 0.00004368148, -1217646.4, 4633.4844, 0.0, 10.027305, 9.956681 
7.327812e+3, 1.8522826e+2, -1129875.8, -1192452.6, -562.8779, 0.0020777883, 0.00018888328, -1129870.8, -5106.779, 0.0, 10.027072, 9.944445 
7.3278064e+3, 1.9517274e+2, -1032239.2, -1094900.3, -598.9021, 0.0020796484, 0.000053280954, -1032233.5, -4925.4546, 0.0, 10.026835, 9.944105 
7.327801e+3, 2.0511065e+2, -944372.7, -1016492.4, -616.89014, 0.0020807437, 0.00017395763, -944367.44, -14451.078, 0.0, 10.026599, 9.931558 
7.3277956e+3, 2.1504225e+2, -846595.5, -918802.75, -650.5667, 0.0020812356, -0.000019010073, -846589.6, -14002.931, 0.0, 10.026362, 9.931215 
7.327791e+3, 2.2496708e+2, -758919.4, -841149.3, -622.28253, 0.0020821488, 0.00022761262, -758914.7, -23591.088, 0.0, 10.026126, 9.917988 
7.3277855e+3, 2.3488511e+2, -660987.94, -743298.06, -648.7256, 0.00208338, 0.000013476233, -660982.8, -22856.1, 0.0, 10.025888, 9.917654 
7.327781e+3, 2.4479628e+2, -573016.4, -665460.1, -567.27313, 0.002084625, 0.00017419714, -573012.9, -32015.637, 0.0, 10.025652, 9.9043455 
7.327776e+3, 2.5470075e+2, -474754.0, -567097.3, -592.28625, 0.002085687, -0.000008240409, -474750.2, -30816.748, 0.0, 10.025416, 9.904247 
7.327771e+3, 2.6459816e+2, -386887.3, -489902.5, -455.2227, 0.0020868406, 0.00023659448, -386885.3, -39946.67, 0.0, 10.025185, 9.890269 
7.327767e+3, 2.74489e+2, -288073.66, -390588.25, -472.40054, 0.002087925, -0.00011167111, -288071.47, -38062.883, 0.0, 10.024957, 9.890691 
7.327763e+3, 2.8437188e+2, -201558.69, -316650.72, -295.1465, 0.0020888494, 0.00031926157, -201557.94, -48401.598, 0.0, 10.0247345, 9.874359 
7.327759e+3, 2.9424733e+2, -102278.164, -216561.16, -300.4147, 0.0020894369, -0.00016217613, -102277.375, -45900.477, 0.0, 10.024517, 9.875181 
7.327755e+3, 3.0415022e+2, -13829.079, -85359.42, -80.340385, 0.002090298, 0.00026008295, -13828.989, -13828.989, 0.0, 10.024307, 9.930074 
7.327753e+3, 3.140821e+2, -13121.269, -83418.28, -76.47445, 0.0020925542, 0.000021600426, -13121.186, -13121.186, 0.0, 10.024107, 9.931479 
7.3378706e+3, 1.2543543e+2, -1684791.0, -1719861.0, -129.29893, 0.002075175, 0.00016459537, -1684790.5, 25943.318, 0.0, 10.028373, 9.981826 
7.337866e+3, 1.3541712e+2, -1587891.3, -1623399.5, -180.84586, 0.0020777246, -0.000008110382, -1587890.4, 25022.98, 0.0, 10.028168, 9.981045 
7.3378605e+3, 1.4539227e+2, -1500219.5, -1544392.6, -364.54907, 0.0020798184, 0.00025476865, -1500216.4, 14940.317, 0.0, 10.027954, 9.969393 
7.3378557e+3, 1.5536164e+2, -1402987.6, -1447396.4, -410.45685, 0.002080133, 0.0000612829, -1402983.9, 14473.095, 0.0, 10.027734, 9.968867 
7.3378503e+3, 1.653245e+2, -1315233.9, -1368535.3, -534.6307, 0.0020809153, 0.00014272663, -1315228.5, 4592.3315, 0.0, 10.027508, 9.956984 
7.337845e+3, 1.7528154e+2, -1217782.8, -1271225.1, -575.1917, 0.0020823176, 0.00004232548, -1217776.6, 4465.251, 0.0, 10.027277, 9.956574 
7.337839e+3, 1.8523204e+2, -1129999.6, -1192629.8, -646.81494, 0.0020835134, 0.00018739616, -1129992.9, -5266.081, 0.0, 10.027043, 9.944348 
7.3378336e+3, 1.9517642e+2, -1032362.2, -1095076.1, -682.78656, 0.0020844666, 0.00005192516, -1032354.75, -5082.852, 0.0, 10.026807, 9.944008 
7.337828e+3, 2.0511426e+2, -944489.4, -1016655.1, -700.5638, 0.0020857113, 0.00017304804, -944482.6, -14601.468, 0.0, 10.026569, 9.931469 
7.3378223e+3, 2.1504577e+2, -846713.25, -918965.56, -733.975, 0.002087344, -0.000019211453, -846705.75, -14153.433, 0.0, 10.026332, 9.931127 
7.337817e+3, 2.2497049e+2, -759022.06, -841280.9, -706.1421, 0.0020882692, 0.00022732042, -759016.0, -23726.023, 0.0, 10.026094, 9.917919 
7.3378116e+3, 2.3488848e+2, -661090.8, -743429.3, -732.57135, 0.0020883882, 0.000012319992, -661084.3, -22990.504, 0.0, 10.025856, 9.917585 
7.337807e+3, 2.4479955e+2, -573120.2, -665592.5, -650.5245, 0.0020896804, 0.00017277306, -573115.6, -32150.617, 0.0, 10.025619, 9.904277 
7.3378015e+3, 2.5470397e+2, -474857.88, -567229.2, -675.2658, 0.0020920176, -0.000009304434, -474852.94, -30951.063, 0.0, 10.025382, 9.904179 
7.337796e+3, 2.6460132e+2, -386984.16, -490019.06, -534.9513, 0.0020931899, 0.00023572495, -386981.38, -40073.676, 0.0, 10.025149, 9.890211 
7.337792e+3, 2.7449208e+2, -288170.66, -390703.97, -551.97394, 0.002092894, -0.000112603215, -288167.66, -38189.453, 0.0, 10.024921, 9.890633 
7.337788e+3, 2.8437492e+2, -201644.63, -316742.9, -371.09085, 0.0020936395, 0.00031849946, -201643.42, -48516.953, 0.0, 10.024697, 9.874316 
7.3377836e+3, 2.9425034e+2, -102363.164, -216651.36, -375.8982, 0.0020955086, -0.00016265351, -102361.93, -46014.48, 0.0, 10.02448, 9.875139 
7.33778e+3, 3.041532e+2, -13916.039, -85452.586, -149.19086, 0.0020965436, 0.00025967776, -13915.728, -13915.728, 0.0, 10.024269, 9.930029 
7.3377764e+3, 3.1408498e+2, -13210.776, -83513.1, -144.68712, 0.002098031, 0.000020425781, -13210.479, -13210.479, 0.0, 10.024068, 9.931435 
7.347899e+3, 1.2544012e+2, -1683892.4, -1719526.6, -57.942913, 0.0020807781, 0.00016340955, -1683892.3, 26795.588, 0.0, 10.028997, 9.981697 
7.3478943e+3, 1.3542168e+2, -1587037.8, -1623091.1, -110.46287, 0.0020829134, -0.000009292572, -1587037.5, 25831.12, 0.0, 10.028767, 9.980917 
7.347889e+3, 1.4539671e+2, -1499399.3, -1544092.6, -299.63733, 0.0020850236, 0.00025359946, -1499397.3, 15716.032, 0.0, 10.028529, 9.9692745 
7.3478836e+3, 1.5536596e+2, -1402207.6, -1447119.4, -346.3394, 0.002085479, 0.00005996801, -1402205.0, 15209.656, 0.0, 10.028286, 9.968749 
7.347878e+3, 1.6532871e+2, -1314484.9, -1368264.1, -474.76263, 0.0020863637, 0.0001414178, -1314480.8, 5298.84, 0.0, 10.028037, 9.956877 
7.347872e+3, 1.7528564e+2, -1217075.4, -1270977.5, -515.90765, 0.0020878797, 0.000041253363, -1217070.4, 5131.22, 0.0, 10.027782, 9.956468 
7.347866e+3, 1.8523604e+2, -1129322.4, -1192388.6, -589.5727, 0.0020890583, 0.00018648624, -1129316.9, -4629.2627, 0.0, 10.027526, 9.94425 
7.3478603e+3, 1.9518033e+2, -1031721.56, -1094855.8, -626.2159, 0.0020898303, 0.000051113304, -1031715.4, -4481.692, 0.0, 10.027267, 9.943911 
7.347855e+3, 2.0511808e+2, -943878.2, -1016439.94, -644.8357, 0.0020909626, 0.00017200697, -943872.44, -14028.671, 0.0, 10.027008, 9.931382 
7.347849e+3, 2.1504949e+2, -846142.1, -918772.7, -678.1642, 0.002092556, -0.000020777734, -846135.8, -13619.931, 0.0, 10.026747, 9.931039 
7.347843e+3, 2.2497414e+2, -758473.7, -841079.1, -650.13513, 0.0020937421, 0.00022585758, -758468.56, -23214.316, 0.0, 10.026486, 9.9178505 
7.3478377e+3, 2.3489204e+2, -660579.75, -743248.1, -676.9887, 0.0020944187, 0.000011583168, -660574.2, -22515.457, 0.0, 10.026226, 9.917517 
7.3478323e+3, 2.4480307e+2, -572644.7, -665429.5, -594.2963, 0.002095612, 0.0001721541, -572640.94, -31710.283, 0.0, 10.025966, 9.904209 
7.347827e+3, 2.5470743e+2, -474419.47, -567086.25, -618.93463, 0.0020971254, -0.000010470153, -474415.34, -30547.182, 0.0, 10.025706, 9.904111 
7.3478216e+3, 2.6460472e+2, -386575.78, -489882.1, -475.5029, 0.0020982304, 0.00023447353, -386573.6, -39698.98, 0.0, 10.025451, 9.890152 
7.347817e+3, 2.7449542e+2, -287799.9, -390586.66, -492.8771, 0.0020987643, -0.000113378344, -287797.53, -37851.855, 0.0, 10.025198, 9.890574 
7.3478127e+3, 2.8437817e+2, -201297.47, -316618.34, -307.5637, 0.002099766, 0.00031768234, -201296.66, -48202.215, 0.0, 10.024951, 9.874275 
7.347808e+3, 2.9425353e+2, -102051.35, -216544.13, -311.75195, 0.0021010768, -0.00016398662, -102050.51, -45734.69, 0.0, 10.024711, 9.875099 
7.3478043e+3, 3.0415636e+2, -13647.088, -85373.05, -81.126976, 0.0021018882, 0.0002583112, -13646.996, -13646.996, 0.0, 10.024475, 9.929984 
7.347801e+3, 3.1408814e+2, -12981.404, -83453.445, -76.88785, 0.0021040214, 0.00001972108, -12981.32, -12981.32, 0.0, 10.024247, 9.931389 
7.357928e+3, 1.2544501e+2, -1684045.3, -1719759.3, -138.95705, 0.002086555, 0.00016237359, -1684044.8, 26595.145, 0.0, 10.028972, 9.981567 
7.357923e+3, 1.3542643e+2, -1587190.0, -1623322.3, -191.45058, 0.0020879856, -0.000010364934, -1587189.0, 25632.902, 0.0, 10.028741, 9.980788 
7.3579174e+3, 1.4540134e+2, -1499543.6, -1544307.9, -385.3567, 0.0020900962, 0.00025252282, -1499540.4, 15527.481, 0.0, 10.028502, 9.969155 
7.3579115e+3, 1.5537047e+2, -1402352.6, -1447333.9, -431.99393, 0.0020908872, 0.000058572456, -1402348.4, 15021.904, 0.0, 10.028257, 9.968631 
7.3579055e+3, 1.6533312e+2, -1314621.1, -1368461.4, -564.4176, 0.002091872, 0.00014009782, -1314615.3, 5121.219, 0.0, 10.0280075, 9.956769 
7.3579e+3, 1.7528993e+2, -1217210.5, -1271173.3, -605.48816, 0.0020933377, 0.000040375046, -1217203.8, 4955.8286, 0.0, 10.027753, 9.95636 
7.357894e+3, 1.8524024e+2, -1129450.3, -1192569.5, -680.49115, 0.0020945603, 0.00018591243, -1129443.0, -4796.4067, 0.0, 10.027495, 9.944152 
7.3578876e+3, 1.9518442e+2, -1031850.3, -1095036.4, -716.88477, 0.0020953938, 0.000050581533, -1031842.2, -4648.662, 0.0, 10.027236, 9.943812 
7.3578817e+3, 2.0512207e+2, -943998.94, -1016603.94, -736.6126, 0.0020963256, 0.00017105894, -943991.44, -14186.901, 0.0, 10.026976, 9.931294 
7.357876e+3, 2.150534e+2, -846262.44, -918935.94, -769.9067, 0.0020974565, -0.000022610935, -846254.25, -13776.757, 0.0, 10.026714, 9.930951 
7.35787e+3, 2.2497797e+2, -758579.94, -841213.56, -741.63525, 0.0020989573, 0.0002241871, -758573.3, -23356.596, 0.0, 10.026452, 9.917782 
7.357864e+3, 2.3489581e+2, -660687.0, -743382.7, -768.18353, 0.0021007282, 0.000011137245, -660679.9, -22658.05, 0.0, 10.026191, 9.917448 
7.3578584e+3, 2.4480678e+2, -572751.8, -665562.3, -685.0111, 0.0021017736, 0.00017194643, -572746.75, -31852.39, 0.0, 10.025929, 9.904141 
7.3578525e+3, 2.5471103e+2, -474526.56, -567218.5, -709.69696, 0.0021018041, -0.000011489411, -474521.13, -30688.543, 0.0, 10.025669, 9.904043 
7.357847e+3, 2.6460826e+2, -386676.78, -490001.47, -563.5561, 0.0021028076, 0.00023332093, -386673.72, -39834.043, 0.0, 10.025413, 9.890092 
7.3578423e+3, 2.744989e+2, -287900.6, -390705.0, -580.643, 0.0021048603, -0.00011398288, -287897.3, -37985.99, 0.0, 10.02516, 9.890515 
7.3578376e+3, 2.8438166e+2, -201385.58, -316709.56, -391.28485, 0.002106239, 0.00031708146, -201384.25, -48323.68, 0.0, 10.024913, 9.874234 
7.357833e+3, 2.9425696e+2, -102139.734, -216633.86, -395.09265, 0.0021064323, -0.00016545998, -102138.375, -45856.04, 0.0, 10.024671, 9.875059 
7.3578286e+3, 3.0415976e+2, -13739.641, -85470.39, -159.43842, 0.0021068086, 0.00025695967, -13739.286, -13739.286, 0.0, 10.024434, 9.929937 
7.3578244e+3, 3.1409147e+2, -13075.017, -83552.13, -154.40094, 0.0021100498, 0.000019296045, -13074.679, -13074.679, 0.0, 10.024206, 9.931342 
7.367957e+3, 1.2545015e+2, -1683118.3, -1719411.8, -57.754944, 0.0020916644, 0.0001611381, -1683118.1, 27471.428, 0.0, 10.029614, 9.981438 
7.367952e+3, 1.3543144e+2, -1586308.0, -1623000.6, -111.2922, 0.0020933426, -0.000011558955, -1586307.6, 26465.197, 0.0, 10.029359, 9.980659 
7.3679465e+3, 1.4540622e+2, -1498697.0, -1543995.0, -310.6969, 0.002095585, 0.00025150774, -1498694.9, 16325.0205, 0.0, 10.029095, 9.969036 
7.36794e+3, 1.5537523e+2, -1401551.6, -1447046.9, -357.9367, 0.002096133, 0.000057654637, -1401548.8, 15774.838, 0.0, 10.028824, 9.968512 
7.367934e+3, 1.6533777e+2, -1313852.6, -1368181.0, -493.3939, 0.0020970115, 0.00013899585, -1313848.1, 5842.683, 0.0, 10.028549, 9.95666 
7.367928e+3, 1.7529447e+2, -1216481.4, -1270915.4, -535.0111, 0.0020985317, 0.000038967275, -1216476.1, 5638.875, 0.0, 10.028273, 9.956252 
7.3679215e+3, 1.8524468e+2, -1128752.6, -1192317.6, -612.25665, 0.0020998926, 0.00018446712, -1128746.8, -4143.7383, 0.0, 10.027991, 9.944055 
7.367915e+3, 1.9518876e+2, -1031195.0, -1094808.3, -648.68616, 0.0021008616, 0.00004934724, -1031188.4, -4037.445, 0.0, 10.027707, 9.943715 
7.367909e+3, 2.0512632e+2, -943375.06, -1016383.0, -668.5377, 0.0021018465, 0.00017007942, -943368.94, -13606.026, 0.0, 10.027423, 9.931206 
7.367903e+3, 2.1505755e+2, -845676.0, -918736.0, -702.32025, 0.0021029487, -0.000023278959, -845669.25, -13232.532, 0.0, 10.02714, 9.930863 
7.3678964e+3, 2.2498205e+2, -758015.1, -841002.06, -674.45374, 0.0021043376, 0.00022344665, -758009.6, -22832.992, 0.0, 10.0268545, 9.917714 
7.36789e+3, 2.3489982e+2, -660162.75, -743193.56, -700.6547, 0.002105908, 0.000009936016, -660156.8, -22174.39, 0.0, 10.026568, 9.91738 
7.3678845e+3, 2.4481072e+2, -572266.94, -665395.7, -616.4011, 0.00210708, 0.00017061294, -572262.9, -31407.176, 0.0, 10.026283, 9.904073 
7.3678786e+3, 2.547149e+2, -474080.0, -567072.6, -641.84595, 0.0021075457, -0.000012614557, -474075.56, -30281.018, 0.0, 10.026, 9.903975 
7.367873e+3, 2.6461208e+2, -386260.06, -489860.13, -493.03986, 0.0021085571, 0.00023223477, -386257.72, -39455.457, 0.0, 10.02572, 9.890034 
7.367868e+3, 2.745027e+2, -287521.72, -390583.44, -510.22958, 0.0021101758, -0.000115198, -287519.2, -37644.695, 0.0, 10.025443, 9.890456 
7.3678625e+3, 2.8438535e+2, -201032.11, -316580.78, -317.17096, 0.0021116233, 0.0003159424, -201031.25, -48007.023, 0.0, 10.02517, 9.874193 
7.3678577e+3, 2.9426065e+2, -101826.914, -216525.05, -320.83316, 0.0021123863, -0.00016606232, -101826.016, -45579.637, 0.0, 10.024901, 9.875019 
7.367853e+3, 3.041634e+2, -13472.409, -85391.63, -81.38126, 0.0021127032, 0.0002563471, -13472.317, -13472.317, 0.0, 10.024639, 9.929893 
7.3678493e+3, 3.1409505e+2, -12845.398, -83492.48, -76.107544, 0.0021154059, 0.000018095712, -12845.316, -12845.316, 0.0, 10.024385, 9.931296 
7.377987e+3, 1.254555e+2, -1683276.0, -1719649.3, -147.42848, 0.0020965987, 0.00015997523, -1683275.5, 27261.52, 0.0, 10.029588, 9.981306 
7.3779815e+3, 1.3543667e+2, -1586466.0, -1623237.0, -200.80217, 0.0020988127, -0.000012703186, -1586464.9, 26256.645, 0.0, 10.02933, 9.980527 
7.377975e+3, 1.4541133e+2, -1498846.3, -1544213.9, -405.385, 0.0021012316, 0.00025068023, -1498842.6, 16127.301, 0.0, 10.029065, 9.968916 
7.377969e+3, 1.5538022e+2, -1401699.9, -1447264.1, -452.5245, 0.0021013613, 0.00005701616, -1401695.4, 15579.3955, 0.0, 10.028794, 9.968391 
7.3779625e+3, 1.6534263e+2, -1313992.6, -1368381.3, -590.3911, 0.0021020628, 0.00013813697, -1313986.1, 5656.9067, 0.0, 10.028519, 9.956552 
7.377956e+3, 1.7529924e+2, -1216622.3, -1271115.0, -631.88226, 0.002103676, 0.000037549653, -1216614.9, 5453.4136, 0.0, 10.02824, 9.956143 
7.37795e+3, 1.8524934e+2, -1128885.0, -1192500.4, -711.6514, 0.0021051895, 0.00018295531, -1128877.0, -4319.6797, 0.0, 10.027958, 9.943956 
7.377943e+3, 1.9519334e+2, -1031326.25, -1094989.5, -747.99554, 0.0021062682, 0.000048007027, -1031317.5, -4211.228, 0.0, 10.027674, 9.943617 
7.377936e+3, 2.0513079e+2, -943499.7, -1016550.44, -767.6845, 0.00210739, 0.00016922898, -943491.6, -13772.49, 0.0, 10.027389, 9.931117 
7.3779297e+3, 2.1506193e+2, -845801.9, -918903.56, -801.19415, 0.0021086135, -0.00002339382, -845793.1, -13399.316, 0.0, 10.027103, 9.930774 
7.377923e+3, 2.2498636e+2, -758124.9, -841136.44, -774.25287, 0.0021097364, 0.00022318744, -758117.7, -22983.18, 0.0, 10.026817, 9.917646 
7.377917e+3, 2.3490407e+2, -660272.25, -743327.4, -800.38916, 0.0021106668, 0.00000867529, -660264.56, -22323.6, 0.0, 10.026531, 9.917313 
7.3779106e+3, 2.4481489e+2, -572378.44, -665532.75, -715.17145, 0.0021120405, 0.00016910267, -572372.94, -31558.105, 0.0, 10.026245, 9.904003 
7.377904e+3, 2.5471902e+2, -474191.94, -567209.44, -740.4271, 0.0021135842, -0.000013570991, -474186.06, -30431.629, 0.0, 10.025961, 9.903905 
7.3778987e+3, 2.6461613e+2, -386364.84, -489981.1, -588.9404, 0.0021146452, 0.00023142878, -386361.5, -39598.746, 0.0, 10.02568, 9.889975 
7.3778933e+3, 2.7450666e+2, -287626.7, -390703.63, -605.95685, 0.0021151695, -0.00011644382, -287623.13, -37787.57, 0.0, 10.025402, 9.890398 
7.377888e+3, 2.843893e+2, -201124.2, -316673.34, -410.06448, 0.0021165546, 0.0003149189, -201122.75, -48136.965, 0.0, 10.025128, 9.874153 
7.3778826e+3, 2.9426453e+2, -101918.33, -216615.72, -413.33273, 0.0021184164, -0.00016627894, -101916.836, -45708.508, 0.0, 10.024858, 9.87498 
7.377878e+3, 3.041672e+2, -13568.18, -85490.25, -168.26802, 0.0021187323, 0.0002562758, -13567.786, -13567.786, 0.0, 10.024595, 9.929847 
7.3778737e+3, 3.1409883e+2, -12943.67, -83593.24, -162.30675, 0.0021204394, 0.000016801727, -12943.297, -12943.297, 0.0, 10.024341, 9.93125 
7.388017e+3, 1.2546115e+2, -1682318.8, -1719286.4, -56.430004, 0.002101766, 0.00015870239, -1682318.6, 28163.025, 0.0, 10.03025, 9.981175 
7.3880106e+3, 1.3544218e+2, -1585558.8, -1622902.6, -110.304794, 0.0021038456, -0.000013980695, -1585558.4, 27109.139, 0.0, 10.0299635, 9.980397 
7.3880047e+3, 1.4541672e+2, -1497976.0, -1543889.4, -319.115, 0.0021064263, 0.00024942725, -1497973.8, 16943.303, 0.0, 10.029673, 9.968797 
7.387998e+3, 1.5538548e+2, -1400873.8, -1446964.6, -366.75784, 0.002106619, 0.000055636992, -1400870.9, 16352.307, 0.0, 10.029376, 9.968272 
7.387991e+3, 1.653478e+2, -1313201.1, -1368089.0, -507.6373, 0.0021073055, 0.0001368825, -1313196.5, 6396.094, 0.0, 10.029075, 9.956443 
7.3879844e+3, 1.753043e+2, -1215876.4, -1270848.5, -549.3083, 0.0021088913, 0.000036770714, -1215870.9, 6147.952, 0.0, 10.0287695, 9.956036 
7.387977e+3, 1.8525428e+2, -1128171.9, -1192240.9, -630.12366, 0.0021104175, 0.00018209129, -1128165.6, -3656.7065, 0.0, 10.028463, 9.943858 
7.3879707e+3, 1.9519816e+2, -1030651.6, -1094751.9, -666.8713, 0.0021114454, 0.000046578334, -1030644.7, -3585.9326, 0.0, 10.028157, 9.943519 
7.387964e+3, 2.0513554e+2, -942856.7, -1016319.2, -687.3915, 0.0021126464, 0.00016775964, -942850.25, -13177.682, 0.0, 10.027848, 9.931029 
7.387957e+3, 2.1506661e+2, -845201.44, -918696.06, -720.7955, 0.0021140492, -0.000024414676, -845194.4, -12846.265, 0.0, 10.027537, 9.930686 
7.3879504e+3, 2.2499093e+2, -757547.44, -840918.25, -693.5335, 0.0021151807, 0.0002222481, -757541.7, -22452.123, 0.0, 10.027227, 9.91758 
7.387944e+3, 2.3490858e+2, -659733.06, -743130.44, -719.8647, 0.002115942, 0.0000074527384, -659726.9, -21830.188, 0.0, 10.026918, 9.917245 
7.3879373e+3, 2.4481934e+2, -571878.8, -665359.0, -634.1006, 0.00211732, 0.00016781513, -571874.56, -31103.283, 0.0, 10.026608, 9.903934 
7.387931e+3, 2.547234e+2, -473732.8, -567057.6, -659.62195, 0.0021190245, -0.000014691331, -473728.16, -30016.656, 0.0, 10.026299, 9.903835 
7.387924e+3, 2.6462042e+2, -385938.1, -489835.34, -505.56192, 0.0021202078, 0.00023046702, -385935.63, -39215.188, 0.0, 10.025992, 9.889915 
7.387918e+3, 2.745109e+2, -287240.63, -390579.13, -523.1094, 0.0021208588, -0.000117247284, -287237.97, -37444.13, 0.0, 10.02569, 9.890339 
7.387913e+3, 2.8439346e+2, -200763.75, -316540.16, -323.95102, 0.0021221626, 0.00031393446, -200762.84, -47818.29, 0.0, 10.02539, 9.874113 
7.3879075e+3, 2.9426867e+2, -101597.88, -216502.23, -327.06824, 0.0021235533, -0.00016762075, -101596.95, -45429.473, 0.0, 10.025095, 9.874941 
7.387902e+3, 3.0417135e+2, -13296.902, -85410.93, -79.55411, 0.002123932, 0.00025482214, -13296.814, -13296.814, 0.0, 10.024804, 9.9298 
7.387898e+3, 3.1410292e+2, -12716.012, -83536.195, -74.21773, 0.0021266653, 0.000015927759, -12715.934, -12715.934, 0.0, 10.02452, 9.931202 
7.3980474e+3, 1.2546705e+2, -1682481.1, -1719526.6, -155.82217, 0.0021070126, 0.00015754925, -1682480.4, 27943.498, 0.0, 10.03022, 9.981044 
7.398041e+3, 1.3544793e+2, -1585720.3, -1623141.1, -209.59065, 0.002108756, -0.00001517336, -1585719.1, 26891.965, 0.0, 10.029933, 9.980266 
7.3980343e+3, 1.4542235e+2, -1498129.5, -1544111.3, -422.2278, 0.0021114922, 0.00024825113, -1498125.6, 16736.281, 0.0, 10.029641, 9.968676 
7.398027e+3, 1.55391e+2, -1401027.6, -1447185.5, -469.69373, 0.0021119097, 0.00005420318, -1401022.9, 16146.261, 0.0, 10.029343, 9.968152 
7.3980206e+3, 1.6535318e+2, -1313345.8, -1368291.5, -613.7181, 0.0021126233, 0.00013571602, -1313338.9, 6200.7446, 0.0, 10.029041, 9.956334 
7.3980135e+3, 1.7530957e+2, -1216019.9, -1271049.4, -655.2447, 0.0021141379, 0.00003632795, -1216012.1, 5954.9297, 0.0, 10.028735, 9.955927 
7.3980063e+3, 1.8525946e+2, -1128307.9, -1192426.3, -736.69666, 0.0021156243, 0.00018164393, -1128299.4, -3841.2976, 0.0, 10.028428, 9.94376 
7.397999e+3, 1.9520326e+2, -1030788.9, -1094937.1, -773.2524, 0.002116536, 0.00004530737, -1030779.5, -3770.615, 0.0, 10.02812, 9.94342 
7.3979914e+3, 2.0514053e+2, -942986.06, -1016488.25, -795.1148, 0.0021177838, 0.00016630725, -942977.44, -13353.859, 0.0, 10.02781, 9.930941 
7.397985e+3, 2.150715e+2, -845330.0, -918864.1, -828.4105, 0.0021193398, -0.000025532458, -845320.6, -13020.654, 0.0, 10.027499, 9.930598 
7.397978e+3, 2.2499578e+2, -757660.4, -841054.56, -800.9106, 0.0021205551, 0.00022127804, -757652.7, -22610.473, 0.0, 10.027188, 9.917512 
7.3979706e+3, 2.3491335e+2, -659847.2, -743266.94, -826.98096, 0.0021213586, 0.000006468803, -659839.0, -21988.975, 0.0, 10.026877, 9.917177 
7.397964e+3, 2.4482402e+2, -571995.2, -665498.5, -741.0914, 0.0021226709, 0.00016684347, -571989.3, -31264.023, 0.0, 10.026567, 9.903864 
7.397957e+3, 2.5472802e+2, -473849.0, -567196.56, -766.5453, 0.002124187, -0.000015627022, -473842.7, -30176.518, 0.0, 10.0262575, 9.903766 
7.39795e+3, 2.64625e+2, -386047.5, -489959.78, -610.1857, 0.0021255037, 0.0002297322, -386043.9, -39368.125, 0.0, 10.02595, 9.889854 
7.3979443e+3, 2.7451542e+2, -287350.03, -390702.75, -627.5673, 0.0021266604, -0.000117756346, -287346.22, -37596.453, 0.0, 10.025646, 9.890279 
7.397938e+3, 2.8439793e+2, -200859.14, -316633.6, -425.64807, 0.00212789, 0.00031327602, -200857.58, -47956.617, 0.0, 10.025346, 9.874073 
7.3979324e+3, 2.942731e+2, -101693.23, -216594.03, -428.38724, 0.002128328, -0.00016917166, -101691.63, -45567.355, 0.0, 10.025049, 9.874902 
7.397927e+3, 3.0417573e+2, -13398.55, -85514.734, -176.58186, 0.0021287214, 0.00025330493, -13398.117, -13398.117, 0.0, 10.024757, 9.929752 
7.397922e+3, 3.1410724e+2, -12819.4375, -83642.086, -170.55551, 0.0021330244, 0.00001536673, -12819.027, -12819.027, 0.0, 10.024472, 9.931152 
7.408078e+3, 1.2547325e+2, -1681496.8, -1719150.0, -53.67823, 0.0021121847, 0.00015628325, -1681496.6, 28866.475, 0.0, 10.030899, 9.980912 
7.408071e+3, 1.3545401e+2, -1584786.3, -1622793.0, -107.98498, 0.0021136699, -0.000016430606, -1584785.9, 27765.668, 0.0, 10.030584, 9.980135 
7.408064e+3, 1.454283e+2, -1497234.6, -1543773.1, -324.331, 0.0021165162, 0.00024706233, -1497232.4, 17571.195, 0.0, 10.030263, 9.968555 
7.408057e+3, 1.5539682e+2, -1400181.8, -1446875.0, -371.80692, 0.0021169903, 0.000053056658, -1400178.9, 16933.127, 0.0, 10.029938, 9.968033 
7.40805e+3, 1.653589e+2, -1312535.3, -1367989.0, -517.3793, 0.0021177025, 0.00013446138, -1312530.4, 6953.192, 0.0, 10.02961, 9.956226 
7.4080426e+3, 1.7531519e+2, -1215251.4, -1270770.6, -559.032, 0.0021192068, 0.000034980618, -1215245.8, 6666.297, 0.0, 10.02928, 9.955819 
7.408035e+3, 1.8526497e+2, -1127573.5, -1192155.4, -641.7182, 0.0021208217, 0.00018036382, -1127567.1, -3163.0186, 0.0, 10.028948, 9.943662 
7.408027e+3, 1.9520867e+2, -1030099.25, -1094691.3, -678.22626, 0.0021218695, 0.00004427317, -1030092.1, -3136.234, 0.0, 10.028613, 9.943323 
7.40802e+3, 2.0514585e+2, -942329.1, -1016250.1, -699.79266, 0.0021230464, 0.00016530715, -942322.5, -12751.016, 0.0, 10.028279, 9.930853 
7.408012e+3, 2.1507673e+2, -844711.06, -918647.44, -733.3918, 0.0021243256, -0.000026704576, -844703.8, -12455.051, 0.0, 10.027946, 9.93051 
7.408005e+3, 2.2500092e+2, -757063.2, -840825.0, -706.3522, 0.002125657, 0.00022004098, -757057.2, -22065.447, 0.0, 10.027612, 9.917445 
7.407998e+3, 2.3491843e+2, -659292.1, -743060.75, -732.07513, 0.0021269356, 0.0000052558376, -659285.75, -21485.525, 0.0, 10.027275, 9.917111 
7.40799e+3, 2.4482904e+2, -571482.7, -665319.06, -645.23694, 0.002128314, 0.00016569391, -571478.25, -30802.137, 0.0, 10.026939, 9.903794 
7.4079835e+3, 2.5473297e+2, -473376.53, -567038.9, -671.2956, 0.0021294665, -0.000016671414, -473371.72, -29753.986, 0.0, 10.026605, 9.903696 
7.4079764e+3, 2.6462987e+2, -385607.7, -489808.8, -513.09503, 0.0021306078, 0.0002286443, -385605.16, -38977.21, 0.0, 10.026273, 9.889794 
7.4079704e+3, 2.745202e+2, -286951.53, -390573.47, -531.18176, 0.002131868, -0.000119037955, -286948.8, -37246.285, 0.0, 10.025943, 9.890218 
7.407964e+3, 2.8440267e+2, -200486.83, -316494.1, -326.74347, 0.0021334328, 0.0003119688, -200485.9, -47631.676, 0.0, 10.025615, 9.874034 
7.4079573e+3, 2.9427785e+2, -101364.23, -216475.88, -329.61417, 0.0021343702, -0.00017004467, -101363.29, -45285.37, 0.0, 10.0252905, 9.874864 
7.407952e+3, 3.0418038e+2, -13122.145, -85434.98, -76.22527, 0.0021346498, 0.0002523601, -13122.064, -13122.064, 0.0, 10.02497, 9.929704 
7.4079466e+3, 3.141119e+2, -12586.824, -83584.914, -70.9459, 0.002137952, 0.000014316552, -12586.753, -12586.753, 0.0, 10.024655, 9.931103 
7.4181086e+3, 1.2547973e+2, -1681663.4, -1719393.4, -162.62907, 0.0021173079, 0.00015517355, -1681662.8, 28636.86, 0.0, 10.030868, 9.98078 
7.4181014e+3, 1.3546038e+2, -1584953.1, -1623034.8, -216.69736, 0.0021186108, -0.000017554832, -1584951.9, 27537.422, 0.0, 10.03055, 9.980003 
7.418094e+3, 1.4543453e+2, -1497392.3, -1543996.3, -436.90228, 0.0021215407, 0.00024610257, -1497388.1, 17354.426, 0.0, 10.030229, 9.968436 
7.418087e+3, 1.5540294e+2, -1400338.4, -1447096.4, -484.2541, 0.0021220038, 0.00005219052, -1400333.4, 16718.783, 0.0, 10.029902, 9.967914 
7.4180794e+3, 1.6536489e+2, -1312683.5, -1368193.3, -631.2624, 0.0021226984, 0.00013342683, -1312676.3, 6748.623, 0.0, 10.029573, 9.956118 
7.4180716e+3, 1.7532106e+2, -1215400.4, -1270974.1, -672.72424, 0.0021242397, 0.00003354482, -1215392.3, 6462.1553, 0.0, 10.029242, 9.95571 
7.418064e+3, 1.8527076e+2, -1127714.5, -1192342.8, -757.1959, 0.0021260118, 0.00017909192, -1127705.6, -3358.1365, 0.0, 10.028909, 9.943564 
7.418056e+3, 1.9521435e+2, -1030239.1, -1094877.3, -793.54083, 0.0021272046, 0.000043499127, -1030229.4, -3329.1638, 0.0, 10.028574, 9.943225 
7.4180484e+3, 2.0515142e+2, -942462.25, -1016421.94, -814.6124, 0.0021282798, 0.00016466467, -942453.3, -12936.581, 0.0, 10.028239, 9.930764 
7.4180406e+3, 2.1508223e+2, -844845.44, -918819.25, -847.98315, 0.0021291906, -0.000027667254, -844835.75, -12640.886, 0.0, 10.0279045, 9.930421 
7.418033e+3, 2.2500633e+2, -757180.44, -840961.8, -822.1816, 0.0021306206, 0.00021896217, -757172.4, -22233.758, 0.0, 10.027569, 9.917379 
7.418025e+3, 2.3492378e+2, -659409.0, -743196.94, -847.7136, 0.0021324516, 0.0000042380684, -659400.4, -21652.682, 0.0, 10.027232, 9.917045 
7.4180174e+3, 2.4483432e+2, -571603.25, -665462.0, -760.2957, 0.0021339285, 0.00016475996, -571597.1, -30972.816, 0.0, 10.026896, 9.903724 
7.4180096e+3, 2.5473818e+2, -473497.75, -567181.7, -786.2923, 0.0021347057, -0.000017489972, -473491.13, -29924.547, 0.0, 10.02656, 9.903625 
7.418003e+3, 2.64635e+2, -385722.7, -489937.66, -626.4045, 0.0021356116, 0.00022775863, -385718.9, -39141.43, 0.0, 10.026227, 9.889732 
7.417996e+3, 2.7452528e+2, -287066.44, -390701.5, -644.2697, 0.002136787, -0.00012036775, -287062.44, -37409.777, 0.0, 10.025896, 9.890157 
7.4179894e+3, 2.8440773e+2, -200586.42, -316589.56, -437.94116, 0.002138787, 0.00031083808, -200584.77, -47779.914, 0.0, 10.025568, 9.873994 
7.417983e+3, 2.9428282e+2, -101463.37, -216569.47, -440.51907, 0.0021406112, -0.00017054868, -101461.69, -45432.77, 0.0, 10.025242, 9.874825 
7.417977e+3, 3.0418536e+2, -13229.212, -85543.766, -183.14525, 0.0021407262, 0.0002519996, -13228.748, -13228.748, 0.0, 10.02492, 9.929653 
7.4179715e+3, 3.1411678e+2, -12696.57, -83696.4, -177.20287, 0.0021422314, 0.000013275124, -12696.128, -12696.128, 0.0, 10.024605, 9.931052 
7.4281394e+3, 1.2548657e+2, -1680651.1, -1719001.0, -49.14918, 0.0021221025, 0.00015380411, -1680651.1, 29581.469, 0.0, 10.031563, 9.980648 
7.428132e+3, 1.3546707e+2, -1583996.0, -1622673.4, -103.14501, 0.0021236371, -0.000018703351, -1583995.8, 28427.873, 0.0, 10.031215, 9.979873 
7.428125e+3, 1.454411e+2, -1496476.0, -1543646.3, -325.30768, 0.0021267142, 0.00024489814, -1496473.8, 18204.361, 0.0, 10.030864, 9.968316 
7.4281174e+3, 1.554094e+2, -1399469.3, -1446772.9, -372.70062, 0.0021269277, 0.000050817882, -1399466.3, 17522.531, 0.0, 10.030511, 9.967794 
7.4281096e+3, 1.6537124e+2, -1311851.3, -1367878.1, -521.0047, 0.0021276027, 0.00013205531, -1311846.4, 7516.276, 0.0, 10.030154, 9.95601 
7.4281013e+3, 1.753273e+2, -1214615.4, -1270685.5, -562.1756, 0.0021293687, 0.000032485314, -1214609.8, 7183.4585, 0.0, 10.029796, 9.955604 
7.428093e+3, 1.8527688e+2, -1126964.0, -1192062.9, -646.4313, 0.002131152, 0.00017803782, -1126957.6, -2670.2664, 0.0, 10.029438, 9.943466 
7.428085e+3, 1.9522038e+2, -1029528.5, -1094619.9, -682.7531, 0.0021320486, 0.00004224681, -1029521.3, -2680.3096, 0.0, 10.02908, 9.943128 
7.428077e+3, 2.0515738e+2, -941784.8, -1016173.06, -703.932, 0.002133279, 0.00016334992, -941778.1, -12319.7, 0.0, 10.028721, 9.9306755 
7.4280685e+3, 2.1508808e+2, -844210.94, -918594.4, -737.3027, 0.0021347338, -0.000028961982, -844203.6, -12066.161, 0.0, 10.028361, 9.930332 
7.428061e+3, 2.2501211e+2, -756567.25, -840722.75, -711.1478, 0.0021361315, 0.00021774185, -756561.25, -21679.309, 0.0, 10.028001, 9.917314 
7.4280524e+3, 2.3492949e+2, -658834.3, -742979.44, -736.428, 0.002137318, 0.000003119114, -658827.9, -21136.205, 0.0, 10.027641, 9.916979 
7.4280447e+3, 2.4483998e+2, -571072.25, -665274.5, -649.0145, 0.0021387697, 0.00016364414, -571067.75, -30498.81, 0.0, 10.027281, 9.903652 
7.4280363e+3, 2.5474375e+2, -473008.9, -567017.2, -675.7465, 0.0021402088, -0.000018712593, -473004.03, -29492.107, 0.0, 10.026919, 9.903554 
7.428029e+3, 2.6464054e+2, -385267.84, -489780.47, -514.20465, 0.0021413555, 0.00022651312, -385265.3, -38741.824, 0.0, 10.02656, 9.889671 
7.428022e+3, 2.7453077e+2, -286653.53, -390566.44, -532.80566, 0.0021423632, -0.00012150153, -286650.78, -37051.54, 0.0, 10.026203, 9.890095 
7.428015e+3, 2.8441313e+2, -200199.47, -316443.13, -324.79608, 0.0021440994, 0.00030966962, -200198.56, -47446.598, 0.0, 10.025847, 9.873954 
7.4280083e+3, 2.942882e+2, -101120.31, -216444.78, -327.85257, 0.0021454527, -0.00017166372, -101119.38, -45142.98, 0.0, 10.025494, 9.874786 
7.428002e+3, 3.0419067e+2, -12942.3, -85461.69, -70.475105, 0.00214588, 0.0002506965, -12942.231, -12942.231, 0.0, 10.025142, 9.929603 
7.4279964e+3, 3.1412205e+2, -12457.665, -83639.125, -65.77419, 0.0021482953, 0.00001233484, -12457.604, -12457.604, 0.0, 10.024794, 9.931 
7.4381715e+3, 1.254937e+2, -1680822.6, -1719245.5, -168.9638, 0.0021267252, 0.00015253526, -1680821.9, 29340.777, 0.0, 10.0315275, 9.980517 
7.438164e+3, 1.3547407e+2, -1584165.9, -1622915.3, -222.6995, 0.002128676, -0.000019695268, -1584164.6, 28190.3, 0.0, 10.031178, 9.979743 
7.438156e+3, 1.4544798e+2, -1496637.4, -1543871.0, -446.7909, 0.0021318935, 0.0002438762, -1496633.1, 17977.47, 0.0, 10.030827, 9.968197 
7.4381477e+3, 1.5541615e+2, -1399631.1, -1446996.4, -493.93283, 0.0021318407, 0.000049536495, -1399626.0, 17296.541, 0.0, 10.030472, 9.967676 
7.4381393e+3, 1.6537789e+2, -1312003.9, -1368083.1, -644.05524, 0.0021324793, 0.00013088768, -1311996.5, 7300.9966, 0.0, 10.030115, 9.955903 
7.438131e+3, 1.7533384e+2, -1214766.9, -1270888.8, -685.03156, 0.002134491, 0.0000317295, -1214758.5, 6970.5396, 0.0, 10.029756, 9.955497 
7.4381226e+3, 1.8528332e+2, -1127108.5, -1192251.5, -769.16437, 0.0021362195, 0.0001773241, -1127099.4, -2875.1907, 0.0, 10.029396, 9.943369 
7.4381137e+3, 1.9522673e+2, -1029673.9, -1094808.1, -805.27563, 0.0021367103, 0.000041064053, -1029663.94, -2885.071, 0.0, 10.029037, 9.94303 
7.4381053e+3, 2.0516363e+2, -941923.5, -1016347.3, -827.20404, 0.0021381616, 0.00016208802, -941914.3, -12517.124, 0.0, 10.028677, 9.930587 
7.4380964e+3, 2.1509425e+2, -844348.75, -918767.6, -860.3595, 0.0021403541, -0.00003008015, -844338.8, -12261.795, 0.0, 10.0283165, 9.9302435 
7.4380887e+3, 2.250182e+2, -756687.3, -840859.8, -834.2134, 0.0021416533, 0.00021676645, -756679.0, -21856.734, 0.0, 10.027956, 9.917249 
7.4380803e+3, 2.3493552e+2, -658955.5, -743116.75, -859.297, 0.0021419325, 0.000002249746, -658946.75, -21314.08, 0.0, 10.0275955, 9.916914 
7.438072e+3, 2.4484593e+2, -571199.25, -665422.3, -772.60657, 0.002143334, 0.00016275841, -571192.94, -30682.334, 0.0, 10.027234, 9.903581 
7.4380636e+3, 2.5474963e+2, -473135.5, -567164.4, -799.22144, 0.0021456447, -0.000019755997, -473128.72, -29674.416, 0.0, 10.026872, 9.9034815 
7.438056e+3, 2.6464632e+2, -385387.72, -489913.38, -636.1445, 0.0021471826, 0.00022552123, -385383.84, -38917.34, 0.0, 10.026512, 9.889608 
7.438048e+3, 2.745365e+2, -286773.63, -390698.7, -654.6442, 0.0021479833, -0.0001223432, -286769.5, -37226.594, 0.0, 10.026154, 9.890033 
7.438041e+3, 2.8441882e+2, -200303.97, -316541.84, -445.58972, 0.002149277, 0.00030892933, -200302.25, -47606.145, 0.0, 10.025797, 9.873914 
7.438034e+3, 2.9429385e+2, -101224.59, -216541.72, -448.32874, 0.0021497011, -0.00017279717, -101222.85, -45301.91, 0.0, 10.025442, 9.874746 
7.438027e+3, 3.041963e+2, -13056.004, -85577.2, -188.30597, 0.0021505838, 0.00024956043, -13055.515, -13055.515, 0.0, 10.025089, 9.929549 
7.438021e+3, 3.141276e+2, -12573.393, -83757.11, -183.21744, 0.0021545799, 0.000011637144, -12572.921, -12572.921, 0.0, 10.024741, 9.930945 
7.448203e+3, 1.2550123e+2, -1679787.9, -1718839.3, -43.113716, 0.0021315466, 0.00015077797, -1679787.9, 30300.959, 0.0, 10.032237, 9.980388 
7.448195e+3, 1.3548148e+2, -1583184.6, -1622539.1, -96.53502, 0.0021332677, -0.000021029671, -1583184.4, 29098.037, 0.0, 10.0318575, 9.979614 
7.448187e+3, 1.4545526e+2, -1495698.6, -1543506.8, -321.7698, 0.0021366256, 0.0002425493, -1495696.4, 18842.87, 0.0, 10.031475, 9.96808 
7.448178e+3, 1.5542331e+2, -1398744.1, -1446661.1, -368.27103, 0.0021368975, 0.000048276477, -1398741.3, 18111.133, 0.0, 10.031091, 9.967559 
7.44817e+3, 1.6538493e+2, -1311154.4, -1367757.3, -517.73987, 0.0021374908, 0.00012956034, -1311149.6, 8078.8174, 0.0, 10.030706, 9.955796 
7.448161e+3, 1.7534079e+2, -1213960.6, -1270587.4, -558.33545, 0.00213918, 0.0000304139, -1213955.1, 7705.953, 0.0, 10.030323, 9.955391 
7.4481523e+3, 1.8529016e+2, -1126337.4, -1191959.6, -642.14404, 0.0021410813, 0.00017596892, -1126331.1, -2173.943, 0.0, 10.029939, 9.943273 
7.4481434e+3, 1.9523348e+2, -1028947.06, -1094541.0, -677.89996, 0.0021421073, 0.00003972077, -1028940.06, -2227.3281, 0.0, 10.029553, 9.942934 
7.4481344e+3, 2.0517029e+2, -941230.06, -1016089.94, -698.6927, 0.0021434636, 0.00016084914, -941223.56, -11891.579, 0.0, 10.029169, 9.930499 
7.4481255e+3, 2.1510081e+2, -843693.25, -918531.6, -731.9075, 0.0021449667, -0.000031151452, -843686.06, -11673.367, 0.0, 10.028787, 9.930156 
7.4481165e+3, 2.2502469e+2, -756051.44, -840607.6, -706.1032, 0.0021463865, 0.00021563718, -756045.5, -21286.818, 0.0, 10.028402, 9.917184 
7.448108e+3, 2.3494194e+2, -658361.44, -742887.94, -730.817, 0.002147545, 0.00000083154026, -658355.1, -20785.402, 0.0, 10.028017, 9.916849 
7.448099e+3, 2.4485227e+2, -570650.9, -665227.2, -643.8281, 0.0021490103, 0.00016133992, -570646.5, -30198.164, 0.0, 10.027631, 9.903508 
7.448091e+3, 2.547559e+2, -472626.78, -566991.1, -671.1236, 0.0021506362, -0.00002093331, -472622.0, -29229.277, 0.0, 10.027245, 9.903409 
7.4480826e+3, 2.6465255e+2, -384912.97, -489748.8, -507.46887, 0.0021519708, 0.00022438042, -384910.53, -38504.918, 0.0, 10.026859, 9.889544 
7.448074e+3, 2.7454266e+2, -286341.9, -390557.03, -527.2267, 0.0021531757, -0.00012355114, -286339.25, -36856.63, 0.0, 10.026474, 9.889968 
7.448067e+3, 2.8442493e+2, -199897.98, -316386.44, -317.56735, 0.0021547845, 0.00030766815, -199897.13, -47260.766, 0.0, 10.02609, 9.873873 
7.4480593e+3, 2.942999e+2, -100864.17, -216408.9, -320.91318, 0.0021554003, -0.00017384681, -100863.28, -45001.707, 0.0, 10.025705, 9.874707 
7.448052e+3, 3.042023e+2, -12755.477, -85493.27, -62.2955, 0.0021563969, 0.00024816685, -12755.423, -12755.423, 0.0, 10.025322, 9.929494 
7.4480456e+3, 3.1413355e+2, -12321.18, -83698.38, -59.345623, 0.0021595135, 0.000010310381, -12321.131, -12321.131, 0.0, 10.0249405, 9.930888 
7.4582356e+3, 1.255091e+2, -1679962.1, -1719083.1, -172.8769, 0.0021363352, 0.00014917892, -1679961.4, 30050.39, 0.0, 10.032198, 9.980258 
7.458227e+3, 1.3548921e+2, -1583359.4, -1622781.4, -226.03987, 0.0021377485, -0.000022249074, -1583358.0, 28848.572, 0.0, 10.031817, 9.9794855 
7.4582183e+3, 1.4546287e+2, -1495864.1, -1543730.9, -453.22675, 0.002141183, 0.00024141227, -1495859.9, 18604.781, 0.0, 10.031434, 9.967962 
7.4582094e+3, 1.5543081e+2, -1398908.1, -1446882.8, -499.50192, 0.002141932, 0.000047280166, -1398903.0, 17875.953, 0.0, 10.031049, 9.9674425 
7.4582005e+3, 1.6539232e+2, -1311310.3, -1367962.3, -648.6888, 0.002142489, 0.000128532, -1311302.8, 7853.289, 0.0, 10.0306635, 9.95569 
7.4581915e+3, 1.7534807e+2, -1214117.1, -1270791.5, -689.0312, 0.0021437602, 0.00002915053, -1214108.8, 7480.944, 0.0, 10.030278, 9.955285 
7.458182e+3, 1.8529736e+2, -1126486.8, -1192149.3, -773.386, 0.0021458457, 0.00017474605, -1126477.8, -2390.9104, 0.0, 10.029893, 9.943176 
7.458173e+3, 1.9524056e+2, -1029095.5, -1094729.3, -808.94055, 0.0021475675, 0.000038598886, -1029085.5, -2442.1782, 0.0, 10.029508, 9.942839 
7.4581635e+3, 2.0517728e+2, -941372.8, -1016266.2, -828.75964, 0.0021487416, 0.00015991, -941363.6, -12100.16, 0.0, 10.029122, 9.93041 
7.4581546e+3, 2.1510772e+2, -843836.9, -918707.7, -861.68567, 0.0021492243, -0.000031926644, -843826.94, -11881.872, 0.0, 10.028739, 9.930067 
7.458145e+3, 2.2503152e+2, -756176.3, -840745.7, -837.2232, 0.002150806, 0.0002147673, -756168.0, -21476.22, 0.0, 10.028354, 9.91712 
7.4581355e+3, 2.349487e+2, -658485.9, -743025.44, -861.7621, 0.0021532918, -0.0000004046174, -658477.06, -20973.629, 0.0, 10.027967, 9.916785 
7.458127e+3, 2.4485898e+2, -570782.7, -665378.9, -775.03827, 0.0021548541, 0.00016012105, -570776.3, -30393.615, 0.0, 10.027581, 9.903435 
7.4581176e+3, 2.5476253e+2, -472759.13, -567142.56, -802.29315, 0.0021553438, -0.000021813732, -472752.3, -29424.467, 0.0, 10.027194, 9.903336 
7.458109e+3, 2.646591e+2, -385040.13, -489888.63, -638.31635, 0.0021563552, 0.00022358692, -385036.22, -38694.824, 0.0, 10.026808, 9.889478 
7.458101e+3, 2.7454913e+2, -286468.8, -390696.06, -657.8408, 0.0021580681, -0.00012460281, -286464.7, -37045.598, 0.0, 10.026422, 9.889902 
7.4580926e+3, 2.8443137e+2, -200007.31, -316488.38, -448.10443, 0.0021602144, 0.000306753, -200005.6, -47432.25, 0.0, 10.026036, 9.873832 
7.458085e+3, 2.9430628e+2, -100972.9, -216508.73, -451.40076, 0.0021612574, -0.00017465766, -100971.13, -45172.19, 0.0, 10.025651, 9.874667 
7.4580777e+3, 3.042086e+2, -12876.83, -85618.25, -190.97675, 0.0021623294, 0.00024724856, -12876.328, -12876.328, 0.0, 10.025267, 9.929436 
7.4580705e+3, 3.1413984e+2, -12445.356, -83826.48, -187.62228, 0.0021636991, 0.000009052077, -12444.863, -12444.863, 0.0, 10.024884, 9.930829 
7.468268e+3, 1.2551738e+2, -1678903.9, -1718661.1, -34.553032, 0.0021407888, 0.00014785072, -1678903.8, 31026.678, 0.0, 10.032921, 9.980131 
7.4682593e+3, 1.3549738e+2, -1582360.4, -1622392.6, -86.87645, 0.0021426391, -0.000023518, -1582360.1, 29766.393, 0.0, 10.032506, 9.97936 
7.46825e+3, 1.4547092e+2, -1494908.8, -1543355.0, -312.66364, 0.0021460017, 0.00023983103, -1494906.8, 19479.041, 0.0, 10.032092, 9.967847 
7.468241e+3, 1.5543874e+2, -1398000.8, -1446533.9, -358.17154, 0.002146447, 0.00004588499, -1397998.1, 18703.115, 0.0, 10.031679, 9.967328 
7.4682313e+3, 1.6540015e+2, -1310441.0, -1367623.4, -506.14127, 0.0021471435, 0.00012713548, -1310436.5, 8642.938, 0.0, 10.031267, 9.955586 
7.468222e+3, 1.7535579e+2, -1213295.1, -1270479.1, -545.6189, 0.0021489444, 0.000027774766, -1213289.9, 8224.217, 0.0, 10.030854, 9.955182 
7.468212e+3, 1.8530497e+2, -1125699.9, -1191847.3, -627.9005, 0.0021509377, 0.00017336417, -1125693.9, -1681.7833, 0.0, 10.030444, 9.943081 
7.468203e+3, 1.9524808e+2, -1028347.94, -1094449.6, -662.9911, 0.002151977, 0.000037346956, -1028341.25, -1771.6563, 0.0, 10.030036, 9.942743 
7.4681926e+3, 2.0518471e+2, -940658.25, -1015996.94, -681.6981, 0.0021533102, 0.00015863463, -940652.1, -11461.474, 0.0, 10.029628, 9.930323 
7.468183e+3, 2.1511507e+2, -843162.94, -918461.25, -714.48193, 0.002154737, -0.000033359174, -843156.1, -11283.051, 0.0, 10.029221, 9.92998 
7.4681735e+3, 2.2503878e+2, -755520.56, -840481.8, -689.59827, 0.0021563766, 0.00021336839, -755515.0, -20894.42, 0.0, 10.028812, 9.917057 
7.468164e+3, 2.349559e+2, -657867.25, -742782.56, -713.6919, 0.0021579769, -0.0000015996476, -657861.25, -20428.404, 0.0, 10.028405, 9.916722 
7.4681544e+3, 2.448661e+2, -570210.56, -665173.9, -627.7145, 0.0021594132, 0.00015894898, -570206.44, -29893.66, 0.0, 10.027995, 9.90336 
7.468145e+3, 2.547696e+2, -472228.22, -566960.3, -655.9876, 0.002160705, -0.000023227345, -472223.7, -28965.053, 0.0, 10.027582, 9.903261 
7.468136e+3, 2.646661e+2, -384543.6, -489715.6, -491.95377, 0.0021619701, 0.00022206812, -384541.28, -38268.406, 0.0, 10.02717, 9.889412 
7.4681276e+3, 2.7455607e+2, -286014.22, -390545.53, -512.6313, 0.0021634013, -0.00012585401, -286011.7, -36660.508, 0.0, 10.026759, 9.889836 
7.468119e+3, 2.8443822e+2, -199577.47, -316323.38, -303.6013, 0.0021652128, 0.00030556237, -199576.69, -47070.688, 0.0, 10.026346, 9.87379 
7.468111e+3, 2.943131e+2, -100588.695, -216366.48, -308.31375, 0.0021659513, -0.00017577056, -100587.875, -44855.867, 0.0, 10.02593, 9.874625 
7.468103e+3, 3.0421543e+2, -12555.809, -85529.64, -51.363815, 0.002167652, 0.00024580254, -12555.772, -12555.772, 0.0, 10.025516, 9.929376 
7.4680954e+3, 3.1414655e+2, -12175.814, -83764.79, -50.484406, 0.0021695534, 0.000008137435, -12175.779, -12175.779, 0.0, 10.025099, 9.930767 
7.478301e+3, 1.2552604e+2, -1679082.4, -1718903.5, -175.89522, 0.0021449956, 0.00014681005, -1679081.6, 30763.986, 0.0, 10.032878, 9.980004 
7.478292e+3, 1.355059e+2, -1582537.0, -1622632.3, -227.95064, 0.0021476182, -0.000024556033, -1582535.6, 29507.25, 0.0, 10.032462, 9.979235 
7.4782825e+3, 1.4547934e+2, -1495076.9, -1543577.3, -452.86606, 0.0021507842, 0.00023845985, -1495072.6, 19230.744, 0.0, 10.032047, 9.967732 
7.4782723e+3, 1.5544704e+2, -1398169.4, -1446754.8, -498.1274, 0.0021507991, 0.00004464236, -1398164.3, 18455.543, 0.0, 10.031633, 9.967215 
7.478263e+3, 1.6540834e+2, -1310601.3, -1367827.6, -646.0182, 0.0021516602, 0.00012600477, -1310594.0, 8405.102, 0.0, 10.0312195, 9.955483 
7.4782526e+3, 1.7536388e+2, -1213454.1, -1270681.4, -685.22656, 0.002154206, 0.000026615604, -1213445.9, 7988.923, 0.0, 10.030807, 9.955079 
7.4782425e+3, 1.8531296e+2, -1125852.8, -1192036.9, -766.05756, 0.0021559934, 0.00017229101, -1125843.9, -1910.0834, 0.0, 10.0303955, 9.9429865 
7.4782324e+3, 1.9525596e+2, -1028501.44, -1094638.6, -800.89636, 0.0021560132, 0.000036336907, -1028491.75, -1999.552, 0.0, 10.029986, 9.942649 
7.478222e+3, 2.051925e+2, -940806.75, -1016175.2, -819.3529, 0.0021576022, 0.00015757288, -940797.8, -11683.7, 0.0, 10.029577, 9.930236 
7.478212e+3, 2.1512279e+2, -843310.56, -918638.4, -851.8717, 0.0021604174, -0.000034654327, -843300.94, -11503.467, 0.0, 10.029169, 9.929893 
7.478202e+3, 2.2504643e+2, -755648.94, -840620.0, -827.2902, 0.002162048, 0.00021218676, -755640.9, -21095.2, 0.0, 10.028761, 9.916995 
7.4781924e+3, 2.3496349e+2, -657996.25, -742920.75, -851.1951, 0.002162212, -0.0000024004098, -657987.75, -20629.193, 0.0, 10.028352, 9.916659 
7.478183e+3, 2.4487363e+2, -570349.9, -665331.9, -766.9095, 0.0021635063, 0.00015816111, -570343.7, -30104.51, 0.0, 10.027941, 9.903285 
7.478173e+3, 2.54777e+2, -472366.88, -567117.6, -795.0665, 0.002166017, -0.000024389668, -472360.2, -29174.436, 0.0, 10.027529, 9.903185 
7.478164e+3, 2.6467347e+2, -384676.53, -489861.03, -631.1039, 0.002167741, 0.00022081449, -384672.75, -38472.047, 0.0, 10.027116, 9.889343 
7.4781543e+3, 2.7456334e+2, -286147.28, -390690.34, -651.7247, 0.0021686305, -0.00012685255, -286143.22, -36863.527, 0.0, 10.026703, 9.889768 
7.4781454e+3, 2.8444546e+2, -199693.5, -316431.75, -443.9181, 0.0021698754, 0.0003048534, -199691.81, -47256.773, 0.0, 10.026289, 9.873746 
7.478137e+3, 2.9432032e+2, -100704.39, -216472.88, -448.51282, 0.002170022, -0.00017670999, -100702.66, -45041.176, 0.0, 10.025873, 9.874582 
7.4781287e+3, 3.0422255e+2, -12685.656, -85664.6, -191.3806, 0.0021725711, 0.0002448843, -12685.154, -12685.154, 0.0, 10.025456, 9.929313 
7.478121e+3, 3.141536e+2, -12307.917, -83902.63, -190.5264, 0.0021754366, 0.000007569424, -12307.409, -12307.409, 0.0, 10.02504, 9.930702 
7.488334e+3, 1.2553518e+2, -1678008.5, -1718468.5, -23.753738, 0.0021496112, 0.00014473421, -1678008.5, 31747.617, 0.0, 10.0336075, 9.979881 
7.4883246e+3, 1.3551493e+2, -1581518.5, -1622228.5, -74.61922, 0.00215206, -0.000025440955, -1581518.4, 30436.281, 0.0, 10.033161, 9.979112 
7.4883145e+3, 1.4548822e+2, -1494103.0, -1543187.1, -296.98526, 0.0021550553, 0.00023714412, -1494101.1, 20115.047, 0.0, 10.032715, 9.967621 
7.488305e+3, 1.5545581e+2, -1397248.1, -1446394.1, -340.88715, 0.0021557268, 0.000042856434, -1397245.8, 19288.043, 0.0, 10.03227, 9.967104 
7.488294e+3, 1.65417e+2, -1309718.4, -1367478.0, -485.08746, 0.0021565224, 0.00012424463, -1309714.3, 9199.82, 0.0, 10.03183, 9.955382 
7.4882835e+3, 1.7537244e+2, -1212613.3, -1270355.5, -523.2062, 0.0021583966, 0.000025467607, -1212608.5, 8742.281, 0.0, 10.031393, 9.954979 
7.4882734e+3, 1.8532142e+2, -1125046.5, -1191722.1, -601.4816, 0.0021604057, 0.00017107674, -1125041.1, -1190.3734, 0.0, 10.030958, 9.942894 
7.4882627e+3, 1.9526435e+2, -1027737.0, -1094347.5, -635.4888, 0.002161473, 0.0000347221, -1027730.94, -1320.8345, 0.0, 10.030524, 9.942556 
7.4882525e+3, 2.052008e+2, -940074.9, -1015896.06, -651.4693, 0.0021629918, 0.00015598201, -940069.25, -11036.412, 0.0, 10.030093, 9.930149 
7.488242e+3, 2.1513098e+2, -842613.94, -918379.3, -683.90704, 0.0021647168, -0.000035825815, -842607.8, -10890.76, 0.0, 10.029665, 9.929806 
7.4882317e+3, 2.2505456e+2, -754967.56, -840340.9, -659.2281, 0.0021663846, 0.0002110106, -754962.5, -20496.525, 0.0, 10.029235, 9.916933 
7.488221e+3, 2.3497155e+2, -657352.9, -742663.25, -682.52625, 0.0021676233, -0.0000039916, -657347.44, -20067.969, 0.0, 10.028804, 9.916597 
7.48821e+3, 2.4488162e+2, -569754.3, -665117.25, -598.9829, 0.0021690337, 0.00015655777, -569750.56, -29589.82, 0.0, 10.028371, 9.903209 
7.4882007e+3, 2.5478497e+2, -471808.56, -566923.9, -628.1367, 0.0021708573, -0.000025601912, -471804.44, -28696.34, 0.0, 10.027936, 9.903109 
7.488191e+3, 2.646813e+2, -384151.72, -489677.97, -465.5794, 0.0021724326, 0.00021955793, -384149.66, -38025.887, 0.0, 10.0275, 9.889274 
7.488181e+3, 2.7457115e+2, -285664.38, -390530.03, -488.06348, 0.00217384, -0.0001283226, -285662.13, -36458.68, 0.0, 10.0270605, 9.889697 
7.488172e+3, 2.8445318e+2, -199234.33, -316254.44, -282.56058, 0.0021751844, 0.00030332778, -199233.64, -46874.29, 0.0, 10.02662, 9.873701 
7.488163e+3, 2.94328e+2, -100291.65, -216318.75, -288.61816, 0.0021751784, -0.00017774908, -100290.93, -44704.71, 0.0, 10.026174, 9.874539 
7.488154e+3, 3.0423015e+2, -12339.895, -85571.34, -36.78885, 0.0021780373, 0.00024355811, -12339.876, -12339.876, 0.0, 10.025725, 9.929246 
7.488146e+3, 3.1416118e+2, -12013.456, -83836.54, -39.609344, 0.0021802762, 0.000006268013, -12013.434, -12013.434, 0.0, 10.025274, 9.930634 
7.4983674e+3, 1.2554471e+2, -1678188.5, -1718706.5, -175.25401, 0.0021541594, 0.00014276644, -1678187.6, 31475.04, 0.0, 10.033562, 9.97976 
7.498358e+3, 1.3552432e+2, -1581699.5, -1622465.5, -225.91336, 0.0021563803, -0.000026064663, -1581698.3, 30164.209, 0.0, 10.033113, 9.978991 
7.498347e+3, 1.4549752e+2, -1494275.1, -1543406.6, -447.18338, 0.00215907, 0.00023616369, -1494271.1, 19854.023, 0.0, 10.032665, 9.96751 
7.498337e+3, 1.5546499e+2, -1397418.4, -1446611.0, -490.86893, 0.0021606688, 0.000041243384, -1397413.5, 19030.32, 0.0, 10.032221, 9.966994 
7.4983263e+3, 1.6542609e+2, -1309881.1, -1367679.8, -632.3302, 0.0021613673, 0.00012278263, -1309874.3, 8950.937, 0.0, 10.031779, 9.955282 
7.4983156e+3, 1.7538142e+2, -1212776.6, -1270556.4, -670.1267, 0.0021622994, 0.000024531833, -1212768.9, 8493.922, 0.0, 10.031341, 9.95488 
7.498304e+3, 1.853303e+2, -1125204.4, -1191911.4, -747.26215, 0.0021645492, 0.00017015074, -1125196.0, -1432.3779, 0.0, 10.030905, 9.942801 
7.4982935e+3, 1.9527315e+2, -1027893.8, -1094535.3, -781.0754, 0.0021670666, 0.00003328087, -1027884.6, -1560.7241, 0.0, 10.030471, 9.942465 
7.498282e+3, 2.0520951e+2, -940228.0, -1016075.94, -795.11926, 0.0021684465, 0.00015462012, -940219.7, -11272.118, 0.0, 10.030039, 9.930061 
7.4982715e+3, 2.151396e+2, -842767.5, -918558.56, -827.17206, 0.002168518, -0.00003660317, -842758.5, -11125.915, 0.0, 10.02961, 9.929719 
7.498261e+3, 2.2506312e+2, -755101.0, -840479.56, -803.60406, 0.0021701972, 0.00021023922, -755093.44, -20711.188, 0.0, 10.02918, 9.916873 
7.4982494e+3, 2.3498003e+2, -657485.6, -742801.25, -826.82697, 0.0021731143, -0.000005342807, -657477.6, -20281.293, 0.0, 10.028748, 9.916537 
7.498239e+3, 2.4489003e+2, -569899.9, -665280.94, -744.913, 0.0021747325, 0.00015516623, -569894.06, -29815.758, 0.0, 10.028315, 9.9031315 
7.4982285e+3, 2.547933e+2, -471953.88, -567087.0, -773.9379, 0.002175279, -0.000026386675, -471947.56, -28921.16, 0.0, 10.027879, 9.90303 
7.4982184e+3, 2.6468956e+2, -384293.03, -489832.7, -612.9896, 0.0021766247, 0.00021884614, -384289.47, -38246.656, 0.0, 10.027442, 9.889201 
7.498208e+3, 2.7457932e+2, -285805.63, -390684.06, -635.36035, 0.0021787507, -0.00012953953, -285801.75, -36678.555, 0.0, 10.027002, 9.889625 
7.498198e+3, 2.844613e+2, -199356.56, -316368.44, -432.57953, 0.0021803856, 0.00030221604, -199354.95, -47075.246, 0.0, 10.02656, 9.873655 
7.498189e+3, 2.9433605e+2, -100413.13, -216430.36, -438.80438, 0.0021802995, -0.00017851383, -100411.47, -44904.46, 0.0, 10.026113, 9.874495 
7.49818e+3, 3.042382e+2, -12479.599, -85719.77, -188.09923, 0.0021833961, 0.00024289684, -12479.115, -12479.115, 0.0, 10.025664, 9.929175 
7.4981713e+3, 3.1416914e+2, -12156.516, -83988.68, -191.05363, 0.002184224, 0.0000051389284, -12156.008, -12156.008, 0.0, 10.02521, 9.930561 
7.508402e+3, 1.2555476e+2, -1677097.9, -1718255.6, -9.975285, 0.002158135, 0.00014110409, -1677097.9, 32466.453, 0.0, 10.034299, 9.979642 
7.508391e+3, 1.3553424e+2, -1580670.8, -1622049.9, -58.750095, 0.0021613245, -0.000027725628, -1580670.6, 31094.555, 0.0, 10.033814, 9.978874 
7.5083804e+3, 1.4550732e+2, -1493291.6, -1543006.0, -273.92938, 0.0021634377, 0.00023402937, -1493290.1, 20738.902, 0.0, 10.033337, 9.967403 
7.508369e+3, 1.5547471e+2, -1396481.5, -1446236.8, -316.01978, 0.0021646882, 0.000039863247, -1396479.5, 19869.201, 0.0, 10.032866, 9.966887 
7.508358e+3, 1.6543569e+2, -1308981.9, -1367316.6, -452.87845, 0.0021657231, 0.00012151445, -1308978.4, 9752.701, 0.0, 10.032397, 9.955185 
7.5083464e+3, 1.7539093e+2, -1211922.3, -1270218.5, -489.06442, 0.0021674477, 0.000022868675, -1211918.1, 9251.502, 0.0, 10.031934, 9.9547825 
7.508336e+3, 1.8533972e+2, -1124384.3, -1191586.5, -561.5831, 0.0021695038, 0.00016838589, -1124379.6, -708.15436, 0.0, 10.031474, 9.942711 
7.5083244e+3, 1.9528247e+2, -1027109.7, -1094231.0, -594.48236, 0.0021710927, 0.000031955693, -1027104.44, -871.89575, 0.0, 10.03102, 9.942374 
7.5083125e+3, 2.0521873e+2, -939474.75, -1015783.6, -605.6487, 0.0021726482, 0.00015330994, -939469.94, -10612.886, 0.0, 10.030568, 9.929976 
7.508301e+3, 2.1514876e+2, -842049.75, -918286.3, -637.31006, 0.0021738883, -0.000038203, -842044.44, -10501.501, 0.0, 10.030118, 9.929634 
7.50829e+3, 2.2507218e+2, -754396.0, -840186.5, -612.76776, 0.002175653, 0.0002086008, -754391.6, -20098.361, 0.0, 10.029668, 9.916813 
7.508279e+3, 2.3498905e+2, -656813.06, -742526.9, -635.3681, 0.0021776424, -0.000006727173, -656808.3, -19700.385, 0.0, 10.029219, 9.916477 
7.508268e+3, 2.4489899e+2, -569274.75, -665054.06, -555.05597, 0.0021790606, 0.00015383652, -569271.56, -29280.934, 0.0, 10.028765, 9.903052 
7.5082564e+3, 2.5480217e+2, -471364.44, -566880.4, -585.2742, 0.0021803456, -0.000027887794, -471360.84, -28421.357, 0.0, 10.028309, 9.902951 
7.508246e+3, 2.6469836e+2, -383736.56, -489638.53, -427.15, 0.0021819647, 0.00021717628, -383734.84, -37778.17, 0.0, 10.027848, 9.889127 
7.5082356e+3, 2.7458805e+2, -285289.06, -390511.8, -451.5123, 0.0021838953, -0.00013095695, -285287.13, -36249.363, 0.0, 10.027385, 9.88955 
7.508225e+3, 2.8446996e+2, -198861.47, -316177.16, -252.87537, 0.0021851964, 0.0003008503, -198860.94, -46666.04, 0.0, 10.026916, 9.873607 
7.5082153e+3, 2.943447e+2, -99963.32, -216261.75, -261.43738, 0.0021850145, -0.00017966011, -99962.734, -44540.086, 0.0, 10.02644, 9.874448 
7.508206e+3, 3.0424672e+2, -12100.635, -85619.12, -18.904541, 0.002188665, 0.0002413342, -12100.631, -12100.631, 0.0, 10.025959, 9.9291 
7.508197e+3, 3.141776e+2, -11831.533, -83916.695, -26.289965, 0.0021893114, 0.000003865672, -11831.523, -11831.523, 0.0, 10.02547, 9.930484 
7.5184363e+3, 1.2556523e+2, -1677281.4, -1718488.0, -173.37646, 0.0021616889, 0.0001397628, -1677280.6, 32180.986, 0.0, 10.034246, 9.979527 
7.518425e+3, 1.355446e+2, -1580852.3, -1622280.0, -222.0427, 0.0021663178, -0.000029402489, -1580851.0, 30812.59, 0.0, 10.033763, 9.978759 
7.5184137e+3, 1.4551757e+2, -1493465.3, -1543220.5, -432.31104, 0.0021676964, 0.00023203506, -1493461.5, 20467.03, 0.0, 10.033283, 9.9672985 
7.5184023e+3, 1.5548486e+2, -1396655.9, -1446450.3, -474.13165, 0.0021683828, 0.000038827726, -1396651.4, 19597.918, 0.0, 10.032811, 9.966784 
7.5183904e+3, 1.6544574e+2, -1309148.8, -1367515.4, -608.1915, 0.0021698407, 0.00012071611, -1309142.4, 9490.175, 0.0, 10.032342, 9.95509 
7.518379e+3, 1.7540088e+2, -1212087.3, -1270415.0, -644.12244, 0.0021727765, 0.000021285525, -1212080.1, 8991.963, 0.0, 10.0318775, 9.954688 
7.5183666e+3, 1.8534958e+2, -1124545.3, -1191774.4, -713.31256, 0.002174469, 0.00016681623, -1124537.8, -962.9167, 0.0, 10.031418, 9.942621 
7.518355e+3, 1.9529223e+2, -1027271.56, -1094418.3, -746.0199, 0.002174522, 0.000031015563, -1027263.25, -1126.4451, 0.0, 10.030962, 9.942286 
7.5183433e+3, 2.0522842e+2, -939634.06, -1015964.6, -755.5151, 0.0021763602, 0.00015239639, -939626.6, -10864.419, 0.0, 10.030509, 9.929892 
7.5183314e+3, 2.1515834e+2, -842208.44, -918465.9, -786.87054, 0.0021794098, -0.00003961493, -842200.3, -10751.478, 0.0, 10.030058, 9.929549 
7.5183195e+3, 2.2508171e+2, -754534.4, -840325.8, -762.318, 0.002181233, 0.00020718857, -754527.6, -20327.691, 0.0, 10.029608, 9.916754 
7.518308e+3, 2.3499852e+2, -656950.6, -742665.3, -784.6236, 0.0021816292, -0.000007575101, -656943.44, -19928.262, 0.0, 10.029158, 9.916418 
7.518296e+3, 2.4490838e+2, -569428.2, -665225.1, -707.0695, 0.0021828446, 0.00015308442, -569423.0, -29524.467, 0.0, 10.028705, 9.902971 
7.518285e+3, 2.5481147e+2, -471516.66, -567050.3, -737.27344, 0.0021852045, -0.000029044302, -471510.97, -28662.775, 0.0, 10.028248, 9.902871 
7.5182736e+3, 2.647076e+2, -383885.56, -489802.38, -582.24194, 0.0021873184, 0.00021589006, -383882.38, -38016.242, 0.0, 10.027787, 9.88905 
7.518263e+3, 2.745972e+2, -285438.1, -390675.0, -606.56384, 0.0021887426, -0.0001319721, -285434.63, -36486.6, 0.0, 10.027323, 9.889473 
7.518252e+3, 2.8447905e+2, -198991.66, -316299.97, -412.29926, 0.0021895291, 0.00030019163, -198990.2, -46884.457, 0.0, 10.026853, 9.873556 
7.5182414e+3, 2.9435372e+2, -100093.48, -216382.4, -421.0248, 0.0021892053, -0.00018046274, -100091.95, -44757.97, 0.0, 10.026375, 9.874398 
7.518232e+3, 3.0425572e+2, -12251.939, -85782.87, -181.9007, 0.002193579, 0.00024049498, -12251.49, -12251.49, 0.0, 10.025893, 9.929021 
7.5182223e+3, 3.1418648e+2, -11985.424, -84083.94, -189.85512, 0.0021940954, 0.0000028948195, -11984.924, -11984.924, 0.0, 10.025404, 9.930403 
7.528471e+3, 1.2557624e+2, -1676185.9, -1718026.0, 6.7362022, 0.0021659157, 0.00013740064, -1676185.9, 33167.69, 0.0, 10.034983, 9.979417 
7.528459e+3, 1.3555552e+2, -1579812.4, -1621850.5, -39.801952, 0.0021704545, -0.000030442103, -1579812.3, 31744.363, 0.0, 10.034468, 9.978648 
7.5284475e+3, 1.4552839e+2, -1492469.9, -1542805.6, -242.13858, 0.0021712147, 0.00023033298, -1492468.6, 21353.898, 0.0, 10.033958, 9.967197 
7.528435e+3, 1.5549555e+2, -1395711.0, -1446064.0, -281.5175, 0.0021730997, 0.000036851176, -1395709.5, 20434.852, 0.0, 10.033457, 9.966683 
7.528423e+3, 1.6545634e+2, -1308241.0, -1367142.4, -407.78976, 0.002174661, 0.00011885566, -1308238.1, 10290.405, 0.0, 10.032964, 9.954997 
7.528411e+3, 1.754114e+2, -1211217.1, -1270063.5, -441.98886, 0.002176634, 0.000019935787, -1211213.8, 9755.238, 0.0, 10.032478, 9.954596 
7.5283986e+3, 1.8536001e+2, -1123707.8, -1191436.5, -506.21155, 0.0021784373, 0.00016536149, -1123704.0, -231.38214, 0.0, 10.031998, 9.942534 
7.528386e+3, 1.9530258e+2, -1026471.2, -1094101.6, -537.67615, 0.002179708, 0.000029285146, -1026466.94, -431.51025, 0.0, 10.03152, 9.942198 
7.528374e+3, 2.0523869e+2, -938863.6, -1015661.56, -542.8577, 0.0021815323, 0.00015064406, -938859.8, -10198.199, 0.0, 10.031048, 9.929808 
7.5283617e+3, 2.1516852e+2, -841468.3, -918180.0, -573.95306, 0.0021834727, -0.000041116906, -841464.0, -10114.891, 0.0, 10.0305805, 9.929466 
7.52835e+3, 2.2509181e+2, -753801.56, -840014.7, -547.2949, 0.002185358, 0.00020572553, -753798.06, -19697.188, 0.0, 10.030113, 9.9166975 
7.528337e+3, 2.3500857e+2, -656246.1, -742370.75, -568.3872, 0.0021868097, -0.000009112471, -656242.3, -19325.66, 0.0, 10.029648, 9.916361 
7.5283253e+3, 2.4491835e+2, -568772.06, -664987.0, -492.98062, 0.0021881305, 0.00015153275, -568769.56, -28968.855, 0.0, 10.029178, 9.902889 
7.5283134e+3, 2.5482136e+2, -470890.9, -566829.9, -524.8661, 0.0021897827, -0.000030584997, -470888.03, -28136.826, 0.0, 10.028704, 9.902787 
7.5283015e+3, 2.647174e+2, -383289.8, -489594.4, -375.0884, 0.0021918004, 0.0002142317, -383288.47, -37518.54, 0.0, 10.028223, 9.888969 
7.52829e+3, 2.7460694e+2, -284880.2, -390488.03, -401.95688, 0.0021938034, -0.00013340058, -284878.66, -36026.055, 0.0, 10.027736, 9.889393 
7.5282794e+3, 2.8448874e+2, -198453.2, -316091.44, -214.25204, 0.0021944833, 0.00029873804, -198452.81, -46441.824, 0.0, 10.02724, 9.873505 
7.528268e+3, 2.9436335e+2, -99600.69, -216196.78, -225.55031, 0.0021938654, -0.00018182921, -99600.25, -44360.54, 0.0, 10.026733, 9.874348 
7.528258e+3, 3.042653e+2, -11833.911, -85673.78, 3.2495697, 0.0021986084, 0.00023865091, -11833.911, -11833.911, 0.0, 10.02622, 9.928937 
7.528248e+3, 3.14196e+2, -11619.444, -84003.09, -10.241369, 0.0021989746, 0.0000017973069, -11619.443, -11619.443, 0.0, 10.025696, 9.930316 
7.538505e+3, 1.2558775e+2, -1676369.5, -1718249.4, -166.33456, 0.002169983, 0.0001352408, -1676368.8, 32872.117, 0.0, 10.034926, 9.979309 
7.538494e+3, 1.355669e+2, -1579997.6, -1622074.3, -212.92563, 0.0021743414, -0.000031060226, -1579996.5, 31448.46, 0.0, 10.0344095, 9.978541 
7.5384814e+3, 1.4553967e+2, -1492646.8, -1543013.1, -409.65558, 0.0021743658, 0.00022912837, -1492643.4, 21068.553, 0.0, 10.033899, 9.9671 
7.538469e+3, 1.5550674e+2, -1395885.6, -1446269.1, -448.9105, 0.0021778313, 0.000034960565, -1395881.6, 20153.021, 0.0, 10.033398, 9.966586 
7.5384563e+3, 1.6546744e+2, -1308409.9, -1367336.6, -569.03375, 0.0021794287, 0.000117230265, -1308404.4, 10015.353, 0.0, 10.032904, 9.954906 
7.538443e+3, 1.7542242e+2, -1211386.4, -1270256.8, -602.82166, 0.002180028, 0.000018887875, -1211380.3, 9480.921, 0.0, 10.032417, 9.954506 
7.5384307e+3, 1.8537092e+2, -1123873.6, -1191623.0, -664.04584, 0.0021819645, 0.00016431938, -1123867.1, -501.6147, 0.0, 10.031936, 9.942448 
7.538418e+3, 1.9531341e+2, -1026635.25, -1094286.1, -695.3213, 0.0021850027, 0.000027732287, -1026628.1, -698.8502, 0.0, 10.031459, 9.942112 
7.538405e+3, 2.0524941e+2, -939027.4, -1015843.3, -697.3535, 0.002186749, 0.0001491114, -939021.0, -10464.726, 0.0, 10.030985, 9.929724 
7.538392e+3, 2.1517919e+2, -841634.2, -918361.3, -728.19604, 0.0021869144, -0.000042209736, -841627.3, -10382.682, 0.0, 10.030515, 9.929383 
7.5383794e+3, 2.251024e+2, -753946.3, -840153.4, -701.0542, 0.0021888244, 0.0002047654, -753940.6, -19943.568, 0.0, 10.030047, 9.916641 
7.538367e+3, 2.350191e+2, -656388.0, -742507.25, -722.38965, 0.0021919007, -0.000010174034, -656381.94, -19568.557, 0.0, 10.029582, 9.916306 
7.5383544e+3, 2.4492882e+2, -568934.1, -665167.56, -650.4276, 0.002193479, 0.00015039319, -568929.7, -29231.611, 0.0, 10.029114, 9.902803 
7.538342e+3, 2.5483173e+2, -471049.75, -567008.25, -681.7896, 0.0021938472, -0.000031576652, -471044.9, -28395.465, 0.0, 10.028641, 9.902702 
7.53833e+3, 2.647277e+2, -383446.84, -489769.0, -537.23804, 0.0021957583, 0.00021330311, -383444.13, -37775.13, 0.0, 10.028159, 9.888886 
7.538318e+3, 2.7461717e+2, -285040.0, -390663.25, -563.83417, 0.0021984794, -0.00013439984, -285037.0, -36284.53, 0.0, 10.027669, 9.88931 
7.538306e+3, 2.8449887e+2, -198593.61, -316224.2, -382.65628, 0.0021991795, 0.00029795806, -198592.36, -46680.82, 0.0, 10.027172, 9.87345 
7.538295e+3, 2.9437345e+2, -99739.13, -216326.1, -394.31125, 0.0021982293, -0.00018281999, -99737.805, -44597.008, 0.0, 10.026665, 9.874294 
7.538284e+3, 3.042753e+2, -11997.28, -85855.27, -170.47989, 0.0022032894, 0.00023763593, -11996.887, -11996.887, 0.0, 10.026152, 9.928847 
7.5382733e+3, 3.142059e+2, -11786.596, -84189.06, -184.75435, 0.002203155, 0.0000010088507, -11786.124, -11786.124, 0.0, 10.025625, 9.930223 
7.548541e+3, 1.2559983e+2, -1675268.4, -1717773.3, 27.503546, 0.0021732026, 0.00013332987, -1675268.4, 33853.977, 0.0, 10.035661, 9.979208 
7.5485283e+3, 1.355789e+2, -1578958.3, -1621634.4, -16.087294, 0.0021793223, -0.000032731226, -1578958.3, 32369.295, 0.0, 10.0351095, 9.978439 
7.548516e+3, 1.4555158e+2, -1491651.0, -1542589.0, -200.22304, 0.0021782897, 0.0002267412, -1491650.3, 21945.12, 0.0, 10.03457, 9.967007 
7.5485027e+3, 1.5551855e+2, -1394932.4, -1445869.8, -236.85448, 0.002181426, 0.000033266362, -1394931.3, 20987.713, 0.0, 10.034045, 9.966494 
7.548489e+3, 1.6547915e+2, -1307491.3, -1366950.1, -347.5988, 0.0021834753, 0.00011569682, -1307489.3, 10815.761, 0.0, 10.033528, 9.954821 
7.548476e+3, 1.7543404e+2, -1210506.1, -1269892.4, -378.78088, 0.0021848194, 0.000017106348, -1210503.8, 10243.494, 0.0, 10.03302, 9.95442 
7.548463e+3, 1.8538247e+2, -1123024.0, -1191274.6, -432.44208, 0.0021865272, 0.00016235319, -1123021.3, 231.1892, 0.0, 10.03252, 9.942364 
7.5484496e+3, 1.9532485e+2, -1025813.7, -1093954.4, -462.449, 0.0021888744, 0.000026037978, -1025810.56, 6.410224, 0.0, 10.032028, 9.942028 
7.548436e+3, 2.052608e+2, -938235.06, -1015527.75, -461.63742, 0.0021907939, 0.0001473854, -938232.3, -9787.508, 0.0, 10.031538, 9.929641 
7.548423e+3, 2.1519047e+2, -840875.1, -918064.44, -492.35812, 0.002191868, -0.00004428395, -840872.0, -9738.01, 0.0, 10.031049, 9.9293 
7.5484097e+3, 2.2511363e+2, -753191.1, -839829.75, -459.80762, 0.0021937818, 0.00020293311, -753188.7, -19301.643, 0.0, 10.030567, 9.916585 
7.5483966e+3, 2.3503028e+2, -655651.94, -742195.5, -480.7067, 0.0021961872, -0.000011145792, -655649.3, -18945.313, 0.0, 10.030092, 9.916249 
7.548384e+3, 2.4493992e+2, -568239.5, -664912.2, -411.4715, 0.0021976384, 0.00014942876, -568237.75, -28648.379, 0.0, 10.029613, 9.902719 
7.548371e+3, 2.5484276e+2, -470376.44, -566766.1, -443.91156, 0.0021986053, -0.000033263623, -470374.38, -27832.844, 0.0, 10.029129, 9.9026165 
7.5483584e+3, 2.6473865e+2, -382801.97, -489541.25, -309.50208, 0.0022008263, 0.00021116222, -382801.06, -37239.133, 0.0, 10.02863, 9.888803 
7.548346e+3, 2.7462798e+2, -284436.03, -390458.06, -338.44095, 0.0022033257, -0.00013631445, -284434.97, -35788.74, 0.0, 10.028114, 9.889226 
7.5483334e+3, 2.8450963e+2, -198008.5, -315997.88, -163.587, 0.0022035977, 0.00029630226, -198008.28, -46202.285, 0.0, 10.027593, 9.873393 
7.5483215e+3, 2.9438415e+2, -99193.57, -216119.72, -178.41406, 0.0022026768, -0.00018387512, -99193.3, -44157.508, 0.0, 10.0270605, 9.874239 
7.54831e+3, 3.0428594e+2, -11529.024, -85734.77, 30.956879, 0.002208153, 0.00023590255, -11529.011, -11529.011, 0.0, 10.026518, 9.928751 
7.5482994e+3, 3.1421643e+2, -11371.362, -84097.55, 9.819038, 0.002207945, -0.00000038845377, -11371.36, -11371.36, 0.0, 10.025957, 9.930125 
7.5585765e+3, 1.2561242e+2, -1675454.5, -1717985.5, -157.14053, 0.0021758305, 0.00013176087, -1675453.9, 33545.07, 0.0, 10.035597, 9.979112 
7.5585634e+3, 1.355914e+2, -1579142.4, -1621845.8, -200.92348, 0.002184298, -0.0000344079, -1579141.4, 32063.57, 0.0, 10.035047, 9.978342 
7.5585496e+3, 1.4556397e+2, -1491828.3, -1542787.1, -374.62054, 0.0021820846, 0.00022463918, -1491825.5, 21648.314, 0.0, 10.034507, 9.966917 
7.5585365e+3, 1.5553087e+2, -1395110.4, -1446067.5, -411.11975, 0.0021845077, 0.00003194848, -1395107.1, 20691.168, 0.0, 10.03398, 9.966404 
7.558523e+3, 1.6549137e+2, -1307664.0, -1367137.6, -515.1048, 0.002187106, 0.00011467054, -1307659.5, 10525.595, 0.0, 10.033463, 9.954737 
7.558509e+3, 1.7544618e+2, -1210676.8, -1270077.9, -545.9096, 0.0021897282, 0.000015445792, -1210671.8, 9956.38, 0.0, 10.032955, 9.954337 
7.5584954e+3, 1.8539453e+2, -1123194.1, -1191459.0, -593.6731, 0.002191029, 0.00016065894, -1123189.0, -54.786, 0.0, 10.0324545, 9.942282 
7.5584817e+3, 1.9533685e+2, -1025983.75, -1094137.8, -623.2038, 0.0021920505, 0.000024752444, -1025978.06, -278.5245, 0.0, 10.031961, 9.941946 
7.558468e+3, 2.0527269e+2, -938405.6, -1015712.2, -620.9169, 0.002194253, 0.00014610699, -938400.7, -10072.449, 0.0, 10.03147, 9.929558 
7.558454e+3, 2.1520229e+2, -841043.9, -918247.06, -650.81665, 0.0021968528, -0.000045978817, -841038.4, -10020.22, 0.0, 10.030981, 9.929217 
7.5584406e+3, 2.2512537e+2, -753338.44, -839970.44, -614.8076, 0.0021986824, 0.00020150328, -753334.06, -19562.121, 0.0, 10.030499, 9.916529 
7.558427e+3, 2.3504196e+2, -655799.3, -742336.2, -639.73145, 0.0021998107, -0.000011478633, -655794.56, -19205.19, 0.0, 10.030025, 9.916193 
7.558414e+3, 2.4495153e+2, -568409.44, -665097.3, -574.6201, 0.002201208, 0.00014922181, -568406.0, -28930.535, 0.0, 10.029544, 9.902633 
7.5584e+3, 2.548543e+2, -470546.88, -566950.8, -602.8485, 0.0022030263, -0.000034346427, -470543.1, -28114.604, 0.0, 10.029058, 9.902531 
7.558387e+3, 2.647501e+2, -382973.34, -489728.25, -478.18356, 0.0022057912, 0.00020973658, -382971.22, -37521.46, 0.0, 10.028559, 9.888715 
7.558374e+3, 2.7463934e+2, -284605.5, -390643.1, -507.47418, 0.0022076843, -0.00013779457, -284603.1, -36068.188, 0.0, 10.028044, 9.889138 
7.558361e+3, 2.8452092e+2, -198157.6, -316141.44, -338.87247, 0.0022074555, 0.00029551765, -198156.63, -46461.227, 0.0, 10.027521, 9.873333 
7.5583494e+3, 2.943954e+2, -99342.04, -216260.33, -354.32346, 0.0022066582, -0.00018415101, -99340.96, -44415.207, 0.0, 10.026988, 9.874181 
7.558337e+3, 3.042971e+2, -11707.361, -85938.17, -153.80797, 0.0022125696, 0.00023538503, -11707.043, -11707.043, 0.0, 10.026444, 9.928648 
7.558325e+3, 3.142275e+2, -11552.182, -84305.12, -176.13274, 0.002212028, -0.0000013443631, -11551.755, -11551.755, 0.0, 10.025884, 9.930019 
7.568612e+3, 1.2562567e+2, -1674362.6, -1717501.0, 51.909695, 0.002179837, 0.000129221, -1674362.6, 34506.645, 0.0, 10.03632, 9.979021 
7.5685984e+3, 1.3560456e+2, -1578103.9, -1621393.8, 11.407335, 0.002188133, -0.000035728543, -1578103.9, 32972.33, 0.0, 10.03574, 9.978251 
7.5685847e+3, 1.4557703e+2, -1490831.5, -1542350.4, -147.06194, 0.002184885, 0.00022265004, -1490831.0, 22514.813, 0.0, 10.035172, 9.966835 
7.568571e+3, 1.5554383e+2, -1394158.8, -1445657.3, -179.98549, 0.0021887852, 0.000029669574, -1394158.1, 21513.014, 0.0, 10.034621, 9.966321 
7.5685567e+3, 1.6550428e+2, -1306744.6, -1366741.3, -270.47473, 0.002191756, 0.00011251983, -1306743.4, 11315.392, 0.0, 10.034083, 9.9546585 
7.5685424e+3, 1.7545898e+2, -1209786.8, -1269699.0, -298.27374, 0.0021933755, 0.0000138958, -1209785.3, 10717.337, 0.0, 10.03356, 9.954259 
7.568528e+3, 1.8540727e+2, -1122330.3, -1191095.5, -336.74918, 0.0021945871, 0.00015906793, -1122328.6, 680.76953, 0.0, 10.033045, 9.9422035 
7.568514e+3, 1.953495e+2, -1025145.6, -1093789.6, -363.75717, 0.002196694, 0.000022845883, -1025143.7, 431.78235, 0.0, 10.032538, 9.941869 
7.5684994e+3, 2.0528528e+2, -937591.4, -1015381.06, -356.77792, 0.0021989949, 0.00014435407, -937589.75, -9384.845, 0.0, 10.032035, 9.929478 
7.568485e+3, 2.152148e+2, -840250.5, -917928.94, -385.94556, 0.0022007937, -0.000047107806, -840248.6, -9352.966, 0.0, 10.031535, 9.929138 
7.5684714e+3, 2.2513779e+2, -752563.06, -839663.3, -346.97415, 0.0022025963, 0.0002000057, -752561.7, -18911.451, 0.0, 10.031044, 9.91645 
7.568457e+3, 2.350543e+2, -655041.75, -742040.5, -379.6157, 0.0022045288, -0.000014216638, -655040.06, -18571.639, 0.0, 10.0305605, 9.916113 
7.5684434e+3, 2.4496381e+2, -567657.9, -664787.75, -318.35837, 0.0022061018, 0.00014654626, -567656.8, -28301.588, 0.0, 10.030069, 9.90257 
7.568429e+3, 2.548665e+2, -469817.38, -566655.06, -339.48672, 0.0022073558, -0.000035796435, -469816.2, -27507.314, 0.0, 10.0295725, 9.902468 
7.5684154e+3, 2.647622e+2, -382288.2, -489488.28, -223.35057, 0.0022100545, 0.00020847606, -382287.72, -36956.863, 0.0, 10.029059, 9.888623 
7.568402e+3, 2.746514e+2, -283948.9, -390420.2, -256.5201, 0.002212156, -0.0001394152, -283948.3, -35531.38, 0.0, 10.028528, 9.889047 
7.568389e+3, 2.845329e+2, -197513.05, -315894.63, -97.892944, 0.0022117647, 0.00029389502, -197512.97, -45934.773, 0.0, 10.027986, 9.873268 
7.568376e+3, 2.9440728e+2, -98735.82, -216032.8, -117.82895, 0.0022111475, -0.00018525888, -98735.7, -43926.53, 0.0, 10.027429, 9.874118 
7.5683635e+3, 3.043089e+2, -11180.606, -85805.3, 64.65862, 0.0022172881, 0.0002333584, -11180.551, -11180.551, 0.0, 10.026858, 9.928538 
7.568351e+3, 3.142392e+2, -11072.273, -84198.39, 34.100792, 0.002216265, -0.0000020894286, -11072.258, -11072.258, 0.0, 10.026266, 9.929907 
7.578649e+3, 1.2563942e+2, -1674547.0, -1717698.4, -141.53485, 0.0021836092, 0.00012689529, -1674546.5, 34187.83, 0.0, 10.03625, 9.978937 
7.578634e+3, 1.3561822e+2, -1578290.4, -1621593.0, -182.50525, 0.0021914411, -0.000036764017, -1578289.6, 32652.48, 0.0, 10.035669, 9.978166 
7.5786203e+3, 1.4559062e+2, -1491010.9, -1542536.5, -329.23767, 0.0021871673, 0.00022122865, -1491008.8, 22203.81, 0.0, 10.035101, 9.966757 
7.5786054e+3, 1.5555736e+2, -1394335.9, -1445842.0, -362.21387, 0.0021929068, 0.000027555021, -1394333.4, 21205.246, 0.0, 10.034551, 9.966243 
7.578591e+3, 1.6551772e+2, -1306918.0, -1366919.1, -441.9823, 0.0021962356, 0.00011070058, -1306914.8, 11012.307, 0.0, 10.034012, 9.954584 
7.5785756e+3, 1.7547236e+2, -1209960.4, -1269876.3, -469.45322, 0.0021964433, 0.000012655262, -1209956.8, 10414.821, 0.0, 10.033488, 9.954185 
7.5785613e+3, 1.8542056e+2, -1122504.3, -1191273.0, -501.70566, 0.0021976142, 0.00015799052, -1122500.6, 378.41415, 0.0, 10.032972, 9.942129 
7.5785464e+3, 1.9536273e+2, -1025318.25, -1093965.5, -528.60095, 0.0022012808, 0.000021273088, -1025314.2, 131.71255, 0.0, 10.032466, 9.941794 
7.5785315e+3, 2.0529841e+2, -937765.9, -1015563.6, -519.1088, 0.002203582, 0.00014302027, -937762.44, -9686.347, 0.0, 10.031963, 9.929399 
7.5785166e+3, 2.1522786e+2, -840420.94, -918109.06, -548.0708, 0.002204036, -0.00004749352, -840417.06, -9649.507, 0.0, 10.031466, 9.929058 
7.5785017e+3, 2.2515078e+2, -752736.9, -839850.8, -503.40283, 0.0022059006, 0.00019914746, -752734.0, -19211.047, 0.0, 10.030973, 9.916364 
7.578488e+3, 2.350672e+2, -655217.9, -742228.94, -535.6322, 0.0022089048, -0.000016769813, -655214.6, -18872.572, 0.0, 10.030487, 9.916027 
7.578473e+3, 2.4497664e+2, -567815.25, -664935.2, -479.60535, 0.002210812, 0.00014410575, -567812.9, -28583.367, 0.0, 10.029995, 9.902511 
7.578459e+3, 2.5487927e+2, -469976.56, -566802.75, -500.77115, 0.0022110548, -0.000036452566, -469973.97, -27790.25, 0.0, 10.029496, 9.902409 
7.578445e+3, 2.647749e+2, -382475.2, -489692.75, -397.5006, 0.002213687, 0.00020843408, -382473.72, -37267.242, 0.0, 10.028982, 9.888528 
7.578431e+3, 2.7466398e+2, -284133.16, -390622.72, -430.5877, 0.0022161172, -0.00014022859, -284131.4, -35837.926, 0.0, 10.028452, 9.88895 
7.578417e+3, 2.8454542e+2, -197675.66, -316055.63, -281.20084, 0.0022156995, 0.00029336382, -197674.98, -46219.42, 0.0, 10.02791, 9.8731985 
7.5784034e+3, 2.944197e+2, -98895.77, -216189.39, -301.6143, 0.0022152553, -0.00018585604, -98895.0, -44207.797, 0.0, 10.027352, 9.87405 
7.57839e+3, 3.0432126e+2, -11374.545, -86034.07, -129.88025, 0.0022214246, 0.00023241097, -11374.318, -11374.318, 0.0, 10.026782, 9.92842 
7.578378e+3, 3.142514e+2, -11270.353, -84432.37, -161.72719, 0.0022195897, -0.0000024559886, -11269.995, -11269.995, 0.0, 10.026189, 9.929785 
7.588686e+3, 1.2565388e+2, -1673465.3, -1717203.0, 80.80648, 0.0021863733, 0.00012453998, -1673465.1, 35127.637, 0.0, 10.03696, 9.978861 
7.58867e+3, 1.356326e+2, -1577266.9, -1621133.5, 44.046467, 0.0021960698, -0.000038933205, -1577266.9, 33534.367, 0.0, 10.036346, 9.978087 
7.5886554e+3, 1.4560492e+2, -1490026.8, -1542092.9, -81.82461, 0.002190733, 0.00021870699, -1490026.5, 23045.867, 0.0, 10.035753, 9.966685 
7.58864e+3, 1.5557158e+2, -1393387.0, -1445420.0, -110.90109, 0.002196053, 0.000025740464, -1393386.8, 22012.443, 0.0, 10.035184, 9.966171 
7.588625e+3, 1.6553187e+2, -1305997.3, -1366510.6, -174.96869, 0.0021998861, 0.00010890729, -1305996.8, 11791.529, 0.0, 10.034629, 9.954515 
7.58861e+3, 1.7548645e+2, -1209067.5, -1269485.0, -198.8764, 0.002200728, 0.000010633282, -1209066.9, 11166.561, 0.0, 10.03409, 9.954116 
7.588594e+3, 1.8543458e+2, -1121634.5, -1190899.0, -219.34068, 0.002201659, 0.00015579183, -1121633.8, 1107.9243, 0.0, 10.033564, 9.942058 
7.588579e+3, 1.9537668e+2, -1024464.56, -1093602.3, -244.10913, 0.0022049411, 0.000019368277, -1024463.7, 845.5401, 0.0, 10.03305, 9.941723 
7.588564e+3, 2.0531228e+2, -936928.7, -1015219.2, -227.88908, 0.00220738, 0.00014138156, -936928.06, -8987.907, 0.0, 10.032542, 9.929319 
7.588548e+3, 2.1524166e+2, -839592.06, -917771.06, -256.51367, 0.0022085041, -0.000049183625, -839591.2, -8958.795, 0.0, 10.0320425, 9.92898 
7.588533e+3, 2.2516449e+2, -751926.4, -839533.6, -208.35185, 0.0022104192, 0.0001973271, -751925.9, -18537.266, 0.0, 10.031545, 9.916278 
7.588518e+3, 2.3508081e+2, -654424.25, -741922.7, -241.9535, 0.002213029, -0.000018824494, -654423.56, -18215.049, 0.0, 10.031051, 9.915941 
7.5885034e+3, 2.4499018e+2, -567015.5, -664594.75, -190.379, 0.0022147843, 0.00014198615, -567015.1, -27918.367, 0.0, 10.03055, 9.902452 
7.588489e+3, 2.5489277e+2, -469195.1, -566474.4, -211.62991, 0.0022150446, -0.00003808303, -469194.63, -27143.111, 0.0, 10.030042, 9.90235 
7.588474e+3, 2.647883e+2, -381740.3, -489435.47, -119.84864, 0.0022180148, 0.00020675917, -381740.2, -36665.156, 0.0, 10.029519, 9.88843 
7.588459e+3, 2.746773e+2, -283417.16, -390377.66, -156.48535, 0.002220743, -0.00014199139, -283416.94, -35253.94, 0.0, 10.028979, 9.888852 
7.5884455e+3, 2.8455862e+2, -196964.0, -315785.16, -20.109278, 0.0022199617, 0.0002917006, -196963.98, -45638.06, 0.0, 10.028423, 9.873125 
7.588431e+3, 2.9443285e+2, -98214.01, -215934.03, -45.388508, 0.00221907, -0.00018699102, -98213.984, -43655.71, 0.0, 10.027848, 9.873978 
7.5884175e+3, 3.043343e+2, -10774.127, -85884.09, 103.55113, 0.002225423, 0.00023020308, -10773.984, -10773.984, 0.0, 10.027253, 9.928292 
7.588404e+3, 3.1426436e+2, -10715.901, -84308.06, 62.325306, 0.0022240279, -0.000003966165, -10715.849, -10715.849, 0.0, 10.02663, 9.929655 
7.598722e+3, 1.256689e+2, -1673650.6, -1717383.4, -123.28569, 0.0021882195, 0.00012264108, -1673650.3, 34795.27, 0.0, 10.036881, 9.978791 
7.598707e+3, 1.3564755e+2, -1577450.4, -1621314.4, -160.51344, 0.0022004053, -0.000041068775, -1577449.8, 33204.957, 0.0, 10.036269, 9.978016 
7.5986916e+3, 1.456198e+2, -1490204.5, -1542263.8, -268.97318, 0.002194158, 0.00021666681, -1490203.1, 22723.545, 0.0, 10.035676, 9.9666195 
7.5986755e+3, 1.5558639e+2, -1393565.9, -1445591.9, -298.1851, 0.0021985366, 0.000024325167, -1393564.1, 21689.88, 0.0, 10.035106, 9.9661045 
7.5986594e+3, 1.6554661e+2, -1306173.5, -1366678.1, -350.2677, 0.0022029078, 0.00010768178, -1306171.4, 11472.336, 0.0, 10.034551, 9.954452 
7.5986433e+3, 1.7550112e+2, -1209241.5, -1269651.1, -374.00073, 0.002204879, 0.000008762235, -1209239.3, 10850.348, 0.0, 10.034013, 9.954051 
7.598628e+3, 1.854492e+2, -1121811.3, -1191071.4, -385.29474, 0.0022054294, 0.00015388476, -1121809.1, 789.3248, 0.0, 10.033485, 9.941989 
7.598612e+3, 1.9539122e+2, -1024640.3, -1093773.3, -409.85535, 0.002207966, 0.000017876942, -1024637.9, 528.7707, 0.0, 10.032971, 9.941654 
7.598596e+3, 2.0532677e+2, -937111.3, -1015404.4, -388.58224, 0.0022104827, 0.00014024407, -937109.4, -9311.094, 0.0, 10.032464, 9.929241 
7.598581e+3, 2.1525604e+2, -839772.7, -917954.4, -416.93643, 0.0022126867, -0.000050405975, -839770.44, -9279.09, 0.0, 10.031964, 9.928902 
7.598565e+3, 2.2517881e+2, -752113.7, -839731.5, -366.18622, 0.0022146855, 0.00019612498, -752112.2, -18863.81, 0.0, 10.031467, 9.916189 
7.598549e+3, 2.3509505e+2, -654610.6, -742119.06, -399.0038, 0.002216431, -0.000019833446, -654608.8, -18539.668, 0.0, 10.0309725, 9.915853 
7.598534e+3, 2.4500433e+2, -567179.56, -664745.9, -352.70822, 0.0022180264, 0.00014097294, -567178.3, -28220.22, 0.0, 10.030471, 9.902394 
7.598519e+3, 2.5490683e+2, -469360.0, -566625.4, -374.20416, 0.0022185585, -0.000038995637, -469358.56, -27445.137, 0.0, 10.029962, 9.902291 
7.598503e+3, 2.6480234e+2, -381937.78, -489653.25, -294.7379, 0.0022220488, 0.00020591651, -381936.97, -36999.24, 0.0, 10.029439, 9.888327 
7.5984883e+3, 2.746912e+2, -283612.3, -390593.4, -331.74304, 0.002224729, -0.00014308264, -283611.28, -35584.58, 0.0, 10.028899, 9.888749 
7.5984734e+3, 2.8457245e+2, -197139.94, -315963.16, -208.38417, 0.0022234858, 0.0002912269, -197139.58, -45949.043, 0.0, 10.028343, 9.873047 
7.598459e+3, 2.9444662e+2, -98388.4, -216107.97, -234.21603, 0.0022222584, -0.00018731691, -98387.94, -43964.316, 0.0, 10.027767, 9.873901 
7.598444e+3, 3.0434793e+2, -10988.388, -86143.266, -100.53864, 0.0022285562, 0.00022977445, -10988.253, -10988.253, 0.0, 10.027172, 9.928156 
7.5984305e+3, 3.1427783e+2, -10932.3545, -84571.04, -143.2333, 0.0022276083, -0.000004650392, -10932.076, -10932.076, 0.0, 10.026548, 9.929517 
7.6087594e+3, 1.2568462e+2, -1672596.5, -1716883.4, 113.73612, 0.002191913, 0.000119853845, -1672596.1, 35695.223, 0.0, 10.037564, 9.978731 
7.608744e+3, 1.3566323e+2, -1576444.0, -1620845.4, 81.316086, 0.0022036121, -0.00004276622, -1576443.9, 34057.3, 0.0, 10.036927, 9.977955 
7.608727e+3, 1.4563541e+2, -1489233.9, -1541810.6, -2.7975562, 0.0021967185, 0.00021464727, -1489233.9, 23539.723, 0.0, 10.036311, 9.966562 
7.608711e+3, 1.5560195e+2, -1392630.9, -1445161.4, -27.32033, 0.0022021697, 0.000021710395, -1392630.9, 22470.764, 0.0, 10.035723, 9.966046 
7.6086944e+3, 1.6556212e+2, -1305262.5, -1366262.5, -58.848774, 0.0022070461, 0.000105083804, -1305262.4, 12229.509, 0.0, 10.035155, 9.954392 
7.6086783e+3, 1.7551658e+2, -1208346.5, -1269246.8, -78.90992, 0.0022083165, 0.0000070449937, -1208346.4, 11591.946, 0.0, 10.034611, 9.953993 
7.6086617e+3, 1.8546458e+2, -1120932.9, -1190685.4, -76.35644, 0.0022085663, 0.00015213346, -1120932.8, 1515.0276, 0.0, 10.03408, 9.941923 
7.6086456e+3, 1.9540653e+2, -1023770.7, -1093394.3, -98.50866, 0.0022119514, 0.000015669812, -1023770.56, 1246.0547, 0.0, 10.033563, 9.941588 
7.608629e+3, 2.05342e+2, -936254.9, -1015046.7, -68.22305, 0.0022146234, 0.00013816105, -936254.9, -8605.887, 0.0, 10.033054, 9.929165 
7.608613e+3, 2.152712e+2, -838918.9, -917600.2, -95.565384, 0.002216534, -0.00005230712, -838918.75, -8576.018, 0.0, 10.032556, 9.928825 
7.6085967e+3, 2.2519387e+2, -751271.3, -839398.4, -41.805916, 0.0022183252, 0.00019426653, -751271.3, -18170.764, 0.0, 10.032059, 9.916102 
7.6085806e+3, 2.3511003e+2, -653772.56, -741790.44, -75.668236, 0.0022204902, -0.000021614374, -653772.5, -17850.275, 0.0, 10.031565, 9.915766 
7.608565e+3, 2.4501926e+2, -566326.06, -664380.56, -35.162663, 0.002222285, 0.00013911039, -566326.06, -27514.217, 0.0, 10.031062, 9.902333 
7.608549e+3, 2.549217e+2, -468516.1, -566268.0, -57.87809, 0.0022225943, -0.000040666015, -468516.06, -26748.297, 0.0, 10.03055, 9.90223 
7.608533e+3, 2.6481712e+2, -381137.8, -489374.06, 9.381569, 0.002226065, 0.00020401883, -381137.8, -36344.91, 0.0, 10.030024, 9.888219 
7.6085174e+3, 2.7470586e+2, -282823.63, -390322.7, -32.590084, 0.0022284884, -0.00014484492, -282823.6, -34940.652, 0.0, 10.02948, 9.88864 
7.608502e+3, 2.84587e+2, -196349.95, -315664.9, 72.88771, 0.0022272472, 0.0002895697, -196349.9, -45302.176, 0.0, 10.028914, 9.872964 
7.608487e+3, 2.944611e+2, -97623.8, -215822.58, 41.15341, 0.002226448, -0.00018834483, -97623.78, -43342.17, 0.0, 10.028323, 9.87382 
7.608472e+3, 3.0436233e+2, -10306.323, -85975.4, 147.88596, 0.0022328957, 0.00022791766, -10306.034, -10306.034, 0.0, 10.027709, 9.92801 
7.608457e+3, 3.1429204e+2, -10285.502, -84422.56, 94.26213, 0.0022313804, -0.000005949505, -10285.382, -10285.382, 0.0, 10.027062, 9.929368 
7.618797e+3, 1.2570095e+2, -1672777.8, -1717041.3, -97.39965, 0.0021949243, 0.00011726139, -1672777.6, 35353.75, 0.0, 10.037478, 9.97868 
7.61878e+3, 1.356795e+2, -1576627.8, -1621006.5, -130.57852, 0.0022059162, -0.00004414776, -1576627.3, 33714.26, 0.0, 10.036841, 9.9779005 
7.6187634e+3, 1.4565164e+2, -1489413.0, -1541964.9, -195.231, 0.0021986056, 0.0002131888, -1489412.3, 23202.3, 0.0, 10.036225, 9.966512 
7.618747e+3, 1.5561812e+2, -1392807.3, -1445315.1, -219.97887, 0.002205394, 0.000019297639, -1392806.4, 22136.734, 0.0, 10.035639, 9.965994 
7.6187295e+3, 1.6557823e+2, -1305438.5, -1366417.3, -234.60892, 0.0022108392, 0.00010297686, -1305437.6, 11896.245, 0.0, 10.035071, 9.954339 
7.618712e+3, 1.7553264e+2, -1208522.9, -1269401.9, -254.61792, 0.0022110664, 0.0000057133925, -1208521.8, 11259.045, 0.0, 10.034526, 9.9539385 
7.618696e+3, 1.8548058e+2, -1121115.4, -1190853.0, -241.27232, 0.0022110573, 0.00015097682, -1121114.6, 1176.3043, 0.0, 10.033995, 9.941861 
7.618679e+3, 1.9542247e+2, -1023951.0, -1093560.1, -263.1945, 0.0022156546, 0.000013905497, -1023950.0, 910.3388, 0.0, 10.033478, 9.941526 
7.618662e+3, 2.0535788e+2, -936444.4, -1015231.5, -226.1971, 0.0022184057, 0.00013657661, -936443.7, -8950.365, 0.0, 10.03297, 9.9290905 
7.6186454e+3, 2.15287e+2, -839107.1, -917783.4, -253.29358, 0.0022195175, -0.000053454773, -839106.3, -8918.441, 0.0, 10.032472, 9.928751 
7.618629e+3, 2.252096e+2, -751469.8, -839602.8, -197.65726, 0.00222126, 0.00019312136, -751469.4, -18522.922, 0.0, 10.031975, 9.916013 
7.618612e+3, 2.3512568e+2, -653969.75, -741993.0, -230.78748, 0.0022239063, -0.000022631752, -653969.1, -18200.158, 0.0, 10.03148, 9.915677 
7.618596e+3, 2.450348e+2, -566501.56, -664541.4, -196.78194, 0.0022259739, 0.00013822815, -566501.2, -27841.805, 0.0, 10.030977, 9.902271 
7.61858e+3, 2.549372e+2, -468689.5, -566427.06, -219.62373, 0.0022259464, -0.000041649524, -468689.0, -27073.11, 0.0, 10.030466, 9.902168 
7.618563e+3, 2.6483253e+2, -381348.8, -489611.16, -164.58994, 0.0022293786, 0.00020322745, -381348.56, -36706.65, 0.0, 10.02994, 9.888105 
7.618547e+3, 2.7472118e+2, -283033.84, -390558.38, -206.86914, 0.0022314428, -0.0001457302, -283033.47, -35300.41, 0.0, 10.029394, 9.888527 
7.618531e+3, 2.846022e+2, -196541.3, -315863.2, -118.77391, 0.0022300833, 0.0002892209, -196541.19, -45642.36, 0.0, 10.02883, 9.872874 
7.618515e+3, 2.944762e+2, -97811.85, -216015.73, -151.36957, 0.0022302282, -0.00018870858, -97811.664, -43678.098, 0.0, 10.028237, 9.873733 
7.6184994e+3, 3.0437732e+2, -10541.155, -86268.4, -63.03307, 0.0022364913, 0.00022777161, -10541.104, -10541.104, 0.0, 10.027624, 9.927852 
7.6184845e+3, 3.1430689e+2, -10524.543, -84719.82, -118.23325, 0.0022335334, -0.0000062849813, -10524.3545, -10524.3545, 0.0, 10.026975, 9.929209 
7.628835e+3, 1.2571804e+2, -1671753.9, -1716535.8, 152.28546, 0.0021975436, 0.00011476191, -1671753.4, 36210.55, 0.0, 10.038133, 9.978639 
7.6288176e+3, 1.3569655e+2, -1575655.9, -1620534.4, 124.97014, 0.002209627, -0.00004675343, -1575655.5, 34519.004, 0.0, 10.037467, 9.977857 
7.6287997e+3, 1.4566864e+2, -1488472.3, -1541508.9, 91.8142, 0.0022020454, 0.00021047417, -1488472.1, 23975.848, 0.0, 10.036834, 9.96647 
7.6287824e+3, 1.5563507e+2, -1391888.9, -1444875.4, 72.41703, 0.0022081663, 0.000017343626, -1391888.8, 22888.086, 0.0, 10.036237, 9.965951 
7.628765e+3, 1.6559516e+2, -1304537.4, -1365992.6, 81.36837, 0.0022140343, 0.00010097228, -1304537.3, 12630.858, 0.0, 10.035663, 9.954293 
7.628748e+3, 1.7554949e+2, -1207632.5, -1268986.4, 65.59617, 0.0022146727, 0.000003481402, -1207632.4, 11983.075, 0.0, 10.035114, 9.953891 
7.62873e+3, 1.8549739e+2, -1120236.1, -1190457.9, 96.605995, 0.0022144685, 0.00014867273, -1120236.0, 1890.064, 0.0, 10.034584, 9.941803 
7.6287127e+3, 1.9543922e+2, -1023068.44, -1093165.9, 77.275604, 0.0022190274, 0.000011860752, -1023068.3, 1627.7739, 0.0, 10.034073, 9.941468 
7.6286954e+3, 2.0537457e+2, -935567.75, -1014859.44, 124.05829, 0.002221909, 0.00013479982, -935567.56, -8237.782, 0.0, 10.033571, 9.929017 
7.628678e+3, 2.1530361e+2, -838223.94, -917410.2, 97.77831, 0.0022232658, -0.00005541978, -838223.8, -8198.809, 0.0, 10.03308, 9.928678 
7.6286614e+3, 2.2522613e+2, -750591.75, -839252.44, 156.13425, 0.0022250642, 0.00019110076, -750591.5, -17807.104, 0.0, 10.032591, 9.915925 
7.628644e+3, 2.3514213e+2, -653084.94, -741641.44, 121.56573, 0.0022276738, -0.000024416073, -653084.75, -17476.99, 0.0, 10.032104, 9.915589 
7.628627e+3, 2.4505118e+2, -565590.5, -664150.56, 149.3873, 0.0022297702, 0.00013635859, -565590.25, -27091.373, 0.0, 10.031608, 9.902207 
7.62861e+3, 2.549535e+2, -467774.28, -566037.1, 124.81067, 0.002229444, -0.000043303455, -467774.13, -26318.047, 0.0, 10.031103, 9.902103 
7.6285934e+3, 2.6484874e+2, -380473.6, -489307.38, 165.05568, 0.002232982, 0.00020146227, -380473.34, -35990.383, 0.0, 10.0305805, 9.887985 
7.628577e+3, 2.7473727e+2, -282163.72, -390260.1, 116.7584, 0.0022354836, -0.00014730681, -282163.6, -34588.316, 0.0, 10.030035, 9.888407 
7.62856e+3, 2.846182e+2, -195662.22, -315535.5, 183.3246, 0.002233986, 0.0002876129, -195661.94, -44919.81, 0.0, 10.029467, 9.872778 
7.628544e+3, 2.944921e+2, -96946.805, -215695.52, 143.5095, 0.0022335774, -0.00019010485, -96946.625, -42968.832, 0.0, 10.028869, 9.873638 
7.628527e+3, 3.0439305e+2, -9759.146, -86077.0, 198.64165, 0.0022398822, 0.0002256804, -9758.629, -9758.629, 0.0, 10.02824, 9.927683 
7.628512e+3, 3.1432247e+2, -9775.153, -84546.234, 131.16966, 0.0022373183, -0.000007368538, -9774.923, -9774.923, 0.0, 10.02757, 9.929038 
7.638873e+3, 1.2573574e+2, -1671935.1, -1716670.4, -67.96377, 0.0021988524, 0.000112897775, -1671935.0, 35855.223, 0.0, 10.038036, 9.978606 
7.638855e+3, 1.3571422e+2, -1575833.8, -1620669.6, -95.47624, 0.0022126052, -0.000049247374, -1575833.6, 34167.66, 0.0, 10.037374, 9.977822 
7.638837e+3, 1.4568628e+2, -1488647.6, -1541641.3, -102.11917, 0.002205129, 0.00020830614, -1488647.5, 23627.557, 0.0, 10.036741, 9.966436 
7.6388186e+3, 1.556527e+2, -1392066.0, -1445010.8, -121.655975, 0.0022101405, 0.000015548296, -1392065.8, 22538.457, 0.0, 10.036143, 9.965916 
7.638801e+3, 1.6561273e+2, -1304716.8, -1366134.3, -93.78243, 0.002216384, 0.00009959036, -1304716.6, 12279.235, 0.0, 10.03557, 9.954252 
7.638783e+3, 1.7556703e+2, -1207809.0, -1269127.3, -109.5163, 0.0022177617, 0.0000014110637, -1207808.9, 11634.782, 0.0, 10.035023, 9.953849 
7.6387644e+3, 1.8551488e+2, -1120422.0, -1190618.4, -64.1004, 0.0022173538, 0.0001467789, -1120422.0, 1532.7325, 0.0, 10.034493, 9.941748 
7.6387465e+3, 1.9545667e+2, -1023253.7, -1093325.8, -83.27393, 0.0022217804, 0.0000104762175, -1023253.56, 1271.7089, 0.0, 10.033982, 9.941413 
7.638729e+3, 2.0539194e+2, -935766.4, -1015045.9, -29.210413, 0.0022245354, 0.0001336856, -935766.4, -8606.8125, 0.0, 10.03348, 9.928945 
7.638711e+3, 2.1532093e+2, -838421.06, -917594.7, -55.37943, 0.0022262477, -0.00005666488, -838421.0, -8565.509, 0.0, 10.032989, 9.928606 
7.6386935e+3, 2.2524334e+2, -750802.56, -839465.4, 4.8928514, 0.0022283858, 0.00018998285, -750802.56, -18186.857, 0.0, 10.032498, 9.915833 
7.638676e+3, 2.3515925e+2, -653294.0, -741852.0, -29.000029, 0.002230479, -0.000025436026, -653293.94, -17854.008, 0.0, 10.032011, 9.915499 
7.638659e+3, 2.4506822e+2, -565779.06, -664322.4, -7.440839, 0.0022325583, 0.00013535446, -565779.06, -27447.207, 0.0, 10.031516, 9.902141 
7.638641e+3, 2.549705e+2, -467960.13, -566206.8, -31.906555, 0.002232329, -0.000044022745, -467960.13, -26670.459, 0.0, 10.031012, 9.902038 
7.6386243e+3, 2.648656e+2, -380702.22, -489568.16, -6.38527, 0.0022359951, 0.00020095258, -380702.22, -36384.723, 0.0, 10.03049, 9.887859 
7.638607e+3, 2.7475402e+2, -282388.78, -390517.97, -55.179054, 0.002238759, -0.00014814449, -282388.75, -34977.688, 0.0, 10.029946, 9.888281 
7.63859e+3, 2.8463483e+2, -195869.34, -315758.4, -8.716749, 0.002236569, 0.00028753505, -195869.34, -45290.293, 0.0, 10.029378, 9.872673 
7.638573e+3, 2.9450864e+2, -97153.125, -215914.31, -49.214333, 0.002236059, -0.00019070265, -97153.1, -43337.395, 0.0, 10.028777, 9.873537 
7.638556e+3, 3.0440944e+2, -10019.296, -86408.85, -18.20009, 0.0022417426, 0.00022589815, -10019.291, -10019.291, 0.0, 10.028149, 9.927502 
7.638539e+3, 3.143387e+2, -10039.017, -84881.97, -87.1839, 0.0022400299, -0.0000072023995, -10038.915, -10038.915, 0.0, 10.027476, 9.928855 
7.648911e+3, 1.2575425e+2, -1670963.9, -1716166.8, 195.59535, 0.0022024747, 0.000110011446, -1670963.1, 36645.88, 0.0, 10.038646, 9.978588 
7.6488924e+3, 1.357327e+2, -1574900.3, -1620191.9, 175.54388, 0.002214834, -0.000051190775, -1574899.6, 34920.49, 0.0, 10.037964, 9.9778 
7.6488733e+3, 1.4570475e+2, -1487740.1, -1541180.9, 204.90524, 0.0022080773, 0.00020661663, -1487739.3, 24354.822, 0.0, 10.037318, 9.9664135 
7.648855e+3, 1.5567113e+2, -1391178.6, -1444566.3, 191.81685, 0.002213106, 0.0000126734385, -1391177.9, 23245.611, 0.0, 10.036713, 9.96589 
7.6488364e+3, 1.6563113e+2, -1303839.5, -1365705.9, 249.7315, 0.0022196732, 0.00009659142, -1303838.5, 12976.979, 0.0, 10.0361395, 9.95422 
7.648818e+3, 1.755854e+2, -1206925.8, -1268699.8, 238.38084, 0.0022208637, -0.00000047472696, -1206924.9, 12338.751, 0.0, 10.035601, 9.953815 
7.6487994e+3, 1.8553323e+2, -1119541.1, -1190212.8, 303.49567, 0.0022202046, 0.0001449933, -1119539.8, 2235.268, 0.0, 10.03508, 9.941697 
7.648781e+3, 1.9547495e+2, -1022358.94, -1092916.1, 286.7973, 0.002225189, 0.000008181964, -1022357.75, 1988.3463, 0.0, 10.034581, 9.941362 
7.6487625e+3, 2.0541015e+2, -934870.56, -1014661.56, 351.72388, 0.002227791, 0.0001313623, -934869.0, -7888.0244, 0.0, 10.034093, 9.928873 
7.6487446e+3, 2.1533906e+2, -837506.4, -917203.2, 325.698, 0.002229744, -0.00005879601, -837505.06, -7827.4053, 0.0, 10.033617, 9.9285345 
7.6487267e+3, 2.2526142e+2, -749883.75, -839096.75, 388.02557, 0.0022317541, 0.00018838503, -749882.06, -17443.434, 0.0, 10.033142, 9.915743 
7.648708e+3, 2.3517722e+2, -652356.56, -741476.1, 352.16333, 0.0022338412, -0.000026961134, -652355.1, -17091.367, 0.0, 10.03267, 9.915408 
7.6486903e+3, 2.4508612e+2, -564804.3, -663902.4, 367.5778, 0.002236151, 0.00013320753, -564802.94, -26646.486, 0.0, 10.03219, 9.902074 
7.6486725e+3, 2.549883e+2, -466968.78, -565781.9, 340.79633, 0.0022359635, -0.000045785324, -466967.63, -25852.691, 0.0, 10.031701, 9.90197 
7.6486546e+3, 2.6488334e+2, -379745.34, -489240.06, 349.43665, 0.0022393519, 0.00019952674, -379744.25, -35600.492, 0.0, 10.031193, 9.887725 
7.648637e+3, 2.747716e+2, -281420.7, -390187.25, 293.22043, 0.002241895, -0.00014929805, -281419.9, -34181.273, 0.0, 10.030661, 9.888146 
7.6486194e+3, 2.8465232e+2, -194882.56, -315395.22, 311.78253, 0.0022401547, 0.00028575855, -194881.77, -44473.938, 0.0, 10.030096, 9.872561 
7.6486015e+3, 2.94526e+2, -96176.39, -215556.66, 262.44717, 0.0022398934, -0.00019216153, -96175.81, -42530.242, 0.0, 10.029491, 9.873426 
7.648584e+3, 3.0442667e+2, -9125.977, -86190.43, 254.97816, 0.0022449614, 0.0002251663, -9125.133, -9125.133, 0.0, 10.028852, 9.927309 
7.648567e+3, 3.143557e+2, -9166.502, -84675.05, 172.08945, 0.0022439659, -0.00000925338, -9166.109, -9166.109, 0.0, 10.028167, 9.92866 
7.6589495e+3, 1.257734e+2, -1671138.0, -1716269.3, -29.158772, 0.0022047765, 0.00010689696, -1671138.0, 36283.215, 0.0, 10.038541, 9.9785795 
7.6589304e+3, 1.3575184e+2, -1575076.8, -1620298.5, -49.362244, 0.0022156197, -0.000053158263, -1575076.6, 34555.766, 0.0, 10.037859, 9.97779 
7.6589113e+3, 1.4572388e+2, -1487916.4, -1541290.6, 9.518414, 0.002210172, 0.00020558754, -1487916.4, 23990.154, 0.0, 10.037214, 9.966399 
7.6588917e+3, 1.5569025e+2, -1391351.3, -1444676.8, -3.5185697, 0.0022151738, 0.0000100145935, -1391351.3, 22884.834, 0.0, 10.036612, 9.965874 
7.6588726e+3, 1.6565022e+2, -1304018.0, -1365830.3, 79.75696, 0.0022221697, 0.00009413655, -1304017.9, 12610.422, 0.0, 10.036039, 9.954193 
7.6588535e+3, 1.7560448e+2, -1207105.0, -1268826.3, 68.13675, 0.002223163, -0.0000017906565, -1207105.0, 11971.691, 0.0, 10.0355, 9.953787 
7.6588345e+3, 1.8555224e+2, -1119734.9, -1190368.4, 149.46075, 0.0022222516, 0.00014394855, -1119734.5, 1854.0061, 0.0, 10.03498, 9.94165 
7.6588154e+3, 1.9549392e+2, -1022549.56, -1093070.1, 132.93076, 0.002227895, 0.0000064556375, -1022549.3, 1610.6881, 0.0, 10.034482, 9.941315 
7.658797e+3, 2.0542908e+2, -935078.44, -1014851.6, 206.56401, 0.0022301772, 0.00012968777, -935077.9, -8282.413, 0.0, 10.033995, 9.9288025 
7.658778e+3, 2.1535793e+2, -837712.44, -917391.8, 180.76584, 0.0022322773, -0.000060031274, -837712.0, -8219.19, 0.0, 10.033519, 9.928463 
7.6587594e+3, 2.252802e+2, -750108.06, -839320.6, 244.64569, 0.0022341649, 0.00018796828, -750107.4, -17852.791, 0.0, 10.033044, 9.915648 
7.6587415e+3, 2.3519589e+2, -652582.3, -741698.94, 209.11388, 0.0022362221, -0.000027599046, -652581.8, -17501.088, 0.0, 10.032569, 9.915315 
7.6587224e+3, 2.4510472e+2, -565009.75, -664087.5, 218.26506, 0.0022387, 0.00013201746, -565009.25, -27035.096, 0.0, 10.03209, 9.902003 
7.658704e+3, 2.5500685e+2, -467167.78, -565963.2, 191.17256, 0.0022387712, -0.00004707883, -467167.44, -26234.086, 0.0, 10.031604, 9.901899 
7.658686e+3, 2.6490176e+2, -379993.34, -489528.84, 183.80762, 0.0022417665, 0.00019960718, -379993.03, -36029.836, 0.0, 10.031098, 9.887582 
7.6586676e+3, 2.747899e+2, -281663.9, -390472.4, 127.8733, 0.0022438765, -0.00014933827, -281663.75, -34604.293, 0.0, 10.030567, 9.888003 
7.6586497e+3, 2.8467044e+2, -195108.84, -315647.03, 120.36285, 0.0022422012, 0.0002851907, -195108.72, -44878.75, 0.0, 10.030003, 9.87244 
7.658631e+3, 2.9454404e+2, -96403.23, -215805.44, 70.8157, 0.0022432816, -0.00019335926, -96403.19, -42934.31, 0.0, 10.029395, 9.873308 
7.6586133e+3, 3.0444455e+2, -9413.369, -86564.945, 35.5235, 0.0022466097, 0.00022710621, -9413.354, -9413.354, 0.0, 10.028755, 9.927102 
7.6585954e+3, 3.1437337e+2, -9458.958, -85054.414, -48.767086, 0.0022447791, -0.00000980239, -9458.927, -9458.927, 0.0, 10.028067, 9.928452 
7.668989e+3, 1.2579338e+2, -1670224.8, -1715766.3, 246.13411, 0.002207692, 0.00010466207, -1670223.5, 37001.97, 0.0, 10.0391, 9.978587 
7.668969e+3, 1.3577184e+2, -1574206.3, -1619824.9, 235.00099, 0.002217945, -0.00005650468, -1574205.1, 35231.508, 0.0, 10.038396, 9.977794 
7.668949e+3, 1.4574386e+2, -1487064.4, -1540834.6, 339.6422, 0.002214111, 0.00020307723, -1487062.3, 24648.5, 0.0, 10.037745, 9.966398 
7.6689285e+3, 1.5571022e+2, -1390499.3, -1444226.0, 333.96277, 0.00221772, 0.0000082671295, -1390497.3, 23543.121, 0.0, 10.0371475, 9.96587 
7.668909e+3, 1.656702e+2, -1303165.9, -1365397.0, 451.16373, 0.0022245867, 0.00009169134, -1303162.6, 13269.99, 0.0, 10.036585, 9.954176 
7.668889e+3, 1.7562443e+2, -1206237.8, -1268389.4, 444.24954, 0.0022260232, -0.0000042228485, -1206234.5, 12646.552, 0.0, 10.036059, 9.953768 
7.6688695e+3, 1.8557218e+2, -1118859.8, -1189956.3, 550.00385, 0.0022252153, 0.00014170542, -1118855.5, 2537.726, 0.0, 10.035558, 9.941608 
7.66885e+3, 1.9551381e+2, -1021640.7, -1092643.6, 535.6609, 0.0022308144, 0.000004332696, -1021636.7, 2328.5403, 0.0, 10.035087, 9.941272 
7.6688313e+3, 2.054489e+2, -934156.75, -1014453.1, 620.18616, 0.0022331371, 0.00012780441, -934152.0, -7550.756, 0.0, 10.034624, 9.928731 
7.668812e+3, 2.1537767e+2, -836755.56, -916978.3, 593.7283, 0.0022354259, -0.0000619097, -836751.1, -7451.882, 0.0, 10.034175, 9.928391 
7.668793e+3, 2.2529985e+2, -749142.8, -838936.5, 655.5389, 0.002237321, 0.00018615463, -749138.0, -17076.139, 0.0, 10.033721, 9.91555 
7.668774e+3, 2.3521546e+2, -651593.9, -741304.9, 615.9239, 0.0022395067, -0.000029445844, -651589.6, -16700.701, 0.0, 10.033265, 9.915216 
7.668755e+3, 2.451242e+2, -563971.0, -663643.9, 621.75885, 0.0022418571, 0.00013016489, -563967.1, -26183.88, 0.0, 10.03281, 9.901929 
7.6687366e+3, 2.5502625e+2, -466091.47, -565504.0, 590.67084, 0.0022420043, -0.000048793965, -466087.94, -25344.79, 0.0, 10.032353, 9.901825 
7.6687175e+3, 2.6492104e+2, -378938.53, -489167.63, 562.6319, 0.0022447668, 0.00019822137, -378935.66, -35161.543, 0.0, 10.031873, 9.887434 
7.668699e+3, 2.7480906e+2, -280582.63, -390101.06, 498.76135, 0.0022467852, -0.00014997018, -280580.38, -33708.54, 0.0, 10.031364, 9.887856 
7.66868e+3, 2.8468946e+2, -193998.44, -315238.53, 454.86975, 0.002245642, 0.00028386357, -193996.73, -43953.04, 0.0, 10.03081, 9.872314 
7.668661e+3, 2.9456294e+2, -95296.17, -215400.38, 396.73703, 0.0022469442, -0.00019572445, -95294.86, -42011.027, 0.0, 10.030205, 9.873183 
7.668642e+3, 3.0446327e+2, -8392.789, -86315.11, 319.28745, 0.0022491347, 0.00022642087, -8391.481, -8391.481, 0.0, 10.029559, 9.926882 
7.6686233e+3, 3.1439188e+2, -8451.99, -84813.19, 220.08215, 0.0022480593, -0.000010810538, -8451.355, -8451.355, 0.0, 10.028862, 9.92823 
7.679028e+3, 1.2581404e+2, -1670397.5, -1715836.4, 14.441059, 0.002208303, 0.000102714694, -1670397.5, 36625.453, 0.0, 10.0389805, 9.978606 
7.679007e+3, 1.3579251e+2, -1574372.8, -1619895.0, 4.3430576, 0.0022189522, -0.000059785198, -1574372.8, 34861.227, 0.0, 10.038282, 9.97781 
7.678986e+3, 1.4576454e+2, -1487234.0, -1540914.4, 148.01819, 0.0022170916, 0.00020113915, -1487233.5, 24274.43, 0.0, 10.037633, 9.966407 
7.678966e+3, 1.5573093e+2, -1390671.8, -1444310.4, 142.58241, 0.0022189133, 0.000006603119, -1390671.4, 23166.156, 0.0, 10.037034, 9.965876 
7.678945e+3, 1.6569088e+2, -1303349.0, -1365505.1, 287.8335, 0.0022257452, 0.00008988071, -1303347.6, 12882.159, 0.0, 10.036473, 9.954165 
7.6789254e+3, 1.7564511e+2, -1206417.3, -1268497.6, 280.6729, 0.0022279397, -0.000006392552, -1206416.0, 12262.39, 0.0, 10.035951, 9.953755 
7.678905e+3, 1.8559282e+2, -1119059.5, -1190105.8, 407.54095, 0.0022272752, 0.0001399554, -1119057.1, 2133.694, 0.0, 10.03545, 9.941569 
7.6788855e+3, 1.9553442e+2, -1021840.44, -1092793.6, 393.33194, 0.002232712, 0.0000030031938, -1021838.25, 1924.9226, 0.0, 10.034978, 9.941231 
7.678866e+3, 2.0546947e+2, -934380.56, -1014652.0, 487.4277, 0.0022351416, 0.00012700444, -934377.56, -7977.8735, 0.0, 10.034515, 9.928659 
7.678846e+3, 2.1539816e+2, -836976.44, -917175.44, 461.60092, 0.0022372038, -0.00006289085, -836973.75, -7875.318, 0.0, 10.034067, 9.928319 
7.6788265e+3, 2.2532025e+2, -749385.1, -839180.7, 521.9601, 0.0022393975, 0.00018479656, -749382.1, -17520.152, 0.0, 10.033615, 9.915446 
7.6788074e+3, 2.3523577e+2, -651831.25, -741544.44, 483.7079, 0.002241564, -0.000030386327, -651828.6, -17138.602, 0.0, 10.033161, 9.915113 
7.6787883e+3, 2.4514441e+2, -564189.8, -663849.9, 486.40414, 0.002243671, 0.0001303608, -564187.44, -26602.236, 0.0, 10.032707, 9.901846 
7.6787686e+3, 2.5504637e+2, -466309.06, -565708.44, 448.93494, 0.0022443305, -0.00004970045, -466307.03, -25761.078, 0.0, 10.032249, 9.901742 
7.6787496e+3, 2.6494107e+2, -379209.8, -489482.9, 401.74802, 0.0022468034, 0.00019779772, -379208.34, -35630.297, 0.0, 10.031769, 9.887279 
7.67873e+3, 2.7482888e+2, -280852.13, -390414.1, 344.6494, 0.002248586, -0.00015021685, -280851.03, -34173.75, 0.0, 10.03126, 9.8877 
7.67871e+3, 2.8470916e+2, -194252.3, -315521.16, 268.1841, 0.0022470155, 0.00028458252, -194251.7, -44401.12, 0.0, 10.030705, 9.872178 
7.678691e+3, 2.945825e+2, -95547.04, -215678.83, 209.39339, 0.0022495731, -0.00019720756, -95546.68, -42454.63, 0.0, 10.0301, 9.873049 
7.678672e+3, 3.0448264e+2, -8709.467, -86735.59, 99.63846, 0.0022492271, 0.00022837862, -8709.34, -8709.34, 0.0, 10.029455, 9.926647 
7.6786524e+3, 3.14411e+2, -8771.508, -85239.09, -0.93230766, 0.0022492888, -0.0000105168, -8771.508, -8771.508, 0.0, 10.028758, 9.927992 
7.689067e+3, 1.2583554e+2, -1669575.8, -1715347.5, 302.866, 0.0022124944, 0.00009991517, -1669573.8, 37238.504, 0.0, 10.039466, 9.978644 
7.6890457e+3, 1.3581404e+2, -1573571.6, -1619422.5, 304.746, 0.0022201308, -0.00006133234, -1573569.6, 35453.24, 0.0, 10.038759, 9.977845 
7.689024e+3, 1.4578612e+2, -1486442.8, -1540462.0, 500.23334, 0.0022203461, 0.00019947717, -1486438.1, 24858.465, 0.0, 10.038114, 9.966431 
7.689003e+3, 1.5575252e+2, -1389875.0, -1443861.1, 503.9669, 0.0022217906, 0.000003861521, -1389870.3, 23755.621, 0.0, 10.037522, 9.965896 
7.688982e+3, 1.6571248e+2, -1302540.6, -1365074.8, 691.5159, 0.0022282854, 0.00008694658, -1302532.9, 13485.215, 0.0, 10.036982, 9.954165 
7.6889616e+3, 1.756667e+2, -1205567.5, -1268051.0, 688.94464, 0.0022305022, -0.000008246655, -1205559.9, 12906.901, 0.0, 10.0364895, 9.9537525 
7.688941e+3, 1.8561439e+2, -1118187.0, -1189684.5, 842.08105, 0.0022298582, 0.00013833394, -1118177.0, 2802.3206, 0.0, 10.036022, 9.941535 
7.6889205e+3, 1.9555597e+2, -1020917.94, -1092350.8, 829.51996, 0.002235676, 0.00000059498905, -1020908.3, 2643.72, 0.0, 10.035586, 9.941196 
7.6889e+3, 2.0549095e+2, -933432.7, -1014238.9, 936.2784, 0.0022378692, 0.00012492124, -933421.8, -7232.7075, 0.0, 10.035162, 9.928589 
7.6888806e+3, 2.1541959e+2, -835972.75, -916736.56, 909.0933, 0.002240053, -0.00006452476, -835962.56, -7073.9966, 0.0, 10.034753, 9.928248 
7.68886e+3, 2.2534159e+2, -748357.1, -838771.75, 965.6036, 0.002242386, 0.00018284527, -748346.8, -16693.934, 0.0, 10.034338, 9.91534 
7.6888406e+3, 2.3525698e+2, -650757.06, -741114.8, 923.23615, 0.002244122, -0.000031721826, -650747.6, -16265.614, 0.0, 10.033917, 9.915009 
7.688821e+3, 2.4516551e+2, -563086.75, -663433.2, 914.6874, 0.0022464937, 0.00012919593, -563078.44, -25700.104, 0.0, 10.033496, 9.901719 
7.688801e+3, 2.5506735e+2, -465163.9, -565273.6, 856.91895, 0.0022476097, -0.00005174056, -465156.56, -24816.27, 0.0, 10.0330715, 9.901616 
7.688781e+3, 2.6496193e+2, -378022.78, -489026.66, 785.63446, 0.0022493894, 0.00019619091, -378017.22, -34643.594, 0.0, 10.032619, 9.887155 
7.688762e+3, 2.7484965e+2, -279632.06, -389945.16, 733.5535, 0.0022510067, -0.00015030598, -279627.2, -33153.098, 0.0, 10.032137, 9.887576 
7.6887417e+3, 2.8472978e+2, -193023.95, -315076.84, 620.4387, 0.0022506197, 0.00028323897, -193020.8, -43372.094, 0.0, 10.031603, 9.872032 
7.6887214e+3, 2.9460293e+2, -94307.56, -215231.95, 550.19934, 0.00225383, -0.0001995084, -94305.06, -41413.445, 0.0, 10.031009, 9.872903 
7.688702e+3, 3.045029e+2, -7547.5293, -86452.58, 393.30878, 0.0022505189, 0.0002295442, -7545.569, -7545.569, 0.0, 10.030372, 9.926395 
7.6886815e+3, 3.14431e+2, -7601.8477, -84956.76, 275.35944, 0.0022543452, -0.0000130733615, -7600.8677, -7600.8677, 0.0, 10.029681, 9.927736 
7.6991063e+3, 1.2585774e+2, -1669735.6, -1715372.4, 70.36382, 0.0022138965, 0.00009650664, -1669735.5, 36859.203, 0.0, 10.039337, 9.978697 
7.699084e+3, 1.358363e+2, -1573733.1, -1619450.9, 74.08335, 0.0022192164, -0.000063027794, -1573733.0, 35071.78, 0.0, 10.0386305, 9.977895 
7.699062e+3, 1.4580841e+2, -1486612.8, -1540511.5, 312.67273, 0.0022219142, 0.00019795906, -1486610.9, 24467.186, 0.0, 10.037987, 9.966466 
7.699041e+3, 1.5577485e+2, -1390039.6, -1443911.6, 317.37256, 0.0022228395, 0.000000785536, -1390037.8, 23369.348, 0.0, 10.0374, 9.965927 
7.6990193e+3, 1.6573483e+2, -1302722.5, -1365162.5, 541.58356, 0.0022293632, 0.00008490778, -1302717.8, 13081.309, 0.0, 10.036861, 9.954172 
7.698998e+3, 1.7568907e+2, -1205751.5, -1268142.9, 538.52814, 0.0022319185, -0.0000094613015, -1205746.9, 12500.748, 0.0, 10.036369, 9.953756 
7.698977e+3, 1.8563674e+2, -1118398.9, -1189831.4, 714.35016, 0.0022309427, 0.0001374179, -1118391.8, 2368.6567, 0.0, 10.035902, 9.941504 
7.698956e+3, 1.9557828e+2, -1021126.94, -1092497.3, 701.42865, 0.0022372198, -0.0000014386854, -1021120.0, 2213.3413, 0.0, 10.035468, 9.941163 
7.698935e+3, 2.0551321e+2, -933671.25, -1014446.4, 819.3991, 0.0022389842, 0.00012361299, -933662.94, -7691.985, 0.0, 10.035045, 9.928515 
7.698915e+3, 2.1544178e+2, -836209.4, -916942.25, 792.34973, 0.0022416047, -0.00006486025, -836201.6, -7530.4985, 0.0, 10.0346365, 9.928175 
7.698895e+3, 2.2536367e+2, -748619.25, -839035.44, 845.16644, 0.0022439964, 0.0001824972, -748611.4, -17174.996, 0.0, 10.034224, 9.915229 
7.6988745e+3, 2.3527896e+2, -651009.94, -741372.7, 803.3259, 0.0022452802, -0.000032407956, -651002.8, -16736.207, 0.0, 10.033808, 9.914896 
7.698854e+3, 2.4518737e+2, -563362.06, -663741.1, 793.6244, 0.0022481247, 0.000128614, -563355.75, -26191.588, 0.0, 10.033387, 9.901574 
7.6988345e+3, 2.5508907e+2, -465439.6, -565580.06, 737.29004, 0.0022498607, -0.00005306953, -465434.16, -25306.588, 0.0, 10.032961, 9.90147 
7.6988137e+3, 2.6498348e+2, -378283.66, -489299.38, 644.8146, 0.0022503503, 0.00019680883, -378279.9, -35117.7, 0.0, 10.032507, 9.8870325 
7.698794e+3, 2.7487105e+2, -279896.22, -390218.66, 592.08093, 0.00225131, -0.0001492799, -279893.03, -33629.188, 0.0, 10.032021, 9.887453 
7.698773e+3, 2.8475106e+2, -193311.6, -315401.78, 437.86014, 0.0022517885, 0.0002832492, -193310.03, -43870.156, 0.0, 10.031486, 9.871874 
7.698753e+3, 2.946241e+2, -94585.625, -215551.02, 367.91818, 0.0022574945, -0.0002022352, -94584.51, -41900.164, 0.0, 10.030897, 9.872745 
7.698732e+3, 3.0452386e+2, -7895.361, -86926.81, 176.12, 0.0022486893, 0.00023367052, -7894.9683, -7894.9683, 0.0, 10.030262, 9.9261265 
7.698711e+3, 3.144517e+2, -7957.116, -85442.53, 58.20516, 0.0022542733, -0.000013253909, -7957.0723, -7957.0723, 0.0, 10.029571, 9.927461 
7.709146e+3, 1.2588081e+2, -1669015.3, -1714896.5, 369.6754, 0.0022173729, 0.00009495034, -1669012.3, 37356.266, 0.0, 10.0397415, 9.978769 
7.709123e+3, 1.3585943e+2, -1573038.4, -1618994.4, 388.04846, 0.0022206753, -0.00006645501, -1573035.1, 35542.86, 0.0, 10.039023, 9.977964 
7.7091e+3, 1.458316e+2, -1485916.3, -1540076.5, 692.6551, 0.0022269995, 0.00019604081, -1485907.4, 24943.363, 0.0, 10.038392, 9.966517 
7.709078e+3, 1.5579809e+2, -1389303.5, -1443461.9, 707.5427, 0.0022251874, -0.00000089991715, -1389294.3, 23884.941, 0.0, 10.037836, 9.965975 
7.709056e+3, 1.6575812e+2, -1301958.8, -1364735.6, 978.50055, 0.0022305658, 0.00008236467, -1301943.5, 13627.423, 0.0, 10.0373335, 9.954188 
7.709034e+3, 1.7571236e+2, -1204928.4, -1267690.4, 979.7997, 0.002234097, -0.000012046173, -1204913.1, 13106.189, 0.0, 10.036882, 9.95377 
7.709013e+3, 1.8566003e+2, -1117537.4, -1189410.0, 1186.5432, 0.0022338352, 0.00013562628, -1117517.8, 3014.4014, 0.0, 10.036466, 9.941475 
7.708992e+3, 1.9560154e+2, -1020184.2, -1092038.1, 1173.1552, 0.0022396343, -0.000003029963, -1020165.06, 2940.3555, 0.0, 10.036087, 9.941133 
7.708971e+3, 2.0553643e+2, -932686.4, -1014019.9, 1301.103, 0.0022409547, 0.00012133213, -932665.56, -6922.0317, 0.0, 10.035717, 9.92844 
7.70895e+3, 2.154649e+2, -835150.6, -916480.8, 1270.0663, 0.0022444492, -0.00006678531, -835130.75, -6686.35, 0.0, 10.03536, 9.9281 
7.708929e+3, 2.2538672e+2, -747519.3, -838607.75, 1316.6892, 0.0022464262, 0.00018153728, -747500.3, -16289.665, 0.0, 10.035001, 9.915108 
7.708909e+3, 2.3530188e+2, -649835.44, -740910.1, 1266.7257, 0.0022478157, -0.000033964432, -649817.8, -15775.753, 0.0, 10.034637, 9.914775 
7.708888e+3, 2.4521014e+2, -562155.0, -663305.44, 1241.0175, 0.0022510793, 0.0001267339, -562139.8, -25198.777, 0.0, 10.034261, 9.901418 
7.708868e+3, 2.5511166e+2, -464186.28, -565124.6, 1172.5536, 0.0022530158, -0.000054469918, -464172.66, -24266.729, 0.0, 10.033869, 9.901315 
7.708847e+3, 2.6500595e+2, -376970.5, -488786.44, 1050.2908, 0.00225294, 0.00019563541, -376960.66, -34018.684, 0.0, 10.033444, 9.886903 
7.708826e+3, 2.7489343e+2, -278552.97, -389694.47, 990.02814, 0.0022527294, -0.00014885076, -278544.16, -32499.271, 0.0, 10.032984, 9.887323 
7.708805e+3, 2.847733e+2, -191958.34, -314917.25, 795.6644, 0.0022547632, 0.00028190852, -191953.2, -42730.86, 0.0, 10.032476, 9.871709 
7.7087843e+3, 2.946461e+2, -93193.3, -215053.42, 714.8373, 0.0022624987, -0.00020487155, -93189.1, -40720.633, 0.0, 10.03192, 9.872578 
7.708763e+3, 3.0454564e+2, -6568.288, -86599.6, 468.08478, 0.0022494912, 0.00023479633, -6565.551, -6565.551, 0.0, 10.031308, 9.925842 
7.7087414e+3, 3.144732e+2, -6613.981, -85115.6, 333.23358, 0.0022578598, -0.000014582935, -6612.5664, -6612.5664, 0.0, 10.03063, 9.927169 
7.7191854e+3, 1.259046e+2, -1669171.4, -1714876.1, 133.31438, 0.0022164895, 0.00009270272, -1669171.0, 36964.395, 0.0, 10.039595, 9.978859 
7.719162e+3, 1.3588332e+2, -1573182.1, -1618970.1, 155.69966, 0.0022197803, -0.00007068373, -1573181.6, 35162.316, 0.0, 10.038885, 9.978051 
7.719139e+3, 1.4585556e+2, -1486074.9, -1540086.0, 518.0588, 0.0022303741, 0.00019519277, -1486069.9, 24546.006, 0.0, 10.038257, 9.966581 
7.7191156e+3, 1.5582211e+2, -1389466.3, -1443477.9, 533.8111, 0.002225051, -0.000002178806, -1389461.0, 23482.734, 0.0, 10.0377, 9.966035 
7.719093e+3, 1.6578218e+2, -1302148.4, -1364807.3, 845.1182, 0.002229958, 0.00008018907, -1302137.0, 13198.1455, 0.0, 10.037199, 9.954213 
7.7190715e+3, 1.7573646e+2, -1205113.8, -1267763.6, 845.8311, 0.0022348012, -0.000014735392, -1205102.4, 12680.883, 0.0, 10.036753, 9.953791 
7.7190495e+3, 1.8568411e+2, -1117761.1, -1189559.8, 1081.1545, 0.0022354487, 0.0001346511, -1117744.8, 2551.356, 0.0, 10.036336, 9.941446 
7.719028e+3, 1.9562559e+2, -1020408.6, -1092189.3, 1067.3613, 0.002240425, -0.0000029052771, -1020392.75, 2476.9375, 0.0, 10.035957, 9.941102 
7.7190065e+3, 2.0556042e+2, -932949.56, -1014250.06, 1204.95, 0.0022411423, 0.00011995677, -932931.7, -7423.345, 0.0, 10.035588, 9.928358 
7.718985e+3, 2.1548882e+2, -835409.0, -916708.44, 1174.0336, 0.002245624, -0.000068777874, -835392.06, -7182.011, 0.0, 10.035234, 9.928017 
7.718964e+3, 2.2541052e+2, -747812.8, -838910.7, 1218.811, 0.0022471957, 0.0001816048, -747796.5, -16819.178, 0.0, 10.034876, 9.914975 
7.7189434e+3, 2.3532555e+2, -650124.5, -741209.8, 1170.4042, 0.002248599, -0.00003412183, -650109.44, -16299.45, 0.0, 10.034514, 9.914643 
7.7189225e+3, 2.4523367e+2, -562471.25, -663663.9, 1134.6191, 0.002251951, 0.0001271672, -562458.56, -25748.086, 0.0, 10.034138, 9.901246 
7.7189016e+3, 2.5513503e+2, -464499.72, -565479.9, 1068.4, 0.0022541708, -0.000054829627, -464488.4, -24811.344, 0.0, 10.033746, 9.901143 
7.71888e+3, 2.6502916e+2, -377256.06, -489089.72, 920.9665, 0.002253988, 0.00019588006, -377248.47, -34533.85, 0.0, 10.033322, 9.886764 
7.7188593e+3, 2.7491647e+2, -278835.22, -389995.38, 860.1271, 0.0022523913, -0.0001485485, -278828.56, -33009.66, 0.0, 10.032863, 9.887185 
7.718838e+3, 2.8479618e+2, -192267.14, -315275.8, 628.58, 0.0022550356, 0.00028292518, -192263.94, -43266.035, 0.0, 10.032355, 9.8715315 
7.718816e+3, 2.9466882e+2, -93500.984, -215412.61, 548.6742, 0.0022655653, -0.00020616302, -93498.51, -41252.71, 0.0, 10.031799, 9.872397 
7.718794e+3, 3.0456814e+2, -6954.816, -87129.71, 257.37088, 0.0022469733, 0.00023826913, -6953.9897, -6953.9897, 0.0, 10.031188, 9.925542 
7.7187717e+3, 3.1449535e+2, -7003.235, -85658.76, 122.7043, 0.0022582596, -0.000014426182, -7003.0435, -7003.0435, 0.0, 10.030514, 9.926858 
7.729225e+3, 1.2592927e+2, -1668604.1, -1714432.4, 446.69907, 0.0022223757, 0.00009088143, -1668599.9, 37293.773, 0.0, 10.03988, 9.978974 
7.7292013e+3, 1.3590811e+2, -1572606.4, -1618527.4, 488.10635, 0.0022198388, -0.00007266941, -1572601.1, 35499.88, 0.0, 10.03918, 9.978164 
7.7291775e+3, 1.4588045e+2, -1485483.8, -1539670.9, 925.8874, 0.0022335665, 0.00019477258, -1485467.9, 24904.146, 0.0, 10.03858, 9.966664 
7.7291536e+3, 1.5584707e+2, -1388819.1, -1443038.9, 954.23, 0.0022284708, -0.0000041090143, -1388802.4, 23896.75, 0.0, 10.038062, 9.966114 
7.729131e+3, 1.6580719e+2, -1301451.9, -1364395.8, 1323.6604, 0.0022321048, 0.000077110155, -1301424.0, 13665.948, 0.0, 10.037619, 9.9542465 
7.7291083e+3, 1.757615e+2, -1204313.1, -1267304.5, 1327.627, 0.002236574, -0.000016225458, -1204285.1, 13252.554, 0.0, 10.037244, 9.95382 
7.7290857e+3, 1.8570916e+2, -1116898.0, -1189136.5, 1593.5443, 0.002237989, 0.00013388126, -1116862.9, 3187.721, 0.0, 10.0369, 9.941418 
7.729064e+3, 1.956506e+2, -1019436.9, -1091713.1, 1576.8076, 0.0022431458, -0.0000048074307, -1019402.5, 3221.9653, 0.0, 10.036595, 9.941072 
7.729043e+3, 2.0558538e+2, -931917.8, -1013815.5, 1722.7367, 0.0022433358, 0.000117702926, -931881.56, -6617.8354, 0.0, 10.036299, 9.928268 
7.729021e+3, 2.1551369e+2, -834270.0, -916222.75, 1683.6777, 0.0022477512, -0.00006968707, -834235.44, -6269.1484, 0.0, 10.036018, 9.927926 
7.728999e+3, 2.2543527e+2, -746618.56, -838458.44, 1716.1354, 0.0022499673, 0.00018085644, -746586.5, -15851.817, 0.0, 10.035726, 9.914833 
7.7289784e+3, 2.3535016e+2, -648846.1, -740717.44, 1656.2573, 0.0022508109, -0.000035756668, -648816.3, -15247.504, 0.0, 10.035423, 9.914502 
7.728957e+3, 2.4525812e+2, -561150.2, -663200.2, 1596.5668, 0.0022540402, 0.00012580956, -561125.25, -24654.408, 0.0, 10.035099, 9.901064 
7.7289355e+3, 2.551593e+2, -463121.84, -564990.25, 1517.2943, 0.002256857, -0.0000557218, -463099.25, -23660.035, 0.0, 10.03475, 9.900962 
7.728914e+3, 2.6505324e+2, -375802.94, -488532.06, 1335.3077, 0.0022562456, 0.00019464982, -375787.1, -33308.707, 0.0, 10.034365, 9.886612 
7.7288926e+3, 2.7494043e+2, -277337.13, -389421.78, 1261.4707, 0.002254399, -0.00014823422, -277322.9, -31738.74, 0.0, 10.033942, 9.887032 
7.7288705e+3, 2.8481996e+2, -190752.19, -314740.25, 983.9622, 0.0022587536, 0.00028221423, -190744.39, -41979.516, 0.0, 10.033468, 9.871341 
7.728848e+3, 2.9469243e+2, -91950.84, -214866.14, 890.57465, 0.0022707218, -0.00020778236, -91944.39, -39929.715, 0.0, 10.032943, 9.872206 
7.728826e+3, 3.0459148e+2, -5465.9365, -86762.945, 542.5682, 0.0022472013, 0.00023875313, -5462.3154, -5462.3154, 0.0, 10.032361, 9.925222 
7.7288026e+3, 3.1451836e+2, -5470.2407, -85284.125, 391.1497, 0.002263687, -0.000016031727, -5468.3237, -5468.3237, 0.0, 10.031723, 9.926527 
7.739265e+3, 1.2595469e+2, -1668735.5, -1714344.4, 216.3792, 0.0022232814, 0.00008870279, -1668734.5, 36910.07, 0.0, 10.039723, 9.979111 
7.7392405e+3, 1.3593365e+2, -1572739.1, -1618444.0, 262.63058, 0.002216884, -0.00007552434, -1572737.6, 35113.02, 0.0, 10.039024, 9.978296 
7.739216e+3, 1.459061e+2, -1485641.1, -1539640.8, 766.1517, 0.0022335383, 0.00019428313, -1485630.3, 24490.3, 0.0, 10.038427, 9.966763 
7.7391917e+3, 1.5587284e+2, -1388968.9, -1443009.3, 796.92566, 0.0022291602, -0.0000070541496, -1388957.1, 23489.473, 0.0, 10.037917, 9.966208 
7.7391684e+3, 1.6583303e+2, -1301642.8, -1364449.8, 1218.7343, 0.0022320596, 0.00007475055, -1301619.1, 13217.8, 0.0, 10.037477, 9.954287 
7.739146e+3, 1.7578737e+2, -1204508.9, -1267365.8, 1222.1205, 0.0022362848, -0.00001670772, -1204485.1, 12799.164, 0.0, 10.0371, 9.9538555 
7.739123e+3, 1.8573503e+2, -1117147.3, -1189302.4, 1516.8478, 0.0022376515, 0.00013315403, -1117115.4, 2681.8381, 0.0, 10.0367565, 9.941386 
7.7391005e+3, 1.9567643e+2, -1019680.8, -1091876.6, 1499.3541, 0.0022436522, -0.000007339752, -1019649.7, 2721.6008, 0.0, 10.036454, 9.94104 
7.7390784e+3, 2.0561114e+2, -932213.3, -1014084.4, 1656.1987, 0.0022433721, 0.00011698032, -932179.8, -7168.5947, 0.0, 10.0361595, 9.928167 
7.739057e+3, 2.1553935e+2, -834562.7, -916490.56, 1617.5371, 0.002247085, -0.00006905608, -834530.8, -6816.0547, 0.0, 10.03588, 9.927824 
7.739035e+3, 2.2546081e+2, -746952.44, -838811.56, 1643.2384, 0.0022508923, 0.00018051082, -746923.0, -16438.598, 0.0, 10.035587, 9.914676 
7.7390134e+3, 2.3537555e+2, -649176.2, -741067.5, 1584.1935, 0.0022511266, -0.000036933623, -649148.9, -15828.826, 0.0, 10.035287, 9.914344 
7.738992e+3, 2.4528332e+2, -561507.44, -663610.8, 1507.9672, 0.0022536062, 0.0001260888, -561485.2, -25261.326, 0.0, 10.034964, 9.900866 
7.73897e+3, 2.5518432e+2, -463474.44, -565396.56, 1429.9531, 0.0022581287, -0.00005577071, -463454.38, -24260.174, 0.0, 10.034615, 9.9007635 
7.7389485e+3, 2.650781e+2, -376127.66, -488887.97, 1221.2272, 0.0022564535, 0.00019604487, -376114.4, -33879.27, 0.0, 10.034231, 9.886445 
7.7389264e+3, 2.7496508e+2, -277656.9, -389775.25, 1148.7156, 0.0022526614, -0.00014742733, -277645.16, -32302.568, 0.0, 10.03381, 9.886863 
7.738904e+3, 2.8484443e+2, -191094.1, -315149.6, 831.99615, 0.00225879, 0.0002832921, -191088.52, -42563.41, 0.0, 10.0333395, 9.871133 
7.738881e+3, 2.947167e+2, -92283.56, -215271.84, 738.92944, 0.00227369, -0.00020999637, -92279.125, -40502.137, 0.0, 10.03282, 9.871996 
7.738858e+3, 3.0461547e+2, -5882.164, -87347.16, 346.189, 0.0022431107, 0.00024221503, -5880.693, -5880.693, 0.0, 10.032238, 9.924887 
7.7388346e+3, 3.1454203e+2, -5904.5938, -85895.1, 197.68782, 0.002262286, -0.00001500883, -5904.1055, -5904.1055, 0.0, 10.031595, 9.926175 
7.7493054e+3, 1.2598097e+2, -1668350.1, -1713940.5, 540.5296, 0.0022269126, 0.00008728423, -1668343.8, 37043.15, 0.0, 10.039869, 9.979277 
7.749279e+3, 1.3596012e+2, -1572341.5, -1618038.4, 610.47955, 0.0022190965, -0.00007825153, -1572333.4, 35257.945, 0.0, 10.039182, 9.978459 
7.749254e+3, 1.459327e+2, -1485204.6, -1539264.9, 1212.5826, 0.0022397675, 0.00019388007, -1485177.4, 24682.453, 0.0, 10.038634, 9.966882 
7.74923e+3, 1.5589955e+2, -1388418.5, -1442579.4, 1257.6128, 0.0022309544, -0.00000885912, -1388389.3, 23795.508, 0.0, 10.038199, 9.966323 
7.749206e+3, 1.6585982e+2, -1301014.3, -1364056.3, 1742.6829, 0.0022317246, 0.00007313408, -1300966.1, 13608.085, 0.0, 10.037845, 9.954335 
7.7491826e+3, 1.7581421e+2, -1203737.3, -1266903.1, 1748.3567, 0.002238413, -0.000017543398, -1203688.9, 13332.203, 0.0, 10.037564, 9.9539 
7.74916e+3, 1.8576188e+2, -1116285.0, -1188885.5, 2077.996, 0.0022408983, 0.00013101629, -1116225.5, 3308.4473, 0.0, 10.037322, 9.941353 
7.749138e+3, 1.9570327e+2, -1018659.7, -1091382.9, 2054.4404, 0.002245582, -0.00000909018, -1018601.7, 3506.7483, 0.0, 10.0371275, 9.941004 
7.749115e+3, 2.0563789e+2, -931104.56, -1013635.5, 2211.832, 0.0022451258, 0.00011708638, -931045.3, -6296.2095, 0.0, 10.036931, 9.928056 
7.749093e+3, 2.15566e+2, -833318.3, -915974.2, 2160.1763, 0.0022494039, -0.00006971805, -833261.9, -5808.167, 0.0, 10.036744, 9.927712 
7.749071e+3, 2.254873e+2, -745640.25, -838338.2, 2163.597, 0.0022528076, 0.00017770701, -745589.75, -15364.911, 0.0, 10.036532, 9.914499 
7.749049e+3, 2.3540185e+2, -647763.4, -740547.0, 2087.9463, 0.0022536134, -0.000037269077, -647716.44, -14654.207, 0.0, 10.036303, 9.914167 
7.7490276e+3, 2.4530943e+2, -560042.94, -663113.06, 1974.7012, 0.0022567238, 0.00012632801, -560005.1, -24037.215, 0.0, 10.0360365, 9.90065 
7.7490056e+3, 2.552102e+2, -461947.8, -564872.25, 1877.7758, 0.0022609634, -0.00005783723, -461913.56, -22973.156, 0.0, 10.035735, 9.900548 
7.7489835e+3, 2.651038e+2, -374512.38, -488278.97, 1629.2095, 0.0022585427, 0.00019506054, -374489.06, -32505.785, 0.0, 10.035396, 9.886267 
7.748961e+3, 2.749906e+2, -275994.25, -389148.72, 1542.2145, 0.0022538917, -0.00014638256, -275973.22, -30880.768, 0.0, 10.035013, 9.886683 
7.748938e+3, 2.8486973e+2, -189413.22, -314571.8, 1178.3987, 0.002261797, 0.00028065054, -189402.13, -41125.15, 0.0, 10.034582, 9.870907 
7.7489144e+3, 2.9474175e+2, -90556.266, -214681.92, 1069.6467, 0.0022790628, -0.0002102052, -90547.055, -39015.953, 0.0, 10.034102, 9.871765 
7.748891e+3, 3.046403e+2, -4206.5435, -86927.54, 610.8095, 0.0022427686, 0.00024547812, -4202.033, -4202.033, 0.0, 10.033556, 9.924534 
7.7488667e+3, 3.1456643e+2, -4191.2456, -85474.72, 446.68985, 0.0022679854, -0.000017517486, -4188.791, -4188.791, 0.0, 10.032947, 9.925807 
7.7593446e+3, 1.2600802e+2, -1668469.3, -1713782.9, 314.0279, 0.0022233264, 0.000084722815, -1668467.0, 36654.71, 0.0, 10.039691, 9.979467 
7.7593184e+3, 1.3598736e+2, -1572440.5, -1617872.8, 391.7954, 0.00221776, -0.000081620776, -1572437.1, 34887.27, 0.0, 10.039017, 9.978647 
7.759293e+3, 1.459601e+2, -1485343.6, -1539180.9, 1083.1404, 0.0022430052, 0.00019380335, -1485321.9, 24269.479, 0.0, 10.038473, 9.967017 
7.759268e+3, 1.5592709e+2, -1388563.5, -1442503.6, 1130.7771, 0.0022290589, -0.000010400088, -1388539.8, 23375.125, 0.0, 10.038037, 9.9664545 
7.759244e+3, 1.6588743e+2, -1301221.0, -1364102.6, 1673.3473, 0.002229193, 0.00007208976, -1301176.5, 13126.963, 0.0, 10.037685, 9.95439 
7.75922e+3, 1.7584188e+2, -1203938.3, -1266949.6, 1678.9559, 0.0022383349, -0.000018876375, -1203893.5, 12856.331, 0.0, 10.037409, 9.953951 
7.7591974e+3, 1.8578957e+2, -1116559.0, -1189074.5, 2042.8986, 0.0022419335, 0.00012948908, -1116501.5, 2761.191, 0.0, 10.037168, 9.941313 
7.759175e+3, 1.9573091e+2, -1018936.5, -1091576.6, 2018.898, 0.0022445763, -0.0000103941165, -1018880.44, 2957.102, 0.0, 10.036971, 9.94096 
7.759152e+3, 2.0566545e+2, -931448.3, -1013962.6, 2181.985, 0.0022432127, 0.000117622396, -931390.6, -6911.6235, 0.0, 10.036776, 9.927926 
7.75913e+3, 2.1559341e+2, -833655.44, -916294.94, 2130.2134, 0.0022501256, -0.00006976133, -833600.56, -6415.648, 0.0, 10.03659, 9.927585 
7.759108e+3, 2.2551458e+2, -746027.0, -838765.0, 2119.4126, 0.002251793, 0.00017601601, -745978.56, -16020.941, 0.0, 10.036381, 9.914302 
7.759086e+3, 2.3542893e+2, -648144.06, -740969.75, 2045.7861, 0.0022517405, -0.00003674814, -648099.0, -15302.045, 0.0, 10.036153, 9.913969 
7.759063e+3, 2.453363e+2, -560453.4, -663599.56, 1906.1108, 0.002256955, 0.00012853602, -560418.1, -24713.385, 0.0, 10.035888, 9.900409 
7.759042e+3, 2.552368e+2, -462355.53, -565354.1, 1811.1119, 0.0022610624, -0.00005949122, -462323.72, -23644.045, 0.0, 10.035584, 9.900309 
7.7590185e+3, 2.651302e+2, -374881.78, -488693.53, 1532.0398, 0.0022575958, 0.00019645628, -374861.16, -33136.504, 0.0, 10.035248, 9.886068 
7.758996e+3, 2.7501678e+2, -276350.75, -389556.3, 1441.9656, 0.0022518001, -0.00014439262, -276332.38, -31496.6, 0.0, 10.034872, 9.886484 
7.7589726e+3, 2.848957e+2, -189793.44, -315041.0, 1040.367, 0.002262323, 0.0002811747, -189784.8, -41762.32, 0.0, 10.034445, 9.870665 
7.758949e+3, 2.947675e+2, -90933.055, -215152.1, 938.58844, 0.0022809769, -0.00021118911, -90925.97, -39646.95, 0.0, 10.033967, 9.871518 
7.7589244e+3, 3.046657e+2, -4667.3687, -87575.34, 431.08994, 0.0022378347, 0.00024907727, -4665.1274, -4665.1274, 0.0, 10.03342, 9.924161 
7.7589e+3, 3.145915e+2, -4663.9507, -86146.414, 270.4791, 0.0022675472, -0.000017750855, -4663.0527, -4663.0527, 0.0, 10.03281, 9.925418 
7.7693844e+3, 1.2603596e+2, -1668349.8, -1713446.9, 655.02826, 0.0022329655, 0.0000860967, -1668340.3, 36507.785, 0.0, 10.039637, 9.979697 
7.7693576e+3, 1.360155e+2, -1572252.5, -1617505.4, 761.6742, 0.0022164802, -0.00008426186, -1572239.8, 34808.73, 0.0, 10.039009, 9.978873 
7.7693313e+3, 1.4598846e+2, -1485089.6, -1538854.9, 1569.9373, 0.0022455142, 0.00019518027, -1485043.8, 24269.69, 0.0, 10.038544, 9.967177 
7.7693063e+3, 1.559556e+2, -1388147.9, -1442097.0, 1635.0585, 0.0022340682, -0.000011071082, -1388098.4, 23537.217, 0.0, 10.038213, 9.966611 
7.769282e+3, 1.6591606e+2, -1300687.4, -1363742.0, 2256.047, 0.0022322426, 0.00006917569, -1300606.8, 13416.24, 0.0, 10.037987, 9.9544525 
7.769258e+3, 1.7587057e+2, -1203186.6, -1266481.0, 2262.7993, 0.002239352, -0.000019741767, -1203105.9, 13362.8955, 0.0, 10.037853, 9.954011 
7.769234e+3, 1.8581825e+2, -1115676.5, -1188662.3, 2657.4773, 0.0022443584, 0.00013085117, -1115579.9, 3401.6365, 0.0, 10.037754, 9.941266 
7.769212e+3, 1.9575955e+2, -1017842.56, -1091058.4, 2622.5635, 0.0022466057, -0.000010301145, -1017748.75, 3808.08, 0.0, 10.037698, 9.940912 
7.7691895e+3, 2.0569399e+2, -930240.7, -1013502.9, 2779.225, 0.0022458388, 0.0001145217, -930148.0, -5948.651, 0.0, 10.037629, 9.927779 
7.769167e+3, 2.1562181e+2, -832270.6, -915746.56, 2710.2668, 0.002254133, -0.00006950605, -832182.7, -5276.0396, 0.0, 10.037563, 9.927439 
7.769145e+3, 2.2554277e+2, -744547.94, -838258.44, 2660.7273, 0.002254347, 0.00017769398, -744472.44, -14791.263, 0.0, 10.037457, 9.914081 
7.769123e+3, 2.3545691e+2, -646542.25, -740403.4, 2563.8694, 0.0022531024, -0.000038558705, -646472.25, -13949.596, 0.0, 10.037315, 9.91375 
7.7691e+3, 2.4536403e+2, -558799.7, -663065.3, 2367.2917, 0.0022595646, 0.00012566384, -558745.94, -23313.03, 0.0, 10.037112, 9.900142 
7.7690774e+3, 2.5526428e+2, -460648.06, -564795.44, 2247.3027, 0.0022642768, -0.00006003333, -460599.6, -22189.17, 0.0, 10.03685, 9.9000435 
7.769055e+3, 2.651574e+2, -373097.6, -488065.56, 1921.3177, 0.0022598628, 0.00019641487, -373065.47, -31607.646, 0.0, 10.036553, 9.885834 
7.7690315e+3, 2.750438e+2, -274519.63, -388913.66, 1805.6948, 0.002253536, -0.00014306666, -274491.13, -29919.828, 0.0, 10.036218, 9.886247 
7.7690077e+3, 2.8492245e+2, -187912.02, -314374.3, 1351.4012, 0.0022659234, 0.0002810895, -187897.58, -40137.29, 0.0, 10.035827, 9.87043 
7.768983e+3, 2.94794e+2, -89020.55, -214483.98, 1238.9678, 0.0022871431, -0.00021179878, -89008.31, -37989.09, 0.0, 10.035381, 9.871277 
7.768958e+3, 3.0469188e+2, -2824.823, -87114.91, 668.5549, 0.0022402464, 0.00024484948, -2819.5205, -2819.5205, 0.0, 10.03487, 9.923773 
7.768933e+3, 3.1461728e+2, -2773.4768, -85677.195, 496.6648, 0.0022711577, -0.000015367736, -2770.5015, -2770.5015, 0.0, 10.034299, 9.925016 
7.7794236e+3, 1.2606464e+2, -1668425.1, -1713184.8, 448.2376, 0.0022327933, 0.000085357424, -1668420.6, 36146.34, 0.0, 10.039449, 9.979957 
7.779397e+3, 1.3604444e+2, -1572325.9, -1617247.3, 563.12177, 0.002210396, -0.000088198714, -1572318.9, 34445.953, 0.0, 10.038825, 9.979129 
7.7793694e+3, 1.4601763e+2, -1485222.6, -1538716.6, 1478.3456, 0.00224373, 0.0001974507, -1485181.9, 23845.807, 0.0, 10.038363, 9.967357 
7.7793443e+3, 1.5598494e+2, -1388273.6, -1441958.9, 1548.3793, 0.002233987, -0.00001192435, -1388229.0, 23119.025, 0.0, 10.038039, 9.966787 
7.779319e+3, 1.6594552e+2, -1300901.0, -1363777.0, 2242.3293, 0.00223131, 0.00006600384, -1300821.1, 12913.204, 0.0, 10.037816, 9.954519 
7.779296e+3, 1.759001e+2, -1203406.6, -1266524.0, 2248.561, 0.002237186, -0.000021465728, -1203326.6, 12852.826, 0.0, 10.037681, 9.954073 
7.779272e+3, 1.8584777e+2, -1115996.3, -1188897.5, 2675.9678, 0.002242352, 0.00013223082, -1115898.3, 2793.9612, 0.0, 10.0375805, 9.941207 
7.7792495e+3, 1.9578901e+2, -1018156.6, -1091290.5, 2639.385, 0.0022449633, -0.000009825301, -1018061.5, 3206.5752, 0.0, 10.037526, 9.940852 
7.779227e+3, 2.0572335e+2, -930640.2, -1013905.5, 2795.3542, 0.0022448986, 0.000111048226, -930546.44, -6634.7207, 0.0, 10.037459, 9.927609 
7.779205e+3, 2.1565099e+2, -832666.75, -916146.75, 2726.7947, 0.0022519473, -0.00007081982, -832577.8, -5957.137, 0.0, 10.037394, 9.927268 
7.779182e+3, 2.2557175e+2, -745005.44, -838783.7, 2649.7375, 0.0022523673, 0.00018048892, -744930.6, -15533.375, 0.0, 10.037288, 9.91383 
7.7791595e+3, 2.3548563e+2, -646996.3, -740927.94, 2554.7527, 0.0022514928, -0.000037388632, -646926.9, -14685.647, 0.0, 10.037146, 9.913496 
7.7791375e+3, 2.4539247e+2, -559275.0, -663648.4, 2315.2678, 0.0022588654, 0.00012510858, -559223.7, -24069.525, 0.0, 10.036948, 9.899846 
7.779114e+3, 2.5529245e+2, -461111.16, -565372.75, 2197.8743, 0.002263197, -0.00006042799, -461064.84, -22930.285, 0.0, 10.036692, 9.899745 
7.7790916e+3, 2.6518527e+2, -373530.8, -488591.88, 1841.5238, 0.002259267, 0.00019953876, -373501.34, -32316.592, 0.0, 10.036398, 9.885566 
7.779067e+3, 2.7507138e+2, -274950.3, -389437.22, 1722.161, 0.0022502989, -0.00014433743, -274924.4, -30623.56, 0.0, 10.036061, 9.885979 
7.7790433e+3, 2.849498e+2, -188324.28, -314865.97, 1226.652, 0.0022643534, 0.00028077496, -188312.4, -40820.055, 0.0, 10.035671, 9.870181 
7.779018e+3, 2.9482108e+2, -89426.81, -214979.63, 1124.4344, 0.0022862244, -0.00020927715, -89416.74, -38662.98, 0.0, 10.035231, 9.87102 
7.778994e+3, 3.0471867e+2, -3326.2864, -87820.13, 507.29684, 0.002238183, 0.00024584454, -3323.2407, -3323.2407, 0.0, 10.034722, 9.923367 
7.7789676e+3, 3.1464362e+2, -3279.9482, -86397.234, 339.71152, 0.0022679172, -0.000014712315, -3278.5598, -3278.5598, 0.0, 10.034153, 9.9246 
7.7894634e+3, 1.2609418e+2, -1668644.8, -1712942.4, 799.0511, 0.002236886, 0.00008271361, -1668630.4, 35647.105, 0.0, 10.039144, 9.980264 
7.789435e+3, 1.3607429e+2, -1572442.1, -1616952.0, 950.6002, 0.0022154409, -0.00008894722, -1572421.9, 34050.45, 0.0, 10.038586, 9.979433 
7.789408e+3, 1.4604773e+2, -1485222.3, -1538466.8, 2019.233, 0.002251219, 0.0001996275, -1485145.8, 23586.91, 0.0, 10.038249, 9.967567 
7.7893823e+3, 1.5601526e+2, -1388010.8, -1441573.4, 2109.0564, 0.002234511, -0.000011899182, -1387927.9, 23123.049, 0.0, 10.038092, 9.966995 
7.7893573e+3, 1.6597597e+2, -1300465.1, -1363452.8, 2888.7695, 0.0022300752, 0.00006475455, -1300332.9, 13103.005, 0.0, 10.038049, 9.9545965 
7.7893335e+3, 1.7593063e+2, -1202676.5, -1266051.5, 2895.3655, 0.002240264, -0.000020818363, -1202544.5, 13335.663, 0.0, 10.038105, 9.954145 
7.78931e+3, 1.858783e+2, -1115083.8, -1188495.0, 3354.0566, 0.0022465778, 0.00013160326, -1114930.8, 3462.1924, 0.0, 10.0381975, 9.941137 
7.7892876e+3, 1.9581947e+2, -1016959.44, -1090744.4, 3303.6628, 0.002249052, -0.000008635876, -1016811.8, 4157.758, 0.0, 10.038331, 9.940782 
7.789265e+3, 2.0575367e+2, -929282.3, -1013424.56, 3436.0476, 0.0022475978, 0.00011276559, -929142.25, -5527.733, 0.0, 10.038436, 9.927413 
7.789243e+3, 2.1568112e+2, -831084.44, -915555.06, 3342.966, 0.002252523, -0.00007340923, -830952.4, -4626.918, 0.0, 10.038522, 9.927072 
7.78922e+3, 2.2560164e+2, -743311.0, -838237.4, 3205.67, 0.0022558342, 0.00017857584, -743202.8, -14098.494, 0.0, 10.038537, 9.9135475 
7.789197e+3, 2.3551524e+2, -645161.5, -740314.6, 3081.8904, 0.0022561047, -0.00003535538, -645061.8, -13110.736, 0.0, 10.038493, 9.913214 
7.789175e+3, 2.4542177e+2, -557370.0, -663058.56, 2764.1204, 0.0022618386, 0.00012402509, -557297.75, -22430.71, 0.0, 10.03837, 9.899517 
7.7891517e+3, 2.5532138e+2, -459146.13, -564759.2, 2616.3342, 0.0022659297, -0.000060433587, -459081.38, -21230.668, 0.0, 10.038161, 9.899415 
7.7891284e+3, 2.652139e+2, -371529.44, -487964.88, 2190.247, 0.002261643, 0.00020070303, -371488.25, -30584.166, 0.0, 10.037896, 9.885237 
7.7891046e+3, 2.7509966e+2, -272955.25, -388824.88, 2027.234, 0.0022543913, -0.0001483697, -272919.78, -28896.285, 0.0, 10.037566, 9.885644 
7.7890795e+3, 2.8497782e+2, -186234.31, -314076.78, 1475.7533, 0.0022688895, 0.00027782892, -186217.28, -38999.598, 0.0, 10.037187, 9.869963 
7.7890545e+3, 2.9484892e+2, -87337.3, -214203.89, 1376.4159, 0.0022875075, -0.00019969656, -87322.37, -36841.156, 0.0, 10.036757, 9.870796 
7.789029e+3, 3.0474615e+2, -1351.9789, -87325.18, 713.31104, 0.0022404331, 0.00024641026, -1346.061, -1346.061, 0.0, 10.036276, 9.922952 
7.7890027e+3, 3.1467068e+2, -1250.6465, -85898.83, 533.89624, 0.0022768134, -0.000016795548, -1247.2793, -1247.2793, 0.0, 10.035755, 9.924165 
7.7995026e+3, 1.2612446e+2, -1668679.8, -1712559.0, 617.6851, 0.0022298999, 0.00008182441, -1668671.0, 35309.664, 0.0, 10.038935, 9.980609 
7.7994734e+3, 1.3610493e+2, -1572449.5, -1616555.9, 780.7225, 0.0022154476, -0.0000895946, -1572435.8, 33736.438, 0.0, 10.038395, 9.979777 
7.7994466e+3, 1.4607865e+2, -1485323.8, -1538251.6, 1991.4415, 0.0022529964, 0.00019825296, -1485249.0, 23180.68, 0.0, 10.038061, 9.967799 
7.7994204e+3, 1.560464e+2, -1388120.5, -1441365.9, 2087.5925, 0.0022300705, -0.000012155729, -1388038.9, 22706.822, 0.0, 10.0379, 9.967224 
7.7993953e+3, 1.6600727e+2, -1300700.5, -1363486.9, 2946.2368, 0.0022256155, 0.000064803986, -1300562.6, 12566.53, 0.0, 10.037859, 9.954673 
7.7993715e+3, 1.75962e+2, -1202907.1, -1266086.8, 2954.6362, 0.0022395116, -0.000021569718, -1202769.3, 12803.478, 0.0, 10.03792, 9.954219 
7.799348e+3, 1.8590969e+2, -1115445.4, -1188781.9, 3444.387, 0.0022458697, 0.0001299991, -1115284.0, 2801.5645, 0.0, 10.038012, 9.941053 
7.7993256e+3, 1.9585077e+2, -1017323.8, -1091035.4, 3393.4858, 0.0022476276, -0.000010187605, -1017167.9, 3495.0356, 0.0, 10.038143, 9.940694 
7.799303e+3, 2.0578478e+2, -929754.75, -1013931.4, 3509.2915, 0.0022422173, 0.00011477231, -929608.7, -6299.2783, 0.0, 10.038249, 9.927187 
7.799281e+3, 2.1571203e+2, -831551.7, -916059.1, 3414.6797, 0.0022492094, -0.00007446271, -831413.94, -5391.349, 0.0, 10.038336, 9.926844 
7.799258e+3, 2.2563227e+2, -743848.4, -838885.25, 3230.504, 0.0022567392, 0.00017913789, -743738.7, -14934.487, 0.0, 10.038351, 9.913225 
7.7992356e+3, 2.3554555e+2, -645695.56, -740958.5, 3107.7568, 0.0022528118, -0.000033675075, -645594.25, -13940.203, 0.0, 10.038306, 9.912891 
7.799213e+3, 2.4545173e+2, -557933.25, -663771.1, 2726.3044, 0.0022585639, 0.00012194076, -557863.06, -23289.645, 0.0, 10.038185, 9.899148 
7.7991897e+3, 2.5535098e+2, -459699.0, -565465.44, 2582.789, 0.0022637004, -0.00006039894, -459635.97, -22075.229, 0.0, 10.037981, 9.899045 
7.799166e+3, 2.6524314e+2, -372076.63, -488675.53, 2114.3489, 0.0022591064, 0.00020390048, -372038.3, -31420.557, 0.0, 10.03772, 9.884858 
7.7991414e+3, 2.751285e+2, -273492.1, -389531.7, 1956.6477, 0.0022528158, -0.00015193189, -273459.13, -29718.17, 0.0, 10.037395, 9.8852625 
7.799117e+3, 2.8500634e+2, -186652.6, -314548.78, 1369.0414, 0.0022698012, 0.00028253085, -186637.94, -39699.883, 0.0, 10.037017, 9.869734 
7.7990913e+3, 2.948772e+2, -87749.164, -214669.0, 1270.4921, 0.0022818001, -0.00019529002, -87736.45, -37532.63, 0.0, 10.036589, 9.870568 
7.799065e+3, 3.0477414e+2, -1894.7656, -88077.15, 568.39813, 0.0022377695, 0.0002368317, -1891.017, -1891.017, 0.0, 10.036111, 9.922522 
7.799038e+3, 3.1469822e+2, -1793.7688, -86674.05, 397.72977, 0.0022729114, -0.000012215191, -1791.9052, -1791.9052, 0.0, 10.0356, 9.923714 
7.809541e+3, 1.2615556e+2, -1669385.0, -1712463.0, 978.04034, 0.002242357, 0.00008752915, -1669362.9, 34313.188, 0.0, 10.038275, 9.981014 
7.8095114e+3, 1.3613641e+2, -1572941.8, -1616343.3, 1185.4087, 0.0022111672, -0.00008917345, -1572909.4, 32954.2, 0.0, 10.037867, 9.980184 
7.809484e+3, 1.4611048e+2, -1485633.9, -1538098.4, 2584.1453, 0.0022564447, 0.0001986586, -1485506.9, 22610.844, 0.0, 10.037721, 9.96807 
7.809458e+3, 1.5607849e+2, -1388064.6, -1441023.0, 2706.685, 0.002239039, -0.0000102361055, -1387926.6, 22504.45, 0.0, 10.037792, 9.96749 
7.8094333e+3, 1.6603954e+2, -1300397.3, -1363216.1, 3667.1873, 0.002230558, 0.00006521869, -1300184.0, 12628.931, 0.0, 10.038002, 9.954764 
7.8094095e+3, 1.7599437e+2, -1202188.9, -1265602.4, 3677.8901, 0.0022403477, -0.00001820971, -1201976.3, 13279.257, 0.0, 10.038329, 9.954307 
7.809387e+3, 1.8594204e+2, -1114475.6, -1188383.0, 4190.3857, 0.0022494823, 0.00013280936, -1114238.8, 3529.6555, 0.0, 10.038681, 9.940955 
7.809364e+3, 1.9588302e+2, -1015978.6, -1090451.1, 4123.7964, 0.0022498295, -0.0000110945875, -1015750.94, 4595.839, 0.0, 10.039062, 9.94059 
7.8093415e+3, 2.0581686e+2, -928204.94, -1013425.8, 4196.9063, 0.0022460874, 0.000113515394, -927998.75, -5003.638, 0.0, 10.039384, 9.926927 
7.80932e+3, 2.1574384e+2, -829712.3, -915409.5, 4073.1863, 0.0022558402, -0.00007300608, -829519.2, -3808.3513, 0.0, 10.039665, 9.926582 
7.8092974e+3, 2.2566375e+2, -741861.3, -838293.9, 3795.5579, 0.0022612468, 0.00018184826, -741712.1, -13216.614, 0.0, 10.039839, 9.912852 
7.809275e+3, 2.3557666e+2, -643546.0, -740293.7, 3635.0986, 0.0022561124, -0.00003210842, -643409.6, -12060.541, 0.0, 10.03991, 9.912516 
7.809252e+3, 2.4548246e+2, -555698.1, -663101.4, 3144.9502, 0.002261116, 0.00011855826, -555606.1, -21333.842, 0.0, 10.039865, 9.898744 
7.8092283e+3, 2.5538132e+2, -457428.63, -564796.2, 2959.007, 0.002268221, -0.000064391774, -457347.16, -20083.475, 0.0, 10.039697, 9.89863 
7.8092045e+3, 2.6527303e+2, -369797.75, -487990.44, 2399.1155, 0.0022630007, 0.00020405481, -369749.1, -29424.44, 0.0, 10.039439, 9.884459 
7.80918e+3, 2.7515802e+2, -271265.72, -388879.1, 2209.9587, 0.002255046, -0.00014749293, -271224.22, -27772.453, 0.0, 10.039087, 9.884864 
7.809155e+3, 2.8503555e+2, -184363.5, -313689.03, 1564.2113, 0.0022722753, 0.0002824079, -184344.58, -37692.58, 0.0, 10.038679, 9.869492 
7.809129e+3, 2.9490614e+2, -85545.92, -213870.69, 1446.9063, 0.002288717, -0.00019971255, -85529.61, -35609.332, 0.0, 10.038207, 9.8703165 
7.809102e+3, 3.0480275e+2, 164.07008, -87564.93, 713.4606, 0.0022474965, 0.00022980798, 169.87195, 169.87195, 0.0, 10.037734, 9.922087 
7.8090745e+3, 3.1472638e+2, 335.39636, -86132.03, 540.4541, 0.0022761934, -0.000009098733, 338.77426, 338.77426, 0.0, 10.037272, 9.923275 
7.819579e+3, 1.2618734e+2, -1669347.3, -1711915.8, 848.4447, 0.0022410941, 0.00008594164, -1669330.4, 34034.145, 0.0, 10.0380535, 9.981468 
7.8195494e+3, 1.3616866e+2, -1572886.6, -1615784.4, 1069.1063, 0.002198793, -0.000090069996, -1572860.0, 32687.543, 0.0, 10.037656, 9.980639 
7.8195214e+3, 1.461431e+2, -1485714.9, -1537795.8, 2642.2878, 0.0022551988, 0.00020134349, -1485581.1, 22216.936, 0.0, 10.037512, 9.968368 
7.819496e+3, 1.5611142e+2, -1388145.0, -1440725.1, 2773.6729, 0.0022372312, -0.000009305311, -1387999.1, 22109.406, 0.0, 10.037586, 9.967784 
7.8194714e+3, 1.6607265e+2, -1300643.3, -1363239.0, 3828.3835, 0.0022265736, 0.000062838786, -1300410.0, 12078.441, 0.0, 10.037799, 9.954856 
7.8194475e+3, 1.7602757e+2, -1202436.4, -1265629.0, 3840.4531, 0.0022376275, -0.000018249224, -1202203.9, 12726.26, 0.0, 10.038126, 9.954395 
7.8194255e+3, 1.8597522e+2, -1114892.8, -1188735.9, 4375.768, 0.0022473158, 0.00013383623, -1114634.4, 2808.8079, 0.0, 10.038477, 9.94084 
7.8194034e+3, 1.9591609e+2, -1016392.1, -1090809.1, 4305.886, 0.0022427053, -0.000012489301, -1016143.8, 3878.9084, 0.0, 10.038861, 9.940467 
7.8193814e+3, 2.0584972e+2, -928753.56, -1014053.44, 4343.676, 0.0022464793, 0.00011435213, -928532.94, -5859.8174, 0.0, 10.039184, 9.92663 
7.8193593e+3, 2.157764e+2, -830261.06, -916037.44, 4217.057, 0.0022539548, -0.000073491414, -830054.25, -4662.4927, 0.0, 10.039463, 9.926284 
7.819337e+3, 2.2569595e+2, -742506.6, -839113.4, 3859.9307, 0.0022535054, 0.00017964732, -742352.6, -14172.588, 0.0, 10.039634, 9.912431 
7.819315e+3, 2.3560844e+2, -644180.2, -741097.0, 3701.4895, 0.0022538088, -0.00002952038, -644039.0, -13001.326, 0.0, 10.039705, 9.9121 
7.819292e+3, 2.455138e+2, -556371.6, -663986.25, 3121.2485, 0.0022603404, 0.00011963428, -556281.2, -22315.98, 0.0, 10.039658, 9.898274 
7.819268e+3, 2.5541216e+2, -458098.53, -565675.7, 2936.9775, 0.0022636615, -0.000069873015, -458018.4, -21057.182, 0.0, 10.039488, 9.898161 
7.819244e+3, 2.6530343e+2, -370445.4, -488833.5, 2310.3884, 0.0022636368, 0.00020936813, -370400.3, -30373.67, 0.0, 10.039231, 9.88401 
7.819219e+3, 2.75188e+2, -271901.97, -389703.8, 2127.6997, 0.0022495512, -0.0001442067, -271863.56, -28705.45, 0.0, 10.038878, 9.884423 
7.8191936e+3, 2.8506514e+2, -184850.13, -314232.5, 1441.8304, 0.0022655714, 0.00027452843, -184834.06, -38472.22, 0.0, 10.038479, 9.869229 
7.819167e+3, 2.949355e+2, -85999.49, -214406.03, 1331.2146, 0.0022833429, -0.00020234578, -85985.69, -36352.99, 0.0, 10.038031, 9.870045 
7.8191394e+3, 3.048317e+2, -392.75336, -88355.82, 597.7493, 0.0022485938, 0.00024463746, -388.69156, -388.69156, 0.0, 10.037573, 9.921629 
7.819112e+3, 3.147549e+2, -210.17867, -86904.53, 427.23254, 0.0022665218, -0.0000202548, -208.0733, -208.0733, 0.0, 10.037113, 9.922828 
7.8296167e+3, 1.2621981e+2, -1670675.1, -1712004.6, 1197.4146, 0.0022519196, 0.00008219923, -1670640.4, 32405.926, 0.0, 10.03694, 9.982003 
7.829586e+3, 1.3620166e+2, -1573890.1, -1615696.0, 1475.7042, 0.0022051698, -0.00008858217, -1573838.1, 31386.057, 0.0, 10.036741, 9.981175 
7.829559e+3, 1.4617655e+2, -1486435.9, -1537774.1, 3285.338, 0.0022653684, 0.00020867979, -1486226.5, 21243.795, 0.0, 10.036875, 9.968713 
7.829533e+3, 1.5614522e+2, -1388331.9, -1440415.3, 3446.9492, 0.002238291, -0.000004423965, -1388104.8, 21672.58, 0.0, 10.037282, 9.968133 
7.829509e+3, 1.6610667e+2, -1300480.3, -1363015.1, 4617.8994, 0.0022238703, 0.000058069927, -1300141.0, 12013.997, 0.0, 10.037841, 9.954971 
7.829486e+3, 1.7606172e+2, -1201738.4, -1265133.0, 4637.624, 0.00223977, -0.000018260427, -1201400.9, 13194.749, 0.0, 10.038513, 9.954504 
7.829464e+3, 1.8600935e+2, -1113859.0, -1188338.4, 5194.246, 0.0022563203, 0.00013882961, -1113498.5, 3610.2646, 0.0, 10.039205, 9.940713 
7.8294426e+3, 1.9595009e+2, -1014863.56, -1090163.4, 5111.3433, 0.0022509864, -0.000009266442, -1014518.2, 5171.3794, 0.0, 10.039914, 9.940334 
7.829421e+3, 2.0588347e+2, -926948.4, -1013506.94, 5083.414, 0.0022522837, 0.00011440116, -926650.9, -4308.5435, 0.0, 10.040526, 9.926291 
7.8294e+3, 2.1580979e+2, -828083.06, -915306.44, 4927.1113, 0.0022575336, -0.00007053797, -827805.6, -2741.3406, 0.0, 10.041056, 9.925943 
7.8293777e+3, 2.2572896e+2, -740137.25, -838442.2, 4441.389, 0.002256618, 0.00017819404, -739937.0, -12080.414, 0.0, 10.041424, 9.911957 
7.8293556e+3, 2.3564096e+2, -641605.1, -740318.56, 4239.907, 0.0022574693, -0.000038348135, -641423.3, -10704.412, 0.0, 10.041635, 9.911634 
7.8293324e+3, 2.4554583e+2, -553735.94, -663257.2, 3500.4026, 0.0022663882, 0.0001229205, -553624.1, -19972.896, 0.0, 10.041665, 9.897745 
7.8293085e+3, 2.554437e+2, -455440.72, -564935.7, 3270.2566, 0.0022684992, -0.00005718959, -455343.13, -18690.766, 0.0, 10.041516, 9.897638 
7.829284e+3, 2.6533443e+2, -367811.03, -488051.56, 2517.5261, 0.002265589, 0.00020261623, -367758.34, -28035.557, 0.0, 10.041224, 9.88354 
7.829259e+3, 2.7521852e+2, -269435.72, -389022.22, 2289.865, 0.00226082, -0.00015518664, -269391.9, -26532.943, 0.0, 10.0407715, 9.883946 
7.829233e+3, 2.8509533e+2, -182366.58, -313307.7, 1543.4071, 0.0022761063, 0.0002805258, -182348.39, -36282.17, 0.0, 10.040286, 9.868959 
7.8292054e+3, 2.949654e+2, -83664.85, -213558.1, 1414.1962, 0.0022813906, -0.00019051188, -83649.45, -34309.805, 0.0, 10.039744, 9.86978 
7.829178e+3, 3.0486125e+2, 1707.4481, -87846.91, 688.15436, 0.0022541387, 0.00024166974, 1712.7357, 1712.7357, 0.0, 10.039234, 9.921174 
7.82915e+3, 3.14784e+2, 1874.1127, -86408.625, 517.8441, 0.002283699, -0.000010001967, 1877.1501, 1877.1501, 0.0, 10.038766, 9.922369 
7.8396535e+3, 1.2625289e+2, -1670540.5, -1711238.8, 1148.5668, 0.0022361444, 0.00008543324, -1670508.1, 32213.986, 0.0, 10.036702, 9.9826 
7.839623e+3, 1.3623534e+2, -1573727.4, -1614920.6, 1443.6332, 0.002202736, -0.000090686655, -1573676.9, 31217.203, 0.0, 10.036525, 9.98177 
7.8395957e+3, 1.4621072e+2, -1486459.9, -1537349.8, 3470.6074, 0.0022662466, 0.00020876304, -1486224.3, 20911.19, 0.0, 10.03666, 9.9690895 
7.83957e+3, 1.5617977e+2, -1388364.9, -1439992.1, 3645.3608, 0.0022342836, -0.0000012031082, -1388108.8, 21330.008, 0.0, 10.037061, 9.968513 
7.839547e+3, 1.6614147e+2, -1300731.5, -1363004.4, 4911.989, 0.0022155484, 0.000054699663, -1300346.4, 11467.635, 0.0, 10.037619, 9.955094 
7.839525e+3, 1.7609663e+2, -1201989.6, -1265135.1, 4935.4463, 0.002235585, -0.000022955526, -1201606.1, 12647.221, 0.0, 10.038297, 9.954616 
7.839503e+3, 1.8604426e+2, -1114314.1, -1188738.0, 5506.399, 0.0022591162, 0.00014426817, -1113908.9, 2857.7659, 0.0, 10.038988, 9.940574 
7.8394824e+3, 1.9598486e+2, -1015318.56, -1090568.8, 5419.885, 0.0022492034, -0.000008384762, -1014930.2, 4418.666, 0.0, 10.039699, 9.940189 
7.8394616e+3, 2.0591797e+2, -927577.75, -1014267.44, 5323.2437, 0.0022428664, 0.00010787407, -927252.1, -5247.8135, 0.0, 10.040316, 9.925917 
7.839441e+3, 2.1584393e+2, -828700.7, -916058.6, 5164.2153, 0.0022534512, -0.00006723968, -828396.44, -3666.5847, 0.0, 10.040849, 9.925568 
7.839419e+3, 2.2576264e+2, -740883.0, -839440.56, 4556.077, 0.0022585753, 0.00018079461, -740672.8, -13146.227, 0.0, 10.04121, 9.911425 
7.839397e+3, 2.3567408e+2, -642369.2, -741333.4, 4349.7705, 0.0022499599, -0.000054109696, -642178.4, -11784.072, 0.0, 10.0414095, 9.911093 
7.839374e+3, 2.4557841e+2, -554539.56, -664336.06, 3473.5325, 0.0022652382, 0.0001260694, -554429.75, -21097.799, 0.0, 10.041429, 9.897165 
7.83935e+3, 2.5547567e+2, -456254.06, -566022.2, 3248.4895, 0.0022653022, -0.00004027628, -456158.03, -19819.271, 0.0, 10.04127, 9.897053 
7.839325e+3, 2.6536587e+2, -368574.28, -489037.84, 2387.9941, 0.0022557834, 0.00018612428, -368526.97, -29112.152, 0.0, 10.040975, 9.8830185 
7.8393e+3, 2.7524942e+2, -270197.03, -390014.2, 2165.1956, 0.0022587324, -0.00017340918, -270157.9, -27601.695, 0.0, 10.040523, 9.883415 
7.839273e+3, 2.8512582e+2, -182936.33, -313943.97, 1394.0087, 0.0022774555, 0.00030515922, -182921.5, -37154.176, 0.0, 10.040051, 9.868652 
7.839246e+3, 2.9499558e+2, -84177.234, -214144.42, 1265.6785, 0.0022667837, -0.00018220316, -84164.91, -35121.22, 0.0, 10.039538, 9.869489 
7.839217e+3, 3.0489105e+2, 1133.3342, -88635.164, 567.3034, 0.0022510341, 0.00021051987, 1136.9193, 1136.9193, 0.0, 10.039057, 9.920726 
7.8391886e+3, 3.1481338e+2, 1340.0321, -87178.89, 411.7705, 0.0022737312, 0.0000142327945, 1341.9475, 1341.9475, 0.0, 10.038617, 9.921919 
7.84969e+3, 1.2628646e+2, -1672711.0, -1711604.3, 1451.2147, 0.0022505708, 0.0000981533, -1672656.9, 29736.125, 0.0, 10.034986, 9.983288 
7.8496593e+3, 1.3626961e+2, -1575364.3, -1614990.1, 1819.1624, 0.0021997886, -0.00008379436, -1575280.9, 29277.465, 0.0, 10.035132, 9.982462 
7.849632e+3, 1.4624554e+2, -1487666.8, -1537471.4, 4126.898, 0.0022705954, 0.00020749943, -1487327.1, 19466.988, 0.0, 10.035666, 9.969536 
7.849607e+3, 1.5621504e+2, -1388883.8, -1439751.9, 4349.3193, 0.0022483498, 0.0000072711337, -1388514.6, 20578.406, 0.0, 10.0365, 9.968954 
7.849584e+3, 1.6617706e+2, -1300776.6, -1362833.3, 5746.694, 0.0022265862, 0.000065990374, -1300249.0, 11216.314, 0.0, 10.037504, 9.95526 
7.849563e+3, 1.7613238e+2, -1201335.4, -1264611.4, 5794.423, 0.002240107, -0.00001637295, -1200809.1, 13093.926, 0.0, 10.038634, 9.954769 
7.8495425e+3, 1.8608002e+2, -1113210.8, -1188313.3, 6385.6343, 0.0022633001, 0.00014823681, -1112671.8, 3744.622, 0.0, 10.039765, 9.94044 
7.849523e+3, 1.9602047e+2, -1013592.5, -1089834.8, 6303.1304, 0.00225181, -0.0000046583245, -1013074.9, 5925.0024, 0.0, 10.040886, 9.940045 
7.8495026e+3, 2.0595331e+2, -925489.25, -1013646.06, 6126.9604, 0.0022466378, 0.000106437925, -925065.5, -3407.4346, 0.0, 10.041874, 9.925517 
7.849482e+3, 2.1587886e+2, -826116.8, -915191.25, 5948.7354, 0.0022592782, -0.00007033578, -825721.25, -1333.7185, 0.0, 10.042739, 9.925165 
7.8494614e+3, 2.2579706e+2, -738061.94, -838677.44, 5165.849, 0.0022706243, 0.00018721647, -737797.4, -10608.25, 0.0, 10.043358, 9.9108305 
7.8494394e+3, 2.3570794e+2, -639269.6, -740450.56, 4920.8774, 0.0022627432, -0.000040637045, -639030.9, -8968.267, 0.0, 10.0437565, 9.910487 
7.849417e+3, 2.4561164e+2, -551325.3, -663433.75, 3830.5059, 0.0022685407, 0.00012913474, -551194.6, -18188.17, 0.0, 10.043871, 9.896533 
7.849392e+3, 2.5550824e+2, -453093.84, -565176.4, 3543.3433, 0.0022698615, -0.000051984192, -452981.94, -16962.244, 0.0, 10.043698, 9.896402 
7.849367e+3, 2.6539782e+2, -365491.78, -488140.78, 2493.416, 0.0022620352, 0.00017895058, -365441.13, -26339.492, 0.0, 10.043314, 9.882454 
7.849341e+3, 2.752808e+2, -267399.4, -389269.4, 2219.2974, 0.0022617283, -0.00016397383, -267359.0, -25110.436, 0.0, 10.042683, 9.88285 
7.849314e+3, 2.8515676e+2, -180244.39, -312950.63, 1398.0414, 0.0022756122, 0.00029670942, -180229.66, -34765.586, 0.0, 10.042014, 9.868353 
7.8492856e+3, 2.9502624e+2, -81831.99, -213332.64, 1252.0515, 0.0022755181, -0.00018973276, -81820.07, -33076.777, 0.0, 10.041277, 9.869186 
7.8492576e+3, 3.0492133e+2, 3154.8333, -88124.81, 604.9762, 0.0022720166, 0.00020836446, 3158.8425, 3158.8425, 0.0, 10.040648, 9.920306 
7.849228e+3, 3.1484324e+2, 3290.9019, -86681.664, 458.2258, 0.0022785827, -0.000030773677, 3293.2356, 3293.2356, 0.0, 10.04015, 9.921518 
7.859724e+3, 1.2632045e+2, -1672472.9, -1710586.0, 1527.9406, 0.002237662, 0.00008857728, -1672411.8, 29648.277, 0.0, 10.034722, 9.984055 
7.859694e+3, 1.3630435e+2, -1575084.1, -1613943.3, 1923.6426, 0.0021855617, -0.00007872138, -1574989.1, 29228.652, 0.0, 10.034895, 9.983235 
7.8596675e+3, 1.4628093e+2, -1487636.3, -1536881.5, 4477.8315, 0.002267569, 0.00020508573, -1487232.5, 19214.912, 0.0, 10.035425, 9.970031 
7.8596437e+3, 1.5625092e+2, -1388862.6, -1439179.4, 4716.49, 0.0022401307, 0.0000038878106, -1388424.4, 20317.002, 0.0, 10.03626, 9.9694395 
7.8596216e+3, 1.6621329e+2, -1301003.1, -1362731.8, 6219.419, 0.0022210502, 0.00007091024, -1300382.8, 10727.581, 0.0, 10.037263, 9.955452 
7.8596014e+3, 1.761688e+2, -1201563.0, -1264524.3, 6272.737, 0.002240019, -0.000014017109, -1200944.3, 12602.057, 0.0, 10.038399, 9.954949 
7.8595823e+3, 1.8611644e+2, -1113678.6, -1188704.4, 6858.521, 0.0022593013, 0.00014331413, -1113056.8, 3002.598, 0.0, 10.0395355, 9.940315 
7.859563e+3, 1.9605677e+2, -1014043.94, -1090224.8, 6772.0737, 0.002244126, -0.000005057687, -1013446.6, 5197.523, 0.0, 10.0406685, 9.939913 
7.859544e+3, 2.0598932e+2, -926160.7, -1014479.9, 6497.0347, 0.0022501685, 0.00011114153, -925685.25, -4380.2583, 0.0, 10.04166, 9.925098 
7.8595257e+3, 2.1591446e+2, -826793.3, -916036.9, 6307.873, 0.002255264, -0.0000790298, -826349.7, -2310.9368, 0.0, 10.042523, 9.924736 
7.859505e+3, 2.2583212e+2, -738907.75, -839854.8, 5347.8633, 0.0022663553, 0.00018421626, -738625.2, -11779.615, 0.0, 10.043137, 9.910189 
7.8594834e+3, 2.3574238e+2, -640117.6, -741622.9, 5100.1396, 0.0022626857, -0.00003275985, -639862.0, -10136.771, 0.0, 10.043527, 9.909846 
7.859461e+3, 2.4564536e+2, -552265.25, -664754.94, 3788.0063, 0.002256618, 0.000120773795, -552137.9, -19461.998, 0.0, 10.04362, 9.895803 
7.859436e+3, 2.555412e+2, -454068.0, -566515.8, 3494.6196, 0.0022606743, -0.00007251048, -453959.5, -18263.086, 0.0, 10.04342, 9.895668 
7.8594106e+3, 2.6543015e+2, -366418.7, -489339.53, 2278.762, 0.0022685423, 0.00019106365, -366376.47, -27591.658, 0.0, 10.043012, 9.88182 
7.859384e+3, 2.753125e+2, -268350.22, -390471.94, 2012.1593, 0.002252398, -0.00014015748, -268317.06, -26379.17, 0.0, 10.0423565, 9.882218 
7.859356e+3, 2.8518796e+2, -180934.05, -313662.28, 1160.0801, 0.0022586896, 0.0002708682, -180923.9, -35765.41, 0.0, 10.041705, 9.868032 
7.859327e+3, 2.9505712e+2, -82432.195, -213986.78, 1012.96674, 0.0022672955, -0.00020524111, -82424.39, -33983.77, 0.0, 10.04102, 9.868875 
7.859298e+3, 3.0495188e+2, 2570.8838, -88900.14, 461.68475, 0.0022767421, 0.00025089475, 2573.214, 2573.214, 0.0, 10.040456, 9.919874 
7.859268e+3, 3.1487328e+2, 2827.6726, -87353.42, 334.66318, 0.0022588694, -0.00010266626, 2828.9146, 2828.9146, 0.0, 10.040022, 9.921125 
7.869758e+3, 1.2635456e+2, -1675646.1, -1711255.4, 1723.4794, 0.0022706506, 0.00008753986, -1675563.0, 26162.895, 0.0, 10.032278, 9.984949 
7.869728e+3, 1.3633935e+2, -1577492.4, -1614192.0, 2200.0842, 0.002195416, -0.00006627505, -1577361.0, 26513.818, 0.0, 10.032917, 9.984133 
7.869702e+3, 1.4631666e+2, -1489445.4, -1537170.1, 5071.3066, 0.0022762143, 0.000214358, -1488912.4, 17184.746, 0.0, 10.033986, 9.9706135 
7.8696793e+3, 1.5628725e+2, -1389770.5, -1438991.1, 5365.428, 0.0022402713, 0.0000044045355, -1389192.4, 19193.117, 0.0, 10.035383, 9.970017 
7.8696585e+3, 1.6625e+2, -1301299.6, -1362578.8, 7024.217, 0.0022191925, 0.000061474515, -1300504.8, 10245.716, 0.0, 10.036938, 9.95572 
7.86964e+3, 1.762058e+2, -1201033.9, -1263948.6, 7128.872, 0.0022431025, -0.000011670646, -1200236.3, 12947.513, 0.0, 10.038604, 9.955207 
7.869622e+3, 1.8615352e+2, -1112593.3, -1188214.8, 7763.415, 0.0022717363, 0.00014157325, -1111804.5, 3891.4753, 0.0, 10.040269, 9.940248 
7.869605e+3, 1.9609378e+2, -1012179.44, -1089344.6, 7722.8306, 0.0022627073, -0.000006056136, -1011414.1, 6867.3364, 0.0, 10.041913, 9.939835 
7.869587e+3, 2.0602609e+2, -923819.6, -1013738.6, 7373.229, 0.0022629185, 0.00011458674, -923219.06, -2274.3362, 0.0, 10.043388, 9.924689 
7.869569e+3, 2.1595082e+2, -823777.75, -914962.0, 7201.033, 0.0022636813, -0.000067989145, -823212.6, 469.82092, 0.0, 10.044703, 9.92432 
7.8695494e+3, 2.2586793e+2, -735547.3, -838915.5, 6039.7017, 0.0022653223, 0.00018379804, -735195.6, -8700.883, 0.0, 10.045683, 9.909508 
7.8695285e+3, 2.3577747e+2, -636359.75, -740491.06, 5763.1846, 0.0022627686, -0.00006285237, -636041.75, -6660.483, 0.0, 10.046348, 9.909164 
7.869505e+3, 2.4567972e+2, -548397.06, -663728.6, 4145.7866, 0.0022642892, 0.000111440866, -548248.25, -15909.141, 0.0, 10.046588, 9.89499 
7.869481e+3, 2.555748e+2, -450194.94, -565489.3, 3801.5188, 0.0022711488, -0.000044042627, -450069.72, -14702.353, 0.0, 10.046401, 9.894863 
7.869455e+3, 2.65463e+2, -362693.72, -488231.25, 2308.172, 0.0022814388, 0.00019300713, -362651.28, -24188.154, 0.0, 10.045828, 9.881157 
7.869427e+3, 2.7534464e+2, -265131.7, -389634.16, 1990.0826, 0.0022796034, -0.00015223624, -265099.88, -23477.043, 0.0, 10.044849, 9.88155 
7.8693986e+3, 2.8521958e+2, -178008.94, -312638.4, 1081.8838, 0.0022765829, 0.0002743043, -178000.25, -33151.797, 0.0, 10.043861, 9.86766 
7.869369e+3, 2.9508838e+2, -80111.49, -213253.61, 870.0518, 0.0022619674, -0.00022332132, -80105.81, -31971.479, 0.0, 10.042769, 9.868517 
7.869339e+3, 3.049828e+2, 4420.4575, -88337.75, 455.73093, 0.002285348, 0.00026175054, 4422.6963, 4422.6963, 0.0, 10.041869, 9.919575 
7.8693086e+3, 3.149041e+2, 4371.5854, -86900.336, 406.5048, 0.0022895378, 0.00007593344, 4373.396, 4373.396, 0.0, 10.041207, 9.92086 
7.87979e+3, 1.2638874e+2, -1675241.4, -1709906.1, 1996.9456, 0.0022454807, 0.00008823061, -1675126.6, 26264.21, 0.0, 10.032008, 9.985925 
7.879761e+3, 1.3637452e+2, -1577056.6, -1612831.5, 2505.6196, 0.0021894376, -0.00006744567, -1576882.0, 26648.379, 0.0, 10.032671, 9.985106 
7.879736e+3, 1.4635262e+2, -1489306.4, -1536349.6, 5646.4746, 0.0022740595, 0.0002048282, -1488638.1, 17106.775, 0.0, 10.033733, 9.971258 
7.879715e+3, 1.5632384e+2, -1389654.3, -1438187.0, 5956.3286, 0.00223933, 0.000002971768, -1388933.9, 19092.953, 0.0, 10.035121, 9.97066 
7.879696e+3, 1.6628708e+2, -1301456.0, -1362280.3, 7710.2607, 0.002211791, 0.00005086098, -1300493.9, 9893.252, 0.0, 10.03667, 9.956052 
7.8796786e+3, 1.762432e+2, -1201180.0, -1263651.9, 7821.3623, 0.002236878, -0.000011528402, -1200215.6, 12601.462, 0.0, 10.038345, 9.955532 
7.8796625e+3, 1.8619108e+2, -1112984.4, -1188422.0, 8442.706, 0.0022770597, 0.00014067456, -1112051.1, 3276.7822, 0.0, 10.040025, 9.940248 
7.879647e+3, 1.9613133e+2, -1012563.8, -1089568.8, 8396.446, 0.002268172, -0.000012901328, -1011658.94, 6254.4526, 0.0, 10.041681, 9.939816 
7.8796303e+3, 2.0606345e+2, -924464.3, -1014507.44, 7919.4805, 0.0022538595, 0.00010825256, -923773.1, -3194.4202, 0.0, 10.04317, 9.924315 
7.879613e+3, 2.1598779e+2, -824402.7, -915724.1, 7740.703, 0.002258885, -0.00006883367, -823751.2, -431.21057, 0.0, 10.044496, 9.923941 
7.8795946e+3, 2.2590435e+2, -736431.6, -840198.8, 6329.114, 0.0022626866, 0.00017864273, -736047.06, -9909.287, 0.0, 10.045474, 9.908792 
7.879575e+3, 2.3581316e+2, -637247.8, -741780.3, 6040.0103, 0.0022596524, -0.00009199095, -636899.94, -7868.5313, 0.0, 10.046134, 9.908441 
7.879552e+3, 2.4571463e+2, -549439.6, -665280.44, 4089.3025, 0.002268298, 0.000105471925, -549295.5, -17298.463, 0.0, 10.046347, 9.894107 
7.879527e+3, 2.5560883e+2, -451270.25, -567049.25, 3728.209, 0.0022590286, -0.000021858961, -451150.3, -16116.524, 0.0, 10.046129, 9.893982 
7.879501e+3, 2.654962e+2, -363740.4, -489620.16, 1916.6074, 0.002263235, 0.00017207986, -363711.22, -25573.406, 0.0, 10.0455, 9.880409 
7.8794724e+3, 2.7537706e+2, -266297.28, -391077.06, 1578.0925, 0.00227462, -0.00018739124, -266277.34, -24972.469, 0.0, 10.044435, 9.880802 
7.8794426e+3, 2.852515e+2, -179001.67, -313628.34, 645.2114, 0.0022670256, 0.0003073487, -178998.58, -34462.816, 0.0, 10.043401, 9.867231 
7.8794116e+3, 2.9511985e+2, -81096.766, -214210.47, 458.91705, 0.002230296, -0.00021769476, -81095.19, -33269.254, 0.0, 10.042297, 9.86811 
7.8793806e+3, 3.0501392e+2, 3813.1013, -88871.805, 257.44315, 0.002274529, 0.00023896772, 3813.8164, 3813.8164, 0.0, 10.041553, 9.919366 
7.8793496e+3, 3.149352e+2, 4223.6, -87147.11, 250.78178, 0.0022674503, 0.00029310022, 4224.2886, 4224.2886, 0.0, 10.04118, 9.920707 
7.8898203e+3, 1.2642248e+2, -1679613.4, -1710991.9, 1959.7258, 0.0022255152, 0.00010353933, -1679491.5, 21568.648, 0.0, 10.028718, 9.987017 
7.889792e+3, 1.3640936e+2, -1580304.3, -1613306.0, 2562.306, 0.0021904022, -0.000048820813, -1580106.5, 23082.342, 0.0, 10.030068, 9.986198 
7.8897685e+3, 1.4638838e+2, -1491741.8, -1536775.6, 6016.3726, 0.002273129, 0.00020984675, -1490951.9, 14442.592, 0.0, 10.031813, 9.972014 
7.889749e+3, 1.5636039e+2, -1391096.1, -1438080.3, 6406.731, 0.0022646487, 0.00004209574, -1390238.3, 17430.541, 0.0, 10.033817, 9.971417 
7.889732e+3, 1.6632423e+2, -1302156.8, -1362116.3, 8342.018, 0.0022378538, 0.00008553853, -1301017.9, 9005.238, 0.0, 10.035986, 9.956517 
7.8897166e+3, 1.7628081e+2, -1200951.4, -1263012.4, 8563.558, 0.0022538537, 0.000010663399, -1199791.5, 12657.191, 0.0, 10.038259, 9.955986 
7.889703e+3, 1.8622896e+2, -1112064.6, -1187785.3, 9279.199, 0.0022779736, 0.00015147978, -1110944.0, 4012.6206, 0.0, 10.040546, 9.940385 
7.889689e+3, 1.9616935e+2, -1010737.8, -1088486.6, 9343.133, 0.0022573248, 0.00000052321747, -1009630.8, 7910.0557, 0.0, 10.042802, 9.939934 
7.8896743e+3, 2.0610137e+2, -922019.2, -1013525.9, 8858.998, 0.0022546337, 0.000120599245, -921169.4, -962.48444, 0.0, 10.044884, 9.924069 
7.8896594e+3, 2.1602546e+2, -821072.4, -914310.1, 8773.407, 0.0022745125, -0.00008968659, -820254.0, 2696.917, 0.0, 10.046803, 9.923679 
7.8896415e+3, 2.2594155e+2, -732635.6, -839032.7, 7178.7705, 0.00229081, 0.00019117797, -732153.44, -6380.3833, 0.0, 10.048306, 9.908115 
7.889622e+3, 2.3584975e+2, -632722.4, -740253.1, 6928.7266, 0.002287528, -0.0000063575167, -632277.8, -3604.9268, 0.0, 10.04946, 9.9077635 
7.8896e+3, 2.4575035e+2, -544727.5, -664013.75, 4592.704, 0.0022852516, 0.00013821376, -544550.94, -12903.983, 0.0, 10.049954, 9.893129 
7.8895754e+3, 2.5564352e+2, -446446.78, -565735.06, 4185.633, 0.0022589131, -0.000067506575, -446300.1, -11606.145, 0.0, 10.049828, 9.893008 
7.889548e+3, 2.655299e+2, -359161.47, -488386.16, 1889.9362, 0.0022568824, 0.00013773759, -359133.84, -21326.719, 0.0, 10.049019, 9.879482 
7.889518e+3, 2.754099e+2, -262476.25, -390227.94, 1446.5355, 0.0022756092, -0.00019901925, -262459.88, -21476.742, 0.0, 10.047457, 9.879882 
7.8894866e+3, 2.852837e+2, -175729.14, -312335.56, 408.44446, 0.0022686885, 0.00031064003, -175727.92, -31507.959, 0.0, 10.045749, 9.866941 
7.8894544e+3, 2.951519e+2, -79075.09, -213517.72, 237.92657, 0.002257749, -0.00010958511, -79074.67, -31562.78, 0.0, 10.0437975, 9.867844 
7.889423e+3, 3.050456e+2, 5169.5283, -88210.86, 515.039, 0.0023161052, 0.00009573469, 5172.3687, 5172.3687, 0.0, 10.042483, 9.919362 
7.889391e+3, 3.149665e+2, 5192.904, -86643.84, 564.74854, 0.0022897727, -0.00039498313, 5196.3765, 5196.3765, 0.0, 10.041831, 9.920731 
7.899849e+3, 1.2645566e+2, -1679126.4, -1709345.3, 2482.0698, 0.002189542, 0.00008049604, -1678923.9, 21811.188, 0.0, 10.028384, 9.98821 
7.899822e+3, 1.3644373e+2, -1579764.3, -1611643.1, 3147.4746, 0.0021899303, -0.000050003615, -1579456.4, 23395.47, 0.0, 10.029778, 9.987385 
7.8998005e+3, 1.4642377e+2, -1491505.4, -1535669.6, 6838.946, 0.0022561308, 0.00019769726, -1490470.6, 14577.124, 0.0, 10.031515, 9.972863 
7.8997827e+3, 1.5639663e+2, -1390847.8, -1436977.0, 7243.306, 0.002249963, 0.000046325065, -1389737.1, 17576.47, 0.0, 10.033535, 9.97226 
7.8997684e+3, 1.6636118e+2, -1302124.6, -1361409.0, 9261.012, 0.002231614, 0.0000887437, -1300711.6, 8949.325, 0.0, 10.035698, 9.957117 
7.899755e+3, 1.7631835e+2, -1200944.3, -1262337.5, 9489.224, 0.002246097, 0.000007969688, -1199511.0, 12569.691, 0.0, 10.037964, 9.956571 
7.8997433e+3, 1.8626694e+2, -1112290.8, -1187562.6, 10191.296, 0.0022591571, 0.00014370737, -1110935.4, 3649.1924, 0.0, 10.040254, 9.940682 
7.8997314e+3, 1.9620761e+2, -1010949.75, -1088279.5, 10260.406, 0.002231393, -0.000003399269, -1009611.56, 7554.283, 0.0, 10.042529, 9.940211 
7.8997195e+3, 2.0613974e+2, -922498.1, -1013897.7, 9656.8125, 0.002254478, 0.00013123167, -921489.0, -1657.9971, 0.0, 10.044635, 9.9239645 
7.899706e+3, 2.160637e+2, -821519.8, -914699.44, 9562.982, 0.0022825643, -0.00010532302, -820548.5, 2027.7056, 0.0, 10.046588, 9.923544 
7.8996897e+3, 2.2597942e+2, -733408.9, -840130.5, 7688.861, 0.002300878, 0.00018707676, -732857.75, -7455.7324, 0.0, 10.048115, 9.907511 
7.899672e+3, 2.3588702e+2, -633483.5, -741340.44, 7431.2334, 0.0022705388, 0.000027099988, -632973.9, -4666.4204, 0.0, 10.049271, 9.90716 
7.8996503e+3, 2.4578679e+2, -545787.2, -665737.0, 4612.1577, 0.0022698021, 0.00013161454, -545610.1, -14320.283, 0.0, 10.049774, 9.892104 
7.899625e+3, 2.5567892e+2, -447472.28, -567431.8, 4183.3335, 0.002252012, -0.000097503565, -447326.6, -12979.563, 0.0, 10.04966, 9.891986 
7.899597e+3, 2.655643e+2, -360269.56, -490179.03, 1309.3851, 0.00224833, 0.00013585942, -360256.38, -22786.178, 0.0, 10.048811, 9.878412 
7.8995657e+3, 2.754432e+2, -263639.9, -392021.78, 809.3459, 0.002254353, -0.00020320535, -263634.8, -22978.084, 0.0, 10.047194, 9.87883 
7.899533e+3, 2.8531632e+2, -176785.58, -313253.5, -465.41873, 0.0022416562, 0.0003086136, -176783.98, -32883.48, 0.0, 10.045197, 9.866602 
7.8994983e+3, 2.9518428e+2, -80854.13, -214728.16, -700.85364, 0.00225271, 0.000003107421, -80850.47, -33656.164, 0.0, 10.042723, 9.867557 
7.899465e+3, 3.0507764e+2, 4208.0283, -88727.445, 82.40483, 0.0023117585, -0.000037198402, 4208.101, 4208.101, 0.0, 10.041842, 9.919321 
7.8994334e+3, 3.1499794e+2, 6117.9775, -86221.92, -10.441543, 0.0022567157, -0.0011994285, 6117.9785, 6117.9785, 0.0, 10.0424795, 9.920707 
7.909875e+3, 1.264875e+2, -1684522.1, -1710678.6, 2068.8499, 0.0023094714, 0.000110318026, -1684359.5, 16063.582, 0.0, 10.024325, 9.989568 
7.90985e+3, 1.3647692e+2, -1583830.8, -1612276.5, 2790.8064, 0.0022393295, -0.000027791346, -1583559.5, 18967.209, 0.0, 10.02654, 9.988725 
7.909831e+3, 1.4645806e+2, -1494607.0, -1536210.0, 6746.236, 0.0022467717, 0.00017816447, -1493540.4, 11171.349, 0.0, 10.029068, 9.973833 
7.9098153e+3, 1.5643184e+2, -1392857.1, -1436946.6, 7236.468, 0.0022346773, -0.0000046693385, -1391699.8, 15268.643, 0.0, 10.031771, 9.973219 
7.909803e+3, 1.6639727e+2, -1303328.3, -1361142.3, 9435.253, 0.0022354494, 0.000038653423, -1301827.4, 7479.9023, 0.0, 10.034527, 9.957906 
7.909793e+3, 1.7635524e+2, -1201319.0, -1261647.9, 9817.63, 0.0022715752, -0.000014577956, -1199761.5, 11957.683, 0.0, 10.037325, 9.957347 
7.909783e+3, 1.8630452e+2, -1111899.4, -1186650.0, 10744.397, 0.002319789, 0.0001266357, -1110385.6, 3830.5205, 0.0, 10.040188, 9.941302 
7.909774e+3, 1.9624579e+2, -1009587.56, -1086887.0, 11035.955, 0.0023225916, -0.000047297344, -1008042.8, 8748.766, 0.0, 10.043102, 9.94081 
7.909764e+3, 2.0617832e+2, -920377.06, -1012551.2, 10581.082, 0.002307126, 0.00011119662, -919178.0, 274.67453, 0.0, 10.0459, 9.924184 
7.9097533e+3, 2.1610256e+2, -818221.6, -912754.1, 10713.344, 0.0022682927, -0.00005553104, -817022.7, 5172.562, 0.0, 10.048632, 9.923762 
7.909739e+3, 2.2601815e+2, -729412.4, -838462.1, 8786.736, 0.0022571692, 0.00013811221, -728708.94, -3686.4421, 0.0, 10.050901, 9.907182 
7.909723e+3, 2.3592529e+2, -628400.6, -739125.75, 8730.516, 0.0022482057, -0.00015962431, -627716.44, 215.93465, 0.0, 10.052792, 9.906832 
7.909702e+3, 2.4582446e+2, -540270.8, -664030.75, 5548.5674, 0.0022781044, 0.000012550753, -540022.56, -9102.102, 0.0, 10.053906, 9.8911495 
7.909677e+3, 2.5571582e+2, -441318.97, -565429.3, 5192.5605, 0.002314407, 0.000021797867, -441102.1, -7116.861, 0.0, 10.054241, 9.891023 
7.909648e+3, 2.6560003e+2, -354355.72, -488738.06, 1613.5562, 0.0023143862, 0.0002492519, -354336.34, -17216.523, 0.0, 10.053424, 9.877078 
7.909615e+3, 2.7547753e+2, -258365.11, -390865.22, 1014.87317, 0.0023149347, -0.00023256108, -258357.33, -18037.047, 0.0, 10.051374, 9.877542 
7.909579e+3, 2.8534958e+2, -172890.38, -312071.38, -1001.7528, 0.0022492774, 0.00017768794, -172883.16, -29308.799, 0.0, 10.048138, 9.865943 
7.909541e+3, 2.9521683e+2, -80006.79, -215064.0, -1396.4406, 0.0021923236, -0.00023435574, -79992.35, -33116.992, 0.0, 10.043603, 9.866897 
7.9095066e+3, 3.0510995e+2, 3896.0686, -89610.15, 1053.5752, 0.0022891585, 0.00029809753, 3907.9382, 3907.9382, 0.0, 10.04194, 9.918673 
7.909476e+3, 3.150307e+2, 6437.2856, -86732.78, 863.70825, 0.0023175352, 0.00036309377, 6445.292, 6445.292, 0.0, 10.042983, 9.9201145 
7.919899e+3, 1.2651789e+2, -1683903.6, -1708754.3, 2964.5615, 0.002284521, 0.000105647596, -1683554.9, 16570.424, 0.0, 10.023979, 9.990941 
7.9198766e+3, 1.3650869e+2, -1583086.0, -1610304.4, 3723.1187, 0.0022461684, -0.000029675653, -1582585.9, 19629.582, 0.0, 10.026285, 9.990086 
7.91986e+3, 1.4649098e+2, -1494183.1, -1534731.8, 7834.8965, 0.002223532, 0.00013740579, -1492721.9, 11666.991, 0.0, 10.028765, 9.974919 
7.9198474e+3, 1.5646586e+2, -1392563.3, -1435549.4, 8340.582, 0.0022229773, -0.0000585338, -1391001.6, 15633.573, 0.0, 10.031394, 9.974297 
7.919837e+3, 1.664323e+2, -1303110.8, -1359872.1, 10587.3125, 0.0022377514, -0.0000038322646, -1301200.3, 7763.5605, 0.0, 10.034144, 9.958908 
7.91983e+3, 1.763913e+2, -1201009.9, -1260332.6, 10981.135, 0.0022792825, -0.000033523418, -1199042.4, 12323.317, 0.0, 10.037004, 9.958349 
7.9198235e+3, 1.8634154e+2, -1111622.3, -1185452.8, 11929.108, 0.0023543367, 0.00011470108, -1109742.6, 4110.6616, 0.0, 10.039897, 9.942216 
7.9198176e+3, 1.9628371e+2, -1009346.0, -1085749.1, 12189.484, 0.0023687067, -0.00008731573, -1007448.4, 8971.605, 0.0, 10.0428095, 9.941691 
7.9198104e+3, 2.0621695e+2, -920408.7, -1011930.4, 11681.709, 0.002326483, 0.000076342694, -918941.2, 133.0418, 0.0, 10.045603, 9.924741 
7.9198015e+3, 2.1614178e+2, -818299.75, -912162.8, 11828.819, 0.0022376897, -0.000016249307, -816832.0, 4978.895, 0.0, 10.048307, 9.924315 
7.91979e+3, 2.2605754e+2, -729878.44, -838764.4, 9612.289, 0.0022072713, 0.00009751591, -729036.4, -4400.0, 0.0, 10.050631, 9.90713 
7.919775e+3, 2.3596455e+2, -628721.4, -739356.7, 9566.087, 0.0022531212, -0.000295394, -627900.3, -352.72723, 0.0, 10.052615, 9.906776 
7.9197556e+3, 2.4586335e+2, -541140.0, -665436.0, 5790.616, 0.0022711044, -0.000049267994, -540870.8, -10331.42, 0.0, 10.053756, 9.890314 
7.919732e+3, 2.5575405e+2, -442170.78, -566827.4, 5416.912, 0.0023020655, 0.00017454936, -441935.8, -8325.23, 0.0, 10.054098, 9.890182 
7.919702e+3, 2.656371e+2, -355532.47, -490905.44, 972.5448, 0.0023206745, 0.00030153408, -355525.47, -18768.637, 0.0, 10.053314, 9.875711 
7.919666e+3, 2.7551296e+2, -259462.19, -392941.1, 352.01093, 0.0023198964, -0.0005282214, -259461.27, -19488.125, 0.0, 10.05129, 9.876213 
7.919627e+3, 2.8538412e+2, -173961.84, -313571.38, -2623.6328, 0.0022039723, 0.00014816191, -173912.56, -30676.877, 0.0, 10.047812, 9.865104 
7.9195845e+3, 2.9525116e+2, -81702.83, -216880.63, -3009.1484, 0.002093739, 0.000459126, -81635.875, -35096.977, 0.0, 10.042853, 9.866046 
7.919548e+3, 3.0514193e+2, 1707.1255, -92358.46, 797.3164, 0.002197193, -0.00037827095, 1713.8832, 1713.8832, 0.0, 10.04116, 9.917196 
7.919519e+3, 3.150731e+2, 9555.242, -78844.64, -692.1349, 0.002402065, 0.014227436, 9560.661, 9560.661, 0.0, 10.042401, 9.925736 
7.929921e+3, 1.265457e+2, -1690212.6, -1710555.5, 1990.8823, 0.0020390488, 0.0000042863376, -1690019.6, 9833.116, 0.0, 10.019355, 9.992323 
7.929901e+3, 1.36538e+2, -1587624.0, -1611148.9, 2737.489, 0.002177267, 0.000027932849, -1587309.6, 14618.594, 0.0, 10.022739, 9.991465 
7.9298866e+3, 1.4652166e+2, -1497679.5, -1535187.3, 6875.5317, 0.002210719, 0.00026795024, -1496458.9, 7629.4604, 0.0, 10.025933, 9.9761505 
7.9298776e+3, 1.5649782e+2, -1395388.6, -1435633.5, 7490.2056, 0.0023489404, 0.00016572459, -1394039.8, 12282.16, 0.0, 10.02897, 9.975535 
7.9298705e+3, 1.664655e+2, -1305086.0, -1359423.6, 9992.477, 0.002331028, 0.00017663305, -1303306.6, 5331.867, 0.0, 10.032216, 9.960213 
7.9298663e+3, 1.7642571e+2, -1202201.9, -1259489.5, 10602.307, 0.0022345062, 0.00003759066, -1200302.6, 10725.883, 0.0, 10.035579, 9.959637 
7.929863e+3, 1.8637715e+2, -1112125.5, -1184346.3, 11806.315, 0.0022028473, 0.00018427125, -1110244.4, 3259.7559, 0.0, 10.038956, 9.943414 
7.92986e+3, 1.9632058e+2, -1009034.6, -1084164.8, 12327.767, 0.0021595233, 0.000049092734, -1007063.5, 8995.124, 0.0, 10.04237, 9.942937 
7.929856e+3, 2.06255e+2, -919168.06, -1009873.06, 12186.405, 0.002219312, 0.00014719013, -917559.3, 1141.9081, 0.0, 10.045774, 9.925977 
7.929851e+3, 2.1618101e+2, -816002.8, -909578.6, 12790.531, 0.0023802812, 0.0000027716267, -814286.0, 7140.3438, 0.0, 10.049184, 9.92554 
7.929842e+3, 2.2609778e+2, -726617.6, -836291.8, 10910.536, 0.0024073021, 0.00018371188, -725542.75, -1300.7294, 0.0, 10.052417, 9.907824 
7.9298294e+3, 2.3600562e+2, -623830.4, -736084.7, 11393.6, 0.0023864193, -0.000042834654, -622685.6, 4459.6284, 0.0, 10.055504, 9.907449 
7.9298115e+3, 2.4590474e+2, -535345.2, -662854.4, 7462.6704, 0.0022865497, 0.00041451477, -534909.94, -4776.0376, 0.0, 10.0577545, 9.88999 
7.9297876e+3, 2.5579536e+2, -434810.1, -563468.0, 7508.518, 0.0021632675, 0.0009240477, -434373.38, -1167.425, 0.0, 10.059167, 9.889858 
7.929757e+3, 2.656766e+2, -348059.97, -488425.56, 2313.7585, 0.0021959792, -0.00029016924, -348021.84, -11651.868, 0.0, 10.058864, 9.874586 
7.92972e+3, 2.7554926e+2, -251998.86, -390479.25, 1794.8385, 0.0023200857, -0.0036868535, -251975.6, -12358.047, 0.0, 10.056853, 9.875095 
7.9296774e+3, 2.8542268e+2, -168098.42, -311554.7, -2625.7197, 0.0023199033, 0.00096405076, -168050.38, -25192.264, 0.0, 10.052132, 9.864308 
7.929628e+3, 2.9529652e+2, -79646.26, -216957.56, -2959.8647, 0.0023734262, 0.01070368, -79582.484, -33487.855, 0.0, 10.044686, 9.86508 
7.929589e+3, 3.0516428e+2, -4575.221, -104562.74, 2229.9043, 0.0021461337, -0.012887317, -4525.515, -4525.515, 0.0, 10.040759, 9.909159 
7.92956e+3, 3.1506377e+2, 4655.414, -82970.27, -1107.8168, 0.0020203716, -0.027711308, 4669.4175, 4669.4175, 0.0, 10.039773, 9.924212 
7.93994e+3, 1.2657075e+2, -1689621.5, -1708579.8, 3194.4822, 0.0018802587, -0.00005680714, -1689097.8, 10509.411, 0.0, 10.018963, 9.993754 
7.939924e+3, 1.365645e+2, -1587265.5, -1609331.8, 4089.84, 0.0021601315, 0.000018233939, -1586531.9, 15136.4795, 0.0, 10.022223, 9.992869 
7.9399127e+3, 1.4654951e+2, -1497224.0, -1533428.9, 8165.998, 0.0021861615, 0.00028770312, -1495467.4, 8347.829, 0.0, 10.025528, 9.977466 
7.939906e+3, 1.5652704e+2, -1394444.3, -1433612.0, 8740.577, 0.0023889027, 0.00024902655, -1392582.3, 13453.203, 0.0, 10.028873, 9.976859 
7.9399025e+3, 1.6649614e+2, -1304114.6, -1357127.6, 11219.802, 0.002346724, 0.0002372358, -1301837.8, 6500.4053, 0.0, 10.032022, 9.961761 
7.939902e+3, 1.7645782e+2, -1201768.3, -1257499.0, 11741.1045, 0.0021656288, 0.000031946358, -1199395.8, 11317.864, 0.0, 10.03506, 9.961172 
7.9399014e+3, 1.8641086e+2, -1111804.4, -1182228.8, 13073.505, 0.0020739026, 0.0001598707, -1109455.8, 3718.0476, 0.0, 10.038286, 9.945107 
7.9399025e+3, 1.96356e+2, -1008740.7, -1082012.3, 13771.585, 0.0020061794, 0.00006277931, -1006237.75, 9473.744, 0.0, 10.041666, 9.944677 
7.9399014e+3, 2.062922e+2, -918601.4, -1007483.75, 13709.855, 0.0021153544, 0.00013314068, -916534.75, 1802.0287, 0.0, 10.045211, 9.927796 
7.9399e+3, 2.1622005e+2, -815060.8, -907022.8, 14300.754, 0.0024337198, 0.00005277267, -812888.25, 8155.433, 0.0, 10.0488825, 9.927341 
7.939895e+3, 2.2613837e+2, -725894.2, -834317.56, 12274.869, 0.0024913265, 0.00017408392, -724521.9, -677.5614, 0.0, 10.052189, 9.90921 
7.939885e+3, 2.3604748e+2, -623259.2, -734235.25, 12792.327, 0.0023653642, -0.0002156816, -621803.7, 4931.477, 0.0, 10.055202, 9.9088 
7.93987e+3, 2.4594776e+2, -535481.4, -662593.75, 8280.366, 0.0022682655, 0.0007301853, -534944.25, -5232.058, 0.0, 10.057527, 9.890275 
7.939847e+3, 2.5583938e+2, -434712.78, -563086.25, 8384.613, 0.0020969769, 0.002120982, -434167.44, -1392.9268, 0.0, 10.059093, 9.890145 
7.939816e+3, 2.6571882e+2, -348773.47, -489878.47, 1903.2716, 0.0020637063, -0.0008884385, -348747.8, -12791.676, 0.0, 10.058855, 9.873634 
7.939777e+3, 2.755877e+2, -252542.4, -391773.16, 1302.1787, 0.0021824858, -0.007858847, -252530.23, -13289.48, 0.0, 10.056922, 9.874204 
7.9397297e+3, 2.8546435e+2, -168338.75, -312684.7, -5234.5054, 0.002358132, 0.0018562304, -168149.17, -25699.469, 0.0, 10.052372, 9.863436 
7.939673e+3, 2.9534683e+2, -79849.914, -218449.39, -5781.685, 0.002717056, 0.023402074, -79609.15, -34007.605, 0.0, 10.045112, 9.863879 
7.93963e+3, 3.0518618e+2, -12316.345, -119646.19, 1024.2161, 0.0018224788, -0.02826392, -12306.572, -12306.572, 0.0, 10.040287, 9.8992605 
7.939602e+3, 3.1516558e+2, 26078.008, -32440.84, -2093.614, 0.0051882886, 0.06758713, 26152.816, 26152.816, 0.0, 10.037304, 9.959718 
7.949957e+3, 1.265918e+2, -1695186.9, -1709531.0, 1265.6954, 0.0026515422, 0.0004140687, -1695076.0, 4324.7954, 0.0, 10.014579, 9.995523 
7.949944e+3, 1.3658687e+2, -1591932.0, -1609867.8, 2157.9646, 0.002542524, -0.00012602199, -1591676.1, 9773.033, 0.0, 10.018417, 9.994576 
7.9499364e+3, 1.4657302e+2, -1501177.0, -1534189.0, 6283.4727, 0.0021666924, -0.00019271094, -1500021.5, 3563.341, 0.0, 10.022438, 9.978649 
7.9499334e+3, 1.5655157e+2, -1397366.0, -1433824.3, 6799.602, 0.0020289898, -0.00038555556, -1396139.1, 9655.813, 0.0, 10.02642, 9.978037 
7.9499334e+3, 1.6652209e+2, -1306621.6, -1356871.3, 9021.788, 0.0021967923, -0.00020816439, -1305051.0, 3032.9636, 0.0, 10.029713, 9.963149 
7.949936e+3, 1.7648546e+2, -1204400.1, -1257109.0, 9624.315, 0.0024939226, -0.000014591218, -1202697.8, 7745.1016, 0.0, 10.032575, 9.962731 
7.949939e+3, 1.8644063e+2, -1113282.3, -1179781.5, 11488.26, 0.002699822, -0.000016836411, -1111353.5, 1528.5197, 0.0, 10.035876, 9.947913 
7.9499435e+3, 1.9638826e+2, -1009905.6, -1079478.5, 12668.328, 0.002852278, -0.0004832021, -1007670.7, 7724.412, 0.0, 10.039493, 9.947418 
7.949946e+3, 2.063273e+2, -919360.2, -1005044.0, 13260.471, 0.0025613452, -0.00006300967, -917354.9, 637.51855, 0.0, 10.04344, 9.930268 
7.949948e+3, 2.1625824e+2, -814936.94, -904064.3, 14341.562, 0.0020870813, 0.00060940674, -812686.06, 7983.1846, 0.0, 10.047659, 9.929873 
7.949946e+3, 2.2617838e+2, -724501.3, -830369.8, 12925.998, 0.001913235, -0.00033744524, -722946.0, 505.93445, 0.0, 10.051662, 9.91203 
7.94994e+3, 2.3608863e+2, -620551.94, -729613.4, 14476.547, 0.0019456117, -0.0027604883, -618663.06, 7668.202, 0.0, 10.055558, 9.911629 
7.9499274e+3, 2.4599272e+2, -531301.0, -658037.5, 10798.029, 0.002336499, -0.00016810966, -530387.56, -1116.1898, 0.0, 10.059234, 9.89238 
7.949909e+3, 2.5588968e+2, -427749.84, -557214.75, 12112.187, 0.0028885526, 0.005306798, -426626.44, 5654.813, 0.0, 10.062721, 9.892177 
7.9498786e+3, 2.657682e+2, -340514.66, -485616.94, 5368.117, 0.0025420007, -0.00013309544, -340316.34, -4844.2363, 0.0, 10.064342, 9.873696 
7.949837e+3, 2.756316e+2, -242088.39, -386473.56, 5523.3247, 0.0017139609, -0.013906426, -241877.42, -3066.8354, 0.0, 10.063941, 9.874228 
7.949785e+3, 2.8551194e+2, -160012.47, -310632.63, -3419.8855, 0.0022205864, 0.0016156284, -159934.86, -17951.65, 0.0, 10.058844, 9.861564 
7.949722e+3, 2.9540515e+2, -75380.51, -218904.69, -4006.0754, 0.003903366, 0.03871619, -75268.78, -30238.703, 0.0, 10.049229, 9.861512 
7.949668e+3, 3.0521142e+2, -22228.537, -139558.03, 2868.8928, -0.000008914914, -0.044131663, -22158.43, -22158.43, 0.0, 10.039912, 9.886066 
7.949628e+3, 3.150857e+2, 1333.4878, -67450.78, -1550.8004, -0.0023744176, -0.061956447, 1368.4342, 1368.4342, 0.0, 10.030114, 9.939324 
7.959972e+3, 1.2660842e+2, -1695310.6, -1707871.5, 3021.8699, 0.002960876, 0.00049927994, -1694621.5, 4616.5586, 0.0, 10.013713, 9.997015 
7.959963e+3, 1.3660485e+2, -1590713.8, -1607584.9, 3672.663, 0.002714931, -0.00019378412, -1589948.9, 11324.062, 0.0, 10.01843, 9.995992 
7.959959e+3, 1.4659217e+2, -1500322.9, -1532222.4, 7687.669, 0.002125686, -0.00043757117, -1498566.9, 4830.245, 0.0, 10.022281, 9.979962 
7.95996e+3, 1.5657192e+2, -1397673.8, -1432478.4, 8340.017, 0.0018065893, -0.0007379339, -1395778.5, 9816.755, 0.0, 10.02554, 9.97935 
7.959963e+3, 1.6654405e+2, -1306509.9, -1354821.1, 10521.104, 0.002098754, -0.00043883864, -1304318.1, 3550.4673, 0.0, 10.02888, 9.964875 
7.9599684e+3, 1.765093e+2, -1203459.9, -1254486.3, 11447.647, 0.0027116837, -0.000047521284, -1201009.3, 9199.816, 0.0, 10.032212, 9.96458 
7.959975e+3, 1.8646687e+2, -1111484.3, -1175462.4, 13258.872, 0.0030445082, -0.00013245517, -1108845.3, 3779.6462, 0.0, 10.035506, 9.950839 
7.959983e+3, 1.9641729e+2, -1008511.1, -1075430.6, 13892.1, 0.003284163, -0.00075221213, -1005741.8, 9368.694, 0.0, 10.0389, 9.950304 
7.95999e+3, 2.0635962e+2, -917858.25, -1000465.5, 14619.016, 0.0028254096, -0.00007379347, -915347.44, 2328.1448, 0.0, 10.042715, 9.933564 
7.959995e+3, 2.1629423e+2, -813594.4, -899520.25, 15896.229, 0.0019175796, 0.0010681014, -810747.9, 9568.577, 0.0, 10.0468235, 9.933222 
7.959997e+3, 2.2621763e+2, -722387.1, -824500.25, 14485.012, 0.0015928611, -0.00053247815, -720372.1, 2695.1077, 0.0, 10.050936, 9.916181 
7.959996e+3, 2.3613106e+2, -618162.2, -723614.4, 16056.07, 0.0016576947, -0.004126345, -615771.7, 10143.635, 0.0, 10.055036, 9.915785 
7.959987e+3, 2.4603991e+2, -529393.5, -652779.94, 12241.951, 0.0023325214, -0.0004811669, -528190.6, 618.0706, 0.0, 10.058627, 9.896094 
7.9599714e+3, 2.559427e+2, -426241.63, -552234.2, 13714.729, 0.0034427494, 0.007550817, -424766.0, 6995.78, 0.0, 10.061896, 9.895839 
7.959943e+3, 2.6582226e+2, -339507.66, -483807.4, 5744.775, 0.0027892855, 0.00044778272, -339279.3, -4337.052, 0.0, 10.064454, 9.874822 
7.959901e+3, 2.7568293e+2, -238656.89, -383631.5, 5646.178, 0.0010731228, -0.017991703, -238437.31, -129.8817, 0.0, 10.065774, 9.875205 
7.9598445e+3, 2.855665e+2, -158023.58, -311739.78, -6953.3013, 0.0021915725, 0.00222288, -157709.69, -16261.4375, 0.0, 10.061039, 9.859751 
7.9597723e+3, 2.9546773e+2, -74756.2, -221335.19, -7409.7256, 0.00548749, 0.05128572, -74382.586, -29966.07, 0.0, 10.050773, 9.859139 
7.959706e+3, 3.0524415e+2, -32783.52, -161155.7, -1533.0808, -0.0023944785, -0.058185745, -32765.213, -32765.213, 0.0, 10.039675, 9.871777 
7.95967e+3, 3.1521705e+2, 41257.57, 23239.03, -4740.7417, 0.011615095, 0.06322044, 42428.75, 42428.75, 0.0, 10.026928, 10.002902 
7.9699814e+3, 1.2661894e+2, -1701069.0, -1710864.9, 1038.3629, 0.00053444545, -0.0012123187, -1700960.1, -1826.0839, 0.0, 10.010121, 9.997108 
7.969979e+3, 1.3661748e+2, -1594567.5, -1609325.8, 1071.4092, 0.0015502368, 0.00058099814, -1594490.1, 6658.5127, 0.0, 10.015889, 9.996277 
7.96998e+3, 1.4660668e+2, -1502946.0, -1531616.6, 4039.4485, 0.0022001443, 0.001312923, -1502387.8, 866.6281, 0.0, 10.019715, 9.981704 
7.9699844e+3, 1.5658835e+2, -1401097.5, -1432185.5, 4769.4097, 0.0032103597, 0.0011885039, -1400382.3, 5051.9453, 0.0, 10.022415, 9.981186 
7.969991e+3, 1.6656223e+2, -1308945.8, -1352919.3, 7342.3525, 0.002857908, 0.0007861205, -1307752.3, -62.215584, 0.0, 10.025879, 9.967644 
7.969999e+3, 1.7652926e+2, -1205362.4, -1252715.6, 8376.225, 0.0017114996, -0.000019236579, -1203924.4, 6088.377, 0.0, 10.029731, 9.966991 
7.970007e+3, 1.864885e+2, -1114887.6, -1176424.5, 9678.417, 0.00095063355, 0.00027234058, -1113401.3, -988.9108, 0.0, 10.032944, 9.951557 
7.970018e+3, 1.9644068e+2, -1012355.1, -1076090.9, 9831.974, 0.00057982886, 0.0009222586, -1010872.9, 4008.6128, 0.0, 10.035803, 9.951477 
7.970029e+3, 2.0638537e+2, -919491.75, -995895.56, 11007.752, 0.0015477772, 0.0006504559, -917937.44, -513.75433, 0.0, 10.039214, 9.938274 
7.970041e+3, 2.1632299e+2, -815864.5, -895342.44, 12923.085, 0.0033117896, -0.00032569302, -813816.06, 6218.95, 0.0, 10.042945, 9.937882 
7.9700476e+3, 2.2625354e+2, -724753.2, -819493.94, 12280.51, 0.003552066, 0.0007763621, -723187.2, -471.4111, 0.0, 10.046621, 9.921593 
7.970049e+3, 2.3617691e+2, -621133.25, -718759.75, 14757.676, 0.002845845, 0.0027804873, -618951.2, 6516.037, 0.0, 10.050258, 9.921338 
7.970043e+3, 2.4608922e+2, -530154.2, -644193.7, 12758.587, 0.002160093, 0.0024103895, -528744.2, -417.7182, 0.0, 10.054192, 9.903882 
7.9700303e+3, 2.5599158e+2, -425732.1, -543163.6, 17071.031, 0.0015914978, 0.0002829122, -423300.8, 7982.0376, 0.0, 10.058404, 9.903486 
7.970006e+3, 2.658801e+2, -335789.13, -476467.13, 12312.024, 0.0009302775, -0.0032885114, -334719.72, -343.79553, 0.0, 10.064606, 9.879515 
7.9699695e+3, 2.7575576e+2, -225772.31, -371970.72, 15091.465, 0.0003781013, -0.008796194, -224230.73, 13364.282, 0.0, 10.072276, 9.879662 
7.9699117e+3, 2.8563634e+2, -144477.64, -304124.84, -785.0371, 0.003378049, 0.0045172237, -144473.78, -3708.6208, 0.0, 10.069756, 9.860332 
7.9698306e+3, 2.9552102e+2, -64402.957, -216932.73, 78.727196, 0.009272709, 0.032725733, -64402.914, -20508.803, 0.0, 10.05801, 9.858314 
7.9697454e+3, 3.053106e+2, -47459.156, -194723.67, 1721.1724, -0.003992238, -0.04491126, -47439.043, -47439.043, 0.0, 10.040769, 9.848797 
7.9696774e+3, 3.1520393e+2, 10167.522, -18828.205, -3834.1238, -0.0049567553, 0.0059325267, 10665.943, 10665.943, 0.0, 10.016995, 9.978626 
7.9799914e+3, 1.2662409e+2, -1697627.6, -1708798.0, 1836.7667, -0.00076587865, -0.0018315358, -1697333.4, 1749.5687, 0.0, 10.012141, 9.997306 
7.9799944e+3, 1.3662346e+2, -1597051.5, -1610252.5, 2701.357, 0.0010428394, 0.00075138937, -1596520.1, 4569.429, 0.0, 10.014165, 9.996627 
7.98e+3, 1.4661393e+2, -1504288.0, -1530622.5, 5322.9336, 0.0022604389, 0.0018338546, -1503252.9, -69.626045, 0.0, 10.018093, 9.983183 
7.9800075e+3, 1.5659714e+2, -1398922.9, -1429307.9, 5842.5195, 0.0039037724, 0.0018230972, -1397838.3, 7509.529, 0.0, 10.022991, 9.982685 
7.980017e+3, 1.6657257e+2, -1306499.0, -1349186.6, 7762.6787, 0.0032147707, 0.0011226678, -1305131.1, 2456.928, 0.0, 10.026308, 9.969755 
7.980027e+3, 1.7654127e+2, -1205477.5, -1250568.0, 7840.6226, 0.001124565, -0.00022324426, -1204153.0, 5741.3354, 0.0, 10.028649, 9.968904 
7.98004e+3, 1.8650228e+2, -1115514.1, -1174912.5, 9813.793, -0.00017307085, 0.00015680052, -1113934.8, -1657.716, 0.0, 10.03171, 9.953147 
7.980053e+3, 1.9645645e+2, -1011815.7, -1073592.3, 11813.086, -0.0008026543, 0.001242451, -1009633.8, 5093.3604, 0.0, 10.035155, 9.9534 
7.980068e+3, 2.0640424e+2, -916597.25, -988608.44, 13500.216, 0.0008512195, 0.00036387146, -914149.5, 3089.553, 0.0, 10.038501, 9.943299 
7.9800844e+3, 2.163459e+2, -813684.4, -888470.44, 14848.356, 0.0038125676, -0.001738779, -810844.2, 8966.196, 0.0, 10.041805, 9.942885 
7.980094e+3, 2.2628355e+2, -721073.94, -809742.4, 14250.312, 0.004236892, 0.0008616691, -718840.0, 3581.8555, 0.0, 10.0455475, 9.928423 
7.9800993e+3, 2.3621619e+2, -616759.8, -708491.44, 17166.271, 0.003190463, 0.0058532986, -613652.6, 11430.307, 0.0, 10.049601, 9.928336 
7.980097e+3, 2.4613544e+2, -522925.28, -627733.9, 15404.455, 0.001834196, 0.0027861604, -520708.06, 7166.0034, 0.0, 10.053388, 9.914996 
7.980088e+3, 2.560438e+2, -419867.84, -527675.0, 19753.965, 0.0003812494, -0.0056428495, -416362.22, 14409.086, 0.0, 10.056865, 9.914404 
7.9800695e+3, 2.6594532e+2, -332471.72, -463585.63, 16968.047, -0.00051921397, -0.0057063317, -330311.4, 3425.5803, 0.0, 10.062002, 9.889237 
7.9800403e+3, 2.7583894e+2, -224011.61, -360094.78, 21747.678, -0.0010189944, -0.0010462306, -220620.58, 16160.167, 0.0, 10.068769, 9.889189 
7.9799813e+3, 2.8571787e+2, -139339.95, -298098.47, 956.3319, 0.0034333356, 0.0022533105, -139334.19, 632.6713, 0.0, 10.071683, 9.863208 
7.9798937e+3, 2.9558557e+2, -47152.523, -207992.33, 1845.6711, 0.0124986945, 0.0066588945, -47131.348, -3870.2305, 0.0, 10.069543, 9.858538 
7.979784e+3, 3.0540466e+2, -61795.15, -231026.97, -3422.4534, -0.0071284254, -0.017454427, -61725.96, -61725.96, 0.0, 10.043265, 9.823494 
7.9797024e+3, 3.152559e+2, 28879.43, 68053.86, -5847.3926, 0.0095415525, 0.009169522, 68908.05, 68908.05, 0.0, 9.996191, 10.048481 
7.9900116e+3, 1.2662661e+2, -1692829.6, -1702272.8, -3329.476, 0.0079181595, 0.0052406513, -1691773.8, 7285.8315, 0.0, 10.013263, 10.000725 
7.99001e+3, 1.3662097e+2, -1599748.3, -1608403.1, -1343.4536, 0.0055114874, -0.0026100075, -1599544.5, 1569.3303, 0.0, 10.0109625, 9.999474 
7.990015e+3, 1.4660983e+2, -1509059.3, -1533045.9, 3572.9275, 0.002020265, -0.004989907, -1508538.4, -5315.858, 0.0, 10.015054, 9.983287 
7.9900265e+3, 1.5659337e+2, -1399892.8, -1430211.4, 3101.5576, -0.0012232342, -0.0046623056, -1399578.6, 5805.2373, 0.0, 10.022544, 9.982354 
7.990041e+3, 1.6656981e+2, -1309329.0, -1353232.0, 2110.3853, 0.00053447066, -0.0023240075, -1309227.8, -1611.7665, 0.0, 10.025665, 9.9675455 
7.990058e+3, 1.7653996e+2, -1209497.4, -1253455.3, 1011.1352, 0.0050675143, 0.00071575394, -1209474.1, 436.11078, 0.0, 10.026419, 9.968225 
7.990076e+3, 1.8650451e+2, -1112747.9, -1163592.0, 4257.2666, 0.0076995944, -0.00020265816, -1112393.9, -137.37833, 0.0, 10.028971, 9.9617 
7.9900944e+3, 1.964636e+2, -1009898.94, -1064006.4, 7730.2124, 0.00924537, -0.0035697469, -1008816.2, 5838.853, 0.0, 10.032476, 9.96087 
7.990108e+3, 2.0641823e+2, -920017.7, -987268.7, 9166.573, 0.0057071587, -0.0016748883, -918790.7, -1691.5586, 0.0, 10.034849, 9.946015 
7.990119e+3, 2.163681e+2, -819201.25, -887655.5, 9971.857, -0.0008185507, 0.0029692706, -817778.2, 1813.1094, 0.0, 10.036524, 9.946086 
7.990131e+3, 2.2630574e+2, -722973.94, -800400.6, 10058.337, -0.0025965816, -0.0022369362, -721688.6, 513.5177, 0.0, 10.039662, 9.937432 
7.990142e+3, 2.3623417e+2, -619204.56, -699566.0, 13565.753, -0.0011553233, -0.013680616, -616976.4, 7926.364, 0.0, 10.043423, 9.937252 
7.990146e+3, 2.4617246e+2, -528795.56, -616501.1, 11256.004, 0.0033983171, -0.0062589846, -527374.0, 134.21788, 0.0, 10.043205, 9.927448 
7.9901433e+3, 2.5611514e+2, -434360.34, -519709.75, 16936.404, 0.009722849, 0.012454328, -431122.4, -1051.0886, 0.0, 10.0404825, 9.927796 
7.990128e+3, 2.6603928e+2, -334901.28, -430481.6, 23814.434, 0.006872169, 0.013141201, -329296.44, 3517.9072, 0.0, 10.045464, 9.919131 
7.990102e+3, 2.7594975e+2, -220401.77, -324600.78, 39613.188, -0.0014148386, 0.0017913581, -207052.34, 28637.55, 0.0, 10.056766, 9.918443 
7.990052e+3, 2.858412e+2, -129043.46, -272480.3, 28182.623, 0.0022937567, -0.0076072076, -123704.81, 15048.998, 0.0, 10.070019, 9.880391 
7.989974e+3, 2.9571465e+2, -18208.785, -176806.17, 38841.7, 0.013573676, -0.01752127, -9207.079, 32788.04, 0.0, 10.082416, 9.872206 
7.9898196e+3, 3.0558786e+2, -89035.87, -292380.2, 6071.5977, -0.017597854, 0.043184705, -88854.74, -88854.74, 0.0, 10.0442295, 9.781466 
7.989678e+3, 3.1532934e+2, 28832.404, 132075.75, -8753.819, 0.008696098, -0.015352537, 132812.72, 132812.72, 0.0, 9.96777, 10.106388 
8.000015e+3, 1.266164e+2, -1708658.3, -1712189.8, 4663.2085, -0.0009554107, -0.003583349, -1705437.6, -6282.2485, 0.0, 10.004172, 9.99949 
8.0000174e+3, 1.3661957e+2, -1598350.6, -1609342.4, -1152.0839, 0.0016306943, 0.0010619368, -1598231.3, 2894.6687, 0.0, 10.012608, 9.998016 
8.000032e+3, 1.4660999e+2, -1505021.6, -1532362.6, 1614.8755, 0.0024682027, 0.0023461732, -1504926.6, -1706.481, 0.0, 10.018234, 9.9819975 
8.0000526e+3, 1.5659155e+2, -1400965.8, -1431674.4, -859.3877, 0.0036163346, 0.0017840004, -1400941.8, 4458.9556, 0.0, 10.022271, 9.981545 
8.000068e+3, 1.6656652e+2, -1308855.5, -1349519.6, 1545.4559, 0.003088223, 0.0006024157, -1308796.9, -1151.582, 0.0, 10.024387, 9.970511 
8.000081e+3, 1.7653584e+2, -1209262.1, -1250719.5, 9520.091, 0.0012975793, -0.0011181775, -1207180.5, 2764.974, 0.0, 10.025402, 9.970483 
8.000098e+3, 1.8650258e+2, -1118847.5, -1167447.9, 6832.245, -0.00008390234, -0.0001358138, -1117905.4, -5632.687, 0.0, 10.025377, 9.961097 
8.000117e+3, 1.9646557e+2, -1021523.0, -1070016.5, -4782.4614, -0.00068277324, 0.0020656043, -1021055.9, -6417.9014, 0.0, 10.024977, 9.960799 
8.0001384e+3, 2.0642161e+2, -923952.9, -981346.56, -5026.563, 0.0009203289, 0.000943815, -923516.0, -6446.568, 0.0, 10.028718, 9.952818 
8.00016e+3, 2.1637209e+2, -816775.4, -879381.56, 1866.2378, 0.004309202, -0.0021749404, -816719.75, 2834.6084, 0.0, 10.03494, 9.952139 
8.0001765e+3, 2.2632298e+2, -720951.3, -791985.8, 684.3228, 0.0044708257, 0.0014986318, -720944.75, 1090.4797, 0.0, 10.037693, 9.943819 
8.000188e+3, 2.3627304e+2, -621969.1, -692969.56, -1636.704, 0.0021849324, 0.008986237, -621931.4, 2593.0457, 0.0, 10.038032, 9.944196 
8.0001867e+3, 2.4621281e+2, -530192.5, -595087.56, -3545.4265, 0.0016311315, 0.001501774, -529999.4, -2884.796, 0.0, 10.032515, 9.946784 
8.000174e+3, 2.56148e+2, -444978.97, -504078.8, 10302.932, 0.0020562839, -0.012880458, -443234.34, -13484.393, 0.0, 10.024177, 9.946128 
8.000166e+3, 2.6610065e+2, -337383.8, -403091.94, 2984.1963, -0.0009850747, -0.003812249, -337248.56, -5033.3203, 0.0, 10.031228, 9.944383 
8.000159e+3, 2.7606466e+2, -213077.52, -290121.4, -21214.975, -0.0038299868, 0.020015398, -207622.02, 26947.32, 0.0, 10.048152, 9.945968 
8.0001223e+3, 2.8598842e+2, -146401.33, -193195.11, 24344.523, 0.009712063, -0.017210172, -136033.3, 1282.6483, 0.0, 10.020183, 9.957565 
