coord_x,coord_y,stress_xx,stress_yy,tau_xy,velocity_x,velocity_y,stress_1,eps,damage,lx,ly
5.0e+0, 1.2499334e+2, -1719946.3, -1724224.6, 0.00004026923, 0.00000000022196461, 0.00001759781, -1719946.3, -4880.965, 0.0, 10.0, 9.994328 
5.0e+0, 1.349876e+2, -1622565.8, -1627434.9, 0.000040369225, 0.00000000021551666, -0.0000684036, -1622565.8, -5444.1777, 0.0, 10.0, 9.993545 
5.0e+0, 1.4497513e+2, -1534464.4, -1548146.3, 0.00003865268, 0.00000000021190771, 0.000070916096, -1534464.4, -15220.686, 0.0, 10.0, 9.981865 
5.0e+0, 1.5495701e+2, -1436736.6, -1450821.9, 0.000028858603, 0.00000000021113619, -0.000056981524, -1436736.6, -15315.503, 0.0, 10.0, 9.981333 
5.0e+0, 1.6493228e+2, -1348685.8, -1371952.4, 0.000027367993, 0.00000000021014492, 0.00004734126, -1348685.8, -25021.996, 0.0, 10.0, 9.969248 
5.0e+0, 1.7490156e+2, -1250727.6, -1274310.1, 0.000024591345, 0.00000000020892924, -0.00007383237, -1250727.6, -24762.977, 0.0, 10.0, 9.968835 
5.0e+0, 1.8486421e+2, -1162646.8, -1195720.1, 0.000023518305, 0.00000000020769762, 0.00006614318, -1162646.8, -34316.027, 0.0, 10.0, 9.956395 
5.0e+0, 1.9482064e+2, -1064497.0, -1097833.0, 0.000012549293, 0.00000000020644919, -0.000057657955, -1064497.0, -33739.363, 0.0, 10.0, 9.956052 
5.0e+0, 2.0477042e+2, -976333.0, -1019435.0, 0.000011459404, 0.00000000020546854, 0.00006807673, -976333.0, -43083.11, 0.0, 10.0, 9.943291 
5.0e+0, 2.1471375e+2, -878046.0, -921409.9, 0.0000093708095, 0.00000000020477782, -0.00012682882, -878046.0, -42240.695, 0.0, 10.0, 9.942949 
5.0e+0, 2.2465037e+2, -789759.9, -843144.9, 0.000009551311, 0.0000000002034354, 0.00012087836, -789759.9, -51333.586, 0.0, 10.0, 9.929908 
5.0e+0, 2.3458035e+2, -691326.4, -744966.44, -0.00000012645994, 0.00000000020135506, -0.00008881921, -691326.4, -50213.82, 0.0, 10.0, 9.929577 
5.0e+0, 2.4450338e+2, -603002.3, -667018.8, -0.00000053609836, 0.00000000020103749, 0.00007470807, -603002.3, -59135.418, 0.0, 10.0, 9.916136 
5.0e+0, 2.5441962e+2, -504249.63, -568343.3, -0.0000032138198, 0.00000000020282617, -0.000106737534, -504249.63, -57562.08, 0.0, 10.0, 9.916036 
5.0e+0, 2.643288e+2, -416014.22, -490987.88, -0.00000085717346, 0.00000000020227581, 0.00014059343, -416014.22, -66436.55, 0.0, 10.0, 9.901964 
5.0e+0, 2.742313e+2, -316729.0, -391374.78, -0.000008696107, 0.0000000001987435, -0.00020344478, -316729.0, -64195.996, 0.0, 10.0, 9.902385 
5.0e+0, 2.841256e+2, -230255.75, -318081.25, -0.0000087147355, 0.00000000019724472, 0.00022904525, -230255.75, -74686.77, 0.0, 10.0, 9.885439 
5.0e+0, 2.940121e+2, -130549.61, -217765.02, -0.000013679853, 0.00000000019854261, -0.00025334352, -130549.61, -71868.21, 0.0, 10.0, 9.886217 
5.0e+0, 3.0392656e+2, -40805.59, -84750.16, -0.00000908969, 0.00000000019974876, 0.00017313573, -40805.59, -40805.59, 0.0, 10.0, 9.942173 
5.0e+0, 3.138706e+2, -39727.58, -82511.21, -0.000010451459, 0.0000000002007924, -0.000055142926, -39727.58, -39727.58, 0.0, 10.0, 9.943685 
1.5e+1, 1.2499334e+2, -1719946.3, -1724224.6, -0.000054575496, 0.00000000066589384, 0.000017597824, -1719946.3, -4880.965, 0.0, 10.0, 9.994328 
1.5e+1, 1.349876e+2, -1622565.8, -1627434.9, -0.000054498516, 0.00000000064655, -0.000068403606, -1622565.8, -5444.1777, 0.0, 10.0, 9.993545 
1.5e+1, 1.4497513e+2, -1534464.4, -1548146.3, -0.00005038153, 0.00000000063572314, 0.000070916096, -1534464.4, -15220.686, 0.0, 10.0, 9.981865 
1.5e+1, 1.5495701e+2, -1436736.6, -1450821.9, -0.00006016697, 0.0000000006334086, -0.00005698151, -1436736.6, -15315.503, 0.0, 10.0, 9.981333 
1.5e+1, 1.6493228e+2, -1348685.8, -1371952.4, -0.00005228434, 0.00000000063043476, 0.00004734127, -1348685.8, -25021.996, 0.0, 10.0, 9.969248 
1.5e+1, 1.7490156e+2, -1250727.6, -1274310.1, -0.000055012224, 0.0000000006267877, -0.00007383239, -1250727.6, -24762.977, 0.0, 10.0, 9.968835 
1.5e+1, 1.8486421e+2, -1162646.8, -1195720.1, -0.00004488983, 0.00000000062309286, 0.00006614317, -1162646.8, -34316.027, 0.0, 10.0, 9.956395 
1.5e+1, 1.9482064e+2, -1064497.0, -1097833.0, -0.000055729957, 0.0000000006193476, -0.00005765794, -1064497.0, -33739.363, 0.0, 10.0, 9.956052 
1.5e+1, 2.0477042e+2, -976333.0, -1019435.0, -0.000045613906, 0.00000000061640565, 0.00006807675, -976333.0, -43083.11, 0.0, 10.0, 9.943291 
1.5e+1, 2.1471375e+2, -878046.0, -921409.9, -0.00004747182, 0.0000000006143335, -0.00012682882, -878046.0, -42240.695, 0.0, 10.0, 9.942949 
1.5e+1, 2.2465037e+2, -789759.9, -843144.9, -0.00003552099, 0.0000000006103062, 0.00012087835, -789759.9, -51333.586, 0.0, 10.0, 9.929908 
1.5e+1, 2.3458035e+2, -691326.4, -744966.44, -0.000044814526, 0.0000000006040652, -0.0000888192, -691326.4, -50213.82, 0.0, 10.0, 9.929577 
1.5e+1, 2.4450338e+2, -603002.3, -667018.8, -0.0000326696, 0.0000000006031125, 0.00007470808, -603002.3, -59135.418, 0.0, 10.0, 9.916136 
1.5e+1, 2.5441962e+2, -504249.63, -568343.3, -0.000034744895, 0.0000000006084785, -0.000106737534, -504249.63, -57562.08, 0.0, 10.0, 9.916036 
1.5e+1, 2.643288e+2, -416014.22, -490987.88, -0.00001705875, 0.0000000006068274, 0.00014059343, -416014.22, -66436.55, 0.0, 10.0, 9.901964 
1.5e+1, 2.742313e+2, -316729.0, -391374.78, -0.00002387087, 0.00000000059623045, -0.00020344478, -316729.0, -64195.996, 0.0, 10.0, 9.902385 
1.5e+1, 2.841256e+2, -230255.75, -318081.25, -0.000009482773, 0.00000000059173416, 0.00022904525, -230255.75, -74686.77, 0.0, 10.0, 9.885439 
1.5e+1, 2.940121e+2, -130549.61, -217765.02, -0.0000131508305, 0.0000000005956278, -0.00025334352, -130549.61, -71868.21, 0.0, 10.0, 9.886217 
1.5e+1, 3.0392656e+2, -40805.59, -84750.16, 0.000008859453, 0.00000000059924626, 0.00017313575, -40805.59, -40805.59, 0.0, 10.0, 9.942173 
1.5e+1, 3.138706e+2, -39727.58, -82511.21, 0.0000095415935, 0.0000000006023772, -0.000055142944, -39727.58, -39727.58, 0.0, 10.0, 9.943685 
2.5e+1, 1.2499334e+2, -1719946.3, -1724224.6, 0.000047313693, 0.0000000011030179, 0.000017597831, -1719946.3, -4880.965, 0.0, 10.0, 9.994328 
2.5e+1, 1.349876e+2, -1622565.8, -1627434.9, 0.000029127837, 0.0000000010783618, -0.0000684036, -1622565.8, -5444.1772, 0.0, 10.0, 9.993545 
2.5e+1, 1.4497513e+2, -1534464.4, -1548146.3, 0.000026388008, 0.0000000010636256, 0.00007091611, -1534464.4, -15220.685, 0.0, 10.0, 9.981865 
2.5e+1, 1.5495701e+2, -1436736.6, -1450821.9, 0.0000033774015, 0.0000000010587772, -0.0000569815, -1436736.6, -15315.503, 0.0, 10.0, 9.981333 
2.5e+1, 1.6493228e+2, -1348685.8, -1371952.4, 0.000006994362, 0.0000000010525689, 0.000047341277, -1348685.8, -25021.996, 0.0, 10.0, 9.969248 
2.5e+1, 1.7490156e+2, -1250727.6, -1274310.1, -0.000009526825, 0.0000000010449721, -0.00007383239, -1250727.6, -24762.975, 0.0, 10.0, 9.968835 
2.5e+1, 1.8486421e+2, -1162646.8, -1195720.1, -0.0000021628518, 0.0000000010383887, 0.00006614317, -1162646.8, -34316.027, 0.0, 10.0, 9.956395 
2.5e+1, 1.9482064e+2, -1064497.0, -1097833.0, -0.000025921643, 0.000000001032865, -0.000057657933, -1064497.0, -33739.363, 0.0, 10.0, 9.956052 
2.5e+1, 2.0477042e+2, -976333.0, -1019435.0, -0.000017580658, 0.0000000010278329, 0.000068076755, -976333.0, -43083.11, 0.0, 10.0, 9.943291 
2.5e+1, 2.1471375e+2, -878046.0, -921409.9, -0.000032800308, 0.0000000010233328, -0.00012682882, -878046.0, -42240.69, 0.0, 10.0, 9.942949 
2.5e+1, 2.2465037e+2, -789759.9, -843144.9, -0.000021340013, 0.0000000010177408, 0.00012087835, -789759.9, -51333.586, 0.0, 10.0, 9.929908 
2.5e+1, 2.3458035e+2, -691326.4, -744966.44, -0.00004172777, 0.0000000010109125, -0.0000888192, -691326.4, -50213.82, 0.0, 10.0, 9.929577 
2.5e+1, 2.4450338e+2, -603002.3, -667018.8, -0.000028887856, 0.0000000010080493, 0.00007470808, -603002.3, -59135.418, 0.0, 10.0, 9.916136 
2.5e+1, 2.5441962e+2, -504249.63, -568343.3, -0.0000441209, 0.0000000010099233, -0.00010673753, -504249.63, -57562.08, 0.0, 10.0, 9.916036 
2.5e+1, 2.643288e+2, -416014.22, -490987.88, -0.00002445169, 0.0000000010070306, 0.00014059343, -416014.22, -66436.55, 0.0, 10.0, 9.901964 
2.5e+1, 2.742313e+2, -316729.0, -391374.78, -0.00004082728, 0.0000000009980594, -0.00020344478, -316729.0, -64195.996, 0.0, 10.0, 9.902385 
2.5e+1, 2.841256e+2, -230255.75, -318081.25, -0.000022778586, 0.0000000009936111, 0.00022904525, -230255.75, -74686.77, 0.0, 10.0, 9.885439 
2.5e+1, 2.940121e+2, -130549.6, -217765.02, -0.000037159785, 0.0000000009953796, -0.00025334352, -130549.6, -71868.21, 0.0, 10.0, 9.886217 
2.5e+1, 3.0392656e+2, -40805.59, -84750.16, -0.000010238229, 0.0000000009984873, 0.00017313575, -40805.59, -40805.59, 0.0, 10.0, 9.942173 
2.5e+1, 3.138706e+2, -39727.58, -82511.21, -0.000018619576, 0.0000000010035246, -0.000055142955, -39727.58, -39727.58, 0.0, 10.0, 9.943685 
3.5e+1, 1.2499334e+2, -1719946.3, -1724224.6, -0.000051481475, 0.0000000015333368, 0.000017597828, -1719946.3, -4880.965, 0.0, 10.0, 9.994328 
3.5e+1, 1.349876e+2, -1622565.8, -1627434.9, -0.00006969115, 0.0000000015109524, -0.00006840359, -1622565.8, -5444.1777, 0.0, 10.0, 9.993545 
3.5e+1, 1.4497513e+2, -1534464.4, -1548146.3, -0.00006124004, 0.0000000014956152, 0.00007091614, -1534464.4, -15220.685, 0.0, 10.0, 9.981865 
3.5e+1, 1.5495701e+2, -1436736.6, -1450822.0, -0.00008423376, 0.000000001487242, -0.00005698149, -1436736.6, -15315.503, 0.0, 10.0, 9.981333 
3.5e+1, 1.6493228e+2, -1348685.8, -1371952.4, -0.00007212691, 0.0000000014765476, 0.000047341277, -1348685.8, -25021.996, 0.0, 10.0, 9.969248 
3.5e+1, 1.7490156e+2, -1250727.6, -1274310.1, -0.00008860401, 0.0000000014634824, -0.00007383238, -1250727.6, -24762.975, 0.0, 10.0, 9.968835 
3.5e+1, 1.8486421e+2, -1162646.8, -1195720.1, -0.00007162695, 0.0000000014535851, 0.00006614318, -1162646.8, -34316.027, 0.0, 10.0, 9.956395 
3.5e+1, 1.9482064e+2, -1064497.0, -1097833.0, -0.00009527515, 0.0000000014470014, -0.00005765793, -1064497.0, -33739.363, 0.0, 10.0, 9.956052 
3.5e+1, 2.0477042e+2, -976333.0, -1019435.0, -0.00007553911, 0.0000000014397503, 0.000068076755, -976333.0, -43083.11, 0.0, 10.0, 9.943291 
3.5e+1, 2.1471375e+2, -878046.0, -921409.9, -0.000090524176, 0.0000000014317756, -0.00012682882, -878046.0, -42240.69, 0.0, 10.0, 9.942949 
3.5e+1, 2.2465037e+2, -789759.9, -843144.9, -0.00006693768, 0.0000000014257393, 0.00012087836, -789759.9, -51333.586, 0.0, 10.0, 9.929908 
3.5e+1, 2.3458035e+2, -691326.4, -744966.44, -0.00008692956, 0.0000000014218968, -0.0000888192, -691326.4, -50213.82, 0.0, 10.0, 9.929577 
3.5e+1, 2.4450338e+2, -603002.3, -667018.8, -0.0000604113, 0.0000000014158481, 0.00007470808, -603002.3, -59135.418, 0.0, 10.0, 9.916136 
3.5e+1, 2.5441962e+2, -504249.63, -568343.3, -0.00007498792, 0.0000000014071605, -0.00010673752, -504249.63, -57562.08, 0.0, 10.0, 9.916036 
3.5e+1, 2.643288e+2, -416014.22, -490987.88, -0.00004206133, 0.0000000014028854, 0.00014059345, -416014.22, -66436.55, 0.0, 10.0, 9.901964 
3.5e+1, 2.742313e+2, -316729.0, -391374.78, -0.000057549038, 0.0000000014042305, -0.00020344478, -316729.0, -64195.996, 0.0, 10.0, 9.902385 
3.5e+1, 2.841256e+2, -230255.75, -318081.25, -0.000024213105, 0.0000000014028755, 0.00022904524, -230255.75, -74686.77, 0.0, 10.0, 9.885439 
3.5e+1, 2.940121e+2, -130549.6, -217765.02, -0.000037217924, 0.0000000013977979, -0.00025334352, -130549.6, -71868.21, 0.0, 10.0, 9.886217 
3.5e+1, 3.0392656e+2, -40805.59, -84750.16, 0.0000046573086, 0.0000000013974719, 0.00017313575, -40805.59, -40805.59, 0.0, 10.0, 9.942173 
3.5e+1, 3.138706e+2, -39727.58, -82511.21, -0.0000019696893, 0.0000000014042345, -0.000055142955, -39727.58, -39727.58, 0.0, 10.0, 9.943685 
4.5e+1, 1.2499334e+2, -1719946.3, -1724224.6, 0.00006859876, 0.0000000019649506, 0.000017597826, -1719946.3, -4880.9644, 0.0, 10.0, 9.994328 
4.5e+1, 1.349876e+2, -1622565.8, -1627434.9, 0.00001833256, 0.000000001941767, -0.00006840358, -1622565.8, -5444.1772, 0.0, 10.0, 9.993545 
4.5e+1, 1.4497513e+2, -1534464.4, -1548146.3, 0.00001827886, 0.0000000019252604, 0.00007091616, -1534464.4, -15220.685, 0.0, 10.0, 9.981865 
4.5e+1, 1.5495701e+2, -1436736.6, -1450821.9, -0.00001245207, 0.0000000019153124, -0.00005698149, -1436736.6, -15315.502, 0.0, 10.0, 9.981333 
4.5e+1, 1.6493228e+2, -1348685.8, -1371952.4, -0.0000062574577, 0.0000000019019084, 0.000047341277, -1348685.8, -25021.996, 0.0, 10.0, 9.969248 
4.5e+1, 1.7490156e+2, -1250727.6, -1274310.1, -0.000047184098, 0.0000000018849753, -0.00007383236, -1250727.6, -24762.975, 0.0, 10.0, 9.968835 
4.5e+1, 1.8486421e+2, -1162646.8, -1195720.1, -0.000033873257, 0.0000000018719282, 0.0000661432, -1162646.8, -34316.027, 0.0, 10.0, 9.956395 
4.5e+1, 1.9482064e+2, -1064497.0, -1097833.0, -0.00005950414, 0.0000000018629456, -0.000057657933, -1064497.0, -33739.363, 0.0, 10.0, 9.956052 
4.5e+1, 2.0477042e+2, -976333.0, -1019435.0, -0.00004047057, 0.0000000018531108, 0.000068076755, -976333.0, -43083.11, 0.0, 10.0, 9.943291 
4.5e+1, 2.1471375e+2, -878046.0, -921409.9, -0.00007848126, 0.0000000018423514, -0.0001268288, -878046.0, -42240.69, 0.0, 10.0, 9.942949 
4.5e+1, 2.2465037e+2, -789759.9, -843144.9, -0.000057200952, 0.0000000018351752, 0.00012087838, -789759.9, -51333.586, 0.0, 10.0, 9.929908 
4.5e+1, 2.3458035e+2, -691326.4, -744966.44, -0.00008132205, 0.0000000018320541, -0.0000888192, -691326.4, -50213.82, 0.0, 10.0, 9.929577 
4.5e+1, 2.4450338e+2, -603002.3, -667018.8, -0.000051342595, 0.0000000018237845, 0.00007470808, -603002.3, -59135.418, 0.0, 10.0, 9.916136 
4.5e+1, 2.5441962e+2, -504249.63, -568343.3, -0.00008391072, 0.0000000018093593, -0.00010673751, -504249.63, -57562.08, 0.0, 10.0, 9.916036 
4.5e+1, 2.643288e+2, -416014.22, -490987.88, -0.000052677762, 0.0000000018040327, 0.00014059346, -416014.22, -66436.55, 0.0, 10.0, 9.901964 
4.5e+1, 2.742313e+2, -316729.0, -391374.78, -0.00007489568, 0.000000001810298, -0.00020344478, -316729.0, -64195.996, 0.0, 10.0, 9.902385 
4.5e+1, 2.841256e+2, -230255.75, -318081.25, -0.00003454141, 0.0000000018103838, 0.00022904524, -230255.75, -74686.77, 0.0, 10.0, 9.885439 
4.5e+1, 2.940121e+2, -130549.6, -217765.02, -0.000058458856, 0.0000000018019571, -0.00025334352, -130549.6, -71868.21, 0.0, 10.0, 9.886217 
4.5e+1, 3.0392656e+2, -40805.59, -84750.16, -0.000016360336, 0.0000000017982332, 0.00017313575, -40805.59, -40805.59, 0.0, 10.0, 9.942173 
4.5e+1, 3.138706e+2, -39727.58, -82511.21, -0.00004179577, 0.0000000018015709, -0.000055142944, -39727.58, -39727.58, 0.0, 10.0, 9.943685 
5.5e+1, 1.2499334e+2, -1719946.3, -1724224.6, -0.000033742006, 0.0000000023978595, 0.000017597828, -1719946.3, -4880.9644, 0.0, 10.0, 9.994328 
5.5e+1, 1.349876e+2, -1622565.8, -1627434.9, -0.00008403304, 0.0000000023708056, -0.00006840357, -1622565.8, -5444.1772, 0.0, 10.0, 9.993545 
5.5e+1, 1.4497513e+2, -1534464.4, -1548146.3, -0.000073182215, 0.0000000023525608, 0.00007091619, -1534464.4, -15220.685, 0.0, 10.0, 9.981865 
5.5e+1, 1.5495701e+2, -1436736.6, -1450822.0, -0.00010389666, 0.0000000023429882, -0.000056981495, -1436736.6, -15315.503, 0.0, 10.0, 9.981333 
5.5e+1, 1.6493228e+2, -1348685.8, -1371952.4, -0.00008667307, 0.0000000023286517, 0.000047341273, -1348685.8, -25021.996, 0.0, 10.0, 9.969248 
5.5e+1, 1.7490156e+2, -1250727.6, -1274310.1, -0.00012754221, 0.0000000023094509, -0.00007383232, -1250727.6, -24762.975, 0.0, 10.0, 9.968835 
5.5e+1, 1.8486421e+2, -1162646.8, -1195720.1, -0.000104599094, 0.0000000022934177, 0.000066143235, -1162646.8, -34316.027, 0.0, 10.0, 9.956395 
5.5e+1, 1.9482064e+2, -1064497.0, -1097833.0, -0.0001301192, 0.0000000022806974, -0.000057657937, -1064497.0, -33739.363, 0.0, 10.0, 9.956052 
5.5e+1, 2.0477042e+2, -976333.0, -1019435.0, -0.000099904486, 0.000000002267914, 0.00006807674, -976333.0, -43083.11, 0.0, 10.0, 9.943291 
5.5e+1, 2.1471375e+2, -878046.0, -921409.9, -0.00013768501, 0.0000000022550604, -0.00012682877, -878046.0, -42240.69, 0.0, 10.0, 9.942949 
5.5e+1, 2.2465037e+2, -789759.9, -843144.9, -0.00010449675, 0.0000000022460487, 0.0001208784, -789759.9, -51333.586, 0.0, 10.0, 9.929908 
5.5e+1, 2.3458035e+2, -691326.4, -744966.44, -0.0001282291, 0.0000000022413842, -0.00008881919, -691326.4, -50213.82, 0.0, 10.0, 9.929577 
5.5e+1, 2.4450338e+2, -603002.3, -667018.8, -0.00008333454, 0.0000000022318585, 0.00007470808, -603002.3, -59135.418, 0.0, 10.0, 9.916136 
5.5e+1, 2.5441962e+2, -504249.63, -568343.3, -0.00011518682, 0.0000000022165199, -0.00010673751, -504249.63, -57562.08, 0.0, 10.0, 9.916036 
5.5e+1, 2.643288e+2, -416014.22, -490987.88, -0.00007309877, 0.0000000022104727, 0.00014059346, -416014.22, -66436.55, 0.0, 10.0, 9.901964 
5.5e+1, 2.742313e+2, -316729.0, -391374.78, -0.000094589894, 0.0000000022162623, -0.00020344477, -316729.0, -64195.996, 0.0, 10.0, 9.902385 
5.5e+1, 2.841256e+2, -230255.75, -318081.25, -0.00003630063, 0.0000000022161362, 0.00022904525, -230255.75, -74686.77, 0.0, 10.0, 9.885439 
5.5e+1, 2.940121e+2, -130549.6, -217765.02, -0.00005860314, 0.0000000022078575, -0.00025334352, -130549.6, -71868.21, 0.0, 10.0, 9.886217 
5.5e+1, 3.0392656e+2, -40805.59, -84750.16, -0.0000001554537, 0.0000000022007711, 0.00017313575, -40805.59, -40805.59, 0.0, 10.0, 9.942173 
5.5e+1, 3.138706e+2, -39727.58, -82511.21, -0.000023672752, 0.0000000021955338, -0.00005514292, -39727.58, -39727.58, 0.0, 10.0, 9.943685 
6.5e+1, 1.2499334e+2, -1719946.3, -1724224.6, 0.00005583951, 0.0000000028460143, 0.000017597875, -1719946.3, -4880.964, 0.0, 10.0, 9.994328 
6.5e+1, 1.349876e+2, -1622565.8, -1627434.9, 0.0000037108066, 0.0000000028057452, -0.00006840357, -1622565.8, -5444.177, 0.0, 10.0, 9.993545 
6.5e+1, 1.4497513e+2, -1534464.4, -1548146.3, 0.000013086458, 0.000000002780647, 0.00007091621, -1534464.4, -15220.684, 0.0, 10.0, 9.981865 
6.5e+1, 1.5495701e+2, -1436736.6, -1450821.9, -0.000037465667, 0.000000002770593, -0.000056981477, -1436736.6, -15315.502, 0.0, 10.0, 9.981333 
6.5e+1, 1.6493228e+2, -1348685.8, -1371952.4, -0.000024736719, 0.000000002755762, 0.00004734129, -1348685.8, -25021.996, 0.0, 10.0, 9.969248 
6.5e+1, 1.7490156e+2, -1250727.6, -1274310.1, -0.000076778844, 0.0000000027360534, -0.00007383231, -1250727.6, -24762.975, 0.0, 10.0, 9.968835 
6.5e+1, 1.8486421e+2, -1162646.8, -1195720.1, -0.00005676415, 0.0000000027177942, 0.00006614324, -1162646.8, -34316.027, 0.0, 10.0, 9.956395 
6.5e+1, 1.9482064e+2, -1064497.0, -1097833.0, -0.0000997638, 0.0000000027010496, -0.00005765792, -1064497.0, -33739.36, 0.0, 10.0, 9.956052 
6.5e+1, 2.0477042e+2, -976333.0, -1019435.0, -0.0000713541, 0.0000000026856524, 0.000068076755, -976333.0, -43083.105, 0.0, 10.0, 9.943291 
6.5e+1, 2.1471375e+2, -878046.0, -921409.9, -0.00011726068, 0.0000000026717126, -0.00012682877, -878046.0, -42240.69, 0.0, 10.0, 9.942949 
6.5e+1, 2.2465037e+2, -789759.9, -843144.9, -0.000084456944, 0.0000000026597777, 0.00012087841, -789759.9, -51333.586, 0.0, 10.0, 9.929908 
6.5e+1, 2.3458035e+2, -691326.4, -744966.44, -0.00012555395, 0.00000000265011, -0.00008881918, -691326.4, -50213.82, 0.0, 10.0, 9.929577 
6.5e+1, 2.4450338e+2, -603002.3, -667018.8, -0.00008007782, 0.0000000026404867, 0.000074708085, -603002.3, -59135.418, 0.0, 10.0, 9.916136 
6.5e+1, 2.5441962e+2, -504249.63, -568343.3, -0.00011796031, 0.000000002630912, -0.00010673751, -504249.63, -57562.08, 0.0, 10.0, 9.916036 
6.5e+1, 2.643288e+2, -416014.22, -490987.88, -0.00007307336, 0.0000000026240448, 0.00014059346, -416014.22, -66436.55, 0.0, 10.0, 9.901964 
6.5e+1, 2.742313e+2, -316729.0, -391374.78, -0.00011100767, 0.0000000026206208, -0.00020344477, -316729.0, -64195.996, 0.0, 10.0, 9.902385 
6.5e+1, 2.841256e+2, -230255.73, -318081.25, -0.00005182656, 0.0000000026168345, 0.00022904525, -230255.73, -74686.766, 0.0, 10.0, 9.885439 
6.5e+1, 2.940121e+2, -130549.6, -217765.02, -0.00008447, 0.0000000026125344, -0.00025334352, -130549.6, -71868.21, 0.0, 10.0, 9.886217 
6.5e+1, 3.0392656e+2, -40805.59, -84750.16, -0.00001927704, 0.000000002606556, 0.00017313575, -40805.59, -40805.59, 0.0, 10.0, 9.942173 
6.5e+1, 3.138706e+2, -39727.58, -82511.21, -0.000050987564, 0.0000000025980953, -0.000055142915, -39727.58, -39727.58, 0.0, 10.0, 9.943685 
7.5e+1, 1.2499334e+2, -1719946.3, -1724224.6, -0.000046700196, 0.000000003309415, 0.000017597966, -1719946.3, -4880.964, 0.0, 10.0, 9.994328 
7.5e+1, 1.349876e+2, -1622565.8, -1627434.9, -0.000098853896, 0.0000000032465857, -0.00006840358, -1622565.8, -5444.177, 0.0, 10.0, 9.993545 
7.5e+1, 1.4497513e+2, -1534464.4, -1548146.3, -0.00008256377, 0.000000003209519, 0.00007091621, -1534464.4, -15220.685, 0.0, 10.0, 9.981865 
7.5e+1, 1.5495701e+2, -1436736.6, -1450821.9, -0.00013310566, 0.0000000031981269, -0.000056981433, -1436736.6, -15315.502, 0.0, 10.0, 9.981333 
7.5e+1, 1.6493228e+2, -1348685.8, -1371952.4, -0.000109923065, 0.0000000031832397, 0.00004734133, -1348685.8, -25021.996, 0.0, 10.0, 9.969248 
7.5e+1, 1.7490156e+2, -1250727.6, -1274310.1, -0.00016191075, 0.0000000031647833, -0.000073832314, -1250727.6, -24762.975, 0.0, 10.0, 9.968835 
7.5e+1, 1.8486421e+2, -1162646.8, -1195720.1, -0.00012931367, 0.000000003145058, 0.000066143235, -1162646.8, -34316.027, 0.0, 10.0, 9.956395 
7.5e+1, 1.9482064e+2, -1064497.0, -1097833.0, -0.00017216837, 0.0000000031240022, -0.000057657882, -1064497.0, -33739.363, 0.0, 10.0, 9.956052 
7.5e+1, 2.0477042e+2, -976333.0, -1019435.0, -0.00013268102, 0.0000000031063259, 0.0000680768, -976333.0, -43083.11, 0.0, 10.0, 9.943291 
7.5e+1, 2.1471375e+2, -878046.0, -921409.9, -0.0001783596, 0.000000003092308, -0.00012682877, -878046.0, -42240.69, 0.0, 10.0, 9.942949 
7.5e+1, 2.2465037e+2, -789759.9, -843144.9, -0.00013309025, 0.0000000030763623, 0.000120878394, -789759.9, -51333.586, 0.0, 10.0, 9.929908 
7.5e+1, 2.3458035e+2, -691326.4, -744966.44, -0.0001737803, 0.0000000030582314, -0.00008881916, -691326.4, -50213.82, 0.0, 10.0, 9.929577 
7.5e+1, 2.4450338e+2, -603002.3, -667018.8, -0.00011685851, 0.0000000030496687, 0.000074708114, -603002.3, -59135.418, 0.0, 10.0, 9.916136 
7.5e+1, 2.5441962e+2, -504249.63, -568343.3, -0.00015419189, 0.0000000030525358, -0.00010673751, -504249.63, -57562.08, 0.0, 10.0, 9.916036 
7.5e+1, 2.643288e+2, -416014.22, -490987.88, -0.000091967966, 0.000000003044749, 0.00014059345, -416014.22, -66436.55, 0.0, 10.0, 9.901964 
7.5e+1, 2.742313e+2, -316729.0, -391374.78, -0.00012874094, 0.0000000030233738, -0.00020344475, -316729.0, -64195.996, 0.0, 10.0, 9.902385 
7.5e+1, 2.841256e+2, -230255.73, -318081.25, -0.000055599838, 0.0000000030124792, 0.00022904527, -230255.73, -74686.766, 0.0, 10.0, 9.885439 
7.5e+1, 2.940121e+2, -130549.6, -217765.02, -0.000086986525, 0.000000003015988, -0.0002533435, -130549.6, -71868.21, 0.0, 10.0, 9.886217 
7.5e+1, 3.0392656e+2, -40805.59, -84750.16, -0.0000030310105, 0.0000000030155882, 0.00017313575, -40805.59, -40805.59, 0.0, 10.0, 9.942173 
7.5e+1, 3.138706e+2, -39727.58, -82511.21, -0.000032540112, 0.0000000030092557, -0.000055142937, -39727.58, -39727.58, 0.0, 10.0, 9.943685 
8.5e+1, 1.2499334e+2, -1719946.3, -1724224.6, 0.00003718742, 0.0000000037721386, 0.000017598031, -1719946.3, -4880.963, 0.0, 10.0, 9.994328 
8.5e+1, 1.349876e+2, -1622565.8, -1627434.9, -0.000012727443, 0.0000000036967418, -0.00006840358, -1622565.8, -5444.176, 0.0, 10.0, 9.993545 
8.5e+1, 1.4497513e+2, -1534464.4, -1548146.3, 0.0000011115849, 0.000000003650966, 0.00007091624, -1534464.4, -15220.684, 0.0, 10.0, 9.981865 
8.5e+1, 1.5495701e+2, -1436736.6, -1450821.9, -0.00007184431, 0.0000000036347174, -0.00005698139, -1436736.6, -15315.501, 0.0, 10.0, 9.981333 
8.5e+1, 1.6493228e+2, -1348685.8, -1371952.4, -0.00005011794, 0.0000000036157024, 0.000047341364, -1348685.8, -25021.994, 0.0, 10.0, 9.969248 
8.5e+1, 1.7490156e+2, -1250727.6, -1274310.1, -0.00010087297, 0.0000000035938625, -0.000073832314, -1250727.6, -24762.975, 0.0, 10.0, 9.968835 
8.5e+1, 1.8486421e+2, -1162646.8, -1195720.1, -0.000070205075, 0.000000003571954, 0.000066143235, -1162646.8, -34316.027, 0.0, 10.0, 9.956395 
8.5e+1, 1.9482064e+2, -1064497.0, -1097833.0, -0.00014315805, 0.0000000035499719, -0.000057657846, -1064497.0, -33739.36, 0.0, 10.0, 9.956052 
8.5e+1, 2.0477042e+2, -976333.0, -1019435.0, -0.00010773274, 0.0000000035307257, 0.000068076835, -976333.0, -43083.105, 0.0, 10.0, 9.943291 
8.5e+1, 2.1471375e+2, -878046.0, -921409.9, -0.00015351205, 0.0000000035144414, -0.00012682877, -878046.0, -42240.69, 0.0, 10.0, 9.942949 
8.5e+1, 2.2465037e+2, -789759.9, -843144.9, -0.000105402076, 0.0000000034962395, 0.000120878394, -789759.9, -51333.586, 0.0, 10.0, 9.929908 
8.5e+1, 2.3458035e+2, -691326.4, -744966.44, -0.00016708241, 0.0000000034758634, -0.00008881914, -691326.4, -50213.82, 0.0, 10.0, 9.929577 
8.5e+1, 2.4450338e+2, -603002.3, -667018.8, -0.00011394373, 0.000000003465892, 0.000074708136, -603002.3, -59135.418, 0.0, 10.0, 9.916136 
8.5e+1, 2.5441962e+2, -504249.63, -568343.3, -0.00015871812, 0.000000003468349, -0.000106737505, -504249.63, -57562.074, 0.0, 10.0, 9.916036 
8.5e+1, 2.643288e+2, -416014.22, -490987.88, -0.00008931663, 0.000000003458802, 0.00014059345, -416014.22, -66436.55, 0.0, 10.0, 9.901964 
8.5e+1, 2.742313e+2, -316729.0, -391374.78, -0.00013993678, 0.0000000034339451, -0.00020344475, -316729.0, -64195.996, 0.0, 10.0, 9.902385 
8.5e+1, 2.841256e+2, -230255.73, -318081.25, -0.0000680388, 0.0000000034209915, 0.00022904528, -230255.73, -74686.766, 0.0, 10.0, 9.885439 
8.5e+1, 2.940121e+2, -130549.6, -217765.02, -0.00011023306, 0.0000000034243965, -0.0002533435, -130549.6, -71868.21, 0.0, 10.0, 9.886217 
8.5e+1, 3.0392656e+2, -40805.59, -84750.16, -0.0000148249455, 0.000000003427177, 0.00017313575, -40805.59, -40805.59, 0.0, 10.0, 9.942173 
8.5e+1, 3.138706e+2, -39727.58, -82511.21, -0.000039598686, 0.0000000034288798, -0.000055142962, -39727.58, -39727.58, 0.0, 10.0, 9.943685 
9.5e+1, 1.2499334e+2, -1719946.3, -1724224.6, -0.00006575914, 0.0000000042341854, 0.00001759807, -1719946.3, -4880.9634, 0.0, 10.0, 9.994328 
9.5e+1, 1.349876e+2, -1622565.8, -1627434.9, -0.00011569895, 0.0000000041562136, -0.000068403555, -1622565.8, -5444.176, 0.0, 10.0, 9.993545 
9.5e+1, 1.4497513e+2, -1534464.4, -1548146.3, -0.00009443553, 0.000000004104988, 0.00007091629, -1534464.4, -15220.684, 0.0, 10.0, 9.981865 
9.5e+1, 1.5495701e+2, -1436736.6, -1450822.0, -0.00016738038, 0.0000000040803645, -0.000056981346, -1436736.6, -15315.501, 0.0, 10.0, 9.981333 
9.5e+1, 1.6493228e+2, -1348685.8, -1371952.4, -0.00013821019, 0.0000000040531507, 0.000047341393, -1348685.8, -25021.994, 0.0, 10.0, 9.969248 
9.5e+1, 1.7490156e+2, -1250727.6, -1274310.1, -0.00018892664, 0.0000000040232906, -0.00007383231, -1250727.6, -24762.975, 0.0, 10.0, 9.968835 
9.5e+1, 1.8486421e+2, -1162646.8, -1195720.1, -0.0001470857, 0.000000003998483, 0.00006614324, -1162646.8, -34316.027, 0.0, 10.0, 9.956395 
9.5e+1, 1.9482064e+2, -1064497.0, -1097833.0, -0.00021991004, 0.0000000039789585, -0.000057657817, -1064497.0, -33739.36, 0.0, 10.0, 9.956052 
9.5e+1, 2.0477042e+2, -976333.0, -1019435.0, -0.00017235526, 0.000000003958852, 0.000068076864, -976333.0, -43083.105, 0.0, 10.0, 9.943291 
9.5e+1, 2.1471375e+2, -878046.0, -921409.9, -0.00021788481, 0.000000003938113, -0.00012682876, -878046.0, -42240.69, 0.0, 10.0, 9.942949 
9.5e+1, 2.2465037e+2, -789759.9, -843144.9, -0.00015656973, 0.000000003919409, 0.0001208784, -789759.9, -51333.586, 0.0, 10.0, 9.929908 
9.5e+1, 2.3458035e+2, -691326.4, -744966.44, -0.00021781895, 0.000000003903006, -0.000088819135, -691326.4, -50213.82, 0.0, 10.0, 9.929577 
9.5e+1, 2.4450338e+2, -603002.3, -667018.8, -0.00015333152, 0.000000003889156, 0.00007470815, -603002.3, -59135.418, 0.0, 10.0, 9.916136 
9.5e+1, 2.5441962e+2, -504249.63, -568343.3, -0.00019756149, 0.0000000038783514, -0.00010673748, -504249.63, -57562.074, 0.0, 10.0, 9.916036 
9.5e+1, 2.643288e+2, -416014.22, -490987.88, -0.00010911702, 0.0000000038662034, 0.00014059346, -416014.22, -66436.55, 0.0, 10.0, 9.901964 
9.5e+1, 2.742313e+2, -316729.0, -391374.78, -0.00015846145, 0.0000000038523345, -0.00020344475, -316729.0, -64195.996, 0.0, 10.0, 9.902385 
9.5e+1, 2.841256e+2, -230255.73, -318081.25, -0.00007549831, 0.0000000038423718, 0.00022904528, -230255.73, -74686.766, 0.0, 10.0, 9.885439 
9.5e+1, 2.940121e+2, -130549.6, -217765.02, -0.000116696734, 0.0000000038377603, -0.0002533435, -130549.6, -71868.21, 0.0, 10.0, 9.886217 
9.5e+1, 3.0392656e+2, -40805.59, -84750.16, -0.0000056501553, 0.000000003841322, 0.00017313576, -40805.59, -40805.59, 0.0, 10.0, 9.942173 
9.5e+1, 3.138706e+2, -39727.58, -82511.21, -0.000028589277, 0.0000000038569676, -0.000055142995, -39727.58, -39727.58, 0.0, 10.0, 9.943685 
1.05e+2, 1.2499334e+2, -1719946.3, -1724224.6, 0.000079824575, 0.0000000046833, 0.00001759806, -1719946.3, -4880.962, 0.0, 10.0, 9.994328 
1.05e+2, 1.349876e+2, -1622565.8, -1627434.9, -0.000018254368, 0.0000000046091517, -0.000068403526, -1622565.8, -5444.175, 0.0, 10.0, 9.993545 
1.05e+2, 1.4497513e+2, -1534464.4, -1548146.3, -0.00001107802, 0.0000000045583843, 0.00007091637, -1534464.4, -15220.683, 0.0, 10.0, 9.981865 
1.05e+2, 1.5495701e+2, -1436736.6, -1450821.9, -0.00008590982, 0.0000000045308113, -0.000056981335, -1436736.6, -15315.5, 0.0, 10.0, 9.981333 
1.05e+2, 1.6493228e+2, -1348685.8, -1371952.4, -0.00006112807, 0.0000000044979034, 0.000047341393, -1348685.8, -25021.994, 0.0, 10.0, 9.969248 
1.05e+2, 1.7490156e+2, -1250727.6, -1274310.1, -0.00013962635, 0.0000000044595465, -0.00007383226, -1250727.6, -24762.973, 0.0, 10.0, 9.968835 
1.05e+2, 1.8486421e+2, -1162646.8, -1195720.1, -0.000101968544, 0.0000000044306545, 0.000066143286, -1162646.8, -34316.027, 0.0, 10.0, 9.956395 
1.05e+2, 1.9482064e+2, -1064497.0, -1097833.0, -0.00017276351, 0.0000000044116626, -0.000057657813, -1064497.0, -33739.36, 0.0, 10.0, 9.956052 
1.05e+2, 2.0477042e+2, -976333.0, -1019435.0, -0.00012538339, 0.000000004389822, 0.000068076864, -976333.0, -43083.105, 0.0, 10.0, 9.943291 
1.05e+2, 2.1471375e+2, -878046.0, -921409.9, -0.00019934995, 0.0000000043648933, -0.00012682873, -878046.0, -42240.69, 0.0, 10.0, 9.942949 
1.05e+2, 2.2465037e+2, -789759.9, -843144.9, -0.00014061233, 0.0000000043458948, 0.00012087843, -789759.9, -51333.586, 0.0, 10.0, 9.929908 
1.05e+2, 2.3458035e+2, -691326.4, -744966.44, -0.0002024995, 0.000000004333608, -0.00008881913, -691326.4, -50213.82, 0.0, 10.0, 9.929577 
1.05e+2, 2.4450338e+2, -603002.3, -667018.8, -0.00013460552, 0.000000004315709, 0.00007470815, -603002.3, -59135.418, 0.0, 10.0, 9.916136 
1.05e+2, 2.5441962e+2, -504249.63, -568343.3, -0.00020241167, 0.0000000042910955, -0.00010673746, -504249.63, -57562.074, 0.0, 10.0, 9.916036 
1.05e+2, 2.643288e+2, -416014.22, -490987.88, -0.00011618174, 0.0000000042773958, 0.00014059349, -416014.22, -66436.55, 0.0, 10.0, 9.901964 
1.05e+2, 2.742313e+2, -316729.0, -391374.78, -0.00016758895, 0.000000004277597, -0.00020344475, -316729.0, -64195.996, 0.0, 10.0, 9.902385 
1.05e+2, 2.841256e+2, -230255.73, -318081.25, -0.00007533906, 0.0000000042724584, 0.00022904527, -230255.73, -74686.766, 0.0, 10.0, 9.885439 
1.05e+2, 2.940121e+2, -130549.6, -217765.02, -0.0001273847, 0.000000004259945, -0.0002533435, -130549.6, -71868.21, 0.0, 10.0, 9.886217 
1.05e+2, 3.0392656e+2, -40805.59, -84750.16, -0.000017424421, 0.0000000042584523, 0.00017313575, -40805.59, -40805.59, 0.0, 10.0, 9.942173 
1.05e+2, 3.138706e+2, -39727.58, -82511.21, -0.00006146948, 0.0000000042733905, -0.000055142984, -39727.58, -39727.58, 0.0, 10.0, 9.943685 
1.15e+2, 1.2499334e+2, -1719946.3, -1724224.6, -0.000034452987, 0.0000000051194826, 0.000017598002, -1719946.3, -4880.9624, 0.0, 10.0, 9.994328 
1.15e+2, 1.349876e+2, -1622565.8, -1627434.9, -0.00013255989, 0.000000005055556, -0.00006840348, -1622565.8, -5444.1753, 0.0, 10.0, 9.993545 
1.15e+2, 1.4497513e+2, -1534464.4, -1548146.3, -0.0001116165, 0.0000000050111555, 0.000070916474, -1534464.4, -15220.683, 0.0, 10.0, 9.981865 
1.15e+2, 1.5495701e+2, -1436736.6, -1450822.0, -0.00018642716, 0.0000000049860573, -0.00005698135, -1436736.6, -15315.5, 0.0, 10.0, 9.981333 
1.15e+2, 1.6493228e+2, -1348685.8, -1371952.4, -0.00014923589, 0.00000000494996, 0.00004734137, -1348685.8, -25021.994, 0.0, 10.0, 9.969248 
1.15e+2, 1.7490156e+2, -1250727.6, -1274310.1, -0.00022766938, 0.0000000049026303, -0.00007383218, -1250727.6, -24762.973, 0.0, 10.0, 9.968835 
1.15e+2, 1.8486421e+2, -1162646.8, -1195720.1, -0.00018356403, 0.000000004868469, 0.00006614337, -1162646.8, -34316.027, 0.0, 10.0, 9.956395 
1.15e+2, 1.9482064e+2, -1064497.0, -1097833.0, -0.00025428506, 0.0000000048480846, -0.000057657835, -1064497.0, -33739.36, 0.0, 10.0, 9.956052 
1.15e+2, 2.0477042e+2, -976333.0, -1019435.0, -0.00019448319, 0.0000000048236357, 0.00006807683, -976333.0, -43083.105, 0.0, 10.0, 9.943291 
1.15e+2, 2.1471375e+2, -878046.0, -921409.9, -0.000268194, 0.000000004794782, -0.00012682867, -878046.0, -42240.69, 0.0, 10.0, 9.942949 
1.15e+2, 2.2465037e+2, -789759.9, -843144.9, -0.00019670534, 0.000000004775697, 0.000120878496, -789759.9, -51333.586, 0.0, 10.0, 9.929908 
1.15e+2, 2.3458035e+2, -691326.4, -744966.44, -0.0002581762, 0.0000000047676703, -0.00008881913, -691326.4, -50213.82, 0.0, 10.0, 9.929577 
1.15e+2, 2.4450338e+2, -603002.3, -667018.8, -0.00017190375, 0.00000000474555, 0.00007470813, -603002.3, -59135.418, 0.0, 10.0, 9.916136 
1.15e+2, 2.5441962e+2, -504249.63, -568343.3, -0.00023882769, 0.0000000047065813, -0.00010673744, -504249.63, -57562.074, 0.0, 10.0, 9.916036 
1.15e+2, 2.643288e+2, -416014.22, -490987.88, -0.00014639206, 0.0000000046923794, 0.00014059353, -416014.22, -66436.55, 0.0, 10.0, 9.901964 
1.15e+2, 2.742313e+2, -316729.0, -391374.78, -0.0001973843, 0.0000000047097326, -0.00020344474, -316729.0, -64195.996, 0.0, 10.0, 9.902385 
1.15e+2, 2.841256e+2, -230255.73, -318081.25, -0.00008402661, 0.0000000047112514, 0.00022904527, -230255.73, -74686.766, 0.0, 10.0, 9.885439 
1.15e+2, 2.940121e+2, -130549.6, -217765.02, -0.00013417155, 0.0000000046909507, -0.00025334352, -130549.6, -71868.21, 0.0, 10.0, 9.886217 
1.15e+2, 3.0392656e+2, -40805.59, -84750.16, -0.000009080423, 0.000000004678568, 0.00017313575, -40805.59, -40805.59, 0.0, 10.0, 9.942173 
1.15e+2, 3.138706e+2, -39727.58, -82511.21, -0.000051350537, 0.000000004678149, -0.00005514293, -39727.58, -39727.58, 0.0, 10.0, 9.943684 
1.25e+2, 1.2499334e+2, -1719946.3, -1724224.6, 0.0000973349, 0.000000005576651, 0.000017598037, -1719946.3, -4880.961, 0.0, 10.0, 9.994328 
1.25e+2, 1.349876e+2, -1622565.8, -1627434.9, -0.000023158567, 0.000000005503174, -0.00006840347, -1622565.8, -5444.174, 0.0, 10.0, 9.993545 
1.25e+2, 1.4497513e+2, -1534464.4, -1548146.3, -0.000008533065, 0.0000000054558598, 0.00007091653, -1534464.4, -15220.681, 0.0, 10.0, 9.981865 
1.25e+2, 1.5495701e+2, -1436736.6, -1450821.9, -0.00009621758, 0.0000000054345177, -0.00005698133, -1436736.6, -15315.499, 0.0, 10.0, 9.981333 
1.25e+2, 1.6493228e+2, -1348685.8, -1371952.4, -0.0000666228, 0.0000000054009335, 0.000047341386, -1348685.8, -25021.992, 0.0, 10.0, 9.969248 
1.25e+2, 1.7490156e+2, -1250727.6, -1274310.1, -0.00017581736, 0.0000000053548477, -0.000073832125, -1250727.6, -24762.973, 0.0, 10.0, 9.968835 
1.25e+2, 1.8486421e+2, -1162646.8, -1195720.1, -0.00013678189, 0.000000005317687, 0.00006614343, -1162646.8, -34316.027, 0.0, 10.0, 9.956395 
1.25e+2, 1.9482064e+2, -1064497.0, -1097833.0, -0.00020598616, 0.000000005289862, -0.00005765782, -1064497.0, -33739.36, 0.0, 10.0, 9.956052 
1.25e+2, 2.0477042e+2, -976333.0, -1019435.0, -0.00014445889, 0.0000000052614566, 0.000068076835, -976333.0, -43083.105, 0.0, 10.0, 9.943291 
1.25e+2, 2.1471375e+2, -878046.0, -921409.9, -0.00024082825, 0.0000000052324207, -0.00012682864, -878046.0, -42240.69, 0.0, 10.0, 9.942949 
1.25e+2, 2.2465037e+2, -789759.9, -843144.9, -0.00017330868, 0.0000000052104565, 0.00012087853, -789759.9, -51333.586, 0.0, 10.0, 9.929908 
1.25e+2, 2.3458035e+2, -691326.4, -744966.44, -0.0002451617, 0.000000005196495, -0.000088819106, -691326.4, -50213.816, 0.0, 10.0, 9.929577 
1.25e+2, 2.4450338e+2, -603002.3, -667018.8, -0.00015345389, 0.0000000051743236, 0.00007470814, -603002.3, -59135.414, 0.0, 10.0, 9.916136 
1.25e+2, 2.5441962e+2, -504249.63, -568343.3, -0.00022984162, 0.000000005142334, -0.00010673743, -504249.63, -57562.074, 0.0, 10.0, 9.916036 
1.25e+2, 2.643288e+2, -416014.22, -490987.88, -0.00014012164, 0.0000000051283644, 0.00014059353, -416014.22, -66436.55, 0.0, 10.0, 9.901964 
1.25e+2, 2.742313e+2, -316729.0, -391374.78, -0.00020680095, 0.0000000051373457, -0.00020344472, -316729.0, -64195.992, 0.0, 10.0, 9.902385 
1.25e+2, 2.841256e+2, -230255.73, -318081.25, -0.00008849293, 0.0000000051355573, 0.00022904527, -230255.73, -74686.766, 0.0, 10.0, 9.885439 
1.25e+2, 2.940121e+2, -130549.6, -217765.02, -0.00015069547, 0.0000000051189186, -0.00025334352, -130549.6, -71868.2, 0.0, 10.0, 9.886217 
1.25e+2, 3.0392656e+2, -40805.586, -84750.16, -0.000027313481, 0.0000000051035887, 0.00017313575, -40805.586, -40805.586, 0.0, 10.0, 9.942173 
1.25e+2, 3.138706e+2, -39727.58, -82511.21, -0.000095590556, 0.000000005090347, -0.0000551429, -39727.58, -39727.58, 0.0, 10.0, 9.943684 
1.35e+2, 1.2499334e+2, -1719946.3, -1724224.6, -0.000022551983, 0.0000000060548064, 0.000017598164, -1719946.3, -4880.9614, 0.0, 10.0, 9.994328 
1.35e+2, 1.349876e+2, -1622565.8, -1627434.9, -0.00014307506, 0.0000000059520047, -0.000068403475, -1622565.8, -5444.174, 0.0, 10.0, 9.993545 
1.35e+2, 1.4497513e+2, -1534464.4, -1548146.3, -0.000120522585, 0.000000005892498, 0.00007091655, -1534464.4, -15220.682, 0.0, 10.0, 9.981865 
1.35e+2, 1.5495701e+2, -1436736.6, -1450821.9, -0.00020819523, 0.000000005876193, -0.000056981284, -1436736.6, -15315.499, 0.0, 10.0, 9.981333 
1.35e+2, 1.6493228e+2, -1348685.8, -1371952.4, -0.00016355517, 0.0000000058508243, 0.000047341437, -1348685.8, -25021.992, 0.0, 10.0, 9.969248 
1.35e+2, 1.7490156e+2, -1250727.6, -1274310.1, -0.00027267096, 0.0000000058161995, -0.0000738321, -1250727.6, -24762.973, 0.0, 10.0, 9.968835 
1.35e+2, 1.8486421e+2, -1162646.8, -1195720.1, -0.00022068364, 0.000000005778308, 0.00006614345, -1162646.8, -34316.027, 0.0, 10.0, 9.956395 
1.35e+2, 1.9482064e+2, -1064497.0, -1097833.0, -0.0002897387, 0.000000005736994, -0.00005765777, -1064497.0, -33739.36, 0.0, 10.0, 9.956052 
1.35e+2, 2.0477042e+2, -976333.0, -1019435.0, -0.00021732, 0.000000005703285, 0.00006807688, -976333.0, -43083.105, 0.0, 10.0, 9.943291 
1.35e+2, 2.1471375e+2, -878046.0, -921409.9, -0.00031346522, 0.0000000056778093, -0.00012682864, -878046.0, -42240.69, 0.0, 10.0, 9.942949 
1.35e+2, 2.2465037e+2, -789759.9, -843144.9, -0.00023261478, 0.0000000056501723, 0.00012087853, -789759.9, -51333.586, 0.0, 10.0, 9.929908 
1.35e+2, 2.3458035e+2, -691326.4, -744966.44, -0.0003040326, 0.0000000056200817, -0.00008881907, -691326.4, -50213.816, 0.0, 10.0, 9.929577 
1.35e+2, 2.4450338e+2, -603002.3, -667018.8, -0.00019910093, 0.000000005602029, 0.00007470818, -603002.3, -59135.414, 0.0, 10.0, 9.916136 
1.35e+2, 2.5441962e+2, -504249.63, -568343.3, -0.0002748542, 0.000000005598354, -0.00010673744, -504249.63, -57562.074, 0.0, 10.0, 9.916036 
1.35e+2, 2.643288e+2, -416014.22, -490987.88, -0.0001711766, 0.0000000055853504, 0.00014059352, -416014.22, -66436.55, 0.0, 10.0, 9.901964 
1.35e+2, 2.742313e+2, -316729.0, -391374.78, -0.00023692127, 0.000000005560437, -0.00020344471, -316729.0, -64195.992, 0.0, 10.0, 9.902385 
1.35e+2, 2.841256e+2, -230255.73, -318081.25, -0.00009926212, 0.0000000055453757, 0.00022904531, -230255.73, -74686.766, 0.0, 10.0, 9.885439 
1.35e+2, 2.940121e+2, -130549.6, -217765.02, -0.0001597223, 0.00000000554385, -0.0002533435, -130549.6, -71868.2, 0.0, 10.0, 9.886217 
1.35e+2, 3.0392656e+2, -40805.59, -84750.16, -0.000016056136, 0.0000000055335136, 0.00017313576, -40805.59, -40805.59, 0.0, 10.0, 9.942173 
1.35e+2, 3.138706e+2, -39727.58, -82511.21, -0.00008195336, 0.0000000055099845, -0.000055142893, -39727.58, -39727.58, 0.0, 10.0, 9.943684 
1.45e+2, 1.2499334e+2, -1719946.3, -1724224.6, 0.000037676033, 0.000000006550225, 0.000017598322, -1719946.3, -4880.9595, 0.0, 10.0, 9.994328 
1.45e+2, 1.349876e+2, -1622565.8, -1627434.9, -0.00004649103, 0.0000000064265797, -0.00006840348, -1622565.8, -5444.1724, 0.0, 10.0, 9.993545 
1.45e+2, 1.4497513e+2, -1534464.4, -1548146.3, -0.000017158061, 0.000000006353731, 0.000070916576, -1534464.4, -15220.68, 0.0, 10.0, 9.981865 
1.45e+2, 1.5495701e+2, -1436736.6, -1450821.9, -0.00014063096, 0.000000006331622, -0.000056981204, -1436736.6, -15315.498, 0.0, 10.0, 9.981333 
1.45e+2, 1.6493228e+2, -1348685.8, -1371952.4, -0.000095787334, 0.0000000063053136, 0.00004734151, -1348685.8, -25021.99, 0.0, 10.0, 9.969248 
1.45e+2, 1.7490156e+2, -1250727.6, -1274310.1, -0.00018883137, 0.0000000062747176, -0.00007383211, -1250727.6, -24762.97, 0.0, 10.0, 9.968835 
1.45e+2, 1.8486421e+2, -1162646.8, -1195720.1, -0.00013651374, 0.0000000062364225, 0.000066143446, -1162646.8, -34316.023, 0.0, 10.0, 9.956395 
1.45e+2, 1.9482064e+2, -1064497.0, -1097833.0, -0.00025471128, 0.0000000061900662, -0.0000576577, -1064497.0, -33739.355, 0.0, 10.0, 9.956052 
1.45e+2, 2.0477042e+2, -976333.0, -1019435.0, -0.0001896188, 0.0000000061535843, 0.00006807696, -976333.0, -43083.105, 0.0, 10.0, 9.943291 
1.45e+2, 2.1471375e+2, -878046.0, -921409.9, -0.0002718784, 0.000000006127794, -0.00012682864, -878046.0, -42240.688, 0.0, 10.0, 9.942949 
1.45e+2, 2.2465037e+2, -789759.9, -843144.9, -0.00018424237, 0.0000000060965877, 0.000120878525, -789759.9, -51333.582, 0.0, 10.0, 9.929908 
1.45e+2, 2.3458035e+2, -691326.4, -744966.44, -0.0002859173, 0.0000000060592433, -0.00008881903, -691326.4, -50213.816, 0.0, 10.0, 9.929577 
1.45e+2, 2.4450338e+2, -603002.3, -667018.8, -0.00018788692, 0.0000000060421064, 0.00007470822, -603002.3, -59135.414, 0.0, 10.0, 9.916136 
1.45e+2, 2.5441962e+2, -504249.63, -568343.3, -0.00026423647, 0.000000006049109, -0.000106737425, -504249.63, -57562.074, 0.0, 10.0, 9.916036 
1.45e+2, 2.643288e+2, -416014.22, -490987.88, -0.00014984723, 0.0000000060340257, 0.00014059352, -416014.22, -66436.55, 0.0, 10.0, 9.901964 
1.45e+2, 2.742313e+2, -316729.0, -391374.78, -0.0002385263, 0.0000000059907705, -0.0002034447, -316729.0, -64195.992, 0.0, 10.0, 9.902385 
1.45e+2, 2.841256e+2, -230255.73, -318081.25, -0.00010825969, 0.000000005967892, 0.00022904533, -230255.73, -74686.766, 0.0, 10.0, 9.885439 
1.45e+2, 2.940121e+2, -130549.6, -217765.02, -0.00018102648, 0.000000005973025, -0.00025334346, -130549.6, -71868.2, 0.0, 10.0, 9.886217 
1.45e+2, 3.0392656e+2, -40805.586, -84750.16, -0.000020527583, 0.000000005970279, 0.00017313578, -40805.586, -40805.586, 0.0, 10.0, 9.942173 
1.45e+2, 3.138706e+2, -39727.574, -82511.21, -0.000069528396, 0.000000005955584, -0.000055142933, -39727.574, -39727.574, 0.0, 10.0, 9.943684 
1.55e+2, 1.2499334e+2, -1719946.3, -1724224.6, -0.00007921698, 0.0000000070629067, 0.000017598508, -1719946.3, -4880.96, 0.0, 10.0, 9.994328 
1.55e+2, 1.349876e+2, -1622565.8, -1627434.9, -0.00016341261, 0.0000000069268986, -0.00006840348, -1622565.8, -5444.173, 0.0, 10.0, 9.993545 
1.55e+2, 1.4497513e+2, -1534464.4, -1548146.3, -0.00013028888, 0.000000006839559, 0.00007091662, -1534464.4, -15220.68, 0.0, 10.0, 9.981865 
1.55e+2, 1.5495701e+2, -1436736.6, -1450821.9, -0.0002537564, 0.000000006800804, -0.000056981087, -1436736.6, -15315.498, 0.0, 10.0, 9.981333 
1.55e+2, 1.6493228e+2, -1348685.8, -1371952.4, -0.00020396913, 0.000000006764402, 0.000047341597, -1348685.8, -25021.992, 0.0, 10.0, 9.969248 
1.55e+2, 1.7490156e+2, -1250727.6, -1274310.1, -0.00029698774, 0.000000006730402, -0.00007383214, -1250727.6, -24762.97, 0.0, 10.0, 9.968835 
1.55e+2, 1.8486421e+2, -1162646.8, -1195720.1, -0.00022608941, 0.0000000066920305, 0.00006614341, -1162646.8, -34316.023, 0.0, 10.0, 9.956395 
1.55e+2, 1.9482064e+2, -1064497.0, -1097833.0, -0.00034407256, 0.0000000066490795, -0.000057657617, -1064497.0, -33739.36, 0.0, 10.0, 9.956052 
1.55e+2, 2.0477042e+2, -976333.0, -1019435.0, -0.00026680858, 0.000000006612356, 0.00006807706, -976333.0, -43083.105, 0.0, 10.0, 9.943291 
1.55e+2, 2.1471375e+2, -878046.0, -921409.9, -0.00034881762, 0.0000000065823738, -0.00012682863, -878046.0, -42240.688, 0.0, 10.0, 9.942949 
1.55e+2, 2.2465037e+2, -789759.9, -843144.9, -0.00024728174, 0.000000006549702, 0.0001208785, -789759.9, -51333.582, 0.0, 10.0, 9.929908 
1.55e+2, 2.3458035e+2, -691326.4, -744966.44, -0.0003485029, 0.000000006513979, -0.00008881901, -691326.4, -50213.816, 0.0, 10.0, 9.929577 
1.55e+2, 2.4450338e+2, -603002.3, -667018.8, -0.00024339596, 0.000000006494556, 0.00007470826, -603002.3, -59135.414, 0.0, 10.0, 9.916136 
1.55e+2, 2.5441962e+2, -504249.63, -568343.3, -0.00031940648, 0.0000000064946013, -0.00010673741, -504249.63, -57562.074, 0.0, 10.0, 9.916036 
1.55e+2, 2.643288e+2, -416014.22, -490987.88, -0.00017524468, 0.00000000647439, 0.00014059352, -416014.22, -66436.55, 0.0, 10.0, 9.901964 
1.55e+2, 2.742313e+2, -316729.0, -391374.78, -0.00026192883, 0.0000000064283467, -0.0002034447, -316729.0, -64195.992, 0.0, 10.0, 9.902385 
1.55e+2, 2.841256e+2, -230255.73, -318081.25, -0.00012630435, 0.000000006403105, 0.00022904534, -230255.73, -74686.766, 0.0, 10.0, 9.885439 
1.55e+2, 2.940121e+2, -130549.6, -217765.02, -0.00019858975, 0.0000000064064447, -0.00025334343, -130549.6, -71868.2, 0.0, 10.0, 9.886217 
1.55e+2, 3.0392656e+2, -40805.586, -84750.16, -0.000020905707, 0.0000000064138836, 0.00017313579, -40805.586, -40805.586, 0.0, 10.0, 9.942173 
1.55e+2, 3.138706e+2, -39727.574, -82511.21, -0.00006789056, 0.0000000064271446, -0.000055143024, -39727.574, -39727.574, 0.0, 10.0, 9.943684 
1.65e+2, 1.2499334e+2, -1719946.3, -1724224.6, 0.000066074186, 0.0000000075551245, 0.000017598559, -1719946.3, -4880.958, 0.0, 10.0, 9.994328 
1.65e+2, 1.349876e+2, -1622565.8, -1627434.9, -0.000061245475, 0.0000000074265962, -0.00006840343, -1622565.8, -5444.171, 0.0, 10.0, 9.993545 
1.65e+2, 1.4497513e+2, -1534464.4, -1548146.3, -0.000039147744, 0.000000007338891, 0.00007091673, -1534464.4, -15220.679, 0.0, 10.0, 9.981865 
1.65e+2, 1.5495701e+2, -1436736.6, -1450821.9, -0.00016533221, 0.0000000072918658, -0.000056981033, -1436736.6, -15315.496, 0.0, 10.0, 9.981333 
1.65e+2, 1.6493228e+2, -1348685.8, -1371952.4, -0.00011523094, 0.0000000072423494, 0.00004734163, -1348685.8, -25021.99, 0.0, 10.0, 9.969248 
1.65e+2, 1.7490156e+2, -1250727.6, -1274310.1, -0.0002216899, 0.000000007190287, -0.0000738321, -1250727.6, -24762.969, 0.0, 10.0, 9.968835 
1.65e+2, 1.8486421e+2, -1162646.8, -1195720.1, -0.00015217396, 0.0000000071472437, 0.000066143446, -1162646.8, -34316.023, 0.0, 10.0, 9.956395 
1.65e+2, 1.9482064e+2, -1064497.0, -1097833.0, -0.0002821598, 0.0000000071136337, -0.000057657588, -1064497.0, -33739.355, 0.0, 10.0, 9.956052 
1.65e+2, 2.0477042e+2, -976333.0, -1019435.0, -0.00020817487, 0.0000000070784334, 0.00006807709, -976333.0, -43083.1, 0.0, 10.0, 9.943291 
1.65e+2, 2.1471375e+2, -878046.0, -921409.9, -0.00031337357, 0.0000000070415065, -0.00012682859, -878046.0, -42240.688, 0.0, 10.0, 9.942949 
1.65e+2, 2.2465037e+2, -789759.9, -843144.9, -0.00021176424, 0.000000007009003, 0.00012087854, -789759.9, -51333.582, 0.0, 10.0, 9.929908 
1.65e+2, 2.3458035e+2, -691326.4, -744966.44, -0.00031544987, 0.0000000069815025, -0.000088819, -691326.4, -50213.816, 0.0, 10.0, 9.929577 
1.65e+2, 2.4450338e+2, -603002.3, -667018.8, -0.0002107994, 0.0000000069557053, 0.000074708274, -603002.3, -59135.414, 0.0, 10.0, 9.916136 
1.65e+2, 2.5441962e+2, -504249.63, -568343.3, -0.00031597965, 0.000000006931932, -0.000106737374, -504249.63, -57562.07, 0.0, 10.0, 9.916036 
1.65e+2, 2.643288e+2, -416014.22, -490987.88, -0.00017089312, 0.000000006908248, 0.00014059356, -416014.22, -66436.55, 0.0, 10.0, 9.901964 
1.65e+2, 2.742313e+2, -316729.0, -391374.78, -0.00025608935, 0.0000000068846666, -0.00020344468, -316729.0, -64195.992, 0.0, 10.0, 9.902385 
1.65e+2, 2.841256e+2, -230255.73, -318081.25, -0.00011153719, 0.0000000068678383, 0.00022904534, -230255.73, -74686.766, 0.0, 10.0, 9.885439 
1.65e+2, 2.940121e+2, -130549.6, -217765.02, -0.00019220446, 0.000000006860246, -0.00025334343, -130549.6, -71868.2, 0.0, 10.0, 9.886217 
1.65e+2, 3.0392656e+2, -40805.586, -84750.16, -0.000009163946, 0.0000000068640356, 0.00017313578, -40805.586, -40805.586, 0.0, 10.0, 9.942173 
1.65e+2, 3.138706e+2, -39727.574, -82511.21, -0.000066112334, 0.0000000068846364, -0.000055143042, -39727.574, -39727.574, 0.0, 10.0, 9.943684 
1.75e+2, 1.2499334e+2, -1719946.3, -1724224.6, -0.00006801711, 0.00000000802688, 0.00001759847, -1719946.3, -4880.9585, 0.0, 10.0, 9.994328 
1.75e+2, 1.349876e+2, -1622565.8, -1627434.9, -0.00019536966, 0.000000007925673, -0.00006840335, -1622565.8, -5444.1714, 0.0, 10.0, 9.993545 
1.75e+2, 1.4497513e+2, -1534464.4, -1548146.3, -0.00015406281, 0.0000000078517255, 0.00007091692, -1534464.4, -15220.679, 0.0, 10.0, 9.981865 
1.75e+2, 1.5495703e+2, -1436736.6, -1450821.9, -0.00028021744, 0.000000007804808, -0.00005698104, -1436736.6, -15315.497, 0.0, 10.0, 9.981333 
1.75e+2, 1.6493228e+2, -1348685.8, -1371952.4, -0.0002192664, 0.000000007739156, 0.000047341597, -1348685.8, -25021.99, 0.0, 10.0, 9.969248 
1.75e+2, 1.7490156e+2, -1250727.6, -1274310.1, -0.00032566878, 0.000000007654372, -0.00007383198, -1250727.6, -24762.969, 0.0, 10.0, 9.968835 
1.75e+2, 1.8486421e+2, -1162646.8, -1195720.1, -0.0002527025, 0.000000007602062, 0.00006614357, -1162646.8, -34316.023, 0.0, 10.0, 9.956395 
1.75e+2, 1.9482064e+2, -1064497.0, -1097833.0, -0.00038264913, 0.000000007583728, -0.000057657613, -1064497.0, -33739.355, 0.0, 10.0, 9.956052 
1.75e+2, 2.0477042e+2, -976333.0, -1019435.0, -0.0002929936, 0.000000007551817, 0.00006807704, -976333.0, -43083.1, 0.0, 10.0, 9.943291 
1.75e+2, 2.1471375e+2, -878046.0, -921409.9, -0.00039786947, 0.000000007505193, -0.00012682851, -878046.0, -42240.688, 0.0, 10.0, 9.942949 
1.75e+2, 2.2465037e+2, -789759.9, -843144.9, -0.0002828817, 0.000000007474491, 0.000120878634, -789759.9, -51333.582, 0.0, 10.0, 9.929908 
1.75e+2, 2.3458035e+2, -691326.4, -744966.44, -0.0003861306, 0.000000007461813, -0.000088819, -691326.4, -50213.816, 0.0, 10.0, 9.929577 
1.75e+2, 2.4450338e+2, -603002.3, -667018.8, -0.0002596202, 0.0000000074255544, 0.00007470826, -603002.3, -59135.414, 0.0, 10.0, 9.916136 
1.75e+2, 2.5441962e+2, -504249.63, -568343.3, -0.00036375108, 0.000000007361102, -0.00010673732, -504249.63, -57562.07, 0.0, 10.0, 9.916036 
1.75e+2, 2.643288e+2, -416014.22, -490987.88, -0.00021361433, 0.0000000073356006, 0.00014059362, -416014.22, -66436.55, 0.0, 10.0, 9.901964 
1.75e+2, 2.742313e+2, -316729.0, -391374.78, -0.0002984732, 0.0000000073597297, -0.00020344467, -316729.0, -64195.992, 0.0, 10.0, 9.902385 
1.75e+2, 2.841256e+2, -230255.73, -318081.25, -0.00013410498, 0.0000000073620923, 0.00022904531, -230255.73, -74686.766, 0.0, 10.0, 9.885439 
1.75e+2, 2.940121e+2, -130549.6, -217765.02, -0.0002129882, 0.000000007334429, -0.00025334346, -130549.6, -71868.2, 0.0, 10.0, 9.886217 
1.75e+2, 3.0392656e+2, -40805.586, -84750.16, -0.000015025755, 0.0000000073207347, 0.00017313576, -40805.586, -40805.586, 0.0, 10.0, 9.942173 
1.75e+2, 3.138706e+2, -39727.574, -82511.21, -0.00007022401, 0.0000000073280595, -0.00005514299, -39727.574, -39727.574, 0.0, 10.0, 9.943684 
1.85e+2, 1.2499334e+2, -1719946.3, -1724224.6, 0.00014561258, 0.000000008519794, 0.000017598451, -1719946.3, -4880.956, 0.0, 10.0, 9.994328 
1.85e+2, 1.349876e+2, -1622565.8, -1627434.9, -0.00004893868, 0.000000008409069, -0.00006840331, -1622565.8, -5444.169, 0.0, 10.0, 9.993545 
1.85e+2, 1.4497513e+2, -1534464.4, -1548146.3, -0.000024608982, 0.000000008335576, 0.00007091704, -1534464.4, -15220.677, 0.0, 10.0, 9.981865 
1.85e+2, 1.5495703e+2, -1436736.6, -1450821.9, -0.0001499811, 0.000000008299151, -0.000056981036, -1436736.6, -15315.495, 0.0, 10.0, 9.981333 
1.85e+2, 1.6493228e+2, -1348685.8, -1371952.4, -0.00010123581, 0.000000008235614, 0.000047341597, -1348685.8, -25021.988, 0.0, 10.0, 9.969248 
1.85e+2, 1.7490156e+2, -1250727.6, -1274310.1, -0.00026840778, 0.000000008144391, -0.00007383187, -1250727.6, -24762.967, 0.0, 10.0, 9.968835 
1.85e+2, 1.8486421e+2, -1162646.8, -1195720.1, -0.0002054461, 0.000000008085845, 0.000066143686, -1162646.8, -34316.02, 0.0, 10.0, 9.956395 
1.85e+2, 1.9482064e+2, -1064497.0, -1097833.0, -0.00030357018, 0.000000008061485, -0.00005765761, -1064497.0, -33739.355, 0.0, 10.0, 9.956052 
1.85e+2, 2.0477042e+2, -976333.0, -1019435.0, -0.00020342835, 0.000000008025921, 0.000068077024, -976333.0, -43083.1, 0.0, 10.0, 9.943291 
1.85e+2, 2.1471375e+2, -878046.0, -921409.9, -0.00035121906, 0.000000007978215, -0.00012682847, -878046.0, -42240.688, 0.0, 10.0, 9.942949 
1.85e+2, 2.2465037e+2, -789759.9, -843144.9, -0.0002484476, 0.000000007945116, 0.0001208787, -789759.9, -51333.582, 0.0, 10.0, 9.929908 
1.85e+2, 2.3458035e+2, -691326.4, -744966.44, -0.00035875337, 0.000000007928548, -0.00008881896, -691326.4, -50213.813, 0.0, 10.0, 9.929577 
1.85e+2, 2.4450338e+2, -603002.3, -667018.8, -0.0002217114, 0.000000007890596, 0.000074708274, -603002.3, -59135.41, 0.0, 10.0, 9.916136 
1.85e+2, 2.5441962e+2, -504249.63, -568343.3, -0.00033771523, 0.0000000078270785, -0.0001067373, -504249.63, -57562.07, 0.0, 10.0, 9.916036 
1.85e+2, 2.643288e+2, -416014.22, -490987.88, -0.00019510066, 0.0000000078035765, 0.00014059365, -416014.22, -66436.54, 0.0, 10.0, 9.901964 
1.85e+2, 2.742313e+2, -316729.0, -391374.78, -0.000291066, 0.0000000078310505, -0.00020344465, -316729.0, -64195.99, 0.0, 10.0, 9.902385 
1.85e+2, 2.841256e+2, -230255.73, -318081.25, -0.0001158062, 0.000000007834192, 0.00022904533, -230255.73, -74686.766, 0.0, 10.0, 9.885439 
1.85e+2, 2.940121e+2, -130549.6, -217765.0, -0.00020913333, 0.0000000078037905, -0.00025334346, -130549.6, -71868.2, 0.0, 10.0, 9.886217 
1.85e+2, 3.0392656e+2, -40805.586, -84750.16, -0.000023975408, 0.000000007781303, 0.00017313576, -40805.586, -40805.586, 0.0, 10.0, 9.942173 
1.85e+2, 3.138706e+2, -39727.574, -82511.21, -0.00012984703, 0.000000007770884, -0.00005514293, -39727.574, -39727.574, 0.0, 10.0, 9.943684 
1.95e+2, 1.2499334e+2, -1719946.3, -1724224.6, -0.00000093878776, 0.000000009033868, 0.000017598502, -1719946.3, -4880.9565, 0.0, 10.0, 9.994328 
1.95e+2, 1.349876e+2, -1622565.8, -1627434.9, -0.00019552656, 0.0000000088767855, -0.00006840331, -1622565.8, -5444.1694, 0.0, 10.0, 9.993545 
1.95e+2, 1.4497513e+2, -1534464.4, -1548146.3, -0.00015884657, 0.00000000879044, 0.000070917114, -1534464.4, -15220.677, 0.0, 10.0, 9.981865 
1.95e+2, 1.5495703e+2, -1436736.6, -1450821.9, -0.0002841997, 0.000000008774894, -0.000056981025, -1436736.6, -15315.495, 0.0, 10.0, 9.981333 
1.95e+2, 1.6493228e+2, -1348685.8, -1371952.4, -0.0002124567, 0.000000008731723, 0.00004734162, -1348685.8, -25021.988, 0.0, 10.0, 9.969248 
1.95e+2, 1.7490156e+2, -1250727.6, -1274310.1, -0.00037950792, 0.000000008660344, -0.00007383177, -1250727.6, -24762.969, 0.0, 10.0, 9.968835 
1.95e+2, 1.8486421e+2, -1162646.8, -1195720.1, -0.00030944686, 0.000000008598591, 0.000066143795, -1162646.8, -34316.023, 0.0, 10.0, 9.956395 
1.95e+2, 1.9482064e+2, -1064497.0, -1097833.0, -0.00040748948, 0.000000008546903, -0.00005765757, -1064497.0, -33739.355, 0.0, 10.0, 9.956052 
1.95e+2, 2.0477042e+2, -976333.0, -1019435.0, -0.0002945888, 0.000000008500746, 0.00006807703, -976333.0, -43083.1, 0.0, 10.0, 9.943291 
1.95e+2, 2.1471375e+2, -878046.0, -921409.9, -0.00044211684, 0.000000008460576, -0.00012682844, -878046.0, -42240.688, 0.0, 10.0, 9.942949 
1.95e+2, 2.2465037e+2, -789759.9, -843144.9, -0.00032477963, 0.000000008420876, 0.00012087874, -789759.9, -51333.582, 0.0, 10.0, 9.929908 
1.95e+2, 2.3458035e+2, -691326.4, -744966.44, -0.00043460992, 0.000000008381703, -0.0000888189, -691326.4, -50213.813, 0.0, 10.0, 9.929577 
1.95e+2, 2.4450338e+2, -603002.3, -667018.8, -0.00027901595, 0.00000000835083, 0.000074708325, -603002.3, -59135.41, 0.0, 10.0, 9.916136 
1.95e+2, 2.5441962e+2, -504249.63, -568343.3, -0.00039412937, 0.000000008329864, -0.00010673731, -504249.63, -57562.07, 0.0, 10.0, 9.916036 
1.95e+2, 2.643288e+2, -416014.22, -490987.88, -0.0002475886, 0.000000008312176, 0.00014059362, -416014.22, -66436.54, 0.0, 10.0, 9.901964 
1.95e+2, 2.742313e+2, -316729.0, -391374.78, -0.0003432921, 0.000000008298629, -0.00020344464, -316729.0, -64195.99, 0.0, 10.0, 9.902385 
1.95e+2, 2.841256e+2, -230255.73, -318081.25, -0.00013918425, 0.000000008284139, 0.00022904536, -230255.73, -74686.766, 0.0, 10.0, 9.885439 
1.95e+2, 2.940121e+2, -130549.6, -217765.02, -0.00022991357, 0.00000000826833, -0.00025334346, -130549.6, -71868.2, 0.0, 10.0, 9.886217 
1.95e+2, 3.0392656e+2, -40805.586, -84750.16, -0.000022479011, 0.000000008245739, 0.00017313579, -40805.586, -40805.586, 0.0, 10.0, 9.942173 
1.95e+2, 3.138706e+2, -39727.574, -82511.21, -0.00012573719, 0.000000008213111, -0.000055142857, -39727.574, -39727.574, 0.0, 10.0, 9.943684 
2.05e+2, 1.2499334e+2, -1719946.3, -1724224.6, 0.000089608846, 0.000000009570524, 0.000017598684, -1719946.3, -4880.9546, 0.0, 10.0, 9.994328 
2.05e+2, 1.349876e+2, -1622565.8, -1627434.9, -0.000056601482, 0.0000000093788035, -0.00006840332, -1622565.8, -5444.167, 0.0, 10.0, 9.993545 
2.05e+2, 1.4497513e+2, -1534464.4, -1548146.3, -0.000014375641, 0.000000009274358, 0.00007091716, -1534464.4, -15220.675, 0.0, 10.0, 9.981865 
2.05e+2, 1.5495703e+2, -1436736.6, -1450821.9, -0.00018770542, 0.000000009257365, -0.000056980924, -1436736.6, -15315.492, 0.0, 10.0, 9.981333 
2.05e+2, 1.6493228e+2, -1348685.8, -1371952.4, -0.00011907143, 0.000000009224244, 0.00004734171, -1348685.8, -25021.986, 0.0, 10.0, 9.969248 
2.05e+2, 1.7490156e+2, -1250727.6, -1274310.1, -0.00027089455, 0.000000009174656, -0.000073831754, -1250727.6, -24762.965, 0.0, 10.0, 9.968835 
2.05e+2, 1.8486421e+2, -1162646.8, -1195720.1, -0.00019951076, 0.000000009113893, 0.00006614381, -1162646.8, -34316.02, 0.0, 10.0, 9.956395 
2.05e+2, 1.9482064e+2, -1064497.0, -1097833.0, -0.00035285094, 0.000000009041431, -0.000057657482, -1064497.0, -33739.35, 0.0, 10.0, 9.956052 
2.05e+2, 2.0477042e+2, -976333.0, -1019435.0, -0.00024837206, 0.000000008986788, 0.000068077126, -976333.0, -43083.098, 0.0, 10.0, 9.943291 
2.05e+2, 2.1471375e+2, -878046.0, -921409.9, -0.000377216, 0.000000008951439, -0.00012682842, -878046.0, -42240.684, 0.0, 10.0, 9.942949 
2.05e+2, 2.2465037e+2, -789759.9, -843144.9, -0.00025177628, 0.000000008907697, 0.00012087874, -789759.9, -51333.58, 0.0, 10.0, 9.929908 
2.05e+2, 2.3458035e+2, -691326.4, -744966.44, -0.00039555455, 0.000000008854441, -0.00008881885, -691326.4, -50213.813, 0.0, 10.0, 9.929577 
2.05e+2, 2.4450338e+2, -603002.3, -667018.8, -0.0002457408, 0.000000008828332, 0.000074708376, -603002.3, -59135.41, 0.0, 10.0, 9.916136 
2.05e+2, 2.5441962e+2, -504249.63, -568343.3, -0.00035550987, 0.000000008834652, -0.0001067373, -504249.63, -57562.07, 0.0, 10.0, 9.916036 
2.05e+2, 2.643288e+2, -416014.22, -490987.88, -0.00019907208, 0.000000008816181, 0.00014059362, -416014.22, -66436.54, 0.0, 10.0, 9.901964 
2.05e+2, 2.742313e+2, -316729.0, -391374.78, -0.00032938612, 0.000000008766075, -0.00020344461, -316729.0, -64195.99, 0.0, 10.0, 9.902385 
2.05e+2, 2.841256e+2, -230255.73, -318081.25, -0.00013925439, 0.000000008735577, 0.00022904538, -230255.73, -74686.76, 0.0, 10.0, 9.885439 
2.05e+2, 2.940121e+2, -130549.59, -217765.0, -0.00024934678, 0.0000000087320515, -0.0002533434, -130549.59, -71868.2, 0.0, 10.0, 9.886217 
2.05e+2, 3.0392656e+2, -40805.582, -84750.16, -0.000028123899, 0.000000008720086, 0.00017313582, -40805.582, -40805.582, 0.0, 10.0, 9.942173 
2.05e+2, 3.138706e+2, -39727.57, -82511.21, -0.00011311106, 0.0000000086953555, -0.000055142882, -39727.57, -39727.57, 0.0, 10.0, 9.943684 
2.15e+2, 1.2499334e+2, -1719946.3, -1724224.6, -0.00004885594, 0.000000010129762, 0.000017599, -1719946.3, -4880.9546, 0.0, 10.0, 9.994328 
2.15e+2, 1.349876e+2, -1622565.8, -1627434.9, -0.00019510032, 0.000000009915124, -0.000068403344, -1622565.8, -5444.1675, 0.0, 10.0, 9.993545 
2.15e+2, 1.4497513e+2, -1534464.4, -1548146.3, -0.0001562292, 0.00000000978733, 0.00007091718, -1534464.4, -15220.675, 0.0, 10.0, 9.981865 
2.15e+2, 1.5495703e+2, -1436736.6, -1450821.9, -0.00032956485, 0.0000000097465644, -0.000056980734, -1436736.6, -15315.493, 0.0, 10.0, 9.981333 
2.15e+2, 1.6493228e+2, -1348685.8, -1371952.4, -0.0002576358, 0.000000009713177, 0.00004734187, -1348685.8, -25021.986, 0.0, 10.0, 9.969248 
2.15e+2, 1.7490156e+2, -1250727.6, -1274310.1, -0.00040944217, 0.000000009687324, -0.00007383183, -1250727.6, -24762.967, 0.0, 10.0, 9.968835 
2.15e+2, 1.8486421e+2, -1162646.8, -1195720.1, -0.00030492258, 0.0000000096317505, 0.00006614372, -1162646.8, -34316.02, 0.0, 10.0, 9.956395 
2.15e+2, 1.9482064e+2, -1064497.0, -1097833.0, -0.0004578798, 0.0000000095450705, -0.000057657344, -1064497.0, -33739.35, 0.0, 10.0, 9.956052 
2.15e+2, 2.0477042e+2, -976333.0, -1019435.0, -0.00034361798, 0.000000009484046, 0.0000680773, -976333.0, -43083.098, 0.0, 10.0, 9.943291 
2.15e+2, 2.1471375e+2, -878046.0, -921409.9, -0.00047226076, 0.000000009450805, -0.0001268284, -878046.0, -42240.684, 0.0, 10.0, 9.942949 
2.15e+2, 2.2465037e+2, -789759.9, -843144.9, -0.00033337722, 0.000000009405575, 0.000120878714, -789759.9, -51333.58, 0.0, 10.0, 9.929908 
2.15e+2, 2.3458035e+2, -691326.4, -744966.44, -0.00047671673, 0.000000009346758, -0.00008881883, -691326.4, -50213.813, 0.0, 10.0, 9.929577 
2.15e+2, 2.4450338e+2, -603002.3, -667018.8, -0.00032447043, 0.0000000093231, 0.00007470842, -603002.3, -59135.41, 0.0, 10.0, 9.916136 
2.15e+2, 2.5441962e+2, -504249.63, -568343.3, -0.00043412382, 0.000000009341443, -0.00010673728, -504249.63, -57562.07, 0.0, 10.0, 9.916036 
2.15e+2, 2.643288e+2, -416014.22, -490987.88, -0.00023610814, 0.000000009315592, 0.00014059363, -416014.22, -66436.54, 0.0, 10.0, 9.901964 
2.15e+2, 2.742313e+2, -316729.0, -391374.78, -0.00036363598, 0.000000009233387, -0.0002034446, -316729.0, -64195.99, 0.0, 10.0, 9.902385 
2.15e+2, 2.841256e+2, -230255.73, -318081.25, -0.0001711866, 0.000000009188506, 0.00022904543, -230255.73, -74686.766, 0.0, 10.0, 9.885439 
2.15e+2, 2.940121e+2, -130549.59, -217765.02, -0.0002810718, 0.000000009194955, -0.00025334334, -130549.59, -71868.2, 0.0, 10.0, 9.886217 
2.15e+2, 3.0392656e+2, -40805.582, -84750.16, -0.00004276901, 0.000000009204341, 0.00017313585, -40805.582, -40805.582, 0.0, 10.0, 9.942173 
2.15e+2, 3.138706e+2, -39727.57, -82511.21, -0.00012575292, 0.000000009217618, -0.00005514301, -39727.57, -39727.57, 0.0, 10.0, 9.943684 
2.25e+2, 1.2499334e+2, -1719946.3, -1724224.6, 0.0000655985, 0.000000010661935, 0.000017599174, -1719946.3, -4880.952, 0.0, 10.0, 9.994328 
2.25e+2, 1.349876e+2, -1622565.8, -1627434.9, -0.00009023491, 0.000000010473492, -0.00006840331, -1622565.8, -5444.165, 0.0, 10.0, 9.993545 
2.25e+2, 1.4497513e+2, -1534464.4, -1548146.3, -0.000049577582, 0.0000000103489395, 0.000070917304, -1534464.4, -15220.673, 0.0, 10.0, 9.981865 
2.25e+2, 1.5495703e+2, -1436736.6, -1450821.9, -0.00023566838, 0.0000000102883275, -0.000056980614, -1436736.6, -15315.49, 0.0, 10.0, 9.981333 
2.25e+2, 1.6493228e+2, -1348685.8, -1371952.4, -0.00015421043, 0.000000010233386, 0.000047341953, -1348685.8, -25021.984, 0.0, 10.0, 9.969248 
2.25e+2, 1.7490156e+2, -1250727.6, -1274310.1, -0.000286272, 0.000000010184233, -0.00007383181, -1250727.6, -24762.963, 0.0, 10.0, 9.968835 
2.25e+2, 1.8486421e+2, -1162646.8, -1195720.1, -0.00017458765, 0.000000010126079, 0.00006614374, -1162646.8, -34316.016, 0.0, 10.0, 9.956395 
2.25e+2, 1.9482064e+2, -1064497.0, -1097833.0, -0.00037518048, 0.0000000100585, -0.00005765727, -1064497.0, -33739.35, 0.0, 10.0, 9.956052 
2.25e+2, 2.0477042e+2, -976333.0, -1019435.0, -0.0002765046, 0.000000010003081, 0.000068077396, -976333.0, -43083.098, 0.0, 10.0, 9.943291 
2.25e+2, 2.1471375e+2, -878046.0, -921409.9, -0.00041582764, 0.0000000099608295, -0.00012682834, -878046.0, -42240.684, 0.0, 10.0, 9.942949 
2.25e+2, 2.2465037e+2, -789759.9, -843144.9, -0.00026706915, 0.00000000991488, 0.00012087875, -789759.9, -51333.58, 0.0, 10.0, 9.929908 
2.25e+2, 2.3458035e+2, -691326.4, -744966.44, -0.00040757703, 0.000000009864734, -0.000088818815, -691326.4, -50213.81, 0.0, 10.0, 9.929577 
2.25e+2, 2.4450338e+2, -603002.3, -667018.8, -0.0002607914, 0.000000009832662, 0.000074708434, -603002.3, -59135.406, 0.0, 10.0, 9.916136 
2.25e+2, 2.5441962e+2, -504249.63, -568343.3, -0.00041369922, 0.000000009822179, -0.00010673723, -504249.63, -57562.066, 0.0, 10.0, 9.916036 
2.25e+2, 2.643288e+2, -416014.22, -490987.88, -0.00021415722, 0.000000009789872, 0.00014059368, -416014.22, -66436.54, 0.0, 10.0, 9.901964 
2.25e+2, 2.742313e+2, -316729.0, -391374.78, -0.0003390029, 0.00000000972973, -0.00020344458, -316729.0, -64195.99, 0.0, 10.0, 9.902385 
2.25e+2, 2.841256e+2, -230255.73, -318081.25, -0.00013935013, 0.000000009694851, 0.00022904544, -230255.73, -74686.76, 0.0, 10.0, 9.885439 
2.25e+2, 2.940121e+2, -130549.59, -217765.0, -0.00025317367, 0.000000009694665, -0.0002533433, -130549.59, -71868.2, 0.0, 10.0, 9.886217 
2.25e+2, 3.0392656e+2, -40805.582, -84750.16, 0.0000014369289, 0.000000009703931, 0.00017313585, -40805.582, -40805.582, 0.0, 10.0, 9.942173 
2.25e+2, 3.138706e+2, -39727.57, -82511.21, -0.00007084768, 0.000000009726913, -0.000055143075, -39727.57, -39727.57, 0.0, 10.0, 9.943684 
2.35e+2, 1.2499334e+2, -1719946.3, -1724224.6, -0.000102258164, 0.000000011167044, 0.000017599203, -1719946.3, -4880.9526, 0.0, 10.0, 9.994328 
2.35e+2, 1.349876e+2, -1622565.8, -1627434.9, -0.00025813276, 0.000000011053908, -0.00006840319, -1622565.8, -5444.1655, 0.0, 10.0, 9.993545 
2.35e+2, 1.4497513e+2, -1534464.4, -1548146.3, -0.00018935055, 0.0000000109591864, 0.00007091753, -1534464.4, -15220.673, 0.0, 10.0, 9.981865 
2.35e+2, 1.5495703e+2, -1436736.6, -1450821.9, -0.0003753974, 0.000000010882655, -0.000056980563, -1436736.6, -15315.491, 0.0, 10.0, 9.981333 
2.35e+2, 1.6493228e+2, -1348685.8, -1371952.4, -0.00028583748, 0.000000010784871, 0.00004734196, -1348685.8, -25021.984, 0.0, 10.0, 9.969248 
2.35e+2, 1.7490156e+2, -1250727.6, -1274310.1, -0.00041785694, 0.0000000106653815, -0.00007383171, -1250727.6, -24762.965, 0.0, 10.0, 9.968835 
2.35e+2, 1.8486421e+2, -1162646.8, -1195720.1, -0.0002996708, 0.000000010596878, 0.00006614383, -1162646.8, -34316.02, 0.0, 10.0, 9.956395 
2.35e+2, 1.9482064e+2, -1064497.0, -1097833.0, -0.0005001891, 0.000000010581718, -0.000057657267, -1064497.0, -33739.35, 0.0, 10.0, 9.956052 
2.35e+2, 2.0477042e+2, -976333.0, -1019435.0, -0.00038301884, 0.000000010543893, 0.000068077396, -976333.0, -43083.098, 0.0, 10.0, 9.943291 
2.35e+2, 2.1471375e+2, -878046.0, -921409.9, -0.0005219608, 0.000000010481513, -0.00012682825, -878046.0, -42240.684, 0.0, 10.0, 9.942949 
2.35e+2, 2.2465037e+2, -789759.9, -843144.9, -0.00035824825, 0.000000010435612, 0.000120878845, -789759.9, -51333.58, 0.0, 10.0, 9.929908 
2.35e+2, 2.3458035e+2, -691326.4, -744966.44, -0.000498268, 0.000000010408367, -0.000088818815, -691326.4, -50213.81, 0.0, 10.0, 9.929577 
2.35e+2, 2.4450338e+2, -603002.3, -667018.8, -0.00032827564, 0.00000001035702, 0.00007470843, -603002.3, -59135.406, 0.0, 10.0, 9.916136 
2.35e+2, 2.5441962e+2, -504249.63, -568343.3, -0.00048006955, 0.000000010276857, -0.00010673715, -504249.63, -57562.066, 0.0, 10.0, 9.916036 
2.35e+2, 2.643288e+2, -416014.22, -490987.88, -0.0002711197, 0.000000010239019, 0.00014059378, -416014.22, -66436.54, 0.0, 10.0, 9.901964 
2.35e+2, 2.742313e+2, -316729.0, -391374.78, -0.00039533607, 0.000000010255103, -0.00020344455, -316729.0, -64195.99, 0.0, 10.0, 9.902385 
2.35e+2, 2.841256e+2, -230255.73, -318081.25, -0.0001813643, 0.000000010254613, 0.00022904541, -230255.73, -74686.76, 0.0, 10.0, 9.885439 
2.35e+2, 2.940121e+2, -130549.59, -217765.02, -0.00029389941, 0.00000001023118, -0.00025334337, -130549.59, -71868.2, 0.0, 10.0, 9.886217 
2.35e+2, 3.0392656e+2, -40805.582, -84750.16, -0.000023863748, 0.000000010218856, 0.0001731358, -40805.582, -40805.582, 0.0, 10.0, 9.942173 
2.35e+2, 3.138706e+2, -39727.57, -82511.21, -0.000094339535, 0.000000010223239, -0.00005514307, -39727.57, -39727.57, 0.0, 10.0, 9.943684 
2.45e+2, 1.2499334e+2, -1719946.3, -1724224.6, 0.00014274777, 0.00000001172867, 0.000017599217, -1719946.3, -4880.9497, 0.0, 10.0, 9.994328 
2.45e+2, 1.349876e+2, -1622565.8, -1627434.9, -0.000095158866, 0.0000000116090195, -0.000068403104, -1622565.8, -5444.1626, 0.0, 10.0, 9.993545 
2.45e+2, 1.4497513e+2, -1534464.4, -1548146.3, -0.000032107688, 0.000000011515536, 0.00007091772, -1534464.4, -15220.67, 0.0, 10.0, 9.981865 
2.45e+2, 1.5495703e+2, -1436736.6, -1450821.9, -0.00020248943, 0.000000011448061, -0.00005698056, -1436736.6, -15315.488, 0.0, 10.0, 9.981333 
2.45e+2, 1.6493228e+2, -1348685.8, -1371952.4, -0.00012457745, 0.000000011342443, 0.00004734195, -1348685.8, -25021.982, 0.0, 10.0, 9.969248 
2.45e+2, 1.7490156e+2, -1250727.6, -1274310.1, -0.00033978248, 0.000000011197873, -0.00007383156, -1250727.6, -24762.96, 0.0, 10.0, 9.968835 
2.45e+2, 1.8486421e+2, -1162646.8, -1195720.1, -0.0002376598, 0.000000011120935, 0.000066144, -1162646.8, -34316.016, 0.0, 10.0, 9.956395 
2.45e+2, 1.9482064e+2, -1064497.0, -1097833.0, -0.0003828786, 0.0000000111147616, -0.000057657257, -1064497.0, -33739.348, 0.0, 10.0, 9.956052 
2.45e+2, 2.0477042e+2, -976333.0, -1019435.0, -0.00024228237, 0.00000001107695, 0.00006807736, -976333.0, -43083.094, 0.0, 10.0, 9.943291 
2.45e+2, 2.1471375e+2, -878046.0, -921409.9, -0.0004335515, 0.000000011004861, -0.0001268282, -878046.0, -42240.68, 0.0, 10.0, 9.942949 
2.45e+2, 2.2465037e+2, -789759.9, -843144.9, -0.00029189006, 0.000000010955743, 0.000120878925, -789759.9, -51333.574, 0.0, 10.0, 9.929908 
2.45e+2, 2.3458035e+2, -691326.4, -744966.44, -0.0004547112, 0.0000000109326335, -0.00008881875, -691326.4, -50213.81, 0.0, 10.0, 9.929577 
2.45e+2, 2.4450338e+2, -603002.3, -667018.8, -0.0002758297, 0.000000010877586, 0.00007470847, -603002.3, -59135.406, 0.0, 10.0, 9.916136 
2.45e+2, 2.5441962e+2, -504249.63, -568343.3, -0.00043243842, 0.000000010784351, -0.00010673711, -504249.63, -57562.066, 0.0, 10.0, 9.916036 
2.45e+2, 2.643288e+2, -416014.22, -490987.88, -0.00022757224, 0.000000010748379, 0.00014059381, -416014.22, -66436.54, 0.0, 10.0, 9.901964 
2.45e+2, 2.742313e+2, -316729.0, -391374.78, -0.0003559352, 0.00000001078536, -0.00020344454, -316729.0, -64195.984, 0.0, 10.0, 9.902385 
2.45e+2, 2.841256e+2, -230255.73, -318081.25, -0.00012627857, 0.000000010793001, 0.00022904541, -230255.73, -74686.76, 0.0, 10.0, 9.885439 
2.45e+2, 2.940121e+2, -130549.59, -217765.0, -0.00025435977, 0.00000001076014, -0.0002533434, -130549.59, -71868.195, 0.0, 10.0, 9.886217 
2.45e+2, 3.0392656e+2, -40805.58, -84750.16, -0.0000035446858, 0.000000010733894, 0.00017313579, -40805.58, -40805.58, 0.0, 10.0, 9.942173 
2.45e+2, 3.138706e+2, -39727.566, -82511.21, -0.00014268527, 0.000000010717849, -0.000055143, -39727.566, -39727.566, 0.0, 10.0, 9.943684 
2.55e+2, 1.2499334e+2, -1719946.3, -1724224.6, -0.00004439775, 0.000000012346812, 0.000017599219, -1719946.3, -4880.95, 0.0, 10.0, 9.994328 
2.55e+2, 1.349876e+2, -1622565.8, -1627434.9, -0.00028235107, 0.000000012138825, -0.00006840305, -1622565.8, -5444.163, 0.0, 10.0, 9.993545 
2.55e+2, 1.4497513e+2, -1534464.4, -1548146.3, -0.00019351985, 0.00000001201799, 0.000070917864, -1534464.4, -15220.671, 0.0, 10.0, 9.981865 
2.55e+2, 1.5495703e+2, -1436736.6, -1450821.9, -0.0003638612, 0.000000011984548, -0.00005698061, -1436736.6, -15315.489, 0.0, 10.0, 9.981333 
2.55e+2, 1.6493228e+2, -1348685.8, -1371952.4, -0.00025226505, 0.000000011906104, 0.000047341924, -1348685.8, -25021.982, 0.0, 10.0, 9.969248 
2.55e+2, 1.7490156e+2, -1250727.6, -1274310.1, -0.00046729294, 0.000000011781705, -0.00007383134, -1250727.6, -24762.96, 0.0, 10.0, 9.968835 
2.55e+2, 1.8486421e+2, -1162646.8, -1195720.1, -0.0003734551, 0.000000011698251, 0.00006614423, -1162646.8, -34316.016, 0.0, 10.0, 9.956395 
2.55e+2, 1.9482064e+2, -1064497.0, -1097833.0, -0.00051877066, 0.000000011657632, -0.000057657242, -1064497.0, -33739.348, 0.0, 10.0, 9.956052 
2.55e+2, 2.0477042e+2, -976333.0, -1019435.0, -0.0003581075, 0.000000011602252, 0.000068077294, -976333.0, -43083.094, 0.0, 10.0, 9.943291 
2.55e+2, 2.1471375e+2, -878046.0, -921409.9, -0.0005489631, 0.000000011530872, -0.00012682819, -878046.0, -42240.68, 0.0, 10.0, 9.942949 
2.55e+2, 2.2465037e+2, -789759.9, -843144.9, -0.0003893284, 0.000000011475273, 0.00012087899, -789759.9, -51333.574, 0.0, 10.0, 9.929908 
2.55e+2, 2.3458035e+2, -691326.4, -744966.44, -0.0005515627, 0.000000011437535, -0.000088818626, -691326.4, -50213.81, 0.0, 10.0, 9.929577 
2.55e+2, 2.4450338e+2, -603002.3, -667018.8, -0.00034794596, 0.000000011394359, 0.00007470858, -603002.3, -59135.406, 0.0, 10.0, 9.916136 
2.55e+2, 2.5441962e+2, -504249.63, -568343.3, -0.0005033673, 0.00000001134466, -0.00010673711, -504249.63, -57562.066, 0.0, 10.0, 9.916036 
2.55e+2, 2.643288e+2, -416014.22, -490987.88, -0.00030636927, 0.000000011317949, 0.00014059377, -416014.22, -66436.54, 0.0, 10.0, 9.901964 
2.55e+2, 2.742313e+2, -316729.0, -391374.78, -0.00043526143, 0.000000011320501, -0.00020344452, -316729.0, -64195.984, 0.0, 10.0, 9.902385 
2.55e+2, 2.841256e+2, -230255.73, -318081.25, -0.00016940244, 0.000000011310016, 0.00022904544, -230255.73, -74686.76, 0.0, 10.0, 9.885439 
2.55e+2, 2.940121e+2, -130549.59, -217765.02, -0.00029422346, 0.000000011281546, -0.0002533434, -130549.59, -71868.195, 0.0, 10.0, 9.886217 
2.55e+2, 3.0392656e+2, -40805.58, -84750.16, -0.00001711204, 0.0000000112490435, 0.00017313582, -40805.58, -40805.58, 0.0, 10.0, 9.942173 
2.55e+2, 3.138706e+2, -39727.566, -82511.21, -0.00015316768, 0.000000011210741, -0.000055142857, -39727.566, -39727.566, 0.0, 10.0, 9.943684 
2.65e+2, 1.2499334e+2, -1719946.3, -1724224.6, 0.00015314842, 0.00000001297409, 0.000017599328, -1719946.3, -4880.9473, 0.0, 10.0, 9.994328 
2.65e+2, 1.349876e+2, -1622565.8, -1627434.9, -0.000072067596, 0.000000012688566, -0.00006840305, -1622565.8, -5444.16, 0.0, 10.0, 9.993545 
2.65e+2, 1.4497513e+2, -1534464.4, -1548146.3, 0.0000058465075, 0.000000012533962, 0.00007091798, -1534464.4, -15220.667, 0.0, 10.0, 9.981865 
2.65e+2, 1.5495703e+2, -1436736.6, -1450821.9, -0.00021092192, 0.000000012510816, -0.000056980527, -1436736.6, -15315.485, 0.0, 10.0, 9.981333 
2.65e+2, 1.6493228e+2, -1348685.6, -1371952.4, -0.000112701135, 0.00000001246, 0.000047341997, -1348685.6, -25021.979, 0.0, 10.0, 9.969248 
2.65e+2, 1.7490156e+2, -1250727.6, -1274310.1, -0.00034252994, 0.00000001238093, -0.00007383125, -1250727.6, -24762.959, 0.0, 10.0, 9.968835 
2.65e+2, 1.8486421e+2, -1162646.8, -1195720.1, -0.00024794138, 0.000000012296509, 0.00006614433, -1162646.8, -34316.01, 0.0, 10.0, 9.956395 
2.65e+2, 1.9482064e+2, -1064497.0, -1097833.0, -0.00042149393, 0.0000000122064785, -0.00005765717, -1064497.0, -33739.348, 0.0, 10.0, 9.956052 
2.65e+2, 2.0477042e+2, -976333.0, -1019435.0, -0.00026102253, 0.000000012130827, 0.00006807735, -976333.0, -43083.094, 0.0, 10.0, 9.943291 
2.65e+2, 2.1471375e+2, -878046.0, -921409.9, -0.00044953643, 0.000000012070739, -0.00012682815, -878046.0, -42240.676, 0.0, 10.0, 9.942949 
2.65e+2, 2.2465037e+2, -789759.9, -843144.9, -0.0002906626, 0.000000012015442, 0.00012087904, -789759.9, -51333.57, 0.0, 10.0, 9.929908 
2.65e+2, 2.3458035e+2, -691326.4, -744966.44, -0.00048684978, 0.000000011965555, -0.00008881857, -691326.4, -50213.805, 0.0, 10.0, 9.929577 
2.65e+2, 2.4450338e+2, -603002.3, -667018.8, -0.00028154193, 0.00000001193092, 0.00007470862, -603002.3, -59135.402, 0.0, 10.0, 9.916136 
2.65e+2, 2.5441962e+2, -504249.63, -568343.3, -0.0004236731, 0.000000011914493, -0.000106737105, -504249.63, -57562.063, 0.0, 10.0, 9.916036 
2.65e+2, 2.643288e+2, -416014.22, -490987.88, -0.00022049886, 0.0000000118890044, 0.00014059377, -416014.22, -66436.53, 0.0, 10.0, 9.901964 
2.65e+2, 2.742313e+2, -316729.0, -391374.78, -0.00039530397, 0.000000011851932, -0.00020344449, -316729.0, -64195.98, 0.0, 10.0, 9.902385 
2.65e+2, 2.841256e+2, -230255.73, -318081.25, -0.0001481223, 0.000000011820796, 0.00022904549, -230255.73, -74686.76, 0.0, 10.0, 9.885439 
2.65e+2, 2.940121e+2, -130549.59, -217765.0, -0.00030201662, 0.000000011797827, -0.00025334334, -130549.59, -71868.195, 0.0, 10.0, 9.886217 
2.65e+2, 3.0392656e+2, -40805.58, -84750.16, -0.000024172208, 0.000000011772659, 0.00017313586, -40805.58, -40805.58, 0.0, 10.0, 9.942173 
2.65e+2, 3.138706e+2, -39727.566, -82511.21, -0.00015808227, 0.000000011744178, -0.00005514283, -39727.566, -39727.566, 0.0, 10.0, 9.943684 
2.75e+2, 1.2499334e+2, -1719946.3, -1724224.6, -0.0000068014024, 0.000000013610507, 0.000017599541, -1719946.3, -4880.9478, 0.0, 10.0, 9.994328 
2.75e+2, 1.349876e+2, -1622565.8, -1627434.9, -0.00023205645, 0.000000013258243, -0.000068403104, -1622565.8, -5444.1606, 0.0, 10.0, 9.993545 
2.75e+2, 1.4497513e+2, -1534464.4, -1548146.3, -0.0001700194, 0.000000013063454, 0.00007091806, -1534464.4, -15220.668, 0.0, 10.0, 9.981865 
2.75e+2, 1.5495703e+2, -1436736.6, -1450821.9, -0.0003868135, 0.000000013026868, -0.000056980316, -1436736.6, -15315.486, 0.0, 10.0, 9.981333 
2.75e+2, 1.6493228e+2, -1348685.6, -1371952.4, -0.00028876125, 0.000000013004134, 0.00004734217, -1348685.6, -25021.98, 0.0, 10.0, 9.969248 
2.75e+2, 1.7490156e+2, -1250727.6, -1274310.1, -0.00051859155, 0.000000012995547, -0.00007383129, -1250727.6, -24762.959, 0.0, 10.0, 9.968835 
2.75e+2, 1.8486421e+2, -1162646.8, -1195720.1, -0.00037245514, 0.000000012915708, 0.00006614427, -1162646.8, -34316.01, 0.0, 10.0, 9.956395 
2.75e+2, 1.9482064e+2, -1064497.0, -1097833.0, -0.00054541155, 0.000000012761301, -0.000057657042, -1064497.0, -33739.348, 0.0, 10.0, 9.956052 
2.75e+2, 2.0477042e+2, -976333.0, -1019435.0, -0.00037881618, 0.000000012662675, 0.00006807754, -976333.0, -43083.094, 0.0, 10.0, 9.943291 
2.75e+2, 2.1471375e+2, -878046.0, -921409.9, -0.0005672046, 0.000000012624461, -0.00012682805, -878046.0, -42240.68, 0.0, 10.0, 9.942949 
2.75e+2, 2.2465037e+2, -789759.9, -843144.9, -0.00039887472, 0.000000012576249, 0.000120879085, -789759.9, -51333.574, 0.0, 10.0, 9.929908 
2.75e+2, 2.3458035e+2, -691326.4, -744966.44, -0.0005947537, 0.000000012516692, -0.00008881857, -691326.4, -50213.805, 0.0, 10.0, 9.929577 
2.75e+2, 2.4450338e+2, -603002.3, -667018.8, -0.0003856069, 0.00000001248727, 0.000074708616, -603002.3, -59135.402, 0.0, 10.0, 9.916136 
2.75e+2, 2.5441962e+2, -504249.63, -568343.3, -0.000527555, 0.0000000124938495, -0.00010673709, -504249.63, -57562.063, 0.0, 10.0, 9.916036 
2.75e+2, 2.643288e+2, -416014.22, -490987.88, -0.0002777803, 0.000000012461544, 0.00014059381, -416014.22, -66436.53, 0.0, 10.0, 9.901964 
2.75e+2, 2.742313e+2, -316729.0, -391374.78, -0.00044946274, 0.0000000123796555, -0.00020344445, -316729.0, -64195.984, 0.0, 10.0, 9.902385 
2.75e+2, 2.841256e+2, -230255.73, -318081.25, -0.0001955397, 0.000000012325341, 0.00022904554, -230255.73, -74686.76, 0.0, 10.0, 9.885439 
2.75e+2, 2.940121e+2, -130549.59, -217765.02, -0.0003488286, 0.00000001230898, -0.00025334326, -130549.59, -71868.195, 0.0, 10.0, 9.886217 
2.75e+2, 3.0392656e+2, -40805.58, -84750.16, -0.000058329206, 0.000000012304739, 0.00017313591, -40805.58, -40805.58, 0.0, 10.0, 9.942173 
2.75e+2, 3.138706e+2, -39727.566, -82511.21, -0.0001907559, 0.00000001231816, -0.000055142926, -39727.566, -39727.566, 0.0, 10.0, 9.943684 
2.85e+2, 1.2499334e+2, -1719946.3, -1724224.6, 0.00016730322, 0.000000014161384, 0.000017599736, -1719946.3, -4880.944, 0.0, 10.0, 9.994328 
2.85e+2, 1.349876e+2, -1622565.8, -1627434.9, -0.00007613796, 0.000000013866108, -0.00006840308, -1622565.8, -5444.157, 0.0, 10.0, 9.993545 
2.85e+2, 1.4497513e+2, -1534464.4, -1548146.3, -0.000028371416, 0.000000013689583, 0.00007091821, -1534464.4, -15220.665, 0.0, 10.0, 9.981865 
2.85e+2, 1.5495703e+2, -1436736.6, -1450821.9, -0.0002722493, 0.000000013632329, -0.000056980127, -1436736.6, -15315.483, 0.0, 10.0, 9.981333 
2.85e+2, 1.6493228e+2, -1348685.6, -1371952.4, -0.00015601143, 0.000000013585798, 0.000047342306, -1348685.6, -25021.977, 0.0, 10.0, 9.969248 
2.85e+2, 1.7490156e+2, -1250727.6, -1274310.1, -0.00033490628, 0.000000013550217, -0.0000738313, -1250727.6, -24762.957, 0.0, 10.0, 9.968835 
2.85e+2, 1.8486421e+2, -1162646.8, -1195720.1, -0.00016955585, 0.000000013467813, 0.00006614425, -1162646.8, -34316.01, 0.0, 10.0, 9.956395 
2.85e+2, 1.9482064e+2, -1064497.0, -1097833.0, -0.00042752663, 0.000000013336402, -0.000057656933, -1064497.0, -33739.344, 0.0, 10.0, 9.956052 
2.85e+2, 2.0477042e+2, -976333.0, -1019435.0, -0.00030068387, 0.000000013249747, 0.000068077694, -976333.0, -43083.09, 0.0, 10.0, 9.943291 
2.85e+2, 2.1471375e+2, -878045.94, -921409.9, -0.0005031589, 0.000000013211558, -0.00012682793, -878045.94, -42240.676, 0.0, 10.0, 9.942949 
2.85e+2, 2.2465037e+2, -789759.9, -843144.9, -0.00030579424, 0.000000013159993, 0.00012087914, -789759.9, -51333.57, 0.0, 10.0, 9.929908 
2.85e+2, 2.3458035e+2, -691326.4, -744966.44, -0.00045755593, 0.000000013093258, -0.00008881858, -691326.4, -50213.805, 0.0, 10.0, 9.929577 
2.85e+2, 2.4450338e+2, -603002.3, -667018.8, -0.00024912227, 0.000000013051721, 0.000074708594, -603002.3, -59135.402, 0.0, 10.0, 9.916136 
2.85e+2, 2.5441962e+2, -504249.63, -568343.3, -0.00047334103, 0.000000013040288, -0.00010673703, -504249.63, -57562.06, 0.0, 10.0, 9.916036 
2.85e+2, 2.643288e+2, -416014.22, -490987.88, -0.00024160257, 0.000000013002892, 0.0001405939, -416014.22, -66436.53, 0.0, 10.0, 9.901964 
2.85e+2, 2.742313e+2, -316729.0, -391374.78, -0.00041384783, 0.000000012932372, -0.00020344439, -316729.0, -64195.98, 0.0, 10.0, 9.902385 
2.85e+2, 2.841256e+2, -230255.72, -318081.25, -0.0001465197, 0.000000012886606, 0.00022904557, -230255.72, -74686.75, 0.0, 10.0, 9.885439 
2.85e+2, 2.940121e+2, -130549.586, -217765.0, -0.00029142335, 0.00000001287486, -0.00025334323, -130549.586, -71868.195, 0.0, 10.0, 9.886217 
2.85e+2, 3.0392656e+2, -40805.574, -84750.16, 0.000023669689, 0.000000012872583, 0.00017313591, -40805.574, -40805.574, 0.0, 10.0, 9.942173 
2.85e+2, 3.138706e+2, -39727.563, -82511.21, -0.00009136754, 0.000000012884063, -0.000055143013, -39727.563, -39727.563, 0.0, 10.0, 9.943684 
2.95e+2, 1.2499334e+2, -1719946.3, -1724224.6, -0.00004408355, 0.000000014626722, 0.000017599912, -1719946.3, -4880.945, 0.0, 10.0, 9.994328 
2.95e+2, 1.349876e+2, -1622565.8, -1627434.9, -0.00028757658, 0.00000001451216, -0.000068403, -1622565.8, -5444.1577, 0.0, 10.0, 9.993545 
2.95e+2, 1.4497513e+2, -1534464.4, -1548146.3, -0.00020873465, 0.000000014412349, 0.00007091843, -1534464.4, -15220.665, 0.0, 10.0, 9.981865 
2.95e+2, 1.5495703e+2, -1436736.6, -1450821.9, -0.00045256384, 0.0000000143272025, -0.00005697996, -1436736.6, -15315.483, 0.0, 10.0, 9.981333 
2.95e+2, 1.6493228e+2, -1348685.6, -1371952.4, -0.00032407, 0.0000000142049945, 0.0000473424, -1348685.6, -25021.977, 0.0, 10.0, 9.969248 
2.95e+2, 1.7490156e+2, -1250727.6, -1274310.1, -0.0005029008, 0.00000001404494, -0.000073831296, -1250727.6, -24762.957, 0.0, 10.0, 9.968835 
2.95e+2, 1.8486421e+2, -1162646.8, -1195720.1, -0.0003211243, 0.000000013952822, 0.00006614425, -1162646.8, -34316.01, 0.0, 10.0, 9.956395 
2.95e+2, 1.9482064e+2, -1064497.0, -1097833.0, -0.00057890563, 0.000000013931782, -0.00005765684, -1064497.0, -33739.344, 0.0, 10.0, 9.956052 
2.95e+2, 2.0477042e+2, -976333.0, -1019435.0, -0.00043618062, 0.00000001389204, 0.000068077825, -976333.0, -43083.09, 0.0, 10.0, 9.943291 
2.95e+2, 2.1471375e+2, -878045.94, -921409.9, -0.00063832867, 0.0000000138320315, -0.00012682781, -878045.94, -42240.676, 0.0, 10.0, 9.942949 
2.95e+2, 2.2465037e+2, -789759.9, -843144.9, -0.00041900406, 0.000000013766671, 0.00012087921, -789759.9, -51333.57, 0.0, 10.0, 9.929908 
2.95e+2, 2.3458035e+2, -691326.4, -744966.44, -0.0005700486, 0.000000013695254, -0.00008881861, -691326.4, -50213.805, 0.0, 10.0, 9.929577 
2.95e+2, 2.4450338e+2, -603002.3, -667018.8, -0.0003403015, 0.000000013624273, 0.00007470857, -603002.3, -59135.402, 0.0, 10.0, 9.916136 
2.95e+2, 2.5441962e+2, -504249.63, -568343.3, -0.00056349754, 0.000000013553809, -0.00010673693, -504249.63, -57562.06, 0.0, 10.0, 9.916036 
2.95e+2, 2.643288e+2, -416014.22, -490987.88, -0.00031985642, 0.00000001351305, 0.00014059403, -416014.22, -66436.53, 0.0, 10.0, 9.901964 
2.95e+2, 2.742313e+2, -316729.0, -391374.78, -0.00049130537, 0.00000001351008, -0.00020344435, -316729.0, -64195.98, 0.0, 10.0, 9.902385 
2.95e+2, 2.841256e+2, -230255.72, -318081.25, -0.00020810966, 0.000000013504591, 0.00022904557, -230255.72, -74686.75, 0.0, 10.0, 9.885439 
2.95e+2, 2.940121e+2, -130549.586, -217765.02, -0.0003515857, 0.000000013495467, -0.00025334329, -130549.586, -71868.195, 0.0, 10.0, 9.886217 
2.95e+2, 3.0392656e+2, -40805.574, -84750.16, -0.000018852907, 0.000000013476191, 0.00017313585, -40805.574, -40805.574, 0.0, 10.0, 9.942173 
2.95e+2, 3.138706e+2, -39727.563, -82511.21, -0.00013182177, 0.000000013441887, -0.00005514309, -39727.563, -39727.563, 0.0, 10.0, 9.943684 
3.05e+2, 1.2499334e+2, -1719946.3, -1724224.6, 0.00010367545, 0.000000015247485, 0.000017600167, -1719946.3, -4880.941, 0.0, 10.0, 9.994328 
3.05e+2, 1.349876e+2, -1622565.8, -1627434.9, -0.00013537567, 0.000000015161017, -0.00006840292, -1622565.8, -5444.1543, 0.0, 10.0, 9.993545 
3.05e+2, 1.4497513e+2, -1534464.4, -1548146.3, -0.000011903091, 0.000000015070274, 0.0000709186, -1534464.4, -15220.662, 0.0, 10.0, 9.981865 
3.05e+2, 1.5495703e+2, -1436736.6, -1450821.9, -0.00025055566, 0.00000001497507, -0.000056979898, -1436736.6, -15315.48, 0.0, 10.0, 9.981333 
3.05e+2, 1.6493228e+2, -1348685.6, -1371952.4, -0.00011974987, 0.000000014825512, 0.000047342448, -1348685.6, -25021.973, 0.0, 10.0, 9.969248 
3.05e+2, 1.7490156e+2, -1250727.6, -1274310.1, -0.00036309584, 0.0000000146204515, -0.00007383117, -1250727.6, -24762.953, 0.0, 10.0, 9.968835 
3.05e+2, 1.8486421e+2, -1162646.8, -1195720.1, -0.00020815323, 0.000000014526209, 0.00006614439, -1162646.8, -34316.008, 0.0, 10.0, 9.956395 
3.05e+2, 1.9482064e+2, -1064497.0, -1097833.0, -0.0004397308, 0.000000014547916, -0.000057656747, -1064497.0, -33739.34, 0.0, 10.0, 9.956052 
3.05e+2, 2.0477042e+2, -976333.0, -1019435.0, -0.00026126535, 0.0000000145158685, 0.00006807787, -976333.0, -43083.086, 0.0, 10.0, 9.943291 
3.05e+2, 2.1471375e+2, -878045.94, -921409.9, -0.00047205723, 0.000000014425588, -0.00012682783, -878045.94, -42240.67, 0.0, 10.0, 9.942949 
3.05e+2, 2.2465037e+2, -789759.9, -843144.9, -0.00027365476, 0.000000014348379, 0.00012087922, -789759.9, -51333.566, 0.0, 10.0, 9.929908 
3.05e+2, 2.3458035e+2, -691326.4, -744966.44, -0.00051137916, 0.000000014285982, -0.00008881848, -691326.4, -50213.8, 0.0, 10.0, 9.929577 
3.05e+2, 2.4450338e+2, -603002.3, -667018.8, -0.00029526188, 0.000000014217631, 0.000074708725, -603002.3, -59135.4, 0.0, 10.0, 9.916136 
3.05e+2, 2.5441962e+2, -504249.63, -568343.3, -0.00048754364, 0.000000014142139, -0.00010673688, -504249.63, -57562.06, 0.0, 10.0, 9.916036 
3.05e+2, 2.643288e+2, -416014.22, -490987.88, -0.00022197199, 0.000000014098271, 0.00014059403, -416014.22, -66436.53, 0.0, 10.0, 9.901964 
3.05e+2, 2.742313e+2, -316728.97, -391374.78, -0.00039897457, 0.0000000140946534, -0.00020344435, -316728.97, -64195.977, 0.0, 10.0, 9.902385 
3.05e+2, 2.841256e+2, -230255.72, -318081.25, -0.00011276803, 0.000000014092716, 0.00022904557, -230255.72, -74686.75, 0.0, 10.0, 9.885439 
3.05e+2, 2.940121e+2, -130549.586, -217765.0, -0.00028247514, 0.000000014092883, -0.00025334326, -130549.586, -71868.19, 0.0, 10.0, 9.886217 
3.05e+2, 3.0392656e+2, -40805.57, -84750.16, 0.000039283255, 0.00000001407859, 0.00017313585, -40805.57, -40805.57, 0.0, 10.0, 9.942173 
3.05e+2, 3.138706e+2, -39727.563, -82511.21, -0.000118322685, 0.000000014042813, -0.00005514309, -39727.563, -39727.563, 0.0, 10.0, 9.943684 
3.15e+2, 1.2499334e+2, -1719946.3, -1724224.6, -0.00014175243, 0.000000016023675, 0.0000176005, -1719946.3, -4880.9414, 0.0, 10.0, 9.994328 
3.15e+2, 1.349876e+2, -1622565.8, -1627434.9, -0.00038086454, 0.00000001581268, -0.000068402835, -1622565.8, -5444.155, 0.0, 10.0, 9.993545 
3.15e+2, 1.4497513e+2, -1534464.4, -1548146.3, -0.00021050572, 0.000000015663359, 0.00007091872, -1534464.4, -15220.662, 0.0, 10.0, 9.981865 
3.15e+2, 1.5495703e+2, -1436736.6, -1450821.9, -0.00044908444, 0.00000001557593, -0.000056979938, -1436736.6, -15315.48, 0.0, 10.0, 9.981333 
3.15e+2, 1.6493228e+2, -1348685.6, -1371952.4, -0.0002689232, 0.00000001544735, 0.000047342448, -1348685.6, -25021.975, 0.0, 10.0, 9.969248 
3.15e+2, 1.7490156e+2, -1250727.6, -1274310.1, -0.0005120093, 0.00000001527675, -0.00007383093, -1250727.6, -24762.953, 0.0, 10.0, 9.968835 
3.15e+2, 1.8486421e+2, -1162646.8, -1195720.1, -0.00038798427, 0.000000015187972, 0.00006614467, -1162646.8, -34316.008, 0.0, 10.0, 9.956395 
3.15e+2, 1.9482064e+2, -1064497.0, -1097833.0, -0.0006199208, 0.000000015184803, -0.000057656645, -1064497.0, -33739.34, 0.0, 10.0, 9.956052 
3.15e+2, 2.0477042e+2, -976333.0, -1019435.0, -0.00040598487, 0.00000001512123, 0.000068077825, -976333.0, -43083.086, 0.0, 10.0, 9.943291 
3.15e+2, 2.1471375e+2, -878045.94, -921409.9, -0.0006160452, 0.000000014992226, -0.00012682797, -878045.94, -42240.67, 0.0, 10.0, 9.942949 
3.15e+2, 2.2465037e+2, -789759.9, -843144.9, -0.00039118805, 0.000000014905117, 0.000120879165, -789759.9, -51333.566, 0.0, 10.0, 9.929908 
3.15e+2, 2.3458035e+2, -691326.4, -744966.44, -0.0006280483, 0.000000014865443, -0.0000888182, -691326.4, -50213.8, 0.0, 10.0, 9.929577 
3.15e+2, 2.4450338e+2, -603002.3, -667018.8, -0.00039320512, 0.000000014831794, 0.000074709045, -603002.3, -59135.4, 0.0, 10.0, 9.916136 
3.15e+2, 2.5441962e+2, -504249.63, -568343.3, -0.00058458856, 0.000000014805279, -0.00010673688, -504249.63, -57562.06, 0.0, 10.0, 9.916036 
3.15e+2, 2.643288e+2, -416014.22, -490987.88, -0.00031649595, 0.000000014758557, 0.00014059388, -416014.22, -66436.53, 0.0, 10.0, 9.901964 
3.15e+2, 2.742313e+2, -316728.97, -391374.78, -0.00049333146, 0.000000014686091, -0.00020344439, -316728.97, -64195.977, 0.0, 10.0, 9.902385 
3.15e+2, 2.841256e+2, -230255.72, -318081.25, -0.00018765782, 0.000000014650983, 0.00022904559, -230255.72, -74686.75, 0.0, 10.0, 9.885439 
3.15e+2, 2.940121e+2, -130549.586, -217765.02, -0.00035561307, 0.0000000146671075, -0.0002533432, -130549.586, -71868.19, 0.0, 10.0, 9.886217 
3.15e+2, 3.0392656e+2, -40805.57, -84750.16, 0.000000956056, 0.000000014679778, 0.00017313592, -40805.57, -40805.57, 0.0, 10.0, 9.942173 
3.15e+2, 3.138706e+2, -39727.563, -82511.21, -0.00015256582, 0.000000014686843, -0.000055143013, -39727.563, -39727.563, 0.0, 10.0, 9.943684 
3.25e+2, 1.2499334e+2, -1719946.3, -1724224.6, 0.00011895027, 0.000000016820929, 0.00001760061, -1719946.3, -4880.938, 0.0, 10.0, 9.994328 
3.25e+2, 1.349876e+2, -1622565.8, -1627434.9, -0.00012992688, 0.000000016462748, -0.000068402784, -1622565.8, -5444.151, 0.0, 10.0, 9.993545 
3.25e+2, 1.4497513e+2, -1534464.4, -1548146.3, 0.000035151294, 0.000000016244156, 0.000070918926, -1534464.4, -15220.658, 0.0, 10.0, 9.981865 
3.25e+2, 1.5495703e+2, -1436736.6, -1450821.9, -0.000232008, 0.000000016165847, -0.000056979876, -1436736.6, -15315.477, 0.0, 10.0, 9.981333 
3.25e+2, 1.6493228e+2, -1348685.6, -1371952.4, -0.00007751623, 0.000000016079666, 0.000047342503, -1348685.6, -25021.97, 0.0, 10.0, 9.969248 
3.25e+2, 1.7490156e+2, -1250727.6, -1274310.1, -0.00037432526, 0.000000015985448, -0.00007383074, -1250727.6, -24762.95, 0.0, 10.0, 9.968835 
3.25e+2, 1.8486421e+2, -1162646.8, -1195720.1, -0.000246176, 0.000000015893786, 0.00006614485, -1162646.8, -34316.004, 0.0, 10.0, 9.956395 
3.25e+2, 1.9482064e+2, -1064497.0, -1097833.0, -0.00045762787, 0.000000015804794, -0.000057656594, -1064497.0, -33739.336, 0.0, 10.0, 9.956052 
3.25e+2, 2.0477042e+2, -976333.0, -1019435.0, -0.00021997328, 0.000000015701888, 0.00006807783, -976333.0, -43083.082, 0.0, 10.0, 9.943291 
3.25e+2, 2.1471375e+2, -878045.94, -921409.9, -0.00044992153, 0.000000015583907, -0.00012682792, -878045.94, -42240.668, 0.0, 10.0, 9.942949 
3.25e+2, 2.2465037e+2, -789759.9, -843144.9, -0.00025322023, 0.000000015510631, 0.00012087925, -789759.9, -51333.563, 0.0, 10.0, 9.929908 
3.25e+2, 2.3458035e+2, -691326.3, -744966.44, -0.00054862566, 0.00000001548795, -0.00008881809, -691326.3, -50213.797, 0.0, 10.0, 9.929577 
3.25e+2, 2.4450338e+2, -603002.3, -667018.8, -0.00030978626, 0.000000015464002, 0.00007470913, -603002.3, -59135.395, 0.0, 10.0, 9.916136 
3.25e+2, 2.5441962e+2, -504249.63, -568343.3, -0.0004654599, 0.00000001543847, -0.00010673686, -504249.63, -57562.055, 0.0, 10.0, 9.916036 
3.25e+2, 2.643288e+2, -416014.22, -490987.88, -0.00017325058, 0.000000015389956, 0.00014059388, -416014.22, -66436.52, 0.0, 10.0, 9.901964 
3.25e+2, 2.742313e+2, -316728.97, -391374.78, -0.00039654388, 0.000000015312184, -0.00020344439, -316728.97, -64195.973, 0.0, 10.0, 9.902385 
3.25e+2, 2.841256e+2, -230255.72, -318081.25, -0.00012907326, 0.000000015263735, 0.00022904562, -230255.72, -74686.75, 0.0, 10.0, 9.885439 
3.25e+2, 2.940121e+2, -130549.586, -217765.0, -0.0003477775, 0.000000015255536, -0.00025334317, -130549.586, -71868.19, 0.0, 10.0, 9.886217 
3.25e+2, 3.0392656e+2, -40805.57, -84750.16, -0.000008576485, 0.00000001526873, 0.000173136, -40805.57, -40805.57, 0.0, 10.0, 9.942173 
3.25e+2, 3.138706e+2, -39727.56, -82511.21, -0.00016618027, 0.000000015313322, -0.00005514296, -39727.56, -39727.56, 0.0, 10.0, 9.943684 
3.35e+2, 1.2499334e+2, -1719946.3, -1724224.6, -0.00006130592, 0.000000017639247, 0.000017600501, -1719946.3, -4880.9385, 0.0, 10.0, 9.994328 
3.35e+2, 1.349876e+2, -1622565.8, -1627434.9, -0.00031022553, 0.000000017111223, -0.00006840276, -1622565.8, -5444.1514, 0.0, 10.0, 9.993545 
3.35e+2, 1.4497513e+2, -1534464.4, -1548146.3, -0.00016636806, 0.000000016812667, 0.00007091921, -1534464.4, -15220.659, 0.0, 10.0, 9.981865 
3.35e+2, 1.5495703e+2, -1436736.6, -1450821.9, -0.0004335615, 0.000000016744822, -0.00005697971, -1436736.6, -15315.478, 0.0, 10.0, 9.981333 
3.35e+2, 1.6493228e+2, -1348685.6, -1371952.4, -0.00029950892, 0.000000016722458, 0.000047342615, -1348685.6, -25021.97, 0.0, 10.0, 9.969248 
3.35e+2, 1.7490156e+2, -1250727.6, -1274310.1, -0.0005964265, 0.00000001674654, -0.00007383062, -1250727.6, -24762.951, 0.0, 10.0, 9.968835 
3.35e+2, 1.8486421e+2, -1162646.8, -1195720.1, -0.0003953005, 0.000000016643652, 0.00006614494, -1162646.8, -34316.004, 0.0, 10.0, 9.956395 
3.35e+2, 1.9482064e+2, -1064497.0, -1097833.0, -0.0006059083, 0.000000016407888, -0.000057656605, -1064497.0, -33739.336, 0.0, 10.0, 9.956052 
3.35e+2, 2.0477042e+2, -976333.0, -1019435.0, -0.0003594939, 0.000000016257843, 0.000068077876, -976333.0, -43083.086, 0.0, 10.0, 9.943291 
3.35e+2, 2.1471375e+2, -878045.94, -921409.9, -0.00058926234, 0.00000001620063, -0.00012682767, -878045.94, -42240.668, 0.0, 10.0, 9.942949 
3.35e+2, 2.2465037e+2, -789759.9, -843144.9, -0.00040002778, 0.000000016164922, 0.000120879486, -789759.9, -51333.563, 0.0, 10.0, 9.929908 
3.35e+2, 2.3458035e+2, -691326.3, -744966.44, -0.0006956789, 0.000000016153507, -0.00008881816, -691326.3, -50213.797, 0.0, 10.0, 9.929577 
3.35e+2, 2.4450338e+2, -603002.3, -667018.8, -0.00043611595, 0.000000016114253, 0.00007470899, -603002.3, -59135.395, 0.0, 10.0, 9.916136 
3.35e+2, 2.5441962e+2, -504249.63, -568343.3, -0.00059079536, 0.000000016041714, -0.00010673681, -504249.63, -57562.055, 0.0, 10.0, 9.916036 
3.35e+2, 2.643288e+2, -416014.22, -490987.88, -0.00025098093, 0.000000015992468, 0.00014059401, -416014.22, -66436.52, 0.0, 10.0, 9.901964 
3.35e+2, 2.742313e+2, -316728.97, -391374.78, -0.00047108444, 0.000000015972935, -0.0002034443, -316728.97, -64195.977, 0.0, 10.0, 9.902385 
3.35e+2, 2.841256e+2, -230255.72, -318081.25, -0.0002010811, 0.000000015930974, 0.00022904566, -230255.72, -74686.75, 0.0, 10.0, 9.885439 
3.35e+2, 2.940121e+2, -130549.586, -217765.02, -0.0004195595, 0.000000015858163, -0.0002533431, -130549.586, -71868.19, 0.0, 10.0, 9.886217 
3.35e+2, 3.0392656e+2, -40805.57, -84750.16, -0.00008210728, 0.000000015845448, 0.00017313604, -40805.57, -40805.57, 0.0, 10.0, 9.942173 
3.35e+2, 3.138706e+2, -39727.56, -82511.21, -0.0002399191, 0.000000015922254, -0.000055142922, -39727.56, -39727.56, 0.0, 10.0, 9.943684 
3.45e+2, 1.2499334e+2, -1719946.3, -1724224.6, 0.00041380426, 0.000000018226169, 0.000017600427, -1719946.3, -4880.9336, 0.0, 10.0, 9.994328 
3.45e+2, 1.349876e+2, -1622565.8, -1627434.9, -0.000010991407, 0.000000017760177, -0.00006840276, -1622565.8, -5444.147, 0.0, 10.0, 9.993545 
3.45e+2, 1.4497513e+2, -1534464.4, -1548146.3, 0.00003412413, 0.00000001750247, 0.00007091949, -1534464.4, -15220.654, 0.0, 10.0, 9.981865 
3.45e+2, 1.5495703e+2, -1436736.6, -1450821.9, -0.0002549113, 0.000000017454198, -0.000056979505, -1436736.6, -15315.474, 0.0, 10.0, 9.981333 
3.45e+2, 1.6493228e+2, -1348685.6, -1371952.4, -0.000105553736, 0.000000017416939, 0.000047342735, -1348685.6, -25021.967, 0.0, 10.0, 9.969248 
3.45e+2, 1.7490156e+2, -1250727.6, -1274310.1, -0.00036418802, 0.000000017390928, -0.00007383058, -1250727.6, -24762.947, 0.0, 10.0, 9.968835 
3.45e+2, 1.8486421e+2, -1162646.8, -1195720.1, -0.00012947379, 0.000000017267874, 0.00006614495, -1162646.8, -34316.0, 0.0, 10.0, 9.956395 
3.45e+2, 1.9482064e+2, -1064497.0, -1097833.0, -0.0004135012, 0.00000001704326, -0.00005765654, -1064497.0, -33739.332, 0.0, 10.0, 9.956052 
3.45e+2, 2.0477042e+2, -976333.0, -1019435.0, -0.00024151546, 0.000000016919438, 0.00006807802, -976333.0, -43083.082, 0.0, 10.0, 9.943291 
3.45e+2, 2.1471375e+2, -878045.94, -921409.9, -0.0005559343, 0.000000016904778, -0.00012682739, -878045.94, -42240.664, 0.0, 10.0, 9.942949 
3.45e+2, 2.2465037e+2, -789759.9, -843144.9, -0.00031482909, 0.000000016867226, 0.000120879675, -789759.9, -51333.56, 0.0, 10.0, 9.929908 
3.45e+2, 2.3458035e+2, -691326.3, -744966.44, -0.00044470432, 0.000000016803707, -0.00008881828, -691326.3, -50213.793, 0.0, 10.0, 9.929577 
3.45e+2, 2.4450338e+2, -603002.25, -667018.8, -0.00015552063, 0.000000016728581, 0.00007470882, -603002.25, -59135.39, 0.0, 10.0, 9.916136 
3.45e+2, 2.5441962e+2, -504249.63, -568343.3, -0.00048957294, 0.000000016639607, -0.00010673672, -504249.63, -57562.05, 0.0, 10.0, 9.916036 
3.45e+2, 2.643288e+2, -416014.2, -490987.88, -0.00023306243, 0.000000016606213, 0.0001405942, -416014.2, -66436.52, 0.0, 10.0, 9.901964 
3.45e+2, 2.742313e+2, -316728.97, -391374.78, -0.00044156812, 0.000000016643577, -0.00020344422, -316728.97, -64195.973, 0.0, 10.0, 9.902385 
3.45e+2, 2.841256e+2, -230255.72, -318081.25, -0.00011723468, 0.000000016625613, 0.00022904569, -230255.72, -74686.74, 0.0, 10.0, 9.885439 
3.45e+2, 2.940121e+2, -130549.58, -217765.0, -0.00029947225, 0.000000016531589, -0.00025334314, -130549.58, -71868.19, 0.0, 10.0, 9.886217 
3.45e+2, 3.0392656e+2, -40805.566, -84750.16, 0.000040388237, 0.000000016476532, 0.00017313601, -40805.566, -40805.566, 0.0, 10.0, 9.942173 
3.45e+2, 3.138706e+2, -39727.555, -82511.21, -0.00017662416, 0.00000001648007, -0.00005514289, -39727.555, -39727.555, 0.0, 10.0, 9.943684 
3.55e+2, 1.2499334e+2, -1719946.3, -1724224.6, 0.0001589792, 0.000000018581693, 0.00001760039, -1719946.3, -4880.935, 0.0, 10.0, 9.994328 
3.55e+2, 1.349876e+2, -1622565.8, -1627434.9, -0.0002658786, 0.00000001840961, -0.000068402784, -1622565.8, -5444.148, 0.0, 10.0, 9.993545 
3.55e+2, 1.4497513e+2, -1534464.4, -1548146.3, -0.00020074596, 0.00000001831357, 0.000070919756, -1534464.4, -15220.655, 0.0, 10.0, 9.981865 
3.55e+2, 1.5495703e+2, -1436736.6, -1450821.9, -0.00048975024, 0.000000018293976, -0.00005697926, -1436736.6, -15315.474, 0.0, 10.0, 9.981333 
3.55e+2, 1.6493228e+2, -1348685.6, -1371952.4, -0.00030691497, 0.000000018163107, 0.000047342874, -1348685.6, -25021.967, 0.0, 10.0, 9.969248 
3.55e+2, 1.7490156e+2, -1250727.6, -1274310.1, -0.0005653734, 0.000000017918614, -0.00007383064, -1250727.6, -24762.947, 0.0, 10.0, 9.968835 
3.55e+2, 1.8486421e+2, -1162646.8, -1195720.1, -0.0003055262, 0.000000017766457, 0.000066144894, -1162646.8, -34316.0, 0.0, 10.0, 9.956395 
3.55e+2, 1.9482064e+2, -1064497.0, -1097833.0, -0.0005892635, 0.000000017710905, -0.000057656405, -1064497.0, -33739.336, 0.0, 10.0, 9.956052 
3.55e+2, 2.0477042e+2, -976333.0, -1019435.0, -0.00041818165, 0.000000017686675, 0.00006807827, -976333.0, -43083.082, 0.0, 10.0, 9.943291 
3.55e+2, 2.1471375e+2, -878045.94, -921409.9, -0.00073262036, 0.000000017696353, -0.00012682713, -878045.94, -42240.668, 0.0, 10.0, 9.942949 
3.55e+2, 2.2465037e+2, -789759.9, -843144.9, -0.00044599464, 0.000000017617545, 0.00012087981, -789759.9, -51333.563, 0.0, 10.0, 9.929908 
3.55e+2, 2.3458035e+2, -691326.3, -744966.44, -0.0005743822, 0.000000017438555, -0.000088818444, -691326.3, -50213.793, 0.0, 10.0, 9.929577 
3.55e+2, 2.4450338e+2, -603002.25, -667018.8, -0.00026479823, 0.000000017306988, 0.00007470864, -603002.25, -59135.39, 0.0, 10.0, 9.916136 
3.55e+2, 2.5441962e+2, -504249.63, -568343.3, -0.00059787196, 0.00000001723215, -0.00010673659, -504249.63, -57562.05, 0.0, 10.0, 9.916036 
3.55e+2, 2.643288e+2, -416014.2, -490987.88, -0.00036331097, 0.000000017231192, 0.00014059445, -416014.2, -66436.52, 0.0, 10.0, 9.901964 
3.55e+2, 2.742313e+2, -316728.97, -391374.78, -0.0005732904, 0.00000001732411, -0.00020344408, -316728.97, -64195.973, 0.0, 10.0, 9.902385 
3.55e+2, 2.841256e+2, -230255.72, -318081.25, -0.00018472616, 0.000000017347652, 0.00022904569, -230255.72, -74686.74, 0.0, 10.0, 9.885439 
3.55e+2, 2.940121e+2, -130549.58, -217765.02, -0.00036117868, 0.000000017275813, -0.00025334326, -130549.58, -71868.19, 0.0, 10.0, 9.886217 
3.55e+2, 3.0392656e+2, -40805.566, -84750.16, -0.0000014911168, 0.000000017161986, 0.00017313588, -40805.566, -40805.566, 0.0, 10.0, 9.942173 
3.55e+2, 3.138706e+2, -39727.555, -82511.21, -0.00021617883, 0.000000016986775, -0.00005514286, -39727.555, -39727.555, 0.0, 10.0, 9.943684 
3.65e+2, 1.2499334e+2, -1719946.3, -1724224.6, 0.00017896181, 0.000000019192752, 0.000017600909, -1719946.3, -4880.9297, 0.0, 10.0, 9.994328 
3.65e+2, 1.349876e+2, -1622565.8, -1627434.9, -0.000083377774, 0.00000001913633, -0.000068402755, -1622565.8, -5444.1436, 0.0, 10.0, 9.993545 
3.65e+2, 1.4497513e+2, -1534464.4, -1548146.3, 0.00007978418, 0.00000001908033, 0.000070919865, -1534464.4, -15220.65, 0.0, 10.0, 9.981865 
3.65e+2, 1.5495703e+2, -1436736.6, -1450821.9, -0.00025914647, 0.000000019024716, -0.00005697912, -1436736.6, -15315.47, 0.0, 10.0, 9.981333 
3.65e+2, 1.6493228e+2, -1348685.6, -1371952.4, -0.000048949383, 0.000000018850226, 0.000047342997, -1348685.6, -25021.963, 0.0, 10.0, 9.969248 
3.65e+2, 1.7490156e+2, -1250727.6, -1274310.1, -0.00031821505, 0.000000018554351, -0.00007383059, -1250727.6, -24762.943, 0.0, 10.0, 9.968835 
3.65e+2, 1.8486421e+2, -1162646.6, -1195720.1, -0.00010423739, 0.000000018417078, 0.000066144974, -1162646.6, -34315.996, 0.0, 10.0, 9.956395 
3.65e+2, 1.9482064e+2, -1064497.0, -1097833.0, -0.00044986303, 0.000000018445752, -0.000057656183, -1064497.0, -33739.332, 0.0, 10.0, 9.956052 
3.65e+2, 2.0477042e+2, -976333.0, -1019435.0, -0.00024498484, 0.000000018434163, 0.00006807844, -976333.0, -43083.08, 0.0, 10.0, 9.943291 
3.65e+2, 2.1471375e+2, -878045.94, -921409.9, -0.0004717381, 0.000000018378946, -0.0001268272, -878045.94, -42240.664, 0.0, 10.0, 9.942949 
3.65e+2, 2.2465037e+2, -789759.8, -843144.9, -0.00017686504, 0.000000018269606, 0.00012087973, -789759.8, -51333.555, 0.0, 10.0, 9.929908 
3.65e+2, 2.3458035e+2, -691326.3, -744966.44, -0.00048487954, 0.000000018099012, -0.00008881826, -691326.3, -50213.79, 0.0, 10.0, 9.929577 
3.65e+2, 2.4450338e+2, -603002.25, -667018.8, -0.00022837524, 0.000000017995609, 0.00007470887, -603002.25, -59135.387, 0.0, 10.0, 9.916136 
3.65e+2, 2.5441962e+2, -504249.63, -568343.3, -0.00047097658, 0.000000017972507, -0.000106736545, -504249.63, -57562.047, 0.0, 10.0, 9.916036 
3.65e+2, 2.643288e+2, -416014.2, -490987.88, -0.00018577669, 0.000000017955564, 0.0001405944, -416014.2, -66436.516, 0.0, 10.0, 9.901964 
3.65e+2, 2.742313e+2, -316728.97, -391374.78, -0.00042634126, 0.000000017946254, -0.00020344408, -316728.97, -64195.97, 0.0, 10.0, 9.902385 
3.65e+2, 2.841256e+2, -230255.72, -318081.25, -0.00005290123, 0.000000017940476, 0.00022904572, -230255.72, -74686.74, 0.0, 10.0, 9.885439 
3.65e+2, 2.940121e+2, -130549.58, -217765.0, -0.00028367495, 0.000000017939488, -0.0002533432, -130549.58, -71868.18, 0.0, 10.0, 9.886217 
3.65e+2, 3.0392656e+2, -40805.563, -84750.16, 0.00007786107, 0.000000017869185, 0.00017313591, -40805.563, -40805.563, 0.0, 10.0, 9.942173 
3.65e+2, 3.138706e+2, -39727.55, -82511.21, -0.00012546623, 0.000000017695982, -0.000055142933, -39727.55, -39727.55, 0.0, 10.0, 9.943684 
3.75e+2, 1.2499334e+2, -1719946.3, -1724224.6, -0.00014028001, 0.00000002005935, 0.000017601986, -1719946.3, -4880.9307, 0.0, 10.0, 9.994328 
3.75e+2, 1.349876e+2, -1622565.8, -1627434.9, -0.00040269867, 0.000000019940336, -0.00006840268, -1622565.8, -5444.144, 0.0, 10.0, 9.993545 
3.75e+2, 1.4497513e+2, -1534464.4, -1548146.3, -0.00017922503, 0.000000019802755, 0.00007091981, -1534464.4, -15220.651, 0.0, 10.0, 9.981865 
3.75e+2, 1.5495703e+2, -1436736.6, -1450821.9, -0.0005180607, 0.000000019646414, -0.000056979083, -1436736.6, -15315.471, 0.0, 10.0, 9.981333 
3.75e+2, 1.6493228e+2, -1348685.6, -1371952.4, -0.00022721762, 0.000000019478293, 0.000047343106, -1348685.6, -25021.963, 0.0, 10.0, 9.969248 
3.75e+2, 1.7490156e+2, -1250727.6, -1274310.1, -0.0004960584, 0.00000001929814, -0.00007383043, -1250727.6, -24762.943, 0.0, 10.0, 9.968835 
3.75e+2, 1.8486421e+2, -1162646.6, -1195720.1, -0.0003293301, 0.000000019219739, 0.00006614519, -1162646.6, -34315.996, 0.0, 10.0, 9.956395 
3.75e+2, 1.9482064e+2, -1064497.0, -1097833.0, -0.000675504, 0.0000000192478, -0.000057655878, -1064497.0, -33739.332, 0.0, 10.0, 9.956052 
3.75e+2, 2.0477042e+2, -976333.0, -1019435.0, -0.00042316003, 0.000000019161899, 0.000068078545, -976333.0, -43083.08, 0.0, 10.0, 9.943291 
3.75e+2, 2.1471375e+2, -878045.94, -921409.9, -0.00064893416, 0.000000018952557, -0.00012682761, -878045.94, -42240.664, 0.0, 10.0, 9.942949 
3.75e+2, 2.2465037e+2, -789759.8, -843144.9, -0.00030830724, 0.000000018823414, 0.000120879435, -789759.8, -51333.56, 0.0, 10.0, 9.929908 
3.75e+2, 2.3458035e+2, -691326.3, -744966.44, -0.0006148264, 0.000000018785078, -0.00008881774, -691326.3, -50213.793, 0.0, 10.0, 9.929577 
3.75e+2, 2.4450338e+2, -603002.25, -667018.8, -0.00037047753, 0.000000018794443, 0.000074709526, -603002.25, -59135.39, 0.0, 10.0, 9.916136 
3.75e+2, 2.5441962e+2, -504249.63, -568343.3, -0.00061366486, 0.000000018860677, -0.00010673659, -504249.63, -57562.047, 0.0, 10.0, 9.916036 
3.75e+2, 2.643288e+2, -416014.2, -490987.88, -0.00028071154, 0.000000018779328, 0.00014059407, -416014.2, -66436.52, 0.0, 10.0, 9.901964 
3.75e+2, 2.742313e+2, -316728.97, -391374.78, -0.0005180767, 0.000000018510011, -0.00020344422, -316728.97, -64195.97, 0.0, 10.0, 9.902385 
3.75e+2, 2.841256e+2, -230255.72, -318081.25, -0.00015633703, 0.000000018404085, 0.00022904579, -230255.72, -74686.74, 0.0, 10.0, 9.885439 
3.75e+2, 2.940121e+2, -130549.58, -217765.02, -0.0003881675, 0.000000018522616, -0.00025334297, -130549.58, -71868.18, 0.0, 10.0, 9.886217 
3.75e+2, 3.0392656e+2, -40805.563, -84750.16, 0.000021970189, 0.000000018598131, 0.0001731361, -40805.563, -40805.563, 0.0, 10.0, 9.942173 
3.75e+2, 3.138706e+2, -39727.55, -82511.21, -0.00017565441, 0.00000001860769, -0.000055143108, -39727.55, -39727.55, 0.0, 10.0, 9.943684 
3.85e+2, 1.2499334e+2, -1719946.1, -1724224.6, -0.00003775691, 0.000000021036016, 0.00001760236, -1719946.1, -4880.9263, 0.0, 10.0, 9.994328 
3.85e+2, 1.349876e+2, -1622565.8, -1627434.9, -0.00024692144, 0.000000020758407, -0.000068402485, -1622565.8, -5444.139, 0.0, 10.0, 9.993545 
3.85e+2, 1.4497513e+2, -1534464.4, -1548146.3, 0.00006098706, 0.000000020515293, 0.000070920105, -1534464.4, -15220.646, 0.0, 10.0, 9.981865 
3.85e+2, 1.5495703e+2, -1436736.6, -1450821.9, -0.00024882195, 0.000000020306732, -0.000056979065, -1436736.6, -15315.465, 0.0, 10.0, 9.981333 
3.85e+2, 1.6493228e+2, -1348685.6, -1371952.4, 0.000015215608, 0.000000020173099, 0.00004734312, -1348685.6, -25021.959, 0.0, 10.0, 9.969248 
3.85e+2, 1.7490156e+2, -1250727.6, -1274310.1, -0.00034789555, 0.000000020115966, -0.00007383013, -1250727.6, -24762.94, 0.0, 10.0, 9.968835 
3.85e+2, 1.8486421e+2, -1162646.6, -1195720.1, -0.00016205132, 0.000000020055863, 0.0000661455, -1162646.6, -34315.992, 0.0, 10.0, 9.956395 
3.85e+2, 1.9482064e+2, -1064497.0, -1097833.0, -0.00042350063, 0.000000019992639, -0.00005765587, -1064497.0, -33739.33, 0.0, 10.0, 9.956052 
3.85e+2, 2.0477042e+2, -976333.0, -1019435.0, -0.00010499045, 0.000000019838012, 0.00006807845, -976333.0, -43083.074, 0.0, 10.0, 9.943291 
3.85e+2, 2.1471375e+2, -878045.94, -921409.9, -0.00037865608, 0.000000019584387, -0.0001268276, -878045.94, -42240.656, 0.0, 10.0, 9.942949 
3.85e+2, 2.2465037e+2, -789759.8, -843144.9, -0.0001242944, 0.000000019484336, 0.00012087955, -789759.8, -51333.55, 0.0, 10.0, 9.929908 
3.85e+2, 2.3458035e+2, -691326.3, -744966.44, -0.0005373706, 0.000000019558136, -0.000088817535, -691326.3, -50213.785, 0.0, 10.0, 9.929577 
3.85e+2, 2.4450338e+2, -603002.25, -667018.8, -0.000286366, 0.00000001959317, 0.0000747097, -603002.25, -59135.383, 0.0, 10.0, 9.916136 
3.85e+2, 2.5441962e+2, -504249.6, -568343.3, -0.00045870896, 0.000000019581703, -0.000106736574, -504249.6, -57562.043, 0.0, 10.0, 9.916036 
3.85e+2, 2.643288e+2, -416014.2, -490987.88, -0.000060234357, 0.0000000194647, 0.00014059403, -416014.2, -66436.516, 0.0, 10.0, 9.901964 
3.85e+2, 2.742313e+2, -316728.97, -391374.78, -0.00035258106, 0.000000019213475, -0.00020344419, -316728.97, -64195.965, 0.0, 10.0, 9.902385 
3.85e+2, 2.841256e+2, -230255.7, -318081.25, -0.000068011315, 0.000000019107615, 0.00022904585, -230255.7, -74686.734, 0.0, 10.0, 9.885439 
3.85e+2, 2.940121e+2, -130549.57, -217765.0, -0.00034555432, 0.000000019201284, -0.00025334288, -130549.57, -71868.18, 0.0, 10.0, 9.886217 
3.85e+2, 3.0392656e+2, -40805.56, -84750.16, 0.00007465648, 0.000000019303762, 0.00017313614, -40805.56, -40805.56, 0.0, 10.0, 9.942173 
3.85e+2, 3.138706e+2, -39727.547, -82511.21, -0.000067589615, 0.000000019417435, -0.000055143173, -39727.547, -39727.547, 0.0, 10.0, 9.943684 
3.95e+2, 1.2499334e+2, -1719946.3, -1724224.6, -0.0002723427, 0.00000002212275, 0.000017602031, -1719946.3, -4880.927, 0.0, 10.0, 9.994328 
3.95e+2, 1.349876e+2, -1622565.8, -1627434.9, -0.0004815598, 0.000000021590541, -0.00006840217, -1622565.8, -5444.14, 0.0, 10.0, 9.993545 
3.95e+2, 1.4497513e+2, -1534464.4, -1548146.3, -0.00014947972, 0.00000002121794, 0.00007092077, -1534464.4, -15220.647, 0.0, 10.0, 9.981865 
3.95e+2, 1.5495703e+2, -1436736.6, -1450821.9, -0.00045925117, 0.00000002100567, -0.000056979068, -1436736.6, -15315.466, 0.0, 10.0, 9.981333 
3.95e+2, 1.6493228e+2, -1348685.6, -1371952.4, -0.00026785917, 0.00000002093464, 0.00004734304, -1348685.6, -25021.959, 0.0, 10.0, 9.969248 
3.95e+2, 1.7490156e+2, -1250727.6, -1274310.1, -0.0006313547, 0.00000002100783, -0.00007382968, -1250727.6, -24762.94, 0.0, 10.0, 9.968835 
3.95e+2, 1.8486421e+2, -1162646.6, -1195720.1, -0.00034769982, 0.000000020925452, 0.00006614589, -1162646.6, -34315.992, 0.0, 10.0, 9.956395 
3.95e+2, 1.9482064e+2, -1064497.0, -1097833.0, -0.00060801767, 0.000000020680266, -0.00005765616, -1064497.0, -33739.33, 0.0, 10.0, 9.956052 
3.95e+2, 2.0477042e+2, -976333.0, -1019435.0, -0.00024809866, 0.000000020462503, 0.00006807817, -976333.0, -43083.074, 0.0, 10.0, 9.943291 
3.95e+2, 2.1471375e+2, -878045.94, -921409.9, -0.0005209104, 0.000000020274436, -0.00012682714, -878045.94, -42240.66, 0.0, 10.0, 9.942949 
3.95e+2, 2.2465037e+2, -789759.8, -843144.9, -0.00033544566, 0.000000020252374, 0.00012088008, -789759.8, -51333.555, 0.0, 10.0, 9.929908 
3.95e+2, 2.3458035e+2, -691326.3, -744966.44, -0.0007507774, 0.000000020418184, -0.000088817644, -691326.3, -50213.79, 0.0, 10.0, 9.929577 
3.95e+2, 2.4450338e+2, -603002.25, -667018.8, -0.0004228502, 0.000000020391784, 0.0000747094, -603002.25, -59135.387, 0.0, 10.0, 9.916136 
3.95e+2, 2.5441962e+2, -504249.6, -568343.3, -0.00059149857, 0.00000002013559, -0.0001067365, -504249.6, -57562.043, 0.0, 10.0, 9.916036 
3.95e+2, 2.643288e+2, -416014.2, -490987.88, -0.00013801752, 0.00000002001168, 0.00014059426, -416014.2, -66436.516, 0.0, 10.0, 9.901964 
3.95e+2, 2.742313e+2, -316728.97, -391374.78, -0.00042667842, 0.000000020056646, -0.00020344401, -316728.97, -64195.965, 0.0, 10.0, 9.902385 
3.95e+2, 2.841256e+2, -230255.7, -318081.25, -0.0001818347, 0.000000020051065, 0.00022904592, -230255.7, -74686.734, 0.0, 10.0, 9.885439 
3.95e+2, 2.940121e+2, -130549.57, -217765.02, -0.00046296, 0.000000019975491, -0.00025334297, -130549.57, -71868.18, 0.0, 10.0, 9.886217 
3.95e+2, 3.0392656e+2, -40805.56, -84750.16, -0.000059703918, 0.00000001998608, 0.00017313602, -40805.56, -40805.56, 0.0, 10.0, 9.942173 
3.95e+2, 3.138706e+2, -39727.547, -82511.21, -0.00020394353, 0.000000020125219, -0.00005514313, -39727.547, -39727.547, 0.0, 10.0, 9.943684 
4.05e+2, 1.2499334e+2, -1719946.1, -1724224.6, 0.00061394315, 0.000000022916318, 0.000017601624, -1719946.1, -4880.921, 0.0, 10.0, 9.994328 
4.05e+2, 1.349876e+2, -1622565.8, -1627434.9, -0.000036967824, 0.000000022313268, -0.000068402136, -1622565.8, -5444.1343, 0.0, 10.0, 9.993545 
4.05e+2, 1.4497513e+2, -1534464.3, -1548146.3, 0.00010606706, 0.000000021967008, 0.00007092125, -1534464.3, -15220.643, 0.0, 10.0, 9.981865 
4.05e+2, 1.5495703e+2, -1436736.6, -1450821.9, -0.00016317771, 0.000000021878831, -0.000056978923, -1436736.6, -15315.461, 0.0, 10.0, 9.981333 
4.05e+2, 1.6493228e+2, -1348685.6, -1371952.4, 0.000028624527, 0.000000021812658, 0.000047343085, -1348685.6, -25021.955, 0.0, 10.0, 9.969248 
4.05e+2, 1.7490156e+2, -1250727.6, -1274310.1, -0.0003822273, 0.000000021768956, -0.00007382952, -1250727.6, -24762.936, 0.0, 10.0, 9.968835 
4.05e+2, 1.8486421e+2, -1162646.6, -1195720.1, -0.000062860556, 0.00000002162154, 0.00006614603, -1162646.6, -34315.99, 0.0, 10.0, 9.956395 
4.05e+2, 1.9482064e+2, -1064496.9, -1097833.0, -0.00031209015, 0.00000002136558, -0.00005765618, -1064496.9, -33739.32, 0.0, 10.0, 9.956052 
4.05e+2, 2.0477042e+2, -976332.94, -1019435.0, -0.000033176762, 0.000000021208335, 0.000068078225, -976332.94, -43083.066, 0.0, 10.0, 9.943291 
4.05e+2, 2.1471375e+2, -878045.94, -921409.9, -0.00051410653, 0.000000021157996, -0.00012682675, -878045.94, -42240.652, 0.0, 10.0, 9.942949 
4.05e+2, 2.2465037e+2, -789759.8, -843144.9, -0.00028761703, 0.000000021134836, 0.000120880424, -789759.8, -51333.55, 0.0, 10.0, 9.929908 
4.05e+2, 2.3458035e+2, -691326.3, -744966.44, -0.00039525633, 0.000000021142384, -0.00008881781, -691326.3, -50213.78, 0.0, 10.0, 9.929577 
4.05e+2, 2.4450338e+2, -603002.25, -667018.8, 0.000024701807, 0.000000021026988, 0.00007470913, -603002.25, -59135.38, 0.0, 10.0, 9.916136 
4.05e+2, 2.5441962e+2, -504249.6, -568343.3, -0.00042372747, 0.000000020764691, -0.00010673641, -504249.6, -57562.04, 0.0, 10.0, 9.916036 
4.05e+2, 2.643288e+2, -416014.2, -490987.88, -0.00014232876, 0.000000020711136, 0.00014059452, -416014.2, -66436.51, 0.0, 10.0, 9.901964 
4.05e+2, 2.742313e+2, -316728.97, -391374.78, -0.00040619005, 0.000000020923567, -0.00020344385, -316728.97, -64195.96, 0.0, 10.0, 9.902385 
4.05e+2, 2.841256e+2, -230255.7, -318081.25, -0.000044649816, 0.000000020976952, 0.00022904595, -230255.7, -74686.734, 0.0, 10.0, 9.885439 
4.05e+2, 2.940121e+2, -130549.57, -217765.0, -0.00021892563, 0.000000020811424, -0.0002533431, -130549.57, -71868.17, 0.0, 10.0, 9.886217 
4.05e+2, 3.0392656e+2, -40805.555, -84750.16, 0.00015771584, 0.0000000207139, 0.0001731359, -40805.555, -40805.555, 0.0, 10.0, 9.942173 
4.05e+2, 3.138706e+2, -39727.543, -82511.21, -0.00021094759, 0.0000000207194, -0.000055142955, -39727.543, -39727.543, 0.0, 10.0, 9.943684 
4.15e+2, 1.2499334e+2, -1719946.1, -1724224.6, 0.00032164803, 0.000000023416716, 0.000017601136, -1719946.1, -4880.923, 0.0, 10.0, 9.994328 
4.15e+2, 1.349876e+2, -1622565.8, -1627434.9, -0.00032933298, 0.000000022926587, -0.000068402376, -1622565.8, -5444.136, 0.0, 10.0, 9.993545 
4.15e+2, 1.4497513e+2, -1534464.3, -1548146.3, -0.00018799484, 0.000000022762492, 0.00007092153, -1534464.3, -15220.643, 0.0, 10.0, 9.981865 
4.15e+2, 1.5495703e+2, -1436736.6, -1450821.9, -0.00045724318, 0.000000022926214, -0.00005697862, -1436736.6, -15315.462, 0.0, 10.0, 9.981333 
4.15e+2, 1.6493228e+2, -1348685.6, -1371952.4, -0.00018869797, 0.000000022807148, 0.00004734325, -1348685.6, -25021.955, 0.0, 10.0, 9.969248 
4.15e+2, 1.7490156e+2, -1250727.6, -1274310.1, -0.0005991459, 0.000000022399343, -0.000073829644, -1250727.6, -24762.936, 0.0, 10.0, 9.968835 
4.15e+2, 1.8486421e+2, -1162646.6, -1195720.1, -0.0002702507, 0.00000002214413, 0.00006614593, -1162646.6, -34315.99, 0.0, 10.0, 9.956395 
4.15e+2, 1.9482064e+2, -1064496.9, -1097833.0, -0.0005193712, 0.000000022048578, -0.000057655925, -1064496.9, -33739.324, 0.0, 10.0, 9.956052 
4.15e+2, 2.0477042e+2, -976332.94, -1019435.0, -0.00025720775, 0.00000002207551, 0.00006807863, -976332.94, -43083.07, 0.0, 10.0, 9.943291 
4.15e+2, 2.1471375e+2, -878045.94, -921409.9, -0.0007384849, 0.000000022235067, -0.0001268264, -878045.94, -42240.656, 0.0, 10.0, 9.942949 
4.15e+2, 2.2465037e+2, -789759.8, -843144.9, -0.0004285335, 0.00000002213172, 0.00012088056, -789759.8, -51333.55, 0.0, 10.0, 9.929908 
4.15e+2, 2.3458035e+2, -691326.3, -744966.44, -0.0005334442, 0.000000021730736, -0.00008881803, -691326.3, -50213.78, 0.0, 10.0, 9.929577 
4.15e+2, 2.4450338e+2, -603002.25, -667018.8, -0.00008784399, 0.00000002149878, 0.00007470888, -603002.25, -59135.383, 0.0, 10.0, 9.916136 
4.15e+2, 2.5441962e+2, -504249.6, -568343.3, -0.00053504284, 0.00000002146901, -0.00010673629, -504249.6, -57562.04, 0.0, 10.0, 9.916036 
4.15e+2, 2.643288e+2, -416014.2, -490987.88, -0.00036014622, 0.000000021563068, 0.0001405948, -416014.2, -66436.516, 0.0, 10.0, 9.901964 
4.15e+2, 2.742313e+2, -316728.97, -391374.78, -0.0006311505, 0.000000021814234, -0.0002034437, -316728.97, -64195.96, 0.0, 10.0, 9.902385 
4.15e+2, 2.841256e+2, -230255.7, -318081.25, -0.000115026305, 0.000000021885272, 0.00022904594, -230255.7, -74686.734, 0.0, 10.0, 9.885439 
4.15e+2, 2.940121e+2, -130549.57, -217765.02, -0.00027537608, 0.00000002170908, -0.0002533433, -130549.57, -71868.17, 0.0, 10.0, 9.886217 
4.15e+2, 3.0392656e+2, -40805.555, -84750.16, 0.00013323616, 0.000000021487221, 0.00017313575, -40805.555, -40805.555, 0.0, 10.0, 9.942173 
4.15e+2, 3.138706e+2, -39727.543, -82511.21, -0.00023167729, 0.000000021199979, -0.00005514265, -39727.543, -39727.543, 0.0, 10.0, 9.943684 
4.25e+2, 1.2499334e+2, -1719946.1, -1724224.6, 0.00034934146, 0.000000024134943, 0.000017601846, -1719946.1, -4880.9165, 0.0, 10.0, 9.994327 
4.25e+2, 1.349876e+2, -1622565.8, -1627434.9, 0.000075905504, 0.000000023726443, -0.00006840266, -1622565.8, -5444.1304, 0.0, 10.0, 9.993545 
4.25e+2, 1.4497513e+2, -1534464.3, -1548146.3, 0.00028664668, 0.00000002359376, 0.00007092142, -1534464.3, -15220.637, 0.0, 10.0, 9.981865 
4.25e+2, 1.5495703e+2, -1436736.6, -1450821.9, -0.00022118707, 0.000000023738338, -0.00005697822, -1436736.6, -15315.456, 0.0, 10.0, 9.981333 
4.25e+2, 1.6493228e+2, -1348685.6, -1371952.4, 0.000090541165, 0.000000023598, 0.000047343627, -1348685.6, -25021.95, 0.0, 10.0, 9.969248 
4.25e+2, 1.7490156e+2, -1250727.6, -1274310.1, -0.00018786501, 0.000000023166741, -0.000073829826, -1250727.6, -24762.93, 0.0, 10.0, 9.968835 
4.25e+2, 1.8486421e+2, -1162646.6, -1195720.1, 0.000077172306, 0.000000022924702, 0.000066145774, -1162646.6, -34315.984, 0.0, 10.0, 9.956395 
4.25e+2, 1.9482064e+2, -1064496.9, -1097833.0, -0.0004259371, 0.00000002288064, -0.000057655452, -1064496.9, -33739.316, 0.0, 10.0, 9.956052 
4.25e+2, 2.0477042e+2, -976332.94, -1019435.0, -0.00016201178, 0.000000022923203, 0.00006807912, -976332.94, -43083.063, 0.0, 10.0, 9.943291 
4.25e+2, 2.1471375e+2, -878045.94, -921409.9, -0.00036147406, 0.000000023059552, -0.00012682658, -878045.94, -42240.65, 0.0, 10.0, 9.942949 
4.25e+2, 2.2465037e+2, -789759.8, -843144.9, 0.000039824045, 0.00000002291079, 0.00012088028, -789759.8, -51333.543, 0.0, 10.0, 9.929908 
4.25e+2, 2.3458035e+2, -691326.3, -744966.44, -0.00040269774, 0.000000022439263, -0.00008881782, -691326.3, -50213.777, 0.0, 10.0, 9.929577 
4.25e+2, 2.4450338e+2, -603002.25, -667018.8, -0.000091614405, 0.00000002226097, 0.000074709234, -603002.25, -59135.375, 0.0, 10.0, 9.916136 
4.25e+2, 2.5441962e+2, -504249.6, -568343.3, -0.00033556495, 0.000000022433255, -0.00010673622, -504249.6, -57562.035, 0.0, 10.0, 9.916036 
4.25e+2, 2.643288e+2, -416014.2, -490987.88, -0.00004722724, 0.000000022520942, 0.0001405947, -416014.2, -66436.51, 0.0, 10.0, 9.901964 
4.25e+2, 2.742313e+2, -316728.97, -391374.78, -0.00038044766, 0.000000022500133, -0.00020344382, -316728.97, -64195.957, 0.0, 10.0, 9.902385 
4.25e+2, 2.841256e+2, -230255.7, -318081.25, 0.000057654408, 0.000000022464013, 0.00022904592, -230255.7, -74686.73, 0.0, 10.0, 9.885439 
4.25e+2, 2.940121e+2, -130549.56, -217765.0, -0.00030822228, 0.000000022407447, -0.00025334308, -130549.56, -71868.17, 0.0, 10.0, 9.886217 
4.25e+2, 3.0392656e+2, -40805.55, -84750.16, 0.00005112568, 0.00000002229504, 0.00017313601, -40805.55, -40805.55, 0.0, 10.0, 9.942173 
4.25e+2, 3.138706e+2, -39727.54, -82511.21, -0.00019862507, 0.000000022100023, -0.000055142726, -39727.54, -39727.54, 0.0, 10.0, 9.943684 
4.35e+2, 1.2499334e+2, -1719946.1, -1724224.6, 0.000016986882, 0.000000025071001, 0.000017603752, -1719946.1, -4880.9175, 0.0, 10.0, 9.994327 
4.35e+2, 1.349876e+2, -1622565.8, -1627434.9, -0.00025652975, 0.000000024712838, -0.00006840298, -1622565.8, -5444.131, 0.0, 10.0, 9.993545 
4.35e+2, 1.4497513e+2, -1534464.3, -1548146.3, -0.000050359624, 0.000000024460807, 0.00007092091, -1534464.3, -15220.639, 0.0, 10.0, 9.981865 
4.35e+2, 1.5495703e+2, -1436736.6, -1450821.9, -0.00055820175, 0.000000024315202, -0.00005697773, -1436736.6, -15315.457, 0.0, 10.0, 9.981333 
4.35e+2, 1.6493228e+2, -1348685.6, -1371952.4, -0.00012789747, 0.000000024185209, 0.000047344212, -1348685.6, -25021.951, 0.0, 10.0, 9.969248 
4.35e+2, 1.7490156e+2, -1250727.6, -1274310.1, -0.0004056788, 0.000000024071158, -0.000073830066, -1250727.6, -24762.932, 0.0, 10.0, 9.968835 
4.35e+2, 1.8486421e+2, -1162646.6, -1195720.1, -0.00016768686, 0.000000023963253, 0.000066145556, -1162646.6, -34315.984, 0.0, 10.0, 9.956395 
4.35e+2, 1.9482064e+2, -1064496.9, -1097833.0, -0.000671111, 0.00000002386177, -0.000057654757, -1064496.9, -33739.32, 0.0, 10.0, 9.956052 
4.35e+2, 2.0477042e+2, -976332.94, -1019435.0, -0.00039439698, 0.000000023751417, 0.00006807969, -976332.94, -43083.066, 0.0, 10.0, 9.943291 
4.35e+2, 2.1471375e+2, -878045.94, -921409.9, -0.00059359684, 0.000000023631452, -0.00012682726, -878045.94, -42240.652, 0.0, 10.0, 9.942949 
4.35e+2, 2.2465037e+2, -789759.8, -843144.9, -0.00007661266, 0.00000002347204, 0.000120879566, -789759.8, -51333.543, 0.0, 10.0, 9.929908 
4.35e+2, 2.3458035e+2, -691326.3, -744966.44, -0.00051535136, 0.000000023267962, -0.00008881718, -691326.3, -50213.777, 0.0, 10.0, 9.929577 
4.35e+2, 2.4450338e+2, -603002.25, -667018.8, -0.00031499044, 0.000000023313559, 0.000074710195, -603002.25, -59135.375, 0.0, 10.0, 9.916136 
4.35e+2, 2.5441962e+2, -504249.6, -568343.3, -0.00056426413, 0.000000023657426, -0.00010673619, -504249.6, -57562.035, 0.0, 10.0, 9.916036 
4.35e+2, 2.643288e+2, -416014.2, -490987.88, -0.000119639466, 0.000000023584759, 0.00014059425, -416014.2, -66436.51, 0.0, 10.0, 9.901964 
4.35e+2, 2.742313e+2, -316728.97, -391374.78, -0.00044238404, 0.000000022981265, -0.00020344422, -316728.97, -64195.957, 0.0, 10.0, 9.902385 
4.35e+2, 2.841256e+2, -230255.7, -318081.25, -0.00006591739, 0.000000022713172, 0.00022904588, -230255.7, -74686.73, 0.0, 10.0, 9.885439 
4.35e+2, 2.940121e+2, -130549.56, -217765.02, -0.0004373503, 0.00000002290652, -0.00025334238, -130549.56, -71868.17, 0.0, 10.0, 9.886217 
4.35e+2, 3.0392656e+2, -40805.55, -84750.16, -0.000048514958, 0.000000023137359, 0.0001731367, -40805.55, -40805.55, 0.0, 10.0, 9.942173 
4.35e+2, 3.138706e+2, -39727.54, -82511.21, -0.00029480708, 0.000000023419528, -0.00005514319, -39727.54, -39727.54, 0.0, 10.0, 9.943684 
4.45e+2, 1.2499334e+2, -1719946.1, -1724224.6, -0.000050260012, 0.00000002603398, 0.000017604387, -1719946.1, -4880.9116, 0.0, 10.0, 9.994327 
4.45e+2, 1.349876e+2, -1622565.8, -1627434.9, -0.00021016368, 0.0000000257383, -0.00006840274, -1622565.8, -5444.125, 0.0, 10.0, 9.993545 
4.45e+2, 1.4497513e+2, -1534464.3, -1548146.3, 0.0001489626, 0.000000025414844, 0.0000709213, -1534464.3, -15220.633, 0.0, 10.0, 9.981865 
4.45e+2, 1.5495703e+2, -1436736.6, -1450821.9, -0.00030039455, 0.00000002506291, -0.000056977577, -1436736.6, -15315.451, 0.0, 10.0, 9.981333 
4.45e+2, 1.6493228e+2, -1348685.6, -1371952.4, 0.00011604061, 0.000000024914096, 0.000047344325, -1348685.6, -25021.943, 0.0, 10.0, 9.969248 
4.45e+2, 1.7490156e+2, -1250727.6, -1274310.1, -0.00020496135, 0.00000002497268, -0.0000738298, -1250727.6, -24762.926, 0.0, 10.0, 9.968835 
4.45e+2, 1.8486421e+2, -1162646.6, -1195720.1, 0.00010870169, 0.000000024938354, 0.00006614579, -1162646.6, -34315.98, 0.0, 10.0, 9.956395 
4.45e+2, 1.9482064e+2, -1064496.9, -1097833.0, -0.0003011047, 0.000000024806791, -0.00005765476, -1064496.9, -33739.313, 0.0, 10.0, 9.956052 
4.45e+2, 2.0477042e+2, -976332.94, -1019435.0, 0.000026632051, 0.000000024589744, 0.00006807963, -976332.94, -43083.06, 0.0, 10.0, 9.943291 
4.45e+2, 2.1471375e+2, -878045.94, -921409.9, -0.0002827216, 0.000000024280112, -0.00012682717, -878045.94, -42240.645, 0.0, 10.0, 9.942949 
4.45e+2, 2.2465037e+2, -789759.8, -843144.9, 0.00013972518, 0.00000002416695, 0.00012087971, -789759.8, -51333.54, 0.0, 10.0, 9.929908 
4.45e+2, 2.3458035e+2, -691326.3, -744966.44, -0.0003301003, 0.000000024276185, -0.00008881706, -691326.3, -50213.773, 0.0, 10.0, 9.929577 
4.45e+2, 2.4450338e+2, -603002.25, -667018.8, -0.0001441677, 0.000000024375666, 0.000074710304, -603002.25, -59135.37, 0.0, 10.0, 9.916136 
4.45e+2, 2.5441962e+2, -504249.6, -568343.3, -0.0004512248, 0.000000024463258, -0.00010673605, -504249.6, -57562.03, 0.0, 10.0, 9.916036 
4.45e+2, 2.643288e+2, -416014.2, -490987.88, 0.00007608159, 0.000000024278528, 0.00014059435, -416014.2, -66436.5, 0.0, 10.0, 9.901964 
4.45e+2, 2.742313e+2, -316728.97, -391374.78, -0.00022295301, 0.000000023747225, -0.0002034442, -316728.97, -64195.95, 0.0, 10.0, 9.902385 
4.45e+2, 2.841256e+2, -230255.7, -318081.25, 0.00007144211, 0.00000002352201, 0.0002290459, -230255.7, -74686.73, 0.0, 10.0, 9.885439 
4.45e+2, 2.940121e+2, -130549.56, -217765.0, -0.00033157118, 0.00000002371725, -0.0002533423, -130549.56, -71868.164, 0.0, 10.0, 9.886217 
4.45e+2, 3.0392656e+2, -40805.547, -84750.16, 0.000091753805, 0.00000002398629, 0.00017313672, -40805.547, -40805.547, 0.0, 10.0, 9.942173 
4.45e+2, 3.138706e+2, -39727.535, -82511.21, -0.000013982687, 0.000000024360899, -0.000055143402, -39727.535, -39727.535, 0.0, 10.0, 9.943684 
4.55e+2, 1.2499334e+2, -1719946.1, -1724224.6, -0.00037942734, 0.00000002702388, 0.00001760375, -1719946.1, -4880.912, 0.0, 10.0, 9.994327 
4.55e+2, 1.349876e+2, -1622565.8, -1627434.9, -0.0005394013, 0.000000026802827, -0.00006840193, -1622565.8, -5444.1255, 0.0, 10.0, 9.993545 
4.55e+2, 1.4497513e+2, -1534464.3, -1548146.3, -0.000043958695, 0.00000002645587, 0.000070922586, -1534464.3, -15220.634, 0.0, 10.0, 9.981865 
4.55e+2, 1.5495703e+2, -1436736.6, -1450821.9, -0.0004931011, 0.00000002598146, -0.000056977762, -1436736.6, -15315.452, 0.0, 10.0, 9.981333 
4.55e+2, 1.6493228e+2, -1348685.6, -1371952.4, -0.0002419082, 0.00000002578466, 0.000047343965, -1348685.6, -25021.945, 0.0, 10.0, 9.969248 
4.55e+2, 1.7490156e+2, -1250727.6, -1274310.1, -0.00056378386, 0.000000025871312, -0.000073829025, -1250727.6, -24762.926, 0.0, 10.0, 9.968835 
4.55e+2, 1.8486421e+2, -1162646.6, -1195720.1, -0.000120823985, 0.000000025850005, 0.00006614647, -1162646.6, -34315.98, 0.0, 10.0, 9.956395 
4.55e+2, 1.9482064e+2, -1064496.9, -1097833.0, -0.0005291346, 0.000000025715707, -0.000057655456, -1064496.9, -33739.313, 0.0, 10.0, 9.956052 
4.55e+2, 2.0477042e+2, -976332.94, -1019435.0, -0.00010532921, 0.00000002543818, 0.00006807895, -976332.94, -43083.06, 0.0, 10.0, 9.943291 
4.55e+2, 2.1471375e+2, -878045.94, -921409.9, -0.00041270038, 0.000000025005532, -0.00012682633, -878045.94, -42240.645, 0.0, 10.0, 9.942949 
4.55e+2, 2.2465037e+2, -789759.8, -843144.9, -0.00015054535, 0.000000024995517, 0.000120880715, -789759.8, -51333.54, 0.0, 10.0, 9.929908 
4.55e+2, 2.3458035e+2, -691326.3, -744966.44, -0.00062561675, 0.00000002546393, -0.00008881747, -691326.3, -50213.773, 0.0, 10.0, 9.929577 
4.55e+2, 2.4450338e+2, -603002.25, -667018.8, -0.0002729164, 0.000000025447289, 0.00007470958, -603002.25, -59135.37, 0.0, 10.0, 9.916136 
4.55e+2, 2.5441962e+2, -504249.6, -568343.3, -0.00057196163, 0.00000002485075, -0.00010673581, -504249.6, -57562.03, 0.0, 10.0, 9.916036 
4.55e+2, 2.643288e+2, -416014.2, -490987.88, 0.000014704787, 0.000000024602251, 0.00014059502, -416014.2, -66436.5, 0.0, 10.0, 9.901964 
4.55e+2, 2.742313e+2, -316728.97, -391374.78, -0.00028035205, 0.00000002479801, -0.00020344378, -316728.97, -64195.953, 0.0, 10.0, 9.902385 
4.55e+2, 2.841256e+2, -230255.7, -318081.25, -0.00008933389, 0.000000024890525, 0.00022904592, -230255.7, -74686.73, 0.0, 10.0, 9.885439 
4.55e+2, 2.940121e+2, -130549.56, -217765.02, -0.000501665, 0.000000024839636, -0.00025334282, -130549.56, -71868.164, 0.0, 10.0, 9.886217 
4.55e+2, 3.0392656e+2, -40805.547, -84750.16, -0.00011824396, 0.000000024841835, 0.00017313613, -40805.547, -40805.547, 0.0, 10.0, 9.942173 
4.55e+2, 3.138706e+2, -39727.535, -82511.21, -0.0002286684, 0.000000024924134, -0.00005514336, -39727.535, -39727.535, 0.0, 10.0, 9.943684 
4.65e+2, 1.2499334e+2, -1719946.1, -1724224.6, 0.00081550353, 0.000000027899684, 0.000017603037, -1719946.1, -4880.905, 0.0, 10.0, 9.994327 
4.65e+2, 1.349876e+2, -1622565.6, -1627434.9, -0.000103229286, 0.000000027582841, -0.00006840162, -1622565.6, -5444.119, 0.0, 10.0, 9.993545 
4.65e+2, 1.4497513e+2, -1534464.3, -1548146.3, 0.00020744283, 0.000000027312883, 0.00007092344, -1534464.3, -15220.627, 0.0, 10.0, 9.981865 
4.65e+2, 1.5495703e+2, -1436736.6, -1450821.9, -0.0000017932962, 0.00000002708919, -0.00005697789, -1436736.6, -15315.446, 0.0, 10.0, 9.981333 
4.65e+2, 1.6493228e+2, -1348685.6, -1371952.4, 0.00024805943, 0.000000026897554, 0.000047343692, -1348685.6, -25021.94, 0.0, 10.0, 9.969248 
4.65e+2, 1.7490156e+2, -1250727.6, -1274310.1, -0.0003326621, 0.000000026738652, -0.000073828574, -1250727.6, -24762.92, 0.0, 10.0, 9.968835 
4.65e+2, 1.8486421e+2, -1162646.6, -1195720.1, 0.00010566176, 0.000000026612986, 0.00006614697, -1162646.6, -34315.973, 0.0, 10.0, 9.956395 
4.65e+2, 1.9482064e+2, -1064496.9, -1097833.0, -0.00011632239, 0.000000026522077, -0.00005765561, -1064496.9, -33739.31, 0.0, 10.0, 9.956052 
4.65e+2, 2.0477042e+2, -976332.94, -1019435.0, 0.00028905727, 0.000000026334643, 0.000068078756, -976332.94, -43083.055, 0.0, 10.0, 9.943291 
4.65e+2, 2.1471375e+2, -878045.94, -921409.9, -0.00037027584, 0.00000002604265, -0.0001268259, -878045.94, -42240.64, 0.0, 10.0, 9.942949 
4.65e+2, 2.2465037e+2, -789759.8, -843144.9, -0.00015849195, 0.000000026024441, 0.00012088122, -789759.8, -51333.535, 0.0, 10.0, 9.929908 
4.65e+2, 2.3458035e+2, -691326.3, -744966.44, -0.00025765193, 0.00000002631616, -0.00008881751, -691326.3, -50213.77, 0.0, 10.0, 9.929577 
4.65e+2, 2.4450338e+2, -603002.25, -667018.8, 0.00029691504, 0.000000026174884, 0.000074709336, -603002.25, -59135.367, 0.0, 10.0, 9.916136 
4.65e+2, 2.5441962e+2, -504249.6, -568343.3, -0.0002922288, 0.00000002551606, -0.00010673584, -504249.6, -57562.023, 0.0, 10.0, 9.916036 
4.65e+2, 2.643288e+2, -416014.2, -490987.88, 0.00001916356, 0.000000025373657, 0.00014059519, -416014.2, -66436.5, 0.0, 10.0, 9.901964 
4.65e+2, 2.742313e+2, -316728.94, -391374.78, -0.00029889183, 0.000000025889667, -0.00020344344, -316728.94, -64195.945, 0.0, 10.0, 9.902385 
4.65e+2, 2.841256e+2, -230255.69, -318081.25, 0.0000968505, 0.000000026112598, 0.0002290461, -230255.69, -74686.72, 0.0, 10.0, 9.885439 
4.65e+2, 2.940121e+2, -130549.555, -217765.0, -0.000014235209, 0.000000025931358, -0.00025334326, -130549.555, -71868.16, 0.0, 10.0, 9.886217 
4.65e+2, 3.0392656e+2, -40805.54, -84750.16, 0.000372022, 0.000000025709216, 0.00017313566, -40805.54, -40805.54, 0.0, 10.0, 9.942173 
4.65e+2, 3.138706e+2, -39727.527, -82511.21, -0.00024552454, 0.000000025430154, -0.000055143028, -39727.527, -39727.527, 0.0, 10.0, 9.943684 
4.75e+2, 1.2499334e+2, -1719946.1, -1724224.6, 0.0004268567, 0.000000028661393, 0.000017602246, -1719946.1, -4880.907, 0.0, 10.0, 9.994327 
4.75e+2, 1.349876e+2, -1622565.8, -1627434.9, -0.0004919691, 0.000000028078343, -0.0000684018, -1622565.8, -5444.121, 0.0, 10.0, 9.993545 
4.75e+2, 1.4497513e+2, -1534464.3, -1548146.3, -0.00016679976, 0.000000027985879, 0.00007092385, -1534464.3, -15220.628, 0.0, 10.0, 9.981865 
4.75e+2, 1.5495703e+2, -1436736.6, -1450821.9, -0.00037601433, 0.000000028386097, -0.00005697797, -1436736.6, -15315.447, 0.0, 10.0, 9.981333 
4.75e+2, 1.6493228e+2, -1348685.6, -1371952.4, 0.000046029687, 0.000000028252783, 0.000047343514, -1348685.6, -25021.941, 0.0, 10.0, 9.969248 
4.75e+2, 1.7490156e+2, -1250727.6, -1274310.1, -0.00053378486, 0.000000027574698, -0.00007382845, -1250727.6, -24762.922, 0.0, 10.0, 9.968835 
4.75e+2, 1.8486421e+2, -1162646.6, -1195720.1, -0.00015277312, 0.000000027227298, 0.00006614728, -1162646.6, -34315.973, 0.0, 10.0, 9.956395 
4.75e+2, 1.9482064e+2, -1064496.9, -1097833.0, -0.00037542277, 0.0000000272259, -0.00005765522, -1064496.9, -33739.31, 0.0, 10.0, 9.956052 
4.75e+2, 2.0477042e+2, -976332.94, -1019435.0, 0.00003884878, 0.000000027279128, 0.00006807905, -976332.94, -43083.055, 0.0, 10.0, 9.943291 
4.75e+2, 2.1471375e+2, -878045.94, -921409.9, -0.00062030234, 0.000000027391469, -0.0001268259, -878045.94, -42240.64, 0.0, 10.0, 9.942949 
4.75e+2, 2.2465037e+2, -789759.8, -843144.9, -0.00032801417, 0.000000027253723, 0.00012088122, -789759.8, -51333.535, 0.0, 10.0, 9.929908 
4.75e+2, 2.3458035e+2, -691326.3, -744966.44, -0.00042454293, 0.000000026832875, -0.00008881719, -691326.3, -50213.77, 0.0, 10.0, 9.929577 
4.75e+2, 2.4450338e+2, -603002.25, -667018.8, 0.00022167953, 0.000000026558451, 0.00007470958, -603002.25, -59135.367, 0.0, 10.0, 9.916136 
4.75e+2, 2.5441962e+2, -504249.6, -568343.3, -0.0003630614, 0.000000026459185, -0.00010673614, -504249.6, -57562.027, 0.0, 10.0, 9.916036 
4.75e+2, 2.643288e+2, -416014.2, -490987.88, -0.00031596585, 0.000000026592744, 0.00014059484, -416014.2, -66436.5, 0.0, 10.0, 9.901964 
4.75e+2, 2.742313e+2, -316728.94, -391374.78, -0.0006517441, 0.000000027022192, -0.00020344323, -316728.94, -64195.945, 0.0, 10.0, 9.902385 
4.75e+2, 2.841256e+2, -230255.69, -318081.25, 0.000025942654, 0.000000027188229, 0.0002290464, -230255.69, -74686.72, 0.0, 10.0, 9.885439 
4.75e+2, 2.940121e+2, -130549.555, -217765.0, -0.000059741255, 0.000000026992419, -0.00025334358, -130549.555, -71868.16, 0.0, 10.0, 9.886217 
4.75e+2, 3.0392656e+2, -40805.543, -84750.16, 0.00044970284, 0.000000026588433, 0.00017313534, -40805.543, -40805.543, 0.0, 10.0, 9.942173 
4.75e+2, 3.138706e+2, -39727.53, -82511.21, -0.00015338523, 0.000000025878961, -0.000055142413, -39727.53, -39727.53, 0.0, 10.0, 9.943684 
4.85e+2, 1.2499334e+2, -1719946.1, -1724224.6, 0.00040582256, 0.000000029651638, 0.000017603172, -1719946.1, -4880.9004, 0.0, 10.0, 9.994327 
4.85e+2, 1.349876e+2, -1622565.6, -1627434.9, 0.00015126228, 0.000000028978755, -0.000068402245, -1622565.6, -5444.1143, 0.0, 10.0, 9.993545 
4.85e+2, 1.4497514e+2, -1534464.3, -1548146.3, 0.0005616912, 0.000000028848667, 0.0000709236, -1534464.3, -15220.62, 0.0, 10.0, 9.981865 
4.85e+2, 1.5495703e+2, -1436736.6, -1450821.9, -0.00006471698, 0.000000029263644, -0.00005697761, -1436736.6, -15315.439, 0.0, 10.0, 9.981333 
4.85e+2, 1.6493228e+2, -1348685.6, -1371952.4, 0.00039304624, 0.0000000291738, 0.000047343918, -1348685.6, -25021.934, 0.0, 10.0, 9.969248 
4.85e+2, 1.7490156e+2, -1250727.6, -1274310.1, -0.000022453363, 0.0000000285685, -0.00007382858, -1250727.6, -24762.914, 0.0, 10.0, 9.968835 
4.85e+2, 1.8486421e+2, -1162646.6, -1195720.1, 0.00025631252, 0.000000028216476, 0.00006614721, -1162646.6, -34315.97, 0.0, 10.0, 9.956395 
4.85e+2, 1.9482064e+2, -1064496.9, -1097833.0, -0.00032599474, 0.000000028129456, -0.000057654604, -1064496.9, -33739.3, 0.0, 10.0, 9.956052 
4.85e+2, 2.0477042e+2, -976332.94, -1019435.0, 0.00012285743, 0.000000028193798, 0.000068079586, -976332.94, -43083.047, 0.0, 10.0, 9.943291 
4.85e+2, 2.1471375e+2, -878045.94, -921409.9, -0.000030148827, 0.000000028422027, -0.00012682626, -878045.94, -42240.633, 0.0, 10.0, 9.942949 
4.85e+2, 2.2465037e+2, -789759.8, -843144.9, 0.0003626081, 0.000000028228753, 0.000120880795, -789759.8, -51333.527, 0.0, 10.0, 9.929908 
4.85e+2, 2.3458035e+2, -691326.3, -744966.44, -0.0003976329, 0.000000027558302, -0.00008881671, -691326.3, -50213.76, 0.0, 10.0, 9.929577 
4.85e+2, 2.4450338e+2, -603002.25, -667018.8, 0.000056491903, 0.000000027357759, 0.00007471021, -603002.25, -59135.36, 0.0, 10.0, 9.916136 
4.85e+2, 2.5441962e+2, -504249.6, -568343.3, 0.000027658509, 0.000000027718977, -0.00010673625, -504249.6, -57562.02, 0.0, 10.0, 9.916036 
4.85e+2, 2.643288e+2, -416014.16, -490987.88, 0.0003133756, 0.000000027893883, 0.0001405944, -416014.16, -66436.49, 0.0, 10.0, 9.901964 
4.85e+2, 2.742313e+2, -316728.94, -391374.78, -0.00027383346, 0.00000002783035, -0.00020344344, -316728.94, -64195.94, 0.0, 10.0, 9.902385 
4.85e+2, 2.841256e+2, -230255.69, -318081.25, 0.00014669466, 0.00000002775394, 0.00022904649, -230255.69, -74686.71, 0.0, 10.0, 9.885439 
4.85e+2, 2.940121e+2, -130549.55, -217765.0, -0.0003796806, 0.00000002766102, -0.000253343, -130549.55, -71868.16, 0.0, 10.0, 9.886217 
4.85e+2, 3.0392656e+2, -40805.535, -84750.16, 0.000058241578, 0.000000027471797, 0.00017313591, -40805.535, -40805.535, 0.0, 10.0, 9.942173 
4.85e+2, 3.138706e+2, -39727.523, -82511.21, -0.00017855159, 0.00000002713993, -0.000055142587, -39727.523, -39727.523, 0.0, 10.0, 9.943684 
4.95e+2, 1.2499334e+2, -1719946.1, -1724224.6, 0.0000804302, 0.00000003087042, 0.000017605813, -1719946.1, -4880.9014, 0.0, 10.0, 9.994327 
4.95e+2, 1.349876e+2, -1622565.6, -1627434.9, -0.00017420588, 0.000000030284077, -0.00006840296, -1622565.6, -5444.1147, 0.0, 10.0, 9.993545 
4.95e+2, 1.4497514e+2, -1534464.3, -1548146.3, 0.00013556948, 0.000000029901248, 0.00007092265, -1534464.3, -15220.622, 0.0, 10.0, 9.981865 
4.95e+2, 1.5495703e+2, -1436736.6, -1450821.9, -0.00049100025, 0.000000029721832, -0.00005697682, -1436736.6, -15315.441, 0.0, 10.0, 9.981333 
4.95e+2, 1.6493228e+2, -1348685.6, -1371952.4, 0.000123482, 0.000000029660605, 0.000047344907, -1348685.6, -25021.936, 0.0, 10.0, 9.969248 
4.95e+2, 1.7490156e+2, -1250727.6, -1274310.1, -0.00029119194, 0.00000002972006, -0.00007382897, -1250727.6, -24762.916, 0.0, 10.0, 9.968835 
4.95e+2, 1.8486421e+2, -1162646.6, -1195720.1, 0.000020513553, 0.000000029580523, 0.00006614676, -1162646.6, -34315.97, 0.0, 10.0, 9.956395 
4.95e+2, 1.9482064e+2, -1064496.9, -1097833.0, -0.00056141446, 0.00000002923274, -0.000057653768, -1064496.9, -33739.305, 0.0, 10.0, 9.956052 
4.95e+2, 2.0477042e+2, -976332.94, -1019435.0, -0.00016529563, 0.000000029078647, 0.000068080364, -976332.94, -43083.05, 0.0, 10.0, 9.943291 
4.95e+2, 2.1471375e+2, -878045.94, -921409.9, -0.00031939344, 0.000000029134323, -0.000126827, -878045.94, -42240.637, 0.0, 10.0, 9.942949 
4.95e+2, 2.2465037e+2, -789759.8, -843144.9, 0.00027679902, 0.000000028949529, 0.000120879944, -789759.8, -51333.53, 0.0, 10.0, 9.929908 
4.95e+2, 2.3458035e+2, -691326.3, -744966.44, -0.0004767882, 0.000000028492437, -0.00008881607, -691326.3, -50213.766, 0.0, 10.0, 9.929577 
4.95e+2, 2.4450338e+2, -603002.25, -667018.8, -0.00027936394, 0.000000028572805, 0.00007471123, -603002.25, -59135.36, 0.0, 10.0, 9.916136 
4.95e+2, 2.5441962e+2, -504249.6, -568343.3, -0.00032053608, 0.000000029295439, -0.00010673617, -504249.6, -57562.02, 0.0, 10.0, 9.916036 
4.95e+2, 2.643288e+2, -416014.2, -490987.88, 0.00029630534, 0.000000029277071, 0.00014059388, -416014.2, -66436.49, 0.0, 10.0, 9.901964 
4.95e+2, 2.742313e+2, -316728.94, -391374.78, -0.0002687058, 0.000000028314139, -0.00020344414, -316728.94, -64195.94, 0.0, 10.0, 9.902385 
4.95e+2, 2.841256e+2, -230255.69, -318081.25, 0.000025702118, 0.00000002780973, 0.00022904637, -230255.69, -74686.71, 0.0, 10.0, 9.885439 
4.95e+2, 2.940121e+2, -130549.55, -217765.0, -0.00051203946, 0.000000027937162, -0.00025334154, -130549.55, -71868.16, 0.0, 10.0, 9.886217 
4.95e+2, 3.0392656e+2, -40805.535, -84750.16, -0.00010606543, 0.000000028359311, 0.00017313733, -40805.535, -40805.535, 0.0, 10.0, 9.942173 
4.95e+2, 3.138706e+2, -39727.527, -82511.21, -0.00034661192, 0.00000002921306, -0.000055143548, -39727.527, -39727.527, 0.0, 10.0, 9.943684 
5.05e+2, 1.2499334e+2, -1719946.1, -1724224.6, 0.000012379699, 0.000000031985806, 0.000017606566, -1719946.1, -4880.894, 0.0, 10.0, 9.994327 
5.05e+2, 1.349876e+2, -1622565.6, -1627434.9, -0.0001927931, 0.000000031603967, -0.00006840269, -1622565.6, -5444.1084, 0.0, 10.0, 9.993545 
5.05e+2, 1.4497514e+2, -1534464.3, -1548146.3, 0.00027959922, 0.000000031126916, 0.0000709232, -1534464.3, -15220.616, 0.0, 10.0, 9.981865 
5.05e+2, 1.5495703e+2, -1436736.6, -1450821.9, -0.00026313643, 0.000000030552368, -0.000056976492, -1436736.6, -15315.434, 0.0, 10.0, 9.981333 
5.05e+2, 1.6493228e+2, -1348685.6, -1371952.4, 0.00034389948, 0.000000030411595, 0.00004734513, -1348685.6, -25021.928, 0.0, 10.0, 9.969248 
5.05e+2, 1.7490156e+2, -1250727.6, -1274310.1, -0.000014055812, 0.000000030713736, -0.00007382873, -1250727.6, -24762.908, 0.0, 10.0, 9.968835 
5.05e+2, 1.8486421e+2, -1162646.6, -1195720.1, 0.0004717015, 0.00000003070805, 0.000066146866, -1162646.6, -34315.96, 0.0, 10.0, 9.956395 
5.05e+2, 1.9482064e+2, -1064496.9, -1097833.0, -0.000019419082, 0.000000030380235, -0.00005765394, -1064496.9, -33739.297, 0.0, 10.0, 9.956052 
5.05e+2, 2.0477042e+2, -976332.94, -1019435.0, 0.00031305646, 0.0000000301079, 0.00006808033, -976332.94, -43083.043, 0.0, 10.0, 9.943291 
5.05e+2, 2.1471375e+2, -878045.94, -921409.9, -0.00018650705, 0.000000029895663, -0.00012682646, -878045.94, -42240.63, 0.0, 10.0, 9.942949 
5.05e+2, 2.2465037e+2, -789759.8, -843144.9, 0.0004133884, 0.000000029771863, 0.000120880395, -789759.8, -51333.523, 0.0, 10.0, 9.929908 
5.05e+2, 2.3458035e+2, -691326.3, -744966.44, 0.000081387516, 0.000000029748119, -0.00008881649, -691326.3, -50213.758, 0.0, 10.0, 9.929577 
5.05e+2, 2.4450338e+2, -603002.25, -667018.8, 0.0002258498, 0.00000002986674, 0.00007471078, -603002.25, -59135.355, 0.0, 10.0, 9.916136 
5.05e+2, 2.5441962e+2, -504249.56, -568343.3, -0.00040732507, 0.000000030155313, -0.000106735664, -504249.56, -57562.01, 0.0, 10.0, 9.916036 
5.05e+2, 2.643288e+2, -416014.16, -490987.88, 0.00020477045, 0.000000029977187, 0.00014059461, -416014.16, -66436.484, 0.0, 10.0, 9.901964 
5.05e+2, 2.742313e+2, -316728.94, -391374.78, -0.000050468952, 0.00000002920469, -0.00020344411, -316728.94, -64195.934, 0.0, 10.0, 9.902385 
5.05e+2, 2.841256e+2, -230255.67, -318081.25, 0.00029171072, 0.000000028803983, 0.0002290461, -230255.67, -74686.71, 0.0, 10.0, 9.885439 
5.05e+2, 2.940121e+2, -130549.55, -217765.0, -0.00023605445, 0.000000028914773, -0.00025334154, -130549.55, -71868.15, 0.0, 10.0, 9.886217 
5.05e+2, 3.0392656e+2, -40805.53, -84750.16, 0.00017597992, 0.000000029383157, 0.00017313736, -40805.53, -40805.53, 0.0, 10.0, 9.942173 
5.05e+2, 3.138706e+2, -39727.52, -82511.21, 0.0001091314, 0.000000030377517, -0.000055143868, -39727.52, -39727.52, 0.0, 10.0, 9.943684 
5.15e+2, 1.2499334e+2, -1719946.1, -1724224.6, -0.0004085575, 0.0000000329978, 0.00001760543, -1719946.1, -4880.895, 0.0, 10.0, 9.994327 
5.15e+2, 1.349876e+2, -1622565.6, -1627434.9, -0.0006138139, 0.00000003293842, -0.00006840144, -1622565.6, -5444.109, 0.0, 10.0, 9.993545 
5.15e+2, 1.4497514e+2, -1534464.3, -1548146.3, 0.00014967548, 0.00000003252568, 0.00007092522, -1534464.3, -15220.617, 0.0, 10.0, 9.981865 
5.15e+2, 1.5495703e+2, -1436736.6, -1450821.9, -0.0003926011, 0.000000031755253, -0.000056976638, -1436736.6, -15315.436, 0.0, 10.0, 9.981333 
5.15e+2, 1.6493228e+2, -1348685.6, -1371952.4, -0.00010082958, 0.00000003142677, 0.000047344587, -1348685.6, -25021.928, 0.0, 10.0, 9.969248 
5.15e+2, 1.7490156e+2, -1250727.6, -1274310.1, -0.00046045153, 0.00000003154953, -0.00007382787, -1250727.6, -24762.908, 0.0, 10.0, 9.968835 
5.15e+2, 1.8486421e+2, -1162646.6, -1195720.1, 0.00019119891, 0.000000031599058, 0.000066147535, -1162646.6, -34315.965, 0.0, 10.0, 9.956395 
5.15e+2, 1.9482064e+2, -1064496.9, -1097833.0, -0.0002980027, 0.00000003157194, -0.00005765512, -1064496.9, -33739.297, 0.0, 10.0, 9.956052 
5.15e+2, 2.0477042e+2, -976332.94, -1019435.0, 0.00019518808, 0.00000003128155, 0.00006807947, -976332.94, -43083.043, 0.0, 10.0, 9.943291 
5.15e+2, 2.1471375e+2, -878045.94, -921409.9, -0.00030105832, 0.000000030706037, -0.00012682461, -878045.94, -42240.63, 0.0, 10.0, 9.942949 
5.15e+2, 2.2465037e+2, -789759.8, -843144.9, 0.000074386044, 0.00000003069575, 0.00012088215, -789759.8, -51333.523, 0.0, 10.0, 9.929908 
5.15e+2, 2.3458035e+2, -691326.3, -744966.44, -0.00026496, 0.000000031325346, -0.000088817964, -691326.3, -50213.758, 0.0, 10.0, 9.929577 
5.15e+2, 2.4450338e+2, -603002.25, -667018.8, 0.00010399825, 0.000000031239566, 0.000074708856, -603002.25, -59135.355, 0.0, 10.0, 9.916136 
5.15e+2, 2.5441962e+2, -504249.56, -568343.3, -0.0005183909, 0.000000030298597, -0.000106734726, -504249.56, -57562.016, 0.0, 10.0, 9.916036 
5.15e+2, 2.643288e+2, -416014.16, -490987.88, 0.00015644537, 0.000000029994233, 0.00014059659, -416014.16, -66436.484, 0.0, 10.0, 9.901964 
5.15e+2, 2.742313e+2, -316728.94, -391374.78, -0.00009458917, 0.000000030502004, -0.0002034434, -316728.94, -64195.934, 0.0, 10.0, 9.902385 
5.15e+2, 2.841256e+2, -230255.69, -318081.25, 0.00010298199, 0.0000000307367, 0.00022904565, -230255.69, -74686.71, 0.0, 10.0, 9.885439 
5.15e+2, 2.940121e+2, -130549.55, -217765.02, -0.00043781608, 0.000000030593856, -0.00025334302, -130549.55, -71868.15, 0.0, 10.0, 9.886217 
5.15e+2, 3.0392656e+2, -40805.53, -84750.16, -0.00014410318, 0.000000030543333, 0.00017313598, -40805.53, -40805.53, 0.0, 10.0, 9.942173 
5.15e+2, 3.138706e+2, -39727.52, -82511.21, -0.00022484564, 0.000000030633306, -0.000055143548, -39727.52, -39727.52, 0.0, 10.0, 9.943684 
5.25e+2, 1.2499334e+2, -1719946.1, -1724224.6, 0.0010164243, 0.000000034074095, 0.0000176046, -1719946.1, -4880.886, 0.0, 10.0, 9.994327 
5.25e+2, 1.349876e+2, -1622565.6, -1627434.9, -0.00017612842, 0.000000033773308, -0.00006840105, -1622565.6, -5444.1006, 0.0, 10.0, 9.993545 
5.25e+2, 1.4497514e+2, -1534464.3, -1548146.3, 0.00038459394, 0.00000003347005, 0.00007092632, -1534464.3, -15220.608, 0.0, 10.0, 9.981865 
5.25e+2, 1.5495703e+2, -1436736.6, -1450821.9, 0.00020851543, 0.000000033161868, -0.000056976725, -1436736.6, -15315.429, 0.0, 10.0, 9.981333 
5.25e+2, 1.6493228e+2, -1348685.6, -1371952.4, 0.0005264451, 0.00000003286011, 0.00004734427, -1348685.6, -25021.922, 0.0, 10.0, 9.969248 
5.25e+2, 1.7490156e+2, -1250727.6, -1274310.1, -0.00016194771, 0.000000032564913, -0.00007382744, -1250727.6, -24762.902, 0.0, 10.0, 9.968835 
5.25e+2, 1.8486421e+2, -1162646.6, -1195720.1, 0.00044842614, 0.00000003244676, 0.00006614805, -1162646.6, -34315.957, 0.0, 10.0, 9.956395 
5.25e+2, 1.9482064e+2, -1064496.9, -1097833.0, 0.00016495188, 0.000000032513842, -0.000057655212, -1064496.9, -33739.29, 0.0, 10.0, 9.956052 
5.25e+2, 2.0477042e+2, -976332.94, -1019435.0, 0.0006801015, 0.000000032332228, 0.00006807932, -976332.94, -43083.035, 0.0, 10.0, 9.943291 
5.25e+2, 2.1471375e+2, -878045.94, -921409.9, -0.00015438523, 0.000000031881235, -0.00012682425, -878045.94, -42240.62, 0.0, 10.0, 9.942949 
5.25e+2, 2.2465037e+2, -789759.8, -843144.9, 0.00011291279, 0.00000003188034, 0.00012088259, -789759.8, -51333.516, 0.0, 10.0, 9.929908 
5.25e+2, 2.3458035e+2, -691326.3, -744966.44, 0.00006947239, 0.000000032389007, -0.000088817935, -691326.3, -50213.75, 0.0, 10.0, 9.929577 
5.25e+2, 2.4450338e+2, -603002.25, -667018.8, 0.0007094496, 0.00000003215703, 0.0000747087, -603002.25, -59135.348, 0.0, 10.0, 9.916136 
5.25e+2, 2.5441962e+2, -504249.56, -568343.3, -0.00014790798, 0.000000031039804, -0.000106734755, -504249.56, -57562.008, 0.0, 10.0, 9.916036 
5.25e+2, 2.643288e+2, -416014.16, -490987.88, 0.00017116846, 0.000000030828346, 0.00014059676, -416014.16, -66436.48, 0.0, 10.0, 9.901964 
5.25e+2, 2.742313e+2, -316728.94, -391374.78, -0.000117549054, 0.000000031771666, -0.00020344295, -316728.94, -64195.93, 0.0, 10.0, 9.902385 
5.25e+2, 2.841256e+2, -230255.67, -318081.25, 0.00039561384, 0.000000032237423, 0.00022904584, -230255.67, -74686.7, 0.0, 10.0, 9.885439 
5.25e+2, 2.940121e+2, -130549.54, -217765.0, 0.00033990826, 0.000000032044234, -0.00025334384, -130549.54, -71868.14, 0.0, 10.0, 9.886217 
5.25e+2, 3.0392656e+2, -40805.523, -84750.16, 0.00061235024, 0.000000031653776, 0.00017313515, -40805.523, -40805.523, 0.0, 10.0, 9.942173 
5.25e+2, 3.138706e+2, -39727.51, -82511.21, -0.00040925678, 0.00000003097664, -0.000055142846, -39727.51, -39727.51, 0.0, 10.0, 9.943684 
5.35e+2, 1.2499334e+2, -1719946.1, -1724224.6, 0.00060184853, 0.000000035214686, 0.00001760408, -1719946.1, -4880.8896, 0.0, 10.0, 9.994327 
5.35e+2, 1.349876e+2, -1622565.6, -1627434.9, -0.0005908019, 0.00000003410863, -0.000068401525, -1622565.6, -5444.1035, 0.0, 10.0, 9.993545 
5.35e+2, 1.4497514e+2, -1534464.3, -1548146.3, -0.00010265523, 0.000000033960042, 0.000070926486, -1534464.3, -15220.609, 0.0, 10.0, 9.981865 
5.35e+2, 1.5495703e+2, -1436736.6, -1450821.9, -0.0002788513, 0.000000034772206, -0.00005697676, -1436736.6, -15315.429, 0.0, 10.0, 9.981333 
5.35e+2, 1.6493228e+2, -1348685.6, -1371952.4, 0.00035696418, 0.000000034711615, 0.000047344176, -1348685.6, -25021.924, 0.0, 10.0, 9.969248 
5.35e+2, 1.7490156e+2, -1250727.6, -1274310.1, -0.00032975376, 0.000000033759886, -0.00007382744, -1250727.6, -24762.904, 0.0, 10.0, 9.968835 
5.35e+2, 1.8486421e+2, -1162646.6, -1195720.1, 0.00016557409, 0.00000003325115, 0.000066148415, -1162646.6, -34315.957, 0.0, 10.0, 9.956395 
5.35e+2, 1.9482064e+2, -1064496.9, -1097833.0, -0.000119235214, 0.00000003320594, -0.000057654208, -1064496.9, -33739.29, 0.0, 10.0, 9.956052 
5.35e+2, 2.0477042e+2, -976332.94, -1019435.0, 0.00038742367, 0.000000033259916, 0.00006807986, -976332.94, -43083.04, 0.0, 10.0, 9.943291 
5.35e+2, 2.1471375e+2, -878045.94, -921409.9, -0.00044724048, 0.00000003342125, -0.00012682535, -878045.94, -42240.625, 0.0, 10.0, 9.942949 
5.35e+2, 2.2465037e+2, -789759.8, -843144.9, -0.00009133111, 0.000000033325627, 0.000120881734, -789759.8, -51333.516, 0.0, 10.0, 9.929908 
5.35e+2, 2.3458035e+2, -691326.3, -744966.44, -0.00013187589, 0.000000032939106, -0.00008881642, -691326.3, -50213.75, 0.0, 10.0, 9.929577 
5.35e+2, 2.4450338e+2, -603002.25, -667018.8, 0.0007203219, 0.000000032619138, 0.000074710326, -603002.25, -59135.35, 0.0, 10.0, 9.916136 
5.35e+2, 2.5441962e+2, -504249.56, -568343.3, -0.00012683845, 0.000000032378924, -0.000106735744, -504249.56, -57562.008, 0.0, 10.0, 9.916036 
5.35e+2, 2.643288e+2, -416014.16, -490987.88, -0.00028721846, 0.00000003247953, 0.0001405951, -416014.16, -66436.48, 0.0, 10.0, 9.901964 
5.35e+2, 2.742313e+2, -316728.94, -391374.78, -0.0006080847, 0.000000033013677, -0.00020344279, -316728.94, -64195.93, 0.0, 10.0, 9.902385 
5.35e+2, 2.841256e+2, -230255.67, -318081.25, 0.00030621496, 0.00000003330615, 0.00022904664, -230255.67, -74686.7, 0.0, 10.0, 9.885439 
5.35e+2, 2.940121e+2, -130549.54, -217765.0, 0.0002866513, 0.00000003326591, -0.000253344, -130549.54, -71868.14, 0.0, 10.0, 9.886217 
5.35e+2, 3.0392656e+2, -40805.523, -84750.164, 0.0008593842, 0.000000032714482, 0.0001731349, -40805.523, -40805.523, 0.0, 10.0, 9.942173 
5.35e+2, 3.138706e+2, -39727.51, -82511.21, -0.00012697227, 0.000000031407517, -0.000055141772, -39727.51, -39727.51, 0.0, 10.0, 9.943684 
5.45e+2, 1.2499334e+2, -1719946.1, -1724224.6, 0.00049788033, 0.000000036381167, 0.000017605389, -1719946.1, -4880.8813, 0.0, 10.0, 9.994327 
5.45e+2, 1.349876e+2, -1622565.6, -1627434.9, 0.00036707538, 0.00000003519523, -0.0000684024, -1622565.6, -5444.0947, 0.0, 10.0, 9.993545 
5.45e+2, 1.4497514e+2, -1534464.3, -1548146.3, 0.00092717615, 0.000000034992034, 0.00007092586, -1534464.3, -15220.601, 0.0, 10.0, 9.981865 
5.45e+2, 1.5495703e+2, -1436736.6, -1450821.9, 0.000052649197, 0.000000035774672, -0.000056976238, -1436736.6, -15315.42, 0.0, 10.0, 9.981333 
5.45e+2, 1.6493228e+2, -1348685.6, -1371952.4, 0.00069854205, 0.000000035778896, 0.000047344853, -1348685.6, -25021.916, 0.0, 10.0, 9.969248 
5.45e+2, 1.7490156e+2, -1250727.6, -1274310.1, 0.00021921749, 0.00000003498832, -0.000073827636, -1250727.6, -24762.896, 0.0, 10.0, 9.968835 
5.45e+2, 1.8486421e+2, -1162646.6, -1195720.1, 0.0005904072, 0.000000034476138, 0.00006614829, -1162646.6, -34315.95, 0.0, 10.0, 9.956395 
5.45e+2, 1.9482064e+2, -1064496.9, -1097833.0, -0.00013311119, 0.00000003425524, -0.000057653266, -1064496.9, -33739.28, 0.0, 10.0, 9.956052 
5.45e+2, 2.0477042e+2, -976332.94, -1019435.0, 0.00048235658, 0.0000000343151, 0.00006808058, -976332.94, -43083.03, 0.0, 10.0, 9.943291 
5.45e+2, 2.1471375e+2, -878045.9, -921409.9, 0.00048688558, 0.00000003467898, -0.00012682626, -878045.9, -42240.617, 0.0, 10.0, 9.942949 
5.45e+2, 2.2465037e+2, -789759.8, -843144.9, 0.00090990844, 0.000000034486217, 0.00012088087, -789759.8, -51333.508, 0.0, 10.0, 9.929908 
5.45e+2, 2.3458035e+2, -691326.3, -744966.44, -0.00037827797, 0.000000033663248, -0.000088815344, -691326.3, -50213.742, 0.0, 10.0, 9.929577 
5.45e+2, 2.4450338e+2, -603002.25, -667018.8, 0.00021419211, 0.000000033461372, 0.00007471164, -603002.25, -59135.344, 0.0, 10.0, 9.916136 
5.45e+2, 2.5441962e+2, -504249.56, -568343.3, 0.00054871687, 0.000000034002003, -0.00010673622, -504249.56, -57562.004, 0.0, 10.0, 9.916036 
5.45e+2, 2.643288e+2, -416014.16, -490987.88, 0.0008202078, 0.000000034200596, 0.00014059397, -416014.16, -66436.48, 0.0, 10.0, 9.901964 
5.45e+2, 2.742313e+2, -316728.94, -391374.78, -0.00011386794, 0.00000003396214, -0.00020344314, -316728.94, -64195.92, 0.0, 10.0, 9.902385 
5.45e+2, 2.841256e+2, -230255.67, -318081.25, 0.0002389651, 0.00000003383769, 0.00022904701, -230255.67, -74686.695, 0.0, 10.0, 9.885439 
5.45e+2, 2.940121e+2, -130549.53, -217765.0, -0.0005032483, 0.00000003387129, -0.00025334297, -130549.53, -71868.13, 0.0, 10.0, 9.886217 
5.45e+2, 3.0392656e+2, -40805.516, -84750.16, 0.00004688648, 0.000000033664122, 0.00017313584, -40805.516, -40805.516, 0.0, 10.0, 9.942173 
5.45e+2, 3.138706e+2, -39727.508, -82511.21, -0.00013978068, 0.000000033098253, -0.000055142184, -39727.508, -39727.508, 0.0, 10.0, 9.943684 
5.55e+2, 1.2499334e+2, -1719946.1, -1724224.6, 0.0001570778, 0.000000037573525, 0.000017608525, -1719946.1, -4880.882, 0.0, 10.0, 9.994327 
5.55e+2, 1.349876e+2, -1622565.6, -1627434.9, 0.000026198071, 0.000000037033104, -0.00006840367, -1622565.6, -5444.0957, 0.0, 10.0, 9.993545 
5.55e+2, 1.4497514e+2, -1534464.3, -1548146.3, 0.0004249451, 0.000000036566036, 0.00007092442, -1534464.3, -15220.603, 0.0, 10.0, 9.981865 
5.55e+2, 1.5495703e+2, -1436736.6, -1450821.9, -0.00044984143, 0.00000003616926, -0.000056975154, -1436736.6, -15315.423, 0.0, 10.0, 9.981333 
5.55e+2, 1.6493228e+2, -1348685.6, -1371952.4, 0.00039777605, 0.000000036061955, 0.000047346297, -1348685.6, -25021.916, 0.0, 10.0, 9.969248 
5.55e+2, 1.7490156e+2, -1250727.6, -1274310.1, -0.000080486214, 0.00000003625021, -0.000073828036, -1250727.6, -24762.896, 0.0, 10.0, 9.968835 
5.55e+2, 1.8486421e+2, -1162646.6, -1195720.1, 0.00037094872, 0.000000036121715, 0.00006614769, -1162646.6, -34315.95, 0.0, 10.0, 9.956395 
5.55e+2, 1.9482064e+2, -1064496.9, -1097833.0, -0.00035164366, 0.00000003566174, -0.000057652374, -1064496.9, -33739.285, 0.0, 10.0, 9.956052 
5.55e+2, 2.0477042e+2, -976332.94, -1019435.0, 0.0001389573, 0.00000003549778, 0.00006808148, -976332.94, -43083.03, 0.0, 10.0, 9.943291 
5.55e+2, 2.1471375e+2, -878045.9, -921409.9, 0.00014090372, 0.00000003565443, -0.00012682697, -878045.9, -42240.617, 0.0, 10.0, 9.942949 
5.55e+2, 2.2465037e+2, -789759.8, -843144.9, 0.0008845391, 0.000000035362106, 0.00012088, -789759.8, -51333.51, 0.0, 10.0, 9.929908 
5.55e+2, 2.3458035e+2, -691326.3, -744966.44, -0.00039316004, 0.00000003456143, -0.00008881472, -691326.3, -50213.746, 0.0, 10.0, 9.929577 
5.55e+2, 2.4450338e+2, -603002.25, -667018.8, -0.00024327269, 0.000000034683733, 0.00007471265, -603002.25, -59135.34, 0.0, 10.0, 9.916136 
5.55e+2, 2.5441962e+2, -504249.56, -568343.3, 0.00006998012, 0.000000035909036, -0.00010673617, -504249.56, -57562.004, 0.0, 10.0, 9.916036 
5.55e+2, 2.643288e+2, -416014.16, -490987.88, 0.0008848336, 0.000000035991544, 0.00014059336, -416014.16, -66436.48, 0.0, 10.0, 9.901964 
5.55e+2, 2.742313e+2, -316728.94, -391374.78, -0.0000128144175, 0.000000034617067, -0.00020344401, -316728.94, -64195.92, 0.0, 10.0, 9.902385 
5.55e+2, 2.841256e+2, -230255.67, -318081.25, 0.00014679522, 0.000000033832034, 0.00022904699, -230255.67, -74686.695, 0.0, 10.0, 9.885439 
5.55e+2, 2.940121e+2, -130549.53, -217765.0, -0.00061283004, 0.000000033860378, -0.00025334064, -130549.53, -71868.13, 0.0, 10.0, 9.886217 
5.55e+2, 3.0392656e+2, -40805.52, -84750.16, -0.00019401661, 0.00000003450269, 0.00017313796, -40805.52, -40805.52, 0.0, 10.0, 9.942173 
5.55e+2, 3.138706e+2, -39727.508, -82511.21, -0.00039610206, 0.000000036048846, -0.000055144083, -39727.508, -39727.508, 0.0, 10.0, 9.943684 
5.65e+2, 1.2499334e+2, -1719946.1, -1724224.6, 0.00026092256, 0.000000038771844, 0.00001760916, -1719946.1, -4880.873, 0.0, 10.0, 9.994327 
5.65e+2, 1.349876e+2, -1622565.6, -1627434.9, -0.000056737583, 0.000000038677715, -0.00006840336, -1622565.6, -5444.0874, 0.0, 10.0, 9.993545 
5.65e+2, 1.4497514e+2, -1534464.3, -1548146.3, 0.0005277782, 0.000000038116074, 0.0000709252, -1534464.3, -15220.596, 0.0, 10.0, 9.981865 
5.65e+2, 1.5495703e+2, -1436736.6, -1450821.9, -0.00014884323, 0.000000037079914, -0.0000569748, -1436736.6, -15315.413, 0.0, 10.0, 9.981333 
5.65e+2, 1.6493228e+2, -1348685.6, -1371952.4, 0.00068528217, 0.00000003681433, 0.000047346468, -1348685.6, -25021.906, 0.0, 10.0, 9.969248 
5.65e+2, 1.7490156e+2, -1250727.6, -1274310.1, 0.00027957905, 0.000000037335557, -0.00007382778, -1250727.6, -24762.887, 0.0, 10.0, 9.968835 
5.65e+2, 1.8486421e+2, -1162646.6, -1195720.1, 0.00094943325, 0.000000037449364, 0.00006614775, -1162646.6, -34315.94, 0.0, 10.0, 9.956395 
5.65e+2, 1.9482064e+2, -1064496.9, -1097833.0, 0.0003553667, 0.00000003713683, -0.00005765277, -1064496.9, -33739.277, 0.0, 10.0, 9.956052 
5.65e+2, 2.0477042e+2, -976332.94, -1019435.0, 0.00066771684, 0.000000036818374, 0.00006808142, -976332.94, -43083.023, 0.0, 10.0, 9.943291 
5.65e+2, 2.1471375e+2, -878045.9, -921409.9, -0.00009239616, 0.000000036493546, -0.00012682583, -878045.9, -42240.605, 0.0, 10.0, 9.942949 
5.65e+2, 2.2465037e+2, -789759.8, -843144.9, 0.00076720555, 0.000000036238724, 0.0001208809, -789759.8, -51333.504, 0.0, 10.0, 9.929908 
5.65e+2, 2.3458035e+2, -691326.25, -744966.44, 0.0006745867, 0.000000036063106, -0.0000888157, -691326.25, -50213.74, 0.0, 10.0, 9.929577 
5.65e+2, 2.4450338e+2, -603002.25, -667018.8, 0.0007628804, 0.000000036262538, 0.00007471152, -603002.25, -59135.332, 0.0, 10.0, 9.916136 
5.65e+2, 2.5441962e+2, -504249.56, -568343.3, -0.00029015337, 0.000000036909874, -0.00010673536, -504249.56, -57561.992, 0.0, 10.0, 9.916036 
5.65e+2, 2.643288e+2, -416014.16, -490987.88, 0.0003927343, 0.000000036780772, 0.0001405947, -416014.16, -66436.47, 0.0, 10.0, 9.901964 
5.65e+2, 2.742313e+2, -316728.9, -391374.78, 0.00017687053, 0.000000035662456, -0.000203444, -316728.9, -64195.914, 0.0, 10.0, 9.902385 
5.65e+2, 2.841256e+2, -230255.66, -318081.25, 0.00058742246, 0.00000003501767, 0.00022904646, -230255.66, -74686.69, 0.0, 10.0, 9.885439 
5.65e+2, 2.940121e+2, -130549.52, -217765.0, -0.000016656488, 0.000000035025433, -0.0002533407, -130549.52, -71868.125, 0.0, 10.0, 9.886217 
5.65e+2, 3.0392656e+2, -40805.508, -84750.16, 0.00039939652, 0.00000003574604, 0.00017313793, -40805.508, -40805.508, 0.0, 10.0, 9.942173 
5.65e+2, 3.138706e+2, -39727.5, -82511.21, 0.00035919843, 0.00000003751865, -0.000055144767, -39727.5, -39727.5, 0.0, 10.0, 9.943684 
5.75e+2, 1.2499334e+2, -1719946.1, -1724224.6, -0.00028771744, 0.000000039976122, 0.000017607295, -1719946.1, -4880.874, 0.0, 10.0, 9.994327 
5.75e+2, 1.349876e+2, -1622565.6, -1627434.9, -0.0006054809, 0.000000040129066, -0.00006840146, -1622565.6, -5444.089, 0.0, 10.0, 9.993545 
5.75e+2, 1.4497514e+2, -1534464.3, -1548146.3, 0.0005008175, 0.000000039642153, 0.00007092819, -1534464.3, -15220.598, 0.0, 10.0, 9.981865 
5.75e+2, 1.5495703e+2, -1436736.6, -1450821.9, -0.00017498084, 0.00000003850662, -0.000056975183, -1436736.6, -15315.415, 0.0, 10.0, 9.981333 
5.75e+2, 1.6493228e+2, -1348685.6, -1371952.4, 0.00015478447, 0.000000038036024, 0.000047345373, -1348685.6, -25021.908, 0.0, 10.0, 9.969248 
5.75e+2, 1.7490156e+2, -1250727.6, -1274310.1, -0.00025358508, 0.000000038244355, -0.00007382689, -1250727.6, -24762.889, 0.0, 10.0, 9.968835 
5.75e+2, 1.8486421e+2, -1162646.6, -1195720.1, 0.0005696118, 0.000000038459092, 0.00006614849, -1162646.6, -34315.945, 0.0, 10.0, 9.956395 
5.75e+2, 1.9482064e+2, -1064496.9, -1097833.0, -0.000022682336, 0.000000038680508, -0.00005765445, -1064496.9, -33739.277, 0.0, 10.0, 9.956052 
5.75e+2, 2.0477042e+2, -976332.94, -1019435.0, 0.00065440725, 0.000000038276887, 0.0000680804, -976332.94, -43083.023, 0.0, 10.0, 9.943291 
5.75e+2, 2.1471375e+2, -878045.9, -921409.9, -0.00009817517, 0.000000037196326, -0.00012682284, -878045.9, -42240.61, 0.0, 10.0, 9.942949 
5.75e+2, 2.2465037e+2, -789759.8, -843144.9, 0.00037453134, 0.000000037116063, 0.00012088355, -789759.8, -51333.504, 0.0, 10.0, 9.929908 
5.75e+2, 2.3458035e+2, -691326.25, -744966.44, 0.00026925243, 0.000000038168274, -0.0000888183, -691326.25, -50213.74, 0.0, 10.0, 9.929577 
5.75e+2, 2.4450338e+2, -603002.25, -667018.8, 0.0006154075, 0.00000003819779, 0.00007470827, -603002.25, -59135.336, 0.0, 10.0, 9.916136 
5.75e+2, 2.5441962e+2, -504249.56, -568343.3, -0.00042523743, 0.000000037004515, -0.00010673377, -504249.56, -57561.996, 0.0, 10.0, 9.916036 
5.75e+2, 2.643288e+2, -416014.16, -490987.88, 0.00040341387, 0.00000003656828, 0.00014059796, -416014.16, -66436.47, 0.0, 10.0, 9.901964 
5.75e+2, 2.742313e+2, -316728.9, -391374.78, 0.00019732211, 0.000000037098314, -0.00020344308, -316728.9, -64195.914, 0.0, 10.0, 9.902385 
5.75e+2, 2.841256e+2, -230255.66, -318081.25, 0.00038666738, 0.000000037394603, 0.00022904541, -230255.66, -74686.69, 0.0, 10.0, 9.885439 
5.75e+2, 2.940121e+2, -130549.52, -217765.02, -0.00023734565, 0.000000037366462, -0.0002533431, -130549.52, -71868.13, 0.0, 10.0, 9.886217 
5.75e+2, 3.0392656e+2, -40805.51, -84750.16, -0.000029210149, 0.00000003739417, 0.00017313576, -40805.51, -40805.51, 0.0, 10.0, 9.942173 
5.75e+2, 3.138706e+2, -39727.5, -82511.21, -0.00009381991, 0.00000003750766, -0.00005514424, -39727.5, -39727.5, 0.0, 10.0, 9.943684 
5.85e+2, 1.2499334e+2, -1719946.1, -1724224.6, 0.0011377546, 0.000000041287645, 0.00001760641, -1719946.1, -4880.8643, 0.0, 10.0, 9.994327 
5.85e+2, 1.349876e+2, -1622565.6, -1627434.9, -0.00032480934, 0.000000040942748, -0.00006840076, -1622565.6, -5444.078, 0.0, 10.0, 9.993545 
5.85e+2, 1.4497514e+2, -1534464.3, -1548146.3, 0.0006102663, 0.000000040597694, 0.00007092973, -1534464.3, -15220.587, 0.0, 10.0, 9.981865 
5.85e+2, 1.5495703e+2, -1436736.6, -1450821.9, 0.0004980389, 0.00000004024712, -0.00005697539, -1436736.6, -15315.407, 0.0, 10.0, 9.981333 
5.85e+2, 1.6493228e+2, -1348685.6, -1371952.4, 0.0009164409, 0.00000003989468, 0.000047344805, -1348685.6, -25021.9, 0.0, 10.0, 9.969248 
5.85e+2, 1.7490156e+2, -1250727.6, -1274310.1, 0.000114541894, 0.000000039540335, -0.00007382639, -1250727.6, -24762.88, 0.0, 10.0, 9.968835 
5.85e+2, 1.8486421e+2, -1162646.6, -1195720.1, 0.0008722857, 0.00000003944514, 0.00006614916, -1162646.6, -34315.934, 0.0, 10.0, 9.956395 
5.85e+2, 1.9482064e+2, -1064496.9, -1097833.0, 0.00046690748, 0.00000003962109, -0.000057654517, -1064496.9, -33739.266, 0.0, 10.0, 9.956052 
5.85e+2, 2.0477042e+2, -976332.94, -1019435.0, 0.0012487274, 0.000000039339664, 0.00006808017, -976332.94, -43083.016, 0.0, 10.0, 9.943291 
5.85e+2, 2.1471375e+2, -878045.9, -921409.9, 0.00029314272, 0.000000038562845, -0.00012682262, -878045.9, -42240.6, 0.0, 10.0, 9.942949 
5.85e+2, 2.2465037e+2, -789759.75, -843144.9, 0.00051103864, 0.000000038615013, 0.00012088393, -789759.75, -51333.496, 0.0, 10.0, 9.929908 
5.85e+2, 2.3458035e+2, -691326.25, -744966.44, 0.0003948525, 0.000000039605702, -0.00008881811, -691326.25, -50213.73, 0.0, 10.0, 9.929577 
5.85e+2, 2.4450338e+2, -603002.2, -667018.8, 0.0011076179, 0.000000039403456, 0.0000747083, -603002.2, -59135.33, 0.0, 10.0, 9.916136 
5.85e+2, 2.5441962e+2, -504249.53, -568343.3, 0.0001188051, 0.00000003777527, -0.00010673385, -504249.53, -57561.984, 0.0, 10.0, 9.916036 
5.85e+2, 2.643288e+2, -416014.13, -490987.88, 0.0006123825, 0.00000003737916, 0.00014059799, -416014.13, -66436.45, 0.0, 10.0, 9.901964 
5.85e+2, 2.742313e+2, -316728.9, -391374.78, 0.00025569907, 0.000000038554365, -0.00020344264, -316728.9, -64195.906, 0.0, 10.0, 9.902385 
5.85e+2, 2.841256e+2, -230255.66, -318081.25, 0.00069498946, 0.00000003923738, 0.00022904559, -230255.66, -74686.68, 0.0, 10.0, 9.885439 
5.85e+2, 2.940121e+2, -130549.516, -217765.0, 0.00057284767, 0.000000039239506, -0.00025334413, -130549.516, -71868.125, 0.0, 10.0, 9.886217 
5.85e+2, 3.0392656e+2, -40805.5, -84750.16, 0.000711124, 0.000000038817085, 0.00017313483, -40805.5, -40805.5, 0.0, 10.0, 9.942173 
5.85e+2, 3.138706e+2, -39727.49, -82511.21, -0.00059516326, 0.000000037770707, -0.00005514322, -39727.49, -39727.49, 0.0, 10.0, 9.943684 
5.95e+2, 1.2499334e+2, -1719946.1, -1724224.6, 0.0007686676, 0.000000042706414, 0.000017606502, -1719946.1, -4880.8677, 0.0, 10.0, 9.994327 
5.95e+2, 1.349876e+2, -1622565.6, -1627434.9, -0.0006939805, 0.00000004111876, -0.00006840127, -1622565.6, -5444.0815, 0.0, 10.0, 9.993545 
5.95e+2, 1.4497514e+2, -1534464.3, -1548146.3, -0.000036895744, 0.0000000409827, 0.000070929826, -1534464.3, -15220.587, 0.0, 10.0, 9.981865 
5.95e+2, 1.5495703e+2, -1436736.6, -1450821.9, -0.00014956848, 0.000000042301405, -0.00005697542, -1436736.6, -15315.407, 0.0, 10.0, 9.981333 
5.95e+2, 1.6493228e+2, -1348685.6, -1371952.4, 0.0007644444, 0.0000000423903, 0.00004734477, -1348685.6, -25021.902, 0.0, 10.0, 9.969248 
5.95e+2, 1.7490156e+2, -1250727.6, -1274310.1, -0.0000348436, 0.0000000412235, -0.00007382631, -1250727.6, -24762.883, 0.0, 10.0, 9.968835 
5.95e+2, 1.8486421e+2, -1162646.6, -1195720.1, 0.0006564988, 0.000000040407514, 0.00006614976, -1162646.6, -34315.934, 0.0, 10.0, 9.956395 
5.95e+2, 1.9482064e+2, -1064496.9, -1097833.0, 0.00025034745, 0.00000003995857, -0.000057652967, -1064496.9, -33739.27, 0.0, 10.0, 9.956052 
5.95e+2, 2.0477042e+2, -976332.94, -1019435.0, 0.0008755269, 0.000000040006704, 0.00006808072, -976332.94, -43083.016, 0.0, 10.0, 9.943291 
5.95e+2, 2.1471375e+2, -878045.9, -921409.9, -0.000083295745, 0.0000000405931, -0.00012682517, -878045.9, -42240.6, 0.0, 10.0, 9.942949 
5.95e+2, 2.2465037e+2, -789759.75, -843144.9, 0.00023320148, 0.000000040735582, 0.000120882025, -789759.75, -51333.496, 0.0, 10.0, 9.929908 
5.95e+2, 2.3458035e+2, -691326.25, -744966.44, 0.00012023673, 0.00000004037539, -0.00008881514, -691326.25, -50213.73, 0.0, 10.0, 9.929577 
5.95e+2, 2.4450338e+2, -603002.2, -667018.8, 0.0012807299, 0.000000039879538, 0.00007471162, -603002.2, -59135.33, 0.0, 10.0, 9.916136 
5.95e+2, 2.5441962e+2, -504249.56, -568343.3, 0.00031343274, 0.000000039222126, -0.0001067356, -504249.56, -57561.99, 0.0, 10.0, 9.916036 
5.95e+2, 2.643288e+2, -416014.13, -490987.88, 0.00006384832, 0.000000039213415, 0.00014059478, -416014.13, -66436.46, 0.0, 10.0, 9.901964 
5.95e+2, 2.742313e+2, -316728.9, -391374.78, -0.00034266396, 0.000000040030613, -0.00020344269, -316728.9, -64195.906, 0.0, 10.0, 9.902385 
5.95e+2, 2.841256e+2, -230255.66, -318081.25, 0.00055208924, 0.000000040546006, 0.00022904697, -230255.66, -74686.68, 0.0, 10.0, 9.885439 
5.95e+2, 2.940121e+2, -130549.516, -217765.0, 0.00047098522, 0.00000004064457, -0.00025334372, -130549.516, -71868.125, 0.0, 10.0, 9.886217 
5.95e+2, 3.0392656e+2, -40805.504, -84750.164, 0.0011304202, 0.000000040014783, 0.00017313514, -40805.504, -40805.504, 0.0, 10.0, 9.942173 
5.95e+2, 3.138706e+2, -39727.492, -82511.21, -0.00011468549, 0.000000038307792, -0.00005514171, -39727.492, -39727.492, 0.0, 10.0, 9.943684 
6.05e+2, 1.2499334e+2, -1719946.1, -1724224.6, 0.00057575374, 0.000000043973383, 0.00001760816, -1719946.1, -4880.858, 0.0, 10.0, 9.994327 
6.05e+2, 1.349876e+2, -1622565.6, -1627434.9, 0.000538137, 0.000000042473378, -0.00006840243, -1622565.6, -5444.072, 0.0, 10.0, 9.993545 
6.05e+2, 1.4497514e+2, -1534464.3, -1548146.3, 0.0012453209, 0.0000000423284, 0.000070928974, -1534464.3, -15220.577, 0.0, 10.0, 9.981865 
6.05e+2, 1.5495703e+2, -1436736.5, -1450821.9, 0.00016601592, 0.00000004354036, -0.000056974866, -1436736.5, -15315.397, 0.0, 10.0, 9.981333 
6.05e+2, 1.6493228e+2, -1348685.6, -1371952.4, 0.001069464, 0.000000043640426, 0.0000473456, -1348685.6, -25021.893, 0.0, 10.0, 9.969248 
6.05e+2, 1.7490156e+2, -1250727.6, -1274310.1, 0.00043902188, 0.000000042605187, -0.000073826355, -1250727.6, -24762.873, 0.0, 10.0, 9.968835 
6.05e+2, 1.8486421e+2, -1162646.6, -1195720.1, 0.0010236256, 0.00000004178183, 0.0000661498, -1162646.6, -34315.926, 0.0, 10.0, 9.956395 
6.05e+2, 1.9482064e+2, -1064496.9, -1097833.0, 0.0002424065, 0.00000004118014, -0.00005765185, -1064496.9, -33739.258, 0.0, 10.0, 9.956052 
6.05e+2, 2.0477042e+2, -976332.9, -1019435.0, 0.000981993, 0.000000041322146, 0.000068081434, -976332.9, -43083.008, 0.0, 10.0, 9.943291 
6.05e+2, 2.1471375e+2, -878045.9, -921409.9, 0.001081236, 0.000000042269537, -0.00012682648, -878045.9, -42240.594, 0.0, 10.0, 9.942949 
6.05e+2, 2.2465037e+2, -789759.75, -843144.9, 0.0015313803, 0.00000004221569, 0.00012088086, -789759.75, -51333.49, 0.0, 10.0, 9.929908 
6.05e+2, 2.3458035e+2, -691326.25, -744966.44, -0.0002627109, 0.000000041028212, -0.000088813686, -691326.25, -50213.72, 0.0, 10.0, 9.929577 
6.05e+2, 2.4450338e+2, -603002.2, -667018.8, 0.00052764884, 0.000000040602934, 0.00007471341, -603002.2, -59135.32, 0.0, 10.0, 9.916136 
6.05e+2, 2.5441962e+2, -504249.53, -568343.3, 0.0010778356, 0.000000041089233, -0.00010673619, -504249.53, -57561.98, 0.0, 10.0, 9.916036 
6.05e+2, 2.643288e+2, -416014.13, -490987.88, 0.001301917, 0.0000000413548, 0.00014059333, -416014.13, -66436.45, 0.0, 10.0, 9.901964 
6.05e+2, 2.742313e+2, -316728.9, -391374.78, 0.00012806748, 0.000000041337294, -0.00020344308, -316728.9, -64195.9, 0.0, 10.0, 9.902385 
6.05e+2, 2.841256e+2, -230255.64, -318081.25, 0.00037707927, 0.000000041305565, 0.00022904748, -230255.64, -74686.67, 0.0, 10.0, 9.885439 
6.05e+2, 2.940121e+2, -130549.51, -217765.0, -0.00061388005, 0.000000041255714, -0.00025334247, -130549.51, -71868.11, 0.0, 10.0, 9.886217 
6.05e+2, 3.0392656e+2, -40805.492, -84750.16, 0.0000387033, 0.000000040949942, 0.00017313623, -40805.492, -40805.492, 0.0, 10.0, 9.942173 
6.05e+2, 3.138706e+2, -39727.484, -82511.21, -0.0001445835, 0.000000040264645, -0.00005514204, -39727.484, -39727.484, 0.0, 10.0, 9.943684 
6.15e+2, 1.2499334e+2, -1719946.1, -1724224.6, 0.00011897283, 0.000000045088548, 0.00001761138, -1719946.1, -4880.8584, 0.0, 10.0, 9.994327 
6.15e+2, 1.349876e+2, -1622565.6, -1627434.9, 0.00008125802, 0.00000004500659, -0.00006840423, -1622565.6, -5444.0723, 0.0, 10.0, 9.993545 
6.15e+2, 1.4497514e+2, -1534464.3, -1548146.3, 0.0006895345, 0.00000004463478, 0.00007092718, -1534464.3, -15220.58, 0.0, 10.0, 9.981865 
6.15e+2, 1.5495703e+2, -1436736.5, -1450821.9, -0.0003899339, 0.00000004396399, -0.00005697373, -1436736.5, -15315.399, 0.0, 10.0, 9.981333 
6.15e+2, 1.6493228e+2, -1348685.6, -1371952.4, 0.0008062912, 0.00000004364506, 0.000047347297, -1348685.6, -25021.895, 0.0, 10.0, 9.969248 
6.15e+2, 1.7490156e+2, -1250727.6, -1274310.1, 0.00017739013, 0.000000043685393, -0.00007382652, -1250727.6, -24762.875, 0.0, 10.0, 9.968835 
6.15e+2, 1.8486421e+2, -1162646.6, -1195720.1, 0.0008070217, 0.00000004356809, 0.000066149274, -1162646.6, -34315.926, 0.0, 10.0, 9.956395 
6.15e+2, 1.9482064e+2, -1064496.9, -1097833.0, 0.000026319216, 0.00000004328579, -0.000057651163, -1064496.9, -33739.26, 0.0, 10.0, 9.956052 
6.15e+2, 2.0477042e+2, -976332.9, -1019435.0, 0.0005214791, 0.000000043285993, 0.0000680823, -976332.9, -43083.008, 0.0, 10.0, 9.943291 
6.15e+2, 2.1471375e+2, -878045.9, -921409.9, 0.00061566813, 0.000000043592163, -0.00012682656, -878045.9, -42240.594, 0.0, 10.0, 9.942949 
6.15e+2, 2.2465037e+2, -789759.75, -843144.9, 0.0016831256, 0.000000043055337, 0.000120880446, -789759.75, -51333.492, 0.0, 10.0, 9.929908 
6.15e+2, 2.3458035e+2, -691326.25, -744966.44, -0.000090771246, 0.000000041564167, -0.00008881376, -691326.25, -50213.723, 0.0, 10.0, 9.929577 
6.15e+2, 2.4450338e+2, -603002.2, -667018.8, -0.000026346783, 0.000000041573646, 0.000074713666, -603002.2, -59135.316, 0.0, 10.0, 9.916136 
6.15e+2, 2.5441962e+2, -504249.53, -568343.3, 0.0004889508, 0.000000043376588, -0.00010673563, -504249.53, -57561.98, 0.0, 10.0, 9.916036 
6.15e+2, 2.643288e+2, -416014.13, -490987.88, 0.0013547966, 0.00000004380332, 0.0001405936, -416014.13, -66436.45, 0.0, 10.0, 9.901964 
6.15e+2, 2.742313e+2, -316728.9, -391374.78, 0.00022397265, 0.00000004247441, -0.00020344385, -316728.9, -64195.902, 0.0, 10.0, 9.902385 
6.15e+2, 2.841256e+2, -230255.64, -318081.25, 0.00039456008, 0.000000041516067, 0.00022904715, -230255.64, -74686.67, 0.0, 10.0, 9.885439 
6.15e+2, 2.940121e+2, -130549.51, -217765.0, -0.0006034655, 0.000000041072944, -0.0002533404, -130549.51, -71868.11, 0.0, 10.0, 9.886217 
6.15e+2, 3.0392656e+2, -40805.496, -84750.16, -0.00025730487, 0.000000041622563, 0.00017313812, -40805.496, -40805.496, 0.0, 10.0, 9.942173 
6.15e+2, 3.138706e+2, -39727.484, -82511.21, -0.00047656437, 0.000000043641265, -0.00005514421, -39727.484, -39727.484, 0.0, 10.0, 9.943684 
6.25e+2, 1.2499334e+2, -1719946.1, -1724224.6, 0.0005661454, 0.000000046616346, 0.000017611754, -1719946.1, -4880.848, 0.0, 10.0, 9.994327 
6.25e+2, 1.349876e+2, -1622565.6, -1627434.9, 0.000059994003, 0.0000000470127, -0.00006840395, -1622565.6, -5444.063, 0.0, 10.0, 9.993545 
6.25e+2, 1.4497514e+2, -1534464.3, -1548146.3, 0.00087547925, 0.00000004644281, 0.00007092818, -1534464.3, -15220.571, 0.0, 10.0, 9.981865 
6.25e+2, 1.5495703e+2, -1436736.5, -1450821.9, 0.0000719659, 0.000000044892385, -0.000056973415, -1436736.5, -15315.389, 0.0, 10.0, 9.981333 
6.25e+2, 1.6493228e+2, -1348685.6, -1371952.4, 0.0012446713, 0.000000044368814, 0.00004734736, -1348685.6, -25021.88, 0.0, 10.0, 9.969248 
6.25e+2, 1.7490156e+2, -1250727.5, -1274310.1, 0.0007039334, 0.00000004489371, -0.00007382627, -1250727.5, -24762.863, 0.0, 10.0, 9.968835 
6.25e+2, 1.8486421e+2, -1162646.6, -1195720.1, 0.0014862727, 0.00000004521603, 0.00006614931, -1162646.6, -34315.918, 0.0, 10.0, 9.956395 
6.25e+2, 1.9482064e+2, -1064496.9, -1097833.0, 0.0008032803, 0.000000045326356, -0.000057651778, -1064496.9, -33739.254, 0.0, 10.0, 9.956052 
6.25e+2, 2.0477042e+2, -976332.9, -1019435.0, 0.0010546539, 0.000000045046544, 0.000068082234, -976332.9, -43082.996, 0.0, 10.0, 9.943291 
6.25e+2, 2.1471375e+2, -878045.9, -921409.9, -0.00004503836, 0.00000004434424, -0.00012682477, -878045.9, -42240.582, 0.0, 10.0, 9.942949 
6.25e+2, 2.2465037e+2, -789759.75, -843144.9, 0.001228837, 0.0000000437497, 0.00012088186, -789759.75, -51333.477, 0.0, 10.0, 9.929908 
6.25e+2, 2.3458035e+2, -691326.25, -744966.44, 0.0014078765, 0.00000004327726, -0.000088815235, -691326.25, -50213.715, 0.0, 10.0, 9.929577 
6.25e+2, 2.4450338e+2, -603002.2, -667018.75, 0.0014095025, 0.000000043576037, 0.000074711876, -603002.2, -59135.31, 0.0, 10.0, 9.916136 
6.25e+2, 2.5441962e+2, -504249.53, -568343.3, -0.00008648467, 0.00000004479588, -0.00010673466, -504249.53, -57561.97, 0.0, 10.0, 9.916036 
6.25e+2, 2.643288e+2, -416014.13, -490987.88, 0.00056074734, 0.000000044908738, 0.0001405954, -416014.13, -66436.445, 0.0, 10.0, 9.901964 
6.25e+2, 2.742313e+2, -316728.9, -391374.78, 0.00037897125, 0.000000043610633, -0.0002034437, -316728.9, -64195.89, 0.0, 10.0, 9.902385 
6.25e+2, 2.841256e+2, -230255.64, -318081.25, 0.0010476483, 0.00000004272953, 0.00022904648, -230255.64, -74686.664, 0.0, 10.0, 9.885439 
6.25e+2, 2.940121e+2, -130549.5, -217765.0, 0.0004470508, 0.000000042425565, -0.00025334072, -130549.5, -71868.1, 0.0, 10.0, 9.886217 
6.25e+2, 3.0392656e+2, -40805.484, -84750.16, 0.00073364686, 0.000000043110852, 0.0001731378, -40805.484, -40805.484, 0.0, 10.0, 9.942173 
6.25e+2, 3.138706e+2, -39727.477, -82511.21, 0.00039403283, 0.00000004525934, -0.000055144978, -39727.477, -39727.477, 0.0, 10.0, 9.943684 
6.35e+2, 1.2499334e+2, -1719946.1, -1724224.6, -0.000047086036, 0.000000048556767, 0.00001760928, -1719946.1, -4880.8496, 0.0, 10.0, 9.994327 
6.35e+2, 1.349876e+2, -1622565.6, -1627434.9, -0.0005533433, 0.000000048491717, -0.000068401576, -1622565.6, -5444.0645, 0.0, 10.0, 9.993545 
6.35e+2, 1.4497514e+2, -1534464.3, -1548146.3, 0.0009695411, 0.00000004775248, 0.000070931994, -1534464.3, -15220.573, 0.0, 10.0, 9.981865 
6.35e+2, 1.5495703e+2, -1436736.5, -1450821.9, 0.00016714243, 0.000000046325553, -0.00005697392, -1436736.5, -15315.391, 0.0, 10.0, 9.981333 
6.35e+2, 1.6493228e+2, -1348685.6, -1371952.4, 0.0006294513, 0.000000045811692, 0.000047345788, -1348685.6, -25021.883, 0.0, 10.0, 9.969248 
6.35e+2, 1.7490156e+2, -1250727.5, -1274310.1, 0.0000849569, 0.00000004623013, -0.00007382559, -1250727.5, -24762.863, 0.0, 10.0, 9.968835 
6.35e+2, 1.8486421e+2, -1162646.6, -1195720.1, 0.0009366383, 0.000000046725653, 0.00006614991, -1162646.6, -34315.918, 0.0, 10.0, 9.956395 
6.35e+2, 1.9482064e+2, -1064496.9, -1097833.0, 0.00025444364, 0.000000047301825, -0.00005765369, -1064496.9, -33739.254, 0.0, 10.0, 9.956052 
6.35e+2, 2.0477042e+2, -976332.9, -1019435.0, 0.001307389, 0.000000046603798, 0.000068081245, -976332.9, -43083.0, 0.0, 10.0, 9.943291 
6.35e+2, 2.1471375e+2, -878045.9, -921409.9, 0.0002242492, 0.00000004452577, -0.00012682112, -878045.9, -42240.582, 0.0, 10.0, 9.942949 
6.35e+2, 2.2465037e+2, -789759.75, -843144.9, 0.00073991454, 0.00000004429878, 0.0001208851, -789759.75, -51333.477, 0.0, 10.0, 9.929908 
6.35e+2, 2.3458035e+2, -691326.25, -744966.44, 0.0008941456, 0.00000004616749, -0.00008881812, -691326.25, -50213.715, 0.0, 10.0, 9.929577 
6.35e+2, 2.4450338e+2, -603002.2, -667018.8, 0.0011744067, 0.000000046610115, 0.000074708034, -603002.2, -59135.313, 0.0, 10.0, 9.916136 
6.35e+2, 2.5441962e+2, -504249.53, -568343.3, -0.00030819344, 0.000000045347115, -0.00010673329, -504249.53, -57561.973, 0.0, 10.0, 9.916036 
6.35e+2, 2.643288e+2, -416014.13, -490987.88, 0.0007069729, 0.00000004467106, 0.0001405987, -416014.13, -66436.445, 0.0, 10.0, 9.901964 
6.35e+2, 2.742313e+2, -316728.9, -391374.78, 0.0005498656, 0.000000044745956, -0.00020344266, -316728.9, -64195.89, 0.0, 10.0, 9.902385 
6.35e+2, 2.841256e+2, -230255.64, -318081.25, 0.0008735361, 0.00000004494595, 0.00022904547, -230255.64, -74686.664, 0.0, 10.0, 9.885439 
6.35e+2, 2.940121e+2, -130549.5, -217765.0, 0.00024185119, 0.000000045313573, -0.00025334346, -130549.5, -71868.1, 0.0, 10.0, 9.886217 
6.35e+2, 3.0392656e+2, -40805.484, -84750.16, 0.0003233378, 0.00000004541481, 0.0001731353, -40805.484, -40805.484, 0.0, 10.0, 9.942173 
6.35e+2, 3.138706e+2, -39727.477, -82511.21, -0.000040356506, 0.00000004511888, -0.000055144345, -39727.477, -39727.477, 0.0, 10.0, 9.943684 
6.45e+2, 1.2499334e+2, -1719946.1, -1724224.6, 0.0011796138, 0.00000005025469, 0.00001760858, -1719946.1, -4880.8384, 0.0, 10.0, 9.994327 
6.45e+2, 1.349876e+2, -1622565.6, -1627434.9, -0.00052704767, 0.000000049347857, -0.00006840064, -1622565.6, -5444.052, 0.0, 10.0, 9.993545 
6.45e+2, 1.4497514e+2, -1534464.3, -1548146.3, 0.0008408629, 0.00000004872581, 0.00007093395, -1534464.3, -15220.561, 0.0, 10.0, 9.981865 
6.45e+2, 1.5495703e+2, -1436736.5, -1450821.9, 0.00075411634, 0.000000048380045, -0.000056974, -1436736.5, -15315.381, 0.0, 10.0, 9.981333 
6.45e+2, 1.6493228e+2, -1348685.6, -1371952.4, 0.0013527672, 0.000000048146344, 0.000047345176, -1348685.6, -25021.875, 0.0, 10.0, 9.969248 
6.45e+2, 1.7490156e+2, -1250727.5, -1274310.1, 0.00049057504, 0.00000004802708, -0.00007382519, -1250727.5, -24762.855, 0.0, 10.0, 9.968835 
6.45e+2, 1.8486421e+2, -1162646.6, -1195720.1, 0.0013420673, 0.000000047996306, 0.00006615053, -1162646.6, -34315.906, 0.0, 10.0, 9.956395 
6.45e+2, 1.9482064e+2, -1064496.9, -1097833.0, 0.00073640334, 0.000000048058105, -0.00005765366, -1064496.9, -33739.242, 0.0, 10.0, 9.956052 
6.45e+2, 2.0477042e+2, -976332.9, -1019435.0, 0.0020131601, 0.00000004747972, 0.00006808108, -976332.9, -43082.99, 0.0, 10.0, 9.943291 
6.45e+2, 2.1471375e+2, -878045.9, -921409.9, 0.0009900309, 0.000000046207962, -0.00012682108, -878045.9, -42240.574, 0.0, 10.0, 9.942949 
6.45e+2, 2.2465037e+2, -789759.75, -843144.9, 0.0010231967, 0.000000046369884, 0.00012088532, -789759.75, -51333.47, 0.0, 10.0, 9.929908 
6.45e+2, 2.3458035e+2, -691326.25, -744966.44, 0.0007071806, 0.00000004815486, -0.00008881778, -691326.25, -50213.703, 0.0, 10.0, 9.929577 
6.45e+2, 2.4450338e+2, -603002.2, -667018.8, 0.0014970213, 0.000000048183363, 0.00007470822, -603002.2, -59135.3, 0.0, 10.0, 9.916136 
6.45e+2, 2.5441962e+2, -504249.53, -568343.3, 0.00057080016, 0.000000046112092, -0.00010673356, -504249.53, -57561.96, 0.0, 10.0, 9.916036 
6.45e+2, 2.643288e+2, -416014.1, -490987.88, 0.0013358698, 0.000000045362786, 0.00014059847, -416014.1, -66436.43, 0.0, 10.0, 9.901964 
6.45e+2, 2.742313e+2, -316728.88, -391374.75, 0.00062545197, 0.00000004630075, -0.0002034422, -316728.88, -64195.88, 0.0, 10.0, 9.902385 
6.45e+2, 2.841256e+2, -230255.63, -318081.25, 0.00083222816, 0.000000047052637, 0.00022904587, -230255.63, -74686.66, 0.0, 10.0, 9.885439 
6.45e+2, 2.940121e+2, -130549.49, -217765.0, 0.00055581005, 0.000000047541988, -0.00025334416, -130549.49, -71868.09, 0.0, 10.0, 9.886217 
6.45e+2, 3.0392656e+2, -40805.477, -84750.16, 0.00071754673, 0.000000047207642, 0.00017313455, -40805.477, -40805.477, 0.0, 10.0, 9.942173 
6.45e+2, 3.138706e+2, -39727.46, -82511.21, -0.00052238075, 0.00000004565281, -0.000055143613, -39727.46, -39727.46, 0.0, 10.0, 9.943684 
6.55e+2, 1.2499334e+2, -1719946.1, -1724224.6, 0.00093294616, 0.00000005171011, 0.000017609653, -1719946.1, -4880.843, 0.0, 10.0, 9.994327 
6.55e+2, 1.349876e+2, -1622565.6, -1627434.9, -0.0007737622, 0.000000049581132, -0.00006840114, -1622565.6, -5444.056, 0.0, 10.0, 9.993545 
6.55e+2, 1.4497514e+2, -1534464.3, -1548146.3, 0.000068589376, 0.000000049362793, 0.000070934046, -1534464.3, -15220.561, 0.0, 10.0, 9.981865 
6.55e+2, 1.5495703e+2, -1436736.5, -1450821.9, -0.000018998504, 0.000000051055867, -0.00005697366, -1436736.5, -15315.382, 0.0, 10.0, 9.981333 
6.55e+2, 1.6493228e+2, -1348685.6, -1371952.4, 0.0011476242, 0.00000005137277, 0.000047345526, -1348685.6, -25021.877, 0.0, 10.0, 9.969248 
6.55e+2, 1.7490156e+2, -1250727.5, -1274310.1, 0.00028842207, 0.000000050284548, -0.000073825075, -1250727.5, -24762.857, 0.0, 10.0, 9.968835 
6.55e+2, 1.8486421e+2, -1162646.6, -1195720.1, 0.0013181898, 0.000000049027985, 0.00006615118, -1162646.6, -34315.91, 0.0, 10.0, 9.956395 
6.55e+2, 1.9482064e+2, -1064496.9, -1097833.0, 0.000714584, 0.000000047595194, -0.00005765168, -1064496.9, -33739.242, 0.0, 10.0, 9.956052 
6.55e+2, 2.0477042e+2, -976332.9, -1019435.0, 0.0015007044, 0.000000047674312, 0.000068081725, -976332.9, -43082.99, 0.0, 10.0, 9.943291 
6.55e+2, 2.1471375e+2, -878045.9, -921409.9, 0.00046743793, 0.00000004939081, -0.00012682463, -878045.9, -42240.58, 0.0, 10.0, 9.942949 
6.55e+2, 2.2465037e+2, -789759.75, -843144.9, 0.0006607101, 0.000000049963013, 0.00012088251, -789759.75, -51333.47, 0.0, 10.0, 9.929908 
6.55e+2, 2.3458035e+2, -691326.25, -744966.44, 0.00034992612, 0.000000049239368, -0.00008881423, -691326.25, -50213.703, 0.0, 10.0, 9.929577 
6.55e+2, 2.4450338e+2, -603002.2, -667018.8, 0.0018974985, 0.00000004829579, 0.000074712436, -603002.2, -59135.305, 0.0, 10.0, 9.916136 
6.55e+2, 2.5441962e+2, -504249.53, -568343.3, 0.0010076913, 0.000000047090808, -0.00010673548, -504249.53, -57561.96, 0.0, 10.0, 9.916036 
6.55e+2, 2.643288e+2, -416014.1, -490987.88, 0.00077040936, 0.000000046983907, 0.0001405947, -416014.1, -66436.43, 0.0, 10.0, 9.901964 
6.55e+2, 2.742313e+2, -316728.88, -391374.78, -0.000007213645, 0.000000048275012, -0.00020344237, -316728.88, -64195.883, 0.0, 10.0, 9.902385 
6.55e+2, 2.841256e+2, -230255.63, -318081.25, 0.0006311344, 0.000000049049582, 0.00022904763, -230255.63, -74686.66, 0.0, 10.0, 9.885439 
6.55e+2, 2.940121e+2, -130549.49, -217765.0, 0.00039360268, 0.000000049110806, -0.00025334282, -130549.49, -71868.09, 0.0, 10.0, 9.886217 
6.55e+2, 3.0392656e+2, -40805.477, -84750.164, 0.0012414474, 0.000000048489355, 0.00017313556, -40805.477, -40805.477, 0.0, 10.0, 9.942173 
6.55e+2, 3.138706e+2, -39727.465, -82511.21, 0.00008206889, 0.00000004686113, -0.000055142784, -39727.465, -39727.465, 0.0, 10.0, 9.943684 
6.65e+2, 1.2499334e+2, -1719946.1, -1724224.6, 0.0007347391, 0.000000053019722, 0.000017611623, -1719946.1, -4880.83, 0.0, 10.0, 9.994327 
6.65e+2, 1.349876e+2, -1622565.6, -1627434.9, 0.0007479097, 0.000000051259804, -0.000068402645, -1622565.6, -5444.0444, 0.0, 10.0, 9.993545 
6.65e+2, 1.4497514e+2, -1534464.3, -1548146.3, 0.0015871053, 0.00000005116774, 0.000070932954, -1534464.3, -15220.55, 0.0, 10.0, 9.981865 
6.65e+2, 1.5495703e+2, -1436736.5, -1450821.9, 0.00030349684, 0.000000052741743, -0.00005697307, -1436736.5, -15315.369, 0.0, 10.0, 9.981333 
6.65e+2, 1.6493228e+2, -1348685.6, -1371952.4, 0.0014129499, 0.000000052944404, 0.000047346533, -1348685.6, -25021.865, 0.0, 10.0, 9.969248 
6.65e+2, 1.7490156e+2, -1250727.5, -1274310.1, 0.00062490394, 0.00000005174687, -0.00007382493, -1250727.5, -24762.844, 0.0, 10.0, 9.968835 
6.65e+2, 1.8486421e+2, -1162646.6, -1195720.1, 0.0016239341, 0.000000050451554, 0.000066151384, -1162646.6, -34315.9, 0.0, 10.0, 9.956395 
6.65e+2, 1.9482064e+2, -1064496.9, -1097833.0, 0.0007434009, 0.00000004905384, -0.000057650457, -1064496.9, -33739.23, 0.0, 10.0, 9.956052 
6.65e+2, 2.0477042e+2, -976332.9, -1019435.0, 0.0014607508, 0.000000049390522, 0.00006808242, -976332.9, -43082.98, 0.0, 10.0, 9.943291 
6.65e+2, 2.1471375e+2, -878045.9, -921409.9, 0.0015581143, 0.00000005160555, -0.00012682611, -878045.9, -42240.566, 0.0, 10.0, 9.942949 
6.65e+2, 2.2465037e+2, -789759.75, -843144.9, 0.002163455, 0.000000051848076, 0.00012088116, -789759.75, -51333.46, 0.0, 10.0, 9.929908 
6.65e+2, 2.3458035e+2, -691326.25, -744966.44, 0.00013444688, 0.000000049857192, -0.000088812805, -691326.25, -50213.69, 0.0, 10.0, 9.929577 
6.65e+2, 2.4450338e+2, -603002.2, -667018.8, 0.0011219627, 0.000000048875627, 0.00007471439, -603002.2, -59135.29, 0.0, 10.0, 9.916136 
6.65e+2, 2.5441962e+2, -504249.5, -568343.3, 0.0013766257, 0.000000049101956, -0.00010673568, -504249.5, -57561.95, 0.0, 10.0, 9.916036 
6.65e+2, 2.643288e+2, -416014.1, -490987.88, 0.0014777958, 0.000000049484917, 0.00014059356, -416014.1, -66436.42, 0.0, 10.0, 9.901964 
6.65e+2, 2.742313e+2, -316728.88, -391374.78, 0.0004422184, 0.000000050064333, -0.00020344286, -316728.88, -64195.87, 0.0, 10.0, 9.902385 
6.65e+2, 2.841256e+2, -230255.61, -318081.25, 0.00082033064, 0.000000050247273, 0.00022904779, -230255.61, -74686.64, 0.0, 10.0, 9.885439 
6.65e+2, 2.940121e+2, -130549.48, -217765.0, -0.00034035443, 0.000000049886758, -0.00025334198, -130549.48, -71868.08, 0.0, 10.0, 9.886217 
6.65e+2, 3.0392656e+2, -40805.465, -84750.16, 0.00037370482, 0.000000049528794, 0.00017313643, -40805.465, -40805.465, 0.0, 10.0, 9.942173 
6.65e+2, 3.138706e+2, -39727.457, -82511.21, 0.0000518307, 0.00000004917984, -0.000055142846, -39727.457, -39727.457, 0.0, 10.0, 9.943684 
6.75e+2, 1.2499334e+2, -1719946.1, -1724224.6, 0.00014986708, 0.000000054183523, 0.000017614488, -1719946.1, -4880.83, 0.0, 10.0, 9.994327 
6.75e+2, 1.349876e+2, -1622565.6, -1627434.9, 0.00016291262, 0.00000005438387, -0.000068405156, -1622565.6, -5444.045, 0.0, 10.0, 9.993545 
6.75e+2, 1.4497514e+2, -1534464.3, -1548146.3, 0.0009749887, 0.00000005414065, 0.00007093068, -1534464.3, -15220.553, 0.0, 10.0, 9.981865 
6.75e+2, 1.5495703e+2, -1436736.5, -1450821.9, -0.00030867374, 0.000000053437677, -0.000056972232, -1436736.5, -15315.373, 0.0, 10.0, 9.981333 
6.75e+2, 1.6493228e+2, -1348685.6, -1371952.4, 0.0012570017, 0.00000005286126, 0.000047348203, -1348685.6, -25021.867, 0.0, 10.0, 9.969248 
6.75e+2, 1.7490156e+2, -1250727.5, -1274310.1, 0.00047135653, 0.000000052414045, -0.00007382476, -1250727.5, -24762.846, 0.0, 10.0, 9.968835 
6.75e+2, 1.8486421e+2, -1162646.6, -1195720.1, 0.0014293209, 0.000000052267005, 0.00006615114, -1162646.6, -34315.9, 0.0, 10.0, 9.956395 
6.75e+2, 1.9482064e+2, -1064496.9, -1097833.0, 0.0005483057, 0.000000052434036, -0.000057649988, -1064496.9, -33739.234, 0.0, 10.0, 9.956052 
6.75e+2, 2.0477042e+2, -976332.9, -1019435.0, 0.00081281277, 0.000000052628348, 0.00006808318, -976332.9, -43082.98, 0.0, 10.0, 9.943291 
6.75e+2, 2.1471375e+2, -878045.9, -921409.9, 0.00090081495, 0.00000005285219, -0.00012682554, -878045.9, -42240.566, 0.0, 10.0, 9.942949 
6.75e+2, 2.2465037e+2, -789759.75, -843144.9, 0.0025778143, 0.00000005202508, 0.00012088127, -789759.75, -51333.465, 0.0, 10.0, 9.929908 
6.75e+2, 2.3458035e+2, -691326.25, -744966.44, 0.0005838652, 0.00000005000833, -0.00008881351, -691326.25, -50213.695, 0.0, 10.0, 9.929577 
6.75e+2, 2.4450338e+2, -603002.2, -667018.8, 0.00054514315, 0.000000049922885, 0.00007471408, -603002.2, -59135.29, 0.0, 10.0, 9.916136 
6.75e+2, 2.5441962e+2, -504249.5, -568343.3, 0.00075048587, 0.000000052145538, -0.00010673415, -504249.5, -57561.95, 0.0, 10.0, 9.916036 
6.75e+2, 2.643288e+2, -416014.1, -490987.88, 0.0014472938, 0.000000052865815, 0.00014059509, -416014.1, -66436.42, 0.0, 10.0, 9.901964 
6.75e+2, 2.742313e+2, -316728.88, -391374.78, 0.0004516501, 0.000000051668707, -0.00020344368, -316728.88, -64195.875, 0.0, 10.0, 9.902385 
6.75e+2, 2.841256e+2, -230255.61, -318081.25, 0.0009597624, 0.000000050645706, 0.00022904636, -230255.61, -74686.65, 0.0, 10.0, 9.885439 
6.75e+2, 2.940121e+2, -130549.48, -217765.0, -0.00018920617, 0.000000049869843, -0.00025334166, -130549.48, -71868.086, 0.0, 10.0, 9.886217 
6.75e+2, 3.0392656e+2, -40805.465, -84750.16, 0.000012986092, 0.000000050325966, 0.00017313716, -40805.465, -40805.465, 0.0, 10.0, 9.942173 
6.75e+2, 3.138706e+2, -39727.457, -82511.21, -0.00036897633, 0.000000052608943, -0.0000551438, -39727.457, -39727.457, 0.0, 10.0, 9.943684 
6.85e+2, 1.2499334e+2, -1719946.1, -1724224.6, 0.0011001528, 0.000000055992906, 0.00001761453, -1719946.1, -4880.819, 0.0, 10.0, 9.994327 
6.85e+2, 1.349876e+2, -1622565.6, -1627434.9, 0.00032838024, 0.000000056793937, -0.000068405134, -1622565.6, -5444.034, 0.0, 10.0, 9.993545 
6.85e+2, 1.4497514e+2, -1534464.3, -1548146.3, 0.0013410464, 0.0000000562839, 0.000070931725, -1534464.3, -15220.542, 0.0, 10.0, 9.981865 
6.85e+2, 1.5495703e+2, -1436736.5, -1450821.9, 0.00037669227, 0.000000054439884, -0.000056971996, -1436736.5, -15315.358, 0.0, 10.0, 9.981333 
6.85e+2, 1.6493228e+2, -1348685.5, -1371952.4, 0.0019131126, 0.000000053562363, 0.00004734821, -1348685.5, -25021.852, 0.0, 10.0, 9.969248 
6.85e+2, 1.7490156e+2, -1250727.5, -1274310.1, 0.00109814, 0.00000005367166, -0.00007382439, -1250727.5, -24762.832, 0.0, 10.0, 9.968835 
6.85e+2, 1.8486421e+2, -1162646.6, -1195720.1, 0.0020179206, 0.000000054249636, 0.00006615123, -1162646.6, -34315.887, 0.0, 10.0, 9.956395 
6.85e+2, 1.9482064e+2, -1064496.9, -1097833.0, 0.0013601378, 0.000000055318033, -0.000057650825, -1064496.9, -33739.223, 0.0, 10.0, 9.956052 
6.85e+2, 2.0477042e+2, -976332.9, -1019435.0, 0.0015600839, 0.00000005507131, 0.00006808294, -976332.9, -43082.97, 0.0, 10.0, 9.943291 
6.85e+2, 2.1471375e+2, -878045.8, -921409.9, 0.00013300592, 0.000000053400264, -0.00012682352, -878045.8, -42240.55, 0.0, 10.0, 9.942949 
6.85e+2, 2.2465037e+2, -789759.75, -843144.9, 0.0018273158, 0.00000005230806, 0.00012088304, -789759.75, -51333.45, 0.0, 10.0, 9.929908 
6.85e+2, 2.3458035e+2, -691326.25, -744966.44, 0.0019341225, 0.000000051871528, -0.0000888148, -691326.25, -50213.684, 0.0, 10.0, 9.929577 
6.85e+2, 2.4450338e+2, -603002.2, -667018.75, 0.0019264544, 0.000000052448712, 0.00007471223, -603002.2, -59135.28, 0.0, 10.0, 9.916136 
6.85e+2, 2.5441962e+2, -504249.5, -568343.3, 0.00039879218, 0.000000054236047, -0.00010673357, -504249.5, -57561.94, 0.0, 10.0, 9.916036 
6.85e+2, 2.643288e+2, -416014.1, -490987.88, 0.0010131955, 0.000000054531824, 0.00014059652, -416014.1, -66436.414, 0.0, 10.0, 9.901964 
6.85e+2, 2.742313e+2, -316728.88, -391374.75, 0.0006304459, 0.00000005292657, -0.00020344343, -316728.88, -64195.86, 0.0, 10.0, 9.902385 
6.85e+2, 2.841256e+2, -230255.61, -318081.25, 0.0015166639, 0.00000005183858, 0.00022904591, -230255.61, -74686.63, 0.0, 10.0, 9.885439 
6.85e+2, 2.940121e+2, -130549.47, -217765.0, 0.0009112675, 0.000000051467214, -0.0002533421, -130549.47, -71868.07, 0.0, 10.0, 9.886217 
6.85e+2, 3.0392656e+2, -40805.453, -84750.16, 0.00091300684, 0.000000052113105, 0.00017313674, -40805.453, -40805.453, 0.0, 10.0, 9.942173 
6.85e+2, 3.138706e+2, -39727.445, -82511.21, -0.00007549882, 0.000000054262603, -0.00005514411, -39727.445, -39727.445, 0.0, 10.0, 9.943684 
6.95e+2, 1.2499334e+2, -1719946.1, -1724224.6, 0.00040711946, 0.000000058447874, 0.000017611746, -1719946.1, -4880.821, 0.0, 10.0, 9.994327 
6.95e+2, 1.349876e+2, -1622565.6, -1627434.9, -0.0003647683, 0.000000058490002, -0.00006840258, -1622565.6, -5444.036, 0.0, 10.0, 9.993545 
6.95e+2, 1.4497514e+2, -1534464.3, -1548146.3, 0.0015440859, 0.00000005759749, 0.0000709361, -1534464.3, -15220.545, 0.0, 10.0, 9.981865 
6.95e+2, 1.5495703e+2, -1436736.5, -1450821.9, 0.0005811413, 0.000000055748355, -0.000056972356, -1436736.5, -15315.361, 0.0, 10.0, 9.981333 
6.95e+2, 1.6493228e+2, -1348685.5, -1371952.4, 0.0013040248, 0.000000055047707, 0.00004734656, -1348685.5, -25021.854, 0.0, 10.0, 9.969248 
6.95e+2, 1.7490156e+2, -1250727.5, -1274310.1, 0.00048474822, 0.000000055519713, -0.00007382382, -1250727.5, -24762.836, 0.0, 10.0, 9.968835 
6.95e+2, 1.8486421e+2, -1162646.6, -1195720.1, 0.0011737432, 0.000000056399447, 0.000066151675, -1162646.6, -34315.89, 0.0, 10.0, 9.956395 
6.95e+2, 1.9482064e+2, -1064496.9, -1097833.0, 0.00051327946, 0.000000057705826, -0.00005765296, -1064496.9, -33739.227, 0.0, 10.0, 9.956052 
6.95e+2, 2.0477042e+2, -976332.9, -1019435.0, 0.0022612826, 0.000000056719404, 0.00006808171, -976332.9, -43082.973, 0.0, 10.0, 9.943291 
6.95e+2, 2.1471375e+2, -878045.8, -921409.9, 0.0008661747, 0.000000053249778, -0.00012682007, -878045.8, -42240.555, 0.0, 10.0, 9.942949 
6.95e+2, 2.2465037e+2, -789759.75, -843144.9, 0.001177662, 0.000000052697015, 0.00012088649, -789759.75, -51333.45, 0.0, 10.0, 9.929908 
6.95e+2, 2.3458035e+2, -691326.25, -744966.44, 0.0012392253, 0.000000055446773, -0.000088816676, -691326.25, -50213.684, 0.0, 10.0, 9.929577 
6.95e+2, 2.4450338e+2, -603002.2, -667018.8, 0.001575854, 0.000000056453104, 0.00007470884, -603002.2, -59135.28, 0.0, 10.0, 9.916136 
6.95e+2, 2.5441962e+2, -504249.5, -568343.3, 0.00006473438, 0.000000055373487, -0.00010673393, -504249.5, -57561.94, 0.0, 10.0, 9.916036 
6.95e+2, 2.643288e+2, -416014.1, -490987.88, 0.0013482657, 0.00000005448295, 0.00014059785, -416014.1, -66436.414, 0.0, 10.0, 9.901964 
6.95e+2, 2.742313e+2, -316728.88, -391374.78, 0.0010103801, 0.000000053837926, -0.00020344212, -316728.88, -64195.86, 0.0, 10.0, 9.902385 
6.95e+2, 2.841256e+2, -230255.61, -318081.25, 0.0013826167, 0.000000053825893, 0.00022904646, -230255.61, -74686.63, 0.0, 10.0, 9.885439 
6.95e+2, 2.940121e+2, -130549.47, -217765.0, 0.00073090993, 0.000000054678875, -0.00025334334, -130549.47, -71868.07, 0.0, 10.0, 9.886217 
6.95e+2, 3.0392656e+2, -40805.457, -84750.164, 0.00066630746, 0.000000054890204, 0.00017313517, -40805.457, -40805.457, 0.0, 10.0, 9.942173 
6.95e+2, 3.138706e+2, -39727.445, -82511.21, -0.00032998357, 0.000000054140823, -0.000055143788, -39727.445, -39727.445, 0.0, 10.0, 9.943684 
7.05e+2, 1.2499334e+2, -1719946.0, -1724224.6, 0.0009921929, 0.00000006071149, 0.000017611721, -1719946.0, -4880.8076, 0.0, 10.0, 9.994327 
7.05e+2, 1.349876e+2, -1622565.6, -1627434.9, -0.0007649403, 0.000000059468242, -0.00006840152, -1622565.6, -5444.0205, 0.0, 10.0, 9.993545 
7.05e+2, 1.4497514e+2, -1534464.1, -1548146.3, 0.0011032938, 0.00000005854921, 0.000070938346, -1534464.1, -15220.528, 0.0, 10.0, 9.981865 
7.05e+2, 1.5495703e+2, -1436736.5, -1450821.9, 0.0008150134, 0.000000057938845, -0.000056971956, -1436736.5, -15315.35, 0.0, 10.0, 9.981333 
7.05e+2, 1.6493228e+2, -1348685.5, -1371952.4, 0.0017106305, 0.000000057783176, 0.0000473462, -1348685.5, -25021.844, 0.0, 10.0, 9.969248 
7.05e+2, 1.7490156e+2, -1250727.5, -1274310.1, 0.000988211, 0.000000058091807, -0.00007382383, -1250727.5, -24762.824, 0.0, 10.0, 9.968835 
7.05e+2, 1.8486421e+2, -1162646.5, -1195720.1, 0.0018293805, 0.000000058202488, 0.00006615188, -1162646.5, -34315.875, 0.0, 10.0, 9.956395 
7.05e+2, 1.9482064e+2, -1064496.9, -1097833.0, 0.0008934953, 0.00000005810602, -0.000057652705, -1064496.9, -33739.207, 0.0, 10.0, 9.956052 
7.05e+2, 2.0477042e+2, -976332.9, -1019435.0, 0.0028734517, 0.000000057210897, 0.00006808195, -976332.9, -43082.957, 0.0, 10.0, 9.943291 
7.05e+2, 2.1471375e+2, -878045.8, -921409.9, 0.0017363434, 0.00000005545079, -0.00012681994, -878045.8, -42240.543, 0.0, 10.0, 9.942949 
7.05e+2, 2.2465037e+2, -789759.7, -843144.9, 0.0015069232, 0.00000005562373, 0.00012088659, -789759.7, -51333.438, 0.0, 10.0, 9.929908 
7.05e+2, 2.3458035e+2, -691326.2, -744966.44, 0.0011234327, 0.000000057985005, -0.00008881654, -691326.2, -50213.67, 0.0, 10.0, 9.929577 
7.05e+2, 2.4450338e+2, -603002.1, -667018.8, 0.0020940062, 0.0000000582914, 0.00007470883, -603002.1, -59135.27, 0.0, 10.0, 9.916136 
7.05e+2, 2.5441962e+2, -504249.5, -568343.3, 0.0011754768, 0.000000056140987, -0.00010673434, -504249.5, -57561.926, 0.0, 10.0, 9.916036 
7.05e+2, 2.643288e+2, -416014.06, -490987.88, 0.0021345438, 0.00000005512634, 0.00014059753, -416014.06, -66436.4, 0.0, 10.0, 9.901964 
7.05e+2, 2.742313e+2, -316728.84, -391374.75, 0.0008533917, 0.00000005556282, -0.00020344173, -316728.84, -64195.848, 0.0, 10.0, 9.902385 
7.05e+2, 2.841256e+2, -230255.6, -318081.25, 0.00069116533, 0.00000005620355, 0.0002290471, -230255.6, -74686.625, 0.0, 10.0, 9.885439 
7.05e+2, 2.940121e+2, -130549.45, -217765.0, 0.0001467434, 0.000000057116992, -0.00025334305, -130549.45, -71868.06, 0.0, 10.0, 9.886217 
7.05e+2, 3.0392656e+2, -40805.445, -84750.16, 0.0005358936, 0.000000056964033, 0.00017313512, -40805.445, -40805.445, 0.0, 10.0, 9.942173 
7.05e+2, 3.138706e+2, -39727.43, -82511.21, -0.00018646498, 0.000000055225232, -0.000055144166, -39727.43, -39727.43, 0.0, 10.0, 9.943684 
7.15e+2, 1.2499334e+2, -1719946.1, -1724224.6, 0.000872453, 0.00000006278377, 0.000017614453, -1719946.1, -4880.8125, 0.0, 10.0, 9.994327 
7.15e+2, 1.349876e+2, -1622565.6, -1627434.9, -0.00088468177, 0.00000005972866, -0.00006840195, -1622565.6, -5444.025, 0.0, 10.0, 9.993545 
7.15e+2, 1.4497514e+2, -1534464.1, -1548146.3, 0.00032446499, 0.000000059139072, 0.00007093847, -1534464.1, -15220.529, 0.0, 10.0, 9.981865 
7.15e+2, 1.5495703e+2, -1436736.5, -1450821.9, 0.00003512692, 0.00000006101135, -0.00005697079, -1436736.5, -15315.351, 0.0, 10.0, 9.981333 
7.15e+2, 1.6493228e+2, -1348685.5, -1371952.4, 0.0013071396, 0.000000061768766, 0.000047347137, -1348685.5, -25021.846, 0.0, 10.0, 9.969248 
7.15e+2, 1.7490156e+2, -1250727.5, -1274310.1, 0.00058669463, 0.00000006138793, -0.00007382441, -1250727.5, -24762.826, 0.0, 10.0, 9.968835 
7.15e+2, 1.8486421e+2, -1162646.5, -1195720.1, 0.002129411, 0.000000059658774, 0.000066151835, -1162646.5, -34315.88, 0.0, 10.0, 9.956395 
7.15e+2, 1.9482064e+2, -1064496.9, -1097833.0, 0.0012016405, 0.000000056518616, -0.000057650053, -1064496.9, -33739.21, 0.0, 10.0, 9.956052 
7.15e+2, 2.0477042e+2, -976332.9, -1019435.0, 0.0021415316, 0.000000056545794, 0.000068083646, -976332.9, -43082.957, 0.0, 10.0, 9.943291 
7.15e+2, 2.1471375e+2, -878045.8, -921409.9, 0.0009829366, 0.0000000600033, -0.00012682313, -878045.8, -42240.547, 0.0, 10.0, 9.942949 
7.15e+2, 2.2465037e+2, -789759.7, -843144.9, 0.0011836678, 0.0000000610882, 0.00012088333, -789759.7, -51333.438, 0.0, 10.0, 9.929908 
7.15e+2, 2.3458035e+2, -691326.2, -744966.44, 0.00081424235, 0.000000059486226, -0.00008881439, -691326.2, -50213.67, 0.0, 10.0, 9.929577 
7.15e+2, 2.4450338e+2, -603002.1, -667018.8, 0.0026622023, 0.000000057963607, 0.00007471218, -603002.1, -59135.273, 0.0, 10.0, 9.916136 
7.15e+2, 2.5441962e+2, -504249.5, -568343.3, 0.0017858378, 0.00000005653855, -0.00010673479, -504249.5, -57561.93, 0.0, 10.0, 9.916036 
7.15e+2, 2.643288e+2, -416014.06, -490987.88, 0.0016037874, 0.000000056461992, 0.00014059557, -416014.06, -66436.4, 0.0, 10.0, 9.901964 
7.15e+2, 2.742313e+2, -316728.84, -391374.78, 0.00024612874, 0.00000005810125, -0.00020344228, -316728.84, -64195.85, 0.0, 10.0, 9.902385 
7.15e+2, 2.841256e+2, -230255.6, -318081.25, 0.00051411364, 0.000000058971548, 0.00022904784, -230255.6, -74686.625, 0.0, 10.0, 9.885439 
7.15e+2, 2.940121e+2, -130549.45, -217765.0, 0.00000845842, 0.000000058781573, -0.0002533412, -130549.45, -71868.06, 0.0, 10.0, 9.886217 
7.15e+2, 3.0392656e+2, -40805.445, -84750.164, 0.0010328208, 0.00000005833459, 0.0001731366, -40805.445, -40805.445, 0.0, 10.0, 9.942173 
7.15e+2, 3.138706e+2, -39727.434, -82511.21, 0.00038504077, 0.000000057515823, -0.000055145254, -39727.434, -39727.434, 0.0, 10.0, 9.943684 
7.25e+2, 1.2499334e+2, -1719946.0, -1724224.6, 0.0008682958, 0.00000006421514, 0.000017616314, -1719946.0, -4880.797, 0.0, 10.0, 9.994327 
7.25e+2, 1.349876e+2, -1622565.6, -1627434.9, 0.00080308923, 0.00000006164921, -0.00006840332, -1622565.6, -5444.011, 0.0, 10.0, 9.993545 
7.25e+2, 1.4497514e+2, -1534464.1, -1548146.3, 0.0019059419, 0.00000006138001, 0.00007093767, -1534464.1, -15220.517, 0.0, 10.0, 9.981865 
7.25e+2, 1.5495703e+2, -1436736.5, -1450821.9, 0.0005975505, 0.00000006340131, -0.000056970548, -1436736.5, -15315.337, 0.0, 10.0, 9.981333 
7.25e+2, 1.6493228e+2, -1348685.5, -1371952.4, 0.0017902306, 0.00000006391344, 0.00004734778, -1348685.5, -25021.832, 0.0, 10.0, 9.969248 
7.25e+2, 1.7490156e+2, -1250727.5, -1274310.1, 0.0007922031, 0.00000006288468, -0.000073824034, -1250727.5, -24762.81, 0.0, 10.0, 9.968835 
7.25e+2, 1.8486421e+2, -1162646.5, -1195720.1, 0.0023875164, 0.000000061019925, 0.00006615247, -1162646.5, -34315.863, 0.0, 10.0, 9.956395 
7.25e+2, 1.9482064e+2, -1064496.8, -1097833.0, 0.001227493, 0.000000058280264, -0.000057648635, -1064496.8, -33739.2, 0.0, 10.0, 9.956052 
7.25e+2, 2.0477042e+2, -976332.8, -1019435.0, 0.0017699886, 0.00000005871897, 0.00006808435, -976332.8, -43082.945, 0.0, 10.0, 9.943291 
7.25e+2, 2.1471375e+2, -878045.8, -921409.9, 0.0018893991, 0.00000006259993, -0.00012682477, -878045.8, -42240.535, 0.0, 10.0, 9.942949 
7.25e+2, 2.2465037e+2, -789759.7, -843144.9, 0.0028570376, 0.00000006329631, 0.000120881756, -789759.7, -51333.426, 0.0, 10.0, 9.929908 
7.25e+2, 2.3458035e+2, -691326.2, -744966.44, 0.0007211648, 0.00000006038673, -0.00008881317, -691326.2, -50213.656, 0.0, 10.0, 9.929577 
7.25e+2, 2.4450338e+2, -603002.1, -667018.75, 0.0017088938, 0.000000058768165, 0.0000747143, -603002.1, -59135.254, 0.0, 10.0, 9.916136 
7.25e+2, 2.5441962e+2, -504249.47, -568343.3, 0.0012751756, 0.00000005869541, -0.00010673405, -504249.47, -57561.918, 0.0, 10.0, 9.916036 
7.25e+2, 2.643288e+2, -416014.06, -490987.88, 0.0014219686, 0.000000059152885, 0.0001405953, -416014.06, -66436.39, 0.0, 10.0, 9.901964 
7.25e+2, 2.742313e+2, -316728.84, -391374.75, 0.0010137741, 0.00000006028144, -0.00020344311, -316728.84, -64195.836, 0.0, 10.0, 9.902385 
7.25e+2, 2.841256e+2, -230255.58, -318081.25, 0.0017656208, 0.00000006063902, 0.000229047, -230255.58, -74686.61, 0.0, 10.0, 9.885439 
7.25e+2, 2.940121e+2, -130549.44, -217765.0, 0.0003538824, 0.00000005993843, -0.0002533413, -130549.44, -71868.05, 0.0, 10.0, 9.886217 
7.25e+2, 3.0392656e+2, -40805.43, -84750.16, 0.00086227985, 0.00000005968498, 0.00017313691, -40805.43, -40805.43, 0.0, 10.0, 9.942173 
7.25e+2, 3.138706e+2, -39727.42, -82511.21, 0.00021532476, 0.00000006010519, -0.000055144967, -39727.42, -39727.42, 0.0, 10.0, 9.943684 
7.35e+2, 1.2499334e+2, -1719946.0, -1724224.6, 0.00034424057, 0.000000065005615, 0.000017617305, -1719946.0, -4880.7974, 0.0, 10.0, 9.994327 
7.35e+2, 1.349876e+2, -1622565.6, -1627434.9, 0.00027892384, 0.00000006522987, -0.00006840566, -1622565.6, -5444.012, 0.0, 10.0, 9.993545 
7.35e+2, 1.4497514e+2, -1534464.1, -1548146.3, 0.0011330578, 0.000000065272005, 0.00007093594, -1534464.1, -15220.52, 0.0, 10.0, 9.981865 
7.35e+2, 1.5495703e+2, -1436736.5, -1450821.9, -0.00017574475, 0.000000065108736, -0.000056971225, -1436736.5, -15315.341, 0.0, 10.0, 9.981333 
7.35e+2, 1.6493228e+2, -1348685.5, -1371952.4, 0.0017847164, 0.00000006421721, 0.000047348127, -1348685.5, -25021.834, 0.0, 10.0, 9.969248 
7.35e+2, 1.7490156e+2, -1250727.5, -1274310.1, 0.000790729, 0.00000006258206, -0.00007382269, -1250727.5, -24762.814, 0.0, 10.0, 9.968835 
7.35e+2, 1.8486421e+2, -1162646.5, -1195720.1, 0.0023058404, 0.00000006228595, 0.00006615377, -1162646.5, -34315.867, 0.0, 10.0, 9.956395 
7.35e+2, 1.9482064e+2, -1064496.8, -1097833.0, 0.0011448802, 0.00000006339096, -0.000057648453, -1064496.8, -33739.2, 0.0, 10.0, 9.956052 
7.35e+2, 2.0477042e+2, -976332.8, -1019435.0, 0.0009342415, 0.000000063730425, 0.00006808405, -976332.8, -43082.945, 0.0, 10.0, 9.943291 
7.35e+2, 2.1471375e+2, -878045.8, -921409.9, 0.0010380844, 0.00000006324068, -0.00012682486, -878045.8, -42240.535, 0.0, 10.0, 9.942949 
7.35e+2, 2.2465037e+2, -789759.7, -843144.9, 0.0034050057, 0.00000006224806, 0.000120881865, -789759.7, -51333.43, 0.0, 10.0, 9.929908 
7.35e+2, 2.3458035e+2, -691326.2, -744966.44, 0.0013149102, 0.000000060686524, -0.00008881287, -691326.2, -50213.66, 0.0, 10.0, 9.929577 
7.35e+2, 2.4450338e+2, -603002.1, -667018.8, 0.0012615604, 0.00000006070508, 0.00007471518, -603002.1, -59135.258, 0.0, 10.0, 9.916136 
7.35e+2, 2.5441962e+2, -504249.47, -568343.3, 0.0007778096, 0.00000006261156, -0.000106732106, -504249.47, -57561.918, 0.0, 10.0, 9.916036 
7.35e+2, 2.643288e+2, -416014.06, -490987.88, 0.001366218, 0.00000006319901, 0.00014059672, -416014.06, -66436.39, 0.0, 10.0, 9.901964 
7.35e+2, 2.742313e+2, -316728.84, -391374.78, 0.0009876315, 0.000000062103375, -0.00020344423, -316728.84, -64195.84, 0.0, 10.0, 9.902385 
7.35e+2, 2.841256e+2, -230255.58, -318081.25, 0.0019289647, 0.00000006120595, 0.00022904457, -230255.58, -74686.61, 0.0, 10.0, 9.885439 
7.35e+2, 2.940121e+2, -130549.445, -217765.0, 0.00053430675, 0.00000006058756, -0.0002533434, -130549.445, -71868.05, 0.0, 10.0, 9.886217 
7.35e+2, 3.0392656e+2, -40805.43, -84750.16, 0.0004983728, 0.00000006101521, 0.00017313607, -40805.43, -40805.43, 0.0, 10.0, 9.942173 
7.35e+2, 3.138706e+2, -39727.42, -82511.21, -0.0002124773, 0.00000006299333, -0.0000551433, -39727.42, -39727.42, 0.0, 10.0, 9.943684 
7.45e+2, 1.2499334e+2, -1719946.0, -1724224.6, 0.0020487197, 0.000000066672065, 0.0000176169, -1719946.0, -4880.782, 0.0, 10.0, 9.994327 
7.45e+2, 1.349876e+2, -1622565.5, -1627434.9, 0.00073483045, 0.000000068212714, -0.000068406036, -1622565.5, -5443.9995, 0.0, 10.0, 9.993545 
7.45e+2, 1.4497514e+2, -1534464.1, -1548146.3, 0.0017432638, 0.000000068127896, 0.000070936934, -1534464.1, -15220.508, 0.0, 10.0, 9.981865 
7.45e+2, 1.5495703e+2, -1436736.5, -1450821.9, 0.00073201157, 0.00000006638364, -0.000056971123, -1436736.5, -15315.323, 0.0, 10.0, 9.981333 
7.45e+2, 1.6493228e+2, -1348685.5, -1371952.4, 0.0026679228, 0.000000064891715, 0.00004734817, -1348685.5, -25021.816, 0.0, 10.0, 9.969248 
7.45e+2, 1.7490156e+2, -1250727.5, -1274310.1, 0.0012449356, 0.000000063657346, -0.00007382185, -1250727.5, -24762.797, 0.0, 10.0, 9.968835 
7.45e+2, 1.8486421e+2, -1162646.5, -1195720.1, 0.0024050665, 0.00000006442073, 0.00006615422, -1162646.5, -34315.85, 0.0, 10.0, 9.956395 
7.45e+2, 1.9482064e+2, -1064496.8, -1097833.0, 0.0021076507, 0.00000006727458, -0.000057649628, -1064496.8, -33739.19, 0.0, 10.0, 9.956052 
7.45e+2, 2.0477042e+2, -976332.8, -1019435.0, 0.0023804398, 0.000000067165686, 0.00006808327, -976332.8, -43082.934, 0.0, 10.0, 9.943291 
7.45e+2, 2.1471375e+2, -878045.8, -921409.9, 0.0006078788, 0.00000006384794, -0.00012682308, -878045.8, -42240.516, 0.0, 10.0, 9.942949 
7.45e+2, 2.2465037e+2, -789759.7, -843144.9, 0.002472261, 0.00000006222868, 0.000120883844, -789759.7, -51333.41, 0.0, 10.0, 9.929908 
7.45e+2, 2.3458035e+2, -691326.2, -744966.44, 0.0020789392, 0.0000000625331, -0.00008881337, -691326.2, -50213.65, 0.0, 10.0, 9.929577 
7.45e+2, 2.4450338e+2, -603002.1, -667018.75, 0.0023073154, 0.000000063510825, 0.000074713775, -603002.1, -59135.246, 0.0, 10.0, 9.916136 
7.45e+2, 2.5441962e+2, -504249.47, -568343.3, 0.0012020252, 0.00000006529076, -0.00010673252, -504249.47, -57561.906, 0.0, 10.0, 9.916036 
7.45e+2, 2.643288e+2, -416014.06, -490987.88, 0.0018227595, 0.0000000655196, 0.00014059703, -416014.06, -66436.375, 0.0, 10.0, 9.901964 
7.45e+2, 2.742313e+2, -316728.8, -391374.75, 0.00081939914, 0.00000006377262, -0.00020344353, -316728.8, -64195.824, 0.0, 10.0, 9.902385 
7.45e+2, 2.841256e+2, -230255.56, -318081.25, 0.0015960968, 0.00000006268911, 0.00022904508, -230255.56, -74686.59, 0.0, 10.0, 9.885439 
7.45e+2, 2.940121e+2, -130549.43, -217765.0, 0.0010443287, 0.00000006252268, -0.00025334387, -130549.43, -71868.04, 0.0, 10.0, 9.886217 
7.45e+2, 3.0392656e+2, -40805.418, -84750.16, 0.0008997865, 0.00000006300696, 0.00017313546, -40805.418, -40805.418, 0.0, 10.0, 9.942173 
7.45e+2, 3.138706e+2, -39727.406, -82511.21, -0.0008052874, 0.00000006444896, -0.00005514279, -39727.406, -39727.406, 0.0, 10.0, 9.943684 
7.55e+2, 1.2499334e+2, -1719946.0, -1724224.6, 0.00089445553, 0.000000069214494, 0.0000176151, -1719946.0, -4880.7856, 0.0, 10.0, 9.994327 
7.55e+2, 1.349876e+2, -1622565.5, -1627434.9, -0.0004196599, 0.000000070597736, -0.00006840447, -1622565.5, -5444.003, 0.0, 10.0, 9.993545 
7.55e+2, 1.4497514e+2, -1534464.1, -1548146.3, 0.002100065, 0.00000006994767, 0.00007094066, -1534464.1, -15220.511, 0.0, 10.0, 9.981865 
7.55e+2, 1.5495703e+2, -1436736.5, -1450821.9, 0.0010911897, 0.000000067226026, -0.00005697024, -1436736.5, -15315.326, 0.0, 10.0, 9.981333 
7.55e+2, 1.6493228e+2, -1348685.5, -1371952.4, 0.0023292615, 0.000000065936945, 0.00004734791, -1348685.5, -25021.82, 0.0, 10.0, 9.969248 
7.55e+2, 1.7490156e+2, -1250727.5, -1274310.1, 0.0009025776, 0.00000006611054, -0.000073821524, -1250727.5, -24762.8, 0.0, 10.0, 9.968835 
7.55e+2, 1.8486421e+2, -1162646.5, -1195720.1, 0.0010197193, 0.00000006742428, 0.00006615381, -1162646.5, -34315.85, 0.0, 10.0, 9.956395 
7.55e+2, 1.9482064e+2, -1064496.8, -1097833.0, 0.00071021175, 0.00000006993111, -0.000057652163, -1064496.8, -33739.19, 0.0, 10.0, 9.956052 
7.55e+2, 2.0477042e+2, -976332.8, -1019435.0, 0.0036073101, 0.00000006902476, 0.00006808199, -976332.8, -43082.938, 0.0, 10.0, 9.943291 
7.55e+2, 2.1471375e+2, -878045.8, -921409.9, 0.0018889478, 0.00000006442173, -0.00012681945, -878045.8, -42240.52, 0.0, 10.0, 9.942949 
7.55e+2, 2.2465037e+2, -789759.7, -843144.9, 0.0017705539, 0.000000063238154, 0.00012088768, -789759.7, -51333.41, 0.0, 10.0, 9.929908 
7.55e+2, 2.3458035e+2, -691326.2, -744966.44, 0.00131236, 0.00000006592644, -0.00008881468, -691326.2, -50213.65, 0.0, 10.0, 9.929577 
7.55e+2, 2.4450338e+2, -603002.1, -667018.8, 0.0018261381, 0.00000006718541, 0.000074710086, -603002.1, -59135.246, 0.0, 10.0, 9.916136 
7.55e+2, 2.5441962e+2, -504249.47, -568343.3, 0.0007345605, 0.000000066733016, -0.000106735286, -504249.47, -57561.906, 0.0, 10.0, 9.916036 
7.55e+2, 2.643288e+2, -416014.06, -490987.88, 0.0022425696, 0.00000006611466, 0.00014059624, -416014.06, -66436.375, 0.0, 10.0, 9.901964 
7.55e+2, 2.742313e+2, -316728.8, -391374.78, 0.0012987013, 0.00000006528916, -0.00020344101, -316728.8, -64195.824, 0.0, 10.0, 9.902385 
7.55e+2, 2.841256e+2, -230255.56, -318081.25, 0.0016133543, 0.00000006508849, 0.00022904851, -230255.56, -74686.59, 0.0, 10.0, 9.885439 
7.55e+2, 2.940121e+2, -130549.43, -217765.0, 0.0010199595, 0.000000065743784, -0.00025334273, -130549.43, -71868.04, 0.0, 10.0, 9.886217 
7.55e+2, 3.0392656e+2, -40805.418, -84750.164, 0.0009746127, 0.00000006566024, 0.0001731351, -40805.418, -40805.418, 0.0, 10.0, 9.942173 
7.55e+2, 3.138706e+2, -39727.41, -82511.22, -0.0007188062, 0.00000006447208, -0.000055143435, -39727.41, -39727.41, 0.0, 10.0, 9.943684 
7.65e+2, 1.2499334e+2, -1719946.0, -1724224.6, 0.00021421787, 0.00000007275638, 0.000017616401, -1719946.0, -4880.773, 0.0, 10.0, 9.994327 
7.65e+2, 1.349876e+2, -1622565.5, -1627434.9, -0.0009951947, 0.00000007172953, -0.00006840373, -1622565.5, -5443.984, 0.0, 10.0, 9.993545 
7.65e+2, 1.4497514e+2, -1534464.1, -1548146.3, 0.0017494124, 0.000000070517494, 0.00007094273, -1534464.1, -15220.49, 0.0, 10.0, 9.981865 
7.65e+2, 1.5495703e+2, -1436736.5, -1450821.9, 0.00060401676, 0.00000006909149, -0.000056968824, -1436736.5, -15315.311, 0.0, 10.0, 9.981333 
7.65e+2, 1.6493228e+2, -1348685.5, -1371952.4, 0.0019841732, 0.00000006891066, 0.00004734833, -1348685.5, -25021.807, 0.0, 10.0, 9.969248 
7.65e+2, 1.7490156e+2, -1250727.5, -1274310.1, 0.0019247541, 0.00000007000125, -0.00007382244, -1250727.5, -24762.79, 0.0, 10.0, 9.968835 
7.65e+2, 1.8486421e+2, -1162646.5, -1195720.1, 0.0024507656, 0.00000007035642, 0.00006615298, -1162646.5, -34315.84, 0.0, 10.0, 9.956395 
7.65e+2, 1.9482064e+2, -1064496.8, -1097833.0, 0.0007320067, 0.00000006994204, -0.000057651443, -1064496.8, -33739.168, 0.0, 10.0, 9.956052 
7.65e+2, 2.0477042e+2, -976332.8, -1019435.0, 0.0034288412, 0.000000068882926, 0.00006808322, -976332.8, -43082.918, 0.0, 10.0, 9.943291 
7.65e+2, 2.1471375e+2, -878045.8, -921409.9, 0.002142873, 0.00000006712557, -0.0001268188, -878045.8, -42240.508, 0.0, 10.0, 9.942949 
7.65e+2, 2.2465037e+2, -789759.7, -843144.9, 0.0018780864, 0.00000006709511, 0.000120887795, -789759.7, -51333.402, 0.0, 10.0, 9.929908 
7.65e+2, 2.3458035e+2, -691326.2, -744966.44, 0.0017539499, 0.000000069019556, -0.000088814995, -691326.2, -50213.637, 0.0, 10.0, 9.929577 
7.65e+2, 2.4450338e+2, -603002.1, -667018.75, 0.0029176043, 0.000000069324074, 0.00007470958, -603002.1, -59135.23, 0.0, 10.0, 9.916136 
7.65e+2, 2.5441962e+2, -504249.44, -568343.3, 0.0016778064, 0.000000067691545, -0.00010673572, -504249.44, -57561.887, 0.0, 10.0, 9.916036 
7.65e+2, 2.643288e+2, -416014.03, -490987.88, 0.0026308226, 0.00000006690346, 0.00014059606, -416014.03, -66436.36, 0.0, 10.0, 9.901964 
7.65e+2, 2.742313e+2, -316728.8, -391374.75, 0.0008831329, 0.000000067194556, -0.0002034407, -316728.8, -64195.81, 0.0, 10.0, 9.902385 
7.65e+2, 2.841256e+2, -230255.55, -318081.25, 0.00059705507, 0.00000006762698, 0.00022904934, -230255.55, -74686.586, 0.0, 10.0, 9.885439 
7.65e+2, 2.940121e+2, -130549.414, -217765.0, -0.0002787759, 0.000000068247736, -0.00025334142, -130549.414, -71868.02, 0.0, 10.0, 9.886217 
7.65e+2, 3.0392656e+2, -40805.406, -84750.16, 0.00042886095, 0.00000006795837, 0.00017313578, -40805.406, -40805.406, 0.0, 10.0, 9.942173 
7.65e+2, 3.138706e+2, -39727.39, -82511.21, 0.00032454325, 0.000000066316154, -0.000055145065, -39727.39, -39727.39, 0.0, 10.0, 9.943684 
7.75e+2, 1.2499334e+2, -1719946.0, -1724224.6, 0.00054865185, 0.00000007729772, 0.000017620803, -1719946.0, -4880.7764, 0.0, 10.0, 9.994327 
7.75e+2, 1.349876e+2, -1622565.5, -1627434.9, -0.00066062825, 0.000000071608106, -0.00006840382, -1622565.5, -5443.9873, 0.0, 10.0, 9.993545 
7.75e+2, 1.4497514e+2, -1534464.1, -1548146.3, 0.0010542956, 0.000000069837384, 0.000070943155, -1534464.1, -15220.493, 0.0, 10.0, 9.981865 
7.75e+2, 1.5495703e+2, -1436736.5, -1450821.9, -0.00009275001, 0.00000007198003, -0.000056966874, -1436736.5, -15315.313, 0.0, 10.0, 9.981333 
7.75e+2, 1.6493228e+2, -1348685.5, -1371952.4, 0.0010543121, 0.00000007381284, 0.000047349436, -1348685.5, -25021.807, 0.0, 10.0, 9.969248 
7.75e+2, 1.7490156e+2, -1250727.5, -1274310.1, 0.0009936435, 0.000000075329474, -0.000073824594, -1250727.5, -24762.79, 0.0, 10.0, 9.968835 
7.75e+2, 1.8486421e+2, -1162646.5, -1195720.1, 0.0033495685, 0.00000007321716, 0.00006615171, -1162646.5, -34315.844, 0.0, 10.0, 9.956395 
7.75e+2, 1.9482064e+2, -1064496.8, -1097833.0, 0.0016519869, 0.00000006730736, -0.00005764747, -1064496.8, -33739.17, 0.0, 10.0, 9.956052 
7.75e+2, 2.0477042e+2, -976332.8, -1019435.0, 0.0023882187, 0.0000000667402, 0.00006808698, -976332.8, -43082.92, 0.0, 10.0, 9.943291 
7.75e+2, 2.1471375e+2, -878045.8, -921409.9, 0.0010617492, 0.00000007195947, -0.00012682116, -878045.8, -42240.508, 0.0, 10.0, 9.942949 
7.75e+2, 2.2465037e+2, -789759.7, -843144.9, 0.0017028434, 0.00000007379954, 0.00012088419, -789759.7, -51333.402, 0.0, 10.0, 9.929908 
7.75e+2, 2.3458035e+2, -691326.2, -744966.44, 0.0016083337, 0.00000007181244, -0.00008881431, -691326.2, -50213.637, 0.0, 10.0, 9.929577 
7.75e+2, 2.4450338e+2, -603002.1, -667018.8, 0.0035562206, 0.0000000699268, 0.00007471224, -603002.1, -59135.234, 0.0, 10.0, 9.916136 
7.75e+2, 2.5441962e+2, -504249.44, -568343.3, 0.0023541115, 0.00000006816636, -0.00010673384, -504249.44, -57561.89, 0.0, 10.0, 9.916036 
7.75e+2, 2.643288e+2, -416014.03, -490987.88, 0.0022020144, 0.000000067886006, 0.0001405965, -416014.03, -66436.36, 0.0, 10.0, 9.901964 
7.75e+2, 2.742313e+2, -316728.8, -391374.78, 0.00038023578, 0.0000000694888, -0.00020344256, -316728.8, -64195.813, 0.0, 10.0, 9.902385 
7.75e+2, 2.841256e+2, -230255.55, -318081.25, 0.0005195913, 0.00000007030457, 0.00022904755, -230255.55, -74686.586, 0.0, 10.0, 9.885439 
7.75e+2, 2.940121e+2, -130549.414, -217765.0, -0.00031789896, 0.00000007003453, -0.0002533399, -130549.414, -71868.02, 0.0, 10.0, 9.886217 
7.75e+2, 3.0392656e+2, -40805.406, -84750.16, 0.0008446693, 0.000000069901354, 0.00017313751, -40805.406, -40805.406, 0.0, 10.0, 9.942173 
7.75e+2, 3.138706e+2, -39727.39, -82511.21, 0.0007937717, 0.00000006998117, -0.000055147684, -39727.39, -39727.39, 0.0, 10.0, 9.943684 
7.85e+2, 1.2499334e+2, -1719946.0, -1724224.6, 0.0014578117, 0.000000078673054, 0.000017621463, -1719946.0, -4880.757, 0.0, 10.0, 9.994327 
7.85e+2, 1.349876e+2, -1622565.5, -1627434.9, 0.00050537527, 0.00000007380275, -0.00006840388, -1622565.5, -5443.9707, 0.0, 10.0, 9.993545 
7.85e+2, 1.4497514e+2, -1534464.1, -1548146.3, 0.0018067661, 0.000000072734245, 0.00007094392, -1534464.1, -15220.479, 0.0, 10.0, 9.981865 
7.85e+2, 1.5495703e+2, -1436736.5, -1450821.9, 0.0012651829, 0.0000000754593, -0.000056967863, -1436736.5, -15315.3, 0.0, 10.0, 9.981333 
7.85e+2, 1.6493228e+2, -1348685.5, -1371952.4, 0.0023789925, 0.000000076781554, 0.000047348567, -1348685.5, -25021.791, 0.0, 10.0, 9.969248 
7.85e+2, 1.7490156e+2, -1250727.5, -1274310.1, 0.00057208457, 0.00000007667161, -0.00007382344, -1250727.5, -24762.77, 0.0, 10.0, 9.968835 
7.85e+2, 1.8486421e+2, -1162646.5, -1195720.1, 0.003024827, 0.000000074303316, 0.000066153654, -1162646.5, -34315.824, 0.0, 10.0, 9.956395 
7.85e+2, 1.9482064e+2, -1064496.8, -1097833.0, 0.0018071912, 0.00000006957172, -0.000057646033, -1064496.8, -33739.156, 0.0, 10.0, 9.956052 
7.85e+2, 2.0477042e+2, -976332.8, -1019435.0, 0.0021480366, 0.00000006959092, 0.00006808712, -976332.8, -43082.906, 0.0, 10.0, 9.943291 
7.85e+2, 2.1471375e+2, -878045.75, -921409.9, 0.0023357696, 0.00000007475546, -0.00012682317, -878045.75, -42240.492, 0.0, 10.0, 9.942949 
7.85e+2, 2.2465037e+2, -789759.7, -843144.9, 0.0036776399, 0.000000076163616, 0.00012088243, -789759.7, -51333.387, 0.0, 10.0, 9.929908 
7.85e+2, 2.3458035e+2, -691326.1, -744966.44, 0.0010229913, 0.000000073317885, -0.00008881311, -691326.1, -50213.617, 0.0, 10.0, 9.929577 
7.85e+2, 2.4450338e+2, -603002.1, -667018.75, 0.0018332198, 0.00000007139646, 0.00007471469, -603002.1, -59135.215, 0.0, 10.0, 9.916136 
7.85e+2, 2.5441962e+2, -504249.44, -568343.3, 0.0010695059, 0.00000007058352, -0.00010673218, -504249.44, -57561.875, 0.0, 10.0, 9.916036 
7.85e+2, 2.643288e+2, -416014.03, -490987.88, 0.0015865576, 0.000000070658785, 0.00014059698, -416014.03, -66436.35, 0.0, 10.0, 9.901964 
7.85e+2, 2.742313e+2, -316728.78, -391374.75, 0.0016985091, 0.00000007186167, -0.00020344373, -316728.78, -64195.797, 0.0, 10.0, 9.902385 
7.85e+2, 2.841256e+2, -230255.53, -318081.25, 0.0028494964, 0.00000007229846, 0.00022904566, -230255.53, -74686.57, 0.0, 10.0, 9.885439 
7.85e+2, 2.940121e+2, -130549.4, -217765.0, 0.0011700832, 0.000000071681576, -0.00025334122, -130549.4, -71868.01, 0.0, 10.0, 9.886217 
7.85e+2, 3.0392656e+2, -40805.387, -84750.16, 0.0013654828, 0.00000007177043, 0.00017313707, -40805.387, -40805.387, 0.0, 10.0, 9.942173 
7.85e+2, 3.138706e+2, -39727.38, -82511.21, 0.00018239669, 0.00000007291655, -0.000055146884, -39727.38, -39727.38, 0.0, 10.0, 9.943684 
7.95e+2, 1.2499334e+2, -1719946.0, -1724224.6, 0.0011086249, 0.00000007688239, 0.000017618382, -1719946.0, -4880.76, 0.0, 10.0, 9.994327 
7.95e+2, 1.349876e+2, -1622565.5, -1627434.9, 0.00015611332, 0.00000007831345, -0.00006840392, -1622565.5, -5443.973, 0.0, 10.0, 9.993545 
7.95e+2, 1.4497514e+2, -1534464.1, -1548146.3, 0.0007919035, 0.000000079208064, 0.00007094504, -1534464.1, -15220.4795, 0.0, 10.0, 9.981865 
7.95e+2, 1.5495703e+2, -1436736.5, -1450821.9, 0.0002492383, 0.00000007952927, -0.000056971785, -1436736.5, -15315.302, 0.0, 10.0, 9.981333 
7.95e+2, 1.6493228e+2, -1348685.5, -1371952.4, 0.002635119, 0.000000077816786, 0.000047345715, -1348685.5, -25021.797, 0.0, 10.0, 9.969248 
7.95e+2, 1.7490156e+2, -1250727.5, -1274310.1, 0.00083490653, 0.00000007402767, -0.000073818985, -1250727.5, -24762.775, 0.0, 10.0, 9.968835 
7.95e+2, 1.8486421e+2, -1162646.5, -1195720.1, 0.0029845543, 0.0000000736149, 0.0000661588, -1162646.5, -34315.83, 0.0, 10.0, 9.956395 
7.95e+2, 1.9482064e+2, -1064496.8, -1097833.0, 0.0017633988, 0.000000076735105, -0.00005764713, -1064496.8, -33739.16, 0.0, 10.0, 9.956052 
7.95e+2, 2.0477042e+2, -976332.8, -1019435.0, 0.0013031327, 0.00000007743507, 0.00006808365, -976332.8, -43082.906, 0.0, 10.0, 9.943291 
7.95e+2, 2.1471375e+2, -878045.75, -921409.9, 0.0014743018, 0.00000007551356, -0.00012682485, -878045.75, -42240.492, 0.0, 10.0, 9.942949 
7.95e+2, 2.2465037e+2, -789759.7, -843144.9, 0.004092617, 0.00000007418734, 0.0001208825, -789759.7, -51333.39, 0.0, 10.0, 9.929908 
7.95e+2, 2.3458035e+2, -691326.2, -744966.44, 0.0014797277, 0.0000000735359, -0.00008881139, -691326.2, -50213.62, 0.0, 10.0, 9.929577 
7.95e+2, 2.4450338e+2, -603002.1, -667018.8, 0.001674224, 0.00000007373304, 0.00007471695, -603002.1, -59135.22, 0.0, 10.0, 9.916136 
7.95e+2, 2.5441962e+2, -504249.44, -568343.3, 0.00088091975, 0.00000007494302, -0.00010673075, -504249.44, -57561.88, 0.0, 10.0, 9.916036 
7.95e+2, 2.643288e+2, -416014.03, -490987.88, 0.0016311952, 0.000000075221806, 0.00014059749, -416014.03, -66436.35, 0.0, 10.0, 9.901964 
7.95e+2, 2.742313e+2, -316728.78, -391374.75, 0.0017587846, 0.00000007431318, -0.00020344424, -316728.78, -64195.797, 0.0, 10.0, 9.902385 
7.95e+2, 2.841256e+2, -230255.53, -318081.25, 0.002946085, 0.000000073608646, 0.00022904367, -230255.53, -74686.57, 0.0, 10.0, 9.885439 
7.95e+2, 2.940121e+2, -130549.4, -217765.0, 0.0012699554, 0.00000007318887, -0.0002533453, -130549.4, -71868.01, 0.0, 10.0, 9.886217 
7.95e+2, 3.0392656e+2, -40805.39, -84750.16, 0.0010537261, 0.00000007356561, 0.00017313445, -40805.39, -40805.39, 0.0, 10.0, 9.942173 
7.95e+2, 3.138706e+2, -39727.38, -82511.21, -0.0001776694, 0.000000075122294, -0.00005514267, -39727.38, -39727.38, 0.0, 10.0, 9.943684 
8.05e+2, 1.2499334e+2, -1719946.0, -1724224.6, 0.0029673125, 0.00000007805029, 0.00001761851, -1719946.0, -4880.7383, 0.0, 10.0, 9.994327 
8.05e+2, 1.349876e+2, -1622565.5, -1627434.9, 0.0013380848, 0.00000008204102, -0.00006840562, -1622565.5, -5443.9595, 0.0, 10.0, 9.993545 
8.05e+2, 1.4497514e+2, -1534464.1, -1548146.3, 0.0022110417, 0.00000008315416, 0.000070944974, -1534464.1, -15220.466, 0.0, 10.0, 9.981865 
8.05e+2, 1.5495703e+2, -1436736.4, -1450821.9, 0.00080943335, 0.0000000813362, -0.000056971137, -1436736.4, -15315.281, 0.0, 10.0, 9.981333 
8.05e+2, 1.6493228e+2, -1348685.5, -1371952.4, 0.0031611612, 0.000000078592336, 0.000047346763, -1348685.5, -25021.773, 0.0, 10.0, 9.969248 
8.05e+2, 1.7490156e+2, -1250727.5, -1274310.1, 0.0012941192, 0.000000074902864, -0.00007381785, -1250727.5, -24762.754, 0.0, 10.0, 9.968834 
8.05e+2, 1.8486421e+2, -1162646.5, -1195720.1, 0.0027811548, 0.00000007578218, 0.00006615905, -1162646.5, -34315.81, 0.0, 10.0, 9.956395 
8.05e+2, 1.9482064e+2, -1064496.8, -1097833.0, 0.0028413034, 0.0000000814423, -0.00005764875, -1064496.8, -33739.15, 0.0, 10.0, 9.956052 
8.05e+2, 2.0477042e+2, -976332.8, -1019435.0, 0.0033201613, 0.00000008190351, 0.0000680825, -976332.8, -43082.895, 0.0, 10.0, 9.943291 
8.05e+2, 2.1471375e+2, -878045.75, -921409.9, 0.0010211477, 0.00000007673379, -0.00012682297, -878045.75, -42240.473, 0.0, 10.0, 9.942949 
8.05e+2, 2.2465037e+2, -789759.6, -843144.9, 0.0028753742, 0.00000007436233, 0.00012088477, -789759.6, -51333.367, 0.0, 10.0, 9.929908 
8.05e+2, 2.3458035e+2, -691326.1, -744966.44, 0.0023920075, 0.00000007516037, -0.00008881173, -691326.1, -50213.6, 0.0, 10.0, 9.929577 
8.05e+2, 2.4450338e+2, -603002.06, -667018.75, 0.003183448, 0.000000076353324, 0.00007471535, -603002.06, -59135.2, 0.0, 10.0, 9.916136 
8.05e+2, 2.5441962e+2, -504249.4, -568343.3, 0.001991683, 0.00000007801457, -0.00010673196, -504249.4, -57561.863, 0.0, 10.0, 9.916036 
8.05e+2, 2.643288e+2, -416014.0, -490987.88, 0.0023793865, 0.0000000782509, 0.00014059723, -416014.0, -66436.336, 0.0, 10.0, 9.901964 
8.05e+2, 2.742313e+2, -316728.78, -391374.75, 0.00066671916, 0.000000076672805, -0.00020344286, -316728.78, -64195.777, 0.0, 10.0, 9.902385 
8.05e+2, 2.841256e+2, -230255.52, -318081.25, 0.0012428395, 0.00000007570662, 0.00022904522, -230255.52, -74686.555, 0.0, 10.0, 9.885439 
8.05e+2, 2.940121e+2, -130549.38, -217765.0, 0.000936074, 0.0000000755862, -0.00025334558, -130549.38, -71867.99, 0.0, 10.0, 9.886217 
8.05e+2, 3.0392656e+2, -40805.37, -84750.16, 0.0010350996, 0.00000007579254, 0.00017313374, -40805.37, -40805.37, 0.0, 10.0, 9.942173 
8.05e+2, 3.138706e+2, -39727.36, -82511.21, -0.0011850296, 0.000000076476525, -0.00005514177, -39727.36, -39727.36, 0.0, 10.0, 9.943684 
8.15e+2, 1.2499334e+2, -1719946.0, -1724224.6, 0.00085972366, 0.00000008217677, 0.000017621842, -1719946.0, -4880.7427, 0.0, 10.0, 9.994327 
8.15e+2, 1.349876e+2, -1622565.5, -1627434.9, -0.0007699737, 0.00000008498546, -0.00006840898, -1622565.5, -5443.964, 0.0, 10.0, 9.993545 
8.15e+2, 1.4497514e+2, -1534464.1, -1548146.3, 0.002770103, 0.000000084572555, 0.00007094374, -1534464.1, -15220.47, 0.0, 10.0, 9.981865 
8.15e+2, 1.5495703e+2, -1436736.4, -1450821.9, 0.0013726944, 0.0000000808801, -0.000056965917, -1436736.4, -15315.284, 0.0, 10.0, 9.981333 
8.15e+2, 1.6493228e+2, -1348685.5, -1371952.4, 0.0033203433, 0.00000007910819, 0.000047351714, -1348685.5, -25021.78, 0.0, 10.0, 9.969248 
8.15e+2, 1.7490156e+2, -1250727.5, -1274310.1, 0.0014511511, 0.0000000792972, -0.00007382004, -1250727.5, -24762.758, 0.0, 10.0, 9.968834 
8.15e+2, 1.8486421e+2, -1162646.5, -1195720.1, 0.0007193362, 0.00000008080516, 0.000066154425, -1162646.5, -34315.81, 0.0, 10.0, 9.956395 
8.15e+2, 1.9482064e+2, -1064496.8, -1097833.0, 0.00075376785, 0.000000083693315, -0.00005765091, -1064496.8, -33739.15, 0.0, 10.0, 9.956052 
8.15e+2, 2.0477042e+2, -976332.8, -1019435.0, 0.00495054, 0.00000008299624, 0.000068083675, -976332.8, -43082.9, 0.0, 10.0, 9.943291 
8.15e+2, 2.1471375e+2, -878045.75, -921409.9, 0.0027283132, 0.000000078416136, -0.00012681753, -878045.75, -42240.477, 0.0, 10.0, 9.942949 
8.15e+2, 2.2465037e+2, -789759.6, -843144.9, 0.0024342032, 0.000000076688586, 0.00012088924, -789759.6, -51333.367, 0.0, 10.0, 9.929908 
8.15e+2, 2.3458035e+2, -691326.1, -744966.44, 0.0018805466, 0.00000007819129, -0.00008881414, -691326.1, -50213.605, 0.0, 10.0, 9.929577 
8.15e+2, 2.4450338e+2, -603002.06, -667018.8, 0.0024794845, 0.00000007925729, 0.00007470992, -603002.06, -59135.203, 0.0, 10.0, 9.916136 
8.15e+2, 2.5441962e+2, -504249.4, -568343.3, 0.0012784668, 0.0000000797982, -0.00010673582, -504249.4, -57561.863, 0.0, 10.0, 9.916036 
8.15e+2, 2.643288e+2, -416014.0, -490987.88, 0.0027870599, 0.00000007974607, 0.00014059615, -416014.0, -66436.336, 0.0, 10.0, 9.901964 
8.15e+2, 2.742313e+2, -316728.78, -391374.75, 0.0011495509, 0.00000007894056, -0.0002034396, -316728.78, -64195.78, 0.0, 10.0, 9.902385 
8.15e+2, 2.841256e+2, -230255.52, -318081.25, 0.001502659, 0.00000007859238, 0.00022905033, -230255.52, -74686.555, 0.0, 10.0, 9.885439 
8.15e+2, 2.940121e+2, -130549.38, -217765.0, 0.0011758095, 0.000000078873555, -0.00025334203, -130549.38, -71867.99, 0.0, 10.0, 9.886217 
8.15e+2, 3.0392656e+2, -40805.375, -84750.164, 0.0014489391, 0.00000007845124, 0.0001731349, -40805.375, -40805.375, 0.0, 10.0, 9.942173 
8.15e+2, 3.138706e+2, -39727.363, -82511.22, -0.0007507319, 0.000000076979255, -0.000055144184, -39727.363, -39727.363, 0.0, 10.0, 9.943684 
8.25e+2, 1.2499334e+2, -1719946.0, -1724224.6, -0.0010161942, 0.000000087942155, 0.000017624321, -1719946.0, -4880.733, 0.0, 10.0, 9.994327 
8.25e+2, 1.349876e+2, -1622565.5, -1627434.9, -0.0011202625, 0.0000000862452, -0.000068408866, -1622565.5, -5443.9395, 0.0, 10.0, 9.993545 
8.25e+2, 1.4497514e+2, -1534464.1, -1548146.3, 0.0028504587, 0.00000008430176, 0.00007094536, -1534464.1, -15220.442, 0.0, 10.0, 9.981865 
8.25e+2, 1.5495703e+2, -1436736.4, -1450821.9, 0.00022854072, 0.00000008206963, -0.000056963552, -1436736.4, -15315.264, 0.0, 10.0, 9.981333 
8.25e+2, 1.6493228e+2, -1348685.5, -1371952.4, 0.002209306, 0.00000008225543, 0.00004735295, -1348685.5, -25021.762, 0.0, 10.0, 9.969248 
8.25e+2, 1.7490156e+2, -1250727.4, -1274310.1, 0.00313333, 0.00000008491017, -0.00007382184, -1250727.4, -24762.748, 0.0, 10.0, 9.968834 
8.25e+2, 1.8486421e+2, -1162646.5, -1195720.1, 0.0031069026, 0.00000008532082, 0.000066152614, -1162646.5, -34315.797, 0.0, 10.0, 9.956395 
8.25e+2, 1.9482064e+2, -1064496.8, -1097833.0, 0.00022153095, 0.00000008338325, -0.000057649577, -1064496.8, -33739.12, 0.0, 10.0, 9.956052 
8.25e+2, 2.0477042e+2, -976332.75, -1019435.0, 0.00353065, 0.000000082042156, 0.00006808599, -976332.75, -43082.87, 0.0, 10.0, 9.943291 
8.25e+2, 2.1471375e+2, -878045.75, -921409.9, 0.0022899895, 0.0000000813472, -0.00012681658, -878045.75, -42240.46, 0.0, 10.0, 9.942949 
8.25e+2, 2.2465037e+2, -789759.6, -843144.9, 0.0022997197, 0.00000008132823, 0.00012088935, -789759.6, -51333.355, 0.0, 10.0, 9.929908 
8.25e+2, 2.3458035e+2, -691326.1, -744966.44, 0.0020502254, 0.00000008207411, -0.000088814246, -691326.1, -50213.59, 0.0, 10.0, 9.929577 
8.25e+2, 2.4450338e+2, -603002.06, -667018.75, 0.0031408055, 0.00000008204886, 0.000074709664, -603002.06, -59135.188, 0.0, 10.0, 9.916136 
8.25e+2, 2.5441962e+2, -504249.4, -568343.3, 0.001842555, 0.00000008110168, -0.00010673613, -504249.4, -57561.84, 0.0, 10.0, 9.916036 
8.25e+2, 2.643288e+2, -416014.0, -490987.88, 0.00311379, 0.000000080711146, 0.00014059583, -416014.0, -66436.31, 0.0, 10.0, 9.901964 
8.25e+2, 2.742313e+2, -316728.75, -391374.75, 0.0012131513, 0.000000081031125, -0.00020343988, -316728.75, -64195.76, 0.0, 10.0, 9.902385 
8.25e+2, 2.841256e+2, -230255.5, -318081.22, 0.0009736737, 0.00000008129568, 0.0002290508, -230255.5, -74686.53, 0.0, 10.0, 9.885439 
8.25e+2, 2.940121e+2, -130549.37, -217765.0, -0.00060705905, 0.00000008148105, -0.0002533399, -130549.37, -71867.98, 0.0, 10.0, 9.886217 
8.25e+2, 3.0392656e+2, -40805.36, -84750.16, 0.00024972597, 0.000000081054246, 0.00017313645, -40805.36, -40805.36, 0.0, 10.0, 9.942173 
8.25e+2, 3.138706e+2, -39727.344, -82511.21, 0.00069283525, 0.00000007971961, -0.00005514657, -39727.344, -39727.344, 0.0, 10.0, 9.943684 
8.35e+2, 1.2499334e+2, -1719946.0, -1724224.6, 0.00041246103, 0.00000009534645, 0.000017625947, -1719946.0, -4880.734, 0.0, 10.0, 9.994327 
8.35e+2, 1.349876e+2, -1622565.5, -1627434.9, 0.00030881597, 0.00000008582026, -0.000068405265, -1622565.5, -5443.9404, 0.0, 10.0, 9.993545 
8.35e+2, 1.4497514e+2, -1534464.1, -1548146.3, 0.002160557, 0.00000008234178, 0.00007094984, -1534464.1, -15220.449, 0.0, 10.0, 9.981865 
8.35e+2, 1.5495703e+2, -1436736.4, -1450821.9, -0.0004647418, 0.000000084904805, -0.000056964047, -1436736.4, -15315.27, 0.0, 10.0, 9.981333 
8.35e+2, 1.6493228e+2, -1348685.5, -1371952.4, 0.00046463404, 0.00000008803406, 0.000047350473, -1348685.5, -25021.76, 0.0, 10.0, 9.969248 
8.35e+2, 1.7490156e+2, -1250727.4, -1274310.1, 0.0013830794, 0.00000009174176, -0.00007382324, -1250727.4, -24762.746, 0.0, 10.0, 9.968834 
8.35e+2, 1.8486421e+2, -1162646.5, -1195720.1, 0.0049675945, 0.00000008932918, 0.000066153625, -1162646.5, -34315.805, 0.0, 10.0, 9.956395 
8.35e+2, 1.9482064e+2, -1064496.8, -1097833.0, 0.0021240215, 0.00000008051211, -0.00005764475, -1064496.8, -33739.13, 0.0, 10.0, 9.956052 
8.35e+2, 2.0477042e+2, -976332.75, -1019435.0, 0.0020558296, 0.000000079041264, 0.000068089445, -976332.75, -43082.87, 0.0, 10.0, 9.943291 
8.35e+2, 2.1471375e+2, -878045.75, -921409.9, 0.0007454027, 0.000000085526985, -0.00012682013, -878045.75, -42240.465, 0.0, 10.0, 9.942949 
8.35e+2, 2.2465037e+2, -789759.6, -843144.9, 0.0021752059, 0.000000088281276, 0.00012088512, -789759.6, -51333.355, 0.0, 10.0, 9.929908 
8.35e+2, 2.3458035e+2, -691326.1, -744966.44, 0.0019721596, 0.00000008680882, -0.00008881205, -691326.1, -50213.59, 0.0, 10.0, 9.929577 
8.35e+2, 2.4450338e+2, -603002.06, -667018.8, 0.0039962255, 0.00000008472802, 0.00007471459, -603002.06, -59135.188, 0.0, 10.0, 9.916136 
8.35e+2, 2.5441962e+2, -504249.4, -568343.3, 0.0027428367, 0.00000008192504, -0.0001067329, -504249.4, -57561.844, 0.0, 10.0, 9.916036 
8.35e+2, 2.643288e+2, -416014.0, -490987.88, 0.0027735296, 0.000000081146105, 0.00014059625, -416014.0, -66436.32, 0.0, 10.0, 9.901964 
8.35e+2, 2.742313e+2, -316728.78, -391374.78, 0.0007897261, 0.0000000829445, -0.00020344368, -316728.78, -64195.766, 0.0, 10.0, 9.902385 
8.35e+2, 2.841256e+2, -230255.5, -318081.25, 0.00095440797, 0.00000008381652, 0.0002290466, -230255.5, -74686.54, 0.0, 10.0, 9.885439 
8.35e+2, 2.940121e+2, -130549.37, -217765.0, -0.0005898946, 0.000000083408686, -0.0002533392, -130549.37, -71867.98, 0.0, 10.0, 9.886217 
8.35e+2, 3.0392656e+2, -40805.36, -84750.16, 0.0006099061, 0.00000008360156, 0.00017313837, -40805.36, -40805.36, 0.0, 10.0, 9.942173 
8.35e+2, 3.138706e+2, -39727.344, -82511.21, 0.0010933046, 0.000000084697604, -0.00005514892, -39727.344, -39727.344, 0.0, 10.0, 9.943684 
8.45e+2, 1.2499334e+2, -1719946.0, -1724224.6, 0.0029611222, 0.00000009616583, 0.000017624574, -1719946.0, -4880.7065, 0.0, 10.0, 9.994327 
8.45e+2, 1.349876e+2, -1622565.5, -1627434.9, -0.00030225646, 0.000000088490324, -0.000068402645, -1622565.5, -5443.9214, 0.0, 10.0, 9.993545 
8.45e+2, 1.4497514e+2, -1534464.1, -1548146.3, 0.0007190194, 0.000000086338495, 0.00007095363, -1534464.1, -15220.434, 0.0, 10.0, 9.981865 
8.45e+2, 1.5495703e+2, -1436736.4, -1450821.9, 0.002201282, 0.00000008969861, -0.000056966845, -1436736.4, -15315.256, 0.0, 10.0, 9.981333 
8.45e+2, 1.6493228e+2, -1348685.4, -1371952.4, 0.0032953052, 0.00000009175772, 0.000047347192, -1348685.4, -25021.742, 0.0, 10.0, 9.969248 
8.45e+2, 1.7490156e+2, -1250727.4, -1274310.1, -0.0004165757, 0.00000009248864, -0.00007382077, -1250727.4, -24762.719, 0.0, 10.0, 9.968834 
8.45e+2, 1.8486421e+2, -1162646.5, -1195720.1, 0.003180273, 0.00000008987669, 0.00006615758, -1162646.5, -34315.777, 0.0, 10.0, 9.956395 
8.45e+2, 1.9482064e+2, -1064496.8, -1097833.0, 0.0027789443, 0.00000008376657, -0.00005764376, -1064496.8, -33739.113, 0.0, 10.0, 9.956052 
8.45e+2, 2.0477042e+2, -976332.75, -1019435.0, 0.002907871, 0.00000008315668, 0.000068088375, -976332.75, -43082.855, 0.0, 10.0, 9.943291 
8.45e+2, 2.1471375e+2, -878045.75, -921409.9, 0.0027607402, 0.00000008850387, -0.00012682227, -878045.75, -42240.445, 0.0, 10.0, 9.942949 
8.45e+2, 2.2465037e+2, -789759.6, -843144.9, 0.004466865, 0.00000009049734, 0.00012088352, -789759.6, -51333.336, 0.0, 10.0, 9.929908 
8.45e+2, 2.3458035e+2, -691326.1, -744966.44, 0.0013005885, 0.00000008869239, -0.000088811285, -691326.1, -50213.57, 0.0, 10.0, 9.929577 
8.45e+2, 2.4450338e+2, -603002.06, -667018.75, 0.0020773802, 0.00000008683943, 0.00007471668, -603002.06, -59135.168, 0.0, 10.0, 9.916136 
8.45e+2, 2.5441962e+2, -504249.38, -568343.3, 0.0010660918, 0.0000000849331, -0.00010673073, -504249.38, -57561.83, 0.0, 10.0, 9.916036 
8.45e+2, 2.643288e+2, -416013.97, -490987.88, 0.0017499797, 0.00000008437848, 0.00014059749, -416013.97, -66436.3, 0.0, 10.0, 9.901964 
8.45e+2, 2.742313e+2, -316728.75, -391374.75, 0.0019083606, 0.000000085544, -0.00020344465, -316728.75, -64195.746, 0.0, 10.0, 9.902385 
8.45e+2, 2.841256e+2, -230255.48, -318081.22, 0.0034232123, 0.00000008601328, 0.00022904432, -230255.48, -74686.516, 0.0, 10.0, 9.885439 
8.45e+2, 2.940121e+2, -130549.35, -217765.0, 0.0017823097, 0.0000000855216, -0.00025334157, -130549.35, -71867.95, 0.0, 10.0, 9.886217 
8.45e+2, 3.0392656e+2, -40805.336, -84750.15, 0.0018055558, 0.00000008597338, 0.00017313714, -40805.336, -40805.336, 0.0, 10.0, 9.942173 
8.45e+2, 3.138706e+2, -39727.33, -82511.2, -0.00030975236, 0.00000008783423, -0.000055147284, -39727.33, -39727.33, 0.0, 10.0, 9.943684 
8.55e+2, 1.2499334e+2, -1719946.0, -1724224.6, 0.0023367503, 0.000000090400306, 0.0000176202, -1719946.0, -4880.715, 0.0, 10.0, 9.994327 
8.55e+2, 1.349876e+2, -1622565.5, -1627434.9, -0.00092678674, 0.00000009425538, -0.00006840101, -1622565.5, -5443.9297, 0.0, 10.0, 9.993545 
8.55e+2, 1.4497514e+2, -1534464.1, -1548146.3, -0.00036172676, 0.000000096291906, 0.00007095672, -1534464.1, -15220.431, 0.0, 10.0, 9.981865 
8.55e+2, 1.5495703e+2, -1436736.4, -1450821.9, 0.0011197702, 0.00000009645105, -0.00005697195, -1436736.4, -15315.253, 0.0, 10.0, 9.981333 
8.55e+2, 1.6493228e+2, -1348685.5, -1371952.4, 0.003998463, 0.00000009342644, 0.000047343106, -1348685.5, -25021.752, 0.0, 10.0, 9.969248 
8.55e+2, 1.7490156e+2, -1250727.4, -1274310.1, 0.00029597766, 0.00000008715081, -0.00007381443, -1250727.4, -24762.729, 0.0, 10.0, 9.968834 
8.55e+2, 1.8486421e+2, -1162646.5, -1195720.1, 0.0026890887, 0.00000008696338, 0.00006616449, -1162646.5, -34315.777, 0.0, 10.0, 9.956395 
8.55e+2, 1.9482064e+2, -1064496.8, -1097833.0, 0.0022738061, 0.000000093146625, -0.000057646612, -1064496.8, -33739.113, 0.0, 10.0, 9.956052 
8.55e+2, 2.0477042e+2, -976332.75, -1019435.0, 0.0024930965, 0.00000009438837, 0.00006808278, -976332.75, -43082.86, 0.0, 10.0, 9.943291 
8.55e+2, 2.1471375e+2, -878045.75, -921409.9, 0.0023478097, 0.00000009027785, -0.000126823, -878045.75, -42240.445, 0.0, 10.0, 9.942949 
8.55e+2, 2.2465037e+2, -789759.6, -843144.9, 0.0047082044, 0.000000087976446, 0.00012088456, -789759.6, -51333.344, 0.0, 10.0, 9.929908 
8.55e+2, 2.3458035e+2, -691326.1, -744966.44, 0.0015633333, 0.000000087724835, -0.000088811954, -691326.1, -50213.574, 0.0, 10.0, 9.929577 
8.55e+2, 2.4450338e+2, -603002.06, -667018.75, 0.0019819194, 0.00000008838309, 0.00007471592, -603002.06, -59135.168, 0.0, 10.0, 9.916136 
8.55e+2, 2.5441962e+2, -504249.38, -568343.3, 0.00095341756, 0.00000009012586, -0.000106729625, -504249.38, -57561.83, 0.0, 10.0, 9.916036 
8.55e+2, 2.643288e+2, -416013.97, -490987.88, 0.0020254718, 0.00000009040826, 0.00014059954, -416013.97, -66436.3, 0.0, 10.0, 9.901964 
8.55e+2, 2.742313e+2, -316728.75, -391374.75, 0.0022098818, 0.00000008882962, -0.00020344282, -316728.75, -64195.746, 0.0, 10.0, 9.902385 
8.55e+2, 2.841256e+2, -230255.48, -318081.25, 0.0035830864, 0.000000087885944, 0.00022904393, -230255.48, -74686.52, 0.0, 10.0, 9.885439 
8.55e+2, 2.940121e+2, -130549.35, -217765.0, 0.0019294387, 0.000000087819785, -0.00025334695, -130549.35, -71867.96, 0.0, 10.0, 9.886217 
8.55e+2, 3.0392656e+2, -40805.34, -84750.164, 0.0015342054, 0.00000008816971, 0.00017313276, -40805.34, -40805.34, 0.0, 10.0, 9.942173 
8.55e+2, 3.138706e+2, -39727.332, -82511.21, -0.0006302067, 0.00000008912949, -0.000055141652, -39727.332, -39727.332, 0.0, 10.0, 9.943684 
8.65e+2, 1.2499334e+2, -1719945.9, -1724224.6, 0.002559897, 0.00000009132835, 0.000017622882, -1719945.9, -4880.688, 0.0, 10.0, 9.994327 
8.65e+2, 1.349876e+2, -1622565.5, -1627434.9, 0.0022949835, 0.000000098597084, -0.00006840557, -1622565.5, -5443.9126, 0.0, 10.0, 9.993545 
8.65e+2, 1.4497514e+2, -1534464.0, -1548146.3, 0.0034814011, 0.00000010115369, 0.00007095387, -1534464.0, -15220.413, 0.0, 10.0, 9.981865 
8.65e+2, 1.5495703e+2, -1436736.4, -1450821.9, 0.00012074957, 0.00000009891902, -0.000056969202, -1436736.4, -15315.229, 0.0, 10.0, 9.981333 
8.65e+2, 1.6493228e+2, -1348685.4, -1371952.4, 0.002849266, 0.0000000946969, 0.00004734686, -1348685.4, -25021.727, 0.0, 10.0, 9.969248 
8.65e+2, 1.7490156e+2, -1250727.4, -1274310.1, 0.0021328684, 0.00000008844516, -0.00007381435, -1250727.4, -24762.703, 0.0, 10.0, 9.968834 
8.65e+2, 1.8486421e+2, -1162646.4, -1195720.1, 0.0038245067, 0.00000008944622, 0.00006616283, -1162646.4, -34315.754, 0.0, 10.0, 9.956395 
8.65e+2, 1.9482064e+2, -1064496.8, -1097833.0, 0.002872113, 0.00000009803662, -0.00005764798, -1064496.8, -33739.098, 0.0, 10.0, 9.956052 
8.65e+2, 2.0477042e+2, -976332.75, -1019435.0, 0.0036272795, 0.00000009921221, 0.000068082736, -976332.75, -43082.844, 0.0, 10.0, 9.943291 
8.65e+2, 2.1471375e+2, -878045.7, -921409.9, 0.0009830812, 0.00000009235676, -0.0001268206, -878045.7, -42240.42, 0.0, 10.0, 9.942949 
8.65e+2, 2.2465037e+2, -789759.56, -843144.9, 0.0028805025, 0.000000088983114, 0.0001208869, -789759.56, -51333.316, 0.0, 10.0, 9.929908 
8.65e+2, 2.3458035e+2, -691326.06, -744966.44, 0.0029660775, 0.000000089553616, -0.00008881252, -691326.06, -50213.55, 0.0, 10.0, 9.929577 
8.65e+2, 2.4450338e+2, -603002.0, -667018.75, 0.004335891, 0.00000009096612, 0.000074713964, -603002.0, -59135.15, 0.0, 10.0, 9.916136 
8.65e+2, 2.5441962e+2, -504249.38, -568343.3, 0.0023758488, 0.00000009338007, -0.00010673117, -504249.38, -57561.81, 0.0, 10.0, 9.916036 
8.65e+2, 2.643288e+2, -416013.94, -490987.88, 0.0026417514, 0.00000009381778, 0.00014059916, -416013.94, -66436.28, 0.0, 10.0, 9.901964 
8.65e+2, 2.742313e+2, -316728.72, -391374.75, 0.00044588483, 0.000000091738215, -0.00020344109, -316728.72, -64195.727, 0.0, 10.0, 9.902385 
8.65e+2, 2.841256e+2, -230255.47, -318081.22, 0.0007973197, 0.000000090624155, 0.00022904616, -230255.47, -74686.5, 0.0, 10.0, 9.885439 
8.65e+2, 2.940121e+2, -130549.33, -217765.0, 0.00045941983, 0.000000090843066, -0.00025334643, -130549.33, -71867.94, 0.0, 10.0, 9.886217 
8.65e+2, 3.0392656e+2, -40805.32, -84750.16, 0.0009911023, 0.00000009085551, 0.00017313242, -40805.32, -40805.32, 0.0, 10.0, 9.942173 
8.65e+2, 3.138706e+2, -39727.305, -82511.21, -0.001030189, 0.00000009054967, -0.00005514169, -39727.305, -39727.305, 0.0, 10.0, 9.943684 
8.75e+2, 1.2499334e+2, -1719945.9, -1724224.6, -0.00031035766, 0.00000009894994, 0.00001763262, -1719945.9, -4880.6895, 0.0, 10.0, 9.994327 
8.75e+2, 1.349876e+2, -1622565.5, -1627434.9, -0.000575951, 0.00000010151544, -0.00006841634, -1622565.5, -5443.914, 0.0, 10.0, 9.993545 
8.75e+2, 1.4497514e+2, -1534464.1, -1548146.3, 0.0041003833, 0.00000010092388, 0.00007094508, -1534464.1, -15220.422, 0.0, 10.0, 9.981865 
8.75e+2, 1.5495703e+2, -1436736.4, -1450821.9, 0.0007452283, 0.00000009710253, -0.00005695861, -1436736.4, -15315.236, 0.0, 10.0, 9.981333 
8.75e+2, 1.6493228e+2, -1348685.4, -1371952.4, 0.0033491415, 0.000000095569085, 0.000047358455, -1348685.4, -25021.729, 0.0, 10.0, 9.969248 
8.75e+2, 1.7490156e+2, -1250727.4, -1274310.1, 0.0026320608, 0.00000009637167, -0.000073820534, -1250727.4, -24762.707, 0.0, 10.0, 9.968834 
8.75e+2, 1.8486421e+2, -1162646.4, -1195720.1, 0.0015638731, 0.00000009732517, 0.00006615261, -1162646.4, -34315.758, 0.0, 10.0, 9.956395 
8.75e+2, 1.9482064e+2, -1064496.8, -1097833.0, 0.0005794901, 0.00000009843658, -0.000057647867, -1064496.8, -33739.1, 0.0, 10.0, 9.956052 
8.75e+2, 2.0477042e+2, -976332.75, -1019435.0, 0.005281332, 0.000000097628195, 0.000068088244, -976332.75, -43082.85, 0.0, 10.0, 9.943291 
8.75e+2, 2.1471375e+2, -878045.7, -921409.9, 0.0027186456, 0.000000094740585, -0.00012681505, -878045.7, -42240.426, 0.0, 10.0, 9.942949 
8.75e+2, 2.2465037e+2, -789759.56, -843144.9, 0.0027018958, 0.00000009351733, 0.000120890545, -789759.56, -51333.316, 0.0, 10.0, 9.929908 
8.75e+2, 2.3458035e+2, -691326.06, -744966.44, 0.0027248373, 0.00000009417871, -0.00008881298, -691326.06, -50213.55, 0.0, 10.0, 9.929577 
8.75e+2, 2.4450338e+2, -603002.0, -667018.75, 0.0036269443, 0.000000094588515, 0.0000747108, -603002.0, -59135.152, 0.0, 10.0, 9.916136 
8.75e+2, 2.5441962e+2, -504249.38, -568343.3, 0.0016444271, 0.00000009469575, -0.000106735366, -504249.38, -57561.813, 0.0, 10.0, 9.916036 
8.75e+2, 2.643288e+2, -416013.97, -490987.88, 0.0030685836, 0.000000094607074, 0.00014059634, -416013.97, -66436.28, 0.0, 10.0, 9.901964 
8.75e+2, 2.742313e+2, -316728.72, -391374.75, 0.0009503854, 0.00000009426978, -0.00020343949, -316728.72, -64195.73, 0.0, 10.0, 9.902385 
8.75e+2, 2.841256e+2, -230255.47, -318081.25, 0.00111472, 0.0000000942279, 0.00022905102, -230255.47, -74686.5, 0.0, 10.0, 9.885439 
8.75e+2, 2.940121e+2, -130549.33, -217765.0, 0.0007599767, 0.00000009459145, -0.0002533399, -130549.33, -71867.94, 0.0, 10.0, 9.886217 
8.75e+2, 3.0392656e+2, -40805.324, -84750.164, 0.0018286613, 0.000000094030774, 0.0001731361, -40805.324, -40805.324, 0.0, 10.0, 9.942173 
8.75e+2, 3.138706e+2, -39727.31, -82511.22, -0.0001295581, 0.00000009209475, -0.0000551474, -39727.31, -39727.31, 0.0, 10.0, 9.943684 
8.85e+2, 1.2499334e+2, -1719945.9, -1724224.6, -0.0008271963, 0.000000106765654, 0.000017633873, -1719945.9, -4880.682, 0.0, 10.0, 9.994327 
8.85e+2, 1.349876e+2, -1622565.4, -1627434.9, -0.0014004715, 0.0000001030497, -0.00006841563, -1622565.4, -5443.884, 0.0, 10.0, 9.993545 
8.85e+2, 1.4497514e+2, -1534464.0, -1548146.3, 0.0035075098, 0.00000010011282, 0.0000709476, -1534464.0, -15220.389, 0.0, 10.0, 9.981864 
8.85e+2, 1.5495703e+2, -1436736.4, -1450821.9, 0.0006469187, 0.00000009790351, -0.0000569572, -1436736.4, -15315.21, 0.0, 10.0, 9.981333 
8.85e+2, 1.6493228e+2, -1348685.4, -1371952.4, 0.0031197318, 0.00000009892987, 0.00004735871, -1348685.4, -25021.705, 0.0, 10.0, 9.969248 
8.85e+2, 1.7490156e+2, -1250727.4, -1274310.1, 0.0033304158, 0.000000103260184, -0.00007382146, -1250727.4, -24762.693, 0.0, 10.0, 9.968834 
8.85e+2, 1.8486421e+2, -1162646.4, -1195720.1, 0.0028858555, 0.00000010307921, 0.00006615209, -1162646.4, -34315.746, 0.0, 10.0, 9.956395 
8.85e+2, 1.9482064e+2, -1064496.6, -1097833.0, -0.000048914622, 0.00000009817755, -0.00005764632, -1064496.6, -33739.066, 0.0, 10.0, 9.956052 
8.85e+2, 2.0477042e+2, -976332.7, -1019435.0, 0.0039560716, 0.000000096417054, 0.000068090085, -976332.7, -43082.813, 0.0, 10.0, 9.943291 
8.85e+2, 2.1471375e+2, -878045.7, -921409.9, 0.0028336025, 0.00000009805882, -0.00012681483, -878045.7, -42240.406, 0.0, 10.0, 9.942949 
8.85e+2, 2.2465037e+2, -789759.56, -843144.9, 0.0029175675, 0.00000009885509, 0.00012089045, -789759.56, -51333.3, 0.0, 10.0, 9.929908 
8.85e+2, 2.3458035e+2, -691326.06, -744966.44, 0.0013139086, 0.000000098692944, -0.00008881188, -691326.06, -50213.535, 0.0, 10.0, 9.929577 
8.85e+2, 2.4450338e+2, -603002.0, -667018.75, 0.0022263832, 0.00000009788763, 0.00007471201, -603002.0, -59135.133, 0.0, 10.0, 9.916136 
8.85e+2, 2.5441962e+2, -504249.34, -568343.3, 0.0016268861, 0.00000009631505, -0.00010673533, -504249.34, -57561.785, 0.0, 10.0, 9.916036 
8.85e+2, 2.643288e+2, -416013.94, -490987.88, 0.0037113633, 0.000000095909385, 0.00014059558, -416013.94, -66436.26, 0.0, 10.0, 9.901964 
8.85e+2, 2.742313e+2, -316728.72, -391374.75, 0.001888256, 0.00000009699047, -0.00020344055, -316728.72, -64195.707, 0.0, 10.0, 9.902385 
8.85e+2, 2.841256e+2, -230255.45, -318081.22, 0.0017020538, 0.00000009752553, 0.00022905068, -230255.45, -74686.48, 0.0, 10.0, 9.885439 
8.85e+2, 2.940121e+2, -130549.31, -217765.0, -0.0006687338, 0.00000009730639, -0.00025333813, -130549.31, -71867.914, 0.0, 10.0, 9.886217 
8.85e+2, 3.0392656e+2, -40805.3, -84750.16, 0.00039047078, 0.000000096763145, 0.00017313774, -40805.3, -40805.3, 0.0, 10.0, 9.942173 
8.85e+2, 3.138706e+2, -39727.29, -82511.21, 0.00094478665, 0.00000009574595, -0.00005514931, -39727.29, -39727.29, 0.0, 10.0, 9.943684 
8.95e+2, 1.2499334e+2, -1719945.9, -1724224.6, 0.0016378079, 0.0000001147755, 0.000017626639, -1719945.9, -4880.684, 0.0, 10.0, 9.994327 
8.95e+2, 1.349876e+2, -1622565.4, -1627434.9, 0.0010652129, 0.00000010319986, -0.00006840346, -1622565.4, -5443.886, 0.0, 10.0, 9.993545 
8.95e+2, 1.4497514e+2, -1534464.0, -1548146.3, 0.002765935, 0.00000009872052, 0.00007096144, -1534464.0, -15220.396, 0.0, 10.0, 9.981864 
8.95e+2, 1.5495703e+2, -1436736.4, -1450821.9, -0.00009976962, 0.00000010132195, -0.00005696499, -1436736.4, -15315.217, 0.0, 10.0, 9.981333 
8.95e+2, 1.6493228e+2, -1348685.4, -1371952.4, 0.00081254117, 0.000000104779225, 0.00004734763, -1348685.4, -25021.705, 0.0, 10.0, 9.969248 
8.95e+2, 1.7490156e+2, -1250727.4, -1274310.1, 0.0010149498, 0.0000001091107, -0.000073817115, -1250727.4, -24762.693, 0.0, 10.0, 9.968834 
8.95e+2, 1.8486421e+2, -1162646.4, -1195720.1, 0.005532212, 0.00000010670836, 0.00006616128, -1162646.4, -34315.754, 0.0, 10.0, 9.956395 
8.95e+2, 1.9482064e+2, -1064496.6, -1097833.0, 0.0026548812, 0.00000009725954, -0.000057643338, -1064496.6, -33739.074, 0.0, 10.0, 9.956052 
8.95e+2, 2.0477042e+2, -976332.7, -1019435.0, 0.0019804838, 0.00000009557876, 0.00006808826, -976332.7, -43082.816, 0.0, 10.0, 9.943291 
8.95e+2, 2.1471375e+2, -878045.7, -921409.9, 0.00076134765, 0.00000010231146, -0.00012681996, -878045.7, -42240.41, 0.0, 10.0, 9.942949 
8.95e+2, 2.2465037e+2, -789759.56, -843144.9, 0.0029459929, 0.000000104996396, 0.00012088663, -789759.56, -51333.305, 0.0, 10.0, 9.929908 
8.95e+2, 2.3458035e+2, -691326.06, -744966.44, 0.00141105, 0.000000103096305, -0.00008880922, -691326.06, -50213.54, 0.0, 10.0, 9.929577 
8.95e+2, 2.4450338e+2, -603002.0, -667018.75, 0.0033514772, 0.00000010086345, 0.0000747176, -603002.0, -59135.133, 0.0, 10.0, 9.916136 
8.95e+2, 2.5441962e+2, -504249.34, -568343.3, 0.0028013813, 0.00000009823797, -0.000106731066, -504249.34, -57561.79, 0.0, 10.0, 9.916036 
8.95e+2, 2.643288e+2, -416013.94, -490987.88, 0.003233708, 0.000000097724715, 0.0001405969, -416013.94, -66436.26, 0.0, 10.0, 9.901964 
8.95e+2, 2.742313e+2, -316728.72, -391374.78, 0.0012998425, 0.00000009990027, -0.00020344427, -316728.72, -64195.71, 0.0, 10.0, 9.902385 
8.95e+2, 2.841256e+2, -230255.45, -318081.25, 0.001961601, 0.00000010051704, 0.00022904515, -230255.45, -74686.484, 0.0, 10.0, 9.885439 
8.95e+2, 2.940121e+2, -130549.31, -217765.0, -0.0003327597, 0.00000009898789, -0.00025334102, -130549.31, -71867.92, 0.0, 10.0, 9.886217 
8.95e+2, 3.0392656e+2, -40805.3, -84750.16, 0.0005537869, 0.000000099052635, 0.00017313735, -40805.3, -40805.3, 0.0, 10.0, 9.942173 
8.95e+2, 3.138706e+2, -39727.29, -82511.21, 0.0010878622, 0.000000101503275, -0.000055147426, -39727.29, -39727.29, 0.0, 10.0, 9.943684 
9.05e+2, 1.2499334e+2, -1719945.9, -1724224.6, 0.003687063, 0.00000011526677, 0.000017625485, -1719945.9, -4880.648, 0.0, 10.0, 9.994327 
9.05e+2, 1.349876e+2, -1622565.4, -1627434.9, -0.0010644529, 0.000000106551504, -0.00006839913, -1622565.4, -5443.865, 0.0, 10.0, 9.993545 
9.05e+2, 1.4497514e+2, -1534464.0, -1548146.3, -0.00026807963, 0.000000103815054, 0.00007096703, -1534464.0, -15220.378, 0.0, 10.0, 9.981864 
9.05e+2, 1.5495703e+2, -1436736.4, -1450821.9, 0.0023730623, 0.000000107032555, -0.0000569679, -1436736.4, -15315.199, 0.0, 10.0, 9.981333 
9.05e+2, 1.6493228e+2, -1348685.4, -1371952.4, 0.0037916058, 0.00000010890558, 0.000047343674, -1348685.4, -25021.686, 0.0, 10.0, 9.969248 
9.05e+2, 1.7490156e+2, -1250727.4, -1274310.1, -0.001047385, 0.00000010940601, -0.00007381451, -1250727.4, -24762.66, 0.0, 10.0, 9.968834 
9.05e+2, 1.8486421e+2, -1162646.4, -1195720.1, 0.0036195952, 0.000000107185755, 0.000066165456, -1162646.4, -34315.72, 0.0, 10.0, 9.956395 
9.05e+2, 1.9482064e+2, -1064496.6, -1097833.0, 0.003734181, 0.00000010211837, -0.000057642806, -1064496.6, -33739.06, 0.0, 10.0, 9.956052 
9.05e+2, 2.0477042e+2, -976332.7, -1019435.0, 0.0033306626, 0.00000010134485, 0.000068086905, -976332.7, -43082.8, 0.0, 10.0, 9.943291 
9.05e+2, 2.1471375e+2, -878045.7, -921409.9, 0.0022604605, 0.00000010522186, -0.00012682127, -878045.7, -42240.387, 0.0, 10.0, 9.942949 
9.05e+2, 2.2465037e+2, -789759.56, -843144.9, 0.0048883758, 0.00000010659466, 0.00012088561, -789759.56, -51333.277, 0.0, 10.0, 9.929908 
9.05e+2, 2.3458035e+2, -691326.06, -744966.44, 0.0024587987, 0.00000010513107, -0.00008880963, -691326.06, -50213.51, 0.0, 10.0, 9.929577 
9.05e+2, 2.4450338e+2, -603002.0, -667018.75, 0.00344272, 0.00000010371734, 0.0000747181, -603002.0, -59135.11, 0.0, 10.0, 9.916136 
9.05e+2, 2.5441962e+2, -504249.3, -568343.3, 0.0013022422, 0.00000010236613, -0.00010672929, -504249.3, -57561.77, 0.0, 10.0, 9.916036 
9.05e+2, 2.643288e+2, -416013.9, -490987.88, 0.0013913505, 0.00000010189387, 0.00014059861, -416013.9, -66436.24, 0.0, 10.0, 9.901964 
9.05e+2, 2.742313e+2, -316728.7, -391374.75, 0.0011772395, 0.00000010253988, -0.00020344427, -316728.7, -64195.688, 0.0, 10.0, 9.902385 
9.05e+2, 2.841256e+2, -230255.42, -318081.22, 0.003393935, 0.00000010257186, 0.00022904365, -230255.42, -74686.46, 0.0, 10.0, 9.885439 
9.05e+2, 2.940121e+2, -130549.29, -217765.0, 0.0021981923, 0.00000010175817, -0.0002533437, -130549.29, -71867.9, 0.0, 10.0, 9.886217 
9.05e+2, 3.0392656e+2, -40805.277, -84750.15, 0.0019618936, 0.000000102184764, 0.00017313569, -40805.277, -40805.277, 0.0, 10.0, 9.942173 
9.05e+2, 3.138706e+2, -39727.266, -82511.2, -0.0015800735, 0.000000104460234, -0.00005514489, -39727.266, -39727.266, 0.0, 10.0, 9.943684 
9.15e+2, 1.2499334e+2, -1719945.9, -1724224.6, 0.0026239103, 0.00000010823949, 0.000017630417, -1719945.9, -4880.6597, 0.0, 10.0, 9.994327 
9.15e+2, 1.349876e+2, -1622565.4, -1627434.9, -0.0021278982, 0.00000011310463, -0.00006840265, -1622565.4, -5443.8765, 0.0, 10.0, 9.993545 
9.15e+2, 1.4497514e+2, -1534464.0, -1548146.3, -0.0012093824, 0.0000001153964, 0.000070964365, -1534464.0, -15220.372, 0.0, 10.0, 9.981864 
9.15e+2, 1.5495703e+2, -1436736.4, -1450821.9, 0.0014318945, 0.00000011503531, -0.000056965935, -1436736.4, -15315.194, 0.0, 10.0, 9.981333 
9.15e+2, 1.6493228e+2, -1348685.4, -1371952.4, 0.004816563, 0.00000011130894, 0.00004734684, -1348685.4, -25021.697, 0.0, 10.0, 9.969248 
9.15e+2, 1.7490156e+2, -1250727.4, -1274310.1, -0.000012078712, 0.000000104146146, -0.000073813644, -1250727.4, -24762.672, 0.0, 10.0, 9.968834 
9.15e+2, 1.8486421e+2, -1162646.4, -1195720.1, 0.00226011, 0.00000010451141, 0.00006616462, -1162646.4, -34315.72, 0.0, 10.0, 9.956395 
9.15e+2, 1.9482064e+2, -1064496.6, -1097833.0, 0.0023469408, 0.00000011275403, -0.000057644727, -1064496.6, -33739.06, 0.0, 10.0, 9.956052 
9.15e+2, 2.0477042e+2, -976332.7, -1019435.0, 0.0038881905, 0.000000113715295, 0.00006808604, -976332.7, -43082.805, 0.0, 10.0, 9.943291 
9.15e+2, 2.1471375e+2, -878045.7, -921409.9, 0.0028581328, 0.00000010679002, -0.00012681879, -878045.7, -42240.387, 0.0, 10.0, 9.942949 
9.15e+2, 2.2465037e+2, -789759.56, -843144.9, 0.004935393, 0.00000010364991, 0.000120887395, -789759.56, -51333.28, 0.0, 10.0, 9.929908 
9.15e+2, 2.3458035e+2, -691326.06, -744966.44, 0.0024877999, 0.000000104797245, -0.000088813125, -691326.06, -50213.516, 0.0, 10.0, 9.929576 
9.15e+2, 2.4450338e+2, -603002.0, -667018.75, 0.0029916586, 0.00000010644927, 0.0000747135, -603002.0, -59135.113, 0.0, 10.0, 9.916136 
9.15e+2, 2.5441962e+2, -504249.3, -568343.3, 0.0008281134, 0.000000108699524, -0.00010673001, -504249.3, -57561.773, 0.0, 10.0, 9.916036 
9.15e+2, 2.643288e+2, -416013.9, -490987.88, 0.0021699138, 0.00000010841684, 0.00014060077, -416013.9, -66436.24, 0.0, 10.0, 9.901964 
9.15e+2, 2.742313e+2, -316728.7, -391374.75, 0.0020397988, 0.00000010490928, -0.00020344056, -316728.7, -64195.688, 0.0, 10.0, 9.902385 
9.15e+2, 2.841256e+2, -230255.42, -318081.25, 0.0035821584, 0.00000010369, 0.00022904617, -230255.42, -74686.46, 0.0, 10.0, 9.885439 
9.15e+2, 2.940121e+2, -130549.29, -217765.0, 0.0023256785, 0.00000010561723, -0.0002533461, -130549.29, -71867.9, 0.0, 10.0, 9.886217 
9.15e+2, 3.0392656e+2, -40805.28, -84750.164, 0.0020534762, 0.00000010615952, 0.00017313274, -40805.28, -40805.28, 0.0, 10.0, 9.942173 
9.15e+2, 3.138706e+2, -39727.273, -82511.22, -0.0014926703, 0.00000010461684, -0.000055141703, -39727.273, -39727.273, 0.0, 10.0, 9.943684 
9.25e+2, 1.2499335e+2, -1719945.9, -1724224.6, 0.0014931437, 0.0000001093476, 0.000017634744, -1719945.9, -4880.6294, 0.0, 10.0, 9.994327 
9.25e+2, 1.349876e+2, -1622565.4, -1627434.9, 0.003058977, 0.00000011800548, -0.00006840934, -1622565.4, -5443.8545, 0.0, 10.0, 9.993545 
9.25e+2, 1.4497514e+2, -1534464.0, -1548146.3, 0.00484622, 0.00000012103358, 0.00007095956, -1534464.0, -15220.352, 0.0, 10.0, 9.981864 
9.25e+2, 1.5495703e+2, -1436736.3, -1450821.9, -0.0008732454, 0.00000011833075, -0.000056961486, -1436736.3, -15315.166, 0.0, 10.0, 9.981333 
9.25e+2, 1.6493228e+2, -1348685.4, -1371952.4, 0.002114359, 0.00000011355684, 0.000047352496, -1348685.4, -25021.668, 0.0, 10.0, 9.969248 
9.25e+2, 1.7490156e+2, -1250727.4, -1274310.1, 0.0032463975, 0.00000010666785, -0.00007381498, -1250727.4, -24762.646, 0.0, 10.0, 9.968834 
9.25e+2, 1.8486421e+2, -1162646.4, -1195720.1, 0.0048946226, 0.00000010767514, 0.00006616124, -1162646.4, -34315.695, 0.0, 10.0, 9.956395 
9.25e+2, 1.9482064e+2, -1064496.6, -1097833.0, 0.0018540527, 0.00000011694514, -0.000057644957, -1064496.6, -33739.035, 0.0, 10.0, 9.956052 
9.25e+2, 2.0477042e+2, -976332.7, -1019435.0, 0.003473417, 0.00000011790192, 0.00006808772, -976332.7, -43082.78, 0.0, 10.0, 9.943291 
9.25e+2, 2.1471375e+2, -878045.6, -921409.9, 0.0012700222, 0.00000010985458, -0.00012681652, -878045.6, -42240.363, 0.0, 10.0, 9.942949 
9.25e+2, 2.2465037e+2, -789759.5, -843144.9, 0.0026743081, 0.00000010626493, 0.00012088922, -789759.5, -51333.258, 0.0, 10.0, 9.929908 
9.25e+2, 2.3458035e+2, -691326.0, -744966.44, 0.0021597783, 0.00000010772439, -0.0000888129, -691326.0, -50213.492, 0.0, 10.0, 9.929576 
9.25e+2, 2.4450338e+2, -603001.94, -667018.75, 0.0039015156, 0.000000109513934, 0.00007471264, -603001.94, -59135.09, 0.0, 10.0, 9.916136 
9.25e+2, 2.5441962e+2, -504249.3, -568343.3, 0.0023313616, 0.000000111692295, -0.00010673136, -504249.3, -57561.746, 0.0, 10.0, 9.916036 
9.25e+2, 2.643288e+2, -416013.88, -490987.88, 0.0035217837, 0.000000111510246, 0.00014060004, -416013.88, -66436.22, 0.0, 10.0, 9.901964 
9.25e+2, 2.742313e+2, -316728.66, -391374.75, 0.00064442493, 0.0000001083234, -0.00020343927, -316728.66, -64195.664, 0.0, 10.0, 9.902385 
9.25e+2, 2.841256e+2, -230255.4, -318081.22, 0.0003153444, 0.00000010724793, 0.00022904846, -230255.4, -74686.44, 0.0, 10.0, 9.885439 
9.25e+2, 2.940121e+2, -130549.266, -217765.0, -0.00077012135, 0.00000010907588, -0.00025334427, -130549.266, -71867.875, 0.0, 10.0, 9.886217 
9.25e+2, 3.0392656e+2, -40805.258, -84750.16, 0.00069998513, 0.00000010927817, 0.00017313323, -40805.258, -40805.258, 0.0, 10.0, 9.942173 
9.25e+2, 3.138706e+2, -39727.242, -82511.21, 0.00032505367, 0.00000010704058, -0.000055143955, -39727.242, -39727.242, 0.0, 10.0, 9.943684 
9.35e+2, 1.2499335e+2, -1719945.9, -1724224.6, -0.0015116225, 0.00000011859107, 0.000017638471, -1719945.9, -4880.6265, 0.0, 10.0, 9.994327 
9.35e+2, 1.349876e+2, -1622565.4, -1627434.9, 0.00005346363, 0.00000012125406, -0.0000684192, -1622565.4, -5443.8516, 0.0, 10.0, 9.993545 
9.35e+2, 1.4497514e+2, -1534464.0, -1548146.3, 0.0054070903, 0.00000012072661, 0.00007095263, -1534464.0, -15220.365, 0.0, 10.0, 9.981864 
9.35e+2, 1.5495703e+2, -1436736.4, -1450821.9, -0.0003067618, 0.000000116918905, -0.00005695455, -1436736.4, -15315.18, 0.0, 10.0, 9.981333 
9.35e+2, 1.6493228e+2, -1348685.4, -1371952.4, 0.0025090526, 0.000000115649264, 0.000047360652, -1348685.4, -25021.666, 0.0, 10.0, 9.969248 
9.35e+2, 1.7490156e+2, -1250727.4, -1274310.1, 0.003640146, 0.000000116971094, -0.00007381853, -1250727.4, -24762.645, 0.0, 10.0, 9.968834 
9.35e+2, 1.8486421e+2, -1162646.4, -1195720.1, 0.0033479352, 0.000000116676944, 0.00006615532, -1162646.4, -34315.7, 0.0, 10.0, 9.956395 
9.35e+2, 1.9482064e+2, -1064496.6, -1097833.0, 0.0002848613, 0.00000011469173, -0.000057643494, -1064496.6, -33739.04, 0.0, 10.0, 9.956052 
9.35e+2, 2.0477042e+2, -976332.7, -1019435.0, 0.0045171133, 0.00000011390476, 0.00006809197, -976332.7, -43082.785, 0.0, 10.0, 9.943291 
9.35e+2, 2.1471375e+2, -878045.6, -921409.9, 0.0023676788, 0.000000114415556, -0.00012681447, -878045.6, -42240.367, 0.0, 10.0, 9.942949 
9.35e+2, 2.2465037e+2, -789759.5, -843144.9, 0.0024459397, 0.00000011443971, 0.000120891076, -789759.5, -51333.258, 0.0, 10.0, 9.929908 
9.35e+2, 2.3458035e+2, -691326.0, -744966.44, 0.001888014, 0.0000001139125, -0.00008880895, -691326.0, -50213.492, 0.0, 10.0, 9.929576 
9.35e+2, 2.4450338e+2, -603001.94, -667018.75, 0.0038959605, 0.00000011291131, 0.00007471551, -603001.94, -59135.094, 0.0, 10.0, 9.916136 
9.35e+2, 2.5441962e+2, -504249.3, -568343.3, 0.0023386022, 0.000000111344455, -0.00010673333, -504249.3, -57561.75, 0.0, 10.0, 9.916036 
9.35e+2, 2.643288e+2, -416013.9, -490987.88, 0.0037544884, 0.0000001111741, 0.00014059644, -416013.9, -66436.22, 0.0, 10.0, 9.901964 
9.35e+2, 2.742313e+2, -316728.66, -391374.75, 0.0008922645, 0.00000011278224, -0.00020344039, -316728.66, -64195.668, 0.0, 10.0, 9.902385 
9.35e+2, 2.841256e+2, -230255.4, -318081.25, 0.0005895926, 0.00000011324564, 0.0002290505, -230255.4, -74686.44, 0.0, 10.0, 9.885439 
9.35e+2, 2.940121e+2, -130549.266, -217765.0, -0.0004934733, 0.00000011213411, -0.0002533381, -130549.266, -71867.875, 0.0, 10.0, 9.886217 
9.35e+2, 3.0392656e+2, -40805.26, -84750.164, 0.0016514859, 0.000000111540736, 0.00017313716, -40805.26, -40805.26, 0.0, 10.0, 9.942173 
9.35e+2, 3.138706e+2, -39727.246, -82511.21, 0.0013558188, 0.00000011173145, -0.000055151642, -39727.246, -39727.246, 0.0, 10.0, 9.943684 
9.45e+2, 1.2499335e+2, -1719945.9, -1724224.6, 0.0016267956, 0.00000012750994, 0.000017636785, -1719945.9, -4880.615, 0.0, 10.0, 9.994327 
9.45e+2, 1.349876e+2, -1622565.4, -1627434.9, -0.001981569, 0.00000012306111, -0.000068417015, -1622565.4, -5443.817, 0.0, 10.0, 9.993545 
9.45e+2, 1.4497514e+2, -1534464.0, -1548146.3, 0.003164112, 0.00000012000491, 0.000070956914, -1534464.0, -15220.326, 0.0, 10.0, 9.981864 
9.45e+2, 1.5495703e+2, -1436736.3, -1450821.9, 0.002176147, 0.0000001182767, -0.000056955698, -1436736.3, -15315.148, 0.0, 10.0, 9.981333 
9.45e+2, 1.6493228e+2, -1348685.4, -1371952.4, 0.0047696596, 0.00000011955538, 0.00004735861, -1348685.4, -25021.639, 0.0, 10.0, 9.969248 
9.45e+2, 1.7490156e+2, -1250727.3, -1274310.1, 0.0018468548, 0.00000012390444, -0.00007381683, -1250727.3, -24762.625, 0.0, 10.0, 9.968834 
9.45e+2, 1.8486421e+2, -1162646.4, -1195720.1, 0.0016412103, 0.00000012257827, 0.00006615799, -1162646.4, -34315.684, 0.0, 10.0, 9.956395 
9.45e+2, 1.9482064e+2, -1064496.6, -1097833.0, 0.00048656965, 0.00000011531339, -0.000057642756, -1064496.6, -33739.004, 0.0, 10.0, 9.956052 
9.45e+2, 2.0477042e+2, -976332.6, -1019435.0, 0.004926694, 0.00000011383953, 0.000068091686, -976332.6, -43082.75, 0.0, 10.0, 9.943291 
9.45e+2, 2.1471375e+2, -878045.6, -921409.9, 0.0031865903, 0.000000118637885, -0.00012681479, -878045.6, -42240.344, 0.0, 10.0, 9.942949 
9.45e+2, 2.2465037e+2, -789759.5, -843144.9, 0.0034649596, 0.00000012020463, 0.00012089115, -789759.5, -51333.24, 0.0, 10.0, 9.929908 
9.45e+2, 2.3458035e+2, -691326.0, -744966.44, 0.0011797075, 0.00000011811103, -0.00008880802, -691326.0, -50213.47, 0.0, 10.0, 9.929576 
9.45e+2, 2.4450338e+2, -603001.94, -667018.75, 0.0023447014, 0.000000115960255, 0.000074716794, -603001.94, -59135.063, 0.0, 10.0, 9.916136 
9.45e+2, 2.5441962e+2, -504249.28, -568343.3, 0.00090695353, 0.00000011374497, -0.00010673233, -504249.28, -57561.723, 0.0, 10.0, 9.916036 
9.45e+2, 2.643288e+2, -416013.88, -490987.88, 0.0028670488, 0.000000113724035, 0.00014059662, -416013.88, -66436.195, 0.0, 10.0, 9.901964 
9.45e+2, 2.742313e+2, -316728.66, -391374.75, 0.0020465008, 0.000000116495706, -0.00020344171, -316728.66, -64195.645, 0.0, 10.0, 9.902385 
9.45e+2, 2.841256e+2, -230255.38, -318081.22, 0.0030005374, 0.00000011724699, 0.00022904889, -230255.38, -74686.414, 0.0, 10.0, 9.885439 
9.45e+2, 2.940121e+2, -130549.24, -217765.0, 0.0005572298, 0.00000011522024, -0.0002533384, -130549.24, -71867.85, 0.0, 10.0, 9.886217 
9.45e+2, 3.0392656e+2, -40805.23, -84750.15, 0.0012687878, 0.00000011450807, 0.00017313771, -40805.23, -40805.23, 0.0, 10.0, 9.942173 
9.45e+2, 3.138706e+2, -39727.223, -82511.2, -0.00017646323, 0.00000011577344, -0.000055151035, -39727.223, -39727.223, 0.0, 10.0, 9.943684 
9.55e+2, 1.2499335e+2, -1719945.9, -1724224.6, 0.004170582, 0.00000013610422, 0.000017629689, -1719945.9, -4880.6245, 0.0, 10.0, 9.994327 
9.55e+2, 1.349876e+2, -1622565.4, -1627434.9, 0.0005628719, 0.00000012342663, -0.00006840278, -1622565.4, -5443.8257, 0.0, 10.0, 9.993545 
9.55e+2, 1.4497514e+2, -1534464.0, -1548146.3, 0.0022259206, 0.00000011886846, 0.000070972405, -1534464.0, -15220.33, 0.0, 10.0, 9.981864 
9.55e+2, 1.5495703e+2, -1436736.3, -1450821.9, 0.0012323911, 0.00000012240413, -0.000056964927, -1436736.3, -15315.151, 0.0, 10.0, 9.981333 
9.55e+2, 1.6493228e+2, -1348685.4, -1371952.4, 0.0027615633, 0.00000012527518, 0.000047346377, -1348685.4, -25021.645, 0.0, 10.0, 9.969248 
9.55e+2, 1.7490156e+2, -1250727.4, -1274310.1, -0.00016690142, 0.00000012746791, -0.00007380988, -1250727.4, -24762.633, 0.0, 10.0, 9.968834 
9.55e+2, 1.8486421e+2, -1162646.4, -1195720.1, 0.0040477985, 0.00000012537916, 0.00006616925, -1162646.4, -34315.684, 0.0, 10.0, 9.956395 
9.55e+2, 1.9482064e+2, -1064496.6, -1097833.0, 0.0029443193, 0.0000001188101, -0.000057642745, -1064496.6, -33739.008, 0.0, 10.0, 9.956052 
9.55e+2, 2.0477042e+2, -976332.6, -1019435.0, 0.0028010053, 0.00000011770622, 0.000068086876, -976332.6, -43082.754, 0.0, 10.0, 9.943291 
9.55e+2, 2.1471375e+2, -878045.6, -921409.9, 0.00096620875, 0.00000012252158, -0.00012681748, -878045.6, -42240.348, 0.0, 10.0, 9.942949 
9.55e+2, 2.2465037e+2, -789759.5, -843144.9, 0.00415111, 0.00000012355972, 0.00012088943, -789759.5, -51333.242, 0.0, 10.0, 9.929908 
9.55e+2, 2.3458035e+2, -691326.0, -744966.44, 0.0019609404, 0.00000012032, -0.000088810084, -691326.0, -50213.473, 0.0, 10.0, 9.929576 
9.55e+2, 2.4450338e+2, -603001.94, -667018.75, 0.002987588, 0.00000011866076, 0.000074716474, -603001.94, -59135.066, 0.0, 10.0, 9.916136 
9.55e+2, 2.5441962e+2, -504249.28, -568343.3, 0.0015431946, 0.00000011889382, -0.00010672836, -504249.28, -57561.723, 0.0, 10.0, 9.916036 
9.55e+2, 2.643288e+2, -416013.88, -490987.88, 0.0024210918, 0.00000011916003, 0.00014060058, -416013.88, -66436.195, 0.0, 10.0, 9.901964 
9.55e+2, 2.742313e+2, -316728.66, -391374.75, 0.0015279973, 0.00000011946382, -0.00020344321, -316728.66, -64195.645, 0.0, 10.0, 9.902385 
9.55e+2, 2.841256e+2, -230255.39, -318081.25, 0.0037533168, 0.000000119252, 0.00022904361, -230255.39, -74686.42, 0.0, 10.0, 9.885438 
9.55e+2, 2.940121e+2, -130549.25, -217765.0, 0.001424588, 0.00000011833428, -0.0002533451, -130549.25, -71867.86, 0.0, 10.0, 9.886217 
9.55e+2, 3.0392656e+2, -40805.234, -84750.16, 0.0012108377, 0.000000118180175, 0.00017313489, -40805.234, -40805.234, 0.0, 10.0, 9.942173 
9.55e+2, 3.138706e+2, -39727.227, -82511.21, -0.00034300346, 0.000000119166536, -0.000055142133, -39727.227, -39727.227, 0.0, 10.0, 9.943684 
9.65e+2, 1.2499335e+2, -1719945.9, -1724224.6, 0.0013969307, 0.0000001375074, 0.000017632787, -1719945.9, -4880.584, 0.0, 10.0, 9.994327 
9.65e+2, 1.349876e+2, -1622565.4, -1627434.9, -0.00084899465, 0.00000012769333, -0.00006839964, -1622565.4, -5443.801, 0.0, 10.0, 9.993545 
9.65e+2, 1.4497514e+2, -1534464.0, -1548146.3, 0.0003485831, 0.00000012453496, 0.000070976486, -1534464.0, -15220.306, 0.0, 10.0, 9.981864 
9.65e+2, 1.5495703e+2, -1436736.3, -1450821.9, 0.00038405115, 0.00000012799522, -0.000056964753, -1436736.3, -15315.127, 0.0, 10.0, 9.981333 
9.65e+2, 1.6493228e+2, -1348685.3, -1371952.4, 0.0027769455, 0.00000012932374, 0.000047345377, -1348685.3, -25021.62, 0.0, 10.0, 9.969248 
9.65e+2, 1.7490156e+2, -1250727.3, -1274310.1, 0.00008453993, 0.00000012847575, -0.00007380928, -1250727.3, -24762.596, 0.0, 10.0, 9.968834 
9.65e+2, 1.8486421e+2, -1162646.4, -1195720.1, 0.0051483097, 0.00000012706978, 0.0000661705, -1162646.4, -34315.65, 0.0, 10.0, 9.956395 
9.65e+2, 1.9482064e+2, -1064496.6, -1097833.0, 0.0036086773, 0.00000012507984, -0.00005764186, -1064496.6, -33738.99, 0.0, 10.0, 9.956052 
9.65e+2, 2.0477042e+2, -976332.6, -1019435.0, 0.0026671682, 0.00000012433523, 0.000068087225, -976332.6, -43082.734, 0.0, 10.0, 9.943291 
9.65e+2, 2.1471375e+2, -878045.56, -921409.9, 0.001039462, 0.00000012493939, -0.00012681783, -878045.56, -42240.313, 0.0, 10.0, 9.942949 
9.65e+2, 2.2465037e+2, -789759.5, -843144.9, 0.0049012983, 0.00000012465959, 0.000120888944, -789759.5, -51333.207, 0.0, 10.0, 9.929908 
9.65e+2, 2.3458035e+2, -691326.0, -744966.44, 0.0030081908, 0.00000012337861, -0.000088810055, -691326.0, -50213.44, 0.0, 10.0, 9.929576 
9.65e+2, 2.4450338e+2, -603001.94, -667018.75, 0.0040301937, 0.00000012304575, 0.00007471665, -603001.94, -59135.043, 0.0, 10.0, 9.916136 
9.65e+2, 2.5441962e+2, -504249.25, -568343.3, 0.0020578837, 0.00000012384639, -0.000106728505, -504249.25, -57561.7, 0.0, 10.0, 9.916036 
9.65e+2, 2.643288e+2, -416013.84, -490987.88, 0.0022849946, 0.00000012361103, 0.00014060065, -416013.84, -66436.17, 0.0, 10.0, 9.901964 
9.65e+2, 2.742313e+2, -316728.63, -391374.75, 0.0002180747, 0.00000012205446, -0.00020344227, -316728.63, -64195.613, 0.0, 10.0, 9.902385 
9.65e+2, 2.841256e+2, -230255.36, -318081.22, 0.002198364, 0.00000012140866, 0.00022904448, -230255.36, -74686.39, 0.0, 10.0, 9.885438 
9.65e+2, 2.940121e+2, -130549.22, -217765.0, 0.0009638687, 0.00000012201531, -0.00025334558, -130549.22, -71867.83, 0.0, 10.0, 9.886217 
9.65e+2, 3.0392656e+2, -40805.207, -84750.16, 0.0009211787, 0.00000012228953, 0.00017313426, -40805.207, -40805.207, 0.0, 10.0, 9.942173 
9.65e+2, 3.138706e+2, -39727.195, -82511.2, -0.0020954164, 0.00000012205882, -0.000055141052, -39727.195, -39727.195, 0.0, 10.0, 9.943684 
9.75e+2, 1.2499335e+2, -1719945.9, -1724224.6, 0.0004804902, 0.00000013171952, 0.000017646078, -1719945.9, -4880.5903, 0.0, 10.0, 9.994327 
9.75e+2, 1.349876e+2, -1622565.4, -1627434.9, -0.001765735, 0.00000013586114, -0.0000684076, -1622565.4, -5443.806, 0.0, 10.0, 9.993545 
9.75e+2, 1.4497514e+2, -1534464.0, -1548146.3, -0.00040396873, 0.00000013700436, 0.00007096916, -1534464.0, -15220.307, 0.0, 10.0, 9.981864 
9.75e+2, 1.5495703e+2, -1436736.3, -1450821.9, -0.0003683067, 0.00000013504997, -0.00005695517, -1436736.3, -15315.127, 0.0, 10.0, 9.981333 
9.75e+2, 1.6493228e+2, -1348685.3, -1371952.4, 0.0035389175, 0.00000013170104, 0.000047355603, -1348685.3, -25021.627, 0.0, 10.0, 9.969248 
9.75e+2, 1.7490156e+2, -1250727.3, -1274310.1, 0.00085446716, 0.00000012692797, -0.00007381502, -1250727.3, -24762.602, 0.0, 10.0, 9.968834 
9.75e+2, 1.8486421e+2, -1162646.4, -1195720.1, 0.003387894, 0.00000012765015, 0.00006616173, -1162646.4, -34315.652, 0.0, 10.0, 9.956395 
9.75e+2, 1.9482064e+2, -1064496.6, -1097833.0, 0.0018189288, 0.00000013412257, -0.00005764011, -1064496.6, -33738.992, 0.0, 10.0, 9.956052 
9.75e+2, 2.0477042e+2, -976332.6, -1019435.0, 0.004116745, 0.00000013372654, 0.00006809273, -976332.6, -43082.74, 0.0, 10.0, 9.943291 
9.75e+2, 2.1471375e+2, -878045.56, -921409.9, 0.0025559228, 0.0000001258913, -0.00012681587, -878045.56, -42240.316, 0.0, 10.0, 9.942949 
9.75e+2, 2.2465037e+2, -789759.5, -843144.9, 0.0043619093, 0.00000012350426, 0.00012088968, -789759.5, -51333.21, 0.0, 10.0, 9.929908 
9.75e+2, 2.3458035e+2, -691326.0, -744966.44, 0.0024015382, 0.00000012728687, -0.00008880791, -691326.0, -50213.445, 0.0, 10.0, 9.929576 
9.75e+2, 2.4450338e+2, -603001.94, -667018.75, 0.0037230097, 0.00000012911521, 0.00007471732, -603001.94, -59135.047, 0.0, 10.0, 9.916136 
9.75e+2, 2.5441962e+2, -504249.25, -568343.3, 0.0017650923, 0.00000012860266, -0.00010673276, -504249.25, -57561.707, 0.0, 10.0, 9.916036 
9.75e+2, 2.643288e+2, -416013.84, -490987.88, 0.0034121023, 0.00000012707707, 0.00014059682, -416013.84, -66436.17, 0.0, 10.0, 9.901964 
9.75e+2, 2.742313e+2, -316728.63, -391374.75, 0.0014403965, 0.00000012426763, -0.00020343886, -316728.63, -64195.62, 0.0, 10.0, 9.902385 
9.75e+2, 2.841256e+2, -230255.36, -318081.25, 0.002121463, 0.00000012371697, 0.00022905153, -230255.36, -74686.39, 0.0, 10.0, 9.885438 
9.75e+2, 2.940121e+2, -130549.22, -217765.0, 0.0007699278, 0.00000012626333, -0.00025333988, -130549.22, -71867.83, 0.0, 10.0, 9.886217 
9.75e+2, 3.0392656e+2, -40805.215, -84750.164, 0.0018608858, 0.00000012683617, 0.00017313582, -40805.215, -40805.215, 0.0, 10.0, 9.942173 
9.75e+2, 3.138706e+2, -39727.2, -82511.22, -0.0010225767, 0.0000001244503, -0.00005514779, -39727.2, -39727.2, 0.0, 10.0, 9.943684 
9.85e+2, 1.2499335e+2, -1719945.8, -1724224.6, 0.0030694308, 0.00000013305846, 0.000017647277, -1719945.8, -4880.553, 0.0, 10.0, 9.994327 
9.85e+2, 1.349876e+2, -1622565.4, -1627434.9, 0.0022066678, 0.00000014145124, -0.00006841203, -1622565.4, -5443.7793, 0.0, 10.0, 9.993545 
9.85e+2, 1.4497514e+2, -1534463.9, -1548146.3, 0.0041265795, 0.00000014356561, 0.00007096711, -1534463.9, -15220.282, 0.0, 10.0, 9.981864 
9.85e+2, 1.5495703e+2, -1436736.3, -1450821.9, -0.00018267892, 0.0000001392793, -0.00005695251, -1436736.3, -15315.097, 0.0, 10.0, 9.981333 
9.85e+2, 1.6493228e+2, -1348685.3, -1371952.4, 0.002970316, 0.00000013501783, 0.00004735877, -1348685.3, -25021.594, 0.0, 10.0, 9.969248 
9.85e+2, 1.7490156e+2, -1250727.3, -1274310.1, 0.0026237753, 0.00000013078146, -0.00007381563, -1250727.3, -24762.572, 0.0, 10.0, 9.968834 
9.85e+2, 1.8486421e+2, -1162646.3, -1195720.1, 0.0041484493, 0.00000013156325, 0.00006616022, -1162646.3, -34315.625, 0.0, 10.0, 9.956395 
9.85e+2, 1.9482064e+2, -1064496.5, -1097832.9, 0.00086258404, 0.00000013759605, -0.00005763953, -1064496.5, -33738.957, 0.0, 10.0, 9.956052 
9.85e+2, 2.0477042e+2, -976332.56, -1019435.0, 0.003955727, 0.00000013728095, 0.00006809444, -976332.56, -43082.703, 0.0, 10.0, 9.943291 
9.85e+2, 2.1471375e+2, -878045.56, -921409.9, 0.0020200463, 0.00000013009046, -0.0001268141, -878045.56, -42240.29, 0.0, 10.0, 9.942949 
9.85e+2, 2.2465037e+2, -789759.44, -843144.9, 0.002477677, 0.0000001278759, 0.00012089098, -789759.44, -51333.184, 0.0, 10.0, 9.929908 
9.85e+2, 2.3458035e+2, -691325.94, -744966.44, 0.00062225334, 0.00000013129622, -0.00008880767, -691325.94, -50213.418, 0.0, 10.0, 9.929576 
9.85e+2, 2.4450338e+2, -603001.9, -667018.75, 0.002764513, 0.00000013264386, 0.0000747173, -603001.9, -59135.016, 0.0, 10.0, 9.916136 
9.85e+2, 2.5441962e+2, -504249.22, -568343.3, 0.0011595535, 0.00000013150971, -0.00010673207, -504249.22, -57561.67, 0.0, 10.0, 9.916036 
9.85e+2, 2.643288e+2, -416013.8, -490987.88, 0.0031102349, 0.00000013016474, 0.00014059771, -416013.8, -66436.14, 0.0, 10.0, 9.901964 
9.85e+2, 2.742313e+2, -316728.6, -391374.75, 0.0007987277, 0.00000012855725, -0.00020343844, -316728.6, -64195.59, 0.0, 10.0, 9.902385 
9.85e+2, 2.841256e+2, -230255.33, -318081.22, 0.00083475583, 0.00000012825961, 0.00022905198, -230255.33, -74686.37, 0.0, 10.0, 9.885438 
9.85e+2, 2.940121e+2, -130549.19, -217765.0, -0.0010154494, 0.00000012975562, -0.00025333875, -130549.19, -71867.8, 0.0, 10.0, 9.886217 
9.85e+2, 3.0392656e+2, -40805.184, -84750.16, 0.0013438682, 0.00000013006762, 0.00017313623, -40805.184, -40805.184, 0.0, 10.0, 9.942173 
9.85e+2, 3.138706e+2, -39727.17, -82511.21, 0.0015275832, 0.00000012860515, -0.000055150194, -39727.17, -39727.17, 0.0, 10.0, 9.943684 
9.95e+2, 1.2499335e+2, -1719945.8, -1724224.6, -0.000047599715, 0.00000014152423, 0.000017636383, -1719945.8, -4880.556, 0.0, 10.0, 9.994327 
9.95e+2, 1.349876e+2, -1622565.4, -1627434.9, -0.00091117155, 0.00000014446363, -0.00006841295, -1622565.4, -5443.7817, 0.0, 10.0, 9.993545 
9.95e+2, 1.4497514e+2, -1534463.9, -1548146.3, 0.004876379, 0.00000014421872, 0.00007097032, -1534463.9, -15220.293, 0.0, 10.0, 9.981864 
9.95e+2, 1.5495703e+2, -1436736.3, -1450821.9, 0.0005731999, 0.00000014068318, -0.000056956775, -1436736.3, -15315.106, 0.0, 10.0, 9.981333 
9.95e+2, 1.6493228e+2, -1348685.3, -1371952.4, 0.0027950555, 0.00000013927409, 0.000047354883, -1348685.3, -25021.594, 0.0, 10.0, 9.969248 
9.95e+2, 1.7490156e+2, -1250727.3, -1274310.1, 0.002443551, 0.00000014003618, -0.00007381111, -1250727.3, -24762.574, 0.0, 10.0, 9.968834 
9.95e+2, 1.8486421e+2, -1162646.3, -1195720.1, 0.0037405256, 0.00000013880907, 0.00006616594, -1162646.3, -34315.633, 0.0, 10.0, 9.956395 
9.95e+2, 1.9482064e+2, -1064496.5, -1097833.0, 0.0004519889, 0.00000013550027, -0.00005764011, -1064496.5, -33738.965, 0.0, 10.0, 9.956052 
9.95e+2, 2.0477042e+2, -976332.56, -1019435.0, 0.0040663662, 0.0000001349985, 0.00006809234, -976332.56, -43082.71, 0.0, 10.0, 9.943291 
9.95e+2, 2.1471375e+2, -878045.56, -921409.9, 0.0021414359, 0.00000013753684, -0.00012681255, -878045.56, -42240.293, 0.0, 10.0, 9.942949 
9.95e+2, 2.2465037e+2, -789759.44, -843144.9, 0.0022702117, 0.00000013777446, 0.00012089284, -789759.44, -51333.188, 0.0, 10.0, 9.929908 
9.95e+2, 2.3458035e+2, -691325.94, -744966.44, 0.0004040149, 0.00000013540668, -0.000088809335, -691325.94, -50213.42, 0.0, 10.0, 9.929576 
9.95e+2, 2.4450338e+2, -603001.9, -667018.75, 0.0034427561, 0.00000013363173, 0.000074716605, -603001.9, -59135.02, 0.0, 10.0, 9.916136 
9.95e+2, 2.5441962e+2, -504249.22, -568343.3, 0.0018808817, 0.00000013256752, -0.00010672643, -504249.22, -57561.676, 0.0, 10.0, 9.916036 
9.95e+2, 2.643288e+2, -416013.8, -490987.88, 0.00297505, 0.00000013287406, 0.00014060331, -416013.8, -66436.15, 0.0, 10.0, 9.901964 
9.95e+2, 2.742313e+2, -316728.6, -391374.75, 0.0006061352, 0.00000013492331, -0.00020344097, -316728.6, -64195.598, 0.0, 10.0, 9.902385 
9.95e+2, 2.841256e+2, -230255.33, -318081.25, 0.0014805445, 0.00000013503657, 0.00022904587, -230255.33, -74686.37, 0.0, 10.0, 9.885438 
9.95e+2, 2.940121e+2, -130549.195, -217765.0, -0.00029409307, 0.00000013249218, -0.00025334215, -130549.195, -71867.805, 0.0, 10.0, 9.886217 
9.95e+2, 3.0392656e+2, -40805.184, -84750.16, 0.0015472267, 0.00000013198391, 0.0001731355, -40805.184, -40805.184, 0.0, 10.0, 9.942173 
9.95e+2, 3.138706e+2, -39727.17, -82511.21, 0.0016701726, 0.00000013452338, -0.00005514827, -39727.17, -39727.17, 0.0, 10.0, 9.943684 
1.005e+3, 1.2499335e+2, -1719945.8, -1724224.6, 0.0022097114, 0.00000015048303, 0.000017635784, -1719945.8, -4880.537, 0.0, 10.0, 9.994327 
1.005e+3, 1.349876e+2, -1622565.3, -1627434.9, -0.0017298176, 0.00000014649254, -0.00006841191, -1622565.3, -5443.741, 0.0, 10.0, 9.993545 
1.005e+3, 1.4497514e+2, -1534463.9, -1548146.3, 0.0040775645, 0.00000014431089, 0.000070973125, -1534463.9, -15220.247, 0.0, 10.0, 9.981864 
1.005e+3, 1.5495703e+2, -1436736.3, -1450821.9, 0.002695325, 0.00000014386003, -0.000056957757, -1436736.3, -15315.071, 0.0, 10.0, 9.981333 
1.005e+3, 1.6493228e+2, -1348685.3, -1371952.4, 0.004626462, 0.0000001444042, 0.000047353842, -1348685.3, -25021.564, 0.0, 10.0, 9.969248 
1.005e+3, 1.7490156e+2, -1250727.3, -1274310.1, 0.00065873656, 0.00000014596444, -0.00007380842, -1250727.3, -24762.545, 0.0, 10.0, 9.968834 
1.005e+3, 1.8486421e+2, -1162646.3, -1195720.1, 0.001998443, 0.00000014381911, 0.00006616906, -1162646.3, -34315.6, 0.0, 10.0, 9.956395 
1.005e+3, 1.9482064e+2, -1064496.5, -1097832.9, 0.0012489634, 0.00000013779602, -0.000057640034, -1064496.5, -33738.93, 0.0, 10.0, 9.956052 
1.005e+3, 2.0477042e+2, -976332.56, -1019435.0, 0.004999642, 0.00000013732608, 0.00006809128, -976332.56, -43082.676, 0.0, 10.0, 9.943291 
1.005e+3, 2.1471375e+2, -878045.56, -921409.9, 0.0025364906, 0.00000014287053, -0.00012681267, -878045.56, -42240.266, 0.0, 10.0, 9.942949 
1.005e+3, 2.2465037e+2, -789759.44, -843144.9, 0.0037348387, 0.00000014359567, 0.000120893135, -789759.44, -51333.16, 0.0, 10.0, 9.929908 
1.005e+3, 2.3458035e+2, -691325.94, -744966.44, 0.0021553978, 0.00000013886344, -0.00008880919, -691325.94, -50213.387, 0.0, 10.0, 9.929576 
1.005e+3, 2.4450338e+2, -603001.9, -667018.75, 0.004174817, 0.000000136342, 0.00007471681, -603001.9, -59134.984, 0.0, 10.0, 9.916136 
1.005e+3, 2.5441962e+2, -504249.2, -568343.3, 0.0009817244, 0.00000013646688, -0.00010672592, -504249.2, -57561.645, 0.0, 10.0, 9.916036 
1.005e+3, 2.643288e+2, -416013.78, -490987.88, 0.0019481354, 0.0000001373394, 0.00014060354, -416013.78, -66436.12, 0.0, 10.0, 9.901964 
1.005e+3, 2.742313e+2, -316728.56, -391374.75, 0.0014870982, 0.00000013915702, -0.00020344176, -316728.56, -64195.566, 0.0, 10.0, 9.902385 
1.005e+3, 2.841256e+2, -230255.3, -318081.22, 0.0038138127, 0.00000013912009, 0.00022904454, -230255.3, -74686.336, 0.0, 10.0, 9.885438 
1.005e+3, 2.940121e+2, -130549.164, -217765.0, 0.0015342257, 0.00000013654069, -0.00025334337, -130549.164, -71867.77, 0.0, 10.0, 9.886217 
1.005e+3, 3.0392656e+2, -40805.152, -84750.15, 0.0011735593, 0.0000001358661, 0.00017313535, -40805.152, -40805.152, 0.0, 10.0, 9.942173 
1.005e+3, 3.138706e+2, -39727.14, -82511.2, -0.002818705, 0.0000001380434, -0.000055145956, -39727.14, -39727.14, 0.0, 10.0, 9.943684 
1.015e+3, 1.2499335e+2, -1719945.8, -1724224.6, 0.004245715, 0.0000001599349, 0.000017645481, -1719945.8, -4880.5474, 0.0, 10.0, 9.994327 
1.015e+3, 1.349876e+2, -1622565.3, -1627434.9, 0.00030659066, 0.00000014753799, -0.00006840891, -1622565.3, -5443.751, 0.0, 10.0, 9.993545 
1.015e+3, 1.4497514e+2, -1534463.9, -1548146.3, 0.0024688167, 0.00000014384216, 0.0000709755, -1534463.9, -15220.251, 0.0, 10.0, 9.981864 
1.015e+3, 1.5495703e+2, -1436736.3, -1450821.9, 0.0010807415, 0.00000014880983, -0.000056955458, -1436736.3, -15315.075, 0.0, 10.0, 9.981333 
1.015e+3, 1.6493228e+2, -1348685.3, -1371952.4, 0.0039691436, 0.00000015040814, 0.000047355647, -1348685.3, -25021.572, 0.0, 10.0, 9.969248 
1.015e+3, 1.7490156e+2, -1250727.3, -1274310.1, 0.0000064270457, 0.00000014856624, -0.00007380754, -1250727.3, -24762.555, 0.0, 10.0, 9.968834 
1.015e+3, 1.8486421e+2, -1162646.3, -1195720.1, 0.0028998586, 0.00000014659337, 0.000066169574, -1162646.3, -34315.6, 0.0, 10.0, 9.956395 
1.015e+3, 1.9482064e+2, -1064496.5, -1097833.0, 0.0021683362, 0.00000014448327, -0.0000576393, -1064496.5, -33738.934, 0.0, 10.0, 9.956052 
1.015e+3, 2.0477042e+2, -976332.56, -1019435.0, 0.0035263898, 0.0000001442637, 0.00006809127, -976332.56, -43082.68, 0.0, 10.0, 9.94329 
1.015e+3, 2.1471375e+2, -878045.56, -921409.9, 0.0010137936, 0.00000014609154, -0.00012681447, -878045.56, -42240.27, 0.0, 10.0, 9.942949 
1.015e+3, 2.2465037e+2, -789759.44, -843144.9, 0.0049962937, 0.00000014533954, 0.00012089189, -789759.44, -51333.164, 0.0, 10.0, 9.929908 
1.015e+3, 2.3458035e+2, -691325.94, -744966.44, 0.0035079282, 0.00000014166652, -0.00008880723, -691325.94, -50213.39, 0.0, 10.0, 9.929576 
1.015e+3, 2.4450338e+2, -603001.9, -667018.75, 0.0037843375, 0.00000014077465, 0.00007471791, -603001.9, -59134.992, 0.0, 10.0, 9.916136 
1.015e+3, 2.5441962e+2, -504249.2, -568343.3, 0.0005074882, 0.00000014320776, -0.000106730535, -504249.2, -57561.652, 0.0, 10.0, 9.916036 
1.015e+3, 2.643288e+2, -416013.78, -490987.88, 0.0022094464, 0.00000014356071, 0.00014059841, -416013.78, -66436.12, 0.0, 10.0, 9.901964 
1.015e+3, 2.742313e+2, -316728.56, -391374.75, 0.0017977329, 0.00000014125841, -0.00020344078, -316728.56, -64195.566, 0.0, 10.0, 9.902385 
1.015e+3, 2.841256e+2, -230255.31, -318081.25, 0.004430217, 0.00000014051017, 0.000229048, -230255.31, -74686.34, 0.0, 10.0, 9.885438 
1.015e+3, 2.940121e+2, -130549.17, -217765.0, 0.0021782129, 0.00000014190114, -0.00025334238, -130549.17, -71867.78, 0.0, 10.0, 9.886217 
1.015e+3, 3.0392656e+2, -40805.16, -84750.164, 0.0019201849, 0.00000014171418, 0.00017313578, -40805.16, -40805.16, 0.0, 10.0, 9.942173 
1.015e+3, 3.138706e+2, -39727.15, -82511.22, -0.0020599812, 0.00000013916527, -0.000055143257, -39727.15, -39727.15, 0.0, 10.0, 9.943684 
1.025e+3, 1.2499335e+2, -1719945.8, -1724224.6, 0.00001618395, 0.00000016322501, 0.000017650422, -1719945.8, -4880.5054, 0.0, 10.0, 9.994327 
1.025e+3, 1.349876e+2, -1622565.3, -1627434.9, -0.0004918853, 0.00000015296823, -0.00006840709, -1622565.3, -5443.72, 0.0, 10.0, 9.993545 
1.025e+3, 1.4497514e+2, -1534463.9, -1548146.3, 0.0010306838, 0.00000014969179, 0.000070978254, -1534463.9, -15220.223, 0.0, 10.0, 9.981864 
1.025e+3, 1.5495703e+2, -1436736.1, -1450821.9, -0.0017366427, 0.0000001533451, -0.000056953122, -1436736.1, -15315.041, 0.0, 10.0, 9.981333 
1.025e+3, 1.6493228e+2, -1348685.3, -1371952.4, 0.0023553553, 0.00000015410029, 0.000047356883, -1348685.3, -25021.537, 0.0, 10.0, 9.969248 
1.025e+3, 1.7490156e+2, -1250727.3, -1274310.1, 0.0014291387, 0.00000015189634, -0.000073808085, -1250727.3, -24762.518, 0.0, 10.0, 9.968834 
1.025e+3, 1.8486421e+2, -1162646.3, -1195720.1, 0.0052937306, 0.00000015078837, 0.00006616899, -1162646.3, -34315.566, 0.0, 10.0, 9.956395 
1.025e+3, 1.9482064e+2, -1064496.5, -1097832.9, 0.0022020147, 0.00000015082713, -0.000057638088, -1064496.5, -33738.902, 0.0, 10.0, 9.956052 
1.025e+3, 2.0477042e+2, -976332.5, -1019435.0, 0.0023164777, 0.0000001500937, 0.00006809277, -976332.5, -43082.652, 0.0, 10.0, 9.94329 
1.025e+3, 2.1471375e+2, -878045.5, -921409.9, 0.0003693469, 0.00000014852377, -0.00012681432, -878045.5, -42240.23, 0.0, 10.0, 9.942949 
1.025e+3, 2.2465037e+2, -789759.4, -843144.8, 0.004262998, 0.00000014737806, 0.0001208922, -789759.4, -51333.125, 0.0, 10.0, 9.929908 
1.025e+3, 2.3458035e+2, -691325.9, -744966.44, 0.0010242922, 0.00000014671272, -0.000088805034, -691325.9, -50213.36, 0.0, 10.0, 9.929576 
1.025e+3, 2.4450338e+2, -603001.8, -667018.75, 0.0017533962, 0.00000014678905, 0.000074719734, -603001.8, -59134.96, 0.0, 10.0, 9.916136 
1.025e+3, 2.5441962e+2, -504249.16, -568343.3, 0.001893653, 0.00000014775071, -0.000106731764, -504249.16, -57561.617, 0.0, 10.0, 9.916036 
1.025e+3, 2.643288e+2, -416013.75, -490987.88, 0.0040582246, 0.00000014723223, 0.00014059682, -416013.75, -66436.086, 0.0, 10.0, 9.901964 
1.025e+3, 2.742313e+2, -316728.53, -391374.75, -0.00043769248, 0.00000014482781, -0.00020343931, -316728.53, -64195.53, 0.0, 10.0, 9.902385 
1.025e+3, 2.841256e+2, -230255.27, -318081.22, 0.000108534776, 0.00000014418865, 0.00022905083, -230255.27, -74686.305, 0.0, 10.0, 9.885438 
1.025e+3, 2.940121e+2, -130549.13, -217765.0, -0.0014602786, 0.00000014597406, -0.00025334055, -130549.13, -71867.74, 0.0, 10.0, 9.886217 
1.025e+3, 3.0392656e+2, -40805.13, -84750.16, 0.00055192166, 0.00000014599178, 0.00017313616, -40805.13, -40805.13, 0.0, 10.0, 9.942173 
1.025e+3, 3.138706e+2, -39727.113, -82511.21, 0.00052814296, 0.00000014336294, -0.000055145025, -39727.113, -39727.113, 0.0, 10.0, 9.943684 
1.035e+3, 1.2499335e+2, -1719945.8, -1724224.6, -0.00052220287, 0.00000016035342, 0.000017650604, -1719945.8, -4880.5073, 0.0, 10.0, 9.994327 
1.035e+3, 1.349876e+2, -1622565.3, -1627434.9, -0.0010305227, 0.00000016278322, -0.00006840645, -1622565.3, -5443.722, 0.0, 10.0, 9.993545 
1.035e+3, 1.4497514e+2, -1534463.9, -1548146.3, 0.0007868081, 0.00000016185975, 0.00007098139, -1534463.9, -15220.2295, 0.0, 10.0, 9.981864 
1.035e+3, 1.5495703e+2, -1436736.1, -1450821.9, -0.0019801187, 0.00000015746586, -0.00005695075, -1436736.1, -15315.048, 0.0, 10.0, 9.981333 
1.035e+3, 1.6493228e+2, -1348685.3, -1371952.4, 0.0019626152, 0.00000015548065, 0.000047357556, -1348685.3, -25021.54, 0.0, 10.0, 9.969248 
1.035e+3, 1.7490156e+2, -1250727.3, -1274310.1, 0.001035561, 0.00000015595471, -0.000073810064, -1250727.3, -24762.52, 0.0, 10.0, 9.968834 
1.035e+3, 1.8486421e+2, -1162646.3, -1195720.1, 0.004481024, 0.00000015640411, 0.00006616731, -1162646.3, -34315.574, 0.0, 10.0, 9.956395 
1.035e+3, 1.9482064e+2, -1064496.5, -1097833.0, 0.0013844192, 0.00000015682764, -0.000057636396, -1064496.5, -33738.91, 0.0, 10.0, 9.956052 
1.035e+3, 2.0477042e+2, -976332.56, -1019435.0, 0.0033235678, 0.00000015481608, 0.000068095775, -976332.56, -43082.656, 0.0, 10.0, 9.94329 
1.035e+3, 2.1471375e+2, -878045.5, -921409.9, 0.001414101, 0.00000015016721, -0.00012681223, -878045.5, -42240.24, 0.0, 10.0, 9.942949 
1.035e+3, 2.2465037e+2, -789759.4, -843144.9, 0.0033942615, 0.00000014971121, 0.000120894074, -789759.4, -51333.133, 0.0, 10.0, 9.929908 
1.035e+3, 2.3458035e+2, -691325.9, -744966.44, 0.00009294952, 0.00000015400202, -0.000088802604, -691325.9, -50213.367, 0.0, 10.0, 9.929576 
1.035e+3, 2.4450338e+2, -603001.8, -667018.75, 0.002292124, 0.0000001543852, 0.00007472229, -603001.8, -59134.96, 0.0, 10.0, 9.916136 
1.035e+3, 2.5441962e+2, -504249.16, -568343.3, 0.0025030193, 0.00000015009576, -0.0001067296, -504249.16, -57561.617, 0.0, 10.0, 9.916036 
1.035e+3, 2.643288e+2, -416013.75, -490987.88, 0.00461312, 0.00000014835395, 0.00014059877, -416013.75, -66436.09, 0.0, 10.0, 9.901964 
1.035e+3, 2.742313e+2, -316728.53, -391374.78, 0.00011357544, 0.00000014986522, -0.00020343733, -316728.53, -64195.54, 0.0, 10.0, 9.902385 
1.035e+3, 2.841256e+2, -230255.28, -318081.25, 0.0004040745, 0.00000015015553, 0.00022905302, -230255.28, -74686.31, 0.0, 10.0, 9.885438 
1.035e+3, 2.940121e+2, -130549.14, -217765.0, -0.001187757, 0.00000014875944, -0.00025333787, -130549.14, -71867.75, 0.0, 10.0, 9.886217 
1.035e+3, 3.0392656e+2, -40805.13, -84750.16, 0.0011824609, 0.00000014869887, 0.00017313646, -40805.13, -40805.13, 0.0, 10.0, 9.942173 
1.035e+3, 3.138706e+2, -39727.117, -82511.21, 0.001200756, 0.00000015063642, -0.000055151268, -39727.117, -39727.117, 0.0, 10.0, 9.943684 
1.045e+3, 1.2499335e+2, -1719945.8, -1724224.6, 0.0052171927, 0.00000016274707, 0.000017648994, -1719945.8, -4880.4644, 0.0, 10.000001, 9.994327 
1.045e+3, 1.349876e+2, -1622565.3, -1627434.9, 0.0005261721, 0.00000016870122, -0.00006840667, -1622565.3, -5443.687, 0.0, 10.0, 9.993545 
1.045e+3, 1.4497514e+2, -1534463.9, -1548146.3, 0.0025168618, 0.00000016876714, 0.00007098337, -1534463.9, -15220.196, 0.0, 10.0, 9.981864 
1.045e+3, 1.5495703e+2, -1436736.1, -1450821.9, 0.0013268047, 0.00000016280988, -0.00005695099, -1436736.1, -15315.013, 0.0, 10.0, 9.981333 
1.045e+3, 1.6493228e+2, -1348685.1, -1371952.4, 0.0043425807, 0.00000015996291, 0.000047356978, -1348685.1, -25021.504, 0.0, 10.0, 9.969248 
1.045e+3, 1.7490156e+2, -1250727.1, -1274310.1, 0.0007410589, 0.00000016029155, -0.00007380907, -1250727.1, -24762.484, 0.0, 10.0, 9.968834 
1.045e+3, 1.8486421e+2, -1162646.3, -1195720.1, 0.0030984462, 0.00000016071704, 0.00006616882, -1162646.3, -34315.54, 0.0, 10.0, 9.956395 
1.045e+3, 1.9482064e+2, -1064496.5, -1097832.9, 0.0008567345, 0.00000016124373, -0.000057635494, -1064496.5, -33738.87, 0.0, 10.0, 9.956052 
1.045e+3, 2.0477042e+2, -976332.5, -1019435.0, 0.0040703714, 0.00000015934431, 0.000068096626, -976332.5, -43082.617, 0.0, 10.0, 9.94329 
1.045e+3, 2.1471375e+2, -878045.5, -921409.8, 0.0015962878, 0.00000015481726, -0.00012681082, -878045.5, -42240.203, 0.0, 10.0, 9.942949 
1.045e+3, 2.2465037e+2, -789759.4, -843144.9, 0.0029730713, 0.00000015437807, 0.00012089465, -789759.4, -51333.098, 0.0, 10.0, 9.929908 
1.045e+3, 2.3458035e+2, -691325.9, -744966.44, 0.0017092457, 0.00000015856685, -0.00008880442, -691325.9, -50213.332, 0.0, 10.0, 9.929576 
1.045e+3, 2.4450338e+2, -603001.8, -667018.75, 0.004117516, 0.00000015876047, 0.00007472103, -603001.8, -59134.926, 0.0, 10.0, 9.916136 
1.045e+3, 2.5441962e+2, -504249.13, -568343.25, -0.00056303525, 0.000000154177, -0.00010672677, -504249.13, -57561.582, 0.0, 10.0, 9.916036 
1.045e+3, 2.643288e+2, -416013.72, -490987.88, 0.00042515763, 0.0000001524665, 0.00014060218, -416013.72, -66436.055, 0.0, 10.0, 9.901964 
1.045e+3, 2.742313e+2, -316728.5, -391374.75, 0.00058842264, 0.00000015442332, -0.00020343783, -316728.5, -64195.508, 0.0, 10.0, 9.902385 
1.045e+3, 2.841256e+2, -230255.23, -318081.22, 0.003395417, 0.00000015486327, 0.0002290507, -230255.23, -74686.27, 0.0, 10.0, 9.885438 
1.045e+3, 2.940121e+2, -130549.1, -217764.98, 0.0010012831, 0.00000015320994, -0.00025333918, -130549.1, -71867.71, 0.0, 10.0, 9.886217 
1.045e+3, 3.0392656e+2, -40805.094, -84750.15, 0.0016130607, 0.00000015300245, 0.00017313637, -40805.094, -40805.094, 0.0, 10.0, 9.942173 
1.045e+3, 3.138706e+2, -39727.082, -82511.2, -0.0019798495, 0.00000015496062, -0.00005514986, -39727.082, -39727.082, 0.0, 10.0, 9.943684 
1.055e+3, 1.2499335e+2, -1719945.8, -1724224.6, 0.002831232, 0.00000017040593, 0.000017645589, -1719945.8, -4880.476, 0.0, 10.000001, 9.994327 
1.055e+3, 1.349876e+2, -1622565.3, -1627434.9, -0.0018605096, 0.00000017072225, -0.00006840773, -1622565.3, -5443.6987, 0.0, 10.0, 9.993545 
1.055e+3, 1.4497514e+2, -1534463.9, -1548146.3, 0.0028046875, 0.000000170414, 0.000070984184, -1534463.9, -15220.199, 0.0, 10.0, 9.981864 
1.055e+3, 1.5495703e+2, -1436736.1, -1450821.9, 0.0016188007, 0.00000016937716, -0.000056953835, -1436736.1, -15315.016, 0.0, 10.0, 9.981333 
1.055e+3, 1.6493228e+2, -1348685.3, -1371952.4, 0.0039637033, 0.00000016754706, 0.000047355148, -1348685.3, -25021.512, 0.0, 10.0, 9.969248 
1.055e+3, 1.7490156e+2, -1250727.1, -1274310.1, 0.00035858972, 0.00000016490688, -0.000073805095, -1250727.1, -24762.492, 0.0, 10.0, 9.968834 
1.055e+3, 1.8486421e+2, -1162646.3, -1195720.1, 0.0028612763, 0.00000016372714, 0.00006617352, -1162646.3, -34315.543, 0.0, 10.0, 9.956395 
1.055e+3, 1.9482064e+2, -1064496.5, -1097833.0, 0.0006212116, 0.00000016407546, -0.000057635374, -1064496.5, -33738.88, 0.0, 10.0, 9.956052 
1.055e+3, 2.0477042e+2, -976332.5, -1019435.0, 0.004230035, 0.00000016367842, 0.00006809533, -976332.5, -43082.625, 0.0, 10.0, 9.94329 
1.055e+3, 2.1471375e+2, -878045.5, -921409.9, 0.001764092, 0.0000001624739, -0.0001268101, -878045.5, -42240.207, 0.0, 10.0, 9.942949 
1.055e+3, 2.2465037e+2, -789759.4, -843144.9, 0.0025255699, 0.0000001613786, 0.00012089392, -789759.4, -51333.1, 0.0, 10.0, 9.929908 
1.055e+3, 2.3458035e+2, -691325.9, -744966.44, 0.0012415964, 0.0000001604072, -0.0000888105, -691325.9, -50213.336, 0.0, 10.0, 9.929576 
1.055e+3, 2.4450338e+2, -603001.8, -667018.75, 0.0048307637, 0.00000015991485, 0.00007471596, -603001.8, -59134.938, 0.0, 10.0, 9.916136 
1.055e+3, 2.5441962e+2, -504249.16, -568343.3, 0.00020697311, 0.00000015999444, -0.00010672326, -504249.16, -57561.59, 0.0, 10.0, 9.916036 
1.055e+3, 2.643288e+2, -416013.72, -490987.88, 0.00047406423, 0.00000015956985, 0.00014060705, -416013.72, -66436.055, 0.0, 10.0, 9.901964 
1.055e+3, 2.742313e+2, -316728.5, -391374.75, 0.0005889873, 0.00000015850213, -0.00020344078, -316728.5, -64195.508, 0.0, 10.0, 9.902385 
1.055e+3, 2.841256e+2, -230255.25, -318081.25, 0.003912817, 0.0000001583119, 0.00022904386, -230255.25, -74686.28, 0.0, 10.0, 9.885438 
1.055e+3, 2.940121e+2, -130549.11, -217765.0, 0.0015652803, 0.00000015932554, -0.00025334445, -130549.11, -71867.72, 0.0, 10.0, 9.886217 
1.055e+3, 3.0392656e+2, -40805.1, -84750.164, 0.002255694, 0.00000015890247, 0.0001731359, -40805.1, -40805.1, 0.0, 10.0, 9.942172 
1.055e+3, 3.138706e+2, -39727.09, -82511.22, -0.0013279357, 0.00000015633555, -0.000055140805, -39727.09, -39727.09, 0.0, 10.0, 9.943684 
1.065e+3, 1.2499335e+2, -1719945.6, -1724224.6, 0.00044453956, 0.00000017745425, 0.000017648495, -1719945.6, -4880.442, 0.0, 10.000001, 9.994327 
1.065e+3, 1.349876e+2, -1622565.3, -1627434.9, -0.0007338861, 0.00000017449996, -0.00006840923, -1622565.3, -5443.655, 0.0, 10.000001, 9.993545 
1.065e+3, 1.4497514e+2, -1534463.8, -1548146.3, 0.0048965947, 0.0000001735199, 0.000070983995, -1534463.8, -15220.154, 0.0, 10.000001, 9.981864 
1.065e+3, 1.5495703e+2, -1436736.1, -1450821.9, 0.00051429664, 0.00000017442424, -0.000056951776, -1436736.1, -15314.977, 0.0, 10.000001, 9.981333 
1.065e+3, 1.6493228e+2, -1348685.1, -1371952.4, 0.0024379897, 0.00000017334348, 0.00004735775, -1348685.1, -25021.475, 0.0, 10.000001, 9.969248 
1.065e+3, 1.7490156e+2, -1250727.1, -1274310.1, 0.000486003, 0.00000017023571, -0.000073803705, -1250727.1, -24762.453, 0.0, 10.000001, 9.968834 
1.065e+3, 1.8486421e+2, -1162646.1, -1195720.1, 0.0033726948, 0.00000016831272, 0.00006617423, -1162646.1, -34315.504, 0.0, 10.000001, 9.956395 
1.065e+3, 1.9482064e+2, -1064496.4, -1097832.9, 0.0006863104, 0.00000016762935, -0.00005763478, -1064496.4, -33738.84, 0.0, 10.000001, 9.956052 
1.065e+3, 2.0477042e+2, -976332.44, -1019435.0, 0.0041755475, 0.00000016790463, 0.00006809574, -976332.44, -43082.586, 0.0, 10.000001, 9.94329 
1.065e+3, 2.1471375e+2, -878045.44, -921409.9, 0.0020341813, 0.00000016921791, -0.00012680996, -878045.44, -42240.176, 0.0, 10.000001, 9.942949 
1.065e+3, 2.2465037e+2, -789759.3, -843144.8, 0.0029849072, 0.00000016791495, 0.000120894554, -789759.3, -51333.066, 0.0, 10.000001, 9.929908 
1.065e+3, 2.3458035e+2, -691325.8, -744966.44, -0.00013864943, 0.00000016365014, -0.000088808534, -691325.8, -50213.293, 0.0, 10.000001, 9.929576 
1.065e+3, 2.4450338e+2, -603001.75, -667018.75, 0.0034609875, 0.0000001625358, 0.000074717325, -603001.75, -59134.895, 0.0, 10.000001, 9.916136 
1.065e+3, 2.5441962e+2, -504249.1, -568343.3, 0.0025990037, 0.00000016518753, -0.00010672478, -504249.1, -57561.56, 0.0, 10.000001, 9.916036 
1.065e+3, 2.643288e+2, -416013.7, -490987.88, 0.00397234, 0.00000016568113, 0.00014060499, -416013.7, -66436.02, 0.0, 10.000001, 9.901964 
1.065e+3, 2.742313e+2, -316728.47, -391374.75, 0.00028785274, 0.0000001634192, -0.00020344045, -316728.47, -64195.47, 0.0, 10.000001, 9.902385 
1.065e+3, 2.841256e+2, -230255.2, -318081.22, 0.0013222618, 0.0000001625182, 0.00022904543, -230255.2, -74686.24, 0.0, 10.000001, 9.885438 
1.065e+3, 2.940121e+2, -130549.07, -217764.98, -0.0011132677, 0.00000016349257, -0.00025334329, -130549.07, -71867.68, 0.0, 10.000001, 9.886217 
1.065e+3, 3.0392656e+2, -40805.066, -84750.16, 0.0007028613, 0.00000016321201, 0.00017313621, -40805.066, -40805.066, 0.0, 10.000001, 9.942172 
1.065e+3, 3.138706e+2, -39727.05, -82511.21, -0.00056243455, 0.00000016105143, -0.000055141936, -39727.05, -39727.05, 0.0, 10.000001, 9.943684 
1.075e+3, 1.2499335e+2, -1719945.6, -1724224.6, 0.00032894404, 0.00000018389204, 0.00001765771, -1719945.6, -4880.446, 0.0, 10.000001, 9.994327 
1.075e+3, 1.349876e+2, -1622565.3, -1627434.9, -0.0008497454, 0.00000018003436, -0.00006841118, -1622565.3, -5443.6587, 0.0, 10.000001, 9.993545 
1.075e+3, 1.4497514e+2, -1534463.8, -1548146.3, 0.0036801682, 0.00000017808483, 0.000070982795, -1534463.8, -15220.165, 0.0, 10.000001, 9.981864 
1.075e+3, 1.5495703e+2, -1436736.1, -1450821.9, -0.0007039375, 0.00000017795115, -0.000056944813, -1436736.1, -15314.987, 0.0, 10.000001, 9.981333 
1.075e+3, 1.6493228e+2, -1348685.1, -1371952.4, 0.0026563583, 0.00000017735216, 0.000047364774, -1348685.1, -25021.48, 0.0, 10.000001, 9.969248 
1.075e+3, 1.7490156e+2, -1250727.1, -1274310.1, 0.00071190385, 0.00000017627802, -0.00007380489, -1250727.1, -24762.459, 0.0, 10.000001, 9.968834 
1.075e+3, 1.8486421e+2, -1162646.1, -1195720.1, 0.0029607455, 0.00000017447378, 0.000066170964, -1162646.1, -34315.51, 0.0, 10.000001, 9.956395 
1.075e+3, 1.9482064e+2, -1064496.4, -1097833.0, 0.000266937, 0.00000017190541, -0.00005763371, -1064496.4, -33738.844, 0.0, 10.000001, 9.956052 
1.075e+3, 2.0477042e+2, -976332.44, -1019435.0, 0.0032697462, 0.00000017202294, 0.00006809785, -976332.44, -43082.59, 0.0, 10.000001, 9.94329 
1.075e+3, 2.1471375e+2, -878045.44, -921409.9, 0.001118308, 0.00000017504932, -0.00012681037, -878045.44, -42240.18, 0.0, 10.000001, 9.942949 
1.075e+3, 2.2465037e+2, -789759.3, -843144.9, 0.004465671, 0.00000017398709, 0.00012089656, -789759.3, -51333.074, 0.0, 10.000001, 9.929908 
1.075e+3, 2.3458035e+2, -691325.8, -744966.44, 0.0014205106, 0.0000001682957, -0.00008879852, -691325.8, -50213.3, 0.0, 10.000001, 9.929576 
1.075e+3, 2.4450338e+2, -603001.75, -667018.75, 0.002452841, 0.00000016662332, 0.000074725154, -603001.75, -59134.895, 0.0, 10.000001, 9.916136 
1.075e+3, 2.5441962e+2, -504249.1, -568343.3, 0.0014674771, 0.00000016975626, -0.00010673132, -504249.1, -57561.56, 0.0, 10.000001, 9.916036 
1.075e+3, 2.643288e+2, -416013.7, -490987.88, 0.0048733247, 0.00000017080033, 0.00014059596, -416013.7, -66436.03, 0.0, 10.000001, 9.901964 
1.075e+3, 2.742313e+2, -316728.47, -391374.75, 0.0013251244, 0.00000016917454, -0.00020343681, -316728.47, -64195.477, 0.0, 10.000001, 9.902385 
1.075e+3, 2.841256e+2, -230255.22, -318081.25, 0.001816254, 0.00000016748216, 0.00022905541, -230255.22, -74686.25, 0.0, 10.000001, 9.885438 
1.075e+3, 2.940121e+2, -130549.08, -217765.0, -0.0006682043, 0.00000016571106, -0.0002533357, -130549.08, -71867.69, 0.0, 10.000001, 9.886217 
1.075e+3, 3.0392656e+2, -40805.066, -84750.164, 0.00149055, 0.0000001659311, 0.00017313735, -40805.066, -40805.066, 0.0, 10.000001, 9.942172 
1.075e+3, 3.138706e+2, -39727.055, -82511.21, 0.00026552574, 0.00000016910823, -0.000055153254, -39727.055, -39727.055, 0.0, 10.000001, 9.943684 
1.085e+3, 1.2499335e+2, -1719945.6, -1724224.6, 0.0027941044, 0.00000019099016, 0.000017659344, -1719945.6, -4880.4053, 0.0, 10.000001, 9.994327 
1.085e+3, 1.349876e+2, -1622565.1, -1627434.9, -0.0008766302, 0.00000018497558, -0.000068409514, -1622565.1, -5443.6167, 0.0, 10.000001, 9.993545 
1.085e+3, 1.4497514e+2, -1534463.8, -1548146.3, 0.0023949682, 0.00000018213746, 0.00007098571, -1534463.8, -15220.123, 0.0, 10.000001, 9.981864 
1.085e+3, 1.5495703e+2, -1436736.1, -1450821.9, -0.00017811712, 0.00000018238966, -0.00005694376, -1436736.1, -15314.942, 0.0, 10.000001, 9.981333 
1.085e+3, 1.6493228e+2, -1348685.1, -1371952.4, 0.0039848154, 0.0000001823624, 0.000047365087, -1348685.1, -25021.436, 0.0, 10.000001, 9.969248 
1.085e+3, 1.7490156e+2, -1250727.1, -1274310.1, 0.001232387, 0.00000018204982, -0.00007380416, -1250727.1, -24762.42, 0.0, 10.000001, 9.968834 
1.085e+3, 1.8486421e+2, -1162646.1, -1195720.1, 0.003725951, 0.00000018047645, 0.00006617174, -1162646.1, -34315.473, 0.0, 10.000001, 9.956395 
1.085e+3, 1.9482064e+2, -1064496.4, -1097832.9, 0.0011228113, 0.00000017758363, -0.00005763325, -1064496.4, -33738.805, 0.0, 10.000001, 9.956052 
1.085e+3, 2.0477042e+2, -976332.44, -1019435.0, 0.0029056417, 0.00000017685836, 0.00006809845, -976332.44, -43082.547, 0.0, 10.000001, 9.94329 
1.085e+3, 2.1471375e+2, -878045.4, -921409.8, -0.00058590027, 0.00000017848059, -0.00012680913, -878045.4, -42240.133, 0.0, 10.000001, 9.942949 
1.085e+3, 2.2465037e+2, -789759.3, -843144.8, 0.0034240559, 0.00000017792674, 0.000120897945, -789759.3, -51333.03, 0.0, 10.000001, 9.929908 
1.085e+3, 2.3458035e+2, -691325.8, -744966.44, 0.0011422284, 0.00000017490872, -0.00008879753, -691325.8, -50213.266, 0.0, 10.000001, 9.929576 
1.085e+3, 2.4450338e+2, -603001.75, -667018.75, 0.0012725503, 0.00000017346075, 0.00007472603, -603001.75, -59134.863, 0.0, 10.000001, 9.916136 
1.085e+3, 2.5441962e+2, -504249.06, -568343.25, -0.0014826375, 0.00000017389064, -0.00010673023, -504249.06, -57561.516, 0.0, 10.000001, 9.916036 
1.085e+3, 2.643288e+2, -416013.66, -490987.88, 0.0018669749, 0.0000001741537, 0.00014059719, -416013.66, -66435.99, 0.0, 10.000001, 9.901964 
1.085e+3, 2.742313e+2, -316728.44, -391374.75, -0.00047963913, 0.00000017419981, -0.00020343551, -316728.44, -64195.438, 0.0, 10.000001, 9.902385 
1.085e+3, 2.841256e+2, -230255.17, -318081.22, 0.0012726402, 0.00000017317691, 0.00022905631, -230255.17, -74686.21, 0.0, 10.000001, 9.885438 
1.085e+3, 2.940121e+2, -130549.04, -217764.98, -0.00041730027, 0.00000017069189, -0.0002533358, -130549.04, -71867.65, 0.0, 10.000001, 9.886217 
1.085e+3, 3.0392656e+2, -40805.027, -84750.15, 0.0016451906, 0.00000017061167, 0.000173137, -40805.027, -40805.027, 0.0, 10.000001, 9.942172 
1.085e+3, 3.138706e+2, -39727.02, -82511.2, -0.0004875583, 0.0000001741154, -0.000055152737, -39727.02, -39727.02, 0.0, 10.000001, 9.943684 
1.095e+3, 1.2499335e+2, -1719945.6, -1724224.6, 0.003032216, 0.00000019874861, 0.000017653392, -1719945.6, -4880.4146, 0.0, 10.000001, 9.994327 
1.095e+3, 1.349876e+2, -1622565.1, -1627434.9, -0.00063867803, 0.00000018932359, -0.000068404224, -1622565.1, -5443.626, 0.0, 10.000001, 9.993545 
1.095e+3, 1.4497514e+2, -1534463.8, -1548146.3, 0.0019162648, 0.00000018567776, 0.00007099274, -1534463.8, -15220.13, 0.0, 10.000001, 9.981864 
1.095e+3, 1.5495703e+2, -1436736.1, -1450821.9, -0.00065802154, 0.00000018773973, -0.000056948626, -1436736.1, -15314.949, 0.0, 10.000001, 9.981333 
1.095e+3, 1.6493228e+2, -1348685.1, -1371952.4, 0.0026321393, 0.00000018837417, 0.000047358684, -1348685.1, -25021.441, 0.0, 10.000001, 9.969248 
1.095e+3, 1.7490156e+2, -1250727.1, -1274310.1, -0.00012494963, 0.00000018755107, -0.00007380153, -1250727.1, -24762.426, 0.0, 10.000001, 9.968834 
1.095e+3, 1.8486421e+2, -1162646.1, -1195720.1, 0.0042388425, 0.0000001863207, 0.00006617657, -1162646.1, -34315.48, 0.0, 10.000001, 9.956395 
1.095e+3, 1.9482064e+2, -1064496.4, -1097832.9, 0.0016573267, 0.00000018466402, -0.000057633388, -1064496.4, -33738.813, 0.0, 10.000001, 9.956052 
1.095e+3, 2.0477042e+2, -976332.44, -1019435.0, 0.0026695176, 0.0000001824109, 0.00006809755, -976332.44, -43082.555, 0.0, 10.000001, 9.94329 
1.095e+3, 2.1471375e+2, -878045.44, -921409.9, -0.0008379647, 0.00000017951174, -0.00012680626, -878045.44, -42240.14, 0.0, 10.000001, 9.942949 
1.095e+3, 2.2465037e+2, -789759.3, -843144.9, 0.00283502, 0.00000017973392, 0.00012089871, -789759.3, -51333.035, 0.0, 10.000001, 9.929908 
1.095e+3, 2.3458035e+2, -691325.8, -744966.44, 0.0005421571, 0.0000001834892, -0.000088805566, -691325.8, -50213.273, 0.0, 10.000001, 9.929576 
1.095e+3, 2.4450338e+2, -603001.75, -667018.75, 0.002233071, 0.00000018304809, 0.000074719945, -603001.75, -59134.867, 0.0, 10.000001, 9.916136 
1.095e+3, 2.5441962e+2, -504249.06, -568343.3, -0.00044712666, 0.00000017759066, -0.00010672151, -504249.06, -57561.523, 0.0, 10.000001, 9.916036 
1.095e+3, 2.643288e+2, -416013.66, -490987.88, 0.0017046147, 0.00000017574122, 0.00014060868, -416013.66, -66435.99, 0.0, 10.000001, 9.901964 
1.095e+3, 2.742313e+2, -316728.44, -391374.75, -0.0007222997, 0.00000017849506, -0.00020343659, -316728.44, -64195.445, 0.0, 10.000001, 9.902385 
1.095e+3, 2.841256e+2, -230255.19, -318081.22, 0.002092685, 0.00000017960247, 0.00022904812, -230255.19, -74686.21, 0.0, 10.000001, 9.885438 
1.095e+3, 2.940121e+2, -130549.04, -217765.0, 0.00049851765, 0.00000017843506, -0.00025334358, -130549.04, -71867.65, 0.0, 10.000001, 9.886217 
1.095e+3, 3.0392656e+2, -40805.035, -84750.16, 0.0018187696, 0.00000017725374, 0.00017313518, -40805.035, -40805.035, 0.0, 10.000001, 9.942172 
1.095e+3, 3.138706e+2, -39727.023, -82511.21, -0.00040107645, 0.00000017607294, -0.00005514038, -39727.023, -39727.023, 0.0, 10.000001, 9.943684 
1.105e+3, 1.2499335e+2, -1719945.6, -1724224.6, 0.0022360357, 0.00000020291617, 0.000017655504, -1719945.6, -4880.3677, 0.0, 10.000001, 9.994327 
1.105e+3, 1.349876e+2, -1622565.1, -1627434.9, -0.0008038437, 0.00000019563056, -0.00006840135, -1622565.1, -5443.581, 0.0, 10.000001, 9.993545 
1.105e+3, 1.4497514e+2, -1534463.8, -1548146.3, 0.0015248932, 0.00000019269784, 0.00007099626, -1534463.8, -15220.085, 0.0, 10.000001, 9.981864 
1.105e+3, 1.5495703e+2, -1436736.0, -1450821.9, -0.00032717883, 0.00000019403682, -0.000056948295, -1436736.0, -15314.908, 0.0, 10.000001, 9.981333 
1.105e+3, 1.6493228e+2, -1348685.1, -1371952.4, 0.0032256355, 0.00000019382529, 0.000047358364, -1348685.1, -25021.402, 0.0, 10.000001, 9.969248 
1.105e+3, 1.7490156e+2, -1250727.0, -1274310.1, -0.00054592255, 0.0000001920306, -0.000073799914, -1250727.0, -24762.379, 0.0, 10.000001, 9.968834 
1.105e+3, 1.8486421e+2, -1162646.1, -1195720.0, 0.0033745843, 0.00000019112721, 0.00006617892, -1162646.1, -34315.434, 0.0, 10.000001, 9.956395 
1.105e+3, 1.9482064e+2, -1064496.4, -1097832.9, 0.0006717014, 0.00000019115639, -0.00005763155, -1064496.4, -33738.77, 0.0, 10.000001, 9.956052 
1.105e+3, 2.0477042e+2, -976332.4, -1019435.0, 0.0030343928, 0.00000018892916, 0.00006809861, -976332.4, -43082.516, 0.0, 10.000001, 9.94329 
1.105e+3, 2.1471375e+2, -878045.4, -921409.8, 0.0010914176, 0.00000018425798, -0.00012680622, -878045.4, -42240.098, 0.0, 10.000001, 9.942949 
1.105e+3, 2.2465037e+2, -789759.25, -843144.8, 0.004370007, 0.00000018399354, 0.000120898236, -789759.25, -51332.992, 0.0, 10.000001, 9.929908 
1.105e+3, 2.3458035e+2, -691325.75, -744966.44, 0.0014980249, 0.00000018871788, -0.00008880595, -691325.75, -50213.227, 0.0, 10.000001, 9.929576 
1.105e+3, 2.4450338e+2, -603001.7, -667018.75, 0.0039968244, 0.00000018876491, 0.00007471995, -603001.7, -59134.824, 0.0, 10.000001, 9.916136 
1.105e+3, 2.5441962e+2, -504249.03, -568343.25, 0.000770589, 0.00000018321971, -0.00010672075, -504249.03, -57561.48, 0.0, 10.000001, 9.916036 
1.105e+3, 2.643288e+2, -416013.63, -490987.88, 0.002184829, 0.00000018102067, 0.0001406093, -416013.63, -66435.95, 0.0, 10.000001, 9.901964 
1.105e+3, 2.742313e+2, -316728.4, -391374.75, 0.00020137714, 0.00000018309304, -0.00020343723, -316728.4, -64195.4, 0.0, 10.000001, 9.902385 
1.105e+3, 2.841256e+2, -230255.14, -318081.22, 0.0029432077, 0.00000018428184, 0.00022904719, -230255.14, -74686.17, 0.0, 10.000001, 9.885438 
1.105e+3, 2.940121e+2, -130549.0, -217764.98, -0.00014897012, 0.0000001842414, -0.00025334343, -130549.0, -71867.61, 0.0, 10.000001, 9.886217 
1.105e+3, 3.0392656e+2, -40804.996, -84750.15, 0.0002338947, 0.00000018303245, 0.00017313607, -40804.996, -40804.996, 0.0, 10.000001, 9.942172 
1.105e+3, 3.138706e+2, -39726.977, -82511.2, -0.0035487812, 0.00000018010029, -0.000055139248, -39726.977, -39726.977, 0.0, 10.000001, 9.943684 
1.115e+3, 1.2499335e+2, -1719945.6, -1724224.6, 0.0019929504, 0.00000020349287, 0.000017665678, -1719945.6, -4880.3755, 0.0, 10.000001, 9.994327 
1.115e+3, 1.349876e+2, -1622565.1, -1627434.9, -0.0010473323, 0.00000020389652, -0.0000684009, -1622565.1, -5443.589, 0.0, 10.000001, 9.993545 
1.115e+3, 1.4497514e+2, -1534463.8, -1548146.3, 0.000190309, 0.00000020319766, 0.00007099626, -1534463.8, -15220.091, 0.0, 10.000001, 9.981864 
1.115e+3, 1.5495703e+2, -1436736.0, -1450821.9, -0.0016635698, 0.00000020128088, -0.000056942772, -1436736.0, -15314.913, 0.0, 10.000001, 9.981333 
1.115e+3, 1.6493228e+2, -1348685.1, -1371952.4, 0.0035542236, 0.00000019871575, 0.000047364123, -1348685.1, -25021.41, 0.0, 10.000001, 9.969248 
1.115e+3, 1.7490156e+2, -1250727.0, -1274310.1, -0.00020859206, 0.00000019548838, -0.00007379931, -1250727.0, -24762.389, 0.0, 10.000001, 9.968834 
1.115e+3, 1.8486421e+2, -1162646.1, -1195720.1, 0.0021170194, 0.00000019489599, 0.00006617881, -1162646.1, -34315.438, 0.0, 10.000001, 9.956395 
1.115e+3, 1.9482064e+2, -1064496.4, -1097832.9, -0.0006043683, 0.00000019706074, -0.000057627738, -1064496.4, -33738.777, 0.0, 10.000001, 9.956052 
1.115e+3, 2.0477042e+2, -976332.4, -1019435.0, 0.0038724272, 0.00000019641313, 0.00006810166, -976332.4, -43082.523, 0.0, 10.000001, 9.94329 
1.115e+3, 2.1471375e+2, -878045.4, -921409.9, 0.0019730942, 0.00000019271928, -0.00012680904, -878045.4, -42240.1, 0.0, 10.000001, 9.942949 
1.115e+3, 2.2465037e+2, -789759.25, -843144.9, 0.003653908, 0.0000001907056, 0.00012089652, -789759.25, -51332.996, 0.0, 10.000001, 9.929908 
1.115e+3, 2.3458035e+2, -691325.75, -744966.44, 0.00072963606, 0.00000019059475, -0.00008879869, -691325.75, -50213.234, 0.0, 10.000001, 9.929576 
1.115e+3, 2.4450338e+2, -603001.7, -667018.75, 0.004431704, 0.00000019061126, 0.00007472605, -603001.7, -59134.832, 0.0, 10.000001, 9.916136 
1.115e+3, 2.5441962e+2, -504249.03, -568343.3, 0.0012632951, 0.00000019077777, -0.000106727945, -504249.03, -57561.49, 0.0, 10.000001, 9.916036 
1.115e+3, 2.643288e+2, -416013.63, -490987.88, 0.0026595746, 0.00000018999198, 0.00014059906, -416013.63, -66435.96, 0.0, 10.000001, 9.901964 
1.115e+3, 2.742313e+2, -316728.4, -391374.75, 0.0006749159, 0.00000018799378, -0.00020343746, -316728.4, -64195.406, 0.0, 10.000001, 9.902385 
1.115e+3, 2.841256e+2, -230255.14, -318081.25, 0.0029249336, 0.00000018721508, 0.00022905352, -230255.14, -74686.18, 0.0, 10.000001, 9.885438 
1.115e+3, 2.940121e+2, -130549.01, -217765.0, -0.00021154164, 0.00000018811093, -0.00025333537, -130549.01, -71867.62, 0.0, 10.000001, 9.886217 
1.115e+3, 3.0392656e+2, -40805.004, -84750.164, 0.0021419355, 0.00000018794786, 0.00017313966, -40805.004, -40805.004, 0.0, 10.000001, 9.942172 
1.115e+3, 3.138706e+2, -39726.984, -82511.22, -0.0014093447, 0.00000018619743, -0.00005514935, -39726.984, -39726.984, 0.0, 10.000001, 9.943684 
1.125e+3, 1.2499335e+2, -1719945.5, -1724224.6, 0.0037688501, 0.00000020647427, 0.00001766703, -1719945.5, -4880.3174, 0.0, 10.000001, 9.994327 
1.125e+3, 1.349876e+2, -1622565.1, -1627434.9, 0.00046745993, 0.00000021176231, -0.00006840238, -1622565.1, -5443.5483, 0.0, 10.000001, 9.993545 
1.125e+3, 1.4497514e+2, -1534463.6, -1548146.3, 0.002792656, 0.0000002119106, 0.000070996175, -1534463.6, -15220.052, 0.0, 10.000001, 9.981864 
1.125e+3, 1.5495703e+2, -1436736.0, -1450821.9, -0.0011582334, 0.00000020677804, -0.000056940204, -1436736.0, -15314.864, 0.0, 10.000001, 9.981333 
1.125e+3, 1.6493228e+2, -1348685.0, -1371952.3, 0.0032606972, 0.00000020332412, 0.00004736683, -1348685.0, -25021.36, 0.0, 10.000001, 9.969248 
1.125e+3, 1.7490156e+2, -1250727.0, -1274310.1, 0.00088101986, 0.00000020158387, -0.00007379904, -1250727.0, -24762.344, 0.0, 10.000001, 9.968834 
1.125e+3, 1.8486421e+2, -1162646.0, -1195720.0, 0.0032360863, 0.00000020107885, 0.00006617837, -1162646.0, -34315.395, 0.0, 10.000001, 9.956395 
1.125e+3, 1.9482064e+2, -1064496.4, -1097832.9, -0.0003661053, 0.00000020186619, -0.000057627094, -1064496.4, -33738.727, 0.0, 10.000001, 9.956052 
1.125e+3, 2.0477042e+2, -976332.4, -1019435.0, 0.003671457, 0.00000020144064, 0.00006810312, -976332.4, -43082.473, 0.0, 10.000001, 9.94329 
1.125e+3, 2.1471375e+2, -878045.3, -921409.8, 0.00022260223, 0.00000019970128, -0.00012680705, -878045.3, -42240.063, 0.0, 10.000001, 9.942949 
1.125e+3, 2.2465037e+2, -789759.25, -843144.8, 0.000811537, 0.0000001976583, 0.0001208986, -789759.25, -51332.957, 0.0, 10.000001, 9.929908 
1.125e+3, 2.3458035e+2, -691325.7, -744966.44, -0.002348191, 0.00000019527202, -0.000088797016, -691325.7, -50213.188, 0.0, 10.000001, 9.929576 
1.125e+3, 2.4450338e+2, -603001.6, -667018.75, 0.0020062511, 0.00000019479467, 0.00007472719, -603001.6, -59134.785, 0.0, 10.000001, 9.916136 
1.125e+3, 2.5441962e+2, -504249.0, -568343.25, 0.00041968518, 0.00000019659764, -0.00010672748, -504249.0, -57561.445, 0.0, 10.000001, 9.916036 
1.125e+3, 2.643288e+2, -416013.6, -490987.88, 0.0024256536, 0.00000019644064, 0.0001405994, -416013.6, -66435.914, 0.0, 10.000001, 9.901964 
1.125e+3, 2.742313e+2, -316728.34, -391374.75, -0.0013261809, 0.0000001937837, -0.00020343655, -316728.34, -64195.363, 0.0, 10.000001, 9.902385 
1.125e+3, 2.841256e+2, -230255.1, -318081.22, -0.000014442397, 0.00000019233481, 0.00022905484, -230255.1, -74686.13, 0.0, 10.000001, 9.885438 
1.125e+3, 2.940121e+2, -130548.96, -217764.98, -0.0024960376, 0.00000019255074, -0.00025333383, -130548.96, -71867.57, 0.0, 10.000001, 9.886217 
1.125e+3, 3.0392656e+2, -40804.957, -84750.15, 0.0021765714, 0.00000019274053, 0.00017314016, -40804.957, -40804.957, 0.0, 10.000001, 9.942172 
1.125e+3, 3.138706e+2, -39726.95, -82511.21, 0.0023541583, 0.00000019287636, -0.00005515171, -39726.95, -39726.95, 0.0, 10.000001, 9.943684 
1.135e+3, 1.2499335e+2, -1719945.5, -1724224.6, -0.0005095698, 0.00000021186035, 0.000017659562, -1719945.5, -4880.326, 0.0, 10.000001, 9.994327 
1.135e+3, 1.349876e+2, -1622565.1, -1627434.9, -0.0038123094, 0.00000021922799, -0.000068405796, -1622565.1, -5443.557, 0.0, 10.000001, 9.993545 
1.135e+3, 1.4497514e+2, -1534463.8, -1548146.3, 0.0041176085, 0.00000021883665, 0.000070996, -1534463.8, -15220.0625, 0.0, 10.000001, 9.981864 
1.135e+3, 1.5495703e+2, -1436736.0, -1450821.9, 0.00017553053, 0.00000021052831, -0.00005694059, -1436736.0, -15314.874, 0.0, 10.000001, 9.981333 
1.135e+3, 1.6493228e+2, -1348685.0, -1371952.4, 0.0020862825, 0.00000020765037, 0.00004736648, -1348685.0, -25021.365, 0.0, 10.000001, 9.969248 
1.135e+3, 1.7490156e+2, -1250727.0, -1274310.1, -0.00030668319, 0.00000021031705, -0.00007379909, -1250727.0, -24762.35, 0.0, 10.000001, 9.968834 
1.135e+3, 1.8486421e+2, -1162646.0, -1195720.1, 0.003132193, 0.00000020967576, 0.0000661776, -1162646.0, -34315.402, 0.0, 10.000001, 9.956395 
1.135e+3, 1.9482064e+2, -1064496.4, -1097832.9, -0.00045748233, 0.00000020557273, -0.000057629622, -1064496.4, -33738.74, 0.0, 10.000001, 9.956052 
1.135e+3, 2.0477042e+2, -976332.4, -1019435.0, 0.0030009865, 0.00000020401171, 0.000068103, -976332.4, -43082.48, 0.0, 10.000001, 9.94329 
1.135e+3, 2.1471375e+2, -878045.3, -921409.9, -0.0004598484, 0.00000020520397, -0.00012680025, -878045.3, -42240.07, 0.0, 10.000001, 9.942949 
1.135e+3, 2.2465037e+2, -789759.25, -843144.9, 0.0014355791, 0.0000002048516, 0.00012090448, -789759.25, -51332.965, 0.0, 10.000001, 9.929908 
1.135e+3, 2.3458035e+2, -691325.75, -744966.44, -0.0016814206, 0.00000020274967, -0.00008880092, -691325.75, -50213.195, 0.0, 10.000001, 9.929576 
1.135e+3, 2.4450338e+2, -603001.7, -667018.75, 0.0016030647, 0.00000020131509, 0.00007472339, -603001.7, -59134.79, 0.0, 10.000001, 9.916136 
1.135e+3, 2.5441962e+2, -504249.0, -568343.3, -0.00003493736, 0.00000020067937, -0.000106719344, -504249.0, -57561.45, 0.0, 10.000001, 9.916036 
1.135e+3, 2.643288e+2, -416013.6, -490987.88, 0.0030240077, 0.00000020036663, 0.00014061033, -416013.6, -66435.92, 0.0, 10.000001, 9.901964 
1.135e+3, 2.742313e+2, -316728.38, -391374.75, -0.00065722363, 0.00000020046284, -0.00020343448, -316728.38, -64195.37, 0.0, 10.000001, 9.902385 
1.135e+3, 2.841256e+2, -230255.11, -318081.25, 0.00081922277, 0.00000019964102, 0.00022905119, -230255.11, -74686.14, 0.0, 10.000001, 9.885438 
1.135e+3, 2.940121e+2, -130548.97, -217765.0, -0.0016475227, 0.00000019756084, -0.00025333886, -130548.97, -71867.58, 0.0, 10.000001, 9.886217 
1.135e+3, 3.0392656e+2, -40804.957, -84750.16, 0.0018668582, 0.00000019741049, 0.00017313757, -40804.957, -40804.957, 0.0, 10.000001, 9.942172 
1.135e+3, 3.138706e+2, -39726.95, -82511.21, 0.0019085036, 0.00000020013708, -0.000055146334, -39726.95, -39726.95, 0.0, 10.000001, 9.943684 
1.145e+3, 1.2499335e+2, -1719945.5, -1724224.6, 0.0021279498, 0.00000022300458, 0.000017660153, -1719945.5, -4880.2905, 0.0, 10.000001, 9.994327 
1.145e+3, 1.349876e+2, -1622565.0, -1627434.8, -0.0015781774, 0.00000022257218, -0.00006840559, -1622565.0, -5443.4956, 0.0, 10.000001, 9.993545 
1.145e+3, 1.4497514e+2, -1534463.6, -1548146.3, 0.006751158, 0.00000022060142, 0.00007099694, -1534463.6, -15219.998, 0.0, 10.000001, 9.981864 
1.145e+3, 1.5495703e+2, -1436736.0, -1450821.9, 0.002392075, 0.00000021697245, -0.000056939905, -1436736.0, -15314.825, 0.0, 10.000001, 9.981333 
1.145e+3, 1.6493228e+2, -1348685.0, -1371952.3, 0.0033074862, 0.00000021578475, 0.00004736744, -1348685.0, -25021.32, 0.0, 10.000001, 9.969248 
1.145e+3, 1.7490156e+2, -1250727.0, -1274310.1, -0.00028462015, 0.00000021708972, -0.000073797324, -1250727.0, -24762.3, 0.0, 10.000001, 9.968834 
1.145e+3, 1.8486421e+2, -1162646.0, -1195720.0, 0.0033867685, 0.00000021542775, 0.00006617933, -1162646.0, -34315.355, 0.0, 10.000001, 9.956395 
1.145e+3, 1.9482064e+2, -1064496.3, -1097832.9, 0.00027343002, 0.0000002106609, -0.00005762884, -1064496.3, -33738.688, 0.0, 10.000001, 9.956052 
1.145e+3, 2.0477042e+2, -976332.3, -1019435.0, 0.0035010946, 0.00000020928364, 0.00006810333, -976332.3, -43082.434, 0.0, 10.000001, 9.94329 
1.145e+3, 2.1471375e+2, -878045.3, -921409.8, 0.00035886958, 0.00000021157757, -0.00012679985, -878045.3, -42240.02, 0.0, 10.000001, 9.942949 
1.145e+3, 2.2465037e+2, -789759.2, -843144.8, 0.003942205, 0.00000021146334, 0.00012090465, -789759.2, -51332.914, 0.0, 10.000001, 9.929908 
1.145e+3, 2.3458035e+2, -691325.7, -744966.4, 0.0016974838, 0.00000020862173, -0.00008880134, -691325.7, -50213.15, 0.0, 10.000001, 9.929576 
1.145e+3, 2.4450338e+2, -603001.6, -667018.75, 0.003380091, 0.00000020684263, 0.000074723255, -603001.6, -59134.742, 0.0, 10.000001, 9.916136 
1.145e+3, 2.5441962e+2, -504248.94, -568343.25, -0.0016275258, 0.00000020633539, -0.000106718166, -504248.94, -57561.402, 0.0, 10.000001, 9.916036 
1.145e+3, 2.643288e+2, -416013.53, -490987.88, 0.001188118, 0.00000020614026, 0.00014061181, -416013.53, -66435.875, 0.0, 10.000001, 9.901964 
1.145e+3, 2.742313e+2, -316728.3, -391374.75, -0.000015006249, 0.0000002063391, -0.00020343403, -316728.3, -64195.324, 0.0, 10.000001, 9.902385 
1.145e+3, 2.841256e+2, -230255.06, -318081.22, 0.0028647108, 0.00000020556978, 0.00022905068, -230255.06, -74686.09, 0.0, 10.000001, 9.885438 
1.145e+3, 2.940121e+2, -130548.92, -217764.98, 0.0000011647069, 0.0000002034736, -0.00025334026, -130548.92, -71867.53, 0.0, 10.000001, 9.886217 
1.145e+3, 3.0392656e+2, -40804.914, -84750.14, 0.0008264523, 0.00000020315511, 0.00017313707, -40804.914, -40804.914, 0.0, 10.000001, 9.942172 
1.145e+3, 3.138706e+2, -39726.9, -82511.195, -0.004721345, 0.00000020548843, -0.000055143217, -39726.9, -39726.9, 0.0, 10.000001, 9.943684 
1.155e+3, 1.2499335e+2, -1719945.5, -1724224.6, 0.0037760295, 0.00000023990688, 0.000017668803, -1719945.5, -4880.3003, 0.0, 10.000001, 9.994327 
1.155e+3, 1.349876e+2, -1622565.0, -1627434.9, 0.00006982941, 0.00000022179495, -0.00006840177, -1622565.0, -5443.5054, 0.0, 10.000001, 9.993545 
1.155e+3, 1.4497514e+2, -1534463.6, -1548146.3, 0.0043993774, 0.00000021720497, 0.00007099899, -1534463.6, -15220.009, 0.0, 10.000001, 9.981864 
1.155e+3, 1.5495703e+2, -1436736.0, -1450821.9, 0.000033900298, 0.00000022611044, -0.00005693815, -1436736.0, -15314.836, 0.0, 10.000001, 9.981333 
1.155e+3, 1.6493228e+2, -1348685.0, -1371952.4, 0.0030630606, 0.00000022772723, 0.00004736971, -1348685.0, -25021.33, 0.0, 10.000001, 9.969248 
1.155e+3, 1.7490156e+2, -1250727.0, -1274310.1, -0.00051793817, 0.0000002219019, -0.000073793715, -1250727.0, -24762.31, 0.0, 10.000001, 9.968834 
1.155e+3, 1.8486421e+2, -1162646.0, -1195720.1, 0.0033008757, 0.00000021833483, 0.00006618355, -1162646.0, -34315.36, 0.0, 10.000001, 9.956395 
1.155e+3, 1.9482064e+2, -1064496.3, -1097832.9, 0.00018921639, 0.00000021713066, -0.000057624755, -1064496.3, -33738.695, 0.0, 10.000001, 9.956052 
1.155e+3, 2.0477042e+2, -976332.3, -1019435.0, 0.0027224373, 0.00000021725641, 0.0000681041, -976332.3, -43082.44, 0.0, 10.000001, 9.94329 
1.155e+3, 2.1471375e+2, -878045.3, -921409.9, -0.00043415438, 0.0000002188221, -0.00012680583, -878045.3, -42240.027, 0.0, 10.000001, 9.942949 
1.155e+3, 2.2465037e+2, -789759.2, -843144.8, 0.0040733744, 0.0000002174935, 0.000120899116, -789759.2, -51332.92, 0.0, 10.000001, 9.929908 
1.155e+3, 2.3458035e+2, -691325.7, -744966.44, 0.0018588665, 0.0000002128882, -0.00008879826, -691325.7, -50213.152, 0.0, 10.000001, 9.929576 
1.155e+3, 2.4450338e+2, -603001.6, -667018.75, 0.0035262723, 0.00000021137727, 0.00007472679, -603001.6, -59134.754, 0.0, 10.000001, 9.916136 
1.155e+3, 2.5441962e+2, -504248.97, -568343.3, -0.0014820765, 0.0000002135657, -0.00010672393, -504248.97, -57561.414, 0.0, 10.000001, 9.916036 
1.155e+3, 2.643288e+2, -416013.56, -490987.88, 0.001414703, 0.00000021376151, 0.00014060382, -416013.56, -66435.875, 0.0, 10.000001, 9.901964 
1.155e+3, 2.742313e+2, -316728.3, -391374.75, 0.00021699758, 0.00000021141248, -0.00020343518, -316728.3, -64195.324, 0.0, 10.000001, 9.902385 
1.155e+3, 2.841256e+2, -230255.06, -318081.22, 0.0032419278, 0.0000002101211, 0.00022905332, -230255.06, -74686.1, 0.0, 10.000001, 9.885438 
1.155e+3, 2.940121e+2, -130548.93, -217765.0, 0.0003914709, 0.00000021028904, -0.00025333805, -130548.93, -71867.54, 0.0, 10.000001, 9.886217 
1.155e+3, 3.0392656e+2, -40804.926, -84750.164, 0.0020016222, 0.00000020997439, 0.00017313869, -40804.926, -40804.926, 0.0, 10.000001, 9.942172 
1.155e+3, 3.138706e+2, -39726.91, -82511.22, -0.0034539904, 0.00000020893044, -0.000055142365, -39726.91, -39726.91, 0.0, 10.000001, 9.943684 
1.165e+3, 1.2499335e+2, -1719945.5, -1724224.6, 0.0010129036, 0.00000024699443, 0.000017673254, -1719945.5, -4880.2427, 0.0, 10.000001, 9.994327 
1.165e+3, 1.349876e+2, -1622565.0, -1627434.8, -0.00255976, 0.00000022845566, -0.00006839715, -1622565.0, -5443.4546, 0.0, 10.000001, 9.993545 
1.165e+3, 1.4497514e+2, -1534463.6, -1548146.3, 0.000044563174, 0.00000022363757, 0.00007100311, -1534463.6, -15219.959, 0.0, 10.000001, 9.981864 
1.165e+3, 1.5495703e+2, -1436735.9, -1450821.9, -0.0026282044, 0.00000023251538, -0.00005693626, -1436735.9, -15314.781, 0.0, 10.000001, 9.981333 
1.165e+3, 1.6493228e+2, -1348685.0, -1371952.3, 0.0023885553, 0.00000023396474, 0.000047370915, -1348685.0, -25021.273, 0.0, 10.000001, 9.969248 
1.165e+3, 1.7490156e+2, -1250726.9, -1274310.1, -0.0013923126, 0.00000022782926, -0.000073791605, -1250726.9, -24762.258, 0.0, 10.000001, 9.968834 
1.165e+3, 1.8486421e+2, -1162646.0, -1195720.0, 0.0026045921, 0.0000002246918, 0.0000661858, -1162646.0, -34315.31, 0.0, 10.000001, 9.956395 
1.165e+3, 1.9482064e+2, -1064496.3, -1097832.9, -0.0004316614, 0.00000022469138, -0.000057623172, -1064496.3, -33738.645, 0.0, 10.000001, 9.956052 
1.165e+3, 2.0477042e+2, -976332.25, -1019435.0, 0.0018230159, 0.00000022452227, 0.00006810525, -976332.25, -43082.39, 0.0, 10.000001, 9.94329 
1.165e+3, 2.1471375e+2, -878045.25, -921409.8, -0.00135048, 0.00000022417002, -0.00012680487, -878045.25, -42239.977, 0.0, 10.000001, 9.942949 
1.165e+3, 2.2465037e+2, -789759.1, -843144.8, 0.002854367, 0.00000022257997, 0.000120900564, -789759.1, -51332.87, 0.0, 10.000001, 9.929908 
1.165e+3, 2.3458035e+2, -691325.6, -744966.4, -0.0017080222, 0.0000002195888, -0.000088795554, -691325.6, -50213.1, 0.0, 10.000001, 9.929576 
1.165e+3, 2.4450338e+2, -603001.56, -667018.75, 0.00038583582, 0.00000021849266, 0.00007472895, -603001.56, -59134.703, 0.0, 10.000001, 9.916136 
1.165e+3, 2.5441962e+2, -504248.9, -568343.25, -0.00009504709, 0.00000021966133, -0.00010672447, -504248.9, -57561.363, 0.0, 10.000001, 9.916036 
1.165e+3, 2.643288e+2, -416013.5, -490987.84, 0.004023279, 0.00000021940703, 0.00014060261, -416013.5, -66435.83, 0.0, 10.000001, 9.901964 
1.165e+3, 2.742313e+2, -316728.28, -391374.75, -0.0011677357, 0.0000002173362, -0.0002034345, -316728.28, -64195.277, 0.0, 10.000001, 9.902385 
1.165e+3, 2.841256e+2, -230255.02, -318081.22, -0.00013685871, 0.00000021629951, 0.00022905513, -230255.02, -74686.055, 0.0, 10.000001, 9.885438 
1.165e+3, 2.940121e+2, -130548.88, -217764.98, -0.002642832, 0.00000021668664, -0.00025333613, -130548.88, -71867.484, 0.0, 10.000001, 9.886217 
1.165e+3, 3.0392656e+2, -40804.88, -84750.16, 0.001612154, 0.00000021617691, 0.00017313933, -40804.88, -40804.88, 0.0, 10.000001, 9.942172 
1.165e+3, 3.138706e+2, -39726.867, -82511.21, 0.0016602922, 0.0000002143233, -0.000055145134, -39726.867, -39726.867, 0.0, 10.000001, 9.943684 
1.175e+3, 1.2499335e+2, -1719945.5, -1724224.6, 0.0010705257, 0.00000024426737, 0.000017673505, -1719945.5, -4880.252, 0.0, 10.000001, 9.994327 
1.175e+3, 1.349876e+2, -1622565.0, -1627434.9, -0.0025026246, 0.00000024255425, -0.000068391724, -1622565.0, -5443.464, 0.0, 10.000001, 9.993545 
1.175e+3, 1.4497514e+2, -1534463.6, -1548146.3, -0.0011594957, 0.00000023989918, 0.00007100931, -1534463.6, -15219.966, 0.0, 10.000001, 9.981864 
1.175e+3, 1.5495703e+2, -1436735.9, -1450821.9, -0.0038343384, 0.00000023618729, -0.000056934237, -1436735.9, -15314.789, 0.0, 10.000001, 9.981333 
1.175e+3, 1.6493228e+2, -1348685.0, -1371952.4, 0.0015332912, 0.00000023449735, 0.00004737106, -1348685.0, -25021.283, 0.0, 10.000001, 9.969248 
1.175e+3, 1.7490156e+2, -1250726.9, -1274310.1, -0.0022457587, 0.00000023487178, -0.000073791, -1250726.9, -24762.266, 0.0, 10.000001, 9.968834 
1.175e+3, 1.8486421e+2, -1162646.0, -1195720.1, 0.0021021739, 0.00000023449861, 0.00006618606, -1162646.0, -34315.316, 0.0, 10.000001, 9.956395 
1.175e+3, 1.9482064e+2, -1064496.3, -1097832.9, -0.0009300452, 0.000000233343, -0.000057624093, -1064496.3, -33738.652, 0.0, 10.000001, 9.956052 
1.175e+3, 2.0477042e+2, -976332.25, -1019435.0, 0.0013980231, 0.00000023108122, 0.00006810677, -976332.25, -43082.4, 0.0, 10.000001, 9.94329 
1.175e+3, 2.1471375e+2, -878045.25, -921409.9, -0.0017739781, 0.0000002276214, -0.00012679698, -878045.25, -42239.984, 0.0, 10.000001, 9.942949 
1.175e+3, 2.2465037e+2, -789759.1, -843144.9, 0.003141441, 0.0000002267228, 0.00012090899, -789759.1, -51332.88, 0.0, 10.000001, 9.929908 
1.175e+3, 2.3458035e+2, -691325.6, -744966.44, -0.0013977094, 0.00000022872352, -0.000088793226, -691325.6, -50213.113, 0.0, 10.000001, 9.929576 
1.175e+3, 2.4450338e+2, -603001.56, -667018.75, 0.000037040165, 0.00000022818877, 0.00007472974, -603001.56, -59134.703, 0.0, 10.000001, 9.916136 
1.175e+3, 2.5441962e+2, -504248.9, -568343.25, -0.00047555516, 0.00000022462228, -0.00010671978, -504248.9, -57561.363, 0.0, 10.000001, 9.916036 
1.175e+3, 2.643288e+2, -416013.5, -490987.88, 0.0044249464, 0.00000022307681, 0.00014060816, -416013.5, -66435.84, 0.0, 10.000001, 9.901964 
1.175e+3, 2.742313e+2, -316728.28, -391374.75, -0.0007136299, 0.00000022411018, -0.00020343198, -316728.28, -64195.29, 0.0, 10.000001, 9.902385 
1.175e+3, 2.841256e+2, -230255.03, -318081.22, 0.0006044465, 0.00000022410501, 0.00022905617, -230255.03, -74686.055, 0.0, 10.000001, 9.885438 
1.175e+3, 2.940121e+2, -130548.89, -217765.0, -0.001875656, 0.0000002226664, -0.00025333444, -130548.89, -71867.49, 0.0, 10.000001, 9.886217 
1.175e+3, 3.0392656e+2, -40804.88, -84750.16, 0.0019878694, 0.00000022176269, 0.00017313898, -40804.88, -40804.88, 0.0, 10.000001, 9.942172 
1.175e+3, 3.138706e+2, -39726.867, -82511.21, 0.0019900696, 0.00000022166697, -0.000055151522, -39726.867, -39726.867, 0.0, 10.000001, 9.943684 
1.185e+3, 1.2499335e+2, -1719945.4, -1724224.6, 0.005398984, 0.00000024809734, 0.000017674705, -1719945.4, -4880.186, 0.0, 10.000001, 9.994327 
1.185e+3, 1.349876e+2, -1622564.9, -1627434.8, 0.0011713218, 0.0000002514714, -0.000068390385, -1622564.9, -5443.411, 0.0, 10.000001, 9.993545 
1.185e+3, 1.4497514e+2, -1534463.5, -1548146.3, 0.002448326, 0.0000002499865, 0.00007101067, -1534463.5, -15219.916, 0.0, 10.000001, 9.981864 
1.185e+3, 1.5495703e+2, -1436735.9, -1450821.9, -0.0011688513, 0.0000002435049, -0.000056932866, -1436735.9, -15314.734, 0.0, 10.000001, 9.981333 
1.185e+3, 1.6493228e+2, -1348684.9, -1371952.3, 0.0038011773, 0.0000002404693, 0.00004737208, -1348684.9, -25021.229, 0.0, 10.000001, 9.969248 
1.185e+3, 1.7490156e+2, -1250726.9, -1274310.1, 0.00025417606, 0.00000024095206, -0.00007379069, -1250726.9, -24762.21, 0.0, 10.000001, 9.968834 
1.185e+3, 1.8486421e+2, -1162645.9, -1195720.0, 0.0040373215, 0.00000024118944, 0.00006618639, -1162645.9, -34315.26, 0.0, 10.000001, 9.956395 
1.185e+3, 1.9482064e+2, -1064496.1, -1097832.9, -0.000054659147, 0.00000024116986, -0.000057623, -1064496.1, -33738.6, 0.0, 10.000001, 9.956052 
1.185e+3, 2.0477042e+2, -976332.2, -1019435.0, 0.0025688147, 0.00000023848753, 0.00006810833, -976332.2, -43082.344, 0.0, 10.000001, 9.94329 
1.185e+3, 2.1471375e+2, -878045.2, -921409.8, -0.001591397, 0.00000023292132, -0.00012679525, -878045.2, -42239.926, 0.0, 10.000001, 9.942949 
1.185e+3, 2.2465037e+2, -789759.06, -843144.8, 0.0026325039, 0.00000023200191, 0.00012090996, -789759.06, -51332.82, 0.0, 10.000001, 9.929908 
1.185e+3, 2.3458035e+2, -691325.56, -744966.44, 0.00073603744, 0.00000023634308, -0.00008879405, -691325.56, -50213.066, 0.0, 10.000001, 9.929576 
1.185e+3, 2.4450338e+2, -603001.5, -667018.75, 0.0027953242, 0.00000023621372, 0.00007472933, -603001.5, -59134.66, 0.0, 10.000001, 9.916136 
1.185e+3, 2.5441962e+2, -504248.84, -568343.25, -0.0031902879, 0.00000023073875, -0.00010671712, -504248.84, -57561.31, 0.0, 10.000001, 9.916036 
1.185e+3, 2.643288e+2, -416013.47, -490987.84, -0.00032219704, 0.00000022846717, 0.00014061129, -416013.47, -66435.78, 0.0, 10.000001, 9.901964 
1.185e+3, 2.742313e+2, -316728.22, -391374.75, -0.0013458655, 0.00000023028466, -0.00020343167, -316728.22, -64195.234, 0.0, 10.000001, 9.902385 
1.185e+3, 2.841256e+2, -230254.97, -318081.22, 0.0023235567, 0.0000002308351, 0.00022905527, -230254.97, -74686.01, 0.0, 10.000001, 9.885438 
1.185e+3, 2.940121e+2, -130548.84, -217764.98, -0.0012754513, 0.00000022963226, -0.00025333432, -130548.84, -71867.445, 0.0, 10.000001, 9.886217 
1.185e+3, 3.0392656e+2, -40804.832, -84750.14, 0.0005900453, 0.00000022851499, 0.00017314019, -40804.832, -40804.832, 0.0, 10.000001, 9.942172 
1.185e+3, 3.138706e+2, -39726.813, -82511.195, -0.004204451, 0.00000022754149, -0.000055149132, -39726.813, -39726.813, 0.0, 10.000001, 9.943684 
1.195e+3, 1.2499335e+2, -1719945.4, -1724224.6, 0.002490085, 0.00000025848428, 0.000017676854, -1719945.4, -4880.1973, 0.0, 10.000001, 9.994327 
1.195e+3, 1.349876e+2, -1622565.0, -1627434.9, -0.0017388642, 0.00000025520708, -0.00006839313, -1622565.0, -5443.422, 0.0, 10.000001, 9.993545 
1.195e+3, 1.4497514e+2, -1534463.5, -1548146.3, 0.0022420897, 0.00000025389963, 0.0000710072, -1534463.5, -15219.925, 0.0, 10.000001, 9.981864 
1.195e+3, 1.5495703e+2, -1436735.9, -1450821.9, -0.0013708557, 0.00000025446812, -0.000056932153, -1436735.9, -15314.743, 0.0, 10.000001, 9.981333 
1.195e+3, 1.6493228e+2, -1348684.9, -1371952.4, 0.0031631347, 0.00000025188055, 0.000047373975, -1348684.9, -25021.236, 0.0, 10.000001, 9.969248 
1.195e+3, 1.7490156e+2, -1250726.9, -1274310.1, -0.0003862033, 0.00000024607013, -0.00007379068, -1250726.9, -24762.219, 0.0, 10.000001, 9.968834 
1.195e+3, 1.8486421e+2, -1162645.9, -1195720.1, 0.0026960117, 0.0000002447643, 0.00006618676, -1162645.9, -34315.273, 0.0, 10.000001, 9.956395 
1.195e+3, 1.9482064e+2, -1064496.3, -1097832.9, -0.0014041017, 0.00000024817192, -0.0000576199, -1064496.3, -33738.61, 0.0, 10.000001, 9.956052 
1.195e+3, 2.0477042e+2, -976332.25, -1019435.0, 0.0038056045, 0.00000024674117, 0.00006810994, -976332.25, -43082.355, 0.0, 10.000001, 9.94329 
1.195e+3, 2.1471375e+2, -878045.2, -921409.8, -0.00030120113, 0.0000002400698, -0.0001267997, -878045.2, -42239.934, 0.0, 10.000001, 9.942949 
1.195e+3, 2.2465037e+2, -789759.06, -843144.8, 0.0003894512, 0.00000023841726, 0.000120903474, -789759.06, -51332.83, 0.0, 10.000001, 9.929908 
1.195e+3, 2.3458035e+2, -691325.6, -744966.44, -0.001622637, 0.00000024244747, -0.00008879803, -691325.6, -50213.07, 0.0, 10.000001, 9.929576 
1.195e+3, 2.4450338e+2, -603001.56, -667018.75, 0.00445209, 0.00000024256752, 0.00007472774, -603001.56, -59134.67, 0.0, 10.000001, 9.916136 
1.195e+3, 2.5441962e+2, -504248.88, -568343.3, -0.0013405685, 0.0000002380107, -0.00010671648, -504248.88, -57561.324, 0.0, 10.000001, 9.916036 
1.195e+3, 2.643288e+2, -416013.47, -490987.88, -0.0007175211, 0.0000002355781, 0.00014061201, -416013.47, -66435.79, 0.0, 10.000001, 9.901964 
1.195e+3, 2.742313e+2, -316728.25, -391374.75, -0.0018917457, 0.00000023585963, -0.00020343358, -316728.25, -64195.24, 0.0, 10.000001, 9.902385 
1.195e+3, 2.841256e+2, -230254.98, -318081.22, 0.0023242256, 0.00000023648977, 0.00022905241, -230254.98, -74686.016, 0.0, 10.000001, 9.885438 
1.195e+3, 2.940121e+2, -130548.85, -217765.0, -0.0012255472, 0.00000023758423, -0.00025333578, -130548.85, -71867.45, 0.0, 10.000001, 9.886217 
1.195e+3, 3.0392656e+2, -40804.84, -84750.164, 0.002355097, 0.0000002364338, 0.00017314295, -40804.84, -40804.84, 0.0, 10.000001, 9.942172 
1.195e+3, 3.138706e+2, -39726.824, -82511.21, -0.002238017, 0.00000023194688, -0.00005513796, -39726.824, -39726.824, 0.0, 10.000001, 9.943684 
1.205e+3, 1.2499335e+2, -1719945.4, -1724224.6, 0.0024231342, 0.00000026567642, 0.000017678176, -1719945.4, -4880.1387, 0.0, 10.000001, 9.994327 
1.205e+3, 1.349876e+2, -1622564.9, -1627434.8, -0.0017526759, 0.0000002628367, -0.00006839231, -1622564.9, -5443.3594, 0.0, 10.000001, 9.993545 
1.205e+3, 1.4497514e+2, -1534463.5, -1548146.3, 0.0035174508, 0.00000026150266, 0.00007100772, -1534463.5, -15219.862, 0.0, 10.000001, 9.981864 
1.205e+3, 1.5495703e+2, -1436735.8, -1450821.9, -0.0008567379, 0.00000026157957, -0.00005693027, -1436735.8, -15314.685, 0.0, 10.000001, 9.981333 
1.205e+3, 1.6493228e+2, -1348684.9, -1371952.3, 0.0031396141, 0.00000025916776, 0.00004737641, -1348684.9, -25021.18, 0.0, 10.000001, 9.969248 
1.205e+3, 1.7490156e+2, -1250726.9, -1274310.1, -0.0010612193, 0.0000002542145, -0.000073788535, -1250726.9, -24762.162, 0.0, 10.000001, 9.968834 
1.205e+3, 1.8486421e+2, -1162645.9, -1195720.0, 0.0014786794, 0.00000025219086, 0.00006618865, -1162645.9, -34315.21, 0.0, 10.000001, 9.956395 
1.205e+3, 1.9482064e+2, -1064496.1, -1097832.9, -0.002445789, 0.00000025323254, -0.000057618236, -1064496.1, -33738.547, 0.0, 10.000001, 9.956052 
1.205e+3, 2.0477042e+2, -976332.2, -1019434.94, 0.004155, 0.0000002524394, 0.0000681112, -976332.2, -43082.297, 0.0, 10.000001, 9.94329 
1.205e+3, 2.1471375e+2, -878045.1, -921409.8, 0.0015556492, 0.00000024965868, -0.00012679904, -878045.1, -42239.887, 0.0, 10.000001, 9.942949 
1.205e+3, 2.2465037e+2, -789759.06, -843144.8, 0.0015067531, 0.0000002478589, 0.000120904224, -789759.06, -51332.777, 0.0, 10.000001, 9.929908 
1.205e+3, 2.3458035e+2, -691325.5, -744966.4, -0.003784572, 0.0000002471701, -0.000088796354, -691325.5, -50213.004, 0.0, 10.000001, 9.929576 
1.205e+3, 2.4450338e+2, -603001.5, -667018.75, 0.00272608, 0.00000024650433, 0.00007472917, -603001.5, -59134.605, 0.0, 10.000001, 9.916136 
1.205e+3, 2.5441962e+2, -504248.8, -568343.25, 0.0013009339, 0.0000002458646, -0.000106716674, -504248.8, -57561.27, 0.0, 10.000001, 9.916036 
1.205e+3, 2.643288e+2, -416013.4, -490987.84, 0.0029596009, 0.0000002446456, 0.0001406114, -416013.4, -66435.74, 0.0, 10.000001, 9.901964 
1.205e+3, 2.742313e+2, -316728.2, -391374.75, -0.0020451217, 0.00000024268908, -0.00020343304, -316728.2, -64195.184, 0.0, 10.000001, 9.902385 
1.205e+3, 2.841256e+2, -230254.92, -318081.22, 0.00011658991, 0.00000024208026, 0.00022905353, -230254.92, -74685.96, 0.0, 10.000001, 9.885438 
1.205e+3, 2.940121e+2, -130548.79, -217764.98, -0.0032488967, 0.0000002433192, -0.0002533349, -130548.79, -71867.39, 0.0, 10.000001, 9.886217 
1.205e+3, 3.0392656e+2, -40804.785, -84750.15, 0.0020117282, 0.00000024278643, 0.00017314326, -40804.785, -40804.785, 0.0, 10.000001, 9.942172 
1.205e+3, 3.138706e+2, -39726.777, -82511.2, 0.0005961384, 0.000000239607, -0.000055138746, -39726.777, -39726.777, 0.0, 10.000001, 9.943684 
1.215e+3, 1.2499335e+2, -1719945.4, -1724224.6, 0.00061138, 0.0000002696738, 0.00001767867, -1719945.4, -4880.15, 0.0, 10.000001, 9.994327 
1.215e+3, 1.349876e+2, -1622564.9, -1627434.9, -0.0035655487, 0.00000027436022, -0.00006838793, -1622564.9, -5443.37, 0.0, 10.000001, 9.993545 
1.215e+3, 1.4497514e+2, -1534463.5, -1548146.3, 0.0022752478, 0.00000027279557, 0.00007101224, -1534463.5, -15219.873, 0.0, 10.000001, 9.981864 
1.215e+3, 1.5495703e+2, -1436735.9, -1450821.9, -0.0020980798, 0.0000002648393, -0.00005692721, -1436735.9, -15314.695, 0.0, 10.000001, 9.981333 
1.215e+3, 1.6493228e+2, -1348684.9, -1371952.4, 0.0026723621, 0.00000026233099, 0.00004737938, -1348684.9, -25021.19, 0.0, 10.000001, 9.969248 
1.215e+3, 1.7490156e+2, -1250726.9, -1274310.1, -0.0015243997, 0.0000002653852, -0.00007378425, -1250726.9, -24762.172, 0.0, 10.000001, 9.968834 
1.215e+3, 1.8486421e+2, -1162645.9, -1195720.0, 0.0011262088, 0.0000002634691, 0.00006619206, -1162645.9, -34315.223, 0.0, 10.000001, 9.956395 
1.215e+3, 1.9482064e+2, -1064496.1, -1097832.9, -0.002796994, 0.0000002563517, -0.000057618003, -1064496.1, -33738.555, 0.0, 10.000001, 9.956052 
1.215e+3, 2.0477042e+2, -976332.2, -1019435.0, 0.0023782412, 0.00000025558222, 0.00006811211, -976332.2, -43082.3, 0.0, 10.000001, 9.94329 
1.215e+3, 2.1471375e+2, -878045.2, -921409.8, -0.00025057376, 0.00000026168794, -0.00012679331, -878045.2, -42239.895, 0.0, 10.000001, 9.942949 
1.215e+3, 2.2465037e+2, -789759.06, -843144.9, 0.003227252, 0.0000002603268, 0.00012091223, -789759.06, -51332.79, 0.0, 10.000001, 9.929908 
1.215e+3, 2.3458035e+2, -691325.56, -744966.44, -0.0019487082, 0.00000025051096, -0.00008878901, -691325.56, -50213.016, 0.0, 10.000001, 9.929576 
1.215e+3, 2.4450338e+2, -603001.5, -667018.75, 0.001040954, 0.00000024802418, 0.000074733645, -603001.5, -59134.61, 0.0, 10.000001, 9.916136 
1.215e+3, 2.5441962e+2, -504248.8, -568343.25, -0.00055343803, 0.00000025430046, -0.000106717715, -504248.8, -57561.273, 0.0, 10.000001, 9.916036 
1.215e+3, 2.643288e+2, -416013.4, -490987.88, 0.0038927493, 0.00000025566968, 0.00014060945, -416013.4, -66435.75, 0.0, 10.000001, 9.901964 
1.215e+3, 2.742313e+2, -316728.2, -391374.75, -0.0009251109, 0.00000025077304, -0.00020343006, -316728.2, -64195.195, 0.0, 10.000001, 9.902385 
1.215e+3, 2.841256e+2, -230254.94, -318081.22, 0.0009183572, 0.00000024760664, 0.0002290586, -230254.94, -74685.96, 0.0, 10.000001, 9.885438 
1.215e+3, 2.940121e+2, -130548.8, -217765.0, -0.0024758335, 0.00000024683717, -0.00025333167, -130548.8, -71867.4, 0.0, 10.000001, 9.886217 
1.215e+3, 3.0392656e+2, -40804.79, -84750.16, 0.0016203646, 0.00000024757284, 0.0001731411, -40804.79, -40804.79, 0.0, 10.000001, 9.942172 
1.215e+3, 3.138706e+2, -39726.78, -82511.21, 0.00006808161, 0.00000025052182, -0.000055151486, -39726.78, -39726.78, 0.0, 10.000001, 9.943684 
1.225e+3, 1.2499335e+2, -1719945.3, -1724224.6, 0.0038537122, 0.00000027929278, 0.000017680386, -1719945.3, -4880.086, 0.0, 10.000001, 9.994327 
1.225e+3, 1.349876e+2, -1622564.9, -1627434.8, -0.00061031594, 0.0000002817356, -0.00006838656, -1622564.9, -5443.307, 0.0, 10.000001, 9.993545 
1.225e+3, 1.4497514e+2, -1534463.4, -1548146.3, 0.0057778955, 0.00000027913075, 0.00007101266, -1534463.4, -15219.81, 0.0, 10.000001, 9.981864 
1.225e+3, 1.5495703e+2, -1436735.8, -1450821.9, 0.00029679536, 0.0000002713474, -0.000056925433, -1436735.8, -15314.628, 0.0, 10.000001, 9.981333 
1.225e+3, 1.6493228e+2, -1348684.8, -1371952.3, 0.003848125, 0.00000026945784, 0.000047381574, -1348684.8, -25021.121, 0.0, 10.000001, 9.969248 
1.225e+3, 1.7490156e+2, -1250726.8, -1274310.1, -0.00031312334, 0.00000027358598, -0.0000737826, -1250726.8, -24762.111, 0.0, 10.000001, 9.968834 
1.225e+3, 1.8486421e+2, -1162645.9, -1195720.0, 0.0034833304, 0.00000027178277, 0.00006619328, -1162645.9, -34315.164, 0.0, 10.000001, 9.956395 
1.225e+3, 1.9482064e+2, -1064496.1, -1097832.9, -0.0005181695, 0.00000026377265, -0.000057617104, -1064496.1, -33738.496, 0.0, 10.000001, 9.956052 
1.225e+3, 2.0477042e+2, -976332.1, -1019434.94, 0.002110039, 0.0000002624743, 0.00006811333, -976332.1, -43082.24, 0.0, 10.000001, 9.94329 
1.225e+3, 2.1471375e+2, -878045.06, -921409.8, -0.0036011613, 0.00000026844538, -0.00012679106, -878045.06, -42239.83, 0.0, 10.000001, 9.942949 
1.225e+3, 2.2465037e+2, -789759.0, -843144.8, 0.0013183397, 0.0000002674699, 0.00012091453, -789759.0, -51332.727, 0.0, 10.000001, 9.929907 
1.225e+3, 2.3458035e+2, -691325.5, -744966.4, -0.0007395976, 0.00000025862855, -0.0000887878, -691325.5, -50212.965, 0.0, 10.000001, 9.929576 
1.225e+3, 2.4450338e+2, -603001.44, -667018.75, 0.0012154381, 0.0000002561044, 0.00007473454, -603001.44, -59134.56, 0.0, 10.000001, 9.916136 
1.225e+3, 2.5441962e+2, -504248.75, -568343.25, -0.0041091256, 0.00000026113412, -0.000106716216, -504248.75, -57561.215, 0.0, 10.000001, 9.916036 
1.225e+3, 2.643288e+2, -416013.34, -490987.84, 0.00042093947, 0.00000026208497, 0.00014061104, -416013.34, -66435.69, 0.0, 10.000001, 9.901964 
1.225e+3, 2.742313e+2, -316728.13, -391374.75, -0.0018167186, 0.00000025782685, -0.00020342904, -316728.13, -64195.137, 0.0, 10.000001, 9.902385 
1.225e+3, 2.841256e+2, -230254.88, -318081.22, 0.0015037141, 0.00000025510076, 0.00022905915, -230254.88, -74685.91, 0.0, 10.000001, 9.885438 
1.225e+3, 2.940121e+2, -130548.74, -217764.98, -0.0016971071, 0.0000002544955, -0.00025333144, -130548.74, -71867.35, 0.0, 10.000001, 9.886217 
1.225e+3, 3.0392656e+2, -40804.74, -84750.14, 0.0015923519, 0.00000025497002, 0.00017314113, -40804.74, -40804.74, 0.0, 10.000001, 9.942172 
1.225e+3, 3.138706e+2, -39726.72, -82511.195, -0.0021448964, 0.00000025702903, -0.000055151395, -39726.72, -39726.72, 0.0, 10.000001, 9.943684 
1.235e+3, 1.2499335e+2, -1719945.3, -1724224.6, 0.0018702387, 0.00000029453335, 0.000017683322, -1719945.3, -4880.098, 0.0, 10.000001, 9.994327 
1.235e+3, 1.349876e+2, -1622564.9, -1627434.9, -0.0025949588, 0.0000002849629, -0.000068388166, -1622564.9, -5443.319, 0.0, 10.000001, 9.993545 
1.235e+3, 1.4497514e+2, -1534463.5, -1548146.3, 0.005689537, 0.00000028050823, 0.00007100898, -1534463.5, -15219.823, 0.0, 10.000001, 9.981864 
1.235e+3, 1.5495703e+2, -1436735.8, -1450821.9, 0.00021143872, 0.00000028110392, -0.000056924935, -1436735.8, -15314.641, 0.0, 10.000001, 9.981333 
1.235e+3, 1.6493228e+2, -1348684.8, -1371952.3, 0.001621514, 0.00000028054825, 0.000047382997, -1348684.8, -25021.133, 0.0, 10.000001, 9.969248 
1.235e+3, 1.7490156e+2, -1250726.8, -1274310.1, -0.0025510492, 0.0000002788169, -0.000073783565, -1250726.8, -24762.121, 0.0, 10.000001, 9.968834 
1.235e+3, 1.8486421e+2, -1162645.9, -1195720.0, 0.003463518, 0.00000027713193, 0.00006619232, -1162645.9, -34315.176, 0.0, 10.000001, 9.956395 
1.235e+3, 1.9482064e+2, -1064496.1, -1097832.9, -0.00051229703, 0.00000027549527, -0.000057615543, -1064496.1, -33738.508, 0.0, 10.000001, 9.956052 
1.235e+3, 2.0477042e+2, -976332.1, -1019435.0, 0.0014694538, 0.0000002731156, 0.000068114874, -976332.1, -43082.254, 0.0, 10.000001, 9.94329 
1.235e+3, 2.1471375e+2, -878045.1, -921409.9, -0.0042550894, 0.00000026993098, -0.00012679228, -878045.1, -42239.84, 0.0, 10.000001, 9.942949 
1.235e+3, 2.2465037e+2, -789759.0, -843144.8, 0.00041689744, 0.00000026928822, 0.00012091112, -789759.0, -51332.73, 0.0, 10.000001, 9.929907 
1.235e+3, 2.3458035e+2, -691325.5, -744966.44, -0.0016491666, 0.00000027152277, -0.000088792716, -691325.5, -50212.97, 0.0, 10.000001, 9.929576 
1.235e+3, 2.4450338e+2, -603001.44, -667018.75, 0.0017593765, 0.0000002707449, 0.000074731855, -603001.44, -59134.57, 0.0, 10.000001, 9.916136 
1.235e+3, 2.5441962e+2, -504248.78, -568343.3, -0.0034953768, 0.00000026636556, -0.00010671219, -504248.78, -57561.227, 0.0, 10.000001, 9.916036 
1.235e+3, 2.643288e+2, -416013.38, -490987.88, 0.00036471785, 0.00000026389154, 0.00014061616, -416013.38, -66435.695, 0.0, 10.000001, 9.901964 
1.235e+3, 2.742313e+2, -316728.13, -391374.75, -0.0019179079, 0.0000002638505, -0.00020342998, -316728.13, -64195.14, 0.0, 10.000001, 9.902385 
1.235e+3, 2.841256e+2, -230254.89, -318081.22, 0.001593143, 0.00000026456266, 0.00022905518, -230254.89, -74685.914, 0.0, 10.000001, 9.885438 
1.235e+3, 2.940121e+2, -130548.75, -217765.0, -0.001590546, 0.00000026629405, -0.00025333423, -130548.75, -71867.36, 0.0, 10.000001, 9.886217 
1.235e+3, 3.0392656e+2, -40804.746, -84750.16, 0.0027877865, 0.00000026497784, 0.00017314337, -40804.746, -40804.746, 0.0, 10.000001, 9.942172 
1.235e+3, 3.138706e+2, -39726.73, -82511.21, -0.0008216377, 0.00000025912863, -0.000055138473, -39726.73, -39726.73, 0.0, 10.000001, 9.943684 
1.245e+3, 1.2499335e+2, -1719945.3, -1724224.6, 0.0005976469, 0.00000030526755, 0.00001768648, -1719945.3, -4880.038, 0.0, 10.000001, 9.994327 
1.245e+3, 1.349876e+2, -1622564.8, -1627434.8, -0.00431659, 0.00000029131746, -0.00006838244, -1622564.8, -5443.2437, 0.0, 10.000001, 9.993545 
1.245e+3, 1.4497514e+2, -1534463.4, -1548146.3, 0.0030249313, 0.0000002862954, 0.000071012844, -1534463.4, -15219.747, 0.0, 10.000001, 9.981864 
1.245e+3, 1.5495703e+2, -1436735.8, -1450821.9, -0.0008092132, 0.0000002901625, -0.00005692276, -1436735.8, -15314.579, 0.0, 10.000001, 9.981333 
1.245e+3, 1.6493228e+2, -1348684.8, -1371952.3, 0.0016346725, 0.00000029007373, 0.00004738456, -1348684.8, -25021.072, 0.0, 10.000001, 9.969248 
1.245e+3, 1.7490156e+2, -1250726.8, -1274310.1, -0.0030710045, 0.00000028594576, -0.000073781506, -1250726.8, -24762.053, 0.0, 10.000001, 9.968834 
1.245e+3, 1.8486421e+2, -1162645.8, -1195720.0, 0.0029303348, 0.00000028392768, 0.00006619466, -1162645.8, -34315.105, 0.0, 10.000001, 9.956395 
1.245e+3, 1.9482064e+2, -1064496.0, -1097832.9, -0.0016085521, 0.00000028411714, -0.000057613128, -1064496.0, -33738.44, 0.0, 10.000001, 9.956052 
1.245e+3, 2.0477042e+2, -976332.06, -1019434.94, 0.0017131913, 0.00000028197724, 0.00006811656, -976332.06, -43082.19, 0.0, 10.000001, 9.94329 
1.245e+3, 2.1471375e+2, -878045.06, -921409.8, -0.0005808774, 0.00000027731414, -0.00012679218, -878045.06, -42239.78, 0.0, 10.000001, 9.942949 
1.245e+3, 2.2465037e+2, -789758.94, -843144.8, 0.0043374966, 0.00000027626908, 0.000120910954, -789758.94, -51332.668, 0.0, 10.000001, 9.929907 
1.245e+3, 2.3458035e+2, -691325.44, -744966.4, -0.0016127372, 0.00000027932015, -0.00008879163, -691325.44, -50212.902, 0.0, 10.000001, 9.929576 
1.245e+3, 2.4450338e+2, -603001.4, -667018.75, 0.0012854825, 0.00000027878968, 0.00007473325, -603001.4, -59134.504, 0.0, 10.000001, 9.916136 
1.245e+3, 2.5441962e+2, -504248.72, -568343.25, -0.0013513191, 0.0000002739767, -0.0001067116, -504248.72, -57561.164, 0.0, 10.000001, 9.916036 
1.245e+3, 2.643288e+2, -416013.3, -490987.84, 0.0029587094, 0.00000027138015, 0.00014061645, -416013.3, -66435.63, 0.0, 10.000001, 9.901964 
1.245e+3, 2.742313e+2, -316728.1, -391374.72, -0.0016375256, 0.00000027161417, -0.00020342936, -316728.1, -64195.082, 0.0, 10.000001, 9.902385 
1.245e+3, 2.841256e+2, -230254.83, -318081.22, 0.00069391646, 0.00000027231744, 0.00022905589, -230254.83, -74685.86, 0.0, 10.000001, 9.885438 
1.245e+3, 2.940121e+2, -130548.69, -217764.98, -0.0031906452, 0.00000027364948, -0.0002533338, -130548.69, -71867.29, 0.0, 10.000001, 9.886217 
1.245e+3, 3.0392656e+2, -40804.684, -84750.14, 0.0009876991, 0.0000002722113, 0.00017314388, -40804.684, -40804.684, 0.0, 10.000001, 9.942172 
1.245e+3, 3.138706e+2, -39726.67, -82511.195, -0.0022392415, 0.00000026665572, -0.0000551374, -39726.67, -39726.67, 0.0, 10.000001, 9.943684 
1.255e+3, 1.2499335e+2, -1719945.3, -1724224.6, 0.002284352, 0.00000031149537, 0.000017689865, -1719945.3, -4880.051, 0.0, 10.000001, 9.994327 
1.255e+3, 1.349876e+2, -1622564.8, -1627434.9, -0.0026303614, 0.0000003007992, -0.00006836937, -1622564.8, -5443.2563, 0.0, 10.000001, 9.993545 
1.255e+3, 1.4497514e+2, -1534463.4, -1548146.3, -0.00025439946, 0.00000029649215, 0.00007102426, -1534463.4, -15219.757, 0.0, 10.000001, 9.981864 
1.255e+3, 1.5495703e+2, -1436735.8, -1450821.9, -0.0040964093, 0.00000029852308, -0.000056918903, -1436735.8, -15314.589, 0.0, 10.000001, 9.981333 
1.255e+3, 1.6493228e+2, -1348684.8, -1371952.3, 0.001415512, 0.00000029803428, 0.00004738627, -1348684.8, -25021.084, 0.0, 10.000001, 9.969248 
1.255e+3, 1.7490156e+2, -1250726.8, -1274310.1, -0.0032739684, 0.00000029497252, -0.00007377642, -1250726.8, -24762.064, 0.0, 10.000001, 9.968834 
1.255e+3, 1.8486421e+2, -1162645.8, -1195720.0, 0.001584838, 0.00000029216997, 0.00006620031, -1162645.8, -34315.113, 0.0, 10.000001, 9.956395 
1.255e+3, 1.9482064e+2, -1064496.0, -1097832.9, -0.0029672652, 0.0000002896383, -0.000057609865, -1064496.0, -33738.453, 0.0, 10.000001, 9.956052 
1.255e+3, 2.0477042e+2, -976332.06, -1019435.0, 0.0009829806, 0.00000028905927, 0.00006811839, -976332.06, -43082.2, 0.0, 10.000001, 9.94329 
1.255e+3, 2.1471375e+2, -878045.06, -921409.8, -0.0012981067, 0.00000029059478, -0.00012679078, -878045.06, -42239.785, 0.0, 10.000001, 9.942949 
1.255e+3, 2.2465037e+2, -789758.94, -843144.8, 0.004335535, 0.0000002884124, 0.000120914025, -789758.94, -51332.684, 0.0, 10.000001, 9.929907 
1.255e+3, 2.3458035e+2, -691325.44, -744966.44, -0.0015913107, 0.0000002820207, -0.000088784545, -691325.44, -50212.914, 0.0, 10.000001, 9.929576 
1.255e+3, 2.4450338e+2, -603001.4, -667018.75, 0.00071523525, 0.00000028023882, 0.00007473873, -603001.4, -59134.51, 0.0, 10.000001, 9.916136 
1.255e+3, 2.5441962e+2, -504248.72, -568343.25, -0.0019500538, 0.00000028396747, -0.000106714455, -504248.72, -57561.17, 0.0, 10.000001, 9.916036 
1.255e+3, 2.643288e+2, -416013.3, -490987.88, 0.0030290408, 0.00000028455068, 0.0001406119, -416013.3, -66435.64, 0.0, 10.000001, 9.901964 
1.255e+3, 2.742313e+2, -316728.1, -391374.75, -0.0015224032, 0.0000002811178, -0.00020342715, -316728.1, -64195.094, 0.0, 10.000001, 9.902385 
1.255e+3, 2.841256e+2, -230254.83, -318081.22, 0.0015790304, 0.00000027836515, 0.00022906129, -230254.83, -74685.87, 0.0, 10.000001, 9.885438 
1.255e+3, 2.940121e+2, -130548.695, -217765.0, -0.0022362196, 0.0000002765618, -0.00025333013, -130548.695, -71867.305, 0.0, 10.000001, 9.886217 
1.255e+3, 3.0392656e+2, -40804.69, -84750.16, 0.000977529, 0.00000027667042, 0.00017314265, -40804.69, -40804.69, 0.0, 10.000001, 9.942172 
1.255e+3, 3.138706e+2, -39726.68, -82511.21, -0.002362678, 0.0000002796102, -0.00005514818, -39726.68, -39726.68, 0.0, 10.000001, 9.943684 
1.265e+3, 1.2499335e+2, -1719945.1, -1724224.6, 0.0051839957, 0.0000003172572, 0.000017692904, -1719945.1, -4879.963, 0.0, 10.000001, 9.994327 
1.265e+3, 1.349876e+2, -1622564.8, -1627434.8, -0.000118629054, 0.0000003108468, -0.00006836582, -1622564.8, -5443.193, 0.0, 10.000001, 9.993545 
1.265e+3, 1.4497514e+2, -1534463.3, -1548146.1, 0.0011964618, 0.0000003076463, 0.00007102545, -1534463.3, -15219.697, 0.0, 10.000001, 9.981864 
1.265e+3, 1.5495703e+2, -1436735.6, -1450821.9, -0.0032730203, 0.00000030758864, -0.000056916484, -1436735.6, -15314.516, 0.0, 10.000001, 9.981333 
1.265e+3, 1.6493228e+2, -1348684.6, -1371952.3, 0.0027236743, 0.00000030597016, 0.000047388916, -1348684.6, -25021.01, 0.0, 10.000001, 9.969248 
1.265e+3, 1.7490156e+2, -1250726.6, -1274310.1, -0.0018851468, 0.00000030275774, -0.00007377458, -1250726.6, -24761.996, 0.0, 10.000001, 9.968834 
1.265e+3, 1.8486421e+2, -1162645.8, -1195720.0, 0.002949505, 0.00000030037899, 0.00006620161, -1162645.8, -34315.05, 0.0, 10.000001, 9.956395 
1.265e+3, 1.9482064e+2, -1064496.0, -1097832.9, -0.001239626, 0.00000029887227, -0.000057608824, -1064496.0, -33738.387, 0.0, 10.000001, 9.956052 
1.265e+3, 2.0477042e+2, -976332.0, -1019434.94, 0.0016208262, 0.0000002980925, 0.000068119916, -976332.0, -43082.13, 0.0, 10.000001, 9.94329 
1.265e+3, 2.1471375e+2, -878045.0, -921409.8, -0.0048909574, 0.0000002980998, -0.00012678793, -878045.0, -42239.715, 0.0, 10.000001, 9.942949 
1.265e+3, 2.2465037e+2, -789758.9, -843144.8, -0.00003602666, 0.00000029572803, 0.00012091687, -789758.9, -51332.613, 0.0, 10.000001, 9.929907 
1.265e+3, 2.3458035e+2, -691325.4, -744966.4, -0.002483235, 0.0000002906628, -0.00008878318, -691325.4, -50212.85, 0.0, 10.000001, 9.929576 
1.265e+3, 2.4450338e+2, -603001.3, -667018.75, 0.0010501173, 0.0000002891336, 0.00007473955, -603001.3, -59134.445, 0.0, 10.000001, 9.916136 
1.265e+3, 2.5441962e+2, -504248.66, -568343.25, -0.004076962, 0.00000029183073, -0.00010671306, -504248.66, -57561.105, 0.0, 10.000001, 9.916036 
1.265e+3, 2.643288e+2, -416013.25, -490987.84, 0.00006407701, 0.00000029198267, 0.00014061344, -416013.25, -66435.58, 0.0, 10.000001, 9.901964 
1.265e+3, 2.742313e+2, -316728.03, -391374.75, -0.003356784, 0.00000028888545, -0.00020342604, -316728.03, -64195.027, 0.0, 10.000001, 9.902385 
1.265e+3, 2.841256e+2, -230254.77, -318081.22, 0.0011381485, 0.00000028649882, 0.00022906225, -230254.77, -74685.805, 0.0, 10.000001, 9.885438 
1.265e+3, 2.940121e+2, -130548.64, -217764.98, -0.0021685713, 0.0000002850995, -0.00025332894, -130548.64, -71867.24, 0.0, 10.000001, 9.886217 
1.265e+3, 3.0392656e+2, -40804.633, -84750.14, 0.001458659, 0.00000028499977, 0.00017314339, -40804.633, -40804.633, 0.0, 10.000001, 9.942172 
1.265e+3, 3.138706e+2, -39726.617, -82511.195, -0.001564953, 0.00000028682163, -0.000055148863, -39726.617, -39726.617, 0.0, 10.000001, 9.943684 
1.275e+3, 1.2499335e+2, -1719945.1, -1724224.6, 0.0011619972, 0.000000322553, 0.0000176956, -1719945.1, -4879.977, 0.0, 10.000001, 9.994327 
1.275e+3, 1.349876e+2, -1622564.8, -1627434.9, -0.0041424767, 0.00000032146022, -0.0000683718, -1622564.8, -5443.2065, 0.0, 10.000001, 9.993545 
1.275e+3, 1.4497514e+2, -1534463.4, -1548146.3, 0.0010136791, 0.0000003197578, 0.00007101644, -1534463.4, -15219.709, 0.0, 10.000001, 9.981864 
1.275e+3, 1.5495703e+2, -1436735.6, -1450821.9, -0.0034497052, 0.00000031735914, -0.000056915494, -1436735.6, -15314.527, 0.0, 10.000001, 9.981333 
1.275e+3, 1.6493228e+2, -1348684.6, -1371952.3, 0.0009953934, 0.00000031388137, 0.000047392496, -1348684.6, -25021.021, 0.0, 10.000001, 9.969248 
1.275e+3, 1.7490156e+2, -1250726.6, -1274310.1, -0.0036216027, 0.0000003093014, -0.000073775984, -1250726.6, -24762.008, 0.0, 10.000001, 9.968834 
1.275e+3, 1.8486421e+2, -1162645.8, -1195720.0, 0.0018597574, 0.00000030855472, 0.00006619857, -1162645.8, -34315.06, 0.0, 10.000001, 9.956395 
1.275e+3, 1.9482064e+2, -1064496.0, -1097832.9, -0.0023218577, 0.00000031181895, -0.000057610014, -1064496.0, -33738.4, 0.0, 10.000001, 9.956052 
1.275e+3, 2.0477042e+2, -976332.0, -1019435.0, 0.0014108829, 0.00000030907682, 0.00006812115, -976332.0, -43082.145, 0.0, 10.000001, 9.94329 
1.275e+3, 2.1471375e+2, -878045.0, -921409.8, -0.0050828657, 0.00000029982922, -0.00012678365, -878045.0, -42239.73, 0.0, 10.000001, 9.942949 
1.275e+3, 2.2465037e+2, -789758.9, -843144.8, -0.0012313689, 0.00000029821598, 0.00012091949, -789758.9, -51332.62, 0.0, 10.000001, 9.929907 
1.275e+3, 2.3458035e+2, -691325.4, -744966.44, -0.0037114092, 0.00000030524637, -0.000088787536, -691325.4, -50212.86, 0.0, 10.000001, 9.929576 
1.275e+3, 2.4450338e+2, -603001.3, -667018.75, 0.0013245648, 0.00000030547395, 0.00007473572, -603001.3, -59134.457, 0.0, 10.000001, 9.916136 
1.275e+3, 2.5441962e+2, -504248.66, -568343.25, -0.0037303644, 0.00000029756643, -0.000106707404, -504248.66, -57561.117, 0.0, 10.000001, 9.916036 
1.275e+3, 2.643288e+2, -416013.25, -490987.88, -0.00011770531, 0.00000029367612, 0.00014062105, -416013.25, -66435.586, 0.0, 10.000001, 9.901964 
1.275e+3, 2.742313e+2, -316728.03, -391374.75, -0.0035740705, 0.00000029491716, -0.00020342605, -316728.03, -64195.035, 0.0, 10.000001, 9.902385 
1.275e+3, 2.841256e+2, -230254.78, -318081.22, 0.0012490851, 0.0000002967185, 0.00022905874, -230254.78, -74685.805, 0.0, 10.000001, 9.885438 
1.275e+3, 2.940121e+2, -130548.65, -217765.0, -0.0020281773, 0.0000002992625, -0.00025333025, -130548.65, -71867.25, 0.0, 10.000001, 9.886217 
1.275e+3, 3.0392656e+2, -40804.637, -84750.16, 0.0025858798, 0.00000029719928, 0.00017314612, -40804.637, -40804.637, 0.0, 10.000001, 9.942172 
1.275e+3, 3.138706e+2, -39726.62, -82511.21, -0.00032196843, 0.00000028829004, -0.00005513945, -39726.62, -39726.62, 0.0, 10.000001, 9.943684 
1.285e+3, 1.2499335e+2, -1719945.1, -1724224.6, 0.0037090764, 0.00000033169292, 0.000017696619, -1719945.1, -4879.9063, 0.0, 10.000001, 9.994327 
1.285e+3, 1.349876e+2, -1622564.6, -1627434.8, -0.0011470489, 0.00000033051654, -0.00006836954, -1622564.6, -5443.1245, 0.0, 10.000001, 9.993545 
1.285e+3, 1.4497514e+2, -1534463.3, -1548146.1, 0.0048040096, 0.00000032888417, 0.00007101615, -1534463.3, -15219.627, 0.0, 10.000001, 9.981864 
1.285e+3, 1.5495703e+2, -1436735.6, -1450821.9, -0.00092357397, 0.00000032671446, -0.000056913752, -1436735.6, -15314.457, 0.0, 10.000001, 9.981333 
1.285e+3, 1.6493228e+2, -1348684.6, -1371952.3, 0.003258839, 0.00000032320452, 0.000047394886, -1348684.6, -25020.951, 0.0, 10.000001, 9.969248 
1.285e+3, 1.7490156e+2, -1250726.6, -1274310.1, -0.0016635758, 0.00000031832576, -0.00007377436, -1250726.6, -24761.932, 0.0, 10.000001, 9.968834 
1.285e+3, 1.8486421e+2, -1162645.6, -1195720.0, 0.0024993357, 0.00000031724983, 0.00006620013, -1162645.6, -34314.984, 0.0, 10.000001, 9.956395 
1.285e+3, 1.9482064e+2, -1064495.9, -1097832.9, -0.00307611, 0.00000032015288, -0.00005760776, -1064495.9, -33738.324, 0.0, 10.000001, 9.956052 
1.285e+3, 2.0477042e+2, -976331.94, -1019434.94, 0.0028555156, 0.00000031751298, 0.000068123074, -976331.94, -43082.074, 0.0, 10.000001, 9.94329 
1.285e+3, 2.1471375e+2, -878044.94, -921409.8, 0.00015063919, 0.00000030886937, -0.00012678317, -878044.94, -42239.66, 0.0, 10.000001, 9.942949 
1.285e+3, 2.2465037e+2, -789758.8, -843144.8, 0.0035653342, 0.00000030727242, 0.000120919576, -789758.8, -51332.55, 0.0, 10.000001, 9.929907 
1.285e+3, 2.3458035e+2, -691325.3, -744966.4, -0.0026875432, 0.0000003136538, -0.00008878664, -691325.3, -50212.79, 0.0, 10.000001, 9.929576 
1.285e+3, 2.4450338e+2, -603001.25, -667018.75, 0.0019340464, 0.0000003136165, 0.00007473707, -603001.25, -59134.387, 0.0, 10.000001, 9.916136 
1.285e+3, 2.5441962e+2, -504248.6, -568343.25, -0.0020135867, 0.00000030590365, -0.00010670604, -504248.6, -57561.047, 0.0, 10.000001, 9.916036 
1.285e+3, 2.643288e+2, -416013.2, -490987.84, 0.0013756693, 0.00000030216262, 0.00014062223, -416013.2, -66435.516, 0.0, 10.000001, 9.901964 
1.285e+3, 2.742313e+2, -316727.97, -391374.72, -0.0029863445, 0.00000030349398, -0.00020342534, -316727.97, -64194.97, 0.0, 10.000001, 9.902385 
1.285e+3, 2.841256e+2, -230254.72, -318081.22, 0.0012665051, 0.00000030522358, 0.00022905924, -230254.72, -74685.74, 0.0, 10.000001, 9.885438 
1.285e+3, 2.940121e+2, -130548.58, -217764.98, -0.003483654, 0.00000030747438, -0.00025332964, -130548.58, -71867.18, 0.0, 10.000001, 9.886216 
1.285e+3, 3.0392656e+2, -40804.57, -84750.14, 0.00015450844, 0.00000030538885, 0.00017314717, -40804.57, -40804.57, 0.0, 10.000001, 9.942172 
1.285e+3, 3.138706e+2, -39726.56, -82511.195, -0.004064583, 0.00000029686126, -0.000055137523, -39726.56, -39726.56, 0.0, 10.000001, 9.943684 
1.295e+3, 1.2499335e+2, -1719945.1, -1724224.6, 0.0023808558, 0.00000034467683, 0.000017695958, -1719945.1, -4879.919, 0.0, 10.000001, 9.994327 
1.295e+3, 1.349876e+2, -1622564.6, -1627434.8, -0.0024766393, 0.0000003380158, -0.00006835903, -1622564.6, -5443.137, 0.0, 10.000001, 9.993545 
1.295e+3, 1.4497514e+2, -1534463.3, -1548146.3, 0.002007512, 0.00000033502542, 0.00007102459, -1534463.3, -15219.642, 0.0, 10.000001, 9.981864 
1.295e+3, 1.5495703e+2, -1436735.6, -1450821.9, -0.0037224225, 0.00000033565462, -0.000056911253, -1436735.6, -15314.471, 0.0, 10.000001, 9.981333 
1.295e+3, 1.6493228e+2, -1348684.6, -1371952.3, 0.0030549553, 0.00000033393957, 0.000047396083, -1348684.6, -25020.965, 0.0, 10.000001, 9.969248 
1.295e+3, 1.7490156e+2, -1250726.6, -1274310.1, -0.0018537292, 0.00000032983078, -0.00007376972, -1250726.6, -24761.943, 0.0, 10.000001, 9.968834 
1.295e+3, 1.8486421e+2, -1162645.6, -1195720.0, 0.0006838623, 0.0000003264643, 0.0000662063, -1162645.6, -34314.996, 0.0, 10.000001, 9.956395 
1.295e+3, 1.9482064e+2, -1064495.9, -1097832.9, -0.004910353, 0.00000032387408, -0.000057602057, -1064495.9, -33738.336, 0.0, 10.000001, 9.956052 
1.295e+3, 2.0477042e+2, -976331.94, -1019435.0, 0.0023751191, 0.00000032340094, 0.000068125686, -976331.94, -43082.082, 0.0, 10.000001, 9.94329 
1.295e+3, 2.1471375e+2, -878044.94, -921409.8, -0.00030174686, 0.00000032522013, -0.00012678649, -878044.94, -42239.668, 0.0, 10.000001, 9.942949 
1.295e+3, 2.2465037e+2, -789758.8, -843144.8, 0.0027215588, 0.00000032289725, 0.000120917146, -789758.8, -51332.563, 0.0, 10.000001, 9.929907 
1.295e+3, 2.3458035e+2, -691325.3, -744966.44, -0.0035441315, 0.00000031588516, -0.000088780485, -691325.3, -50212.8, 0.0, 10.000001, 9.929576 
1.295e+3, 2.4450338e+2, -603001.25, -667018.75, 0.0018735813, 0.0000003135614, 0.000074743606, -603001.25, -59134.4, 0.0, 10.000001, 9.916136 
1.295e+3, 2.5441962e+2, -504248.6, -568343.25, -0.0020358323, 0.00000031684237, -0.00010670894, -504248.6, -57561.055, 0.0, 10.000001, 9.916036 
1.295e+3, 2.643288e+2, -416013.2, -490987.88, 0.0010100325, 0.00000031744207, 0.00014061698, -416013.2, -66435.52, 0.0, 10.000001, 9.901964 
1.295e+3, 2.742313e+2, -316727.97, -391374.75, -0.0033750942, 0.00000031461587, -0.0002034239, -316727.97, -64194.977, 0.0, 10.000001, 9.902385 
1.295e+3, 2.841256e+2, -230254.72, -318081.25, 0.001710896, 0.0000003120141, 0.00022906372, -230254.72, -74685.75, 0.0, 10.000001, 9.885438 
1.295e+3, 2.940121e+2, -130548.586, -217765.0, -0.0029643527, 0.00000030973519, -0.0002533271, -130548.586, -71867.19, 0.0, 10.000001, 9.886216 
1.295e+3, 3.0392656e+2, -40804.582, -84750.16, 0.00060105126, 0.00000030956852, 0.00017314652, -40804.582, -40804.582, 0.0, 10.000001, 9.942172 
1.295e+3, 3.138706e+2, -39726.57, -82511.21, -0.0036266868, 0.00000031253515, -0.000055143075, -39726.57, -39726.57, 0.0, 10.000001, 9.943684 
1.305e+3, 1.2499335e+2, -1719945.0, -1724224.6, 0.005249497, 0.00000035497968, 0.000017698028, -1719945.0, -4879.8345, 0.0, 10.000001, 9.994327 
1.305e+3, 1.349876e+2, -1622564.6, -1627434.8, -0.0011018107, 0.00000034801857, -0.0000683552, -1622564.6, -5443.061, 0.0, 10.000001, 9.993545 
1.305e+3, 1.4497514e+2, -1534463.1, -1548146.1, 0.00330769, 0.00000034432492, 0.00007102497, -1534463.1, -15219.565, 0.0, 10.000001, 9.981864 
1.305e+3, 1.5495703e+2, -1436735.5, -1450821.9, -0.0022852393, 0.00000034385002, -0.00005690903, -1436735.5, -15314.386, 0.0, 10.000001, 9.981333 
1.305e+3, 1.6493228e+2, -1348684.5, -1371952.3, 0.004422256, 0.00000034243868, 0.00004739906, -1348684.5, -25020.879, 0.0, 10.000001, 9.969248 
1.305e+3, 1.7490156e+2, -1250726.5, -1274310.1, -0.0013111467, 0.00000034007118, -0.00007376711, -1250726.5, -24761.87, 0.0, 10.000001, 9.968834 
1.305e+3, 1.8486421e+2, -1162645.6, -1195720.0, 0.0017605072, 0.00000033672583, 0.000066208326, -1162645.6, -34314.926, 0.0, 10.000001, 9.956395 
1.305e+3, 1.9482064e+2, -1064495.9, -1097832.9, -0.0026934661, 0.00000033235682, -0.000057600864, -1064495.9, -33738.258, 0.0, 10.000001, 9.956052 
1.305e+3, 2.0477042e+2, -976331.9, -1019434.94, 0.0029890358, 0.00000033164193, 0.000068127025, -976331.9, -43082.0, 0.0, 10.000001, 9.94329 
1.305e+3, 2.1471375e+2, -878044.9, -921409.8, -0.0040486604, 0.00000033488425, -0.00012678395, -878044.9, -42239.594, 0.0, 10.000001, 9.942949 
1.305e+3, 2.2465037e+2, -789758.75, -843144.8, -0.0012559408, 0.000000332713, 0.000120920005, -789758.75, -51332.492, 0.0, 10.000001, 9.929907 
1.305e+3, 2.3458035e+2, -691325.25, -744966.4, -0.0047312966, 0.00000032441244, -0.00008877831, -691325.25, -50212.727, 0.0, 10.000001, 9.929576 
1.305e+3, 2.4450338e+2, -603001.2, -667018.75, 0.001535969, 0.00000032180188, 0.0000747451, -603001.2, -59134.32, 0.0, 10.000001, 9.916136 
1.305e+3, 2.5441962e+2, -504248.53, -568343.25, -0.0032661646, 0.00000032599405, -0.00010670812, -504248.53, -57560.984, 0.0, 10.000001, 9.916036 
1.305e+3, 2.643288e+2, -416013.13, -490987.84, -0.0002914029, 0.00000032684517, 0.0001406177, -416013.13, -66435.45, 0.0, 10.000001, 9.901964 
1.305e+3, 2.742313e+2, -316727.9, -391374.72, -0.0048840092, 0.0000003234279, -0.00020342249, -316727.9, -64194.906, 0.0, 10.000001, 9.902384 
1.305e+3, 2.841256e+2, -230254.66, -318081.22, 0.00088792905, 0.0000003205253, 0.0002290653, -230254.66, -74685.68, 0.0, 10.000001, 9.885438 
1.305e+3, 2.940121e+2, -130548.516, -217764.98, -0.0024901011, 0.00000031834645, -0.00025332606, -130548.516, -71867.12, 0.0, 10.000001, 9.886216 
1.305e+3, 3.0392656e+2, -40804.51, -84750.14, 0.0023442593, 0.00000031837152, 0.00017314685, -40804.51, -40804.51, 0.0, 10.000001, 9.942172 
1.305e+3, 3.138706e+2, -39726.5, -82511.195, -0.00075763604, 0.000000321662, -0.000055143744, -39726.5, -39726.5, 0.0, 10.000001, 9.943684 
1.315e+3, 1.2499335e+2, -1719945.0, -1724224.6, 0.0019548838, 0.00000036260144, 0.000017702829, -1719945.0, -4879.8506, 0.0, 10.000001, 9.994327 
1.315e+3, 1.349876e+2, -1622564.6, -1627434.9, -0.0043982337, 0.0000003605248, -0.00006835804, -1622564.6, -5443.077, 0.0, 10.000001, 9.993545 
1.315e+3, 1.4497514e+2, -1534463.1, -1548146.3, 0.0026773876, 0.0000003567826, 0.000071017304, -1534463.1, -15219.579, 0.0, 10.000001, 9.981864 
1.315e+3, 1.5495703e+2, -1436735.5, -1450821.9, -0.0029113682, 0.00000035130068, -0.00005690708, -1436735.5, -15314.399, 0.0, 10.000001, 9.981333 
1.315e+3, 1.6493228e+2, -1348684.5, -1371952.3, 0.0017262467, 0.00000034870186, 0.000047403806, -1348684.5, -25020.893, 0.0, 10.000001, 9.969248 
1.315e+3, 1.7490156e+2, -1250726.5, -1274310.1, -0.0040180315, 0.00000034904696, -0.00007376652, -1250726.5, -24761.885, 0.0, 10.000001, 9.968834 
1.315e+3, 1.8486421e+2, -1162645.6, -1195720.0, 0.0014748035, 0.00000034803446, 0.00006620621, -1162645.6, -34314.934, 0.0, 10.000001, 9.956395 
1.315e+3, 1.9482064e+2, -1064495.9, -1097832.9, -0.0029510525, 0.000000345601, -0.000057604182, -1064495.9, -33738.27, 0.0, 10.000001, 9.956052 
1.315e+3, 2.0477042e+2, -976331.9, -1019435.0, 0.0011556953, 0.00000034223592, 0.00006812709, -976331.9, -43082.016, 0.0, 10.000001, 9.94329 
1.315e+3, 2.1471375e+2, -878044.9, -921409.8, -0.005914457, 0.00000033786182, -0.00012677554, -878044.9, -42239.61, 0.0, 10.000001, 9.942949 
1.315e+3, 2.2465037e+2, -789758.75, -843144.8, -0.0011297517, 0.00000033671967, 0.00012092816, -789758.75, -51332.5, 0.0, 10.000001, 9.929907 
1.315e+3, 2.3458035e+2, -691325.25, -744966.4, -0.004539896, 0.00000033923558, -0.000088780114, -691325.25, -50212.734, 0.0, 10.000001, 9.929576 
1.315e+3, 2.4450338e+2, -603001.2, -667018.75, 0.00041611659, 0.0000003383378, 0.00007474155, -603001.2, -59134.332, 0.0, 10.000001, 9.916136 
1.315e+3, 2.5441962e+2, -504248.53, -568343.25, -0.0044490956, 0.00000033335868, -0.000106703585, -504248.53, -57560.996, 0.0, 10.000001, 9.916036 
1.315e+3, 2.643288e+2, -416013.13, -490987.88, -0.0000626899, 0.000000330372, 0.00014062444, -416013.13, -66435.47, 0.0, 10.000001, 9.901964 
1.315e+3, 2.742313e+2, -316727.9, -391374.75, -0.004560752, 0.00000032993017, -0.00020342109, -316727.9, -64194.914, 0.0, 10.000001, 9.902384 
1.315e+3, 2.841256e+2, -230254.66, -318081.22, 0.0009676061, 0.00000033075705, 0.000229064, -230254.66, -74685.69, 0.0, 10.000001, 9.885438 
1.315e+3, 2.940121e+2, -130548.52, -217765.0, -0.0024326101, 0.0000003333081, -0.00025332646, -130548.52, -71867.125, 0.0, 10.000001, 9.886216 
1.315e+3, 3.0392656e+2, -40804.52, -84750.16, 0.0026069977, 0.00000033179782, 0.00017314818, -40804.52, -40804.52, 0.0, 10.000001, 9.942172 
1.315e+3, 3.138706e+2, -39726.508, -82511.21, -0.00047102696, 0.00000032424174, -0.000055139528, -39726.508, -39726.508, 0.0, 10.000001, 9.943684 
1.325e+3, 1.2499335e+2, -1719945.0, -1724224.6, 0.0031298453, 0.00000037400898, 0.000017705466, -1719945.0, -4879.7725, 0.0, 10.000001, 9.994327 
1.325e+3, 1.349876e+2, -1622564.5, -1627434.8, -0.001982459, 0.000000369969, -0.00006835216, -1622564.5, -5442.986, 0.0, 10.000001, 9.993545 
1.325e+3, 1.4497514e+2, -1534463.1, -1548146.1, 0.0050771507, 0.00000036578334, 0.00007101899, -1534463.1, -15219.488, 0.0, 10.000001, 9.981864 
1.325e+3, 1.5495703e+2, -1436735.4, -1450821.9, -0.0013293382, 0.000000361393, -0.0000569043, -1436735.4, -15314.319, 0.0, 10.000001, 9.981333 
1.325e+3, 1.6493228e+2, -1348684.5, -1371952.3, 0.0032928614, 0.00000035896463, 0.000047406647, -1348684.5, -25020.814, 0.0, 10.000001, 9.969248 
1.325e+3, 1.7490156e+2, -1250726.5, -1274310.1, -0.0019995787, 0.00000035853964, -0.00007376468, -1250726.5, -24761.797, 0.0, 10.000001, 9.968834 
1.325e+3, 1.8486421e+2, -1162645.5, -1195720.0, 0.003351345, 0.0000003575005, 0.00006620801, -1162645.5, -34314.848, 0.0, 10.000001, 9.956395 
1.325e+3, 1.9482064e+2, -1064495.8, -1097832.9, -0.002965666, 0.00000035581832, -0.0000576014, -1064495.8, -33738.19, 0.0, 10.000001, 9.956052 
1.325e+3, 2.0477042e+2, -976331.8, -1019434.94, 0.0021283505, 0.00000035226194, 0.00006812966, -976331.8, -43081.94, 0.0, 10.000001, 9.94329 
1.325e+3, 2.1471375e+2, -878044.8, -921409.8, -0.0013781462, 0.00000034667562, -0.00012677448, -878044.8, -42239.527, 0.0, 10.000001, 9.942949 
1.325e+3, 2.2465037e+2, -789758.7, -843144.8, 0.0040209866, 0.0000003455315, 0.00012092867, -789758.7, -51332.418, 0.0, 10.000001, 9.929907 
1.325e+3, 2.3458035e+2, -691325.2, -744966.4, -0.002366716, 0.00000034941576, -0.00008877911, -691325.2, -50212.66, 0.0, 10.000001, 9.929576 
1.325e+3, 2.4450338e+2, -603001.1, -667018.75, 0.0014363374, 0.00000034871206, 0.00007474291, -603001.1, -59134.258, 0.0, 10.000001, 9.916136 
1.325e+3, 2.5441962e+2, -504248.47, -568343.25, -0.0033084673, 0.000000342523, -0.00010670202, -504248.47, -57560.918, 0.0, 10.000001, 9.916036 
1.325e+3, 2.643288e+2, -416013.06, -490987.84, 0.0014119004, 0.00000033912565, 0.0001406258, -416013.06, -66435.39, 0.0, 10.000001, 9.901964 
1.325e+3, 2.742313e+2, -316727.84, -391374.72, -0.003147677, 0.0000003392939, -0.00020342045, -316727.84, -64194.836, 0.0, 10.000001, 9.902384 
1.325e+3, 2.841256e+2, -230254.58, -318081.22, 0.0016138422, 0.00000034036833, 0.00022906426, -230254.58, -74685.61, 0.0, 10.000001, 9.885438 
1.325e+3, 2.940121e+2, -130548.45, -217764.98, -0.0036376582, 0.00000034266589, -0.0002533261, -130548.45, -71867.055, 0.0, 10.000001, 9.886216 
1.325e+3, 3.0392656e+2, -40804.45, -84750.13, 0.00018340848, 0.00000034102118, 0.00017314895, -40804.45, -40804.45, 0.0, 10.000001, 9.942172 
1.325e+3, 3.138706e+2, -39726.434, -82511.19, -0.00463833, 0.00000033351165, -0.000055137858, -39726.434, -39726.434, 0.0, 10.000001, 9.943684 
1.335e+3, 1.2499335e+2, -1719945.0, -1724224.6, 0.0029690417, 0.00000038920214, 0.000017705946, -1719945.0, -4879.786, 0.0, 10.000001, 9.994327 
1.335e+3, 1.3498761e+2, -1622564.5, -1627434.8, -0.0021446052, 0.00000037635118, -0.000068337555, -1622564.5, -5442.999, 0.0, 10.000001, 9.993545 
1.335e+3, 1.4497514e+2, -1534463.1, -1548146.3, 0.001764033, 0.0000003713271, 0.00007103002, -1534463.1, -15219.504, 0.0, 10.000001, 9.981864 
1.335e+3, 1.5495703e+2, -1436735.4, -1450821.9, -0.0046475036, 0.00000037412693, -0.000056900688, -1436735.4, -15314.336, 0.0, 10.000001, 9.981333 
1.335e+3, 1.6493228e+2, -1348684.5, -1371952.3, 0.0023789087, 0.00000037322698, 0.00004740758, -1348684.5, -25020.828, 0.0, 10.000001, 9.969248 
1.335e+3, 1.7490156e+2, -1250726.5, -1274310.1, -0.0029007164, 0.00000036854925, -0.00007376158, -1250726.5, -24761.81, 0.0, 10.000001, 9.968834 
1.335e+3, 1.8486421e+2, -1162645.5, -1195720.0, 0.0011186535, 0.00000036512398, 0.00006621375, -1162645.5, -34314.863, 0.0, 10.000001, 9.956395 
1.335e+3, 1.9482064e+2, -1064495.8, -1097832.9, -0.005213632, 0.00000036300875, -0.000057592522, -1064495.8, -33738.207, 0.0, 10.000001, 9.956052 
1.335e+3, 2.0477042e+2, -976331.8, -1019434.94, 0.0019869476, 0.00000036171988, 0.00006813473, -976331.8, -43081.95, 0.0, 10.000001, 9.94329 
1.335e+3, 2.1471375e+2, -878044.8, -921409.8, -0.0014759203, 0.00000036132553, -0.00012678074, -878044.8, -42239.535, 0.0, 10.000001, 9.942949 
1.335e+3, 2.2465037e+2, -789758.7, -843144.8, 0.0021388452, 0.0000003591485, 0.000120921526, -789758.7, -51332.43, 0.0, 10.000001, 9.929907 
1.335e+3, 2.3458035e+2, -691325.2, -744966.44, -0.004307156, 0.000000354953, -0.000088775305, -691325.2, -50212.67, 0.0, 10.000001, 9.929576 
1.335e+3, 2.4450338e+2, -603001.1, -667018.75, 0.0016509132, 0.00000035292467, 0.00007474919, -603001.1, -59134.27, 0.0, 10.000001, 9.916136 
1.335e+3, 2.5441962e+2, -504248.47, -568343.25, -0.0029903469, 0.00000035348697, -0.00010670344, -504248.47, -57560.926, 0.0, 10.000001, 9.916036 
1.335e+3, 2.643288e+2, -416013.06, -490987.88, 0.0009333829, 0.0000003531061, 0.00014062178, -416013.06, -66435.4, 0.0, 10.000001, 9.901964 
1.335e+3, 2.742313e+2, -316727.84, -391374.75, -0.0036797659, 0.00000035151908, -0.00020342058, -316727.84, -64194.848, 0.0, 10.000001, 9.902384 
1.335e+3, 2.841256e+2, -230254.6, -318081.22, 0.0014440563, 0.00000034935908, 0.00022906608, -230254.6, -74685.625, 0.0, 10.000001, 9.885438 
1.335e+3, 2.940121e+2, -130548.47, -217765.0, -0.0037750446, 0.00000034641994, -0.000253325, -130548.47, -71867.06, 0.0, 10.000001, 9.886216 
1.335e+3, 3.0392656e+2, -40804.457, -84750.16, 0.0010413572, 0.00000034604165, 0.00017314918, -40804.457, -40804.457, 0.0, 10.000001, 9.942172 
1.335e+3, 3.138706e+2, -39726.445, -82511.21, -0.003663862, 0.0000003494715, -0.000055138735, -39726.445, -39726.445, 0.0, 10.000001, 9.943684 
1.345e+3, 1.2499335e+2, -1719944.9, -1724224.5, 0.005598315, 0.0000003986433, 0.00001770888, -1719944.9, -4879.687, 0.0, 10.000001, 9.994327 
1.345e+3, 1.3498761e+2, -1622564.4, -1627434.8, -0.0020805465, 0.00000038752415, -0.00006833127, -1622564.4, -5442.9136, 0.0, 10.000001, 9.993545 
1.345e+3, 1.4497514e+2, -1534463.0, -1548146.1, 0.00052025844, 0.00000038293874, 0.00007103124, -1534463.0, -15219.421, 0.0, 10.000001, 9.981864 
1.345e+3, 1.5495703e+2, -1436735.4, -1450821.9, -0.004398647, 0.00000038488318, -0.00005689789, -1436735.4, -15314.245, 0.0, 10.000001, 9.981333 
1.345e+3, 1.6493228e+2, -1348684.4, -1371952.3, 0.0037398664, 0.00000038355216, 0.00004741096, -1348684.4, -25020.736, 0.0, 10.000001, 9.969248 
1.345e+3, 1.7490156e+2, -1250726.4, -1274310.1, -0.0026979954, 0.00000037887645, -0.00007375864, -1250726.4, -24761.727, 0.0, 10.000001, 9.968834 
1.345e+3, 1.8486421e+2, -1162645.4, -1195720.0, 0.0012273012, 0.00000037531186, 0.00006621619, -1162645.4, -34314.78, 0.0, 10.000001, 9.956395 
1.345e+3, 1.9482064e+2, -1064495.8, -1097832.9, -0.0039157853, 0.0000003729094, -0.000057590634, -1064495.8, -33738.117, 0.0, 10.000001, 9.956052 
1.345e+3, 2.0477042e+2, -976331.75, -1019434.94, 0.0027004073, 0.00000037178626, 0.00006813665, -976331.75, -43081.863, 0.0, 10.000001, 9.94329 
1.345e+3, 2.1471375e+2, -878044.7, -921409.8, -0.004362059, 0.00000037204796, -0.00012677815, -878044.7, -42239.457, 0.0, 10.000001, 9.942949 
1.345e+3, 2.2465037e+2, -789758.6, -843144.8, -0.0014513425, 0.00000036975425, 0.00012092419, -789758.6, -51332.35, 0.0, 10.000001, 9.929907 
1.345e+3, 2.3458035e+2, -691325.1, -744966.4, -0.0057113087, 0.00000036456723, -0.000088773224, -691325.1, -50212.586, 0.0, 10.000001, 9.929576 
1.345e+3, 2.4450338e+2, -603001.06, -667018.75, 0.0014337845, 0.00000036232646, 0.00007475077, -603001.06, -59134.184, 0.0, 10.000001, 9.916136 
1.345e+3, 2.5441962e+2, -504248.4, -568343.25, -0.0037650021, 0.0000003636077, -0.00010670223, -504248.4, -57560.848, 0.0, 10.000001, 9.916036 
1.345e+3, 2.643288e+2, -416013.0, -490987.84, 0.00009182171, 0.00000036357147, 0.0001406229, -416013.0, -66435.32, 0.0, 10.000001, 9.901964 
1.345e+3, 2.742313e+2, -316727.78, -391374.72, -0.004897162, 0.00000036185057, -0.00020341914, -316727.78, -64194.77, 0.0, 10.000001, 9.902384 
1.345e+3, 2.841256e+2, -230254.52, -318081.22, 0.00080615544, 0.00000035926942, 0.00022906749, -230254.52, -74685.55, 0.0, 10.000001, 9.885438 
1.345e+3, 2.940121e+2, -130548.38, -217764.98, -0.0029954857, 0.00000035551852, -0.00025332408, -130548.38, -71866.984, 0.0, 10.000001, 9.886216 
1.345e+3, 3.0392656e+2, -40804.38, -84750.14, 0.0032889813, 0.0000003551855, 0.00017314947, -40804.38, -40804.38, 0.0, 10.000001, 9.942172 
1.345e+3, 3.138706e+2, -39726.37, -82511.19, -0.0003777408, 0.00000035993622, -0.0000551392, -39726.37, -39726.37, 0.0, 10.000001, 9.943684 
1.355e+3, 1.2499335e+2, -1719944.9, -1724224.6, 0.0023038008, 0.00000040233255, 0.000017714274, -1719944.9, -4879.7065, 0.0, 10.000001, 9.994327 
1.355e+3, 1.3498761e+2, -1622564.4, -1627434.8, -0.005377328, 0.0000004034878, -0.000068333306, -1622564.4, -5442.933, 0.0, 10.000001, 9.993545 
1.355e+3, 1.4497514e+2, -1534463.0, -1548146.3, -0.001160352, 0.0000004006181, 0.00007102262, -1534463.0, -15219.434, 0.0, 10.000001, 9.981864 
1.355e+3, 1.5495703e+2, -1436735.4, -1450821.9, -0.0060767448, 0.0000003936617, -0.000056895904, -1436735.4, -15314.258, 0.0, 10.000001, 9.981333 
1.355e+3, 1.6493228e+2, -1348684.4, -1371952.3, 0.0015068257, 0.0000003899402, 0.000047416786, -1348684.4, -25020.754, 0.0, 10.000001, 9.969248 
1.355e+3, 1.7490156e+2, -1250726.4, -1274310.1, -0.004933738, 0.00000038952123, -0.000073755866, -1250726.4, -24761.742, 0.0, 10.000001, 9.968834 
1.355e+3, 1.8486421e+2, -1162645.4, -1195720.0, 0.00015620033, 0.00000038806405, 0.00006621533, -1162645.4, -34314.793, 0.0, 10.000001, 9.956395 
1.355e+3, 1.9482064e+2, -1064495.8, -1097832.9, -0.0049731443, 0.0000003855202, -0.00005759573, -1064495.8, -33738.13, 0.0, 10.000001, 9.956052 
1.355e+3, 2.0477042e+2, -976331.75, -1019434.94, 0.0005784944, 0.00000038246102, 0.00006813543, -976331.75, -43081.88, 0.0, 10.000001, 9.94329 
1.355e+3, 2.1471375e+2, -878044.75, -921409.8, -0.006505691, 0.00000037884294, -0.00012676671, -878044.75, -42239.473, 0.0, 10.000001, 9.942949 
1.355e+3, 2.2465037e+2, -789758.6, -843144.8, -0.0014091999, 0.00000037734878, 0.000120936675, -789758.6, -51332.363, 0.0, 10.000001, 9.929907 
1.355e+3, 2.3458035e+2, -691325.1, -744966.4, -0.005597567, 0.00000037825836, -0.00008877287, -691325.1, -50212.598, 0.0, 10.000001, 9.929576 
1.355e+3, 2.4450338e+2, -603001.06, -667018.75, -0.00009357242, 0.00000037691723, 0.000074747666, -603001.06, -59134.195, 0.0, 10.000001, 9.916136 
1.355e+3, 2.5441962e+2, -504248.4, -568343.25, -0.0053712116, 0.00000037288527, -0.00010669841, -504248.4, -57560.86, 0.0, 10.000001, 9.916036 
1.355e+3, 2.643288e+2, -416013.0, -490987.88, 0.00014849166, 0.00000037052186, 0.00014062918, -416013.0, -66435.33, 0.0, 10.000001, 9.901964 
1.355e+3, 2.742313e+2, -316727.78, -391374.75, -0.0047291457, 0.00000037028832, -0.00020341613, -316727.78, -64194.78, 0.0, 10.000001, 9.902384 
1.355e+3, 2.841256e+2, -230254.53, -318081.22, 0.0010670137, 0.00000037009923, 0.0002290685, -230254.53, -74685.555, 0.0, 10.000001, 9.885438 
1.355e+3, 2.940121e+2, -130548.39, -217765.0, -0.002726615, 0.00000036996155, -0.00025332338, -130548.39, -71866.99, 0.0, 10.000001, 9.886216 
1.355e+3, 3.0392656e+2, -40804.387, -84750.16, 0.0030405917, 0.00000036845267, 0.00017314985, -40804.387, -40804.387, 0.0, 10.000001, 9.942172 
1.355e+3, 3.138706e+2, -39726.38, -82511.21, -0.0006872857, 0.00000036490576, -0.000055139255, -39726.38, -39726.38, 0.0, 10.000001, 9.943684 
1.365e+3, 1.2499335e+2, -1719944.8, -1724224.5, 0.0050328416, 0.0000004125269, 0.000017716033, -1719944.8, -4879.6104, 0.0, 10.000001, 9.994327 
1.365e+3, 1.3498761e+2, -1622564.4, -1627434.8, 0.000061452636, 0.0000004154272, -0.00006832874, -1622564.4, -5442.8364, 0.0, 10.000001, 9.993545 
1.365e+3, 1.4497514e+2, -1534462.9, -1548146.1, 0.0054573053, 0.00000041276405, 0.000071021605, -1534462.9, -15219.338, 0.0, 10.000001, 9.981864 
1.365e+3, 1.5495703e+2, -1436735.3, -1450821.9, -0.002366933, 0.00000040447426, -0.000056893332, -1436735.3, -15314.166, 0.0, 10.000001, 9.981333 
1.365e+3, 1.6493228e+2, -1348684.3, -1371952.3, 0.004106272, 0.00000040035422, 0.000047420428, -1348684.3, -25020.662, 0.0, 10.000001, 9.969248 
1.365e+3, 1.7490156e+2, -1250726.3, -1274310.1, -0.0017644768, 0.00000040049085, -0.000073753734, -1250726.3, -24761.648, 0.0, 10.000001, 9.968834 
1.365e+3, 1.8486421e+2, -1162645.4, -1195720.0, 0.003030611, 0.00000039917367, 0.00006621706, -1162645.4, -34314.7, 0.0, 10.000001, 9.956395 
1.365e+3, 1.9482064e+2, -1064495.6, -1097832.9, -0.0036890442, 0.00000039633522, -0.00005759329, -1064495.6, -33738.043, 0.0, 10.000001, 9.956052 
1.365e+3, 2.0477042e+2, -976331.6, -1019434.94, 0.00260584, 0.00000039308924, 0.0000681378, -976331.6, -43081.793, 0.0, 10.000001, 9.94329 
1.365e+3, 2.1471375e+2, -878044.6, -921409.8, -0.0021021743, 0.00000038940132, -0.00012676527, -878044.6, -42239.38, 0.0, 10.000001, 9.942949 
1.365e+3, 2.2465037e+2, -789758.5, -843144.8, 0.0033110054, 0.00000038798564, 0.00012093774, -789758.5, -51332.27, 0.0, 10.000001, 9.929907 
1.365e+3, 2.3458035e+2, -691325.06, -744966.4, -0.0033173903, 0.00000038914138, -0.00008877152, -691325.06, -50212.516, 0.0, 10.000001, 9.929576 
1.365e+3, 2.4450338e+2, -603001.0, -667018.75, 0.00124636, 0.00000038768397, 0.000074749245, -603001.0, -59134.113, 0.0, 10.000001, 9.916136 
1.365e+3, 2.5441962e+2, -504248.3, -568343.25, -0.0041613462, 0.00000038310256, -0.00010669666, -504248.3, -57560.773, 0.0, 10.000001, 9.916036 
1.365e+3, 2.643288e+2, -416012.9, -490987.84, 0.0013934362, 0.00000038069166, 0.00014063083, -416012.9, -66435.24, 0.0, 10.000001, 9.901964 
1.365e+3, 2.742313e+2, -316727.7, -391374.72, -0.0037816723, 0.0000003810503, -0.00020341495, -316727.7, -64194.695, 0.0, 10.000001, 9.902384 
1.365e+3, 2.841256e+2, -230254.44, -318081.22, 0.001329203, 0.00000038097374, 0.00022906942, -230254.44, -74685.47, 0.0, 10.000001, 9.885438 
1.365e+3, 2.940121e+2, -130548.31, -217764.98, -0.0044519827, 0.00000038028932, -0.0002533224, -130548.31, -71866.914, 0.0, 10.000001, 9.886216 
1.365e+3, 3.0392656e+2, -40804.31, -84750.13, 0.000018176292, 0.00000037854608, 0.000173151, -40804.31, -40804.31, 0.0, 10.000001, 9.942172 
1.365e+3, 3.138706e+2, -39726.293, -82511.19, -0.0048939683, 0.00000037523435, -0.00005513778, -39726.293, -39726.293, 0.0, 10.000001, 9.943684 
1.375e+3, 1.2499335e+2, -1719944.8, -1724224.6, 0.0018317522, 0.00000042922616, 0.000017714163, -1719944.8, -4879.624, 0.0, 10.000001, 9.994327 
1.375e+3, 1.3498761e+2, -1622564.4, -1627434.8, -0.0031424335, 0.00000042334236, -0.00006831759, -1622564.4, -5442.85, 0.0, 10.000001, 9.993545 
1.375e+3, 1.4497514e+2, -1534463.0, -1548146.3, 0.003130411, 0.0000004193767, 0.00007102819, -1534463.0, -15219.358, 0.0, 10.000001, 9.981864 
1.375e+3, 1.5495703e+2, -1436735.3, -1450821.9, -0.0046921265, 0.00000041732068, -0.000056890167, -1436735.3, -15314.186, 0.0, 10.000001, 9.981333 
1.375e+3, 1.6493228e+2, -1348684.4, -1371952.3, 0.002472753, 0.00000041479407, 0.000047421883, -1348684.4, -25020.676, 0.0, 10.000001, 9.969248 
1.375e+3, 1.7490156e+2, -1250726.3, -1274310.1, -0.0033939322, 0.0000004117853, -0.00007375224, -1250726.3, -24761.662, 0.0, 10.000001, 9.968834 
1.375e+3, 1.8486421e+2, -1162645.4, -1195720.0, 0.00059504743, 0.0000004086407, 0.00006622134, -1162645.4, -34314.715, 0.0, 10.000001, 9.956395 
1.375e+3, 1.9482064e+2, -1064495.6, -1097832.9, -0.0061336337, 0.00000040535443, -0.000057583304, -1064495.6, -33738.06, 0.0, 10.000001, 9.956052 
1.375e+3, 2.0477042e+2, -976331.7, -1019434.94, 0.0020853165, 0.00000040367084, 0.00006814376, -976331.7, -43081.8, 0.0, 10.000001, 9.94329 
1.375e+3, 2.1471375e+2, -878044.6, -921409.8, -0.0025826134, 0.00000040372302, -0.00012677386, -878044.6, -42239.39, 0.0, 10.000001, 9.942949 
1.375e+3, 2.2465037e+2, -789758.56, -843144.8, 0.0010229164, 0.00000040166478, 0.000120927376, -789758.56, -51332.285, 0.0, 10.000001, 9.929907 
1.375e+3, 2.3458035e+2, -691325.06, -744966.4, -0.005664341, 0.00000039721627, -0.000088769186, -691325.06, -50212.527, 0.0, 10.000001, 9.929576 
1.375e+3, 2.4450338e+2, -603001.0, -667018.75, 0.0014531491, 0.00000039462657, 0.0000747555, -603001.0, -59134.125, 0.0, 10.000001, 9.916136 
1.375e+3, 2.5441962e+2, -504248.34, -568343.25, -0.003831799, 0.0000003942595, -0.00010669698, -504248.34, -57560.785, 0.0, 10.000001, 9.916036 
1.375e+3, 2.643288e+2, -416012.94, -490987.84, 0.0005640177, 0.00000039408064, 0.00014062785, -416012.94, -66435.25, 0.0, 10.000001, 9.901964 
1.375e+3, 2.742313e+2, -316727.72, -391374.75, -0.004688956, 0.00000039413652, -0.00020341559, -316727.72, -64194.707, 0.0, 10.000001, 9.902384 
1.375e+3, 2.841256e+2, -230254.45, -318081.22, 0.001018099, 0.00000039189294, 0.00022907031, -230254.45, -74685.484, 0.0, 10.000001, 9.885438 
1.375e+3, 2.940121e+2, -130548.33, -217765.0, -0.0047098263, 0.0000003865019, -0.0002533211, -130548.33, -71866.92, 0.0, 10.000001, 9.886216 
1.375e+3, 3.0392656e+2, -40804.32, -84750.16, 0.0010273705, 0.00000038546568, 0.00017315293, -40804.32, -40804.32, 0.0, 10.000001, 9.942172 
1.375e+3, 3.138706e+2, -39726.305, -82511.21, -0.0037366615, 0.00000039092188, -0.000055134788, -39726.305, -39726.305, 0.0, 10.000001, 9.943684 
1.385e+3, 1.2499335e+2, -1719944.8, -1724224.5, 0.00545027, 0.00000044198978, 0.000017715953, -1719944.8, -4879.521, 0.0, 10.000001, 9.994327 
1.385e+3, 1.3498761e+2, -1622564.3, -1627434.8, -0.0036395157, 0.00000043490078, -0.00006831117, -1622564.3, -5442.7505, 0.0, 10.000001, 9.993545 
1.385e+3, 1.4497514e+2, -1534462.9, -1548146.1, 0.0030834225, 0.00000043031025, 0.00007102828, -1534462.9, -15219.258, 0.0, 10.000001, 9.981864 
1.385e+3, 1.5495703e+2, -1436735.1, -1450821.9, -0.0028661098, 0.0000004282211, -0.000056887297, -1436735.1, -15314.083, 0.0, 10.000001, 9.981333 
1.385e+3, 1.6493228e+2, -1348684.3, -1371952.3, 0.004102758, 0.00000042608482, 0.000047425747, -1348684.3, -25020.574, 0.0, 10.000001, 9.969248 
1.385e+3, 1.7490156e+2, -1250726.3, -1274310.1, -0.003150697, 0.0000004238982, -0.000073749216, -1250726.3, -24761.568, 0.0, 10.000001, 9.968834 
1.385e+3, 1.8486422e+2, -1162645.3, -1195720.0, 0.0012662386, 0.0000004205499, 0.00006622379, -1162645.3, -34314.62, 0.0, 10.000001, 9.956394 
1.385e+3, 1.9482064e+2, -1064495.5, -1097832.9, -0.004682711, 0.000000415986, -0.00005758119, -1064495.5, -33737.96, 0.0, 10.000001, 9.956052 
1.385e+3, 2.0477042e+2, -976331.56, -1019434.94, 0.0027142288, 0.00000041432133, 0.000068145884, -976331.56, -43081.703, 0.0, 10.000001, 9.94329 
1.385e+3, 2.1471375e+2, -878044.56, -921409.8, -0.0044769095, 0.00000041579713, -0.00012677138, -878044.56, -42239.3, 0.0, 10.000001, 9.942949 
1.385e+3, 2.2465037e+2, -789758.44, -843144.8, -0.0009875583, 0.00000041375245, 0.00012092993, -789758.44, -51332.2, 0.0, 10.000001, 9.929907 
1.385e+3, 2.3458035e+2, -691324.94, -744966.4, -0.006317715, 0.00000040772153, -0.00008876691, -691324.94, -50212.43, 0.0, 10.000001, 9.929576 
1.385e+3, 2.4450338e+2, -603000.9, -667018.75, 0.001484401, 0.00000040474737, 0.00007475738, -603000.9, -59134.027, 0.0, 10.000001, 9.916136 
1.385e+3, 2.5441962e+2, -504248.25, -568343.25, -0.0043209, 0.0000004054288, -0.00010669566, -504248.25, -57560.695, 0.0, 10.000001, 9.916036 
1.385e+3, 2.643288e+2, -416012.84, -490987.84, 0.00006730151, 0.0000004057727, 0.00014062902, -416012.84, -66435.17, 0.0, 10.000001, 9.901964 
1.385e+3, 2.742313e+2, -316727.63, -391374.72, -0.005366277, 0.0000004056787, -0.00020341399, -316727.63, -64194.617, 0.0, 10.000001, 9.902384 
1.385e+3, 2.841256e+2, -230254.36, -318081.22, 0.001224126, 0.00000040295276, 0.00022907191, -230254.36, -74685.39, 0.0, 10.000001, 9.885438 
1.385e+3, 2.940121e+2, -130548.234, -217764.98, -0.003205215, 0.0000003966271, -0.00025332006, -130548.234, -71866.836, 0.0, 10.000001, 9.886216 
1.385e+3, 3.0392656e+2, -40804.23, -84750.13, 0.0034341323, 0.00000039567442, 0.00017315352, -40804.23, -40804.23, 0.0, 10.000001, 9.942172 
1.385e+3, 3.138706e+2, -39726.223, -82511.19, -0.001154359, 0.00000040272948, -0.000055134515, -39726.223, -39726.223, 0.0, 10.000001, 9.943684 
1.395e+3, 1.2499335e+2, -1719944.8, -1724224.6, 0.0015453523, 0.00000045081785, 0.000017721406, -1719944.8, -4879.5444, 0.0, 10.000001, 9.994327 
1.395e+3, 1.3498761e+2, -1622564.3, -1627434.8, -0.0075478177, 0.00000045010236, -0.00006830949, -1622564.3, -5442.7734, 0.0, 10.000001, 9.993545 
1.395e+3, 1.4497514e+2, -1534462.9, -1548146.1, 0.0014543432, 0.00000044556464, 0.00007102185, -1534462.9, -15219.273, 0.0, 10.000001, 9.981864 
1.395e+3, 1.5495703e+2, -1436735.3, -1450821.9, -0.004490793, 0.00000043717566, -0.00005688472, -1436735.3, -15314.099, 0.0, 10.000001, 9.981333 
1.395e+3, 1.6493228e+2, -1348684.3, -1371952.3, 0.0008537622, 0.00000043422645, 0.000047432022, -1348684.3, -25020.594, 0.0, 10.000001, 9.969248 
1.395e+3, 1.7490156e+2, -1250726.3, -1274310.1, -0.006407723, 0.0000004368295, -0.00007374465, -1250726.3, -24761.586, 0.0, 10.000001, 9.968834 
1.395e+3, 1.8486422e+2, -1162645.3, -1195720.0, 0.0003244919, 0.00000043490115, 0.00006622437, -1162645.3, -34314.637, 0.0, 10.000001, 9.956394 
1.395e+3, 1.9482064e+2, -1064495.5, -1097832.9, -0.005597007, 0.00000042822984, -0.000057586945, -1064495.5, -33737.973, 0.0, 10.000001, 9.956052 
1.395e+3, 2.0477042e+2, -976331.56, -1019434.94, -0.00016489124, 0.00000042504055, 0.00006814416, -976331.56, -43081.723, 0.0, 10.000001, 9.94329 
1.395e+3, 2.1471375e+2, -878044.56, -921409.8, -0.0073963027, 0.00000042562363, -0.00012675782, -878044.56, -42239.316, 0.0, 10.000001, 9.942949 
1.395e+3, 2.2465037e+2, -789758.44, -843144.8, -0.00089807925, 0.00000042424858, 0.00012094539, -789758.44, -51332.21, 0.0, 10.000001, 9.929907 
1.395e+3, 2.3458035e+2, -691324.94, -744966.4, -0.0061295754, 0.00000042065702, -0.00008876468, -691324.94, -50212.445, 0.0, 10.000001, 9.929576 
1.395e+3, 2.4450338e+2, -603000.94, -667018.75, -0.0004933445, 0.00000041804628, 0.000074754884, -603000.94, -59134.043, 0.0, 10.000001, 9.916136 
1.395e+3, 2.5441962e+2, -504248.25, -568343.25, -0.0064026844, 0.00000041661045, -0.0001066927, -504248.25, -57560.707, 0.0, 10.000001, 9.916036 
1.395e+3, 2.643288e+2, -416012.84, -490987.84, -0.00009496026, 0.00000041576774, 0.00014063438, -416012.84, -66435.18, 0.0, 10.000001, 9.901964 
1.395e+3, 2.742313e+2, -316727.63, -391374.75, -0.0054000285, 0.00000041567677, -0.00020341018, -316727.63, -64194.63, 0.0, 10.000001, 9.902384 
1.395e+3, 2.841256e+2, -230254.38, -318081.22, 0.0015390296, 0.000000414153, 0.0002290742, -230254.38, -74685.41, 0.0, 10.000001, 9.885438 
1.395e+3, 2.940121e+2, -130548.24, -217765.0, -0.0028593747, 0.0000004106648, -0.00025331927, -130548.24, -71866.84, 0.0, 10.000001, 9.886216 
1.395e+3, 3.0392656e+2, -40804.242, -84750.16, 0.0027258669, 0.00000040917223, 0.00017315274, -40804.242, -40804.242, 0.0, 10.000001, 9.942172 
1.395e+3, 3.138706e+2, -39726.234, -82511.21, -0.001987079, 0.00000041065712, -0.00005513696, -39726.234, -39726.234, 0.0, 10.000001, 9.943684 
1.405e+3, 1.2499335e+2, -1719944.6, -1724224.5, 0.0035540208, 0.00000046419322, 0.000017724207, -1719944.6, -4879.439, 0.0, 10.000001, 9.994327 
1.405e+3, 1.3498761e+2, -1622564.1, -1627434.8, -0.0019413861, 0.00000046192892, -0.000068302084, -1622564.1, -5442.6636, 0.0, 10.000001, 9.993545 
1.405e+3, 1.4497514e+2, -1534462.8, -1548146.1, 0.008454075, 0.00000045696234, 0.000071021816, -1534462.8, -15219.165, 0.0, 10.000001, 9.981864 
1.405e+3, 1.5495703e+2, -1436735.1, -1450821.9, -0.00044498115, 0.00000044927825, -0.00005688144, -1436735.1, -15313.995, 0.0, 10.000001, 9.981333 
1.405e+3, 1.6493228e+2, -1348684.1, -1371952.3, 0.0032230278, 0.00000044655778, 0.000047436133, -1348684.1, -25020.49, 0.0, 10.000001, 9.969248 
1.405e+3, 1.7490156e+2, -1250726.1, -1274310.1, -0.0032177072, 0.0000004489028, -0.00007374225, -1250726.1, -24761.48, 0.0, 10.000001, 9.968834 
1.405e+3, 1.8486422e+2, -1162645.1, -1195720.0, 0.0044385167, 0.00000044693056, 0.00006622627, -1162645.1, -34314.53, 0.0, 10.000001, 9.956394 
1.405e+3, 1.9482064e+2, -1064495.5, -1097832.9, -0.0028801584, 0.00000044044006, -0.00005758429, -1064495.5, -33737.875, 0.0, 10.000001, 9.956052 
1.405e+3, 2.0477042e+2, -976331.5, -1019434.94, 0.002170849, 0.00000043703386, 0.00006814685, -976331.5, -43081.625, 0.0, 10.000001, 9.94329 
1.405e+3, 2.1471375e+2, -878044.44, -921409.8, -0.0037868568, 0.00000043696863, -0.00012675588, -878044.44, -42239.215, 0.0, 10.000001, 9.942948 
1.405e+3, 2.2465037e+2, -789758.4, -843144.8, 0.0033851345, 0.00000043562264, 0.000120947014, -789758.4, -51332.105, 0.0, 10.000001, 9.929907 
1.405e+3, 2.3458035e+2, -691324.9, -744966.4, -0.0036296383, 0.0000004328276, -0.00008876288, -691324.9, -50212.35, 0.0, 10.000001, 9.929576 
1.405e+3, 2.4450338e+2, -603000.8, -667018.75, 0.0009604478, 0.00000043028837, 0.000074756725, -603000.8, -59133.95, 0.0, 10.000001, 9.916136 
1.405e+3, 2.5441962e+2, -504248.16, -568343.25, -0.004997158, 0.00000042805777, -0.000106691, -504248.16, -57560.613, 0.0, 10.000001, 9.916036 
1.405e+3, 2.643288e+2, -416012.75, -490987.8, 0.0016323786, 0.00000042696476, 0.00014063592, -416012.75, -66435.08, 0.0, 10.000001, 9.901964 
1.405e+3, 2.742313e+2, -316727.53, -391374.72, -0.0044268453, 0.00000042731838, -0.00020340881, -316727.53, -64194.535, 0.0, 10.000001, 9.902384 
1.405e+3, 2.841256e+2, -230254.28, -318081.22, 0.0015391813, 0.00000042599189, 0.00022907546, -230254.28, -74685.31, 0.0, 10.000001, 9.885438 
1.405e+3, 2.940121e+2, -130548.16, -217764.97, -0.0046682865, 0.00000042235897, -0.000253318, -130548.16, -71866.75, 0.0, 10.000001, 9.886216 
1.405e+3, 3.0392656e+2, -40804.156, -84750.13, -0.00008131426, 0.00000042072455, 0.00017315394, -40804.156, -40804.156, 0.0, 10.000001, 9.942172 
1.405e+3, 3.138706e+2, -39726.14, -82511.18, -0.0051468136, 0.00000042207463, -0.000055135937, -39726.14, -39726.14, 0.0, 10.000001, 9.943684 
1.415e+3, 1.2499335e+2, -1719944.6, -1724224.6, 0.0008113651, 0.00000048211564, 0.000017724364, -1719944.6, -4879.454, 0.0, 10.000001, 9.994327 
1.415e+3, 1.3498761e+2, -1622564.1, -1627434.8, -0.0046875426, 0.00000047038046, -0.000068288966, -1622564.1, -5442.678, 0.0, 10.000001, 9.993545 
1.415e+3, 1.4497514e+2, -1534462.8, -1548146.3, 0.0055043907, 0.00000046450327, 0.00007102816, -1534462.8, -15219.1875, 0.0, 10.000001, 9.981864 
1.415e+3, 1.5495703e+2, -1436735.1, -1450821.9, -0.0033937457, 0.00000046452865, -0.00005687746, -1436735.1, -15314.018, 0.0, 10.000001, 9.981332 
1.415e+3, 1.6493228e+2, -1348684.1, -1371952.3, 0.00069461437, 0.00000046307866, 0.00004743808, -1348684.1, -25020.506, 0.0, 10.000001, 9.969248 
1.415e+3, 1.7490156e+2, -1250726.1, -1274310.1, -0.0057431874, 0.00000046011797, -0.000073742005, -1250726.1, -24761.496, 0.0, 10.000001, 9.968834 
1.415e+3, 1.8486422e+2, -1162645.1, -1195720.0, 0.0019526235, 0.00000045663802, 0.000066229484, -1162645.1, -34314.55, 0.0, 10.000001, 9.956394 
1.415e+3, 1.9482064e+2, -1064495.5, -1097832.9, -0.005364879, 0.00000045261663, -0.000057573216, -1064495.5, -33737.895, 0.0, 10.000001, 9.956052 
1.415e+3, 2.0477042e+2, -976331.5, -1019434.94, 0.0011099234, 0.00000045030114, 0.00006815395, -976331.5, -43081.637, 0.0, 10.000001, 9.94329 
1.415e+3, 2.1471375e+2, -878044.5, -921409.8, -0.0048177154, 0.00000044983196, -0.00012676556, -878044.5, -42239.227, 0.0, 10.000001, 9.942948 
1.415e+3, 2.2465037e+2, -789758.4, -843144.8, 0.0010000947, 0.00000044787453, 0.000120934805, -789758.4, -51332.12, 0.0, 10.000001, 9.929907 
1.415e+3, 2.3458035e+2, -691324.9, -744966.4, -0.0060587833, 0.0000004442331, -0.00008876149, -691324.9, -50212.367, 0.0, 10.000001, 9.929576 
1.415e+3, 2.4450338e+2, -603000.8, -667018.75, 0.00060537324, 0.00000044147345, 0.00007476291, -603000.8, -59133.965, 0.0, 10.000001, 9.916136 
1.415e+3, 2.5441962e+2, -504248.16, -568343.25, -0.005252732, 0.00000043977067, -0.000106690546, -504248.16, -57560.625, 0.0, 10.000001, 9.916036 
1.415e+3, 2.643288e+2, -416012.75, -490987.84, 0.0008399, 0.00000043936356, 0.00014063367, -416012.75, -66435.09, 0.0, 10.000001, 9.901964 
1.415e+3, 2.742313e+2, -316727.56, -391374.75, -0.0052556093, 0.0000004406035, -0.00020340992, -316727.56, -64194.547, 0.0, 10.000001, 9.902384 
1.415e+3, 2.841256e+2, -230254.3, -318081.22, 0.00088219036, 0.0000004384694, 0.00022907568, -230254.3, -74685.33, 0.0, 10.000001, 9.885438 
1.415e+3, 2.940121e+2, -130548.17, -217765.0, -0.0053103617, 0.0000004317096, -0.00025331625, -130548.17, -71866.766, 0.0, 10.000001, 9.886216 
1.415e+3, 3.0392656e+2, -40804.168, -84750.16, 0.0007719938, 0.00000043033137, 0.00017315712, -40804.168, -40804.168, 0.0, 10.000001, 9.942172 
1.415e+3, 3.138706e+2, -39726.152, -82511.21, -0.004118789, 0.000000436982, -0.000055131444, -39726.152, -39726.152, 0.0, 10.000001, 9.943684 
1.425e+3, 1.2499335e+2, -1719944.5, -1724224.5, 0.0051625357, 0.0000004957842, 0.00001772721, -1719944.5, -4879.34, 0.0, 10.000002, 9.994327 
1.425e+3, 1.3498761e+2, -1622564.0, -1627434.8, -0.00520771, 0.0000004825412, -0.00006828005, -1622564.0, -5442.565, 0.0, 10.000002, 9.993544 
1.425e+3, 1.4497514e+2, -1534462.6, -1548146.1, 0.0034534223, 0.00000047672086, 0.000071028684, -1534462.6, -15219.074, 0.0, 10.000002, 9.981864 
1.425e+3, 1.5495703e+2, -1436735.0, -1450821.9, -0.002534829, 0.0000004783803, -0.0000568741, -1436735.0, -15313.908, 0.0, 10.000002, 9.981332 
1.425e+3, 1.6493228e+2, -1348684.0, -1371952.3, 0.0030499706, 0.0000004769564, 0.00004744235, -1348684.0, -25020.398, 0.0, 10.000002, 9.969248 
1.425e+3, 1.7490156e+2, -1250726.0, -1274310.1, -0.00484581, 0.00000047238072, -0.00007373878, -1250726.0, -24761.389, 0.0, 10.000001, 9.968834 
1.425e+3, 1.8486422e+2, -1162645.1, -1195720.0, 0.002602392, 0.00000046852716, 0.00006623217, -1162645.1, -34314.44, 0.0, 10.000001, 9.956394 
1.425e+3, 1.9482064e+2, -1064495.4, -1097832.9, -0.0043710237, 0.0000004654316, -0.000057570545, -1064495.4, -33737.785, 0.0, 10.000001, 9.956052 
1.425e+3, 2.0477042e+2, -976331.4, -1019434.94, 0.0019309251, 0.00000046332687, 0.00006815653, -976331.4, -43081.53, 0.0, 10.000001, 9.94329 
1.425e+3, 2.1471375e+2, -878044.4, -921409.8, -0.0053879293, 0.00000046229414, -0.00012676316, -878044.4, -42239.13, 0.0, 10.000001, 9.942948 
1.425e+3, 2.2465037e+2, -789758.25, -843144.8, 0.0005406817, 0.00000046008856, 0.000120937046, -789758.25, -51332.023, 0.0, 10.000001, 9.929907 
1.425e+3, 2.3458035e+2, -691324.75, -744966.4, -0.005717287, 0.00000045655588, -0.00008875937, -691324.75, -50212.258, 0.0, 10.000001, 9.929576 
1.425e+3, 2.4450338e+2, -603000.75, -667018.7, 0.001130791, 0.00000045376947, 0.00007476483, -603000.75, -59133.855, 0.0, 10.000001, 9.916136 
1.425e+3, 2.5441962e+2, -504248.06, -568343.25, -0.0056785713, 0.00000045187673, -0.0001066889, -504248.06, -57560.523, 0.0, 10.000001, 9.916036 
1.425e+3, 2.643288e+2, -416012.66, -490987.8, 0.00059100677, 0.00000045154428, 0.0001406352, -416012.66, -66435.0, 0.0, 10.000001, 9.901964 
1.425e+3, 2.742313e+2, -316727.44, -391374.72, -0.005208571, 0.0000004531962, -0.00020340832, -316727.44, -64194.45, 0.0, 10.000001, 9.902384 
1.425e+3, 2.841256e+2, -230254.2, -318081.22, 0.0017265747, 0.0000004509437, 0.00022907714, -230254.2, -74685.23, 0.0, 10.000001, 9.885438 
1.425e+3, 2.940121e+2, -130548.07, -217764.97, -0.003366323, 0.00000044333788, -0.00025331523, -130548.07, -71866.664, 0.0, 10.000001, 9.886216 
1.425e+3, 3.0392656e+2, -40804.066, -84750.13, 0.003518857, 0.00000044195008, 0.00017315784, -40804.066, -40804.066, 0.0, 10.000001, 9.942172 
1.425e+3, 3.138706e+2, -39726.06, -82511.18, -0.0020005628, 0.00000044983923, -0.000055130826, -39726.06, -39726.06, 0.0, 10.000001, 9.943684 
1.435e+3, 1.24993354e+2, -1719944.5, -1724224.6, 0.0023652501, 0.00000050519935, 0.000017732751, -1719944.5, -4879.3667, 0.0, 10.000002, 9.994327 
1.435e+3, 1.3498761e+2, -1622564.1, -1627434.8, -0.008008551, 0.00000049841117, -0.00006827534, -1622564.1, -5442.591, 0.0, 10.000002, 9.993544 
1.435e+3, 1.4497514e+2, -1534462.6, -1548146.1, -0.00022213472, 0.0000004936149, 0.000071023394, -1534462.6, -15219.091, 0.0, 10.000002, 9.981864 
1.435e+3, 1.5495703e+2, -1436735.0, -1450821.9, -0.0062107313, 0.00000049083303, -0.00005687137, -1436735.0, -15313.924, 0.0, 10.000002, 9.981332 
1.435e+3, 1.6493228e+2, -1348684.0, -1371952.3, 0.00042916508, 0.00000048819084, 0.000047448946, -1348684.0, -25020.418, 0.0, 10.000002, 9.969248 
1.435e+3, 1.7490156e+2, -1250726.0, -1274310.1, -0.0074598435, 0.000000485691, -0.00007373258, -1250726.0, -24761.408, 0.0, 10.000001, 9.968834 
1.435e+3, 1.8486422e+2, -1162645.1, -1195720.0, 0.0006031455, 0.00000048259784, 0.000066234315, -1162645.1, -34314.46, 0.0, 10.000001, 9.956394 
1.435e+3, 1.9482066e+2, -1064495.4, -1097832.9, -0.0063625327, 0.0000004788847, -0.000057576282, -1064495.4, -33737.8, 0.0, 10.000001, 9.956052 
1.435e+3, 2.0477042e+2, -976331.4, -1019434.94, -0.0008577629, 0.00000047611067, 0.00006815458, -976331.4, -43081.547, 0.0, 10.000001, 9.94329 
1.435e+3, 2.1471375e+2, -878044.4, -921409.8, -0.008192499, 0.0000004743549, -0.0001267487, -878044.4, -42239.145, 0.0, 10.000001, 9.942948 
1.435e+3, 2.2465037e+2, -789758.3, -843144.8, 0.000057050063, 0.00000047226456, 0.00012095374, -789758.3, -51332.04, 0.0, 10.000001, 9.929907 
1.435e+3, 2.3458035e+2, -691324.8, -744966.4, -0.0061246497, 0.00000046979576, -0.00008875653, -691324.8, -50212.273, 0.0, 10.000001, 9.929576 
1.435e+3, 2.4450338e+2, -603000.75, -667018.75, -0.00097561977, 0.0000004671763, 0.00007476249, -603000.75, -59133.87, 0.0, 10.000001, 9.916136 
1.435e+3, 2.5441962e+2, -504248.1, -568343.25, -0.007866697, 0.00000046437586, -0.000106686064, -504248.1, -57560.54, 0.0, 10.000001, 9.916036 
1.435e+3, 2.643288e+2, -416012.7, -490987.84, 0.00014427608, 0.00000046350675, 0.0001406405, -416012.7, -66435.016, 0.0, 10.000001, 9.901964 
1.435e+3, 2.742313e+2, -316727.47, -391374.75, -0.0055391034, 0.00000046509643, -0.000203404, -316727.47, -64194.46, 0.0, 10.000001, 9.902384 
1.435e+3, 2.841256e+2, -230254.22, -318081.22, 0.0016002837, 0.00000046341464, 0.00022907984, -230254.22, -74685.234, 0.0, 10.000001, 9.885438 
1.435e+3, 2.940121e+2, -130548.08, -217765.0, -0.003474893, 0.0000004572438, -0.00025331494, -130548.08, -71866.68, 0.0, 10.000001, 9.886216 
1.435e+3, 3.0392656e+2, -40804.082, -84750.16, 0.0028367604, 0.00000045558065, 0.00017315608, -40804.082, -40804.082, 0.0, 10.000001, 9.942172 
1.435e+3, 3.138706e+2, -39726.074, -82511.21, -0.002750912, 0.00000046064633, -0.000055134078, -39726.074, -39726.074, 0.0, 10.000001, 9.943684 
1.445e+3, 1.24993354e+2, -1719944.4, -1724224.5, 0.0054985234, 0.0000005180798, 0.000017735187, -1719944.4, -4879.2446, 0.0, 10.000002, 9.994327 
1.445e+3, 1.3498761e+2, -1622564.0, -1627434.8, -0.00020718476, 0.00000051244757, -0.00006826742, -1622564.0, -5442.4727, 0.0, 10.000002, 9.993544 
1.445e+3, 1.4497514e+2, -1534462.5, -1548146.1, 0.007571552, 0.0000005080296, 0.00007102189, -1534462.5, -15218.975, 0.0, 10.000002, 9.981864 
1.445e+3, 1.5495703e+2, -1436734.9, -1450821.9, -0.0021590733, 0.00000050484135, -0.000056868164, -1436734.9, -15313.809, 0.0, 10.000002, 9.981332 
1.445e+3, 1.6493228e+2, -1348683.9, -1371952.3, 0.004060708, 0.00000050173026, 0.00004745366, -1348683.9, -25020.303, 0.0, 10.000002, 9.969248 
1.445e+3, 1.7490156e+2, -1250725.9, -1274310.1, -0.0033127514, 0.0000004987019, -0.000073729636, -1250725.9, -24761.293, 0.0, 10.000002, 9.968834 
1.445e+3, 1.8486422e+2, -1162645.0, -1195720.0, 0.004620511, 0.00000049567103, 0.00006623659, -1162645.0, -34314.344, 0.0, 10.000002, 9.956394 
1.445e+3, 1.9482066e+2, -1064495.3, -1097832.9, -0.0030832372, 0.0000004926383, -0.000057573543, -1064495.3, -33737.69, 0.0, 10.000002, 9.956052 
1.445e+3, 2.0477042e+2, -976331.3, -1019434.94, 0.002549438, 0.0000004897902, 0.00006815735, -976331.3, -43081.438, 0.0, 10.000002, 9.94329 
1.445e+3, 2.1471375e+2, -878044.25, -921409.8, -0.004683812, 0.0000004871429, -0.00012674635, -878044.25, -42239.03, 0.0, 10.000002, 9.942948 
1.445e+3, 2.2465037e+2, -789758.2, -843144.75, 0.0036583752, 0.00000048489306, 0.000120955825, -789758.2, -51331.926, 0.0, 10.000002, 9.929907 
1.445e+3, 2.3458035e+2, -691324.7, -744966.4, -0.003819328, 0.0000004830928, -0.000088754496, -691324.7, -50212.168, 0.0, 10.000002, 9.929576 
1.445e+3, 2.4450338e+2, -603000.6, -667018.7, 0.00075426436, 0.00000048051646, 0.00007476442, -603000.6, -59133.77, 0.0, 10.000002, 9.916135 
1.445e+3, 2.5441962e+2, -504247.97, -568343.25, -0.0057841716, 0.00000047701093, -0.000106684296, -504247.97, -57560.43, 0.0, 10.000002, 9.916036 
1.445e+3, 2.643288e+2, -416012.56, -490987.8, 0.0025763835, 0.00000047600145, 0.00014064209, -416012.56, -66434.9, 0.0, 10.000002, 9.901964 
1.445e+3, 2.742313e+2, -316727.34, -391374.72, -0.004325076, 0.0000004781703, -0.0002034026, -316727.34, -64194.355, 0.0, 10.000002, 9.902384 
1.445e+3, 2.841256e+2, -230254.11, -318081.2, 0.0015365913, 0.00000047662195, 0.00022908111, -230254.11, -74685.13, 0.0, 10.000002, 9.885438 
1.445e+3, 2.940121e+2, -130547.984, -217764.97, -0.005282345, 0.0000004699711, -0.00025331374, -130547.984, -71866.58, 0.0, 10.000002, 9.886216 
1.445e+3, 3.0392656e+2, -40803.98, -84750.13, 0.0005345967, 0.00000046814935, 0.00017315718, -40803.98, -40803.98, 0.0, 10.000002, 9.942172 
1.445e+3, 3.138706e+2, -39725.97, -82511.18, -0.0048139244, 0.0000004735388, -0.000055133158, -39725.97, -39725.97, 0.0, 10.000002, 9.943684 
1.455e+3, 1.24993354e+2, -1719944.4, -1724224.5, 0.0018692757, 0.0000005344243, 0.000017734557, -1719944.4, -4879.2607, 0.0, 10.000002, 9.994327 
1.455e+3, 1.3498761e+2, -1622564.0, -1627434.8, -0.0038402944, 0.00000052465015, -0.00006825631, -1622564.0, -5442.4883, 0.0, 10.000002, 9.993544 
1.455e+3, 1.4497514e+2, -1534462.6, -1548146.1, 0.003780791, 0.0000005199648, 0.00007102417, -1534462.6, -15218.999, 0.0, 10.000002, 9.981864 
1.455e+3, 1.5495703e+2, -1436734.9, -1450821.9, -0.0059489044, 0.0000005204051, -0.000056864483, -1436734.9, -15313.833, 0.0, 10.000002, 9.981332 
1.455e+3, 1.6493228e+2, -1348684.0, -1371952.3, 0.0016245636, 0.0000005175748, 0.00004745649, -1348684.0, -25020.322, 0.0, 10.000002, 9.969248 
1.455e+3, 1.7490156e+2, -1250726.0, -1274310.1, -0.0057407855, 0.00000051141336, -0.00007372994, -1250726.0, -24761.31, 0.0, 10.000002, 9.968834 
1.455e+3, 1.8486422e+2, -1162645.0, -1195720.0, 0.0014860894, 0.0000005077464, 0.000066239, -1162645.0, -34314.363, 0.0, 10.000002, 9.956394 
1.455e+3, 1.9482066e+2, -1064495.3, -1097832.9, -0.0062248143, 0.0000005066921, -0.000057562327, -1064495.3, -33737.71, 0.0, 10.000002, 9.956052 
1.455e+3, 2.0477042e+2, -976331.3, -1019434.94, 0.0011116661, 0.0000005043653, 0.00006816485, -976331.3, -43081.457, 0.0, 10.000002, 9.94329 
1.455e+3, 2.1471375e+2, -878044.3, -921409.8, -0.006085965, 0.000000500658, -0.00012675615, -878044.3, -42239.047, 0.0, 10.000002, 9.942948 
1.455e+3, 2.2465037e+2, -789758.2, -843144.8, 0.0012303868, 0.0000004979737, 0.00012094331, -789758.2, -51331.94, 0.0, 10.000002, 9.929907 
1.455e+3, 2.3458035e+2, -691324.7, -744966.4, -0.006280928, 0.0000004964469, -0.00008875325, -691324.7, -50212.188, 0.0, 10.000002, 9.929576 
1.455e+3, 2.4450338e+2, -603000.6, -667018.75, -0.00006291722, 0.0000004937899, 0.00007477064, -603000.6, -59133.785, 0.0, 10.000002, 9.916135 
1.455e+3, 2.5441962e+2, -504248.0, -568343.25, -0.0065226364, 0.00000048978194, -0.00010668359, -504248.0, -57560.445, 0.0, 10.000002, 9.916036 
1.455e+3, 2.643288e+2, -416012.6, -490987.84, 0.0014885784, 0.0000004890283, 0.00014063997, -416012.6, -66434.914, 0.0, 10.000002, 9.901964 
1.455e+3, 2.742313e+2, -316727.38, -391374.75, -0.005436713, 0.0000004924177, -0.00020340411, -316727.38, -64194.37, 0.0, 10.000002, 9.902384 
1.455e+3, 2.841256e+2, -230254.13, -318081.22, 0.00060783705, 0.0000004905655, 0.00022908094, -230254.13, -74685.15, 0.0, 10.000002, 9.885438 
1.455e+3, 2.940121e+2, -130548.0, -217765.0, -0.006195372, 0.0000004815197, -0.00025331162, -130548.0, -71866.59, 0.0, 10.000002, 9.886216 
1.455e+3, 3.0392656e+2, -40803.996, -84750.16, 0.0011107324, 0.00000047965614, 0.00017316113, -40803.996, -40803.996, 0.0, 10.000002, 9.942172 
1.455e+3, 3.138706e+2, -39725.98, -82511.21, -0.0040638135, 0.0000004885165, -0.000055128065, -39725.98, -39725.98, 0.0, 10.000002, 9.943684 
1.465e+3, 1.24993354e+2, -1719944.3, -1724224.5, 0.0074672783, 0.0000005494748, 0.000017736284, -1719944.3, -4879.133, 0.0, 10.000002, 9.994327 
1.465e+3, 1.3498761e+2, -1622563.9, -1627434.8, -0.0038814426, 0.0000005388147, -0.0000682475, -1622563.9, -5442.3643, 0.0, 10.000002, 9.993544 
1.465e+3, 1.4497514e+2, -1534462.5, -1548146.1, 0.0027372863, 0.00000053390096, 0.00007102257, -1534462.5, -15218.876, 0.0, 10.000002, 9.981864 
1.465e+3, 1.5495703e+2, -1436734.8, -1450821.9, -0.0041927733, 0.00000053477737, -0.000056861194, -1436734.8, -15313.708, 0.0, 10.000002, 9.981332 
1.465e+3, 1.6493228e+2, -1348683.9, -1371952.3, 0.0047675483, 0.00000053197266, 0.000047461403, -1348683.9, -25020.197, 0.0, 10.000002, 9.969248 
1.465e+3, 1.7490156e+2, -1250725.9, -1274310.0, -0.0040688547, 0.00000052541844, -0.00007372675, -1250725.9, -24761.191, 0.0, 10.000002, 9.968834 
1.465e+3, 1.8486422e+2, -1162644.9, -1195720.0, 0.0024183104, 0.00000052158214, 0.00006624147, -1162644.9, -34314.246, 0.0, 10.000002, 9.956394 
1.465e+3, 1.9482066e+2, -1064495.1, -1097832.9, -0.0054946225, 0.00000052059204, -0.00005755953, -1064495.1, -33737.59, 0.0, 10.000002, 9.956052 
1.465e+3, 2.0477042e+2, -976331.2, -1019434.94, 0.0021212006, 0.0000005182808, 0.000068167756, -976331.2, -43081.336, 0.0, 10.000002, 9.94329 
1.465e+3, 2.1471375e+2, -878044.2, -921409.75, -0.0057644653, 0.0000005145356, -0.00012675337, -878044.2, -42238.934, 0.0, 10.000002, 9.942948 
1.465e+3, 2.2465037e+2, -789758.06, -843144.75, 0.001546241, 0.00000051179956, 0.000120945915, -789758.06, -51331.83, 0.0, 10.000002, 9.929907 
1.465e+3, 2.3458035e+2, -691324.56, -744966.4, -0.0055607366, 0.0000005102034, -0.00008875088, -691324.56, -50212.07, 0.0, 10.000002, 9.929576 
1.465e+3, 2.4450338e+2, -603000.5, -667018.7, 0.00085419824, 0.000000507421, 0.00007477276, -603000.5, -59133.668, 0.0, 10.000002, 9.916135 
1.465e+3, 2.5441962e+2, -504247.88, -568343.25, -0.0067226663, 0.0000005032211, -0.000106681764, -504247.88, -57560.336, 0.0, 10.000002, 9.916036 
1.465e+3, 2.643288e+2, -416012.47, -490987.8, 0.0013488481, 0.0000005025838, 0.00014064157, -416012.47, -66434.805, 0.0, 10.000002, 9.901964 
1.465e+3, 2.742313e+2, -316727.25, -391374.72, -0.0048240633, 0.00000050648174, -0.00020340261, -316727.25, -64194.26, 0.0, 10.000002, 9.902384 
1.465e+3, 2.841256e+2, -230254.02, -318081.2, 0.0022545543, 0.00000050445675, 0.00022908226, -230254.02, -74685.04, 0.0, 10.000002, 9.885438 
1.465e+3, 2.940121e+2, -130547.88, -217764.97, -0.0037250288, 0.0000004943034, -0.0002533106, -130547.88, -71866.48, 0.0, 10.000002, 9.886216 
1.465e+3, 3.0392656e+2, -40803.887, -84750.125, 0.004140801, 0.0000004923525, 0.00017316196, -40803.887, -40803.887, 0.0, 10.000002, 9.942172 
1.465e+3, 3.138706e+2, -39725.875, -82511.18, -0.0023026133, 0.0000005026485, -0.00005512734, -39725.875, -39725.875, 0.0, 10.000002, 9.943684 
1.475e+3, 1.24993354e+2, -1719944.3, -1724224.5, 0.0030427796, 0.0000005632304, 0.000017740449, -1719944.3, -4879.162, 0.0, 10.000002, 9.994327 
1.475e+3, 1.3498761e+2, -1622563.9, -1627434.8, -0.008309697, 0.00000055494115, -0.00006824099, -1622563.9, -5442.393, 0.0, 10.000002, 9.993544 
1.475e+3, 1.4497514e+2, -1534462.5, -1548146.1, -0.00067427533, 0.00000054983786, 0.00007101707, -1534462.5, -15218.894, 0.0, 10.000002, 9.981864 
1.475e+3, 1.5495703e+2, -1436734.8, -1450821.9, -0.0076010884, 0.0000005479576, -0.000056858295, -1436734.8, -15313.727, 0.0, 10.000002, 9.981332 
1.475e+3, 1.6493228e+2, -1348683.9, -1371952.3, 0.001377281, 0.000000544923, 0.000047468402, -1348683.9, -25020.22, 0.0, 10.000002, 9.969248 
1.475e+3, 1.7490156e+2, -1250725.9, -1274310.1, -0.0074570132, 0.0000005407168, -0.00007372006, -1250725.9, -24761.213, 0.0, 10.000002, 9.968834 
1.475e+3, 1.8486422e+2, -1162644.9, -1195720.0, -0.00005695877, 0.0000005371782, 0.000066244, -1162644.9, -34314.266, 0.0, 10.000002, 9.956394 
1.475e+3, 1.9482066e+2, -1064495.1, -1097832.9, -0.007958916, 0.0000005343378, -0.00005756515, -1064495.1, -33737.61, 0.0, 10.000002, 9.956052 
1.475e+3, 2.0477042e+2, -976331.2, -1019434.94, -0.0006187366, 0.0000005315362, 0.000068166075, -976331.2, -43081.355, 0.0, 10.000002, 9.94329 
1.475e+3, 2.1471375e+2, -878044.2, -921409.8, -0.008510504, 0.00000052877556, -0.00012673801, -878044.2, -42238.953, 0.0, 10.000002, 9.942948 
1.475e+3, 2.2465037e+2, -789758.06, -843144.8, 0.00017723528, 0.0000005263708, 0.00012096364, -789758.06, -51331.848, 0.0, 10.000002, 9.929907 
1.475e+3, 2.3458035e+2, -691324.6, -744966.4, -0.006884799, 0.0000005243622, -0.00008874737, -691324.6, -50212.086, 0.0, 10.000002, 9.929576 
1.475e+3, 2.4450338e+2, -603000.56, -667018.75, -0.0011297938, 0.0000005214095, 0.00007477077, -603000.56, -59133.684, 0.0, 10.000002, 9.916135 
1.475e+3, 2.5441962e+2, -504247.9, -568343.25, -0.008738956, 0.00000051732826, -0.00010667882, -504247.9, -57560.35, 0.0, 10.000002, 9.916036 
1.475e+3, 2.643288e+2, -416012.5, -490987.84, 0.0004384548, 0.00000051666774, 0.00014064692, -416012.5, -66434.82, 0.0, 10.000002, 9.901964 
1.475e+3, 2.742313e+2, -316727.28, -391374.75, -0.0056609027, 0.00000052036233, -0.0002033981, -316727.28, -64194.273, 0.0, 10.000002, 9.902384 
1.475e+3, 2.841256e+2, -230254.03, -318081.22, 0.0017686178, 0.00000051829556, 0.00022908507, -230254.03, -74685.05, 0.0, 10.000002, 9.885438 
1.475e+3, 2.940121e+2, -130547.9, -217765.0, -0.0041799434, 0.00000050832216, -0.00025331063, -130547.9, -71866.49, 0.0, 10.000002, 9.886216 
1.475e+3, 3.0392656e+2, -40803.902, -84750.16, 0.003523411, 0.00000050623845, 0.00017315967, -40803.902, -40803.902, 0.0, 10.000002, 9.942172 
1.475e+3, 3.138706e+2, -39725.89, -82511.21, -0.0029398235, 0.00000051593486, -0.000055130986, -39725.89, -39725.89, 0.0, 10.000002, 9.943684 
1.485e+3, 1.24993354e+2, -1719944.1, -1724224.5, 0.0060881954, 0.00000057888235, 0.000017742334, -1719944.1, -4879.0273, 0.0, 10.000002, 9.994327 
1.485e+3, 1.3498761e+2, -1622563.8, -1627434.8, -0.00052971527, 0.0000005702005, -0.00006823056, -1622563.8, -5442.2607, 0.0, 10.000002, 9.993544 
1.485e+3, 1.4497514e+2, -1534462.4, -1548146.1, 0.008669778, 0.00000056466104, 0.00007101467, -1534462.4, -15218.763, 0.0, 10.000002, 9.981864 
1.485e+3, 1.5495703e+2, -1436734.6, -1450821.8, -0.002316562, 0.0000005623174, -0.00005685467, -1436734.6, -15313.597, 0.0, 10.000002, 9.981332 
1.485e+3, 1.6493228e+2, -1348683.8, -1371952.3, 0.004849644, 0.00000055940956, 0.000047473924, -1348683.8, -25020.09, 0.0, 10.000002, 9.969248 
1.485e+3, 1.7490156e+2, -1250725.8, -1274310.0, -0.0033936528, 0.00000055593085, -0.000073716874, -1250725.8, -24761.086, 0.0, 10.000002, 9.968834 
1.485e+3, 1.8486422e+2, -1162644.8, -1195720.0, 0.0047214637, 0.0000005523165, 0.000066246306, -1162644.8, -34314.137, 0.0, 10.000002, 9.956394 
1.485e+3, 1.9482066e+2, -1064495.0, -1097832.9, -0.0038772756, 0.0000005485538, -0.000057562196, -1064495.0, -33737.484, 0.0, 10.000002, 9.956052 
1.485e+3, 2.0477042e+2, -976331.06, -1019434.9, 0.0032352654, 0.0000005455383, 0.00006816915, -976331.06, -43081.23, 0.0, 10.000002, 9.94329 
1.485e+3, 2.1471375e+2, -878044.06, -921409.75, -0.005018354, 0.00000054333015, -0.00012673537, -878044.06, -42238.83, 0.0, 10.000002, 9.942948 
1.485e+3, 2.2465037e+2, -789757.94, -843144.75, 0.0034420765, 0.00000054113843, 0.00012096604, -789757.94, -51331.723, 0.0, 10.000002, 9.929907 
1.485e+3, 2.3458035e+2, -691324.5, -744966.4, -0.0047388147, 0.000000538958, -0.00008874501, -691324.5, -50211.965, 0.0, 10.000002, 9.929576 
1.485e+3, 2.4450338e+2, -603000.44, -667018.7, 0.0008715331, 0.00000053585006, 0.000074772994, -603000.44, -59133.566, 0.0, 10.000002, 9.916135 
1.485e+3, 2.5441962e+2, -504247.78, -568343.25, -0.0063204356, 0.0000005316328, -0.00010667685, -504247.78, -57560.23, 0.0, 10.000002, 9.916036 
1.485e+3, 2.643288e+2, -416012.38, -490987.8, 0.0029279906, 0.00000053098324, 0.0001406487, -416012.38, -66434.7, 0.0, 10.000002, 9.901964 
1.485e+3, 2.742313e+2, -316727.16, -391374.72, -0.0048099165, 0.00000053487577, -0.00020339643, -316727.16, -64194.156, 0.0, 10.000002, 9.902384 
1.485e+3, 2.841256e+2, -230253.9, -318081.2, 0.0013395665, 0.0000005327137, 0.00022908664, -230253.9, -74684.94, 0.0, 10.000002, 9.885438 
1.485e+3, 2.940121e+2, -130547.79, -217764.97, -0.00615775, 0.00000052224254, -0.00025330918, -130547.79, -71866.38, 0.0, 10.000002, 9.886216 
1.485e+3, 3.0392656e+2, -40803.79, -84750.125, 0.0012680267, 0.00000052005277, 0.00017316086, -40803.79, -40803.79, 0.0, 10.000002, 9.942172 
1.485e+3, 3.138706e+2, -39725.777, -82511.18, -0.0044388697, 0.0000005302278, -0.000055130262, -39725.777, -39725.777, 0.0, 10.000002, 9.943684 
1.495e+3, 1.24993354e+2, -1719944.3, -1724224.5, 0.001266887, 0.00000059643446, 0.000017742628, -1719944.3, -4879.046, 0.0, 10.000002, 9.994327 
1.495e+3, 1.3498761e+2, -1622563.8, -1627434.8, -0.00535486, 0.00000058459403, -0.00006821622, -1622563.8, -5442.2793, 0.0, 10.000002, 9.993544 
1.495e+3, 1.4497514e+2, -1534462.4, -1548146.1, 0.005170409, 0.0000005783696, 0.00007101535, -1534462.4, -15218.791, 0.0, 10.000002, 9.981864 
1.495e+3, 1.5495703e+2, -1436734.8, -1450821.9, -0.005810368, 0.0000005778566, -0.00005685032, -1436734.8, -15313.624, 0.0, 10.000002, 9.981332 
1.495e+3, 1.6493228e+2, -1348683.8, -1371952.3, 0.0012035917, 0.000000575432, 0.00004747797, -1348683.8, -25020.111, 0.0, 10.000002, 9.969248 
1.495e+3, 1.7490156e+2, -1250725.8, -1274310.1, -0.0070368303, 0.0000005710582, -0.00007371718, -1250725.8, -24761.105, 0.0, 10.000002, 9.968834 
1.495e+3, 1.8486422e+2, -1162644.8, -1195720.0, 0.0016468466, 0.00000056699554, 0.000066248394, -1162644.8, -34314.16, 0.0, 10.000002, 9.956394 
1.495e+3, 1.9482066e+2, -1064495.0, -1097832.9, -0.006945536, 0.00000056324, -0.00005755067, -1064495.0, -33737.504, 0.0, 10.000002, 9.956052 
1.495e+3, 2.0477042e+2, -976331.1, -1019434.94, 0.0010433075, 0.00000056028716, 0.000068176996, -976331.1, -43081.25, 0.0, 10.000002, 9.94329 
1.495e+3, 2.1471375e+2, -878044.06, -921409.8, -0.007193944, 0.0000005581992, -0.0001267454, -878044.06, -42238.844, 0.0, 10.000002, 9.942948 
1.495e+3, 2.2465037e+2, -789758.0, -843144.8, 0.0008602048, 0.00000055610195, 0.000120953126, -789758.0, -51331.742, 0.0, 10.000002, 9.929907 
1.495e+3, 2.3458035e+2, -691324.5, -744966.4, -0.007334475, 0.0000005539906, -0.00008874379, -691324.5, -50211.984, 0.0, 10.000002, 9.929576 
1.495e+3, 2.4450338e+2, -603000.44, -667018.75, -0.0005042165, 0.00000055074275, 0.000074779426, -603000.44, -59133.582, 0.0, 10.000002, 9.916135 
1.495e+3, 2.5441962e+2, -504247.78, -568343.25, -0.007637687, 0.00000054613474, -0.000106675885, -504247.78, -57560.246, 0.0, 10.000002, 9.916036 
1.495e+3, 2.643288e+2, -416012.38, -490987.84, 0.001643617, 0.0000005455302, 0.0001406469, -416012.38, -66434.72, 0.0, 10.000002, 9.901964 
1.495e+3, 2.742313e+2, -316727.2, -391374.75, -0.006092482, 0.000000550022, -0.00020339756, -316727.2, -64194.176, 0.0, 10.000002, 9.902384 
1.495e+3, 2.841256e+2, -230253.92, -318081.22, 0.00041526498, 0.0000005477111, 0.00022908699, -230253.92, -74684.95, 0.0, 10.000002, 9.885438 
1.495e+3, 2.940121e+2, -130547.805, -217765.0, -0.0070501924, 0.0000005360646, -0.00025330624, -130547.805, -71866.4, 0.0, 10.000002, 9.886216 
1.495e+3, 3.0392656e+2, -40803.8, -84750.16, 0.001246184, 0.00000053379534, 0.00017316554, -40803.8, -40803.8, 0.0, 10.000002, 9.942172 
1.495e+3, 3.138706e+2, -39725.79, -82511.21, -0.0043589487, 0.00000054552726, -0.000055125165, -39725.79, -39725.79, 0.0, 10.000002, 9.943684 
1.5050001e+3, 1.24993354e+2, -1719944.0, -1724224.5, 0.007360998, 0.0000006131962, 0.000017744453, -1719944.0, -4878.9053, 0.0, 10.000002, 9.994327 
1.5050001e+3, 1.3498761e+2, -1622563.6, -1627434.8, -0.005324926, 0.00000060004, -0.00006820285, -1622563.6, -5442.1377, 0.0, 10.000002, 9.993544 
1.5050001e+3, 1.4497514e+2, -1534462.3, -1548146.1, 0.0045116954, 0.0000005934827, 0.000071012386, -1534462.3, -15218.65, 0.0, 10.000002, 9.981864 
1.5050001e+3, 1.5495703e+2, -1436734.5, -1450821.8, -0.0034570543, 0.00000059363424, -0.000056846337, -1436734.5, -15313.487, 0.0, 10.000002, 9.981332 
1.505e+3, 1.6493228e+2, -1348683.6, -1371952.3, 0.004600716, 0.0000005913507, 0.000047484195, -1348683.6, -25019.977, 0.0, 10.000002, 9.969248 
1.505e+3, 1.7490156e+2, -1250725.6, -1274310.0, -0.005044655, 0.0000005865864, -0.00007371347, -1250725.6, -24760.97, 0.0, 10.000002, 9.968834 
1.505e+3, 1.8486422e+2, -1162644.6, -1195720.0, 0.0032333587, 0.00000058231126, 0.000066251065, -1162644.6, -34314.027, 0.0, 10.000002, 9.956394 
1.505e+3, 1.9482066e+2, -1064494.9, -1097832.9, -0.0058235056, 0.00000057852196, -0.000057547477, -1064494.9, -33737.37, 0.0, 10.000002, 9.956052 
1.505e+3, 2.0477042e+2, -976330.94, -1019434.9, 0.0023538456, 0.0000005755477, 0.00006818019, -976330.94, -43081.12, 0.0, 10.000002, 9.94329 
1.505e+3, 2.1471375e+2, -878043.94, -921409.75, -0.0061582644, 0.0000005734507, -0.00012674277, -878043.94, -42238.72, 0.0, 10.000002, 9.942948 
1.505e+3, 2.2465037e+2, -789757.9, -843144.75, 0.002028321, 0.00000057135514, 0.000120955476, -789757.9, -51331.613, 0.0, 10.000002, 9.929907 
1.505e+3, 2.3458035e+2, -691324.4, -744966.4, -0.005969011, 0.00000056925893, -0.000088741406, -691324.4, -50211.855, 0.0, 10.000002, 9.929576 
1.505e+3, 2.4450338e+2, -603000.3, -667018.7, 0.0009702303, 0.0000005659323, 0.000074781725, -603000.3, -59133.453, 0.0, 10.000002, 9.916135 
1.505e+3, 2.5441962e+2, -504247.66, -568343.25, -0.0076372847, 0.00000056113277, -0.0001066738, -504247.66, -57560.12, 0.0, 10.000002, 9.916036 
1.505e+3, 2.643288e+2, -416012.25, -490987.8, 0.0015187073, 0.0000005605116, 0.00014064884, -416012.25, -66434.59, 0.0, 10.000002, 9.901964 
1.505e+3, 2.742313e+2, -316727.06, -391374.72, -0.005328746, 0.0000005652092, -0.00020339564, -316727.06, -64194.05, 0.0, 10.000002, 9.902384 
1.505e+3, 2.841256e+2, -230253.81, -318081.2, 0.0023865192, 0.00000056283227, 0.00022908876, -230253.81, -74684.83, 0.0, 10.000002, 9.885438 
1.505e+3, 2.940121e+2, -130547.68, -217764.97, -0.004324286, 0.0000005507467, -0.00025330472, -130547.68, -71866.27, 0.0, 10.000002, 9.886216 
1.505e+3, 3.0392656e+2, -40803.684, -84750.125, 0.00429758, 0.00000054842917, 0.00017316674, -40803.684, -40803.684, 0.0, 10.000002, 9.942172 
1.505e+3, 3.138706e+2, -39725.67, -82511.17, -0.0028994477, 0.0000005606963, -0.000055124285, -39725.67, -39725.67, 0.0, 10.000002, 9.943684 
1.5150002e+3, 1.24993354e+2, -1719944.1, -1724224.5, 0.0027744914, 0.0000006291578, 0.000017748422, -1719944.1, -4878.9385, 0.0, 10.000002, 9.994327 
1.5150002e+3, 1.3498761e+2, -1622563.6, -1627434.8, -0.009912845, 0.00000061653543, -0.00006819047, -1622563.6, -5442.17, 0.0, 10.000002, 9.993544 
1.5150002e+3, 1.4497514e+2, -1534462.3, -1548146.1, 0.00024680686, 0.0000006099989, 0.000071005765, -1534462.3, -15218.672, 0.0, 10.000002, 9.981864 
1.5150002e+3, 1.5495703e+2, -1436734.6, -1450821.9, -0.0077223238, 0.00000060964595, -0.00005684272, -1436734.6, -15313.508, 0.0, 10.000002, 9.981332 
1.5150002e+3, 1.6493228e+2, -1348683.6, -1371952.3, 0.0009008212, 0.0000006071608, 0.0000474926, -1348683.6, -25020.0, 0.0, 10.000002, 9.969248 
1.5150002e+3, 1.7490156e+2, -1250725.6, -1274310.1, -0.008742023, 0.0000006025154, -0.00007370574, -1250725.6, -24760.994, 0.0, 10.000002, 9.968834 
1.5150002e+3, 1.8486422e+2, -1162644.6, -1195720.0, 0.000042812593, 0.0000005982635, 0.00006625433, -1162644.6, -34314.047, 0.0, 10.000002, 9.956394 
1.5150002e+3, 1.9482066e+2, -1064495.0, -1097832.9, -0.009008297, 0.00000059439895, -0.00005755262, -1064495.0, -33737.395, 0.0, 10.000002, 9.956051 
1.5150002e+3, 2.0477042e+2, -976331.0, -1019434.94, -0.0005840977, 0.00000059131895, 0.00006817872, -976331.0, -43081.14, 0.0, 10.000002, 9.94329 
1.5150002e+3, 2.1471375e+2, -878044.0, -921409.8, -0.009091264, 0.00000058908444, -0.00012672748, -878044.0, -42238.74, 0.0, 10.000002, 9.942948 
1.5150002e+3, 2.2465037e+2, -789757.9, -843144.8, -0.00012690596, 0.0000005868977, 0.00012097308, -789757.9, -51331.633, 0.0, 10.000002, 9.929907 
1.5150002e+3, 2.3458035e+2, -691324.4, -744966.4, -0.008098884, 0.00000058476274, -0.000088737856, -691324.4, -50211.875, 0.0, 10.000002, 9.929576 
1.5150002e+3, 2.4450338e+2, -603000.3, -667018.75, -0.0010180454, 0.00000058141853, 0.000074779906, -603000.3, -59133.473, 0.0, 10.000002, 9.916135 
1.5150002e+3, 2.5441962e+2, -504247.7, -568343.25, -0.009618841, 0.0000005766267, -0.000106670595, -504247.7, -57560.14, 0.0, 10.000002, 9.916036 
1.5150002e+3, 2.643288e+2, -416012.28, -490987.84, 0.00017610526, 0.0000005759273, 0.00014065455, -416012.28, -66434.61, 0.0, 10.000002, 9.901964 
1.5150002e+3, 2.742313e+2, -316727.06, -391374.75, -0.0066285757, 0.0000005804373, -0.00020339066, -316727.06, -64194.066, 0.0, 10.000002, 9.902384 
1.5150002e+3, 2.841256e+2, -230253.83, -318081.22, 0.0015116205, 0.0000005780772, 0.00022909198, -230253.83, -74684.84, 0.0, 10.000002, 9.885438 
1.5150002e+3, 2.940121e+2, -130547.695, -217765.0, -0.0051609753, 0.0000005662887, -0.0002533047, -130547.695, -71866.29, 0.0, 10.000002, 9.886216 
1.5150002e+3, 3.0392656e+2, -40803.7, -84750.16, 0.0038097166, 0.0000005639541, 0.00017316446, -40803.7, -40803.7, 0.0, 10.000002, 9.942172 
1.5150002e+3, 3.138706e+2, -39725.688, -82511.21, -0.0033464427, 0.00000057573504, -0.00005512762, -39725.688, -39725.688, 0.0, 10.000002, 9.943684 
1.5250002e+3, 1.24993354e+2, -1719943.9, -1724224.5, 0.006625836, 0.00000064497294, 0.00001775098, -1719943.9, -4878.79, 0.0, 10.000002, 9.994327 
1.5250002e+3, 1.3498761e+2, -1622563.5, -1627434.8, -0.00094311166, 0.0000006336561, -0.00006817738, -1622563.5, -5442.0215, 0.0, 10.000002, 9.993544 
1.5250002e+3, 1.4497514e+2, -1534462.1, -1548146.1, 0.009659287, 0.0000006273566, 0.000071003014, -1534462.1, -15218.524, 0.0, 10.000002, 9.981864 
1.5250002e+3, 1.5495703e+2, -1436734.4, -1450821.8, -0.002308075, 0.0000006261473, -0.0000568386, -1436734.4, -15313.364, 0.0, 10.000002, 9.981332 
1.5250002e+3, 1.6493228e+2, -1348683.5, -1371952.3, 0.005440743, 0.000000623288, 0.00004749892, -1348683.5, -25019.857, 0.0, 10.000002, 9.969247 
1.5250002e+3, 1.7490156e+2, -1250725.5, -1274310.0, -0.0038457485, 0.00000061876204, -0.000073701965, -1250725.5, -24760.852, 0.0, 10.000002, 9.968834 
1.5250002e+3, 1.8486422e+2, -1162644.5, -1195720.0, 0.00520414, 0.0000006145987, 0.00006625709, -1162644.5, -34313.906, 0.0, 10.000002, 9.956394 
1.5250002e+3, 1.9482066e+2, -1064494.8, -1097832.9, -0.0042601917, 0.00000061079606, -0.00005754928, -1064494.8, -33737.254, 0.0, 10.000002, 9.956051 
1.5250002e+3, 2.0477042e+2, -976330.8, -1019434.9, 0.004007507, 0.00000060763756, 0.00006818208, -976330.8, -43081.004, 0.0, 10.000002, 9.94329 
1.5250002e+3, 2.1471375e+2, -878043.8, -921409.75, -0.0052228346, 0.0000006051743, -0.0001267247, -878043.8, -42238.6, 0.0, 10.000002, 9.942948 
1.5250002e+3, 2.2465037e+2, -789757.75, -843144.75, 0.0035801444, 0.00000060280865, 0.00012097557, -789757.75, -51331.496, 0.0, 10.000002, 9.929907 
1.5250002e+3, 2.3458035e+2, -691324.25, -744966.3, -0.0055048764, 0.000000600549, -0.00008873534, -691324.25, -50211.74, 0.0, 10.000002, 9.929576 
1.5250002e+3, 2.4450338e+2, -603000.2, -667018.7, 0.0014590799, 0.0000005971985, 0.00007478233, -603000.2, -59133.34, 0.0, 10.000002, 9.916135 
1.5250002e+3, 2.5441962e+2, -504247.56, -568343.25, -0.006512183, 0.0000005925422, -0.00010666843, -504247.56, -57560.008, 0.0, 10.000002, 9.916036 
1.5250002e+3, 2.643288e+2, -416012.16, -490987.8, 0.0034076779, 0.00000059178154, 0.00014065654, -416012.16, -66434.484, 0.0, 10.000002, 9.901964 
1.5250002e+3, 2.742313e+2, -316726.94, -391374.7, -0.005195936, 0.00000059597994, -0.00020338871, -316726.94, -64193.938, 0.0, 10.000002, 9.902384 
1.5250002e+3, 2.841256e+2, -230253.69, -318081.2, 0.001686227, 0.0000005936441, 0.00022909377, -230253.69, -74684.71, 0.0, 10.000002, 9.885438 
1.5250002e+3, 2.940121e+2, -130547.57, -217764.97, -0.0066206465, 0.00000058234076, -0.00025330318, -130547.57, -71866.16, 0.0, 10.000002, 9.886216 
1.5250002e+3, 3.0392656e+2, -40803.57, -84750.125, 0.001973721, 0.0000005800222, 0.00017316567, -40803.57, -40803.57, 0.0, 10.000002, 9.942172 
1.5250002e+3, 3.138706e+2, -39725.563, -82511.17, -0.004445853, 0.0000005911185, -0.000055126762, -39725.563, -39725.563, 0.0, 10.000002, 9.943684 
1.535e+3, 1.24993354e+2, -1719944.0, -1724224.5, 0.0022489273, 0.00000066063103, 0.0000177511, -1719944.0, -4878.811, 0.0, 10.000002, 9.994327 
1.535e+3, 1.3498761e+2, -1622563.5, -1627434.8, -0.0053150533, 0.0000006513991, -0.00006816357, -1622563.5, -5442.0425, 0.0, 10.000002, 9.993544 
1.535e+3, 1.4497514e+2, -1534462.1, -1548146.1, 0.0046628695, 0.0000006455545, 0.00007100411, -1534462.1, -15218.555, 0.0, 10.000002, 9.981864 
1.535e+3, 1.5495703e+2, -1436734.5, -1450821.9, -0.007306366, 0.00000064313423, -0.000056833964, -1436734.5, -15313.395, 0.0, 10.000002, 9.981332 
1.535e+3, 1.6493228e+2, -1348683.5, -1371952.3, 0.0017684321, 0.00000063972766, 0.000047503163, -1348683.5, -25019.88, 0.0, 10.000002, 9.969247 
1.535e+3, 1.7490156e+2, -1250725.5, -1274310.1, -0.0075140074, 0.00000063532633, -0.00007370213, -1250725.5, -24760.875, 0.0, 10.000002, 9.968834 
1.535e+3, 1.8486422e+2, -1162644.5, -1195720.0, 0.0015490233, 0.00000063131677, 0.00006625934, -1162644.5, -34313.93, 0.0, 10.000002, 9.956394 
1.535e+3, 1.9482066e+2, -1064494.9, -1097832.9, -0.007914791, 0.00000062771255, -0.00005753746, -1064494.9, -33737.277, 0.0, 10.000002, 9.956051 
1.535e+3, 2.0477042e+2, -976330.9, -1019434.94, 0.0008850754, 0.0000006245027, 0.00006819027, -976330.9, -43081.023, 0.0, 10.000002, 9.94329 
1.535e+3, 2.1471375e+2, -878043.9, -921409.8, -0.008332636, 0.0000006217202, -0.00012673445, -878043.9, -42238.62, 0.0, 10.000002, 9.942948 
1.535e+3, 2.2465037e+2, -789757.75, -843144.8, 0.0011796545, 0.0000006190877, 0.000120962926, -789757.75, -51331.516, 0.0, 10.000002, 9.929907 
1.535e+3, 2.3458035e+2, -691324.25, -744966.4, -0.007881776, 0.0000006166177, -0.00008873384, -691324.25, -50211.76, 0.0, 10.000002, 9.929576 
1.535e+3, 2.4450338e+2, -603000.2, -667018.75, -0.0006414896, 0.00000061327205, 0.000074789, -603000.2, -59133.36, 0.0, 10.000002, 9.916135 
1.535e+3, 2.5441962e+2, -504247.56, -568343.25, -0.008599443, 0.0000006088792, -0.0001066673, -504247.56, -57560.027, 0.0, 10.000002, 9.916035 
1.535e+3, 2.643288e+2, -416012.16, -490987.84, 0.0018205809, 0.00000060807423, 0.00014065484, -416012.16, -66434.5, 0.0, 10.000002, 9.901964 
1.535e+3, 2.742313e+2, -316726.97, -391374.75, -0.0067491825, 0.000000611837, -0.00020338982, -316726.97, -64193.957, 0.0, 10.000002, 9.902384 
1.535e+3, 2.841256e+2, -230253.7, -318081.22, 0.0007261073, 0.0000006095329, 0.00022909415, -230253.7, -74684.734, 0.0, 10.000002, 9.885438 
1.535e+3, 2.940121e+2, -130547.586, -217765.0, -0.0075270333, 0.0000005989028, -0.00025330018, -130547.586, -71866.18, 0.0, 10.000002, 9.886216 
1.535e+3, 3.0392656e+2, -40803.59, -84750.16, 0.0013767246, 0.00000059663336, 0.00017317037, -40803.59, -40803.59, 0.0, 10.000002, 9.942172 
1.535e+3, 3.138706e+2, -39725.58, -82511.21, -0.005006251, 0.0000006068466, -0.000055121713, -39725.58, -39725.58, 0.0, 10.000002, 9.943684 
1.5450001e+3, 1.24993354e+2, -1719943.8, -1724224.5, 0.008879651, 0.0000006781451, 0.000017753991, -1719943.8, -4878.654, 0.0, 10.000002, 9.994326 
1.5450001e+3, 1.3498761e+2, -1622563.4, -1627434.8, -0.0044680214, 0.0000006685931, -0.00006815363, -1622563.4, -5441.888, 0.0, 10.000002, 9.993544 
1.5450001e+3, 1.4497514e+2, -1534462.0, -1548146.1, 0.0040110545, 0.00000066287936, 0.00007100255, -1534462.0, -15218.402, 0.0, 10.000002, 9.981864 
1.5450001e+3, 1.5495703e+2, -1436734.3, -1450821.8, -0.0048342203, 0.00000066102075, -0.000056829926, -1436734.3, -15313.241, 0.0, 10.000002, 9.981332 
1.5450001e+3, 1.6493228e+2, -1348683.4, -1371952.3, 0.005965972, 0.00000065740437, 0.000047508947, -1348683.4, -25019.729, 0.0, 10.000002, 9.969247 
1.5450001e+3, 1.7490156e+2, -1250725.4, -1274310.0, -0.0047700037, 0.00000065200294, -0.00007369856, -1250725.4, -24760.727, 0.0, 10.000002, 9.968834 
1.5450001e+3, 1.8486422e+2, -1162644.4, -1195720.0, 0.003679145, 0.00000064789896, 0.000066262066, -1162644.4, -34313.78, 0.0, 10.000002, 9.956394 
1.5450001e+3, 1.9482066e+2, -1064494.6, -1097832.9, -0.0061614136, 0.0000006451564, -0.000057534144, -1064494.6, -33737.133, 0.0, 10.000002, 9.956051 
1.5450001e+3, 2.0477042e+2, -976330.7, -1019434.9, 0.0027916424, 0.00000064203044, 0.00006819371, -976330.7, -43080.88, 0.0, 10.000002, 9.94329 
1.5450001e+3, 2.1471375e+2, -878043.7, -921409.75, -0.0069087096, 0.0000006384894, -0.0001267314, -878043.7, -42238.477, 0.0, 10.000002, 9.942948 
1.5450001e+3, 2.2465037e+2, -789757.6, -843144.75, 0.0028589396, 0.0000006355439, 0.000120965735, -789757.6, -51331.37, 0.0, 10.000002, 9.929907 
1.5450001e+3, 2.3458035e+2, -691324.1, -744966.3, -0.005993122, 0.00000063326604, -0.00008873112, -691324.1, -50211.62, 0.0, 10.000002, 9.929576 
1.5450001e+3, 2.4450338e+2, -603000.06, -667018.7, 0.0013430243, 0.00000063000783, 0.00007479152, -603000.06, -59133.22, 0.0, 10.000002, 9.916135 
1.5450001e+3, 2.5441962e+2, -504247.44, -568343.2, -0.008064388, 0.0000006255779, -0.00010666514, -504247.44, -57559.887, 0.0, 10.000002, 9.916035 
1.5450001e+3, 2.643288e+2, -416012.03, -490987.8, 0.0022318426, 0.0000006246432, 0.00014065676, -416012.03, -66434.36, 0.0, 10.000002, 9.901964 
1.5450001e+3, 2.742313e+2, -316726.8, -391374.7, -0.0055157775, 0.0000006281583, -0.00020338802, -316726.8, -64193.816, 0.0, 10.000002, 9.902384 
1.5450001e+3, 2.841256e+2, -230253.58, -318081.2, 0.003243595, 0.00000062591346, 0.00022909584, -230253.58, -74684.59, 0.0, 10.000002, 9.885438 
1.5450001e+3, 2.940121e+2, -130547.45, -217764.97, -0.0043247673, 0.00000061576327, -0.00025329864, -130547.45, -71866.04, 0.0, 10.000002, 9.886216 
1.5450001e+3, 3.0392656e+2, -40803.453, -84750.12, 0.0047794953, 0.0000006135448, 0.00017317162, -40803.453, -40803.453, 0.0, 10.000002, 9.942172 
1.5450001e+3, 3.138706e+2, -39725.445, -82511.17, -0.003255585, 0.0000006231686, -0.000055120963, -39725.445, -39725.445, 0.0, 10.000002, 9.943684 
1.5550001e+3, 1.24993354e+2, -1719943.8, -1724224.5, 0.0038134775, 0.000000697519, 0.000017759026, -1719943.8, -4878.6885, 0.0, 10.000002, 9.994326 
1.5550001e+3, 1.3498761e+2, -1622563.4, -1627434.8, -0.0095321005, 0.00000068523946, -0.00006814757, -1622563.4, -5441.9224, 0.0, 10.000002, 9.993544 
1.5550001e+3, 1.4497514e+2, -1534462.0, -1548146.1, -0.00072960823, 0.0000006793303, 0.00007099831, -1534462.0, -15218.426, 0.0, 10.000002, 9.981864 
1.5550001e+3, 1.5495703e+2, -1436734.4, -1450821.9, -0.009575838, 0.0000006798069, -0.00005682648, -1436734.4, -15313.264, 0.0, 10.000002, 9.981332 
1.5550001e+3, 1.6493228e+2, -1348683.4, -1371952.3, 0.0015858101, 0.0000006763178, 0.00004751628, -1348683.4, -25019.756, 0.0, 10.000002, 9.969247 
1.5550001e+3, 1.7490156e+2, -1250725.4, -1274310.1, -0.00915011, 0.00000066878937, -0.00007369125, -1250725.4, -24760.752, 0.0, 10.000002, 9.968834 
1.5550001e+3, 1.8486422e+2, -1162644.4, -1195720.0, -0.00011288707, 0.0000006643437, 0.00006626527, -1162644.4, -34313.805, 0.0, 10.000002, 9.956394 
1.5550001e+3, 1.9482066e+2, -1064494.8, -1097832.9, -0.0099469945, 0.0000006631273, -0.000057539328, -1064494.8, -33737.156, 0.0, 10.000002, 9.956051 
1.5550001e+3, 2.0477042e+2, -976330.75, -1019434.94, -0.00037776542, 0.00000066022073, 0.0000681924, -976330.75, -43080.902, 0.0, 10.000002, 9.94329 
1.5550001e+3, 2.1471375e+2, -878043.75, -921409.8, -0.010064852, 0.0000006554817, -0.00012671555, -878043.75, -42238.5, 0.0, 10.000002, 9.942948 
1.5550001e+3, 2.2465037e+2, -789757.6, -843144.8, -0.00017585902, 0.0000006521768, 0.00012098399, -789757.6, -51331.395, 0.0, 10.000002, 9.929907 
1.5550001e+3, 2.3458035e+2, -691324.1, -744966.4, -0.009023977, 0.0000006504939, -0.000088727174, -691324.1, -50211.64, 0.0, 10.000002, 9.929576 
1.5550001e+3, 2.4450338e+2, -603000.1, -667018.75, -0.00066218985, 0.00000064740584, 0.000074789874, -603000.1, -59133.242, 0.0, 10.000002, 9.916135 
1.5550001e+3, 2.5441962e+2, -504247.44, -568343.25, -0.010019752, 0.00000064263827, -0.00010666194, -504247.44, -57559.906, 0.0, 10.000002, 9.916035 
1.5550001e+3, 2.643288e+2, -416012.03, -490987.84, 0.00047600892, 0.00000064148827, 0.0001406623, -416012.03, -66434.38, 0.0, 10.000002, 9.901964 
1.5550001e+3, 2.742313e+2, -316726.84, -391374.72, -0.007257781, 0.00000064494395, -0.0002033833, -316726.84, -64193.836, 0.0, 10.000002, 9.902384 
1.5550001e+3, 2.841256e+2, -230253.6, -318081.22, 0.0019882997, 0.00000064278584, 0.00022909882, -230253.6, -74684.61, 0.0, 10.000002, 9.885438 
1.5550001e+3, 2.940121e+2, -130547.47, -217765.0, -0.0055357493, 0.00000063292214, -0.00025329855, -130547.47, -71866.055, 0.0, 10.000002, 9.886216 
1.5550001e+3, 3.0392656e+2, -40803.473, -84750.16, 0.0043869717, 0.0000006307564, 0.00017316942, -40803.473, -40803.473, 0.0, 10.000002, 9.942172 
1.5550001e+3, 3.138706e+2, -39725.465, -82511.21, -0.0035514142, 0.0000006400846, -0.00005512451, -39725.465, -39725.465, 0.0, 10.000002, 9.943684 
1.5650001e+3, 1.24993354e+2, -1719943.6, -1724224.5, 0.007885169, 0.0000007159499, 0.000017762113, -1719943.6, -4878.522, 0.0, 10.000002, 9.994326 
1.5650001e+3, 1.3498761e+2, -1622563.3, -1627434.8, -0.0008625166, 0.0000007037115, -0.00006813898, -1622563.3, -5441.7603, 0.0, 10.000002, 9.993544 
1.5650001e+3, 1.4497514e+2, -1534461.8, -1548146.1, 0.009244992, 0.0000006975936, 0.000070998605, -1534461.8, -15218.265, 0.0, 10.000002, 9.981864 
1.5650001e+3, 1.5495703e+2, -1436734.1, -1450821.8, -0.0033754795, 0.00000069760097, -0.000056822406, -1436734.1, -15313.104, 0.0, 10.000002, 9.981332 
1.5650001e+3, 1.6493228e+2, -1348683.3, -1371952.3, 0.006106916, 0.00000069409015, 0.000047521593, -1348683.3, -25019.596, 0.0, 10.000002, 9.969247 
1.5650001e+3, 1.7490156e+2, -1250725.3, -1274310.0, -0.0041381354, 0.00000068699364, -0.00007368731, -1250725.3, -24760.596, 0.0, 10.000002, 9.968834 
1.5650001e+3, 1.8486422e+2, -1162644.3, -1195720.0, 0.0058278465, 0.0000006825285, 0.00006626857, -1162644.3, -34313.65, 0.0, 10.000002, 9.956394 
1.5650001e+3, 1.9482066e+2, -1064494.5, -1097832.9, -0.0047047553, 0.0000006808192, -0.000057535886, -1064494.5, -33737.0, 0.0, 10.000002, 9.956051 
1.5650001e+3, 2.0477043e+2, -976330.56, -1019434.9, 0.0045043924, 0.00000067775164, 0.00006819586, -976330.56, -43080.746, 0.0, 10.000002, 9.94329 
1.5650001e+3, 2.1471375e+2, -878043.56, -921409.75, -0.0054595913, 0.00000067321105, -0.0001267122, -878043.56, -42238.348, 0.0, 10.000002, 9.942948 
1.5650001e+3, 2.2465037e+2, -789757.5, -843144.75, 0.0044000125, 0.0000006699205, 0.00012098711, -789757.5, -51331.246, 0.0, 10.000002, 9.929907 
1.5650001e+3, 2.3458035e+2, -691324.0, -744966.3, -0.0058494434, 0.0000006680458, -0.000088724395, -691324.0, -50211.49, 0.0, 10.000002, 9.929576 
1.5650001e+3, 2.4450338e+2, -602999.94, -667018.7, 0.002309158, 0.0000006649469, 0.00007479236, -602999.94, -59133.09, 0.0, 10.000002, 9.916135 
1.5650001e+3, 2.5441962e+2, -504247.3, -568343.2, -0.006720034, 0.0000006603842, -0.00010665967, -504247.3, -57559.76, 0.0, 10.000002, 9.916035 
1.5650001e+3, 2.643288e+2, -416011.9, -490987.78, 0.003701343, 0.0000006590867, 0.00014066434, -416011.9, -66434.234, 0.0, 10.000002, 9.901963 
1.5650001e+3, 2.742313e+2, -316726.7, -391374.7, -0.005827525, 0.00000066194605, -0.00020338151, -316726.7, -64193.69, 0.0, 10.000002, 9.902384 
1.5650001e+3, 2.841256e+2, -230253.45, -318081.2, 0.00229326, 0.00000065984693, 0.00022910035, -230253.45, -74684.47, 0.0, 10.000002, 9.885438 
1.5650001e+3, 2.940121e+2, -130547.32, -217764.95, -0.006886966, 0.00000065094144, -0.0002532973, -130547.32, -71865.914, 0.0, 10.000002, 9.886216 
1.5650001e+3, 3.0392656e+2, -40803.332, -84750.12, 0.0024800864, 0.0000006488056, 0.00017317043, -40803.332, -40803.332, 0.0, 10.000002, 9.942172 
1.5650001e+3, 3.138706e+2, -39725.324, -82511.17, -0.0048513925, 0.00000065677744, -0.00005512366, -39725.324, -39725.324, 0.0, 10.000002, 9.943684 
1.5750001e+3, 1.24993354e+2, -1719943.6, -1724224.5, 0.0019329457, 0.000000733437, 0.000017763174, -1719943.6, -4878.5464, 0.0, 10.000002, 9.994326 
1.5750001e+3, 1.3498761e+2, -1622563.3, -1627434.8, -0.0068135546, 0.00000072400906, -0.00006812786, -1622563.3, -5441.784, 0.0, 10.000002, 9.993544 
1.5750001e+3, 1.4497514e+2, -1534461.9, -1548146.1, 0.00464826, 0.00000071766897, 0.00007100345, -1534461.9, -15218.297, 0.0, 10.000002, 9.981864 
1.5750001e+3, 1.5495703e+2, -1436734.1, -1450821.9, -0.00797095, 0.0000007144026, -0.000056817695, -1436734.1, -15313.135, 0.0, 10.000002, 9.981332 
1.5750001e+3, 1.6493228e+2, -1348683.3, -1371952.3, 0.0010786795, 0.00000071072054, 0.000047524878, -1348683.3, -25019.621, 0.0, 10.000002, 9.969247 
1.5750001e+3, 1.7490156e+2, -1250725.3, -1274310.1, -0.009169562, 0.00000070661565, -0.00007368675, -1250725.3, -24760.621, 0.0, 10.000002, 9.968834 
1.5750001e+3, 1.8486422e+2, -1162644.3, -1195720.0, 0.0022106532, 0.00000070245346, 0.000066271976, -1162644.3, -34313.676, 0.0, 10.000002, 9.956394 
1.5750001e+3, 1.9482066e+2, -1064494.5, -1097832.9, -0.008306427, 0.0000006982317, -0.00005752382, -1064494.5, -33737.023, 0.0, 10.000002, 9.956051 
1.5750001e+3, 2.0477043e+2, -976330.6, -1019434.94, 0.00052899955, 0.0000006946226, 0.000068204085, -976330.6, -43080.77, 0.0, 10.000002, 9.94329 
1.5750001e+3, 2.1471375e+2, -878043.6, -921409.8, -0.009443162, 0.00000069167737, -0.00012672135, -878043.6, -42238.37, 0.0, 10.000002, 9.942948 
1.5750001e+3, 2.2465037e+2, -789757.5, -843144.8, 0.0018291207, 0.00000068877495, 0.00012097511, -789757.5, -51331.27, 0.0, 10.000002, 9.929907 
1.5750001e+3, 2.3458035e+2, -691324.0, -744966.4, -0.008373993, 0.00000068592163, -0.00008872277, -691324.0, -50211.51, 0.0, 10.000002, 9.929576 
1.5750001e+3, 2.445034e+2, -602999.94, -667018.75, -0.0004034274, 0.00000068263085, 0.000074799, -602999.94, -59133.11, 0.0, 10.000002, 9.916135 
1.5750001e+3, 2.5441962e+2, -504247.3, -568343.25, -0.009441462, 0.00000067881564, -0.00010665833, -504247.3, -57559.78, 0.0, 10.000002, 9.916035 
1.5750001e+3, 2.643288e+2, -416011.94, -490987.84, 0.0018631071, 0.0000006774383, 0.00014066286, -416011.94, -66434.26, 0.0, 10.000002, 9.901963 
1.5750001e+3, 2.742313e+2, -316726.72, -391374.75, -0.0076062065, 0.00000067916466, -0.00020338265, -316726.72, -64193.71, 0.0, 10.000002, 9.902384 
1.5750001e+3, 2.841256e+2, -230253.47, -318081.22, 0.0013314526, 0.00000067709675, 0.0002291004, -230253.47, -74684.49, 0.0, 10.000002, 9.885438 
1.5750001e+3, 2.940121e+2, -130547.34, -217765.0, -0.007774509, 0.0000006698212, -0.00025329491, -130547.34, -71865.93, 0.0, 10.000002, 9.886216 
1.5750001e+3, 3.0392656e+2, -40803.348, -84750.16, 0.0012162315, 0.0000006676923, 0.00017317465, -40803.348, -40803.348, 0.0, 10.000002, 9.942172 
1.5750001e+3, 3.138706e+2, -39725.344, -82511.21, -0.0061587095, 0.00000067324726, -0.000055118413, -39725.344, -39725.344, 0.0, 10.000002, 9.943683 
1.5850002e+3, 1.24993354e+2, -1719943.5, -1724224.5, 0.009086395, 0.00000075378415, 0.000017767808, -1719943.5, -4878.37, 0.0, 10.000002, 9.994326 
1.5850002e+3, 1.3498761e+2, -1622563.0, -1627434.6, -0.005538039, 0.00000074305876, -0.000068119945, -1622563.0, -5441.6123, 0.0, 10.000002, 9.993544 
1.5850002e+3, 1.4497514e+2, -1534461.6, -1548146.1, 0.005968312, 0.0000007360818, 0.000071004884, -1534461.6, -15218.128, 0.0, 10.000002, 9.981863 
1.5850002e+3, 1.5495703e+2, -1436734.0, -1450821.8, -0.0039596567, 0.0000007328403, -0.0000568133, -1436734.0, -15312.968, 0.0, 10.000002, 9.981332 
1.5850002e+3, 1.6493228e+2, -1348683.0, -1371952.1, 0.005488659, 0.00000072945886, 0.000047530164, -1348683.0, -25019.453, 0.0, 10.000002, 9.969247 
1.5850002e+3, 1.7490156e+2, -1250725.0, -1274310.0, -0.0062746224, 0.0000007259325, -0.000073682684, -1250725.0, -24760.455, 0.0, 10.000002, 9.968833 
1.5850002e+3, 1.8486422e+2, -1162644.1, -1195719.9, 0.0051090876, 0.0000007216154, 0.00006627548, -1162644.1, -34313.51, 0.0, 10.000002, 9.956394 
1.5850002e+3, 1.9482066e+2, -1064494.4, -1097832.9, -0.0056960257, 0.00000071647037, -0.00005752019, -1064494.4, -33736.863, 0.0, 10.000002, 9.956051 
1.5850002e+3, 2.0477043e+2, -976330.44, -1019434.9, 0.0030049651, 0.00000071276173, 0.00006820758, -976330.44, -43080.61, 0.0, 10.000002, 9.94329 
1.5850002e+3, 2.1471375e+2, -878043.44, -921409.75, -0.008027464, 0.0000007106092, -0.00012671828, -878043.44, -42238.207, 0.0, 10.000002, 9.942948 
1.5850002e+3, 2.2465037e+2, -789757.3, -843144.75, 0.0031596927, 0.00000070778725, 0.000120977915, -789757.3, -51331.105, 0.0, 10.000002, 9.929907 
1.5850002e+3, 2.3458035e+2, -691323.9, -744966.3, -0.0065802685, 0.0000007042078, -0.000088720066, -691323.9, -50211.355, 0.0, 10.000002, 9.929576 
1.5850002e+3, 2.445034e+2, -602999.8, -667018.7, 0.0019354477, 0.00000070077135, 0.00007480154, -602999.8, -59132.957, 0.0, 10.000002, 9.916135 
1.5850002e+3, 2.5441962e+2, -504247.16, -568343.2, -0.008546244, 0.00000069750513, -0.00010665604, -504247.16, -57559.625, 0.0, 10.000002, 9.916035 
1.5850002e+3, 2.643288e+2, -416011.75, -490987.78, 0.0023483732, 0.0000006961812, 0.00014066492, -416011.75, -66434.1, 0.0, 10.000002, 9.901963 
1.5850002e+3, 2.742313e+2, -316726.56, -391374.7, -0.006587048, 0.0000006973295, -0.00020338075, -316726.56, -64193.56, 0.0, 10.000002, 9.902384 
1.5850002e+3, 2.841256e+2, -230253.31, -318081.2, 0.0037226784, 0.00000069508536, 0.00022910215, -230253.31, -74684.336, 0.0, 10.000002, 9.885438 
1.5850002e+3, 2.940121e+2, -130547.195, -217764.95, -0.0045460667, 0.00000068818656, -0.00025329328, -130547.195, -71865.78, 0.0, 10.000002, 9.886216 
1.5850002e+3, 3.0392656e+2, -40803.203, -84750.12, 0.0047599454, 0.00000068612604, 0.00017317607, -40803.203, -40803.203, 0.0, 10.000002, 9.942172 
1.5850002e+3, 3.138706e+2, -39725.19, -82511.164, -0.0040131216, 0.00000069128714, -0.000055117303, -39725.19, -39725.19, 0.0, 10.000002, 9.943683 
1.5950002e+3, 1.24993354e+2, -1719943.5, -1724224.5, 0.0022415, 0.00000077699036, 0.000017775976, -1719943.5, -4878.4087, 0.0, 10.000002, 9.994326 
1.5950002e+3, 1.3498761e+2, -1622563.1, -1627434.8, -0.012381235, 0.0000007608603, -0.00006811523, -1622563.1, -5441.6504, 0.0, 10.000002, 9.993544 
1.5950002e+3, 1.4497514e+2, -1534461.6, -1548146.1, 0.0010587669, 0.0000007528318, 0.0000710029, -1534461.6, -15218.154, 0.0, 10.000002, 9.981863 
1.5950002e+3, 1.5495703e+2, -1436734.0, -1450821.9, -0.008867238, 0.000000752914, -0.000056809222, -1436734.0, -15312.993, 0.0, 10.000002, 9.981332 
1.5950002e+3, 1.6493228e+2, -1348683.1, -1371952.3, 0.000543462, 0.00000075030516, 0.00004753745, -1348683.1, -25019.484, 0.0, 10.000002, 9.969247 
1.5950002e+3, 1.7490156e+2, -1250725.1, -1274310.0, -0.011221196, 0.00000074494415, -0.00007367512, -1250725.1, -24760.484, 0.0, 10.000002, 9.968833 
1.5950002e+3, 1.8486422e+2, -1162644.1, -1195720.0, 0.00055815815, 0.0000007400139, 0.00006627909, -1162644.1, -34313.54, 0.0, 10.000002, 9.956394 
1.5950002e+3, 1.9482066e+2, -1064494.4, -1097832.9, -0.010243072, 0.00000073553485, -0.000057524994, -1064494.4, -33736.89, 0.0, 10.000002, 9.956051 
1.5950002e+3, 2.0477043e+2, -976330.44, -1019434.94, -0.00013165997, 0.00000073216876, 0.00006820634, -976330.44, -43080.637, 0.0, 10.000002, 9.94329 
1.5950002e+3, 2.1471375e+2, -878043.44, -921409.8, -0.01113556, 0.00000073000626, -0.00012670299, -878043.44, -42238.234, 0.0, 10.000002, 9.942948 
1.5950002e+3, 2.2465037e+2, -789757.4, -843144.75, -0.00084463326, 0.0000007269571, 0.000120995515, -789757.4, -51331.13, 0.0, 10.000002, 9.929907 
1.5950002e+3, 2.3458035e+2, -691323.9, -744966.4, -0.010614244, 0.0000007229043, -0.00008871627, -691323.9, -50211.38, 0.0, 10.000002, 9.929576 
1.5950002e+3, 2.445034e+2, -602999.8, -667018.7, 0.00001315349, 0.0000007193684, 0.00007479999, -602999.8, -59132.98, 0.0, 10.000002, 9.916135 
1.5950002e+3, 2.5441962e+2, -504247.2, -568343.25, -0.010367009, 0.0000007164527, -0.00010665281, -504247.2, -57559.65, 0.0, 10.000002, 9.916035 
1.5950002e+3, 2.643288e+2, -416011.78, -490987.84, 0.000023382532, 0.0000007153154, 0.00014067053, -416011.78, -66434.12, 0.0, 10.000002, 9.901963 
1.5950002e+3, 2.742313e+2, -316726.56, -391374.72, -0.008945304, 0.00000071644047, -0.00020337585, -316726.56, -64193.58, 0.0, 10.000002, 9.902384 
1.5950002e+3, 2.841256e+2, -230253.33, -318081.22, 0.0020103627, 0.00000071381265, 0.00022910557, -230253.33, -74684.36, 0.0, 10.000002, 9.885438 
1.5950002e+3, 2.940121e+2, -130547.21, -217765.0, -0.0061996, 0.00000070603744, -0.00025329244, -130547.21, -71865.805, 0.0, 10.000002, 9.886216 
1.5950002e+3, 3.0392656e+2, -40803.223, -84750.16, 0.0044733398, 0.00000070410675, 0.00017317472, -40803.223, -40803.223, 0.0, 10.000002, 9.942172 
1.5950002e+3, 3.138706e+2, -39725.21, -82511.21, -0.004138407, 0.000000710897, -0.000055120337, -39725.21, -39725.21, 0.0, 10.000002, 9.943683 
1.605e+3, 1.24993354e+2, -1719943.4, -1724224.5, 0.007982444, 0.0000007963868, 0.0000177814, -1719943.4, -4878.2266, 0.0, 10.000003, 9.994326 
1.605e+3, 1.3498761e+2, -1622562.9, -1627434.6, -0.0024681236, 0.0000007821973, -0.00006810667, -1622562.9, -5441.467, 0.0, 10.000003, 9.993544 
1.605e+3, 1.4497514e+2, -1534461.5, -1548146.1, 0.012195, 0.00000077408123, 0.00007100697, -1534461.5, -15217.972, 0.0, 10.000003, 9.981863 
1.605e+3, 1.5495703e+2, -1436733.9, -1450821.8, -0.0018041705, 0.00000077202685, -0.00005680424, -1436733.9, -15312.816, 0.0, 10.000003, 9.981332 
1.605e+3, 1.6493228e+2, -1348682.9, -1371952.1, 0.006355803, 0.00000076909924, 0.000047542548, -1348682.9, -25019.309, 0.0, 10.000002, 9.969247 
1.605e+3, 1.7490156e+2, -1250724.9, -1274310.0, -0.005033977, 0.00000076527516, -0.00007367072, -1250724.9, -24760.309, 0.0, 10.000002, 9.968833 
1.605e+3, 1.8486422e+2, -1162644.0, -1195719.9, 0.0067559015, 0.0000007605635, 0.000066283086, -1162644.0, -34313.363, 0.0, 10.000002, 9.956394 
1.605e+3, 1.9482066e+2, -1064494.3, -1097832.8, -0.0052450076, 0.0000007549231, -0.000057521072, -1064494.3, -33736.715, 0.0, 10.000002, 9.956051 
1.605e+3, 2.0477043e+2, -976330.3, -1019434.9, 0.0051661017, 0.0000007512612, 0.00006821006, -976330.3, -43080.465, 0.0, 10.000002, 9.94329 
1.605e+3, 2.1471375e+2, -878043.3, -921409.75, -0.0054532867, 0.0000007497403, -0.00012669961, -878043.3, -42238.07, 0.0, 10.000002, 9.942948 
1.605e+3, 2.246504e+2, -789757.2, -843144.75, 0.0046193674, 0.0000007468004, 0.000120998644, -789757.2, -51330.965, 0.0, 10.000002, 9.929907 
1.605e+3, 2.3458035e+2, -691323.7, -744966.3, -0.0070104, 0.00000074225414, -0.00008871331, -691323.7, -50211.21, 0.0, 10.000002, 9.929576 
1.605e+3, 2.445034e+2, -602999.7, -667018.7, 0.0034419305, 0.00000073860116, 0.00007480271, -602999.7, -59132.813, 0.0, 10.000002, 9.916135 
1.605e+3, 2.5441962e+2, -504247.03, -568343.2, -0.0066129216, 0.00000073601916, -0.0001066504, -504247.03, -57559.484, 0.0, 10.000002, 9.916035 
1.605e+3, 2.643288e+2, -416011.63, -490987.78, 0.0036636193, 0.0000007348092, 0.00014067275, -416011.63, -66433.96, 0.0, 10.000002, 9.901963 
1.605e+3, 2.742313e+2, -316726.4, -391374.7, -0.006768638, 0.0000007353426, -0.00020337367, -316726.4, -64193.418, 0.0, 10.000002, 9.902384 
1.605e+3, 2.841256e+2, -230253.17, -318081.2, 0.003186729, 0.00000073269615, 0.00022910752, -230253.17, -74684.195, 0.0, 10.000002, 9.885438 
1.605e+3, 2.940121e+2, -130547.055, -217764.95, -0.006999346, 0.00000072568906, -0.00025329093, -130547.055, -71865.64, 0.0, 10.000002, 9.886216 
1.605e+3, 3.0392656e+2, -40803.063, -84750.11, 0.0029717616, 0.00000072375974, 0.00017317582, -40803.063, -40803.063, 0.0, 10.000002, 9.942172 
1.605e+3, 3.138706e+2, -39725.06, -82511.164, -0.005544601, 0.00000072940594, -0.000055119526, -39725.06, -39725.06, 0.0, 10.000002, 9.943683 
1.615e+3, 1.24993354e+2, -1719943.4, -1724224.5, 0.0015653638, 0.00000081197413, 0.00001778408, -1719943.4, -4878.2554, 0.0, 10.000003, 9.994326 
1.615e+3, 1.3498761e+2, -1622562.9, -1627434.8, -0.008883864, 0.0000008070698, -0.00006809425, -1622562.9, -5441.495, 0.0, 10.000003, 9.993544 
1.615e+3, 1.4497514e+2, -1534461.5, -1548146.1, 0.006085758, 0.00000079982976, 0.00007101709, -1534461.5, -15218.008, 0.0, 10.000003, 9.981863 
1.615e+3, 1.5495703e+2, -1436733.9, -1450821.9, -0.007914162, 0.0000007901787, -0.00005679836, -1436733.9, -15312.853, 0.0, 10.000003, 9.981332 
1.615e+3, 1.6493228e+2, -1348682.9, -1371952.3, 0.0014787962, 0.00000078584094, 0.000047545447, -1348682.9, -25019.338, 0.0, 10.000002, 9.969247 
1.615e+3, 1.7490156e+2, -1250724.9, -1274310.0, -0.009905216, 0.00000078692545, -0.00007366951, -1250724.9, -24760.338, 0.0, 10.000002, 9.968833 
1.615e+3, 1.8486422e+2, -1162644.0, -1195720.0, 0.0022503326, 0.00000078326417, 0.00006628748, -1162644.0, -34313.395, 0.0, 10.000002, 9.956394 
1.615e+3, 1.9482066e+2, -1064494.3, -1097832.9, -0.009747091, 0.00000077463494, -0.000057508427, -1064494.3, -33736.746, 0.0, 10.000002, 9.956051 
1.615e+3, 2.0477043e+2, -976330.3, -1019434.9, 0.00070399925, 0.0000007700388, 0.000068218746, -976330.3, -43080.492, 0.0, 10.000002, 9.94329 
1.615e+3, 2.1471375e+2, -878043.3, -921409.75, -0.009915226, 0.0000007698109, -0.00012670812, -878043.3, -42238.094, 0.0, 10.000002, 9.942948 
1.615e+3, 2.246504e+2, -789757.2, -843144.75, 0.0019326293, 0.0000007673169, 0.00012098731, -789757.2, -51330.992, 0.0, 10.000002, 9.929907 
1.615e+3, 2.3458035e+2, -691323.75, -744966.4, -0.009639272, 0.0000007622572, -0.0000887112, -691323.75, -50211.234, 0.0, 10.000002, 9.929575 
1.615e+3, 2.445034e+2, -602999.7, -667018.7, 0.00009558355, 0.00000075846935, 0.0000748097, -602999.7, -59132.836, 0.0, 10.000002, 9.916135 
1.615e+3, 2.5441962e+2, -504247.03, -568343.25, -0.0099936, 0.0000007562044, -0.000106648804, -504247.03, -57559.508, 0.0, 10.000002, 9.916035 
1.615e+3, 2.643288e+2, -416011.66, -490987.84, 0.0015019221, 0.0000007546623, 0.00014067159, -416011.66, -66433.984, 0.0, 10.000002, 9.901963 
1.615e+3, 2.742313e+2, -316726.44, -391374.72, -0.008848452, 0.00000075403574, -0.00020337423, -316726.44, -64193.44, 0.0, 10.000002, 9.902384 
1.615e+3, 2.841256e+2, -230253.19, -318081.22, 0.0018814624, 0.0000007517358, 0.00022910803, -230253.19, -74684.22, 0.0, 10.000002, 9.885438 
1.615e+3, 2.940121e+2, -130547.08, -217765.0, -0.0082343435, 0.0000007471413, -0.00025328877, -130547.08, -71865.664, 0.0, 10.000002, 9.886216 
1.615e+3, 3.0392656e+2, -40803.082, -84750.16, 0.0013660071, 0.0000007450848, 0.0001731794, -40803.082, -40803.082, 0.0, 10.000002, 9.942172 
1.615e+3, 3.138706e+2, -39725.08, -82511.21, -0.007193142, 0.00000074681407, -0.000055114877, -39725.08, -39725.08, 0.0, 10.000002, 9.943683 
1.6250001e+3, 1.2499336e+2, -1719943.1, -1724224.4, 0.009723685, 0.00000083253656, 0.000017789678, -1719943.1, -4878.065, 0.0, 10.000003, 9.994326 
1.6250001e+3, 1.3498761e+2, -1622562.8, -1627434.6, -0.0055085616, 0.00000082866666, -0.00006808787, -1622562.8, -5441.3022, 0.0, 10.000003, 9.993544 
1.6250001e+3, 1.4497514e+2, -1534461.4, -1548146.1, 0.007654477, 0.00000082175677, 0.000071020855, -1534461.4, -15217.816, 0.0, 10.000003, 9.981863 
1.6250001e+3, 1.5495703e+2, -1436733.8, -1450821.8, -0.004179924, 0.0000008117148, -0.00005679336, -1436733.8, -15312.665, 0.0, 10.000003, 9.981332 
1.6250001e+3, 1.6493228e+2, -1348682.8, -1371952.1, 0.0072004693, 0.00000080692723, 0.00004755054, -1348682.8, -25019.152, 0.0, 10.000003, 9.969247 
1.6250001e+3, 1.7490156e+2, -1250724.8, -1274310.0, -0.0059071747, 0.0000008075026, -0.00007366549, -1250724.8, -24760.152, 0.0, 10.000003, 9.968833 
1.6250001e+3, 1.8486422e+2, -1162643.8, -1195719.9, 0.0052380143, 0.00000080369017, 0.000066291126, -1162643.8, -34313.207, 0.0, 10.000003, 9.956394 
1.6250001e+3, 1.9482066e+2, -1064494.1, -1097832.8, -0.006490975, 0.0000007952843, -0.000057504425, -1064494.1, -33736.566, 0.0, 10.000003, 9.956051 
1.6250001e+3, 2.0477043e+2, -976330.1, -1019434.9, 0.0043906188, 0.00000079082906, 0.00006822261, -976330.1, -43080.313, 0.0, 10.000003, 9.943289 
1.6250001e+3, 2.1471375e+2, -878043.1, -921409.75, -0.008395172, 0.00000079065325, -0.00012670492, -878043.1, -42237.91, 0.0, 10.000003, 9.942948 
1.6250001e+3, 2.246504e+2, -789757.06, -843144.75, 0.0027453236, 0.00000078795324, 0.00012099018, -789757.06, -51330.81, 0.0, 10.000003, 9.929907 
1.6250001e+3, 2.3458035e+2, -691323.56, -744966.3, -0.007835623, 0.0000007823949, -0.000088708235, -691323.56, -50211.066, 0.0, 10.000003, 9.929575 
1.6250001e+3, 2.445034e+2, -602999.5, -667018.7, 0.0029511913, 0.00000077852417, 0.00007481255, -602999.5, -59132.664, 0.0, 10.000003, 9.916135 
1.6250001e+3, 2.5441962e+2, -504246.88, -568343.2, -0.008367206, 0.0000007766719, -0.000106646294, -504246.88, -57559.332, 0.0, 10.000003, 9.916035 
1.6250001e+3, 2.643288e+2, -416011.47, -490987.78, 0.0026937309, 0.00000077518473, 0.00014067383, -416011.47, -66433.805, 0.0, 10.000003, 9.901963 
1.6250001e+3, 2.742313e+2, -316726.28, -391374.7, -0.007534928, 0.00000077415626, -0.00020337217, -316726.28, -64193.266, 0.0, 10.000003, 9.902384 
1.6250001e+3, 2.841256e+2, -230253.03, -318081.2, 0.004251241, 0.00000077169756, 0.00022910995, -230253.03, -74684.05, 0.0, 10.000003, 9.885437 
1.6250001e+3, 2.940121e+2, -130546.91, -217764.95, -0.004960988, 0.00000076727935, -0.0002532869, -130546.91, -71865.5, 0.0, 10.000003, 9.886216 
1.6250001e+3, 3.0392656e+2, -40802.92, -84750.11, 0.005516871, 0.0000007652944, 0.00017318103, -40802.92, -40802.92, 0.0, 10.000003, 9.942172 
1.6250001e+3, 3.138706e+2, -39724.91, -82511.164, -0.003891845, 0.00000076693726, -0.00005511375, -39724.91, -39724.91, 0.0, 10.000003, 9.943683 
1.6350001e+3, 1.2499336e+2, -1719943.3, -1724224.5, 0.004018046, 0.0000008580739, 0.00001779819, -1719943.3, -4878.1055, 0.0, 10.000003, 9.994326 
1.6350001e+3, 1.3498761e+2, -1622562.8, -1627434.8, -0.011212945, 0.000000846988, -0.00006808753, -1622562.8, -5441.3423, 0.0, 10.000003, 9.993544 
1.6350001e+3, 1.4497516e+2, -1534461.4, -1548146.1, 0.00063665054, 0.0000008398621, 0.00007101824, -1534461.4, -15217.848, 0.0, 10.000003, 9.981863 
1.6350001e+3, 1.5495703e+2, -1436733.8, -1450821.8, -0.011200722, 0.00000083663497, -0.000056789246, -1436733.8, -15312.696, 0.0, 10.000003, 9.981332 
1.6350001e+3, 1.6493228e+2, -1348682.8, -1371952.3, 0.0023931463, 0.00000083235784, 0.000047557824, -1348682.8, -25019.186, 0.0, 10.000003, 9.969247 
1.6350001e+3, 1.7490156e+2, -1250724.8, -1274310.0, -0.010703376, 0.00000082700643, -0.000073658666, -1250724.8, -24760.184, 0.0, 10.000003, 9.968833 
1.6350001e+3, 1.8486422e+2, -1162643.9, -1195720.0, -0.00047894573, 0.0000008218415, 0.00006629402, -1162643.9, -34313.24, 0.0, 10.000003, 9.956394 
1.6350001e+3, 1.9482066e+2, -1064494.1, -1097832.9, -0.012219304, 0.0000008168711, -0.000057509067, -1064494.1, -33736.594, 0.0, 10.000003, 9.956051 
1.6350001e+3, 2.0477043e+2, -976330.2, -1019434.9, 0.0012633363, 0.00000081363174, 0.00006822165, -976330.2, -43080.344, 0.0, 10.000003, 9.943289 
1.6350001e+3, 2.1471375e+2, -878043.2, -921409.75, -0.011469059, 0.00000081226705, -0.00012669004, -878043.2, -42237.94, 0.0, 10.000003, 9.942948 
1.6350001e+3, 2.246504e+2, -789757.06, -843144.75, -0.0021402333, 0.0000008087093, 0.00012100726, -789757.06, -51330.836, 0.0, 10.000003, 9.929907 
1.6350001e+3, 2.3458035e+2, -691323.56, -744966.4, -0.0127807995, 0.0000008026672, -0.000088704444, -691323.56, -50211.09, 0.0, 10.000003, 9.929575 
1.6350001e+3, 2.445034e+2, -602999.56, -667018.7, 0.0008802199, 0.00000079876537, 0.00007481126, -602999.56, -59132.69, 0.0, 10.000003, 9.916135 
1.6350001e+3, 2.5441962e+2, -504246.9, -568343.25, -0.010300222, 0.0000007974217, -0.00010664286, -504246.9, -57559.36, 0.0, 10.000003, 9.916035 
1.6350001e+3, 2.643288e+2, -416011.5, -490987.8, -0.000004280821, 0.00000079637624, 0.00014067949, -416011.5, -66433.83, 0.0, 10.000003, 9.901963 
1.6350001e+3, 2.742313e+2, -316726.28, -391374.72, -0.010284139, 0.00000079570424, -0.0002033675, -316726.28, -64193.29, 0.0, 10.000003, 9.902384 
1.6350001e+3, 2.841256e+2, -230253.05, -318081.22, 0.0019716595, 0.0000007925814, 0.0002291133, -230253.05, -74684.07, 0.0, 10.000003, 9.885437 
1.6350001e+3, 2.940121e+2, -130546.93, -217765.0, -0.0071978616, 0.00000078610316, -0.00025328534, -130546.93, -71865.52, 0.0, 10.000003, 9.886216 
1.6350001e+3, 3.0392656e+2, -40802.94, -84750.16, 0.0052728937, 0.0000007843885, 0.0001731807, -40802.94, -40802.94, 0.0, 10.000003, 9.942172 
1.6350001e+3, 3.138706e+2, -39724.93, -82511.21, -0.003901234, 0.0000007897753, -0.000055116143, -39724.93, -39724.93, 0.0, 10.000003, 9.943683 
1.6450001e+3, 1.2499336e+2, -1719943.0, -1724224.4, 0.010409992, 0.00000088028116, 0.000017803259, -1719943.0, -4877.901, 0.0, 10.000003, 9.994326 
1.6450001e+3, 1.3498761e+2, -1622562.5, -1627434.6, -0.0017351594, 0.0000008692012, -0.00006808216, -1622562.5, -5441.1426, 0.0, 10.000003, 9.993544 
1.6450001e+3, 1.4497516e+2, -1534461.1, -1548146.0, 0.009756274, 0.00000086221814, 0.000071023, -1534461.1, -15217.648, 0.0, 10.000003, 9.981863 
1.6450001e+3, 1.5495704e+2, -1436733.5, -1450821.8, -0.0048361756, 0.0000008592583, -0.000056784407, -1436733.5, -15312.496, 0.0, 10.000003, 9.981332 
1.6450001e+3, 1.6493228e+2, -1348682.5, -1371952.1, 0.008780131, 0.0000008546396, 0.000047562746, -1348682.5, -25018.986, 0.0, 10.000003, 9.969247 
1.6450001e+3, 1.7490156e+2, -1250724.6, -1274310.0, -0.0039828215, 0.00000084832516, -0.00007365365, -1250724.6, -24759.994, 0.0, 10.000003, 9.968833 
1.6450001e+3, 1.8486422e+2, -1162643.6, -1195719.9, 0.006077417, 0.0000008431946, 0.000066298664, -1162643.6, -34313.047, 0.0, 10.000003, 9.956394 
1.6450001e+3, 1.9482066e+2, -1064493.9, -1097832.8, -0.007319858, 0.0000008393028, -0.00005750531, -1064493.9, -33736.4, 0.0, 10.000003, 9.956051 
1.6450001e+3, 2.0477043e+2, -976329.94, -1019434.8, 0.006832371, 0.0000008358764, 0.00006822517, -976329.94, -43080.152, 0.0, 10.000003, 9.943289 
1.6450001e+3, 2.1471375e+2, -878043.0, -921409.75, -0.004390036, 0.0000008329531, -0.00012668606, -878043.0, -42237.758, 0.0, 10.000003, 9.942948 
1.6450001e+3, 2.246504e+2, -789756.9, -843144.7, 0.0050905137, 0.0000008292729, 0.00012101123, -789756.9, -51330.656, 0.0, 10.000003, 9.929907 
1.6450001e+3, 2.3458035e+2, -691323.4, -744966.3, -0.00801398, 0.00000082473383, -0.00008870098, -691323.4, -50210.9, 0.0, 10.000003, 9.929575 
1.6450001e+3, 2.445034e+2, -602999.4, -667018.6, 0.004904042, 0.0000008211464, 0.00007481422, -602999.4, -59132.5, 0.0, 10.000003, 9.916135 
1.6450001e+3, 2.5441962e+2, -504246.72, -568343.2, -0.006430829, 0.0000008186954, -0.0001066404, -504246.72, -57559.18, 0.0, 10.000003, 9.916035 
1.6450001e+3, 2.643288e+2, -416011.3, -490987.78, 0.003930137, 0.00000081703155, 0.00014068173, -416011.3, -66433.66, 0.0, 10.000003, 9.901963 
1.6450001e+3, 2.742313e+2, -316726.13, -391374.7, -0.0073402687, 0.0000008163669, -0.00020336511, -316726.13, -64193.113, 0.0, 10.000003, 9.902384 
1.6450001e+3, 2.841256e+2, -230252.86, -318081.16, 0.0038732719, 0.0000008136591, 0.0002291155, -230252.86, -74683.89, 0.0, 10.000003, 9.885437 
1.6450001e+3, 2.940121e+2, -130546.75, -217764.95, -0.00748702, 0.00000080815096, -0.0002532838, -130546.75, -71865.336, 0.0, 10.000003, 9.886216 
1.6450001e+3, 3.0392656e+2, -40802.766, -84750.11, 0.0041276547, 0.00000080631645, 0.00017318175, -40802.766, -40802.766, 0.0, 10.000003, 9.942171 
1.6450001e+3, 3.138706e+2, -39724.76, -82511.164, -0.005774104, 0.0000008099605, -0.00005511538, -39724.76, -39724.76, 0.0, 10.000003, 9.943683 
1.6550002e+3, 1.2499336e+2, -1719943.0, -1724224.5, 0.0036847447, 0.0000008991585, 0.000017804881, -1719943.0, -4877.9346, 0.0, 10.000003, 9.994326 
1.6550002e+3, 1.3498761e+2, -1622562.6, -1627434.8, -0.008459846, 0.000000895306, -0.00006807175, -1622562.6, -5441.176, 0.0, 10.000003, 9.993544 
1.6550002e+3, 1.4497516e+2, -1534461.3, -1548146.1, 0.0032038789, 0.0000008888247, 0.00007103513, -1534461.3, -15217.6875, 0.0, 10.000003, 9.981863 
1.6550002e+3, 1.5495704e+2, -1436733.5, -1450821.8, -0.0113886455, 0.00000087958495, -0.000056778852, -1436733.5, -15312.533, 0.0, 10.000003, 9.981332 
1.6550002e+3, 1.6493228e+2, -1348682.6, -1371952.3, 0.002461592, 0.00000087377254, 0.000047565303, -1348682.6, -25019.02, 0.0, 10.000003, 9.969247 
1.6550002e+3, 1.7490156e+2, -1250724.6, -1274310.0, -0.01030066, 0.0000008714586, -0.00007365044, -1250724.6, -24760.025, 0.0, 10.000003, 9.968833 
1.6550002e+3, 1.8486422e+2, -1162643.6, -1195720.0, 0.0015805861, 0.00000086774924, 0.00006630504, -1162643.6, -34313.082, 0.0, 10.000003, 9.956394 
1.6550002e+3, 1.9482066e+2, -1064494.0, -1097832.9, -0.011795954, 0.0000008625793, -0.00005749315, -1064494.0, -33736.434, 0.0, 10.000003, 9.956051 
1.6550002e+3, 2.0477043e+2, -976330.0, -1019434.9, 0.0013421621, 0.0000008575629, 0.00006823316, -976330.0, -43080.18, 0.0, 10.000003, 9.943289 
1.6550002e+3, 2.1471375e+2, -878043.0, -921409.75, -0.009901685, 0.0000008527113, -0.00012669302, -878043.0, -42237.785, 0.0, 10.000003, 9.942948 
1.6550002e+3, 2.246504e+2, -789756.9, -843144.75, 0.0023699757, 0.0000008496439, 0.000121002086, -789756.9, -51330.684, 0.0, 10.000003, 9.929907 
1.6550002e+3, 2.3458035e+2, -691323.44, -744966.4, -0.010643558, 0.0000008485947, -0.00008869785, -691323.44, -50210.93, 0.0, 10.000003, 9.929575 
1.6550002e+3, 2.445034e+2, -602999.4, -667018.7, 0.0007474734, 0.00000084566705, 0.000074821415, -602999.4, -59132.527, 0.0, 10.000003, 9.916135 
1.6550002e+3, 2.5441962e+2, -504246.75, -568343.25, -0.010660892, 0.000000840493, -0.00010663893, -504246.75, -57559.207, 0.0, 10.000003, 9.916035 
1.6550002e+3, 2.643288e+2, -416011.34, -490987.8, 0.0016697457, 0.0000008371506, 0.00014068055, -416011.34, -66433.68, 0.0, 10.000003, 9.901963 
1.6550002e+3, 2.742313e+2, -316726.13, -391374.72, -0.009468517, 0.0000008361441, -0.000203365, -316726.13, -64193.137, 0.0, 10.000003, 9.902384 
1.6550002e+3, 2.841256e+2, -230252.89, -318081.22, 0.0022371637, 0.00000083493046, 0.00022911657, -230252.89, -74683.914, 0.0, 10.000003, 9.885437 
1.6550002e+3, 2.940121e+2, -130546.77, -217765.0, -0.009078411, 0.0000008334227, -0.00025328223, -130546.77, -71865.37, 0.0, 10.000003, 9.886216 
1.6550002e+3, 3.0392656e+2, -40802.79, -84750.16, 0.0021775514, 0.00000083107824, 0.00017318418, -40802.79, -40802.79, 0.0, 10.000003, 9.942171 
1.6550002e+3, 3.138706e+2, -39724.785, -82511.21, -0.00776577, 0.0000008274929, -0.00005511146, -39724.785, -39724.785, 0.0, 10.000003, 9.943683 
1.6650002e+3, 1.2499336e+2, -1719942.8, -1724224.4, 0.011772043, 0.00000092441536, 0.00001781128, -1719942.8, -4877.7188, 0.0, 10.000003, 9.994326 
1.6650002e+3, 1.3498761e+2, -1622562.4, -1627434.6, -0.0043386365, 0.0000009177651, -0.00006806768, -1622562.4, -5440.964, 0.0, 10.000003, 9.993544 
1.6650002e+3, 1.4497516e+2, -1534461.0, -1548146.0, 0.0065017315, 0.00000091056893, 0.000071040115, -1534461.0, -15217.478, 0.0, 10.000003, 9.981863 
1.6650002e+3, 1.5495704e+2, -1436733.4, -1450821.8, -0.006340769, 0.0000009026963, -0.000056773664, -1436733.4, -15312.327, 0.0, 10.000003, 9.981332 
1.6650002e+3, 1.6493228e+2, -1348682.4, -1371952.1, 0.008323215, 0.0000008973235, 0.000047570287, -1348682.4, -25018.814, 0.0, 10.000003, 9.969247 
1.6650002e+3, 1.7490157e+2, -1250724.4, -1274310.0, -0.0060597523, 0.00000089450293, -0.00007364608, -1250724.4, -24759.818, 0.0, 10.000003, 9.968833 
1.6650002e+3, 1.8486422e+2, -1162643.5, -1195719.9, 0.0061279535, 0.0000008905071, 0.00006630921, -1162643.5, -34312.875, 0.0, 10.000003, 9.956394 
1.6650002e+3, 1.9482066e+2, -1064493.8, -1097832.8, -0.0067269495, 0.00000088528077, -0.000057488687, -1064493.8, -33736.234, 0.0, 10.000003, 9.956051 
1.6650002e+3, 2.0477043e+2, -976329.8, -1019434.8, 0.0055849706, 0.0000008802625, 0.0000682373, -976329.8, -43079.98, 0.0, 10.000003, 9.943289 
1.6650002e+3, 2.1471375e+2, -878042.8, -921409.7, -0.009033392, 0.0000008754681, -0.00012668988, -878042.8, -42237.586, 0.0, 10.000003, 9.942948 
1.6650002e+3, 2.246504e+2, -789756.7, -843144.7, 0.002950703, 0.0000008722468, 0.00012100477, -789756.7, -51330.484, 0.0, 10.000003, 9.929907 
1.6650002e+3, 2.3458035e+2, -691323.25, -744966.3, -0.008514973, 0.0000008708053, -0.00008869503, -691323.25, -50210.74, 0.0, 10.000003, 9.929575 
1.6650002e+3, 2.445034e+2, -602999.2, -667018.6, 0.0037990944, 0.00000086786963, 0.00007482432, -602999.2, -59132.34, 0.0, 10.000003, 9.916135 
1.6650002e+3, 2.5441962e+2, -504246.53, -568343.2, -0.008612808, 0.000000863147, -0.00010663605, -504246.53, -57559.01, 0.0, 10.000003, 9.916035 
1.6650002e+3, 2.643288e+2, -416011.16, -490987.78, 0.0035820545, 0.00000085977143, 0.0001406832, -416011.16, -66433.484, 0.0, 10.000003, 9.901963 
1.6650002e+3, 2.742313e+2, -316725.94, -391374.66, -0.008031332, 0.0000008581138, -0.00020336286, -316725.94, -64192.945, 0.0, 10.000003, 9.902384 
1.6650002e+3, 2.841256e+2, -230252.7, -318081.16, 0.0044652782, 0.0000008567404, 0.00022911842, -230252.7, -74683.73, 0.0, 10.000003, 9.885437 
1.6650002e+3, 2.940121e+2, -130546.59, -217764.95, -0.005798637, 0.0000008557479, -0.00025328036, -130546.59, -71865.18, 0.0, 10.000003, 9.886216 
1.6650002e+3, 3.0392656e+2, -40802.605, -84750.11, 0.006526063, 0.0000008535755, 0.00017318598, -40802.605, -40802.605, 0.0, 10.000003, 9.942171 
1.6650002e+3, 3.138706e+2, -39724.594, -82511.16, -0.0035168794, 0.00000084964665, -0.000055109856, -39724.594, -39724.594, 0.0, 10.000003, 9.943683 
1.6750002e+3, 1.2499336e+2, -1719942.9, -1724224.5, 0.004309125, 0.0000009560515, 0.000017822449, -1719942.9, -4877.762, 0.0, 10.000003, 9.994326 
1.6750002e+3, 1.3498761e+2, -1622562.4, -1627434.8, -0.011801648, 0.00000093657843, -0.000068069945, -1622562.4, -5441.0063, 0.0, 10.000003, 9.993544 
1.6750002e+3, 1.4497516e+2, -1534461.0, -1548146.1, -0.00058661477, 0.00000092745097, 0.00007103795, -1534461.0, -15217.513, 0.0, 10.000003, 9.981863 
1.6750002e+3, 1.5495704e+2, -1436733.4, -1450821.8, -0.013428636, 0.0000009285921, -0.00005676884, -1436733.4, -15312.361, 0.0, 10.000003, 9.981332 
1.6750002e+3, 1.649323e+2, -1348682.4, -1371952.3, 0.0024082563, 0.00000092529234, 0.000047577694, -1348682.4, -25018.852, 0.0, 10.000003, 9.969247 
1.6750002e+3, 1.7490157e+2, -1250724.4, -1274310.0, -0.011968822, 0.0000009174581, -0.000073640585, -1250724.4, -24759.855, 0.0, 10.000003, 9.968833 
1.6750002e+3, 1.8486422e+2, -1162643.5, -1195720.0, 0.00012517007, 0.00000091146825, 0.000066311186, -1162643.5, -34312.91, 0.0, 10.000003, 9.956394 
1.6750002e+3, 1.9482066e+2, -1064493.8, -1097832.9, -0.012731207, 0.0000009074072, -0.000057491918, -1064493.8, -33736.266, 0.0, 10.000003, 9.956051 
1.6750002e+3, 2.0477043e+2, -976329.8, -1019434.9, 0.0016060919, 0.00000090397515, 0.00006823758, -976329.8, -43080.016, 0.0, 10.000003, 9.943289 
1.6750002e+3, 2.1471375e+2, -878042.8, -921409.75, -0.012970758, 0.0000009012233, -0.00012667663, -878042.8, -42237.617, 0.0, 10.000003, 9.942948 
1.6750002e+3, 2.246504e+2, -789756.75, -843144.75, -0.0022054014, 0.0000008970816, 0.00012101928, -789756.75, -51330.51, 0.0, 10.000003, 9.929907 
1.6750002e+3, 2.3458035e+2, -691323.25, -744966.4, -0.013711131, 0.00000089136563, -0.0000886925, -691323.25, -50210.766, 0.0, 10.000003, 9.929575 
1.6750002e+3, 2.445034e+2, -602999.2, -667018.7, 0.0012175587, 0.00000088775414, 0.000074822914, -602999.2, -59132.37, 0.0, 10.000003, 9.916135 
1.6750002e+3, 2.5441962e+2, -504246.56, -568343.25, -0.011068801, 0.00000088665735, -0.00010663176, -504246.56, -57559.04, 0.0, 10.000003, 9.916035 
1.6750002e+3, 2.643288e+2, -416011.16, -490987.8, 0.0004702591, 0.0000008848939, 0.00014068966, -416011.16, -66433.516, 0.0, 10.000003, 9.901963 
1.6750002e+3, 2.742313e+2, -316725.97, -391374.72, -0.01118708, 0.00000088227586, -0.0002033587, -316725.97, -64192.973, 0.0, 10.000003, 9.902384 
1.6750002e+3, 2.841256e+2, -230252.73, -318081.22, 0.0021332658, 0.00000087908893, 0.00022912105, -230252.73, -74683.75, 0.0, 10.000003, 9.885437 
1.6750002e+3, 2.940121e+2, -130546.62, -217765.0, -0.008056239, 0.00000087512666, -0.00025327818, -130546.62, -71865.2, 0.0, 10.000003, 9.886216 
1.6750002e+3, 3.0392656e+2, -40802.63, -84750.16, 0.0058376994, 0.0000008738083, 0.00017318716, -40802.63, -40802.63, 0.0, 10.000003, 9.942171 
1.6750002e+3, 3.138706e+2, -39724.62, -82511.21, -0.0040207077, 0.0000008764216, -0.000055110562, -39724.62, -39724.62, 0.0, 10.000003, 9.943683 
1.685e+3, 1.2499336e+2, -1719942.6, -1724224.4, 0.0126382755, 0.0000009812265, 0.000017830394, -1719942.6, -4877.5317, 0.0, 10.000003, 9.994326 
1.685e+3, 1.3498761e+2, -1622562.1, -1627434.6, -0.0017523989, 0.0000009610525, -0.000068064066, -1622562.1, -5440.7866, 0.0, 10.000003, 9.993544 
1.685e+3, 1.4497516e+2, -1534460.8, -1548146.0, 0.0108741475, 0.0000009515457, 0.000071046285, -1534460.8, -15217.295, 0.0, 10.000003, 9.981863 
1.685e+3, 1.5495704e+2, -1436733.1, -1450821.8, -0.004914044, 0.0000009526177, -0.000056763, -1436733.1, -15312.141, 0.0, 10.000003, 9.981332 
1.685e+3, 1.649323e+2, -1348682.1, -1371952.1, 0.009721257, 0.0000009493382, 0.00004758251, -1348682.1, -25018.633, 0.0, 10.000003, 9.969247 
1.685e+3, 1.7490157e+2, -1250724.3, -1274310.0, -0.0044801957, 0.0000009416155, -0.00007363528, -1250724.3, -24759.643, 0.0, 10.000003, 9.968833 
1.685e+3, 1.8486422e+2, -1162643.3, -1195719.9, 0.0075622313, 0.0000009356546, 0.00006631632, -1162643.3, -34312.695, 0.0, 10.000003, 9.956394 
1.685e+3, 1.9482066e+2, -1064493.5, -1097832.8, -0.007565804, 0.0000009315361, -0.000057487647, -1064493.5, -33736.05, 0.0, 10.000003, 9.956051 
1.685e+3, 2.0477043e+2, -976329.6, -1019434.8, 0.0073524644, 0.00000092782994, 0.00006824166, -976329.6, -43079.805, 0.0, 10.000003, 9.943289 
1.685e+3, 2.1471377e+2, -878042.6, -921409.7, -0.0046236357, 0.0000009245698, -0.00012667205, -878042.6, -42237.414, 0.0, 10.000003, 9.942948 
1.685e+3, 2.246504e+2, -789756.5, -843144.7, 0.0068617556, 0.00000092044144, 0.00012102375, -789756.5, -51330.31, 0.0, 10.000003, 9.929906 
1.685e+3, 2.3458035e+2, -691323.06, -744966.25, -0.007899615, 0.0000009153294, -0.00008868887, -691323.06, -50210.56, 0.0, 10.000003, 9.929575 
1.685e+3, 2.445034e+2, -602999.0, -667018.6, 0.0057321866, 0.0000009117472, 0.00007482593, -602999.0, -59132.16, 0.0, 10.000003, 9.916135 
1.685e+3, 2.5441962e+2, -504246.38, -568343.2, -0.006881725, 0.0000009099928, -0.00010662908, -504246.38, -57558.84, 0.0, 10.000003, 9.916035 
1.685e+3, 2.643288e+2, -416010.97, -490987.75, 0.0047532804, 0.00000090787063, 0.00014069215, -416010.97, -66433.31, 0.0, 10.000003, 9.901963 
1.685e+3, 2.742313e+2, -316725.78, -391374.66, -0.007627778, 0.0000009052759, -0.00020335622, -316725.78, -64192.773, 0.0, 10.000003, 9.902384 
1.685e+3, 2.841256e+2, -230252.53, -318081.16, 0.005030907, 0.000000902423, 0.00022912327, -230252.53, -74683.555, 0.0, 10.000003, 9.885437 
1.685e+3, 2.940121e+2, -130546.414, -217764.94, -0.0074871164, 0.0000008992179, -0.00025327652, -130546.414, -71865.0, 0.0, 10.000003, 9.886216 
1.685e+3, 3.0392656e+2, -40802.43, -84750.1, 0.0049555497, 0.0000008978004, 0.00017318808, -40802.43, -40802.43, 0.0, 10.000003, 9.942171 
1.685e+3, 3.138706e+2, -39724.43, -82511.16, -0.006478995, 0.00000089903983, -0.000055110595, -39724.43, -39724.43, 0.0, 10.000003, 9.943683 
1.6950001e+3, 1.2499336e+2, -1719942.6, -1724224.5, 0.0027893258, 0.0000009999408, 0.000017835113, -1719942.6, -4877.5713, 0.0, 10.000003, 9.994326 
1.6950001e+3, 1.3498761e+2, -1622562.3, -1627434.8, -0.011602293, 0.000000991187, -0.00006805005, -1622562.3, -5440.826, 0.0, 10.000003, 9.993544 
1.6950001e+3, 1.4497516e+2, -1534460.9, -1548146.1, 0.0045991545, 0.0000009828527, 0.00007106511, -1534460.9, -15217.336, 0.0, 10.000003, 9.981863 
1.6950001e+3, 1.5495704e+2, -1436733.1, -1450821.8, -0.011183405, 0.0000009747732, -0.000056756155, -1436733.1, -15312.182, 0.0, 10.000003, 9.981332 
1.6950001e+3, 1.649323e+2, -1348682.3, -1371952.1, 0.0026191152, 0.0000009694611, 0.000047584737, -1348682.3, -25018.67, 0.0, 10.000003, 9.969247 
1.6950001e+3, 1.7490157e+2, -1250724.3, -1274310.0, -0.011586978, 0.000000966975, -0.000073630166, -1250724.3, -24759.678, 0.0, 10.000003, 9.968833 
1.6950001e+3, 1.8486422e+2, -1162643.3, -1195720.0, 0.0024288716, 0.000000963066, 0.00006632461, -1162643.3, -34312.734, 0.0, 10.000003, 9.956394 
1.6950001e+3, 1.9482066e+2, -1064493.6, -1097832.9, -0.012676543, 0.0000009576673, -0.000057475874, -1064493.6, -33736.09, 0.0, 10.000003, 9.956051 
1.6950001e+3, 2.0477043e+2, -976329.6, -1019434.9, 0.0012170554, 0.0000009518269, 0.000068249516, -976329.6, -43079.836, 0.0, 10.000003, 9.943289 
1.6950001e+3, 2.1471377e+2, -878042.6, -921409.75, -0.010780465, 0.0000009455076, -0.0001266761, -878042.6, -42237.445, 0.0, 10.000003, 9.942948 
1.6950001e+3, 2.246504e+2, -789756.56, -843144.75, 0.0036156522, 0.00000094232644, 0.0001210182, -789756.56, -51330.344, 0.0, 10.000003, 9.929906 
1.6950001e+3, 2.3458035e+2, -691323.06, -744966.3, -0.011050663, 0.00000094269643, -0.00008868412, -691323.06, -50210.59, 0.0, 10.000003, 9.929575 
1.6950001e+3, 2.445034e+2, -602999.0, -667018.7, 0.0012326082, 0.00000093984863, 0.000074833384, -602999.0, -59132.19, 0.0, 10.000003, 9.916135 
1.6950001e+3, 2.5441962e+2, -504246.4, -568343.25, -0.011446198, 0.00000093315333, -0.00010662799, -504246.4, -57558.867, 0.0, 10.000003, 9.916035 
1.6950001e+3, 2.643288e+2, -416011.0, -490987.8, 0.0020637019, 0.0000009287017, 0.00014069067, -416011.0, -66433.34, 0.0, 10.000003, 9.901963 
1.6950001e+3, 2.742313e+2, -316725.8, -391374.72, -0.010191617, 0.00000092711394, -0.00020335545, -316725.8, -64192.805, 0.0, 10.000003, 9.902384 
1.6950001e+3, 2.841256e+2, -230252.56, -318081.22, 0.003187209, 0.0000009267425, 0.00022912506, -230252.56, -74683.586, 0.0, 10.000003, 9.885437 
1.6950001e+3, 2.940121e+2, -130546.44, -217765.0, -0.009265773, 0.0000009280215, -0.00025327544, -130546.44, -71865.03, 0.0, 10.000003, 9.886216 
1.6950001e+3, 3.0392656e+2, -40802.457, -84750.16, 0.00293685, 0.0000009255517, 0.00017318873, -40802.457, -40802.457, 0.0, 10.000003, 9.942171 
1.6950001e+3, 3.138706e+2, -39724.457, -82511.21, -0.008525628, 0.0000009175014, -0.000055109944, -39724.457, -39724.457, 0.0, 10.000003, 9.943683 
1.7050001e+3, 1.2499336e+2, -1719942.4, -1724224.4, 0.0123203695, 0.0000010243555, 0.000017842855, -1719942.4, -4877.3438, 0.0, 10.000003, 9.994326 
1.7050001e+3, 1.3498761e+2, -1622562.0, -1627434.6, -0.004413266, 0.0000010174888, -0.000068045854, -1622562.0, -5440.586, 0.0, 10.000003, 9.993544 
1.7050001e+3, 1.4497516e+2, -1534460.6, -1548146.0, 0.011405182, 0.0000010096302, 0.00007107365, -1534460.6, -15217.097, 0.0, 10.000003, 9.981863 
1.7050001e+3, 1.5495704e+2, -1436733.0, -1450821.8, -0.0043256264, 0.000001000594, -0.000056750367, -1436733.0, -15311.954, 0.0, 10.000003, 9.981332 
1.7050001e+3, 1.649323e+2, -1348682.0, -1371952.1, 0.009816066, 0.0000009947971, 0.000047589245, -1348682.0, -25018.443, 0.0, 10.000003, 9.969247 
1.7050001e+3, 1.7490157e+2, -1250724.0, -1274310.0, -0.0060291197, 0.0000009923081, -0.00007362544, -1250724.0, -24759.447, 0.0, 10.000003, 9.968833 
1.7050001e+3, 1.8486422e+2, -1162643.0, -1195719.9, 0.007949278, 0.00000098818, 0.00006632958, -1162643.0, -34312.504, 0.0, 10.000003, 9.956394 
1.7050001e+3, 1.9482066e+2, -1064493.4, -1097832.8, -0.006148559, 0.0000009823361, -0.000057470643, -1064493.4, -33735.87, 0.0, 10.000003, 9.956051 
1.7050001e+3, 2.0477043e+2, -976329.44, -1019434.8, 0.0070340824, 0.0000009766939, 0.00006825415, -976329.44, -43079.617, 0.0, 10.000003, 9.943289 
1.7050001e+3, 2.1471377e+2, -878042.44, -921409.7, -0.009654264, 0.0000009712693, -0.000126673, -878042.44, -42237.22, 0.0, 10.000003, 9.942948 
1.7050001e+3, 2.246504e+2, -789756.3, -843144.7, 0.0038056758, 0.0000009678681, 0.00012102074, -789756.3, -51330.12, 0.0, 10.000003, 9.929906 
1.7050001e+3, 2.3458035e+2, -691322.9, -744966.25, -0.008856136, 0.0000009667565, -0.00008868104, -691322.9, -50210.38, 0.0, 10.000003, 9.929575 
1.7050001e+3, 2.445034e+2, -602998.8, -667018.6, 0.0048032785, 0.0000009636427, 0.00007483665, -602998.8, -59131.98, 0.0, 10.000003, 9.916135 
1.7050001e+3, 2.5441962e+2, -504246.2, -568343.2, -0.008994938, 0.0000009581349, -0.00010662497, -504246.2, -57558.652, 0.0, 10.000003, 9.916035 
1.7050001e+3, 2.643288e+2, -416010.78, -490987.75, 0.0040513333, 0.0000009540505, 0.00014069323, -416010.78, -66433.125, 0.0, 10.000003, 9.901963 
1.7050001e+3, 2.742313e+2, -316725.6, -391374.66, -0.009111415, 0.0000009517824, -0.00020335364, -316725.6, -64192.59, 0.0, 10.000003, 9.902384 
1.7050001e+3, 2.841256e+2, -230252.34, -318081.16, 0.0050056195, 0.0000009510399, 0.00022912645, -230252.34, -74683.375, 0.0, 10.000003, 9.885437 
1.7050001e+3, 2.940121e+2, -130546.234, -217764.94, -0.0065379106, 0.0000009523762, -0.00025327402, -130546.234, -71864.83, 0.0, 10.000003, 9.886215 
1.7050001e+3, 3.0392656e+2, -40802.254, -84750.1, 0.0068008103, 0.000000949988, 0.00017319032, -40802.254, -40802.254, 0.0, 10.000003, 9.942171 
1.7050001e+3, 3.138706e+2, -39724.246, -82511.16, -0.004086555, 0.00000094205194, -0.00005510799, -39724.246, -39724.246, 0.0, 10.000003, 9.943683 
1.7150001e+3, 1.2499336e+2, -1719942.4, -1724224.5, 0.0055408143, 0.0000010544703, 0.000017853617, -1719942.4, -4877.389, 0.0, 10.000003, 9.994326 
1.7150001e+3, 1.3498761e+2, -1622562.0, -1627434.6, -0.011193235, 0.0000010399579, -0.00006805146, -1622562.0, -5440.631, 0.0, 10.000003, 9.993544 
1.7150001e+3, 1.4497516e+2, -1534460.6, -1548146.1, 0.0025197314, 0.0000010318781, 0.00007107192, -1534460.6, -15217.139, 0.0, 10.000003, 9.981863 
1.7150001e+3, 1.5495704e+2, -1436733.0, -1450821.8, -0.013214472, 0.0000010300798, -0.00005674563, -1436733.0, -15311.995, 0.0, 10.000003, 9.981332 
1.7150001e+3, 1.649323e+2, -1348682.0, -1371952.1, 0.0039469153, 0.000001025346, 0.00004759603, -1348682.0, -25018.484, 0.0, 10.000003, 9.969247 
1.7150001e+3, 1.7490157e+2, -1250724.0, -1274310.0, -0.011882486, 0.0000010176149, -0.0000736211, -1250724.0, -24759.488, 0.0, 10.000003, 9.968833 
1.7150001e+3, 1.8486422e+2, -1162643.1, -1195719.9, 0.00069398206, 0.0000010109968, 0.00006633122, -1162643.1, -34312.543, 0.0, 10.000003, 9.956394 
1.7150001e+3, 1.9482066e+2, -1064493.4, -1097832.9, -0.013420297, 0.0000010055426, -0.000057471956, -1064493.4, -33735.906, 0.0, 10.000003, 9.956051 
1.7150001e+3, 2.0477043e+2, -976329.44, -1019434.9, 0.002777053, 0.0000010024306, 0.00006825555, -976329.44, -43079.656, 0.0, 10.000003, 9.943289 
1.7150001e+3, 2.1471377e+2, -878042.44, -921409.75, -0.013849185, 0.0000010018546, -0.00012666275, -878042.44, -42237.258, 0.0, 10.000003, 9.942948 
1.7150001e+3, 2.246504e+2, -789756.4, -843144.75, -0.0020487758, 0.0000009970665, 0.00012103137, -789756.4, -51330.152, 0.0, 10.000003, 9.929906 
1.7150001e+3, 2.3458035e+2, -691322.9, -744966.3, -0.014765062, 0.0000009875096, -0.00008867962, -691322.9, -50210.41, 0.0, 10.000003, 9.929575 
1.7150001e+3, 2.445034e+2, -602998.9, -667018.7, 0.001845004, 0.0000009831294, 0.000074835734, -602998.9, -59132.016, 0.0, 10.000003, 9.916135 
1.7150001e+3, 2.5441962e+2, -504246.22, -568343.25, -0.011811472, 0.0000009849373, -0.00010662001, -504246.22, -57558.684, 0.0, 10.000003, 9.916035 
1.7150001e+3, 2.643288e+2, -416010.8, -490987.8, 0.0005347334, 0.0000009839167, 0.00014069982, -416010.8, -66433.16, 0.0, 10.000003, 9.901963 
1.7150001e+3, 2.742313e+2, -316725.63, -391374.72, -0.0126749845, 0.0000009792811, -0.0002033508, -316725.63, -64192.62, 0.0, 10.000003, 9.902383 
1.7150001e+3, 2.841256e+2, -230252.38, -318081.22, 0.0025685548, 0.0000009753153, 0.00022912744, -230252.38, -74683.4, 0.0, 10.000003, 9.885437 
1.7150001e+3, 2.940121e+2, -130546.26, -217765.0, -0.0088733835, 0.0000009722822, -0.00025327227, -130546.26, -71864.85, 0.0, 10.000003, 9.886215 
1.7150001e+3, 3.0392656e+2, -40802.28, -84750.16, 0.0056815795, 0.0000009711096, 0.00017319284, -40802.28, -40802.28, 0.0, 10.000003, 9.942171 
1.7150001e+3, 3.138706e+2, -39724.273, -82511.21, -0.0050629294, 0.0000009726914, -0.000055104734, -39724.273, -39724.273, 0.0, 10.000003, 9.943683 
1.7250001e+3, 1.2499336e+2, -1719942.1, -1724224.4, 0.013503427, 0.00000108181, 0.0000178611, -1719942.1, -4877.136, 0.0, 10.000004, 9.994326 
1.7250001e+3, 1.3498762e+2, -1622561.8, -1627434.6, -0.0030811238, 0.0000010662473, -0.00006804967, -1622561.8, -5440.389, 0.0, 10.000004, 9.993544 
1.7250001e+3, 1.4497516e+2, -1534460.4, -1548146.0, 0.010414055, 0.0000010583027, 0.00007107984, -1534460.4, -15216.897, 0.0, 10.000004, 9.981863 
1.7250001e+3, 1.5495704e+2, -1436732.8, -1450821.8, -0.0061997157, 0.0000010578209, -0.00005674018, -1436732.8, -15311.746, 0.0, 10.000004, 9.981332 
1.7250001e+3, 1.649323e+2, -1348681.8, -1371952.1, 0.011142618, 0.0000010527922, 0.000047600777, -1348681.8, -25018.238, 0.0, 10.000003, 9.969247 
1.7250001e+3, 1.7490157e+2, -1250723.8, -1274309.9, -0.004730271, 0.0000010431206, -0.00007361524, -1250723.8, -24759.254, 0.0, 10.000003, 9.968833 
1.7250001e+3, 1.8486422e+2, -1162642.9, -1195719.9, 0.0076362556, 0.0000010364561, 0.00006633677, -1162642.9, -34312.31, 0.0, 10.000003, 9.956393 
1.7250001e+3, 1.9482066e+2, -1064493.1, -1097832.8, -0.008934507, 0.000001032937, -0.0000574682, -1064493.1, -33735.664, 0.0, 10.000003, 9.956051 
1.7250001e+3, 2.0477043e+2, -976329.2, -1019434.8, 0.008535181, 0.0000010297572, 0.00006825908, -976329.2, -43079.418, 0.0, 10.000003, 9.943289 
1.7250001e+3, 2.1471377e+2, -878042.25, -921409.7, -0.0045496584, 0.0000010269438, -0.00012665772, -878042.25, -42237.03, 0.0, 10.000003, 9.942948 
1.7250001e+3, 2.246504e+2, -789756.1, -843144.7, 0.007808056, 0.0000010218932, 0.00012103668, -789756.1, -51329.926, 0.0, 10.000003, 9.929906 
1.7250001e+3, 2.3458035e+2, -691322.6, -744966.25, -0.008734676, 0.0000010143099, -0.000088675384, -691322.6, -50210.18, 0.0, 10.000003, 9.929575 
1.7250001e+3, 2.445034e+2, -602998.6, -667018.6, 0.0067661037, 0.0000010102972, 0.00007483902, -602998.6, -59131.78, 0.0, 10.000003, 9.916135 
1.7250001e+3, 2.5441962e+2, -504245.97, -568343.2, -0.00718643, 0.0000010105514, -0.0001066175, -504245.97, -57558.46, 0.0, 10.000003, 9.916035 
1.7250001e+3, 2.643288e+2, -416010.6, -490987.75, 0.0053199036, 0.00000100897, 0.00014070213, -416010.6, -66432.94, 0.0, 10.000003, 9.901963 
1.7250001e+3, 2.742313e+2, -316725.38, -391374.66, -0.008449369, 0.0000010050418, -0.00020334795, -316725.38, -64192.4, 0.0, 10.000003, 9.902383 
1.7250001e+3, 2.841256e+2, -230252.16, -318081.16, 0.006102545, 0.0000010014558, 0.0002291303, -230252.16, -74683.18, 0.0, 10.000003, 9.885437 
1.7250001e+3, 2.940121e+2, -130546.04, -217764.94, -0.007716654, 0.0000009983481, -0.00025327015, -130546.04, -71864.63, 0.0, 10.000003, 9.886215 
1.7250001e+3, 3.0392656e+2, -40802.063, -84750.09, 0.005444212, 0.00000099686, 0.00017319406, -40802.063, -40802.063, 0.0, 10.000003, 9.942171 
1.7250001e+3, 3.138706e+2, -39724.06, -82511.15, -0.0073432894, 0.0000009977733, -0.000055104698, -39724.06, -39724.06, 0.0, 10.000003, 9.943683 
1.7350002e+3, 1.2499336e+2, -1719942.3, -1724224.4, 0.00425374, 0.0000011063747, 0.000017865303, -1719942.3, -4877.182, 0.0, 10.000004, 9.994326 
1.7350002e+3, 1.3498762e+2, -1622561.8, -1627434.6, -0.012331807, 0.0000010963568, -0.00006804048, -1622561.8, -5440.434, 0.0, 10.000004, 9.993543 
1.7350002e+3, 1.4497516e+2, -1534460.4, -1548146.0, 0.0034877625, 0.0000010889037, 0.000071097435, -1534460.4, -15216.942, 0.0, 10.000004, 9.981863 
1.7350002e+3, 1.5495704e+2, -1436732.8, -1450821.8, -0.013122407, 0.0000010838173, -0.000056734018, -1436732.8, -15311.79, 0.0, 10.000004, 9.981331 
1.7350002e+3, 1.649323e+2, -1348681.8, -1371952.1, 0.0024298476, 0.0000010771358, 0.00004760348, -1348681.8, -25018.28, 0.0, 10.000003, 9.969247 
1.7350002e+3, 1.7490157e+2, -1250723.9, -1274310.0, -0.013452644, 0.0000010688254, -0.000073607865, -1250723.9, -24759.295, 0.0, 10.000003, 9.968833 
1.7350002e+3, 1.8486422e+2, -1162642.9, -1195719.9, 0.002284938, 0.0000010645578, 0.00006634623, -1162642.9, -34312.35, 0.0, 10.000003, 9.956393 
1.7350002e+3, 1.9482066e+2, -1064493.1, -1097832.8, -0.014246937, 0.0000010645192, -0.000057459383, -1064493.1, -33735.707, 0.0, 10.000003, 9.956051 
1.7350002e+3, 2.0477043e+2, -976329.25, -1019434.9, 0.0018884937, 0.0000010586734, 0.00006826475, -976329.25, -43079.453, 0.0, 10.000003, 9.943289 
1.7350002e+3, 2.1471377e+2, -878042.25, -921409.75, -0.011224123, 0.0000010465371, -0.00012665792, -878042.25, -42237.063, 0.0, 10.000003, 9.942948 
1.7350002e+3, 2.246504e+2, -789756.2, -843144.75, 0.003681837, 0.0000010423485, 0.000121036675, -789756.2, -51329.965, 0.0, 10.000003, 9.929906 
1.7350002e+3, 2.3458035e+2, -691322.7, -744966.3, -0.012777589, 0.0000010471573, -0.00008866835, -691322.7, -50210.215, 0.0, 10.000003, 9.929575 
1.7350002e+3, 2.445034e+2, -602998.6, -667018.7, 0.002010502, 0.0000010451456, 0.00007484651, -602998.6, -59131.816, 0.0, 10.000003, 9.916135 
1.7350002e+3, 2.5441962e+2, -504246.0, -568343.2, -0.011976374, 0.000001034977, -0.00010661744, -504246.0, -57558.496, 0.0, 10.000003, 9.916035 
1.7350002e+3, 2.643288e+2, -416010.63, -490987.8, 0.0024181574, 0.0000010292104, 0.00014070015, -416010.63, -66432.97, 0.0, 10.000003, 9.901963 
1.7350002e+3, 2.742313e+2, -316725.4, -391374.72, -0.011224562, 0.0000010290644, -0.0002033451, -316725.4, -64192.43, 0.0, 10.000003, 9.902383 
1.7350002e+3, 2.841256e+2, -230252.19, -318081.22, 0.003518457, 0.0000010294611, 0.00022913502, -230252.19, -74683.21, 0.0, 10.000003, 9.885437 
1.7350002e+3, 2.940121e+2, -130546.07, -217765.0, -0.01028348, 0.0000010305736, -0.00025326762, -130546.07, -71864.664, 0.0, 10.000003, 9.886215 
1.7350002e+3, 3.0392656e+2, -40802.094, -84750.16, 0.0035769602, 0.0000010272391, 0.00017319398, -40802.094, -40802.094, 0.0, 10.000003, 9.942171 
1.7350002e+3, 3.138706e+2, -39724.09, -82511.21, -0.009128421, 0.000001017298, -0.000055107885, -39724.09, -39724.09, 0.0, 10.000003, 9.943683 
1.7450002e+3, 1.2499337e+2, -1719941.9, -1724224.4, 0.01336022, 0.000001135873, 0.000017873166, -1719941.9, -4876.9233, 0.0, 10.000004, 9.994326 
1.7450002e+3, 1.3498762e+2, -1622561.5, -1627434.6, -0.004754946, 0.0000011243282, -0.00006803922, -1622561.5, -5440.1704, 0.0, 10.000004, 9.993543 
1.7450002e+3, 1.4497516e+2, -1534460.1, -1548146.0, 0.010572861, 0.0000011161195, 0.0000711067, -1534460.1, -15216.681, 0.0, 10.000004, 9.981863 
1.7450002e+3, 1.5495704e+2, -1436732.5, -1450821.6, -0.006070987, 0.0000011110426, -0.00005672804, -1436732.5, -15311.541, 0.0, 10.000004, 9.981331 
1.7450002e+3, 1.649323e+2, -1348681.5, -1371952.1, 0.0094354525, 0.0000011046316, 0.000047607937, -1348681.5, -25018.031, 0.0, 10.000004, 9.969247 
1.7450002e+3, 1.7490157e+2, -1250723.6, -1274309.9, -0.0075301477, 0.0000010968582, -0.00007360312, -1250723.6, -24759.041, 0.0, 10.000004, 9.968833 
1.7450002e+3, 1.8486422e+2, -1162642.6, -1195719.9, 0.009626735, 0.0000010925744, 0.00006635131, -1162642.6, -34312.098, 0.0, 10.000004, 9.956393 
1.7450002e+3, 1.9482066e+2, -1064492.9, -1097832.8, -0.006243667, 0.0000010919409, -0.000057453908, -1064492.9, -33735.46, 0.0, 10.000004, 9.956051 
1.7450002e+3, 2.0477043e+2, -976329.0, -1019434.75, 0.0075248634, 0.0000010859023, 0.000068269685, -976329.0, -43079.207, 0.0, 10.000004, 9.943289 
1.7450002e+3, 2.1471377e+2, -878042.0, -921409.7, -0.010756525, 0.000001074009, -0.00012665456, -878042.0, -42236.82, 0.0, 10.000004, 9.942947 
1.7450002e+3, 2.246504e+2, -789755.94, -843144.7, 0.0046560434, 0.0000010697986, 0.0001210393, -789755.94, -51329.723, 0.0, 10.000004, 9.929906 
1.7450002e+3, 2.3458035e+2, -691322.44, -744966.25, -0.0090439, 0.0000010742863, -0.00008866551, -691322.44, -50209.977, 0.0, 10.000004, 9.929575 
1.7450002e+3, 2.445034e+2, -602998.4, -667018.6, 0.0061380006, 0.0000010721991, 0.00007484963, -602998.4, -59131.58, 0.0, 10.000004, 9.916135 
1.7450002e+3, 2.5441962e+2, -504245.78, -568343.1, -0.009655711, 0.0000010622489, -0.00010661395, -504245.78, -57558.258, 0.0, 10.000004, 9.916035 
1.7450002e+3, 2.643288e+2, -416010.38, -490987.75, 0.005029822, 0.0000010564715, 0.0001407034, -416010.38, -66432.734, 0.0, 10.000004, 9.901963 
1.7450002e+3, 2.742313e+2, -316725.2, -391374.66, -0.00915135, 0.0000010560223, -0.00020334288, -316725.2, -64192.195, 0.0, 10.000004, 9.902383 
1.7450002e+3, 2.841256e+2, -230251.95, -318081.16, 0.0059120134, 0.0000010562935, 0.00022913671, -230251.95, -74682.98, 0.0, 10.000003, 9.885437 
1.7450002e+3, 2.940121e+2, -130545.836, -217764.94, -0.007242327, 0.0000010575251, -0.00025326578, -130545.836, -71864.43, 0.0, 10.000003, 9.886215 
1.7450002e+3, 3.0392656e+2, -40801.863, -84750.09, 0.007696094, 0.0000010541796, 0.00017319605, -40801.863, -40801.863, 0.0, 10.000003, 9.942171 
1.7450002e+3, 3.138706e+2, -39723.86, -82511.15, -0.0045187017, 0.000001044032, -0.000055105473, -39723.86, -39723.86, 0.0, 10.000003, 9.943683 
1.755e+3, 1.2499337e+2, -1719942.0, -1724224.4, 0.0055065164, 0.0000011703048, 0.000017884691, -1719942.0, -4876.9727, 0.0, 10.000004, 9.994326 
1.755e+3, 1.3498762e+2, -1622561.5, -1627434.6, -0.012609474, 0.0000011501617, -0.00006804589, -1622561.5, -5440.2188, 0.0, 10.000004, 9.993543 
1.755e+3, 1.4497516e+2, -1534460.1, -1548146.0, 0.0009104045, 0.0000011399504, 0.000071107635, -1534460.1, -15216.725, 0.0, 10.000004, 9.981863 
1.755e+3, 1.5495704e+2, -1436732.5, -1450821.8, -0.01573645, 0.0000011394966, -0.00005672225, -1436732.5, -15311.585, 0.0, 10.000004, 9.981331 
1.755e+3, 1.649323e+2, -1348681.6, -1371952.1, 0.0025050864, 0.0000011352791, 0.000047614147, -1348681.6, -25018.076, 0.0, 10.000004, 9.969247 
1.755e+3, 1.7490157e+2, -1250723.6, -1274310.0, -0.0144462185, 0.0000011272189, -0.00007360102, -1250723.6, -24759.084, 0.0, 10.000004, 9.968833 
1.755e+3, 1.8486422e+2, -1162642.6, -1195719.9, 0.0025965255, 0.000001120506, 0.00006635201, -1162642.6, -34312.137, 0.0, 10.000004, 9.956393 
1.755e+3, 1.9482066e+2, -1064493.0, -1097832.8, -0.0132753635, 0.0000011152023, -0.000057451773, -1064493.0, -33735.5, 0.0, 10.000004, 9.956051 
1.755e+3, 2.0477043e+2, -976329.0, -1019434.9, 0.0013095064, 0.0000011114439, 0.00006827387, -976329.0, -43079.254, 0.0, 10.000004, 9.943289 
1.755e+3, 2.1471377e+2, -878042.06, -921409.75, -0.016955096, 0.0000011093587, -0.00012664763, -878042.06, -42236.863, 0.0, 10.000004, 9.942947 
1.755e+3, 2.246504e+2, -789755.94, -843144.75, -0.00014259567, 0.0000011042433, 0.00012104458, -789755.94, -51329.758, 0.0, 10.000004, 9.929906 
1.755e+3, 2.3458035e+2, -691322.5, -744966.3, -0.013796922, 0.000001095697, -0.000088666864, -691322.5, -50210.01, 0.0, 10.000004, 9.929575 
1.755e+3, 2.445034e+2, -602998.44, -667018.7, 0.0015300412, 0.0000010914581, 0.000074848394, -602998.44, -59131.617, 0.0, 10.000004, 9.916135 
1.755e+3, 2.5441962e+2, -504245.8, -568343.2, -0.014256746, 0.000001092367, -0.00010660704, -504245.8, -57558.293, 0.0, 10.000004, 9.916035 
1.755e+3, 2.643288e+2, -416010.4, -490987.8, 0.0016676488, 0.0000010907529, 0.00014071185, -416010.4, -66432.766, 0.0, 10.000004, 9.901963 
1.755e+3, 2.742313e+2, -316725.22, -391374.72, -0.012430525, 0.0000010859152, -0.00020334127, -316725.22, -64192.23, 0.0, 10.000004, 9.902383 
1.755e+3, 2.841256e+2, -230251.98, -318081.22, 0.003274173, 0.000001081953, 0.00022913537, -230251.98, -74683.01, 0.0, 10.000003, 9.885437 
1.755e+3, 2.940121e+2, -130545.87, -217765.0, -0.009822417, 0.0000010792031, -0.00025326462, -130545.87, -71864.46, 0.0, 10.000003, 9.886215 
1.755e+3, 3.0392656e+2, -40801.895, -84750.16, 0.0056316135, 0.0000010776815, 0.00017320026, -40801.895, -40801.895, 0.0, 10.000003, 9.942171 
1.755e+3, 3.138706e+2, -39723.89, -82511.21, -0.006522721, 0.000001077975, -0.000055097462, -39723.89, -39723.89, 0.0, 10.000003, 9.943683 
1.7650001e+3, 1.2499337e+2, -1719941.6, -1724224.4, 0.015091031, 0.0000012022376, 0.000017895985, -1719941.6, -4876.6836, 0.0, 10.000004, 9.994326 
1.7650001e+3, 1.3498762e+2, -1622561.3, -1627434.6, -0.0038200163, 0.0000011789657, -0.00006804288, -1622561.3, -5439.9546, 0.0, 10.000004, 9.993543 
1.7650001e+3, 1.4497516e+2, -1534459.9, -1548146.0, 0.0112342285, 0.0000011677434, 0.00007111957, -1534459.9, -15216.465, 0.0, 10.000004, 9.981863 
1.7650001e+3, 1.5495704e+2, -1436732.3, -1450821.6, -0.0064964034, 0.0000011683992, -0.000056715497, -1436732.3, -15311.313, 0.0, 10.000004, 9.981331 
1.7650001e+3, 1.649323e+2, -1348681.3, -1371952.0, 0.011034168, 0.000001164831, 0.000047618843, -1348681.3, -25017.805, 0.0, 10.000004, 9.969247 
1.7650001e+3, 1.7490157e+2, -1250723.4, -1274309.9, -0.0069489894, 0.00000115695, -0.0000735952, -1250723.4, -24758.822, 0.0, 10.000004, 9.968833 
1.7650001e+3, 1.8486422e+2, -1162642.4, -1195719.9, 0.009722987, 0.0000011497032, 0.00006635782, -1162642.4, -34311.88, 0.0, 10.000004, 9.956393 
1.7650001e+3, 1.9482066e+2, -1064492.8, -1097832.8, -0.008078304, 0.0000011431189, -0.000057447192, -1064492.8, -33735.242, 0.0, 10.000004, 9.956051 
1.7650001e+3, 2.0477043e+2, -976328.75, -1019434.75, 0.0077587403, 0.000001139409, 0.00006827832, -976328.75, -43078.996, 0.0, 10.000004, 9.943289 
1.7650001e+3, 2.1471377e+2, -878041.8, -921409.6, -0.0070481803, 0.0000011388119, -0.00012664215, -878041.8, -42236.605, 0.0, 10.000004, 9.942947 
1.7650001e+3, 2.246504e+2, -789755.7, -843144.6, 0.010517318, 0.00000113378, 0.000121050034, -789755.7, -51329.5, 0.0, 10.000004, 9.929906 
1.7650001e+3, 2.3458035e+2, -691322.25, -744966.25, -0.0077690277, 0.0000011237265, -0.00008866266, -691322.25, -50209.758, 0.0, 10.000004, 9.929575 
1.7650001e+3, 2.445034e+2, -602998.2, -667018.6, 0.0061214766, 0.0000011191196, 0.00007485184, -602998.2, -59131.367, 0.0, 10.000004, 9.916134 
1.7650001e+3, 2.5441962e+2, -504245.56, -568343.1, -0.008691633, 0.0000011210228, -0.00010660374, -504245.56, -57558.043, 0.0, 10.000004, 9.916035 
1.7650001e+3, 2.643288e+2, -416010.16, -490987.72, 0.008067472, 0.0000011197039, 0.00014071491, -416010.16, -66432.516, 0.0, 10.000004, 9.901963 
1.7650001e+3, 2.742313e+2, -316724.97, -391374.63, -0.0076505463, 0.0000011142681, -0.00020333863, -316724.97, -64191.984, 0.0, 10.000004, 9.902383 
1.7650001e+3, 2.841256e+2, -230251.73, -318081.13, 0.006877372, 0.0000011098798, 0.00022913788, -230251.73, -74682.766, 0.0, 10.000004, 9.885437 
1.7650001e+3, 2.940121e+2, -130545.625, -217764.92, -0.007813722, 0.000001106943, -0.00025326197, -130545.625, -71864.22, 0.0, 10.000004, 9.886215 
1.7650001e+3, 3.0392656e+2, -40801.656, -84750.09, 0.0069726584, 0.0000011056504, 0.00017320213, -40801.656, -40801.656, 0.0, 10.000004, 9.942171 
1.7650001e+3, 3.138706e+2, -39723.65, -82511.15, -0.0069561414, 0.0000011067882, -0.000055097782, -39723.65, -39723.65, 0.0, 10.000004, 9.943683 
1.7750001e+3, 1.2499337e+2, -1719941.8, -1724224.4, 0.0015632887, 0.0000012316717, 0.000017907052, -1719941.8, -4876.7354, 0.0, 10.000004, 9.994326 
1.7750001e+3, 1.3498762e+2, -1622561.4, -1627434.6, -0.017349914, 0.00000121074, -0.000068030175, -1622561.4, -5440.006, 0.0, 10.000004, 9.993543 
1.7750001e+3, 1.4497516e+2, -1534460.0, -1548146.0, 0.0043765423, 0.0000011994985, 0.00007114251, -1534460.0, -15216.513, 0.0, 10.000004, 9.981863 
1.7750001e+3, 1.5495704e+2, -1436732.3, -1450821.8, -0.013343697, 0.0000011977502, -0.000056707777, -1436732.3, -15311.36, 0.0, 10.000004, 9.981331 
1.7750001e+3, 1.649323e+2, -1348681.4, -1371952.1, 0.0020724235, 0.0000011932871, 0.000047622016, -1348681.4, -25017.852, 0.0, 10.000004, 9.969247 
1.7750001e+3, 1.7490157e+2, -1250723.4, -1274310.0, -0.01592202, 0.0000011860519, -0.00007358566, -1250723.4, -24758.87, 0.0, 10.000004, 9.968833 
1.7750001e+3, 1.8486422e+2, -1162642.5, -1195719.9, 0.0030044846, 0.0000011801658, 0.00006636871, -1162642.5, -34311.926, 0.0, 10.000004, 9.956393 
1.7750001e+3, 1.9482066e+2, -1064492.8, -1097832.8, -0.014770834, 0.0000011756904, -0.000057440164, -1064492.8, -33735.285, 0.0, 10.000004, 9.956051 
1.7750001e+3, 2.0477043e+2, -976328.8, -1019434.8, 0.0014101128, 0.0000011697975, 0.00006828302, -976328.8, -43079.03, 0.0, 10.000004, 9.943289 
1.7750001e+3, 2.1471377e+2, -878041.8, -921409.7, -0.013389901, 0.0000011623688, -0.00012663809, -878041.8, -42236.645, 0.0, 10.000004, 9.942947 
1.7750001e+3, 2.246504e+2, -789755.75, -843144.75, 0.004906746, 0.0000011584086, 0.00012105567, -789755.75, -51329.547, 0.0, 10.000004, 9.929906 
1.7750001e+3, 2.3458035e+2, -691322.25, -744966.3, -0.0133557385, 0.0000011583744, -0.00008865291, -691322.25, -50209.8, 0.0, 10.000004, 9.929575 
1.7750001e+3, 2.445034e+2, -602998.25, -667018.7, 0.0016966774, 0.0000011551833, 0.00007485999, -602998.25, -59131.402, 0.0, 10.000004, 9.916134 
1.7750001e+3, 2.5441965e+2, -504245.6, -568343.2, -0.013060714, 0.0000011482165, -0.00010660403, -504245.6, -57558.08, 0.0, 10.000004, 9.916035 
1.7750001e+3, 2.643288e+2, -416010.2, -490987.8, 0.004491999, 0.0000011433247, 0.00014071255, -416010.2, -66432.555, 0.0, 10.000004, 9.901963 
1.7750001e+3, 2.742313e+2, -316725.0, -391374.72, -0.011172875, 0.0000011410814, -0.0002033349, -316725.0, -64192.02, 0.0, 10.000004, 9.902383 
1.7750001e+3, 2.841256e+2, -230251.77, -318081.2, 0.0036471807, 0.000001140074, 0.0002291442, -230251.77, -74682.8, 0.0, 10.000004, 9.885437 
1.7750001e+3, 2.940121e+2, -130545.664, -217764.98, -0.011017667, 0.0000011407446, -0.0002532578, -130545.664, -71864.25, 0.0, 10.000004, 9.886215 
1.7750001e+3, 3.0392656e+2, -40801.688, -84750.16, 0.005495421, 0.0000011380861, 0.00017320167, -40801.688, -40801.688, 0.0, 10.000004, 9.942171 
1.7750001e+3, 3.138706e+2, -39723.68, -82511.21, -0.008230799, 0.0000011304718, -0.000055106433, -39723.68, -39723.68, 0.0, 10.000004, 9.943683 
1.7850001e+3, 1.2499337e+2, -1719941.4, -1724224.3, 0.0145199895, 0.0000012594472, 0.000017917408, -1719941.4, -4876.461, 0.0, 10.000004, 9.994326 
1.7850001e+3, 1.3498762e+2, -1622561.0, -1627434.5, -0.004710914, 0.000001244232, -0.00006802673, -1622561.0, -5439.71, 0.0, 10.000004, 9.993543 
1.7850001e+3, 1.4497516e+2, -1534459.6, -1548145.9, 0.01746846, 0.0000012337572, 0.00007115695, -1534459.6, -15216.216, 0.0, 10.000004, 9.981863 
1.7850001e+3, 1.5495704e+2, -1436732.0, -1450821.6, -0.002948669, 0.0000012277858, -0.000056701123, -1436732.0, -15311.082, 0.0, 10.000004, 9.981331 
1.7850001e+3, 1.649323e+2, -1348681.1, -1371952.0, 0.011771157, 0.0000012223062, 0.000047625945, -1348681.1, -25017.578, 0.0, 10.000004, 9.969247 
1.7850001e+3, 1.7490157e+2, -1250723.1, -1274309.9, -0.006982143, 0.000001217329, -0.00007357928, -1250723.1, -24758.588, 0.0, 10.000004, 9.968833 
1.7850001e+3, 1.8486422e+2, -1162642.1, -1195719.8, 0.011825622, 0.0000012116594, 0.00006637581, -1162642.1, -34311.645, 0.0, 10.000004, 9.956393 
1.7850001e+3, 1.9482066e+2, -1064492.5, -1097832.8, -0.006110501, 0.0000012052644, -0.000057434176, -1064492.5, -33735.016, 0.0, 10.000004, 9.95605 
1.7850001e+3, 2.0477043e+2, -976328.5, -1019434.75, 0.009147845, 0.0000011990613, 0.000068287736, -976328.5, -43078.76, 0.0, 10.000004, 9.943289 
1.7850001e+3, 2.1471377e+2, -878041.56, -921409.6, -0.01059939, 0.0000011930656, -0.00012663483, -878041.56, -42236.375, 0.0, 10.000004, 9.942947 
1.7850001e+3, 2.246504e+2, -789755.44, -843144.6, 0.0067309784, 0.0000011892488, 0.00012105859, -789755.44, -51329.277, 0.0, 10.000004, 9.929906 
1.7850001e+3, 2.3458035e+2, -691322.0, -744966.25, -0.008838161, 0.0000011878975, -0.000088649074, -691322.0, -50209.535, 0.0, 10.000004, 9.929575 
1.7850001e+3, 2.445034e+2, -602997.94, -667018.56, 0.007328747, 0.0000011843599, 0.0000748639, -602997.94, -59131.137, 0.0, 10.000004, 9.916134 
1.7850001e+3, 2.5441965e+2, -504245.3, -568343.1, -0.010507644, 0.0000011782076, -0.00010660105, -504245.3, -57557.816, 0.0, 10.000004, 9.916035 
1.7850001e+3, 2.643288e+2, -416009.94, -490987.72, 0.006371533, 0.0000011734945, 0.000140715, -416009.94, -66432.3, 0.0, 10.000004, 9.901963 
1.7850001e+3, 2.742313e+2, -316724.75, -391374.63, -0.008794761, 0.0000011706178, -0.0002033325, -316724.75, -64191.76, 0.0, 10.000004, 9.902383 
1.7850001e+3, 2.841256e+2, -230251.5, -318081.13, 0.0068208547, 0.0000011693494, 0.00022914635, -230251.5, -74682.54, 0.0, 10.000004, 9.885437 
1.7850001e+3, 2.940121e+2, -130545.4, -217764.92, -0.008202217, 0.0000011702723, -0.00025325626, -130545.4, -71863.99, 0.0, 10.000004, 9.886215 
1.7850001e+3, 3.0392656e+2, -40801.434, -84750.086, 0.008802281, 0.0000011677813, 0.00017320307, -40801.434, -40801.434, 0.0, 10.000004, 9.942171 
1.7850001e+3, 3.138706e+2, -39723.43, -82511.15, -0.005456875, 0.0000011602037, -0.000055104563, -39723.43, -39723.43, 0.0, 10.000004, 9.943683 
1.7950001e+3, 1.2499337e+2, -1719941.5, -1724224.4, 0.0062293867, 0.0000012855644, 0.000017927056, -1719941.5, -4876.514, 0.0, 10.000004, 9.994325 
1.7950001e+3, 1.3498762e+2, -1622561.0, -1627434.6, -0.013002628, 0.0000012794411, -0.000068032554, -1622561.0, -5439.762, 0.0, 10.000004, 9.993543 
1.7950001e+3, 1.4497516e+2, -1534459.6, -1548146.0, 0.0063154795, 0.0000012705194, 0.000071162896, -1534459.6, -15216.27, 0.0, 10.000004, 9.981863 
1.7950001e+3, 1.5495704e+2, -1436732.0, -1450821.8, -0.014106278, 0.0000012585058, -0.000056695535, -1436732.0, -15311.136, 0.0, 10.000004, 9.981331 
1.7950001e+3, 1.649323e+2, -1348681.1, -1371952.1, 0.0047353515, 0.0000012518885, 0.00004763063, -1348681.1, -25017.627, 0.0, 10.000004, 9.969246 
1.7950001e+3, 1.7490157e+2, -1250723.1, -1274310.0, -0.01399633, 0.0000012507813, -0.00007357605, -1250723.1, -24758.635, 0.0, 10.000004, 9.968833 
1.7950001e+3, 1.8486422e+2, -1162642.3, -1195719.9, 0.0031813108, 0.0000012441841, 0.0000663791, -1162642.3, -34311.688, 0.0, 10.000004, 9.956393 
1.7950001e+3, 1.9482066e+2, -1064492.5, -1097832.8, -0.014773827, 0.000001231841, -0.000057429228, -1064492.5, -33735.06, 0.0, 10.000004, 9.95605 
1.7950001e+3, 2.0477043e+2, -976328.56, -1019434.8, 0.0031643137, 0.0000012272004, 0.00006829246, -976328.56, -43078.813, 0.0, 10.000004, 9.943289 
1.7950001e+3, 2.1471377e+2, -878041.56, -921409.7, -0.016527662, 0.0000012309018, -0.00012663237, -878041.56, -42236.42, 0.0, 10.000004, 9.942947 
1.7950001e+3, 2.246504e+2, -789755.5, -843144.7, 0.00088038994, 0.0000012263001, 0.00012105879, -789755.5, -51329.316, 0.0, 10.000004, 9.929906 
1.7950001e+3, 2.3458035e+2, -691322.0, -744966.3, -0.014686371, 0.000001212296, -0.000088651155, -691322.0, -50209.574, 0.0, 10.000004, 9.929575 
1.7950001e+3, 2.445034e+2, -602998.0, -667018.7, 0.0024151166, 0.0000012066498, 0.00007486357, -602998.0, -59131.18, 0.0, 10.000004, 9.916134 
1.7950001e+3, 2.5441965e+2, -504245.38, -568343.2, -0.015376426, 0.0000012109962, -0.000106594794, -504245.38, -57557.86, 0.0, 10.000004, 9.916035 
1.7950001e+3, 2.643288e+2, -416009.97, -490987.78, 0.0024549006, 0.000001210213, 0.00014072223, -416009.97, -66432.336, 0.0, 10.000004, 9.901963 
1.7950001e+3, 2.742313e+2, -316724.78, -391374.7, -0.012647691, 0.0000012028773, -0.00020333142, -316724.78, -64191.797, 0.0, 10.000004, 9.902383 
1.7950001e+3, 2.841256e+2, -230251.55, -318081.2, 0.00406059, 0.0000011977061, 0.00022914428, -230251.55, -74682.58, 0.0, 10.000004, 9.885437 
1.7950001e+3, 2.940121e+2, -130545.44, -217764.98, -0.010864145, 0.0000011955265, -0.0002532573, -130545.44, -71864.03, 0.0, 10.000004, 9.886215 
1.7950001e+3, 3.0392656e+2, -40801.465, -84750.16, 0.006553876, 0.0000011947361, 0.00017320632, -40801.465, -40801.465, 0.0, 10.000004, 9.942171 
1.7950001e+3, 3.138706e+2, -39723.465, -82511.22, -0.007656884, 0.0000011959835, -0.000055092172, -39723.465, -39723.465, 0.0, 10.000004, 9.943683 
1.8050002e+3, 1.2499337e+2, -1719941.1, -1724224.3, 0.015723601, 0.000001317928, 0.000017936294, -1719941.1, -4876.2065, 0.0, 10.000004, 9.994325 
1.8050002e+3, 1.3498762e+2, -1622560.8, -1627434.5, -0.0055560097, 0.000001311411, -0.0000680346, -1622560.8, -5439.465, 0.0, 10.000004, 9.993543 
1.8050002e+3, 1.4497516e+2, -1534459.4, -1548145.9, 0.012331195, 0.0000013029352, 0.000071174014, -1534459.4, -15215.974, 0.0, 10.000004, 9.981863 
1.8050002e+3, 1.5495704e+2, -1436731.8, -1450821.6, -0.0071198526, 0.0000012922026, -0.000056688885, -1436731.8, -15310.833, 0.0, 10.000004, 9.981331 
1.8050002e+3, 1.649323e+2, -1348680.8, -1371952.0, 0.013532132, 0.0000012850593, 0.000047635593, -1348680.8, -25017.324, 0.0, 10.000004, 9.969246 
1.8050002e+3, 1.7490157e+2, -1250722.9, -1274309.9, -0.0064167464, 0.0000012815807, -0.00007356994, -1250722.9, -24758.348, 0.0, 10.000004, 9.968833 
1.8050002e+3, 1.8486422e+2, -1162641.9, -1195719.8, 0.009675483, 0.0000012747619, 0.00006638508, -1162641.9, -34311.402, 0.0, 10.000004, 9.956393 
1.8050002e+3, 1.9482066e+2, -1064492.3, -1097832.6, -0.009712737, 0.0000012644466, -0.000057424713, -1064492.3, -33734.77, 0.0, 10.000004, 9.95605 
1.8050002e+3, 2.0477043e+2, -976328.25, -1019434.75, 0.010576148, 0.0000012600823, 0.00006829696, -976328.25, -43078.523, 0.0, 10.000004, 9.943289 
1.8050002e+3, 2.1471377e+2, -878041.3, -921409.6, -0.006903737, 0.0000012621626, -0.00012662631, -878041.3, -42236.137, 0.0, 10.000004, 9.942947 
1.8050002e+3, 2.246504e+2, -789755.2, -843144.6, 0.009364208, 0.0000012569778, 0.00012106479, -789755.2, -51329.03, 0.0, 10.000004, 9.929906 
1.8050002e+3, 2.3458037e+2, -691321.75, -744966.2, -0.010045949, 0.0000012435661, -0.00008864701, -691321.75, -50209.297, 0.0, 10.000004, 9.929575 
1.8050002e+3, 2.445034e+2, -602997.7, -667018.56, 0.008018045, 0.0000012381169, 0.00007486685, -602997.7, -59130.906, 0.0, 10.000004, 9.916134 
1.8050002e+3, 2.5441965e+2, -504245.1, -568343.1, -0.008211491, 0.0000012421864, -0.000106591186, -504245.1, -57557.582, 0.0, 10.000004, 9.916034 
1.8050002e+3, 2.643288e+2, -416009.7, -490987.72, 0.009086113, 0.0000012413049, 0.00014072584, -416009.7, -66432.055, 0.0, 10.000004, 9.901963 
1.8050002e+3, 2.742313e+2, -316724.5, -391374.63, -0.008748462, 0.0000012340987, -0.00020332824, -316724.5, -64191.523, 0.0, 10.000004, 9.902383 
1.8050002e+3, 2.841256e+2, -230251.27, -318081.13, 0.007131201, 0.0000012288999, 0.0002291469, -230251.27, -74682.305, 0.0, 10.000004, 9.885437 
1.8050002e+3, 2.940121e+2, -130545.164, -217764.9, -0.0091220625, 0.0000012264768, -0.00025325548, -130545.164, -71863.766, 0.0, 10.000004, 9.886215 
1.8050002e+3, 3.0392656e+2, -40801.2, -84750.086, 0.008501608, 0.0000012255578, 0.00017320745, -40801.2, -40801.2, 0.0, 10.000004, 9.942171 
1.8050002e+3, 3.138706e+2, -39723.19, -82511.14, -0.0058291196, 0.0000012268491, -0.000055091645, -39723.19, -39723.19, 0.0, 10.000004, 9.943683 
1.8150002e+3, 1.2499337e+2, -1719941.3, -1724224.4, 0.0053235805, 0.0000013565377, 0.000017945124, -1719941.3, -4876.265, 0.0, 10.000004, 9.994325 
1.8150002e+3, 1.3498762e+2, -1622560.8, -1627434.6, -0.015957577, 0.0000013401415, -0.00006803285, -1622560.8, -5439.5225, 0.0, 10.000004, 9.993543 
1.8150002e+3, 1.4497516e+2, -1534459.4, -1548146.0, 0.0029433966, 0.0000013310045, 0.00007119031, -1534459.4, -15216.026, 0.0, 10.000004, 9.981863 
1.8150002e+3, 1.5495704e+2, -1436731.8, -1450821.8, -0.016506162, 0.0000013288759, -0.000056681172, -1436731.8, -15310.885, 0.0, 10.000004, 9.981331 
1.8150002e+3, 1.649323e+2, -1348680.9, -1371952.1, 0.003793663, 0.0000013218181, 0.000047640824, -1348680.9, -25017.377, 0.0, 10.000004, 9.969246 
1.8150002e+3, 1.7490157e+2, -1250722.9, -1274310.0, -0.016157193, 0.0000013097274, -0.00007356096, -1250722.9, -24758.398, 0.0, 10.000004, 9.968833 
1.8150002e+3, 1.8486422e+2, -1162642.0, -1195719.9, 0.001977517, 0.000001303393, 0.000066393746, -1162642.0, -34311.453, 0.0, 10.000004, 9.956393 
1.8150002e+3, 1.9482066e+2, -1064492.3, -1097832.8, -0.017387185, 0.000001303081, -0.000057420628, -1064492.3, -33734.82, 0.0, 10.000004, 9.95605 
1.8150002e+3, 2.0477043e+2, -976328.3, -1019434.8, 0.0042700847, 0.0000012977067, 0.00006830124, -976328.3, -43078.566, 0.0, 10.000004, 9.943289 
1.8150002e+3, 2.1471377e+2, -878041.3, -921409.7, -0.013181696, 0.0000012868485, -0.00012661668, -878041.3, -42236.18, 0.0, 10.000004, 9.942947 
1.8150002e+3, 2.246504e+2, -789755.25, -843144.7, 0.0019248886, 0.0000012812823, 0.0001210766, -789755.25, -51329.08, 0.0, 10.000004, 9.929906 
1.8150002e+3, 2.3458037e+2, -691321.8, -744966.3, -0.017523348, 0.0000012817076, -0.00008863665, -691321.8, -50209.344, 0.0, 10.000004, 9.929575 
1.8150002e+3, 2.445034e+2, -602997.75, -667018.6, 0.0043296446, 0.0000012787607, 0.00007487374, -602997.75, -59130.945, 0.0, 10.000004, 9.916134 
1.8150002e+3, 2.5441965e+2, -504245.13, -568343.2, -0.011717982, 0.0000012717786, -0.000106590225, -504245.13, -57557.617, 0.0, 10.000004, 9.916034 
1.8150002e+3, 2.643288e+2, -416009.72, -490987.78, 0.004255268, 0.0000012667703, 0.00014072582, -416009.72, -66432.09, 0.0, 10.000004, 9.901963 
1.8150002e+3, 2.742313e+2, -316724.53, -391374.7, -0.013668185, 0.0000012642821, -0.00020332292, -316724.53, -64191.566, 0.0, 10.000004, 9.902383 
1.8150002e+3, 2.841256e+2, -230251.31, -318081.2, 0.0037885732, 0.0000012629309, 0.0002291542, -230251.31, -74682.34, 0.0, 10.000004, 9.885437 
1.8150002e+3, 2.940121e+2, -130545.2, -217764.98, -0.012322735, 0.0000012631231, -0.00025325074, -130545.2, -71863.805, 0.0, 10.000004, 9.886215 
1.8150002e+3, 3.0392656e+2, -40801.234, -84750.16, 0.00732045, 0.000001260246, 0.00017320646, -40801.234, -40801.234, 0.0, 10.000004, 9.942171 
1.8150002e+3, 3.138706e+2, -39723.227, -82511.21, -0.0067734094, 0.0000012528008, -0.000055102977, -39723.227, -39723.227, 0.0, 10.000004, 9.943683 
1.825e+3, 1.2499338e+2, -1719940.9, -1724224.3, 0.01741197, 0.0000013923593, 0.000017956441, -1719940.9, -4875.947, 0.0, 10.000005, 9.994325 
1.825e+3, 1.3498762e+2, -1622560.5, -1627434.5, -0.003918923, 0.0000013735071, -0.0000680338, -1622560.5, -5439.2036, 0.0, 10.000005, 9.993543 
1.825e+3, 1.4497516e+2, -1534459.1, -1548145.9, 0.014265085, 0.0000013635507, 0.00007120394, -1534459.1, -15215.709, 0.0, 10.000005, 9.981862 
1.825e+3, 1.5495704e+2, -1436731.5, -1450821.6, -0.0066139987, 0.0000013622405, -0.000056673558, -1436731.5, -15310.576, 0.0, 10.000005, 9.981331 
1.825e+3, 1.649323e+2, -1348680.5, -1371952.0, 0.013711082, 0.0000013553206, 0.000047645935, -1348680.5, -25017.072, 0.0, 10.000005, 9.969246 
1.825e+3, 1.7490157e+2, -1250722.6, -1274309.9, -0.006578816, 0.0000013426732, -0.00007355476, -1250722.6, -24758.092, 0.0, 10.000005, 9.968832 
1.825e+3, 1.8486424e+2, -1162641.6, -1195719.8, 0.012545817, 0.0000013367631, 0.00006640045, -1162641.6, -34311.145, 0.0, 10.000005, 9.956393 
1.825e+3, 1.9482066e+2, -1064492.0, -1097832.6, -0.008109614, 0.0000013379023, -0.000057414043, -1064492.0, -33734.51, 0.0, 10.000004, 9.95605 
1.825e+3, 2.0477043e+2, -976328.0, -1019434.7, 0.011511082, 0.0000013316901, 0.00006830698, -976328.0, -43078.266, 0.0, 10.000004, 9.943289 
1.825e+3, 2.1471377e+2, -878041.06, -921409.6, -0.008549328, 0.0000013175151, -0.00012661255, -878041.06, -42235.89, 0.0, 10.000004, 9.942947 
1.825e+3, 2.246504e+2, -789754.94, -843144.6, 0.008025459, 0.0000013121185, 0.000121080266, -789754.94, -51328.79, 0.0, 10.000004, 9.929906 
1.825e+3, 2.3458037e+2, -691321.5, -744966.2, -0.010008593, 0.0000013166602, -0.0000886321, -691321.5, -50209.04, 0.0, 10.000004, 9.929575 
1.825e+3, 2.445034e+2, -602997.44, -667018.56, 0.010590792, 0.0000013142555, 0.00007487814, -602997.44, -59130.64, 0.0, 10.000004, 9.916134 
1.825e+3, 2.5441965e+2, -504244.8, -568343.1, -0.009771728, 0.0000013035418, -0.000106587184, -504244.8, -57557.332, 0.0, 10.000004, 9.916034 
1.825e+3, 2.643288e+2, -416009.44, -490987.72, 0.006034548, 0.000001297307, 0.00014072811, -416009.44, -66431.81, 0.0, 10.000004, 9.901962 
1.825e+3, 2.742313e+2, -316724.25, -391374.63, -0.010121506, 0.0000012967905, -0.00020332064, -316724.25, -64191.277, 0.0, 10.000004, 9.902383 
1.825e+3, 2.841256e+2, -230251.02, -318081.13, 0.008603838, 0.0000012964881, 0.00022915659, -230251.02, -74682.055, 0.0, 10.000004, 9.885437 
1.825e+3, 2.940121e+2, -130544.914, -217764.9, -0.008863071, 0.0000012964514, -0.00025324812, -130544.914, -71863.51, 0.0, 10.000004, 9.886215 
1.825e+3, 3.0392656e+2, -40800.95, -84750.08, 0.009346977, 0.0000012929663, 0.00017320858, -40800.95, -40800.95, 0.0, 10.000004, 9.942171 
1.825e+3, 3.138706e+2, -39722.953, -82511.14, -0.0075774477, 0.0000012843618, -0.000055102482, -39722.953, -39722.953, 0.0, 10.000004, 9.943682 
1.835e+3, 1.2499338e+2, -1719940.9, -1724224.4, 0.0073003867, 0.000001425393, 0.00001797025, -1719940.9, -4876.006, 0.0, 10.000005, 9.994325 
1.835e+3, 1.3498762e+2, -1622560.5, -1627434.6, -0.014032118, 0.0000014115075, -0.00006803742, -1622560.5, -5439.2617, 0.0, 10.000005, 9.993543 
1.835e+3, 1.4497516e+2, -1534459.1, -1548146.0, 0.0030789832, 0.0000014005739, 0.00007121489, -1534459.1, -15215.766, 0.0, 10.000005, 9.981862 
1.835e+3, 1.5495704e+2, -1436731.5, -1450821.6, -0.017801888, 0.0000013922966, -0.000056666046, -1436731.5, -15310.632, 0.0, 10.000005, 9.981331 
1.835e+3, 1.649323e+2, -1348680.6, -1371952.1, 0.0046194787, 0.000001385567, 0.000047650923, -1348680.6, -25017.125, 0.0, 10.000005, 9.969246 
1.835e+3, 1.7490157e+2, -1250722.6, -1274310.0, -0.015659489, 0.000001380418, -0.000073551346, -1250722.6, -24758.143, 0.0, 10.000005, 9.968832 
1.835e+3, 1.8486424e+2, -1162641.6, -1195719.9, 0.004943803, 0.0000013748723, 0.00006640518, -1162641.6, -34311.2, 0.0, 10.000005, 9.956393 
1.835e+3, 1.9482066e+2, -1064492.0, -1097832.8, -0.015694626, 0.0000013689105, -0.00005740496, -1064492.0, -33734.563, 0.0, 10.000004, 9.95605 
1.835e+3, 2.0477043e+2, -976328.06, -1019434.8, 0.002268326, 0.0000013620327, 0.0000683142, -976328.06, -43078.316, 0.0, 10.000004, 9.943289 
1.835e+3, 2.1471377e+2, -878041.06, -921409.7, -0.017826447, 0.0000013541622, -0.00012661394, -878041.06, -42235.938, 0.0, 10.000004, 9.942947 
1.835e+3, 2.246504e+2, -789755.0, -843144.7, 0.004297296, 0.0000013494858, 0.0001210758, -789755.0, -51328.836, 0.0, 10.000004, 9.929906 
1.835e+3, 2.3458037e+2, -691321.5, -744966.3, -0.013555399, 0.0000013484243, -0.00008863338, -691321.5, -50209.082, 0.0, 10.000004, 9.929575 
1.835e+3, 2.445034e+2, -602997.5, -667018.6, 0.0031406446, 0.0000013446016, 0.00007488005, -602997.5, -59130.69, 0.0, 10.000004, 9.916134 
1.835e+3, 2.5441965e+2, -504244.88, -568343.2, -0.017409515, 0.0000013374761, -0.00010658206, -504244.88, -57557.38, 0.0, 10.000004, 9.916034 
1.835e+3, 2.643288e+2, -416009.47, -490987.78, 0.002726417, 0.0000013329148, 0.00014073268, -416009.47, -66431.85, 0.0, 10.000004, 9.901962 
1.835e+3, 2.742313e+2, -316724.28, -391374.7, -0.013139561, 0.0000013316236, -0.00020332141, -316724.28, -64191.316, 0.0, 10.000004, 9.902383 
1.835e+3, 2.841256e+2, -230251.06, -318081.2, 0.005757859, 0.0000013295715, 0.00022915403, -230251.06, -74682.1, 0.0, 10.000004, 9.885437 
1.835e+3, 2.940121e+2, -130544.95, -217764.98, -0.011693689, 0.0000013264619, -0.00025324756, -130544.95, -71863.555, 0.0, 10.000004, 9.886215 
1.835e+3, 3.0392656e+2, -40800.992, -84750.164, 0.005824057, 0.0000013237187, 0.00017321383, -40800.992, -40800.992, 0.0, 10.000004, 9.942171 
1.835e+3, 3.138706e+2, -39722.992, -82511.23, -0.011181803, 0.000001321532, -0.00005509016, -39722.992, -39722.992, 0.0, 10.000004, 9.943682 
1.8450001e+3, 1.2499338e+2, -1719940.6, -1724224.3, 0.017302712, 0.0000014641882, 0.00001798248, -1719940.6, -4875.6606, 0.0, 10.000005, 9.994325 
1.8450001e+3, 1.3498762e+2, -1622560.1, -1627434.5, -0.0053804372, 0.0000014456157, -0.00006803713, -1622560.1, -5438.935, 0.0, 10.000005, 9.993543 
1.8450001e+3, 1.4497517e+2, -1534458.8, -1548145.9, 0.012634769, 0.0000014334607, 0.000071231094, -1534458.8, -15215.443, 0.0, 10.000005, 9.981862 
1.8450001e+3, 1.5495704e+2, -1436731.3, -1450821.6, -0.008642059, 0.0000014274398, -0.000056658864, -1436731.3, -15310.304, 0.0, 10.000005, 9.981331 
1.8450001e+3, 1.649323e+2, -1348680.3, -1371952.0, 0.013549163, 0.0000014217853, 0.000047654623, -1348680.3, -25016.797, 0.0, 10.000005, 9.969246 
1.8450001e+3, 1.7490157e+2, -1250722.3, -1274309.9, -0.00867403, 0.0000014165053, -0.00007354548, -1250722.3, -24757.82, 0.0, 10.000005, 9.968832 
1.8450001e+3, 1.8486424e+2, -1162641.4, -1195719.8, 0.012206695, 0.0000014098598, 0.00006641167, -1162641.4, -34310.88, 0.0, 10.000005, 9.956393 
1.8450001e+3, 1.9482066e+2, -1064491.6, -1097832.6, -0.008295798, 0.0000014017844, -0.000057399466, -1064491.6, -33734.25, 0.0, 10.000005, 9.95605 
1.8450001e+3, 2.0477043e+2, -976327.75, -1019434.7, 0.009807145, 0.0000013954573, 0.00006831939, -976327.75, -43078.0, 0.0, 10.000005, 9.943289 
1.8450001e+3, 2.1471377e+2, -878040.75, -921409.56, -0.010904362, 0.0000013910228, -0.00012660831, -878040.75, -42235.613, 0.0, 10.000005, 9.942947 
1.8450001e+3, 2.246504e+2, -789754.7, -843144.56, 0.011424703, 0.000001386239, 0.000121080724, -789754.7, -51328.516, 0.0, 10.000005, 9.929906 
1.8450001e+3, 2.3458037e+2, -691321.2, -744966.2, -0.009796995, 0.0000013810582, -0.00008863046, -691321.2, -50208.78, 0.0, 10.000005, 9.929574 
1.8450001e+3, 2.445034e+2, -602997.2, -667018.56, 0.006500984, 0.0000013763921, 0.00007488299, -602997.2, -59130.395, 0.0, 10.000005, 9.916134 
1.8450001e+3, 2.5441965e+2, -504244.56, -568343.1, -0.010423406, 0.0000013723406, -0.000106576685, -504244.56, -57557.07, 0.0, 10.000005, 9.916034 
1.8450001e+3, 2.643288e+2, -416009.16, -490987.7, 0.011577125, 0.0000013688423, 0.0001407381, -416009.16, -66431.54, 0.0, 10.000005, 9.901962 
1.8450001e+3, 2.742313e+2, -316723.97, -391374.6, -0.009115821, 0.000001366045, -0.00020331895, -316723.97, -64191.01, 0.0, 10.000005, 9.902383 
1.8450001e+3, 2.841256e+2, -230250.75, -318081.1, 0.007613507, 0.0000013629663, 0.0002291553, -230250.75, -74681.8, 0.0, 10.000005, 9.885437 
1.8450001e+3, 2.940121e+2, -130544.66, -217764.9, -0.009437796, 0.0000013594979, -0.0002532451, -130544.66, -71863.26, 0.0, 10.000005, 9.886215 
1.8450001e+3, 3.0392656e+2, -40800.7, -84750.08, 0.009850083, 0.0000013571282, 0.00017321682, -40800.7, -40800.7, 0.0, 10.000005, 9.942171 
1.8450001e+3, 3.138706e+2, -39722.69, -82511.14, -0.0046176603, 0.0000013563962, -0.000055087814, -39722.69, -39722.69, 0.0, 10.000005, 9.943682 
1.8550001e+3, 1.2499338e+2, -1719940.6, -1724224.4, 0.00316393, 0.0000015087446, 0.000017993136, -1719940.6, -4875.7236, 0.0, 10.000005, 9.994325 
1.8550001e+3, 1.3498762e+2, -1622560.3, -1627434.6, -0.019521832, 0.0000014758323, -0.0000680329, -1622560.3, -5438.997, 0.0, 10.000005, 9.993543 
1.8550001e+3, 1.4497517e+2, -1534458.9, -1548146.0, 0.0030358995, 0.0000014622115, 0.000071252536, -1534458.9, -15215.501, 0.0, 10.000005, 9.981862 
1.8550001e+3, 1.5495704e+2, -1436731.3, -1450821.6, -0.018233864, 0.0000014676698, -0.000056652007, -1436731.3, -15310.36, 0.0, 10.000005, 9.981331 
1.8550001e+3, 1.649323e+2, -1348680.3, -1371952.1, 0.0036416985, 0.0000014639751, 0.000047657035, -1348680.3, -25016.855, 0.0, 10.000005, 9.969246 
1.8550001e+3, 1.7490157e+2, -1250722.4, -1274309.9, -0.018583277, 0.0000014509351, -0.00007353715, -1250722.4, -24757.877, 0.0, 10.000005, 9.968832 
1.8550001e+3, 1.8486424e+2, -1162641.4, -1195719.9, 0.0031721701, 0.0000014417259, 0.00006641992, -1162641.4, -34310.93, 0.0, 10.000005, 9.956393 
1.8550001e+3, 1.9482067e+2, -1064491.8, -1097832.8, -0.017320339, 0.0000014365239, -0.000057397563, -1064491.8, -33734.305, 0.0, 10.000005, 9.95605 
1.8550001e+3, 2.0477043e+2, -976327.75, -1019434.8, 0.003112639, 0.0000014319635, 0.000068322544, -976327.75, -43078.05, 0.0, 10.000005, 9.943288 
1.8550001e+3, 2.1471377e+2, -878040.8, -921409.7, -0.01755089, 0.0000014280968, -0.00012659567, -878040.8, -42235.664, 0.0, 10.000005, 9.942947 
1.8550001e+3, 2.246504e+2, -789754.7, -843144.7, 0.0034528398, 0.0000014223779, 0.000121095036, -789754.7, -51328.566, 0.0, 10.000005, 9.929906 
1.8550001e+3, 2.3458037e+2, -691321.25, -744966.3, -0.017812325, 0.0000014145614, -0.00008862335, -691321.25, -50208.832, 0.0, 10.000005, 9.929574 
1.8550001e+3, 2.445034e+2, -602997.25, -667018.6, 0.0019827145, 0.0000014096269, 0.00007488695, -602997.25, -59130.434, 0.0, 10.000005, 9.916134 
1.8550001e+3, 2.5441965e+2, -504244.6, -568343.2, -0.014773851, 0.0000014081355, -0.000106571046, -504244.6, -57557.113, 0.0, 10.000005, 9.916034 
1.8550001e+3, 2.643288e+2, -416009.22, -490987.78, 0.006824484, 0.0000014050893, 0.00014074442, -416009.22, -66431.59, 0.0, 10.000005, 9.901962 
1.8550001e+3, 2.742313e+2, -316724.03, -391374.7, -0.013895522, 0.0000014000548, -0.00020331326, -316724.03, -64191.06, 0.0, 10.000005, 9.902383 
1.8550001e+3, 2.841256e+2, -230250.8, -318081.2, 0.003740551, 0.0000013966724, 0.00022916035, -230250.8, -74681.84, 0.0, 10.000005, 9.885436 
1.8550001e+3, 2.940121e+2, -130544.695, -217764.98, -0.013229252, 0.0000013955593, -0.00025324064, -130544.695, -71863.3, 0.0, 10.000005, 9.886215 
1.8550001e+3, 3.0392656e+2, -40800.734, -84750.16, 0.007989666, 0.0000013931949, 0.00017321754, -40800.734, -40800.734, 0.0, 10.000005, 9.942171 
1.8550001e+3, 3.138706e+2, -39722.73, -82511.21, -0.0062516904, 0.0000013889547, -0.000055095446, -39722.73, -39722.73, 0.0, 10.000005, 9.943682 
1.8650001e+3, 1.2499338e+2, -1719940.3, -1724224.3, 0.020309446, 0.000001543584, 0.00001800657, -1719940.3, -4875.3745, 0.0, 10.000005, 9.994325 
1.8650001e+3, 1.3498762e+2, -1622559.9, -1627434.5, -0.004172457, 0.0000015145732, -0.00006803137, -1622559.9, -5438.6455, 0.0, 10.000005, 9.993543 
1.8650001e+3, 1.4497517e+2, -1534458.5, -1548145.9, 0.019461071, 0.0000015017348, 0.000071271446, -1534458.5, -15215.149, 0.0, 10.000005, 9.981862 
1.8650001e+3, 1.5495706e+2, -1436730.9, -1450821.5, -0.0048711416, 0.0000015048288, -0.000056644592, -1436730.9, -15310.016, 0.0, 10.000005, 9.981331 
1.8650001e+3, 1.649323e+2, -1348680.0, -1371952.0, 0.01536146, 0.0000015002215, 0.000047660902, -1348680.0, -25016.514, 0.0, 10.000005, 9.969246 
1.8650001e+3, 1.7490157e+2, -1250722.0, -1274309.8, -0.007442412, 0.0000014877511, -0.00007352872, -1250722.0, -24757.54, 0.0, 10.000005, 9.968832 
1.8650001e+3, 1.8486424e+2, -1162641.0, -1195719.8, 0.014001502, 0.0000014784705, 0.00006642912, -1162641.0, -34310.594, 0.0, 10.000005, 9.956393 
1.8650001e+3, 1.9482067e+2, -1064491.4, -1097832.6, -0.008435458, 0.0000014725266, -0.000057391568, -1064491.4, -33733.97, 0.0, 10.000005, 9.95605 
1.8650001e+3, 2.0477043e+2, -976327.44, -1019434.7, 0.012440934, 0.0000014678918, 0.000068327245, -976327.44, -43077.723, 0.0, 10.000005, 9.943288 
1.8650001e+3, 2.1471377e+2, -878040.44, -921409.56, -0.009313764, 0.0000014646739, -0.00012659017, -878040.44, -42235.34, 0.0, 10.000005, 9.942947 
1.8650001e+3, 2.246504e+2, -789754.4, -843144.56, 0.011505434, 0.0000014589399, 0.00012110112, -789754.4, -51328.242, 0.0, 10.000005, 9.929906 
1.8650001e+3, 2.3458037e+2, -691320.94, -744966.2, -0.00844363, 0.0000014503569, -0.0000886169, -691320.94, -50208.504, 0.0, 10.000005, 9.929574 
1.8650001e+3, 2.445034e+2, -602996.9, -667018.5, 0.011558336, 0.000001445126, 0.00007489219, -602996.9, -59130.105, 0.0, 10.000005, 9.916134 
1.8650001e+3, 2.5441965e+2, -504244.28, -568343.06, -0.01127954, 0.000001443901, -0.000106568914, -504244.28, -57556.793, 0.0, 10.000005, 9.916034 
1.8650001e+3, 2.6432884e+2, -416008.9, -490987.7, 0.008417262, 0.0000014409799, 0.0001407458, -416008.9, -66431.27, 0.0, 10.000005, 9.901962 
1.8650001e+3, 2.742313e+2, -316723.72, -391374.6, -0.0092814565, 0.0000014358892, -0.00020330962, -316723.72, -64190.746, 0.0, 10.000005, 9.902383 
1.8650001e+3, 2.841256e+2, -230250.48, -318081.1, 0.01059713, 0.0000014324066, 0.00022916468, -230250.48, -74681.52, 0.0, 10.000005, 9.885436 
1.8650001e+3, 2.940121e+2, -130544.375, -217764.89, -0.008123487, 0.0000014311339, -0.00025323775, -130544.375, -71862.98, 0.0, 10.000005, 9.886215 
1.8650001e+3, 3.0392656e+2, -40800.418, -84750.07, 0.01049972, 0.0000014287366, 0.00017321865, -40800.418, -40800.418, 0.0, 10.000005, 9.94217 
1.8650001e+3, 3.138706e+2, -39722.418, -82511.125, -0.010187419, 0.0000014246517, -0.00005509648, -39722.418, -39722.418, 0.0, 10.000005, 9.943682 
1.8750001e+3, 1.2499338e+2, -1719940.4, -1724224.3, 0.0070860363, 0.0000015687068, 0.000018022785, -1719940.4, -4875.4424, 0.0, 10.000005, 9.994325 
1.8750001e+3, 1.3498762e+2, -1622559.9, -1627434.6, -0.017398281, 0.000001561838, -0.00006803252, -1622559.9, -5438.712, 0.0, 10.000005, 9.993543 
1.8750001e+3, 1.4497517e+2, -1534458.5, -1548145.9, 0.008577522, 0.0000015520301, 0.00007128781, -1534458.5, -15215.215, 0.0, 10.000005, 9.981862 
1.8750001e+3, 1.5495706e+2, -1436730.9, -1450821.6, -0.015751077, 0.0000015389172, -0.000056636625, -1436730.9, -15310.08, 0.0, 10.000005, 9.981331 
1.8750001e+3, 1.649323e+2, -1348680.0, -1371952.0, 0.005082036, 0.0000015305251, 0.00004766622, -1348680.0, -25016.574, 0.0, 10.000005, 9.969246 
1.8750001e+3, 1.7490157e+2, -1250722.0, -1274309.9, -0.01771878, 0.0000015269532, -0.000073520176, -1250722.0, -24757.598, 0.0, 10.000005, 9.968832 
1.8750001e+3, 1.8486424e+2, -1162641.1, -1195719.9, 0.0046286373, 0.0000015200935, 0.00006643927, -1162641.1, -34310.652, 0.0, 10.000005, 9.956393 
1.8750001e+3, 1.9482067e+2, -1064491.4, -1097832.8, -0.017798008, 0.0000015097924, -0.000057381487, -1064491.4, -33734.023, 0.0, 10.000005, 9.95605 
1.8750001e+3, 2.0477043e+2, -976327.5, -1019434.75, 0.0046689827, 0.0000015032422, 0.00006833349, -976327.5, -43077.777, 0.0, 10.000005, 9.943288 
1.8750001e+3, 2.1471377e+2, -878040.5, -921409.7, -0.017053014, 0.0000015007541, -0.00012659184, -878040.5, -42235.395, 0.0, 10.000005, 9.942947 
1.8750001e+3, 2.246504e+2, -789754.44, -843144.7, 0.0046058386, 0.0000014959252, 0.000121098965, -789754.44, -51328.29, 0.0, 10.000005, 9.929906 
1.8750001e+3, 2.3458037e+2, -691320.94, -744966.25, -0.015315947, 0.0000014884441, -0.00008861111, -691320.94, -50208.555, 0.0, 10.000005, 9.929574 
1.8750001e+3, 2.445034e+2, -602996.94, -667018.6, 0.0057073957, 0.0000014828894, 0.000074898715, -602996.94, -59130.16, 0.0, 10.000005, 9.916134 
1.8750001e+3, 2.5441965e+2, -504244.3, -568343.2, -0.017081492, 0.0000014796374, -0.00010657027, -504244.3, -57556.844, 0.0, 10.000005, 9.916034 
1.8750001e+3, 2.6432884e+2, -416008.94, -490987.78, 0.0034801948, 0.0000014765143, 0.00014074228, -416008.94, -66431.32, 0.0, 10.000005, 9.901962 
1.8750001e+3, 2.742313e+2, -316723.75, -391374.7, -0.014160774, 0.0000014735483, -0.00020330802, -316723.75, -64190.79, 0.0, 10.000005, 9.902383 
1.8750001e+3, 2.841256e+2, -230250.52, -318081.2, 0.007296194, 0.0000014701691, 0.00022916828, -230250.52, -74681.57, 0.0, 10.000005, 9.885436 
1.8750001e+3, 2.940121e+2, -130544.42, -217764.98, -0.011282411, 0.000001466222, -0.0002532365, -130544.42, -71863.02, 0.0, 10.000005, 9.886215 
1.8750001e+3, 3.0392656e+2, -40800.47, -84750.17, 0.007940792, 0.0000014637533, 0.00017322015, -40800.47, -40800.47, 0.0, 10.000005, 9.94217 
1.8750001e+3, 3.138706e+2, -39722.465, -82511.23, -0.012676054, 0.0000014634871, -0.00005509092, -39722.465, -39722.465, 0.0, 10.000005, 9.943682 
1.8850003e+3, 1.2499338e+2, -1719940.0, -1724224.1, 0.017090954, 0.0000016054242, 0.000018035063, -1719940.0, -4875.084, 0.0, 10.000005, 9.994325 
1.8850003e+3, 1.3498762e+2, -1622559.5, -1627434.5, -0.00755662, 0.0000016026935, -0.00006803743, -1622559.5, -5438.3374, 0.0, 10.000005, 9.993543 
1.8850003e+3, 1.4497517e+2, -1534458.1, -1548145.8, 0.01715202, 0.000001593466, 0.000071302704, -1534458.1, -15214.84, 0.0, 10.000005, 9.981862 
1.8850002e+3, 1.5495706e+2, -1436730.6, -1450821.5, -0.007128701, 0.0000015773458, -0.000056628414, -1436730.6, -15309.719, 0.0, 10.000005, 9.981331 
1.8850002e+3, 1.649323e+2, -1348679.6, -1371951.9, 0.01568141, 0.0000015677368, 0.000047671616, -1348679.6, -25016.217, 0.0, 10.000005, 9.969246 
1.8850002e+3, 1.7490157e+2, -1250721.6, -1274309.8, -0.007915652, 0.0000015647763, -0.00007351364, -1250721.6, -24757.242, 0.0, 10.000005, 9.968832 
1.8850002e+3, 1.8486424e+2, -1162640.8, -1195719.8, 0.014027159, 0.0000015586297, 0.00006644626, -1162640.8, -34310.297, 0.0, 10.000005, 9.956393 
1.8850002e+3, 1.9482067e+2, -1064491.0, -1097832.6, -0.009777389, 0.0000015491479, -0.000057374786, -1064491.0, -33733.67, 0.0, 10.000005, 9.95605 
1.8850002e+3, 2.0477043e+2, -976327.1, -1019434.7, 0.012923692, 0.000001542149, 0.00006833943, -976327.1, -43077.426, 0.0, 10.000005, 9.943288 
1.8850002e+3, 2.1471377e+2, -878040.2, -921409.56, -0.010129045, 0.0000015378387, -0.00012658717, -878040.2, -42235.047, 0.0, 10.000005, 9.942947 
1.8850002e+3, 2.246504e+2, -789754.06, -843144.56, 0.010018274, 0.0000015326168, 0.000121102836, -789754.06, -51327.945, 0.0, 10.000005, 9.929905 
1.8850002e+3, 2.3458037e+2, -691320.6, -744966.2, -0.012872101, 0.0000015263612, -0.00008860753, -691320.6, -50208.21, 0.0, 10.000005, 9.929574 
1.8850002e+3, 2.445034e+2, -602996.6, -667018.5, 0.009540322, 0.0000015212349, 0.00007490249, -602996.6, -59129.824, 0.0, 10.000005, 9.916134 
1.8850002e+3, 2.5441965e+2, -504243.97, -568343.06, -0.010017581, 0.0000015174578, -0.0001065657, -504243.97, -57556.508, 0.0, 10.000005, 9.916034 
1.8850002e+3, 2.6432884e+2, -416008.6, -490987.66, 0.011084217, 0.0000015139121, 0.00014074659, -416008.6, -66430.984, 0.0, 10.000005, 9.901962 
1.8850002e+3, 2.742313e+2, -316723.4, -391374.6, -0.011016059, 0.0000015106565, -0.00020330532, -316723.4, -64190.453, 0.0, 10.000005, 9.902383 
1.8850002e+3, 2.841256e+2, -230250.19, -318081.1, 0.008473917, 0.0000015071478, 0.00022916989, -230250.19, -74681.234, 0.0, 10.000005, 9.885436 
1.8850002e+3, 2.940121e+2, -130544.086, -217764.89, -0.011418324, 0.0000015032902, -0.00025323525, -130544.086, -71862.695, 0.0, 10.000005, 9.886215 
1.8850002e+3, 3.0392656e+2, -40800.14, -84750.08, 0.010422169, 0.0000015009621, 0.00017322192, -40800.14, -40800.14, 0.0, 10.000005, 9.94217 
1.8850002e+3, 3.138706e+2, -39722.137, -82511.13, -0.004958409, 0.0000015009109, -0.000055087236, -39722.137, -39722.137, 0.0, 10.000005, 9.943682 
1.8950002e+3, 1.24993384e+2, -1719940.0, -1724224.3, 0.007886943, 0.0000016537355, 0.000018043409, -1719940.0, -4875.153, 0.0, 10.000005, 9.994325 
1.8950002e+3, 1.3498764e+2, -1622559.6, -1627434.5, -0.016762223, 0.0000016371404, -0.0000680461, -1622559.6, -5438.405, 0.0, 10.000005, 9.993543 
1.8950002e+3, 1.4497517e+2, -1534458.3, -1548145.9, 0.0030896023, 0.0000016260432, 0.00007131613, -1534458.3, -15214.905, 0.0, 10.000005, 9.981862 
1.8950002e+3, 1.5495706e+2, -1436730.6, -1450821.6, -0.021198882, 0.0000016201142, -0.00005661996, -1436730.6, -15309.783, 0.0, 10.000005, 9.981331 
1.8950002e+3, 1.6493231e+2, -1348679.6, -1371952.0, 0.0056154192, 0.0000016118563, 0.00004767709, -1348679.6, -25016.28, 0.0, 10.000005, 9.969246 
1.8950002e+3, 1.7490159e+2, -1250721.8, -1274309.9, -0.017960671, 0.0000016012208, -0.0000735091, -1250721.8, -24757.303, 0.0, 10.000005, 9.968832 
1.8950002e+3, 1.8486424e+2, -1162640.8, -1195719.8, 0.004354963, 0.0000015940794, 0.00006645008, -1162640.8, -34310.36, 0.0, 10.000005, 9.956393 
1.8950002e+3, 1.9482067e+2, -1064491.1, -1097832.8, -0.0194454, 0.0000015905932, -0.000057371464, -1064491.1, -33733.73, 0.0, 10.000005, 9.95605 
1.8950002e+3, 2.0477043e+2, -976327.2, -1019434.75, 0.004798268, 0.0000015846119, 0.00006834508, -976327.2, -43077.484, 0.0, 10.000005, 9.943288 
1.8950002e+3, 2.1471377e+2, -878040.2, -921409.6, -0.018222753, 0.0000015759275, -0.00012657614, -878040.2, -42235.1, 0.0, 10.000005, 9.942947 
1.8950002e+3, 2.246504e+2, -789754.1, -843144.6, 0.0022391302, 0.0000015690149, 0.00012111272, -789754.1, -51328.0, 0.0, 10.000005, 9.929905 
1.8950002e+3, 2.3458037e+2, -691320.7, -744966.25, -0.020641105, 0.0000015641078, -0.000088606175, -691320.7, -50208.266, 0.0, 10.000005, 9.929574 
1.8950002e+3, 2.445034e+2, -602996.6, -667018.6, 0.0038612073, 0.0000015601623, 0.000074903524, -602996.6, -59129.87, 0.0, 10.000005, 9.916134 
1.8950002e+3, 2.5441965e+2, -504244.03, -568343.2, -0.015596503, 0.0000015573621, -0.000106555184, -504244.03, -57556.555, 0.0, 10.000005, 9.916034 
1.8950002e+3, 2.6432884e+2, -416008.66, -490987.75, 0.0060618366, 0.0000015531734, 0.00014075876, -416008.66, -66431.03, 0.0, 10.000005, 9.901962 
1.8950002e+3, 2.742313e+2, -316723.47, -391374.7, -0.016001273, 0.0000015472137, -0.0002033015, -316723.47, -64190.504, 0.0, 10.000005, 9.902383 
1.8950002e+3, 2.841256e+2, -230250.23, -318081.2, 0.0043641506, 0.0000015433429, 0.00022916953, -230250.23, -74681.28, 0.0, 10.000005, 9.885436 
1.8950002e+3, 2.940121e+2, -130544.13, -217764.98, -0.0154494345, 0.000001542338, -0.00025323403, -130544.13, -71862.74, 0.0, 10.000005, 9.886215 
1.8950002e+3, 3.0392656e+2, -40800.18, -84750.16, 0.008691485, 0.0000015403629, 0.000173224, -40800.18, -40800.18, 0.0, 10.000005, 9.94217 
1.8950002e+3, 3.138706e+2, -39722.176, -82511.22, -0.006419382, 0.0000015369233, -0.000055085424, -39722.176, -39722.176, 0.0, 10.000005, 9.943682 
1.9050002e+3, 1.24993384e+2, -1719939.6, -1724224.1, 0.021554772, 0.0000016998583, 0.000018057657, -1719939.6, -4874.7476, 0.0, 10.000006, 9.994325 
1.9050002e+3, 1.3498764e+2, -1622559.3, -1627434.4, -0.0047777295, 0.000001675408, -0.000068049085, -1622559.3, -5438.031, 0.0, 10.000006, 9.993542 
1.9050002e+3, 1.4497517e+2, -1534457.9, -1548145.8, 0.014704952, 0.0000016625917, 0.000071334456, -1534457.9, -15214.537, 0.0, 10.000006, 9.981862 
1.9050002e+3, 1.5495706e+2, -1436730.3, -1450821.5, -0.009559455, 0.0000016611087, -0.000056610705, -1436730.3, -15309.4, 0.0, 10.000006, 9.98133 
1.9050002e+3, 1.6493231e+2, -1348679.3, -1371951.9, 0.017298376, 0.0000016540306, 0.000047682464, -1348679.3, -25015.896, 0.0, 10.000006, 9.969246 
1.9050002e+3, 1.7490159e+2, -1250721.4, -1274309.8, -0.008502051, 0.0000016412397, -0.00007350231, -1250721.4, -24756.93, 0.0, 10.000006, 9.968832 
1.9050002e+3, 1.8486424e+2, -1162640.4, -1195719.6, 0.014233068, 0.0000016335528, 0.00006645706, -1162640.4, -34309.99, 0.0, 10.000006, 9.956392 
1.9050002e+3, 1.9482067e+2, -1064490.8, -1097832.6, -0.010228394, 0.0000016312056, -0.000057365567, -1064490.8, -33733.36, 0.0, 10.000006, 9.95605 
1.9050002e+3, 2.0477045e+2, -976326.8, -1019434.6, 0.013920676, 0.000001624866, 0.00006835108, -976326.8, -43077.113, 0.0, 10.000006, 9.943288 
1.9050002e+3, 2.1471377e+2, -878039.8, -921409.56, -0.009162559, 0.0000016142013, -0.00012656876, -878039.8, -42234.742, 0.0, 10.000006, 9.942947 
1.9050002e+3, 2.246504e+2, -789753.75, -843144.56, 0.01308816, 0.0000016073817, 0.00012111992, -789753.75, -51327.645, 0.0, 10.000005, 9.929905 
1.9050002e+3, 2.3458037e+2, -691320.3, -744966.1, -0.010111489, 0.0000016049149, -0.00008860092, -691320.3, -50207.906, 0.0, 10.000005, 9.929574 
1.9050002e+3, 2.445034e+2, -602996.25, -667018.5, 0.012909302, 0.0000016011559, 0.00007490778, -602996.25, -59129.508, 0.0, 10.000005, 9.916134 
1.9050002e+3, 2.5441965e+2, -504243.66, -568343.06, -0.01083467, 0.0000015958473, -0.00010655078, -504243.66, -57556.2, 0.0, 10.000005, 9.916034 
1.9050002e+3, 2.6432884e+2, -416008.28, -490987.66, 0.010407594, 0.0000015907924, 0.00014076292, -416008.28, -66430.68, 0.0, 10.000005, 9.901962 
1.9050002e+3, 2.742313e+2, -316723.1, -391374.56, -0.010134867, 0.0000015860626, -0.00020329807, -316723.1, -64190.152, 0.0, 10.000005, 9.902382 
1.9050002e+3, 2.841256e+2, -230249.88, -318081.1, 0.011732361, 0.0000015830728, 0.0002291729, -230249.88, -74680.93, 0.0, 10.000005, 9.885436 
1.9050002e+3, 2.940121e+2, -130543.78, -217764.88, -0.009301729, 0.0000015824619, -0.00025322984, -130543.78, -71862.39, 0.0, 10.000005, 9.886214 
1.9050002e+3, 3.0392656e+2, -40799.832, -84750.06, 0.0120432535, 0.0000015799429, 0.00017322677, -40799.832, -40799.832, 0.0, 10.000005, 9.94217 
1.9050002e+3, 3.138706e+2, -39721.84, -82511.125, -0.0091769, 0.0000015745718, -0.000055087497, -39721.84, -39721.84, 0.0, 10.000005, 9.943682 
1.9150002e+3, 1.24993384e+2, -1719939.6, -1724224.3, 0.0054274495, 0.0000017437933, 0.000018077808, -1719939.6, -4874.821, 0.0, 10.000006, 9.994325 
1.9150002e+3, 1.3498764e+2, -1622559.3, -1627434.5, -0.020908216, 0.0000017174965, -0.00006804636, -1622559.3, -5438.103, 0.0, 10.000006, 9.993542 
1.9150002e+3, 1.4497517e+2, -1534457.9, -1548145.9, 0.004250631, 0.0000017031109, 0.00007135769, -1534457.9, -15214.604, 0.0, 10.000006, 9.981862 
1.9150002e+3, 1.5495706e+2, -1436730.3, -1450821.6, -0.020004952, 0.0000017003297, -0.000056600642, -1436730.3, -15309.466, 0.0, 10.000006, 9.98133 
1.9150002e+3, 1.6493231e+2, -1348679.4, -1371952.0, 0.0050071, 0.0000016942598, 0.000047687736, -1348679.4, -25015.965, 0.0, 10.000006, 9.969246 
1.9150002e+3, 1.7490159e+2, -1250721.4, -1274309.9, -0.020803189, 0.0000016848328, -0.00007349326, -1250721.4, -24756.996, 0.0, 10.000006, 9.968832 
1.9150002e+3, 1.8486424e+2, -1162640.5, -1195719.8, 0.00525099, 0.0000016770496, 0.00006646722, -1162640.5, -34310.05, 0.0, 10.000006, 9.956392 
1.9150002e+3, 1.9482067e+2, -1064490.8, -1097832.8, -0.019172195, 0.0000016709852, -0.00005735709, -1064490.8, -33733.42, 0.0, 10.000006, 9.95605 
1.9150002e+3, 2.0477045e+2, -976326.9, -1019434.75, 0.003928372, 0.0000016629111, 0.000068357425, -976326.9, -43077.17, 0.0, 10.000006, 9.943288 
1.9150002e+3, 2.1471377e+2, -878039.9, -921409.6, -0.019176729, 0.0000016526599, -0.00012656502, -878039.9, -42234.8, 0.0, 10.000006, 9.942947 
1.9150002e+3, 2.246504e+2, -789753.8, -843144.6, 0.0066752667, 0.0000016477169, 0.00012112444, -789753.8, -51327.7, 0.0, 10.000005, 9.929905 
1.9150002e+3, 2.3458037e+2, -691320.4, -744966.25, -0.016406743, 0.0000016487822, -0.000088591776, -691320.4, -50207.96, 0.0, 10.000005, 9.929574 
1.9150002e+3, 2.445034e+2, -602996.3, -667018.6, 0.005820564, 0.0000016442152, 0.00007491526, -602996.3, -59129.566, 0.0, 10.000005, 9.916134 
1.9150002e+3, 2.5441965e+2, -504243.72, -568343.2, -0.017961705, 0.0000016329133, -0.00010655249, -504243.72, -57556.254, 0.0, 10.000005, 9.916034 
1.9150002e+3, 2.6432884e+2, -416008.34, -490987.75, 0.0054224813, 0.000001626769, 0.00014075909, -416008.34, -66430.734, 0.0, 10.000005, 9.901962 
1.9150002e+3, 2.742313e+2, -316723.16, -391374.66, -0.014976623, 0.0000016272029, -0.000203295, -316723.16, -64190.203, 0.0, 10.000005, 9.902382 
1.9150002e+3, 2.841256e+2, -230249.92, -318081.2, 0.008391932, 0.0000016263373, 0.00022918, -230249.92, -74680.984, 0.0, 10.000005, 9.885436 
1.9150002e+3, 2.940121e+2, -130543.83, -217764.97, -0.012507091, 0.0000016236615, -0.00025322262, -130543.83, -71862.44, 0.0, 10.000005, 9.886214 
1.9150002e+3, 3.0392656e+2, -40799.883, -84750.164, 0.0077177747, 0.0000016197022, 0.00017323025, -40799.883, -40799.883, 0.0, 10.000005, 9.94217 
1.9150002e+3, 3.138706e+2, -39721.89, -82511.23, -0.013634117, 0.0000016138565, -0.000055093453, -39721.89, -39721.89, 0.0, 10.000005, 9.943682 
1.9250003e+3, 1.24993384e+2, -1719939.3, -1724224.1, 0.022667874, 0.0000017860648, 0.000018091863, -1719939.3, -4874.4175, 0.0, 10.000006, 9.994325 
1.9250003e+3, 1.3498764e+2, -1622558.9, -1627434.4, -0.0058727707, 0.000001760867, -0.000068046, -1622558.9, -5437.6924, 0.0, 10.000006, 9.993542 
1.9250003e+3, 1.4497517e+2, -1534457.5, -1548145.8, 0.019850552, 0.0000017463474, 0.00007138064, -1534457.5, -15214.193, 0.0, 10.000006, 9.981862 
1.9250003e+3, 1.5495706e+2, -1436729.9, -1450821.5, -0.007219561, 0.0000017421835, -0.000056593286, -1436729.9, -15309.071, 0.0, 10.000006, 9.98133 
1.9250003e+3, 1.6493231e+2, -1348679.0, -1371951.9, 0.016988037, 0.0000017361023, 0.000047690282, -1348679.0, -25015.574, 0.0, 10.000006, 9.969246 
1.9250003e+3, 1.7490159e+2, -1250721.0, -1274309.8, -0.009384619, 0.0000017280638, -0.00007348452, -1250721.0, -24756.6, 0.0, 10.000006, 9.968832 
1.9250003e+3, 1.8486424e+2, -1162640.1, -1195719.6, 0.016968815, 0.0000017196926, 0.00006647778, -1162640.1, -34309.656, 0.0, 10.000006, 9.956392 
1.9250003e+3, 1.9482067e+2, -1064490.4, -1097832.6, -0.008394611, 0.0000017109719, -0.000057349294, -1064490.4, -33733.04, 0.0, 10.000006, 9.95605 
1.9250003e+3, 2.0477045e+2, -976326.44, -1019434.6, 0.013643608, 0.0000017030391, 0.00006836335, -976326.44, -43076.793, 0.0, 10.000006, 9.943288 
1.9250003e+3, 2.1471377e+2, -878039.5, -921409.5, -0.0129582705, 0.0000016959586, -0.00012656001, -878039.5, -42234.414, 0.0, 10.000006, 9.942946 
1.9250003e+3, 2.246504e+2, -789753.44, -843144.5, 0.012568533, 0.0000016912014, 0.00012112885, -789753.44, -51327.316, 0.0, 10.000006, 9.929905 
1.9250003e+3, 2.3458037e+2, -691320.0, -744966.1, -0.011371988, 0.0000016890724, -0.00008858761, -691320.0, -50207.586, 0.0, 10.000006, 9.929574 
1.9250003e+3, 2.445034e+2, -602995.94, -667018.5, 0.010786636, 0.0000016835206, 0.000074919466, -602995.94, -59129.195, 0.0, 10.000006, 9.916134 
1.9250003e+3, 2.5441965e+2, -504243.34, -568343.06, -0.012698062, 0.0000016738768, -0.000106547915, -504243.34, -57555.883, 0.0, 10.000006, 9.916034 
1.9250003e+3, 2.6432884e+2, -416007.97, -490987.63, 0.011283842, 0.0000016686407, 0.00014076322, -416007.97, -66430.36, 0.0, 10.000006, 9.901962 
1.9250003e+3, 2.742313e+2, -316722.78, -391374.56, -0.012068047, 0.0000016690224, -0.00020329234, -316722.78, -64189.832, 0.0, 10.000006, 9.902382 
1.9250003e+3, 2.841256e+2, -230249.56, -318081.06, 0.010746286, 0.0000016675682, 0.00022918163, -230249.56, -74680.62, 0.0, 10.000006, 9.885436 
1.9250003e+3, 2.940121e+2, -130543.46, -217764.88, -0.009769004, 0.0000016635742, -0.0002532215, -130543.46, -71862.08, 0.0, 10.000006, 9.886214 
1.9250003e+3, 3.0392656e+2, -40799.523, -84750.07, 0.0118642375, 0.0000016595616, 0.00017323197, -40799.523, -40799.523, 0.0, 10.000006, 9.94217 
1.9250003e+3, 3.138706e+2, -39721.516, -82511.125, -0.008558071, 0.0000016555477, -0.000055089593, -39721.516, -39721.516, 0.0, 10.000006, 9.943682 
1.9350003e+3, 1.24993384e+2, -1719939.3, -1724224.3, 0.008490007, 0.0000018266733, 0.000018099827, -1719939.3, -4874.4966, 0.0, 10.000006, 9.994325 
1.9350003e+3, 1.3498764e+2, -1622558.9, -1627434.5, -0.020053426, 0.0000018055197, -0.00006804799, -1622558.9, -5437.7705, 0.0, 10.000006, 9.993542 
1.9350003e+3, 1.4497517e+2, -1534457.5, -1548145.9, 0.006013676, 0.0000017923008, 0.00007140329, -1534457.5, -15214.267, 0.0, 10.000006, 9.981862 
1.9350003e+3, 1.5495706e+2, -1436729.9, -1450821.6, -0.021056047, 0.0000017866703, -0.000056588637, -1436729.9, -15309.144, 0.0, 10.000006, 9.98133 
1.9350003e+3, 1.6493231e+2, -1348679.0, -1371952.0, 0.006688272, 0.0000017795578, 0.0000476901, -1348679.0, -25015.645, 0.0, 10.000006, 9.969246 
1.9350003e+3, 1.7490159e+2, -1250721.0, -1274309.9, -0.01966587, 0.0000017709328, -0.000073476076, -1250721.0, -24756.668, 0.0, 10.000006, 9.968832 
1.9350003e+3, 1.8486424e+2, -1162640.1, -1195719.8, 0.0053680856, 0.0000017614822, 0.00006648875, -1162640.1, -34309.72, 0.0, 10.000006, 9.956392 
1.9350003e+3, 1.9482067e+2, -1064490.5, -1097832.6, -0.020010801, 0.0000017511659, -0.000057342182, -1064490.5, -33733.1, 0.0, 10.000006, 9.95605 
1.9350003e+3, 2.0477045e+2, -976326.5, -1019434.75, 0.005216133, 0.0000017452495, 0.000068368834, -976326.5, -43076.86, 0.0, 10.000006, 9.943288 
1.9350003e+3, 2.1471377e+2, -878039.56, -921409.6, -0.021320015, 0.0000017440973, -0.00012655374, -878039.56, -42234.48, 0.0, 10.000006, 9.942946 
1.9350003e+3, 2.246504e+2, -789753.5, -843144.6, 0.004487833, 0.000001737835, 0.00012113315, -789753.5, -51327.375, 0.0, 10.000006, 9.929905 
1.9350003e+3, 2.3458037e+2, -691320.0, -744966.25, -0.019443724, 0.0000017257858, -0.0000885884, -691320.0, -50207.64, 0.0, 10.000006, 9.929574 
1.9350003e+3, 2.445034e+2, -602996.0, -667018.56, 0.004051158, 0.0000017190724, 0.00007492041, -602996.0, -59129.25, 0.0, 10.000006, 9.916133 
1.9350003e+3, 2.5441965e+2, -504243.38, -568343.1, -0.01936951, 0.0000017187376, -0.00010653705, -504243.38, -57555.938, 0.0, 10.000006, 9.916034 
1.9350003e+3, 2.6432884e+2, -416008.0, -490987.75, 0.005977061, 0.0000017164074, 0.00014077533, -416008.0, -66430.414, 0.0, 10.000006, 9.901962 
1.9350003e+3, 2.742313e+2, -316722.84, -391374.66, -0.017283574, 0.0000017115212, -0.00020329005, -316722.84, -64189.887, 0.0, 10.000006, 9.902382 
1.9350003e+3, 2.841256e+2, -230249.61, -318081.16, 0.0061897053, 0.0000017067658, 0.00022917776, -230249.61, -74680.664, 0.0, 10.000006, 9.885436 
1.9350003e+3, 2.9401213e+2, -130543.516, -217764.97, -0.014266503, 0.0000017021999, -0.0002532264, -130543.516, -71862.125, 0.0, 10.000006, 9.886214 
1.9350003e+3, 3.0392656e+2, -40799.57, -84750.17, 0.010438937, 0.0000016995211, 0.00017323194, -40799.57, -40799.57, 0.0, 10.000006, 9.94217 
1.9350003e+3, 3.138706e+2, -39721.566, -82511.23, -0.009622989, 0.0000016996453, -0.000055075914, -39721.566, -39721.566, 0.0, 10.000006, 9.943682 
1.9450003e+3, 1.24993384e+2, -1719938.9, -1724224.1, 0.021142278, 0.0000018702972, 0.000018116332, -1719938.9, -4874.0693, 0.0, 10.000006, 9.994324 
1.9450003e+3, 1.3498764e+2, -1622558.5, -1627434.4, -0.0062386887, 0.0000018507022, -0.00006805294, -1622558.5, -5437.347, 0.0, 10.000006, 9.993542 
1.9450003e+3, 1.4497517e+2, -1534457.1, -1548145.8, 0.020431865, 0.000001838036, 0.0000714228, -1534457.1, -15213.845, 0.0, 10.000006, 9.981862 
1.9450003e+3, 1.5495706e+2, -1436729.5, -1450821.4, -0.008942167, 0.0000018319383, -0.000056578716, -1436729.5, -15308.719, 0.0, 10.000006, 9.98133 
1.9450003e+3, 1.6493231e+2, -1348678.6, -1371951.9, 0.018793821, 0.0000018239697, 0.00004769592, -1348678.6, -25015.223, 0.0, 10.000006, 9.969245 
1.9450003e+3, 1.7490159e+2, -1250720.6, -1274309.8, -0.008573452, 0.0000018140912, -0.00007346874, -1250720.6, -24756.26, 0.0, 10.000006, 9.968832 
1.9450003e+3, 1.8486424e+2, -1162639.8, -1195719.6, 0.015707886, 0.0000018044798, 0.00006649655, -1162639.8, -34309.316, 0.0, 10.000006, 9.956392 
1.9450003e+3, 1.9482067e+2, -1064490.0, -1097832.5, -0.011842645, 0.0000017951463, -0.000057335037, -1064490.0, -33732.695, 0.0, 10.000006, 9.956049 
1.9450003e+3, 2.0477045e+2, -976326.1, -1019434.56, 0.015097105, 0.0000017896681, 0.00006837533, -976326.1, -43076.45, 0.0, 10.000006, 9.943288 
1.9450003e+3, 2.1471377e+2, -878039.1, -921409.5, -0.010211671, 0.0000017883643, -0.00012654788, -878039.1, -42234.074, 0.0, 10.000006, 9.942946 
1.9450003e+3, 2.246504e+2, -789753.06, -843144.5, 0.014754706, 0.0000017812379, 0.00012113922, -789753.06, -51326.977, 0.0, 10.000006, 9.929905 
1.9450003e+3, 2.3458037e+2, -691319.6, -744966.1, -0.012133787, 0.0000017675179, -0.0000885812, -691319.6, -50207.25, 0.0, 10.000006, 9.929574 
1.9450003e+3, 2.445034e+2, -602995.6, -667018.5, 0.012252621, 0.0000017609817, 0.00007492695, -602995.6, -59128.86, 0.0, 10.000006, 9.916133 
1.9450003e+3, 2.5441965e+2, -504243.0, -568343.0, -0.011129601, 0.000001763032, -0.000106533334, -504243.0, -57555.543, 0.0, 10.000006, 9.916034 
1.9450003e+3, 2.6432884e+2, -416007.63, -490987.63, 0.0140331965, 0.0000017609955, 0.0001407781, -416007.63, -66430.02, 0.0, 10.000006, 9.901962 
1.9450003e+3, 2.742313e+2, -316722.44, -391374.56, -0.0108675305, 0.0000017537363, -0.00020328583, -316722.44, -64189.5, 0.0, 10.000006, 9.902382 
1.9450003e+3, 2.841256e+2, -230249.22, -318081.06, 0.011565365, 0.000001748066, 0.00022918257, -230249.22, -74680.28, 0.0, 10.000006, 9.885436 
1.9450003e+3, 2.9401213e+2, -130543.125, -217764.86, -0.012013344, 0.0000017445931, -0.00025322227, -130543.125, -71861.74, 0.0, 10.000006, 9.886214 
1.9450003e+3, 3.0392656e+2, -40799.188, -84750.06, 0.012192757, 0.0000017424412, 0.00017323469, -40799.188, -40799.188, 0.0, 10.000006, 9.94217 
1.9450003e+3, 3.138706e+2, -39721.19, -82511.125, -0.008549257, 0.0000017422335, -0.000055075638, -39721.19, -39721.19, 0.0, 10.000006, 9.943682 
1.9550003e+3, 1.2499339e+2, -1719938.9, -1724224.3, 0.0063802693, 0.0000019169363, 0.000018141383, -1719938.9, -4874.1465, 0.0, 10.000006, 9.994324 
1.9550003e+3, 1.3498764e+2, -1622558.5, -1627434.5, -0.021003664, 0.0000018964146, -0.00006806085, -1622558.5, -5437.423, 0.0, 10.000006, 9.993542 
1.9550003e+3, 1.4497517e+2, -1534457.1, -1548145.9, 0.0075318096, 0.000001883553, 0.00007143918, -1534457.1, -15213.925, 0.0, 10.000006, 9.981862 
1.9550003e+3, 1.5495706e+2, -1436729.6, -1450821.5, -0.021839362, 0.0000018779878, -0.00005656352, -1436729.6, -15308.797, 0.0, 10.000006, 9.98133 
1.9550003e+3, 1.6493231e+2, -1348678.6, -1371952.0, 0.0055709872, 0.0000018693379, 0.000047707752, -1348678.6, -25015.295, 0.0, 10.000006, 9.969245 
1.9550003e+3, 1.7490159e+2, -1250720.8, -1274309.9, -0.021798188, 0.0000018575389, -0.00007346251, -1250720.8, -24756.33, 0.0, 10.000006, 9.968832 
1.9550003e+3, 1.8486424e+2, -1162639.8, -1195719.8, 0.0053645377, 0.0000018486854, 0.00006650117, -1162639.8, -34309.387, 0.0, 10.000006, 9.956392 
1.9550003e+3, 1.9482067e+2, -1064490.1, -1097832.6, -0.022152802, 0.0000018429129, -0.000057327863, -1064490.1, -33732.766, 0.0, 10.000006, 9.956049 
1.9550003e+3, 2.0477045e+2, -976326.2, -1019434.7, 0.006067514, 0.0000018362949, 0.000068382855, -976326.2, -43076.516, 0.0, 10.000006, 9.943288 
1.9550003e+3, 2.1471377e+2, -878039.2, -921409.6, -0.019215042, 0.0000018287602, -0.0001265424, -878039.2, -42234.137, 0.0, 10.000006, 9.942946 
1.9550003e+3, 2.246504e+2, -789753.1, -843144.6, 0.0051969965, 0.0000018214103, 0.00012114706, -789753.1, -51327.043, 0.0, 10.000006, 9.929905 
1.9550003e+3, 2.3458037e+2, -691319.7, -744966.25, -0.021709777, 0.0000018142684, -0.00008856599, -691319.7, -50207.316, 0.0, 10.000006, 9.929574 
1.9550003e+3, 2.445034e+2, -602995.7, -667018.56, 0.006336267, 0.000001809248, 0.00007493909, -602995.7, -59128.918, 0.0, 10.000006, 9.916133 
1.9550003e+3, 2.5441965e+2, -504243.03, -568343.1, -0.016870407, 0.00000180676, -0.00010653676, -504243.03, -57555.6, 0.0, 10.000006, 9.916034 
1.9550003e+3, 2.6432884e+2, -416007.66, -490987.75, 0.008041633, 0.0000018024054, 0.00014077155, -416007.66, -66430.086, 0.0, 10.000006, 9.901962 
1.9550003e+3, 2.742313e+2, -316722.5, -391374.66, -0.016876081, 0.0000017956678, -0.00020327965, -316722.5, -64189.56, 0.0, 10.000006, 9.902382 
1.9550003e+3, 2.841256e+2, -230249.27, -318081.16, 0.0074124266, 0.0000017914687, 0.00022919601, -230249.27, -74680.336, 0.0, 10.000006, 9.885436 
1.9550003e+3, 2.9401213e+2, -130543.17, -217764.97, -0.015999345, 0.0000017907531, -0.00025320906, -130543.17, -71861.8, 0.0, 10.000006, 9.886214 
1.9550003e+3, 3.0392656e+2, -40799.24, -84750.164, 0.008832852, 0.0000017883215, 0.00017324022, -40799.24, -40799.24, 0.0, 10.000006, 9.94217 
1.9550003e+3, 3.138706e+2, -39721.242, -82511.23, -0.011836002, 0.0000017833127, -0.000055088753, -39721.242, -39721.242, 0.0, 10.000006, 9.943682 
1.9650002e+3, 1.2499339e+2, -1719938.5, -1724224.0, 0.024496797, 0.0000019635308, 0.000018157907, -1719938.5, -4873.6997, 0.0, 10.000007, 9.994324 
1.9650002e+3, 1.3498764e+2, -1622558.1, -1627434.4, -0.007614925, 0.0000019444149, -0.00006806588, -1622558.1, -5436.974, 0.0, 10.000007, 9.993542 
1.9650002e+3, 1.4497517e+2, -1534456.8, -1548145.6, 0.019787362, 0.0000019313004, 0.00007146057, -1534456.8, -15213.478, 0.0, 10.000007, 9.981861 
1.9650002e+3, 1.5495706e+2, -1436729.1, -1450821.4, -0.008257777, 0.000001923805, -0.000056553417, -1436729.1, -15308.359, 0.0, 10.000007, 9.98133 
1.9650002e+3, 1.6493231e+2, -1348678.3, -1371951.9, 0.01964184, 0.0000019144716, 0.000047713624, -1348678.3, -25014.861, 0.0, 10.000007, 9.969245 
1.9650002e+3, 1.7490159e+2, -1250720.3, -1274309.8, -0.01008779, 0.0000019032615, -0.000073453644, -1250720.3, -24755.896, 0.0, 10.000007, 9.968832 
1.9650002e+3, 1.8486424e+2, -1162639.4, -1195719.6, 0.017512793, 0.000001895195, 0.000066510365, -1162639.4, -34308.953, 0.0, 10.000007, 9.956392 
1.9650002e+3, 1.9482067e+2, -1064489.6, -1097832.5, -0.010983565, 0.0000018904166, -0.000057321125, -1064489.6, -33732.336, 0.0, 10.000007, 9.956049 
1.9650002e+3, 2.0477045e+2, -976325.75, -1019434.56, 0.016339121, 0.000001882552, 0.00006838898, -976325.75, -43076.09, 0.0, 10.000006, 9.943288 
1.9650002e+3, 2.1471378e+2, -878038.75, -921409.5, -0.011789901, 0.0000018713441, -0.00012653487, -878038.75, -42233.723, 0.0, 10.000006, 9.942946 
1.9650002e+3, 2.2465041e+2, -789752.7, -843144.5, 0.013105032, 0.0000018643103, 0.000121154204, -789752.7, -51326.625, 0.0, 10.000006, 9.929905 
1.9650002e+3, 2.3458037e+2, -691319.25, -744966.06, -0.012376985, 0.0000018620016, -0.000088561246, -691319.25, -50206.89, 0.0, 10.000006, 9.929574 
1.9650002e+3, 2.445034e+2, -602995.25, -667018.44, 0.015247774, 0.0000018575488, 0.00007494279, -602995.25, -59128.496, 0.0, 10.000006, 9.916133 
1.9650002e+3, 2.5441965e+2, -504242.63, -568343.0, -0.013679509, 0.0000018505287, -0.000106532454, -504242.63, -57555.19, 0.0, 10.000006, 9.916033 
1.9650002e+3, 2.6432884e+2, -416007.25, -490987.63, 0.010223466, 0.000001844608, 0.00014077585, -416007.25, -66429.68, 0.0, 10.000006, 9.901962 
1.9650002e+3, 2.742313e+2, -316722.1, -391374.53, -0.012543392, 0.0000018400907, -0.00020327613, -316722.1, -64189.152, 0.0, 10.000006, 9.902382 
1.9650002e+3, 2.841256e+2, -230248.86, -318081.03, 0.013996638, 0.0000018370974, 0.00022919907, -230248.86, -74679.93, 0.0, 10.000006, 9.885436 
1.9650002e+3, 2.9401213e+2, -130542.77, -217764.84, -0.010025006, 0.0000018361819, -0.00025320606, -130542.77, -71861.39, 0.0, 10.000006, 9.886214 
1.9650002e+3, 3.0392656e+2, -40798.84, -84750.055, 0.013895003, 0.0000018333363, 0.00017324233, -40798.84, -40798.84, 0.0, 10.000006, 9.94217 
1.9650002e+3, 3.138706e+2, -39720.84, -82511.12, -0.0097166095, 0.0000018276086, -0.00005508873, -39720.84, -39720.84, 0.0, 10.000006, 9.943682 
1.9750002e+3, 1.2499339e+2, -1719938.5, -1724224.3, 0.010548052, 0.0000020100806, 0.000018165912, -1719938.5, -4873.789, 0.0, 10.000007, 9.994324 
1.9750002e+3, 1.3498764e+2, -1622558.1, -1627434.5, -0.021566367, 0.000001994703, -0.00006806803, -1622558.1, -5437.0615, 0.0, 10.000007, 9.993542 
1.9750002e+3, 1.4497519e+2, -1534456.8, -1548145.8, 0.005012363, 0.0000019812783, 0.00007148698, -1534456.8, -15213.555, 0.0, 10.000007, 9.981861 
1.9750002e+3, 1.5495706e+2, -1436729.1, -1450821.5, -0.023034267, 0.0000019693907, -0.00005654841, -1436729.1, -15308.436, 0.0, 10.000007, 9.98133 
1.9750002e+3, 1.6493231e+2, -1348678.3, -1371952.0, 0.007039398, 0.000001959371, 0.00004771354, -1348678.3, -25014.94, 0.0, 10.000007, 9.969245 
1.9750002e+3, 1.7490159e+2, -1250720.4, -1274309.9, -0.02267891, 0.000001951259, -0.00007344215, -1250720.4, -24755.973, 0.0, 10.000007, 9.968831 
1.9750002e+3, 1.8486424e+2, -1162639.4, -1195719.8, 0.0062017646, 0.0000019440083, 0.000066524124, -1162639.4, -34309.027, 0.0, 10.000007, 9.956392 
1.9750002e+3, 1.9482067e+2, -1064489.8, -1097832.6, -0.022279965, 0.0000019376575, -0.000057314825, -1064489.8, -33732.406, 0.0, 10.000007, 9.956049 
1.9750002e+3, 2.0477045e+2, -976325.8, -1019434.7, 0.005653948, 0.0000019284396, 0.000068393725, -976325.8, -43076.16, 0.0, 10.000006, 9.943288 
1.9750002e+3, 2.1471378e+2, -878038.8, -921409.56, -0.022462651, 0.0000019161157, -0.0001265253, -878038.8, -42233.793, 0.0, 10.000006, 9.942946 
1.9750002e+3, 2.2465041e+2, -789752.75, -843144.56, 0.0056191147, 0.0000019099382, 0.00012116065, -789752.75, -51326.69, 0.0, 10.000006, 9.929905 
1.9750002e+3, 2.3458037e+2, -691319.3, -744966.2, -0.019758925, 0.0000019107174, -0.00008856697, -691319.3, -50206.953, 0.0, 10.000006, 9.929574 
1.9750002e+3, 2.445034e+2, -602995.3, -667018.56, 0.007033253, 0.0000019058841, 0.00007493806, -602995.3, -59128.566, 0.0, 10.000006, 9.916133 
1.9750002e+3, 2.5441965e+2, -504242.7, -568343.1, -0.021934161, 0.0000018943383, -0.00010652043, -504242.7, -57555.26, 0.0, 10.000006, 9.916033 
1.9750002e+3, 2.6432884e+2, -416007.3, -490987.72, 0.0048360797, 0.0000018876033, 0.000140791, -416007.3, -66429.734, 0.0, 10.000006, 9.901961 
1.9750002e+3, 2.742313e+2, -316722.13, -391374.66, -0.01773892, 0.0000018870046, -0.00020327525, -316722.13, -64189.207, 0.0, 10.000006, 9.902382 
1.9750002e+3, 2.841256e+2, -230248.9, -318081.16, 0.009583275, 0.0000018849521, 0.00022919172, -230248.9, -74679.984, 0.0, 10.000006, 9.885436 
1.9750002e+3, 2.9401213e+2, -130542.82, -217764.97, -0.014368157, 0.0000018808796, -0.00025321328, -130542.82, -71861.445, 0.0, 10.000006, 9.886214 
1.9750002e+3, 3.0392656e+2, -40798.895, -84750.17, 0.010648541, 0.0000018774858, 0.00017324102, -40798.895, -40798.895, 0.0, 10.000006, 9.94217 
1.9750002e+3, 3.138706e+2, -39720.9, -82511.234, -0.012834605, 0.0000018751211, -0.000055075572, -39720.9, -39720.9, 0.0, 10.000006, 9.943681 
1.9850002e+3, 1.2499339e+2, -1719938.0, -1724224.0, 0.023743063, 0.0000020625569, 0.000018179735, -1719938.0, -4873.3076, 0.0, 10.000007, 9.994324 
1.9850002e+3, 1.3498764e+2, -1622557.6, -1627434.3, -0.007157725, 0.0000020416862, -0.00006807139, -1622557.6, -5436.5967, 0.0, 10.000007, 9.993542 
1.9850002e+3, 1.4497519e+2, -1534456.3, -1548145.6, 0.01963829, 0.0000020269533, 0.00007151234, -1534456.3, -15213.093, 0.0, 10.000007, 9.981861 
1.9850002e+3, 1.5495706e+2, -1436728.8, -1450821.4, -0.011111899, 0.0000020179605, -0.000056540022, -1436728.8, -15307.976, 0.0, 10.000007, 9.98133 
1.9850002e+3, 1.6493231e+2, -1348677.8, -1371951.8, 0.01954919, 0.0000020090804, 0.00004771634, -1348677.8, -25014.482, 0.0, 10.000007, 9.969245 
1.9850002e+3, 1.7490159e+2, -1250719.9, -1274309.6, -0.0103764245, 0.0000020003158, -0.00007343332, -1250719.9, -24755.518, 0.0, 10.000007, 9.968831 
1.9850002e+3, 1.8486424e+2, -1162638.9, -1195719.6, 0.018972872, 0.0000019920003, 0.000066534856, -1162638.9, -34308.574, 0.0, 10.000007, 9.956392 
1.9850002e+3, 1.9482067e+2, -1064489.3, -1097832.5, -0.010967301, 0.0000019841525, -0.000057306523, -1064489.3, -33731.957, 0.0, 10.000007, 9.956049 
1.9850002e+3, 2.0477045e+2, -976325.3, -1019434.56, 0.016332362, 0.0000019752038, 0.00006840071, -976325.3, -43075.715, 0.0, 10.000007, 9.943288 
1.9850002e+3, 2.1471378e+2, -878038.4, -921409.44, -0.012979023, 0.000001965061, -0.00012651841, -878038.4, -42233.348, 0.0, 10.000007, 9.942946 
1.9850002e+3, 2.2465041e+2, -789752.3, -843144.44, 0.01528365, 0.0000019588404, 0.00012116665, -789752.3, -51326.246, 0.0, 10.000007, 9.929905 
1.9850002e+3, 2.3458037e+2, -691318.9, -744966.06, -0.014128609, 0.0000019570575, -0.000088562716, -691318.9, -50206.52, 0.0, 10.000007, 9.929574 
1.9850002e+3, 2.445034e+2, -602994.9, -667018.44, 0.012586363, 0.0000019515332, 0.0000749425, -602994.9, -59128.133, 0.0, 10.000007, 9.916133 
1.9850002e+3, 2.5441965e+2, -504242.25, -568343.0, -0.012225206, 0.0000019415334, -0.00010651352, -504242.25, -57554.824, 0.0, 10.000007, 9.916033 
1.9850002e+3, 2.6432884e+2, -416006.88, -490987.6, 0.015743053, 0.0000019353952, 0.00014079775, -416006.88, -66429.3, 0.0, 10.000007, 9.901961 
1.9850002e+3, 2.742313e+2, -316721.72, -391374.53, -0.013377859, 0.0000019341796, -0.00020327198, -316721.72, -64188.777, 0.0, 10.000007, 9.902382 
1.9850002e+3, 2.841256e+2, -230248.48, -318081.03, 0.011307092, 0.000001931772, 0.00022919287, -230248.48, -74679.56, 0.0, 10.000007, 9.885436 
1.9850002e+3, 2.9401213e+2, -130542.4, -217764.84, -0.012950696, 0.000001927708, -0.00025321235, -130542.4, -71861.02, 0.0, 10.000007, 9.886214 
1.9850002e+3, 3.0392656e+2, -40798.477, -84750.055, 0.013488572, 0.000001924023, 0.00017324269, -40798.477, -40798.477, 0.0, 10.000007, 9.94217 
1.9850002e+3, 3.138706e+2, -39720.477, -82511.12, -0.009160312, 0.0000019209194, -0.000055071818, -39720.477, -39720.477, 0.0, 10.000007, 9.943681 
1.9950002e+3, 1.2499339e+2, -1719938.1, -1724224.1, 0.0064258953, 0.0000021209594, 0.000018199378, -1719938.1, -4873.3945, 0.0, 10.000007, 9.994324 
1.9950002e+3, 1.3498764e+2, -1622557.8, -1627434.5, -0.02447852, 0.0000020853647, -0.00006807596, -1622557.8, -5436.682, 0.0, 10.000007, 9.993542 
1.9950002e+3, 1.4497519e+2, -1534456.4, -1548145.8, 0.0049153334, 0.000002068326, 0.000071536626, -1534456.4, -15213.178, 0.0, 10.000007, 9.981861 
1.9950002e+3, 1.5495707e+2, -1436728.8, -1450821.5, -0.025830932, 0.000002069514, -0.000056528253, -1436728.8, -15308.058, 0.0, 10.000007, 9.98133 
1.9950002e+3, 1.6493231e+2, -1348677.9, -1371951.9, 0.0066617467, 0.0000020635991, 0.000047722024, -1348677.9, -25014.56, 0.0, 10.000007, 9.969245 
1.9950002e+3, 1.7490159e+2, -1250719.9, -1274309.8, -0.023254449, 0.0000020504322, -0.000073427145, -1250719.9, -24755.596, 0.0, 10.000007, 9.968831 
1.9950002e+3, 1.8486425e+2, -1162639.0, -1195719.8, 0.0072928797, 0.0000020391708, 0.000066542554, -1162639.0, -34308.652, 0.0, 10.000007, 9.956392 
1.9950002e+3, 1.9482067e+2, -1064489.4, -1097832.6, -0.022633605, 0.000002029902, -0.000057296224, -1064489.4, -33732.035, 0.0, 10.000007, 9.956049 
1.9950002e+3, 2.0477045e+2, -976325.4, -1019434.7, 0.0053676507, 0.000002022844, 0.000068409936, -976325.4, -43075.79, 0.0, 10.000007, 9.943287 
1.9950002e+3, 2.1471378e+2, -878038.44, -921409.56, -0.023929449, 0.0000020181799, -0.00012651425, -878038.44, -42233.418, 0.0, 10.000007, 9.942946 
1.9950002e+3, 2.2465041e+2, -789752.4, -843144.56, 0.006557636, 0.0000020110165, 0.00012117221, -789752.4, -51326.32, 0.0, 10.000007, 9.929905 
1.9950002e+3, 2.3458037e+2, -691318.94, -744966.2, -0.022782072, 0.0000020010225, -0.00008854846, -691318.94, -50206.59, 0.0, 10.000007, 9.929573 
1.9950002e+3, 2.445034e+2, -602994.94, -667018.56, 0.0052630194, 0.0000019944964, 0.0000749561, -602994.94, -59128.195, 0.0, 10.000007, 9.916133 
1.9950002e+3, 2.5441965e+2, -504242.3, -568343.1, -0.019484965, 0.000001992114, -0.00010651173, -504242.3, -57554.887, 0.0, 10.000007, 9.916033 
1.9950002e+3, 2.6432884e+2, -416006.94, -490987.72, 0.009112182, 0.000001987983, 0.00014079612, -416006.94, -66429.37, 0.0, 10.000007, 9.901961 
1.9950002e+3, 2.742313e+2, -316721.78, -391374.66, -0.019966744, 0.0000019816155, -0.00020326632, -316721.78, -64188.848, 0.0, 10.000007, 9.902382 
1.9950002e+3, 2.841256e+2, -230248.55, -318081.16, 0.0067018243, 0.0000019775568, 0.00022920255, -230248.55, -74679.625, 0.0, 10.000007, 9.885435 
1.9950002e+3, 2.9401213e+2, -130542.45, -217764.95, -0.017377581, 0.000001976667, -0.0002532032, -130542.45, -71861.086, 0.0, 10.000007, 9.886214 
1.9950002e+3, 3.0392656e+2, -40798.53, -84750.17, 0.010887239, 0.000001972948, 0.00017324733, -40798.53, -40798.53, 0.0, 10.000007, 9.94217 
1.9950002e+3, 3.138706e+2, -39720.53, -82511.23, -0.011547735, 0.0000019650035, -0.000055077468, -39720.53, -39720.53, 0.0, 10.000007, 9.943681 
2.0050003e+3, 1.249934e+2, -1719937.6, -1724224.0, 0.028006893, 0.000002171952, 0.000018221766, -1719937.6, -4872.8984, 0.0, 10.000008, 9.994324 
2.0050003e+3, 1.3498765e+2, -1622557.3, -1627434.3, -0.00624091, 0.0000021369697, -0.00006808028, -1622557.3, -5436.1924, 0.0, 10.000007, 9.993542 
2.0050003e+3, 1.4497519e+2, -1534455.9, -1548145.6, 0.02376486, 0.0000021198966, 0.00007156122, -1534455.9, -15212.689, 0.0, 10.000007, 9.981861 
2.0050003e+3, 1.5495707e+2, -1436728.3, -1450821.4, -0.008968745, 0.0000021203919, -0.00005651666, -1436728.3, -15307.571, 0.0, 10.000007, 9.98133 
2.0050003e+3, 1.6493231e+2, -1348677.4, -1371951.8, 0.022135613, 0.0000021142025, 0.000047728132, -1348677.4, -25014.078, 0.0, 10.000007, 9.969245 
2.0050003e+3, 1.7490159e+2, -1250719.4, -1274309.6, -0.0112656485, 0.0000021011883, -0.000073418836, -1250719.4, -24755.12, 0.0, 10.000007, 9.968831 
2.0050003e+3, 1.8486425e+2, -1162638.5, -1195719.5, 0.018227223, 0.0000020893451, 0.00006655186, -1162638.5, -34308.176, 0.0, 10.000007, 9.956392 
2.0050003e+3, 1.9482067e+2, -1064488.9, -1097832.5, -0.01217435, 0.0000020787252, -0.000057287176, -1064488.9, -33731.566, 0.0, 10.000007, 9.956049 
2.0050003e+3, 2.0477045e+2, -976324.94, -1019434.5, 0.017332405, 0.0000020719965, 0.000068417656, -976324.94, -43075.324, 0.0, 10.000007, 9.943287 
2.0050003e+3, 2.1471378e+2, -878038.0, -921409.44, -0.01294495, 0.0000020694813, -0.00012650901, -878038.0, -42232.95, 0.0, 10.000007, 9.942946 
2.0050003e+3, 2.2465041e+2, -789751.9, -843144.44, 0.017383682, 0.0000020620682, 0.000121177945, -789751.9, -51325.855, 0.0, 10.000007, 9.929905 
2.0050003e+3, 2.3458037e+2, -691318.44, -744966.06, -0.012480885, 0.0000020491086, -0.00008853887, -691318.44, -50206.133, 0.0, 10.000007, 9.929573 
2.0050003e+3, 2.445034e+2, -602994.44, -667018.44, 0.01512461, 0.0000020419316, 0.00007496483, -602994.44, -59127.742, 0.0, 10.000007, 9.916133 
2.0050003e+3, 2.5441965e+2, -504241.84, -568343.0, -0.0146216955, 0.0000020416664, -0.00010650952, -504241.84, -57554.434, 0.0, 10.000007, 9.916033 
2.0050003e+3, 2.6432884e+2, -416006.47, -490987.6, 0.013463147, 0.0000020382922, 0.0001407966, -416006.47, -66428.92, 0.0, 10.000007, 9.901961 
2.0050003e+3, 2.742313e+2, -316721.3, -391374.53, -0.012639255, 0.000002030943, -0.00020326147, -316721.3, -64188.4, 0.0, 10.000007, 9.902382 
2.0050003e+3, 2.841256e+2, -230248.1, -318081.03, 0.015900942, 0.0000020261, 0.00022920963, -230248.1, -74679.17, 0.0, 10.000007, 9.885435 
2.0050003e+3, 2.9401213e+2, -130542.01, -217764.83, -0.011278282, 0.0000020247035, -0.0002531968, -130542.01, -71860.63, 0.0, 10.000007, 9.886214 
2.0050003e+3, 3.0392656e+2, -40798.086, -84750.05, 0.014643351, 0.0000020211862, 0.00017325135, -40798.086, -40798.086, 0.0, 10.000007, 9.942169 
2.0050003e+3, 3.138706e+2, -39720.094, -82511.11, -0.012150533, 0.000002014493, -0.000055078413, -39720.094, -39720.094, 0.0, 10.000007, 9.943681 
2.0150003e+3, 1.249934e+2, -1719937.6, -1724224.1, 0.00962836, 0.000002215536, 0.000018246908, -1719937.6, -4872.9946, 0.0, 10.000008, 9.994324 
2.0150003e+3, 1.3498765e+2, -1622557.4, -1627434.4, -0.024623184, 0.0000021965004, -0.00006808434, -1622557.4, -5436.2866, 0.0, 10.000007, 9.993542 
2.0150003e+3, 1.4497519e+2, -1534456.0, -1548145.8, 0.009193075, 0.0000021816645, 0.00007158611, -1534456.0, -15212.779, 0.0, 10.000007, 9.981861 
2.0150003e+3, 1.5495707e+2, -1436728.4, -1450821.5, -0.023534738, 0.0000021705937, -0.000056505243, -1436728.4, -15307.659, 0.0, 10.000007, 9.98133 
2.0150003e+3, 1.6493231e+2, -1348677.4, -1371951.9, 0.008287219, 0.0000021608907, 0.000047734673, -1348677.4, -25014.166, 0.0, 10.000007, 9.969245 
2.0150003e+3, 1.7490159e+2, -1250719.5, -1274309.8, -0.02511038, 0.000002152585, -0.000073408395, -1250719.5, -24755.205, 0.0, 10.000007, 9.968831 
2.0150003e+3, 1.8486425e+2, -1162638.6, -1195719.6, 0.0050068423, 0.0000021425233, 0.00006656277, -1162638.6, -34308.258, 0.0, 10.000007, 9.956392 
2.0150003e+3, 1.9482067e+2, -1064488.9, -1097832.6, -0.025387788, 0.000002130622, -0.000057279387, -1064488.9, -33731.645, 0.0, 10.000007, 9.956049 
2.0150003e+3, 2.0477045e+2, -976325.0, -1019434.6, 0.0078041023, 0.0000021226608, 0.00006842387, -976325.0, -43075.4, 0.0, 10.000007, 9.943287 
2.0150003e+3, 2.1471378e+2, -878038.06, -921409.56, -0.022397399, 0.0000021189658, -0.0001265027, -878038.06, -42233.023, 0.0, 10.000007, 9.942946 
2.0150003e+3, 2.2465041e+2, -789751.94, -843144.56, 0.006883622, 0.0000021119954, 0.00012118385, -789751.94, -51325.93, 0.0, 10.000007, 9.929904 
2.0150003e+3, 2.3458037e+2, -691318.56, -744966.2, -0.023015436, 0.0000021013152, -0.000088533925, -691318.56, -50206.207, 0.0, 10.000007, 9.929573 
2.0150003e+3, 2.4450341e+2, -602994.5, -667018.56, 0.007516107, 0.0000020938387, 0.00007496869, -602994.5, -59127.813, 0.0, 10.000007, 9.916133 
2.0150003e+3, 2.5441965e+2, -504241.9, -568343.1, -0.022089845, 0.0000020901914, -0.0001065069, -504241.9, -57554.504, 0.0, 10.000007, 9.916033 
2.0150003e+3, 2.6432884e+2, -416006.53, -490987.72, 0.007446353, 0.000002086323, 0.00014079917, -416006.53, -66428.984, 0.0, 10.000007, 9.901961 
2.0150003e+3, 2.742313e+2, -316721.38, -391374.63, -0.018559093, 0.0000020821622, -0.00020325746, -316721.38, -64188.46, 0.0, 10.000007, 9.902382 
2.0150003e+3, 2.841256e+2, -230248.16, -318081.16, 0.010987374, 0.000002077401, 0.00022921414, -230248.16, -74679.24, 0.0, 10.000007, 9.885435 
2.0150003e+3, 2.9401213e+2, -130542.06, -217764.95, -0.016101472, 0.0000020718173, -0.00025319308, -130542.06, -71860.7, 0.0, 10.000007, 9.886214 
2.0150003e+3, 3.0392656e+2, -40798.15, -84750.18, 0.011048179, 0.0000020687378, 0.00017325472, -40798.15, -40798.15, 0.0, 10.000007, 9.942169 
2.0150003e+3, 3.138706e+2, -39720.156, -82511.24, -0.015601794, 0.000002069387, -0.000055074655, -39720.156, -39720.156, 0.0, 10.000007, 9.943681 
2.0250003e+3, 1.249934e+2, -1719937.1, -1724224.0, 0.025064575, 0.0000022658635, 0.000018262253, -1719937.1, -4872.488, 0.0, 10.000008, 9.994324 
2.0250003e+3, 1.3498765e+2, -1622556.8, -1627434.3, -0.008827715, 0.0000022524014, -0.00006809016, -1622556.8, -5435.7646, 0.0, 10.000008, 9.993541 
2.0250003e+3, 1.4497519e+2, -1534455.4, -1548145.5, 0.024458408, 0.0000022386462, 0.000071612965, -1534455.4, -15212.256, 0.0, 10.000008, 9.981861 
2.0250003e+3, 1.5495707e+2, -1436727.9, -1450821.3, -0.0108873015, 0.0000022241265, -0.000056495603, -1436727.9, -15307.148, 0.0, 10.000008, 9.98133 
2.0250003e+3, 1.6493233e+2, -1348676.9, -1371951.8, 0.021898838, 0.0000022123286, 0.00004773895, -1348676.9, -25013.66, 0.0, 10.000008, 9.969245 
2.0250003e+3, 1.7490159e+2, -1250719.0, -1274309.6, -0.009995735, 0.0000022033103, -0.000073397365, -1250719.0, -24754.707, 0.0, 10.000008, 9.968831 
2.0250003e+3, 1.8486425e+2, -1162638.0, -1195719.5, 0.020606076, 0.0000021944563, 0.00006657479, -1162638.0, -34307.758, 0.0, 10.000008, 9.956392 
2.0250003e+3, 1.9482069e+2, -1064488.4, -1097832.4, -0.0136984475, 0.000002185773, -0.000057272435, -1064488.4, -33731.15, 0.0, 10.000008, 9.956049 
2.0250003e+3, 2.0477045e+2, -976324.5, -1019434.5, 0.018456664, 0.000002177069, 0.000068429836, -976324.5, -43074.906, 0.0, 10.000008, 9.943287 
2.0250003e+3, 2.1471378e+2, -878037.56, -921409.4, -0.014029135, 0.0000021683422, -0.00012649331, -878037.56, -42232.543, 0.0, 10.000008, 9.942946 
2.0250003e+3, 2.2465041e+2, -789751.5, -843144.4, 0.01469409, 0.0000021607348, 0.00012119249, -789751.5, -51325.445, 0.0, 10.000008, 9.929904 
2.0250003e+3, 2.3458037e+2, -691318.06, -744966.0, -0.015568161, 0.0000021543929, -0.000088530745, -691318.06, -50205.723, 0.0, 10.000007, 9.929573 
2.0250003e+3, 2.4450341e+2, -602994.0, -667018.4, 0.016001333, 0.0000021479914, 0.000074971074, -602994.0, -59127.332, 0.0, 10.000007, 9.916133 
2.0250003e+3, 2.5441965e+2, -504241.44, -568342.94, -0.014492326, 0.000002141516, -0.00010649974, -504241.44, -57554.027, 0.0, 10.000007, 9.916033 
2.0250003e+3, 2.6432884e+2, -416006.06, -490987.56, 0.014873552, 0.0000021362744, 0.00014080702, -416006.06, -66428.51, 0.0, 10.000007, 9.901961 
2.0250003e+3, 2.742313e+2, -316720.9, -391374.5, -0.014723337, 0.0000021326016, -0.0002032541, -316720.9, -64187.99, 0.0, 10.000007, 9.902382 
2.0250003e+3, 2.841256e+2, -230247.67, -318081.0, 0.013520967, 0.0000021282992, 0.0002292149, -230247.67, -74678.77, 0.0, 10.000007, 9.885435 
2.0250003e+3, 2.9401213e+2, -130541.59, -217764.83, -0.0138667915, 0.0000021231258, -0.00025319232, -130541.59, -71860.234, 0.0, 10.000007, 9.886214 
2.0250003e+3, 3.0392656e+2, -40797.688, -84750.05, 0.015563775, 0.0000021200958, 0.00017325627, -40797.688, -40797.688, 0.0, 10.000007, 9.942169 
2.0250003e+3, 3.138706e+2, -39719.69, -82511.11, -0.008353189, 0.0000021202588, -0.00005507122, -39719.69, -39719.69, 0.0, 10.000007, 9.943681 
2.0350002e+3, 1.249934e+2, -1719937.3, -1724224.1, 0.01067857, 0.0000023229336, 0.000018267812, -1719937.3, -4872.5835, 0.0, 10.000008, 9.994324 
2.0350002e+3, 1.3498765e+2, -1622556.9, -1627434.4, -0.02321664, 0.0000023046732, -0.000068097754, -1622556.9, -5435.859, 0.0, 10.000008, 9.993541 
2.0350002e+3, 1.4497519e+2, -1534455.5, -1548145.8, 0.007302507, 0.000002290842, 0.0000716418, -1534455.5, -15212.353, 0.0, 10.000008, 9.981861 
2.0350002e+3, 1.5495707e+2, -1436727.9, -1450821.5, -0.02804766, 0.0000022809897, -0.00005648774, -1436727.9, -15307.242, 0.0, 10.000008, 9.981329 
2.0350002e+3, 1.6493233e+2, -1348677.0, -1371951.9, 0.006989077, 0.0000022685156, 0.000047740967, -1348677.0, -25013.746, 0.0, 10.000008, 9.969245 
2.0350002e+3, 1.749016e+2, -1250719.0, -1274309.8, -0.024893945, 0.0000022533643, -0.00007338574, -1250719.0, -24754.791, 0.0, 10.000008, 9.968831 
2.0350002e+3, 1.8486425e+2, -1162638.1, -1195719.6, 0.0082147755, 0.0000022451447, 0.0000665879, -1162638.1, -34307.848, 0.0, 10.000008, 9.956391 
2.0350002e+3, 1.9482069e+2, -1064488.5, -1097832.6, -0.026060898, 0.0000022441773, -0.00005726632, -1064488.5, -33731.234, 0.0, 10.000008, 9.956049 
2.0350002e+3, 2.0477045e+2, -976324.56, -1019434.6, 0.0065423264, 0.0000022352208, 0.00006843554, -976324.56, -43074.99, 0.0, 10.000008, 9.943287 
2.0350002e+3, 2.1471378e+2, -878037.6, -921409.56, -0.025934456, 0.0000022176107, -0.00012648087, -878037.6, -42232.62, 0.0, 10.000008, 9.942946 
2.0350002e+3, 2.2465041e+2, -789751.56, -843144.56, 0.0054653795, 0.000002208286, 0.000121203855, -789751.56, -51325.523, 0.0, 10.000008, 9.929904 
2.0350002e+3, 2.3458037e+2, -691318.1, -744966.2, -0.02470961, 0.0000022083414, -0.00008852932, -691318.1, -50205.797, 0.0, 10.000007, 9.929573 
2.0350002e+3, 2.4450341e+2, -602994.06, -667018.5, 0.0072227516, 0.0000022043894, 0.00007497199, -602994.06, -59127.406, 0.0, 10.000007, 9.916133 
2.0350002e+3, 2.5441965e+2, -504241.5, -568343.1, -0.023253758, 0.0000021956396, -0.000106488034, -504241.5, -57554.1, 0.0, 10.000007, 9.916033 
2.0350002e+3, 2.6432884e+2, -416006.13, -490987.7, 0.008592683, 0.0000021881465, 0.0001408202, -416006.13, -66428.586, 0.0, 10.000007, 9.901961 
2.0350002e+3, 2.742313e+2, -316720.97, -391374.63, -0.020838195, 0.0000021822618, -0.00020325139, -316720.97, -64188.06, 0.0, 10.000007, 9.902381 
2.0350002e+3, 2.841256e+2, -230247.73, -318081.13, 0.0083755385, 0.0000021787953, 0.0002292119, -230247.73, -74678.836, 0.0, 10.000007, 9.885435 
2.0350002e+3, 2.9401213e+2, -130541.66, -217764.95, -0.018925203, 0.0000021786286, -0.00025319454, -130541.66, -71860.3, 0.0, 10.000007, 9.886213 
2.0350002e+3, 3.0392656e+2, -40797.746, -84750.17, 0.012386685, 0.0000021752599, 0.00017325595, -40797.746, -40797.746, 0.0, 10.000007, 9.942169 
2.0350002e+3, 3.138706e+2, -39719.75, -82511.234, -0.01130991, 0.0000021671096, -0.000055068103, -39719.75, -39719.75, 0.0, 10.000007, 9.943681 
2.0450002e+3, 1.24993406e+2, -1719936.6, -1724223.9, 0.02882832, 0.0000023844075, 0.000018287956, -1719936.6, -4872.0234, 0.0, 10.000008, 9.994324 
2.0450002e+3, 1.3498765e+2, -1622556.3, -1627434.3, -0.009462883, 0.0000023575556, -0.00006810649, -1622556.3, -5435.324, 0.0, 10.000008, 9.993541 
2.0450002e+3, 1.4497519e+2, -1534454.9, -1548145.5, 0.020751119, 0.0000023416933, 0.00007166731, -1534454.9, -15211.824, 0.0, 10.000008, 9.981861 
2.0450002e+3, 1.5495707e+2, -1436727.4, -1450821.3, -0.01185779, 0.0000023364018, -0.000056474968, -1436727.4, -15306.712, 0.0, 10.000008, 9.981329 
2.0450002e+3, 1.6493233e+2, -1348676.5, -1371951.6, 0.023640325, 0.0000023258435, 0.000047747923, -1348676.5, -25013.217, 0.0, 10.000008, 9.969245 
2.0450002e+3, 1.749016e+2, -1250718.5, -1274309.6, -0.013099848, 0.000002309908, -0.00007337752, -1250718.5, -24754.266, 0.0, 10.000008, 9.968831 
2.0450002e+3, 1.8486425e+2, -1162637.6, -1195719.5, 0.020647136, 0.0000023002492, 0.000066597015, -1162637.6, -34307.324, 0.0, 10.000008, 9.956391 
2.0450002e+3, 1.9482069e+2, -1064488.0, -1097832.4, -0.013015128, 0.0000022971565, -0.00005725669, -1064488.0, -33730.715, 0.0, 10.000008, 9.956049 
2.0450002e+3, 2.0477045e+2, -976324.0, -1019434.44, 0.019438596, 0.0000022881543, 0.00006844472, -976324.0, -43074.47, 0.0, 10.000008, 9.943287 
2.0450002e+3, 2.1471378e+2, -878037.06, -921409.4, -0.013943874, 0.0000022727502, -0.00012647317, -878037.06, -42232.11, 0.0, 10.000008, 9.9429455 
2.0450002e+3, 2.2465041e+2, -789751.0, -843144.4, 0.01849266, 0.000002263854, 0.000121211015, -789751.0, -51325.016, 0.0, 10.000008, 9.929904 
2.0450002e+3, 2.3458037e+2, -691317.6, -744966.0, -0.014652016, 0.0000022623253, -0.000088521614, -691317.6, -50205.293, 0.0, 10.000008, 9.929573 
2.0450002e+3, 2.4450341e+2, -602993.56, -667018.4, 0.016237728, 0.0000022576808, 0.000074979085, -602993.56, -59126.902, 0.0, 10.000008, 9.916133 
2.0450002e+3, 2.5441965e+2, -504241.0, -568342.94, -0.01554684, 0.0000022493052, -0.00010648297, -504241.0, -57553.598, 0.0, 10.000008, 9.916033 
2.0450002e+3, 2.6432884e+2, -416005.63, -490987.56, 0.016198445, 0.0000022418467, 0.00014082438, -416005.63, -66428.08, 0.0, 10.000008, 9.901961 
2.0450002e+3, 2.742313e+2, -316720.47, -391374.5, -0.014399546, 0.0000022355619, -0.00020324661, -316720.47, -64187.566, 0.0, 10.000008, 9.902381 
2.0450002e+3, 2.841256e+2, -230247.25, -318081.0, 0.015501034, 0.000002232165, 0.0002292169, -230247.25, -74678.34, 0.0, 10.000008, 9.885435 
2.0450002e+3, 2.9401213e+2, -130541.164, -217764.81, -0.013009202, 0.0000022327122, -0.00025318982, -130541.164, -71859.81, 0.0, 10.000008, 9.886213 
2.0450002e+3, 3.0392656e+2, -40797.258, -84750.04, 0.016427869, 0.0000022290337, 0.00017325905, -40797.258, -40797.258, 0.0, 10.000008, 9.942169 
2.0450002e+3, 3.138706e+2, -39719.266, -82511.1, -0.01320096, 0.0000022190484, -0.000055068544, -39719.266, -39719.266, 0.0, 10.000008, 9.943681 
2.0550002e+3, 1.24993406e+2, -1719936.8, -1724224.0, 0.009045856, 0.000002450285, 0.000018322688, -1719936.8, -4872.131, 0.0, 10.000008, 9.994323 
2.0550002e+3, 1.3498765e+2, -1622556.4, -1627434.4, -0.029249383, 0.0000024110489, -0.00006811637, -1622556.4, -5435.429, 0.0, 10.000008, 9.993541 
2.0550002e+3, 1.4497519e+2, -1534455.0, -1548145.6, 0.004669964, 0.0000023912003, 0.000071689516, -1534455.0, -15211.915, 0.0, 10.000008, 9.981861 
2.0550002e+3, 1.5495707e+2, -1436727.4, -1450821.4, -0.027933458, 0.0000023903629, -0.000056457284, -1436727.4, -15306.801, 0.0, 10.000008, 9.981329 
2.0550002e+3, 1.6493233e+2, -1348676.5, -1371951.9, 0.00812082, 0.0000023843127, 0.000047759815, -1348676.5, -25013.314, 0.0, 10.000008, 9.969245 
2.0550002e+3, 1.749016e+2, -1250718.6, -1274309.8, -0.028616622, 0.000002372941, -0.000073372714, -1250718.6, -24754.361, 0.0, 10.000008, 9.968831 
2.0550002e+3, 1.8486425e+2, -1162637.6, -1195719.6, 0.0081881285, 0.0000023597693, 0.00006660213, -1162637.6, -34307.414, 0.0, 10.000008, 9.956391 
2.0550002e+3, 1.9482069e+2, -1064488.0, -1097832.5, -0.025439018, 0.0000023447117, -0.000057243542, -1064488.0, -33730.8, 0.0, 10.000008, 9.956049 
2.0550002e+3, 2.0477045e+2, -976324.1, -1019434.6, 0.0064017456, 0.00000233587, 0.000068457375, -976324.1, -43074.555, 0.0, 10.000008, 9.943287 
2.0550002e+3, 2.1471378e+2, -878037.2, -921409.5, -0.026993643, 0.0000023337595, -0.00012647024, -878037.2, -42232.195, 0.0, 10.000008, 9.9429455 
2.0550002e+3, 2.2465041e+2, -789751.1, -843144.5, 0.008551144, 0.0000023274376, 0.00012121396, -789751.1, -51325.098, 0.0, 10.000008, 9.929904 
2.0550002e+3, 2.3458038e+2, -691317.7, -744966.1, -0.024492167, 0.0000023163448, -0.000088507615, -691317.7, -50205.375, 0.0, 10.000008, 9.929573 
2.0550002e+3, 2.4450341e+2, -602993.6, -667018.5, 0.008435228, 0.0000023078658, 0.00007499235, -602993.6, -59126.98, 0.0, 10.000008, 9.916132 
2.0550002e+3, 2.5441965e+2, -504241.06, -568343.06, -0.023251688, 0.0000023025125, -0.00010648453, -504241.06, -57553.676, 0.0, 10.000008, 9.916033 
2.0550002e+3, 2.6432884e+2, -416005.7, -490987.7, 0.008346877, 0.0000022973747, 0.0001408196, -416005.7, -66428.16, 0.0, 10.000008, 9.901961 
2.0550002e+3, 2.742313e+2, -316720.53, -391374.63, -0.022261273, 0.0000022925017, -0.0002032398, -316720.53, -64187.637, 0.0, 10.000008, 9.902381 
2.0550002e+3, 2.841256e+2, -230247.31, -318081.13, 0.0105607165, 0.0000022884076, 0.00022922986, -230247.31, -74678.414, 0.0, 10.000008, 9.885435 
2.0550002e+3, 2.9401213e+2, -130541.234, -217764.94, -0.017686693, 0.0000022853765, -0.00025317818, -130541.234, -71859.875, 0.0, 10.000008, 9.886213 
2.0550002e+3, 3.0392656e+2, -40797.33, -84750.18, 0.012916254, 0.0000022814174, 0.00017326561, -40797.33, -40797.33, 0.0, 10.000008, 9.942169 
2.0550002e+3, 3.138706e+2, -39719.332, -82511.24, -0.016576005, 0.0000022760748, -0.000055072534, -39719.332, -39719.332, 0.0, 10.000008, 9.943681 
2.0650002e+3, 1.24993406e+2, -1719936.1, -1724223.9, 0.031398177, 0.0000025086704, 0.00001834532, -1719936.1, -4871.556, 0.0, 10.000009, 9.994323 
2.0650002e+3, 1.3498765e+2, -1622555.8, -1627434.1, -0.0070266137, 0.0000024708822, -0.000068119494, -1622555.8, -5434.862, 0.0, 10.000009, 9.993541 
2.0650002e+3, 1.4497519e+2, -1534454.4, -1548145.5, 0.02741787, 0.0000024504684, 0.00007172122, -1534454.4, -15211.349, 0.0, 10.000009, 9.981861 
2.0650002e+3, 1.5495707e+2, -1436726.9, -1450821.3, -0.011332534, 0.0000024470296, -0.000056446996, -1436726.9, -15306.243, 0.0, 10.000009, 9.981329 
2.0650002e+3, 1.6493233e+2, -1348676.0, -1371951.6, 0.023520267, 0.0000024408673, 0.000047763213, -1348676.0, -25012.762, 0.0, 10.000009, 9.969244 
2.0650002e+3, 1.749016e+2, -1250718.0, -1274309.5, -0.013629577, 0.000002431925, -0.00007336137, -1250718.0, -24753.803, 0.0, 10.000009, 9.968831 
2.0650002e+3, 1.8486425e+2, -1162637.1, -1195719.4, 0.022228517, 0.0000024184535, 0.00006661578, -1162637.1, -34306.86, 0.0, 10.000008, 9.956391 
2.0650002e+3, 1.9482069e+2, -1064487.5, -1097832.4, -0.013651811, 0.0000024002409, -0.00005723348, -1064487.5, -33730.26, 0.0, 10.000008, 9.956048 
2.0650002e+3, 2.0477046e+2, -976323.56, -1019434.44, 0.018984165, 0.0000023911487, 0.00006846478, -976323.56, -43074.023, 0.0, 10.000008, 9.943287 
2.0650002e+3, 2.1471378e+2, -878036.6, -921409.3, -0.0160624, 0.0000023919333, -0.0001264645, -878036.6, -42231.652, 0.0, 10.000008, 9.9429455 
2.0650002e+3, 2.2465041e+2, -789750.56, -843144.4, 0.018664448, 0.0000023858784, 0.00012121973, -789750.56, -51324.56, 0.0, 10.000008, 9.929904 
2.0650002e+3, 2.3458038e+2, -691317.1, -744966.0, -0.016789515, 0.0000023720763, -0.00008849991, -691317.1, -50204.84, 0.0, 10.000008, 9.929573 
2.0650002e+3, 2.4450341e+2, -602993.1, -667018.4, 0.016256243, 0.0000023625248, 0.000075000076, -602993.1, -59126.453, 0.0, 10.000008, 9.916132 
2.0650002e+3, 2.5441965e+2, -504240.53, -568342.94, -0.015989514, 0.0000023580567, -0.00010647906, -504240.53, -57553.156, 0.0, 10.000008, 9.916033 
2.0650002e+3, 2.6432884e+2, -416005.16, -490987.53, 0.016348088, 0.0000023537161, 0.00014082393, -416005.16, -66427.64, 0.0, 10.000008, 9.901961 
2.0650002e+3, 2.742313e+2, -316720.0, -391374.47, -0.015378666, 0.000002349524, -0.00020323519, -316720.0, -64187.117, 0.0, 10.000008, 9.902381 
2.0650002e+3, 2.841256e+2, -230246.78, -318080.97, 0.017015826, 0.0000023449552, 0.00022923425, -230246.78, -74677.9, 0.0, 10.000008, 9.885435 
2.0650002e+3, 2.9401213e+2, -130540.71, -217764.8, -0.014479825, 0.0000023398682, -0.00025317475, -130540.71, -71859.36, 0.0, 10.000008, 9.886213 
2.0650002e+3, 3.0392656e+2, -40796.82, -84750.04, 0.016297264, 0.0000023357786, 0.00017326859, -40796.82, -40796.82, 0.0, 10.000008, 9.942169 
2.0650002e+3, 3.138706e+2, -39718.824, -82511.11, -0.0116986735, 0.000002333179, -0.000055069282, -39718.824, -39718.824, 0.0, 10.000008, 9.943681 
2.0750003e+3, 1.24993406e+2, -1719936.3, -1724224.0, 0.010401018, 0.000002559565, 0.00001835586, -1719936.3, -4871.6646, 0.0, 10.000009, 9.994323 
2.0750003e+3, 1.3498765e+2, -1622555.9, -1627434.4, -0.02802815, 0.0000025370553, -0.00006811587, -1622555.9, -5434.9683, 0.0, 10.000009, 9.993541 
2.0750003e+3, 1.449752e+2, -1534454.5, -1548145.6, 0.009831339, 0.000002519496, 0.00007176241, -1534454.5, -15211.455, 0.0, 10.000009, 9.98186 
2.0750003e+3, 1.5495707e+2, -1436727.0, -1450821.4, -0.028913958, 0.000002506402, -0.000056444103, -1436727.0, -15306.347, 0.0, 10.000009, 9.981329 
2.0750003e+3, 1.6493233e+2, -1348676.0, -1371951.8, 0.009473945, 0.0000024955077, 0.000047758116, -1348676.0, -25012.86, 0.0, 10.000009, 9.969244 
2.0750003e+3, 1.749016e+2, -1250718.1, -1274309.8, -0.027657466, 0.0000024868602, -0.0000733435, -1250718.1, -24753.9, 0.0, 10.000009, 9.96883 
2.0750003e+3, 1.8486425e+2, -1162637.1, -1195719.6, 0.0057441723, 0.0000024763021, 0.000066637964, -1162637.1, -34306.953, 0.0, 10.000008, 9.956391 
2.0750003e+3, 1.9482069e+2, -1064487.5, -1097832.5, -0.030164901, 0.0000024637434, -0.000057226505, -1064487.5, -33730.355, 0.0, 10.000008, 9.956048 
2.0750003e+3, 2.0477046e+2, -976323.6, -1019434.56, 0.0085343495, 0.0000024539893, 0.00006846693, -976323.6, -43074.113, 0.0, 10.000008, 9.943287 
2.0750003e+3, 2.1471378e+2, -878036.7, -921409.5, -0.026387336, 0.000002447272, -0.00012645594, -878036.7, -42231.742, 0.0, 10.000008, 9.9429455 
2.0750003e+3, 2.2465041e+2, -789750.6, -843144.5, 0.007594561, 0.0000024391768, 0.00012122834, -789750.6, -51324.645, 0.0, 10.000008, 9.929904 
2.0750003e+3, 2.3458038e+2, -691317.2, -744966.1, -0.027883973, 0.0000024295198, -0.00008849849, -691317.2, -50204.926, 0.0, 10.000008, 9.929573 
2.0750003e+3, 2.4450341e+2, -602993.2, -667018.5, 0.0065211114, 0.0000024216572, 0.00007500227, -602993.2, -59126.535, 0.0, 10.000008, 9.916132 
2.0750003e+3, 2.5441965e+2, -504240.6, -568343.06, -0.025659712, 0.0000024159374, -0.00010646657, -504240.6, -57553.234, 0.0, 10.000008, 9.916032 
2.0750003e+3, 2.6432884e+2, -416005.25, -490987.7, 0.010005961, 0.000002410871, 0.00014083735, -416005.25, -66427.72, 0.0, 10.000008, 9.901961 
2.0750003e+3, 2.742313e+2, -316720.06, -391374.63, -0.021498045, 0.0000024066292, -0.00020323276, -316720.06, -64187.19, 0.0, 10.000008, 9.902381 
2.0750003e+3, 2.841256e+2, -230246.86, -318081.13, 0.011313291, 0.0000024018077, 0.00022923006, -230246.86, -74677.97, 0.0, 10.000008, 9.885435 
2.0750003e+3, 2.9401213e+2, -130540.78, -217764.94, -0.02014511, 0.0000023961868, -0.00025317946, -130540.78, -71859.44, 0.0, 10.000008, 9.886213 
2.0750003e+3, 3.0392656e+2, -40796.887, -84750.18, 0.01298587, 0.0000023921168, 0.00017326804, -40796.887, -40796.887, 0.0, 10.000008, 9.942169 
2.0750003e+3, 3.138706e+2, -39718.89, -82511.24, -0.014734158, 0.000002390361, -0.000055058787, -39718.89, -39718.89, 0.0, 10.000008, 9.943681 
2.0850003e+3, 1.2499341e+2, -1719935.6, -1724223.9, 0.028809201, 0.000002616767, 0.000018373363, -1719935.6, -4871.0796, 0.0, 10.000009, 9.994323 
2.0850003e+3, 1.3498765e+2, -1622555.3, -1627434.1, -0.009507658, 0.0000025996385, -0.00006812334, -1622555.3, -5434.3687, 0.0, 10.000009, 9.993541 
2.0850003e+3, 1.449752e+2, -1534453.9, -1548145.4, 0.028048119, 0.000002583925, 0.00007179425, -1534453.9, -15210.8545, 0.0, 10.000009, 9.98186 
2.0850003e+3, 1.5495707e+2, -1436726.4, -1450821.1, -0.0134139955, 0.0000025691095, -0.000056432444, -1436726.4, -15305.753, 0.0, 10.000009, 9.981329 
2.0850003e+3, 1.6493233e+2, -1348675.4, -1371951.6, 0.025838774, 0.0000025554489, 0.000047762875, -1348675.4, -25012.271, 0.0, 10.000009, 9.969244 
2.0850003e+3, 1.749016e+2, -1250717.5, -1274309.5, -0.011085238, 0.0000025429676, -0.00007333207, -1250717.5, -24753.332, 0.0, 10.000009, 9.96883 
2.0850003e+3, 1.8486425e+2, -1162636.6, -1195719.4, 0.02233079, 0.0000025336365, 0.00006665065, -1162636.6, -34306.387, 0.0, 10.000009, 9.956391 
2.0850003e+3, 1.9482069e+2, -1064487.0, -1097832.4, -0.016602514, 0.0000025275992, -0.000057218233, -1064487.0, -33729.777, 0.0, 10.000009, 9.956048 
2.0850003e+3, 2.0477046e+2, -976323.06, -1019434.4, 0.021542357, 0.000002517958, 0.000068474474, -976323.06, -43073.535, 0.0, 10.000009, 9.943287 
2.0850003e+3, 2.1471378e+2, -878036.1, -921409.3, -0.016532218, 0.0000025044121, -0.00012644513, -878036.1, -42231.18, 0.0, 10.000009, 9.9429455 
2.0850003e+3, 2.2465041e+2, -789750.06, -843144.3, 0.01755925, 0.0000024943317, 0.00012123877, -789750.06, -51324.09, 0.0, 10.000009, 9.929904 
2.0850003e+3, 2.3458038e+2, -691316.6, -744965.94, -0.01639965, 0.0000024881738, -0.00008849256, -691316.6, -50204.37, 0.0, 10.000009, 9.929573 
2.0850003e+3, 2.4450341e+2, -602992.6, -667018.3, 0.01879554, 0.0000024820147, 0.00007500678, -602992.6, -59125.98, 0.0, 10.000009, 9.916132 
2.0850003e+3, 2.5441965e+2, -504240.03, -568342.9, -0.017079823, 0.0000024758476, -0.00010645979, -504240.03, -57552.68, 0.0, 10.000009, 9.916032 
2.0850003e+3, 2.6432884e+2, -416004.7, -490987.5, 0.017550329, 0.000002469856, 0.00014084419, -416004.7, -66427.164, 0.0, 10.000009, 9.90196 
2.0850003e+3, 2.742313e+2, -316719.53, -391374.47, -0.0168929, 0.0000024640856, -0.0002032287, -316719.53, -64186.65, 0.0, 10.000009, 9.902381 
2.0850003e+3, 2.841256e+2, -230246.31, -318080.97, 0.015475827, 0.0000024590881, 0.00022923268, -230246.31, -74677.43, 0.0, 10.000009, 9.885435 
2.0850003e+3, 2.9401213e+2, -130540.24, -217764.78, -0.015472977, 0.0000024551452, -0.00025317643, -130540.24, -71858.9, 0.0, 10.000009, 9.886213 
2.0850003e+3, 3.0392656e+2, -40796.35, -84750.03, 0.018539768, 0.0000024510775, 0.00017327089, -40796.35, -40796.35, 0.0, 10.000009, 9.942169 
2.0850003e+3, 3.138706e+2, -39718.36, -82511.1, -0.011343867, 0.000002446819, -0.000055056968, -39718.36, -39718.36, 0.0, 10.000009, 9.94368 
2.0950003e+3, 1.2499341e+2, -1719935.8, -1724224.0, 0.011789466, 0.0000026802757, 0.000018397834, -1719935.8, -4871.1885, 0.0, 10.000009, 9.994323 
2.0950003e+3, 1.3498767e+2, -1622555.4, -1627434.3, -0.026530927, 0.0000026586324, -0.0000681419, -1622555.4, -5434.4756, 0.0, 10.000009, 9.993541 
2.0950003e+3, 1.449752e+2, -1534454.0, -1548145.6, 0.009429496, 0.0000026437556, 0.00007181673, -1534454.0, -15210.968, 0.0, 10.000009, 9.98186 
2.0950003e+3, 1.5495709e+2, -1436726.4, -1450821.4, -0.03203518, 0.0000026351515, -0.000056412027, -1436726.4, -15305.864, 0.0, 10.000009, 9.981329 
2.0950003e+3, 1.6493233e+2, -1348675.5, -1371951.8, 0.007814225, 0.0000026206897, 0.000047777485, -1348675.5, -25012.371, 0.0, 10.000009, 9.969244 
2.0950003e+3, 1.749016e+2, -1250717.6, -1274309.6, -0.02910709, 0.0000026002472, -0.00007332708, -1250717.6, -24753.428, 0.0, 10.000009, 9.96883 
2.0950003e+3, 1.8486425e+2, -1162636.8, -1195719.6, 0.009403948, 0.000002590456, 0.00006665385, -1162636.8, -34306.49, 0.0, 10.000009, 9.956391 
2.0950003e+3, 1.9482069e+2, -1064487.0, -1097832.5, -0.0294706, 0.0000025918082, -0.000057208657, -1064487.0, -33729.875, 0.0, 10.000009, 9.956048 
2.0950003e+3, 2.0477046e+2, -976323.1, -1019434.56, 0.007606367, 0.0000025830545, 0.00006848742, -976323.1, -43073.63, 0.0, 10.000009, 9.943286 
2.0950003e+3, 2.1471378e+2, -878036.2, -921409.5, -0.030490514, 0.0000025633537, -0.00012643207, -878036.2, -42231.273, 0.0, 10.000009, 9.9429455 
2.0950003e+3, 2.2465041e+2, -789750.1, -843144.5, 0.0064705024, 0.0000025513427, 0.00012125103, -789750.1, -51324.176, 0.0, 10.000009, 9.929904 
2.0950003e+3, 2.3458038e+2, -691316.7, -744966.1, -0.027394956, 0.0000025480383, -0.00008848212, -691316.7, -50204.457, 0.0, 10.000009, 9.929572 
2.0950003e+3, 2.4450341e+2, -602992.7, -667018.5, 0.009715682, 0.0000025435972, 0.0000750136, -602992.7, -59126.07, 0.0, 10.000009, 9.916132 
2.0950003e+3, 2.5441965e+2, -504240.13, -568343.06, -0.026067952, 0.0000025377872, -0.00010645873, -504240.13, -57552.766, 0.0, 10.000009, 9.916032 
2.0950003e+3, 2.6432884e+2, -416004.75, -490987.66, 0.010032083, 0.0000025306708, 0.00014084442, -416004.75, -66427.25, 0.0, 10.000009, 9.90196 
2.0950003e+3, 2.742313e+2, -316719.6, -391374.63, -0.024312908, 0.000002521893, -0.00020322301, -316719.6, -64186.73, 0.0, 10.000009, 9.902381 
2.0950003e+3, 2.841256e+2, -230246.39, -318081.13, 0.009921355, 0.0000025167965, 0.00022924211, -230246.39, -74677.51, 0.0, 10.000009, 9.885435 
2.0950003e+3, 2.9401213e+2, -130540.31, -217764.94, -0.020859785, 0.0000025167433, -0.00025316566, -130540.31, -71858.97, 0.0, 10.000009, 9.886213 
2.0950003e+3, 3.0392656e+2, -40796.42, -84750.18, 0.0141942, 0.0000025126606, 0.00017327715, -40796.42, -40796.42, 0.0, 10.000009, 9.942169 
2.0950003e+3, 3.138706e+2, -39718.43, -82511.25, -0.015567681, 0.000002502553, -0.000055063818, -39718.43, -39718.43, 0.0, 10.000009, 9.94368 
2.1050003e+3, 1.2499341e+2, -1719935.0, -1724223.8, 0.03405377, 0.0000027496476, 0.000018424937, -1719935.0, -4870.548, 0.0, 10.00001, 9.994323 
2.1050003e+3, 1.3498767e+2, -1622554.8, -1627434.1, -0.011975972, 0.00000271979, -0.000068154426, -1622554.8, -5433.8564, 0.0, 10.00001, 9.993541 
2.1050003e+3, 1.449752e+2, -1534453.4, -1548145.4, 0.023538483, 0.0000027026401, 0.000071844144, -1534453.4, -15210.353, 0.0, 10.00001, 9.98186 
2.1050003e+3, 1.5495709e+2, -1436725.8, -1450821.1, -0.012639535, 0.00000269773, -0.00005639599, -1436725.8, -15305.251, 0.0, 10.00001, 9.981329 
2.1050003e+3, 1.6493233e+2, -1348674.9, -1371951.5, 0.027358234, 0.0000026856546, 0.000047787293, -1348674.9, -25011.762, 0.0, 10.000009, 9.969244 
2.1050003e+3, 1.749016e+2, -1250717.0, -1274309.5, -0.016336141, 0.000002666264, -0.00007331823, -1250717.0, -24752.82, 0.0, 10.000009, 9.96883 
2.1050003e+3, 1.8486427e+2, -1162636.1, -1195719.4, 0.023034291, 0.0000026544367, 0.000066662964, -1162636.1, -34305.88, 0.0, 10.000009, 9.956391 
2.1050003e+3, 1.9482069e+2, -1064486.4, -1097832.3, -0.015323575, 0.0000026505215, -0.000057197976, -1064486.4, -33729.277, 0.0, 10.000009, 9.956048 
2.1050003e+3, 2.0477046e+2, -976322.5, -1019434.4, 0.021886311, 0.0000026413438, 0.00006849806, -976322.5, -43073.04, 0.0, 10.000009, 9.943286 
2.1050003e+3, 2.1471378e+2, -878035.6, -921409.3, -0.016127404, 0.0000026264652, -0.00012642318, -878035.6, -42230.684, 0.0, 10.000009, 9.9429455 
2.1050003e+3, 2.2465041e+2, -789749.56, -843144.3, 0.021134524, 0.0000026160951, 0.000121259094, -789749.56, -51323.586, 0.0, 10.000009, 9.929904 
2.1050003e+3, 2.3458038e+2, -691316.1, -744965.94, -0.017911311, 0.000002610829, -0.000088473826, -691316.1, -50203.87, 0.0, 10.000009, 9.929572 
2.1050003e+3, 2.4450341e+2, -602992.1, -667018.3, 0.018056476, 0.0000026048772, 0.00007502077, -602992.1, -59125.49, 0.0, 10.000009, 9.916132 
2.1050003e+3, 2.5441965e+2, -504239.53, -568342.9, -0.018729849, 0.0000025980994, -0.0001064543, -504239.53, -57552.188, 0.0, 10.000009, 9.916032 
2.1050003e+3, 2.6432884e+2, -416004.2, -490987.5, 0.01782042, 0.0000025907368, 0.00014084826, -416004.2, -66426.67, 0.0, 10.000009, 9.90196 
2.1050003e+3, 2.742313e+2, -316719.03, -391374.44, -0.016394252, 0.0000025826293, -0.00020321699, -316719.03, -64186.16, 0.0, 10.000009, 9.902381 
2.1050003e+3, 2.841256e+2, -230245.81, -318080.94, 0.018841723, 0.0000025777917, 0.00022924921, -230245.81, -74676.94, 0.0, 10.000009, 9.885434 
2.1050003e+3, 2.9401213e+2, -130539.74, -217764.77, -0.014690599, 0.0000025774302, -0.000253159, -130539.74, -71858.41, 0.0, 10.000009, 9.886213 
2.1050003e+3, 3.0392656e+2, -40795.863, -84750.03, 0.018698603, 0.0000025734614, 0.00017328149, -40795.863, -40795.863, 0.0, 10.000009, 9.942168 
2.1050003e+3, 3.138706e+2, -39717.867, -82511.09, -0.014773065, 0.0000025641, -0.000055064647, -39717.867, -39717.867, 0.0, 10.000009, 9.94368 
2.1150002e+3, 1.2499342e+2, -1719935.1, -1724224.0, 0.012482303, 0.0000028248821, 0.000018454684, -1719935.1, -4870.676, 0.0, 10.00001, 9.994323 
2.1150002e+3, 1.3498767e+2, -1622554.9, -1627434.3, -0.03355162, 0.0000027831109, -0.00006816093, -1622554.9, -5433.982, 0.0, 10.00001, 9.99354 
2.1150002e+3, 1.449752e+2, -1534453.4, -1548145.5, 0.004996144, 0.0000027605786, 0.00007187651, -1534453.4, -15210.455, 0.0, 10.00001, 9.98186 
2.1150002e+3, 1.5495709e+2, -1436725.9, -1450821.3, -0.03117767, 0.000002756845, -0.000056384335, -1436725.9, -15305.351, 0.0, 10.00001, 9.981329 
2.1150002e+3, 1.6493234e+2, -1348675.0, -1371951.8, 0.009694302, 0.0000027503436, 0.000047792295, -1348675.0, -25011.877, 0.0, 10.000009, 9.969244 
2.1150002e+3, 1.749016e+2, -1250717.1, -1274309.6, -0.033995587, 0.000002741017, -0.00007330552, -1250717.1, -24752.934, 0.0, 10.000009, 9.96883 
2.1150002e+3, 1.8486427e+2, -1162636.1, -1195719.5, 0.008338639, 0.0000027255776, 0.00006667802, -1162636.1, -34305.98, 0.0, 10.000009, 9.956391 
2.1150002e+3, 1.9482069e+2, -1064486.5, -1097832.5, -0.029985355, 0.00000270374, -0.000057186193, -1064486.5, -33729.375, 0.0, 10.000009, 9.956048 
2.1150002e+3, 2.0477046e+2, -976322.6, -1019434.5, 0.007843391, 0.0000026928274, 0.000068506415, -976322.6, -43073.137, 0.0, 10.000009, 9.943286 
2.1150002e+3, 2.147138e+2, -878035.7, -921409.44, -0.030157873, 0.000002693746, -0.00012641844, -878035.7, -42230.78, 0.0, 10.000009, 9.9429455 
2.1150002e+3, 2.2465041e+2, -789749.6, -843144.44, 0.009538017, 0.000002688588, 0.00012126297, -789749.6, -51323.684, 0.0, 10.000009, 9.929903 
2.1150002e+3, 2.3458038e+2, -691316.2, -744966.06, -0.029428529, 0.0000026765454, -0.000088467685, -691316.2, -50203.97, 0.0, 10.000009, 9.929572 
2.1150002e+3, 2.4450341e+2, -602992.2, -667018.44, 0.0089883795, 0.0000026658547, 0.00007502827, -602992.2, -59125.58, 0.0, 10.000009, 9.916132 
2.1150002e+3, 2.5441965e+2, -504239.63, -568343.06, -0.027680572, 0.0000026567845, -0.000106446525, -504239.63, -57552.277, 0.0, 10.000009, 9.916032 
2.1150002e+3, 2.6432884e+2, -416004.25, -490987.66, 0.009389248, 0.0000026500538, 0.00014085571, -416004.25, -66426.76, 0.0, 10.000009, 9.90196 
2.1150002e+3, 2.742313e+2, -316719.1, -391374.6, -0.024791026, 0.0000026462944, -0.00020321064, -316719.1, -64186.242, 0.0, 10.000009, 9.902381 
2.1150002e+3, 2.841256e+2, -230245.89, -318081.1, 0.0128806, 0.000002642074, 0.00022925399, -230245.89, -74677.02, 0.0, 10.000009, 9.885434 
2.1150002e+3, 2.9401213e+2, -130539.82, -217764.92, -0.02043271, 0.0000026372059, -0.00025315644, -130539.82, -71858.484, 0.0, 10.000009, 9.886213 
2.1150002e+3, 3.0392656e+2, -40795.94, -84750.195, 0.015494337, 0.00000263348, 0.00017328387, -40795.94, -40795.94, 0.0, 10.000009, 9.942168 
2.1150002e+3, 3.138706e+2, -39717.945, -82511.26, -0.017679708, 0.0000026314597, -0.000055059452, -39717.945, -39717.945, 0.0, 10.000009, 9.94368 
2.1250002e+3, 1.2499342e+2, -1719934.5, -1724223.8, 0.03315509, 0.0000028922152, 0.00001847582, -1719934.5, -4870.0107, 0.0, 10.00001, 9.994323 
2.1250002e+3, 1.3498767e+2, -1622554.1, -1627434.0, -0.008328418, 0.0000028513136, -0.000068164256, -1622554.1, -5433.329, 0.0, 10.00001, 9.99354 
2.1250002e+3, 1.449752e+2, -1534452.8, -1548145.3, 0.031011317, 0.0000028278596, 0.00007191529, -1534452.8, -15209.807, 0.0, 10.00001, 9.98186 
2.1250002e+3, 1.5495709e+2, -1436725.3, -1450821.1, -0.015174668, 0.00000282139, -0.00005637545, -1436725.3, -15304.712, 0.0, 10.00001, 9.981328 
2.1250002e+3, 1.6493234e+2, -1348674.4, -1371951.5, 0.025055341, 0.000002814589, 0.000047793008, -1348674.4, -25011.24, 0.0, 10.00001, 9.969244 
2.1250002e+3, 1.749016e+2, -1250716.4, -1274309.4, -0.0151723055, 0.0000028074508, -0.00007329079, -1250716.4, -24752.291, 0.0, 10.00001, 9.96883 
2.1250002e+3, 1.8486427e+2, -1162635.5, -1195719.3, 0.026676433, 0.000002792259, 0.00006669638, -1162635.5, -34305.34, 0.0, 10.00001, 9.956391 
2.1250002e+3, 1.9482069e+2, -1064485.9, -1097832.3, -0.016603228, 0.0000027686372, -0.000057175082, -1064485.9, -33728.754, 0.0, 10.00001, 9.956048 
2.1250002e+3, 2.0477046e+2, -976322.0, -1019434.3, 0.02084946, 0.000002757149, 0.00006851343, -976322.0, -43072.52, 0.0, 10.00001, 9.943286 
2.1250002e+3, 2.147138e+2, -878035.06, -921409.25, -0.019353645, 0.0000027588007, -0.00012641208, -878035.06, -42230.16, 0.0, 10.00001, 9.9429455 
2.1250002e+3, 2.2465043e+2, -789749.0, -843144.25, 0.02019678, 0.0000027535436, 0.000121269484, -789749.0, -51323.066, 0.0, 10.00001, 9.929903 
2.1250002e+3, 2.3458038e+2, -691315.56, -744965.9, -0.019988626, 0.0000027404596, -0.0000884601, -691315.56, -50203.35, 0.0, 10.00001, 9.929572 
2.1250002e+3, 2.4450341e+2, -602991.56, -667018.25, 0.019026991, 0.0000027292365, 0.000075036936, -602991.56, -59124.97, 0.0, 10.00001, 9.916132 
2.1250002e+3, 2.5441965e+2, -504239.0, -568342.9, -0.018116785, 0.000002720243, -0.00010643678, -504239.0, -57551.676, 0.0, 10.00001, 9.916032 
2.1250002e+3, 2.6432884e+2, -416003.66, -490987.47, 0.019359253, 0.000002713878, 0.00014086413, -416003.66, -66426.164, 0.0, 10.00001, 9.90196 
2.1250002e+3, 2.7423134e+2, -316718.5, -391374.4, -0.018033918, 0.000002710851, -0.00020320664, -316718.5, -64185.645, 0.0, 10.00001, 9.902381 
2.1250002e+3, 2.841256e+2, -230245.28, -318080.94, 0.018246852, 0.000002706506, 0.00022925518, -230245.28, -74676.42, 0.0, 10.00001, 9.885434 
2.1250002e+3, 2.9401213e+2, -130539.22, -217764.75, -0.018000906, 0.0000027003393, -0.0002531559, -130539.22, -71857.89, 0.0, 10.00001, 9.886213 
2.1250002e+3, 3.0392656e+2, -40795.35, -84750.03, 0.018869523, 0.0000026961786, 0.00017328555, -40795.35, -40795.35, 0.0, 10.00001, 9.942168 
2.1250002e+3, 3.138706e+2, -39717.36, -82511.09, -0.011995648, 0.000002695016, -0.000055054017, -39717.36, -39717.36, 0.0, 10.00001, 9.94368 
2.1350005e+3, 1.2499342e+2, -1719934.6, -1724223.9, 0.009304458, 0.000002951648, 0.000018488356, -1719934.6, -4870.129, 0.0, 10.00001, 9.994323 
2.1350005e+3, 1.3498767e+2, -1622554.3, -1627434.3, -0.03218421, 0.0000029243981, -0.00006816441, -1622554.3, -5433.446, 0.0, 10.00001, 9.99354 
2.1350002e+3, 1.449752e+2, -1534452.9, -1548145.5, 0.010898677, 0.0000029044822, 0.000071960494, -1534452.9, -15209.933, 0.0, 10.00001, 9.98186 
2.1350002e+3, 1.5495709e+2, -1436725.4, -1450821.3, -0.03528162, 0.000002891364, -0.00005636934, -1436725.4, -15304.835, 0.0, 10.00001, 9.981328 
2.1350002e+3, 1.6493234e+2, -1348674.4, -1371951.8, 0.0093595665, 0.000002878391, 0.00004778943, -1348674.4, -25011.348, 0.0, 10.00001, 9.969244 
2.1350002e+3, 1.7490162e+2, -1250716.5, -1274309.6, -0.03084529, 0.000002865567, -0.00007327402, -1250716.5, -24752.396, 0.0, 10.00001, 9.96883 
2.1350002e+3, 1.8486427e+2, -1162635.6, -1195719.5, 0.008204653, 0.0000028544812, 0.00006671806, -1162635.6, -34305.453, 0.0, 10.00001, 9.95639 
2.1350002e+3, 1.948207e+2, -1064486.0, -1097832.5, -0.035107624, 0.000002845212, -0.000057164656, -1064486.0, -33728.867, 0.0, 10.00001, 9.956048 
2.1350002e+3, 2.0477046e+2, -976322.06, -1019434.5, 0.008169001, 0.0000028343075, 0.00006851912, -976322.06, -43072.62, 0.0, 10.00001, 9.943286 
2.1350002e+3, 2.147138e+2, -878035.1, -921409.44, -0.031914294, 0.00000282163, -0.0001264041, -878035.1, -42230.26, 0.0, 10.00001, 9.942945 
2.1350002e+3, 2.2465043e+2, -789749.06, -843144.44, 0.008394088, 0.0000028109632, 0.00012127863, -789749.06, -51323.168, 0.0, 10.00001, 9.929903 
2.1350002e+3, 2.3458038e+2, -691315.7, -744966.06, -0.03176679, 0.0000028025718, -0.000088451074, -691315.7, -50203.45, 0.0, 10.00001, 9.929572 
2.1350002e+3, 2.4450341e+2, -602991.7, -667018.44, 0.0077688415, 0.0000027950223, 0.00007504676, -602991.7, -59125.06, 0.0, 10.00001, 9.916132 
2.1350002e+3, 2.5441965e+2, -504239.1, -568343.0, -0.029350422, 0.0000027884741, -0.00010642508, -504239.1, -57551.766, 0.0, 10.00001, 9.916032 
2.1350002e+3, 2.6432884e+2, -416003.72, -490987.66, 0.011870931, 0.000002782209, 0.0001408735, -416003.72, -66426.25, 0.0, 10.00001, 9.90196 
2.1350002e+3, 2.7423134e+2, -316718.6, -391374.6, -0.025271544, 0.0000027762992, -0.00020320495, -316718.6, -64185.734, 0.0, 10.00001, 9.90238 
2.1350002e+3, 2.841256e+2, -230245.38, -318081.1, 0.012201158, 0.0000027710885, 0.0002292528, -230245.38, -74676.51, 0.0, 10.00001, 9.885434 
2.1350002e+3, 2.9401213e+2, -130539.305, -217764.92, -0.023939537, 0.0000027668302, -0.00025315737, -130539.305, -71857.98, 0.0, 10.00001, 9.886212 
2.1350002e+3, 3.0392656e+2, -40795.426, -84750.19, 0.0144545445, 0.000002761556, 0.00017328652, -40795.426, -40795.426, 0.0, 10.00001, 9.942168 
2.1350002e+3, 3.138706e+2, -39717.434, -82511.25, -0.016232397, 0.00000275477, -0.000055048346, -39717.434, -39717.434, 0.0, 10.00001, 9.94368 
2.1450005e+3, 1.2499342e+2, -1719933.9, -1724223.6, 0.036134187, 0.0000030172516, 0.000018511579, -1719933.9, -4869.452, 0.0, 10.0000105, 9.994322 
2.1450005e+3, 1.3498767e+2, -1622553.5, -1627434.0, -0.011259598, 0.0000029951152, -0.00006817535, -1622553.5, -5432.756, 0.0, 10.0000105, 9.99354 
2.1450005e+3, 1.4497522e+2, -1534452.1, -1548145.3, 0.030910967, 0.000002977176, 0.00007199594, -1534452.1, -15209.242, 0.0, 10.0000105, 9.98186 
2.1450005e+3, 1.5495709e+2, -1436724.6, -1450821.0, -0.014407557, 0.0000029628666, -0.000056353347, -1436724.6, -15304.15, 0.0, 10.0000105, 9.981328 
2.1450005e+3, 1.6493234e+2, -1348673.8, -1371951.5, 0.030637477, 0.0000029469486, 0.000047797075, -1348673.8, -25010.672, 0.0, 10.00001, 9.969244 
2.1450005e+3, 1.7490162e+2, -1250715.9, -1274309.4, -0.0149625335, 0.000002929389, -0.00007326338, -1250715.9, -24751.742, 0.0, 10.00001, 9.96883 
2.1450002e+3, 1.8486427e+2, -1162634.9, -1195719.3, 0.023309521, 0.0000029195091, 0.0000667296, -1162634.9, -34304.8, 0.0, 10.00001, 9.95639 
2.1450002e+3, 1.948207e+2, -1064485.3, -1097832.3, -0.018782666, 0.0000029176624, -0.000057154404, -1064485.3, -33728.2, 0.0, 10.00001, 9.956048 
2.1450002e+3, 2.0477046e+2, -976321.4, -1019434.25, 0.025456486, 0.000002907296, 0.000068529545, -976321.4, -43071.957, 0.0, 10.00001, 9.943286 
2.1450002e+3, 2.147138e+2, -878034.5, -921409.2, -0.019250378, 0.000002887701, -0.00012639191, -878034.5, -42229.61, 0.0, 10.00001, 9.942945 
2.1450002e+3, 2.2465043e+2, -789748.44, -843144.25, 0.020675916, 0.0000028743902, 0.00012129029, -789748.44, -51322.523, 0.0, 10.00001, 9.929903 
2.1450002e+3, 2.3458038e+2, -691315.0, -744965.9, -0.018664315, 0.0000028681945, -0.000088442546, -691315.0, -50202.816, 0.0, 10.00001, 9.929572 
2.1450002e+3, 2.4450341e+2, -602991.0, -667018.25, 0.021069413, 0.0000028623665, 0.000075052914, -602991.0, -59124.426, 0.0, 10.00001, 9.916132 
2.1450002e+3, 2.5441965e+2, -504238.44, -568342.8, -0.020564195, 0.0000028569682, -0.00010642038, -504238.44, -57551.13, 0.0, 10.00001, 9.916032 
2.1450002e+3, 2.6432884e+2, -416003.1, -490987.47, 0.019498684, 0.0000028504894, 0.000140878, -416003.1, -66425.62, 0.0, 10.00001, 9.90196 
2.1450002e+3, 2.7423134e+2, -316717.94, -391374.4, -0.01964218, 0.0000028426325, -0.00020319906, -316717.94, -64185.105, 0.0, 10.00001, 9.90238 
2.1450002e+3, 2.841256e+2, -230244.73, -318080.9, 0.0187816, 0.0000028367763, 0.00022925936, -230244.73, -74675.89, 0.0, 10.00001, 9.885434 
2.1450002e+3, 2.9401213e+2, -130538.67, -217764.75, -0.016255608, 0.0000028336622, -0.0002531511, -130538.67, -71857.36, 0.0, 10.00001, 9.886212 
2.1450002e+3, 3.0392656e+2, -40794.81, -84750.016, 0.021442955, 0.0000028280722, 0.00017329105, -40794.81, -40794.81, 0.0, 10.00001, 9.942168 
2.1450002e+3, 3.138706e+2, -39716.82, -82511.086, -0.01603854, 0.0000028187867, -0.000055047654, -39716.82, -39716.82, 0.0, 10.00001, 9.94368 
2.1550004e+3, 1.2499343e+2, -1719934.0, -1724223.9, 0.015871415, 0.0000030890255, 0.0000185455, -1719934.0, -4869.586, 0.0, 10.0000105, 9.994322 
2.1550004e+3, 1.3498767e+2, -1622553.6, -1627434.1, -0.03152635, 0.0000030634658, -0.00006819709, -1622553.6, -5432.8867, 0.0, 10.0000105, 9.99354 
2.1550004e+3, 1.4497522e+2, -1534452.3, -1548145.5, 0.009963446, 0.0000030459419, 0.000072021634, -1534452.3, -15209.367, 0.0, 10.0000105, 9.98186 
2.1550004e+3, 1.5495709e+2, -1436724.8, -1450821.3, -0.035356414, 0.0000030358974, -0.000056327466, -1436724.8, -15304.273, 0.0, 10.0000105, 9.981328 
2.1550004e+3, 1.6493234e+2, -1348673.9, -1371951.6, 0.010372816, 0.0000030202614, 0.000047815945, -1348673.9, -25010.793, 0.0, 10.00001, 9.969243 
2.1550004e+3, 1.7490162e+2, -1250716.0, -1274309.6, -0.035223942, 0.0000029989167, -0.00007325885, -1250716.0, -24751.861, 0.0, 10.00001, 9.96883 
2.1550004e+3, 1.8486427e+2, -1162635.0, -1195719.5, 0.008493658, 0.000002987342, 0.00006673102, -1162635.0, -34304.91, 0.0, 10.00001, 9.95639 
2.1550004e+3, 1.948207e+2, -1064485.4, -1097832.4, -0.03353596, 0.0000029859887, -0.000057144334, -1064485.4, -33728.31, 0.0, 10.00001, 9.956047 
2.1550004e+3, 2.0477046e+2, -976321.5, -1019434.44, 0.009871458, 0.0000029761154, 0.00006854471, -976321.5, -43072.07, 0.0, 10.00001, 9.943286 
2.1550004e+3, 2.147138e+2, -878034.56, -921409.4, -0.03485281, 0.000002957013, -0.00012637551, -878034.56, -42229.723, 0.0, 10.00001, 9.942945 
2.1550004e+3, 2.2465043e+2, -789748.5, -843144.4, 0.0076739867, 0.0000029438233, 0.000121304474, -789748.5, -51322.62, 0.0, 10.00001, 9.929903 
2.1550004e+3, 2.3458038e+2, -691315.1, -744966.06, -0.03158173, 0.0000029373277, -0.00008843452, -691315.1, -50202.91, 0.0, 10.00001, 9.929572 
2.1550004e+3, 2.4450341e+2, -602991.1, -667018.44, 0.0112460265, 0.0000029312696, 0.0000750554, -602991.1, -59124.527, 0.0, 10.00001, 9.916131 
2.1550004e+3, 2.5441965e+2, -504238.53, -568343.0, -0.030239217, 0.000002925725, -0.00010642268, -504238.53, -57551.23, 0.0, 10.00001, 9.916032 
2.1550003e+3, 2.6432884e+2, -416003.2, -490987.63, 0.010720112, 0.0000029187195, 0.00014087762, -416003.2, -66425.71, 0.0, 10.00001, 9.90196 
2.1550003e+3, 2.7423134e+2, -316718.03, -391374.6, -0.028361056, 0.0000029098508, -0.00020318897, -316718.03, -64185.2, 0.0, 10.00001, 9.90238 
2.1550003e+3, 2.841256e+2, -230244.81, -318081.1, 0.012368433, 0.0000029035696, 0.00022927487, -230244.81, -74675.98, 0.0, 10.00001, 9.885434 
2.1550003e+3, 2.9401213e+2, -130538.76, -217764.9, -0.022461582, 0.0000029008352, -0.0002531371, -130538.76, -71857.445, 0.0, 10.00001, 9.886212 
2.1550003e+3, 3.0392656e+2, -40794.9, -84750.195, 0.017127447, 0.0000028957265, 0.00017329914, -40794.9, -40794.9, 0.0, 10.00001, 9.942168 
2.1550003e+3, 3.138706e+2, -39716.906, -82511.266, -0.020132469, 0.0000028870659, -0.000055051936, -39716.906, -39716.906, 0.0, 10.00001, 9.94368 
2.1650004e+3, 1.2499343e+2, -1719933.3, -1724223.6, 0.03700395, 0.000003167154, 0.000018575653, -1719933.3, -4868.853, 0.0, 10.0000105, 9.994322 
2.1650004e+3, 1.3498768e+2, -1622552.9, -1627433.9, -0.012790903, 0.0000031336058, -0.00006821059, -1622552.9, -5432.1724, 0.0, 10.0000105, 9.99354 
2.1650004e+3, 1.4497522e+2, -1534451.5, -1548145.3, 0.028790584, 0.00000311364, 0.000072055285, -1534451.5, -15208.655, 0.0, 10.0000105, 9.981859 
2.1650004e+3, 1.5495709e+2, -1436724.0, -1450821.0, -0.016081963, 0.0000031067207, -0.000056310513, -1436724.0, -15303.564, 0.0, 10.0000105, 9.981328 
2.1650004e+3, 1.6493234e+2, -1348673.1, -1371951.4, 0.029804714, 0.0000030939536, 0.000047825346, -1348673.1, -25010.09, 0.0, 10.0000105, 9.969243 
2.1650004e+3, 1.7490162e+2, -1250715.3, -1274309.4, -0.017754508, 0.0000030752167, -0.00007324765, -1250715.3, -24751.16, 0.0, 10.0000105, 9.968829 
2.1650004e+3, 1.8486427e+2, -1162634.3, -1195719.3, 0.027207278, 0.0000030610943, 0.000066743, -1162634.3, -34304.215, 0.0, 10.0000105, 9.95639 
2.1650004e+3, 1.948207e+2, -1064484.6, -1097832.1, -0.019258013, 0.0000030517979, -0.000057132653, -1064484.6, -33727.62, 0.0, 10.0000105, 9.956047 
2.1650004e+3, 2.0477046e+2, -976320.8, -1019434.25, 0.023156062, 0.000003041147, 0.000068555855, -976320.8, -43071.39, 0.0, 10.0000105, 9.943286 
2.1650004e+3, 2.147138e+2, -878033.9, -921409.2, -0.019587021, 0.0000030290282, -0.00012636514, -878033.9, -42229.043, 0.0, 10.0000105, 9.942945 
2.1650004e+3, 2.2465043e+2, -789747.8, -843144.2, 0.023488905, 0.0000030184249, 0.000121313846, -789747.8, -51321.945, 0.0, 10.0000105, 9.929903 
2.1650004e+3, 2.3458038e+2, -691314.44, -744965.8, -0.022154806, 0.0000030095357, -0.000088426386, -691314.44, -50202.24, 0.0, 10.0000105, 9.929572 
2.1650004e+3, 2.4450341e+2, -602990.44, -667018.2, 0.01995552, 0.0000030013675, 0.00007506236, -602990.44, -59123.855, 0.0, 10.0000105, 9.916131 
2.1650004e+3, 2.5441965e+2, -504237.84, -568342.8, -0.021110853, 0.0000029940563, -0.00010641684, -504237.84, -57550.566, 0.0, 10.0000105, 9.916031 
2.1650004e+3, 2.6432884e+2, -416002.5, -490987.44, 0.020926258, 0.0000029864777, 0.00014088328, -416002.5, -66425.055, 0.0, 10.0000105, 9.90196 
2.1650004e+3, 2.7423134e+2, -316717.38, -391374.38, -0.019276042, 0.0000029785542, -0.00020318234, -316717.38, -64184.543, 0.0, 10.0000105, 9.90238 
2.1650004e+3, 2.8412563e+2, -230244.16, -318080.88, 0.020888941, 0.000002972612, 0.00022928201, -230244.16, -74675.32, 0.0, 10.0000105, 9.885434 
2.1650004e+3, 2.9401213e+2, -130538.1, -217764.72, -0.01870797, 0.00000296938, -0.00025313013, -130538.1, -71856.79, 0.0, 10.0000105, 9.886212 
2.1650004e+3, 3.0392656e+2, -40794.25, -84750.02, 0.020718956, 0.0000029648572, 0.00017330417, -40794.25, -40794.25, 0.0, 10.0000105, 9.942168 
2.1650004e+3, 3.138706e+2, -39716.258, -82511.086, -0.014926322, 0.0000029583987, -0.00005505153, -39716.258, -39716.258, 0.0, 10.0000105, 9.94368 
2.1750005e+3, 1.2499343e+2, -1719933.4, -1724223.9, 0.013173663, 0.0000032516361, 0.000018602052, -1719933.4, -4868.993, 0.0, 10.0000105, 9.994322 
2.1750005e+3, 1.3498768e+2, -1622553.0, -1627434.1, -0.036625862, 0.0000032055354, -0.00006821585, -1622553.0, -5432.3096, 0.0, 10.0000105, 9.99354 
2.1750005e+3, 1.4497522e+2, -1534451.6, -1548145.4, 0.0076009072, 0.000003180271, 0.0000720969, -1534451.6, -15208.78, 0.0, 10.0000105, 9.981859 
2.1750005e+3, 1.549571e+2, -1436724.1, -1450821.1, -0.037268, 0.0000031753366, -0.00005630248, -1436724.1, -15303.687, 0.0, 10.0000105, 9.981328 
2.1750005e+3, 1.6493234e+2, -1348673.3, -1371951.6, 0.00955518, 0.0000031680254, 0.000047825288, -1348673.3, -25010.217, 0.0, 10.0000105, 9.969243 
2.1750005e+3, 1.7490162e+2, -1250715.4, -1274309.5, -0.037999403, 0.0000031582888, -0.00007322976, -1250715.4, -24751.285, 0.0, 10.0000105, 9.968829 
2.1750005e+3, 1.8486427e+2, -1162634.4, -1195719.4, 0.010222045, 0.000003140765, 0.00006676554, -1162634.4, -34304.336, 0.0, 10.0000105, 9.95639 
2.1750005e+3, 1.948207e+2, -1064484.8, -1097832.4, -0.03620594, 0.0000031150905, -0.00005711936, -1064484.8, -33727.742, 0.0, 10.0000105, 9.956047 
2.1750005e+3, 2.0477048e+2, -976320.9, -1019434.44, 0.0076829996, 0.000003102392, 0.000068563, -976320.9, -43071.5, 0.0, 10.0000105, 9.943286 
2.1750005e+3, 2.147138e+2, -878034.0, -921409.4, -0.035030097, 0.0000031037455, -0.0001263608, -878034.0, -42229.152, 0.0, 10.0000105, 9.942945 
2.1750005e+3, 2.2465043e+2, -789747.94, -843144.4, 0.010349225, 0.0000030981937, 0.000121318415, -789747.94, -51322.06, 0.0, 10.0000105, 9.929903 
2.1750005e+3, 2.3458038e+2, -691314.5, -744966.0, -0.035219457, 0.0000030848187, -0.00008841814, -691314.5, -50202.348, 0.0, 10.0000105, 9.929572 
2.1750005e+3, 2.4450341e+2, -602990.5, -667018.4, 0.009039697, 0.0000030726603, 0.000075073774, -602990.5, -59123.96, 0.0, 10.0000105, 9.916131 
2.1750005e+3, 2.5441965e+2, -504237.94, -568343.0, -0.03192391, 0.000003061962, -0.00010640285, -504237.94, -57550.664, 0.0, 10.0000105, 9.916031 
2.1750005e+3, 2.6432884e+2, -416002.6, -490987.63, 0.01199215, 0.0000030537642, 0.00014089496, -416002.6, -66425.16, 0.0, 10.0000105, 9.901959 
2.1750005e+3, 2.7423134e+2, -316717.47, -391374.56, -0.028084628, 0.0000030487427, -0.00020317914, -316717.47, -64184.64, 0.0, 10.0000105, 9.90238 
2.1750005e+3, 2.8412563e+2, -230244.25, -318081.06, 0.014120547, 0.0000030439035, 0.0002292808, -230244.25, -74675.414, 0.0, 10.0000105, 9.885434 
2.1750005e+3, 2.9401213e+2, -130538.19, -217764.9, -0.025292994, 0.0000030392962, -0.0002531301, -130538.19, -71856.88, 0.0, 10.0000105, 9.886212 
2.1750005e+3, 3.0392656e+2, -40794.336, -84750.195, 0.016945623, 0.000003035464, 0.00017330617, -40794.336, -40794.336, 0.0, 10.0000105, 9.942168 
2.1750005e+3, 3.138706e+2, -39716.344, -82511.266, -0.018370066, 0.0000030327844, -0.000055046432, -39716.344, -39716.344, 0.0, 10.0000105, 9.943679 
2.1850005e+3, 1.24993436e+2, -1719932.5, -1724223.5, 0.03761986, 0.0000033274619, 0.00001862584, -1719932.5, -4868.229, 0.0, 10.000011, 9.994322 
2.1850005e+3, 1.3498768e+2, -1622552.3, -1627433.9, -0.01161188, 0.000003282936, -0.000068221656, -1622552.3, -5431.559, 0.0, 10.000011, 9.99354 
2.1850005e+3, 1.4497522e+2, -1534450.9, -1548145.1, 0.033151027, 0.0000032573134, 0.000072140894, -1534450.9, -15208.036, 0.0, 10.000011, 9.981859 
2.1850005e+3, 1.549571e+2, -1436723.4, -1450820.9, -0.017688656, 0.0000032500614, -0.000056292727, -1436723.4, -15302.952, 0.0, 10.000011, 9.981328 
2.1850005e+3, 1.6493234e+2, -1348672.5, -1371951.4, 0.028872702, 0.000003241633, 0.000047825815, -1348672.5, -25009.482, 0.0, 10.000011, 9.969243 
2.1850005e+3, 1.7490162e+2, -1250714.6, -1274309.3, -0.01850576, 0.0000032320052, -0.000073212905, -1250714.6, -24750.547, 0.0, 10.000011, 9.968829 
2.1850005e+3, 1.8486427e+2, -1162633.6, -1195719.1, 0.02943566, 0.000003215123, 0.00006678664, -1162633.6, -34303.6, 0.0, 10.0000105, 9.95639 
2.1850005e+3, 1.948207e+2, -1064484.0, -1097832.1, -0.019677935, 0.0000031906475, -0.000057106674, -1064484.0, -33727.023, 0.0, 10.0000105, 9.956047 
2.1850005e+3, 2.0477048e+2, -976320.1, -1019434.2, 0.024133423, 0.0000031775664, 0.0000685709, -976320.1, -43070.785, 0.0, 10.0000105, 9.943285 
2.1850005e+3, 2.147138e+2, -878033.25, -921409.1, -0.022619862, 0.0000031768247, -0.00012635373, -878033.25, -42228.438, 0.0, 10.0000105, 9.942945 
2.1850005e+3, 2.2465043e+2, -789747.2, -843144.1, 0.022678005, 0.0000031704535, 0.00012132599, -789747.2, -51321.348, 0.0, 10.0000105, 9.929903 
2.1850005e+3, 2.3458038e+2, -691313.8, -744965.8, -0.022397434, 0.000003157704, -0.00008840857, -691313.8, -50201.645, 0.0, 10.0000105, 9.929571 
2.1850005e+3, 2.4450342e+2, -602989.8, -667018.2, 0.02227507, 0.0000031456943, 0.00007508485, -602989.8, -59123.258, 0.0, 10.0000105, 9.916131 
2.1850005e+3, 2.5441965e+2, -504237.25, -568342.75, -0.022281686, 0.0000031345733, -0.00010639089, -504237.25, -57549.973, 0.0, 10.0000105, 9.916031 
2.1850005e+3, 2.6432884e+2, -416001.9, -490987.4, 0.02121097, 0.0000031262964, 0.00014090478, -416001.9, -66424.46, 0.0, 10.0000105, 9.901959 
2.1850005e+3, 2.7423134e+2, -316716.75, -391374.38, -0.020989876, 0.000003121634, -0.00020317531, -316716.75, -64183.953, 0.0, 10.0000105, 9.90238 
2.1850005e+3, 2.8412563e+2, -230243.56, -318080.88, 0.021123566, 0.0000031168677, 0.00022928114, -230243.56, -74674.73, 0.0, 10.0000105, 9.885434 
2.1850005e+3, 2.9401213e+2, -130537.5, -217764.7, -0.01974254, 0.0000031119396, -0.00025312984, -130537.5, -71856.2, 0.0, 10.0000105, 9.886212 
2.1850005e+3, 3.0392656e+2, -40793.656, -84750.01, 0.022716817, 0.00000310756, 0.00017330771, -40793.656, -40793.656, 0.0, 10.0000105, 9.942168 
2.1850005e+3, 3.138706e+2, -39715.67, -82511.08, -0.014116878, 0.0000031040001, -0.000055041623, -39715.67, -39715.67, 0.0, 10.0000105, 9.943679 
2.1950005e+3, 1.24993436e+2, -1719932.6, -1724223.8, 0.011315533, 0.0000033946328, 0.000018647032, -1719932.6, -4868.3687, 0.0, 10.000011, 9.994322 
2.1950005e+3, 1.3498768e+2, -1622552.4, -1627434.1, -0.03792179, 0.0000033658068, -0.000068228, -1622552.4, -5431.6963, 0.0, 10.000011, 9.993539 
2.1950005e+3, 1.4497522e+2, -1534451.0, -1548145.4, 0.010426716, 0.0000033447654, 0.00007218727, -1534451.0, -15208.176, 0.0, 10.000011, 9.981859 
2.1950005e+3, 1.549571e+2, -1436723.5, -1450821.1, -0.040407643, 0.0000033308943, -0.000056281253, -1436723.5, -15303.089, 0.0, 10.000011, 9.981328 
2.1950005e+3, 1.6493236e+2, -1348672.6, -1371951.6, 0.010390882, 0.000003314777, 0.000047826932, -1348672.6, -25009.61, 0.0, 10.000011, 9.969243 
2.1950005e+3, 1.7490162e+2, -1250714.6, -1274309.5, -0.036965843, 0.0000032963674, -0.00007319707, -1250714.6, -24750.672, 0.0, 10.000011, 9.968829 
2.1950005e+3, 1.8486428e+2, -1162633.8, -1195719.4, 0.009434711, 0.000003284169, 0.0000668063, -1162633.8, -34303.73, 0.0, 10.0000105, 9.95639 
2.1950005e+3, 1.948207e+2, -1064484.1, -1097832.4, -0.039696965, 0.0000032784667, -0.0000570946, -1064484.1, -33727.15, 0.0, 10.0000105, 9.956047 
2.1950005e+3, 2.0477048e+2, -976320.25, -1019434.4, 0.009061189, 0.0000032666685, 0.00006857958, -976320.25, -43070.902, 0.0, 10.0000105, 9.943285 
2.1950005e+3, 2.147138e+2, -878033.4, -921409.3, -0.037590496, 0.0000032482662, -0.00012634392, -878033.4, -42228.555, 0.0, 10.0000105, 9.942945 
2.1950005e+3, 2.2465043e+2, -789747.3, -843144.4, 0.0090646995, 0.0000032352057, 0.000121336554, -789747.3, -51321.46, 0.0, 10.0000105, 9.929903 
2.1950005e+3, 2.345804e+2, -691313.9, -744966.0, -0.03596674, 0.000003228192, -0.00008839765, -691313.9, -50201.754, 0.0, 10.0000105, 9.929571 
2.1950005e+3, 2.4450342e+2, -602989.9, -667018.4, 0.010120675, 0.0000032204691, 0.00007509558, -602989.9, -59123.367, 0.0, 10.0000105, 9.916131 
2.1950005e+3, 2.5441965e+2, -504237.34, -568343.0, -0.034368552, 0.00000321189, -0.00010638097, -504237.34, -57550.08, 0.0, 10.0000105, 9.916031 
2.1950005e+3, 2.6432884e+2, -416002.0, -490987.6, 0.012435392, 0.000003204074, 0.00014091271, -416002.0, -66424.56, 0.0, 10.0000105, 9.901959 
2.1950005e+3, 2.7423134e+2, -316716.84, -391374.56, -0.029543983, 0.0000031972277, -0.00020317086, -316716.84, -64184.05, 0.0, 10.0000105, 9.90238 
2.1950005e+3, 2.8412563e+2, -230243.66, -318081.06, 0.01426302, 0.0000031915042, 0.000229283, -230243.66, -74674.83, 0.0, 10.0000105, 9.885433 
2.1950005e+3, 2.9401213e+2, -130537.59, -217764.9, -0.026450895, 0.0000031873096, -0.00025312934, -130537.59, -71856.3, 0.0, 10.0000105, 9.886212 
2.1950005e+3, 3.0392656e+2, -40793.746, -84750.195, 0.017232575, 0.0000031811448, 0.00017330881, -40793.746, -40793.746, 0.0, 10.0000105, 9.942167 
2.1950005e+3, 3.138706e+2, -39715.76, -82511.266, -0.019458149, 0.0000031720465, -0.000055037097, -39715.76, -39715.76, 0.0, 10.0000105, 9.943679 
2.2050005e+3, 1.2499344e+2, -1719931.9, -1724223.5, 0.04285303, 0.00000347096, 0.000018675048, -1719931.9, -4867.5815, 0.0, 10.000011, 9.994322 
2.2050005e+3, 1.3498768e+2, -1622551.5, -1627433.9, -0.012841979, 0.000003446119, -0.00006824181, -1622551.5, -5430.906, 0.0, 10.000011, 9.993539 
2.2050005e+3, 1.4497522e+2, -1534450.1, -1548145.1, 0.034575686, 0.0000034263383, 0.00007222786, -1534450.1, -15207.384, 0.0, 10.000011, 9.981859 
2.2050005e+3, 1.549571e+2, -1436722.6, -1450820.9, -0.016487295, 0.0000034109712, -0.00005626254, -1436722.6, -15302.305, 0.0, 10.000011, 9.981327 
2.2050005e+3, 1.6493236e+2, -1348671.8, -1371951.4, 0.03437416, 0.000003392405, 0.00004783608, -1348671.8, -25008.836, 0.0, 10.000011, 9.969243 
2.2050005e+3, 1.7490163e+2, -1250713.9, -1274309.3, -0.01924921, 0.0000033705728, -0.000073184914, -1250713.9, -24749.914, 0.0, 10.000011, 9.968829 
2.2050005e+3, 1.8486428e+2, -1162633.0, -1195719.1, 0.025903434, 0.0000033594342, 0.00006681914, -1162633.0, -34302.973, 0.0, 10.000011, 9.956389 
2.2050005e+3, 1.948207e+2, -1064483.4, -1097832.1, -0.021454107, 0.0000033594822, -0.000057083515, -1064483.4, -33726.387, 0.0, 10.000011, 9.956047 
2.2050005e+3, 2.0477048e+2, -976319.5, -1019434.1, 0.028872613, 0.0000033480403, 0.00006859102, -976319.5, -43070.15, 0.0, 10.000011, 9.943285 
2.2050005e+3, 2.147138e+2, -878032.56, -921409.1, -0.022576842, 0.0000033241524, -0.00012632983, -878032.56, -42227.81, 0.0, 10.000011, 9.942945 
2.2050005e+3, 2.2465043e+2, -789746.56, -843144.1, 0.023093937, 0.0000033086421, 0.000121349985, -789746.56, -51320.723, 0.0, 10.000011, 9.929902 
2.2050005e+3, 2.345804e+2, -691313.1, -744965.75, -0.02323225, 0.0000033026174, -0.000088388624, -691313.1, -50201.02, 0.0, 10.000011, 9.929571 
2.2050005e+3, 2.4450342e+2, -602989.2, -667018.1, 0.023155715, 0.0000032961914, 0.00007510147, -602989.2, -59122.637, 0.0, 10.000011, 9.916131 
2.2050005e+3, 2.5441965e+2, -504236.6, -568342.75, -0.02355477, 0.000003289274, -0.000106376705, -504236.6, -57549.348, 0.0, 10.000011, 9.916031 
2.2050005e+3, 2.6432884e+2, -416001.25, -490987.38, 0.022671288, 0.0000032817616, 0.00014091757, -416001.25, -66423.836, 0.0, 10.000011, 9.901959 
2.2050005e+3, 2.7423134e+2, -316716.13, -391374.34, -0.02269031, 0.0000032734908, -0.00020316259, -316716.13, -64183.332, 0.0, 10.000011, 9.90238 
2.2050005e+3, 2.8412563e+2, -230242.92, -318080.84, 0.021538503, 0.0000032669864, 0.0002292924, -230242.92, -74674.11, 0.0, 10.000011, 9.885433 
2.2050005e+3, 2.9401213e+2, -130536.875, -217764.69, -0.01882519, 0.0000032628998, -0.00025312192, -130536.875, -71855.586, 0.0, 10.000011, 9.886212 
2.2050005e+3, 3.0392656e+2, -40793.04, -84750.0, 0.02404287, 0.0000032561115, 0.00017331376, -40793.04, -40793.04, 0.0, 10.000011, 9.942167 
2.2050005e+3, 3.138706e+2, -39715.047, -82511.07, -0.019505592, 0.0000032452967, -0.00005503529, -39715.047, -39715.047, 0.0, 10.000011, 9.943679 
2.2150005e+3, 1.2499344e+2, -1719932.0, -1724223.8, 0.017967608, 0.0000035564417, 0.000018709898, -1719932.0, -4867.738, 0.0, 10.000011, 9.994321 
2.2150005e+3, 1.3498768e+2, -1622551.6, -1627434.0, -0.037732117, 0.0000035238731, -0.00006826308, -1622551.6, -5431.0596, 0.0, 10.000011, 9.993539 
2.2150005e+3, 1.4497523e+2, -1534450.3, -1548145.3, 0.010734095, 0.0000035020325, 0.00007226264, -1534450.3, -15207.525, 0.0, 10.000011, 9.981859 
2.2150005e+3, 1.549571e+2, -1436722.8, -1450821.1, -0.04032777, 0.000003490293, -0.00005623659, -1436722.8, -15302.443, 0.0, 10.000011, 9.981327 
2.2150005e+3, 1.6493236e+2, -1348671.9, -1371951.5, 0.01265403, 0.0000034745167, 0.00004785326, -1348671.9, -25008.979, 0.0, 10.000011, 9.969243 
2.2150005e+3, 1.7490163e+2, -1250714.0, -1274309.5, -0.040958427, 0.00000345462, -0.00007317642, -1250714.0, -24750.053, 0.0, 10.000011, 9.968829 
2.2150005e+3, 1.8486428e+2, -1162633.1, -1195719.4, 0.0077746618, 0.000003440918, 0.000066825174, -1162633.1, -34303.098, 0.0, 10.000011, 9.956389 
2.2150005e+3, 1.948207e+2, -1064483.5, -1097832.3, -0.039542153, 0.0000034336952, -0.000057073426, -1064483.5, -33726.508, 0.0, 10.000011, 9.956047 
2.2150005e+3, 2.0477048e+2, -976319.56, -1019434.4, 0.011613715, 0.0000034216832, 0.00006860522, -976319.56, -43070.277, 0.0, 10.000011, 9.943285 
2.2150005e+3, 2.1471381e+2, -878032.7, -921409.3, -0.039818857, 0.0000034044824, -0.00012631145, -878032.7, -42227.938, 0.0, 10.000011, 9.942944 
2.2150005e+3, 2.2465043e+2, -789746.6, -843144.3, 0.00881922, 0.0000033907615, 0.00012136629, -789746.6, -51320.836, 0.0, 10.000011, 9.929902 
2.2150005e+3, 2.345804e+2, -691313.25, -744965.94, -0.037410535, 0.000003380979, -0.00008838149, -691313.25, -50201.133, 0.0, 10.000011, 9.929571 
2.2150005e+3, 2.4450342e+2, -602989.25, -667018.4, 0.011622588, 0.000003372861, 0.00007510251, -602989.25, -59122.75, 0.0, 10.000011, 9.916131 
2.2150005e+3, 2.5441965e+2, -504236.7, -568342.94, -0.034961186, 0.000003366725, -0.000106378095, -504236.7, -57549.46, 0.0, 10.000011, 9.916031 
2.2150005e+3, 2.6432884e+2, -416001.34, -490987.6, 0.012380486, 0.0000033593599, 0.00014091935, -416001.34, -66423.945, 0.0, 10.000011, 9.901959 
2.2150005e+3, 2.7423134e+2, -316716.22, -391374.53, -0.0329068, 0.0000033504234, -0.0002031505, -316716.22, -64183.44, 0.0, 10.000011, 9.902379 
2.2150005e+3, 2.8412563e+2, -230243.02, -318081.06, 0.014335226, 0.0000033433143, 0.00022930934, -230243.02, -74674.21, 0.0, 10.000011, 9.885433 
2.2150005e+3, 2.9401213e+2, -130536.97, -217764.89, -0.025757661, 0.0000033387105, -0.0002531076, -130536.97, -71855.69, 0.0, 10.000011, 9.886211 
2.2150005e+3, 3.0392656e+2, -40793.14, -84750.21, 0.02011775, 0.0000033324604, 0.00017332255, -40793.14, -40793.14, 0.0, 10.000011, 9.942167 
2.2150005e+3, 3.138706e+2, -39715.15, -82511.28, -0.023077972, 0.0000033237498, -0.000055036202, -39715.15, -39715.15, 0.0, 10.000011, 9.943679 
2.2250006e+3, 1.2499344e+2, -1719931.1, -1724223.4, 0.03989147, 0.0000036449119, 0.000018742254, -1719931.1, -4866.9067, 0.0, 10.000012, 9.994321 
2.2250006e+3, 1.349877e+2, -1622550.9, -1627433.8, -0.013748541, 0.0000036038803, -0.00006827781, -1622550.9, -5430.235, 0.0, 10.000012, 9.993539 
2.2250006e+3, 1.4497523e+2, -1534449.4, -1548145.0, 0.034991145, 0.00000357932, 0.00007230382, -1534449.4, -15206.703, 0.0, 10.000012, 9.981859 
2.2250006e+3, 1.549571e+2, -1436721.9, -1450820.8, -0.020347405, 0.000003570623, -0.000056218538, -1436721.9, -15301.625, 0.0, 10.000012, 9.981327 
2.2250006e+3, 1.6493236e+2, -1348671.0, -1371951.3, 0.032752603, 0.000003557954, 0.00004786184, -1348671.0, -25008.166, 0.0, 10.000012, 9.969242 
2.2250006e+3, 1.7490163e+2, -1250713.3, -1274309.3, -0.019101147, 0.0000035412309, -0.00007316337, -1250713.3, -24749.252, 0.0, 10.000012, 9.968829 
2.2250006e+3, 1.8486428e+2, -1162632.3, -1195719.1, 0.031112093, 0.0000035247926, 0.00006684001, -1162632.3, -34302.3, 0.0, 10.000012, 9.956389 
2.2250006e+3, 1.9482073e+2, -1064482.6, -1097832.0, -0.024170458, 0.0000035086496, -0.00005705963, -1064482.6, -33725.72, 0.0, 10.000012, 9.956046 
2.2250006e+3, 2.0477048e+2, -976318.8, -1019434.1, 0.024893563, 0.0000034958098, 0.00006861795, -976318.8, -43069.49, 0.0, 10.000012, 9.943285 
2.2250006e+3, 2.1471381e+2, -878031.9, -921409.06, -0.023858512, 0.0000034865452, -0.00012629983, -878031.9, -42227.152, 0.0, 10.000012, 9.942944 
2.2250006e+3, 2.2465043e+2, -789745.9, -843144.06, 0.026262226, 0.0000034755412, 0.000121376885, -789745.9, -51320.06, 0.0, 10.000012, 9.929902 
2.2250006e+3, 2.345804e+2, -691312.44, -744965.75, -0.02591988, 0.0000034625643, -0.00008837183, -691312.44, -50200.36, 0.0, 10.000011, 9.929571 
2.2250006e+3, 2.4450342e+2, -602988.5, -667018.1, 0.022377485, 0.0000034520813, 0.00007511122, -602988.5, -59121.98, 0.0, 10.000011, 9.91613 
2.2250006e+3, 2.5441965e+2, -504235.94, -568342.75, -0.024461078, 0.0000034445764, -0.00010637036, -504235.94, -57548.695, 0.0, 10.000011, 9.916031 
2.2250006e+3, 2.6432884e+2, -416000.6, -490987.38, 0.023811568, 0.0000034367497, 0.00014092625, -416000.6, -66423.19, 0.0, 10.000011, 9.901959 
2.2250006e+3, 2.7423134e+2, -316715.47, -391374.3, -0.022944283, 0.0000034285035, -0.0002031443, -316715.47, -64182.684, 0.0, 10.000011, 9.902379 
2.2250006e+3, 2.8412563e+2, -230242.25, -318080.8, 0.023297524, 0.0000034215968, 0.00022931576, -230242.25, -74673.45, 0.0, 10.000011, 9.885433 
2.2250006e+3, 2.9401213e+2, -130536.21, -217764.67, -0.022837965, 0.0000034165225, -0.00025309974, -130536.21, -71854.93, 0.0, 10.000011, 9.886211 
2.2250006e+3, 3.0392656e+2, -40792.395, -84750.01, 0.023303743, 0.0000034109505, 0.0001733291, -40792.395, -40792.395, 0.0, 10.000011, 9.942167 
2.2250006e+3, 3.138706e+2, -39714.41, -82511.08, -0.016221168, 0.0000034046282, -0.000055035074, -39714.41, -39714.41, 0.0, 10.000011, 9.943679 
2.2350004e+3, 1.2499345e+2, -1719931.3, -1724223.6, 0.014205752, 0.0000037363702, 0.000018772129, -1719931.3, -4867.0596, 0.0, 10.000012, 9.994321 
2.2350004e+3, 1.349877e+2, -1622551.0, -1627434.0, -0.039439473, 0.0000036861404, -0.00006828602, -1622551.0, -5430.385, 0.0, 10.000012, 9.993539 
2.2350004e+3, 1.4497523e+2, -1534449.5, -1548145.3, 0.010769475, 0.0000036582005, 0.000072351366, -1534449.5, -15206.855, 0.0, 10.000012, 9.981858 
2.2350004e+3, 1.5495712e+2, -1436722.0, -1450821.0, -0.044567056, 0.000003651961, -0.000056208384, -1436722.0, -15301.774, 0.0, 10.000012, 9.981327 
2.2350004e+3, 1.6493236e+2, -1348671.1, -1371951.5, 0.009043861, 0.0000036427164, 0.00004786182, -1348671.1, -25008.307, 0.0, 10.000012, 9.969242 
2.2350004e+3, 1.7490163e+2, -1250713.3, -1274309.4, -0.042807847, 0.0000036304054, -0.000073145755, -1250713.3, -24749.39, 0.0, 10.000012, 9.968828 
2.2350004e+3, 1.8486428e+2, -1162632.4, -1195719.3, 0.012606042, 0.0000036110584, 0.00006686364, -1162632.4, -34302.445, 0.0, 10.000012, 9.956389 
2.2350004e+3, 1.9482073e+2, -1064482.8, -1097832.3, -0.042616654, 0.0000035843457, -0.000057042133, -1064482.8, -33725.86, 0.0, 10.000012, 9.956046 
2.2350004e+3, 2.0477048e+2, -976318.9, -1019434.3, 0.007064435, 0.0000035704197, 0.00006862919, -976318.9, -43069.613, 0.0, 10.000012, 9.943285 
2.2350004e+3, 2.1471381e+2, -878032.0, -921409.25, -0.041675538, 0.0000035703406, -0.00012629498, -878032.0, -42227.277, 0.0, 10.000012, 9.942944 
2.2350004e+3, 2.2465044e+2, -789745.94, -843144.3, 0.011100705, 0.0000035629807, 0.00012138177, -789745.94, -51320.188, 0.0, 10.000012, 9.929902 
2.2350004e+3, 2.345804e+2, -691312.56, -744965.94, -0.0409949, 0.000003547373, -0.00008835966, -691312.56, -50200.49, 0.0, 10.000011, 9.929571 
2.2350004e+3, 2.4450342e+2, -602988.56, -667018.3, 0.009997049, 0.0000035338512, 0.00007512758, -602988.56, -59122.098, 0.0, 10.000011, 9.91613 
2.2350004e+3, 2.5441965e+2, -504236.03, -568342.94, -0.036712702, 0.000003522828, -0.000106353495, -504236.03, -57548.813, 0.0, 10.000011, 9.916031 
2.2350004e+3, 2.6432884e+2, -416000.7, -490987.56, 0.013998181, 0.0000035139312, 0.00014093825, -416000.7, -66423.305, 0.0, 10.000011, 9.901959 
2.2350004e+3, 2.7423134e+2, -316715.56, -391374.53, -0.032594673, 0.0000035077312, -0.00020314398, -316715.56, -64182.797, 0.0, 10.000011, 9.902379 
2.2350004e+3, 2.8412563e+2, -230242.36, -318081.03, 0.015628222, 0.000003501834, 0.00022931167, -230242.36, -74673.57, 0.0, 10.000011, 9.885433 
2.2350004e+3, 2.9401213e+2, -130536.31, -217764.88, -0.030329227, 0.0000034963361, -0.00025309832, -130536.31, -71855.04, 0.0, 10.000011, 9.886211 
2.2350004e+3, 3.0392656e+2, -40792.492, -84750.21, 0.018290961, 0.0000034915813, 0.0001733334, -40792.492, -40792.492, 0.0, 10.000011, 9.942167 
2.2350004e+3, 3.138706e+2, -39714.504, -82511.28, -0.020943701, 0.0000034879315, -0.00005503191, -39714.504, -39714.504, 0.0, 10.000011, 9.943679 
2.2450005e+3, 1.2499345e+2, -1719930.4, -1724223.4, 0.045150865, 0.000003820961, 0.000018800689, -1719930.4, -4866.179, 0.0, 10.000013, 9.994321 
2.2450005e+3, 1.349877e+2, -1622550.0, -1627433.8, -0.015472989, 0.0000037739605, -0.0000682951, -1622550.0, -5429.524, 0.0, 10.000013, 9.993539 
2.2450005e+3, 1.4497523e+2, -1534448.6, -1548145.0, 0.03465329, 0.0000037465913, 0.00007240095, -1534448.6, -15206.003, 0.0, 10.000013, 9.981858 
2.2450005e+3, 1.5495712e+2, -1436721.1, -1450820.8, -0.019480439, 0.0000037382301, -0.00005619593, -1436721.1, -15300.93, 0.0, 10.000013, 9.981327 
2.2450005e+3, 1.6493236e+2, -1348670.3, -1371951.3, 0.034229793, 0.000003726857, 0.000047863585, -1348670.3, -25007.463, 0.0, 10.000012, 9.969242 
2.2450005e+3, 1.7490163e+2, -1250712.4, -1274309.1, -0.023404183, 0.0000037124098, -0.00007312765, -1250712.4, -24748.541, 0.0, 10.000012, 9.968828 
2.2450005e+3, 1.8486428e+2, -1162631.5, -1195719.0, 0.031737465, 0.0000036939884, 0.00006688607, -1162631.5, -34301.6, 0.0, 10.000012, 9.956389 
2.2450005e+3, 1.9482073e+2, -1064482.0, -1097832.0, -0.022476245, 0.0000036714057, -0.00005702796, -1064482.0, -33725.035, 0.0, 10.000012, 9.956046 
2.2450005e+3, 2.0477048e+2, -976318.06, -1019434.06, 0.028118249, 0.0000036573, 0.00006863882, -976318.06, -43068.797, 0.0, 10.000012, 9.943285 
2.2450005e+3, 2.1471381e+2, -878031.2, -921409.0, -0.026337713, 0.000003652374, -0.00012628586, -878031.2, -42226.457, 0.0, 10.000012, 9.942944 
2.2450005e+3, 2.2465044e+2, -789745.1, -843144.06, 0.025654238, 0.00000364364, 0.000121391044, -789745.1, -51319.375, 0.0, 10.000012, 9.929902 
2.2450005e+3, 2.345804e+2, -691311.75, -744965.7, -0.025709705, 0.00000363059, -0.00008834947, -691311.75, -50199.676, 0.0, 10.000012, 9.929571 
2.2450005e+3, 2.4450342e+2, -602987.75, -667018.06, 0.025430646, 0.0000036179702, 0.00007513899, -602987.75, -59121.293, 0.0, 10.000012, 9.91613 
2.2450005e+3, 2.5441968e+2, -504235.22, -568342.7, -0.026961189, 0.0000036058657, -0.00010634048, -504235.22, -57548.01, 0.0, 10.000012, 9.91603 
2.2450005e+3, 2.6432884e+2, -415999.9, -490987.34, 0.023115508, 0.0000035962346, 0.00014094952, -415999.9, -66422.51, 0.0, 10.000012, 9.901958 
2.2450005e+3, 2.7423134e+2, -316714.78, -391374.3, -0.024545472, 0.0000035897463, -0.00020313877, -316714.78, -64182.004, 0.0, 10.000012, 9.902379 
2.2450005e+3, 2.8412563e+2, -230241.56, -318080.8, 0.024743477, 0.000003583929, 0.00022931314, -230241.56, -74672.78, 0.0, 10.000012, 9.885433 
2.2450005e+3, 2.9401213e+2, -130535.52, -217764.66, -0.021231718, 0.0000035790117, -0.0002530974, -130535.52, -71854.26, 0.0, 10.000012, 9.886211 
2.2450005e+3, 3.0392656e+2, -40791.71, -84749.99, 0.026958484, 0.0000035739336, 0.00017333524, -40791.71, -40791.71, 0.0, 10.000012, 9.942167 
2.2450005e+3, 3.138706e+2, -39713.73, -82511.06, -0.017383447, 0.0000035686126, -0.000055027132, -39713.73, -39713.73, 0.0, 10.000012, 9.943678 
2.2550005e+3, 1.2499346e+2, -1719930.5, -1724223.6, 0.015671156, 0.000003898686, 0.000018827954, -1719930.5, -4866.3496, 0.0, 10.000013, 9.994321 
2.2550005e+3, 1.349877e+2, -1622550.3, -1627434.0, -0.044958506, 0.0000038673397, -0.00006830507, -1622550.3, -5429.6914, 0.0, 10.000013, 9.993539 
2.2550005e+3, 1.4497523e+2, -1534448.8, -1548145.1, 0.009121976, 0.0000038444905, 0.00007245259, -1534448.8, -15206.153, 0.0, 10.000013, 9.981858 
2.2550005e+3, 1.5495712e+2, -1436721.3, -1450821.0, -0.045006253, 0.0000038294297, -0.000056181176, -1436721.3, -15301.078, 0.0, 10.000013, 9.981327 
2.2550005e+3, 1.6493237e+2, -1348670.4, -1371951.5, 0.012676442, 0.0000038103756, 0.00004786714, -1348670.4, -25007.615, 0.0, 10.000012, 9.969242 
2.2550005e+3, 1.7490163e+2, -1250712.5, -1274309.4, -0.044937074, 0.0000037872449, -0.00007310907, -1250712.5, -24748.691, 0.0, 10.000012, 9.968828 
2.2550005e+3, 1.8486428e+2, -1162631.6, -1195719.3, 0.009233737, 0.0000037735838, 0.00006690727, -1162631.6, -34301.746, 0.0, 10.000012, 9.956389 
2.2550005e+3, 1.9482073e+2, -1064482.1, -1097832.3, -0.044991706, 0.0000037698278, -0.000057017114, -1064482.1, -33725.176, 0.0, 10.000012, 9.956046 
2.2550005e+3, 2.0477048e+2, -976318.2, -1019434.3, 0.011129998, 0.000003756449, 0.000068646856, -976318.2, -43068.934, 0.0, 10.000012, 9.943284 
2.2550005e+3, 2.1471381e+2, -878031.3, -921409.25, -0.043212444, 0.0000037326465, -0.00012627247, -878031.3, -42226.594, 0.0, 10.000012, 9.942944 
2.2550005e+3, 2.2465044e+2, -789745.25, -843144.25, 0.009913561, 0.0000037175203, 0.00012140471, -789745.25, -51319.504, 0.0, 10.000012, 9.929902 
2.2550005e+3, 2.345804e+2, -691311.9, -744965.94, -0.041413788, 0.0000037122163, -0.00008834127, -691311.9, -50199.805, 0.0, 10.000012, 9.92957 
2.2550005e+3, 2.4450342e+2, -602987.9, -667018.3, 0.011710651, 0.0000037044374, 0.00007514545, -602987.9, -59121.42, 0.0, 10.000012, 9.91613 
2.2550005e+3, 2.5441968e+2, -504235.34, -568342.94, -0.04058633, 0.0000036936888, -0.000106331296, -504235.34, -57548.14, 0.0, 10.000012, 9.91603 
2.2550005e+3, 2.6432884e+2, -416000.0, -490987.56, 0.013291962, 0.0000036836593, 0.00014096002, -416000.0, -66422.625, 0.0, 10.000012, 9.901958 
2.2550005e+3, 2.7423134e+2, -316714.88, -391374.5, -0.034114834, 0.000003674549, -0.00020312869, -316714.88, -64182.12, 0.0, 10.000012, 9.902379 
2.2550005e+3, 2.8412563e+2, -230241.67, -318081.03, 0.016822614, 0.0000036678814, 0.00022932018, -230241.67, -74672.89, 0.0, 10.000012, 9.885433 
2.2550005e+3, 2.9401213e+2, -130535.625, -217764.88, -0.029004574, 0.0000036645495, -0.00025309692, -130535.625, -71854.37, 0.0, 10.000012, 9.886211 
2.2550005e+3, 3.0392656e+2, -40791.816, -84750.21, 0.020727884, 0.0000036580066, 0.00017333457, -40791.816, -40791.816, 0.0, 10.000012, 9.942166 
2.2550005e+3, 3.138706e+2, -39713.836, -82511.29, -0.023433704, 0.000003646672, -0.000055020744, -39713.836, -39713.836, 0.0, 10.000012, 9.943678 
2.2650005e+3, 1.2499346e+2, -1719929.5, -1724223.3, 0.047208656, 0.000003987332, 0.000018861241, -1719929.5, -4865.438, 0.0, 10.000013, 9.994321 
2.2650005e+3, 1.349877e+2, -1622549.3, -1627433.6, -0.013904564, 0.0000039581646, -0.00006832273, -1622549.3, -5428.785, 0.0, 10.000013, 9.993538 
2.2650005e+3, 1.4497524e+2, -1534447.9, -1548144.9, 0.040066052, 0.000003935666, 0.00007249846, -1534447.9, -15205.247, 0.0, 10.000013, 9.981858 
2.2650005e+3, 1.5495712e+2, -1436720.4, -1450820.6, -0.020765796, 0.000003919098, -0.000056159875, -1436720.4, -15300.182, 0.0, 10.000013, 9.981327 
2.2650005e+3, 1.6493237e+2, -1348669.5, -1371951.1, 0.036732234, 0.0000038985227, 0.000047877787, -1348669.5, -25006.732, 0.0, 10.000013, 9.969242 
2.2650005e+3, 1.7490163e+2, -1250711.6, -1274309.1, -0.022243908, 0.0000038738553, -0.00007309485, -1250711.6, -24747.818, 0.0, 10.000013, 9.968828 
2.2650005e+3, 1.848643e+2, -1162630.8, -1195719.0, 0.030810116, 0.0000038607277, 0.0000669222, -1162630.8, -34300.87, 0.0, 10.000013, 9.956389 
2.2650005e+3, 1.9482073e+2, -1064481.1, -1097831.9, -0.025664624, 0.000003859672, -0.000057004487, -1064481.1, -33724.3, 0.0, 10.000013, 9.956046 
2.2650005e+3, 2.0477049e+2, -976317.3, -1019434.0, 0.031191904, 0.0000038463027, 0.00006865941, -976317.3, -43068.066, 0.0, 10.000013, 9.943284 
2.2650005e+3, 2.1471381e+2, -878030.44, -921409.0, -0.027043648, 0.000003819595, -0.00012625757, -878030.44, -42225.742, 0.0, 10.000013, 9.942944 
2.2650005e+3, 2.2465044e+2, -789744.4, -843144.0, 0.02545719, 0.0000038028177, 0.00012141914, -789744.4, -51318.652, 0.0, 10.000013, 9.929901 
2.2650005e+3, 2.345804e+2, -691311.0, -744965.6, -0.027821854, 0.0000037972832, -0.00008833049, -691311.0, -50198.957, 0.0, 10.000013, 9.92957 
2.2650005e+3, 2.4450342e+2, -602987.0, -667018.06, 0.026036259, 0.0000037900024, 0.00007515303, -602987.0, -59120.58, 0.0, 10.000013, 9.91613 
2.2650005e+3, 2.5441968e+2, -504234.47, -568342.7, -0.027311191, 0.0000037806217, -0.000106326384, -504234.47, -57547.297, 0.0, 10.000013, 9.91603 
2.2650005e+3, 2.6432884e+2, -415999.16, -490987.3, 0.026216667, 0.0000037710524, 0.00014096542, -415999.16, -66421.79, 0.0, 10.000013, 9.901958 
2.2650005e+3, 2.7423134e+2, -316714.03, -391374.28, -0.026072701, 0.0000037612454, -0.0002031188, -316714.03, -64181.293, 0.0, 10.000013, 9.902379 
2.2650005e+3, 2.8412563e+2, -230240.84, -318080.78, 0.024076765, 0.00000375406, 0.00022933137, -230240.84, -74672.07, 0.0, 10.000013, 9.885432 
2.2650005e+3, 2.9401213e+2, -130534.805, -217764.64, -0.022894876, 0.0000037504599, -0.0002530888, -130534.805, -71853.55, 0.0, 10.000013, 9.886211 
2.2650005e+3, 3.0392656e+2, -40791.004, -84749.984, 0.026889456, 0.0000037431444, 0.00017333968, -40791.004, -40791.004, 0.0, 10.000013, 9.942166 
2.2650005e+3, 3.138706e+2, -39713.016, -82511.06, -0.021356378, 0.0000037302868, -0.000055018572, -39713.016, -39713.016, 0.0, 10.000013, 9.943678 
2.2750005e+3, 1.2499346e+2, -1719929.6, -1724223.5, 0.017313022, 0.0000040868968, 0.000018900573, -1719929.6, -4865.6113, 0.0, 10.000013, 9.994321 
2.2750005e+3, 1.3498771e+2, -1622549.4, -1627433.9, -0.043805998, 0.0000040464356, -0.00006834811, -1622549.4, -5428.955, 0.0, 10.000013, 9.993538 
2.2750005e+3, 1.4497524e+2, -1534448.0, -1548145.1, 0.012889493, 0.0000040201194, 0.000072538554, -1534448.0, -15205.415, 0.0, 10.000013, 9.981858 
2.2750005e+3, 1.5495712e+2, -1436720.5, -1450820.9, -0.047938645, 0.0000040072364, -0.000056132038, -1436720.5, -15300.346, 0.0, 10.000013, 9.981326 
2.2750005e+3, 1.6493237e+2, -1348669.6, -1371951.4, 0.013144064, 0.000003991297, 0.000047895523, -1348669.6, -25006.89, 0.0, 10.000013, 9.969242 
2.2750005e+3, 1.7490166e+2, -1250711.8, -1274309.4, -0.045813676, 0.000003972238, -0.00007308499, -1250711.8, -24747.975, 0.0, 10.000013, 9.968828 
2.2750005e+3, 1.848643e+2, -1162630.9, -1195719.3, 0.009379066, 0.0000039554193, 0.00006693084, -1162630.9, -34301.02, 0.0, 10.000013, 9.956388 
2.2750005e+3, 1.9482073e+2, -1064481.3, -1097832.1, -0.04707166, 0.00000394094, -0.000056990088, -1064481.3, -33724.445, 0.0, 10.000013, 9.956046 
2.2750005e+3, 2.0477049e+2, -976317.44, -1019434.25, 0.011683569, 0.000003926863, 0.00006867648, -976317.44, -43068.215, 0.0, 10.000013, 9.943284 
2.2750005e+3, 2.1471381e+2, -878030.56, -921409.2, -0.0465131, 0.0000039132187, -0.00012624117, -878030.56, -42225.887, 0.0, 10.000013, 9.942944 
2.2750005e+3, 2.2465044e+2, -789744.5, -843144.2, 0.009556032, 0.0000038995304, 0.00012143434, -789744.5, -51318.785, 0.0, 10.000013, 9.929901 
2.2750005e+3, 2.345804e+2, -691311.1, -744965.9, -0.043607116, 0.0000038857897, -0.000088317116, -691311.1, -50199.09, 0.0, 10.000013, 9.92957 
2.2750005e+3, 2.4450342e+2, -602987.1, -667018.3, 0.01284764, 0.0000038746657, 0.00007516174, -602987.1, -59120.71, 0.0, 10.000013, 9.91613 
2.2750005e+3, 2.5441968e+2, -504234.6, -568342.9, -0.04037546, 0.0000038666644, -0.000106325744, -504234.6, -57547.43, 0.0, 10.000013, 9.91603 
2.2750005e+3, 2.6432884e+2, -415999.28, -490987.53, 0.01424044, 0.000003858414, 0.00014096568, -415999.28, -66421.92, 0.0, 10.000013, 9.901958 
2.2750005e+3, 2.7423134e+2, -316714.16, -391374.5, -0.03797655, 0.0000038498356, -0.00020310913, -316714.16, -64181.418, 0.0, 10.000013, 9.902378 
2.2750005e+3, 2.8412563e+2, -230240.95, -318081.0, 0.01584234, 0.000003842464, 0.00022934671, -230240.95, -74672.19, 0.0, 10.000013, 9.885432 
2.2750005e+3, 2.9401213e+2, -130534.91, -217764.86, -0.030799491, 0.000003836743, -0.000253073, -130534.91, -71853.664, 0.0, 10.000013, 9.88621 
2.2750005e+3, 3.0392656e+2, -40791.117, -84750.23, 0.023026941, 0.000003829347, 0.00017335053, -40791.117, -40791.117, 0.0, 10.000013, 9.942166 
2.2750005e+3, 3.138706e+2, -39713.13, -82511.3, -0.024744783, 0.000003819456, -0.000055020617, -39713.13, -39713.13, 0.0, 10.000013, 9.943678 
2.2850005e+3, 1.24993466e+2, -1719928.8, -1724223.3, 0.045847066, 0.0000041864273, 0.000018935001, -1719928.8, -4864.6675, 0.0, 10.000014, 9.99432 
2.2850005e+3, 1.3498771e+2, -1622548.4, -1627433.6, -0.015984468, 0.000004137771, -0.00006836432, -1622548.4, -5428.006, 0.0, 10.000014, 9.993538 
2.2850005e+3, 1.4497524e+2, -1534447.0, -1548144.8, 0.04038444, 0.0000041087237, 0.000072588286, -1534447.0, -15204.468, 0.0, 10.000014, 9.981858 
2.2850005e+3, 1.5495712e+2, -1436719.5, -1450820.6, -0.023423536, 0.000004098588, -0.00005611346, -1436719.5, -15299.405, 0.0, 10.000014, 9.981326 
2.2850005e+3, 1.6493237e+2, -1348668.8, -1371951.1, 0.03759005, 0.000004085424, 0.000047902628, -1348668.8, -25005.955, 0.0, 10.000014, 9.969241 
2.2850005e+3, 1.7490166e+2, -1250710.9, -1274309.0, -0.022794373, 0.00000406917, -0.00007306926, -1250710.9, -24747.059, 0.0, 10.000014, 9.968828 
2.2850005e+3, 1.848643e+2, -1162630.0, -1195718.9, 0.033485524, 0.0000040498685, 0.000066949695, -1162630.0, -34300.11, 0.0, 10.000014, 9.956388 
2.2850005e+3, 1.9482073e+2, -1064480.4, -1097831.9, -0.028800404, 0.0000040273753, -0.00005697387, -1064480.4, -33723.535, 0.0, 10.000014, 9.956046 
2.2850005e+3, 2.0477049e+2, -976316.5, -1019433.94, 0.028542113, 0.0000040126806, 0.00006869052, -976316.5, -43067.305, 0.0, 10.000014, 9.943284 
2.2850005e+3, 2.1471381e+2, -878029.6, -921408.94, -0.027717534, 0.0000040064297, -0.00012622881, -878029.6, -42224.984, 0.0, 10.000014, 9.942943 
2.2850005e+3, 2.2465044e+2, -789743.56, -843143.94, 0.029572273, 0.0000039948063, 0.000121446006, -789743.56, -51317.895, 0.0, 10.000014, 9.929901 
2.2850005e+3, 2.345804e+2, -691310.25, -744965.6, -0.031043818, 0.0000039770966, -0.00008830498, -691310.25, -50198.207, 0.0, 10.000013, 9.92957 
2.2850005e+3, 2.4450342e+2, -602986.25, -667018.0, 0.02427486, 0.000003963695, 0.00007517334, -602986.25, -59119.83, 0.0, 10.000013, 9.91613 
2.2850005e+3, 2.5441968e+2, -504233.72, -568342.6, -0.028601915, 0.0000039554425, -0.00010631588, -504233.72, -57546.55, 0.0, 10.000013, 9.91603 
2.2850005e+3, 2.6432884e+2, -415998.38, -490987.28, 0.027167264, 0.0000039473243, 0.0001409736, -415998.38, -66421.05, 0.0, 10.000013, 9.901958 
2.2850005e+3, 2.7423134e+2, -316713.28, -391374.25, -0.026764987, 0.0000039393612, -0.00020310341, -316713.28, -64180.55, 0.0, 10.000013, 9.902378 
2.2850005e+3, 2.8412563e+2, -230240.08, -318080.75, 0.026464663, 0.0000039318056, 0.00022935227, -230240.08, -74671.32, 0.0, 10.000013, 9.885432 
2.2850005e+3, 2.9401213e+2, -130534.04, -217764.61, -0.026485331, 0.000003924804, -0.0002530648, -130534.04, -71852.8, 0.0, 10.000013, 9.88621 
2.2850005e+3, 3.0392656e+2, -40790.26, -84749.984, 0.026961718, 0.000003917834, 0.00017335809, -40790.26, -40790.26, 0.0, 10.000013, 9.942166 
2.2850005e+3, 3.138706e+2, -39712.285, -82511.07, -0.018673413, 0.000003910913, -0.000055018594, -39712.285, -39712.285, 0.0, 10.000013, 9.943678 
2.2950006e+3, 1.24993466e+2, -1719928.9, -1724223.5, 0.018000338, 0.000004285923, 0.000018964553, -1719928.9, -4864.8438, 0.0, 10.000014, 9.99432 
2.2950006e+3, 1.3498771e+2, -1622548.5, -1627433.9, -0.043836802, 0.00000423217, -0.00006837137, -1622548.5, -5428.179, 0.0, 10.000014, 9.993538 
2.2950006e+3, 1.4497524e+2, -1534447.1, -1548145.1, 0.012586905, 0.0000042014785, 0.00007264764, -1534447.1, -15204.644, 0.0, 10.000014, 9.981857 
2.2950006e+3, 1.5495715e+2, -1436719.6, -1450820.9, -0.051221214, 0.000004193152, -0.00005610413, -1436719.6, -15299.577, 0.0, 10.000014, 9.981326 
2.2950006e+3, 1.6493237e+2, -1348668.9, -1371951.4, 0.010269154, 0.000004180903, 0.000047899106, -1348668.9, -25006.117, 0.0, 10.000014, 9.969241 
2.2950006e+3, 1.7490166e+2, -1250711.0, -1274309.3, -0.050113592, 0.0000041646504, -0.00007304765, -1250711.0, -24747.217, 0.0, 10.000014, 9.968827 
2.2950006e+3, 1.848643e+2, -1162630.1, -1195719.1, 0.013193021, 0.0000041440762, 0.00006697877, -1162630.1, -34300.273, 0.0, 10.000014, 9.956388 
2.2950006e+3, 1.9482075e+2, -1064480.5, -1097832.1, -0.049011994, 0.0000041189764, -0.000056955836, -1064480.5, -33723.695, 0.0, 10.000014, 9.956045 
2.2950006e+3, 2.0477049e+2, -976316.6, -1019434.2, 0.0077021318, 0.0000041037547, 0.00006870151, -976316.6, -43067.453, 0.0, 10.000014, 9.943284 
2.2950006e+3, 2.1471381e+2, -878029.75, -921409.2, -0.048571315, 0.0000040992286, -0.00012622053, -878029.75, -42225.125, 0.0, 10.000014, 9.942943 
2.2950006e+3, 2.2465044e+2, -789743.75, -843144.2, 0.012444263, 0.0000040886466, 0.00012145415, -789743.75, -51318.047, 0.0, 10.000014, 9.929901 
2.2950006e+3, 2.3458041e+2, -691310.4, -744965.9, -0.048050277, 0.0000040712034, -0.00008829407, -691310.4, -50198.35, 0.0, 10.000013, 9.92957 
2.2950006e+3, 2.4450344e+2, -602986.4, -667018.25, 0.010322674, 0.0000040570894, 0.00007518784, -602986.4, -59119.96, 0.0, 10.000013, 9.916129 
2.2950006e+3, 2.5441968e+2, -504233.8, -568342.9, -0.04240826, 0.000004046956, -0.0001062968, -504233.8, -57546.684, 0.0, 10.000013, 9.91603 
2.2950006e+3, 2.6432884e+2, -415998.5, -490987.53, 0.015801799, 0.0000040377836, 0.00014098917, -415998.5, -66421.18, 0.0, 10.000013, 9.901958 
2.2950006e+3, 2.7423134e+2, -316713.4, -391374.5, -0.037967335, 0.000004029822, -0.00020310165, -316713.4, -64180.68, 0.0, 10.000013, 9.902378 
2.2950006e+3, 2.8412563e+2, -230240.19, -318081.0, 0.017951865, 0.000004022084, 0.00022934806, -230240.19, -74671.445, 0.0, 10.000013, 9.885432 
2.2950006e+3, 2.9401213e+2, -130534.16, -217764.86, -0.03475629, 0.0000040146424, -0.0002530642, -130534.16, -71852.93, 0.0, 10.000013, 9.88621 
2.2950006e+3, 3.0392656e+2, -40790.375, -84750.22, 0.020534774, 0.0000040086056, 0.00017336234, -40790.375, -40790.375, 0.0, 10.000013, 9.942166 
2.2950006e+3, 3.138706e+2, -39712.395, -82511.3, -0.024884814, 0.000004004657, -0.000055012515, -39712.395, -39712.395, 0.0, 10.000013, 9.943678 
2.3050004e+3, 1.2499347e+2, -1719927.8, -1724223.1, 0.052495375, 0.000004381155, 0.000018999206, -1719927.8, -4863.8296, 0.0, 10.000015, 9.99432 
2.3050004e+3, 1.3498771e+2, -1622547.5, -1627433.5, -0.018548606, 0.000004331585, -0.00006838412, -1622547.5, -5427.194, 0.0, 10.000015, 9.993538 
2.3050004e+3, 1.4497524e+2, -1534446.1, -1548144.8, 0.03766751, 0.0000043019245, 0.00007270393, -1534446.1, -15203.665, 0.0, 10.000015, 9.981857 
2.3050004e+3, 1.5495715e+2, -1436718.6, -1450820.5, -0.022661785, 0.000004291437, -0.00005608772, -1436718.6, -15298.605, 0.0, 10.000015, 9.981326 
2.3050004e+3, 1.6493237e+2, -1348667.9, -1371951.0, 0.03941707, 0.0000042764877, 0.00004790285, -1348667.9, -25005.148, 0.0, 10.000015, 9.969241 
2.3050004e+3, 1.7490166e+2, -1250710.0, -1274309.0, -0.027805818, 0.0000042569836, -0.00007302879, -1250710.0, -24746.242, 0.0, 10.000015, 9.968827 
2.3050004e+3, 1.848643e+2, -1162629.1, -1195718.9, 0.035411775, 0.0000042377046, 0.00006700163, -1162629.1, -34299.305, 0.0, 10.000014, 9.956388 
2.3050004e+3, 1.9482075e+2, -1064479.5, -1097831.9, -0.025934894, 0.000004218657, -0.00005694062, -1064479.5, -33722.754, 0.0, 10.000014, 9.956045 
2.3050004e+3, 2.0477049e+2, -976315.7, -1019433.9, 0.031481035, 0.0000042030892, 0.00006871323, -976315.7, -43066.516, 0.0, 10.000014, 9.943284 
2.3050004e+3, 2.1471383e+2, -878028.8, -921408.9, -0.0317417, 0.000004191288, -0.00012620781, -878028.8, -42224.188, 0.0, 10.000014, 9.942943 
2.3050004e+3, 2.2465044e+2, -789742.75, -843143.9, 0.028730465, 0.000004178929, 0.00012146633, -789742.75, -51317.105, 0.0, 10.000014, 9.929901 
2.3050004e+3, 2.3458041e+2, -691309.4, -744965.56, -0.02906896, 0.0000041659337, -0.00008828418, -691309.4, -50197.42, 0.0, 10.000014, 9.92957 
2.3050004e+3, 2.4450344e+2, -602985.44, -667017.94, 0.029599564, 0.000004153569, 0.000075197764, -602985.44, -59119.04, 0.0, 10.000014, 9.916129 
2.3050004e+3, 2.5441968e+2, -504232.9, -568342.56, -0.031488888, 0.000004141955, -0.00010628408, -504232.9, -57545.77, 0.0, 10.000014, 9.916029 
2.3050004e+3, 2.6432887e+2, -415997.6, -490987.25, 0.025475485, 0.0000041313024, 0.00014100144, -415997.6, -66420.27, 0.0, 10.000014, 9.9019575 
2.3050004e+3, 2.7423134e+2, -316712.47, -391374.22, -0.029029977, 0.000004121868, -0.00020309396, -316712.47, -64179.773, 0.0, 10.000014, 9.902378 
2.3050004e+3, 2.8412563e+2, -230239.28, -318080.75, 0.028465023, 0.000004114099, 0.00022935256, -230239.28, -74670.54, 0.0, 10.000014, 9.885432 
2.3050004e+3, 2.9401213e+2, -130533.25, -217764.6, -0.023548163, 0.0000041085987, -0.00025306098, -130533.25, -71852.02, 0.0, 10.000014, 9.88621 
2.3050004e+3, 3.0392656e+2, -40789.48, -84749.97, 0.030924177, 0.000004102618, 0.00017336571, -40789.48, -40789.48, 0.0, 10.000014, 9.942166 
2.3050004e+3, 3.138706e+2, -39711.504, -82511.055, -0.021828217, 0.000004095908, -0.00005500697, -39711.504, -39711.504, 0.0, 10.000014, 9.943677 
2.3150004e+3, 1.2499347e+2, -1719928.0, -1724223.4, 0.018854605, 0.000004472124, 0.000019038986, -1719928.0, -4864.0293, 0.0, 10.000015, 9.99432 
2.3150004e+3, 1.3498773e+2, -1622547.8, -1627433.8, -0.05219559, 0.0000044360154, -0.00006840256, -1622547.8, -5427.389, 0.0, 10.000015, 9.993537 
2.3150004e+3, 1.4497526e+2, -1534446.3, -1548145.0, 0.009090334, 0.000004410061, 0.000072757146, -1534446.3, -15203.835, 0.0, 10.000015, 9.981857 
2.3150004e+3, 1.5495715e+2, -1436718.8, -1450820.8, -0.051232133, 0.000004393443, -0.000056064226, -1436718.8, -15298.771, 0.0, 10.000015, 9.981326 
2.3150004e+3, 1.6493239e+2, -1348668.0, -1371951.3, 0.014540117, 0.0000043721784, 0.000047913854, -1348668.0, -25005.328, 0.0, 10.000015, 9.969241 
2.3150004e+3, 1.7490166e+2, -1250710.1, -1274309.3, -0.05266364, 0.0000043461714, -0.000073012656, -1250710.1, -24746.418, 0.0, 10.000015, 9.968827 
2.3150004e+3, 1.848643e+2, -1162629.3, -1195719.1, 0.00933261, 0.0000043307546, 0.00006701829, -1162629.3, -34299.465, 0.0, 10.000014, 9.956388 
2.3150004e+3, 1.9482075e+2, -1064479.6, -1097832.1, -0.05202901, 0.000004326416, -0.000056928224, -1064479.6, -33722.91, 0.0, 10.000014, 9.956045 
2.3150004e+3, 2.0477049e+2, -976315.8, -1019434.2, 0.013067131, 0.000004310684, 0.00006872567, -976315.8, -43066.68, 0.0, 10.000014, 9.943283 
2.3150004e+3, 2.1471383e+2, -878028.94, -921409.1, -0.049997643, 0.000004282609, -0.00012619066, -878028.94, -42224.344, 0.0, 10.000014, 9.942943 
2.3150004e+3, 2.2465044e+2, -789742.9, -843144.1, 0.010481797, 0.0000042656543, 0.00012148255, -789742.9, -51317.254, 0.0, 10.000014, 9.929901 
2.3150004e+3, 2.3458041e+2, -691309.5, -744965.8, -0.047318082, 0.000004261288, -0.00008827529, -691309.5, -50197.563, 0.0, 10.000014, 9.929569 
2.3150004e+3, 2.4450344e+2, -602985.56, -667018.25, 0.013542114, 0.0000042531337, 0.00007520311, -602985.56, -59119.188, 0.0, 10.000014, 9.916129 
2.3150004e+3, 2.5441968e+2, -504233.03, -568342.9, -0.047441512, 0.0000042404395, -0.00010627774, -504233.03, -57545.918, 0.0, 10.000014, 9.916029 
2.3150004e+3, 2.6432887e+2, -415997.72, -490987.5, 0.014859391, 0.0000042278803, 0.0001410104, -415997.72, -66420.41, 0.0, 10.000014, 9.9019575 
2.3150004e+3, 2.7423134e+2, -316712.6, -391374.47, -0.03928915, 0.0000042154998, -0.00020308036, -316712.6, -64179.902, 0.0, 10.000014, 9.902378 
2.3150004e+3, 2.8412563e+2, -230239.39, -318081.0, 0.019220317, 0.000004207851, 0.00022936576, -230239.39, -74670.67, 0.0, 10.000014, 9.885432 
2.3150004e+3, 2.9401213e+2, -130533.37, -217764.84, -0.032702167, 0.0000042066727, -0.0002530551, -130533.37, -71852.15, 0.0, 10.000014, 9.88621 
2.3150004e+3, 3.0392656e+2, -40789.605, -84750.23, 0.024203766, 0.0000041998705, 0.00017336819, -40789.605, -40789.605, 0.0, 10.000014, 9.942165 
2.3150004e+3, 3.138706e+2, -39711.63, -82511.31, -0.028263494, 0.0000041846665, -0.00005500197, -39711.63, -39711.63, 0.0, 10.000014, 9.943677 
2.3250005e+3, 1.2499349e+2, -1719926.9, -1724223.0, 0.051300436, 0.000004573698, 0.000019077492, -1719926.9, -4862.9834, 0.0, 10.000016, 9.99432 
2.3250005e+3, 1.3498773e+2, -1622546.6, -1627433.5, -0.015981045, 0.000004538483, -0.00006842438, -1622546.6, -5426.3496, 0.0, 10.000016, 9.993537 
2.3250005e+3, 1.4497526e+2, -1534445.3, -1548144.6, 0.045835335, 0.000004512403, 0.0000728096, -1534445.3, -15202.798, 0.0, 10.000016, 9.981857 
2.3250005e+3, 1.5495715e+2, -1436717.8, -1450820.4, -0.025938129, 0.0000044946114, -0.000056040357, -1436717.8, -15297.749, 0.0, 10.000015, 9.981325 
2.3250005e+3, 1.6493239e+2, -1348667.0, -1371951.0, 0.039352637, 0.0000044727403, 0.000047925398, -1348667.0, -25004.316, 0.0, 10.000015, 9.969241 
2.3250005e+3, 1.7490166e+2, -1250709.1, -1274308.9, -0.025304187, 0.000004446705, -0.00007299682, -1250709.1, -24745.418, 0.0, 10.000015, 9.968827 
2.3250005e+3, 1.8486431e+2, -1162628.3, -1195718.8, 0.036008682, 0.0000044307185, 0.00006703554, -1162628.3, -34298.465, 0.0, 10.000015, 9.956388 
2.3250005e+3, 1.9482075e+2, -1064478.6, -1097831.8, -0.031401742, 0.0000044252433, -0.000056912602, -1064478.6, -33721.902, 0.0, 10.000015, 9.956045 
2.3250005e+3, 2.0477049e+2, -976314.75, -1019433.8, 0.033839017, 0.000004409437, 0.00006874058, -976314.75, -43065.68, 0.0, 10.000015, 9.943283 
2.3250005e+3, 2.1471383e+2, -878027.94, -921408.8, -0.031469904, 0.0000043824402, -0.00012617548, -878027.94, -42223.367, 0.0, 10.000015, 9.942943 
2.3250005e+3, 2.2465046e+2, -789741.9, -843143.8, 0.028287312, 0.0000043652203, 0.00012149728, -789741.9, -51316.28, 0.0, 10.000015, 9.9299 
2.3250005e+3, 2.3458041e+2, -691308.56, -744965.5, -0.033395838, 0.0000043590694, -0.00008826182, -691308.56, -50196.598, 0.0, 10.000015, 9.929569 
2.3250005e+3, 2.4450344e+2, -602984.56, -667017.94, 0.028455423, 0.0000043499704, 0.00007521418, -602984.56, -59118.223, 0.0, 10.000015, 9.916129 
2.3250005e+3, 2.5441968e+2, -504232.06, -568342.56, -0.03222766, 0.0000043373348, -0.000106270425, -504232.06, -57544.95, 0.0, 10.000015, 9.916029 
2.3250005e+3, 2.6432887e+2, -415996.72, -490987.22, 0.030330349, 0.0000043252003, 0.0001410171, -415996.72, -66419.445, 0.0, 10.000015, 9.9019575 
2.3250005e+3, 2.7423134e+2, -316711.63, -391374.2, -0.029687775, 0.000004313708, -0.00020307025, -316711.63, -64178.957, 0.0, 10.000015, 9.902378 
2.3250005e+3, 2.8412563e+2, -230238.45, -318080.72, 0.026733007, 0.0000043061477, 0.00022937695, -230238.45, -74669.73, 0.0, 10.000015, 9.885431 
2.3250005e+3, 2.9401213e+2, -130532.43, -217764.56, -0.028239913, 0.000004303963, -0.00025304605, -130532.43, -71851.22, 0.0, 10.000015, 9.88621 
2.3250005e+3, 3.0392656e+2, -40788.67, -84749.98, 0.03013854, 0.0000042963084, 0.00017337405, -40788.67, -40788.67, 0.0, 10.000015, 9.942165 
2.3250005e+3, 3.138706e+2, -39710.688, -82511.055, -0.021677481, 0.000004280491, -0.00005500077, -39710.688, -39710.688, 0.0, 10.000015, 9.943677 
2.3350008e+3, 1.2499349e+2, -1719927.0, -1724223.4, 0.017069027, 0.0000046858736, 0.000019114752, -1719927.0, -4863.176, 0.0, 10.000016, 9.994319 
2.3350008e+3, 1.3498773e+2, -1622546.8, -1627433.8, -0.05021935, 0.000004638988, -0.000068449575, -1622546.8, -5426.5386, 0.0, 10.000016, 9.993537 
2.3350008e+3, 1.4497526e+2, -1534445.4, -1548144.9, 0.014902151, 0.0000046089517, 0.00007286128, -1534445.4, -15202.995, 0.0, 10.000016, 9.981857 
2.3350008e+3, 1.5495716e+2, -1436717.9, -1450820.8, -0.05686653, 0.0000045949437, -0.000056016113, -1436717.9, -15297.941, 0.0, 10.000015, 9.981325 
2.3350008e+3, 1.6493239e+2, -1348667.1, -1371951.3, 0.012615652, 0.000004578173, 0.000047937483, -1348667.1, -25004.49, 0.0, 10.000015, 9.969241 
2.3350005e+3, 1.7490168e+2, -1250709.3, -1274309.1, -0.052020084, 0.0000045585825, -0.00007298128, -1250709.3, -24745.59, 0.0, 10.000015, 9.968827 
2.3350005e+3, 1.8486431e+2, -1162628.4, -1195719.0, 0.012218665, 0.0000045375955, 0.00006705335, -1162628.4, -34298.64, 0.0, 10.000015, 9.9563875 
2.3350005e+3, 1.9482075e+2, -1064478.8, -1097832.0, -0.055158477, 0.000004515142, -0.000056893758, -1064478.8, -33722.08, 0.0, 10.000015, 9.956045 
2.3350005e+3, 2.047705e+2, -976314.94, -1019434.1, 0.011019946, 0.000004499353, 0.000068757945, -976314.94, -43065.848, 0.0, 10.000015, 9.943283 
2.3350005e+3, 2.1471383e+2, -878028.06, -921409.1, -0.054270115, 0.0000044907792, -0.00012616231, -878028.06, -42223.53, 0.0, 10.000015, 9.942942 
2.3350005e+3, 2.2465046e+2, -789742.06, -843144.1, 0.010029315, 0.0000044776243, 0.00012151049, -789742.06, -51316.438, 0.0, 10.000015, 9.9299 
2.3350005e+3, 2.3458041e+2, -691308.7, -744965.8, -0.051506262, 0.0000044592784, -0.000088243774, -691308.7, -50196.75, 0.0, 10.000015, 9.929569 
2.3350005e+3, 2.4450344e+2, -602984.75, -667018.2, 0.0141408825, 0.00000444408, 0.00007523097, -602984.75, -59118.375, 0.0, 10.000015, 9.916129 
2.3350005e+3, 2.5441968e+2, -504232.2, -568342.8, -0.04636037, 0.000004432642, -0.00010626216, -504232.2, -57545.098, 0.0, 10.000015, 9.916029 
2.3350005e+3, 2.6432887e+2, -415996.88, -490987.47, 0.016348321, 0.0000044232634, 0.00014102155, -415996.88, -66419.59, 0.0, 10.000015, 9.9019575 
2.3350005e+3, 2.7423134e+2, -316711.78, -391374.47, -0.04366029, 0.0000044164913, -0.00020306362, -316711.78, -64179.1, 0.0, 10.000015, 9.902377 
2.3350005e+3, 2.8412563e+2, -230238.58, -318080.97, 0.017230097, 0.000004408989, 0.00022938613, -230238.58, -74669.87, 0.0, 10.000015, 9.885431 
2.3350005e+3, 2.9401213e+2, -130532.555, -217764.83, -0.037340995, 0.000004400471, -0.00025303382, -130532.555, -71851.35, 0.0, 10.000015, 9.8862095 
2.3350005e+3, 3.0392656e+2, -40788.797, -84750.234, 0.025536465, 0.000004391932, 0.00017338332, -40788.797, -40788.797, 0.0, 10.000015, 9.942165 
2.3350005e+3, 3.138706e+2, -39710.813, -82511.31, -0.025752211, 0.0000043833797, -0.000055003376, -39710.813, -39710.813, 0.0, 10.000015, 9.943677 
2.3450008e+3, 1.24993496e+2, -1719925.9, -1724223.0, 0.05497309, 0.0000047974904, 0.000019151197, -1719925.9, -4862.0947, 0.0, 10.000017, 9.994319 
2.3450008e+3, 1.3498773e+2, -1622545.6, -1627433.4, -0.019062623, 0.0000047428553, -0.00006846758, -1622545.6, -5425.451, 0.0, 10.000017, 9.993537 
2.3450008e+3, 1.4497526e+2, -1534444.3, -1548144.5, 0.04496594, 0.000004710334, 0.00007292064, -1534444.3, -15201.909, 0.0, 10.000016, 9.981857 
2.3450008e+3, 1.5495716e+2, -1436716.8, -1450820.4, -0.025480444, 0.000004699114, -0.00005599785, -1436716.8, -15296.864, 0.0, 10.000016, 9.981325 
2.3450008e+3, 1.6493239e+2, -1348666.0, -1371950.9, 0.043866996, 0.000004684327, 0.00004794255, -1348666.0, -25003.42, 0.0, 10.000016, 9.96924 
2.3450008e+3, 1.7490168e+2, -1250708.1, -1274308.9, -0.028801244, 0.0000046658997, -0.0000729609, -1250708.1, -24744.537, 0.0, 10.000016, 9.968827 
2.3450008e+3, 1.8486431e+2, -1162627.3, -1195718.8, 0.035616707, 0.000004643113, 0.000067078065, -1162627.3, -34297.598, 0.0, 10.000016, 9.9563875 
2.3450008e+3, 1.9482075e+2, -1064477.8, -1097831.8, -0.032750364, 0.0000046157597, -0.000056876223, -1064477.8, -33721.035, 0.0, 10.000016, 9.956044 
2.3450008e+3, 2.047705e+2, -976313.9, -1019433.75, 0.033260297, 0.0000045996976, 0.000068771646, -976313.9, -43064.81, 0.0, 10.000016, 9.943283 
2.3450008e+3, 2.1471383e+2, -878027.0, -921408.75, -0.032200437, 0.0000045958614, -0.0001261488, -878027.0, -42222.5, 0.0, 10.000016, 9.942942 
2.3450008e+3, 2.2465046e+2, -789741.0, -843143.8, 0.033232827, 0.000004583322, 0.00012152383, -789741.0, -51315.414, 0.0, 10.000016, 9.9299 
2.3450005e+3, 2.3458041e+2, -691307.6, -744965.5, -0.036195736, 0.0000045609254, -0.00008823056, -691307.6, -50195.734, 0.0, 10.000016, 9.929569 
2.3450005e+3, 2.4450344e+2, -602983.7, -667017.9, 0.027559537, 0.0000045442425, 0.00007524397, -602983.7, -59117.36, 0.0, 10.000016, 9.916128 
2.3450005e+3, 2.5441968e+2, -504231.16, -568342.5, -0.033806495, 0.000004534392, -0.00010624952, -504231.16, -57544.094, 0.0, 10.000016, 9.916029 
2.3450005e+3, 2.6432887e+2, -415995.88, -490987.2, 0.029757304, 0.000004525801, 0.00014103214, -415995.88, -66418.59, 0.0, 10.000016, 9.9019575 
2.3450005e+3, 2.7423134e+2, -316710.78, -391374.16, -0.030911634, 0.000004518794, -0.0002030572, -316710.78, -64178.11, 0.0, 10.000016, 9.902377 
2.3450005e+3, 2.8412563e+2, -230237.58, -318080.7, 0.0313415, 0.00000451047, 0.00022939083, -230237.58, -74668.875, 0.0, 10.000016, 9.885431 
2.3450005e+3, 2.9401213e+2, -130531.555, -217764.55, -0.028450968, 0.0000045003335, -0.00025302745, -130531.555, -71850.36, 0.0, 10.000016, 9.8862095 
2.3450005e+3, 3.0392656e+2, -40787.816, -84749.96, 0.0321029, 0.0000044917633, 0.00017339006, -40787.816, -40787.816, 0.0, 10.000016, 9.942165 
2.3450005e+3, 3.138706e+2, -39709.844, -82511.05, -0.023281699, 0.000004485543, -0.000054998254, -39709.844, -39709.844, 0.0, 10.000016, 9.943677 
2.3550007e+3, 1.24993496e+2, -1719926.1, -1724223.3, 0.023260957, 0.000004908548, 0.000019186858, -1719926.1, -4862.3047, 0.0, 10.000017, 9.994319 
2.3550007e+3, 1.3498773e+2, -1622545.9, -1627433.6, -0.050780714, 0.000004850085, -0.0000684784, -1622545.9, -5425.657, 0.0, 10.000017, 9.993537 
2.3550007e+3, 1.4497527e+2, -1534444.4, -1548144.9, 0.012936343, 0.0000048165493, 0.00007298766, -1534444.4, -15202.105, 0.0, 10.000016, 9.981856 
2.3550007e+3, 1.5495716e+2, -1436717.0, -1450820.6, -0.057511136, 0.0000048071215, -0.000055985576, -1436717.0, -15297.056, 0.0, 10.000016, 9.981325 
2.3550007e+3, 1.6493239e+2, -1348666.1, -1371951.1, 0.013708039, 0.000004791202, 0.000047940604, -1348666.1, -25003.615, 0.0, 10.000016, 9.96924 
2.3550007e+3, 1.7490168e+2, -1250708.4, -1274309.1, -0.058950998, 0.0000047686576, -0.00007293567, -1250708.4, -24744.729, 0.0, 10.000016, 9.968826 
2.3550007e+3, 1.8486431e+2, -1162627.5, -1195719.0, 0.011919301, 0.0000047472718, 0.00006710967, -1162627.5, -34297.777, 0.0, 10.000016, 9.9563875 
2.3550007e+3, 1.9482076e+2, -1064477.9, -1097832.0, -0.056373857, 0.000004727094, -0.000056859993, -1064477.9, -33721.21, 0.0, 10.000016, 9.956044 
2.3550007e+3, 2.047705e+2, -976314.0, -1019434.06, 0.009391085, 0.000004710468, 0.00006878169, -976314.0, -43064.977, 0.0, 10.000016, 9.943283 
2.3550007e+3, 2.1471383e+2, -878027.2, -921409.06, -0.056075703, 0.0000046976866, -0.000126135, -878027.2, -42222.668, 0.0, 10.000016, 9.942942 
2.3550007e+3, 2.2465046e+2, -789741.1, -843144.06, 0.014592322, 0.000004682316, 0.000121537276, -789741.1, -51315.59, 0.0, 10.000016, 9.9299 
2.3550007e+3, 2.3458041e+2, -691307.8, -744965.75, -0.05466535, 0.00000466401, -0.00008822217, -691307.8, -50195.902, 0.0, 10.000016, 9.929569 
2.3550007e+3, 2.4450344e+2, -602983.8, -667018.2, 0.011038226, 0.0000046504574, 0.00007525316, -602983.8, -59117.516, 0.0, 10.000016, 9.916128 
2.3550007e+3, 2.5441968e+2, -504231.3, -568342.8, -0.050235197, 0.000004642583, -0.000106232495, -504231.3, -57544.246, 0.0, 10.000016, 9.916028 
2.3550007e+3, 2.6432887e+2, -415996.0, -490987.47, 0.016524732, 0.000004632814, 0.0001410489, -415996.0, -66418.75, 0.0, 10.000016, 9.9019575 
2.3550007e+3, 2.7423134e+2, -316710.9, -391374.44, -0.043930758, 0.0000046206164, -0.000203051, -316710.9, -64178.254, 0.0, 10.000016, 9.902377 
2.3550007e+3, 2.8412563e+2, -230237.7, -318080.97, 0.022006012, 0.0000046105924, 0.00022939105, -230237.7, -74669.016, 0.0, 10.000016, 9.885431 
2.3550007e+3, 2.9401213e+2, -130531.69, -217764.81, -0.037455138, 0.0000046035507, -0.0002530269, -130531.69, -71850.5, 0.0, 10.000016, 9.8862095 
2.3550007e+3, 3.0392656e+2, -40787.95, -84750.234, 0.024553763, 0.000004595801, 0.00017339429, -40787.95, -40787.95, 0.0, 10.000016, 9.942165 
2.3550007e+3, 3.138706e+2, -39709.977, -82511.32, -0.030660938, 0.000004586981, -0.0000549854, -39709.977, -39709.977, 0.0, 10.000016, 9.943676 
2.3650007e+3, 1.249935e+2, -1719924.9, -1724222.9, 0.057673827, 0.0000050169165, 0.000019230209, -1719924.9, -4861.146, 0.0, 10.000017, 9.994319 
2.3650007e+3, 1.3498774e+2, -1622544.6, -1627433.3, -0.020415727, 0.000004962743, -0.00006849705, -1622544.6, -5424.53, 0.0, 10.000017, 9.993536 
2.3650007e+3, 1.4497527e+2, -1534443.3, -1548144.5, 0.043474663, 0.0000049298665, 0.00007304993, -1534443.3, -15200.983, 0.0, 10.000017, 9.981856 
2.3650007e+3, 1.5495716e+2, -1436715.8, -1450820.3, -0.02851822, 0.0000049174228, -0.000055963133, -1436715.8, -15295.938, 0.0, 10.000017, 9.981325 
2.3650007e+3, 1.649324e+2, -1348665.0, -1371950.8, 0.04363729, 0.0000048988086, 0.000047948342, -1348665.0, -25002.502, 0.0, 10.000017, 9.96924 
2.3650007e+3, 1.7490168e+2, -1250707.1, -1274308.8, -0.030697633, 0.0000048738966, -0.00007291696, -1250707.1, -24743.615, 0.0, 10.000017, 9.968826 
2.3650007e+3, 1.8486431e+2, -1162626.3, -1195718.6, 0.04063508, 0.0000048542597, 0.000067131594, -1162626.3, -34296.67, 0.0, 10.000017, 9.9563875 
2.3650007e+3, 1.9482076e+2, -1064476.8, -1097831.6, -0.031077243, 0.0000048401375, -0.000056842957, -1064476.8, -33720.137, 0.0, 10.000017, 9.956044 
2.3650007e+3, 2.047705e+2, -976312.94, -1019433.7, 0.034328677, 0.0000048225843, 0.000068796704, -976312.94, -43063.906, 0.0, 10.000017, 9.943282 
2.3650007e+3, 2.1471383e+2, -878026.06, -921408.7, -0.038126513, 0.0000048013117, -0.00012611889, -878026.06, -42221.586, 0.0, 10.000017, 9.942942 
2.3650007e+3, 2.2465046e+2, -789740.06, -843143.75, 0.03208253, 0.0000047841845, 0.000121552606, -789740.06, -51314.508, 0.0, 10.000017, 9.9299 
2.3650007e+3, 2.3458041e+2, -691306.7, -744965.44, -0.033946708, 0.000004771747, -0.000088209716, -691306.7, -50194.84, 0.0, 10.000017, 9.929568 
2.3650007e+3, 2.4450344e+2, -602982.75, -667017.8, 0.03307985, 0.0000047603803, 0.000075263815, -602982.75, -59116.46, 0.0, 10.000017, 9.916128 
2.3650007e+3, 2.5441968e+2, -504230.25, -568342.44, -0.035300653, 0.000004750284, -0.00010622237, -504230.25, -57543.203, 0.0, 10.000017, 9.916028 
2.3650007e+3, 2.6432887e+2, -415994.94, -490987.16, 0.030150756, 0.0000047384397, 0.00014105893, -415994.94, -66417.7, 0.0, 10.000016, 9.901957 
2.3650007e+3, 2.7423134e+2, -316709.84, -391374.13, -0.03452474, 0.0000047243625, -0.00020304056, -316709.84, -64177.21, 0.0, 10.000016, 9.902377 
2.3650007e+3, 2.8412563e+2, -230236.66, -318080.66, 0.030897522, 0.0000047143885, 0.00022940105, -230236.66, -74667.98, 0.0, 10.000016, 9.885431 
2.3650007e+3, 2.9401213e+2, -130530.65, -217764.52, -0.02842136, 0.0000047100352, -0.00025301854, -130530.65, -71849.47, 0.0, 10.000016, 9.8862095 
2.3650007e+3, 3.0392656e+2, -40786.926, -84749.96, 0.0341963, 0.000004702522, 0.00017340072, -40786.926, -40786.926, 0.0, 10.000016, 9.942165 
2.3650007e+3, 3.138706e+2, -39708.953, -82511.05, -0.025359783, 0.000004690274, -0.000054981283, -39708.953, -39708.953, 0.0, 10.000016, 9.943676 
2.3750007e+3, 1.249935e+2, -1719925.0, -1724223.3, 0.019713437, 0.000005122598, 0.00001928128, -1719925.0, -4861.3667, 0.0, 10.000017, 9.994319 
2.3750007e+3, 1.3498774e+2, -1622544.9, -1627433.6, -0.05838325, 0.0000050808276, -0.00006852353, -1622544.9, -5424.7466, 0.0, 10.000017, 9.993536 
2.3750007e+3, 1.4497527e+2, -1534443.4, -1548144.8, 0.011484488, 0.0000050502845, 0.000073107425, -1534443.4, -15201.185, 0.0, 10.000017, 9.981856 
2.3750007e+3, 1.5495716e+2, -1436716.0, -1450820.6, -0.060500115, 0.0000050300173, -0.000055930534, -1436716.0, -15296.135, 0.0, 10.000017, 9.981324 
2.3750007e+3, 1.649324e+2, -1348665.1, -1371951.1, 0.014611111, 0.000005007146, 0.000047965765, -1348665.1, -25002.701, 0.0, 10.000017, 9.96924 
2.3750007e+3, 1.7490168e+2, -1250707.4, -1274309.1, -0.05970883, 0.000004981617, -0.00007290479, -1250707.4, -24743.81, 0.0, 10.000017, 9.968826 
2.3750007e+3, 1.8486431e+2, -1162626.5, -1195718.9, 0.010920665, 0.0000049640767, 0.00006714384, -1162626.5, -34296.86, 0.0, 10.000017, 9.9563875 
2.3750007e+3, 1.9482076e+2, -1064476.9, -1097832.0, -0.06080075, 0.0000049548908, -0.000056825113, -1064476.9, -33720.32, 0.0, 10.000017, 9.956044 
2.3750007e+3, 2.047705e+2, -976313.06, -1019434.0, 0.014272271, 0.000004936045, 0.00006881669, -976313.06, -43064.094, 0.0, 10.000017, 9.943282 
2.3750007e+3, 2.1471384e+2, -878026.2, -921409.0, -0.057984002, 0.0000049067357, -0.00012610051, -878026.2, -42221.766, 0.0, 10.000017, 9.942942 
2.3750007e+3, 2.2465046e+2, -789740.2, -843144.0, 0.010437032, 0.0000048889274, 0.00012156982, -789740.2, -51314.676, 0.0, 10.000017, 9.9299 
2.3750007e+3, 2.3458043e+2, -691306.9, -744965.75, -0.055651587, 0.0000048841366, -0.00008819319, -691306.9, -50195.004, 0.0, 10.000017, 9.929568 
2.3750007e+3, 2.4450344e+2, -602982.9, -667018.1, 0.014984241, 0.000004874011, 0.00007527592, -602982.9, -59116.63, 0.0, 10.000017, 9.916128 
2.3750007e+3, 2.5441968e+2, -504230.4, -568342.75, -0.053223547, 0.0000048574957, -0.00010621912, -504230.4, -57543.367, 0.0, 10.000017, 9.916028 
2.3750007e+3, 2.6432887e+2, -415995.1, -490987.44, 0.018362047, 0.000004842678, 0.00014106222, -415995.1, -66417.87, 0.0, 10.000016, 9.901957 
2.3750007e+3, 2.7423134e+2, -316710.0, -391374.44, -0.045903005, 0.0000048300326, -0.00020302588, -316710.0, -64177.367, 0.0, 10.000016, 9.902377 
2.3750007e+3, 2.8412563e+2, -230236.8, -318080.94, 0.019937167, 0.000004821858, 0.00022942081, -230236.8, -74668.125, 0.0, 10.000016, 9.88543 
2.3750007e+3, 2.9401213e+2, -130530.78, -217764.8, -0.03934498, 0.0000048197867, -0.00025300236, -130530.78, -71849.62, 0.0, 10.000016, 9.8862095 
2.3750007e+3, 3.0392656e+2, -40787.066, -84750.25, 0.027236274, 0.0000048119264, 0.00017340938, -40787.066, -40787.066, 0.0, 10.000016, 9.942164 
2.3750007e+3, 3.138706e+2, -39709.094, -82511.336, -0.03185507, 0.0000047954227, -0.000054985896, -39709.094, -39709.094, 0.0, 10.000016, 9.943676 
2.3850007e+3, 1.2499351e+2, -1719923.9, -1724222.8, 0.05874875, 0.000005238237, 0.000019322375, -1719923.9, -4860.171, 0.0, 10.000018, 9.994318 
2.3850007e+3, 1.3498774e+2, -1622543.6, -1627433.3, -0.02024689, 0.0000051962224, -0.000068546855, -1622543.6, -5423.5566, 0.0, 10.000018, 9.993536 
2.3850007e+3, 1.4497527e+2, -1534442.3, -1548144.4, 0.050200716, 0.000005165261, 0.00007317114, -1534442.3, -15200.0, 0.0, 10.000018, 9.981856 
2.3850007e+3, 1.5495718e+2, -1436714.8, -1450820.1, -0.029646972, 0.000005144376, -0.000055906, -1436714.8, -15294.967, 0.0, 10.000018, 9.981324 
2.3850007e+3, 1.649324e+2, -1348664.0, -1371950.8, 0.044591676, 0.000005121755, 0.00004797509, -1348664.0, -25001.545, 0.0, 10.000018, 9.96924 
2.3850007e+3, 1.749017e+2, -1250706.1, -1274308.6, -0.03023057, 0.000005097364, -0.00007288616, -1250706.1, -24742.668, 0.0, 10.000018, 9.968826 
2.3850007e+3, 1.8486433e+2, -1162625.3, -1195718.5, 0.039915286, 0.000005078006, 0.000067165696, -1162625.3, -34295.715, 0.0, 10.000018, 9.956387 
2.3850007e+3, 1.9482076e+2, -1064475.8, -1097831.5, -0.03758441, 0.000005063909, -0.000056806362, -1064475.8, -33719.164, 0.0, 10.000018, 9.956044 
2.3850007e+3, 2.047705e+2, -976311.9, -1019433.6, 0.03796444, 0.000005044944, 0.00006883367, -976311.9, -43062.945, 0.0, 10.000018, 9.943282 
2.3850007e+3, 2.1471384e+2, -878025.06, -921408.6, -0.03580995, 0.0000050207036, -0.00012608385, -878025.06, -42220.65, 0.0, 10.000018, 9.942941 
2.3850007e+3, 2.2465046e+2, -789739.06, -843143.7, 0.03168222, 0.0000050041017, 0.000121585465, -789739.06, -51313.57, 0.0, 10.000018, 9.929899 
2.3850007e+3, 2.3458043e+2, -691305.75, -744965.4, -0.039509423, 0.000004996146, -0.00008817937, -691305.75, -50193.895, 0.0, 10.000017, 9.929568 
2.3850007e+3, 2.4450345e+2, -602981.75, -667017.8, 0.031521942, 0.0000049837427, 0.000075288604, -602981.75, -59115.523, 0.0, 10.000017, 9.916128 
2.3850007e+3, 2.5441968e+2, -504229.28, -568342.44, -0.038663056, 0.000004966015, -0.000106206775, -504229.28, -57542.258, 0.0, 10.000017, 9.916028 
2.3850007e+3, 2.6432887e+2, -415993.97, -490987.1, 0.033313084, 0.0000049514774, 0.00014107369, -415993.97, -66416.76, 0.0, 10.000017, 9.901957 
2.3850007e+3, 2.7423134e+2, -316708.9, -391374.1, -0.033855863, 0.0000049410082, -0.00020301597, -316708.9, -64176.285, 0.0, 10.000017, 9.902376 
2.3850007e+3, 2.8412563e+2, -230235.7, -318080.63, 0.03116256, 0.0000049332866, 0.00022942957, -230235.7, -74667.055, 0.0, 10.000017, 9.88543 
2.3850007e+3, 2.9401213e+2, -130529.7, -217764.48, -0.03270338, 0.0000049293017, -0.00025299418, -130529.7, -71848.54, 0.0, 10.000017, 9.886209 
2.3850007e+3, 3.0392656e+2, -40786.0, -84749.95, 0.03496408, 0.0000049208916, 0.00017341552, -40786.0, -40786.0, 0.0, 10.000017, 9.942164 
2.3850007e+3, 3.138706e+2, -39708.023, -82511.04, -0.022629084, 0.000004905884, -0.00005498404, -39708.023, -39708.023, 0.0, 10.000017, 9.943676 
2.3950008e+3, 1.2499352e+2, -1719924.0, -1724223.1, 0.020353876, 0.000005363832, 0.000019353534, -1719924.0, -4860.3955, 0.0, 10.000018, 9.994318 
2.3950008e+3, 1.3498776e+2, -1622543.8, -1627433.5, -0.058649253, 0.000005308928, -0.00006856702, -1622543.8, -5423.778, 0.0, 10.000018, 9.993536 
2.3950008e+3, 1.4497529e+2, -1534442.4, -1548144.8, 0.015384997, 0.0000052747982, 0.00007324107, -1534442.4, -15200.22, 0.0, 10.000018, 9.981855 
2.3950008e+3, 1.5495718e+2, -1436715.0, -1450820.5, -0.06445765, 0.0000052604983, -0.000055889534, -1436715.0, -15295.183, 0.0, 10.000018, 9.981324 
2.3950008e+3, 1.649324e+2, -1348664.1, -1371951.0, 0.013264758, 0.000005242635, 0.000047976326, -1348664.1, -25001.746, 0.0, 10.000018, 9.969239 
2.3950008e+3, 1.749017e+2, -1250706.4, -1274309.0, -0.06154041, 0.000005221136, -0.000072861105, -1250706.4, -24742.865, 0.0, 10.000018, 9.968826 
2.3950008e+3, 1.8486433e+2, -1162625.5, -1195718.9, 0.014256799, 0.0000051960465, 0.00006719717, -1162625.5, -34295.918, 0.0, 10.000018, 9.956387 
2.3950008e+3, 1.9482076e+2, -1064475.9, -1097831.9, -0.063178085, 0.000005167196, -0.000056786703, -1064475.9, -33719.363, 0.0, 10.000018, 9.956043 
2.3950008e+3, 2.0477052e+2, -976312.06, -1019433.94, 0.010994985, 0.0000051492825, 0.00006884765, -976312.06, -43063.133, 0.0, 10.000018, 9.943282 
2.3950008e+3, 2.1471384e+2, -878025.25, -921408.94, -0.06280852, 0.0000051432125, -0.0001260689, -878025.25, -42220.836, 0.0, 10.000018, 9.942941 
2.3950008e+3, 2.2465047e+2, -789739.2, -843144.0, 0.010939841, 0.0000051297056, 0.00012159953, -789739.2, -51313.75, 0.0, 10.000018, 9.929899 
2.3950008e+3, 2.3458043e+2, -691305.9, -744965.7, -0.060048286, 0.000005107775, -0.00008816824, -691305.9, -50194.07, 0.0, 10.000017, 9.929568 
2.3950008e+3, 2.4450345e+2, -602981.94, -667018.1, 0.015598293, 0.0000050895765, 0.00007530186, -602981.94, -59115.7, 0.0, 10.000017, 9.916127 
2.3950008e+3, 2.5441968e+2, -504229.4, -568342.75, -0.05436567, 0.0000050758413, -0.00010618534, -504229.4, -57542.43, 0.0, 10.000017, 9.916028 
2.3950008e+3, 2.6432887e+2, -415994.13, -490987.4, 0.01724185, 0.000005064835, 0.00014109335, -415994.13, -66416.93, 0.0, 10.000017, 9.901957 
2.3950008e+3, 2.7423134e+2, -316709.03, -391374.4, -0.04995253, 0.000005057287, -0.00020301082, -316709.03, -64176.45, 0.0, 10.000017, 9.902376 
2.3950008e+3, 2.8412563e+2, -230235.86, -318080.9, 0.0205064, 0.0000050486733, 0.00022942734, -230235.86, -74667.21, 0.0, 10.000017, 9.88543 
2.3950008e+3, 2.9401213e+2, -130529.84, -217764.8, -0.042870294, 0.00000503858, -0.00025299395, -130529.84, -71848.695, 0.0, 10.000017, 9.886209 
2.3950008e+3, 3.0392656e+2, -40786.137, -84750.24, 0.028265072, 0.0000050294175, 0.00017341913, -40786.137, -40786.137, 0.0, 10.000017, 9.942164 
2.3950008e+3, 3.138706e+2, -39708.164, -82511.33, -0.028922284, 0.000005021658, -0.000054975724, -39708.164, -39708.164, 0.0, 10.000017, 9.943676 
2.4050008e+3, 1.2499352e+2, -1719922.8, -1724222.6, 0.06326198, 0.000005487902, 0.000019396006, -1719922.8, -4859.1533, 0.0, 10.000019, 9.994318 
2.4050008e+3, 1.3498776e+2, -1622542.5, -1627433.1, -0.021599593, 0.000005426567, -0.00006858967, -1622542.5, -5422.534, 0.0, 10.000019, 9.993536 
2.4050008e+3, 1.4497529e+2, -1534441.1, -1548144.3, 0.051247787, 0.000005391028, 0.00007330849, -1534441.1, -15198.979, 0.0, 10.000019, 9.981855 
2.4050008e+3, 1.5495718e+2, -1436713.6, -1450820.1, -0.028792521, 0.000005380344, -0.000055869255, -1436713.6, -15293.956, 0.0, 10.000019, 9.981324 
2.4050008e+3, 1.6493241e+2, -1348662.9, -1371950.6, 0.04885719, 0.000005363051, 0.00004798209, -1348662.9, -25000.53, 0.0, 10.000019, 9.969239 
2.4050008e+3, 1.749017e+2, -1250705.1, -1274308.6, -0.035144903, 0.0000053390118, -0.000072836534, -1250705.1, -24741.656, 0.0, 10.000019, 9.968825 
2.4050008e+3, 1.8486433e+2, -1162624.3, -1195718.5, 0.040487487, 0.0000053127123, 0.00006722628, -1162624.3, -34294.715, 0.0, 10.000019, 9.956387 
2.4050008e+3, 1.9482076e+2, -1064474.8, -1097831.5, -0.036596376, 0.000005284042, -0.000056767993, -1064474.8, -33718.18, 0.0, 10.000019, 9.956043 
2.4050008e+3, 2.0477052e+2, -976310.9, -1019433.56, 0.03752984, 0.0000052666783, 0.000068861424, -976310.9, -43061.957, 0.0, 10.000019, 9.943282 
2.4050008e+3, 2.1471384e+2, -878024.0, -921408.56, -0.03819559, 0.0000052615574, -0.00012605415, -878024.0, -42219.66, 0.0, 10.000019, 9.942941 
2.4050008e+3, 2.2465047e+2, -789738.0, -843143.6, 0.037208855, 0.000005246789, 0.000121614685, -789738.0, -51312.58, 0.0, 10.000018, 9.929899 
2.4050008e+3, 2.3458043e+2, -691304.7, -744965.3, -0.040924173, 0.0000052210926, -0.00008815338, -691304.7, -50192.902, 0.0, 10.000018, 9.929568 
2.4050008e+3, 2.4450345e+2, -602980.75, -667017.75, 0.032677166, 0.000005202435, 0.00007531631, -602980.75, -59114.54, 0.0, 10.000018, 9.916127 
2.4050008e+3, 2.5441968e+2, -504228.25, -568342.4, -0.03907696, 0.0000051921925, -0.00010617143, -504228.25, -57541.285, 0.0, 10.000018, 9.916027 
2.4050008e+3, 2.6432887e+2, -415992.97, -490987.06, 0.033023793, 0.0000051823836, 0.00014110531, -415992.97, -66415.79, 0.0, 10.000018, 9.901957 
2.4050008e+3, 2.7423134e+2, -316707.9, -391374.06, -0.035577137, 0.000005173102, -0.00020300254, -316707.9, -64175.313, 0.0, 10.000018, 9.902376 
2.4050008e+3, 2.8412563e+2, -230234.7, -318080.6, 0.036720555, 0.0000051632105, 0.00022943324, -230234.7, -74666.07, 0.0, 10.000018, 9.88543 
2.4050008e+3, 2.9401213e+2, -130528.71, -217764.47, -0.030654257, 0.0000051524776, -0.00025298868, -130528.71, -71847.57, 0.0, 10.000018, 9.886209 
2.4050008e+3, 3.0392656e+2, -40785.02, -84749.94, 0.03702455, 0.000005142863, 0.00017342501, -40785.02, -40785.02, 0.0, 10.000018, 9.942164 
2.4050008e+3, 3.138706e+2, -39707.047, -82511.02, -0.029408814, 0.0000051349266, -0.000054967502, -39707.047, -39707.047, 0.0, 10.000018, 9.943675 
2.4150008e+3, 1.24993525e+2, -1719922.9, -1724223.0, 0.026178397, 0.000005610448, 0.000019449826, -1719922.9, -4859.394, 0.0, 10.000019, 9.994318 
2.4150008e+3, 1.3498776e+2, -1622542.8, -1627433.5, -0.058689974, 0.0000055491387, -0.00006861479, -1622542.8, -5422.7705, 0.0, 10.000019, 9.993535 
2.4150008e+3, 1.4497529e+2, -1534441.3, -1548144.6, 0.013950112, 0.000005513949, 0.000073373405, -1534441.3, -15199.202, 0.0, 10.000019, 9.981855 
2.4150008e+3, 1.5495718e+2, -1436713.9, -1450820.5, -0.06609153, 0.000005503913, -0.000055845157, -1436713.9, -15294.175, 0.0, 10.000019, 9.981324 
2.4150008e+3, 1.6493241e+2, -1348663.1, -1371951.0, 0.016918719, 0.000005483004, 0.000047992376, -1348663.1, -25000.752, 0.0, 10.000019, 9.969239 
2.4150008e+3, 1.749017e+2, -1250705.3, -1274309.0, -0.067055725, 0.000005450995, -0.00007281245, -1250705.3, -24741.875, 0.0, 10.000019, 9.968825 
2.4150008e+3, 1.8486433e+2, -1162624.4, -1195718.8, 0.011471479, 0.000005428004, 0.00006725303, -1162624.4, -34294.918, 0.0, 10.000019, 9.956387 
2.4150008e+3, 1.9482078e+2, -1064474.9, -1097831.9, -0.065579936, 0.000005414444, -0.000056750232, -1064474.9, -33718.38, 0.0, 10.000019, 9.956043 
2.4150008e+3, 2.0477052e+2, -976311.0, -1019433.9, 0.011098984, 0.0000053971276, 0.00006887501, -976311.0, -43062.15, 0.0, 10.000019, 9.943281 
2.4150008e+3, 2.1471384e+2, -878024.2, -921408.94, -0.0645749, 0.0000053757403, -0.00012603954, -878024.2, -42219.85, 0.0, 10.000019, 9.942941 
2.4150008e+3, 2.2465047e+2, -789738.2, -843143.94, 0.016567187, 0.000005355354, 0.00012163093, -789738.2, -51312.773, 0.0, 10.000018, 9.929899 
2.4150008e+3, 2.3458043e+2, -691304.9, -744965.6, -0.06137874, 0.0000053361, -0.00008813477, -691304.9, -50193.094, 0.0, 10.000018, 9.929567 
2.4150008e+3, 2.4450345e+2, -602980.94, -667018.06, 0.013071702, 0.000005322318, 0.00007533197, -602980.94, -59114.72, 0.0, 10.000018, 9.916127 
2.4150008e+3, 2.5441968e+2, -504228.4, -568342.7, -0.058642507, 0.000005315068, -0.000106165055, -504228.4, -57541.46, 0.0, 10.000018, 9.916027 
2.4150008e+3, 2.6432887e+2, -415993.13, -490987.38, 0.018139077, 0.000005304122, 0.00014110962, -415993.13, -66415.96, 0.0, 10.000018, 9.901956 
2.4150008e+3, 2.7423134e+2, -316708.06, -391374.38, -0.05014932, 0.000005288453, -0.00020299113, -316708.06, -64175.477, 0.0, 10.000018, 9.902376 
2.4150008e+3, 2.8412563e+2, -230234.86, -318080.9, 0.025689105, 0.0000052768987, 0.00022944724, -230234.86, -74666.24, 0.0, 10.000018, 9.88543 
2.4150008e+3, 2.9401213e+2, -130528.86, -217764.78, -0.041367404, 0.000005270993, -0.00025297832, -130528.86, -71847.73, 0.0, 10.000018, 9.886209 
2.4150008e+3, 3.0392656e+2, -40785.176, -84750.266, 0.02940173, 0.0000052612277, 0.00017343315, -40785.176, -40785.176, 0.0, 10.000018, 9.942163 
2.4150008e+3, 3.138706e+2, -39707.207, -82511.35, -0.036669537, 0.0000052456903, -0.000054959382, -39707.207, -39707.207, 0.0, 10.000018, 9.943675 
2.4250007e+3, 1.24993525e+2, -1719921.5, -1724222.6, 0.06477185, 0.000005734332, 0.00001950021, -1719921.5, -4858.0767, 0.0, 10.00002, 9.994317 
2.4250007e+3, 1.3498776e+2, -1622541.4, -1627433.0, -0.022169866, 0.000005676901, -0.00006864047, -1622541.4, -5421.482, 0.0, 10.00002, 9.993535 
2.4250007e+3, 1.4497529e+2, -1534440.0, -1548144.1, 0.05037265, 0.000005641233, 0.000073442694, -1534440.0, -15197.919, 0.0, 10.00002, 9.981855 
2.4250007e+3, 1.5495719e+2, -1436712.5, -1450820.0, -0.03496501, 0.0000056263084, -0.000055817585, -1436712.5, -15292.889, 0.0, 10.00002, 9.981323 
2.4250007e+3, 1.6493241e+2, -1348661.8, -1371950.5, 0.049217757, 0.0000056033673, 0.000048003207, -1348661.8, -24999.475, 0.0, 10.00002, 9.969239 
2.4250007e+3, 1.7490171e+2, -1250704.0, -1274308.5, -0.033875607, 0.000005572243, -0.000072792835, -1250704.0, -24740.611, 0.0, 10.00002, 9.968825 
2.4250007e+3, 1.8486434e+2, -1162623.1, -1195718.4, 0.044859122, 0.0000055512814, 0.00006727558, -1162623.1, -34293.664, 0.0, 10.00002, 9.956386 
2.4250007e+3, 1.9482078e+2, -1064473.6, -1097831.4, -0.037837707, 0.0000055409478, -0.000056730856, -1064473.6, -33717.14, 0.0, 10.00002, 9.956043 
2.4250007e+3, 2.0477052e+2, -976309.75, -1019433.5, 0.038479153, 0.0000055217956, 0.0000688931, -976309.75, -43060.92, 0.0, 10.00002, 9.943281 
2.4250007e+3, 2.1471384e+2, -878022.94, -921408.5, -0.044215266, 0.0000054930892, -0.00012602065, -878022.94, -42218.613, 0.0, 10.00002, 9.942941 
2.4250007e+3, 2.2465047e+2, -789736.94, -843143.56, 0.03560452, 0.0000054716206, 0.00012164942, -789736.94, -51311.54, 0.0, 10.000019, 9.929898 
2.4250007e+3, 2.3458043e+2, -691303.6, -744965.25, -0.04150024, 0.0000054583443, -0.000088118046, -691303.6, -50191.883, 0.0, 10.000019, 9.929567 
2.4250007e+3, 2.4450345e+2, -602979.7, -667017.7, 0.034867402, 0.00000544634, 0.00007534558, -602979.7, -59113.516, 0.0, 10.000019, 9.916127 
2.4250007e+3, 2.5441968e+2, -504227.22, -568342.3, -0.040075507, 0.000005435842, -0.000106156185, -504227.22, -57540.266, 0.0, 10.000019, 9.916027 
2.4250007e+3, 2.6432887e+2, -415991.9, -490987.03, 0.036161367, 0.000005422838, 0.00014111781, -415991.9, -66414.77, 0.0, 10.000019, 9.901956 
2.4250007e+3, 2.7423137e+2, -316706.84, -391374.03, -0.04049479, 0.000005406637, -0.00020297845, -316706.84, -64174.29, 0.0, 10.000019, 9.902376 
2.4250007e+3, 2.8412563e+2, -230233.66, -318080.56, 0.03266232, 0.0000053952895, 0.00022946192, -230233.66, -74665.05, 0.0, 10.000019, 9.885429 
2.4250007e+3, 2.9401213e+2, -130527.67, -217764.44, -0.0351489, 0.0000053905937, -0.00025296508, -130527.67, -71846.55, 0.0, 10.000019, 9.886209 
2.4250007e+3, 3.0392656e+2, -40784.004, -84749.945, 0.03837263, 0.0000053808567, 0.00017344253, -40784.004, -40784.004, 0.0, 10.000019, 9.942163 
2.4250007e+3, 3.138706e+2, -39706.04, -82511.04, -0.026756322, 0.000005363584, -0.000054957432, -39706.04, -39706.04, 0.0, 10.000019, 9.943675 
2.4350007e+3, 1.2499353e+2, -1719921.8, -1724223.0, 0.022144008, 0.0000058595538, 0.000019547206, -1719921.8, -4858.324, 0.0, 10.00002, 9.994317 
2.4350007e+3, 1.3498777e+2, -1622541.6, -1627433.4, -0.064805865, 0.000005809853, -0.00006866669, -1622541.6, -5421.725, 0.0, 10.00002, 9.993535 
2.4350007e+3, 1.449753e+2, -1534440.1, -1548144.5, 0.014771202, 0.0000057728807, 0.000073516356, -1534440.1, -15198.155, 0.0, 10.00002, 9.981855 
2.4350007e+3, 1.5495719e+2, -1436712.8, -1450820.4, -0.0705563, 0.0000057475313, -0.00005578654, -1436712.8, -15293.121, 0.0, 10.00002, 9.981323 
2.4350007e+3, 1.6493241e+2, -1348662.0, -1371950.9, 0.014809993, 0.000005724141, 0.000048014583, -1348662.0, -24999.697, 0.0, 10.00002, 9.969238 
2.4350007e+3, 1.7490171e+2, -1250704.1, -1274308.9, -0.06827813, 0.000005702754, -0.00007277769, -1250704.1, -24740.832, 0.0, 10.00002, 9.968825 
2.4350007e+3, 1.8486434e+2, -1162623.3, -1195718.8, 0.012311819, 0.0000056825425, 0.00006729394, -1162623.3, -34293.883, 0.0, 10.00002, 9.956386 
2.4350007e+3, 1.9482078e+2, -1064473.8, -1097831.8, -0.07036464, 0.000005663556, -0.000056709865, -1064473.8, -33717.355, 0.0, 10.00002, 9.956043 
2.4350007e+3, 2.0477052e+2, -976309.94, -1019433.9, 0.015151221, 0.000005640685, 0.00006891573, -976309.94, -43061.133, 0.0, 10.00002, 9.943281 
2.4350007e+3, 2.1471386e+2, -878023.1, -921408.9, -0.06735406, 0.000005613604, -0.00012599747, -878023.1, -42218.82, 0.0, 10.00002, 9.94294 
2.4350007e+3, 2.2465047e+2, -789737.1, -843143.9, 0.01072821, 0.0000055955866, 0.00012167015, -789737.1, -51311.734, 0.0, 10.000019, 9.929898 
2.4350007e+3, 2.3458043e+2, -691303.8, -744965.6, -0.06643427, 0.0000055878254, -0.00008810319, -691303.8, -50192.074, 0.0, 10.000019, 9.929567 
2.4350007e+3, 2.4450345e+2, -602979.9, -667018.0, 0.014908449, 0.0000055745004, 0.00007535715, -602979.9, -59113.703, 0.0, 10.000019, 9.916127 
2.4350007e+3, 2.5441968e+2, -504227.38, -568342.7, -0.05979672, 0.0000055545156, -0.00010614481, -504227.38, -57540.445, 0.0, 10.000019, 9.916027 
2.4350007e+3, 2.6432887e+2, -415992.1, -490987.38, 0.02190071, 0.000005538533, 0.00014112989, -415992.1, -66414.96, 0.0, 10.000019, 9.901956 
2.4350007e+3, 2.7423137e+2, -316707.0, -391374.38, -0.054389875, 0.0000055276532, -0.00020296451, -316707.0, -64174.473, 0.0, 10.000019, 9.902375 
2.4350007e+3, 2.8412563e+2, -230233.81, -318080.88, 0.020643957, 0.0000055183814, 0.00022947727, -230233.81, -74665.22, 0.0, 10.000019, 9.885429 
2.4350007e+3, 2.9401213e+2, -130527.83, -217764.75, -0.046999387, 0.0000055112796, -0.00025294896, -130527.83, -71846.71, 0.0, 10.000019, 9.886208 
2.4350007e+3, 3.0392656e+2, -40784.16, -84750.266, 0.03002128, 0.0000055017504, 0.00017345314, -40784.16, -40784.16, 0.0, 10.000019, 9.942163 
2.4350007e+3, 3.138706e+2, -39706.195, -82511.36, -0.034697898, 0.0000054886054, -0.000054961652, -39706.195, -39706.195, 0.0, 10.000019, 9.943675 
2.4450007e+3, 1.2499354e+2, -1719920.4, -1724222.5, 0.066997886, 0.000005991884, 0.000019592477, -1719920.4, -4856.9614, 0.0, 10.000021, 9.994317 
2.4450007e+3, 1.3498777e+2, -1622540.1, -1627432.9, -0.0254622, 0.0000059393356, -0.00006869069, -1622540.1, -5420.364, 0.0, 10.000021, 9.993535 
2.4450007e+3, 1.449753e+2, -1534438.8, -1548144.0, 0.0547403, 0.000005901228, 0.00007359361, -1534438.8, -15196.799, 0.0, 10.000021, 9.981854 
2.4450007e+3, 1.5495719e+2, -1436711.4, -1450819.9, -0.0332943, 0.0000058764376, -0.000055761324, -1436711.4, -15291.786, 0.0, 10.000021, 9.981323 
2.4450007e+3, 1.6493243e+2, -1348660.6, -1371950.4, 0.050990425, 0.0000058540995, 0.000048020986, -1348660.6, -24998.377, 0.0, 10.000021, 9.969238 
2.4450007e+3, 1.7490171e+2, -1250702.9, -1274308.4, -0.036296066, 0.0000058342684, -0.00007275616, -1250702.9, -24739.523, 0.0, 10.000021, 9.968824 
2.4450007e+3, 1.8486434e+2, -1162622.0, -1195718.3, 0.044515163, 0.0000058116584, 0.0000673208, -1162622.0, -34292.574, 0.0, 10.000021, 9.956386 
2.4450007e+3, 1.9482078e+2, -1064472.4, -1097831.4, -0.043541033, 0.0000057861357, -0.00005668798, -1064472.4, -33716.035, 0.0, 10.000021, 9.956042 
2.4450007e+3, 2.0477054e+2, -976308.6, -1019433.44, 0.042125173, 0.0000057627653, 0.00006893496, -976308.6, -43059.82, 0.0, 10.000021, 9.943281 
2.4450007e+3, 2.1471386e+2, -878021.8, -921408.44, -0.04184416, 0.0000057417233, -0.00012597837, -878021.8, -42217.543, 0.0, 10.000021, 9.94294 
2.4450007e+3, 2.2465047e+2, -789735.8, -843143.5, 0.03645138, 0.0000057256484, 0.000121687044, -789735.8, -51310.47, 0.0, 10.00002, 9.929898 
2.4450007e+3, 2.3458044e+2, -691302.5, -744965.2, -0.043797594, 0.000005715191, -0.0000880908, -691302.5, -50190.813, 0.0, 10.00002, 9.929567 
2.4450007e+3, 2.4450345e+2, -602978.56, -667017.6, 0.03732797, 0.0000056995386, 0.000075369346, -602978.56, -59112.438, 0.0, 10.00002, 9.916126 
2.4450007e+3, 2.544197e+2, -504226.1, -568342.3, -0.045596126, 0.0000056776717, -0.00010612767, -504226.1, -57539.184, 0.0, 10.00002, 9.916027 
2.4450007e+3, 2.6432887e+2, -415990.8, -490987.0, 0.03537766, 0.0000056612403, 0.0001411466, -415990.8, -66413.695, 0.0, 10.00002, 9.901956 
2.4450007e+3, 2.7423137e+2, -316705.75, -391374.0, -0.03853915, 0.000005651736, -0.00020295511, -316705.75, -64173.23, 0.0, 10.00002, 9.902375 
2.4450007e+3, 2.8412563e+2, -230232.58, -318080.5, 0.038439397, 0.000005642969, 0.00022948315, -230232.58, -74663.984, 0.0, 10.00002, 9.885429 
2.4450007e+3, 2.9401213e+2, -130526.586, -217764.4, -0.03549598, 0.000005635174, -0.00025294133, -130526.586, -71845.49, 0.0, 10.00002, 9.886208 
2.4450007e+3, 3.0392656e+2, -40782.94, -84749.93, 0.03967728, 0.0000056257268, 0.00017346063, -40782.94, -40782.94, 0.0, 10.00002, 9.942163 
2.4450007e+3, 3.138706e+2, -39704.977, -82511.02, -0.028577691, 0.000005613826, -0.000054957043, -39704.977, -39704.977, 0.0, 10.00002, 9.943675 
2.4550007e+3, 1.2499354e+2, -1719920.5, -1724222.9, 0.025226148, 0.000006131321, 0.000019636078, -1719920.5, -4857.2236, 0.0, 10.000021, 9.994317 
2.4550007e+3, 1.3498777e+2, -1622540.4, -1627433.3, -0.06724163, 0.00000606535, -0.000068712485, -1622540.4, -5420.621, 0.0, 10.000021, 9.993534 
2.4550007e+3, 1.449753e+2, -1534439.0, -1548144.4, 0.015055314, 0.000006026278, 0.000073674455, -1534439.0, -15197.044, 0.0, 10.000021, 9.981854 
2.4550007e+3, 1.549572e+2, -1436711.5, -1450820.3, -0.07297699, 0.000006013026, -0.00005574194, -1436711.5, -15292.026, 0.0, 10.000021, 9.981323 
2.4550007e+3, 1.6493243e+2, -1348660.8, -1371950.8, 0.014524563, 0.0000059932404, 0.00004802242, -1348660.8, -24998.611, 0.0, 10.000021, 9.969238 
2.4550007e+3, 1.7490171e+2, -1250703.0, -1274308.8, -0.07274632, 0.0000059667864, -0.000072728224, -1250703.0, -24739.754, 0.0, 10.000021, 9.968824 
2.4550007e+3, 1.8486434e+2, -1162622.1, -1195718.6, 0.01595107, 0.0000059386307, 0.00006735614, -1162622.1, -34292.805, 0.0, 10.000021, 9.956386 
2.4550007e+3, 1.9482079e+2, -1064472.6, -1097831.8, -0.07201466, 0.0000059086888, -0.00005666519, -1064472.6, -33716.26, 0.0, 10.000021, 9.956042 
2.4550007e+3, 2.0477054e+2, -976308.8, -1019433.8, 0.011610711, 0.000005888038, 0.0000689508, -976308.8, -43060.035, 0.0, 10.000021, 9.94328 
2.4550007e+3, 2.1471386e+2, -878022.0, -921408.8, -0.072401635, 0.000005877446, -0.0001259634, -878022.0, -42217.754, 0.0, 10.000021, 9.94294 
2.4550007e+3, 2.2465049e+2, -789736.0, -843143.8, 0.012391759, 0.000005861805, 0.00012170009, -789736.0, -51310.67, 0.0, 10.00002, 9.929898 
2.4550007e+3, 2.3458044e+2, -691302.7, -744965.56, -0.06764618, 0.000005840443, -0.00008808087, -691302.7, -50191.008, 0.0, 10.00002, 9.929567 
2.4550007e+3, 2.4450345e+2, -602978.75, -667018.0, 0.018991947, 0.000005821456, 0.000075382166, -602978.75, -59112.645, 0.0, 10.00002, 9.916126 
2.4550007e+3, 2.544197e+2, -504226.25, -568342.6, -0.0636678, 0.0000058053083, -0.000106104744, -504226.25, -57539.383, 0.0, 10.00002, 9.916026 
2.4550007e+3, 2.6432887e+2, -415990.97, -490987.34, 0.01781415, 0.0000057909583, 0.00014116793, -415990.97, -66413.88, 0.0, 10.00002, 9.901955 
2.4550007e+3, 2.7423137e+2, -316705.94, -391374.34, -0.056069843, 0.000005778884, -0.00020295026, -316705.94, -64173.41, 0.0, 10.00002, 9.902375 
2.4550007e+3, 2.8412563e+2, -230232.75, -318080.88, 0.025719345, 0.0000057690527, 0.00022947957, -230232.75, -74664.17, 0.0, 10.00002, 9.885429 
2.4550007e+3, 2.9401213e+2, -130526.76, -217764.75, -0.047783542, 0.0000057622756, -0.00025294226, -130526.76, -71845.664, 0.0, 10.00002, 9.886208 
2.4550007e+3, 3.0392656e+2, -40783.105, -84750.266, 0.03176302, 0.000005752785, 0.00017346501, -40783.105, -40783.105, 0.0, 10.00002, 9.942163 
2.4550007e+3, 3.138706e+2, -39705.14, -82511.37, -0.035979815, 0.000005739246, -0.000054943604, -39705.14, -39705.14, 0.0, 10.00002, 9.943674 
2.465001e+3, 1.2499355e+2, -1719919.0, -1724222.4, 0.07158513, 0.0000062668014, 0.000019685827, -1719919.0, -4855.789, 0.0, 10.000022, 9.994316 
2.465001e+3, 1.3498779e+2, -1622538.9, -1627432.9, -0.024255097, 0.000006199488, -0.00006874088, -1622538.9, -5419.2065, 0.0, 10.000022, 9.993534 
2.465001e+3, 1.4497532e+2, -1534437.5, -1548143.9, 0.057299323, 0.0000061611486, 0.00007375107, -1534437.5, -15195.637, 0.0, 10.000022, 9.981854 
2.465001e+3, 1.549572e+2, -1436710.1, -1450819.8, -0.0345163, 0.0000061506894, -0.000055717763, -1436710.1, -15290.634, 0.0, 10.000022, 9.981322 
2.465001e+3, 1.6493243e+2, -1348659.4, -1371950.4, 0.052993406, 0.000006129332, 0.000048029928, -1348659.4, -24997.227, 0.0, 10.000022, 9.969238 
2.4650007e+3, 1.7490172e+2, -1250701.6, -1274308.4, -0.041657638, 0.0000060968505, -0.00007270084, -1250701.6, -24738.365, 0.0, 10.000022, 9.968824 
2.4650007e+3, 1.8486434e+2, -1162620.8, -1195718.3, 0.046797447, 0.000006067732, 0.00006738822, -1162620.8, -34291.42, 0.0, 10.000022, 9.956386 
2.4650007e+3, 1.9482079e+2, -1064471.3, -1097831.3, -0.041839447, 0.000006042126, -0.000056644334, -1064471.3, -33714.91, 0.0, 10.000022, 9.956042 
2.4650007e+3, 2.0477054e+2, -976307.44, -1019433.4, 0.041997902, 0.000006023182, 0.000068966205, -976307.44, -43058.695, 0.0, 10.000022, 9.94328 
2.4650007e+3, 2.1471386e+2, -878020.6, -921408.4, -0.04454816, 0.000006011448, -0.00012594722, -878020.6, -42216.414, 0.0, 10.000022, 9.94294 
2.4650007e+3, 2.2465049e+2, -789734.6, -843143.44, 0.04068551, 0.0000059931954, 0.000121717414, -789734.6, -51309.332, 0.0, 10.000021, 9.929897 
2.4650007e+3, 2.3458044e+2, -691301.3, -744965.1, -0.04892988, 0.000005967558, -0.00008806204, -691301.3, -50189.67, 0.0, 10.000021, 9.929566 
2.4650007e+3, 2.4450347e+2, -602977.44, -667017.56, 0.036413755, 0.000005948336, 0.00007540016, -602977.44, -59111.316, 0.0, 10.000021, 9.916126 
2.4650007e+3, 2.544197e+2, -504224.94, -568342.25, -0.04399129, 0.0000059367803, -0.0001060904, -504224.94, -57538.08, 0.0, 10.000021, 9.916026 
2.4650007e+3, 2.6432887e+2, -415989.66, -490986.94, 0.039017495, 0.0000059240815, 0.00014117989, -415989.66, -66412.586, 0.0, 10.000021, 9.901955 
2.4650007e+3, 2.7423137e+2, -316704.63, -391373.97, -0.04140973, 0.000005909904, -0.00020293907, -316704.63, -64172.113, 0.0, 10.000021, 9.902375 
2.4650007e+3, 2.8412563e+2, -230231.44, -318080.47, 0.039648075, 0.00000589851, 0.00022948913, -230231.44, -74662.875, 0.0, 10.000021, 9.885428 
2.4650007e+3, 2.9401216e+2, -130525.46, -217764.38, -0.036176447, 0.000005890928, -0.00025293554, -130525.46, -71844.375, 0.0, 10.000021, 9.886208 
2.4650007e+3, 3.0392656e+2, -40781.824, -84749.914, 0.042978823, 0.0000058808023, 0.0001734707, -40781.824, -40781.824, 0.0, 10.000021, 9.9421625 
2.4650007e+3, 3.138706e+2, -39703.863, -82511.016, -0.030546704, 0.0000058668747, -0.000054936238, -39703.863, -39703.863, 0.0, 10.000021, 9.943674 
2.4750009e+3, 1.24993555e+2, -1719919.3, -1724222.8, 0.026395671, 0.000006398327, 0.000019741781, -1719919.3, -4856.0615, 0.0, 10.000022, 9.994316 
2.4750009e+3, 1.3498779e+2, -1622539.1, -1627433.3, -0.06945304, 0.000006341746, -0.00006877589, -1622539.1, -5419.474, 0.0, 10.000022, 9.993534 
2.4750009e+3, 1.4497532e+2, -1534437.8, -1548144.3, 0.0152972145, 0.000006305838, 0.00007382346, -1534437.8, -15195.893, 0.0, 10.000022, 9.981854 
2.4750009e+3, 1.549572e+2, -1436710.4, -1450820.1, -0.07651476, 0.0000062894273, -0.000055688794, -1436710.4, -15290.884, 0.0, 10.000022, 9.981322 
2.4750009e+3, 1.6493243e+2, -1348659.6, -1371950.8, 0.018588677, 0.0000062623762, 0.000048043516, -1348659.6, -24997.479, 0.0, 10.000022, 9.969237 
2.4750009e+3, 1.7490172e+2, -1250701.8, -1274308.8, -0.07602319, 0.000006224463, -0.00007267399, -1250701.8, -24738.615, 0.0, 10.000022, 9.968824 
2.4750009e+3, 1.8486437e+2, -1162620.9, -1195718.6, 0.012032025, 0.000006198963, 0.00006741702, -1162620.9, -34291.656, 0.0, 10.000022, 9.956385 
2.4750009e+3, 1.9482079e+2, -1064471.4, -1097831.6, -0.07661066, 0.0000061864453, -0.00005662541, -1064471.4, -33715.14, 0.0, 10.000022, 9.956042 
2.4750009e+3, 2.0477054e+2, -976307.6, -1019433.75, 0.01258951, 0.0000061681944, 0.000068981164, -976307.6, -43058.918, 0.0, 10.000022, 9.94328 
2.4750009e+3, 2.1471386e+2, -878020.8, -921408.75, -0.073847316, 0.0000061437318, -0.00012592982, -878020.8, -42216.633, 0.0, 10.000022, 9.942939 
2.4750009e+3, 2.2465049e+2, -789734.8, -843143.8, 0.017381504, 0.0000061198216, 0.000121738994, -789734.8, -51309.56, 0.0, 10.000021, 9.929897 
2.4750008e+3, 2.3458044e+2, -691301.5, -744965.5, -0.072038345, 0.0000060965363, -0.00008803431, -691301.5, -50189.895, 0.0, 10.000021, 9.929566 
2.4750008e+3, 2.4450347e+2, -602977.56, -667017.94, 0.013734089, 0.000006080177, 0.00007542332, -602977.56, -59111.52, 0.0, 10.000021, 9.916126 
2.4750008e+3, 2.544197e+2, -504225.13, -568342.6, -0.06665169, 0.0000060720868, -0.00010608464, -504225.13, -57538.277, 0.0, 10.000021, 9.916026 
2.4750008e+3, 2.6432887e+2, -415989.84, -490987.3, 0.022231499, 0.0000060606085, 0.00014118246, -415989.84, -66412.78, 0.0, 10.000021, 9.901955 
2.4750008e+3, 2.7423137e+2, -316704.78, -391374.3, -0.057803143, 0.000006044795, -0.00020292155, -316704.78, -64172.31, 0.0, 10.000021, 9.902374 
2.4750008e+3, 2.8412563e+2, -230231.61, -318080.84, 0.026891641, 0.0000060313414, 0.0002295118, -230231.61, -74663.06, 0.0, 10.000021, 9.885428 
2.4750008e+3, 2.9401216e+2, -130525.63, -217764.73, -0.048606157, 0.000006021132, -0.0002529212, -130525.63, -71844.56, 0.0, 10.000021, 9.886207 
2.4750008e+3, 3.039266e+2, -40782.0, -84750.28, 0.034130607, 0.0000060097796, 0.00017347773, -40782.0, -40782.0, 0.0, 10.000021, 9.9421625 
2.4750008e+3, 3.138706e+2, -39704.04, -82511.375, -0.03897561, 0.0000059967133, -0.00005493494, -39704.04, -39704.04, 0.0, 10.000021, 9.943674 
2.485001e+3, 1.24993555e+2, -1719917.8, -1724222.3, 0.07515278, 0.00000654187, 0.000019797655, -1719917.8, -4854.5723, 0.0, 10.000024, 9.994316 
2.485001e+3, 1.3498779e+2, -1622537.6, -1627432.8, -0.024373503, 0.000006484187, -0.00006881051, -1622537.6, -5417.998, 0.0, 10.000023, 9.993534 
2.485001e+3, 1.4497532e+2, -1534436.3, -1548143.8, 0.05980502, 0.0000064460364, 0.00007389998, -1534436.3, -15194.418, 0.0, 10.000023, 9.9818535 
2.485001e+3, 1.549572e+2, -1436708.8, -1450819.6, -0.039156314, 0.0000064262044, -0.00005565758, -1436708.8, -15289.41, 0.0, 10.000023, 9.981322 
2.485001e+3, 1.6493244e+2, -1348658.1, -1371950.3, 0.056655776, 0.0000063988027, 0.000048056492, -1348658.1, -24996.018, 0.0, 10.000023, 9.969237 
2.485001e+3, 1.7490172e+2, -1250700.4, -1274308.3, -0.038459033, 0.0000063636753, -0.00007265157, -1250700.4, -24737.182, 0.0, 10.000023, 9.968823 
2.485001e+3, 1.8486437e+2, -1162619.5, -1195718.1, 0.04890022, 0.000006339628, 0.00006744238, -1162619.5, -34290.234, 0.0, 10.000023, 9.956385 
2.485001e+3, 1.9482079e+2, -1064470.0, -1097831.1, -0.04496322, 0.000006327169, -0.000056603923, -1064470.0, -33713.727, 0.0, 10.000023, 9.956041 
2.485001e+3, 2.0477054e+2, -976306.1, -1019433.25, 0.043891747, 0.000006306588, 0.000069001406, -976306.1, -43057.508, 0.0, 10.000023, 9.94328 
2.485001e+3, 2.1471387e+2, -878019.4, -921408.3, -0.051013984, 0.000006277208, -0.00012590799, -878019.4, -42215.22, 0.0, 10.000023, 9.942939 
2.485001e+3, 2.2465049e+2, -789733.4, -843143.4, 0.03992331, 0.000006252909, 0.000121760284, -789733.4, -51308.152, 0.0, 10.000023, 9.929897 
2.485001e+3, 2.3458044e+2, -691300.1, -744965.06, -0.047241103, 0.0000062343606, -0.00008801598, -691300.1, -50188.51, 0.0, 10.000023, 9.929566 
2.485001e+3, 2.4450347e+2, -602976.2, -667017.5, 0.0393867, 0.0000062190097, 0.00007543827, -602976.2, -59110.145, 0.0, 10.000022, 9.916125 
2.485001e+3, 2.544197e+2, -504223.72, -568342.2, -0.048039667, 0.000006207467, -0.00010607356, -504223.72, -57536.906, 0.0, 10.000022, 9.916026 
2.485001e+3, 2.6432887e+2, -415988.47, -490986.9, 0.03967493, 0.0000061944093, 0.00014119296, -415988.47, -66411.42, 0.0, 10.000022, 9.901955 
2.485001e+3, 2.7423137e+2, -316703.4, -391373.94, -0.045797464, 0.000006179409, -0.00020290751, -316703.4, -64170.953, 0.0, 10.000022, 9.902374 
2.485001e+3, 2.841257e+2, -230230.23, -318080.44, 0.03837217, 0.0000061663736, 0.00022952723, -230230.23, -74661.71, 0.0, 10.000022, 9.885428 
2.485001e+3, 2.9401216e+2, -130524.27, -217764.34, -0.03919433, 0.0000061560318, -0.00025290737, -130524.27, -71843.21, 0.0, 10.000022, 9.886207 
2.485001e+3, 3.039266e+2, -40780.664, -84749.914, 0.043885347, 0.0000061439855, 0.0001734884, -40780.664, -40780.664, 0.0, 10.000022, 9.9421625 
2.485001e+3, 3.138706e+2, -39702.707, -82511.016, -0.032714926, 0.0000061293968, -0.0000549297, -39702.707, -39702.707, 0.0, 10.000022, 9.943674 
2.495001e+3, 1.2499356e+2, -1719918.0, -1724222.6, 0.028104598, 0.000006697426, 0.000019853514, -1719918.0, -4854.856, 0.0, 10.000024, 9.994316 
2.495001e+3, 1.349878e+2, -1622537.9, -1627433.1, -0.07143032, 0.0000066268117, -0.00006884474, -1622537.9, -5418.277, 0.0, 10.000023, 9.993533 
2.495001e+3, 1.4497533e+2, -1534436.4, -1548144.3, 0.018827474, 0.0000065817467, 0.00007398064, -1534436.4, -15194.692, 0.0, 10.000023, 9.9818535 
2.495001e+3, 1.5495722e+2, -1436709.0, -1450820.1, -0.08012518, 0.0000065610216, -0.00005562413, -1436709.0, -15289.679, 0.0, 10.000023, 9.981322 
2.495001e+3, 1.6493244e+2, -1348658.3, -1371950.6, 0.016911607, 0.000006538611, 0.00004806886, -1348658.3, -24996.275, 0.0, 10.000023, 9.969237 
2.495001e+3, 1.7490172e+2, -1250700.5, -1274308.6, -0.07819793, 0.0000065144836, -0.00007263358, -1250700.5, -24737.432, 0.0, 10.000023, 9.968823 
2.495001e+3, 1.8486437e+2, -1162619.6, -1195718.5, 0.013468054, 0.0000064897245, 0.00006746429, -1162619.6, -34290.48, 0.0, 10.000023, 9.956385 
2.495001e+3, 1.9482079e+2, -1064470.3, -1097831.6, -0.08034694, 0.000006464299, -0.00005657988, -1064470.3, -33713.965, 0.0, 10.000023, 9.956041 
2.495001e+3, 2.0477055e+2, -976306.4, -1019433.7, 0.015841782, 0.0000064383653, 0.000069026915, -976306.4, -43057.75, 0.0, 10.000023, 9.943279 
2.495001e+3, 2.1471387e+2, -878019.56, -921408.7, -0.07891331, 0.000006411877, -0.00012588172, -878019.56, -42215.457, 0.0, 10.000023, 9.942939 
2.495001e+3, 2.2465049e+2, -789733.56, -843143.75, 0.012318934, 0.000006392456, 0.000121781275, -789733.56, -51308.375, 0.0, 10.000023, 9.929897 
2.495001e+3, 2.3458044e+2, -691300.3, -744965.5, -0.07483718, 0.0000063810285, -0.000088007066, -691300.3, -50188.73, 0.0, 10.000023, 9.929565 
2.495001e+3, 2.4450347e+2, -602976.4, -667017.9, 0.016986586, 0.000006364831, 0.00007544501, -602976.4, -59110.363, 0.0, 10.000022, 9.916125 
2.495001e+3, 2.544197e+2, -504223.9, -568342.56, -0.07019128, 0.0000063429225, -0.00010605715, -504223.9, -57537.12, 0.0, 10.000022, 9.916025 
2.495001e+3, 2.643289e+2, -415988.66, -490987.28, 0.02224282, 0.000006325485, 0.00014121133, -415988.66, -66411.63, 0.0, 10.000022, 9.901954 
2.495001e+3, 2.7423137e+2, -316703.6, -391374.3, -0.062914126, 0.000006313745, -0.00020289695, -316703.6, -64171.16, 0.0, 10.000022, 9.902374 
2.495001e+3, 2.841257e+2, -230230.42, -318080.8, 0.02510693, 0.0000063036064, 0.00022953542, -230230.42, -74661.91, 0.0, 10.000022, 9.885428 
2.495001e+3, 2.9401216e+2, -130524.445, -217764.7, -0.052114088, 0.000006295627, -0.00025289407, -130524.445, -71843.41, 0.0, 10.000022, 9.886207 
2.495001e+3, 3.039266e+2, -40780.848, -84750.3, 0.034536835, 0.000006283419, 0.0001735027, -40780.848, -40780.848, 0.0, 10.000022, 9.942162 
2.495001e+3, 3.138706e+2, -39702.89, -82511.4, -0.041645095, 0.0000062649247, -0.00005492052, -39702.89, -39702.89, 0.0, 10.000022, 9.943673 
2.5050008e+3, 1.2499357e+2, -1719916.4, -1724222.1, 0.072707504, 0.000006848132, 0.000019907562, -1719916.4, -4853.307, 0.0, 10.000025, 9.994315 
2.5050008e+3, 1.349878e+2, -1622536.3, -1627432.6, -0.030890211, 0.0000067727447, -0.00006886984, -1622536.3, -5416.723, 0.0, 10.000025, 9.993533 
2.5050008e+3, 1.4497533e+2, -1534434.9, -1548143.6, 0.05959016, 0.000006725573, 0.000074072406, -1534434.9, -15193.144, 0.0, 10.000025, 9.9818535 
2.5050008e+3, 1.5495722e+2, -1436707.5, -1450819.6, -0.0402881, 0.000006705389, -0.000055595967, -1436707.5, -15288.156, 0.0, 10.000024, 9.981321 
2.5050008e+3, 1.6493244e+2, -1348656.8, -1371950.1, 0.05690874, 0.0000066844227, 0.00004807441, -1348656.8, -24994.766, 0.0, 10.000024, 9.969237 
2.5050008e+3, 1.7490174e+2, -1250699.0, -1274308.1, -0.042667013, 0.0000066626617, -0.00007260879, -1250699.0, -24735.938, 0.0, 10.000024, 9.968823 
2.5050008e+3, 1.8486437e+2, -1162618.1, -1195718.0, 0.050081603, 0.0000066359844, 0.00006749591, -1162618.1, -34288.99, 0.0, 10.000024, 9.956384 
2.5050008e+3, 1.948208e+2, -1064468.6, -1097831.1, -0.050214007, 0.000006604158, -0.000056554443, -1064468.6, -33712.47, 0.0, 10.000024, 9.956041 
2.5050008e+3, 2.0477055e+2, -976304.8, -1019433.2, 0.046105705, 0.0000065770223, 0.00006904861, -976304.8, -43056.26, 0.0, 10.000024, 9.943279 
2.5050008e+3, 2.1471387e+2, -878018.06, -921408.25, -0.048495997, 0.0000065549643, -0.0001258611, -878018.06, -42214.0, 0.0, 10.000024, 9.942939 
2.5050008e+3, 2.246505e+2, -789732.1, -843143.25, 0.04281406, 0.000006537448, 0.00012179989, -789732.1, -51306.926, 0.0, 10.000024, 9.929896 
2.5050008e+3, 2.3458046e+2, -691298.8, -744965.0, -0.050975993, 0.000006525066, -0.00008799151, -691298.8, -50187.285, 0.0, 10.000024, 9.929565 
2.5050008e+3, 2.4450347e+2, -602974.94, -667017.44, 0.041087173, 0.0000065072722, 0.00007546007, -602974.94, -59108.92, 0.0, 10.000024, 9.916125 
2.5050008e+3, 2.544197e+2, -504222.47, -568342.1, -0.050105225, 0.0000064830047, -0.000106039544, -504222.47, -57535.684, 0.0, 10.000024, 9.916025 
2.5050008e+3, 2.643289e+2, -415987.2, -490986.84, 0.042597506, 0.0000064643145, 0.00014122763, -415987.2, -66410.2, 0.0, 10.000023, 9.901954 
2.5050008e+3, 2.7423137e+2, -316702.2, -391373.9, -0.04412351, 0.000006452731, -0.00020288689, -316702.2, -64169.742, 0.0, 10.000023, 9.902374 
2.5050008e+3, 2.841257e+2, -230229.0, -318080.4, 0.043507066, 0.000006442904, 0.00022954326, -230229.0, -74660.49, 0.0, 10.000023, 9.885427 
2.5050008e+3, 2.9401216e+2, -130523.04, -217764.3, -0.041414145, 0.0000064354413, -0.00025288286, -130523.04, -71842.0, 0.0, 10.000023, 9.886207 
2.5050008e+3, 3.039266e+2, -40779.457, -84749.91, 0.04445306, 0.0000064237934, 0.00017351306, -40779.457, -40779.457, 0.0, 10.000023, 9.942162 
2.5050008e+3, 3.138706e+2, -39701.496, -82511.016, -0.032041933, 0.000006405922, -0.000054917273, -39701.496, -39701.496, 0.0, 10.000023, 9.943673 
2.515001e+3, 1.2499358e+2, -1719916.6, -1724222.5, 0.028066808, 0.0000069939892, 0.00001995987, -1719916.6, -4853.602, 0.0, 10.000025, 9.994315 
2.515001e+3, 1.349878e+2, -1622536.5, -1627433.0, -0.07553943, 0.000006921985, -0.00006888582, -1622536.5, -5417.013, 0.0, 10.000025, 9.993533 
2.515001e+3, 1.4497533e+2, -1534435.0, -1548144.1, 0.013929423, 0.000006877511, 0.00007417526, -1534435.0, -15193.423, 0.0, 10.000025, 9.981853 
2.515001e+3, 1.5495722e+2, -1436707.6, -1450820.0, -0.08595136, 0.0000068593035, -0.00005557309, -1436707.6, -15288.429, 0.0, 10.000024, 9.981321 
2.515001e+3, 1.6493246e+2, -1348657.0, -1371950.5, 0.015325177, 0.000006836236, 0.00004807313, -1348657.0, -24995.033, 0.0, 10.000024, 9.969236 
2.515001e+3, 1.7490174e+2, -1250699.3, -1274308.6, -0.084230796, 0.000006808211, -0.00007257719, -1250699.3, -24736.201, 0.0, 10.000024, 9.968823 
2.515001e+3, 1.8486439e+2, -1162618.4, -1195718.5, 0.017002456, 0.00000677841, 0.00006753723, -1162618.4, -34289.25, 0.0, 10.000024, 9.956384 
2.515001e+3, 1.948208e+2, -1064468.9, -1097831.5, -0.083195925, 0.000006746745, -0.00005652762, -1064468.9, -33712.727, 0.0, 10.000024, 9.95604 
2.515001e+3, 2.0477055e+2, -976305.06, -1019433.56, 0.012482469, 0.0000067225583, 0.0000690665, -976305.06, -43056.504, 0.0, 10.000024, 9.943279 
2.515001e+3, 2.1471387e+2, -878018.3, -921408.6, -0.08213382, 0.000006706467, -0.00012584613, -878018.3, -42214.24, 0.0, 10.000024, 9.942938 
2.515001e+3, 2.246505e+2, -789732.3, -843143.7, 0.014945507, 0.0000066878847, 0.00012181611, -789732.3, -51307.164, 0.0, 10.000024, 9.929896 
2.515001e+3, 2.3458046e+2, -691299.06, -744965.44, -0.0786572, 0.0000066664747, -0.00008796932, -691299.06, -50187.52, 0.0, 10.000024, 9.929565 
2.515001e+3, 2.4450347e+2, -602975.1, -667017.9, 0.019674376, 0.0000066463354, 0.00007548344, -602975.1, -59109.152, 0.0, 10.000024, 9.916125 
2.515001e+3, 2.544197e+2, -504222.66, -568342.56, -0.07121806, 0.000006627712, -0.00010602072, -504222.66, -57535.906, 0.0, 10.000024, 9.916025 
2.515001e+3, 2.643289e+2, -415987.4, -490987.25, 0.023450688, 0.0000066108946, 0.00014124185, -415987.4, -66410.414, 0.0, 10.000023, 9.901954 
2.515001e+3, 2.7423137e+2, -316702.38, -391374.28, -0.06313969, 0.0000065963663, -0.00020287736, -316702.38, -64169.953, 0.0, 10.000023, 9.902373 
2.515001e+3, 2.841257e+2, -230229.19, -318080.78, 0.028463304, 0.000006584267, 0.00022955076, -230229.19, -74660.7, 0.0, 10.000023, 9.885427 
2.515001e+3, 2.9401216e+2, -130523.23, -217764.7, -0.056100972, 0.000006575475, -0.00025287378, -130523.23, -71842.21, 0.0, 10.000023, 9.886206 
2.515001e+3, 3.039266e+2, -40779.64, -84750.3, 0.03539663, 0.0000065651084, 0.00017351947, -40779.64, -40779.64, 0.0, 10.000023, 9.942162 
2.515001e+3, 3.138706e+2, -39701.684, -82511.4, -0.040439054, 0.000006552386, -0.00005491995, -39701.684, -39701.684, 0.0, 10.000023, 9.943673 
2.525001e+3, 1.2499358e+2, -1719914.9, -1724222.0, 0.085180014, 0.0000071399922, 0.000020014, -1719914.9, -4851.946, 0.0, 10.000026, 9.994315 
2.525001e+3, 1.3498782e+2, -1622534.8, -1627432.5, -0.0274792, 0.000007076232, -0.00006891876, -1622534.8, -5415.4116, 0.0, 10.000026, 9.993532 
2.525001e+3, 1.4497536e+2, -1534433.4, -1548143.5, 0.061612125, 0.000007035105, 0.00007426508, -1534433.4, -15191.832, 0.0, 10.000026, 9.981853 
2.525001e+3, 1.5495723e+2, -1436706.0, -1450819.5, -0.040167563, 0.0000070152832, -0.000055546254, -1436706.0, -15286.842, 0.0, 10.000026, 9.981321 
2.525001e+3, 1.6493246e+2, -1348655.4, -1371950.0, 0.06068891, 0.000006988249, 0.000048079477, -1348655.4, -24993.453, 0.0, 10.000026, 9.969236 
2.525001e+3, 1.7490174e+2, -1250697.6, -1274308.0, -0.047677718, 0.0000069538537, -0.00007254792, -1250697.6, -24734.617, 0.0, 10.000025, 9.9688225 
2.525001e+3, 1.8486439e+2, -1162616.8, -1195717.9, 0.0530751, 0.000006923649, 0.00006757233, -1162616.8, -34287.676, 0.0, 10.000025, 9.956384 
2.525001e+3, 1.948208e+2, -1064467.3, -1097831.0, -0.04807944, 0.000006897821, -0.000056504578, -1064467.3, -33711.188, 0.0, 10.000025, 9.95604 
2.525001e+3, 2.0477055e+2, -976303.5, -1019433.06, 0.047470164, 0.0000068754343, 0.00006908445, -976303.5, -43054.977, 0.0, 10.000025, 9.943279 
2.525001e+3, 2.1471389e+2, -878016.75, -921408.1, -0.053128526, 0.0000068567697, -0.00012582573, -878016.75, -42212.707, 0.0, 10.000025, 9.942938 
2.525001e+3, 2.246505e+2, -789730.75, -843143.2, 0.043458372, 0.0000068354266, 0.00012183693, -789730.75, -51305.637, 0.0, 10.000025, 9.929896 
2.525001e+3, 2.3458046e+2, -691297.5, -744964.94, -0.055600066, 0.0000068110467, -0.00008795044, -691297.5, -50185.996, 0.0, 10.000025, 9.929565 
2.525001e+3, 2.4450348e+2, -602973.56, -667017.4, 0.04220619, 0.000006790815, 0.00007550151, -602973.56, -59107.64, 0.0, 10.000025, 9.916124 
2.525001e+3, 2.544197e+2, -504221.16, -568342.06, -0.052972186, 0.000006775537, -0.0001060021, -504221.16, -57534.414, 0.0, 10.000025, 9.916024 
2.525001e+3, 2.643289e+2, -415985.9, -490986.8, 0.041525595, 0.000006759819, 0.00014125925, -415985.9, -66408.94, 0.0, 10.000025, 9.901954 
2.525001e+3, 2.7423137e+2, -316700.88, -391373.84, -0.04842834, 0.0000067435226, -0.00020286339, -316700.88, -64168.477, 0.0, 10.000025, 9.902373 
2.525001e+3, 2.841257e+2, -230227.7, -318080.38, 0.04472253, 0.00000673018, 0.00022956119, -230227.7, -74659.23, 0.0, 10.000025, 9.885427 
2.525001e+3, 2.9401216e+2, -130521.75, -217764.28, -0.040643327, 0.0000067208757, -0.00025286703, -130521.75, -71840.74, 0.0, 10.000025, 9.886206 
2.525001e+3, 3.039266e+2, -40778.18, -84749.89, 0.050921056, 0.000006710034, 0.00017352523, -40778.18, -40778.18, 0.0, 10.000024, 9.942162 
2.525001e+3, 3.138706e+2, -39700.23, -82511.0, -0.032995857, 0.0000066968832, -0.000054911125, -39700.23, -39700.23, 0.0, 10.000024, 9.943672 
2.535001e+3, 1.24993585e+2, -1719915.1, -1724222.5, 0.029295154, 0.0000072861417, 0.000020070029, -1719915.1, -4852.2646, 0.0, 10.000026, 9.994314 
2.535001e+3, 1.3498782e+2, -1622535.0, -1627433.0, -0.08337383, 0.0000072354846, -0.00006896866, -1622535.0, -5415.7246, 0.0, 10.000026, 9.993532 
2.535001e+3, 1.4497536e+2, -1534433.6, -1548144.0, 0.016530147, 0.0000071983523, 0.000074341864, -1534433.6, -15192.118, 0.0, 10.000026, 9.981853 
2.535001e+3, 1.5495723e+2, -1436706.3, -1450819.9, -0.08523501, 0.000007173329, -0.000055515455, -1436706.3, -15287.122, 0.0, 10.000026, 9.98132 
2.535001e+3, 1.6493246e+2, -1348655.5, -1371950.5, 0.02094724, 0.000007140462, 0.000048093447, -1348655.5, -24993.742, 0.0, 10.000026, 9.969236 
2.535001e+3, 1.7490175e+2, -1250697.9, -1274308.5, -0.087392084, 0.0000070995916, -0.00007252098, -1250697.9, -24734.902, 0.0, 10.000025, 9.9688225 
2.535001e+3, 1.8486439e+2, -1162617.0, -1195718.4, 0.013582328, 0.0000070717006, 0.000067601206, -1162617.0, -34287.94, 0.0, 10.000025, 9.956384 
2.535001e+3, 1.9482082e+2, -1064467.5, -1097831.4, -0.087571174, 0.0000070573847, -0.00005648531, -1064467.5, -33711.445, 0.0, 10.000025, 9.95604 
2.535001e+3, 2.0477057e+2, -976303.7, -1019433.5, 0.014856018, 0.0000070356487, 0.000069102476, -976303.7, -43055.234, 0.0, 10.000025, 9.943278 
2.535001e+3, 2.1471389e+2, -878016.94, -921408.56, -0.08560208, 0.000007005873, -0.00012579987, -878016.94, -42212.96, 0.0, 10.000025, 9.942938 
2.535001e+3, 2.246505e+2, -789731.0, -843143.6, 0.01562695, 0.000006980076, 0.00012186232, -789731.0, -51305.887, 0.0, 10.000025, 9.929896 
2.535001e+3, 2.3458046e+2, -691297.7, -744965.4, -0.08328074, 0.0000069587804, -0.00008793486, -691297.7, -50186.242, 0.0, 10.000025, 9.929564 
2.535001e+3, 2.4450348e+2, -602973.8, -667017.8, 0.017176352, 0.000006940709, 0.0000755143, -602973.8, -59107.88, 0.0, 10.000025, 9.916124 
2.535001e+3, 2.544197e+2, -504221.34, -568342.5, -0.07787589, 0.000006926479, -0.00010598368, -504221.34, -57534.65, 0.0, 10.000025, 9.916024 
2.535001e+3, 2.643289e+2, -415986.1, -490987.22, 0.02231335, 0.000006911086, 0.00014127987, -415986.1, -66409.16, 0.0, 10.000025, 9.901953 
2.535001e+3, 2.7423137e+2, -316701.06, -391374.25, -0.067260675, 0.000006894199, -0.00020284497, -316701.06, -64168.69, 0.0, 10.000025, 9.902373 
2.535001e+3, 2.841257e+2, -230227.89, -318080.78, 0.029950507, 0.000006880642, 0.00022957455, -230227.89, -74659.44, 0.0, 10.000025, 9.885427 
2.535001e+3, 2.9401216e+2, -130521.94, -217764.67, -0.05505091, 0.0000068716436, -0.00025286264, -130521.94, -71840.945, 0.0, 10.000025, 9.886206 
2.535001e+3, 3.039266e+2, -40778.38, -84750.305, 0.039979327, 0.0000068585696, 0.00017353038, -40778.38, -40778.38, 0.0, 10.000024, 9.942161 
2.535001e+3, 3.138706e+2, -39700.43, -82511.414, -0.043532122, 0.000006839416, -0.0000548908, -39700.43, -39700.43, 0.0, 10.000024, 9.943672 
2.545001e+3, 1.2499359e+2, -1719913.4, -1724221.9, 0.08202532, 0.0000074514983, 0.000020134346, -1719913.4, -4850.5845, 0.0, 10.000027, 9.994314 
2.545001e+3, 1.3498782e+2, -1622533.3, -1627432.4, -0.027594324, 0.0000073928613, -0.00006901469, -1622533.3, -5414.031, 0.0, 10.000027, 9.993532 
2.545001e+3, 1.4497536e+2, -1534431.9, -1548143.4, 0.07336075, 0.0000073524398, 0.000074424795, -1534431.9, -15190.423, 0.0, 10.000027, 9.981853 
2.545001e+3, 1.5495723e+2, -1436704.5, -1450819.3, -0.0432234, 0.0000073288093, -0.00005547957, -1436704.5, -15285.449, 0.0, 10.000027, 9.98132 
2.545001e+3, 1.6493247e+2, -1348653.9, -1371949.9, 0.061724663, 0.000007297107, 0.00004811016, -1348653.9, -24992.086, 0.0, 10.000027, 9.969235 
2.545001e+3, 1.7490175e+2, -1250696.1, -1274308.0, -0.04528078, 0.0000072571675, -0.00007249496, -1250696.1, -24733.268, 0.0, 10.000027, 9.9688225 
2.545001e+3, 1.848644e+2, -1162615.3, -1195717.8, 0.054899734, 0.0000072289595, 0.00006763015, -1162615.3, -34286.316, 0.0, 10.000027, 9.956383 
2.545001e+3, 1.9482082e+2, -1064465.9, -1097830.9, -0.05309152, 0.0000072130197, -0.000056460158, -1064465.9, -33709.83, 0.0, 10.000026, 9.95604 
2.545001e+3, 2.0477057e+2, -976302.06, -1019433.0, 0.04997592, 0.0000071902114, 0.00006912535, -976302.06, -43053.62, 0.0, 10.000026, 9.943278 
2.545001e+3, 2.1471389e+2, -878015.3, -921408.06, -0.05570271, 0.0000071599607, -0.00012577763, -878015.3, -42211.36, 0.0, 10.000026, 9.942937 
2.545001e+3, 2.246505e+2, -789729.4, -843143.1, 0.04599057, 0.0000071336353, 0.00012188408, -789729.4, -51304.293, 0.0, 10.000026, 9.929895 
2.545001e+3, 2.3458046e+2, -691296.06, -744964.9, -0.05534017, 0.0000071117515, -0.00008791342, -691296.06, -50184.66, 0.0, 10.000026, 9.929564 
2.545001e+3, 2.4450348e+2, -602972.2, -667017.3, 0.045154184, 0.000007093366, 0.00007553274, -602972.2, -59106.305, 0.0, 10.000026, 9.916124 
2.545001e+3, 2.544197e+2, -504219.78, -568342.0, -0.05349875, 0.0000070791493, -0.000105971456, -504219.78, -57533.086, 0.0, 10.000026, 9.916024 
2.545001e+3, 2.643289e+2, -415984.53, -490986.75, 0.046904303, 0.000007063765, 0.00014129038, -415984.53, -66407.6, 0.0, 10.000026, 9.901953 
2.545001e+3, 2.7423137e+2, -316699.5, -391373.8, -0.050175104, 0.000007046879, -0.00020283044, -316699.5, -64167.15, 0.0, 10.000026, 9.902372 
2.545001e+3, 2.841257e+2, -230226.34, -318080.3, 0.044612173, 0.0000070330066, 0.00022959078, -230226.34, -74657.9, 0.0, 10.000026, 9.8854265 
2.545001e+3, 2.9401216e+2, -130520.4, -217764.23, -0.04533261, 0.0000070232586, -0.0002528479, -130520.4, -71839.414, 0.0, 10.000026, 9.886206 
2.545001e+3, 3.039266e+2, -40776.86, -84749.89, 0.048724927, 0.0000070092706, 0.0001735423, -40776.86, -40776.86, 0.0, 10.000026, 9.942161 
2.545001e+3, 3.138706e+2, -39698.906, -82511.0, -0.039134562, 0.0000069889634, -0.00005488357, -39698.906, -39698.906, 0.0, 10.000026, 9.943672 
2.555001e+3, 1.249936e+2, -1719913.6, -1724222.4, 0.030735387, 0.000007636055, 0.000020207033, -1719913.6, -4850.8994, 0.0, 10.000027, 9.994314 
2.555001e+3, 1.3498785e+2, -1622533.5, -1627432.9, -0.07889428, 0.000007548365, -0.00006905688, -1622533.5, -5414.34, 0.0, 10.000027, 9.993532 
2.555001e+3, 1.4497538e+2, -1534432.1, -1548143.9, 0.024573484, 0.000007497372, 0.00007451386, -1534432.1, -15190.745, 0.0, 10.000027, 9.981852 
2.555001e+3, 1.5495725e+2, -1436704.8, -1450819.8, -0.09200707, 0.000007481727, -0.0000554386, -1436704.8, -15285.764, 0.0, 10.000027, 9.98132 
2.555001e+3, 1.6493247e+2, -1348654.1, -1371950.4, 0.018458521, 0.000007458183, 0.000048129616, -1348654.1, -24992.377, 0.0, 10.000027, 9.969235 
2.555001e+3, 1.7490175e+2, -1250696.4, -1274308.4, -0.088519685, 0.000007426578, -0.00007246985, -1250696.4, -24733.553, 0.0, 10.000027, 9.968822 
2.555001e+3, 1.848644e+2, -1162615.5, -1195718.3, 0.014805966, 0.000007395422, 0.000067659144, -1162615.5, -34286.598, 0.0, 10.000027, 9.956383 
2.555001e+3, 1.9482082e+2, -1064466.1, -1097831.4, -0.09315023, 0.000007364729, -0.000056429122, -1064466.1, -33710.105, 0.0, 10.000026, 9.956039 
2.555001e+3, 2.0477057e+2, -976302.3, -1019433.44, 0.016238611, 0.0000073391257, 0.00006915307, -976302.3, -43053.895, 0.0, 10.000026, 9.943278 
2.555001e+3, 2.1471389e+2, -878015.56, -921408.5, -0.08931083, 0.0000073190317, -0.000125759, -878015.56, -42211.625, 0.0, 10.000026, 9.942937 
2.555001e+3, 2.2465052e+2, -789729.56, -843143.56, 0.016453654, 0.000007296103, 0.00012190218, -789729.56, -51304.55, 0.0, 10.000026, 9.929895 
2.555001e+3, 2.3458047e+2, -691296.3, -744965.3, -0.08474549, 0.0000072699586, -0.00008788611, -691296.3, -50184.914, 0.0, 10.000026, 9.929564 
2.555001e+3, 2.4450348e+2, -602972.44, -667017.75, 0.019080253, 0.000007248786, 0.00007555683, -602972.44, -59106.55, 0.0, 10.000026, 9.916123 
2.555001e+3, 2.544197e+2, -504219.97, -568342.44, -0.079413846, 0.000007233549, -0.000105965424, -504219.97, -57533.324, 0.0, 10.000026, 9.916024 
2.555001e+3, 2.643289e+2, -415984.75, -490987.2, 0.026582727, 0.000007217856, 0.00014129079, -415984.75, -66407.84, 0.0, 10.000026, 9.901953 
2.555001e+3, 2.7423137e+2, -316699.72, -391374.25, -0.07012305, 0.000007201563, -0.00020281982, -316699.72, -64167.383, 0.0, 10.000026, 9.902372 
2.555001e+3, 2.841257e+2, -230226.55, -318080.75, 0.029143794, 0.0000071872737, 0.00022960985, -230226.55, -74658.125, 0.0, 10.000026, 9.8854265 
2.555001e+3, 2.9401216e+2, -130520.6, -217764.66, -0.06039895, 0.0000071757217, -0.00025282288, -130520.6, -71839.63, 0.0, 10.000026, 9.886205 
2.555001e+3, 3.039266e+2, -40777.066, -84750.32, 0.038989294, 0.0000071621375, 0.00017356098, -40777.066, -40777.066, 0.0, 10.000026, 9.942161 
2.555001e+3, 3.138706e+2, -39699.117, -82511.44, -0.048245266, 0.0000071455233, -0.000054889435, -39699.117, -39699.117, 0.0, 10.000026, 9.943672 
2.5650012e+3, 1.2499361e+2, -1719911.9, -1724221.8, 0.083771415, 0.0000078086405, 0.0000202677, -1719911.9, -4849.136, 0.0, 10.000029, 9.994314 
2.5650012e+3, 1.3498785e+2, -1622531.8, -1627432.3, -0.036873586, 0.0000077122795, -0.00006908473, -1622531.8, -5412.576, 0.0, 10.000029, 9.993531 
2.5650012e+3, 1.4497538e+2, -1534430.4, -1548143.3, 0.06436409, 0.000007657296, 0.00007462137, -1534430.4, -15188.985, 0.0, 10.000028, 9.981852 
2.5650012e+3, 1.5495725e+2, -1436703.0, -1450819.3, -0.047353666, 0.000007642335, -0.000055408043, -1436703.0, -15284.02, 0.0, 10.000028, 9.98132 
2.5650012e+3, 1.6493247e+2, -1348652.3, -1371949.8, 0.06544288, 0.000007621019, 0.000048133923, -1348652.3, -24990.646, 0.0, 10.000028, 9.969235 
2.565001e+3, 1.7490177e+2, -1250694.6, -1274307.9, -0.0499161, 0.00000759322, -0.00007243999, -1250694.6, -24731.85, 0.0, 10.000028, 9.968822 
2.565001e+3, 1.848644e+2, -1162613.8, -1195717.8, 0.05462509, 0.0000075611083, 0.0000676967, -1162613.8, -34284.906, 0.0, 10.000028, 9.956383 
2.565001e+3, 1.9482082e+2, -1064464.4, -1097830.8, -0.057276536, 0.000007524477, -0.000056402554, -1064464.4, -33708.406, 0.0, 10.000028, 9.956039 
2.565001e+3, 2.0477057e+2, -976300.56, -1019432.9, 0.05085743, 0.0000074966038, 0.00006917529, -976300.56, -43052.2, 0.0, 10.000028, 9.943277 
2.565001e+3, 2.1471389e+2, -878013.8, -921407.94, -0.058815178, 0.0000074782124, -0.00012573396, -878013.8, -42209.957, 0.0, 10.000028, 9.942937 
2.565001e+3, 2.2465052e+2, -789727.9, -843143.0, 0.047539886, 0.0000074569357, 0.00012192648, -789727.9, -51302.895, 0.0, 10.000027, 9.929895 
2.565001e+3, 2.3458047e+2, -691294.6, -744964.8, -0.05977641, 0.000007432385, -0.00008786662, -691294.6, -50183.27, 0.0, 10.000027, 9.9295635 
2.565001e+3, 2.4450348e+2, -602970.75, -667017.25, 0.04334318, 0.000007410482, 0.00007557436, -602970.75, -59104.914, 0.0, 10.000027, 9.916123 
2.565001e+3, 2.544197e+2, -504218.3, -568341.94, -0.058476977, 0.0000073917404, -0.00010594649, -504218.3, -57531.69, 0.0, 10.000027, 9.916023 
2.565001e+3, 2.643289e+2, -415983.1, -490986.7, 0.048717353, 0.000007374327, 0.0001413084, -415983.1, -66406.22, 0.0, 10.000027, 9.901952 
2.565001e+3, 2.7423137e+2, -316698.1, -391373.75, -0.051517185, 0.0000073585893, -0.000202807, -316698.1, -64165.77, 0.0, 10.000027, 9.902372 
2.565001e+3, 2.841257e+2, -230224.92, -318080.25, 0.047991876, 0.0000073445785, 0.00022962083, -230224.92, -74656.516, 0.0, 10.000027, 9.8854265 
2.565001e+3, 2.9401216e+2, -130518.984, -217764.19, -0.04707658, 0.000007332917, -0.00025280967, -130518.984, -71838.03, 0.0, 10.000027, 9.886205 
2.565001e+3, 3.039266e+2, -40775.477, -84749.88, 0.053079814, 0.00000731964, 0.00017357217, -40775.477, -40775.477, 0.0, 10.000027, 9.94216 
2.565001e+3, 3.138706e+2, -39697.54, -82511.0, -0.03274338, 0.0000073039564, -0.000054886645, -39697.54, -39697.54, 0.0, 10.000027, 9.943671 
2.575001e+3, 1.24993615e+2, -1719912.1, -1724222.3, 0.034176756, 0.000007969262, 0.000020316449, -1719912.1, -4849.479, 0.0, 10.000029, 9.994313 
2.575001e+3, 1.3498786e+2, -1622532.0, -1627432.8, -0.086477086, 0.000007884603, -0.00006909826, -1622532.0, -5412.913, 0.0, 10.000029, 9.993531 
2.575001e+3, 1.4497538e+2, -1534430.6, -1548143.8, 0.013600395, 0.000007832208, 0.00007474731, -1534430.6, -15189.299, 0.0, 10.000028, 9.981852 
2.575001e+3, 1.5495726e+2, -1436703.3, -1450819.6, -0.09812051, 0.00000781063, -0.000055387904, -1436703.3, -15284.326, 0.0, 10.000028, 9.981319 
2.575001e+3, 1.6493249e+2, -1348652.6, -1371950.3, 0.016766796, 0.000007785615, 0.000048123085, -1348652.6, -24990.957, 0.0, 10.000028, 9.969235 
2.575001e+3, 1.7490177e+2, -1250694.9, -1274308.4, -0.0985828, 0.000007757096, -0.00007240538, -1250694.9, -24732.154, 0.0, 10.000028, 9.968822 
2.575001e+3, 1.8486442e+2, -1162614.0, -1195718.1, 0.01738047, 0.000007726019, 0.00006774282, -1162614.0, -34285.2, 0.0, 10.000028, 9.956382 
2.575001e+3, 1.9482084e+2, -1064464.6, -1097831.3, -0.09439057, 0.0000076922615, -0.000056380457, -1064464.6, -33708.695, 0.0, 10.000028, 9.956039 
2.575001e+3, 2.0477058e+2, -976300.8, -1019433.4, 0.012751224, 0.000007662643, 0.000069191985, -976300.8, -43052.484, 0.0, 10.000028, 9.943277 
2.575001e+3, 2.147139e+2, -878014.06, -921408.44, -0.096943304, 0.0000076375045, -0.0001257025, -878014.06, -42210.234, 0.0, 10.000028, 9.942937 
2.575001e+3, 2.2465052e+2, -789728.1, -843143.5, 0.016537003, 0.000007616136, 0.00012195697, -789728.1, -51303.168, 0.0, 10.000027, 9.929894 
2.575001e+3, 2.3458047e+2, -691294.9, -744965.25, -0.0905475, 0.000007599029, -0.000087854925, -691294.9, -50183.535, 0.0, 10.000027, 9.9295635 
2.575001e+3, 2.445035e+2, -602971.0, -667017.7, 0.017624531, 0.000007578453, 0.00007558532, -602971.0, -59105.168, 0.0, 10.000027, 9.916123 
2.575001e+3, 2.5441974e+2, -504218.53, -568342.4, -0.08395498, 0.0000075537246, -0.00010591466, -504218.53, -57531.94, 0.0, 10.000027, 9.916023 
2.575001e+3, 2.643289e+2, -415983.3, -490987.16, 0.027115121, 0.000007533178, 0.00014134322, -415983.3, -66406.47, 0.0, 10.000027, 9.901952 
2.575001e+3, 2.7423137e+2, -316698.3, -391374.22, -0.07286069, 0.000007517957, -0.000202792, -316698.3, -64166.016, 0.0, 10.000027, 9.902372 
2.575001e+3, 2.841257e+2, -230225.14, -318080.72, 0.031867966, 0.000007504921, 0.00022962372, -230225.14, -74656.75, 0.0, 10.000027, 9.885426 
2.575001e+3, 2.9401216e+2, -130519.195, -217764.64, -0.06273162, 0.0000074948434, -0.00025280827, -130519.195, -71838.266, 0.0, 10.000027, 9.886205 
2.575001e+3, 3.039266e+2, -40775.688, -84750.31, 0.040580705, 0.000007481778, 0.00017357586, -40775.688, -40775.688, 0.0, 10.000027, 9.94216 
2.575001e+3, 3.138706e+2, -39697.746, -82511.43, -0.044874463, 0.0000074642626, -0.0000548752, -39697.746, -39697.746, 0.0, 10.000027, 9.943671 
2.5850013e+3, 1.24993615e+2, -1719910.1, -1724221.5, 0.09498397, 0.000008132542, 0.000020380909, -1719910.1, -4847.5947, 0.0, 10.00003, 9.994313 
2.5850013e+3, 1.3498786e+2, -1622530.1, -1627432.1, -0.031124098, 0.00000805857, -0.00006913513, -1622530.1, -5411.086, 0.0, 10.00003, 9.993531 
2.5850013e+3, 1.449754e+2, -1534428.8, -1548143.1, 0.06819963, 0.000008010494, 0.00007485196, -1534428.8, -15187.485, 0.0, 10.00003, 9.981851 
2.5850013e+3, 1.5495726e+2, -1436701.4, -1450819.0, -0.04781112, 0.00000798679, -0.000055356646, -1436701.4, -15282.525, 0.0, 10.00003, 9.981319 
2.5850013e+3, 1.6493249e+2, -1348650.8, -1371949.6, 0.06731378, 0.000007956869, 0.00004812911, -1348650.8, -24989.166, 0.0, 10.00003, 9.969234 
2.5850013e+3, 1.7490177e+2, -1250693.0, -1274307.8, -0.053866956, 0.000007920607, -0.00007237539, -1250693.0, -24730.354, 0.0, 10.000029, 9.968821 
2.5850013e+3, 1.8486442e+2, -1162612.3, -1195717.6, 0.06177605, 0.000007889464, 0.00006778018, -1162612.3, -34283.406, 0.0, 10.000029, 9.956382 
2.5850013e+3, 1.9482084e+2, -1064462.8, -1097830.6, -0.0550418, 0.00000786367, -0.000056353107, -1064462.8, -33706.945, 0.0, 10.000029, 9.956038 
2.5850013e+3, 2.0477058e+2, -976299.0, -1019432.8, 0.05253024, 0.0000078350695, 0.00006921437, -976299.0, -43050.742, 0.0, 10.000029, 9.943277 
2.5850013e+3, 2.147139e+2, -878012.25, -921407.9, -0.061954014, 0.000007803425, -0.0001256796, -878012.25, -42208.49, 0.0, 10.000029, 9.942936 
2.5850013e+3, 2.2465052e+2, -789726.3, -843142.94, 0.050712414, 0.000007779712, 0.00012197869, -789726.3, -51301.42, 0.0, 10.000029, 9.929894 
2.5850013e+3, 2.3458047e+2, -691293.1, -744964.75, -0.059228286, 0.000007764974, -0.000087836335, -691293.1, -50181.816, 0.0, 10.000029, 9.9295635 
2.5850013e+3, 2.445035e+2, -602969.25, -667017.2, 0.049970765, 0.000007745178, 0.00007560348, -602969.25, -59103.465, 0.0, 10.000029, 9.916122 
2.5850013e+3, 2.5441974e+2, -504216.8, -568341.9, -0.061795216, 0.000007719325, -0.00010589369, -504216.8, -57530.242, 0.0, 10.000029, 9.916023 
2.5850013e+3, 2.643289e+2, -415981.6, -490986.63, 0.046245843, 0.000007697714, 0.00014136365, -415981.6, -66404.766, 0.0, 10.000029, 9.901952 
2.5850013e+3, 2.7423137e+2, -316696.6, -391373.72, -0.055051606, 0.000007681505, -0.00020277635, -316696.6, -64164.33, 0.0, 10.000028, 9.902371 
2.5850013e+3, 2.841257e+2, -230223.44, -318080.22, 0.051815603, 0.000007668664, 0.00022963555, -230223.44, -74655.07, 0.0, 10.000028, 9.885426 
2.5850013e+3, 2.9401216e+2, -130517.52, -217764.16, -0.046123788, 0.000007660397, -0.0002527989, -130517.52, -71836.6, 0.0, 10.000028, 9.886204 
2.5850013e+3, 3.039266e+2, -40774.035, -84749.86, 0.054834522, 0.000007646828, 0.00017358488, -40774.035, -40774.035, 0.0, 10.000028, 9.94216 
2.5850013e+3, 3.138706e+2, -39696.082, -82510.98, -0.04357189, 0.0000076253573, -0.000054863365, -39696.082, -39696.082, 0.0, 10.000028, 9.943671 
2.5950012e+3, 1.2499362e+2, -1719910.5, -1724222.1, 0.03362921, 0.000008298478, 0.000020461172, -1719910.5, -4847.953, 0.0, 10.00003, 9.994313 
2.5950012e+3, 1.3498788e+2, -1622530.4, -1627432.6, -0.09248969, 0.00000823418, -0.00006919533, -1622530.4, -5411.4375, 0.0, 10.00003, 9.99353 
2.5950012e+3, 1.449754e+2, -1534429.0, -1548143.6, 0.015749887, 0.000008192152, 0.000074935335, -1534429.0, -15187.811, 0.0, 10.00003, 9.981851 
2.5950012e+3, 1.5495726e+2, -1436701.6, -1450819.5, -0.10024966, 0.00000817081, -0.000055314275, -1436701.6, -15282.845, 0.0, 10.00003, 9.981319 
2.5950012e+3, 1.6493249e+2, -1348651.0, -1371950.1, 0.022927426, 0.000008134779, 0.000048151993, -1348651.0, -24989.492, 0.0, 10.00003, 9.969234 
2.5950012e+3, 1.7490178e+2, -1250693.3, -1274308.3, -0.098212145, 0.0000080837535, -0.00007235, -1250693.3, -24730.674, 0.0, 10.000029, 9.968821 
2.5950012e+3, 1.8486442e+2, -1162612.5, -1195718.1, 0.015919754, 0.000008051442, 0.000067808796, -1162612.5, -34283.715, 0.0, 10.000029, 9.956382 
2.5950012e+3, 1.9482084e+2, -1064463.0, -1097831.1, -0.10091724, 0.000008038703, -0.00005632051, -1064463.0, -33707.246, 0.0, 10.000029, 9.956038 
2.5950012e+3, 2.0477058e+2, -976299.25, -1019433.3, 0.018121177, 0.0000080138825, 0.00006924245, -976299.25, -43051.04, 0.0, 10.000029, 9.943276 
2.5950012e+3, 2.147139e+2, -878012.5, -921408.4, -0.09612784, 0.000007975974, -0.00012566523, -878012.5, -42208.773, 0.0, 10.000029, 9.942936 
2.5950012e+3, 2.2465053e+2, -789726.56, -843143.44, 0.015406083, 0.000007947665, 0.000121991645, -789726.56, -51301.7, 0.0, 10.000029, 9.929894 
2.5950012e+3, 2.3458047e+2, -691293.4, -744965.2, -0.09457367, 0.000007930222, -0.00008781085, -691293.4, -50182.086, 0.0, 10.000029, 9.9295635 
2.5950012e+3, 2.445035e+2, -602969.5, -667017.7, 0.024105003, 0.000007910658, 0.00007562885, -602969.5, -59103.74, 0.0, 10.000029, 9.916122 
2.5950012e+3, 2.5441974e+2, -504217.06, -568342.4, -0.08720623, 0.000007888542, -0.00010588358, -504217.06, -57530.51, 0.0, 10.000029, 9.916022 
2.5950012e+3, 2.643289e+2, -415981.8, -490987.1, 0.02383261, 0.000007867931, 0.00014136972, -415981.8, -66405.02, 0.0, 10.000029, 9.901951 
2.5950012e+3, 2.742314e+2, -316696.84, -391374.2, -0.07726614, 0.000007849233, -0.00020276006, -316696.84, -64164.574, 0.0, 10.000028, 9.902371 
2.5950012e+3, 2.841257e+2, -230223.67, -318080.7, 0.033314645, 0.000007835806, 0.00022965632, -230223.67, -74655.31, 0.0, 10.000028, 9.885426 
2.5950012e+3, 2.9401216e+2, -130517.74, -217764.63, -0.06429181, 0.000007829578, -0.00025278158, -130517.74, -71836.836, 0.0, 10.000028, 9.886204 
2.5950012e+3, 3.039266e+2, -40774.266, -84750.34, 0.044941753, 0.00000781479, 0.00017359923, -40774.266, -40774.266, 0.0, 10.000028, 9.942159 
2.5950012e+3, 3.138706e+2, -39696.316, -82511.46, -0.052494023, 0.00000778724, -0.00005485114, -39696.316, -39696.316, 0.0, 10.000028, 9.94367 
2.6050013e+3, 1.2499363e+2, -1719908.5, -1724221.4, 0.09495632, 0.000008477954, 0.000020531557, -1719908.5, -4846.024, 0.0, 10.000031, 9.994312 
2.6050013e+3, 1.3498788e+2, -1622528.4, -1627432.0, -0.03104319, 0.000008414501, -0.00006924995, -1622528.4, -5409.5215, 0.0, 10.0000305, 9.99353 
2.6050013e+3, 1.4497541e+2, -1534427.0, -1548142.9, 0.079386786, 0.000008371112, 0.000075030395, -1534427.0, -15185.899, 0.0, 10.0000305, 9.981851 
2.6050013e+3, 1.5495728e+2, -1436699.8, -1450818.9, -0.051300142, 0.000008346153, -0.000055274922, -1436699.8, -15280.944, 0.0, 10.0000305, 9.981318 
2.6050013e+3, 1.649325e+2, -1348649.0, -1371949.5, 0.06988965, 0.000008309738, 0.000048169575, -1348649.0, -24987.605, 0.0, 10.0000305, 9.969234 
2.6050013e+3, 1.7490178e+2, -1250691.4, -1274307.6, -0.052995883, 0.000008261631, -0.0000723195, -1250691.4, -24728.814, 0.0, 10.0000305, 9.968821 
2.6050013e+3, 1.8486443e+2, -1162610.5, -1195717.5, 0.05920046, 0.000008228326, 0.0000678434, -1162610.5, -34281.863, 0.0, 10.0000305, 9.956381 
2.6050013e+3, 1.9482085e+2, -1064461.1, -1097830.6, -0.063831046, 0.000008210501, -0.000056291054, -1064461.1, -33705.395, 0.0, 10.0000305, 9.956038 
2.6050013e+3, 2.047706e+2, -976297.4, -1019432.7, 0.05734241, 0.0000081858, 0.000069268324, -976297.4, -43049.2, 0.0, 10.00003, 9.943276 
2.6050013e+3, 2.1471392e+2, -878010.7, -921407.75, -0.060848217, 0.000008153648, -0.00012564125, -878010.7, -42206.97, 0.0, 10.00003, 9.942936 
2.6050013e+3, 2.2465053e+2, -789724.75, -843142.9, 0.04904109, 0.000008124717, 0.00012201558, -789724.75, -51299.906, 0.0, 10.00003, 9.9298935 
2.6050013e+3, 2.3458049e+2, -691291.5, -744964.6, -0.06996518, 0.000008099428, -0.00008778485, -691291.5, -50180.28, 0.0, 10.00003, 9.929563 
2.6050013e+3, 2.445035e+2, -602967.6, -667017.1, 0.049348447, 0.000008077787, 0.00007565249, -602967.6, -59101.934, 0.0, 10.00003, 9.916122 
2.6050013e+3, 2.5441974e+2, -504215.25, -568341.8, -0.059379496, 0.000008060493, -0.00010586755, -504215.25, -57528.74, 0.0, 10.00003, 9.916022 
2.6050013e+3, 2.643289e+2, -415980.03, -490986.56, 0.053879913, 0.000008042029, 0.00014138255, -415980.03, -66403.266, 0.0, 10.00003, 9.901951 
2.6050013e+3, 2.742314e+2, -316695.06, -391373.66, -0.057554353, 0.000008022056, -0.00020274475, -316695.06, -64162.824, 0.0, 10.00003, 9.902371 
2.6050013e+3, 2.841257e+2, -230221.89, -318080.16, 0.049322598, 0.000008006888, 0.00022967292, -230221.89, -74653.56, 0.0, 10.00003, 9.885425 
2.6050013e+3, 2.9401216e+2, -130515.98, -217764.11, -0.053594764, 0.000007998295, -0.0002527653, -130515.98, -71835.086, 0.0, 10.00003, 9.886204 
2.6050013e+3, 3.039266e+2, -40772.527, -84749.87, 0.058255572, 0.000007983135, 0.00017361192, -40772.527, -40772.527, 0.0, 10.00003, 9.942159 
2.6050013e+3, 3.138706e+2, -39694.594, -82510.99, -0.03617006, 0.000007958183, -0.00005484685, -39694.594, -39694.594, 0.0, 10.00003, 9.94367 
2.6150012e+3, 1.2499364e+2, -1719908.8, -1724222.0, 0.03219605, 0.000008670964, 0.000020592188, -1719908.8, -4846.385, 0.0, 10.000031, 9.994312 
2.6150012e+3, 1.3498788e+2, -1622528.8, -1627432.5, -0.09381565, 0.000008599532, -0.000069299014, -1622528.8, -5409.8765, 0.0, 10.0000305, 9.993529 
2.6150012e+3, 1.4497541e+2, -1534427.3, -1548143.5, 0.026055016, 0.000008547378, 0.00007513714, -1534427.3, -15186.262, 0.0, 10.0000305, 9.98185 
2.6150012e+3, 1.5495728e+2, -1436700.0, -1450819.4, -0.10461808, 0.000008512823, -0.00005523859, -1436700.0, -15281.299, 0.0, 10.0000305, 9.981318 
2.6150012e+3, 1.649325e+2, -1348649.4, -1371950.0, 0.020718118, 0.000008481749, 0.000048181864, -1348649.4, -24987.938, 0.0, 10.0000305, 9.9692335 
2.6150012e+3, 1.7490178e+2, -1250691.6, -1274308.1, -0.10214771, 0.000008454231, -0.00007228389, -1250691.6, -24729.14, 0.0, 10.0000305, 9.96882 
2.6150012e+3, 1.8486443e+2, -1162610.9, -1195718.0, 0.0151348775, 0.000008420108, 0.00006788397, -1162610.9, -34282.188, 0.0, 10.0000305, 9.956381 
2.6150012e+3, 1.9482085e+2, -1064461.4, -1097831.1, -0.10783919, 0.0000083790665, -0.000056264736, -1064461.4, -33705.71, 0.0, 10.0000305, 9.9560375 
2.6150012e+3, 2.047706e+2, -976297.6, -1019433.2, 0.016132182, 0.000008350827, 0.00006929199, -976297.6, -43049.504, 0.0, 10.00003, 9.943276 
2.6150012e+3, 2.1471392e+2, -878010.94, -921408.3, -0.10200283, 0.000008336448, -0.00012560765, -878010.94, -42207.27, 0.0, 10.00003, 9.942935 
2.6150012e+3, 2.2465053e+2, -789725.0, -843143.4, 0.018313257, 0.000008310866, 0.00012205051, -789725.0, -51300.207, 0.0, 10.00003, 9.9298935 
2.6150012e+3, 2.3458049e+2, -691291.75, -744965.1, -0.10035304, 0.000008272593, -0.00008775835, -691291.75, -50180.574, 0.0, 10.00003, 9.929563 
2.6150012e+3, 2.445035e+2, -602967.9, -667017.56, 0.018304192, 0.000008246568, 0.00007567441, -602967.9, -59102.21, 0.0, 10.00003, 9.9161215 
2.6150012e+3, 2.5441974e+2, -504215.5, -568342.3, -0.09045773, 0.000008235178, -0.00010584561, -504215.5, -57529.004, 0.0, 10.00003, 9.916022 
2.6150012e+3, 2.643289e+2, -415980.28, -490987.1, 0.030659491, 0.000008220004, 0.00014140218, -415980.28, -66403.54, 0.0, 10.00003, 9.901951 
2.6150012e+3, 2.742314e+2, -316695.3, -391374.16, -0.0802491, 0.000008199973, -0.00020273043, -316695.3, -64163.094, 0.0, 10.00003, 9.90237 
2.6150012e+3, 2.841257e+2, -230222.14, -318080.66, 0.032487806, 0.000008181909, 0.00022968536, -230222.14, -74653.82, 0.0, 10.00003, 9.885425 
2.6150012e+3, 2.9401216e+2, -130516.21, -217764.6, -0.069903396, 0.000008166549, -0.0002527501, -130516.21, -71835.336, 0.0, 10.00003, 9.886203 
2.6150012e+3, 3.039266e+2, -40772.754, -84750.34, 0.04436678, 0.000008151867, 0.00017362295, -40772.754, -40772.754, 0.0, 10.00003, 9.942159 
2.6150012e+3, 3.138706e+2, -39694.824, -82511.47, -0.04977716, 0.000008138183, -0.000054850483, -39694.824, -39694.824, 0.0, 10.00003, 9.94367 
2.625001e+3, 1.24993645e+2, -1719906.6, -1724221.3, 0.09697223, 0.000008868141, 0.0000206592, -1719906.6, -4844.3926, 0.0, 10.000032, 9.994311 
2.625001e+3, 1.3498789e+2, -1622526.6, -1627431.8, -0.039488673, 0.00000878216, -0.000069339, -1622526.6, -5407.8667, 0.0, 10.000032, 9.993529 
2.625001e+3, 1.4497542e+2, -1534425.3, -1548142.8, 0.08040358, 0.000008724211, 0.000075254065, -1534425.3, -15184.251, 0.0, 10.000032, 9.98185 
2.625001e+3, 1.549573e+2, -1436698.0, -1450818.8, -0.049735174, 0.000008692631, -0.000055204408, -1436698.0, -15279.311, 0.0, 10.000032, 9.981318 
2.625001e+3, 1.649325e+2, -1348647.3, -1371949.4, 0.07487525, 0.000008664728, 0.000048188034, -1348647.3, -24985.967, 0.0, 10.000032, 9.9692335 
2.625001e+3, 1.749018e+2, -1250689.6, -1274307.5, -0.05674913, 0.000008640582, -0.00007224981, -1250689.6, -24727.201, 0.0, 10.000031, 9.96882 
2.625001e+3, 1.8486443e+2, -1162608.9, -1195717.4, 0.06279094, 0.000008605917, 0.00006792546, -1162608.9, -34280.258, 0.0, 10.000031, 9.956381 
2.625001e+3, 1.9482085e+2, -1064459.5, -1097830.5, -0.063154876, 0.000008560236, -0.000056237295, -1064459.5, -33703.79, 0.0, 10.000031, 9.9560375 
2.625001e+3, 2.047706e+2, -976295.7, -1019432.56, 0.057518087, 0.000008529467, 0.000069315, -976295.7, -43047.586, 0.0, 10.000031, 9.943275 
2.625001e+3, 2.1471392e+2, -878009.0, -921407.7, -0.06983384, 0.000008514843, -0.00012557868, -878009.0, -42205.36, 0.0, 10.000031, 9.942935 
2.625001e+3, 2.2465053e+2, -789723.06, -843142.75, 0.053600088, 0.000008490118, 0.00012207904, -789723.06, -51298.31, 0.0, 10.000031, 9.9298935 
2.625001e+3, 2.3458049e+2, -691289.9, -744964.56, -0.06476548, 0.000008453945, -0.00008773752, -691289.9, -50178.707, 0.0, 10.000031, 9.929563 
2.625001e+3, 2.4450351e+2, -602966.0, -667017.0, 0.051635478, 0.000008427912, 0.000075692275, -602966.0, -59100.355, 0.0, 10.000031, 9.9161215 
2.625001e+3, 2.5441974e+2, -504213.63, -568341.75, -0.06875575, 0.000008413994, -0.00010582504, -504213.63, -57527.152, 0.0, 10.0000305, 9.916021 
2.625001e+3, 2.6432893e+2, -415978.4, -490986.53, 0.05213055, 0.000008397257, 0.00014142235, -415978.4, -66401.69, 0.0, 10.0000305, 9.90195 
2.625001e+3, 2.742314e+2, -316693.44, -391373.63, -0.058652554, 0.000008376897, -0.00020271461, -316693.44, -64161.254, 0.0, 10.0000305, 9.90237 
2.625001e+3, 2.841257e+2, -230220.28, -318080.13, 0.057059754, 0.000008358873, 0.00022969833, -230220.28, -74651.99, 0.0, 10.0000305, 9.885425 
2.625001e+3, 2.9401216e+2, -130514.38, -217764.06, -0.05050431, 0.000008344054, -0.00025273784, -130514.38, -71833.52, 0.0, 10.0000305, 9.886203 
2.625001e+3, 3.039266e+2, -40770.953, -84749.84, 0.0598567, 0.000008329236, 0.00017363422, -40770.953, -40770.953, 0.0, 10.0000305, 9.942158 
2.625001e+3, 3.1387064e+2, -39693.016, -82510.97, -0.04480851, 0.000008314408, -0.000054840468, -39693.016, -39693.016, 0.0, 10.0000305, 9.943669 
2.6350012e+3, 1.2499365e+2, -1719907.0, -1724221.9, 0.040077977, 0.000009069485, 0.000020732718, -1719907.0, -4844.7813, 0.0, 10.000032, 9.994311 
2.6350012e+3, 1.3498789e+2, -1622527.0, -1627432.4, -0.09639296, 0.000008962387, -0.00006936993, -1622527.0, -5408.248, 0.0, 10.000032, 9.993529 
2.6350012e+3, 1.4497542e+2, -1534425.5, -1548143.4, 0.023569772, 0.000008901613, 0.00007538118, -1534425.5, -15184.615, 0.0, 10.000032, 9.98185 
2.6350012e+3, 1.549573e+2, -1436698.3, -1450819.3, -0.10657003, 0.00000888557, -0.00005517238, -1436698.3, -15279.666, 0.0, 10.000032, 9.9813175 
2.6350012e+3, 1.6493252e+2, -1348647.6, -1371950.0, 0.02007668, 0.000008858669, 0.000048188092, -1348647.6, -24986.322, 0.0, 10.000032, 9.969233 
2.6350012e+3, 1.749018e+2, -1250690.0, -1274308.0, -0.11153861, 0.000008820688, -0.000072217255, -1250690.0, -24727.549, 0.0, 10.000031, 9.96882 
2.6350012e+3, 1.8486445e+2, -1162609.1, -1195717.9, 0.018944161, 0.000008785755, 0.00006796787, -1162609.1, -34280.59, 0.0, 10.000031, 9.95638 
2.6350012e+3, 1.9482087e+2, -1064459.8, -1097831.0, -0.106877245, 0.000008754005, -0.000056208723, -1064459.8, -33704.117, 0.0, 10.000031, 9.9560375 
2.6350012e+3, 2.0477061e+2, -976295.94, -1019433.1, 0.016048945, 0.000008721715, 0.000069337344, -976295.94, -43047.914, 0.0, 10.000031, 9.943275 
2.6350012e+3, 2.1471392e+2, -878009.25, -921408.2, -0.11125758, 0.000008688838, -0.0001255543, -878009.25, -42205.68, 0.0, 10.000031, 9.942935 
2.6350012e+3, 2.2465055e+2, -789723.3, -843143.25, 0.01743531, 0.000008662475, 0.0001221012, -789723.3, -51298.613, 0.0, 10.000031, 9.929893 
2.6350012e+3, 2.3458049e+2, -691290.1, -744965.06, -0.10076069, 0.000008643482, -0.00008772234, -691290.1, -50179.004, 0.0, 10.000031, 9.929562 
2.6350012e+3, 2.4450351e+2, -602966.25, -667017.56, 0.022084266, 0.000008621815, 0.0000757061, -602966.25, -59100.652, 0.0, 10.000031, 9.9161215 
2.6350012e+3, 2.5441974e+2, -504213.88, -568342.25, -0.09799854, 0.0000085969405, -0.000105805855, -504213.88, -57527.445, 0.0, 10.0000305, 9.916021 
2.6350012e+3, 2.6432893e+2, -415978.66, -490987.03, 0.027764026, 0.000008573788, 0.00014144306, -415978.66, -66401.97, 0.0, 10.0000305, 9.90195 
2.6350012e+3, 2.742314e+2, -316693.7, -391374.13, -0.08269471, 0.000008552829, -0.00020269731, -316693.7, -64161.523, 0.0, 10.0000305, 9.90237 
2.6350012e+3, 2.841257e+2, -230220.53, -318080.63, 0.03788677, 0.000008537781, 0.00022971185, -230220.53, -74652.26, 0.0, 10.0000305, 9.885424 
2.6350012e+3, 2.9401216e+2, -130514.625, -217764.58, -0.06924022, 0.000008530803, -0.00025272864, -130514.625, -71833.78, 0.0, 10.0000305, 9.886203 
2.6350012e+3, 3.039266e+2, -40771.2, -84750.36, 0.04727989, 0.000008515237, 0.00017364576, -40771.2, -40771.2, 0.0, 10.0000305, 9.942158 
2.6350012e+3, 3.1387064e+2, -39693.266, -82511.484, -0.05666381, 0.000008486861, -0.000054816803, -39693.266, -39693.266, 0.0, 10.0000305, 9.943669 
2.6450014e+3, 1.2499366e+2, -1719904.8, -1724221.1, 0.100146696, 0.000009259852, 0.000020809342, -1719904.8, -4842.6606, 0.0, 10.000034, 9.994311 
2.6450014e+3, 1.349879e+2, -1622524.8, -1627431.6, -0.04219467, 0.0000091544625, -0.000069409005, -1622524.8, -5406.162, 0.0, 10.000034, 9.993528 
2.6450014e+3, 1.4497544e+2, -1534423.4, -1548142.6, 0.07505104, 0.000009095602, 0.00007550516, -1534423.4, -15182.539, 0.0, 10.000033, 9.981849 
2.6450014e+3, 1.549573e+2, -1436696.1, -1450818.6, -0.05682332, 0.00000908164, -0.000055134456, -1436696.1, -15277.617, 0.0, 10.000033, 9.9813175 
2.6450014e+3, 1.6493252e+2, -1348645.5, -1371949.3, 0.072945796, 0.000009052242, 0.000048195114, -1348645.5, -24984.287, 0.0, 10.000033, 9.969233 
2.645001e+3, 1.749018e+2, -1250687.9, -1274307.4, -0.063008636, 0.00000900709, -0.00007218478, -1250687.9, -24725.51, 0.0, 10.000033, 9.968819 
2.645001e+3, 1.8486445e+2, -1162607.0, -1195717.3, 0.06784527, 0.000008971242, 0.000068009205, -1162607.0, -34278.555, 0.0, 10.000033, 9.95638 
2.645001e+3, 1.9482087e+2, -1064457.6, -1097830.4, -0.06602161, 0.000008945122, -0.0000561759, -1064457.6, -33702.113, 0.0, 10.000033, 9.956037 
2.645001e+3, 2.0477061e+2, -976293.94, -1019432.44, 0.05787493, 0.000008913137, 0.00006936472, -976293.94, -43045.926, 0.0, 10.000033, 9.943275 
2.645001e+3, 2.1471393e+2, -878007.25, -921407.56, -0.07009455, 0.0000088747975, -0.00012552906, -878007.25, -42203.703, 0.0, 10.000032, 9.942934 
2.645001e+3, 2.2465055e+2, -789721.3, -843142.6, 0.057532456, 0.00000884712, 0.00012212532, -789721.3, -51296.637, 0.0, 10.000032, 9.929893 
2.645001e+3, 2.345805e+2, -691288.1, -744964.44, -0.07115585, 0.000008831507, -0.00008769825, -691288.1, -50177.047, 0.0, 10.000032, 9.929562 
2.645001e+3, 2.4450351e+2, -602964.3, -667016.94, 0.052715167, 0.000008810306, 0.000075728836, -602964.3, -59098.707, 0.0, 10.000032, 9.916121 
2.645001e+3, 2.5441974e+2, -504211.9, -568341.7, -0.06769012, 0.00000878241, -0.00010578605, -504211.9, -57525.508, 0.0, 10.000032, 9.916021 
2.645001e+3, 2.6432893e+2, -415976.72, -490986.44, 0.057956133, 0.000008757536, 0.00014146132, -415976.72, -66400.04, 0.0, 10.000032, 9.90195 
2.645001e+3, 2.742314e+2, -316691.75, -391373.56, -0.063184455, 0.000008736518, -0.0002026788, -316691.75, -64159.61, 0.0, 10.000032, 9.9023695 
2.645001e+3, 2.841257e+2, -230218.6, -318080.06, 0.054461095, 0.000008721842, 0.00022972947, -230218.6, -74650.34, 0.0, 10.000032, 9.885424 
2.645001e+3, 2.9401216e+2, -130512.71, -217764.02, -0.056285325, 0.000008715822, -0.00025271348, -130512.71, -71831.88, 0.0, 10.000032, 9.886202 
2.645001e+3, 3.039266e+2, -40769.316, -84749.84, 0.062355615, 0.000008699985, 0.00017365773, -40769.316, -40769.316, 0.0, 10.000032, 9.942158 
2.645001e+3, 3.1387064e+2, -39691.387, -82510.98, -0.043277618, 0.000008669511, -0.00005480913, -39691.387, -39691.387, 0.0, 10.000032, 9.943668 
2.6550016e+3, 1.2499367e+2, -1719905.1, -1724221.6, 0.037140254, 0.000009439251, 0.000020889216, -1719905.1, -4843.066, 0.0, 10.000034, 9.99431 
2.6550016e+3, 1.349879e+2, -1622525.1, -1627432.3, -0.10521214, 0.000009358379, -0.000069456204, -1622525.1, -5406.56, 0.0, 10.000034, 9.993528 
2.6550016e+3, 1.4497544e+2, -1534423.6, -1548143.1, 0.0136457095, 0.000009306169, 0.00007562603, -1534423.6, -15182.909, 0.0, 10.000033, 9.981849 
2.6550016e+3, 1.5495731e+2, -1436696.4, -1450819.1, -0.11822887, 0.000009280839, -0.000055090648, -1436696.4, -15277.98, 0.0, 10.000033, 9.981317 
2.6550016e+3, 1.6493253e+2, -1348645.8, -1371949.9, 0.021318296, 0.000009245446, 0.00004820909, -1348645.8, -24984.654, 0.0, 10.000033, 9.969233 
2.6550016e+3, 1.7490181e+2, -1250688.1, -1274307.9, -0.114586584, 0.000009199785, -0.00007215238, -1250688.1, -24725.87, 0.0, 10.000033, 9.968819 
2.6550016e+3, 1.8486445e+2, -1162607.4, -1195717.8, 0.017987285, 0.000009162376, 0.00006804947, -1162607.4, -34278.91, 0.0, 10.000033, 9.95638 
2.6550016e+3, 1.9482087e+2, -1064458.0, -1097830.9, -0.115861475, 0.0000091335905, -0.000056138822, -1064458.0, -33702.457, 0.0, 10.000033, 9.956037 
2.6550016e+3, 2.0477061e+2, -976294.2, -1019433.0, 0.016486028, 0.0000091037355, 0.00006939713, -976294.2, -43046.258, 0.0, 10.000033, 9.9432745 
2.6550016e+3, 2.1471393e+2, -878007.5, -921408.1, -0.11131127, 0.000009072718, -0.00012550292, -878007.5, -42204.027, 0.0, 10.000032, 9.942934 
2.6550016e+3, 2.2465055e+2, -789721.6, -843143.2, 0.019290762, 0.000009044046, 0.00012215138, -789721.6, -51296.965, 0.0, 10.000032, 9.929893 
2.6550013e+3, 2.345805e+2, -691288.44, -744965.0, -0.10930168, 0.000009018024, -0.00008766526, -691288.44, -50177.363, 0.0, 10.000032, 9.929561 
2.6550013e+3, 2.4450351e+2, -602964.56, -667017.5, 0.02202117, 0.000008993388, 0.00007576049, -602964.56, -59099.01, 0.0, 10.000032, 9.916121 
2.6550013e+3, 2.5441974e+2, -504212.2, -568342.25, -0.098028675, 0.000008970401, -0.000105765626, -504212.2, -57525.805, 0.0, 10.000032, 9.91602 
2.6550013e+3, 2.6432893e+2, -415976.97, -490987.0, 0.032577593, 0.0000089484965, 0.00014147715, -415976.97, -66400.336, 0.0, 10.000032, 9.901949 
2.6550013e+3, 2.742314e+2, -316692.03, -391374.1, -0.08823163, 0.000008927959, -0.0002026591, -316692.03, -64159.902, 0.0, 10.000032, 9.9023695 
2.6550013e+3, 2.8412572e+2, -230218.86, -318080.6, 0.034585703, 0.000008911056, 0.00022975118, -230218.86, -74650.625, 0.0, 10.000032, 9.885424 
2.6550013e+3, 2.9401216e+2, -130512.96, -217764.55, -0.07569704, 0.000008899114, -0.00025269238, -130512.96, -71832.16, 0.0, 10.000032, 9.886202 
2.6550013e+3, 3.039266e+2, -40769.566, -84750.37, 0.048423827, 0.000008883485, 0.00017367011, -40769.566, -40769.566, 0.0, 10.000032, 9.942157 
2.6550013e+3, 3.1387064e+2, -39691.64, -82511.5, -0.05656824, 0.000008862355, -0.000054817436, -39691.64, -39691.64, 0.0, 10.000032, 9.943668 
2.6650015e+3, 1.24993674e+2, -1719902.9, -1724220.9, 0.11157399, 0.00000963514, 0.00002096741, -1719902.9, -4840.8506, 0.0, 10.000035, 9.99431 
2.6650015e+3, 1.3498792e+2, -1622522.9, -1627431.5, -0.03357846, 0.000009562062, -0.000069515314, -1622522.9, -5404.3945, 0.0, 10.000035, 9.993528 
2.6650015e+3, 1.4497544e+2, -1534421.5, -1548142.4, 0.08529488, 0.0000095112755, 0.00007573869, -1534421.5, -15180.757, 0.0, 10.000035, 9.981848 
2.6650015e+3, 1.5495731e+2, -1436694.3, -1450818.4, -0.059203696, 0.000009480925, -0.0000550502, -1436694.3, -15275.827, 0.0, 10.000035, 9.981317 
2.6650015e+3, 1.6493253e+2, -1348643.6, -1371949.1, 0.07851646, 0.000009442742, 0.000048223264, -1348643.6, -24982.514, 0.0, 10.000035, 9.969232 
2.6650015e+3, 1.7490181e+2, -1250686.0, -1274307.3, -0.0627255, 0.000009396572, -0.000072117546, -1250686.0, -24723.752, 0.0, 10.000035, 9.968818 
2.6650015e+3, 1.8486446e+2, -1162605.1, -1195717.0, 0.06816475, 0.000009358581, 0.000068090674, -1162605.1, -34276.805, 0.0, 10.000034, 9.956379 
2.6650015e+3, 1.9482088e+2, -1064455.9, -1097830.3, -0.07088649, 0.000009329143, -0.00005610622, -1064455.9, -33700.367, 0.0, 10.000034, 9.956037 
2.6650015e+3, 2.0477061e+2, -976292.06, -1019432.3, 0.061797082, 0.000009299514, 0.00006942514, -976292.06, -43044.17, 0.0, 10.000034, 9.9432745 
2.6650015e+3, 2.1471393e+2, -878005.44, -921407.44, -0.074531704, 0.000009269675, -0.00012547516, -878005.44, -42201.965, 0.0, 10.000034, 9.942933 
2.6650015e+3, 2.2465055e+2, -789719.5, -843142.56, 0.055229824, 0.00000924004, 0.00012217813, -789719.5, -51294.914, 0.0, 10.000034, 9.929892 
2.6650015e+3, 2.345805e+2, -691286.3, -744964.4, -0.075669385, 0.000009210631, -0.0000876404, -691286.3, -50175.32, 0.0, 10.000034, 9.929561 
2.6650015e+3, 2.4450353e+2, -602962.5, -667016.9, 0.056191456, 0.000009184558, 0.00007578444, -602962.5, -59096.977, 0.0, 10.000034, 9.916121 
2.6650015e+3, 2.5441974e+2, -504210.13, -568341.6, -0.07438107, 0.000009162462, -0.00010574142, -504210.13, -57523.785, 0.0, 10.000034, 9.91602 
2.6650015e+3, 2.6432893e+2, -415974.94, -490986.4, 0.055192944, 0.000009141293, 0.00014149884, -415974.94, -66398.33, 0.0, 10.000034, 9.901949 
2.6650015e+3, 2.742314e+2, -316690.0, -391373.5, -0.064901054, 0.000009121286, -0.00020264345, -316690.0, -64157.91, 0.0, 10.000033, 9.902369 
2.6650015e+3, 2.8412572e+2, -230216.84, -318080.0, 0.060959686, 0.000009104073, 0.00022976418, -230216.84, -74648.64, 0.0, 10.000033, 9.885423 
2.6650015e+3, 2.940122e+2, -130510.96, -217763.97, -0.056543555, 0.000009090669, -0.00025267733, -130510.96, -71830.18, 0.0, 10.000033, 9.886202 
2.6650015e+3, 3.039266e+2, -40767.6, -84749.83, 0.065491095, 0.000009074099, 0.00017368402, -40767.6, -40767.6, 0.0, 10.000033, 9.942157 
2.6650015e+3, 3.1387064e+2, -39689.676, -82510.96, -0.045952007, 0.000009052809, -0.000054809443, -39689.676, -39689.676, 0.0, 10.000033, 9.943668 
2.6750013e+3, 1.2499368e+2, -1719903.1, -1724221.5, 0.038707655, 0.000009847513, 0.000021044083, -1719903.1, -4841.2656, 0.0, 10.000035, 9.994309 
2.6750013e+3, 1.3498792e+2, -1622523.3, -1627432.1, -0.106458366, 0.000009765508, -0.00006958631, -1622523.3, -5404.8027, 0.0, 10.000035, 9.993527 
2.6750013e+3, 1.4497545e+2, -1534421.8, -1548143.0, 0.025610488, 0.000009710927, 0.00007584314, -1534421.8, -15181.158, 0.0, 10.000035, 9.981848 
2.6750013e+3, 1.5495732e+2, -1436694.5, -1450819.0, -0.11886932, 0.000009681899, -0.000055013108, -1436694.5, -15276.222, 0.0, 10.000035, 9.981317 
2.6750013e+3, 1.6493255e+2, -1348643.9, -1371949.8, 0.022974078, 0.000009644132, 0.000048237638, -1348643.9, -24982.895, 0.0, 10.000035, 9.969232 
2.6750013e+3, 1.7490183e+2, -1250686.3, -1274307.8, -0.11824839, 0.000009597447, -0.00007208027, -1250686.3, -24724.127, 0.0, 10.000035, 9.968818 
2.6750013e+3, 1.8486446e+2, -1162605.5, -1195717.6, 0.017670527, 0.000009559858, 0.000068132824, -1162605.5, -34277.17, 0.0, 10.000034, 9.956379 
2.6750013e+3, 1.9482088e+2, -1064456.1, -1097830.8, -0.121324316, 0.000009531776, -0.000056078086, -1064456.1, -33700.723, 0.0, 10.000034, 9.956036 
2.6750013e+3, 2.0477062e+2, -976292.4, -1019432.94, 0.016896227, 0.00000950047, 0.00006944875, -976292.4, -43044.523, 0.0, 10.000034, 9.9432745 
2.6750013e+3, 2.1471395e+2, -878005.7, -921408.06, -0.119320124, 0.000009465667, -0.00012544577, -878005.7, -42202.31, 0.0, 10.000034, 9.942933 
2.6750013e+3, 2.2465056e+2, -789719.8, -843143.1, 0.016918458, 0.000009435102, 0.00012220556, -789719.8, -51295.246, 0.0, 10.000034, 9.929892 
2.6750013e+3, 2.345805e+2, -691286.6, -744964.94, -0.11377132, 0.000009409328, -0.00008762367, -691286.6, -50175.65, 0.0, 10.000034, 9.929561 
2.6750013e+3, 2.4450353e+2, -602962.75, -667017.44, 0.023891227, 0.000009383813, 0.000075800686, -602962.75, -59097.3, 0.0, 10.000034, 9.91612 
2.6750013e+3, 2.5441977e+2, -504210.4, -568342.2, -0.10640396, 0.000009358593, -0.00010571342, -504210.4, -57524.1, 0.0, 10.000034, 9.916019 
2.6750013e+3, 2.6432893e+2, -415975.22, -490986.94, 0.027662193, 0.000009335926, 0.0001415264, -415975.22, -66398.63, 0.0, 10.000034, 9.901949 
2.6750013e+3, 2.742314e+2, -316690.28, -391374.06, -0.09213342, 0.000009316498, -0.00020263187, -316690.28, -64158.203, 0.0, 10.000033, 9.902369 
2.6750013e+3, 2.8412572e+2, -230217.13, -318080.56, 0.04034669, 0.000009300889, 0.00022976848, -230217.13, -74648.93, 0.0, 10.000033, 9.885423 
2.6750013e+3, 2.940122e+2, -130511.234, -217764.52, -0.0765622, 0.000009290484, -0.00025266834, -130511.234, -71830.46, 0.0, 10.000033, 9.886201 
2.6750013e+3, 3.039266e+2, -40767.867, -84750.38, 0.051613994, 0.000009271823, 0.00017369943, -40767.867, -40767.867, 0.0, 10.000033, 9.942157 
2.6750013e+3, 3.1387064e+2, -39689.94, -82511.516, -0.05911045, 0.000009240877, -0.00005478516, -39689.94, -39689.94, 0.0, 10.000033, 9.943667 
2.6850015e+3, 1.249937e+2, -1719900.8, -1724220.8, 0.1095267, 0.000010064444, 0.000021120399, -1719900.8, -4839.002, 0.0, 10.000037, 9.994309 
2.6850015e+3, 1.3498794e+2, -1622520.9, -1627431.4, -0.043354232, 0.000009972034, -0.00006963949, -1622520.9, -5402.5195, 0.0, 10.000037, 9.993527 
2.6850015e+3, 1.4497545e+2, -1534419.4, -1548142.3, 0.08968239, 0.000009913108, 0.000075970886, -1534419.4, -15178.877, 0.0, 10.000037, 9.981848 
2.6850015e+3, 1.5495732e+2, -1436692.3, -1450818.3, -0.059648458, 0.0000098857945, -0.0000549734, -1436692.3, -15273.974, 0.0, 10.000037, 9.981316 
2.6850015e+3, 1.6493255e+2, -1348641.6, -1371948.9, 0.08224269, 0.000009849551, 0.000048247162, -1348641.6, -24980.666, 0.0, 10.000036, 9.969232 
2.6850015e+3, 1.7490183e+2, -1250684.0, -1274307.1, -0.06628393, 0.000009804196, -0.000072041825, -1250684.0, -24721.918, 0.0, 10.000036, 9.968818 
2.6850015e+3, 1.8486448e+2, -1162603.3, -1195716.9, 0.06895011, 0.000009766165, 0.00006817859, -1162603.3, -34274.973, 0.0, 10.000036, 9.956378 
2.6850015e+3, 1.9482088e+2, -1064453.9, -1097830.1, -0.07443459, 0.000009735785, -0.0000560476, -1064453.9, -33698.543, 0.0, 10.000036, 9.956036 
2.6850015e+3, 2.0477062e+2, -976290.1, -1019432.2, 0.06549966, 0.000009703214, 0.00006947389, -976290.1, -43042.355, 0.0, 10.000036, 9.943274 
2.6850015e+3, 2.1471395e+2, -878003.5, -921407.4, -0.075656384, 0.000009668267, -0.00012541522, -878003.5, -42200.152, 0.0, 10.000036, 9.942933 
2.6850015e+3, 2.2465056e+2, -789717.6, -843142.44, 0.060575556, 0.000009636872, 0.00012223676, -789717.6, -51293.098, 0.0, 10.000036, 9.929891 
2.6850015e+3, 2.3458052e+2, -691284.44, -744964.25, -0.078765586, 0.000009609493, -0.00008759721, -691284.44, -50173.51, 0.0, 10.000036, 9.92956 
2.6850015e+3, 2.4450353e+2, -602960.6, -667016.75, 0.058155052, 0.000009583832, 0.00007582321, -602960.6, -59095.18, 0.0, 10.000035, 9.91612 
2.6850015e+3, 2.5441977e+2, -504208.28, -568341.56, -0.07327518, 0.000009560213, -0.000105693856, -504208.28, -57522.004, 0.0, 10.000035, 9.916019 
2.6850015e+3, 2.6432893e+2, -415973.1, -490986.3, 0.06175546, 0.00000953765, 0.00014154479, -415973.1, -66396.54, 0.0, 10.000035, 9.901948 
2.6850015e+3, 2.742314e+2, -316688.16, -391373.44, -0.06849109, 0.000009516419, -0.00020261235, -316688.16, -64156.12, 0.0, 10.000035, 9.902369 
2.6850015e+3, 2.8412572e+2, -230215.02, -318079.94, 0.061922863, 0.000009499572, 0.00022978704, -230215.02, -74646.85, 0.0, 10.000035, 9.885423 
2.6850015e+3, 2.940122e+2, -130509.14, -217763.92, -0.059718817, 0.00000948871, -0.00025265358, -130509.14, -71828.4, 0.0, 10.000035, 9.886201 
2.6850015e+3, 3.039266e+2, -40765.813, -84749.82, 0.06759939, 0.000009469851, 0.00017371176, -40765.813, -40765.813, 0.0, 10.000035, 9.942156 
2.6850015e+3, 3.1387064e+2, -39687.895, -82510.96, -0.049399342, 0.000009439082, -0.00005477318, -39687.895, -39687.895, 0.0, 10.000035, 9.943667 
2.6950014e+3, 1.24993704e+2, -1719901.1, -1724221.4, 0.043141562, 0.000010285932, 0.00002119653, -1719901.1, -4839.439, 0.0, 10.000037, 9.994309 
2.6950014e+3, 1.3498794e+2, -1622521.3, -1627432.0, -0.10975159, 0.000010181636, -0.00006967486, -1622521.3, -5402.9487, 0.0, 10.000037, 9.993526 
2.6950014e+3, 1.4497547e+2, -1534419.8, -1548142.9, 0.024032028, 0.000010117821, 0.000076121905, -1534419.8, -15179.294, 0.0, 10.000037, 9.981847 
2.6950014e+3, 1.5495734e+2, -1436692.5, -1450818.9, -0.12529913, 0.00001009261, -0.00005493107, -1436692.5, -15274.382, 0.0, 10.000037, 9.981316 
2.6950014e+3, 1.6493258e+2, -1348642.0, -1371949.6, 0.024174012, 0.000010059, 0.000048251844, -1348642.0, -24981.066, 0.0, 10.000036, 9.969231 
2.6950014e+3, 1.7490184e+2, -1250684.4, -1274307.8, -0.12431476, 0.000010016819, -0.000072002214, -1250684.4, -24722.313, 0.0, 10.000036, 9.968817 
2.6950014e+3, 1.8486448e+2, -1162603.5, -1195717.5, 0.01585603, 0.000009977501, 0.00006822798, -1162603.5, -34275.35, 0.0, 10.000036, 9.956378 
2.6950014e+3, 1.948209e+2, -1064454.3, -1097830.6, -0.1274739, 0.000009941168, -0.000056014764, -1064454.3, -33698.914, 0.0, 10.000036, 9.956035 
2.6950014e+3, 2.0477064e+2, -976290.44, -1019432.8, 0.019355636, 0.000009907747, 0.000069500544, -976290.44, -43042.723, 0.0, 10.000036, 9.943274 
2.6950014e+3, 2.1471395e+2, -878003.8, -921407.94, -0.12166064, 0.000009877474, -0.0001253835, -878003.8, -42200.51, 0.0, 10.000036, 9.942932 
2.6950014e+3, 2.2465056e+2, -789717.94, -843143.06, 0.021335507, 0.00000984535, 0.00012227173, -789717.94, -51293.453, 0.0, 10.000036, 9.929891 
2.6950014e+3, 2.3458052e+2, -691284.75, -744964.9, -0.11778594, 0.000009811125, -0.00008756103, -691284.75, -50173.86, 0.0, 10.000036, 9.92956 
2.6950014e+3, 2.4450353e+2, -602960.9, -667017.4, 0.022367861, 0.000009784616, 0.00007585201, -602960.9, -59095.508, 0.0, 10.000035, 9.916119 
2.6950014e+3, 2.5441977e+2, -504208.56, -568342.1, -0.10890954, 0.000009767319, -0.000105682724, -504208.56, -57522.33, 0.0, 10.000035, 9.916019 
2.6950014e+3, 2.6432893e+2, -415973.38, -490986.9, 0.034249097, 0.000009746464, 0.00014155403, -415973.38, -66396.87, 0.0, 10.000035, 9.901948 
2.6950014e+3, 2.742314e+2, -316688.44, -391374.03, -0.09545485, 0.000009721047, -0.00020258492, -316688.44, -64156.438, 0.0, 10.000035, 9.902368 
2.6950014e+3, 2.8412572e+2, -230215.3, -318080.53, 0.040948786, 0.00000970012, 0.00022981984, -230215.3, -74647.16, 0.0, 10.000035, 9.885422 
2.6950014e+3, 2.940122e+2, -130509.42, -217764.5, -0.0801553, 0.000009685351, -0.00025263306, -130509.42, -71828.695, 0.0, 10.000035, 9.8862 
2.6950014e+3, 3.039266e+2, -40766.094, -84750.4, 0.051930763, 0.000009668183, 0.00017372101, -40766.094, -40766.094, 0.0, 10.000035, 9.942156 
2.6950014e+3, 3.1387064e+2, -39688.176, -82511.54, -0.06451045, 0.000009647417, -0.000054773493, -39688.176, -39688.176, 0.0, 10.000035, 9.943666 
2.7050018e+3, 1.2499371e+2, -1719898.6, -1724220.5, 0.11681654, 0.000010504641, 0.00002128115, -1719898.6, -4837.0415, 0.0, 10.000039, 9.994308 
2.7050015e+3, 1.3498795e+2, -1622518.8, -1627431.1, -0.045010757, 0.00001039741, -0.00006972518, -1622518.8, -5400.586, 0.0, 10.000039, 9.993526 
2.7050015e+3, 1.4497548e+2, -1534417.4, -1548142.0, 0.08671487, 0.000010332004, 0.00007625983, -1534417.4, -15176.938, 0.0, 10.000039, 9.981847 
2.7050015e+3, 1.5495734e+2, -1436690.1, -1450818.0, -0.065292686, 0.000010306514, -0.000054888384, -1436690.1, -15272.036, 0.0, 10.000038, 9.981315 
2.7050015e+3, 1.6493258e+2, -1348639.5, -1371948.8, 0.085835524, 0.000010273133, 0.000048259928, -1348639.5, -24978.742, 0.0, 10.000038, 9.969231 
2.7050015e+3, 1.7490184e+2, -1250682.0, -1274306.9, -0.06800672, 0.000010231702, -0.000071966795, -1250682.0, -24720.016, 0.0, 10.000038, 9.968817 
2.7050015e+3, 1.8486448e+2, -1162601.3, -1195716.8, 0.07353931, 0.000010191391, 0.00006827281, -1162601.3, -34273.063, 0.0, 10.000038, 9.956378 
2.7050015e+3, 1.948209e+2, -1064451.9, -1097829.9, -0.07755893, 0.000010152245, -0.000055979282, -1064451.9, -33696.637, 0.0, 10.000038, 9.956035 
2.7050015e+3, 2.0477064e+2, -976288.1, -1019432.06, 0.066344365, 0.000010116964, 0.00006953142, -976288.1, -43040.45, 0.0, 10.000038, 9.943273 
2.7050015e+3, 2.1471396e+2, -878001.5, -921407.25, -0.083976105, 0.000010085868, -0.00012535209, -878001.5, -42198.258, 0.0, 10.000038, 9.942932 
2.7050015e+3, 2.2465058e+2, -789715.6, -843142.3, 0.05893269, 0.0000100546795, 0.00012230198, -789715.6, -51291.215, 0.0, 10.000037, 9.929891 
2.7050015e+3, 2.3458052e+2, -691282.5, -744964.2, -0.082097575, 0.000010023379, -0.00008753387, -691282.5, -50171.65, 0.0, 10.000037, 9.929559 
2.7050015e+3, 2.4450354e+2, -602958.7, -667016.7, 0.059536498, 0.0000099964245, 0.00007587645, -602958.7, -59093.31, 0.0, 10.000037, 9.916119 
2.7050015e+3, 2.5441977e+2, -504206.3, -568341.44, -0.08024784, 0.000009974652, -0.000105660554, -504206.3, -57520.125, 0.0, 10.000037, 9.9160185 
2.7050015e+3, 2.6432893e+2, -415971.16, -490986.25, 0.061432578, 0.000009951603, 0.00014157499, -415971.16, -66394.67, 0.0, 10.000037, 9.901947 
2.7050015e+3, 2.742314e+2, -316686.25, -391373.38, -0.0743009, 0.000009926907, -0.00020256384, -316686.25, -64154.266, 0.0, 10.000037, 9.902368 
2.7050015e+3, 2.8412572e+2, -230213.11, -318079.88, 0.0625844, 0.000009906772, 0.00022984023, -230213.11, -74644.984, 0.0, 10.000037, 9.885422 
2.7050015e+3, 2.940122e+2, -130507.25, -217763.88, -0.062436298, 0.000009892875, -0.00025261447, -130507.25, -71826.54, 0.0, 10.000037, 9.8862 
2.7050015e+3, 3.039266e+2, -40763.957, -84749.81, 0.07073344, 0.000009875434, 0.000173736, -40763.957, -40763.957, 0.0, 10.000037, 9.942155 
2.7050015e+3, 3.1387064e+2, -39686.04, -82510.95, -0.0501535, 0.000009852693, -0.00005476476, -39686.04, -39686.04, 0.0, 10.000037, 9.943666 
2.7150017e+3, 1.2499372e+2, -1719899.0, -1724221.3, 0.044407215, 0.000010720572, 0.000021374439, -1719899.0, -4837.5024, 0.0, 10.000039, 9.994308 
2.7150017e+3, 1.3498795e+2, -1622519.1, -1627431.9, -0.11743223, 0.000010619352, -0.00006979045, -1622519.1, -5401.0386, 0.0, 10.000039, 9.9935255 
2.7150017e+3, 1.4497548e+2, -1534417.6, -1548142.8, 0.020479161, 0.000010555655, 0.00007638466, -1534417.6, -15177.364, 0.0, 10.000039, 9.981846 
2.7150017e+3, 1.5495735e+2, -1436690.5, -1450818.8, -0.13152142, 0.000010527503, -0.000054845343, -1436690.5, -15272.454, 0.0, 10.000038, 9.981315 
2.7150017e+3, 1.6493258e+2, -1348639.9, -1371949.4, 0.022786785, 0.000010491948, 0.000048271406, -1348639.9, -24979.158, 0.0, 10.000038, 9.96923 
2.7150017e+3, 1.7490184e+2, -1250682.4, -1274307.6, -0.13104106, 0.0000104488445, -0.00007193556, -1250682.4, -24720.424, 0.0, 10.000038, 9.968816 
2.7150014e+3, 1.8486449e+2, -1162601.5, -1195717.4, 0.020942343, 0.000010407836, 0.00006831309, -1162601.5, -34273.46, 0.0, 10.000038, 9.956377 
2.7150014e+3, 1.9482091e+2, -1064452.3, -1097830.6, -0.13003774, 0.000010369011, -0.000055941153, -1064452.3, -33697.027, 0.0, 10.000038, 9.956034 
2.7150014e+3, 2.0477064e+2, -976288.5, -1019432.7, 0.017833207, 0.000010330866, 0.000069566515, -976288.5, -43040.836, 0.0, 10.000038, 9.943273 
2.7150014e+3, 2.1471396e+2, -878001.8, -921407.9, -0.13240631, 0.00001029345, -0.00012532098, -878001.8, -42198.637, 0.0, 10.000038, 9.942931 
2.7150014e+3, 2.2465058e+2, -789715.94, -843142.94, 0.015116043, 0.00001026486, 0.00012232753, -789715.94, -51291.574, 0.0, 10.000037, 9.92989 
2.7150014e+3, 2.3458053e+2, -691282.8, -744964.8, -0.12576653, 0.000010246252, -0.00008751572, -691282.8, -50172.0, 0.0, 10.000037, 9.929559 
2.7150014e+3, 2.4450354e+2, -602959.0, -667017.3, 0.025495077, 0.0000102192525, 0.00007589655, -602959.0, -59093.66, 0.0, 10.000037, 9.916119 
2.7150014e+3, 2.5441977e+2, -504206.63, -568342.06, -0.11382901, 0.000010182212, -0.000105627354, -504206.63, -57520.47, 0.0, 10.000037, 9.9160185 
2.7150014e+3, 2.6432893e+2, -415971.47, -490986.88, 0.03197827, 0.000010153072, 0.00014160764, -415971.47, -66395.01, 0.0, 10.000037, 9.901947 
2.7150014e+3, 2.7423143e+2, -316686.53, -391374.0, -0.10348028, 0.000010134, -0.00020254913, -316686.53, -64154.594, 0.0, 10.000037, 9.902367 
2.7150014e+3, 2.8412572e+2, -230213.39, -318080.47, 0.039244443, 0.000010119524, 0.00022984821, -230213.39, -74645.305, 0.0, 10.000037, 9.885421 
2.7150014e+3, 2.940122e+2, -130507.53, -217764.45, -0.08525337, 0.000010111279, -0.0002525978, -130507.53, -71826.84, 0.0, 10.000037, 9.8862 
2.7150014e+3, 3.0392662e+2, -40764.246, -84750.414, 0.055597235, 0.000010091602, 0.00017375672, -40764.246, -40764.246, 0.0, 10.000037, 9.942155 
2.7150014e+3, 3.1387064e+2, -39686.33, -82511.555, -0.064390615, 0.000010054914, -0.000054746994, -39686.33, -39686.33, 0.0, 10.000037, 9.943666 
2.7250016e+3, 1.2499373e+2, -1719896.5, -1724220.4, 0.1199665, 0.000010942156, 0.000021463127, -1719896.5, -4835.008, 0.0, 10.000041, 9.9943075 
2.7250016e+3, 1.3498797e+2, -1622516.6, -1627431.0, -0.044086423, 0.000010845672, -0.00006985067, -1622516.6, -5398.569, 0.0, 10.000041, 9.9935255 
2.7250016e+3, 1.449755e+2, -1534415.1, -1548141.9, 0.09397165, 0.000010783437, 0.00007652104, -1534415.1, -15174.907, 0.0, 10.000041, 9.981846 
2.7250016e+3, 1.5495735e+2, -1436688.0, -1450817.9, -0.06708563, 0.000010753408, -0.000054801836, -1436688.0, -15270.026, 0.0, 10.00004, 9.981315 
2.7250016e+3, 1.649326e+2, -1348637.4, -1371948.6, 0.08633808, 0.000010714951, 0.000048282185, -1348637.4, -24976.744, 0.0, 10.00004, 9.96923 
2.7250016e+3, 1.7490186e+2, -1250679.9, -1274306.8, -0.07460323, 0.000010667896, -0.00007189606, -1250679.9, -24718.01, 0.0, 10.00004, 9.968816 
2.7250016e+3, 1.8486449e+2, -1162599.0, -1195716.6, 0.07631063, 0.000010625805, 0.00006836237, -1162599.0, -34271.06, 0.0, 10.00004, 9.956377 
2.7250016e+3, 1.9482091e+2, -1064449.8, -1097829.8, -0.08281305, 0.000010588895, -0.000055901954, -1064449.8, -33694.656, 0.0, 10.00004, 9.956034 
2.7250016e+3, 2.0477065e+2, -976286.06, -1019431.94, 0.06768735, 0.000010551577, 0.000069598645, -976286.06, -43038.484, 0.0, 10.000039, 9.943273 
2.7250016e+3, 2.1471396e+2, -877999.44, -921407.1, -0.0810956, 0.000010513814, -0.00012529266, -877999.44, -42196.297, 0.0, 10.000039, 9.942931 
2.7250016e+3, 2.2465058e+2, -789713.56, -843142.2, 0.0668524, 0.00001048373, 0.0001223539, -789713.56, -51289.246, 0.0, 10.000039, 9.92989 
2.7250016e+3, 2.3458053e+2, -691280.44, -744964.06, -0.08669714, 0.00001046233, -0.00008748917, -691280.44, -50169.68, 0.0, 10.000039, 9.929559 
2.7250016e+3, 2.4450354e+2, -602956.6, -667016.56, 0.062935695, 0.000010434377, 0.000075923745, -602956.6, -59091.348, 0.0, 10.000039, 9.916118 
2.7250016e+3, 2.5441977e+2, -504204.3, -568341.4, -0.08229544, 0.000010398585, -0.000105598956, -504204.3, -57518.18, 0.0, 10.000039, 9.916018 
2.7250016e+3, 2.6432896e+2, -415969.16, -490986.2, 0.06445467, 0.000010369751, 0.00014163274, -415969.16, -66392.734, 0.0, 10.000039, 9.901947 
2.7250016e+3, 2.7423143e+2, -316684.25, -391373.3, -0.07298789, 0.000010349781, -0.00020253306, -316684.25, -64152.332, 0.0, 10.000039, 9.902367 
2.7250016e+3, 2.8412572e+2, -230211.11, -318079.8, 0.06986178, 0.00001033433, 0.00022986058, -230211.11, -74643.05, 0.0, 10.000039, 9.885421 
2.7250016e+3, 2.940122e+2, -130505.266, -217763.81, -0.06496423, 0.000010325008, -0.00025258178, -130505.266, -71824.6, 0.0, 10.000039, 9.886199 
2.7250016e+3, 3.0392662e+2, -40762.016, -84749.8, 0.073416725, 0.00001030527, 0.00017377241, -40762.016, -40762.016, 0.0, 10.000039, 9.942154 
2.7250016e+3, 3.1387064e+2, -39684.105, -82510.945, -0.052551027, 0.000010270028, -0.000054737615, -39684.105, -39684.105, 0.0, 10.000038, 9.9436655 
2.7350017e+3, 1.2499374e+2, -1719896.9, -1724221.0, 0.04392265, 0.000011169388, 0.000021547423, -1719896.9, -4835.4775, 0.0, 10.000041, 9.9943075 
2.7350017e+3, 1.3498798e+2, -1622517.0, -1627431.8, -0.12014487, 0.000011076369, -0.00006990585, -1622517.0, -5399.031, 0.0, 10.000041, 9.9935255 
2.7350017e+3, 1.449755e+2, -1534415.5, -1548142.5, 0.022616223, 0.00001101535, 0.000076668955, -1534415.5, -15175.357, 0.0, 10.000041, 9.981846 
2.7350017e+3, 1.5495737e+2, -1436688.4, -1450818.5, -0.13843615, 0.000010984228, -0.000054757875, -1436688.4, -15270.468, 0.0, 10.00004, 9.981314 
2.7350017e+3, 1.649326e+2, -1348637.8, -1371949.3, 0.025666866, 0.000010942138, 0.000048292266, -1348637.8, -24977.18, 0.0, 10.00004, 9.969229 
2.7350017e+3, 1.7490186e+2, -1250680.3, -1274307.5, -0.13522092, 0.000010888859, -0.00007184828, -1250680.3, -24718.438, 0.0, 10.00004, 9.968816 
2.7350017e+3, 1.848645e+2, -1162599.4, -1195717.3, 0.017901506, 0.000010845298, 0.00006842064, -1162599.4, -34271.48, 0.0, 10.00004, 9.956376 
2.7350017e+3, 1.9482091e+2, -1064450.1, -1097830.5, -0.14119807, 0.000010811895, -0.00005586168, -1064450.1, -33695.066, 0.0, 10.00004, 9.956034 
2.7350017e+3, 2.0477065e+2, -976286.4, -1019432.56, 0.017361874, 0.000010779098, 0.00006962781, -976286.4, -43038.87, 0.0, 10.000039, 9.943272 
2.7350017e+3, 2.1471398e+2, -877999.75, -921407.75, -0.13125871, 0.000010746955, -0.00012526715, -877999.75, -42196.676, 0.0, 10.000039, 9.942931 
2.7350017e+3, 2.2465059e+2, -789713.9, -843142.9, 0.023037456, 0.000010711285, 0.0001223811, -789713.9, -51289.633, 0.0, 10.000039, 9.929889 
2.7350017e+3, 2.3458053e+2, -691280.75, -744964.7, -0.13030568, 0.000010671617, -0.00008745422, -691280.75, -50170.06, 0.0, 10.000039, 9.929558 
2.7350017e+3, 2.4450354e+2, -602956.94, -667017.2, 0.02576224, 0.0000106418065, 0.00007595804, -602956.94, -59091.715, 0.0, 10.000039, 9.916118 
2.7350017e+3, 2.5441977e+2, -504204.63, -568342.0, -0.119162224, 0.000010623767, -0.000105575346, -504204.63, -57518.54, 0.0, 10.000039, 9.916018 
2.7350017e+3, 2.6432896e+2, -415969.47, -490986.8, 0.034078114, 0.000010601631, 0.0001416503, -415969.47, -66393.08, 0.0, 10.000039, 9.901946 
2.7350017e+3, 2.7423143e+2, -316684.56, -391373.94, -0.10293241, 0.000010574248, -0.00020251567, -316684.56, -64152.664, 0.0, 10.000039, 9.902367 
2.7350017e+3, 2.8412572e+2, -230211.42, -318080.44, 0.04576869, 0.000010551191, 0.00022987733, -230211.42, -74643.38, 0.0, 10.000039, 9.88542 
2.7350017e+3, 2.940122e+2, -130505.57, -217764.44, -0.08853198, 0.000010534067, -0.0002525664, -130505.57, -71824.93, 0.0, 10.000039, 9.886199 
2.7350017e+3, 3.0392662e+2, -40762.316, -84750.43, 0.05654469, 0.000010516439, 0.00017378309, -40762.316, -40762.316, 0.0, 10.000039, 9.942154 
2.7350017e+3, 3.1387064e+2, -39684.406, -82511.58, -0.06864007, 0.000010498027, -0.00005473662, -39684.406, -39684.406, 0.0, 10.000038, 9.9436655 
2.7450016e+3, 1.2499375e+2, -1719894.1, -1724220.1, 0.1296132, 0.00001140376, 0.000021634305, -1719894.1, -4832.875, 0.0, 10.000043, 9.994307 
2.7450016e+3, 1.3498798e+2, -1622514.3, -1627430.8, -0.046037585, 0.000011311393, -0.00006997142, -1622514.3, -5396.4663, 0.0, 10.000043, 9.993525 
2.7450016e+3, 1.4497551e+2, -1534412.9, -1548141.6, 0.0964731, 0.000011248932, 0.000076811164, -1534412.9, -15172.801, 0.0, 10.000042, 9.981845 
2.7450016e+3, 1.5495737e+2, -1436685.6, -1450817.6, -0.071612224, 0.000011214221, -0.000054712134, -1436685.6, -15267.914, 0.0, 10.000042, 9.981314 
2.7450016e+3, 1.6493261e+2, -1348635.1, -1371948.4, 0.0923127, 0.00001117074, 0.000048304606, -1348635.1, -24974.643, 0.0, 10.000042, 9.969229 
2.7450016e+3, 1.7490187e+2, -1250677.6, -1274306.6, -0.07657849, 0.000011118317, -0.0000718049, -1250677.6, -24715.934, 0.0, 10.000042, 9.968815 
2.7450016e+3, 1.848645e+2, -1162596.9, -1195716.5, 0.07599351, 0.000011075061, 0.0000684709, -1162596.9, -34268.992, 0.0, 10.000042, 9.956376 
2.7450016e+3, 1.9482093e+2, -1064447.6, -1097829.6, -0.08490251, 0.000011041385, -0.00005582983, -1064447.6, -33692.594, 0.0, 10.000042, 9.956033 
2.7450016e+3, 2.0477065e+2, -976283.9, -1019431.75, 0.0726546, 0.000011007956, 0.00006965496, -976283.9, -43036.41, 0.0, 10.000041, 9.943272 
2.7450016e+3, 2.1471398e+2, -877997.25, -921406.94, -0.092883095, 0.000010974789, -0.00012522985, -877997.25, -42194.24, 0.0, 10.000041, 9.94293 
2.7450016e+3, 2.2465059e+2, -789711.44, -843142.06, 0.05995746, 0.000010937463, 0.0001224197, -789711.44, -51287.203, 0.0, 10.000041, 9.929889 
2.7450016e+3, 2.3458055e+2, -691278.3, -744963.94, -0.092957556, 0.000010895424, -0.00008742435, -691278.3, -50167.64, 0.0, 10.000041, 9.929558 
2.7450016e+3, 2.4450356e+2, -602954.5, -667016.44, 0.06472501, 0.000010865221, 0.00007598243, -602954.5, -59089.31, 0.0, 10.000041, 9.916117 
2.7450016e+3, 2.5441977e+2, -504202.22, -568341.25, -0.08717107, 0.000010849152, -0.00010555252, -504202.22, -57516.156, 0.0, 10.000041, 9.916018 
2.7450016e+3, 2.6432896e+2, -415967.06, -490986.1, 0.06604716, 0.0000108277245, 0.00014167282, -415967.06, -66390.71, 0.0, 10.000041, 9.901946 
2.7450016e+3, 2.7423143e+2, -316682.2, -391373.25, -0.080120966, 0.0000107994365, -0.00020249182, -316682.2, -64150.31, 0.0, 10.000041, 9.902366 
2.7450016e+3, 2.8412572e+2, -230209.05, -318079.75, 0.06874569, 0.000010775149, 0.00022989947, -230209.05, -74641.03, 0.0, 10.000041, 9.88542 
2.7450016e+3, 2.940122e+2, -130503.21, -217763.77, -0.06649266, 0.000010756358, -0.00025255015, -130503.21, -71822.586, 0.0, 10.00004, 9.886198 
2.7450016e+3, 3.0392662e+2, -40759.99, -84749.79, 0.08010877, 0.000010737859, 0.00017379552, -40759.99, -40759.99, 0.0, 10.00004, 9.942154 
2.7450016e+3, 3.1387064e+2, -39682.086, -82510.94, -0.052141096, 0.000010719761, -0.000054724813, -39682.086, -39682.086, 0.0, 10.00004, 9.943665 
2.7550018e+3, 1.2499376e+2, -1719894.5, -1724220.9, 0.04696488, 0.0000116452675, 0.000021724001, -1719894.5, -4833.3765, 0.0, 10.000043, 9.994307 
2.7550018e+3, 1.34988e+2, -1622514.8, -1627431.5, -0.1287001, 0.00001155074, -0.00007004738, -1622514.8, -5396.9585, 0.0, 10.000043, 9.993525 
2.7550018e+3, 1.4497551e+2, -1534413.3, -1548142.4, 0.026580667, 0.000011484185, 0.00007694767, -1534413.3, -15173.2705, 0.0, 10.000042, 9.981845 
2.7550018e+3, 1.5495738e+2, -1436686.0, -1450818.4, -0.14148773, 0.000011443389, -0.000054664622, -1436686.0, -15268.374, 0.0, 10.000042, 9.981313 
2.7550018e+3, 1.6493262e+2, -1348635.5, -1371949.1, 0.025852107, 0.00001140076, 0.0000483192, -1348635.5, -24975.098, 0.0, 10.000042, 9.969228 
2.7550018e+3, 1.7490187e+2, -1250678.0, -1274307.4, -0.14302284, 0.000011356267, -0.00007176592, -1250678.0, -24716.383, 0.0, 10.000042, 9.968815 
2.7550018e+3, 1.8486452e+2, -1162597.3, -1195717.1, 0.015687943, 0.000011315088, 0.00006851315, -1162597.3, -34269.418, 0.0, 10.000042, 9.956375 
2.7550018e+3, 1.9482093e+2, -1064447.9, -1097830.4, -0.14514035, 0.000011277365, -0.0000558064, -1064447.9, -33693.01, 0.0, 10.000042, 9.956033 
2.7550018e+3, 2.0477067e+2, -976284.25, -1019432.5, 0.020090045, 0.000011238153, 0.00006968011, -976284.25, -43036.836, 0.0, 10.000041, 9.943271 
2.7550018e+3, 2.1471398e+2, -877997.6, -921407.7, -0.14529039, 0.000011197323, -0.00012518074, -877997.6, -42194.652, 0.0, 10.000041, 9.94293 
2.7550018e+3, 2.2465059e+2, -789711.75, -843142.75, 0.015835682, 0.0000111622685, 0.0001224697, -789711.75, -51287.594, 0.0, 10.000041, 9.929888 
2.7550018e+3, 2.3458055e+2, -691278.6, -744964.6, -0.13681161, 0.000011133742, -0.00008739956, -691278.6, -50168.02, 0.0, 10.000041, 9.929557 
2.7550018e+3, 2.4450356e+2, -602954.8, -667017.1, 0.023568155, 0.000011104612, 0.000075996926, -602954.8, -59089.688, 0.0, 10.000041, 9.916117 
2.7550018e+3, 2.544198e+2, -504202.53, -568341.94, -0.12820053, 0.000011074743, -0.00010553048, -504202.53, -57516.527, 0.0, 10.000041, 9.916017 
2.7550018e+3, 2.6432896e+2, -415967.4, -490986.75, 0.034691837, 0.000011048037, 0.00014170034, -415967.4, -66391.07, 0.0, 10.000041, 9.901945 
2.7550018e+3, 2.7423143e+2, -316682.5, -391373.9, -0.11083087, 0.000011025349, -0.0002024615, -316682.5, -64150.664, 0.0, 10.000041, 9.902366 
2.7550018e+3, 2.8412572e+2, -230209.36, -318080.4, 0.04465008, 0.000011006202, 0.00022992698, -230209.36, -74641.37, 0.0, 10.000041, 9.88542 
2.7550018e+3, 2.940122e+2, -130503.516, -217764.4, -0.08999581, 0.000010991876, -0.0002525331, -130503.516, -71822.914, 0.0, 10.00004, 9.886198 
2.7550018e+3, 3.0392662e+2, -40760.305, -84750.44, 0.06195592, 0.000010969525, 0.0001738097, -40760.305, -40760.305, 0.0, 10.00004, 9.942153 
2.7550018e+3, 3.1387064e+2, -39682.402, -82511.6, -0.06966901, 0.000010935237, -0.000054702192, -39682.402, -39682.402, 0.0, 10.00004, 9.943665 
2.765002e+3, 1.24993764e+2, -1719891.8, -1724219.9, 0.12611009, 0.000011896756, 0.000021819906, -1719891.8, -4830.696, 0.0, 10.000045, 9.994306 
2.7650017e+3, 1.34988e+2, -1622511.9, -1627430.6, -0.05213767, 0.000011789182, -0.00007011149, -1622511.9, -5394.2593, 0.0, 10.000045, 9.993524 
2.7650017e+3, 1.4497553e+2, -1534410.5, -1548141.4, 0.10309973, 0.000011718236, 0.00007709974, -1534410.5, -15170.573, 0.0, 10.000045, 9.981844 
2.7650017e+3, 1.5495738e+2, -1436683.4, -1450817.5, -0.07398245, 0.000011681711, -0.000054615237, -1436683.4, -15265.721, 0.0, 10.000044, 9.981313 
2.7650017e+3, 1.6493262e+2, -1348632.9, -1371948.3, 0.09320047, 0.000011642137, 0.000048330327, -1348632.9, -24972.473, 0.0, 10.000044, 9.969228 
2.7650017e+3, 1.7490189e+2, -1250675.4, -1274306.5, -0.07892896, 0.000011599457, -0.00007172724, -1250675.4, -24713.781, 0.0, 10.000044, 9.968814 
2.7650017e+3, 1.8486452e+2, -1162594.5, -1195716.3, 0.08056572, 0.000011556095, 0.000068562265, -1162594.5, -34266.824, 0.0, 10.000044, 9.956375 
2.7650017e+3, 1.9482094e+2, -1064445.3, -1097829.5, -0.09245371, 0.000011512008, -0.00005576479, -1064445.3, -33690.426, 0.0, 10.000044, 9.956032 
2.7650017e+3, 2.0477067e+2, -976281.6, -1019431.6, 0.07272883, 0.000011470558, 0.000069715905, -976281.6, -43034.26, 0.0, 10.000043, 9.943271 
2.7650017e+3, 2.1471399e+2, -877995.0, -921406.9, -0.09231335, 0.000011431957, -0.00012514892, -877995.0, -42192.1, 0.0, 10.000043, 9.942929 
2.7650017e+3, 2.246506e+2, -789709.2, -843141.94, 0.070801266, 0.000011398604, 0.00012249983, -789709.2, -51285.06, 0.0, 10.000043, 9.929888 
2.7650017e+3, 2.3458055e+2, -691276.06, -744963.8, -0.0931371, 0.000011371182, -0.000087368615, -691276.06, -50165.516, 0.0, 10.000043, 9.929557 
2.7650017e+3, 2.4450356e+2, -602952.3, -667016.4, 0.06577973, 0.000011340717, 0.00007602591, -602952.3, -59087.195, 0.0, 10.000043, 9.916116 
2.7650017e+3, 2.544198e+2, -504200.0, -568341.2, -0.090693794, 0.0000113066035, -0.0001055068, -504200.0, -57514.035, 0.0, 10.000043, 9.916017 
2.7650017e+3, 2.6432896e+2, -415964.88, -490986.0, 0.072122626, 0.000011278239, 0.00014172144, -415964.88, -66388.586, 0.0, 10.000043, 9.901945 
2.7650017e+3, 2.7423143e+2, -316680.0, -391373.2, -0.082018614, 0.000011257189, -0.00020243952, -316680.0, -64148.203, 0.0, 10.000043, 9.902365 
2.7650017e+3, 2.8412572e+2, -230206.88, -318079.66, 0.07136123, 0.000011238754, 0.00022994915, -230206.88, -74638.914, 0.0, 10.000042, 9.885419 
2.7650017e+3, 2.940122e+2, -130501.055, -217763.69, -0.07296261, 0.000011223857, -0.00025251167, -130501.055, -71820.484, 0.0, 10.000042, 9.886197 
2.7650017e+3, 3.0392662e+2, -40757.883, -84749.78, 0.07643559, 0.000011200654, 0.00017382842, -40757.883, -40757.883, 0.0, 10.000042, 9.942153 
2.7650017e+3, 3.1387064e+2, -39679.977, -82510.94, -0.061952945, 0.000011165105, -0.000054689026, -39679.977, -39679.977, 0.0, 10.000042, 9.943664 
2.7750018e+3, 1.2499378e+2, -1719892.1, -1724220.6, 0.050092988, 0.000012158222, 0.000021922267, -1719892.1, -4831.2065, 0.0, 10.000045, 9.994306 
2.7750018e+3, 1.3498801e+2, -1622512.3, -1627431.4, -0.1281697, 0.000012026723, -0.00007016376, -1622512.3, -5394.761, 0.0, 10.000045, 9.993524 
2.7750018e+3, 1.4497554e+2, -1534410.9, -1548142.1, 0.025102906, 0.000011951089, 0.000077267374, -1534410.9, -15171.068, 0.0, 10.000045, 9.981844 
2.7750018e+3, 1.549574e+2, -1436683.8, -1450818.3, -0.1519832, 0.0000119291835, -0.000054563974, -1436683.8, -15266.206, 0.0, 10.000044, 9.981312 
2.7750018e+3, 1.6493264e+2, -1348633.3, -1371949.0, 0.02319378, 0.0000118948665, 0.00004833798, -1348633.3, -24972.94, 0.0, 10.000044, 9.969227 
2.7750018e+3, 1.7490189e+2, -1250675.8, -1274307.1, -0.148897, 0.000011847886, -0.00007168886, -1250675.8, -24714.24, 0.0, 10.000044, 9.968814 
2.7750018e+3, 1.8486454e+2, -1162594.9, -1195717.0, 0.020752506, 0.0000117980835, 0.000068618225, -1162594.9, -34267.28, 0.0, 10.000044, 9.956374 
2.7750018e+3, 1.9482094e+2, -1064445.6, -1097830.3, -0.15215161, 0.000011745318, -0.000055705023, -1064445.6, -33690.875, 0.0, 10.000044, 9.956032 
2.7750018e+3, 2.0477068e+2, -976281.94, -1019432.4, 0.017297417, 0.000011705172, 0.000069762355, -976281.94, -43034.69, 0.0, 10.000043, 9.94327 
2.7750018e+3, 2.1471399e+2, -877995.4, -921407.56, -0.14765926, 0.000011678685, -0.00012513432, -877995.4, -42192.523, 0.0, 10.000043, 9.942929 
2.7750018e+3, 2.246506e+2, -789709.5, -843142.6, 0.021171937, 0.000011646466, 0.00012251009, -789709.5, -51285.473, 0.0, 10.000043, 9.929888 
2.7750018e+3, 2.3458056e+2, -691276.44, -744964.56, -0.142582, 0.000011607745, -0.000087331515, -691276.44, -50165.926, 0.0, 10.000043, 9.929556 
2.7750018e+3, 2.4450357e+2, -602952.6, -667017.06, 0.027391637, 0.000011573541, 0.00007606937, -602952.6, -59087.59, 0.0, 10.000043, 9.916116 
2.7750018e+3, 2.544198e+2, -504200.34, -568341.9, -0.1285536, 0.000011544731, -0.000105481464, -504200.34, -57514.418, 0.0, 10.000043, 9.916016 
2.7750018e+3, 2.6432896e+2, -415965.22, -490986.72, 0.03760988, 0.000011518325, 0.00014173612, -415965.22, -66388.97, 0.0, 10.000043, 9.901944 
2.7750018e+3, 2.7423143e+2, -316680.34, -391373.88, -0.11630907, 0.000011494954, -0.00020242589, -316680.34, -64148.58, 0.0, 10.000043, 9.902365 
2.7750018e+3, 2.8412575e+2, -230207.2, -318080.34, 0.045049254, 0.000011472807, 0.00022996597, -230207.2, -74639.27, 0.0, 10.000042, 9.885419 
2.7750018e+3, 2.940122e+2, -130501.38, -217764.38, -0.09855901, 0.000011452308, -0.00025248592, -130501.38, -71820.836, 0.0, 10.000042, 9.886197 
2.7750018e+3, 3.0392662e+2, -40758.215, -84750.46, 0.05962983, 0.000011431249, 0.00017385167, -40758.215, -40758.215, 0.0, 10.000042, 9.942152 
2.7750018e+3, 3.1387064e+2, -39680.31, -82511.625, -0.07772965, 0.000011409358, -0.000054685315, -39680.31, -39680.31, 0.0, 10.000042, 9.943664 
2.785002e+3, 1.24993786e+2, -1719889.3, -1724219.6, 0.13708626, 0.000012406022, 0.000022019916, -1719889.3, -4828.3623, 0.0, 10.000047, 9.994305 
2.785002e+3, 1.3498802e+2, -1622509.4, -1627430.4, -0.05408311, 0.000012280316, -0.00007022748, -1622509.4, -5391.979, 0.0, 10.000047, 9.993523 
2.785002e+3, 1.4497554e+2, -1534408.0, -1548141.1, 0.09750108, 0.000012206096, 0.0000774286, -1534408.0, -15168.302, 0.0, 10.000047, 9.981843 
2.785002e+3, 1.5495741e+2, -1436680.9, -1450817.3, -0.07955122, 0.0000121811545, -0.000054518383, -1436680.9, -15263.446, 0.0, 10.000046, 9.981312 
2.785002e+3, 1.6493264e+2, -1348630.4, -1371948.0, 0.096362926, 0.000012143522, 0.000048344387, -1348630.4, -24970.193, 0.0, 10.000046, 9.969227 
2.785002e+3, 1.749019e+2, -1250672.9, -1274306.3, -0.088268146, 0.000012092942, -0.00007164354, -1250672.9, -24711.512, 0.0, 10.000046, 9.968813 
2.785002e+3, 1.8486454e+2, -1162592.1, -1195716.1, 0.08198847, 0.0000120427985, 0.000068675734, -1162592.1, -34264.57, 0.0, 10.000046, 9.956374 
2.785002e+3, 1.9482096e+2, -1064442.9, -1097829.4, -0.09566417, 0.000011993102, -0.00005566329, -1064442.9, -33688.19, 0.0, 10.000046, 9.956031 
2.785002e+3, 2.0477068e+2, -976279.25, -1019431.5, 0.072340466, 0.000011953205, 0.00006979611, -976279.25, -43032.02, 0.0, 10.000046, 9.94327 
2.785002e+3, 2.14714e+2, -877992.7, -921406.7, -0.101124205, 0.000011923916, -0.0001251001, -877992.7, -42189.87, 0.0, 10.000045, 9.942928 
2.785002e+3, 2.2465062e+2, -789706.8, -843141.8, 0.06744214, 0.000011889721, 0.00012254345, -789706.8, -51282.84, 0.0, 10.000045, 9.929887 
2.785002e+3, 2.3458056e+2, -691273.75, -744963.7, -0.103523254, 0.000011849962, -0.00008730052, -691273.75, -50163.297, 0.0, 10.000045, 9.929556 
2.785002e+3, 2.4450357e+2, -602950.0, -667016.25, 0.06653892, 0.000011815781, 0.00007609966, -602950.0, -59084.973, 0.0, 10.000045, 9.916115 
2.785002e+3, 2.544198e+2, -504197.72, -568341.06, -0.09762721, 0.000011788261, -0.0001054499, -504197.72, -57511.836, 0.0, 10.000045, 9.916016 
2.7850017e+3, 2.6432896e+2, -415962.6, -490985.94, 0.06941602, 0.000011761553, 0.00014176463, -415962.6, -66386.41, 0.0, 10.000045, 9.901944 
2.7850017e+3, 2.7423143e+2, -316677.75, -391373.13, -0.08670616, 0.000011735852, -0.000202406, -316677.75, -64146.016, 0.0, 10.000045, 9.902364 
2.7850017e+3, 2.8412575e+2, -230204.61, -318079.6, 0.07739274, 0.0000117120935, 0.00022998209, -230204.61, -74636.71, 0.0, 10.000045, 9.885418 
2.7850017e+3, 2.940122e+2, -130498.81, -217763.63, -0.07260566, 0.000011690975, -0.00025246694, -130498.81, -71818.29, 0.0, 10.000044, 9.886196 
2.7850017e+3, 3.0392662e+2, -40755.684, -84749.766, 0.08614897, 0.000011670495, 0.00017386882, -40755.684, -40755.684, 0.0, 10.000044, 9.942152 
2.7850017e+3, 3.1387064e+2, -39677.797, -82510.94, -0.054534577, 0.000011650954, -0.000054677064, -39677.797, -39677.797, 0.0, 10.000044, 9.943663 
2.795002e+3, 1.2499381e+2, -1719889.6, -1724220.5, 0.049035497, 0.000012640169, 0.000022113143, -1719889.6, -4828.9077, 0.0, 10.000047, 9.994305 
2.795002e+3, 1.3498802e+2, -1622509.9, -1627431.3, -0.14214969, 0.00001254995, -0.00007030263, -1622509.9, -5392.5146, 0.0, 10.000047, 9.993523 
2.795002e+3, 1.4497556e+2, -1534408.4, -1548141.9, 0.020260066, 0.000012483242, 0.00007758342, -1534408.4, -15168.801, 0.0, 10.000047, 9.981843 
2.795002e+3, 1.5495741e+2, -1436681.3, -1450818.0, -0.15677907, 0.000012437623, -0.00005447846, -1436681.3, -15263.934, 0.0, 10.000046, 9.981311 
2.795002e+3, 1.6493265e+2, -1348630.8, -1371948.9, 0.024329158, 0.00001238811, 0.00004834955, -1348630.8, -24970.691, 0.0, 10.000046, 9.969226 
2.795002e+3, 1.749019e+2, -1250673.3, -1274307.0, -0.16027652, 0.000012334629, -0.00007159129, -1250673.3, -24712.002, 0.0, 10.000046, 9.968813 
2.795002e+3, 1.8486455e+2, -1162592.5, -1195716.9, 0.018032564, 0.00001229024, 0.00006873479, -1162592.5, -34265.04, 0.0, 10.000046, 9.956373 
2.795002e+3, 1.9482096e+2, -1064443.3, -1097830.1, -0.15952918, 0.00001225535, -0.00005563959, -1064443.3, -33688.652, 0.0, 10.000046, 9.956031 
2.795002e+3, 2.047707e+2, -976279.6, -1019432.25, 0.0140498085, 0.000012214649, 0.000069817164, -976279.6, -43032.47, 0.0, 10.000046, 9.943269 
2.795002e+3, 2.14714e+2, -877993.06, -921407.44, -0.15930295, 0.000012167651, -0.00012504625, -877993.06, -42190.313, 0.0, 10.000045, 9.942928 
2.795002e+3, 2.2465062e+2, -789707.2, -843142.56, 0.018645491, 0.000012128374, 0.00012259991, -789707.2, -51283.273, 0.0, 10.000045, 9.929887 
2.795002e+3, 2.3458056e+2, -691274.1, -744964.44, -0.1520151, 0.000012097831, -0.00008727561, -691274.1, -50163.72, 0.0, 10.000045, 9.929555 
2.795002e+3, 2.4450357e+2, -602950.3, -667017.0, 0.02267107, 0.000012067433, 0.0000761168, -602950.3, -59085.383, 0.0, 10.000045, 9.916115 
2.795002e+3, 2.544198e+2, -504198.06, -568341.8, -0.1412763, 0.000012037191, -0.000105412095, -504198.06, -57512.24, 0.0, 10.000045, 9.916015 
2.795002e+3, 2.6432896e+2, -415962.97, -490986.66, 0.035749596, 0.000012007922, 0.00014180693, -415962.97, -66386.8, 0.0, 10.000045, 9.901943 
2.795002e+3, 2.7423143e+2, -316678.1, -391373.84, -0.11970693, 0.000011979882, -0.00020237982, -316678.1, -64146.4, 0.0, 10.000045, 9.902364 
2.795002e+3, 2.8412575e+2, -230204.95, -318080.3, 0.0504303, 0.000011956612, 0.00022999753, -230204.95, -74637.086, 0.0, 10.000045, 9.885418 
2.795002e+3, 2.940122e+2, -130499.15, -217764.34, -0.099027194, 0.000011939854, -0.00025245472, -130499.15, -71818.65, 0.0, 10.000044, 9.886196 
2.795002e+3, 3.0392662e+2, -40756.02, -84750.47, 0.064860255, 0.000011918389, 0.00017387983, -40756.02, -40756.02, 0.0, 10.000044, 9.942151 
2.795002e+3, 3.1387064e+2, -39678.137, -82511.64, -0.07522538, 0.000011889895, -0.000054664277, -39678.137, -39678.137, 0.0, 10.000044, 9.943663 
2.805002e+3, 1.24993816e+2, -1719886.6, -1724219.4, 0.1430627, 0.000012899824, 0.00002221253, -1719886.6, -4825.9634, 0.0, 10.000049, 9.994304 
2.805002e+3, 1.3498804e+2, -1622506.9, -1627430.3, -0.051570524, 0.000012812267, -0.00007038087, -1622506.9, -5389.603, 0.0, 10.000049, 9.993522 
2.805002e+3, 1.4497557e+2, -1534405.4, -1548140.9, 0.11323542, 0.0000127459425, 0.00007774257, -1534405.4, -15165.899, 0.0, 10.000049, 9.981842 
2.805002e+3, 1.5495743e+2, -1436678.3, -1450817.0, -0.07937312, 0.000012698363, -0.000054426688, -1436678.3, -15261.059, 0.0, 10.000049, 9.981311 
2.805002e+3, 1.6493265e+2, -1348627.9, -1371947.9, 0.09901295, 0.000012646039, 0.000048363116, -1348627.9, -24967.836, 0.0, 10.000048, 9.969226 
2.805002e+3, 1.7490192e+2, -1250670.4, -1274306.1, -0.09024613, 0.000012588876, -0.000071545255, -1250670.4, -24709.156, 0.0, 10.000048, 9.968812 
2.805002e+3, 1.8486455e+2, -1162589.6, -1195715.9, 0.08677568, 0.000012544438, 0.00006878903, -1162589.6, -34262.207, 0.0, 10.000048, 9.956373 
2.805002e+3, 1.9482097e+2, -1064440.4, -1097829.1, -0.09776839, 0.000012513298, -0.000055602555, -1064440.4, -33685.86, 0.0, 10.000048, 9.95603 
2.805002e+3, 2.047707e+2, -976276.75, -1019431.3, 0.07798618, 0.000012472613, 0.000069849164, -976276.75, -43029.695, 0.0, 10.000048, 9.943269 
2.805002e+3, 2.1471402e+2, -877990.2, -921406.56, -0.10529393, 0.000012421584, -0.0001250061, -877990.2, -42187.543, 0.0, 10.000048, 9.942927 
2.805002e+3, 2.2465062e+2, -789704.4, -843141.7, 0.07145771, 0.000012380206, 0.00012263977, -789704.4, -51280.51, 0.0, 10.000047, 9.929886 
2.805002e+3, 2.3458058e+2, -691271.3, -744963.56, -0.10305033, 0.0000123497475, -0.00008724559, -691271.3, -50160.99, 0.0, 10.000047, 9.929555 
2.805002e+3, 2.4450359e+2, -602947.56, -667016.1, 0.07216517, 0.0000123190885, 0.00007614214, -602947.56, -59082.67, 0.0, 10.000047, 9.916114 
2.805002e+3, 2.544198e+2, -504195.34, -568341.0, -0.10166236, 0.000012288173, -0.000105385254, -504195.34, -57509.535, 0.0, 10.000047, 9.916015 
2.805002e+3, 2.64329e+2, -415960.22, -490985.84, 0.07386983, 0.000012258714, 0.00014183426, -415960.22, -66384.1, 0.0, 10.000047, 9.901943 
2.805002e+3, 2.7423146e+2, -316675.38, -391373.03, -0.091040835, 0.000012231099, -0.00020235332, -316675.38, -64143.727, 0.0, 10.000047, 9.902363 
2.805002e+3, 2.8412575e+2, -230202.27, -318079.53, 0.07760098, 0.000012207897, 0.00023002131, -230202.27, -74634.43, 0.0, 10.000047, 9.885417 
2.805002e+3, 2.9401222e+2, -130496.484, -217763.58, -0.07730399, 0.0000121907115, -0.0002524363, -130496.484, -71816.016, 0.0, 10.000047, 9.886195 
2.805002e+3, 3.0392662e+2, -40753.395, -84749.75, 0.08494246, 0.000012167758, 0.00017389517, -40753.395, -40753.395, 0.0, 10.000047, 9.942151 
2.805002e+3, 3.1387064e+2, -39675.496, -82510.914, -0.06702911, 0.000012136203, -0.00005464866, -39675.496, -39675.496, 0.0, 10.000046, 9.943662 
2.8150022e+3, 1.2499383e+2, -1719887.1, -1724220.3, 0.049963214, 0.000013184966, 0.000022318389, -1719887.1, -4826.5215, 0.0, 10.000049, 9.994304 
2.815002e+3, 1.3498805e+2, -1622507.3, -1627431.0, -0.14468834, 0.000013067276, -0.00007046219, -1622507.3, -5390.1514, 0.0, 10.000049, 9.993521 
2.815002e+3, 1.4497557e+2, -1534405.9, -1548141.8, 0.032271773, 0.00001299421, 0.000077906036, -1534405.9, -15166.4375, 0.0, 10.000049, 9.981842 
2.815002e+3, 1.5495744e+2, -1436678.8, -1450817.9, -0.16031957, 0.0000129633745, -0.00005436308, -1436678.8, -15261.586, 0.0, 10.000049, 9.98131 
2.815002e+3, 1.6493267e+2, -1348628.3, -1371948.6, 0.027120363, 0.000012917301, 0.00004838508, -1348628.3, -24968.35, 0.0, 10.000048, 9.969225 
2.815002e+3, 1.7490193e+2, -1250670.8, -1274306.9, -0.16209327, 0.000012855676, -0.000071505434, -1250670.8, -24709.66, 0.0, 10.000048, 9.968812 
2.815002e+3, 1.8486457e+2, -1162590.0, -1195716.6, 0.015293616, 0.000012805387, 0.00006883845, -1162590.0, -34262.695, 0.0, 10.000048, 9.956372 
2.815002e+3, 1.9482097e+2, -1064440.9, -1097829.9, -0.16924906, 0.000012766951, -0.0000555522, -1064440.9, -33686.34, 0.0, 10.000048, 9.95603 
2.815002e+3, 2.0477071e+2, -976277.2, -1019432.1, 0.02169321, 0.0000127271, 0.0000698921, -976277.2, -43030.17, 0.0, 10.000048, 9.943268 
2.815002e+3, 2.1471402e+2, -877990.6, -921407.3, -0.1612757, 0.000012685709, -0.00012497965, -877990.6, -42188.004, 0.0, 10.000048, 9.942927 
2.815002e+3, 2.2465064e+2, -789704.75, -843142.44, 0.01771391, 0.000012645209, 0.00012266304, -789704.75, -51280.957, 0.0, 10.000047, 9.929886 
2.815002e+3, 2.3458058e+2, -691271.75, -744964.4, -0.1567244, 0.000012605709, -0.000087210465, -691271.75, -50161.426, 0.0, 10.000047, 9.929554 
2.815002e+3, 2.4450359e+2, -602947.94, -667016.9, 0.028105097, 0.000012570751, 0.00007617568, -602947.94, -59083.105, 0.0, 10.000047, 9.916114 
2.815002e+3, 2.544198e+2, -504195.72, -568341.75, -0.14526273, 0.000012541208, -0.00010536937, -504195.72, -57509.96, 0.0, 10.000047, 9.916014 
2.815002e+3, 2.64329e+2, -415960.6, -490986.6, 0.03712233, 0.000012513928, 0.00014184661, -415960.6, -66384.516, 0.0, 10.000047, 9.901942 
2.815002e+3, 2.7423146e+2, -316675.75, -391373.78, -0.12733288, 0.000012489502, -0.00020232647, -316675.75, -64144.13, 0.0, 10.000047, 9.902363 
2.815002e+3, 2.8412575e+2, -230202.63, -318080.25, 0.048543498, 0.0000124659455, 0.0002300534, -230202.63, -74634.82, 0.0, 10.000047, 9.885417 
2.815002e+3, 2.9401222e+2, -130496.836, -217764.3, -0.10571338, 0.000012443551, -0.00025241167, -130496.836, -71816.39, 0.0, 10.000047, 9.886195 
2.815002e+3, 3.0392662e+2, -40753.754, -84750.5, 0.06661476, 0.000012418603, 0.00017391478, -40753.754, -40753.754, 0.0, 10.000047, 9.94215 
2.815002e+3, 3.1387064e+2, -39675.86, -82511.67, -0.08417648, 0.000012389872, -0.000054630207, -39675.86, -39675.86, 0.0, 10.000046, 9.943662 
2.825002e+3, 1.2499384e+2, -1719883.9, -1724219.3, 0.1422418, 0.000013468012, 0.000022426868, -1719883.9, -4823.4897, 0.0, 10.0000515, 9.994303 
2.825002e+3, 1.3498807e+2, -1622504.1, -1627430.0, -0.062259756, 0.000013334037, -0.00007053952, -1622504.1, -5387.102, 0.0, 10.000051, 9.993521 
2.825002e+3, 1.4497559e+2, -1534402.6, -1548140.6, 0.11225483, 0.000013255009, 0.00007807577, -1534402.6, -15163.389, 0.0, 10.000051, 9.981841 
2.825002e+3, 1.5495744e+2, -1436675.6, -1450816.8, -0.087400444, 0.000013228547, -0.00005430719, -1436675.6, -15258.575, 0.0, 10.000051, 9.98131 
2.825002e+3, 1.6493268e+2, -1348625.3, -1371947.6, 0.1015826, 0.00001318694, 0.000048399015, -1348625.3, -24965.37, 0.0, 10.000051, 9.969225 
2.825002e+3, 1.7490193e+2, -1250667.8, -1274305.9, -0.09379298, 0.000013129878, -0.00007146002, -1250667.8, -24706.729, 0.0, 10.000051, 9.968811 
2.825002e+3, 1.8486457e+2, -1162587.0, -1195715.8, 0.083972275, 0.000013076303, 0.000068894835, -1162587.0, -34259.773, 0.0, 10.00005, 9.956372 
2.825002e+3, 1.9482099e+2, -1064437.9, -1097829.0, -0.11057816, 0.000013026362, -0.00005550632, -1064437.9, -33683.4, 0.0, 10.00005, 9.956029 
2.825002e+3, 2.0477071e+2, -976274.2, -1019431.1, 0.07845692, 0.000012984538, 0.0000699311, -976274.2, -43027.246, 0.0, 10.00005, 9.943268 
2.825002e+3, 2.1471402e+2, -877987.7, -921406.4, -0.11065564, 0.000012951502, -0.00012494357, -877987.7, -42185.137, 0.0, 10.00005, 9.942926 
2.825002e+3, 2.2465064e+2, -789701.9, -843141.5, 0.06944683, 0.000012913226, 0.00012269875, -789701.9, -51278.11, 0.0, 10.00005, 9.929885 
2.825002e+3, 2.3458058e+2, -691268.8, -744963.44, -0.11555407, 0.000012869011, -0.000087172215, -691268.8, -50158.58, 0.0, 10.000049, 9.929554 
2.825002e+3, 2.4450359e+2, -602945.06, -667016.0, 0.06933909, 0.000012830959, 0.00007621113, -602945.06, -59080.266, 0.0, 10.000049, 9.916113 
2.825002e+3, 2.5441983e+2, -504192.84, -568340.9, -0.105990484, 0.000012800266, -0.00010534309, -504192.84, -57507.145, 0.0, 10.000049, 9.916014 
2.825002e+3, 2.64329e+2, -415957.75, -490985.75, 0.078145124, 0.000012773061, 0.00014186853, -415957.75, -66381.71, 0.0, 10.000049, 9.901942 
2.825002e+3, 2.7423146e+2, -316672.94, -391372.97, -0.09598889, 0.000012750267, -0.0002023028, -316672.94, -64141.35, 0.0, 10.000049, 9.902362 
2.825002e+3, 2.8412575e+2, -230199.83, -318079.44, 0.07919648, 0.000012726572, 0.00023007784, -230199.83, -74632.05, 0.0, 10.000049, 9.885416 
2.825002e+3, 2.9401222e+2, -130494.05, -217763.5, -0.08240018, 0.00001270161, -0.00025238786, -130494.05, -71813.625, 0.0, 10.000049, 9.886194 
2.825002e+3, 3.0392662e+2, -40751.008, -84749.74, 0.091315545, 0.000012675856, 0.00017393478, -40751.008, -40751.008, 0.0, 10.000049, 9.94215 
2.825002e+3, 3.1387064e+2, -39673.133, -82510.93, -0.06182545, 0.000012648955, -0.00005461882, -39673.133, -39673.133, 0.0, 10.000049, 9.943661 
2.8350022e+3, 1.2499385e+2, -1719884.4, -1724220.1, 0.05589306, 0.00001374897, 0.000022538305, -1719884.4, -4824.075, 0.0, 10.0000515, 9.994303 
2.8350022e+3, 1.3498807e+2, -1622504.6, -1627430.9, -0.14862432, 0.000013612543, -0.00007061286, -1622504.6, -5387.6772, 0.0, 10.000051, 9.99352 
2.8350022e+3, 1.449756e+2, -1534403.1, -1548141.5, 0.025025308, 0.000013528333, 0.000078251775, -1534403.1, -15163.947, 0.0, 10.000051, 9.981841 
2.8350022e+3, 1.5495746e+2, -1436676.1, -1450817.6, -0.17463198, 0.000013493881, -0.000054259002, -1436676.1, -15259.122, 0.0, 10.000051, 9.981309 
2.8350022e+3, 1.6493268e+2, -1348625.6, -1371948.5, 0.020952307, 0.000013454958, 0.000048404927, -1348625.6, -24965.9, 0.0, 10.000051, 9.969224 
2.8350022e+3, 1.7490195e+2, -1250668.3, -1274306.8, -0.17439209, 0.0000134114825, -0.00007140902, -1250668.3, -24707.248, 0.0, 10.000051, 9.96881 
2.8350022e+3, 1.8486458e+2, -1162587.5, -1195716.5, 0.019283164, 0.000013357177, 0.00006895817, -1162587.5, -34260.285, 0.0, 10.00005, 9.956371 
2.8350022e+3, 1.9482099e+2, -1064438.3, -1097829.8, -0.17508572, 0.0000132915275, -0.00005546492, -1064438.3, -33683.902, 0.0, 10.00005, 9.956029 
2.8350022e+3, 2.0477074e+2, -976274.56, -1019431.94, 0.0108671235, 0.000013244931, 0.00006996618, -976274.56, -43027.734, 0.0, 10.00005, 9.943267 
2.8350022e+3, 2.1471404e+2, -877988.06, -921407.2, -0.17831132, 0.0000132189625, -0.0001248979, -877988.06, -42185.617, 0.0, 10.00005, 9.942926 
2.8350022e+3, 2.2465065e+2, -789702.25, -843142.3, 0.018057069, 0.000013184257, 0.00012274689, -789702.25, -51278.58, 0.0, 10.00005, 9.929884 
2.8350022e+3, 2.3458059e+2, -691269.25, -744964.25, -0.16641532, 0.000013139648, -0.00008713086, -691269.25, -50159.04, 0.0, 10.000049, 9.929553 
2.835002e+3, 2.445036e+2, -602945.44, -667016.8, 0.022435643, 0.000013099709, 0.00007624849, -602945.44, -59080.707, 0.0, 10.000049, 9.916113 
2.835002e+3, 2.5441983e+2, -504193.22, -568341.6, -0.15270787, 0.000013065345, -0.00010530642, -504193.22, -57507.58, 0.0, 10.000049, 9.916013 
2.835002e+3, 2.64329e+2, -415958.16, -490986.53, 0.03909195, 0.000013036115, 0.00014189999, -415958.16, -66382.15, 0.0, 10.000049, 9.901941 
2.835002e+3, 2.7423146e+2, -316673.3, -391373.75, -0.13453117, 0.000013013394, -0.00020228232, -316673.3, -64141.773, 0.0, 10.000049, 9.902362 
2.835002e+3, 2.8412575e+2, -230200.2, -318080.22, 0.05018238, 0.000012989776, 0.00023009462, -230200.2, -74632.45, 0.0, 10.000049, 9.885416 
2.835002e+3, 2.9401222e+2, -130494.414, -217764.27, -0.11056048, 0.000012964888, -0.0002523648, -130494.414, -71814.02, 0.0, 10.000049, 9.886194 
2.835002e+3, 3.0392662e+2, -40751.375, -84750.51, 0.069193505, 0.000012939515, 0.00017395514, -40751.375, -40751.375, 0.0, 10.000049, 9.942149 
2.835002e+3, 3.1387064e+2, -39673.5, -82511.695, -0.08324356, 0.00001291345, -0.000054614487, -39673.5, -39673.5, 0.0, 10.000049, 9.943661 
2.845002e+3, 1.2499386e+2, -1719881.1, -1724218.9, 0.15304473, 0.000014027163, 0.00002264613, -1719881.1, -4820.869, 0.0, 10.000053, 9.994302 
2.845002e+3, 1.3498808e+2, -1622501.4, -1627429.8, -0.059795085, 0.000013896354, -0.00007068433, -1622501.4, -5384.5254, 0.0, 10.000053, 9.99352 
2.845002e+3, 1.449756e+2, -1534399.9, -1548140.4, 0.11264671, 0.000013812933, 0.00007843696, -1534399.9, -15160.812, 0.0, 10.000053, 9.98184 
2.845002e+3, 1.5495746e+2, -1436672.9, -1450816.5, -0.08901264, 0.00001377435, -0.00005421004, -1436672.9, -15256.001, 0.0, 10.000052, 9.981309 
2.845002e+3, 1.649327e+2, -1348622.5, -1371947.4, 0.10604207, 0.000013731519, 0.000048408325, -1348622.5, -24962.795, 0.0, 10.000052, 9.969224 
2.845002e+3, 1.7490195e+2, -1250665.0, -1274305.6, -0.103349164, 0.000013684366, -0.000071358576, -1250665.0, -24704.156, 0.0, 10.000052, 9.96881 
2.845002e+3, 1.8486458e+2, -1162584.3, -1195715.5, 0.09149102, 0.000013631376, 0.00006902322, -1162584.3, -34257.215, 0.0, 10.000052, 9.956371 
2.845002e+3, 1.94821e+2, -1064435.1, -1097828.8, -0.10855529, 0.000013572264, -0.000055419252, -1064435.1, -33680.887, 0.0, 10.000052, 9.956028 
2.845002e+3, 2.0477074e+2, -976271.5, -1019431.0, 0.07654131, 0.000013524453, 0.000070002556, -976271.5, -43024.73, 0.0, 10.0000515, 9.943267 
2.845002e+3, 2.1471404e+2, -877985.0, -921406.25, -0.11904649, 0.000013488876, -0.00012485991, -877985.0, -42182.6, 0.0, 10.0000515, 9.942925 
2.845002e+3, 2.2465065e+2, -789699.2, -843141.4, 0.07889311, 0.000013451446, 0.00012278385, -789699.2, -51275.574, 0.0, 10.0000515, 9.929884 
2.845002e+3, 2.3458059e+2, -691266.2, -744963.3, -0.11477889, 0.000013411904, -0.00008709793, -691266.2, -50156.08, 0.0, 10.0000515, 9.929553 
2.845002e+3, 2.445036e+2, -602942.5, -667015.9, 0.07147424, 0.000013374116, 0.0000762804, -602942.5, -59077.77, 0.0, 10.0000515, 9.916112 
2.845002e+3, 2.5441983e+2, -504190.25, -568340.75, -0.11520046, 0.000013338416, -0.000105271945, -504190.25, -57504.652, 0.0, 10.0000515, 9.916013 
2.845002e+3, 2.64329e+2, -415955.2, -490985.66, 0.076859154, 0.000013307123, 0.00014193202, -415955.2, -66379.234, 0.0, 10.000051, 9.901941 
2.845002e+3, 2.7423146e+2, -316670.38, -391372.88, -0.09952792, 0.00001328142, -0.00020225912, -316670.38, -64138.87, 0.0, 10.000051, 9.902361 
2.845002e+3, 2.8412575e+2, -230197.27, -318079.34, 0.08664231, 0.000013256446, 0.00023011329, -230197.27, -74629.555, 0.0, 10.000051, 9.885415 
2.845002e+3, 2.9401222e+2, -130491.516, -217763.42, -0.084262155, 0.0000132324285, -0.00025234476, -130491.516, -71811.16, 0.0, 10.000051, 9.886193 
2.845002e+3, 3.0392662e+2, -40748.523, -84749.73, 0.09168888, 0.000013207739, 0.00017397449, -40748.523, -40748.523, 0.0, 10.000051, 9.942148 
2.845002e+3, 3.1387067e+2, -39670.65, -82510.914, -0.07138081, 0.000013182062, -0.000054599004, -39670.65, -39670.65, 0.0, 10.000051, 9.94366 
2.8550023e+3, 1.24993876e+2, -1719881.5, -1724219.9, 0.056791678, 0.000014302597, 0.000022750737, -1719881.5, -4821.4785, 0.0, 10.000053, 9.994302 
2.8550023e+3, 1.349881e+2, -1622501.9, -1627430.6, -0.15606666, 0.00001418547, -0.000070753915, -1622501.9, -5385.1245, 0.0, 10.000053, 9.993519 
2.8550023e+3, 1.4497562e+2, -1534400.4, -1548141.3, 0.024374712, 0.000014108801, 0.00007863135, -1534400.4, -15161.379, 0.0, 10.000053, 9.981839 
2.8550023e+3, 1.5495747e+2, -1436673.3, -1450817.4, -0.17727524, 0.000014069943, -0.0000541603, -1436673.3, -15256.558, 0.0, 10.000052, 9.981308 
2.8550023e+3, 1.649327e+2, -1348622.9, -1371948.3, 0.02527378, 0.0000140166185, 0.00004840921, -1348622.9, -24963.36, 0.0, 10.000052, 9.969223 
2.8550023e+3, 1.7490196e+2, -1250665.5, -1274306.5, -0.1840797, 0.000013948543, -0.000071308685, -1250665.5, -24704.71, 0.0, 10.000052, 9.968809 
2.8550023e+3, 1.848646e+2, -1162584.8, -1195716.4, 0.01655356, 0.000013898909, 0.00006908996, -1162584.8, -34257.742, 0.0, 10.000052, 9.95637 
2.8550023e+3, 1.94821e+2, -1064435.6, -1097829.6, -0.18342885, 0.000013868557, -0.00005536932, -1064435.6, -33681.406, 0.0, 10.000052, 9.956028 
2.8550023e+3, 2.0477076e+2, -976271.94, -1019431.8, 0.014643635, 0.00001382309, 0.00007004021, -976271.94, -43025.234, 0.0, 10.0000515, 9.943266 
2.8550023e+3, 2.1471405e+2, -877985.44, -921407.06, -0.1806803, 0.000013761243, -0.0001248296, -877985.44, -42183.098, 0.0, 10.0000515, 9.9429245 
2.8550023e+3, 2.2465065e+2, -789699.6, -843142.2, 0.019346489, 0.000013714797, 0.00012280965, -789699.6, -51276.066, 0.0, 10.0000515, 9.929883 
2.8550023e+3, 2.345806e+2, -691266.6, -744964.2, -0.17425954, 0.000013685777, -0.00008707341, -691266.6, -50156.563, 0.0, 10.0000515, 9.929552 
2.8550023e+3, 2.445036e+2, -602942.9, -667016.7, 0.02347935, 0.000013654179, 0.00007630686, -602942.9, -59078.24, 0.0, 10.0000515, 9.916112 
2.8550023e+3, 2.5441983e+2, -504190.66, -568341.56, -0.16264768, 0.000013619474, -0.00010523966, -504190.66, -57505.113, 0.0, 10.0000515, 9.916012 
2.8550023e+3, 2.64329e+2, -415955.6, -490986.47, 0.038058423, 0.000013586079, 0.00014196461, -415955.6, -66379.68, 0.0, 10.000051, 9.90194 
2.8550023e+3, 2.7423146e+2, -316670.78, -391373.7, -0.13775377, 0.000013554346, -0.00020223322, -316670.78, -64139.305, 0.0, 10.000051, 9.902361 
2.8550023e+3, 2.8412575e+2, -230197.66, -318080.16, 0.05426144, 0.000013526583, 0.00023013385, -230197.66, -74629.984, 0.0, 10.000051, 9.885415 
2.8550023e+3, 2.9401222e+2, -130491.91, -217764.23, -0.11611961, 0.000013504232, -0.00025232765, -130491.91, -71811.57, 0.0, 10.000051, 9.886193 
2.8550023e+3, 3.0392665e+2, -40748.914, -84750.54, 0.0695908, 0.00001348053, 0.00017399286, -40748.914, -40748.914, 0.0, 10.000051, 9.942148 
2.8550023e+3, 3.1387067e+2, -39671.04, -82511.72, -0.09233759, 0.000013454791, -0.000054572385, -39671.04, -39671.04, 0.0, 10.000051, 9.94366 
2.8650025e+3, 1.2499388e+2, -1719878.1, -1724218.6, 0.16025847, 0.000014591133, 0.000022864864, -1719878.1, -4818.141, 0.0, 10.000056, 9.994301 
2.8650025e+3, 1.3498811e+2, -1622498.4, -1627429.5, -0.0637162, 0.000014478151, -0.00007084386, -1622498.4, -5381.8374, 0.0, 10.000055, 9.993519 
2.8650022e+3, 1.4497563e+2, -1534397.0, -1548140.1, 0.11621113, 0.000014403053, 0.000078811776, -1534397.0, -15158.105, 0.0, 10.000055, 9.981839 
2.8650022e+3, 1.5495749e+2, -1436670.0, -1450816.3, -0.0980482, 0.000014363121, -0.000054099648, -1436670.0, -15253.308, 0.0, 10.000055, 9.981307 
2.8650022e+3, 1.6493271e+2, -1348619.6, -1371947.3, 0.10525625, 0.000014306348, 0.000048425365, -1348619.6, -24960.135, 0.0, 10.000055, 9.969223 
2.8650022e+3, 1.7490198e+2, -1250662.1, -1274305.5, -0.107534595, 0.000014232401, -0.000071260125, -1250662.1, -24701.502, 0.0, 10.000054, 9.968809 
2.8650022e+3, 1.8486461e+2, -1162581.5, -1195715.3, 0.09073978, 0.000014181641, 0.00006914813, -1162581.5, -34254.547, 0.0, 10.000054, 9.95637 
2.8650022e+3, 1.9482102e+2, -1064432.4, -1097828.6, -0.11967346, 0.000014155127, -0.0000553254, -1064432.4, -33678.234, 0.0, 10.000054, 9.956027 
2.8650022e+3, 2.0477076e+2, -976268.7, -1019430.8, 0.080335446, 0.0000141104865, 0.000070079645, -976268.7, -43022.09, 0.0, 10.000054, 9.943265 
2.8650022e+3, 2.1471405e+2, -877982.25, -921406.06, -0.12673333, 0.000014046204, -0.00012478407, -877982.25, -42179.984, 0.0, 10.000054, 9.9429245 
2.8650022e+3, 2.2465067e+2, -789696.44, -843141.25, 0.070780344, 0.000013997698, 0.00012285373, -789696.44, -51272.965, 0.0, 10.000053, 9.929883 
2.8650022e+3, 2.345806e+2, -691263.44, -744963.2, -0.12549557, 0.000013967044, -0.000087039334, -691263.44, -50153.465, 0.0, 10.000053, 9.929552 
2.8650022e+3, 2.4450362e+2, -602939.75, -667015.75, 0.07550517, 0.000013934482, 0.000076335746, -602939.75, -59075.16, 0.0, 10.000053, 9.916111 
2.8650022e+3, 2.5441983e+2, -504187.56, -568340.6, -0.119645715, 0.000013899613, -0.00010521021, -504187.56, -57502.063, 0.0, 10.000053, 9.916011 
2.8650022e+3, 2.64329e+2, -415952.5, -490985.56, 0.080358714, 0.000013866189, 0.00014199434, -415952.5, -66376.64, 0.0, 10.000053, 9.90194 
2.8650022e+3, 2.7423146e+2, -316667.72, -391372.78, -0.107027344, 0.000013834594, -0.00020220359, -316667.72, -64136.29, 0.0, 10.000053, 9.90236 
2.8650022e+3, 2.8412578e+2, -230194.61, -318079.28, 0.08358513, 0.000013806436, 0.00023016149, -230194.61, -74626.98, 0.0, 10.000053, 9.885414 
2.8650022e+3, 2.9401222e+2, -130488.875, -217763.36, -0.08950178, 0.0000137829575, -0.00025230454, -130488.875, -71808.58, 0.0, 10.000053, 9.886192 
2.8650022e+3, 3.0392665e+2, -40745.938, -84749.72, 0.099474266, 0.000013758158, 0.00017401083, -40745.938, -40745.938, 0.0, 10.000052, 9.942147 
2.8650022e+3, 3.1387067e+2, -39668.07, -82510.914, -0.06899947, 0.000013731373, -0.000054560413, -39668.07, -39668.07, 0.0, 10.000052, 9.943659 
2.8750023e+3, 1.249939e+2, -1719878.6, -1724219.6, 0.055118125, 0.000014892759, 0.00002298888, -1719878.6, -4818.7813, 0.0, 10.000056, 9.9943 
2.8750023e+3, 1.3498811e+2, -1622498.9, -1627430.5, -0.16887411, 0.000014774395, -0.00007095416, -1622498.9, -5382.4663, 0.0, 10.000055, 9.993518 
2.8750023e+3, 1.4497565e+2, -1534397.5, -1548141.0, 0.024915785, 0.000014695691, 0.000078978264, -1534397.5, -15158.706, 0.0, 10.000055, 9.981838 
2.8750023e+3, 1.549575e+2, -1436670.4, -1450817.1, -0.1893258, 0.00001465389, -0.00005402809, -1436670.4, -15253.896, 0.0, 10.000055, 9.981307 
2.8750023e+3, 1.6493273e+2, -1348620.0, -1371948.1, 0.02343151, 0.000014600708, 0.00004845678, -1348620.0, -24960.713, 0.0, 10.000055, 9.969222 
2.8750023e+3, 1.7490198e+2, -1250662.6, -1274306.4, -0.1893116, 0.000014535927, -0.000071212904, -1250662.6, -24702.068, 0.0, 10.000054, 9.968808 
2.8750023e+3, 1.8486461e+2, -1162581.9, -1195716.1, 0.0114900125, 0.000014479561, 0.00006919774, -1162581.9, -34255.1, 0.0, 10.000054, 9.956369 
2.8750023e+3, 1.9482102e+2, -1064432.8, -1097829.5, -0.19889739, 0.000014431985, -0.00005528748, -1064432.8, -33678.78, 0.0, 10.000054, 9.956026 
2.8750023e+3, 2.0477077e+2, -976269.2, -1019431.7, 0.01375261, 0.0000143866555, 0.00007012086, -976269.2, -43022.625, 0.0, 10.000054, 9.943265 
2.8750023e+3, 2.1471407e+2, -877982.7, -921406.94, -0.19305904, 0.00001434375, -0.00012472333, -877982.7, -42180.508, 0.0, 10.000054, 9.942924 
2.8750023e+3, 2.2465067e+2, -789696.9, -843142.06, 0.012168936, 0.000014300135, 0.00012291606, -789696.9, -51273.465, 0.0, 10.000053, 9.929882 
2.8750023e+3, 2.345806e+2, -691263.9, -744964.06, -0.18385981, 0.000014255699, -0.00008699571, -691263.9, -50153.957, 0.0, 10.000053, 9.929551 
2.8750023e+3, 2.4450362e+2, -602940.2, -667016.6, 0.0232957, 0.000014215027, 0.000076367054, -602940.2, -59075.65, 0.0, 10.000053, 9.916111 
2.8750023e+3, 2.5441983e+2, -504188.0, -568341.5, -0.17156295, 0.000014178837, -0.00010518357, -504188.0, -57502.54, 0.0, 10.000053, 9.916011 
2.8750023e+3, 2.6432902e+2, -415952.94, -490986.4, 0.039230023, 0.000014147453, 0.00014202122, -415952.94, -66377.11, 0.0, 10.000053, 9.901939 
2.8750023e+3, 2.7423146e+2, -316668.13, -391373.66, -0.14743707, 0.000014122163, -0.00020217025, -316668.13, -64136.75, 0.0, 10.000053, 9.902359 
2.8750023e+3, 2.8412578e+2, -230195.02, -318080.1, 0.05100495, 0.000014096001, 0.00023019621, -230195.02, -74627.414, 0.0, 10.000053, 9.885413 
2.8750023e+3, 2.9401222e+2, -130489.27, -217764.17, -0.1213819, 0.000014068603, -0.00025227544, -130489.27, -71809.0, 0.0, 10.000053, 9.886192 
2.8750023e+3, 3.0392665e+2, -40746.34, -84750.555, 0.07565016, 0.000014040623, 0.0001740284, -40746.34, -40746.34, 0.0, 10.000052, 9.942147 
2.8750023e+3, 3.1387067e+2, -39668.477, -82511.75, -0.09188191, 0.000014011807, -0.000054563076, -39668.477, -39668.477, 0.0, 10.000052, 9.943658 
2.8850025e+3, 1.2499391e+2, -1719875.0, -1724218.4, 0.16158836, 0.000015208251, 0.000023106748, -1719875.0, -4815.35, 0.0, 10.000058, 9.9943 
2.8850025e+3, 1.3498813e+2, -1622495.4, -1627429.3, -0.06430699, 0.000015071879, -0.00007104602, -1622495.4, -5379.0215, 0.0, 10.000058, 9.993517 
2.8850025e+3, 1.4497565e+2, -1534393.9, -1548139.9, 0.12889057, 0.0000149870675, 0.000079166275, -1534393.9, -15155.267, 0.0, 10.000058, 9.981838 
2.8850025e+3, 1.549575e+2, -1436666.9, -1450816.0, -0.10042633, 0.000014951091, -0.000053968884, -1436666.9, -15250.498, 0.0, 10.000058, 9.981306 
2.8850025e+3, 1.6493274e+2, -1348616.6, -1371947.0, 0.109789714, 0.000014902469, 0.000048470163, -1348616.6, -24957.344, 0.0, 10.000057, 9.969221 
2.8850025e+3, 1.7490199e+2, -1250659.3, -1274305.3, -0.111181736, 0.000014840954, -0.00007116057, -1250659.3, -24698.748, 0.0, 10.000057, 9.968808 
2.8850025e+3, 1.8486463e+2, -1162578.5, -1195715.1, 0.090246834, 0.000014780532, 0.00006926254, -1162578.5, -34251.797, 0.0, 10.000057, 9.956368 
2.8850025e+3, 1.9482103e+2, -1064429.4, -1097828.4, -0.12892768, 0.000014721234, -0.00005523793, -1064429.4, -33675.47, 0.0, 10.000057, 9.956026 
2.8850025e+3, 2.0477077e+2, -976265.8, -1019430.6, 0.08257252, 0.000014674354, 0.0000701616, -976265.8, -43019.33, 0.0, 10.000056, 9.943264 
2.8850025e+3, 2.1471407e+2, -877979.4, -921405.9, -0.13028784, 0.000014640913, -0.0001246844, -877979.4, -42177.258, 0.0, 10.000056, 9.942924 
2.8850025e+3, 2.2465068e+2, -789693.6, -843141.06, 0.076292135, 0.000014599743, 0.00012295516, -789693.6, -51270.242, 0.0, 10.000056, 9.929882 
2.8850025e+3, 2.3458062e+2, -691260.6, -744963.0, -0.13374677, 0.000014549804, -0.00008695418, -691260.6, -50150.754, 0.0, 10.000056, 9.92955 
2.8850025e+3, 2.4450363e+2, -602936.94, -667015.6, 0.07116109, 0.00001450512, 0.00007640674, -602936.94, -59072.457, 0.0, 10.000056, 9.91611 
2.8850025e+3, 2.5441986e+2, -504184.75, -568340.56, -0.12841856, 0.000014466708, -0.00010515087, -504184.75, -57499.355, 0.0, 10.000056, 9.91601 
2.8850025e+3, 2.6432902e+2, -415949.72, -490985.44, 0.084155835, 0.000014435672, 0.00014204887, -415949.72, -66373.94, 0.0, 10.000055, 9.901938 
2.8850022e+3, 2.742315e+2, -316664.97, -391372.72, -0.10982466, 0.00001441399, -0.00020214517, -316664.97, -64133.613, 0.0, 10.000055, 9.902359 
2.8850022e+3, 2.8412578e+2, -230191.86, -318079.2, 0.088622674, 0.000014388387, 0.00023022004, -230191.86, -74624.29, 0.0, 10.000055, 9.885413 
2.8850022e+3, 2.9401222e+2, -130486.13, -217763.28, -0.0959449, 0.00001435736, -0.00025225108, -130486.13, -71805.89, 0.0, 10.000055, 9.886191 
2.8850022e+3, 3.0392665e+2, -40743.246, -84749.7, 0.09858373, 0.00001432765, 0.00017405006, -40743.246, -40743.246, 0.0, 10.000055, 9.942146 
2.8850022e+3, 3.1387067e+2, -39665.383, -82510.91, -0.07463066, 0.000014299966, -0.000054548935, -39665.383, -39665.383, 0.0, 10.000055, 9.943658 
2.8950024e+3, 1.2499393e+2, -1719875.6, -1724219.4, 0.06254808, 0.0000155376, 0.000023219322, -1719875.6, -4816.0, 0.0, 10.000058, 9.994299 
2.8950024e+3, 1.3498814e+2, -1622495.9, -1627430.3, -0.16336446, 0.000015370604, -0.00007111948, -1622495.9, -5379.6606, 0.0, 10.000058, 9.993517 
2.8950024e+3, 1.4497566e+2, -1534394.4, -1548140.8, 0.03079605, 0.000015277188, 0.0000793758, -1534394.4, -15155.907, 0.0, 10.000058, 9.981837 
2.8950024e+3, 1.5495752e+2, -1436667.4, -1450817.0, -0.19851743, 0.000015254724, -0.000053922024, -1436667.4, -15251.125, 0.0, 10.000058, 9.981306 
2.8950024e+3, 1.6493274e+2, -1348617.1, -1371947.9, 0.019770196, 0.000015211626, 0.000048465532, -1348617.1, -24957.945, 0.0, 10.000057, 9.969221 
2.8950024e+3, 1.74902e+2, -1250659.8, -1274306.3, -0.20116146, 0.00001514748, -0.000071103124, -1250659.8, -24699.338, 0.0, 10.000057, 9.968807 
2.8950024e+3, 1.8486463e+2, -1162579.0, -1195716.0, 0.015359801, 0.000015084552, 0.00006934253, -1162579.0, -34252.375, 0.0, 10.000057, 9.956368 
2.8950024e+3, 1.9482104e+2, -1064429.9, -1097829.3, -0.20364387, 0.000015022866, -0.00005517676, -1064429.9, -33676.04, 0.0, 10.000057, 9.956025 
2.8950024e+3, 2.0477079e+2, -976266.25, -1019431.5, 0.0073769046, 0.000014973575, 0.000070201866, -976266.25, -43019.88, 0.0, 10.000056, 9.943264 
2.8950024e+3, 2.1471408e+2, -877979.8, -921406.8, -0.20549886, 0.000014937697, -0.00012466728, -877979.8, -42177.797, 0.0, 10.000056, 9.942923 
2.8950024e+3, 2.2465068e+2, -789694.06, -843141.94, 0.015430072, 0.000014896529, 0.00012297105, -789694.06, -51270.773, 0.0, 10.000056, 9.929881 
2.8950024e+3, 2.3458062e+2, -691261.06, -744963.94, -0.19414409, 0.000014849356, -0.000086914726, -691261.06, -50151.277, 0.0, 10.000056, 9.92955 
2.8950024e+3, 2.4450363e+2, -602937.4, -667016.5, 0.019847583, 0.0000148047575, 0.00007645478, -602937.4, -59072.957, 0.0, 10.000056, 9.916109 
2.8950024e+3, 2.5441986e+2, -504185.2, -568341.44, -0.1793003, 0.000014763225, -0.00010511212, -504185.2, -57499.848, 0.0, 10.000056, 9.91601 
2.8950024e+3, 2.6432902e+2, -415950.16, -490986.34, 0.038101893, 0.000014730842, 0.0001420773, -415950.16, -66374.43, 0.0, 10.000055, 9.901938 
2.8950024e+3, 2.742315e+2, -316665.38, -391373.6, -0.15555893, 0.000014710076, -0.00020212831, -316665.38, -64134.086, 0.0, 10.000055, 9.902358 
2.8950024e+3, 2.8412578e+2, -230192.28, -318080.06, 0.05461083, 0.000014683597, 0.00023023302, -230192.28, -74624.75, 0.0, 10.000055, 9.885412 
2.8950024e+3, 2.9401222e+2, -130486.555, -217764.14, -0.1289047, 0.0000146492275, -0.00025223143, -130486.555, -71806.34, 0.0, 10.000055, 9.88619 
2.8950024e+3, 3.0392665e+2, -40743.664, -84750.57, 0.074673064, 0.000014619239, 0.0001740758, -40743.664, -40743.664, 0.0, 10.000055, 9.942146 
2.8950024e+3, 3.1387067e+2, -39665.8, -82511.77, -0.09748492, 0.000014595846, -0.000054518012, -39665.8, -39665.8, 0.0, 10.000055, 9.943657 
2.9050028e+3, 1.24993935e+2, -1719871.9, -1724218.1, 0.17166601, 0.000015852416, 0.00002334098, -1719871.9, -4812.39, 0.0, 10.000061, 9.994298 
2.9050025e+3, 1.3498816e+2, -1622492.3, -1627429.0, -0.07470485, 0.000015685566, -0.00007119944, -1622492.3, -5376.0933, 0.0, 10.000061, 9.993516 
2.9050025e+3, 1.4497568e+2, -1534390.8, -1548139.5, 0.11484895, 0.00001559115, 0.000079583624, -1534390.8, -15152.353, 0.0, 10.000061, 9.981836 
2.9050025e+3, 1.5495753e+2, -1436663.8, -1450815.8, -0.109256566, 0.000015566478, -0.000053866966, -1436663.8, -15247.598, 0.0, 10.00006, 9.981305 
2.9050025e+3, 1.6493276e+2, -1348613.5, -1371946.8, 0.11348448, 0.000015520332, 0.00004846961, -1348613.5, -24954.44, 0.0, 10.00006, 9.96922 
2.9050025e+3, 1.74902e+2, -1250656.1, -1274305.0, -0.12383256, 0.000015452279, -0.00007104601, -1250656.1, -24695.85, 0.0, 10.00006, 9.968806 
2.9050025e+3, 1.8486464e+2, -1162575.5, -1195714.9, 0.091854066, 0.000015391031, 0.00006941501, -1162575.5, -34248.91, 0.0, 10.000059, 9.9563675 
2.9050025e+3, 1.9482104e+2, -1064426.4, -1097828.1, -0.13287337, 0.000015336866, -0.000055128345, -1064426.4, -33672.63, 0.0, 10.000059, 9.956024 
2.9050025e+3, 2.0477079e+2, -976262.75, -1019430.4, 0.078070424, 0.000015285788, 0.00007024016, -976262.75, -43016.49, 0.0, 10.000059, 9.943263 
2.9050025e+3, 2.1471408e+2, -877976.4, -921405.7, -0.14395218, 0.0000152380435, -0.00012462401, -877976.4, -42174.402, 0.0, 10.000059, 9.942922 
2.9050025e+3, 2.246507e+2, -789690.6, -843140.9, 0.07792087, 0.000015193433, 0.00012301444, -789690.6, -51267.387, 0.0, 10.000059, 9.92988 
2.9050025e+3, 2.3458064e+2, -691257.7, -744962.9, -0.13972948, 0.000015152356, -0.0000868767, -691257.7, -50147.926, 0.0, 10.000058, 9.929549 
2.9050025e+3, 2.4450363e+2, -602934.0, -667015.5, 0.07391924, 0.000015110579, 0.00007648978, -602934.0, -59069.63, 0.0, 10.000058, 9.916109 
2.9050025e+3, 2.5441986e+2, -504181.84, -568340.44, -0.1361583, 0.000015067945, -0.00010507736, -504181.84, -57496.555, 0.0, 10.000058, 9.916009 
2.9050025e+3, 2.6432902e+2, -415946.8, -490985.34, 0.0801241, 0.0000150334, 0.00014211019, -415946.8, -66371.15, 0.0, 10.000058, 9.9019375 
2.9050025e+3, 2.742315e+2, -316662.06, -391372.63, -0.12033144, 0.000015009132, -0.00020209939, -316662.06, -64130.816, 0.0, 10.000058, 9.902358 
2.9050025e+3, 2.8412578e+2, -230188.97, -318079.1, 0.092853434, 0.0000149812495, 0.0002302586, -230188.97, -74621.484, 0.0, 10.000058, 9.885412 
2.9050025e+3, 2.9401225e+2, -130483.27, -217763.2, -0.09662237, 0.000014948356, -0.00025220838, -130483.27, -71803.1, 0.0, 10.000058, 9.88619 
2.9050025e+3, 3.0392665e+2, -40740.438, -84749.69, 0.10517886, 0.000014918487, 0.00017409732, -40740.438, -40740.438, 0.0, 10.000058, 9.942145 
2.9050025e+3, 3.1387067e+2, -39662.586, -82510.9, -0.080699585, 0.000014893177, -0.000054496606, -39662.586, -39662.586, 0.0, 10.000058, 9.943657 
2.9150027e+3, 1.2499395e+2, -1719872.4, -1724219.1, 0.06584223, 0.000016152706, 0.000023472783, -1719872.4, -4813.0933, 0.0, 10.000061, 9.994298 
2.9150027e+3, 1.3498817e+2, -1622492.8, -1627430.0, -0.1805433, 0.00001601675, -0.000071285904, -1622492.8, -5376.7837, 0.0, 10.000061, 9.993515 
2.9150027e+3, 1.4497569e+2, -1534391.3, -1548140.5, 0.013301759, 0.00001592893, 0.000079789745, -1534391.3, -15152.985, 0.0, 10.000061, 9.981836 
2.9150027e+3, 1.5495755e+2, -1436664.3, -1450816.8, -0.21080391, 0.000015886348, -0.00005380372, -1436664.3, -15248.218, 0.0, 10.00006, 9.981304 
2.9150027e+3, 1.6493277e+2, -1348614.0, -1371947.8, 0.02288914, 0.000015828586, 0.000048482383, -1348614.0, -24955.082, 0.0, 10.00006, 9.969219 
2.9150027e+3, 1.7490202e+2, -1250656.6, -1274306.0, -0.21437281, 0.000015755357, -0.00007098923, -1250656.6, -24696.479, 0.0, 10.00006, 9.968806 
2.9150024e+3, 1.8486466e+2, -1162576.0, -1195715.8, 0.0063054287, 0.000015699974, 0.00006947998, -1162576.0, -34249.504, 0.0, 10.000059, 9.9563675 
2.9150024e+3, 1.9482106e+2, -1064426.9, -1097829.1, -0.2183697, 0.000015663225, -0.000055092674, -1064426.9, -33673.21, 0.0, 10.000059, 9.956024 
2.9150024e+3, 2.047708e+2, -976263.25, -1019431.4, 0.0071406723, 0.000015610982, 0.00007027647, -976263.25, -43017.063, 0.0, 10.000059, 9.943262 
2.9150024e+3, 2.147141e+2, -877976.8, -921406.6, -0.2145866, 0.000015541953, -0.00012455464, -877976.8, -42174.965, 0.0, 10.000059, 9.942922 
2.9150024e+3, 2.246507e+2, -789691.06, -843141.8, 0.011894519, 0.000015490457, 0.00012308531, -789691.06, -51267.94, 0.0, 10.000059, 9.92988 
2.9150024e+3, 2.3458064e+2, -691258.1, -744963.8, -0.20560814, 0.000015458805, -0.00008684009, -691258.1, -50148.47, 0.0, 10.000058, 9.929549 
2.9150024e+3, 2.4450365e+2, -602934.44, -667016.44, 0.01714853, 0.000015422582, 0.000076511744, -602934.44, -59070.16, 0.0, 10.000058, 9.916108 
2.9150024e+3, 2.5441986e+2, -504182.3, -568341.3, -0.19249578, 0.000015380865, -0.000105046565, -504182.3, -57497.07, 0.0, 10.000058, 9.916008 
2.9150024e+3, 2.6432902e+2, -415947.28, -490986.25, 0.035387047, 0.000015343343, 0.00014214756, -415947.28, -66371.66, 0.0, 10.000058, 9.901937 
2.9150024e+3, 2.742315e+2, -316662.53, -391373.53, -0.16429643, 0.000015311158, -0.00020205838, -316662.53, -64131.305, 0.0, 10.000058, 9.902357 
2.9150024e+3, 2.8412578e+2, -230189.4, -318080.0, 0.05691402, 0.000015281346, 0.00023029676, -230189.4, -74621.96, 0.0, 10.000058, 9.885411 
2.9150024e+3, 2.9401225e+2, -130483.7, -217764.1, -0.13184313, 0.000015254741, -0.0002521819, -130483.7, -71803.56, 0.0, 10.000058, 9.886189 
2.9150024e+3, 3.0392665e+2, -40740.883, -84750.6, 0.07880137, 0.0000152253915, 0.00017411463, -40740.883, -40740.883, 0.0, 10.000058, 9.942144 
2.9150024e+3, 3.1387067e+2, -39663.03, -82511.82, -0.10604186, 0.00001519196, -0.00005448471, -39663.03, -39663.03, 0.0, 10.000058, 9.943656 
2.9250026e+3, 1.24993965e+2, -1719868.5, -1724217.8, 0.17864195, 0.00001646912, 0.000023601548, -1719868.5, -4809.3135, 0.0, 10.000064, 9.994297 
2.9250026e+3, 1.3498819e+2, -1622488.9, -1627428.8, -0.06645098, 0.000016348702, -0.00007138602, -1622488.9, -5373.081, 0.0, 10.000064, 9.993515 
2.9250026e+3, 1.449757e+2, -1534387.4, -1548139.3, 0.1295157, 0.000016263055, 0.0000799941, -1534387.4, -15149.301, 0.0, 10.000063, 9.981835 
2.9250026e+3, 1.5495755e+2, -1436660.5, -1450815.4, -0.116821185, 0.000016209116, -0.00005373718, -1436660.5, -15244.543, 0.0, 10.000063, 9.981304 
2.9250026e+3, 1.6493277e+2, -1348610.3, -1371946.5, 0.11378574, 0.000016146578, 0.000048497604, -1348610.3, -24951.43, 0.0, 10.000063, 9.969219 
2.9250026e+3, 1.7490204e+2, -1250652.9, -1274304.8, -0.12438773, 0.000016075288, -0.000070936905, -1250652.9, -24692.861, 0.0, 10.000063, 9.968805 
2.9250026e+3, 1.8486466e+2, -1162572.3, -1195714.6, 0.09513064, 0.000016020189, 0.00006954436, -1162572.3, -34245.902, 0.0, 10.000062, 9.956367 
2.9250026e+3, 1.9482106e+2, -1064423.1, -1097828.0, -0.14359479, 0.00001598199, -0.000055042437, -1064423.1, -33669.637, 0.0, 10.000062, 9.956023 
2.9250026e+3, 2.047708e+2, -976259.6, -1019430.2, 0.083387695, 0.000015928297, 0.00007032183, -976259.6, -43013.508, 0.0, 10.000062, 9.943262 
2.9250026e+3, 2.147141e+2, -877973.25, -921405.5, -0.15048185, 0.000015857811, -0.00012450408, -877973.25, -42171.438, 0.0, 10.000062, 9.942921 
2.9250026e+3, 2.2465071e+2, -789687.5, -843140.7, 0.07142297, 0.000015805681, 0.00012313372, -789687.5, -51264.434, 0.0, 10.000061, 9.929879 
2.9250026e+3, 2.3458065e+2, -691254.56, -744962.75, -0.15087755, 0.000015774316, -0.000086802174, -691254.56, -50144.992, 0.0, 10.000061, 9.929548 
2.9250026e+3, 2.4450365e+2, -602930.94, -667015.3, 0.07700576, 0.000015737205, 0.00007654442, -602930.94, -59066.703, 0.0, 10.000061, 9.916108 
2.9250026e+3, 2.5441986e+2, -504178.78, -568340.25, -0.14131221, 0.000015693195, -0.00010501285, -504178.78, -57493.625, 0.0, 10.000061, 9.916008 
2.9250026e+3, 2.6432902e+2, -415943.78, -490985.22, 0.084945455, 0.000015654106, 0.00014218119, -415943.78, -66368.22, 0.0, 10.000061, 9.901937 
2.9250026e+3, 2.742315e+2, -316659.06, -391372.53, -0.12829612, 0.00001562128, -0.00020202629, -316659.06, -64127.902, 0.0, 10.000061, 9.902356 
2.9250026e+3, 2.8412578e+2, -230185.98, -318079.0, 0.0891752, 0.000015591548, 0.0002303274, -230185.98, -74618.57, 0.0, 10.00006, 9.88541 
2.9250026e+3, 2.9401225e+2, -130480.305, -217763.13, -0.10844403, 0.000015566002, -0.00025215262, -130480.305, -71800.195, 0.0, 10.00006, 9.886189 
2.9250026e+3, 3.0392665e+2, -40737.535, -84749.69, 0.10578296, 0.0000155362, 0.00017413824, -40737.535, -40737.535, 0.0, 10.00006, 9.942144 
2.9250026e+3, 3.1387067e+2, -39659.684, -82510.9, -0.08046652, 0.000015500062, -0.000054473152, -39659.684, -39659.684, 0.0, 10.00006, 9.943655 
2.9350027e+3, 1.2499398e+2, -1719869.0, -1724218.9, 0.058106057, 0.000016801632, 0.000023726727, -1719869.0, -4810.019, 0.0, 10.000064, 9.994296 
2.9350027e+3, 1.3498819e+2, -1622489.5, -1627429.8, -0.18700524, 0.000016681424, -0.00007149975, -1622489.5, -5373.7744, 0.0, 10.000064, 9.993514 
2.9350027e+3, 1.4497572e+2, -1534388.0, -1548140.3, 0.028799154, 0.000016593527, 0.000080196696, -1534388.0, -15149.99, 0.0, 10.000063, 9.981834 
2.9350027e+3, 1.5495756e+2, -1436661.0, -1450816.5, -0.2175107, 0.000016534781, -0.000053667354, -1436661.0, -15245.218, 0.0, 10.000063, 9.981303 
2.9350027e+3, 1.6493279e+2, -1348610.8, -1371947.5, 0.018522764, 0.000016474296, 0.000048515278, -1348610.8, -24952.078, 0.0, 10.000063, 9.969218 
2.9350027e+3, 1.7490204e+2, -1250653.5, -1274305.9, -0.2196307, 0.000016412061, -0.00007088904, -1250653.5, -24693.498, 0.0, 10.000063, 9.968804 
2.9350027e+3, 1.8486467e+2, -1162572.8, -1195715.6, 0.0064414623, 0.000016351667, 0.000069608155, -1162572.8, -34246.535, 0.0, 10.000062, 9.956366 
2.9350027e+3, 1.9482107e+2, -1064423.8, -1097829.0, -0.2322117, 0.000016293176, -0.000054977656, -1064423.8, -33670.258, 0.0, 10.000062, 9.956023 
2.9350027e+3, 2.0477082e+2, -976260.1, -1019431.2, 0.008988795, 0.000016237742, 0.00007037625, -976260.1, -43014.113, 0.0, 10.000062, 9.943261 
2.9350027e+3, 2.1471411e+2, -877973.75, -921406.5, -0.22458895, 0.000016185613, -0.00012447231, -877973.75, -42172.03, 0.0, 10.000062, 9.942921 
2.9350027e+3, 2.2465071e+2, -789688.0, -843141.7, 0.0007154324, 0.000016139089, 0.00012315967, -789688.0, -51265.004, 0.0, 10.000061, 9.929878 
2.9350027e+3, 2.3458065e+2, -691255.06, -744963.7, -0.22147891, 0.000016098886, -0.000086762964, -691255.06, -50145.547, 0.0, 10.000061, 9.929547 
2.9350027e+3, 2.4450366e+2, -602931.4, -667016.3, 0.020676387, 0.000016054451, 0.00007658779, -602931.4, -59067.25, 0.0, 10.000061, 9.916107 
2.9350027e+3, 2.544199e+2, -504179.28, -568341.25, -0.19696097, 0.000016004942, -0.0001049762, -504179.28, -57494.16, 0.0, 10.000061, 9.916007 
2.9350027e+3, 2.6432905e+2, -415944.25, -490986.2, 0.036695655, 0.000015965692, 0.00014221111, -415944.25, -66368.75, 0.0, 10.000061, 9.901936 
2.9350027e+3, 2.742315e+2, -316659.53, -391373.5, -0.17605206, 0.000015939495, -0.0002020031, -316659.53, -64128.42, 0.0, 10.000061, 9.902356 
2.9350027e+3, 2.8412578e+2, -230186.44, -318079.94, 0.049907733, 0.000015911848, 0.0002303505, -230186.44, -74619.07, 0.0, 10.00006, 9.88541 
2.9350027e+3, 2.9401225e+2, -130480.75, -217764.05, -0.14695157, 0.000015882137, -0.00025212055, -130480.75, -71800.68, 0.0, 10.00006, 9.8861885 
2.9350027e+3, 3.0392665e+2, -40737.984, -84750.62, 0.080421604, 0.000015850912, 0.00017416816, -40737.984, -40737.984, 0.0, 10.00006, 9.942143 
2.9350027e+3, 3.1387067e+2, -39660.133, -82511.836, -0.10429043, 0.000015817477, -0.00005446193, -39660.133, -39660.133, 0.0, 10.00006, 9.943655 
2.945003e+3, 1.24993995e+2, -1719865.0, -1724217.5, 0.18280315, 0.00001714941, 0.000023855711, -1719865.0, -4806.145, 0.0, 10.000067, 9.994296 
2.945003e+3, 1.349882e+2, -1622485.5, -1627428.4, -0.08233233, 0.000017014196, -0.000071607494, -1622485.5, -5369.8853, 0.0, 10.000067, 9.993513 
2.9450026e+3, 1.4497572e+2, -1534384.0, -1548138.9, 0.13314025, 0.000016921806, 0.00008041188, -1534384.0, -15146.105, 0.0, 10.000066, 9.981834 
2.9450026e+3, 1.5495758e+2, -1436657.1, -1450815.1, -0.11745075, 0.00001686906, -0.000053603333, -1436657.1, -15241.389, 0.0, 10.000066, 9.981302 
2.9450026e+3, 1.649328e+2, -1348606.9, -1371946.1, 0.116724364, 0.000016811775, 0.00004852647, -1348606.9, -24948.287, 0.0, 10.000066, 9.969217 
2.9450026e+3, 1.7490205e+2, -1250649.6, -1274304.5, -0.13707247, 0.000016749877, -0.00007083025, -1250649.6, -24689.744, 0.0, 10.000065, 9.968804 
2.9450026e+3, 1.8486468e+2, -1162568.9, -1195714.4, 0.08842184, 0.000016684335, 0.0000696822, -1162568.9, -34242.793, 0.0, 10.000065, 9.956366 
2.9450026e+3, 1.9482109e+2, -1064419.9, -1097827.8, -0.15809321, 0.000016614968, -0.000054922206, -1064419.9, -33666.516, 0.0, 10.000065, 9.956022 
2.9450026e+3, 2.0477083e+2, -976256.3, -1019430.0, 0.08295679, 0.000016560034, 0.0000704214, -976256.3, -43010.4, 0.0, 10.000065, 9.94326 
2.9450026e+3, 2.1471412e+2, -877970.0, -921405.4, -0.15590116, 0.000016520722, -0.00012442845, -877970.0, -42168.383, 0.0, 10.000064, 9.94292 
2.9450026e+3, 2.2465073e+2, -789684.25, -843140.5, 0.07238604, 0.00001647518, 0.00012320251, -789684.25, -51261.375, 0.0, 10.000064, 9.929878 
2.9450026e+3, 2.3458067e+2, -691251.4, -744962.56, -0.16319394, 0.000016422562, -0.00008672082, -691251.4, -50141.918, 0.0, 10.000064, 9.929547 
2.9450026e+3, 2.4450366e+2, -602927.7, -667015.2, 0.07550134, 0.000016373493, 0.00007662908, -602927.7, -59063.633, 0.0, 10.000064, 9.916106 
2.9450026e+3, 2.544199e+2, -504175.63, -568340.1, -0.15349962, 0.000016328659, -0.00010493595, -504175.63, -57490.582, 0.0, 10.000064, 9.916006 
2.9450026e+3, 2.6432905e+2, -415940.66, -490985.13, 0.082544535, 0.000016291366, 0.00014224692, -415940.66, -66365.195, 0.0, 10.000064, 9.901936 
2.9450026e+3, 2.7423152e+2, -316655.97, -391372.44, -0.13110185, 0.000016263644, -0.00020197601, -316655.97, -64124.887, 0.0, 10.000063, 9.902355 
2.9450026e+3, 2.841258e+2, -230182.86, -318078.88, 0.09940657, 0.00001623416, 0.00023037274, -230182.86, -74615.54, 0.0, 10.000063, 9.885409 
2.9450026e+3, 2.9401225e+2, -130477.2, -217763.03, -0.10737378, 0.000016202199, -0.0002520978, -130477.2, -71797.17, 0.0, 10.000063, 9.886188 
2.9450026e+3, 3.0392665e+2, -40734.49, -84749.66, 0.11678468, 0.000016170776, 0.00017419002, -40734.49, -40734.49, 0.0, 10.000063, 9.9421425 
2.9450026e+3, 3.1387067e+2, -39656.664, -82510.89, -0.081905015, 0.000016140193, -0.00005444312, -39656.664, -39656.664, 0.0, 10.000063, 9.943654 
2.9550028e+3, 1.2499401e+2, -1719865.6, -1724218.6, 0.06920586, 0.000017512442, 0.000023989216, -1719865.6, -4806.9033, 0.0, 10.000067, 9.994295 
2.9550028e+3, 1.3498822e+2, -1622486.1, -1627429.5, -0.19594128, 0.000017347022, -0.00007170926, -1622486.1, -5370.63, 0.0, 10.000067, 9.993513 
2.9550028e+3, 1.4497574e+2, -1534384.5, -1548140.0, 0.022477046, 0.000017247896, 0.00008063964, -1534384.5, -15146.81, 0.0, 10.000066, 9.981833 
2.9550028e+3, 1.5495759e+2, -1436657.6, -1450816.3, -0.2281162, 0.000017211953, -0.000053545104, -1436657.6, -15242.079, 0.0, 10.000066, 9.981302 
2.9550028e+3, 1.6493282e+2, -1348607.4, -1371947.3, 0.015811231, 0.000017159009, 0.000048531198, -1348607.4, -24948.975, 0.0, 10.000066, 9.969217 
2.9550028e+3, 1.7490207e+2, -1250650.1, -1274305.6, -0.23794048, 0.000017088734, -0.00007076054, -1250650.1, -24690.42, 0.0, 10.000065, 9.968803 
2.9550028e+3, 1.848647e+2, -1162569.5, -1195715.4, 0.0028360896, 0.000017018194, 0.00006976649, -1162569.5, -34243.445, 0.0, 10.000065, 9.956365 
2.9550028e+3, 1.9482109e+2, -1064420.4, -1097828.8, -0.24350682, 0.000016947362, -0.00005487608, -1064420.4, -33667.156, 0.0, 10.000065, 9.956021 
2.9550028e+3, 2.0477083e+2, -976256.9, -1019431.0, -0.004262003, 0.000016895165, 0.0000704573, -976256.9, -43011.02, 0.0, 10.000065, 9.94326 
2.9550028e+3, 2.1471412e+2, -877970.5, -921406.4, -0.24316196, 0.000016863134, -0.00012437253, -877970.5, -42168.99, 0.0, 10.000064, 9.942919 
2.9550028e+3, 2.2465073e+2, -789684.8, -843141.56, 0.005589631, 0.000016813956, 0.0001232622, -789684.8, -51261.977, 0.0, 10.000064, 9.929877 
2.9550028e+3, 2.3458067e+2, -691251.9, -744963.56, -0.22932637, 0.00001674535, -0.00008667575, -691251.9, -50142.504, 0.0, 10.000064, 9.929546 
2.9550028e+3, 2.4450368e+2, -602928.25, -667016.2, 0.013293285, 0.000016694335, 0.0000766683, -602928.25, -59064.21, 0.0, 10.000064, 9.916106 
2.9550028e+3, 2.544199e+2, -504176.13, -568341.2, -0.21552171, 0.000016664337, -0.0001048921, -504176.13, -57491.145, 0.0, 10.000064, 9.916006 
2.9550028e+3, 2.6432905e+2, -415941.13, -490986.1, 0.031897318, 0.000016631115, 0.00014228864, -415941.13, -66365.734, 0.0, 10.000064, 9.901935 
2.9550028e+3, 2.7423152e+2, -316656.44, -391373.4, -0.18099336, 0.000016593725, -0.00020194506, -316656.44, -64125.414, 0.0, 10.000063, 9.902354 
2.9550028e+3, 2.841258e+2, -230183.34, -318079.88, 0.060310453, 0.000016558484, 0.00023039411, -230183.34, -74616.06, 0.0, 10.000063, 9.885408 
2.9550028e+3, 2.9401225e+2, -130477.67, -217764.0, -0.14550108, 0.000016526188, -0.00025208434, -130477.67, -71797.68, 0.0, 10.000063, 9.886188 
2.9550028e+3, 3.0392665e+2, -40734.965, -84750.65, 0.08580111, 0.000016495791, 0.0001742038, -40734.965, -40734.965, 0.0, 10.000063, 9.9421425 
2.9550028e+3, 3.1387067e+2, -39657.14, -82511.88, -0.1120542, 0.00001646821, -0.00005441673, -39657.14, -39657.14, 0.0, 10.000063, 9.943653 
2.965003e+3, 1.24994025e+2, -1719861.4, -1724217.1, 0.18478644, 0.000017869099, 0.000024131976, -1719861.4, -4802.8384, 0.0, 10.00007, 9.994294 
2.965003e+3, 1.3498823e+2, -1622481.9, -1627428.1, -0.08079987, 0.000017694776, -0.000071817216, -1622481.9, -5366.6025, 0.0, 10.00007, 9.993512 
2.965003e+3, 1.4497575e+2, -1534380.4, -1548138.5, 0.13480857, 0.00001759294, 0.000080869904, -1534380.4, -15142.797, 0.0, 10.000069, 9.9818325 
2.965003e+3, 1.549576e+2, -1436653.5, -1450814.9, -0.12924136, 0.000017560447, -0.000053478234, -1436653.5, -15238.096, 0.0, 10.000069, 9.981301 
2.965003e+3, 1.6493283e+2, -1348603.4, -1371945.9, 0.114890546, 0.00001750581, 0.00004854109, -1348603.4, -24945.018, 0.0, 10.000069, 9.969216 
2.965003e+3, 1.7490208e+2, -1250646.1, -1274304.3, -0.1474297, 0.000017428583, -0.00007069893, -1250646.1, -24686.484, 0.0, 10.000069, 9.968802 
2.965003e+3, 1.848647e+2, -1162565.5, -1195714.1, 0.09575476, 0.000017358734, 0.00006984342, -1162565.5, -34239.535, 0.0, 10.000068, 9.956364 
2.965003e+3, 1.948211e+2, -1064416.5, -1097827.5, -0.15852486, 0.000017296583, -0.00005482194, -1064416.5, -33663.31, 0.0, 10.000068, 9.95602 
2.965003e+3, 2.0477085e+2, -976252.94, -1019429.75, 0.07702954, 0.000017243405, 0.00007050098, -976252.94, -43007.19, 0.0, 10.000068, 9.943259 
2.965003e+3, 2.1471414e+2, -877966.6, -921405.1, -0.17507309, 0.000017199933, -0.00012432595, -877966.6, -42165.16, 0.0, 10.000067, 9.942918 
2.965003e+3, 2.2465074e+2, -789680.9, -843140.3, 0.07606574, 0.00001714677, 0.0001233106, -789680.9, -51258.156, 0.0, 10.000067, 9.929876 
2.965003e+3, 2.345807e+2, -691248.0, -744962.4, -0.16954711, 0.000017082626, -0.00008662678, -691248.0, -50138.73, 0.0, 10.000067, 9.929545 
2.965003e+3, 2.4450368e+2, -602924.44, -667015.06, 0.071247876, 0.000017033635, 0.000076712415, -602924.44, -59060.465, 0.0, 10.000067, 9.916105 
2.965003e+3, 2.544199e+2, -504172.34, -568340.0, -0.16165215, 0.000017002742, -0.00010485931, -504172.34, -57487.43, 0.0, 10.000067, 9.916005 
2.9650027e+3, 2.6432905e+2, -415937.38, -490985.0, 0.087979525, 0.000016967953, 0.00014231775, -415937.38, -66362.03, 0.0, 10.000067, 9.901934 
2.9650027e+3, 2.7423152e+2, -316652.7, -391372.3, -0.14262481, 0.00001692815, -0.00020190989, -316652.7, -64121.73, 0.0, 10.000066, 9.902354 
2.9650027e+3, 2.841258e+2, -230179.63, -318078.78, 0.09491058, 0.000016891834, 0.0002304299, -230179.63, -74612.39, 0.0, 10.000066, 9.885408 
2.9650027e+3, 2.9401225e+2, -130473.984, -217762.94, -0.117531314, 0.000016860298, -0.00025205544, -130473.984, -71794.03, 0.0, 10.000066, 9.886187 
2.9650027e+3, 3.0392668e+2, -40731.34, -84749.66, 0.11462302, 0.000016828983, 0.00017422656, -40731.34, -40731.34, 0.0, 10.000066, 9.942142 
2.9650027e+3, 3.1387067e+2, -39653.51, -82510.89, -0.090743035, 0.000016797969, -0.00005439895, -39653.51, -39653.51, 0.0, 10.000066, 9.943653 
2.9750028e+3, 1.2499404e+2, -1719862.0, -1724218.3, 0.066049606, 0.00001821939, 0.000024284811, -1719862.0, -4803.6035, 0.0, 10.00007, 9.994293 
2.9750028e+3, 1.3498825e+2, -1622482.5, -1627429.3, -0.19955602, 0.000018057443, -0.00007193134, -1622482.5, -5367.354, 0.0, 10.00007, 9.993511 
2.9750028e+3, 1.4497577e+2, -1534381.0, -1548139.6, 0.020297082, 0.000017956918, 0.00008110267, -1534381.0, -15143.537, 0.0, 10.000069, 9.9818325 
2.9750028e+3, 1.5495762e+2, -1436654.1, -1450816.0, -0.24375011, 0.000017914545, -0.000053402735, -1436654.1, -15238.822, 0.0, 10.000069, 9.9813 
2.9750028e+3, 1.6493285e+2, -1348603.9, -1371947.0, 0.012212977, 0.000017852184, 0.000048556143, -1348603.9, -24945.729, 0.0, 10.000069, 9.969215 
2.9750028e+3, 1.749021e+2, -1250646.6, -1274305.4, -0.25005072, 0.000017769431, -0.0000706454, -1250646.6, -24687.184, 0.0, 10.000069, 9.9688015 
2.9750028e+3, 1.8486471e+2, -1162566.0, -1195715.1, -0.0015513056, 0.00001770595, 0.000069913, -1162566.0, -34240.21, 0.0, 10.000068, 9.956363 
2.9750028e+3, 1.9482112e+2, -1064417.0, -1097828.6, -0.25577608, 0.000017662613, -0.00005475979, -1064417.0, -33663.97, 0.0, 10.000068, 9.95602 
2.9750028e+3, 2.0477086e+2, -976253.5, -1019430.8, -0.0054960083, 0.000017604742, 0.00007055244, -976253.5, -43007.844, 0.0, 10.000068, 9.943258 
2.9750028e+3, 2.1471414e+2, -877967.1, -921406.2, -0.25729975, 0.000017531125, -0.0001242887, -877967.1, -42165.797, 0.0, 10.000067, 9.942918 
2.9750028e+3, 2.2465076e+2, -789681.44, -843141.4, 0.0020367317, 0.00001747363, 0.00012334771, -789681.44, -51258.785, 0.0, 10.000067, 9.929876 
2.9750028e+3, 2.345807e+2, -691248.56, -744963.44, -0.2433118, 0.000017434377, -0.00008657392, -691248.56, -50139.344, 0.0, 10.000067, 9.929544 
2.9750028e+3, 2.4450369e+2, -602924.94, -667016.06, 0.005373866, 0.00001739138, 0.000076761426, -602924.94, -59061.05, 0.0, 10.000067, 9.916104 
2.9750028e+3, 2.544199e+2, -504172.84, -568341.06, -0.22715305, 0.000017343875, -0.000104837585, -504172.84, -57488.004, 0.0, 10.000067, 9.916004 
2.9750028e+3, 2.6432905e+2, -415937.88, -490986.03, 0.03606958, 0.000017301889, 0.00014233425, -415937.88, -66362.61, 0.0, 10.000067, 9.901933 
2.9750028e+3, 2.7423152e+2, -316653.22, -391373.38, -0.19362797, 0.000017266919, -0.00020187051, -316653.22, -64122.297, 0.0, 10.000066, 9.902353 
2.9750028e+3, 2.841258e+2, -230180.11, -318079.78, 0.052825134, 0.000017234204, 0.00023048009, -230180.11, -74612.93, 0.0, 10.000066, 9.885407 
2.9750028e+3, 2.9401225e+2, -130474.47, -217763.95, -0.15881817, 0.000017204526, -0.0002520111, -130474.47, -71794.555, 0.0, 10.000066, 9.886186 
2.9750028e+3, 3.0392668e+2, -40731.832, -84750.68, 0.08516447, 0.000017170345, 0.00017425827, -40731.832, -40731.832, 0.0, 10.000066, 9.942141 
2.9750028e+3, 3.138707e+2, -39654.004, -82511.914, -0.11881725, 0.000017129476, -0.000054389773, -39654.004, -39654.004, 0.0, 10.000066, 9.943652 
2.9850033e+3, 1.24994054e+2, -1719857.6, -1724216.8, 0.1983915, 0.00001858022, 0.000024427514, -1719857.6, -4799.358, 0.0, 10.0000725, 9.994293 
2.9850033e+3, 1.3498826e+2, -1622478.1, -1627427.9, -0.08841507, 0.00001842321, -0.00007204573, -1622478.1, -5363.1665, 0.0, 10.0000725, 9.99351 
2.9850033e+3, 1.4497578e+2, -1534376.6, -1548138.3, 0.12718847, 0.000018321723, 0.000081346625, -1534376.6, -15139.366, 0.0, 10.0000725, 9.981832 
2.9850033e+3, 1.5495764e+2, -1436649.9, -1450814.5, -0.14168093, 0.000018272396, -0.000053330634, -1436649.9, -15234.672, 0.0, 10.000072, 9.981299 
2.985003e+3, 1.6493285e+2, -1348599.6, -1371945.6, 0.11657668, 0.000018208224, 0.000048565635, -1348599.6, -24941.611, 0.0, 10.000072, 9.969215 
2.985003e+3, 1.749021e+2, -1250642.5, -1274304.0, -0.15515226, 0.00001812891, -0.00007058692, -1250642.5, -24683.113, 0.0, 10.000072, 9.9688015 
2.985003e+3, 1.8486473e+2, -1162561.9, -1195713.8, 0.09045534, 0.000018065533, 0.000069988106, -1162561.9, -34236.164, 0.0, 10.000071, 9.956363 
2.985003e+3, 1.9482113e+2, -1064412.9, -1097827.3, -0.17767033, 0.000018018809, -0.000054701977, -1064412.9, -33659.94, 0.0, 10.000071, 9.956019 
2.985003e+3, 2.0477086e+2, -976249.4, -1019429.5, 0.075025074, 0.000017957313, 0.000070603244, -976249.4, -43003.836, 0.0, 10.000071, 9.943258 
2.985003e+3, 2.1471415e+2, -877963.06, -921404.94, -0.18601774, 0.000017879813, -0.00012423376, -877963.06, -42161.816, 0.0, 10.000071, 9.942917 
2.985003e+3, 2.2465076e+2, -789677.4, -843140.1, 0.07128374, 0.000017822986, 0.00012339962, -789677.4, -51254.83, 0.0, 10.00007, 9.929875 
2.985003e+3, 2.3458071e+2, -691244.56, -744962.2, -0.18064153, 0.00001778955, -0.000086533124, -691244.56, -50135.438, 0.0, 10.00007, 9.929544 
2.985003e+3, 2.4450369e+2, -602920.94, -667014.9, 0.07103956, 0.000017746048, 0.00007679804, -602920.94, -59057.16, 0.0, 10.00007, 9.916103 
2.985003e+3, 2.5441992e+2, -504168.9, -568339.9, -0.1756722, 0.00001769048, -0.00010479686, -504168.9, -57484.117, 0.0, 10.00007, 9.916004 
2.985003e+3, 2.6432908e+2, -415933.97, -490984.88, 0.085577786, 0.000017645136, 0.00014237412, -415933.97, -66358.74, 0.0, 10.00007, 9.901933 
2.985003e+3, 2.7423152e+2, -316649.34, -391372.25, -0.15148428, 0.000017612818, -0.00020183783, -316649.34, -64118.47, 0.0, 10.000069, 9.902352 
2.985003e+3, 2.841258e+2, -230176.25, -318078.66, 0.09713272, 0.000017581342, 0.00023050953, -230176.25, -74609.11, 0.0, 10.000069, 9.8854065 
2.985003e+3, 2.9401228e+2, -130470.63, -217762.84, -0.124111675, 0.000017550941, -0.00025197948, -130470.63, -71790.76, 0.0, 10.000069, 9.886186 
2.985003e+3, 3.0392668e+2, -40728.063, -84749.64, 0.120442815, 0.000017515535, 0.00017428675, -40728.063, -40728.063, 0.0, 10.000069, 9.94214 
2.985003e+3, 3.138707e+2, -39650.25, -82510.89, -0.09048692, 0.00001747271, -0.00005437243, -39650.25, -39650.25, 0.0, 10.000069, 9.943651 
2.9950032e+3, 1.2499407e+2, -1719858.3, -1724218.0, 0.069868065, 0.00001895158, 0.000024560937, -1719858.3, -4800.1787, 0.0, 10.0000725, 9.994292 
2.9950032e+3, 1.3498828e+2, -1622478.9, -1627429.0, -0.21695364, 0.000018792076, -0.0000721604, -1622478.9, -5363.9727, 0.0, 10.0000725, 9.993509 
2.9950032e+3, 1.449758e+2, -1534377.3, -1548139.4, 0.01098094, 0.00001868736, 0.00008160175, -1534377.3, -15140.124, 0.0, 10.0000725, 9.981831 
2.9950032e+3, 1.5495765e+2, -1436650.5, -1450815.6, -0.257877, 0.000018634, -0.00005326193, -1436650.5, -15235.414, 0.0, 10.000072, 9.981299 
2.9950032e+3, 1.6493286e+2, -1348600.3, -1371946.8, 0.0064270436, 0.000018573925, 0.000048569575, -1348600.3, -24942.35, 0.0, 10.000072, 9.969214 
2.9950032e+3, 1.7490211e+2, -1250643.1, -1274305.3, -0.26527658, 0.000018507002, -0.00007052349, -1250643.1, -24683.838, 0.0, 10.000072, 9.968801 
2.9950032e+3, 1.8486474e+2, -1162562.4, -1195715.0, -0.008327663, 0.00001843747, 0.00007006871, -1162562.4, -34236.87, 0.0, 10.000071, 9.956362 
2.9950032e+3, 1.9482113e+2, -1064413.5, -1097828.4, -0.27632797, 0.000018365188, -0.000054648495, -1064413.5, -33660.637, 0.0, 10.000071, 9.956018 
2.9950032e+3, 2.0477088e+2, -976249.94, -1019430.6, -0.01067982, 0.000018301134, 0.0000706534, -976249.94, -43004.51, 0.0, 10.000071, 9.943257 
2.9950032e+3, 2.1471417e+2, -877963.6, -921406.0, -0.2714609, 0.000018245979, -0.00012416118, -877963.6, -42162.48, 0.0, 10.000071, 9.942916 
2.995003e+3, 2.2465077e+2, -789677.94, -843141.2, -0.010741402, 0.000018194814, 0.00012346632, -789677.94, -51255.473, 0.0, 10.00007, 9.929874 
2.995003e+3, 2.3458071e+2, -691245.1, -744963.3, -0.2625606, 0.000018148148, -0.00008650437, -691245.1, -50136.066, 0.0, 10.00007, 9.9295435 
2.995003e+3, 2.445037e+2, -602921.5, -667015.94, 0.0073390543, 0.00001809765, 0.000076822274, -602921.5, -59057.785, 0.0, 10.00007, 9.916103 
2.995003e+3, 2.5441992e+2, -504169.44, -568340.94, -0.23850353, 0.000018042552, -0.00010473716, -504169.44, -57484.727, 0.0, 10.00007, 9.916003 
2.995003e+3, 2.6432908e+2, -415934.5, -490985.97, 0.02823092, 0.000017997689, 0.00014243732, -415934.5, -66359.336, 0.0, 10.00007, 9.901932 
2.995003e+3, 2.7423152e+2, -316649.84, -391373.3, -0.20846678, 0.000017965844, -0.00020181185, -316649.84, -64119.05, 0.0, 10.000069, 9.902351 
2.995003e+3, 2.841258e+2, -230176.77, -318079.72, 0.053070985, 0.000017933247, 0.00023051821, -230176.77, -74609.67, 0.0, 10.000069, 9.8854065 
2.995003e+3, 2.9401228e+2, -130471.14, -217763.89, -0.1670162, 0.000017899547, -0.00025196056, -130471.14, -71791.305, 0.0, 10.000069, 9.886185 
2.995003e+3, 3.0392668e+2, -40728.566, -84750.695, 0.0876927, 0.000017864548, 0.00017431198, -40728.566, -40728.566, 0.0, 10.000069, 9.94214 
2.995003e+3, 3.138707e+2, -39650.758, -82511.945, -0.12205121, 0.000017827664, -0.000054346932, -39650.758, -39650.758, 0.0, 10.000069, 9.94365 
3.005003e+3, 1.24994084e+2, -1719853.8, -1724216.4, 0.20269458, 0.000019325456, 0.000024710716, -1719853.8, -4795.7617, 0.0, 10.000076, 9.994291 
3.005003e+3, 1.349883e+2, -1622474.3, -1627427.5, -0.0881701, 0.000019168765, -0.00007228452, -1622474.3, -5359.6045, 0.0, 10.000075, 9.993509 
3.005003e+3, 1.4497581e+2, -1534372.8, -1548137.8, 0.14279594, 0.000019064257, 0.00008185152, -1534372.8, -15135.773, 0.0, 10.000075, 9.98183 
3.005003e+3, 1.5495767e+2, -1436646.0, -1450814.1, -0.14245707, 0.000019008417, -0.000053192314, -1436646.0, -15231.108, 0.0, 10.000075, 9.981298 
3.005003e+3, 1.6493288e+2, -1348595.9, -1371945.3, 0.11626418, 0.000018946876, 0.00004857684, -1348595.9, -24938.078, 0.0, 10.000074, 9.9692135 
3.005003e+3, 1.7490213e+2, -1250638.8, -1274303.8, -0.16710566, 0.00001887952, -0.000070458256, -1250638.8, -24679.594, 0.0, 10.000074, 9.9688 
3.005003e+3, 1.8486474e+2, -1162558.1, -1195713.5, 0.09093297, 0.000018806675, 0.00007015245, -1162558.1, -34232.645, 0.0, 10.000074, 9.956361 
3.005003e+3, 1.9482115e+2, -1064409.1, -1097827.0, -0.18724273, 0.000018728062, -0.000054587574, -1064409.1, -33656.438, 0.0, 10.000073, 9.9560175 
3.005003e+3, 2.047709e+2, -976245.7, -1019429.25, 0.07795934, 0.000018664403, 0.00007070246, -976245.7, -43000.34, 0.0, 10.000073, 9.943256 
3.005003e+3, 2.1471417e+2, -877959.44, -921404.7, -0.19268648, 0.000018616924, -0.00012411212, -877959.44, -42158.363, 0.0, 10.000073, 9.942915 
3.005003e+3, 2.2465077e+2, -789673.75, -843139.94, 0.06656465, 0.000018565248, 0.00012351472, -789673.75, -51251.38, 0.0, 10.000073, 9.929873 
3.005003e+3, 2.3458073e+2, -691240.94, -744962.0, -0.1975746, 0.000018508808, -0.000086457396, -691240.94, -50131.977, 0.0, 10.0000725, 9.929543 
3.005003e+3, 2.445037e+2, -602917.4, -667014.7, 0.07381273, 0.000018454972, 0.000076867924, -602917.4, -59053.715, 0.0, 10.0000725, 9.916102 
3.005003e+3, 2.5441992e+2, -504165.34, -568339.7, -0.18389879, 0.000018404242, -0.00010469274, -504165.34, -57480.7, 0.0, 10.0000725, 9.916002 
3.005003e+3, 2.6432908e+2, -415930.44, -490984.75, 0.082079016, 0.000018360171, 0.00014247696, -415930.44, -66355.336, 0.0, 10.0000725, 9.901931 
3.005003e+3, 2.7423155e+2, -316645.8, -391372.13, -0.15949166, 0.00001832455, -0.00020178156, -316645.8, -64115.066, 0.0, 10.0000725, 9.902351 
3.005003e+3, 2.8412583e+2, -230172.73, -318078.53, 0.1042606, 0.000018290148, 0.00023054447, -230172.73, -74605.695, 0.0, 10.0000725, 9.885406 
3.005003e+3, 2.9401228e+2, -130467.16, -217762.75, -0.1304077, 0.000018257355, -0.00025193114, -130467.16, -71787.37, 0.0, 10.000072, 9.886184 
3.005003e+3, 3.0392668e+2, -40724.65, -84749.62, 0.12057781, 0.000018221708, 0.00017434059, -40724.65, -40724.65, 0.0, 10.000072, 9.942139 
3.005003e+3, 3.138707e+2, -39646.836, -82510.875, -0.102258295, 0.00001818184, -0.00005432513, -39646.836, -39646.836, 0.0, 10.000072, 9.94365 
3.0150035e+3, 1.2499411e+2, -1719854.4, -1724217.6, 0.06673092, 0.000019701856, 0.000024877774, -1719854.4, -4796.5986, 0.0, 10.000076, 9.99429 
3.0150035e+3, 1.3498831e+2, -1622475.0, -1627428.8, -0.22415465, 0.000019553274, -0.00007241809, -1622475.0, -5360.427, 0.0, 10.000075, 9.993508 
3.0150032e+3, 1.4497583e+2, -1534373.4, -1548139.0, 0.019793658, 0.000019452404, 0.00008209594, -1534373.4, -15136.575, 0.0, 10.000075, 9.981829 
3.0150032e+3, 1.5495768e+2, -1436646.6, -1450815.4, -0.2654445, 0.000019395633, -0.000053121785, -1436646.6, -15231.894, 0.0, 10.000075, 9.9812975 
3.0150032e+3, 1.6493289e+2, -1348596.5, -1371946.5, 0.0031639074, 0.00001932707, 0.000048587426, -1348596.5, -24938.848, 0.0, 10.000074, 9.969213 
3.0150032e+3, 1.7490214e+2, -1250639.4, -1274305.0, -0.2801611, 0.000019246478, -0.00007039121, -1250639.4, -24680.352, 0.0, 10.000074, 9.968799 
3.0150032e+3, 1.8486476e+2, -1162558.8, -1195714.8, -0.010235376, 0.000019173156, 0.00007023932, -1162558.8, -34233.383, 0.0, 10.000074, 9.95636 
3.0150032e+3, 1.9482116e+2, -1064409.8, -1097828.1, -0.2882791, 0.000019107416, -0.00005451922, -1064409.8, -33657.16, 0.0, 10.000073, 9.9560175 
3.0150032e+3, 2.047709e+2, -976246.25, -1019430.44, -0.01746974, 0.000019047098, 0.00007075042, -976246.25, -43001.043, 0.0, 10.000073, 9.943255 
3.0150032e+3, 2.1471418e+2, -877960.0, -921405.9, -0.28800553, 0.000018992643, -0.00012408655, -877960.0, -42159.05, 0.0, 10.000073, 9.942915 
3.0150032e+3, 2.2465079e+2, -789674.3, -843141.06, -0.013442564, 0.000018934295, 0.00012354483, -789674.3, -51252.05, 0.0, 10.000073, 9.929873 
3.0150032e+3, 2.3458073e+2, -691241.5, -744963.1, -0.27708843, 0.00001887153, -0.000086392225, -691241.5, -50132.637, 0.0, 10.0000725, 9.929542 
3.0150032e+3, 2.4450372e+2, -602917.94, -667015.8, 0.0034736514, 0.000018818017, 0.00007693494, -602917.94, -59054.363, 0.0, 10.0000725, 9.916101 
3.0150032e+3, 2.5441992e+2, -504165.9, -568340.9, -0.2538003, 0.000018775545, -0.000104663566, -504165.9, -57481.336, 0.0, 10.0000725, 9.916001 
3.0150032e+3, 2.6432908e+2, -415930.97, -490985.84, 0.023320658, 0.000018732577, 0.00014249305, -415930.97, -66355.945, 0.0, 10.0000725, 9.90193 
3.0150032e+3, 2.7423155e+2, -316646.34, -391373.22, -0.21751162, 0.000018688934, -0.00020174692, -316646.34, -64115.66, 0.0, 10.0000725, 9.90235 
3.0150032e+3, 2.8412583e+2, -230173.28, -318079.66, 0.05645974, 0.00001865204, 0.00023058824, -230173.28, -74606.29, 0.0, 10.0000725, 9.885405 
3.0150032e+3, 2.9401228e+2, -130467.69, -217763.84, -0.17729145, 0.00001862436, -0.0002518912, -130467.69, -71787.94, 0.0, 10.000072, 9.886183 
3.0150032e+3, 3.0392668e+2, -40725.184, -84750.734, 0.08809151, 0.000018587009, 0.00017437257, -40725.184, -40725.184, 0.0, 10.000072, 9.942138 
3.0150032e+3, 3.138707e+2, -39647.37, -82511.984, -0.13305934, 0.000018535244, -0.000054307024, -39647.37, -39647.37, 0.0, 10.000072, 9.943649 
3.0250034e+3, 1.2499413e+2, -1719849.6, -1724216.0, 0.20878272, 0.00002009458, 0.000025034331, -1719849.6, -4792.0215, 0.0, 10.000079, 9.994289 
3.0250034e+3, 1.3498832e+2, -1622470.3, -1627427.1, -0.099098146, 0.000019943762, -0.000072551855, -1622470.3, -5355.882, 0.0, 10.000079, 9.993507 
3.0250034e+3, 1.4497584e+2, -1534368.8, -1548137.4, 0.14418721, 0.000019841136, 0.00008235438, -1534368.8, -15132.044, 0.0, 10.000078, 9.981829 
3.0250034e+3, 1.549577e+2, -1436642.0, -1450813.8, -0.14991611, 0.000019783027, -0.000053047846, -1436642.0, -15227.403, 0.0, 10.000078, 9.981297 
3.0250034e+3, 1.649329e+2, -1348591.9, -1371945.0, 0.1190903, 0.00001971194, 0.0000485969, -1348591.9, -24934.39, 0.0, 10.000078, 9.969212 
3.0250034e+3, 1.7490216e+2, -1250634.8, -1274303.5, -0.17862172, 0.000019627621, -0.000070323586, -1250634.8, -24675.924, 0.0, 10.000077, 9.968799 
3.0250034e+3, 1.8486477e+2, -1162554.1, -1195713.3, 0.08824745, 0.000019553574, 0.000070324466, -1162554.1, -34228.98, 0.0, 10.000077, 9.95636 
3.0250034e+3, 1.9482118e+2, -1064405.3, -1097826.8, -0.19918011, 0.000019490253, -0.00005445909, -1064405.3, -33652.816, 0.0, 10.000077, 9.956017 
3.025003e+3, 2.0477091e+2, -976241.8, -1019429.0, 0.072450124, 0.000019430025, 0.000070799746, -976241.8, -42996.723, 0.0, 10.000077, 9.943254 
3.025003e+3, 2.147142e+2, -877955.6, -921404.44, -0.20872435, 0.000019373141, -0.00012403262, -877955.6, -42154.746, 0.0, 10.000076, 9.942914 
3.025003e+3, 2.246508e+2, -789669.94, -843139.7, 0.06659888, 0.00001931103, 0.00012359972, -789669.94, -51247.77, 0.0, 10.000076, 9.9298725 
3.025003e+3, 2.3458074e+2, -691237.2, -744961.8, -0.21215579, 0.000019242992, -0.00008634055, -691237.2, -50128.387, 0.0, 10.000076, 9.929542 
3.025003e+3, 2.4450372e+2, -602913.6, -667014.5, 0.066122636, 0.00001918894, 0.00007698146, -602913.6, -59050.137, 0.0, 10.000076, 9.9161005 
3.025003e+3, 2.5441995e+2, -504161.66, -568339.56, -0.19507222, 0.00001915158, -0.00010462453, -504161.66, -57477.152, 0.0, 10.000075, 9.916001 
3.025003e+3, 2.6432908e+2, -415926.75, -490984.6, 0.08498623, 0.000019109706, 0.00014252983, -415926.75, -66351.79, 0.0, 10.000075, 9.90193 
3.025003e+3, 2.7423155e+2, -316642.16, -391372.0, -0.17462553, 0.000019062036, -0.00020170577, -316642.16, -64111.527, 0.0, 10.000075, 9.902349 
3.025003e+3, 2.8412583e+2, -230169.1, -318078.44, 0.09734758, 0.000019021843, 0.00023062801, -230169.1, -74602.16, 0.0, 10.000075, 9.885404 
3.025003e+3, 2.9401228e+2, -130463.53, -217762.66, -0.13964263, 0.000018991892, -0.00025186077, -130463.53, -71783.83, 0.0, 10.000075, 9.886183 
3.025003e+3, 3.0392668e+2, -40721.098, -84749.61, 0.1304215, 0.000018954033, 0.0001743962, -40721.098, -40721.098, 0.0, 10.000075, 9.942137 
3.025003e+3, 3.138707e+2, -39643.316, -82510.88, -0.09707596, 0.00001890437, -0.00005428637, -39643.316, -39643.316, 0.0, 10.000074, 9.943648 
3.0350035e+3, 1.24994144e+2, -1719850.4, -1724217.4, 0.06927008, 0.000020503614, 0.00002518141, -1719850.4, -4792.905, 0.0, 10.000079, 9.994289 
3.0350035e+3, 1.3498835e+2, -1622471.0, -1627428.5, -0.2386287, 0.000020340225, -0.000072685805, -1622471.0, -5356.75, 0.0, 10.000079, 9.993506 
3.0350035e+3, 1.4497586e+2, -1534369.4, -1548138.6, 0.015108012, 0.00002023046, 0.00008262682, -1534369.4, -15132.872, 0.0, 10.000078, 9.981828 
3.0350035e+3, 1.5495771e+2, -1436642.6, -1450815.0, -0.2789869, 0.0000201706, -0.0000529705, -1436642.6, -15228.215, 0.0, 10.000078, 9.981296 
3.0350035e+3, 1.6493292e+2, -1348592.6, -1371946.3, 0.0030823108, 0.000020101488, 0.00004860527, -1348592.6, -24935.2, 0.0, 10.000078, 9.969212 
3.0350035e+3, 1.7490217e+2, -1250635.5, -1274304.8, -0.2945651, 0.000020022939, -0.00007025537, -1250635.5, -24676.717, 0.0, 10.000077, 9.968798 
3.0350035e+3, 1.8486479e+2, -1162554.9, -1195714.5, -0.022672651, 0.00001994792, 0.00007040789, -1162554.9, -34229.746, 0.0, 10.000077, 9.956359 
3.0350035e+3, 1.9482118e+2, -1064405.9, -1097828.0, -0.310049, 0.000019876574, -0.00005440718, -1064405.9, -33653.563, 0.0, 10.000077, 9.956016 
3.0350035e+3, 2.0477092e+2, -976242.44, -1019430.2, -0.023071581, 0.000019813187, 0.00007085044, -976242.44, -42997.453, 0.0, 10.000077, 9.943254 
3.0350035e+3, 2.147142e+2, -877956.2, -921405.7, -0.3039369, 0.000019758412, -0.00012395035, -877956.2, -42155.465, 0.0, 10.000076, 9.942913 
3.0350035e+3, 2.246508e+2, -789670.56, -843140.9, -0.017167062, 0.000019695444, 0.00012367933, -789670.56, -51248.48, 0.0, 10.000076, 9.929872 
3.0350035e+3, 2.3458076e+2, -691237.8, -744963.0, -0.29555017, 0.00001962319, -0.00008630237, -691237.8, -50129.082, 0.0, 10.000076, 9.929541 
3.0350035e+3, 2.4450374e+2, -602914.2, -667015.7, -0.010918628, 0.000019567737, 0.0000770075, -602914.2, -59050.797, 0.0, 10.000076, 9.9161005 
3.0350035e+3, 2.5441995e+2, -504162.22, -568340.75, -0.27181768, 0.000019532345, -0.00010457564, -504162.22, -57477.8, 0.0, 10.000075, 9.916 
3.0350035e+3, 2.643291e+2, -415927.34, -490985.78, 0.024341868, 0.00001949156, 0.00014258726, -415927.34, -66352.44, 0.0, 10.000075, 9.901929 
3.0350035e+3, 2.7423155e+2, -316642.72, -391373.2, -0.234195, 0.00001944385, -0.00020165808, -316642.72, -64112.16, 0.0, 10.000075, 9.9023485 
3.0350032e+3, 2.8412583e+2, -230169.66, -318079.56, 0.049256057, 0.000019399558, 0.00023066378, -230169.66, -74602.766, 0.0, 10.000075, 9.885403 
3.0350032e+3, 2.9401228e+2, -130464.08, -217763.78, -0.18670748, 0.000019359955, -0.0002518398, -130464.08, -71784.414, 0.0, 10.000075, 9.886182 
3.0350032e+3, 3.0392668e+2, -40721.645, -84750.75, 0.09126311, 0.000019322782, 0.00017441149, -40721.645, -40721.645, 0.0, 10.000075, 9.942136 
3.0350032e+3, 3.138707e+2, -39643.867, -82512.02, -0.1353142, 0.000019289206, -0.000054263168, -39643.867, -39643.867, 0.0, 10.000074, 9.943647 
3.0450037e+3, 1.24994166e+2, -1719845.4, -1724215.6, 0.21263963, 0.000020922056, 0.000025346668, -1719845.4, -4788.1597, 0.0, 10.000083, 9.994288 
3.0450037e+3, 1.3498837e+2, -1622466.0, -1627426.9, -0.1007563, 0.000020740888, -0.000072821946, -1622466.0, -5352.0146, 0.0, 10.000082, 9.9935055 
3.0450034e+3, 1.4497587e+2, -1534364.5, -1548137.0, 0.14803773, 0.000020624384, 0.00008290166, -1534364.5, -15128.1455, 0.0, 10.000082, 9.981827 
3.0450034e+3, 1.5495773e+2, -1436637.9, -1450813.4, -0.16427654, 0.000020568817, -0.000052890304, -1436637.9, -15223.532, 0.0, 10.000082, 9.981296 
3.0450034e+3, 1.6493294e+2, -1348587.8, -1371944.6, 0.11748718, 0.000020501853, 0.000048616403, -1348587.8, -24930.559, 0.0, 10.000081, 9.969211 
3.0450034e+3, 1.7490219e+2, -1250630.8, -1274303.1, -0.18541317, 0.000020423267, -0.00007018503, -1250630.8, -24672.139, 0.0, 10.000081, 9.968797 
3.0450034e+3, 1.848648e+2, -1162550.1, -1195713.0, 0.088082545, 0.000020346472, 0.0000704956, -1162550.1, -34225.19, 0.0, 10.000081, 9.956358 
3.0450034e+3, 1.948212e+2, -1064401.3, -1097826.5, -0.2134024, 0.000020271527, -0.00005434593, -1064401.3, -33649.023, 0.0, 10.00008, 9.956015 
3.0450034e+3, 2.0477094e+2, -976237.8, -1019428.75, 0.07046942, 0.000020204248, 0.00007090283, -976237.8, -42992.934, 0.0, 10.00008, 9.9432535 
3.0450034e+3, 2.1471421e+2, -877951.6, -921404.25, -0.22647935, 0.000020145259, -0.00012388776, -877951.6, -42150.99, 0.0, 10.00008, 9.942912 
3.0450034e+3, 2.2465082e+2, -789666.0, -843139.5, 0.062404204, 0.000020083557, 0.000123741, -789666.0, -51244.035, 0.0, 10.000079, 9.929871 
3.0450034e+3, 2.3458076e+2, -691233.3, -744961.6, -0.2170248, 0.000020018768, -0.00008625419, -691233.3, -50124.688, 0.0, 10.000079, 9.92954 
3.0450034e+3, 2.4450374e+2, -602909.75, -667014.3, 0.06897233, 0.000019962163, 0.00007704911, -602909.75, -59046.426, 0.0, 10.000079, 9.9161 
3.0450034e+3, 2.5441998e+2, -504157.78, -568339.4, -0.21188955, 0.000019915322, -0.00010453229, -504157.78, -57473.434, 0.0, 10.000079, 9.915999 
3.0450034e+3, 2.643291e+2, -415922.9, -490984.47, 0.08282799, 0.000019870296, 0.00014262952, -415922.9, -66348.086, 0.0, 10.000079, 9.901928 
3.0450034e+3, 2.7423155e+2, -316638.38, -391371.9, -0.1805613, 0.000019827541, -0.00020162051, -316638.38, -64107.855, 0.0, 10.000078, 9.9023485 
3.0450034e+3, 2.8412583e+2, -230165.31, -318078.3, 0.10559141, 0.00001978608, 0.00023069787, -230165.31, -74598.48, 0.0, 10.000078, 9.885403 
3.0450034e+3, 2.9401228e+2, -130459.78, -217762.55, -0.14392987, 0.000019746365, -0.00025180753, -130459.78, -71780.164, 0.0, 10.000078, 9.886181 
3.0450034e+3, 3.039267e+2, -40717.42, -84749.59, 0.13017303, 0.000019706551, 0.00017443999, -40717.42, -40717.42, 0.0, 10.000078, 9.942136 
3.0450034e+3, 3.138707e+2, -39639.63, -82510.87, -0.111703336, 0.000019666613, -0.00005424133, -39639.63, -39639.63, 0.0, 10.000078, 9.943646 
3.0550036e+3, 1.2499418e+2, -1719846.1, -1724217.0, 0.07503705, 0.0000213499, 0.000025531153, -1719846.1, -4789.063, 0.0, 10.000083, 9.9942875 
3.0550036e+3, 1.3498838e+2, -1622466.8, -1627428.1, -0.23838234, 0.00002114575, -0.00007296026, -1622466.8, -5352.9023, 0.0, 10.000082, 9.993505 
3.0550036e+3, 1.449759e+2, -1534365.3, -1548138.4, 0.012536744, 0.00002102291, 0.0000831789, -1534365.3, -15129.021, 0.0, 10.000082, 9.981826 
3.0550036e+3, 1.5495774e+2, -1436638.5, -1450814.8, -0.29977337, 0.000020977666, -0.000052807263, -1436638.5, -15224.391, 0.0, 10.000082, 9.981295 
3.0550036e+3, 1.6493295e+2, -1348588.5, -1371946.0, -0.009123216, 0.000020913027, 0.000048630292, -1348588.5, -24931.385, 0.0, 10.000081, 9.96921 
3.0550036e+3, 1.749022e+2, -1250631.4, -1274304.5, -0.31198663, 0.000020828607, -0.00007011257, -1250631.4, -24672.95, 0.0, 10.000081, 9.968796 
3.0550036e+3, 1.8486482e+2, -1162550.8, -1195714.3, -0.022091728, 0.00002074923, 0.000070587565, -1162550.8, -34225.992, 0.0, 10.000081, 9.956357 
3.0550033e+3, 1.9482121e+2, -1064401.9, -1097827.8, -0.32339215, 0.000020675106, -0.000054275344, -1064401.9, -33649.81, 0.0, 10.00008, 9.956014 
3.0550033e+3, 2.0477095e+2, -976238.5, -1019430.0, -0.031609766, 0.0000206032, 0.00007095692, -976238.5, -42993.703, 0.0, 10.00008, 9.943253 
3.0550033e+3, 2.1471423e+2, -877952.25, -921405.5, -0.32839957, 0.000020533684, -0.00012384485, -877952.25, -42151.742, 0.0, 10.00008, 9.942911 
3.0550033e+3, 2.2465083e+2, -789666.6, -843140.7, -0.028951999, 0.000020475369, 0.00012378475, -789666.6, -51244.754, 0.0, 10.000079, 9.92987 
3.0550033e+3, 2.3458077e+2, -691233.94, -744962.9, -0.30804643, 0.00002042971, -0.00008619604, -691233.94, -50125.387, 0.0, 10.000079, 9.929539 
3.0550033e+3, 2.4450375e+2, -602910.4, -667015.56, -0.006371309, 0.000020372205, 0.000077106284, -602910.4, -59047.133, 0.0, 10.000079, 9.916099 
3.0550033e+3, 2.5441998e+2, -504158.4, -568340.6, -0.28648353, 0.000020300517, -0.00010449447, -504158.4, -57474.125, 0.0, 10.000079, 9.915998 
3.0550033e+3, 2.643291e+2, -415923.5, -490985.7, 0.016490655, 0.000020245929, 0.00014265665, -415923.5, -66348.75, 0.0, 10.000079, 9.901927 
3.0550033e+3, 2.742316e+2, -316638.94, -391373.1, -0.24635349, 0.00002021311, -0.00020159304, -316638.94, -64108.504, 0.0, 10.000078, 9.902348 
3.0550033e+3, 2.8412583e+2, -230165.89, -318079.5, 0.051768444, 0.000020181407, 0.00023073028, -230165.89, -74599.11, 0.0, 10.000078, 9.885402 
3.0550033e+3, 2.940123e+2, -130460.35, -217763.72, -0.1966815, 0.000020151101, -0.00025176394, -130460.35, -71780.78, 0.0, 10.000078, 9.88618 
3.0550033e+3, 3.039267e+2, -40718.0, -84750.8, 0.094623685, 0.000020105326, 0.00017448173, -40718.0, -40718.0, 0.0, 10.000078, 9.942135 
3.0550033e+3, 3.138707e+2, -39640.21, -82512.08, -0.14523828, 0.00002003661, -0.000054220858, -39640.21, -39640.21, 0.0, 10.000078, 9.9436455 
3.0650038e+3, 1.249942e+2, -1719841.0, -1724215.3, 0.22618052, 0.000021768203, 0.000025696196, -1719841.0, -4784.086, 0.0, 10.000087, 9.994287 
3.0650038e+3, 1.349884e+2, -1622461.6, -1627426.5, -0.11128396, 0.00002156516, -0.00007309073, -1622461.6, -5347.985, 0.0, 10.000086, 9.993505 
3.0650038e+3, 1.4497592e+2, -1534360.1, -1548136.6, 0.13306846, 0.000021442025, 0.000083477345, -1534360.1, -15124.124, 0.0, 10.000086, 9.981825 
3.0650038e+3, 1.5495776e+2, -1436633.5, -1450813.0, -0.17510286, 0.000021394997, -0.000052733674, -1436633.5, -15219.544, 0.0, 10.000085, 9.981294 
3.0650038e+3, 1.6493297e+2, -1348583.5, -1371944.4, 0.11930539, 0.000021327582, 0.00004862911, -1348583.5, -24926.58, 0.0, 10.000085, 9.969209 
3.0650038e+3, 1.7490222e+2, -1250626.5, -1274302.9, -0.20599157, 0.000021239375, -0.00007003523, -1250626.5, -24668.17, 0.0, 10.000085, 9.968795 
3.0650038e+3, 1.8486483e+2, -1162545.9, -1195712.6, 0.08228658, 0.000021158092, 0.00007068826, -1162545.9, -34221.23, 0.0, 10.000084, 9.956356 
3.0650038e+3, 1.9482122e+2, -1064397.1, -1097826.1, -0.2265462, 0.000021084026, -0.000054209035, -1064397.1, -33645.098, 0.0, 10.000084, 9.956014 
3.0650038e+3, 2.0477095e+2, -976233.7, -1019428.5, 0.06865718, 0.000021011083, 0.00007100827, -976233.7, -42989.027, 0.0, 10.000084, 9.943252 
3.0650038e+3, 2.1471424e+2, -877947.5, -921404.0, -0.23415206, 0.000020939346, -0.00012378742, -877947.5, -42147.1, 0.0, 10.000083, 9.942911 
3.0650038e+3, 2.2465083e+2, -789661.94, -843139.25, 0.06230289, 0.000020879179, 0.00012384268, -789661.94, -51240.133, 0.0, 10.000083, 9.92987 
3.0650038e+3, 2.3458079e+2, -691229.25, -744961.44, -0.24059728, 0.000020832089, -0.000086143875, -691229.25, -50120.797, 0.0, 10.000083, 9.929538 
3.0650038e+3, 2.4450375e+2, -602905.7, -667014.1, 0.06116924, 0.000020773497, 0.000077155644, -602905.7, -59042.566, 0.0, 10.000083, 9.916098 
3.0650038e+3, 2.5441998e+2, -504153.78, -568339.25, -0.22105901, 0.000020701138, -0.000104444385, -504153.78, -57469.6, 0.0, 10.000082, 9.9159975 
3.0650038e+3, 2.643291e+2, -415918.94, -490984.3, 0.08376705, 0.000020645517, 0.00014270355, -415918.94, -66344.26, 0.0, 10.000082, 9.901926 
3.0650035e+3, 2.742316e+2, -316634.4, -391371.78, -0.19381799, 0.000020611207, -0.00020155429, -316634.4, -64104.04, 0.0, 10.000082, 9.902347 
3.0650035e+3, 2.8412586e+2, -230161.38, -318078.16, 0.10398588, 0.000020577829, 0.00023076395, -230161.38, -74594.65, 0.0, 10.000082, 9.885401 
3.0650035e+3, 2.940123e+2, -130455.86, -217762.42, -0.15530373, 0.000020545598, -0.00025173114, -130455.86, -71776.34, 0.0, 10.000082, 9.886179 
3.0650035e+3, 3.039267e+2, -40713.59, -84749.586, 0.13881283, 0.000020499423, 0.00017451239, -40713.59, -40713.59, 0.0, 10.000082, 9.942134 
3.0650035e+3, 3.138707e+2, -39635.836, -82510.88, -0.104980044, 0.00002043257, -0.000054194225, -39635.836, -39635.836, 0.0, 10.000081, 9.9436455 
3.075004e+3, 1.2499422e+2, -1719841.8, -1724216.8, 0.079065, 0.000022176982, 0.000025843045, -1719841.8, -4785.0522, 0.0, 10.000087, 9.994286 
3.075004e+3, 1.3498841e+2, -1622462.5, -1627427.9, -0.2584175, 0.0000219991, -0.00007321335, -1622462.5, -5348.9346, 0.0, 10.000086, 9.993504 
3.0750036e+3, 1.4497593e+2, -1534360.9, -1548138.0, -0.010486486, 0.000021881706, 0.000083796964, -1534360.9, -15124.997, 0.0, 10.000086, 9.981824 
3.0750036e+3, 1.5495779e+2, -1436634.3, -1450814.4, -0.3186625, 0.000021820806, -0.000052669522, -1436634.3, -15220.399, 0.0, 10.000085, 9.981293 
3.0750036e+3, 1.6493298e+2, -1348584.3, -1371945.8, -0.008798618, 0.000021745518, 0.000048612874, -1348584.3, -24927.46, 0.0, 10.000085, 9.969208 
3.0750036e+3, 1.7490223e+2, -1250627.3, -1274304.3, -0.33401853, 0.00002165557, -0.000069953036, -1250627.3, -24669.035, 0.0, 10.000085, 9.968794 
3.0750036e+3, 1.8486485e+2, -1162546.6, -1195714.0, -0.035939183, 0.000021573052, 0.00007079765, -1162546.6, -34222.05, 0.0, 10.000084, 9.956355 
3.0750036e+3, 1.9482124e+2, -1064397.8, -1097827.5, -0.3446663, 0.000021498283, -0.000054146993, -1064397.8, -33645.902, 0.0, 10.000084, 9.956013 
3.0750036e+3, 2.0477097e+2, -976234.3, -1019429.75, -0.03761787, 0.000021427892, 0.00007105687, -976234.3, -42989.816, 0.0, 10.000084, 9.943251 
3.0750036e+3, 2.1471424e+2, -877948.2, -921405.3, -0.34019235, 0.000021362224, -0.00012371554, -877948.2, -42147.875, 0.0, 10.000083, 9.94291 
3.0750036e+3, 2.2465084e+2, -789662.56, -843140.56, -0.032014064, 0.000021294978, 0.0001239148, -789662.56, -51240.906, 0.0, 10.000083, 9.929869 
3.0750036e+3, 2.3458079e+2, -691229.9, -744962.7, -0.33453256, 0.00002122592, -0.000086097665, -691229.9, -50121.55, 0.0, 10.000083, 9.929537 
3.0750036e+3, 2.4450377e+2, -602906.3, -667015.4, -0.020186862, 0.000021166063, 0.000077197205, -602906.3, -59043.285, 0.0, 10.000083, 9.916097 
3.0750036e+3, 2.5441998e+2, -504154.4, -568340.5, -0.3018232, 0.000021117174, -0.00010438205, -504154.4, -57470.305, 0.0, 10.000082, 9.915997 
3.0750036e+3, 2.6432914e+2, -415919.56, -490985.6, 0.0142785115, 0.00002106904, 0.00014277021, -415919.56, -66344.95, 0.0, 10.000082, 9.901926 
3.0750036e+3, 2.742316e+2, -316635.03, -391373.03, -0.26255623, 0.00002102182, -0.00020150428, -316635.03, -64104.723, 0.0, 10.000082, 9.902346 
3.0750036e+3, 2.8412586e+2, -230161.97, -318079.4, 0.04982097, 0.00002097535, 0.00023079885, -230161.97, -74595.31, 0.0, 10.000082, 9.8854 
3.0750036e+3, 2.940123e+2, -130456.45, -217763.66, -0.20816253, 0.000020929878, -0.0002517091, -130456.45, -71776.984, 0.0, 10.000082, 9.886178 
3.0750036e+3, 3.039267e+2, -40714.18, -84750.81, 0.09506124, 0.000020888854, 0.00017453202, -40714.18, -40714.18, 0.0, 10.000082, 9.942133 
3.0750036e+3, 3.1387073e+2, -39636.426, -82512.11, -0.14767437, 0.000020854462, -0.000054161443, -39636.426, -39636.426, 0.0, 10.000081, 9.943645 
3.0850038e+3, 1.2499424e+2, -1719836.4, -1724214.9, 0.24093507, 0.00002260646, 0.000026029853, -1719836.4, -4779.847, 0.0, 10.000091, 9.994285 
3.0850038e+3, 1.3498843e+2, -1622457.1, -1627426.1, -0.09923552, 0.000022437283, -0.00007338056, -1622457.1, -5343.844, 0.0, 10.00009, 9.993503 
3.0850038e+3, 1.4497595e+2, -1534355.6, -1548136.1, 0.14988261, 0.000022321055, 0.000084077554, -1534355.6, -15119.931, 0.0, 10.00009, 9.981824 
3.0850038e+3, 1.549578e+2, -1436629.0, -1450812.6, -0.18501517, 0.000022253664, -0.00005257868, -1436629.0, -15215.346, 0.0, 10.000089, 9.981292 
3.0850038e+3, 1.64933e+2, -1348579.1, -1371944.0, 0.1211664, 0.0000221726, 0.000048632435, -1348579.1, -24922.447, 0.0, 10.000089, 9.969207 
3.0850038e+3, 1.7490225e+2, -1250622.1, -1274302.5, -0.20953417, 0.000022077607, -0.00006988375, -1250622.1, -24664.066, 0.0, 10.000089, 9.968793 
3.0850038e+3, 1.8486486e+2, -1162541.5, -1195712.3, 0.087242246, 0.000021994634, 0.00007088393, -1162541.5, -34217.105, 0.0, 10.000088, 9.956354 
3.0850038e+3, 1.9482125e+2, -1064392.8, -1097825.9, -0.23728175, 0.000021924212, -0.000054078027, -1064392.8, -33641.01, 0.0, 10.000088, 9.956012 
3.0850038e+3, 2.0477098e+2, -976229.4, -1019428.2, 0.06721528, 0.000021853355, 0.000071118775, -976229.4, -42984.957, 0.0, 10.000088, 9.94325 
3.0850038e+3, 2.1471426e+2, -877943.25, -921403.75, -0.25507376, 0.000021782012, -0.00012364959, -877943.25, -42143.047, 0.0, 10.000087, 9.942909 
3.0850038e+3, 2.2465086e+2, -789657.7, -843139.0, 0.054244466, 0.000021711041, 0.000123978, -789657.7, -51236.094, 0.0, 10.000087, 9.929868 
3.0850038e+3, 2.345808e+2, -691225.0, -744961.2, -0.2456854, 0.00002164047, -0.000086044914, -691225.0, -50116.78, 0.0, 10.000087, 9.929537 
3.0850038e+3, 2.4450378e+2, -602901.5, -667013.94, 0.07127621, 0.000021580596, 0.00007724452, -602901.5, -59038.547, 0.0, 10.000086, 9.916096 
3.0850038e+3, 2.5442e+2, -504149.63, -568339.06, -0.23561805, 0.000021533479, -0.00010433419, -504149.63, -57465.605, 0.0, 10.000086, 9.915997 
3.0850038e+3, 2.6432914e+2, -415914.8, -490984.2, 0.076056615, 0.000021484026, 0.00014281743, -415914.8, -66340.28, 0.0, 10.000086, 9.901925 
3.0850038e+3, 2.742316e+2, -316630.3, -391371.66, -0.20760657, 0.00002143155, -0.00020145925, -316630.3, -64100.066, 0.0, 10.000086, 9.902345 
3.0850038e+3, 2.8412586e+2, -230157.28, -318078.03, 0.10872465, 0.000021383064, 0.0002308405, -230157.28, -74590.67, 0.0, 10.000086, 9.885399 
3.0850038e+3, 2.940123e+2, -130451.805, -217762.31, -0.15790272, 0.000021340027, -0.0002516725, -130451.805, -71772.39, 0.0, 10.000085, 9.886178 
3.0850038e+3, 3.039267e+2, -40709.617, -84749.57, 0.14216676, 0.00002129918, 0.00017456355, -40709.617, -40709.617, 0.0, 10.000085, 9.942132 
3.0850038e+3, 3.1387073e+2, -39631.86, -82510.87, -0.12300887, 0.00002126157, -0.00005413499, -39631.86, -39631.86, 0.0, 10.000085, 9.943644 
3.095004e+3, 1.2499426e+2, -1719837.1, -1724216.3, 0.07161496, 0.000023056613, 0.000026257816, -1719837.1, -4780.828, 0.0, 10.000091, 9.994284 
3.095004e+3, 1.3498846e+2, -1622458.0, -1627427.6, -0.2685792, 0.00002287971, -0.00007359229, -1622458.0, -5344.807, 0.0, 10.00009, 9.993502 
3.095004e+3, 1.4497596e+2, -1534356.4, -1548137.6, 0.007254083, 0.00002276008, 0.00008431917, -1534356.4, -15120.872, 0.0, 10.00009, 9.981823 
3.095004e+3, 1.5495782e+2, -1436629.8, -1450814.0, -0.32761157, 0.000022693566, -0.000052461193, -1436629.8, -15216.27, 0.0, 10.000089, 9.981291 
3.095004e+3, 1.6493301e+2, -1348579.9, -1371945.4, -0.012979151, 0.000022608818, 0.000048687736, -1348579.9, -24923.35, 0.0, 10.000089, 9.969206 
3.095004e+3, 1.7490226e+2, -1250622.8, -1274304.0, -0.3436392, 0.000022505481, -0.00006982733, -1250622.8, -24664.951, 0.0, 10.000089, 9.968792 
3.095004e+3, 1.8486486e+2, -1162542.3, -1195713.6, -0.039303157, 0.000022422833, 0.00007094712, -1162542.3, -34217.97, 0.0, 10.000088, 9.956354 
3.095004e+3, 1.9482127e+2, -1064393.4, -1097827.3, -0.3637488, 0.000022361803, -0.00005400215, -1064393.4, -33641.855, 0.0, 10.000088, 9.956011 
3.095004e+3, 2.04771e+2, -976230.06, -1019429.56, -0.04157201, 0.00002228747, 0.000071193965, -976230.06, -42985.793, 0.0, 10.000088, 9.943249 
3.095004e+3, 2.1471427e+2, -877943.94, -921405.1, -0.36350006, 0.000022198721, -0.00012358955, -877943.94, -42143.863, 0.0, 10.000087, 9.942908 
3.095004e+3, 2.2465087e+2, -789658.3, -843140.3, -0.04542259, 0.000022127377, 0.00012403232, -789658.3, -51236.867, 0.0, 10.000087, 9.929867 
3.095004e+3, 2.3458081e+2, -691225.7, -744962.5, -0.34508032, 0.000022075714, -0.000085985615, -691225.7, -50117.535, 0.0, 10.000087, 9.929536 
3.095004e+3, 2.4450378e+2, -602902.2, -667015.3, -0.015364732, 0.000022017073, 0.00007729758, -602902.2, -59039.32, 0.0, 10.000086, 9.916095 
3.095004e+3, 2.5442e+2, -504150.3, -568340.44, -0.32164738, 0.000021950058, -0.00010430077, -504150.3, -57466.363, 0.0, 10.000086, 9.915996 
3.095004e+3, 2.6432914e+2, -415915.44, -490985.47, 0.0048867464, 0.000021890495, 0.00014284522, -415915.44, -66341.0, 0.0, 10.000086, 9.901924 
3.095004e+3, 2.742316e+2, -316630.94, -391372.94, -0.27779216, 0.000021840407, -0.00020141919, -316630.94, -64100.77, 0.0, 10.000086, 9.902344 
3.0950037e+3, 2.8412586e+2, -230157.89, -318079.3, 0.04808913, 0.000021800963, 0.00023088887, -230157.89, -74591.35, 0.0, 10.000086, 9.885398 
3.0950037e+3, 2.940123e+2, -130452.414, -217763.58, -0.217687, 0.000021776015, -0.00025162133, -130452.414, -71773.055, 0.0, 10.000085, 9.886177 
3.0950037e+3, 3.039267e+2, -40710.25, -84750.88, 0.10014892, 0.000021730375, 0.000174607, -40710.25, -40710.25, 0.0, 10.000085, 9.942131 
3.0950037e+3, 3.1387073e+2, -39632.492, -82512.195, -0.16294281, 0.000021653921, -0.00005411486, -39632.492, -39632.492, 0.0, 10.000085, 9.943643 
3.105004e+3, 1.2499428e+2, -1719831.6, -1724214.4, 0.23394305, 0.000023518845, 0.000026439662, -1719831.6, -4775.511, 0.0, 10.000094, 9.994283 
3.105004e+3, 1.3498849e+2, -1622452.4, -1627425.6, -0.1158556, 0.000023328152, -0.00007375609, -1622452.4, -5339.4614, 0.0, 10.000093, 9.993501 
3.105004e+3, 1.44976e+2, -1534350.9, -1548135.8, 0.16034634, 0.000023201323, 0.00008462633, -1534350.9, -15115.547, 0.0, 10.000093, 9.981822 
3.105004e+3, 1.5495783e+2, -1436624.4, -1450812.3, -0.19408359, 0.000023134187, -0.00005236566, -1436624.4, -15211.019, 0.0, 10.0000925, 9.98129 
3.1050038e+3, 1.6493303e+2, -1348574.4, -1371943.6, 0.118401125, 0.000023051642, 0.000048704213, -1348574.4, -24918.137, 0.0, 10.0000925, 9.969205 
3.1050038e+3, 1.7490229e+2, -1250617.5, -1274302.3, -0.22030644, 0.00002295339, -0.000069754504, -1250617.5, -24659.791, 0.0, 10.0000925, 9.968792 
3.1050038e+3, 1.8486488e+2, -1162536.9, -1195712.0, 0.08308398, 0.00002286706, 0.000071041475, -1162536.9, -34212.844, 0.0, 10.000092, 9.956353 
3.1050038e+3, 1.9482128e+2, -1064388.3, -1097825.5, -0.2589525, 0.000022793167, -0.00005392269, -1064388.3, -33636.754, 0.0, 10.000092, 9.95601 
3.1050038e+3, 2.0477101e+2, -976224.9, -1019427.9, 0.0659556, 0.000022716833, 0.000071261275, -976224.9, -42980.715, 0.0, 10.000091, 9.943249 
3.1050038e+3, 2.1471429e+2, -877938.8, -921403.5, -0.25758606, 0.000022637847, -0.00012353141, -877938.8, -42138.85, 0.0, 10.000091, 9.942907 
3.1050038e+3, 2.2465087e+2, -789653.25, -843138.7, 0.059679337, 0.000022567232, 0.0001240893, -789653.25, -51231.89, 0.0, 10.000091, 9.929866 
3.1050038e+3, 2.3458081e+2, -691220.6, -744960.94, -0.26998073, 0.000022506074, -0.00008592072, -691220.6, -50112.586, 0.0, 10.000091, 9.929535 
3.1050038e+3, 2.445038e+2, -602897.1, -667013.75, 0.05693677, 0.000022442999, 0.00007736077, -602897.1, -59034.387, 0.0, 10.00009, 9.916094 
3.1050038e+3, 2.5442e+2, -504145.3, -568338.94, -0.24368626, 0.00002237761, -0.00010425077, -504145.3, -57461.47, 0.0, 10.00009, 9.915995 
3.1050038e+3, 2.6432914e+2, -415910.5, -490984.0, 0.0906741, 0.000022318896, 0.00014288691, -415910.5, -66336.13, 0.0, 10.00009, 9.901923 
3.1050038e+3, 2.7423164e+2, -316626.06, -391371.5, -0.21297699, 0.000022268654, -0.0002013796, -316626.06, -64095.95, 0.0, 10.00009, 9.902343 
3.1050038e+3, 2.8412586e+2, -230153.02, -318077.88, 0.10640209, 0.000022227021, 0.00023092897, -230153.02, -74586.54, 0.0, 10.000089, 9.885398 
3.1050038e+3, 2.940123e+2, -130447.57, -217762.19, -0.17435549, 0.000022197097, -0.00025157712, -130447.57, -71768.266, 0.0, 10.000089, 9.886176 
3.1050038e+3, 3.039267e+2, -40705.49, -84749.57, 0.14782605, 0.000022150642, 0.00017464551, -40705.49, -40705.49, 0.0, 10.000089, 9.94213 
3.1050038e+3, 3.1387073e+2, -39627.777, -82510.91, -0.10844111, 0.000022079574, -0.000054096614, -39627.777, -39627.777, 0.0, 10.000089, 9.943642 
3.115004e+3, 1.249943e+2, -1719832.4, -1724215.9, 0.076217696, 0.000023993152, 0.000026577147, -1719832.4, -4776.522, 0.0, 10.000094, 9.994282 
3.115004e+3, 1.349885e+2, -1622453.3, -1627427.1, -0.27360925, 0.000023782608, -0.00007387204, -1622453.3, -5340.4556, 0.0, 10.000093, 9.9935 
3.115004e+3, 1.4497602e+2, -1534351.6, -1548137.3, 0.0043741134, 0.000023644792, 0.00008499893, -1534351.6, -15116.541, 0.0, 10.000093, 9.981821 
3.115004e+3, 1.5495785e+2, -1436625.1, -1450813.8, -0.35004994, 0.000023575532, -0.00005229205, -1436625.1, -15211.992, 0.0, 10.0000925, 9.981289 
3.115004e+3, 1.6493304e+2, -1348575.3, -1371945.0, -0.023789011, 0.000023501067, 0.000048681923, -1348575.3, -24919.063, 0.0, 10.0000925, 9.969204 
3.115004e+3, 1.749023e+2, -1250618.3, -1274303.6, -0.36243463, 0.000023421311, -0.0000696653, -1250618.3, -24660.701, 0.0, 10.0000925, 9.968791 
3.115004e+3, 1.8486491e+2, -1162537.6, -1195713.4, -0.044149473, 0.000023327297, 0.000071166956, -1162537.6, -34213.75, 0.0, 10.000092, 9.956352 
3.115004e+3, 1.948213e+2, -1064388.9, -1097827.0, -0.386018, 0.000023218321, -0.000053839653, -1064388.9, -33637.64, 0.0, 10.000092, 9.956009 
3.115004e+3, 2.0477103e+2, -976225.56, -1019429.3, -0.054221816, 0.000023141461, 0.000071320705, -976225.56, -42981.563, 0.0, 10.000091, 9.943248 
3.115004e+3, 2.147143e+2, -877939.5, -921404.9, -0.37763554, 0.000023099363, -0.00012347515, -877939.5, -42139.68, 0.0, 10.000091, 9.942906 
3.115004e+3, 2.2465089e+2, -789653.94, -843140.1, -0.041346405, 0.00002303058, 0.00012414897, -789653.94, -51232.73, 0.0, 10.000091, 9.929865 
3.115004e+3, 2.3458083e+2, -691221.3, -744962.4, -0.3703867, 0.000022931563, -0.000085850246, -691221.3, -50113.406, 0.0, 10.000091, 9.929534 
3.115004e+3, 2.4450381e+2, -602897.8, -667015.06, -0.034182087, 0.000022858401, 0.00007743407, -602897.8, -59035.156, 0.0, 10.00009, 9.916094 
3.115004e+3, 2.5442004e+2, -504145.97, -568340.25, -0.3343742, 0.000022816124, -0.000104184204, -504145.97, -57462.22, 0.0, 10.00009, 9.915994 
3.115004e+3, 2.6432917e+2, -415911.2, -490985.4, 0.013300276, 0.000022769203, 0.00014294246, -415911.2, -66336.9, 0.0, 10.00009, 9.901922 
3.115004e+3, 2.7423164e+2, -316626.72, -391372.88, -0.2894615, 0.000022716273, -0.0002013405, -316626.72, -64096.695, 0.0, 10.00009, 9.902342 
3.115004e+3, 2.841259e+2, -230153.67, -318079.22, 0.045441985, 0.000022661232, 0.00023096082, -230153.67, -74587.26, 0.0, 10.000089, 9.885397 
3.115004e+3, 2.9401234e+2, -130448.21, -217763.52, -0.2339256, 0.000022603304, -0.0002515399, -130448.21, -71768.96, 0.0, 10.000089, 9.886175 
3.115004e+3, 3.0392674e+2, -40706.113, -84750.875, 0.09617504, 0.000022560003, 0.00017467907, -40706.113, -40706.113, 0.0, 10.000089, 9.942129 
3.115004e+3, 3.1387073e+2, -39628.402, -82512.21, -0.15917873, 0.000022538483, -0.000054080254, -39628.402, -39628.402, 0.0, 10.000089, 9.943641 
3.1250045e+3, 1.2499432e+2, -1719826.6, -1724213.9, 0.260463, 0.00002446265, 0.000026754684, -1719826.6, -4770.91, 0.0, 10.000098, 9.994281 
3.1250042e+3, 1.3498853e+2, -1622447.5, -1627425.3, -0.12396972, 0.000024242965, -0.00007401833, -1622447.5, -5334.9326, 0.0, 10.000097, 9.993499 
3.1250042e+3, 1.4497603e+2, -1534346.0, -1548135.3, 0.14905953, 0.000024103118, 0.00008533896, -1534346.0, -15111.04, 0.0, 10.000097, 9.98182 
3.1250042e+3, 1.5495788e+2, -1436619.5, -1450811.8, -0.19872835, 0.000024038909, -0.000052213152, -1436619.5, -15206.521, 0.0, 10.000097, 9.981288 
3.1250042e+3, 1.6493307e+2, -1348569.6, -1371943.1, 0.12845273, 0.000023963421, 0.00004867621, -1348569.6, -24913.635, 0.0, 10.000096, 9.969203 
3.1250042e+3, 1.7490232e+2, -1250612.8, -1274301.9, -0.23661038, 0.000023876444, -0.000069575304, -1250612.8, -24655.338, 0.0, 10.000096, 9.96879 
3.1250042e+3, 1.8486492e+2, -1162532.3, -1195711.6, 0.08425146, 0.000023780884, 0.00007128353, -1162532.3, -34208.42, 0.0, 10.000095, 9.956351 
3.1250042e+3, 1.9482131e+2, -1064383.5, -1097825.3, -0.26062557, 0.000023676292, -0.00005376886, -1064383.5, -33632.36, 0.0, 10.000095, 9.956008 
3.1250042e+3, 2.0477104e+2, -976220.2, -1019427.56, 0.06694765, 0.00002359687, 0.000071375056, -976220.2, -42976.3, 0.0, 10.000095, 9.943247 
3.1250042e+3, 2.1471432e+2, -877934.1, -921403.2, -0.28197104, 0.000023544688, -0.00012340545, -877934.1, -42134.45, 0.0, 10.000094, 9.942905 
3.1250042e+3, 2.246509e+2, -789648.6, -843138.5, 0.057037506, 0.000023473693, 0.0001242209, -789648.6, -51227.527, 0.0, 10.000094, 9.929864 
3.1250042e+3, 2.3458084e+2, -691216.06, -744960.75, -0.26937518, 0.000023381375, -0.00008579093, -691216.06, -50108.266, 0.0, 10.000094, 9.929533 
3.1250042e+3, 2.4450381e+2, -602892.6, -667013.5, 0.06691467, 0.000023308672, 0.000077488156, -602892.6, -59030.047, 0.0, 10.000093, 9.916093 
3.1250042e+3, 2.5442004e+2, -504140.8, -568338.7, -0.26430565, 0.000023259394, -0.000104126506, -504140.8, -57457.14, 0.0, 10.000093, 9.915993 
3.1250042e+3, 2.6432917e+2, -415906.06, -490983.88, 0.07883925, 0.000023209192, 0.00014299799, -415906.06, -66331.84, 0.0, 10.000093, 9.901921 
3.1250042e+3, 2.7423164e+2, -316621.63, -391371.4, -0.22350454, 0.000023157729, -0.00020129453, -316621.63, -64091.676, 0.0, 10.000093, 9.902341 
3.1250042e+3, 2.841259e+2, -230148.61, -318077.75, 0.120146945, 0.000023103055, 0.00023100077, -230148.61, -74582.26, 0.0, 10.0000925, 9.885396 
3.1250042e+3, 2.9401234e+2, -130443.2, -217762.08, -0.17034295, 0.000023043967, -0.00025150116, -130443.2, -71764.016, 0.0, 10.0000925, 9.886174 
3.1250042e+3, 3.0392674e+2, -40701.188, -84749.52, 0.1503631, 0.000022996912, 0.00017471808, -40701.188, -40701.188, 0.0, 10.0000925, 9.942128 
3.1250042e+3, 3.1387073e+2, -39623.47, -82510.86, -0.13653894, 0.000022967797, -0.000054038846, -39623.47, -39623.47, 0.0, 10.0000925, 9.94364 
3.1350043e+3, 1.24994345e+2, -1719827.5, -1724215.5, 0.086861804, 0.000024927345, 0.000026973767, -1719827.5, -4772.0103, 0.0, 10.000098, 9.99428 
3.1350043e+3, 1.3498855e+2, -1622448.4, -1627426.9, -0.29758656, 0.000024709218, -0.00007419493, -1622448.4, -5336.0137, 0.0, 10.000097, 9.993498 
3.1350043e+3, 1.4497605e+2, -1534346.8, -1548136.8, -0.009537948, 0.00002457628, 0.00008564647, -1534346.8, -15112.026, 0.0, 10.000097, 9.981819 
3.1350043e+3, 1.5495789e+2, -1436620.3, -1450813.3, -0.35731456, 0.000024524288, -0.000052128977, -1436620.3, -15207.488, 0.0, 10.000097, 9.981287 
3.1350043e+3, 1.6493309e+2, -1348570.4, -1371944.8, -0.024012968, 0.000024438688, 0.00004868704, -1348570.4, -24914.627, 0.0, 10.000096, 9.969202 
3.1350043e+3, 1.7490233e+2, -1250613.5, -1274303.4, -0.3890478, 0.00002431882, -0.00006948452, -1250613.5, -24656.313, 0.0, 10.000096, 9.968789 
3.135004e+3, 1.8486494e+2, -1162533.0, -1195713.1, -0.048990536, 0.000024227842, 0.0000713912, -1162533.0, -34209.344, 0.0, 10.000095, 9.95635 
3.135004e+3, 1.9482133e+2, -1064384.3, -1097826.8, -0.39365765, 0.000024167033, -0.000053710286, -1064384.3, -33633.26, 0.0, 10.000095, 9.956007 
3.135004e+3, 2.0477106e+2, -976220.94, -1019429.06, -0.05470069, 0.000024083016, 0.00007142434, -976220.94, -42977.207, 0.0, 10.000095, 9.943246 
3.135004e+3, 2.1471432e+2, -877934.9, -921404.7, -0.40338752, 0.000023973858, -0.00012332233, -877934.9, -42135.336, 0.0, 10.000094, 9.942904 
3.135004e+3, 2.2465092e+2, -789649.4, -843139.9, -0.053732503, 0.000023896613, 0.0001243051, -789649.4, -51228.367, 0.0, 10.000094, 9.929863 
3.135004e+3, 2.3458086e+2, -691216.75, -744962.2, -0.37981105, 0.000023855477, -0.00008574276, -691216.75, -50109.09, 0.0, 10.000094, 9.929532 
3.135004e+3, 2.4450383e+2, -602893.3, -667014.94, -0.02727418, 0.000023793764, 0.00007752305, -602893.3, -59030.88, 0.0, 10.000093, 9.916092 
3.135004e+3, 2.5442004e+2, -504141.53, -568340.1, -0.35771573, 0.00002370742, -0.00010407767, -504141.53, -57457.957, 0.0, 10.000093, 9.915992 
3.135004e+3, 2.6432917e+2, -415906.75, -490985.25, -0.0019162869, 0.000023638884, 0.00014305349, -415906.75, -66332.61, 0.0, 10.000093, 9.90192 
3.135004e+3, 2.7423164e+2, -316622.3, -391372.78, -0.30342644, 0.00002359304, -0.00020124167, -316622.3, -64092.426, 0.0, 10.000093, 9.90234 
3.135004e+3, 2.841259e+2, -230149.28, -318079.13, 0.05204925, 0.000023552486, 0.0002310488, -230149.28, -74583.0, 0.0, 10.0000925, 9.885395 
3.135004e+3, 2.9401234e+2, -130443.87, -217763.45, -0.23738411, 0.000023519038, -0.00025146088, -130443.87, -71764.734, 0.0, 10.0000925, 9.886173 
3.135004e+3, 3.0392674e+2, -40701.87, -84750.945, 0.100640014, 0.000023461329, 0.00017476254, -40701.87, -40701.87, 0.0, 10.0000925, 9.942127 
3.135004e+3, 3.1387073e+2, -39624.156, -82512.29, -0.18423319, 0.000023367573, -0.000053972428, -39624.156, -39624.156, 0.0, 10.0000925, 9.943639 
3.1450045e+3, 1.2499437e+2, -1719821.5, -1724213.5, 0.25115702, 0.000025406443, 0.00002718506, -1719821.5, -4766.208, 0.0, 10.000102, 9.994279 
3.1450045e+3, 1.3498856e+2, -1622442.4, -1627424.9, -0.12549958, 0.000025191497, -0.00007436619, -1622442.4, -5330.253, 0.0, 10.000102, 9.993497 
3.1450045e+3, 1.4497608e+2, -1534340.9, -1548134.8, 0.16331688, 0.000025058906, 0.0000859795, -1534340.9, -15106.285, 0.0, 10.000101, 9.981818 
3.1450045e+3, 1.549579e+2, -1436614.4, -1450811.3, -0.21125507, 0.000025004314, -0.00005203312, -1436614.4, -15201.834, 0.0, 10.000101, 9.981286 
3.1450045e+3, 1.649331e+2, -1348564.6, -1371942.9, 0.12236368, 0.000024914758, 0.000048699072, -1348564.6, -24909.03, 0.0, 10.0001, 9.969201 
3.1450045e+3, 1.7490235e+2, -1250607.8, -1274301.5, -0.2474175, 0.000024789546, -0.00006939964, -1250607.8, -24650.723, 0.0, 10.0001, 9.968788 
3.1450045e+3, 1.8486495e+2, -1162527.3, -1195711.3, 0.09126441, 0.00002469712, 0.000071501054, -1162527.3, -34203.77, 0.0, 10.0001, 9.956349 
3.1450045e+3, 1.9482134e+2, -1064378.6, -1097824.9, -0.2755804, 0.000024638946, -0.000053625557, -1064378.6, -33627.76, 0.0, 10.000099, 9.956006 
3.1450045e+3, 2.0477106e+2, -976215.3, -1019427.25, 0.06727957, 0.00002455382, 0.0000714953, -976215.3, -42971.758, 0.0, 10.000099, 9.943245 
3.1450045e+3, 2.1471433e+2, -877929.4, -921402.94, -0.282552, 0.000024439492, -0.00012325283, -877929.4, -42129.92, 0.0, 10.000099, 9.9429035 
3.1450045e+3, 2.2465093e+2, -789643.8, -843138.2, 0.065368176, 0.000024359677, 0.00012437353, -789643.8, -51222.98, 0.0, 10.000098, 9.929862 
3.1450045e+3, 2.3458086e+2, -691211.3, -744960.5, -0.28807512, 0.000024318908, -0.00008567491, -691211.3, -50103.73, 0.0, 10.000098, 9.929531 
3.1450045e+3, 2.4450384e+2, -602887.94, -667013.3, 0.06536049, 0.000024255864, 0.00007758598, -602887.94, -59025.55, 0.0, 10.000098, 9.916091 
3.1450042e+3, 2.5442007e+2, -504136.16, -568338.5, -0.2619292, 0.000024166156, -0.000104024824, -504136.16, -57452.676, 0.0, 10.000097, 9.915991 
3.1450042e+3, 2.643292e+2, -415901.4, -490983.66, 0.097035825, 0.000024095592, 0.00014310262, -415901.4, -66327.36, 0.0, 10.000097, 9.901919 
3.1450042e+3, 2.7423167e+2, -316617.03, -391371.22, -0.23144619, 0.000024049425, -0.00020118814, -316617.03, -64087.215, 0.0, 10.000097, 9.902339 
3.1450042e+3, 2.841259e+2, -230144.02, -318077.6, 0.11570999, 0.000024008323, 0.00023110204, -230144.02, -74577.805, 0.0, 10.000097, 9.885394 
3.1450042e+3, 2.9401234e+2, -130438.64, -217761.95, -0.18660724, 0.00002397401, -0.0002514144, -130438.64, -71759.57, 0.0, 10.000096, 9.886172 
3.1450042e+3, 3.0392674e+2, -40696.74, -84749.55, 0.15691166, 0.000023912387, 0.00017480133, -40696.74, -40696.74, 0.0, 10.000096, 9.942126 
3.1450042e+3, 3.1387073e+2, -39619.05, -82510.9, -0.12658958, 0.000023810206, -0.000053942582, -39619.05, -39619.05, 0.0, 10.000096, 9.943638 
3.1550047e+3, 1.2499439e+2, -1719822.4, -1724215.1, 0.07285205, 0.000025899917, 0.000027391328, -1719822.4, -4767.299, 0.0, 10.000102, 9.994278 
3.1550047e+3, 1.3498859e+2, -1622443.3, -1627426.5, -0.3038323, 0.000025689782, -0.000074532094, -1622443.3, -5331.325, 0.0, 10.000102, 9.993496 
3.1550047e+3, 1.449761e+2, -1534341.6, -1548136.4, -0.01111978, 0.000025550984, 0.00008633802, -1534341.6, -15107.342, 0.0, 10.000101, 9.981817 
3.1550047e+3, 1.5495794e+2, -1436615.3, -1450812.9, -0.38568982, 0.000025479005, -0.0000519256, -1436615.3, -15202.87, 0.0, 10.000101, 9.981285 
3.1550044e+3, 1.6493312e+2, -1348565.5, -1371944.4, -0.027129235, 0.000025391633, 0.000048712303, -1348565.5, -24910.04, 0.0, 10.0001, 9.9692 
3.1550044e+3, 1.7490236e+2, -1250608.6, -1274303.0, -0.3967932, 0.000025288582, -0.00006932066, -1250608.6, -24651.715, 0.0, 10.0001, 9.968787 
3.1550044e+3, 1.8486497e+2, -1162528.0, -1195712.8, -0.054737892, 0.00002518869, 0.00007161309, -1162528.0, -34204.746, 0.0, 10.0001, 9.956348 
3.1550044e+3, 1.9482137e+2, -1064379.4, -1097826.4, -0.42154872, 0.000025092073, -0.00005351472, -1064379.4, -33628.72, 0.0, 10.000099, 9.956005 
3.1550044e+3, 2.0477107e+2, -976216.1, -1019428.75, -0.058917053, 0.000025009313, 0.000071587885, -976216.1, -42972.67, 0.0, 10.000099, 9.943244 
3.1550044e+3, 2.1471435e+2, -877930.1, -921404.4, -0.40835294, 0.000024941539, -0.00012319695, -877930.1, -42130.82, 0.0, 10.000099, 9.942903 
3.1550044e+3, 2.2465093e+2, -789644.6, -843139.7, -0.04823768, 0.000024862824, 0.00012442624, -789644.6, -51223.883, 0.0, 10.000098, 9.929861 
3.1550044e+3, 2.3458087e+2, -691212.06, -744962.0, -0.40128416, 0.000024771694, -0.00008558742, -691212.06, -50104.613, 0.0, 10.000098, 9.92953 
3.1550044e+3, 2.4450384e+2, -602888.6, -667014.75, -0.0353493, 0.000024695019, 0.000077676894, -602888.6, -59026.387, 0.0, 10.000098, 9.91609 
3.1550044e+3, 2.5442007e+2, -504136.88, -568340.0, -0.36205372, 0.000024635594, -0.000103967985, -504136.88, -57453.492, 0.0, 10.000097, 9.91599 
3.1550044e+3, 2.643292e+2, -415902.13, -490985.16, 0.011201373, 0.00002457928, 0.00014314537, -415902.13, -66328.19, 0.0, 10.000097, 9.901918 
3.1550044e+3, 2.7423167e+2, -316617.75, -391372.72, -0.31632742, 0.000024526855, -0.00020113394, -316617.75, -64088.023, 0.0, 10.000097, 9.902338 
3.1550044e+3, 2.8412592e+2, -230144.72, -318079.03, 0.045527823, 0.00002447056, 0.00023116048, -230144.72, -74578.58, 0.0, 10.000097, 9.885393 
3.1550044e+3, 2.9401234e+2, -130439.336, -217763.39, -0.25547263, 0.000024408919, -0.0002513617, -130439.336, -71760.32, 0.0, 10.000096, 9.886171 
3.1550044e+3, 3.0392674e+2, -40697.426, -84750.98, 0.10124016, 0.000024350118, 0.00017483452, -40697.426, -40697.426, 0.0, 10.000096, 9.942125 
3.1550044e+3, 3.1387076e+2, -39619.74, -82512.336, -0.1807246, 0.000024295632, -0.00005394925, -39619.74, -39619.74, 0.0, 10.000096, 9.943637 
3.1650046e+3, 1.2499441e+2, -1719816.0, -1724212.9, 0.27584442, 0.00002641039, 0.000027607382, -1719816.0, -4761.2544, 0.0, 10.000107, 9.994277 
3.1650046e+3, 1.349886e+2, -1622437.1, -1627424.4, -0.12858547, 0.000026191734, -0.000074719195, -1622437.1, -5325.386, 0.0, 10.000106, 9.993495 
3.1650046e+3, 1.4497612e+2, -1534335.5, -1548134.3, 0.16343771, 0.00002604621, 0.00008668551, -1534335.5, -15101.424, 0.0, 10.000106, 9.981816 
3.1650046e+3, 1.5495795e+2, -1436609.1, -1450810.9, -0.21855208, 0.000025969208, -0.000051820116, -1436609.1, -15196.949, 0.0, 10.000106, 9.981284 
3.1650046e+3, 1.6493313e+2, -1348559.4, -1371942.4, 0.14028522, 0.000025881563, 0.000048729933, -1348559.4, -24904.166, 0.0, 10.000105, 9.969199 
3.1650046e+3, 1.749024e+2, -1250602.6, -1274301.1, -0.24867679, 0.000025783089, -0.00006923344, -1250602.6, -24645.943, 0.0, 10.000105, 9.968785 
3.1650046e+3, 1.8486498e+2, -1162522.1, -1195710.9, 0.09399601, 0.000025680585, 0.00007172268, -1162522.1, -34199.01, 0.0, 10.000104, 9.956347 
3.1650046e+3, 1.9482139e+2, -1064373.5, -1097824.5, -0.28141668, 0.00002557384, -0.00005343216, -1064373.5, -33622.996, 0.0, 10.000104, 9.956004 
3.1650046e+3, 2.0477109e+2, -976210.25, -1019426.9, 0.07769239, 0.000025488856, 0.00007166013, -976210.25, -42966.973, 0.0, 10.000103, 9.943243 
3.1650043e+3, 2.1471438e+2, -877924.3, -921402.56, -0.29822317, 0.00002542742, -0.00012311692, -877924.3, -42125.184, 0.0, 10.000103, 9.942902 
3.1650043e+3, 2.2465095e+2, -789638.9, -843137.94, 0.06322752, 0.000025348316, 0.00012450482, -789638.9, -51218.29, 0.0, 10.000103, 9.92986 
3.1650043e+3, 2.3458089e+2, -691206.4, -744960.25, -0.28922576, 0.000025249183, -0.000085520755, -691206.4, -50099.063, 0.0, 10.000102, 9.929529 
3.1650043e+3, 2.4450386e+2, -602883.0, -667013.06, 0.07760344, 0.00002516906, 0.00007773765, -602883.0, -59020.863, 0.0, 10.000102, 9.916089 
3.1650043e+3, 2.5442007e+2, -504131.28, -568338.3, -0.27713305, 0.000025111643, -0.00010390597, -504131.28, -57448.004, 0.0, 10.000102, 9.915989 
3.1650043e+3, 2.643292e+2, -415896.6, -490983.53, 0.09230114, 0.000025054573, 0.000143206, -415896.6, -66322.73, 0.0, 10.000101, 9.901917 
3.1650043e+3, 2.7423167e+2, -316612.25, -391371.13, -0.23889284, 0.000024997864, -0.00020107813, -316612.25, -64082.605, 0.0, 10.000101, 9.902337 
3.1650043e+3, 2.8412592e+2, -230139.23, -318077.44, 0.13042253, 0.000024938543, 0.00023121189, -230139.23, -74573.17, 0.0, 10.000101, 9.885392 
3.1650043e+3, 2.9401237e+2, -130433.914, -217761.83, -0.17874077, 0.000024875615, -0.0002513141, -130433.914, -71754.97, 0.0, 10.000101, 9.88617 
3.1650043e+3, 3.0392674e+2, -40692.11, -84749.516, 0.1767043, 0.000024817247, 0.00017487377, -40692.11, -40692.11, 0.0, 10.000101, 9.942124 
3.1650043e+3, 3.1387076e+2, -39614.445, -82510.89, -0.124342926, 0.000024765732, -0.00005392504, -39614.445, -39614.445, 0.0, 10.0001, 9.943636 
3.175005e+3, 1.2499444e+2, -1719817.0, -1724214.6, 0.07845005, 0.000026937847, 0.00002783546, -1719817.0, -4762.4194, 0.0, 10.000107, 9.994276 
3.175005e+3, 1.3498864e+2, -1622438.0, -1627426.1, -0.3259981, 0.000026697357, -0.000074927455, -1622438.0, -5326.531, 0.0, 10.000106, 9.993493 
3.1750047e+3, 1.4497614e+2, -1534336.4, -1548135.9, -0.005573362, 0.000026544583, 0.000087022, -1534336.4, -15102.507, 0.0, 10.000106, 9.981815 
3.1750047e+3, 1.5495797e+2, -1436610.0, -1450812.5, -0.3875355, 0.000026474909, -0.000051716666, -1436610.0, -15198.01, 0.0, 10.000106, 9.981283 
3.1750047e+3, 1.6493316e+2, -1348560.3, -1371944.0, -0.02796103, 0.00002638454, 0.00004875196, -1348560.3, -24905.229, 0.0, 10.000105, 9.969198 
3.1750047e+3, 1.7490241e+2, -1250603.5, -1274302.8, -0.41692388, 0.000026273085, -0.00006913801, -1250603.5, -24646.986, 0.0, 10.000105, 9.968784 
3.1750047e+3, 1.8486501e+2, -1162523.0, -1195712.4, -0.049498342, 0.00002617281, 0.00007182984, -1162523.0, -34200.016, 0.0, 10.000104, 9.9563465 
3.1750047e+3, 1.948214e+2, -1064374.4, -1097826.1, -0.4246376, 0.000026084204, -0.00005337782, -1064374.4, -33623.977, 0.0, 10.000104, 9.956003 
3.1750047e+3, 2.0477112e+2, -976211.06, -1019428.5, -0.05895115, 0.000025992418, 0.00007171207, -976211.06, -42967.95, 0.0, 10.000103, 9.943242 
3.1750047e+3, 2.147144e+2, -877925.1, -921404.2, -0.4347327, 0.000025897174, -0.00012301277, -877925.1, -42126.145, 0.0, 10.000103, 9.942901 
3.1750047e+3, 2.2465096e+2, -789639.7, -843139.44, -0.05568003, 0.000025816194, 0.00012460923, -789639.7, -51219.2, 0.0, 10.000103, 9.929859 
3.1750047e+3, 2.345809e+2, -691207.2, -744961.8, -0.40757403, 0.000025751337, -0.00008547487, -691207.2, -50099.953, 0.0, 10.000102, 9.929528 
3.1750047e+3, 2.4450387e+2, -602883.8, -667014.6, -0.026689371, 0.000025677939, 0.000077768294, -602883.8, -59021.76, 0.0, 10.000102, 9.916088 
3.1750047e+3, 2.544201e+2, -504132.06, -568339.9, -0.38075396, 0.000025594303, -0.000103838785, -504132.06, -57448.883, 0.0, 10.000102, 9.915988 
3.1750047e+3, 2.643292e+2, -415897.34, -490985.03, 0.0019301926, 0.000025521498, 0.00014328444, -415897.34, -66323.57, 0.0, 10.000101, 9.9019165 
3.1750047e+3, 2.742317e+2, -316613.0, -391372.63, -0.32838893, 0.000025462472, -0.00020102071, -316613.0, -64083.43, 0.0, 10.000101, 9.902336 
3.1750047e+3, 2.8412592e+2, -230139.95, -318078.9, 0.053148642, 0.00002541227, 0.0002312563, -230139.95, -74573.97, 0.0, 10.000101, 9.885391 
3.1750047e+3, 2.9401237e+2, -130434.625, -217763.3, -0.25492594, 0.000025374049, -0.00025127165, -130434.625, -71755.74, 0.0, 10.000101, 9.886169 
3.1750047e+3, 3.0392677e+2, -40692.832, -84751.02, 0.115874976, 0.000025313731, 0.00017491906, -40692.832, -40692.832, 0.0, 10.000101, 9.942123 
3.1750044e+3, 3.1387076e+2, -39615.17, -82512.4, -0.18337792, 0.000025220543, -0.00005387, -39615.17, -39615.17, 0.0, 10.0001, 9.943635 
3.185005e+3, 1.24994464e+2, -1719810.5, -1724212.4, 0.27764875, 0.000027459804, 0.000028045966, -1719810.5, -4756.191, 0.0, 10.000112, 9.994275 
3.185005e+3, 1.3498865e+2, -1622431.6, -1627423.9, -0.13003768, 0.000027213124, -0.00007511509, -1622431.6, -5320.295, 0.0, 10.000111, 9.993492 
3.185005e+3, 1.4497617e+2, -1534330.0, -1548133.6, 0.18941951, 0.000027057695, 0.000087400964, -1534330.0, -15096.301, 0.0, 10.000111, 9.981813 
3.185005e+3, 1.54958e+2, -1436603.8, -1450810.4, -0.21975192, 0.000026988824, -0.000051605013, -1436603.8, -15191.923, 0.0, 10.00011, 9.981282 
3.185005e+3, 1.6493317e+2, -1348554.0, -1371942.0, 0.13920161, 0.000026895777, 0.00004876763, -1348554.0, -24899.186, 0.0, 10.00011, 9.969197 
3.185005e+3, 1.7490242e+2, -1250597.3, -1274300.8, -0.25460115, 0.000026778089, -0.00006904337, -1250597.3, -24640.945, 0.0, 10.000109, 9.968783 
3.185005e+3, 1.8486503e+2, -1162516.8, -1195710.4, 0.1148468, 0.000026675465, 0.00007195072, -1162516.8, -34194.008, 0.0, 10.000109, 9.956346 
3.1850046e+3, 1.9482142e+2, -1064368.3, -1097824.1, -0.28139853, 0.000026588574, -0.0000532859, -1064368.3, -33618.06, 0.0, 10.000108, 9.956002 
3.1850046e+3, 2.0477113e+2, -976205.06, -1019426.56, 0.08721211, 0.000026495592, 0.00007178852, -976205.06, -42962.074, 0.0, 10.000108, 9.94324 
3.1850046e+3, 2.1471441e+2, -877919.1, -921402.3, -0.28968754, 0.000026396003, -0.00012293717, -877919.1, -42120.293, 0.0, 10.000108, 9.9429 
3.1850046e+3, 2.2465098e+2, -789633.7, -843137.56, 0.09110759, 0.00002631148, 0.0001246852, -789633.7, -51213.37, 0.0, 10.000107, 9.929858 
3.1850046e+3, 2.3458092e+2, -691201.25, -744959.94, -0.2907104, 0.00002624399, -0.00008539715, -691201.25, -50094.168, 0.0, 10.000107, 9.929527 
3.1850046e+3, 2.4450389e+2, -602877.94, -667012.8, 0.08498731, 0.000026169773, 0.00007784267, -602877.94, -59016.008, 0.0, 10.000107, 9.916087 
3.1850046e+3, 2.544201e+2, -504126.25, -568338.1, -0.27121714, 0.00002608748, -0.00010377384, -504126.25, -57443.188, 0.0, 10.000106, 9.915987 
3.1850046e+3, 2.6432922e+2, -415891.56, -490983.34, 0.116277084, 0.000026013468, 0.00014334203, -415891.56, -66317.914, 0.0, 10.000106, 9.901916 
3.1850046e+3, 2.742317e+2, -316607.28, -391370.94, -0.23579665, 0.000025949981, -0.00020096783, -316607.28, -64077.805, 0.0, 10.000106, 9.902335 
3.1850046e+3, 2.8412592e+2, -230134.27, -318077.25, 0.1360849, 0.00002589661, 0.00023130735, -230134.27, -74568.35, 0.0, 10.000105, 9.88539 
3.1850046e+3, 2.9401237e+2, -130428.984, -217761.67, -0.19165264, 0.000025856998, -0.00025121847, -130428.984, -71750.17, 0.0, 10.000105, 9.8861685 
3.1850046e+3, 3.0392677e+2, -40687.3, -84749.5, 0.17438507, 0.000025796786, 0.00017496898, -40687.3, -40687.3, 0.0, 10.000105, 9.942122 
3.1850046e+3, 3.1387076e+2, -39609.676, -82510.91, -0.13388026, 0.000025705915, -0.000053831285, -39609.676, -39609.676, 0.0, 10.000105, 9.943634 
3.195005e+3, 1.24994494e+2, -1719811.5, -1724214.1, 0.08747898, 0.00002797628, 0.00002824164, -1719811.5, -4757.373, 0.0, 10.000112, 9.994274 
3.1950048e+3, 1.3498868e+2, -1622432.5, -1627425.6, -0.32024294, 0.000027739032, -0.00007528215, -1622432.5, -5321.4575, 0.0, 10.000111, 9.993491 
3.1950048e+3, 1.4497618e+2, -1534330.9, -1548135.4, -0.0024568548, 0.000027585525, 0.00008782232, -1534330.9, -15097.455, 0.0, 10.000111, 9.9818125 
3.1950048e+3, 1.5495801e+2, -1436604.6, -1450812.1, -0.41162974, 0.000027510949, -0.00005148517, -1436604.6, -15193.054, 0.0, 10.00011, 9.981281 
3.1950048e+3, 1.6493319e+2, -1348554.9, -1371943.6, -0.023879556, 0.00002741527, 0.000048776947, -1348554.9, -24900.268, 0.0, 10.00011, 9.969196 
3.1950048e+3, 1.7490244e+2, -1250598.1, -1274302.4, -0.41754907, 0.000027298087, -0.00006894951, -1250598.1, -24642.006, 0.0, 10.000109, 9.968782 
3.1950048e+3, 1.8486506e+2, -1162517.6, -1195712.1, -0.044564515, 0.000027188546, 0.00007208532, -1162517.6, -34195.063, 0.0, 10.000109, 9.956344 
3.1950048e+3, 1.9482143e+2, -1064369.1, -1097825.9, -0.44077334, 0.00002708697, -0.00005315647, -1064369.1, -33619.094, 0.0, 10.000108, 9.956001 
3.1950048e+3, 2.0477115e+2, -976205.9, -1019428.2, -0.05087383, 0.000026998388, 0.00007188943, -976205.9, -42963.063, 0.0, 10.000108, 9.943239 
3.1950048e+3, 2.1471442e+2, -877919.94, -921403.9, -0.42735195, 0.00002692386, -0.00012289005, -877919.94, -42121.26, 0.0, 10.000108, 9.942899 
3.1950048e+3, 2.24651e+2, -789634.56, -843139.25, -0.03207491, 0.000026834132, 0.0001247328, -789634.56, -51214.348, 0.0, 10.000107, 9.929857 
3.1950048e+3, 2.3458092e+2, -691202.06, -744961.6, -0.41342264, 0.000026727172, -0.00008528765, -691202.06, -50095.125, 0.0, 10.000107, 9.929526 
3.1950048e+3, 2.445039e+2, -602878.7, -667014.4, -0.027708689, 0.000026644606, 0.00007796069, -602878.7, -59016.918, 0.0, 10.000107, 9.916085 
3.1950048e+3, 2.544201e+2, -504127.03, -568339.7, -0.3834465, 0.000026591164, -0.00010371113, -504127.03, -57444.074, 0.0, 10.000106, 9.915986 
3.1950048e+3, 2.6432922e+2, -415892.38, -490984.94, 0.022245679, 0.000026530444, 0.00014337878, -415892.38, -66318.805, 0.0, 10.000106, 9.901915 
3.1950048e+3, 2.742317e+2, -316608.06, -391372.56, -0.32861438, 0.000026460364, -0.0002009195, -316608.06, -64078.676, 0.0, 10.000106, 9.902334 
3.1950048e+3, 2.8412595e+2, -230135.03, -318078.8, 0.05439594, 0.000026391555, 0.00023136503, -230135.03, -74569.195, 0.0, 10.000105, 9.885389 
3.1950048e+3, 2.9401237e+2, -130429.734, -217763.22, -0.27234963, 0.000026324498, -0.00025115465, -130429.734, -71750.984, 0.0, 10.000105, 9.886168 
3.1950048e+3, 3.0392677e+2, -40688.043, -84751.05, 0.104899526, 0.000026266449, 0.00017502354, -40688.043, -40688.043, 0.0, 10.000105, 9.9421215 
3.1950048e+3, 3.1387076e+2, -39610.42, -82512.45, -0.20206359, 0.000026221804, -0.000053808864, -39610.42, -39610.42, 0.0, 10.000105, 9.943633 
3.2050052e+3, 1.2499452e+2, -1719804.6, -1724211.9, 0.3157759, 0.000028506653, 0.000028459925, -1719804.6, -4750.8213, 0.0, 10.000116, 9.994272 
3.2050052e+3, 1.349887e+2, -1622425.9, -1627423.5, -0.12907755, 0.00002827244, -0.00007547468, -1622425.9, -5315.0444, 0.0, 10.000115, 9.99349 
3.2050052e+3, 1.4497621e+2, -1534324.3, -1548133.1, 0.18622003, 0.000028117725, 0.000088216824, -1534324.3, -15091.068, 0.0, 10.000115, 9.981812 
3.2050052e+3, 1.5495804e+2, -1436598.0, -1450809.9, -0.22004525, 0.000028037592, -0.000051387287, -1436598.0, -15186.669, 0.0, 10.000114, 9.98128 
3.2050052e+3, 1.6493323e+2, -1348548.4, -1371941.5, 0.17149962, 0.00002793966, 0.00004877817, -1348548.4, -24893.938, 0.0, 10.000114, 9.969195 
3.2050052e+3, 1.7490247e+2, -1250591.8, -1274300.3, -0.25153002, 0.000027823597, -0.00006884075, -1250591.8, -24635.79, 0.0, 10.0001135, 9.968781 
3.205005e+3, 1.8486507e+2, -1162511.3, -1195710.0, 0.12029295, 0.000027712433, 0.000072225, -1162511.3, -34188.887, 0.0, 10.0001135, 9.956343 
3.205005e+3, 1.9482145e+2, -1064362.8, -1097823.8, -0.28079993, 0.000027606362, -0.00005306606, -1064362.8, -33612.93, 0.0, 10.000113, 9.956 
3.205005e+3, 2.0477116e+2, -976199.56, -1019426.2, 0.108375974, 0.00002751401, 0.00007196286, -976199.56, -42956.918, 0.0, 10.000113, 9.943238 
3.205005e+3, 2.1471444e+2, -877913.75, -921401.94, -0.29870668, 0.000027436496, -0.00012279864, -877913.75, -42115.17, 0.0, 10.000112, 9.942898 
3.205005e+3, 2.2465101e+2, -789628.4, -843137.3, 0.0931126, 0.000027346392, 0.0001248255, -789628.4, -51208.305, 0.0, 10.000112, 9.929856 
3.205005e+3, 2.3458093e+2, -691195.94, -744959.75, -0.28930527, 0.000027242011, -0.000085212625, -691195.94, -50089.15, 0.0, 10.000112, 9.929525 
3.205005e+3, 2.445039e+2, -602872.6, -667012.56, 0.10100784, 0.000027156917, 0.00007802912, -602872.6, -59010.97, 0.0, 10.000111, 9.916084 
3.205005e+3, 2.5442013e+2, -504120.97, -568337.9, -0.27895385, 0.000027094848, -0.00010363603, -504120.97, -57438.14, 0.0, 10.000111, 9.915985 
3.205005e+3, 2.6432922e+2, -415886.34, -490983.16, 0.12250655, 0.00002703166, 0.00014345141, -415886.34, -66312.9, 0.0, 10.000111, 9.901914 
3.205005e+3, 2.742317e+2, -316602.13, -391370.8, -0.2338684, 0.000026966965, -0.00020086102, -316602.13, -64072.836, 0.0, 10.00011, 9.902333 
3.205005e+3, 2.8412595e+2, -230129.14, -318077.1, 0.154811, 0.000026899452, 0.00023141604, -230129.14, -74563.38, 0.0, 10.00011, 9.885387 
3.205005e+3, 2.940124e+2, -130423.89, -217761.55, -0.1855209, 0.000026828053, -0.00025110197, -130423.89, -71745.21, 0.0, 10.00011, 9.886167 
3.205005e+3, 3.0392677e+2, -40682.29, -84749.48, 0.18421756, 0.00002676258, 0.00017507844, -40682.29, -40682.29, 0.0, 10.00011, 9.942121 
3.205005e+3, 3.1387076e+2, -39604.676, -82510.88, -0.14378963, 0.000026705995, -0.000053750915, -39604.676, -39604.676, 0.0, 10.00011, 9.943632 
3.2150054e+3, 1.2499454e+2, -1719805.6, -1724213.8, 0.0991001, 0.000029050905, 0.000028703293, -1719805.6, -4752.1006, 0.0, 10.000116, 9.994271 
3.215005e+3, 1.3498873e+2, -1622426.9, -1627425.4, -0.34576732, 0.000028813343, -0.000075692624, -1622426.9, -5316.3013, 0.0, 10.000115, 9.993489 
3.215005e+3, 1.4497623e+2, -1534325.3, -1548134.9, -0.001122344, 0.000028654295, 0.00008858454, -1534325.3, -15092.226, 0.0, 10.000115, 9.981811 
3.215005e+3, 1.5495805e+2, -1436598.9, -1450811.6, -0.4073567, 0.00002856876, -0.000051311312, -1436598.9, -15187.803, 0.0, 10.000114, 9.981279 
3.215005e+3, 1.6493325e+2, -1348549.3, -1371943.3, -0.012575078, 0.000028468958, 0.000048771315, -1348549.3, -24895.092, 0.0, 10.000114, 9.969194 
3.215005e+3, 1.7490248e+2, -1250592.6, -1274302.0, -0.43559352, 0.000028354621, -0.00006871714, -1250592.6, -24636.924, 0.0, 10.0001135, 9.9687805 
3.215005e+3, 1.8486509e+2, -1162512.1, -1195711.8, -0.0361925, 0.000028247116, 0.00007236974, -1162512.1, -34189.965, 0.0, 10.0001135, 9.956342 
3.215005e+3, 1.9482146e+2, -1064363.6, -1097825.5, -0.436982, 0.000028146718, -0.0000530146, -1064363.6, -33613.984, 0.0, 10.000113, 9.955998 
3.215005e+3, 2.0477118e+2, -976200.44, -1019427.94, -0.03715751, 0.000028042441, 0.00007200886, -976200.44, -42957.977, 0.0, 10.000113, 9.943237 
3.215005e+3, 2.1471445e+2, -877914.6, -921403.7, -0.44402373, 0.000027933946, -0.00012266301, -877914.6, -42116.21, 0.0, 10.000112, 9.942897 
3.215005e+3, 2.2465104e+2, -789629.2, -843139.0, -0.04066184, 0.000027848291, 0.00012496319, -789629.2, -51209.297, 0.0, 10.000112, 9.929855 
3.215005e+3, 2.3458095e+2, -691196.8, -744961.4, -0.422717, 0.000027788461, -0.00008517201, -691196.8, -50090.117, 0.0, 10.000112, 9.929523 
3.215005e+3, 2.4450392e+2, -602873.5, -667014.25, -0.0101961745, 0.00002770665, 0.00007804808, -602873.5, -59011.934, 0.0, 10.000111, 9.916083 
3.2150048e+3, 2.5442013e+2, -504121.8, -568339.5, -0.38910237, 0.00002759854, -0.00010354858, -504121.8, -57439.086, 0.0, 10.000111, 9.915983 
3.2150048e+3, 2.6432925e+2, -415887.16, -490984.78, 0.01811134, 0.000027517155, 0.00014355981, -415887.16, -66313.805, 0.0, 10.000111, 9.901913 
3.2150048e+3, 2.7423173e+2, -316602.9, -391372.44, -0.3378926, 0.000027469807, -0.00020079238, -316602.9, -64073.723, 0.0, 10.00011, 9.902332 
3.2150048e+3, 2.8412595e+2, -230129.92, -318078.72, 0.06949181, 0.000027420288, 0.00023146038, -230129.92, -74564.26, 0.0, 10.00011, 9.885386 
3.2150048e+3, 2.940124e+2, -130424.664, -217763.14, -0.2691663, 0.000027367607, -0.00025106047, -130424.664, -71746.06, 0.0, 10.00011, 9.886166 
3.2150048e+3, 3.0392677e+2, -40683.074, -84751.11, 0.11382464, 0.000027285143, 0.00017513368, -40683.074, -40683.074, 0.0, 10.00011, 9.94212 
3.2150048e+3, 3.138708e+2, -39605.465, -82512.52, -0.21264042, 0.00002715856, -0.00005365751, -39605.465, -39605.465, 0.0, 10.00011, 9.94363 
3.2250053e+3, 1.2499457e+2, -1719798.6, -1724211.4, 0.2987133, 0.000029617302, 0.000028966057, -1719798.6, -4745.386, 0.0, 10.000121, 9.99427 
3.2250053e+3, 1.3498875e+2, -1622419.9, -1627423.0, -0.13693266, 0.00002936155, -0.00007589504, -1622419.9, -5309.6016, 0.0, 10.00012, 9.993488 
3.2250053e+3, 1.4497626e+2, -1534318.3, -1548132.5, 0.21861309, 0.000029195617, 0.000088988774, -1534318.3, -15085.538, 0.0, 10.00012, 9.98181 
3.2250053e+3, 1.5495808e+2, -1436592.1, -1450809.3, -0.21206327, 0.000029114493, -0.000051190837, -1436592.1, -15181.229, 0.0, 10.000119, 9.981277 
3.2250053e+3, 1.6493328e+2, -1348542.6, -1371941.0, 0.18300453, 0.000029013832, 0.000048790673, -1348542.6, -24888.592, 0.0, 10.000119, 9.9691925 
3.2250053e+3, 1.749025e+2, -1250586.0, -1274299.9, -0.24768282, 0.000028893255, -0.00006861237, -1250586.0, -24630.434, 0.0, 10.000118, 9.96878 
3.2250053e+3, 1.848651e+2, -1162505.5, -1195709.5, 0.15595238, 0.000028783306, 0.000072503586, -1162505.5, -34183.49, 0.0, 10.000118, 9.956341 
3.2250053e+3, 1.9482149e+2, -1064357.1, -1097823.4, -0.2677975, 0.000028684437, -0.00005291063, -1064357.1, -33607.59, 0.0, 10.000117, 9.955997 
3.2250053e+3, 2.0477119e+2, -976193.94, -1019425.9, 0.13615225, 0.000028578692, 0.000072097995, -976193.94, -42951.645, 0.0, 10.000117, 9.943236 
3.2250053e+3, 2.1471447e+2, -877908.1, -921401.6, -0.27000675, 0.000028465487, -0.00012257241, -877908.1, -42109.92, 0.0, 10.000116, 9.942895 
3.2250053e+3, 2.2465105e+2, -789622.75, -843136.94, 0.13735273, 0.000028377493, 0.00012505204, -789622.75, -51203.023, 0.0, 10.000116, 9.929853 
3.2250053e+3, 2.3458096e+2, -691190.4, -744959.44, -0.26827568, 0.000028318003, -0.00008508852, -691190.4, -50083.867, 0.0, 10.000116, 9.9295225 
3.2250053e+3, 2.4450393e+2, -602867.1, -667012.3, 0.14143856, 0.000028235228, 0.00007812396, -602867.1, -59005.727, 0.0, 10.000115, 9.916082 
3.2250053e+3, 2.5442013e+2, -504115.56, -568337.7, -0.25193015, 0.000028124596, -0.000103482955, -504115.56, -57432.95, 0.0, 10.000115, 9.915982 
3.2250053e+3, 2.6432925e+2, -415880.94, -490982.94, 0.14830372, 0.000028039445, 0.0001436249, -415880.94, -66307.695, 0.0, 10.000115, 9.901911 
3.2250053e+3, 2.7423173e+2, -316596.75, -391370.63, -0.23141018, 0.000027986755, -0.00020071547, -316596.75, -64067.637, 0.0, 10.000114, 9.902331 
3.2250053e+3, 2.8412595e+2, -230123.77, -318076.9, 0.17027687, 0.000027936103, 0.00023153689, -230123.77, -74558.18, 0.0, 10.000114, 9.8853855 
3.2250053e+3, 2.940124e+2, -130418.57, -217761.39, -0.18329364, 0.000027888054, -0.00025100115, -130418.57, -71740.05, 0.0, 10.000114, 9.886165 
3.2250053e+3, 3.039268e+2, -40677.1, -84749.484, 0.1953936, 0.000027802616, 0.0001751795, -40677.1, -40677.1, 0.0, 10.000114, 9.942119 
3.2250053e+3, 3.138708e+2, -39599.508, -82510.914, -0.14958395, 0.000027661716, -0.00005361948, -39599.508, -39599.508, 0.0, 10.0001135, 9.943629 
3.2350054e+3, 1.2499459e+2, -1719799.6, -1724213.3, 0.08460147, 0.000030205812, 0.000029251056, -1719799.6, -4746.655, 0.0, 10.000121, 9.994269 
3.2350054e+3, 1.3498877e+2, -1622420.9, -1627424.9, -0.3510736, 0.000029917064, -0.00007608197, -1622420.9, -5310.8486, 0.0, 10.00012, 9.993486 
3.2350054e+3, 1.4497627e+2, -1534319.3, -1548134.4, 0.010155581, 0.000029741697, 0.000089429464, -1534319.3, -15086.762, 0.0, 10.00012, 9.981809 
3.2350054e+3, 1.549581e+2, -1436593.1, -1450811.1, -0.42052218, 0.000029674777, -0.000051025963, -1436593.1, -15182.428, 0.0, 10.000119, 9.9812765 
3.2350054e+3, 1.649333e+2, -1348543.5, -1371942.9, 0.0024509742, 0.000029574265, 0.000048836187, -1348543.5, -24889.775, 0.0, 10.000119, 9.969192 
3.2350054e+3, 1.7490253e+2, -1250586.9, -1274301.8, -0.42809606, 0.00002943949, -0.0000685264, -1250586.9, -24631.596, 0.0, 10.000118, 9.968778 
3.2350054e+3, 1.8486513e+2, -1162506.5, -1195711.4, -0.014763766, 0.000029321016, 0.00007262657, -1162506.5, -34184.62, 0.0, 10.000118, 9.95634 
3.2350054e+3, 1.948215e+2, -1064358.0, -1097825.1, -0.4384132, 0.000029219535, -0.000052754258, -1064358.0, -33608.703, 0.0, 10.000117, 9.9559965 
3.2350054e+3, 2.047712e+2, -976194.9, -1019427.6, -0.014774429, 0.000029122762, 0.00007223017, -976194.9, -42952.715, 0.0, 10.000117, 9.943235 
3.2350054e+3, 2.1471448e+2, -877909.06, -921403.4, -0.42054778, 0.000029031065, -0.00012252673, -877909.06, -42110.973, 0.0, 10.000116, 9.942894 
3.2350054e+3, 2.2465107e+2, -789623.7, -843138.75, 0.003716996, 0.000028933953, 0.00012509219, -789623.7, -51204.07, 0.0, 10.000116, 9.9298525 
3.2350054e+3, 2.3458098e+2, -691191.3, -744961.2, -0.40136978, 0.000028830684, -0.000084962245, -691191.3, -50084.89, 0.0, 10.000116, 9.929522 
3.235005e+3, 2.4450395e+2, -602868.0, -667014.06, 0.019135073, 0.000028742708, 0.000078256664, -602868.0, -59006.73, 0.0, 10.000115, 9.916081 
3.235005e+3, 2.5442016e+2, -504116.4, -568339.4, -0.37372094, 0.00002867298, -0.00010343912, -504116.4, -57433.93, 0.0, 10.000115, 9.915981 
3.235005e+3, 2.6432928e+2, -415881.78, -490984.66, 0.04399226, 0.000028598466, 0.00014364674, -415881.78, -66308.66, 0.0, 10.000115, 9.90191 
3.235005e+3, 2.7423173e+2, -316597.56, -391372.34, -0.33456638, 0.000028517792, -0.0002006303, -316597.56, -64068.58, 0.0, 10.000114, 9.90233 
3.235005e+3, 2.8412598e+2, -230124.58, -318078.6, 0.07763446, 0.000028446919, 0.0002316455, -230124.58, -74559.086, 0.0, 10.000114, 9.885385 
3.235005e+3, 2.940124e+2, -130419.375, -217763.06, -0.2749949, 0.000028389446, -0.0002509241, -130419.375, -71740.93, 0.0, 10.000114, 9.886163 
3.235005e+3, 3.039268e+2, -40677.92, -84751.195, 0.121143535, 0.000028315022, 0.00017521593, -40677.92, -40677.92, 0.0, 10.000114, 9.942117 
3.235005e+3, 3.138708e+2, -39600.332, -82512.63, -0.22178774, 0.00002821537, -0.000053636708, -39600.332, -39600.332, 0.0, 10.0001135, 9.943628 
3.2450056e+3, 1.2499462e+2, -1719792.4, -1724210.6, 0.33633593, 0.000030787225, 0.000029505452, -1719792.4, -4739.636, 0.0, 10.000126, 9.994268 
3.2450056e+3, 1.349888e+2, -1622413.8, -1627422.4, -0.12749322, 0.000030491507, -0.0000763036, -1622413.8, -5303.951, 0.0, 10.000126, 9.993485 
3.2450056e+3, 1.449763e+2, -1534312.1, -1548131.9, 0.2292433, 0.000030310342, 0.000089849695, -1534312.1, -15079.908, 0.0, 10.000125, 9.981807 
3.2450056e+3, 1.5495813e+2, -1436586.0, -1450808.8, -0.21820052, 0.000030238714, -0.00005088747, -1436586.0, -15175.596, 0.0, 10.000124, 9.981276 
3.2450056e+3, 1.6493332e+2, -1348536.5, -1371940.5, 0.21366619, 0.000030135081, 0.000048867714, -1348536.5, -24882.979, 0.0, 10.000124, 9.969191 
3.2450053e+3, 1.7490254e+2, -1250580.0, -1274299.4, -0.22618996, 0.000029998819, -0.00006842329, -1250580.0, -24624.88, 0.0, 10.000123, 9.968777 
3.2450053e+3, 1.8486515e+2, -1162499.6, -1195709.1, 0.19097628, 0.000029876634, 0.00007275613, -1162499.6, -34177.953, 0.0, 10.000123, 9.956339 
3.2450053e+3, 1.9482152e+2, -1064351.1, -1097823.0, -0.24801865, 0.000029769113, -0.000052645544, -1064351.1, -33602.07, 0.0, 10.000122, 9.955996 
3.2450053e+3, 2.0477122e+2, -976188.06, -1019425.44, 0.17039818, 0.000029672465, 0.00007232685, -976188.06, -42946.105, 0.0, 10.000122, 9.943234 
3.2450053e+3, 2.1471451e+2, -877902.3, -921401.25, -0.2654246, 0.000029587567, -0.00012243254, -877902.3, -42104.42, 0.0, 10.000122, 9.942893 
3.2450053e+3, 2.2465108e+2, -789617.0, -843136.6, 0.15540089, 0.000029487948, 0.00012518669, -789617.0, -51197.56, 0.0, 10.000121, 9.929852 
3.2450053e+3, 2.34581e+2, -691184.7, -744959.1, -0.26360178, 0.000029371644, -0.0000848643, -691184.7, -50078.426, 0.0, 10.000121, 9.929521 
3.2450053e+3, 2.4450396e+2, -602861.44, -667012.06, 0.15749355, 0.000029280556, 0.000078350684, -602861.44, -59000.29, 0.0, 10.00012, 9.91608 
3.2450053e+3, 2.5442016e+2, -504109.9, -568337.44, -0.24074827, 0.000029219573, -0.000103357816, -504109.9, -57427.53, 0.0, 10.00012, 9.91598 
3.2450053e+3, 2.6432928e+2, -415875.34, -490982.75, 0.18169345, 0.00002914636, 0.00014372027, -415875.34, -66302.31, 0.0, 10.00012, 9.901909 
3.2450053e+3, 2.7423176e+2, -316591.16, -391370.5, -0.21946129, 0.00002905748, -0.0002005582, -316591.16, -64062.273, 0.0, 10.000119, 9.9023285 
3.2450053e+3, 2.8412598e+2, -230118.19, -318076.72, 0.18762834, 0.000028979415, 0.00023171678, -230118.19, -74552.78, 0.0, 10.000119, 9.885384 
3.2450053e+3, 2.9401243e+2, -130413.03, -217761.22, -0.1694075, 0.000028916178, -0.00025085275, -130413.03, -71734.664, 0.0, 10.000119, 9.886162 
3.2450053e+3, 3.039268e+2, -40671.715, -84749.484, 0.23420201, 0.000028846203, 0.0001752747, -40671.715, -40671.715, 0.0, 10.000119, 9.942116 
3.2450053e+3, 3.138708e+2, -39594.2, -82510.97, -0.103630275, 0.000028766155, -0.000053609183, -39594.2, -39594.2, 0.0, 10.000118, 9.943627 
3.2550058e+3, 1.2499465e+2, -1719793.5, -1724212.6, 0.10027216, 0.000031361556, 0.000029732397, -1719793.5, -4740.982, 0.0, 10.000126, 9.9942665 
3.2550055e+3, 1.3498883e+2, -1622414.8, -1627424.4, -0.36358535, 0.000031084848, -0.00007655988, -1622414.8, -5305.274, 0.0, 10.000126, 9.9934845 
3.2550055e+3, 1.4497633e+2, -1534313.1, -1548133.9, 0.021432564, 0.000030901516, 0.00009024953, -1534313.1, -15081.181, 0.0, 10.000125, 9.981806 
3.2550055e+3, 1.5495814e+2, -1436587.0, -1450810.6, -0.42597693, 0.00003080631, -0.000050775303, -1436587.0, -15176.843, 0.0, 10.000124, 9.981275 
3.2550055e+3, 1.6493334e+2, -1348537.5, -1371942.4, 0.020196686, 0.000030696297, 0.00004888529, -1348537.5, -24884.193, 0.0, 10.000124, 9.96919 
3.2550055e+3, 1.7490257e+2, -1250580.9, -1274301.3, -0.4196008, 0.000030571224, -0.000068303045, -1250580.9, -24626.072, 0.0, 10.000123, 9.968776 
3.2550055e+3, 1.8486516e+2, -1162500.5, -1195711.0, 0.018454982, 0.000030450135, 0.00007289224, -1162500.5, -34179.133, 0.0, 10.000123, 9.956337 
3.2550055e+3, 1.9482155e+2, -1064352.1, -1097824.9, -0.42030883, 0.000030333153, -0.000052584375, -1064352.1, -33603.223, 0.0, 10.000122, 9.955995 
3.2550055e+3, 2.0477125e+2, -976189.0, -1019427.3, 0.011518146, 0.0000302278, 0.00007238812, -976189.0, -42947.246, 0.0, 10.000122, 9.943233 
3.2550055e+3, 2.1471453e+2, -877903.25, -921403.1, -0.42403105, 0.000030135023, -0.00012228992, -877903.25, -42105.54, 0.0, 10.000122, 9.942892 
3.2550055e+3, 2.246511e+2, -789617.94, -843138.5, 0.017383365, 0.000030039499, 0.00012533541, -789617.94, -51198.645, 0.0, 10.000121, 9.929851 
3.2550055e+3, 2.3458101e+2, -691185.56, -744960.94, -0.40096128, 0.000029940838, -0.00008479465, -691185.56, -50079.484, 0.0, 10.000121, 9.92952 
3.2550055e+3, 2.4450399e+2, -602862.3, -667013.8, 0.03025956, 0.000029848723, 0.00007840609, -602862.3, -59001.31, 0.0, 10.00012, 9.916079 
3.2550055e+3, 2.544202e+2, -504110.75, -568339.2, -0.36751723, 0.000029764393, -0.00010323912, -504110.75, -57428.53, 0.0, 10.00012, 9.915979 
3.2550055e+3, 2.6432928e+2, -415876.22, -490984.6, 0.07294492, 0.00002968316, 0.0001438454, -415876.22, -66303.32, 0.0, 10.00012, 9.901908 
3.2550055e+3, 2.7423176e+2, -316592.06, -391372.3, -0.32700327, 0.000029605817, -0.00020049917, -316592.06, -64063.266, 0.0, 10.000119, 9.902328 
3.2550055e+3, 2.8412598e+2, -230119.02, -318078.44, 0.089877985, 0.00002953356, 0.00023175083, -230119.02, -74553.7, 0.0, 10.000119, 9.885383 
3.2550055e+3, 2.9401243e+2, -130413.84, -217762.92, -0.2663015, 0.000029468209, -0.00025078715, -130413.84, -71735.56, 0.0, 10.000119, 9.886161 
3.2550055e+3, 3.039268e+2, -40672.53, -84751.18, 0.14234519, 0.000029396137, 0.00017535579, -40672.53, -40672.53, 0.0, 10.000119, 9.942115 
3.2550055e+3, 3.138708e+2, -39595.02, -82512.67, -0.19492355, 0.00002931408, -0.000053536995, -39595.02, -39595.02, 0.0, 10.000118, 9.943626 
3.265006e+3, 1.2499468e+2, -1719785.9, -1724210.1, 0.35970575, 0.000031951335, 0.000029974759, -1719785.9, -4733.7383, 0.0, 10.000132, 9.994266 
3.265006e+3, 1.3498886e+2, -1622407.4, -1627421.9, -0.11926019, 0.00003167331, -0.00007676568, -1622407.4, -5298.0776, 0.0, 10.000131, 9.993483 
3.265006e+3, 1.4497636e+2, -1534305.8, -1548131.3, 0.2739695, 0.00003148826, 0.00009071363, -1534305.8, -15074.017, 0.0, 10.000131, 9.981805 
3.265006e+3, 1.5495817e+2, -1436579.8, -1450808.1, -0.18817283, 0.0000313908, -0.00005065711, -1436579.8, -15169.774, 0.0, 10.00013, 9.981274 
3.265006e+3, 1.6493337e+2, -1348530.3, -1371940.0, 0.260489, 0.00003127754, 0.000048890826, -1348530.3, -24877.182, 0.0, 10.000129, 9.969189 
3.2650056e+3, 1.7490259e+2, -1250573.8, -1274298.9, -0.20379704, 0.00003114821, -0.000068171954, -1250573.8, -24619.102, 0.0, 10.000129, 9.968775 
3.2650056e+3, 1.8486519e+2, -1162493.4, -1195708.6, 0.23410456, 0.000031025036, 0.00007306064, -1162493.4, -34172.2, 0.0, 10.000128, 9.956336 
3.2650056e+3, 1.9482157e+2, -1064345.1, -1097822.5, -0.21736668, 0.000030908242, -0.00005247101, -1064345.1, -33596.36, 0.0, 10.000128, 9.955993 
3.2650056e+3, 2.0477127e+2, -976182.0, -1019425.06, 0.22706729, 0.000030799612, 0.0000724788, -976182.0, -42940.41, 0.0, 10.000127, 9.943232 
3.2650056e+3, 2.1471454e+2, -877896.25, -921400.9, -0.20864035, 0.000030699804, -0.00012218689, -877896.25, -42098.727, 0.0, 10.000127, 9.942891 
3.2650056e+3, 2.2465111e+2, -789611.0, -843136.3, 0.23823877, 0.00003060367, 0.00012543853, -789611.0, -51191.867, 0.0, 10.000126, 9.92985 
3.2650056e+3, 2.3458102e+2, -691178.7, -744958.8, -0.2014703, 0.000030511666, -0.000084705374, -691178.7, -50072.777, 0.0, 10.000126, 9.929518 
3.2650056e+3, 2.44504e+2, -602855.5, -667011.75, 0.21923228, 0.000030417636, 0.00007849333, -602855.5, -58994.63, 0.0, 10.000126, 9.916078 
3.2650056e+3, 2.544202e+2, -504103.97, -568337.1, -0.21170838, 0.000030321153, -0.000103139835, -504103.97, -57421.87, 0.0, 10.000125, 9.9159775 
3.2650056e+3, 2.643293e+2, -415869.47, -490982.56, 0.22389264, 0.000030236664, 0.00014393858, -415869.47, -66296.695, 0.0, 10.000125, 9.901906 
3.2650056e+3, 2.742318e+2, -316585.38, -391370.34, -0.1720636, 0.000030167408, -0.00020043526, -316585.38, -64056.703, 0.0, 10.000125, 9.902327 
3.2650056e+3, 2.84126e+2, -230112.39, -318076.5, 0.2427263, 0.000030098481, 0.00023180412, -230112.39, -74547.18, 0.0, 10.000124, 9.885381 
3.2650056e+3, 2.9401243e+2, -130407.28, -217761.03, -0.15323605, 0.000030029894, -0.0002507189, -130407.28, -71729.086, 0.0, 10.000124, 9.88616 
3.2650056e+3, 3.0392683e+2, -40666.066, -84749.414, 0.21890104, 0.000029950334, 0.00017543466, -40666.066, -40666.066, 0.0, 10.000124, 9.942114 
3.2650056e+3, 3.1387082e+2, -39588.543, -82510.9, -0.16553843, 0.000029854546, -0.000053454198, -39588.543, -39588.543, 0.0, 10.000124, 9.9436245 
3.275006e+3, 1.2499471e+2, -1719787.0, -1724212.1, 0.119118564, 0.00003255652, 0.000030236732, -1719787.0, -4735.1313, 0.0, 10.000132, 9.994265 
3.2750058e+3, 1.3498889e+2, -1622408.5, -1627423.9, -0.35987675, 0.000032256918, -0.000076921104, -1622408.5, -5299.4478, 0.0, 10.000131, 9.993482 
3.2750058e+3, 1.4497638e+2, -1534306.8, -1548133.3, 0.049297176, 0.000032070595, 0.000091241855, -1534306.8, -15075.335, 0.0, 10.000131, 9.981804 
3.2750058e+3, 1.549582e+2, -1436580.8, -1450810.1, -0.41282266, 0.000031992156, -0.00005053289, -1436580.8, -15171.065, 0.0, 10.00013, 9.981272 
3.2750058e+3, 1.6493338e+2, -1348531.3, -1371942.0, 0.063642666, 0.00003187878, 0.00004888435, -1348531.3, -24878.459, 0.0, 10.000129, 9.969187 
3.2750058e+3, 1.7490262e+2, -1250574.8, -1274300.9, -0.40051413, 0.000031729793, -0.000068030036, -1250574.8, -24620.357, 0.0, 10.000129, 9.968773 
3.2750058e+3, 1.848652e+2, -1162494.4, -1195710.5, 0.052002694, 0.000031601357, 0.00007326125, -1162494.4, -34173.418, 0.0, 10.000128, 9.956335 
3.2750058e+3, 1.9482158e+2, -1064346.0, -1097824.5, -0.39930966, 0.00003149437, -0.000052305557, -1064346.0, -33597.55, 0.0, 10.000128, 9.955992 
3.2750058e+3, 2.0477128e+2, -976182.94, -1019426.94, 0.068971254, 0.000031387877, 0.000072598836, -976182.94, -42941.563, 0.0, 10.000127, 9.943231 
3.2750058e+3, 2.1471456e+2, -877897.2, -921402.75, -0.3662671, 0.00003128189, -0.00012212334, -877897.2, -42099.855, 0.0, 10.000127, 9.942889 
3.2750058e+3, 2.2465114e+2, -789611.94, -843138.2, 0.09011195, 0.00003118045, 0.00012549614, -789611.94, -51193.004, 0.0, 10.000126, 9.929848 
3.2750058e+3, 2.3458104e+2, -691179.7, -744960.75, -0.34929174, 0.00003108414, -0.000084596504, -691179.7, -50073.89, 0.0, 10.000126, 9.929517 
3.2750055e+3, 2.4450402e+2, -602856.44, -667013.6, 0.09318197, 0.00003098731, 0.00007861232, -602856.44, -58995.73, 0.0, 10.000126, 9.916077 
3.2750055e+3, 2.5442022e+2, -504104.9, -568339.06, -0.33672035, 0.00003088984, -0.00010305991, -504104.9, -57422.945, 0.0, 10.000125, 9.915977 
3.2750055e+3, 2.643293e+2, -415870.38, -490984.38, 0.1048225, 0.00003080685, 0.00014399987, -415870.38, -66297.71, 0.0, 10.000125, 9.901905 
3.2750055e+3, 2.742318e+2, -316586.25, -391372.16, -0.29076028, 0.00003074224, -0.00020036647, -316586.25, -64057.695, 0.0, 10.000125, 9.902326 
3.2750055e+3, 2.84126e+2, -230113.3, -318078.34, 0.1388818, 0.000030674168, 0.0002318766, -230113.3, -74548.18, 0.0, 10.000124, 9.88538 
3.2750055e+3, 2.9401246e+2, -130408.18, -217762.89, -0.2557454, 0.000030601223, -0.00025064798, -130408.18, -71730.07, 0.0, 10.000124, 9.886159 
3.2750055e+3, 3.0392683e+2, -40666.973, -84751.3, 0.13039875, 0.0000305088, 0.00017551133, -40666.973, -40666.973, 0.0, 10.000124, 9.942112 
3.2750055e+3, 3.1387082e+2, -39589.453, -82512.79, -0.25240174, 0.000030387579, -0.000053360818, -39589.453, -39589.453, 0.0, 10.000124, 9.943624 
3.285006e+3, 1.2499474e+2, -1719779.3, -1724209.5, 0.3796262, 0.00003316673, 0.000030519615, -1719779.3, -4727.634, 0.0, 10.000137, 9.994263 
3.285006e+3, 1.349889e+2, -1622400.8, -1627421.4, -0.122551456, 0.00003286564, -0.00007715184, -1622400.8, -5292.028, 0.0, 10.000136, 9.993481 
3.285006e+3, 1.449764e+2, -1534299.1, -1548130.6, 0.2924485, 0.00003267453, 0.000091707865, -1534299.1, -15067.919, 0.0, 10.000135, 9.981802 
3.285006e+3, 1.5495822e+2, -1436573.1, -1450807.5, -0.1730034, 0.000032587857, -0.00005039993, -1436573.1, -15163.705, 0.0, 10.000135, 9.981271 
3.285006e+3, 1.6493341e+2, -1348523.8, -1371939.5, 0.31855628, 0.000032472843, 0.000048903767, -1348523.8, -24871.182, 0.0, 10.000134, 9.969186 
3.285006e+3, 1.7490263e+2, -1250567.4, -1274298.4, -0.1645092, 0.00003232895, -0.000067900044, -1250567.4, -24613.162, 0.0, 10.0001335, 9.968772 
3.285006e+3, 1.8486524e+2, -1162487.0, -1195708.1, 0.29295766, 0.000032200547, 0.00007342458, -1162487.0, -34166.242, 0.0, 10.0001335, 9.956334 
3.285006e+3, 1.9482161e+2, -1064338.8, -1097822.0, -0.1724673, 0.00003208832, -0.00005218973, -1064338.8, -33590.402, 0.0, 10.000133, 9.955991 
3.285006e+3, 2.0477131e+2, -976175.6, -1019424.56, 0.29116687, 0.00003197806, 0.00007270089, -976175.6, -42934.453, 0.0, 10.000133, 9.94323 
3.285006e+3, 2.1471459e+2, -877890.0, -921400.44, -0.1811486, 0.00003186991, -0.000121998506, -877890.0, -42092.81, 0.0, 10.000132, 9.942888 
3.285006e+3, 2.2465116e+2, -789604.75, -843135.94, 0.26801276, 0.000031767042, 0.00012562168, -789604.75, -51185.99, 0.0, 10.000132, 9.929847 
3.285006e+3, 2.3458105e+2, -691172.5, -744958.5, -0.17613913, 0.000031670115, -0.00008449525, -691172.5, -50066.895, 0.0, 10.000132, 9.929516 
3.285006e+3, 2.4450403e+2, -602849.3, -667011.44, 0.27809417, 0.000031572457, 0.00007870031, -602849.3, -58988.77, 0.0, 10.000131, 9.916076 
3.285006e+3, 2.5442022e+2, -504097.88, -568336.94, -0.15806921, 0.000031473894, -0.00010297201, -504097.88, -57416.047, 0.0, 10.000131, 9.915976 
3.285006e+3, 2.6432934e+2, -415863.38, -490982.3, 0.2728256, 0.000031388332, 0.00014409084, -415863.38, -66290.84, 0.0, 10.00013, 9.901904 
3.285006e+3, 2.742318e+2, -316579.3, -391370.13, -0.16128781, 0.00003131928, -0.00020026846, -316579.3, -64050.86, 0.0, 10.00013, 9.902324 
3.285006e+3, 2.84126e+2, -230106.38, -318076.34, 0.26043054, 0.000031249467, 0.00023197137, -230106.38, -74541.36, 0.0, 10.00013, 9.885379 
3.285006e+3, 2.9401246e+2, -130401.305, -217760.92, -0.13265643, 0.00003117849, -0.0002505706, -130401.305, -71723.28, 0.0, 10.00013, 9.886157 
3.285006e+3, 3.0392683e+2, -40660.223, -84749.46, 0.26220587, 0.0000310806, 0.0001755775, -40660.223, -40660.223, 0.0, 10.000129, 9.942111 
3.285006e+3, 3.1387082e+2, -39582.74, -82510.98, -0.12078002, 0.00003094284, -0.000053296666, -39582.74, -39582.74, 0.0, 10.000129, 9.943623 
3.2950065e+3, 1.2499478e+2, -1719780.4, -1724211.6, 0.12771678, 0.00003378197, 0.000030827894, -1719780.4, -4729.0938, 0.0, 10.000137, 9.994262 
3.2950065e+3, 1.3498893e+2, -1622401.9, -1627423.5, -0.37446973, 0.00003349943, -0.00007745772, -1622401.9, -5293.4624, 0.0, 10.000136, 9.993479 
3.2950062e+3, 1.4497644e+2, -1534300.1, -1548132.6, 0.060741875, 0.000033300017, 0.00009211181, -1534300.1, -15069.256, 0.0, 10.000135, 9.981801 
3.2950062e+3, 1.5495825e+2, -1436574.1, -1450809.5, -0.40470362, 0.000033177927, -0.000050258237, -1436574.1, -15165.017, 0.0, 10.000135, 9.98127 
3.2950062e+3, 1.6493344e+2, -1348524.9, -1371941.5, 0.1092813, 0.00003305976, 0.000048949012, -1348524.9, -24872.516, 0.0, 10.000134, 9.969185 
3.2950062e+3, 1.7490266e+2, -1250568.4, -1274300.5, -0.3736722, 0.00003294565, -0.00006778194, -1250568.4, -24614.47, 0.0, 10.0001335, 9.968771 
3.2950062e+3, 1.8486525e+2, -1162488.0, -1195710.1, 0.11045507, 0.000032822572, 0.000073550706, -1162488.0, -34167.5, 0.0, 10.0001335, 9.956332 
3.2950062e+3, 1.9482163e+2, -1064339.8, -1097824.0, -0.35467944, 0.000032690077, -0.000052123414, -1064339.8, -33591.637, 0.0, 10.000133, 9.955989 
3.2950062e+3, 2.0477132e+2, -976176.7, -1019426.56, 0.12470631, 0.000032570173, 0.00007278501, -976176.7, -42935.695, 0.0, 10.000133, 9.943228 
3.2950062e+3, 2.147146e+2, -877891.0, -921402.5, -0.3472878, 0.00003246388, -0.00012181254, -877891.0, -42094.027, 0.0, 10.000132, 9.942887 
3.2950062e+3, 2.2465117e+2, -789605.75, -843137.9, 0.12092884, 0.000032363438, 0.00012581497, -789605.75, -51187.145, 0.0, 10.000132, 9.929846 
3.2950062e+3, 2.3458108e+2, -691173.5, -744960.44, -0.32261914, 0.000032269585, -0.0000844016, -691173.5, -50068.027, 0.0, 10.000132, 9.929515 
3.2950062e+3, 2.4450405e+2, -602850.3, -667013.4, 0.14376637, 0.000032173055, 0.00007875736, -602850.3, -58989.887, 0.0, 10.000131, 9.916074 
3.295006e+3, 2.5442025e+2, -504098.8, -568338.9, -0.2918322, 0.000032073294, -0.00010287616, -504098.8, -57417.145, 0.0, 10.000131, 9.915974 
3.295006e+3, 2.6432934e+2, -415864.34, -490984.28, 0.15245576, 0.000031981108, 0.00014421139, -415864.34, -66291.94, 0.0, 10.00013, 9.901903 
3.295006e+3, 2.7423182e+2, -316580.28, -391372.06, -0.28077048, 0.00003189853, -0.00020014132, -316580.28, -64051.934, 0.0, 10.00013, 9.902323 
3.295006e+3, 2.8412604e+2, -230107.28, -318078.22, 0.15370387, 0.000031824384, 0.00023208832, -230107.28, -74542.375, 0.0, 10.00013, 9.885378 
3.295006e+3, 2.9401246e+2, -130402.195, -217762.77, -0.23825325, 0.00003176169, -0.0002504867, -130402.195, -71724.266, 0.0, 10.00013, 9.886156 
3.295006e+3, 3.0392683e+2, -40661.13, -84751.35, 0.16574411, 0.000031665713, 0.00017563319, -40661.13, -40661.13, 0.0, 10.000129, 9.94211 
3.295006e+3, 3.1387082e+2, -39583.65, -82512.875, -0.21618941, 0.000031520296, -0.000053261665, -39583.65, -39583.65, 0.0, 10.000129, 9.943621 
3.3050063e+3, 1.2499481e+2, -1719772.3, -1724208.8, 0.3983527, 0.00003442217, 0.00003113582, -1719772.3, -4721.319, 0.0, 10.000143, 9.994261 
3.3050063e+3, 1.3498896e+2, -1622393.9, -1627420.8, -0.094175935, 0.0000341242, -0.00007771338, -1622393.9, -5285.8105, 0.0, 10.000142, 9.993478 
3.3050063e+3, 1.4497647e+2, -1534292.3, -1548129.9, 0.35963017, 0.00003391969, 0.000092588416, -1534292.3, -15061.647, 0.0, 10.000141, 9.9818 
3.3050063e+3, 1.5495828e+2, -1436566.3, -1450806.8, -0.14229327, 0.000033802793, -0.00005009648, -1436566.3, -15157.437, 0.0, 10.00014, 9.981268 
3.3050063e+3, 1.6493347e+2, -1348517.0, -1371938.9, 0.37246412, 0.000033681867, 0.00004899339, -1348517.0, -24864.975, 0.0, 10.00014, 9.969183 
3.3050063e+3, 1.7490269e+2, -1250560.6, -1274297.9, -0.11370652, 0.00003355687, -0.0000676533, -1250560.6, -24606.984, 0.0, 10.000139, 9.968769 
3.3050063e+3, 1.8486528e+2, -1162480.4, -1195707.6, 0.3854577, 0.000033430646, 0.000073708456, -1162480.4, -34160.047, 0.0, 10.000139, 9.956331 
3.305006e+3, 1.9482166e+2, -1064332.1, -1097821.5, -0.102525614, 0.000033303088, -0.0000519943, -1064332.1, -33584.234, 0.0, 10.000138, 9.955988 
3.305006e+3, 2.0477134e+2, -976169.1, -1019424.2, 0.38310543, 0.000033183824, 0.000072900184, -976169.1, -42928.332, 0.0, 10.000138, 9.943227 
3.305006e+3, 2.1471462e+2, -877883.5, -921400.1, -0.089113094, 0.000033073517, -0.0001216954, -877883.5, -42086.703, 0.0, 10.000137, 9.942885 
3.305006e+3, 2.2465119e+2, -789598.25, -843135.56, 0.38452113, 0.000032970216, 0.00012593174, -789598.25, -51179.84, 0.0, 10.000137, 9.929844 
3.305006e+3, 2.345811e+2, -691166.06, -744958.1, -0.085170485, 0.00003287481, -0.00008428789, -691166.06, -50060.777, 0.0, 10.000136, 9.929513 
3.305006e+3, 2.4450406e+2, -602842.94, -667011.1, 0.3704689, 0.000032778258, 0.00007886577, -602842.94, -58982.676, 0.0, 10.000136, 9.916073 
3.305006e+3, 2.5442025e+2, -504091.5, -568336.6, -0.09165754, 0.00003268029, -0.00010277574, -504091.5, -57409.957, 0.0, 10.000136, 9.915973 
3.305006e+3, 2.6432934e+2, -415857.06, -490982.13, 0.3451747, 0.000032584896, 0.00014430641, -415857.06, -66284.78, 0.0, 10.000135, 9.901901 
3.305006e+3, 2.7423182e+2, -316573.03, -391369.97, -0.10017612, 0.00003249273, -0.00020004838, -316573.03, -64044.81, 0.0, 10.000135, 9.902322 
3.305006e+3, 2.8412604e+2, -230100.05, -318076.1, 0.32512528, 0.000032414442, 0.00023217846, -230100.05, -74535.25, 0.0, 10.000135, 9.885376 
3.305006e+3, 2.9401246e+2, -130395.04, -217760.69, -0.09351126, 0.00003235507, -0.00025040036, -130395.04, -71717.21, 0.0, 10.000134, 9.886155 
3.305006e+3, 3.0392686e+2, -40654.125, -84749.44, 0.28864527, 0.000032261472, 0.00017570559, -40654.125, -40654.125, 0.0, 10.000134, 9.942108 
3.305006e+3, 3.1387082e+2, -39576.688, -82510.99, -0.12204562, 0.000032116972, -0.00005321827, -39576.688, -39576.688, 0.0, 10.000134, 9.94362 
3.3150065e+3, 1.2499484e+2, -1719773.4, -1724210.9, 0.124748886, 0.000035087294, 0.00003144814, -1719773.4, -4722.77, 0.0, 10.000143, 9.994259 
3.3150065e+3, 1.34989e+2, -1622395.0, -1627422.9, -0.36782303, 0.000034739987, -0.00007791894, -1622395.0, -5287.238, 0.0, 10.000142, 9.993477 
3.3150065e+3, 1.449765e+2, -1534293.4, -1548132.0, 0.12717962, 0.00003453357, 0.0000931375, -1534293.4, -15063.082, 0.0, 10.000141, 9.981798 
3.3150065e+3, 1.5495831e+2, -1436567.4, -1450809.0, -0.37468204, 0.000034462384, -0.00004991471, -1436567.4, -15158.843, 0.0, 10.00014, 9.981267 
3.3150065e+3, 1.6493349e+2, -1348518.1, -1371941.0, 0.1571471, 0.00003433909, 0.000049036895, -1348518.1, -24866.326, 0.0, 10.00014, 9.969182 
3.3150065e+3, 1.749027e+2, -1250561.8, -1274300.0, -0.32895112, 0.000034162644, -0.000067514135, -1250561.8, -24608.313, 0.0, 10.000139, 9.968768 
3.3150065e+3, 1.8486531e+2, -1162481.4, -1195709.6, 0.19736062, 0.00003402482, 0.00007389776, -1162481.4, -34161.367, 0.0, 10.000139, 9.956329 
3.3150065e+3, 1.9482167e+2, -1064333.1, -1097823.6, -0.2903217, 0.00003392734, -0.000051802537, -1064333.1, -33585.53, 0.0, 10.000138, 9.955987 
3.3150065e+3, 2.0477138e+2, -976170.1, -1019426.2, 0.2145412, 0.000033818975, 0.00007304632, -976170.1, -42929.59, 0.0, 10.000138, 9.943225 
3.3150065e+3, 2.1471463e+2, -877884.5, -921402.1, -0.25729957, 0.000033698805, -0.00012164691, -877884.5, -42087.93, 0.0, 10.000137, 9.942884 
3.3150065e+3, 2.246512e+2, -789599.25, -843137.56, 0.23158734, 0.00003358737, 0.00012597215, -789599.25, -51181.063, 0.0, 10.000137, 9.929843 
3.3150065e+3, 2.3458111e+2, -691167.06, -744960.2, -0.23762399, 0.000033485794, -0.00008415415, -691167.06, -50061.973, 0.0, 10.000136, 9.929512 
3.3150065e+3, 2.4450408e+2, -602843.94, -667013.2, 0.23627469, 0.000033388067, 0.00007902543, -602843.94, -58983.86, 0.0, 10.000136, 9.916072 
3.3150065e+3, 2.5442028e+2, -504092.5, -568338.7, -0.22498304, 0.000033294888, -0.00010267075, -504092.5, -57411.117, 0.0, 10.000136, 9.915972 
3.3150065e+3, 2.6432937e+2, -415858.03, -490984.13, 0.22363643, 0.00003319969, 0.00014437598, -415858.03, -66285.914, 0.0, 10.000135, 9.9019 
3.3150062e+3, 2.7423185e+2, -316574.0, -391371.97, -0.22093846, 0.00003310187, -0.00019998956, -316574.0, -64045.914, 0.0, 10.000135, 9.90232 
3.3150062e+3, 2.8412604e+2, -230101.0, -318078.06, 0.20932136, 0.000033019613, 0.00023224186, -230101.0, -74536.32, 0.0, 10.000135, 9.885375 
3.3150062e+3, 2.940125e+2, -130395.984, -217762.66, -0.20888442, 0.000032958615, -0.00025031157, -130395.984, -71718.26, 0.0, 10.000134, 9.886153 
3.3150062e+3, 3.0392686e+2, -40655.09, -84751.44, 0.18261579, 0.000032867865, 0.00017579463, -40655.09, -40655.09, 0.0, 10.000134, 9.942107 
3.3150062e+3, 3.1387085e+2, -39577.652, -82513.0, -0.22698835, 0.000032732838, -0.000053166506, -39577.652, -39577.652, 0.0, 10.000134, 9.943619 
3.3250067e+3, 1.24994874e+2, -1719765.1, -1724208.0, 0.43261737, 0.000035739973, 0.00003174002, -1719765.1, -4714.7817, 0.0, 10.000149, 9.994258 
3.3250067e+3, 1.3498902e+2, -1622386.8, -1627420.0, -0.10405981, 0.000035380643, -0.00007814629, -1622386.8, -5279.279, 0.0, 10.000148, 9.993475 
3.3250067e+3, 1.4497653e+2, -1534285.1, -1548129.3, 0.40215838, 0.000035172365, 0.00009367803, -1534285.1, -15055.16, 0.0, 10.000147, 9.981797 
3.3250067e+3, 1.5495834e+2, -1436559.4, -1450806.3, -0.09602981, 0.000035109424, -0.000049760976, -1436559.4, -15151.038, 0.0, 10.000146, 9.981266 
3.3250067e+3, 1.6493352e+2, -1348510.1, -1371938.3, 0.4571136, 0.000034985154, 0.00004905751, -1348510.1, -24858.572, 0.0, 10.000146, 9.96918 
3.3250067e+3, 1.7490274e+2, -1250553.8, -1274297.4, -0.053979397, 0.000034798337, -0.00006736756, -1250553.8, -24600.563, 0.0, 10.000145, 9.968767 
3.3250067e+3, 1.8486533e+2, -1162473.4, -1195707.0, 0.47507995, 0.000034653705, 0.00007408839, -1162473.4, -34153.64, 0.0, 10.000145, 9.956328 
3.3250067e+3, 1.948217e+2, -1064325.3, -1097821.0, -0.024512272, 0.000034553137, -0.000051653555, -1064325.3, -33577.863, 0.0, 10.000144, 9.955985 
3.3250067e+3, 2.047714e+2, -976162.3, -1019423.7, 0.4839102, 0.000034447818, 0.000073170006, -976162.3, -42921.957, 0.0, 10.000144, 9.943224 
3.3250064e+3, 2.1471466e+2, -877876.75, -921399.6, -0.0113046225, 0.00003433733, -0.000121530786, -877876.75, -42080.35, 0.0, 10.000143, 9.9428835 
3.3250064e+3, 2.2465123e+2, -789591.5, -843135.2, 0.47716218, 0.00003422339, 0.0001260881, -789591.5, -51173.51, 0.0, 10.000143, 9.929842 
3.3250064e+3, 2.3458113e+2, -691159.3, -744957.75, -0.015995447, 0.000034105527, -0.000084030034, -691159.3, -50054.41, 0.0, 10.000142, 9.92951 
3.3250064e+3, 2.445041e+2, -602836.2, -667010.8, 0.44939685, 0.000034002333, 0.00007915142, -602836.2, -58976.31, 0.0, 10.000142, 9.91607 
3.3250064e+3, 2.5442028e+2, -504084.88, -568336.4, -0.020768436, 0.000033916625, -0.0001025504, -504084.88, -57403.64, 0.0, 10.000142, 9.91597 
3.3250064e+3, 2.6432937e+2, -415850.47, -490981.9, 0.43134415, 0.000033826193, 0.0001444823, -415850.47, -66278.484, 0.0, 10.000141, 9.901898 
3.3250064e+3, 2.7423185e+2, -316566.5, -391369.78, -0.030257886, 0.000033729673, -0.00019990794, -316566.5, -64038.527, 0.0, 10.000141, 9.902319 
3.3250064e+3, 2.8412607e+2, -230093.5, -318075.88, 0.38874438, 0.000033644275, 0.0002323173, -230093.5, -74528.94, 0.0, 10.000141, 9.885374 
3.3250064e+3, 2.940125e+2, -130388.52, -217760.5, -0.05019467, 0.000033574088, -0.00025021692, -130388.52, -71710.9, 0.0, 10.00014, 9.886152 
3.3250064e+3, 3.0392686e+2, -40647.754, -84749.43, 0.3231385, 0.000033479682, 0.00017589123, -40647.754, -40647.754, 0.0, 10.00014, 9.942106 
3.3250064e+3, 3.1387085e+2, -39570.38, -82511.02, -0.09802619, 0.000033349268, -0.00005309377, -39570.38, -39570.38, 0.0, 10.00014, 9.943617 
3.3350068e+3, 1.24994904e+2, -1719766.4, -1724210.4, 0.15958367, 0.00003638025, 0.000032017044, -1719766.4, -4716.3496, 0.0, 10.000149, 9.994256 
3.3350068e+3, 1.3498907e+2, -1622388.0, -1627422.4, -0.3771105, 0.000036046127, -0.000078395366, -1622388.0, -5280.8203, 0.0, 10.000148, 9.993474 
3.3350068e+3, 1.4497656e+2, -1534286.3, -1548131.4, 0.14864188, 0.00003583603, 0.000094210016, -1534286.3, -15056.6, 0.0, 10.000147, 9.981796 
3.3350068e+3, 1.5495837e+2, -1436560.5, -1450808.4, -0.34953266, 0.000035743953, -0.000049635208, -1436560.5, -15152.448, 0.0, 10.000146, 9.981264 
3.3350068e+3, 1.6493355e+2, -1348511.3, -1371940.5, 0.24791406, 0.00003562011, 0.0000490553, -1348511.3, -24859.994, 0.0, 10.000146, 9.969179 
3.3350065e+3, 1.7490277e+2, -1250554.9, -1274299.5, -0.26296324, 0.00003546389, -0.00006721361, -1250554.9, -24601.959, 0.0, 10.000145, 9.968765 
3.3350065e+3, 1.8486536e+2, -1162474.5, -1195709.1, 0.27973658, 0.000035317233, 0.000074280346, -1162474.5, -34154.996, 0.0, 10.000145, 9.956327 
3.3350065e+3, 1.9482172e+2, -1064326.4, -1097823.1, -0.21971329, 0.000035180503, -0.000051547242, -1064326.4, -33579.195, 0.0, 10.000144, 9.955984 
3.3350065e+3, 2.0477143e+2, -976163.4, -1019425.8, 0.30978605, 0.000035070392, 0.00007327131, -976163.4, -42923.273, 0.0, 10.000144, 9.943223 
3.3350065e+3, 2.1471468e+2, -877877.8, -921401.75, -0.18500948, 0.00003498907, -0.00012134719, -877877.8, -42081.645, 0.0, 10.000143, 9.942882 
3.3350065e+3, 2.2465125e+2, -789592.6, -843137.3, 0.33367276, 0.00003487825, 0.00012627938, -789592.6, -51174.793, 0.0, 10.000143, 9.92984 
3.3350065e+3, 2.3458114e+2, -691160.4, -744959.9, -0.15850623, 0.000034734003, -0.00008391551, -691160.4, -50055.668, 0.0, 10.000142, 9.929509 
3.3350065e+3, 2.4450411e+2, -602837.25, -667012.94, 0.30506858, 0.00003462106, 0.00007924383, -602837.25, -58977.52, 0.0, 10.000142, 9.916069 
3.3350065e+3, 2.544203e+2, -504085.88, -568338.44, -0.16520774, 0.00003454551, -0.000102414735, -504085.88, -57404.824, 0.0, 10.000142, 9.915969 
3.3350065e+3, 2.643294e+2, -415851.5, -490983.97, 0.30643794, 0.0000344644, 0.00014462526, -415851.5, -66279.664, 0.0, 10.000141, 9.901897 
3.3350065e+3, 2.7423185e+2, -316567.5, -391371.84, -0.15387288, 0.000034376106, -0.00019980357, -316567.5, -64039.68, 0.0, 10.000141, 9.902318 
3.3350065e+3, 2.8412607e+2, -230094.5, -318077.94, 0.27443427, 0.000034288398, 0.00023240475, -230094.5, -74530.06, 0.0, 10.000141, 9.885372 
3.3350062e+3, 2.9401252e+2, -130389.5, -217762.55, -0.16368636, 0.000034201483, -0.00025011646, -130389.5, -71711.99, 0.0, 10.00014, 9.88615 
3.3350062e+3, 3.039269e+2, -40648.74, -84751.484, 0.20476115, 0.000034096927, 0.00017599536, -40648.74, -40648.74, 0.0, 10.00014, 9.942104 
3.3350062e+3, 3.1387085e+2, -39571.363, -82513.08, -0.21700309, 0.00003396627, -0.0000530001, -39571.363, -39571.363, 0.0, 10.00014, 9.943616 
3.345007e+3, 1.2499494e+2, -1719757.8, -1724207.4, 0.48158613, 0.000037046848, 0.000032324057, -1719757.8, -4708.084, 0.0, 10.0001545, 9.994255 
3.345007e+3, 1.3498911e+2, -1622379.5, -1627419.5, -0.056754284, 0.000036712412, -0.00007864893, -1622379.5, -5272.667, 0.0, 10.000154, 9.993472 
3.3450067e+3, 1.4497659e+2, -1534277.9, -1548128.4, 0.48926994, 0.000036495552, 0.00009475662, -1534277.9, -15048.438, 0.0, 10.000153, 9.981794 
3.3450067e+3, 1.549584e+2, -1436552.0, -1450805.4, -0.034049816, 0.00003639007, -0.00004948219, -1436552.0, -15144.286, 0.0, 10.000153, 9.981263 
3.3450067e+3, 1.6493358e+2, -1348502.9, -1371937.6, 0.57399136, 0.000036267105, 0.000049076716, -1348502.9, -24851.904, 0.0, 10.000152, 9.969178 
3.3450067e+3, 1.749028e+2, -1250546.6, -1274296.8, 0.04769555, 0.000036126356, -0.00006705624, -1250546.6, -24593.994, 0.0, 10.000151, 9.968764 
3.3450067e+3, 1.8486539e+2, -1162466.4, -1195706.5, 0.6022336, 0.00003598373, 0.00007447797, -1162466.4, -34147.08, 0.0, 10.000151, 9.956326 
3.3450067e+3, 1.9482175e+2, -1064318.1, -1097820.5, 0.0839046, 0.000035839064, -0.000051409515, -1064318.1, -33571.273, 0.0, 10.00015, 9.955983 
3.3450067e+3, 2.0477144e+2, -976155.2, -1019423.2, 0.6189008, 0.00003571815, 0.00007339235, -976155.2, -42915.344, 0.0, 10.00015, 9.943221 
3.3450067e+3, 2.147147e+2, -877869.6, -921399.1, 0.10659283, 0.000035622925, -0.00012119604, -877869.6, -42073.703, 0.0, 10.000149, 9.942881 
3.3450067e+3, 2.2465126e+2, -789584.5, -843134.75, 0.6278224, 0.000035515328, 0.00012643052, -789584.5, -51166.9, 0.0, 10.000149, 9.929839 
3.3450067e+3, 2.3458117e+2, -691152.44, -744957.44, 0.12754883, 0.00003539369, -0.00008379854, -691152.44, -50047.89, 0.0, 10.000149, 9.929508 
3.3450067e+3, 2.4450414e+2, -602829.3, -667010.5, 0.589663, 0.00003528303, 0.00007934742, -602829.3, -58969.773, 0.0, 10.000148, 9.916067 
3.3450067e+3, 2.544203e+2, -504077.94, -568336.06, 0.086359344, 0.00003518546, -0.00010229969, -504077.94, -57397.035, 0.0, 10.000148, 9.915967 
3.3450067e+3, 2.643294e+2, -415843.56, -490981.63, 0.5360673, 0.000035096113, 0.00014474506, -415843.56, -66271.87, 0.0, 10.000147, 9.901896 
3.3450067e+3, 2.7423188e+2, -316559.63, -391369.53, 0.05191733, 0.00003501715, -0.00019968761, -316559.63, -64031.945, 0.0, 10.000147, 9.902316 
3.3450067e+3, 2.841261e+2, -230086.69, -318075.66, 0.46491912, 0.00003493667, 0.00023251255, -230086.69, -74522.37, 0.0, 10.000147, 9.885371 
3.3450067e+3, 2.9401252e+2, -130381.766, -217760.33, 0.0006091793, 0.000034854016, -0.0002500227, -130381.766, -71704.36, 0.0, 10.000146, 9.886149 
3.3450067e+3, 3.039269e+2, -40641.117, -84749.41, 0.3392488, 0.000034740497, 0.0001760833, -40641.117, -40641.117, 0.0, 10.000146, 9.942103 
3.3450067e+3, 3.1387088e+2, -39563.703, -82510.99, -0.1203512, 0.00003458127, -0.00005290557, -39563.703, -39563.703, 0.0, 10.000146, 9.943614 
3.3550072e+3, 1.2499497e+2, -1719759.0, -1724209.6, 0.18994609, 0.0000377397, 0.000032665383, -1719759.0, -4709.6714, 0.0, 10.0001545, 9.994253 
3.3550072e+3, 1.3498914e+2, -1622380.8, -1627421.8, -0.34842113, 0.000037379516, -0.00007890697, -1622380.8, -5274.2275, 0.0, 10.000154, 9.993471 
3.3550072e+3, 1.4497665e+2, -1534279.0, -1548130.6, 0.24269687, 0.000037150963, 0.000095317824, -1534279.0, -15049.951, 0.0, 10.000153, 9.981793 
3.3550072e+3, 1.5495844e+2, -1436553.1, -1450807.6, -0.28056163, 0.00003704776, -0.000049301987, -1436553.1, -15145.769, 0.0, 10.000153, 9.981261 
3.3550072e+3, 1.649336e+2, -1348504.0, -1371939.9, 0.34265828, 0.000036926132, 0.00004912171, -1348504.0, -24853.373, 0.0, 10.000152, 9.969176 
3.3550072e+3, 1.7490283e+2, -1250547.8, -1274299.0, -0.18357578, 0.00003678576, -0.00006689546, -1250547.8, -24595.438, 0.0, 10.000151, 9.968762 
3.3550072e+3, 1.8486542e+2, -1162467.5, -1195708.8, 0.4130743, 0.0000366532, 0.000074681244, -1162467.5, -34148.49, 0.0, 10.000151, 9.956325 
3.355007e+3, 1.9482177e+2, -1064319.3, -1097822.8, -0.10478262, 0.00003652876, -0.000051240462, -1064319.3, -33572.66, 0.0, 10.00015, 9.955981 
3.355007e+3, 2.0477147e+2, -976156.3, -1019425.4, 0.45489943, 0.00003639105, 0.000073533076, -976156.3, -42916.71, 0.0, 10.00015, 9.94322 
3.355007e+3, 2.1471472e+2, -877870.75, -921401.3, -0.05691812, 0.000036238962, -0.00012107724, -877870.75, -42075.043, 0.0, 10.000149, 9.942879 
3.355007e+3, 2.2465129e+2, -789585.6, -843136.94, 0.4640464, 0.000036134697, 0.00012654159, -789585.6, -51168.21, 0.0, 10.000149, 9.929837 
3.355007e+3, 2.3458119e+2, -691153.5, -744959.6, -0.03625003, 0.00003608452, -0.00008367913, -691153.5, -50049.176, 0.0, 10.000149, 9.929506 
3.355007e+3, 2.4450415e+2, -602830.44, -667012.7, 0.46257374, 0.00003598813, 0.00007946216, -602830.44, -58971.063, 0.0, 10.000148, 9.916066 
3.355007e+3, 2.5442034e+2, -504079.03, -568338.25, -0.03898121, 0.00003583648, -0.000102205195, -504079.03, -57398.297, 0.0, 10.000148, 9.915966 
3.355007e+3, 2.6432943e+2, -415844.63, -490983.8, 0.4045385, 0.000035721372, 0.00014484178, -415844.63, -66273.09, 0.0, 10.000147, 9.901895 
3.355007e+3, 2.7423188e+2, -316560.7, -391371.72, -0.08004598, 0.000035652844, -0.00019956005, -316560.7, -64033.152, 0.0, 10.000147, 9.902315 
3.355007e+3, 2.841261e+2, -230087.73, -318077.8, 0.34157944, 0.000035589102, 0.00023264064, -230087.73, -74523.55, 0.0, 10.000147, 9.885369 
3.355007e+3, 2.9401252e+2, -130382.8, -217762.47, -0.12196207, 0.000035531644, -0.00024993575, -130382.8, -71705.51, 0.0, 10.000146, 9.886148 
3.355007e+3, 3.039269e+2, -40642.17, -84751.6, 0.23094556, 0.000035410343, 0.00017615507, -40642.17, -40642.17, 0.0, 10.000146, 9.9421015 
3.355007e+3, 3.1387088e+2, -39564.76, -82513.195, -0.22699949, 0.000035194294, -0.000052810174, -39564.76, -39564.76, 0.0, 10.000146, 9.943613 
3.3650073e+3, 1.2499501e+2, -1719750.1, -1724206.6, 0.5102693, 0.000038422917, 0.000033026015, -1719750.1, -4701.193, 0.0, 10.000161, 9.994252 
3.3650073e+3, 1.3498917e+2, -1622372.0, -1627418.8, -0.047611494, 0.00003806384, -0.00007918539, -1622372.0, -5265.778, 0.0, 10.00016, 9.993469 
3.3650073e+3, 1.4497668e+2, -1534270.3, -1548127.6, 0.56723714, 0.000037834838, 0.000095871554, -1534270.3, -15041.518, 0.0, 10.000159, 9.9817915 
3.3650073e+3, 1.5495847e+2, -1436544.5, -1450804.8, 0.037881408, 0.00003772946, -0.000049122562, -1436544.5, -15137.443, 0.0, 10.000158, 9.98126 
3.365007e+3, 1.6493364e+2, -1348495.5, -1371937.0, 0.680578, 0.000037602185, 0.000049169652, -1348495.5, -24845.105, 0.0, 10.000158, 9.969175 
3.365007e+3, 1.7490286e+2, -1250539.3, -1274296.1, 0.13478793, 0.000037452617, -0.000066731074, -1250539.3, -24587.148, 0.0, 10.000157, 9.968761 
3.365007e+3, 1.8486543e+2, -1162458.9, -1195705.9, 0.7484791, 0.00003731839, 0.00007488135, -1162458.9, -34140.19, 0.0, 10.000156, 9.956323 
3.365007e+3, 1.948218e+2, -1064310.8, -1097820.0, 0.21720028, 0.000037200163, -0.000051089108, -1064310.8, -33564.418, 0.0, 10.000156, 9.95598 
3.365007e+3, 2.047715e+2, -976147.94, -1019422.7, 0.78283745, 0.00003706579, 0.00007366467, -976147.94, -42908.53, 0.0, 10.000155, 9.943218 
3.365007e+3, 2.1471475e+2, -877862.4, -921398.7, 0.24628125, 0.000036913912, -0.00012093398, -877862.4, -42066.926, 0.0, 10.000155, 9.942878 
3.365007e+3, 2.246513e+2, -789577.25, -843134.3, 0.7594428, 0.000036805784, 0.00012668829, -789577.25, -51160.082, 0.0, 10.0001545, 9.929836 
3.365007e+3, 2.345812e+2, -691145.1, -744957.0, 0.24023089, 0.000036747122, -0.00008353829, -691145.1, -50040.992, 0.0, 10.0001545, 9.929505 
3.365007e+3, 2.4450417e+2, -602822.06, -667010.2, 0.7424006, 0.000036651527, 0.000079592355, -602822.06, -58962.906, 0.0, 10.0001545, 9.916064 
3.365007e+3, 2.5442034e+2, -504070.78, -568335.75, 0.22600915, 0.000036511745, -0.000102091355, -504070.78, -57390.23, 0.0, 10.000154, 9.915964 
3.3650067e+3, 2.6432946e+2, -415836.44, -490981.38, 0.6553255, 0.000036397767, 0.00014495125, -415836.44, -66265.06, 0.0, 10.000154, 9.901894 
3.3650067e+3, 2.742319e+2, -316552.5, -391369.3, 0.14395785, 0.000036316687, -0.00019943964, -316552.5, -64025.113, 0.0, 10.000154, 9.902313 
3.3650067e+3, 2.8412613e+2, -230079.53, -318075.4, 0.5527385, 0.00003624641, 0.00023276001, -230079.53, -74515.47, 0.0, 10.000153, 9.885368 
3.3650067e+3, 2.9401255e+2, -130374.625, -217760.1, 0.08078433, 0.000036190697, -0.00024983386, -130374.625, -71697.45, 0.0, 10.000153, 9.886147 
3.3650067e+3, 3.0392691e+2, -40634.164, -84749.43, 0.41721746, 0.000036072448, 0.00017624203, -40634.164, -40634.164, 0.0, 10.000153, 9.9421 
3.3650067e+3, 3.1387088e+2, -39556.85, -82511.08, -0.06576016, 0.000035861325, -0.000052734194, -39556.85, -39556.85, 0.0, 10.000152, 9.943611 
3.3750075e+3, 1.24995045e+2, -1719751.4, -1724209.0, 0.21968757, 0.000039096547, 0.00003341476, -1719751.4, -4702.841, 0.0, 10.000161, 9.99425 
3.3750072e+3, 1.3498922e+2, -1622373.3, -1627421.1, -0.33819807, 0.000038765364, -0.00007948417, -1622373.3, -5267.3984, 0.0, 10.00016, 9.993468 
3.3750072e+3, 1.449767e+2, -1534271.5, -1548129.9, 0.30217755, 0.000038547118, 0.00009641784, -1534271.5, -15043.059, 0.0, 10.000159, 9.981791 
3.3750072e+3, 1.549585e+2, -1436545.8, -1450807.0, -0.22716312, 0.000038435115, -0.000048943904, -1436545.8, -15138.954, 0.0, 10.000158, 9.981258 
3.3750072e+3, 1.6493367e+2, -1348496.8, -1371939.4, 0.46229446, 0.000038295228, 0.000049220536, -1348496.8, -24846.633, 0.0, 10.000158, 9.969173 
3.3750072e+3, 1.7490289e+2, -1250540.4, -1274298.5, -0.083261214, 0.000038126927, -0.000066563094, -1250540.4, -24588.648, 0.0, 10.000157, 9.96876 
3.3750072e+3, 1.8486546e+2, -1162460.1, -1195708.1, 0.5534609, 0.000037979335, 0.00007507829, -1162460.1, -34141.65, 0.0, 10.000156, 9.956322 
3.3750072e+3, 1.9482182e+2, -1064312.0, -1097822.3, 0.022426814, 0.000037853355, -0.0000509554, -1064312.0, -33565.848, 0.0, 10.000156, 9.955978 
3.3750072e+3, 2.0477152e+2, -976149.06, -1019425.0, 0.61130327, 0.000037742382, 0.00007378718, -976149.06, -42909.96, 0.0, 10.000155, 9.943217 
3.3750072e+3, 2.1471477e+2, -877863.56, -921401.0, 0.075218044, 0.000037647635, -0.00012076634, -877863.56, -42068.33, 0.0, 10.000155, 9.942876 
3.3750072e+3, 2.2465134e+2, -789578.4, -843136.56, 0.6155821, 0.000037528458, 0.00012687052, -789578.4, -51161.445, 0.0, 10.0001545, 9.929834 
3.3750072e+3, 2.3458123e+2, -691146.25, -744959.25, 0.09722832, 0.0000373816, -0.00008337607, -691146.25, -50042.33, 0.0, 10.0001545, 9.929503 
3.3750072e+3, 2.4450418e+2, -602823.25, -667012.44, 0.60261804, 0.000037273352, 0.000079737976, -602823.25, -58964.24, 0.0, 10.0001545, 9.916063 
3.3750072e+3, 2.5442037e+2, -504071.9, -568338.06, 0.086370505, 0.000037211204, -0.00010195821, -504071.9, -57391.535, 0.0, 10.000154, 9.915963 
3.3750072e+3, 2.6432946e+2, -415837.56, -490983.7, 0.5327595, 0.000037125184, 0.00014507349, -415837.56, -66266.36, 0.0, 10.000154, 9.901892 
3.3750072e+3, 2.742319e+2, -316553.63, -391371.6, 0.022516642, 0.000037008635, -0.00019932637, -316553.63, -64026.38, 0.0, 10.000154, 9.902311 
3.3750072e+3, 2.8412613e+2, -230080.6, -318077.6, 0.43348628, 0.000036908597, 0.00023287068, -230080.6, -74516.67, 0.0, 10.000153, 9.885366 
3.3750072e+3, 2.9401255e+2, -130375.67, -217762.28, -0.03830314, 0.000036831243, -0.00024971706, -130375.67, -71698.625, 0.0, 10.000153, 9.886146 
3.3750072e+3, 3.0392691e+2, -40635.266, -84751.72, 0.28886703, 0.000036726862, 0.00017634414, -40635.266, -40635.266, 0.0, 10.000153, 9.942099 
3.3750072e+3, 3.1387088e+2, -39557.957, -82513.38, -0.1952078, 0.00003658224, -0.000052677577, -39557.957, -39557.957, 0.0, 10.000152, 9.943609 
3.3850077e+3, 1.2499509e+2, -1719742.3, -1724205.8, 0.54928637, 0.0000398118, 0.00003377429, -1719742.3, -4694.056, 0.0, 10.000167, 9.994249 
3.3850077e+3, 1.3498925e+2, -1622364.3, -1627418.0, -0.0008999016, 0.00003946636, -0.00007976934, -1622364.3, -5258.7637, 0.0, 10.000166, 9.993466 
3.3850077e+3, 1.4497674e+2, -1534262.5, -1548126.8, 0.67448145, 0.000039244365, 0.000097010416, -1534262.5, -15034.467, 0.0, 10.000166, 9.981789 
3.3850077e+3, 1.5495853e+2, -1436536.8, -1450803.9, 0.11618036, 0.000039139064, -0.000048751037, -1436536.8, -15130.348, 0.0, 10.000165, 9.981257 
3.3850077e+3, 1.649337e+2, -1348487.8, -1371936.4, 0.83001393, 0.00003899633, 0.00004926653, -1348487.8, -24838.045, 0.0, 10.000164, 9.9691725 
3.3850077e+3, 1.7490293e+2, -1250531.6, -1274295.5, 0.27962998, 0.00003881545, -0.000066405824, -1250531.6, -24580.105, 0.0, 10.000164, 9.968759 
3.3850074e+3, 1.8486549e+2, -1162451.3, -1195705.3, 0.92947227, 0.000038663486, 0.00007527962, -1162451.3, -34133.125, 0.0, 10.000163, 9.95632 
3.3850074e+3, 1.9482185e+2, -1064303.3, -1097819.4, 0.3741658, 0.000038541722, -0.000050780374, -1064303.3, -33557.344, 0.0, 10.000163, 9.955977 
3.3850074e+3, 2.0477155e+2, -976140.3, -1019422.2, 0.97158515, 0.000038436705, 0.00007394031, -976140.3, -42901.473, 0.0, 10.000162, 9.943215 
3.3850074e+3, 2.147148e+2, -877854.9, -921398.25, 0.42895317, 0.000038349797, -0.000120630335, -877854.9, -42059.855, 0.0, 10.000162, 9.942875 
3.3850074e+3, 2.2465135e+2, -789569.7, -843133.9, 0.9767599, 0.000038228, 0.00012700494, -789569.7, -51152.99, 0.0, 10.000161, 9.929833 
3.3850074e+3, 2.3458125e+2, -691137.56, -744956.56, 0.4207292, 0.00003806669, -0.000083225685, -691137.56, -50033.883, 0.0, 10.000161, 9.929502 
3.3850074e+3, 2.4450421e+2, -602814.56, -667009.8, 0.9035159, 0.00003795617, 0.000079891746, -602814.56, -58955.785, 0.0, 10.00016, 9.916061 
3.3850074e+3, 2.544204e+2, -504063.28, -568335.44, 0.37421906, 0.000037906306, -0.00010181612, -504063.28, -57383.094, 0.0, 10.00016, 9.915961 
3.3850074e+3, 2.643295e+2, -415828.97, -490981.16, 0.8198037, 0.000037825543, 0.00014519862, -415828.97, -66257.945, 0.0, 10.00016, 9.90189 
3.3850074e+3, 2.7423194e+2, -316545.06, -391369.13, 0.28693014, 0.00003770528, -0.00019922487, -316545.06, -64017.99, 0.0, 10.000159, 9.90231 
3.3850074e+3, 2.8412616e+2, -230072.06, -318075.1, 0.66615987, 0.00003760281, 0.00023297123, -230072.06, -74508.28, 0.0, 10.000159, 9.8853655 
3.3850074e+3, 2.9401258e+2, -130367.2, -217759.84, 0.14997105, 0.000037524827, -0.00024958642, -130367.2, -71690.28, 0.0, 10.000159, 9.886144 
3.3850074e+3, 3.0392691e+2, -40626.92, -84749.44, 0.43727443, 0.000037419366, 0.00017646977, -40626.92, -40626.92, 0.0, 10.000158, 9.942097 
3.385007e+3, 3.138709e+2, -39549.598, -82511.1, -0.06092241, 0.000037272992, -0.00005260937, -39549.598, -39549.598, 0.0, 10.000158, 9.943608 
3.3950078e+3, 1.2499513e+2, -1719743.5, -1724208.1, 0.23192641, 0.000040568586, 0.000034112796, -1719743.5, -4695.702, 0.0, 10.000167, 9.994247 
3.3950078e+3, 1.3498928e+2, -1622365.5, -1627420.4, -0.31831223, 0.00004016684, -0.00008004093, -1622365.5, -5260.3833, 0.0, 10.000166, 9.993465 
3.3950078e+3, 1.4497678e+2, -1534263.8, -1548129.1, 0.41979954, 0.000039926654, 0.00009764916, -1534263.8, -15036.09, 0.0, 10.000166, 9.981788 
3.3950078e+3, 1.5495858e+2, -1436538.0, -1450806.3, -0.13841416, 0.000039841336, -0.000048544, -1436538.0, -15131.938, 0.0, 10.000165, 9.981256 
3.3950076e+3, 1.6493373e+2, -1348489.0, -1371938.8, 0.6089707, 0.000039705505, 0.000049307655, -1348489.0, -24839.6, 0.0, 10.000164, 9.969171 
3.3950076e+3, 1.7490296e+2, -1250532.8, -1274297.9, 0.05874159, 0.000039518163, -0.00006625922, -1250532.8, -24581.633, 0.0, 10.000164, 9.968757 
3.3950076e+3, 1.8486552e+2, -1162452.5, -1195707.6, 0.738121, 0.000039370803, 0.00007548532, -1162452.5, -34134.65, 0.0, 10.000163, 9.956319 
3.3950076e+3, 1.9482188e+2, -1064304.4, -1097821.8, 0.18313585, 0.000039265185, -0.000050564144, -1064304.4, -33558.84, 0.0, 10.000163, 9.955976 
3.3950076e+3, 2.0477158e+2, -976141.56, -1019424.5, 0.80401677, 0.000039148734, 0.00007412397, -976141.56, -42902.934, 0.0, 10.000162, 9.943214 
3.3950076e+3, 2.1471483e+2, -877856.0, -921400.56, 0.261847, 0.00003902052, -0.00012052586, -877856.0, -42061.285, 0.0, 10.000162, 9.942873 
3.3950076e+3, 2.2465138e+2, -789570.94, -843136.25, 0.83830994, 0.00003890451, 0.0001270917, -789570.94, -51154.445, 0.0, 10.000161, 9.9298315 
3.3950076e+3, 2.3458128e+2, -691138.8, -744958.94, 0.28320658, 0.000038802275, -0.00008308707, -691138.8, -50035.31, 0.0, 10.000161, 9.929501 
3.3950076e+3, 2.4450423e+2, -602815.75, -667012.1, 0.7692263, 0.00003869983, 0.00008005364, -602815.75, -58957.16, 0.0, 10.00016, 9.91606 
3.3950073e+3, 2.544204e+2, -504064.44, -568337.75, 0.24005377, 0.00003859708, -0.00010166511, -504064.44, -57384.434, 0.0, 10.00016, 9.91596 
3.3950073e+3, 2.643295e+2, -415830.16, -490983.53, 0.70014185, 0.000038498943, 0.00014532666, -415830.16, -66259.3, 0.0, 10.00016, 9.901889 
3.3950073e+3, 2.7423194e+2, -316546.25, -391371.5, 0.168227, 0.000038406633, -0.00019913509, -316546.25, -64019.313, 0.0, 10.000159, 9.902308 
3.3950073e+3, 2.8412616e+2, -230073.2, -318077.47, 0.5439723, 0.00003832898, 0.00023306171, -230073.2, -74509.58, 0.0, 10.000159, 9.885364 
3.3950073e+3, 2.9401258e+2, -130368.336, -217762.19, 0.027454432, 0.000038271315, -0.00024944192, -130368.336, -71691.55, 0.0, 10.000159, 9.886142 
3.3950073e+3, 3.0392694e+2, -40628.05, -84751.79, 0.3144542, 0.000038149876, 0.00017661885, -40628.05, -40628.05, 0.0, 10.000158, 9.942095 
3.3950073e+3, 3.138709e+2, -39550.727, -82513.46, -0.18380542, 0.000037933685, -0.00005252962, -39550.727, -39550.727, 0.0, 10.000158, 9.943606 
3.405008e+3, 1.2499517e+2, -1719734.3, -1724204.9, 0.63546705, 0.00004130522, 0.000034428027, -1719734.3, -4686.7915, 0.0, 10.000174, 9.9942465 
3.405008e+3, 1.3498932e+2, -1622356.3, -1627417.3, 0.028796881, 0.000040881052, -0.0000803243, -1622356.3, -5251.4326, 0.0, 10.000173, 9.9934635 
3.4050077e+3, 1.4497681e+2, -1534254.5, -1548125.9, 0.78707653, 0.000040628733, 0.0000982954, -1534254.5, -15027.115, 0.0, 10.000172, 9.981786 
3.4050077e+3, 1.549586e+2, -1436528.8, -1450803.1, 0.22800434, 0.00004054146, -0.000048357615, -1436528.8, -15123.049, 0.0, 10.000172, 9.981255 
3.4050077e+3, 1.6493377e+2, -1348479.9, -1371935.6, 1.0043771, 0.000040414645, 0.000049335387, -1348479.9, -24830.771, 0.0, 10.000171, 9.969169 
3.4050077e+3, 1.7490299e+2, -1250523.6, -1274294.9, 0.43107927, 0.00004024752, -0.00006608257, -1250523.6, -24572.844, 0.0, 10.00017, 9.968756 
3.4050077e+3, 1.8486555e+2, -1162443.5, -1195704.6, 1.1253053, 0.000040102277, 0.00007571164, -1162443.5, -34125.883, 0.0, 10.00017, 9.956317 
3.4050077e+3, 1.9482191e+2, -1064295.4, -1097818.8, 0.5519429, 0.000039979852, -0.000050392016, -1064295.4, -33550.066, 0.0, 10.000169, 9.955974 
3.4050077e+3, 2.0477161e+2, -976132.44, -1019421.56, 1.1801105, 0.00003985355, 0.00007427642, -976132.44, -42894.125, 0.0, 10.000169, 9.9432125 
3.4050077e+3, 2.1471485e+2, -877846.94, -921397.6, 0.6156884, 0.000039723025, -0.000120355704, -877846.94, -42052.45, 0.0, 10.000169, 9.942871 
3.4050074e+3, 2.2465141e+2, -789561.9, -843133.44, 1.1967584, 0.00003961592, 0.00012725662, -789561.9, -51145.637, 0.0, 10.000168, 9.92983 
3.4050074e+3, 2.3458129e+2, -691129.8, -744956.2, 0.6349649, 0.000039535287, -0.000082953346, -691129.8, -50026.555, 0.0, 10.000168, 9.929499 
3.4050074e+3, 2.4450426e+2, -602806.75, -667009.4, 1.114234, 0.000039435356, 0.00008017951, -602806.75, -58948.406, 0.0, 10.000167, 9.916059 
3.4050074e+3, 2.5442043e+2, -504055.44, -568335.0, 0.5455887, 0.00003931232, -0.0001015192, -504055.44, -57375.645, 0.0, 10.000167, 9.915958 
3.4050074e+3, 2.6432952e+2, -415821.16, -490980.84, 0.9838344, 0.000039208655, 0.00014547455, -415821.16, -66250.49, 0.0, 10.000167, 9.901887 
3.4050074e+3, 2.7423197e+2, -316537.3, -391368.88, 0.43662295, 0.00003912965, -0.00019900825, -316537.3, -64010.54, 0.0, 10.000166, 9.9023075 
3.4050074e+3, 2.841262e+2, -230064.3, -318074.88, 0.7960606, 0.00003905964, 0.00023317548, -230064.3, -74500.81, 0.0, 10.000166, 9.885362 
3.4050074e+3, 2.9401258e+2, -130359.445, -217759.64, 0.26125768, 0.000039001774, -0.00024933013, -130359.445, -71682.79, 0.0, 10.000166, 9.886141 
3.4050074e+3, 3.0392694e+2, -40619.285, -84749.38, 0.5117982, 0.00003887709, 0.0001767227, -40619.285, -40619.285, 0.0, 10.000165, 9.942094 
3.4050074e+3, 3.138709e+2, -39542.0, -82511.08, -0.023321668, 0.000038653194, -0.000052442687, -39542.0, -39542.0, 0.0, 10.000165, 9.943604 
3.4150082e+3, 1.2499521e+2, -1719735.6, -1724207.5, 0.33574733, 0.000042021766, 0.000034728506, -1719735.6, -4688.586, 0.0, 10.000174, 9.994245 
3.4150082e+3, 1.3498935e+2, -1622357.6, -1627419.8, -0.27091974, 0.000041608975, -0.000080619415, -1622357.6, -5253.198, 0.0, 10.000173, 9.993462 
3.4150082e+3, 1.4497685e+2, -1534255.8, -1548128.4, 0.5197005, 0.00004135057, 0.00009894914, -1534255.8, -15028.757, 0.0, 10.000172, 9.981785 
3.4150082e+3, 1.5495864e+2, -1436530.0, -1450805.5, -0.039338797, 0.00004123947, -0.00004819182, -1436530.0, -15124.658, 0.0, 10.000172, 9.981253 
3.4150082e+3, 1.649338e+2, -1348481.1, -1371938.1, 0.7824735, 0.000041123778, 0.000049349765, -1348481.1, -24832.393, 0.0, 10.000171, 9.969168 
3.4150082e+3, 1.7490302e+2, -1250525.0, -1274297.3, 0.20938867, 0.000041003463, -0.00006587595, -1250525.0, -24574.436, 0.0, 10.00017, 9.968754 
3.4150082e+3, 1.8486558e+2, -1162444.8, -1195707.1, 0.943064, 0.00004085787, 0.00007595854, -1162444.8, -34127.46, 0.0, 10.00017, 9.956315 
3.415008e+3, 1.9482194e+2, -1064296.6, -1097821.3, 0.37014645, 0.000040685765, -0.000050263847, -1064296.6, -33551.613, 0.0, 10.000169, 9.955973 
3.415008e+3, 2.0477164e+2, -976133.7, -1019424.0, 1.0280688, 0.000040551196, 0.00007439775, -976133.7, -42895.645, 0.0, 10.000169, 9.943211 
3.415008e+3, 2.1471487e+2, -877848.2, -921400.06, 0.464226, 0.000040457235, -0.000120120065, -877848.2, -42053.94, 0.0, 10.000169, 9.94287 
3.415008e+3, 2.2465143e+2, -789563.1, -843135.9, 1.0543497, 0.000040362153, 0.00012749949, -789563.1, -51147.12, 0.0, 10.000168, 9.929829 
3.415008e+3, 2.3458134e+2, -691131.06, -744958.6, 0.4928407, 0.000040265757, -0.00008282448, -691131.06, -50028.008, 0.0, 10.000168, 9.929498 
3.415008e+3, 2.4450427e+2, -602808.0, -667011.9, 0.9972565, 0.0000401628, 0.00008026946, -602808.0, -58949.867, 0.0, 10.000167, 9.916057 
3.415008e+3, 2.5442046e+2, -504056.66, -568337.5, 0.42979884, 0.000040051975, -0.00010137838, -504056.66, -57377.074, 0.0, 10.000167, 9.9159565 
3.415008e+3, 2.6432952e+2, -415822.38, -490983.3, 0.8663427, 0.000039954593, 0.00014564223, -415822.38, -66251.89, 0.0, 10.000167, 9.901885 
3.415008e+3, 2.74232e+2, -316538.5, -391371.3, 0.31898838, 0.00003987429, -0.0001988445, -316538.5, -64011.902, 0.0, 10.000166, 9.902306 
3.415008e+3, 2.841262e+2, -230065.47, -318077.3, 0.6800614, 0.000039794795, 0.0002333125, -230065.47, -74502.15, 0.0, 10.000166, 9.885361 
3.415008e+3, 2.940126e+2, -130360.61, -217762.06, 0.14538814, 0.00003971628, -0.00024925094, -130360.61, -71684.1, 0.0, 10.000166, 9.886139 
3.415008e+3, 3.0392697e+2, -40620.48, -84751.87, 0.38157663, 0.000039601044, 0.00017678141, -40620.48, -40620.48, 0.0, 10.000165, 9.942092 
3.4150076e+3, 3.1387094e+2, -39543.2, -82513.57, -0.1552626, 0.000039431365, -0.000052348594, -39543.2, -39543.2, 0.0, 10.000165, 9.9436035 
3.4250084e+3, 1.24995254e+2, -1719725.9, -1724204.1, 0.6841594, 0.000042739, 0.00003512729, -1719725.9, -4679.3125, 0.0, 10.00018, 9.994243 
3.4250084e+3, 1.349894e+2, -1622348.1, -1627416.6, 0.095075585, 0.000042347576, -0.000080935526, -1622348.1, -5244.0737, 0.0, 10.000179, 9.993461 
3.4250084e+3, 1.4497688e+2, -1534246.3, -1548125.0, 0.9360969, 0.000042095584, 0.00009957401, -1534246.3, -15019.635, 0.0, 10.000179, 9.981783 
3.4250084e+3, 1.5495868e+2, -1436520.5, -1450802.3, 0.35600883, 0.00004197567, -0.000048015594, -1436520.5, -15115.524, 0.0, 10.000178, 9.981252 
3.4250084e+3, 1.6493383e+2, -1348471.8, -1371934.9, 1.2002643, 0.000041853455, 0.000049382903, -1348471.8, -24823.287, 0.0, 10.000177, 9.969166 
3.425008e+3, 1.7490305e+2, -1250515.5, -1274294.1, 0.60452914, 0.00004172897, -0.000065673914, -1250515.5, -24565.346, 0.0, 10.000177, 9.968752 
3.425008e+3, 1.8486562e+2, -1162435.3, -1195704.0, 1.3666383, 0.000041586787, 0.00007620418, -1162435.3, -34118.355, 0.0, 10.000176, 9.956314 
3.425008e+3, 1.9482197e+2, -1064287.1, -1097818.1, 0.78709227, 0.000041426025, -0.000050105686, -1064287.1, -33542.5, 0.0, 10.000176, 9.955971 
3.425008e+3, 2.0477167e+2, -976124.3, -1019421.0, 1.4526854, 0.000041295374, 0.00007453176, -976124.3, -42886.547, 0.0, 10.000175, 9.94321 
3.425008e+3, 2.147149e+2, -877838.8, -921397.06, 0.8515674, 0.000041197287, -0.00011994162, -877838.8, -42044.85, 0.0, 10.000175, 9.942868 
3.425008e+3, 2.2465146e+2, -789553.75, -843132.94, 1.4299785, 0.00004110165, 0.00012768838, -789553.75, -51137.996, 0.0, 10.0001745, 9.929827 
3.425008e+3, 2.3458135e+2, -691121.6, -744955.7, 0.85580325, 0.00004100874, -0.000082663566, -691121.6, -50018.86, 0.0, 10.0001745, 9.929496 
3.425008e+3, 2.445043e+2, -602798.6, -667009.06, 1.367087, 0.000040910985, 0.00008041161, -602798.6, -58940.727, 0.0, 10.0001745, 9.916056 
3.425008e+3, 2.5442046e+2, -504047.3, -568334.7, 0.7790109, 0.000040807416, -0.000101243924, -504047.3, -57367.934, 0.0, 10.000174, 9.915956 
3.4250078e+3, 2.6432955e+2, -415813.03, -490980.53, 1.1871262, 0.00004071183, 0.00014577458, -415813.03, -66242.73, 0.0, 10.000174, 9.901884 
3.4250078e+3, 2.74232e+2, -316529.16, -391368.56, 0.6027891, 0.00004062638, -0.00019870714, -316529.16, -64002.74, 0.0, 10.000174, 9.902304 
3.4250078e+3, 2.8412622e+2, -230056.13, -318074.56, 0.93259656, 0.000040546158, 0.00023344177, -230056.13, -74492.96, 0.0, 10.000173, 9.885359 
3.4250078e+3, 2.940126e+2, -130351.305, -217759.36, 0.37536407, 0.000040472998, -0.00024914768, -130351.305, -71674.94, 0.0, 10.000173, 9.886137 
3.4250078e+3, 3.0392697e+2, -40611.305, -84749.375, 0.56696576, 0.000040357874, 0.00017687761, -40611.305, -40611.305, 0.0, 10.000173, 9.94209 
3.4250078e+3, 3.1387094e+2, -39533.977, -82511.07, -0.016992863, 0.000040180494, -0.00005223109, -39533.977, -39533.977, 0.0, 10.000173, 9.943602 
3.4350085e+3, 1.2499529e+2, -1719727.3, -1724206.6, 0.35812855, 0.00004345694, 0.000035635843, -1719727.3, -4681.084, 0.0, 10.00018, 9.994242 
3.4350085e+3, 1.3498944e+2, -1622349.4, -1627419.1, -0.23095521, 0.00004309685, -0.00008127256, -1622349.4, -5245.8164, 0.0, 10.000179, 9.993459 
3.4350085e+3, 1.4497693e+2, -1534247.5, -1548127.5, 0.6788893, 0.000042863725, 0.00010017013, -1534247.5, -15021.342, 0.0, 10.000179, 9.981781 
3.4350082e+3, 1.5495871e+2, -1436521.9, -1450804.6, 0.098892674, 0.00004274996, -0.000047828955, -1436521.9, -15117.197, 0.0, 10.000178, 9.98125 
3.4350082e+3, 1.6493389e+2, -1348473.0, -1371937.5, 0.9835323, 0.000042603642, 0.000049434744, -1348473.0, -24824.975, 0.0, 10.000177, 9.969165 
3.4350082e+3, 1.749031e+2, -1250516.9, -1274296.6, 0.38799337, 0.000042424163, -0.00006547644, -1250516.9, -24567.004, 0.0, 10.000177, 9.968751 
3.4350082e+3, 1.8486567e+2, -1162436.6, -1195706.5, 1.1948798, 0.00004228914, 0.00007644859, -1162436.6, -34119.965, 0.0, 10.000176, 9.956312 
3.4350082e+3, 1.9482201e+2, -1064288.5, -1097820.6, 0.6158191, 0.00004220055, -0.000049917617, -1064288.5, -33544.082, 0.0, 10.000176, 9.95597 
3.4350082e+3, 2.047717e+2, -976125.6, -1019423.56, 1.3077724, 0.000042085954, 0.00007467841, -976125.6, -42888.164, 0.0, 10.000175, 9.943208 
3.4350082e+3, 2.1471493e+2, -877840.1, -921399.6, 0.70720494, 0.000041943193, -0.000119820186, -877840.1, -42046.434, 0.0, 10.000175, 9.942866 
3.4350082e+3, 2.2465149e+2, -789555.0, -843135.44, 1.3029319, 0.000041834468, 0.00012782353, -789555.0, -51139.523, 0.0, 10.0001745, 9.929825 
3.435008e+3, 2.3458138e+2, -691122.9, -744958.1, 0.72927195, 0.00004176423, -0.00008247068, -691122.9, -50020.35, 0.0, 10.0001745, 9.929494 
3.435008e+3, 2.4450432e+2, -602799.94, -667011.6, 1.2605231, 0.000041679883, 0.000080605816, -602799.94, -58942.246, 0.0, 10.0001745, 9.916054 
3.435008e+3, 2.544205e+2, -504048.6, -568337.25, 0.67339987, 0.00004157862, -0.000101115824, -504048.6, -57369.42, 0.0, 10.000174, 9.915954 
3.435008e+3, 2.6432958e+2, -415814.3, -490983.13, 1.080543, 0.000041480365, 0.00014587172, -415814.3, -66244.2, 0.0, 10.000174, 9.901882 
3.435008e+3, 2.7423203e+2, -316530.4, -391371.13, 0.4961168, 0.000041385934, -0.00019859613, -316530.4, -64004.18, 0.0, 10.000174, 9.902302 
3.435008e+3, 2.8412622e+2, -230057.36, -318077.1, 0.8206304, 0.000041313713, 0.00023356332, -230057.36, -74494.35, 0.0, 10.000173, 9.885357 
3.435008e+3, 2.9401264e+2, -130352.516, -217761.88, 0.262883, 0.000041271815, -0.00024902044, -130352.516, -71676.29, 0.0, 10.000173, 9.886136 
3.435008e+3, 3.0392697e+2, -40612.58, -84752.03, 0.45067152, 0.000041147512, 0.00017701118, -40612.58, -40612.58, 0.0, 10.000173, 9.942088 
3.435008e+3, 3.1387097e+2, -39535.26, -82513.74, -0.13375756, 0.0000409007, -0.000052090247, -39535.26, -39535.26, 0.0, 10.000173, 9.9436 
3.4450087e+3, 1.24995336e+2, -1719717.5, -1724203.3, 0.6856319, 0.00004422775, 0.000036062018, -1719717.5, -4671.758, 0.0, 10.000187, 9.99424 
3.4450084e+3, 1.3498947e+2, -1622339.6, -1627415.6, 0.10188876, 0.000043852877, -0.000081597325, -1622339.6, -5236.446, 0.0, 10.000187, 9.993457 
3.4450084e+3, 1.4497697e+2, -1534237.8, -1548124.1, 1.0696434, 0.000043616896, 0.000100835125, -1534237.8, -15011.964, 0.0, 10.000186, 9.98178 
3.4450084e+3, 1.5495875e+2, -1436512.1, -1450801.4, 0.48141128, 0.000043512067, -0.000047618178, -1436512.1, -15107.864, 0.0, 10.000185, 9.981248 
3.4450084e+3, 1.6493392e+2, -1348463.4, -1371934.3, 1.4138986, 0.000043361793, 0.000049481787, -1348463.4, -24815.652, 0.0, 10.000184, 9.969163 
3.4450084e+3, 1.7490312e+2, -1250507.1, -1274293.4, 0.80845547, 0.00004316521, -0.000065296575, -1250507.1, -24557.602, 0.0, 10.000184, 9.968749 
3.4450084e+3, 1.848657e+2, -1162426.8, -1195703.3, 1.6279058, 0.00004302891, 0.00007668081, -1162426.8, -34110.527, 0.0, 10.000183, 9.956311 
3.4450084e+3, 1.9482204e+2, -1064278.8, -1097817.4, 1.018144, 0.0000429556, -0.000049717244, -1064278.8, -33534.67, 0.0, 10.000183, 9.955968 
3.4450084e+3, 2.0477173e+2, -976115.94, -1019420.44, 1.7318176, 0.000042854474, 0.00007485076, -976115.94, -42878.773, 0.0, 10.000182, 9.943206 
3.4450084e+3, 2.1471496e+2, -877830.44, -921396.56, 1.14265, 0.000042723215, -0.000119671735, -877830.44, -42037.035, 0.0, 10.000182, 9.942865 
3.4450084e+3, 2.2465152e+2, -789545.3, -843132.4, 1.7462676, 0.000042611733, 0.00012797173, -789545.3, -51130.094, 0.0, 10.000182, 9.929824 
3.4450084e+3, 2.3458141e+2, -691113.1, -744955.1, 1.1143248, 0.00004252259, -0.00008229601, -691113.1, -50010.824, 0.0, 10.000182, 9.929492 
3.4450084e+3, 2.4450435e+2, -602790.1, -667008.6, 1.6159177, 0.000042437012, 0.00008078171, -602790.1, -58932.664, 0.0, 10.000181, 9.916052 
3.4450084e+3, 2.5442052e+2, -504038.8, -568334.3, 1.0230987, 0.000042355623, -0.0001009689, -504038.8, -57359.875, 0.0, 10.000181, 9.915952 
3.4450084e+3, 2.6432958e+2, -415804.6, -490980.25, 1.4220694, 0.000042269472, 0.00014599942, -415804.6, -66234.69, 0.0, 10.000181, 9.90188 
3.4450084e+3, 2.7423203e+2, -316520.7, -391368.28, 0.8094899, 0.000042177213, -0.00019847517, -316520.7, -63994.64, 0.0, 10.00018, 9.902301 
3.4450084e+3, 2.8412625e+2, -230047.58, -318074.25, 1.0967232, 0.00004210438, 0.0002336867, -230047.58, -74484.75, 0.0, 10.00018, 9.885355 
3.4450084e+3, 2.9401264e+2, -130342.7, -217759.03, 0.49087983, 0.000042058105, -0.00024888213, -130342.7, -71666.64, 0.0, 10.00018, 9.886134 
3.4450084e+3, 3.03927e+2, -40602.9, -84749.41, 0.6191615, 0.00004192821, 0.00017714231, -40602.9, -40602.9, 0.0, 10.00018, 9.942086 
3.4450084e+3, 3.1387097e+2, -39525.598, -82511.14, 0.0023298734, 0.000041674048, -0.00005199925, -39525.598, -39525.598, 0.0, 10.000179, 9.943598 
3.455009e+3, 1.2499538e+2, -1719718.9, -1724205.8, 0.37890488, 0.000045051263, 0.00003641885, -1719718.9, -4673.532, 0.0, 10.000187, 9.994238 
3.455009e+3, 1.3498951e+2, -1622341.0, -1627418.1, -0.20489202, 0.000044615666, -0.00008190987, -1622341.0, -5238.193, 0.0, 10.000187, 9.993456 
3.455009e+3, 1.44977e+2, -1534239.1, -1548126.6, 0.80992556, 0.000044355173, 0.00010156876, -1534239.1, -15013.707, 0.0, 10.000186, 9.981778 
3.455009e+3, 1.549588e+2, -1436513.5, -1450803.9, 0.22174066, 0.000044262048, -0.00004738334, -1436513.5, -15109.572, 0.0, 10.000185, 9.981247 
3.455009e+3, 1.6493396e+2, -1348464.8, -1371936.8, 1.2249777, 0.000044127908, 0.000049524057, -1348464.8, -24817.379, 0.0, 10.000184, 9.969161 
3.455009e+3, 1.7490315e+2, -1250508.4, -1274296.0, 0.6198871, 0.000043951983, -0.000065134256, -1250508.4, -24559.297, 0.0, 10.000184, 9.968747 
3.4550086e+3, 1.8486573e+2, -1162428.1, -1195705.9, 1.4574991, 0.000043805998, 0.000076900884, -1162428.1, -34112.22, 0.0, 10.000183, 9.956309 
3.4550086e+3, 1.9482207e+2, -1064280.0, -1097820.0, 0.8479343, 0.000043691267, -0.0000495046, -1064280.0, -33536.332, 0.0, 10.000183, 9.955966 
3.4550086e+3, 2.0477176e+2, -976117.25, -1019423.0, 1.5978143, 0.00004360103, 0.0000750487, -976117.25, -42880.383, 0.0, 10.000182, 9.943205 
3.4550086e+3, 2.1471499e+2, -877831.7, -921399.06, 1.0093379, 0.000043537275, -0.000119496326, -877831.7, -42038.613, 0.0, 10.000182, 9.942863 
3.4550086e+3, 2.2465153e+2, -789546.7, -843135.1, 1.6525096, 0.000043433327, 0.00012813296, -789546.7, -51131.75, 0.0, 10.000182, 9.929822 
3.4550086e+3, 2.3458144e+2, -691114.5, -744957.8, 1.0218766, 0.000043283853, -0.00008213948, -691114.5, -50012.45, 0.0, 10.000182, 9.929491 
3.4550086e+3, 2.4450436e+2, -602791.44, -667011.2, 1.5115868, 0.00004318245, 0.00008093936, -602791.44, -58934.207, 0.0, 10.000181, 9.91605 
3.4550086e+3, 2.5442055e+2, -504040.1, -568336.9, 0.9181445, 0.00004313844, -0.0001008032, -504040.1, -57361.383, 0.0, 10.000181, 9.91595 
3.4550086e+3, 2.643296e+2, -415805.9, -490982.94, 1.3307686, 0.000043079122, 0.00014615762, -415805.9, -66236.23, 0.0, 10.000181, 9.901878 
3.4550086e+3, 2.7423206e+2, -316522.0, -391371.0, 0.7190835, 0.00004300015, -0.00019834429, -316522.0, -63996.15, 0.0, 10.00018, 9.902299 
3.4550083e+3, 2.8412625e+2, -230048.89, -318076.97, 1.0077344, 0.000042918113, 0.00023381194, -230048.89, -74486.24, 0.0, 10.00018, 9.885354 
3.4550083e+3, 2.9401267e+2, -130344.01, -217761.73, 0.40200636, 0.00004283194, -0.00024873277, -130344.01, -71668.09, 0.0, 10.00018, 9.886132 
3.4550083e+3, 3.03927e+2, -40604.23, -84752.18, 0.50369966, 0.000042700038, 0.00017727098, -40604.23, -40604.23, 0.0, 10.00018, 9.942084 
3.4550083e+3, 3.1387097e+2, -39526.938, -82513.93, -0.116263285, 0.000042500396, -0.000051957944, -39526.938, -39526.938, 0.0, 10.000179, 9.943596 
3.465009e+3, 1.2499543e+2, -1719708.8, -1724202.3, 0.8418664, 0.000045825112, 0.000036706773, -1719708.8, -4663.91, 0.0, 10.000195, 9.994237 
3.465009e+3, 1.3498956e+2, -1622331.0, -1627414.8, 0.19314568, 0.000045378114, -0.00008225824, -1622331.0, -5228.6353, 0.0, 10.000194, 9.993454 
3.465009e+3, 1.4497705e+2, -1534229.1, -1548123.1, 1.2294995, 0.000045112734, 0.00010230053, -1534229.1, -15004.104, 0.0, 10.000193, 9.981776 
3.465009e+3, 1.5495883e+2, -1436503.4, -1450800.4, 0.62208873, 0.000045021086, -0.00004717559, -1436503.4, -15099.899, 0.0, 10.000193, 9.981245 
3.465009e+3, 1.64934e+2, -1348454.6, -1371933.4, 1.6675872, 0.000044899673, 0.000049548937, -1348454.6, -24807.725, 0.0, 10.000192, 9.969159 
3.4650087e+3, 1.749032e+2, -1250498.5, -1274292.6, 1.0535501, 0.000044747954, -0.00006494393, -1250498.5, -24549.713, 0.0, 10.000191, 9.968746 
3.4650087e+3, 1.8486577e+2, -1162418.3, -1195702.5, 1.9218774, 0.00004460398, 0.00007713836, -1162418.3, -34102.625, 0.0, 10.000191, 9.956307 
3.4650087e+3, 1.9482212e+2, -1064270.0, -1097816.8, 1.3022703, 0.000044468037, -0.00004934375, -1064270.0, -33526.633, 0.0, 10.000191, 9.955964 
3.4650087e+3, 2.0477179e+2, -976107.1, -1019419.75, 2.051946, 0.000044367895, 0.000075201955, -976107.1, -42870.6, 0.0, 10.00019, 9.943203 
3.4650087e+3, 2.1471503e+2, -877821.56, -921395.8, 1.4054041, 0.00004430648, -0.000119275915, -877821.56, -42028.766, 0.0, 10.00019, 9.942862 
3.4650087e+3, 2.2465156e+2, -789536.56, -843131.94, 2.0555396, 0.000044217955, 0.00012834666, -789536.56, -51121.9, 0.0, 10.00019, 9.92982 
3.4650087e+3, 2.3458146e+2, -691104.44, -744954.7, 1.4508842, 0.00004409872, -0.00008201611, -691104.44, -50002.652, 0.0, 10.000189, 9.929489 
3.4650087e+3, 2.4450439e+2, -602781.4, -667008.2, 1.9366769, 0.000044003624, 0.000081042104, -602781.4, -58924.4, 0.0, 10.000189, 9.916048 
3.4650084e+3, 2.5442055e+2, -504029.94, -568333.8, 1.2809848, 0.000043937343, -0.00010063778, -504029.94, -57351.45, 0.0, 10.000189, 9.915949 
3.4650084e+3, 2.6432964e+2, -415795.7, -490979.9, 1.6518775, 0.000043869695, 0.00014634251, -415795.7, -66226.21, 0.0, 10.000189, 9.901876 
3.4650084e+3, 2.742321e+2, -316511.75, -391367.97, 1.01541, 0.00004380019, -0.00019819506, -316511.75, -63986.105, 0.0, 10.000189, 9.902297 
3.4650084e+3, 2.8412628e+2, -230038.64, -318073.97, 1.2787716, 0.00004372884, 0.00023393598, -230038.64, -74476.164, 0.0, 10.000188, 9.885352 
3.4650084e+3, 2.9401267e+2, -130333.805, -217758.78, 0.6579504, 0.00004365491, -0.00024861936, -130333.805, -71658.055, 0.0, 10.000188, 9.88613 
3.4650084e+3, 3.0392703e+2, -40594.16, -84749.44, 0.7220629, 0.000043533983, 0.00017735755, -40594.16, -40594.16, 0.0, 10.000188, 9.942082 
3.4650084e+3, 3.13871e+2, -39516.805, -82511.17, 0.085684724, 0.00004334341, -0.000051922445, -39516.805, -39516.805, 0.0, 10.000188, 9.943594 
3.4750092e+3, 1.2499548e+2, -1719710.3, -1724205.0, 0.52913666, 0.000046549492, 0.000036938993, -1719710.3, -4665.8545, 0.0, 10.000195, 9.994235 
3.4750092e+3, 1.349896e+2, -1622332.5, -1627417.5, -0.11958087, 0.000046140245, -0.000082642306, -1622332.5, -5230.549, 0.0, 10.000194, 9.993452 
3.4750092e+3, 1.449771e+2, -1534230.5, -1548125.8, 0.9940466, 0.00004588954, 0.00010303046, -1534230.5, -15005.907, 0.0, 10.000193, 9.981775 
3.475009e+3, 1.5495887e+2, -1436504.8, -1450803.0, 0.38674352, 0.000045789177, -0.000046994828, -1436504.8, -15101.667, 0.0, 10.000193, 9.981243 
3.475009e+3, 1.6493404e+2, -1348456.0, -1371936.0, 1.4717287, 0.00004567709, 0.0000495565, -1348456.0, -24809.488, 0.0, 10.000192, 9.969158 
3.475009e+3, 1.7490323e+2, -1250499.9, -1274295.3, 0.8578606, 0.00004555313, -0.0000647257, -1250499.9, -24551.445, 0.0, 10.000191, 9.968744 
3.475009e+3, 1.848658e+2, -1162419.6, -1195705.3, 1.7860436, 0.00004542282, 0.00007739316, -1162419.6, -34104.355, 0.0, 10.000191, 9.9563055 
3.475009e+3, 1.9482215e+2, -1064271.4, -1097819.4, 1.167107, 0.000045285793, -0.00004923451, -1064271.4, -33528.33, 0.0, 10.000191, 9.955963 
3.475009e+3, 2.0477182e+2, -976108.56, -1019422.5, 1.9444364, 0.000045155026, 0.00007531069, -976108.56, -42872.344, 0.0, 10.00019, 9.943201 
3.475009e+3, 2.1471506e+2, -877822.94, -921398.56, 1.2984492, 0.000045031007, -0.00011901065, -877822.94, -42030.477, 0.0, 10.00019, 9.94286 
3.475009e+3, 2.2465159e+2, -789537.9, -843134.56, 1.9592344, 0.000044965785, 0.00012861264, -789537.9, -51123.52, 0.0, 10.00019, 9.929818 
3.475009e+3, 2.3458149e+2, -691105.75, -744957.3, 1.3548895, 0.000044967037, -0.00008192577, -691105.75, -50004.24, 0.0, 10.000189, 9.929487 
3.475009e+3, 2.4450442e+2, -602782.75, -667011.0, 1.871486, 0.00004490031, 0.00008109014, -602782.75, -58926.074, 0.0, 10.000189, 9.916046 
3.475009e+3, 2.5442058e+2, -504031.34, -568336.6, 1.2172568, 0.00004475231, -0.000100472644, -504031.34, -57353.094, 0.0, 10.000189, 9.915947 
3.475009e+3, 2.6432967e+2, -415797.06, -490982.72, 1.5809735, 0.00004464129, 0.00014655401, -415797.06, -66227.82, 0.0, 10.000189, 9.901875 
3.475009e+3, 2.742321e+2, -316513.13, -391370.75, 0.9440009, 0.000044577464, -0.00019802754, -316513.13, -63987.67, 0.0, 10.000189, 9.902295 
3.475009e+3, 2.841263e+2, -230039.98, -318076.75, 1.1938611, 0.0000445366, 0.00023405884, -230039.98, -74477.695, 0.0, 10.000188, 9.88535 
3.475009e+3, 2.940127e+2, -130335.125, -217761.55, 0.5717986, 0.000044526878, -0.0002485417, -130335.125, -71659.55, 0.0, 10.000188, 9.886128 
3.475009e+3, 3.0392703e+2, -40595.52, -84752.27, 0.62334317, 0.000044429875, 0.00017740217, -40595.52, -40595.52, 0.0, 10.000188, 9.9420805 
3.475009e+3, 3.13871e+2, -39518.168, -82514.016, -0.0145654045, 0.000044203072, -0.000051892723, -39518.168, -39518.168, 0.0, 10.000188, 9.943592 
3.4850097e+3, 1.2499552e+2, -1719700.0, -1724201.5, 0.8840813, 0.00004728948, 0.00003734318, -1719700.0, -4656.057, 0.0, 10.000201, 9.994233 
3.4850097e+3, 1.3498965e+2, -1622322.1, -1627414.0, 0.24215186, 0.000046914556, -0.0000830164, -1622322.1, -5220.713, 0.0, 10.000201, 9.99345 
3.4850094e+3, 1.4497714e+2, -1534220.1, -1548122.1, 1.4258964, 0.000046680714, 0.00010372814, -1534220.1, -14995.988, 0.0, 10.0002, 9.981773 
3.4850094e+3, 1.5495892e+2, -1436494.5, -1450799.4, 0.8129944, 0.00004657945, -0.00004683267, -1436494.5, -15091.784, 0.0, 10.000199, 9.981242 
3.4850094e+3, 1.6493407e+2, -1348445.8, -1371932.6, 1.9317288, 0.00004646556, 0.000049553913, -1348445.8, -24799.629, 0.0, 10.000199, 9.969156 
3.4850094e+3, 1.7490327e+2, -1250489.5, -1274291.9, 1.2822825, 0.00004633886, -0.0000645145, -1250489.5, -24541.516, 0.0, 10.000198, 9.968742 
3.4850094e+3, 1.8486583e+2, -1162409.3, -1195701.8, 2.243083, 0.000046218593, 0.000077667886, -1162409.3, -34094.355, 0.0, 10.000198, 9.956305 
3.4850094e+3, 1.9482218e+2, -1064261.0, -1097815.9, 1.6112931, 0.000046104968, -0.000049053444, -1064261.0, -33518.29, 0.0, 10.000197, 9.955961 
3.4850094e+3, 2.0477185e+2, -976098.2, -1019419.25, 2.4083848, 0.000045976998, 0.000075450385, -976098.2, -42862.313, 0.0, 10.000197, 9.943199 
3.485009e+3, 2.147151e+2, -877812.56, -921395.3, 1.7507449, 0.000045833476, -0.00011885569, -877812.56, -42020.375, 0.0, 10.000197, 9.942859 
3.485009e+3, 2.2465162e+2, -789527.4, -843131.25, 2.397991, 0.000045764355, 0.00012878394, -789527.4, -51113.305, 0.0, 10.000197, 9.929816 
3.485009e+3, 2.3458152e+2, -691095.1, -744954.0, 1.7520156, 0.000045779372, -0.00008173694, -691095.1, -49993.95, 0.0, 10.000196, 9.929485 
3.485009e+3, 2.4450444e+2, -602772.25, -667007.8, 2.266056, 0.00004572865, 0.00008126895, -602772.25, -58915.81, 0.0, 10.000196, 9.916045 
3.485009e+3, 2.544206e+2, -504020.8, -568333.5, 1.5972918, 0.00004559933, -0.00010033675, -504020.8, -57342.8, 0.0, 10.000196, 9.915945 
3.485009e+3, 2.6432967e+2, -415786.47, -490979.6, 1.939024, 0.00004549132, 0.00014667014, -415786.47, -66217.45, 0.0, 10.000196, 9.901873 
3.485009e+3, 2.7423212e+2, -316502.47, -391367.63, 1.2729523, 0.000045410576, -0.00019790165, -316502.47, -63977.234, 0.0, 10.000196, 9.902293 
3.485009e+3, 2.841263e+2, -230029.27, -318073.6, 1.4778308, 0.000045367226, 0.00023418003, -230029.27, -74467.164, 0.0, 10.000196, 9.885348 
3.485009e+3, 2.9401273e+2, -130324.375, -217758.4, 0.82294047, 0.000045374854, -0.00024844514, -130324.375, -71648.96, 0.0, 10.000196, 9.8861265 
3.485009e+3, 3.0392706e+2, -40584.91, -84749.38, 0.80477685, 0.000045298308, 0.00017749457, -40584.91, -40584.91, 0.0, 10.0001955, 9.942079 
3.485009e+3, 3.1387103e+2, -39507.547, -82511.13, 0.096358344, 0.000045096378, -0.00005177383, -39507.547, -39507.547, 0.0, 10.0001955, 9.94359 
3.4950098e+3, 1.2499557e+2, -1719701.5, -1724204.3, 0.58937126, 0.000048045036, 0.000037937432, -1719701.5, -4658.0044, 0.0, 10.000201, 9.994231 
3.4950095e+3, 1.349897e+2, -1622323.6, -1627416.8, -0.052484013, 0.00004770104, -0.00008338055, -1622323.6, -5222.6284, 0.0, 10.000201, 9.993449 
3.4950095e+3, 1.4497718e+2, -1534221.5, -1548124.8, 1.190244, 0.000047486235, 0.00010439371, -1534221.5, -14997.822, 0.0, 10.0002, 9.981771 
3.4950095e+3, 1.5495896e+2, -1436495.9, -1450802.0, 0.5774226, 0.000047391866, -0.000046689038, -1436495.9, -15093.582, 0.0, 10.000199, 9.98124 
3.4950095e+3, 1.6493411e+2, -1348447.3, -1371935.4, 1.7622452, 0.000047265064, 0.000049541217, -1348447.3, -24801.488, 0.0, 10.000199, 9.969154 
3.4950095e+3, 1.749033e+2, -1250491.0, -1274294.6, 1.113106, 0.00004710525, -0.00006431031, -1250491.0, -24543.342, 0.0, 10.000198, 9.96874 
3.4950095e+3, 1.8486588e+2, -1162410.6, -1195704.5, 2.1262333, 0.000046991416, 0.00007796247, -1162410.6, -34096.133, 0.0, 10.000198, 9.956303 
3.4950092e+3, 1.9482222e+2, -1064262.4, -1097818.6, 1.4950176, 0.000046925587, -0.00004880081, -1064262.4, -33520.03, 0.0, 10.000197, 9.955959 
3.4950092e+3, 2.0477188e+2, -976099.6, -1019422.06, 2.3269706, 0.000046833717, 0.000075620934, -976099.6, -42864.098, 0.0, 10.000197, 9.943197 
3.4950092e+3, 2.1471512e+2, -877814.0, -921398.1, 1.6700532, 0.00004671363, -0.00011881063, -877814.0, -42022.13, 0.0, 10.000197, 9.942857 
3.4950092e+3, 2.2465166e+2, -789528.75, -843134.06, 2.3292186, 0.000046613513, 0.00012886092, -789528.75, -51115.023, 0.0, 10.000197, 9.929815 
3.4950092e+3, 2.3458154e+2, -691096.56, -744956.75, 1.6835613, 0.00004653595, -0.00008144994, -691096.56, -49995.637, 0.0, 10.000196, 9.929483 
3.4950092e+3, 2.4450447e+2, -602773.7, -667010.75, 2.21934, 0.00004648893, 0.00008157807, -602773.7, -58917.53, 0.0, 10.000196, 9.916043 
3.4950092e+3, 2.5442064e+2, -504022.25, -568336.44, 1.5516336, 0.000046478322, -0.00010022999, -504022.25, -57344.49, 0.0, 10.000196, 9.915943 
3.4950092e+3, 2.643297e+2, -415787.9, -490982.5, 1.8972595, 0.000046419547, 0.00014669124, -415787.9, -66219.125, 0.0, 10.000196, 9.901871 
3.4950092e+3, 2.7423215e+2, -316503.9, -391370.53, 1.2314044, 0.000046299378, -0.00019781724, -316503.9, -63978.863, 0.0, 10.000196, 9.902291 
3.4950092e+3, 2.8412634e+2, -230030.67, -318076.47, 1.4171543, 0.000046220677, 0.00023429957, -230030.67, -74468.766, 0.0, 10.000196, 9.885346 
3.4950092e+3, 2.9401273e+2, -130325.766, -217761.28, 0.76049286, 0.000046198955, -0.00024832974, -130325.766, -71650.52, 0.0, 10.000196, 9.886125 
3.495009e+3, 3.0392706e+2, -40586.39, -84752.46, 0.71455216, 0.000046139412, 0.00017763462, -40586.39, -40586.39, 0.0, 10.0001955, 9.942077 
3.495009e+3, 3.1387103e+2, -39509.04, -82514.24, 0.0028313126, 0.000046023244, -0.00005156608, -39509.04, -39509.04, 0.0, 10.0001955, 9.943588 
3.5050097e+3, 1.2499562e+2, -1719691.1, -1724200.5, 0.8336482, 0.000048865342, 0.00003851174, -1719691.1, -4648.125, 0.0, 10.000209, 9.99423 
3.5050097e+3, 1.3498975e+2, -1622313.4, -1627413.1, 0.24939166, 0.000048511516, -0.000083793275, -1622313.4, -5212.7515, 0.0, 10.000208, 9.993447 
3.5050097e+3, 1.4497723e+2, -1534211.1, -1548121.1, 1.5996317, 0.000048296763, 0.00010506073, -1534211.1, -14987.866, 0.0, 10.000207, 9.9817705 
3.5050097e+3, 1.54959e+2, -1436485.3, -1450798.3, 0.9867371, 0.000048212158, -0.00004647973, -1436485.3, -15083.468, 0.0, 10.000207, 9.981238 
3.5050097e+3, 1.6493416e+2, -1348436.8, -1371931.9, 2.2211466, 0.000048078557, 0.000049578823, -1348436.8, -24791.34, 0.0, 10.000207, 9.969152 
3.5050097e+3, 1.7490335e+2, -1250480.3, -1274291.0, 1.5435501, 0.000047895042, -0.0000641524, -1250480.3, -24533.074, 0.0, 10.000206, 9.968739 
3.5050094e+3, 1.848659e+2, -1162399.9, -1195700.9, 2.5704205, 0.000047780777, 0.000078187324, -1162399.9, -34085.758, 0.0, 10.000206, 9.956301 
3.5050094e+3, 1.9482225e+2, -1064251.6, -1097815.0, 1.9162328, 0.000047738857, -0.000048564878, -1064251.6, -33509.656, 0.0, 10.000206, 9.955957 
3.5050094e+3, 2.0477192e+2, -976088.94, -1019418.56, 2.781085, 0.000047676738, 0.000075813674, -976088.94, -42853.723, 0.0, 10.000205, 9.943195 
3.5050094e+3, 2.1471515e+2, -877803.25, -921394.7, 2.1330986, 0.000047592723, -0.0001187198, -877803.25, -42011.71, 0.0, 10.000205, 9.942855 
3.5050094e+3, 2.246517e+2, -789518.0, -843130.7, 2.7924626, 0.00004748838, 0.00012895254, -789518.0, -51104.56, 0.0, 10.000205, 9.929813 
3.5050094e+3, 2.3458157e+2, -691085.6, -744953.4, 2.0722885, 0.000047361, -0.00008124132, -691085.6, -49984.98, 0.0, 10.000205, 9.9294815 
3.5050094e+3, 2.445045e+2, -602762.6, -667007.3, 2.5764508, 0.000047301673, 0.000081802675, -602762.6, -58906.723, 0.0, 10.000205, 9.916041 
3.5050094e+3, 2.5442067e+2, -504011.16, -568333.0, 1.9233339, 0.00004732358, -0.00010011017, -504011.16, -57333.66, 0.0, 10.000205, 9.915941 
3.5050094e+3, 2.6432973e+2, -415776.88, -490979.25, 2.2619898, 0.000047293957, 0.00014676695, -415776.88, -66208.32, 0.0, 10.000205, 9.901869 
3.5050094e+3, 2.7423218e+2, -316492.84, -391367.3, 1.5473032, 0.000047198555, -0.00019770817, -316492.84, -63968.035, 0.0, 10.000205, 9.902289 
3.5050094e+3, 2.8412634e+2, -230019.55, -318073.25, 1.6754475, 0.000047129324, 0.00023443354, -230019.55, -74457.836, 0.0, 10.000205, 9.8853445 
3.5050094e+3, 2.9401276e+2, -130314.52, -217758.03, 0.9602205, 0.000047096153, -0.00024818277, -130314.52, -71639.45, 0.0, 10.000205, 9.886123 
3.5050094e+3, 3.039271e+2, -40575.188, -84749.46, 0.82994527, 0.000047022357, 0.00017778159, -40575.188, -40575.188, 0.0, 10.000205, 9.942075 
3.5050094e+3, 3.1387106e+2, -39497.652, -82511.17, 0.06170822, 0.000046887973, -0.000051438252, -39497.652, -39497.652, 0.0, 10.000204, 9.943585 
3.51501e+3, 1.24995664e+2, -1719692.5, -1724203.0, 0.5479974, 0.00004975017, 0.000039085164, -1719692.5, -4649.952, 0.0, 10.000209, 9.994228 
3.51501e+3, 1.349898e+2, -1622314.6, -1627415.6, -0.036306746, 0.000049345927, -0.00008425439, -1622314.6, -5214.55, 0.0, 10.000208, 9.993445 
3.51501e+3, 1.4497729e+2, -1534212.5, -1548123.8, 1.4095442, 0.000049112306, 0.00010572922, -1534212.5, -14989.716, 0.0, 10.000207, 9.981769 
3.51501e+3, 1.5495905e+2, -1436486.6, -1450800.9, 0.79672223, 0.000049040333, -0.000046204983, -1436486.6, -15085.283, 0.0, 10.000207, 9.981236 
3.51501e+3, 1.649342e+2, -1348438.3, -1371934.8, 2.0899901, 0.00004890601, 0.000049666538, -1348438.3, -24793.28, 0.0, 10.000207, 9.969151 
3.51501e+3, 1.749034e+2, -1250481.8, -1274293.9, 1.4127487, 0.000048708178, -0.00006404058, -1250481.8, -24534.979, 0.0, 10.000206, 9.968738 
3.51501e+3, 1.8486595e+2, -1162401.4, -1195703.8, 2.4643779, 0.000048586655, 0.00007834272, -1162401.4, -34087.598, 0.0, 10.000206, 9.956299 
3.51501e+3, 1.948223e+2, -1064253.1, -1097817.9, 1.810408, 0.000048544844, -0.000048345577, -1064253.1, -33511.46, 0.0, 10.000206, 9.9559555 
3.51501e+3, 2.0477195e+2, -976090.4, -1019421.4, 2.720078, 0.00004850615, 0.000076028526, -976090.4, -42855.504, 0.0, 10.000205, 9.943193 
3.51501e+3, 2.147152e+2, -877804.6, -921397.44, 2.0729797, 0.000048470796, -0.00011858336, -877804.6, -42013.457, 0.0, 10.000205, 9.942853 
3.51501e+3, 2.2465174e+2, -789519.56, -843133.8, 2.7801836, 0.000048388898, 0.00012905877, -789519.56, -51106.44, 0.0, 10.000205, 9.929811 
3.51501e+3, 2.345816e+2, -691087.2, -744956.5, 2.0615911, 0.000048254307, -0.00008111077, -691087.2, -49986.83, 0.0, 10.000205, 9.92948 
3.51501e+3, 2.4450453e+2, -602764.06, -667010.2, 2.5477388, 0.00004816672, 0.00008194306, -602764.06, -58908.434, 0.0, 10.000205, 9.916039 
3.51501e+3, 2.544207e+2, -504012.56, -568335.8, 1.893687, 0.00004813527, -0.000099977326, -504012.56, -57335.33, 0.0, 10.000205, 9.915939 
3.5150096e+3, 2.6432976e+2, -415778.4, -490982.34, 2.239007, 0.000048114798, 0.00014689709, -415778.4, -66210.086, 0.0, 10.000205, 9.901867 
3.5150096e+3, 2.7423218e+2, -316494.38, -391370.4, 1.524744, 0.00004810812, -0.00019757454, -316494.38, -63969.773, 0.0, 10.000205, 9.9022875 
3.5150096e+3, 2.8412637e+2, -230021.06, -318076.38, 1.6604192, 0.000048092996, 0.0002345819, -230021.06, -74459.55, 0.0, 10.000205, 9.885343 
3.5150096e+3, 2.9401276e+2, -130316.016, -217761.13, 0.94585764, 0.000048066217, -0.00024800436, -130316.016, -71641.13, 0.0, 10.000205, 9.886121 
3.5150096e+3, 3.039271e+2, -40576.77, -84752.75, 0.7916171, 0.00004794703, 0.00017793546, -40576.77, -40576.77, 0.0, 10.000205, 9.942073 
3.5150096e+3, 3.1387106e+2, -39499.242, -82514.49, 0.020596635, 0.00004769084, -0.000051390063, -39499.242, -39499.242, 0.0, 10.000204, 9.9435835 
3.5250103e+3, 1.2499572e+2, -1719682.0, -1724199.3, 0.99666125, 0.000050605482, 0.000039373546, -1719682.0, -4640.0137, 0.0, 10.0002165, 9.994226 
3.5250103e+3, 1.3498984e+2, -1622304.0, -1627411.9, 0.35275394, 0.000050141087, -0.00008473323, -1622304.0, -5204.3574, 0.0, 10.000216, 9.993444 
3.5250103e+3, 1.4497733e+2, -1534201.8, -1548120.0, 1.810995, 0.00004988739, 0.00010650685, -1534201.8, -14979.436, 0.0, 10.000215, 9.981767 
3.5250103e+3, 1.549591e+2, -1436475.9, -1450797.3, 1.1356575, 0.00004983541, -0.000045904697, -1436475.9, -15074.944, 0.0, 10.000215, 9.9812355 
3.52501e+3, 1.6493425e+2, -1348427.4, -1371931.1, 2.4846518, 0.000049735463, 0.0000497394, -1348427.4, -24782.893, 0.0, 10.000215, 9.96915 
3.52501e+3, 1.7490344e+2, -1250471.0, -1274290.3, 1.8637329, 0.00004958668, -0.00006393995, -1250471.0, -24524.543, 0.0, 10.000214, 9.968736 
3.52501e+3, 1.84866e+2, -1162390.5, -1195700.1, 2.956254, 0.000049464634, 0.000078477955, -1162390.5, -34077.12, 0.0, 10.000214, 9.956297 
3.52501e+3, 1.9482233e+2, -1064242.0, -1097814.3, 2.2370722, 0.00004937046, -0.00004816866, -1064242.0, -33500.785, 0.0, 10.000214, 9.955954 
3.52501e+3, 2.0477201e+2, -976079.1, -1019417.7, 3.1309206, 0.0000493171, 0.000076230186, -976079.1, -42844.637, 0.0, 10.000214, 9.9431925 
3.52501e+3, 2.1471523e+2, -877793.3, -921393.75, 2.451592, 0.000049307877, -0.000118375276, -877793.3, -42002.492, 0.0, 10.000214, 9.942851 
3.52501e+3, 2.2465177e+2, -789508.3, -843130.3, 3.19018, 0.00004925927, 0.00012922843, -789508.3, -51095.516, 0.0, 10.000214, 9.929809 
3.52501e+3, 2.3458163e+2, -691075.94, -744953.06, 2.4959915, 0.000049166054, -0.00008103024, -691075.94, -49975.902, 0.0, 10.000214, 9.929478 
3.5250098e+3, 2.4450456e+2, -602752.75, -667006.7, 2.966363, 0.000049087073, 0.00008201344, -602752.75, -58897.387, 0.0, 10.000214, 9.916038 
3.5250098e+3, 2.5442073e+2, -504001.06, -568332.3, 2.236167, 0.000049025097, -0.00009982274, -504001.06, -57324.09, 0.0, 10.000214, 9.915937 
3.5250098e+3, 2.643298e+2, -415766.8, -490978.94, 2.5270274, 0.000048991104, 0.00014707843, -415766.8, -66198.75, 0.0, 10.000214, 9.901865 
3.5250098e+3, 2.742322e+2, -316482.7, -391367.0, 1.785284, 0.00004899263, -0.00019743975, -316482.7, -63958.305, 0.0, 10.000214, 9.902286 
3.5250098e+3, 2.841264e+2, -230009.28, -318072.94, 1.8956797, 0.000048994152, 0.00023469605, -230009.28, -74447.97, 0.0, 10.000214, 9.88534 
3.5250098e+3, 2.9401278e+2, -130304.22, -217757.72, 1.1648619, 0.00004899546, -0.00024787505, -130304.22, -71629.52, 0.0, 10.000214, 9.886119 
3.5250098e+3, 3.0392712e+2, -40565.098, -84749.56, 0.9867564, 0.0000489031, 0.00017801477, -40565.098, -40565.098, 0.0, 10.000214, 9.94207 
3.5250098e+3, 3.1387106e+2, -39487.5, -82511.28, 0.24124222, 0.000048671747, -0.000051457755, -39487.5, -39487.5, 0.0, 10.000214, 9.943582 
3.5350105e+3, 1.24995776e+2, -1719683.5, -1724202.1, 0.7802375, 0.000051431416, 0.000039397073, -1719683.5, -4641.993, 0.0, 10.0002165, 9.9942255 
3.5350105e+3, 1.349899e+2, -1622305.5, -1627414.6, 0.13627824, 0.000050897186, -0.00008522971, -1622305.5, -5206.309, 0.0, 10.000216, 9.993443 
3.5350105e+3, 1.4497738e+2, -1534203.3, -1548122.9, 1.6432322, 0.000050622206, 0.000107393214, -1534203.3, -14981.443, 0.0, 10.000215, 9.981765 
3.5350105e+3, 1.5495914e+2, -1436477.4, -1450800.1, 0.96794224, 0.00005059755, -0.000045578974, -1436477.4, -15076.912, 0.0, 10.000215, 9.981234 
3.5350102e+3, 1.6493428e+2, -1348428.8, -1371933.8, 2.37503, 0.000050566934, 0.00004979745, -1348428.8, -24784.719, 0.0, 10.000215, 9.969148 
3.5350102e+3, 1.7490347e+2, -1250472.4, -1274292.9, 1.7543637, 0.000050530332, -0.00006385045, -1250472.4, -24526.338, 0.0, 10.000214, 9.968734 
3.5350102e+3, 1.8486603e+2, -1162392.0, -1195703.3, 2.9078567, 0.000050414474, 0.000078593126, -1162392.0, -34079.113, 0.0, 10.000214, 9.956295 
3.5350102e+3, 1.9482237e+2, -1064243.6, -1097817.3, 2.1893787, 0.00005021567, -0.000048033962, -1064243.6, -33502.742, 0.0, 10.000214, 9.955952 
3.5350102e+3, 2.0477204e+2, -976080.6, -1019420.6, 3.104305, 0.00005010969, 0.0000764187, -976080.6, -42846.5, 0.0, 10.000214, 9.943191 
3.5350102e+3, 2.1471526e+2, -877794.8, -921396.7, 2.425344, 0.00005010416, -0.00011809581, -877794.8, -42004.32, 0.0, 10.000214, 9.942849 
3.5350102e+3, 2.246518e+2, -789509.8, -843133.4, 3.1899526, 0.00005009965, 0.00012946132, -789509.8, -51097.367, 0.0, 10.000214, 9.929807 
3.53501e+3, 2.3458166e+2, -691077.44, -744956.06, 2.4966059, 0.000050096216, -0.00008099953, -691077.44, -49977.715, 0.0, 10.000214, 9.929476 
3.53501e+3, 2.4450459e+2, -602754.3, -667009.9, 2.995255, 0.00005006256, 0.00008201408, -602754.3, -58899.25, 0.0, 10.000214, 9.916035 
3.53501e+3, 2.5442076e+2, -504002.63, -568335.44, 2.2663765, 0.000049992806, -0.0000996465, -504002.63, -57325.918, 0.0, 10.000214, 9.9159355 
3.53501e+3, 2.643298e+2, -415768.4, -490982.16, 2.54971, 0.000049922714, 0.00014731077, -415768.4, -66200.586, 0.0, 10.000214, 9.901863 
3.53501e+3, 2.7423224e+2, -316484.25, -391370.2, 1.807457, 0.00004985224, -0.00019730379, -316484.25, -63960.1, 0.0, 10.000214, 9.902283 
3.53501e+3, 2.8412643e+2, -230010.83, -318076.13, 1.9030856, 0.000049833077, 0.00023477618, -230010.83, -74449.72, 0.0, 10.000214, 9.885338 
3.53501e+3, 2.940128e+2, -130305.74, -217760.88, 1.1709045, 0.000049884078, -0.00024779464, -130305.74, -71631.234, 0.0, 10.000214, 9.886117 
3.53501e+3, 3.0392715e+2, -40566.63, -84752.766, 0.96991605, 0.0000498905, 0.00017801979, -40566.63, -40566.63, 0.0, 10.000214, 9.942068 
3.53501e+3, 3.138711e+2, -39489.035, -82514.484, 0.22166158, 0.000049830065, -0.00005164088, -39489.035, -39489.035, 0.0, 10.000214, 9.943579 
3.5450107e+3, 1.2499583e+2, -1719672.5, -1724198.3, 1.2438167, 0.00005208516, 0.000039593044, -1719672.5, -4631.5415, 0.0, 10.000224, 9.994224 
3.5450107e+3, 1.3498995e+2, -1622294.5, -1627410.9, 0.5216799, 0.00005167137, -0.00008574786, -1622294.5, -5195.8535, 0.0, 10.000223, 9.993441 
3.5450107e+3, 1.4497742e+2, -1534192.3, -1548119.3, 2.0390053, 0.000051453688, 0.000108168235, -1534192.3, -14970.946, 0.0, 10.000223, 9.981763 
3.5450104e+3, 1.549592e+2, -1436466.4, -1450796.4, 1.3465177, 0.000051422667, -0.000045412966, -1436466.4, -15066.333, 0.0, 10.000222, 9.981232 
3.5450104e+3, 1.6493432e+2, -1348417.6, -1371929.9, 2.781844, 0.000051393345, 0.00004976925, -1348417.6, -24773.973, 0.0, 10.000222, 9.969146 
3.5450104e+3, 1.7490351e+2, -1250461.1, -1274289.0, 2.120137, 0.000051365856, -0.000063649466, -1250461.1, -24515.54, 0.0, 10.000222, 9.968732 
3.5450104e+3, 1.8486607e+2, -1162380.9, -1195699.6, 3.3320851, 0.000051274623, 0.00007884091, -1162380.9, -34068.363, 0.0, 10.000222, 9.956293 
3.5450104e+3, 1.948224e+2, -1064232.3, -1097813.6, 2.6237419, 0.00005111667, -0.000047930153, -1064232.3, -33491.824, 0.0, 10.000222, 9.95595 
3.5450104e+3, 2.0477207e+2, -976069.2, -1019417.0, 3.5396612, 0.000051007824, 0.00007649527, -976069.2, -42835.4, 0.0, 10.000222, 9.943189 
3.5450104e+3, 2.147153e+2, -877783.2, -921392.94, 2.7966585, 0.000050952112, -0.00011792008, -877783.2, -41993.02, 0.0, 10.000222, 9.942847 
3.5450104e+3, 2.2465183e+2, -789498.06, -843129.56, 3.5317082, 0.00005094483, 0.00012965515, -789498.06, -51085.914, 0.0, 10.000222, 9.929805 
3.5450104e+3, 2.345817e+2, -691065.6, -744952.3, 2.829642, 0.000050992272, -0.0000808794, -691065.6, -49966.22, 0.0, 10.000222, 9.929474 
3.5450104e+3, 2.4450463e+2, -602742.56, -667006.3, 3.3409266, 0.0000509989, 0.00008211123, -602742.56, -58887.777, 0.0, 10.000222, 9.916033 
3.5450104e+3, 2.544208e+2, -503990.8, -568331.94, 2.5744298, 0.00005095672, -0.000099511686, -503990.8, -57314.35, 0.0, 10.000222, 9.915933 
3.5450104e+3, 2.6432982e+2, -415756.44, -490978.63, 2.839965, 0.000050888564, 0.00014744063, -415756.44, -66188.86, 0.0, 10.000222, 9.901861 
3.5450104e+3, 2.7423227e+2, -316472.06, -391366.6, 2.088181, 0.000050787436, -0.00019723325, -316472.06, -63948.152, 0.0, 10.000223, 9.902281 
3.5450104e+3, 2.8412643e+2, -229998.5, -318072.5, 2.1304579, 0.00005075613, 0.00023482268, -229998.5, -74437.6, 0.0, 10.000223, 9.885336 
3.5450104e+3, 2.940128e+2, -130293.37, -217757.27, 1.3571992, 0.00005082047, -0.0002477236, -130293.37, -71619.05, 0.0, 10.000223, 9.886114 
3.5450104e+3, 3.0392715e+2, -40554.363, -84749.34, 1.0732433, 0.000050871644, 0.00017810514, -40554.363, -40554.363, 0.0, 10.000223, 9.942066 
3.5450104e+3, 3.138711e+2, -39476.742, -82511.07, 0.2566495, 0.00005090233, -0.000051556755, -39476.742, -39476.742, 0.0, 10.000223, 9.943577 
3.555011e+3, 1.2499588e+2, -1719674.3, -1724201.4, 1.0380594, 0.00005256747, 0.00003998751, -1719674.3, -4633.722, 0.0, 10.000224, 9.994222 
3.555011e+3, 1.3498999e+2, -1622296.1, -1627414.0, 0.3160643, 0.0000524636, -0.00008628762, -1622296.1, -5197.9995, 0.0, 10.000223, 9.993439 
3.555011e+3, 1.4497748e+2, -1534193.9, -1548122.1, 1.8986218, 0.00005238147, 0.000108832384, -1534193.9, -14973.007, 0.0, 10.000223, 9.981761 
3.555011e+3, 1.5495925e+2, -1436467.9, -1450799.3, 1.2062958, 0.000052310534, -0.000045406003, -1436467.9, -15068.353, 0.0, 10.000222, 9.98123 
3.555011e+3, 1.6493437e+2, -1348419.1, -1371932.6, 2.6958816, 0.000052214757, 0.000049655144, -1348419.1, -24775.904, 0.0, 10.000222, 9.969144 
3.555011e+3, 1.7490357e+2, -1250462.6, -1274291.9, 2.034326, 0.000052093736, -0.00006333745, -1250462.6, -24517.438, 0.0, 10.000222, 9.96873 
3.555011e+3, 1.8486612e+2, -1162382.5, -1195702.8, 3.3331144, 0.000052045492, 0.00007922078, -1162382.5, -34070.348, 0.0, 10.000222, 9.956291 
3.555011e+3, 1.9482245e+2, -1064233.9, -1097816.8, 2.6257675, 0.000052073272, -0.000047857087, -1064233.9, -33493.773, 0.0, 10.000222, 9.955948 
3.555011e+3, 2.0477211e+2, -976070.8, -1019420.2, 3.5726206, 0.000052011106, 0.0000764604, -976070.8, -42837.406, 0.0, 10.000222, 9.943186 
3.5550106e+3, 2.1471533e+2, -877784.8, -921396.1, 2.8302875, 0.000051851566, -0.00011784764, -877784.8, -41994.99, 0.0, 10.000222, 9.942845 
3.5550106e+3, 2.2465186e+2, -789499.6, -843132.6, 3.5554945, 0.000051794836, 0.00012981005, -789499.6, -51087.797, 0.0, 10.000222, 9.929803 
3.5550106e+3, 2.3458172e+2, -691067.2, -744955.3, 2.8529894, 0.000051854408, -0.000080670194, -691067.1, -49968.06, 0.0, 10.000222, 9.929472 
3.5550106e+3, 2.4450466e+2, -602744.2, -667009.7, 3.405033, 0.000051896288, 0.00008230451, -602744.2, -58889.727, 0.0, 10.000222, 9.916031 
3.5550106e+3, 2.5442082e+2, -503992.44, -568335.25, 2.6405187, 0.0000519169, -0.00009941813, -503992.44, -57316.266, 0.0, 10.000222, 9.915931 
3.5550106e+3, 2.6432985e+2, -415758.03, -490981.88, 2.9294045, 0.00005188856, 0.0001474684, -415758.03, -66190.72, 0.0, 10.000222, 9.901858 
3.5550106e+3, 2.7423227e+2, -316473.66, -391369.84, 2.179146, 0.000051797968, -0.0001972279, -316473.66, -63949.97, 0.0, 10.000223, 9.902279 
3.5550106e+3, 2.8412646e+2, -230000.11, -318075.8, 2.171744, 0.000051763032, 0.00023483571, -230000.11, -74439.43, 0.0, 10.000223, 9.885334 
3.5550106e+3, 2.9401284e+2, -130294.97, -217760.58, 1.3939395, 0.00005180449, -0.00024766196, -130294.97, -71620.83, 0.0, 10.000223, 9.886112 
3.5550106e+3, 3.0392718e+2, -40556.01, -84752.78, 1.0676745, 0.000051846608, 0.00017827048, -40556.01, -40556.01, 0.0, 10.000223, 9.942063 
3.5550106e+3, 3.1387112e+2, -39478.402, -82514.52, 0.24599239, 0.000051888936, -0.000051206454, -39478.402, -39478.402, 0.0, 10.000223, 9.943575 
3.5650113e+3, 1.2499593e+2, -1719663.0, -1724197.5, 1.0676739, 0.000053204443, 0.000040548723, -1719663.0, -4623.093, 0.0, 10.000232, 9.99422 
3.5650113e+3, 1.3499005e+2, -1622285.3, -1627410.1, 0.4467649, 0.00005329267, -0.000086653155, -1622285.3, -5187.548, 0.0, 10.000231, 9.993437 
3.565011e+3, 1.4497752e+2, -1534182.9, -1548118.4, 2.2193213, 0.000053299802, 0.00010961577, -1534182.9, -14962.522, 0.0, 10.000231, 9.98176 
3.565011e+3, 1.5495929e+2, -1436456.8, -1450795.5, 1.5876094, 0.00005321456, -0.000045463585, -1436456.8, -15057.669, 0.0, 10.00023, 9.981228 
3.565011e+3, 1.6493441e+2, -1348407.8, -1371929.0, 3.135192, 0.000053068783, 0.00004941834, -1348407.8, -24765.031, 0.0, 10.00023, 9.969142 
3.565011e+3, 1.7490362e+2, -1250450.9, -1274287.9, 2.3597388, 0.000052861342, -0.00006307816, -1250450.9, -24506.139, 0.0, 10.00023, 9.968728 
3.565011e+3, 1.8486616e+2, -1162370.5, -1195698.8, 3.6260436, 0.00005282357, 0.00007961404, -1162370.5, -34058.863, 0.0, 10.00023, 9.956289 
3.565011e+3, 1.9482249e+2, -1064222.1, -1097812.8, 2.9231732, 0.000052963118, -0.000047708578, -1064222.1, -33482.4, 0.0, 10.00023, 9.955946 
3.565011e+3, 2.0477214e+2, -976059.1, -1019416.44, 3.9449027, 0.00005296745, 0.00007649182, -976059.1, -42826.086, 0.0, 10.000231, 9.943184 
3.5650107e+3, 2.1471536e+2, -877773.0, -921392.4, 3.2353806, 0.000052825406, -0.00011779507, -877773.0, -41983.566, 0.0, 10.000231, 9.942843 
3.5650107e+3, 2.246519e+2, -789487.7, -843129.0, 3.9470062, 0.000052754887, 0.00012990546, -789487.7, -51076.215, 0.0, 10.000231, 9.929801 
3.5650107e+3, 2.3458175e+2, -691054.9, -744951.56, 3.130911, 0.00005276531, -0.00008050749, -691054.9, -49956.113, 0.0, 10.000231, 9.92947 
3.5650107e+3, 2.4450469e+2, -602731.7, -667005.8, 3.642059, 0.000052784006, 0.000082468076, -602731.7, -58877.523, 0.0, 10.000232, 9.916029 
3.5650107e+3, 2.5442085e+2, -503979.84, -568331.4, 2.9003184, 0.000052812476, -0.00009933306, -503979.84, -57303.953, 0.0, 10.000232, 9.915929 
3.5650107e+3, 2.6432988e+2, -415745.47, -490978.13, 3.1856546, 0.000052837637, 0.0001475167, -415745.47, -66178.4, 0.0, 10.000232, 9.901856 
3.5650107e+3, 2.742323e+2, -316461.2, -391366.16, 2.396664, 0.000052858537, -0.00019716314, -316461.2, -63937.742, 0.0, 10.000232, 9.902277 
3.5650107e+3, 2.841265e+2, -229987.63, -318072.28, 2.3372114, 0.000052866035, 0.00023489853, -229987.63, -74427.14, 0.0, 10.000233, 9.885331 
3.5650107e+3, 2.9401287e+2, -130282.14, -217756.92, 1.480559, 0.000052855194, -0.0002476265, -130282.14, -71608.19, 0.0, 10.000233, 9.88611 
3.5650107e+3, 3.0392718e+2, -40542.992, -84749.28, 1.0253383, 0.00005281863, 0.00017836237, -40542.992, -40542.992, 0.0, 10.000233, 9.942061 
3.5650107e+3, 3.1387112e+2, -39464.87, -82510.8, 0.067025475, 0.000052744024, -0.00005093354, -39464.87, -39464.87, 0.0, 10.000234, 9.943572 
3.5750115e+3, 1.24995984e+2, -1719664.5, -1724200.1, 0.83083266, 0.000053995424, 0.000041302235, -1719664.5, -4625.0474, 0.0, 10.000232, 9.994218 
3.5750115e+3, 1.349901e+2, -1622286.6, -1627412.9, 0.20990331, 0.000054158452, -0.000086845226, -1622286.6, -5189.473, 0.0, 10.000231, 9.993435 
3.5750112e+3, 1.4497757e+2, -1534184.3, -1548121.1, 2.1337311, 0.00005420875, 0.000110517896, -1534184.3, -14964.458, 0.0, 10.000231, 9.981758 
3.5750112e+3, 1.5495934e+2, -1436458.1, -1450798.1, 1.5022717, 0.000054134714, -0.000045585428, -1436458.1, -15059.565, 0.0, 10.00023, 9.981226 
3.5750112e+3, 1.6493446e+2, -1348409.5, -1371932.3, 3.1610808, 0.000053955326, 0.000049059367, -1348409.5, -24767.225, 0.0, 10.00023, 9.96914 
3.5750112e+3, 1.7490366e+2, -1250452.5, -1274291.3, 2.3861718, 0.00005366856, -0.000062871346, -1250452.5, -24508.297, 0.0, 10.00023, 9.968726 
3.5750112e+3, 1.848662e+2, -1162372.1, -1195701.8, 3.61218, 0.000053608874, 0.00008002064, -1162372.1, -34060.85, 0.0, 10.00023, 9.956287 
3.5750112e+3, 1.9482252e+2, -1064223.6, -1097815.9, 2.9088247, 0.000053786534, -0.000047484962, -1064223.6, -33484.348, 0.0, 10.00023, 9.955944 
3.575011e+3, 2.0477219e+2, -976060.7, -1019419.5, 4.0129137, 0.000053877095, 0.000076589255, -976060.7, -42828.04, 0.0, 10.000231, 9.943182 
3.575011e+3, 2.147154e+2, -877774.56, -921395.44, 3.3049831, 0.000053873355, -0.00011776227, -877774.56, -41985.48, 0.0, 10.000231, 9.942842 
3.575011e+3, 2.2465193e+2, -789489.44, -843132.5, 4.0708632, 0.000053824562, 0.00012994162, -789489.44, -51078.33, 0.0, 10.000231, 9.929799 
3.575011e+3, 2.3458178e+2, -691056.6, -744955.06, 3.256599, 0.000053724816, -0.00008039107, -691056.6, -49958.19, 0.0, 10.000231, 9.929467 
3.575011e+3, 2.4450472e+2, -602733.3, -667009.06, 3.7487283, 0.000053662152, 0.000082602055, -602733.3, -58879.44, 0.0, 10.000232, 9.916027 
3.575011e+3, 2.5442085e+2, -503981.44, -568334.56, 3.0059865, 0.000053643773, -0.00009925643, -503981.44, -57305.824, 0.0, 10.000232, 9.915927 
3.575011e+3, 2.6432994e+2, -415747.16, -490981.53, 3.2688718, 0.000053736054, 0.00014758542, -415747.16, -66180.336, 0.0, 10.000232, 9.9018545 
3.575011e+3, 2.7423233e+2, -316462.84, -391369.56, 2.4783316, 0.00005396897, -0.00019703925, -316462.84, -63939.64, 0.0, 10.000232, 9.902274 
3.575011e+3, 2.841265e+2, -229989.38, -318075.9, 2.4751637, 0.00005406478, 0.00023501093, -229989.38, -74429.12, 0.0, 10.000233, 9.885329 
3.575011e+3, 2.9401287e+2, -130283.88, -217760.55, 1.623603, 0.000053972348, -0.00024761714, -130283.88, -71610.125, 0.0, 10.000233, 9.886107 
3.575011e+3, 3.039272e+2, -40544.88, -84753.21, 1.1537061, 0.00005378777, 0.00017838112, -40544.88, -40544.88, 0.0, 10.000234, 9.942059 
3.575011e+3, 3.1387115e+2, -39466.777, -82514.77, 0.19369596, 0.000053468208, -0.00005073771, -39466.777, -39466.777, 0.0, 10.000234, 9.943569 
3.5850117e+3, 1.24996044e+2, -1719654.1, -1724196.5, 0.99829733, 0.000055102282, 0.000041745585, -1719654.1, -4615.2563, 0.0, 10.000238, 9.994216 
3.5850117e+3, 1.3499014e+2, -1622275.5, -1627408.9, 0.3221349, 0.000055005785, -0.00008728663, -1622275.5, -5178.9224, 0.0, 10.000238, 9.993434 
3.5850114e+3, 1.4497763e+2, -1534172.6, -1548116.8, 2.3380656, 0.000054939526, 0.000111361645, -1534172.6, -14953.291, 0.0, 10.000238, 9.981756 
3.5850114e+3, 1.5495938e+2, -1436446.3, -1450793.8, 1.7484779, 0.000054892455, -0.00004550194, -1436446.3, -15048.095, 0.0, 10.000238, 9.981225 
3.5850114e+3, 1.6493453e+2, -1348397.9, -1371928.5, 3.48277, 0.00005480625, 0.000048911967, -1348397.9, -24756.037, 0.0, 10.000238, 9.969138 
3.5850114e+3, 1.749037e+2, -1250441.0, -1274287.6, 2.6922438, 0.00005468023, -0.00006270936, -1250441.0, -24497.23, 0.0, 10.000238, 9.968724 
3.5850114e+3, 1.8486623e+2, -1162360.4, -1195697.9, 3.926731, 0.00005463777, 0.0000802465, -1162360.4, -34049.477, 0.0, 10.000238, 9.956285 
3.5850114e+3, 1.9482256e+2, -1064211.4, -1097811.8, 3.1982255, 0.000054682598, -0.00004745199, -1064211.4, -33472.52, 0.0, 10.000239, 9.955942 
3.5850114e+3, 2.0477223e+2, -976048.25, -1019415.44, 4.2930226, 0.000054730426, 0.000076608914, -976048.25, -42815.99, 0.0, 10.000239, 9.94318 
3.5850114e+3, 2.1471544e+2, -877762.0, -921391.4, 3.4968674, 0.000054781474, -0.00011756155, -877762.0, -41973.29, 0.0, 10.000239, 9.94284 
3.5850114e+3, 2.2465196e+2, -789476.9, -843128.6, 4.2813687, 0.000054785432, 0.00013014188, -789476.9, -51066.12, 0.0, 10.00024, 9.929796 
3.5850114e+3, 2.3458183e+2, -691044.1, -744951.2, 3.5232728, 0.00005473609, -0.0000803967, -691044.1, -49945.96, 0.0, 10.00024, 9.929465 
3.5850114e+3, 2.4450475e+2, -602720.7, -667005.2, 4.0097985, 0.000054694276, 0.00008254379, -602720.7, -58867.1, 0.0, 10.000241, 9.916024 
3.5850114e+3, 2.5442088e+2, -503968.63, -568330.7, 3.1810265, 0.00005466148, -0.00009918419, -503968.63, -57293.277, 0.0, 10.000241, 9.915924 
3.5850114e+3, 2.6432997e+2, -415734.13, -490977.66, 3.3649125, 0.000054739063, 0.00014772675, -415734.13, -66167.58, 0.0, 10.000241, 9.901852 
3.5850114e+3, 2.7423236e+2, -316449.53, -391365.6, 2.5231893, 0.000054957018, -0.00019690736, -316449.53, -63926.563, 0.0, 10.000242, 9.902272 
3.5850114e+3, 2.8412652e+2, -229975.88, -318071.94, 2.5325384, 0.00005505685, 0.00023509687, -229975.88, -74415.83, 0.0, 10.000242, 9.885326 
3.5850114e+3, 2.940129e+2, -130270.28, -217756.6, 1.7022457, 0.000054994423, -0.00024762668, -130270.28, -71596.71, 0.0, 10.000243, 9.886106 
3.5850114e+3, 3.039272e+2, -40531.414, -84749.65, 1.2391165, 0.000054829863, 0.00017831594, -40531.414, -40531.414, 0.0, 10.000243, 9.942056 
3.5850114e+3, 3.1387115e+2, -39453.145, -82511.164, 0.29897505, 0.000054515243, -0.000050798797, -39453.145, -39453.145, 0.0, 10.000244, 9.943566 
3.5950118e+3, 1.24996096e+2, -1719655.8, -1724199.5, 0.94863117, 0.000056523568, 0.000041917723, -1719655.8, -4617.3423, 0.0, 10.000238, 9.994215 
3.5950118e+3, 1.349902e+2, -1622277.1, -1627411.9, 0.2724632, 0.000055834782, -0.00008797625, -1622277.1, -5180.977, 0.0, 10.000238, 9.993432 
3.5950118e+3, 1.4497767e+2, -1534174.0, -1548119.3, 2.334211, 0.00005549298, 0.000112147296, -1534174.0, -14955.138, 0.0, 10.000238, 9.981754 
3.5950118e+3, 1.5495943e+2, -1436447.5, -1450796.3, 1.7444395, 0.000055488566, -0.00004521405, -1436447.5, -15049.907, 0.0, 10.000238, 9.981223 
3.5950118e+3, 1.6493458e+2, -1348399.6, -1371931.9, 3.4907947, 0.000055621767, 0.000048975187, -1348399.6, -24758.275, 0.0, 10.000238, 9.969136 
3.5950118e+3, 1.7490375e+2, -1250442.8, -1274291.0, 2.700427, 0.000055895474, -0.000062592, -1250442.8, -24499.43, 0.0, 10.000238, 9.968722 
3.5950118e+3, 1.848663e+2, -1162362.0, -1195701.0, 4.0317264, 0.0000559092, 0.00008029244, -1162362.0, -34051.527, 0.0, 10.000238, 9.956284 
3.5950118e+3, 1.9482261e+2, -1064213.0, -1097814.9, 3.3043158, 0.00005565103, -0.0000476088, -1064213.0, -33474.523, 0.0, 10.000239, 9.95594 
3.5950115e+3, 2.0477226e+2, -976050.0, -1019418.9, 4.409179, 0.000055527744, 0.00007655115, -976050.0, -42818.13, 0.0, 10.000239, 9.943178 
3.5950115e+3, 2.1471548e+2, -877763.75, -921394.75, 3.6131032, 0.000055550434, -0.000117193646, -877763.75, -41975.39, 0.0, 10.000239, 9.942837 
3.5950115e+3, 2.24652e+2, -789478.56, -843131.9, 4.4235215, 0.00005563803, 0.0001305055, -789478.56, -51068.133, 0.0, 10.00024, 9.929794 
3.5950115e+3, 2.3458186e+2, -691045.75, -744954.44, 3.6663115, 0.000055798948, -0.00008052381, -691045.75, -49947.926, 0.0, 10.00024, 9.929463 
3.5950115e+3, 2.4450478e+2, -602722.44, -667008.75, 4.1784506, 0.00005587975, 0.00008229414, -602722.44, -58869.18, 0.0, 10.000241, 9.916022 
3.5950115e+3, 2.544209e+2, -503970.38, -568334.25, 3.3508298, 0.000055864817, -0.000099116325, -503970.38, -57295.32, 0.0, 10.000241, 9.915922 
3.5950115e+3, 2.6433e+2, -415735.9, -490981.28, 3.5402827, 0.00005584625, 0.00014794036, -415735.9, -66169.61, 0.0, 10.000241, 9.90185 
3.5950115e+3, 2.7423236e+2, -316451.3, -391369.2, 2.6989179, 0.00005582326, -0.00019676753, -316451.3, -63928.56, 0.0, 10.000242, 9.902269 
3.5950115e+3, 2.8412655e+2, -229977.61, -318075.53, 2.720926, 0.00005584321, 0.00023515648, -229977.61, -74417.77, 0.0, 10.000242, 9.8853245 
3.5950115e+3, 2.940129e+2, -130271.99, -217760.14, 1.8917707, 0.00005592189, -0.0002476551, -130271.99, -71598.61, 0.0, 10.000243, 9.886103 
3.5950115e+3, 3.0392724e+2, -40533.258, -84753.5, 1.4158696, 0.000055944645, 0.00017816719, -40533.258, -40533.258, 0.0, 10.000243, 9.942053 
3.5950115e+3, 3.1387118e+2, -39455.01, -82515.055, 0.47419968, 0.00005588378, -0.00005111568, -39455.01, -39455.01, 0.0, 10.000244, 9.943564 
3.6050123e+3, 1.24996156e+2, -1719644.6, -1724195.6, 1.430072, 0.000057438105, 0.00004211181, -1719644.6, -4606.7964, 0.0, 10.000247, 9.994213 
3.6050123e+3, 1.3499025e+2, -1622265.6, -1627407.9, 0.7114829, 0.000056680226, -0.00008891219, -1622265.6, -5170.014, 0.0, 10.000247, 9.99343 
3.605012e+3, 1.4497773e+2, -1534162.3, -1548115.3, 2.6653929, 0.000056325905, 0.00011272278, -1534162.3, -14943.871, 0.0, 10.000247, 9.981753 
3.605012e+3, 1.5495948e+2, -1436435.6, -1450792.0, 1.8605804, 0.000056365712, -0.00004485175, -1436435.6, -15038.45, 0.0, 10.000247, 9.981221 
3.605012e+3, 1.6493462e+2, -1348387.6, -1371928.0, 3.5459485, 0.000056554614, 0.00004916758, -1348387.6, -24746.76, 0.0, 10.000247, 9.969133 
3.605012e+3, 1.749038e+2, -1250430.6, -1274287.0, 2.83524, 0.000056895748, -0.00006252515, -1250430.6, -24487.76, 0.0, 10.000247, 9.96872 
3.605012e+3, 1.8486634e+2, -1162349.5, -1195696.8, 4.324658, 0.000056921584, 0.000080271544, -1162349.5, -34039.566, 0.0, 10.000248, 9.956282 
3.605012e+3, 1.9482265e+2, -1064200.3, -1097810.5, 3.5898046, 0.0000566177, -0.000047677993, -1064200.3, -33462.21, 0.0, 10.000248, 9.955938 
3.6050117e+3, 2.0477231e+2, -976037.25, -1019415.0, 4.628604, 0.000056479294, 0.000076553384, -976037.25, -42805.793, 0.0, 10.000249, 9.943175 
3.6050117e+3, 2.1471551e+2, -877750.8, -921390.9, 3.71981, 0.000056519977, -0.000116990406, -877750.8, -41962.86, 0.0, 10.000249, 9.942835 
3.6050117e+3, 2.2465204e+2, -789465.4, -843127.56, 4.4909134, 0.000056640623, 0.00013071172, -789465.4, -51055.26, 0.0, 10.00025, 9.929792 
3.6050117e+3, 2.3458189e+2, -691032.5, -744950.1, 3.7639267, 0.000056851615, -0.00008053867, -691032.5, -49935.02, 0.0, 10.00025, 9.9294615 
3.6050117e+3, 2.4450481e+2, -602709.4, -667004.9, 4.307075, 0.00005695933, 0.00008220153, -602709.4, -58856.39, 0.0, 10.000251, 9.916019 
3.6050117e+3, 2.5442094e+2, -503957.13, -568330.4, 3.4127517, 0.00005694364, -0.00009911532, -503957.13, -57282.336, 0.0, 10.000251, 9.915919 
3.6050117e+3, 2.6433e+2, -415722.38, -490977.28, 3.5741806, 0.00005690093, 0.00014799912, -415722.38, -66156.336, 0.0, 10.000252, 9.901847 
3.6050117e+3, 2.742324e+2, -316437.47, -391365.06, 2.7139173, 0.00005682411, -0.00019669702, -316437.47, -63914.965, 0.0, 10.000253, 9.902267 
3.6050117e+3, 2.8412655e+2, -229963.56, -318071.28, 2.701725, 0.00005684377, 0.00023520089, -229963.56, -74403.92, 0.0, 10.000254, 9.885322 
3.6050117e+3, 2.9401293e+2, -130257.914, -217755.94, 1.8633043, 0.00005699556, -0.00024768838, -130257.914, -71584.72, 0.0, 10.000254, 9.886101 
3.6050117e+3, 3.0392724e+2, -40519.418, -84749.77, 1.3614173, 0.00005710543, 0.00017806291, -40519.418, -40519.418, 0.0, 10.000255, 9.942051 
3.6050117e+3, 3.1387118e+2, -39441.07, -82511.31, 0.38468316, 0.00005715172, -0.00005128033, -39441.07, -39441.07, 0.0, 10.000255, 9.943562 
3.6150125e+3, 1.2499621e+2, -1719646.3, -1724198.8, 1.4870754, 0.000057848345, 0.000042365235, -1719646.3, -4608.993, 0.0, 10.000247, 9.994211 
3.6150125e+3, 1.349903e+2, -1622267.3, -1627410.9, 0.76864725, 0.000057542096, -0.00009009324, -1622267.3, -5172.176, 0.0, 10.000247, 9.993428 
3.6150122e+3, 1.4497778e+2, -1534164.0, -1548118.6, 2.7163467, 0.000057437035, 0.00011308913, -1534164.0, -14946.212, 0.0, 10.000247, 9.9817505 
3.6150122e+3, 1.5495953e+2, -1436437.4, -1450795.5, 1.9115292, 0.00005752261, -0.000044415403, -1436437.4, -15040.747, 0.0, 10.000247, 9.981219 
3.6150122e+3, 1.6493466e+2, -1348389.3, -1371931.0, 3.601277, 0.000057604284, 0.000049488503, -1348389.3, -24748.826, 0.0, 10.000247, 9.969131 
3.6150122e+3, 1.7490384e+2, -1250432.3, -1274290.0, 2.8905416, 0.000057682093, -0.00006250858, -1250432.3, -24489.785, 0.0, 10.000247, 9.968719 
3.6150122e+3, 1.8486638e+2, -1162351.3, -1195700.0, 4.525734, 0.000057676185, 0.00008018413, -1162351.3, -34041.633, 0.0, 10.000248, 9.95628 
3.6150122e+3, 1.948227e+2, -1064201.9, -1097813.6, 3.7923818, 0.000057582667, -0.00004765998, -1064201.9, -33464.242, 0.0, 10.000248, 9.955936 
3.615012e+3, 2.0477234e+2, -976039.25, -1019418.94, 4.8056273, 0.00005758441, 0.00007661533, -976039.25, -42808.168, 0.0, 10.000249, 9.943173 
3.615012e+3, 2.1471556e+2, -877752.8, -921394.75, 3.8964105, 0.00005768923, -0.000116951065, -877752.8, -41965.195, 0.0, 10.000249, 9.942832 
3.615012e+3, 2.2465207e+2, -789466.94, -843130.75, 4.654873, 0.00005779258, 0.00013076125, -789466.94, -51057.215, 0.0, 10.00025, 9.9297905 
3.615012e+3, 2.3458192e+2, -691034.06, -744953.25, 3.9273522, 0.000057894187, -0.00008044182, -691034.06, -49936.92, 0.0, 10.00025, 9.92946 
3.615012e+3, 2.4450484e+2, -602711.25, -667008.75, 4.5370326, 0.000057933546, 0.00008226524, -602711.25, -58858.6, 0.0, 10.000251, 9.916018 
3.615012e+3, 2.5442097e+2, -503959.03, -568334.2, 3.645909, 0.00005789858, -0.00009918088, -503959.03, -57284.51, 0.0, 10.000251, 9.915917 
3.615012e+3, 2.6433003e+2, -415724.2, -490980.97, 3.8416913, 0.000057903406, 0.00014790376, -415724.2, -66158.414, 0.0, 10.000252, 9.901845 
3.615012e+3, 2.7423242e+2, -316439.28, -391368.75, 2.983654, 0.000057959005, -0.00019669547, -316439.28, -63916.99, 0.0, 10.000253, 9.902265 
3.615012e+3, 2.8412658e+2, -229965.31, -318074.9, 2.9217265, 0.000058057616, 0.00023523017, -229965.31, -74405.88, 0.0, 10.000254, 9.88532 
3.615012e+3, 2.9401296e+2, -130259.64, -217759.52, 2.0788248, 0.000058214824, -0.0002477266, -130259.64, -71586.625, 0.0, 10.000254, 9.886098 
3.615012e+3, 3.0392727e+2, -40521.32, -84753.74, 1.568793, 0.000058312064, 0.0001780029, -40521.32, -40521.32, 0.0, 10.000255, 9.942048 
3.615012e+3, 3.138712e+2, -39443.0, -82515.336, 0.59103125, 0.00005831958, -0.000051293464, -39443.0, -39443.0, 0.0, 10.000255, 9.943559 
3.6250126e+3, 1.2499626e+2, -1719634.0, -1724194.1, 1.4409406, 0.000058291553, 0.00004279105, -1719634.0, -4597.224, 0.0, 10.000256, 9.994209 
3.6250126e+3, 1.3499035e+2, -1622255.5, -1627406.8, 0.7930808, 0.000058413254, -0.00009080258, -1622255.5, -5160.9194, 0.0, 10.000255, 9.993426 
3.6250123e+3, 1.4497782e+2, -1534152.6, -1548115.1, 2.858497, 0.000058537884, 0.00011378384, -1534152.6, -14935.357, 0.0, 10.000256, 9.981749 
3.6250123e+3, 1.5495957e+2, -1436425.8, -1450791.9, 2.0550144, 0.00005865381, -0.000044282067, -1436425.8, -15029.639, 0.0, 10.000256, 9.981217 
3.6250123e+3, 1.6493471e+2, -1348376.9, -1371926.8, 3.8151083, 0.00005862071, 0.00004933878, -1348376.9, -24736.945, 0.0, 10.000256, 9.96913 
3.6250123e+3, 1.7490388e+2, -1250419.0, -1274285.3, 3.0600703, 0.000058435697, -0.00006265723, -1250419.0, -24476.936, 0.0, 10.000257, 9.968717 
3.6250123e+3, 1.8486643e+2, -1162337.8, -1195695.5, 4.6068425, 0.00005843184, 0.0000801789, -1162337.8, -34028.574, 0.0, 10.0002575, 9.956277 
3.6250123e+3, 1.9482274e+2, -1064188.8, -1097809.4, 3.7430003, 0.000058617297, -0.000047373036, -1064188.8, -33451.47, 0.0, 10.0002575, 9.955935 
3.6250123e+3, 2.0477238e+2, -976026.4, -1019415.0, 4.7397714, 0.000058768816, 0.00007685209, -976026.4, -42795.652, 0.0, 10.000258, 9.943171 
3.6250123e+3, 2.1471559e+2, -877739.9, -921390.8, 3.908108, 0.000058883586, -0.00011713497, -877739.9, -41952.613, 0.0, 10.000258, 9.94283 
3.6250123e+3, 2.246521e+2, -789453.56, -843126.44, 4.7014704, 0.00005892964, 0.00013050556, -789453.56, -51044.168, 0.0, 10.000259, 9.929789 
3.6250123e+3, 2.3458196e+2, -691020.2, -744948.75, 3.8676655, 0.00005889795, -0.00008037451, -691020.2, -49923.336, 0.0, 10.00026, 9.929457 
3.6250123e+3, 2.4450487e+2, -602697.2, -667004.5, 4.446975, 0.00005889698, 0.00008240204, -602697.2, -58844.844, 0.0, 10.000261, 9.916015 
3.6250123e+3, 2.54421e+2, -503944.8, -568329.94, 3.561249, 0.00005893275, -0.000099277604, -503944.8, -57270.566, 0.0, 10.000262, 9.915915 
3.6250123e+3, 2.6433006e+2, -415710.0, -490976.75, 3.7106364, 0.00005899988, 0.00014773708, -415710.0, -66144.445, 0.0, 10.000262, 9.901842 
3.6250123e+3, 2.7423245e+2, -316425.34, -391364.72, 2.7847657, 0.000059106802, -0.00019672327, -316425.34, -63903.27, 0.0, 10.000263, 9.902263 
3.6250123e+3, 2.841266e+2, -229951.27, -318070.72, 2.6965, 0.000059239654, 0.00023527142, -229951.27, -74392.05, 0.0, 10.000264, 9.885317 
3.6250123e+3, 2.9401296e+2, -130245.28, -217755.2, 1.8406478, 0.000059407797, -0.00024771277, -130245.28, -71572.44, 0.0, 10.000264, 9.886096 
3.6250123e+3, 3.0392727e+2, -40506.87, -84749.86, 1.3229617, 0.000059527196, 0.00017795377, -40506.87, -40506.87, 0.0, 10.000265, 9.942045 
3.6250123e+3, 3.138712e+2, -39427.918, -82511.195, 0.2797085, 0.00005957372, -0.00005145732, -39427.918, -39427.918, 0.0, 10.000266, 9.943556 
3.6350128e+3, 1.2499632e+2, -1719635.4, -1724197.0, 1.3900052, 0.00005876763, 0.00004343688, -1719635.4, -4599.2583, 0.0, 10.000256, 9.994207 
3.6350128e+3, 1.3499042e+2, -1622257.0, -1627409.5, 0.7420123, 0.000059293692, -0.000091042566, -1622257.0, -5162.926, 0.0, 10.000255, 9.993424 
3.6350128e+3, 1.449779e+2, -1534154.5, -1548118.5, 2.976499, 0.00005962853, 0.00011480528, -1534154.5, -14937.699, 0.0, 10.000256, 9.981747 
3.6350128e+3, 1.5495963e+2, -1436427.6, -1450795.3, 2.1734695, 0.00005975948, -0.000044450266, -1436427.6, -15031.929, 0.0, 10.000256, 9.981215 
3.6350128e+3, 1.6493475e+2, -1348378.6, -1371930.0, 4.112269, 0.000059604103, 0.00004872071, -1348378.6, -24739.104, 0.0, 10.000256, 9.969128 
3.6350128e+3, 1.7490393e+2, -1250420.6, -1274288.5, 3.3579783, 0.000059156784, -0.00006297029, -1250420.6, -24479.057, 0.0, 10.000257, 9.968714 
3.6350128e+3, 1.8486647e+2, -1162339.6, -1195699.1, 4.7561064, 0.000059188624, 0.000080255464, -1162339.6, -34030.92, 0.0, 10.0002575, 9.956275 
3.6350128e+3, 1.9482279e+2, -1064190.6, -1097813.0, 3.890477, 0.000059721304, -0.000046818473, -1064190.6, -33453.773, 0.0, 10.0002575, 9.955932 
3.6350128e+3, 2.0477243e+2, -976028.2, -1019418.56, 4.9425416, 0.00006003218, 0.0000772628, -976028.2, -42797.87, 0.0, 10.000258, 9.943169 
3.6350125e+3, 2.1471561e+2, -877741.7, -921394.4, 4.1121426, 0.000060102968, -0.00011754106, -877741.7, -41954.777, 0.0, 10.000258, 9.942827 
3.6350125e+3, 2.2465214e+2, -789455.4, -843130.06, 5.0073686, 0.000060051923, 0.00012994613, -789455.4, -51046.324, 0.0, 10.000259, 9.929786 
3.6350125e+3, 2.3458199e+2, -691022.0, -744952.3, 4.176616, 0.000059863145, -0.00008033663, -691022.0, -49925.453, 0.0, 10.00026, 9.929455 
3.6350125e+3, 2.445049e+2, -602699.1, -667008.3, 4.7442217, 0.000059849757, 0.00008261158, -602699.1, -58847.05, 0.0, 10.000261, 9.916012 
3.6350125e+3, 2.5442103e+2, -503946.7, -568333.75, 3.8580716, 0.000060045855, -0.00009940536, -503946.7, -57272.727, 0.0, 10.000262, 9.915913 
3.6350125e+3, 2.643301e+2, -415711.94, -490980.72, 3.9365096, 0.000060189977, 0.00014749945, -415711.94, -66146.63, 0.0, 10.000262, 9.90184 
3.6350125e+3, 2.7423245e+2, -316427.25, -391368.66, 3.0058303, 0.000060267485, -0.00019678028, -316427.25, -63905.414, 0.0, 10.000263, 9.90226 
3.6350125e+3, 2.841266e+2, -229953.06, -318074.4, 3.007121, 0.000060390073, 0.00023532458, -229953.06, -74394.02, 0.0, 10.000264, 9.885315 
3.6350125e+3, 2.94013e+2, -130247.03, -217758.84, 2.1591847, 0.00006057465, -0.0002476472, -130247.03, -71574.36, 0.0, 10.000264, 9.886093 
3.6350125e+3, 3.039273e+2, -40508.895, -84754.07, 1.6951987, 0.000060750855, 0.00017791546, -40508.895, -40508.895, 0.0, 10.000265, 9.942042 
3.6350125e+3, 3.138712e+2, -39429.977, -82515.484, 0.65841335, 0.00006091381, -0.000051771207, -39429.977, -39429.977, 0.0, 10.000266, 9.943553 
3.6450133e+3, 1.2499638e+2, -1719624.5, -1724193.4, 1.2604556, 0.000059760518, 0.000043712498, -1719624.5, -4588.928, 0.0, 10.000263, 9.994205 
3.6450133e+3, 1.3499047e+2, -1622245.1, -1627405.4, 0.45994893, 0.000060159906, -0.00009148099, -1622245.1, -5151.5854, 0.0, 10.000263, 9.9934225 
3.645013e+3, 1.4497794e+2, -1534141.9, -1548114.0, 2.8218982, 0.00006041813, 0.000115781615, -1534141.9, -14925.548, 0.0, 10.000264, 9.981745 
3.645013e+3, 1.549597e+2, -1436414.4, -1450790.5, 2.1906009, 0.000060522678, -0.000044567892, -1436414.4, -15019.196, 0.0, 10.000265, 9.981213 
3.645013e+3, 1.649348e+2, -1348365.4, -1371925.6, 4.2356224, 0.000060449704, 0.000048231577, -1348365.4, -24726.426, 0.0, 10.000265, 9.969126 
3.645013e+3, 1.7490397e+2, -1250407.8, -1274284.3, 3.358805, 0.000060195787, -0.00006309375, -1250407.8, -24466.639, 0.0, 10.000266, 9.968712 
3.645013e+3, 1.8486652e+2, -1162326.9, -1195695.4, 4.580803, 0.00006034164, 0.00008040081, -1162326.9, -34018.637, 0.0, 10.000267, 9.956272 
3.645013e+3, 1.9482282e+2, -1064177.5, -1097809.1, 3.6288583, 0.00006090534, -0.000046505684, -1064177.5, -33441.09, 0.0, 10.000267, 9.95593 
3.645013e+3, 2.0477246e+2, -976014.3, -1019413.94, 4.773222, 0.00006113778, 0.00007736838, -976014.3, -42784.387, 0.0, 10.000268, 9.943167 
3.645013e+3, 2.1471567e+2, -877727.1, -921389.44, 4.0423985, 0.000061011713, -0.00011804807, -877727.1, -41940.605, 0.0, 10.000269, 9.942825 
3.6450127e+3, 2.2465217e+2, -789440.94, -843125.6, 4.8858385, 0.000060933067, 0.00012945702, -789440.94, -51032.207, 0.0, 10.00027, 9.929783 
3.6450127e+3, 2.3458202e+2, -691007.75, -744948.06, 3.8412974, 0.000060908165, -0.00008009454, -691007.75, -49911.547, 0.0, 10.000271, 9.929452 
3.6450127e+3, 2.4450493e+2, -602684.94, -667003.9, 4.3150682, 0.0000610612, 0.00008300189, -602684.94, -58833.17, 0.0, 10.000272, 9.91601 
3.6450127e+3, 2.5442106e+2, -503932.8, -568329.5, 3.527269, 0.00006142657, -0.00009956346, -503932.8, -57259.11, 0.0, 10.000272, 9.91591 
3.6450127e+3, 2.6433012e+2, -415697.97, -490976.78, 3.7208364, 0.000061528306, 0.00014706388, -415697.97, -66132.9, 0.0, 10.000273, 9.901837 
3.6450127e+3, 2.7423248e+2, -316412.3, -391364.28, 2.7427895, 0.0000612942, -0.00019714709, -316412.3, -63890.66, 0.0, 10.000275, 9.902257 
3.6450127e+3, 2.8412664e+2, -229937.47, -318069.66, 2.6197236, 0.00006128018, 0.00023515994, -229937.47, -74378.62, 0.0, 10.000276, 9.885312 
3.6450127e+3, 2.94013e+2, -130231.52, -217754.19, 1.6410123, 0.00006156879, -0.00024742875, -130231.52, -71559.01, 0.0, 10.000277, 9.88609 
3.6450127e+3, 3.039273e+2, -40493.766, -84749.8, 1.1806778, 0.00006195992, 0.00017812056, -40493.766, -40493.766, 0.0, 10.0002775, 9.9420395 
3.6450127e+3, 3.1387123e+2, -39415.168, -82511.38, 0.27514732, 0.00006250006, -0.000052169456, -39415.168, -39415.168, 0.0, 10.0002775, 9.94355 
3.6550134e+3, 1.2499643e+2, -1719626.4, -1724196.8, 1.4556764, 0.000061267514, 0.000043677348, -1719626.4, -4591.305, 0.0, 10.000263, 9.994204 
3.6550134e+3, 1.3499053e+2, -1622246.9, -1627408.9, 0.65528536, 0.000061012008, -0.00009211691, -1622246.9, -5153.9272, 0.0, 10.000263, 9.993421 
3.6550134e+3, 1.44978e+2, -1534143.3, -1548116.8, 3.0870333, 0.00006090827, 0.00011671305, -1534143.3, -14927.491, 0.0, 10.000264, 9.981743 
3.655013e+3, 1.5495974e+2, -1436415.8, -1450793.1, 2.4555218, 0.00006094521, -0.000044635202, -1436415.8, -15021.101, 0.0, 10.000265, 9.981212 
3.655013e+3, 1.6493484e+2, -1348367.4, -1371929.4, 4.4834785, 0.00006115827, 0.000047870722, -1348367.4, -24728.854, 0.0, 10.000265, 9.969124 
3.655013e+3, 1.7490402e+2, -1250409.8, -1274288.0, 3.6065898, 0.000061551145, -0.00006302857, -1250409.8, -24469.025, 0.0, 10.000266, 9.96871 
3.655013e+3, 1.8486655e+2, -1162329.0, -1195699.4, 4.835394, 0.000061888924, 0.00008061456, -1162329.0, -34021.16, 0.0, 10.000267, 9.95627 
3.655013e+3, 1.9482286e+2, -1064179.6, -1097813.1, 3.8836102, 0.00006216903, -0.000046433477, -1064179.6, -33443.56, 0.0, 10.000267, 9.955927 
3.655013e+3, 2.047725e+2, -976015.94, -1019417.1, 5.1546445, 0.00006208647, 0.00007717035, -976015.94, -42786.387, 0.0, 10.000268, 9.943165 
3.655013e+3, 2.147157e+2, -877728.75, -921392.56, 4.4262424, 0.00006161146, -0.00011865551, -877728.75, -41942.56, 0.0, 10.000269, 9.942823 
3.655013e+3, 2.246522e+2, -789443.2, -843130.06, 5.162914, 0.00006157436, 0.00012903787, -789443.2, -51034.78, 0.0, 10.00027, 9.92978 
3.6550128e+3, 2.3458205e+2, -691010.0, -744952.56, 4.1147523, 0.000062032675, -0.00007964932, -691010.0, -49914.086, 0.0, 10.000271, 9.929449 
3.6550128e+3, 2.4450496e+2, -602686.7, -667007.4, 4.558657, 0.00006253006, 0.00008357204, -602686.7, -58835.188, 0.0, 10.000272, 9.916008 
3.6550128e+3, 2.544211e+2, -503934.5, -568332.94, 3.7695806, 0.00006307359, -0.00009975177, -503934.5, -57261.055, 0.0, 10.000272, 9.915908 
3.6550128e+3, 2.6433012e+2, -415700.0, -490980.9, 4.2019234, 0.00006301417, 0.00014643132, -415700.0, -66135.16, 0.0, 10.000273, 9.9018345 
3.6550128e+3, 2.742325e+2, -316414.34, -391368.44, 3.2398944, 0.0000621877, -0.00019782218, -316414.34, -63892.887, 0.0, 10.000275, 9.902254 
3.6550128e+3, 2.8412667e+2, -229939.48, -318073.84, 2.9528148, 0.000061911385, 0.00023477858, -229939.48, -74380.805, 0.0, 10.000276, 9.885309 
3.6550128e+3, 2.9401302e+2, -130233.516, -217758.33, 1.9590645, 0.00006239118, -0.00024705828, -130233.516, -71561.15, 0.0, 10.000277, 9.886087 
3.6550128e+3, 3.0392733e+2, -40495.594, -84753.61, 1.4807969, 0.00006315454, 0.00017856785, -40495.594, -40495.594, 0.0, 10.0002775, 9.942037 
3.6550128e+3, 3.1387123e+2, -39416.98, -82515.164, 0.5731721, 0.000064331296, -0.000052651645, -39416.98, -39416.98, 0.0, 10.0002775, 9.943547 
3.6650136e+3, 1.2499648e+2, -1719614.8, -1724192.9, 1.5010885, 0.000062264575, 0.00004393836, -1719614.8, -4580.2505, 0.0, 10.000271, 9.994202 
3.6650136e+3, 1.3499057e+2, -1622234.8, -1627404.8, 0.7374027, 0.00006190811, -0.000093234565, -1622234.8, -5142.218, 0.0, 10.000272, 9.993419 
3.6650136e+3, 1.4497805e+2, -1534130.5, -1548112.3, 3.094039, 0.00006176032, 0.000117117954, -1534130.5, -14915.244, 0.0, 10.000273, 9.981741 
3.6650136e+3, 1.5495978e+2, -1436402.8, -1450788.6, 2.218729, 0.000061810395, -0.00004457244, -1436402.8, -15008.56, 0.0, 10.000274, 9.981209 
3.6650133e+3, 1.6493489e+2, -1348354.4, -1371925.3, 4.102343, 0.000062130974, 0.00004779224, -1348354.4, -24716.305, 0.0, 10.000275, 9.969121 
3.6650133e+3, 1.7490406e+2, -1250396.5, -1274283.9, 3.2279491, 0.00006272764, -0.000063043146, -1250396.5, -24456.227, 0.0, 10.000276, 9.968707 
3.6650133e+3, 1.8486659e+2, -1162315.4, -1195695.3, 4.5459523, 0.0000630329, 0.000080562415, -1162315.4, -34007.977, 0.0, 10.000277, 9.956267 
3.6650133e+3, 1.948229e+2, -1064165.3, -1097808.6, 3.6474423, 0.000063033454, -0.00004662936, -1064165.3, -33429.652, 0.0, 10.0002775, 9.955924 
3.6650133e+3, 2.0477253e+2, -976001.1, -1019412.0, 4.899904, 0.000062923384, 0.00007690446, -976001.1, -42771.934, 0.0, 10.000278, 9.943162 
3.6650133e+3, 2.1471573e+2, -877714.1, -921387.6, 4.035659, 0.000062693616, -0.000118911594, -877714.1, -41928.28, 0.0, 10.000279, 9.9428215 
3.6650133e+3, 2.2465223e+2, -789429.25, -843126.44, 4.563093, 0.00006279663, 0.00012887627, -789429.25, -51021.17, 0.0, 10.00028, 9.929777 
3.6650133e+3, 2.3458208e+2, -690996.06, -744948.94, 3.389213, 0.00006327606, -0.00007962069, -690996.06, -49900.41, 0.0, 10.000281, 9.929446 
3.6650133e+3, 2.4450497e+2, -602671.75, -667002.3, 3.8298452, 0.000063709136, 0.00008363388, -602671.75, -58820.523, 0.0, 10.000282, 9.916005 
3.6650133e+3, 2.544211e+2, -503919.1, -568327.56, 3.1475108, 0.00006408652, -0.00009984422, -503919.1, -57245.89, 0.0, 10.000283, 9.915906 
3.6650133e+3, 2.6433015e+2, -415684.84, -490976.38, 3.8123548, 0.00006405284, 0.00014612461, -415684.84, -66120.22, 0.0, 10.000284, 9.901832 
3.6650133e+3, 2.742325e+2, -316399.4, -391364.13, 2.896748, 0.000063496416, -0.00019841905, -316399.4, -63878.168, 0.0, 10.000286, 9.902251 
3.6650133e+3, 2.8412667e+2, -229924.7, -318070.0, 2.4509761, 0.00006330265, 0.00023424013, -229924.7, -74366.18, 0.0, 10.000287, 9.885306 
3.6650133e+3, 2.9401302e+2, -130218.266, -217754.31, 1.2226787, 0.00006360735, -0.0002470611, -130218.266, -71546.04, 0.0, 10.000288, 9.886085 
3.6650133e+3, 3.0392733e+2, -40479.547, -84748.8, 0.62193877, 0.00006422132, 0.00017880583, -40479.547, -40479.547, 0.0, 10.000289, 9.942035 
3.6650133e+3, 3.1387123e+2, -39400.125, -82509.9, -0.30119723, 0.000065289234, -0.000052614952, -39400.125, -39400.125, 0.0, 10.000291, 9.943545 
3.6750138e+3, 1.2499654e+2, -1719616.5, -1724196.3, 1.8578253, 0.00006275448, 0.00004455765, -1719616.5, -4582.541, 0.0, 10.000271, 9.994199 
3.6750138e+3, 1.3499062e+2, -1622236.5, -1627408.0, 1.0945455, 0.00006284804, -0.00009483138, -1622236.5, -5144.4673, 0.0, 10.000272, 9.993416 
3.6750138e+3, 1.4497809e+2, -1534132.5, -1548116.0, 3.4386117, 0.000062972416, 0.00011699919, -1534132.5, -14917.727, 0.0, 10.000273, 9.981738 
3.6750138e+3, 1.5495983e+2, -1436404.8, -1450792.4, 2.5631812, 0.000063115935, -0.000044380322, -1436404.8, -15010.997, 0.0, 10.000274, 9.981207 
3.6750138e+3, 1.6493493e+2, -1348356.4, -1371929.0, 4.421813, 0.00006336645, 0.000047994574, -1348356.4, -24718.715, 0.0, 10.000275, 9.969119 
3.6750138e+3, 1.7490411e+2, -1250398.4, -1274287.5, 3.5473418, 0.00006372626, -0.0000631371, -1250398.4, -24458.588, 0.0, 10.000276, 9.968705 
3.6750138e+3, 1.8486664e+2, -1162317.4, -1195699.0, 4.9857388, 0.000063775755, 0.00008024574, -1162317.4, -34010.363, 0.0, 10.000277, 9.956265 
3.6750138e+3, 1.9482294e+2, -1064167.3, -1097812.4, 4.088362, 0.0000635008, -0.000047091933, -1064167.3, -33431.992, 0.0, 10.0002775, 9.955922 
3.6750138e+3, 2.0477256e+2, -976003.06, -1019415.75, 5.2564044, 0.00006364919, 0.000076571036, -976003.06, -42774.2, 0.0, 10.000278, 9.94316 
3.6750138e+3, 2.1471578e+2, -877716.0, -921391.3, 4.3903866, 0.0000642557, -0.0001188182, -877716.0, -41930.504, 0.0, 10.000279, 9.942819 
3.6750138e+3, 2.2465226e+2, -789431.75, -843131.4, 4.8705325, 0.000064596876, 0.00012897083, -789431.75, -51023.98, 0.0, 10.00028, 9.929774 
3.6750138e+3, 2.3458211e+2, -690998.5, -744953.94, 3.6954763, 0.000064637745, -0.00008000654, -690998.5, -49903.168, 0.0, 10.000281, 9.929443 
3.6750138e+3, 2.44505e+2, -602673.3, -667005.44, 4.20245, 0.000064600004, 0.000083190025, -602673.3, -58822.31, 0.0, 10.000282, 9.916003 
3.6750138e+3, 2.5442111e+2, -503920.6, -568330.56, 3.5227149, 0.00006446874, -0.00009984133, -503920.6, -57247.6, 0.0, 10.000283, 9.915904 
3.6750138e+3, 2.6433018e+2, -415686.78, -490980.38, 4.268813, 0.000064646716, 0.00014614202, -415686.78, -66122.38, 0.0, 10.000284, 9.901829 
3.6750138e+3, 2.7423254e+2, -316401.38, -391368.13, 3.3588684, 0.000065218264, -0.00019893811, -316401.38, -63880.31, 0.0, 10.000286, 9.902249 
3.6750135e+3, 2.841267e+2, -229927.11, -318074.97, 2.9160252, 0.000065450084, 0.00023354543, -229927.11, -74368.75, 0.0, 10.000287, 9.8853035 
3.6750135e+3, 2.9401305e+2, -130220.69, -217759.36, 1.6882166, 0.000065215354, -0.00024743532, -130220.69, -71548.58, 0.0, 10.000288, 9.886082 
3.6750135e+3, 3.0392733e+2, -40481.445, -84752.76, 1.1182649, 0.000065160995, 0.00017883556, -40481.445, -40481.445, 0.0, 10.000289, 9.942032 
3.6750135e+3, 3.1387126e+2, -39401.96, -82513.734, 0.19831224, 0.0000653785, -0.00005206211, -39401.96, -39401.96, 0.0, 10.000291, 9.9435425 
3.6850142e+3, 1.24996595e+2, -1719604.3, -1724191.6, 1.1827751, 0.00006352396, 0.00004506189, -1719604.3, -4570.7583, 0.0, 10.000279, 9.994198 
3.6850142e+3, 1.3499068e+2, -1622224.0, -1627403.4, 0.63471085, 0.00006386294, -0.000095919364, -1622224.0, -5132.5063, 0.0, 10.00028, 9.993415 
3.6850142e+3, 1.4497815e+2, -1534120.3, -1548112.4, 3.0874796, 0.00006409877, 0.00011732645, -1534120.3, -14905.936, 0.0, 10.000282, 9.981736 
3.6850142e+3, 1.5495989e+2, -1436391.9, -1450788.4, 2.1309319, 0.00006421919, -0.00004450117, -1436391.9, -14998.544, 0.0, 10.000283, 9.981204 
3.6850142e+3, 1.6493498e+2, -1348342.6, -1371924.4, 3.960746, 0.00006438413, 0.000047688773, -1348342.6, -24705.375, 0.0, 10.000284, 9.969116 
3.685014e+3, 1.7490414e+2, -1250383.8, -1274282.5, 3.1100094, 0.000064594635, -0.00006335922, -1250383.8, -24444.38, 0.0, 10.000286, 9.968702 
3.685014e+3, 1.8486667e+2, -1162302.6, -1195694.5, 4.4846234, 0.00006458601, 0.00007998219, -1162302.6, -33996.004, 0.0, 10.000287, 9.956263 
3.685014e+3, 1.9482297e+2, -1064152.6, -1097807.9, 3.4091983, 0.00006434822, -0.00004752781, -1064152.6, -33417.67, 0.0, 10.000289, 9.955919 
3.685014e+3, 2.047726e+2, -975988.44, -1019411.0, 4.3295455, 0.00006469056, 0.00007635786, -975988.44, -42759.9, 0.0, 10.00029, 9.943157 
3.685014e+3, 2.1471581e+2, -877701.8, -921386.9, 3.4127498, 0.00006566065, -0.00011838119, -877701.8, -41916.617, 0.0, 10.00029, 9.942817 
3.685014e+3, 2.246523e+2, -789417.7, -843127.5, 4.092008, 0.00006604955, 0.0001291704, -789417.7, -51010.195, 0.0, 10.000291, 9.929771 
3.685014e+3, 2.3458214e+2, -690983.6, -744949.6, 3.178951, 0.000065780834, -0.00008104857, -690983.6, -49888.504, 0.0, 10.000293, 9.9294405 
3.685014e+3, 2.4450502e+2, -602657.5, -667000.3, 3.6431663, 0.00006546854, 0.00008204654, -602657.5, -58806.695, 0.0, 10.000294, 9.916001 
3.685014e+3, 2.5442114e+2, -503904.3, -568325.3, 2.5324013, 0.00006510489, -0.00009972424, -503904.3, -57231.555, 0.0, 10.000296, 9.915901 
3.685014e+3, 2.6433018e+2, -415670.8, -490975.2, 2.9788063, 0.00006549465, 0.00014674575, -415670.8, -66106.58, 0.0, 10.000297, 9.901827 
3.685014e+3, 2.7423257e+2, -316386.66, -391363.63, 2.2092538, 0.00006684283, -0.00019883532, -316386.66, -63865.746, 0.0, 10.000297, 9.902246 
3.685014e+3, 2.841267e+2, -229913.08, -318071.53, 2.2032561, 0.000067356916, 0.00023311921, -229913.08, -74354.84, 0.0, 10.000298, 9.8853 
3.685014e+3, 2.9401305e+2, -130205.59, -217755.5, 1.1765227, 0.00006672557, -0.00024842445, -130205.59, -71533.58, 0.0, 10.000299, 9.886079 
3.685014e+3, 3.0392736e+2, -40464.977, -84748.19, 0.7115181, 0.00006615888, 0.00017796966, -40464.977, -40464.977, 0.0, 10.000302, 9.942029 
3.685014e+3, 3.1387126e+2, -39383.58, -82508.23, -0.5130413, 0.00006569881, -0.00005178601, -39383.58, -39383.58, 0.0, 10.000305, 9.94354 
3.6950144e+3, 1.2499664e+2, -1719605.5, -1724194.0, 1.5931464, 0.0000645715, 0.000045535435, -1719605.5, -4572.52, 0.0, 10.000279, 9.994196 
3.6950144e+3, 1.3499072e+2, -1622225.3, -1627405.8, 1.0447377, 0.00006495244, -0.000096501404, -1622225.3, -5134.247, 0.0, 10.00028, 9.993413 
3.6950144e+3, 1.449782e+2, -1534122.4, -1548116.4, 3.5956137, 0.00006513991, 0.00011809728, -1534122.4, -14908.586, 0.0, 10.000282, 9.981733 
3.6950144e+3, 1.5495992e+2, -1436394.0, -1450792.4, 2.639405, 0.000065121305, -0.00004493329, -1436394.0, -15001.135, 0.0, 10.000283, 9.981202 
3.6950144e+3, 1.6493502e+2, -1348344.5, -1371928.1, 4.499087, 0.00006518526, 0.000046877605, -1348344.5, -24707.701, 0.0, 10.000284, 9.969114 
3.6950144e+3, 1.749042e+2, -1250385.6, -1274286.1, 3.6483316, 0.00006533358, -0.000063708816, -1250385.6, -24446.666, 0.0, 10.000286, 9.9687 
3.6950144e+3, 1.8486671e+2, -1162305.0, -1195699.0, 4.9295564, 0.00006546338, 0.00007977144, -1162305.0, -33998.75, 0.0, 10.000287, 9.95626 
3.695014e+3, 1.9482301e+2, -1064154.9, -1097812.5, 3.8531518, 0.000065573724, -0.000047937192, -1064154.9, -33420.367, 0.0, 10.000289, 9.955916 
3.695014e+3, 2.0477265e+2, -975990.44, -1019415.0, 4.6000705, 0.000066045824, 0.000076264194, -975990.44, -42762.242, 0.0, 10.00029, 9.943155 
3.695014e+3, 2.1471584e+2, -877703.8, -921390.75, 3.6794174, 0.00006690937, -0.00011760251, -877703.8, -41918.91, 0.0, 10.00029, 9.942814 
3.695014e+3, 2.2465234e+2, -789419.7, -843131.44, 4.6187367, 0.0000671566, 0.00012947433, -789419.7, -51012.453, 0.0, 10.000291, 9.929769 
3.695014e+3, 2.3458216e+2, -690985.56, -744953.56, 3.7146146, 0.0000667066, -0.00008274323, -690985.56, -49890.703, 0.0, 10.000293, 9.929438 
3.695014e+3, 2.4450505e+2, -602659.8, -667005.06, 4.1435747, 0.00006631497, 0.00008020723, -602659.8, -58809.26, 0.0, 10.000294, 9.9159975 
3.695014e+3, 2.5442117e+2, -503906.66, -568330.06, 3.03067, 0.00006599371, -0.000099493634, -503906.66, -57234.094, 0.0, 10.000296, 9.915898 
3.695014e+3, 2.643302e+2, -415672.53, -490978.72, 3.1602314, 0.000066595334, 0.00014793251, -415672.53, -66108.48, 0.0, 10.000297, 9.901824 
3.695014e+3, 2.7423257e+2, -316388.3, -391367.03, 2.3693976, 0.00006837071, -0.00019811411, -316388.3, -63867.566, 0.0, 10.000297, 9.902245 
3.695014e+3, 2.841267e+2, -229915.16, -318075.8, 2.9216943, 0.00006902448, 0.00023295998, -229915.16, -74357.04, 0.0, 10.000298, 9.885297 
3.695014e+3, 2.9401305e+2, -130207.68, -217759.84, 1.9457437, 0.00006813859, -0.0002500251, -130207.68, -71535.75, 0.0, 10.000299, 9.886076 
3.695014e+3, 3.0392736e+2, -40467.38, -84753.195, 1.6833979, 0.000067214736, 0.00017621301, -40467.38, -40467.38, 0.0, 10.000302, 9.942025 
3.695014e+3, 3.1387126e+2, -39386.02, -82513.32, 0.4824747, 0.00006624904, -0.000051785228, -39386.02, -39386.02, 0.0, 10.000305, 9.943536 
3.705015e+3, 1.249967e+2, -1719594.1, -1724190.0, 1.1735061, 0.00006551835, 0.000045122575, -1719594.1, -4561.586, 0.0, 10.000288, 9.994194 
3.7050146e+3, 1.3499077e+2, -1622212.4, -1627401.0, 0.32434043, 0.00006584764, -0.00009732839, -1622212.4, -5121.8066, 0.0, 10.00029, 9.993411 
3.7050146e+3, 1.4497824e+2, -1534108.9, -1548112.0, 2.7844665, 0.00006601426, 0.00011891598, -1534108.9, -14895.499, 0.0, 10.000292, 9.981731 
3.7050146e+3, 1.5495996e+2, -1436379.8, -1450787.6, 1.9579947, 0.000066005814, -0.000045366058, -1436379.8, -14987.386, 0.0, 10.000294, 9.981199 
3.7050146e+3, 1.6493507e+2, -1348330.0, -1371923.3, 3.7826138, 0.00006611976, 0.000046141213, -1348330.0, -24693.617, 0.0, 10.000295, 9.969111 
3.7050146e+3, 1.7490424e+2, -1250371.1, -1274281.4, 2.802198, 0.000066358705, -0.00006378182, -1250371.1, -24432.484, 0.0, 10.000297, 9.968698 
3.7050146e+3, 1.8486674e+2, -1162290.8, -1195694.9, 3.937972, 0.00006657933, 0.000079688776, -1162290.8, -33984.773, 0.0, 10.000298, 9.956257 
3.7050146e+3, 1.9482304e+2, -1064140.5, -1097808.3, 2.9032595, 0.000066780696, -0.000048733138, -1064140.5, -33406.3, 0.0, 10.000299, 9.955914 
3.7050146e+3, 2.0477268e+2, -975975.56, -1019410.56, 3.475638, 0.00006715287, 0.00007566134, -975975.56, -42747.684, 0.0, 10.0003, 9.943152 
3.7050143e+3, 2.1471587e+2, -877688.1, -921385.94, 2.3190618, 0.000067709865, -0.00011703145, -877688.1, -41903.51, 0.0, 10.000301, 9.942811 
3.7050143e+3, 2.2465236e+2, -789403.25, -843125.44, 3.3826954, 0.00006795358, 0.00012992854, -789403.25, -50996.277, 0.0, 10.000303, 9.929767 
3.7050143e+3, 2.3458219e+2, -690969.7, -744947.9, 2.8085873, 0.0000678429, -0.00008386612, -690969.6, -49875.02, 0.0, 10.000304, 9.929436 
3.7050143e+3, 2.4450506e+2, -602645.4, -667001.7, 3.252219, 0.0000676748, 0.00007876516, -602645.4, -58795.01, 0.0, 10.000305, 9.915995 
3.7050143e+3, 2.5442117e+2, -503892.63, -568327.0, 1.8211801, 0.000067438516, -0.00009975185, -503892.63, -57220.207, 0.0, 10.000306, 9.9158945 
3.7050143e+3, 2.6433024e+2, -415657.25, -490973.88, 1.6117043, 0.00006788718, 0.00014837, -415657.25, -66093.34, 0.0, 10.000308, 9.901822 
3.7050143e+3, 2.7423257e+2, -316371.7, -391361.5, 0.7277202, 0.00006920725, -0.00019760523, -316371.7, -63851.06, 0.0, 10.000309, 9.902242 
3.7050143e+3, 2.8412673e+2, -229897.94, -318070.03, 1.741749, 0.0000697445, 0.0002329965, -229897.94, -74339.92, 0.0, 10.000311, 9.885295 
3.7050143e+3, 2.9401305e+2, -130190.93, -217754.33, 1.190956, 0.00006920692, -0.00025120185, -130190.93, -71519.07, 0.0, 10.000312, 9.886073 
3.7050143e+3, 3.0392736e+2, -40451.984, -84749.586, 1.3331115, 0.00006864566, 0.00017474299, -40451.984, -40451.984, 0.0, 10.000314, 9.942021 
3.7050143e+3, 3.1387126e+2, -39371.26, -82510.16, 0.08664461, 0.000068059286, -0.000052175787, -39371.26, -39371.26, 0.0, 10.000317, 9.943532 
3.715015e+3, 1.24996744e+2, -1719596.0, -1724193.6, 1.9481492, 0.00006636506, 0.00004392826, -1719596.0, -4564.007, 0.0, 10.000288, 9.994192 
3.715015e+3, 1.3499081e+2, -1622214.3, -1627404.6, 1.0987835, 0.00006654974, -0.000098398996, -1622214.3, -5124.1973, 0.0, 10.00029, 9.993409 
3.7150148e+3, 1.4497828e+2, -1534110.8, -1548115.5, 3.4580634, 0.000066722845, 0.0001197822, -1534110.8, -14897.819, 0.0, 10.000292, 9.981729 
3.7150148e+3, 1.5496e+2, -1436381.6, -1450791.1, 2.630926, 0.00006687288, -0.000045799494, -1436381.6, -14989.652, 0.0, 10.000294, 9.981197 
3.7150148e+3, 1.649351e+2, -1348332.1, -1371927.5, 4.3584495, 0.00006718693, 0.00004547915, -1348332.1, -24696.197, 0.0, 10.000295, 9.96911 
3.7150148e+3, 1.7490427e+2, -1250373.3, -1274285.5, 3.3775625, 0.000067668436, -0.000063579915, -1250373.3, -24435.02, 0.0, 10.000297, 9.968696 
3.7150148e+3, 1.8486679e+2, -1162293.0, -1195699.3, 4.413631, 0.000067932546, 0.000079733385, -1162293.0, -33987.395, 0.0, 10.000298, 9.956254 
3.7150148e+3, 1.9482307e+2, -1064142.8, -1097812.6, 3.3781588, 0.0000679693, -0.000049913488, -1064142.8, -33408.863, 0.0, 10.000299, 9.955911 
3.7150148e+3, 2.0477271e+2, -975978.06, -1019415.44, 3.961687, 0.00006801317, 0.000074552154, -975978.06, -42750.465, 0.0, 10.0003, 9.943149 
3.7150148e+3, 2.1471588e+2, -877690.6, -921390.8, 2.8049374, 0.00006806478, -0.00011666692, -877690.6, -41906.242, 0.0, 10.000301, 9.942808 
3.7150148e+3, 2.2465238e+2, -789404.56, -843128.1, 3.8094735, 0.00006844237, 0.00013053208, -789404.56, -50997.85, 0.0, 10.000303, 9.929765 
3.7150148e+3, 2.345822e+2, -690970.94, -744950.44, 3.2333589, 0.00006918863, -0.00008442053, -690970.94, -49876.527, 0.0, 10.000304, 9.929434 
3.7150148e+3, 2.4450508e+2, -602648.3, -667007.56, 3.681647, 0.00006954519, 0.00007771805, -602648.3, -58798.137, 0.0, 10.000305, 9.915991 
3.7150148e+3, 2.544212e+2, -503895.6, -568333.0, 2.2514458, 0.00006943621, -0.00010049618, -503895.6, -57223.33, 0.0, 10.000306, 9.915891 
3.7150148e+3, 2.6433024e+2, -415659.2, -490977.78, 2.121269, 0.00006936915, 0.00014806242, -415659.2, -66095.39, 0.0, 10.000308, 9.901819 
3.7150148e+3, 2.742326e+2, -316373.53, -391365.25, 1.2422105, 0.00006935647, -0.00019730756, -316373.53, -63852.984, 0.0, 10.000309, 9.90224 
3.7150148e+3, 2.8412673e+2, -229899.34, -318072.9, 2.4023378, 0.00006952247, 0.0002332276, -229899.34, -74341.4, 0.0, 10.000311, 9.885293 
3.7150148e+3, 2.9401308e+2, -130192.27, -217757.13, 1.8645005, 0.00006993261, -0.00025195716, -130192.27, -71520.47, 0.0, 10.000312, 9.886071 
3.7150148e+3, 3.0392736e+2, -40454.43, -84754.67, 2.16772, 0.00007044961, 0.00017355797, -40454.43, -40454.43, 0.0, 10.000314, 9.9420185 
3.7150148e+3, 3.1387126e+2, -39373.836, -82515.516, 0.94044167, 0.00007112242, -0.000052955504, -39373.836, -39373.836, 0.0, 10.000317, 9.943529 
3.7250155e+3, 1.2499679e+2, -1719582.8, -1724189.4, 1.8111316, 0.00006671581, 0.000042588097, -1719582.8, -4551.17, 0.0, 10.000298, 9.994189 
3.7250155e+3, 1.3499086e+2, -1622200.5, -1627400.3, 0.7642067, 0.00006728055, -0.00009995227, -1622200.5, -5110.86, 0.0, 10.000299, 9.993406 
3.7250155e+3, 1.4497833e+2, -1534096.6, -1548111.1, 2.728462, 0.0000676453, 0.00012011791, -1534096.6, -14884.149, 0.0, 10.000301, 9.981727 
3.7250155e+3, 1.5496005e+2, -1436367.1, -1450786.6, 1.5248963, 0.00006779783, -0.000046492718, -1436367.1, -14975.516, 0.0, 10.000304, 9.9811945 
3.7250152e+3, 1.6493516e+2, -1348317.4, -1371922.8, 2.9034986, 0.000068187575, 0.000044737237, -1348317.4, -24681.752, 0.0, 10.000306, 9.969107 
3.7250152e+3, 1.749043e+2, -1250358.5, -1274280.9, 1.9126163, 0.00006881944, -0.00006337052, -1250358.5, -24420.576, 0.0, 10.000307, 9.968693 
3.7250152e+3, 1.8486682e+2, -1162277.8, -1195694.1, 3.0340245, 0.00006916607, 0.00007981957, -1162277.8, -33972.465, 0.0, 10.000309, 9.956251 
3.7250152e+3, 1.948231e+2, -1064126.9, -1097807.3, 2.229666, 0.00006921443, -0.000051073774, -1064126.9, -33393.246, 0.0, 10.000311, 9.955909 
3.7250152e+3, 2.0477273e+2, -975962.56, -1019411.44, 2.7396576, 0.00006905983, 0.00007324703, -975962.56, -42735.215, 0.0, 10.000312, 9.943146 
3.7250152e+3, 2.1471591e+2, -877675.0, -921386.9, 1.3043227, 0.000068685615, -0.0001169248, -877675.0, -41890.89, 0.0, 10.000314, 9.942804 
3.7250152e+3, 2.2465241e+2, -789388.06, -843121.8, 1.9391083, 0.00006908522, 0.00013082588, -789388.06, -50981.535, 0.0, 10.000315, 9.929763 
3.7250152e+3, 2.3458223e+2, -690955.3, -744944.56, 1.2812698, 0.00007036005, -0.00008413597, -690955.3, -49861.1, 0.0, 10.000315, 9.929432 
3.7250152e+3, 2.4450509e+2, -602634.2, -667004.25, 2.0375586, 0.00007107353, 0.00007759037, -602634.2, -58784.164, 0.0, 10.000317, 9.915987 
3.7250152e+3, 2.544212e+2, -503881.1, -568329.6, 1.0305628, 0.0000711161, -0.00010151658, -503881.1, -57208.945, 0.0, 10.000318, 9.915887 
3.7250152e+3, 2.6433024e+2, -415643.5, -490973.22, 1.1825452, 0.00007075845, 0.00014685889, -415643.5, -66079.805, 0.0, 10.0003195, 9.901816 
3.7250152e+3, 2.742326e+2, -316356.72, -391360.13, 0.06613193, 0.0000698933, -0.00019779058, -316356.72, -63836.246, 0.0, 10.000321, 9.902237 
3.7250152e+3, 2.8412673e+2, -229881.78, -318066.66, 0.9076782, 0.00006982576, 0.00023317809, -229881.78, -74323.89, 0.0, 10.000323, 9.885291 
3.7250152e+3, 2.9401308e+2, -130175.7, -217751.33, 0.20859654, 0.00007085157, -0.00025196993, -130175.7, -71503.93, 0.0, 10.000324, 9.886069 
3.7250152e+3, 3.0392736e+2, -40439.688, -84751.164, 0.7170007, 0.00007212583, 0.0001733261, -40439.688, -40439.688, 0.0, 10.000326, 9.942015 
3.7250152e+3, 3.1387126e+2, -39359.875, -82512.53, -0.28485867, 0.00007375772, -0.000053782427, -39359.875, -39359.875, 0.0, 10.000328, 9.943525 
3.7350157e+3, 1.2499683e+2, -1719585.1, -1724193.9, 2.7122698, 0.00006657366, 0.000041217234, -1719585.1, -4554.023, 0.0, 10.000298, 9.994186 
3.7350157e+3, 1.349909e+2, -1622202.9, -1627404.8, 1.6654301, 0.00006803996, -0.00010198533, -1622202.9, -5113.666, 0.0, 10.000299, 9.993403 
3.7350157e+3, 1.4497836e+2, -1534099.4, -1548116.3, 3.5195355, 0.00006878039, 0.000119926306, -1534099.4, -14887.275, 0.0, 10.000301, 9.981723 
3.7350157e+3, 1.5496008e+2, -1436369.9, -1450791.8, 2.3165667, 0.000068780384, -0.000047444275, -1436369.9, -14978.573, 0.0, 10.000304, 9.981192 
3.7350157e+3, 1.6493519e+2, -1348319.6, -1371927.0, 3.4930718, 0.00006912216, 0.000043915832, -1348319.6, -24684.3, 0.0, 10.000306, 9.969104 
3.7350157e+3, 1.7490433e+2, -1250360.6, -1274285.0, 2.5003848, 0.00006981271, -0.00006315376, -1250360.6, -24423.074, 0.0, 10.000307, 9.96869 
3.7350154e+3, 1.8486685e+2, -1162279.5, -1195697.6, 3.6849024, 0.00007028068, 0.00007994704, -1162279.5, -33974.54, 0.0, 10.000309, 9.956249 
3.7350154e+3, 1.9482313e+2, -1064128.6, -1097810.6, 2.881743, 0.00007051588, -0.000052214164, -1064128.6, -33395.273, 0.0, 10.000311, 9.955906 
3.7350154e+3, 2.0477276e+2, -975965.6, -1019417.44, 3.2683125, 0.00007029184, 0.000071747076, -975965.6, -42738.52, 0.0, 10.000312, 9.943142 
3.7350154e+3, 2.1471593e+2, -877678.06, -921392.9, 1.8308791, 0.000069570895, -0.00011780148, -877678.06, -41894.145, 0.0, 10.000314, 9.9428005 
3.7350154e+3, 2.2465242e+2, -789389.56, -843124.8, 2.1624305, 0.00006988128, 0.00013081166, -789389.56, -50983.22, 0.0, 10.000315, 9.929761 
3.7350154e+3, 2.3458225e+2, -690956.75, -744947.44, 1.4940841, 0.000071358234, -0.00008301753, -690956.75, -49862.707, 0.0, 10.000315, 9.92943 
3.7350154e+3, 2.445051e+2, -602636.3, -667008.56, 2.577056, 0.00007226191, 0.00007837658, -602636.3, -58786.445, 0.0, 10.000317, 9.915984 
3.7350154e+3, 2.544212e+2, -503883.22, -568333.94, 1.5862808, 0.00007248013, -0.00010281146, -503883.22, -57211.19, 0.0, 10.000318, 9.915884 
3.7350154e+3, 2.6433024e+2, -415645.84, -490977.97, 1.9848878, 0.00007205573, 0.00014476471, -415645.84, -66082.21, 0.0, 10.0003195, 9.9018135 
3.7350154e+3, 2.742326e+2, -316359.06, -391364.88, 0.8850526, 0.00007081555, -0.00019904973, -316359.06, -63838.605, 0.0, 10.000321, 9.902234 
3.7350154e+3, 2.8412673e+2, -229883.5, -318070.2, 1.3750302, 0.00007065135, 0.00023284953, -229883.5, -74325.62, 0.0, 10.000323, 9.885288 
3.7350154e+3, 2.9401308e+2, -130177.336, -217754.73, 0.6437328, 0.00007196274, -0.0002512447, -130177.336, -71505.56, 0.0, 10.000324, 9.886067 
3.7350154e+3, 3.0392736e+2, -40441.813, -84755.59, 1.3679609, 0.00007367513, 0.00017404168, -40441.813, -40441.813, 0.0, 10.000326, 9.942012 
3.7350154e+3, 3.1387123e+2, -39362.063, -82517.1, 0.3917444, 0.000075967735, -0.000054656335, -39362.063, -39362.063, 0.0, 10.000328, 9.943522 
3.745016e+3, 1.2499688e+2, -1719571.5, -1724189.8, 0.82299185, 0.00006655568, 0.000041158917, -1719571.5, -4540.7974, 0.0, 10.000307, 9.994184 
3.745016e+3, 1.3499093e+2, -1622188.9, -1627400.5, -0.2451474, 0.000068999456, -0.00010206345, -1622188.9, -5100.0283, 0.0, 10.00031, 9.993401 
3.745016e+3, 1.449784e+2, -1534084.4, -1548111.4, 1.7896932, 0.00007026889, 0.000121033525, -1534084.4, -14872.684, 0.0, 10.000313, 9.981721 
3.745016e+3, 1.5496011e+2, -1436353.8, -1450786.3, 1.0401591, 0.0000703475, -0.000049001756, -1436353.8, -14962.868, 0.0, 10.000316, 9.981189 
3.745016e+3, 1.6493522e+2, -1348303.4, -1371922.3, 1.922728, 0.00007044329, 0.00004195458, -1348303.4, -24668.334, 0.0, 10.000318, 9.9691 
3.745016e+3, 1.7490436e+2, -1250343.8, -1274280.1, 0.39769617, 0.00007055681, -0.000063212814, -1250343.8, -24406.48, 0.0, 10.0003195, 9.968687 
3.745016e+3, 1.8486686e+2, -1162261.8, -1195690.5, 1.2511256, 0.000071032904, 0.000080493104, -1162261.8, -33957.094, 0.0, 10.000321, 9.956247 
3.745016e+3, 1.9482315e+2, -1064112.5, -1097804.4, 0.73865527, 0.0000718879, -0.00005241883, -1064112.5, -33379.37, 0.0, 10.000322, 9.955904 
3.745016e+3, 2.0477277e+2, -975951.5, -1019414.2, 1.491157, 0.000071922754, 0.000070774004, -975951.5, -42724.605, 0.0, 10.000323, 9.943138 
3.745016e+3, 2.1471594e+2, -877663.75, -921389.56, 0.32320637, 0.00007107018, -0.000119562, -877663.75, -41879.953, 0.0, 10.000324, 9.942797 
3.745016e+3, 2.2465244e+2, -789373.75, -843119.56, 0.38631964, 0.00007102851, 0.0001295856, -789373.75, -50967.516, 0.0, 10.000326, 9.929759 
3.7450156e+3, 2.3458226e+2, -690939.8, -744941.6, -0.71956146, 0.00007190427, -0.00008221406, -690939.8, -49845.902, 0.0, 10.000327, 9.929428 
3.7450156e+3, 2.4450512e+2, -602619.1, -667002.56, 0.3784439, 0.000072705334, 0.00007945664, -602619.1, -58769.375, 0.0, 10.000329, 9.915982 
3.7450156e+3, 2.5442123e+2, -503866.97, -568328.44, -0.24125347, 0.000073416326, -0.000103548744, -503866.97, -57195.016, 0.0, 10.00033, 9.915882 
3.7450156e+3, 2.6433024e+2, -415630.94, -490973.94, 0.64536685, 0.00007338525, 0.00014316505, -415630.94, -66067.336, 0.0, 10.000331, 9.901811 
3.7450156e+3, 2.742326e+2, -316344.97, -391361.38, -0.36692664, 0.00007241054, -0.0002002923, -316344.97, -63824.547, 0.0, 10.000333, 9.90223 
3.7450156e+3, 2.8412673e+2, -229869.17, -318066.3, -0.12742354, 0.000072282965, 0.00023225683, -229869.17, -74311.28, 0.0, 10.000334, 9.885285 
3.7450156e+3, 2.9401308e+2, -130161.84, -217750.28, -1.2598941, 0.00007331859, -0.0002507927, -130161.84, -71490.04, 0.0, 10.000337, 9.886065 
3.7450156e+3, 3.0392736e+2, -40425.402, -84750.82, -0.47721013, 0.00007484945, 0.00017456585, -40425.402, -40425.402, 0.0, 10.000339, 9.942009 
3.745016e+3, 3.1387123e+2, -39344.707, -82511.87, -1.2333715, 0.00007710338, -0.000055507197, -39344.707, -39344.707, 0.0, 10.00034, 9.94352 
3.7550163e+3, 1.24996915e+2, -1719573.9, -1724194.4, 1.830151, 0.00006666114, 0.000042541775, -1719573.9, -4543.6396, 0.0, 10.000307, 9.994182 
3.7550163e+3, 1.3499098e+2, -1622191.3, -1627405.0, 0.76179314, 0.00007015785, -0.000100199, -1622191.3, -5102.827, 0.0, 10.00031, 9.993398 
3.755016e+3, 1.4497843e+2, -1534086.0, -1548114.5, 2.8503542, 0.00007210867, 0.00012343138, -1534086.0, -14874.727, 0.0, 10.000313, 9.981719 
3.755016e+3, 1.5496014e+2, -1436355.5, -1450789.5, 2.102015, 0.00007249564, -0.000051161416, -1436355.5, -14964.849, 0.0, 10.000316, 9.981187 
3.755016e+3, 1.6493525e+2, -1348306.8, -1371928.8, 2.6765685, 0.00007214867, 0.00003886054, -1348306.8, -24671.98, 0.0, 10.000318, 9.969096 
3.755016e+3, 1.7490439e+2, -1250347.1, -1274286.5, 1.1498886, 0.00007105339, -0.00006354608, -1250347.1, -24410.066, 0.0, 10.0003195, 9.968682 
3.755016e+3, 1.8486689e+2, -1162263.0, -1195692.8, 1.5503763, 0.00007142509, 0.00008145503, -1162263.0, -33958.48, 0.0, 10.000321, 9.956246 
3.755016e+3, 1.9482318e+2, -1064113.6, -1097806.6, 1.0322715, 0.00007333009, -0.00005169366, -1064113.6, -33380.71, 0.0, 10.000322, 9.955903 
3.755016e+3, 2.0477279e+2, -975954.0, -1019419.06, 2.0903232, 0.00007395012, 0.00007032448, -975954.0, -42727.285, 0.0, 10.000323, 9.943135 
3.755016e+3, 2.1471596e+2, -877666.25, -921394.44, 0.93001723, 0.00007317972, -0.00012220095, -877666.25, -41882.59, 0.0, 10.000324, 9.942794 
3.755016e+3, 2.2465244e+2, -789376.1, -843124.2, 0.88958424, 0.000072524825, 0.00012715516, -789376.1, -50969.98, 0.0, 10.000326, 9.929756 
3.755016e+3, 2.3458226e+2, -690942.2, -744946.25, -0.22000745, 0.000072001065, -0.000081723716, -690942.2, -49848.32, 0.0, 10.000327, 9.929425 
3.755016e+3, 2.4450512e+2, -602620.6, -667005.5, 0.7324995, 0.00007240855, 0.0000808286, -602620.6, -58770.92, 0.0, 10.000329, 9.91598 
3.755016e+3, 2.5442123e+2, -503868.4, -568331.3, 0.105873674, 0.000073927426, -0.00010373196, -503868.4, -57196.477, 0.0, 10.00033, 9.91588 
3.755016e+3, 2.6433027e+2, -415633.1, -490978.34, 1.2606227, 0.00007474686, 0.00014205679, -415633.1, -66069.52, 0.0, 10.000331, 9.901808 
3.755016e+3, 2.742326e+2, -316347.16, -391365.84, 0.26630536, 0.00007467414, -0.00020151841, -316347.16, -63826.723, 0.0, 10.000333, 9.902227 
3.755016e+3, 2.8412673e+2, -229871.56, -318071.22, 0.617894, 0.00007471566, 0.00023140156, -229871.56, -74313.63, 0.0, 10.000334, 9.8852825 
3.755016e+3, 2.9401305e+2, -130164.22, -217755.22, -0.5043576, 0.000074917676, -0.00025061244, -130164.22, -71492.35, 0.0, 10.000337, 9.886061 
3.755016e+3, 3.0392733e+2, -40427.27, -84754.71, 0.42807093, 0.0000756512, 0.00017489966, -40427.27, -40427.27, 0.0, 10.000339, 9.942007 
3.755016e+3, 3.1387123e+2, -39346.52, -82515.65, -0.3104278, 0.00007717139, -0.00005633523, -39346.52, -39346.52, 0.0, 10.00034, 9.943517 
3.7650165e+3, 1.2499695e+2, -1719562.0, -1724191.5, -0.846755, 0.0000685593, 0.000042943695, -1719562.0, -4532.118, 0.0, 10.000316, 9.994178 
3.7650165e+3, 1.3499102e+2, -1622176.5, -1627400.8, -2.118773, 0.000071244314, -0.000100763275, -1622176.5, -5088.2876, 0.0, 10.00032, 9.993395 
3.7650165e+3, 1.4497846e+2, -1534068.3, -1548106.4, -0.17091148, 0.00007311181, 0.00012417385, -1534068.3, -14857.239, 0.0, 10.000324, 9.981717 
3.7650165e+3, 1.5496017e+2, -1436338.3, -1450781.6, -0.2716644, 0.00007414763, -0.000051879546, -1436338.3, -14947.865, 0.0, 10.000326, 9.981186 
3.7650165e+3, 1.6493526e+2, -1348291.8, -1371925.6, 0.4481072, 0.00007399946, 0.000037228583, -1348291.8, -24657.256, 0.0, 10.000329, 9.969092 
3.7650165e+3, 1.749044e+2, -1250331.3, -1274283.0, -1.1562129, 0.00007264401, -0.00006553416, -1250331.3, -24394.348, 0.0, 10.000332, 9.968678 
3.7650165e+3, 1.8486692e+2, -1162244.6, -1195685.4, -1.5309328, 0.00007265237, 0.00008036957, -1162244.6, -33940.35, 0.0, 10.000334, 9.956244 
3.7650165e+3, 1.9482319e+2, -1064095.4, -1097799.3, -2.3922343, 0.00007408619, -0.00005056083, -1064095.4, -33362.57, 0.0, 10.000335, 9.955901 
3.7650165e+3, 2.047728e+2, -975936.7, -1019412.44, -1.0185645, 0.00007484237, 0.000071185365, -975936.7, -42710.12, 0.0, 10.000335, 9.943133 
3.7650165e+3, 2.1471597e+2, -877650.75, -921388.8, -1.3099753, 0.00007486526, -0.00012430648, -877650.75, -41867.234, 0.0, 10.000336, 9.942792 
3.7650165e+3, 2.2465245e+2, -789362.25, -843120.9, -0.80060846, 0.000074312324, 0.00012460665, -789362.25, -50956.207, 0.0, 10.000337, 9.929752 
3.7650165e+3, 2.3458228e+2, -690927.7, -744942.7, -2.1073384, 0.000073108415, -0.00008186021, -690927.7, -49833.906, 0.0, 10.000339, 9.929421 
3.7650165e+3, 2.4450514e+2, -602604.5, -666999.56, -1.4242635, 0.00007311844, 0.00008156532, -602604.5, -58754.83, 0.0, 10.00034, 9.915978 
3.7650165e+3, 2.5442123e+2, -503851.72, -568325.06, -2.0443845, 0.00007457809, -0.00010396175, -503851.7, -57179.805, 0.0, 10.000341, 9.915878 
3.7650165e+3, 2.6433024e+2, -415617.13, -490973.63, -0.7486345, 0.00007560738, 0.00014129958, -415617.13, -66053.555, 0.0, 10.000342, 9.901805 
3.7650165e+3, 2.742326e+2, -316331.9, -391361.6, -1.7062098, 0.000076085955, -0.00020224022, -316331.9, -63811.44, 0.0, 10.000344, 9.902225 
3.7650165e+3, 2.8412673e+2, -229856.72, -318067.47, -1.08939, 0.000076356715, 0.00023086704, -229856.72, -74298.73, 0.0, 10.000346, 9.88528 
3.7650165e+3, 2.9401305e+2, -130149.14, -217751.42, -2.100355, 0.00007634591, -0.00025075453, -130149.14, -71477.17, 0.0, 10.000348, 9.886058 
3.7650165e+3, 3.0392733e+2, -40411.24, -84749.79, -0.8105993, 0.00007677129, 0.00017465156, -40411.24, -40411.24, 0.0, 10.000351, 9.942004 
3.7650165e+3, 3.138712e+2, -39329.29, -82510.06, -1.4409202, 0.00007784605, -0.00005743092, -39329.29, -39329.29, 0.0, 10.000354, 9.943515 
3.775017e+3, 1.24996975e+2, -1719565.0, -1724197.0, 0.8766605, 0.000072238465, 0.000042536198, -1719565.0, -4535.3174, 0.0, 10.000316, 9.994175 
3.775017e+3, 1.3499103e+2, -1622179.4, -1627406.1, -0.395646, 0.000072259434, -0.00010374087, -1622179.4, -5091.403, 0.0, 10.00032, 9.993392 
3.775017e+3, 1.449785e+2, -1534068.5, -1548106.9, 0.7956007, 0.00007328386, 0.0001232714, -1534068.5, -14857.679, 0.0, 10.000324, 9.981717 
3.775017e+3, 1.549602e+2, -1436338.4, -1450782.0, 0.6910804, 0.0000753067, -0.00005116559, -1436338.4, -14948.316, 0.0, 10.000327, 9.981186 
3.775017e+3, 1.6493529e+2, -1348295.3, -1371932.4, 1.4442164, 0.0000759947, 0.000037049147, -1348295.3, -24661.002, 0.0, 10.000329, 9.969088 
3.775017e+3, 1.7490442e+2, -1250334.8, -1274289.8, -0.15778828, 0.00007532168, -0.00006916647, -1250334.8, -24398.004, 0.0, 10.000332, 9.968675 
3.775017e+3, 1.8486694e+2, -1162246.6, -1195689.0, -1.2054622, 0.000074709475, 0.00007724981, -1162246.6, -33942.35, 0.0, 10.000334, 9.956242 
3.775017e+3, 1.9482319e+2, -1064097.1, -1097802.9, -2.0755491, 0.000074160744, -0.000049023165, -1064097.1, -33364.535, 0.0, 10.000335, 9.955899 
3.775017e+3, 2.0477282e+2, -975937.44, -1019413.8, -0.83807003, 0.00007460693, 0.00007334804, -975937.44, -42710.94, 0.0, 10.000335, 9.943132 
3.775017e+3, 2.1471597e+2, -877651.44, -921390.2, -1.1317471, 0.00007612958, -0.00012588211, -877651.44, -41867.996, 0.0, 10.000336, 9.942791 
3.775017e+3, 2.2465245e+2, -789364.94, -843126.2, -0.138904, 0.000076389166, 0.00012194086, -789364.94, -50958.97, 0.0, 10.000337, 9.9297495 
3.775017e+3, 2.3458228e+2, -690930.44, -744948.1, -1.4294095, 0.000075219854, -0.00008261958, -690930.44, -49836.67, 0.0, 10.000339, 9.929418 
3.775017e+3, 2.4450514e+2, -602605.94, -667002.5, -0.91668755, 0.000074828604, 0.000081670776, -602605.94, -58756.293, 0.0, 10.00034, 9.915977 
3.775017e+3, 2.5442123e+2, -503853.1, -568327.9, -1.545017, 0.00007536754, -0.0001042379, -503853.1, -57181.17, 0.0, 10.000341, 9.915876 
3.775017e+3, 2.6433024e+2, -415619.25, -490977.94, -0.26064667, 0.000075970136, 0.00014089106, -415619.25, -66055.625, 0.0, 10.000342, 9.901802 
3.775017e+3, 2.742326e+2, -316334.03, -391365.97, -1.2190886, 0.00007665153, -0.00020246107, -316334.03, -63813.504, 0.0, 10.000344, 9.902222 
3.775017e+3, 2.841267e+2, -229858.94, -318072.06, -0.27660966, 0.00007721128, 0.00023065113, -229858.94, -74300.85, 0.0, 10.000346, 9.885277 
3.775017e+3, 2.9401305e+2, -130151.34, -217755.98, -1.2580994, 0.00007760444, -0.00025121696, -130151.34, -71479.25, 0.0, 10.000348, 9.886055 
3.775017e+3, 3.039273e+2, -40412.96, -84753.38, 0.37117338, 0.000078207726, 0.00017382528, -40412.96, -40412.96, 0.0, 10.000351, 9.942001 
3.775017e+3, 3.138712e+2, -39330.957, -82513.54, -0.21911384, 0.00007912357, -0.000058792608, -39330.957, -39330.957, 0.0, 10.000354, 9.943512 
3.7850174e+3, 1.2499701e+2, -1719554.1, -1724195.5, 2.0268795, 0.00007576166, 0.000042404485, -1719554.1, -4524.7886, 0.0, 10.000324, 9.994171 
3.7850174e+3, 1.3499106e+2, -1622164.3, -1627402.4, 0.51277846, 0.00007421168, -0.00010801167, -1622164.3, -5076.45, 0.0, 10.000332, 9.993388 
3.785017e+3, 1.4497851e+2, -1534049.3, -1548099.5, -0.3089983, 0.00007384036, 0.00012132181, -1534049.3, -14838.606, 0.0, 10.000338, 9.981714 
3.785017e+3, 1.5496022e+2, -1436317.4, -1450773.9, -2.098992, 0.000074643736, -0.000049295242, -1436317.4, -14927.462, 0.0, 10.000341, 9.981183 
3.785017e+3, 1.649353e+2, -1348275.4, -1371924.9, -2.2295535, 0.00007561586, 0.00003866019, -1348275.4, -24641.223, 0.0, 10.000343, 9.969086 
3.785017e+3, 1.7490444e+2, -1250318.8, -1274284.4, -2.5730026, 0.00007676036, -0.00007197463, -1250318.8, -24382.115, 0.0, 10.000343, 9.968672 
3.785017e+3, 1.8486694e+2, -1162232.4, -1195685.3, -3.3693764, 0.00007669646, 0.00007387651, -1162232.4, -33928.266, 0.0, 10.000344, 9.956239 
3.785017e+3, 1.948232e+2, -1064081.8, -1097798.5, -4.9268565, 0.00007536938, -0.000048933212, -1064081.8, -33349.13, 0.0, 10.000346, 9.955895 
3.785017e+3, 2.0477282e+2, -975919.1, -1019405.0, -4.220101, 0.000075448, 0.00007428019, -975919.1, -42692.74, 0.0, 10.000347, 9.943131 
3.785017e+3, 2.1471597e+2, -877633.3, -921381.44, -4.2265406, 0.00007704767, -0.000126944, -877633.3, -41849.895, 0.0, 10.000347, 9.942791 
3.785017e+3, 2.2465245e+2, -789349.5, -843121.8, -2.5932164, 0.00007750071, 0.000120164186, -789349.5, -50943.523, 0.0, 10.000348, 9.929747 
3.785017e+3, 2.3458228e+2, -690916.3, -744944.56, -3.5527678, 0.00007665636, -0.00008366315, -690916.3, -49822.543, 0.0, 10.000349, 9.929415 
3.785017e+3, 2.4450512e+2, -602591.3, -666997.3, -2.8294683, 0.000076259916, 0.00008119187, -602591.3, -58741.617, 0.0, 10.000351, 9.915975 
3.785017e+3, 2.5442123e+2, -503837.8, -568322.3, -3.481324, 0.00007639945, -0.000104354716, -503837.8, -57165.836, 0.0, 10.000353, 9.9158745 
3.785017e+3, 2.6433024e+2, -415604.03, -490973.63, -2.2362435, 0.000076835, 0.00014085043, -415604.03, -66040.336, 0.0, 10.000354, 9.901799 
3.785017e+3, 2.7423257e+2, -316318.13, -391361.44, -3.254057, 0.00007764581, -0.00020278864, -316318.13, -63797.473, 0.0, 10.000356, 9.902219 
3.785017e+3, 2.841267e+2, -229842.67, -318067.34, -2.1199453, 0.00007827457, 0.0002301634, -229842.67, -74284.445, 0.0, 10.000358, 9.885273 
3.785017e+3, 2.9401302e+2, -130135.45, -217751.5, -2.977358, 0.00007865268, -0.0002516899, -130135.45, -71463.195, 0.0, 10.0003605, 9.886052 
3.785017e+3, 3.039273e+2, -40397.293, -84748.3, -0.9236167, 0.00007931335, 0.0001731766, -40397.293, -40397.293, 0.0, 10.000362, 9.941999 
3.785017e+3, 3.1387118e+2, -39316.105, -82508.766, -1.3310992, 0.00008039477, -0.00005990126, -39316.105, -39316.105, 0.0, 10.000365, 9.94351 
3.7950176e+3, 1.24997035e+2, -1719557.6, -1724202.0, 4.7725635, 0.00007912981, 0.000042727894, -1719557.6, -4528.4927, 0.0, 10.000324, 9.994167 
3.7950176e+3, 1.3499108e+2, -1622167.6, -1627408.9, 3.2585638, 0.00007709481, -0.000113566566, -1622167.6, -5080.068, 0.0, 10.000332, 9.993384 
3.7950176e+3, 1.4497854e+2, -1534053.3, -1548107.1, 1.0969803, 0.000074778916, 0.00011833243, -1534053.3, -14842.796, 0.0, 10.000338, 9.9817095 
3.7950176e+3, 1.5496023e+2, -1436321.4, -1450781.4, -0.69326675, 0.00007217131, -0.000046276524, -1436321.4, -14931.595, 0.0, 10.000341, 9.981178 
3.7950176e+3, 1.649353e+2, -1348276.1, -1371926.4, -2.1450489, 0.00007287916, 0.00004204935, -1348276.1, -24642.11, 0.0, 10.000343, 9.969085 
3.7950176e+3, 1.7490444e+2, -1250319.5, -1274285.8, -2.4939797, 0.00007696842, -0.00007396418, -1250319.5, -24382.945, 0.0, 10.000343, 9.968671 
3.7950176e+3, 1.8486694e+2, -1162235.8, -1195691.8, -2.724485, 0.00007861376, 0.00007025144, -1162235.8, -33931.645, 0.0, 10.000344, 9.956235 
3.7950176e+3, 1.948232e+2, -1064085.0, -1097805.0, -4.274315, 0.00007770457, -0.000050281407, -1064085.0, -33352.465, 0.0, 10.000346, 9.955892 
3.7950176e+3, 2.0477282e+2, -975919.3, -1019405.3, -4.040884, 0.00007735848, 0.00007398988, -975919.3, -42692.867, 0.0, 10.000347, 9.943131 
3.7950173e+3, 2.1471597e+2, -877633.4, -921381.56, -4.05715, 0.00007762194, -0.00012749575, -877633.4, -41849.965, 0.0, 10.000347, 9.94279 
3.7950173e+3, 2.2465245e+2, -789351.56, -843125.9, -2.220743, 0.000077653494, 0.00011927057, -789351.56, -50945.563, 0.0, 10.000348, 9.929744 
3.7950173e+3, 2.3458226e+2, -690918.44, -744948.7, -3.1732783, 0.00007742249, -0.0000849891, -690918.44, -49824.586, 0.0, 10.000349, 9.929412 
3.7950173e+3, 2.4450512e+2, -602592.8, -667000.3, -2.1707544, 0.00007741427, 0.00008013246, -602592.8, -58743.03, 0.0, 10.000351, 9.915973 
3.7950173e+3, 2.544212e+2, -503839.25, -568325.25, -2.8097572, 0.000077672215, -0.00010431333, -503839.25, -57167.195, 0.0, 10.000353, 9.915873 
3.7950173e+3, 2.6433024e+2, -415606.25, -490978.16, -1.5350966, 0.00007819866, 0.00014117514, -415606.25, -66042.46, 0.0, 10.000354, 9.901796 
3.7950173e+3, 2.7423257e+2, -316320.38, -391366.03, -2.550401, 0.00007906602, -0.00020322227, -316320.38, -63799.582, 0.0, 10.000356, 9.902216 
3.7950176e+3, 2.8412667e+2, -229844.72, -318071.56, -1.3596076, 0.00007954528, 0.00022940552, -229844.72, -74286.32, 0.0, 10.000358, 9.885271 
3.7950176e+3, 2.94013e+2, -130137.45, -217755.66, -2.2121408, 0.00007949215, -0.00025217334, -130137.45, -71465.0, 0.0, 10.0003605, 9.886049 
3.7950176e+3, 3.0392727e+2, -40398.74, -84751.32, 0.047481403, 0.00008009045, 0.00017270425, -40398.74, -40398.74, 0.0, 10.000362, 9.941998 
3.7950176e+3, 3.1387115e+2, -39317.492, -82511.66, -0.33597147, 0.00008165969, -0.000060758633, -39317.492, -39317.492, 0.0, 10.000365, 9.943508 
3.8050178e+3, 1.2499706e+2, -1719532.1, -1724193.0, -0.26779428, 0.00008271317, 0.000050627466, -1719532.1, -4503.2007, 0.0, 10.000342, 9.994163 
3.8050178e+3, 1.3499108e+2, -1622149.6, -1627403.9, -1.8111984, 0.000079047524, -0.000118418306, -1622149.6, -5062.202, 0.0, 10.000345, 9.99338 
3.8050178e+3, 1.4497854e+2, -1534039.6, -1548104.1, -4.289498, 0.00007531349, 0.00011356689, -1534039.6, -14829.217, 0.0, 10.000348, 9.981707 
3.8050178e+3, 1.5496023e+2, -1436309.6, -1450779.5, -5.261436, 0.00007150151, -0.000042898566, -1436309.6, -14919.908, 0.0, 10.00035, 9.981174 
3.8050178e+3, 1.6493532e+2, -1348261.4, -1371918.8, -6.8755183, 0.00007219851, 0.000047493013, -1348261.4, -24627.441, 0.0, 10.000353, 9.969085 
3.8050178e+3, 1.7490444e+2, -1250302.9, -1274277.3, -6.6010776, 0.00007749413, -0.0000726527, -1250302.9, -24366.408, 0.0, 10.000354, 9.968671 
3.8050178e+3, 1.8486694e+2, -1162221.5, -1195687.9, -6.003861, 0.00008008286, 0.00006935751, -1162221.5, -33917.383, 0.0, 10.000355, 9.956231 
3.8050178e+3, 1.948232e+2, -1064072.4, -1097802.0, -6.811244, 0.00007984224, -0.00005136686, -1064072.4, -33339.773, 0.0, 10.000356, 9.955889 
3.8050178e+3, 2.0477282e+2, -975904.1, -1019397.75, -6.2839527, 0.00007936603, 0.00007292311, -975904.1, -42677.68, 0.0, 10.000357, 9.943131 
3.8050178e+3, 2.1471597e+2, -877616.2, -921373.0, -6.3825464, 0.000078635276, -0.00012831668, -877616.2, -41832.766, 0.0, 10.000359, 9.94279 
3.8050178e+3, 2.2465245e+2, -789334.94, -843120.06, -4.509708, 0.00007822677, 0.00011826098, -789334.94, -50928.934, 0.0, 10.0003605, 9.929741 
3.8050178e+3, 2.3458226e+2, -690901.9, -744943.0, -5.216809, 0.00007818274, -0.000086678876, -690901.9, -49807.95, 0.0, 10.000361, 9.92941 
3.8050178e+3, 2.445051e+2, -602576.44, -666994.7, -4.0253263, 0.00007832043, 0.000078819525, -602576.44, -58726.586, 0.0, 10.000362, 9.915971 
3.8050178e+3, 2.544212e+2, -503823.6, -568320.0, -4.941322, 0.000078674595, -0.00010398717, -503823.6, -57151.438, 0.0, 10.000364, 9.915871 
3.8050178e+3, 2.643302e+2, -415591.4, -490973.72, -3.6347318, 0.0000793402, 0.00014193945, -415591.4, -66027.47, 0.0, 10.000365, 9.9017935 
3.8050178e+3, 2.7423254e+2, -316305.9, -391361.88, -4.339955, 0.000080401485, -0.00020355021, -316305.9, -63784.953, 0.0, 10.000367, 9.902213 
3.8050178e+3, 2.8412667e+2, -229830.42, -318067.78, -2.8678288, 0.000080917394, 0.00022848256, -229830.42, -74271.83, 0.0, 10.000369, 9.885268 
3.8050178e+3, 2.94013e+2, -130122.7, -217751.73, -3.8135645, 0.00008068554, -0.00025300396, -130122.7, -71450.03, 0.0, 10.000371, 9.886046 
3.8050178e+3, 3.0392724e+2, -40383.066, -84746.125, -1.4189533, 0.000081092585, 0.00017203804, -40383.066, -40383.066, 0.0, 10.000374, 9.941996 
3.8050178e+3, 3.1387112e+2, -39301.266, -82506.09, -1.844807, 0.00008245407, -0.0000611597, -39301.266, -39301.266, 0.0, 10.000377, 9.943506 
3.8150182e+3, 1.2499708e+2, -1719535.6, -1724199.6, 0.77101225, 0.00008651063, 0.00006622072, -1719535.6, -4506.8877, 0.0, 10.000342, 9.994159 
3.8150182e+3, 1.3499108e+2, -1622153.3, -1627410.5, -0.76883674, 0.00008007643, -0.00012257276, -1622153.3, -5065.759, 0.0, 10.000345, 9.993376 
3.8150182e+3, 1.4497854e+2, -1534041.9, -1548108.3, -3.3023882, 0.00007544681, 0.000107036874, -1534041.9, -14831.402, 0.0, 10.000348, 9.981704 
3.8150182e+3, 1.5496023e+2, -1436311.8, -1450783.5, -4.2796764, 0.00007262163, -0.00003916428, -1436311.8, -14922.058, 0.0, 10.00035, 9.981173 
3.8150182e+3, 1.6493532e+2, -1348260.8, -1371917.5, -6.326511, 0.0000735595, 0.000054976605, -1348260.8, -24626.809, 0.0, 10.000353, 9.969085 
3.8150182e+3, 1.7490444e+2, -1250302.3, -1274276.0, -6.056004, 0.00007833537, -0.00006806358, -1250302.3, -24365.78, 0.0, 10.000354, 9.968672 
3.8150182e+3, 1.8486694e+2, -1162223.3, -1195691.3, -5.712252, 0.000081107, 0.00007117541, -1162223.3, -33919.09, 0.0, 10.000355, 9.956229 
3.815018e+3, 1.9482319e+2, -1064074.1, -1097805.4, -6.5226474, 0.00008178375, -0.000052191455, -1064074.1, -33341.44, 0.0, 10.000356, 9.955886 
3.815018e+3, 2.047728e+2, -975904.44, -1019398.3, -5.615361, 0.000081469945, 0.000071085335, -975904.44, -42677.867, 0.0, 10.000357, 9.9431305 
3.815018e+3, 2.1471597e+2, -877616.44, -921373.44, -5.7059503, 0.00008008468, -0.00012940502, -877616.44, -41832.934, 0.0, 10.000359, 9.94279 
3.815018e+3, 2.2465244e+2, -789336.5, -843123.1, -4.091617, 0.00007921771, 0.00011713609, -789336.5, -50930.414, 0.0, 10.0003605, 9.929739 
3.815018e+3, 2.3458225e+2, -690903.44, -744946.2, -4.8067565, 0.00007893724, -0.00008872999, -690903.44, -49809.42, 0.0, 10.000361, 9.929408 
3.815018e+3, 2.4450509e+2, -602578.5, -666998.7, -3.5110595, 0.000078980214, 0.000077254794, -602578.5, -58728.465, 0.0, 10.000362, 9.915968 
3.815018e+3, 2.5442117e+2, -503825.63, -568324.06, -4.422353, 0.00007940856, -0.000103378356, -503825.63, -57153.3, 0.0, 10.000364, 9.915868 
3.815018e+3, 2.643302e+2, -415593.1, -490977.16, -3.0135822, 0.000080261234, 0.00014314015, -415593.1, -66028.99, 0.0, 10.000365, 9.901792 
3.815018e+3, 2.7423254e+2, -316307.56, -391365.25, -3.7121332, 0.00008165281, -0.00020377329, -316307.56, -63786.406, 0.0, 10.000367, 9.902211 
3.8150182e+3, 2.8412664e+2, -229832.61, -318072.28, -1.9821, 0.000082390216, 0.00022739566, -229832.61, -74273.78, 0.0, 10.000369, 9.885264 
3.8150182e+3, 2.9401296e+2, -130124.914, -217756.31, -2.9044714, 0.00008223042, -0.00025417938, -130124.914, -71451.98, 0.0, 10.000371, 9.886044 
3.8150182e+3, 3.039272e+2, -40384.65, -84749.42, -0.3178787, 0.000082318256, 0.00017117917, -40384.65, -40384.65, 0.0, 10.000374, 9.941993 
3.8150182e+3, 3.138711e+2, -39302.777, -82509.24, -0.721564, 0.00008278133, -0.00006110776, -39302.777, -39302.777, 0.0, 10.000377, 9.943504 
3.8250184e+3, 1.24997094e+2, -1719514.5, -1724190.1, 4.0961113, 0.00008926618, 0.00007201505, -1719514.5, -4485.807, 0.0, 10.000357, 9.994158 
3.8250184e+3, 1.3499108e+2, -1622132.8, -1627401.5, 4.3824725, 0.00008188698, -0.00013195895, -1622132.8, -5045.3486, 0.0, 10.000359, 9.993374 
3.8250184e+3, 1.4497851e+2, -1534027.1, -1548107.9, 1.0331986, 0.000076776574, 0.00009718035, -1534027.1, -14816.768, 0.0, 10.0003605, 9.981697 
3.8250184e+3, 1.5496023e+2, -1436300.0, -1450784.6, -2.8132837, 0.0000739374, -0.000039349416, -1436300.0, -14910.203, 0.0, 10.000361, 9.981166 
3.8250184e+3, 1.6493532e+2, -1348245.5, -1371910.1, -6.8866353, 0.00007482482, 0.000058914513, -1348245.5, -24611.459, 0.0, 10.000362, 9.969085 
3.8250184e+3, 1.7490444e+2, -1250287.0, -1274268.6, -7.580313, 0.000079513135, -0.00006566076, -1250287.0, -24350.469, 0.0, 10.000363, 9.968671 
3.8250184e+3, 1.8486694e+2, -1162208.9, -1195686.4, -7.916645, 0.00008221924, 0.00007192047, -1162208.9, -33904.75, 0.0, 10.000365, 9.956227 
3.8250184e+3, 1.9482319e+2, -1064059.0, -1097800.1, -8.806404, 0.00008285347, -0.0000532323, -1064059.0, -33326.227, 0.0, 10.000366, 9.955884 
3.8250184e+3, 2.047728e+2, -975887.56, -1019389.75, -7.6964087, 0.00008274483, 0.000069581874, -975887.56, -42660.89, 0.0, 10.000368, 9.9431305 
3.8250184e+3, 2.1471596e+2, -877600.4, -921365.4, -7.6354666, 0.00008183271, -0.00012993948, -877600.4, -41816.785, 0.0, 10.000369, 9.94279 
3.8250184e+3, 2.2465242e+2, -789321.7, -843117.5, -5.8879275, 0.00008094035, 0.00011649208, -789321.7, -50915.47, 0.0, 10.000371, 9.929738 
3.8250184e+3, 2.3458223e+2, -690887.6, -744940.2, -6.394641, 0.000080070575, -0.00009070393, -690887.6, -49793.477, 0.0, 10.000373, 9.929406 
3.8250184e+3, 2.4450508e+2, -602562.94, -666994.06, -5.0901575, 0.000079782294, 0.00007543421, -602562.94, -58712.785, 0.0, 10.000374, 9.915965 
3.8250184e+3, 2.5442117e+2, -503810.28, -568319.6, -6.146705, 0.000080187965, -0.00010327377, -503810.28, -57137.785, 0.0, 10.000376, 9.915865 
3.8250184e+3, 2.6433018e+2, -415577.38, -490972.03, -4.7211123, 0.00008113635, 0.0001440618, -415577.38, -66013.08, 0.0, 10.000377, 9.901789 
3.8250184e+3, 2.742325e+2, -316291.63, -391360.03, -5.503489, 0.000082773484, -0.00020344806, -316291.63, -63770.246, 0.0, 10.000379, 9.902208 
3.8250184e+3, 2.841266e+2, -229817.11, -318067.94, -3.6199698, 0.000083663865, 0.00022706087, -229817.11, -74258.03, 0.0, 10.0003805, 9.885262 
3.8250184e+3, 2.9401293e+2, -130109.94, -217752.3, -4.4312963, 0.00008352973, -0.00025525462, -130109.94, -71436.71, 0.0, 10.000383, 9.886041 
3.8250184e+3, 3.0392718e+2, -40369.793, -84744.945, -1.6156448, 0.000083476734, 0.00017006908, -40369.793, -40369.793, 0.0, 10.000385, 9.941991 
3.8250184e+3, 3.1387106e+2, -39288.074, -82504.78, -2.167784, 0.00008355309, -0.00006120441, -39288.074, -39288.074, 0.0, 10.000388, 9.943501 
3.8350192e+3, 1.249971e+2, -1719513.8, -1724188.9, 4.979787, 0.00009098734, 0.00006823847, -1719513.8, -4485.201, 0.0, 10.000357, 9.994158 
3.8350192e+3, 1.349911e+2, -1622132.0, -1627400.3, 5.2618055, 0.0000844736, -0.0001465376, -1622132.0, -5044.7534, 0.0, 10.000359, 9.993375 
3.8350192e+3, 1.4497851e+2, -1534035.9, -1548124.3, 1.3456558, 0.00007929421, 0.00008402282, -1534035.9, -14825.487, 0.0, 10.0003605, 9.981688 
3.8350192e+3, 1.5496023e+2, -1436308.5, -1450801.0, -2.496161, 0.00007544746, -0.000043425072, -1436308.5, -14918.756, 0.0, 10.000361, 9.981155 
3.8350192e+3, 1.6493532e+2, -1348247.0, -1371913.1, -6.33719, 0.00007599517, 0.000059332513, -1348247.0, -24612.914, 0.0, 10.000362, 9.969083 
3.8350192e+3, 1.7490444e+2, -1250288.5, -1274271.5, -7.0263257, 0.000081025006, -0.0000654284, -1250288.5, -24351.867, 0.0, 10.000363, 9.968669 
3.8350192e+3, 1.8486692e+2, -1162210.9, -1195690.1, -7.396283, 0.000083418985, 0.00007160041, -1162210.9, -33906.563, 0.0, 10.000365, 9.956224 
3.835019e+3, 1.9482318e+2, -1064060.9, -1097803.9, -8.287184, 0.00008305783, -0.000054488017, -1064060.9, -33327.984, 0.0, 10.000366, 9.955882 
3.835019e+3, 2.0477279e+2, -975887.5, -1019389.7, -7.199179, 0.000083196785, 0.000068410125, -975887.5, -42660.703, 0.0, 10.000368, 9.9431305 
3.835019e+3, 2.1471594e+2, -877600.3, -921365.25, -7.1402993, 0.00008387721, -0.00012992418, -877600.3, -41816.58, 0.0, 10.000369, 9.94279 
3.835019e+3, 2.2465241e+2, -789322.8, -843119.75, -5.211162, 0.000083389394, 0.00011632542, -789322.8, -50916.465, 0.0, 10.000371, 9.929736 
3.835019e+3, 2.3458222e+2, -690888.8, -744942.5, -5.7116466, 0.00008158007, -0.00009260131, -690888.8, -49794.47, 0.0, 10.000373, 9.929404 
3.835019e+3, 2.4450506e+2, -602565.25, -666998.6, -4.5791507, 0.00008072572, 0.00007335956, -602565.25, -58714.867, 0.0, 10.000374, 9.915962 
3.835019e+3, 2.5442114e+2, -503812.56, -568324.25, -5.644122, 0.000081012535, -0.0001036698, -503812.56, -57139.87, 0.0, 10.000376, 9.915862 
3.835019e+3, 2.6433015e+2, -415579.25, -490975.88, -4.031092, 0.00008196595, 0.0001447064, -415579.25, -66014.72, 0.0, 10.000377, 9.901787 
3.8350192e+3, 2.7423248e+2, -316293.47, -391363.78, -4.801311, 0.000083764564, -0.00020257861, -316293.47, -63771.824, 0.0, 10.000379, 9.902206 
3.8350192e+3, 2.8412658e+2, -229819.14, -318072.13, -2.8228352, 0.000084739906, 0.00022747261, -229819.14, -74259.79, 0.0, 10.0003805, 9.88526 
3.8350192e+3, 2.940129e+2, -130111.97, -217756.5, -3.6249995, 0.00008458533, -0.00025623047, -130111.97, -71438.42, 0.0, 10.000383, 9.886038 
3.8350192e+3, 3.0392715e+2, -40371.65, -84748.81, -0.56870365, 0.00008456856, 0.00016870949, -40371.65, -40371.65, 0.0, 10.000385, 9.941988 
3.8350192e+3, 3.1387103e+2, -39289.914, -82508.62, -1.0926878, 0.000084766114, -0.00006144868, -39289.914, -39289.914, 0.0, 10.000388, 9.943499 
3.8450193e+3, 1.2499712e+2, -1719488.9, -1724178.3, -0.18150488, 0.00009132982, 0.00007647696, -1719488.9, -4460.477, 0.0, 10.000373, 9.994156 
3.8450193e+3, 1.3499108e+2, -1622112.3, -1627392.5, -2.2753584, 0.00008619284, -0.00015338718, -1622112.3, -5024.892, 0.0, 10.000372, 9.993373 
3.8450193e+3, 1.4497851e+2, -1534022.3, -1548124.5, -6.0991287, 0.00008153451, 0.000076661774, -1534022.3, -14811.896, 0.0, 10.000372, 9.981681 
3.8450193e+3, 1.5496022e+2, -1436295.9, -1450801.8, -7.12485, 0.00007734934, -0.000041029827, -1436295.9, -14906.017, 0.0, 10.000373, 9.981149 
3.8450193e+3, 1.649353e+2, -1348229.1, -1371903.0, -8.366039, 0.00007772382, 0.000065348264, -1348229.1, -24594.908, 0.0, 10.000373, 9.969084 
3.8450193e+3, 1.7490442e+2, -1250271.0, -1274261.6, -7.2401514, 0.000082749, -0.00006204997, -1250271.0, -24334.26, 0.0, 10.000375, 9.96867 
3.8450193e+3, 1.8486689e+2, -1162195.4, -1195685.3, -6.627334, 0.00008488809, 0.000072369025, -1162195.4, -33891.016, 0.0, 10.000377, 9.956223 
3.8450193e+3, 1.9482316e+2, -1064043.6, -1097798.1, -7.8819933, 0.00008401042, -0.000056300403, -1064043.6, -33310.57, 0.0, 10.000379, 9.955879 
3.8450193e+3, 2.0477276e+2, -975868.56, -1019381.2, -7.8125873, 0.000084019724, 0.00006613103, -975868.56, -42641.582, 0.0, 10.0003805, 9.94313 
3.8450193e+3, 2.1471593e+2, -877582.8, -921357.44, -8.614821, 0.00008498911, -0.00013038264, -877582.8, -41798.926, 0.0, 10.000381, 9.942789 
3.8450193e+3, 2.246524e+2, -789306.3, -843112.8, -6.7209916, 0.000084649604, 0.00011604878, -789306.3, -50899.785, 0.0, 10.000382, 9.929735 
3.8450193e+3, 2.3458219e+2, -690872.4, -744935.6, -7.0458198, 0.00008282935, -0.00009455051, -690872.4, -49777.875, 0.0, 10.000384, 9.929403 
3.8450193e+3, 2.4450503e+2, -602549.94, -666994.44, -5.9527497, 0.000081856924, 0.000071466486, -602549.94, -58699.36, 0.0, 10.000385, 9.915959 
3.8450193e+3, 2.5442111e+2, -503796.7, -568319.9, -7.115951, 0.00008189796, -0.00010344126, -503796.7, -57123.73, 0.0, 10.000387, 9.915859 
3.8450193e+3, 2.6433012e+2, -415563.22, -490971.03, -5.6917114, 0.00008289459, 0.00014598163, -415563.22, -65998.43, 0.0, 10.000389, 9.901784 
3.8450193e+3, 2.7423245e+2, -316278.7, -391359.6, -6.660906, 0.000085104344, -0.00020162875, -316278.7, -63756.758, 0.0, 10.00039, 9.902204 
3.8450193e+3, 2.8412655e+2, -229804.64, -318067.7, -4.3706656, 0.00008625583, 0.00022764069, -229804.64, -74244.96, 0.0, 10.000392, 9.885257 
3.8450193e+3, 2.9401284e+2, -130097.02, -217751.86, -4.8145876, 0.00008595423, -0.0002574622, -130097.02, -71423.13, 0.0, 10.000394, 9.886035 
3.8450193e+3, 3.0392712e+2, -40356.785, -84744.51, -1.3758029, 0.00008575293, 0.00016702696, -40356.785, -40356.785, 0.0, 10.000397, 9.941985 
3.8450196e+3, 3.1387097e+2, -39275.242, -82504.43, -1.8784882, 0.00008571334, -0.00006216703, -39275.242, -39275.242, 0.0, 10.0004, 9.943497 
3.8550198e+3, 1.2499713e+2, -1719493.8, -1724187.3, -0.40076742, 0.000090304115, 0.00009679969, -1719493.8, -4465.3667, 0.0, 10.000373, 9.99415 
3.8550198e+3, 1.3499108e+2, -1622117.0, -1627401.5, -2.495363, 0.000087051376, -0.00015256762, -1622117.0, -5029.5806, 0.0, 10.000372, 9.993367 
3.8550198e+3, 1.449785e+2, -1534024.6, -1548128.9, -5.9586015, 0.000083499624, 0.00007505197, -1534024.6, -14814.065, 0.0, 10.000372, 9.981678 
3.8550198e+3, 1.5496022e+2, -1436298.1, -1450806.0, -6.9854913, 0.00007964013, -0.000032213364, -1436298.1, -14908.186, 0.0, 10.000373, 9.981147 
3.8550198e+3, 1.649353e+2, -1348226.6, -1371898.3, -7.8823085, 0.00008000658, 0.00007691921, -1348226.6, -24592.328, 0.0, 10.000373, 9.969087 
3.8550198e+3, 1.7490442e+2, -1250268.5, -1274256.9, -6.7594714, 0.0000846835, -0.000055549226, -1250268.5, -24331.7, 0.0, 10.000375, 9.968673 
3.8550198e+3, 1.8486689e+2, -1162198.0, -1195690.4, -5.6474786, 0.00008662451, 0.0000742183, -1162198.0, -33893.586, 0.0, 10.000377, 9.956219 
3.8550198e+3, 1.9482315e+2, -1064046.3, -1097803.4, -6.8970113, 0.00008570572, -0.000058665064, -1064046.3, -33313.105, 0.0, 10.000379, 9.955875 
3.8550198e+3, 2.0477274e+2, -975870.3, -1019384.6, -7.638, 0.00008521101, 0.00006275306, -975870.3, -42643.15, 0.0, 10.0003805, 9.943128 
3.8550198e+3, 2.147159e+2, -877584.56, -921360.8, -8.455439, 0.00008517553, -0.0001313114, -877584.5, -41800.445, 0.0, 10.000381, 9.942787 
3.8550198e+3, 2.2465238e+2, -789307.1, -843114.5, -6.0531406, 0.000084729996, 0.00011566281, -789307.1, -50900.438, 0.0, 10.000382, 9.929734 
3.8550198e+3, 2.3458217e+2, -690873.2, -744937.25, -6.362219, 0.000083820436, -0.00009655123, -690873.2, -49778.477, 0.0, 10.000384, 9.929402 
3.8550198e+3, 2.4450502e+2, -602552.4, -666999.3, -5.260592, 0.000083174586, 0.00006975358, -602552.4, -58701.563, 0.0, 10.000385, 9.915956 
3.8550198e+3, 2.544211e+2, -503799.16, -568324.94, -6.4241886, 0.0000828439, -0.00010259293, -503799.16, -57125.96, 0.0, 10.000387, 9.915855 
3.8550198e+3, 2.643301e+2, -415565.5, -490975.63, -5.273052, 0.00008392164, 0.00014788265, -415565.5, -66000.4, 0.0, 10.000389, 9.901781 
3.8550198e+3, 2.7423242e+2, -316280.9, -391364.13, -6.2599998, 0.00008679019, -0.00020059918, -316280.9, -63758.652, 0.0, 10.00039, 9.902201 
3.8550198e+3, 2.8412652e+2, -229806.11, -318070.72, -3.4780805, 0.0000882083, 0.00022756684, -229806.11, -74246.086, 0.0, 10.000392, 9.885255 
3.8550198e+3, 2.940128e+2, -130098.42, -217754.75, -3.877808, 0.000087634115, -0.00025894796, -130098.414, -71424.16, 0.0, 10.000394, 9.886033 
3.8550198e+3, 3.0392706e+2, -40358.58, -84748.24, -0.3552485, 0.00008702926, 0.00016502387, -40358.58, -40358.58, 0.0, 10.000397, 9.941983 
3.8550198e+3, 3.1387094e+2, -39277.082, -82508.266, -0.8480883, 0.000086396845, -0.00006335591, -39277.082, -39277.082, 0.0, 10.0004, 9.943494 
3.86502e+3, 1.2499714e+2, -1719467.3, -1724180.3, 4.3618207, 0.00008920137, 0.00010302861, -1719467.3, -4439.0327, 0.0, 10.000392, 9.994144 
3.86502e+3, 1.3499108e+2, -1622098.5, -1627398.8, 1.7966241, 0.00008630736, -0.00015560506, -1622098.5, -5011.1533, 0.0, 10.000387, 9.9933605 
3.86502e+3, 1.449785e+2, -1534008.6, -1548124.8, -1.1283531, 0.000084252686, 0.00007244021, -1534008.6, -14797.965, 0.0, 10.000384, 9.981674 
3.86502e+3, 1.5496022e+2, -1436282.9, -1450802.4, -3.0373256, 0.000083034625, -0.000028790944, -1436282.9, -14892.84, 0.0, 10.000384, 9.981143 
3.86502e+3, 1.6493529e+2, -1348207.5, -1371888.5, -4.850295, 0.00008395194, 0.000081706734, -1348207.5, -24573.104, 0.0, 10.000385, 9.969086 
3.86502e+3, 1.749044e+2, -1250247.0, -1274245.9, -6.1468477, 0.000087047825, -0.000054159398, -1250247.0, -24310.121, 0.0, 10.000388, 9.968673 
3.86502e+3, 1.8486688e+2, -1162179.8, -1195685.1, -6.5834665, 0.00008810084, 0.00007357051, -1162179.8, -33875.184, 0.0, 10.00039, 9.956215 
3.86502e+3, 1.9482312e+2, -1064031.3, -1097799.9, -8.136093, 0.000087018416, -0.000059928836, -1064031.3, -33297.87, 0.0, 10.000391, 9.955872 
3.86502e+3, 2.0477273e+2, -975853.6, -1019377.5, -8.814653, 0.000086067834, 0.000061561695, -975853.6, -42626.242, 0.0, 10.000392, 9.943126 
3.86502e+3, 2.1471588e+2, -877565.06, -921352.25, -8.95375, 0.00008526017, -0.00013168606, -877565.06, -41780.77, 0.0, 10.000394, 9.942785 
3.86502e+3, 2.2465235e+2, -789287.25, -843106.1, -6.390048, 0.000084897605, 0.00011510753, -789287.25, -50880.324, 0.0, 10.000396, 9.929732 
3.86502e+3, 2.3458214e+2, -690855.0, -744929.8, -7.0790763, 0.000085038315, -0.000098415454, -690855.0, -49760.055, 0.0, 10.000397, 9.9294 
3.86502e+3, 2.4450499e+2, -602537.0, -666995.9, -6.2418113, 0.000084930696, 0.00006816255, -602537.0, -58685.957, 0.0, 10.000398, 9.915952 
3.86502e+3, 2.5442106e+2, -503784.5, -568321.94, -7.81757, 0.000084526044, -0.00010202092, -503784.47, -57110.996, 0.0, 10.000399, 9.915852 
3.86502e+3, 2.6433006e+2, -415550.03, -490971.03, -6.9293118, 0.000085388696, 0.00014936179, -415550.03, -65984.625, 0.0, 10.000401, 9.901778 
3.86502e+3, 2.742324e+2, -316264.8, -391359.16, -7.6690598, 0.00008786415, -0.0001998149, -316264.8, -63742.234, 0.0, 10.000402, 9.902198 
3.86502e+3, 2.841265e+2, -229789.73, -318064.9, -4.4701796, 0.000089212, 0.00022759184, -229789.73, -74229.336, 0.0, 10.000403, 9.885253 
3.8650203e+3, 2.9401278e+2, -130083.26, -217749.52, -4.852569, 0.00008900998, -0.00025976298, -130083.26, -71408.6, 0.0, 10.000405, 9.886031 
3.8650203e+3, 3.0392703e+2, -40344.813, -84744.375, -1.1293194, 0.00008860304, 0.00016372224, -40344.813, -40344.813, 0.0, 10.000407, 9.94198 
3.8650203e+3, 3.1387088e+2, -39263.75, -82504.68, -1.5715556, 0.00008790572, -0.00006461799, -39263.75, -39263.75, 0.0, 10.00041, 9.943491 
3.8750204e+3, 1.2499715e+2, -1719473.3, -1724191.3, 2.2823386, 0.00008802257, 0.0000954237, -1719473.3, -4445.072, 0.0, 10.000392, 9.994137 
3.8750204e+3, 1.3499108e+2, -1622104.4, -1627409.8, -0.27878878, 0.0000839735, -0.00016246813, -1622104.4, -5017.0483, 0.0, 10.000387, 9.993354 
3.8750204e+3, 1.449785e+2, -1534012.9, -1548132.9, -1.1641948, 0.00008380307, 0.000068835, -1534012.9, -14802.256, 0.0, 10.000384, 9.981669 
3.8750204e+3, 1.549602e+2, -1436287.1, -1450810.5, -3.0717444, 0.000087523986, -0.000030719428, -1436287.1, -14897.027, 0.0, 10.000384, 9.981137 
3.8750204e+3, 1.6493529e+2, -1348210.3, -1371893.9, -3.791756, 0.00008954678, 0.000079764744, -1348210.3, -24575.855, 0.0, 10.000385, 9.969083 
3.8750204e+3, 1.7490439e+2, -1250249.9, -1274251.3, -5.0803056, 0.00008983881, -0.000057840338, -1250249.9, -24312.805, 0.0, 10.000388, 9.968669 
3.8750204e+3, 1.8486686e+2, -1162183.1, -1195691.6, -6.331434, 0.00008931932, 0.00007044496, -1162183.1, -33878.383, 0.0, 10.00039, 9.956211 
3.8750204e+3, 1.948231e+2, -1064034.6, -1097806.3, -7.893514, 0.0000879515, -0.000060100683, -1064034.6, -33301.004, 0.0, 10.000391, 9.955868 
3.8750204e+3, 2.0477271e+2, -975853.94, -1019378.2, -7.973606, 0.00008659277, 0.000062539584, -975853.94, -42626.38, 0.0, 10.000392, 9.943126 
3.8750204e+3, 2.1471587e+2, -877565.3, -921352.9, -8.102258, 0.000085243955, -0.00013151093, -877565.3, -41780.844, 0.0, 10.000394, 9.942785 
3.8750204e+3, 2.2465234e+2, -789288.8, -843109.25, -6.0841756, 0.000085151936, 0.00011438436, -789288.8, -50881.668, 0.0, 10.000396, 9.92973 
3.8750204e+3, 2.3458211e+2, -690856.56, -744933.0, -6.791449, 0.00008648129, -0.00010014423, -690856.56, -49761.4, 0.0, 10.000397, 9.929399 
3.8750204e+3, 2.4450496e+2, -602540.3, -667002.44, -5.690617, 0.000087121836, 0.0000666924, -602540.3, -58688.957, 0.0, 10.000398, 9.915948 
3.8750204e+3, 2.5442103e+2, -503787.8, -568328.6, -7.252864, 0.00008693863, -0.00010172317, -503787.8, -57114.0, 0.0, 10.000399, 9.915848 
3.8750204e+3, 2.6433003e+2, -415551.88, -490974.75, -6.362239, 0.000087292385, 0.00015042225, -415551.88, -65986.11, 0.0, 10.000401, 9.901775 
3.8750204e+3, 2.7423236e+2, -316266.53, -391362.7, -7.102699, 0.00008833117, -0.000199274, -316266.53, -63743.574, 0.0, 10.000402, 9.902196 
3.8750204e+3, 2.8412643e+2, -229791.19, -318067.9, -3.8390453, 0.0000892745, 0.00022771489, -229791.19, -74230.39, 0.0, 10.000403, 9.885251 
3.8750204e+3, 2.9401276e+2, -130084.664, -217752.45, -4.216135, 0.00009008424, -0.00025991263, -130084.664, -71409.6, 0.0, 10.000405, 9.886029 
3.8750204e+3, 3.0392697e+2, -40346.56, -84748.01, -0.22891162, 0.00009047193, 0.0001631165, -40346.56, -40346.56, 0.0, 10.000407, 9.941978 
3.8750207e+3, 3.1387085e+2, -39265.54, -82508.4, -0.63943124, 0.00009023343, -0.00006595276, -39265.54, -39265.54, 0.0, 10.00041, 9.943489 
3.8850206e+3, 1.2499716e+2, -1719466.6, -1724192.6, -1.7635615, 0.0000880844, 0.00009656866, -1719466.6, -4438.5425, 0.0, 10.000399, 9.994133 
3.8850206e+3, 1.3499108e+2, -1622084.9, -1627404.4, -2.464431, 0.00008403365, -0.0001675609, -1622084.9, -4997.5264, 0.0, 10.0004015, 9.99335 
3.8850206e+3, 1.4497848e+2, -1533987.9, -1548126.3, -2.090505, 0.00008464372, 0.00006476299, -1533987.9, -14777.235, 0.0, 10.000402, 9.981664 
3.8850206e+3, 1.549602e+2, -1436261.8, -1450803.6, -4.5185294, 0.00008993148, -0.000030341644, -1436261.8, -14871.531, 0.0, 10.000403, 9.981132 
3.8850206e+3, 1.6493528e+2, -1348183.6, -1371882.0, -4.413733, 0.0000920189, 0.00008144414, -1348183.6, -24549.094, 0.0, 10.000403, 9.969081 
3.8850206e+3, 1.7490439e+2, -1250227.8, -1274241.9, -4.477656, 0.00009084367, -0.00005807188, -1250227.8, -24290.672, 0.0, 10.000403, 9.968667 
3.8850206e+3, 1.8486685e+2, -1162165.4, -1195687.3, -5.4186707, 0.000089846886, 0.000069311056, -1162165.4, -33860.535, 0.0, 10.000403, 9.956207 
3.8850206e+3, 1.9482309e+2, -1064016.9, -1097802.0, -7.08952, 0.00008903652, -0.00006108268, -1064016.9, -33283.094, 0.0, 10.000404, 9.955864 
3.8850206e+3, 2.0477268e+2, -975834.0, -1019369.7, -7.04525, 0.00008797706, 0.00006173823, -975834.0, -42606.22, 0.0, 10.000405, 9.943124 
3.8850206e+3, 2.1471584e+2, -877545.3, -921344.3, -8.042395, 0.000086648026, -0.00013210122, -877545.3, -41760.605, 0.0, 10.000408, 9.942783 
3.8850206e+3, 2.246523e+2, -789269.75, -843102.25, -7.2615204, 0.000086461274, 0.00011387114, -789269.75, -50862.4, 0.0, 10.000409, 9.929728 
3.8850206e+3, 2.345821e+2, -690838.3, -744926.5, -8.26341, 0.00008756651, -0.00010073192, -690838.3, -49742.867, 0.0, 10.00041, 9.929397 
3.8850206e+3, 2.4450493e+2, -602524.0, -666998.5, -6.928143, 0.00008841402, 0.00006629989, -602524.0, -58672.4, 0.0, 10.00041, 9.915944 
3.885021e+3, 2.54421e+2, -503772.94, -568325.5, -8.040594, 0.00008895251, -0.000101598416, -503772.94, -57098.793, 0.0, 10.000411, 9.915844 
3.885021e+3, 2.6433e+2, -415536.47, -490970.4, -6.7706985, 0.00008926198, 0.00015077162, -415536.47, -65970.35, 0.0, 10.000412, 9.9017725 
3.885021e+3, 2.742323e+2, -316249.8, -391357.66, -7.8997803, 0.00008928089, -0.00019907315, -316249.8, -63726.47, 0.0, 10.000415, 9.902193 
3.885021e+3, 2.841264e+2, -229773.86, -318062.03, -5.2266045, 0.00008979545, 0.0002278708, -229773.86, -74212.64, 0.0, 10.000417, 9.885248 
3.885021e+3, 2.940127e+2, -130068.516, -217747.17, -5.9044013, 0.0000909896, -0.00025965815, -130068.516, -71393.016, 0.0, 10.000418, 9.886027 
3.885021e+3, 3.0392694e+2, -40331.855, -84743.19, -1.7453166, 0.00009188515, 0.00016294006, -40331.855, -40331.855, 0.0, 10.000419, 9.941976 
3.885021e+3, 3.138708e+2, -39252.81, -82504.5, -1.7608527, 0.00009233006, -0.00006734701, -39252.81, -39252.81, 0.0, 10.00042, 9.943486 
3.8950214e+3, 1.2499717e+2, -1719468.1, -1724195.6, -0.80531096, 0.00008937605, 0.00010656245, -1719468.1, -4440.245, 0.0, 10.000399, 9.994131 
3.8950214e+3, 1.3499108e+2, -1622086.4, -1627407.4, -1.5126991, 0.0000864684, -0.00017089823, -1622086.4, -4999.111, 0.0, 10.0004015, 9.993348 
3.8950214e+3, 1.4497848e+2, -1533993.4, -1548136.6, -1.9896691, 0.00008676455, 0.00006022811, -1533993.4, -14782.655, 0.0, 10.000402, 9.981657 
3.8950214e+3, 1.549602e+2, -1436267.1, -1450814.0, -4.4143686, 0.000090274436, -0.000027676968, -1436267.1, -14876.872, 0.0, 10.000403, 9.981126 
3.8950214e+3, 1.6493528e+2, -1348183.8, -1371882.3, -4.4224687, 0.000091394, 0.00008671477, -1348183.8, -24549.168, 0.0, 10.000403, 9.969081 
3.8950214e+3, 1.7490438e+2, -1250227.9, -1274242.1, -4.4905214, 0.00009007703, -0.00005488219, -1250227.9, -24290.719, 0.0, 10.000403, 9.968667 
3.8950214e+3, 1.8486683e+2, -1162169.0, -1195694.1, -5.1515737, 0.000089689136, 0.00007015287, -1162169.0, -33863.97, 0.0, 10.000403, 9.9562025 
3.8950214e+3, 1.9482307e+2, -1064020.4, -1097808.9, -6.8196993, 0.000090272304, -0.000062867926, -1064020.4, -33286.453, 0.0, 10.000404, 9.955859 
3.8950214e+3, 2.0477267e+2, -975836.2, -1019374.0, -6.1722164, 0.00009021378, 0.000059172304, -975836.2, -42608.168, 0.0, 10.000405, 9.943121 
3.8950214e+3, 2.1471582e+2, -877547.44, -921348.5, -7.1556277, 0.00008946088, -0.0001334508, -877547.44, -41762.5, 0.0, 10.000408, 9.9427805 
3.8950214e+3, 2.2465226e+2, -789271.94, -843106.56, -7.1054544, 0.00008881713, 0.00011356598, -789271.94, -50864.32, 0.0, 10.000409, 9.929725 
3.8950214e+3, 2.3458207e+2, -690840.44, -744930.8, -8.133042, 0.00008829701, -0.00010018797, -690840.44, -49744.734, 0.0, 10.00041, 9.929394 
3.8950214e+3, 2.445049e+2, -602526.5, -667003.44, -6.686821, 0.000088814675, 0.00006697616, -602526.5, -58674.535, 0.0, 10.00041, 9.915941 
3.8950214e+3, 2.5442097e+2, -503775.38, -568330.44, -7.7930255, 0.00009057098, -0.00010164517, -503775.38, -57100.88, 0.0, 10.000411, 9.91584 
3.8950214e+3, 2.6432997e+2, -415539.03, -490975.56, -5.896971, 0.00009129696, 0.00015041581, -415539.03, -65972.51, 0.0, 10.000412, 9.90177 
3.8950214e+3, 2.7423227e+2, -316252.34, -391362.8, -6.9836497, 0.00009070945, -0.00019920965, -316252.34, -63728.57, 0.0, 10.000415, 9.902189 
3.8950214e+3, 2.8412637e+2, -229775.86, -318066.2, -4.8299556, 0.00009077123, 0.00022805916, -229775.86, -74214.21, 0.0, 10.000417, 9.885245 
3.8950214e+3, 2.9401264e+2, -130070.45, -217751.19, -5.554932, 0.00009172757, -0.000259003, -130070.45, -71394.49, 0.0, 10.000418, 9.886024 
3.8950214e+3, 3.039269e+2, -40333.016, -84745.61, -1.3357209, 0.000092846516, 0.00016318925, -40333.016, -40333.016, 0.0, 10.000419, 9.941975 
3.8950214e+3, 3.1387076e+2, -39253.88, -82506.74, -1.3442367, 0.00009419743, -0.000068800306, -39253.88, -39253.88, 0.0, 10.00042, 9.943485 
3.9050218e+3, 1.2499718e+2, -1719450.9, -1724193.4, 3.493082, 0.000090169, 0.000109874476, -1719450.9, -4423.0737, 0.0, 10.000413, 9.994125 
3.9050218e+3, 1.3499108e+2, -1622066.4, -1627403.6, -0.3217098, 0.00008883304, -0.00017227489, -1622066.4, -4979.1367, 0.0, 10.000417, 9.993341 
3.9050218e+3, 1.4497848e+2, -1533970.3, -1548128.8, -2.5813613, 0.000088958346, 0.0000601244, -1533970.3, -14759.496, 0.0, 10.000419, 9.981653 
3.9050218e+3, 1.5496019e+2, -1436244.1, -1450806.3, -3.0898821, 0.00009054658, -0.000024144862, -1436244.1, -14853.828, 0.0, 10.00042, 9.981121 
3.9050218e+3, 1.6493528e+2, -1348159.1, -1371872.1, -2.9488828, 0.0000912262, 0.000089719826, -1348159.1, -24524.473, 0.0, 10.00042, 9.969078 
3.9050218e+3, 1.7490436e+2, -1250202.4, -1274231.5, -4.6964455, 0.00009098034, -0.00005665232, -1250202.4, -24265.111, 0.0, 10.000421, 9.968665 
3.9050218e+3, 1.8486682e+2, -1162145.1, -1195687.1, -6.2131515, 0.000090923095, 0.000067065055, -1162145.1, -33839.93, 0.0, 10.000421, 9.956198 
3.9050218e+3, 1.9482304e+2, -1063996.9, -1097802.3, -8.142576, 0.00009106288, -0.00006365944, -1063996.9, -33262.758, 0.0, 10.000422, 9.955854 
3.9050218e+3, 2.0477262e+2, -975812.94, -1019364.1, -7.2691817, 0.00009129523, 0.000059194543, -975812.94, -42584.688, 0.0, 10.000422, 9.94312 
3.9050218e+3, 2.147158e+2, -877529.1, -921341.2, -7.592673, 0.000091627786, -0.00013422004, -877529.1, -41743.914, 0.0, 10.000421, 9.94278 
3.9050218e+3, 2.2465223e+2, -789256.9, -843103.4, -7.5156736, 0.00009104685, 0.000112681126, -789256.9, -50848.953, 0.0, 10.000422, 9.929721 
3.9050218e+3, 2.3458204e+2, -690823.3, -744926.7, -9.454278, 0.00008943262, -0.00010042339, -690823.3, -49727.28, 0.0, 10.0004225, 9.92939 
3.9050218e+3, 2.4450487e+2, -602507.5, -666996.94, -8.541821, 0.000089482935, 0.00006732016, -602507.5, -58655.234, 0.0, 10.000424, 9.915938 
3.9050218e+3, 2.5442094e+2, -503757.06, -568324.3, -9.245894, 0.00009152129, -0.00010080603, -503757.06, -57082.203, 0.0, 10.000424, 9.915837 
3.9050218e+3, 2.6432994e+2, -415522.2, -490970.63, -6.534114, 0.00009266827, 0.00015112548, -415522.2, -65955.3, 0.0, 10.000425, 9.901766 
3.9050218e+3, 2.7423224e+2, -316237.5, -391358.9, -7.320748, 0.00009267676, -0.00019942406, -316237.5, -63713.31, 0.0, 10.000426, 9.902186 
3.9050218e+3, 2.841263e+2, -229761.63, -318062.5, -5.2654862, 0.00009277133, 0.0002274381, -229761.63, -74199.516, 0.0, 10.000427, 9.885242 
3.9050218e+3, 2.940126e+2, -130055.24, -217747.06, -6.189161, 0.000092989125, -0.00025931912, -130055.24, -71378.79, 0.0, 10.000429, 9.886022 
3.9050218e+3, 3.0392686e+2, -40316.324, -84739.41, -2.1011941, 0.00009354456, 0.0001628739, -40316.324, -40316.324, 0.0, 10.00043, 9.941973 
3.9050218e+3, 3.138707e+2, -39236.78, -82500.18, -2.1293862, 0.00009459929, -0.00006957265, -39236.78, -39236.78, 0.0, 10.000432, 9.943483 
3.915022e+3, 1.2499719e+2, -1719459.6, -1724209.8, 5.07365, 0.00009046751, 0.000106725056, -1719459.6, -4431.9854, 0.0, 10.000413, 9.994115 
3.915022e+3, 1.3499108e+2, -1622075.1, -1627420.0, 1.2649032, 0.000091128306, -0.00017170736, -1622075.1, -4987.8784, 0.0, 10.000417, 9.993332 
3.915022e+3, 1.4497848e+2, -1533971.4, -1548131.0, -2.493272, 0.00009122463, 0.00006441382, -1533971.4, -14760.638, 0.0, 10.000419, 9.981652 
3.915022e+3, 1.5496019e+2, -1436245.3, -1450808.4, -3.0013933, 0.00009074851, -0.000019752048, -1436245.3, -14854.936, 0.0, 10.00042, 9.98112 
3.915022e+3, 1.6493526e+2, -1348163.0, -1371879.5, -2.7314632, 0.0000915116, 0.00009047932, -1348163.0, -24528.258, 0.0, 10.00042, 9.969073 
3.915022e+3, 1.7490435e+2, -1250206.3, -1274238.9, -4.4749513, 0.00009353959, -0.00006334011, -1250206.3, -24268.777, 0.0, 10.000421, 9.96866 
3.915022e+3, 1.8486679e+2, -1162149.3, -1195695.1, -6.001812, 0.000093537186, 0.000060080663, -1162149.3, -33843.883, 0.0, 10.000421, 9.956193 
3.915022e+3, 1.9482303e+2, -1064001.0, -1097810.3, -7.930326, 0.00009141232, -0.00006346596, -1064001.0, -33266.66, 0.0, 10.000422, 9.95585 
3.915022e+3, 2.047726e+2, -975813.75, -1019365.75, -7.5538993, 0.00009123142, 0.000061782855, -975813.75, -42585.277, 0.0, 10.000422, 9.943118 
3.915022e+3, 2.1471576e+2, -877529.8, -921342.7, -7.8873444, 0.00009315421, -0.00013441381, -877529.8, -41744.41, 0.0, 10.000421, 9.942779 
3.9150223e+3, 2.246522e+2, -789260.8, -843111.2, -6.8728147, 0.00009315147, 0.0001112216, -789260.8, -50852.633, 0.0, 10.000422, 9.929716 
3.9150223e+3, 2.3458199e+2, -690827.3, -744934.7, -8.781083, 0.000090969996, -0.00010143167, -690827.3, -49730.957, 0.0, 10.0004225, 9.929384 
3.9150223e+3, 2.4450482e+2, -602509.25, -667000.44, -8.413598, 0.00009041671, 0.00006733452, -602509.25, -58656.6, 0.0, 10.000424, 9.9159355 
3.9150223e+3, 2.544209e+2, -503758.66, -568327.56, -9.144771, 0.00009180928, -0.00009908862, -503758.66, -57083.43, 0.0, 10.000424, 9.915835 
3.9150223e+3, 2.6432985e+2, -415524.2, -490974.66, -6.1178327, 0.00009338163, 0.00015289155, -415524.2, -65956.88, 0.0, 10.000425, 9.901764 
3.9150223e+3, 2.7423218e+2, -316239.5, -391363.0, -6.88257, 0.00009517822, -0.00019971571, -316239.5, -63714.863, 0.0, 10.000426, 9.902184 
3.9150223e+3, 2.8412625e+2, -229763.92, -318067.22, -4.6562915, 0.000095787, 0.00022601456, -229763.92, -74201.336, 0.0, 10.000427, 9.88524 
3.9150223e+3, 2.9401255e+2, -130057.53, -217751.81, -5.5647893, 0.00009476986, -0.00026059823, -130057.53, -71380.58, 0.0, 10.000429, 9.886019 
3.9150223e+3, 3.039268e+2, -40317.543, -84741.96, -1.5925013, 0.00009398165, 0.0001619988, -40317.543, -40317.543, 0.0, 10.00043, 9.941971 
3.9150223e+3, 3.1387064e+2, -39237.88, -82502.484, -1.635169, 0.00009354831, -0.00006966992, -39237.88, -39237.88, 0.0, 10.000432, 9.943482 
3.9250225e+3, 1.2499719e+2, -1719433.6, -1724203.5, -4.6583266, 0.00009015401, 0.000103257415, -1719433.6, -4405.923, 0.0, 10.000432, 9.994108 
3.9250225e+3, 1.3499108e+2, -1622057.0, -1627418.0, -5.911845, 0.00009330873, -0.00017377427, -1622057.0, -4969.5947, 0.0, 10.000432, 9.993325 
3.9250225e+3, 1.4497846e+2, -1533949.8, -1548119.5, -8.11562, 0.00009389016, 0.00006552651, -1533949.8, -14738.939, 0.0, 10.000433, 9.981652 
3.9250225e+3, 1.5496019e+2, -1436220.6, -1450795.4, -7.5907106, 0.00009188071, -0.000017055407, -1436220.6, -14830.271, 0.0, 10.000435, 9.98112 
3.9250225e+3, 1.6493525e+2, -1348139.6, -1371870.1, -6.412582, 0.0000924634, 0.000091489026, -1348139.6, -24504.775, 0.0, 10.000436, 9.969071 
3.9250225e+3, 1.7490433e+2, -1250183.9, -1274230.1, -6.6667576, 0.000095690615, -0.00006735653, -1250183.9, -24246.219, 0.0, 10.000436, 9.9686575 
3.9250225e+3, 1.8486677e+2, -1162129.5, -1195690.0, -7.2753086, 0.00009546426, 0.00005592735, -1162129.5, -33823.906, 0.0, 10.000436, 9.956188 
3.9250225e+3, 1.9482301e+2, -1063982.6, -1097805.8, -8.746458, 0.00009162775, -0.00006264548, -1063982.6, -33248.03, 0.0, 10.000436, 9.955845 
3.9250225e+3, 2.0477258e+2, -975793.0, -1019356.1, -8.398551, 0.00009130851, 0.00006435042, -975793.0, -42564.297, 0.0, 10.000435, 9.943117 
3.9250225e+3, 2.1471575e+2, -877508.75, -921332.8, -8.669083, 0.000094795476, -0.00013359211, -877508.75, -41723.074, 0.0, 10.000435, 9.942778 
3.9250225e+3, 2.2465217e+2, -789243.3, -843108.2, -6.850862, 0.00009551803, 0.000110250585, -789243.3, -50834.836, 0.0, 10.000435, 9.929711 
3.9250225e+3, 2.3458196e+2, -690810.75, -744932.3, -8.799462, 0.00009311237, -0.00010424725, -690810.75, -49714.016, 0.0, 10.000437, 9.929379 
3.9250225e+3, 2.445048e+2, -602491.06, -666994.56, -9.095608, 0.000092016264, 0.00006521292, -602491.06, -58638.043, 0.0, 10.000438, 9.915933 
3.9250225e+3, 2.5442085e+2, -503740.13, -568321.44, -10.316358, 0.000092486625, -0.000097485645, -503740.13, -57064.508, 0.0, 10.000438, 9.9158325 
3.9250228e+3, 2.6432982e+2, -415505.88, -490968.1, -7.328469, 0.000094062794, 0.00015564663, -415505.88, -65938.164, 0.0, 10.000438, 9.901761 
3.9250228e+3, 2.7423215e+2, -316222.9, -391357.3, -7.7353687, 0.00009704209, -0.00019908833, -316222.9, -63697.84, 0.0, 10.000438, 9.902182 
3.9250228e+3, 2.8412622e+2, -229748.78, -318063.38, -4.898073, 0.00009797963, 0.0002251316, -229748.78, -74185.72, 0.0, 10.000439, 9.885237 
3.9250228e+3, 2.940125e+2, -130041.91, -217747.86, -5.8372645, 0.00009611739, -0.00026213157, -130041.91, -71364.44, 0.0, 10.000442, 9.886015 
3.9250228e+3, 3.0392674e+2, -40300.484, -84736.19, -2.106762, 0.00009443168, 0.0001607254, -40300.484, -40300.484, 0.0, 10.000443, 9.941969 
3.9250228e+3, 3.1387058e+2, -39219.527, -82495.945, -2.558658, 0.00009303443, -0.00006933951, -39219.523, -39219.523, 0.0, 10.000445, 9.94348 
3.935023e+3, 1.24997176e+2, -1719436.5, -1724208.9, -4.8421583, 0.000089234025, 0.00009965929, -1719436.5, -4408.604, 0.0, 10.000432, 9.994105 
3.935023e+3, 1.3499105e+2, -1622059.8, -1627423.4, -6.0992665, 0.00009537532, -0.00017845312, -1622059.8, -4972.213, 0.0, 10.000432, 9.993321 
3.935023e+3, 1.4497845e+2, -1533948.5, -1548117.3, -7.270707, 0.00009695129, 0.00006349011, -1533948.5, -14737.518, 0.0, 10.000433, 9.981653 
3.935023e+3, 1.5496017e+2, -1436219.5, -1450793.1, -6.7491016, 0.000093935065, -0.000016040667, -1436219.4, -14828.904, 0.0, 10.000435, 9.981122 
3.935023e+3, 1.6493523e+2, -1348140.1, -1371871.3, -6.3784056, 0.00009407588, 0.00009274609, -1348140.1, -24505.17, 0.0, 10.000436, 9.96907 
3.935023e+3, 1.7490432e+2, -1250184.4, -1274231.3, -6.638326, 0.00009743715, -0.000068725385, -1250184.4, -24246.604, 0.0, 10.000436, 9.968657 
3.935023e+3, 1.8486676e+2, -1162132.6, -1195696.0, -7.363565, 0.00009671045, 0.00005458023, -1162132.6, -33826.86, 0.0, 10.000436, 9.956184 
3.935023e+3, 1.9482298e+2, -1063985.8, -1097811.9, -8.837445, 0.00009171039, -0.00006120347, -1063985.8, -33250.934, 0.0, 10.000436, 9.955841 
3.935023e+3, 2.0477256e+2, -975793.6, -1019357.44, -8.59141, 0.000091525304, 0.00006689743, -975793.6, -42564.7, 0.0, 10.000435, 9.943117 
3.935023e+3, 2.1471572e+2, -877509.3, -921334.06, -8.865497, 0.000096550684, -0.00013176385, -877509.3, -41723.418, 0.0, 10.000435, 9.942777 
3.935023e+3, 2.2465216e+2, -789247.4, -843116.25, -6.3840384, 0.00009814433, 0.00010976388, -789247.4, -50838.637, 0.0, 10.000435, 9.929706 
3.935023e+3, 2.345819e+2, -690814.9, -744940.56, -8.308353, 0.0000958545, -0.00010885407, -690814.9, -49717.797, 0.0, 10.000437, 9.929374 
3.935023e+3, 2.4450475e+2, -602493.75, -666999.9, -8.883425, 0.0000942758, 0.000060974235, -602493.75, -58640.28, 0.0, 10.000438, 9.91593 
3.935023e+3, 2.5442082e+2, -503742.7, -568326.56, -10.118389, 0.000093550014, -0.000095996205, -503742.7, -57066.64, 0.0, 10.000438, 9.91583 
3.935023e+3, 2.6432976e+2, -415507.25, -490970.94, -7.2977037, 0.000094712166, 0.00015938189, -415507.25, -65939.125, 0.0, 10.000438, 9.901759 
3.935023e+3, 2.742321e+2, -316224.22, -391359.97, -7.7166157, 0.000098274075, -0.0001975501, -316224.22, -63698.68, 0.0, 10.000438, 9.90218 
3.9350232e+3, 2.8412616e+2, -229751.14, -318068.25, -4.1743603, 0.00009935655, 0.00022478447, -229751.14, -74187.586, 0.0, 10.000439, 9.885234 
3.9350232e+3, 2.9401246e+2, -130044.33, -217752.89, -5.0488443, 0.00009703563, -0.00026391685, -130044.33, -71366.33, 0.0, 10.000442, 9.886012 
3.9350232e+3, 3.0392668e+2, -40302.402, -84740.19, -1.2980378, 0.000094894625, 0.00015905713, -40302.402, -40302.402, 0.0, 10.000443, 9.941966 
3.9350232e+3, 3.1387052e+2, -39221.39, -82499.83, -1.7472732, 0.00009305297, -0.00006858543, -39221.39, -39221.39, 0.0, 10.000445, 9.943478 
3.9450234e+3, 1.2499717e+2, -1719408.5, -1724200.1, 2.7011156, 0.00009069541, 0.00009779495, -1719408.5, -4380.6147, 0.0, 10.000452, 9.9941 
3.9450234e+3, 1.3499105e+2, -1622037.5, -1627417.8, -0.11940371, 0.00009719358, -0.00018192572, -1622037.5, -4949.8657, 0.0, 10.000448, 9.993317 
3.9450234e+3, 1.4497843e+2, -1533926.0, -1548106.9, -1.4805554, 0.000098937904, 0.00006209518, -1533926.0, -14714.825, 0.0, 10.000447, 9.981652 
3.9450234e+3, 1.5496016e+2, -1436197.5, -1450783.1, -3.0650625, 0.000095900774, -0.000014822999, -1436197.5, -14806.824, 0.0, 10.000449, 9.98112 
3.9450234e+3, 1.6493522e+2, -1348119.8, -1371862.5, -5.1317883, 0.00009550537, 0.00009356196, -1348119.8, -24484.664, 0.0, 10.000449, 9.969069 
3.9450234e+3, 1.7490429e+2, -1250166.1, -1274223.6, -6.1946397, 0.00009780485, -0.00007138945, -1250166.1, -24228.146, 0.0, 10.000448, 9.968655 
3.9450234e+3, 1.8486673e+2, -1162117.0, -1195693.4, -7.339114, 0.00009724007, 0.000051486968, -1162117.0, -33811.113, 0.0, 10.000448, 9.95618 
3.9450234e+3, 1.9482295e+2, -1063968.8, -1097808.5, -9.455383, 0.00009368108, -0.000061537285, -1063968.8, -33233.703, 0.0, 10.000449, 9.955836 
3.9450234e+3, 2.0477253e+2, -975772.4, -1019348.44, -9.873495, 0.00009379761, 0.00006845083, -975772.4, -42543.156, 0.0, 10.00045, 9.943115 
3.9450234e+3, 2.1471569e+2, -877485.75, -921323.9, -10.828808, 0.000097891585, -0.00012926884, -877485.75, -41699.586, 0.0, 10.000451, 9.942775 
3.9450234e+3, 2.2465211e+2, -789226.06, -843109.7, -8.243065, 0.00009942845, 0.00011095041, -789226.06, -50817.035, 0.0, 10.000451, 9.929702 
3.9450234e+3, 2.3458187e+2, -690797.56, -744936.1, -9.007161, 0.000098071636, -0.00011152125, -690797.56, -49700.063, 0.0, 10.000449, 9.92937 
3.9450234e+3, 2.445047e+2, -602477.94, -666996.3, -8.798692, 0.000096727235, 0.000057936675, -602477.94, -58624.08, 0.0, 10.000449, 9.915926 
3.9450234e+3, 2.544208e+2, -503725.84, -568322.44, -10.358284, 0.00009540057, -0.00009524301, -503725.84, -57049.363, 0.0, 10.000451, 9.915826 
3.9450234e+3, 2.6432973e+2, -415488.34, -490964.2, -8.090143, 0.00009584737, 0.00016169209, -415488.34, -65919.75, 0.0, 10.000452, 9.901757 
3.9450234e+3, 2.7423203e+2, -316204.4, -391352.72, -8.90083, 0.000098550205, -0.00019653485, -316204.4, -63678.41, 0.0, 10.000452, 9.902178 
3.9450234e+3, 2.841261e+2, -229731.97, -318061.75, -4.9887314, 0.00009935823, 0.00022450143, -229731.97, -74167.914, 0.0, 10.000453, 9.885231 
3.9450237e+3, 2.940124e+2, -130027.25, -217747.52, -5.290605, 0.000097563214, -0.0002654894, -130027.25, -71348.71, 0.0, 10.000454, 9.886009 
3.9450237e+3, 3.0392662e+2, -40287.184, -84735.53, -1.0880488, 0.00009595823, 0.00015744485, -40287.184, -40287.184, 0.0, 10.000455, 9.941963 
3.9450237e+3, 3.1387046e+2, -39207.85, -82495.96, -1.3483135, 0.0000946599, -0.000068381596, -39207.85, -39207.85, 0.0, 10.000456, 9.943475 
3.955024e+3, 1.24997176e+2, -1719415.0, -1724212.3, 1.1911081, 0.000094516596, 0.00009778565, -1719415.0, -4387.2153, 0.0, 10.000452, 9.994092 
3.955024e+3, 1.3499105e+2, -1622044.0, -1627429.8, -1.623234, 0.000098765886, -0.00018420201, -1622044.0, -4956.2866, 0.0, 10.000448, 9.993309 
3.955024e+3, 1.4497843e+2, -1533929.5, -1548113.6, -0.75991505, 0.0000998598, 0.0000613362, -1533929.5, -14718.33, 0.0, 10.000447, 9.9816475 
3.955024e+3, 1.5496014e+2, -1436201.0, -1450789.9, -2.342794, 0.0000977787, -0.000013403808, -1436201.0, -14810.268, 0.0, 10.000449, 9.981116 
3.955024e+3, 1.6493522e+2, -1348122.1, -1371867.0, -5.569257, 0.00009675364, 0.00009394105, -1348122.1, -24486.873, 0.0, 10.000449, 9.969066 
3.955024e+3, 1.7490427e+2, -1250168.4, -1274228.1, -6.6392426, 0.00009680635, -0.00007533674, -1250168.4, -24230.268, 0.0, 10.000448, 9.968652 
3.955024e+3, 1.848667e+2, -1162121.6, -1195702.1, -7.0646977, 0.00009705961, 0.000046663557, -1162121.6, -33815.43, 0.0, 10.000448, 9.956174 
3.955024e+3, 1.9482294e+2, -1063973.3, -1097817.4, -9.170665, 0.00009752247, -0.000063630665, -1063973.3, -33237.938, 0.0, 10.000449, 9.955831 
3.955024e+3, 2.047725e+2, -975774.44, -1019352.56, -9.48582, 0.00009810667, 0.00006901956, -975774.44, -42544.945, 0.0, 10.00045, 9.943112 
3.955024e+3, 2.1471566e+2, -877487.8, -921327.9, -10.439666, 0.00009882223, -0.00012611353, -877487.8, -41701.305, 0.0, 10.000451, 9.942772 
3.955024e+3, 2.2465208e+2, -789227.9, -843113.25, -8.657951, 0.000099382916, 0.00011379453, -789227.9, -50818.51, 0.0, 10.000451, 9.9297 
3.955024e+3, 2.3458183e+2, -690799.3, -744939.7, -9.450015, 0.00009976864, -0.00011226658, -690799.3, -49701.473, 0.0, 10.000449, 9.929368 
3.955024e+3, 2.4450466e+2, -602481.1, -667002.7, -8.356864, 0.000099368764, 0.000056089393, -602481.1, -58626.87, 0.0, 10.000449, 9.915922 
3.955024e+3, 2.5442073e+2, -503729.06, -568329.0, -9.872787, 0.000098031116, -0.00009521922, -503729.06, -57052.15, 0.0, 10.000451, 9.915821 
3.955024e+3, 2.6432967e+2, -415490.47, -490968.53, -7.8226247, 0.000097464064, 0.00016259032, -415490.47, -65921.414, 0.0, 10.000452, 9.901754 
3.955024e+3, 2.74232e+2, -316206.47, -391356.9, -8.64749, 0.000097879485, -0.00019603789, -316206.47, -63679.945, 0.0, 10.000452, 9.902175 
3.955024e+3, 2.8412607e+2, -229733.44, -318064.78, -4.7048883, 0.00009799751, 0.00022428176, -229733.44, -74168.85, 0.0, 10.000453, 9.885229 
3.955024e+3, 2.9401234e+2, -130028.64, -217750.42, -5.0050764, 0.00009770388, -0.00026685116, -130028.64, -71349.56, 0.0, 10.000454, 9.886007 
3.9550242e+3, 3.0392656e+2, -40288.69, -84738.67, -0.7261603, 0.00009761695, 0.00015588812, -40288.69, -40288.69, 0.0, 10.000455, 9.941961 
3.9550242e+3, 3.138704e+2, -39209.375, -82499.14, -0.97833633, 0.000097840355, -0.00006872275, -39209.375, -39209.375, 0.0, 10.000456, 9.943473 
3.9650244e+3, 1.24997176e+2, -1719394.0, -1724206.0, -1.9804522, 0.00009902559, 0.000096607975, -1719394.0, -4366.32, 0.0, 10.000467, 9.994088 
3.9650244e+3, 1.3499103e+2, -1622016.9, -1627420.3, -2.3672981, 0.00009978746, -0.00018662933, -1622016.9, -4929.201, 0.0, 10.000467, 9.993304 
3.9650244e+3, 1.4497842e+2, -1533902.5, -1548104.8, 0.3732439, 0.00009976818, 0.00006045749, -1533902.5, -14691.214, 0.0, 10.000466, 9.981643 
3.9650244e+3, 1.5496014e+2, -1436179.1, -1450783.9, -1.680343, 0.000098959645, -0.000012846638, -1436179.1, -14788.2705, 0.0, 10.000465, 9.981112 
3.9650244e+3, 1.649352e+2, -1348101.3, -1371860.3, -5.8922076, 0.00009818364, 0.000094511044, -1348101.3, -24465.926, 0.0, 10.000464, 9.969062 
3.9650244e+3, 1.7490426e+2, -1250146.6, -1274220.9, -7.5763764, 0.0000974417, -0.000076209275, -1250146.6, -24208.38, 0.0, 10.000464, 9.968649 
3.9650244e+3, 1.8486668e+2, -1162099.9, -1195696.0, -7.2408886, 0.000098203316, 0.000045533572, -1162099.9, -33793.543, 0.0, 10.000464, 9.95617 
3.9650244e+3, 1.948229e+2, -1063951.3, -1097811.0, -8.460819, 0.00010053663, -0.00006377989, -1063951.3, -33215.74, 0.0, 10.000465, 9.955827 
3.9650244e+3, 2.0477247e+2, -975752.0, -1019344.3, -8.58119, 0.0001011136, 0.00006974944, -975752.0, -42522.188, 0.0, 10.000465, 9.9431095 
3.9650244e+3, 2.1471561e+2, -877467.0, -921320.56, -9.802039, 0.00009979003, -0.00012461652, -877467.0, -41680.227, 0.0, 10.000465, 9.942769 
3.9650244e+3, 2.2465205e+2, -789208.3, -843107.1, -9.130327, 0.00009970232, 0.00011463629, -789208.3, -50798.61, 0.0, 10.000465, 9.929696 
3.9650244e+3, 2.345818e+2, -690779.75, -744933.6, -10.728617, 0.00010101353, -0.000113689726, -690779.75, -49681.555, 0.0, 10.000464, 9.929364 
3.9650244e+3, 2.445046e+2, -602462.1, -666997.2, -9.03823, 0.000101053694, 0.00005426847, -602462.1, -58607.434, 0.0, 10.0004635, 9.915918 
3.9650244e+3, 2.544207e+2, -503710.8, -568323.94, -9.998952, 0.00009957486, -0.000095207244, -503710.8, -57033.473, 0.0, 10.000464, 9.915818 
3.9650244e+3, 2.6432964e+2, -415472.0, -490962.22, -7.7326813, 0.00009869171, 0.00016325916, -415472.0, -65902.48, 0.0, 10.000465, 9.9017515 
3.9650244e+3, 2.7423194e+2, -316188.25, -391350.7, -8.367301, 0.00009856993, -0.00019621449, -316188.25, -63661.234, 0.0, 10.000465, 9.902172 
3.9650244e+3, 2.84126e+2, -229715.77, -318058.9, -4.5434895, 0.000098526194, 0.00022345142, -229715.77, -74150.664, 0.0, 10.000466, 9.885226 
3.9650244e+3, 2.9401228e+2, -130011.94, -217745.1, -5.2923503, 0.00009858544, -0.00026806584, -130011.94, -71332.305, 0.0, 10.000466, 9.886004 
3.9650247e+3, 3.039265e+2, -40273.184, -84734.15, -1.3781562, 0.00009885644, 0.00015530463, -40273.184, -40273.184, 0.0, 10.000466, 9.941958 
3.9650247e+3, 3.1387034e+2, -39194.938, -82495.15, -2.0187092, 0.00009944033, -0.00006716999, -39194.938, -39194.938, 0.0, 10.000467, 9.94347 
3.9750245e+3, 1.24997176e+2, -1719394.9, -1724207.6, -2.0184019, 0.0001042155, 0.00009444415, -1719394.9, -4367.1807, 0.0, 10.000467, 9.994087 
3.9750245e+3, 1.3499103e+2, -1622017.8, -1627421.9, -2.4087446, 0.00010026388, -0.0001892066, -1622017.8, -4930.0425, 0.0, 10.000467, 9.993303 
3.9750245e+3, 1.4497842e+2, -1533907.1, -1548113.5, -0.094026975, 0.00009867303, 0.000059460188, -1533907.1, -14695.798, 0.0, 10.000466, 9.981637 
3.9750245e+3, 1.5496013e+2, -1436183.6, -1450792.5, -2.1484044, 0.00009945016, -0.000013143391, -1436183.6, -14792.756, 0.0, 10.000465, 9.981106 
3.9750245e+3, 1.6493519e+2, -1348105.0, -1371867.3, -6.0997424, 0.00009979349, 0.00009526994, -1348105.0, -24469.467, 0.0, 10.000464, 9.969058 
3.9750245e+3, 1.7490424e+2, -1250150.3, -1274227.9, -7.784152, 0.00009969541, -0.00007403647, -1250150.3, -24211.838, 0.0, 10.000464, 9.968644 
3.9750245e+3, 1.8486667e+2, -1162102.6, -1195701.1, -6.873562, 0.00010065873, 0.000048061866, -1162102.6, -33796.004, 0.0, 10.000464, 9.956166 
3.9750245e+3, 1.9482289e+2, -1063953.9, -1097816.1, -8.084969, 0.00010273166, -0.00006200332, -1063953.9, -33218.14, 0.0, 10.000465, 9.955823 
3.9750245e+3, 2.0477244e+2, -975754.6, -1019349.44, -8.578918, 0.00010283097, 0.000070639166, -975754.6, -42524.535, 0.0, 10.000465, 9.943107 
3.9750245e+3, 2.1471559e+2, -877469.6, -921325.6, -9.807982, 0.00010079468, -0.00012476169, -877469.6, -41682.5, 0.0, 10.000465, 9.942766 
3.9750248e+3, 2.2465202e+2, -789211.7, -843113.8, -9.537688, 0.00010038324, 0.00011349495, -789211.7, -50801.652, 0.0, 10.000465, 9.929692 
3.9750248e+3, 2.3458175e+2, -690783.1, -744940.3, -11.147639, 0.00010181078, -0.00011578435, -690783.1, -49684.53, 0.0, 10.000464, 9.92936 
3.9750248e+3, 2.4450457e+2, -602464.4, -667001.75, -8.754436, 0.000101791324, 0.000052473442, -602464.4, -58609.266, 0.0, 10.0004635, 9.9159155 
3.9750248e+3, 2.5442064e+2, -503713.0, -568328.4, -9.681384, 0.00010004231, -0.00009520702, -503713.0, -57035.21, 0.0, 10.000464, 9.915815 
3.9750248e+3, 2.6432958e+2, -415473.7, -490965.7, -7.5210247, 0.00009953409, 0.00016370084, -415473.7, -65903.7, 0.0, 10.000465, 9.90175 
3.9750248e+3, 2.7423188e+2, -316189.88, -391354.1, -8.163248, 0.00010060853, -0.00019705808, -316189.88, -63662.38, 0.0, 10.000466, 9.90217 
3.9750248e+3, 2.8412595e+2, -229717.98, -318063.5, -4.464848, 0.00010092622, 0.00022201639, -229717.98, -74152.36, 0.0, 10.000466, 9.885223 
3.9750248e+3, 2.9401222e+2, -130014.18, -217749.75, -5.225513, 0.000100200894, -0.00026913482, -130014.18, -71333.984, 0.0, 10.000466, 9.886002 
3.9750248e+3, 3.039264e+2, -40275.438, -84738.85, -1.2826738, 0.000099680845, 0.00015568495, -40275.438, -40275.438, 0.0, 10.000466, 9.941956 
3.975025e+3, 3.1387028e+2, -39197.195, -82499.86, -1.9202054, 0.00009947508, -0.00006374174, -39197.195, -39197.195, 0.0, 10.000467, 9.943467 
3.9850253e+3, 1.24997176e+2, -1719373.5, -1724199.6, 0.37604424, 0.000104399165, 0.00008890886, -1719373.5, -4345.741, 0.0, 10.000483, 9.994084 
3.9850253e+3, 1.3499105e+2, -1621991.4, -1627411.3, -1.5024788, 0.00010069357, -0.00018593048, -1621991.4, -4903.681, 0.0, 10.000485, 9.9933 
3.9850253e+3, 1.4497842e+2, -1533880.5, -1548105.9, -1.0293788, 0.00010034722, 0.000064630345, -1533880.5, -14669.236, 0.0, 10.000486, 9.981632 
3.9850253e+3, 1.5496013e+2, -1436157.3, -1450785.1, -3.2275336, 0.000103372506, -0.000015735346, -1436157.3, -14766.261, 0.0, 10.000484, 9.9811 
3.9850253e+3, 1.6493517e+2, -1348078.0, -1371859.1, -7.2217503, 0.00010367298, 0.00009110689, -1348078.0, -24442.36, 0.0, 10.000484, 9.969052 
3.9850253e+3, 1.7490423e+2, -1250122.8, -1274219.5, -9.554502, 0.000101195445, -0.000073460666, -1250122.8, -24184.121, 0.0, 10.000484, 9.968639 
3.9850253e+3, 1.8486664e+2, -1162075.1, -1195689.4, -8.794813, 0.00010126886, 0.000050376104, -1162075.1, -33768.324, 0.0, 10.000483, 9.956164 
3.9850253e+3, 1.9482286e+2, -1063932.4, -1097807.5, -9.21803, 0.000104008905, -0.00006108779, -1063932.4, -33196.29, 0.0, 10.00048, 9.955821 
3.9850253e+3, 2.0477241e+2, -975736.75, -1019344.3, -9.016344, 0.0001042987, 0.00007101047, -975736.75, -42506.406, 0.0, 10.000479, 9.943103 
3.9850253e+3, 2.1471556e+2, -877451.06, -921320.25, -10.485412, 0.000101936894, -0.00012401128, -877451.06, -41663.656, 0.0, 10.00048, 9.942762 
3.9850253e+3, 2.2465198e+2, -789192.2, -843108.06, -10.419311, 0.00010130599, 0.00011393276, -789192.2, -50781.8, 0.0, 10.00048, 9.929688 
3.9850253e+3, 2.3458172e+2, -690762.4, -744933.94, -11.487023, 0.00010263422, -0.000116442796, -690762.4, -49663.36, 0.0, 10.00048, 9.929357 
3.9850253e+3, 2.4450453e+2, -602443.06, -666994.25, -8.421893, 0.00010289544, 0.00005166332, -602443.06, -58587.523, 0.0, 10.00048, 9.915913 
3.9850253e+3, 2.5442058e+2, -503693.38, -568321.75, -9.279522, 0.00010188059, -0.00009504041, -503693.38, -57015.125, 0.0, 10.000479, 9.9158125 
3.9850253e+3, 2.6432955e+2, -415455.03, -490959.25, -7.1687117, 0.00010146335, 0.00016400137, -415455.03, -65884.58, 0.0, 10.000479, 9.901747 
3.9850253e+3, 2.7423185e+2, -316171.9, -391348.03, -8.019685, 0.00010180945, -0.00019769953, -316171.9, -63643.902, 0.0, 10.000479, 9.902167 
3.9850253e+3, 2.841259e+2, -229701.05, -318058.9, -4.6031466, 0.00010174708, 0.0002209867, -229701.05, -74134.875, 0.0, 10.000479, 9.88522 
3.9850253e+3, 2.9401216e+2, -129997.484, -217745.42, -5.5838094, 0.000101122045, -0.00026978992, -129997.484, -71316.73, 0.0, 10.00048, 9.885999 
3.9850253e+3, 3.0392635e+2, -40258.89, -84734.62, -1.7507654, 0.00010073686, 0.00015591735, -40258.89, -40258.89, 0.0, 10.00048, 9.941953 
3.9850256e+3, 3.1387022e+2, -39180.453, -82495.53, -2.5104802, 0.000100712925, -0.00006186769, -39180.453, -39180.453, 0.0, 10.00048, 9.943463 
3.9950258e+3, 1.24997176e+2, -1719377.8, -1724207.6, 1.4857501, 0.00009962587, 0.00008014364, -1719377.8, -4350.0347, 0.0, 10.000483, 9.994079 
3.9950258e+3, 1.3499105e+2, -1621995.6, -1627419.4, -0.39736414, 0.00010107714, -0.0001768578, -1621995.6, -4908.019, 0.0, 10.000485, 9.993296 
3.9950258e+3, 1.4497843e+2, -1533885.5, -1548115.3, -1.5357516, 0.00010476362, 0.00007590714, -1533885.5, -14674.233, 0.0, 10.000486, 9.981626 
3.9950258e+3, 1.5496011e+2, -1436162.1, -1450794.4, -3.7189748, 0.00011069297, -0.00002059954, -1436162.1, -14771.052, 0.0, 10.000484, 9.981094 
3.9950258e+3, 1.6493514e+2, -1348083.1, -1371869.0, -7.2594876, 0.000109799876, 0.00008207063, -1348083.1, -24447.28, 0.0, 10.000484, 9.969047 
3.9950258e+3, 1.749042e+2, -1250127.9, -1274229.3, -9.584227, 0.0001019496, -0.00007446636, -1250127.9, -24188.957, 0.0, 10.000484, 9.968633 
3.9950258e+3, 1.8486662e+2, -1162076.1, -1195691.4, -9.789196, 0.00010005217, 0.000052478088, -1162076.1, -33769.066, 0.0, 10.000483, 9.956163 
3.9950258e+3, 1.9482283e+2, -1063933.3, -1097809.4, -10.222885, 0.00010437741, -0.00006102485, -1063933.3, -33196.953, 0.0, 10.00048, 9.95582 
3.9950258e+3, 2.0477238e+2, -975739.8, -1019350.4, -8.844703, 0.00010551915, 0.00007086843, -975739.8, -42509.203, 0.0, 10.000479, 9.943099 
3.9950258e+3, 2.1471553e+2, -877454.2, -921326.4, -10.290231, 0.000103215345, -0.00012237446, -877454.2, -41666.43, 0.0, 10.00048, 9.942759 
3.9950258e+3, 2.2465195e+2, -789194.5, -843112.6, -10.4830265, 0.000102468315, 0.000115933864, -789194.5, -50783.746, 0.0, 10.00048, 9.929686 
3.9950258e+3, 2.3458168e+2, -690764.6, -744938.44, -11.560837, 0.00010348375, -0.0001156792, -690764.6, -49665.215, 0.0, 10.00048, 9.929354 
3.9950258e+3, 2.4450448e+2, -602445.2, -666998.5, -8.5026045, 0.00010436251, 0.00005182855, -602445.2, -58589.22, 0.0, 10.00048, 9.91591 
3.9950258e+3, 2.5442055e+2, -503695.44, -568325.94, -9.3602495, 0.0001050762, -0.000094708936, -503695.44, -57016.77, 0.0, 10.000479, 9.91581 
3.9950258e+3, 2.643295e+2, -415457.13, -490963.5, -7.1196933, 0.00010446883, 0.0001641622, -415457.13, -65886.195, 0.0, 10.000479, 9.901744 
3.9950258e+3, 2.742318e+2, -316173.97, -391352.22, -7.9623756, 0.000102181126, -0.00019814084, -316173.97, -63645.457, 0.0, 10.000479, 9.902164 
3.9950258e+3, 2.8412586e+2, -229703.66, -318064.3, -4.5614505, 0.000101004545, 0.00022035831, -229703.66, -74136.98, 0.0, 10.00048, 9.885217 
3.9950258e+3, 2.940121e+2, -130000.125, -217750.9, -5.543252, 0.000101355894, -0.0002700353, -130000.125, -71318.805, 0.0, 10.00048, 9.885995 
3.9950258e+3, 3.039263e+2, -40261.4, -84739.85, -1.6105735, 0.00010202227, 0.00015600334, -40261.4, -40261.4, 0.0, 10.00048, 9.941949 
3.995026e+3, 3.1387016e+2, -39182.957, -82500.75, -2.3575914, 0.000103141894, -0.0000615323, -39182.957, -39182.957, 0.0, 10.00048, 9.94346 
4.0050262e+3, 1.2499717e+2, -1719343.1, -1724197.6, -11.573726, 0.000097624026, 0.00007921241, -1719343.1, -4315.2964, 0.0, 10.000507, 9.994072 
4.0050262e+3, 1.3499103e+2, -1621968.9, -1627413.6, -15.267485, 0.00010160395, -0.00016830685, -1621968.9, -4881.074, 0.0, 10.000505, 9.993288 
4.0050262e+3, 1.4497842e+2, -1533856.3, -1548096.6, -15.399697, 0.00010778256, 0.00008529917, -1533856.3, -14644.865, 0.0, 10.000503, 9.981628 
4.0050262e+3, 1.5496008e+2, -1436137.9, -1450778.4, -11.122138, 0.00011616754, -0.000021526503, -1436137.9, -14746.554, 0.0, 10.000499, 9.981097 
4.0050262e+3, 1.6493513e+2, -1348065.0, -1371863.0, -8.978411, 0.0001148975, 0.00007761621, -1348065.0, -24428.877, 0.0, 10.000497, 9.969044 
4.0050262e+3, 1.7490417e+2, -1250107.1, -1274222.0, -9.047941, 0.00010378111, -0.0000755247, -1250107.1, -24168.0, 0.0, 10.000499, 9.96863 
4.0050262e+3, 1.8486659e+2, -1162052.1, -1195680.0, -9.2646885, 0.00010013143, 0.000053312164, -1162052.1, -33744.902, 0.0, 10.000499, 9.956162 
4.0050262e+3, 1.9482282e+2, -1063909.1, -1097797.9, -9.542505, 0.00010428684, -0.000059870545, -1063909.1, -33172.61, 0.0, 10.000496, 9.955819 
4.0050262e+3, 2.0477237e+2, -975718.4, -1019344.06, -7.0711884, 0.000106019754, 0.000071721115, -975718.4, -42487.516, 0.0, 10.000495, 9.943094 
4.0050262e+3, 2.147155e+2, -877433.3, -921320.44, -8.687455, 0.00010513033, -0.00012249716, -877433.3, -41645.25, 0.0, 10.000495, 9.942755 
4.0050262e+3, 2.2465192e+2, -789173.4, -843106.2, -9.4367895, 0.00010464435, 0.00011550674, -789173.4, -50762.258, 0.0, 10.000495, 9.929682 
4.0050262e+3, 2.3458163e+2, -690743.0, -744931.8, -11.191738, 0.000104615836, -0.0001156523, -690743.0, -49643.23, 0.0, 10.000496, 9.92935 
4.0050262e+3, 2.4450444e+2, -602423.56, -666990.7, -8.805978, 0.0001052459, 0.00005199109, -602423.56, -58567.176, 0.0, 10.000495, 9.915907 
4.0050262e+3, 2.544205e+2, -503676.2, -568319.3, -9.583038, 0.0001066617, -0.000094791765, -503676.2, -56997.082, 0.0, 10.000493, 9.915807 
4.0050262e+3, 2.6432946e+2, -415439.16, -490957.9, -6.860255, 0.00010622996, 0.0001638522, -415439.16, -65867.75, 0.0, 10.000492, 9.901741 
4.0050262e+3, 2.7423173e+2, -316155.34, -391346.4, -7.821124, 0.000103445804, -0.000198655, -316155.34, -63626.344, 0.0, 10.000493, 9.902162 
4.0050262e+3, 2.841258e+2, -229685.34, -318059.25, -4.654736, 0.00010204809, 0.00021989724, -229685.34, -74118.12, 0.0, 10.000493, 9.885213 
4.0050262e+3, 2.9401204e+2, -129982.65, -217746.34, -5.5505247, 0.00010255818, -0.00027009123, -129982.65, -71300.77, 0.0, 10.000493, 9.885991 
4.0050262e+3, 3.0392623e+2, -40244.832, -84735.24, -1.3949792, 0.000103398495, 0.00015634547, -40244.832, -40244.832, 0.0, 10.000492, 9.941946 
4.0050265e+3, 3.1387007e+2, -39167.97, -82496.836, -1.7239994, 0.000104711085, -0.000060805938, -39167.97, -39167.97, 0.0, 10.000491, 9.943457 
4.0150267e+3, 1.2499714e+2, -1719351.6, -1724213.5, -12.183875, 0.00009836548, 0.00008612253, -1719351.6, -4323.517, 0.0, 10.000507, 9.994061 
4.0150267e+3, 1.3499099e+2, -1621977.3, -1627429.5, -15.872081, 0.00010227285, -0.00016027517, -1621977.3, -4889.0723, 0.0, 10.000505, 9.9932785 
4.0150267e+3, 1.4497839e+2, -1533846.6, -1548078.4, -16.942482, 0.00010941824, 0.00009282334, -1533846.6, -14634.774, 0.0, 10.000503, 9.98164 
4.0150267e+3, 1.5496007e+2, -1436128.3, -1450760.1, -12.681069, 0.000119814824, -0.000018557552, -1436128.3, -14736.703, 0.0, 10.000499, 9.981109 
4.0150267e+3, 1.6493508e+2, -1348065.0, -1371863.1, -8.371118, 0.0001189761, 0.00007769677, -1348065.0, -24428.775, 0.0, 10.000497, 9.969043 
4.0150267e+3, 1.7490414e+2, -1250107.3, -1274222.4, -8.43831, 0.00010667892, -0.00007663493, -1250107.3, -24167.924, 0.0, 10.000499, 9.96863 
4.0150267e+3, 1.8486658e+2, -1162052.8, -1195681.1, -10.183658, 0.00010149349, 0.000052891628, -1162052.8, -33745.258, 0.0, 10.000499, 9.9561615 
4.0150267e+3, 1.9482279e+2, -1063909.8, -1097799.0, -10.478464, 0.000103742015, -0.000057635858, -1063909.8, -33172.97, 0.0, 10.000496, 9.955818 
4.0150267e+3, 2.0477234e+2, -975721.9, -1019350.9, -6.99664, 0.00010580794, 0.000073558615, -975721.9, -42490.758, 0.0, 10.000495, 9.94309 
4.0150267e+3, 2.1471547e+2, -877436.8, -921327.4, -8.592651, 0.00010767539, -0.00012436093, -877436.8, -41648.445, 0.0, 10.000495, 9.94275 
4.0150267e+3, 2.2465187e+2, -789177.0, -843113.44, -9.368697, 0.00010782381, 0.00011267661, -789177.0, -50765.566, 0.0, 10.000495, 9.929677 
4.015027e+3, 2.345816e+2, -690746.6, -744939.06, -11.122801, 0.00010602781, -0.000116354546, -690746.6, -49646.47, 0.0, 10.000496, 9.929345 
4.015027e+3, 2.4450439e+2, -602425.56, -666994.7, -9.427652, 0.0001055518, 0.000052150866, -602425.56, -58568.746, 0.0, 10.000495, 9.915904 
4.015027e+3, 2.5442046e+2, -503678.1, -568323.1, -10.237143, 0.000106653715, -0.000095284675, -503678.1, -56998.523, 0.0, 10.000493, 9.915804 
4.015027e+3, 2.643294e+2, -415441.5, -490962.7, -6.661728, 0.00010675956, 0.0001630762, -415441.47, -65869.62, 0.0, 10.000492, 9.901738 
4.015027e+3, 2.742317e+2, -316157.7, -391351.22, -7.566822, 0.000105594336, -0.0001992413, -316157.7, -63628.188, 0.0, 10.000493, 9.902159 
4.015027e+3, 2.8412575e+2, -229687.81, -318064.34, -4.764407, 0.000104859406, 0.00021960172, -229687.8, -74120.055, 0.0, 10.000493, 9.88521 
4.015027e+3, 2.9401198e+2, -129985.09, -217751.44, -5.6937037, 0.00010471902, -0.00026995974, -129985.09, -71302.66, 0.0, 10.000493, 9.885988 
4.015027e+3, 3.0392617e+2, -40246.613, -84738.97, -1.650696, 0.00010486469, 0.00015694117, -40246.613, -40246.613, 0.0, 10.000492, 9.941943 
4.015027e+3, 3.1387e+2, -39169.676, -82500.41, -1.9940516, 0.0001054294, -0.000059692436, -39169.676, -39169.676, 0.0, 10.000491, 9.943455 
4.0250275e+3, 1.24997124e+2, -1719322.5, -1724206.4, 1.4723482, 0.0001017007, 0.000078726574, -1719322.5, -4294.3223, 0.0, 10.000529, 9.994055 
4.0250275e+3, 1.3499099e+2, -1621952.4, -1627424.6, -0.3598337, 0.00010477396, -0.00015364333, -1621952.4, -4864.0024, 0.0, 10.000525, 9.993271 
4.0250275e+3, 1.4497837e+2, -1533813.9, -1548056.4, -3.635454, 0.00011049613, 0.00010168003, -1533813.9, -14601.942, 0.0, 10.000521, 9.981644 
4.0250275e+3, 1.5496005e+2, -1436095.4, -1450738.3, -4.887418, 0.00011887746, -0.000021596194, -1436095.4, -14703.726, 0.0, 10.000517, 9.9811125 
4.0250275e+3, 1.6493507e+2, -1348041.8, -1371855.9, -3.3922412, 0.00011852346, 0.00007063197, -1348041.8, -24405.277, 0.0, 10.000514, 9.969039 
4.0250275e+3, 1.7490412e+2, -1250089.1, -1274217.9, -6.636901, 0.00010926041, -0.000079701895, -1250089.1, -24149.61, 0.0, 10.000513, 9.968625 
4.0250272e+3, 1.8486655e+2, -1162031.1, -1195670.5, -10.131969, 0.000104456005, 0.000052822812, -1162031.1, -33723.39, 0.0, 10.000512, 9.956161 
4.0250272e+3, 1.9482277e+2, -1063881.9, -1097785.4, -10.342887, 0.00010431198, -0.00005575169, -1063881.9, -33144.926, 0.0, 10.000514, 9.955817 
4.0250272e+3, 2.0477232e+2, -975696.06, -1019342.8, -7.1334357, 0.000105799496, 0.00007552421, -975696.06, -42464.73, 0.0, 10.000514, 9.943086 
4.0250272e+3, 2.1471544e+2, -877415.3, -921321.7, -8.909519, 0.00010905196, -0.00012433952, -877415.25, -41626.645, 0.0, 10.000511, 9.942745 
4.0250275e+3, 2.2465184e+2, -789157.56, -843108.0, -9.134676, 0.00010968891, 0.000112444024, -789157.56, -50745.78, 0.0, 10.00051, 9.929673 
4.0250275e+3, 2.3458157e+2, -690728.2, -744934.1, -10.244224, 0.0001073665, -0.0001149289, -690728.2, -49627.688, 0.0, 10.000509, 9.929341 
4.0250275e+3, 2.4450436e+2, -602405.56, -666987.1, -8.420286, 0.000106672065, 0.000053714073, -602405.56, -58548.375, 0.0, 10.000509, 9.915902 
4.0250275e+3, 2.544204e+2, -503656.2, -568314.56, -8.97653, 0.00010792438, -0.000095401614, -503656.2, -56976.22, 0.0, 10.000508, 9.915802 
4.0250275e+3, 2.6432934e+2, -415420.63, -490956.53, -5.075665, 0.00010827975, 0.00016200411, -415420.63, -65848.32, 0.0, 10.000508, 9.901734 
4.0250275e+3, 2.7423164e+2, -316138.97, -391346.28, -6.448346, 0.00010748925, -0.00020034285, -316138.97, -63608.99, 0.0, 10.000507, 9.902155 
4.0250275e+3, 2.841257e+2, -229670.25, -318059.97, -4.1935573, 0.00010678083, 0.00021880462, -229670.25, -74101.984, 0.0, 10.000506, 9.885206 
4.0250275e+3, 2.9401192e+2, -129967.68, -217747.2, -5.4335217, 0.00010618989, -0.0002699996, -129967.68, -71284.68, 0.0, 10.000506, 9.885984 
4.0250275e+3, 3.0392614e+2, -40228.945, -84733.875, -1.864723, 0.00010611491, 0.00015770312, -40228.945, -40228.945, 0.0, 10.000505, 9.94194 
4.0250275e+3, 3.1386995e+2, -39152.043, -82495.24, -2.6582937, 0.00010680492, -0.000058067195, -39152.043, -39152.043, 0.0, 10.000505, 9.943452 
4.035028e+3, 1.24997124e+2, -1719326.8, -1724214.3, -0.10551641, 0.000107601976, 0.000057212863, -1719326.8, -4298.515, 0.0, 10.000529, 9.99405 
4.035028e+3, 1.3499099e+2, -1621956.5, -1627432.4, -1.9356862, 0.0001090878, -0.00014839305, -1621956.5, -4868.2637, 0.0, 10.000525, 9.993266 
4.035028e+3, 1.4497839e+2, -1533816.6, -1548061.8, -5.132122, 0.000111022186, 0.000111857575, -1533816.6, -14604.822, 0.0, 10.000521, 9.981641 
4.035028e+3, 1.5496004e+2, -1436098.1, -1450743.5, -6.3823185, 0.00011340446, -0.000030577165, -1436098.1, -14706.411, 0.0, 10.000517, 9.981109 
4.035028e+3, 1.6493505e+2, -1348048.9, -1371869.6, -3.9952538, 0.00011358796, 0.000056498266, -1348048.9, -24412.27, 0.0, 10.000514, 9.96903 
4.035028e+3, 1.7490411e+2, -1250096.3, -1274231.6, -7.2320395, 0.000111528716, -0.000084704974, -1250096.3, -24156.502, 0.0, 10.000513, 9.9686165 
4.035028e+3, 1.8486653e+2, -1162031.5, -1195671.5, -9.544722, 0.000109001674, 0.000053101587, -1162031.5, -33723.625, 0.0, 10.000512, 9.956161 
4.035028e+3, 1.9482276e+2, -1063882.3, -1097786.1, -9.744429, 0.000105985106, -0.000054214473, -1063882.3, -33145.1, 0.0, 10.000514, 9.955817 
4.035028e+3, 2.047723e+2, -975699.9, -1019350.4, -8.00179, 0.00010599263, 0.00007761643, -975699.9, -42468.344, 0.0, 10.000514, 9.943081 
4.035028e+3, 2.147154e+2, -877419.1, -921329.25, -9.809659, 0.00010927261, -0.00012245335, -877419.1, -41630.227, 0.0, 10.000511, 9.94274 
4.035028e+3, 2.2465181e+2, -789160.0, -843112.75, -9.320167, 0.00011025361, 0.00011478112, -789160.0, -50747.86, 0.0, 10.00051, 9.92967 
4.035028e+3, 2.3458153e+2, -690730.56, -744938.75, -10.409032, 0.00010863267, -0.000111397945, -690730.56, -49629.668, 0.0, 10.000509, 9.929338 
4.035028e+3, 2.4450433e+2, -602406.94, -666990.0, -8.583638, 0.00010859805, 0.000056666042, -602406.94, -58549.414, 0.0, 10.000509, 9.9159 
4.035028e+3, 2.5442037e+2, -503657.53, -568317.3, -9.140833, 0.000110460205, -0.00009514627, -503657.53, -56977.17, 0.0, 10.000508, 9.9158 
4.035028e+3, 2.643293e+2, -415423.84, -490963.1, -5.314575, 0.000110780165, 0.0001606394, -415423.84, -65851.12, 0.0, 10.000508, 9.901731 
4.035028e+3, 2.742316e+2, -316142.28, -391353.06, -6.691185, 0.00010913338, -0.00020195401, -316142.28, -63611.82, 0.0, 10.000507, 9.90215 
4.035028e+3, 2.8412563e+2, -229673.31, -318066.3, -4.352501, 0.00010782194, 0.00021751142, -229673.31, -74104.53, 0.0, 10.000506, 9.885201 
4.035028e+3, 2.9401186e+2, -129970.69, -217753.44, -5.5841274, 0.00010697829, -0.00027020893, -129970.69, -71287.13, 0.0, 10.000506, 9.88598 
4.0350282e+3, 3.0392608e+2, -40231.516, -84739.24, -2.1392748, 0.0001071516, 0.00015862953, -40231.516, -40231.516, 0.0, 10.000505, 9.9419365 
4.0350282e+3, 3.138699e+2, -39154.566, -82500.516, -2.947013, 0.000108830616, -0.00005593593, -39154.566, -39154.566, 0.0, 10.000505, 9.943448 
4.0450284e+3, 1.24997124e+2, -1719301.9, -1724205.4, -0.62188387, 0.000110196925, 0.00005098513, -1719301.9, -4273.6675, 0.0, 10.000546, 9.994046 
4.0450284e+3, 1.3499102e+2, -1621931.9, -1627423.9, -1.760495, 0.00011310805, -0.00014205395, -1621931.9, -4843.7764, 0.0, 10.000543, 9.993262 
4.0450284e+3, 1.4497839e+2, -1533787.9, -1548049.4, -3.4789798, 0.000113425034, 0.00012017552, -1533787.9, -14576.122, 0.0, 10.000541, 9.981638 
4.0450284e+3, 1.5496004e+2, -1436063.0, -1450727.9, -4.228832, 0.00011113226, -0.000032927168, -1436063.0, -14671.257, 0.0, 10.000541, 9.981107 
4.0450284e+3, 1.6493504e+2, -1348016.3, -1371860.5, -1.3855432, 0.00011087233, 0.00005091852, -1348016.3, -24379.69, 0.0, 10.000538, 9.969024 
4.0450284e+3, 1.749041e+2, -1250068.1, -1274225.0, -3.4189253, 0.00011268538, -0.000085928674, -1250068.1, -24128.348, 0.0, 10.000534, 9.96861 
4.0450284e+3, 1.8486652e+2, -1162002.6, -1195658.3, -4.11491, 0.00011169839, 0.00005412781, -1162002.6, -33694.594, 0.0, 10.000532, 9.956159 
4.0450284e+3, 1.9482274e+2, -1063856.1, -1097774.4, -5.093105, 0.00010778368, -0.00005314003, -1063856.1, -33118.83, 0.0, 10.000531, 9.955815 
4.0450284e+3, 2.0477228e+2, -975678.7, -1019345.94, -5.243542, 0.0001069714, 0.000078125224, -975678.7, -42446.92, 0.0, 10.00053, 9.943075 
4.0450284e+3, 2.1471538e+2, -877398.25, -921325.2, -7.7419834, 0.00010951667, -0.00012317453, -877398.25, -41609.074, 0.0, 10.000527, 9.942735 
4.0450284e+3, 2.2465178e+2, -789138.44, -843106.75, -7.40452, 0.00011085369, 0.00011452303, -789138.44, -50726.035, 0.0, 10.000526, 9.929666 
4.0450284e+3, 2.345815e+2, -690709.9, -744933.2, -9.436087, 0.00011082252, -0.0001092779, -690709.8, -49608.64, 0.0, 10.000525, 9.929334 
4.0450284e+3, 2.4450429e+2, -602385.06, -666981.7, -8.156119, 0.00011132747, 0.000059086313, -602385.06, -58527.133, 0.0, 10.0005245, 9.915897 
4.0450284e+3, 2.5442034e+2, -503635.1, -568308.75, -9.117725, 0.00011247401, -0.00009490888, -503635.1, -56954.32, 0.0, 10.0005245, 9.915798 
4.0450284e+3, 2.6432928e+2, -415402.8, -490957.03, -5.6450133, 0.000112328635, 0.00015972677, -415402.8, -65829.66, 0.0, 10.000524, 9.901727 
4.0450284e+3, 2.7423152e+2, -316122.6, -391347.84, -6.6703806, 0.00011053792, -0.00020269764, -316122.6, -63591.68, 0.0, 10.000523, 9.902146 
4.0450284e+3, 2.8412557e+2, -229654.38, -318061.25, -3.8040352, 0.0001092007, 0.00021722617, -229654.38, -74085.08, 0.0, 10.000522, 9.885198 
4.0450284e+3, 2.940118e+2, -129952.19, -217748.64, -4.7046056, 0.000108491346, -0.00026964588, -129952.19, -71268.1, 0.0, 10.000521, 9.885976 
4.0450287e+3, 3.0392602e+2, -40213.094, -84734.11, -1.077065, 0.00010867646, 0.00015951523, -40213.094, -40213.094, 0.0, 10.00052, 9.941933 
4.0450287e+3, 3.1386983e+2, -39135.98, -82495.25, -1.7054169, 0.00011018389, -0.000055511915, -39135.98, -39135.98, 0.0, 10.00052, 9.943445 
4.055029e+3, 1.2499715e+2, -1719304.4, -1724210.3, -2.2335207, 0.00010952161, 0.000059882066, -1719304.4, -4276.427, 0.0, 10.000546, 9.994042 
4.055029e+3, 1.3499103e+2, -1621934.5, -1627428.8, -3.3755696, 0.00011683776, -0.00013463921, -1621934.5, -4846.4673, 0.0, 10.000543, 9.993259 
4.055029e+3, 1.449784e+2, -1533789.5, -1548052.6, -3.4282298, 0.00011768393, 0.00012665332, -1533789.5, -14577.883, 0.0, 10.000541, 9.981636 
4.055029e+3, 1.5496005e+2, -1436064.6, -1450731.1, -4.178238, 0.00011202562, -0.000028720071, -1436064.6, -14672.988, 0.0, 10.000541, 9.981105 
4.055029e+3, 1.6493505e+2, -1348020.8, -1371869.1, -3.01216, 0.000110352266, 0.00005379823, -1348020.8, -24384.234, 0.0, 10.000538, 9.969018 
4.055029e+3, 1.749041e+2, -1250072.6, -1274233.6, -5.056458, 0.000112743, -0.00008341411, -1250072.6, -24132.78, 0.0, 10.000534, 9.968604 
4.055029e+3, 1.8486652e+2, -1162004.8, -1195662.4, -4.187173, 0.000112566755, 0.00005589417, -1162004.8, -33696.652, 0.0, 10.000532, 9.956156 
4.055029e+3, 1.9482273e+2, -1063858.3, -1097778.4, -5.1472425, 0.00010970635, -0.000052522544, -1063858.3, -33120.83, 0.0, 10.000531, 9.955812 
4.055029e+3, 2.0477226e+2, -975683.94, -1019356.25, -6.17519, 0.00010872718, 0.00007706867, -975683.94, -42452.04, 0.0, 10.00053, 9.9430685 
4.055029e+3, 2.1471536e+2, -877403.5, -921335.56, -8.689633, 0.000109784014, -0.00012647375, -877403.5, -41614.09, 0.0, 10.000527, 9.942728 
4.055029e+3, 2.2465175e+2, -789142.8, -843115.44, -7.772131, 0.000111488844, 0.00011169879, -789142.8, -50730.1, 0.0, 10.000526, 9.929661 
4.055029e+3, 2.3458147e+2, -690714.1, -744941.75, -9.783152, 0.00011392591, -0.00010855308, -690714.1, -49612.594, 0.0, 10.000525, 9.929328 
4.055029e+3, 2.4450426e+2, -602387.3, -666986.3, -8.176897, 0.000114851515, 0.00006098066, -602387.3, -58529.055, 0.0, 10.0005245, 9.9158945 
4.055029e+3, 2.5442028e+2, -503637.25, -568313.1, -9.122539, 0.00011397172, -0.00009468945, -503637.25, -56956.094, 0.0, 10.0005245, 9.915795 
4.055029e+3, 2.6432922e+2, -415405.4, -490962.28, -6.145079, 0.00011293588, 0.00015926102, -415405.4, -65831.82, 0.0, 10.000524, 9.901723 
4.055029e+3, 2.7423146e+2, -316125.2, -391353.16, -7.205553, 0.000111705645, -0.00020258341, -316125.2, -63593.797, 0.0, 10.000523, 9.902143 
4.055029e+3, 2.841255e+2, -229656.81, -318066.3, -4.06984, 0.00011091342, 0.00021793776, -229656.81, -74087.04, 0.0, 10.000522, 9.885195 
4.0550292e+3, 2.9401177e+2, -129954.59, -217753.66, -4.947567, 0.000110721085, -0.00026831895, -129954.59, -71269.984, 0.0, 10.000521, 9.885973 
4.0550292e+3, 3.0392596e+2, -40215.285, -84738.695, -1.3308916, 0.00011068416, 0.0001603609, -40215.285, -40215.285, 0.0, 10.00052, 9.94193 
4.0550292e+3, 3.1386977e+2, -39138.152, -82499.8, -1.9600767, 0.000110872395, -0.00005677574, -39138.152, -39138.152, 0.0, 10.00052, 9.943441 
4.0650296e+3, 1.2499717e+2, -1719271.9, -1724198.3, 1.3201985, 0.00011194177, 0.000057753743, -1719271.9, -4244.12, 0.0, 10.000569, 9.994039 
4.0650293e+3, 1.3499105e+2, -1621904.8, -1627418.3, -1.0482014, 0.00011921384, -0.00013269852, -1621904.8, -4816.9033, 0.0, 10.000564, 9.993255 
4.0650293e+3, 1.4497842e+2, -1533760.5, -1548040.9, -0.31743056, 0.000119788594, 0.00012929532, -1533760.5, -14549.007, 0.0, 10.00056, 9.981633 
4.0650293e+3, 1.5496005e+2, -1436037.0, -1450720.1, -1.9534363, 0.00011363035, -0.0000305503, -1436037.0, -14645.403, 0.0, 10.00056, 9.981101 
4.0650293e+3, 1.6493505e+2, -1347995.9, -1371863.8, -3.037641, 0.000111387875, 0.000051293493, -1347995.9, -24359.398, 0.0, 10.000558, 9.969011 
4.0650293e+3, 1.749041e+2, -1250046.3, -1274227.5, -6.045538, 0.00011313896, -0.00008272008, -1250046.3, -24106.324, 0.0, 10.000554, 9.968597 
4.0650293e+3, 1.848665e+2, -1161976.5, -1195650.5, -4.8211823, 0.00011338418, 0.000058065307, -1161976.5, -33668.258, 0.0, 10.000551, 9.956154 
4.0650293e+3, 1.9482271e+2, -1063834.6, -1097769.0, -5.695236, 0.000112054455, -0.000050674134, -1063834.6, -33097.176, 0.0, 10.000548, 9.955811 
4.0650293e+3, 2.0477225e+2, -975663.9, -1019352.5, -6.299533, 0.00011151148, 0.00007816959, -975663.9, -42431.84, 0.0, 10.000546, 9.943063 
4.0650293e+3, 2.1471535e+2, -877380.25, -921330.3, -8.171301, 0.00011182002, -0.0001265799, -877380.25, -41590.656, 0.0, 10.0005455, 9.942722 
4.0650293e+3, 2.2465174e+2, -789117.7, -843108.1, -6.597665, 0.000113282564, 0.00011198027, -789117.7, -50704.723, 0.0, 10.000545, 9.929655 
4.0650293e+3, 2.3458144e+2, -690690.3, -744935.1, -8.028444, 0.0001160502, -0.00010608014, -690690.3, -49588.465, 0.0, 10.000543, 9.929323 
4.0650293e+3, 2.4450423e+2, -602363.4, -666977.44, -5.7693505, 0.00011680888, 0.00006337642, -602363.4, -58504.813, 0.0, 10.000542, 9.915892 
4.0650293e+3, 2.5442025e+2, -503614.97, -568305.06, -6.57708, 0.0001151675, -0.00009508176, -503614.97, -56933.465, 0.0, 10.000541, 9.915792 
4.0650293e+3, 2.643292e+2, -415385.03, -490957.03, -4.056535, 0.000113878814, 0.00015757674, -415385.03, -65811.04, 0.0, 10.00054, 9.901718 
4.0650293e+3, 2.7423143e+2, -316104.38, -391347.84, -5.8137927, 0.00011304437, -0.00020365052, -316104.38, -63572.574, 0.0, 10.000539, 9.902139 
4.0650296e+3, 2.8412548e+2, -229635.8, -318060.6, -3.1774504, 0.00011257359, 0.00021771251, -229635.8, -74065.55, 0.0, 10.000538, 9.885191 
4.0650296e+3, 2.940117e+2, -129934.34, -217748.34, -4.590748, 0.000112597896, -0.00026740364, -129934.34, -71249.23, 0.0, 10.000536, 9.885969 
4.0650296e+3, 3.039259e+2, -40195.37, -84732.45, -1.3184127, 0.00011246879, 0.00016165516, -40195.37, -40195.37, 0.0, 10.000535, 9.941927 
4.0650296e+3, 3.138697e+2, -39119.285, -82493.92, -1.8298912, 0.000112107205, -0.00005623665, -39119.285, -39119.285, 0.0, 10.000534, 9.943439 
4.07503e+3, 1.2499718e+2, -1719277.4, -1724208.5, -0.9046813, 0.00011742174, 0.000044769593, -1719277.4, -4249.7554, 0.0, 10.000569, 9.994032 
4.07503e+3, 1.3499106e+2, -1621910.1, -1627428.4, -3.2677662, 0.00012025212, -0.00013616824, -1621910.1, -4822.467, 0.0, 10.000564, 9.993248 
4.07503e+3, 1.4497843e+2, -1533764.3, -1548047.9, -0.5399064, 0.00011976387, 0.00012814568, -1533764.3, -14552.826, 0.0, 10.00056, 9.981628 
4.07503e+3, 1.5496007e+2, -1436040.6, -1450727.0, -2.1752625, 0.00011593805, -0.000038347967, -1436040.6, -14649.109, 0.0, 10.00056, 9.981097 
4.07503e+3, 1.6493505e+2, -1348002.5, -1371876.5, -4.2533283, 0.00011396105, 0.00004346649, -1348002.5, -24366.027, 0.0, 10.000558, 9.969004 
4.0750298e+3, 1.7490408e+2, -1250052.8, -1274240.1, -7.263547, 0.00011386954, -0.000083826126, -1250052.8, -24112.836, 0.0, 10.000554, 9.96859 
4.0750298e+3, 1.848665e+2, -1161978.4, -1195654.4, -5.9834275, 0.000114151444, 0.00006063591, -1161978.4, -33670.164, 0.0, 10.000551, 9.956151 
4.0750298e+3, 1.9482271e+2, -1063836.5, -1097772.8, -6.8594646, 0.00011482303, -0.000047609403, -1063836.5, -33099.0, 0.0, 10.000548, 9.955808 
4.0750298e+3, 2.0477223e+2, -975667.75, -1019360.2, -6.448117, 0.0001153124, 0.00008140299, -975667.75, -42435.637, 0.0, 10.000546, 9.943058 
4.0750298e+3, 2.1471532e+2, -877384.2, -921338.0, -8.302188, 0.000115604555, -0.00012352972, -877384.2, -41594.395, 0.0, 10.0005455, 9.942718 
4.0750298e+3, 2.2465171e+2, -789120.9, -843114.4, -7.221196, 0.00011622182, 0.000115331895, -789120.9, -50707.67, 0.0, 10.000545, 9.929651 
4.0750298e+3, 2.3458143e+2, -690693.4, -744941.4, -8.66825, 0.000117206866, -0.000101878904, -690693.4, -49591.32, 0.0, 10.000543, 9.929319 
4.0750298e+3, 2.445042e+2, -602365.4, -666981.44, -6.1864653, 0.00011721772, 0.0000662682, -602365.4, -58506.52, 0.0, 10.000542, 9.91589 
4.0750298e+3, 2.5442022e+2, -503616.88, -568308.94, -6.9847965, 0.0001160649, -0.00009607835, -503616.88, -56935.05, 0.0, 10.000541, 9.91579 
4.07503e+3, 2.6432914e+2, -415388.84, -490964.8, -4.442425, 0.00011515363, 0.00015468837, -415388.84, -65814.49, 0.0, 10.00054, 9.901713 
4.07503e+3, 2.742314e+2, -316108.28, -391355.88, -6.196686, 0.00011455224, -0.00020588514, -316108.28, -63576.05, 0.0, 10.000539, 9.902133 
4.07503e+3, 2.8412542e+2, -229639.31, -318067.88, -3.5874398, 0.000114181945, 0.00021656128, -229639.31, -74068.586, 0.0, 10.000538, 9.885186 
4.07503e+3, 2.9401165e+2, -129937.77, -217755.48, -5.0021706, 0.00011412604, -0.0002668953, -129937.77, -71252.15, 0.0, 10.000536, 9.885964 
4.07503e+3, 3.0392584e+2, -40197.445, -84736.805, -1.8481072, 0.00011403309, 0.00016339269, -40197.445, -40197.445, 0.0, 10.000535, 9.941924 
4.07503e+3, 3.1386966e+2, -39121.207, -82497.96, -2.3748913, 0.00011388202, -0.0000539156, -39121.207, -39121.207, 0.0, 10.000534, 9.943436 
4.0850306e+3, 1.2499721e+2, -1719249.1, -1724198.1, 0.12667666, 0.00012159319, 0.000041647017, -1719249.1, -4221.831, 0.0, 10.000588, 9.994028 
4.0850306e+3, 1.349911e+2, -1621877.8, -1627415.9, -0.62295383, 0.00012125021, -0.00013434117, -1621877.8, -4790.399, 0.0, 10.000586, 9.993244 
4.0850306e+3, 1.4497846e+2, -1533732.8, -1548037.1, 3.6169593, 0.000120282355, 0.0001304334, -1533732.8, -14521.657, 0.0, 10.000583, 9.981624 
4.0850306e+3, 1.5496008e+2, -1436013.5, -1450718.6, 1.3661335, 0.00011868377, -0.00004169047, -1436013.5, -14622.153, 0.0, 10.000579, 9.9810915 
4.0850306e+3, 1.6493505e+2, -1347978.6, -1371871.8, -1.0081468, 0.00011682433, 0.000039716047, -1347978.6, -24342.191, 0.0, 10.000576, 9.968996 
4.0850306e+3, 1.749041e+2, -1250028.1, -1274235.1, -3.1717794, 0.000114698756, -0.00008265826, -1250028.1, -24088.316, 0.0, 10.000573, 9.968583 
4.0850306e+3, 1.848665e+2, -1161950.9, -1195644.3, -1.9005065, 0.00011515175, 0.00006341888, -1161950.9, -33642.613, 0.0, 10.00057, 9.956147 
4.0850306e+3, 1.9482271e+2, -1063809.0, -1097762.6, -3.6636512, 0.00011829969, -0.000046664703, -1063809.0, -33071.44, 0.0, 10.000567, 9.955805 
4.0850306e+3, 2.0477223e+2, -975643.06, -1019354.7, -3.342914, 0.00011938912, 0.000081548875, -975643.06, -42410.83, 0.0, 10.000566, 9.943052 
4.0850306e+3, 2.147153e+2, -877360.75, -921333.3, -6.2466884, 0.00011825059, -0.00012305741, -877360.7, -41570.79, 0.0, 10.000565, 9.942711 
4.0850306e+3, 2.246517e+2, -789096.9, -843107.06, -6.26794, 0.000117825504, 0.0001166705, -789096.9, -50683.504, 0.0, 10.000563, 9.929647 
4.0850306e+3, 2.345814e+2, -690670.5, -744934.56, -7.852597, 0.00011820825, -0.00009906387, -690670.5, -49568.227, 0.0, 10.00056, 9.929316 
4.0850306e+3, 2.4450417e+2, -602342.0, -666973.3, -5.185538, 0.00011832008, 0.00006852669, -602342.0, -58482.86, 0.0, 10.000559, 9.915886 
4.0850306e+3, 2.544202e+2, -503592.7, -568300.4, -6.4175606, 0.00011810743, -0.00009680466, -503592.7, -56910.547, 0.0, 10.000558, 9.915787 
4.0850306e+3, 2.643291e+2, -415365.44, -490958.3, -4.032006, 0.00011727232, 0.00015278118, -415365.44, -65790.72, 0.0, 10.000557, 9.901709 
4.0850306e+3, 2.7423134e+2, -316085.34, -391349.78, -5.30069, 0.00011564561, -0.00020667292, -316085.34, -63552.727, 0.0, 10.000556, 9.902128 
4.0850306e+3, 2.841254e+2, -229616.88, -318061.7, -2.3702035, 0.000114865696, 0.00021674276, -229616.88, -74045.71, 0.0, 10.000555, 9.885181 
4.0850306e+3, 2.9401162e+2, -129916.59, -217749.95, -3.4172769, 0.00011524793, -0.0002659607, -129916.59, -71230.49, 0.0, 10.000553, 9.88596 
4.0850306e+3, 3.039258e+2, -40176.58, -84730.555, -0.22742668, 0.00011561762, 0.00016444558, -40176.58, -40176.58, 0.0, 10.000551, 9.94192 
4.085031e+3, 3.1386963e+2, -39100.293, -82491.58, -1.1968673, 0.00011595754, -0.000053685533, -39100.293, -39100.293, 0.0, 10.000549, 9.943433 
4.0950313e+3, 1.2499725e+2, -1719250.9, -1724201.4, -1.0939256, 0.0001244714, 0.000048320257, -1719250.9, -4223.907, 0.0, 10.000588, 9.994026 
4.0950313e+3, 1.3499114e+2, -1621879.4, -1627419.1, -1.848228, 0.00012220895, -0.00012727988, -1621879.4, -4792.4478, 0.0, 10.000586, 9.993242 
4.095031e+3, 1.449785e+2, -1533737.9, -1548046.8, 2.4044037, 0.00012133777, 0.00013611792, -1533737.9, -14527.052, 0.0, 10.000583, 9.981617 
4.095031e+3, 1.549601e+2, -1436018.5, -1450728.3, 0.15407932, 0.0001218621, -0.000040630686, -1436018.5, -14627.415, 0.0, 10.000579, 9.981086 
4.095031e+3, 1.6493507e+2, -1347983.4, -1371880.9, -2.0614798, 0.000119974095, 0.000039994095, -1347983.4, -24347.123, 0.0, 10.000576, 9.968991 
4.095031e+3, 1.7490411e+2, -1250032.9, -1274244.1, -4.224409, 0.0001156255, -0.00007924268, -1250032.9, -24093.143, 0.0, 10.000573, 9.968577 
4.095031e+3, 1.8486652e+2, -1161954.8, -1195651.8, -3.052945, 0.00011638246, 0.000066412686, -1161954.8, -33646.55, 0.0, 10.00057, 9.956142 
4.095031e+3, 1.9482271e+2, -1063812.9, -1097770.1, -4.815645, 0.00012247617, -0.00004781402, -1063812.9, -33075.254, 0.0, 10.000567, 9.9558 
4.095031e+3, 2.0477222e+2, -975649.2, -1019366.75, -3.7632017, 0.0001237385, 0.00007864452, -975649.2, -42416.93, 0.0, 10.000566, 9.943045 
4.095031e+3, 2.147153e+2, -877366.9, -921345.4, -6.6497765, 0.00011977182, -0.00012513211, -877366.9, -41576.793, 0.0, 10.000565, 9.942703 
4.095031e+3, 2.2465168e+2, -789100.4, -843113.94, -7.145, 0.00011810964, 0.00011602008, -789100.4, -50686.785, 0.0, 10.000563, 9.929643 
4.095031e+3, 2.3458138e+2, -690673.9, -744941.25, -8.745237, 0.0001190562, -0.000097618446, -690673.9, -49571.344, 0.0, 10.00056, 9.929311 
4.095031e+3, 2.4450414e+2, -602344.9, -666979.06, -5.3944197, 0.000120107725, 0.0000701595, -602344.9, -58485.47, 0.0, 10.000559, 9.915882 
4.095031e+3, 2.5442016e+2, -503595.5, -568306.1, -6.59305, 0.00012128163, -0.00009726407, -503595.5, -56913.06, 0.0, 10.000558, 9.915783 
4.095031e+3, 2.6432908e+2, -415368.38, -490964.38, -4.4689064, 0.000120225035, 0.00015184325, -415368.38, -65793.336, 0.0, 10.000557, 9.901705 
4.095031e+3, 2.742313e+2, -316088.28, -391355.8, -5.756016, 0.00011632966, -0.0002060312, -316088.28, -63555.285, 0.0, 10.000556, 9.902124 
4.095031e+3, 2.8412533e+2, -229619.63, -318067.4, -3.0587835, 0.00011463607, 0.00021824116, -229619.63, -74048.06, 0.0, 10.000555, 9.885178 
4.095031e+3, 2.9401156e+2, -129919.305, -217755.61, -4.128122, 0.00011596855, -0.0002646046, -129919.305, -71232.76, 0.0, 10.000553, 9.885956 
4.0950313e+3, 3.0392575e+2, -40179.33, -84736.31, -0.79393786, 0.00011722224, 0.00016482237, -40179.33, -40179.33, 0.0, 10.000551, 9.941916 
4.0950313e+3, 3.1386957e+2, -39103.055, -82497.36, -1.7464484, 0.0001183303, -0.00005552116, -39103.055, -39103.055, 0.0, 10.000549, 9.943429 
4.1050318e+3, 1.2499729e+2, -1719222.4, -1724190.8, 0.5070023, 0.00012721642, 0.000050399154, -1719222.4, -4195.813, 0.0, 10.000608, 9.994021 
4.1050318e+3, 1.3499117e+2, -1621848.5, -1627407.3, -1.7734735, 0.00012377094, -0.0001252304, -1621848.5, -4761.829, 0.0, 10.000607, 9.993238 
4.1050318e+3, 1.4497854e+2, -1533708.9, -1548038.1, 1.060176, 0.0001226964, 0.00013749476, -1533708.9, -14498.386, 0.0, 10.000604, 9.981611 
4.1050318e+3, 1.5496013e+2, -1435992.9, -1450721.5, -1.1535726, 0.00012400188, -0.000041943433, -1435992.9, -14601.989, 0.0, 10.000598, 9.98108 
4.1050318e+3, 1.6493508e+2, -1347958.9, -1371874.6, -2.7571836, 0.00012271688, 0.00003921108, -1347958.9, -24322.813, 0.0, 10.000594, 9.968985 
4.1050318e+3, 1.7490412e+2, -1250007.6, -1274237.6, -5.00985, 0.00011878961, -0.00007621268, -1250007.6, -24068.045, 0.0, 10.000592, 9.968572 
4.1050318e+3, 1.8486652e+2, -1161927.0, -1195642.0, -3.6744826, 0.000119531585, 0.00006988376, -1161927.0, -33618.9, 0.0, 10.00059, 9.956139 
4.1050318e+3, 1.9482271e+2, -1063783.6, -1097759.8, -4.977838, 0.0001251542, -0.00004742721, -1063783.6, -33046.11, 0.0, 10.000588, 9.955795 
4.1050318e+3, 2.0477222e+2, -975622.8, -1019360.94, -3.1473439, 0.00012580957, 0.000077668665, -975622.8, -42390.523, 0.0, 10.000586, 9.943037 
4.1050318e+3, 2.1471529e+2, -877343.5, -921341.25, -5.327815, 0.00012108896, -0.00012560718, -877343.5, -41553.313, 0.0, 10.000583, 9.942697 
4.1050318e+3, 2.2465166e+2, -789075.75, -843106.56, -5.353729, 0.00011934215, 0.00011653475, -789075.75, -50661.99, 0.0, 10.000581, 9.929638 
4.1050318e+3, 2.3458137e+2, -690647.25, -744932.75, -7.003587, 0.00012096126, -0.00009556157, -690647.25, -49544.504, 0.0, 10.00058, 9.929307 
4.1050318e+3, 2.4450412e+2, -602317.44, -666969.3, -3.398669, 0.00012209553, 0.00007196124, -602317.44, -58457.8, 0.0, 10.000578, 9.915879 
4.1050318e+3, 2.5442013e+2, -503570.16, -568297.4, -4.4095197, 0.00012264706, -0.00009786429, -503570.16, -56887.45, 0.0, 10.000577, 9.915779 
4.1050318e+3, 2.6432905e+2, -415344.94, -490957.6, -2.3544796, 0.00012139044, 0.0001504963, -415344.94, -65769.57, 0.0, 10.000575, 9.901701 
4.1050318e+3, 2.7423128e+2, -316065.16, -391349.34, -3.9424703, 0.00011783401, -0.00020601408, -316065.16, -63531.82, 0.0, 10.000574, 9.902121 
4.1050318e+3, 2.841253e+2, -229596.64, -318061.0, -1.802349, 0.00011637148, 0.00021907409, -229596.64, -74024.68, 0.0, 10.000572, 9.885174 
4.1050318e+3, 2.9401153e+2, -129896.4, -217749.33, -3.3234925, 0.00011778484, -0.00026371595, -129896.4, -71209.42, 0.0, 10.00057, 9.885952 
4.1050318e+3, 3.039257e+2, -40156.93, -84729.98, -0.29023626, 0.00011886311, 0.00016543131, -40156.93, -40156.93, 0.0, 10.000568, 9.941913 
4.1050318e+3, 3.138695e+2, -39081.92, -82491.59, -1.286938, 0.00011941656, -0.00005568304, -39081.92, -39081.92, 0.0, 10.000566, 9.943425 
4.1150323e+3, 1.2499733e+2, -1719227.6, -1724200.5, -0.09479305, 0.00012982909, 0.00004796301, -1719227.6, -4201.4307, 0.0, 10.000608, 9.994016 
4.1150323e+3, 1.349912e+2, -1621853.6, -1627417.0, -2.3716412, 0.00012592871, -0.00012813056, -1621853.6, -4767.338, 0.0, 10.000607, 9.993232 
4.1150323e+3, 1.4497857e+2, -1533713.9, -1548047.6, -0.8892019, 0.00012435472, 0.00013461635, -1533713.9, -14503.642, 0.0, 10.000604, 9.981606 
4.1150323e+3, 1.5496014e+2, -1435997.8, -1450730.9, -3.1048312, 0.00012511585, -0.000045599612, -1435997.8, -14607.121, 0.0, 10.000598, 9.981074 
4.1150323e+3, 1.649351e+2, -1347963.9, -1371884.1, -3.596631, 0.00012505753, 0.000037380018, -1347963.9, -24327.916, 0.0, 10.000594, 9.968979 
4.1150323e+3, 1.7490414e+2, -1250012.5, -1274247.1, -5.842964, 0.00012416334, -0.00007356392, -1250012.5, -24073.05, 0.0, 10.000592, 9.968565 
4.1150323e+3, 1.8486653e+2, -1161929.9, -1195647.6, -4.4353657, 0.00012457541, 0.00007382573, -1161929.9, -33621.85, 0.0, 10.00059, 9.956135 
4.1150323e+3, 1.9482271e+2, -1063786.5, -1097765.3, -5.7394447, 0.00012635248, -0.000045523524, -1063786.5, -33048.977, 0.0, 10.000588, 9.955792 
4.1150323e+3, 2.0477222e+2, -975627.5, -1019370.2, -4.2350316, 0.00012563073, 0.00007859742, -975627.5, -42395.203, 0.0, 10.000586, 9.943031 
4.1150323e+3, 2.1471529e+2, -877348.1, -921350.5, -6.423754, 0.00012220452, -0.00012450224, -877348.1, -41557.91, 0.0, 10.000583, 9.942691 
4.1150323e+3, 2.2465163e+2, -789079.25, -843113.56, -5.751207, 0.0001215113, 0.000118200376, -789079.25, -50665.4, 0.0, 10.000581, 9.929634 
4.1150323e+3, 2.3458135e+2, -690650.7, -744939.7, -7.3766484, 0.00012391055, -0.00009290069, -690650.7, -49547.8, 0.0, 10.00058, 9.929302 
4.1150323e+3, 2.4450411e+2, -602319.94, -666974.44, -4.0573487, 0.00012428132, 0.00007392995, -602319.94, -58460.137, 0.0, 10.000578, 9.915875 
4.1150323e+3, 2.544201e+2, -503572.63, -568302.4, -5.083374, 0.00012222635, -0.000098603305, -503572.63, -56889.67, 0.0, 10.000577, 9.915776 
4.1150323e+3, 2.6432902e+2, -415348.4, -490964.72, -2.8628147, 0.00012079071, 0.00014874572, -415348.4, -65772.78, 0.0, 10.000575, 9.901696 
4.1150323e+3, 2.7423126e+2, -316068.7, -391356.56, -4.440628, 0.00012014858, -0.00020661361, -316068.7, -63535.008, 0.0, 10.000574, 9.902116 
4.1150323e+3, 2.8412527e+2, -229600.2, -318068.4, -2.487173, 0.0001200477, 0.00021924998, -229600.2, -74027.88, 0.0, 10.000572, 9.885168 
4.1150323e+3, 2.9401147e+2, -129899.93, -217756.69, -4.0240297, 0.000120683435, -0.0002632889, -129899.93, -71212.54, 0.0, 10.00057, 9.885947 
4.1150323e+3, 3.0392566e+2, -40159.83, -84736.055, -1.1548098, 0.000120540004, 0.00016626944, -40159.83, -40159.83, 0.0, 10.000568, 9.941909 
4.1150323e+3, 3.1386945e+2, -39084.754, -82497.52, -2.1703699, 0.00011923245, -0.000054192, -39084.754, -39084.754, 0.0, 10.000566, 9.94342 
4.1250333e+3, 1.2499738e+2, -1719196.3, -1724189.1, 1.2588884, 0.00013156242, 0.00004894469, -1719196.3, -4170.4434, 0.0, 10.00063, 9.994011 
4.1250333e+3, 1.3499124e+2, -1621824.3, -1627406.8, -0.014608273, 0.00012824647, -0.00012607568, -1621824.3, -4738.356, 0.0, 10.0006275, 9.993228 
4.1250327e+3, 1.449786e+2, -1533686.3, -1548039.9, 0.8908015, 0.00012665364, 0.00013624196, -1533686.3, -14476.373, 0.0, 10.000624, 9.9816 
4.1250327e+3, 1.5496017e+2, -1435969.6, -1450722.9, -1.4115821, 0.0001267899, -0.0000470511, -1435969.6, -14579.178, 0.0, 10.000619, 9.981069 
4.1250327e+3, 1.6493514e+2, -1347935.4, -1371875.8, -0.8653215, 0.00012723338, 0.000036467114, -1347935.4, -24299.607, 0.0, 10.000615, 9.968973 
4.1250327e+3, 1.7490415e+2, -1249984.6, -1274239.0, -2.904685, 0.00012799, -0.00007025041, -1249984.6, -24045.29, 0.0, 10.000613, 9.968559 
4.1250327e+3, 1.8486655e+2, -1161901.4, -1195637.6, -1.5821358, 0.00012812014, 0.00007765979, -1161901.4, -33593.465, 0.0, 10.00061, 9.956131 
4.1250327e+3, 1.9482273e+2, -1063758.8, -1097755.6, -3.3927968, 0.00012759463, -0.00004504287, -1063758.8, -33021.29, 0.0, 10.000608, 9.955788 
4.1250327e+3, 2.0477222e+2, -975601.8, -1019364.44, -2.5807934, 0.00012629468, 0.00007769884, -975601.8, -42369.53, 0.0, 10.000606, 9.943025 
4.1250327e+3, 2.1471527e+2, -877322.06, -921344.7, -5.293074, 0.00012415643, -0.00012464299, -877322.06, -41531.8, 0.0, 10.000603, 9.942684 
4.1250327e+3, 2.2465162e+2, -789051.06, -843103.7, -4.074807, 0.00012378229, 0.00011915174, -789051.06, -50637.12, 0.0, 10.000601, 9.92963 
4.1250327e+3, 2.3458134e+2, -690622.94, -744930.0, -5.198222, 0.00012540375, -0.00009047987, -690622.94, -49519.957, 0.0, 10.0006, 9.929298 
4.1250327e+3, 2.445041e+2, -602292.8, -666965.1, -2.1192985, 0.00012537962, 0.00007586188, -602292.8, -58432.816, 0.0, 10.000598, 9.915872 
4.1250327e+3, 2.544201e+2, -503546.1, -568293.5, -3.6268976, 0.00012338799, -0.00009949923, -503546.1, -56862.92, 0.0, 10.000596, 9.915772 
4.1250327e+3, 2.64329e+2, -415323.6, -490958.16, -1.7014259, 0.0001221653, 0.00014684006, -415323.6, -65747.695, 0.0, 10.000594, 9.901691 
4.1250327e+3, 2.7423123e+2, -316045.03, -391350.75, -3.592572, 0.00012192534, -0.00020721034, -316045.03, -63511.074, 0.0, 10.000592, 9.90211 
4.1250327e+3, 2.8412524e+2, -229576.84, -318062.03, -1.7822465, 0.00012196434, 0.00021974766, -229576.84, -74004.19, 0.0, 10.00059, 9.885164 
4.1250327e+3, 2.9401144e+2, -129876.94, -217750.5, -2.999323, 0.00012238011, -0.00026200118, -129876.94, -71189.164, 0.0, 10.000588, 9.885942 
4.1250327e+3, 3.039256e+2, -40136.824, -84729.266, -0.02145617, 0.00012214453, 0.00016771317, -40136.824, -40136.824, 0.0, 10.000586, 9.941905 
4.1250327e+3, 3.1386942e+2, -39061.723, -82490.65, -0.88561505, 0.00012093794, -0.000053531585, -39061.723, -39061.723, 0.0, 10.000584, 9.943417 
4.1350338e+3, 1.2499743e+2, -1719199.1, -1724194.6, 0.22361642, 0.0001324274, 0.000053399173, -1719199.1, -4173.832, 0.0, 10.00063, 9.994008 
4.1350338e+3, 1.3499129e+2, -1621827.1, -1627412.3, -1.0536932, 0.00013072223, -0.00011912949, -1621827.1, -4741.7183, 0.0, 10.0006275, 9.993224 
4.1350338e+3, 1.4497864e+2, -1533691.5, -1548049.6, -0.8926254, 0.00012958497, 0.00014231399, -1533691.5, -14481.9795, 0.0, 10.000624, 9.981594 
4.1350338e+3, 1.549602e+2, -1435974.6, -1450732.6, -3.1951027, 0.00012901657, -0.00004632543, -1435974.6, -14584.615, 0.0, 10.000619, 9.981062 
4.1350338e+3, 1.6493517e+2, -1347939.9, -1371884.4, -1.8124824, 0.00012924615, 0.000036461493, -1347939.9, -24304.363, 0.0, 10.000615, 9.968968 
4.1350332e+3, 1.7490417e+2, -1249989.0, -1274247.6, -3.8469195, 0.00013028951, -0.0000662802, -1249989.0, -24049.969, 0.0, 10.000613, 9.9685545 
4.1350332e+3, 1.8486656e+2, -1161905.4, -1195645.3, -2.4973297, 0.00013018501, 0.0000813878, -1161905.4, -33597.605, 0.0, 10.00061, 9.956126 
4.1350332e+3, 1.9482274e+2, -1063762.6, -1097763.3, -4.3094397, 0.00012887992, -0.0000459666, -1063762.6, -33025.31, 0.0, 10.000608, 9.955783 
4.1350332e+3, 2.0477222e+2, -975607.56, -1019375.8, -3.5472465, 0.0001277905, 0.000074996715, -975607.56, -42375.35, 0.0, 10.000606, 9.943018 
4.1350332e+3, 2.1471527e+2, -877327.8, -921356.06, -6.2573295, 0.0001269341, -0.00012601337, -877327.8, -41537.516, 0.0, 10.000603, 9.942677 
4.1350332e+3, 2.2465162e+2, -789053.7, -843108.9, -4.5544577, 0.00012615399, 0.00011939794, -789053.7, -50639.637, 0.0, 10.000601, 9.929626 
4.1350332e+3, 2.3458132e+2, -690625.4, -744935.0, -5.6630034, 0.00012545973, -0.00008829587, -690625.4, -49522.33, 0.0, 10.0006, 9.929296 
4.1350332e+3, 2.4450408e+2, -602296.2, -666972.0, -2.8951697, 0.00012540449, 0.00007775771, -602296.2, -58436.086, 0.0, 10.000598, 9.915867 
4.1350332e+3, 2.5442007e+2, -503549.47, -568300.44, -4.4181957, 0.00012611183, -0.00010054996, -503549.47, -56866.13, 0.0, 10.000596, 9.915768 
4.1350332e+3, 2.6432896e+2, -415327.72, -490966.6, -2.4536378, 0.00012548901, 0.00014478127, -415327.72, -65751.59, 0.0, 10.000594, 9.901686 
4.1350332e+3, 2.742312e+2, -316049.2, -391359.25, -4.34139, 0.00012317144, -0.00020780436, -316049.2, -63514.918, 0.0, 10.000592, 9.902104 
4.1350332e+3, 2.841252e+2, -229579.89, -318068.3, -2.5493033, 0.00012214422, 0.000220563, -229579.89, -74006.89, 0.0, 10.00059, 9.8851595 
4.1350332e+3, 2.940114e+2, -129879.84, -217756.55, -3.7689972, 0.00012289053, -0.0002598637, -129879.836, -71191.7, 0.0, 10.000588, 9.885939 
4.1350338e+3, 3.0392557e+2, -40139.375, -84734.62, -0.89860743, 0.00012367775, 0.0001697549, -40139.375, -40139.375, 0.0, 10.000586, 9.941901 
4.1350338e+3, 3.1386936e+2, -39064.23, -82495.92, -1.7774426, 0.0001245088, -0.00005369081, -39064.23, -39064.23, 0.0, 10.000584, 9.943414 
4.1450343e+3, 1.2499748e+2, -1719167.8, -1724183.5, 2.1622934, 0.0001331836, 0.000054858334, -1719167.8, -4143.009, 0.0, 10.000652, 9.994002 
4.1450343e+3, 1.3499133e+2, -1621798.4, -1627402.5, -0.22982585, 0.00013317418, -0.00011825184, -1621798.4, -4713.337, 0.0, 10.000648, 9.993219 
4.1450343e+3, 1.4497869e+2, -1533663.3, -1548041.5, -0.66583467, 0.00013248502, 0.00014296533, -1533663.3, -14454.16, 0.0, 10.000645, 9.981587 
4.1450343e+3, 1.5496023e+2, -1435943.5, -1450723.0, -2.8567705, 0.00013111094, -0.00004647413, -1435943.5, -14553.75, 0.0, 10.000642, 9.981056 
4.1450343e+3, 1.649352e+2, -1347907.4, -1371873.3, -1.0638405, 0.00013104129, 0.000036668378, -1347907.4, -24272.207, 0.0, 10.000638, 9.968963 
4.1450343e+3, 1.7490421e+2, -1249958.5, -1274237.5, -2.9045572, 0.00013230176, -0.0000645384, -1249958.5, -24019.701, 0.0, 10.000635, 9.968549 
4.1450343e+3, 1.8486659e+2, -1161876.0, -1195636.5, -1.4433528, 0.00013201879, 0.00008271206, -1161876.0, -33568.49, 0.0, 10.000632, 9.9561205 
4.1450343e+3, 1.9482274e+2, -1063733.1, -1097754.4, -3.8034766, 0.00013012171, -0.000047100777, -1063733.1, -32995.95, 0.0, 10.000629, 9.955777 
4.1450343e+3, 2.0477223e+2, -975578.44, -1019367.7, -2.9749506, 0.000128921, 0.00007352626, -975578.44, -42346.25, 0.0, 10.0006275, 9.943012 
4.1450343e+3, 2.1471527e+2, -877298.8, -921348.1, -4.7654533, 0.00012847337, -0.00012552309, -877298.8, -41508.543, 0.0, 10.000625, 9.942671 
4.1450343e+3, 2.2465162e+2, -789023.75, -843097.75, -2.4188461, 0.00012787596, 0.000121017285, -789023.75, -50609.67, 0.0, 10.000622, 9.929623 
4.1450343e+3, 2.3458132e+2, -690597.4, -744924.8, -3.778678, 0.00012710835, -0.000086489024, -690597.4, -49494.24, 0.0, 10.00062, 9.929292 
4.1450343e+3, 2.4450406e+2, -602269.75, -666964.0, -1.2374631, 0.00012699545, 0.00007862534, -602269.75, -58409.566, 0.0, 10.000618, 9.915863 
4.1450343e+3, 2.5442004e+2, -503522.5, -568292.3, -2.9439685, 0.00012766411, -0.00010196604, -503522.5, -56839.008, 0.0, 10.000616, 9.915763 
4.1450343e+3, 2.6432896e+2, -415301.72, -490959.66, -1.2697499, 0.0001270681, 0.00014308437, -415301.72, -65725.4, 0.0, 10.000614, 9.90168 
4.1450343e+3, 2.7423117e+2, -316025.34, -391353.5, -2.9617496, 0.00012486053, -0.00020723026, -316025.34, -63490.848, 0.0, 10.00061, 9.9021 
4.1450343e+3, 2.8412518e+2, -229556.63, -318061.94, -0.9229283, 0.00012395729, 0.00022249956, -229556.63, -73983.336, 0.0, 10.0006075, 9.885156 
4.1450343e+3, 2.9401138e+2, -129856.516, -217750.14, -2.40806, 0.00012484634, -0.00025781995, -129856.516, -71168.05, 0.0, 10.000606, 9.885934 
4.1450343e+3, 3.0392554e+2, -40115.676, -84728.15, 0.045316704, 0.0001256743, 0.00017096185, -40115.676, -40115.676, 0.0, 10.000604, 9.941896 
4.1450343e+3, 3.1386933e+2, -39039.145, -82488.79, -1.4856184, 0.00012639436, -0.00005471063, -39039.145, -39039.145, 0.0, 10.000603, 9.943409 
4.155035e+3, 1.24997534e+2, -1719173.3, -1724193.8, 0.5795581, 0.0001338318, 0.000053389744, -1719173.3, -4149.0405, 0.0, 10.000652, 9.993997 
4.1550347e+3, 1.3499138e+2, -1621803.8, -1627412.8, -1.8112943, 0.00013560259, -0.000123361, -1621803.8, -4719.2217, 0.0, 10.000648, 9.993213 
4.1550347e+3, 1.4497872e+2, -1533668.1, -1548050.9, -1.70723, 0.00013535384, 0.00013826828, -1533668.1, -14459.474, 0.0, 10.000645, 9.981582 
4.1550347e+3, 1.5496027e+2, -1435948.4, -1450732.4, -3.8962946, 0.00013307451, -0.000047485402, -1435948.4, -14558.975, 0.0, 10.000642, 9.9810505 
4.1550347e+3, 1.6493523e+2, -1347911.5, -1371881.0, -2.4227538, 0.00013262146, 0.00003708529, -1347911.5, -24276.596, 0.0, 10.000639, 9.968958 
4.1550347e+3, 1.7490424e+2, -1249962.5, -1274245.3, -4.2656584, 0.00013403042, -0.00006499508, -1249962.5, -24023.979, 0.0, 10.000635, 9.968544 
4.1550347e+3, 1.848666e+2, -1161881.1, -1195646.4, -2.2798786, 0.00013362452, 0.00008166471, -1161881.1, -33573.816, 0.0, 10.000632, 9.956114 
4.1550347e+3, 1.9482276e+2, -1063738.3, -1097764.4, -4.631526, 0.0001313207, -0.00004844291, -1063738.3, -33001.17, 0.0, 10.000629, 9.955771 
4.1550347e+3, 2.0477225e+2, -975582.3, -1019375.4, -3.936375, 0.00012969118, 0.000073270814, -975582.3, -42350.23, 0.0, 10.0006275, 9.9430065 
4.1550347e+3, 2.1471529e+2, -877302.6, -921355.7, -5.7310953, 0.00012879098, -0.00012319673, -877302.6, -41512.418, 0.0, 10.000625, 9.942666 
4.1550347e+3, 2.2465162e+2, -789026.75, -843103.9, -3.3289874, 0.00012895699, 0.00012399178, -789026.75, -50612.742, 0.0, 10.000623, 9.929619 
4.1550347e+3, 2.3458132e+2, -690600.4, -744930.8, -4.6887174, 0.00013032844, -0.000085054184, -690600.4, -49497.195, 0.0, 10.00062, 9.929288 
4.1550347e+3, 2.4450406e+2, -602273.5, -666971.6, -1.8577726, 0.0001301317, 0.00007847853, -602273.5, -58413.25, 0.0, 10.000618, 9.915857 
4.1550347e+3, 2.5442004e+2, -503526.25, -568299.94, -3.550444, 0.00012806075, -0.000103742444, -503526.25, -56842.633, 0.0, 10.000616, 9.915758 
4.1550347e+3, 2.6432893e+2, -415305.5, -490967.34, -2.4878447, 0.00012692608, 0.00014174475, -415305.5, -65728.98, 0.0, 10.000614, 9.901675 
4.1550347e+3, 2.7423114e+2, -316029.06, -391361.13, -4.220246, 0.00012698685, -0.00020550341, -316029.06, -63494.34, 0.0, 10.00061, 9.902095 
4.1550347e+3, 2.8412515e+2, -229560.11, -318069.22, -1.698397, 0.00012738183, 0.00022554255, -229560.11, -73986.58, 0.0, 10.0006075, 9.885151 
4.1550347e+3, 2.9401135e+2, -129859.95, -217757.31, -3.141037, 0.00012822833, -0.00025586854, -129859.945, -71171.17, 0.0, 10.000606, 9.885929 
4.1550347e+3, 3.039255e+2, -40119.38, -84735.91, -0.50163484, 0.00012812819, 0.00017134528, -40119.38, -40119.38, 0.0, 10.000605, 9.941892 
4.1550347e+3, 3.1386927e+2, -39042.895, -82496.63, -2.0099192, 0.00012661748, -0.000056579647, -39042.895, -39042.895, 0.0, 10.000603, 9.943403 
4.1650358e+3, 1.2499759e+2, -1719139.9, -1724183.0, 0.8881438, 0.00013549069, 0.000053358846, -1719139.9, -4116.235, 0.0, 10.000676, 9.99399 
4.1650358e+3, 1.3499144e+2, -1621771.9, -1627402.9, -1.3320708, 0.00013728425, -0.00012298841, -1621771.9, -4687.9116, 0.0, 10.00067, 9.993207 
4.1650358e+3, 1.4497876e+2, -1533636.8, -1548040.3, -0.32667682, 0.00013710251, 0.00013910748, -1533636.8, -14428.576, 0.0, 10.000667, 9.981577 
4.1650358e+3, 1.549603e+2, -1435917.9, -1450722.3, -2.1108193, 0.00013493435, -0.000046780962, -1435917.9, -14528.968, 0.0, 10.000664, 9.981045 
4.1650352e+3, 1.6493526e+2, -1347880.6, -1371870.8, -0.5390036, 0.00013437425, 0.00003791357, -1347880.6, -24246.072, 0.0, 10.000661, 9.968953 
4.1650352e+3, 1.7490427e+2, -1249930.0, -1274234.3, -2.5971441, 0.00013545384, -0.00006377865, -1249930.0, -23991.738, 0.0, 10.000658, 9.968539 
4.1650352e+3, 1.8486664e+2, -1161849.0, -1195635.9, -0.32200506, 0.00013487015, 0.00008260925, -1161849.0, -33541.92, 0.0, 10.000655, 9.956109 
4.1650352e+3, 1.9482279e+2, -1063708.4, -1097755.1, -1.9640149, 0.00013254682, -0.000048459973, -1063708.4, -32971.54, 0.0, 10.000651, 9.955766 
4.1650352e+3, 2.0477226e+2, -975553.75, -1019366.9, -0.9757924, 0.00013096078, 0.00007309417, -975553.75, -42321.816, 0.0, 10.0006485, 9.943002 
4.1650352e+3, 2.1471529e+2, -877274.25, -921347.4, -3.2000763, 0.00013017222, -0.00012266487, -877274.25, -41484.113, 0.0, 10.000646, 9.94266 
4.1650352e+3, 2.2465163e+2, -788997.25, -843094.06, -1.0486864, 0.00013055824, 0.00012486617, -788997.25, -50583.242, 0.0, 10.000644, 9.929614 
4.1650352e+3, 2.3458132e+2, -690569.6, -744920.5, -2.9311206, 0.00013227211, -0.00008425119, -690569.6, -49466.473, 0.0, 10.000642, 9.929283 
4.1650352e+3, 2.4450406e+2, -602244.5, -666962.7, -0.7875134, 0.00013207115, 0.000078885205, -602244.5, -58384.156, 0.0, 10.000639, 9.915853 
4.1650352e+3, 2.5442004e+2, -503501.63, -568293.4, -2.551781, 0.00012958192, -0.000104119594, -503501.63, -56817.902, 0.0, 10.000635, 9.915753 
4.1650352e+3, 2.6432893e+2, -415281.9, -490961.1, -1.2109841, 0.00012853202, 0.00014142907, -415281.9, -65705.26, 0.0, 10.000632, 9.90167 
4.1650352e+3, 2.7423114e+2, -316002.8, -391353.6, -2.7592497, 0.00012931865, -0.00020468092, -316002.8, -63467.92, 0.0, 10.00063, 9.90209 
4.1650352e+3, 2.8412512e+2, -229532.75, -318061.6, -0.14428452, 0.00013004961, 0.00022683102, -229532.75, -73958.98, 0.0, 10.000628, 9.885145 
4.1650352e+3, 2.9401132e+2, -129833.04, -217750.05, -1.8952893, 0.00013069547, -0.00025503917, -129833.04, -71143.98, 0.0, 10.000627, 9.885924 
4.1650352e+3, 3.0392548e+2, -40093.98, -84729.31, 0.4910481, 0.00013014408, 0.00017181794, -40093.98, -40093.98, 0.0, 10.000624, 9.941886 
4.1650352e+3, 3.1386924e+2, -39020.37, -82491.414, -0.83707243, 0.00012781518, -0.00005630285, -39020.37, -39020.37, 0.0, 10.000621, 9.943398 
4.1750363e+3, 1.2499766e+2, -1719145.0, -1724192.5, -1.0095433, 0.00013814562, 0.00005481848, -1719145.0, -4121.9424, 0.0, 10.000676, 9.993984 
4.1750363e+3, 1.349915e+2, -1621777.0, -1627412.4, -3.2286108, 0.00013822933, -0.000117210715, -1621777.0, -4693.527, 0.0, 10.00067, 9.993201 
4.1750363e+3, 1.4497882e+2, -1533640.8, -1548047.9, -1.5471631, 0.00013774651, 0.00014540594, -1533640.8, -14433.1, 0.0, 10.000667, 9.981572 
4.1750363e+3, 1.5496038e+2, -1435921.9, -1450729.9, -3.3343349, 0.00013669135, -0.00004438441, -1435921.9, -14533.367, 0.0, 10.000664, 9.98104 
4.1750363e+3, 1.649353e+2, -1347885.1, -1371879.5, -1.4621066, 0.00013629675, 0.000039147744, -1347885.1, -24251.004, 0.0, 10.000661, 9.968947 
4.1750363e+3, 1.7490432e+2, -1249934.5, -1274242.9, -3.5166354, 0.00013657613, -0.000060912505, -1249934.5, -23996.586, 0.0, 10.000658, 9.9685335 
4.1750363e+3, 1.8486667e+2, -1161852.6, -1195642.9, -1.667378, 0.00013576065, 0.00008551805, -1161852.6, -33545.848, 0.0, 10.000655, 9.956104 
4.1750363e+3, 1.948228e+2, -1063711.9, -1097762.0, -3.318028, 0.00013379977, -0.000047169775, -1063711.9, -32975.36, 0.0, 10.000651, 9.955761 
4.1750363e+3, 2.0477228e+2, -975558.5, -1019376.2, -1.9582946, 0.00013272284, 0.00007299591, -975558.5, -42326.766, 0.0, 10.0006485, 9.942996 
4.1750357e+3, 2.147153e+2, -877278.94, -921356.7, -4.174762, 0.00013260229, -0.00012390246, -877278.94, -41488.953, 0.0, 10.000646, 9.942655 
4.1750357e+3, 2.2465163e+2, -789001.4, -843102.3, -1.6435664, 0.0001326725, 0.00012366955, -789001.4, -50587.453, 0.0, 10.000644, 9.929609 
4.1750357e+3, 2.3458132e+2, -690573.7, -744928.7, -3.5109293, 0.00013295744, -0.000084071275, -690573.7, -49470.59, 0.0, 10.000642, 9.929277 
4.1750357e+3, 2.4450406e+2, -602248.4, -666970.56, -2.409031, 0.00013283078, 0.00007983777, -602248.4, -58388.066, 0.0, 10.000639, 9.915848 
4.1750357e+3, 2.5442e+2, -503505.47, -568301.2, -4.224195, 0.00013221205, -0.000103116756, -503505.47, -56821.688, 0.0, 10.000635, 9.915748 
4.1750357e+3, 2.643289e+2, -415285.34, -490968.13, -1.8299726, 0.0001318616, 0.00014212327, -415285.34, -65708.58, 0.0, 10.000632, 9.901666 
4.1750357e+3, 2.742311e+2, -316006.2, -391360.53, -3.3098936, 0.00013185333, -0.00020475006, -316006.2, -63471.125, 0.0, 10.00063, 9.902085 
4.1750357e+3, 2.841251e+2, -229536.78, -318069.97, -0.9308923, 0.00013197148, 0.00022638938, -229536.78, -73962.805, 0.0, 10.000628, 9.88514 
4.1750357e+3, 2.940113e+2, -129837.086, -217758.48, -2.7011752, 0.00013226082, -0.0002553163, -129837.086, -71147.76, 0.0, 10.000627, 9.885919 
4.1750363e+3, 3.0392545e+2, -40097.418, -84736.516, -0.7343489, 0.00013172836, 0.00017237858, -40097.418, -40097.418, 0.0, 10.000624, 9.941881 
4.1750363e+3, 3.138692e+2, -39023.734, -82498.484, -2.1111853, 0.00012997392, -0.00005390982, -39023.734, -39023.734, 0.0, 10.000621, 9.943394 
4.185037e+3, 1.2499773e+2, -1719113.6, -1724182.0, 1.8538353, 0.00014044797, 0.000055477434, -1719113.6, -4091.2124, 0.0, 10.000698, 9.993979 
4.185037e+3, 1.3499156e+2, -1621744.1, -1627401.1, -0.055419873, 0.0001392933, -0.00011602419, -1621744.1, -4661.237, 0.0, 10.000694, 9.993196 
4.1850367e+3, 1.4497888e+2, -1533607.6, -1548037.6, 1.729108, 0.00013877901, 0.0001467058, -1533607.6, -14400.562, 0.0, 10.00069, 9.981565 
4.1850367e+3, 1.5496042e+2, -1435888.6, -1450719.5, -1.2286401, 0.00013890454, -0.000043875072, -1435888.6, -14500.59, 0.0, 10.000688, 9.981034 
4.1850367e+3, 1.6493535e+2, -1347851.5, -1371867.3, 0.34609506, 0.00013850162, 0.000039600043, -1347851.5, -24217.848, 0.0, 10.000684, 9.968943 
4.1850367e+3, 1.7490435e+2, -1249903.1, -1274232.0, -1.1577916, 0.00013756043, -0.000059768565, -1249903.1, -23965.617, 0.0, 10.00068, 9.968529 
4.1850367e+3, 1.848667e+2, -1161822.9, -1195634.1, 0.38535988, 0.00013659496, 0.0000862198, -1161822.9, -33516.473, 0.0, 10.000677, 9.956099 
4.1850367e+3, 1.9482283e+2, -1063681.5, -1097753.0, -2.3321357, 0.00013560263, -0.000048095542, -1063681.5, -32945.215, 0.0, 10.000674, 9.955755 
4.1850367e+3, 2.047723e+2, -975527.4, -1019367.06, -1.1349587, 0.00013506456, 0.000071820155, -975527.4, -42295.867, 0.0, 10.000671, 9.942989 
4.1850367e+3, 2.1471532e+2, -877247.06, -921347.25, -3.3344069, 0.00013501792, -0.00012383734, -877247.06, -41457.234, 0.0, 10.0006695, 9.942649 
4.1850367e+3, 2.2465166e+2, -788970.25, -843091.44, -0.80194885, 0.00013470222, 0.00012457087, -788970.25, -50556.465, 0.0, 10.000667, 9.929605 
4.1850367e+3, 2.3458134e+2, -690547.9, -744920.5, -1.9363246, 0.00013408104, -0.00008279147, -690547.9, -49444.848, 0.0, 10.000661, 9.929274 
4.1850367e+3, 2.4450406e+2, -602224.1, -666964.56, -0.39097664, 0.00013405815, 0.00008086961, -602224.1, -58363.848, 0.0, 10.000658, 9.915842 
4.1850367e+3, 2.5442e+2, -503476.7, -568292.94, -2.4499953, 0.00013474957, -0.00010308034, -503476.7, -56792.86, 0.0, 10.000657, 9.915743 
4.1850367e+3, 2.643289e+2, -415255.06, -490959.28, -0.27376547, 0.00013482338, 0.00014195645, -415255.06, -65678.21, 0.0, 10.000654, 9.90166 
4.1850367e+3, 2.742311e+2, -315978.4, -391353.03, -2.4197106, 0.00013410924, -0.00020411, -315978.4, -63443.19, 0.0, 10.000651, 9.90208 
4.1850367e+3, 2.841251e+2, -229510.63, -318062.72, -0.3355584, 0.00013376046, 0.00022748027, -229510.63, -73936.46, 0.0, 10.0006485, 9.885135 
4.1850367e+3, 2.9401127e+2, -129812.44, -217752.02, -1.5926864, 0.0001339152, -0.00025426678, -129812.44, -71122.875, 0.0, 10.000646, 9.885914 
4.1850367e+3, 3.0392542e+2, -40072.63, -84729.64, 0.76827496, 0.000133511, 0.00017281975, -40072.63, -40072.63, 0.0, 10.000643, 9.941876 
4.1850367e+3, 3.1386918e+2, -38996.543, -82490.39, -0.39790747, 0.00013227218, -0.00005491402, -38996.543, -38996.543, 0.0, 10.000641, 9.943389 
4.1950375e+3, 1.249978e+2, -1719118.0, -1724190.3, 0.33718717, 0.00014240178, 0.000055310837, -1719118.0, -4096.32, 0.0, 10.000698, 9.993974 
4.1950375e+3, 1.3499162e+2, -1621748.4, -1627409.4, -1.5741731, 0.00014047428, -0.00011936159, -1621748.4, -4666.2173, 0.0, 10.000694, 9.993191 
4.1950375e+3, 1.4497894e+2, -1533614.4, -1548050.3, 0.5779555, 0.00014019453, 0.00014307922, -1533614.4, -14407.799, 0.0, 10.00069, 9.981558 
4.1950375e+3, 1.5496047e+2, -1435895.1, -1450732.1, -2.3736327, 0.00014156714, -0.000045225734, -1435895.1, -14507.691, 0.0, 10.000688, 9.981027 
4.1950375e+3, 1.649354e+2, -1347854.9, -1371873.8, -1.0651348, 0.00014098425, 0.000039281837, -1347854.9, -24221.654, 0.0, 10.000684, 9.968939 
4.1950375e+3, 1.7490439e+2, -1249906.4, -1274238.4, -2.5736623, 0.00013840846, -0.000060321552, -1249906.4, -23969.33, 0.0, 10.000681, 9.968525 
4.1950372e+3, 1.8486674e+2, -1161828.8, -1195645.5, -0.7628869, 0.00013737357, 0.000084746665, -1161828.8, -33522.73, 0.0, 10.000677, 9.956091 
4.1950372e+3, 1.9482286e+2, -1063687.4, -1097764.4, -3.4748132, 0.00013794746, -0.000051205632, -1063687.4, -32951.34, 0.0, 10.000674, 9.955749 
4.1950372e+3, 2.0477232e+2, -975532.1, -1019376.44, -1.882957, 0.00013797774, 0.00006958203, -975532.1, -42300.867, 0.0, 10.000671, 9.942984 
4.1950372e+3, 2.1471535e+2, -877251.8, -921356.5, -4.0716825, 0.00013741986, -0.0001224883, -877251.8, -41462.133, 0.0, 10.0006695, 9.942642 
4.1950372e+3, 2.2465168e+2, -788972.94, -843096.75, -2.6227543, 0.00013664897, 0.0001275401, -788972.94, -50559.27, 0.0, 10.000667, 9.929602 
4.1950372e+3, 2.3458135e+2, -690550.44, -744925.6, -3.7965055, 0.00013563644, -0.00008042732, -690550.44, -49447.504, 0.0, 10.000661, 9.92927 
4.1950372e+3, 2.4450406e+2, -602228.44, -666973.25, -0.9408497, 0.00013574626, 0.000081979895, -602228.44, -58368.227, 0.0, 10.000658, 9.915836 
4.1950372e+3, 2.5442e+2, -503481.03, -568301.8, -2.938179, 0.00013719623, -0.00010399616, -503481.03, -56797.21, 0.0, 10.000657, 9.915737 
4.1950372e+3, 2.643289e+2, -415259.8, -490968.94, -1.3745501, 0.00013742328, 0.00014094113, -415259.8, -65682.875, 0.0, 10.000655, 9.901654 
4.1950372e+3, 2.7423108e+2, -315983.1, -391362.7, -3.5572984, 0.0001360907, -0.00020277094, -315983.1, -63447.773, 0.0, 10.000651, 9.902073 
4.1950372e+3, 2.8412506e+2, -229513.83, -318069.38, -1.4929786, 0.00013541854, 0.00023008154, -229513.83, -73939.51, 0.0, 10.0006485, 9.885131 
4.1950372e+3, 2.9401127e+2, -129815.46, -217758.36, -2.754183, 0.00013565733, -0.00025190954, -129815.46, -71125.7, 0.0, 10.000646, 9.885909 
4.1950372e+3, 3.039254e+2, -40075.598, -84735.91, 0.05953962, 0.00013548923, 0.00017314343, -40075.598, -40075.598, 0.0, 10.000643, 9.941873 
4.1950372e+3, 3.1386915e+2, -38999.51, -82496.65, -1.0573267, 0.00013470842, -0.00005926643, -38999.51, -38999.51, 0.0, 10.000641, 9.943385 
4.2050385e+3, 1.2499788e+2, -1719085.0, -1724179.5, 0.6443128, 0.00014474305, 0.000055507113, -1719085.0, -4064.0962, 0.0, 10.000722, 9.993968 
4.205038e+3, 1.349917e+2, -1621713.9, -1627397.9, -1.9565612, 0.00014246003, -0.00011990203, -1621713.9, -4632.4243, 0.0, 10.000719, 9.993184 
4.205038e+3, 1.44979e+2, -1533580.0, -1548038.8, 0.523986, 0.00014190523, 0.00014283152, -1533580.0, -14374.114, 0.0, 10.000715, 9.981552 
4.205038e+3, 1.5496053e+2, -1435863.0, -1450721.9, -0.94747853, 0.00014308208, -0.00004448797, -1435863.0, -14476.1045, 0.0, 10.0007105, 9.98102 
4.205038e+3, 1.6493545e+2, -1347823.0, -1371863.0, 0.70262057, 0.00014257504, 0.000039979943, -1347823.0, -24190.277, 0.0, 10.000707, 9.968933 
4.205038e+3, 1.7490444e+2, -1249874.0, -1274227.4, -1.7516226, 0.00014035286, -0.000060707403, -1249874.0, -23937.344, 0.0, 10.000704, 9.968519 
4.205038e+3, 1.8486677e+2, -1161797.1, -1195636.5, 0.044895504, 0.00013955847, 0.00008407888, -1161797.1, -33491.453, 0.0, 10.000701, 9.956085 
4.205038e+3, 1.9482289e+2, -1063656.0, -1097755.6, -2.0522542, 0.0001402542, -0.000051317482, -1063656.0, -32920.316, 0.0, 10.000697, 9.955742 
4.205038e+3, 2.0477235e+2, -975501.6, -1019366.44, 0.17900258, 0.00014007566, 0.000070265574, -975501.6, -42270.61, 0.0, 10.000693, 9.942979 
4.205038e+3, 2.1471536e+2, -877225.06, -921348.56, -1.2879269, 0.00013895115, -0.00012075012, -877225.06, -41435.62, 0.0, 10.0006895, 9.942637 
4.205038e+3, 2.246517e+2, -788945.75, -843088.4, -0.03230712, 0.00013844357, 0.00012939415, -788945.75, -50532.324, 0.0, 10.000687, 9.929597 
4.2050377e+3, 2.3458137e+2, -690518.6, -744915.0, -2.3237963, 0.00013863336, -0.00007951873, -690518.6, -49415.86, 0.0, 10.000685, 9.929265 
4.2050377e+3, 2.4450408e+2, -602196.75, -666964.4, 0.10766288, 0.00013886274, 0.00008216073, -602196.75, -58336.605, 0.0, 10.000682, 9.915831 
4.2050377e+3, 2.5442e+2, -503452.75, -568294.8, -2.2510076, 0.0001391384, -0.00010428189, -503452.75, -56768.96, 0.0, 10.000678, 9.91573 
4.2050377e+3, 2.643289e+2, -415232.4, -490960.94, -0.61874115, 0.00013883479, 0.00014087341, -415232.4, -65655.45, 0.0, 10.000675, 9.901649 
4.2050377e+3, 2.7423108e+2, -315955.75, -391354.66, -1.6793985, 0.00013779358, -0.0002017496, -315955.75, -63420.36, 0.0, 10.000672, 9.902068 
4.2050377e+3, 2.8412506e+2, -229486.03, -318061.38, 0.9562277, 0.00013738658, 0.00023154216, -229486.03, -73911.586, 0.0, 10.0006695, 9.885126 
4.2050377e+3, 2.9401124e+2, -129786.35, -217749.81, -0.8827521, 0.00013785083, -0.00025090313, -129786.35, -71096.42, 0.0, 10.000668, 9.885904 
4.2050377e+3, 3.0392537e+2, -40046.914, -84728.45, 1.211521, 0.00013768586, 0.0001733515, -40046.914, -40046.914, 0.0, 10.000666, 9.941867 
4.205038e+3, 3.1386912e+2, -38972.13, -82489.92, -1.0619065, 0.00013657828, -0.00006035889, -38972.13, -38972.13, 0.0, 10.000663, 9.943379 
4.215039e+3, 1.2499796e+2, -1719091.0, -1724190.8, -0.4701001, 0.00014746423, 0.000056000477, -1719091.0, -4070.832, 0.0, 10.000722, 9.993961 
4.215039e+3, 1.3499178e+2, -1621719.9, -1627409.0, -3.067625, 0.00014523815, -0.00011768859, -1621719.9, -4639.036, 0.0, 10.000719, 9.993177 
4.215039e+3, 1.4497906e+2, -1533583.4, -1548045.0, -1.0795798, 0.00014390597, 0.00014591086, -1533583.4, -14378.069, 0.0, 10.000715, 9.981548 
4.215039e+3, 1.5496059e+2, -1435866.3, -1450728.1, -2.5560308, 0.00014346505, -0.000041693092, -1435866.3, -14479.981, 0.0, 10.0007105, 9.981016 
4.2150387e+3, 1.649355e+2, -1347828.4, -1371873.4, -0.538069, 0.00014328626, 0.000041679377, -1347828.4, -24196.246, 0.0, 10.000707, 9.968926 
4.2150387e+3, 1.7490448e+2, -1249879.3, -1274237.8, -2.9890006, 0.00014337724, -0.00006092874, -1249879.3, -23943.178, 0.0, 10.000704, 9.9685135 
4.2150387e+3, 1.8486682e+2, -1161801.6, -1195645.4, -1.1276668, 0.00014312883, 0.00008420413, -1161801.6, -33496.47, 0.0, 10.000701, 9.9560795 
4.2150387e+3, 1.9482294e+2, -1063660.5, -1097764.5, -3.224562, 0.00014252376, -0.00004847557, -1063660.5, -32925.234, 0.0, 10.000697, 9.955736 
4.2150387e+3, 2.0477238e+2, -975504.9, -1019372.9, -1.4487488, 0.00014137055, 0.000073827716, -975504.9, -42274.207, 0.0, 10.000693, 9.942974 
4.2150387e+3, 2.1471539e+2, -877228.2, -921354.9, -2.929566, 0.00013962446, -0.00011862794, -877228.2, -41439.094, 0.0, 10.0006895, 9.942634 
4.2150387e+3, 2.2465172e+2, -788950.6, -843098.0, -0.7370643, 0.00014008813, 0.00013015012, -788950.6, -50537.39, 0.0, 10.000687, 9.92959 
4.2150387e+3, 2.3458138e+2, -690523.44, -744924.7, -2.9961834, 0.000143051, -0.000080043894, -690523.44, -49420.855, 0.0, 10.000685, 9.929259 
4.2150387e+3, 2.445041e+2, -602201.9, -666974.75, -1.1612157, 0.00014338712, 0.0000814258, -602201.9, -58341.86, 0.0, 10.000682, 9.915824 
4.2150387e+3, 2.5442004e+2, -503457.88, -568305.1, -3.546226, 0.00014058375, -0.00010394712, -503457.88, -56774.11, 0.0, 10.000679, 9.915724 
4.2150387e+3, 2.643289e+2, -415235.06, -490966.4, -1.7553456, 0.00013907548, 0.00014173916, -415235.06, -65658.11, 0.0, 10.000675, 9.901646 
4.2150387e+3, 2.7423108e+2, -315958.22, -391359.78, -2.8091402, 0.00013922217, -0.00020104088, -315958.22, -63422.785, 0.0, 10.000672, 9.902065 
4.2150387e+3, 2.8412506e+2, -229490.1, -318069.84, 0.14254418, 0.00013966033, 0.0002318796, -229490.1, -73915.58, 0.0, 10.0006695, 9.88512 
4.2150387e+3, 2.9401124e+2, -129790.51, -217758.5, -1.666093, 0.00014048943, -0.00025122712, -129790.51, -71100.445, 0.0, 10.000668, 9.885899 
4.2150387e+3, 3.0392534e+2, -40051.973, -84739.05, 0.25461638, 0.0001400981, 0.00017344572, -40051.973, -40051.973, 0.0, 10.000666, 9.94186 
4.2150387e+3, 3.138691e+2, -38977.3, -82500.76, -2.0337498, 0.00013789035, -0.00005824026, -38977.3, -38977.3, 0.0, 10.000663, 9.943372 
4.22504e+3, 1.2499804e+2, -1719055.9, -1724178.5, 2.4962466, 0.00014950547, 0.000056440094, -1719055.9, -4036.5713, 0.0, 10.000747, 9.993956 
4.2250395e+3, 1.3499185e+2, -1621686.3, -1627397.6, 0.8178397, 0.0001475661, -0.00011562197, -1621686.3, -4606.1846, 0.0, 10.000743, 9.993172 
4.2250395e+3, 1.4497913e+2, -1533550.4, -1548034.0, 2.3270698, 0.00014621016, 0.00014807377, -1533550.4, -14345.791, 0.0, 10.000738, 9.981543 
4.2250395e+3, 1.5496066e+2, -1435833.4, -1450717.1, -0.39107445, 0.00014543429, -0.000041297604, -1435833.4, -14447.733, 0.0, 10.000734, 9.981011 
4.2250395e+3, 1.6493556e+2, -1347795.8, -1371863.3, 1.5890063, 0.00014532504, 0.00004157467, -1347795.8, -24164.236, 0.0, 10.0007305, 9.968921 
4.2250395e+3, 1.7490454e+2, -1249846.5, -1274227.5, -0.5054242, 0.00014589653, -0.000060239527, -1249846.5, -23910.908, 0.0, 10.000728, 9.968507 
4.2250395e+3, 1.8486688e+2, -1161769.6, -1195635.4, 1.2497972, 0.00014553833, 0.00008524267, -1161769.6, -33464.9, 0.0, 10.000724, 9.956074 
4.2250395e+3, 1.9482298e+2, -1063630.6, -1097755.6, -0.98654705, 0.00014420657, -0.0000475522, -1063630.6, -32895.832, 0.0, 10.000719, 9.95573 
4.2250395e+3, 2.0477243e+2, -975475.06, -1019364.06, 0.19102187, 0.00014324817, 0.000074488526, -975475.06, -42244.793, 0.0, 10.000715, 9.942968 
4.2250392e+3, 2.1471544e+2, -877196.5, -921345.1, -2.5059898, 0.00014269367, -0.00011838804, -877196.5, -41407.68, 0.0, 10.000712, 9.942628 
4.2250392e+3, 2.2465175e+2, -788918.44, -843088.2, -0.21281752, 0.00014328375, 0.00013040307, -788918.44, -50505.496, 0.0, 10.00071, 9.9295845 
4.2250392e+3, 2.345814e+2, -690492.6, -744915.56, -2.0355022, 0.00014516772, -0.00007928638, -690492.6, -49390.227, 0.0, 10.000708, 9.929254 
4.2250392e+3, 2.4450411e+2, -602172.2, -666966.6, -0.2136945, 0.00014500388, 0.00008235849, -602172.2, -58312.32, 0.0, 10.000705, 9.915817 
4.2250392e+3, 2.5442004e+2, -503428.78, -568297.44, -2.0379736, 0.00014239302, -0.00010323267, -503428.78, -56745.11, 0.0, 10.000701, 9.915718 
4.2250392e+3, 2.643289e+2, -415205.06, -490956.9, -0.04168911, 0.0001410801, 0.00014230656, -415205.06, -65628.13, 0.0, 10.000697, 9.901641 
4.2250392e+3, 2.7423108e+2, -315927.47, -391349.9, -2.079593, 0.00014142414, -0.00020052849, -315927.47, -63392.043, 0.0, 10.000695, 9.9020605 
4.2250392e+3, 2.8412503e+2, -229459.69, -318060.75, 0.592127, 0.00014181143, 0.00023232386, -229459.69, -73885.11, 0.0, 10.000692, 9.885115 
4.2250392e+3, 2.940112e+2, -129761.09, -217750.06, -0.7954297, 0.0001422499, -0.00025086952, -129761.09, -71070.92, 0.0, 10.00069, 9.885893 
4.2250392e+3, 3.0392534e+2, -40023.566, -84731.32, 1.8166116, 0.00014166468, 0.00017377154, -40023.566, -40023.566, 0.0, 10.000688, 9.9418545 
4.2250392e+3, 3.1386906e+2, -38949.29, -82493.234, 0.99001443, 0.00013955859, -0.000057864312, -38949.29, -38949.29, 0.0, 10.000685, 9.943367 
4.2350405e+3, 1.2499813e+2, -1719059.8, -1724185.8, 1.0759473, 0.0001508762, 0.000056635112, -1719059.8, -4041.2903, 0.0, 10.000747, 9.993951 
4.2350405e+3, 1.3499194e+2, -1621690.0, -1627404.9, -0.60505307, 0.00014945057, -0.000113699316, -1621690.0, -4610.837, 0.0, 10.000743, 9.993167 
4.2350405e+3, 1.4497922e+2, -1533556.5, -1548045.5, 0.7261724, 0.00014881382, 0.00014933464, -1533556.5, -14352.6875, 0.0, 10.000738, 9.981535 
4.2350405e+3, 1.5496072e+2, -1435839.4, -1450728.6, -1.989923, 0.00014896547, -0.000043263542, -1435839.4, -14454.454, 0.0, 10.000734, 9.981004 
4.23504e+3, 1.6493563e+2, -1347800.4, -1371872.1, 0.4334878, 0.00014867017, 0.000039694212, -1347800.4, -24169.486, 0.0, 10.0007305, 9.968915 
4.23504e+3, 1.749046e+2, -1249851.1, -1274236.4, -1.6582272, 0.00014791857, -0.000058653135, -1249851.1, -23916.084, 0.0, 10.000728, 9.968501 
4.23504e+3, 1.8486694e+2, -1161774.5, -1195644.9, -0.42311722, 0.00014680496, 0.000087181084, -1161774.5, -33470.324, 0.0, 10.000724, 9.956067 
4.23504e+3, 1.9482303e+2, -1063635.5, -1097765.1, -2.666626, 0.00014531166, -0.000048517202, -1063635.5, -32901.11, 0.0, 10.000719, 9.955725 
4.23504e+3, 2.0477246e+2, -975480.9, -1019375.44, -0.9460237, 0.00014569951, 0.00007229298, -975480.9, -42250.95, 0.0, 10.000716, 9.942962 
4.23504e+3, 2.1471547e+2, -877202.2, -921356.44, -3.6279285, 0.00014812232, -0.00012000171, -877202.2, -41413.715, 0.0, 10.000712, 9.94262 
4.23504e+3, 2.2465178e+2, -788922.5, -843096.25, -1.1698899, 0.00014800696, 0.00013016033, -788922.5, -50509.82, 0.0, 10.0007105, 9.92958 
4.23504e+3, 2.3458143e+2, -690496.56, -744923.56, -2.9873354, 0.00014501909, -0.00007726598, -690496.56, -49394.434, 0.0, 10.000708, 9.929249 
4.23504e+3, 2.4450412e+2, -602176.2, -666974.6, -1.596839, 0.00014375785, 0.000084933345, -602176.2, -58316.496, 0.0, 10.000705, 9.9158125 
4.23504e+3, 2.5442004e+2, -503432.72, -568305.44, -3.444118, 0.0001445609, -0.00010214393, -503432.72, -56749.156, 0.0, 10.000701, 9.915712 
4.23504e+3, 2.643289e+2, -415209.5, -490966.0, -0.9879684, 0.00014482193, 0.00014258055, -415209.5, -65632.63, 0.0, 10.000698, 9.901635 
4.23504e+3, 2.7423108e+2, -315931.9, -391359.03, -2.9925108, 0.00014438799, -0.00020020951, -315931.9, -63396.47, 0.0, 10.000695, 9.902055 
4.23504e+3, 2.8412503e+2, -229463.19, -318068.03, -0.38422313, 0.00014384209, 0.00023287295, -229463.19, -73888.555, 0.0, 10.000692, 9.88511 
4.23504e+3, 2.940112e+2, -129764.47, -217757.13, -1.7790709, 0.00014314603, -0.00024984108, -129764.47, -71074.2, 0.0, 10.00069, 9.885889 
4.23504e+3, 3.039253e+2, -40026.055, -84736.58, 0.74689716, 0.0001423989, 0.0001743255, -40026.055, -40026.055, 0.0, 10.000688, 9.941851 
4.23504e+3, 3.1386906e+2, -38951.676, -82498.29, -0.09573131, 0.00014157782, -0.00005920333, -38951.676, -38951.676, 0.0, 10.000685, 9.943363 
4.2450416e+3, 1.2499822e+2, -1719024.1, -1724172.9, 1.4688631, 0.00015266896, 0.000057019264, -1719024.1, -4006.5232, 0.0, 10.0007715, 9.993945 
4.245041e+3, 1.3499202e+2, -1621655.6, -1627392.8, -0.89350265, 0.00015184608, -0.00011409612, -1621655.6, -4577.3115, 0.0, 10.000767, 9.993162 
4.245041e+3, 1.4497931e+2, -1533522.9, -1548035.1, 0.52392185, 0.0001514888, 0.00014902143, -1533522.9, -14319.89, 0.0, 10.000763, 9.981529 
4.245041e+3, 1.549608e+2, -1435804.4, -1450717.6, -1.6413633, 0.00015159442, -0.00004291435, -1435804.4, -14420.112, 0.0, 10.00076, 9.980997 
4.245041e+3, 1.649357e+2, -1347765.3, -1371860.0, 0.9938446, 0.00015105074, 0.000040276314, -1347765.3, -24135.063, 0.0, 10.000755, 9.968909 
4.245041e+3, 1.7490466e+2, -1249819.3, -1274226.0, -0.9864941, 0.00014984334, -0.00005827068, -1249819.3, -23884.889, 0.0, 10.000751, 9.968496 
4.245041e+3, 1.84867e+2, -1161744.1, -1195636.6, 0.23435895, 0.00014878032, 0.000087467015, -1161744.1, -33440.58, 0.0, 10.000747, 9.95606 
4.245041e+3, 1.9482307e+2, -1063603.3, -1097755.9, -2.392075, 0.000147867, -0.00004821948, -1063603.3, -32869.313, 0.0, 10.000744, 9.955718 
4.2450404e+3, 2.047725e+2, -975446.94, -1019364.9, -0.07405984, 0.00014853833, 0.00007285014, -975446.94, -42217.473, 0.0, 10.000741, 9.942956 
4.2450404e+3, 2.147155e+2, -877167.94, -921345.8, -1.8180773, 0.00015092353, -0.00011891519, -877167.94, -41379.84, 0.0, 10.000738, 9.942615 
4.2450404e+3, 2.2465181e+2, -788889.1, -843085.25, 0.8097734, 0.00015039023, 0.00013132457, -788889.1, -50476.746, 0.0, 10.000734, 9.929574 
4.2450404e+3, 2.3458146e+2, -690466.8, -744914.4, -1.0528347, 0.00014655422, -0.000076534736, -690466.8, -49364.914, 0.0, 10.00073, 9.929243 
4.2450404e+3, 2.4450414e+2, -602147.6, -666967.1, 0.38481137, 0.00014513386, 0.000085323394, -602147.6, -58288.15, 0.0, 10.000726, 9.915807 
4.2450404e+3, 2.5442007e+2, -503401.3, -568296.6, -2.079915, 0.00014660097, -0.0001019843, -503401.3, -56717.92, 0.0, 10.000725, 9.915707 
4.2450404e+3, 2.643289e+2, -415176.28, -490955.47, 0.29961115, 0.00014710367, 0.00014283239, -415176.28, -65599.51, 0.0, 10.000722, 9.901629 
4.2450404e+3, 2.7423108e+2, -315899.53, -391348.97, -1.1206613, 0.00014637187, -0.0001994546, -315899.53, -63364.15, 0.0, 10.000719, 9.902049 
4.2450404e+3, 2.8412503e+2, -229431.86, -318058.53, 1.539739, 0.00014562008, 0.00023391393, -229431.86, -73857.23, 0.0, 10.000716, 9.885105 
4.2450404e+3, 2.940112e+2, -129734.555, -217748.42, -0.2682015, 0.0001448465, -0.00024881295, -129734.555, -71044.24, 0.0, 10.000712, 9.885883 
4.2450404e+3, 3.039253e+2, -39997.152, -84728.82, 1.476283, 0.00014413927, 0.00017474059, -39997.152, -39997.152, 0.0, 10.00071, 9.941845 
4.2450404e+3, 3.1386903e+2, -38922.168, -82490.27, -0.96296483, 0.00014353135, -0.00006028926, -38922.168, -38922.168, 0.0, 10.000708, 9.943357 
4.255042e+3, 1.24998316e+2, -1719029.5, -1724183.0, -0.20295548, 0.00015487579, 0.00005761253, -1719029.5, -4012.8635, 0.0, 10.0007715, 9.993939 
4.255042e+3, 1.3499211e+2, -1621661.0, -1627402.9, -2.5657065, 0.00015474441, -0.00011677609, -1621661.0, -4583.5044, 0.0, 10.000767, 9.9931555 
4.255042e+3, 1.4497939e+2, -1533527.8, -1548044.4, -0.674611, 0.00015423314, 0.00014715955, -1533527.8, -14325.531, 0.0, 10.000763, 9.9815235 
4.255042e+3, 1.5496087e+2, -1435809.1, -1450726.8, -2.8384013, 0.00015333467, -0.000040287323, -1435809.1, -14425.679, 0.0, 10.00076, 9.980991 
4.255042e+3, 1.6493578e+2, -1347769.6, -1371868.4, -0.8913238, 0.00015248149, 0.000043281434, -1347769.6, -24140.154, 0.0, 10.000755, 9.9689045 
4.2550415e+3, 1.7490472e+2, -1249823.6, -1274234.4, -2.8781404, 0.00015167212, -0.000059072943, -1249823.6, -23889.836, 0.0, 10.000751, 9.968491 
4.2550415e+3, 1.8486705e+2, -1161749.9, -1195647.6, -0.9265455, 0.00015145302, 0.00008612681, -1161749.9, -33446.83, 0.0, 10.000747, 9.956054 
4.2550415e+3, 1.9482313e+2, -1063608.9, -1097766.9, -3.5422082, 0.00015184963, -0.000046679543, -1063608.9, -32875.457, 0.0, 10.000744, 9.95571 
4.2550415e+3, 2.0477255e+2, -975450.8, -1019372.5, -1.069924, 0.00015175866, 0.00007611584, -975450.8, -42221.793, 0.0, 10.000741, 9.94295 
4.2550415e+3, 2.1471554e+2, -877171.75, -921353.3, -2.812568, 0.00015113965, -0.0001151712, -877171.75, -41384.05, 0.0, 10.000738, 9.94261 
4.2550415e+3, 2.2465184e+2, -788893.2, -843093.4, -0.97544074, 0.0001504712, 0.00013387395, -788893.2, -50481.2, 0.0, 10.000734, 9.929569 
4.2550415e+3, 2.3458149e+2, -690470.8, -744922.5, -2.8659005, 0.0001497464, -0.00007707175, -690470.8, -49369.24, 0.0, 10.00073, 9.929238 
4.2550415e+3, 2.4450417e+2, -602152.8, -666977.6, -0.31753054, 0.0001490902, 0.00008356362, -602152.8, -58293.57, 0.0, 10.000727, 9.9158 
4.2550415e+3, 2.5442007e+2, -503406.5, -568307.1, -2.7270448, 0.00014851571, -0.000102739104, -503406.5, -56723.285, 0.0, 10.000725, 9.9157 
4.2550415e+3, 2.6432893e+2, -415179.72, -490962.53, -0.76763403, 0.00014794909, 0.0001430623, -415179.72, -65603.08, 0.0, 10.000722, 9.901625 
4.2550415e+3, 2.7423108e+2, -315902.8, -391355.75, -2.2173862, 0.00014739181, -0.00019827041, -315902.8, -63367.523, 0.0, 10.000719, 9.902044 
4.2550415e+3, 2.8412503e+2, -229435.97, -318067.1, 0.25158206, 0.00014714972, 0.00023543948, -229435.97, -73861.38, 0.0, 10.000716, 9.885099 
4.2550415e+3, 2.940112e+2, -129738.69, -217757.06, -1.573242, 0.0001473388, -0.0002477847, -129738.69, -71048.35, 0.0, 10.000713, 9.885878 
4.2550415e+3, 3.039253e+2, -40002.42, -84739.875, 0.52524817, 0.0001468701, 0.00017501913, -40002.42, -40002.42, 0.0, 10.00071, 9.941838 
4.2550415e+3, 3.1386903e+2, -38927.586, -82501.63, -1.8684092, 0.00014542062, -0.000061126964, -38927.586, -38927.586, 0.0, 10.000708, 9.94335 
4.2650428e+3, 1.2499841e+2, -1718992.0, -1724170.4, 2.393043, 0.0001571526, 0.000058357913, -1718992.0, -3976.2703, 0.0, 10.000797, 9.993933 
4.2650428e+3, 1.349922e+2, -1621624.4, -1627390.8, -0.09162918, 0.00015718809, -0.00011598649, -1621624.4, -4547.8496, 0.0, 10.0007925, 9.99315 
4.2650425e+3, 1.4497948e+2, -1533492.0, -1548031.8, 2.1421964, 0.0001565388, 0.00014812709, -1533492.0, -14290.652, 0.0, 10.000788, 9.981518 
4.2650425e+3, 1.5496098e+2, -1435775.8, -1450715.5, 0.14751479, 0.00015519657, -0.000039343864, -1435775.8, -14393.103, 0.0, 10.000783, 9.980986 
4.2650425e+3, 1.6493586e+2, -1347737.1, -1371858.6, 1.6265371, 0.00015433469, 0.00004398838, -1347737.1, -24108.293, 0.0, 10.000779, 9.968898 
4.2650425e+3, 1.749048e+2, -1249788.8, -1274223.5, -1.2145846, 0.00015395999, -0.000058813846, -1249788.8, -23855.684, 0.0, 10.000776, 9.968484 
4.2650425e+3, 1.8486711e+2, -1161714.0, -1195636.1, 0.9773319, 0.00015406327, 0.00008656159, -1161714.0, -33411.582, 0.0, 10.000772, 9.956048 
4.2650425e+3, 1.9482319e+2, -1063573.5, -1097755.8, -1.0821707, 0.00015466475, -0.000045416167, -1063573.5, -32840.71, 0.0, 10.00077, 9.955705 
4.2650425e+3, 2.047726e+2, -975416.7, -1019361.2, 1.2729052, 0.00015410887, 0.0000775317, -975416.7, -42188.188, 0.0, 10.000765, 9.9429455 
4.265042e+3, 2.1471559e+2, -877140.94, -921343.75, -0.94797397, 0.0001523002, -0.00011433279, -877140.94, -41353.727, 0.0, 10.000761, 9.942604 
4.265042e+3, 2.2465189e+2, -788862.3, -843084.5, 0.5696618, 0.00015166387, 0.00013421409, -788862.3, -50450.68, 0.0, 10.000757, 9.929563 
4.265042e+3, 2.3458152e+2, -690435.06, -744911.25, -1.9044024, 0.00015235359, -0.000077139826, -690435.06, -49333.805, 0.0, 10.000756, 9.929232 
4.265042e+3, 2.445042e+2, -602116.5, -666966.56, 0.5461891, 0.00015203944, 0.000083356776, -602116.5, -58257.523, 0.0, 10.000753, 9.915793 
4.265042e+3, 2.544201e+2, -503374.34, -568298.25, -1.4472811, 0.00015052492, -0.00010276234, -503374.34, -56691.336, 0.0, 10.000749, 9.915693 
4.265042e+3, 2.6432893e+2, -415148.8, -490952.84, 0.67669946, 0.00014943456, 0.00014327763, -415148.8, -65572.31, 0.0, 10.000745, 9.90162 
4.265042e+3, 2.742311e+2, -315871.8, -391346.0, -1.1157954, 0.00014888628, -0.00019774679, -315871.8, -63336.61, 0.0, 10.000743, 9.90204 
4.265042e+3, 2.8412506e+2, -229404.83, -318058.16, 1.1295849, 0.0001488237, 0.00023600039, -229404.83, -73830.3, 0.0, 10.00074, 9.885094 
4.265042e+3, 2.940112e+2, -129706.305, -217747.7, -0.6660742, 0.00014942315, -0.00024755782, -129706.305, -71015.98, 0.0, 10.000737, 9.885872 
4.265042e+3, 3.039253e+2, -39970.58, -84731.62, 1.8144379, 0.00014916917, 0.00017533031, -39970.58, -39970.58, 0.0, 10.000734, 9.941832 
4.265042e+3, 3.13869e+2, -38897.29, -82494.2, 0.36145237, 0.00014764146, -0.000060106486, -38897.29, -38897.29, 0.0, 10.000731, 9.943343 
4.275044e+3, 1.2499852e+2, -1718997.6, -1724181.1, 0.52545595, 0.00015949784, 0.00005929695, -1718997.6, -3983.017, 0.0, 10.000797, 9.993926 
4.2750433e+3, 1.3499232e+2, -1621630.1, -1627401.4, -1.9567233, 0.00015918486, -0.00011178546, -1621630.1, -4554.4863, 0.0, 10.0007925, 9.993143 
4.2750433e+3, 1.4497957e+2, -1533496.5, -1548040.3, 0.42461413, 0.00015841356, 0.00015187664, -1533496.5, -14296.058, 0.0, 10.000788, 9.981512 
4.2750433e+3, 1.5496106e+2, -1435780.1, -1450724.0, -1.574441, 0.00015717777, -0.000040055173, -1435780.1, -14398.367, 0.0, 10.000784, 9.980981 
4.2750433e+3, 1.6493593e+2, -1347743.4, -1371870.6, 0.30042046, 0.00015660288, 0.000042436073, -1347743.4, -24115.328, 0.0, 10.000779, 9.96889 
4.2750433e+3, 1.7490488e+2, -1249794.9, -1274235.5, -2.5338123, 0.0001566997, -0.000057510835, -1249794.9, -23862.602, 0.0, 10.000776, 9.968477 
4.275043e+3, 1.8486719e+2, -1161718.5, -1195645.0, -0.26594713, 0.00015661262, 0.00008874214, -1161718.5, -33416.777, 0.0, 10.000772, 9.956042 
4.275043e+3, 1.9482325e+2, -1063578.0, -1097764.5, -2.326496, 0.00015633219, -0.000044424076, -1063578.0, -32845.773, 0.0, 10.00077, 9.955699 
4.275043e+3, 2.0477267e+2, -975421.5, -1019370.6, -0.49272817, 0.00015560353, 0.000077129, -975421.5, -42193.547, 0.0, 10.000766, 9.942939 
4.275043e+3, 2.1471563e+2, -877145.7, -921353.2, -2.7238836, 0.00015438948, -0.00011635179, -877145.7, -41358.953, 0.0, 10.000761, 9.942598 
4.275043e+3, 2.2465193e+2, -788867.56, -843095.06, -0.028877202, 0.00015394995, 0.00013238142, -788867.56, -50456.367, 0.0, 10.000757, 9.929556 
4.275043e+3, 2.3458154e+2, -690440.3, -744921.75, -2.4616477, 0.0001543862, -0.000076746896, -690440.3, -49339.41, 0.0, 10.000756, 9.929225 
4.275043e+3, 2.4450423e+2, -602120.94, -666975.56, -1.0440605, 0.000153999, 0.00008467717, -602120.94, -58262.293, 0.0, 10.000753, 9.915788 
4.275043e+3, 2.5442013e+2, -503378.72, -568307.1, -3.088299, 0.0001526273, -0.00010206583, -503378.72, -56695.938, 0.0, 10.000749, 9.915688 
4.275043e+3, 2.6432896e+2, -415152.84, -490961.13, -0.3980263, 0.00015154955, 0.00014347892, -415152.84, -65576.52, 0.0, 10.000746, 9.901614 
4.275043e+3, 2.742311e+2, -315875.75, -391354.2, -2.152669, 0.00015084769, -0.00019787284, -315875.75, -63340.695, 0.0, 10.000743, 9.902035 
4.275043e+3, 2.8412506e+2, -229408.94, -318066.7, 0.19524434, 0.00015064006, 0.00023561232, -229408.94, -73834.484, 0.0, 10.00074, 9.885088 
4.275043e+3, 2.940112e+2, -129710.375, -217756.22, -1.592231, 0.00015110684, -0.00024811947, -129710.375, -71020.06, 0.0, 10.000737, 9.885866 
4.275043e+3, 3.039253e+2, -39974.26, -84739.36, 0.5510429, 0.00015104412, 0.00017567365, -39974.26, -39974.26, 0.0, 10.000734, 9.941826 
4.275043e+3, 3.13869e+2, -38900.93, -82501.875, -0.9434763, 0.00015018864, -0.000057257603, -38900.93, -38900.93, 0.0, 10.000731, 9.943338 
4.2850444e+3, 1.2499864e+2, -1718961.5, -1724168.4, 1.7598567, 0.0001618133, 0.00005993179, -1718961.5, -3947.9712, 0.0, 10.000823, 9.99392 
4.2850444e+3, 1.3499242e+2, -1621593.6, -1627388.6, -0.10188782, 0.00016101857, -0.0001108062, -1621593.6, -4519.027, 0.0, 10.000818, 9.993137 
4.2850444e+3, 1.4497966e+2, -1533460.3, -1548029.1, 2.1972485, 0.00016026845, 0.00015269885, -1533460.3, -14260.806, 0.0, 10.000814, 9.981505 
4.2850444e+3, 1.5496115e+2, -1435742.9, -1450712.4, -1.0831841, 0.00015955907, -0.000040293773, -1435742.9, -14361.933, 0.0, 10.000811, 9.980974 
4.285044e+3, 1.6493602e+2, -1347705.4, -1371857.9, 0.75094455, 0.00015912492, 0.000042100422, -1347705.4, -24078.162, 0.0, 10.000807, 9.968884 
4.285044e+3, 1.7490496e+2, -1249758.1, -1274223.4, -1.1265584, 0.00015896968, -0.000056956826, -1249758.1, -23826.52, 0.0, 10.000802, 9.968471 
4.285044e+3, 1.8486725e+2, -1161683.0, -1195633.8, 1.3753709, 0.00015856184, 0.000089650806, -1161683.0, -33382.0, 0.0, 10.000798, 9.956036 
4.285044e+3, 1.9482332e+2, -1063544.1, -1097754.3, -1.2334704, 0.00015788895, -0.00004371908, -1063544.1, -32812.62, 0.0, 10.000794, 9.955693 
4.285044e+3, 2.0477273e+2, -975386.94, -1019359.8, 0.3534552, 0.00015734213, 0.00007758763, -975386.94, -42159.563, 0.0, 10.000791, 9.942933 
4.285044e+3, 2.147157e+2, -877108.2, -921340.94, -1.8880701, 0.00015693124, -0.00011618426, -877108.2, -41321.97, 0.0, 10.000788, 9.942593 
4.2850435e+3, 2.2465198e+2, -788830.56, -843083.0, 1.3727256, 0.00015648948, 0.00013236156, -788830.56, -50419.816, 0.0, 10.000785, 9.92955 
4.2850435e+3, 2.3458159e+2, -690407.94, -744912.2, -0.40380117, 0.00015601226, -0.00007683657, -690407.94, -49307.44, 0.0, 10.00078, 9.929219 
4.2850435e+3, 2.4450426e+2, -602090.0, -666967.06, 1.0657089, 0.0001554034, 0.00008476555, -602090.0, -58231.707, 0.0, 10.000776, 9.915781 
4.2850435e+3, 2.5442016e+2, -503345.13, -568297.44, -1.3188559, 0.00015463695, -0.00010150298, -503345.13, -56662.637, 0.0, 10.000774, 9.915682 
4.2850435e+3, 2.64329e+2, -415117.75, -490949.94, 1.256093, 0.00015394384, 0.00014416293, -415117.75, -65541.66, 0.0, 10.0007715, 9.901608 
4.2850435e+3, 2.7423114e+2, -315841.88, -391343.66, -0.5771002, 0.00015334398, -0.00019751745, -315841.88, -63307.0, 0.0, 10.000768, 9.902029 
4.2850435e+3, 2.8412506e+2, -229376.75, -318057.7, 1.6721376, 0.00015299648, 0.00023579094, -229376.75, -73802.41, 0.0, 10.000765, 9.885082 
4.2850435e+3, 2.940112e+2, -129679.75, -217748.13, -0.4095188, 0.00015299361, -0.00024790765, -129679.75, -70989.49, 0.0, 10.000761, 9.88586 
4.2850435e+3, 3.039253e+2, -39943.918, -84731.33, 1.3537744, 0.00015286048, 0.00017599903, -39943.918, -39943.918, 0.0, 10.000758, 9.94182 
4.2850435e+3, 3.13869e+2, -38868.76, -82492.94, -0.6646121, 0.00015253072, -0.000056700916, -38868.76, -38868.76, 0.0, 10.000756, 9.943333 
4.2950454e+3, 1.2499875e+2, -1718965.8, -1724176.4, 0.023859497, 0.00016409872, 0.000059961276, -1718965.8, -3953.3389, 0.0, 10.000823, 9.993916 
4.2950454e+3, 1.3499252e+2, -1621597.8, -1627396.6, -1.8432455, 0.0001626923, -0.0001129928, -1621597.8, -4524.283, 0.0, 10.000818, 9.993132 
4.2950448e+3, 1.4497976e+2, -1533467.6, -1548043.1, 0.7814677, 0.00016210401, 0.00015064444, -1533467.6, -14269.158, 0.0, 10.000814, 9.981497 
4.2950448e+3, 1.5496124e+2, -1435750.1, -1450726.3, -2.491431, 0.00016233372, -0.00004006772, -1435750.1, -14370.134, 0.0, 10.000811, 9.980965 
4.2950448e+3, 1.649361e+2, -1347709.5, -1371865.9, -0.7873703, 0.00016189634, 0.00004296024, -1347709.5, -24083.162, 0.0, 10.000807, 9.96888 
4.2950448e+3, 1.7490503e+2, -1249762.1, -1274231.4, -2.6690507, 0.00016077799, -0.000057138543, -1249762.1, -23831.402, 0.0, 10.000803, 9.968466 
4.2950448e+3, 1.8486732e+2, -1161688.8, -1195644.8, -0.23033568, 0.00015992136, 0.00008930989, -1161688.8, -33388.406, 0.0, 10.000798, 9.956029 
4.2950445e+3, 1.948234e+2, -1063549.8, -1097765.3, -2.8374116, 0.00015933701, -0.00004329636, -1063549.8, -32818.902, 0.0, 10.000794, 9.955686 
4.2950445e+3, 2.047728e+2, -975391.8, -1019369.4, -0.66232175, 0.00015932071, 0.00007889257, -975391.8, -42165.023, 0.0, 10.000791, 9.942927 
4.2950445e+3, 2.1471576e+2, -877113.0, -921350.44, -2.891419, 0.00015991848, -0.00011386775, -877113.0, -41327.316, 0.0, 10.000788, 9.942586 
4.2950445e+3, 2.2465202e+2, -788834.5, -843090.94, -0.26812533, 0.0001592788, 0.00013412359, -788834.5, -50424.305, 0.0, 10.000785, 9.929545 
4.2950445e+3, 2.3458163e+2, -690411.8, -744920.0, -2.0691366, 0.00015723871, -0.00007740019, -690411.8, -49311.785, 0.0, 10.00078, 9.9292145 
4.2950445e+3, 2.445043e+2, -602095.06, -666977.25, 0.101216555, 0.00015626197, 0.000083643434, -602095.06, -58237.113, 0.0, 10.000776, 9.915774 
4.2950445e+3, 2.544202e+2, -503350.16, -568307.6, -2.2477205, 0.00015655594, -0.000101071375, -503350.16, -56667.984, 0.0, 10.000774, 9.915675 
4.2950445e+3, 2.6432902e+2, -415121.97, -490958.6, -0.02925028, 0.0001566134, 0.00014532145, -415121.97, -65546.16, 0.0, 10.0007715, 9.901603 
4.2950445e+3, 2.7423117e+2, -315846.0, -391352.16, -1.887009, 0.00015636657, -0.00019668866, -315846.0, -63311.332, 0.0, 10.000768, 9.902023 
4.2950445e+3, 2.841251e+2, -229381.39, -318067.3, 0.39479062, 0.00015588407, 0.00023652687, -229381.39, -73807.2, 0.0, 10.000765, 9.885076 
4.2950445e+3, 2.940112e+2, -129684.38, -217757.81, -1.6831553, 0.00015508012, -0.0002469354, -129684.38, -70994.21, 0.0, 10.000761, 9.885854 
4.2950445e+3, 3.039253e+2, -39948.54, -84741.04, 0.48129404, 0.00015461938, 0.00017630681, -39948.54, -39948.54, 0.0, 10.000758, 9.941813 
4.2950445e+3, 3.13869e+2, -38873.4, -82502.664, -1.4902259, 0.00015467172, -0.000058397778, -38873.4, -38873.4, 0.0, 10.000756, 9.943326 
4.3050465e+3, 1.2499886e+2, -1718928.3, -1724163.9, 1.9145758, 0.00016641237, 0.000061201325, -1718928.3, -3916.9512, 0.0, 10.00085, 9.993909 
4.305046e+3, 1.3499263e+2, -1621558.9, -1627383.4, -1.1406212, 0.00016494069, -0.00011339529, -1621558.9, -4486.438, 0.0, 10.000846, 9.993126 
4.305046e+3, 1.4497988e+2, -1533428.9, -1548030.5, 1.5609971, 0.00016428385, 0.00015015935, -1533428.9, -14231.53, 0.0, 10.000842, 9.98149 
4.305046e+3, 1.5496133e+2, -1435713.0, -1450714.5, -0.32749107, 0.00016444188, -0.00003906976, -1435713.0, -14333.999, 0.0, 10.000837, 9.980958 
4.305046e+3, 1.6493618e+2, -1347672.6, -1371853.6, 1.6830285, 0.00016389233, 0.000044229393, -1347672.6, -24047.203, 0.0, 10.000833, 9.968873 
4.3050453e+3, 1.7490512e+2, -1249725.4, -1274219.3, -1.0960616, 0.00016262103, -0.000056831228, -1249725.4, -23795.467, 0.0, 10.000829, 9.968459 
4.3050453e+3, 1.848674e+2, -1161651.8, -1195632.9, 1.128961, 0.00016184982, 0.00008944997, -1161651.8, -33352.266, 0.0, 10.000825, 9.956022 
4.3050453e+3, 1.9482347e+2, -1063512.3, -1097753.1, -1.0372545, 0.00016160004, -0.000042492513, -1063512.3, -32782.094, 0.0, 10.000821, 9.955679 
4.3050453e+3, 2.0477286e+2, -975354.56, -1019357.1, 1.6562718, 0.00016158192, 0.000079838195, -975354.56, -42128.49, 0.0, 10.000817, 9.942921 
4.3050453e+3, 2.1471582e+2, -877077.9, -921339.4, -0.5298906, 0.00016181395, -0.00011334423, -877077.9, -41292.785, 0.0, 10.0008135, 9.94258 
4.3050453e+3, 2.2465208e+2, -788800.06, -843080.6, 1.4459246, 0.00016113755, 0.00013433876, -788800.06, -50390.4, 0.0, 10.00081, 9.929539 
4.3050453e+3, 2.3458168e+2, -690376.2, -744909.2, -1.2820622, 0.00015943294, -0.00007736424, -690376.2, -49276.64, 0.0, 10.000807, 9.929208 
4.3050453e+3, 2.4450433e+2, -602059.6, -666966.44, 0.8677866, 0.00015856091, 0.00008377479, -602059.6, -58202.094, 0.0, 10.000803, 9.915769 
4.305045e+3, 2.5442022e+2, -503316.88, -568298.0, -1.0803361, 0.00015868369, -0.00010051643, -503316.88, -56635.066, 0.0, 10.000799, 9.9156685 
4.305045e+3, 2.6432905e+2, -415089.25, -490949.0, 1.284464, 0.00015880853, 0.00014591365, -415089.25, -65513.73, 0.0, 10.000796, 9.901597 
4.305045e+3, 2.7423117e+2, -315812.4, -391342.22, -0.7600457, 0.00015893334, -0.00019655122, -315812.4, -63277.98, 0.0, 10.000793, 9.902018 
4.305045e+3, 2.841251e+2, -229347.4, -318057.7, 1.4363025, 0.00015857737, 0.00023656304, -229347.4, -73773.39, 0.0, 10.000791, 9.88507 
4.305045e+3, 2.9401124e+2, -129650.15, -217748.19, -0.5241496, 0.00015756304, -0.00024651445, -129650.15, -70960.09, 0.0, 10.000788, 9.885848 
4.305045e+3, 3.039253e+2, -39915.457, -84732.58, 1.7542752, 0.00015686415, 0.00017697466, -39915.457, -39915.457, 0.0, 10.000784, 9.941807 
4.305045e+3, 3.13869e+2, -38842.27, -82495.21, -0.33371934, 0.00015664037, -0.000057692323, -38842.27, -38842.27, 0.0, 10.000781, 9.943319 
4.315047e+3, 1.24998994e+2, -1718935.3, -1724177.0, 0.5477946, 0.00016875421, 0.000063836, -1718935.3, -3925.1763, 0.0, 10.00085, 9.993901 
4.315047e+3, 1.3499275e+2, -1621565.8, -1627396.5, -2.5028162, 0.00016775406, -0.00011204585, -1621565.8, -4494.4966, 0.0, 10.000846, 9.993117 
4.315047e+3, 1.4497998e+2, -1533433.1, -1548038.6, -0.16481629, 0.00016680204, 0.000151214, -1533433.1, -14236.816, 0.0, 10.000842, 9.981484 
4.315047e+3, 1.5496144e+2, -1435717.3, -1450722.5, -2.0587611, 0.00016589563, -0.00003731316, -1435717.3, -14339.196, 0.0, 10.000837, 9.980953 
4.3150464e+3, 1.6493629e+2, -1347678.8, -1371865.4, 0.16194671, 0.00016512693, 0.00004590155, -1347678.8, -24054.283, 0.0, 10.0008335, 9.968865 
4.3150464e+3, 1.7490521e+2, -1249731.5, -1274231.0, -2.6132402, 0.00016449849, -0.00005604355, -1249731.5, -23802.4, 0.0, 10.000829, 9.9684515 
4.3150464e+3, 1.8486749e+2, -1161656.5, -1195642.1, -0.28015932, 0.0001643375, 0.000090062116, -1161656.5, -33357.816, 0.0, 10.000825, 9.956017 
4.3150464e+3, 1.9482355e+2, -1063516.9, -1097762.4, -2.4467044, 0.00016466404, -0.00004131411, -1063516.9, -32787.523, 0.0, 10.000821, 9.955673 
4.3150464e+3, 2.0477293e+2, -975359.4, -1019366.56, 0.18925367, 0.00016412114, 0.000080431375, -975359.4, -42133.95, 0.0, 10.000817, 9.942915 
4.3150464e+3, 2.1471588e+2, -877082.56, -921348.7, -1.9998864, 0.00016263712, -0.0001145814, -877082.56, -41298.117, 0.0, 10.0008135, 9.9425745 
4.3150458e+3, 2.2465214e+2, -788805.9, -843092.2, 0.11542032, 0.00016208236, 0.00013303479, -788805.9, -50396.785, 0.0, 10.00081, 9.929531 
4.3150458e+3, 2.3458174e+2, -690382.0, -744920.8, -2.6028109, 0.00016257848, -0.000076739554, -690382.0, -49282.934, 0.0, 10.000807, 9.9292 
4.3150458e+3, 2.4450438e+2, -602064.0, -666975.25, -0.54841125, 0.00016227544, 0.00008513709, -602064.0, -58206.9, 0.0, 10.000803, 9.915763 
4.3150458e+3, 2.5442028e+2, -503321.13, -568306.6, -2.504446, 0.00016101675, -0.00009984024, -503321.13, -56639.688, 0.0, 10.000799, 9.915663 
4.3150458e+3, 2.6432908e+2, -415093.78, -490958.28, 0.21757957, 0.00016053772, 0.0001459498, -415093.78, -65518.57, 0.0, 10.000796, 9.901591 
4.3150458e+3, 2.742312e+2, -315816.9, -391351.47, -1.8030459, 0.00016105264, -0.0001970929, -315816.9, -63282.723, 0.0, 10.000793, 9.902011 
4.3150458e+3, 2.8412512e+2, -229351.86, -318066.97, 0.29096934, 0.00016108027, 0.0002359117, -229351.86, -73778.055, 0.0, 10.000791, 9.885063 
4.3150458e+3, 2.9401124e+2, -129654.55, -217757.4, -1.6784201, 0.000160436, -0.000246635, -129654.55, -70964.64, 0.0, 10.000788, 9.885841 
4.3150458e+3, 3.039253e+2, -39920.273, -84742.695, 0.44643104, 0.00015958675, 0.00017799636, -39920.273, -39920.273, 0.0, 10.000784, 9.9418 
4.3150458e+3, 3.13869e+2, -38847.14, -82505.44, -1.6579477, 0.00015843986, -0.000054626707, -38847.14, -38847.14, 0.0, 10.000781, 9.943312 
4.3250477e+3, 1.2499911e+2, -1718895.4, -1724163.6, 2.1488569, 0.00017119835, 0.00006421668, -1718895.4, -3886.5354, 0.0, 10.000877, 9.993894 
4.3250477e+3, 1.3499285e+2, -1621527.0, -1627383.8, -0.0073512765, 0.00016997124, -0.00011072599, -1621527.0, -4456.8423, 0.0, 10.000874, 9.993111 
4.3250477e+3, 1.449801e+2, -1533394.6, -1548025.6, 1.9573052, 0.00016890223, 0.00015252676, -1533394.6, -14199.377, 0.0, 10.00087, 9.981479 
4.3250474e+3, 1.5496154e+2, -1435679.0, -1450709.9, -1.0397996, 0.0001679893, -0.000036956775, -1435679.0, -14302.037, 0.0, 10.000865, 9.980947 
4.3250474e+3, 1.6493641e+2, -1347640.8, -1371853.1, 1.1631961, 0.00016730092, 0.000046023062, -1347640.8, -24017.273, 0.0, 10.00086, 9.968859 
4.3250474e+3, 1.749053e+2, -1249693.4, -1274218.8, -1.0630755, 0.00016684154, -0.000055420645, -1249693.4, -23765.256, 0.0, 10.000856, 9.968446 
4.3250474e+3, 1.8486759e+2, -1161618.4, -1195629.6, 1.4026645, 0.00016670451, 0.000090883404, -1161618.4, -33320.53, 0.0, 10.000853, 9.95601 
4.3250474e+3, 1.9482362e+2, -1063479.3, -1097750.1, -1.1575403, 0.00016690353, -0.000040610223, -1063479.3, -32750.684, 0.0, 10.000849, 9.9556675 
4.3250468e+3, 2.0477301e+2, -975322.44, -1019355.1, 0.9815911, 0.00016627047, 0.00008086719, -975322.44, -42097.77, 0.0, 10.000845, 9.942908 
4.3250468e+3, 2.1471594e+2, -877046.3, -921337.7, -1.6716579, 0.00016473678, -0.00011457618, -877046.3, -41262.543, 0.0, 10.00084, 9.942568 
4.3250468e+3, 2.246522e+2, -788769.75, -843080.75, 0.8702923, 0.00016421788, 0.00013305452, -788769.75, -50361.26, 0.0, 10.000836, 9.929525 
4.3250468e+3, 2.3458178e+2, -690346.3, -744909.7, -0.7650856, 0.0001648467, -0.000076201504, -690346.3, -49247.805, 0.0, 10.000833, 9.929194 
4.3250468e+3, 2.4450444e+2, -602028.7, -666965.06, 1.5594711, 0.00016473366, 0.00008592958, -602028.7, -58172.094, 0.0, 10.00083, 9.915756 
4.3250468e+3, 2.544203e+2, -503285.34, -568296.3, -1.1547829, 0.0001637333, -0.00009910864, -503285.34, -56604.336, 0.0, 10.000826, 9.915656 
4.3250468e+3, 2.643291e+2, -415058.0, -490947.56, 1.2262446, 0.00016326258, 0.00014658207, -415058.0, -65483.164, 0.0, 10.000823, 9.901585 
4.3250468e+3, 2.7423123e+2, -315782.63, -391341.56, -0.87686265, 0.0001634676, -0.00019660791, -315782.63, -63248.746, 0.0, 10.000819, 9.902005 
4.3250468e+3, 2.8412515e+2, -229318.38, -318057.4, 1.2358304, 0.000163306, 0.00023620961, -229318.38, -73744.8, 0.0, 10.000815, 9.885057 
4.3250462e+3, 2.9401127e+2, -129621.234, -217748.02, -0.7078512, 0.00016263906, -0.00024657854, -129621.234, -70931.5, 0.0, 10.000813, 9.885836 
4.3250462e+3, 3.039253e+2, -39887.12, -84733.914, 1.5071547, 0.00016187661, 0.0001782284, -39887.117, -39887.117, 0.0, 10.00081, 9.941793 
4.3250462e+3, 3.13869e+2, -38812.938, -82496.195, -0.2786386, 0.00016097761, -0.00005359911, -38812.938, -38812.938, 0.0, 10.000807, 9.943306 
4.3350488e+3, 1.2499925e+2, -1718900.3, -1724173.0, 0.58663154, 0.00017374322, 0.000062384956, -1718900.3, -3892.7297, 0.0, 10.000878, 9.993888 
4.3350488e+3, 1.34993e+2, -1621531.9, -1627393.0, -1.5713682, 0.00017160375, -0.00010943435, -1621531.9, -4462.959, 0.0, 10.000874, 9.993105 
4.3350482e+3, 1.449802e+2, -1533401.4, -1548038.4, 0.19210285, 0.0001705925, 0.00015409343, -1533401.4, -14207.276, 0.0, 10.00087, 9.98147 
4.3350482e+3, 1.5496166e+2, -1435685.6, -1450722.5, -2.8029995, 0.00017071143, -0.00003797483, -1435685.6, -14309.752, 0.0, 10.000865, 9.980939 
4.3350482e+3, 1.649365e+2, -1347645.6, -1371862.5, -0.28714675, 0.00017039725, 0.00004462215, -1347645.6, -24023.18, 0.0, 10.00086, 9.968853 
4.3350482e+3, 1.749054e+2, -1249698.3, -1274228.1, -2.5135689, 0.00016964192, -0.000054959273, -1249698.3, -23771.06, 0.0, 10.000856, 9.968439 
4.335048e+3, 1.8486768e+2, -1161624.0, -1195640.4, -0.079714455, 0.00016895344, 0.000091910304, -1161624.0, -33327.004, 0.0, 10.000853, 9.956003 
4.335048e+3, 1.9482371e+2, -1063484.8, -1097760.9, -2.6394584, 0.00016833402, -0.000040372015, -1063484.8, -32757.027, 0.0, 10.000849, 9.955661 
4.335048e+3, 2.0477308e+2, -975328.2, -1019366.4, -0.5950512, 0.00016803753, 0.00008114835, -975328.2, -42104.258, 0.0, 10.000845, 9.942902 
4.335048e+3, 2.1471602e+2, -877052.0, -921348.94, -3.2480974, 0.00016808996, -0.00011335183, -877052.0, -41268.9, 0.0, 10.00084, 9.94256 
4.335048e+3, 2.2465226e+2, -788773.44, -843088.1, -0.5214539, 0.00016752265, 0.00013437339, -788773.44, -50365.574, 0.0, 10.000836, 9.929521 
4.335048e+3, 2.3458184e+2, -690349.9, -744916.9, -2.157194, 0.00016625389, -0.00007574797, -690349.9, -49251.965, 0.0, 10.000833, 9.92919 
4.335048e+3, 2.4450448e+2, -602034.44, -666976.6, 0.2986386, 0.0001659589, 0.00008616338, -602034.44, -58178.35, 0.0, 10.00083, 9.915749 
4.3350473e+3, 2.5442034e+2, -503291.1, -568308.0, -2.4054465, 0.00016682685, -0.00009832255, -503291.1, -56610.547, 0.0, 10.000826, 9.915648 
4.3350473e+3, 2.6432914e+2, -415062.78, -490957.34, -0.13957986, 0.0001669655, 0.00014779941, -415062.78, -65488.324, 0.0, 10.000823, 9.901579 
4.3350473e+3, 2.7423126e+2, -315787.28, -391351.16, -2.2495813, 0.00016617322, -0.00019511496, -315787.28, -63253.723, 0.0, 10.000819, 9.9019985 
4.3350473e+3, 2.8412518e+2, -229322.8, -318066.63, 0.070369095, 0.00016525987, 0.0002374395, -229322.8, -73749.49, 0.0, 10.000815, 9.885051 
4.3350473e+3, 2.9401127e+2, -129625.586, -217757.14, -1.8564591, 0.00016418469, -0.0002463483, -129625.586, -70936.05, 0.0, 10.000813, 9.885829 
4.3350473e+3, 3.0392534e+2, -39891.383, -84742.88, 0.45129248, 0.00016374196, 0.00017768519, -39891.383, -39891.383, 0.0, 10.00081, 9.941788 
4.3350473e+3, 3.13869e+2, -38817.195, -82505.164, -1.3255419, 0.00016424073, -0.00005457217, -38817.195, -38817.195, 0.0, 10.000807, 9.943299 
4.34505e+3, 1.2499938e+2, -1718859.5, -1724158.4, 2.1473715, 0.00017597122, 0.000063071326, -1718859.5, -3853.2754, 0.0, 10.000906, 9.993882 
4.3450493e+3, 1.3499312e+2, -1621492.6, -1627379.4, -0.40008476, 0.0001737622, -0.00010939771, -1621492.6, -4424.9707, 0.0, 10.000901, 9.993098 
4.3450493e+3, 1.4498033e+2, -1533363.0, -1548026.6, 1.5227041, 0.00017285567, 0.00015411634, -1533363.0, -14170.198, 0.0, 10.000897, 9.981463 
4.3450493e+3, 1.5496178e+2, -1435646.0, -1450710.1, -1.0652221, 0.00017325446, -0.00003732676, -1435646.0, -14271.203, 0.0, 10.000894, 9.980931 
4.3450493e+3, 1.649366e+2, -1347605.1, -1371848.6, 1.4721322, 0.00017305372, 0.00004535489, -1347605.1, -23983.654, 0.0, 10.000889, 9.968846 
4.345049e+3, 1.7490551e+2, -1249659.0, -1274215.0, -1.1098789, 0.00017224233, -0.000054692264, -1249659.0, -23732.836, 0.0, 10.000885, 9.968433 
4.345049e+3, 1.8486777e+2, -1161586.0, -1195628.4, 1.2539979, 0.00017139173, 0.000092045084, -1161586.0, -33289.953, 0.0, 10.00088, 9.9559965 
4.345049e+3, 1.9482379e+2, -1063447.5, -1097749.4, -1.1767914, 0.00017049945, -0.00004002054, -1063447.5, -32720.648, 0.0, 10.000876, 9.955654 
4.345049e+3, 2.0477316e+2, -975290.94, -1019354.9, 1.1968087, 0.00017023514, 0.00008182252, -975290.94, -42067.84, 0.0, 10.000872, 9.942895 
4.345049e+3, 2.1471609e+2, -877014.25, -921337.25, -1.050019, 0.00017064983, -0.000112239984, -877014.25, -41231.86, 0.0, 10.000869, 9.9425535 
4.345049e+3, 2.2465234e+2, -788735.7, -843076.3, 1.2559506, 0.00017016495, 0.0001352631, -788735.7, -50328.457, 0.0, 10.000864, 9.929514 
4.3450484e+3, 2.345819e+2, -690313.1, -744905.7, -1.7533801, 0.00016866197, -0.000075826414, -690313.1, -49215.773, 0.0, 10.00086, 9.929183 
4.3450484e+3, 2.4450454e+2, -601998.3, -666966.0, 0.52714306, 0.0001682975, 0.00008600803, -601998.3, -58142.77, 0.0, 10.000856, 9.915742 
4.3450484e+3, 2.544204e+2, -503255.16, -568297.6, -1.4282361, 0.00016929298, -0.00009748981, -503255.16, -56575.066, 0.0, 10.000854, 9.915642 
4.3450484e+3, 2.643292e+2, -415026.53, -490946.28, 1.2131206, 0.00016944304, 0.00014897765, -415026.53, -65452.49, 0.0, 10.00085, 9.901572 
4.3450484e+3, 2.742313e+2, -315751.16, -391340.25, -0.7419706, 0.00016851389, -0.00019441116, -315751.16, -63217.96, 0.0, 10.000846, 9.901993 
4.3450484e+3, 2.841252e+2, -229287.17, -318056.56, 1.6930509, 0.00016756178, 0.00023783983, -229287.17, -73714.15, 0.0, 10.000843, 9.885044 
4.3450484e+3, 2.940113e+2, -129590.26, -217747.39, -0.649615, 0.00016658287, -0.0002460136, -129590.26, -70900.95, 0.0, 10.00084, 9.885822 
4.3450484e+3, 3.0392534e+2, -39856.44, -84733.56, 1.2969879, 0.00016623508, 0.00017787507, -39856.44, -39856.44, 0.0, 10.000837, 9.941781 
4.3450484e+3, 3.13869e+2, -38782.03, -82495.75, -0.98288155, 0.00016682556, -0.000054646323, -38782.03, -38782.03, 0.0, 10.000834, 9.943293 
4.355051e+3, 1.2499953e+2, -1718865.4, -1724169.3, 0.28055695, 0.00017788909, 0.00006622699, -1718865.4, -3860.4895, 0.0, 10.000906, 9.9938755 
4.3550503e+3, 1.3499326e+2, -1621498.4, -1627390.3, -2.268939, 0.00017643672, -0.00011059225, -1621498.4, -4432.018, 0.0, 10.000901, 9.993092 
4.3550503e+3, 1.4498048e+2, -1533368.9, -1548037.6, 0.13822854, 0.000175681, 0.0001526251, -1533368.9, -14177.208, 0.0, 10.000897, 9.981456 
4.3550503e+3, 1.549619e+2, -1435651.8, -1450721.1, -2.4489453, 0.00017562235, -0.00003504422, -1435651.8, -14278.115, 0.0, 10.000894, 9.980925 
4.3550503e+3, 1.6493672e+2, -1347610.8, -1371859.5, -0.2506717, 0.00017527938, 0.00004818061, -1347610.8, -23990.469, 0.0, 10.000889, 9.96884 
4.3550497e+3, 1.7490561e+2, -1249664.6, -1274225.9, -2.8348777, 0.00017464704, -0.000054615877, -1249664.6, -23739.492, 0.0, 10.000885, 9.968426 
4.3550497e+3, 1.8486786e+2, -1161591.3, -1195638.8, -0.35768938, 0.00017401612, 0.000091304726, -1161591.3, -33296.21, 0.0, 10.00088, 9.95599 
4.3550497e+3, 1.9482388e+2, -1063452.8, -1097759.6, -2.7877462, 0.00017338616, -0.000039557923, -1063452.8, -32726.785, 0.0, 10.000876, 9.955647 
4.3550497e+3, 2.0477325e+2, -975295.8, -1019364.5, -0.20211083, 0.00017285548, 0.00008288243, -975295.8, -42073.566, 0.0, 10.000872, 9.942888 
4.3550494e+3, 2.1471617e+2, -877019.06, -921346.8, -2.447123, 0.00017243189, -0.00011123786, -877019.06, -41237.47, 0.0, 10.000869, 9.942548 
4.3550494e+3, 2.2465241e+2, -788742.06, -843089.1, -0.3256663, 0.00017215783, 0.00013573226, -788742.06, -50335.586, 0.0, 10.000864, 9.929506 
4.3550494e+3, 2.3458198e+2, -690319.5, -744918.5, -3.3363175, 0.00017205239, -0.000076427124, -690319.5, -49222.773, 0.0, 10.00086, 9.929174 
4.3550494e+3, 2.445046e+2, -602002.75, -666975.0, -0.72222704, 0.0001717287, 0.00008547032, -602002.75, -58147.74, 0.0, 10.000856, 9.915736 
4.3550494e+3, 2.5442046e+2, -503259.4, -568306.4, -2.6640434, 0.00017114394, -0.00009661127, -503259.4, -56579.85, 0.0, 10.000854, 9.915636 
4.3550494e+3, 2.6432922e+2, -415030.9, -490955.28, -0.14318639, 0.00017071876, 0.00015011786, -415030.9, -65457.33, 0.0, 10.00085, 9.9015665 
4.3550494e+3, 2.7423134e+2, -315755.5, -391349.2, -2.1086895, 0.0001704969, -0.00019448137, -315755.5, -63222.684, 0.0, 10.000846, 9.901987 
4.3550494e+3, 2.8412524e+2, -229292.33, -318067.3, 0.5070925, 0.00017020562, 0.00023742646, -229292.33, -73719.64, 0.0, 10.000843, 9.885037 
4.3550494e+3, 2.9401132e+2, -129595.43, -217758.22, -1.8168095, 0.00016981795, -0.00024557632, -129595.43, -70906.38, 0.0, 10.00084, 9.885816 
4.3550494e+3, 3.0392537e+2, -39861.656, -84744.516, 0.2989664, 0.00016934457, 0.00017878429, -39861.656, -39861.656, 0.0, 10.000837, 9.941773 
4.3550488e+3, 3.1386903e+2, -38787.26, -82506.734, -1.9590877, 0.00016874529, -0.000053838732, -38787.26, -38787.26, 0.0, 10.000834, 9.943285 
4.3650514e+3, 1.2499967e+2, -1718824.0, -1724155.6, 2.4841456, 0.00017996848, 0.0000671725, -1718824.0, -3820.5327, 0.0, 10.000936, 9.993868 
4.3650514e+3, 1.3499339e+2, -1621456.1, -1627376.3, -0.52703846, 0.00017925842, -0.000110424226, -1621456.1, -4391.194, 0.0, 10.000932, 9.993084 
4.3650514e+3, 1.449806e+2, -1533326.8, -1548023.1, 1.8182507, 0.00017858436, 0.00015272819, -1533326.8, -14136.406, 0.0, 10.000927, 9.981449 
4.3650514e+3, 1.5496202e+2, -1435611.8, -1450707.8, -0.73594546, 0.00017794398, -0.00003429037, -1435611.8, -14239.319, 0.0, 10.000922, 9.980918 
4.3650508e+3, 1.6493684e+2, -1347571.8, -1371847.1, 1.3798386, 0.00017745007, 0.000049050563, -1347571.8, -23952.555, 0.0, 10.000917, 9.968833 
4.3650508e+3, 1.7490572e+2, -1249625.1, -1274213.3, -1.3411735, 0.00017710587, -0.000054174732, -1249625.1, -23701.055, 0.0, 10.000914, 9.968419 
4.3650508e+3, 1.8486796e+2, -1161551.3, -1195625.6, 1.0493556, 0.00017668655, 0.00009164447, -1161551.3, -33257.227, 0.0, 10.000909, 9.955983 
4.3650508e+3, 1.94824e+2, -1063413.0, -1097746.8, -1.5059174, 0.00017618819, -0.00003897714, -1063413.0, -32687.932, 0.0, 10.000905, 9.955641 
4.3650502e+3, 2.0477335e+2, -975256.75, -1019352.2, 0.85957694, 0.00017551905, 0.000083344945, -975256.75, -42035.38, 0.0, 10.0009, 9.942882 
4.3650502e+3, 2.1471626e+2, -876981.1, -921335.25, -1.9149367, 0.00017466485, -0.00011128206, -876981.1, -41200.395, 0.0, 10.000896, 9.942541 
4.3650502e+3, 2.2465248e+2, -788704.4, -843078.0, 0.45156115, 0.0001743897, 0.00013576417, -788704.4, -50298.633, 0.0, 10.000893, 9.929499 
4.3650502e+3, 2.3458205e+2, -690280.56, -744906.9, -1.6613398, 0.00017476907, -0.00007565973, -690280.56, -49184.56, 0.0, 10.000889, 9.929168 
4.3650502e+3, 2.4450468e+2, -601963.5, -666962.5, 1.1642612, 0.00017447276, 0.00008658767, -601963.5, -58109.137, 0.0, 10.000885, 9.9157295 
4.3650502e+3, 2.5442052e+2, -503222.22, -568295.0, -1.2821707, 0.00017336878, -0.00009560461, -503222.22, -56543.19, 0.0, 10.000881, 9.91563 
4.3650502e+3, 2.6432928e+2, -414994.63, -490944.75, 0.93419486, 0.00017273877, 0.0001507208, -414994.63, -65421.527, 0.0, 10.000877, 9.90156 
4.36505e+3, 2.7423137e+2, -315718.53, -391338.44, -1.5595121, 0.0001727134, -0.00019465383, -315718.53, -63186.117, 0.0, 10.0008745, 9.90198 
4.36505e+3, 2.8412527e+2, -229254.86, -318056.34, 1.0320879, 0.00017262626, 0.00023693661, -229254.86, -73682.516, 0.0, 10.000872, 9.885031 
4.36505e+3, 2.9401135e+2, -129557.984, -217747.39, -0.8354018, 0.00017245134, -0.0002457551, -129557.984, -70869.22, 0.0, 10.000869, 9.885809 
4.36505e+3, 3.039254e+2, -39825.066, -84734.57, 1.713848, 0.00017192286, 0.00017909192, -39825.066, -39825.066, 0.0, 10.000865, 9.941767 
4.36505e+3, 3.1386903e+2, -38751.617, -82497.28, -0.15938117, 0.00017087058, -0.000052790096, -38751.617, -38751.617, 0.0, 10.000862, 9.943278 
4.3750522e+3, 1.2499982e+2, -1718830.9, -1724168.6, 0.84714735, 0.00018220655, 0.00006595273, -1718830.9, -3828.8862, 0.0, 10.000936, 9.99386 
4.3750522e+3, 1.3499352e+2, -1621463.0, -1627389.3, -2.1603353, 0.00018222503, -0.000108920576, -1621463.0, -4399.4146, 0.0, 10.000932, 9.993076 
4.3750522e+3, 1.4498073e+2, -1533332.5, -1548034.0, -0.0011229608, 0.00018156477, 0.0001543937, -1533332.5, -14143.45, 0.0, 10.000927, 9.981442 
4.3750522e+3, 1.5496214e+2, -1435617.4, -1450718.6, -2.5576718, 0.00018022062, -0.000035034704, -1435617.4, -14246.212, 0.0, 10.000922, 9.980911 
4.375052e+3, 1.6493696e+2, -1347577.6, -1371858.6, -0.18825275, 0.0001795672, 0.000048003843, -1347577.6, -23959.713, 0.0, 10.000917, 9.968825 
4.375052e+3, 1.7490584e+2, -1249631.0, -1274224.8, -2.907007, 0.0001796182, -0.000053375912, -1249631.0, -23708.09, 0.0, 10.000914, 9.968411 
4.375052e+3, 1.8486807e+2, -1161556.9, -1195636.4, -0.554618, 0.00017940256, 0.00009304298, -1161556.9, -33263.848, 0.0, 10.000909, 9.9559765 
4.375052e+3, 1.9482408e+2, -1063418.5, -1097757.5, -3.1112018, 0.00017890775, -0.00003828039, -1063418.5, -32694.412, 0.0, 10.000905, 9.955633 
4.3750513e+3, 2.0477344e+2, -975262.75, -1019364.0, -0.7704314, 0.00017822544, 0.00008322184, -975262.75, -42042.27, 0.0, 10.0009, 9.942874 
4.3750513e+3, 2.1471635e+2, -876987.06, -921347.0, -3.5446968, 0.00017734015, -0.000112352376, -876987.06, -41207.137, 0.0, 10.000896, 9.9425335 
4.3750513e+3, 2.2465256e+2, -788709.0, -843087.3, -0.7930981, 0.00017685619, 0.00013536717, -788709.0, -50304.035, 0.0, 10.000893, 9.929493 
4.3750513e+3, 2.3458213e+2, -690285.1, -744916.06, -2.8953135, 0.00017682582, -0.000073550655, -690285.1, -49189.836, 0.0, 10.00089, 9.929162 
4.3750513e+3, 2.4450473e+2, -601968.8, -666973.25, -0.5078564, 0.0001765438, 0.00008932819, -601968.8, -58115.117, 0.0, 10.000886, 9.915723 
4.3750513e+3, 2.5442058e+2, -503227.47, -568305.7, -2.9751422, 0.00017596055, -0.00009447222, -503227.47, -56549.047, 0.0, 10.000881, 9.915623 
4.3750507e+3, 2.6432934e+2, -415000.06, -490955.88, -0.22924823, 0.00017548878, 0.00015079688, -415000.06, -65427.46, 0.0, 10.000877, 9.901553 
4.3750507e+3, 2.7423143e+2, -315723.9, -391349.53, -2.6864567, 0.00017515922, -0.00019492669, -315723.9, -63191.93, 0.0, 10.0008745, 9.901973 
4.3750507e+3, 2.841253e+2, -229259.31, -318065.63, -0.08500854, 0.00017482859, 0.00023637163, -229259.31, -73687.33, 0.0, 10.000872, 9.885025 
4.3750507e+3, 2.9401138e+2, -129562.3, -217756.44, -1.9534956, 0.00017449533, -0.0002465379, -129562.3, -70873.84, 0.0, 10.000869, 9.885803 
4.3750507e+3, 3.0392542e+2, -39829.555, -84744.01, 0.5040279, 0.00017398082, 0.00017880992, -39829.555, -39829.555, 0.0, 10.000865, 9.94176 
4.3750507e+3, 3.1386906e+2, -38756.133, -82506.77, -1.3797177, 0.00017319783, -0.00005150479, -38756.133, -38756.133, 0.0, 10.000862, 9.943272 
4.3850532e+3, 1.2499998e+2, -1718787.1, -1724153.5, 1.9713758, 0.00018495924, 0.000066010965, -1718787.1, -3786.6633, 0.0, 10.000966, 9.993853 
4.3850532e+3, 1.3499369e+2, -1621420.6, -1627374.9, -0.38261604, 0.0001845058, -0.0001082755, -1621420.6, -4358.4634, 0.0, 10.000961, 9.99307 
4.3850532e+3, 1.4498086e+2, -1533290.8, -1548020.4, 1.8955035, 0.00018379786, 0.00015517249, -1533290.8, -14103.099, 0.0, 10.000957, 9.981435 
4.3850526e+3, 1.5496229e+2, -1435575.3, -1450704.9, -1.109777, 0.00018283185, -0.00003457719, -1435575.3, -14205.481, 0.0, 10.000952, 9.980904 
4.3850526e+3, 1.649371e+2, -1347535.5, -1371844.5, 1.2486124, 0.00018228841, 0.000048376925, -1347535.5, -23918.797, 0.0, 10.000948, 9.968819 
4.3850526e+3, 1.7490596e+2, -1249589.8, -1274211.3, -1.2817541, 0.00018217626, -0.000052845695, -1249589.8, -23667.967, 0.0, 10.000943, 9.968405 
4.3850526e+3, 1.848682e+2, -1161516.1, -1195623.4, 1.123792, 0.00018186025, 0.00009355411, -1161516.1, -33224.23, 0.0, 10.000938, 9.95597 
4.3850523e+3, 1.9482419e+2, -1063378.0, -1097744.6, -1.6212865, 0.0001813307, -0.000037972426, -1063378.0, -32654.92, 0.0, 10.000935, 9.9556265 
4.3850523e+3, 2.0477353e+2, -975222.4, -1019351.7, 0.7088427, 0.00018075565, 0.0000834997, -975222.4, -42002.855, 0.0, 10.000931, 9.942866 
4.3850523e+3, 2.1471643e+2, -876946.5, -921334.6, -1.9481342, 0.00018013125, -0.00011191726, -876946.5, -41167.445, 0.0, 10.000926, 9.942526 
4.3850523e+3, 2.2465265e+2, -788668.56, -843074.06, 0.79689085, 0.00017950824, 0.00013587871, -788668.56, -50264.4, 0.0, 10.000922, 9.929486 
4.3850523e+3, 2.345822e+2, -690246.9, -744904.0, -1.6708391, 0.00017888648, -0.00007305408, -690246.9, -49152.297, 0.0, 10.000917, 9.929155 
4.3850517e+3, 2.4450481e+2, -601931.2, -666962.3, 0.5876975, 0.0001785262, 0.00008972253, -601931.2, -58078.137, 0.0, 10.000914, 9.915716 
4.3850517e+3, 2.5442064e+2, -503187.78, -568293.9, -1.898226, 0.00017847768, -0.00009428412, -503187.78, -56509.94, 0.0, 10.000911, 9.915616 
4.3850517e+3, 2.6432937e+2, -414959.72, -490943.88, 1.0470521, 0.00017818683, 0.00015100093, -414959.72, -65387.656, 0.0, 10.000908, 9.901546 
4.3850517e+3, 2.7423146e+2, -315684.8, -391338.25, -1.2365886, 0.0001775866, -0.00019442363, -315684.8, -63153.313, 0.0, 10.000904, 9.901966 
4.3850517e+3, 2.8412536e+2, -229221.05, -318054.28, 1.2978368, 0.00017705855, 0.00023693487, -229221.05, -73649.47, 0.0, 10.0009, 9.885018 
4.3850517e+3, 2.940114e+2, -129525.34, -217745.8, -0.973757, 0.00017663023, -0.00024624274, -129525.34, -70837.23, 0.0, 10.000896, 9.885797 
4.3850517e+3, 3.0392545e+2, -39793.254, -84733.7, 1.3489164, 0.00017614831, 0.00017893073, -39793.254, -39793.254, 0.0, 10.000894, 9.941753 
4.3850517e+3, 3.138691e+2, -38719.01, -82496.07, -0.5375371, 0.0001755867, -0.000051415835, -38719.01, -38719.01, 0.0, 10.000891, 9.943265 
4.3950543e+3, 1.2500013e+2, -1718792.5, -1724163.6, 0.08027666, 0.0001882164, 0.00006732023, -1718792.5, -3793.5867, 0.0, 10.000966, 9.993847 
4.3950543e+3, 1.3499384e+2, -1621425.9, -1627384.9, -2.2776058, 0.00018611534, -0.00010847095, -1621425.9, -4365.255, 0.0, 10.000961, 9.993063 
4.3950543e+3, 1.4498101e+2, -1533297.5, -1548033.3, 0.19596957, 0.00018529958, 0.00015508341, -1533297.5, -14111.234, 0.0, 10.000957, 9.981427 
4.3950537e+3, 1.5496242e+2, -1435582.0, -1450717.6, -2.8067615, 0.00018577135, -0.000032942575, -1435582.0, -14213.473, 0.0, 10.000953, 9.980896 
4.3950537e+3, 1.6493721e+2, -1347541.1, -1371855.3, -0.4687206, 0.00018560184, 0.000050140425, -1347541.1, -23925.635, 0.0, 10.000948, 9.968812 
4.3950537e+3, 1.7490608e+2, -1249595.3, -1274221.9, -3.0016, 0.00018477954, -0.000052578387, -1249595.3, -23674.662, 0.0, 10.000943, 9.968398 
4.3950537e+3, 1.848683e+2, -1161522.1, -1195635.0, -0.4778136, 0.00018406534, 0.00009319633, -1161522.1, -33231.32, 0.0, 10.000938, 9.955962 
4.395053e+3, 1.948243e+2, -1063383.9, -1097756.3, -3.2210703, 0.00018346355, -0.000038045204, -1063383.9, -32661.871, 0.0, 10.000935, 9.955619 
4.395053e+3, 2.0477363e+2, -975228.1, -1019363.0, -0.81890684, 0.00018311378, 0.00008417044, -975228.1, -42009.586, 0.0, 10.000931, 9.94286 
4.395053e+3, 2.1471652e+2, -876952.2, -921345.94, -3.473865, 0.00018303642, -0.00011000703, -876952.2, -41174.043, 0.0, 10.000926, 9.942518 
4.395053e+3, 2.2465272e+2, -788673.94, -843084.8, -0.91667557, 0.00018234257, 0.00013728054, -788673.94, -50270.625, 0.0, 10.000922, 9.92948 
4.395053e+3, 2.3458228e+2, -690252.1, -744914.6, -3.3919346, 0.00018095119, -0.00007413731, -690252.1, -49158.355, 0.0, 10.000917, 9.929149 
4.3950528e+3, 2.4450487e+2, -601936.5, -666973.2, -0.5569072, 0.00018042198, 0.000087818196, -601936.5, -58084.203, 0.0, 10.000914, 9.915709 
4.3950528e+3, 2.544207e+2, -503193.1, -568304.7, -3.0152962, 0.0001809223, -0.00009502111, -503193.1, -56515.895, 0.0, 10.000911, 9.915608 
4.3950528e+3, 2.6432943e+2, -414964.84, -490954.4, -0.32628655, 0.00018083473, 0.00015133055, -414964.84, -65393.37, 0.0, 10.000908, 9.901539 
4.3950528e+3, 2.7423152e+2, -315689.88, -391348.72, -2.6259575, 0.00017999648, -0.00019316007, -315689.88, -63158.883, 0.0, 10.000904, 9.901958 
4.3950528e+3, 2.841254e+2, -229226.17, -318064.97, -0.10463703, 0.00017931603, 0.0002386037, -229226.17, -73655.055, 0.0, 10.0009, 9.885011 
4.3950528e+3, 2.9401144e+2, -129530.414, -217756.44, -2.3769343, 0.00017885455, -0.0002448914, -129530.414, -70842.68, 0.0, 10.000896, 9.885789 
4.3950528e+3, 3.0392548e+2, -39797.832, -84743.35, 0.304276, 0.00017842349, 0.00017944614, -39797.832, -39797.832, 0.0, 10.000894, 9.941747 
4.3950528e+3, 3.1386912e+2, -38723.547, -82505.62, -1.5435656, 0.00017803647, -0.000052499043, -38723.547, -38723.547, 0.0, 10.000891, 9.943259 
4.405055e+3, 1.250003e+2, -1718748.6, -1724148.5, 2.1824992, 0.00019060323, 0.00006850095, -1718748.6, -3751.3052, 0.0, 10.000998, 9.993839 
4.405055e+3, 1.3499399e+2, -1621381.9, -1627369.9, -0.9395304, 0.00018857855, -0.00010831284, -1621381.9, -4322.7197, 0.0, 10.000993, 9.993055 
4.405055e+3, 1.4498118e+2, -1533253.5, -1548018.5, 1.502057, 0.00018781291, 0.00015511934, -1533253.5, -14068.725, 0.0, 10.000988, 9.98142 
4.4050547e+3, 1.5496255e+2, -1435538.3, -1450703.1, -1.09959, 0.00018830848, -0.00003212499, -1435538.3, -14171.158, 0.0, 10.000983, 9.980888 
4.4050547e+3, 1.6493735e+2, -1347497.6, -1371840.9, 1.1729088, 0.00018813819, 0.000051068, -1347497.6, -23883.492, 0.0, 10.000978, 9.968804 
4.4050547e+3, 1.7490621e+2, -1249552.3, -1274207.9, -1.8277481, 0.00018729005, -0.000052225234, -1249552.3, -23632.908, 0.0, 10.000974, 9.96839 
4.4050547e+3, 1.8486843e+2, -1161479.5, -1195621.3, 0.5920987, 0.00018656251, 0.00009329016, -1161479.5, -33189.918, 0.0, 10.00097, 9.955955 
4.4050542e+3, 1.9482441e+2, -1063342.0, -1097742.9, -2.0767217, 0.00018596045, -0.00003788143, -1063342.0, -32621.082, 0.0, 10.000965, 9.955612 
4.4050542e+3, 2.0477374e+2, -975186.7, -1019349.8, 0.5016646, 0.00018552724, 0.00008452394, -975186.7, -41969.152, 0.0, 10.00096, 9.942852 
4.4050542e+3, 2.1471663e+2, -876911.25, -921333.1, -2.0628994, 0.00018527647, -0.0001093342, -876911.25, -41134.074, 0.0, 10.000957, 9.942512 
4.4050542e+3, 2.2465281e+2, -788633.06, -843072.3, 0.36913928, 0.0001846898, 0.00013785451, -788633.06, -50230.613, 0.0, 10.000953, 9.929472 
4.405054e+3, 2.3458236e+2, -690210.56, -744901.94, -2.411201, 0.00018372286, -0.000074135154, -690210.56, -49117.57, 0.0, 10.000948, 9.929141 
4.405054e+3, 2.4450494e+2, -601895.2, -666960.5, 0.51582, 0.00018318761, 0.0000877092, -601895.2, -58043.617, 0.0, 10.000944, 9.915702 
4.405054e+3, 2.544208e+2, -503153.56, -568293.06, -1.9749587, 0.00018316777, -0.000094690724, -503153.56, -56477.06, 0.0, 10.00094, 9.915602 
4.405054e+3, 2.643295e+2, -414925.97, -490942.63, 0.7323415, 0.00018286526, 0.00015180948, -414925.97, -65355.086, 0.0, 10.0009365, 9.901532 
4.405054e+3, 2.742316e+2, -315651.03, -391337.03, -1.3788044, 0.00018220159, -0.0001929038, -315651.03, -63120.586, 0.0, 10.000933, 9.901952 
4.405054e+3, 2.8412545e+2, -229187.31, -318053.72, 1.3460133, 0.00018167823, 0.00023888164, -229187.31, -73616.67, 0.0, 10.00093, 9.885004 
4.405054e+3, 2.940115e+2, -129491.086, -217745.11, -0.8526998, 0.00018134809, -0.00024425573, -129491.086, -70803.76, 0.0, 10.000926, 9.885782 
4.405054e+3, 3.039255e+2, -39758.94, -84732.87, 1.7721816, 0.000180983, 0.0001800838, -39758.94, -39758.94, 0.0, 10.000923, 9.94174 
4.4050533e+3, 3.1386912e+2, -38685.066, -82495.39, -0.78638494, 0.00018056494, -0.000052390427, -38685.066, -38685.066, 0.0, 10.00092, 9.943252 
4.415056e+3, 1.2500046e+2, -1718755.8, -1724162.0, 0.38193318, 0.00019213911, 0.000069556496, -1718755.8, -3760.0999, 0.0, 10.000998, 9.993831 
4.415056e+3, 1.3499415e+2, -1621388.9, -1627383.3, -2.737697, 0.00019187767, -0.00010780885, -1621388.9, -4331.3413, 0.0, 10.000993, 9.993048 
4.415056e+3, 1.4498132e+2, -1533259.3, -1548029.5, -0.20178479, 0.00019131665, 0.00015527735, -1533259.3, -14076.017, 0.0, 10.000988, 9.981413 
4.4150558e+3, 1.549627e+2, -1435544.0, -1450714.1, -2.8056655, 0.00019045235, -0.000032106665, -1435544.0, -14178.322, 0.0, 10.000983, 9.980882 
4.4150558e+3, 1.6493748e+2, -1347504.3, -1371853.6, -0.602236, 0.00018991467, 0.000051177914, -1347504.3, -23891.436, 0.0, 10.000978, 9.968797 
4.4150558e+3, 1.7490634e+2, -1249558.8, -1274220.5, -3.6010592, 0.00018971035, -0.00005178805, -1249558.8, -23640.7, 0.0, 10.000975, 9.968383 
4.4150558e+3, 1.8486854e+2, -1161485.4, -1195632.6, -1.1142434, 0.00018934609, 0.00009382588, -1161485.4, -33196.926, 0.0, 10.00097, 9.955948 
4.4150552e+3, 1.9482452e+2, -1063347.8, -1097754.1, -3.7835174, 0.00018881424, -0.000037486043, -1063347.8, -32627.941, 0.0, 10.000965, 9.955605 
4.4150552e+3, 2.0477384e+2, -975192.2, -1019360.8, -1.1014688, 0.00018799535, 0.00008456703, -975192.2, -41975.76, 0.0, 10.00096, 9.942845 
4.4150552e+3, 2.1471673e+2, -876916.75, -921344.0, -3.6652412, 0.00018686589, -0.00010987258, -876916.75, -41140.543, 0.0, 10.000957, 9.942505 
4.4150552e+3, 2.2465292e+2, -788639.0, -843084.25, -1.1235487, 0.00018656069, 0.00013761818, -788639.0, -50237.504, 0.0, 10.000953, 9.929464 
4.4150546e+3, 2.3458244e+2, -690216.44, -744913.8, -3.8986707, 0.0001871873, -0.00007307029, -690216.44, -49124.332, 0.0, 10.000949, 9.929133 
4.4150546e+3, 2.4450503e+2, -601900.7, -666971.6, -0.9979392, 0.00018680544, 0.0000893579, -601900.7, -58049.883, 0.0, 10.000944, 9.915694 
4.4150546e+3, 2.5442085e+2, -503158.97, -568304.06, -3.4896986, 0.00018521865, -0.000093315386, -503158.97, -56483.168, 0.0, 10.00094, 9.915594 
4.4150546e+3, 2.6432955e+2, -414930.75, -490952.44, -0.62673485, 0.00018429173, 0.00015243456, -414930.75, -65360.5, 0.0, 10.0009365, 9.9015255 
4.4150546e+3, 2.7423167e+2, -315655.7, -391346.7, -2.7316008, 0.00018420667, -0.00019363366, -315655.7, -63125.83, 0.0, 10.000933, 9.901946 
4.4150546e+3, 2.8412548e+2, -229192.3, -318064.1, 0.11118006, 0.00018414352, 0.00023779797, -229192.3, -73622.15, 0.0, 10.00093, 9.884997 
4.4150546e+3, 2.9401153e+2, -129496.02, -217755.47, -2.076599, 0.00018410587, -0.00024432046, -129496.02, -70809.14, 0.0, 10.000927, 9.885776 
4.4150543e+3, 3.0392554e+2, -39764.754, -84745.08, 0.6566206, 0.00018382147, 0.00018084153, -39764.754, -39764.754, 0.0, 10.000923, 9.941731 
4.4150543e+3, 3.1386915e+2, -38690.992, -82507.83, -1.8849196, 0.00018317095, -0.000051115017, -38690.992, -38690.992, 0.0, 10.00092, 9.943243 
4.4250572e+3, 1.2500064e+2, -1718710.3, -1724146.6, 1.8535959, 0.00019467827, 0.000070180016, -1718710.3, -3716.3262, 0.0, 10.00103, 9.993823 
4.4250572e+3, 1.3499433e+2, -1621342.8, -1627367.6, -0.90902615, 0.00019449847, -0.00010707631, -1621342.8, -4286.8125, 0.0, 10.001025, 9.993039 
4.4250572e+3, 1.4498147e+2, -1533213.3, -1548013.8, 1.4379817, 0.00019390185, 0.00015594134, -1533213.3, -14031.441, 0.0, 10.00102, 9.981405 
4.4250566e+3, 1.5496287e+2, -1435499.3, -1450699.3, -1.6137941, 0.0001928841, -0.000031689546, -1435499.3, -14135.07, 0.0, 10.001016, 9.980874 
4.4250566e+3, 1.6493763e+2, -1347460.1, -1371839.0, 0.65525854, 0.00019230183, 0.000051561896, -1347460.1, -23848.695, 0.0, 10.001011, 9.968789 
4.4250566e+3, 1.7490648e+2, -1249514.5, -1274206.0, -1.9828001, 0.00019216395, -0.000051219406, -1249514.5, -23597.813, 0.0, 10.001006, 9.968375 
4.4250566e+3, 1.8486866e+2, -1161441.3, -1195618.3, 0.58493197, 0.00019182658, 0.000094447765, -1161441.3, -33154.074, 0.0, 10.001001, 9.95594 
4.4250563e+3, 1.9482465e+2, -1063304.1, -1097740.1, -2.3166535, 0.00019128031, -0.000036948215, -1063304.1, -32585.48, 0.0, 10.000997, 9.955597 
4.4250563e+3, 2.0477396e+2, -975149.06, -1019347.0, 0.17953478, 0.00019047511, 0.00008492712, -975149.06, -41933.72, 0.0, 10.000992, 9.942838 
4.4250563e+3, 2.1471682e+2, -876874.44, -921330.75, -2.6455457, 0.00018938974, -0.000109791494, -876874.44, -41099.305, 0.0, 10.000987, 9.942497 
4.4250563e+3, 2.2465302e+2, -788597.1, -843071.3, 0.11974766, 0.00018909926, 0.00013769907, -788597.1, -50196.543, 0.0, 10.000983, 9.929458 
4.4250557e+3, 2.3458253e+2, -690174.44, -744900.9, -2.367224, 0.0001897074, -0.00007267427, -690174.44, -49083.23, 0.0, 10.000979, 9.929126 
4.4250557e+3, 2.445051e+2, -601858.9, -666958.75, 0.5620096, 0.00018930175, 0.00008995526, -601858.9, -58008.89, 0.0, 10.000976, 9.915688 
4.4250557e+3, 2.544209e+2, -503118.06, -568291.75, -1.9063884, 0.00018768477, -0.00009265277, -503118.06, -56443.02, 0.0, 10.000971, 9.915587 
4.4250557e+3, 2.6432964e+2, -414890.63, -490940.9, 0.8606779, 0.00018676452, 0.00015295473, -414890.63, -65321.05, 0.0, 10.000967, 9.901518 
4.4250557e+3, 2.7423173e+2, -315615.88, -391335.47, -2.0299811, 0.00018673317, -0.00019351975, -315615.88, -63086.61, 0.0, 10.000963, 9.901938 
4.4250557e+3, 2.8412554e+2, -229152.23, -318052.25, 0.4930491, 0.0001867007, 0.0002376392, -229152.23, -73582.61, 0.0, 10.00096, 9.884991 
4.425055e+3, 2.940116e+2, -129456.05, -217743.73, -1.6901506, 0.000186662, -0.00024456801, -129456.05, -70769.62, 0.0, 10.000957, 9.885769 
4.425055e+3, 3.0392557e+2, -39725.535, -84734.34, 1.3983375, 0.00018634892, 0.0001809383, -39725.535, -39725.535, 0.0, 10.000954, 9.941724 
4.425055e+3, 3.138692e+2, -38652.07, -82497.3, -0.35758036, 0.00018562899, -0.000050032406, -38652.07, -38652.07, 0.0, 10.000951, 9.943235 
4.4350585e+3, 1.2500082e+2, -1718716.6, -1724158.6, 0.2708619, 0.00019819872, 0.00007038099, -1718716.6, -3724.3503, 0.0, 10.00103, 9.993815 
4.4350582e+3, 1.3499449e+2, -1621349.0, -1627379.5, -2.4931574, 0.00019645673, -0.0001061199, -1621349.0, -4294.7124, 0.0, 10.001025, 9.993032 
4.4350582e+3, 1.4498164e+2, -1533220.0, -1548026.8, -0.5400993, 0.00019558973, 0.00015710044, -1533220.0, -14039.854, 0.0, 10.00102, 9.981398 
4.4350582e+3, 1.5496302e+2, -1435506.0, -1450712.1, -3.590866, 0.0001955979, -0.00003088257, -1435506.0, -14143.313, 0.0, 10.001016, 9.9808655 
4.4350576e+3, 1.6493778e+2, -1347465.9, -1371850.3, -1.0439209, 0.00019528662, 0.000052213745, -1347465.9, -23855.91, 0.0, 10.001011, 9.968782 
4.4350576e+3, 1.7490661e+2, -1249520.3, -1274217.1, -3.6830993, 0.00019465067, -0.000050521903, -1249520.3, -23604.895, 0.0, 10.001006, 9.968369 
4.4350576e+3, 1.848688e+2, -1161447.5, -1195630.5, -1.1774701, 0.00019401131, 0.000095154304, -1161447.5, -33161.66, 0.0, 10.001001, 9.955933 
4.435057e+3, 1.9482477e+2, -1063310.3, -1097752.4, -4.078728, 0.00019336783, -0.000036270903, -1063310.3, -32592.922, 0.0, 10.000997, 9.955589 
4.435057e+3, 2.0477408e+2, -975155.1, -1019359.06, -1.5795475, 0.00019296691, 0.00008559733, -975155.1, -41940.953, 0.0, 10.000992, 9.94283 
4.435057e+3, 2.1471696e+2, -876880.5, -921342.75, -4.4048753, 0.00019282813, -0.00010910441, -876880.5, -41106.387, 0.0, 10.000988, 9.94249 
4.435057e+3, 2.2465312e+2, -788602.5, -843082.1, -1.3033488, 0.00019229135, 0.00013809034, -788602.5, -50202.945, 0.0, 10.000983, 9.92945 
4.4350567e+3, 2.3458263e+2, -690179.8, -744911.6, -3.7807076, 0.0001913043, -0.000072932395, -690179.8, -49089.49, 0.0, 10.000979, 9.929119 
4.4350567e+3, 2.445052e+2, -601864.3, -666969.7, -1.1162618, 0.00019070157, 0.00008952441, -601864.25, -58015.15, 0.0, 10.000976, 9.91568 
4.4350567e+3, 2.54421e+2, -503123.4, -568302.6, -3.5985217, 0.00019055766, -0.00009268704, -503123.4, -56449.137, 0.0, 10.000971, 9.915581 
4.4350567e+3, 2.643297e+2, -414896.84, -490953.72, -0.5278635, 0.00019026149, 0.00015337257, -414896.84, -65328.008, 0.0, 10.000967, 9.90151 
4.4350567e+3, 2.742318e+2, -315622.1, -391348.34, -3.394609, 0.0001897703, -0.00019258032, -315622.1, -63093.473, 0.0, 10.000963, 9.90193 
4.4350567e+3, 2.841256e+2, -229157.34, -318062.9, -0.7073258, 0.00018934833, 0.00023838507, -229157.34, -73588.27, 0.0, 10.00096, 9.884983 
4.4350561e+3, 2.9401162e+2, -129460.99, -217754.13, -2.877759, 0.00018902139, -0.0002449947, -129460.99, -70775.05, 0.0, 10.000957, 9.885761 
4.4350561e+3, 3.0392563e+2, -39730.035, -84743.82, 0.22816023, 0.00018857257, 0.00018038834, -39730.035, -39730.035, 0.0, 10.000954, 9.941718 
4.4350561e+3, 3.1386924e+2, -38656.527, -82506.68, -1.5285611, 0.00018794276, -0.00004913796, -38656.527, -38656.527, 0.0, 10.000951, 9.94323 
4.4450596e+3, 1.25001e+2, -1718668.1, -1724141.5, 2.1324346, 0.00020098792, 0.00007115753, -1718668.1, -3677.66, 0.0, 10.001063, 9.993808 
4.445059e+3, 1.3499466e+2, -1621302.8, -1627363.9, -0.9263889, 0.0001989291, -0.000105835155, -1621302.8, -4250.2617, 0.0, 10.001059, 9.993025 
4.445059e+3, 1.4498182e+2, -1533174.5, -1548011.6, 0.9847863, 0.00019799902, 0.00015738017, -1533174.5, -13995.967, 0.0, 10.001053, 9.981389 
4.445059e+3, 1.5496317e+2, -1435459.5, -1450696.5, -1.8771257, 0.0001981987, -0.000030119589, -1435459.5, -14098.3125, 0.0, 10.001049, 9.980858 
4.4450587e+3, 1.6493793e+2, -1347419.1, -1371834.4, 0.5608379, 0.00019791904, 0.000052991036, -1347419.1, -23810.676, 0.0, 10.001044, 9.968775 
4.4450587e+3, 1.7490676e+2, -1249474.8, -1274202.0, -2.5186036, 0.00019715182, -0.00005020791, -1249474.8, -23560.826, 0.0, 10.001039, 9.968361 
4.4450587e+3, 1.8486895e+2, -1161402.8, -1195615.9, -0.12162672, 0.00019645218, 0.00009531812, -1161402.8, -33118.26, 0.0, 10.001034, 9.955925 
4.445058e+3, 1.948249e+2, -1063266.0, -1097738.1, -2.873553, 0.00019582255, -0.00003593029, -1063266.0, -32549.87, 0.0, 10.001029, 9.955582 
4.445058e+3, 2.047742e+2, -975110.94, -1019345.2, -0.2118939, 0.00019554333, 0.0000860834, -975110.94, -41897.9, 0.0, 10.001024, 9.942822 
4.445058e+3, 2.1471706e+2, -876835.75, -921328.75, -3.1105168, 0.00019564288, -0.000108506756, -876835.75, -41062.758, 0.0, 10.00102, 9.942482 
4.445058e+3, 2.2465323e+2, -788558.3, -843067.94, -0.20325169, 0.00019503165, 0.00013864528, -788558.3, -50159.777, 0.0, 10.001016, 9.929443 
4.4450575e+3, 2.3458274e+2, -690138.25, -744898.94, -2.9358048, 0.00019361639, -0.00007259462, -690138.25, -49048.863, 0.0, 10.00101, 9.9291115 
4.4450575e+3, 2.445053e+2, -601823.44, -666957.56, -0.27858073, 0.00019299255, 0.00008962759, -601823.44, -57975.207, 0.0, 10.001006, 9.915672 
4.4450575e+3, 2.544211e+2, -503081.1, -568289.9, -2.9901695, 0.00019331381, -0.00009283903, -503081.1, -56407.62, 0.0, 10.001002, 9.915573 
4.4450575e+3, 2.643298e+2, -414854.22, -490941.22, 0.22920685, 0.00019322807, 0.00015336408, -414854.22, -65286.094, 0.0, 10.000999, 9.901503 
4.4450575e+3, 2.7423185e+2, -315580.4, -391336.44, -2.0291364, 0.0001926221, -0.00019193812, -315580.4, -63052.438, 0.0, 10.000995, 9.901922 
4.4450575e+3, 2.841257e+2, -229116.33, -318051.13, 1.019173, 0.00019205154, 0.00023929069, -229116.33, -73547.85, 0.0, 10.000991, 9.884976 
4.4450572e+3, 2.9401168e+2, -129421.0, -217742.94, -1.4995308, 0.00019153129, -0.00024435806, -129421.0, -70735.57, 0.0, 10.000987, 9.885755 
4.4450572e+3, 3.0392566e+2, -39690.645, -84732.8, 1.2753007, 0.0001910273, 0.00018070216, -39690.645, -39690.645, 0.0, 10.000984, 9.94171 
4.4450572e+3, 3.1386927e+2, -38616.85, -82495.49, -1.0383894, 0.000190548, -0.000049221555, -38616.85, -38616.85, 0.0, 10.000981, 9.943222 
4.4550607e+3, 1.2500119e+2, -1718675.1, -1724154.8, 0.06521628, 0.00020306381, 0.00007249659, -1718675.1, -3686.48, 0.0, 10.001063, 9.9938 
4.4550607e+3, 1.3499485e+2, -1621309.8, -1627376.9, -2.9939313, 0.0002019042, -0.000106206615, -1621309.8, -4258.9004, 0.0, 10.001059, 9.993016 
4.45506e+3, 1.4498198e+2, -1533180.9, -1548023.8, -0.6895787, 0.0002011134, 0.0001568008, -1533180.9, -14004.004, 0.0, 10.001053, 9.981382 
4.45506e+3, 1.5496333e+2, -1435465.8, -1450708.6, -3.5517118, 0.0002006898, -0.000029399205, -1435465.8, -14106.223, 0.0, 10.001049, 9.98085 
4.4550595e+3, 1.6493808e+2, -1347425.9, -1371847.5, -1.3753431, 0.00020020804, 0.000053891217, -1347425.9, -23818.959, 0.0, 10.001044, 9.968766 
4.4550595e+3, 1.7490691e+2, -1249481.5, -1274215.0, -4.4553347, 0.00019966775, -0.000050268707, -1249481.5, -23568.941, 0.0, 10.001039, 9.968352 
4.4550595e+3, 1.8486908e+2, -1161408.8, -1195627.6, -1.9262199, 0.00019914386, 0.000094951494, -1161408.8, -33125.59, 0.0, 10.001034, 9.955917 
4.4550595e+3, 1.9482502e+2, -1063271.9, -1097749.8, -4.6784406, 0.0001986366, -0.000035918554, -1063271.9, -32557.049, 0.0, 10.001029, 9.955575 
4.4550592e+3, 2.0477432e+2, -975117.2, -1019357.5, -1.7947879, 0.00019820298, 0.00008638976, -975117.2, -41905.355, 0.0, 10.001024, 9.942815 
4.4550592e+3, 2.1471718e+2, -876841.94, -921341.0, -4.6877704, 0.0001978489, -0.00010799633, -876841.94, -41070.082, 0.0, 10.00102, 9.942473 
4.4550592e+3, 2.2465333e+2, -788564.25, -843079.8, -2.193456, 0.00019733114, 0.00013936032, -788564.25, -50166.77, 0.0, 10.001016, 9.929436 
4.4550586e+3, 2.3458283e+2, -690144.06, -744910.7, -4.9396877, 0.00019662795, -0.00007167429, -690144.06, -49055.69, 0.0, 10.001011, 9.929104 
4.4550586e+3, 2.4450539e+2, -601829.3, -666969.5, -1.5620849, 0.00019615491, 0.00009025277, -601829.3, -57981.992, 0.0, 10.001006, 9.915665 
4.4550586e+3, 2.5442117e+2, -503086.88, -568301.75, -4.239621, 0.0001959565, -0.00009310626, -503086.88, -56414.266, 0.0, 10.001003, 9.9155655 
4.4550586e+3, 2.6432985e+2, -414859.38, -490951.8, -1.2967061, 0.00019567696, 0.00015293871, -414859.38, -65292.01, 0.0, 10.000999, 9.901495 
4.4550586e+3, 2.742319e+2, -315585.44, -391346.88, -3.5753362, 0.00019529331, -0.00019158616, -315585.44, -63058.18, 0.0, 10.000995, 9.901916 
4.4550586e+3, 2.8412575e+2, -229121.98, -318062.88, -0.38864887, 0.0001948096, 0.00024035294, -229121.98, -73554.14, 0.0, 10.000991, 9.884968 
4.455058e+3, 2.9401174e+2, -129426.625, -217754.75, -2.8931122, 0.00019418885, -0.00024268153, -129426.625, -70741.76, 0.0, 10.000988, 9.885746 
4.455058e+3, 3.0392572e+2, -39696.168, -84744.42, 0.1507119, 0.00019370845, 0.0001818606, -39696.168, -39696.168, 0.0, 10.000984, 9.941703 
4.455058e+3, 3.138693e+2, -38622.375, -82507.11, -2.1321397, 0.00019343875, -0.00005026157, -38622.375, -38622.375, 0.0, 10.000981, 9.943214 
4.4650614e+3, 1.2500139e+2, -1718627.3, -1724138.8, 1.8522933, 0.00020548038, 0.00007312518, -1718627.3, -3640.5132, 0.0, 10.001098, 9.993792 
4.4650614e+3, 1.3499503e+2, -1621260.6, -1627360.4, -1.3334197, 0.00020474878, -0.00010583084, -1621260.6, -4211.5933, 0.0, 10.001093, 9.993008 
4.465061e+3, 1.4498214e+2, -1533131.6, -1548006.6, 0.8620918, 0.00020402021, 0.00015709714, -1533131.6, -13956.437, 0.0, 10.001088, 9.981374 
4.465061e+3, 1.5496351e+2, -1435418.4, -1450692.6, -2.1354864, 0.00020329168, -0.000029008364, -1435418.4, -14060.514, 0.0, 10.001082, 9.980843 
4.465061e+3, 1.6493824e+2, -1347379.6, -1371832.4, 0.018066037, 0.00020271388, 0.00005438777, -1347379.6, -23774.201, 0.0, 10.001078, 9.968759 
4.4650605e+3, 1.7490706e+2, -1249434.9, -1274200.0, -2.9843287, 0.00020229036, -0.000049655013, -1249434.9, -23523.846, 0.0, 10.001073, 9.968345 
4.4650605e+3, 1.8486923e+2, -1161362.0, -1195612.3, -0.5044518, 0.00020186795, 0.00009548333, -1161362.0, -33080.176, 0.0, 10.001068, 9.95591 
4.4650605e+3, 1.9482516e+2, -1063225.4, -1097734.6, -3.5722997, 0.00020144612, -0.000035676367, -1063225.4, -32511.924, 0.0, 10.001062, 9.955566 
4.46506e+3, 2.0477444e+2, -975071.7, -1019342.9, -0.7415423, 0.00020087599, 0.00008666402, -975071.7, -41861.117, 0.0, 10.001058, 9.942807 
4.46506e+3, 2.147173e+2, -876798.44, -921327.5, -3.468866, 0.00020014543, -0.000107342166, -876798.44, -41027.75, 0.0, 10.001053, 9.942466 
4.46506e+3, 2.2465344e+2, -788520.8, -843066.5, -0.8415823, 0.00019974152, 0.000140042, -788520.8, -50124.426, 0.0, 10.001048, 9.929427 
4.46506e+3, 2.3458293e+2, -690098.56, -744896.5, -3.6569676, 0.00019970664, -0.00007136358, -690098.56, -49011.254, 0.0, 10.001044, 9.929096 
4.4650596e+3, 2.4450548e+2, -601784.1, -666955.7, -0.21874395, 0.00019933513, 0.00009050545, -601784.1, -57937.72, 0.0, 10.0010395, 9.915657 
4.4650596e+3, 2.5442126e+2, -503044.47, -568289.5, -2.9904735, 0.00019856125, -0.000092537724, -503044.47, -56372.73, 0.0, 10.001035, 9.915557 
4.4650596e+3, 2.6432997e+2, -414817.9, -490939.53, -0.14801727, 0.00019805429, 0.00015348833, -414817.9, -65251.367, 0.0, 10.00103, 9.901488 
4.4650596e+3, 2.74232e+2, -315543.7, -391334.53, -2.7525113, 0.00019788748, -0.00019148208, -315543.7, -63017.152, 0.0, 10.001026, 9.901908 
4.4650596e+3, 2.841258e+2, -229080.0, -318050.7, 0.49277338, 0.00019756582, 0.00024036298, -229080.0, -73512.81, 0.0, 10.001023, 9.884961 
4.465059e+3, 2.940118e+2, -129384.47, -217742.63, -1.726633, 0.0001970301, -0.00024228267, -129384.47, -70700.19, 0.0, 10.0010195, 9.885739 
4.465059e+3, 3.0392578e+2, -39654.75, -84733.4, 1.5560881, 0.00019653956, 0.00018241089, -39654.75, -39654.75, 0.0, 10.001017, 9.941694 
4.465059e+3, 3.1386936e+2, -38581.457, -82496.4, -0.85934526, 0.00019611916, -0.000049916667, -38581.457, -38581.457, 0.0, 10.001013, 9.943206 
4.4750625e+3, 1.2500158e+2, -1718634.5, -1724152.4, 0.13944763, 0.00020822985, 0.000073060575, -1718634.5, -3649.6946, 0.0, 10.001098, 9.993783 
4.4750625e+3, 1.349952e+2, -1621267.8, -1627374.0, -3.0452242, 0.00020746687, -0.00010472544, -1621267.8, -4220.629, 0.0, 10.001093, 9.992999 
4.4750625e+3, 1.4498232e+2, -1533138.3, -1548019.4, -1.2054967, 0.00020672535, 0.00015824841, -1533138.3, -13964.887, 0.0, 10.001088, 9.981366 
4.475062e+3, 1.5496367e+2, -1435425.0, -1450705.4, -4.204729, 0.00020600225, -0.000028939261, -1435425.0, -14068.795, 0.0, 10.001082, 9.980835 
4.475062e+3, 1.6493842e+2, -1347386.1, -1371845.1, -1.7974178, 0.00020543186, 0.000054490374, -1347386.1, -23782.375, 0.0, 10.001078, 9.96875 
4.475062e+3, 1.7490721e+2, -1249441.4, -1274212.6, -4.7989626, 0.00020501782, -0.000048382462, -1249441.4, -23531.877, 0.0, 10.001073, 9.968336 
4.4750616e+3, 1.8486936e+2, -1161368.6, -1195625.1, -2.33472, 0.00020462443, 0.00009689266, -1161368.6, -33088.273, 0.0, 10.001068, 9.955901 
4.4750616e+3, 1.948253e+2, -1063232.0, -1097747.5, -5.4022703, 0.00020425205, -0.000035209127, -1063232.0, -32519.861, 0.0, 10.001062, 9.955559 
4.4750616e+3, 2.0477459e+2, -975077.56, -1019354.56, -2.7396355, 0.00020356274, 0.000086906926, -975077.56, -41868.31, 0.0, 10.001058, 9.9428 
4.475061e+3, 2.1471742e+2, -876804.25, -921339.06, -5.4725537, 0.00020253063, -0.00010654743, -876804.25, -41034.78, 0.0, 10.001053, 9.942459 
4.475061e+3, 2.2465357e+2, -788526.8, -843078.6, -2.3028026, 0.00020226058, 0.00014069135, -788526.8, -50131.617, 0.0, 10.001048, 9.9294195 
4.475061e+3, 2.3458304e+2, -690104.56, -744908.56, -5.101099, 0.00020285179, -0.00007164808, -690104.56, -49018.305, 0.0, 10.001044, 9.929089 
4.475061e+3, 2.4450558e+2, -601790.2, -666968.0, -2.094174, 0.00020253375, 0.00009039457, -601790.2, -57944.785, 0.0, 10.0010395, 9.915649 
4.4750604e+3, 2.5442135e+2, -503050.47, -568301.75, -4.8847756, 0.00020112947, -0.00009115254, -503050.47, -56379.65, 0.0, 10.001035, 9.915549 
4.4750604e+3, 2.6433006e+2, -414823.7, -490951.38, -1.5865804, 0.00020036203, 0.00015499047, -414823.7, -65257.973, 0.0, 10.00103, 9.90148 
4.4750604e+3, 2.7423206e+2, -315549.38, -391346.28, -4.1621914, 0.0002004069, -0.00019162017, -315549.38, -63023.59, 0.0, 10.001026, 9.9019 
4.4750604e+3, 2.841259e+2, -229085.2, -318061.56, -0.8011098, 0.0002003209, 0.00023934511, -229085.2, -73518.695, 0.0, 10.001023, 9.8849535 
4.4750604e+3, 2.9401186e+2, -129389.58, -217753.34, -3.011093, 0.00020005144, -0.00024313174, -129389.58, -70705.9, 0.0, 10.0010195, 9.885732 
4.47506e+3, 3.039258e+2, -39660.477, -84745.44, 0.33562207, 0.00019951783, 0.0001823674, -39660.477, -39660.477, 0.0, 10.001017, 9.941687 
4.47506e+3, 3.138694e+2, -38587.266, -82508.61, -2.0698836, 0.00019859466, -0.00004821864, -38587.266, -38587.266, 0.0, 10.001013, 9.943198 
4.4850639e+3, 1.2500177e+2, -1718583.3, -1724134.6, 2.0735497, 0.00021109571, 0.00007349344, -1718583.3, -3600.428, 0.0, 10.001134, 9.993774 
4.4850636e+3, 1.349954e+2, -1621218.8, -1627357.5, -1.013927, 0.00021007819, -0.000104180246, -1621218.8, -4173.4644, 0.0, 10.001128, 9.992991 
4.4850636e+3, 1.4498252e+2, -1533089.8, -1548003.3, 0.74891233, 0.00020934071, 0.0001588038, -1533089.8, -13918.226, 0.0, 10.001122, 9.981358 
4.485063e+3, 1.5496385e+2, -1435375.8, -1450688.9, -2.5156999, 0.00020888096, -0.000028476437, -1435375.8, -14021.256, 0.0, 10.001118, 9.980826 
4.485063e+3, 1.6493858e+2, -1347336.8, -1371828.5, -0.24685791, 0.00020837541, 0.00005489782, -1347336.8, -23734.652, 0.0, 10.001113, 9.968742 
4.485063e+3, 1.7490739e+2, -1249393.1, -1274196.6, -3.329643, 0.00020782404, -0.000047992355, -1249393.1, -23485.176, 0.0, 10.001107, 9.968328 
4.4850624e+3, 1.8486953e+2, -1161321.3, -1195609.9, -0.8636453, 0.00020730989, 0.000097354205, -1161321.3, -33042.453, 0.0, 10.0011015, 9.9558935 
4.4850624e+3, 1.9482546e+2, -1063185.5, -1097732.9, -3.8874888, 0.00020683397, -0.000034583576, -1063185.5, -32474.803, 0.0, 10.001097, 9.95555 
4.4850624e+3, 2.0477472e+2, -975031.0, -1019339.7, -1.3700842, 0.00020624489, 0.00008753492, -975031.0, -41823.082, 0.0, 10.001092, 9.942792 
4.485062e+3, 2.1471754e+2, -876757.06, -921324.06, -4.484385, 0.0002055333, -0.000106091604, -876757.06, -40988.88, 0.0, 10.001087, 9.942451 
4.485062e+3, 2.2465369e+2, -788480.3, -843064.0, -1.3491964, 0.00020521545, 0.0001409979, -788480.3, -50086.254, 0.0, 10.001082, 9.929412 
4.485062e+3, 2.3458315e+2, -690060.1, -744895.1, -4.253035, 0.00020534248, -0.00007146488, -690060.1, -48974.98, 0.0, 10.001077, 9.929081 
4.485062e+3, 2.4450569e+2, -601746.25, -666954.6, -1.2573267, 0.00020495204, 0.00009063773, -601746.25, -57901.85, 0.0, 10.001072, 9.915642 
4.4850615e+3, 2.5442144e+2, -503005.7, -568288.0, -3.7855468, 0.00020394327, -0.000090630645, -503005.7, -56335.816, 0.0, 10.001068, 9.915542 
4.4850615e+3, 2.6433015e+2, -414779.16, -490938.44, -0.22495067, 0.00020330155, 0.00015558058, -414779.16, -65214.336, 0.0, 10.001064, 9.901472 
4.4850615e+3, 2.7423215e+2, -315505.94, -391334.03, -3.073902, 0.0002031279, -0.00019123017, -315505.94, -62980.94, 0.0, 10.00106, 9.901893 
4.4850615e+3, 2.8412595e+2, -229042.03, -318048.78, 0.21106781, 0.0002029408, 0.00023951799, -229042.03, -73476.234, 0.0, 10.001056, 9.884946 
4.4850615e+3, 2.9401192e+2, -129346.97, -217740.89, -2.1856852, 0.00020273251, -0.00024319817, -129346.97, -70663.93, 0.0, 10.001052, 9.885724 
4.4850615e+3, 3.0392587e+2, -39618.766, -84733.94, 1.2755754, 0.00020222028, 0.00018233161, -39618.766, -39618.766, 0.0, 10.001048, 9.941679 
4.4850612e+3, 3.1386945e+2, -38545.617, -82497.18, -0.7337193, 0.00020125801, -0.00004782244, -38545.617, -38545.617, 0.0, 10.001045, 9.943191 
4.495065e+3, 1.2500198e+2, -1718590.3, -1724147.9, -0.08838528, 0.00021407609, 0.00007441149, -1718590.3, -3609.4944, 0.0, 10.001134, 9.993767 
4.495065e+3, 1.3499561e+2, -1621225.6, -1627370.8, -3.1779923, 0.00021258587, -0.00010418115, -1621225.6, -4182.3555, 0.0, 10.001128, 9.992983 
4.4950643e+3, 1.4498271e+2, -1533097.0, -1548017.1, -1.0727121, 0.00021186894, 0.00015877839, -1533097.0, -13927.353, 0.0, 10.001122, 9.981349 
4.4950643e+3, 1.5496403e+2, -1435383.0, -1450702.6, -4.3357615, 0.00021192449, -0.000027629301, -1435382.9, -14030.229, 0.0, 10.001118, 9.980818 
4.495064e+3, 1.6493875e+2, -1347343.5, -1371841.5, -2.2607462, 0.00021153987, 0.000055602726, -1347343.5, -23743.102, 0.0, 10.001113, 9.968734 
4.495064e+3, 1.7490754e+2, -1249399.8, -1274209.6, -5.345793, 0.00021070785, -0.00004846301, -1249399.8, -23493.457, 0.0, 10.001107, 9.96832 
4.495064e+3, 1.8486969e+2, -1161327.9, -1195622.8, -2.837838, 0.00020992664, 0.000096891315, -1161327.9, -33050.527, 0.0, 10.001102, 9.955885 
4.4950634e+3, 1.948256e+2, -1063192.0, -1097745.5, -5.8614817, 0.00020919788, -0.00003380323, -1063192.0, -32482.725, 0.0, 10.001097, 9.955543 
4.4950634e+3, 2.0477486e+2, -975037.7, -1019352.94, -3.1670694, 0.00020892323, 0.00008853889, -975037.7, -41831.15, 0.0, 10.001092, 9.942783 
4.4950634e+3, 2.1471769e+2, -876763.7, -921337.2, -6.276961, 0.00020913934, -0.00010596638, -876763.7, -40996.78, 0.0, 10.001087, 9.942442 
4.495063e+3, 2.2465381e+2, -788486.56, -843076.6, -3.2492754, 0.00020859636, 0.00014097, -788486.56, -50093.75, 0.0, 10.001082, 9.929403 
4.495063e+3, 2.3458327e+2, -690066.4, -744907.6, -6.1564417, 0.00020719494, -0.00007082528, -690066.4, -48982.32, 0.0, 10.001077, 9.929072 
4.495063e+3, 2.445058e+2, -601751.75, -666965.9, -2.8947308, 0.00020660927, 0.00009122639, -601751.75, -57908.47, 0.0, 10.001073, 9.915634 
4.495063e+3, 2.5442156e+2, -503011.16, -568299.2, -5.413242, 0.00020699752, -0.00009095111, -503011.16, -56342.258, 0.0, 10.001068, 9.915534 
4.4950625e+3, 2.6433024e+2, -414785.44, -490951.3, -1.8395087, 0.00020685846, 0.00015528082, -414785.44, -65221.508, 0.0, 10.001064, 9.9014635 
4.4950625e+3, 2.7423224e+2, -315512.2, -391346.94, -4.6847425, 0.00020604626, -0.00019032447, -315512.2, -62988.008, 0.0, 10.00106, 9.901884 
4.4950625e+3, 2.8412604e+2, -229047.63, -318060.47, -1.1807586, 0.00020542931, 0.00024085317, -229047.63, -73482.586, 0.0, 10.001056, 9.884938 
4.4950625e+3, 2.94012e+2, -129352.445, -217752.39, -3.5588076, 0.000205082, -0.00024250073, -129352.445, -70670.086, 0.0, 10.001052, 9.885716 
4.4950625e+3, 3.0392593e+2, -39623.875, -84744.7, 0.04135823, 0.00020465412, 0.00018230331, -39623.875, -39623.875, 0.0, 10.001049, 9.941671 
4.4950625e+3, 3.138695e+2, -38550.69, -82507.875, -1.9551241, 0.00020410532, -0.00004869666, -38550.69, -38550.69, 0.0, 10.001045, 9.943183 
4.505066e+3, 1.2500219e+2, -1718539.3, -1724130.8, 1.8614296, 0.00021678855, 0.00007501946, -1718539.3, -3560.5364, 0.0, 10.001169, 9.993758 
4.505066e+3, 1.349958e+2, -1621173.6, -1627353.0, -1.6294707, 0.0002155465, -0.000103960745, -1621173.6, -4132.3066, 0.0, 10.001164, 9.992974 
4.505066e+3, 1.4498289e+2, -1533045.0, -1547999.3, 0.39613643, 0.0002148809, 0.00015897861, -1533045.0, -13877.163, 0.0, 10.00116, 9.98134 
4.5050654e+3, 1.5496422e+2, -1435332.4, -1450685.8, -2.7210891, 0.0002147903, -0.000027080927, -1435332.4, -13981.494, 0.0, 10.001154, 9.980809 
4.5050654e+3, 1.6493894e+2, -1347294.0, -1371825.3, -0.74566466, 0.00021433832, 0.000056204186, -1347294.0, -23695.232, 0.0, 10.001148, 9.968725 
4.505065e+3, 1.749077e+2, -1249350.6, -1274193.8, -4.080148, 0.00021351912, -0.000048108897, -1249350.6, -23445.893, 0.0, 10.0011425, 9.968311 
4.505065e+3, 1.8486984e+2, -1161278.6, -1195606.6, -1.6848173, 0.00021276071, 0.000097146876, -1161278.6, -33002.934, 0.0, 10.001138, 9.955877 
4.505065e+3, 1.9482575e+2, -1063143.3, -1097729.8, -4.77647, 0.00021206519, -0.000033490847, -1063143.3, -32435.459, 0.0, 10.001132, 9.955534 
4.5050645e+3, 2.04775e+2, -974989.5, -1019337.6, -1.922426, 0.00021177369, 0.00008892688, -974989.5, -41784.375, 0.0, 10.001127, 9.942775 
4.5050645e+3, 2.1471782e+2, -876716.2, -921322.44, -4.9319196, 0.00021191884, -0.00010548257, -876716.2, -40950.63, 0.0, 10.0011215, 9.942434 
4.5050645e+3, 2.2465393e+2, -788439.5, -843061.94, -1.9398197, 0.00021131826, 0.00014154665, -788439.5, -50047.926, 0.0, 10.001117, 9.929396 
4.505064e+3, 2.345834e+2, -690019.9, -744893.4, -4.8490176, 0.00020987426, -0.000070159105, -690019.9, -48937.004, 0.0, 10.001112, 9.929065 
4.505064e+3, 2.4450591e+2, -601705.6, -666951.75, -1.5252775, 0.00020927713, 0.00009171746, -601705.6, -57863.43, 0.0, 10.001106, 9.915627 
4.505064e+3, 2.5442165e+2, -502965.47, -568285.4, -4.5375447, 0.00020969113, -0.000090950976, -502965.47, -56297.586, 0.0, 10.001102, 9.915526 
4.505064e+3, 2.6433033e+2, -414740.03, -490937.78, -1.0300294, 0.00020957389, 0.00015524594, -414740.03, -65177.05, 0.0, 10.001098, 9.901456 
4.5050636e+3, 2.7423233e+2, -315467.13, -391333.7, -3.453518, 0.00020877838, -0.00018981371, -315467.13, -62943.82, 0.0, 10.001094, 9.9018755 
4.5050636e+3, 2.841261e+2, -229002.98, -318047.44, 0.39075983, 0.00020815173, 0.0002415965, -229002.98, -73438.73, 0.0, 10.001089, 9.884931 
4.5050636e+3, 2.940121e+2, -129308.664, -217739.9, -2.1347532, 0.00020775863, -0.00024195599, -129308.664, -70627.016, 0.0, 10.001085, 9.885709 
4.5050636e+3, 3.03926e+2, -39581.035, -84733.02, 1.3037307, 0.0002073229, 0.00018255286, -39581.035, -39581.035, 0.0, 10.001081, 9.941664 
4.5050636e+3, 3.1386957e+2, -38507.863, -82496.23, -1.2824185, 0.00020682298, -0.000048881404, -38507.863, -38507.863, 0.0, 10.001079, 9.943174 
4.5150673e+3, 1.2500241e+2, -1718547.3, -1724145.8, -0.0039161164, 0.00021924055, 0.00007532572, -1718547.3, -3570.6147, 0.0, 10.00117, 9.993749 
4.515067e+3, 1.3499601e+2, -1621181.5, -1627368.0, -3.4931169, 0.00021894947, -0.000103524624, -1621181.5, -4142.2104, 0.0, 10.001164, 9.992965 
4.515067e+3, 1.4498311e+2, -1533051.9, -1548012.5, -1.7200425, 0.0002183652, 0.00015939865, -1533051.9, -13886.049, 0.0, 10.00116, 9.981333 
4.5150664e+3, 1.5496442e+2, -1435339.3, -1450698.9, -4.838723, 0.00021748358, -0.0000268235, -1435339.3, -13990.219, 0.0, 10.001154, 9.980801 
4.5150664e+3, 1.6493912e+2, -1347301.3, -1371839.4, -2.789715, 0.00021678064, 0.000056705136, -1347301.3, -23704.31, 0.0, 10.001148, 9.968717 
4.5150664e+3, 1.7490788e+2, -1249357.8, -1274207.8, -6.122945, 0.0002162604, -0.000046950743, -1249357.8, -23454.803, 0.0, 10.0011425, 9.968303 
4.5150658e+3, 1.8487e+2, -1161285.4, -1195619.6, -3.6897056, 0.00021580743, 0.00009810274, -1161285.4, -33011.24, 0.0, 10.001138, 9.955869 
4.5150658e+3, 1.9482592e+2, -1063149.9, -1097742.8, -6.7825713, 0.000215424, -0.00003363458, -1063149.9, -32443.592, 0.0, 10.001132, 9.955525 
4.5150658e+3, 2.0477514e+2, -974996.0, -1019350.5, -3.8236973, 0.00021479263, 0.00008871454, -974996.0, -41792.305, 0.0, 10.001127, 9.942767 
4.5150656e+3, 2.1471795e+2, -876722.6, -921335.2, -6.8311253, 0.00021389314, -0.00010464897, -876722.6, -40958.41, 0.0, 10.001122, 9.942426 
4.5150656e+3, 2.2465406e+2, -788445.8, -843074.5, -3.9242792, 0.00021339832, 0.00014271293, -788445.8, -50055.504, 0.0, 10.001117, 9.929387 
4.5150656e+3, 2.3458351e+2, -690026.06, -744905.9, -6.8373866, 0.00021336056, -0.00006946667, -690026.06, -48944.414, 0.0, 10.001112, 9.929056 
4.515065e+3, 2.4450603e+2, -601712.2, -666965.0, -3.2129953, 0.00021293113, 0.00009211369, -601712.2, -57871.094, 0.0, 10.001107, 9.915618 
4.515065e+3, 2.5442177e+2, -502971.94, -568298.6, -6.2096224, 0.0002120337, -0.00009063823, -502971.94, -56305.105, 0.0, 10.001102, 9.915518 
4.515065e+3, 2.6433042e+2, -414745.6, -490949.2, -2.6628323, 0.00021146942, 0.00015546924, -414745.6, -65183.563, 0.0, 10.001098, 9.901448 
4.515065e+3, 2.7423242e+2, -315472.53, -391344.9, -5.086232, 0.0002113296, -0.00018968793, -315472.53, -62950.125, 0.0, 10.001094, 9.901869 
4.5150644e+3, 2.841262e+2, -229008.8, -318059.56, -1.1515149, 0.00021110298, 0.00024176297, -229008.8, -73445.375, 0.0, 10.001089, 9.884923 
4.5150644e+3, 2.9401216e+2, -129314.445, -217752.05, -3.6682546, 0.00021075492, -0.00024155976, -129314.445, -70633.54, 0.0, 10.001085, 9.885701 
4.5150644e+3, 3.0392608e+2, -39587.2, -84746.01, 0.057188943, 0.00021022142, 0.00018307364, -39587.2, -39587.2, 0.0, 10.001081, 9.941654 
4.5150644e+3, 3.1386963e+2, -38514.09, -82509.33, -2.4929721, 0.00020941488, -0.000048393875, -38514.09, -38514.09, 0.0, 10.001079, 9.943166 
4.5250684e+3, 1.2500264e+2, -1718492.8, -1724127.0, 1.8514751, 0.00022238126, 0.000075711534, -1718492.8, -3518.2937, 0.0, 10.001208, 9.993739 
4.5250684e+3, 1.3499624e+2, -1621128.6, -1627350.3, -1.4683223, 0.00022185306, -0.00010273019, -1621128.6, -4091.3645, 0.0, 10.001203, 9.992956 
4.5250678e+3, 1.449833e+2, -1532999.5, -1547994.5, 0.16757718, 0.00022117604, 0.00016018841, -1532999.5, -13835.602, 0.0, 10.001197, 9.981324 
4.5250678e+3, 1.549646e+2, -1435287.1, -1450681.4, -3.1897907, 0.0002203463, -0.000026453145, -1435287.1, -13940.057, 0.0, 10.001191, 9.980792 
4.5250675e+3, 1.649393e+2, -1347249.6, -1371822.3, -1.1397913, 0.00021968693, 0.000057015637, -1347249.6, -23654.51, 0.0, 10.001185, 9.968708 
4.5250675e+3, 1.7490807e+2, -1249306.6, -1274191.0, -4.3725076, 0.00021920193, -0.000046333917, -1249306.6, -23405.375, 0.0, 10.00118, 9.968294 
4.5250675e+3, 1.8487018e+2, -1161234.6, -1195603.1, -1.9990463, 0.00021876738, 0.00009877332, -1161234.6, -32962.14, 0.0, 10.001174, 9.95586 
4.525067e+3, 1.9482608e+2, -1063099.8, -1097726.8, -5.371843, 0.00021838487, -0.00003317399, -1063099.6, -32395.035, 0.0, 10.001168, 9.955517 
4.525067e+3, 2.047753e+2, -974946.4, -1019334.4, -2.53724, 0.0002176499, 0.00008908822, -974946.4, -41744.184, 0.0, 10.0011635, 9.942759 
4.525067e+3, 2.1471809e+2, -876674.2, -921319.8, -5.579327, 0.00021653381, -0.000104229075, -876674.2, -40911.44, 0.0, 10.001158, 9.942417 
4.5250663e+3, 2.2465421e+2, -788397.8, -843059.6, -2.6380944, 0.00021605138, 0.00014309547, -788397.8, -50008.84, 0.0, 10.001152, 9.929379 
4.5250663e+3, 2.3458365e+2, -689977.44, -744890.8, -5.754448, 0.00021628494, -0.00006921601, -689977.44, -48897.035, 0.0, 10.001147, 9.929049 
4.5250663e+3, 2.4450615e+2, -601663.9, -666950.3, -2.1339588, 0.000215878, 0.00009242143, -601663.9, -57823.984, 0.0, 10.0011425, 9.915609 
4.525066e+3, 2.544219e+2, -502925.3, -568284.9, -4.9634566, 0.00021470577, -0.000090047826, -502925.3, -56259.555, 0.0, 10.001138, 9.915509 
4.525066e+3, 2.643305e+2, -414699.56, -490935.34, -1.2982643, 0.0002140104, 0.00015603575, -414699.56, -65138.56, 0.0, 10.001132, 9.901441 
4.525066e+3, 2.742325e+2, -315426.8, -391331.3, -4.119686, 0.000213923, -0.00018953564, -315426.8, -62905.336, 0.0, 10.001128, 9.90186 
4.525066e+3, 2.8412628e+2, -228963.25, -318046.22, -0.2778521, 0.00021376615, 0.00024175855, -228963.25, -73400.67, 0.0, 10.001124, 9.884914 
4.525066e+3, 2.9401225e+2, -129269.06, -217738.9, -2.7216797, 0.00021351072, -0.00024136691, -129269.06, -70588.93, 0.0, 10.00112, 9.885693 
4.5250654e+3, 3.0392614e+2, -39542.8, -84733.914, 1.3362522, 0.00021301018, 0.00018346375, -39542.8, -39542.8, 0.0, 10.001116, 9.941647 
4.5250654e+3, 3.1386968e+2, -38470.523, -82497.69, -0.8381975, 0.0002121478, -0.000047809557, -38470.523, -38470.523, 0.0, 10.001112, 9.943157 
4.5350698e+3, 1.2500288e+2, -1718500.3, -1724141.4, -0.31064802, 0.00022619328, 0.00007617485, -1718500.3, -3528.0742, 0.0, 10.001208, 9.993731 
4.5350695e+3, 1.3499644e+2, -1621136.0, -1627364.5, -3.63146, 0.00022427118, -0.000101586564, -1621136.0, -4100.9785, 0.0, 10.001203, 9.992947 
4.5350695e+3, 1.4498352e+2, -1533006.9, -1548008.9, -1.971437, 0.00022333197, 0.00016133845, -1533006.9, -13845.126, 0.0, 10.001197, 9.981315 
4.535069e+3, 1.5496482e+2, -1435294.5, -1450695.5, -5.3294024, 0.00022337484, -0.000025972688, -1435294.5, -13949.404, 0.0, 10.001191, 9.980783 
4.535069e+3, 1.649395e+2, -1347256.6, -1371835.9, -3.2272737, 0.00022304583, 0.000057140838, -1347256.6, -23663.45, 0.0, 10.001185, 9.968699 
4.5350683e+3, 1.7490825e+2, -1249313.6, -1274204.5, -6.4608755, 0.0002223392, -0.000046243873, -1249313.6, -23414.152, 0.0, 10.00118, 9.968286 
4.5350683e+3, 1.8487036e+2, -1161241.9, -1195617.4, -4.0914106, 0.00022164363, 0.00009916649, -1161241.9, -32971.133, 0.0, 10.001174, 9.955852 
4.5350683e+3, 1.9482625e+2, -1063106.9, -1097740.9, -7.46248, 0.00022095894, -0.000032124633, -1063106.9, -32403.861, 0.0, 10.001169, 9.955508 
4.535068e+3, 2.0477547e+2, -974952.94, -1019347.4, -4.6718097, 0.00022035048, 0.000090032736, -974952.94, -41752.28, 0.0, 10.0011635, 9.94275 
4.535068e+3, 2.1471825e+2, -876680.7, -921332.75, -7.716796, 0.0002198242, -0.000104211926, -876680.7, -40919.36, 0.0, 10.001158, 9.9424095 
4.535068e+3, 2.2465435e+2, -788404.5, -843073.06, -4.4129057, 0.00021926324, 0.00014271484, -788404.5, -50016.895, 0.0, 10.001152, 9.929371 
4.5350674e+3, 2.3458378e+2, -689984.06, -744904.1, -7.5171847, 0.00021866277, -0.00006939568, -689984.06, -48904.94, 0.0, 10.001147, 9.929039 
4.5350674e+3, 2.4450627e+2, -601670.1, -666962.94, -4.1381993, 0.00021813686, 0.00009264303, -601670.1, -57831.42, 0.0, 10.0011425, 9.915601 
4.5350674e+3, 2.54422e+2, -502931.44, -568297.4, -6.979462, 0.00021769956, -0.00008918661, -502931.44, -56266.813, 0.0, 10.001138, 9.915501 
4.5350674e+3, 2.6433063e+2, -414705.84, -490948.25, -2.9636414, 0.00021718084, 0.00015693698, -414705.84, -65145.88, 0.0, 10.001133, 9.901432 
4.5350668e+3, 2.742326e+2, -315433.03, -391344.16, -5.7619853, 0.00021655814, -0.00018935741, -315433.03, -62912.504, 0.0, 10.001128, 9.901852 
4.5350668e+3, 2.8412637e+2, -228969.02, -318058.25, -1.7920802, 0.00021614935, 0.00024158758, -228969.02, -73407.32, 0.0, 10.001124, 9.884907 
4.5350668e+3, 2.9401234e+2, -129274.72, -217750.8, -4.2249565, 0.00021603296, -0.0002413723, -129274.72, -70595.38, 0.0, 10.00112, 9.885685 
4.5350668e+3, 3.039262e+2, -39548.35, -84745.62, -0.093999766, 0.00021569274, 0.00018372665, -39548.35, -39548.35, 0.0, 10.001116, 9.941638 
4.5350668e+3, 3.1386974e+2, -38476.07, -82509.38, -2.261813, 0.00021501874, -0.000047130427, -38476.07, -38476.07, 0.0, 10.001112, 9.94315 
4.5450708e+3, 1.250031e+2, -1718444.8, -1724122.1, 1.8529546, 0.00022919335, 0.00007677178, -1718444.8, -3474.823, 0.0, 10.001247, 9.993722 
4.5450708e+3, 1.3499667e+2, -1621081.1, -1627345.8, -1.6911151, 0.00022722107, -0.000100944846, -1621081.1, -4048.2122, 0.0, 10.001242, 9.992938 
4.5450702e+3, 1.4498374e+2, -1532952.4, -1547990.4, -0.1768613, 0.00022629781, 0.00016196376, -1532952.4, -13792.708, 0.0, 10.001235, 9.981306 
4.5450702e+3, 1.5496501e+2, -1435240.5, -1450677.5, -3.681621, 0.00022642294, -0.000025425405, -1435240.5, -13897.419, 0.0, 10.001229, 9.980775 
4.54507e+3, 1.6493969e+2, -1347203.1, -1371818.0, -1.7394584, 0.00022608267, 0.000057584984, -1347203.1, -23611.81, 0.0, 10.001224, 9.968691 
4.54507e+3, 1.7490843e+2, -1249260.9, -1274187.3, -5.175224, 0.00022526954, -0.000045928307, -1249260.9, -23363.336, 0.0, 10.001218, 9.968277 
4.54507e+3, 1.8487053e+2, -1161189.9, -1195600.4, -2.7796, 0.00022451088, 0.00009950873, -1161189.9, -32920.88, 0.0, 10.001212, 9.955842 
4.5450693e+3, 1.9482641e+2, -1063055.6, -1097724.4, -5.926951, 0.0002238084, -0.000031593703, -1063055.6, -32354.29, 0.0, 10.001206, 9.9555 
4.5450693e+3, 2.0477562e+2, -974902.0, -1019331.1, -3.119161, 0.00022325788, 0.00009057442, -974902.0, -41702.934, 0.0, 10.001201, 9.942741 
4.5450687e+3, 2.147184e+2, -876629.75, -921316.6, -6.4914255, 0.00022287149, -0.00010385186, -876629.75, -40869.92, 0.0, 10.001195, 9.942401 
4.5450687e+3, 2.246545e+2, -788354.25, -843057.3, -3.211723, 0.00022222767, 0.00014298841, -788354.25, -49968.1, 0.0, 10.001189, 9.929362 
4.5450687e+3, 2.3458391e+2, -689935.75, -744889.5, -6.2909017, 0.00022129258, -0.000069100955, -689935.75, -48857.945, 0.0, 10.0011835, 9.92903 
4.5450684e+3, 2.4450639e+2, -601622.2, -666948.25, -2.8561893, 0.00022072456, 0.000092988645, -601622.2, -57784.734, 0.0, 10.001179, 9.915593 
4.5450684e+3, 2.544221e+2, -502882.84, -568282.5, -5.753094, 0.00022059442, -0.000088754736, -502882.84, -56219.402, 0.0, 10.001174, 9.915493 
4.5450684e+3, 2.6433074e+2, -414657.56, -490933.97, -1.6667219, 0.00022016451, 0.00015739317, -414657.56, -65098.703, 0.0, 10.001169, 9.901423 
4.5450684e+3, 2.7423272e+2, -315385.97, -391330.66, -4.537284, 0.00021935215, -0.00018895573, -315385.97, -62866.46, 0.0, 10.0011635, 9.901843 
4.5450678e+3, 2.8412646e+2, -228922.6, -318044.56, -0.4927416, 0.00021883137, 0.00024197005, -228922.6, -73361.81, 0.0, 10.001159, 9.884898 
4.5450678e+3, 2.9401243e+2, -129229.23, -217737.67, -3.01643, 0.0002187105, -0.00024096043, -129229.23, -70550.734, 0.0, 10.001155, 9.885677 
4.5450678e+3, 3.039263e+2, -39503.81, -84733.42, 1.088544, 0.00021839708, 0.00018406005, -39503.81, -39503.81, 0.0, 10.00115, 9.94163 
4.5450678e+3, 3.138698e+2, -38431.227, -82497.08, -1.3757809, 0.00021779536, -0.00004703575, -38431.227, -38431.227, 0.0, 10.001147, 9.943141 
4.5550722e+3, 1.2500334e+2, -1718452.8, -1724137.4, -0.37764278, 0.00023140479, 0.000077499004, -1718452.8, -3485.2307, 0.0, 10.001247, 9.993712 
4.555072e+3, 1.349969e+2, -1621089.0, -1627360.9, -3.9216318, 0.0002306891, -0.0001007911, -1621089.0, -4058.4277, 0.0, 10.001242, 9.9929285 
4.555072e+3, 1.4498395e+2, -1532960.1, -1548005.3, -2.3708367, 0.00023005223, 0.00016207888, -1532960.1, -13802.648, 0.0, 10.001236, 9.981297 
4.5550713e+3, 1.5496522e+2, -1435248.3, -1450692.3, -5.874506, 0.00022949089, -0.000024812818, -1435248.3, -13907.1875, 0.0, 10.001229, 9.980765 
4.5550713e+3, 1.649399e+2, -1347210.6, -1371832.5, -3.9724753, 0.00022880707, 0.000058339618, -1347210.6, -23621.291, 0.0, 10.001224, 9.968681 
4.5550707e+3, 1.7490862e+2, -1249268.4, -1274201.6, -7.408547, 0.00022799947, -0.000045393324, -1249268.4, -23372.637, 0.0, 10.001218, 9.968267 
4.5550707e+3, 1.848707e+2, -1161196.6, -1195613.8, -4.9863625, 0.00022737026, 0.00009980146, -1161196.6, -32929.473, 0.0, 10.001212, 9.955834 
4.5550707e+3, 1.9482659e+2, -1063062.4, -1097737.6, -8.135753, 0.0002269265, -0.000031566866, -1063062.4, -32362.71, 0.0, 10.001206, 9.955491 
4.5550704e+3, 2.0477578e+2, -974909.2, -1019345.44, -5.1884365, 0.00022636728, 0.00009072453, -974909.2, -41711.785, 0.0, 10.001201, 9.942733 
4.5550704e+3, 2.1471857e+2, -876636.9, -921330.9, -8.556104, 0.00022568315, -0.00010315794, -876636.9, -40878.617, 0.0, 10.001195, 9.942391 
4.5550698e+3, 2.2465463e+2, -788360.94, -843070.7, -5.368927, 0.00022495228, 0.00014389875, -788360.94, -49976.223, 0.0, 10.001189, 9.929354 
4.5550698e+3, 2.3458406e+2, -689942.25, -744902.75, -8.452303, 0.00022416827, -0.00006834427, -689942.25, -48865.883, 0.0, 10.0011835, 9.929022 
4.5550698e+3, 2.4450654e+2, -601628.5, -666961.1, -4.6601944, 0.00022363287, 0.00009345526, -601628.5, -57792.35, 0.0, 10.001179, 9.915585 
4.5550698e+3, 2.5442222e+2, -502889.1, -568295.25, -7.541204, 0.00022339377, -0.000088740635, -502889.1, -56226.85, 0.0, 10.001174, 9.915484 
4.5550692e+3, 2.6433083e+2, -414664.0, -490947.2, -3.539783, 0.00022296731, 0.00015741627, -414664.0, -65106.254, 0.0, 10.001169, 9.901415 
4.5550692e+3, 2.742328e+2, -315392.3, -391343.8, -6.4152827, 0.0002223016, -0.00018833633, -315392.3, -62873.855, 0.0, 10.0011635, 9.9018345 
4.5550692e+3, 2.8412655e+2, -228928.55, -318057.0, -2.189272, 0.00022180495, 0.00024289156, -228928.55, -73368.73, 0.0, 10.001159, 9.884891 
4.5550692e+3, 2.940125e+2, -129235.07, -217749.95, -4.697506, 0.00022153984, -0.00024014205, -129235.07, -70557.46, 0.0, 10.001155, 9.885669 
4.555069e+3, 3.0392638e+2, -39509.906, -84746.28, -0.27957654, 0.00022112323, 0.00018446227, -39509.906, -39509.906, 0.0, 10.001151, 9.941621 
4.555069e+3, 3.1386986e+2, -38437.37, -82510.02, -2.7075405, 0.00022048091, -0.00004751018, -38437.37, -38437.37, 0.0, 10.001147, 9.943132 
4.5650733e+3, 1.2500359e+2, -1718395.6, -1724117.8, 1.5593824, 0.00023434273, 0.000078022946, -1718395.6, -3430.4617, 0.0, 10.001287, 9.993703 
4.5650733e+3, 1.3499714e+2, -1621031.9, -1627341.5, -2.0613794, 0.00023383021, -0.00010034937, -1621031.9, -4003.6328, 0.0, 10.001282, 9.992919 
4.5650727e+3, 1.4498417e+2, -1532903.3, -1547985.6, -0.5834944, 0.0002332264, 0.000162549, -1532903.3, -13747.956, 0.0, 10.001276, 9.981288 
4.5650727e+3, 1.5496545e+2, -1435192.4, -1450673.4, -3.9997456, 0.00023252734, -0.000024203599, -1435192.4, -13853.504, 0.0, 10.001269, 9.980756 
4.5650724e+3, 1.6494009e+2, -1347155.8, -1371814.3, -2.090709, 0.00023177595, 0.000059013317, -1347155.8, -23568.453, 0.0, 10.001263, 9.968672 
4.5650724e+3, 1.7490883e+2, -1249214.4, -1274184.0, -5.585112, 0.00023097225, -0.000044731027, -1249214.4, -23320.604, 0.0, 10.001257, 9.968259 
4.5650724e+3, 1.8487091e+2, -1161143.0, -1195596.0, -3.2768009, 0.00023035283, 0.00010034616, -1161143.0, -32877.7, 0.0, 10.00125, 9.955825 
4.5650718e+3, 1.9482677e+2, -1063009.1, -1097720.3, -6.7879558, 0.00022992506, -0.0000312506, -1063009.1, -32311.275, 0.0, 10.001245, 9.9554825 
4.5650718e+3, 2.0477597e+2, -974856.7, -1019328.56, -3.8740556, 0.00022933818, 0.000090992595, -974856.7, -41660.95, 0.0, 10.001239, 9.942723 
4.5650712e+3, 2.1471871e+2, -876585.56, -921314.75, -7.021619, 0.0002285792, -0.000102743266, -876585.56, -40828.92, 0.0, 10.001232, 9.942383 
4.5650712e+3, 2.246548e+2, -788310.2, -843055.0, -3.7447095, 0.00022786975, 0.00014441772, -788310.2, -49926.996, 0.0, 10.001226, 9.929344 
4.5650712e+3, 2.345842e+2, -689891.56, -744887.2, -7.026382, 0.00022721593, -0.000067768895, -689891.56, -48816.555, 0.0, 10.001222, 9.929013 
4.565071e+3, 2.4450667e+2, -601578.2, -666945.6, -3.2548063, 0.0002266533, 0.0000939363, -601578.2, -57743.363, 0.0, 10.001216, 9.915576 
4.565071e+3, 2.5442237e+2, -502840.28, -568280.6, -6.3265166, 0.000226199, -0.000088533714, -502840.28, -56179.3, 0.0, 10.00121, 9.915476 
4.565071e+3, 2.6433095e+2, -414615.97, -490933.03, -2.3009188, 0.00022571643, 0.00015759858, -414615.97, -65059.383, 0.0, 10.0012045, 9.901406 
4.5650703e+3, 2.7423295e+2, -315344.34, -391329.8, -5.0902753, 0.00022519733, -0.00018786089, -315344.34, -62826.965, 0.0, 10.0012, 9.901826 
4.5650703e+3, 2.8412664e+2, -228880.56, -318042.88, -0.7352563, 0.00022477662, 0.00024346847, -228880.56, -73321.734, 0.0, 10.001195, 9.884882 
4.5650703e+3, 2.940126e+2, -129187.56, -217736.2, -3.3699262, 0.0002244899, -0.00023972741, -129187.56, -70510.87, 0.0, 10.001191, 9.88566 
4.5650703e+3, 3.0392644e+2, -39463.77, -84733.88, 1.1166416, 0.00022399923, 0.00018481778, -39463.77, -39463.77, 0.0, 10.001186, 9.941612 
4.5650703e+3, 3.1386995e+2, -38392.3, -82498.2, -1.3705322, 0.00022320605, -0.000047058, -38392.3, -38392.3, 0.0, 10.001183, 9.943124 
4.5750746e+3, 1.2500384e+2, -1718403.9, -1724133.4, -0.6130262, 0.00023798727, 0.00007834962, -1718403.9, -3441.1313, 0.0, 10.001287, 9.993693 
4.5750743e+3, 1.3499738e+2, -1621040.1, -1627357.0, -4.2339725, 0.00023665463, -0.00009962756, -1621040.1, -4014.1277, 0.0, 10.001282, 9.992909 
4.5750743e+3, 1.4498441e+2, -1532910.9, -1548000.3, -2.963211, 0.00023583777, 0.00016336428, -1532910.9, -13757.806, 0.0, 10.001276, 9.981278 
4.5750737e+3, 1.5496567e+2, -1435199.9, -1450687.9, -6.380628, 0.00023553416, -0.000023597426, -1435199.9, -13863.176, 0.0, 10.001269, 9.980747 
4.5750737e+3, 1.6494031e+2, -1347163.4, -1371829.0, -4.4684, 0.00023498331, 0.000059608683, -1347163.4, -23578.158, 0.0, 10.001264, 9.968663 
4.5750737e+3, 1.7490903e+2, -1249221.9, -1274198.6, -7.9631414, 0.00023418186, -0.000043944536, -1249221.9, -23330.129, 0.0, 10.001257, 9.968249 
4.575073e+3, 1.848711e+2, -1161150.5, -1195610.9, -5.517128, 0.00023345603, 0.00010113617, -1161150.5, -32887.164, 0.0, 10.00125, 9.955815 
4.575073e+3, 1.9482695e+2, -1063016.6, -1097735.0, -9.026014, 0.00023280838, -0.000030652922, -1063016.6, -32320.566, 0.0, 10.001245, 9.955473 
4.5750728e+3, 2.0477614e+2, -974863.44, -1019342.0, -6.1676006, 0.00023217537, 0.000091375376, -974863.44, -41669.445, 0.0, 10.001239, 9.942715 
4.5750728e+3, 2.147189e+2, -876592.25, -921328.06, -9.318586, 0.00023155802, -0.00010259974, -876592.25, -40837.234, 0.0, 10.001233, 9.942374 
4.5750722e+3, 2.2465496e+2, -788317.25, -843069.1, -5.8386545, 0.00023097542, 0.0001445566, -788317.25, -49935.586, 0.0, 10.001226, 9.929336 
4.5750722e+3, 2.3458435e+2, -689898.5, -744901.25, -9.112811, 0.00023043177, -0.000067369576, -689898.5, -48824.99, 0.0, 10.001222, 9.929005 
4.5750722e+3, 2.445068e+2, -601584.94, -666959.25, -5.354299, 0.00022978369, 0.00009443153, -601584.94, -57751.465, 0.0, 10.001216, 9.915566 
4.5750716e+3, 2.544225e+2, -502846.9, -568294.2, -8.427143, 0.00022901065, -0.000088139095, -502846.9, -56187.22, 0.0, 10.00121, 9.915467 
4.5750716e+3, 2.6433107e+2, -414622.25, -490946.0, -4.139579, 0.00022841399, 0.00015793594, -414622.25, -65066.88, 0.0, 10.001205, 9.901398 
4.5750716e+3, 2.7423304e+2, -315350.53, -391342.66, -6.9127526, 0.00022804154, -0.00018752522, -315350.53, -62834.28, 0.0, 10.0012, 9.901817 
4.5750716e+3, 2.8412676e+2, -228886.73, -318055.78, -2.4795358, 0.00022774731, 0.00024371048, -228886.73, -73328.95, 0.0, 10.001196, 9.884873 
4.5750713e+3, 2.940127e+2, -129193.664, -217749.03, -5.1069717, 0.00022755822, -0.00023970526, -129193.664, -70517.92, 0.0, 10.001191, 9.885652 
4.5750713e+3, 3.0392656e+2, -39470.027, -84747.08, -0.4943635, 0.00022702181, 0.00018512807, -39470.027, -39470.027, 0.0, 10.001186, 9.941604 
4.5750713e+3, 3.1387004e+2, -38398.59, -82511.47, -2.96594, 0.0002259703, -0.00004570422, -38398.59, -38398.59, 0.0, 10.001183, 9.943114 
4.5850763e+3, 1.250041e+2, -1718343.5, -1724112.4, 1.7533729, 0.00024133215, 0.00007893093, -1718343.5, -3383.2761, 0.0, 10.00133, 9.993683 
4.5850757e+3, 1.3499764e+2, -1620981.8, -1627337.1, -1.977908, 0.00023972975, -0.000098793906, -1620981.8, -3958.2043, 0.0, 10.001323, 9.9929 
4.5850757e+3, 1.4498465e+2, -1532853.3, -1547980.4, -0.86810523, 0.00023880732, 0.00016414818, -1532853.3, -13702.53, 0.0, 10.001316, 9.981269 
4.585075e+3, 1.5496589e+2, -1435142.8, -1450668.4, -4.482969, 0.00023856264, -0.000023166314, -1435142.8, -13808.233, 0.0, 10.00131, 9.980738 
4.585075e+3, 1.6494054e+2, -1347106.6, -1371810.0, -2.7041857, 0.00023807201, 0.000059951763, -1347106.6, -23523.535, 0.0, 10.001304, 9.968654 
4.5850748e+3, 1.7490923e+2, -1249165.5, -1274180.0, -6.2901573, 0.00023733206, -0.00004341999, -1249165.5, -23275.857, 0.0, 10.001297, 9.96824 
4.5850748e+3, 1.848713e+2, -1161095.0, -1195592.6, -3.8335137, 0.00023657703, 0.000101746686, -1161095.0, -32833.574, 0.0, 10.00129, 9.955807 
4.5850742e+3, 1.9482715e+2, -1062962.5, -1097717.8, -7.275446, 0.00023580555, -0.000030056082, -1062962.5, -32268.324, 0.0, 10.001284, 9.955463 
4.5850742e+3, 2.0477632e+2, -974809.94, -1019324.8, -4.451627, 0.00023515207, 0.00009189635, -974809.94, -41617.684, 0.0, 10.001278, 9.942706 
4.5850736e+3, 2.1471907e+2, -876539.0, -921311.1, -7.9498982, 0.00023462591, -0.00010222183, -876539.0, -40785.637, 0.0, 10.001271, 9.942365 
4.5850736e+3, 2.2465512e+2, -788264.5, -843052.5, -4.5070653, 0.00023405853, 0.00014488785, -788264.5, -49884.457, 0.0, 10.001266, 9.929326 
4.5850736e+3, 2.3458451e+2, -689846.94, -744885.44, -7.6796002, 0.00023344421, -0.00006697607, -689846.94, -48774.926, 0.0, 10.00126, 9.928995 
4.5850733e+3, 2.4450696e+2, -601534.06, -666943.94, -3.8250601, 0.00023278638, 0.00009488923, -601534.06, -57702.05, 0.0, 10.001254, 9.915558 
4.5850733e+3, 2.5442263e+2, -502796.5, -568279.2, -6.989888, 0.00023207629, -0.00008761503, -502796.5, -56138.125, 0.0, 10.001248, 9.915458 
4.5850733e+3, 2.6433125e+2, -414572.25, -490931.06, -2.6511025, 0.00023146663, 0.00015842335, -414572.25, -65018.113, 0.0, 10.001243, 9.901389 
4.5850727e+3, 2.7423316e+2, -315301.56, -391328.38, -5.622273, 0.00023098451, -0.0001872054, -315301.56, -62786.445, 0.0, 10.001237, 9.901809 
4.5850727e+3, 2.8412685e+2, -228838.36, -318041.7, -1.1805207, 0.00023061958, 0.00024395165, -228838.36, -73281.66, 0.0, 10.001232, 9.884865 
4.5850727e+3, 2.9401278e+2, -129145.97, -217735.38, -3.7933075, 0.00023041347, -0.00023942064, -129145.97, -70471.22, 0.0, 10.001227, 9.885643 
4.5850727e+3, 3.0392665e+2, -39423.254, -84734.35, 1.0101199, 0.0002298987, 0.00018551196, -39423.254, -39423.254, 0.0, 10.001223, 9.941594 
4.5850724e+3, 3.1387013e+2, -38351.805, -82498.77, -1.3329155, 0.0002289258, -0.00004513901, -38351.805, -38351.805, 0.0, 10.001219, 9.943106 
4.595077e+3, 1.2500435e+2, -1718351.9, -1724128.4, -0.81946194, 0.00024438743, 0.00007975971, -1718351.9, -3394.3284, 0.0, 10.00133, 9.993673 
4.595077e+3, 1.3499787e+2, -1620990.1, -1627353.1, -4.5504246, 0.00024304913, -0.00009785137, -1620990.1, -3969.0576, 0.0, 10.001324, 9.992889 
4.5950767e+3, 1.449849e+2, -1532861.3, -1547995.8, -3.2744906, 0.00024212532, 0.0001649019, -1532861.3, -13712.923, 0.0, 10.001317, 9.981259 
4.5950767e+3, 1.5496613e+2, -1435150.6, -1450683.6, -6.8905897, 0.0002416131, -0.000022904844, -1435150.6, -13818.443, 0.0, 10.00131, 9.980728 
4.595076e+3, 1.6494074e+2, -1347114.4, -1371825.1, -5.1130104, 0.00024104651, 0.00006005017, -1347114.4, -23533.537, 0.0, 10.001304, 9.968644 
4.595076e+3, 1.7490946e+2, -1249173.3, -1274195.1, -8.698827, 0.00024042561, -0.00004314964, -1249173.3, -23285.682, 0.0, 10.001297, 9.96823 
4.5950755e+3, 1.8487151e+2, -1161102.4, -1195607.1, -6.346894, 0.00023971632, 0.000102183156, -1161102.4, -32842.996, 0.0, 10.001291, 9.955797 
4.5950755e+3, 1.9482735e+2, -1062969.9, -1097732.1, -9.790998, 0.00023891412, -0.00002945957, -1062969.9, -32277.563, 0.0, 10.001285, 9.955454 
4.5950752e+3, 2.0477651e+2, -974817.4, -1019339.6, -6.7403183, 0.00023826506, 0.00009255197, -974817.4, -41626.996, 0.0, 10.001278, 9.942697 
4.5950752e+3, 2.1471924e+2, -876546.4, -921325.9, -10.232933, 0.00023778134, -0.00010161614, -876546.4, -40794.773, 0.0, 10.001272, 9.942355 
4.5950752e+3, 2.2465529e+2, -788271.4, -843066.3, -6.8050084, 0.00023712071, 0.00014540597, -788271.4, -49892.957, 0.0, 10.001266, 9.929317 
4.5950747e+3, 2.3458467e+2, -689853.7, -744899.06, -9.979843, 0.00023625983, -0.000066587956, -689853.7, -48783.234, 0.0, 10.00126, 9.928987 
4.5950747e+3, 2.4450709e+2, -601540.94, -666957.94, -5.9631743, 0.00023566572, 0.00009531085, -601540.94, -57710.41, 0.0, 10.001254, 9.915548 
4.5950747e+3, 2.5442278e+2, -502803.3, -568293.1, -9.119923, 0.00023538957, -0.0000869649, -502803.3, -56146.32, 0.0, 10.001248, 9.915449 
4.5950744e+3, 2.6433137e+2, -414578.94, -490944.84, -4.666661, 0.00023486522, 0.0001590568, -414578.94, -65026.09, 0.0, 10.001243, 9.90138 
4.5950744e+3, 2.7423328e+2, -315308.13, -391342.03, -7.630641, 0.0002340243, -0.00018690077, -315308.13, -62794.24, 0.0, 10.001237, 9.9018 
4.5950744e+3, 2.84127e+2, -228844.55, -318054.63, -3.034111, 0.00023339696, 0.0002441922, -228844.55, -73288.96, 0.0, 10.001232, 9.884856 
4.5950738e+3, 2.940129e+2, -129152.05, -217748.17, -5.633605, 0.00023306237, -0.00023888078, -129152.05, -70478.336, 0.0, 10.001227, 9.885635 
4.5950738e+3, 3.0392677e+2, -39429.32, -84747.164, -0.6010947, 0.00023263476, 0.00018596761, -39429.32, -39429.32, 0.0, 10.001223, 9.941586 
4.5950738e+3, 3.1387022e+2, -38357.887, -82511.6, -2.919589, 0.00023206799, -0.00004533986, -38357.887, -38357.887, 0.0, 10.001219, 9.943097 
4.6050787e+3, 1.2500463e+2, -1718290.9, -1724107.3, 1.6271541, 0.00024752648, 0.00008031967, -1718290.9, -3335.9373, 0.0, 10.001373, 9.993663 
4.6050787e+3, 1.3499814e+2, -1620929.0, -1627332.1, -2.1539137, 0.00024635287, -0.000097023476, -1620929.0, -3910.494, 0.0, 10.001367, 9.99288 
4.605078e+3, 1.4498514e+2, -1532800.6, -1547975.0, -1.0185318, 0.00024545816, 0.00016570673, -1532800.6, -13654.748, 0.0, 10.00136, 9.98125 
4.605078e+3, 1.5496637e+2, -1435091.4, -1450663.8, -4.8698697, 0.0002448391, -0.000022414804, -1435091.4, -13761.552, 0.0, 10.001352, 9.980719 
4.6050775e+3, 1.64941e+2, -1347056.0, -1371805.5, -3.1912014, 0.0002441687, 0.00006044956, -1347056.0, -23477.451, 0.0, 10.001346, 9.968635 
4.6050775e+3, 1.7490967e+2, -1249116.1, -1274176.1, -6.8007693, 0.00024344717, -0.000042612766, -1249116.1, -23230.686, 0.0, 10.001338, 9.968221 
4.6050772e+3, 1.8487172e+2, -1161045.9, -1195588.6, -4.5287557, 0.00024277024, 0.00010278246, -1161045.9, -32788.465, 0.0, 10.001331, 9.955788 
4.6050772e+3, 1.9482754e+2, -1062913.5, -1097713.9, -8.145386, 0.0002421391, -0.000028876122, -1062913.5, -32223.201, 0.0, 10.001325, 9.955444 
4.6050766e+3, 2.047767e+2, -974761.75, -1019321.7, -5.0351076, 0.00024148471, 0.0000931207, -974761.7, -41573.195, 0.0, 10.001318, 9.942687 
4.6050766e+3, 2.1471941e+2, -876492.1, -921308.8, -8.414775, 0.00024080512, -0.00010106089, -876492.1, -40742.293, 0.0, 10.001311, 9.942347 
4.6050763e+3, 2.2465545e+2, -788217.9, -843049.56, -4.9442153, 0.00024009039, 0.00014592761, -788217.9, -49841.168, 0.0, 10.001305, 9.929308 
4.6050763e+3, 2.3458482e+2, -689800.6, -744882.75, -8.387174, 0.00023933557, -0.000066122644, -689800.6, -48731.81, 0.0, 10.001299, 9.928977 
4.6050763e+3, 2.4450727e+2, -601488.4, -666941.8, -4.3777056, 0.00023879249, 0.0000957761, -601488.4, -57659.316, 0.0, 10.001293, 9.91554 
4.6050757e+3, 2.544229e+2, -502751.44, -568277.56, -7.5145044, 0.00023850161, -0.00008643258, -502751.44, -56095.906, 0.0, 10.0012865, 9.91544 
4.6050757e+3, 2.643315e+2, -414527.78, -490929.78, -2.9656737, 0.00023794551, 0.0001595869, -414527.78, -64976.285, 0.0, 10.001281, 9.901371 
4.6050757e+3, 2.7423343e+2, -315257.78, -391327.5, -6.0057673, 0.00023705131, -0.00018646108, -315257.78, -62745.117, 0.0, 10.001275, 9.901791 
4.605075e+3, 2.8412712e+2, -228794.5, -318039.88, -1.3348935, 0.00023639592, 0.00024462267, -228794.5, -73240.086, 0.0, 10.00127, 9.884848 
4.605075e+3, 2.94013e+2, -129102.76, -217733.89, -4.023362, 0.00023606782, -0.00023834813, -129102.76, -70430.13, 0.0, 10.001265, 9.885626 
4.605075e+3, 3.0392686e+2, -39381.42, -84734.234, 0.98030365, 0.00023559645, 0.00018641244, -39381.42, -39381.42, 0.0, 10.00126, 9.941577 
4.605075e+3, 3.138703e+2, -38310.676, -82499.07, -1.6638246, 0.00023491112, -0.000045265475, -38310.676, -38310.676, 0.0, 10.001255, 9.943088 
4.61508e+3, 1.250049e+2, -1718299.5, -1724123.5, -0.85163945, 0.00025074763, 0.000080619364, -1718299.5, -3347.212, 0.0, 10.001373, 9.993653 
4.6150795e+3, 1.3499841e+2, -1620937.5, -1627348.3, -4.6329355, 0.00024964253, -0.00009630635, -1620937.5, -3921.5833, 0.0, 10.001367, 9.992869 
4.6150795e+3, 1.449854e+2, -1532809.1, -1547991.4, -3.6760697, 0.00024880658, 0.00016656153, -1532809.1, -13665.798, 0.0, 10.00136, 9.981239 
4.6150792e+3, 1.5496661e+2, -1435099.9, -1450680.1, -7.52669, 0.00024823632, -0.000021702826, -1435099.9, -13772.401, 0.0, 10.001352, 9.980708 
4.6150792e+3, 1.6494122e+2, -1347063.9, -1371820.6, -5.805681, 0.00024743506, 0.00006114116, -1347063.9, -23487.613, 0.0, 10.001346, 9.968625 
4.6150786e+3, 1.7490989e+2, -1249123.9, -1274191.4, -9.416167, 0.00024639978, -0.000041816955, -1249123.9, -23240.662, 0.0, 10.001339, 9.968211 
4.6150786e+3, 1.8487193e+2, -1161053.6, -1195603.9, -7.0313897, 0.0002457423, 0.00010354011, -1161053.6, -32798.36, 0.0, 10.001331, 9.955778 
4.6150783e+3, 1.9482775e+2, -1062921.1, -1097729.0, -10.646403, 0.0002454781, -0.000028305216, -1062921.1, -32232.912, 0.0, 10.001326, 9.955435 
4.6150783e+3, 2.047769e+2, -974768.94, -1019336.06, -7.588259, 0.00024480888, 0.0000936053, -974768.94, -41582.38, 0.0, 10.001318, 9.9426775 
4.6150777e+3, 2.1471962e+2, -876499.25, -921323.1, -10.971175, 0.00024370203, -0.00010055409, -876499.25, -40751.293, 0.0, 10.001311, 9.942337 
4.6150777e+3, 2.2465564e+2, -788225.25, -843064.44, -7.289998, 0.00024297116, 0.00014645321, -788225.25, -49850.3, 0.0, 10.001306, 9.929298 
4.6150777e+3, 2.34585e+2, -689807.94, -744897.5, -10.725151, 0.00024266468, -0.00006558215, -689807.94, -48740.766, 0.0, 10.001299, 9.928967 
4.615077e+3, 2.4450742e+2, -601495.25, -666955.8, -6.6291256, 0.00024216033, 0.000096283875, -601495.25, -57667.758, 0.0, 10.001293, 9.91553 
4.615077e+3, 2.5442305e+2, -502758.22, -568291.44, -9.762832, 0.0002414192, -0.00008601432, -502758.22, -56104.156, 0.0, 10.0012865, 9.915431 
4.6150768e+3, 2.6433164e+2, -414534.6, -490943.84, -5.1020107, 0.00024071772, 0.00016001705, -414534.6, -64984.5, 0.0, 10.001281, 9.901361 
4.6150768e+3, 2.7423355e+2, -315264.5, -391341.5, -8.1347685, 0.00024006683, -0.00018588995, -315264.5, -62753.164, 0.0, 10.001275, 9.901781 
4.6150768e+3, 2.8412724e+2, -228800.88, -318053.2, -3.3127942, 0.00023961085, 0.00024523787, -228800.88, -73247.67, 0.0, 10.00127, 9.884839 
4.6150768e+3, 2.940131e+2, -129109.02, -217747.08, -5.9882493, 0.00023942026, -0.00023782215, -129109.02, -70437.516, 0.0, 10.001265, 9.885617 
4.6150762e+3, 3.0392694e+2, -39388.086, -84748.305, -0.79094636, 0.00023877798, 0.00018684707, -39388.086, -39388.086, 0.0, 10.00126, 9.941567 
4.6150762e+3, 3.138704e+2, -38317.406, -82513.266, -3.4115305, 0.00023746461, -0.000044923803, -38317.406, -38317.406, 0.0, 10.001255, 9.943078 
4.6250814e+3, 1.2500519e+2, -1718235.5, -1724101.0, 1.6453077, 0.00025423206, 0.00008134925, -1718235.5, -3285.97, 0.0, 10.001418, 9.993643 
4.625081e+3, 1.349987e+2, -1620875.0, -1627326.8, -2.2533784, 0.00025290603, -0.00009580442, -1620875.0, -3861.7634, 0.0, 10.0014105, 9.99286 
4.625081e+3, 1.4498566e+2, -1532747.6, -1547970.4, -1.402696, 0.00025199345, 0.00016706236, -1532747.6, -13606.817, 0.0, 10.001403, 9.98123 
4.6250805e+3, 1.5496688e+2, -1435039.0, -1450659.6, -5.2178645, 0.00025149103, -0.00002097598, -1435039.0, -13713.971, 0.0, 10.001396, 9.980698 
4.6250805e+3, 1.6494146e+2, -1347003.5, -1371800.3, -3.5734053, 0.00025071632, 0.00006192027, -1347003.5, -23429.598, 0.0, 10.001389, 9.968616 
4.62508e+3, 1.7491013e+2, -1249064.6, -1274171.6, -7.3656726, 0.00024966564, -0.00004116225, -1249064.6, -23183.674, 0.0, 10.001381, 9.968202 
4.62508e+3, 1.8487217e+2, -1160995.1, -1195584.5, -4.9326487, 0.00024894503, 0.00010416866, -1160995.1, -32742.115, 0.0, 10.001374, 9.955769 
4.6250796e+3, 1.9482797e+2, -1062863.8, -1097710.4, -8.535275, 0.00024856796, -0.000027600368, -1062863.8, -32177.59, 0.0, 10.001367, 9.955425 
4.6250796e+3, 2.047771e+2, -974712.25, -1019317.9, -5.6060033, 0.000247897, 0.000094244904, -974712.25, -41527.63, 0.0, 10.00136, 9.942668 
4.625079e+3, 2.147198e+2, -876443.06, -921305.4, -9.303373, 0.00024690837, -0.00010013257, -876443.06, -40696.992, 0.0, 10.001353, 9.9423275 
4.625079e+3, 2.2465582e+2, -788169.56, -843046.9, -5.5821056, 0.00024619367, 0.00014687688, -788169.56, -49796.45, 0.0, 10.001346, 9.929289 
4.6250787e+3, 2.3458518e+2, -689753.3, -744880.6, -8.917179, 0.00024578805, -0.00006490756, -689753.3, -48687.844, 0.0, 10.001339, 9.928958 
4.6250787e+3, 2.4450758e+2, -601441.3, -666939.3, -4.726455, 0.00024521397, 0.000096975156, -601441.3, -57615.492, 0.0, 10.001333, 9.915522 
4.625078e+3, 2.5442323e+2, -502705.2, -568275.5, -8.013035, 0.00024443827, -0.00008558589, -502705.2, -56052.664, 0.0, 10.001327, 9.9154215 
4.625078e+3, 2.643318e+2, -414482.25, -490928.34, -3.3078964, 0.00024373588, 0.00016035872, -414482.25, -64933.586, 0.0, 10.001321, 9.901352 
4.625078e+3, 2.7423367e+2, -315212.78, -391326.47, -6.37775, 0.00024312687, -0.00018541056, -315212.78, -62702.777, 0.0, 10.001314, 9.9017725 
4.6250775e+3, 2.8412735e+2, -228749.42, -318038.0, -1.4681998, 0.00024267929, 0.00024576383, -228749.42, -73197.47, 0.0, 10.001308, 9.8848295 
4.6250775e+3, 2.9401323e+2, -129058.25, -217732.34, -4.223067, 0.00024245115, -0.0002373754, -129058.25, -70387.92, 0.0, 10.001304, 9.885609 
4.6250775e+3, 3.0392706e+2, -39338.773, -84735.055, 1.0657974, 0.00024176644, 0.00018730221, -39338.773, -39338.773, 0.0, 10.001298, 9.941558 
4.6250775e+3, 3.1387052e+2, -38268.914, -82500.484, -1.447016, 0.00024040391, -0.000044328808, -38268.914, -38268.914, 0.0, 10.001293, 9.9430685 
4.635083e+3, 1.2500548e+2, -1718244.3, -1724117.9, -1.1083894, 0.0002579727, 0.00008249604, -1718244.3, -3297.644, 0.0, 10.001418, 9.993632 
4.6350825e+3, 1.3499896e+2, -1620883.8, -1627343.5, -5.008313, 0.00025614514, -0.00009551064, -1620883.8, -3873.2346, 0.0, 10.0014105, 9.992849 
4.6350825e+3, 1.4498593e+2, -1532756.1, -1547986.6, -4.1346784, 0.00025502482, 0.00016722073, -1532756.1, -13617.8955, 0.0, 10.001404, 9.981219 
4.635082e+3, 1.5496713e+2, -1435047.3, -1450675.8, -7.94994, 0.00025460878, -0.000020234243, -1435047.3, -13724.863, 0.0, 10.001396, 9.980688 
4.6350816e+3, 1.6494171e+2, -1347011.8, -1371816.3, -6.3782563, 0.0002540132, 0.00006278458, -1347011.8, -23440.283, 0.0, 10.001389, 9.968605 
4.6350816e+3, 1.7491037e+2, -1249072.8, -1274187.5, -10.170757, 0.00025323607, -0.00004064401, -1249072.8, -23194.16, 0.0, 10.001381, 9.968191 
4.635081e+3, 1.8487239e+2, -1161002.9, -1195599.8, -7.603063, 0.00025237227, 0.00010467244, -1161002.9, -32752.096, 0.0, 10.001374, 9.955759 
4.635081e+3, 1.9482818e+2, -1062871.4, -1097725.5, -11.205574, 0.0002514173, -0.0000267652, -1062871.4, -32187.389, 0.0, 10.001367, 9.955416 
4.6350807e+3, 2.0477732e+2, -974720.1, -1019333.56, -8.217089, 0.00025075735, 0.000095035204, -974720.1, -41537.58, 0.0, 10.00136, 9.942658 
4.6350807e+3, 2.1472001e+2, -876450.9, -921320.94, -11.911973, 0.0002504157, -0.00009979353, -876450.9, -40706.746, 0.0, 10.001353, 9.942317 
4.63508e+3, 2.24656e+2, -788176.75, -843061.4, -8.096359, 0.0002497484, 0.0001472019, -788176.75, -49805.504, 0.0, 10.001347, 9.92928 
4.63508e+3, 2.3458536e+2, -689760.4, -744894.94, -11.429879, 0.00024871292, -0.0000641026, -689760.4, -48696.707, 0.0, 10.00134, 9.928949 
4.63508e+3, 2.4450774e+2, -601448.5, -666953.9, -7.120415, 0.000247964, 0.000097844786, -601448.5, -57624.332, 0.0, 10.001333, 9.915512 
4.6350795e+3, 2.5442338e+2, -502712.28, -568290.0, -10.401856, 0.00024755666, -0.00008514727, -502712.28, -56061.32, 0.0, 10.001327, 9.915412 
4.6350795e+3, 2.6433194e+2, -414489.16, -490942.63, -5.5269237, 0.0002469934, 0.00016061484, -414489.16, -64941.992, 0.0, 10.001321, 9.901342 
4.6350792e+3, 2.7423382e+2, -315219.6, -391340.66, -8.58607, 0.00024623092, -0.00018501982, -315219.6, -62710.996, 0.0, 10.001315, 9.901763 
4.6350792e+3, 2.841275e+2, -228755.95, -318051.7, -3.5492747, 0.00024560658, 0.0002462036, -228755.95, -73205.31, 0.0, 10.001309, 9.884821 
4.6350792e+3, 2.9401338e+2, -129064.68, -217745.89, -6.2930603, 0.00024517108, -0.00023700522, -129064.68, -70395.57, 0.0, 10.001304, 9.885599 
4.6350792e+3, 3.0392718e+2, -39345.297, -84748.836, -0.894492, 0.00024456857, 0.00018777754, -39345.297, -39345.297, 0.0, 10.001298, 9.941548 
4.6350786e+3, 3.138706e+2, -38275.457, -82514.305, -3.3952546, 0.00024371824, -0.000043487635, -38275.457, -38275.457, 0.0, 10.001293, 9.943059 
4.6450844e+3, 1.2500578e+2, -1718178.3, -1724094.9, 1.6922197, 0.000261481, 0.000083266146, -1718178.3, -3234.58, 0.0, 10.001464, 9.993622 
4.6450838e+3, 1.3499925e+2, -1620819.1, -1627321.4, -2.450053, 0.00025953705, -0.00009478028, -1620819.1, -3811.4414, 0.0, 10.001456, 9.992838 
4.6450838e+3, 1.4498621e+2, -1532692.4, -1547964.6, -1.7015846, 0.00025832746, 0.00016792132, -1532692.4, -13556.856, 0.0, 10.001449, 9.981209 
4.6450835e+3, 1.549674e+2, -1434984.9, -1450654.6, -5.592447, 0.00025784926, -0.000019553494, -1434984.9, -13665.093, 0.0, 10.00144, 9.980678 
4.645083e+3, 1.6494197e+2, -1346950.1, -1371795.5, -4.039342, 0.00025727614, 0.000063473795, -1346950.1, -23381.186, 0.0, 10.001432, 9.968595 
4.645083e+3, 1.7491062e+2, -1249011.8, -1274167.3, -7.868552, 0.0002566076, -0.000039917537, -1249011.8, -23135.504, 0.0, 10.001425, 9.968182 
4.6450827e+3, 1.8487264e+2, -1160942.5, -1195579.6, -5.369539, 0.00025572127, 0.00010533823, -1160942.5, -32694.021, 0.0, 10.001417, 9.955749 
4.6450827e+3, 1.9482842e+2, -1062812.4, -1097706.3, -9.169677, 0.00025460712, -0.000026262189, -1062812.4, -32130.57, 0.0, 10.00141, 9.955406 
4.645082e+3, 2.0477752e+2, -974661.94, -1019314.9, -6.0555506, 0.0002538884, 0.00009556761, -974661.94, -41481.496, 0.0, 10.001402, 9.942648 
4.645082e+3, 2.1472022e+2, -876393.2, -921302.7, -9.625966, 0.0002535966, -0.00009902426, -876393.2, -40651.094, 0.0, 10.001395, 9.942307 
4.6450815e+3, 2.2465621e+2, -788119.6, -843043.2, -5.806787, 0.00025293438, 0.00014801597, -788119.6, -49750.25, 0.0, 10.001388, 9.929271 
4.6450815e+3, 2.3458554e+2, -689704.3, -744877.5, -9.349474, 0.00025185323, -0.00006346066, -689704.3, -48642.44, 0.0, 10.001381, 9.92894 
4.6450812e+3, 2.4450794e+2, -601393.2, -666937.0, -5.008611, 0.0002510706, 0.00009839637, -601393.2, -57570.75, 0.0, 10.001374, 9.915503 
4.6450812e+3, 2.5442356e+2, -502657.56, -568273.56, -8.380909, 0.0002506439, -0.00008458838, -502657.56, -56008.24, 0.0, 10.001368, 9.915402 
4.6450812e+3, 2.643321e+2, -414435.0, -490926.47, -3.4693122, 0.00025006465, 0.00016115162, -414435.0, -64889.367, 0.0, 10.001361, 9.901333 
4.6450806e+3, 2.7423397e+2, -315166.38, -391325.13, -6.6253934, 0.0002492903, -0.00018454276, -315166.38, -62659.227, 0.0, 10.001355, 9.901753 
4.6450806e+3, 2.8412762e+2, -228703.34, -318036.16, -1.5524651, 0.0002486365, 0.0002466777, -228703.34, -73154.07, 0.0, 10.0013485, 9.884811 
4.6450806e+3, 2.940135e+2, -129013.14, -217731.02, -4.351645, 0.0002481475, -0.00023645647, -129013.13, -70345.305, 0.0, 10.001343, 9.885591 
4.64508e+3, 3.039273e+2, -39295.08, -84735.22, 1.1000432, 0.0002475243, 0.00018831162, -39295.08, -39295.08, 0.0, 10.001337, 9.941539 
4.64508e+3, 3.1387073e+2, -38225.41, -82500.83, -1.5043303, 0.0002467024, -0.000043101136, -38225.41, -38225.41, 0.0, 10.001331, 9.943049 
4.6550858e+3, 1.2500608e+2, -1718187.8, -1724112.8, -1.3022808, 0.00026476584, 0.00008367251, -1718187.8, -3246.9543, 0.0, 10.001465, 9.99361 
4.6550855e+3, 1.3499954e+2, -1620828.4, -1627339.1, -5.4424896, 0.00026307802, -0.000093627095, -1620828.4, -3823.606, 0.0, 10.001456, 9.992827 
4.655085e+3, 1.449865e+2, -1532700.9, -1547981.1, -4.6726418, 0.00026189376, 0.0001691468, -1532700.9, -13568.236, 0.0, 10.001449, 9.981198 
4.655085e+3, 1.5496767e+2, -1434993.5, -1450671.0, -8.564838, 0.00026120959, -0.000018931458, -1434993.4, -13676.271, 0.0, 10.001441, 9.980667 
4.6550846e+3, 1.6494223e+2, -1346958.5, -1371811.6, -6.891557, 0.0002605073, 0.00006399399, -1346958.5, -23392.07, 0.0, 10.001432, 9.968585 
4.6550846e+3, 1.7491087e+2, -1249019.9, -1274183.3, -10.720909, 0.0002597877, -0.000038989034, -1249019.9, -23146.2, 0.0, 10.001425, 9.968171 
4.655084e+3, 1.8487287e+2, -1160950.6, -1195595.6, -8.284874, 0.00025899574, 0.00010616124, -1160950.6, -32704.555, 0.0, 10.001417, 9.955739 
4.655084e+3, 1.9482864e+2, -1062820.4, -1097722.1, -12.08563, 0.00025812752, -0.000026080468, -1062820.4, -32140.898, 0.0, 10.00141, 9.955396 
4.6550834e+3, 2.0477776e+2, -974669.56, -1019330.06, -8.717481, 0.00025728255, 0.000095850664, -974669.56, -41491.3, 0.0, 10.001402, 9.942638 
4.6550834e+3, 2.1472043e+2, -876400.75, -921317.75, -12.2837, 0.00025646252, -0.000097837896, -876400.75, -40660.72, 0.0, 10.001395, 9.942298 
4.655083e+3, 2.2465642e+2, -788127.2, -843058.5, -8.507205, 0.00025576432, 0.00014930406, -788127.2, -49759.848, 0.0, 10.001389, 9.92926 
4.655083e+3, 2.3458573e+2, -689711.8, -744892.75, -12.051745, 0.0002552032, -0.000062976265, -689711.8, -48651.836, 0.0, 10.001381, 9.928929 
4.6550825e+3, 2.4450812e+2, -601400.56, -666952.0, -7.47506, 0.0002545235, 0.000098640274, -601400.56, -57579.9, 0.0, 10.001374, 9.915492 
4.6550825e+3, 2.5442374e+2, -502664.8, -568288.44, -10.836276, 0.00025370196, -0.000083912586, -502664.8, -56017.2, 0.0, 10.001368, 9.915393 
4.655082e+3, 2.6433223e+2, -414442.13, -490941.16, -5.841948, 0.0002529564, 0.0001619606, -414442.13, -64898.09, 0.0, 10.001361, 9.901323 
4.655082e+3, 2.7423412e+2, -315173.38, -391339.7, -8.993281, 0.00025230736, -0.00018398173, -315173.38, -62667.75, 0.0, 10.001355, 9.901744 
4.655082e+3, 2.8412777e+2, -228710.0, -318050.1, -3.8287857, 0.00025176682, 0.0002471854, -228710.0, -73162.14, 0.0, 10.0013485, 9.884803 
4.6550816e+3, 2.9401365e+2, -129019.67, -217744.81, -6.6203265, 0.0002513732, -0.00023573433, -129019.67, -70353.164, 0.0, 10.001343, 9.885581 
4.6550816e+3, 3.0392742e+2, -39301.805, -84749.445, -0.9074903, 0.00025062967, 0.00018890297, -39301.805, -39301.805, 0.0, 10.001337, 9.941529 
4.6550816e+3, 3.1387085e+2, -38232.184, -82515.13, -3.4827187, 0.00024936761, -0.000043154898, -38232.184, -38232.184, 0.0, 10.001332, 9.94304 
4.6650875e+3, 1.250064e+2, -1718120.1, -1724089.0, 1.5342921, 0.0002681348, 0.00008443611, -1718120.1, -3182.495, 0.0, 10.001512, 9.9936 
4.665087e+3, 1.3499984e+2, -1620761.9, -1627316.1, -2.460402, 0.00026655686, -0.000092674076, -1620761.9, -3759.9998, 0.0, 10.001503, 9.992817 
4.665087e+3, 1.4498678e+2, -1532635.1, -1547958.5, -1.7208761, 0.0002654141, 0.00017010493, -1532635.1, -13505.308, 0.0, 10.001495, 9.981188 
4.6650866e+3, 1.5496793e+2, -1434928.9, -1450649.1, -5.8349514, 0.00026470286, -0.000018153038, -1434928.9, -13614.402, 0.0, 10.001487, 9.980657 
4.665086e+3, 1.649425e+2, -1346894.8, -1371790.0, -4.2286925, 0.0002639072, 0.00006468284, -1346894.8, -23331.035, 0.0, 10.001478, 9.968575 
4.665086e+3, 1.7491113e+2, -1248957.6, -1274162.6, -8.177582, 0.00026302683, -0.000038297992, -1248957.6, -23086.459, 0.0, 10.00147, 9.968161 
4.6650854e+3, 1.8487312e+2, -1160889.1, -1195575.4, -5.7619376, 0.00026223596, 0.00010688843, -1160889.1, -32645.479, 0.0, 10.001462, 9.955729 
4.6650854e+3, 1.9482888e+2, -1062759.4, -1097702.3, -9.596596, 0.00026153756, -0.000025281826, -1062759.4, -32082.223, 0.0, 10.001454, 9.955385 
4.665085e+3, 2.0477799e+2, -974609.25, -1019310.3, -6.18229, 0.00026065795, 0.00009662746, -974609.25, -41433.227, 0.0, 10.001446, 9.942629 
4.6650845e+3, 2.1472064e+2, -876342.06, -921299.06, -9.877913, 0.0002595825, -0.00009718357, -876342.06, -40604.184, 0.0, 10.001438, 9.942287 
4.6650845e+3, 2.2465661e+2, -788069.4, -843040.44, -6.041197, 0.0002588286, 0.00014990525, -788069.4, -49704.047, 0.0, 10.0014305, 9.929251 
4.6650845e+3, 2.3458594e+2, -689653.94, -744874.8, -9.676257, 0.0002584374, -0.000062350024, -689653.94, -48595.9, 0.0, 10.001424, 9.92892 
4.665084e+3, 2.445083e+2, -601343.0, -666934.2, -5.0933437, 0.00025779053, 0.00009928909, -601343.0, -57524.223, 0.0, 10.001417, 9.9154825 
4.665084e+3, 2.5442392e+2, -502608.63, -568271.5, -8.49626, 0.00025683813, -0.000083244166, -502608.63, -55962.773, 0.0, 10.00141, 9.915382 
4.6650836e+3, 2.643324e+2, -414386.9, -490924.8, -3.4130461, 0.0002560229, 0.00016262985, -414386.9, -64844.54, 0.0, 10.001403, 9.901314 
4.6650836e+3, 2.742343e+2, -315118.94, -391323.88, -6.6752067, 0.00025538233, -0.00018333549, -315118.94, -62614.863, 0.0, 10.001396, 9.901734 
4.665083e+3, 2.8412792e+2, -228655.75, -318034.0, -1.4865217, 0.00025487447, 0.00024781027, -228655.75, -73109.375, 0.0, 10.0013895, 9.884793 
4.665083e+3, 2.9401377e+2, -128965.945, -217729.1, -4.361935, 0.00025454626, -0.00023512857, -128965.945, -70300.83, 0.0, 10.001384, 9.885572 
4.665083e+3, 3.0392754e+2, -39249.78, -84735.43, 1.2779337, 0.00025374198, 0.00018944754, -39249.78, -39249.78, 0.0, 10.001377, 9.94152 
4.665083e+3, 3.1387097e+2, -38181.64, -82501.914, -1.4983101, 0.00025223164, -0.00004273359, -38181.64, -38181.64, 0.0, 10.001371, 9.94303 
4.6750888e+3, 1.2500672e+2, -1718129.3, -1724106.3, -1.5956881, 0.00027158626, 0.00008554515, -1718129.3, -3194.6692, 0.0, 10.001512, 9.993589 
4.6750885e+3, 1.3500015e+2, -1620770.8, -1627333.3, -5.5931797, 0.0002699768, -0.00009191394, -1620770.8, -3771.9707, 0.0, 10.001504, 9.9928055 
4.6750885e+3, 1.4498709e+2, -1532644.3, -1547975.9, -4.886086, 0.00026889122, 0.00017080535, -1532644.3, -13517.335, 0.0, 10.001495, 9.981177 
4.675088e+3, 1.5496823e+2, -1434937.9, -1450666.5, -8.999129, 0.00026832585, -0.000017222917, -1434937.8, -13626.224, 0.0, 10.001487, 9.980646 
4.6750873e+3, 1.6494279e+2, -1346903.4, -1371806.8, -7.3302937, 0.00026747136, 0.00006553515, -1346903.4, -23342.322, 0.0, 10.001478, 9.968564 
4.6750873e+3, 1.7491141e+2, -1248966.1, -1274179.1, -11.279061, 0.0002663241, -0.00003783611, -1248966.1, -23097.543, 0.0, 10.00147, 9.96815 
4.675087e+3, 1.8487339e+2, -1160897.4, -1195591.5, -8.715355, 0.00026544416, 0.00010752346, -1160897.4, -32656.215, 0.0, 10.001462, 9.955718 
4.675087e+3, 1.9482914e+2, -1062767.5, -1097718.4, -12.54839, 0.0002648421, -0.0000238861, -1062767.5, -32092.77, 0.0, 10.001454, 9.955376 
4.6750864e+3, 2.0477821e+2, -974617.1, -1019326.06, -9.156954, 0.00026401642, 0.00009788216, -974617.1, -41443.45, 0.0, 10.001447, 9.942618 
4.6750858e+3, 2.1472088e+2, -876349.8, -921314.6, -12.854852, 0.00026294915, -0.00009704345, -876349.8, -40614.195, 0.0, 10.001438, 9.942278 
4.6750858e+3, 2.2465685e+2, -788077.1, -843056.1, -8.659772, 0.00026212042, 0.00014984247, -788077.1, -49713.945, 0.0, 10.0014305, 9.92924 
4.6750855e+3, 2.3458615e+2, -689661.6, -744890.44, -12.282897, 0.00026156072, -0.00006158609, -689661.6, -48605.617, 0.0, 10.001424, 9.928909 
4.6750855e+3, 2.445085e+2, -601350.44, -666949.4, -7.7999, 0.00026087894, 0.00010033006, -601350.44, -57533.594, 0.0, 10.001417, 9.915473 
4.6750855e+3, 2.544241e+2, -502615.97, -568286.56, -11.208802, 0.0002600509, -0.00008258245, -502615.97, -55971.938, 0.0, 10.00141, 9.915373 
4.675085e+3, 2.6433262e+2, -414394.22, -490939.97, -5.905418, 0.0002592594, 0.00016316434, -414394.22, -64853.594, 0.0, 10.001403, 9.901304 
4.675085e+3, 2.7423447e+2, -315126.16, -391338.94, -9.153415, 0.00025851428, -0.00018260638, -315126.16, -62623.734, 0.0, 10.001396, 9.901724 
4.6750844e+3, 2.8412807e+2, -228662.58, -318048.3, -3.8234735, 0.00025796122, 0.00024854895, -228662.58, -73117.734, 0.0, 10.0013895, 9.884784 
4.6750844e+3, 2.9401392e+2, -128972.66, -217743.25, -6.687195, 0.00025766954, -0.00023463498, -128972.66, -70308.98, 0.0, 10.001384, 9.885563 
4.6750844e+3, 3.039277e+2, -39256.88, -84750.44, -1.0664029, 0.00025686205, 0.00018994731, -39256.88, -39256.88, 0.0, 10.001377, 9.941509 
4.675084e+3, 3.138711e+2, -38188.797, -82517.05, -3.8444664, 0.0002552889, -0.000041852116, -38188.797, -38188.797, 0.0, 10.001371, 9.94302 
4.6850902e+3, 1.2500705e+2, -1718059.3, -1724081.6, 1.7890953, 0.00027527908, 0.000086765205, -1718059.3, -3127.9182, 0.0, 10.001561, 9.993578 
4.68509e+3, 1.3500047e+2, -1620702.3, -1627309.6, -2.610637, 0.0002735184, -0.00009125957, -1620702.3, -3706.5557, 0.0, 10.001552, 9.992795 
4.68509e+3, 1.4498739e+2, -1532576.6, -1547952.5, -2.0750976, 0.00027236892, 0.00017133713, -1532576.6, -13452.756, 0.0, 10.001543, 9.981167 
4.6850893e+3, 1.5496853e+2, -1434871.5, -1450644.0, -6.1378465, 0.00027182695, -0.00001637024, -1434871.5, -13562.779, 0.0, 10.0015335, 9.980635 
4.685089e+3, 1.6494307e+2, -1346837.9, -1371784.5, -4.4054403, 0.00027096306, 0.000066483015, -1346837.9, -23279.705, 0.0, 10.001525, 9.968554 
4.685089e+3, 1.7491168e+2, -1248902.0, -1274157.8, -8.414563, 0.00026977307, -0.00003702245, -1248902.0, -23036.107, 0.0, 10.001516, 9.96814 
4.6850884e+3, 1.8487364e+2, -1160834.1, -1195570.5, -5.7161307, 0.00026881526, 0.00010830544, -1160834.1, -32595.57, 0.0, 10.001508, 9.9557085 
4.6850884e+3, 1.9482939e+2, -1062705.4, -1097698.0, -9.575712, 0.0002680987, -0.000023028897, -1062705.4, -32033.152, 0.0, 10.001499, 9.955365 
4.6850878e+3, 2.0477846e+2, -974555.7, -1019306.3, -6.221772, 0.00026730433, 0.000098714045, -974555.7, -41384.426, 0.0, 10.001491, 9.942609 
4.6850875e+3, 2.1472111e+2, -876288.7, -921295.25, -10.16595, 0.00026642578, -0.00009634553, -876288.7, -40555.344, 0.0, 10.001483, 9.942267 
4.6850875e+3, 2.2465706e+2, -788016.6, -843036.9, -5.902461, 0.0002655565, 0.00015050339, -788016.6, -49655.652, 0.0, 10.001475, 9.929231 
4.685087e+3, 2.3458636e+2, -689602.9, -744872.2, -9.499342, 0.0002646974, -0.000060852573, -689602.9, -48548.977, 0.0, 10.001468, 9.9289 
4.685087e+3, 2.4450871e+2, -601292.6, -666931.8, -4.968139, 0.0002639403, 0.0001010735, -601292.6, -57477.75, 0.0, 10.00146, 9.9154625 
4.6850863e+3, 2.5442427e+2, -502558.22, -568269.2, -8.548399, 0.0002633044, -0.00008190396, -502558.22, -55916.082, 0.0, 10.001452, 9.915363 
4.6850863e+3, 2.643328e+2, -414336.84, -490922.84, -3.2662354, 0.00026258663, 0.00016382681, -414336.84, -64798.023, 0.0, 10.001446, 9.901294 
4.6850863e+3, 2.7423462e+2, -315069.84, -391322.53, -6.5999465, 0.00026176433, -0.00018189753, -315069.84, -62569.12, 0.0, 10.001439, 9.901714 
4.685086e+3, 2.8412828e+2, -228606.95, -318031.9, -1.2441581, 0.00026111808, 0.00024924192, -228606.95, -73063.71, 0.0, 10.001431, 9.884774 
4.685086e+3, 2.9401407e+2, -128918.23, -217727.53, -4.238704, 0.00026071188, -0.00023404343, -128918.23, -70256.055, 0.0, 10.001425, 9.885553 
4.685086e+3, 3.0392787e+2, -39203.938, -84736.266, 1.3401756, 0.00025990463, 0.0001905334, -39203.938, -39203.938, 0.0, 10.001418, 9.941499 
4.6850854e+3, 3.138712e+2, -38135.906, -82502.96, -1.4077353, 0.0002585022, -0.00004112783, -38135.906, -38135.906, 0.0, 10.001412, 9.943009 
4.6950918e+3, 1.2500739e+2, -1718069.1, -1724100.6, -1.5927987, 0.00027920614, 0.000088093104, -1718069.1, -3141.1863, 0.0, 10.001561, 9.9935665 
4.6950918e+3, 1.3500081e+2, -1620712.1, -1627328.4, -5.9912715, 0.00027717877, -0.00009070687, -1620712.1, -3719.599, 0.0, 10.001552, 9.992783 
4.6950912e+3, 1.449877e+2, -1532585.6, -1547969.8, -5.441778, 0.0002758485, 0.00017170655, -1532585.6, -13464.811, 0.0, 10.001543, 9.981155 
4.695091e+3, 1.5496884e+2, -1434880.4, -1450661.1, -9.505101, 0.0002752116, -0.00001559178, -1434880.4, -13574.635, 0.0, 10.001534, 9.980624 
4.695091e+3, 1.6494335e+2, -1346846.6, -1371801.4, -7.726964, 0.00027438605, 0.000067523746, -1346846.6, -23291.277, 0.0, 10.001525, 9.968543 
4.6950904e+3, 1.7491196e+2, -1248910.6, -1274174.5, -11.736123, 0.00027336983, -0.00003586857, -1248910.5, -23047.477, 0.0, 10.001516, 9.968129 
4.6950898e+3, 1.8487392e+2, -1160842.4, -1195586.8, -8.857614, 0.0002723449, 0.00010922979, -1160842.4, -32606.512, 0.0, 10.001508, 9.955698 
4.6950898e+3, 1.9482966e+2, -1062713.6, -1097714.3, -12.717457, 0.00027131007, -0.000022691274, -1062713.6, -32043.893, 0.0, 10.001499, 9.955355 
4.6950895e+3, 2.0477872e+2, -974564.1, -1019323.06, -9.182233, 0.00027052523, 0.000099138146, -974564.1, -41395.297, 0.0, 10.001492, 9.942597 
4.695089e+3, 2.1472135e+2, -876297.0, -921311.9, -13.120739, 0.00027000997, -0.00009510825, -876297.0, -40566.023, 0.0, 10.001483, 9.942257 
4.695089e+3, 2.2465728e+2, -788024.4, -843052.5, -8.857949, 0.00026913325, 0.0001518639, -788024.4, -49665.668, 0.0, 10.001475, 9.92922 
4.6950883e+3, 2.3458658e+2, -689610.5, -744887.7, -12.457528, 0.00026784794, -0.00006014793, -689610.5, -48558.777, 0.0, 10.001468, 9.928889 
4.6950883e+3, 2.445089e+2, -601300.4, -666947.6, -7.630173, 0.00026697654, 0.00010153004, -601300.4, -57487.582, 0.0, 10.00146, 9.915452 
4.695088e+3, 2.5442448e+2, -502565.9, -568284.94, -11.196719, 0.0002665983, -0.00008120877, -502565.9, -55925.727, 0.0, 10.001453, 9.915353 
4.695088e+3, 2.6433298e+2, -414344.38, -490938.38, -5.925649, 0.00026600278, 0.00016461339, -414344.38, -64807.4, 0.0, 10.001446, 9.901283 
4.695088e+3, 2.742348e+2, -315077.25, -391337.94, -9.260904, 0.00026512967, -0.00018120777, -315077.25, -62578.29, 0.0, 10.001439, 9.901704 
4.6950874e+3, 2.8412843e+2, -228614.03, -318046.75, -3.8047996, 0.00026434366, 0.00024989122, -228614.03, -73072.45, 0.0, 10.001431, 9.884765 
4.6950874e+3, 2.9401425e+2, -128925.18, -217742.23, -6.790829, 0.0002636769, -0.00023335678, -128925.18, -70264.58, 0.0, 10.001425, 9.885543 
4.6950868e+3, 3.03928e+2, -39211.008, -84751.24, -1.0229319, 0.0002628732, 0.00019120339, -39211.008, -39211.008, 0.0, 10.001419, 9.941489 
4.6950868e+3, 3.1387135e+2, -38143.01, -82518.0, -3.750994, 0.00026186754, -0.00004055498, -38143.008, -38143.008, 0.0, 10.001412, 9.942999 
4.7050938e+3, 1.2500773e+2, -1717996.5, -1724075.1, 1.8001846, 0.00028305038, 0.00008892802, -1717996.5, -3071.9048, 0.0, 10.001612, 9.993555 
4.7050932e+3, 1.3500114e+2, -1620641.5, -1627304.3, -2.5598853, 0.0002808487, -0.000089637426, -1620641.5, -3652.3489, 0.0, 10.001602, 9.992771 
4.705093e+3, 1.4498803e+2, -1532516.3, -1547945.6, -1.9562947, 0.00027938985, 0.00017280674, -1532516.3, -13398.571, 0.0, 10.001592, 9.981145 
4.7050923e+3, 1.5496914e+2, -1434812.5, -1450637.9, -6.14375, 0.00027866993, -0.000014664834, -1434812.5, -13509.839, 0.0, 10.001582, 9.980613 
4.7050923e+3, 1.6494367e+2, -1346779.8, -1371778.5, -4.33025, 0.0002778374, 0.00006841515, -1346779.8, -23227.348, 0.0, 10.001573, 9.968532 
4.7050917e+3, 1.7491224e+2, -1248844.6, -1274152.4, -8.406131, 0.00027689146, -0.000034872694, -1248844.6, -22984.402, 0.0, 10.001563, 9.968119 
4.7050914e+3, 1.848742e+2, -1160777.4, -1195565.1, -5.5232644, 0.00027587308, 0.00011014371, -1160777.4, -32544.256, 0.0, 10.0015545, 9.955687 
4.7050914e+3, 1.9482993e+2, -1062649.8, -1097693.4, -9.657371, 0.0002747783, -0.000022053662, -1062649.8, -31982.666, 0.0, 10.001546, 9.955344 
4.7050908e+3, 2.0477897e+2, -974501.0, -1019302.5, -5.9576793, 0.0002739174, 0.00009981776, -974501.0, -41334.73, 0.0, 10.001537, 9.942587 
4.7050908e+3, 2.147216e+2, -876234.9, -921292.0, -9.69528, 0.00027330877, -0.00009404301, -876234.9, -40506.34, 0.0, 10.001529, 9.942246 
4.7050902e+3, 2.2465754e+2, -787963.0, -843033.25, -5.408274, 0.0002724552, 0.00015296714, -787963.0, -49606.59, 0.0, 10.00152, 9.92921 
4.70509e+3, 2.345868e+2, -689549.56, -744868.9, -9.337181, 0.00027132453, -0.000059399186, -689549.56, -48500.094, 0.0, 10.001513, 9.928879 
4.70509e+3, 2.4450915e+2, -601240.06, -666929.2, -4.4961047, 0.00027044586, 0.000102160564, -601240.06, -57429.438, 0.0, 10.001505, 9.9154415 
4.7050893e+3, 2.544247e+2, -502506.78, -568267.25, -8.130311, 0.00026986733, -0.00008041445, -502506.78, -55868.656, 0.0, 10.001497, 9.915342 
4.7050893e+3, 2.643332e+2, -414286.0, -490921.1, -2.8809497, 0.0002691909, 0.0001654508, -414286.0, -64750.97, 0.0, 10.00149, 9.901274 
4.7050893e+3, 2.74235e+2, -315019.47, -391321.13, -6.3363156, 0.00026838903, -0.00018048122, -315019.47, -62522.34, 0.0, 10.001483, 9.901693 
4.7050887e+3, 2.841286e+2, -228556.53, -318029.72, -0.9030738, 0.00026765076, 0.00025059495, -228556.53, -73016.68, 0.0, 10.001475, 9.884754 
4.7050887e+3, 2.940144e+2, -128868.54, -217725.77, -3.9666264, 0.0002669989, -0.00023255499, -128868.54, -70209.57, 0.0, 10.001469, 9.885533 
4.7050884e+3, 3.0392817e+2, -39156.176, -84736.56, 1.6924639, 0.00026613026, 0.00019198001, -39156.176, -39156.176, 0.0, 10.001461, 9.941478 
4.7050884e+3, 3.1387153e+2, -38089.35, -82503.98, -1.3260864, 0.0002649417, -0.000039987095, -38089.35, -38089.35, 0.0, 10.001454, 9.942988 
4.7150952e+3, 1.2500809e+2, -1718006.4, -1724093.9, -1.9888437, 0.00028681633, 0.00008928844, -1718006.4, -3085.2542, 0.0, 10.001613, 9.993544 
4.715095e+3, 1.3500148e+2, -1620651.3, -1627322.9, -6.347671, 0.0002845293, -0.00008806909, -1620651.3, -3665.4832, 0.0, 10.001602, 9.99276 
4.7150943e+3, 1.4498837e+2, -1532525.4, -1547963.4, -5.597134, 0.00028299206, 0.00017461219, -1532525.4, -13411.087, 0.0, 10.001592, 9.981133 
4.7150943e+3, 1.5496948e+2, -1434821.6, -1450655.5, -9.786079, 0.0002822006, -0.000013594159, -1434821.6, -13522.138, 0.0, 10.001582, 9.980602 
4.7150937e+3, 1.6494398e+2, -1346788.5, -1371795.8, -7.79143, 0.00028131733, 0.000069163165, -1346788.5, -23239.229, 0.0, 10.001573, 9.968521 
4.7150934e+3, 1.7491256e+2, -1248853.4, -1274169.5, -11.867706, 0.00028034183, -0.0000340285, -1248853.4, -22996.08, 0.0, 10.001564, 9.968107 
4.7150934e+3, 1.8487449e+2, -1160786.3, -1195582.6, -8.85003, 0.00027940108, 0.00011104823, -1160786.3, -32555.953, 0.0, 10.0015545, 9.955676 
4.7150928e+3, 1.948302e+2, -1062658.5, -1097710.8, -12.981689, 0.0002784956, -0.000021126189, -1062658.5, -31994.152, 0.0, 10.001546, 9.955333 
4.7150922e+3, 2.0477925e+2, -974509.0, -1019318.44, -9.069596, 0.00027747607, 0.00010074432, -974509.0, -41345.35, 0.0, 10.001537, 9.942577 
4.7150922e+3, 2.1472186e+2, -876242.75, -921307.8, -12.806476, 0.00027633327, -0.000093143084, -876242.75, -40516.758, 0.0, 10.001529, 9.942236 
4.715092e+3, 2.2465779e+2, -787971.4, -843050.1, -8.405343, 0.00027553242, 0.00015382291, -787971.4, -49617.414, 0.0, 10.001521, 9.929199 
4.715092e+3, 2.3458706e+2, -689557.9, -744885.7, -12.329681, 0.00027511705, -0.00005860733, -689557.9, -48510.72, 0.0, 10.001513, 9.928867 
4.7150913e+3, 2.4450937e+2, -601248.0, -666945.4, -7.356161, 0.00027433442, 0.000102959486, -601248.0, -57439.586, 0.0, 10.001505, 9.915431 
4.7150913e+3, 2.544249e+2, -502514.6, -568283.3, -10.985749, 0.00027311337, -0.000079523896, -502514.6, -55878.59, 0.0, 10.001497, 9.915332 
4.7150907e+3, 2.6433337e+2, -414293.72, -490937.1, -5.61011, 0.00027216002, 0.00016633788, -414293.72, -64760.71, 0.0, 10.00149, 9.901263 
4.7150907e+3, 2.742352e+2, -315027.1, -391337.0, -9.058126, 0.00027154718, -0.00017971863, -315027.1, -62531.875, 0.0, 10.001483, 9.901683 
4.7150904e+3, 2.841288e+2, -228563.75, -318044.9, -3.5967176, 0.00027103772, 0.00025135174, -228563.75, -73025.71, 0.0, 10.001475, 9.884745 
4.7150904e+3, 2.9401457e+2, -128875.63, -217740.78, -6.6583033, 0.00027066673, -0.0002316414, -128875.63, -70218.38, 0.0, 10.001469, 9.885523 
4.7150898e+3, 3.0392832e+2, -39163.758, -84752.63, -0.941666, 0.00026966698, 0.00019286017, -39163.758, -39163.758, 0.0, 10.001461, 9.941467 
4.7150898e+3, 3.1387168e+2, -38097.008, -82520.195, -3.9538007, 0.00026773557, -0.000039423645, -38097.008, -38097.008, 0.0, 10.001454, 9.942978 
4.7250968e+3, 1.2500846e+2, -1717932.5, -1724067.6, 1.9420607, 0.00029052704, 0.00009047102, -1717932.5, -3015.0134, 0.0, 10.001664, 9.993531 
4.7250962e+3, 1.3500185e+2, -1620578.8, -1627297.6, -2.3736258, 0.00028817664, -0.00008705568, -1620578.8, -3596.5015, 0.0, 10.001653, 9.992748 
4.7250962e+3, 1.4498872e+2, -1532454.1, -1547938.6, -1.562347, 0.00028662113, 0.00017562704, -1532454.1, -13343.174, 0.0, 10.001642, 9.981122 
4.7250956e+3, 1.5496981e+2, -1434751.8, -1450631.9, -5.9762836, 0.0002858564, -0.000012407527, -1434751.8, -13455.569, 0.0, 10.001632, 9.980591 
4.7250953e+3, 1.649443e+2, -1346719.6, -1371772.3, -3.962165, 0.00028494067, 0.000070305075, -1346719.6, -23173.52, 0.0, 10.001622, 9.968511 
4.7250953e+3, 1.7491287e+2, -1248785.8, -1274146.9, -8.198826, 0.00028387277, -0.00003315111, -1248785.8, -22931.586, 0.0, 10.001612, 9.968097 
4.7250947e+3, 1.8487479e+2, -1160719.6, -1195560.5, -5.0324597, 0.00028289703, 0.00011192269, -1160719.6, -32492.33, 0.0, 10.001602, 9.955665 
4.725094e+3, 1.9483049e+2, -1062592.9, -1097689.4, -9.089526, 0.00028201647, -0.000019982186, -1062592.9, -31931.377, 0.0, 10.001594, 9.955322 
4.725094e+3, 2.0477952e+2, -974444.1, -1019297.4, -5.1221414, 0.0002809748, 0.00010187011, -974444.1, -41283.21, 0.0, 10.001584, 9.942566 
4.7250938e+3, 2.1472214e+2, -876179.0, -921287.44, -9.260825, 0.00027975912, -0.000092346025, -876179.0, -40455.6, 0.0, 10.001575, 9.942225 
4.7250932e+3, 2.2465804e+2, -787908.3, -843030.44, -4.8237476, 0.00027894514, 0.0001545492, -787908.3, -49556.887, 0.0, 10.001567, 9.929188 
4.7250932e+3, 2.345873e+2, -689495.2, -744866.4, -8.683706, 0.0002785841, -0.000057660665, -689495.2, -48450.42, 0.0, 10.001559, 9.928857 
4.7250926e+3, 2.445096e+2, -601185.9, -666926.44, -3.7226827, 0.00027781562, 0.000103959355, -601185.9, -57379.742, 0.0, 10.001551, 9.915421 
4.7250926e+3, 2.5442514e+2, -502453.6, -568265.06, -7.5641675, 0.00027656066, -0.00007867029, -502453.6, -55819.76, 0.0, 10.001543, 9.91532 
4.7250924e+3, 2.6433358e+2, -414233.53, -490919.3, -2.1988401, 0.00027556083, 0.0001671292, -414233.53, -64702.59, 0.0, 10.001535, 9.901252 
4.7250924e+3, 2.7423543e+2, -314967.72, -391319.8, -5.7933383, 0.00027488585, -0.0001788824, -314967.72, -62474.492, 0.0, 10.001528, 9.901672 
4.7250918e+3, 2.8412896e+2, -228504.63, -318027.34, -0.39655742, 0.00027435672, 0.00025218056, -228504.63, -72968.48, 0.0, 10.00152, 9.884734 
4.7250918e+3, 2.9401478e+2, -128817.19, -217723.67, -3.5472858, 0.0002740242, -0.00023089204, -128817.19, -70161.72, 0.0, 10.001513, 9.885513 
4.7250915e+3, 3.039285e+2, -39107.11, -84737.6, 2.0175788, 0.00027299585, 0.00019360609, -39107.11, -39107.11, 0.0, 10.001505, 9.941457 
4.7250915e+3, 3.1387183e+2, -38041.305, -82505.734, -1.0720183, 0.00027093582, -0.00003856733, -38041.305, -38041.305, 0.0, 10.001497, 9.942966 
4.7350988e+3, 1.2500884e+2, -1717942.3, -1724086.3, -2.068828, 0.00029418603, 0.00009244556, -1717942.3, -3028.46, 0.0, 10.001664, 9.99352 
4.7350982e+3, 1.3500221e+2, -1620588.5, -1627316.1, -6.387532, 0.00029179346, -0.00008657584, -1620588.5, -3609.7195, 0.0, 10.001653, 9.992737 
4.7350976e+3, 1.4498907e+2, -1532463.9, -1547957.4, -5.4552865, 0.0002902775, 0.00017588159, -1532463.9, -13356.382, 0.0, 10.001642, 9.981111 
4.7350973e+3, 1.5497015e+2, -1434761.4, -1450650.5, -9.868565, 0.00028963404, -0.000011108338, -1434761.4, -13468.562, 0.0, 10.001632, 9.980579 
4.7350973e+3, 1.6494463e+2, -1346728.9, -1371790.1, -7.645897, 0.00028870354, 0.00007182706, -1346728.9, -23185.945, 0.0, 10.001622, 9.968499 
4.7350967e+3, 1.749132e+2, -1248794.9, -1274164.6, -11.881747, 0.00028748263, -0.00003224116, -1248794.9, -22943.795, 0.0, 10.001612, 9.968085 
4.735096e+3, 1.848751e+2, -1160728.4, -1195577.6, -8.496653, 0.00028636347, 0.00011276885, -1160728.4, -32504.049, 0.0, 10.001602, 9.955654 
4.7350958e+3, 1.9483079e+2, -1062601.5, -1097706.4, -12.553662, 0.00028534938, -0.000018628665, -1062601.5, -31942.885, 0.0, 10.001594, 9.955311 
4.7350958e+3, 2.0477982e+2, -974452.94, -1019314.94, -8.411894, 0.00028441715, 0.00010318867, -974452.94, -41294.848, 0.0, 10.001584, 9.942555 
4.7350952e+3, 2.1472241e+2, -876187.7, -921304.94, -12.548118, 0.00028357303, -0.0000916476, -876187.7, -40467.016, 0.0, 10.001575, 9.942214 
4.7350952e+3, 2.2465831e+2, -787916.6, -843047.2, -7.8166533, 0.00028268236, 0.00015515115, -787916.6, -49567.76, 0.0, 10.001567, 9.929177 
4.7350946e+3, 2.3458755e+2, -689503.4, -744882.94, -11.669204, 0.00028173867, -0.00005656405, -689503.4, -48461.09, 0.0, 10.001559, 9.928846 
4.7350943e+3, 2.4450985e+2, -601194.2, -666943.44, -6.767449, 0.0002809054, 0.00010515372, -601194.2, -57390.46, 0.0, 10.001552, 9.915409 
4.7350943e+3, 2.5442538e+2, -502461.8, -568282.0, -10.612404, 0.00028020318, -0.0000778517, -502461.8, -55830.266, 0.0, 10.001543, 9.91531 
4.7350937e+3, 2.6433384e+2, -414241.56, -490935.97, -5.0553756, 0.00027937916, 0.00016782878, -414241.56, -64712.785, 0.0, 10.001535, 9.901241 
4.7350937e+3, 2.7423564e+2, -314975.66, -391336.3, -8.638164, 0.00027839976, -0.0001779746, -314975.66, -62484.47, 0.0, 10.001528, 9.901661 
4.735093e+3, 2.8412917e+2, -228512.03, -318042.9, -3.183799, 0.0002776114, 0.00025307946, -228512.03, -72977.83, 0.0, 10.00152, 9.884724 
4.735093e+3, 2.9401496e+2, -128824.445, -217739.05, -6.331138, 0.00027708354, -0.00023030053, -128824.445, -70170.836, 0.0, 10.001513, 9.885503 
4.735093e+3, 3.0392867e+2, -39114.824, -84753.96, -0.82660985, 0.0002761254, 0.00019422312, -39114.824, -39114.824, 0.0, 10.001505, 9.941445 
4.7350928e+3, 3.13872e+2, -38049.082, -82522.234, -3.9235964, 0.00027452921, -0.000037427868, -38049.082, -38049.082, 0.0, 10.001497, 9.942955 
4.7451e+3, 1.2500924e+2, -1717866.1, -1724059.4, 2.6162999, 0.00029797648, 0.0000938556, -1717866.1, -2956.1929, 0.0, 10.001718, 9.993508 
4.7450995e+3, 1.350026e+2, -1620514.0, -1627290.3, -2.0950046, 0.00029551485, -0.00008554022, -1620514.0, -3539.0122, 0.0, 10.001705, 9.992724 
4.7450992e+3, 1.4498945e+2, -1532390.6, -1547932.0, -1.2045606, 0.0002939686, 0.0001768483, -1532390.6, -13286.771, 0.0, 10.001695, 9.981099 
4.7450992e+3, 1.5497051e+2, -1434689.8, -1450626.1, -5.6144195, 0.0002933334, -0.000009905089, -1434689.8, -13400.386, 0.0, 10.001683, 9.980567 
4.7450987e+3, 1.6494498e+2, -1346658.4, -1371766.0, -3.196652, 0.00029237664, 0.000073146424, -1346658.4, -23118.8, 0.0, 10.001672, 9.968488 
4.745098e+3, 1.7491351e+2, -1248726.0, -1274141.6, -7.477522, 0.00029109445, -0.000030927964, -1248726.0, -22878.156, 0.0, 10.001661, 9.968074 
4.7450978e+3, 1.8487543e+2, -1160660.4, -1195555.3, -3.8836846, 0.00028993623, 0.0001139733, -1160660.4, -32439.236, 0.0, 10.001652, 9.955643 
4.7450978e+3, 1.948311e+2, -1062534.1, -1097684.4, -8.20054, 0.00028890625, -0.000017639775, -1062534.1, -31878.564, 0.0, 10.001642, 9.9553 
4.7450972e+3, 2.0478012e+2, -974386.2, -1019293.6, -4.0436387, 0.00028800376, 0.00010413959, -974386.2, -41230.99, 0.0, 10.001633, 9.942544 
4.7450966e+3, 2.147227e+2, -876121.3, -921284.0, -8.320223, 0.00028723868, -0.00009054317, -876121.3, -40403.434, 0.0, 10.001624, 9.942203 
4.7450966e+3, 2.2465858e+2, -787850.8, -843026.4, -3.6213868, 0.00028628312, 0.00015626503, -787850.8, -49504.684, 0.0, 10.001616, 9.929166 
4.7450963e+3, 2.3458782e+2, -689439.2, -744863.2, -7.714417, 0.00028511212, -0.00005560323, -689439.2, -48399.54, 0.0, 10.001607, 9.928835 
4.7450963e+3, 2.445101e+2, -601131.0, -666924.44, -2.843723, 0.0002842505, 0.000106053005, -601131.0, -57329.7, 0.0, 10.001598, 9.915399 
4.7450957e+3, 2.5442562e+2, -502398.63, -568263.2, -6.7979665, 0.00028375714, -0.00007690486, -502398.63, -55769.44, 0.0, 10.001591, 9.915298 
4.745095e+3, 2.6433405e+2, -414178.7, -490917.3, -1.2998353, 0.00028300035, 0.00016878133, -414178.7, -64652.19, 0.0, 10.001582, 9.90123 
4.745095e+3, 2.7423584e+2, -314913.97, -391318.44, -5.0293593, 0.00028190773, -0.00017706958, -314913.97, -62424.953, 0.0, 10.0015745, 9.90165 
4.745095e+3, 2.8412938e+2, -228451.02, -318024.88, 0.3253451, 0.00028100872, 0.00025393275, -228451.02, -72918.86, 0.0, 10.001566, 9.884713 
4.7450948e+3, 2.9401514e+2, -128764.58, -217721.73, -3.0448852, 0.0002803745, -0.00022950456, -128764.58, -70112.9, 0.0, 10.001558, 9.885492 
4.7450948e+3, 3.0392885e+2, -39056.57, -84738.414, 2.2499576, 0.00027940306, 0.00019498335, -39056.57, -39056.57, 0.0, 10.001551, 9.941434 
4.7450942e+3, 3.1387216e+2, -37990.97, -82506.836, -0.9316312, 0.00027793177, -0.00003667077, -37990.97, -37990.97, 0.0, 10.001543, 9.942944 
4.755102e+3, 1.2500964e+2, -1717876.8, -1724079.6, -1.6927642, 0.00030189494, 0.000094724106, -1717876.8, -2970.7795, 0.0, 10.001718, 9.993496 
4.7551015e+3, 1.3500297e+2, -1620524.6, -1627310.5, -6.399345, 0.00029933834, -0.000083969295, -1620524.6, -3553.3604, 0.0, 10.001706, 9.992712 
4.7551012e+3, 1.449898e+2, -1532400.4, -1547950.8, -5.358396, 0.0002976945, 0.00017850041, -1532400.4, -13300.1875, 0.0, 10.001695, 9.981087 
4.7551006e+3, 1.5497087e+2, -1434699.4, -1450644.8, -9.766478, 0.00029695893, -0.000008793485, -1434699.4, -13413.573, 0.0, 10.001683, 9.980556 
4.7551e+3, 1.6494535e+2, -1346667.6, -1371784.1, -7.1644125, 0.00029596488, 0.00007427173, -1346667.6, -23131.521, 0.0, 10.001673, 9.968476 
4.7551e+3, 1.7491387e+2, -1248735.1, -1274159.5, -11.450085, 0.0002947095, -0.000029225872, -1248735.1, -22890.656, 0.0, 10.001661, 9.968062 
4.7550997e+3, 1.8487574e+2, -1160669.6, -1195573.4, -7.402222, 0.00029361265, 0.000115523304, -1160669.6, -32451.71, 0.0, 10.001652, 9.955631 
4.755099e+3, 1.9483142e+2, -1062543.3, -1097702.5, -11.717586, 0.00029268, -0.0000170011, -1062543.3, -31890.813, 0.0, 10.001642, 9.955289 
4.7550985e+3, 2.0478043e+2, -974395.25, -1019311.8, -7.33531, 0.00029173063, 0.00010473744, -974395.25, -41243.113, 0.0, 10.001634, 9.942532 
4.7550985e+3, 2.1472299e+2, -876130.3, -921302.06, -11.608061, 0.00029076304, -0.00008904707, -876130.3, -40415.344, 0.0, 10.001624, 9.942191 
4.7550982e+3, 2.2465888e+2, -787859.6, -843044.1, -6.9207697, 0.00028975398, 0.00015787246, -787859.6, -49516.246, 0.0, 10.001616, 9.929154 
4.7550976e+3, 2.3458809e+2, -689447.9, -744880.75, -11.016697, 0.0002886976, -0.000054772496, -689447.9, -48410.863, 0.0, 10.001607, 9.928823 
4.7550976e+3, 2.4451037e+2, -601139.5, -666941.9, -5.8241596, 0.00028784262, 0.00010666885, -601139.5, -57340.81, 0.0, 10.001598, 9.915387 
4.755097e+3, 2.5442588e+2, -502407.06, -568280.56, -9.763858, 0.0002872271, -0.000075833814, -502407.06, -55780.34, 0.0, 10.001591, 9.915287 
4.755097e+3, 2.643343e+2, -414187.0, -490934.53, -4.3488593, 0.0002864331, 0.00016997824, -414187.0, -64662.84, 0.0, 10.001582, 9.901218 
4.7550967e+3, 2.7423605e+2, -314922.2, -391335.53, -8.085209, 0.00028541134, -0.00017616658, -314922.16, -62435.375, 0.0, 10.0015745, 9.901639 
4.7550967e+3, 2.8412962e+2, -228458.81, -318041.3, -2.6691046, 0.0002845447, 0.00025474283, -228458.81, -72928.78, 0.0, 10.001566, 9.884703 
4.755096e+3, 2.9401535e+2, -128772.24, -217737.97, -6.0340724, 0.00028388973, -0.00022851102, -128772.24, -70122.586, 0.0, 10.001558, 9.885482 
4.755096e+3, 3.0392906e+2, -39064.445, -84755.15, -0.62760466, 0.00028282453, 0.0001958821, -39064.445, -39064.445, 0.0, 10.001551, 9.941422 
4.7550958e+3, 3.1387234e+2, -37998.895, -82523.66, -3.7991347, 0.00028115176, -0.000036281504, -37998.89, -37998.89, 0.0, 10.001543, 9.942932 
4.7651035e+3, 1.2501004e+2, -1717799.6, -1724052.3, 3.0588055, 0.0003057674, 0.00009565816, -1717799.6, -2897.6868, 0.0, 10.001771, 9.993484 
4.7651032e+3, 1.3500339e+2, -1620449.0, -1627284.1, -1.2708628, 0.00030316086, -0.00008244367, -1620449.0, -3481.7463, 0.0, 10.001759, 9.9927 
4.7651026e+3, 1.449902e+2, -1532325.8, -1547924.5, 0.21580605, 0.00030146353, 0.00018025904, -1532325.8, -13229.368, 0.0, 10.001747, 9.981075 
4.7651026e+3, 1.5497126e+2, -1434626.0, -1450619.3, -4.0766134, 0.00030067077, -0.0000071607706, -1434626.0, -13343.957, 0.0, 10.001735, 9.980544 
4.765102e+3, 1.649457e+2, -1346595.6, -1371760.3, -1.4022511, 0.0002996559, 0.00007575134, -1346595.6, -23063.11, 0.0, 10.001724, 9.968464 
4.7651017e+3, 1.7491421e+2, -1248663.6, -1274136.1, -6.275077, 0.00029841665, -0.000027926737, -1248663.6, -22822.63, 0.0, 10.001713, 9.968051 
4.765101e+3, 1.848761e+2, -1160598.8, -1195550.4, -2.2966564, 0.00029733762, 0.000116685704, -1160598.8, -32384.14, 0.0, 10.001703, 9.95562 
4.765101e+3, 1.9483176e+2, -1062473.4, -1097680.1, -6.9795384, 0.00029642458, -0.000015930058, -1062473.4, -31824.166, 0.0, 10.001693, 9.9552765 
4.7651005e+3, 2.0478074e+2, -974326.2, -1019289.75, -2.615962, 0.00029541686, 0.000105814695, -974326.2, -41177.14, 0.0, 10.001683, 9.94252 
4.7651002e+3, 2.147233e+2, -876062.44, -921280.8, -6.988117, 0.00029430684, -0.00008785829, -876062.44, -40350.473, 0.0, 10.001675, 9.94218 
4.7650996e+3, 2.2465916e+2, -787792.44, -843023.44, -2.367905, 0.0002932982, 0.0001590495, -787792.44, -49451.945, 0.0, 10.001665, 9.929143 
4.7650996e+3, 2.3458837e+2, -689380.94, -744860.4, -6.764369, 0.0002924034, -0.000053746408, -689380.9, -48346.68, 0.0, 10.001657, 9.928812 
4.765099e+3, 2.4451064e+2, -601073.06, -666921.6, -1.603793, 0.00029153546, 0.00010764992, -601073.06, -57276.996, 0.0, 10.001648, 9.915376 
4.765099e+3, 2.5442612e+2, -502342.06, -568261.2, -5.652643, 0.0002906989, -0.00007477143, -502342.06, -55717.906, 0.0, 10.001639, 9.915276 
4.7650987e+3, 2.6433453e+2, -414122.94, -490915.75, -0.3158193, 0.00028982208, 0.00017101888, -414122.94, -64601.2, 0.0, 10.001631, 9.901207 
4.7650987e+3, 2.742363e+2, -314858.53, -391317.2, -4.2294464, 0.00028889353, -0.00017527881, -314858.53, -62374.055, 0.0, 10.001622, 9.901628 
4.765098e+3, 2.8412983e+2, -228395.19, -318022.44, 1.0968305, 0.00028810013, 0.00025560785, -228395.19, -72867.375, 0.0, 10.001615, 9.884691 
4.765098e+3, 2.9401556e+2, -128709.39, -217719.63, -2.3321333, 0.00028749034, -0.00022749047, -128709.39, -70061.836, 0.0, 10.001606, 9.88547 
4.7650978e+3, 3.0392927e+2, -39003.63, -84739.016, 2.8319533, 0.00028634883, 0.0001968737, -39003.63, -39003.63, 0.0, 10.001597, 9.941411 
4.7650978e+3, 3.1387255e+2, -37939.363, -82508.27, -0.7100709, 0.00028441998, -0.000035593603, -37939.363, -37939.363, 0.0, 10.00159, 9.942921 
4.7751054e+3, 1.2501048e+2, -1717809.5, -1724070.9, -1.526777, 0.00030959738, 0.00009665592, -1717809.5, -2911.648, 0.0, 10.001771, 9.993472 
4.775105e+3, 1.350038e+2, -1620458.6, -1627302.6, -5.8556943, 0.00030698403, -0.0000809605, -1620458.6, -3495.4766, 0.0, 10.00176, 9.992688 
4.7751045e+3, 1.4499062e+2, -1532335.3, -1547942.8, -4.161901, 0.0003052755, 0.00018212124, -1532335.3, -13242.769, 0.0, 10.001747, 9.981064 
4.775104e+3, 1.5497164e+2, -1434635.4, -1450637.4, -8.456356, 0.00030446696, -0.000005026154, -1434635.4, -13357.13, 0.0, 10.001736, 9.980533 
4.7751036e+3, 1.649461e+2, -1346606.1, -1371780.8, -5.4078345, 0.00030344707, 0.0000775725, -1346606.1, -23077.373, 0.0, 10.001724, 9.9684515 
4.7751036e+3, 1.7491458e+2, -1248674.0, -1274156.5, -10.279732, 0.00030221383, -0.000027013832, -1248674.0, -22836.64, 0.0, 10.001714, 9.968038 
4.775103e+3, 1.8487646e+2, -1160608.8, -1195570.1, -5.974592, 0.00030111085, 0.00011747658, -1160608.8, -32397.629, 0.0, 10.001703, 9.955606 
4.7751024e+3, 1.9483209e+2, -1062483.3, -1097699.8, -10.654423, 0.00030014262, -0.000014442582, -1062483.3, -31837.416, 0.0, 10.001694, 9.955264 
4.775102e+3, 2.0478107e+2, -974335.5, -1019308.4, -6.1117034, 0.00029906546, 0.000107353495, -974335.5, -41189.688, 0.0, 10.001684, 9.942509 
4.775102e+3, 2.1472362e+2, -876071.6, -921299.3, -10.483691, 0.00029787066, -0.000086964144, -876071.6, -40362.777, 0.0, 10.001675, 9.942167 
4.7751015e+3, 2.2465947e+2, -787801.75, -843042.3, -5.6390634, 0.0002969143, 0.00015981359, -787801.75, -49464.3, 0.0, 10.001665, 9.929131 
4.775101e+3, 2.3458867e+2, -689390.2, -744879.2, -10.027952, 0.0002962264, -0.000052531675, -689390.2, -48358.81, 0.0, 10.001657, 9.9288 
4.775101e+3, 2.445109e+2, -601081.8, -666939.6, -4.8513303, 0.00029532667, 0.00010898291, -601081.8, -57288.535, 0.0, 10.001648, 9.915363 
4.7751006e+3, 2.544264e+2, -502350.72, -568279.06, -8.901768, 0.0002941738, -0.00007371664, -502350.72, -55729.2, 0.0, 10.001639, 9.915264 
4.7751e+3, 2.643348e+2, -414131.56, -490933.66, -3.3970735, 0.00029317028, 0.00017191, -414131.56, -64612.35, 0.0, 10.001631, 9.901196 
4.7751e+3, 2.7423653e+2, -314867.06, -391334.97, -7.3004174, 0.00029235645, -0.00017440501, -314867.06, -62384.984, 0.0, 10.001623, 9.901616 
4.7750998e+3, 2.8413007e+2, -228403.11, -318039.13, -1.9999102, 0.0002916757, 0.00025652646, -228403.11, -72877.59, 0.0, 10.001615, 9.884681 
4.7750998e+3, 2.940158e+2, -128717.16, -217736.11, -5.432249, 0.00029117454, -0.00022644311, -128717.16, -70071.8, 0.0, 10.001606, 9.88546 
4.7750992e+3, 3.0392948e+2, -39012.125, -84757.07, -0.337354, 0.00028997348, 0.00019795545, -39012.125, -39012.125, 0.0, 10.001598, 9.941399 
4.7750992e+3, 3.1387275e+2, -37947.96, -82526.53, -3.8871534, 0.0002877358, -0.000034617788, -37947.96, -37947.96, 0.0, 10.00159, 9.942908 
4.785107e+3, 1.2501092e+2, -1717732.4, -1724043.0, 3.3805285, 0.00031350725, 0.00009799492, -1717732.4, -2838.9348, 0.0, 10.001825, 9.993461 
4.785107e+3, 1.3500422e+2, -1620382.1, -1627275.1, -0.94707584, 0.00031087038, -0.00007958547, -1620382.1, -3423.0754, 0.0, 10.001813, 9.992677 
4.7851065e+3, 1.4499103e+2, -1532259.0, -1547915.8, 0.8719146, 0.00030916015, 0.00018348327, -1532259.0, -13170.639, 0.0, 10.001801, 9.981052 
4.785106e+3, 1.5497206e+2, -1434559.4, -1450610.8, -3.6643136, 0.0003083716, -0.0000037264035, -1434559.4, -13285.167, 0.0, 10.001789, 9.980521 
4.7851056e+3, 1.6494647e+2, -1346531.8, -1371756.8, -0.45743665, 0.00030732917, 0.00007882879, -1346531.8, -23006.834, 0.0, 10.001778, 9.968438 
4.785105e+3, 1.7491496e+2, -1248600.4, -1274133.0, -5.4486856, 0.0003060303, -0.000025781834, -1248600.4, -22766.707, 0.0, 10.001767, 9.968024 
4.7851044e+3, 1.8487681e+2, -1160535.6, -1195546.6, -0.9544685, 0.00030485436, 0.00011873534, -1160535.6, -32328.055, 0.0, 10.001756, 9.955594 
4.7851044e+3, 1.9483244e+2, -1062411.3, -1097677.0, -5.7144065, 0.00030380543, -0.000013103828, -1062411.3, -31768.902, 0.0, 10.001746, 9.955252 
4.785104e+3, 2.0478141e+2, -974264.25, -1019285.9, -1.1508267, 0.00030273272, 0.000108613305, -974264.25, -41121.758, 0.0, 10.001736, 9.942496 
4.7851035e+3, 2.1472396e+2, -876001.2, -921277.44, -5.894802, 0.00030163408, -0.00008595475, -876001.2, -40295.547, 0.0, 10.001726, 9.942155 
4.785103e+3, 2.2465979e+2, -787732.0, -843020.8, -1.0302167, 0.00030068107, 0.00016079991, -787732.0, -49397.61, 0.0, 10.001717, 9.929118 
4.785103e+3, 2.3458898e+2, -689321.4, -744858.3, -5.4216027, 0.00029989178, -0.00005131192, -689321.4, -48292.996, 0.0, 10.001708, 9.928787 
4.7851026e+3, 2.445112e+2, -601013.7, -666919.06, -0.3112461, 0.00029894736, 0.000110227294, -601013.7, -57223.254, 0.0, 10.0016985, 9.915352 
4.785102e+3, 2.544267e+2, -502283.34, -568259.06, -4.6392264, 0.00029781743, -0.00007269657, -502283.34, -55664.55, 0.0, 10.00169, 9.915252 
4.785102e+3, 2.6433507e+2, -414064.8, -490914.06, 0.81011504, 0.00029679673, 0.00017283902, -414064.8, -64548.234, 0.0, 10.001681, 9.901183 
4.7851014e+3, 2.742368e+2, -314801.28, -391316.03, -3.2255676, 0.00029591474, -0.0001733972, -314801.28, -62321.723, 0.0, 10.001673, 9.901604 
4.7851014e+3, 2.841303e+2, -228337.61, -318019.7, 1.944775, 0.000295194, 0.00025753354, -228337.61, -72814.48, 0.0, 10.001664, 9.884669 
4.785101e+3, 2.9401603e+2, -128652.46, -217717.17, -1.6391027, 0.0002946916, -0.00022554633, -128652.46, -70009.38, 0.0, 10.001656, 9.885448 
4.785101e+3, 3.039297e+2, -38949.29, -84740.516, 3.2292845, 0.00029349723, 0.00019885942, -38949.29, -38949.29, 0.0, 10.001647, 9.941386 
4.7851005e+3, 3.1387296e+2, -37885.53, -82510.32, -0.35615775, 0.00029127783, -0.000033530974, -37885.53, -37885.53, 0.0, 10.001638, 9.942896 
4.795109e+3, 1.2501137e+2, -1717742.3, -1724061.6, -1.210404, 0.0003174952, 0.000099662015, -1717742.3, -2853.1267, 0.0, 10.001825, 9.993449 
4.7951084e+3, 1.3500467e+2, -1620391.8, -1627293.6, -5.5405283, 0.00031481887, -0.000078313155, -1620391.8, -3437.032, 0.0, 10.001813, 9.992665 
4.7951078e+3, 1.4499146e+2, -1532269.0, -1547935.0, -3.4814067, 0.00031311615, 0.00018436657, -1532269.0, -13184.814, 0.0, 10.001801, 9.981041 
4.7951075e+3, 1.5497248e+2, -1434569.3, -1450630.0, -8.016983, 0.0003123819, -0.0000032266937, -1434569.3, -13299.104, 0.0, 10.001789, 9.980509 
4.7951075e+3, 1.6494688e+2, -1346542.5, -1371777.8, -4.544505, 0.00031130013, 0.00007954403, -1346542.5, -23021.584, 0.0, 10.001778, 9.968425 
4.795107e+3, 1.7491536e+2, -1248611.1, -1274154.0, -9.534479, 0.00030986694, -0.000024242729, -1248611.1, -22781.207, 0.0, 10.001767, 9.968011 
4.7951064e+3, 1.848772e+2, -1160545.8, -1195566.6, -4.8256025, 0.00030857095, 0.000120443976, -1160545.8, -32341.945, 0.0, 10.001757, 9.955582 
4.795106e+3, 1.9483282e+2, -1062421.4, -1097697.0, -9.585034, 0.0003074168, -0.0000119068545, -1062421.3, -31782.537, 0.0, 10.001746, 9.955238 
4.7951055e+3, 2.0478177e+2, -974274.3, -1019306.0, -4.757894, 0.00030641942, 0.00010960631, -974274.3, -41135.293, 0.0, 10.001736, 9.942483 
4.7951055e+3, 2.1472429e+2, -876011.1, -921297.44, -9.496364, 0.00030559077, -0.00008483393, -876011.1, -40308.836, 0.0, 10.001726, 9.9421425 
4.795105e+3, 2.2466011e+2, -787741.4, -843039.75, -4.4506683, 0.00030459402, 0.00016200029, -787741.4, -49410.195, 0.0, 10.001717, 9.929106 
4.7951046e+3, 2.3458928e+2, -689330.6, -744877.2, -8.838477, 0.0003034072, -0.000050086477, -689330.6, -48305.332, 0.0, 10.001708, 9.928775 
4.795104e+3, 2.445115e+2, -601023.0, -666938.1, -3.6573844, 0.00030240577, 0.000111387504, -601023.0, -57235.52, 0.0, 10.0016985, 9.915339 
4.795104e+3, 2.54427e+2, -502292.53, -568278.0, -7.9822927, 0.00030162465, -0.000071709095, -502292.53, -55676.58, 0.0, 10.00169, 9.915239 
4.7951034e+3, 2.6433536e+2, -414073.72, -490932.56, -2.4171364, 0.00030069202, 0.00017380518, -414073.72, -64559.85, 0.0, 10.001681, 9.901172 
4.7951034e+3, 2.7423707e+2, -314810.06, -391334.38, -6.4464784, 0.00029956613, -0.00017225987, -314810.06, -62333.094, 0.0, 10.001673, 9.901591 
4.795103e+3, 2.8413054e+2, -228345.8, -318036.94, -1.2736995, 0.00029865876, 0.0002586264, -228345.8, -72825.15, 0.0, 10.001664, 9.884658 
4.795103e+3, 2.9401627e+2, -128660.49, -217734.23, -4.8590407, 0.00029804942, -0.00022479358, -128660.49, -70019.78, 0.0, 10.001656, 9.885437 
4.7951025e+3, 3.0392992e+2, -38957.84, -84758.71, -0.022691155, 0.00029692546, 0.00019959324, -38957.84, -38957.84, 0.0, 10.001647, 9.941374 
4.7951025e+3, 3.1387317e+2, -37894.156, -82528.67, -3.6130354, 0.00029503874, -0.000032336655, -37894.156, -37894.156, 0.0, 10.001638, 9.9428835 
4.8051107e+3, 1.2501183e+2, -1717662.9, -1724032.9, 3.5470216, 0.00032152832, 0.00010118545, -1717662.9, -2778.3252, 0.0, 10.001881, 9.993437 
4.8051104e+3, 1.3500513e+2, -1620312.9, -1627265.4, -1.0824517, 0.00031886357, -0.00007705178, -1620312.9, -3362.6611, 0.0, 10.001868, 9.992654 
4.8051098e+3, 1.449919e+2, -1532190.8, -1547907.4, 1.0701308, 0.00031712448, 0.00018547999, -1532190.8, -13110.889, 0.0, 10.001856, 9.981029 
4.8051095e+3, 1.549729e+2, -1434491.8, -1450602.9, -3.4713104, 0.00031630564, -0.0000021474452, -1434491.8, -13225.723, 0.0, 10.001844, 9.980497 
4.805109e+3, 1.649473e+2, -1346466.6, -1371753.3, 0.23914117, 0.0003151645, 0.00008068561, -1346466.6, -22949.781, 0.0, 10.001833, 9.968411 
4.8051083e+3, 1.7491576e+2, -1248536.1, -1274130.0, -4.7855096, 0.0003136975, -0.000022940605, -1248536.1, -22710.145, 0.0, 10.0018215, 9.967998 
4.8051083e+3, 1.8487759e+2, -1160471.3, -1195542.9, 0.06176982, 0.00031240343, 0.00012177318, -1160471.3, -32271.197, 0.0, 10.00181, 9.955568 
4.805108e+3, 1.9483319e+2, -1062347.4, -1097673.8, -4.911954, 0.0003112884, -0.000010689608, -1062347.4, -31712.305, 0.0, 10.0018, 9.955225 
4.8051074e+3, 2.0478213e+2, -974200.94, -1019283.06, 0.050456937, 0.00031028755, 0.00011079145, -974200.94, -41065.47, 0.0, 10.00179, 9.942471 
4.8051068e+3, 2.1472465e+2, -875938.6, -921275.1, -4.7043786, 0.00030940963, -0.0000835948, -875938.6, -40239.746, 0.0, 10.00178, 9.942129 
4.8051065e+3, 2.2466044e+2, -787669.44, -843017.56, 0.37884614, 0.00030835703, 0.00016321278, -787669.44, -49341.59, 0.0, 10.00177, 9.929093 
4.8051065e+3, 2.3458962e+2, -689259.8, -744855.75, -4.261776, 0.000307107, -0.00004899157, -689259.8, -48237.723, 0.0, 10.0017605, 9.928762 
4.805106e+3, 2.4451183e+2, -600952.9, -666917.1, 0.91302013, 0.00030610355, 0.00011244701, -600952.9, -57168.453, 0.0, 10.001751, 9.915326 
4.8051053e+3, 2.5442728e+2, -502222.88, -568257.44, -3.4882197, 0.0003053933, -0.00007058711, -502222.88, -55609.863, 0.0, 10.001742, 9.915227 
4.8051053e+3, 2.6433563e+2, -414004.56, -490912.22, 2.0148337, 0.0003044564, 0.00017493659, -414004.56, -64493.516, 0.0, 10.001733, 9.901159 
4.805105e+3, 2.7423733e+2, -314741.97, -391314.78, -2.1936822, 0.00030323054, -0.00017118646, -314741.97, -62267.71, 0.0, 10.001724, 9.901579 
4.805105e+3, 2.8413084e+2, -228278.1, -318016.94, 2.8297594, 0.00030226025, 0.00025965308, -228278.1, -72760.03, 0.0, 10.001716, 9.884646 
4.8051044e+3, 2.940165e+2, -128593.69, -217714.81, -0.9709382, 0.00030163882, -0.00022379805, -128593.69, -69955.44, 0.0, 10.001706, 9.885426 
4.805104e+3, 3.0393013e+2, -38892.82, -84741.44, 3.58495, 0.00030051873, 0.00020054035, -38892.82, -38892.82, 0.0, 10.001698, 9.941361 
4.805104e+3, 3.138734e+2, -37829.48, -82511.695, -0.1941112, 0.00029865917, -0.00003146314, -37829.48, -37829.48, 0.0, 10.001689, 9.94287 
4.8151127e+3, 1.2501231e+2, -1717673.3, -1724052.9, -1.0761414, 0.00032560635, 0.00010257239, -1717673.3, -2793.446, 0.0, 10.001881, 9.993424 
4.8151124e+3, 1.3500558e+2, -1620323.3, -1627285.3, -5.702824, 0.00032300214, -0.00007580007, -1620323.3, -3377.5305, 0.0, 10.001868, 9.992641 
4.8151118e+3, 1.4499235e+2, -1532200.8, -1547926.6, -3.3368466, 0.00032118455, 0.00018681462, -1532200.8, -13125.297, 0.0, 10.001856, 9.981016 
4.8151115e+3, 1.5497334e+2, -1434501.6, -1450622.0, -7.8802223, 0.0003201482, -0.00000051213124, -1434501.6, -13239.9, 0.0, 10.001844, 9.980485 
4.815111e+3, 1.6494772e+2, -1346477.5, -1371774.4, -3.9589946, 0.00031892845, 0.00008223656, -1346477.5, -22964.834, 0.0, 10.001833, 9.968398 
4.8151103e+3, 1.7491618e+2, -1248546.8, -1274151.1, -8.983398, 0.00031752387, -0.000021864647, -1248546.8, -22724.936, 0.0, 10.0018215, 9.967984 
4.81511e+3, 1.8487799e+2, -1160481.9, -1195563.9, -3.869871, 0.00031634865, 0.00012273972, -1160481.9, -32285.762, 0.0, 10.001811, 9.955555 
4.8151094e+3, 1.9483358e+2, -1062357.9, -1097694.6, -8.840772, 0.0003154111, -0.00000945212, -1062357.9, -31726.611, 0.0, 10.001801, 9.955212 
4.8151094e+3, 2.047825e+2, -974211.06, -1019303.3, -3.6681275, 0.0003143313, 0.00011216153, -974211.06, -41079.26, 0.0, 10.00179, 9.942457 
4.8151088e+3, 2.14725e+2, -875948.6, -921295.25, -8.419985, 0.00031309793, -0.000082241284, -875948.6, -40253.285, 0.0, 10.00178, 9.942117 
4.8151085e+3, 2.246608e+2, -787679.4, -843037.56, -3.2219641, 0.00031197793, 0.00016443784, -787679.4, -49354.895, 0.0, 10.00177, 9.929081 
4.815108e+3, 2.3458995e+2, -689269.6, -744875.6, -7.859832, 0.00031098523, -0.000048021073, -689269.6, -48250.77, 0.0, 10.0017605, 9.92875 
4.815108e+3, 2.4451214e+2, -600962.3, -666936.56, -2.4597108, 0.00031003245, 0.00011341068, -600962.3, -57181.082, 0.0, 10.001751, 9.915314 
4.8151073e+3, 2.5442758e+2, -502232.22, -568276.75, -6.8511987, 0.00030912657, -0.00006933526, -502232.22, -55622.246, 0.0, 10.001742, 9.915215 
4.815107e+3, 2.6433593e+2, -414013.78, -490931.4, -1.3781049, 0.0003080968, 0.00017622739, -414013.78, -64505.66, 0.0, 10.001734, 9.901146 
4.815107e+3, 2.7423763e+2, -314751.1, -391333.8, -5.589884, 0.0003069091, -0.00017017363, -314751.1, -62279.605, 0.0, 10.001724, 9.9015665 
4.8151064e+3, 2.841311e+2, -228286.67, -318035.03, -0.5296135, 0.00030599447, 0.00026061706, -228286.67, -72771.27, 0.0, 10.001716, 9.884634 
4.8151064e+3, 2.9401678e+2, -128602.11, -217732.72, -4.3274164, 0.00030545203, -0.00022256875, -128602.11, -69966.414, 0.0, 10.001706, 9.885413 
4.815106e+3, 3.0393043e+2, -38901.703, -84760.36, 0.26203722, 0.0003042719, 0.00020169285, -38901.703, -38901.703, 0.0, 10.001698, 9.941348 
4.8151055e+3, 3.1387362e+2, -37838.438, -82530.76, -3.5157595, 0.0003021462, -0.00003089692, -37838.438, -37838.438, 0.0, 10.001689, 9.942858 
4.8251146e+3, 1.250128e+2, -1717592.0, -1724023.3, 3.5301707, 0.00032962687, 0.00010381714, -1717592.0, -2716.9346, 0.0, 10.001937, 9.993413 
4.8251143e+3, 1.3500606e+2, -1620242.5, -1627256.1, -0.927797, 0.00032700013, -0.00007431296, -1620242.5, -3301.4302, 0.0, 10.0019245, 9.992629 
4.8251137e+3, 1.4499281e+2, -1532120.8, -1547898.5, 1.5928694, 0.00032516045, 0.00018830765, -1532120.8, -13049.891, 0.0, 10.001912, 9.981004 
4.8251134e+3, 1.549738e+2, -1434422.5, -1450594.5, -3.1802578, 0.00032410226, 0.0000007504069, -1434422.5, -13165.29, 0.0, 10.0019, 9.980473 
4.8251128e+3, 1.6494817e+2, -1346400.0, -1371749.1, 0.8455626, 0.00032288214, 0.000083407154, -1346400.0, -22891.656, 0.0, 10.001888, 9.968385 
4.8251122e+3, 1.7491661e+2, -1248469.9, -1274126.4, -4.293935, 0.0003214991, -0.000020645419, -1248469.9, -22652.16, 0.0, 10.001877, 9.967971 
4.825112e+3, 1.8487841e+2, -1160405.4, -1195539.5, 0.9967917, 0.00032033035, 0.00012398497, -1160405.4, -32213.297, 0.0, 10.001866, 9.955542 
4.8251113e+3, 1.9483398e+2, -1062282.1, -1097670.8, -4.0192127, 0.00031938357, -0.000008204318, -1062282.1, -31654.77, 0.0, 10.001856, 9.955198 
4.8251107e+3, 2.047829e+2, -974135.9, -1019279.7, 1.256739, 0.00031826316, 0.00011342024, -974135.9, -41007.848, 0.0, 10.001845, 9.942444 
4.8251107e+3, 2.1472538e+2, -875874.4, -921272.3, -3.6496744, 0.00031695544, -0.00008096271, -875874.4, -40182.72, 0.0, 10.001835, 9.942103 
4.8251104e+3, 2.2466116e+2, -787605.7, -843015.06, 1.5985684, 0.0003158265, 0.00016567318, -787605.7, -49284.773, 0.0, 10.001824, 9.929068 
4.8251098e+3, 2.3459029e+2, -689196.44, -744853.56, -3.173221, 0.00031489859, -0.000046900048, -689196.44, -48180.98, 0.0, 10.001815, 9.928737 
4.8251092e+3, 2.4451248e+2, -600889.6, -666914.56, 2.245178, 0.00031391907, 0.00011450134, -600889.6, -57111.633, 0.0, 10.001805, 9.915301 
4.8251092e+3, 2.544279e+2, -502160.7, -568255.56, -2.2774572, 0.00031287727, -0.00006817498, -502160.7, -55553.863, 0.0, 10.001796, 9.915201 
4.825109e+3, 2.6433623e+2, -413943.03, -490910.8, 3.1188397, 0.0003118027, 0.00017737882, -413943.03, -64437.92, 0.0, 10.001786, 9.901134 
4.8251083e+3, 2.742379e+2, -314680.8, -391313.7, -1.2697518, 0.00031068607, -0.00016913084, -314680.8, -62212.234, 0.0, 10.001778, 9.901554 
4.8251083e+3, 2.8413138e+2, -228216.33, -318014.2, 3.6806998, 0.00030981548, 0.00026165196, -228216.33, -72703.69, 0.0, 10.001768, 9.884622 
4.825108e+3, 2.9401705e+2, -128532.47, -217712.34, -0.20926912, 0.00030927963, -0.00022140391, -128532.47, -69899.42, 0.0, 10.00176, 9.885402 
4.8251075e+3, 3.0393067e+2, -38834.117, -84742.586, 4.1005187, 0.00030804035, 0.00020282855, -38834.117, -38834.117, 0.0, 10.00175, 9.941335 
4.8251075e+3, 3.1387386e+2, -37771.664, -82513.54, -0.01179304, 0.00030575864, -0.000030026955, -37771.664, -37771.664, 0.0, 10.00174, 9.942844 
4.8351166e+3, 1.250133e+2, -1717602.0, -1724042.5, -1.113231, 0.00033359407, 0.000104926825, -1717602.0, -2731.8887, 0.0, 10.001937, 9.993401 
4.8351163e+3, 1.3500656e+2, -1620252.4, -1627275.3, -5.572643, 0.0003308655, -0.00007259965, -1620252.4, -3316.1514, 0.0, 10.0019245, 9.992617 
4.8351157e+3, 1.449933e+2, -1532131.3, -1547918.8, -2.9339905, 0.0003290577, 0.00018995319, -1532131.3, -13065.061, 0.0, 10.001912, 9.980991 
4.8351154e+3, 1.5497425e+2, -1434432.9, -1450614.6, -7.7063775, 0.00032816472, 0.0000016572636, -1434432.9, -13180.201, 0.0, 10.001901, 9.98046 
4.8351148e+3, 1.6494863e+2, -1346411.1, -1371770.9, -3.380101, 0.0003270191, 0.0000842148, -1346411.1, -22907.176, 0.0, 10.001888, 9.968371 
4.8351142e+3, 1.7491704e+2, -1248480.9, -1274147.9, -8.518543, 0.00032561854, -0.000019288196, -1248480.9, -22667.424, 0.0, 10.001878, 9.9679575 
4.835114e+3, 1.8487883e+2, -1160416.1, -1195560.6, -3.016523, 0.00032434872, 0.00012549781, -1160416.1, -32228.184, 0.0, 10.001866, 9.955528 
4.8351133e+3, 1.948344e+2, -1062292.8, -1097691.9, -8.031242, 0.00032321396, -0.000006945701, -1062292.8, -31669.393, 0.0, 10.001856, 9.955185 
4.8351127e+3, 2.0478329e+2, -974146.3, -1019300.56, -2.6009557, 0.00032208973, 0.00011457329, -974146.3, -41022.18, 0.0, 10.001845, 9.9424305 
4.8351124e+3, 2.1472575e+2, -875884.7, -921293.06, -7.5051236, 0.00032097666, -0.000079755046, -875884.7, -40196.785, 0.0, 10.001835, 9.94209 
4.8351118e+3, 2.2466153e+2, -787615.9, -843035.6, -2.0197034, 0.00031989472, 0.00016691921, -787615.9, -49298.563, 0.0, 10.001825, 9.929054 
4.8351118e+3, 2.3459065e+2, -689206.44, -744874.0, -6.7843585, 0.00031884736, -0.000045633973, -689206.44, -48194.51, 0.0, 10.001815, 9.928723 
4.8351112e+3, 2.4451283e+2, -600899.4, -666934.56, -1.319127, 0.00031776688, 0.000115714494, -600899.4, -57124.734, 0.0, 10.001805, 9.915288 
4.835111e+3, 2.5442824e+2, -502170.28, -568275.4, -5.8412127, 0.00031664633, -0.00006710158, -502170.28, -55566.7, 0.0, 10.001796, 9.915189 
4.835111e+3, 2.6433656e+2, -413952.6, -490930.7, -0.30707356, 0.00031557295, 0.00017839755, -413952.6, -64450.598, 0.0, 10.001787, 9.90112 
4.8351103e+3, 2.7423823e+2, -314690.25, -391333.44, -4.6873, 0.000314559, -0.00016805854, -314690.25, -62224.656, 0.0, 10.001778, 9.901541 
4.83511e+3, 2.8413168e+2, -228225.06, -318032.7, 0.23904285, 0.00031372136, 0.0002627556, -228225.06, -72715.3, 0.0, 10.001769, 9.884609 
4.83511e+3, 2.9401734e+2, -128541.04, -217730.6, -3.6542122, 0.00031312264, -0.0002203, -128541.04, -69910.734, 0.0, 10.00176, 9.885389 
4.8351094e+3, 3.0393094e+2, -38843.56, -84762.7, 0.60543984, 0.0003118251, 0.00020394898, -38843.56, -38843.56, 0.0, 10.00175, 9.941321 
4.8351094e+3, 3.1387416e+2, -37781.22, -82533.89, -3.5128691, 0.00030949287, -0.000028865117, -37781.22, -37781.22, 0.0, 10.001741, 9.94283 
4.8451185e+3, 1.2501381e+2, -1717519.1, -1724012.1, 3.704772, 0.0003375893, 0.00010647045, -1717519.1, -2653.979, 0.0, 10.001994, 9.993388 
4.8451182e+3, 1.3500707e+2, -1620170.1, -1627245.4, -0.9448901, 0.00033482455, -0.00007130522, -1620170.1, -3238.764, 0.0, 10.001982, 9.992605 
4.8451176e+3, 1.449938e+2, -1532049.8, -1547890.0, 1.7741507, 0.0003330471, 0.00019114428, -1532049.8, -12988.342, 0.0, 10.001969, 9.980979 
4.8451173e+3, 1.5497474e+2, -1434351.8, -1450586.4, -3.0008326, 0.0003322507, 0.000002890274, -1434351.8, -13103.677, 0.0, 10.001958, 9.980447 
4.8451167e+3, 1.6494907e+2, -1346331.4, -1371744.8, 1.5347173, 0.00033113387, 0.0000854876, -1346331.4, -22831.93, 0.0, 10.0019455, 9.968357 
4.845116e+3, 1.7491749e+2, -1248402.0, -1274122.5, -3.6713405, 0.00032969343, -0.000017977525, -1248402.0, -22592.979, 0.0, 10.001934, 9.967944 
4.8451158e+3, 1.8487927e+2, -1160337.9, -1195535.6, 1.9764996, 0.00032836443, 0.00012683087, -1160337.9, -32154.277, 0.0, 10.001923, 9.955515 
4.8451152e+3, 1.9483481e+2, -1062215.4, -1097667.5, -3.1712394, 0.0003271503, -0.0000056064596, -1062215.4, -31596.166, 0.0, 10.001912, 9.955172 
4.8451146e+3, 2.0478371e+2, -974069.4, -1019276.44, 2.354276, 0.00032602856, 0.00011585651, -974069.4, -40949.24, 0.0, 10.001902, 9.942417 
4.8451144e+3, 2.1472615e+2, -875808.2, -921269.4, -2.671653, 0.0003250061, -0.00007859483, -875808.2, -40124.12, 0.0, 10.001891, 9.942077 
4.8451138e+3, 2.2466192e+2, -787539.8, -843012.25, 2.891755, 0.00032392752, 0.00016807533, -787539.8, -49226.234, 0.0, 10.001881, 9.929041 
4.8451138e+3, 2.3459102e+2, -689131.4, -744851.3, -1.9601918, 0.00032278514, -0.000044347944, -689131.4, -48123.04, 0.0, 10.001871, 9.92871 
4.8451132e+3, 2.4451318e+2, -600824.9, -666912.2, 3.4742942, 0.00032166147, 0.00011698967, -600824.9, -57053.723, 0.0, 10.001862, 9.915275 
4.845113e+3, 2.5442857e+2, -502096.4, -568253.56, -1.2534685, 0.00032055945, -0.0000660049, -502096.4, -55496.17, 0.0, 10.001852, 9.915175 
4.8451123e+3, 2.6433688e+2, -413879.25, -490909.28, 4.239667, 0.00031948404, 0.00017943933, -413879.25, -64380.49, 0.0, 10.0018425, 9.901107 
4.8451123e+3, 2.7423856e+2, -314617.75, -391312.63, -0.26906526, 0.00031844177, -0.0001669144, -314617.75, -62155.242, 0.0, 10.001833, 9.901527 
4.8451117e+3, 2.8413197e+2, -228152.6, -318011.16, 4.524908, 0.00031757745, 0.0002639198, -228152.6, -72645.79, 0.0, 10.001823, 9.884597 
4.8451114e+3, 2.9401764e+2, -128469.26, -217709.56, 0.46832255, 0.0003169544, -0.00021922907, -128469.26, -69841.805, 0.0, 10.001814, 9.885377 
4.8451114e+3, 3.039312e+2, -38773.754, -84744.45, 4.484404, 0.00031564507, 0.0002049988, -38773.754, -38773.754, 0.0, 10.001804, 9.941307 
4.8451108e+3, 3.138744e+2, -37711.656, -82515.945, 0.2644563, 0.00031331988, -0.000027727983, -37711.656, -37711.656, 0.0, 10.001795, 9.942817 
4.8551205e+3, 1.2501435e+2, -1717529.5, -1724032.1, -0.9846749, 0.00034161305, 0.00010842914, -1717529.5, -2669.6113, 0.0, 10.001995, 9.993376 
4.8551202e+3, 1.3500758e+2, -1620180.4, -1627265.3, -5.634876, 0.00033887493, -0.000070409944, -1620180.4, -3254.141, 0.0, 10.001983, 9.992593 
4.8551196e+3, 1.4499429e+2, -1532060.3, -1547910.4, -2.7225, 0.00033712637, 0.00019190239, -1532060.3, -13003.732, 0.0, 10.00197, 9.980966 
4.8551193e+3, 1.5497524e+2, -1434362.0, -1450606.5, -7.4971695, 0.00033636094, 0.000004435804, -1434362.0, -13118.826, 0.0, 10.001958, 9.980434 
4.8551187e+3, 1.6494955e+2, -1346342.6, -1371766.6, -2.811856, 0.0003352293, 0.000087205626, -1346342.6, -22847.834, 0.0, 10.001946, 9.968344 
4.855118e+3, 1.7491795e+2, -1248413.1, -1274144.4, -8.017988, 0.00033372763, -0.00001671042, -1248413.1, -22608.611, 0.0, 10.001935, 9.96793 
4.8551178e+3, 1.8487972e+2, -1160348.9, -1195557.4, -2.1326241, 0.0003323794, 0.0001279931, -1160348.9, -32169.67, 0.0, 10.001924, 9.955501 
4.8551172e+3, 1.9483525e+2, -1062226.3, -1097689.1, -7.278479, 0.0003311897, -0.0000041892445, -1062226.3, -31611.291, 0.0, 10.001912, 9.955158 
4.8551166e+3, 2.0478413e+2, -974080.06, -1019297.8, -1.5029309, 0.00033007644, 0.00011726502, -974080.06, -40964.047, 0.0, 10.001902, 9.942404 
4.8551163e+3, 2.1472657e+2, -875818.7, -921290.6, -6.524936, 0.00032904526, -0.00007747907, -875818.7, -40138.66, 0.0, 10.001891, 9.942062 
4.8551157e+3, 2.246623e+2, -787550.1, -843033.2, -0.86461747, 0.0003279283, 0.00016914643, -787550.1, -49240.42, 0.0, 10.001882, 9.929028 
4.855115e+3, 2.345914e+2, -689141.56, -744872.06, -5.7142916, 0.00032671413, -0.000043041924, -689141.56, -48136.96, 0.0, 10.001871, 9.928697 
4.855115e+3, 2.4451356e+2, -600835.0, -666933.0, -0.14435318, 0.00032560245, 0.00011832503, -600835.0, -57067.438, 0.0, 10.001862, 9.915261 
4.8551148e+3, 2.5442892e+2, -502106.4, -568274.2, -4.866464, 0.00032461222, -0.000064885106, -502106.4, -55509.617, 0.0, 10.001852, 9.915161 
4.8551142e+3, 2.643372e+2, -413889.06, -490929.7, 0.71467394, 0.00032353165, 0.00018050402, -413889.06, -64393.62, 0.0, 10.0018425, 9.9010935 
4.8551136e+3, 2.7423885e+2, -314627.44, -391332.94, -3.7892504, 0.00032233563, -0.0001657007, -314627.44, -62168.11, 0.0, 10.001833, 9.901514 
4.8551136e+3, 2.841323e+2, -228161.63, -318030.25, 1.0000732, 0.0003213876, 0.0002651427, -228161.63, -72657.89, 0.0, 10.001823, 9.884584 
4.8551133e+3, 2.9401794e+2, -128478.11, -217728.42, -3.05838, 0.000320777, -0.00021818891, -128478.11, -69853.6, 0.0, 10.001814, 9.885365 
4.8551127e+3, 3.0393147e+2, -38783.363, -84764.95, 0.95570064, 0.00031950048, 0.00020598179, -38783.363, -38783.363, 0.0, 10.001805, 9.941294 
4.8551127e+3, 3.1387466e+2, -37721.363, -82536.664, -3.265669, 0.00031723743, -0.000026613656, -37721.363, -37721.363, 0.0, 10.001796, 9.942802 
4.8651224e+3, 1.2501489e+2, -1717444.4, -1724001.0, 3.932707, 0.00034575615, 0.000109921304, -1717444.4, -2589.7498, 0.0, 10.002054, 9.993363 
4.865122e+3, 1.350081e+2, -1620096.0, -1627234.8, -0.83752704, 0.00034302357, -0.00006907681, -1620096.0, -3174.892, 0.0, 10.002041, 9.99258 
4.8651215e+3, 1.449948e+2, -1531976.6, -1547880.6, 2.1993127, 0.00034124686, 0.00019320533, -1531976.6, -12925.136, 0.0, 10.002028, 9.980953 
4.865121e+3, 1.5497574e+2, -1434279.3, -1450577.4, -2.6100454, 0.0003404195, 0.000005837017, -1434279.3, -13040.935, 0.0, 10.002016, 9.980422 
4.8651206e+3, 1.6495006e+2, -1346261.4, -1371740.1, 2.2055953, 0.00033926943, 0.00008861427, -1346261.4, -22771.43, 0.0, 10.002005, 9.968329 
4.86512e+3, 1.7491843e+2, -1248332.4, -1274118.3, -3.1204731, 0.00033779355, -0.00001538642, -1248332.4, -22532.588, 0.0, 10.001993, 9.967916 
4.8651198e+3, 1.8488017e+2, -1160268.6, -1195531.6, 2.9065433, 0.00033647497, 0.00012928557, -1160268.6, -32093.895, 0.0, 10.001982, 9.955487 
4.8651192e+3, 1.948357e+2, -1062146.5, -1097663.9, -2.341648, 0.00033531894, -0.0000028730567, -1062146.5, -31535.94, 0.0, 10.00197, 9.955144 
4.8651186e+3, 2.0478456e+2, -974000.9, -1019273.0, 3.5444334, 0.00033417845, 0.000118580596, -974000.9, -40889.098, 0.0, 10.00196, 9.9423895 
4.8651183e+3, 2.1472698e+2, -875740.44, -921266.44, -1.6140323, 0.0003330544, -0.00007619036, -875740.44, -40064.457, 0.0, 10.001949, 9.942049 
4.8651177e+3, 2.2466272e+2, -787472.3, -843009.25, 4.0685077, 0.0003319009, 0.00017039012, -787472.3, -49166.55, 0.0, 10.001939, 9.929013 
4.865117e+3, 2.345918e+2, -689064.25, -744848.6, -0.90840983, 0.00033071355, -0.00004186366, -689064.25, -48063.52, 0.0, 10.001928, 9.928682 
4.8651168e+3, 2.4451393e+2, -600758.2, -666909.94, 4.681033, 0.0003296265, 0.0001194885, -600758.2, -56994.336, 0.0, 10.001919, 9.915248 
4.8651168e+3, 2.5442928e+2, -502030.25, -568251.7, -0.16412067, 0.0003286582, -0.00006367625, -502030.25, -55437.02, 0.0, 10.001909, 9.915148 
4.8651162e+3, 2.643376e+2, -413813.44, -490907.56, 5.3654046, 0.00032755695, 0.00018172048, -413813.44, -64321.402, 0.0, 10.001899, 9.90108 
4.8651156e+3, 2.7423918e+2, -314552.6, -391311.4, 0.7090298, 0.00032628624, -0.0001645246, -314552.6, -62096.58, 0.0, 10.001889, 9.901501 
4.8651153e+3, 2.8413263e+2, -228086.84, -318008.13, 5.369691, 0.0003252975, 0.00026628326, -228086.84, -72586.27, 0.0, 10.00188, 9.884572 
4.8651153e+3, 2.9401824e+2, -128403.95, -217706.75, 1.1181494, 0.0003246928, -0.00021707734, -128403.95, -69782.484, 0.0, 10.00187, 9.885351 
4.8651147e+3, 3.039318e+2, -38711.133, -84745.98, 4.8573346, 0.0003234193, 0.00020705038, -38711.133, -38711.133, 0.0, 10.001861, 9.941279 
4.8651147e+3, 3.1387496e+2, -37649.426, -82518.01, 0.4334973, 0.00032115486, -0.000025608244, -37649.426, -37649.426, 0.0, 10.001851, 9.942788 
4.8751244e+3, 1.2501544e+2, -1717455.1, -1724021.5, -0.8237149, 0.00035001498, 0.00011096998, -1717455.1, -2605.8948, 0.0, 10.002054, 9.993351 
4.875124e+3, 1.3500863e+2, -1620106.6, -1627255.3, -5.5921693, 0.0003472678, -0.00006732523, -1620106.6, -3190.7869, 0.0, 10.002042, 9.992567 
4.8751235e+3, 1.4499533e+2, -1531987.1, -1547901.0, -2.3854947, 0.0003454086, 0.00019502854, -1531987.1, -12940.842, 0.0, 10.002028, 9.980941 
4.875123e+3, 1.5497625e+2, -1434289.6, -1450597.8, -7.1961813, 0.00034443065, 0.000007101498, -1434289.6, -13056.387, 0.0, 10.002017, 9.980409 
4.8751226e+3, 1.6495055e+2, -1346272.9, -1371762.5, -2.1611052, 0.00034325878, 0.00008972888, -1346272.9, -22787.822, 0.0, 10.002005, 9.968316 
4.875122e+3, 1.7491892e+2, -1248343.8, -1274140.5, -7.4867907, 0.00034189166, -0.000014007159, -1248343.8, -22548.709, 0.0, 10.001993, 9.967902 
4.8751217e+3, 1.8488064e+2, -1160279.8, -1195553.8, -1.2332103, 0.0003406494, 0.00013070319, -1160279.8, -32109.736, 0.0, 10.001982, 9.955473 
4.875121e+3, 1.9483615e+2, -1062157.6, -1097685.9, -6.4797072, 0.00033953585, -0.0000016523489, -1062157.6, -31551.504, 0.0, 10.00197, 9.95513 
4.8751205e+3, 2.04785e+2, -974011.8, -1019294.94, -0.42257303, 0.00033833398, 0.00011980845, -974011.8, -40904.414, 0.0, 10.00196, 9.942375 
4.8751202e+3, 2.1472742e+2, -875751.25, -921288.25, -5.5779552, 0.00033703673, -0.0000747356, -875751.25, -40079.504, 0.0, 10.001949, 9.942035 
4.8751196e+3, 2.2466314e+2, -787482.9, -843030.7, 0.27677473, 0.0003358484, 0.00017179945, -787482.9, -49181.22, 0.0, 10.001939, 9.929 
4.875119e+3, 2.345922e+2, -689074.75, -744869.94, -4.6963344, 0.00033478212, -0.000040806528, -689074.75, -48077.91, 0.0, 10.001929, 9.928669 
4.8751187e+3, 2.4451432e+2, -600768.56, -666931.25, 1.0109065, 0.00033373173, 0.00012048873, -600768.56, -57008.504, 0.0, 10.001919, 9.915234 
4.8751187e+3, 2.5442967e+2, -502040.47, -568272.9, -3.8290353, 0.00033269954, -0.000062381405, -502040.47, -55450.918, 0.0, 10.001909, 9.915133 
4.875118e+3, 2.6433796e+2, -413823.53, -490928.6, 1.7438347, 0.0003315628, 0.00018308278, -413823.53, -64335.035, 0.0, 10.0019, 9.901067 
4.8751175e+3, 2.7423957e+2, -314562.56, -391332.3, -2.911142, 0.00033029288, -0.00016338358, -314562.56, -62109.93, 0.0, 10.00189, 9.901486 
4.8751172e+3, 2.8413296e+2, -228096.22, -318027.97, 1.7827078, 0.00032930454, 0.00026734598, -228096.22, -72598.914, 0.0, 10.001881, 9.884559 
4.8751172e+3, 2.9401857e+2, -128413.15, -217726.36, -2.4663644, 0.00032869948, -0.00021589664, -128413.15, -69794.82, 0.0, 10.001871, 9.885338 
4.8751166e+3, 3.039321e+2, -38721.09, -84767.24, 1.2856077, 0.0003274006, 0.00020820159, -38721.09, -38721.09, 0.0, 10.001862, 9.941265 
4.8751163e+3, 3.1387526e+2, -37659.49, -82539.484, -3.1387641, 0.00032507395, -0.00002470622, -37659.49, -37659.49, 0.0, 10.001852, 9.942773 
4.885127e+3, 1.25016e+2, -1717368.1, -1723989.5, 4.083357, 0.00035424784, 0.00011220806, -1717368.1, -2524.4575, 0.0, 10.002114, 9.993338 
4.885126e+3, 1.350092e+2, -1620020.4, -1627223.8, -0.61603487, 0.00035145215, -0.0000657685, -1620020.4, -3109.9207, 0.0, 10.002102, 9.992555 
4.8851255e+3, 1.4499588e+2, -1531901.6, -1547870.6, 2.7330928, 0.00034957033, 0.0001966229, -1531901.6, -12860.703, 0.0, 10.002089, 9.980927 
4.885125e+3, 1.5497677e+2, -1434204.9, -1450567.9, -2.2477798, 0.00034859538, 0.00000845271, -1434204.9, -12976.784, 0.0, 10.002076, 9.980396 
4.8851246e+3, 1.6495107e+2, -1346189.8, -1371735.3, 2.903298, 0.00034742168, 0.0000910014, -1346189.8, -22709.656, 0.0, 10.002065, 9.968302 
4.885124e+3, 1.7491941e+2, -1248261.1, -1274113.8, -2.523975, 0.0003460479, -0.000012646519, -1248261.1, -22470.973, 0.0, 10.002052, 9.967888 
4.8851237e+3, 1.8488114e+2, -1160197.6, -1195527.4, 3.8645313, 0.0003447925, 0.00013207369, -1160197.6, -32032.29, 0.0, 10.002041, 9.955459 
4.885123e+3, 1.9483663e+2, -1062076.0, -1097660.0, -1.49239, 0.00034365905, -0.00000035339306, -1062076.0, -31474.533, 0.0, 10.00203, 9.955115 
4.8851225e+3, 2.0478547e+2, -973930.7, -1019269.44, 4.6579013, 0.000342445, 0.00012110599, -973930.7, -40827.754, 0.0, 10.002019, 9.942361 
4.8851222e+3, 2.1472786e+2, -875670.75, -921263.25, -0.5780195, 0.0003411439, -0.000073363946, -875670.75, -40003.332, 0.0, 10.002008, 9.94202 
4.8851216e+3, 2.2466356e+2, -787402.8, -843006.1, 5.334987, 0.00033995268, 0.00017314113, -787402.8, -49105.375, 0.0, 10.001998, 9.928986 
4.885121e+3, 2.345926e+2, -688995.3, -744845.94, 0.16510527, 0.00033888468, -0.000039612074, -688995.3, -48002.54, 0.0, 10.001987, 9.928655 
4.8851207e+3, 2.4451472e+2, -600689.5, -666907.44, 5.849347, 0.00033781715, 0.00012164523, -600689.5, -56933.41, 0.0, 10.001978, 9.915219 
4.8851207e+3, 2.5443006e+2, -501962.16, -568249.6, 0.91638535, 0.00033674936, -0.00006113282, -501962.16, -55376.38, 0.0, 10.001967, 9.91512 
4.88512e+3, 2.643383e+2, -413745.72, -490905.9, 6.4372835, 0.0003356081, 0.00018433895, -413745.72, -64260.875, 0.0, 10.001958, 9.901052 
4.8851195e+3, 2.7423993e+2, -314485.25, -391310.1, 1.5890425, 0.00033437312, -0.00016222728, -314485.25, -62036.152, 0.0, 10.001948, 9.901472 
4.8851192e+3, 2.8413332e+2, -228018.75, -318004.94, 6.169146, 0.00033339628, 0.00026847247, -228018.75, -72524.81, 0.0, 10.001939, 9.884545 
4.8851192e+3, 2.940189e+2, -128336.266, -217703.8, 1.8084491, 0.00033277052, -0.00021470404, -128336.266, -69721.18, 0.0, 10.001929, 9.885325 
4.8851186e+3, 3.0393243e+2, -38646.332, -84747.72, 5.2988186, 0.0003314286, 0.00020935683, -38646.33, -38646.33, 0.0, 10.00192, 9.94125 
4.8851183e+3, 3.1387556e+2, -37585.15, -82520.375, 0.5996072, 0.00032902617, -0.000023741826, -37585.15, -37585.15, 0.0, 10.001909, 9.942759 
4.895129e+3, 1.2501658e+2, -1717378.8, -1724009.8, -0.7251692, 0.00035845803, 0.0001136272, -1717378.8, -2540.682, 0.0, 10.002114, 9.993325 
4.8951283e+3, 1.3500977e+2, -1620030.8, -1627243.9, -5.4254355, 0.0003555815, -0.00006439621, -1620030.8, -3125.8948, 0.0, 10.002102, 9.992542 
4.895128e+3, 1.4499643e+2, -1531912.6, -1547891.8, -1.9025713, 0.0003537341, 0.00019800053, -1531912.6, -12877.033, 0.0, 10.0020895, 9.980914 
4.8951268e+3, 1.549773e+2, -1434215.6, -1450588.9, -6.8829093, 0.00035290836, 0.000009887503, -1434215.6, -12992.852, 0.0, 10.002077, 9.980383 
4.8951265e+3, 1.649516e+2, -1346201.4, -1371758.1, -1.4912385, 0.0003517518, 0.000092425194, -1346201.4, -22726.504, 0.0, 10.002065, 9.9682865 
4.895126e+3, 1.7491993e+2, -1248272.8, -1274136.5, -6.9181566, 0.00035026143, -0.000011302676, -1248272.6, -22487.543, 0.0, 10.002053, 9.967874 
4.8951256e+3, 1.8488164e+2, -1160209.0, -1195550.0, -0.31678373, 0.00034890775, 0.00013340027, -1160209.0, -32048.596, 0.0, 10.002042, 9.955444 
4.895125e+3, 1.9483711e+2, -1062087.3, -1097682.5, -5.672269, 0.000347695, 0.0000010210606, -1062087.3, -31490.56, 0.0, 10.00203, 9.955101 
4.8951244e+3, 2.0478593e+2, -973941.8, -1019291.7, 0.64459753, 0.00034651568, 0.00012247085, -973941.8, -40843.465, 0.0, 10.002019, 9.942347 
4.895124e+3, 2.1472831e+2, -875681.7, -921285.44, -4.5891824, 0.00034537204, -0.00007207055, -875681.7, -40018.76, 0.0, 10.002008, 9.942006 
4.8951235e+3, 2.24664e+2, -787413.8, -843028.44, 1.5001721, 0.0003442084, 0.0001744193, -787413.8, -49120.664, 0.0, 10.001998, 9.928971 
4.895123e+3, 2.3459303e+2, -689006.1, -744868.06, -3.6642926, 0.00034302167, -0.00003828577, -689006.1, -48017.547, 0.0, 10.001988, 9.92864 
4.8951226e+3, 2.4451514e+2, -600700.06, -666929.2, 2.1187277, 0.00034188566, 0.00012295159, -600700.06, -56947.984, 0.0, 10.001978, 9.915205 
4.8951226e+3, 2.5443044e+2, -501972.53, -568271.2, -2.8113778, 0.00034080932, -0.000059927454, -501972.53, -55390.664, 0.0, 10.001968, 9.915106 
4.895122e+3, 2.6433867e+2, -413756.16, -490927.7, 2.7950947, 0.00033969307, 0.00018549475, -413756.16, -64275.07, 0.0, 10.001958, 9.901038 
4.8951215e+3, 2.742403e+2, -314495.56, -391331.75, -2.047959, 0.0003385255, -0.00016105555, -314495.56, -62050.074, 0.0, 10.001948, 9.901458 
4.8951212e+3, 2.8413367e+2, -228028.31, -318025.25, 2.537675, 0.00033757076, 0.00026966067, -228028.31, -72537.86, 0.0, 10.001939, 9.884532 
4.8951212e+3, 2.9401922e+2, -128345.65, -217723.83, -1.823779, 0.00033690498, -0.0002134992, -128345.65, -69733.91, 0.0, 10.001929, 9.885312 
4.8951206e+3, 3.0393273e+2, -38656.746, -84769.98, 1.6573666, 0.00033550308, 0.00021051684, -38656.746, -38656.746, 0.0, 10.00192, 9.941235 
4.8951203e+3, 3.1387585e+2, -37595.695, -82542.914, -3.0436964, 0.0003330119, -0.00002271713, -37595.695, -37595.695, 0.0, 10.00191, 9.942743 
4.905131e+3, 1.2501718e+2, -1717290.0, -1723977.0, 4.3214564, 0.00036272634, 0.00011512246, -1717290.0, -2457.7456, 0.0, 10.002176, 9.993313 
4.9051303e+3, 1.3501035e+2, -1619942.8, -1627211.6, -0.5179807, 0.0003598145, -0.00006307679, -1619942.8, -3043.4934, 0.0, 10.002163, 9.992529 
4.90513e+3, 1.44997e+2, -1531825.4, -1547860.8, 3.145606, 0.0003579724, 0.00019930815, -1531825.4, -12795.348, 0.0, 10.002151, 9.980901 
4.9051294e+3, 1.5497787e+2, -1434128.9, -1450558.4, -1.8595254, 0.00035719224, 0.000011346599, -1434128.9, -12911.463, 0.0, 10.002138, 9.98037 
4.9051288e+3, 1.6495213e+2, -1346116.1, -1371730.0, 3.6913157, 0.0003560342, 0.00009390308, -1346116.1, -22646.518, 0.0, 10.002126, 9.968272 
4.905128e+3, 1.7492045e+2, -1248188.1, -1274109.0, -1.8471279, 0.00035449472, -0.000009940277, -1248188.1, -22408.117, 0.0, 10.002114, 9.967858 
4.9051276e+3, 1.8488213e+2, -1160125.0, -1195523.0, 4.881061, 0.00035310158, 0.00013473329, -1160125.0, -31969.547, 0.0, 10.002102, 9.95543 
4.905127e+3, 1.9483761e+2, -1062003.9, -1097656.0, -0.5955043, 0.00035185937, 0.0000024140775, -1062003.9, -31411.996, 0.0, 10.002091, 9.955087 
4.9051264e+3, 2.047864e+2, -973858.7, -1019265.56, 5.8027167, 0.000350686, 0.00012383645, -973858.7, -40765.094, 0.0, 10.00208, 9.942332 
4.905126e+3, 2.1472877e+2, -875599.0, -921259.7, 0.4169338, 0.00034958648, -0.000070826456, -875599.0, -39940.63, 0.0, 10.002069, 9.941992 
4.9051255e+3, 2.2466446e+2, -787331.5, -843003.1, 6.5511208, 0.0003484278, 0.00017566256, -787331.5, -49042.78, 0.0, 10.002059, 9.928957 
4.905125e+3, 2.3459348e+2, -688924.5, -744843.3, 1.3080117, 0.00034720192, -0.00003690748, -688924.5, -47940.176, 0.0, 10.0020485, 9.928626 
4.905125e+3, 2.4451555e+2, -600618.8, -666904.7, 7.0814824, 0.00034604516, 0.00012432608, -600618.8, -56870.875, 0.0, 10.002038, 9.915191 
4.9051246e+3, 2.5443086e+2, -501891.84, -568247.25, 1.9385142, 0.0003449699, -0.00005872197, -501891.84, -55313.96, 0.0, 10.002028, 9.9150915 
4.905124e+3, 2.643391e+2, -413675.9, -490904.22, 7.4834313, 0.00034385276, 0.00018663061, -413675.9, -64198.668, 0.0, 10.002019, 9.901024 
4.9051234e+3, 2.7424067e+2, -314415.84, -391308.8, 2.5274212, 0.00034268174, -0.00015986292, -314415.84, -61974.07, 0.0, 10.002008, 9.9014435 
4.905123e+3, 2.8413403e+2, -227948.38, -318001.44, 7.0003, 0.00034171884, 0.00027087436, -227948.38, -72461.49, 0.0, 10.001999, 9.884518 
4.905123e+3, 2.9401958e+2, -128266.24, -217700.45, 2.4630203, 0.0003410385, -0.00021231397, -128266.24, -69657.945, 0.0, 10.001989, 9.885298 
4.9051225e+3, 3.039331e+2, -38579.496, -84749.875, 5.6819205, 0.000339622, 0.0002116648, -38579.496, -38579.496, 0.0, 10.00198, 9.941219 
4.905122e+3, 3.1387618e+2, -37518.668, -82523.15, 0.80784655, 0.0003371164, -0.000021618422, -37518.668, -37518.668, 0.0, 10.00197, 9.942727 
4.9151334e+3, 1.2501778e+2, -1717300.9, -1723997.9, -0.5307839, 0.00036705192, 0.00011669105, -1717300.9, -2474.5352, 0.0, 10.002176, 9.9932995 
4.9151328e+3, 1.3501094e+2, -1619953.4, -1627232.4, -5.3701644, 0.00036414806, -0.00006180664, -1619953.4, -3060.0222, 0.0, 10.002163, 9.9925165 
4.915132e+3, 1.4499757e+2, -1531836.3, -1547882.0, -1.4785163, 0.0003622836, 0.00020055019, -1531836.3, -12811.964, 0.0, 10.002151, 9.980887 
4.9151313e+3, 1.5497844e+2, -1434139.6, -1450579.5, -6.4835773, 0.0003614506, 0.000012829802, -1434139.6, -12927.822, 0.0, 10.002138, 9.980356 
4.9151307e+3, 1.6495268e+2, -1346128.0, -1371753.4, -0.76160604, 0.00036027338, 0.00009543339, -1346128.0, -22663.848, 0.0, 10.002126, 9.968258 
4.9151304e+3, 1.7492099e+2, -1248199.9, -1274132.3, -6.3001633, 0.00035874895, -0.00000855925, -1248199.9, -22425.16, 0.0, 10.002114, 9.967844 
4.9151298e+3, 1.8488267e+2, -1160136.6, -1195546.1, 0.6572955, 0.00035737228, 0.00013607339, -1160136.6, -31986.344, 0.0, 10.002103, 9.955415 
4.9151295e+3, 1.9483812e+2, -1062015.4, -1097679.0, -4.8175197, 0.00035614803, 0.000003825736, -1062015.4, -31428.506, 0.0, 10.002091, 9.955072 
4.915129e+3, 2.0478691e+2, -973870.1, -1019288.5, 1.8060856, 0.00035495326, 0.0001252037, -973870.1, -40781.348, 0.0, 10.00208, 9.942318 
4.9151284e+3, 2.1472926e+2, -875610.3, -921282.44, -3.5762181, 0.00035378992, -0.000069628375, -875610.3, -39956.6, 0.0, 10.002069, 9.941977 
4.915128e+3, 2.2466491e+2, -787342.6, -843025.7, 2.6693273, 0.0003526147, 0.00017687351, -787342.6, -49058.453, 0.0, 10.002059, 9.928942 
4.9151275e+3, 2.3459393e+2, -688935.5, -744865.75, -2.571029, 0.00035142546, -0.000035478744, -688935.5, -47955.56, 0.0, 10.0020485, 9.928611 
4.915127e+3, 2.4451599e+2, -600629.75, -666927.25, 3.3252409, 0.00035029335, 0.00012576637, -600629.75, -56886.082, 0.0, 10.002039, 9.915176 
4.9151266e+3, 2.5443128e+2, -501902.66, -568269.6, -1.8128374, 0.00034922844, -0.000057515495, -501902.66, -55328.88, 0.0, 10.002028, 9.915076 
4.915126e+3, 2.643395e+2, -413686.56, -490926.5, 3.8219647, 0.00034808577, 0.00018774833, -413686.56, -64213.297, 0.0, 10.002019, 9.901009 
4.9151254e+3, 2.7424106e+2, -314426.38, -391330.9, -1.1294618, 0.0003468437, -0.00015864948, -314426.38, -61988.41, 0.0, 10.002009, 9.901429 
4.915125e+3, 2.841344e+2, -227958.25, -318022.38, 3.3386152, 0.00034584387, 0.00027211325, -227958.25, -72475.05, 0.0, 10.002, 9.884504 
4.915125e+3, 2.9401997e+2, -128275.94, -217721.17, -1.2000337, 0.0003451732, -0.00021114659, -128275.94, -69671.18, 0.0, 10.001989, 9.885284 
4.9151245e+3, 3.0393344e+2, -38590.203, -84772.78, 2.0227416, 0.0003437853, 0.00021280212, -38590.203, -38590.203, 0.0, 10.00198, 9.941204 
4.915124e+3, 3.1387654e+2, -37529.51, -82546.336, -2.8519375, 0.0003413361, -0.000020448324, -37529.51, -37529.51, 0.0, 10.00197, 9.942712 
4.9251354e+3, 1.250184e+2, -1717210.1, -1723964.3, 4.5513196, 0.00037141977, 0.00011812651, -1717210.1, -2389.8796, 0.0, 10.002239, 9.993287 
4.9251348e+3, 1.3501155e+2, -1619863.3, -1627199.4, -0.360306, 0.00036852833, -0.00006033454, -1619863.3, -2975.815, 0.0, 10.002226, 9.992503 
4.9251342e+3, 1.4499816e+2, -1531747.0, -1547850.0, 3.6912718, 0.000366635, 0.00020202226, -1531747.0, -12728.447, 0.0, 10.0022135, 9.980874 
4.925134e+3, 1.5497902e+2, -1434051.1, -1450548.1, -1.37576, 0.00036573168, 0.000014265096, -1434051.1, -12844.926, 0.0, 10.0022, 9.980343 
4.9251327e+3, 1.6495325e+2, -1346041.3, -1371724.9, 4.4824977, 0.00036453572, 0.00009684541, -1346041.3, -22582.541, 0.0, 10.002189, 9.968243 
4.9251324e+3, 1.7492154e+2, -1248113.5, -1274104.1, -1.1894811, 0.00036304476, -0.000007156734, -1248113.5, -22344.121, 0.0, 10.002176, 9.967829 
4.9251318e+3, 1.848832e+2, -1160050.5, -1195518.4, 5.8955984, 0.000361695, 0.00013746419, -1160050.5, -31905.408, 0.0, 10.002165, 9.9554 
4.9251312e+3, 1.9483864e+2, -1061929.6, -1097651.6, 0.30842668, 0.00036049078, 0.0000052025216, -1061929.6, -31347.838, 0.0, 10.002153, 9.955057 
4.925131e+3, 2.0478742e+2, -973784.8, -1019261.6, 7.022562, 0.00035927395, 0.0001265664, -973784.8, -40700.953, 0.0, 10.002143, 9.942303 
4.9251303e+3, 2.1472976e+2, -875525.6, -921256.1, 1.5034319, 0.0003580433, -0.00006827985, -875525.6, -39876.723, 0.0, 10.002132, 9.941962 
4.92513e+3, 2.246654e+2, -787258.3, -842999.7, 7.7812133, 0.00035684867, 0.0001781942, -787258.3, -48978.76, 0.0, 10.002121, 9.928927 
4.9251294e+3, 2.3459439e+2, -688851.5, -744840.2, 2.4103081, 0.00035569392, -0.000034201235, -688851.5, -47876.105, 0.0, 10.002111, 9.9285965 
4.9251288e+3, 2.4451643e+2, -600546.2, -666902.2, 8.300681, 0.00035457732, 0.00012703263, -600546.2, -56806.84, 0.0, 10.002101, 9.915161 
4.9251285e+3, 2.5443172e+2, -501819.53, -568245.0, 3.020485, 0.00035350528, -0.00005622257, -501819.53, -55249.98, 0.0, 10.002091, 9.915062 
4.925128e+3, 2.643399e+2, -413603.8, -490902.25, 8.590484, 0.00035234366, 0.00018903252, -413603.8, -64134.63, 0.0, 10.002081, 9.900994 
4.9251273e+3, 2.7424145e+2, -314344.25, -391307.22, 3.4553237, 0.00035106787, -0.00015741884, -314344.25, -61910.203, 0.0, 10.002071, 9.901414 
4.9251273e+3, 2.841348e+2, -227875.89, -317997.88, 7.7910748, 0.00035004772, 0.00027329742, -227875.89, -72396.48, 0.0, 10.002062, 9.88449 
4.925127e+3, 2.9402032e+2, -128194.0, -217697.03, 3.0984263, 0.00034937504, -0.00020999921, -128194.0, -69592.89, 0.0, 10.002052, 9.88527 
4.9251264e+3, 3.039338e+2, -38510.383, -84751.97, 6.067172, 0.00034799552, 0.00021392679, -38510.383, -38510.383, 0.0, 10.002042, 9.941188 
4.9251258e+3, 3.1387687e+2, -37449.85, -82525.836, 0.99599504, 0.00034557004, -0.000019324849, -37449.85, -37449.85, 0.0, 10.002032, 9.942696 
4.9351376e+3, 1.2501903e+2, -1717221.1, -1723985.4, -0.3224145, 0.0003758299, 0.00011943681, -1717221.1, -2407.0789, 0.0, 10.002239, 9.993274 
4.9351373e+3, 1.3501216e+2, -1619874.1, -1627220.4, -5.2329426, 0.0003729551, -0.000058669833, -1619874.1, -2992.7559, 0.0, 10.002226, 9.99249 
4.935136e+3, 1.4499877e+2, -1531758.0, -1547871.5, -0.99686384, 0.00037102672, 0.00020371353, -1531758.0, -12745.446, 0.0, 10.0022135, 9.980861 
4.9351358e+3, 1.5497962e+2, -1434062.0, -1450569.4, -6.0649247, 0.00037003658, 0.000015655904, -1434062.0, -12861.657, 0.0, 10.002201, 9.9803295 
4.9351352e+3, 1.6495383e+2, -1346053.4, -1371748.8, 0.04249914, 0.00036882222, 0.00009814619, -1346053.4, -22600.398, 0.0, 10.002189, 9.968227 
4.9351346e+3, 1.7492211e+2, -1248125.5, -1274128.0, -5.628719, 0.00036738228, -0.000005732813, -1248125.5, -22361.686, 0.0, 10.002177, 9.9678135 
4.9351338e+3, 1.8488376e+2, -1160062.4, -1195542.0, 1.6850959, 0.00036606938, 0.0001389041, -1160062.4, -31922.68, 0.0, 10.002165, 9.955385 
4.9351332e+3, 1.9483918e+2, -1061941.4, -1097675.1, -3.900445, 0.00036488718, 0.000006547149, -1061941.4, -31364.814, 0.0, 10.002154, 9.955042 
4.935133e+3, 2.0478794e+2, -973796.5, -1019285.1, 2.977994, 0.00036364768, 0.00012792576, -973796.5, -40717.727, 0.0, 10.002143, 9.942287 
4.9351323e+3, 2.1473025e+2, -875537.2, -921279.5, -2.5383496, 0.00036234624, -0.000066787405, -875537.2, -39893.203, 0.0, 10.002132, 9.941947 
4.935132e+3, 2.246659e+2, -787269.7, -843022.9, 3.9191267, 0.00036112944, 0.00017962008, -787269.7, -48994.92, 0.0, 10.002122, 9.928912 
4.9351314e+3, 2.3459487e+2, -688862.75, -744863.2, -1.4478399, 0.00036000728, -0.000033066553, -688862.75, -47891.97, 0.0, 10.002111, 9.928581 
4.9351308e+3, 2.445169e+2, -600557.4, -666925.3, 4.541528, 0.0003588975, 0.00012813444, -600557.4, -56822.543, 0.0, 10.002101, 9.915146 
4.9351305e+3, 2.5443217e+2, -501830.6, -568268.0, -0.7343313, 0.00035780168, -0.000054846474, -501830.6, -55265.39, 0.0, 10.002091, 9.915047 
4.93513e+3, 2.6434034e+2, -413614.84, -490925.25, 4.897662, 0.00035662748, 0.00019047591, -413614.84, -64149.816, 0.0, 10.002082, 9.900979 
4.93513e+3, 2.742419e+2, -314355.1, -391330.06, -0.23480342, 0.00035535338, -0.000156171, -314355.1, -61925.094, 0.0, 10.002071, 9.901399 
4.9351293e+3, 2.841352e+2, -227886.03, -318019.44, 4.1293106, 0.00035432872, 0.00027443047, -227886.03, -72410.51, 0.0, 10.002062, 9.884476 
4.935129e+3, 2.940207e+2, -128203.95, -217718.33, -0.5620008, 0.00035364297, -0.00020886998, -128203.95, -69606.59, 0.0, 10.002052, 9.885256 
4.9351284e+3, 3.039342e+2, -38521.42, -84775.6, 2.4092171, 0.00035225254, 0.00021504033, -38521.42, -38521.42, 0.0, 10.002043, 9.941172 
4.9351278e+3, 3.1387722e+2, -37461.03, -82549.766, -2.6632557, 0.00034981966, -0.000018244933, -37461.03, -37461.03, 0.0, 10.002032, 9.942679 
4.9451402e+3, 1.2501968e+2, -1717128.6, -1723951.0, 4.761977, 0.000380255, 0.00012084144, -1717128.6, -2320.8345, 0.0, 10.002303, 9.99326 
4.9451393e+3, 1.350128e+2, -1619782.3, -1627186.5, -0.14047131, 0.00037734277, -0.00005712227, -1619782.3, -2906.9978, 0.0, 10.00229, 9.992477 
4.9451387e+3, 1.4499938e+2, -1531667.0, -1547838.9, 4.2519765, 0.0003754068, 0.00020526776, -1531667.0, -12660.409, 0.0, 10.002277, 9.980847 
4.945138e+3, 1.5498021e+2, -1433971.4, -1450537.3, -0.96055883, 0.00037443847, 0.000017080689, -1433971.4, -12776.942, 0.0, 10.002265, 9.980316 
4.9451372e+3, 1.6495442e+2, -1345964.4, -1371719.5, 5.295834, 0.00037322685, 0.00009952741, -1345964.4, -22517.17, 0.0, 10.002253, 9.968212 
4.9451366e+3, 1.7492269e+2, -1248037.0, -1274099.1, -0.467326, 0.00037177035, -0.0000043081045, -1248037.0, -22278.793, 0.0, 10.002241, 9.967799 
4.9451363e+3, 1.8488431e+2, -1159974.3, -1195513.6, 6.9859433, 0.0003704423, 0.00014032403, -1159974.3, -31839.98, 0.0, 10.002229, 9.95537 
4.9451357e+3, 1.9483972e+2, -1061853.8, -1097647.3, 1.2746232, 0.00036924644, 0.000007912106, -1061853.8, -31282.467, 0.0, 10.002218, 9.955027 
4.945135e+3, 2.0478845e+2, -973709.1, -1019257.56, 8.24193, 0.00036801127, 0.00012929112, -973709.1, -40635.535, 0.0, 10.002207, 9.942273 
4.9451348e+3, 2.1473077e+2, -875450.1, -921252.4, 2.6205156, 0.0003667335, -0.00006536206, -875450.1, -39811.21, 0.0, 10.002196, 9.941932 
4.9451342e+3, 2.2466639e+2, -787182.94, -842996.1, 9.106968, 0.00036551378, 0.0001810094, -787182.94, -48913.094, 0.0, 10.002186, 9.928897 
4.945134e+3, 2.3459536e+2, -688776.56, -744836.94, 3.537411, 0.00036435865, -0.00003182127, -688776.56, -47810.496, 0.0, 10.002175, 9.928566 
4.9451333e+3, 2.4451737e+2, -600471.5, -666899.4, 9.499045, 0.00036323018, 0.00012934644, -600471.5, -56741.227, 0.0, 10.002165, 9.915132 
4.9451327e+3, 2.5443262e+2, -501745.13, -568242.56, 4.122921, 0.00036213256, -0.0000535361, -501745.13, -55184.35, 0.0, 10.002155, 9.915031 
4.9451324e+3, 2.643408e+2, -413529.72, -490900.4, 9.704575, 0.0003609637, 0.00019179995, -413529.72, -64068.992, 0.0, 10.002146, 9.900964 
4.9451318e+3, 2.742423e+2, -314270.38, -391305.66, 4.3853097, 0.00035970387, -0.00015494086, -314270.38, -61844.51, 0.0, 10.002135, 9.901383 
4.9451312e+3, 2.8413558e+2, -227800.94, -317994.06, 8.609626, 0.0003586847, 0.00027561624, -227800.94, -72329.4, 0.0, 10.002126, 9.884461 
4.945131e+3, 2.9402113e+2, -128119.31, -217693.36, 3.7442474, 0.00035799222, -0.0002076607, -128119.31, -69525.805, 0.0, 10.002116, 9.8852415 
4.9451303e+3, 3.0393454e+2, -38439.03, -84754.17, 6.4327683, 0.0003565794, 0.00021621477, -38439.03, -38439.03, 0.0, 10.002107, 9.941155 
4.9451303e+3, 3.1387755e+2, -37378.813, -82528.68, 1.119574, 0.00035410133, -0.000017191502, -37378.813, -37378.813, 0.0, 10.002097, 9.942662 
4.955142e+3, 1.2502034e+2, -1717139.5, -1723972.1, -0.13869755, 0.00038469653, 0.0001223363, -1717139.5, -2338.258, 0.0, 10.002303, 9.993247 
4.9551415e+3, 1.3501345e+2, -1619793.0, -1627207.5, -5.041859, 0.0003816957, -0.00005568459, -1619793.0, -2924.1611, 0.0, 10.002291, 9.992464 
4.9551412e+3, 1.4500003e+2, -1531678.4, -1547861.0, -0.4293606, 0.00037977812, 0.00020669328, -1531678.4, -12677.975, 0.0, 10.002277, 9.980834 
4.95514e+3, 1.5498084e+2, -1433982.6, -1450559.3, -5.641564, 0.0003789346, 0.000018538678, -1433982.6, -12794.235, 0.0, 10.002265, 9.980302 
4.9551398e+3, 1.6495503e+2, -1345976.8, -1371743.8, 0.855865, 0.00037774566, 0.00010098579, -1345976.8, -22535.465, 0.0, 10.002253, 9.968197 
4.9551392e+3, 1.7492329e+2, -1248049.3, -1274123.3, -4.9068246, 0.00037620857, -0.0000028816562, -1248049.3, -22296.793, 0.0, 10.002241, 9.967784 
4.9551386e+3, 1.8488489e+2, -1159986.4, -1195537.8, 2.7702646, 0.00037481618, 0.000141726, -1159986.4, -31857.754, 0.0, 10.00223, 9.955355 
4.9551377e+3, 1.9484027e+2, -1061865.8, -1097671.1, -2.939464, 0.00037357278, 0.000009297329, -1061865.8, -31299.94, 0.0, 10.002218, 9.955011 
4.955137e+3, 2.04789e+2, -973721.06, -1019281.5, 4.2299643, 0.00037236756, 0.00013066316, -973721.06, -40652.758, 0.0, 10.002207, 9.942257 
4.9551368e+3, 2.1473129e+2, -875461.94, -921276.1, -1.3885852, 0.00037120312, -0.00006399938, -875461.94, -39828.13, 0.0, 10.002196, 9.941916 
4.9551362e+3, 2.246669e+2, -787194.75, -843020.1, 5.2393737, 0.00036999863, 0.00018236504, -787194.75, -48929.89, 0.0, 10.002186, 9.928882 
4.955136e+3, 2.3459584e+2, -688788.2, -744860.8, -0.32610744, 0.0003687484, -0.000030470084, -688788.2, -47826.992, 0.0, 10.002175, 9.928551 
4.9551353e+3, 2.4451783e+2, -600482.9, -666922.94, 5.7540426, 0.000367577, 0.0001306639, -600482.9, -56757.348, 0.0, 10.002166, 9.915115 
4.9551347e+3, 2.5443307e+2, -501756.38, -568266.0, 0.38176036, 0.00036649848, -0.0000522872, -501756.38, -55200.168, 0.0, 10.002155, 9.915016 
4.9551344e+3, 2.643412e+2, -413541.06, -490924.13, 6.0359826, 0.00036535194, 0.0001930116, -413541.06, -64084.74, 0.0, 10.002146, 9.900948 
4.9551338e+3, 2.7424273e+2, -314281.56, -391329.25, 0.72059333, 0.00036411843, -0.00015372664, -314281.56, -61859.96, 0.0, 10.002136, 9.901368 
4.9551332e+3, 2.8413603e+2, -227811.39, -318016.28, 4.946853, 0.00036311414, 0.00027685304, -227811.39, -72343.96, 0.0, 10.002127, 9.884446 
4.9551332e+3, 2.9402152e+2, -128129.56, -217715.33, 0.080561675, 0.000362421, -0.00020637452, -128129.56, -69540.016, 0.0, 10.002116, 9.885227 
4.955133e+3, 3.0393493e+2, -38450.477, -84778.695, 2.7754147, 0.00036097498, 0.00021744796, -38450.477, -38450.477, 0.0, 10.002107, 9.941139 
4.9551323e+3, 3.1387797e+2, -37390.41, -82553.52, -2.5383382, 0.00035841577, -0.000016162445, -37390.41, -37390.41, 0.0, 10.002097, 9.942646 
4.9651444e+3, 1.2502103e+2, -1717045.3, -1723936.9, 4.9914856, 0.00038915442, 0.00012390688, -1717045.3, -2250.5237, 0.0, 10.002369, 9.993235 
4.965144e+3, 1.350141e+2, -1619699.3, -1627172.8, -0.0277436, 0.000386141, -0.00005427668, -1619699.3, -2836.7566, 0.0, 10.002356, 9.992451 
4.9651432e+3, 1.4500067e+2, -1531585.3, -1547827.6, 4.7603283, 0.00038422502, 0.00020807673, -1531585.3, -12591.244, 0.0, 10.002342, 9.98082 
4.9651426e+3, 1.5498146e+2, -1433890.0, -1450526.3, -0.48705786, 0.00038339687, 0.000020034988, -1433890.0, -12707.75, 0.0, 10.00233, 9.9802885 
4.965142e+3, 1.6495565e+2, -1345885.8, -1371713.8, 6.1800094, 0.00038220963, 0.00010249753, -1345885.8, -22450.467, 0.0, 10.002318, 9.968182 
4.965141e+3, 1.7492387e+2, -1247958.8, -1274093.8, 0.2914407, 0.00038066058, -0.0000014528778, -1247958.8, -22212.123, 0.0, 10.002306, 9.967768 
4.9651405e+3, 1.8488547e+2, -1159896.1, -1195508.6, 8.101685, 0.00037926075, 0.00014312494, -1159896.1, -31773.246, 0.0, 10.002295, 9.955339 
4.9651402e+3, 1.9484085e+2, -1061775.9, -1097642.5, 2.2617269, 0.0003780145, 0.000010721469, -1061775.9, -31215.637, 0.0, 10.002283, 9.954996 
4.9651396e+3, 2.0478955e+2, -973631.4, -1019253.1, 9.513216, 0.0003768104, 0.00013205709, -973631.4, -40568.547, 0.0, 10.002273, 9.942242 
4.965139e+3, 2.1473184e+2, -875372.6, -921248.25, 3.7452865, 0.00037565135, -0.00006269518, -875372.6, -39744.14, 0.0, 10.002262, 9.941901 
4.9651387e+3, 2.2466742e+2, -787105.8, -842992.75, 10.40721, 0.00037444918, 0.00018366698, -787105.8, -48846.063, 0.0, 10.002252, 9.928865 
4.965138e+3, 2.3459634e+2, -688699.6, -744833.8, 4.7388206, 0.00037319784, -0.000029071982, -688699.6, -47743.383, 0.0, 10.002241, 9.9285345 
4.9651378e+3, 2.4451834e+2, -600394.56, -666896.3, 10.806263, 0.00037202312, 0.00013205301, -600394.56, -56673.805, 0.0, 10.002232, 9.9151 
4.9651372e+3, 2.5443357e+2, -501668.44, -568239.8, 5.232766, 0.0003709387, -0.000051032053, -501668.44, -55116.875, 0.0, 10.002221, 9.915 
4.9651366e+3, 2.643417e+2, -413453.47, -490898.53, 10.806865, 0.0003697888, 0.00019420437, -413453.47, -64001.65, 0.0, 10.002212, 9.900932 
4.9651363e+3, 2.7424318e+2, -314194.34, -391304.13, 5.340326, 0.00036855508, -0.00015250518, -314194.34, -61777.086, 0.0, 10.002202, 9.901352 
4.9651358e+3, 2.8413644e+2, -227723.69, -317990.13, 9.438405, 0.00036755286, 0.00027809537, -227723.69, -72260.46, 0.0, 10.0021925, 9.884432 
4.9651352e+3, 2.940219e+2, -128042.19, -217689.5, 4.4073806, 0.00036686478, -0.00020512266, -128042.19, -69456.69, 0.0, 10.002183, 9.885212 
4.965135e+3, 3.0393532e+2, -38365.36, -84756.6, 6.8272786, 0.00036542397, 0.00021866092, -38365.36, -38365.36, 0.0, 10.002173, 9.941122 
4.9651343e+3, 3.1387833e+2, -37305.42, -82531.76, 1.2959689, 0.00036287043, -0.000015059218, -37305.42, -37305.42, 0.0, 10.002164, 9.942628 
4.975147e+3, 1.250217e+2, -1717056.5, -1723958.5, 0.102266446, 0.00039363012, 0.00012554998, -1717056.5, -2268.461, 0.0, 10.002369, 9.99322 
4.975146e+3, 1.3501477e+2, -1619710.3, -1627194.3, -4.9169135, 0.0003906761, -0.00005289591, -1619710.3, -2854.4258, 0.0, 10.002356, 9.992437 
4.9751455e+3, 1.4500132e+2, -1531596.8, -1547849.9, 0.10944387, 0.0003887457, 0.00020942141, -1531596.8, -12609.123, 0.0, 10.002343, 9.980805 
4.9751452e+3, 1.5498212e+2, -1433901.3, -1450548.4, -5.1380534, 0.00038782944, 0.000021568558, -1433901.3, -12725.36, 0.0, 10.002331, 9.980274 
4.975144e+3, 1.6495627e+2, -1345898.4, -1371738.5, 1.743449, 0.0003866242, 0.000104060746, -1345898.4, -22469.275, 0.0, 10.002318, 9.968166 
4.9751437e+3, 1.7492448e+2, -1247971.3, -1274118.4, -4.144988, 0.00038512805, -0.000000020886665, -1247971.3, -22230.629, 0.0, 10.002307, 9.967752 
4.975143e+3, 1.8488608e+2, -1159908.6, -1195533.3, 3.918775, 0.00038377458, 0.00014452201, -1159908.6, -31791.53, 0.0, 10.0022955, 9.955323 
4.9751425e+3, 1.9484143e+2, -1061788.1, -1097667.0, -1.9193449, 0.00038256784, 0.000012183449, -1061788.1, -31233.613, 0.0, 10.002284, 9.95498 
4.9751422e+3, 2.0479013e+2, -973643.6, -1019277.7, 5.5311437, 0.00038133757, 0.00013347274, -973643.6, -40586.31, 0.0, 10.002273, 9.942226 
4.975141e+3, 2.147324e+2, -875384.7, -921272.6, -0.23416026, 0.00038008174, -0.000061445404, -875384.7, -39761.59, 0.0, 10.002262, 9.941885 
4.9751407e+3, 2.2466795e+2, -787117.8, -843017.1, 6.5696487, 0.00037886968, 0.00018491909, -787117.8, -48863.29, 0.0, 10.002252, 9.92885 
4.97514e+3, 2.3459688e+2, -688711.44, -744858.1, 0.90477633, 0.0003777062, -0.000027628432, -688711.44, -47760.3, 0.0, 10.002242, 9.928519 
4.9751398e+3, 2.4451885e+2, -600406.4, -666920.7, 7.084926, 0.0003765657, 0.00013351098, -600406.4, -56690.535, 0.0, 10.002232, 9.915084 
4.9751392e+3, 2.5443405e+2, -501680.06, -568264.0, 1.5154811, 0.00037545172, -0.000049770068, -501680.06, -55133.293, 0.0, 10.002222, 9.914985 
4.9751386e+3, 2.6434216e+2, -413465.1, -490922.88, 7.174577, 0.0003742741, 0.00019538018, -413465.1, -64017.895, 0.0, 10.002212, 9.900916 
4.9751383e+3, 2.7424362e+2, -314205.8, -391328.3, 1.7122785, 0.00037301515, -0.00015127596, -314205.8, -61793.02, 0.0, 10.002202, 9.901336 
4.9751377e+3, 2.8413686e+2, -227734.44, -318013.0, 5.812028, 0.00037200283, 0.0002793438, -227734.44, -72275.51, 0.0, 10.0021925, 9.884417 
4.975137e+3, 2.9402235e+2, -128052.72, -217712.11, 0.78005457, 0.00037132518, -0.00020390251, -128052.72, -69471.38, 0.0, 10.002183, 9.885197 
4.975137e+3, 3.0393574e+2, -38377.168, -84781.92, 3.1870587, 0.0003699261, 0.00021985557, -38377.168, -38377.168, 0.0, 10.002173, 9.941105 
4.9751368e+3, 3.1387872e+2, -37317.395, -82557.43, -2.3470933, 0.00036746063, -0.0000138847845, -37317.395, -37317.395, 0.0, 10.002164, 9.942611 
4.9851495e+3, 1.250224e+2, -1716960.3, -1723922.6, 5.227926, 0.00039814296, 0.00012703198, -1716960.3, -2179.0835, 0.0, 10.002435, 9.993207 
4.9851483e+3, 1.3501546e+2, -1619614.5, -1627158.8, 0.1382068, 0.00039521206, -0.000051384646, -1619614.5, -2765.3296, 0.0, 10.002422, 9.992424 
4.985148e+3, 1.45002e+2, -1531501.6, -1547815.5, 5.346627, 0.00039327444, 0.0002109251, -1531501.6, -12520.623, 0.0, 10.002409, 9.980792 
4.9851474e+3, 1.5498278e+2, -1433806.6, -1450514.6, 0.028430823, 0.00039232048, 0.000023027813, -1433806.6, -12637.19, 0.0, 10.002397, 9.98026 
4.9851465e+3, 1.6495691e+2, -1345805.5, -1371707.9, 7.0729194, 0.00039110947, 0.00010550585, -1345805.5, -22382.678, 0.0, 10.002385, 9.96815 
4.985146e+3, 1.7492512e+2, -1247878.5, -1274088.1, 1.049088, 0.00038963993, 0.0000014408512, -1247878.5, -22144.104, 0.0, 10.002374, 9.967736 
4.9851456e+3, 1.848867e+2, -1159816.1, -1195503.4, 9.250373, 0.0003883085, 0.0001459692, -1159816.1, -31705.004, 0.0, 10.002362, 9.955307 
4.9851444e+3, 1.9484203e+2, -1061696.0, -1097637.5, 3.2962563, 0.00038711904, 0.000013583727, -1061696.0, -31147.266, 0.0, 10.002351, 9.954965 
4.985144e+3, 2.0479071e+2, -973551.75, -1019248.7, 10.827544, 0.00038587925, 0.00013484705, -973551.75, -40500.1, 0.0, 10.00234, 9.94221 
4.9851435e+3, 2.1473296e+2, -875293.2, -921244.06, 4.910237, 0.00038458497, -0.000060074555, -875293.2, -39675.61, 0.0, 10.00233, 9.941869 
4.985143e+3, 2.246685e+2, -787026.5, -842988.94, 11.745211, 0.00038337105, 0.00018627677, -787026.5, -48777.36, 0.0, 10.002319, 9.928834 
4.9851426e+3, 2.345974e+2, -688620.44, -744830.3, 5.943489, 0.00038224668, -0.000026294825, -688620.44, -47674.49, 0.0, 10.002309, 9.928503 
4.985142e+3, 2.4451937e+2, -600315.56, -666893.4, 12.105174, 0.00038112528, 0.0001348246, -600315.56, -56604.793, 0.0, 10.002299, 9.915068 
4.9851415e+3, 2.5443453e+2, -501589.6, -568237.06, 6.3723397, 0.0003800066, -0.000048471695, -501589.6, -55047.688, 0.0, 10.00229, 9.9149685 
4.9851412e+3, 2.6434267e+2, -413374.88, -490896.47, 11.954841, 0.00037881892, 0.00019665765, -413374.88, -63932.402, 0.0, 10.00228, 9.9009 
4.9851406e+3, 2.742441e+2, -314116.0, -391302.4, 6.3120275, 0.00037754327, -0.00015002643, -314116.0, -61707.766, 0.0, 10.002271, 9.9013195 
4.9851403e+3, 2.8413734e+2, -227644.13, -317986.03, 10.275559, 0.00037652542, 0.00028056302, -227644.13, -72189.6, 0.0, 10.002261, 9.8844 
4.9851397e+3, 2.940228e+2, -127962.68, -217685.47, 5.0783014, 0.00037585743, -0.00020271707, -127962.68, -69385.6, 0.0, 10.002252, 9.885181 
4.985139e+3, 3.0393615e+2, -38289.387, -84759.164, 7.2089043, 0.00037447497, 0.00022101823, -38289.383, -38289.383, 0.0, 10.002242, 9.941087 
4.9851388e+3, 3.1387913e+2, -37229.53, -82534.914, 1.4550874, 0.00037203642, -0.000012727881, -37229.53, -37229.53, 0.0, 10.002233, 9.942593 
4.9951518e+3, 1.2502311e+2, -1716971.6, -1723944.5, 0.36321607, 0.0004026933, 0.00012836317, -1716971.6, -2197.4297, 0.0, 10.002436, 9.993194 
4.995151e+3, 1.3501616e+2, -1619625.8, -1627180.5, -4.725059, 0.00039975133, -0.00004974918, -1619625.8, -2783.4075, 0.0, 10.002422, 9.99241 
4.9951503e+3, 1.450027e+2, -1531513.3, -1547838.1, 0.70822215, 0.0003978133, 0.00021257985, -1531513.3, -12538.904, 0.0, 10.00241, 9.980778 
4.99515e+3, 1.5498345e+2, -1433818.1, -1450537.0, -4.6103215, 0.0003968692, 0.000024417923, -1433818.1, -12655.192, 0.0, 10.002398, 9.980247 
4.9951488e+3, 1.6495757e+2, -1345818.4, -1371733.3, 2.7041323, 0.000395664, 0.00010684053, -1345818.4, -22402.014, 0.0, 10.002385, 9.968134 
4.9951485e+3, 1.7492574e+2, -1247891.3, -1274113.4, -3.3197076, 0.00039419625, 0.0000029317155, -1247891.3, -22163.133, 0.0, 10.002374, 9.967721 
4.995148e+3, 1.8488732e+2, -1159828.8, -1195528.5, 5.110225, 0.00039286393, 0.00014746473, -1159828.8, -31723.768, 0.0, 10.002362, 9.955292 
4.995147e+3, 1.9484264e+2, -1061708.5, -1097662.5, -0.8432673, 0.0003916708, 0.000014926729, -1061708.5, -31165.713, 0.0, 10.002351, 9.954948 
4.9951464e+3, 2.0479129e+2, -973564.25, -1019273.9, 6.8753204, 0.00039043714, 0.00013618337, -973564.25, -40518.402, 0.0, 10.00234, 9.942194 
4.995146e+3, 2.1473353e+2, -875305.56, -921269.1, 0.9607896, 0.00038915963, -0.000058588248, -875305.56, -39693.598, 0.0, 10.00233, 9.941853 
4.9951455e+3, 2.2466907e+2, -787038.75, -843013.94, 7.9654937, 0.00038795135, 0.00018773518, -787038.75, -48795.082, 0.0, 10.002319, 9.928818 
4.995145e+3, 2.3459795e+2, -688632.5, -744855.1, 2.1672828, 0.00038682012, -0.000025064237, -688632.5, -47691.895, 0.0, 10.00231, 9.928487 
4.9951446e+3, 2.4451989e+2, -600327.7, -666918.4, 8.438582, 0.00038570355, 0.00013600267, -600327.7, -56622.06, 0.0, 10.002299, 9.915051 
4.995144e+3, 2.5443506e+2, -501601.53, -568261.94, 2.7100122, 0.00038460357, -0.000047137913, -501601.53, -55064.637, 0.0, 10.00229, 9.914952 
4.995143e+3, 2.6434314e+2, -413386.84, -490921.53, 8.356467, 0.0003834226, 0.00019803226, -413386.84, -63949.195, 0.0, 10.00228, 9.900883 
4.995143e+3, 2.7424458e+2, -314127.8, -391327.3, 2.7164524, 0.00038213836, -0.00014875682, -314127.8, -61724.24, 0.0, 10.002271, 9.901303 
4.9951425e+3, 2.841378e+2, -227655.16, -318009.53, 6.7002716, 0.00038111935, 0.00028175546, -227655.16, -72205.15, 0.0, 10.002261, 9.884385 
4.9951422e+3, 2.9402322e+2, -127973.49, -217708.69, 1.5033611, 0.0003804603, -0.0002015636, -127973.49, -69400.78, 0.0, 10.002252, 9.885166 
4.9951416e+3, 3.0393657e+2, -38301.56, -84785.29, 3.637666, 0.00037907067, 0.00022215146, -38301.56, -38301.56, 0.0, 10.002242, 9.94107 
4.995141e+3, 3.1387955e+2, -37241.88, -82561.41, -2.1173985, 0.0003766012, -0.0000115867615, -37241.88, -37241.88, 0.0, 10.002233, 9.942575 
5.005154e+3, 1.2502384e+2, -1716873.6, -1723907.8, 5.4343505, 0.00040726463, 0.00012983796, -1716873.6, -2106.536, 0.0, 10.002503, 9.99318 
5.0051534e+3, 1.3501687e+2, -1619528.1, -1627144.3, 0.33351213, 0.00040430686, -0.00004821801, -1619528.1, -2692.7148, 0.0, 10.00249, 9.992396 
5.005153e+3, 1.450034e+2, -1531416.3, -1547803.1, 5.9528627, 0.00040237868, 0.00021410148, -1531416.3, -12448.779, 0.0, 10.002478, 9.980763 
5.005152e+3, 1.5498413e+2, -1433721.4, -1450502.4, 0.49985427, 0.0004014697, 0.0000258641, -1433721.4, -12565.148, 0.0, 10.002465, 9.980232 
5.0051516e+3, 1.6495824e+2, -1345723.4, -1371701.9, 7.983233, 0.00040027362, 0.000108264416, -1345723.4, -22313.477, 0.0, 10.002454, 9.968119 
5.005151e+3, 1.749264e+2, -1247796.5, -1274082.4, 1.8715594, 0.00039878878, 0.00000438722, -1247796.5, -22074.754, 0.0, 10.002442, 9.967705 
5.00515e+3, 1.8488795e+2, -1159734.3, -1195497.9, 10.439087, 0.00039744325, 0.00014891328, -1159734.3, -31635.45, 0.0, 10.002431, 9.955276 
5.005149e+3, 1.9484325e+2, -1061614.3, -1097632.4, 4.3318915, 0.00039624082, 0.000016328273, -1061614.3, -31077.504, 0.0, 10.002419, 9.954932 
5.0051486e+3, 2.047919e+2, -973470.1, -1019244.1, 12.133728, 0.00039502446, 0.0001375693, -973470.1, -40430.203, 0.0, 10.002409, 9.942178 
5.0051486e+3, 2.1473412e+2, -875211.7, -921239.7, 6.1064835, 0.00039379278, -0.000057184207, -875211.7, -39605.445, 0.0, 10.0023985, 9.941836 
5.005148e+3, 2.2466964e+2, -786945.0, -842985.0, 13.144576, 0.00039259522, 0.00018911553, -786945.0, -48706.945, 0.0, 10.002389, 9.928802 
5.005147e+3, 2.345985e+2, -688539.06, -744826.56, 7.1575394, 0.00039143526, -0.00002375461, -688539.06, -47603.867, 0.0, 10.002378, 9.928471 
5.005146e+3, 2.4452041e+2, -600234.4, -666890.25, 13.396434, 0.00039031226, 0.00013728243, -600234.4, -56534.05, 0.0, 10.002369, 9.915035 
5.005146e+3, 2.5443557e+2, -501508.53, -568234.25, 7.5338063, 0.00038923233, -0.000045839464, -501508.53, -54976.727, 0.0, 10.002359, 9.914935 
5.0051457e+3, 2.6434365e+2, -413294.06, -490894.4, 13.113539, 0.00038806818, 0.00019931977, -413294.06, -63861.367, 0.0, 10.00235, 9.9008665 
5.005145e+3, 2.7424505e+2, -314035.28, -391300.6, 7.2918262, 0.00038679663, -0.00014751773, -314035.28, -61636.492, 0.0, 10.00234, 9.901286 
5.0051445e+3, 2.8413826e+2, -227562.0, -317981.72, 11.133658, 0.00038578364, 0.00028297777, -227562.0, -72116.62, 0.0, 10.002332, 9.884369 
5.005144e+3, 2.940237e+2, -127880.58, -217681.17, 5.7473717, 0.0003851215, -0.00020031512, -127880.58, -69312.33, 0.0, 10.002322, 9.88515 
5.005143e+3, 3.0393705e+2, -38211.016, -84761.85, 7.5848, 0.00038372207, 0.00022335225, -38211.01, -38211.01, 0.0, 10.002313, 9.9410515 
5.005143e+3, 3.1387994e+2, -37151.332, -82538.27, 1.5870097, 0.00038123314, -0.000010542497, -37151.332, -37151.332, 0.0, 10.002303, 9.942556 
5.015157e+3, 1.2502459e+2, -1716885.0, -1723929.8, 0.61503863, 0.0004118583, 0.0001314489, -1716885.0, -2125.1563, 0.0, 10.002503, 9.993166 
5.015156e+3, 1.3501759e+2, -1619539.4, -1627166.0, -4.485737, 0.00040888027, -0.00004678399, -1619539.4, -2711.0618, 0.0, 10.00249, 9.992383 
5.015155e+3, 1.4500411e+2, -1531428.1, -1547826.3, 1.384835, 0.00040697167, 0.0002154989, -1531428.1, -12467.602, 0.0, 10.002478, 9.980749 
5.015155e+3, 1.5498482e+2, -1433733.1, -1450525.4, -4.0677705, 0.0004061216, 0.000027364193, -1433733.1, -12583.685, 0.0, 10.002465, 9.980217 
5.015154e+3, 1.6495892e+2, -1345736.4, -1371727.6, 3.661392, 0.00040493775, 0.000109773384, -1345736.4, -22333.238, 0.0, 10.002454, 9.9681015 
5.015153e+3, 1.7492709e+2, -1247809.5, -1274107.9, -2.450845, 0.0004034181, 0.000005810461, -1247809.5, -22094.2, 0.0, 10.002442, 9.967689 
5.015152e+3, 1.848886e+2, -1159747.1, -1195523.8, 6.3577166, 0.0004020477, 0.00015031865, -1159747.1, -31654.768, 0.0, 10.002431, 9.955258 
5.015152e+3, 1.9484389e+2, -1061627.0, -1097658.0, 0.25172293, 0.00040083073, 0.000017786044, -1061627.0, -31096.502, 0.0, 10.00242, 9.954916 
5.0151515e+3, 2.0479251e+2, -973482.9, -1019269.75, 8.257765, 0.00039964216, 0.00013900296, -973482.9, -40448.96, 0.0, 10.00241, 9.942162 
5.015151e+3, 2.147347e+2, -875224.25, -921265.2, 2.2326782, 0.00039848374, -0.00005585677, -875224.25, -39623.88, 0.0, 10.002399, 9.94182 
5.01515e+3, 2.2467023e+2, -786957.6, -843010.75, 9.425743, 0.00039730172, 0.00019042325, -786957.6, -48725.27, 0.0, 10.002389, 9.928784 
5.015149e+3, 2.3459905e+2, -688551.5, -744852.2, 3.4426029, 0.00039609245, -0.000022369391, -688551.5, -47621.867, 0.0, 10.002379, 9.928453 
5.015149e+3, 2.4452096e+2, -600246.75, -666915.8, 9.796476, 0.00039495243, 0.00013865915, -600246.75, -56551.79, 0.0, 10.00237, 9.915018 
5.0151485e+3, 2.544361e+2, -501520.72, -568259.7, 3.9374542, 0.0003938938, -0.000044573444, -501520.72, -54994.14, 0.0, 10.002359, 9.914919 
5.015148e+3, 2.643442e+2, -413306.34, -490920.2, 9.589217, 0.00039275605, 0.000200526, -413306.34, -63878.703, 0.0, 10.002351, 9.900849 
5.0151473e+3, 2.7424556e+2, -314047.4, -391326.22, 3.7710469, 0.0003915173, -0.00014630654, -314047.4, -61653.504, 0.0, 10.002341, 9.90127 
5.015147e+3, 2.8413877e+2, -227573.36, -318005.97, 7.6261163, 0.00039051712, 0.00028422917, -227573.36, -72132.7, 0.0, 10.002332, 9.884354 
5.015147e+3, 2.9402414e+2, -127891.72, -217705.13, 2.2397392, 0.00038984054, -0.00019897596, -127891.72, -69328.03, 0.0, 10.002322, 9.885134 
5.015146e+3, 3.0393746e+2, -38223.594, -84788.88, 4.069399, 0.00038842883, 0.00022461773, -38223.594, -38223.594, 0.0, 10.002313, 9.941032 
5.0151455e+3, 3.1388038e+2, -37164.094, -82565.69, -1.9307779, 0.0003859313, -0.000009588998, -37164.094, -37164.094, 0.0, 10.002304, 9.942538 
5.025159e+3, 1.2502533e+2, -1716785.1, -1723892.1, 5.6925197, 0.0004164816, 0.00013296668, -1716785.1, -2032.6898, 0.0, 10.002572, 9.993153 
5.0251585e+3, 1.3501833e+2, -1619439.8, -1627128.9, 0.47879007, 0.00041352154, -0.000045324843, -1619439.8, -2618.6616, 0.0, 10.00256, 9.992369 
5.025158e+3, 1.4500482e+2, -1531329.3, -1547790.5, 6.539144, 0.00041162223, 0.00021694147, -1531329.3, -12375.753, 0.0, 10.002547, 9.980734 
5.0251573e+3, 1.5498553e+2, -1433634.4, -1450490.0, 1.0362419, 0.00041077257, 0.000028831768, -1433634.4, -12491.904, 0.0, 10.002535, 9.980203 
5.025156e+3, 1.6495961e+2, -1345639.4, -1371695.5, 8.934095, 0.00040959104, 0.00011124069, -1345639.4, -22242.963, 0.0, 10.002523, 9.968085 
5.0251555e+3, 1.7492776e+2, -1247712.6, -1274076.1, 2.6774647, 0.00040807572, 0.0000072520984, -1247712.6, -22003.99, 0.0, 10.002512, 9.967671 
5.025155e+3, 1.8488926e+2, -1159650.5, -1195492.5, 11.627631, 0.0004067152, 0.00015174232, -1159650.5, -31564.549, 0.0, 10.002501, 9.955242 
5.0251544e+3, 1.9484453e+2, -1061530.5, -1097627.0, 5.401848, 0.0004055138, 0.000019199693, -1061530.5, -31006.264, 0.0, 10.00249, 9.954899 
5.025154e+3, 2.0479314e+2, -973386.44, -1019239.25, 13.487212, 0.00040433317, 0.0001403876, -973386.44, -40358.66, 0.0, 10.00248, 9.942144 
5.025153e+3, 2.1473531e+2, -875127.94, -921235.0, 7.2952275, 0.00040317452, -0.000054521555, -875127.94, -39533.598, 0.0, 10.00247, 9.941804 
5.0251526e+3, 2.2467081e+2, -786861.56, -842981.06, 14.514083, 0.00040200088, 0.00019175444, -786861.56, -48634.977, 0.0, 10.00246, 9.928768 
5.025152e+3, 2.3459964e+2, -688455.6, -744822.9, 8.404044, 0.00040080972, -0.000020991245, -688455.6, -47531.605, 0.0, 10.00245, 9.928437 
5.0251514e+3, 2.4452153e+2, -600150.94, -666886.94, 14.734895, 0.00039967799, 0.00014001902, -600150.94, -56461.484, 0.0, 10.00244, 9.915002 
5.025151e+3, 2.5443667e+2, -501425.16, -568231.2, 8.685106, 0.00039861607, -0.0000433093, -501425.16, -54903.88, 0.0, 10.002431, 9.914902 
5.02515e+3, 2.643447e+2, -413210.97, -490892.28, 14.25834, 0.00039748565, 0.00020174029, -413210.94, -63788.457, 0.0, 10.002422, 9.900832 
5.02515e+3, 2.7424607e+2, -313952.2, -391298.7, 8.274865, 0.00039626774, -0.00014508385, -313952.2, -61563.25, 0.0, 10.002413, 9.901252 
5.0251496e+3, 2.8413925e+2, -227477.42, -317977.28, 11.994784, 0.00039527926, 0.00028545925, -227477.42, -72041.58, 0.0, 10.002404, 9.884336 
5.025149e+3, 2.9402462e+2, -127795.94, -217676.73, 6.434433, 0.00039460184, -0.0001977405, -127795.94, -69236.91, 0.0, 10.002395, 9.885118 
5.0251484e+3, 3.0393794e+2, -38130.203, -84764.734, 7.973934, 0.00039319877, 0.00022581276, -38130.2, -38130.2, 0.0, 10.002386, 9.941014 
5.025148e+3, 3.1388083e+2, -37070.61, -82541.81, 1.7459816, 0.00039072422, -0.000008501303, -37070.61, -37070.61, 0.0, 10.002377, 9.942519 
5.035162e+3, 1.2502609e+2, -1716796.8, -1723914.6, 0.94946885, 0.0004211354, 0.00013439813, -1716796.8, -2051.814, 0.0, 10.002572, 9.993138 
5.0351614e+3, 1.350191e+2, -1619451.1, -1627151.3, -4.2631373, 0.0004182293, -0.00004384101, -1619451.1, -2637.5066, 0.0, 10.00256, 9.992355 
5.03516e+3, 1.4500555e+2, -1531341.1, -1547813.8, 2.0467587, 0.00041632963, 0.0002184275, -1531341.1, -12394.921, 0.0, 10.002547, 9.98072 
5.0351596e+3, 1.5498625e+2, -1433646.1, -1450513.1, -3.456358, 0.00041542537, 0.000030269846, -1433646.1, -12510.782, 0.0, 10.002536, 9.980188 
5.0351584e+3, 1.6496032e+2, -1345652.8, -1371721.8, 4.682247, 0.0004142369, 0.000112669906, -1345652.8, -22263.271, 0.0, 10.002523, 9.968069 
5.0351584e+3, 1.7492846e+2, -1247725.9, -1274102.4, -1.5747172, 0.00041276275, 0.000008712089, -1247725.9, -22023.975, 0.0, 10.002512, 9.967655 
5.035158e+3, 1.8488993e+2, -1159663.6, -1195518.8, 7.63744, 0.0004114448, 0.00015318421, -1159663.6, -31584.346, 0.0, 10.0025015, 9.955226 
5.0351566e+3, 1.9484518e+2, -1061543.5, -1097653.1, 1.412697, 0.00041028732, 0.000020572857, -1061543.5, -31025.732, 0.0, 10.002491, 9.954883 
5.035156e+3, 2.0479378e+2, -973399.5, -1019265.56, 9.695669, 0.00040909596, 0.00014172711, -973399.5, -40377.99, 0.0, 10.0024805, 9.942127 
5.035156e+3, 2.1473594e+2, -875140.9, -921261.2, 3.5060878, 0.00040786786, -0.000053178013, -875140.9, -39552.59, 0.0, 10.00247, 9.941787 
5.035155e+3, 2.2467142e+2, -786874.4, -843007.3, 10.87883, 0.00040669594, 0.00019310869, -786874.4, -48653.77, 0.0, 10.0024605, 9.928751 
5.035154e+3, 2.3460023e+2, -688468.3, -744849.0, 4.772256, 0.00040558638, -0.000019618787, -688468.3, -47550.07, 0.0, 10.002451, 9.92842 
5.0351536e+3, 2.4452211e+2, -600163.7, -666913.3, 11.21638, 0.00040448687, 0.000141364, -600163.7, -56479.8, 0.0, 10.002441, 9.914985 
5.035153e+3, 2.544372e+2, -501437.72, -568257.4, 5.170336, 0.00040339844, -0.000042045987, -501437.72, -54921.863, 0.0, 10.002432, 9.914885 
5.035153e+3, 2.6434523e+2, -413223.53, -490918.72, 10.834034, 0.00040225743, 0.00020296307, -413223.53, -63806.305, 0.0, 10.002422, 9.900815 
5.0351524e+3, 2.7424657e+2, -313964.6, -391324.97, 4.854846, 0.0004010491, -0.00014384938, -313964.6, -61580.76, 0.0, 10.002414, 9.901235 
5.035152e+3, 2.8413975e+2, -227489.1, -318002.2, 8.5782, 0.00040007132, 0.00028667008, -227489.08, -72058.16, 0.0, 10.002404, 9.88432 
5.035151e+3, 2.9402512e+2, -127807.375, -217701.34, 3.0171247, 0.00039940586, -0.00019660199, -127807.375, -69253.09, 0.0, 10.002396, 9.885101 
5.0351506e+3, 3.0393842e+2, -38143.156, -84792.6, 4.538892, 0.0003980312, 0.00022694221, -38143.152, -38143.152, 0.0, 10.002386, 9.940995 
5.0351506e+3, 3.1388128e+2, -37083.754, -82570.086, -1.6930995, 0.00039560947, -0.0000072861258, -37083.754, -37083.754, 0.0, 10.0023775, 9.942499 
5.045165e+3, 1.2502688e+2, -1716695.1, -1723876.3, 5.9067936, 0.00042582586, 0.0001358357, -1716695.1, -1957.694, 0.0, 10.002643, 9.993125 
5.0451636e+3, 1.3501985e+2, -1619349.6, -1627113.3, 0.6473722, 0.0004229358, -0.00004234966, -1619349.6, -2543.4436, 0.0, 10.00263, 9.992341 
5.045163e+3, 1.450063e+2, -1531240.3, -1547777.3, 7.1602597, 0.00042104122, 0.00021992251, -1531240.3, -12301.36, 0.0, 10.002618, 9.980705 
5.045162e+3, 1.5498698e+2, -1433545.5, -1450477.0, 1.5628138, 0.0004201308, 0.00003171844, -1433545.5, -12417.244, 0.0, 10.002606, 9.980173 
5.045162e+3, 1.6496104e+2, -1345553.8, -1371689.1, 9.870404, 0.00041895293, 0.000114095375, -1345553.8, -22171.25, 0.0, 10.002595, 9.968052 
5.0451607e+3, 1.7492916e+2, -1247626.9, -1274069.9, 3.4869082, 0.00041750647, 0.000010138081, -1247626.9, -21931.816, 0.0, 10.0025835, 9.967638 
5.04516e+3, 1.8489061e+2, -1159564.8, -1195486.6, 12.832478, 0.00041620794, 0.00015459624, -1159564.8, -31492.074, 0.0, 10.002573, 9.955209 
5.0451595e+3, 1.9484586e+2, -1061444.6, -1097621.5, 6.4624505, 0.00041506137, 0.000021955848, -1061444.6, -30933.451, 0.0, 10.0025625, 9.954865 
5.045159e+3, 2.0479444e+2, -973300.8, -1019234.4, 14.825723, 0.00041387422, 0.00014309544, -973300.75, -40285.652, 0.0, 10.002552, 9.94211 
5.045158e+3, 2.1473658e+2, -875042.25, -921230.3, 8.49416, 0.00041264322, -0.000051808893, -875042.25, -39460.21, 0.0, 10.0025425, 9.94177 
5.0451577e+3, 2.2467205e+2, -786775.9, -842976.9, 15.895563, 0.00041148037, 0.00019445574, -786775.9, -48561.27, 0.0, 10.002533, 9.928734 
5.0451565e+3, 2.3460083e+2, -688369.9, -744818.8, 9.638782, 0.00041039335, -0.000018319466, -688369.9, -47457.516, 0.0, 10.002523, 9.928403 
5.0451565e+3, 2.4452269e+2, -600065.4, -666883.7, 16.060516, 0.00040930987, 0.00014264132, -600065.4, -56387.168, 0.0, 10.002514, 9.914967 
5.045156e+3, 2.5443777e+2, -501339.44, -568228.06, 9.840372, 0.0004082298, -0.00004076019, -501339.44, -54829.137, 0.0, 10.002505, 9.914867 
5.045155e+3, 2.6434577e+2, -413125.4, -490890.0, 15.418221, 0.00040709507, 0.00020423425, -413125.4, -63713.52, 0.0, 10.002497, 9.900797 
5.0451547e+3, 2.7424714e+2, -313866.66, -391296.66, 9.245511, 0.00040589055, -0.00014262197, -313866.66, -61488.0, 0.0, 10.002487, 9.901217 
5.045154e+3, 2.8414026e+2, -227390.39, -317972.66, 12.826702, 0.00040492095, 0.00028785758, -227390.39, -71964.48, 0.0, 10.002479, 9.884303 
5.045154e+3, 2.940256e+2, -127708.76, -217672.06, 7.1064324, 0.00040426955, -0.00019544932, -127708.76, -69159.336, 0.0, 10.00247, 9.885084 
5.0451535e+3, 3.0393887e+2, -38046.945, -84767.77, 8.345764, 0.00040291357, 0.00022807173, -38046.945, -38046.945, 0.0, 10.002461, 9.940975 
5.045153e+3, 3.1388175e+2, -36987.227, -82545.445, 1.8570728, 0.00040051746, -0.0000061616993, -36987.227, -36987.227, 0.0, 10.002453, 9.94248 
5.055167e+3, 1.2502767e+2, -1716706.8, -1723899.0, 1.24442, 0.00043055337, 0.00013728006, -1716706.8, -1977.1655, 0.0, 10.002643, 9.993111 
5.0551665e+3, 1.3502063e+2, -1619361.3, -1627135.8, -4.0137305, 0.00042764394, -0.000040850195, -1619361.3, -2562.6306, 0.0, 10.00263, 9.992327 
5.055165e+3, 1.4500706e+2, -1531252.4, -1547800.9, 2.755604, 0.00042575953, 0.000221427, -1531252.4, -12320.971, 0.0, 10.002618, 9.98069 
5.055165e+3, 1.5498774e+2, -1433557.5, -1450500.5, -2.842444, 0.00042488836, 0.000033177956, -1433557.5, -12436.557, 0.0, 10.002606, 9.980159 
5.055164e+3, 1.6496177e+2, -1345567.4, -1371715.9, 5.737687, 0.00042373769, 0.000115518356, -1345567.4, -22192.059, 0.0, 10.002595, 9.968035 
5.0551635e+3, 1.7492986e+2, -1247640.3, -1274096.6, -0.64588845, 0.00042230624, 0.0000115331895, -1247640.3, -21952.293, 0.0, 10.002584, 9.967622 
5.0551623e+3, 1.8489131e+2, -1159578.3, -1195513.6, 8.933406, 0.0004210055, 0.00015598124, -1159578.3, -31512.4, 0.0, 10.002573, 9.955192 
5.0551623e+3, 1.9484654e+2, -1061458.0, -1097648.1, 2.5641823, 0.00041983873, 0.000023349077, -1061458.0, -30953.44, 0.0, 10.0025625, 9.954848 
5.055161e+3, 2.047951e+2, -973314.1, -1019261.25, 11.13662, 0.00041866995, 0.00014449185, -973314.1, -40305.49, 0.0, 10.002553, 9.942093 
5.0551605e+3, 2.1473722e+2, -875055.44, -921257.06, 4.807678, 0.00041749858, -0.000050414747, -875055.44, -39479.703, 0.0, 10.0025425, 9.941752 
5.05516e+3, 2.2467268e+2, -786789.0, -843003.75, 12.365844, 0.00041635177, 0.00019579698, -786789.0, -48580.574, 0.0, 10.002533, 9.928716 
5.05516e+3, 2.3460144e+2, -688382.9, -744845.56, 6.111951, 0.0004152317, -0.00001708796, -688382.9, -47476.477, 0.0, 10.002524, 9.928385 
5.055159e+3, 2.4452329e+2, -600078.4, -666910.75, 12.660651, 0.0004141491, 0.00014385597, -600078.4, -56406.027, 0.0, 10.002515, 9.914949 
5.055158e+3, 2.5443834e+2, -501352.34, -568254.94, 6.4454083, 0.00041311016, -0.000039452294, -501352.34, -54847.652, 0.0, 10.002505, 9.914849 
5.0551575e+3, 2.6434633e+2, -413138.34, -490917.22, 12.089622, 0.00041199772, 0.00020555186, -413138.34, -63731.926, 0.0, 10.002497, 9.900779 
5.055157e+3, 2.7424765e+2, -313879.44, -391323.72, 5.919872, 0.00041079157, -0.0001414004, -313879.44, -61506.06, 0.0, 10.002488, 9.901199 
5.055157e+3, 2.8414077e+2, -227402.33, -317998.2, 9.520738, 0.00040982777, 0.00028902394, -227402.33, -71981.52, 0.0, 10.00248, 9.884287 
5.0551564e+3, 2.9402614e+2, -127720.45, -217697.28, 3.800113, 0.0004091924, -0.00019428239, -127720.45, -69175.98, 0.0, 10.00247, 9.885068 
5.055156e+3, 3.0393937e+2, -38060.32, -84796.57, 5.0481114, 0.000407846, 0.0002292022, -38060.32, -38060.32, 0.0, 10.002461, 9.940956 
5.055155e+3, 3.138822e+2, -37000.813, -82574.69, -1.4406692, 0.00040544997, -0.0000051220213, -37000.813, -37000.813, 0.0, 10.002453, 9.94246 
5.06517e+3, 1.2502848e+2, -1716603.4, -1723859.9, 6.119697, 0.00043528437, 0.00013874531, -1716603.4, -1881.5563, 0.0, 10.002714, 9.993096 
5.065169e+3, 1.3502142e+2, -1619257.8, -1627096.9, 0.8149167, 0.00043239296, -0.000039398692, -1619257.8, -2466.8936, 0.0, 10.002702, 9.992312 
5.065169e+3, 1.4500785e+2, -1531149.5, -1547763.6, 7.7792416, 0.00043052976, 0.0002228678, -1531149.5, -12225.692, 0.0, 10.00269, 9.980675 
5.0651675e+3, 1.549885e+2, -1433454.6, -1450463.5, 2.0593214, 0.0004296828, 0.00003461076, -1433454.6, -12341.123, 0.0, 10.002679, 9.980144 
5.0651664e+3, 1.6496253e+2, -1345466.1, -1371682.4, 10.803381, 0.0004285508, 0.00011693413, -1345466.1, -22098.1, 0.0, 10.002667, 9.968019 
5.065166e+3, 1.7493059e+2, -1247539.1, -1274063.4, 4.3025403, 0.00042713253, 0.000012922974, -1247539.1, -21858.244, 0.0, 10.002657, 9.967605 
5.065165e+3, 1.8489203e+2, -1159477.1, -1195480.9, 14.017544, 0.00042583628, 0.00015735536, -1159477.1, -31418.227, 0.0, 10.002646, 9.955174 
5.0651646e+3, 1.9484723e+2, -1061356.9, -1097615.8, 7.5053363, 0.00042466496, 0.0000247182, -1061356.9, -30859.094, 0.0, 10.002636, 9.954831 
5.065164e+3, 2.0479578e+2, -973213.0, -1019229.25, 16.155664, 0.00042351484, 0.00014585193, -973213.0, -40210.984, 0.0, 10.002626, 9.942076 
5.0651634e+3, 2.1473788e+2, -874954.44, -921225.4, 9.684693, 0.0004223871, -0.00004906798, -874954.44, -39385.11, 0.0, 10.002617, 9.941734 
5.065163e+3, 2.2467332e+2, -786688.0, -842972.56, 17.263573, 0.00042125673, 0.00019711412, -786688.0, -48485.844, 0.0, 10.002607, 9.928699 
5.065162e+3, 2.3460206e+2, -688281.9, -744814.7, 10.818402, 0.00042012264, -0.00001581876, -688281.9, -47381.582, 0.0, 10.002599, 9.928368 
5.0651616e+3, 2.4452388e+2, -599977.44, -666880.25, 17.33285, 0.0004190455, 0.00014510048, -599977.44, -56310.98, 0.0, 10.00259, 9.914931 
5.0651604e+3, 2.5443894e+2, -501251.47, -568224.9, 10.977153, 0.0004180351, -0.000038204897, -501251.47, -54752.543, 0.0, 10.002582, 9.914831 
5.0651604e+3, 2.643469e+2, -413037.6, -490887.75, 16.56229, 0.00041694482, 0.00020678138, -413037.6, -63636.742, 0.0, 10.002573, 9.900761 
5.06516e+3, 2.742482e+2, -313778.72, -391294.56, 10.216724, 0.00041575273, -0.00014021498, -313778.72, -61410.734, 0.0, 10.002564, 9.901181 
5.065159e+3, 2.8414133e+2, -227300.73, -317967.78, 13.664911, 0.00041479856, 0.0002901992, -227300.73, -71885.14, 0.0, 10.002556, 9.88427 
5.0651586e+3, 2.9402664e+2, -127618.84, -217667.1, 7.717132, 0.00041416683, -0.00019307132, -127618.84, -69079.414, 0.0, 10.002547, 9.885051 
5.065158e+3, 3.0393988e+2, -37961.164, -84770.98, 8.670267, 0.0004128359, 0.00023036412, -37961.164, -37961.164, 0.0, 10.002539, 9.940936 
5.065158e+3, 3.1388268e+2, -36901.43, -82549.336, 1.9812666, 0.00041047315, -0.00000413428, -36901.43, -36901.43, 0.0, 10.00253, 9.94244 
5.075172e+3, 1.250293e+2, -1716615.1, -1723882.8, 1.5824435, 0.00044002142, 0.00014023107, -1716615.1, -1901.3654, 0.0, 10.002714, 9.993082 
5.0751716e+3, 1.3502222e+2, -1619269.4, -1627119.6, -3.7221951, 0.00043718307, -0.000037991005, -1619269.4, -2486.4146, 0.0, 10.002703, 9.992298 
5.075171e+3, 1.4500864e+2, -1531161.9, -1547787.9, 3.5040834, 0.00043535154, 0.00022425006, -1531161.9, -12245.801, 0.0, 10.00269, 9.9806595 
5.07517e+3, 1.5498927e+2, -1433466.9, -1450487.6, -2.2151103, 0.00043451472, 0.000036019555, -1433466.9, -12360.927, 0.0, 10.002679, 9.980128 
5.075169e+3, 1.6496328e+2, -1345480.0, -1371709.8, 6.7811236, 0.00043339343, 0.00011834413, -1345480.0, -22119.38, 0.0, 10.002668, 9.968 
5.0751686e+3, 1.7493133e+2, -1247552.9, -1274090.6, 0.27942428, 0.0004319866, 0.000014308798, -1247552.9, -21879.186, 0.0, 10.002657, 9.9675865 
5.075168e+3, 1.8489274e+2, -1159490.9, -1195508.4, 10.248728, 0.00043070118, 0.00015872034, -1159490.9, -31439.068, 0.0, 10.002646, 9.955156 
5.075167e+3, 1.9484793e+2, -1061370.5, -1097643.0, 3.7377553, 0.00042954, 0.000026065687, -1061370.5, -30879.592, 0.0, 10.002637, 9.954814 
5.075166e+3, 2.0479646e+2, -973226.6, -1019256.75, 12.580372, 0.0004284089, 0.00014717893, -973226.6, -40231.32, 0.0, 10.002627, 9.942058 
5.075166e+3, 2.1473856e+2, -874967.9, -921252.75, 6.1111546, 0.0004273097, -0.000047764686, -874967.9, -39405.098, 0.0, 10.002618, 9.941717 
5.075165e+3, 2.2467396e+2, -786701.56, -843000.25, 13.867524, 0.00042619623, 0.0001984096, -786701.56, -48505.74, 0.0, 10.002608, 9.92868 
5.0751644e+3, 2.346027e+2, -688295.25, -744842.2, 7.426865, 0.00042506604, -0.000014513275, -688295.25, -47401.13, 0.0, 10.002599, 9.9283495 
5.075164e+3, 2.4452451e+2, -599990.75, -666907.9, 14.047596, 0.0004239987, 0.0001463739, -599990.75, -56330.31, 0.0, 10.00259, 9.914913 
5.075164e+3, 2.5443953e+2, -501264.63, -568252.3, 7.6949186, 0.000423005, -0.00003701343, -501264.63, -54771.516, 0.0, 10.002582, 9.914813 
5.075163e+3, 2.6434746e+2, -413050.84, -490915.66, 13.370252, 0.0004219368, 0.00020792906, -413050.84, -63655.66, 0.0, 10.002573, 9.900743 
5.075162e+3, 2.7424878e+2, -313791.8, -391322.3, 7.0290275, 0.00042077352, -0.00013906263, -313791.8, -61429.3, 0.0, 10.002564, 9.901162 
5.0751615e+3, 2.8414184e+2, -227313.06, -317994.2, 10.49957, 0.00041983265, 0.00029138365, -227313.05, -71902.766, 0.0, 10.002556, 9.884252 
5.075161e+3, 2.9402715e+2, -127630.94, -217693.19, 4.5530043, 0.00041919292, -0.000191818, -127630.94, -69096.63, 0.0, 10.002547, 9.885033 
5.075161e+3, 3.0394036e+2, -37974.875, -84800.53, 5.4945297, 0.00041788313, 0.00023155633, -37974.875, -37974.875, 0.0, 10.00254, 9.940916 
5.07516e+3, 3.138832e+2, -36915.34, -82579.33, -1.1981046, 0.00041558477, -0.0000031945601, -36915.34, -36915.34, 0.0, 10.002531, 9.942419 
5.085175e+3, 1.2503012e+2, -1716509.8, -1723842.9, 6.3295045, 0.00044478828, 0.0001416504, -1716509.8, -1804.1013, 0.0, 10.002787, 9.993068 
5.0851744e+3, 1.3502304e+2, -1619164.0, -1627080.0, 0.9054155, 0.00044200337, -0.000036582507, -1619164.0, -2388.948, 0.0, 10.002775, 9.992284 
5.085174e+3, 1.4500943e+2, -1531057.0, -1547749.8, 8.328094, 0.00044020195, 0.0002256486, -1531057.0, -12148.726, 0.0, 10.002764, 9.980644 
5.0851727e+3, 1.5499005e+2, -1433361.9, -1450449.8, 2.5588431, 0.0004393718, 0.00003740877, -1433361.9, -12263.647, 0.0, 10.002752, 9.980113 
5.085172e+3, 1.6496405e+2, -1345376.8, -1371675.6, 11.724251, 0.0004382597, 0.00011972797, -1345376.6, -22023.598, 0.0, 10.002742, 9.967983 
5.0851715e+3, 1.7493208e+2, -1247449.5, -1274056.6, 5.0618577, 0.00043686465, 0.000015691438, -1247449.5, -21783.164, 0.0, 10.002731, 9.967569 
5.08517e+3, 1.8489347e+2, -1159387.5, -1195474.9, 15.155666, 0.00043560384, 0.00016008092, -1159387.5, -31342.832, 0.0, 10.002722, 9.955139 
5.0851697e+3, 1.9484864e+2, -1061267.1, -1097609.8, 8.515703, 0.00043448055, 0.000027382603, -1061267.1, -30783.168, 0.0, 10.002712, 9.954796 
5.0851697e+3, 2.0479716e+2, -973123.2, -1019224.06, 17.430397, 0.00043336352, 0.00014847275, -973123.2, -40134.69, 0.0, 10.002703, 9.94204 
5.0851685e+3, 2.1473923e+2, -874864.3, -921220.25, 10.785461, 0.00043225283, -0.0000464719, -874864.3, -39308.2, 0.0, 10.002693, 9.941699 
5.085168e+3, 2.2467463e+2, -786598.0, -842968.2, 18.56145, 0.0004311542, 0.00019969365, -786598.0, -48408.64, 0.0, 10.002685, 9.928662 
5.085167e+3, 2.3460335e+2, -688191.75, -744810.5, 11.989446, 0.00043006832, -0.000013246555, -688191.75, -47303.94, 0.0, 10.002676, 9.928331 
5.0851667e+3, 2.4452513e+2, -599887.3, -666876.7, 18.588312, 0.00042902323, 0.00014761207, -599887.25, -56232.95, 0.0, 10.002667, 9.914895 
5.085166e+3, 2.5444013e+2, -501161.13, -568221.4, 12.038498, 0.00042802567, -0.00003581714, -501161.13, -54673.95, 0.0, 10.002659, 9.914795 
5.0851655e+3, 2.643481e+2, -412947.38, -490885.38, 17.630524, 0.00042696885, 0.00020910104, -412947.38, -63557.93, 0.0, 10.002651, 9.900723 
5.085165e+3, 2.7424932e+2, -313688.3, -391292.38, 11.102047, 0.00042583628, -0.00013789262, -313688.3, -61331.37, 0.0, 10.002643, 9.901144 
5.0851643e+3, 2.841424e+2, -227208.61, -317962.94, 14.446407, 0.0004249185, 0.00029253637, -227208.61, -71803.72, 0.0, 10.002635, 9.884234 
5.0851643e+3, 2.940277e+2, -127526.45, -217662.14, 8.357116, 0.00042429136, -0.00019070387, -127526.445, -68997.37, 0.0, 10.002626, 9.8850155 
5.085164e+3, 3.039409e+2, -37872.832, -84774.22, 9.031563, 0.00042300337, 0.00023263748, -37872.832, -37872.832, 0.0, 10.002619, 9.940895 
5.085163e+3, 3.1388366e+2, -36812.836, -82553.16, 2.067373, 0.0004207408, -0.0000021370572, -36812.836, -36812.836, 0.0, 10.002611, 9.942398 
5.0951785e+3, 1.2503096e+2, -1716521.9, -1723866.3, 1.9352279, 0.0004495859, 0.00014300877, -1716521.9, -1824.4128, 0.0, 10.002788, 9.993053 
5.095177e+3, 1.3502386e+2, -1619175.9, -1627103.3, -3.4869206, 0.0004468549, -0.000035172307, -1619175.9, -2408.9626, 0.0, 10.002775, 9.9922695 
5.095176e+3, 1.4501023e+2, -1531069.5, -1547774.3, 4.197563, 0.00044508217, 0.0002270633, -1531069.5, -12169.157, 0.0, 10.002764, 9.980629 
5.0951755e+3, 1.5499085e+2, -1433374.3, -1450474.0, -1.5725911, 0.00044425548, 0.0000387807, -1433374.3, -12283.771, 0.0, 10.002753, 9.980098 
5.095175e+3, 1.6496482e+2, -1345390.9, -1371703.6, 7.847269, 0.00044315113, 0.000121088415, -1345390.9, -22045.44, 0.0, 10.002743, 9.967966 
5.095174e+3, 1.7493285e+2, -1247463.5, -1274084.5, 1.1850295, 0.00044176824, 0.00001707203, -1247463.5, -21804.658, 0.0, 10.002732, 9.967552 
5.095173e+3, 1.8489422e+2, -1159401.5, -1195502.9, 11.523002, 0.00044054497, 0.00016143828, -1159401.5, -31364.15, 0.0, 10.002722, 9.955121 
5.095173e+3, 1.9484939e+2, -1061280.9, -1097637.6, 4.8832417, 0.00043948548, 0.000028671877, -1061280.9, -30804.13, 0.0, 10.002712, 9.954778 
5.095172e+3, 2.0479786e+2, -973137.1, -1019252.3, 14.013527, 0.0004383779, 0.0001497365, -973137.1, -40155.586, 0.0, 10.002703, 9.942022 
5.0951713e+3, 2.1473993e+2, -874878.1, -921248.3, 7.3715286, 0.00043721843, -0.00004518807, -874878.1, -39328.74, 0.0, 10.002694, 9.941681 
5.09517e+3, 2.246753e+2, -786611.75, -842996.44, 15.284943, 0.00043613274, 0.00020096787, -786611.75, -48428.992, 0.0, 10.002685, 9.928644 
5.09517e+3, 2.34604e+2, -688205.3, -744838.56, 8.715252, 0.00043512898, -0.000012015244, -688205.3, -47323.93, 0.0, 10.002676, 9.928313 
5.0951695e+3, 2.4452576e+2, -599900.94, -666905.1, 15.452055, 0.00043411786, 0.00014881812, -599900.94, -56252.848, 0.0, 10.002667, 9.914876 
5.095169e+3, 2.5444075e+2, -501174.63, -568249.6, 8.907344, 0.0004330972, -0.000034615474, -501174.63, -54693.484, 0.0, 10.00266, 9.914777 
5.095168e+3, 2.6434866e+2, -412960.97, -490914.03, 14.594338, 0.00043204176, 0.0002102966, -412960.97, -63577.38, 0.0, 10.002651, 9.900705 
5.095168e+3, 2.742499e+2, -313701.72, -391320.84, 8.07054, 0.0004309417, -0.00013670529, -313701.72, -61350.457, 0.0, 10.002644, 9.901125 
5.095167e+3, 2.8414297e+2, -227221.19, -317989.88, 11.433091, 0.0004300562, 0.00029366006, -227221.19, -71821.77, 0.0, 10.002635, 9.884216 
5.0951666e+3, 2.9402822e+2, -127538.77, -217688.78, 5.343793, 0.00042946095, -0.0001897194, -127538.77, -69014.99, 0.0, 10.002627, 9.884997 
5.095166e+3, 3.039414e+2, -37886.984, -84804.76, 6.0332685, 0.00042819555, 0.00023361533, -37886.984, -37886.984, 0.0, 10.00262, 9.940874 
5.0951654e+3, 3.1388417e+2, -36827.21, -82584.18, -0.9307312, 0.00042594198, -0.0000009683679, -36827.21, -36827.21, 0.0, 10.002611, 9.942377 
5.105181e+3, 1.2503181e+2, -1716414.6, -1723825.6, 6.4923263, 0.00045442232, 0.00014438979, -1716414.6, -1725.565, 0.0, 10.002861, 9.993038 
5.10518e+3, 1.350247e+2, -1619068.5, -1627062.8, 1.0439515, 0.00045172684, -0.00003379588, -1619068.5, -2309.759, 0.0, 10.00285, 9.992255 
5.105179e+3, 1.4501107e+2, -1530962.6, -1547735.4, 8.916212, 0.0004499773, 0.00022843304, -1530962.6, -12070.277, 0.0, 10.002839, 9.980614 
5.1051784e+3, 1.5499166e+2, -1433267.1, -1450435.4, 2.999668, 0.0004491612, 0.00004014138, -1433267.1, -12184.584, 0.0, 10.002829, 9.9800825 
5.105178e+3, 1.6496561e+2, -1345285.4, -1371668.8, 12.569765, 0.00044808057, 0.00012243436, -1345285.4, -21947.715, 0.0, 10.002818, 9.967948 
5.1051766e+3, 1.7493361e+2, -1247357.9, -1274049.8, 5.802643, 0.00044673463, 0.000018397703, -1247357.9, -21706.592, 0.0, 10.002809, 9.967534 
5.105176e+3, 1.8489498e+2, -1159295.8, -1195468.6, 16.258284, 0.00044553532, 0.00016274449, -1159295.8, -31265.81, 0.0, 10.002799, 9.955103 
5.1051754e+3, 1.9485012e+2, -1061175.1, -1097603.6, 9.435222, 0.00044448627, 0.00002995938, -1061175.1, -30705.488, 0.0, 10.0027895, 9.95476 
5.105175e+3, 2.0479858e+2, -973031.25, -1019218.75, 18.62672, 0.00044340143, 0.0001510067, -973031.25, -40056.71, 0.0, 10.00278, 9.942003 
5.1051736e+3, 2.1474063e+2, -874772.2, -921215.06, 11.852526, 0.00044227781, -0.00004393367, -874772.2, -39229.684, 0.0, 10.002771, 9.941663 
5.1051736e+3, 2.2467598e+2, -786505.8, -842963.7, 19.77869, 0.00044121046, 0.00020219578, -786505.75, -48329.7, 0.0, 10.002763, 9.928625 
5.105173e+3, 2.3460466e+2, -688099.25, -744806.0, 13.018787, 0.0004402054, -0.000010825808, -688099.25, -47224.33, 0.0, 10.002755, 9.928294 
5.105172e+3, 2.445264e+2, -599794.75, -666873.1, 19.726791, 0.00043920995, 0.0001499933, -599794.75, -56152.97, 0.0, 10.002747, 9.914858 
5.105171e+3, 2.5444138e+2, -501068.38, -568217.94, 13.021754, 0.000438225, -0.000033425906, -501068.38, -54593.367, 0.0, 10.002739, 9.914758 
5.1051706e+3, 2.6434928e+2, -412854.75, -490882.94, 18.644083, 0.00043719707, 0.00021146455, -412854.75, -63477.094, 0.0, 10.002731, 9.900686 
5.1051706e+3, 2.742505e+2, -313595.5, -391290.13, 11.935754, 0.00043611406, -0.0001356044, -313595.5, -61249.99, 0.0, 10.002724, 9.901106 
5.10517e+3, 2.8414354e+2, -227113.94, -317957.75, 15.166235, 0.00043524196, 0.00029472413, -227113.92, -71720.086, 0.0, 10.002716, 9.884198 
5.105169e+3, 2.940288e+2, -127431.33, -217656.8, 8.880824, 0.00043465506, -0.0001886513, -127431.33, -68912.94, 0.0, 10.002708, 9.884979 
5.105168e+3, 3.0394197e+2, -37782.008, -84777.734, 9.315102, 0.00043341948, 0.00023466365, -37782.004, -37782.004, 0.0, 10.002701, 9.940853 
5.105168e+3, 3.1388468e+2, -36721.67, -82557.266, 2.1274, 0.00043122756, 0.000000025606216, -36721.67, -36721.67, 0.0, 10.002694, 9.942356 
5.1151836e+3, 1.2503268e+2, -1716426.8, -1723849.1, 2.2791095, 0.00045929782, 0.00014579274, -1716426.8, -1746.1492, 0.0, 10.002861, 9.993024 
5.115183e+3, 1.3502555e+2, -1619080.5, -1627086.1, -3.168671, 0.00045662094, -0.00003244993, -1619080.5, -2330.0442, 0.0, 10.002851, 9.992241 
5.1151824e+3, 1.450119e+2, -1530975.4, -1547760.4, 4.953468, 0.00045488946, 0.0002297619, -1530975.4, -12091.247, 0.0, 10.002839, 9.980598 
5.115181e+3, 1.5499248e+2, -1433279.8, -1450460.3, -0.9627395, 0.00045409065, 0.000041492436, -1433279.8, -12205.234, 0.0, 10.002829, 9.980066 
5.1151806e+3, 1.6496642e+2, -1345299.9, -1371697.1, 8.864374, 0.00045304862, 0.00012376762, -1345299.9, -21969.98, 0.0, 10.002818, 9.96793 
5.1151794e+3, 1.749344e+2, -1247372.1, -1274078.0, 2.0959728, 0.00045176287, 0.00001967308, -1247372.1, -21728.502, 0.0, 10.002809, 9.967516 
5.115179e+3, 1.8489574e+2, -1159310.1, -1195497.4, 12.789992, 0.00045057485, 0.0001640039, -1159310.1, -31287.713, 0.0, 10.002799, 9.955085 
5.115178e+3, 1.9485086e+2, -1061189.3, -1097632.3, 5.9682093, 0.0004494865, 0.000031246072, -1061189.3, -30727.027, 0.0, 10.0027895, 9.9547415 
5.115177e+3, 2.0479931e+2, -973045.44, -1019247.56, 15.348085, 0.00044843685, 0.0001522837, -973045.44, -40078.066, 0.0, 10.002781, 9.941985 
5.115177e+3, 2.1474133e+2, -874786.25, -921243.7, 8.575405, 0.00044742812, -0.0000427059, -874786.25, -39250.676, 0.0, 10.002772, 9.941644 
5.1151764e+3, 2.2467667e+2, -786519.94, -842992.7, 16.67356, 0.0004463842, 0.00020338129, -786519.94, -48350.61, 0.0, 10.002764, 9.928607 
5.115175e+3, 2.3460533e+2, -688113.2, -744834.9, 9.917493, 0.00044529996, -0.000009674712, -688113.2, -47244.87, 0.0, 10.002755, 9.928276 
5.1151747e+3, 2.4452706e+2, -599808.75, -666902.2, 16.752134, 0.00044430312, 0.00015114038, -599808.75, -56173.355, 0.0, 10.002748, 9.914839 
5.115174e+3, 2.54442e+2, -501082.16, -568246.8, 10.051477, 0.0004434089, -0.000032246873, -501082.16, -54613.383, 0.0, 10.00274, 9.914739 
5.1151735e+3, 2.6434988e+2, -412868.7, -490912.34, 15.760922, 0.00044243285, 0.00021260743, -412868.7, -63497.06, 0.0, 10.002731, 9.900666 
5.115173e+3, 2.742511e+2, -313609.25, -391319.34, 9.056926, 0.0004413525, -0.00013458358, -313609.25, -61269.582, 0.0, 10.002724, 9.901086 
5.115172e+3, 2.841441e+2, -227126.84, -317985.47, 12.34218, 0.0004404761, 0.00029573313, -227126.83, -71738.65, 0.0, 10.002716, 9.884179 
5.1151717e+3, 2.9402936e+2, -127443.984, -217684.19, 6.0597944, 0.00043987564, -0.00018750418, -127443.984, -68931.07, 0.0, 10.002709, 9.884961 
5.1151717e+3, 3.0394247e+2, -37796.53, -84809.12, 6.525125, 0.00043867674, 0.00023577857, -37796.53, -37796.53, 0.0, 10.002702, 9.940832 
5.115171e+3, 3.1388518e+2, -36736.426, -82589.14, -0.65989536, 0.00043659587, 0.00000085659826, -36736.426, -36736.426, 0.0, 10.002694, 9.942334 
5.1251864e+3, 1.2503356e+2, -1716317.6, -1723807.8, 6.672585, 0.00046415735, 0.00014711398, -1716317.6, -1645.629, 0.0, 10.002936, 9.99301 
5.125186e+3, 1.3502641e+2, -1618971.1, -1627044.9, 1.1184055, 0.0004615443, -0.0000311137, -1618971.1, -2229.0852, 0.0, 10.002926, 9.992226 
5.125185e+3, 1.4501275e+2, -1530866.4, -1547720.9, 9.419392, 0.0004598562, 0.00023108684, -1530866.4, -11990.576, 0.0, 10.002915, 9.980582 
5.125184e+3, 1.549933e+2, -1433170.5, -1450420.8, 3.4198742, 0.00045908024, 0.000042779728, -1433170.5, -12104.075, 0.0, 10.002905, 9.980051 
5.125183e+3, 1.6496722e+2, -1345192.1, -1371661.5, 13.375034, 0.00045806204, 0.00012503583, -1345192.1, -21870.232, 0.0, 10.002895, 9.967912 
5.125183e+3, 1.7493519e+2, -1247264.3, -1274042.6, 6.4213734, 0.00045680118, 0.000020941085, -1247264.3, -21628.36, 0.0, 10.002886, 9.967498 
5.1251817e+3, 1.8489651e+2, -1159202.1, -1195462.5, 17.21422, 0.00045563743, 0.00016526038, -1159202.1, -31187.258, 0.0, 10.002877, 9.955066 
5.125181e+3, 1.9485162e+2, -1061081.1, -1097597.5, 10.270726, 0.0004545726, 0.000032479307, -1061081.1, -30626.225, 0.0, 10.002869, 9.954723 
5.12518e+3, 2.0480005e+2, -972937.1, -1019213.25, 19.703638, 0.000453546, 0.00015349525, -972937.1, -39976.953, 0.0, 10.00286, 9.941966 
5.12518e+3, 2.1474205e+2, -874677.75, -921209.6, 12.7447195, 0.0004525599, -0.00004151439, -874677.75, -39149.227, 0.0, 10.0028515, 9.941626 
5.1251787e+3, 2.2467737e+2, -786411.3, -842959.1, 20.851929, 0.00045153798, 0.00020454846, -786411.3, -48248.883, 0.0, 10.002844, 9.928588 
5.125178e+3, 2.3460601e+2, -688004.5, -744801.56, 13.932057, 0.00045047508, -0.000008536702, -688004.5, -47142.85, 0.0, 10.002836, 9.928257 
5.1251775e+3, 2.4452773e+2, -599699.94, -666869.4, 20.735512, 0.00044950322, 0.00015225922, -599699.94, -56071.047, 0.0, 10.002829, 9.914819 
5.125177e+3, 2.5444266e+2, -500973.3, -568214.3, 13.8617, 0.00044863834, -0.00003113542, -500973.3, -54510.832, 0.0, 10.002821, 9.91472 
5.1251763e+3, 2.6435053e+2, -412759.78, -490880.47, 19.514738, 0.00044768592, 0.00021369426, -412759.78, -63394.28, 0.0, 10.002813, 9.900647 
5.125176e+3, 2.742517e+2, -313500.22, -391287.75, 12.634636, 0.00044662197, -0.00013354301, -313500.22, -61166.457, 0.0, 10.002807, 9.901067 
5.125175e+3, 2.841447e+2, -227016.69, -317952.53, 15.806406, 0.0004457632, 0.00029676134, -227016.69, -71634.23, 0.0, 10.0028, 9.884161 
5.1251745e+3, 2.9402992e+2, -127333.61, -217651.36, 9.318983, 0.0004451819, -0.00018644256, -127333.61, -68826.25, 0.0, 10.002792, 9.884942 
5.1251745e+3, 3.0394304e+2, -37688.64, -84781.29, 9.551444, 0.00044402143, 0.0002367975, -37688.64, -37688.64, 0.0, 10.002786, 9.94081 
5.1251733e+3, 3.1388572e+2, -36627.992, -82561.44, 2.1800556, 0.00044200738, 0.0000017209924, -36627.992, -36627.992, 0.0, 10.002779, 9.942312 
5.135189e+3, 1.2503444e+2, -1716330.0, -1723831.6, 2.6599748, 0.00046900514, 0.00014836021, -1716330.0, -1666.6611, 0.0, 10.002936, 9.992994 
5.1351887e+3, 1.3502729e+2, -1618983.3, -1627068.6, -2.893282, 0.00046649802, -0.000029785691, -1618983.3, -2249.8108, 0.0, 10.002926, 9.99221 
5.135188e+3, 1.4501362e+2, -1530879.4, -1547746.3, 5.6692014, 0.0004648769, 0.00023240889, -1530879.4, -12011.924, 0.0, 10.002915, 9.980566 
5.135187e+3, 1.5499416e+2, -1433183.3, -1450446.0, -0.33070987, 0.0004641291, 0.000044008586, -1433183.3, -12125.099, 0.0, 10.002906, 9.980035 
5.1351863e+3, 1.6496804e+2, -1345206.9, -1371690.8, 9.854075, 0.00046312102, 0.00012624444, -1345206.9, -21893.092, 0.0, 10.002896, 9.967894 
5.135186e+3, 1.7493601e+2, -1247278.9, -1274071.6, 2.900255, 0.00046185227, 0.000022203, -1247278.9, -21650.852, 0.0, 10.002887, 9.96748 
5.1351845e+3, 1.848973e+2, -1159216.8, -1195491.8, 13.923053, 0.00046072487, 0.00016651484, -1159216.8, -31209.594, 0.0, 10.002877, 9.955048 
5.135184e+3, 1.9485238e+2, -1061095.5, -1097626.6, 6.979538, 0.00045974212, 0.00003366355, -1061095.5, -30648.19, 0.0, 10.002869, 9.954704 
5.1351833e+3, 2.048008e+2, -972951.7, -1019242.8, 16.600605, 0.00045872736, 0.00015464661, -972951.7, -39998.867, 0.0, 10.00286, 9.941947 
5.135183e+3, 2.1474278e+2, -874692.1, -921238.94, 9.643598, 0.0004576779, -0.00004035593, -874692.1, -39170.766, 0.0, 10.002852, 9.9416065 
5.1351815e+3, 2.2467808e+2, -786425.75, -842988.8, 17.917063, 0.0004566768, 0.00020569922, -786425.75, -48270.29, 0.0, 10.002844, 9.928569 
5.135181e+3, 2.346067e+2, -688018.75, -744831.06, 11.000824, 0.00045572894, -0.000007410161, -688018.75, -47163.887, 0.0, 10.002836, 9.928237 
5.1351804e+3, 2.445284e+2, -599714.25, -666899.1, 17.922989, 0.00045480666, 0.00015335243, -599714.25, -56091.93, 0.0, 10.002829, 9.9148 
5.13518e+3, 2.5444332e+2, -500987.44, -568243.9, 11.05309, 0.00045391382, -0.00003008634, -500987.44, -54531.336, 0.0, 10.002821, 9.9147 
5.135179e+3, 2.6435113e+2, -412774.03, -490910.56, 16.825848, 0.0004529587, 0.00021472947, -412774.03, -63414.73, 0.0, 10.002814, 9.900627 
5.1351786e+3, 2.7425233e+2, -313514.28, -391317.7, 9.951878, 0.00045192408, -0.00013248333, -313514.28, -61186.527, 0.0, 10.002807, 9.901047 
5.135178e+3, 2.841453e+2, -227029.95, -317981.03, 13.184089, 0.0004511034, 0.00029780806, -227029.95, -71653.305, 0.0, 10.0028, 9.884142 
5.1351774e+3, 2.940305e+2, -127346.625, -217679.56, 6.701642, 0.00045057197, -0.00018546023, -127346.625, -68844.89, 0.0, 10.002793, 9.884923 
5.135177e+3, 3.0394357e+2, -37703.48, -84813.38, 6.9673753, 0.0004494515, 0.00023772729, -37703.48, -37703.48, 0.0, 10.002787, 9.940788 
5.135176e+3, 3.1388623e+2, -36643.047, -82594.016, -0.40310565, 0.00044746307, 0.0000026172506, -36643.047, -36643.047, 0.0, 10.002779, 9.942289 
5.145192e+3, 1.2503535e+2, -1716219.0, -1723789.5, 6.8113003, 0.00047391478, 0.00014963983, -1716219.0, -1564.4152, 0.0, 10.003013, 9.992979 
5.145192e+3, 1.3502817e+2, -1618871.8, -1627026.5, 1.160207, 0.00047147702, -0.000028549086, -1618871.8, -2146.9414, 0.0, 10.003003, 9.992196 
5.145191e+3, 1.4501448e+2, -1530768.3, -1547705.8, 9.870088, 0.00046990777, 0.00023363603, -1530768.3, -11909.263, 0.0, 10.002994, 9.98055 
5.14519e+3, 1.54995e+2, -1433071.8, -1450405.6, 3.74197, 0.0004691941, 0.000045259178, -1433071.8, -12021.962, 0.0, 10.002984, 9.980019 
5.145189e+3, 1.649689e+2, -1345097.1, -1371654.4, 14.055591, 0.00046821294, 0.00012748217, -1345097.1, -21791.395, 0.0, 10.0029745, 9.967875 
5.1451886e+3, 1.7493682e+2, -1247168.6, -1274035.4, 6.9777174, 0.00046696377, 0.000023391534, -1247168.6, -21548.596, 0.0, 10.002966, 9.967461 
5.1451874e+3, 1.8489811e+2, -1159106.3, -1195456.0, 18.076302, 0.00046586152, 0.00016767882, -1159106.3, -31106.916, 0.0, 10.002957, 9.955029 
5.145187e+3, 1.9485317e+2, -1060984.9, -1097591.0, 10.943094, 0.0004649096, 0.000034828317, -1060984.8, -30545.098, 0.0, 10.00295, 9.954685 
5.145186e+3, 2.0480156e+2, -972840.8, -1019207.75, 20.591812, 0.0004639186, 0.00015579782, -972840.8, -39895.43, 0.0, 10.002941, 9.941928 
5.1451856e+3, 2.1474352e+2, -874581.06, -921204.1, 13.468845, 0.0004628854, -0.000039233615, -874581.06, -39066.92, 0.0, 10.0029335, 9.941587 
5.1451844e+3, 2.246788e+2, -786314.56, -842954.44, 21.738218, 0.0004619163, 0.00020679792, -786314.56, -48166.125, 0.0, 10.002926, 9.928549 
5.145184e+3, 2.3460741e+2, -687907.5, -744797.0, 14.654667, 0.0004610181, -0.000006329219, -687907.5, -47059.473, 0.0, 10.002919, 9.928218 
5.145183e+3, 2.4452908e+2, -599602.9, -666865.56, 21.553919, 0.00046012, 0.00015440956, -599602.9, -55987.207, 0.0, 10.002912, 9.91478 
5.1451826e+3, 2.5444397e+2, -500875.88, -568210.56, 14.503647, 0.00045922116, -0.000029060278, -500875.88, -54426.242, 0.0, 10.002905, 9.9146805 
5.145182e+3, 2.643518e+2, -412662.4, -490877.9, 20.219782, 0.0004582842, 0.00021573786, -412662.4, -63309.355, 0.0, 10.002898, 9.900607 
5.1451814e+3, 2.7425295e+2, -313402.5, -391285.3, 13.15222, 0.0004572983, -0.0001314756, -313402.5, -61080.83, 0.0, 10.002892, 9.901027 
5.145181e+3, 2.841459e+2, -226917.02, -317947.22, 16.305, 0.00045651168, 0.00029878673, -226917.02, -71546.25, 0.0, 10.002885, 9.884123 
5.14518e+3, 2.9403105e+2, -127233.43, -217645.84, 9.699313, 0.0004559942, -0.00018454967, -127233.43, -68737.39, 0.0, 10.002879, 9.884904 
5.1451796e+3, 3.0394414e+2, -37592.78, -84784.9, 9.773955, 0.00045490835, 0.00023860668, -37592.777, -37592.777, 0.0, 10.002872, 9.940766 
5.145179e+3, 3.138868e+2, -36531.504, -82565.54, 2.10798, 0.00045298546, 0.0000035213207, -36531.504, -36531.504, 0.0, 10.002867, 9.942267 
5.1551956e+3, 1.2503625e+2, -1716231.5, -1723813.9, 3.0423672, 0.00047888496, 0.00015095115, -1716231.5, -1585.8657, 0.0, 10.003014, 9.992964 
5.155195e+3, 1.3502905e+2, -1618884.1, -1627050.8, -2.607106, 0.00047648285, -0.000027396494, -1618884.1, -2168.077, 0.0, 10.003003, 9.992181 
5.155194e+3, 1.4501534e+2, -1530781.5, -1547731.8, 6.330244, 0.0004749515, 0.00023477594, -1530781.5, -11931.075, 0.0, 10.002994, 9.980534 
5.1551926e+3, 1.5499586e+2, -1433084.9, -1450431.4, 0.20190339, 0.00047427765, 0.000046530648, -1433084.9, -12043.441, 0.0, 10.002984, 9.980002 
5.155192e+3, 1.6496973e+2, -1345112.1, -1371684.1, 10.759006, 0.0004733389, 0.00012874758, -1345112.1, -21814.69, 0.0, 10.002975, 9.967855 
5.1551914e+3, 1.7493764e+2, -1247183.4, -1274065.0, 3.6800306, 0.00047213494, 0.000024512661, -1247183.4, -21571.518, 0.0, 10.002967, 9.967442 
5.15519e+3, 1.8489891e+2, -1159121.3, -1195486.0, 14.977977, 0.00047104742, 0.0001687595, -1159121.3, -31129.82, 0.0, 10.002958, 9.955009 
5.15519e+3, 1.9485396e+2, -1060999.6, -1097620.9, 7.84486, 0.00047007875, 0.000035975663, -1060999.6, -30567.62, 0.0, 10.00295, 9.954666 
5.155189e+3, 2.0480232e+2, -972855.75, -1019238.0, 17.684137, 0.00046912275, 0.00015694949, -972855.7, -39917.844, 0.0, 10.002942, 9.941909 
5.1551884e+3, 2.1474428e+2, -874595.75, -921234.2, 10.56303, 0.00046817982, -0.000038144248, -874595.75, -39088.953, 0.0, 10.002934, 9.941567 
5.155187e+3, 2.2467951e+2, -786329.3, -842984.8, 18.963238, 0.00046725315, 0.00020784882, -786329.3, -48188.02, 0.0, 10.002927, 9.92853 
5.155187e+3, 2.3460813e+2, -687922.06, -744827.1, 11.882077, 0.00046634377, -0.0000052900964, -687922.06, -47080.984, 0.0, 10.002919, 9.928198 
5.155186e+3, 2.4452977e+2, -599617.5, -666896.06, 18.935934, 0.00046544627, 0.00015543369, -599617.5, -56008.586, 0.0, 10.0029125, 9.91476 
5.1551855e+3, 2.5444463e+2, -500890.3, -568240.9, 11.891211, 0.00046456198, -0.000028055025, -500890.3, -54447.234, 0.0, 10.002906, 9.91466 
5.155185e+3, 2.6435244e+2, -412677.0, -490908.78, 17.72366, 0.00046366267, 0.00021672185, -412677.0, -63330.313, 0.0, 10.002898, 9.900586 
5.155185e+3, 2.7425358e+2, -313416.9, -391316.0, 10.662765, 0.00046274357, -0.00013051578, -313416.9, -61101.395, 0.0, 10.0028925, 9.901006 
5.1551837e+3, 2.8414652e+2, -226930.5, -317976.22, 13.894997, 0.00046198725, 0.0002997025, -226930.48, -71565.69, 0.0, 10.002886, 9.884103 
5.155183e+3, 2.9403165e+2, -127246.64, -217674.52, 7.294216, 0.00046145022, -0.00018370536, -127246.64, -68756.37, 0.0, 10.002879, 9.884885 
5.1551825e+3, 3.039447e+2, -37608.11, -84818.09, 7.467082, 0.00046039413, 0.00023943972, -37608.11, -37608.11, 0.0, 10.002873, 9.940743 
5.155182e+3, 3.1388733e+2, -36547.09, -82599.28, -0.1875344, 0.00045857418, 0.0000044330095, -36547.09, -36547.09, 0.0, 10.002867, 9.942244 
5.1651984e+3, 1.2503716e+2, -1716118.6, -1723771.0, 6.882324, 0.0004838538, 0.00015210295, -1716118.6, -1481.931, 0.0, 10.003091, 9.992949 
5.165198e+3, 1.3502997e+2, -1618770.6, -1627007.9, 1.1643136, 0.00048154028, -0.000026186119, -1618770.6, -2063.4055, 0.0, 10.003081, 9.992166 
5.1651967e+3, 1.4501624e+2, -1530668.3, -1547690.6, 10.250902, 0.0004800543, 0.00023597959, -1530668.3, -11826.508, 0.0, 10.003073, 9.980517 
5.165196e+3, 1.5499674e+2, -1432971.0, -1450390.3, 3.9987652, 0.00047938287, 0.000047662717, -1432971.0, -11938.117, 0.0, 10.003064, 9.979986 
5.1651955e+3, 1.6497058e+2, -1344999.8, -1371647.0, 14.635979, 0.00047847445, 0.00012985617, -1344999.8, -21710.729, 0.0, 10.003056, 9.967836 
5.165194e+3, 1.7493847e+2, -1247070.8, -1274028.0, 7.3797436, 0.00047732904, 0.000025646275, -1247070.8, -21467.021, 0.0, 10.003048, 9.9674225 
5.165193e+3, 1.8489972e+2, -1159008.4, -1195449.6, 18.72478, 0.0004762794, 0.00016987768, -1159008.4, -31024.902, 0.0, 10.003039, 9.95499 
5.165193e+3, 1.9485475e+2, -1060886.4, -1097584.5, 11.419704, 0.00047532722, 0.00003703665, -1060886.4, -30462.139, 0.0, 10.003032, 9.954647 
5.165192e+3, 2.048031e+2, -972742.25, -1019202.1, 21.258606, 0.00047440402, 0.0001579888, -972742.25, -39811.977, 0.0, 10.003025, 9.941889 
5.165191e+3, 2.1474503e+2, -874482.2, -921198.56, 13.963994, 0.00047351135, -0.000037088645, -874482.2, -38982.81, 0.0, 10.003017, 9.941548 
5.1651907e+3, 2.2468027e+2, -786215.6, -842949.7, 22.35555, 0.00047261096, 0.00020888499, -786215.6, -48081.53, 0.0, 10.003011, 9.92851 
5.16519e+3, 2.3460884e+2, -687808.1, -744792.25, 15.094912, 0.00047170103, -0.0000043132923, -687808.1, -46974.047, 0.0, 10.003004, 9.928178 
5.165189e+3, 2.4453045e+2, -599503.4, -666861.7, 22.119665, 0.00047081863, 0.00015638393, -599503.4, -55901.273, 0.0, 10.002997, 9.91474 
5.1651883e+3, 2.544453e+2, -500776.06, -568206.75, 14.893674, 0.00046996793, -0.000027092592, -500776.06, -54339.613, 0.0, 10.002991, 9.914639 
5.165188e+3, 2.643531e+2, -412562.7, -490875.3, 20.689854, 0.00046910005, 0.00021765885, -412562.7, -63222.426, 0.0, 10.002985, 9.900566 
5.165188e+3, 2.742542e+2, -313302.5, -391282.84, 13.475777, 0.0004682097, -0.00012965157, -313302.47, -60993.17, 0.0, 10.002978, 9.900986 
5.1651865e+3, 2.841471e+2, -226814.83, -317941.56, 16.64552, 0.00046747606, 0.0003005517, -226814.83, -71456.03, 0.0, 10.002973, 9.884084 
5.165186e+3, 2.9403225e+2, -127130.57, -217639.94, 9.826969, 0.0004669535, -0.00018279284, -127130.57, -68646.125, 0.0, 10.002967, 9.884866 
5.1651853e+3, 3.0394527e+2, -37494.58, -84788.87, 9.8583555, 0.0004659495, 0.00024032897, -37494.574, -37494.574, 0.0, 10.002962, 9.940721 
5.1651853e+3, 3.1388786e+2, -36432.816, -82570.12, 2.075453, 0.00046423718, 0.0000051717193, -36432.816, -36432.816, 0.0, 10.002956, 9.942221 
5.175202e+3, 1.2503809e+2, -1716131.3, -1723795.6, 3.3863437, 0.00048882473, 0.00015310787, -1716131.3, -1503.7084, 0.0, 10.003092, 9.992933 
5.1752007e+3, 1.3503088e+2, -1618783.1, -1627032.4, -2.3312871, 0.0004866489, -0.000024921583, -1618783.1, -2084.865, 0.0, 10.003082, 9.99215 
5.1751995e+3, 1.4501713e+2, -1530681.6, -1547717.0, 6.9875445, 0.00048521537, 0.00023724287, -1530681.6, -11848.762, 0.0, 10.003074, 9.980501 
5.1751995e+3, 1.5499762e+2, -1432984.3, -1450416.5, 0.73519033, 0.00048451175, 0.000048666305, -1432984.3, -11960.029, 0.0, 10.003065, 9.979969 
5.1751983e+3, 1.6497146e+2, -1345015.3, -1371677.5, 11.557964, 0.00048362257, 0.00013082016, -1345015.1, -21734.566, 0.0, 10.003057, 9.967817 
5.175197e+3, 1.7493932e+2, -1247086.0, -1274058.3, 4.3005786, 0.00048254806, 0.00002679206, -1247086.0, -21490.47, 0.0, 10.003048, 9.967403 
5.1751965e+3, 1.8490054e+2, -1159023.8, -1195480.4, 15.855747, 0.00048155777, 0.00017103113, -1159023.8, -31048.314, 0.0, 10.00304, 9.95497 
5.175196e+3, 1.9485554e+2, -1060901.5, -1097615.1, 8.550663, 0.00048065305, 0.000038018115, -1060901.5, -30485.162, 0.0, 10.003033, 9.954627 
5.175195e+3, 2.048039e+2, -972757.5, -1019233.06, 18.515509, 0.00047976067, 0.0001589245, -972757.5, -39834.89, 0.0, 10.003025, 9.941869 
5.175194e+3, 2.1474579e+2, -874497.25, -921229.3, 11.2215605, 0.0004788811, -0.000036063837, -874497.25, -39005.33, 0.0, 10.003018, 9.941528 
5.1751935e+3, 2.2468102e+2, -786230.75, -842980.8, 19.789196, 0.00047799206, 0.00020990797, -786230.75, -48103.92, 0.0, 10.003011, 9.928489 
5.175193e+3, 2.3460956e+2, -687823.0, -744823.1, 12.532212, 0.00047709155, -0.0000033938402, -687823.0, -46996.043, 0.0, 10.003004, 9.928158 
5.1751924e+3, 2.4453115e+2, -599518.4, -666892.94, 19.683516, 0.00047623776, 0.00015726605, -599518.4, -55923.14, 0.0, 10.002997, 9.91472 
5.175191e+3, 2.54446e+2, -500790.84, -568237.8, 12.462433, 0.00047543834, -0.00002616951, -500790.84, -54361.082, 0.0, 10.002992, 9.914619 
5.175191e+3, 2.6435375e+2, -412577.6, -490906.8, 18.38819, 0.0004745962, 0.00021855261, -412577.56, -63243.797, 0.0, 10.002985, 9.900545 
5.1751906e+3, 2.7425486e+2, -313317.16, -391314.16, 11.180971, 0.0004736992, -0.00012887572, -313317.16, -61014.14, 0.0, 10.002979, 9.900965 
5.1751894e+3, 2.8414774e+2, -226828.69, -317971.44, 14.484302, 0.00047298128, 0.00030133958, -226828.69, -71475.984, 0.0, 10.002974, 9.884064 
5.175189e+3, 2.9403287e+2, -127144.17, -217669.47, 7.6767426, 0.00047250488, -0.00018181658, -127144.17, -68665.62, 0.0, 10.002968, 9.884846 
5.175188e+3, 3.0394587e+2, -37510.14, -84822.6, 7.8116374, 0.00047157373, 0.00024127073, -37510.14, -37510.14, 0.0, 10.002962, 9.940698 
5.175188e+3, 3.1388843e+2, -36448.613, -82604.37, 0.039251283, 0.00046997351, 0.00000574996, -36448.613, -36448.613, 0.0, 10.002957, 9.942197 
5.1852053e+3, 1.2503903e+2, -1716016.4, -1723752.0, 6.9744873, 0.00049384625, 0.00015422868, -1716016.4, -1397.947, 0.0, 10.00317, 9.992918 
5.185204e+3, 1.350318e+2, -1618667.5, -1626988.6, 1.1197494, 0.00049174717, -0.000023843842, -1618667.5, -1978.1921, 0.0, 10.003162, 9.992134 
5.185203e+3, 1.4501804e+2, -1530566.1, -1547675.1, 10.53786, 0.0004903741, 0.00023830491, -1530566.1, -11742.132, 0.0, 10.003154, 9.980484 
5.1852024e+3, 1.5499851e+2, -1432868.1, -1450374.5, 4.153862, 0.0004897146, 0.000049739316, -1432868.1, -11852.6, 0.0, 10.003146, 9.979953 
5.185201e+3, 1.6497232e+2, -1344900.5, -1371639.8, 15.021568, 0.0004888609, 0.00013187356, -1344900.5, -21628.45, 0.0, 10.003139, 9.967798 
5.1852006e+3, 1.7494017e+2, -1246970.8, -1274020.4, 7.5873604, 0.0004878132, 0.000027795357, -1246970.8, -21383.553, 0.0, 10.003131, 9.967384 
5.1852e+3, 1.8490139e+2, -1158908.3, -1195443.1, 19.137001, 0.0004868671, 0.00017201582, -1158908.3, -30940.93, 0.0, 10.003124, 9.95495 
5.185199e+3, 1.9485638e+2, -1060785.8, -1097578.0, 11.646919, 0.0004860243, 0.00003901655, -1060785.8, -30377.395, 0.0, 10.003117, 9.954608 
5.185198e+3, 2.0480469e+2, -972641.56, -1019196.44, 21.594336, 0.0004851581, 0.00015990321, -972641.56, -39726.684, 0.0, 10.00311, 9.941849 
5.185197e+3, 2.1474656e+2, -874380.94, -921192.8, 14.120483, 0.00048426638, -0.000035140525, -874380.94, -38896.56, 0.0, 10.003103, 9.941508 
5.185197e+3, 2.2468176e+2, -786114.2, -842944.8, 22.656694, 0.00048339006, 0.00021080274, -786114.2, -47994.758, 0.0, 10.003097, 9.928469 
5.185196e+3, 2.3461029e+2, -687706.44, -744787.5, 15.213817, 0.00048253007, -0.0000024976, -687706.44, -46886.62, 0.0, 10.003091, 9.928138 
5.185195e+3, 2.4453187e+2, -599401.7, -666857.75, 22.338722, 0.0004817182, 0.00015814175, -599401.7, -55813.418, 0.0, 10.003085, 9.914699 
5.1851946e+3, 2.5444672e+2, -500674.1, -568202.94, 14.966891, 0.00048096228, -0.000025340445, -500674.1, -54251.063, 0.0, 10.003078, 9.914598 
5.185194e+3, 2.6435444e+2, -412460.72, -490872.63, 20.887022, 0.00048014824, 0.00021936094, -412460.72, -63133.477, 0.0, 10.003073, 9.900524 
5.1851934e+3, 2.7425548e+2, -313200.06, -391280.22, 13.492121, 0.00047926002, -0.00012805533, -313200.03, -60903.36, 0.0, 10.003068, 9.900944 
5.185193e+3, 2.8414837e+2, -226710.33, -317936.03, 16.761356, 0.00047855996, 0.00030215387, -226710.33, -71363.76, 0.0, 10.003062, 9.884044 
5.1851916e+3, 2.9403344e+2, -127025.555, -217634.19, 9.809037, 0.00047811377, -0.00018103354, -127025.555, -68552.94, 0.0, 10.0030575, 9.884826 
5.1851916e+3, 3.0394644e+2, -37394.043, -84792.66, 9.867435, 0.00047723626, 0.00024200974, -37394.043, -37394.043, 0.0, 10.003053, 9.940674 
5.185191e+3, 3.13889e+2, -36331.543, -82574.38, 1.8942237, 0.00047572423, 0.000006427363, -36331.543, -36331.543, 0.0, 10.003048, 9.942174 
5.195208e+3, 1.2503998e+2, -1716029.4, -1723777.3, 3.7897658, 0.00049891794, 0.00015545692, -1716029.4, -1420.2039, 0.0, 10.003171, 9.992902 
5.195207e+3, 1.3503273e+2, -1618680.3, -1627013.6, -2.0627003, 0.0004968395, -0.000022938157, -1618680.3, -2000.113, 0.0, 10.003162, 9.992119 
5.195206e+3, 1.4501895e+2, -1530579.9, -1547702.0, 7.562742, 0.0004955345, 0.00023918161, -1530579.9, -11764.818, 0.0, 10.003155, 9.980467 
5.195205e+3, 1.549994e+2, -1432881.6, -1450401.4, 1.1772114, 0.0004949895, 0.000050877, -1432881.6, -11874.937, 0.0, 10.003146, 9.979936 
5.1952046e+3, 1.649732e+2, -1344916.3, -1371670.9, 12.226002, 0.00049418624, 0.00013300999, -1344916.3, -21652.805, 0.0, 10.003139, 9.967778 
5.1952034e+3, 1.7494102e+2, -1246986.3, -1274051.4, 4.791004, 0.0004931249, 0.000028667335, -1246986.3, -21407.512, 0.0, 10.003132, 9.967364 
5.195203e+3, 1.8490222e+2, -1158923.9, -1195474.6, 16.454205, 0.000492209, 0.00017284491, -1158923.9, -30964.86, 0.0, 10.003124, 9.95493 
5.195202e+3, 1.9485718e+2, -1060801.3, -1097609.4, 8.963175, 0.0004914415, 0.000040031096, -1060801.3, -30400.922, 0.0, 10.003118, 9.954587 
5.195201e+3, 2.0480548e+2, -972657.1, -1019228.1, 19.085049, 0.0004905971, 0.00016092208, -972657.1, -39750.082, 0.0, 10.003111, 9.941829 
5.1952004e+3, 2.1474734e+2, -874396.3, -921224.3, 11.612563, 0.0004896701, -0.0000343108, -874396.3, -38919.555, 0.0, 10.003104, 9.941487 
5.1952e+3, 2.2468251e+2, -786129.7, -842976.6, 20.254547, 0.00048880785, 0.00021157917, -786129.7, -48017.637, 0.0, 10.003098, 9.928448 
5.195199e+3, 2.3461102e+2, -687721.7, -744819.1, 12.813909, 0.00048801713, -0.0000016225351, -687721.7, -46909.098, 0.0, 10.003091, 9.928117 
5.195198e+3, 2.445326e+2, -599416.94, -666889.56, 20.07961, 0.00048725944, 0.00015901175, -599416.94, -55835.688, 0.0, 10.003085, 9.914678 
5.1951975e+3, 2.544474e+2, -500689.13, -568234.6, 12.712561, 0.00048653985, -0.000024598168, -500689.13, -54272.926, 0.0, 10.003079, 9.9145775 
5.195197e+3, 2.643551e+2, -412475.94, -490904.88, 18.810654, 0.0004857563, 0.00022009044, -412475.94, -63155.31, 0.0, 10.003074, 9.900502 
5.195196e+3, 2.7425617e+2, -313215.1, -391312.28, 11.426547, 0.00048489124, -0.00012719336, -313215.1, -60924.79, 0.0, 10.003068, 9.900922 
5.1951957e+3, 2.84149e+2, -226724.47, -317966.5, 14.822461, 0.00048421105, 0.00030299285, -226724.47, -71384.086, 0.0, 10.003063, 9.884023 
5.195195e+3, 2.9403406e+2, -127039.41, -217664.33, 7.881223, 0.00048378026, -0.00018042946, -127039.41, -68572.79, 0.0, 10.003058, 9.884806 
5.1951945e+3, 3.0394706e+2, -37409.957, -84827.19, 8.130004, 0.00048293863, 0.00024256099, -37409.957, -37409.957, 0.0, 10.003054, 9.94065 
5.195194e+3, 3.1388956e+2, -36347.703, -82609.45, 0.17654422, 0.00048149275, 0.000007197022, -36347.703, -36347.703, 0.0, 10.003049, 9.942149 
5.2052116e+3, 1.2504093e+2, -1715912.5, -1723732.9, 6.9716315, 0.0005039826, 0.00015647522, -1715912.5, -1312.6722, 0.0, 10.003251, 9.992887 
5.2052104e+3, 1.3503367e+2, -1618562.3, -1626969.0, 1.0635993, 0.0005020148, -0.000021962804, -1618562.3, -1891.3301, 0.0, 10.003243, 9.992103 
5.205209e+3, 1.4501989e+2, -1530462.0, -1547659.4, 10.750128, 0.0005007745, 0.00024013057, -1530462.0, -11655.973, 0.0, 10.003237, 9.98045 
5.2052087e+3, 1.550003e+2, -1432763.0, -1450358.5, 4.1655245, 0.00050024845, 0.000051815616, -1432763.0, -11765.102, 0.0, 10.00323, 9.9799185 
5.2052075e+3, 1.649741e+2, -1344799.1, -1371632.3, 15.185143, 0.0004994964, 0.00013394779, -1344799.0, -21544.256, 0.0, 10.003223, 9.967758 
5.205206e+3, 1.749419e+2, -1246868.5, -1274012.8, 7.5849466, 0.0004985187, 0.000029614012, -1246868.5, -21298.293, 0.0, 10.003217, 9.967344 
5.205206e+3, 1.8490306e+2, -1158805.9, -1195436.6, 19.207558, 0.00049763743, 0.0001737553, -1158805.9, -30855.1, 0.0, 10.00321, 9.95491 
5.205205e+3, 1.94858e+2, -1060682.8, -1097571.4, 11.520569, 0.00049685413, 0.000040858627, -1060682.8, -30290.414, 0.0, 10.003203, 9.954567 
5.2052045e+3, 2.0480628e+2, -972538.25, -1019190.56, 21.57325, 0.00049602945, 0.00016172098, -972538.25, -39639.098, 0.0, 10.003198, 9.941808 
5.205204e+3, 2.1474813e+2, -874277.4, -921187.06, 13.909966, 0.00049516023, -0.000033482662, -874277.4, -38808.34, 0.0, 10.003191, 9.941467 
5.2052027e+3, 2.2468327e+2, -786010.7, -842939.94, 22.50925, 0.0004943396, 0.00021240042, -786010.7, -47906.13, 0.0, 10.003185, 9.928427 
5.205202e+3, 2.3461176e+2, -687602.56, -744782.7, 14.912466, 0.00049357244, -0.0000008485181, -687602.56, -46797.254, 0.0, 10.00318, 9.928096 
5.2052015e+3, 2.4453332e+2, -599297.6, -666853.6, 22.156763, 0.00049282965, 0.00015976229, -599297.6, -55723.477, 0.0, 10.003174, 9.914657 
5.205201e+3, 2.544481e+2, -500569.72, -568198.94, 14.598336, 0.0004921148, -0.000023843098, -500569.72, -54160.375, 0.0, 10.003169, 9.9145565 
5.2052003e+3, 2.6435578e+2, -412356.5, -490869.9, 20.698734, 0.0004913681, 0.00022083217, -412356.5, -63042.516, 0.0, 10.003163, 9.900481 
5.2052e+3, 2.742568e+2, -313095.6, -391277.7, 13.169124, 0.0004905804, -0.00012648737, -313095.6, -60811.758, 0.0, 10.003159, 9.900901 
5.2051985e+3, 2.8414962e+2, -226603.7, -317930.3, 16.619095, 0.0004899335, 0.00030366267, -226603.7, -71269.555, 0.0, 10.003154, 9.884003 
5.2051985e+3, 2.940347e+2, -126918.12, -217628.13, 9.571865, 0.00048947596, -0.00017979676, -126918.12, -68457.53, 0.0, 10.00315, 9.884785 
5.205198e+3, 3.0394763e+2, -37291.24, -84796.64, 9.808541, 0.00048866315, 0.0002431758, -37291.234, -37291.234, 0.0, 10.003146, 9.940626 
5.2051973e+3, 3.1389013e+2, -36228.06, -82578.91, 1.6262743, 0.0004873285, 0.000007823422, -36228.06, -36228.06, 0.0, 10.003142, 9.942125 
5.2152145e+3, 1.2504189e+2, -1715925.5, -1723758.4, 4.1815886, 0.0005090444, 0.00015730048, -1715925.5, -1335.1793, 0.0, 10.003252, 9.99287 
5.2152133e+3, 1.3503462e+2, -1618575.1, -1626994.3, -1.7279142, 0.00050727034, -0.00002092278, -1618575.1, -1913.5065, 0.0, 10.003244, 9.992087 
5.215213e+3, 1.4502081e+2, -1530476.1, -1547687.3, 8.105314, 0.0005060917, 0.00024114645, -1530476.1, -11679.234, 0.0, 10.003238, 9.9804325 
5.215212e+3, 1.5500122e+2, -1432776.9, -1450386.1, 1.5219223, 0.0005054967, 0.000052570937, -1432776.9, -11787.993, 0.0, 10.00323, 9.979901 
5.215211e+3, 1.6497497e+2, -1344815.1, -1371664.1, 12.64121, 0.0005047966, 0.00013470271, -1344815.1, -21569.072, 0.0, 10.003223, 9.967738 
5.21521e+3, 1.7494276e+2, -1246884.4, -1274044.5, 5.037709, 0.0005039922, 0.000030629933, -1246884.4, -21322.703, 0.0, 10.003217, 9.967324 
5.215209e+3, 1.8490392e+2, -1158822.0, -1195468.9, 16.797417, 0.00050314976, 0.00017474088, -1158822.0, -30879.541, 0.0, 10.00321, 9.954889 
5.2152085e+3, 1.9485883e+2, -1060698.6, -1097603.5, 9.111051, 0.00050226663, 0.000041513737, -1060698.6, -30314.45, 0.0, 10.003204, 9.954546 
5.2152073e+3, 2.048071e+2, -972554.2, -1019223.0, 19.218155, 0.00050145993, 0.00016231707, -972554.2, -39662.99, 0.0, 10.003198, 9.941787 
5.215207e+3, 2.1474892e+2, -874293.1, -921219.3, 11.554167, 0.0005007344, -0.000032655786, -874293.1, -38831.82, 0.0, 10.003192, 9.941446 
5.215206e+3, 2.2468404e+2, -786026.44, -842972.4, 20.289522, 0.00049998076, 0.00021326316, -786026.44, -47929.414, 0.0, 10.003186, 9.928406 
5.215205e+3, 2.3461252e+2, -687618.1, -744814.94, 12.695739, 0.000499195, -0.00000016770112, -687618.1, -46820.125, 0.0, 10.0031805, 9.928075 
5.2152044e+3, 2.4453405e+2, -599313.25, -666886.25, 20.086182, 0.0004984309, 0.00016040265, -599313.25, -55746.207, 0.0, 10.003175, 9.914636 
5.2152044e+3, 2.544488e+2, -500585.13, -568231.4, 12.533944, 0.00049769174, -0.000023076072, -500585.13, -54182.695, 0.0, 10.003169, 9.9145355 
5.215203e+3, 2.6435646e+2, -412372.0, -490902.78, 18.797285, 0.00049698784, 0.00022158521, -412372.0, -63064.72, 0.0, 10.003164, 9.900459 
5.2152026e+3, 2.7425748e+2, -313110.9, -391310.38, 11.278084, 0.00049632747, -0.00012592564, -313110.9, -60833.543, 0.0, 10.0031595, 9.900879 
5.215202e+3, 2.8415027e+2, -226618.03, -317961.25, 14.962403, 0.0004957262, 0.0003041761, -226618.03, -71290.17, 0.0, 10.003155, 9.883982 
5.2152014e+3, 2.9403532e+2, -126932.164, -217658.72, 7.9335895, 0.00049520325, -0.00017913732, -126932.164, -68477.664, 0.0, 10.003151, 9.884765 
5.215201e+3, 3.0394825e+2, -37307.57, -84832.086, 8.377587, 0.0004944129, 0.00024384962, -37307.566, -37307.566, 0.0, 10.003146, 9.940602 
5.2152e+3, 3.1389073e+2, -36244.656, -82614.945, 0.22107948, 0.0004932312, 0.000008317111, -36244.656, -36244.656, 0.0, 10.003143, 9.942101 
5.225218e+3, 1.2504286e+2, -1715806.4, -1723713.3, 7.031131, 0.00051411137, 0.00015811449, -1715806.4, -1225.5016, 0.0, 10.003334, 9.992854 
5.225217e+3, 1.3503557e+2, -1618455.0, -1626948.9, 0.8943554, 0.0005125141, -0.000020043537, -1618455.0, -1802.6478, 0.0, 10.003327, 9.992071 
5.2252156e+3, 1.4502174e+2, -1530356.0, -1547643.6, 10.744298, 0.00051143457, 0.00024201276, -1530356.0, -11568.182, 0.0, 10.003322, 9.980414 
5.225215e+3, 1.5500213e+2, -1432655.6, -1450342.4, 4.079826, 0.0005108616, 0.00005334671, -1432655.6, -11675.668, 0.0, 10.003316, 9.979883 
5.2252144e+3, 1.6497588e+2, -1344695.3, -1371624.8, 15.085718, 0.00051018514, 0.00013546216, -1344695.3, -21457.955, 0.0, 10.003309, 9.967717 
5.225213e+3, 1.7494366e+2, -1246763.8, -1274005.0, 7.201004, 0.00050940627, 0.0000314477, -1246763.8, -21210.654, 0.0, 10.003304, 9.967303 
5.2252126e+3, 1.8490477e+2, -1158700.9, -1195429.9, 18.827923, 0.0005086188, 0.00017554787, -1158700.9, -30766.885, 0.0, 10.003298, 9.954868 
5.2252114e+3, 1.9485968e+2, -1060577.4, -1097564.6, 11.004134, 0.0005078209, 0.000042238742, -1060577.4, -30201.45, 0.0, 10.003292, 9.954526 
5.225211e+3, 2.048079e+2, -972432.9, -1019184.8, 21.024288, 0.00050705654, 0.00016299268, -972432.9, -39549.676, 0.0, 10.003286, 9.941766 
5.22521e+3, 2.1474971e+2, -874171.56, -921181.3, 13.165548, 0.00050632755, -0.000031994725, -874171.56, -38718.08, 0.0, 10.003282, 9.941425 
5.2252096e+3, 2.2468483e+2, -785904.75, -842934.8, 21.834047, 0.00050558976, 0.00021392367, -785904.7, -47815.29, 0.0, 10.003276, 9.928385 
5.2252084e+3, 2.3461327e+2, -687496.44, -744777.7, 14.073387, 0.0005048413, 0.00000050785513, -687496.44, -46705.82, 0.0, 10.00327, 9.928054 
5.225208e+3, 2.4453478e+2, -599191.56, -666849.56, 21.480043, 0.00050410005, 0.00016106472, -599191.56, -55631.652, 0.0, 10.003265, 9.914614 
5.225207e+3, 2.5444952e+2, -500463.3, -568195.0, 13.793628, 0.0005033666, -0.000022461214, -500463.3, -54067.844, 0.0, 10.003261, 9.914514 
5.2252066e+3, 2.6435715e+2, -412250.06, -490866.97, 20.112242, 0.0005026665, 0.00022215974, -412250.06, -62949.52, 0.0, 10.003256, 9.900437 
5.225206e+3, 2.7425814e+2, -312988.75, -391274.84, 12.476271, 0.00050200766, -0.0001253826, -312988.75, -60717.926, 0.0, 10.003252, 9.900857 
5.225205e+3, 2.841509e+2, -226494.7, -317924.3, 16.227362, 0.0005014425, 0.00030473692, -226494.7, -71173.164, 0.0, 10.003247, 9.883961 
5.225205e+3, 2.940359e+2, -126808.68, -217621.97, 8.993009, 0.0005010025, -0.00017849232, -126808.68, -68360.29, 0.0, 10.003244, 9.884744 
5.225204e+3, 3.0394885e+2, -37186.773, -84800.97, 9.529147, 0.0005002975, 0.00024446298, -37186.773, -37186.773, 0.0, 10.003241, 9.9405775 
5.2252036e+3, 3.138913e+2, -36122.8, -82583.76, 1.3542383, 0.0004992046, 0.0000087288245, -36122.8, -36122.8, 0.0, 10.003238, 9.942076 
5.2352214e+3, 1.2504384e+2, -1715820.0, -1723739.6, 4.6117034, 0.000519187, 0.00015891847, -1715820.0, -1248.6603, 0.0, 10.003334, 9.992838 
5.23522e+3, 1.3503653e+2, -1618468.4, -1626975.1, -1.5204681, 0.000517751, -0.000019312125, -1618468.4, -1825.441, 0.0, 10.003328, 9.992054 
5.235219e+3, 1.4502269e+2, -1530370.3, -1547671.9, 8.500291, 0.0005168049, 0.0002427415, -1530370.3, -11591.701, 0.0, 10.003322, 9.980397 
5.2352184e+3, 1.5500307e+2, -1432669.8, -1450370.4, 1.8311487, 0.00051633775, 0.000054141623, -1432669.8, -11698.821, 0.0, 10.003316, 9.979865 
5.235217e+3, 1.6497679e+2, -1344711.9, -1371657.8, 12.85077, 0.0005156592, 0.00013622601, -1344711.9, -21483.477, 0.0, 10.00331, 9.967696 
5.2352166e+3, 1.7494453e+2, -1246780.1, -1274037.9, 4.968094, 0.00051476987, 0.00003208302, -1246780.1, -21235.75, 0.0, 10.0033045, 9.967282 
5.235216e+3, 1.8490563e+2, -1158717.3, -1195462.8, 16.595413, 0.0005140523, 0.00017619037, -1158717.3, -30791.684, 0.0, 10.003299, 9.954847 
5.235215e+3, 1.9486052e+2, -1060593.5, -1097597.4, 8.767735, 0.0005135099, 0.000043028194, -1060593.5, -30225.832, 0.0, 10.003293, 9.954505 
5.2352136e+3, 2.0480873e+2, -972449.2, -1019218.0, 18.867577, 0.0005128103, 0.0001637416, -972449.2, -39574.03, 0.0, 10.003287, 9.941745 
5.2352136e+3, 2.1475051e+2, -874187.7, -921214.4, 11.011148, 0.0005119426, -0.000031486452, -874187.7, -38742.02, 0.0, 10.003282, 9.941403 
5.2352124e+3, 2.2468561e+2, -785920.75, -842967.94, 19.759607, 0.00051117357, 0.00021439782, -785920.75, -47838.977, 0.0, 10.003276, 9.928363 
5.235212e+3, 2.3461403e+2, -687512.3, -744810.6, 12.000645, 0.00051051384, 0.0000011785427, -687512.3, -46729.09, 0.0, 10.003271, 9.928032 
5.2352107e+3, 2.445355e+2, -599207.4, -666882.75, 19.587618, 0.00050983607, 0.00016174668, -599207.4, -55654.72, 0.0, 10.003266, 9.914592 
5.2352107e+3, 2.5445023e+2, -500478.97, -568227.94, 11.909988, 0.0005091362, -0.000021986823, -500478.97, -54090.49, 0.0, 10.003262, 9.914492 
5.23521e+3, 2.6435784e+2, -412265.78, -490900.34, 18.4282, 0.00050840416, 0.00022256956, -412265.78, -62972.02, 0.0, 10.003257, 9.900415 
5.235209e+3, 2.7425882e+2, -313004.28, -391308.0, 10.803466, 0.0005076309, -0.00012485676, -313004.28, -60740.0, 0.0, 10.003252, 9.900835 
5.235208e+3, 2.8415158e+2, -226509.42, -317956.1, 14.772427, 0.00050709303, 0.00030534147, -226509.42, -71194.234, 0.0, 10.003248, 9.88394 
5.235208e+3, 2.9403657e+2, -126823.12, -217653.42, 7.558685, 0.00050687266, -0.00017786091, -126823.12, -68380.875, 0.0, 10.003244, 9.884723 
5.235207e+3, 3.0394945e+2, -37203.188, -84836.64, 8.430068, 0.0005063113, 0.00024502026, -37203.188, -37203.188, 0.0, 10.003242, 9.940554 
5.2352065e+3, 3.138919e+2, -36139.457, -82619.945, 0.291708, 0.0005052484, 0.000009064934, -36139.457, -36139.457, 0.0, 10.003239, 9.942051 
5.245225e+3, 1.2504482e+2, -1715699.0, -1723693.8, 6.8408985, 0.00052432896, 0.00015965538, -1715699.0, -1137.2684, 0.0, 10.003417, 9.992822 
5.2452236e+3, 1.350375e+2, -1618345.4, -1626928.6, 0.7379811, 0.0005229952, -0.000018653116, -1618345.4, -1711.9719, 0.0, 10.003412, 9.992038 
5.2452224e+3, 1.4502363e+2, -1530247.3, -1547627.5, 10.663321, 0.0005221627, 0.00024340888, -1530247.3, -11477.948, 0.0, 10.003408, 9.980379 
5.245222e+3, 1.55004e+2, -1432545.6, -1450325.8, 3.6414719, 0.0005218201, 0.00005490212, -1432545.6, -11583.915, 0.0, 10.003403, 9.979847 
5.2452207e+3, 1.6497768e+2, -1344589.1, -1371617.4, 14.461528, 0.00052121945, 0.00013694706, -1344589.1, -21369.662, 0.0, 10.003398, 9.967675 
5.2452195e+3, 1.7494541e+2, -1246656.6, -1273997.4, 6.5352764, 0.00052036135, 0.000032631924, -1246656.6, -21120.965, 0.0, 10.003393, 9.967261 
5.2452195e+3, 1.8490651e+2, -1158593.4, -1195422.9, 17.944984, 0.00051964645, 0.00017669004, -1158593.4, -30676.334, 0.0, 10.003388, 9.954826 
5.245218e+3, 1.9486137e+2, -1060469.4, -1097557.6, 9.816604, 0.0005190774, 0.000043604978, -1060469.4, -30109.988, 0.0, 10.003384, 9.954483 
5.245217e+3, 2.0480958e+2, -972324.9, -1019178.7, 19.758013, 0.0005184032, 0.00016435068, -972324.8, -39457.793, 0.0, 10.003378, 9.941723 
5.245217e+3, 2.1475133e+2, -874063.5, -921175.44, 11.818982, 0.0005176163, -0.000030892894, -874063.5, -38625.71, 0.0, 10.003373, 9.941381 
5.245216e+3, 2.2468638e+2, -785796.6, -842929.6, 20.55784, 0.0005168885, 0.00021496003, -785796.6, -47722.508, 0.0, 10.003367, 9.928342 
5.245215e+3, 2.3461479e+2, -687388.1, -744772.6, 12.647957, 0.0005162259, 0.0000016918106, -687388.1, -46612.406, 0.0, 10.003363, 9.92801 
5.245214e+3, 2.4453625e+2, -599083.2, -666845.2, 20.283068, 0.00051556574, 0.00016221305, -599083.2, -55537.76, 0.0, 10.003358, 9.91457 
5.245214e+3, 2.5445095e+2, -500354.9, -568190.8, 12.519525, 0.00051490776, -0.000021564982, -500354.9, -53973.44, 0.0, 10.003354, 9.91447 
5.245213e+3, 2.6435855e+2, -412141.78, -490864.0, 19.141853, 0.0005142086, 0.00022300804, -412141.78, -62854.844, 0.0, 10.003349, 9.9003935 
5.2452123e+3, 2.7425948e+2, -312880.16, -391272.0, 11.331914, 0.0005134566, -0.00012432448, -312880.13, -60622.46, 0.0, 10.003346, 9.900813 
5.245212e+3, 2.841522e+2, -226383.98, -317918.5, 15.412556, 0.0005129245, 0.00030587817, -226383.98, -71075.17, 0.0, 10.003343, 9.883919 
5.245211e+3, 2.940372e+2, -126697.305, -217615.9, 8.169013, 0.0005126888, -0.00017744156, -126697.3, -68261.22, 0.0, 10.00334, 9.884702 
5.2452105e+3, 3.0395004e+2, -37080.086, -84804.82, 9.233881, 0.0005121895, 0.0002453909, -37080.086, -37080.086, 0.0, 10.003337, 9.940529 
5.24521e+3, 3.1389245e+2, -36015.586, -82588.195, 0.9030857, 0.0005113027, 0.000009490173, -36015.586, -36015.586, 0.0, 10.003335, 9.942026 
5.255228e+3, 1.250458e+2, -1715712.4, -1723720.1, 5.008241, 0.00052953523, 0.00016033024, -1715712.4, -1160.4154, 0.0, 10.003418, 9.992805 
5.255227e+3, 1.3503847e+2, -1618358.8, -1626954.8, -1.1010402, 0.00052825024, -0.000018060107, -1618358.8, -1734.7656, 0.0, 10.003413, 9.992022 
5.255226e+3, 1.450246e+2, -1530262.3, -1547657.1, 8.778211, 0.00052751345, 0.00024402037, -1530262.3, -11502.339, 0.0, 10.003408, 9.98036 
5.2552253e+3, 1.5500493e+2, -1432560.5, -1450355.3, 1.761462, 0.00052731234, 0.000055630524, -1432560.5, -11607.907, 0.0, 10.003404, 9.979829 
5.255224e+3, 1.6497861e+2, -1344605.8, -1371650.5, 12.5492325, 0.00052686303, 0.00013762819, -1344605.8, -21395.305, 0.0, 10.003399, 9.967654 
5.255223e+3, 1.7494632e+2, -1246673.1, -1274030.4, 4.6185856, 0.0005261663, 0.00003310161, -1246673.1, -21146.188, 0.0, 10.003394, 9.96724 
5.255223e+3, 1.8490738e+2, -1158610.3, -1195457.0, 15.919102, 0.0005253925, 0.00017705871, -1158610.3, -30701.822, 0.0, 10.003389, 9.954804 
5.255222e+3, 1.9486222e+2, -1060486.1, -1097591.5, 7.7939515, 0.00052453787, 0.000043986027, -1060486.1, -30135.05, 0.0, 10.003384, 9.954461 
5.2552205e+3, 2.048104e+2, -972341.3, -1019212.2, 17.71778, 0.00052385294, 0.00016483081, -972341.3, -39482.355, 0.0, 10.003379, 9.941701 
5.25522e+3, 2.1475214e+2, -874079.75, -921208.75, 9.775792, 0.0005233484, -0.00003022112, -874079.75, -38649.855, 0.0, 10.003373, 9.94136 
5.2552193e+3, 2.2468717e+2, -785813.0, -842963.3, 18.633196, 0.0005227285, 0.00021560302, -785812.94, -47746.54, 0.0, 10.003368, 9.92832 
5.255219e+3, 2.3461555e+2, -687404.25, -744806.2, 10.730277, 0.00052197877, 0.0000020600196, -687404.25, -46636.02, 0.0, 10.003364, 9.927988 
5.2552176e+3, 2.4453698e+2, -599099.25, -666878.7, 18.522974, 0.00052129425, 0.00016248091, -599099.2, -55561.047, 0.0, 10.003359, 9.914548 
5.2552176e+3, 2.5445166e+2, -500370.7, -568224.1, 10.765415, 0.0005206857, -0.000021191589, -500370.7, -53996.29, 0.0, 10.003354, 9.914448 
5.2552164e+3, 2.6435924e+2, -412157.84, -490898.13, 17.661644, 0.00052007893, 0.00022347276, -412157.84, -62877.746, 0.0, 10.00335, 9.900371 
5.255216e+3, 2.7426016e+2, -312896.0, -391305.94, 9.870631, 0.00051947345, -0.00012378668, -312896.0, -60644.945, 0.0, 10.003346, 9.90079 
5.255215e+3, 2.8415287e+2, -226398.8, -317950.5, 14.216118, 0.0005189274, 0.00030635204, -226398.8, -71096.375, 0.0, 10.003344, 9.883898 
5.2552146e+3, 2.9403782e+2, -126711.805, -217647.53, 6.9950204, 0.0005184601, -0.00017721756, -126711.805, -68281.914, 0.0, 10.003341, 9.88468 
5.255214e+3, 3.0395067e+2, -37096.87, -84841.305, 8.400579, 0.0005179478, 0.0002455897, -37096.867, -37096.867, 0.0, 10.003338, 9.940504 
5.2552134e+3, 3.1389305e+2, -36032.637, -82625.266, 0.109446004, 0.0005173715, 0.00000999713, -36032.637, -36032.637, 0.0, 10.003336, 9.942 
5.265232e+3, 1.250468e+2, -1715588.8, -1723673.5, 6.760483, 0.00053455064, 0.00016060664, -1715588.8, -1046.5137, 0.0, 10.003503, 9.992788 
5.2652305e+3, 1.3503945e+2, -1618233.4, -1626907.5, 0.22549686, 0.0005336503, -0.000017290615, -1618233.4, -1618.9866, 0.0, 10.0035, 9.992004 
5.2652293e+3, 1.4502554e+2, -1530136.5, -1547611.8, 9.864404, 0.00053309096, 0.00024479526, -1530136.5, -11385.929, 0.0, 10.003496, 9.980342 
5.265229e+3, 1.5500586e+2, -1432433.3, -1450309.4, 2.9129016, 0.0005328629, 0.000055929922, -1432433.3, -11489.814, 0.0, 10.003493, 9.97981 
5.2652276e+3, 1.6497952e+2, -1344479.9, -1371609.1, 13.407302, 0.0005324457, 0.00013784603, -1344479.9, -21278.34, 0.0, 10.0034895, 9.967633 
5.2652264e+3, 1.7494722e+2, -1246546.8, -1273989.0, 5.1426263, 0.0005318403, 0.0000336325, -1246546.8, -21028.588, 0.0, 10.003485, 9.967219 
5.2652264e+3, 1.8490827e+2, -1158483.6, -1195416.0, 16.162643, 0.00053111685, 0.00017762433, -1158483.6, -30583.709, 0.0, 10.003481, 9.9547825 
5.265225e+3, 1.9486307e+2, -1060359.3, -1097550.9, 8.080854, 0.0005302704, 0.00004430037, -1060359.3, -30016.55, 0.0, 10.003476, 9.954439 
5.265224e+3, 2.0481122e+2, -972214.44, -1019172.06, 17.845589, 0.00052957213, 0.00016509881, -972214.44, -39363.656, 0.0, 10.003471, 9.941679 
5.2652234e+3, 2.1475294e+2, -873953.1, -921169.06, 9.656365, 0.00052903144, -0.000029781168, -873953.1, -38531.176, 0.0, 10.003467, 9.941339 
5.265223e+3, 2.2468796e+2, -785686.3, -842923.9, 18.521105, 0.00052842736, 0.00021609825, -785686.3, -47627.625, 0.0, 10.003462, 9.928298 
5.265222e+3, 2.3461632e+2, -687277.9, -744767.2, 10.649255, 0.0005277515, 0.0000024804028, -687277.9, -46517.125, 0.0, 10.003457, 9.927966 
5.265221e+3, 2.4453774e+2, -598972.94, -666840.44, 18.581964, 0.00052710884, 0.000162858, -598972.94, -55442.055, 0.0, 10.003453, 9.914526 
5.265221e+3, 2.5445238e+2, -500244.34, -568186.2, 10.661258, 0.0005265044, -0.000020820464, -500244.34, -53877.0, 0.0, 10.003449, 9.914426 
5.26522e+3, 2.6435992e+2, -412031.6, -490861.03, 17.682213, 0.0005259302, 0.00022382005, -412031.6, -62758.34, 0.0, 10.003446, 9.900348 
5.265219e+3, 2.7426082e+2, -312769.94, -391269.34, 9.842776, 0.00052539294, -0.00012348563, -312769.94, -60525.5, 0.0, 10.003442, 9.900767 
5.2652186e+3, 2.8415352e+2, -226271.55, -317912.34, 14.419547, 0.000524883, 0.00030666264, -226271.55, -70975.54, 0.0, 10.003439, 9.883876 
5.265218e+3, 2.9403844e+2, -126584.164, -217609.44, 7.0721045, 0.00052440783, -0.00017682221, -126584.164, -68160.48, 0.0, 10.003437, 9.884659 
5.2652174e+3, 3.0395126e+2, -36971.918, -84809.06, 8.714664, 0.0005238979, 0.00024597393, -36971.918, -36971.918, 0.0, 10.003435, 9.940478 
5.265217e+3, 3.1389362e+2, -35906.566, -82592.945, 0.35606024, 0.0005233395, 0.000010229804, -35906.566, -35906.566, 0.0, 10.003434, 9.941975 
5.2752346e+3, 1.250478e+2, -1715603.3, -1723701.6, 5.447895, 0.00053939596, 0.00016051948, -1715603.3, -1070.6998, 0.0, 10.003504, 9.99277 
5.275234e+3, 1.3504042e+2, -1618247.6, -1626935.5, -1.0823108, 0.0005391871, -0.00001636084, -1618247.6, -1642.7977, 0.0, 10.0035, 9.991987 
5.275233e+3, 1.450265e+2, -1530151.3, -1547641.1, 8.470684, 0.0005388801, 0.0002457181, -1530151.3, -11410.183, 0.0, 10.003497, 9.980323 
5.275232e+3, 1.5500681e+2, -1432447.9, -1450338.5, 1.5181124, 0.0005384713, 0.000055836685, -1432447.9, -11513.663, 0.0, 10.003493, 9.979792 
5.275231e+3, 1.6498046e+2, -1344497.1, -1371643.6, 11.726181, 0.00053797715, 0.00013764012, -1344497.1, -21304.729, 0.0, 10.00349, 9.967611 
5.2752304e+3, 1.7494813e+2, -1246563.9, -1274023.4, 3.4657378, 0.00053739897, 0.000034218585, -1246563.9, -21054.535, 0.0, 10.003486, 9.967197 
5.275229e+3, 1.8490914e+2, -1158500.4, -1195449.9, 14.322732, 0.00053682603, 0.00017836921, -1158500.4, -30609.09, 0.0, 10.003482, 9.954761 
5.2752286e+3, 1.9486392e+2, -1060375.9, -1097584.5, 6.2398357, 0.0005362569, 0.00004455347, -1060375.9, -30041.535, 0.0, 10.003477, 9.954418 
5.2752274e+3, 2.0481206e+2, -972231.4, -1019206.6, 15.89481, 0.0005355429, 0.00016517247, -972231.4, -39388.77, 0.0, 10.003472, 9.941657 
5.275227e+3, 2.1475375e+2, -873969.8, -921203.4, 7.7123294, 0.0005346742, -0.000029554416, -873969.8, -38555.86, 0.0, 10.003468, 9.941316 
5.275226e+3, 2.2468875e+2, -785702.56, -842957.5, 16.70122, 0.00053400174, 0.00021645718, -785702.56, -47651.617, 0.0, 10.003463, 9.928276 
5.2752256e+3, 2.346171e+2, -687293.94, -744800.56, 8.829386, 0.00053354714, 0.0000029483222, -687293.94, -46540.68, 0.0, 10.003458, 9.927944 
5.2752244e+3, 2.4453849e+2, -598989.25, -666874.6, 17.001295, 0.0005330071, 0.0001633351, -598989.25, -55465.676, 0.0, 10.003453, 9.914503 
5.275224e+3, 2.5445312e+2, -500260.44, -568220.2, 9.095217, 0.00053236546, -0.00002045197, -500260.44, -53900.207, 0.0, 10.003449, 9.914403 
5.275223e+3, 2.6436064e+2, -412047.78, -490895.4, 16.337593, 0.0005317688, 0.00022405898, -412047.78, -62781.383, 0.0, 10.003446, 9.900325 
5.2752227e+3, 2.742615e+2, -312785.88, -391303.5, 8.512519, 0.00053122785, -0.00012340226, -312785.88, -60548.098, 0.0, 10.003443, 9.900744 
5.275222e+3, 2.8415418e+2, -226286.6, -317944.88, 13.478491, 0.0005307998, 0.00030682312, -226286.6, -70997.016, 0.0, 10.00344, 9.883854 
5.2752215e+3, 2.940391e+2, -126598.94, -217641.66, 6.1637387, 0.00053052243, -0.00017626992, -126598.94, -68181.46, 0.0, 10.003438, 9.884637 
5.275221e+3, 3.0395186e+2, -36988.9, -84845.98, 8.235254, 0.0005300291, 0.0002465279, -36988.9, -36988.9, 0.0, 10.003436, 9.940454 
5.27522e+3, 3.1389418e+2, -35923.816, -82630.44, -0.07100764, 0.00052922, 0.000010210027, -35923.816, -35923.816, 0.0, 10.003435, 9.94195 
5.285238e+3, 1.250488e+2, -1715477.3, -1723654.4, 5.845615, 0.0005447871, 0.00016089049, -1715477.3, -954.5393, 0.0, 10.003591, 9.992753 
5.2852374e+3, 1.350414e+2, -1618119.9, -1626887.5, -0.6403555, 0.0005446525, -0.000016246768, -1618119.9, -1524.6437, 0.0, 10.003589, 9.991969 
5.285236e+3, 1.4502746e+2, -1530022.6, -1547594.5, 8.741178, 0.00054441515, 0.00024580318, -1530022.6, -11290.978, 0.0, 10.003587, 9.980305 
5.2852356e+3, 1.5500775e+2, -1432317.5, -1450291.3, 1.5776296, 0.00054407096, 0.000056116805, -1432317.5, -11392.527, 0.0, 10.003585, 9.979773 
5.285235e+3, 1.6498137e+2, -1344367.9, -1371600.9, 11.30875, 0.0005436202, 0.00013791404, -1344367.9, -21184.49, 0.0, 10.003583, 9.967589 
5.285234e+3, 1.7494902e+2, -1246433.6, -1273980.4, 3.0835989, 0.0005430641, 0.000034285174, -1246433.6, -20933.174, 0.0, 10.003579, 9.9671755 
5.2852327e+3, 1.8491001e+2, -1158370.1, -1195407.1, 13.451836, 0.0005425424, 0.00017846952, -1158370.1, -30487.494, 0.0, 10.003575, 9.95474 
5.285232e+3, 1.948648e+2, -1060246.9, -1097542.9, 5.232278, 0.0005420544, 0.000044934928, -1060246.9, -29921.025, 0.0, 10.003571, 9.954396 
5.2852315e+3, 2.048129e+2, -972102.94, -1019165.6, 14.999778, 0.0005413847, 0.00016558578, -972102.94, -39268.53, 0.0, 10.003566, 9.941635 
5.28523e+3, 2.1475457e+2, -873841.3, -921162.7, 7.0563865, 0.0005405209, -0.000029374645, -873841.3, -38435.31, 0.0, 10.003561, 9.941294 
5.2852297e+3, 2.2468954e+2, -785574.06, -842917.44, 16.15474, 0.0005398337, 0.0002166019, -785574.06, -47530.832, 0.0, 10.003557, 9.928253 
5.285229e+3, 2.3461786e+2, -687165.4, -744760.9, 8.007759, 0.0005393423, 0.0000032792298, -687165.4, -46419.67, 0.0, 10.003553, 9.927922 
5.285228e+3, 2.4453923e+2, -598860.7, -666835.4, 16.257524, 0.00053881254, 0.00016371744, -598860.7, -55344.453, 0.0, 10.00355, 9.914481 
5.2852273e+3, 2.5445384e+2, -500132.2, -568181.5, 8.404064, 0.00053823635, -0.000020177109, -500132.16, -53779.03, 0.0, 10.003546, 9.914381 
5.285227e+3, 2.6436132e+2, -411919.66, -490857.66, 15.910748, 0.00053767645, 0.00022427457, -411919.66, -62660.152, 0.0, 10.003542, 9.900302 
5.285226e+3, 2.742622e+2, -312657.53, -391266.03, 7.9900637, 0.0005371364, -0.00012318496, -312657.53, -60426.402, 0.0, 10.00354, 9.900722 
5.2852255e+3, 2.8415483e+2, -226157.16, -317906.13, 13.165183, 0.00053672114, 0.00030705155, -226157.16, -70874.01, 0.0, 10.003537, 9.883832 
5.2852243e+3, 2.9403973e+2, -126469.54, -217603.19, 5.702789, 0.00053647294, -0.00017601825, -126469.54, -68058.28, 0.0, 10.003535, 9.884615 
5.2852243e+3, 3.039525e+2, -36862.43, -84813.164, 8.136598, 0.0005360518, 0.0002467704, -36862.43, -36862.43, 0.0, 10.003534, 9.940428 
5.285224e+3, 3.1389478e+2, -35796.65, -82597.72, -0.110793255, 0.00053537823, 0.000010396706, -35796.65, -35796.65, 0.0, 10.003534, 9.941924 
5.295242e+3, 1.250498e+2, -1715491.5, -1723682.3, 5.0947566, 0.0005506794, 0.00016167689, -1715491.5, -978.54333, 0.0, 10.003591, 9.992736 
5.2952415e+3, 1.3504238e+2, -1618133.9, -1626915.3, -1.4050667, 0.0005500571, -0.00001687669, -1618133.9, -1548.2855, 0.0, 10.00359, 9.991952 
5.29524e+3, 1.4502844e+2, -1530037.9, -1547624.6, 7.8738213, 0.0005497232, 0.00024512457, -1530037.9, -11315.672, 0.0, 10.003588, 9.980286 
5.295239e+3, 1.550087e+2, -1432332.5, -1450321.3, 0.70530623, 0.0005496675, 0.000056736368, -1432332.5, -11416.847, 0.0, 10.003586, 9.9797535 
5.2952385e+3, 1.649823e+2, -1344385.1, -1371635.3, 9.961535, 0.00054936984, 0.00013862403, -1344385.1, -21210.805, 0.0, 10.003583, 9.967567 
5.2952373e+3, 1.7494991e+2, -1246450.8, -1274014.5, 1.7645457, 0.00054883154, 0.000033877062, -1246450.8, -20959.057, 0.0, 10.00358, 9.967154 
5.295236e+3, 1.849109e+2, -1158387.3, -1195441.6, 11.453393, 0.0005482704, 0.00017798123, -1158387.3, -30513.178, 0.0, 10.003576, 9.954717 
5.295236e+3, 1.9486564e+2, -1060263.8, -1097577.0, 3.2381864, 0.000547684, 0.000045432433, -1060263.8, -29946.281, 0.0, 10.0035715, 9.954374 
5.295235e+3, 2.0481373e+2, -972119.3, -1019199.1, 13.235229, 0.0005471133, 0.00016630789, -972119.3, -39293.117, 0.0, 10.003567, 9.941613 
5.295234e+3, 2.1475539e+2, -873857.5, -921196.0, 5.2911263, 0.0005465589, -0.000029238146, -873857.5, -38459.473, 0.0, 10.003562, 9.941273 
5.295233e+3, 2.2469033e+2, -785590.8, -842952.1, 14.495305, 0.0005459059, 0.00021655075, -785590.8, -47555.375, 0.0, 10.003558, 9.928231 
5.2952325e+3, 2.3461862e+2, -687181.94, -744795.4, 6.3590508, 0.00054514216, 0.000003483935, -687181.94, -46443.797, 0.0, 10.003553, 9.927899 
5.295232e+3, 2.4453998e+2, -598876.94, -666869.44, 14.789132, 0.000544538, 0.00016401197, -598876.94, -55367.996, 0.0, 10.00355, 9.914459 
5.295231e+3, 2.5445455e+2, -500148.16, -568215.25, 6.941023, 0.00054412097, -0.000019988525, -500148.16, -53802.12, 0.0, 10.003546, 9.914359 
5.295231e+3, 2.6436204e+2, -411936.0, -490892.4, 14.79855, 0.0005436523, 0.00022446846, -411936.0, -62683.383, 0.0, 10.003543, 9.900279 
5.2952296e+3, 2.7426288e+2, -312673.7, -391300.66, 6.900953, 0.00054311746, -0.00012284548, -312673.7, -60449.22, 0.0, 10.00354, 9.900699 
5.295229e+3, 2.841555e+2, -226172.52, -317939.34, 12.389961, 0.00054265175, 0.00030734154, -226172.52, -70895.81, 0.0, 10.003538, 9.88381 
5.2952284e+3, 2.9404038e+2, -126484.62, -217636.08, 4.959384, 0.0005422781, -0.00017604275, -126484.62, -68079.586, 0.0, 10.003536, 9.884593 
5.295228e+3, 3.0395308e+2, -36879.402, -84850.1, 7.9012866, 0.0005419802, 0.00024672688, -36879.4, -36879.4, 0.0, 10.003535, 9.940403 
5.295227e+3, 3.1389537e+2, -35813.855, -82635.16, -0.2930209, 0.000541796, 0.000010772317, -35813.855, -35813.855, 0.0, 10.003535, 9.941898 
5.3052455e+3, 1.250508e+2, -1715360.9, -1723633.6, 4.6790237, 0.00055630185, 0.00016156925, -1715360.9, -857.74396, 0.0, 10.003681, 9.992717 
5.305245e+3, 1.3504337e+2, -1618002.4, -1626866.5, -2.5566885, 0.0005556582, -0.000016680582, -1618002.4, -1426.4099, 0.0, 10.00368, 9.991934 
5.305244e+3, 1.4502941e+2, -1529906.4, -1547577.4, 6.0594006, 0.00055533135, 0.00024507925, -1529906.4, -11193.532, 0.0, 10.003679, 9.980266 
5.3052425e+3, 1.5500964e+2, -1432200.3, -1450273.9, -1.4833914, 0.0005553105, 0.000055913457, -1432200.3, -11293.75, 0.0, 10.003678, 9.979734 
5.305242e+3, 1.6498321e+2, -1344253.0, -1371589.3, 7.4983883, 0.00055507093, 0.00013793484, -1344253.0, -21087.668, 0.0, 10.003677, 9.967547 
5.3052413e+3, 1.7495082e+2, -1246318.6, -1273968.9, 0.3114812, 0.000554614, 0.00003423242, -1246318.6, -20835.793, 0.0, 10.0036745, 9.9671335 
5.30524e+3, 1.8491177e+2, -1158256.0, -1195398.1, 9.953559, 0.0005540575, 0.00017862399, -1158256.0, -30390.57, 0.0, 10.003671, 9.954696 
5.305239e+3, 1.9486651e+2, -1060132.5, -1097534.0, 1.9840275, 0.00055339676, 0.000045585984, -1060132.5, -29823.428, 0.0, 10.003666, 9.954352 
5.3052384e+3, 2.0481455e+2, -971988.4, -1019156.94, 12.133508, 0.0005528557, 0.00016631883, -971988.4, -39170.332, 0.0, 10.003662, 9.941591 
5.305238e+3, 2.1475619e+2, -873726.94, -921154.4, 3.8816457, 0.00055244163, -0.000029001365, -873726.94, -38336.88, 0.0, 10.003657, 9.941251 
5.3052366e+3, 2.2469114e+2, -785460.5, -842911.25, 13.161844, 0.00055184914, 0.00021682226, -785460.5, -47432.805, 0.0, 10.003654, 9.928208 
5.305236e+3, 2.346194e+2, -687051.7, -744754.94, 5.223154, 0.00055105676, 0.0000035774112, -687051.7, -46321.082, 0.0, 10.00365, 9.927877 
5.3052354e+3, 2.4454072e+2, -598746.7, -666829.6, 13.852177, 0.0005504336, 0.00016406275, -598746.7, -55245.07, 0.0, 10.003647, 9.914436 
5.305234e+3, 2.5445527e+2, -500017.8, -568175.8, 5.778138, 0.0005500089, -0.000019821055, -500017.8, -53678.89, 0.0, 10.003643, 9.914336 
5.3052336e+3, 2.6436272e+2, -411805.9, -490853.94, 13.765976, 0.00054956466, 0.00022470222, -411805.88, -62560.145, 0.0, 10.003641, 9.900256 
5.3052336e+3, 2.7426356e+2, -312543.9, -391262.75, 5.7881546, 0.0005490946, -0.00012260891, -312543.9, -60326.066, 0.0, 10.003638, 9.900676 
5.3052324e+3, 2.8415614e+2, -226041.67, -317900.0, 11.635179, 0.00054866506, 0.00030751995, -226041.67, -70771.39, 0.0, 10.003636, 9.883788 
5.305232e+3, 2.9404098e+2, -126353.44, -217596.88, 4.310566, 0.0005482887, -0.00017600527, -126353.44, -67954.62, 0.0, 10.003635, 9.884571 
5.305231e+3, 3.039537e+2, -36751.246, -84816.95, 7.636584, 0.00054802565, 0.00024675904, -36751.246, -36751.246, 0.0, 10.003635, 9.940377 
5.305231e+3, 3.1389597e+2, -35685.203, -82602.24, -0.8480998, 0.00054793205, 0.00001100046, -35685.203, -35685.203, 0.0, 10.003635, 9.941872 
5.3152496e+3, 1.2505178e+2, -1715376.8, -1723664.6, 4.2950454, 0.00056168385, 0.00016064949, -1715376.8, -883.30817, 0.0, 10.003682, 9.992698 
5.3152484e+3, 1.3504434e+2, -1618018.0, -1626897.3, -2.9397254, 0.0005614425, -0.000015735446, -1618018.0, -1451.635, 0.0, 10.003681, 9.991914 
5.315248e+3, 1.4503035e+2, -1529922.4, -1547609.1, 5.557037, 0.00056121696, 0.00024560664, -1529922.4, -11218.985, 0.0, 10.00368, 9.980246 
5.3152466e+3, 1.5501058e+2, -1432216.1, -1450305.5, -1.9870274, 0.0005610007, 0.000053776766, -1432216.1, -11318.835, 0.0, 10.003679, 9.979714 
5.3152454e+3, 1.6498414e+2, -1344268.0, -1371619.3, 6.3198657, 0.000560733, 0.00013597214, -1344268.0, -21111.639, 0.0, 10.003677, 9.967528 
5.315245e+3, 1.7495172e+2, -1246333.4, -1273998.8, -0.8532657, 0.00056041504, 0.00003528147, -1246333.4, -20859.422, 0.0, 10.0036745, 9.967114 
5.3152436e+3, 1.8491265e+2, -1158272.5, -1195431.5, 8.126239, 0.0005599032, 0.00018029474, -1158272.5, -30415.71, 0.0, 10.003672, 9.954674 
5.315243e+3, 1.9486737e+2, -1060148.8, -1097567.1, 0.15264119, 0.00055919035, 0.00004542571, -1060148.8, -29848.13, 0.0, 10.003667, 9.954331 
5.3152424e+3, 2.048154e+2, -972005.4, -1019191.7, 10.429207, 0.00055861584, 0.00016568183, -972005.4, -39195.547, 0.0, 10.003662, 9.941569 
5.315241e+3, 2.1475701e+2, -873743.75, -921188.94, 2.1892202, 0.00055818795, -0.000028674394, -873743.75, -38361.67, 0.0, 10.003658, 9.941228 
5.3152406e+3, 2.2469193e+2, -785476.9, -842945.2, 11.660808, 0.0005576798, 0.0002173863, -785476.8, -47456.934, 0.0, 10.0036545, 9.928186 
5.31524e+3, 2.3462017e+2, -687067.8, -744788.6, 3.7237577, 0.00055708113, 0.00000356887, -687067.8, -46344.77, 0.0, 10.003651, 9.9278555 
5.315239e+3, 2.4454147e+2, -598763.3, -666864.5, 12.575527, 0.0005564894, 0.00016389102, -598763.3, -55269.03, 0.0, 10.003647, 9.914413 
5.315238e+3, 2.54456e+2, -500034.25, -568210.56, 4.5157456, 0.000555905, -0.000019673553, -500034.25, -53702.434, 0.0, 10.003644, 9.914313 
5.3152376e+3, 2.6436344e+2, -411822.44, -490889.13, 12.770292, 0.00055542437, 0.00022497126, -411822.4, -62583.56, 0.0, 10.003641, 9.900233 
5.315237e+3, 2.7426422e+2, -312560.22, -391297.72, 4.8110905, 0.00055507314, -0.00012246742, -312560.22, -60349.035, 0.0, 10.003639, 9.900652 
5.3152364e+3, 2.841568e+2, -226056.88, -317932.97, 11.10994, 0.0005547588, 0.0003075956, -226056.88, -70793.04, 0.0, 10.003637, 9.883766 
5.315235e+3, 2.9404163e+2, -126368.36, -217629.45, 3.8198543, 0.00055449206, -0.00017591131, -126368.36, -67975.76, 0.0, 10.003636, 9.884549 
5.3152347e+3, 3.039543e+2, -36768.78, -84855.08, 7.6041427, 0.0005541833, 0.0002468601, -36768.78, -36768.78, 0.0, 10.003635, 9.9403515 
5.3152347e+3, 3.1389654e+2, -35703.05, -82641.02, -0.81916904, 0.0005538159, 0.00001109257, -35703.05, -35703.05, 0.0, 10.003636, 9.941846 
5.325253e+3, 1.250528e+2, -1715239.8, -1723613.9, 3.609773, 0.0005672786, 0.00016085604, -1715239.8, -756.08295, 0.0, 10.003777, 9.992678 
5.325252e+3, 1.3504532e+2, -1617881.8, -1626847.3, -3.7692554, 0.0005671972, -0.000016011267, -1617881.8, -1324.9128, 0.0, 10.003776, 9.991895 
5.325251e+3, 1.4503132e+2, -1529787.6, -1547561.1, 4.3242154, 0.0005670275, 0.00024528106, -1529787.6, -11093.581, 0.0, 10.003775, 9.980226 
5.3252506e+3, 1.550115e+2, -1432082.6, -1450258.5, -3.4694765, 0.00056676444, 0.00005382606, -1432082.6, -11194.609, 0.0, 10.003774, 9.979694 
5.3252494e+3, 1.6498506e+2, -1344133.5, -1371569.8, 4.3906255, 0.00056648714, 0.00013609037, -1344133.5, -20986.242, 0.0, 10.003772, 9.967509 
5.325248e+3, 1.7495263e+2, -1246199.4, -1273949.8, -2.3194132, 0.0005661971, 0.000035163735, -1246199.4, -20734.219, 0.0, 10.003769, 9.967095 
5.3252476e+3, 1.8491355e+2, -1158140.6, -1195387.5, 6.3121815, 0.0005657221, 0.00018020105, -1158140.6, -30292.443, 0.0, 10.003766, 9.954653 
5.3252465e+3, 1.9486822e+2, -1060016.1, -1097523.1, -1.7813429, 0.0005650553, 0.00004562218, -1060016.1, -29723.916, 0.0, 10.003762, 9.954309 
5.325246e+3, 2.0481624e+2, -971872.56, -1019148.56, 8.596584, 0.00056447514, 0.000165926, -971872.56, -39070.973, 0.0, 10.003759, 9.941547 
5.325245e+3, 2.1475783e+2, -873610.94, -921146.2, 0.63131166, 0.0005639867, -0.000028639886, -873610.94, -38236.88, 0.0, 10.003756, 9.941206 
5.325244e+3, 2.2469272e+2, -785344.25, -842903.25, 10.2783575, 0.00056349783, 0.0002173666, -785344.25, -47332.1, 0.0, 10.003752, 9.9281645 
5.3252435e+3, 2.3462094e+2, -686935.44, -744747.2, 2.067166, 0.0005630073, 0.0000036677914, -686935.44, -46219.93, 0.0, 10.003748, 9.927833 
5.325243e+3, 2.4454223e+2, -598631.2, -666824.0, 11.018981, 0.00056247576, 0.00016404482, -598631.2, -55144.234, 0.0, 10.003745, 9.914391 
5.325242e+3, 2.5445673e+2, -499902.3, -568170.5, 3.0202906, 0.000561895, -0.000019539928, -499902.3, -53577.594, 0.0, 10.003742, 9.91429 
5.325241e+3, 2.6436412e+2, -411690.7, -490850.06, 11.569967, 0.0005614229, 0.00022504898, -411690.7, -62458.695, 0.0, 10.00374, 9.900209 
5.3252405e+3, 2.742649e+2, -312428.47, -391259.1, 3.5771005, 0.00056108646, -0.00012249025, -312428.47, -60223.938, 0.0, 10.003738, 9.900629 
5.32524e+3, 2.8415748e+2, -225924.27, -317893.13, 10.120267, 0.0005607986, 0.0003076133, -225924.27, -70666.836, 0.0, 10.003737, 9.883743 
5.3252393e+3, 2.9404226e+2, -126236.0, -217590.05, 2.5432208, 0.0005605741, -0.00017566243, -126236.0, -67849.6, 0.0, 10.0037365, 9.884527 
5.325239e+3, 3.0395493e+2, -36639.527, -84821.52, 6.779687, 0.00056029833, 0.00024709984, -36639.523, -36639.523, 0.0, 10.0037365, 9.940326 
5.325238e+3, 3.1389713e+2, -35573.01, -82607.53, -1.3382294, 0.0005599501, 0.000010969852, -35573.01, -35573.01, 0.0, 10.003737, 9.941819 
5.335257e+3, 1.250538e+2, -1715255.8, -1723645.4, 3.256464, 0.00057307124, 0.00016208018, -1715255.8, -781.8845, 0.0, 10.0037775, 9.992658 
5.335256e+3, 1.3504629e+2, -1617897.6, -1626878.6, -4.123739, 0.00057293015, -0.000017394806, -1617897.6, -1350.3624, 0.0, 10.003777, 9.991875 
5.3352547e+3, 1.4503227e+2, -1529804.1, -1547593.9, 3.689036, 0.0005727751, 0.00024418236, -1529804.1, -11119.509, 0.0, 10.003776, 9.980205 
5.335254e+3, 1.5501246e+2, -1432099.1, -1450291.3, -4.0995293, 0.0005725996, 0.0000558567, -1432099.1, -11220.193, 0.0, 10.003775, 9.979673 
5.335253e+3, 1.6498598e+2, -1344147.4, -1371597.6, 3.3264332, 0.00057232956, 0.0001380938, -1344147.4, -21009.1, 0.0, 10.003773, 9.967492 
5.3352517e+3, 1.7495352e+2, -1246213.1, -1273977.6, -3.3912802, 0.00057196664, 0.000033985725, -1246213.1, -20756.725, 0.0, 10.00377, 9.967078 
5.3352517e+3, 1.8491441e+2, -1158157.3, -1195421.3, 4.844818, 0.00057152164, 0.00017850552, -1158157.3, -30317.752, 0.0, 10.003767, 9.954631 
5.3352505e+3, 1.9486909e+2, -1060032.6, -1097556.6, -3.2457776, 0.0005709901, 0.000046141315, -1060032.6, -29748.83, 0.0, 10.003763, 9.9542885 
5.3352493e+3, 2.0481707e+2, -971889.0, -1019182.2, 7.0795293, 0.0005704297, 0.00016696862, -971889.0, -39095.58, 0.0, 10.003759, 9.941525 
5.335249e+3, 2.1475863e+2, -873627.1, -921179.56, -0.8889531, 0.0005698384, -0.000028871833, -873627.1, -38261.043, 0.0, 10.003756, 9.941184 
5.335248e+3, 2.246935e+2, -785361.1, -842938.25, 8.899331, 0.00056930963, 0.00021681622, -785361.1, -47356.742, 0.0, 10.003753, 9.928142 
5.335247e+3, 2.346217e+2, -686952.1, -744782.0, 0.6983366, 0.0005688495, 0.0000038633943, -686952.1, -46244.152, 0.0, 10.003749, 9.92781 
5.3352463e+3, 2.4454297e+2, -598647.7, -666858.75, 9.887254, 0.00056840427, 0.00016449312, -598647.7, -55168.07, 0.0, 10.003746, 9.914368 
5.335246e+3, 2.5445744e+2, -499918.63, -568205.0, 1.8976281, 0.0005679757, -0.000019419998, -499918.63, -53600.984, 0.0, 10.003743, 9.914268 
5.335245e+3, 2.6436484e+2, -411707.28, -490885.38, 10.762512, 0.0005675529, 0.00022495197, -411707.28, -62482.152, 0.0, 10.003741, 9.900187 
5.335244e+3, 2.742656e+2, -312444.84, -391294.25, 2.7894278, 0.0005671367, -0.00012266301, -312444.84, -60246.97, 0.0, 10.003739, 9.900605 
5.335244e+3, 2.841581e+2, -225940.05, -317927.28, 9.712581, 0.00056679465, 0.00030757775, -225940.05, -70689.03, 0.0, 10.003738, 9.88372 
5.3352433e+3, 2.9404292e+2, -126251.516, -217623.89, 2.1739612, 0.0005665508, -0.00017527399, -126251.516, -67871.305, 0.0, 10.003737, 9.884504 
5.335242e+3, 3.0395553e+2, -36656.67, -84858.86, 7.0170774, 0.0005663797, 0.0002474643, -36656.668, -36656.668, 0.0, 10.003737, 9.9403 
5.3352416e+3, 3.138977e+2, -35590.38, -82645.32, -1.0376309, 0.0005663178, 0.000010651316, -35590.38, -35590.38, 0.0, 10.003738, 9.941793 
5.3452605e+3, 1.2505479e+2, -1715114.4, -1723592.9, 3.5017953, 0.0005790327, 0.00016211705, -1715114.4, -650.3142, 0.0, 10.003875, 9.992638 
5.34526e+3, 1.3504727e+2, -1617757.9, -1626827.4, -4.092932, 0.00057871174, -0.000017305852, -1617757.9, -1220.2521, 0.0, 10.003874, 9.991855 
5.345259e+3, 1.4503324e+2, -1529666.3, -1547544.5, 3.3792474, 0.0005785108, 0.0002444086, -1529666.3, -10990.996, 0.0, 10.003872, 9.980184 
5.3452575e+3, 1.5501338e+2, -1431962.5, -1450242.9, -4.3836236, 0.00057842064, 0.00005630476, -1431962.5, -11092.842, 0.0, 10.003871, 9.979652 
5.345257e+3, 1.649869e+2, -1344009.8, -1371546.4, 2.521633, 0.0005781795, 0.00013845092, -1344009.8, -20880.418, 0.0, 10.003868, 9.967474 
5.345256e+3, 1.7495443e+2, -1246076.0, -1273927.0, -4.5931816, 0.000577789, 0.000033938577, -1246076.0, -20628.486, 0.0, 10.003866, 9.967059 
5.345255e+3, 1.849153e+2, -1158022.9, -1195375.9, 3.1934474, 0.00057735236, 0.00017830354, -1158022.9, -30191.9, 0.0, 10.003863, 9.95461 
5.3452545e+3, 1.9486994e+2, -1059898.0, -1097511.6, -4.7999463, 0.0005768661, 0.00004604107, -1059898.0, -29622.635, 0.0, 10.00386, 9.954267 
5.3452533e+3, 2.0481792e+2, -971754.44, -1019138.06, 5.416738, 0.00057633105, 0.00016697621, -971754.44, -38969.223, 0.0, 10.003858, 9.941504 
5.345252e+3, 2.1475944e+2, -873492.44, -921135.8, -2.7717495, 0.0005757437, -0.000028750444, -873492.44, -38134.34, 0.0, 10.003854, 9.941162 
5.345252e+3, 2.246943e+2, -785226.7, -842895.6, 7.066538, 0.00057522784, 0.0002169563, -785226.7, -47230.06, 0.0, 10.003851, 9.928119 
5.345251e+3, 2.3462248e+2, -686817.8, -744739.8, -1.0112016, 0.00057479047, 0.0000039166757, -686817.8, -46117.36, 0.0, 10.003848, 9.927788 
5.34525e+3, 2.4454372e+2, -598513.6, -666817.44, 8.3775835, 0.00057438, 0.0001644939, -598513.6, -55041.293, 0.0, 10.003845, 9.914345 
5.34525e+3, 2.544582e+2, -499784.78, -568164.25, 0.21993478, 0.0005740001, -0.000019431489, -499784.78, -53474.24, 0.0, 10.003843, 9.914245 
5.345249e+3, 2.6436555e+2, -411573.84, -490845.78, 9.24819, 0.00057361263, 0.00022498892, -411573.84, -62355.566, 0.0, 10.003841, 9.900163 
5.345248e+3, 2.7426627e+2, -312311.63, -391255.16, 1.156572, 0.0005732146, -0.00012250134, -312311.63, -60120.355, 0.0, 10.0038395, 9.900581 
5.3452474e+3, 2.841588e+2, -225805.94, -317887.0, 8.440046, 0.0005728799, 0.00030770065, -225805.92, -70561.31, 0.0, 10.003839, 9.8836975 
5.345247e+3, 2.940435e+2, -126117.375, -217583.9, 1.0386037, 0.0005726289, -0.00017541157, -126117.375, -67743.336, 0.0, 10.003839, 9.884481 
5.345246e+3, 3.0395615e+2, -36525.816, -84824.75, 6.3297777, 0.0005724933, 0.00024730986, -36525.816, -36525.816, 0.0, 10.0038395, 9.940274 
5.3452456e+3, 3.138983e+2, -35459.684, -82611.72, -2.0334227, 0.00057253, 0.00001084083, -35459.684, -35459.684, 0.0, 10.00384, 9.941767 
5.3552645e+3, 1.2505578e+2, -1715130.9, -1723625.4, 2.944709, 0.0005851519, 0.00016108189, -1715130.9, -676.53955, 0.0, 10.003876, 9.992618 
5.355264e+3, 1.3504826e+2, -1617774.3, -1626859.8, -4.6521096, 0.00058454263, -0.000015887164, -1617774.3, -1246.1522, 0.0, 10.003875, 9.991835 
5.355263e+3, 1.4503418e+2, -1529682.8, -1547577.1, 2.6020877, 0.000584241, 0.00024583025, -1529682.8, -11016.812, 0.0, 10.003873, 9.980164 
5.3552616e+3, 1.5501432e+2, -1431978.8, -1450275.4, -5.161179, 0.0005842342, 0.000055320656, -1431978.8, -11118.269, 0.0, 10.003871, 9.979632 
5.355261e+3, 1.649878e+2, -1344024.4, -1371576.0, 1.4945242, 0.00058404123, 0.00013731908, -1344024.4, -20904.07, 0.0, 10.003869, 9.967455 
5.35526e+3, 1.7495532e+2, -1246090.6, -1273956.5, -5.622351, 0.00058366416, 0.00003491379, -1246090.6, -20651.807, 0.0, 10.003867, 9.967041 
5.3552586e+3, 1.8491617e+2, -1158039.3, -1195409.1, 1.9532168, 0.0005832165, 0.0001794514, -1158039.3, -30216.928, 0.0, 10.003864, 9.954588 
5.3552586e+3, 1.9487078e+2, -1059914.3, -1097544.8, -6.045074, 0.0005826941, 0.000045378976, -1059914.3, -29647.25, 0.0, 10.003861, 9.954246 
5.3552574e+3, 2.0481874e+2, -971771.25, -1019172.56, 4.119216, 0.00058218936, 0.00016604616, -971771.25, -38994.21, 0.0, 10.003858, 9.941482 
5.355256e+3, 2.1476027e+2, -873509.06, -921170.06, -4.066969, 0.0005817029, -0.000028310093, -873509.06, -38158.918, 0.0, 10.003855, 9.94114 
5.3552556e+3, 2.2469509e+2, -785243.3, -842930.06, 5.856012, 0.0005812478, 0.00021772037, -785243.3, -47254.418, 0.0, 10.003852, 9.928097 
5.355255e+3, 2.3462324e+2, -686834.2, -744774.06, -2.22152, 0.0005808263, 0.0000038399517, -686834.2, -46141.277, 0.0, 10.003849, 9.927765 
5.355254e+3, 2.4454445e+2, -598530.44, -666852.75, 7.3697996, 0.0005804037, 0.00016408841, -598530.44, -55065.41, 0.0, 10.003846, 9.914322 
5.355253e+3, 2.544589e+2, -499801.4, -568199.4, -0.77698195, 0.0005799788, -0.000019562944, -499801.4, -53497.926, 0.0, 10.003844, 9.914221 
5.3552526e+3, 2.6436624e+2, -411590.7, -490881.63, 8.588956, 0.0005796138, 0.00022514633, -411590.7, -62379.25, 0.0, 10.003842, 9.900139 
5.355252e+3, 2.7426693e+2, -312328.25, -391290.84, 0.5195598, 0.0005793229, -0.000122037505, -312328.25, -60143.6, 0.0, 10.00384, 9.900558 
5.3552514e+3, 2.8415942e+2, -225821.52, -317920.78, 8.224797, 0.0005790517, 0.00030796614, -225821.52, -70583.29, 0.0, 10.0038395, 9.883676 
5.35525e+3, 2.9404417e+2, -126132.67, -217617.31, 0.85845095, 0.0005788046, -0.00017602718, -126132.67, -67764.8, 0.0, 10.0038395, 9.8844595 
5.35525e+3, 3.0395675e+2, -36543.56, -84863.35, 6.6075974, 0.0005786418, 0.000246684, -36543.56, -36543.56, 0.0, 10.0038395, 9.940248 
5.3552496e+3, 3.1389886e+2, -35477.723, -82650.945, -1.6995988, 0.00057860604, 0.000011490481, -35477.723, -35477.723, 0.0, 10.00384, 9.94174 
5.3652686e+3, 1.2505677e+2, -1714986.3, -1723571.8, 3.5470695, 0.0005911179, 0.00016125386, -1714986.3, -541.71387, 0.0, 10.003976, 9.992597 
5.3652674e+3, 1.3504922e+2, -1617631.4, -1626807.5, -4.2941823, 0.0005905065, -0.000015658228, -1617631.4, -1112.9227, 0.0, 10.003974, 9.991814 
5.365267e+3, 1.4503515e+2, -1529541.4, -1547526.3, 2.599703, 0.00059016846, 0.00024606433, -1529541.4, -10884.823, 0.0, 10.003972, 9.980143 
5.3652656e+3, 1.5501526e+2, -1431838.6, -1450225.4, -5.36572, 0.0005900914, 0.00005550797, -1431838.6, -10987.244, 0.0, 10.00397, 9.979611 
5.3652644e+3, 1.6498873e+2, -1343883.5, -1371523.9, 0.9161924, 0.0005898785, 0.00013746279, -1343883.5, -20772.082, 0.0, 10.003967, 9.967436 
5.365264e+3, 1.749562e+2, -1245950.4, -1273905.1, -6.3694177, 0.00058953144, 0.00003501791, -1245950.4, -20520.355, 0.0, 10.003965, 9.967022 
5.3652626e+3, 1.8491705e+2, -1157901.4, -1195362.4, 0.8398519, 0.0005890999, 0.000179503, -1157901.4, -30087.7, 0.0, 10.0039625, 9.954567 
5.365262e+3, 1.9487165e+2, -1059776.8, -1097498.5, -7.4188075, 0.0005885793, 0.000045364108, -1059776.8, -29518.105, 0.0, 10.00396, 9.954224 
5.3652614e+3, 2.0481957e+2, -971634.2, -1019127.44, 2.567702, 0.00058811164, 0.00016603696, -971634.2, -38865.332, 0.0, 10.003958, 9.941459 
5.36526e+3, 2.1476108e+2, -873372.25, -921125.44, -5.620146, 0.0005876997, -0.00002823648, -873372.25, -38030.047, 0.0, 10.003955, 9.941118 
5.3652596e+3, 2.2469588e+2, -785106.8, -842886.56, 4.2891827, 0.00058727985, 0.00021780262, -785106.8, -47125.695, 0.0, 10.003952, 9.928074 
5.365259e+3, 2.3462401e+2, -686697.94, -744731.06, -3.9962313, 0.00058685, 0.000003848092, -686697.94, -46012.547, 0.0, 10.003949, 9.927742 
5.365258e+3, 2.4454519e+2, -598394.5, -666810.9, 5.6738853, 0.0005864306, 0.00016409438, -598394.5, -54936.797, 0.0, 10.003947, 9.914298 
5.365257e+3, 2.5445962e+2, -499665.63, -568158.0, -2.5155232, 0.00058602245, -0.0000194744, -499665.63, -53369.195, 0.0, 10.003945, 9.914198 
5.365256e+3, 2.6436695e+2, -411455.28, -490841.38, 7.0787544, 0.000585687, 0.00022522008, -411455.28, -62250.684, 0.0, 10.003943, 9.900115 
5.365256e+3, 2.742676e+2, -312193.28, -391251.22, -1.0602615, 0.0005854418, -0.00012210065, -312193.28, -60015.23, 0.0, 10.0039425, 9.900535 
5.3652555e+3, 2.8416008e+2, -225685.84, -317879.88, 6.933889, 0.0005852025, 0.00030789193, -225685.84, -70453.98, 0.0, 10.003942, 9.883653 
5.365254e+3, 2.9404476e+2, -125997.36, -217576.89, -0.57921296, 0.0005849687, -0.00017594252, -125997.36, -67635.62, 0.0, 10.003942, 9.884437 
5.3652537e+3, 3.0395737e+2, -36411.66, -84829.17, 5.610033, 0.00058480265, 0.00024677173, -36411.66, -36411.66, 0.0, 10.0039425, 9.940221 
5.3652537e+3, 3.1389946e+2, -35345.242, -82616.95, -2.6103196, 0.00058473943, 0.000011352768, -35345.242, -35345.242, 0.0, 10.003944, 9.941713 
5.3752726e+3, 1.2505779e+2, -1715003.1, -1723605.3, 2.7473874, 0.00059695175, 0.0001625113, -1715003.1, -568.5055, 0.0, 10.003977, 9.992576 
5.3752714e+3, 1.3505022e+2, -1617648.3, -1626840.8, -5.0903845, 0.00059659564, -0.000016502347, -1617648.3, -1139.326, 0.0, 10.003975, 9.991793 
5.37527e+3, 1.450361e+2, -1529558.1, -1547559.8, 1.7335219, 0.00059627905, 0.000245228, -1529558.1, -10911.023, 0.0, 10.003973, 9.980122 
5.3752697e+3, 1.550162e+2, -1431855.3, -1450258.6, -6.236449, 0.0005959934, 0.000056750614, -1431855.3, -11013.076, 0.0, 10.003971, 9.97959 
5.3752685e+3, 1.6498964e+2, -1343898.4, -1371554.3, -0.09452009, 0.0005956989, 0.00013875506, -1343898.4, -20796.059, 0.0, 10.003968, 9.967416 
5.375268e+3, 1.7495711e+2, -1245965.1, -1273935.3, -7.3832645, 0.0005953971, 0.000034335084, -1245965.1, -20543.967, 0.0, 10.003966, 9.967002 
5.375267e+3, 1.8491793e+2, -1157918.4, -1195396.6, -0.28006968, 0.00059500616, 0.00017856505, -1157918.4, -30113.205, 0.0, 10.003963, 9.954545 
5.375266e+3, 1.9487251e+2, -1059793.5, -1097532.6, -8.540192, 0.00059452164, 0.00004593258, -1059793.5, -29543.22, 0.0, 10.003961, 9.954202 
5.375265e+3, 2.0482042e+2, -971651.0, -1019161.9, 1.4101977, 0.00059409713, 0.00016685769, -971651.0, -38890.27, 0.0, 10.003958, 9.941437 
5.375264e+3, 2.1476188e+2, -873388.8, -921159.7, -6.7812023, 0.00059373584, -0.000028495177, -873388.8, -38054.555, 0.0, 10.003955, 9.941095 
5.3752637e+3, 2.2469667e+2, -785123.8, -842921.9, 3.2174983, 0.00059332827, 0.0002172683, -785123.8, -47150.406, 0.0, 10.003953, 9.928051 
5.3752625e+3, 2.3462477e+2, -686714.75, -744766.1, -5.0645423, 0.000592868, 0.0000039319802, -686714.75, -46036.832, 0.0, 10.00395, 9.927719 
5.375262e+3, 2.4454595e+2, -598411.44, -666846.44, 4.838882, 0.0005924656, 0.00016447107, -598411.44, -54960.97, 0.0, 10.003948, 9.914275 
5.3752613e+3, 2.5446033e+2, -499682.28, -568193.3, -3.3415074, 0.00059213035, -0.000019187997, -499682.28, -53392.93, 0.0, 10.003946, 9.914174 
5.37526e+3, 2.6436764e+2, -411472.25, -490877.53, 6.519388, 0.00059183105, 0.0002252172, -411472.25, -62274.48, 0.0, 10.003944, 9.900091 
5.3752595e+3, 2.7426827e+2, -312210.06, -391287.22, -1.6009033, 0.00059157575, -0.00012264152, -312210.06, -60038.58, 0.0, 10.003943, 9.90051 
5.3752595e+3, 2.8416073e+2, -225701.73, -317914.34, 6.8153367, 0.0005913398, 0.0003075096, -225701.73, -70476.22, 0.0, 10.0039425, 9.88363 
5.3752583e+3, 2.9404542e+2, -126012.97, -217610.98, -0.6639539, 0.0005911277, -0.00017522497, -126012.97, -67657.36, 0.0, 10.0039425, 9.884414 
5.375258e+3, 3.0395794e+2, -36429.363, -84867.71, 6.1091576, 0.0005909802, 0.0002475042, -36429.363, -36429.363, 0.0, 10.003943, 9.940194 
5.375257e+3, 3.1390002e+2, -35363.23, -82656.055, -2.0396512, 0.0005909308, 0.000010501059, -35363.23, -35363.23, 0.0, 10.003945, 9.941687 
5.385276e+3, 1.2505879e+2, -1714855.9, -1723550.8, 3.4550657, 0.00060304976, 0.00016292585, -1714855.9, -431.01773, 0.0, 10.004079, 9.992555 
5.3852755e+3, 1.3505119e+2, -1617502.1, -1626787.3, -4.465421, 0.0006026456, -0.000016396525, -1617502.1, -1002.88086, 0.0, 10.004076, 9.991772 
5.385274e+3, 1.4503707e+2, -1529413.5, -1547507.9, 2.1007433, 0.00060228247, 0.00024529494, -1529413.5, -10775.756, 0.0, 10.004074, 9.9801 
5.3852737e+3, 1.5501714e+2, -1431711.6, -1450207.8, -6.212669, 0.0006019514, 0.00005704382, -1431711.6, -10878.657, 0.0, 10.004072, 9.9795685 
5.385273e+3, 1.6499056e+2, -1343753.9, -1371500.8, -0.47227532, 0.00060162786, 0.00013905285, -1343753.9, -20660.545, 0.0, 10.004069, 9.967397 
5.385272e+3, 1.74958e+2, -1245821.6, -1273882.8, -7.9828887, 0.00060131366, 0.000034415956, -1245821.6, -20409.215, 0.0, 10.004067, 9.966983 
5.385271e+3, 1.849188e+2, -1157777.5, -1195348.9, -1.1163163, 0.00060095015, 0.00017858531, -1157777.5, -29980.912, 0.0, 10.004065, 9.954522 
5.38527e+3, 1.9487336e+2, -1059653.1, -1097485.5, -9.525336, 0.0006005337, 0.000046052664, -1059653.1, -29411.254, 0.0, 10.004062, 9.954179 
5.385269e+3, 2.0482124e+2, -971511.2, -1019115.75, 0.20774011, 0.00060014194, 0.00016697773, -971511.2, -38758.64, 0.0, 10.00406, 9.941414 
5.3852683e+3, 2.147627e+2, -873249.5, -921114.2, -8.2215185, 0.0005997758, -0.000028481572, -873249.5, -37923.176, 0.0, 10.004057, 9.941073 
5.385268e+3, 2.2469746e+2, -784985.06, -842877.56, 1.7345871, 0.00059937756, 0.00021726519, -784985.06, -47019.34, 0.0, 10.004054, 9.928027 
5.3852665e+3, 2.3462555e+2, -686576.1, -744722.4, -6.638003, 0.00059894216, 0.0000040121768, -686576.1, -45905.73, 0.0, 10.004052, 9.927696 
5.385266e+3, 2.4454668e+2, -598273.3, -666803.75, 3.3210979, 0.0005985725, 0.00016456195, -598273.3, -54830.105, 0.0, 10.00405, 9.914251 
5.3852654e+3, 2.5446105e+2, -499544.75, -568151.4, -5.0225277, 0.0005982789, -0.000019172, -499544.75, -53262.402, 0.0, 10.004048, 9.914151 
5.385265e+3, 2.6436836e+2, -411335.2, -490836.66, 5.0268154, 0.00059799006, 0.00022519068, -411335.2, -62144.195, 0.0, 10.004047, 9.900067 
5.3852636e+3, 2.7426895e+2, -312073.22, -391246.88, -3.1325347, 0.00059770624, -0.00012266969, -312073.22, -59908.28, 0.0, 10.004046, 9.900486 
5.385263e+3, 2.841614e+2, -225564.31, -317873.13, 5.5452385, 0.00059746375, 0.00030749835, -225564.31, -70345.11, 0.0, 10.004046, 9.883606 
5.385263e+3, 2.94046e+2, -125875.945, -217570.33, -2.1206915, 0.0005972749, -0.00017519468, -125875.945, -67526.44, 0.0, 10.004046, 9.88439 
5.385262e+3, 3.0395856e+2, -36295.848, -84832.664, 5.0619574, 0.00059717265, 0.0002475105, -36295.848, -36295.848, 0.0, 10.004047, 9.940168 
5.385261e+3, 3.1390056e+2, -35230.3, -82621.68, -2.9658859, 0.0005972006, 0.000010388272, -35230.3, -35230.3, 0.0, 10.004048, 9.94166 
5.395281e+3, 1.250598e+2, -1714873.0, -1723584.6, 2.5510051, 0.00060939055, 0.00016258337, -1714873.0, -457.95056, 0.0, 10.00408, 9.992534 
5.3952795e+3, 1.3505217e+2, -1617519.0, -1626820.9, -5.375928, 0.0006086661, -0.000015437769, -1617519.0, -1029.447, 0.0, 10.004077, 9.99175 
5.395279e+3, 1.4503802e+2, -1529431.0, -1547542.8, 1.1621076, 0.0006081955, 0.00024617228, -1529431.0, -10802.715, 0.0, 10.004075, 9.980078 
5.395278e+3, 1.5501808e+2, -1431729.0, -1450242.5, -7.1489806, 0.00060796546, 0.000056482568, -1431729.0, -10905.209, 0.0, 10.004073, 9.979547 
5.395277e+3, 1.6499148e+2, -1343769.4, -1371532.0, -1.5158198, 0.00060766016, 0.00013845607, -1343769.4, -20684.95, 0.0, 10.00407, 9.967377 
5.395276e+3, 1.7495891e+2, -1245836.8, -1273913.8, -9.030583, 0.0006072817, 0.00003518298, -1245836.8, -20433.26, 0.0, 10.004067, 9.966963 
5.395275e+3, 1.8491969e+2, -1157794.6, -1195383.8, -2.1726348, 0.00060693367, 0.00017946628, -1157794.6, -30006.686, 0.0, 10.0040655, 9.9545 
5.395274e+3, 1.9487423e+2, -1059670.1, -1097520.3, -10.585106, 0.0006066143, 0.00004576822, -1059670.1, -29436.617, 0.0, 10.004063, 9.954157 
5.3952736e+3, 2.0482208e+2, -971528.4, -1019151.1, -0.87184316, 0.0006062458, 0.00016646646, -971528.4, -38784.008, 0.0, 10.00406, 9.941391 
5.3952724e+3, 2.147635e+2, -873266.5, -921149.4, -9.302041, 0.0006058248, -0.000028223678, -873266.5, -37948.11, 0.0, 10.004058, 9.941051 
5.395272e+3, 2.2469825e+2, -785002.2, -842913.25, 0.8150499, 0.00060543313, 0.00021773932, -785002.2, -47044.184, 0.0, 10.004055, 9.928004 
5.395271e+3, 2.3462631e+2, -686593.06, -744757.8, -7.5554066, 0.00060507277, 0.0000040880645, -686593.06, -45930.145, 0.0, 10.004053, 9.927673 
5.39527e+3, 2.4454743e+2, -598290.5, -666839.94, 2.5489776, 0.0006047498, 0.00016439437, -598290.5, -54854.555, 0.0, 10.004051, 9.9142275 
5.395269e+3, 2.5446177e+2, -499561.72, -568187.4, -5.7868905, 0.00060446956, -0.00001940091, -499561.72, -53286.402, 0.0, 10.004049, 9.914127 
5.395269e+3, 2.64369e+2, -411352.25, -490873.06, 4.61658, 0.00060416816, 0.00022514183, -411352.25, -62168.04, 0.0, 10.004048, 9.900043 
5.395268e+3, 2.742696e+2, -312090.06, -391283.06, -3.5250285, 0.0006038393, -0.00012223602, -312090.06, -59931.684, 0.0, 10.004047, 9.900462 
5.395267e+3, 2.84162e+2, -225580.58, -317908.4, 5.521215, 0.0006035814, 0.00030782103, -225580.58, -70367.7, 0.0, 10.004046, 9.883583 
5.3952664e+3, 2.9404667e+2, -125891.96, -217605.28, -2.1049979, 0.0006034173, -0.00017578618, -125891.96, -67548.54, 0.0, 10.004047, 9.884367 
5.395266e+3, 3.0395913e+2, -36313.45, -84871.03, 5.5004277, 0.0006033843, 0.00024686017, -36313.45, -36313.45, 0.0, 10.004047, 9.940142 
5.395265e+3, 3.1390116e+2, -35248.11, -82660.48, -2.4894762, 0.0006035464, 0.00001094241, -35248.11, -35248.11, 0.0, 10.004049, 9.941633 
5.405285e+3, 1.250608e+2, -1714722.5, -1723529.3, 3.541645, 0.0006155634, 0.00016278401, -1714722.5, -317.36536, 0.0, 10.004184, 9.992512 
5.4052836e+3, 1.3505316e+2, -1617369.8, -1626766.5, -4.8168306, 0.0006147687, -0.000015058026, -1617369.8, -889.78894, 0.0, 10.004181, 9.991728 
5.405283e+3, 1.4503899e+2, -1529283.0, -1547489.9, 1.4063176, 0.00061427365, 0.00024650825, -1529283.0, -10664.18, 0.0, 10.004179, 9.980056 
5.405282e+3, 1.5501902e+2, -1431582.3, -1450190.6, -7.018621, 0.0006140638, 0.000056555542, -1431582.3, -10767.745, 0.0, 10.004176, 9.979524 
5.4052806e+3, 1.649924e+2, -1343621.8, -1371477.8, -1.5987422, 0.00061374536, 0.00013850156, -1343621.8, -20546.418, 0.0, 10.004173, 9.967357 
5.40528e+3, 1.7495981e+2, -1245690.0, -1273860.3, -9.365204, 0.00061332044, 0.00003543637, -1245690.0, -20295.266, 0.0, 10.004171, 9.966943 
5.4052794e+3, 1.8492056e+2, -1157650.5, -1195334.9, -2.7966633, 0.0006129844, 0.00017974104, -1157650.5, -29871.17, 0.0, 10.0041685, 9.954477 
5.405278e+3, 1.9487508e+2, -1059527.0, -1097472.3, -11.459587, 0.0006127366, 0.000045873083, -1059527.0, -29301.873, 0.0, 10.004166, 9.954134 
5.4052776e+3, 2.0482291e+2, -971385.94, -1019104.25, -1.8696631, 0.00061238435, 0.00016651569, -971385.94, -38649.695, 0.0, 10.004164, 9.941368 
5.4052764e+3, 2.1476431e+2, -873124.25, -921103.0, -10.447124, 0.0006119208, -0.000028108549, -873124.25, -37813.83, 0.0, 10.004161, 9.941027 
5.405276e+3, 2.2469902e+2, -784860.6, -842868.0, -0.42514616, 0.0006115431, 0.00021785406, -784860.6, -46910.332, 0.0, 10.004159, 9.92798 
5.4052746e+3, 2.3462707e+2, -686452.4, -744713.5, -9.0071, 0.00061125954, 0.0000041286303, -686452.4, -45796.926, 0.0, 10.004157, 9.9276495 
5.405274e+3, 2.4454816e+2, -598150.4, -666796.6, 1.1764832, 0.0006109495, 0.00016438623, -598150.4, -54721.684, 0.0, 10.004155, 9.914204 
5.4052734e+3, 2.5446248e+2, -499421.8, -568144.56, -7.2287107, 0.0006106073, -0.000019427756, -499421.8, -53153.496, 0.0, 10.004153, 9.9141035 
5.405272e+3, 2.6436973e+2, -411212.94, -490831.6, 3.287356, 0.00061030156, 0.00022515652, -411212.94, -62035.504, 0.0, 10.004152, 9.900019 
5.405272e+3, 2.742703e+2, -311951.5, -391242.4, -5.128335, 0.00061004056, -0.00012210419, -311951.5, -59799.65, 0.0, 10.004151, 9.900437 
5.4052716e+3, 2.8416267e+2, -225441.53, -317866.47, 4.1866064, 0.00060982426, 0.00030789306, -225441.53, -70234.95, 0.0, 10.004151, 9.883559 
5.4052705e+3, 2.9404727e+2, -125753.53, -217563.97, -3.2455187, 0.00060966605, -0.00017601372, -125753.53, -67416.17, 0.0, 10.004151, 9.884343 
5.40527e+3, 3.0395976e+2, -36178.695, -84835.99, 4.7425485, 0.000609607, 0.00024662763, -36178.695, -36178.695, 0.0, 10.004152, 9.940115 
5.405269e+3, 3.1390172e+2, -35113.137, -82625.79, -3.6821222, 0.0006096969, 0.000011140551, -35113.137, -35113.137, 0.0, 10.004154, 9.9416065 
5.415289e+3, 1.2506181e+2, -1714740.5, -1723564.9, 2.552978, 0.0006215922, 0.00016347012, -1714740.5, -345.2934, 0.0, 10.004185, 9.992489 
5.415288e+3, 1.3505416e+2, -1617387.6, -1626802.0, -5.8021426, 0.0006209511, -0.000015197869, -1617387.6, -917.3158, 0.0, 10.004182, 9.991706 
5.415287e+3, 1.4503995e+2, -1529300.8, -1547525.3, 0.35603794, 0.00062050583, 0.00024635866, -1529300.8, -10691.346, 0.0, 10.00418, 9.980033 
5.4152864e+3, 1.5501995e+2, -1431599.8, -1450225.8, -8.07296, 0.0006202436, 0.00005719623, -1431599.8, -10794.505, 0.0, 10.004177, 9.979502 
5.415285e+3, 1.6499332e+2, -1343637.6, -1371510.0, -2.6228304, 0.0006198838, 0.00013912175, -1343637.6, -20571.342, 0.0, 10.004174, 9.967336 
5.415284e+3, 1.749607e+2, -1245705.8, -1273892.3, -10.391725, 0.0006194288, 0.000035228346, -1245705.8, -20319.814, 0.0, 10.004172, 9.966922 
5.4152834e+3, 1.8492143e+2, -1157668.1, -1195370.9, -3.8967378, 0.0006191015, 0.00017947156, -1157668.1, -29897.426, 0.0, 10.004169, 9.954454 
5.415282e+3, 1.9487593e+2, -1059544.4, -1097508.0, -12.562032, 0.0006189021, 0.000046326346, -1059544.4, -29327.703, 0.0, 10.004167, 9.954111 
5.415281e+3, 2.0482375e+2, -971403.4, -1019140.2, -2.8119962, 0.00061855966, 0.00016706671, -971403.4, -38675.305, 0.0, 10.004164, 9.941345 
5.415281e+3, 2.1476512e+2, -873141.56, -921138.75, -11.390735, 0.000618065, -0.000028122466, -873141.5, -37839.016, 0.0, 10.004162, 9.941004 
5.41528e+3, 2.2469981e+2, -784878.1, -842904.5, -1.3546703, 0.000617708, 0.0002176454, -784878.1, -46935.56, 0.0, 10.00416, 9.927957 
5.4152787e+3, 2.3462783e+2, -686469.7, -744749.75, -9.935556, 0.00061750243, 0.0000041363805, -686469.7, -45821.7, 0.0, 10.004157, 9.927626 
5.415278e+3, 2.445489e+2, -598167.7, -666833.1, 0.558244, 0.00061717496, 0.00016452026, -598167.7, -54746.22, 0.0, 10.004156, 9.91418 
5.4152775e+3, 2.544632e+2, -499438.9, -568180.9, -7.837898, 0.0006167034, -0.000019273552, -499438.9, -53177.586, 0.0, 10.004154, 9.91408 
5.415277e+3, 2.6437038e+2, -411230.53, -490869.1, 2.9079874, 0.0006164008, 0.00022522759, -411230.53, -62059.844, 0.0, 10.004153, 9.899994 
5.4152757e+3, 2.7427092e+2, -311968.88, -391279.78, -5.487463, 0.0006163091, -0.00012224546, -311968.88, -59823.547, 0.0, 10.004152, 9.900413 
5.415275e+3, 2.841633e+2, -225457.52, -317901.2, 4.204723, 0.00061618554, 0.00030773817, -225457.52, -70257.2, 0.0, 10.004152, 9.883536 
5.415275e+3, 2.940479e+2, -125769.19, -217598.23, -3.2055182, 0.00061601604, -0.0001759138, -125769.19, -67437.875, 0.0, 10.004152, 9.88432 
5.4152745e+3, 3.0396032e+2, -36197.074, -84876.016, 5.2994213, 0.00061584543, 0.000246771, -36197.074, -36197.074, 0.0, 10.004153, 9.940087 
5.4152733e+3, 3.139023e+2, -35131.875, -82666.51, -3.0535014, 0.0006156777, 0.000011016225, -35131.875, -35131.875, 0.0, 10.004155, 9.941578 
5.4252934e+3, 1.2506282e+2, -1714586.8, -1723508.5, 3.4400816, 0.0006277598, 0.00016392818, -1714586.8, -201.39249, 0.0, 10.004292, 9.992467 
5.425292e+3, 1.3505514e+2, -1617235.3, -1626746.8, -5.0150046, 0.0006271773, -0.000015033604, -1617235.3, -774.6719, 0.0, 10.004289, 9.991683 
5.425291e+3, 1.4504093e+2, -1529149.6, -1547471.4, 0.92761564, 0.0006267341, 0.00024645517, -1529149.6, -10549.755, 0.0, 10.004286, 9.98001 
5.42529e+3, 1.5502091e+2, -1431449.8, -1450172.9, -7.835686, 0.0006264184, 0.000057446487, -1431449.8, -10653.66, 0.0, 10.004283, 9.979479 
5.425289e+3, 1.6499425e+2, -1343486.8, -1371454.6, -2.6517813, 0.0006260667, 0.0001394075, -1343486.8, -20429.51, 0.0, 10.00428, 9.967315 
5.4252887e+3, 1.7496161e+2, -1245556.1, -1273838.0, -10.621775, 0.00062568113, 0.000035431756, -1245556.1, -20179.033, 0.0, 10.004277, 9.966901 
5.4252875e+3, 1.8492232e+2, -1157521.3, -1195321.1, -4.291381, 0.00062533264, 0.0001796387, -1157521.3, -29759.086, 0.0, 10.004274, 9.954431 
5.425287e+3, 1.9487679e+2, -1059397.9, -1097459.0, -13.15261, 0.0006250194, 0.000046504458, -1059397.9, -29189.58, 0.0, 10.004272, 9.954087 
5.4252857e+3, 2.0482458e+2, -971257.7, -1019092.25, -3.5735567, 0.0006246906, 0.00016722751, -971257.7, -38537.78, 0.0, 10.00427, 9.941321 
5.4252845e+3, 2.1476594e+2, -872997.1, -921091.8, -12.411674, 0.0006243447, -0.00002800922, -872997.1, -37702.52, 0.0, 10.004268, 9.94098 
5.425284e+3, 2.2470059e+2, -784734.5, -842858.7, -2.4038343, 0.0006239986, 0.00021771003, -784734.5, -46799.574, 0.0, 10.004265, 9.927933 
5.4252833e+3, 2.3462859e+2, -686326.1, -744704.44, -11.08926, 0.000623651, 0.00000415141, -686326.1, -45685.62, 0.0, 10.004263, 9.927602 
5.425283e+3, 2.4454963e+2, -598024.75, -666788.94, -0.5800623, 0.00062330393, 0.00016456102, -598024.75, -54610.52, 0.0, 10.004262, 9.914155 
5.4252815e+3, 2.544639e+2, -499296.97, -568137.56, -9.252045, 0.00062295614, -0.000019118834, -499296.97, -53042.63, 0.0, 10.00426, 9.914055 
5.4252815e+3, 2.643711e+2, -411089.4, -490827.0, 1.6424952, 0.0006227046, 0.00022531733, -411089.4, -61925.457, 0.0, 10.004259, 9.899969 
5.4252803e+3, 2.742716e+2, -311828.38, -391238.4, -6.6616664, 0.00062257284, -0.00012244473, -311828.38, -59689.53, 0.0, 10.004258, 9.900388 
5.42528e+3, 2.8416395e+2, -225316.58, -317858.88, 3.23574, 0.00062241935, 0.00030756582, -225316.58, -70122.52, 0.0, 10.004258, 9.8835125 
5.4252785e+3, 2.940485e+2, -125628.805, -217556.52, -4.6436214, 0.0006222339, -0.00017563265, -125628.805, -67303.52, 0.0, 10.004259, 9.884296 
5.4252785e+3, 3.0396095e+2, -36060.47, -84840.27, 4.1603475, 0.00062208046, 0.00024705604, -36060.47, -36060.47, 0.0, 10.00426, 9.940061 
5.425278e+3, 3.1390283e+2, -34995.92, -82631.49, -3.8066165, 0.0006219783, 0.000010644001, -34995.92, -34995.92, 0.0, 10.004261, 9.941551 
5.4352975e+3, 1.2506384e+2, -1714604.9, -1723544.6, 2.2957613, 0.0006340578, 0.0001641822, -1714604.9, -229.53827, 0.0, 10.0042925, 9.992444 
5.435296e+3, 1.3505614e+2, -1617253.3, -1626782.6, -6.159916, 0.0006334487, -0.00001459825, -1617253.3, -802.40265, 0.0, 10.00429, 9.991661 
5.4352957e+3, 1.4504188e+2, -1529168.1, -1547508.1, -0.16240755, 0.0006329651, 0.0002467709, -1529168.1, -10577.652, 0.0, 10.004287, 9.979987 
5.4352945e+3, 1.5502185e+2, -1431467.9, -1450209.4, -8.926116, 0.0006325952, 0.00005734727, -1431467.9, -10681.134, 0.0, 10.004284, 9.979456 
5.4352933e+3, 1.6499516e+2, -1343503.1, -1371487.8, -3.7755365, 0.0006322957, 0.0001393938, -1343503.1, -20454.828, 0.0, 10.004281, 9.967294 
5.435293e+3, 1.749625e+2, -1245572.3, -1273870.9, -11.748373, 0.000632068, 0.0000360021, -1245572.3, -20203.967, 0.0, 10.004278, 9.96688 
5.435292e+3, 1.849232e+2, -1157539.3, -1195357.9, -5.2962065, 0.0006316717, 0.00018019511, -1157539.3, -29785.713, 0.0, 10.004275, 9.954408 
5.435291e+3, 1.9487764e+2, -1059415.8, -1097495.5, -14.160079, 0.0006311002, 0.000046435773, -1059415.8, -29215.785, 0.0, 10.004273, 9.954064 
5.4352903e+3, 2.0482542e+2, -971275.6, -1019129.25, -4.623492, 0.0006307885, 0.00016703864, -971275.6, -38563.89, 0.0, 10.004271, 9.941298 
5.435289e+3, 2.1476674e+2, -873014.9, -921128.6, -13.46272, 0.0006307512, -0.000027783191, -873014.8, -37728.176, 0.0, 10.004268, 9.940956 
5.435288e+3, 2.2470139e+2, -784752.2, -842895.6, -3.166298, 0.0006304072, 0.00021801816, -784752.2, -46824.945, 0.0, 10.004266, 9.927909 
5.4352874e+3, 2.3462935e+2, -686343.6, -744741.1, -11.848577, 0.00062972156, 0.000004172388, -686343.6, -45710.555, 0.0, 10.004264, 9.927578 
5.435287e+3, 2.4455036e+2, -598042.6, -666826.56, -1.2281879, 0.00062935293, 0.00016451764, -598042.6, -54635.566, 0.0, 10.004263, 9.91413 
5.435286e+3, 2.5446463e+2, -499314.6, -568175.0, -9.891947, 0.00062935514, -0.000018965091, -499314.6, -53067.223, 0.0, 10.004261, 9.91403 
5.435285e+3, 2.6437175e+2, -411106.8, -490864.25, 1.321854, 0.0006291975, 0.00022542245, -411106.8, -61949.6, 0.0, 10.00426, 9.899944 
5.4352844e+3, 2.7427226e+2, -311845.56, -391275.44, -6.969134, 0.00062883814, -0.00012269606, -311845.56, -59713.2, 0.0, 10.004259, 9.900363 
5.435284e+3, 2.8416458e+2, -225333.4, -317895.38, 3.3075054, 0.00062854495, 0.00030737772, -225333.4, -70145.6, 0.0, 10.004259, 9.883488 
5.435283e+3, 2.940491e+2, -125645.4, -217592.78, -4.532212, 0.0006283394, -0.00017519097, -125645.4, -67326.125, 0.0, 10.00426, 9.884273 
5.4352826e+3, 3.0396152e+2, -36078.332, -84879.24, 4.649047, 0.00062831864, 0.00024746597, -36078.332, -36078.332, 0.0, 10.004261, 9.940034 
5.435282e+3, 3.1390342e+2, -35013.977, -82670.836, -3.2820127, 0.00062857155, 0.000010049612, -35013.977, -35013.977, 0.0, 10.004262, 9.941524 
5.4453015e+3, 1.2506485e+2, -1714448.4, -1723487.3, 3.3465114, 0.00064042024, 0.0001645836, -1714448.4, -82.91647, 0.0, 10.004401, 9.992421 
5.445301e+3, 1.3505712e+2, -1617097.5, -1626726.1, -5.362178, 0.0006397104, -0.000014273491, -1617097.5, -656.38794, 0.0, 10.004398, 9.991637 
5.4453e+3, 1.4504287e+2, -1529013.6, -1547453.4, 0.39995372, 0.0006392148, 0.00024702627, -1529013.6, -10432.739, 0.0, 10.0043955, 9.979963 
5.4452986e+3, 1.550228e+2, -1431314.8, -1450155.8, -8.5805235, 0.00063891953, 0.00005753977, -1431314.8, -10537.286, 0.0, 10.004392, 9.979432 
5.445298e+3, 1.6499609e+2, -1343349.0, -1371431.4, -3.623104, 0.0006386136, 0.00013958469, -1343349.0, -20309.828, 0.0, 10.004389, 9.967273 
5.445297e+3, 1.7496341e+2, -1245419.1, -1273815.4, -11.81038, 0.00063829916, 0.000036252764, -1245419.0, -20059.676, 0.0, 10.004386, 9.966859 
5.445296e+3, 1.8492407e+2, -1157389.0, -1195307.3, -5.5154877, 0.0006379193, 0.0001804503, -1157389.0, -29644.15, 0.0, 10.004383, 9.954384 
5.4452956e+3, 1.9487849e+2, -1059266.9, -1097445.9, -14.6273365, 0.0006374698, 0.000046638786, -1059266.9, -29075.303, 0.0, 10.00438, 9.954041 
5.4452944e+3, 2.0482625e+2, -971127.56, -1019080.6, -5.205564, 0.00063713593, 0.00016718247, -971127.56, -38423.94, 0.0, 10.004378, 9.941273 
5.445293e+3, 2.1476755e+2, -872867.06, -921080.56, -14.192918, 0.00063692406, -0.000027705788, -872867.06, -37588.33, 0.0, 10.004375, 9.940932 
5.4452926e+3, 2.2470216e+2, -784605.2, -842848.75, -3.9418213, 0.00063656963, 0.00021809636, -784605.2, -46685.656, 0.0, 10.004374, 9.927884 
5.445292e+3, 2.3463011e+2, -686197.94, -744695.3, -12.914982, 0.0006360555, 0.000004325857, -686197.94, -45572.28, 0.0, 10.004372, 9.927553 
5.445291e+3, 2.445511e+2, -597897.8, -666781.9, -2.2686653, 0.00063573814, 0.00016463334, -597897.8, -54497.957, 0.0, 10.00437, 9.914105 
5.445291e+3, 2.5446534e+2, -499170.38, -568131.06, -10.942761, 0.00063565077, -0.000019019697, -499170.38, -52929.98, 0.0, 10.004369, 9.914005 
5.4452896e+3, 2.6437247e+2, -410963.28, -490821.44, 0.40867174, 0.0006354472, 0.00022538226, -410963.28, -61812.79, 0.0, 10.004368, 9.8999195 
5.445289e+3, 2.7427292e+2, -311702.72, -391233.4, -8.226646, 0.000635097, -0.00012249031, -311702.72, -59576.848, 0.0, 10.004367, 9.900338 
5.445288e+3, 2.841652e+2, -225190.47, -317852.6, 2.2065673, 0.0006348328, 0.0003075565, -225190.47, -70008.88, 0.0, 10.004367, 9.883464 
5.445288e+3, 2.940497e+2, -125503.56, -217550.88, -5.4913673, 0.00063468306, -0.00017540854, -125503.56, -67190.27, 0.0, 10.004367, 9.884248 
5.445287e+3, 3.039621e+2, -35940.277, -84842.91, 4.0127616, 0.00063467276, 0.0002472045, -35940.277, -35940.277, 0.0, 10.004368, 9.940007 
5.4452866e+3, 3.1390396e+2, -34876.383, -82635.086, -4.2311115, 0.0006348697, 0.000010265079, -34876.383, -34876.383, 0.0, 10.00437, 9.941497 
5.455306e+3, 1.2506588e+2, -1714467.0, -1723524.4, 2.206097, 0.00064684637, 0.00016511534, -1714467.0, -111.61455, 0.0, 10.004402, 9.992398 
5.455305e+3, 1.3505812e+2, -1617116.0, -1626763.1, -6.5066886, 0.0006459701, -0.000014047637, -1617116.0, -684.67584, 0.0, 10.004399, 9.991614 
5.4553044e+3, 1.4504384e+2, -1529032.5, -1547491.0, -0.80334824, 0.0006454879, 0.00024722752, -1529032.5, -10461.104, 0.0, 10.004396, 9.979939 
5.455303e+3, 1.5502374e+2, -1431333.4, -1450193.1, -9.781653, 0.0006453815, 0.00005799127, -1431333.4, -10565.214, 0.0, 10.004393, 9.979408 
5.455302e+3, 1.6499703e+2, -1343365.8, -1371465.3, -4.759727, 0.0006450171, 0.0001399569, -1343365.8, -20335.588, 0.0, 10.00439, 9.967251 
5.4553014e+3, 1.7496432e+2, -1245435.6, -1273849.1, -12.950826, 0.00064439815, 0.000036218054, -1245435.5, -20085.037, 0.0, 10.004387, 9.966837 
5.4553e+3, 1.8492496e+2, -1157407.5, -1195345.0, -6.6346936, 0.00064409216, 0.0001804366, -1157407.5, -29671.262, 0.0, 10.004384, 9.954359 
5.4552996e+3, 1.9487935e+2, -1059285.1, -1097483.4, -15.748179, 0.0006441028, 0.000047083107, -1059285.1, -29101.977, 0.0, 10.004381, 9.954016 
5.455299e+3, 2.0482707e+2, -971145.75, -1019118.2, -6.1329913, 0.0006437118, 0.00016762188, -971145.75, -38450.305, 0.0, 10.004379, 9.941249 
5.455298e+3, 2.1476835e+2, -872885.06, -921117.94, -15.121504, 0.00064289506, -0.00002776149, -872885.06, -37614.242, 0.0, 10.004376, 9.9409075 
5.4552966e+3, 2.2470294e+2, -784623.44, -842886.8, -4.803904, 0.0006425192, 0.000217969, -784623.44, -46711.586, 0.0, 10.0043745, 9.927859 
5.4552966e+3, 2.3463087e+2, -686215.94, -744733.2, -13.773671, 0.0006426307, 0.0000045964193, -686215.94, -45597.754, 0.0, 10.004373, 9.927528 
5.4552954e+3, 2.4455185e+2, -597915.6, -666819.56, -2.8585298, 0.00064242934, 0.0001648898, -597915.6, -54522.98, 0.0, 10.004371, 9.914081 
5.455295e+3, 2.5446606e+2, -499187.97, -568168.5, -11.526317, 0.00064186007, -0.000019260702, -499187.97, -52954.523, 0.0, 10.00437, 9.9139805 
5.4552937e+3, 2.6437312e+2, -410981.34, -490860.03, 0.1257263, 0.00064148614, 0.00022521206, -410981.34, -61837.547, 0.0, 10.004369, 9.899894 
5.4552937e+3, 2.742736e+2, -311720.6, -391271.84, -8.489281, 0.0006413564, -0.00012187753, -311720.6, -59601.176, 0.0, 10.004368, 9.900312 
5.4552925e+3, 2.8416583e+2, -225207.11, -317888.78, 2.2148454, 0.00064127194, 0.00030806146, -225207.11, -70031.74, 0.0, 10.004368, 9.883439 
5.455292e+3, 2.9405034e+2, -125519.89, -217586.63, -5.459544, 0.00064124545, -0.00017621575, -125519.89, -67212.57, 0.0, 10.004368, 9.884224 
5.455291e+3, 3.0396268e+2, -35958.68, -84883.08, 4.443031, 0.0006411364, 0.00024634294, -35958.68, -35958.68, 0.0, 10.004369, 9.93998 
5.455291e+3, 3.1390452e+2, -34895.055, -82675.805, -3.7622004, 0.0006409097, 0.000011203633, -34895.055, -34895.055, 0.0, 10.00437, 9.941468 
5.465311e+3, 1.2506689e+2, -1714306.6, -1723466.0, 3.415532, 0.0006531591, 0.00016541863, -1714306.6, 38.782715, 0.0, 10.004514, 9.992374 
5.4653096e+3, 1.3505913e+2, -1616957.3, -1626705.9, -5.6478844, 0.0006523678, -0.000013635019, -1616957.3, -535.62006, 0.0, 10.00451, 9.9915905 
5.4653084e+3, 1.4504482e+2, -1528874.9, -1547435.1, -0.18555337, 0.00065189716, 0.00024761516, -1528874.9, -10313.108, 0.0, 10.004507, 9.979916 
5.465308e+3, 1.550247e+2, -1431177.0, -1450138.3, -9.304859, 0.00065173046, 0.00005822236, -1431177.0, -10418.093, 0.0, 10.004503, 9.979384 
5.4653066e+3, 1.6499794e+2, -1343208.5, -1371408.0, -4.413258, 0.00065136247, 0.0001401441, -1343208.5, -20187.46, 0.0, 10.0045, 9.967229 
5.4653054e+3, 1.7496523e+2, -1245279.5, -1273792.9, -12.855749, 0.0006507964, 0.000036473415, -1245279.5, -19937.848, 0.0, 10.004498, 9.966815 
5.465305e+3, 1.8492584e+2, -1157254.3, -1195293.4, -6.7142687, 0.0006504708, 0.0001806924, -1157254.3, -29526.7, 0.0, 10.004495, 9.954334 
5.465304e+3, 1.9488022e+2, -1059132.9, -1097432.8, -16.023226, 0.0006503877, 0.000047270358, -1059132.9, -28958.137, 0.0, 10.004492, 9.953992 
5.465303e+3, 2.048279e+2, -970994.44, -1019068.6, -6.4669433, 0.0006499977, 0.00016778152, -970994.44, -38307.184, 0.0, 10.004489, 9.941224 
5.4653025e+3, 2.1476917e+2, -872734.94, -921069.4, -15.723279, 0.0006492818, -0.0000275863, -872734.94, -37472.02, 0.0, 10.004486, 9.940883 
5.465301e+3, 2.2470373e+2, -784474.25, -842839.4, -5.481958, 0.0006489269, 0.00021811012, -784474.25, -46570.074, 0.0, 10.004484, 9.9278345 
5.4653007e+3, 2.3463164e+2, -686067.56, -744686.56, -14.534046, 0.0006489709, 0.0000046486066, -686067.56, -45456.844, 0.0, 10.004482, 9.927504 
5.4653e+3, 2.4455258e+2, -597768.0, -666773.94, -3.5235498, 0.0006487383, 0.00016494199, -597768.0, -54382.55, 0.0, 10.00448, 9.914056 
5.4652995e+3, 2.5446674e+2, -499041.1, -568123.7, -12.488389, 0.0006481799, -0.00001910449, -499041.1, -52814.598, 0.0, 10.004478, 9.913956 
5.465298e+3, 2.6437384e+2, -410835.56, -490816.75, -0.81755054, 0.00064783834, 0.00022536471, -410835.56, -61698.48, 0.0, 10.0044775, 9.899868 
5.4652977e+3, 2.7427426e+2, -311576.16, -391229.66, -9.500172, 0.0006477677, -0.00012186289, -311576.16, -59463.188, 0.0, 10.004477, 9.900287 
5.465297e+3, 2.8416649e+2, -225062.38, -317845.16, 1.444529, 0.0006476943, 0.00030802417, -225062.38, -69893.21, 0.0, 10.004477, 9.883415 
5.4652965e+3, 2.9405093e+2, -125375.836, -217543.63, -6.3203588, 0.00064761395, -0.00017618907, -125375.836, -67074.484, 0.0, 10.004477, 9.8842 
5.465296e+3, 3.0396324e+2, -35818.645, -84846.734, 3.794421, 0.00064745033, 0.0002464023, -35818.645, -35818.645, 0.0, 10.0044775, 9.939952 
5.4652953e+3, 3.139051e+2, -34755.168, -82640.0, -4.7056303, 0.00064716866, 0.000011250849, -34755.168, -34755.168, 0.0, 10.004479, 9.941441 
5.4753155e+3, 1.2506792e+2, -1714326.1, -1723504.6, 2.1001227, 0.0006593787, 0.00016551968, -1714326.1, 9.268068, 0.0, 10.004515, 9.99235 
5.475314e+3, 1.3506012e+2, -1616976.5, -1626744.4, -6.957458, 0.0006588944, -0.000013057692, -1616976.5, -564.6994, 0.0, 10.004511, 9.991567 
5.4753137e+3, 1.4504579e+2, -1528894.0, -1547473.4, -1.4441361, 0.0006584337, 0.00024816697, -1528894.0, -10341.759, 0.0, 10.004508, 9.979892 
5.4753125e+3, 1.5502565e+2, -1431195.9, -1450176.3, -10.568493, 0.0006579859, 0.00005825755, -1431195.9, -10446.295, 0.0, 10.004504, 9.97936 
5.475311e+3, 1.6499887e+2, -1343225.6, -1371443.0, -5.6197257, 0.0006576632, 0.00014016706, -1343225.6, -20213.744, 0.0, 10.004501, 9.967206 
5.4753107e+3, 1.7496614e+2, -1245296.5, -1273827.6, -14.0628395, 0.00065746694, 0.000036985617, -1245296.5, -19963.734, 0.0, 10.0044985, 9.966792 
5.4753095e+3, 1.8492673e+2, -1157273.1, -1195331.9, -7.856579, 0.00065703853, 0.00018118652, -1157273.1, -29554.197, 0.0, 10.004496, 9.95431 
5.4753083e+3, 1.9488107e+2, -1059151.5, -1097471.1, -17.168282, 0.0006563702, 0.000047228677, -1059151.5, -28985.176, 0.0, 10.004493, 9.953967 
5.475308e+3, 2.0482875e+2, -971013.1, -1019107.3, -7.4649563, 0.0006560327, 0.00016769217, -971013.1, -38334.063, 0.0, 10.00449, 9.941199 
5.4753065e+3, 2.1476997e+2, -872753.44, -921107.8, -16.720003, 0.0006560446, -0.000027206741, -872753.44, -37498.457, 0.0, 10.004487, 9.940858 
5.475306e+3, 2.2470452e+2, -784492.6, -842877.75, -6.3406615, 0.00065574807, 0.0002184889, -784492.6, -46596.133, 0.0, 10.004485, 9.92781 
5.4753053e+3, 2.3463239e+2, -686085.75, -744724.75, -15.393024, 0.0006551084, 0.0000045060906, -686085.75, -45482.414, 0.0, 10.004483, 9.927478 
5.475304e+3, 2.4455331e+2, -597786.4, -666812.8, -4.0890765, 0.00065471366, 0.00016481217, -597786.4, -54408.113, 0.0, 10.004481, 9.91403 
5.4753035e+3, 2.5446746e+2, -499059.28, -568162.4, -13.041313, 0.0006546048, -0.0000185956, -499059.28, -52839.723, 0.0, 10.004479, 9.91393 
5.475303e+3, 2.6437452e+2, -410853.78, -490855.7, -1.2053564, 0.0006544758, 0.00022580347, -410853.78, -61723.375, 0.0, 10.004478, 9.899842 
5.4753023e+3, 2.7427492e+2, -311594.13, -391268.4, -9.875211, 0.00065432035, -0.00012238188, -311594.13, -59487.586, 0.0, 10.0044775, 9.900261 
5.475302e+3, 2.841671e+2, -225079.17, -317881.75, 1.4705516, 0.00065410766, 0.00030750362, -225079.17, -69916.195, 0.0, 10.0044775, 9.88339 
5.4753006e+3, 2.9405156e+2, -125392.336, -217579.81, -6.2730474, 0.00065381586, -0.00017541958, -125392.336, -67096.94, 0.0, 10.0044775, 9.884175 
5.4753006e+3, 3.0396384e+2, -35837.62, -84888.15, 4.2644167, 0.00065363734, 0.0002472816, -35837.62, -35837.62, 0.0, 10.004478, 9.939923 
5.4753e+3, 3.1390563e+2, -34774.496, -82682.07, -4.166671, 0.0006536293, 0.000010501859, -34774.496, -34774.496, 0.0, 10.00448, 9.941412 
5.48532e+3, 1.2506895e+2, -1714162.5, -1723445.1, 3.2709444, 0.00066588045, 0.00016605419, -1714162.5, 162.72237, 0.0, 10.004628, 9.992326 
5.485319e+3, 1.3506113e+2, -1616814.3, -1626686.0, -5.848246, 0.00066532596, -0.000012848253, -1616814.3, -412.327, 0.0, 10.004624, 9.991542 
5.485318e+3, 1.4504677e+2, -1528733.1, -1547416.5, -0.4785768, 0.0006648425, 0.00024831534, -1528733.1, -10190.489, 0.0, 10.004621, 9.979867 
5.485317e+3, 1.5502661e+2, -1431036.1, -1450120.4, -9.975505, 0.000664418, 0.00005860221, -1431036.1, -10295.946, 0.0, 10.004618, 9.979335 
5.485316e+3, 1.649998e+2, -1343065.1, -1371384.5, -5.2542276, 0.0006641069, 0.00014055295, -1343065.1, -20062.385, 0.0, 10.004614, 9.967184 
5.485315e+3, 1.7496704e+2, -1245137.4, -1273770.4, -13.849833, 0.00066391093, 0.000037259044, -1245137.4, -19813.555, 0.0, 10.004611, 9.96677 
5.485314e+3, 1.8492761e+2, -1157117.0, -1195279.4, -7.700479, 0.00066346134, 0.00018139553, -1157117.0, -29406.746, 0.0, 10.004607, 9.954285 
5.485313e+3, 1.9488193e+2, -1058996.3, -1097419.5, -17.254448, 0.00066275, 0.000047422098, -1058996.3, -28838.324, 0.0, 10.004604, 9.953941 
5.485312e+3, 2.0482957e+2, -970858.94, -1019056.8, -7.6931562, 0.0006624267, 0.00016787129, -970858.94, -38188.023, 0.0, 10.0046015, 9.941174 
5.485312e+3, 2.147708e+2, -872600.7, -921058.56, -17.114538, 0.0006625133, -0.000027040398, -872600.7, -37353.664, 0.0, 10.004599, 9.940833 
5.4853106e+3, 2.2470531e+2, -784340.75, -842829.5, -6.6794195, 0.0006622062, 0.00021864842, -784340.75, -46451.99, 0.0, 10.004597, 9.927784 
5.4853094e+3, 2.3463315e+2, -685934.4, -744677.2, -15.994183, 0.00066146126, 0.0000046652376, -685934.4, -45338.52, 0.0, 10.004595, 9.927453 
5.4853094e+3, 2.4455404e+2, -597636.06, -666766.5, -4.752349, 0.0006610721, 0.00016497492, -597636.06, -54264.99, 0.0, 10.004593, 9.914004 
5.485308e+3, 2.5446817e+2, -498910.63, -568117.3, -13.833885, 0.0006610988, -0.00001842455, -498910.63, -52697.992, 0.0, 10.004591, 9.913904 
5.4853076e+3, 2.6437518e+2, -410706.06, -490811.63, -1.7908784, 0.0006609907, 0.00022589423, -410706.06, -61582.355, 0.0, 10.004589, 9.899816 
5.4853064e+3, 2.7427557e+2, -311446.97, -391225.03, -10.496397, 0.0006607122, -0.00012248216, -311446.97, -59346.85, 0.0, 10.004589, 9.900235 
5.4853064e+3, 2.8416774e+2, -224931.95, -317837.88, 0.905184, 0.00066043995, 0.00030746945, -224931.95, -69775.15, 0.0, 10.004588, 9.883366 
5.485306e+3, 2.9405215e+2, -125246.24, -217536.88, -7.363954, 0.00066017447, -0.00017504119, -125246.24, -66956.78, 0.0, 10.004589, 9.8841505 
5.4853046e+3, 3.039644e+2, -35695.48, -84850.484, 3.4024675, 0.0006600534, 0.00024760794, -35695.48, -35695.48, 0.0, 10.004589, 9.939896 
5.485304e+3, 3.139062e+2, -34633.715, -82645.38, -4.4335175, 0.0006601478, 0.000010094546, -34633.715, -34633.715, 0.0, 10.00459, 9.941383 
5.495325e+3, 1.2506999e+2, -1714182.1, -1723483.9, 1.851153, 0.00067263836, 0.00016697016, -1714182.1, 133.06564, 0.0, 10.004629, 9.992301 
5.4953235e+3, 1.3506213e+2, -1616833.5, -1626724.6, -7.2702346, 0.00067168043, -0.000012963723, -1616833.5, -441.52417, 0.0, 10.004625, 9.991517 
5.4953223e+3, 1.4504774e+2, -1528753.0, -1547456.4, -1.8131661, 0.00067114556, 0.00024810768, -1528753.0, -10219.969, 0.0, 10.0046215, 9.979841 
5.495321e+3, 1.5502757e+2, -1431055.8, -1450160.0, -11.306314, 0.00067101343, 0.00005921979, -1431055.8, -10324.9795, 0.0, 10.004619, 9.97931 
5.4953206e+3, 1.6500075e+2, -1343082.6, -1371420.1, -6.5796914, 0.00067068404, 0.00014125856, -1343082.6, -20088.979, 0.0, 10.004615, 9.967161 
5.4953194e+3, 1.7496796e+2, -1245154.6, -1273805.8, -15.180189, 0.0006701611, 0.00003732074, -1245154.6, -19839.719, 0.0, 10.004612, 9.966747 
5.495318e+3, 1.8492849e+2, -1157136.3, -1195318.9, -8.8348055, 0.0006697629, 0.00018135215, -1157136.3, -29434.72, 0.0, 10.004608, 9.95426 
5.4953176e+3, 1.948828e+2, -1059015.4, -1097458.8, -18.388803, 0.0006694889, 0.000047823076, -1059015.4, -28865.871, 0.0, 10.004605, 9.953917 
5.495317e+3, 2.0483041e+2, -970877.94, -1019096.2, -8.843961, 0.00066914543, 0.00016828728, -970877.94, -38215.234, 0.0, 10.004602, 9.941149 
5.495316e+3, 2.1477161e+2, -872619.44, -921097.6, -18.268648, 0.0006687279, -0.000027063428, -872619.44, -37380.363, 0.0, 10.0046, 9.940807 
5.495315e+3, 2.2470608e+2, -784359.6, -842869.0, -7.450357, 0.00066834927, 0.00021861336, -784359.6, -46478.52, 0.0, 10.004598, 9.927758 
5.4953146e+3, 2.3463391e+2, -685953.06, -744716.44, -16.75583, 0.0006680122, 0.0000050911667, -685953.06, -45364.617, 0.0, 10.004596, 9.927427 
5.4953134e+3, 2.4455477e+2, -597654.7, -666805.94, -5.500364, 0.00066777715, 0.000165396, -597654.7, -54290.81, 0.0, 10.004594, 9.913979 
5.495312e+3, 2.5446886e+2, -498929.0, -568156.5, -14.580695, 0.0006676604, -0.000018554249, -498929.0, -52723.3, 0.0, 10.004592, 9.913878 
5.495312e+3, 2.643759e+2, -410724.28, -490850.78, -2.1069152, 0.0006674028, 0.00022567579, -410724.28, -61607.26, 0.0, 10.00459, 9.89979 
5.4953116e+3, 2.7427623e+2, -311464.97, -391263.94, -10.796259, 0.000666968, -0.00012221029, -311464.97, -59371.29, 0.0, 10.00459, 9.900208 
5.4953104e+3, 2.8416836e+2, -224949.72, -317876.53, 0.8606543, 0.00066670723, 0.00030786693, -224949.72, -69799.09, 0.0, 10.004589, 9.88334 
5.49531e+3, 2.9405278e+2, -125263.78, -217575.27, -7.366813, 0.0006666792, -0.00017501265, -125263.78, -66980.24, 0.0, 10.004589, 9.884125 
5.49531e+3, 3.03965e+2, -35713.54, -84890.05, 3.621653, 0.00066667947, 0.00024744103, -35713.54, -35713.54, 0.0, 10.00459, 9.939868 
5.495309e+3, 3.1390673e+2, -34651.86, -82685.125, -4.220632, 0.00066672324, 0.000009992507, -34651.86, -34651.86, 0.0, 10.004591, 9.941357 
5.5053294e+3, 1.2507102e+2, -1714015.5, -1723423.4, 3.2572365, 0.0006792387, 0.00016725142, -1714015.5, 289.49704, 0.0, 10.004745, 9.992276 
5.505328e+3, 1.3506314e+2, -1616667.9, -1626665.0, -6.1861663, 0.0006781859, -0.000012481212, -1616667.9, -285.74124, 0.0, 10.004741, 9.991492 
5.505327e+3, 1.4504874e+2, -1528588.6, -1547398.4, -0.94121736, 0.000677636, 0.00024858804, -1528588.6, -10065.359, 0.0, 10.004737, 9.979816 
5.5053264e+3, 1.5502854e+2, -1430893.1, -1450103.3, -10.536462, 0.00067756645, 0.000059499132, -1430893.1, -10171.727, 0.0, 10.004733, 9.979284 
5.505325e+3, 1.6500168e+2, -1342919.1, -1371360.8, -5.8994894, 0.0006772132, 0.00014146973, -1342919.1, -19934.654, 0.0, 10.00473, 9.967138 
5.505324e+3, 1.7496887e+2, -1244992.0, -1273747.4, -14.7879095, 0.0006765804, 0.000037595593, -1244992.0, -19686.063, 0.0, 10.004726, 9.966724 
5.5053234e+3, 1.849294e+2, -1156976.9, -1195265.4, -8.61153, 0.00067621574, 0.00018164358, -1156976.9, -29284.023, 0.0, 10.004723, 9.954234 
5.505322e+3, 1.9488364e+2, -1058857.9, -1097406.8, -18.34428, 0.00067612104, 0.000048083275, -1058857.9, -28716.844, 0.0, 10.00472, 9.953891 
5.505321e+3, 2.0483126e+2, -970721.4, -1019045.1, -8.791448, 0.00067574234, 0.00016851511, -970721.4, -38066.895, 0.0, 10.004716, 9.941122 
5.505321e+3, 2.1477242e+2, -872463.06, -921047.1, -18.453768, 0.00067506253, -0.000026869353, -872463.06, -37231.94, 0.0, 10.004714, 9.940782 
5.50532e+3, 2.2470687e+2, -784204.3, -842819.6, -7.7294455, 0.00067468925, 0.00021880836, -784204.3, -46330.9, 0.0, 10.004711, 9.927732 
5.5053186e+3, 2.3463467e+2, -685799.94, -744668.6, -17.203949, 0.0006746538, 0.00000532561, -685799.94, -45218.98, 0.0, 10.004708, 9.927401 
5.5053186e+3, 2.4455552e+2, -597502.7, -666759.2, -5.821684, 0.0006744585, 0.0001655609, -597502.7, -54146.027, 0.0, 10.004706, 9.913952 
5.5053174e+3, 2.544696e+2, -498777.25, -568110.3, -15.0135355, 0.0006740746, -0.000018586732, -498777.25, -52578.492, 0.0, 10.004704, 9.913852 
5.505317e+3, 2.6437655e+2, -410573.47, -490805.94, -2.5504353, 0.00067372766, 0.0002257236, -410573.47, -61463.1, 0.0, 10.0047035, 9.899763 
5.5053157e+3, 2.7427688e+2, -311315.72, -391220.34, -11.689291, 0.00067342614, -0.00012173469, -311315.72, -59228.438, 0.0, 10.004703, 9.900182 
5.5053157e+3, 2.8416902e+2, -224800.58, -317831.75, 0.17120674, 0.0006732562, 0.00030823663, -224800.58, -69656.11, 0.0, 10.004702, 9.883314 
5.5053145e+3, 2.9405338e+2, -125116.016, -217531.48, -7.5407395, 0.00067326095, -0.00017546942, -125116.016, -66838.38, 0.0, 10.004702, 9.884099 
5.505314e+3, 3.0396557e+2, -35569.82, -84852.49, 3.6467576, 0.0006731894, 0.00024696154, -35569.82, -35569.82, 0.0, 10.004702, 9.939839 
5.505313e+3, 3.139073e+2, -34507.953, -82647.91, -5.26401, 0.00067300844, 0.0000106741, -34507.953, -34507.953, 0.0, 10.004703, 9.941327 
5.515334e+3, 1.2507206e+2, -1714035.6, -1723463.6, 1.842448, 0.00068570755, 0.0001669748, -1714035.6, 259.1329, 0.0, 10.004746, 9.99225 
5.515333e+3, 1.3506417e+2, -1616687.9, -1626705.0, -7.602898, 0.0006848321, -0.000011472989, -1616687.9, -315.68915, 0.0, 10.004743, 9.991467 
5.515332e+3, 1.4504972e+2, -1528608.8, -1547438.5, -2.4465632, 0.00068429904, 0.00024967288, -1528608.8, -10095.076, 0.0, 10.004739, 9.979791 
5.515331e+3, 1.5502949e+2, -1430912.9, -1450143.3, -12.041593, 0.00068408914, 0.00005948027, -1430912.9, -10200.952, 0.0, 10.004735, 9.9792595 
5.51533e+3, 1.6500263e+2, -1342937.1, -1371397.6, -7.220413, 0.0006837072, 0.00014124555, -1342937.1, -19961.861, 0.0, 10.004731, 9.967114 
5.515329e+3, 1.7496979e+2, -1245009.9, -1273783.9, -16.10993, 0.0006831568, 0.000038057908, -1245009.9, -19712.865, 0.0, 10.004727, 9.966701 
5.515328e+3, 1.8493028e+2, -1156996.5, -1195305.6, -9.99597, 0.0006828094, 0.00018222939, -1156996.5, -29312.373, 0.0, 10.004724, 9.954208 
5.515327e+3, 1.9488452e+2, -1058877.3, -1097446.6, -19.73298, 0.00068266544, 0.00004821884, -1058877.3, -28744.691, 0.0, 10.004721, 9.953865 
5.515326e+3, 2.0483209e+2, -970740.8, -1019085.44, -9.766514, 0.0006822383, 0.00016857669, -970740.8, -38094.543, 0.0, 10.004718, 9.941096 
5.515325e+3, 2.1477322e+2, -872482.3, -921087.2, -19.42323, 0.00068151107, -0.0000264841, -872482.3, -37259.15, 0.0, 10.004715, 9.940755 
5.5153245e+3, 2.2470766e+2, -784223.44, -842859.75, -8.8275175, 0.00068121095, 0.0002192057, -784223.44, -46357.79, 0.0, 10.004712, 9.927706 
5.515324e+3, 2.3463543e+2, -685818.9, -744708.5, -18.306925, 0.00068138173, 0.0000053900626, -685818.9, -45245.34, 0.0, 10.004709, 9.927375 
5.5153227e+3, 2.4455625e+2, -597521.5, -666799.06, -6.421256, 0.00068112474, 0.00016549903, -597521.5, -54171.99, 0.0, 10.004707, 9.913926 
5.515322e+3, 2.544703e+2, -498795.8, -568149.94, -15.59765, 0.0006803657, -0.000018532852, -498795.8, -52603.992, 0.0, 10.004705, 9.913826 
5.5153215e+3, 2.6437724e+2, -410592.56, -490846.88, -3.018821, 0.000679983, 0.00022600658, -410592.56, -61488.875, 0.0, 10.004704, 9.899736 
5.515321e+3, 2.7427754e+2, -311334.6, -391261.13, -12.140033, 0.00068007014, -0.000121081444, -311334.6, -59253.742, 0.0, 10.0047035, 9.900155 
5.51532e+3, 2.841696e+2, -224817.45, -317868.63, -0.007957684, 0.00068006065, 0.00030857968, -224817.45, -69679.15, 0.0, 10.004703, 9.883289 
5.515319e+3, 2.9405394e+2, -125132.5, -217567.81, -7.718653, 0.000679917, -0.00017635335, -125132.5, -66860.78, 0.0, 10.004703, 9.884075 
5.515319e+3, 3.0396616e+2, -35589.63, -84895.81, 3.9424055, 0.00067960285, 0.00024620793, -35589.63, -35589.63, 0.0, 10.004703, 9.93981 
5.5153185e+3, 3.1390783e+2, -34528.203, -82692.08, -4.890457, 0.00067904405, 0.000012045597, -34528.203, -34528.203, 0.0, 10.0047035, 9.941298 
5.5253386e+3, 1.250731e+2, -1713864.9, -1723401.8, 3.3925312, 0.0006922129, 0.00016736037, -1713864.9, 419.70438, 0.0, 10.004865, 9.992225 
5.525338e+3, 1.3506518e+2, -1616519.4, -1626644.8, -6.3323655, 0.00069151726, -0.000011112747, -1616519.4, -157.15044, 0.0, 10.00486, 9.991442 
5.525337e+3, 1.4505072e+2, -1528441.6, -1547379.6, -1.3302666, 0.00069099286, 0.0002500303, -1528441.6, -9937.692, 0.0, 10.004856, 9.979765 
5.5253357e+3, 1.5503046e+2, -1430746.6, -1450085.1, -11.153567, 0.0006906242, 0.00005985602, -1430746.6, -10044.17, 0.0, 10.004852, 9.979234 
5.5253345e+3, 1.6500355e+2, -1342770.3, -1371337.3, -6.478871, 0.00069025054, 0.00014159855, -1342770.3, -19804.273, 0.0, 10.0048485, 9.967091 
5.525333e+3, 1.749707e+2, -1244845.0, -1273725.0, -15.543958, 0.0006898743, 0.00003834789, -1244844.9, -19556.945, 0.0, 10.004844, 9.966677 
5.525333e+3, 1.8493119e+2, -1156834.5, -1195251.5, -9.514703, 0.00068947667, 0.00018249208, -1156834.5, -29159.148, 0.0, 10.004841, 9.954182 
5.525332e+3, 1.9488539e+2, -1058715.6, -1097393.1, -19.52261, 0.0006890541, 0.000048490427, -1058715.6, -28591.617, 0.0, 10.004837, 9.953838 
5.525331e+3, 2.0483293e+2, -970580.5, -1019033.0, -9.626238, 0.00068866194, 0.00016885326, -970580.5, -37942.434, 0.0, 10.004834, 9.941071 
5.5253303e+3, 2.1477404e+2, -872324.44, -921036.5, -19.437067, 0.000688301, -0.000026206526, -872324.44, -37109.25, 0.0, 10.00483, 9.940729 
5.525329e+3, 2.2470845e+2, -784066.75, -842810.2, -8.818285, 0.0006880085, 0.0002194256, -784066.75, -46208.793, 0.0, 10.0048275, 9.92768 
5.5253285e+3, 2.3463619e+2, -685662.2, -744659.44, -18.484283, 0.0006877901, 0.000005487294, -685662.2, -45096.098, 0.0, 10.004826, 9.927348 
5.525328e+3, 2.4455698e+2, -597365.56, -666750.94, -6.5921917, 0.0006874499, 0.00016565087, -597365.56, -54023.285, 0.0, 10.004823, 9.913899 
5.525327e+3, 2.54471e+2, -498641.84, -568103.25, -16.077211, 0.0006869657, -0.00001811896, -498641.84, -52456.97, 0.0, 10.004821, 9.913799 
5.525326e+3, 2.6437792e+2, -410440.1, -490801.6, -3.3902347, 0.00068669056, 0.00022630759, -410440.1, -61343.082, 0.0, 10.004819, 9.89971 
5.5253255e+3, 2.7427816e+2, -311183.38, -391216.9, -12.317242, 0.0006866757, -0.0001213617, -311183.38, -59108.92, 0.0, 10.004818, 9.900128 
5.525325e+3, 2.8417027e+2, -224665.98, -317823.28, -0.08061982, 0.0006865662, 0.00030834845, -224665.98, -69533.82, 0.0, 10.004817, 9.883265 
5.5253243e+3, 2.9405457e+2, -124981.68, -217523.1, -8.567058, 0.00068632583, -0.00017568632, -124981.67, -66715.86, 0.0, 10.004817, 9.884049 
5.525324e+3, 3.0396673e+2, -35443.02, -84857.43, 3.2096057, 0.0006860199, 0.00024691035, -35443.02, -35443.02, 0.0, 10.004817, 9.939781 
5.5253226e+3, 3.1390837e+2, -34382.84, -82654.72, -4.9680696, 0.0006856229, 0.000011516301, -34382.84, -34382.84, 0.0, 10.004817, 9.941268 
5.535344e+3, 1.2507415e+2, -1713885.6, -1723443.3, 1.6432908, 0.0006987589, 0.00016832587, -1713885.6, 388.62537, 0.0, 10.004866, 9.992199 
5.5353427e+3, 1.3506621e+2, -1616539.9, -1626685.9, -8.071203, 0.0006982439, -0.000011321153, -1616539.9, -187.71764, 0.0, 10.004862, 9.991416 
5.5353415e+3, 1.4505172e+2, -1528462.0, -1547420.8, -2.8143752, 0.00069772074, 0.0002497497, -1528462.0, -9967.884, 0.0, 10.004857, 9.979739 
5.5353403e+3, 1.5503143e+2, -1430766.9, -1450126.0, -12.642869, 0.0006971782, 0.000060577848, -1430766.9, -10073.914, 0.0, 10.004853, 9.979207 
5.535339e+3, 1.650045e+2, -1342788.6, -1371374.6, -8.038834, 0.0006968453, 0.00014245763, -1342788.6, -19831.871, 0.0, 10.004849, 9.967067 
5.5353385e+3, 1.7497163e+2, -1244863.0, -1273762.3, -17.10587, 0.0006967226, 0.000038486272, -1244863.0, -19584.084, 0.0, 10.004846, 9.966653 
5.5353373e+3, 1.8493207e+2, -1156854.6, -1195292.8, -10.77335, 0.0006962156, 0.00018247089, -1156854.6, -29188.041, 0.0, 10.004842, 9.954155 
5.535337e+3, 1.9488627e+2, -1058735.6, -1097434.3, -20.779207, 0.0006953142, 0.000048881102, -1058735.5, -28620.06, 0.0, 10.004838, 9.953812 
5.535336e+3, 2.0483378e+2, -970600.2, -1019073.94, -10.982959, 0.0006950303, 0.00016931811, -970600.2, -37970.406, 0.0, 10.004835, 9.941044 
5.535335e+3, 2.1477486e+2, -872343.9, -921077.1, -20.799618, 0.00069539755, -0.000026024136, -872343.9, -37136.707, 0.0, 10.004831, 9.940702 
5.535334e+3, 2.2470924e+2, -784086.2, -842851.06, -9.707344, 0.0006950547, 0.00021948926, -784086.2, -46235.984, 0.0, 10.004828, 9.927653 
5.535334e+3, 2.3463695e+2, -685681.44, -744700.06, -19.362574, 0.00069392496, 0.0000056134577, -685681.44, -45122.824, 0.0, 10.004827, 9.927321 
5.5353326e+3, 2.4455772e+2, -597384.94, -666792.1, -7.4359736, 0.00069348305, 0.00016599047, -597384.94, -54049.883, 0.0, 10.004824, 9.913873 
5.5353314e+3, 2.5447172e+2, -498661.0, -568144.2, -16.916668, 0.00069384475, -0.00001738968, -498661.0, -52483.074, 0.0, 10.004822, 9.913772 
5.535331e+3, 2.643786e+2, -410458.78, -490841.84, -3.946458, 0.0006938027, 0.00022662319, -410458.78, -61368.465, 0.0, 10.00482, 9.899683 
5.53533e+3, 2.7427885e+2, -311201.8, -391256.88, -12.865268, 0.00069325406, -0.000122463, -311201.8, -59133.76, 0.0, 10.004819, 9.900102 
5.5353296e+3, 2.8417087e+2, -224684.22, -317863.06, -0.22971399, 0.0006928154, 0.0003076127, -224684.22, -69558.2, 0.0, 10.004818, 9.883238 
5.535329e+3, 2.9405516e+2, -124999.695, -217562.64, -8.674374, 0.0006925243, -0.00017365492, -124999.695, -66739.78, 0.0, 10.004818, 9.884023 
5.5353284e+3, 3.0396733e+2, -35461.88, -84898.79, 3.3097577, 0.0006924477, 0.00024889267, -35461.88, -35461.88, 0.0, 10.004818, 9.939753 
5.535328e+3, 3.139089e+2, -34401.85, -82696.34, -4.8500314, 0.0006926872, 0.000009312591, -34401.85, -34401.85, 0.0, 10.004818, 9.941239 
5.5453485e+3, 1.250752e+2, -1713712.5, -1723380.5, 3.1808674, 0.00070564286, 0.00016888896, -1713712.5, 551.42413, 0.0, 10.004987, 9.992173 
5.545348e+3, 1.3506722e+2, -1616367.4, -1626624.0, -6.5349054, 0.0007048446, -0.0000110067585, -1616367.4, -25.241497, 0.0, 10.004982, 9.991389 
5.545347e+3, 1.4505272e+2, -1528291.1, -1547360.6, -1.3961403, 0.0007042851, 0.00025000895, -1528291.1, -9806.726, 0.0, 10.004977, 9.9797125 
5.545345e+3, 1.550324e+2, -1430598.0, -1450067.5, -11.590316, 0.0007039466, 0.000060970484, -1430598.0, -9914.555, 0.0, 10.004972, 9.97918 
5.5453444e+3, 1.6500545e+2, -1342619.0, -1371313.4, -7.175633, 0.0007036087, 0.0001428871, -1342619.0, -19671.514, 0.0, 10.004969, 9.967042 
5.545343e+3, 1.7497255e+2, -1244694.3, -1273701.9, -16.44963, 0.00070327386, 0.00003885684, -1244694.3, -19424.348, 0.0, 10.004965, 9.966628 
5.5453426e+3, 1.8493296e+2, -1156689.1, -1195237.4, -10.1447735, 0.0007027848, 0.00018278454, -1156689.1, -29031.318, 0.0, 10.00496, 9.954128 
5.545342e+3, 1.9488713e+2, -1058572.1, -1097380.4, -20.288345, 0.00070213526, 0.00004913999, -1058572.1, -28465.156, 0.0, 10.004956, 9.953785 
5.545341e+3, 2.0483463e+2, -970437.94, -1019021.2, -10.588634, 0.0007018317, 0.00016955801, -970437.94, -37816.4, 0.0, 10.004952, 9.941017 
5.5453396e+3, 2.1477568e+2, -872182.1, -921025.1, -20.683863, 0.00070189283, -0.000025765563, -872182.1, -36982.94, 0.0, 10.00495, 9.940676 
5.545339e+3, 2.2471002e+2, -783925.44, -842800.06, -9.537058, 0.00070151035, 0.00021978073, -783925.44, -46082.934, 0.0, 10.004947, 9.927626 
5.5453384e+3, 2.3463771e+2, -685522.5, -744650.44, -19.385145, 0.0007006353, 0.000005953642, -685522.5, -44971.395, 0.0, 10.004944, 9.927295 
5.545337e+3, 2.4455845e+2, -597227.5, -666743.8, -7.479007, 0.00070026604, 0.00016624006, -597227.5, -53899.65, 0.0, 10.004941, 9.913845 
5.5453366e+3, 2.544724e+2, -498504.84, -568096.94, -17.014597, 0.0007004873, -0.00001739361, -498504.84, -52333.848, 0.0, 10.004938, 9.913745 
5.545336e+3, 2.6437926e+2, -410303.44, -490795.53, -3.9064736, 0.0007003498, 0.00022665081, -410303.44, -61219.8, 0.0, 10.004936, 9.899655 
5.545335e+3, 2.7427948e+2, -311047.22, -391211.4, -13.219835, 0.00069976196, -0.00012204763, -311047.22, -58985.59, 0.0, 10.004935, 9.900074 
5.545334e+3, 2.8417152e+2, -224530.0, -317817.28, -0.5399434, 0.0006993489, 0.00030802912, -224530.0, -69410.15, 0.0, 10.004934, 9.883211 
5.545334e+3, 2.940558e+2, -124847.42, -217518.2, -8.861628, 0.00069917034, -0.00017375914, -124847.42, -66593.41, 0.0, 10.004933, 9.883996 
5.545333e+3, 3.039679e+2, -35313.684, -84859.33, 3.3174744, 0.0006991221, 0.00024868207, -35313.684, -35313.684, 0.0, 10.004932, 9.939724 
5.5453324e+3, 3.1390944e+2, -34254.566, -82657.61, -5.1045527, 0.0006992662, 0.000009606789, -34254.563, -34254.563, 0.0, 10.004932, 9.941211 
5.555354e+3, 1.2507626e+2, -1713733.3, -1723421.9, 1.5271181, 0.0007128291, 0.0001691001, -1713733.3, 520.38934, 0.0, 10.004988, 9.9921465 
5.5553526e+3, 1.3506827e+2, -1616387.9, -1626665.1, -8.199258, 0.00071134383, -0.000010235052, -1616387.9, -55.837906, 0.0, 10.004983, 9.991364 
5.5553514e+3, 1.4505373e+2, -1528312.3, -1547403.4, -3.1675777, 0.00071071537, 0.00025074033, -1528312.3, -9837.793, 0.0, 10.004979, 9.979685 
5.555351e+3, 1.5503336e+2, -1430619.0, -1450109.9, -13.352165, 0.00071091, 0.00006107491, -1430618.9, -9945.104, 0.0, 10.004974, 9.979154 
5.5553496e+3, 1.6500641e+2, -1342637.6, -1371351.8, -8.705135, 0.0007105267, 0.00014294044, -1342637.6, -19699.537, 0.0, 10.00497, 9.967018 
5.5553484e+3, 1.7497347e+2, -1244712.8, -1273740.0, -17.983196, 0.00070957345, 0.000039430204, -1244712.8, -19451.943, 0.0, 10.004966, 9.966604 
5.555348e+3, 1.8493387e+2, -1156709.5, -1195279.1, -11.685384, 0.00070921384, 0.00018339082, -1156709.5, -29060.506, 0.0, 10.004962, 9.954102 
5.5553466e+3, 1.94888e+2, -1058592.3, -1097422.0, -21.832949, 0.00070945465, 0.000049283433, -1058592.3, -28493.85, 0.0, 10.004957, 9.953758 
5.5553454e+3, 2.0483546e+2, -970458.1, -1019063.2, -11.848517, 0.00070901914, 0.00016960103, -970458.1, -37844.918, 0.0, 10.004954, 9.9409895 
5.555345e+3, 2.1477649e+2, -872202.1, -921066.9, -21.938902, 0.0007078693, -0.000025440497, -872202.1, -37010.957, 0.0, 10.004951, 9.940648 
5.5553436e+3, 2.2471082e+2, -783945.25, -842841.75, -10.659146, 0.0007074569, 0.00022027125, -783945.25, -46110.527, 0.0, 10.004948, 9.927599 
5.555343e+3, 2.3463848e+2, -685542.1, -744691.9, -20.505829, 0.0007078579, 0.0000064807186, -685542.1, -44998.508, 0.0, 10.004945, 9.927267 
5.5553424e+3, 2.4455918e+2, -597246.94, -666785.1, -8.4186325, 0.00070771325, 0.0001664102, -597246.94, -53926.32, 0.0, 10.004942, 9.913818 
5.555341e+3, 2.5447312e+2, -498524.0, -568138.06, -17.949368, 0.00070692925, -0.000018040351, -498524.0, -52359.977, 0.0, 10.00494, 9.913717 
5.5553406e+3, 2.6437998e+2, -410322.84, -490837.34, -4.4301324, 0.00070640846, 0.00022642632, -410322.84, -61245.9, 0.0, 10.004938, 9.899628 
5.55534e+3, 2.7428016e+2, -311066.44, -391253.0, -13.72184, 0.00070621585, -0.00012030213, -311066.44, -59011.246, 0.0, 10.004936, 9.900046 
5.5553395e+3, 2.8417212e+2, -224548.08, -317856.78, -0.9394967, 0.00070613966, 0.00030945518, -224548.08, -69434.39, 0.0, 10.004935, 9.883184 
5.555339e+3, 2.9405636e+2, -124865.17, -217557.27, -9.242145, 0.00070621644, -0.00017573874, -124865.17, -66617.04, 0.0, 10.004934, 9.88397 
5.555338e+3, 3.0396846e+2, -35332.93, -84901.63, 3.2275438, 0.0007060197, 0.00024654693, -35332.93, -35332.93, 0.0, 10.004933, 9.939695 
5.5553377e+3, 3.1391e+2, -34273.996, -82700.32, -5.189512, 0.00070542545, 0.000012095264, -34273.996, -34273.996, 0.0, 10.004933, 9.941181 
5.5653584e+3, 1.2507732e+2, -1713556.0, -1723357.8, 3.4607983, 0.0007195104, 0.00016933451, -1713556.0, 687.2949, 0.0, 10.005111, 9.99212 
5.565357e+3, 1.350693e+2, -1616212.6, -1626602.6, -6.785623, 0.00071821624, -0.000009603475, -1616212.6, 109.24644, 0.0, 10.005106, 9.991337 
5.5653566e+3, 1.4505473e+2, -1528138.6, -1547342.3, -1.9723552, 0.0007175891, 0.0002514058, -1528138.6, -9673.963, 0.0, 10.005101, 9.979658 
5.5653554e+3, 1.5503436e+2, -1430446.3, -1450049.9, -12.140054, 0.00071760005, 0.00006141976, -1430446.3, -9782.058, 0.0, 10.005096, 9.979127 
5.565354e+3, 1.6500735e+2, -1342464.4, -1371289.3, -7.4793286, 0.00071719213, 0.00014317041, -1342464.4, -19535.643, 0.0, 10.005092, 9.966993 
5.5653536e+3, 1.7497441e+2, -1244541.4, -1273679.0, -17.023031, 0.0007163717, 0.000039749484, -1244541.4, -19289.621, 0.0, 10.005087, 9.966579 
5.5653524e+3, 1.8493477e+2, -1156541.3, -1195223.0, -10.927012, 0.0007160229, 0.00018376367, -1156541.3, -28901.207, 0.0, 10.005082, 9.954074 
5.565352e+3, 1.9488889e+2, -1058425.4, -1097367.0, -21.347448, 0.00071615056, 0.000049673334, -1058425.4, -28335.58, 0.0, 10.005078, 9.953731 
5.5653507e+3, 2.0483632e+2, -970292.4, -1019009.25, -11.269477, 0.000715675, 0.00016996328, -970292.4, -37687.465, 0.0, 10.0050745, 9.940962 
5.5653495e+3, 2.1477732e+2, -872037.56, -921014.0, -21.485882, 0.0007145619, -0.00002515292, -872037.56, -36854.473, 0.0, 10.005071, 9.94062 
5.565349e+3, 2.2471161e+2, -783782.06, -842790.1, -10.333064, 0.000714189, 0.00022050708, -783782.06, -45955.16, 0.0, 10.005068, 9.927571 
5.565348e+3, 2.3463926e+2, -685380.94, -744641.7, -20.388077, 0.0007146326, 0.000006690056, -685380.94, -44844.82, 0.0, 10.005064, 9.927239 
5.565347e+3, 2.4455994e+2, -597086.75, -666735.9, -8.131711, 0.00071443844, 0.00016662454, -597086.75, -53773.344, 0.0, 10.005061, 9.913791 
5.5653465e+3, 2.5447384e+2, -498364.22, -568089.44, -17.87547, 0.00071349676, -0.000017784392, -498364.22, -52207.152, 0.0, 10.005059, 9.91369 
5.565346e+3, 2.6438063e+2, -410164.47, -490790.47, -4.43309, 0.00071296695, 0.00022670499, -410164.47, -61094.223, 0.0, 10.005056, 9.899599 
5.565345e+3, 2.742808e+2, -310910.47, -391207.8, -13.955066, 0.0007129511, -0.000120023935, -310910.47, -58861.703, 0.0, 10.005054, 9.900018 
5.565344e+3, 2.8417277e+2, -224392.16, -317809.8, -0.96380234, 0.0007129424, 0.00030963405, -224392.16, -69284.62, 0.0, 10.005053, 9.883159 
5.5653435e+3, 2.9405698e+2, -124710.15, -217511.03, -9.089665, 0.0007129387, -0.00017579313, -124710.15, -66467.91, 0.0, 10.005052, 9.883944 
5.5653435e+3, 3.0396903e+2, -35182.24, -84862.64, 3.4654076, 0.0007126183, 0.00024654838, -35182.24, -35182.24, 0.0, 10.005051, 9.939665 
5.565343e+3, 3.1391054e+2, -34123.133, -82661.75, -5.827274, 0.0007118382, 0.00001257879, -34123.13, -34123.13, 0.0, 10.005052, 9.941151 
5.5753636e+3, 1.250784e+2, -1713577.8, -1723401.4, 1.5322335, 0.00072576164, 0.00016959014, -1713577.8, 655.01013, 0.0, 10.005113, 9.992093 
5.575363e+3, 1.3507032e+2, -1616234.3, -1626646.0, -8.703656, 0.0007254215, -0.000009094853, -1616234.3, 77.449005, 0.0, 10.005107, 9.991309 
5.575362e+3, 1.4505574e+2, -1528159.8, -1547384.9, -3.7520282, 0.0007248565, 0.00025201277, -1528159.8, -9704.967, 0.0, 10.005102, 9.979631 
5.57536e+3, 1.5503535e+2, -1430467.1, -1450092.1, -13.927437, 0.00072406046, 0.00006197423, -1430467.1, -9812.567, 0.0, 10.005097, 9.979099 
5.5753595e+3, 1.6500832e+2, -1342483.6, -1371328.8, -9.222877, 0.0007236463, 0.0001435548, -1342483.6, -19564.275, 0.0, 10.005093, 9.966968 
5.575358e+3, 1.7497534e+2, -1244560.4, -1273718.1, -18.765099, 0.00072361267, 0.000039847346, -1244560.4, -19317.8, 0.0, 10.005088, 9.966554 
5.5753577e+3, 1.8493569e+2, -1156562.1, -1195266.0, -12.550788, 0.00072317076, 0.00018393285, -1156562.1, -28930.967, 0.0, 10.005084, 9.954046 
5.5753565e+3, 1.9488975e+2, -1058446.0, -1097409.8, -22.972702, 0.0007223104, 0.000050277802, -1058446.0, -28364.818, 0.0, 10.005079, 9.953703 
5.575356e+3, 2.0483717e+2, -970312.75, -1019051.75, -12.599312, 0.00072187546, 0.00017060355, -970312.75, -37716.227, 0.0, 10.005075, 9.940934 
5.5753547e+3, 2.1477814e+2, -872057.8, -921056.3, -22.81385, 0.0007218881, -0.000024898158, -872057.8, -36882.773, 0.0, 10.005072, 9.940594 
5.575354e+3, 2.2471242e+2, -783802.3, -842832.6, -11.709303, 0.0007216146, 0.00022052058, -783802.3, -45983.18, 0.0, 10.005069, 9.927544 
5.575353e+3, 2.3464002e+2, -685400.9, -744683.94, -21.766762, 0.0007210232, 0.000006621733, -685400.8, -44872.266, 0.0, 10.005065, 9.927212 
5.5753523e+3, 2.4456067e+2, -597106.5, -666778.06, -8.953719, 0.0007205402, 0.0001668774, -597106.5, -53800.39, 0.0, 10.005062, 9.913762 
5.575352e+3, 2.5447455e+2, -498383.8, -568131.44, -18.679693, 0.00072018255, -0.00001673949, -498383.8, -52233.75, 0.0, 10.00506, 9.913662 
5.575351e+3, 2.6438135e+2, -410184.34, -490833.22, -5.3048677, 0.00071997085, 0.00022742283, -410184.34, -61120.813, 0.0, 10.005057, 9.899571 
5.57535e+3, 2.7428147e+2, -310930.1, -391250.34, -14.817396, 0.0007199396, -0.00012103014, -310930.1, -58887.74, 0.0, 10.005055, 9.89999 
5.5753493e+3, 2.841734e+2, -224409.86, -317848.72, -1.394881, 0.000719762, 0.000308722, -224409.86, -69308.484, 0.0, 10.0050535, 9.883132 
5.575349e+3, 2.9405758e+2, -124727.484, -217549.4, -9.51926, 0.0007193846, -0.0001741613, -124727.484, -66491.164, 0.0, 10.005053, 9.883918 
5.575348e+3, 3.039696e+2, -35202.99, -84908.164, 3.478721, 0.00071896287, 0.0002484201, -35202.99, -35202.99, 0.0, 10.005052, 9.939633 
5.5753475e+3, 3.139111e+2, -34144.367, -82708.16, -5.713733, 0.0007184814, 0.000011304178, -34144.367, -34144.367, 0.0, 10.005053, 9.941118 
5.585369e+3, 1.2507945e+2, -1713397.1, -1723336.3, 3.3882122, 0.00073263125, 0.00017022515, -1713397.1, 825.22076, 0.0, 10.005239, 9.992065 
5.5853677e+3, 1.3507138e+2, -1616055.5, -1626582.3, -6.845282, 0.000732241, -0.000008822364, -1616055.5, 246.0437, 0.0, 10.005233, 9.9912815 
5.5853665e+3, 1.4505677e+2, -1527982.5, -1547322.6, -1.9258956, 0.00073166715, 0.00025224072, -1527982.5, -9537.729, 0.0, 10.005227, 9.979604 
5.585366e+3, 1.5503633e+2, -1430291.5, -1450031.3, -12.543929, 0.0007309018, 0.00006246656, -1430291.5, -9646.579, 0.0, 10.005222, 9.979073 
5.5853647e+3, 1.6500928e+2, -1342307.5, -1371265.3, -8.091, 0.0007305042, 0.00014410476, -1342307.5, -19397.516, 0.0, 10.005217, 9.966943 
5.5853635e+3, 1.7497627e+2, -1244385.9, -1273656.1, -17.754858, 0.00073047355, 0.000040250463, -1244385.9, -19152.506, 0.0, 10.005212, 9.966529 
5.585363e+3, 1.8493658e+2, -1156390.8, -1195208.9, -11.471784, 0.0007299604, 0.00018425341, -1156390.8, -28768.525, 0.0, 10.005207, 9.954019 
5.585362e+3, 1.9489063e+2, -1058275.5, -1097353.5, -22.110794, 0.00072895305, 0.0000505812, -1058275.5, -28202.945, 0.0, 10.005203, 9.953675 
5.585361e+3, 2.0483802e+2, -970143.7, -1018996.7, -11.91079, 0.0007285855, 0.00017092179, -970143.7, -37555.53, 0.0, 10.0051985, 9.940907 
5.58536e+3, 2.1477896e+2, -871891.5, -921003.06, -22.343275, 0.0007288919, -0.000024531437, -871891.5, -36724.56, 0.0, 10.005194, 9.940565 
5.5853593e+3, 2.247132e+2, -783637.2, -842780.56, -11.084406, 0.0007285669, 0.00022085695, -783637.2, -45825.855, 0.0, 10.00519, 9.927515 
5.585358e+3, 2.3464079e+2, -685235.44, -744632.2, -21.321047, 0.00072754273, 0.00000684078, -685235.44, -44714.4, 0.0, 10.005187, 9.927184 
5.5853575e+3, 2.4456142e+2, -596942.3, -666727.56, -8.635937, 0.00072702434, 0.00016712723, -596942.3, -53643.438, 0.0, 10.005184, 9.913734 
5.585357e+3, 2.5447527e+2, -498222.75, -568083.0, -18.655914, 0.0007270958, -0.000016285898, -498222.75, -52079.67, 0.0, 10.00518, 9.913633 
5.585356e+3, 2.64382e+2, -410024.75, -490785.72, -5.049203, 0.0007269933, 0.00022774821, -410024.75, -60967.93, 0.0, 10.0051775, 9.899543 
5.585356e+3, 2.742821e+2, -310770.84, -391203.47, -14.315309, 0.0007266716, -0.00012124722, -310770.84, -58734.934, 0.0, 10.005176, 9.899961 
5.5853546e+3, 2.8417403e+2, -224250.64, -317801.6, -0.9212026, 0.0007263137, 0.00030862342, -224250.64, -69155.42, 0.0, 10.005174, 9.883104 
5.585354e+3, 2.9405817e+2, -124569.59, -217503.36, -10.126789, 0.0007259056, -0.00017325181, -124569.59, -66339.19, 0.0, 10.005173, 9.88389 
5.5853534e+3, 3.039702e+2, -35049.395, -84867.195, 2.963423, 0.0007256046, 0.00024928493, -35049.395, -35049.395, 0.0, 10.005171, 9.939604 
5.585353e+3, 3.1391162e+2, -33993.055, -82668.58, -4.9405503, 0.00072546373, 0.000010580605, -33993.055, -33993.055, 0.0, 10.00517, 9.941089 
5.595374e+3, 1.2508054e+2, -1713418.9, -1723379.8, 1.2402799, 0.0007400454, 0.000171188, -1713418.9, 792.8776, 0.0, 10.0052395, 9.992038 
5.595373e+3, 1.3507244e+2, -1616077.0, -1626625.5, -8.991202, 0.0007387345, -0.000008753663, -1616077.0, 214.24457, 0.0, 10.005234, 9.991255 
5.5953723e+3, 1.4505777e+2, -1528004.5, -1547367.0, -3.8477054, 0.0007380903, 0.00025214118, -1528004.5, -9569.747, 0.0, 10.005228, 9.979575 
5.595371e+3, 1.5503733e+2, -1430313.3, -1450075.4, -14.461208, 0.00073808234, 0.00006290476, -1430313.3, -9678.111, 0.0, 10.005223, 9.979044 
5.59537e+3, 1.6501026e+2, -1342326.9, -1371305.3, -10.005862, 0.0007377208, 0.00014479773, -1342326.9, -19426.42, 0.0, 10.0052185, 9.966917 
5.5953693e+3, 1.7497721e+2, -1244405.1, -1273695.8, -19.675213, 0.00073701225, 0.000040918618, -1244405.1, -19180.918, 0.0, 10.005213, 9.966503 
5.595368e+3, 1.849375e+2, -1156412.1, -1195252.8, -13.0644, 0.00073644734, 0.00018470561, -1156412.0, -28798.742, 0.0, 10.005208, 9.95399 
5.595367e+3, 1.9489153e+2, -1058296.6, -1097397.1, -23.69947, 0.0007360247, 0.00005062308, -1058296.6, -28232.701, 0.0, 10.005204, 9.953647 
5.5953664e+3, 2.0483889e+2, -970164.56, -1019040.06, -13.685022, 0.0007357473, 0.00017096022, -970164.56, -37584.777, 0.0, 10.005199, 9.940878 
5.595365e+3, 2.147798e+2, -871912.0, -921046.2, -24.125477, 0.0007356219, -0.000024067558, -871912.0, -36753.22, 0.0, 10.005195, 9.940537 
5.595364e+3, 2.2471401e+2, -783657.6, -842823.75, -12.168444, 0.0007351147, 0.00022147395, -783657.6, -45854.17, 0.0, 10.005191, 9.927487 
5.5953634e+3, 2.3464155e+2, -685255.75, -744675.2, -22.388504, 0.00073418405, 0.0000073102624, -685255.75, -44742.277, 0.0, 10.005188, 9.9271555 
5.595363e+3, 2.4456216e+2, -596962.7, -666771.0, -9.986305, 0.00073385093, 0.00016737435, -596962.7, -53671.14, 0.0, 10.005185, 9.913706 
5.5953616e+3, 2.5447598e+2, -498242.84, -568126.1, -20.010912, 0.000734214, -0.000016348626, -498242.84, -52106.79, 0.0, 10.005181, 9.913605 
5.5953616e+3, 2.6438272e+2, -410044.06, -490827.56, -5.800999, 0.00073403807, 0.0002277313, -410044.06, -60993.98, 0.0, 10.005178, 9.899515 
5.5953604e+3, 2.7428278e+2, -310789.9, -391245.0, -15.056477, 0.0007331878, -0.00012077402, -310789.9, -58760.46, 0.0, 10.005177, 9.899934 
5.59536e+3, 2.8417465e+2, -224270.3, -317844.56, -1.4647682, 0.0007326406, 0.00030923536, -224270.3, -69181.27, 0.0, 10.005175, 9.883076 
5.595359e+3, 2.9405877e+2, -124589.086, -217546.2, -10.610531, 0.000732501, -0.0001729765, -124589.086, -66364.58, 0.0, 10.005174, 9.883862 
5.5953586e+3, 3.0397075e+2, -35068.098, -84908.516, 2.5264535, 0.00073251344, 0.00024926788, -35068.098, -35068.098, 0.0, 10.005173, 9.939575 
5.595358e+3, 3.1391218e+2, -34011.68, -82709.766, -5.43258, 0.00073274755, 0.000010342738, -34011.68, -34011.68, 0.0, 10.005171, 9.94106 
5.6053793e+3, 1.2508161e+2, -1713235.8, -1723313.8, 3.3546095, 0.0007471419, 0.00017166327, -1713235.8, 965.38446, 0.0, 10.005367, 9.99201 
5.605378e+3, 1.3507348e+2, -1615894.3, -1626560.3, -7.125752, 0.0007455696, -0.000008163856, -1615894.3, 386.56503, 0.0, 10.005362, 9.991226 
5.6053776e+3, 1.4505881e+2, -1527823.5, -1547303.6, -2.183949, 0.00074488635, 0.00025269264, -1527823.5, -9398.816, 0.0, 10.005356, 9.979547 
5.6053764e+3, 1.5503833e+2, -1430134.6, -1450013.6, -12.9166765, 0.0007450553, 0.0000632688, -1430134.6, -9509.256, 0.0, 10.00535, 9.979015 
5.605375e+3, 1.6501121e+2, -1342147.6, -1371240.9, -8.460331, 0.0007446626, 0.00014513372, -1342147.6, -19256.63, 0.0, 10.005344, 9.96689 
5.605374e+3, 1.7497817e+2, -1244226.6, -1273632.3, -18.436666, 0.0007437169, 0.000041384304, -1244226.6, -19011.695, 0.0, 10.00534, 9.966476 
5.605373e+3, 1.8493843e+2, -1156237.1, -1195194.3, -11.978988, 0.00074322167, 0.00018517816, -1156237.1, -28632.807, 0.0, 10.005334, 9.953962 
5.605372e+3, 1.948924e+2, -1058124.6, -1097340.6, -22.71657, 0.0007431804, 0.00005097771, -1058124.6, -28069.412, 0.0, 10.005328, 9.953619 
5.6053716e+3, 2.0483974e+2, -969993.75, -1018984.9, -12.635221, 0.00074281485, 0.0001712631, -969993.75, -37422.383, 0.0, 10.005324, 9.940849 
5.6053704e+3, 2.1478063e+2, -871740.75, -920991.2, -23.376814, 0.00074210676, -0.000023746608, -871740.75, -36590.1, 0.0, 10.005321, 9.940509 
5.60537e+3, 2.2471482e+2, -783487.6, -842769.75, -11.521459, 0.0007416017, 0.00022185029, -783487.6, -45692.023, 0.0, 10.005316, 9.927459 
5.6053686e+3, 2.3464233e+2, -685089.44, -744623.56, -21.93637, 0.0007413188, 0.000007783118, -685089.44, -44583.563, 0.0, 10.005311, 9.927127 
5.605368e+3, 2.4456291e+2, -596798.0, -666720.6, -9.3881, 0.0007410834, 0.00016770599, -596798.0, -53513.754, 0.0, 10.005307, 9.913677 
5.6053674e+3, 2.544767e+2, -498077.94, -568076.1, -19.364489, 0.0007409021, -0.00001643576, -498077.94, -51948.92, 0.0, 10.005304, 9.913576 
5.605366e+3, 2.643834e+2, -409880.03, -490778.84, -5.20049, 0.000740524, 0.00022779412, -409880.03, -60836.688, 0.0, 10.005301, 9.899487 
5.6053656e+3, 2.7428344e+2, -310628.0, -391197.84, -15.287357, 0.00073989877, -0.00011985163, -310628.0, -58605.03, 0.0, 10.005299, 9.899905 
5.605365e+3, 2.841753e+2, -224109.03, -317796.38, -1.5572023, 0.0007395395, 0.00031002404, -224109.03, -69026.21, 0.0, 10.005297, 9.883048 
5.6053644e+3, 2.940594e+2, -124429.875, -217499.38, -9.665207, 0.00073953596, -0.0001736591, -124429.875, -66211.28, 0.0, 10.005295, 9.883834 
5.605364e+3, 3.0397132e+2, -34913.156, -84867.83, 3.643725, 0.00073943625, 0.000248511, -34913.156, -34913.156, 0.0, 10.005293, 9.939545 
5.605363e+3, 3.1391272e+2, -33856.266, -82669.24, -6.0270724, 0.00073919585, 0.00001156435, -33856.266, -33856.266, 0.0, 10.005292, 9.94103 
5.6153846e+3, 1.2508272e+2, -1713258.0, -1723358.3, 1.3472748, 0.0007539724, 0.00017171832, -1713258.0, 932.5187, 0.0, 10.005368, 9.9919815 
5.615384e+3, 1.3507454e+2, -1615916.4, -1626604.5, -9.141012, 0.00075270946, -0.0000071241952, -1615916.4, 354.1242, 0.0, 10.0053625, 9.991199 
5.615383e+3, 1.4505982e+2, -1527845.8, -1547348.6, -4.44019, 0.0007520139, 0.00025380595, -1527845.8, -9431.183, 0.0, 10.005357, 9.979519 
5.6153816e+3, 1.5503933e+2, -1430156.6, -1450058.3, -15.167742, 0.0007518569, 0.00006356916, -1430156.6, -9541.038, 0.0, 10.005351, 9.978987 
5.6153804e+3, 1.650122e+2, -1342167.6, -1371282.0, -10.326229, 0.00075137505, 0.00014516177, -1342167.6, -19286.205, 0.0, 10.005345, 9.966865 
5.615379e+3, 1.749791e+2, -1244246.5, -1273673.3, -20.301352, 0.0007505749, 0.000041674753, -1244246.5, -19040.842, 0.0, 10.005341, 9.966451 
5.6153786e+3, 1.8493934e+2, -1156258.6, -1195238.5, -14.046996, 0.00075025397, 0.00018566809, -1156258.6, -28663.275, 0.0, 10.005336, 9.953934 
5.6153774e+3, 1.9489332e+2, -1058145.8, -1097384.6, -24.794182, 0.0007504156, 0.000051603358, -1058145.8, -28099.307, 0.0, 10.00533, 9.95359 
5.615376e+3, 2.048406e+2, -970015.06, -1019029.44, -14.067819, 0.00074980804, 0.00017179533, -970015.06, -37452.21, 0.0, 10.005325, 9.940821 
5.615376e+3, 2.1478146e+2, -871761.94, -921035.56, -24.795235, 0.0007483897, -0.00002354928, -871761.94, -36619.47, 0.0, 10.0053215, 9.940479 
5.615375e+3, 2.2471562e+2, -783508.5, -842813.8, -13.270765, 0.0007480467, 0.00022201797, -783508.5, -45720.82, 0.0, 10.005317, 9.92743 
5.615374e+3, 2.3464312e+2, -685110.0, -744667.3, -23.69717, 0.0007488878, 0.000008258017, -685110.0, -44611.766, 0.0, 10.005313, 9.927098 
5.615373e+3, 2.4456365e+2, -596818.2, -666763.8, -10.477032, 0.0007486735, 0.00016811074, -596818.2, -53541.27, 0.0, 10.005308, 9.913649 
5.6153727e+3, 2.544774e+2, -498097.9, -568119.0, -20.437273, 0.0007472259, -0.000016541688, -498097.88, -51975.926, 0.0, 10.005305, 9.913548 
5.6153715e+3, 2.643841e+2, -409900.94, -490823.94, -6.228544, 0.0007465351, 0.00022792756, -409900.94, -60864.375, 0.0, 10.005303, 9.899456 
5.615371e+3, 2.742841e+2, -310648.72, -391242.8, -16.290524, 0.0007467876, -0.00011854354, -310648.72, -58632.242, 0.0, 10.0053005, 9.899875 
5.61537e+3, 2.841759e+2, -224126.86, -317835.7, -2.3759522, 0.00074694207, 0.00031096255, -224126.86, -69050.25, 0.0, 10.005298, 9.883022 
5.6153697e+3, 2.9406e+2, -124447.22, -217537.95, -10.5063925, 0.000746959, -0.00017516788, -124447.22, -66234.56, 0.0, 10.005296, 9.883808 
5.615369e+3, 3.039719e+2, -34934.58, -84915.0, 3.3084767, 0.000746378, 0.000247118, -34934.58, -34934.58, 0.0, 10.005294, 9.939512 
5.6153685e+3, 3.1391326e+2, -33878.21, -82717.44, -6.270717, 0.0007449277, 0.0000140475595, -33878.21, -33878.21, 0.0, 10.005293, 9.940996 
5.6253904e+3, 1.250838e+2, -1713069.6, -1723290.5, 3.7405775, 0.00076070137, 0.0001721152, -1713069.6, 1110.1614, 0.0, 10.0055, 9.991953 
5.625389e+3, 1.3507561e+2, -1615731.5, -1626539.1, -7.162169, 0.0007598962, -0.000006568563, -1615731.5, 528.5206, 0.0, 10.005492, 9.99117 
5.625388e+3, 1.4506087e+2, -1527662.6, -1547284.4, -2.5554283, 0.0007592155, 0.00025439446, -1527662.6, -9258.141, 0.0, 10.0054865, 9.979489 
5.6253874e+3, 1.5504032e+2, -1429973.8, -1449994.8, -13.42546, 0.00075864274, 0.00006406749, -1429973.8, -9368.03, 0.0, 10.005481, 9.978958 
5.625386e+3, 1.6501316e+2, -1341984.4, -1371216.1, -8.678903, 0.0007581581, 0.00014557643, -1341984.4, -19112.523, 0.0, 10.005475, 9.966838 
5.625385e+3, 1.7498007e+2, -1244066.1, -1273609.4, -18.791868, 0.00075776334, 0.00004201253, -1244066.1, -18869.854, 0.0, 10.005468, 9.966424 
5.625384e+3, 1.8494028e+2, -1156081.5, -1195179.8, -12.617413, 0.0007573895, 0.0001860383, -1156081.5, -28495.309, 0.0, 10.005463, 9.953904 
5.6253827e+3, 1.9489421e+2, -1057968.8, -1097326.4, -23.76126, 0.00075703335, 0.00005211692, -1057968.8, -27931.145, 0.0, 10.005458, 9.953561 
5.625382e+3, 2.0484148e+2, -969839.5, -1018972.25, -13.038791, 0.0007564503, 0.00017231218, -969839.5, -37285.13, 0.0, 10.005453, 9.940792 
5.6253815e+3, 2.147823e+2, -871589.75, -920980.56, -23.787348, 0.0007556271, -0.000023176603, -871589.7, -36455.48, 0.0, 10.005447, 9.940451 
5.62538e+3, 2.2471642e+2, -783337.9, -842760.2, -12.268308, 0.0007553214, 0.00022227182, -783337.9, -45558.145, 0.0, 10.005443, 9.927401 
5.6253797e+3, 2.3464389e+2, -684939.44, -744614.2, -22.926275, 0.0007555848, 0.00000842106, -684939.44, -44448.832, 0.0, 10.005439, 9.927069 
5.6253785e+3, 2.4456441e+2, -596648.44, -666711.5, -9.665285, 0.00075522123, 0.00016842085, -596648.44, -53378.875, 0.0, 10.005435, 9.913619 
5.625378e+3, 2.5447816e+2, -497930.44, -568068.44, -20.072607, 0.000754124, -0.000015807274, -497930.44, -51815.563, 0.0, 10.005431, 9.913519 
5.6253767e+3, 2.643848e+2, -409735.47, -490775.0, -5.82532, 0.00075360236, 0.00022849426, -409735.47, -60705.71, 0.0, 10.005427, 9.899426 
5.6253767e+3, 2.7428475e+2, -310485.13, -391195.3, -15.446911, 0.0007537976, -0.00011888208, -310485.13, -58475.156, 0.0, 10.005424, 9.899845 
5.6253755e+3, 2.8417656e+2, -223963.08, -317786.7, -1.4142047, 0.00075382483, 0.00031066212, -223963.08, -68892.68, 0.0, 10.005421, 9.882995 
5.625375e+3, 2.9406062e+2, -124284.0, -217489.55, -10.653761, 0.0007536213, -0.00017416195, -124284.0, -66077.305, 0.0, 10.005419, 9.8837805 
5.6253743e+3, 3.0397248e+2, -34775.934, -84873.63, 3.1475923, 0.0007530184, 0.00024822573, -34775.934, -34775.934, 0.0, 10.005418, 9.939481 
5.6253743e+3, 3.1391382e+2, -33720.84, -82677.16, -5.621452, 0.000751837, 0.000013491101, -33720.836, -33720.836, 0.0, 10.005416, 9.940965 
5.635396e+3, 1.250849e+2, -1713092.8, -1723336.9, 1.1170486, 0.0007673546, 0.00017280676, -1713092.8, 1076.1755, 0.0, 10.005501, 9.991924 
5.6353945e+3, 1.3507667e+2, -1615754.4, -1626585.3, -9.766721, 0.000767131, -0.00000642929, -1615754.4, 495.1441, 0.0, 10.005494, 9.99114 
5.635393e+3, 1.4506193e+2, -1527685.0, -1547329.9, -4.6267824, 0.0007664883, 0.00025453145, -1527685.0, -9290.776, 0.0, 10.005487, 9.979461 
5.6353927e+3, 1.5504135e+2, -1429996.0, -1450040.0, -15.506101, 0.0007654254, 0.000064736436, -1429996.0, -9400.201, 0.0, 10.005482, 9.9789295 
5.6353915e+3, 1.6501416e+2, -1342004.6, -1371257.9, -11.024849, 0.00076501234, 0.0001463243, -1342004.6, -19142.477, 0.0, 10.005476, 9.966811 
5.635391e+3, 1.7498101e+2, -1244086.1, -1273650.9, -21.139185, 0.0007652438, 0.00004239187, -1244086.1, -18899.266, 0.0, 10.00547, 9.966397 
5.6353897e+3, 1.849412e+2, -1156103.8, -1195225.5, -14.45917, 0.0007646214, 0.00018630599, -1156103.8, -28526.61, 0.0, 10.005465, 9.953875 
5.6353885e+3, 1.9489512e+2, -1057990.8, -1097372.0, -25.595661, 0.0007631295, 0.000052533484, -1057990.8, -27961.953, 0.0, 10.005459, 9.953531 
5.635388e+3, 2.0484234e+2, -969860.9, -1019016.9, -15.051175, 0.00076280086, 0.0001728153, -969860.9, -37315.06, 0.0, 10.005454, 9.9407625 
5.635387e+3, 2.1478315e+2, -871610.8, -921024.94, -25.811771, 0.000763695, -0.000022652384, -871610.8, -36484.848, 0.0, 10.005448, 9.940422 
5.6353855e+3, 2.2471724e+2, -783359.1, -842805.06, -13.80121, 0.0007633182, 0.00022260076, -783359.1, -45587.355, 0.0, 10.005444, 9.927371 
5.635385e+3, 2.3464468e+2, -684960.44, -744658.8, -24.445705, 0.0007615385, 0.000008316138, -684960.4, -44477.5, 0.0, 10.00544, 9.92704 
5.6353843e+3, 2.4456516e+2, -596669.5, -666756.56, -11.070555, 0.00076087966, 0.0001686497, -596669.5, -53407.33, 0.0, 10.005436, 9.9135895 
5.635383e+3, 2.5447887e+2, -497951.3, -568113.2, -21.469261, 0.00076152687, -0.000014349299, -497951.28, -51843.52, 0.0, 10.005432, 9.913489 
5.6353825e+3, 2.6438546e+2, -409755.53, -490818.47, -7.075935, 0.00076158927, 0.00022943343, -409755.53, -60732.582, 0.0, 10.005428, 9.899398 
5.635382e+3, 2.7428544e+2, -310504.84, -391238.4, -16.700552, 0.00076091965, -0.00012063996, -310504.84, -58501.383, 0.0, 10.005425, 9.8998165 
5.6353813e+3, 2.8417718e+2, -223982.8, -317830.06, -2.188483, 0.00076026615, 0.000309295, -223982.8, -68918.63, 0.0, 10.005423, 9.882965 
5.63538e+3, 2.940612e+2, -124303.51, -217532.7, -11.3824415, 0.00075963483, -0.00017098564, -124303.5, -66102.79, 0.0, 10.005421, 9.883751 
5.63538e+3, 3.0397305e+2, -34796.19, -84918.4, 2.6352828, 0.00075940765, 0.00025149007, -34796.19, -34796.19, 0.0, 10.005419, 9.93945 
5.6353796e+3, 3.1391436e+2, -33741.277, -82722.195, -6.103685, 0.0007597724, 0.000010309205, -33741.277, -33741.277, 0.0, 10.005417, 9.940933 
5.6454015e+3, 1.2508601e+2, -1712902.9, -1723268.6, 3.440959, 0.00077473733, 0.0001735912, -1712902.9, 1255.2474, 0.0, 10.005633, 9.991895 
5.6454e+3, 1.3507776e+2, -1615564.5, -1626517.5, -7.342047, 0.0007739228, -0.0000060773036, -1615564.5, 674.46136, 0.0, 10.005627, 9.991112 
5.645399e+3, 1.4506295e+2, -1527496.9, -1547264.1, -2.2596748, 0.0007732471, 0.00025478983, -1527496.9, -9112.987, 0.0, 10.00562, 9.979431 
5.645398e+3, 1.5504238e+2, -1429811.1, -1449976.4, -13.590196, 0.00077269244, 0.000065229826, -1429811.1, -9225.36, 0.0, 10.005613, 9.9789 
5.645397e+3, 1.6501515e+2, -1341819.3, -1371191.5, -9.319037, 0.00077229406, 0.00014692805, -1341819.3, -18966.818, 0.0, 10.005607, 9.9667845 
5.645396e+3, 1.74982e+2, -1243901.3, -1273585.3, -19.6413, 0.00077205314, 0.000042983094, -1243901.3, -18723.791, 0.0, 10.005601, 9.966371 
5.645395e+3, 1.8494214e+2, -1155922.3, -1195165.1, -12.881596, 0.000771394, 0.00018679032, -1155922.3, -28354.273, 0.0, 10.005595, 9.953845 
5.6453943e+3, 1.9489601e+2, -1057812.0, -1097313.4, -24.058771, 0.00077030674, 0.00005281529, -1057812.0, -27792.049, 0.0, 10.005589, 9.953502 
5.645393e+3, 2.0484324e+2, -969683.75, -1018959.56, -13.68579, 0.0007700256, 0.00017308762, -969683.75, -37146.49, 0.0, 10.005583, 9.940733 
5.645392e+3, 2.14784e+2, -871434.75, -920968.7, -24.854445, 0.0007705919, -0.000022186518, -871434.75, -36317.066, 0.0, 10.005577, 9.9403925 
5.6453913e+3, 2.2471806e+2, -783184.06, -842749.75, -12.68685, 0.0007701126, 0.00022314141, -783184.06, -45420.31, 0.0, 10.005572, 9.927341 
5.645391e+3, 2.3464546e+2, -684786.9, -744604.75, -23.464582, 0.00076847826, 0.000008800657, -684786.9, -44311.707, 0.0, 10.0055685, 9.927011 
5.6453896e+3, 2.4456592e+2, -596497.8, -666704.06, -10.202711, 0.0007679193, 0.00016898902, -596497.8, -53243.07, 0.0, 10.005564, 9.91356 
5.645389e+3, 2.544796e+2, -497782.1, -568062.44, -20.65465, 0.0007686137, -0.000014258883, -497782.1, -51681.457, 0.0, 10.005559, 9.91346 
5.6453884e+3, 2.6438618e+2, -409587.34, -490768.3, -6.0531726, 0.00076860073, 0.00022958226, -409587.34, -60571.234, 0.0, 10.005554, 9.899368 
5.645387e+3, 2.742861e+2, -310336.97, -391188.88, -16.110998, 0.0007677029, -0.00012005006, -310336.97, -58340.08, 0.0, 10.005551, 9.899787 
5.6453866e+3, 2.8417784e+2, -223815.48, -317780.8, -1.6456524, 0.0007669974, 0.00030991482, -223815.48, -68757.6, 0.0, 10.0055485, 9.882936 
5.645386e+3, 2.9406184e+2, -124138.57, -217485.08, -10.823369, 0.000766551, -0.00017088906, -124138.57, -65943.836, 0.0, 10.005546, 9.883722 
5.6453854e+3, 3.0397364e+2, -34635.63, -84875.2, 3.3465865, 0.00076643325, 0.0002514176, -34635.63, -34635.63, 0.0, 10.005543, 9.93942 
5.645385e+3, 3.1391492e+2, -33582.64, -82680.125, -5.358037, 0.0007667952, 0.000010589926, -33582.64, -33582.64, 0.0, 10.00554, 9.940903 
5.655407e+3, 1.2508713e+2, -1712925.8, -1723314.5, 1.0671331, 0.00078275177, 0.00017445428, -1712925.8, 1221.5203, 0.0, 10.005635, 9.991866 
5.6554055e+3, 1.3507885e+2, -1615587.1, -1626563.1, -9.727692, 0.0007803461, -0.0000055416294, -1615587.1, 641.2198, 0.0, 10.005629, 9.991082 
5.655405e+3, 1.4506403e+2, -1527520.4, -1547311.5, -4.8907037, 0.0007795771, 0.00025515407, -1527520.4, -9146.77, 0.0, 10.005622, 9.979402 
5.655404e+3, 1.550434e+2, -1429834.3, -1450023.5, -16.206436, 0.0007803828, 0.00006557306, -1429834.3, -9258.548, 0.0, 10.005614, 9.97887 
5.6554025e+3, 1.6501614e+2, -1341839.9, -1371234.0, -11.503714, 0.0007799496, 0.000147408, -1341839.9, -18997.203, 0.0, 10.005609, 9.966757 
5.655402e+3, 1.7498295e+2, -1243921.6, -1273627.5, -21.830767, 0.00077829714, 0.000043755837, -1243921.6, -18753.707, 0.0, 10.005602, 9.966343 
5.6554e+3, 1.8494308e+2, -1155944.4, -1195211.0, -15.143351, 0.0007777837, 0.00018746067, -1155944.4, -28385.713, 0.0, 10.005596, 9.953815 
5.6553996e+3, 1.9489692e+2, -1057834.0, -1097359.1, -26.324707, 0.00077842036, 0.00005298258, -1057834.0, -27822.955, 0.0, 10.00559, 9.953472 
5.6553984e+3, 2.048441e+2, -969705.9, -1019005.9, -15.72545, 0.0007780081, 0.000173163, -969705.9, -37177.273, 0.0, 10.005585, 9.940703 
5.655398e+3, 2.1478485e+2, -871456.6, -921014.7, -26.888645, 0.00077649194, -0.000021770713, -871456.56, -36347.254, 0.0, 10.005579, 9.940362 
5.655397e+3, 2.2471888e+2, -783205.5, -842795.2, -14.343837, 0.0007758843, 0.00022386352, -783205.5, -45449.8, 0.0, 10.005574, 9.927312 
5.655396e+3, 2.3464626e+2, -684808.2, -744650.0, -25.116396, 0.0007762753, 0.000009791573, -684808.2, -44340.734, 0.0, 10.005569, 9.92698 
5.655395e+3, 2.4456668e+2, -596518.94, -666749.25, -11.9831295, 0.0007761548, 0.00016942342, -596518.94, -53271.676, 0.0, 10.005565, 9.91353 
5.655395e+3, 2.5448033e+2, -497802.9, -568107.4, -22.438643, 0.0007754362, -0.000015343205, -497802.88, -51709.402, 0.0, 10.00556, 9.913429 
5.6553936e+3, 2.6438686e+2, -409608.1, -490813.47, -7.1621346, 0.00077478105, 0.00022905301, -409608.1, -60598.86, 0.0, 10.005556, 9.899339 
5.655393e+3, 2.7428678e+2, -310357.56, -391233.8, -17.194544, 0.00077420415, -0.0001174405, -310357.56, -58367.25, 0.0, 10.005553, 9.899756 
5.655392e+3, 2.8417847e+2, -223835.28, -317824.3, -2.744056, 0.00077398797, 0.0003122427, -223835.28, -68783.69, 0.0, 10.00555, 9.882907 
5.655392e+3, 2.9406244e+2, -124158.04, -217528.19, -11.891043, 0.00077425304, -0.00017344367, -124158.04, -65969.29, 0.0, 10.005547, 9.883693 
5.655391e+3, 3.039742e+2, -34655.742, -84919.83, 2.3935695, 0.0007740144, 0.00024847442, -34655.742, -34655.742, 0.0, 10.005544, 9.939389 
5.65539e+3, 3.1391546e+2, -33602.785, -82724.94, -6.361702, 0.0007730387, 0.000013854436, -33602.785, -33602.785, 0.0, 10.005542, 9.940871 
5.6654125e+3, 1.2508824e+2, -1712731.1, -1723244.5, 3.829068, 0.0007896995, 0.00017480625, -1712731.1, 1405.1304, 0.0, 10.005771, 9.991837 
5.6654114e+3, 1.3507994e+2, -1615395.1, -1626494.9, -7.4729, 0.00078767975, -0.000004763971, -1615395.1, 822.5304, 0.0, 10.005763, 9.991053 
5.665411e+3, 1.4506508e+2, -1527330.1, -1547245.0, -2.8709028, 0.00078690064, 0.00025596312, -1527330.1, -8966.892, 0.0, 10.005755, 9.979371 
5.665409e+3, 1.5504442e+2, -1429644.9, -1449957.9, -14.119165, 0.000787312, 0.00006603046, -1429644.9, -9079.263, 0.0, 10.005749, 9.97884 
5.6654084e+3, 1.6501716e+2, -1341650.0, -1371166.0, -9.289225, 0.00078682584, 0.00014773468, -1341650.0, -18817.105, 0.0, 10.005742, 9.966729 
5.665407e+3, 1.7498393e+2, -1243734.1, -1273561.3, -19.90618, 0.0007854568, 0.00004416995, -1243734.1, -18575.742, 0.0, 10.005735, 9.966315 
5.665406e+3, 1.8494403e+2, -1155760.8, -1195149.9, -13.497914, 0.0007850362, 0.00018796061, -1155760.8, -28211.248, 0.0, 10.005729, 9.953786 
5.6654054e+3, 1.9489785e+2, -1057652.1, -1097299.4, -24.955791, 0.0007855732, 0.00005356667, -1057652.1, -27650.092, 0.0, 10.005722, 9.953443 
5.665404e+3, 2.0484498e+2, -969525.2, -1018947.5, -14.1395645, 0.0007850193, 0.0001736997, -969525.2, -37005.234, 0.0, 10.005715, 9.940673 
5.6654036e+3, 2.1478571e+2, -871276.44, -920957.06, -25.407747, 0.00078331714, -0.00002141957, -871276.44, -36175.492, 0.0, 10.005711, 9.940331 
5.6654024e+3, 2.2471972e+2, -783027.1, -842738.8, -13.091818, 0.00078280625, 0.00022417301, -783027.1, -45279.477, 0.0, 10.005705, 9.927281 
5.665402e+3, 2.3464705e+2, -684633.5, -744595.94, -24.135895, 0.0007836059, 0.000010217899, -684633.5, -44173.848, 0.0, 10.005698, 9.92695 
5.6654006e+3, 2.4456744e+2, -596345.5, -666696.1, -10.731701, 0.00078345794, 0.00016985227, -596345.5, -53105.75, 0.0, 10.005693, 9.9135 
5.6654e+3, 2.5448108e+2, -497628.75, -568054.4, -21.292374, 0.00078220316, -0.000015045363, -497628.75, -51542.477, 0.0, 10.00569, 9.9134 
5.6653994e+3, 2.6438758e+2, -409435.4, -490762.5, -6.1894, 0.0007814305, 0.0002293928, -409435.4, -60433.08, 0.0, 10.005686, 9.899307 
5.665398e+3, 2.7428743e+2, -310188.4, -391185.16, -16.738081, 0.0007812579, -0.000116842646, -310188.4, -58204.69, 0.0, 10.005681, 9.899726 
5.665398e+3, 2.8417912e+2, -223666.53, -317773.44, -2.0705392, 0.0007812439, 0.00031270378, -223666.53, -68621.26, 0.0, 10.005677, 9.882878 
5.665397e+3, 2.9406306e+2, -123990.66, -217478.25, -10.563572, 0.00078143814, -0.00017365116, -123990.66, -65807.94, 0.0, 10.005673, 9.883665 
5.6653965e+3, 3.0397484e+2, -34492.984, -84877.97, 3.7936993, 0.0007809845, 0.0002483365, -34492.984, -34492.984, 0.0, 10.0056715, 9.939356 
5.665396e+3, 3.1391603e+2, -33438.695, -82683.01, -6.606092, 0.0007795856, 0.00001486997, -33438.69, -33438.69, 0.0, 10.00567, 9.940838 
5.6754184e+3, 1.2508938e+2, -1712755.0, -1723292.5, 1.0904467, 0.00079575, 0.00017472474, -1712755.0, 1370.169, 0.0, 10.005772, 9.991806 
5.675417e+3, 1.3508104e+2, -1615418.9, -1626542.8, -10.203688, 0.0007957987, -0.000003780719, -1615418.9, 788.0775, 0.0, 10.005765, 9.991023 
5.675416e+3, 1.4506614e+2, -1527353.3, -1547292.0, -5.444367, 0.00079507957, 0.00025715036, -1527353.3, -9000.541, 0.0, 10.005757, 9.9793415 
5.675415e+3, 1.5504545e+2, -1429667.8, -1450004.6, -16.700829, 0.000793602, 0.0000665862, -1429667.8, -9112.338, 0.0, 10.005751, 9.97881 
5.675414e+3, 1.6501816e+2, -1341671.3, -1371209.8, -11.812497, 0.00079304824, 0.00014793217, -1341671.3, -18848.205, 0.0, 10.005743, 9.9667015 
5.675413e+3, 1.749849e+2, -1243755.1, -1273604.8, -22.423336, 0.0007934081, 0.000044278633, -1243755.1, -18606.36, 0.0, 10.005736, 9.966288 
5.675412e+3, 1.8494497e+2, -1155783.5, -1195197.0, -15.967011, 0.0007930341, 0.0001883154, -1155783.5, -28243.307, 0.0, 10.00573, 9.953755 
5.675411e+3, 1.9489875e+2, -1057674.5, -1097346.3, -27.43152, 0.0007919131, 0.00005450696, -1057674.5, -27681.535, 0.0, 10.005723, 9.953412 
5.67541e+3, 2.0484589e+2, -969547.44, -1018994.2, -16.064138, 0.00079121004, 0.00017463074, -969547.44, -37036.23, 0.0, 10.005717, 9.940642 
5.6754094e+3, 2.1478656e+2, -871298.56, -921003.5, -27.32329, 0.00079094496, -0.000021122882, -871298.56, -36206.035, 0.0, 10.005712, 9.940301 
5.675408e+3, 2.2472054e+2, -783049.1, -842785.4, -15.422359, 0.00079072226, 0.00022413048, -783049.1, -45309.625, 0.0, 10.005706, 9.927251 
5.675407e+3, 2.3464786e+2, -684655.1, -744642.2, -26.4775, 0.0007905441, 0.000010161138, -684655.1, -44203.293, 0.0, 10.0057, 9.92692 
5.6754065e+3, 2.4456821e+2, -596366.7, -666741.75, -12.10701, 0.0007899701, 0.00017027678, -596366.7, -53134.46, 0.0, 10.005695, 9.91347 
5.675406e+3, 2.544818e+2, -497649.78, -568099.75, -22.643398, 0.0007889335, -0.000013562341, -497649.78, -51570.754, 0.0, 10.005692, 9.913369 
5.6754047e+3, 2.643883e+2, -409457.25, -490809.72, -7.889605, 0.00078849326, 0.00023047726, -409457.25, -60461.85, 0.0, 10.005687, 9.899276 
5.675404e+3, 2.7428812e+2, -310209.94, -391232.16, -18.42403, 0.00078879367, -0.00011797095, -310209.94, -58232.848, 0.0, 10.005682, 9.899694 
5.6754035e+3, 2.8417975e+2, -223685.05, -317814.56, -3.3008792, 0.0007887342, 0.0003115645, -223685.05, -68646.1, 0.0, 10.005678, 9.882851 
5.675403e+3, 2.9406366e+2, -124008.67, -217518.66, -11.827831, 0.00078818714, -0.00017184127, -124008.67, -65832.03, 0.0, 10.005675, 9.883637 
5.675402e+3, 3.039754e+2, -34515.824, -84928.43, 3.1910596, 0.00078743935, 0.00025060755, -34515.824, -34515.824, 0.0, 10.005672, 9.9393215 
5.675401e+3, 3.1391656e+2, -33462.23, -82734.7, -7.039033, 0.00078640424, 0.00001395053, -33462.23, -33462.23, 0.0, 10.005671, 9.940803 
5.685424e+3, 1.2509051e+2, -1712556.5, -1723221.3, 3.9249868, 0.00080292195, 0.00017539544, -1712556.5, 1557.5181, 0.0, 10.005911, 9.9917755 
5.6854236e+3, 1.3508214e+2, -1615223.1, -1626473.5, -7.48429, 0.0008029533, -0.0000033983372, -1615223.1, 972.9715, 0.0, 10.005902, 9.990993 
5.685422e+3, 1.4506723e+2, -1527159.4, -1547224.3, -2.6637654, 0.000802234, 0.0002575243, -1527159.4, -8817.201, 0.0, 10.005894, 9.979311 
5.6854206e+3, 1.5504651e+2, -1429475.3, -1449938.1, -14.370289, 0.00080077193, 0.00006722216, -1429475.3, -8930.084, 0.0, 10.005887, 9.97878 
5.68542e+3, 1.6501918e+2, -1341478.4, -1371140.8, -9.804036, 0.00080026337, 0.0001486036, -1341478.4, -18665.297, 0.0, 10.005879, 9.966673 
5.685419e+3, 1.749859e+2, -1243564.9, -1273537.5, -20.455217, 0.0008006983, 0.000044762637, -1243564.8, -18425.686, 0.0, 10.005872, 9.966259 
5.685418e+3, 1.8494594e+2, -1155596.5, -1195135.1, -13.83032, 0.00080018665, 0.0001887343, -1155596.5, -28065.707, 0.0, 10.005865, 9.953725 
5.685417e+3, 1.948997e+2, -1057487.9, -1097285.0, -25.63474, 0.0007987122, 0.000054984626, -1057487.8, -27503.902, 0.0, 10.005858, 9.953381 
5.685416e+3, 2.0484677e+2, -969362.5, -1018933.94, -14.504375, 0.0007981467, 0.00017513773, -969362.5, -36860.047, 0.0, 10.005852, 9.940612 
5.685415e+3, 2.1478742e+2, -871118.0, -920946.06, -25.892721, 0.0007985351, -0.00002061759, -871118.0, -36033.953, 0.0, 10.005844, 9.94027 
5.685414e+3, 2.2472137e+2, -782870.0, -842729.25, -13.755536, 0.0007982368, 0.00022455333, -782870.0, -45138.66, 0.0, 10.005838, 9.92722 
5.685413e+3, 2.3464864e+2, -684474.44, -744585.75, -24.983902, 0.00079718017, 0.000010412797, -684474.44, -44030.5, 0.0, 10.005834, 9.926889 
5.685412e+3, 2.4456899e+2, -596187.25, -666686.6, -10.808775, 0.0007965061, 0.00017064514, -596187.25, -52962.56, 0.0, 10.005828, 9.913439 
5.6854117e+3, 2.5448254e+2, -497475.03, -568047.44, -21.862411, 0.00079627626, -0.000012742036, -497475.03, -51403.258, 0.0, 10.005822, 9.913339 
5.6854105e+3, 2.64389e+2, -409284.5, -490758.38, -6.842546, 0.0007960748, 0.00023108267, -409284.47, -60296.07, 0.0, 10.005816, 9.899245 
5.68541e+3, 2.7428877e+2, -310037.34, -391181.38, -16.678682, 0.0007959062, -0.00011841037, -310037.34, -58066.918, 0.0, 10.005813, 9.899664 
5.6854093e+3, 2.8418043e+2, -223512.38, -317763.75, -1.6012436, 0.0007955287, 0.00031128386, -223512.38, -68479.79, 0.0, 10.005809, 9.882821 
5.685409e+3, 2.940643e+2, -123837.08, -217468.84, -11.962732, 0.00079486857, -0.00017034682, -123837.07, -65666.52, 0.0, 10.005805, 9.883608 
5.6854075e+3, 3.0397597e+2, -34348.88, -84883.664, 3.0289192, 0.0007943101, 0.00025210402, -34348.88, -34348.88, 0.0, 10.005802, 9.939289 
5.6854075e+3, 3.139171e+2, -33298.996, -82691.98, -5.042099, 0.00079390354, 0.0000128529255, -33298.992, -33298.992, 0.0, 10.005798, 9.94077 
5.69543e+3, 1.2509166e+2, -1712580.8, -1723269.9, 0.7658178, 0.0008110557, 0.00017670418, -1712580.8, 1522.0989, 0.0, 10.005912, 9.991745 
5.6954294e+3, 1.3508326e+2, -1615247.0, -1626521.6, -10.63045, 0.00080929877, -0.0000035242397, -1615247.0, 938.2385, 0.0, 10.005903, 9.990962 
5.6954277e+3, 1.450683e+2, -1527183.5, -1547273.3, -5.3193493, 0.0008085287, 0.0002572099, -1527183.5, -8851.874, 0.0, 10.005896, 9.9792795 
5.6954265e+3, 1.5504757e+2, -1429499.3, -1449986.9, -17.02178, 0.00080870034, 0.00006792638, -1429499.3, -8964.28, 0.0, 10.005888, 9.978748 
5.695426e+3, 1.650202e+2, -1341499.6, -1371184.5, -12.671633, 0.00080833194, 0.0001496774, -1341499.6, -18696.563, 0.0, 10.005881, 9.966645 
5.6954247e+3, 1.749869e+2, -1243585.8, -1273581.1, -23.332468, 0.00080743455, 0.00004556677, -1243585.8, -18456.342, 0.0, 10.005873, 9.966231 
5.695424e+3, 1.849469e+2, -1155619.9, -1195183.5, -16.10682, 0.0008066298, 0.000189209, -1155619.8, -28098.5, 0.0, 10.005866, 9.953693 
5.695423e+3, 1.9490062e+2, -1057511.0, -1097333.3, -27.897707, 0.00080591463, 0.000055069137, -1057511.0, -27536.234, 0.0, 10.00586, 9.95335 
5.6954217e+3, 2.0484768e+2, -969385.0, -1018981.1, -17.254019, 0.00080572936, 0.00017528413, -969385.0, -36891.42, 0.0, 10.005853, 9.940581 
5.695421e+3, 2.147883e+2, -871140.2, -920992.9, -28.66171, 0.0008060994, -0.000019934318, -871140.1, -36064.625, 0.0, 10.005846, 9.94024 
5.69542e+3, 2.247222e+2, -782892.1, -842776.44, -15.471459, 0.0008054159, 0.00022537335, -782892.1, -45169.05, 0.0, 10.005839, 9.92719 
5.695419e+3, 2.3464946e+2, -684496.5, -744632.75, -26.674189, 0.00080357137, 0.000010929261, -684496.5, -44060.457, 0.0, 10.005835, 9.926858 
5.695418e+3, 2.4456976e+2, -596209.56, -666734.4, -13.068332, 0.0008030758, 0.0001709665, -596209.56, -52992.492, 0.0, 10.00583, 9.913407 
5.6954175e+3, 2.5448328e+2, -497497.0, -568094.94, -24.127092, 0.000804149, -0.000012489674, -497497.0, -51432.527, 0.0, 10.005823, 9.913307 
5.6954163e+3, 2.6438972e+2, -409304.8, -490802.88, -8.3614435, 0.0008041046, 0.00023127833, -409304.8, -60323.41, 0.0, 10.005818, 9.899216 
5.695416e+3, 2.742895e+2, -310057.34, -391225.44, -18.204695, 0.00080266624, -0.00011825526, -310057.34, -58093.645, 0.0, 10.005814, 9.899634 
5.695415e+3, 2.8418106e+2, -223534.16, -317811.7, -2.8813615, 0.00080174033, 0.0003117412, -223534.16, -68507.99, 0.0, 10.00581, 9.882789 
5.6954145e+3, 2.940649e+2, -123858.79, -217516.84, -13.142047, 0.000801504, -0.00016912977, -123858.78, -65694.33, 0.0, 10.005807, 9.883575 
5.6954134e+3, 3.039766e+2, -34368.293, -84927.01, 1.6849644, 0.00080154627, 0.00025293085, -34368.293, -34368.293, 0.0, 10.005803, 9.93926 
5.6954134e+3, 3.139177e+2, -33318.125, -82734.836, -6.5067563, 0.00080198963, 0.000011613866, -33318.125, -33318.125, 0.0, 10.005799, 9.940741 
5.705436e+3, 1.250928e+2, -1712380.8, -1723198.1, 3.6990132, 0.00081862096, 0.00017740026, -1712380.8, 1710.7631, 0.0, 10.006051, 9.9917145 
5.705435e+3, 1.3508436e+2, -1615046.3, -1626450.1, -7.7758713, 0.00081631175, -0.0000028496274, -1615046.3, 1127.9247, 0.0, 10.006044, 9.990931 
5.705434e+3, 1.4506939e+2, -1526984.8, -1547203.8, -2.7027113, 0.0008155149, 0.00025779768, -1526984.8, -8663.806, 0.0, 10.006036, 9.979248 
5.705433e+3, 1.5504861e+2, -1429304.5, -1449920.0, -14.549107, 0.0008161688, 0.00006836371, -1429304.4, -8779.889, 0.0, 10.006026, 9.978717 
5.7054317e+3, 1.6502123e+2, -1341304.3, -1371114.9, -10.118772, 0.00081576104, 0.0001501491, -1341304.3, -18511.318, 0.0, 10.006019, 9.966616 
5.7054305e+3, 1.749879e+2, -1243390.3, -1273511.9, -21.180742, 0.0008143105, 0.000046254867, -1243390.3, -18270.654, 0.0, 10.006012, 9.966202 
5.70543e+3, 1.8494786e+2, -1155428.1, -1195119.5, -14.132568, 0.0008135803, 0.00018986825, -1155428.1, -27916.346, 0.0, 10.006004, 9.953662 
5.705429e+3, 1.9490157e+2, -1057323.8, -1097272.0, -25.847935, 0.0008135749, 0.00005545151, -1057323.8, -27358.195, 0.0, 10.005996, 9.953319 
5.7054275e+3, 2.0484859e+2, -969199.3, -1018921.44, -15.106817, 0.0008133051, 0.00017559758, -969199.3, -36714.59, 0.0, 10.005988, 9.94055 
5.705427e+3, 2.1478917e+2, -870953.2, -920933.06, -26.986378, 0.0008127566, -0.000019471414, -870953.2, -35886.23, 0.0, 10.005982, 9.940208 
5.705426e+3, 2.2472306e+2, -782706.44, -842717.5, -13.897441, 0.00081204396, 0.00022597633, -782706.44, -44991.613, 0.0, 10.005976, 9.927158 
5.7054245e+3, 2.3465028e+2, -684315.6, -744576.8, -25.285257, 0.0008111481, 0.000011661885, -684315.6, -43887.59, 0.0, 10.005969, 9.9268265 
5.705424e+3, 2.4457054e+2, -596030.8, -666679.9, -11.534223, 0.000810818, 0.00017143997, -596030.8, -52821.41, 0.0, 10.005962, 9.913376 
5.7054234e+3, 2.5448403e+2, -497317.9, -568040.75, -22.332502, 0.000811145, -0.000012727806, -497317.9, -51260.797, 0.0, 10.005958, 9.913276 
5.705422e+3, 2.6439044e+2, -409126.53, -490750.0, -6.6025724, 0.000810806, 0.00023128474, -409126.53, -60152.152, 0.0, 10.005952, 9.899184 
5.7054216e+3, 2.7429017e+2, -309881.28, -391174.22, -17.785522, 0.00080963556, -0.00011681493, -309881.28, -57924.32, 0.0, 10.005947, 9.899603 
5.705421e+3, 2.8418174e+2, -223359.06, -317759.53, -2.3806932, 0.0008089705, 0.0003130349, -223359.06, -68339.34, 0.0, 10.005942, 9.882758 
5.7054204e+3, 2.9406556e+2, -123686.65, -217466.5, -10.917407, 0.0008089837, -0.0001701056, -123686.65, -65528.33, 0.0, 10.005938, 9.883545 
5.705419e+3, 3.0397716e+2, -34200.766, -84882.93, 4.1237006, 0.00080889836, 0.00025178908, -34200.766, -34200.766, 0.0, 10.005934, 9.939226 
5.705419e+3, 3.1391823e+2, -33149.598, -82690.66, -6.5352044, 0.0008086645, 0.000013390157, -33149.598, -33149.598, 0.0, 10.00593, 9.940708 
5.7154423e+3, 1.2509397e+2, -1712404.9, -1723246.9, 1.006266, 0.0008257142, 0.00017757954, -1712404.9, 1675.2819, 0.0, 10.006053, 9.991684 
5.715441e+3, 1.350855e+2, -1615070.4, -1626498.6, -10.486682, 0.0008239019, -0.0000014980019, -1615070.4, 1092.8169, 0.0, 10.006045, 9.9909 
5.71544e+3, 1.450705e+2, -1527009.3, -1547253.4, -6.0778503, 0.00082309823, 0.00025914854, -1527009.3, -8699.024, 0.0, 10.006038, 9.979217 
5.715439e+3, 1.5504968e+2, -1429328.5, -1449969.1, -17.913364, 0.00082325615, 0.0000685768, -1429328.5, -8814.362, 0.0, 10.006028, 9.978685 
5.715438e+3, 1.6502227e+2, -1341326.3, -1371160.4, -12.666123, 0.0008226576, 0.00015011294, -1341326.3, -18543.43, 0.0, 10.006021, 9.966587 
5.7154363e+3, 1.7498891e+2, -1243412.1, -1273557.1, -23.722315, 0.0008213177, 0.00004684454, -1243412.1, -18302.367, 0.0, 10.006013, 9.966173 
5.715436e+3, 1.8494883e+2, -1155451.4, -1195167.6, -17.231575, 0.00082097284, 0.00019068355, -1155451.4, -27949.102, 0.0, 10.006005, 9.953631 
5.7154346e+3, 1.9490251e+2, -1057346.6, -1097319.8, -28.96579, 0.0008216297, 0.000056087916, -1057346.6, -27390.264, 0.0, 10.005997, 9.953287 
5.7154334e+3, 2.048495e+2, -969222.7, -1018970.56, -17.29962, 0.0008208815, 0.00017605464, -969222.6, -36746.895, 0.0, 10.00599, 9.940518 
5.715433e+3, 2.1479006e+2, -870976.4, -920981.94, -29.153715, 0.00081865827, -0.000019194445, -870976.4, -35918.047, 0.0, 10.005984, 9.940177 
5.7154316e+3, 2.247239e+2, -782729.06, -842765.5, -16.535547, 0.0008182188, 0.0002263951, -782729.06, -45022.56, 0.0, 10.005978, 9.927127 
5.7154304e+3, 2.3465109e+2, -684337.94, -744624.5, -27.940252, 0.00081973785, 0.0000125765, -684337.94, -43917.887, 0.0, 10.00597, 9.926795 
5.7154304e+3, 2.4457133e+2, -596052.4, -666726.5, -13.486838, 0.0008195604, 0.00017204274, -596052.4, -52850.72, 0.0, 10.005964, 9.913345 
5.715429e+3, 2.544848e+2, -497339.22, -568087.06, -24.276798, 0.0008174068, -0.000013376672, -497339.22, -51289.51, 0.0, 10.005959, 9.913245 
5.715428e+3, 2.6439118e+2, -409149.4, -490799.75, -8.409488, 0.00081639225, 0.0002311345, -409149.4, -60182.137, 0.0, 10.005954, 9.899152 
5.715428e+3, 2.7429086e+2, -309904.03, -391223.9, -19.544558, 0.00081679353, -0.000114290066, -309904.03, -57953.85, 0.0, 10.005948, 9.8995695 
5.715427e+3, 2.8418237e+2, -223377.83, -317801.34, -4.1098585, 0.0008170747, 0.00031503232, -223377.83, -68364.586, 0.0, 10.005943, 9.8827305 
5.715426e+3, 2.9406616e+2, -123704.79, -217507.36, -12.706294, 0.0008171875, -0.00017293457, -123704.78, -65552.65, 0.0, 10.005939, 9.883517 
5.7154256e+3, 3.039778e+2, -34224.035, -84934.6, 2.9476686, 0.0008163562, 0.00024898667, -34224.035, -34224.035, 0.0, 10.005935, 9.939191 
5.715425e+3, 3.1391883e+2, -33173.492, -82743.586, -7.590068, 0.00081415125, 0.000017720351, -33173.492, -33173.492, 0.0, 10.005932, 9.940671 
5.725448e+3, 1.2509513e+2, -1712197.9, -1723172.4, 4.41921, 0.00083251105, 0.00017797193, -1712197.9, 1870.833, 0.0, 10.006197, 9.991652 
5.7254475e+3, 1.3508664e+2, -1614869.1, -1626427.8, -7.622251, 0.0008316802, -0.0000008107932, -1614869.1, 1282.9436, 0.0, 10.006187, 9.990869 
5.7254463e+3, 1.450716e+2, -1526809.8, -1547183.9, -3.2572222, 0.0008308889, 0.00025992334, -1526809.8, -8510.434, 0.0, 10.006178, 9.979185 
5.7254446e+3, 1.5505075e+2, -1429127.8, -1449899.5, -15.190032, 0.0008301211, 0.00006923767, -1429127.8, -8624.14, 0.0, 10.00617, 9.978654 
5.725444e+3, 1.650233e+2, -1341125.1, -1371088.4, -10.019082, 0.00082949665, 0.00015062852, -1341125.1, -18352.494, 0.0, 10.006162, 9.9665575 
5.725443e+3, 1.7498991e+2, -1243215.8, -1273488.1, -21.133625, 0.0008290163, 0.000047184418, -1243215.8, -18115.982, 0.0, 10.006152, 9.966144 
5.725442e+3, 1.8494983e+2, -1155258.9, -1195104.1, -14.748202, 0.00082867884, 0.00019109658, -1155258.9, -27766.293, 0.0, 10.006145, 9.953599 
5.725441e+3, 1.9490346e+2, -1057153.5, -1097256.4, -27.050756, 0.0008284818, 0.00005682546, -1057153.5, -27206.44, 0.0, 10.006137, 9.953256 
5.725439e+3, 2.0485042e+2, -969030.75, -1018908.1, -15.325738, 0.0008276758, 0.00017681689, -969030.75, -36564.004, 0.0, 10.006129, 9.940486 
5.7254386e+3, 2.1479094e+2, -870788.56, -920922.1, -27.04729, 0.00082622934, -0.000018721916, -870788.5, -35738.918, 0.0, 10.006122, 9.940145 
5.725438e+3, 2.2472475e+2, -782543.4, -842707.4, -14.484149, 0.0008259051, 0.00022667172, -782543.4, -44845.258, 0.0, 10.006114, 9.927094 
5.725437e+3, 2.3465192e+2, -684152.75, -744567.1, -26.172094, 0.00082681276, 0.000012760422, -684152.75, -43740.797, 0.0, 10.006107, 9.926764 
5.725436e+3, 2.4457213e+2, -595868.0, -666669.8, -11.621604, 0.0008264327, 0.00017247593, -595868.0, -52674.086, 0.0, 10.006101, 9.913314 
5.725435e+3, 2.5448558e+2, -497156.72, -568031.9, -23.018463, 0.00082455185, -0.000012296844, -497156.72, -51114.473, 0.0, 10.006095, 9.913213 
5.7254344e+3, 2.643919e+2, -408969.25, -490746.63, -7.1759143, 0.00082372257, 0.00023197767, -408969.25, -60009.125, 0.0, 10.006089, 9.899119 
5.725434e+3, 2.7429157e+2, -309726.84, -391172.78, -17.570461, 0.0008242005, -0.000114780756, -309726.84, -57783.49, 0.0, 10.006083, 9.899537 
5.725433e+3, 2.8418306e+2, -223200.58, -317748.3, -1.9777497, 0.0008243838, 0.0003145722, -223200.58, -68193.85, 0.0, 10.006077, 9.8827 
5.725432e+3, 2.9406682e+2, -123527.76, -217454.77, -12.10214, 0.00082416536, -0.0001715343, -123527.76, -65381.855, 0.0, 10.006073, 9.883488 
5.7254314e+3, 3.0397838e+2, -34051.887, -84889.914, 3.4471428, 0.00082326354, 0.00025058287, -34051.887, -34051.887, 0.0, 10.006069, 9.939157 
5.7254314e+3, 3.139194e+2, -33002.605, -82700.055, -6.009705, 0.00082136947, 0.000017077205, -33002.6, -33002.6, 0.0, 10.006065, 9.940637 
5.7354546e+3, 1.250963e+2, -1712223.5, -1723223.6, 0.590587, 0.0008390746, 0.00017854579, -1712223.5, 1833.7573, 0.0, 10.006199, 9.99162 
5.7354534e+3, 1.3508779e+2, -1614894.1, -1626478.6, -11.421565, 0.0008396238, -0.0000006820455, -1614894.1, 1246.639, 0.0, 10.006188, 9.990836 
5.735452e+3, 1.4507271e+2, -1526834.3, -1547233.8, -6.0108933, 0.0008388604, 0.0002602136, -1526834.3, -8545.754, 0.0, 10.00618, 9.979154 
5.735451e+3, 1.5505183e+2, -1429152.0, -1449949.1, -17.95812, 0.0008368129, 0.00007027603, -1429152.0, -8659.027, 0.0, 10.006172, 9.978622 
5.7354504e+3, 1.6502436e+2, -1341147.3, -1371134.1, -13.495939, 0.00083630194, 0.0001516097, -1341147.3, -18384.95, 0.0, 10.006164, 9.966528 
5.7354486e+3, 1.7499094e+2, -1243237.6, -1273533.6, -24.611885, 0.000837305, 0.000047316236, -1243237.6, -18147.773, 0.0, 10.006154, 9.966114 
5.735448e+3, 1.8495081e+2, -1155283.1, -1195154.5, -17.400959, 0.00083665556, 0.00019117267, -1155283.1, -27800.232, 0.0, 10.0061455, 9.953567 
5.735447e+3, 1.9490442e+2, -1057177.5, -1097306.6, -29.691309, 0.0008343328, 0.000057647794, -1057177.5, -27239.855, 0.0, 10.006139, 9.953223 
5.7354456e+3, 2.0485134e+2, -969053.8, -1018956.7, -18.2412, 0.0008338248, 0.0001778356, -969053.8, -36596.16, 0.0, 10.006131, 9.9404545 
5.735445e+3, 2.1479183e+2, -870811.3, -920970.4, -29.980732, 0.0008352177, -0.000018083225, -870811.3, -35770.473, 0.0, 10.006123, 9.940113 
5.735444e+3, 2.2472563e+2, -782566.44, -842756.4, -17.01924, 0.00083487364, 0.00022683074, -782566.44, -44876.75, 0.0, 10.006116, 9.927063 
5.7354426e+3, 2.3465276e+2, -684175.5, -744615.9, -28.694134, 0.0008326189, 0.000012330193, -684175.44, -43771.637, 0.0, 10.006108, 9.926731 
5.735442e+3, 2.4457292e+2, -595890.75, -666718.94, -13.769245, 0.00083173846, 0.00017276726, -595890.75, -52704.67, 0.0, 10.006103, 9.913281 
5.7354414e+3, 2.5448632e+2, -497179.34, -568080.75, -25.146769, 0.00083245436, -0.000009759807, -497179.3, -51144.586, 0.0, 10.006097, 9.91318 
5.73544e+3, 2.6439264e+2, -408990.75, -490793.56, -9.44381, 0.00083253626, 0.00023365763, -408990.75, -60037.816, 0.0, 10.00609, 9.899088 
5.7354397e+3, 2.7429226e+2, -309747.9, -391219.28, -19.860449, 0.0008318259, -0.00011781408, -309747.9, -57811.4, 0.0, 10.006084, 9.899507 
5.735439e+3, 2.841837e+2, -223221.89, -317795.66, -3.5951278, 0.0008310291, 0.00031204202, -223221.89, -68221.71, 0.0, 10.006079, 9.8826685 
5.7354385e+3, 2.9406744e+2, -123548.87, -217501.94, -13.660772, 0.0008301171, -0.00016656215, -123548.87, -65409.25, 0.0, 10.006075, 9.883455 
5.735437e+3, 3.03979e+2, -34073.61, -84938.36, 2.1381392, 0.00082971697, 0.00025589118, -34073.61, -34073.61, 0.0, 10.00607, 9.939123 
5.735437e+3, 3.1391996e+2, -33024.535, -82748.75, -7.2728586, 0.00083006255, 0.00001223176, -33024.53, -33024.53, 0.0, 10.006066, 9.940603 
5.745461e+3, 1.250975e+2, -1712016.5, -1723149.8, 3.9066403, 0.000847062, 0.00017943935, -1712016.5, 2029.0684, 0.0, 10.006344, 9.991588 
5.745459e+3, 1.3508895e+2, -1614685.8, -1626404.4, -7.9545484, 0.000846442, -0.00000023428679, -1614685.8, 1443.749, 0.0, 10.006334, 9.990805 
5.7454586e+3, 1.4507383e+2, -1526627.8, -1547161.5, -2.5561428, 0.00084563135, 0.0002605547, -1526627.8, -8350.33, 0.0, 10.006326, 9.979121 
5.7454574e+3, 1.5505293e+2, -1428950.8, -1449880.3, -15.007643, 0.00084462034, 0.00007083775, -1428950.8, -8468.484, 0.0, 10.006315, 9.97859 
5.745456e+3, 1.6502543e+2, -1340945.8, -1371062.3, -10.825803, 0.00084418315, 0.00015231779, -1340945.6, -18193.77, 0.0, 10.006306, 9.966498 
5.745455e+3, 1.7499197e+2, -1243035.5, -1273462.0, -22.16134, 0.00084431417, 0.000048097696, -1243035.5, -17955.773, 0.0, 10.006297, 9.9660845 
5.745454e+3, 1.8495181e+2, -1155084.6, -1195088.5, -14.762929, 0.00084353064, 0.00019182349, -1155084.6, -27611.445, 0.0, 10.006289, 9.953534 
5.745453e+3, 1.9490539e+2, -1056982.4, -1097242.9, -27.029243, 0.00084181846, 0.000057962217, -1056982.4, -27054.232, 0.0, 10.00628, 9.953191 
5.745452e+3, 2.0485228e+2, -968860.94, -1018894.3, -15.840073, 0.0008414754, 0.0001781351, -968860.9, -36412.37, 0.0, 10.006271, 9.940422 
5.7454515e+3, 2.1479274e+2, -870620.2, -920909.44, -28.074015, 0.0008425667, -0.000017461876, -870620.1, -35588.133, 0.0, 10.006263, 9.940081 
5.74545e+3, 2.247265e+2, -782376.2, -842696.5, -14.853548, 0.00084202905, 0.00022756412, -782376.2, -44695.04, 0.0, 10.006255, 9.927031 
5.745449e+3, 2.3465359e+2, -683985.9, -744556.75, -26.625286, 0.0008396985, 0.000012945192, -683985.9, -43590.246, 0.0, 10.006248, 9.926699 
5.7454485e+3, 2.4457373e+2, -595703.4, -666661.7, -11.900317, 0.0008389411, 0.00017319468, -595703.4, -52525.133, 0.0, 10.006242, 9.913249 
5.745447e+3, 2.544871e+2, -496996.16, -568026.2, -23.350208, 0.0008400119, -0.000009600067, -496996.13, -50968.953, 0.0, 10.006233, 9.913148 
5.7454467e+3, 2.6439336e+2, -408808.8, -490739.3, -7.3758645, 0.00084008224, 0.00023390411, -408808.8, -59863.105, 0.0, 10.006227, 9.899056 
5.745446e+3, 2.7429298e+2, -309565.34, -391165.2, -18.24057, 0.00083890447, -0.00011704115, -309565.34, -57635.785, 0.0, 10.006222, 9.899474 
5.7454455e+3, 2.841844e+2, -223039.94, -317742.44, -2.0603325, 0.0008379456, 0.0003128519, -223039.94, -68046.375, 0.0, 10.006216, 9.882636 
5.745444e+3, 2.940681e+2, -123369.86, -217450.7, -12.187531, 0.0008372823, -0.00016637181, -123369.86, -65236.54, 0.0, 10.006211, 9.883424 
5.7454437e+3, 3.039796e+2, -33899.383, -84891.13, 3.740656, 0.0008370845, 0.00025587078, -33899.383, -33899.383, 0.0, 10.006206, 9.93909 
5.745443e+3, 3.1392053e+2, -32853.254, -82703.08, -5.4112463, 0.00083756173, 0.000012601604, -32853.254, -32853.254, 0.0, 10.0062, 9.94057 
5.7554674e+3, 1.2509869e+2, -1712041.5, -1723200.1, 0.7197428, 0.00085624633, 0.00018059973, -1712041.5, 1992.3857, 0.0, 10.006345, 9.991556 
5.7554656e+3, 1.350901e+2, -1614710.5, -1626454.6, -11.155068, 0.0008523332, 0.0000004831075, -1614710.5, 1407.5685, 0.0, 10.006336, 9.990772 
5.755465e+3, 1.4507496e+2, -1526653.4, -1547213.6, -6.337831, 0.0008514135, 0.00026094145, -1526653.4, -8387.055, 0.0, 10.006327, 9.979088 
5.755464e+3, 1.5505403e+2, -1428976.1, -1449931.9, -18.766476, 0.00085337064, 0.00007100127, -1428976.0, -8504.505, 0.0, 10.006317, 9.978557 
5.7554626e+3, 1.6502649e+2, -1340968.1, -1371108.8, -13.867313, 0.0008529723, 0.00015279738, -1340968.1, -18226.654, 0.0, 10.006308, 9.966469 
5.7554615e+3, 1.74993e+2, -1243057.8, -1273508.3, -25.211832, 0.0008502633, 0.000049423947, -1243057.8, -17988.16, 0.0, 10.006299, 9.966055 
5.75546e+3, 1.8495283e+2, -1155108.8, -1195138.8, -18.006323, 0.0008494968, 0.00019295681, -1155108.8, -27645.473, 0.0, 10.00629, 9.953502 
5.7554597e+3, 1.9490635e+2, -1057006.4, -1097292.9, -30.273232, 0.00085068645, 0.00005785276, -1057006.3, -27087.678, 0.0, 10.006282, 9.953158 
5.7554585e+3, 2.0485322e+2, -968884.94, -1018944.9, -18.936178, 0.00085039414, 0.00017783359, -968884.94, -36445.605, 0.0, 10.006273, 9.94039 
5.755457e+3, 2.1479364e+2, -870643.8, -920959.6, -31.16793, 0.0008485483, -0.00001685447, -870643.75, -35620.656, 0.0, 10.006265, 9.940048 
5.7554567e+3, 2.2472738e+2, -782399.3, -842745.94, -17.263983, 0.0008476732, 0.00022877975, -782399.3, -44726.742, 0.0, 10.006257, 9.926998 
5.7554555e+3, 2.3465444e+2, -684008.9, -744606.0, -29.025196, 0.0008478612, 0.000014438913, -684008.9, -43621.516, 0.0, 10.00625, 9.926666 
5.7554543e+3, 2.4457453e+2, -595726.3, -666711.1, -14.829926, 0.00084774947, 0.00017373732, -595726.3, -52556.03, 0.0, 10.006243, 9.913216 
5.755454e+3, 2.5448787e+2, -497018.63, -568075.2, -26.291891, 0.00084728695, -0.000011437066, -497018.63, -50999.04, 0.0, 10.006235, 9.9131155 
5.7554525e+3, 2.643941e+2, -408830.94, -490787.94, -9.275447, 0.00084656983, 0.00023294803, -408830.94, -59892.51, 0.0, 10.006228, 9.899023 
5.755452e+3, 2.7429366e+2, -309587.3, -391213.6, -20.111862, 0.00084553455, -0.00011306536, -309587.3, -57664.746, 0.0, 10.006224, 9.899442 
5.7554513e+3, 2.8418508e+2, -223061.52, -317790.22, -4.105637, 0.0008451035, 0.00031647037, -223061.52, -68074.63, 0.0, 10.006218, 9.882605 
5.755451e+3, 2.9406872e+2, -123391.12, -217498.16, -14.184399, 0.00084548, -0.00017020688, -123391.12, -65264.105, 0.0, 10.006212, 9.883391 
5.75545e+3, 3.0398023e+2, -33920.54, -84938.6, 1.7389585, 0.0008452305, 0.0002513675, -33920.54, -33920.54, 0.0, 10.0062065, 9.939057 
5.755449e+3, 3.1392112e+2, -32874.29, -82750.53, -7.5227103, 0.0008440623, 0.000017367625, -32874.285, -32874.285, 0.0, 10.006201, 9.9405365 
5.765474e+3, 1.250999e+2, -1711828.4, -1723123.5, 4.4528666, 0.0008632728, 0.00018107046, -1711828.4, 2193.6504, 0.0, 10.006494, 9.991524 
5.7654727e+3, 1.3509127e+2, -1614501.1, -1626380.5, -7.8880186, 0.0008601602, 0.0000013716959, -1614501.1, 1605.4756, 0.0, 10.006483, 9.99074 
5.7654715e+3, 1.4507611e+2, -1526446.0, -1547141.4, -3.3773758, 0.0008592667, 0.00026184562, -1526446.0, -8190.8286, 0.0, 10.006474, 9.979055 
5.76547e+3, 1.5505514e+2, -1428769.1, -1449860.4, -15.665024, 0.0008605024, 0.00007153179, -1428769.1, -8308.392, 0.0, 10.006463, 9.978524 
5.7654685e+3, 1.6502756e+2, -1340760.6, -1371034.8, -10.493787, 0.00085998466, 0.00015321399, -1340760.6, -18029.678, 0.0, 10.0064535, 9.966438 
5.765468e+3, 1.7499405e+2, -1242853.1, -1273436.4, -22.205849, 0.0008577467, 0.00004998208, -1242853.1, -17793.87, 0.0, 10.006444, 9.966024 
5.7654667e+3, 1.8495384e+2, -1154908.5, -1195072.3, -15.394551, 0.000857167, 0.00019359276, -1154908.5, -27455.16, 0.0, 10.006434, 9.953469 
5.765466e+3, 1.9490734e+2, -1056808.5, -1097228.1, -27.859217, 0.00085825735, 0.000058501988, -1056808.5, -26899.508, 0.0, 10.006425, 9.953125 
5.765465e+3, 2.0485418e+2, -968688.3, -1018881.56, -16.179796, 0.00085772463, 0.00017842752, -968688.3, -36258.258, 0.0, 10.006416, 9.940356 
5.765464e+3, 2.1479456e+2, -870446.94, -920896.8, -28.575958, 0.00085548987, -0.00001638738, -870446.94, -35432.777, 0.0, 10.006409, 9.940015 
5.765463e+3, 2.2472826e+2, -782204.56, -842684.3, -15.001897, 0.00085478154, 0.00022924434, -782204.56, -44540.6, 0.0, 10.0064, 9.926965 
5.765462e+3, 2.3465528e+2, -683819.7, -744547.75, -27.071072, 0.0008557468, 0.000015037384, -683819.7, -43440.613, 0.0, 10.006391, 9.926634 
5.765461e+3, 2.4457537e+2, -595538.56, -666653.75, -12.517547, 0.0008556239, 0.00017428433, -595538.56, -52376.297, 0.0, 10.006383, 9.913183 
5.76546e+3, 2.5448868e+2, -496828.84, -568017.4, -23.94537, 0.00085423386, -0.0000111572335, -496828.84, -50816.94, 0.0, 10.006377, 9.913083 
5.765459e+3, 2.6439488e+2, -408642.63, -490732.56, -7.1615963, 0.0008532942, 0.00023332452, -408642.63, -59711.566, 0.0, 10.006371, 9.89899 
5.7654583e+3, 2.742944e+2, -309403.78, -391161.2, -18.86308, 0.00085291284, -0.00011213937, -309403.78, -57488.246, 0.0, 10.006363, 9.899408 
5.765458e+3, 2.8418577e+2, -222878.67, -317734.97, -2.6363342, 0.00085282756, 0.00031723076, -222878.67, -67898.5, 0.0, 10.006355, 9.882574 
5.765457e+3, 2.940694e+2, -123209.87, -217443.9, -11.533685, 0.0008531343, -0.00017057249, -123209.87, -65089.266, 0.0, 10.00635, 9.883361 
5.765456e+3, 3.0398083e+2, -33744.363, -84893.664, 4.4854016, 0.0008525743, 0.00025105203, -33744.363, -33744.363, 0.0, 10.006345, 9.939021 
5.7654554e+3, 3.139217e+2, -32695.814, -82705.164, -7.18031, 0.00085074804, 0.000018825338, -32695.813, -32695.813, 0.0, 10.006341, 9.9405 
5.77548e+3, 1.2510112e+2, -1711854.4, -1723175.9, 0.6774934, 0.0008685185, 0.00018096974, -1711854.4, 2155.7866, 0.0, 10.006495, 9.99149 
5.775479e+3, 1.3509245e+2, -1614526.9, -1626432.6, -11.657407, 0.0008696099, 0.0000024023775, -1614526.9, 1568.1398, 0.0, 10.006485, 9.990706 
5.775477e+3, 1.4507726e+2, -1526471.3, -1547192.6, -6.95907, 0.0008688532, 0.00026318015, -1526471.3, -8227.288, 0.0, 10.006475, 9.979023 
5.7754767e+3, 1.5505625e+2, -1428794.0, -1449911.4, -19.260223, 0.00086629705, 0.00007237037, -1428793.9, -8344.177, 0.0, 10.006465, 9.978492 
5.7754755e+3, 1.6502865e+2, -1340783.9, -1371082.9, -14.000823, 0.00086553, 0.00015358075, -1340783.8, -18063.518, 0.0, 10.006455, 9.966407 
5.7754743e+3, 1.749951e+2, -1242876.3, -1273484.3, -25.697882, 0.0008665223, 0.00004990055, -1242876.1, -17827.207, 0.0, 10.006446, 9.965993 
5.775473e+3, 1.8495487e+2, -1154933.0, -1195123.3, -18.958874, 0.00086626847, 0.0001938145, -1154933.0, -27489.676, 0.0, 10.006436, 9.953436 
5.775472e+3, 1.9490832e+2, -1056832.6, -1097278.9, -31.44045, 0.00086475356, 0.00005978569, -1056832.6, -26933.295, 0.0, 10.006427, 9.953093 
5.7754713e+3, 2.0485511e+2, -968712.5, -1018932.75, -18.949598, 0.00086373976, 0.00017977033, -968712.5, -36291.832, 0.0, 10.006418, 9.940323 
5.77547e+3, 2.1479549e+2, -870471.06, -920947.75, -31.327702, 0.00086324895, -0.000016035798, -870471.06, -35465.92, 0.0, 10.006411, 9.939981 
5.775469e+3, 2.2472914e+2, -782228.4, -842735.06, -18.518816, 0.0008631269, 0.00022908271, -782228.4, -44573.152, 0.0, 10.006402, 9.926931 
5.7754683e+3, 2.3465614e+2, -683843.0, -744598.06, -30.606073, 0.0008634067, 0.000014887203, -683843.0, -43472.316, 0.0, 10.0063925, 9.9266 
5.775467e+3, 2.4457617e+2, -595561.2, -666702.94, -14.698753, 0.00086272345, 0.000174836, -595561.2, -52406.95, 0.0, 10.006385, 9.913151 
5.7754666e+3, 2.5448945e+2, -496851.34, -568066.3, -26.10233, 0.00086092, -0.000009101893, -496851.3, -50847.17, 0.0, 10.006378, 9.91305 
5.7754654e+3, 2.6439562e+2, -408666.56, -490784.66, -9.935554, 0.00086023245, 0.00023481825, -408666.56, -59742.93, 0.0, 10.0063715, 9.898955 
5.775465e+3, 2.7429512e+2, -309427.4, -391213.13, -21.60663, 0.0008609279, -0.000113771835, -309427.4, -57518.926, 0.0, 10.006364, 9.899373 
5.7754636e+3, 2.8418645e+2, -222897.97, -317778.4, -4.850696, 0.0008610327, 0.00031559565, -222897.97, -67924.53, 0.0, 10.006357, 9.8825445 
5.7754636e+3, 2.9407004e+2, -123228.52, -217486.39, -13.827955, 0.00086034054, -0.00016802127, -123228.52, -65114.414, 0.0, 10.006351, 9.883332 
5.7754624e+3, 3.0398148e+2, -33769.47, -84949.58, 3.030755, 0.0008592558, 0.00025425383, -33769.47, -33769.47, 0.0, 10.006346, 9.938983 
5.775462e+3, 3.1392232e+2, -32721.854, -82762.7, -8.383169, 0.00085760443, 0.000017499642, -32721.852, -32721.852, 0.0, 10.006342, 9.940461 
5.7854867e+3, 1.2510234e+2, -1711637.3, -1723098.1, 4.662358, 0.0008759961, 0.00018163829, -1711637.3, 2360.8506, 0.0, 10.006647, 9.991457 
5.7854855e+3, 1.3509366e+2, -1614313.5, -1626357.4, -7.865734, 0.00087706576, 0.00000283767, -1614313.5, 1769.7908, 0.0, 10.006635, 9.990673 
5.7854843e+3, 1.4507842e+2, -1526260.0, -1547119.1, -2.9618347, 0.00087629294, 0.00026366184, -1526260.0, -8027.3877, 0.0, 10.006624, 9.97899 
5.785483e+3, 1.5505737e+2, -1428583.6, -1449838.9, -15.80971, 0.0008737246, 0.00007316737, -1428583.6, -8144.878, 0.0, 10.006615, 9.978458 
5.785482e+3, 1.6502973e+2, -1340573.1, -1371007.5, -11.01651, 0.00087304367, 0.00015437693, -1340573.1, -17863.586, 0.0, 10.006604, 9.966376 
5.785481e+3, 1.7499617e+2, -1242669.1, -1273411.3, -22.597128, 0.00087421964, 0.000050385905, -1242669.1, -17630.55, 0.0, 10.006593, 9.965962 
5.7854795e+3, 1.8495588e+2, -1154729.6, -1195056.3, -15.56108, 0.00087378256, 0.00019424522, -1154729.6, -27296.406, 0.0, 10.006583, 9.9534025 
5.7854784e+3, 1.9490933e+2, -1056628.8, -1097212.1, -28.56772, 0.0008717137, 0.000060420334, -1056628.8, -26739.191, 0.0, 10.006575, 9.953058 
5.785478e+3, 2.048561e+2, -968510.6, -1018867.0, -16.406351, 0.00087088236, 0.00018047662, -968510.6, -36099.387, 0.0, 10.006565, 9.9402895 
5.7854766e+3, 2.1479642e+2, -870275.06, -920885.56, -28.798876, 0.00087134534, -0.0000153966, -870275.06, -35279.043, 0.0, 10.006554, 9.939948 
5.7854754e+3, 2.2473004e+2, -782034.0, -842674.4, -15.675174, 0.000871139, 0.00022956323, -782034.0, -44387.58, 0.0, 10.006545, 9.926898 
5.785475e+3, 2.34657e+2, -683646.06, -744536.6, -27.922215, 0.00087019557, 0.000015108858, -683646.06, -43283.85, 0.0, 10.006537, 9.926567 
5.7854736e+3, 2.44577e+2, -595365.5, -666642.9, -12.2548685, 0.0008693672, 0.00017526874, -595365.5, -52219.41, 0.0, 10.00653, 9.913116 
5.7854724e+3, 2.5449026e+2, -496661.63, -568009.75, -24.441277, 0.0008686705, -0.000007912574, -496661.6, -50665.26, 0.0, 10.00652, 9.913016 
5.7854724e+3, 2.643964e+2, -408479.25, -490729.0, -7.988635, 0.00086831977, 0.00023570833, -408479.25, -59563.082, 0.0, 10.006513, 9.898922 
5.785471e+3, 2.7429584e+2, -309240.06, -391157.94, -18.443476, 0.0008683952, -0.000114491304, -309240.06, -57338.71, 0.0, 10.006505, 9.899341 
5.78547e+3, 2.8418714e+2, -222710.53, -317723.5, -1.7260998, 0.00086807465, 0.00031507047, -222710.53, -67743.92, 0.0, 10.006499, 9.882511 
5.78547e+3, 2.9407072e+2, -123042.13, -217432.55, -13.3746605, 0.0008672206, -0.00016593546, -123042.13, -64934.54, 0.0, 10.006493, 9.8833 
5.7854694e+3, 3.0398208e+2, -33588.098, -84900.76, 3.341045, 0.0008663997, 0.00025640076, -33588.098, -33588.098, 0.0, 10.006487, 9.938949 
5.785468e+3, 3.1392288e+2, -32545.287, -82716.43, -4.963478, 0.0008656297, 0.000015981688, -32545.287, -32545.287, 0.0, 10.006479, 9.940426 
5.795493e+3, 1.2510358e+2, -1711663.9, -1723151.5, 0.22743574, 0.0008853347, 0.00018294532, -1711663.9, 2322.1716, 0.0, 10.006649, 9.991424 
5.795492e+3, 1.3509485e+2, -1614339.5, -1626410.3, -12.277897, 0.00088287913, 0.000002782707, -1614339.5, 1732.0066, 0.0, 10.006637, 9.99064 
5.795491e+3, 1.4507958e+2, -1526286.1, -1547172.8, -6.493196, 0.00088196486, 0.00026343967, -1526286.1, -8065.0664, 0.0, 10.006626, 9.978955 
5.7954895e+3, 1.5505852e+2, -1428609.8, -1449892.3, -19.33125, 0.00088252086, 0.00007392994, -1428609.8, -8182.1265, 0.0, 10.006617, 9.978424 
5.795489e+3, 1.6503084e+2, -1340596.1, -1371055.1, -15.104828, 0.00088220247, 0.00015552925, -1340596.1, -17897.35, 0.0, 10.006606, 9.966346 
5.795487e+3, 1.7499724e+2, -1242691.6, -1273458.5, -26.705965, 0.00088102993, 0.0000513446, -1242691.6, -17663.547, 0.0, 10.006595, 9.965932 
5.7954866e+3, 1.8495692e+2, -1154755.1, -1195109.4, -18.726671, 0.00087998883, 0.00019485236, -1154755.1, -27332.055, 0.0, 10.006585, 9.953367 
5.7954854e+3, 1.9491032e+2, -1056654.1, -1097265.0, -31.7082, 0.00087907567, 0.00006051638, -1056654.1, -26774.402, 0.0, 10.006577, 9.953024 
5.795484e+3, 2.0485705e+2, -968534.94, -1018918.2, -20.345264, 0.0008789767, 0.00018065408, -968534.94, -36133.215, 0.0, 10.006566, 9.940256 
5.795483e+3, 2.1479735e+2, -870298.9, -920936.4, -32.76836, 0.0008797279, -0.00001451745, -870298.8, -35312.035, 0.0, 10.006556, 9.939915 
5.795482e+3, 2.2473094e+2, -782057.9, -842725.56, -18.30618, 0.0008788797, 0.00023057987, -782057.9, -44420.3, 0.0, 10.006547, 9.926865 
5.795481e+3, 2.3465787e+2, -683669.8, -744587.6, -30.522987, 0.00087627553, 0.000015644264, -683669.8, -43316.13, 0.0, 10.006539, 9.926533 
5.7954806e+3, 2.4457785e+2, -595389.8, -666695.3, -15.608063, 0.0008756493, 0.00017560457, -595389.8, -52251.945, 0.0, 10.006532, 9.913082 
5.7954794e+3, 2.5449103e+2, -496685.56, -568061.9, -27.790636, 0.0008773163, -0.0000074497543, -496685.56, -50697.07, 0.0, 10.006522, 9.912982 
5.795478e+3, 2.6439714e+2, -408500.63, -490776.34, -10.511234, 0.00087736954, 0.00023609315, -408500.63, -59592.004, 0.0, 10.006514, 9.8988905 
5.7954776e+3, 2.742966e+2, -309261.03, -391204.72, -21.003803, 0.0008754158, -0.000114437615, -309261.03, -57366.918, 0.0, 10.006507, 9.899308 
5.795477e+3, 2.8418785e+2, -222734.6, -317776.88, -3.9917684, 0.0008741604, 0.0003154807, -222734.6, -67774.88, 0.0, 10.0065, 9.882476 
5.795476e+3, 2.9407138e+2, -123066.22, -217486.14, -15.482706, 0.00087384356, -0.00016425115, -123066.21, -64965.164, 0.0, 10.0064945, 9.883264 
5.795476e+3, 3.0398273e+2, -33608.258, -84946.336, 0.94490516, 0.0008739423, 0.0002576538, -33608.258, -33608.258, 0.0, 10.006488, 9.938917 
5.795475e+3, 3.1392348e+2, -32564.95, -82761.14, -7.554708, 0.00087463506, 0.000014321318, -32564.947, -32564.947, 0.0, 10.006481, 9.940395 
5.8055e+3, 1.2510483e+2, -1711446.6, -1723073.9, 4.2066345, 0.000893425, 0.00018378811, -1711446.6, 2527.1404, 0.0, 10.006801, 9.991389 
5.805499e+3, 1.3509607e+2, -1614119.6, -1626331.8, -8.318696, 0.00088996533, 0.0000036357196, -1614119.6, 1940.0095, 0.0, 10.006791, 9.990606 
5.805498e+3, 1.4508076e+2, -1526068.4, -1547096.5, -2.8759506, 0.0008890204, 0.0002641465, -1526068.4, -7858.783, 0.0, 10.00678, 9.978921 
5.8054966e+3, 1.5505967e+2, -1428398.1, -1449819.9, -15.738675, 0.0008904846, 0.00007433933, -1428398.1, -7981.774, 0.0, 10.006766, 9.97839 
5.8054954e+3, 1.6503195e+2, -1340384.1, -1370979.9, -11.282754, 0.00089013844, 0.00015599749, -1340384.1, -17696.322, 0.0, 10.006756, 9.966314 
5.805494e+3, 1.7499833e+2, -1242478.0, -1273383.0, -23.449347, 0.0008880199, 0.00005222096, -1242478.0, -17460.578, 0.0, 10.006746, 9.9659 
5.805493e+3, 1.8495798e+2, -1154545.5, -1195039.4, -15.731907, 0.00088704075, 0.00019572288, -1154545.5, -27132.783, 0.0, 10.006736, 9.953334 
5.805492e+3, 1.9491135e+2, -1056450.6, -1097198.8, -28.45358, 0.0008872052, 0.000060964103, -1056450.6, -26580.861, 0.0, 10.006723, 9.95299 
5.8054906e+3, 2.0485805e+2, -968333.4, -1018853.7, -16.926191, 0.0008870645, 0.00018097162, -968333.4, -35941.285, 0.0, 10.006713, 9.940222 
5.80549e+3, 2.147983e+2, -870095.25, -920871.3, -29.95139, 0.00088660343, -0.000014024063, -870095.25, -35117.742, 0.0, 10.006704, 9.93988 
5.805489e+3, 2.2473186e+2, -781855.44, -842661.4, -15.605568, 0.00088566233, 0.0002313016, -781855.44, -44226.832, 0.0, 10.006696, 9.92683 
5.8054876e+3, 2.3465875e+2, -683473.0, -744526.8, -28.047348, 0.0008841917, 0.000016651748, -683473.0, -43127.95, 0.0, 10.006685, 9.926499 
5.805487e+3, 2.4457869e+2, -595195.56, -666636.2, -12.996171, 0.0008837981, 0.00017625674, -595195.56, -52065.977, 0.0, 10.006676, 9.913049 
5.805486e+3, 2.5449187e+2, -496491.2, -568003.25, -24.679855, 0.0008846526, -0.000007896502, -496491.2, -50510.633, 0.0, 10.006667, 9.912948 
5.8054847e+3, 2.6439792e+2, -408307.1, -490719.03, -7.424069, 0.00088436686, 0.0002359782, -408307.1, -59406.06, 0.0, 10.0066595, 9.898856 
5.8054847e+3, 2.7429733e+2, -309069.66, -391149.06, -19.804556, 0.00088266184, -0.00011244626, -309069.66, -57182.816, 0.0, 10.006652, 9.899274 
5.8054835e+3, 2.8418857e+2, -222544.31, -317720.22, -2.7436504, 0.00088169816, 0.00031730018, -222544.31, -67591.555, 0.0, 10.006644, 9.882443 
5.805483e+3, 2.9407206e+2, -122879.586, -217431.69, -11.722922, 0.0008817287, -0.00016565535, -122879.586, -64785.152, 0.0, 10.006637, 9.883231 
5.8054817e+3, 3.0398336e+2, -33426.8, -84898.69, 4.9769406, 0.0008816984, 0.00025599648, -33426.8, -33426.8, 0.0, 10.006629, 9.938881 
5.8054817e+3, 3.139241e+2, -32382.281, -82713.305, -6.9007497, 0.00088156894, 0.000016755374, -32382.28, -32382.28, 0.0, 10.006623, 9.940359 
5.8155066e+3, 1.2510608e+2, -1711472.8, -1723127.0, 0.76517373, 0.00090049376, 0.00018424896, -1711472.8, 2488.6584, 0.0, 10.006803, 9.991356 
5.815506e+3, 1.350973e+2, -1614145.9, -1626384.9, -11.786052, 0.00089811935, 0.0000052379683, -1614145.9, 1901.7809, 0.0, 10.006793, 9.990572 
5.815504e+3, 1.4508195e+2, -1526094.9, -1547150.3, -7.670785, 0.0008972344, 0.00026562062, -1526094.9, -7896.952, 0.0, 10.006782, 9.978887 
5.8155036e+3, 1.5506083e+2, -1428424.0, -1449873.1, -20.520166, 0.000897768, 0.00007446052, -1428424.0, -8018.9585, 0.0, 10.006768, 9.978355 
5.815502e+3, 1.6503309e+2, -1340408.1, -1371029.8, -14.661887, 0.0008970723, 0.000155904, -1340408.1, -17731.227, 0.0, 10.006758, 9.966282 
5.815501e+3, 1.7499942e+2, -1242501.9, -1273432.6, -26.817368, 0.0008951758, 0.000053028703, -1242501.9, -17495.148, 0.0, 10.006748, 9.965868 
5.8154994e+3, 1.8495904e+2, -1154570.5, -1195091.5, -20.108599, 0.0008948083, 0.00019681036, -1154570.5, -27168.133, 0.0, 10.006738, 9.9532995 
5.815499e+3, 1.9491237e+2, -1056475.1, -1097250.4, -32.857964, 0.0008959757, 0.00006170577, -1056475.1, -26615.379, 0.0, 10.006725, 9.952956 
5.8154976e+3, 2.0485903e+2, -968358.7, -1018907.25, -20.104595, 0.0008951527, 0.00018140898, -968358.6, -35976.28, 0.0, 10.006715, 9.9401865 
5.8154964e+3, 2.1479926e+2, -870120.44, -920924.7, -33.094116, 0.0008922484, -0.000013848003, -870120.4, -35152.23, 0.0, 10.006706, 9.939846 
5.815496e+3, 2.2473279e+2, -781879.9, -842713.6, -19.316723, 0.00089167024, 0.00023177921, -781879.9, -44260.3, 0.0, 10.006697, 9.926796 
5.8154947e+3, 2.3465964e+2, -683497.1, -744578.75, -31.777847, 0.00089363736, 0.000018047816, -683497.06, -43160.72, 0.0, 10.006687, 9.926465 
5.8154935e+3, 2.4457954e+2, -595218.7, -666686.5, -16.076855, 0.0008934987, 0.0001771713, -595218.7, -52097.434, 0.0, 10.006678, 9.913014 
5.815493e+3, 2.5449267e+2, -496513.9, -568053.2, -27.765324, 0.00089091534, -0.000009087182, -496513.9, -50541.38, 0.0, 10.006669, 9.912914 
5.8154917e+3, 2.6439872e+2, -408332.06, -490773.78, -10.216835, 0.000889678, 0.00023545633, -408332.06, -59438.71, 0.0, 10.006661, 9.898819 
5.8154905e+3, 2.742981e+2, -309094.53, -391203.8, -22.517303, 0.0008901086, -0.00010885958, -309094.53, -57215.047, 0.0, 10.006654, 9.899238 
5.8154905e+3, 2.8418928e+2, -222563.97, -317764.5, -5.574929, 0.00089045125, 0.0003202773, -222563.97, -67618.22, 0.0, 10.006646, 9.882413 
5.815489e+3, 2.9407275e+2, -122898.46, -217474.81, -14.660664, 0.0008906684, -0.00016960494, -122898.46, -64810.707, 0.0, 10.006638, 9.883202 
5.8154887e+3, 3.0398402e+2, -33452.24, -84955.664, 2.730873, 0.00088963954, 0.00025194493, -33452.24, -33452.24, 0.0, 10.006631, 9.938842 
5.815488e+3, 3.139247e+2, -32408.482, -82771.86, -8.983349, 0.00088679756, 0.000022572965, -32408.48, -32408.48, 0.0, 10.006625, 9.940318 
5.8255136e+3, 1.2510736e+2, -1711245.6, -1723045.1, 5.3545575, 0.00090717856, 0.00018472155, -1711245.6, 2703.368, 0.0, 10.006961, 9.991322 
5.8255124e+3, 1.3509855e+2, -1613927.8, -1626308.3, -7.742603, 0.00090656546, 0.000005866883, -1613927.8, 2107.746, 0.0, 10.006946, 9.990538 
5.825511e+3, 1.4508316e+2, -1525878.9, -1547075.4, -3.57603, 0.0009057173, 0.000266381, -1525878.9, -7692.8086, 0.0, 10.006934, 9.978852 
5.82551e+3, 1.5506198e+2, -1428204.3, -1449796.8, -16.605278, 0.00090462604, 0.00007532712, -1428204.3, -7810.6904, 0.0, 10.006924, 9.978321 
5.825509e+3, 1.650342e+2, -1340187.8, -1370950.8, -10.87661, 0.00090384966, 0.00015661723, -1340187.8, -17522.063, 0.0, 10.006912, 9.96625 
5.8255076e+3, 1.7500052e+2, -1242288.8, -1273358.0, -22.970133, 0.0009033852, 0.000053334687, -1242288.8, -17292.799, 0.0, 10.0069, 9.965837 
5.8255064e+3, 1.8496011e+2, -1154361.9, -1195022.8, -16.340801, 0.0009031085, 0.00019717972, -1154361.9, -26969.975, 0.0, 10.006887, 9.953265 
5.825505e+3, 1.949134e+2, -1056264.6, -1097181.4, -29.79374, 0.0009030166, 0.000062612104, -1056264.6, -26415.076, 0.0, 10.006878, 9.952922 
5.8255047e+3, 2.0486003e+2, -968149.25, -1018839.1, -16.959562, 0.0009020325, 0.00018238198, -968149.25, -35776.68, 0.0, 10.006867, 9.940152 
5.8255035e+3, 2.1480022e+2, -869915.75, -920859.56, -29.730053, 0.0009001138, -0.000013299652, -869915.75, -34957.063, 0.0, 10.006856, 9.939811 
5.825502e+3, 2.2473373e+2, -781678.0, -842650.5, -16.040157, 0.0008997619, 0.00023205757, -781678.0, -44067.535, 0.0, 10.006845, 9.926762 
5.8255017e+3, 2.3466054e+2, -683296.3, -744516.7, -28.799822, 0.00090112427, 0.000018225766, -683296.3, -42968.703, 0.0, 10.006836, 9.92643 
5.8255005e+3, 2.4458042e+2, -595018.56, -666625.06, -12.969373, 0.0009007273, 0.00017770454, -595018.56, -51905.746, 0.0, 10.006826, 9.91298 
5.825499e+3, 2.544935e+2, -496315.1, -567992.94, -25.426321, 0.0008982866, -0.000007670982, -496315.1, -50350.668, 0.0, 10.006818, 9.91288 
5.8254987e+3, 2.643995e+2, -408135.84, -490716.0, -7.9315524, 0.0008972274, 0.00023653192, -408135.84, -59250.28, 0.0, 10.006809, 9.898785 
5.8254975e+3, 2.7429882e+2, -308902.4, -391148.7, -19.185293, 0.0008978801, -0.00010963996, -308902.4, -57030.33, 0.0, 10.006799, 9.899202 
5.825497e+3, 2.8419e+2, -222371.88, -317706.97, -2.0756073, 0.0008981646, 0.00031957345, -222371.88, -67433.21, 0.0, 10.006791, 9.8823805 
5.8254963e+3, 2.9407343e+2, -122706.336, -217417.58, -13.1920805, 0.0008979487, -0.00016764758, -122706.336, -64625.36, 0.0, 10.0067835, 9.883169 
5.825496e+3, 3.0398467e+2, -33265.43, -84907.4, 4.013751, 0.0008968209, 0.00025416812, -33265.43, -33265.43, 0.0, 10.006777, 9.938804 
5.8254945e+3, 3.1392533e+2, -32222.936, -82724.836, -6.1455135, 0.0008943681, 0.000021565666, -32222.936, -32222.936, 0.0, 10.00677, 9.940281 
5.835521e+3, 1.2510864e+2, -1711273.4, -1723100.9, -0.031688113, 0.0009135711, 0.00018520726, -1711273.4, 2663.0334, 0.0, 10.006963, 9.991286 
5.8355194e+3, 1.3509978e+2, -1613954.9, -1626363.5, -13.087999, 0.0009152556, 0.000005698838, -1613954.8, 2068.4436, 0.0, 10.0069475, 9.990502 
5.835518e+3, 1.4508438e+2, -1525905.4, -1547129.6, -7.115766, 0.000914424, 0.00026655666, -1525905.4, -7731.131, 0.0, 10.006936, 9.978818 
5.835517e+3, 1.5506317e+2, -1428230.8, -1449850.9, -20.167929, 0.0009111541, 0.0000768066, -1428230.6, -7848.66, 0.0, 10.006926, 9.978287 
5.835516e+3, 1.6503535e+2, -1340211.8, -1371000.5, -15.7494955, 0.00091051933, 0.00015799442, -1340211.8, -17557.254, 0.0, 10.006914, 9.966218 
5.8355147e+3, 1.7500164e+2, -1242312.3, -1273407.3, -27.838549, 0.00091246766, 0.000053232237, -1242312.1, -17327.152, 0.0, 10.006902, 9.965804 
5.8355135e+3, 1.849612e+2, -1154388.1, -1195077.6, -19.972132, 0.00091185136, 0.00019696241, -1154388.1, -27006.748, 0.0, 10.00689, 9.95323 
5.835512e+3, 1.9491446e+2, -1056290.6, -1097236.0, -33.410717, 0.0009086508, 0.00006365347, -1056290.6, -26451.318, 0.0, 10.00688, 9.952886 
5.835511e+3, 2.0486104e+2, -968174.1, -1018891.8, -21.00946, 0.000907937, 0.00018379444, -968174.1, -35811.46, 0.0, 10.006869, 9.940118 
5.8355105e+3, 2.1480119e+2, -869940.4, -920911.94, -33.802, 0.0009098178, -0.000012442996, -869940.3, -34991.184, 0.0, 10.006858, 9.939776 
5.8355093e+3, 2.2473465e+2, -781702.9, -842703.9, -19.779348, 0.00090957625, 0.00023217563, -781702.9, -44101.617, 0.0, 10.006847, 9.926726 
5.835508e+3, 2.3466145e+2, -683320.75, -744569.7, -32.526344, 0.00090700854, 0.00001740496, -683320.75, -43002.016, 0.0, 10.006838, 9.926394 
5.8355075e+3, 2.4458128e+2, -595043.1, -666678.5, -16.077085, 0.00090593344, 0.0001779261, -595043.1, -51938.816, 0.0, 10.006828, 9.912945 
5.8355063e+3, 2.5449434e+2, -496339.53, -568046.2, -28.503326, 0.0009065862, -0.000004110746, -496339.53, -50383.297, 0.0, 10.00682, 9.912845 
5.835505e+3, 2.644003e+2, -408158.9, -490766.75, -11.4196825, 0.0009066345, 0.00023892056, -408158.9, -59281.176, 0.0, 10.00681, 9.89875 
5.8355045e+3, 2.742996e+2, -308924.9, -391198.84, -22.713549, 0.0009059284, -0.0001140121, -308924.9, -57060.28, 0.0, 10.006801, 9.899169 
5.835504e+3, 2.8419074e+2, -222394.89, -317758.66, -4.7475476, 0.00090502895, 0.0003158452, -222394.89, -67463.35, 0.0, 10.006792, 9.882345 
5.835503e+3, 2.9407412e+2, -122729.164, -217469.11, -15.791877, 0.0009038722, -0.00016082285, -122729.164, -64655.055, 0.0, 10.006785, 9.883134 
5.835502e+3, 3.0398536e+2, -33288.59, -84959.586, 1.6816598, 0.0009033896, 0.00026155764, -33288.59, -33288.59, 0.0, 10.006779, 9.938768 
5.8355016e+3, 3.1392592e+2, -32246.316, -82777.23, -8.4210205, 0.00090388436, 0.000014932647, -32246.314, -32246.314, 0.0, 10.006772, 9.940245 
5.8455276e+3, 1.2510994e+2, -1711049.3, -1723021.0, 4.5469685, 0.0009222902, 0.00018614084, -1711049.3, 2874.5217, 0.0, 10.007119, 9.991251 
5.8455265e+3, 1.3510105e+2, -1613726.5, -1626282.0, -8.355748, 0.0009219405, 0.000006218842, -1613726.5, 2284.366, 0.0, 10.007108, 9.990468 
5.845525e+3, 1.450856e+2, -1525679.3, -1547050.5, -2.3681755, 0.00092101994, 0.00026698355, -1525679.3, -7517.072, 0.0, 10.007095, 9.978782 
5.845524e+3, 1.5506436e+2, -1428012.5, -1449776.4, -15.959214, 0.0009195314, 0.00007744814, -1428012.5, -7642.0894, 0.0, 10.007081, 9.978251 
5.845523e+3, 1.6503651e+2, -1339993.3, -1370922.6, -11.854059, 0.0009190661, 0.00015877877, -1339993.3, -17350.143, 0.0, 10.007069, 9.966186 
5.8455217e+3, 1.7500277e+2, -1242091.8, -1273329.0, -24.13574, 0.0009196073, 0.000054088836, -1242091.8, -17117.754, 0.0, 10.007057, 9.965773 
5.8455205e+3, 1.8496229e+2, -1154171.3, -1195005.6, -16.004784, 0.000918745, 0.00019768576, -1154171.3, -26800.678, 0.0, 10.007046, 9.953194 
5.8455193e+3, 1.9491552e+2, -1056078.4, -1097166.9, -29.423237, 0.0009164652, 0.00006403739, -1056078.4, -26249.363, 0.0, 10.007034, 9.95285 
5.845518e+3, 2.0486206e+2, -967964.5, -1018824.1, -17.358355, 0.0009160396, 0.000184164, -967964.5, -35611.8, 0.0, 10.007022, 9.940083 
5.845517e+3, 2.1480219e+2, -869732.8, -920845.8, -30.674341, 0.0009175491, -0.0000117487, -869732.75, -34793.277, 0.0, 10.00701, 9.939741 
5.8455163e+3, 2.247356e+2, -781496.2, -842638.8, -16.330254, 0.00091702153, 0.00023300835, -781496.2, -43904.207, 0.0, 10.007, 9.926691 
5.845515e+3, 2.3466235e+2, -683114.06, -744505.25, -29.179285, 0.00091425993, 0.00001817213, -683114.0, -42804.258, 0.0, 10.00699, 9.926359 
5.845514e+3, 2.4458215e+2, -594838.9, -666616.1, -12.980095, 0.0009133482, 0.00017846776, -594838.9, -51743.215, 0.0, 10.00698, 9.9129095 
5.8455133e+3, 2.5449517e+2, -496140.97, -567987.25, -25.476334, 0.00091457914, -0.0000039793667, -496140.97, -50193.01, 0.0, 10.0069685, 9.912808 
5.845512e+3, 2.6440114e+2, -407961.75, -490707.94, -8.074699, 0.00091464876, 0.00023915542, -407961.75, -59091.945, 0.0, 10.006959, 9.898716 
5.845511e+3, 2.743004e+2, -308726.3, -391139.84, -19.845764, 0.0009132734, -0.00011303835, -308726.3, -56869.285, 0.0, 10.00695, 9.899134 
5.845511e+3, 2.8419146e+2, -222197.02, -317701.1, -2.0211234, 0.0009121416, 0.00031687017, -222197.02, -67272.73, 0.0, 10.006943, 9.882311 
5.84551e+3, 2.9407483e+2, -122534.92, -217413.97, -13.175422, 0.00091133785, -0.00016066592, -122534.92, -64467.707, 0.0, 10.006933, 9.883099 
5.845509e+3, 3.03986e+2, -33099.566, -84908.055, 4.386429, 0.0009111285, 0.00026147792, -33099.566, -33099.566, 0.0, 10.006925, 9.938732 
5.8455086e+3, 3.1392658e+2, -32061.02, -82727.555, -5.3833947, 0.0009117758, 0.00001554076, -32061.02, -32061.02, 0.0, 10.006915, 9.940208 
5.855535e+3, 1.2511125e+2, -1711076.3, -1723075.8, 0.45705542, 0.0009329083, 0.00018743951, -1711076.3, 2834.683, 0.0, 10.007121, 9.991217 
5.8555335e+3, 1.3510233e+2, -1613753.4, -1626336.6, -12.467209, 0.00092700985, 0.0000073039582, -1613753.4, 2244.999, 0.0, 10.00711, 9.990433 
5.855532e+3, 1.4508684e+2, -1525707.1, -1547107.4, -7.5854573, 0.0009259168, 0.00026761956, -1525707.1, -7557.0977, 0.0, 10.007097, 9.978745 
5.855531e+3, 1.5506557e+2, -1428039.9, -1449832.8, -21.137596, 0.00092942646, 0.000077406745, -1428039.9, -7681.249, 0.0, 10.007083, 9.978215 
5.85553e+3, 1.6503769e+2, -1340017.4, -1370973.0, -15.896544, 0.00092915, 0.00015907954, -1340017.4, -17385.63, 0.0, 10.007071, 9.966153 
5.855529e+3, 1.7500389e+2, -1242115.6, -1273379.1, -28.192556, 0.00092517457, 0.000055730216, -1242115.6, -17152.732, 0.0, 10.007059, 9.965739 
5.8555275e+3, 1.8496338e+2, -1154197.5, -1195060.5, -20.46509, 0.00092414673, 0.00019917943, -1154197.5, -26837.693, 0.0, 10.007048, 9.953158 
5.8555263e+3, 1.9491658e+2, -1056104.3, -1097221.4, -33.876446, 0.00092607597, 0.00006388664, -1056104.3, -26285.727, 0.0, 10.007035, 9.952815 
5.855525e+3, 2.048631e+2, -967990.4, -1018878.94, -21.653439, 0.00092594884, 0.00018368372, -967990.4, -35647.75, 0.0, 10.007024, 9.940047 
5.855524e+3, 2.1480317e+2, -869758.2, -920900.25, -34.968117, 0.00092367484, -0.000011186048, -869758.2, -34828.41, 0.0, 10.007012, 9.939706 
5.855523e+3, 2.2473656e+2, -781521.1, -842692.56, -19.758345, 0.00092254026, 0.00023442671, -781521.06, -43938.523, 0.0, 10.007002, 9.926656 
5.855522e+3, 2.3466328e+2, -683138.9, -744558.75, -32.594955, 0.0009226487, 0.000020241358, -683138.9, -42838.164, 0.0, 10.006992, 9.926324 
5.855521e+3, 2.4458304e+2, -594863.7, -666669.9, -17.210073, 0.0009225879, 0.00017927297, -594863.7, -51776.723, 0.0, 10.006982, 9.912874 
5.85552e+3, 2.5449604e+2, -496165.2, -568040.56, -29.720007, 0.00092232804, -0.000006656386, -496165.2, -50225.547, 0.0, 10.00697, 9.912773 
5.855519e+3, 2.644019e+2, -407985.38, -490760.44, -10.977796, 0.000921528, 0.00023762858, -407985.38, -59123.55, 0.0, 10.006961, 9.898681 
5.8555186e+3, 2.7430114e+2, -308749.8, -391192.1, -22.72484, 0.00092005584, -0.00010767668, -308749.8, -56900.47, 0.0, 10.006952, 9.899099 
5.8555174e+3, 2.8419223e+2, -222220.45, -317753.44, -5.261178, 0.0009194749, 0.00032179375, -222220.45, -67303.52, 0.0, 10.006945, 9.882276 
5.855517e+3, 2.9407555e+2, -122558.03, -217465.97, -16.34357, 0.00092008343, -0.00016598367, -122558.02, -64497.734, 0.0, 10.006935, 9.883063 
5.855516e+3, 3.039867e+2, -33121.99, -84958.96, 1.1666334, 0.00091983826, 0.00025526976, -33121.99, -33121.99, 0.0, 10.006927, 9.938697 
5.855515e+3, 3.139272e+2, -32083.182, -82778.29, -8.772622, 0.0009183395, 0.000022103077, -32083.18, -32083.18, 0.0, 10.006918, 9.940173 
5.8655417e+3, 1.2511258e+2, -1710843.4, -1722991.9, 5.405469, 0.0009398117, 0.00018800165, -1710843.4, 3054.553, 0.0, 10.007283, 9.991181 
5.865541e+3, 1.3510361e+2, -1613526.1, -1626256.3, -7.991228, 0.00093539845, 0.000008278375, -1613526.1, 2459.7166, 0.0, 10.007269, 9.990397 
5.8655393e+3, 1.4508809e+2, -1525482.1, -1547029.0, -3.4769099, 0.00093439076, 0.0002685895, -1525482.1, -7344.314, 0.0, 10.007256, 9.97871 
5.865538e+3, 1.5506677e+2, -1427814.3, -1449754.6, -16.728943, 0.0009366413, 0.00007797056, -1427814.3, -7467.539, 0.0, 10.007243, 9.978179 
5.865537e+3, 1.6503887e+2, -1339791.0, -1370892.1, -11.045877, 0.0009361601, 0.00015954243, -1339791.0, -17170.865, 0.0, 10.00723, 9.966121 
5.865536e+3, 1.7500503e+2, -1241893.1, -1273300.9, -23.837978, 0.00093300967, 0.000056391113, -1241893.1, -16941.498, 0.0, 10.007217, 9.965707 
5.8655345e+3, 1.849645e+2, -1153980.0, -1194988.1, -16.632498, 0.00093227887, 0.00019992428, -1153980.0, -26631.035, 0.0, 10.007204, 9.953123 
5.8655334e+3, 1.9491765e+2, -1055889.4, -1097151.0, -30.146318, 0.0009339759, 0.00006460051, -1055889.4, -26081.36, 0.0, 10.007192, 9.95278 
5.865532e+3, 2.0486413e+2, -967776.5, -1018810.1, -17.458178, 0.00093352736, 0.00018432787, -967776.5, -35444.098, 0.0, 10.007179, 9.940011 
5.865531e+3, 2.1480419e+2, -869543.75, -920831.75, -30.985495, 0.0009308377, -0.000010651523, -869543.7, -34623.816, 0.0, 10.007169, 9.93967 
5.8655304e+3, 2.2473754e+2, -781309.06, -842625.56, -16.18807, 0.0009299213, 0.00023496902, -781309.06, -43735.996, 0.0, 10.007157, 9.92662 
5.865529e+3, 2.3466422e+2, -682933.56, -744495.75, -29.377604, 0.0009309419, 0.000020919746, -682933.5, -42641.97, 0.0, 10.007144, 9.926289 
5.8655286e+3, 2.4458393e+2, -594659.9, -666607.56, -13.598333, 0.00093084446, 0.00017988548, -594659.9, -51581.676, 0.0, 10.0071335, 9.912838 
5.8655274e+3, 2.544969e+2, -495958.47, -567977.4, -25.966131, 0.00092944875, -0.000006344161, -495958.47, -50027.277, 0.0, 10.007125, 9.912738 
5.865526e+3, 2.6440278e+2, -407780.47, -490700.34, -7.5218043, 0.0009284224, 0.00023808409, -407780.47, -58926.74, 0.0, 10.007114, 9.8986435 
5.8655256e+3, 2.7430195e+2, -308550.84, -391135.63, -20.446531, 0.00092785084, -0.00010652735, -308550.84, -56709.266, 0.0, 10.007104, 9.899062 
5.8655244e+3, 2.8419295e+2, -222022.25, -317693.3, -2.7290041, 0.00092770095, 0.00032272952, -222022.25, -67112.7, 0.0, 10.007093, 9.882242 
5.865524e+3, 2.9407626e+2, -122361.28, -217406.81, -12.129366, 0.0009281103, -0.00016647694, -122361.28, -64308.06, 0.0, 10.007084, 9.883031 
5.865523e+3, 3.0398735e+2, -32930.84, -84910.64, 5.4808745, 0.0009274331, 0.00025482685, -32930.84, -32930.84, 0.0, 10.007076, 9.938658 
5.8655226e+3, 3.139279e+2, -31889.115, -82729.37, -7.575617, 0.00092516857, 0.0000238728, -31889.113, -31889.113, 0.0, 10.00707, 9.940133 
5.8755493e+3, 1.251139e+2, -1710871.4, -1723048.8, 0.32147714, 0.00094372383, 0.0001879695, -1710871.4, 3013.433, 0.0, 10.007285, 9.991145 
5.875548e+3, 1.3510491e+2, -1613553.9, -1626312.9, -13.062567, 0.00094649073, 0.000009161982, -1613553.9, 2419.1594, 0.0, 10.007272, 9.990362 
5.875547e+3, 1.4508936e+2, -1525509.1, -1547084.3, -8.202089, 0.00094577426, 0.00026982976, -1525509.1, -7383.719, 0.0, 10.007258, 9.978675 
5.875545e+3, 1.5506801e+2, -1427840.9, -1449809.6, -21.482998, 0.0009416941, 0.000079029516, -1427840.8, -7506.174, 0.0, 10.007245, 9.978144 
5.8755445e+3, 1.6504006e+2, -1339816.1, -1370944.6, -15.7657, 0.00094069255, 0.00016014103, -1339816.1, -17207.71, 0.0, 10.007233, 9.966086 
5.875543e+3, 1.750062e+2, -1241918.1, -1273353.1, -28.523752, 0.0009427028, 0.000056256136, -1241918.1, -16977.816, 0.0, 10.007219, 9.9656725 
5.875542e+3, 1.8496563e+2, -1154006.3, -1195043.4, -21.42371, 0.00094264053, 0.0002000611, -1154006.3, -26668.375, 0.0, 10.007207, 9.953087 
5.8755404e+3, 1.9491875e+2, -1055915.1, -1097205.8, -34.96379, 0.00094049255, 0.000066019675, -1055915.1, -26117.842, 0.0, 10.007194, 9.952744 
5.87554e+3, 2.0486519e+2, -967802.6, -1018865.7, -21.313305, 0.0009392221, 0.00018588934, -967802.6, -35480.523, 0.0, 10.007182, 9.939975 
5.8755386e+3, 2.148052e+2, -869569.8, -920887.1, -34.815136, 0.00093886454, -0.000010137011, -869569.75, -34659.82, 0.0, 10.007171, 9.939633 
5.8755374e+3, 2.2473851e+2, -781334.9, -842680.8, -20.985197, 0.00093883584, 0.00023479988, -781334.9, -43771.39, 0.0, 10.007159, 9.926583 
5.875536e+3, 2.3466516e+2, -682958.7, -744550.5, -34.191227, 0.00093916326, 0.000020464191, -682958.7, -42676.375, 0.0, 10.007147, 9.926252 
5.875535e+3, 2.4458486e+2, -594683.94, -666660.6, -16.84625, 0.00093830575, 0.00018034237, -594683.94, -51614.68, 0.0, 10.007135, 9.912803 
5.8755344e+3, 2.5449777e+2, -495982.5, -568030.1, -29.201601, 0.0009360746, -0.000003586813, -495982.47, -50059.863, 0.0, 10.007127, 9.912703 
5.875533e+3, 2.6440358e+2, -407806.6, -490757.6, -11.580642, 0.00093534926, 0.00024016031, -407806.6, -58961.066, 0.0, 10.007116, 9.898605 
5.875532e+3, 2.7430272e+2, -308576.63, -391192.72, -24.446669, 0.00093648396, -0.000108823755, -308576.63, -56742.82, 0.0, 10.007106, 9.899024 
5.875532e+3, 2.8419372e+2, -222042.42, -317739.4, -6.075662, 0.0009366627, 0.00032040634, -222042.42, -67140.32, 0.0, 10.007095, 9.882211 
5.875531e+3, 2.94077e+2, -122380.695, -217451.7, -15.609427, 0.0009355581, -0.00016301427, -122380.69, -64334.664, 0.0, 10.007086, 9.883 
5.87553e+3, 3.0398807e+2, -32958.41, -84972.484, 2.9258637, 0.00093412923, 0.00025910643, -32958.41, -32958.41, 0.0, 10.007078, 9.938615 
5.875529e+3, 3.139285e+2, -31917.86, -82793.24, -9.786748, 0.00093223434, 0.000021710784, -31917.857, -31917.857, 0.0, 10.0070715, 9.940089 
5.885557e+3, 1.2511526e+2, -1710635.1, -1722963.9, 5.6428514, 0.00095150777, 0.00018863473, -1710635.1, 3236.5347, 0.0, 10.00745, 9.991109 
5.885556e+3, 1.3510622e+2, -1613322.0, -1626230.9, -7.8508577, 0.0009541073, 0.0000095678615, -1613322.0, 2638.2107, 0.0, 10.007434, 9.990326 
5.885554e+3, 1.4509064e+2, -1525279.6, -1547004.5, -2.5743926, 0.0009533866, 0.0002703197, -1525279.6, -7166.7754, 0.0, 10.00742, 9.978639 
5.885553e+3, 1.5506925e+2, -1427612.1, -1449730.8, -16.644009, 0.0009494561, 0.00007993197, -1427612.1, -7289.5864, 0.0, 10.007407, 9.978107 
5.8855516e+3, 1.6504125e+2, -1339586.9, -1370862.3, -11.57836, 0.0009485838, 0.0001610457, -1339586.9, -16990.266, 0.0, 10.007394, 9.966053 
5.8855504e+3, 1.7500737e+2, -1241693.1, -1273273.6, -23.995548, 0.00095070526, 0.000056762416, -1241693.1, -16764.299, 0.0, 10.007379, 9.965639 
5.885549e+3, 1.8496677e+2, -1153785.4, -1194970.6, -16.412327, 0.00095040095, 0.00020049237, -1153785.4, -26458.64, 0.0, 10.007366, 9.953051 
5.885548e+3, 1.9491984e+2, -1055693.3, -1097133.1, -30.642342, 0.0009476549, 0.00006670081, -1055693.1, -25906.654, 0.0, 10.007355, 9.952707 
5.885547e+3, 2.0486626e+2, -967582.7, -1018794.0, -17.461885, 0.00094660395, 0.00018669573, -967582.7, -35271.055, 0.0, 10.007341, 9.939939 
5.8855456e+3, 2.1480623e+2, -869356.8, -920819.56, -30.926872, 0.00094731856, -0.000009335537, -869356.75, -34456.895, 0.0, 10.007327, 9.939597 
5.8855444e+3, 2.247395e+2, -781123.75, -842614.94, -16.691021, 0.0009472138, 0.00023537532, -781123.75, -43569.996, 0.0, 10.007315, 9.926547 
5.885543e+3, 2.3466611e+2, -682744.5, -744483.6, -29.994387, 0.0009462099, 0.000020572219, -682744.5, -42471.527, 0.0, 10.007305, 9.926215 
5.8855426e+3, 2.4458577e+2, -594471.2, -666595.44, -12.970733, 0.00094520743, 0.00018072117, -594471.2, -51410.914, 0.0, 10.007294, 9.912766 
5.8855414e+3, 2.5449866e+2, -495776.47, -567968.94, -26.392725, 0.0009442041, -0.0000020831399, -495776.47, -49862.504, 0.0, 10.007281, 9.912665 
5.88554e+3, 2.6440445e+2, -407603.03, -490696.97, -8.472743, 0.000943819, 0.00024133864, -407603.03, -58765.8, 0.0, 10.007269, 9.89857 
5.8855397e+3, 2.7430356e+2, -308372.8, -391132.5, -19.634132, 0.0009441947, -0.000109765286, -308372.8, -56546.93, 0.0, 10.007259, 9.898988 
5.8855385e+3, 2.8419453e+2, -221838.7, -317679.94, -1.3039513, 0.0009438977, 0.00031965802, -221838.7, -66944.18, 0.0, 10.00725, 9.882175 
5.885538e+3, 2.9407775e+2, -122178.34, -217393.52, -14.315941, 0.0009426984, -0.00016047846, -122178.336, -64139.555, 0.0, 10.00724, 9.882964 
5.885537e+3, 3.0398875e+2, -32761.547, -84919.33, 3.9748375, 0.0009416209, 0.0002617432, -32761.547, -32761.547, 0.0, 10.007231, 9.938578 
5.8855367e+3, 3.139292e+2, -31726.656, -82743.016, -4.629931, 0.00094072166, 0.00001980812, -31726.656, -31726.656, 0.0, 10.00722, 9.940052 
5.8955646e+3, 1.2511662e+2, -1710663.6, -1723021.4, -0.2644528, 0.0009624277, 0.00018986422, -1710663.6, 3194.622, 0.0, 10.007452, 9.991073 
5.895563e+3, 1.3510755e+2, -1613349.8, -1626287.9, -13.738336, 0.00095892954, 0.000009594203, -1613349.8, 2597.4192, 0.0, 10.007437, 9.99029 
5.8955616e+3, 1.4509192e+2, -1525308.3, -1547063.1, -7.195383, 0.00095796876, 0.00027020913, -1525308.3, -7207.943, 0.0, 10.007422, 9.978601 
5.89556e+3, 1.550705e+2, -1427640.6, -1449789.3, -21.233698, 0.00095942395, 0.00008070678, -1427640.6, -7330.395, 0.0, 10.007409, 9.97807 
5.895559e+3, 1.6504247e+2, -1339611.4, -1370913.3, -17.009491, 0.0009592026, 0.00016219629, -1339611.4, -17026.654, 0.0, 10.007396, 9.966021 
5.8955574e+3, 1.7500857e+2, -1241717.0, -1273324.1, -29.460938, 0.00095734897, 0.000057791953, -1241716.9, -16799.742, 0.0, 10.007381, 9.965607 
5.895557e+3, 1.849679e+2, -1153813.0, -1195028.6, -20.644045, 0.00095606945, 0.00020116707, -1153813.0, -26497.482, 0.0, 10.007368, 9.953012 
5.895555e+3, 1.9492096e+2, -1055720.8, -1097190.9, -34.831642, 0.0009553606, 0.00006678543, -1055720.8, -25945.086, 0.0, 10.007357, 9.952669 
5.8955544e+3, 2.0486732e+2, -967608.9, -1018849.44, -22.707903, 0.0009553695, 0.00018689044, -967608.9, -35307.76, 0.0, 10.007343, 9.939902 
5.8955526e+3, 2.1480727e+2, -869382.3, -920874.5, -36.213257, 0.0009561241, -0.000008300699, -869382.3, -34492.617, 0.0, 10.007329, 9.939561 
5.895552e+3, 2.247405e+2, -781149.3, -842670.3, -20.450253, 0.0009551626, 0.00023655733, -781149.3, -43605.395, 0.0, 10.007317, 9.926511 
5.895551e+3, 2.3466708e+2, -682770.0, -744538.9, -33.722298, 0.0009523237, 0.000021144364, -682770.0, -42506.484, 0.0, 10.007307, 9.926179 
5.8955497e+3, 2.445867e+2, -594497.7, -666652.9, -17.575014, 0.00095167727, 0.00018104023, -594497.7, -51446.52, 0.0, 10.007296, 9.912728 
5.895549e+3, 2.5449955e+2, -495802.56, -568026.1, -30.974995, 0.0009535635, -0.0000016051907, -495802.53, -49897.297, 0.0, 10.007283, 9.912627 
5.895548e+3, 2.644053e+2, -407625.6, -490747.5, -12.182542, 0.0009535459, 0.00024178396, -407625.6, -58796.734, 0.0, 10.007272, 9.898536 
5.8955467e+3, 2.743044e+2, -308394.88, -391182.3, -23.423616, 0.00095116807, -0.00010958774, -308394.88, -56577.043, 0.0, 10.007261, 9.898954 
5.895546e+3, 2.8419527e+2, -221865.13, -317738.94, -4.796694, 0.000949747, 0.00032020485, -221865.13, -66978.29, 0.0, 10.007252, 9.882135 
5.8955455e+3, 2.940785e+2, -122204.875, -217452.95, -17.580996, 0.00094960735, -0.00015871604, -122204.87, -64173.375, 0.0, 10.007242, 9.882924 
5.895544e+3, 3.0398947e+2, -32782.516, -84967.36, 0.34291184, 0.00094977417, 0.00026302357, -32782.516, -32782.516, 0.0, 10.007233, 9.938544 
5.8955437e+3, 3.1392986e+2, -31746.914, -82789.805, -8.552674, 0.0009503695, 0.000018143877, -31746.914, -31746.914, 0.0, 10.007222, 9.94002 
5.9055716e+3, 1.25118e+2, -1710428.6, -1722937.5, 5.0557733, 0.00097091286, 0.00019065099, -1710428.6, 3416.1768, 0.0, 10.007616, 9.991036 
5.9055704e+3, 1.3510889e+2, -1613110.0, -1626202.1, -8.593942, 0.0009661125, 0.000010797025, -1613110.0, 2824.0442, 0.0, 10.007605, 9.9902525 
5.9055686e+3, 1.4509323e+2, -1525070.5, -1546979.5, -2.4955916, 0.0009651186, 0.00027120666, -1525070.5, -6983.005, 0.0, 10.007589, 9.978564 
5.905568e+3, 1.5507177e+2, -1427411.4, -1449710.6, -16.195578, 0.000967759, 0.00008090241, -1427411.4, -7113.554, 0.0, 10.007572, 9.978033 
5.905566e+3, 1.6504371e+2, -1339381.9, -1370831.9, -11.438311, 0.00096752954, 0.00016243613, -1339381.9, -16809.305, 0.0, 10.007558, 9.965986 
5.905565e+3, 1.7500976e+2, -1241484.4, -1273241.6, -24.713408, 0.00096450193, 0.000058901496, -1241484.4, -16578.93, 0.0, 10.007546, 9.965572 
5.905564e+3, 1.8496907e+2, -1153584.6, -1194952.1, -16.31596, 0.0009632868, 0.00020232631, -1153584.6, -26280.469, 0.0, 10.007532, 9.952976 
5.9055626e+3, 1.9492207e+2, -1055499.8, -1097118.9, -30.045527, 0.0009638847, 0.00006717221, -1055499.8, -25735.129, 0.0, 10.007517, 9.952632 
5.9055614e+3, 2.0486842e+2, -967390.2, -1018779.56, -17.647495, 0.0009638634, 0.00018706726, -967390.2, -35099.76, 0.0, 10.007503, 9.939865 
5.90556e+3, 2.1480832e+2, -869160.8, -920803.75, -31.871866, 0.00096319546, -0.000007748096, -869160.8, -34281.438, 0.0, 10.007491, 9.939524 
5.905559e+3, 2.2474152e+2, -780928.9, -842600.3, -16.356558, 0.00096211326, 0.00023746229, -780928.9, -43394.895, 0.0, 10.007479, 9.926474 
5.905558e+3, 2.3466806e+2, -682555.94, -744472.7, -29.918951, 0.0009605745, 0.000022375973, -682555.94, -42302.02, 0.0, 10.007465, 9.926142 
5.905557e+3, 2.4458764e+2, -594286.6, -666588.75, -13.558542, 0.0009602132, 0.00018177637, -594286.6, -51244.676, 0.0, 10.007452, 9.912691 
5.905556e+3, 2.5450045e+2, -495591.4, -567962.5, -26.19715, 0.0009612115, -0.0000023147986, -495591.4, -49695.008, 0.0, 10.007441, 9.912591 
5.905555e+3, 2.6440614e+2, -407415.34, -490685.34, -7.478897, 0.0009608129, 0.00024151358, -407415.34, -58594.97, 0.0, 10.007429, 9.898499 
5.905554e+3, 2.743052e+2, -308186.84, -391121.9, -21.16968, 0.00095868105, -0.00010708844, -308186.84, -56377.14, 0.0, 10.007419, 9.898916 
5.905553e+3, 2.8419608e+2, -221658.17, -317677.16, -2.5320165, 0.00095757603, 0.00032249736, -221658.17, -66779.12, 0.0, 10.007407, 9.8821 
5.9055525e+3, 2.9407924e+2, -122002.14, -217393.66, -11.977277, 0.0009578442, -0.0001606059, -122002.14, -63978.055, 0.0, 10.007396, 9.882889 
5.905552e+3, 3.0399022e+2, -32585.787, -84916.04, 6.234276, 0.0009578867, 0.00026083135, -32585.787, -32585.787, 0.0, 10.007385, 9.938505 
5.9055513e+3, 3.1393054e+2, -31548.844, -82738.305, -7.154187, 0.00095758477, 0.000021308588, -31548.844, -31548.844, 0.0, 10.007377, 9.93998 
5.91558e+3, 1.2511939e+2, -1710456.9, -1722995.4, 0.68309194, 0.0009774517, 0.00019108457, -1710456.9, 3374.2568, 0.0, 10.007619, 9.990999 
5.915578e+3, 1.3511024e+2, -1613138.6, -1626260.0, -12.991643, 0.0009752142, 0.00001294211, -1613138.6, 2782.1763, 0.0, 10.0076065, 9.990216 
5.915577e+3, 1.4509454e+2, -1525098.6, -1547036.9, -8.886822, 0.00097435166, 0.00027309282, -1525098.6, -7024.0947, 0.0, 10.007591, 9.978528 
5.915575e+3, 1.5507305e+2, -1427438.6, -1449767.3, -22.582203, 0.0009747876, 0.000080638994, -1427438.6, -7153.378, 0.0, 10.007574, 9.977997 
5.9155744e+3, 1.6504496e+2, -1339407.8, -1370886.1, -15.770739, 0.00097402127, 0.00016195049, -1339407.8, -16847.334, 0.0, 10.00756, 9.965951 
5.9155726e+3, 1.7501096e+2, -1241510.4, -1273295.9, -29.01357, 0.0009720869, 0.000060073733, -1241510.3, -16616.738, 0.0, 10.007548, 9.965537 
5.9155715e+3, 1.8497024e+2, -1153611.4, -1195008.1, -22.067276, 0.00097177166, 0.00020387283, -1153611.4, -26318.773, 0.0, 10.007534, 9.95294 
5.91557e+3, 1.9492322e+2, -1055525.9, -1097174.4, -35.833466, 0.00097307336, 0.00006780688, -1055525.9, -25772.398, 0.0, 10.007519, 9.952596 
5.915569e+3, 2.0486952e+2, -967417.5, -1018837.8, -21.9158, 0.0009721436, 0.00018723626, -967417.5, -35137.848, 0.0, 10.007505, 9.939827 
5.915568e+3, 2.1480939e+2, -869188.0, -920861.8, -36.095016, 0.00096889015, -0.00000758097, -869188.0, -34319.027, 0.0, 10.007494, 9.939486 
5.9155667e+3, 2.2474255e+2, -780955.25, -842657.06, -21.359959, 0.00096828246, 0.00023814371, -780955.25, -43431.324, 0.0, 10.007481, 9.926436 
5.9155655e+3, 2.3466906e+2, -682581.9, -744529.0, -34.943504, 0.0009705579, 0.000024135352, -682581.9, -42337.656, 0.0, 10.007467, 9.926105 
5.9155643e+3, 2.445886e+2, -594311.3, -666642.94, -17.879808, 0.0009704206, 0.00018284931, -594311.3, -51278.664, 0.0, 10.007455, 9.912655 
5.915564e+3, 2.5450137e+2, -495615.66, -568016.25, -30.535215, 0.00096749194, -0.0000039673455, -495615.66, -49728.21, 0.0, 10.007442, 9.912555 
5.9155625e+3, 2.6440704e+2, -407442.6, -490745.47, -11.464831, 0.00096611277, 0.00024067704, -407442.6, -58630.797, 0.0, 10.007432, 9.8984585 
5.9155613e+3, 2.7430606e+2, -308214.03, -391182.1, -25.0386, 0.0009666464, -0.00010273201, -308214.03, -56412.563, 0.0, 10.007421, 9.898876 
5.9155613e+3, 2.841969e+2, -221678.7, -317724.0, -6.6637254, 0.0009670171, 0.00032618278, -221678.7, -66807.516, 0.0, 10.00741, 9.882069 
5.91556e+3, 2.9408002e+2, -122021.71, -217439.05, -16.279139, 0.00096716214, -0.00016542008, -122021.71, -64005.13, 0.0, 10.007399, 9.882858 
5.915559e+3, 3.0399093e+2, -32613.832, -84979.32, 2.7071226, 0.0009659748, 0.00025586472, -32613.832, -32613.832, 0.0, 10.007388, 9.938461 
5.9155583e+3, 3.1393126e+2, -31577.863, -82803.59, -10.446892, 0.00096285087, 0.000028352917, -31577.861, -31577.861, 0.0, 10.007379, 9.939935 
5.9255874e+3, 1.251208e+2, -1710209.0, -1722905.5, 6.5112042, 0.000984105, 0.00019168483, -1710209.0, 3608.373, 0.0, 10.007791, 9.990962 
5.925586e+3, 1.3511162e+2, -1612903.4, -1626177.5, -7.494466, 0.0009842558, 0.000013364254, -1612903.4, 3003.9353, 0.0, 10.0077715, 9.990179 
5.9255844e+3, 1.4509588e+2, -1524865.8, -1546956.0, -3.1026926, 0.0009834036, 0.0002736689, -1524865.8, -6804.318, 0.0, 10.007756, 9.978491 
5.925583e+3, 1.5507434e+2, -1427199.1, -1449683.5, -17.21611, 0.0009815703, 0.00008168553, -1427199.1, -6926.648, 0.0, 10.007744, 9.97796 
5.9255815e+3, 1.6504622e+2, -1339167.5, -1370799.6, -10.615198, 0.0009806874, 0.00016289468, -1339167.5, -16619.396, 0.0, 10.00773, 9.965917 
5.925581e+3, 1.7501219e+2, -1241279.5, -1273214.9, -23.569395, 0.0009807358, 0.000060357856, -1241279.5, -16397.893, 0.0, 10.007712, 9.965503 
5.925579e+3, 1.8497144e+2, -1153385.6, -1194933.9, -16.528244, 0.0009806118, 0.00020415532, -1153385.6, -26104.656, 0.0, 10.007697, 9.952902 
5.925578e+3, 1.9492438e+2, -1055296.8, -1097098.9, -31.127283, 0.00098031, 0.00006874716, -1055296.8, -25554.57, 0.0, 10.007685, 9.9525585 
5.9255767e+3, 2.0487064e+2, -967189.3, -1018763.56, -17.25355, 0.0009791664, 0.00018829977, -967189.3, -34920.594, 0.0, 10.007671, 9.939789 
5.925575e+3, 2.1481046e+2, -868965.6, -920791.1, -31.173681, 0.0009771439, -0.000006950217, -868965.6, -34107.21, 0.0, 10.007656, 9.939447 
5.9255743e+3, 2.2474359e+2, -780736.0, -842588.5, -16.523441, 0.0009767929, 0.00023845649, -780735.94, -43222.223, 0.0, 10.007643, 9.926398 
5.925573e+3, 2.3467004e+2, -682363.5, -744461.5, -30.383692, 0.0009782632, 0.000024255662, -682363.5, -42129.09, 0.0, 10.007629, 9.926066 
5.9255725e+3, 2.4458955e+2, -594093.5, -666575.94, -13.243452, 0.0009778037, 0.0001834061, -594093.5, -51070.33, 0.0, 10.007616, 9.912618 
5.9255713e+3, 2.545023e+2, -495399.34, -567950.6, -26.849342, 0.0009751099, -0.0000022483962, -495399.3, -49520.965, 0.0, 10.007605, 9.912518 
5.92557e+3, 2.6440793e+2, -407229.38, -490682.75, -7.795568, 0.00097399467, 0.0002419651, -407229.38, -58426.29, 0.0, 10.007592, 9.89842 
5.9255695e+3, 2.743069e+2, -308005.63, -391122.44, -19.946125, 0.00097482814, -0.00010384129, -308005.63, -56212.484, 0.0, 10.007579, 9.898838 
5.9255683e+3, 2.841977e+2, -221470.28, -317661.53, -1.429679, 0.0009751258, 0.00032520876, -221470.28, -66607.05, 0.0, 10.007566, 9.882033 
5.925567e+3, 2.940808e+2, -121812.8, -217376.7, -13.735396, 0.0009747006, -0.00016288164, -121812.8, -63803.863, 0.0, 10.007556, 9.882823 
5.925567e+3, 3.0399168e+2, -32410.7, -84926.97, 4.9416323, 0.0009733783, 0.00025870407, -32410.7, -32410.7, 0.0, 10.007546, 9.93842 
5.925566e+3, 3.1393194e+2, -31376.357, -82752.74, -5.878607, 0.0009707538, 0.000026818672, -31376.357, -31376.357, 0.0, 10.007536, 9.939893 
5.9355944e+3, 1.2512222e+2, -1710238.6, -1722965.1, -0.6774273, 0.0009908802, 0.00019242079, -1710238.6, 3564.7935, 0.0, 10.007793, 9.990925 
5.935594e+3, 1.35113e+2, -1612932.1, -1626236.5, -14.639248, 0.0009932496, 0.000012415959, -1612932.1, 2961.6975, 0.0, 10.007774, 9.990141 
5.935592e+3, 1.4509723e+2, -1524894.3, -1547014.8, -7.51019, 0.0009923102, 0.0002732032, -1524894.3, -6845.9326, 0.0, 10.007758, 9.978453 
5.935591e+3, 1.5507565e+2, -1427227.9, -1449742.3, -21.643381, 0.000988183, 0.000083777595, -1427227.8, -6968.126, 0.0, 10.007746, 9.977922 
5.935589e+3, 1.650475e+2, -1339193.1, -1370852.8, -16.984764, 0.0009875216, 0.0001649805, -1339193.1, -16657.525, 0.0, 10.007731, 9.965882 
5.935588e+3, 1.7501342e+2, -1241304.4, -1273267.5, -29.937662, 0.0009902407, 0.000059938237, -1241304.3, -16434.906, 0.0, 10.007714, 9.965468 
5.9355867e+3, 1.8497264e+2, -1153413.8, -1194993.3, -21.11655, 0.0009897382, 0.00020343401, -1153413.6, -26144.559, 0.0, 10.007699, 9.952864 
5.9355855e+3, 1.9492553e+2, -1055324.8, -1097158.0, -35.697216, 0.000986005, 0.00006993169, -1055324.6, -25593.955, 0.0, 10.007687, 9.95252 
5.9355843e+3, 2.0487176e+2, -967216.2, -1018820.75, -22.626787, 0.0009852072, 0.00019007693, -967216.2, -34958.51, 0.0, 10.007673, 9.939752 
5.935583e+3, 2.1481155e+2, -868992.1, -920848.0, -36.575607, 0.0009874589, -0.0000059461395, -868992.1, -34144.383, 0.0, 10.007659, 9.93941 
5.935582e+3, 2.2474465e+2, -780762.7, -842646.2, -21.493557, 0.0009871854, 0.00023847909, -780762.7, -43259.23, 0.0, 10.007645, 9.92636 
5.9355813e+3, 2.3467107e+2, -682389.75, -744518.8, -35.333862, 0.0009841552, 0.000023069495, -682389.75, -42165.27, 0.0, 10.007631, 9.926029 
5.9355795e+3, 2.4459054e+2, -594120.06, -666634.06, -17.594578, 0.0009829402, 0.00018355319, -594120.06, -51106.4, 0.0, 10.007619, 9.912579 
5.9355783e+3, 2.5450322e+2, -495425.75, -568008.5, -31.165815, 0.0009838184, 0.0000021675226, -495425.72, -49556.58, 0.0, 10.0076065, 9.912478 
5.935578e+3, 2.6440886e+2, -407253.97, -490737.34, -12.629781, 0.0009839626, 0.00024495184, -407253.97, -58459.727, 0.0, 10.007594, 9.898383 
5.9355766e+3, 2.7430776e+2, -308029.56, -391176.4, -24.837286, 0.0009831929, -0.00010932162, -308029.56, -56244.816, 0.0, 10.007581, 9.898802 
5.935576e+3, 2.8419852e+2, -221495.28, -317718.2, -5.305061, 0.0009821743, 0.00032051248, -221495.28, -66640.09, 0.0, 10.007569, 9.881994 
5.9355754e+3, 2.9408157e+2, -121837.68, -217433.3, -17.508795, 0.0009808254, -0.00015445061, -121837.67, -63836.51, 0.0, 10.007559, 9.882784 
5.935574e+3, 3.0399242e+2, -32435.238, -84982.78, 1.3179432, 0.0009802498, 0.00026779398, -32435.238, -32435.238, 0.0, 10.007548, 9.938382 
5.9355736e+3, 3.1393266e+2, -31401.053, -82808.61, -9.475756, 0.0009807895, 0.000018407152, -31401.05, -31401.05, 0.0, 10.007538, 9.939855 
5.945603e+3, 1.2512366e+2, -1709996.8, -1722879.1, 5.4372325, 0.0010003293, 0.00019327395, -1709996.8, 3792.5417, 0.0, 10.007962, 9.990887 
5.9456015e+3, 1.351144e+2, -1612683.1, -1626147.3, -8.576438, 0.0009997464, 0.0000131028655, -1612683.1, 3196.8916, 0.0, 10.007948, 9.990104 
5.9456e+3, 1.450986e+2, -1524647.9, -1546928.0, -1.4666102, 0.0009986744, 0.00027375284, -1524647.9, -6612.9395, 0.0, 10.007932, 9.978415 
5.9455985e+3, 1.5507698e+2, -1426993.0, -1449662.1, -15.981752, 0.0009971116, 0.000084217434, -1426993.0, -6746.307, 0.0, 10.007913, 9.977884 
5.945597e+3, 1.650488e+2, -1338958.1, -1370769.0, -11.271361, 0.0009966842, 0.00016560753, -1338958.1, -16435.191, 0.0, 10.007897, 9.965848 
5.9455955e+3, 1.7501469e+2, -1241064.5, -1273181.9, -24.452778, 0.0009973687, 0.000061040846, -1241064.5, -16207.446, 0.0, 10.007884, 9.965434 
5.945595e+3, 1.8497387e+2, -1153177.3, -1194914.4, -15.390243, 0.0009965693, 0.00020445316, -1153177.3, -25920.016, 0.0, 10.00787, 9.952825 
5.945593e+3, 1.9492671e+2, -1055093.8, -1097082.6, -29.930603, 0.000994277, 0.00007030892, -1055093.8, -25374.564, 0.0, 10.007854, 9.952481 
5.9455925e+3, 2.048729e+2, -966988.4, -1018747.25, -17.383781, 0.0009938683, 0.00019030976, -966988.4, -34741.902, 0.0, 10.007839, 9.9397135 
5.945591e+3, 2.1481265e+2, -868766.2, -920776.06, -31.903809, 0.0009954174, -0.0000053412964, -868766.2, -33929.26, 0.0, 10.007824, 9.939372 
5.94559e+3, 2.247457e+2, -780537.5, -842575.06, -16.504768, 0.0009947605, 0.00023931991, -780537.5, -43044.523, 0.0, 10.00781, 9.926322 
5.9455884e+3, 2.3467208e+2, -682165.2, -744448.6, -30.402163, 0.0009916937, 0.000023998127, -682165.2, -41950.76, 0.0, 10.007797, 9.925991 
5.945587e+3, 2.4459152e+2, -593898.56, -666566.56, -12.864035, 0.0009907183, 0.00018423826, -593898.56, -50894.61, 0.0, 10.007783, 9.91254 
5.9455866e+3, 2.5450417e+2, -495210.22, -567944.6, -26.461292, 0.0009921559, 0.0000022272561, -495210.22, -49350.375, 0.0, 10.007768, 9.912439 
5.9455854e+3, 2.6440972e+2, -407039.63, -490673.3, -7.625705, 0.000992261, 0.00024515626, -407039.63, -58254.313, 0.0, 10.007755, 9.898346 
5.945584e+3, 2.7430862e+2, -307813.25, -391111.94, -20.48843, 0.0009907132, -0.00010802312, -307813.25, -56037.105, 0.0, 10.007744, 9.898764 
5.9455836e+3, 2.8419936e+2, -221279.88, -317655.5, -1.1287284, 0.0009894818, 0.000321817, -221279.88, -66432.91, 0.0, 10.007732, 9.881956 
5.9455824e+3, 2.940824e+2, -121626.82, -217373.56, -13.184526, 0.0009886752, -0.00015458981, -121626.82, -63633.473, 0.0, 10.00772, 9.882746 
5.945582e+3, 3.039932e+2, -32230.236, -84926.99, 5.666237, 0.0009884262, 0.00026738964, -32230.236, -32230.236, 0.0, 10.007707, 9.938343 
5.945581e+3, 3.1393334e+2, -31199.838, -82754.7, -5.1943502, 0.0009889745, 0.000019455636, -31199.838, -31199.838, 0.0, 10.007694, 9.9398155 
5.955611e+3, 1.2512513e+2, -1710025.9, -1722938.6, 0.3148498, 0.0010118935, 0.00019422243, -1710025.9, 3749.157, 0.0, 10.007964, 9.9908495 
5.955609e+3, 1.3511583e+2, -1612712.4, -1626206.6, -13.722176, 0.0010042922, 0.000015089721, -1612712.3, 3153.819, 0.0, 10.00795, 9.990066 
5.955608e+3, 1.4509998e+2, -1524677.6, -1546988.6, -8.44888, 0.001003055, 0.0002751111, -1524677.6, -6656.1978, 0.0, 10.007934, 9.978376 
5.9556067e+3, 1.5507832e+2, -1427022.1, -1449722.3, -22.91884, 0.0010078832, 0.00008335003, -1427022.0, -6788.5166, 0.0, 10.0079155, 9.977845 
5.955605e+3, 1.6505009e+2, -1338983.8, -1370822.9, -16.075272, 0.0010076945, 0.00016508006, -1338983.8, -16473.578, 0.0, 10.007899, 9.965813 
5.955604e+3, 1.7501596e+2, -1241090.0, -1273235.5, -29.295912, 0.0010026289, 0.00006335192, -1241090.0, -16245.354, 0.0, 10.007886, 9.9654 
5.9556025e+3, 1.849751e+2, -1153205.4, -1194973.6, -21.091661, 0.0010016036, 0.00020685408, -1153205.4, -25960.332, 0.0, 10.007872, 9.952786 
5.9556013e+3, 1.9492792e+2, -1055121.5, -1097141.5, -35.60141, 0.0010046124, 0.0000700491, -1055121.5, -25414.037, 0.0, 10.007856, 9.952443 
5.9556e+3, 2.0487407e+2, -967016.25, -1018806.75, -22.915794, 0.0010046209, 0.0001893209, -967016.25, -34781.066, 0.0, 10.007841, 9.939674 
5.9555984e+3, 2.1481377e+2, -868793.6, -920835.1, -37.421078, 0.0010015112, -0.000005052079, -868793.56, -33967.613, 0.0, 10.007827, 9.939333 
5.955598e+3, 2.2474678e+2, -780564.2, -842633.0, -21.256393, 0.0010001096, 0.00024081251, -780564.2, -43081.793, 0.0, 10.0078125, 9.926284 
5.955596e+3, 2.3467313e+2, -682191.8, -744506.25, -35.153683, 0.0010005644, 0.000026612948, -682191.75, -41987.57, 0.0, 10.007799, 9.925952 
5.9555954e+3, 2.4459253e+2, -593925.25, -666624.75, -18.398485, 0.001000618, 0.00018535402, -593925.25, -50931.113, 0.0, 10.007785, 9.912501 
5.955594e+3, 2.5450513e+2, -495236.22, -568002.4, -31.998928, 0.0010002049, -0.0000011815682, -495236.22, -49385.78, 0.0, 10.007771, 9.912401 
5.955593e+3, 2.6441067e+2, -407065.06, -490730.38, -11.710567, 0.0009992361, 0.00024314843, -407065.06, -58288.8, 0.0, 10.007757, 9.898308 
5.9555924e+3, 2.7430955e+2, -307838.6, -391168.75, -24.557096, 0.0009975776, -0.0001013143, -307838.6, -56071.18, 0.0, 10.007746, 9.8987255 
5.955591e+3, 2.8420022e+2, -221304.92, -317711.9, -5.7586274, 0.0009970171, 0.00032790736, -221304.92, -66466.31, 0.0, 10.007734, 9.881918 
5.9555906e+3, 2.9408318e+2, -121651.43, -217429.53, -17.736883, 0.0009979178, -0.00016157051, -121651.43, -63665.965, 0.0, 10.007722, 9.882708 
5.9555894e+3, 3.0399397e+2, -32254.598, -84982.83, 1.1182497, 0.0009976551, 0.00025941175, -32254.598, -32254.598, 0.0, 10.0077095, 9.938305 
5.955589e+3, 3.1393412e+2, -31223.96, -82810.47, -9.939967, 0.0009956885, 0.000028068258, -31223.96, -31223.96, 0.0, 10.007696, 9.939776 
5.9656185e+3, 1.251266e+2, -1709771.8, -1722846.6, 6.689394, 0.0010184976, 0.00019499994, -1709771.8, 3988.7773, 0.0, 10.0081415, 9.990811 
5.9656173e+3, 1.3511726e+2, -1612466.9, -1626119.8, -7.67173, 0.0010133669, 0.00001592979, -1612466.9, 3385.231, 0.0, 10.008122, 9.990027 
5.9656155e+3, 1.4510138e+2, -1524435.1, -1546904.1, -2.8655012, 0.0010122607, 0.00027601523, -1524435.1, -6427.376, 0.0, 10.008105, 9.978338 
5.965615e+3, 1.5507968e+2, -1426777.8, -1449637.4, -17.132685, 0.0010149846, 0.00008431775, -1426777.8, -6557.5283, 0.0, 10.008088, 9.977807 
5.965613e+3, 1.6505142e+2, -1338738.9, -1370735.8, -9.38365, 0.0010145156, 0.00016577989, -1338738.9, -16241.665, 0.0, 10.008072, 9.965777 
5.965612e+3, 1.7501724e+2, -1240850.0, -1273151.5, -23.444868, 0.0010109423, 0.00006346264, -1240850.0, -16017.983, 0.0, 10.008057, 9.9653635 
5.96561e+3, 1.8497635e+2, -1152969.5, -1194894.5, -15.803073, 0.0010103215, 0.00020705165, -1152969.5, -25736.63, 0.0, 10.008041, 9.952748 
5.965609e+3, 1.9492912e+2, -1054886.4, -1097063.4, -30.089203, 0.0010126496, 0.000071008435, -1054886.4, -25190.75, 0.0, 10.008026, 9.952405 
5.965608e+3, 2.0487523e+2, -966782.4, -1018730.9, -17.195955, 0.0010122422, 0.00019039783, -966782.4, -34558.668, 0.0, 10.008012, 9.939635 
5.9656066e+3, 2.1481492e+2, -868560.8, -920760.44, -31.719923, 0.0010089901, -0.0000045256315, -868560.8, -33745.93, 0.0, 10.007997, 9.939294 
5.9656054e+3, 2.2474788e+2, -780334.75, -842560.56, -15.784022, 0.0010079008, 0.0002412146, -780334.75, -42863.047, 0.0, 10.007981, 9.926245 
5.965604e+3, 2.3467419e+2, -681968.8, -744437.8, -30.178125, 0.0010091644, 0.000027354536, -681968.75, -41774.914, 0.0, 10.007964, 9.925914 
5.965603e+3, 2.4459353e+2, -593703.44, -666556.8, -13.020368, 0.0010091121, 0.0001861193, -593703.44, -50719.277, 0.0, 10.00795, 9.912463 
5.965602e+3, 2.545061e+2, -495011.4, -567933.44, -26.419306, 0.0010075376, -0.00000075775137, -495011.38, -49170.543, 0.0, 10.007938, 9.912363 
5.965601e+3, 2.644116e+2, -406842.5, -490665.25, -6.4548397, 0.0010063814, 0.00024364644, -406842.5, -58075.438, 0.0, 10.007925, 9.898268 
5.9656e+3, 2.743104e+2, -307622.63, -391107.66, -20.583506, 0.0010057382, -0.00010022701, -307622.63, -55864.02, 0.0, 10.00791, 9.898685 
5.9655994e+3, 2.842011e+2, -221089.33, -317646.28, -1.5976226, 0.0010056001, 0.00032882762, -221089.33, -66259.16, 0.0, 10.007896, 9.881883 
5.965598e+3, 2.94084e+2, -121436.86, -217364.63, -11.836745, 0.0010061307, -0.00016182878, -121436.86, -63459.48, 0.0, 10.007884, 9.882672 
5.965597e+3, 3.0399472e+2, -32046.484, -84930.625, 7.0021324, 0.0010054305, 0.00025919985, -32046.482, -32046.482, 0.0, 10.007872, 9.938261 
5.9655964e+3, 3.1393483e+2, -31013.28, -82757.97, -7.3713617, 0.0010029338, 0.000029690771, -31013.28, -31013.28, 0.0, 10.007862, 9.939733 
5.975627e+3, 1.2512809e+2, -1709801.8, -1722907.5, -0.13631529, 0.0010212258, 0.0001956446, -1709801.8, 3944.1995, 0.0, 10.008143, 9.990772 
5.9756255e+3, 1.3511871e+2, -1612496.5, -1626180.4, -14.477484, 0.0010260192, 0.00001586582, -1612496.5, 3341.3525, 0.0, 10.008125, 9.989989 
5.975624e+3, 1.4510278e+2, -1524464.0, -1546963.6, -8.995714, 0.0010252721, 0.00027656235, -1524464.0, -6470.155, 0.0, 10.008107, 9.9783 
5.9756225e+3, 1.5508105e+2, -1426806.3, -1449696.5, -23.294231, 0.00101921, 0.00008673673, -1426806.3, -6599.5063, 0.0, 10.008091, 9.977769 
5.9756213e+3, 1.6505276e+2, -1338766.4, -1370793.4, -15.107464, 0.0010180573, 0.00016745154, -1338766.4, -16282.298, 0.0, 10.008075, 9.96574 
5.9756196e+3, 1.7501853e+2, -1240877.4, -1273208.9, -29.196938, 0.0010216819, 0.000061838924, -1240877.4, -16058.007, 0.0, 10.008059, 9.965326 
5.9756184e+3, 1.849776e+2, -1152997.0, -1194952.6, -21.365576, 0.0010219574, 0.00020551246, -1152997.0, -25776.521, 0.0, 10.008043, 9.952711 
5.975617e+3, 1.9493034e+2, -1054913.4, -1097121.1, -35.607132, 0.001018881, 0.000072933035, -1054913.4, -25229.787, 0.0, 10.008029, 9.952367 
5.975616e+3, 2.0487642e+2, -966810.1, -1018790.4, -22.653362, 0.0010174051, 0.00019310914, -966810.1, -34598.09, 0.0, 10.008014, 9.939596 
5.975615e+3, 2.1481605e+2, -868588.5, -920819.7, -37.176285, 0.0010175873, -0.000003806989, -868588.44, -33784.848, 0.0, 10.007998, 9.939256 
5.975613e+3, 2.24749e+2, -780362.6, -842620.6, -21.8494, 0.0010176426, 0.00024075789, -780362.6, -42901.75, 0.0, 10.007983, 9.926206 
5.9756124e+3, 2.3467524e+2, -681995.94, -744497.3, -36.239544, 0.001017556, 0.000026612162, -681995.94, -41812.535, 0.0, 10.007967, 9.925874 
5.9756106e+3, 2.4459457e+2, -593729.25, -666614.0, -17.48225, 0.0010165, 0.00018660864, -593729.25, -50755.184, 0.0, 10.007953, 9.912425 
5.97561e+3, 2.5450712e+2, -495037.13, -567990.4, -30.887568, 0.0010143237, 0.0000027134793, -495037.13, -49206.016, 0.0, 10.00794, 9.912325 
5.975609e+3, 2.6441258e+2, -406870.72, -490727.47, -11.839973, 0.0010136856, 0.00024613633, -406870.72, -58113.0, 0.0, 10.007927, 9.898226 
5.9756076e+3, 2.7431133e+2, -307650.44, -391169.72, -25.883184, 0.0010149395, -0.0001036084, -307650.44, -55900.7, 0.0, 10.007913, 9.8986435 
5.975607e+3, 2.8420192e+2, -221110.89, -317696.1, -6.185101, 0.0010150212, 0.00032564203, -221110.89, -66289.22, 0.0, 10.007898, 9.881848 
5.975606e+3, 2.9408488e+2, -121457.6, -217413.13, -16.60861, 0.0010135361, -0.0001567303, -121457.59, -63488.473, 0.0, 10.007886, 9.882639 
5.975605e+3, 3.0399555e+2, -32076.387, -84998.18, 3.028298, 0.0010120668, 0.0002651705, -32076.387, -32076.387, 0.0, 10.0078745, 9.938214 
5.9756047e+3, 3.1393558e+2, -31044.492, -82827.78, -10.940236, 0.0010106239, 0.000025741883, -31044.49, -31044.49, 0.0, 10.007864, 9.939685 
5.9856355e+3, 1.251296e+2, -1709546.9, -1722815.6, 6.913166, 0.0010296601, 0.00019630825, -1709546.9, 4184.3384, 0.0, 10.008321, 9.990733 
5.985634e+3, 1.3512018e+2, -1612244.9, -1626090.9, -7.4991274, 0.0010335258, 0.000016232296, -1612244.9, 3578.5815, 0.0, 10.008302, 9.98995 
5.9856325e+3, 1.4510421e+2, -1524214.8, -1546876.6, -1.4735237, 0.0010327318, 0.00027704105, -1524214.8, -6234.93, 0.0, 10.008283, 9.97826 
5.985631e+3, 1.5508246e+2, -1426558.4, -1449610.9, -16.562208, 0.0010274602, 0.00008771781, -1426558.3, -6365.2163, 0.0, 10.008266, 9.97773 
5.9856296e+3, 1.6505411e+2, -1338520.0, -1370707.8, -9.024904, 0.0010265119, 0.00016841447, -1338520.0, -16049.129, 0.0, 10.008249, 9.965702 
5.985628e+3, 1.7501986e+2, -1240635.0, -1273126.1, -23.82041, 0.0010297738, 0.00006227716, -1240635.0, -15828.566, 0.0, 10.008232, 9.965288 
5.9856266e+3, 1.8497889e+2, -1152755.4, -1194869.4, -15.309818, 0.0010297316, 0.00020583533, -1152755.3, -25547.332, 0.0, 10.008217, 9.952674 
5.9856254e+3, 1.949316e+2, -1054671.6, -1097038.4, -29.086964, 0.00102638, 0.00007355079, -1054671.6, -25000.205, 0.0, 10.008203, 9.952331 
5.985624e+3, 2.0487763e+2, -966572.75, -1018713.06, -16.818583, 0.0010251845, 0.0001939146, -966572.75, -34372.527, 0.0, 10.008186, 9.939557 
5.9856224e+3, 2.1481721e+2, -868357.2, -920746.2, -31.580347, 0.0010262246, -0.0000029260982, -868357.2, -33564.953, 0.0, 10.008168, 9.939216 
5.985622e+3, 2.247501e+2, -780132.8, -842548.6, -15.680411, 0.001026146, 0.00024142658, -780132.8, -42682.977, 0.0, 10.008152, 9.926166 
5.98562e+3, 2.3467635e+2, -681763.3, -744424.5, -30.026546, 0.0010248452, 0.000026756132, -681763.3, -41590.52, 0.0, 10.008139, 9.925835 
5.9856194e+3, 2.4459562e+2, -593498.44, -666543.4, -11.595342, 0.00102372, 0.00018701455, -593498.44, -50534.58, 0.0, 10.008124, 9.912385 
5.985618e+3, 2.545081e+2, -494813.28, -567923.94, -26.262777, 0.001022794, 0.000004288135, -494813.28, -48992.035, 0.0, 10.008108, 9.912285 
5.985617e+3, 2.644135e+2, -406649.22, -490661.44, -6.9287205, 0.0010224627, 0.00024736987, -406649.22, -57900.965, 0.0, 10.008093, 9.898187 
5.985616e+3, 2.7431226e+2, -307428.4, -391103.97, -19.070555, 0.0010228588, -0.00010457797, -307428.4, -55687.74, 0.0, 10.00808, 9.898604 
5.985615e+3, 2.842028e+2, -220889.17, -317631.53, 0.4769447, 0.0010224798, 0.00032490052, -220889.17, -66076.19, 0.0, 10.008067, 9.881809 
5.985614e+3, 2.9408568e+2, -121237.695, -217350.17, -13.872567, 0.0010210655, -0.000154005, -121237.695, -63276.9, 0.0, 10.008054, 9.8826 
5.9856135e+3, 3.0399632e+2, -31862.266, -84940.234, 5.355549, 0.0010199621, 0.00026798536, -31862.266, -31862.266, 0.0, 10.00804, 9.938174 
5.985612e+3, 3.1393638e+2, -30836.096, -82772.77, -3.9673095, 0.001019308, 0.000023737446, -30836.094, -30836.094, 0.0, 10.008026, 9.939644 
5.995644e+3, 1.2513113e+2, -1709577.3, -1722877.1, -0.4748724, 0.001042572, 0.00019699092, -1709577.3, 4138.966, 0.0, 10.008324, 9.990695 
5.995642e+3, 1.3512167e+2, -1612274.4, -1626151.8, -14.872283, 0.0010370146, 0.00001694392, -1612274.4, 3534.4873, 0.0, 10.008304, 9.989911 
5.995641e+3, 1.4510566e+2, -1524245.1, -1546939.5, -7.664751, 0.0010358613, 0.00027747234, -1524245.1, -6279.5493, 0.0, 10.0082855, 9.97822 
5.995639e+3, 1.5508386e+2, -1426588.8, -1449673.6, -22.711807, 0.0010388866, 0.00008757135, -1426588.8, -6409.4604, 0.0, 10.008268, 9.97769 
5.995638e+3, 1.6505548e+2, -1338549.3, -1370768.6, -15.394073, 0.0010388334, 0.00016882164, -1338549.3, -16091.795, 0.0, 10.008251, 9.965662 
5.995636e+3, 1.750212e+2, -1240663.5, -1273186.4, -30.207666, 0.0010357973, 0.00006433825, -1240663.5, -15870.148, 0.0, 10.008235, 9.965249 
5.995635e+3, 1.8498018e+2, -1152781.5, -1194925.1, -20.464983, 0.001034489, 0.00020762451, -1152781.4, -25586.133, 0.0, 10.008219, 9.952638 
5.995633e+3, 1.9493285e+2, -1054697.9, -1097094.1, -34.222324, 0.0010348985, 0.00007314427, -1054697.9, -25038.725, 0.0, 10.008204, 9.952293 
5.9956324e+3, 2.0487885e+2, -966601.25, -1018773.56, -23.470875, 0.0010350397, 0.00019322432, -966601.25, -34412.945, 0.0, 10.008188, 9.939518 
5.9956306e+3, 2.148184e+2, -868384.94, -920806.2, -38.25589, 0.0010349002, -0.000001916792, -868384.9, -33604.24, 0.0, 10.008171, 9.939177 
5.9956294e+3, 2.2475125e+2, -780160.1, -842608.25, -20.72238, 0.0010336828, 0.00024298362, -780160.1, -42721.46, 0.0, 10.008155, 9.9261265 
5.995628e+3, 2.3467745e+2, -681790.56, -744483.9, -35.0492, 0.0010312896, 0.000027607952, -681790.5, -41628.523, 0.0, 10.0081415, 9.925795 
5.9956276e+3, 2.4459668e+2, -593527.06, -666605.9, -17.477789, 0.0010308328, 0.00018736061, -593527.06, -50573.62, 0.0, 10.008126, 9.912344 
5.995626e+3, 2.5450915e+2, -494841.47, -567986.1, -32.097736, 0.0010326027, 0.000004357489, -494841.44, -49030.16, 0.0, 10.00811, 9.912243 
5.995625e+3, 2.644145e+2, -406673.4, -490716.1, -11.848948, 0.0010324065, 0.00024760785, -406673.4, -57934.734, 0.0, 10.008096, 9.89815 
5.995624e+3, 2.743132e+2, -307452.06, -391157.84, -24.110884, 0.0010297808, -0.000103620296, -307452.03, -55720.625, 0.0, 10.008082, 9.898568 
5.995623e+3, 2.8420374e+2, -220917.84, -317696.03, -4.379164, 0.0010284105, 0.000326108, -220917.84, -66113.71, 0.0, 10.008069, 9.881766 
5.995622e+3, 2.9408658e+2, -121266.51, -217415.19, -18.441113, 0.0010287139, -0.00015317922, -121266.51, -63314.11, 0.0, 10.008056, 9.882556 
5.995621e+3, 3.0399716e+2, -31884.584, -84991.945, 0.35142115, 0.0010288678, 0.00026828214, -31884.584, -31884.584, 0.0, 10.008042, 9.938138 
5.9956205e+3, 3.1393713e+2, -30857.55, -82823.03, -9.367578, 0.0010287834, 0.000023305227, -30857.549, -30857.549, 0.0, 10.008028, 9.939609 
6.005652e+3, 1.2513268e+2, -1709323.1, -1722786.1, 6.4331884, 0.0010510596, 0.00019778644, -1709323.0, 4377.9907, 0.0, 10.008501, 9.990656 
6.00565e+3, 1.3512318e+2, -1612015.0, -1626058.6, -8.225534, 0.0010445141, 0.00001817892, -1612015.0, 3779.1228, 0.0, 10.008485, 9.989872 
6.005649e+3, 1.4510714e+2, -1523987.5, -1546848.5, -1.658718, 0.0010434027, 0.00027849848, -1523987.5, -6036.3174, 0.0, 10.008467, 9.978181 
6.005647e+3, 1.550853e+2, -1426339.5, -1449587.6, -16.33404, 0.0010474548, 0.000087768676, -1426339.5, -6174.1963, 0.0, 10.008446, 9.97765 
6.005646e+3, 1.6505687e+2, -1338302.5, -1370684.9, -7.7678547, 0.0010473727, 0.00016905452, -1338302.5, -15858.722, 0.0, 10.008428, 9.965623 
6.005645e+3, 1.7502254e+2, -1240414.1, -1273101.8, -23.134933, 0.0010432806, 0.000065446366, -1240414.1, -15633.994, 0.0, 10.008413, 9.965209 
6.005643e+3, 1.849815e+2, -1152531.6, -1194836.8, -13.990914, 0.0010419891, 0.00020881946, -1152531.6, -25349.191, 0.0, 10.008396, 9.952601 
6.005642e+3, 1.9493413e+2, -1054456.8, -1097010.9, -27.667923, 0.0010434873, 0.00007363888, -1054456.6, -24810.047, 0.0, 10.008377, 9.952257 
6.0056406e+3, 2.0488009e+2, -966365.25, -1018697.94, -16.780926, 0.0010436006, 0.00019345742, -966365.25, -34189.066, 0.0, 10.008361, 9.939478 
6.0056394e+3, 2.148196e+2, -868145.2, -920729.25, -31.9357, 0.0010422753, -0.0000014897462, -868145.2, -33376.246, 0.0, 10.008347, 9.9391365 
6.0056376e+3, 2.2475241e+2, -779921.25, -842532.4, -14.619881, 0.0010410151, 0.00024377341, -779921.25, -42493.91, 0.0, 10.00833, 9.926086 
6.0056365e+3, 2.3467855e+2, -681558.1, -744412.0, -29.434166, 0.0010398213, 0.000028943465, -681558.1, -41407.055, 0.0, 10.008313, 9.925755 
6.005635e+3, 2.4459775e+2, -593297.5, -666535.9, -11.575967, 0.0010395874, 0.00018823372, -593297.5, -50354.574, 0.0, 10.008297, 9.912304 
6.005634e+3, 2.5451016e+2, -494611.56, -567916.56, -25.229239, 0.0010404565, 0.0000036075496, -494611.56, -48810.406, 0.0, 10.008283, 9.912203 
6.0056335e+3, 2.644155e+2, -406444.66, -490648.66, -5.124946, 0.0010399192, 0.00024730523, -406444.66, -57715.715, 0.0, 10.008267, 9.898109 
6.005632e+3, 2.7431414e+2, -307225.75, -391092.38, -20.2039, 0.0010376426, -0.00010092495, -307225.75, -55503.695, 0.0, 10.008254, 9.898527 
6.005631e+3, 2.8420466e+2, -220692.36, -317628.44, -0.52146524, 0.0010365909, 0.0003285553, -220692.36, -65897.195, 0.0, 10.008239, 9.881728 
6.0056305e+3, 2.9408744e+2, -121045.3, -217350.1, -10.7033615, 0.0010371708, -0.00015530175, -121045.3, -63101.473, 0.0, 10.008224, 9.882518 
6.0056293e+3, 3.0399802e+2, -31670.213, -84936.625, 8.2603445, 0.0010371655, 0.00026587627, -31670.21, -31670.21, 0.0, 10.00821, 9.938095 
6.005629e+3, 3.1393793e+2, -30641.537, -82767.53, -6.913082, 0.0010362921, 0.000026849997, -30641.537, -30641.537, 0.0, 10.008197, 9.939565 
6.015661e+3, 1.2513424e+2, -1709353.3, -1722848.1, 0.7628385, 0.0010561134, 0.00019867132, -1709353.3, 4332.5186, 0.0, 10.008503, 9.990616 
6.015659e+3, 1.3512471e+2, -1612045.6, -1626120.8, -13.915374, 0.0010551651, 0.000019819021, -1612045.6, 3733.5396, 0.0, 10.008488, 9.989833 
6.015657e+3, 1.4510863e+2, -1524017.8, -1546910.0, -9.542572, 0.0010544051, 0.0002799874, -1524017.8, -6081.0283, 0.0, 10.008469, 9.978142 
6.015656e+3, 1.5508673e+2, -1426368.5, -1449648.4, -24.219213, 0.0010538006, 0.00008824096, -1426368.5, -6217.3867, 0.0, 10.008448, 9.977611 
6.015654e+3, 1.6505827e+2, -1338332.4, -1370747.8, -13.125185, 0.0010529711, 0.00016915858, -1338332.4, -15902.396, 0.0, 10.0084305, 9.965582 
6.015653e+3, 1.7502391e+2, -1240444.4, -1273164.6, -28.45683, 0.0010519293, 0.000065811015, -1240444.3, -15677.519, 0.0, 10.008415, 9.965168 
6.015651e+3, 1.8498282e+2, -1152558.0, -1194892.4, -20.959908, 0.0010516545, 0.00020955013, -1152558.0, -25388.498, 0.0, 10.008399, 9.952565 
6.0156506e+3, 1.9493541e+2, -1054482.3, -1097066.0, -34.665688, 0.0010521375, 0.000074841584, -1054482.1, -24848.205, 0.0, 10.00838, 9.952221 
6.015649e+3, 2.0488133e+2, -966394.0, -1018759.6, -22.159883, 0.0010511567, 0.00019441794, -966393.94, -34230.03, 0.0, 10.008364, 9.939437 
6.0156476e+3, 2.148208e+2, -868173.9, -920790.9, -37.28169, 0.0010486575, -0.0000015119837, -868173.9, -33416.777, 0.0, 10.008348, 9.9390955 
6.015646e+3, 2.2475359e+2, -779949.9, -842594.2, -20.913363, 0.0010482136, 0.00024396581, -779949.9, -42534.016, 0.0, 10.008332, 9.926045 
6.015645e+3, 2.3467968e+2, -681586.2, -744473.3, -35.733505, 0.0010499976, 0.00003065186, -681586.2, -41446.223, 0.0, 10.008316, 9.9257145 
6.0156435e+3, 2.4459885e+2, -593323.8, -666594.25, -17.07123, 0.001049634, 0.00018951847, -593323.8, -50391.59, 0.0, 10.0083, 9.912265 
6.015642e+3, 2.5451124e+2, -494637.44, -567974.44, -30.764057, 0.0010467947, 0.0000022361323, -494637.44, -48846.574, 0.0, 10.008285, 9.912164 
6.0156417e+3, 2.6441652e+2, -406474.25, -490714.4, -10.379101, 0.0010455487, 0.00024659463, -406474.25, -57755.223, 0.0, 10.00827, 9.898066 
6.0156405e+3, 2.7431512e+2, -307255.34, -391158.22, -25.30216, 0.0010462604, -0.0000968904, -307255.34, -55542.76, 0.0, 10.008256, 9.898483 
6.01564e+3, 2.842056e+2, -220714.1, -317678.6, -5.967361, 0.0010465502, 0.00033195326, -220714.1, -65928.04, 0.0, 10.008242, 9.881694 
6.015639e+3, 2.940883e+2, -121065.91, -217398.61, -16.394663, 0.0010462713, -0.000159701, -121065.91, -63130.8, 0.0, 10.008226, 9.882484 
6.0156375e+3, 3.0399883e+2, -31701.217, -85007.05, 3.3741872, 0.0010449969, 0.00026139183, -31701.215, -31701.215, 0.0, 10.008212, 9.938046 
6.015637e+3, 3.1393874e+2, -30673.781, -82840.41, -11.468033, 0.001042278, 0.00003348322, -30673.777, -30673.777, 0.0, 10.0082, 9.939515 
6.025669e+3, 1.2513582e+2, -1709084.5, -1722750.0, 8.108679, 0.001062764, 0.00019922545, -1709084.5, 4585.7314, 0.0, 10.00869, 9.990577 
6.025667e+3, 1.3512625e+2, -1611791.6, -1626031.1, -6.717336, 0.0010645366, 0.00002016962, -1611791.6, 3972.3394, 0.0, 10.008666, 9.989793 
6.025666e+3, 1.4511012e+2, -1523766.5, -1546822.9, -1.643354, 0.0010638637, 0.00028051782, -1523766.5, -5844.5894, 0.0, 10.008646, 9.978102 
6.025665e+3, 1.550882e+2, -1426109.0, -1449557.4, -16.885233, 0.0010608342, 0.00008931471, -1426108.9, -5972.158, 0.0, 10.008632, 9.977571 
6.025663e+3, 1.650597e+2, -1338074.3, -1370658.3, -6.1821027, 0.0010598515, 0.00017014774, -1338074.3, -15658.172, 0.0, 10.008614, 9.965542 
6.025662e+3, 1.750253e+2, -1240197.4, -1273081.8, -21.27031, 0.0010608607, 0.000066107124, -1240197.4, -15444.193, 0.0, 10.008593, 9.965128 
6.02566e+3, 1.8498416e+2, -1152311.6, -1194806.8, -13.347515, 0.0010607458, 0.00020978526, -1152311.6, -25155.313, 0.0, 10.0085745, 9.952528 
6.025659e+3, 1.9493672e+2, -1054231.6, -1096978.8, -27.673866, 0.0010595032, 0.000075646014, -1054231.6, -24610.416, 0.0, 10.008559, 9.952185 
6.025657e+3, 2.0488259e+2, -966146.9, -1018678.7, -15.415185, 0.0010583057, 0.00019544312, -966146.9, -33995.375, 0.0, 10.008543, 9.939397 
6.025656e+3, 2.1482204e+2, -867933.56, -920714.06, -30.516796, 0.0010571515, -0.00000062730123, -867933.56, -33188.55, 0.0, 10.008525, 9.939055 
6.0256547e+3, 2.2475478e+2, -779712.8, -842519.94, -14.078661, 0.0010570104, 0.0002444952, -779712.8, -42308.613, 0.0, 10.008508, 9.926005 
6.0256535e+3, 2.3468083e+2, -681348.94, -744399.6, -28.923306, 0.0010579663, 0.00003059323, -681348.94, -41220.203, 0.0, 10.0084915, 9.9256735 
6.025652e+3, 2.4459994e+2, -593086.9, -666521.4, -10.283648, 0.0010572785, 0.000189858, -593086.9, -50165.53, 0.0, 10.008475, 9.912224 
6.025651e+3, 2.545123e+2, -494402.28, -567903.2, -25.23366, 0.0010546942, 0.000004107437, -494402.25, -48621.88, 0.0, 10.00846, 9.912124 
6.02565e+3, 2.6441753e+2, -406242.25, -490646.0, -4.8901815, 0.0010537078, 0.00024805922, -406242.25, -57533.273, 0.0, 10.008445, 9.898024 
6.025649e+3, 2.743161e+2, -307028.13, -391092.94, -18.00691, 0.0010546846, -0.00009821694, -307028.13, -55325.18, 0.0, 10.008429, 9.898441 
6.025648e+3, 2.842065e+2, -220486.75, -317610.72, 1.3866396, 0.001054882, 0.00033079291, -220486.75, -65709.93, 0.0, 10.008413, 9.881655 
6.025647e+3, 2.9408923e+2, -120837.67, -217330.7, -12.443105, 0.001054035, -0.00015676448, -120837.67, -62911.46, 0.0, 10.008399, 9.882446 
6.025646e+3, 3.0399972e+2, -31479.215, -84949.62, 6.784879, 0.0010526686, 0.0002646197, -31479.215, -31479.215, 0.0, 10.008386, 9.938002 
6.025645e+3, 3.1393954e+2, -30454.477, -82785.01, -4.746432, 0.0010505486, 0.000031481144, -30454.477, -30454.477, 0.0, 10.008371, 9.939469 
6.035678e+3, 1.2513743e+2, -1709115.9, -1722813.3, -0.8989594, 0.0010706866, 0.00019952748, -1709115.9, 4538.6084, 0.0, 10.008692, 9.990537 
6.035676e+3, 1.3512781e+2, -1611821.8, -1626093.5, -15.6732025, 0.0010729147, 0.00001952995, -1611821.8, 3926.9639, 0.0, 10.008669, 9.989753 
6.035675e+3, 1.4511165e+2, -1523797.0, -1546886.4, -7.0680795, 0.0010721236, 0.00028031293, -1523797.0, -5889.9844, 0.0, 10.008649, 9.978061 
6.035673e+3, 1.5508969e+2, -1426139.9, -1449621.0, -22.319347, 0.0010684335, 0.000090854344, -1426139.9, -6017.6147, 0.0, 10.008634, 9.97753 
6.035671e+3, 1.6506115e+2, -1338104.3, -1370720.3, -14.031747, 0.00106776, 0.00017182215, -1338104.3, -15702.335, 0.0, 10.0086155, 9.965502 
6.03567e+3, 1.750267e+2, -1240226.5, -1273143.1, -29.124008, 0.001070015, 0.00006635618, -1240226.4, -15486.939, 0.0, 10.008595, 9.965088 
6.035668e+3, 1.8498553e+2, -1152338.6, -1194864.8, -18.883572, 0.0010693924, 0.00020964327, -1152338.5, -25195.652, 0.0, 10.008577, 9.95249 
6.035667e+3, 1.9493805e+2, -1054258.6, -1097036.6, -33.18772, 0.0010658975, 0.00007614354, -1054258.6, -24650.46, 0.0, 10.008562, 9.952147 
6.035666e+3, 2.048839e+2, -966175.8, -1018740.44, -22.136677, 0.0010651686, 0.00019651881, -966175.8, -34036.957, 0.0, 10.008545, 9.939357 
6.0356647e+3, 2.1482329e+2, -867962.0, -920775.44, -37.262577, 0.001067298, 0.0000009632519, -867962.0, -33229.176, 0.0, 10.008527, 9.939015 
6.035663e+3, 2.2475599e+2, -779741.1, -842581.56, -20.012205, 0.0010670552, 0.00024529078, -779741.1, -42348.703, 0.0, 10.00851, 9.925964 
6.035662e+3, 2.3468201e+2, -681376.8, -744460.9, -34.84493, 0.0010642336, 0.00002917155, -681376.8, -41259.465, 0.0, 10.008493, 9.925632 
6.0356605e+3, 2.4460107e+2, -593115.75, -666584.94, -15.861823, 0.0010630764, 0.00018946979, -593115.75, -50205.4, 0.0, 10.008478, 9.912182 
6.03566e+3, 2.5451338e+2, -494431.0, -567966.5, -30.765434, 0.0010638295, 0.000008491613, -494430.97, -48661.21, 0.0, 10.008463, 9.912081 
6.035658e+3, 2.6441857e+2, -406268.44, -490704.7, -10.945921, 0.0010638522, 0.00025120843, -406268.44, -57569.68, 0.0, 10.008447, 9.8979845 
6.035657e+3, 2.7431712e+2, -307053.5, -391150.84, -24.155725, 0.0010629684, -0.00010369517, -307053.5, -55360.336, 0.0, 10.0084305, 9.898402 
6.0356563e+3, 2.842075e+2, -220514.22, -317673.4, -3.7129257, 0.0010619571, 0.00032610752, -220514.22, -65746.766, 0.0, 10.008415, 9.881613 
6.035655e+3, 2.9409015e+2, -120865.14, -217393.48, -17.3837, 0.0010607769, -0.00014813119, -120865.14, -62947.973, 0.0, 10.008402, 9.882403 
6.0356545e+3, 3.0400062e+2, -31505.09, -85009.04, 1.6270168, 0.001060238, 0.00027383078, -31505.09, -31505.09, 0.0, 10.008388, 9.937961 
6.0356534e+3, 3.139404e+2, -30480.266, -82844.164, -9.994877, 0.0010606156, 0.00002277249, -30480.266, -30480.266, 0.0, 10.008373, 9.939428 
6.0456866e+3, 1.2513906e+2, -1708856.6, -1722720.6, 6.9656506, 0.0010806923, 0.00020015122, -1708856.6, 4781.8945, 0.0, 10.008873, 9.990497 
6.045685e+3, 1.3512939e+2, -1611551.8, -1625995.9, -7.9487376, 0.0010793252, 0.000020464424, -1611551.8, 4181.3745, 0.0, 10.008857, 9.989713 
6.0456836e+3, 1.4511319e+2, -1523529.4, -1546791.5, 0.61333466, 0.0010783913, 0.00028118948, -1523529.4, -5637.5107, 0.0, 10.008838, 9.97802 
6.045682e+3, 1.5509118e+2, -1425886.3, -1449534.1, -14.759556, 0.0010778422, 0.00009132127, -1425886.3, -5778.759, 0.0, 10.008814, 9.9774885 
6.04568e+3, 1.650626e+2, -1337853.4, -1370634.9, -6.1977735, 0.0010774393, 0.00017228445, -1337853.4, -15465.808, 0.0, 10.008795, 9.965462 
6.045679e+3, 1.7502812e+2, -1239969.1, -1273054.9, -21.652952, 0.0010771857, 0.00006720563, -1239969.0, -15243.51, 0.0, 10.008779, 9.965048 
6.045677e+3, 1.849869e+2, -1152079.5, -1194773.1, -11.329034, 0.0010762213, 0.00021051549, -1152079.5, -24950.111, 0.0, 10.008761, 9.952453 
6.045676e+3, 1.9493939e+2, -1054007.9, -1096950.0, -25.52923, 0.0010745404, 0.000076676275, -1054007.8, -24412.82, 0.0, 10.008741, 9.952108 
6.045674e+3, 2.048852e+2, -965931.2, -1018661.44, -14.538864, 0.0010742187, 0.00019696508, -965931.2, -33805.113, 0.0, 10.008723, 9.939316 
6.045673e+3, 2.1482456e+2, -867716.75, -920696.8, -30.099333, 0.0010753011, 0.0000015845397, -867716.7, -32996.31, 0.0, 10.008706, 9.938974 
6.0456717e+3, 2.2475721e+2, -779496.06, -842503.9, -12.722047, 0.0010746438, 0.0002460981, -779496.06, -42115.668, 0.0, 10.00869, 9.925923 
6.0456705e+3, 2.3468319e+2, -681133.5, -744384.7, -27.877337, 0.0010720923, 0.000030176458, -681133.5, -41027.78, 0.0, 10.008674, 9.925591 
6.0456693e+3, 2.4460222e+2, -592875.9, -666511.9, -9.082632, 0.0010712642, 0.00019016759, -592875.9, -49976.723, 0.0, 10.0086565, 9.91214 
6.045668e+3, 2.545145e+2, -494196.2, -567896.7, -23.754076, 0.0010724147, 0.000008303152, -494196.2, -48437.19, 0.0, 10.008639, 9.912039 
6.045667e+3, 2.6441965e+2, -406034.4, -490634.88, -3.7825732, 0.0010723162, 0.00025125555, -406034.4, -57346.01, 0.0, 10.008623, 9.8979435 
6.045666e+3, 2.7431813e+2, -306817.38, -391080.6, -18.146471, 0.0010706726, -0.000102034464, -306817.38, -55134.17, 0.0, 10.008609, 9.898361 
6.0456645e+3, 2.8420848e+2, -220278.97, -317604.53, 2.0005784, 0.0010695308, 0.0003277171, -220278.97, -65521.09, 0.0, 10.008594, 9.881571 
6.0456634e+3, 2.940911e+2, -120635.43, -217328.06, -10.820767, 0.001069057, -0.00014878338, -120635.43, -62727.406, 0.0, 10.008577, 9.882362 
6.045663e+3, 3.040015e+2, -31281.959, -84949.15, 8.121197, 0.0010688069, 0.0002729317, -31281.957, -31281.957, 0.0, 10.008561, 9.937918 
6.045662e+3, 3.139412e+2, -30259.225, -82785.45, -4.746458, 0.0010688643, 0.000024552377, -30259.223, -30259.223, 0.0, 10.008545, 9.939385 
6.0556954e+3, 1.251407e+2, -1708887.4, -1722784.0, 0.96512395, 0.0010922863, 0.00020102625, -1708887.4, 4735.0117, 0.0, 10.008876, 9.990456 
6.0556936e+3, 1.35131e+2, -1611582.9, -1626059.1, -13.97639, 0.0010842632, 0.000022610762, -1611582.9, 4134.5073, 0.0, 10.00886, 9.989673 
6.0556924e+3, 1.4511476e+2, -1523561.0, -1546855.9, -7.994254, 0.0010831717, 0.00028289913, -1523561.0, -5684.407, 0.0, 10.00884, 9.977979 
6.0556906e+3, 1.5509272e+2, -1425916.9, -1449597.9, -23.310614, 0.0010886429, 0.00009096751, -1425916.8, -5824.2075, 0.0, 10.008817, 9.9774475 
6.055689e+3, 1.6506408e+2, -1337883.4, -1370698.1, -12.013831, 0.0010884748, 0.00017181931, -1337883.4, -15510.352, 0.0, 10.008798, 9.965421 
6.0556877e+3, 1.7502956e+2, -1239999.1, -1273118.0, -27.47837, 0.0010828571, 0.00006851957, -1239999.1, -15287.734, 0.0, 10.008781, 9.965007 
6.055686e+3, 1.849883e+2, -1152106.6, -1194830.8, -18.614748, 0.0010816855, 0.00021217045, -1152106.6, -24991.04, 0.0, 10.008763, 9.9524145 
6.0556847e+3, 1.9494076e+2, -1054034.4, -1097007.1, -32.808765, 0.0010849286, 0.000077240926, -1054034.4, -24452.766, 0.0, 10.008744, 9.952071 
6.055683e+3, 2.0488653e+2, -965960.7, -1018724.8, -20.758411, 0.0010849588, 0.00019693172, -965960.6, -33847.547, 0.0, 10.008726, 9.939274 
6.055682e+3, 2.1482584e+2, -867745.9, -920759.8, -36.303745, 0.0010816661, 0.0000014619822, -867745.8, -33037.99, 0.0, 10.008709, 9.938932 
6.0556805e+3, 2.2475843e+2, -779525.0, -842566.8, -18.715723, 0.0010803599, 0.00024691728, -779525.0, -42156.79, 0.0, 10.008693, 9.925881 
6.0556793e+3, 2.346844e+2, -681162.25, -744447.4, -33.874374, 0.0010812025, 0.000033056083, -681162.25, -41068.285, 0.0, 10.008676, 9.9255495 
6.0556775e+3, 2.4460338e+2, -592904.3, -666574.4, -15.602255, 0.0010813149, 0.00019170553, -592904.3, -50016.48, 0.0, 10.008659, 9.912098 
6.055677e+3, 2.545156e+2, -494223.9, -567958.7, -30.279509, 0.0010805837, 0.0000045889933, -494223.88, -48475.79, 0.0, 10.008641, 9.911998 
6.055675e+3, 2.6442072e+2, -406062.4, -490697.94, -9.015422, 0.0010794918, 0.00024891482, -406062.4, -57384.508, 0.0, 10.008626, 9.897901 
6.0556746e+3, 2.7431914e+2, -306845.3, -391143.47, -23.348785, 0.0010779513, -0.0000948531, -306845.3, -55172.266, 0.0, 10.008612, 9.898318 
6.0556734e+3, 2.8420943e+2, -220305.27, -317664.3, -4.0463166, 0.0010775157, 0.00033419055, -220305.27, -65557.125, 0.0, 10.008596, 9.881531 
6.055672e+3, 2.9409203e+2, -120661.03, -217387.13, -16.848608, 0.0010785435, -0.00015661622, -120661.03, -62762.254, 0.0, 10.008579, 9.882321 
6.0556716e+3, 3.0400237e+2, -31309.475, -85012.64, 2.3960855, 0.0010781599, 0.00026422073, -31309.475, -31309.475, 0.0, 10.008564, 9.937873 
6.0556704e+3, 3.139421e+2, -30286.842, -82849.42, -10.591132, 0.0010757172, 0.00003445816, -30286.84, -30286.84, 0.0, 10.008548, 9.939341 
6.065705e+3, 1.2514237e+2, -1708612.5, -1722683.4, 8.79773, 0.0010986701, 0.00020179032, -1708612.5, 4993.6084, 0.0, 10.009067, 9.990416 
6.0657024e+3, 1.3513263e+2, -1611320.6, -1625966.0, -6.3152633, 0.0010939714, 0.000023358903, -1611320.6, 4380.8926, 0.0, 10.009044, 9.989632 
6.065701e+3, 1.4511634e+2, -1523301.4, -1546765.0, -0.26277068, 0.0010930115, 0.0002836255, -1523301.4, -5440.3286, 0.0, 10.009023, 9.977938 
6.0656995e+3, 1.5509425e+2, -1425651.1, -1449504.4, -15.374519, 0.0010955813, 0.000091664544, -1425651.0, -5573.5977, 0.0, 10.009005, 9.977407 
6.0656977e+3, 1.650656e+2, -1337619.3, -1370606.9, -3.5007093, 0.0010951182, 0.00017245703, -1337619.3, -15260.908, 0.0, 10.0089855, 9.965379 
6.0656965e+3, 1.7503102e+2, -1239743.5, -1273031.9, -19.337704, 0.0010917247, 0.000069069814, -1239743.5, -15046.404, 0.0, 10.008965, 9.964965 
6.0656947e+3, 1.8498974e+2, -1151851.1, -1194741.0, -10.740968, 0.001090972, 0.00021276677, -1151851.1, -24749.445, 0.0, 10.008945, 9.952377 
6.0656935e+3, 1.9494213e+2, -1053777.6, -1096917.5, -25.061972, 0.0010928405, 0.0000780158, -1053777.6, -24209.586, 0.0, 10.008927, 9.952034 
6.065692e+3, 2.0488787e+2, -965707.4, -1018642.25, -12.603995, 0.0010924268, 0.00019771524, -965707.4, -33607.465, 0.0, 10.00891, 9.939232 
6.0656905e+3, 2.1482714e+2, -867495.06, -920679.25, -28.308588, 0.00108965, 0.0000020787047, -867495.06, -32799.99, 0.0, 10.008892, 9.93889 
6.0656893e+3, 2.247597e+2, -779277.5, -842488.9, -11.024758, 0.0010887316, 0.00024745983, -779277.5, -41921.637, 0.0, 10.008874, 9.925839 
6.065688e+3, 2.3468561e+2, -680919.2, -744372.4, -26.541054, 0.0010898241, 0.000033625285, -680919.2, -40837.156, 0.0, 10.008856, 9.925508 
6.0656863e+3, 2.4460456e+2, -592661.8, -666499.8, -8.024822, 0.0010897024, 0.00019230651, -592661.8, -49785.523, 0.0, 10.00884, 9.912056 
6.065686e+3, 2.5451672e+2, -493979.22, -567883.6, -22.770475, 0.0010881805, 0.0000052262626, -493979.2, -48242.234, 0.0, 10.008824, 9.911956 
6.065684e+3, 2.6442182e+2, -405820.5, -490627.13, -1.8487861, 0.0010870912, 0.0002495683, -405820.5, -57153.316, 0.0, 10.008808, 9.897858 
6.0656834e+3, 2.7432021e+2, -306610.06, -391076.78, -17.017593, 0.0010865285, -0.00009420536, -306610.06, -54947.29, 0.0, 10.00879, 9.898275 
6.065682e+3, 2.8421044e+2, -220069.73, -317592.75, 2.34706, 0.0010863668, 0.00033473858, -220069.73, -65331.465, 0.0, 10.008773, 9.881492 
6.065681e+3, 2.94093e+2, -120425.13, -217315.67, -9.517308, 0.0010867324, -0.00015629706, -120425.13, -62535.848, 0.0, 10.008758, 9.882283 
6.0656804e+3, 3.0400333e+2, -31080.727, -84955.125, 9.423499, 0.0010859804, 0.0002646143, -31080.725, -31080.725, 0.0, 10.008742, 9.937826 
6.065679e+3, 3.13943e+2, -30057.64, -82792.72, -5.9125733, 0.0010835996, 0.00003537411, -30057.64, -30057.64, 0.0, 10.008728, 9.939293 
6.0757136e+3, 1.2514405e+2, -1708644.1, -1722747.8, 0.1131617, 0.0011011239, 0.00020247161, -1708644.1, 4945.453, 0.0, 10.009069, 9.990375 
6.075712e+3, 1.3513428e+2, -1611351.6, -1626029.9, -14.961428, 0.0011073216, 0.000023040775, -1611351.6, 4333.7876, 0.0, 10.009046, 9.989592 
6.07571e+3, 1.4511795e+2, -1523331.9, -1546828.3, -6.8969564, 0.0011067073, 0.00028360382, -1523331.9, -5486.535, 0.0, 10.009026, 9.977898 
6.075708e+3, 1.5509583e+2, -1425681.4, -1449567.4, -22.061218, 0.0010995974, 0.000093169714, -1425681.4, -5619.2437, 0.0, 10.009007, 9.977366 
6.075707e+3, 1.650671e+2, -1337650.5, -1370672.0, -11.154255, 0.0010984424, 0.00017394252, -1337650.5, -15307.091, 0.0, 10.008987, 9.965337 
6.075705e+3, 1.750325e+2, -1239774.3, -1273096.5, -26.945889, 0.0011030486, 0.0000690394, -1239774.3, -15091.628, 0.0, 10.008967, 9.964924 
6.075704e+3, 1.8499118e+2, -1151878.3, -1194799.0, -17.304598, 0.001103185, 0.0002125566, -1151878.1, -24790.623, 0.0, 10.008948, 9.952339 
6.0757023e+3, 1.9494355e+2, -1053804.4, -1096975.1, -31.644535, 0.0010988734, 0.00007895486, -1053804.4, -24250.023, 0.0, 10.00893, 9.951996 
6.0757005e+3, 2.0488924e+2, -965737.2, -1018706.25, -19.093082, 0.0010974146, 0.00019912793, -965737.2, -33650.645, 0.0, 10.008912, 9.93919 
6.0757e+3, 2.1482846e+2, -867524.7, -920743.0, -34.791275, 0.001098897, 0.0000032669907, -867524.6, -32842.52, 0.0, 10.008895, 9.9388485 
6.075698e+3, 2.2476098e+2, -779307.2, -842553.3, -17.80158, 0.0010991544, 0.00024779426, -779307.2, -41963.848, 0.0, 10.008877, 9.9257965 
6.075697e+3, 2.3468684e+2, -680948.2, -744436.3, -33.305706, 0.0010980802, 0.00003242353, -680948.2, -40878.273, 0.0, 10.008859, 9.925466 
6.075695e+3, 2.4460575e+2, -592690.0, -666562.44, -13.632698, 0.0010968264, 0.00019219269, -592690.0, -49825.387, 0.0, 10.0088415, 9.912015 
6.0756946e+3, 2.5451788e+2, -494007.22, -567946.0, -28.394152, 0.0010953628, 0.000009214082, -494007.22, -48281.58, 0.0, 10.008826, 9.911914 
6.075693e+3, 2.6442292e+2, -405850.4, -490693.6, -8.376033, 0.0010950417, 0.0002525258, -405850.4, -57194.094, 0.0, 10.00881, 9.897813 
6.075692e+3, 2.7432126e+2, -306639.38, -391142.97, -23.470484, 0.0010961164, -0.000098585166, -306639.38, -54987.01, 0.0, 10.008793, 9.898231 
6.075691e+3, 2.842115e+2, -220093.83, -317648.8, -3.298427, 0.0010958918, 0.00033073212, -220093.83, -65365.55, 0.0, 10.008776, 9.8814535 
6.07569e+3, 2.94094e+2, -120448.55, -217370.6, -15.326757, 0.001093939, -0.00014968905, -120448.54, -62568.96, 0.0, 10.00876, 9.882245 
6.075689e+3, 3.0400428e+2, -31112.328, -85027.07, 3.8327413, 0.0010926432, 0.00027202562, -31112.326, -31112.326, 0.0, 10.008745, 9.937776 
6.075688e+3, 3.139439e+2, -30090.33, -82866.64, -11.1712265, 0.0010922967, 0.000029355608, -30090.328, -30090.328, 0.0, 10.008731, 9.939241 
6.0857224e+3, 1.2514576e+2, -1708372.8, -1722649.4, 8.782205, 0.0011103487, 0.00020307758, -1708372.8, 5200.154, 0.0, 10.009258, 9.990334 
6.085721e+3, 1.3513593e+2, -1611079.5, -1625931.8, -6.351066, 0.0011145363, 0.000023415549, -1611079.5, 4589.542, 0.0, 10.009236, 9.989551 
6.0857195e+3, 1.4511958e+2, -1523062.5, -1546733.4, 2.4995565, 0.0011138271, 0.00028405324, -1523062.5, -5233.108, 0.0, 10.009215, 9.977856 
6.0857177e+3, 1.5509741e+2, -1425417.1, -1449475.9, -13.496256, 0.0011084353, 0.00009398313, -1425417.1, -5370.5293, 0.0, 10.009194, 9.9773245 
6.085716e+3, 1.6506867e+2, -1337388.3, -1370581.6, -3.1208901, 0.0011075044, 0.00017480685, -1337388.3, -15059.97, 0.0, 10.009174, 9.965296 
6.085714e+3, 1.7503402e+2, -1239512.5, -1273007.1, -18.604778, 0.0011108946, 0.000069651804, -1239512.5, -14844.59, 0.0, 10.009154, 9.964882 
6.085713e+3, 1.8499264e+2, -1151615.0, -1194706.3, -8.185064, 0.0011107384, 0.00021308438, -1151615.0, -24541.73, 0.0, 10.009135, 9.952301 
6.085712e+3, 1.9494498e+2, -1053543.1, -1096884.0, -22.975647, 0.0011070482, 0.00007956477, -1053543.1, -24002.781, 0.0, 10.009117, 9.951957 
6.08571e+3, 2.0489061e+2, -965481.5, -1018622.9, -10.895761, 0.0011059153, 0.00019982409, -965481.5, -33408.523, 0.0, 10.009098, 9.939148 
6.085709e+3, 2.148298e+2, -867272.94, -920662.4, -26.771252, 0.0011074203, 0.000004053398, -867272.94, -32603.95, 0.0, 10.009079, 9.938807 
6.085707e+3, 2.2476229e+2, -779056.6, -842474.25, -9.362356, 0.0011074148, 0.00024844066, -779056.6, -41726.02, 0.0, 10.009061, 9.925755 
6.085706e+3, 2.3468809e+2, -680696.2, -744357.2, -24.87141, 0.0011057671, 0.000032680593, -680696.2, -40638.6, 0.0, 10.009045, 9.925423 
6.0857046e+3, 2.4460696e+2, -592440.2, -666486.06, -5.542441, 0.0011046252, 0.00019263184, -592440.2, -49587.5, 0.0, 10.0090275, 9.911971 
6.0857034e+3, 2.5451905e+2, -493763.3, -567873.3, -21.343325, 0.0011040597, 0.000010491543, -493763.3, -48049.15, 0.0, 10.009009, 9.911871 
6.085702e+3, 2.6442406e+2, -405608.1, -490621.25, -1.1662571, 0.0011038586, 0.00025355507, -405608.1, -56962.84, 0.0, 10.008992, 9.89777 
6.0857004e+3, 2.7432236e+2, -306396.03, -391070.75, -14.853742, 0.0011040972, -0.000099139244, -306396.03, -54754.277, 0.0, 10.008976, 9.898188 
6.0857e+3, 2.8421253e+2, -219850.97, -317577.84, 4.985686, 0.001103584, 0.00033034635, -219850.97, -65132.9, 0.0, 10.00896, 9.881411 
6.0856986e+3, 2.94095e+2, -120208.84, -217301.95, -10.350194, 0.0011020693, -0.00014758053, -120208.84, -62339.07, 0.0, 10.008944, 9.882202 
6.085698e+3, 3.040052e+2, -30878.877, -84964.32, 8.259223, 0.0011010923, 0.00027420046, -30878.877, -30878.877, 0.0, 10.008926, 9.937732 
6.085697e+3, 3.139448e+2, -29860.666, -82805.945, -2.9395945, 0.0011008874, 0.000028079994, -29860.666, -29860.666, 0.0, 10.008909, 9.939197 
6.095732e+3, 1.2514749e+2, -1708404.5, -1722714.0, 0.5311336, 0.0011247048, 0.00020363198, -1708404.5, 5151.371, 0.0, 10.00926, 9.990293 
6.0957307e+3, 1.3513763e+2, -1611110.5, -1625995.9, -14.596193, 0.0011171225, 0.000024325038, -1611110.5, 4541.907, 0.0, 10.009239, 9.98951 
6.095728e+3, 1.4512123e+2, -1523094.8, -1546800.3, -5.1302805, 0.0011159916, 0.00028486724, -1523094.8, -5281.617, 0.0, 10.009217, 9.977813 
6.095727e+3, 1.5509902e+2, -1425449.4, -1449542.4, -21.054535, 0.0011209483, 0.00009427165, -1425449.4, -5418.494, 0.0, 10.009197, 9.977283 
6.095725e+3, 1.6507022e+2, -1337418.8, -1370645.3, -10.469909, 0.001120929, 0.00017519985, -1337418.8, -15105.745, 0.0, 10.009176, 9.965255 
6.0957235e+3, 1.7503554e+2, -1239542.3, -1273070.1, -25.992378, 0.0011161151, 0.000070758826, -1239542.3, -14889.288, 0.0, 10.009157, 9.964841 
6.0957223e+3, 1.8499413e+2, -1151642.9, -1194766.1, -14.932184, 0.0011147752, 0.00021418005, -1151642.9, -24584.207, 0.0, 10.009138, 9.952262 
6.0957205e+3, 1.9494641e+2, -1053571.0, -1096943.8, -29.68667, 0.0011168742, 0.0000799282, -1053570.9, -24044.756, 0.0, 10.00912, 9.951918 
6.0957193e+3, 2.0489201e+2, -965511.75, -1018687.6, -18.002636, 0.0011171038, 0.00019997735, -965511.75, -33452.504, 0.0, 10.009101, 9.939105 
6.0957175e+3, 2.1483116e+2, -867302.5, -920726.6, -33.89036, 0.0011154035, 0.000004535277, -867302.5, -32646.844, 0.0, 10.009082, 9.938764 
6.0957164e+3, 2.247636e+2, -779085.94, -842538.5, -15.420268, 0.0011140432, 0.00024932908, -779085.94, -41768.27, 0.0, 10.009064, 9.925712 
6.0957146e+3, 2.3468937e+2, -680725.4, -744421.2, -30.930128, 0.0011130455, 0.000034060322, -680725.4, -40680.27, 0.0, 10.0090475, 9.92538 
6.0957134e+3, 2.446082e+2, -592470.7, -666553.06, -12.2758255, 0.0011129627, 0.00019349875, -592470.7, -49630.06, 0.0, 10.00903, 9.911926 
6.095712e+3, 2.5452024e+2, -493793.25, -567939.9, -28.02194, 0.0011139241, 0.0000096923795, -493793.22, -48090.688, 0.0, 10.009012, 9.911826 
6.095711e+3, 2.644252e+2, -405634.84, -490682.0, -7.0493855, 0.0011133456, 0.00025311025, -405634.84, -57000.793, 0.0, 10.008995, 9.897729 
6.09571e+3, 2.7432346e+2, -306422.28, -391130.78, -20.865242, 0.0011108703, -0.000096746575, -306422.25, -54791.363, 0.0, 10.008979, 9.898147 
6.0957086e+3, 2.842136e+2, -219881.17, -317646.4, -1.2184982, 0.0011099004, 0.0003327461, -219881.17, -65173.523, 0.0, 10.008963, 9.881364 
6.0957074e+3, 2.9409602e+2, -120238.984, -217370.77, -16.287806, 0.001110926, -0.0001489359, -120238.98, -62379.12, 0.0, 10.008946, 9.882155 
6.095707e+3, 3.040062e+2, -30904.02, -85023.02, 2.0833197, 0.0011109224, 0.0002723493, -30904.018, -30904.018, 0.0, 10.008929, 9.937691 
6.0957056e+3, 3.139457e+2, -29885.14, -82863.56, -9.5252, 0.0011094086, 0.000030468955, -29885.139, -29885.139, 0.0, 10.008912, 9.939157 
6.105741e+3, 1.2514925e+2, -1708130.5, -1722614.8, 9.125595, 0.0011328149, 0.0002044214, -1708130.5, 5408.181, 0.0, 10.009451, 9.990252 
6.1057395e+3, 1.3513935e+2, -1610834.5, -1625896.3, -6.265194, 0.001125343, 0.000025414158, -1610834.5, 4801.1357, 0.0, 10.009432, 9.989469 
6.1057377e+3, 1.451229e+2, -1522821.0, -1546702.9, 2.8504765, 0.0011242413, 0.00028580203, -1522821.0, -5024.142, 0.0, 10.00941, 9.977771 
6.1057365e+3, 1.5510064e+2, -1425181.6, -1449449.0, -12.416149, 0.0011291533, 0.00009462001, -1425181.6, -5166.7925, 0.0, 10.009386, 9.977241 
6.105734e+3, 1.6507182e+2, -1337153.4, -1370554.3, -0.58996516, 0.0011290873, 0.00017553126, -1337153.4, -14855.941, 0.0, 10.009366, 9.965213 
6.105733e+3, 1.7503709e+2, -1239275.5, -1272979.1, -16.884056, 0.0011242214, 0.00007162311, -1239275.5, -14637.706, 0.0, 10.009348, 9.964799 
6.105732e+3, 1.8499564e+2, -1151374.9, -1194670.9, -6.3957305, 0.0011229872, 0.00021513723, -1151374.9, -24330.957, 0.0, 10.009328, 9.952223 
6.10573e+3, 1.949479e+2, -1053308.4, -1096852.0, -20.89227, 0.0011253508, 0.0000805417, -1053308.4, -23796.55, 0.0, 10.009308, 9.9518795 
6.105728e+3, 2.0489345e+2, -965254.1, -1018604.1, -8.592251, 0.0011254703, 0.00020040026, -965254.1, -33208.867, 0.0, 10.009289, 9.939062 
6.1057264e+3, 2.1483254e+2, -867043.25, -920643.0, -24.844027, 0.0011232712, 0.000004925492, -867043.25, -32401.152, 0.0, 10.009272, 9.938721 
6.105725e+3, 2.2476494e+2, -778828.2, -842456.75, -6.710414, 0.0011219746, 0.00024995988, -778828.2, -41523.64, 0.0, 10.0092535, 9.925669 
6.105724e+3, 2.3469068e+2, -680472.7, -744342.75, -22.776533, 0.0011216495, 0.000035227382, -680472.7, -40440.305, 0.0, 10.009234, 9.925337 
6.105723e+3, 2.4460945e+2, -592220.06, -666476.2, -3.9199617, 0.0011216266, 0.00019434374, -592220.06, -49391.71, 0.0, 10.009216, 9.911883 
6.105721e+3, 2.5452146e+2, -493542.2, -567863.56, -18.896654, 0.0011219454, 0.0000092309, -493542.16, -47851.473, 0.0, 10.009199, 9.911782 
6.1057204e+3, 2.6442635e+2, -405385.3, -490608.56, 1.7563074, 0.0011212148, 0.00025299858, -405385.3, -56762.703, 0.0, 10.009183, 9.897684 
6.1057186e+3, 2.743246e+2, -306175.63, -391059.6, -14.595068, 0.001119189, -0.00009447553, -306175.63, -54555.727, 0.0, 10.009166, 9.898103 
6.105718e+3, 2.8421468e+2, -219634.52, -317572.13, 4.8694715, 0.0011184284, 0.0003347651, -219634.52, -64937.44, 0.0, 10.009149, 9.881323 
6.105717e+3, 2.9409704e+2, -119995.17, -217298.33, -6.7840962, 0.0011193445, -0.00015066448, -119995.17, -62145.45, 0.0, 10.0091305, 9.882114 
6.1057156e+3, 3.0400717e+2, -30667.854, -84962.71, 11.413579, 0.0011191822, 0.00027045727, -30667.852, -30667.852, 0.0, 10.009114, 9.937642 
6.105715e+3, 3.1394666e+2, -29648.195, -82803.68, -5.5172625, 0.0011174406, 0.00003360986, -29648.195, -29648.195, 0.0, 10.009097, 9.939108 
6.115751e+3, 1.2515102e+2, -1708162.3, -1722680.1, 1.8481582, 0.0011362443, 0.00020539005, -1708162.3, 5359.047, 0.0, 10.009454, 9.990211 
6.115749e+3, 1.3514109e+2, -1610866.8, -1625961.8, -13.53949, 0.0011378322, 0.000026635002, -1610866.8, 4751.946, 0.0, 10.009434, 9.989427 
6.115747e+3, 1.4512458e+2, -1522852.3, -1546767.0, -5.8885574, 0.0011370936, 0.00028682678, -1522852.3, -5072.081, 0.0, 10.009412, 9.97773 
6.115746e+3, 1.551023e+2, -1425211.9, -1449512.4, -21.181044, 0.0011341218, 0.0000950227, -1425211.9, -5213.167, 0.0, 10.009389, 9.9772 
6.1157435e+3, 1.6507342e+2, -1337185.0, -1370620.9, -7.2691007, 0.0011332907, 0.00017582598, -1337185.0, -14903.391, 0.0, 10.009369, 9.96517 
6.1157423e+3, 1.7503865e+2, -1239307.4, -1273045.6, -23.514828, 0.0011345306, 0.000072305076, -1239307.4, -14684.898, 0.0, 10.00935, 9.964756 
6.1157405e+3, 1.8499716e+2, -1151402.5, -1194729.8, -14.106607, 0.0011343721, 0.00021598912, -1151402.5, -24373.574, 0.0, 10.009331, 9.952185 
6.1157393e+3, 1.9494937e+2, -1053335.1, -1096910.3, -28.631008, 0.0011328192, 0.00008134876, -1053335.1, -23837.936, 0.0, 10.00931, 9.951841 
6.1157376e+3, 2.048949e+2, -965284.7, -1018670.2, -14.933888, 0.0011317173, 0.0002010343, -965284.7, -33253.59, 0.0, 10.009292, 9.939019 
6.115736e+3, 2.1483396e+2, -867073.75, -920708.9, -31.161707, 0.001131076, 0.0000052540217, -867073.7, -32445.377, 0.0, 10.009274, 9.938678 
6.1157346e+3, 2.247663e+2, -778858.94, -842523.44, -13.673835, 0.0011309162, 0.00025039964, -778858.94, -41567.695, 0.0, 10.009256, 9.925624 
6.1157334e+3, 2.3469199e+2, -680502.8, -744408.94, -29.729216, 0.0011312708, 0.000036228896, -680502.8, -40483.31, 0.0, 10.009237, 9.925293 
6.115732e+3, 2.4461071e+2, -592248.56, -666539.8, -10.179714, 0.001130549, 0.00019517267, -592248.56, -49432.69, 0.0, 10.009219, 9.91184 
6.1157304e+3, 2.5452268e+2, -493570.25, -567926.6, -25.210045, 0.0011285896, 0.000009046622, -493570.25, -47891.594, 0.0, 10.009202, 9.91174 
6.115729e+3, 2.6442754e+2, -405417.0, -490679.34, -4.531334, 0.0011278813, 0.00025315504, -405417.0, -56805.99, 0.0, 10.009186, 9.897637 
6.115728e+3, 2.7432573e+2, -306207.16, -391130.4, -20.72675, 0.0011286995, -0.00009231936, -306207.16, -54598.402, 0.0, 10.009169, 9.898054 
6.115727e+3, 2.8421575e+2, -219658.44, -317627.8, -1.5416994, 0.0011286499, 0.0003364763, -219658.44, -64972.082, 0.0, 10.009151, 9.881285 
6.1157256e+3, 2.940981e+2, -120017.95, -217352.39, -13.47406, 0.0011274446, -0.00015263706, -120017.945, -62178.57, 0.0, 10.009134, 9.882077 
6.1157244e+3, 3.040082e+2, -30701.63, -85039.92, 5.1874785, 0.0011262664, 0.00026857716, -30701.63, -30701.63, 0.0, 10.009117, 9.937589 
6.115724e+3, 3.1394762e+2, -29683.297, -82883.484, -11.372091, 0.0011251232, 0.000037285645, -29683.295, -29683.295, 0.0, 10.0091, 9.939053 
6.12576e+3, 1.2515283e+2, -1707877.0, -1722575.1, 10.869665, 0.0011435051, 0.00020601616, -1707877.0, 5626.598, 0.0, 10.009652, 9.990169 
6.125759e+3, 1.3514283e+2, -1610594.8, -1625864.5, -4.4235115, 0.0011468838, 0.000026772212, -1610594.8, 5006.6504, 0.0, 10.0096245, 9.989386 
6.125757e+3, 1.4512631e+2, -1522583.3, -1546672.8, 4.350392, 0.0011462263, 0.00028710495, -1522583.3, -4819.817, 0.0, 10.009602, 9.977688 
6.125755e+3, 1.5510397e+2, -1424935.5, -1449415.0, -11.73879, 0.0011417124, 0.000096036136, -1424935.5, -4953.2544, 0.0, 10.009584, 9.977158 
6.1257535e+3, 1.6507506e+2, -1336909.9, -1370525.0, 1.6846622, 0.001140775, 0.00017687486, -1336909.9, -14644.192, 0.0, 10.009563, 9.965127 
6.125752e+3, 1.7504023e+2, -1239041.5, -1272955.4, -14.186787, 0.0011432947, 0.00007271554, -1239041.5, -14434.666, 0.0, 10.009541, 9.964713 
6.12575e+3, 1.849987e+2, -1151136.3, -1194636.0, -3.9501898, 0.0011432511, 0.00021626854, -1151136.3, -24122.412, 0.0, 10.009521, 9.952146 
6.125749e+3, 1.9495088e+2, -1053064.9, -1096815.3, -19.022562, 0.0011406568, 0.00008199985, -1053064.9, -23582.39, 0.0, 10.009503, 9.951802 
6.125747e+3, 2.0489636e+2, -965018.3, -1018582.75, -5.675085, 0.0011394345, 0.00020186784, -965018.3, -33001.613, 0.0, 10.009484, 9.938975 
6.125746e+3, 2.1483538e+2, -866813.3, -920625.25, -21.991749, 0.001139622, 0.000006075017, -866813.3, -32198.92, 0.0, 10.009464, 9.938634 
6.125744e+3, 2.2476768e+2, -778601.1, -842442.25, -4.1867967, 0.0011396323, 0.0002509554, -778601.1, -41323.426, 0.0, 10.009446, 9.92558 
6.125743e+3, 2.3469333e+2, -680244.3, -744328.1, -20.19907, 0.0011394456, 0.000036246707, -680244.3, -40237.938, 0.0, 10.009428, 9.925249 
6.125741e+3, 2.4461201e+2, -591990.6, -666460.5, -0.8731961, 0.0011385524, 0.00019552896, -591990.6, -49187.45, 0.0, 10.009411, 9.911797 
6.12574e+3, 2.5452393e+2, -493314.44, -567849.1, -17.179615, 0.0011368452, 0.000010744278, -493314.44, -47648.04, 0.0, 10.009394, 9.9116955 
6.1257386e+3, 2.6442873e+2, -405163.84, -490604.44, 3.397102, 0.001136291, 0.00025446882, -405163.84, -56564.63, 0.0, 10.009376, 9.897592 
6.1257374e+3, 2.7432686e+2, -305957.4, -391057.97, -11.12063, 0.001137143, -0.000093502655, -305957.4, -54359.992, 0.0, 10.009357, 9.898009 
6.125736e+3, 2.8421688e+2, -219408.34, -317553.44, 7.834552, 0.0011370246, 0.00033550287, -219408.34, -64732.902, 0.0, 10.00934, 9.881242 
6.125735e+3, 2.9409918e+2, -119767.445, -217278.34, -7.6467133, 0.0011356141, -0.00014981673, -119767.445, -61938.598, 0.0, 10.009324, 9.882034 
6.125734e+3, 3.0400923e+2, -30457.719, -84976.36, 10.210276, 0.0011344277, 0.00027157037, -30457.717, -30457.717, 0.0, 10.009307, 9.93754 
6.1257327e+3, 3.139486e+2, -29442.305, -82822.016, -2.6094637, 0.0011335617, 0.000035219215, -29442.305, -29442.305, 0.0, 10.009289, 9.939003 
6.13577e+3, 1.2515464e+2, -1707909.6, -1722640.6, 0.6118141, 0.0011536632, 0.00020639003, -1707909.6, 5576.1626, 0.0, 10.009654, 9.990128 
6.135768e+3, 1.3514462e+2, -1610625.8, -1625929.0, -14.63902, 0.0011533641, 0.000026110714, -1610625.8, 4958.1875, 0.0, 10.009627, 9.989344 
6.1357665e+3, 1.4512806e+2, -1522615.4, -1546739.9, -2.230697, 0.0011525785, 0.0002868352, -1522615.4, -4869.0264, 0.0, 10.009605, 9.977645 
6.135765e+3, 1.5510567e+2, -1424968.3, -1449482.3, -18.301886, 0.0011513004, 0.000097506236, -1424968.3, -5002.5938, 0.0, 10.009586, 9.977115 
6.135763e+3, 1.650767e+2, -1336941.4, -1370590.4, -6.9796076, 0.0011507494, 0.00017848649, -1336941.4, -14691.967, 0.0, 10.009566, 9.965085 
6.135761e+3, 1.7504184e+2, -1239071.9, -1273020.0, -22.861279, 0.0011509069, 0.000072929586, -1239071.9, -14480.811, 0.0, 10.009543, 9.964671 
6.13576e+3, 1.8500027e+2, -1151164.4, -1194696.9, -10.273135, 0.001150257, 0.00021612823, -1151164.4, -24165.959, 0.0, 10.009523, 9.9521055 
6.1357576e+3, 1.9495241e+2, -1053093.1, -1096876.0, -25.323002, 0.0011487987, 0.00008253823, -1053093.1, -23625.7, 0.0, 10.009506, 9.951762 
6.1357564e+3, 2.0489785e+2, -965049.5, -1018649.3, -13.133534, 0.0011482848, 0.00020285253, -965049.44, -33047.363, 0.0, 10.009487, 9.938932 
6.1357546e+3, 2.1483682e+2, -866843.7, -920691.3, -29.46107, 0.0011487382, 0.0000072669595, -866843.7, -32243.484, 0.0, 10.009467, 9.93859 
6.1357534e+3, 2.2476909e+2, -778631.3, -842508.44, -10.632838, 0.0011481891, 0.000251603, -778631.3, -41367.33, 0.0, 10.009449, 9.925536 
6.135752e+3, 2.3469469e+2, -680274.1, -744394.0, -26.641214, 0.0011465523, 0.000035538265, -680274.1, -40281.066, 0.0, 10.009431, 9.925205 
6.1357504e+3, 2.4461332e+2, -592021.8, -666529.4, -7.2927136, 0.001145889, 0.00019553896, -592021.8, -49231.496, 0.0, 10.009414, 9.911751 
6.135749e+3, 2.5452518e+2, -493345.3, -567917.75, -23.547325, 0.0011463349, 0.000013846724, -493345.3, -47691.344, 0.0, 10.009397, 9.91165 
6.135748e+3, 2.6442996e+2, -405192.2, -490668.53, -3.3181124, 0.0011460299, 0.00025664576, -405192.2, -56604.973, 0.0, 10.009378, 9.897549 
6.135747e+3, 2.7432805e+2, -305984.94, -391121.25, -17.955933, 0.0011447967, -0.000097172786, -305984.94, -54399.066, 0.0, 10.00936, 9.897966 
6.1357456e+3, 2.84218e+2, -219438.34, -317622.3, 1.6876634, 0.001144024, 0.0003325357, -219438.34, -64774.01, 0.0, 10.009343, 9.881195 
6.135744e+3, 2.9410028e+2, -119797.46, -217347.36, -13.595208, 0.0011438585, -0.00014340944, -119797.46, -61979.313, 0.0, 10.009327, 9.881988 
6.135743e+3, 3.0401027e+2, -30485.459, -85040.695, 3.696327, 0.0011434245, 0.00027820602, -30485.459, -30485.459, 0.0, 10.00931, 9.937495 
6.135742e+3, 3.1394958e+2, -29469.729, -82885.88, -9.370395, 0.0011425868, 0.000028858462, -29469.727, -29469.727, 0.0, 10.009292, 9.938958 
6.1457795e+3, 1.2515649e+2, -1707634.3, -1722541.4, 10.19995, 0.0011634374, 0.00020697045, -1707634.3, 5833.3877, 0.0, 10.009846, 9.990086 
6.145778e+3, 1.3514642e+2, -1610339.0, -1625824.4, -5.355052, 0.001160167, 0.000027113616, -1610339.0, 5227.2505, 0.0, 10.009828, 9.989302 
6.145776e+3, 1.4512981e+2, -1522330.6, -1546637.9, 7.059492, 0.0011592958, 0.00028776386, -1522330.6, -4601.5415, 0.0, 10.009805, 9.977602 
6.145774e+3, 1.551074e+2, -1424697.4, -1449388.3, -8.7648, 0.0011606595, 0.00009788991, -1424697.4, -4748.5654, 0.0, 10.009779, 9.977072 
6.1457723e+3, 1.6507839e+2, -1336673.0, -1370498.4, 3.4734392, 0.0011603327, 0.00017881705, -1336673.0, -14439.991, 0.0, 10.009757, 9.965042 
6.145771e+3, 1.750435e+2, -1238795.9, -1272924.6, -12.856325, 0.0011583869, 0.00007368008, -1238795.9, -14220.878, 0.0, 10.00974, 9.964629 
6.145769e+3, 1.8500188e+2, -1150886.0, -1194597.5, -0.41440597, 0.0011574697, 0.00021696818, -1150886.0, -23903.223, 0.0, 10.009721, 9.952066 
6.1457676e+3, 1.9495396e+2, -1052823.1, -1096781.6, -15.386993, 0.0011575612, 0.00008314109, -1052823.1, -23370.975, 0.0, 10.009699, 9.951722 
6.1457664e+3, 2.0489937e+2, -964785.5, -1018563.75, -2.812353, 0.0011573647, 0.0002033088, -964785.5, -32798.25, 0.0, 10.00968, 9.938889 
6.1457646e+3, 2.1483828e+2, -866577.25, -920605.2, -19.423317, 0.0011568685, 0.000007669576, -866577.25, -31991.432, 0.0, 10.009662, 9.938546 
6.1457634e+3, 2.247705e+2, -778364.94, -842423.7, -0.6979918, 0.0011560224, 0.00025220853, -778364.94, -41114.93, 0.0, 10.0096445, 9.925492 
6.1457616e+3, 2.3469606e+2, -680010.7, -744311.4, -17.181314, 0.0011547924, 0.000036623405, -680010.7, -40031.117, 0.0, 10.009625, 9.92516 
6.1457604e+3, 2.4461468e+2, -591761.3, -666449.8, 2.1216605, 0.0011543909, 0.00019635804, -591761.3, -48984.082, 0.0, 10.009607, 9.911705 
6.1457586e+3, 2.545265e+2, -493087.7, -567840.4, -13.781601, 0.0011549329, 0.000013547352, -493087.7, -47446.355, 0.0, 10.009589, 9.911604 
6.1457574e+3, 2.644312e+2, -404935.1, -490592.16, 6.276834, 0.0011544906, 0.0002565773, -404935.1, -56360.08, 0.0, 10.009572, 9.897504 
6.145756e+3, 2.7432925e+2, -305726.53, -391044.97, -9.918167, 0.0011528339, -0.00009535908, -305726.53, -54152.414, 0.0, 10.009556, 9.897922 
6.145755e+3, 2.8421918e+2, -219180.27, -317545.88, 9.253971, 0.0011520433, 0.00033424626, -219180.27, -64527.25, 0.0, 10.009539, 9.88115 
6.145754e+3, 2.941014e+2, -119544.625, -217274.19, -4.529645, 0.0011523977, -0.00014442873, -119544.625, -61737.336, 0.0, 10.00952, 9.881943 
6.1457527e+3, 3.0401132e+2, -30239.973, -84976.21, 12.40563, 0.0011521339, 0.00027698418, -30239.969, -30239.969, 0.0, 10.0095005, 9.937448 
6.1457515e+3, 3.139506e+2, -29224.232, -82821.836, -3.3509374, 0.0011509592, 0.00003109123, -29224.232, -29224.232, 0.0, 10.009483, 9.93891 
6.1557895e+3, 1.2515837e+2, -1707666.4, -1722607.6, 3.17077, 0.0011729172, 0.00020770992, -1707666.4, 5782.9287, 0.0, 10.009849, 9.990044 
6.155788e+3, 1.3514826e+2, -1610371.8, -1625890.8, -12.398838, 0.0011672545, 0.000029351646, -1610371.8, 5176.5557, 0.0, 10.0098295, 9.98926 
6.155786e+3, 1.451316e+2, -1522363.3, -1546704.5, -2.6472797, 0.0011663307, 0.00028958195, -1522363.3, -4651.7295, 0.0, 10.009807, 9.97756 
6.155784e+3, 1.5510914e+2, -1424728.6, -1449454.0, -18.426153, 0.0011698472, 0.00009747295, -1424728.6, -4796.949, 0.0, 10.009782, 9.977029 
6.1557823e+3, 1.650801e+2, -1336704.5, -1370565.1, -2.8915071, 0.0011696198, 0.00017820406, -1336704.5, -14488.26, 0.0, 10.00976, 9.964999 
6.1557806e+3, 1.7504513e+2, -1238827.8, -1272991.4, -19.219658, 0.0011658024, 0.00007483307, -1238827.8, -14269.008, 0.0, 10.009743, 9.964585 
6.155779e+3, 1.8500349e+2, -1150914.6, -1194658.3, -8.511992, 0.0011648755, 0.000218539, -1150914.6, -23947.715, 0.0, 10.009723, 9.952026 
6.1557776e+3, 1.9495556e+2, -1052850.9, -1096841.8, -23.47766, 0.0011667962, 0.00008379608, -1052850.9, -23414.143, 0.0, 10.009702, 9.951683 
6.155776e+3, 2.049009e+2, -964816.6, -1018631.2, -9.253169, 0.00116662, 0.00020337765, -964816.6, -32844.42, 0.0, 10.009683, 9.938844 
6.155774e+3, 2.1483979e+2, -866608.2, -920672.4, -25.851242, 0.0011642859, 0.0000074911213, -866608.2, -32037.008, 0.0, 10.009665, 9.938502 
6.155772e+3, 2.2477196e+2, -778396.3, -842492.0, -7.482914, 0.0011633451, 0.00025278816, -778396.3, -41160.484, 0.0, 10.009647, 9.9254465 
6.155771e+3, 2.3469746e+2, -680041.56, -744379.25, -23.966068, 0.0011639, 0.000039045957, -680041.56, -40075.742, 0.0, 10.009628, 9.925116 
6.15577e+3, 2.4461603e+2, -591791.56, -666517.06, -4.6611705, 0.0011637784, 0.00019778137, -591791.56, -49027.637, 0.0, 10.00961, 9.91166 
6.1557686e+3, 2.545278e+2, -493117.3, -567907.1, -20.578232, 0.0011628779, 0.000010721064, -493117.3, -47488.81, 0.0, 10.009592, 9.911559 
6.155767e+3, 2.6443246e+2, -404966.16, -490662.25, 0.23627585, 0.0011620129, 0.00025484557, -404966.16, -56403.523, 0.0, 10.009575, 9.897456 
6.1557657e+3, 2.7433047e+2, -305757.47, -391114.94, -15.90452, 0.0011611838, -0.00008945368, -305757.47, -54195.348, 0.0, 10.009559, 9.897874 
6.1557645e+3, 2.8422034e+2, -219207.78, -317609.25, 2.2738674, 0.0011608519, 0.00033944368, -219207.78, -64566.29, 0.0, 10.0095415, 9.881107 
6.155763e+3, 2.9410252e+2, -119571.16, -217336.47, -11.598449, 0.0011611726, -0.00015098577, -119571.16, -61774.9, 0.0, 10.009522, 9.8819 
6.155762e+3, 3.0401242e+2, -30271.697, -85049.73, 5.7909107, 0.0011606402, 0.0002699094, -30271.697, -30271.697, 0.0, 10.009504, 9.937396 
6.1557615e+3, 3.1395164e+2, -29256.62, -82896.664, -9.930913, 0.0011588632, 0.00003974717, -29256.617, -29256.617, 0.0, 10.009486, 9.938858 
6.1658e+3, 1.2516026e+2, -1707374.6, -1722499.6, 12.464759, 0.0011794271, 0.00020844398, -1707374.6, 6056.1787, 0.0, 10.010051, 9.990002 
6.165798e+3, 1.3515012e+2, -1610094.6, -1625791.4, -2.9999118, 0.0011770857, 0.000029855664, -1610094.6, 5435.507, 0.0, 10.010023, 9.989218 
6.165796e+3, 1.4513342e+2, -1522088.5, -1546607.5, 7.5288324, 0.0011762846, 0.0002900684, -1522088.5, -4394.732, 0.0, 10.01, 9.977517 
6.165794e+3, 1.551109e+2, -1424444.8, -1449353.0, -8.309248, 0.0011769044, 0.0000981395, -1424444.8, -4530.447, 0.0, 10.009982, 9.976987 
6.165792e+3, 1.6508181e+2, -1336422.0, -1370466.5, 7.6205397, 0.0011764478, 0.00017889701, -1336421.9, -14222.556, 0.0, 10.009961, 9.964956 
6.1657906e+3, 1.7504683e+2, -1238555.4, -1272898.9, -8.87679, 0.0011749638, 0.00007540581, -1238555.4, -14013.065, 0.0, 10.009937, 9.964542 
6.165789e+3, 1.8500513e+2, -1150641.4, -1194561.6, 2.1838346, 0.0011743626, 0.00021906343, -1150641.4, -23690.527, 0.0, 10.009917, 9.951987 
6.165787e+3, 1.9495715e+2, -1052573.0, -1096743.4, -12.898498, 0.0011746258, 0.00008434271, -1052573.0, -23151.947, 0.0, 10.0099, 9.951643 
6.165786e+3, 2.0490247e+2, -964542.3, -1018541.0, 1.4480731, 0.0011740988, 0.00020399013, -964542.3, -32585.35, 0.0, 10.009881, 9.938799 
6.1657834e+3, 2.1484129e+2, -866338.5, -920585.4, -15.392157, 0.0011727553, 0.000008214372, -866338.5, -31782.19, 0.0, 10.009862, 9.9384575 
6.165782e+3, 2.2477342e+2, -778129.5, -842407.94, 3.0112498, 0.0011721827, 0.00025342268, -778129.5, -40908.11, 0.0, 10.009843, 9.925402 
6.165781e+3, 2.3469889e+2, -679775.56, -744296.4, -13.656741, 0.0011724359, 0.000039377177, -679775.56, -39823.727, 0.0, 10.009826, 9.92507 
6.165779e+3, 2.446174e+2, -591525.44, -666434.94, 5.576713, 0.0011720301, 0.0001981883, -591525.44, -48775.043, 0.0, 10.009809, 9.911614 
6.165778e+3, 2.5452912e+2, -492850.72, -567825.5, -10.804579, 0.0011708649, 0.000011635425, -492850.72, -47235.285, 0.0, 10.009791, 9.911514 
6.165777e+3, 2.6443377e+2, -404702.47, -490584.8, 9.655865, 0.0011701491, 0.000255682, -404702.47, -56152.453, 0.0, 10.009773, 9.8974085 
6.1657757e+3, 2.7433172e+2, -305499.0, -391040.97, -6.6401834, 0.0011699755, -0.00008940854, -305499.0, -53949.004, 0.0, 10.009755, 9.897826 
6.165774e+3, 2.8422153e+2, -218948.05, -317530.84, 11.314579, 0.0011697173, 0.0003395015, -218948.03, -64318.246, 0.0, 10.009737, 9.881063 
6.1657727e+3, 2.9410368e+2, -119309.59, -217257.61, -3.008456, 0.0011693418, -0.00014985632, -119309.59, -61524.617, 0.0, 10.00972, 9.881857 
6.165772e+3, 3.0401352e+2, -30017.7, -84985.086, 13.527659, 0.0011686056, 0.00027110084, -30017.695, -30017.695, 0.0, 10.009703, 9.937344 
6.16577e+3, 3.1395268e+2, -29004.887, -82834.14, -2.7364256, 0.0011673385, 0.000039552466, -29004.887, -29004.887, 0.0, 10.009684, 9.938805 
6.1758095e+3, 1.2516218e+2, -1707407.4, -1722565.9, 2.1935818, 0.0011838028, 0.00020917464, -1707407.4, 6004.5645, 0.0, 10.010054, 9.98996 
6.175808e+3, 1.35152e+2, -1610126.4, -1625856.9, -13.220148, 0.0011889325, 0.000029086956, -1610126.3, 5385.46, 0.0, 10.010026, 9.989176 
6.175806e+3, 1.4513525e+2, -1522120.4, -1546673.9, 0.53854585, 0.0011883781, 0.00028958035, -1522120.4, -4444.6016, 0.0, 10.010003, 9.977475 
6.175804e+3, 1.551127e+2, -1424476.9, -1449419.3, -15.33967, 0.0011824287, 0.000099610326, -1424476.9, -4580.087, 0.0, 10.009984, 9.976944 
6.1758024e+3, 1.6508357e+2, -1336454.6, -1370534.5, -1.003296, 0.0011815069, 0.00018055676, -1336454.6, -14272.429, 0.0, 10.009963, 9.964912 
6.1758006e+3, 1.7504855e+2, -1238587.1, -1272966.0, -17.460356, 0.0011854204, 0.0000755538, -1238587.1, -14061.516, 0.0, 10.00994, 9.9644985 
6.175799e+3, 1.850068e+2, -1150669.5, -1194622.5, -4.307052, 0.0011853855, 0.00021881994, -1150669.5, -23735.031, 0.0, 10.00992, 9.951947 
6.175797e+3, 1.9495878e+2, -1052601.1, -1096804.1, -19.399069, 0.0011814433, 0.000084814936, -1052601.1, -23195.992, 0.0, 10.009903, 9.951603 
6.175795e+3, 2.0490405e+2, -964574.3, -1018609.56, -5.8225393, 0.0011802992, 0.0002050099, -964574.3, -32632.861, 0.0, 10.009884, 9.938754 
6.175794e+3, 2.1484284e+2, -866369.9, -920653.5, -22.660051, 0.0011820216, 0.00000960876, -866369.9, -31828.63, 0.0, 10.009865, 9.938413 
6.175792e+3, 2.2477491e+2, -778160.94, -842476.75, -3.6146107, 0.0011821528, 0.00025410138, -778160.94, -40954.156, 0.0, 10.009846, 9.925356 
6.1757904e+3, 2.3470034e+2, -679806.56, -744364.8, -20.260511, 0.0011805642, 0.00003816499, -679806.5, -39868.848, 0.0, 10.009829, 9.925024 
6.175789e+3, 2.446188e+2, -591556.56, -666504.06, -0.685126, 0.001179462, 0.0001978494, -591556.56, -48819.848, 0.0, 10.009811, 9.911569 
6.1757874e+3, 2.545305e+2, -492881.47, -567894.25, -17.083738, 0.0011789098, 0.000015327927, -492881.47, -47279.344, 0.0, 10.009794, 9.911468 
6.175787e+3, 2.6443505e+2, -404733.9, -490655.53, 2.6997652, 0.0011787649, 0.00025842452, -404733.9, -56196.73, 0.0, 10.009776, 9.897362 
6.175785e+3, 2.7433297e+2, -305529.75, -391111.22, -13.569609, 0.0011791078, -0.000093708855, -305529.75, -53992.07, 0.0, 10.009758, 9.8977785 
6.175784e+3, 2.8422275e+2, -218975.84, -317595.63, 5.1022205, 0.0011786366, 0.0003357535, -218975.83, -64357.906, 0.0, 10.00974, 9.88102 
6.1757827e+3, 2.941048e+2, -119336.98, -217321.66, -9.293207, 0.0011770854, -0.00014300994, -119336.97, -61563.51, 0.0, 10.009724, 9.881813 
6.1757815e+3, 3.0401465e+2, -30050.584, -85060.67, 6.5146947, 0.0011761975, 0.0002784358, -30050.584, -30050.584, 0.0, 10.009706, 9.937291 
6.17578e+3, 3.1395376e+2, -29038.266, -82910.96, -9.659071, 0.001176257, 0.000032778797, -29038.266, -29038.266, 0.0, 10.009686, 9.938751 
6.18582e+3, 1.2516414e+2, -1707123.6, -1722462.4, 12.423234, 0.0011934504, 0.00020957144, -1707123.6, 6269.2046, 0.0, 10.010251, 9.989918 
6.185818e+3, 1.351539e+2, -1609836.6, -1625750.9, -3.1040637, 0.001195934, 0.000029570794, -1609836.6, 5656.493, 0.0, 10.010228, 9.989134 
6.185816e+3, 1.4513712e+2, -1521833.0, -1546571.1, 11.504076, 0.0011953231, 0.0002901627, -1521833.0, -4175.395, 0.0, 10.010205, 9.977431 
6.185814e+3, 1.5511452e+2, -1424198.1, -1449321.8, -4.8415813, 0.0011917532, 0.00010030075, -1424198.1, -4319.1772, 0.0, 10.010181, 9.976901 
6.1858124e+3, 1.6508535e+2, -1336177.5, -1370438.6, 9.700517, 0.0011910087, 0.00018120784, -1336177.5, -14012.703, 0.0, 10.01016, 9.964869 
6.1858106e+3, 1.7505026e+2, -1238305.5, -1272868.5, -6.609462, 0.001192989, 0.00007602371, -1238305.5, -13796.898, 0.0, 10.010141, 9.964456 
6.185809e+3, 1.8500848e+2, -1150385.5, -1194520.9, 7.135924, 0.0011927268, 0.00021928585, -1150385.5, -23467.523, 0.0, 10.010121, 9.951907 
6.185807e+3, 1.9496042e+2, -1052322.4, -1096706.0, -8.257677, 0.0011902384, 0.00008545216, -1052322.4, -22933.418, 0.0, 10.010101, 9.951563 
6.185805e+3, 2.0490566e+2, -964301.2, -1018520.6, 5.299406, 0.0011894051, 0.00020568419, -964301.2, -32375.506, 0.0, 10.010083, 9.938709 
6.1858034e+3, 2.1484439e+2, -866095.8, -920564.8, -11.707989, 0.0011902672, 0.00001018237, -866095.8, -31569.83, 0.0, 10.010065, 9.938367 
6.185802e+3, 2.2477645e+2, -777886.94, -842389.5, 7.5111184, 0.0011900882, 0.00025461003, -777886.94, -40695.004, 0.0, 10.010047, 9.92531 
6.185801e+3, 2.3470181e+2, -679533.75, -744278.94, -9.302283, 0.0011887803, 0.000038646842, -679533.75, -39610.48, 0.0, 10.01003, 9.924978 
6.185799e+3, 2.4462022e+2, -591286.3, -666421.56, 10.02139, 0.001187954, 0.00019838654, -591286.3, -48563.543, 0.0, 10.010012, 9.911522 
6.185798e+3, 2.5453186e+2, -492614.16, -567814.06, -7.017692, 0.0011876727, 0.0000160148, -492614.16, -47025.535, 0.0, 10.0099945, 9.911421 
6.185796e+3, 2.644364e+2, -404466.84, -490575.84, 12.619099, 0.001187402, 0.0002590317, -404466.84, -55942.695, 0.0, 10.009977, 9.897314 
6.185795e+3, 2.7433425e+2, -305261.2, -391031.53, -3.2411418, 0.0011871348, -0.00009346298, -305261.2, -53736.074, 0.0, 10.00996, 9.897732 
6.185794e+3, 2.8422397e+2, -218707.66, -317516.63, 14.799714, 0.0011866285, 0.0003360641, -218707.66, -64101.844, 0.0, 10.009943, 9.880973 
6.1857927e+3, 2.94106e+2, -119073.32, -217245.66, -1.423497, 0.0011858016, -0.00014206987, -119073.32, -61311.516, 0.0, 10.009924, 9.881766 
6.1857915e+3, 3.040158e+2, -29793.668, -84992.85, 13.594847, 0.0011850916, 0.00027939086, -29793.664, -29793.664, 0.0, 10.009906, 9.937242 
6.1857903e+3, 3.1395483e+2, -28781.086, -82843.44, -1.062726, 0.0011845398, 0.000032864467, -28781.086, -28781.086, 0.0, 10.009887, 9.938701 
6.19583e+3, 1.251661e+2, -1707156.4, -1722529.0, 3.934464, 0.0012069416, 0.00020973245, -1707156.4, 6217.214, 0.0, 10.010253, 9.989875 
6.1958283e+3, 1.3515583e+2, -1609869.0, -1625817.1, -11.589163, 0.0011994292, 0.00003097827, -1609869.0, 5605.1953, 0.0, 10.010231, 9.989092 
6.195826e+3, 1.4513901e+2, -1521866.4, -1546639.8, 2.6106908, 0.0011985464, 0.00029153298, -1521866.4, -4227.312, 0.0, 10.010207, 9.977387 
6.195824e+3, 1.5511636e+2, -1424230.9, -1449389.9, -13.6589365, 0.0012038661, 0.0001004215, -1424230.9, -4370.0, 0.0, 10.010184, 9.976857 
6.1958224e+3, 1.6508715e+2, -1336209.4, -1370505.6, 2.6392782, 0.001203762, 0.0001811232, -1336209.4, -14062.23, 0.0, 10.010163, 9.964826 
6.1958206e+3, 1.7505202e+2, -1238337.1, -1272935.1, -13.694136, 0.0011984697, 0.000076736455, -1238337.1, -13845.69, 0.0, 10.010144, 9.964412 
6.195819e+3, 1.8501021e+2, -1150414.6, -1194583.3, -0.38377595, 0.0011974059, 0.00022027886, -1150414.6, -23513.494, 0.0, 10.010124, 9.951866 
6.1958176e+3, 1.949621e+2, -1052351.0, -1096767.9, -15.752144, 0.0012004995, 0.00008621473, -1052351.0, -22978.416, 0.0, 10.010104, 9.951523 
6.195815e+3, 2.0490728e+2, -964333.2, -1018589.75, -1.3107901, 0.0012006509, 0.00020610809, -964333.2, -32423.508, 0.0, 10.010086, 9.9386635 
6.195814e+3, 2.1484599e+2, -866127.44, -920633.5, -18.309414, 0.0011977839, 0.000010156654, -866127.44, -31616.977, 0.0, 10.010068, 9.938322 
6.195812e+3, 2.2477798e+2, -777918.7, -842459.06, 0.9568405, 0.001196556, 0.00025499958, -777918.7, -40741.875, 0.0, 10.010051, 9.925264 
6.1958104e+3, 2.347033e+2, -679565.06, -744348.0, -15.875436, 0.0011970847, 0.00004038309, -679565.06, -39656.445, 0.0, 10.010033, 9.9249325 
6.195809e+3, 2.4462168e+2, -591318.56, -666493.2, 3.3710732, 0.001197245, 0.00019957336, -591318.56, -48610.02, 0.0, 10.0100155, 9.911473 
6.1958075e+3, 2.5453326e+2, -492645.9, -567885.3, -13.613464, 0.001196979, 0.000014487273, -492645.9, -47070.965, 0.0, 10.009997, 9.911372 
6.195806e+3, 2.6443774e+2, -404497.16, -490644.75, 6.464017, 0.0011960719, 0.0002580695, -404497.16, -55986.24, 0.0, 10.00998, 9.897268 
6.195805e+3, 2.7433556e+2, -305291.1, -391099.9, -9.494508, 0.001194374, -0.000089850575, -305291.06, -53778.79, 0.0, 10.009964, 9.897685 
6.195804e+3, 2.8422526e+2, -218738.92, -317588.34, 7.7667584, 0.0011939649, 0.00033937802, -218738.92, -64145.457, 0.0, 10.009946, 9.880924 
6.195802e+3, 2.9410723e+2, -119104.05, -217317.1, -8.316772, 0.0011952514, -0.00014549778, -119104.05, -61354.055, 0.0, 10.009928, 9.881718 
6.1958015e+3, 3.0401695e+2, -29823.55, -85062.9, 6.877472, 0.0011949593, 0.0002756321, -29823.55, -29823.55, 0.0, 10.009909, 9.937192 
6.1958003e+3, 3.1395596e+2, -28810.97, -82913.44, -8.049425, 0.0011923764, 0.000038035585, -28810.969, -28810.969, 0.0, 10.009891, 9.938652 
6.20584e+3, 1.251681e+2, -1706865.4, -1722421.8, 13.779604, 0.0012144835, 0.00021047491, -1706865.4, 6488.654, 0.0, 10.010455, 9.989833 
6.2058383e+3, 1.3515778e+2, -1609581.6, -1625712.6, -1.7799169, 0.0012084249, 0.000031828804, -1609581.6, 5873.444, 0.0, 10.010431, 9.989049 
6.2058365e+3, 1.4514092e+2, -1521580.8, -1546537.8, 12.814339, 0.0012075644, 0.00029225374, -1521580.8, -3960.3745, 0.0, 10.010408, 9.9773445 
6.205835e+3, 1.5511823e+2, -1423944.8, -1449288.4, -2.989667, 0.0012115617, 0.00010078601, -1423944.8, -4102.129, 0.0, 10.010386, 9.976814 
6.2058324e+3, 1.6508898e+2, -1335924.9, -1370406.5, 14.553316, 0.0012114198, 0.00018147624, -1335924.9, -13795.521, 0.0, 10.010365, 9.964782 
6.205831e+3, 1.750538e+2, -1238055.4, -1272838.3, -2.2602072, 0.0012073171, 0.00007740929, -1238055.4, -13581.507, 0.0, 10.010345, 9.964368 
6.2058294e+3, 1.8501195e+2, -1150130.9, -1194481.9, 10.979683, 0.0012063751, 0.00022102022, -1150130.9, -23246.797, 0.0, 10.010325, 9.951825 
6.205827e+3, 1.9496381e+2, -1052066.8, -1096667.1, -4.2965393, 0.0012085406, 0.00008677673, -1052066.8, -22710.842, 0.0, 10.010307, 9.951482 
6.205826e+3, 2.0490894e+2, -964053.25, -1018497.9, 10.684885, 0.0012085384, 0.0002065575, -964053.25, -32159.775, 0.0, 10.010289, 9.938618 
6.205824e+3, 2.148476e+2, -865849.0, -920543.25, -6.541074, 0.0012063088, 0.000010561899, -865849.0, -31354.371, 0.0, 10.010271, 9.938276 
6.205822e+3, 2.2477955e+2, -777642.0, -842371.5, 12.535483, 0.0012052894, 0.00025552564, -777642.0, -40480.49, 0.0, 10.010254, 9.925218 
6.205821e+3, 2.3470482e+2, -679289.44, -744261.8, -4.8064795, 0.0012055659, 0.00004120775, -679289.44, -39395.652, 0.0, 10.010237, 9.924886 
6.205819e+3, 2.4462314e+2, -591043.3, -666408.4, 14.450197, 0.0012055482, 0.00020024981, -591043.3, -48349.125, 0.0, 10.01022, 9.911427 
6.205818e+3, 2.545347e+2, -492370.56, -567801.2, -2.1965556, 0.001205188, 0.000014505126, -492370.56, -46809.535, 0.0, 10.010203, 9.911325 
6.205816e+3, 2.644391e+2, -404223.84, -490564.38, 17.379778, 0.0012044206, 0.00025823968, -404223.84, -55726.38, 0.0, 10.010186, 9.897219 
6.205815e+3, 2.7433687e+2, -305020.6, -391021.88, -0.3145419, 0.0012031471, -0.00008853612, -305020.6, -53521.29, 0.0, 10.010169, 9.897636 
6.205814e+3, 2.8422654e+2, -218466.84, -317506.34, 16.506323, 0.0012027221, 0.00034058435, -218466.84, -63885.902, 0.0, 10.010151, 9.880878 
6.2058127e+3, 2.9410845e+2, -118831.61, -217235.44, 2.35434, 0.0012034123, -0.00014605578, -118831.61, -61093.684, 0.0, 10.010134, 9.881672 
6.205811e+3, 3.0401814e+2, -29559.281, -84995.586, 16.745451, 0.0012030351, 0.000274955, -29559.275, -29559.275, 0.0, 10.010116, 9.937139 
6.2058103e+3, 3.139571e+2, -28548.537, -82848.016, -1.9019077, 0.001201104, 0.00003962201, -28548.537, -28548.537, 0.0, 10.010097, 9.938597 
6.2158513e+3, 1.2517013e+2, -1706898.0, -1722488.4, 4.8547716, 0.0012177473, 0.00021163911, -1706898.0, 6436.1714, 0.0, 10.010458, 9.989791 
6.215849e+3, 1.3515976e+2, -1609614.1, -1625779.0, -10.676609, 0.001221426, 0.000032274376, -1609614.1, 5821.4976, 0.0, 10.010433, 9.989007 
6.2158465e+3, 1.4514285e+2, -1521613.1, -1546604.4, 4.4945817, 0.0012207949, 0.00029250528, -1521613.1, -4011.7793, 0.0, 10.01041, 9.977303 
6.215845e+3, 1.5512012e+2, -1423976.4, -1449354.4, -11.334787, 0.0012160729, 0.000101335616, -1423976.4, -4152.367, 0.0, 10.010388, 9.976771 
6.2158436e+3, 1.6509081e+2, -1335957.8, -1370475.5, 7.056337, 0.0012154059, 0.00018215536, -1335957.8, -13846.625, 0.0, 10.010367, 9.964737 
6.215841e+3, 1.7505561e+2, -1238088.1, -1272907.0, -9.717277, 0.0012186298, 0.0000780562, -1238088.1, -13631.842, 0.0, 10.010347, 9.964323 
6.2158394e+3, 1.850137e+2, -1150159.9, -1194543.8, 4.0064716, 0.0012184762, 0.0002215805, -1150159.9, -23292.96, 0.0, 10.010328, 9.951785 
6.2158376e+3, 1.9496551e+2, -1052095.0, -1096728.5, -11.274192, 0.0012149876, 0.000087197055, -1052095.0, -22756.031, 0.0, 10.01031, 9.951442 
6.215836e+3, 2.0491062e+2, -964085.7, -1018567.9, 4.035568, 0.0012140075, 0.000207032, -964085.7, -32208.688, 0.0, 10.010292, 9.938572 
6.2158346e+3, 2.1484923e+2, -865881.06, -920612.9, -13.190384, 0.0012155897, 0.000011289376, -865881.06, -31402.43, 0.0, 10.010274, 9.9382305 
6.215832e+3, 2.2478113e+2, -777674.8, -842443.1, 6.089272, 0.0012156912, 0.00025615655, -777674.8, -40528.824, 0.0, 10.010257, 9.92517 
6.215831e+3, 2.3470636e+2, -679321.6, -744332.94, -11.21762, 0.001214195, 0.000041365794, -679321.6, -39442.96, 0.0, 10.01024, 9.924838 
6.21583e+3, 2.4462463e+2, -591074.7, -666478.44, 8.23038, 0.0012131523, 0.00020055623, -591074.7, -48395.164, 0.0, 10.010222, 9.91138 
6.215828e+3, 2.5453612e+2, -492401.47, -567870.8, -8.477203, 0.00121262, 0.000015668966, -492401.47, -46854.63, 0.0, 10.010206, 9.911279 
6.215827e+3, 2.644405e+2, -404257.5, -490640.13, 10.854591, 0.0012125581, 0.00025924962, -404257.5, -55773.727, 0.0, 10.010189, 9.897168 
6.215825e+3, 2.7433822e+2, -305053.84, -391097.44, -6.723402, 0.0012130595, -0.000088916015, -305053.84, -53567.71, 0.0, 10.010172, 9.897585 
6.215824e+3, 2.8422782e+2, -218494.27, -317570.53, 10.051904, 0.0012125355, 0.00034023993, -218494.27, -63926.03, 0.0, 10.010155, 9.880835 
6.2158227e+3, 2.941097e+2, -118858.16, -217298.34, -4.3297815, 0.001210655, -0.00014448336, -118858.16, -61132.54, 0.0, 10.010137, 9.881628 
6.2158215e+3, 3.0401933e+2, -29595.422, -85078.72, 9.488408, 0.0012098266, 0.00027656447, -29595.42, -29595.42, 0.0, 10.0101185, 9.93708 
6.2158203e+3, 3.1395823e+2, -28585.645, -82933.31, -8.916507, 0.0012105036, 0.000038557508, -28585.643, -28585.643, 0.0, 10.010099, 9.938538 
6.2258613e+3, 1.2517217e+2, -1706603.9, -1722379.4, 15.215256, 0.0012260583, 0.00021200892, -1706603.9, 6710.2583, 0.0, 10.010661, 9.989749 
6.2258595e+3, 1.3516177e+2, -1609325.4, -1625673.5, -0.21015386, 0.0012296813, 0.000032566415, -1609325.4, 6090.6367, 0.0, 10.010635, 9.988965 
6.225857e+3, 1.451448e+2, -1521326.6, -1546502.1, 16.399313, 0.001229116, 0.0002929019, -1521326.5, -3744.4346, 0.0, 10.010612, 9.977259 
6.2258554e+3, 1.5512204e+2, -1423687.9, -1449251.9, 0.023691604, 0.0012245683, 0.00010200634, -1423687.9, -3882.6748, 0.0, 10.010592, 9.976728 
6.2258536e+3, 1.6509269e+2, -1335670.0, -1370375.0, 18.434013, 0.0012238491, 0.00018285295, -1335670.0, -13577.192, 0.0, 10.0105715, 9.964693 
6.225852e+3, 1.7505744e+2, -1237803.0, -1272808.6, 1.8532485, 0.0012268081, 0.00007854431, -1237803.0, -13364.699, 0.0, 10.010551, 9.964279 
6.22585e+3, 1.8501548e+2, -1149872.5, -1194440.9, 16.575678, 0.0012267014, 0.00022199389, -1149872.5, -23023.125, 0.0, 10.010532, 9.951744 
6.225848e+3, 1.9496727e+2, -1051807.1, -1096626.0, 1.0612437, 0.0012235634, 0.00008766836, -1051807.1, -22485.176, 0.0, 10.010515, 9.951401 
6.2258464e+3, 2.0491232e+2, -963802.2, -1018474.9, 16.181196, 0.0012226052, 0.00020759631, -963802.2, -31941.86, 0.0, 10.010498, 9.938526 
6.2258446e+3, 2.1485089e+2, -865598.94, -920521.44, -1.3321847, 0.001223875, 0.000011982673, -865598.94, -31136.531, 0.0, 10.01048, 9.938184 
6.225843e+3, 2.2478275e+2, -777393.5, -842353.75, 18.269278, 0.0012239296, 0.00025672305, -777393.5, -40263.33, 0.0, 10.010464, 9.925122 
6.225841e+3, 2.3470794e+2, -679040.4, -744244.4, 1.0178443, 0.0012226703, 0.000041530733, -679040.4, -39176.992, 0.0, 10.0104475, 9.924791 
6.22584e+3, 2.4462616e+2, -590794.4, -666392.44, 20.087353, 0.0012217375, 0.00020088797, -590794.4, -48129.668, 0.0, 10.010431, 9.911331 
6.2258387e+3, 2.545376e+2, -492122.22, -567786.2, 2.3088841, 0.0012211709, 0.000016814662, -492122.22, -46589.758, 0.0, 10.010415, 9.91123 
6.225837e+3, 2.6444197e+2, -403979.13, -490557.47, 21.391619, 0.0012210164, 0.0002601847, -403979.13, -55509.277, 0.0, 10.010399, 9.897119 
6.2258357e+3, 2.743396e+2, -304776.16, -391015.97, 4.891371, 0.0012213542, -0.00008944043, -304776.16, -53303.457, 0.0, 10.010382, 9.897536 
6.225834e+3, 2.8422913e+2, -218216.0, -317487.9, 20.970486, 0.0012209088, 0.0003398463, -218215.98, -63660.69, 0.0, 10.010365, 9.880787 
6.225833e+3, 2.9411098e+2, -118581.36, -217217.13, 3.702567, 0.0012194247, -0.00014264988, -118581.36, -60868.234, 0.0, 10.010347, 9.88158 
6.2258315e+3, 3.0402058e+2, -29325.385, -85008.266, 16.368896, 0.0012186229, 0.00027846335, -29325.38, -29325.38, 0.0, 10.010329, 9.937027 
6.2258303e+3, 3.1395942e+2, -28315.71, -82863.6, 0.83102065, 0.0012187957, 0.00003741402, -28315.71, -28315.71, 0.0, 10.01031, 9.938483 
6.235872e+3, 1.2517424e+2, -1706636.9, -1722445.9, 5.25277, 0.0012380178, 0.00021181302, -1706636.9, 6656.8877, 0.0, 10.010663, 9.989706 
6.23587e+3, 1.351638e+2, -1609357.3, -1625739.4, -10.142954, 0.0012345337, 0.000032757518, -1609357.3, 6038.8584, 0.0, 10.010637, 9.988923 
6.2358683e+3, 1.451468e+2, -1521359.8, -1546571.0, 8.876008, 0.001233921, 0.00029341117, -1521359.8, -3797.119, 0.0, 10.010614, 9.977215 
6.235866e+3, 1.55124e+2, -1423721.3, -1449320.5, -7.461182, 0.0012359595, 0.00010276649, -1423721.3, -3935.0227, 0.0, 10.010594, 9.976684 
6.235864e+3, 1.6509458e+2, -1335702.9, -1370443.3, 10.634002, 0.001235526, 0.00018356508, -1335702.9, -13628.718, 0.0, 10.010574, 9.964649 
6.2358624e+3, 1.7505929e+2, -1237834.9, -1272876.1, -5.9427485, 0.0012327424, 0.00007892323, -1237834.9, -13414.8125, 0.0, 10.010554, 9.964235 
6.2358606e+3, 1.850173e+2, -1149901.5, -1194503.5, 10.124, 0.00123215, 0.00022230846, -1149901.5, -23069.969, 0.0, 10.010535, 9.951703 
6.235858e+3, 1.9496904e+2, -1051836.0, -1096688.5, -5.384034, 0.0012336996, 0.00008818298, -1051836.0, -22531.475, 0.0, 10.010518, 9.95136 
6.235857e+3, 2.0491405e+2, -963835.44, -1018546.2, 9.558572, 0.001233484, 0.00020823005, -963835.44, -31992.031, 0.0, 10.010501, 9.938479 
6.235855e+3, 2.1485257e+2, -865631.44, -920592.1, -7.9361544, 0.0012314604, 0.000012652619, -865631.44, -31185.523, 0.0, 10.010484, 9.938137 
6.2358534e+3, 2.2478437e+2, -777425.94, -842424.94, 12.21398, 0.0012306247, 0.0002572468, -777425.94, -40311.754, 0.0, 10.010467, 9.925076 
6.235852e+3, 2.3470952e+2, -679072.3, -744315.1, -5.0544643, 0.001231056, 0.00004171295, -679072.3, -39224.54, 0.0, 10.01045, 9.924744 
6.23585e+3, 2.4462768e+2, -590827.94, -666466.94, 13.96093, 0.0012310545, 0.00020124708, -590827.94, -48178.332, 0.0, 10.010434, 9.911282 
6.2358487e+3, 2.545391e+2, -492155.28, -567860.3, -3.760411, 0.0012305537, 0.000017939827, -492155.28, -46637.438, 0.0, 10.010418, 9.9111805 
6.235847e+3, 2.644434e+2, -404010.47, -490628.75, 15.153327, 0.0012297283, 0.00026106206, -404010.47, -55554.746, 0.0, 10.010402, 9.897071 
6.2358457e+3, 2.7434102e+2, -304806.84, -391086.6, -1.4713178, 0.0012284984, -0.00009004483, -304806.84, -53347.785, 0.0, 10.0103855, 9.897488 
6.2358445e+3, 2.8423047e+2, -218248.52, -317562.9, 14.380977, 0.0012282609, 0.00033944007, -218248.5, -63706.375, 0.0, 10.010368, 9.880735 
6.2358433e+3, 2.9411227e+2, -118613.58, -217292.02, -2.725185, 0.0012293239, -0.00014064896, -118613.58, -60913.117, 0.0, 10.010351, 9.88153 
6.2358415e+3, 3.0402178e+2, -29356.465, -85081.07, 9.449753, 0.001228895, 0.00028055, -29356.463, -29356.463, 0.0, 10.010333, 9.936976 
6.235841e+3, 3.139606e+2, -28346.605, -82936.22, -6.4166594, 0.0012263071, 0.000036249552, -28346.605, -28346.605, 0.0, 10.010314, 9.938433 
6.245883e+3, 1.2517634e+2, -1706347.0, -1722339.4, 15.826035, 0.0012467805, 0.00021225751, -1706346.9, 6926.286, 0.0, 10.010864, 9.989664 
6.245881e+3, 1.3516587e+2, -1609061.1, -1625630.3, 0.24127844, 0.0012424107, 0.000033466793, -1609061.1, 6314.805, 0.0, 10.010843, 9.98888 
6.245879e+3, 1.4514881e+2, -1521065.0, -1546464.6, 19.79523, 0.0012417602, 0.00029410902, -1521065.0, -3522.0703, 0.0, 10.010821, 9.977171 
6.245877e+3, 1.5512596e+2, -1423433.5, -1449218.6, 3.7637734, 0.0012445577, 0.00010319165, -1423433.5, -3666.6626, 0.0, 10.0107975, 9.976641 
6.245875e+3, 1.6509652e+2, -1335416.6, -1370343.8, 23.283894, 0.0012442657, 0.0001839268, -1335416.6, -13361.353, 0.0, 10.010777, 9.964604 
6.245873e+3, 1.7506117e+2, -1237544.4, -1272775.0, 6.471402, 0.0012410305, 0.00007942176, -1237544.4, -13142.681, 0.0, 10.010761, 9.964191 
6.245871e+3, 1.8501915e+2, -1149607.6, -1194397.8, 22.531715, 0.0012403245, 0.00022288719, -1149607.6, -22794.14, 0.0, 10.010743, 9.951662 
6.2458694e+3, 1.9497085e+2, -1051545.9, -1096585.4, 6.9118404, 0.0012420941, 0.0000887864, -1051545.9, -22259.004, 0.0, 10.010725, 9.951319 
6.2458676e+3, 2.049158e+2, -963550.2, -1018452.75, 22.51403, 0.0012419918, 0.00020874475, -963550.2, -31724.012, 0.0, 10.010708, 9.938433 
6.245866e+3, 2.1485429e+2, -865344.1, -920498.5, 4.96027, 0.0012399707, 0.0000129628725, -865344.1, -30914.969, 0.0, 10.010693, 9.93809 
6.245864e+3, 2.2478604e+2, -777138.75, -842333.5, 24.866373, 0.0012391015, 0.0002576516, -777138.75, -40040.855, 0.0, 10.010677, 9.925028 
6.245862e+3, 2.3471113e+2, -678786.56, -744225.25, 7.00613, 0.0012394618, 0.00004253283, -678786.56, -38954.563, 0.0, 10.010661, 9.924696 
6.245861e+3, 2.4462926e+2, -590543.3, -666379.5, 26.01016, 0.0012394629, 0.00020192613, -590543.3, -47909.02, 0.0, 10.010646, 9.911232 
6.245859e+3, 2.545406e+2, -491870.88, -567773.9, 8.595527, 0.0012390479, 0.000017845707, -491870.88, -46367.87, 0.0, 10.010631, 9.911131 
6.245858e+3, 2.6444486e+2, -403726.6, -490544.75, 26.900291, 0.0012382853, 0.00026113613, -403726.6, -55285.215, 0.0, 10.010615, 9.89702 
6.245856e+3, 2.7434242e+2, -304522.94, -391003.5, 8.643547, 0.0012370899, -0.00008865559, -304522.94, -53077.754, 0.0, 10.0106, 9.897437 
6.245855e+3, 2.8423184e+2, -217963.36, -317477.66, 23.782827, 0.0012368014, 0.00034068854, -217963.36, -63434.598, 0.0, 10.010584, 9.880687 
6.2458533e+3, 2.9411358e+2, -118330.29, -217208.38, 8.223641, 0.0012377013, -0.00014145936, -118330.28, -60642.71, 0.0, 10.010566, 9.881481 
6.245853e+3, 3.0402306e+2, -29080.979, -85010.2, 19.395514, 0.0012373169, 0.00027971264, -29080.973, -29080.973, 0.0, 10.010548, 9.93692 
6.245851e+3, 3.139618e+2, -28070.924, -82866.1, 0.012027343, 0.0012350706, 0.0000383157, -28070.924, -28070.924, 0.0, 10.0105295, 9.938376 
6.255894e+3, 1.2517847e+2, -1706379.8, -1722406.4, 7.7722664, 0.0012532723, 0.00021316455, -1706379.8, 6872.642, 0.0, 10.010867, 9.989621 
6.2558913e+3, 1.3516794e+2, -1609094.3, -1625697.3, -7.787404, 0.0012524815, 0.000034546698, -1609094.3, 6261.254, 0.0, 10.010846, 9.988838 
6.2558895e+3, 1.4515086e+2, -1521098.3, -1546532.4, 10.85218, 0.0012517977, 0.0002949422, -1521098.3, -3575.3645, 0.0, 10.010823, 9.977128 
6.255888e+3, 1.5512796e+2, -1423465.6, -1449285.6, -5.1532407, 0.0012511688, 0.00010338273, -1423465.6, -3718.2778, 0.0, 10.0108, 9.976598 
6.255886e+3, 1.6509847e+2, -1335449.5, -1370412.8, 16.939714, 0.0012509153, 0.00018404526, -1335449.5, -13413.279, 0.0, 10.01078, 9.9645605 
6.2558836e+3, 1.7506307e+2, -1237577.3, -1272843.9, 0.13659467, 0.0012510321, 0.00008001173, -1237577.3, -13194.234, 0.0, 10.010763, 9.964147 
6.255882e+3, 1.8502101e+2, -1149637.5, -1194461.1, 15.477452, 0.001250479, 0.00022365911, -1149637.5, -22842.229, 0.0, 10.010746, 9.951621 
6.25588e+3, 1.9497266e+2, -1051574.8, -1096648.1, -0.12342154, 0.0012492567, 0.00008945579, -1051574.8, -22305.717, 0.0, 10.010728, 9.951278 
6.255878e+3, 2.0491758e+2, -963583.06, -1018524.0, 16.81628, 0.001248816, 0.00020917814, -963583.06, -31774.314, 0.0, 10.010711, 9.938386 
6.2558764e+3, 2.14856e+2, -865376.8, -920569.44, -0.7422385, 0.0012491684, 0.0000130241115, -865376.8, -30964.623, 0.0, 10.010696, 9.938044 
6.2558746e+3, 2.2478773e+2, -777172.6, -842407.25, 18.825674, 0.001248882, 0.00025797874, -777172.56, -40091.215, 0.0, 10.01068, 9.924978 
6.255873e+3, 2.3471276e+2, -678819.7, -744298.44, 0.98868793, 0.0012479032, 0.00004380967, -678819.7, -39003.727, 0.0, 10.010665, 9.924647 
6.2558717e+3, 2.4463084e+2, -590575.94, -666452.5, 20.230589, 0.0012472387, 0.00020283552, -590575.94, -47957.223, 0.0, 10.01065, 9.911183 
6.25587e+3, 2.5454214e+2, -491903.0, -567846.4, 2.7810597, 0.0012469245, 0.000016890433, -491903.0, -46415.063, 0.0, 10.010634, 9.911082 
6.2558687e+3, 2.6444635e+2, -403761.0, -490622.4, 21.032393, 0.001246754, 0.00026064648, -403760.97, -55334.18, 0.0, 10.010618, 9.896968 
6.2558675e+3, 2.7434385e+2, -304557.0, -391080.94, 2.844442, 0.0012467473, -0.000085842505, -304557.0, -53125.88, 0.0, 10.010603, 9.897385 
6.2558657e+3, 2.8423324e+2, -217992.92, -317546.63, 17.23073, 0.0012462207, 0.00034311836, -217992.92, -63477.758, 0.0, 10.010587, 9.88064 
6.2558645e+3, 2.9411492e+2, -118358.82, -217276.13, 1.4892917, 0.001245004, -0.00014426894, -118358.82, -60684.348, 0.0, 10.01057, 9.881434 
6.255863e+3, 3.0402434e+2, -29117.656, -85095.3, 12.454864, 0.0012444278, 0.00027679876, -29117.654, -29117.654, 0.0, 10.010551, 9.936861 
6.2558615e+3, 3.1396306e+2, -28108.588, -82953.13, -6.7793083, 0.0012447606, 0.00004268811, -28108.586, -28108.586, 0.0, 10.010533, 9.938316 
6.265905e+3, 1.2518062e+2, -1706080.4, -1722294.4, 17.869186, 0.0012608721, 0.00021385445, -1706080.4, 7151.0146, 0.0, 10.011074, 9.989579 
6.265903e+3, 1.3517004e+2, -1608804.3, -1625591.0, 2.6643686, 0.0012614926, 0.000034938927, -1608804.3, 6530.687, 0.0, 10.011048, 9.988796 
6.2659e+3, 1.4515293e+2, -1520809.8, -1546429.3, 22.893229, 0.0012608696, 0.00029526014, -1520809.8, -3307.1006, 0.0, 10.011026, 9.977085 
6.2658983e+3, 1.5512997e+2, -1423170.0, -1449179.5, 6.7123084, 0.0012590328, 0.00010383307, -1423170.0, -3442.4673, 0.0, 10.011008, 9.976554 
6.2658966e+3, 1.6510046e+2, -1335154.3, -1370308.8, 29.284891, 0.0012586804, 0.00018458632, -1335154.1, -13137.369, 0.0, 10.01099, 9.964516 
6.265895e+3, 1.7506501e+2, -1237288.1, -1272744.0, 12.409177, 0.0012597574, 0.00008060441, -1237288.1, -12924.124, 0.0, 10.01097, 9.964102 
6.2658924e+3, 1.850229e+2, -1149345.8, -1194356.5, 28.739275, 0.0012593634, 0.00022416984, -1149345.6, -22568.94, 0.0, 10.010953, 9.95158 
6.2658906e+3, 1.9497451e+2, -1051278.0, -1096541.6, 13.157069, 0.0012575118, 0.000089753565, -1051278.0, -22027.074, 0.0, 10.010939, 9.951237 
6.2658894e+3, 2.0491938e+2, -963290.0, -1018427.25, 30.034115, 0.0012569448, 0.00020953431, -963289.94, -31498.88, 0.0, 10.010923, 9.938338 
6.265887e+3, 2.1485777e+2, -865086.94, -920475.25, 12.080277, 0.0012576848, 0.000013715428, -865086.94, -30691.973, 0.0, 10.010907, 9.937996 
6.265886e+3, 2.2478943e+2, -776883.8, -842315.7, 31.966566, 0.0012575284, 0.000258619, -776883.8, -39819.195, 0.0, 10.010893, 9.92493 
6.265884e+3, 2.3471442e+2, -678528.8, -744206.7, 14.135169, 0.0012564033, 0.00004398553, -678528.8, -38729.113, 0.0, 10.0108795, 9.924599 
6.265882e+3, 2.4463247e+2, -590284.6, -666362.7, 32.92573, 0.0012556793, 0.00020307447, -590284.6, -47681.656, 0.0, 10.010865, 9.911134 
6.265881e+3, 2.545437e+2, -491612.06, -567757.6, 14.671949, 0.0012554047, 0.000017790679, -491612.03, -46139.4, 0.0, 10.010851, 9.911033 
6.265879e+3, 2.6444784e+2, -403471.5, -490536.94, 32.497547, 0.0012552763, 0.0002614355, -403471.47, -55059.48, 0.0, 10.010837, 9.896916 
6.265878e+3, 2.743453e+2, -304268.9, -390997.13, 14.674197, 0.0012553149, -0.000086102686, -304268.9, -52852.086, 0.0, 10.010821, 9.897333 
6.265876e+3, 2.8423464e+2, -217702.69, -317459.8, 28.28672, 0.0012548009, 0.0003429568, -217702.67, -63201.293, 0.0, 10.010806, 9.88059 
6.265875e+3, 2.941163e+2, -118067.09, -217189.23, 10.807806, 0.001253553, -0.00014282436, -118067.09, -60405.94, 0.0, 10.010791, 9.881385 
6.2658733e+3, 3.0402568e+2, -28833.27, -85022.016, 20.343111, 0.0012529588, 0.00027824086, -28833.262, -28833.262, 0.0, 10.010774, 9.936804 
6.265873e+3, 3.139643e+2, -27825.922, -82881.63, 2.3525302, 0.0012532945, 0.00004182598, -27825.922, -27825.922, 0.0, 10.010755, 9.938258 
6.275916e+3, 1.2518279e+2, -1706113.3, -1722360.3, 7.8406844, 0.0012692919, 0.00021439014, -1706113.3, 7096.7993, 0.0, 10.011076, 9.989538 
6.275914e+3, 1.3517217e+2, -1608835.9, -1625656.1, -7.323654, 0.0012697564, 0.000034850418, -1608835.9, 6478.1543, 0.0, 10.01105, 9.988754 
6.2759113e+3, 1.4515501e+2, -1520842.8, -1546497.5, 16.101986, 0.0012692611, 0.0002952213, -1520842.8, -3360.588, 0.0, 10.011029, 9.977041 
6.2759095e+3, 1.5513203e+2, -1423203.1, -1449247.6, -0.07278622, 0.0012678199, 0.00010447242, -1423203.1, -3495.694, 0.0, 10.011011, 9.97651 
6.275908e+3, 1.6510247e+2, -1335187.9, -1370378.5, 21.67709, 0.0012672716, 0.00018543012, -1335187.9, -13190.6875, 0.0, 10.010992, 9.964471 
6.275906e+3, 1.7506698e+2, -1237320.6, -1272812.8, 4.8322825, 0.0012675868, 0.00008120128, -1237320.6, -12975.807, 0.0, 10.010973, 9.964057 
6.2759036e+3, 1.8502481e+2, -1149374.8, -1194419.4, 23.354944, 0.0012673546, 0.00022449908, -1149374.8, -22616.82, 0.0, 10.010956, 9.951539 
6.275902e+3, 1.9497639e+2, -1051307.1, -1096604.4, 7.768407, 0.0012665732, 0.00008979511, -1051307.1, -22074.576, 0.0, 10.0109415, 9.951195 
6.2759e+3, 2.0492122e+2, -963324.2, -1018500.4, 23.842249, 0.0012660329, 0.00020984291, -963324.2, -31551.01, 0.0, 10.010926, 9.938291 
6.275898e+3, 2.1485955e+2, -865120.2, -920547.7, 5.906991, 0.0012657334, 0.000014856488, -865120.2, -30742.676, 0.0, 10.010911, 9.937948 
6.2758964e+3, 2.2479117e+2, -776917.2, -842389.1, 26.85818, 0.0012653826, 0.00025948373, -776917.2, -39869.52, 0.0, 10.010896, 9.924881 
6.2758946e+3, 2.3471612e+2, -678561.9, -744279.75, 9.031046, 0.001264969, 0.000043386877, -678561.9, -38778.656, 0.0, 10.010882, 9.924549 
6.275893e+3, 2.4463409e+2, -590319.0, -666439.0, 27.437557, 0.0012646209, 0.00020284546, -590319.0, -47732.08, 0.0, 10.010869, 9.911082 
6.2758917e+3, 2.545453e+2, -491645.84, -567833.44, 9.194501, 0.0012643398, 0.000020012607, -491645.84, -46188.723, 0.0, 10.010855, 9.910981 
6.27589e+3, 2.6444936e+2, -403504.94, -490612.94, 26.704208, 0.0012638589, 0.00026313486, -403504.94, -55107.96, 0.0, 10.01084, 9.896865 
6.2758887e+3, 2.743468e+2, -304301.66, -391072.53, 8.8275795, 0.0012631242, -0.00008854205, -304301.66, -52899.332, 0.0, 10.010825, 9.897282 
6.2758875e+3, 2.8423607e+2, -217735.08, -317535.13, 22.421013, 0.0012628039, 0.00034096214, -217735.06, -63247.688, 0.0, 10.01081, 9.880539 
6.2758857e+3, 2.941177e+2, -118099.164, -217264.16, 4.983456, 0.001263021, -0.00013834861, -118099.164, -60451.55, 0.0, 10.010795, 9.881333 
6.2758845e+3, 3.04027e+2, -28867.865, -85102.5, 13.2605, 0.0012625334, 0.0002827849, -28867.863, -28867.863, 0.0, 10.010777, 9.936748 
6.2758833e+3, 3.1396556e+2, -27860.469, -82962.61, -4.9422736, 0.0012610228, 0.000037239664, -27860.469, -27860.469, 0.0, 10.010758, 9.938201 
6.285927e+3, 1.2518498e+2, -1705821.3, -1722252.0, 18.627066, 0.0012783244, 0.00021461786, -1705821.3, 7367.2754, 0.0, 10.011278, 9.989496 
6.285925e+3, 1.3517433e+2, -1608536.8, -1625544.8, 3.2956269, 0.001277435, 0.00003536931, -1608536.8, 6756.129, 0.0, 10.011258, 9.988712 
6.285923e+3, 1.4515711e+2, -1520544.9, -1546389.5, 27.804491, 0.0012769505, 0.00029583272, -1520544.9, -3083.3752, 0.0, 10.011237, 9.976997 
6.28592e+3, 1.551341e+2, -1422912.1, -1449144.0, 11.687909, 0.0012767939, 0.0001049885, -1422912.1, -3224.988, 0.0, 10.011216, 9.976467 
6.2859184e+3, 1.6510448e+2, -1334897.4, -1370277.1, 34.692314, 0.0012763034, 0.00018583823, -1334897.3, -12919.993, 0.0, 10.011198, 9.964426 
6.2859166e+3, 1.7506896e+2, -1237023.5, -1272708.6, 17.850807, 0.0012755083, 0.00008148958, -1237023.4, -12698.027, 0.0, 10.011184, 9.964012 
6.285915e+3, 1.8502676e+2, -1149073.8, -1194310.3, 36.75234, 0.0012752046, 0.00022486011, -1149073.6, -22334.71, 0.0, 10.0111685, 9.951497 
6.2859124e+3, 1.9497828e+2, -1051010.9, -1096498.5, 20.948072, 0.0012753692, 0.00009041767, -1051010.9, -21796.88, 0.0, 10.011152, 9.951154 
6.285911e+3, 2.0492308e+2, -963032.5, -1018405.0, 37.61289, 0.0012749678, 0.00021042982, -963032.5, -31277.521, 0.0, 10.011139, 9.938243 
6.2859094e+3, 2.1486136e+2, -864823.75, -920450.6, 19.631817, 0.0012739849, 0.000015105432, -864823.7, -30463.887, 0.0, 10.0111265, 9.937901 
6.285907e+3, 2.2479293e+2, -776619.9, -842294.0, 40.384567, 0.001273511, 0.00025975474, -776619.8, -39589.406, 0.0, 10.011114, 9.924832 
6.285906e+3, 2.3471782e+2, -678266.56, -744186.5, 22.092188, 0.0012735734, 0.000044064534, -678266.56, -38500.13, 0.0, 10.011101, 9.9245 
6.285904e+3, 2.4463575e+2, -590025.0, -666349.0, 40.368275, 0.0012733848, 0.00020348582, -590025.0, -47454.297, 0.0, 10.011087, 9.911032 
6.285902e+3, 2.545469e+2, -491350.63, -567743.75, 22.015308, 0.0012729038, 0.000020112522, -491350.63, -45909.26, 0.0, 10.011075, 9.910931 
6.285901e+3, 2.6445094e+2, -403208.9, -490525.03, 38.883396, 0.0012722996, 0.0002632765, -403208.88, -54827.152, 0.0, 10.011063, 9.896812 
6.285899e+3, 2.743483e+2, -304004.34, -390984.94, 20.206488, 0.001271535, -0.00008765154, -304004.34, -52616.742, 0.0, 10.011049, 9.897229 
6.285898e+3, 2.842375e+2, -217436.7, -317446.25, 32.77356, 0.0012713182, 0.00034182027, -217436.69, -62963.535, 0.0, 10.011035, 9.880488 
6.2858963e+3, 2.941191e+2, -117803.74, -217177.53, 15.328641, 0.0012718136, -0.00013854871, -117803.74, -60169.836, 0.0, 10.011019, 9.881283 
6.285896e+3, 3.0402833e+2, -28579.53, -85028.0, 22.3995, 0.0012713501, 0.00028252762, -28579.52, -28579.52, 0.0, 10.011003, 9.93669 
6.285894e+3, 3.1396684e+2, -27568.994, -82887.39, 2.7712054, 0.0012694988, 0.000038369064, -27568.992, -27568.992, 0.0, 10.010986, 9.938143 
6.2959385e+3, 1.2518722e+2, -1705854.0, -1722318.5, 10.702614, 0.0012877877, 0.00021463574, -1705853.9, 7312.722, 0.0, 10.011281, 9.989454 
6.295936e+3, 1.3517652e+2, -1608569.5, -1625611.1, -4.6122494, 0.0012847383, 0.000036317702, -1608569.5, 6701.9077, 0.0, 10.01126, 9.98867 
6.2959343e+3, 1.4515927e+2, -1520578.5, -1546457.8, 19.575409, 0.0012841835, 0.0002969025, -1520578.5, -3137.965, 0.0, 10.01124, 9.976954 
6.295932e+3, 1.551362e+2, -1422944.6, -1449211.6, 3.504052, 0.0012859057, 0.00010542073, -1422944.6, -3278.0244, 0.0, 10.011219, 9.976423 
6.2959296e+3, 1.6510653e+2, -1334930.4, -1370346.4, 29.142834, 0.0012856505, 0.00018594471, -1334930.4, -12973.186, 0.0, 10.011201, 9.964381 
6.295928e+3, 1.7507097e+2, -1237056.5, -1272777.6, 12.308068, 0.001283529, 0.00008156759, -1237056.5, -12750.75, 0.0, 10.011187, 9.963968 
6.295926e+3, 1.8502872e+2, -1149103.9, -1194374.4, 30.446838, 0.0012829913, 0.00022524974, -1149103.9, -22384.182, 0.0, 10.011171, 9.951455 
6.2959236e+3, 1.949802e+2, -1051040.0, -1096562.0, 14.656444, 0.0012839896, 0.0000914519, -1051040.0, -21844.893, 0.0, 10.011156, 9.951112 
6.2959224e+3, 2.0492496e+2, -963066.2, -1018477.9, 33.058544, 0.001283804, 0.00021121514, -963066.2, -31329.615, 0.0, 10.011142, 9.938194 
6.2959206e+3, 2.148632e+2, -864857.25, -920523.3, 15.090893, 0.0012824092, 0.00001473209, -864857.25, -30515.379, 0.0, 10.01113, 9.937852 
6.295918e+3, 2.2479472e+2, -776654.56, -842369.5, 35.110134, 0.0012818665, 0.00025961464, -776654.56, -39641.57, 0.0, 10.011117, 9.924782 
6.295917e+3, 2.3471954e+2, -678300.44, -744261.4, 16.810987, 0.0012822252, 0.000045646135, -678300.4, -38550.934, 0.0, 10.011104, 9.92445 
6.295915e+3, 2.4463743e+2, -590059.2, -666425.44, 35.5679, 0.001282039, 0.0002047416, -590059.2, -47504.97, 0.0, 10.011091, 9.91098 
6.2959135e+3, 2.5454852e+2, -491384.34, -567819.8, 17.230072, 0.001281227, 0.0000187199, -491384.34, -45958.938, 0.0, 10.011079, 9.910879 
6.295912e+3, 2.6445252e+2, -403243.8, -490604.06, 33.837837, 0.001280667, 0.00026232662, -403243.8, -54877.523, 0.0, 10.011066, 9.89676 
6.2959105e+3, 2.743498e+2, -304038.84, -391063.63, 15.141752, 0.0012804021, -0.00008440272, -304038.84, -52666.195, 0.0, 10.011053, 9.897176 
6.295909e+3, 2.84239e+2, -217469.06, -317521.44, 26.591223, 0.0012802221, 0.00034469736, -217469.06, -63010.344, 0.0, 10.011039, 9.880437 
6.2959075e+3, 2.941205e+2, -117835.08, -217251.75, 9.070591, 0.0012801444, -0.0001420542, -117835.08, -60215.07, 0.0, 10.011023, 9.881231 
6.2959063e+3, 3.040297e+2, -28615.908, -85113.18, 16.164156, 0.001279647, 0.0002788817, -28615.904, -28615.904, 0.0, 10.011006, 9.93663 
6.2959045e+3, 3.1396815e+2, -27606.201, -82973.92, -3.4917393, 0.0012785384, 0.000043551125, -27606.201, -27606.201, 0.0, 10.01099, 9.938083 
6.3059497e+3, 1.2518947e+2, -1705554.4, -1722206.1, 20.915361, 0.0012954718, 0.00021502882, -1705554.4, 7590.233, 0.0, 10.011488, 9.989412 
6.3059473e+3, 1.3517873e+2, -1608275.9, -1625502.6, 5.8141766, 0.0012936371, 0.00003669546, -1608275.9, 6973.876, 0.0, 10.011464, 9.988628 
6.3059455e+3, 1.4516144e+2, -1520285.6, -1546352.4, 31.56602, 0.0012931, 0.0002972645, -1520285.6, -2866.2986, 0.0, 10.011445, 9.976911 
6.305943e+3, 1.5513831e+2, -1422645.8, -1449103.8, 15.526375, 0.0012937216, 0.00010576355, -1422645.8, -2999.9497, 0.0, 10.011429, 9.976379 
6.305941e+3, 1.651086e+2, -1334631.6, -1370240.8, 42.20583, 0.0012935052, 0.00018634782, -1334631.6, -12694.796, 0.0, 10.011413, 9.964336 
6.305939e+3, 1.75073e+2, -1236762.3, -1272675.1, 25.288254, 0.0012925051, 0.0000821072, -1236762.3, -12476.422, 0.0, 10.011396, 9.963923 
6.305937e+3, 1.8503071e+2, -1148805.9, -1194267.1, 44.278507, 0.0012919923, 0.00022574433, -1148805.8, -22105.572, 0.0, 10.011383, 9.951414 
6.305935e+3, 1.9498216e+2, -1050735.8, -1096452.4, 28.454561, 0.0012919428, 0.00009172424, -1050735.8, -21559.754, 0.0, 10.011372, 9.95107 
6.3059336e+3, 2.0492686e+2, -962765.25, -1018378.06, 47.054314, 0.0012917079, 0.00021150918, -962765.2, -31047.28, 0.0, 10.01136, 9.938147 
6.305932e+3, 2.1486503e+2, -864559.5, -920426.0, 28.859646, 0.0012912787, 0.000015295662, -864559.5, -30235.79, 0.0, 10.011347, 9.937804 
6.3059294e+3, 2.247965e+2, -776357.5, -842275.56, 49.076736, 0.0012908926, 0.0002601637, -776357.44, -39362.188, 0.0, 10.011335, 9.924732 
6.305928e+3, 2.347213e+2, -677999.3, -744166.25, 30.520702, 0.001290544, 0.000045877863, -677999.25, -38266.996, 0.0, 10.011326, 9.9244 
6.3059264e+3, 2.4463913e+2, -589756.5, -666331.8, 48.845715, 0.0012901635, 0.00020497767, -589756.5, -47218.977, 0.0, 10.011315, 9.910929 
6.3059247e+3, 2.545502e+2, -491081.84, -567727.2, 30.119179, 0.0012897383, 0.000019323526, -491081.84, -45672.625, 0.0, 10.011305, 9.910828 
6.3059235e+3, 2.644541e+2, -402942.78, -490515.4, 46.032642, 0.0012894341, 0.00026292118, -402942.75, -54592.145, 0.0, 10.011292, 9.896706 
6.3059217e+3, 2.743514e+2, -303738.53, -390976.34, 26.850403, 0.0012892653, -0.00008427187, -303738.53, -52381.023, 0.0, 10.01128, 9.897122 
6.3059205e+3, 2.8424048e+2, -217165.3, -317430.4, 37.425922, 0.0012889304, 0.0003448232, -217165.28, -62721.2, 0.0, 10.011268, 9.880385 
6.3059187e+3, 2.9412195e+2, -117528.07, -217159.83, 19.520008, 0.0012883686, -0.00014133399, -117528.06, -59922.188, 0.0, 10.011255, 9.881181 
6.3059175e+3, 3.0403107e+2, -28316.56, -85036.29, 24.87561, 0.0012879127, 0.00027961828, -28316.549, -28316.549, 0.0, 10.01124, 9.93657 
6.3059163e+3, 3.1396946e+2, -27309.77, -82899.52, 4.2785645, 0.0012875996, 0.00004348725, -27309.77, -27309.77, 0.0, 10.011222, 9.938021 
6.315961e+3, 1.2519175e+2, -1705587.4, -1722271.9, 11.819014, 0.0013019544, 0.00021568485, -1705587.4, 7534.989, 0.0, 10.01149, 9.989371 
6.315959e+3, 1.3518097e+2, -1608307.9, -1625567.9, -3.2243593, 0.0013036536, 0.000036680154, -1608307.9, 6920.037, 0.0, 10.011467, 9.988587 
6.315957e+3, 1.4516363e+2, -1520318.8, -1546420.4, 25.202448, 0.0013031941, 0.0002971387, -1520318.8, -2920.911, 0.0, 10.011447, 9.976867 
6.3159543e+3, 1.5514046e+2, -1422678.8, -1449171.5, 9.174403, 0.0013006674, 0.000106048254, -1422678.8, -3053.9954, 0.0, 10.011431, 9.9763365 
6.3159525e+3, 1.6511072e+2, -1334665.5, -1370310.6, 35.79984, 0.0013003544, 0.00018696148, -1334665.4, -12749.2, 0.0, 10.011415, 9.964292 
6.315951e+3, 1.7507505e+2, -1236795.0, -1272744.3, 18.900911, 0.0013021575, 0.000082972634, -1236795.0, -12529.343, 0.0, 10.011399, 9.963879 
6.315949e+3, 1.8503273e+2, -1148835.6, -1194331.1, 39.924103, 0.0013018487, 0.00022631601, -1148835.5, -22155.094, 0.0, 10.011386, 9.951372 
6.3159466e+3, 1.9498414e+2, -1050765.5, -1096516.1, 24.123472, 0.0012994633, 0.00009146866, -1050765.4, -21608.748, 0.0, 10.011374, 9.951029 
6.315945e+3, 2.0492879e+2, -962799.9, -1018452.2, 42.00246, 0.0012989971, 0.00021146516, -962799.9, -31100.818, 0.0, 10.011363, 9.938098 
6.315943e+3, 2.148669e+2, -864593.2, -920499.44, 23.796947, 0.0013004745, 0.000016519363, -864593.2, -30287.871, 0.0, 10.011351, 9.937756 
6.315941e+3, 2.2479834e+2, -776392.2, -842351.8, 45.21158, 0.0013003986, 0.0002611987, -776392.2, -39414.82, 0.0, 10.011339, 9.924682 
6.3159394e+3, 2.3472308e+2, -678033.7, -744242.1, 26.69849, 0.0012986568, 0.00004516873, -678033.6, -38318.8, 0.0, 10.01133, 9.92435 
6.315938e+3, 2.4464086e+2, -589791.7, -666409.9, 44.415306, 0.0012979506, 0.0002045054, -589791.6, -47271.08, 0.0, 10.011319, 9.910877 
6.315936e+3, 2.5455186e+2, -491116.34, -567804.75, 25.64852, 0.0012984085, 0.000021332236, -491116.34, -45723.543, 0.0, 10.011308, 9.910775 
6.3159347e+3, 2.6445574e+2, -402978.38, -490596.13, 41.19156, 0.0012985028, 0.00026460233, -402978.34, -54643.65, 0.0, 10.011296, 9.896651 
6.315933e+3, 2.7435294e+2, -303773.44, -391056.63, 22.023573, 0.0012981435, -0.00008632686, -303773.44, -52431.266, 0.0, 10.011284, 9.897068 
6.3159317e+3, 2.84242e+2, -217197.92, -317506.66, 32.47926, 0.0012975232, 0.0003430247, -217197.9, -62768.64, 0.0, 10.011271, 9.880334 
6.31593e+3, 2.941234e+2, -117560.23, -217235.4, 14.491544, 0.0012965536, -0.00013763791, -117560.23, -59968.7, 0.0, 10.011259, 9.881128 
6.3159287e+3, 3.0403247e+2, -28354.662, -85124.64, 18.063734, 0.0012961924, 0.00028344017, -28354.656, -28354.656, 0.0, 10.011244, 9.936508 
6.3159275e+3, 3.139708e+2, -27348.041, -82989.05, -2.633576, 0.0012966922, 0.000039734387, -27348.041, -27348.041, 0.0, 10.011227, 9.937959 
6.3259727e+3, 1.2519404e+2, -1705293.0, -1722161.8, 22.058115, 0.0013107467, 0.00021608312, -1705293.0, 7806.878, 0.0, 10.011693, 9.989329 
6.325971e+3, 1.3518322e+2, -1608008.9, -1625456.0, 7.143209, 0.0013114974, 0.00003712453, -1608008.9, 7196.9595, 0.0, 10.011674, 9.988546 
6.3259685e+3, 1.4516583e+2, -1520020.4, -1546311.8, 37.182983, 0.0013110929, 0.00029755445, -1520020.3, -2644.1765, 0.0, 10.011656, 9.976824 
6.325966e+3, 1.5514264e+2, -1422383.4, -1449065.3, 21.207735, 0.0013095516, 0.00010636348, -1422383.4, -2779.8875, 0.0, 10.011639, 9.976293 
6.325964e+3, 1.6511284e+2, -1334369.8, -1370206.9, 49.07113, 0.0013092075, 0.00018727798, -1334369.6, -12474.248, 0.0, 10.011624, 9.964247 
6.325962e+3, 1.7507716e+2, -1236493.6, -1272638.4, 32.06657, 0.0013100167, 0.00008338726, -1236493.6, -12248.375, 0.0, 10.011613, 9.963833 
6.32596e+3, 1.8503477e+2, -1148529.6, -1194219.6, 53.86842, 0.0013097782, 0.00022673998, -1148529.6, -21869.086, 0.0, 10.011601, 9.95133 
6.325958e+3, 1.9498613e+2, -1050462.1, -1096406.8, 38.123253, 0.0013085005, 0.00009181538, -1050462.1, -21324.979, 0.0, 10.01159, 9.950987 
6.325956e+3, 2.0493074e+2, -962500.56, -1018354.1, 56.450516, 0.001308073, 0.00021180334, -962500.5, -30820.59, 0.0, 10.01158, 9.938049 
6.325955e+3, 2.1486881e+2, -864288.3, -920399.4, 37.890186, 0.0013085053, 0.000016919268, -864288.3, -30001.633, 0.0, 10.011573, 9.937707 
6.3259524e+3, 2.2480018e+2, -776085.75, -842253.5, 59.27331, 0.0013083079, 0.00026161544, -776085.7, -39126.516, 0.0, 10.011564, 9.924631 
6.3259506e+3, 2.3472488e+2, -677728.4, -744145.3, 40.645496, 0.0013074283, 0.000045553854, -677728.3, -38031.13, 0.0, 10.011555, 9.924298 
6.3259494e+3, 2.4464262e+2, -589487.06, -666316.75, 58.00724, 0.0013069912, 0.00020485395, -589487.0, -46983.594, 0.0, 10.011546, 9.910824 
6.3259476e+3, 2.5455356e+2, -490809.47, -567711.4, 38.6629, 0.0013070473, 0.000021638998, -490809.47, -45433.293, 0.0, 10.011538, 9.910722 
6.325946e+3, 2.6445737e+2, -402669.78, -490504.38, 53.53061, 0.0013068689, 0.00026493665, -402669.75, -54351.137, 0.0, 10.011528, 9.896597 
6.325944e+3, 2.7435452e+2, -303462.63, -390964.78, 34.224823, 0.001306393, -0.00008588096, -303462.63, -52136.02, 0.0, 10.0115185, 9.897013 
6.325943e+3, 2.8424352e+2, -216885.5, -317413.72, 43.369873, 0.0013059943, 0.00034346114, -216885.48, -62471.254, 0.0, 10.011508, 9.88028 
6.3259417e+3, 2.9412487e+2, -117250.17, -217144.48, 24.16236, 0.0013056878, -0.00013736854, -117250.17, -59673.152, 0.0, 10.011495, 9.881075 
6.32594e+3, 3.040339e+2, -28051.146, -85046.32, 26.1549, 0.001305301, 0.00028373953, -28051.135, -28051.135, 0.0, 10.011481, 9.936447 
6.3259387e+3, 3.1397218e+2, -27039.654, -82909.234, 5.5978303, 0.0013047908, 0.00004035319, -27039.654, -27039.654, 0.0, 10.011467, 9.937897 
6.3359845e+3, 1.2519635e+2, -1705325.5, -1722227.0, 14.428524, 0.0013211353, 0.00021630713, -1705325.4, 7751.6514, 0.0, 10.011695, 9.989288 
6.3359827e+3, 1.351855e+2, -1608041.1, -1625521.0, -0.45906198, 0.0013178727, 0.000037888607, -1608041.1, 7142.3774, 0.0, 10.011676, 9.988504 
6.3359797e+3, 1.4516808e+2, -1520053.9, -1546379.8, 30.316692, 0.00131751, 0.00029834683, -1520053.9, -2699.6438, 0.0, 10.011658, 9.976781 
6.335978e+3, 1.5514483e+2, -1422416.0, -1449132.6, 14.384537, 0.0013197857, 0.00010670475, -1422416.0, -2834.0125, 0.0, 10.0116415, 9.97625 
6.3359755e+3, 1.6511498e+2, -1334403.5, -1370277.1, 44.41574, 0.0013194543, 0.00018739364, -1334403.4, -12529.07, 0.0, 10.011627, 9.964202 
6.335974e+3, 1.7507924e+2, -1236527.1, -1272708.1, 27.442682, 0.001316668, 0.000083491446, -1236527.1, -12302.442, 0.0, 10.011616, 9.963788 
6.335972e+3, 1.8503684e+2, -1148559.6, -1194283.5, 49.150757, 0.0013164094, 0.0002270642, -1148559.6, -21919.34, 0.0, 10.011604, 9.951289 
6.3359696e+3, 1.9498815e+2, -1050491.3, -1096470.0, 33.388885, 0.0013186004, 0.00009258589, -1050491.3, -21373.926, 0.0, 10.011593, 9.950945 
6.335968e+3, 2.049327e+2, -962535.56, -1018429.5, 53.17026, 0.0013183965, 0.00021241236, -962535.5, -30874.934, 0.0, 10.011583, 9.938 
6.335966e+3, 2.1487074e+2, -864323.0, -920474.4, 34.656395, 0.0013157595, 0.000016749073, -864323.0, -30055.166, 0.0, 10.011576, 9.937657 
6.335964e+3, 2.2480206e+2, -776121.0, -842330.3, 55.49774, 0.0013151461, 0.00026160537, -776121.0, -39180.145, 0.0, 10.011567, 9.92458 
6.3359624e+3, 2.347267e+2, -677762.8, -744221.5, 36.83363, 0.0013166788, 0.000046706267, -677762.75, -38083.445, 0.0, 10.011558, 9.924248 
6.335961e+3, 2.4464437e+2, -589523.06, -666396.9, 54.502872, 0.001316918, 0.00020577891, -589523.0, -47036.93, 0.0, 10.011549, 9.91077 
6.335959e+3, 2.5455526e+2, -490844.88, -567791.1, 35.20941, 0.0013156863, 0.000020763391, -490844.88, -45485.523, 0.0, 10.011541, 9.910668 
6.3359576e+3, 2.6445904e+2, -402705.5, -490585.47, 49.720577, 0.0013147745, 0.0002643376, -402705.47, -54403.152, 0.0, 10.011532, 9.896543 
6.335956e+3, 2.7435613e+2, -303497.84, -391045.4, 30.331896, 0.0013142392, -0.000083684914, -303497.8, -52187.016, 0.0, 10.011522, 9.896958 
6.3359547e+3, 2.8424507e+2, -216920.33, -317494.47, 38.187553, 0.0013144119, 0.00034546157, -216920.31, -62521.324, 0.0, 10.011512, 9.880225 
6.335953e+3, 2.9412636e+2, -117284.06, -217224.52, 18.98186, 0.0013154997, -0.00013949127, -117284.06, -59721.715, 0.0, 10.011498, 9.88102 
6.3359517e+3, 3.0403534e+2, -28088.287, -85133.63, 20.7613, 0.0013150034, 0.00028158378, -28088.281, -28088.281, 0.0, 10.011485, 9.936386 
6.33595e+3, 3.1397355e+2, -27077.365, -82997.484, 0.024154449, 0.001312235, 0.00004403044, -27077.365, -27077.365, 0.0, 10.011472, 9.937835 
6.345996e+3, 1.251987e+2, -1705028.0, -1722114.8, 24.154016, 0.0013289724, 0.00021672285, -1705028.0, 8026.1704, 0.0, 10.0119, 9.989247 
6.345994e+3, 1.351878e+2, -1607745.6, -1625410.5, 9.458038, 0.0013267437, 0.000038174952, -1607745.6, 7415.3325, 0.0, 10.011881, 9.988464 
6.3459915e+3, 1.4517033e+2, -1519758.4, -1546272.5, 42.079117, 0.0013263702, 0.00029865006, -1519758.3, -2426.239, 0.0, 10.011865, 9.976738 
6.34599e+3, 1.5514705e+2, -1422115.9, -1449023.8, 26.236252, 0.0013276628, 0.00010715782, -1422115.9, -2555.5928, 0.0, 10.011852, 9.976207 
6.3459873e+3, 1.6511717e+2, -1334102.8, -1370170.5, 57.689823, 0.001327388, 0.00018780152, -1334102.6, -12249.564, 0.0, 10.01184, 9.964157 
6.3459855e+3, 1.7508137e+2, -1236227.4, -1272602.9, 40.84962, 0.0013256413, 0.00008366989, -1236227.3, -12023.513, 0.0, 10.011828, 9.963743 
6.345983e+3, 1.8503891e+2, -1148255.0, -1194173.1, 63.39105, 0.0013253642, 0.00022727111, -1148254.9, -21635.037, 0.0, 10.01182, 9.951246 
6.3459814e+3, 1.9499019e+2, -1050181.4, -1096357.8, 47.315914, 0.0013265065, 0.00009307294, -1050181.3, -21083.95, 0.0, 10.011813, 9.950903 
6.3459796e+3, 2.049347e+2, -962228.44, -1018327.6, 67.5677, 0.001326298, 0.00021290129, -962228.4, -30587.348, 0.0, 10.0118065, 9.93795 
6.345978e+3, 2.148727e+2, -864016.4, -920373.7, 49.146328, 0.0013247131, 0.000016957749, -864016.4, -29767.615, 0.0, 10.011799, 9.937608 
6.345976e+3, 2.2480397e+2, -775814.1, -842232.94, 69.9645, 0.0013242668, 0.00026179146, -775814.0, -38891.777, 0.0, 10.011793, 9.924528 
6.345974e+3, 2.3472854e+2, -677451.8, -744123.0, 50.70874, 0.0013250253, 0.00004714446, -677451.8, -37790.555, 0.0, 10.011787, 9.924196 
6.3459724e+3, 2.4464618e+2, -589210.0, -666300.1, 68.0431, 0.0013250237, 0.00020625022, -589209.94, -46741.453, 0.0, 10.011782, 9.910717 
6.3459706e+3, 2.54557e+2, -490530.28, -567694.56, 48.730488, 0.001324153, 0.000021019381, -490530.25, -45187.95, 0.0, 10.011776, 9.910615 
6.3459694e+3, 2.644607e+2, -402391.28, -490492.88, 62.26807, 0.0013235437, 0.00026456482, -402391.25, -54105.43, 0.0, 10.011768, 9.896486 
6.3459677e+3, 2.7435777e+2, -303183.4, -390953.78, 41.78841, 0.0013232396, -0.00008325822, -303183.38, -51888.52, 0.0, 10.011761, 9.896902 
6.3459665e+3, 2.8424668e+2, -216601.8, -317399.03, 48.53103, 0.0013232287, 0.00034590974, -216601.77, -62218.184, 0.0, 10.011752, 9.880171 
6.3459647e+3, 2.941279e+2, -116961.82, -217128.03, 29.721983, 0.0013235906, -0.000139257, -116961.805, -59414.34, 0.0, 10.011743, 9.880966 
6.3459635e+3, 3.040368e+2, -27773.469, -85053.03, 29.620789, 0.0013231367, 0.00028173326, -27773.455, -27773.455, 0.0, 10.011731, 9.936322 
6.3459617e+3, 3.1397495e+2, -26764.004, -82918.75, 6.6658177, 0.0013215094, 0.000044293698, -26764.004, -26764.004, 0.0, 10.011717, 9.93777 
6.356008e+3, 1.2520106e+2, -1705060.5, -1722179.4, 16.337248, 0.0013350993, 0.00021726805, -1705060.5, 7970.4487, 0.0, 10.011902, 9.989207 
6.3560057e+3, 1.3519013e+2, -1607777.4, -1625474.6, 1.6974976, 0.0013373311, 0.000038137274, -1607777.4, 7360.838, 0.0, 10.011883, 9.988423 
6.356003e+3, 1.4517263e+2, -1519791.6, -1546340.1, 36.705074, 0.0013369083, 0.0002986222, -1519791.5, -2481.8286, 0.0, 10.011868, 9.976694 
6.3560015e+3, 1.5514928e+2, -1422148.8, -1449090.9, 20.878635, 0.0013339564, 0.000107688196, -1422148.8, -2610.3782, 0.0, 10.011854, 9.976164 
6.356e+3, 1.6511935e+2, -1334136.5, -1370240.3, 53.03865, 0.0013337709, 0.00018841137, -1334136.4, -12304.869, 0.0, 10.011843, 9.964112 
6.3559973e+3, 1.7508353e+2, -1236260.3, -1272671.9, 36.21093, 0.00133622, 0.000083906154, -1236260.3, -12077.494, 0.0, 10.011831, 9.963698 
6.355995e+3, 1.8504101e+2, -1148285.5, -1194238.4, 60.347385, 0.0013359229, 0.00022740383, -1148285.5, -21686.225, 0.0, 10.011823, 9.951204 
6.355993e+3, 1.9499224e+2, -1050211.5, -1096422.5, 44.31121, 0.0013329372, 0.00009336461, -1050211.4, -21134.316, 0.0, 10.011816, 9.950861 
6.3559914e+3, 2.0493673e+2, -962263.5, -1018402.6, 64.49015, 0.0013325718, 0.00021330781, -962263.4, -30642.164, 0.0, 10.011809, 9.9379015 
6.355989e+3, 2.1487467e+2, -864050.6, -920448.06, 46.046486, 0.0013348537, 0.000017434744, -864050.6, -29821.164, 0.0, 10.011802, 9.937558 
6.355988e+3, 2.2480588e+2, -775850.3, -842312.06, 67.54703, 0.0013349706, 0.00026211984, -775850.25, -38946.79, 0.0, 10.011796, 9.924476 
6.355986e+3, 2.3473042e+2, -677487.44, -744201.7, 48.34385, 0.0013327751, 0.000047090518, -677487.44, -37844.473, 0.0, 10.011791, 9.924144 
6.355984e+3, 2.44648e+2, -589246.0, -666380.3, 65.369675, 0.001331908, 0.0002064095, -589246.0, -46795.234, 0.0, 10.0117855, 9.910664 
6.3559824e+3, 2.5455877e+2, -490565.7, -567774.2, 46.003136, 0.0013325312, 0.000022065191, -490565.66, -45240.6, 0.0, 10.011779, 9.910562 
6.355981e+3, 2.6446244e+2, -402428.97, -490578.1, 58.88627, 0.0013329339, 0.0002653703, -402428.94, -54159.832, 0.0, 10.011772, 9.896429 
6.3559794e+3, 2.743594e+2, -303220.38, -391038.6, 38.44826, 0.0013330559, -0.000084057785, -303220.38, -51941.637, 0.0, 10.011765, 9.896844 
6.355978e+3, 2.8424826e+2, -216635.4, -317477.8, 44.774937, 0.0013323432, 0.00034528485, -216635.39, -62267.39, 0.0, 10.011756, 9.880117 
6.3559765e+3, 2.9412943e+2, -116994.734, -217205.88, 25.803352, 0.00133053, -0.00013738041, -116994.73, -59462.34, 0.0, 10.011747, 9.880913 
6.355975e+3, 3.040383e+2, -27814.418, -85148.04, 23.932419, 0.0013302253, 0.0002834911, -27814.408, -27814.408, 0.0, 10.011736, 9.936256 
6.3559735e+3, 3.1397635e+2, -26805.492, -83015.45, 0.9852816, 0.0013320699, 0.00004218415, -26805.492, -26805.492, 0.0, 10.011722, 9.937702 
6.36602e+3, 1.2520345e+2, -1704766.5, -1722068.4, 25.942223, 0.0013439914, 0.00021736175, -1704766.5, 8241.074, 0.0, 10.012105, 9.989166 
6.366018e+3, 1.3519247e+2, -1607479.5, -1625362.4, 11.504971, 0.0013450794, 0.00003846851, -1607479.5, 7635.639, 0.0, 10.012089, 9.988383 
6.3660157e+3, 1.451749e+2, -1519493.6, -1546231.4, 48.459515, 0.0013447115, 0.00029897518, -1519493.6, -2206.4377, 0.0, 10.012075, 9.976651 
6.366013e+3, 1.5515153e+2, -1421850.6, -1448982.9, 32.67398, 0.0013429222, 0.00010786003, -1421850.6, -2334.4128, 0.0, 10.012063, 9.976121 
6.3660115e+3, 1.6512159e+2, -1333837.1, -1370134.5, 66.211624, 0.0013427391, 0.00018862987, -1333837.0, -12027.131, 0.0, 10.012054, 9.964067 
6.366009e+3, 1.750857e+2, -1235956.0, -1272564.4, 49.25449, 0.0013440953, 0.00008438705, -1235956.0, -11794.557, 0.0, 10.012048, 9.963654 
6.3660073e+3, 1.8504316e+2, -1147975.8, -1194125.3, 74.46547, 0.0013438043, 0.00022784795, -1147975.6, -21397.223, 0.0, 10.012041, 9.951162 
6.3660055e+3, 1.9499435e+2, -1049900.6, -1096309.8, 58.625366, 0.0013418909, 0.000093481125, -1049900.6, -20843.912, 0.0, 10.012036, 9.950818 
6.366003e+3, 2.0493877e+2, -961955.75, -1018301.2, 79.14872, 0.0013416248, 0.00021343018, -961955.7, -30354.404, 0.0, 10.0120325, 9.937851 
6.3660014e+3, 2.1487665e+2, -863738.6, -920345.3, 60.214157, 0.0013430233, 0.000017900657, -863738.56, -29528.61, 0.0, 10.01203, 9.937509 
6.3659996e+3, 2.2480781e+2, -775536.25, -842211.7, 81.87539, 0.0013429897, 0.0002626012, -775536.2, -38651.715, 0.0, 10.012027, 9.924424 
6.365998e+3, 2.347323e+2, -677171.2, -744101.06, 62.70437, 0.0013414215, 0.00004723836, -677171.2, -37546.676, 0.0, 10.012024, 9.924091 
6.365996e+3, 2.4464983e+2, -588928.94, -666282.94, 79.103455, 0.0013408189, 0.00020654549, -588928.9, -46496.074, 0.0, 10.012021, 9.910608 
6.365995e+3, 2.5456056e+2, -490246.47, -567676.75, 58.914234, 0.001341298, 0.000022552089, -490246.44, -44938.793, 0.0, 10.012017, 9.910506 
6.3659924e+3, 2.6446414e+2, -402108.03, -490482.97, 71.046, 0.0013414861, 0.00026584754, -402107.97, -53855.74, 0.0, 10.012013, 9.896372 
6.365991e+3, 2.7436107e+2, -302896.13, -390942.88, 50.79847, 0.0013413085, -0.000084025116, -302896.1, -51633.67, 0.0, 10.01201, 9.896788 
6.36599e+3, 2.8424984e+2, -216307.97, -317380.38, 55.636086, 0.0013407497, 0.00034532044, -216307.94, -61955.7, 0.0, 10.012004, 9.880061 
6.365988e+3, 2.9413098e+2, -116667.414, -217109.42, 34.87329, 0.0013396819, -0.00013675616, -116667.4, -59150.227, 0.0, 10.011995, 9.8808565 
6.365987e+3, 3.0403978e+2, -27493.326, -85064.92, 31.007236, 0.0013394242, 0.00028413197, -27493.31, -27493.31, 0.0, 10.011987, 9.936192 
6.365985e+3, 3.1397778e+2, -26480.463, -82931.37, 9.035844, 0.0013403199, 0.000042033815, -26480.463, -26480.463, 0.0, 10.011975, 9.937637 
6.376032e+3, 1.2520586e+2, -1704798.6, -1722132.3, 19.329168, 0.0013547577, 0.0002171521, -1704798.6, 8185.362, 0.0, 10.012107, 9.989126 
6.37603e+3, 1.3519484e+2, -1607511.3, -1625425.9, 4.919361, 0.0013509322, 0.000039052367, -1607511.3, 7580.7993, 0.0, 10.012091, 9.988342 
6.376028e+3, 1.4517725e+2, -1519527.1, -1546299.0, 43.343872, 0.0013506943, 0.0002995889, -1519527.0, -2262.6943, 0.0, 10.012077, 9.976608 
6.3760257e+3, 1.5515383e+2, -1421883.4, -1449049.9, 27.612648, 0.0013537137, 0.00010779195, -1421883.4, -2389.4934, 0.0, 10.012066, 9.976078 
6.376023e+3, 1.651238e+2, -1333871.1, -1370204.6, 63.06469, 0.0013534701, 0.00018858544, -1333871.0, -12083.072, 0.0, 10.012056, 9.964022 
6.376021e+3, 1.7508788e+2, -1235989.5, -1272634.0, 46.133816, 0.0013501632, 0.00008503364, -1235989.4, -11849.474, 0.0, 10.01205, 9.963609 
6.376019e+3, 1.8504529e+2, -1148006.0, -1194189.6, 71.97174, 0.0013499007, 0.00022850446, -1148005.9, -21448.582, 0.0, 10.012044, 9.95112 
6.3760173e+3, 1.9499645e+2, -1049930.3, -1096373.6, 56.12473, 0.0013525799, 0.0000934848, -1049930.3, -20894.184, 0.0, 10.012039, 9.950777 
6.376015e+3, 2.0494083e+2, -961991.75, -1018378.25, 77.47946, 0.0013525829, 0.00021336546, -961991.7, -30410.598, 0.0, 10.012035, 9.9378 
6.376014e+3, 2.1487866e+2, -863773.94, -920421.8, 58.585075, 0.0013498758, 0.00001835823, -863773.9, -29583.623, 0.0, 10.0120325, 9.937458 
6.376012e+3, 2.2480978e+2, -775572.4, -842290.56, 80.39648, 0.0013492118, 0.0002631862, -775572.3, -38707.05, 0.0, 10.01203, 9.924372 
6.3760096e+3, 2.347342e+2, -677206.75, -744179.44, 61.20484, 0.0013507071, 0.000047531725, -677206.7, -37600.9, 0.0, 10.012028, 9.924039 
6.3760084e+3, 2.4465168e+2, -588966.56, -666366.3, 77.31483, 0.0013511356, 0.00020667264, -588966.44, -46551.836, 0.0, 10.012025, 9.910553 
6.3760066e+3, 2.5456235e+2, -490283.3, -567759.6, 57.16308, 0.001350352, 0.00002265374, -490283.28, -44993.246, 0.0, 10.012021, 9.910451 
6.376005e+3, 2.644659e+2, -402145.03, -490567.06, 68.976685, 0.0013494913, 0.0002660994, -402144.97, -53909.793, 0.0, 10.012017, 9.896315 
6.3760036e+3, 2.7436277e+2, -302932.53, -391026.5, 48.63326, 0.0013485254, -0.00008340976, -302932.5, -51686.59, 0.0, 10.012013, 9.89673 
6.376002e+3, 2.8425148e+2, -216344.81, -317465.75, 52.19028, 0.0013487064, 0.00034582094, -216344.78, -62008.484, 0.0, 10.012008, 9.880003 
6.376e+3, 2.9413256e+2, -116703.51, -217194.25, 31.459114, 0.0013503717, -0.00013700283, -116703.49, -59201.684, 0.0, 10.012, 9.880798 
6.375998e+3, 3.040413e+2, -27531.986, -85155.734, 26.549784, 0.0013500889, 0.00028399893, -27531.975, -27531.975, 0.0, 10.011991, 9.936129 
6.375997e+3, 3.139792e+2, -26519.268, -83022.82, 4.239196, 0.0013470213, 0.000043248714, -26519.268, -26519.268, 0.0, 10.01198, 9.937573 
6.3860446e+3, 1.2520827e+2, -1704504.6, -1722020.8, 28.207996, 0.001362313, 0.00021733102, -1704504.5, 8455.748, 0.0, 10.012309, 9.989086 
6.386042e+3, 1.3519722e+2, -1607215.9, -1625314.4, 13.922063, 0.0013599013, 0.00003933483, -1607215.8, 7852.85, 0.0, 10.012296, 9.988302 
6.38604e+3, 1.4517958e+2, -1519230.8, -1546190.5, 54.386284, 0.0013596959, 0.00029990496, -1519230.6, -1989.211, 0.0, 10.012284, 9.976566 
6.3860375e+3, 1.5515612e+2, -1421583.0, -1448940.1, 38.898293, 0.0013614676, 0.00010807354, -1421583.0, -2111.6313, 0.0, 10.012277, 9.976035 
6.3860357e+3, 1.6512607e+2, -1333569.1, -1370097.6, 76.16737, 0.0013612338, 0.00018880847, -1333569.0, -11803.182, 0.0, 10.01227, 9.963977 
6.386033e+3, 1.750901e+2, -1235685.1, -1272526.4, 59.29121, 0.0013591219, 0.00008517611, -1235685.0, -11566.697, 0.0, 10.012266, 9.963564 
6.3860315e+3, 1.8504745e+2, -1147695.6, -1194076.4, 85.96617, 0.0013589532, 0.00022870778, -1147695.5, -21159.38, 0.0, 10.012263, 9.951078 
6.386029e+3, 1.9499856e+2, -1049615.9, -1096259.1, 69.90644, 0.0013606581, 0.0000938864, -1049615.8, -20600.53, 0.0, 10.012262, 9.950734 
6.3860273e+3, 2.049429e+2, -961679.44, -1018274.94, 91.98803, 0.0013605477, 0.00021374316, -961679.3, -30118.611, 0.0, 10.012262, 9.937751 
6.3860255e+3, 2.1488069e+2, -863457.9, -920317.44, 73.12949, 0.0013585954, 0.000018488123, -863457.75, -29287.41, 0.0, 10.012262, 9.937408 
6.386024e+3, 2.2481175e+2, -775254.6, -842189.2, 94.73909, 0.0013581449, 0.00026331682, -775254.5, -38408.6, 0.0, 10.012263, 9.924318 
6.386022e+3, 2.3473613e+2, -676886.1, -744077.56, 74.98442, 0.0013592805, 0.000047926642, -676886.06, -37299.1, 0.0, 10.012264, 9.923986 
6.386021e+3, 2.4465355e+2, -588643.75, -666266.94, 90.774895, 0.0013595176, 0.00020705443, -588643.6, -46247.34, 0.0, 10.012264, 9.910498 
6.3860184e+3, 2.5456417e+2, -489956.34, -567659.2, 70.60963, 0.0013587308, 0.000022709415, -489956.28, -44684.016, 0.0, 10.012265, 9.910396 
6.386017e+3, 2.6446766e+2, -401816.5, -490470.0, 81.24296, 0.0013580521, 0.0002662028, -401816.4, -53598.457, 0.0, 10.012265, 9.896256 
6.3860154e+3, 2.7436444e+2, -302602.34, -390929.72, 59.6506, 0.0013574915, -0.00008280556, -302602.28, -51373.016, 0.0, 10.012263, 9.896672 
6.3860136e+3, 2.8425315e+2, -216010.38, -317365.75, 61.740112, 0.0013576387, 0.00034636114, -216010.34, -61690.117, 0.0, 10.01226, 9.879946 
6.3860124e+3, 2.941341e+2, -116366.14, -217093.7, 41.5358, 0.0013586978, -0.00013726496, -116366.125, -58879.82, 0.0, 10.012256, 9.880741 
6.3860106e+3, 3.0404282e+2, -27201.207, -85071.3, 34.512848, 0.0013583682, 0.00028379276, -27201.188, -27201.188, 0.0, 10.012249, 9.936061 
6.3860095e+3, 3.1398067e+2, -26185.754, -82938.26, 9.302262, 0.0013560539, 0.000044336648, -26185.752, -26185.752, 0.0, 10.012241, 9.937505 
6.3960564e+3, 1.2521072e+2, -1704536.8, -1722084.4, 22.150341, 0.0013677477, 0.00021777253, -1704536.8, 8399.604, 0.0, 10.012311, 9.989047 
6.3960546e+3, 1.3519962e+2, -1607247.5, -1625377.5, 7.9378424, 0.0013709741, 0.000039414044, -1607247.5, 7797.659, 0.0, 10.012297, 9.988263 
6.396052e+3, 1.4518194e+2, -1519263.9, -1546257.1, 50.559875, 0.0013707321, 0.00030002004, -1519263.8, -2045.4652, 0.0, 10.012286, 9.976524 
6.39605e+3, 1.5515845e+2, -1421615.4, -1449006.3, 35.090534, 0.0013672063, 0.00010859091, -1421615.4, -2166.7437, 0.0, 10.012279, 9.975993 
6.396048e+3, 1.6512834e+2, -1333603.3, -1370167.6, 73.8654, 0.0013670346, 0.00018921339, -1333603.0, -11859.541, 0.0, 10.012273, 9.963932 
6.3960457e+3, 1.7509232e+2, -1235718.5, -1272595.8, 57.01642, 0.001370045, 0.000084982865, -1235718.4, -11621.987, 0.0, 10.012268, 9.963519 
6.3960433e+3, 1.8504965e+2, -1147726.5, -1194141.6, 84.79295, 0.0013700093, 0.00022860913, -1147726.4, -21211.662, 0.0, 10.012266, 9.9510355 
6.3960415e+3, 1.9500072e+2, -1049645.9, -1096323.8, 68.75394, 0.0013670005, 0.00009455486, -1049645.8, -20651.611, 0.0, 10.012265, 9.950692 
6.39604e+3, 2.0494501e+2, -961715.3, -1018351.7, 91.59396, 0.0013665258, 0.00021441854, -961715.2, -30175.033, 0.0, 10.012265, 9.9377 
6.396038e+3, 2.1488273e+2, -863493.2, -920393.75, 72.73347, 0.0013686023, 0.00001840247, -863493.1, -29342.82, 0.0, 10.012265, 9.937358 
6.396036e+3, 2.2481374e+2, -775292.06, -842270.44, 94.2909, 0.0013689306, 0.00026314618, -775291.9, -38465.58, 0.0, 10.012266, 9.924265 
6.3960344e+3, 2.3473808e+2, -676922.7, -744158.2, 74.56828, 0.0013673948, 0.000048388498, -676922.56, -37354.66, 0.0, 10.012267, 9.923933 
6.3960326e+3, 2.4465543e+2, -588681.06, -666350.1, 90.46073, 0.0013666177, 0.00020760714, -588681.0, -46303.17, 0.0, 10.012268, 9.910441 
6.396031e+3, 2.5456598e+2, -489993.13, -567741.94, 70.26108, 0.0013666844, 0.00002274329, -489993.06, -44738.754, 0.0, 10.012269, 9.910339 
6.3960296e+3, 2.6446941e+2, -401855.94, -490558.94, 79.9883, 0.001367021, 0.00026621405, -401855.84, -53655.28, 0.0, 10.012269, 9.896196 
6.396028e+3, 2.7436617e+2, -302641.1, -391018.3, 58.424934, 0.0013676685, -0.00008221863, -302641.06, -51428.574, 0.0, 10.012267, 9.896612 
6.3960266e+3, 2.842548e+2, -216045.81, -317448.6, 59.53666, 0.0013672567, 0.00034692266, -216045.78, -61741.78, 0.0, 10.012264, 9.8798895 
6.396024e+3, 2.9413575e+2, -116400.54, -217175.45, 39.12607, 0.0013654504, -0.0001375193, -116400.52, -58929.895, 0.0, 10.01226, 9.880685 
6.396023e+3, 3.0404434e+2, -27244.549, -85172.195, 30.785944, 0.0013650637, 0.00028355728, -27244.531, -27244.531, 0.0, 10.012254, 9.93599 
6.396021e+3, 3.1398216e+2, -26230.063, -83041.22, 5.6579146, 0.0013667018, 0.00004531205, -26230.063, -26230.063, 0.0, 10.012245, 9.937433 
6.4060694e+3, 1.2521318e+2, -1704245.0, -1721973.1, 30.120045, 0.0013767025, 0.00021814693, -1704245.0, 8667.291, 0.0, 10.012511, 9.989008 
6.406067e+3, 1.3520204e+2, -1606953.3, -1625265.8, 16.344711, 0.0013786958, 0.00003957846, -1606953.3, 8068.2217, 0.0, 10.0125, 9.988224 
6.4060646e+3, 1.4518432e+2, -1518968.3, -1546148.9, 61.587296, 0.0013784716, 0.0003001057, -1518968.1, -1773.1735, 0.0, 10.012492, 9.976481 
6.406062e+3, 1.5516078e+2, -1421315.5, -1448896.4, 46.11044, 0.0013761146, 0.00010871636, -1421315.4, -1889.7065, 0.0, 10.012488, 9.975951 
6.40606e+3, 1.6513063e+2, -1333301.1, -1370060.1, 86.273865, 0.0013760023, 0.00018942208, -1333300.9, -11579.833, 0.0, 10.012486, 9.963887 
6.406058e+3, 1.7509457e+2, -1235412.9, -1272487.4, 69.469604, 0.0013780297, 0.00008531595, -1235412.8, -11338.374, 0.0, 10.0124855, 9.963474 
6.406056e+3, 1.8505184e+2, -1147414.0, -1194027.5, 98.725395, 0.0013779291, 0.0002288836, -1147413.8, -20920.668, 0.0, 10.012486, 9.950994 
6.4060545e+3, 1.9500287e+2, -1049327.9, -1096207.6, 82.7204, 0.0013757431, 0.00009459401, -1049327.8, -20354.77, 0.0, 10.01249, 9.950649 
6.406052e+3, 2.0494711e+2, -961399.44, -1018247.06, 105.788155, 0.0013754354, 0.00021449864, -961399.25, -29879.846, 0.0, 10.012494, 9.93765 
6.4060503e+3, 2.148848e+2, -863174.5, -920288.56, 86.589806, 0.0013770193, 0.00001880211, -863174.4, -29044.275, 0.0, 10.012498, 9.937307 
6.4060485e+3, 2.2481577e+2, -774970.7, -842168.06, 108.41118, 0.0013772009, 0.00026353897, -774970.5, -38163.895, 0.0, 10.012503, 9.9242115 
6.406047e+3, 2.3474003e+2, -676595.44, -744053.75, 88.608986, 0.0013758834, 0.00004842871, -676595.3, -37046.55, 0.0, 10.012508, 9.923879 
6.406045e+3, 2.4465734e+2, -588351.2, -666248.56, 103.729706, 0.0013752794, 0.00020765164, -588351.06, -45991.87, 0.0, 10.012513, 9.910385 
6.406043e+3, 2.5456783e+2, -489660.66, -567640.06, 82.748116, 0.0013754689, 0.000023192582, -489660.56, -44424.348, 0.0, 10.012517, 9.910283 
6.4060414e+3, 2.6447123e+2, -401521.66, -490460.1, 91.47035, 0.0013757444, 0.00026661274, -401521.56, -53338.504, 0.0, 10.012521, 9.896137 
6.40604e+3, 2.743679e+2, -302303.0, -390918.7, 70.009735, 0.0013761085, -0.00008241742, -302302.94, -51107.387, 0.0, 10.012523, 9.896552 
6.4060384e+3, 2.8425643e+2, -215702.69, -317346.6, 69.52278, 0.001375693, 0.00034682525, -215702.64, -61414.984, 0.0, 10.012524, 9.87983 
6.406037e+3, 2.9413736e+2, -116053.75, -217072.63, 47.294674, 0.0013742466, -0.00013660401, -116053.734, -58598.87, 0.0, 10.012524, 9.880626 
6.4060354e+3, 3.040459e+2, -26903.62, -85083.91, 36.54553, 0.0013739651, 0.00028437295, -26903.598, -26903.598, 0.0, 10.01252, 9.935923 
6.406034e+3, 3.1398362e+2, -25887.375, -82953.16, 12.4426365, 0.0013753476, 0.000044456585, -25887.371, -25887.371, 0.0, 10.012513, 9.937364 
6.416082e+3, 1.2521565e+2, -1704276.8, -1722035.1, 24.88663, 0.0013880027, 0.00021847166, -1704276.8, 8611.304, 0.0, 10.012513, 9.988969 
6.4160794e+3, 1.3520446e+2, -1606984.0, -1625327.1, 11.164541, 0.0013842102, 0.00003980052, -1606983.9, 8013.636, 0.0, 10.012502, 9.988185 
6.416077e+3, 1.4518672e+2, -1519001.5, -1546215.6, 59.034504, 0.001384046, 0.00030017455, -1519001.4, -1829.8164, 0.0, 10.012494, 9.976439 
6.4160746e+3, 1.5516314e+2, -1421348.4, -1448962.8, 43.609184, 0.0013871534, 0.00010858214, -1421348.3, -1945.5878, 0.0, 10.01249, 9.975908 
6.416073e+3, 1.6513295e+2, -1333335.4, -1370130.1, 85.07931, 0.001387094, 0.00018950024, -1333335.1, -11636.746, 0.0, 10.012488, 9.963842 
6.4160705e+3, 1.7509684e+2, -1235446.1, -1272556.5, 68.30103, 0.0013840756, 0.00008599836, -1235446.0, -11393.767, 0.0, 10.012487, 9.963429 
6.416068e+3, 1.8505408e+2, -1147444.6, -1194092.5, 99.20747, 0.0013837845, 0.00022940662, -1147444.4, -20973.076, 0.0, 10.012489, 9.950951 
6.416066e+3, 1.9500504e+2, -1049358.3, -1096272.3, 83.21383, 0.0013861157, 0.00009421688, -1049358.1, -20406.438, 0.0, 10.012493, 9.950607 
6.4160645e+3, 2.0494924e+2, -961436.4, -1018325.4, 106.384125, 0.0013863259, 0.00021418513, -961436.2, -29937.635, 0.0, 10.012497, 9.937598 
6.416063e+3, 2.1488689e+2, -863210.3, -920366.1, 87.20922, 0.0013843941, 0.000019523577, -863210.2, -29100.482, 0.0, 10.012501, 9.937256 
6.416061e+3, 2.248178e+2, -775007.94, -842249.4, 109.81868, 0.0013838139, 0.0002643059, -775007.75, -38221.0, 0.0, 10.012506, 9.924157 
6.416059e+3, 2.34742e+2, -676632.2, -744134.6, 90.017876, 0.0013846534, 0.000048193237, -676632.06, -37102.684, 0.0, 10.012512, 9.923825 
6.4160573e+3, 2.4465926e+2, -588390.3, -666334.94, 104.41383, 0.0013850174, 0.00020736193, -588390.2, -46049.797, 0.0, 10.012517, 9.910328 
6.4160556e+3, 2.545697e+2, -489698.94, -567725.94, 83.45358, 0.0013848364, 0.00002391452, -489698.84, -44480.85, 0.0, 10.012521, 9.910225 
6.4160544e+3, 2.6447302e+2, -401560.47, -490548.2, 91.63421, 0.0013843277, 0.0002672671, -401560.38, -53394.984, 0.0, 10.012525, 9.896078 
6.4160526e+3, 2.7436963e+2, -302341.06, -391006.25, 70.075035, 0.0013834109, -0.000083130966, -302341.0, -51162.51, 0.0, 10.0125265, 9.896493 
6.4160514e+3, 2.8425816e+2, -215741.25, -317436.06, 68.610596, 0.0013833691, 0.00034629914, -215741.2, -61470.03, 0.0, 10.012528, 9.879769 
6.4160496e+3, 2.9413897e+2, -116091.81, -217161.69, 46.42798, 0.001384452, -0.00013492149, -116091.79, -58652.83, 0.0, 10.012527, 9.880565 
6.416048e+3, 3.0404747e+2, -26944.924, -85180.4, 33.544724, 0.0013843827, 0.0002858802, -26944.904, -26944.904, 0.0, 10.012525, 9.935855 
6.4160466e+3, 3.139851e+2, -25928.48, -83050.234, 9.028887, 0.0013826733, 0.00004239313, -25928.48, -25928.48, 0.0, 10.012518, 9.937296 
6.426094e+3, 1.2521814e+2, -1703989.6, -1721925.5, 32.272087, 0.0013958552, 0.00021846475, -1703989.6, 8874.091, 0.0, 10.012711, 9.988931 
6.426092e+3, 1.3520691e+2, -1606689.8, -1625214.5, 18.74217, 0.0013929411, 0.000039962648, -1606689.8, 8283.849, 0.0, 10.012705, 9.988147 
6.42609e+3, 1.4518912e+2, -1518705.4, -1546106.4, 68.648674, 0.0013928235, 0.00030042336, -1518705.3, -1557.2534, 0.0, 10.012701, 9.9763975 
6.4260876e+3, 1.551655e+2, -1421050.5, -1448853.5, 53.544422, 0.0013952084, 0.00010883812, -1421050.4, -1670.8356, 0.0, 10.012699, 9.975867 
6.426085e+3, 1.6513526e+2, -1333034.6, -1370023.4, 97.39947, 0.0013951047, 0.00018966873, -1333034.4, -11358.644, 0.0, 10.012701, 9.963798 
6.426083e+3, 1.750991e+2, -1235137.5, -1272446.4, 80.61727, 0.0013926782, 0.00008599108, -1235137.4, -11107.402, 0.0, 10.012707, 9.963385 
6.426081e+3, 1.850563e+2, -1147128.6, -1193976.5, 112.28174, 0.0013924922, 0.00022947656, -1147128.4, -20678.934, 0.0, 10.0127125, 9.950909 
6.426079e+3, 1.9500725e+2, -1049040.1, -1096156.0, 96.23809, 0.0013944583, 0.00009460908, -1049039.9, -20109.697, 0.0, 10.012718, 9.950565 
6.426077e+3, 2.0495139e+2, -961119.7, -1018220.94, 120.41859, 0.0013946091, 0.00021453633, -961119.44, -29641.904, 0.0, 10.012727, 9.937548 
6.426075e+3, 2.1488898e+2, -862885.5, -920258.4, 101.129005, 0.0013929243, 0.000019468922, -862885.3, -28796.094, 0.0, 10.012737, 9.937204 
6.426074e+3, 2.2481982e+2, -774679.6, -842144.25, 123.38805, 0.0013924653, 0.00026427492, -774679.4, -37912.6, 0.0, 10.012747, 9.924103 
6.4260715e+3, 2.3474398e+2, -676301.3, -744029.2, 103.11679, 0.0013932941, 0.000048639835, -676301.1, -36791.184, 0.0, 10.012755, 9.923771 
6.4260703e+3, 2.4466118e+2, -588056.94, -666232.56, 117.09524, 0.001393613, 0.00020778006, -588056.75, -45735.273, 0.0, 10.012765, 9.91027 
6.4260685e+3, 2.5457156e+2, -489359.56, -567621.56, 96.04448, 0.0013933477, 0.000023735662, -489359.44, -44159.78, 0.0, 10.012774, 9.910168 
6.426067e+3, 2.644748e+2, -401217.75, -490446.94, 102.9385, 0.0013928525, 0.00026713187, -401217.63, -53069.96, 0.0, 10.012782, 9.896017 
6.4260656e+3, 2.743714e+2, -301994.0, -390904.03, 80.18927, 0.0013920667, -0.00008244989, -301993.9, -50832.582, 0.0, 10.012789, 9.896431 
6.426064e+3, 2.8425983e+2, -215389.34, -317330.97, 76.886475, 0.0013921165, 0.00034691475, -215389.28, -61134.668, 0.0, 10.012794, 9.879709 
6.426062e+3, 2.941406e+2, -115738.25, -217056.73, 55.009815, 0.0013932395, -0.00013551963, -115738.22, -58315.215, 0.0, 10.012795, 9.880505 
6.426061e+3, 3.0404902e+2, -26597.053, -85091.42, 39.87847, 0.0013931287, 0.00028530377, -26597.025, -26597.025, 0.0, 10.012796, 9.935784 
6.426059e+3, 3.139866e+2, -25573.334, -82958.95, 12.796411, 0.0013912629, 0.000043611955, -25573.332, -25573.332, 0.0, 10.012795, 9.937224 
6.436107e+3, 1.2522064e+2, -1704020.8, -1721986.6, 29.051815, 0.001401456, 0.0002182364, -1704020.6, 8818.561, 0.0, 10.012712, 9.988893 
6.436105e+3, 1.3520938e+2, -1606720.9, -1625275.5, 15.551595, 0.0014038138, 0.000040082745, -1606720.9, 8228.643, 0.0, 10.012706, 9.988108 
6.4361024e+3, 1.4519155e+2, -1518738.6, -1546172.1, 66.74065, 0.00140373, 0.00030078844, -1518738.4, -1614.1755, 0.0, 10.012702, 9.9763565 
6.4361e+3, 1.5516786e+2, -1421082.3, -1448918.3, 51.67457, 0.0014013082, 0.00010934958, -1421082.3, -1726.0068, 0.0, 10.012701, 9.975825 
6.436098e+3, 1.651376e+2, -1333068.6, -1370093.1, 98.39361, 0.0014011022, 0.00018989579, -1333068.4, -11415.55, 0.0, 10.012703, 9.963754 
6.436096e+3, 1.7510141e+2, -1235171.4, -1272515.8, 81.651764, 0.0014030008, 0.000085528845, -1235171.3, -11163.73, 0.0, 10.012709, 9.96334 
6.436094e+3, 1.8505855e+2, -1147160.0, -1194042.0, 113.54367, 0.0014031117, 0.000229248, -1147159.8, -20732.35, 0.0, 10.012714, 9.950867 
6.4360917e+3, 1.9500944e+2, -1049070.1, -1096220.6, 97.50068, 0.0014014741, 0.00009550686, -1049070.0, -20161.379, 0.0, 10.012721, 9.950522 
6.43609e+3, 2.0495355e+2, -961156.4, -1018299.4, 123.39865, 0.0014011868, 0.00021532449, -961156.1, -29699.73, 0.0, 10.01273, 9.937496 
6.436088e+3, 2.1489108e+2, -862921.94, -920336.5, 104.135864, 0.0014022519, 0.000018902985, -862921.75, -28853.156, 0.0, 10.01274, 9.937153 
6.436086e+3, 2.2482188e+2, -774718.3, -842227.7, 125.74544, 0.0014024996, 0.00026371793, -774718.06, -37971.406, 0.0, 10.01275, 9.924048 
6.4360845e+3, 2.34746e+2, -676338.9, -744111.94, 105.47502, 0.0014018717, 0.000049533777, -676338.7, -36848.33, 0.0, 10.012759, 9.923716 
6.436083e+3, 2.4466312e+2, -588095.75, -666318.94, 119.6654, 0.0014014725, 0.00020866349, -588095.56, -45793.117, 0.0, 10.012769, 9.9102125 
6.436081e+3, 2.5457346e+2, -489397.8, -567707.5, 98.59832, 0.0014013192, 0.000022967859, -489397.7, -44216.477, 0.0, 10.012778, 9.9101095 
6.43608e+3, 2.6447666e+2, -401258.9, -490539.63, 104.6042, 0.0014013721, 0.00026648142, -401258.78, -53129.016, 0.0, 10.012786, 9.895954 
6.436078e+3, 2.7437314e+2, -302034.56, -390996.44, 81.87847, 0.0014016585, -0.000080854676, -302034.5, -50890.438, 0.0, 10.012794, 9.896369 
6.436077e+3, 2.8426152e+2, -215427.1, -317418.75, 76.88507, 0.0014016089, 0.00034827885, -215427.05, -61189.094, 0.0, 10.012798, 9.879649 
6.436075e+3, 2.9414225e+2, -115774.7, -217143.38, 54.779167, 0.0014011059, -0.00013762055, -115774.67, -58367.734, 0.0, 10.0128, 9.8804455 
6.436074e+3, 3.040506e+2, -26642.047, -85196.516, 38.70289, 0.0014007875, 0.00028336275, -26642.021, -26642.021, 0.0, 10.012801, 9.935711 
6.436072e+3, 3.139881e+2, -25619.447, -83066.125, 11.660228, 0.0014007393, 0.000046993766, -25619.443, -25619.443, 0.0, 10.0128, 9.937149 
6.44612e+3, 1.2522313e+2, -1703732.1, -1721875.6, 35.088078, 0.0014097373, 0.00021818477, -1703732.1, 9082.568, 0.0, 10.01291, 9.988854 
6.446118e+3, 1.3521184e+2, -1606433.3, -1625165.8, 21.860708, 0.0014120626, 0.00004018326, -1606433.1, 8492.142, 0.0, 10.012904, 9.9880705 
6.4461154e+3, 1.4519396e+2, -1518448.4, -1546065.8, 76.216515, 0.0014119858, 0.0003009169, -1518448.1, -1347.6722, 0.0, 10.012905, 9.9763155 
6.446113e+3, 1.5517026e+2, -1420781.4, -1448807.0, 61.156002, 0.0014096019, 0.00010938813, -1420781.3, -1448.4794, 0.0, 10.012911, 9.975784 
6.4461106e+3, 1.6513994e+2, -1332764.3, -1369984.0, 109.29008, 0.0014094858, 0.00018996364, -1332763.9, -11134.034, 0.0, 10.0129175, 9.963709 
6.446109e+3, 1.751037e+2, -1234866.3, -1272407.0, 92.764885, 0.0014115258, 0.00008573845, -1234866.0, -10881.005, 0.0, 10.012924, 9.963296 
6.4461064e+3, 1.850608e+2, -1146847.0, -1193927.9, 126.57466, 0.0014116188, 0.00022941593, -1146846.6, -20441.313, 0.0, 10.012936, 9.950824 
6.4461046e+3, 1.9501166e+2, -1048746.1, -1096101.6, 110.39382, 0.0014098072, 0.00009545662, -1048745.9, -19858.92, 0.0, 10.01295, 9.95048 
6.446103e+3, 2.0495571e+2, -960832.5, -1018191.5, 136.43251, 0.0014095528, 0.00021531631, -960832.2, -29397.006, 0.0, 10.012964, 9.937445 
6.446101e+3, 2.1489319e+2, -862596.06, -920228.5, 117.045525, 0.0014108594, 0.000019198842, -862595.8, -28547.986, 0.0, 10.012978, 9.937101 
6.446099e+3, 2.2482394e+2, -774389.56, -842123.44, 138.95984, 0.0014111436, 0.00026396685, -774389.25, -37662.813, 0.0, 10.012992, 9.923993 
6.4460975e+3, 2.34748e+2, -676001.2, -744004.1, 118.390114, 0.001410335, 0.00004936533, -676001.0, -36530.28, 0.0, 10.013008, 9.92366 
6.446096e+3, 2.4466507e+2, -587753.3, -666213.2, 131.59105, 0.0014099228, 0.00020859207, -587753.1, -45469.754, 0.0, 10.013023, 9.910153 
6.4460945e+3, 2.5457534e+2, -489051.4, -567600.9, 109.84178, 0.0014099443, 0.00002356925, -489051.25, -43888.566, 0.0, 10.013037, 9.910051 
6.446093e+3, 2.6447847e+2, -400910.28, -490436.66, 114.68151, 0.0014101085, 0.00026698617, -400910.13, -52798.29, 0.0, 10.013049, 9.895892 
6.446091e+3, 2.743749e+2, -301681.75, -390892.6, 91.921104, 0.0014104291, -0.00008136874, -301681.66, -50554.914, 0.0, 10.01306, 9.896306 
6.446089e+3, 2.8426325e+2, -215067.69, -317312.03, 85.1033, 0.0014102813, 0.00034781967, -215067.61, -60846.367, 0.0, 10.01307, 9.879587 
6.446088e+3, 2.941439e+2, -115408.266, -217034.25, 61.39741, 0.0014095064, -0.00013662818, -115408.23, -58017.4, 0.0, 10.013079, 9.8803835 
6.446086e+3, 3.0405214e+2, -26280.688, -85103.11, 42.54513, 0.0014092664, 0.00028440007, -26280.658, -26280.658, 0.0, 10.013083, 9.935638 
6.446085e+3, 3.139896e+2, -25256.686, -82973.266, 15.653299, 0.0014097966, 0.000046091893, -25256.682, -25256.682, 0.0, 10.013084, 9.937076 
6.4561325e+3, 1.2522565e+2, -1703763.9, -1721936.3, 31.68409, 0.0014197921, 0.00021824712, -1703763.9, 9026.163, 0.0, 10.01291, 9.988817 
6.45613e+3, 1.3521433e+2, -1606463.3, -1625225.4, 18.559914, 0.0014186015, 0.000040269737, -1606463.3, 8437.823, 0.0, 10.012906, 9.988032 
6.456128e+3, 1.4519641e+2, -1518481.0, -1546131.1, 77.16071, 0.0014185195, 0.00030088797, -1518480.8, -1404.2264, 0.0, 10.012907, 9.976274 
6.456126e+3, 1.5517265e+2, -1420814.4, -1448872.4, 62.148556, 0.001419364, 0.00010911203, -1420814.1, -1504.8656, 0.0, 10.012913, 9.975742 
6.4561236e+3, 1.651423e+2, -1332798.8, -1370053.3, 110.61532, 0.001419461, 0.00018992336, -1332798.4, -11191.613, 0.0, 10.012919, 9.963665 
6.456122e+3, 1.7510602e+2, -1234899.1, -1272475.1, 94.10517, 0.0014188818, 0.00008638786, -1234898.9, -10936.522, 0.0, 10.012927, 9.963252 
6.4561194e+3, 1.8506308e+2, -1146878.1, -1193993.6, 130.88762, 0.0014187542, 0.00022984372, -1146877.8, -20494.672, 0.0, 10.0129385, 9.950781 
6.4561176e+3, 1.9501388e+2, -1048777.3, -1096167.3, 114.7559, 0.0014190414, 0.000094781186, -1048777.0, -19911.863, 0.0, 10.012953, 9.950438 
6.456116e+3, 2.0495789e+2, -960870.25, -1018270.8, 140.11682, 0.0014191289, 0.00021478318, -960869.9, -29456.068, 0.0, 10.012967, 9.937392 
6.456114e+3, 2.1489532e+2, -862632.3, -920306.9, 120.71284, 0.0014190099, 0.000020059357, -862632.06, -28605.043, 0.0, 10.01298, 9.93705 
6.456112e+3, 2.2482602e+2, -774428.2, -842207.75, 143.8795, 0.0014188894, 0.00026474454, -774427.9, -37721.746, 0.0, 10.012995, 9.923937 
6.4561105e+3, 2.3475002e+2, -676039.56, -744088.06, 123.35861, 0.0014187556, 0.000048500755, -676039.3, -36588.37, 0.0, 10.013011, 9.923604 
6.4561087e+3, 2.4466702e+2, -587793.94, -666302.44, 135.54308, 0.0014187994, 0.00020789268, -587793.7, -45529.547, 0.0, 10.013026, 9.910094 
6.4561075e+3, 2.5457725e+2, -489091.06, -567689.5, 113.77459, 0.00141903, 0.000025061561, -489090.9, -43946.85, 0.0, 10.013041, 9.909991 
6.456106e+3, 2.6448032e+2, -400951.16, -490529.03, 117.81635, 0.0014190131, 0.00026824404, -400951.0, -52857.184, 0.0, 10.013053, 9.89583 
6.456104e+3, 2.743767e+2, -301721.78, -390984.4, 94.98707, 0.0014186844, -0.00008326135, -301721.66, -50612.316, 0.0, 10.013064, 9.896244 
6.456103e+3, 2.8426495e+2, -215108.0, -317405.5, 87.27526, 0.0014184443, 0.00034617377, -215107.94, -60903.47, 0.0, 10.013074, 9.879524 
6.456101e+3, 2.9414552e+2, -115448.055, -217127.25, 63.56873, 0.0014183021, -0.0001336154, -115448.016, -58073.37, 0.0, 10.0130825, 9.88032 
6.4561e+3, 3.0405375e+2, -26325.41, -85207.09, 42.016273, 0.0014183287, 0.0002873828, -26325.379, -26325.379, 0.0, 10.013088, 9.935566 
6.456098e+3, 3.1399113e+2, -25301.334, -83078.17, 14.784735, 0.0014186035, 0.000042373988, -25301.33, -25301.33, 0.0, 10.013089, 9.937002 
6.466146e+3, 1.2522817e+2, -1703486.1, -1721830.0, 36.532818, 0.0014284598, 0.00021843395, -1703486.1, 9279.272, 0.0, 10.013102, 9.98878 
6.466144e+3, 1.352168e+2, -1606171.6, -1625112.5, 23.762299, 0.0014264613, 0.000040437855, -1606171.6, 8705.117, 0.0, 10.013106, 9.987995 
6.4661413e+3, 1.4519885e+2, -1518186.1, -1546021.4, 84.60268, 0.0014264227, 0.00030093535, -1518185.9, -1133.2408, 0.0, 10.013112, 9.976233 
6.466139e+3, 1.5517505e+2, -1420520.6, -1448764.1, 70.02997, 0.0014280905, 0.00010894156, -1420520.5, -1234.7172, 0.0, 10.013118, 9.975702 
6.4661366e+3, 1.6514465e+2, -1332501.3, -1369947.8, 121.23681, 0.0014281926, 0.00018982083, -1332500.9, -10917.2295, 0.0, 10.013129, 9.96362 
6.466135e+3, 1.7510833e+2, -1234588.1, -1272363.4, 104.54364, 0.0014268513, 0.000086621716, -1234587.9, -10648.254, 0.0, 10.013146, 9.963207 
6.466133e+3, 1.8506534e+2, -1146558.0, -1193875.4, 142.35596, 0.0014267792, 0.00023008492, -1146557.6, -20196.72, 0.0, 10.013164, 9.950739 
6.4661306e+3, 1.9501612e+2, -1048456.06, -1096049.3, 126.463646, 0.0014279104, 0.00009471276, -1048455.75, -19612.451, 0.0, 10.01318, 9.950396 
6.466129e+3, 2.0496006e+2, -960549.75, -1018165.7, 152.96558, 0.0014280317, 0.00021468708, -960549.3, -29156.88, 0.0, 10.0132, 9.937341 
6.466127e+3, 2.1489744e+2, -862299.1, -920196.06, 133.10739, 0.0014271339, 0.000020219559, -862298.8, -28292.648, 0.0, 10.013223, 9.936997 
6.466125e+3, 2.248281e+2, -774089.3, -842098.8, 155.64307, 0.0014269542, 0.00026500423, -774088.94, -37403.152, 0.0, 10.013244, 9.923882 
6.4661235e+3, 2.3475203e+2, -675697.9, -743978.8, 134.96158, 0.0014275204, 0.00004869406, -675697.6, -36266.46, 0.0, 10.013263, 9.923549 
6.466122e+3, 2.4466899e+2, -587449.56, -666197.1, 146.69307, 0.001427751, 0.00020788089, -587449.3, -45204.355, 0.0, 10.013283, 9.910034 
6.4661205e+3, 2.5457916e+2, -488739.03, -567581.5, 124.526665, 0.0014275936, 0.000024689134, -488738.84, -43613.414, 0.0, 10.013303, 9.909931 
6.4661187e+3, 2.6448214e+2, -400593.8, -490423.1, 127.05214, 0.0014274151, 0.00026808935, -400593.66, -52517.848, 0.0, 10.013322, 9.895767 
6.466117e+3, 2.7437848e+2, -301358.06, -390876.53, 103.347626, 0.0014271958, -0.00008250274, -301357.94, -50265.992, 0.0, 10.013339, 9.896181 
6.466116e+3, 2.8426665e+2, -214738.58, -317295.72, 93.69123, 0.0014271161, 0.00034684213, -214738.5, -60550.82, 0.0, 10.013353, 9.87946 
6.4661145e+3, 2.941472e+2, -115075.75, -217017.19, 69.747765, 0.0014271991, -0.00013433938, -115075.7, -57717.215, 0.0, 10.013366, 9.880257 
6.466113e+3, 3.0405533e+2, -25957.477, -85112.31, 45.588154, 0.0014272016, 0.00028656973, -25957.441, -25957.441, 0.0, 10.013376, 9.935492 
6.4661115e+3, 3.1399262e+2, -24924.56, -82980.31, 16.810766, 0.0014271006, 0.000043340133, -24924.557, -24924.557, 0.0, 10.013384, 9.936927 
6.476159e+3, 1.252307e+2, -1703516.3, -1721888.8, 36.84563, 0.0014362228, 0.00021869155, -1703516.3, 9224.394, 0.0, 10.013103, 9.988743 
6.476157e+3, 1.3521929e+2, -1606202.3, -1625171.4, 24.09968, 0.0014352163, 0.000040648025, -1606202.3, 8650.076, 0.0, 10.013107, 9.987959 
6.4761543e+3, 1.452013e+2, -1518219.1, -1546085.6, 85.32519, 0.001435253, 0.00030102525, -1518218.9, -1190.2865, 0.0, 10.013113, 9.976192 
6.476152e+3, 1.5517746e+2, -1420551.9, -1448827.3, 70.79266, 0.0014361452, 0.00010884123, -1420551.8, -1289.5187, 0.0, 10.01312, 9.975661 
6.47615e+3, 1.6514702e+2, -1332535.5, -1370017.5, 126.14306, 0.0014361182, 0.00018967745, -1332535.0, -10974.577, 0.0, 10.013132, 9.963576 
6.476148e+3, 1.7511065e+2, -1234622.6, -1272433.0, 109.49464, 0.0014352588, 0.00008657285, -1234622.3, -10705.409, 0.0, 10.013148, 9.963163 
6.476146e+3, 1.8506762e+2, -1146589.8, -1193940.6, 147.06055, 0.0014354219, 0.00023019535, -1146589.3, -20250.744, 0.0, 10.013165, 9.950697 
6.476144e+3, 1.9501835e+2, -1048486.06, -1096113.4, 131.14787, 0.0014365468, 0.00009504473, -1048485.7, -19664.33, 0.0, 10.013183, 9.950354 
6.476142e+3, 2.0496227e+2, -960587.7, -1018246.56, 160.14108, 0.0014365033, 0.00021488169, -960587.25, -29216.27, 0.0, 10.013203, 9.937287 
6.47614e+3, 2.1489958e+2, -862336.94, -920276.7, 140.33617, 0.0014352839, 0.0000199154, -862336.56, -28351.365, 0.0, 10.013226, 9.936945 
6.476139e+3, 2.2483017e+2, -774129.06, -842184.06, 161.52585, 0.0014352752, 0.0002649149, -774128.7, -37463.25, 0.0, 10.013247, 9.923825 
6.4761364e+3, 2.3475406e+2, -675736.4, -744063.2, 140.81346, 0.0014365292, 0.000049572973, -675736.06, -36324.75, 0.0, 10.013267, 9.923492 
6.476135e+3, 2.4467096e+2, -587490.44, -666287.56, 152.89018, 0.001436764, 0.00020831733, -587490.1, -45264.48, 0.0, 10.013287, 9.909974 
6.476134e+3, 2.5458106e+2, -488779.34, -567671.56, 130.77737, 0.0014358468, 0.000023103623, -488779.13, -43672.38, 0.0, 10.013307, 9.909871 
6.476132e+3, 2.6448402e+2, -400636.47, -490518.78, 132.26907, 0.0014355278, 0.00026701423, -400636.28, -52578.55, 0.0, 10.013326, 9.895702 
6.476131e+3, 2.7438024e+2, -301399.97, -390971.78, 108.507576, 0.0014359117, -0.00008002816, -301399.84, -50325.37, 0.0, 10.013343, 9.896116 
6.476129e+3, 2.8426838e+2, -214779.2, -317389.6, 97.04605, 0.001436154, 0.00034901014, -214779.11, -60608.277, 0.0, 10.013358, 9.879396 
6.4761275e+3, 2.9414883e+2, -115115.19, -217110.13, 72.97095, 0.0014361909, -0.00013749805, -115115.13, -57772.82, 0.0, 10.0133705, 9.880193 
6.476126e+3, 3.040569e+2, -26004.027, -85220.92, 47.33231, 0.001435981, 0.00028329398, -26003.99, -26003.99, 0.0, 10.013381, 9.935416 
6.4761245e+3, 3.1399414e+2, -24971.822, -83090.586, 18.391071, 0.0014354382, 0.00004735201, -24971.816, -24971.816, 0.0, 10.013389, 9.936851 
6.486172e+3, 1.2523322e+2, -1703234.0, -1721778.9, 40.02442, 0.0014435542, 0.00021859317, -1703233.9, 9481.993, 0.0, 10.013295, 9.988708 
6.4861697e+3, 1.3522176e+2, -1605922.5, -1625063.8, 27.701878, 0.0014443628, 0.000040365907, -1605922.5, 8905.474, 0.0, 10.0133, 9.987923 
6.4861673e+3, 1.4520375e+2, -1517935.6, -1545981.6, 92.29471, 0.0014444662, 0.00030086606, -1517935.4, -930.6763, 0.0, 10.01331, 9.976152 
6.486165e+3, 1.5517987e+2, -1420252.4, -1448715.6, 77.631775, 0.0014438154, 0.00010908262, -1420252.3, -1013.60547, 0.0, 10.013329, 9.975621 
6.486163e+3, 1.6514939e+2, -1332231.1, -1369908.0, 134.5831, 0.0014437088, 0.00018978486, -1332230.6, -10693.356, 0.0, 10.013347, 9.963532 
6.4861614e+3, 1.7511298e+2, -1234318.8, -1272324.5, 118.22034, 0.0014441387, 0.00008604703, -1234318.4, -10424.225, 0.0, 10.013364, 9.9631195 
6.486159e+3, 1.850699e+2, -1146276.4, -1193826.3, 158.1126, 0.0014443065, 0.00022987313, -1146275.9, -19959.695, 0.0, 10.013387, 9.950654 
6.486157e+3, 1.9502059e+2, -1048157.25, -1095991.9, 141.89429, 0.0014441983, 0.00009573249, -1048156.9, -19357.398, 0.0, 10.013415, 9.950311 
6.4861554e+3, 2.0496444e+2, -960257.56, -1018136.75, 171.17018, 0.0014442974, 0.00021559277, -960257.06, -28907.48, 0.0, 10.013442, 9.937235 
6.4861536e+3, 2.1490172e+2, -862004.06, -920166.4, 151.42467, 0.0014445984, 0.00001966272, -862003.6, -28039.348, 0.0, 10.013468, 9.936892 
6.486152e+3, 2.2483225e+2, -773791.94, -842077.1, 172.46045, 0.0014447259, 0.00026440257, -773791.5, -37146.492, 0.0, 10.0134945, 9.923768 
6.4861506e+3, 2.3475607e+2, -675388.1, -743951.6, 151.23566, 0.0014446592, 0.000049542432, -675387.8, -35996.31, 0.0, 10.013523, 9.923435 
6.486149e+3, 2.4467292e+2, -587135.9, -666177.75, 162.40366, 0.001444592, 0.0002085437, -587135.56, -44929.168, 0.0, 10.01355, 9.909914 
6.486147e+3, 2.5458294e+2, -488419.47, -567560.2, 140.10912, 0.0014445109, 0.000023334069, -488419.22, -43331.145, 0.0, 10.013575, 9.909811 
6.486145e+3, 2.6448584e+2, -400273.6, -490412.1, 140.35788, 0.001444494, 0.00026702302, -400273.38, -52233.7, 0.0, 10.013599, 9.8956375 
6.486144e+3, 2.7438203e+2, -301031.0, -390863.38, 115.91618, 0.001444539, -0.000080508195, -301030.84, -49973.766, 0.0, 10.013622, 9.89605 
6.486143e+3, 2.8427008e+2, -214401.89, -317277.25, 102.31554, 0.0014446503, 0.00034870766, -214401.8, -60247.72, 0.0, 10.013643, 9.879332 
6.486141e+3, 2.9415047e+2, -114729.914, -216994.94, 77.4167, 0.0014448265, -0.00013675906, -114729.86, -57403.68, 0.0, 10.013662, 9.880128 
6.48614e+3, 3.0405846e+2, -25623.0, -85122.875, 48.878967, 0.0014446938, 0.00028406706, -25622.96, -25622.96, 0.0, 10.013679, 9.935339 
6.486138e+3, 3.1399563e+2, -24585.771, -82991.49, 18.77739, 0.0014441413, 0.00004675101, -24585.766, -24585.766, 0.0, 10.01369, 9.936772 
6.4961857e+3, 1.2523574e+2, -1703264.9, -1721836.8, 39.676785, 0.0014506569, 0.00021825724, -1703264.8, 9426.373, 0.0, 10.013295, 9.988671 
6.496183e+3, 1.3522425e+2, -1605951.5, -1625120.5, 27.45594, 0.0014537432, 0.000039769144, -1605951.4, 8852.168, 0.0, 10.013301, 9.987887 
6.496181e+3, 1.452062e+2, -1517968.1, -1546046.0, 97.19372, 0.0014539085, 0.00030054708, -1517967.8, -987.1655, 0.0, 10.013312, 9.976111 
6.4961785e+3, 1.5518229e+2, -1420285.3, -1448780.0, 82.5687, 0.0014512856, 0.00010953153, -1420285.0, -1070.0177, 0.0, 10.0133295, 9.97558 
6.496176e+3, 1.6515175e+2, -1332265.9, -1369977.0, 139.42387, 0.0014511342, 0.0001900438, -1332265.4, -10751.309, 0.0, 10.013348, 9.963489 
6.4961743e+3, 1.751153e+2, -1234351.8, -1272392.4, 123.08598, 0.0014533207, 0.00008522099, -1234351.4, -10480.02, 0.0, 10.013366, 9.963076 
6.4961725e+3, 1.8507217e+2, -1146308.1, -1193892.4, 166.97034, 0.0014533439, 0.00022927488, -1146307.5, -20013.646, 0.0, 10.013389, 9.950611 
6.496171e+3, 1.9502282e+2, -1048188.94, -1096057.8, 150.69386, 0.0014512638, 0.0000966236, -1048188.44, -19410.934, 0.0, 10.013417, 9.950268 
6.496169e+3, 2.0496665e+2, -960296.4, -1018217.7, 179.05623, 0.0014517073, 0.00021661057, -960295.8, -28967.729, 0.0, 10.013444, 9.937182 
6.496167e+3, 2.1490386e+2, -862041.2, -920246.3, 159.40236, 0.0014546696, 0.000019443174, -862040.75, -28097.436, 0.0, 10.013471, 9.936839 
6.4961654e+3, 2.2483434e+2, -773832.06, -842164.06, 181.47356, 0.0014549051, 0.00026362453, -773831.56, -37206.95, 0.0, 10.013498, 9.923711 
6.496164e+3, 2.3475811e+2, -675428.0, -744038.25, 160.3146, 0.0014522604, 0.0000489199, -675427.6, -36055.953, 0.0, 10.013526, 9.923378 
6.496162e+3, 2.4467489e+2, -587177.7, -666269.0, 170.34157, 0.0014517049, 0.0002086251, -587177.3, -44990.164, 0.0, 10.013553, 9.909853 
6.4961606e+3, 2.5458485e+2, -488460.2, -567650.75, 147.97719, 0.0014534699, 0.000024733341, -488459.94, -43390.53, 0.0, 10.013578, 9.90975 
6.4961594e+3, 2.644877e+2, -400317.28, -490510.06, 147.47057, 0.0014540331, 0.00026773105, -400317.03, -52295.42, 0.0, 10.013603, 9.895572 
6.4961576e+3, 2.7438378e+2, -301073.78, -390960.9, 123.056595, 0.0014531406, -0.000082899314, -301073.63, -50033.938, 0.0, 10.013626, 9.895985 
6.4961565e+3, 2.8427178e+2, -214443.61, -317373.72, 108.1736, 0.0014528343, 0.00034680963, -214443.48, -60306.164, 0.0, 10.013648, 9.879267 
6.4961547e+3, 2.9415214e+2, -114770.84, -217090.67, 83.10654, 0.001453269, -0.00013351256, -114770.78, -57460.75, 0.0, 10.013667, 9.880062 
6.4961535e+3, 3.0406007e+2, -25671.477, -85235.09, 52.03007, 0.0014534013, 0.0002874493, -25671.43, -25671.43, 0.0, 10.013683, 9.935261 
6.4961517e+3, 3.1399712e+2, -24634.549, -83105.234, 21.780561, 0.0014531208, 0.000043156837, -24634.541, -24634.541, 0.0, 10.013696, 9.936693 
6.5061986e+3, 1.2523825e+2, -1702997.1, -1721734.0, 41.51678, 0.0014600529, 0.00021806473, -1702997.0, 9669.467, 0.0, 10.013479, 9.988636 
6.506196e+3, 1.3522674e+2, -1605666.5, -1625009.1, 29.508945, 0.0014607906, 0.000040065017, -1605666.5, 9112.856, 0.0, 10.013496, 9.987852 
6.5061945e+3, 1.4520863e+2, -1517678.4, -1545938.1, 101.974724, 0.0014610147, 0.00030082633, -1517678.0, -721.2406, 0.0, 10.013514, 9.976071 
6.506192e+3, 1.5518467e+2, -1419995.1, -1448672.8, 87.76312, 0.0014606495, 0.000109328095, -1419994.9, -803.449, 0.0, 10.013533, 9.97554 
6.50619e+3, 1.6515411e+2, -1331970.6, -1369872.4, 146.9957, 0.0014605441, 0.00018992754, -1331970.1, -10479.15, 0.0, 10.0135565, 9.963445 
6.506188e+3, 1.7511761e+2, -1234041.3, -1272280.4, 130.46603, 0.0014607125, 0.00008572451, -1234040.8, -10192.071, 0.0, 10.013585, 9.963032 
6.506186e+3, 1.8507445e+2, -1145987.9, -1193776.0, 175.99998, 0.0014607153, 0.00022945533, -1145987.3, -19715.611, 0.0, 10.013616, 9.950567 
6.5061843e+3, 1.9502506e+2, -1047865.6, -1095940.6, 159.1315, 0.0014605322, 0.00009557579, -1047865.06, -19109.398, 0.0, 10.013646, 9.950224 
6.5061826e+3, 2.0496882e+2, -959969.94, -1018108.9, 188.42766, 0.001461112, 0.00021555502, -959969.3, -28662.584, 0.0, 10.01368, 9.937131 
6.506181e+3, 2.1490599e+2, -861699.9, -920130.75, 169.11646, 0.0014624512, 0.00001960137, -861699.4, -27776.875, 0.0, 10.013718, 9.936788 
6.506179e+3, 2.2483641e+2, -773484.7, -842052.4, 190.57257, 0.0014625122, 0.00026415224, -773484.2, -36879.887, 0.0, 10.013753, 9.923654 
6.506178e+3, 2.3476012e+2, -675076.56, -743925.56, 169.38382, 0.001461215, 0.00004892956, -675076.1, -35724.266, 0.0, 10.013785, 9.923321 
6.506176e+3, 2.4467684e+2, -586822.3, -666160.3, 178.83003, 0.0014609535, 0.00020846174, -586821.9, -44653.94, 0.0, 10.013818, 9.909792 
6.506174e+3, 2.5458676e+2, -488095.25, -567538.4, 155.6716, 0.0014618363, 0.000024781335, -488094.94, -43044.113, 0.0, 10.013851, 9.909688 
6.506173e+3, 2.6448953e+2, -399945.47, -490399.72, 153.7622, 0.0014621625, 0.0002679128, -399945.22, -51941.543, 0.0, 10.013883, 9.895506 
6.506171e+3, 2.7438557e+2, -300693.66, -390847.75, 129.16917, 0.0014618047, -0.0000826751, -300693.47, -49671.094, 0.0, 10.013913, 9.895919 
6.50617e+3, 2.842735e+2, -214056.47, -317259.56, 111.91909, 0.0014616763, 0.00034686734, -214056.36, -59935.68, 0.0, 10.013941, 9.879199 
6.506168e+3, 2.9415375e+2, -114378.37, -216975.19, 85.42823, 0.0014618244, -0.00013388901, -114378.3, -57084.246, 0.0, 10.013966, 9.879994 
6.5061677e+3, 3.0406162e+2, -25281.643, -85133.87, 51.535133, 0.0014619406, 0.00028710297, -25281.598, -25281.598, 0.0, 10.013988, 9.935184 
6.506166e+3, 3.139986e+2, -24235.291, -83000.62, 21.010134, 0.0014620323, 0.00004351712, -24235.283, -24235.283, 0.0, 10.014007, 9.936614 
6.516212e+3, 1.2524077e+2, -1703026.9, -1721790.6, 45.58603, 0.0014708715, 0.00021795541, -1703026.8, 9615.104, 0.0, 10.01348, 9.988602 
6.51621e+3, 1.3522922e+2, -1605696.5, -1625065.9, 33.62108, 0.0014664095, 0.0000409095, -1605696.5, 9058.573, 0.0, 10.013496, 9.987817 
6.5162075e+3, 1.4521107e+2, -1517711.4, -1546001.5, 106.89961, 0.0014666949, 0.00030146833, -1517710.9, -778.1373, 0.0, 10.0135145, 9.976032 
6.5162057e+3, 1.5518709e+2, -1420026.4, -1448735.0, 92.770355, 0.0014712015, 0.00010870502, -1420026.1, -858.2063, 0.0, 10.013534, 9.975501 
6.516204e+3, 1.6515648e+2, -1332005.1, -1369941.9, 155.88396, 0.001471197, 0.00018956898, -1332004.5, -10536.67, 0.0, 10.013558, 9.9634 
6.5162015e+3, 1.7511992e+2, -1234075.5, -1272349.6, 139.4072, 0.0014670183, 0.00008705807, -1234075.0, -10249.068, 0.0, 10.013587, 9.962987 
6.5162e+3, 1.8507673e+2, -1146021.9, -1193845.4, 185.68718, 0.0014670867, 0.00023011713, -1146021.1, -19771.777, 0.0, 10.0136175, 9.950523 
6.516198e+3, 1.9502728e+2, -1047898.1, -1096009.0, 168.62424, 0.0014712065, 0.00009329333, -1047897.56, -19163.672, 0.0, 10.013649, 9.950179 
6.516196e+3, 2.0497099e+2, -960007.25, -1018187.75, 200.27351, 0.001471781, 0.00021318188, -960006.56, -28721.195, 0.0, 10.013683, 9.937079 
6.5161943e+3, 2.1490811e+2, -861736.94, -920209.25, 181.19179, 0.0014688108, 0.000019988438, -861736.4, -27834.738, 0.0, 10.0137205, 9.936736 
6.516193e+3, 2.2483848e+2, -773525.75, -842139.6, 200.85512, 0.0014685291, 0.00026549725, -773525.2, -36941.207, 0.0, 10.013756, 9.923596 
6.5161914e+3, 2.3476213e+2, -675116.44, -744012.06, 179.62448, 0.0014710559, 0.00004933892, -675115.94, -35783.824, 0.0, 10.013788, 9.923264 
6.51619e+3, 2.446788e+2, -586865.3, -666254.56, 189.49513, 0.0014715794, 0.00020813859, -586864.9, -44716.055, 0.0, 10.013822, 9.909729 
6.5161884e+3, 2.5458863e+2, -488137.4, -567632.1, 166.39706, 0.0014698559, 0.00002395258, -488137.06, -43104.76, 0.0, 10.013855, 9.909625 
6.516187e+3, 2.6449135e+2, -399989.4, -490498.1, 163.4594, 0.0014694321, 0.0002677461, -399989.13, -52003.355, 0.0, 10.013886, 9.89544 
6.5161854e+3, 2.7438733e+2, -300736.97, -390945.7, 138.73843, 0.001470548, -0.000080782185, -300736.75, -49731.668, 0.0, 10.013917, 9.895852 
6.516184e+3, 2.8427517e+2, -214100.89, -317361.1, 119.49609, 0.0014709755, 0.00034817643, -214100.75, -59996.688, 0.0, 10.013946, 9.87913 
6.5161824e+3, 2.941554e+2, -114421.48, -217075.97, 93.01547, 0.0014704849, -0.00013660033, -114421.39, -57143.254, 0.0, 10.01397, 9.879926 
6.516181e+3, 3.0406317e+2, -25329.74, -85246.07, 57.296303, 0.001470407, 0.00028436258, -25329.686, -25329.686, 0.0, 10.013993, 9.935105 
6.5161794e+3, 3.1400007e+2, -24284.01, -83114.12, 26.422491, 0.0014709433, 0.00004640407, -24283.998, -24283.998, 0.0, 10.014012, 9.936535 
6.526226e+3, 1.2524326e+2, -1702756.4, -1721685.1, 44.87075, 0.0014776534, 0.00021794287, -1702756.3, 9861.165, 0.0, 10.013665, 9.988567 
6.5262234e+3, 1.3523167e+2, -1605424.1, -1624960.3, 33.41846, 0.0014759814, 0.00004051375, -1605424.1, 9306.791, 0.0, 10.013683, 9.9877825 
6.526221e+3, 1.452135e+2, -1517433.0, -1545898.8, 110.127205, 0.0014762372, 0.0003011088, -1517432.6, -523.60205, 0.0, 10.013708, 9.975993 
6.526219e+3, 1.5518947e+2, -1419731.5, -1448624.3, 96.21534, 0.001478133, 0.000108760934, -1419731.3, -586.68414, 0.0, 10.01374, 9.975462 
6.5262175e+3, 1.6515881e+2, -1331703.5, -1369833.6, 161.39786, 0.0014782276, 0.00018967448, -1331702.9, -10257.997, 0.0, 10.013771, 9.963356 
6.526215e+3, 1.7512222e+2, -1233769.8, -1272239.9, 145.16806, 0.0014766719, 0.000086874, -1233769.3, -9965.77, 0.0, 10.0138035, 9.962944 
6.526213e+3, 1.8507898e+2, -1145709.1, -1193737.0, 193.22935, 0.0014769061, 0.0002298524, -1145708.3, -19481.057, 0.0, 10.013841, 9.950476 
6.5262115e+3, 1.9502948e+2, -1047570.8, -1095894.0, 174.50085, 0.0014788342, 0.0000931481, -1047570.2, -18857.941, 0.0, 10.013883, 9.950132 
6.52621e+3, 2.0497316e+2, -959670.5, -1018070.06, 206.86049, 0.0014790491, 0.00021304685, -959669.75, -28405.514, 0.0, 10.013925, 9.93703 
6.5262085e+3, 2.1491022e+2, -861394.7, -920089.7, 189.18033, 0.0014775466, 0.000019757472, -861394.06, -27513.113, 0.0, 10.013967, 9.936687 
6.526207e+3, 2.2484055e+2, -773181.5, -842030.5, 208.51826, 0.001477614, 0.00026534995, -773180.9, -36617.023, 0.0, 10.0140085, 9.923538 
6.526205e+3, 2.3476413e+2, -674760.1, -743897.9, 186.71062, 0.0014793169, 0.000049463037, -674759.56, -35447.05, 0.0, 10.0140505, 9.923205 
6.526204e+3, 2.4468075e+2, -586501.1, -666142.56, 196.16971, 0.0014796561, 0.00020823574, -586500.6, -44370.85, 0.0, 10.014092, 9.909666 
6.526202e+3, 2.545905e+2, -487764.1, -567516.7, 172.89546, 0.0014784599, 0.000023689337, -487763.72, -42749.816, 0.0, 10.0141325, 9.909562 
6.526201e+3, 2.6449317e+2, -399611.06, -490386.78, 167.92285, 0.001478274, 0.00026743644, -399610.75, -51642.727, 0.0, 10.014172, 9.895371 
6.5261996e+3, 2.7438906e+2, -300352.0, -390832.5, 141.91507, 0.0014792806, -0.00008076031, -300351.78, -49363.758, 0.0, 10.014208, 9.895784 
6.5261984e+3, 2.8427684e+2, -213706.22, -317243.84, 120.88818, 0.0014795813, 0.00034830676, -213706.08, -59618.42, 0.0, 10.014243, 9.879063 
6.5261966e+3, 2.9415697e+2, -114015.664, -216954.44, 94.692894, 0.0014789412, -0.00013664969, -114015.58, -56753.184, 0.0, 10.014277, 9.879858 
6.5261954e+3, 3.040647e+2, -24926.723, -85142.086, 55.552586, 0.0014789199, 0.0002841925, -24926.672, -24926.672, 0.0, 10.014308, 9.935023 
6.5261936e+3, 3.1400153e+2, -23875.059, -83008.75, 22.285418, 0.0014798059, 0.00004622301, -23875.049, -23875.049, 0.0, 10.014332, 9.936452 
6.53624e+3, 1.2524575e+2, -1702786.4, -1721740.4, 49.33382, 0.0014819577, 0.00021797343, -1702786.3, 9806.83, 0.0, 10.013664, 9.988533 
6.5362376e+3, 1.3523413e+2, -1605452.6, -1625014.5, 37.992043, 0.0014880147, 0.00003933156, -1605452.5, 9254.294, 0.0, 10.013683, 9.987749 
6.5362346e+3, 1.4521591e+2, -1517465.1, -1545961.0, 119.321625, 0.0014881815, 0.00030011308, -1517464.6, -579.29626, 0.0, 10.013709, 9.975954 
6.536233e+3, 1.5519185e+2, -1419763.4, -1448686.3, 105.40492, 0.0014828386, 0.00010922641, -1419763.0, -641.80096, 0.0, 10.01374, 9.975423 
6.536231e+3, 1.6516115e+2, -1331738.5, -1369902.5, 171.22978, 0.0014830371, 0.00019005396, -1331737.8, -10315.739, 0.0, 10.013772, 9.963313 
6.536229e+3, 1.7512451e+2, -1233803.1, -1272307.9, 155.04279, 0.0014884267, 0.000085726286, -1233802.5, -10021.538, 0.0, 10.013805, 9.9629 
6.536227e+3, 1.8508123e+2, -1145746.5, -1193813.8, 206.76329, 0.0014888815, 0.00022899997, -1145745.6, -19540.38, 0.0, 10.013843, 9.950426 
6.5362257e+3, 1.9503167e+2, -1047607.94, -1095970.4, 188.09839, 0.0014845824, 0.00009433661, -1047607.2, -18916.484, 0.0, 10.013885, 9.950083 
6.536224e+3, 2.049753e+2, -959705.3, -1018142.7, 220.4073, 0.001484229, 0.00021430863, -959704.44, -28461.305, 0.0, 10.013927, 9.936983 
6.536222e+3, 2.1491233e+2, -861428.56, -920161.7, 202.69983, 0.0014878033, 0.000019128758, -861427.9, -27567.518, 0.0, 10.013969, 9.93664 
6.536221e+3, 2.248426e+2, -773223.56, -842119.9, 222.01477, 0.0014886446, 0.00026425323, -773222.8, -36679.094, 0.0, 10.014011, 9.92348 
6.536219e+3, 2.3476613e+2, -674801.2, -743986.75, 200.24744, 0.0014866071, 0.00004939033, -674800.6, -35507.58, 0.0, 10.014053, 9.923146 
6.536218e+3, 2.4468267e+2, -586544.7, -666237.44, 209.42226, 0.0014861611, 0.00020858215, -586544.1, -44433.24, 0.0, 10.014095, 9.909603 
6.536216e+3, 2.545924e+2, -487807.0, -567611.1, 186.13411, 0.0014874735, 0.00002378215, -487806.56, -42810.97, 0.0, 10.014136, 9.909499 
6.5362155e+3, 2.6449496e+2, -399657.66, -490490.13, 179.61272, 0.0014881432, 0.00026703445, -399657.3, -51706.95, 0.0, 10.014175, 9.895303 
6.536214e+3, 2.7439082e+2, -300397.28, -390935.22, 153.63745, 0.0014880284, -0.00008194546, -300397.03, -49425.965, 0.0, 10.014213, 9.895715 
6.5362126e+3, 2.8427854e+2, -213749.36, -317343.5, 131.81848, 0.0014877763, 0.0003476744, -213749.19, -59677.83, 0.0, 10.014248, 9.878995 
6.536211e+3, 2.941586e+2, -114058.34, -217053.39, 105.38678, 0.001487323, -0.00013501232, -114058.234, -56811.492, 0.0, 10.014282, 9.87979 
6.53621e+3, 3.040662e+2, -24979.174, -85262.266, 62.719925, 0.0014875189, 0.00028566216, -24979.107, -24979.107, 0.0, 10.014313, 9.93494 
6.5362084e+3, 3.1400296e+2, -23927.37, -83130.59, 29.344938, 0.0014886631, 0.000044070803, -23927.354, -23927.354, 0.0, 10.014338, 9.936367 
6.5462536e+3, 1.2524821e+2, -1702528.5, -1721640.4, 46.589985, 0.0014914281, 0.00021775319, -1702528.4, 10040.556, 0.0, 10.013842, 9.988501 
6.546251e+3, 1.3523656e+2, -1605179.1, -1624907.0, 35.613327, 0.0014949612, 0.000039369505, -1605179.0, 9504.0, 0.0, 10.013871, 9.987716 
6.546249e+3, 1.4521831e+2, -1517185.1, -1545857.1, 120.22063, 0.0014952103, 0.00030005517, -1517184.6, -322.8013, 0.0, 10.013904, 9.975916 
6.5462464e+3, 1.551942e+2, -1419477.0, -1448579.8, 106.307526, 0.0014923186, 0.00010874607, -1419476.6, -378.45715, 0.0, 10.01394, 9.975384 
6.5462446e+3, 1.6516347e+2, -1331444.0, -1369797.8, 174.24207, 0.0014925573, 0.000189596, -1331443.3, -10043.979, 0.0, 10.01398, 9.963269 
6.5462434e+3, 1.7512679e+2, -1233492.8, -1272195.5, 157.98862, 0.0014957471, 0.00008570536, -1233492.1, -9733.399, 0.0, 10.014025, 9.962856 
6.546241e+3, 1.8508345e+2, -1145428.8, -1193704.5, 211.89311, 0.0014960808, 0.00022905711, -1145427.9, -19244.404, 0.0, 10.0140705, 9.950377 
6.54624e+3, 1.9503386e+2, -1047283.4, -1095858.4, 193.43376, 0.0014936475, 0.0000941294, -1047282.6, -18613.217, 0.0, 10.014118, 9.950034 
6.546238e+3, 2.0497744e+2, -959370.25, -1018024.94, 226.32349, 0.0014935947, 0.00021408872, -959369.4, -28147.088, 0.0, 10.014167, 9.936935 
6.546236e+3, 2.149144e+2, -861082.1, -920039.0, 208.12862, 0.0014959119, 0.000019148518, -861081.44, -27241.428, 0.0, 10.014218, 9.936592 
6.546235e+3, 2.2484462e+2, -772873.5, -842008.6, 227.14932, 0.001496414, 0.00026421747, -772872.75, -36348.87, 0.0, 10.014269, 9.923421 
6.546233e+3, 2.347681e+2, -674439.6, -743870.75, 205.23425, 0.001494998, 0.00004899014, -674439.0, -35165.246, 0.0, 10.01432, 9.923087 
6.546232e+3, 2.4468458e+2, -586176.1, -666124.3, 213.21664, 0.00149493, 0.00020821166, -586175.56, -44083.367, 0.0, 10.01437, 9.909539 
6.546231e+3, 2.5459424e+2, -487430.28, -567495.1, 189.32257, 0.001496349, 0.000023878682, -487429.84, -42452.28, 0.0, 10.014418, 9.909435 
6.54623e+3, 2.6449674e+2, -399273.25, -490376.78, 181.82042, 0.0014967541, 0.00026713416, -399272.88, -51339.92, 0.0, 10.014465, 9.895234 
6.546228e+3, 2.7439252e+2, -299999.7, -390816.7, 155.9384, 0.0014959306, -0.000082394006, -299999.4, -49045.07, 0.0, 10.014512, 9.895646 
6.5462273e+3, 2.8428015e+2, -213342.84, -317223.72, 131.04001, 0.001495877, 0.00034723678, -213342.69, -59287.355, 0.0, 10.014556, 9.878923 
6.5462255e+3, 2.9416016e+2, -113647.61, -216932.92, 102.34348, 0.0014967935, -0.00013471306, -113647.51, -56416.105, 0.0, 10.014594, 9.879719 
6.5462244e+3, 3.0406773e+2, -24569.398, -85155.77, 57.140087, 0.0014970495, 0.00028611862, -24569.346, -24569.346, 0.0, 10.014632, 9.934858 
6.5462226e+3, 3.1400436e+2, -23501.584, -83017.55, 24.416286, 0.001496405, 0.00004388821, -23501.574, -23501.574, 0.0, 10.014668, 9.936284 
6.556267e+3, 1.2525067e+2, -1702557.6, -1721694.1, 54.896523, 0.0015040762, 0.00021735816, -1702557.5, 9987.389, 0.0, 10.013841, 9.988467 
6.5562654e+3, 1.3523899e+2, -1605207.6, -1624960.4, 43.951756, 0.0014987862, 0.00004015025, -1605207.5, 9451.81, 0.0, 10.013871, 9.987682 
6.556263e+3, 1.4522068e+2, -1517218.0, -1545919.8, 130.86375, 0.0014992327, 0.00030056623, -1517217.5, -378.91666, 0.0, 10.013905, 9.975877 
6.5562606e+3, 1.5519655e+2, -1419508.8, -1448641.8, 117.0684, 0.0015047633, 0.000107663676, -1419508.3, -433.10483, 0.0, 10.013941, 9.975345 
6.556259e+3, 1.6516577e+2, -1331479.0, -1369866.9, 188.21881, 0.0015049959, 0.00018860414, -1331478.1, -10101.347, 0.0, 10.013981, 9.963225 
6.556257e+3, 1.7512904e+2, -1233527.0, -1272264.1, 171.98079, 0.0015003441, 0.00008637025, -1233526.3, -9789.65, 0.0, 10.014026, 9.962812 
6.556255e+3, 1.8508567e+2, -1145466.4, -1193780.6, 227.127, 0.0015003545, 0.00022966434, -1145465.4, -19303.596, 0.0, 10.014071, 9.950329 
6.556254e+3, 1.9503601e+2, -1047320.1, -1095933.8, 208.69868, 0.0015047947, 0.00009303524, -1047319.2, -18671.002, 0.0, 10.01412, 9.949985 
6.556252e+3, 2.0497955e+2, -959406.1, -1018099.7, 242.87352, 0.0015055743, 0.00021293105, -959405.1, -28203.492, 0.0, 10.014169, 9.936887 
6.5562505e+3, 2.1491647e+2, -861117.1, -920113.1, 224.68243, 0.0015027068, 0.000019557643, -861116.25, -27296.5, 0.0, 10.01422, 9.936543 
6.556249e+3, 2.2484662e+2, -772916.0, -842098.56, 243.81544, 0.001502189, 0.00026482888, -772915.1, -36410.965, 0.0, 10.014272, 9.923363 
6.556248e+3, 2.3477004e+2, -674481.5, -743960.25, 221.9354, 0.0015041152, 0.00004837438, -674480.75, -35226.125, 0.0, 10.014322, 9.923028 
6.556247e+3, 2.4468647e+2, -586221.2, -666221.6, 228.81898, 0.0015051413, 0.00020738023, -586220.56, -44146.855, 0.0, 10.014373, 9.909475 
6.556245e+3, 2.5459605e+2, -487473.97, -567591.7, 204.92108, 0.0015051521, 0.000023957706, -487473.47, -42513.793, 0.0, 10.014421, 9.90937 
6.556244e+3, 2.644985e+2, -399319.2, -490479.16, 197.26424, 0.0015046023, 0.00026753274, -399318.78, -51403.05, 0.0, 10.014469, 9.895165 
6.556243e+3, 2.7439418e+2, -300045.28, -390918.8, 171.32127, 0.0015033683, -0.0000823805, -300044.97, -49107.2, 0.0, 10.014516, 9.895577 
6.556241e+3, 2.8428176e+2, -213390.72, -317331.9, 143.37323, 0.0015039816, 0.0003469231, -213390.52, -59351.063, 0.0, 10.01456, 9.878851 
6.5562403e+3, 2.9416168e+2, -113693.76, -217040.28, 114.647736, 0.0015069512, -0.00013529236, -113693.63, -56477.37, 0.0, 10.0146, 9.879645 
6.5562385e+3, 3.040692e+2, -24619.46, -85272.414, 68.64447, 0.0015071668, 0.0002859085, -24619.383, -24619.383, 0.0, 10.014638, 9.934777 
6.556238e+3, 3.1400576e+2, -23552.693, -83135.54, 35.604855, 0.0015035296, 0.000044938177, -23552.672, -23552.672, 0.0, 10.014673, 9.936202 
6.5662813e+3, 1.2525308e+2, -1702303.4, -1721595.5, 49.28802, 0.0015111229, 0.00021691518, -1702303.3, 10217.967, 0.0, 10.014015, 9.988435 
6.566279e+3, 1.3524136e+2, -1604942.4, -1624856.6, 38.517227, 0.0015079927, 0.000040035393, -1604942.4, 9693.693, 0.0, 10.014052, 9.98765 
6.566277e+3, 1.4522304e+2, -1516944.5, -1545818.4, 128.42221, 0.0015084943, 0.00030049603, -1516944.0, -128.42534, 0.0, 10.014094, 9.975839 
6.566275e+3, 1.5519886e+2, -1419221.6, -1448533.9, 115.14564, 0.0015121589, 0.00010737576, -1419221.1, -168.55722, 0.0, 10.01414, 9.975307 
6.566273e+3, 1.6516803e+2, -1331184.0, -1369762.1, 189.1806, 0.0015123555, 0.0001882769, -1331183.0, -9828.487, 0.0, 10.01419, 9.9631815 
6.566271e+3, 1.7513128e+2, -1233221.0, -1272154.4, 172.8349, 0.0015093646, 0.00008617123, -1233220.3, -9505.464, 0.0, 10.014242, 9.962769 
6.5662694e+3, 1.8508783e+2, -1145152.4, -1193673.0, 229.31587, 0.0015095063, 0.00022946532, -1145151.4, -19010.896, 0.0, 10.014297, 9.95028 
6.566268e+3, 1.9503814e+2, -1046993.94, -1095820.8, 210.84111, 0.0015126158, 0.00009271435, -1046993.06, -18365.682, 0.0, 10.014354, 9.949936 
6.5662664e+3, 2.0498163e+2, -959067.6, -1017981.25, 246.07881, 0.0015132105, 0.00021263133, -959066.6, -27885.37, 0.0, 10.014412, 9.936838 
6.566265e+3, 2.1491851e+2, -860766.9, -919989.56, 227.60934, 0.0015112965, 0.000019424242, -860766.0, -26966.143, 0.0, 10.014472, 9.936495 
6.5662634e+3, 2.248486e+2, -772562.3, -841985.8, 246.28648, 0.0015111383, 0.00026471677, -772561.44, -36076.613, 0.0, 10.014531, 9.923304 
6.566262e+3, 2.3477195e+2, -674117.9, -743843.6, 224.19048, 0.0015128034, 0.000048131962, -674117.1, -34881.285, 0.0, 10.01459, 9.922969 
6.566261e+3, 2.4468832e+2, -585849.06, -666107.94, 230.42416, 0.0015134218, 0.0002070676, -585848.44, -43792.92, 0.0, 10.014649, 9.90941 
6.56626e+3, 2.5459784e+2, -487087.56, -567472.0, 206.15895, 0.0015128606, 0.000023640217, -487087.03, -42144.92, 0.0, 10.014709, 9.909306 
6.566258e+3, 2.645002e+2, -398925.16, -490362.63, 196.4006, 0.0015127523, 0.0002673865, -398924.72, -51025.887, 0.0, 10.014766, 9.895095 
6.5662575e+3, 2.7439585e+2, -299644.75, -390800.53, 169.34073, 0.0015131669, -0.0000821432, -299644.44, -48722.875, 0.0, 10.014819, 9.895507 
6.566256e+3, 2.8428337e+2, -212979.58, -317211.1, 139.49797, 0.0015135783, 0.00034699962, -212979.39, -58955.445, 0.0, 10.014872, 9.878778 
6.566255e+3, 2.941632e+2, -113266.64, -216912.97, 111.186745, 0.0015139559, -0.00013607641, -113266.52, -56065.06, 0.0, 10.014923, 9.879574 
6.566254e+3, 3.0407062e+2, -24192.94, -85161.375, 61.69838, 0.0015141008, 0.00028504277, -24192.877, -24192.877, 0.0, 10.014971, 9.934692 
6.566253e+3, 3.140071e+2, -23121.813, -83023.84, 25.774143, 0.0015139587, 0.00004512011, -23121.803, -23121.803, 0.0, 10.01501, 9.936116 
6.5762955e+3, 1.2525547e+2, -1702332.6, -1721648.9, 60.257645, 0.0015147639, 0.00021642525, -1702332.5, 10165.337, 0.0, 10.014014, 9.988402 
6.576293e+3, 1.3524373e+2, -1604971.1, -1624909.6, 49.603962, 0.0015205035, 0.000039338174, -1604971.0, 9641.878, 0.0, 10.014052, 9.9876175 
6.576291e+3, 1.4522538e+2, -1516976.8, -1545879.0, 142.53648, 0.0015209669, 0.00030003994, -1516976.0, -183.29037, 0.0, 10.014094, 9.975801 
6.576289e+3, 1.5520114e+2, -1419252.6, -1448593.9, 129.24316, 0.0015164734, 0.000107564876, -1419252.1, -221.91478, 0.0, 10.014141, 9.975269 
6.576287e+3, 1.6517028e+2, -1331219.5, -1369831.9, 205.77971, 0.001516625, 0.0001883482, -1331218.5, -9885.947, 0.0, 10.014191, 9.963138 
6.5762854e+3, 1.7513347e+2, -1233256.0, -1272223.6, 189.53221, 0.0015211245, 0.00008541523, -1233255.0, -9561.818, 0.0, 10.014243, 9.962725 
6.5762836e+3, 1.8508999e+2, -1145190.5, -1193749.4, 247.67479, 0.001521671, 0.0002287467, -1145189.3, -19069.908, 0.0, 10.014298, 9.950232 
6.5762824e+3, 1.9504026e+2, -1047030.9, -1095896.3, 229.20293, 0.001518413, 0.00009285738, -1047029.8, -18423.092, 0.0, 10.014356, 9.949887 
6.5762806e+3, 2.0498368e+2, -959104.25, -1018057.2, 265.70615, 0.001518205, 0.00021284865, -959103.06, -27941.994, 0.0, 10.014414, 9.936789 
6.5762794e+3, 2.149205e+2, -860802.94, -920065.06, 247.26285, 0.0015210228, 0.000018931367, -860801.9, -27021.734, 0.0, 10.014474, 9.936445 
6.576278e+3, 2.2485055e+2, -772605.56, -842076.7, 265.62424, 0.0015220677, 0.0002641334, -772604.56, -36138.895, 0.0, 10.014534, 9.9232435 
6.576277e+3, 2.3477386e+2, -674159.9, -743933.75, 243.51259, 0.0015212443, 0.00004810641, -674159.06, -34941.78, 0.0, 10.014593, 9.92291 
6.576276e+3, 2.4469015e+2, -585894.7, -666206.44, 249.91777, 0.001520539, 0.00020706389, -585893.9, -43856.355, 0.0, 10.014653, 9.909346 
6.5762746e+3, 2.545996e+2, -487132.56, -567570.1, 225.69418, 0.0015199496, 0.000023063847, -487131.9, -42207.13, 0.0, 10.014712, 9.909241 
6.5762734e+3, 2.6450193e+2, -398973.75, -490469.47, 213.82182, 0.0015211393, 0.0002668844, -398973.25, -51091.082, 0.0, 10.01477, 9.895024 
6.576272e+3, 2.743975e+2, -299692.1, -390906.72, 186.72072, 0.0015244298, -0.00008179967, -299691.7, -48786.09, 0.0, 10.014823, 9.895435 
6.576271e+3, 2.8428492e+2, -213025.94, -317316.72, 156.39398, 0.001524106, 0.0003472983, -213025.7, -59017.008, 0.0, 10.014876, 9.878707 
6.57627e+3, 2.9416472e+2, -113312.37, -217017.95, 127.948, 0.0015190893, -0.00013698627, -113312.21, -56125.297, 0.0, 10.014928, 9.879502 
6.5762687e+3, 3.0407202e+2, -24248.57, -85288.04, 74.25754, 0.001519153, 0.00028378307, -24248.48, -24248.48, 0.0, 10.014975, 9.934605 
6.5762675e+3, 3.140084e+2, -23177.404, -83152.266, 38.21274, 0.0015264365, 0.000044717854, -23177.38, -23177.38, 0.0, 10.015016, 9.936027 
6.586309e+3, 1.2525782e+2, -1702084.4, -1721552.0, 51.47372, 0.0015236983, 0.00021623968, -1702084.1, 10390.613, 0.0, 10.014184, 9.988371 
6.586307e+3, 1.3524604e+2, -1604711.8, -1624807.6, 41.463562, 0.0015279363, 0.000038512368, -1604711.6, 9878.525, 0.0, 10.01423, 9.987586 
6.586305e+3, 1.4522764e+2, -1516709.3, -1545781.0, 138.17488, 0.0015283833, 0.0002993057, -1516708.6, 61.77151, 0.0, 10.014281, 9.975762 
6.586303e+3, 1.5520339e+2, -1418969.8, -1448488.4, 124.530876, 0.0015252134, 0.00010758413, -1418969.3, 38.9005, 0.0, 10.0143385, 9.975231 
6.5863013e+3, 1.6517249e+2, -1330926.9, -1369727.6, 202.93326, 0.0015254652, 0.00018840292, -1330925.9, -9614.956, 0.0, 10.014398, 9.963095 
6.5862995e+3, 1.7513564e+2, -1232951.6, -1272114.0, 187.05873, 0.0015289331, 0.00008484181, -1232950.8, -9278.66, 0.0, 10.014459, 9.962682 
6.5862983e+3, 1.850921e+2, -1144877.3, -1193642.6, 247.3108, 0.0015294466, 0.00022816533, -1144876.0, -18777.482, 0.0, 10.014523, 9.950182 
6.586297e+3, 1.9504231e+2, -1046703.3, -1095782.9, 228.61397, 0.0015271052, 0.000092861075, -1046702.25, -18115.78, 0.0, 10.01459, 9.949839 
6.5862954e+3, 2.0498571e+2, -958763.94, -1017938.3, 265.5206, 0.001527042, 0.00021286593, -958762.75, -27621.457, 0.0, 10.014658, 9.936739 
6.586294e+3, 2.1492247e+2, -860452.1, -919941.75, 246.93222, 0.0015292385, 0.000018397657, -860451.06, -26690.195, 0.0, 10.014727, 9.936396 
6.586293e+3, 2.2485246e+2, -772250.0, -841964.2, 265.35123, 0.0015300408, 0.0002635616, -772249.0, -35802.066, 0.0, 10.014795, 9.923183 
6.586292e+3, 2.347757e+2, -673789.6, -743814.94, 242.69885, 0.0015293693, 0.00004803284, -673788.75, -34589.652, 0.0, 10.014866, 9.92285 
6.5862906e+3, 2.4469194e+2, -585515.2, -666089.9, 248.02124, 0.0015291092, 0.0002071089, -585514.44, -43494.445, 0.0, 10.0149355, 9.90928 
6.5862894e+3, 2.5460133e+2, -486743.16, -567449.8, 223.47226, 0.0015292902, 0.000022804245, -486742.53, -41834.637, 0.0, 10.015002, 9.909175 
6.586288e+3, 2.6450357e+2, -398575.94, -490352.56, 209.9091, 0.0015300708, 0.00026641286, -398575.44, -50709.484, 0.0, 10.015069, 9.894953 
6.586287e+3, 2.7439907e+2, -299279.94, -390784.2, 182.48279, 0.0015315472, -0.00008236981, -299279.56, -48389.46, 0.0, 10.015134, 9.895363 
6.5862864e+3, 2.8428644e+2, -212602.7, -317192.03, 149.7473, 0.001531462, 0.0003469846, -212602.48, -58608.594, 0.0, 10.015197, 9.8786335 
6.586285e+3, 2.9416615e+2, -112881.33, -216890.86, 119.63637, 0.0015293298, -0.00013658317, -112881.19, -55708.36, 0.0, 10.015256, 9.879428 
6.5862834e+3, 3.0407336e+2, -23816.568, -85174.96, 62.864426, 0.001529567, 0.00028411407, -23816.504, -23816.504, 0.0, 10.015312, 9.934519 
6.586283e+3, 3.1400967e+2, -22728.12, -83032.09, 27.652163, 0.0015332006, 0.00004389683, -22728.107, -22728.107, 0.0, 10.015365, 9.93594 
6.596323e+3, 1.2526013e+2, -1702113.3, -1721603.3, 64.95017, 0.0015358382, 0.00021620835, -1702113.0, 10339.07, 0.0, 10.014183, 9.98834 
6.5963215e+3, 1.3524832e+2, -1604739.0, -1624857.9, 55.002556, 0.0015322944, 0.000037601243, -1604738.9, 9828.899, 0.0, 10.01423, 9.9875555 
6.596319e+3, 1.452299e+2, -1516742.3, -1545843.4, 155.93604, 0.0015327488, 0.00029839456, -1516741.5, 6.838416, 0.0, 10.014281, 9.975724 
6.596317e+3, 1.5520559e+2, -1419002.6, -1448550.5, 142.41852, 0.001536663, 0.0001074661, -1419001.9, -15.430993, 0.0, 10.0143385, 9.975193 
6.596316e+3, 1.6517465e+2, -1330962.5, -1369796.0, 222.45912, 0.0015370973, 0.000188413, -1330961.1, -9671.562, 0.0, 10.014398, 9.963052 
6.596314e+3, 1.7513776e+2, -1232985.6, -1272181.5, 206.59196, 0.0015343529, 0.00008436409, -1232984.5, -9333.371, 0.0, 10.01446, 9.962639 
6.5963125e+3, 1.850942e+2, -1144915.9, -1193719.9, 269.24927, 0.0015345735, 0.0002276553, -1144914.4, -18836.229, 0.0, 10.014524, 9.950133 
6.5963113e+3, 1.9504435e+2, -1046741.44, -1095859.6, 250.60258, 0.0015375881, 0.000092749106, -1046740.1, -18173.64, 0.0, 10.014591, 9.949789 
6.59631e+3, 2.0498769e+2, -958801.5, -1018015.2, 287.81674, 0.001538244, 0.00021273109, -958800.1, -27678.307, 0.0, 10.01466, 9.936689 
6.5963084e+3, 2.1492441e+2, -860488.4, -920017.7, 269.21332, 0.001536556, 0.00001782171, -860487.1, -26745.24, 0.0, 10.014729, 9.936346 
6.596308e+3, 2.2485435e+2, -772294.2, -842057.1, 288.57227, 0.00153624, 0.0002629816, -772293.0, -35864.55, 0.0, 10.014798, 9.923123 
6.5963066e+3, 2.3477753e+2, -673833.25, -743907.5, 265.98157, 0.0015373387, 0.000047904177, -673832.2, -34650.95, 0.0, 10.014869, 9.922789 
6.5963054e+3, 2.446937e+2, -585561.9, -666189.7, 270.27676, 0.0015386, 0.00020715418, -585561.0, -43558.227, 0.0, 10.014938, 9.909214 
6.596304e+3, 2.5460303e+2, -486788.8, -567549.0, 245.70334, 0.0015400251, 0.000022717484, -486788.06, -41896.734, 0.0, 10.015006, 9.909109 
6.596303e+3, 2.6450518e+2, -398624.94, -490460.16, 231.30809, 0.0015393591, 0.0002659457, -398624.38, -50774.316, 0.0, 10.015073, 9.89488 
6.5963024e+3, 2.744006e+2, -299327.94, -390891.25, 203.84972, 0.0015361888, -0.00008351201, -299327.47, -48452.57, 0.0, 10.015138, 9.895291 
6.596301e+3, 2.842879e+2, -212652.33, -317303.88, 168.98776, 0.0015369408, 0.00034628384, -212652.05, -58672.633, 0.0, 10.015201, 9.878558 
6.5963e+3, 2.9416755e+2, -112930.13, -217002.23, 138.82164, 0.0015427131, -0.00013542095, -112929.95, -55770.863, 0.0, 10.01526, 9.879353 
6.5962994e+3, 3.040747e+2, -23869.996, -85297.09, 79.86579, 0.0015432748, 0.0002853931, -23869.893, -23869.893, 0.0, 10.015317, 9.934434 
6.5962976e+3, 3.1401092e+2, -22781.313, -83155.06, 44.20636, 0.0015365381, 0.00004282177, -22781.28, -22781.28, 0.0, 10.01537, 9.935854 
6.606338e+3, 1.252624e+2, -1701876.5, -1721511.9, 52.96673, 0.0015433035, 0.00021563939, -1701876.4, 10553.496, 0.0, 10.014345, 9.98831 
6.6063356e+3, 1.3525057e+2, -1604482.4, -1624756.6, 43.050407, 0.001540848, 0.000037814363, -1604482.3, 10063.6455, 0.0, 10.014405, 9.987524 
6.606333e+3, 1.452321e+2, -1516475.8, -1545744.8, 146.89668, 0.001541402, 0.0002985432, -1516475.0, 251.73654, 0.0, 10.014467, 9.975687 
6.606332e+3, 1.5520777e+2, -1418725.8, -1448447.3, 134.0965, 0.0015445129, 0.00010677851, -1418725.1, 240.16927, 0.0, 10.014531, 9.975155 
6.60633e+3, 1.6517678e+2, -1330675.8, -1369695.1, 217.12396, 0.0015449242, 0.00018764188, -1330674.6, -9405.732, 0.0, 10.014601, 9.963009 
6.6063285e+3, 1.7513984e+2, -1232680.9, -1272071.9, 200.8875, 0.0015428778, 0.000084209074, -1232679.9, -9049.027, 0.0, 10.014675, 9.962596 
6.606327e+3, 1.8509622e+2, -1144601.1, -1193612.3, 264.4883, 0.0015431483, 0.0002275668, -1144599.6, -18541.412, 0.0, 10.01475, 9.950084 
6.606326e+3, 1.9504634e+2, -1046416.2, -1095747.4, 245.94948, 0.0015455942, 0.000092203816, -1046414.94, -17867.877, 0.0, 10.014825, 9.94974 
6.606325e+3, 2.0498963e+2, -958463.1, -1017898.3, 284.3122, 0.0015462333, 0.00021215377, -958461.8, -27358.904, 0.0, 10.014903, 9.93664 
6.606324e+3, 2.1492629e+2, -860133.4, -919893.25, 265.25555, 0.001545075, 0.000017637747, -860132.2, -26408.75, 0.0, 10.014984, 9.936296 
6.6063225e+3, 2.2485617e+2, -771932.8, -841942.4, 284.3594, 0.001544927, 0.0002628487, -771931.6, -35521.086, 0.0, 10.015064, 9.923062 
6.6063213e+3, 2.347793e+2, -673460.3, -743788.0, 261.63882, 0.0015458169, 0.00004746555, -673459.3, -34295.375, 0.0, 10.015143, 9.922728 
6.60632e+3, 2.4469541e+2, -585180.0, -666073.06, 264.92752, 0.0015468333, 0.00020666512, -585179.1, -43193.02, 0.0, 10.015223, 9.909147 
6.6063195e+3, 2.5460467e+2, -486393.13, -567426.75, 239.79787, 0.0015479728, 0.000022459233, -486392.4, -41517.105, 0.0, 10.015301, 9.909042 
6.6063184e+3, 2.645068e+2, -398219.25, -490340.66, 223.90273, 0.0015476063, 0.00026582327, -398218.72, -50384.008, 0.0, 10.015378, 9.894808 
6.606317e+3, 2.744021e+2, -298908.94, -390766.66, 195.76741, 0.0015454306, -0.00008360932, -298908.53, -48048.258, 0.0, 10.015454, 9.895218 
6.6063166e+3, 2.8428933e+2, -212221.78, -317177.53, 157.87085, 0.0015460652, 0.00034601017, -212221.53, -58256.027, 0.0, 10.015527, 9.878483 
6.6063154e+3, 2.941689e+2, -112488.43, -216871.92, 127.305595, 0.0015502869, -0.00013612547, -112488.27, -55342.348, 0.0, 10.015595, 9.879276 
6.606314e+3, 3.0407596e+2, -23426.76, -85181.83, 65.959045, 0.0015507934, 0.00028491745, -23426.69, -23426.69, 0.0, 10.015662, 9.934346 
6.6063136e+3, 3.1401208e+2, -22322.105, -83033.47, 27.609268, 0.0015461135, 0.000043537762, -22322.094, -22322.094, 0.0, 10.015727, 9.935764 
6.616352e+3, 1.2526461e+2, -1701905.0, -1721562.9, 71.37796, 0.001547965, 0.0002147237, -1701904.8, 10503.381, 0.0, 10.014344, 9.988278 
6.61635e+3, 1.3525274e+2, -1604511.0, -1624807.8, 61.518337, 0.0015519389, 0.000038659902, -1604510.8, 10013.601, 0.0, 10.014404, 9.9874935 
6.616348e+3, 1.4523426e+2, -1516508.4, -1545804.6, 167.09956, 0.0015526463, 0.0002992881, -1516507.5, 198.11798, 0.0, 10.014466, 9.975651 
6.616347e+3, 1.5520988e+2, -1418756.6, -1448505.9, 154.3391, 0.0015502049, 0.000105726576, -1418755.8, 188.71811, 0.0, 10.014532, 9.975119 
6.6163445e+3, 1.6517887e+2, -1330711.9, -1369765.0, 241.0833, 0.0015504749, 0.0001863846, -1330710.4, -9461.906, 0.0, 10.014602, 9.962965 
6.616343e+3, 1.7514187e+2, -1232716.8, -1272141.4, 224.899, 0.0015532986, 0.00008421807, -1232715.5, -9104.686, 0.0, 10.014675, 9.962552 
6.616342e+3, 1.8509822e+2, -1144640.4, -1193689.5, 288.94907, 0.0015538238, 0.00022770045, -1144638.6, -18599.97, 0.0, 10.0147505, 9.950035 
6.616341e+3, 1.9504827e+2, -1046453.75, -1095823.5, 270.4311, 0.0015521263, 0.00009137021, -1046452.3, -17924.264, 0.0, 10.014827, 9.949692 
6.6163397e+3, 2.0499152e+2, -958501.4, -1017976.9, 310.87354, 0.0015523076, 0.00021128633, -958499.75, -27415.45, 0.0, 10.014905, 9.936588 
6.616339e+3, 2.1492814e+2, -860171.3, -919971.5, 291.8329, 0.0015543465, 0.00001766108, -860169.9, -26464.498, 0.0, 10.014985, 9.936246 
6.6163373e+3, 2.2485797e+2, -771978.1, -842036.1, 310.58856, 0.0015551449, 0.00026295596, -771976.75, -35583.688, 0.0, 10.015065, 9.923001 
6.616337e+3, 2.3478103e+2, -673504.4, -743881.0, 287.89008, 0.0015546327, 0.000046814544, -673503.25, -34356.17, 0.0, 10.015145, 9.922667 
6.616336e+3, 2.4469706e+2, -585227.7, -666174.94, 290.8627, 0.0015543378, 0.00020582833, -585226.6, -43256.85, 0.0, 10.015225, 9.9090805 
6.616335e+3, 2.5460628e+2, -486439.78, -567528.0, 265.73672, 0.0015542665, 0.000022072863, -486438.9, -41579.25, 0.0, 10.015304, 9.908975 
6.616334e+3, 2.645083e+2, -398269.75, -490450.78, 249.0331, 0.0015552605, 0.0002658832, -398269.1, -50449.332, 0.0, 10.015382, 9.894734 
6.616333e+3, 2.7440357e+2, -298959.03, -390876.56, 220.93364, 0.0015575015, -0.000083108185, -298958.5, -48112.47, 0.0, 10.015457, 9.895144 
6.616332e+3, 2.842907e+2, -212272.4, -317290.3, 180.40964, 0.0015574396, 0.00034597353, -212272.1, -58320.074, 0.0, 10.015531, 9.878407 
6.6163313e+3, 2.9417017e+2, -112536.94, -216983.48, 149.60614, 0.0015543773, -0.00013797682, -112536.72, -55403.527, 0.0, 10.0156, 9.879201 
6.61633e+3, 3.0407718e+2, -23484.297, -85313.336, 87.06254, 0.001554605, 0.0002833699, -23484.174, -23484.174, 0.0, 10.015668, 9.934255 
6.616329e+3, 3.140132e+2, -22381.576, -83167.56, 48.90798, 0.0015595304, 0.000045265493, -22381.537, -22381.537, 0.0, 10.015732, 9.935672 
6.626367e+3, 1.2526678e+2, -1701669.8, -1721471.8, 55.50591, 0.0015561486, 0.00021452167, -1701669.6, 10717.378, 0.0, 10.014505, 9.988249 
6.6263646e+3, 1.3525489e+2, -1604266.4, -1624712.3, 46.02843, 0.0015598512, 0.000037811373, -1604266.3, 10237.293, 0.0, 10.014572, 9.987463 
6.626363e+3, 1.4523634e+2, -1516253.0, -1545711.5, 155.39438, 0.0015606456, 0.00029844017, -1516252.1, 432.94632, 0.0, 10.014646, 9.975614 
6.6263616e+3, 1.5521193e+2, -1418479.1, -1448401.9, 142.43143, 0.0015586064, 0.00010546222, -1418478.4, 445.92, 0.0, 10.014725, 9.975081 
6.626359e+3, 1.6518088e+2, -1330423.5, -1369663.4, 230.84308, 0.0015588647, 0.00018624865, -1330422.1, -9193.494, 0.0, 10.014806, 9.962921 
6.6263586e+3, 1.7514384e+2, -1232418.4, -1272035.3, 214.82605, 0.0015612955, 0.00008379404, -1232417.3, -8825.727, 0.0, 10.014887, 9.962508 
6.626357e+3, 1.8510014e+2, -1144331.1, -1193585.0, 280.8086, 0.001561845, 0.00022717881, -1144329.5, -18309.729, 0.0, 10.014973, 9.9499855 
6.626356e+3, 1.9505015e+2, -1046124.9, -1095709.5, 262.0248, 0.0015605654, 0.00009093252, -1046123.5, -17613.854, 0.0, 10.015062, 9.949642 
6.626355e+3, 2.0499334e+2, -958158.2, -1017858.5, 302.71796, 0.0015607722, 0.00021089698, -958156.7, -27090.238, 0.0, 10.015152, 9.936538 
6.626354e+3, 2.1492992e+2, -859817.2, -919848.44, 283.41843, 0.0015624469, 0.000017289522, -859815.9, -26127.86, 0.0, 10.015241, 9.936194 
6.626353e+3, 2.2485968e+2, -771617.75, -841922.5, 302.43, 0.0015632631, 0.0002626023, -771616.5, -35240.285, 0.0, 10.015331, 9.92294 
6.626352e+3, 2.3478268e+2, -673127.75, -743760.25, 279.43076, 0.0015631666, 0.00004647935, -673126.6, -33995.855, 0.0, 10.015423, 9.9226055 
6.626351e+3, 2.4469866e+2, -584839.7, -666056.6, 281.37204, 0.0015629014, 0.00020549362, -584838.7, -42884.508, 0.0, 10.015514, 9.909013 
6.62635e+3, 2.546078e+2, -486037.1, -567403.6, 255.74788, 0.0015624324, 0.000021716412, -486036.28, -41191.574, 0.0, 10.015604, 9.908907 
6.6263497e+3, 2.6450974e+2, -397857.63, -490328.94, 237.05309, 0.0015634551, 0.00026546302, -397857.03, -50051.523, 0.0, 10.015692, 9.894661 
6.6263485e+3, 2.7440494e+2, -298536.66, -390751.16, 208.6885, 0.0015662304, -0.00008363894, -298536.2, -47703.69, 0.0, 10.015777, 9.895071 
6.626348e+3, 2.84292e+2, -211837.14, -317164.03, 166.50484, 0.0015662063, 0.00034561704, -211836.89, -57897.664, 0.0, 10.0158615, 9.878329 
6.6263473e+3, 2.941714e+2, -112081.53, -216848.92, 134.39627, 0.0015625416, -0.00013778805, -112081.36, -54960.207, 0.0, 10.015946, 9.879123 
6.626346e+3, 3.040783e+2, -23025.15, -85190.79, 68.13389, 0.0015627746, 0.00028320352, -23025.074, -23025.074, 0.0, 10.016025, 9.934166 
6.626345e+3, 3.140143e+2, -21916.303, -83043.27, 30.753305, 0.0015685665, 0.00004351822, -21916.287, -21916.287, 0.0, 10.016094, 9.935582 
6.636381e+3, 1.2526888e+2, -1701699.1, -1721522.3, 75.83901, 0.0015664393, 0.00021469942, -1701698.9, 10667.413, 0.0, 10.0145035, 9.988218 
6.636379e+3, 1.3525696e+2, -1604293.5, -1624761.5, 66.50873, 0.0015658651, 0.000035929053, -1604293.4, 10189.859, 0.0, 10.014571, 9.987433 
6.6363776e+3, 1.4523838e+2, -1516285.4, -1545771.9, 180.96078, 0.0015667119, 0.00029662368, -1516284.4, 380.73413, 0.0, 10.014645, 9.975576 
6.636376e+3, 1.5521394e+2, -1418511.9, -1448462.4, 168.00328, 0.0015686431, 0.00010563005, -1418510.9, 393.76724, 0.0, 10.014725, 9.975044 
6.6363746e+3, 1.6518284e+2, -1330460.5, -1369733.0, 257.08475, 0.001568967, 0.0001867413, -1330458.9, -9249.461, 0.0, 10.014805, 9.962878 
6.636373e+3, 1.7514576e+2, -1232453.4, -1272103.8, 241.14058, 0.0015678576, 0.000083077335, -1232452.0, -8879.327, 0.0, 10.014888, 9.962465 
6.636372e+3, 1.8510202e+2, -1144370.5, -1193662.9, 310.21222, 0.0015682974, 0.00022623825, -1144368.5, -18367.121, 0.0, 10.014974, 9.949936 
6.636371e+3, 1.9505198e+2, -1046164.2, -1095787.3, 291.44534, 0.0015701731, 0.000090700705, -1046162.5, -17670.754, 0.0, 10.015063, 9.949593 
6.63637e+3, 2.0499511e+2, -958198.25, -1017938.7, 331.93314, 0.0015706946, 0.00021076226, -958196.44, -27147.426, 0.0, 10.015153, 9.936486 
6.636369e+3, 2.1493164e+2, -859855.56, -919927.56, 312.66818, 0.0015698718, 0.000016645436, -859853.94, -26182.86, 0.0, 10.015243, 9.936143 
6.636368e+3, 2.2486135e+2, -771663.25, -842017.1, 332.90216, 0.0015701497, 0.00026193805, -771661.7, -35301.867, 0.0, 10.015333, 9.922878 
6.6363674e+3, 2.3478429e+2, -673172.8, -743854.5, 309.89563, 0.0015715549, 0.000046303725, -673171.44, -34056.4, 0.0, 10.015425, 9.922544 
6.636367e+3, 2.447002e+2, -584889.1, -666160.7, 311.20822, 0.0015721312, 0.00020542752, -584887.94, -42948.895, 0.0, 10.015516, 9.908944 
6.6363657e+3, 2.5460926e+2, -486085.63, -567507.1, 285.6635, 0.0015717717, 0.000021342154, -486084.63, -41254.38, 0.0, 10.015607, 9.908838 
6.636365e+3, 2.6451114e+2, -397908.88, -490439.78, 265.0496, 0.0015720188, 0.0002647248, -397908.1, -50116.36, 0.0, 10.015695, 9.8945875 
6.6363645e+3, 2.7440628e+2, -298586.22, -390861.1, 236.53464, 0.001572967, -0.000084806, -298585.63, -47766.145, 0.0, 10.01578, 9.894997 
6.636364e+3, 2.8429326e+2, -211889.7, -317281.3, 194.53941, 0.0015734308, 0.00034505408, -211889.34, -57962.41, 0.0, 10.015865, 9.87825 
6.6363627e+3, 2.9417259e+2, -112134.516, -216966.45, 162.62088, 0.0015732313, -0.00013644007, -112134.266, -55024.633, 0.0, 10.015949, 9.879044 
6.636362e+3, 3.040794e+2, -23082.375, -85318.45, 90.85613, 0.0015736413, 0.00028382824, -23082.242, -23082.242, 0.0, 10.016028, 9.934078 
6.6363615e+3, 3.1401527e+2, -21971.441, -83170.836, 52.73157, 0.0015749775, 0.00003970352, -21971.395, -21971.395, 0.0, 10.016099, 9.935493 
6.6463953e+3, 1.2527092e+2, -1701479.6, -1721438.4, 56.25202, 0.0015746709, 0.00021379428, -1701479.4, 10867.007, 0.0, 10.014655, 9.98819 
6.6463935e+3, 1.3525896e+2, -1604047.8, -1624664.4, 47.237267, 0.0015738438, 0.000035744815, -1604047.6, 10415.999, 0.0, 10.014739, 9.987404 
6.6463923e+3, 1.4524035e+2, -1516028.3, -1545678.3, 164.11336, 0.001574634, 0.0002964988, -1516027.4, 618.46924, 0.0, 10.014825, 9.975539 
6.6463906e+3, 1.5521586e+2, -1418244.8, -1448364.3, 151.12463, 0.0015766778, 0.00010496401, -1418244.0, 641.7744, 0.0, 10.014912, 9.975007 
6.6463894e+3, 1.6518474e+2, -1330181.1, -1369635.8, 242.95326, 0.0015770886, 0.00018596361, -1330179.6, -8988.795, 0.0, 10.015004, 9.962835 
6.646388e+3, 1.7514761e+2, -1232151.3, -1271995.3, 227.03284, 0.0015760426, 0.000082588616, -1232150.0, -8595.37, 0.0, 10.015101, 9.962421 
6.646387e+3, 1.8510382e+2, -1144057.0, -1193557.0, 296.80643, 0.0015765179, 0.00022589225, -1144055.3, -18071.469, 0.0, 10.015199, 9.949886 
6.6463864e+3, 1.9505373e+2, -1045840.6, -1095676.9, 277.75443, 0.0015783993, 0.00009035937, -1045839.06, -17364.492, 0.0, 10.015296, 9.949543 
6.646385e+3, 2.0499681e+2, -957860.2, -1017823.5, 319.512, 0.0015789497, 0.00021035918, -957858.5, -26826.104, 0.0, 10.015396, 9.936435 
6.646384e+3, 2.1493329e+2, -859497.06, -919802.8, 300.06107, 0.0015781783, 0.000016120082, -859495.56, -25840.633, 0.0, 10.015501, 9.936091 
6.646384e+3, 2.2486295e+2, -771296.4, -841901.56, 319.67303, 0.0015783872, 0.00026142807, -771294.94, -34950.66, 0.0, 10.015603, 9.922816 
6.646383e+3, 2.3478581e+2, -672793.56, -743733.9, 296.06522, 0.0015795982, 0.00004595288, -672792.3, -33692.242, 0.0, 10.015705, 9.922481 
6.646382e+3, 2.4470165e+2, -584499.75, -666041.94, 296.78812, 0.0015804041, 0.00020503947, -584498.6, -42573.902, 0.0, 10.015806, 9.908876 
6.6463816e+3, 2.5461066e+2, -485681.44, -567382.2, 271.28418, 0.0015807436, 0.00002069756, -485680.53, -40863.934, 0.0, 10.015908, 9.908771 
6.646381e+3, 2.6451245e+2, -397492.38, -490317.8, 248.96432, 0.001580753, 0.00026424348, -397491.7, -49712.91, 0.0, 10.016009, 9.894512 
6.6463804e+3, 2.744075e+2, -298150.78, -390731.3, 219.34131, 0.001580352, -0.0000846233, -298150.25, -47342.984, 0.0, 10.0161085, 9.894921 
6.64638e+3, 2.8429443e+2, -211441.9, -317149.53, 174.61412, 0.0015810233, 0.00034501497, -211441.61, -57526.145, 0.0, 10.016205, 9.878172 
6.6463786e+3, 2.941737e+2, -111681.016, -216833.45, 142.777, 0.0015830332, -0.00013783296, -111680.82, -54581.87, 0.0, 10.0162945, 9.878965 
6.6463786e+3, 3.0408043e+2, -22624.736, -85199.234, 69.07465, 0.0015834899, 0.00028274307, -22624.66, -22624.66, 0.0, 10.016385, 9.933987 
6.6463774e+3, 3.1401616e+2, -21483.875, -83038.484, 28.564644, 0.0015818314, 0.000041305535, -21483.861, -21483.861, 0.0, 10.016478, 9.935401 
6.65641e+3, 1.2527288e+2, -1701507.1, -1721486.9, 82.9877, 0.0015816675, 0.00021222066, -1701506.9, 10820.317, 0.0, 10.014653, 9.98816 
6.656409e+3, 1.352609e+2, -1604076.0, -1624713.3, 73.92183, 0.0015830041, 0.000036518213, -1604075.8, 10368.863, 0.0, 10.014737, 9.987374 
6.656407e+3, 1.4524226e+2, -1516062.6, -1545739.9, 191.7085, 0.0015836768, 0.0002973281, -1516061.5, 565.6701, 0.0, 10.014823, 9.975502 
6.656406e+3, 1.5521774e+2, -1418276.9, -1448424.6, 178.88377, 0.0015835282, 0.00010376695, -1418275.9, 591.60095, 0.0, 10.014911, 9.97497 
6.656404e+3, 1.6518655e+2, -1330217.4, -1369704.9, 274.89505, 0.0015840408, 0.00018440388, -1330215.4, -9042.448, 0.0, 10.015004, 9.962791 
6.6564035e+3, 1.751494e+2, -1232187.8, -1272064.4, 258.9308, 0.0015852196, 0.000082199156, -1232186.0, -8648.958, 0.0, 10.015101, 9.9623785 
6.6564023e+3, 1.8510556e+2, -1144098.5, -1193636.9, 328.4465, 0.0015858153, 0.00022586013, -1144096.4, -18129.578, 0.0, 10.015199, 9.949837 
6.656401e+3, 1.9505543e+2, -1045879.94, -1095755.4, 309.48056, 0.0015858163, 0.00008990712, -1045878.06, -17419.996, 0.0, 10.015297, 9.949492 
6.6564006e+3, 2.0499845e+2, -957899.94, -1017904.0, 353.95416, 0.0015862285, 0.00020975622, -957897.8, -26881.514, 0.0, 10.015398, 9.936383 
6.6564e+3, 2.1493486e+2, -859536.94, -919883.2, 334.4571, 0.0015870432, 0.000015632095, -859535.1, -25895.697, 0.0, 10.015501, 9.93604 
6.6563994e+3, 2.2486447e+2, -771344.56, -841999.4, 353.21326, 0.0015874683, 0.0002609753, -771342.8, -35013.543, 0.0, 10.015604, 9.922753 
6.656398e+3, 2.3478727e+2, -672840.06, -743830.7, 329.70648, 0.001587468, 0.00004545077, -672838.56, -33752.816, 0.0, 10.015707, 9.922418 
6.656398e+3, 2.4470307e+2, -584548.7, -666145.3, 330.55194, 0.0015881327, 0.0002044156, -584547.3, -42636.305, 0.0, 10.015809, 9.908809 
6.6563976e+3, 2.54612e+2, -485729.7, -567485.1, 304.97586, 0.0015895127, 0.00001987505, -485728.53, -40924.977, 0.0, 10.015911, 9.908702 
6.656397e+3, 2.6451373e+2, -397546.25, -490433.06, 282.07266, 0.0015896212, 0.0002638921, -397545.4, -49778.94, 0.0, 10.016011, 9.894436 
6.6563964e+3, 2.744087e+2, -298204.16, -390846.44, 252.60931, 0.001588202, -0.000083709754, -298203.47, -47407.81, 0.0, 10.016111, 9.894845 
6.656396e+3, 2.8429553e+2, -211495.08, -317266.22, 204.52083, 0.001588905, 0.00034523374, -211494.67, -57590.035, 0.0, 10.016208, 9.878094 
6.656396e+3, 2.9417467e+2, -111731.766, -216948.7, 172.28381, 0.0015922925, -0.00014084796, -111731.48, -54642.574, 0.0, 10.016298, 9.878886 
6.656395e+3, 3.0408135e+2, -22684.553, -85334.49, 99.1448, 0.0015927241, 0.0002806646, -22684.396, -22684.396, 0.0, 10.01639, 9.933893 
6.656394e+3, 3.1401703e+2, -21545.986, -83176.516, 58.968975, 0.0015890724, 0.00004600875, -21545.93, -21545.93, 0.0, 10.016481, 9.935306 
6.666425e+3, 1.2527476e+2, -1701286.3, -1721402.8, 58.3637, 0.0015891994, 0.00021191586, -1701286.1, 11022.645, 0.0, 10.014806, 9.988131 
6.666423e+3, 1.3526274e+2, -1603845.3, -1624624.5, 49.034904, 0.0015914048, 0.00003591384, -1603845.1, 10581.381, 0.0, 10.014896, 9.987345 
6.666422e+3, 1.4524408e+2, -1515818.6, -1545652.5, 170.45322, 0.0015921303, 0.00029664216, -1515817.6, 791.6958, 0.0, 10.014995, 9.975465 
6.6664207e+3, 1.5521951e+2, -1418006.4, -1448323.9, 158.01625, 0.0015912878, 0.000103194834, -1418005.5, 844.5245, 0.0, 10.0151, 9.974933 
6.6664195e+3, 1.651883e+2, -1329934.6, -1369606.6, 255.28514, 0.001591835, 0.00018393027, -1329932.9, -8776.944, 0.0, 10.015204, 9.962748 
6.6664183e+3, 1.751511e+2, -1231895.0, -1271961.8, 238.86234, 0.0015937191, 0.00008181519, -1231893.5, -8373.007, 0.0, 10.015309, 9.962335 
6.666418e+3, 1.8510719e+2, -1143793.0, -1193535.1, 310.20132, 0.0015942808, 0.00022538773, -1143791.0, -17840.389, 0.0, 10.015419, 9.949786 
6.666417e+3, 1.95057e+2, -1045550.5, -1095642.0, 291.28055, 0.0015935437, 0.00008917864, -1045548.8, -17106.393, 0.0, 10.015533, 9.949443 
6.666416e+3, 2.0499998e+2, -957555.56, -1017787.1, 335.6065, 0.0015940075, 0.00020910958, -957553.7, -26552.447, 0.0, 10.015647, 9.93633 
6.6664153e+3, 2.1493636e+2, -859182.7, -919762.2, 315.39706, 0.0015956515, 0.000015406209, -859181.0, -25556.22, 0.0, 10.015758, 9.9359865 
6.6664153e+3, 2.248659e+2, -770982.0, -841886.1, 334.84583, 0.0015962131, 0.00026066863, -770980.44, -34665.152, 0.0, 10.015872, 9.92269 
6.666415e+3, 2.3478866e+2, -672456.6, -743707.94, 311.53726, 0.0015956301, 0.000044543183, -672455.25, -33382.97, 0.0, 10.015989, 9.922355 
6.666414e+3, 2.4470437e+2, -584152.06, -666024.7, 310.86902, 0.0015960151, 0.0002036736, -584150.9, -42252.645, 0.0, 10.016105, 9.908739 
6.6664135e+3, 2.5461322e+2, -485318.94, -567358.7, 284.25342, 0.0015974496, 0.000020142077, -485317.97, -40526.484, 0.0, 10.016217, 9.908632 
6.666413e+3, 2.645149e+2, -397125.1, -490308.75, 260.11392, 0.0015980239, 0.00026392806, -397124.38, -49369.297, 0.0, 10.016329, 9.8943615 
6.6664124e+3, 2.744098e+2, -297770.03, -390717.2, 231.11554, 0.0015975583, -0.000085371226, -297769.44, -46984.4, 0.0, 10.016439, 9.89477 
6.6664124e+3, 2.8429654e+2, -211046.25, -317137.16, 180.75711, 0.0015978197, 0.00034382465, -211045.94, -57151.16, 0.0, 10.016549, 9.878013 
6.6664124e+3, 2.9417562e+2, -111259.625, -216809.95, 146.49234, 0.0015989734, -0.00013949217, -111259.42, -54179.6, 0.0, 10.016658, 9.878805 
6.666411e+3, 3.040822e+2, -22206.22, -85205.98, 70.66611, 0.0015996044, 0.00028200782, -22206.14, -22206.14, 0.0, 10.016762, 9.933802 
6.6664106e+3, 3.140178e+2, -21060.768, -83045.82, 31.084131, 0.0015995754, 0.0000434814, -21060.752, -21060.752, 0.0, 10.016858, 9.935213 
6.67644e+3, 1.2527655e+2, -1701317.0, -1721454.1, 86.9319, 0.0015970701, 0.00021230381, -1701316.6, 10974.477, 0.0, 10.014803, 9.988101 
6.6764385e+3, 1.3526452e+2, -1603873.4, -1624674.4, 77.86715, 0.0015993355, 0.000034450906, -1603873.0, 10536.1045, 0.0, 10.0148945, 9.987314 
6.676437e+3, 1.4524582e+2, -1515851.0, -1545711.8, 204.62468, 0.0016002186, 0.0002950266, -1515849.6, 742.67053, 0.0, 10.014994, 9.975429 
6.6764355e+3, 1.5522122e+2, -1418039.4, -1448383.4, 192.09013, 0.0015996174, 0.00010295142, -1418038.1, 795.19574, 0.0, 10.015099, 9.974896 
6.676434e+3, 1.6518995e+2, -1329973.6, -1369678.9, 289.24628, 0.001600158, 0.00018405453, -1329971.5, -8831.823, 0.0, 10.015203, 9.962704 
6.6764337e+3, 1.751527e+2, -1231931.6, -1272032.4, 272.95874, 0.0016018086, 0.00008137829, -1231929.8, -8425.103, 0.0, 10.015309, 9.96229 
6.676433e+3, 1.8510877e+2, -1143833.4, -1193614.0, 347.893, 0.0016022512, 0.00022460615, -1143830.9, -17895.652, 0.0, 10.01542, 9.949737 
6.676432e+3, 1.9505854e+2, -1045591.4, -1095720.9, 328.95093, 0.0016015073, 0.00008825308, -1045589.2, -17161.662, 0.0, 10.015533, 9.949393 
6.676432e+3, 2.0500146e+2, -957598.7, -1017871.7, 372.25854, 0.0016021343, 0.00020840214, -957596.4, -26609.586, 0.0, 10.015647, 9.936276 
6.6764313e+3, 2.1493778e+2, -859223.6, -919845.4, 352.10602, 0.0016041072, 0.000015272475, -859221.56, -25610.639, 0.0, 10.015759, 9.935933 
6.676431e+3, 2.2486727e+2, -771028.9, -841982.3, 373.8094, 0.0016047555, 0.00026039142, -771026.9, -34724.938, 0.0, 10.015874, 9.922628 
6.676431e+3, 2.3478995e+2, -672503.6, -743804.06, 350.47076, 0.0016040086, 0.00004337708, -672501.9, -33442.277, 0.0, 10.01599, 9.922293 
6.67643e+3, 2.447056e+2, -584204.7, -666133.06, 348.24805, 0.0016040496, 0.00020283378, -584203.25, -42317.016, 0.0, 10.016106, 9.9086685 
6.6764295e+3, 2.5461438e+2, -485370.06, -567466.2, 321.74933, 0.0016049377, 0.000020971662, -485368.78, -40588.668, 0.0, 10.016219, 9.908562 
6.6764295e+3, 2.6451597e+2, -397177.9, -490421.66, 296.8031, 0.001606176, 0.00026412445, -397176.97, -49432.523, 0.0, 10.016332, 9.894286 
6.676429e+3, 2.7441078e+2, -297821.75, -390829.4, 267.6557, 0.0016078076, -0.00008853497, -297821.0, -47045.832, 0.0, 10.016442, 9.894694 
6.676429e+3, 2.842975e+2, -211103.25, -317261.34, 216.9262, 0.0016073743, 0.0003414748, -211102.81, -57217.15, 0.0, 10.016552, 9.87793 
6.676429e+3, 2.9417646e+2, -111316.375, -216934.28, 182.89804, 0.0016042467, -0.0001356938, -111316.06, -54244.582, 0.0, 10.016661, 9.878721 
6.6764283e+3, 3.04083e+2, -22266.502, -85338.93, 102.77111, 0.001605203, 0.0002852521, -22266.334, -22266.334, 0.0, 10.016765, 9.93371 
6.676428e+3, 3.1401846e+2, -21120.063, -83179.09, 62.75122, 0.0016119771, 0.000036731115, -21119.998, -21119.998, 0.0, 10.016863, 9.935122 
6.6864544e+3, 1.2527825e+2, -1701113.6, -1721378.0, 57.550667, 0.0016057565, 0.00021176922, -1701113.5, 11161.034, 0.0, 10.014943, 9.988072 
6.686453e+3, 1.3526617e+2, -1603639.4, -1624582.6, 49.274464, 0.0016066048, 0.00003349181, -1603639.3, 10753.589, 0.0, 10.015056, 9.987286 
6.686452e+3, 1.4524743e+2, -1515604.1, -1545623.8, 177.96318, 0.0016075869, 0.00029419851, -1515603.0, 973.309, 0.0, 10.015167, 9.975391 
6.686451e+3, 1.552228e+2, -1417781.6, -1448290.4, 164.74081, 0.0016084411, 0.00010275508, -1417780.8, 1036.9658, 0.0, 10.01528, 9.974859 
6.68645e+3, 1.6519152e+2, -1329701.5, -1369586.3, 264.21658, 0.0016088642, 0.00018378628, -1329699.8, -8575.312, 0.0, 10.015398, 9.96266 
6.686449e+3, 1.7515422e+2, -1231632.6, -1271926.5, 248.15198, 0.0016089503, 0.00008039704, -1231631.0, -8141.1846, 0.0, 10.015522, 9.962246 
6.6864485e+3, 1.8511023e+2, -1143521.8, -1193510.0, 323.31653, 0.0016095794, 0.00022366254, -1143519.6, -17598.664, 0.0, 10.015644, 9.949686 
6.6864485e+3, 1.9505994e+2, -1045270.56, -1095613.0, 303.80292, 0.0016106765, 0.00008805975, -1045268.7, -16854.998, 0.0, 10.015765, 9.949343 
6.686448e+3, 2.0500283e+2, -957262.6, -1017760.0, 348.3837, 0.0016112402, 0.00020816583, -957260.6, -26287.127, 0.0, 10.01589, 9.936223 
6.686447e+3, 2.1493907e+2, -858862.8, -919721.9, 328.11115, 0.0016112702, 0.000014216581, -858861.06, -25262.887, 0.0, 10.01602, 9.93588 
6.6864467e+3, 2.248685e+2, -770657.5, -841865.8, 349.0049, 0.0016118531, 0.00025949205, -770655.8, -34366.07, 0.0, 10.016148, 9.9225645 
6.6864467e+3, 2.3479113e+2, -672121.8, -743683.4, 324.87054, 0.0016129896, 0.000043648517, -672120.3, -33072.3, 0.0, 10.016273, 9.922229 
6.686446e+3, 2.447067e+2, -583811.56, -666014.25, 322.4089, 0.0016133835, 0.00020289229, -583810.25, -41934.984, 0.0, 10.016399, 9.908599 
6.686446e+3, 2.5461543e+2, -484956.78, -567338.6, 296.31824, 0.0016129378, 0.000019287278, -484955.72, -40185.83, 0.0, 10.016527, 9.908492 
6.686446e+3, 2.6451695e+2, -396750.44, -490295.97, 269.453, 0.0016136216, 0.00026270084, -396749.7, -49014.76, 0.0, 10.016654, 9.89421 
6.686446e+3, 2.7441168e+2, -297377.72, -390697.1, 238.94202, 0.0016156229, -0.000087319786, -297377.1, -46610.723, 0.0, 10.016777, 9.894617 
6.686446e+3, 2.8429827e+2, -210646.23, -317128.75, 186.5528, 0.0016158917, 0.0003425209, -210645.9, -56768.266, 0.0, 10.016899, 9.877849 
6.6864455e+3, 2.9417717e+2, -110846.45, -216797.08, 153.14941, 0.0016138912, -0.0001384142, -110846.23, -53781.93, 0.0, 10.017018, 9.87864 
6.6864455e+3, 3.0408362e+2, -21788.77, -85211.1, 71.10095, 0.0016144853, 0.0002822419, -21788.69, -21788.69, 0.0, 10.017137, 9.933618 
6.686445e+3, 3.1401902e+2, -20617.27, -83040.24, 29.926895, 0.0016188103, 0.000038376787, -20617.256, -20617.256, 0.0, 10.017252, 9.935028 
6.69647e+3, 1.2527986e+2, -1701140.9, -1721424.8, 93.70731, 0.0016148597, 0.00021063206, -1701140.5, 11118.3, 0.0, 10.014941, 9.988045 
6.696468e+3, 1.3526775e+2, -1603667.5, -1624629.9, 85.25148, 0.0016135329, 0.000032789, -1603667.1, 10710.254, 0.0, 10.015053, 9.987258 
6.6964674e+3, 1.45249e+2, -1515640.3, -1545687.4, 214.14505, 0.0016145821, 0.0002937949, -1515638.6, 922.512, 0.0, 10.015165, 9.975353 
6.696466e+3, 1.5522432e+2, -1417815.4, -1448352.6, 201.126, 0.0016175151, 0.0001025148, -1417814.0, 988.9762, 0.0, 10.015279, 9.974821 
6.6964656e+3, 1.6519298e+2, -1329738.9, -1369656.6, 304.9202, 0.0016177635, 0.00018322417, -1329736.6, -8626.496, 0.0, 10.015398, 9.962616 
6.696465e+3, 1.7515564e+2, -1231670.6, -1271997.0, 288.79092, 0.0016156107, 0.00007906443, -1231668.5, -8192.635, 0.0, 10.015521, 9.962203 
6.6964644e+3, 1.851116e+2, -1143565.3, -1193592.4, 362.82385, 0.0016165983, 0.00022259129, -1143562.6, -17655.205, 0.0, 10.015644, 9.949635 
6.696464e+3, 1.9506127e+2, -1045311.7, -1095693.9, 343.3926, 0.0016205123, 0.00008822102, -1045309.4, -16908.656, 0.0, 10.015765, 9.949291 
6.696463e+3, 2.050041e+2, -957305.0, -1017844.3, 391.37952, 0.0016208842, 0.00020813709, -957302.44, -26341.412, 0.0, 10.015891, 9.936169 
6.696463e+3, 2.149403e+2, -858905.56, -919806.2, 371.06735, 0.0016177597, 0.00001259472, -858903.3, -25317.092, 0.0, 10.01602, 9.935825 
6.6964626e+3, 2.2486965e+2, -770708.06, -841966.4, 390.40088, 0.0016181992, 0.00025819647, -770705.94, -34427.555, 0.0, 10.016148, 9.9225 
6.6964626e+3, 2.3479222e+2, -672170.44, -743782.8, 366.35013, 0.0016223118, 0.00004466859, -672168.56, -33131.25, 0.0, 10.0162735, 9.922164 
6.6964626e+3, 2.4470773e+2, -583862.6, -666120.2, 365.09082, 0.0016234489, 0.00020339231, -583861.0, -41995.766, 0.0, 10.016401, 9.908529 
6.6964626e+3, 2.5461638e+2, -485007.5, -567444.2, 338.9793, 0.0016212825, 0.000016143344, -485006.1, -40245.586, 0.0, 10.016529, 9.908422 
6.6964626e+3, 2.645178e+2, -396807.16, -490414.7, 310.51633, 0.0016207355, 0.00026033274, -396806.13, -49079.875, 0.0, 10.016655, 9.894132 
6.6964626e+3, 2.744125e+2, -297433.38, -390815.4, 280.09335, 0.0016220842, -0.00008367938, -297432.53, -46674.098, 0.0, 10.016779, 9.894539 
6.6964626e+3, 2.8429902e+2, -210702.6, -317250.25, 226.43892, 0.001623843, 0.00034543624, -210702.11, -56831.605, 0.0, 10.016901, 9.877768 
6.6964626e+3, 2.9417783e+2, -110901.52, -216917.75, 192.9194, 0.0016260762, -0.0001448961, -110901.17, -53843.156, 0.0, 10.017021, 9.878559 
6.6964626e+3, 3.0408418e+2, -21850.43, -85346.9, 109.14904, 0.0016259241, 0.00027566616, -21850.242, -21850.242, 0.0, 10.017139, 9.933525 
6.696462e+3, 3.1401947e+2, -20679.096, -83177.41, 67.78352, 0.0016225147, 0.000044765624, -20679.021, -20679.021, 0.0, 10.017255, 9.934934 
6.706485e+3, 1.2528133e+2, -1700935.3, -1721349.0, 59.493946, 0.0016215066, 0.00020917662, -1700935.0, 11309.228, 0.0, 10.015084, 9.988014 
6.7064834e+3, 1.352692e+2, -1603449.1, -1624548.0, 49.945015, 0.0016225075, 0.000032699565, -1603449.0, 10914.131, 0.0, 10.015204, 9.987228 
6.706482e+3, 1.4525041e+2, -1515406.3, -1545606.3, 181.48029, 0.0016235223, 0.0002937449, -1515405.1, 1142.1313, 0.0, 10.015331, 9.975316 
6.7064816e+3, 1.552257e+2, -1417551.9, -1448256.5, 168.8538, 0.0016242813, 0.000101309364, -1417551.0, 1238.502, 0.0, 10.015464, 9.974784 
6.706481e+3, 1.651943e+2, -1329461.6, -1369562.3, 273.43277, 0.0016247877, 0.0001820134, -1329459.8, -8362.846, 0.0, 10.015595, 9.962571 
6.7064804e+3, 1.7515694e+2, -1231383.1, -1271898.0, 256.6728, 0.0016251267, 0.00007891287, -1231381.5, -7918.2637, 0.0, 10.015726, 9.962158 
6.70648e+3, 1.8511285e+2, -1143263.9, -1193494.5, 331.95627, 0.0016258912, 0.00022245782, -1143261.8, -17366.477, 0.0, 10.015862, 9.949583 
6.70648e+3, 1.9506247e+2, -1044983.56, -1095582.8, 312.4231, 0.0016270076, 0.00008712141, -1044981.6, -16592.604, 0.0, 10.016002, 9.94924 
6.70648e+3, 2.0500523e+2, -956961.0, -1017730.0, 360.27594, 0.0016275134, 0.00020711268, -956958.9, -26009.025, 0.0, 10.016141, 9.936114 
6.70648e+3, 2.1494138e+2, -858551.8, -919687.8, 339.23776, 0.0016274101, 0.0000126781515, -858549.9, -24974.344, 0.0, 10.016277, 9.93577 
6.70648e+3, 2.2487068e+2, -770344.3, -841854.2, 358.9402, 0.0016279933, 0.00025810517, -770342.5, -34074.203, 0.0, 10.016417, 9.922436 
6.70648e+3, 2.3479319e+2, -671783.4, -743659.94, 334.99384, 0.0016292658, 0.000043073112, -671781.8, -32753.932, 0.0, 10.01656, 9.9221 
6.70648e+3, 2.4470863e+2, -583460.94, -665998.06, 332.70834, 0.0016300066, 0.00020201894, -583459.6, -41603.203, 0.0, 10.016701, 9.90846 
6.70648e+3, 2.546172e+2, -484592.34, -567316.6, 305.75986, 0.0016301408, 0.00001689305, -484591.22, -39838.824, 0.0, 10.016839, 9.908352 
6.70648e+3, 2.645186e+2, -396380.44, -490289.97, 276.02414, 0.0016302902, 0.00026093537, -396379.63, -48660.77, 0.0, 10.016977, 9.894054 
6.70648e+3, 2.7441317e+2, -296988.63, -390683.3, 245.92192, 0.0016304358, -0.00008590746, -296988.0, -46236.15, 0.0, 10.017115, 9.894461 
6.70648e+3, 2.842996e+2, -210241.86, -317116.75, 190.55841, 0.0016315266, 0.00034323882, -210241.52, -56376.836, 0.0, 10.017251, 9.877686 
6.70648e+3, 2.9417834e+2, -110422.26, -216776.9, 155.91705, 0.0016337815, -0.00014337715, -110422.02, -53369.055, 0.0, 10.0173855, 9.878476 
6.70648e+3, 3.040846e+2, -21362.857, -85216.91, 70.45605, 0.00163401, 0.000277621, -21362.78, -21362.78, 0.0, 10.017519, 9.933431 
6.70648e+3, 3.140198e+2, -20170.441, -83038.484, 28.021206, 0.0016314818, 0.00004260102, -20170.43, -20170.43, 0.0, 10.01765, 9.934838 
6.7165e+3, 1.2528272e+2, -1700967.4, -1721402.4, 97.903534, 0.0016268034, 0.00020752182, -1700966.9, 11263.748, 0.0, 10.015081, 9.987984 
6.716499e+3, 1.3527055e+2, -1603478.8, -1624600.0, 88.632484, 0.0016325956, 0.000032876615, -1603478.5, 10871.4, 0.0, 10.0152025, 9.987197 
6.7164975e+3, 1.4525172e+2, -1515440.1, -1545667.3, 224.96701, 0.0016335231, 0.0002938135, -1515438.5, 1095.8606, 0.0, 10.015329, 9.975279 
6.716497e+3, 1.5522698e+2, -1417586.5, -1448317.9, 212.25314, 0.0016297946, 0.00009950801, -1417585.0, 1191.8859, 0.0, 10.015462, 9.974747 
6.7164963e+3, 1.6519555e+2, -1329502.5, -1369636.5, 316.0951, 0.0016308005, 0.00018039615, -1329500.0, -8415.196, 0.0, 10.0155945, 9.962525 
6.7164963e+3, 1.7515813e+2, -1231421.6, -1271971.0, 299.40802, 0.0016362239, 0.00007936181, -1231419.4, -7967.9336, 0.0, 10.015726, 9.962112 
6.716496e+3, 1.85114e+2, -1143306.6, -1193576.5, 378.17432, 0.0016364398, 0.00022278662, -1143303.8, -17419.768, 0.0, 10.0158615, 9.949532 
6.716496e+3, 1.9506355e+2, -1045026.6, -1095664.8, 358.67657, 0.0016316813, 0.00008525606, -1045024.06, -16645.793, 0.0, 10.016002, 9.949188 
6.716496e+3, 2.0500627e+2, -957007.0, -1017818.44, 405.36002, 0.0016325103, 0.00020547415, -957004.25, -26064.645, 0.0, 10.01614, 9.936058 
6.716496e+3, 2.1494237e+2, -858595.9, -919775.06, 384.32205, 0.0016388335, 0.000013649351, -858593.5, -25027.61, 0.0, 10.016277, 9.935715 
6.716496e+3, 2.248716e+2, -770393.94, -841953.7, 406.3382, 0.0016397163, 0.00025862266, -770391.6, -34132.402, 0.0, 10.0164175, 9.922372 
6.7164963e+3, 2.3479404e+2, -671832.7, -743759.06, 382.42532, 0.0016349361, 0.000039959858, -671830.6, -32811.223, 0.0, 10.01656, 9.922035 
6.7164963e+3, 2.4470943e+2, -583515.3, -666108.2, 378.75153, 0.0016346556, 0.0001995458, -583513.56, -41664.95, 0.0, 10.016701, 9.908388 
6.7164963e+3, 2.5461793e+2, -484645.66, -567426.1, 351.83667, 0.0016393096, 0.000019770197, -484644.16, -39898.88, 0.0, 10.01684, 9.90828 
6.7164963e+3, 2.645192e+2, -396436.75, -490407.1, 321.93503, 0.001641234, 0.0002631406, -396435.66, -48723.18, 0.0, 10.016978, 9.893977 
6.7164963e+3, 2.7441373e+2, -297043.84, -390799.8, 291.91766, 0.0016399032, -0.0000915014, -297042.9, -46296.656, 0.0, 10.017117, 9.894383 
6.716497e+3, 2.8430012e+2, -210300.7, -317242.38, 235.4635, 0.0016391161, 0.00033813092, -210300.19, -56440.293, 0.0, 10.017253, 9.877602 
6.716497e+3, 2.9417878e+2, -110480.164, -216902.19, 200.64548, 0.0016389827, -0.00013739825, -110479.78, -53430.863, 0.0, 10.017388, 9.878392 
6.716497e+3, 3.040849e+2, -21427.402, -85356.82, 113.797356, 0.001640235, 0.0002843472, -21427.2, -21427.2, 0.0, 10.017521, 9.933334 
6.716497e+3, 3.1402e+2, -20235.807, -83180.04, 71.74744, 0.0016435134, 0.000035508776, -20235.725, -20235.725, 0.0, 10.017652, 9.934741 
6.726515e+3, 1.2528396e+2, -1700776.9, -1721334.6, 57.10859, 0.0016361766, 0.00020805905, -1700776.8, 11441.757, 0.0, 10.015215, 9.987954 
6.726514e+3, 1.3527177e+2, -1603256.0, -1624515.6, 48.496086, 0.0016390805, 0.000031597985, -1603256.0, 11082.031, 0.0, 10.015356, 9.987167 
6.726513e+3, 1.452529e+2, -1515202.1, -1545585.1, 186.16821, 0.0016401523, 0.00029227292, -1515201.0, 1321.7874, 0.0, 10.015498, 9.975241 
6.726513e+3, 1.5522812e+2, -1417335.5, -1448229.5, 172.70651, 0.0016392848, 0.0000991069, -1417334.6, 1431.1506, 0.0, 10.015639, 9.974708 
6.7265123e+3, 1.6519666e+2, -1329236.6, -1369549.5, 277.7589, 0.0016400629, 0.00018014653, -1329234.6, -8160.604, 0.0, 10.015785, 9.96248 
6.726512e+3, 1.7515919e+2, -1231127.9, -1271870.0, 260.77066, 0.0016424211, 0.00007836449, -1231126.3, -7685.003, 0.0, 10.015936, 9.962067 
6.726512e+3, 1.8511501e+2, -1142998.0, -1193475.3, 339.67438, 0.0016429113, 0.0002218129, -1142995.6, -17121.494, 0.0, 10.016086, 9.94948 
6.726512e+3, 1.9506451e+2, -1044706.6, -1095558.5, 319.83884, 0.0016415812, 0.000085037675, -1044704.6, -16335.6455, 0.0, 10.016233, 9.949137 
6.726512e+3, 2.0500717e+2, -956672.7, -1017711.0, 366.93228, 0.0016423853, 0.00020511191, -956670.5, -25739.639, 0.0, 10.016384, 9.936002 
6.7265123e+3, 2.149432e+2, -858238.06, -919656.44, 345.3739, 0.0016452796, 0.000012263436, -858236.1, -24678.494, 0.0, 10.016538, 9.935658 
6.7265123e+3, 2.248724e+2, -770022.8, -841838.25, 367.41772, 0.0016459086, 0.00025746395, -770020.94, -33769.375, 0.0, 10.016691, 9.922307 
6.726513e+3, 2.3479475e+2, -671447.4, -743637.56, 343.10233, 0.0016441684, 0.0000403275, -671445.75, -32433.363, 0.0, 10.016845, 9.921971 
6.726513e+3, 2.4471007e+2, -583118.2, -665989.25, 338.3456, 0.0016445025, 0.00019976335, -583116.8, -41274.484, 0.0, 10.016997, 9.908317 
6.726513e+3, 2.546185e+2, -484230.0, -567299.2, 311.3266, 0.0016470985, 0.00001798539, -484228.8, -39489.168, 0.0, 10.017151, 9.908209 
6.7265135e+3, 2.6451972e+2, -396005.5, -490279.4, 280.97528, 0.0016483319, 0.0002613679, -396004.66, -48297.082, 0.0, 10.017303, 9.893901 
6.726514e+3, 2.7441415e+2, -296593.88, -390664.38, 250.92743, 0.0016479307, -0.000090869704, -296593.22, -45851.113, 0.0, 10.017456, 9.894307 
6.726514e+3, 2.8430045e+2, -209837.34, -317111.38, 192.46523, 0.0016475819, 0.00033902912, -209837.0, -55980.477, 0.0, 10.017607, 9.877516 
6.7265147e+3, 2.9417902e+2, -109998.516, -216764.25, 156.16798, 0.001647254, -0.00013896733, -109998.29, -52951.875, 0.0, 10.017756, 9.878306 
6.7265147e+3, 3.0408508e+2, -20933.727, -85220.21, 68.593315, 0.0016485489, 0.00028225614, -20933.652, -20933.652, 0.0, 10.017903, 9.933244 
6.726515e+3, 3.1402007e+2, -19723.082, -83034.74, 28.666668, 0.0016522058, 0.000035705412, -19723.068, -19723.068, 0.0, 10.018047, 9.934649 
6.73653e+3, 1.2528509e+2, -1700806.3, -1721384.1, 103.390785, 0.001647766, 0.00020971631, -1700805.8, 11401.6875, 0.0, 10.015212, 9.987925 
6.7365295e+3, 1.3527286e+2, -1603286.0, -1624565.5, 94.68815, 0.0016435949, 0.00002944839, -1603285.5, 11041.676, 0.0, 10.015353, 9.987138 
6.736529e+3, 1.4525397e+2, -1515239.8, -1545650.6, 232.14534, 0.0016449428, 0.0002897968, -1515238.0, 1274.3976, 0.0, 10.015495, 9.975202 
6.736528e+3, 1.5522914e+2, -1417371.0, -1448293.9, 218.77438, 0.0016509597, 0.00009942082, -1417369.4, 1386.2397, 0.0, 10.015638, 9.9746685 
6.7365277e+3, 1.6519763e+2, -1329277.0, -1369624.4, 327.25598, 0.0016511035, 0.00018058882, -1329274.4, -8209.922, 0.0, 10.015784, 9.962434 
6.7365277e+3, 1.7516011e+2, -1231168.5, -1271944.9, 310.31943, 0.0016459336, 0.00007648656, -1231166.1, -7734.134, 0.0, 10.015935, 9.96202 
6.7365277e+3, 1.8511589e+2, -1143043.1, -1193559.5, 388.30334, 0.0016471626, 0.0002200431, -1143040.1, -17174.586, 0.0, 10.016084, 9.949428 
6.7365277e+3, 1.9506533e+2, -1044750.2, -1095641.6, 368.42883, 0.0016543876, 0.00008566708, -1044747.56, -16386.77, 0.0, 10.0162325, 9.949084 
6.736528e+3, 2.0500796e+2, -956719.3, -1017801.3, 417.8661, 0.0016549644, 0.00020539574, -956716.5, -25793.277, 0.0, 10.016383, 9.935945 
6.736529e+3, 2.1494393e+2, -858284.2, -919746.2, 396.35434, 0.00164899, 0.00000949842, -858281.6, -24731.02, 0.0, 10.016538, 9.935601 
6.736529e+3, 2.2487305e+2, -770074.6, -841940.0, 418.22144, 0.0016490757, 0.000255307, -770072.2, -33827.105, 0.0, 10.016691, 9.922242 
6.7365295e+3, 2.3479535e+2, -671498.6, -743738.8, 393.88806, 0.0016554141, 0.000042566153, -671496.44, -32489.904, 0.0, 10.016845, 9.9219055 
6.73653e+3, 2.447106e+2, -583173.25, -666099.75, 389.11395, 0.0016572627, 0.00020140519, -583171.44, -41334.348, 0.0, 10.016997, 9.908245 
6.73653e+3, 2.5461894e+2, -484283.63, -567408.8, 362.23352, 0.0016541382, 0.000013534436, -484282.03, -39546.824, 0.0, 10.017151, 9.908137 
6.7365307e+3, 2.645201e+2, -396062.25, -490396.6, 331.80435, 0.001653318, 0.0002573263, -396061.06, -48357.215, 0.0, 10.017304, 9.893824 
6.736531e+3, 2.7441445e+2, -296650.4, -390781.34, 301.6039, 0.001655201, -0.00008681006, -296649.44, -45910.38, 0.0, 10.017456, 9.89423 
6.736532e+3, 2.8430066e+2, -209900.66, -317243.34, 242.27599, 0.0016565961, 0.00034322997, -209900.11, -56045.832, 0.0, 10.017608, 9.877429 
6.7365324e+3, 2.9417914e+2, -110060.82, -216896.08, 206.47946, 0.001657308, -0.00014487738, -110060.42, -53015.3, 0.0, 10.017757, 9.878219 
6.7365324e+3, 3.040851e+2, -20994.785, -85351.32, 116.90488, 0.0016580849, 0.00027516263, -20994.572, -20994.572, 0.0, 10.017905, 9.933154 
6.736533e+3, 3.1402004e+2, -19783.031, -83165.445, 76.196304, 0.0016590466, 0.00003995562, -19782.94, -19782.94, 0.0, 10.01805, 9.93456 
6.7465454e+3, 1.2528606e+2, -1700614.0, -1721316.4, 57.00419, 0.0016538654, 0.00020763946, -1700613.8, 11584.194, 0.0, 10.015347, 9.987894 
6.746545e+3, 1.352738e+2, -1603076.5, -1624489.1, 47.49364, 0.0016532615, 0.0000291668, -1603076.4, 11241.71, 0.0, 10.0155, 9.987107 
6.746544e+3, 1.4525487e+2, -1515013.9, -1545576.6, 186.18515, 0.001654512, 0.000289874, -1515012.8, 1490.8627, 0.0, 10.015657, 9.975162 
6.746544e+3, 1.5523e+2, -1417115.4, -1448204.8, 172.4148, 0.0016571212, 0.0000985675, -1417114.5, 1632.779, 0.0, 10.01582, 9.974628 
6.746544e+3, 1.6519846e+2, -1329004.8, -1369534.5, 281.25815, 0.0016573976, 0.0001794945, -1329002.9, -7946.45, 0.0, 10.015981, 9.962387 
6.746544e+3, 1.7516088e+2, -1230882.1, -1271848.3, 264.14145, 0.0016556081, 0.000075793934, -1230880.4, -7455.906, 0.0, 10.01614, 9.961974 
6.746544e+3, 1.851166e+2, -1142743.6, -1193465.3, 341.97498, 0.0016567995, 0.00021935358, -1142741.3, -16882.836, 0.0, 10.016302, 9.949374 
6.746544e+3, 1.95066e+2, -1044428.06, -1095536.3, 321.22058, 0.001660748, 0.0000846047, -1044426.06, -16071.844, 0.0, 10.016466, 9.94903 
6.746545e+3, 2.0500857e+2, -956380.2, -1017692.3, 371.15997, 0.0016611959, 0.00020452791, -956377.94, -25460.729, 0.0, 10.016631, 9.935887 
6.7465454e+3, 2.1494447e+2, -857928.5, -919629.6, 349.34543, 0.0016581896, 0.000009391142, -857926.5, -24381.379, 0.0, 10.016797, 9.935544 
6.746546e+3, 2.2487356e+2, -769708.4, -841828.5, 370.41864, 0.0016587811, 0.0002550363, -769706.5, -33466.22, 0.0, 10.016963, 9.922176 
6.7465466e+3, 2.3479578e+2, -671115.75, -743620.0, 345.54004, 0.0016630723, 0.00004117517, -671114.1, -32111.754, 0.0, 10.017128, 9.92184 
6.746547e+3, 2.4471095e+2, -582774.5, -665979.1, 341.1924, 0.0016642127, 0.00020007645, -582773.1, -40939.504, 0.0, 10.017296, 9.9081745 
6.746548e+3, 2.5461924e+2, -483863.63, -567278.8, 314.64087, 0.0016618614, 0.000013569451, -483862.44, -39130.07, 0.0, 10.017465, 9.908067 
6.7465484e+3, 2.6452032e+2, -395629.53, -490270.75, 282.2398, 0.0016616385, 0.00025755758, -395628.7, -47926.934, 0.0, 10.017631, 9.893745 
6.7465496e+3, 2.744146e+2, -296203.44, -390650.13, 250.68454, 0.0016639095, -0.00008775944, -296202.78, -45465.04, 0.0, 10.017795, 9.894151 
6.7465496e+3, 2.843007e+2, -209437.78, -317109.1, 191.43335, 0.0016653257, 0.00034177004, -209437.45, -55583.688, 0.0, 10.017959, 9.877347 
6.74655e+3, 2.9417914e+2, -109577.23, -216753.3, 157.96762, 0.0016655907, -0.00014596655, -109577.0, -52531.594, 0.0, 10.018125, 9.878136 
6.746551e+3, 3.04085e+2, -20499.822, -85218.64, 67.89436, 0.001665965, 0.0002745923, -20499.75, -20499.75, 0.0, 10.01829, 9.933059 
6.7465514e+3, 3.1401983e+2, -19261.42, -83021.19, 23.286886, 0.001666589, 0.0000401784, -19261.41, -19261.41, 0.0, 10.018454, 9.9344635 
6.756561e+3, 1.2528689e+2, -1700646.5, -1721370.5, 106.86877, 0.0016569657, 0.00020344424, -1700646.0, 11543.791, 0.0, 10.015344, 9.987863 
6.75656e+3, 1.3527462e+2, -1603107.3, -1624542.3, 97.366936, 0.001665716, 0.000029837616, -1603106.8, 11203.373, 0.0, 10.015498, 9.987076 
6.75656e+3, 1.4525564e+2, -1515051.3, -1545643.3, 239.28201, 0.0016666643, 0.00029128272, -1515049.4, 1446.6008, 0.0, 10.0156555, 9.9751215 
6.7565596e+3, 1.5523073e+2, -1417153.0, -1448271.4, 225.56068, 0.0016602796, 0.00009698059, -1417151.4, 1588.6616, 0.0, 10.015817, 9.974588 
6.75656e+3, 1.6519913e+2, -1329047.3, -1369611.0, 333.79572, 0.0016611234, 0.00017747692, -1329044.5, -7994.786, 0.0, 10.015978, 9.96234 
6.75656e+3, 1.7516153e+2, -1230923.3, -1271923.9, 316.5977, 0.0016686779, 0.00007569335, -1230920.8, -7502.604, 0.0, 10.016139, 9.961927 
6.756561e+3, 1.8511719e+2, -1142790.4, -1193553.0, 395.94983, 0.0016693879, 0.00021919719, -1142787.3, -16934.664, 0.0, 10.016301, 9.949319 
6.756561e+3, 1.9506654e+2, -1044474.0, -1095623.4, 375.36285, 0.0016635738, 0.000082522616, -1044471.2, -16122.2295, 0.0, 10.016465, 9.948976 
6.7565614e+3, 2.0500903e+2, -956428.3, -1017784.1, 426.06488, 0.0016639662, 0.00020293926, -956425.3, -25512.836, 0.0, 10.01663, 9.935829 
6.756562e+3, 2.149449e+2, -857976.6, -919721.2, 404.1056, 0.0016704559, 0.000010674766, -857974.0, -24432.984, 0.0, 10.016796, 9.935486 
6.756563e+3, 2.248739e+2, -769762.44, -841933.0, 425.17615, 0.0016721163, 0.00025573195, -769759.94, -33523.195, 0.0, 10.016962, 9.922111 
6.756563e+3, 2.3479606e+2, -671167.9, -743723.3, 400.47855, 0.001668746, 0.00003769748, -671165.6, -32166.125, 0.0, 10.017128, 9.921774 
6.7565644e+3, 2.4471118e+2, -582828.9, -666088.0, 397.4651, 0.0016679716, 0.00019703049, -582827.0, -40995.594, 0.0, 10.017295, 9.908105 
6.7565656e+3, 2.546194e+2, -483918.56, -567387.75, 370.77963, 0.0016700311, 0.000016031825, -483916.9, -39186.07, 0.0, 10.017464, 9.907996 
6.756566e+3, 2.645204e+2, -395691.34, -490394.44, 336.6686, 0.0016718745, 0.00026008644, -395690.13, -47989.188, 0.0, 10.01763, 9.893665 
6.756567e+3, 2.744146e+2, -296263.44, -390773.0, 305.53342, 0.0016734318, -0.00009160407, -296262.44, -45524.65, 0.0, 10.017795, 9.89407 
6.756568e+3, 2.8430063e+2, -209496.38, -317231.2, 247.08951, 0.0016739022, 0.0003370976, -209495.81, -55641.22, 0.0, 10.01796, 9.877266 
6.7565686e+3, 2.9417896e+2, -109635.05, -216874.61, 213.03693, 0.0016729278, -0.00014438767, -109634.625, -52587.652, 0.0, 10.018126, 9.878055 
6.756569e+3, 3.0408475e+2, -20569.234, -85364.64, 122.04917, 0.0016729906, 0.00027766215, -20569.006, -20569.006, 0.0, 10.0182905, 9.93296 
6.75657e+3, 3.140195e+2, -19331.9, -83169.68, 78.42191, 0.0016746039, 0.00003799147, -19331.803, -19331.803, 0.0, 10.018455, 9.934362 
6.766576e+3, 1.2528755e+2, -1700464.8, -1721311.4, 54.182896, 0.0016667686, 0.00020326494, -1700464.6, 11718.718, 0.0, 10.015473, 9.987829 
6.7665756e+3, 1.3527524e+2, -1602894.0, -1624466.9, 43.712997, 0.0016713571, 0.000028829276, -1602893.9, 11410.145, 0.0, 10.015648, 9.987042 
6.7665756e+3, 1.4525622e+2, -1514819.9, -1545567.3, 185.75056, 0.00167239, 0.00029001516, -1514818.8, 1671.4247, 0.0, 10.015821, 9.9750805 
6.7665756e+3, 1.5523128e+2, -1416904.5, -1448186.9, 171.7136, 0.0016698943, 0.00009597211, -1416903.5, 1831.1627, 0.0, 10.015994, 9.974547 
6.766576e+3, 1.6519964e+2, -1328784.5, -1369528.8, 279.5082, 0.0016709476, 0.000176723, -1328782.5, -7737.787, 0.0, 10.01617, 9.962292 
6.766576e+3, 1.7516199e+2, -1230637.3, -1271830.1, 261.11862, 0.0016753321, 0.00007519938, -1230635.6, -7221.8394, 0.0, 10.016345, 9.961879 
6.766577e+3, 1.851176e+2, -1142487.0, -1193457.0, 340.65756, 0.001675724, 0.00021868435, -1142484.6, -16635.986, 0.0, 10.016522, 9.9492655 
6.7665774e+3, 1.950669e+2, -1044151.06, -1095518.0, 320.25455, 0.0016722827, 0.00008172957, -1044149.06, -15803.525, 0.0, 10.0167, 9.948922 
6.766578e+3, 2.0500933e+2, -956093.3, -1017680.44, 369.89352, 0.0016731607, 0.00020198082, -956091.06, -25181.418, 0.0, 10.016877, 9.935769 
6.766579e+3, 2.1494512e+2, -857627.75, -919611.25, 346.56003, 0.0016782718, 0.00000966945, -857625.8, -24087.07, 0.0, 10.017053, 9.935426 
6.7665803e+3, 2.2487406e+2, -769397.94, -841821.56, 368.79382, 0.0016793206, 0.00025487182, -769396.06, -33161.008, 0.0, 10.017232, 9.922046 
6.766581e+3, 2.3479617e+2, -670779.5, -743600.8, 344.63406, 0.0016761385, 0.00003718578, -670777.9, -31779.367, 0.0, 10.017415, 9.921708 
6.766582e+3, 2.447112e+2, -582428.0, -665968.6, 339.91296, 0.001676006, 0.00019662711, -582426.6, -40595.56, 0.0, 10.017595, 9.908032 
6.766583e+3, 2.5461936e+2, -483507.2, -567264.44, 311.9046, 0.0016792077, 0.000015465985, -483506.0, -38774.816, 0.0, 10.017772, 9.907924 
6.766584e+3, 2.645203e+2, -395264.53, -490268.0, 278.49298, 0.0016808704, 0.0002590975, -395263.72, -47561.69, 0.0, 10.017952, 9.893589 
6.766585e+3, 2.744144e+2, -295812.3, -390635.9, 249.66003, 0.0016806856, -0.00009331257, -295811.66, -45072.03, 0.0, 10.018134, 9.893994 
6.766586e+3, 2.8430036e+2, -209031.19, -317101.44, 189.95816, 0.0016807368, 0.00033608114, -209030.84, -55173.62, 0.0, 10.018315, 9.877178 
6.766587e+3, 2.941786e+2, -109152.414, -216738.61, 151.70898, 0.0016810437, -0.00014288609, -109152.2, -52101.75, 0.0, 10.018496, 9.877967 
6.7665875e+3, 3.0408433e+2, -20070.81, -85223.96, 61.251514, 0.0016817481, 0.0002789059, -20070.754, -20070.754, 0.0, 10.018675, 9.93287 
6.766588e+3, 3.1401896e+2, -18810.385, -83017.94, 22.863512, 0.0016830954, 0.00003516555, -18810.377, -18810.377, 0.0, 10.018855, 9.934273 
6.7765915e+3, 1.2528807e+2, -1700499.3, -1721369.8, 111.20173, 0.0016801566, 0.000205212, -1700498.8, 11679.556, 0.0, 10.0154705, 9.987795 
6.7765915e+3, 1.352757e+2, -1602928.3, -1624525.1, 100.9132, 0.0016733229, 0.000026797494, -1602927.8, 11371.566, 0.0, 10.015645, 9.987008 
6.7765915e+3, 1.4525667e+2, -1514859.3, -1545635.8, 242.61397, 0.0016746604, 0.00028719514, -1514857.3, 1628.615, 0.0, 10.015819, 9.9750395 
6.7765915e+3, 1.5523167e+2, -1416942.6, -1448254.9, 228.47945, 0.0016830083, 0.000095213196, -1416941.0, 1789.8156, 0.0, 10.015992, 9.974506 
6.776592e+3, 1.652e+2, -1328829.1, -1369610.3, 337.45612, 0.0016840538, 0.00017659267, -1328826.3, -7785.043, 0.0, 10.016168, 9.962242 
6.776593e+3, 1.7516229e+2, -1230681.0, -1271911.0, 319.19452, 0.0016784879, 0.00007437665, -1230678.5, -7267.777, 0.0, 10.016344, 9.961828 
6.7765933e+3, 1.8511784e+2, -1142533.8, -1193543.8, 399.3, 0.001678681, 0.00021786804, -1142530.6, -16684.45, 0.0, 10.0165205, 9.949211 
6.7765945e+3, 1.950671e+2, -1044198.3, -1095604.8, 378.77377, 0.0016842566, 0.000081576036, -1044195.5, -15851.924, 0.0, 10.016698, 9.948868 
6.776595e+3, 2.0500948e+2, -956146.0, -1017779.1, 427.78082, 0.0016858891, 0.00020130577, -956143.06, -25234.793, 0.0, 10.016874, 9.935708 
6.7765963e+3, 2.1494523e+2, -857678.06, -919708.44, 404.61398, 0.00168363, 0.000007305142, -857675.4, -24137.451, 0.0, 10.017052, 9.935364 
6.776597e+3, 2.248741e+2, -769450.1, -841923.06, 429.74152, 0.0016831723, 0.00025305612, -769447.56, -33212.66, 0.0, 10.017231, 9.921981 
6.776598e+3, 2.3479612e+2, -670832.9, -743702.6, 405.39526, 0.0016845543, 0.000038236267, -670830.6, -31831.697, 0.0, 10.017413, 9.921644 
6.7766e+3, 2.447111e+2, -582488.1, -666084.44, 398.46475, 0.00168646, 0.00019759749, -582486.2, -40654.043, 0.0, 10.017593, 9.907958 
6.7766005e+3, 2.5461918e+2, -483564.97, -567379.0, 370.82373, 0.0016889115, 0.0000131147835, -483563.3, -38830.242, 0.0, 10.017771, 9.907849 
6.776602e+3, 2.6452002e+2, -395320.9, -490381.4, 339.51886, 0.0016891566, 0.00025608344, -395319.7, -47615.05, 0.0, 10.017951, 9.893516 
6.776603e+3, 2.7441406e+2, -295868.7, -390748.94, 310.28122, 0.0016867646, -0.00009384435, -295867.7, -45124.754, 0.0, 10.018133, 9.89392 
6.776604e+3, 2.8429997e+2, -209100.44, -317241.56, 249.82982, 0.0016867185, 0.0003370717, -209099.86, -55238.543, 0.0, 10.018314, 9.877087 
6.776605e+3, 2.941781e+2, -109221.06, -216879.39, 212.50049, 0.0016896294, -0.00014165978, -109220.64, -52165.17, 0.0, 10.018495, 9.877873 
6.7766064e+3, 3.040837e+2, -20131.877, -85350.26, 121.95774, 0.0016914767, 0.00027895524, -20131.648, -20131.648, 0.0, 10.018675, 9.932785 
6.7766076e+3, 3.1401825e+2, -18870.521, -83142.875, 82.76936, 0.0016919025, 0.00003202298, -18870.414, -18870.414, 0.0, 10.018855, 9.934189 
6.7866075e+3, 1.2528838e+2, -1700315.9, -1721310.0, 50.559307, 0.0016854939, 0.00020445602, -1700315.8, 11859.47, 0.0, 10.015602, 9.9877615 
6.7866075e+3, 1.3527599e+2, -1602721.1, -1624453.4, 40.48937, 0.0016834488, 0.000025418767, -1602721.0, 11575.525, 0.0, 10.015791, 9.986975 
6.7866075e+3, 1.452569e+2, -1514635.5, -1545567.3, 181.43175, 0.0016849343, 0.00028599612, -1514634.5, 1849.1023, 0.0, 10.015982, 9.974997 
6.786608e+3, 1.5523188e+2, -1416693.3, -1448173.4, 165.82549, 0.0016892398, 0.000094921495, -1416692.4, 2036.424, 0.0, 10.016171, 9.974463 
6.7866087e+3, 1.6520014e+2, -1328561.4, -1369526.9, 274.2884, 0.0016897216, 0.00017612257, -1328559.5, -7519.7188, 0.0, 10.016362, 9.962193 
6.7866087e+3, 1.7516239e+2, -1230392.3, -1271817.3, 255.86833, 0.0016867812, 0.0000727439, -1230390.8, -6980.927, 0.0, 10.016553, 9.961779 
6.78661e+3, 1.8511789e+2, -1142233.0, -1193451.6, 334.0973, 0.0016878387, 0.00021634002, -1142230.8, -16385.037, 0.0, 10.016742, 9.949156 
6.786611e+3, 1.9506708e+2, -1043884.7, -1095506.8, 312.15372, 0.0016926029, 0.00008135082, -1043882.8, -15539.106, 0.0, 10.016928, 9.948812 
6.786612e+3, 2.050094e+2, -955815.9, -1017678.75, 362.17654, 0.001693444, 0.00020119056, -955813.75, -24904.867, 0.0, 10.017118, 9.935647 
6.7866135e+3, 2.1494508e+2, -857321.56, -919595.3, 339.2398, 0.0016904129, 0.000006134254, -857319.75, -23780.518, 0.0, 10.017313, 9.935304 
6.7866147e+3, 2.248739e+2, -769081.4, -841812.0, 362.82217, 0.0016905854, 0.00025179403, -769079.56, -32842.785, 0.0, 10.017505, 9.921913 
6.786616e+3, 2.3479587e+2, -670457.2, -743589.2, 336.937, 0.0016940485, 0.00003788346, -670455.6, -31454.156, 0.0, 10.0176935, 9.9215765 
6.786617e+3, 2.4471077e+2, -582097.6, -665967.44, 331.0036, 0.0016957223, 0.00019706524, -582096.3, -40260.902, 0.0, 10.017885, 9.907888 
6.786619e+3, 2.5461876e+2, -483148.3, -567250.06, 305.26135, 0.0016953995, 0.000011201197, -483147.22, -38410.22, 0.0, 10.018082, 9.90778 
6.78662e+3, 2.6451957e+2, -394889.75, -490256.28, 273.09747, 0.0016953502, 0.00025481117, -394888.97, -47179.676, 0.0, 10.018277, 9.893436 
6.786622e+3, 2.7441353e+2, -295424.25, -390618.9, 240.9238, 0.0016956003, -0.000092074566, -295423.63, -44675.32, 0.0, 10.01847, 9.893841 
6.7866224e+3, 2.842993e+2, -208640.78, -317109.88, 180.95517, 0.0016962846, 0.00033821023, -208640.47, -54772.96, 0.0, 10.018664, 9.877004 
6.786624e+3, 2.9417735e+2, -108739.625, -216738.67, 148.12987, 0.0016974706, -0.00014584207, -108739.42, -51676.902, 0.0, 10.018861, 9.87779 
6.786625e+3, 3.0408293e+2, -19636.332, -85213.51, 59.53462, 0.001698726, 0.00027455745, -19636.28, -19636.28, 0.0, 10.019058, 9.9326935 
6.7866266e+3, 3.1401736e+2, -18350.2, -82994.984, 16.011345, 0.0017001596, 0.00003468475, -18350.193, -18350.193, 0.0, 10.019256, 9.934095 
6.796623e+3, 1.2528852e+2, -1700349.4, -1721366.8, 113.200195, 0.0016865152, 0.00020210729, -1700348.9, 11824.921, 0.0, 10.015599, 9.987728 
6.796623e+3, 1.3527611e+2, -1602754.4, -1624510.0, 102.826614, 0.0016979232, 0.000024334304, -1602753.9, 11541.567, 0.0, 10.015789, 9.98694 
6.7966235e+3, 1.4525698e+2, -1514678.1, -1545642.5, 244.0419, 0.0016994624, 0.00028562924, -1514676.3, 1806.5996, 0.0, 10.015979, 9.974951 
6.796624e+3, 1.5523191e+2, -1416734.9, -1448247.9, 228.5689, 0.0016917712, 0.00009475483, -1416733.3, 1995.2921, 0.0, 10.01617, 9.974418 
6.7966247e+3, 1.6520011e+2, -1328606.8, -1369609.0, 337.13513, 0.0016914197, 0.00017534776, -1328604.0, -7564.072, 0.0, 10.01636, 9.962142 
6.796625e+3, 1.7516233e+2, -1230438.0, -1271899.4, 318.62378, 0.0016978919, 0.00007061413, -1230435.6, -7025.1787, 0.0, 10.01655, 9.961729 
6.796627e+3, 1.8511777e+2, -1142284.1, -1193545.4, 395.36908, 0.0017003458, 0.00021436349, -1142281.0, -16434.121, 0.0, 10.016739, 9.949098 
6.7966276e+3, 1.9506691e+2, -1043933.5, -1095598.9, 373.5703, 0.0016989374, 0.0000809469, -1043930.8, -15585.381, 0.0, 10.016927, 9.948754 
6.7966294e+3, 2.0500918e+2, -955866.94, -1017775.44, 426.80194, 0.0016981865, 0.00020124593, -955864.0, -24952.805, 0.0, 10.017117, 9.935586 
6.7966306e+3, 2.149448e+2, -857374.4, -919692.6, 403.61694, 0.0016980736, 0.0000055530863, -857371.75, -23829.64, 0.0, 10.01731, 9.935243 
6.796632e+3, 2.2487353e+2, -769140.4, -841922.0, 424.84012, 0.0017000213, 0.00025077382, -769137.9, -32897.55, 0.0, 10.017502, 9.9218445 
6.7966336e+3, 2.3479544e+2, -670513.44, -743697.5, 399.31796, 0.001704071, 0.000036626225, -670511.25, -31505.527, 0.0, 10.017692, 9.921508 
6.7966354e+3, 2.4471027e+2, -582152.3, -666074.06, 396.57672, 0.0017042804, 0.0001955846, -582150.44, -40310.113, 0.0, 10.017884, 9.90782 
6.7966366e+3, 2.546182e+2, -483203.66, -567356.7, 370.47787, 0.0017002319, 0.000009518792, -483202.03, -38459.47, 0.0, 10.01808, 9.907711 
6.7966384e+3, 2.6451892e+2, -394955.3, -490383.63, 337.08215, 0.0017005296, 0.00025445895, -394954.13, -47238.543, 0.0, 10.018274, 9.893355 
6.7966396e+3, 2.744128e+2, -295489.0, -390746.13, 305.6244, 0.0017059395, -0.00008929193, -295488.0, -44732.6, 0.0, 10.018467, 9.893759 
6.7966413e+3, 2.842985e+2, -208702.38, -317232.06, 247.32411, 0.0017077758, 0.00033923722, -208701.81, -54826.402, 0.0, 10.018662, 9.8769245 
6.796643e+3, 2.941765e+2, -108800.02, -216859.63, 213.94188, 0.0017049649, -0.00015289412, -108799.6, -51728.37, 0.0, 10.018859, 9.877711 
6.7966443e+3, 3.0408195e+2, -19706.81, -85356.625, 125.19697, 0.0017047148, 0.00026788202, -19706.572, -19706.572, 0.0, 10.019056, 9.932597 
6.7966455e+3, 3.1401628e+2, -18421.086, -83140.1, 82.61107, 0.0017081591, 0.000040211908, -18420.98, -18420.98, 0.0, 10.019255, 9.933998 
6.806639e+3, 1.2528846e+2, -1700168.3, -1721313.6, 46.922077, 0.0016965916, 0.00020019399, -1700168.1, 12006.296, 0.0, 10.015731, 9.98769 
6.806639e+3, 1.35276e+2, -1602547.1, -1624443.6, 33.911022, 0.0017034136, 0.000024527357, -1602547.0, 11749.449, 0.0, 10.015938, 9.986902 
6.8066394e+3, 1.4525683e+2, -1514451.4, -1545574.6, 173.75609, 0.0017047115, 0.0002857878, -1514450.4, 2033.8578, 0.0, 10.016144, 9.974905 
6.80664e+3, 1.552317e+2, -1416483.6, -1448167.6, 157.89828, 0.0017006727, 0.00009296255, -1416482.8, 2247.6326, 0.0, 10.016351, 9.974372 
6.806641e+3, 1.6519988e+2, -1328341.0, -1369529.3, 263.9413, 0.0017012323, 0.00017360497, -1328339.3, -7296.9277, 0.0, 10.016555, 9.96209 
6.8066424e+3, 1.7516202e+2, -1230157.0, -1271812.4, 244.16106, 0.0017060909, 0.00007076741, -1230155.5, -6742.216, 0.0, 10.016755, 9.961677 
6.8066436e+3, 1.8511744e+2, -1141986.0, -1193456.4, 320.47308, 0.001707334, 0.00021437492, -1141984.0, -16133.635, 0.0, 10.016958, 9.949039 
6.806645e+3, 1.950665e+2, -1043609.06, -1095497.0, 298.46506, 0.0017050896, 0.0000788901, -1043607.4, -15257.921, 0.0, 10.017164, 9.948696 
6.8066466e+3, 2.050087e+2, -955531.75, -1017676.1, 349.666, 0.0017053781, 0.00019931405, -955529.75, -24613.959, 0.0, 10.017365, 9.935522 
6.806648e+3, 2.1494426e+2, -857034.25, -919591.7, 324.538, 0.0017081426, 0.0000059122854, -857032.6, -23485.264, 0.0, 10.017564, 9.935179 
6.80665e+3, 2.2487295e+2, -768784.9, -841815.7, 346.98483, 0.0017096801, 0.00025106422, -768783.2, -32537.016, 0.0, 10.017767, 9.921779 
6.8066514e+3, 2.3479477e+2, -670130.56, -743578.3, 323.03903, 0.001709915, 0.000034405446, -670129.1, -31116.924, 0.0, 10.017975, 9.921442 
6.806653e+3, 2.4470954e+2, -581755.4, -665957.06, 319.5535, 0.0017098635, 0.00019364222, -581754.2, -39906.695, 0.0, 10.018182, 9.907747 
6.806655e+3, 2.546174e+2, -482797.0, -567236.06, 290.948, 0.0017094772, 0.000010923591, -482796.0, -38045.58, 0.0, 10.018386, 9.907639 
6.806657e+3, 2.6451802e+2, -394534.6, -490258.97, 258.01196, 0.0017105449, 0.00025536187, -394533.9, -46809.742, 0.0, 10.018591, 9.89328 
6.8066585e+3, 2.7441183e+2, -295048.25, -390612.8, 230.31819, 0.0017132988, -0.000093439216, -295047.72, -44282.93, 0.0, 10.0188, 9.893683 
6.80666e+3, 2.842975e+2, -208248.48, -317106.06, 173.53603, 0.0017144119, 0.00033532156, -208248.22, -54362.656, 0.0, 10.01901, 9.876839 
6.806662e+3, 2.9417536e+2, -108326.01, -216725.94, 136.34099, 0.0017133713, -0.00014976264, -108325.836, -51243.652, 0.0, 10.019222, 9.8776245 
6.806664e+3, 3.0408072e+2, -19213.145, -85216.086, 49.552387, 0.0017135732, 0.00027170053, -19213.107, -19213.107, 0.0, 10.019437, 9.932509 
6.806665e+3, 3.14015e+2, -17899.299, -82986.016, 11.765706, 0.0017155994, 0.000035860507, -17899.297, -17899.297, 0.0, 10.019654, 9.93391 
6.816654e+3, 1.252882e+2, -1700209.1, -1721383.4, 114.89227, 0.0017114385, 0.00019847734, -1700208.5, 11968.351, 0.0, 10.015728, 9.987649 
6.816655e+3, 1.352757e+2, -1602585.9, -1624512.0, 102.15591, 0.0017041243, 0.000025244706, -1602585.4, 11713.857, 0.0, 10.015936, 9.986861 
6.816656e+3, 1.452565e+2, -1514493.9, -1545650.6, 242.21188, 0.0017050378, 0.00028607642, -1514492.0, 1995.4431, 0.0, 10.016142, 9.974859 
6.8166566e+3, 1.5523134e+2, -1416527.0, -1448244.0, 226.22879, 0.0017129802, 0.00009022313, -1416525.5, 2208.6824, 0.0, 10.016348, 9.974326 
6.816658e+3, 1.6519944e+2, -1328390.3, -1369617.6, 329.98843, 0.0017153469, 0.00017127773, -1328387.6, -7341.1143, 0.0, 10.016552, 9.962036 
6.816659e+3, 1.7516154e+2, -1230204.1, -1271899.4, 310.20236, 0.0017126903, 0.00007200022, -1230201.9, -6783.8745, 0.0, 10.016754, 9.961622 
6.816661e+3, 1.8511689e+2, -1142036.6, -1193550.0, 388.18225, 0.0017113732, 0.0002153157, -1142033.8, -16178.109, 0.0, 10.016956, 9.948982 
6.816662e+3, 1.950659e+2, -1043661.25, -1095591.3, 366.18732, 0.0017112583, 0.000075895856, -1043658.6, -15303.38, 0.0, 10.01716, 9.948639 
6.8166643e+3, 2.0500804e+2, -955590.25, -1017783.1, 414.81653, 0.0017139579, 0.00019625314, -955587.44, -24665.197, 0.0, 10.017363, 9.935456 
6.8166655e+3, 2.1494353e+2, -857090.25, -919697.06, 389.82465, 0.0017194123, 0.000006586847, -857087.8, -23533.41, 0.0, 10.017561, 9.935112 
6.8166673e+3, 2.2487214e+2, -768838.5, -841917.3, 416.24417, 0.0017193796, 0.00025188728, -768836.1, -32582.246, 0.0, 10.017764, 9.921715 
6.81667e+3, 2.3479392e+2, -670185.3, -743680.1, 391.96997, 0.0017136303, 0.0000316611, -670183.25, -31162.674, 0.0, 10.017972, 9.921378 
6.8166715e+3, 2.4470861e+2, -581819.2, -666076.5, 386.93295, 0.0017139938, 0.00019142708, -581817.4, -39960.883, 0.0, 10.018178, 9.907672 
6.816673e+3, 2.5461638e+2, -482859.84, -567355.0, 358.9199, 0.0017210672, 0.000013754156, -482858.3, -38098.145, 0.0, 10.018382, 9.907562 
6.816675e+3, 2.6451698e+2, -394593.13, -490370.5, 327.7125, 0.0017230969, 0.00025673056, -394592.0, -46857.344, 0.0, 10.018588, 9.893209 
6.8166775e+3, 2.744107e+2, -295105.53, -390723.13, 299.591, 0.0017191146, -0.000101240286, -295104.6, -44328.58, 0.0, 10.018796, 9.893613 
6.816679e+3, 2.8429624e+2, -208319.03, -317244.6, 244.50797, 0.001718534, 0.0003288506, -208318.48, -54420.934, 0.0, 10.019007, 9.876749 
6.816681e+3, 2.9417408e+2, -108396.945, -216865.67, 208.06133, 0.0017222813, -0.00014148174, -108396.54, -51301.566, 0.0, 10.019219, 9.877533 
6.816683e+3, 3.0407932e+2, -19277.559, -85342.36, 122.71859, 0.0017239779, 0.000280855, -19277.332, -19277.332, 0.0, 10.019434, 9.9324255 
6.8166846e+3, 3.140135e+2, -17963.314, -83111.22, 84.90684, 0.0017228364, 0.000026284348, -17963.203, -17963.203, 0.0, 10.01965, 9.933827 
6.82667e+3, 1.2528773e+2, -1700028.8, -1721333.4, 39.50836, 0.0017171277, 0.0001990511, -1700028.6, 12152.95, 0.0, 10.015861, 9.987609 
6.826671e+3, 1.3527517e+2, -1602371.5, -1624444.4, 26.73891, 0.0017134148, 0.000022926477, -1602371.5, 11933.024, 0.0, 10.01609, 9.986821 
6.826672e+3, 1.4525592e+2, -1514261.9, -1545583.6, 162.81639, 0.0017147595, 0.00028360463, -1514261.0, 2232.1177, 0.0, 10.016313, 9.974811 
6.8266726e+3, 1.5523072e+2, -1416279.5, -1448169.4, 145.19286, 0.0017202586, 0.00009007201, -1416278.8, 2461.45, 0.0, 10.016529, 9.9742775 
6.8266743e+3, 1.6519877e+2, -1328126.5, -1369543.0, 247.19171, 0.0017216438, 0.00017127112, -1328125.0, -7071.8574, 0.0, 10.016747, 9.961981 
6.8266755e+3, 1.7516081e+2, -1229913.5, -1271811.3, 226.15317, 0.0017193446, 0.000070151465, -1229912.3, -6487.116, 0.0, 10.016967, 9.961567 
6.826678e+3, 1.851161e+2, -1141732.0, -1193459.4, 300.8798, 0.0017193155, 0.00021367846, -1141730.3, -15866.861, 0.0, 10.017181, 9.948923 
6.826679e+3, 1.9506505e+2, -1043349.8, -1095497.8, 277.98996, 0.0017213549, 0.00007641367, -1043348.3, -14984.764, 0.0, 10.01739, 9.94858 
6.826681e+3, 2.0500712e+2, -955267.4, -1017692.25, 326.69183, 0.0017230993, 0.00019630775, -955265.7, -24334.49, 0.0, 10.017604, 9.93539 
6.826683e+3, 2.1494254e+2, -856741.9, -919593.9, 301.6697, 0.001724531, 0.0000036053327, -856740.44, -23176.443, 0.0, 10.01782, 9.935046 
6.8266857e+3, 2.2487111e+2, -768475.0, -841809.8, 327.31302, 0.001724648, 0.00024941127, -768473.5, -32209.363, 0.0, 10.018036, 9.921647 
6.8266875e+3, 2.347928e+2, -669814.7, -743570.06, 300.8506, 0.0017233806, 0.000033368342, -669813.44, -30782.02, 0.0, 10.018249, 9.921309 
6.826689e+3, 2.4470744e+2, -581436.44, -665962.9, 296.10168, 0.0017244715, 0.00019279958, -581435.4, -39567.313, 0.0, 10.018464, 9.907602 
6.8266916e+3, 2.5461513e+2, -482458.63, -567233.2, 271.05786, 0.001728131, 0.00000979802, -482457.78, -37685.313, 0.0, 10.0186825, 9.907493 
6.826694e+3, 2.6451564e+2, -394176.94, -490249.3, 241.61014, 0.0017292153, 0.0002528721, -394176.34, -46428.7, 0.0, 10.018903, 9.893133 
6.8266964e+3, 2.744093e+2, -294670.16, -390593.9, 210.99419, 0.0017272212, -0.00009855407, -294669.7, -43880.0, 0.0, 10.019125, 9.893537 
6.826698e+3, 2.8429478e+2, -207870.3, -317119.78, 156.51152, 0.001727156, 0.00033201542, -207870.08, -53958.047, 0.0, 10.01935, 9.876664 
6.8267006e+3, 2.941725e+2, -107930.53, -216734.22, 122.88048, 0.0017295212, -0.0001456168, -107930.39, -50820.055, 0.0, 10.019576, 9.877448 
6.8267024e+3, 3.0407766e+2, -18792.854, -85202.22, 42.38805, 0.0017311664, 0.0002757156, -18792.826, -18792.826, 0.0, 10.019806, 9.932342 
6.826705e+3, 3.1401178e+2, -17453.813, -82958.9, 4.156674, 0.001731848, 0.0000291547, -17453.813, -17453.813, 0.0, 10.0200405, 9.933743 
6.836686e+3, 1.2528703e+2, -1700066.8, -1721400.9, 116.04184, 0.0017179564, 0.0002006616, -1700066.1, 12122.233, 0.0, 10.01586, 9.987568 
6.836687e+3, 1.3527444e+2, -1602411.9, -1624513.1, 102.95914, 0.0017272311, 0.000018920991, -1602411.4, 11900.305, 0.0, 10.016087, 9.98678 
6.836688e+3, 1.4525515e+2, -1514310.3, -1545668.1, 234.37616, 0.0017294232, 0.00027962218, -1514308.5, 2192.2263, 0.0, 10.01631, 9.97476 
6.83669e+3, 1.552299e+2, -1416324.9, -1448252.3, 216.69324, 0.0017248474, 0.00009115506, -1416323.4, 2424.941, 0.0, 10.016528, 9.974227 
6.8366915e+3, 1.651979e+2, -1328176.9, -1369635.8, 319.71106, 0.0017238018, 0.00017235179, -1328174.4, -7112.615, 0.0, 10.016746, 9.961924 
6.8366927e+3, 1.7515987e+2, -1229965.6, -1271904.8, 298.7688, 0.0017261006, 0.00006657454, -1229963.5, -6529.164, 0.0, 10.016964, 9.96151 
6.836695e+3, 1.851151e+2, -1141786.9, -1193557.9, 369.7892, 0.0017293573, 0.00021056963, -1141784.3, -15911.086, 0.0, 10.017178, 9.948862 
6.836697e+3, 1.95064e+2, -1043402.9, -1095595.1, 346.80597, 0.0017334477, 0.00007861502, -1043400.56, -15026.657, 0.0, 10.017388, 9.948519 
6.8366987e+3, 2.0500602e+2, -955324.6, -1017798.25, 398.19308, 0.0017324815, 0.00019787162, -955322.1, -24379.969, 0.0, 10.017601, 9.935324 
6.836701e+3, 2.1494137e+2, -856799.9, -919699.94, 373.05185, 0.0017265211, -0.0000013272104, -856797.6, -23222.006, 0.0, 10.017817, 9.93498 
6.8367034e+3, 2.2486985e+2, -768536.75, -841922.9, 397.73898, 0.0017277056, 0.0002451384, -768534.56, -32258.113, 0.0, 10.018031, 9.9215765 
6.836706e+3, 2.3479149e+2, -669875.9, -743682.56, 371.62476, 0.0017362732, 0.00003717144, -669874.0, -30829.582, 0.0, 10.018245, 9.92124 
6.836708e+3, 2.4470603e+2, -581494.0, -666069.0, 368.54227, 0.0017382251, 0.00019583106, -581492.4, -39610.684, 0.0, 10.01846, 9.907536 
6.8367106e+3, 2.5461367e+2, -482515.16, -567338.4, 343.12473, 0.0017328438, 0.0000023052817, -482513.75, -37726.965, 0.0, 10.018679, 9.907427 
6.836713e+3, 2.645141e+2, -394242.34, -490372.53, 315.58347, 0.0017320198, 0.00024631523, -394241.3, -46478.617, 0.0, 10.018898, 9.893055 
6.8367153e+3, 2.7440768e+2, -294736.47, -390717.78, 285.5517, 0.0017365671, -0.00009060283, -294735.63, -43930.203, 0.0, 10.01912, 9.893458 
6.836718e+3, 2.842931e+2, -207939.06, -317248.94, 232.7878, 0.0017381774, 0.00033999275, -207938.58, -54010.035, 0.0, 10.019344, 9.876582 
6.83672e+3, 2.941707e+2, -107997.875, -216862.48, 199.37804, 0.0017359498, -0.00015630492, -107997.51, -50869.727, 0.0, 10.019571, 9.877365 
6.836722e+3, 3.040758e+2, -18859.813, -85331.06, 121.176605, 0.0017367252, 0.00026314252, -18859.592, -18859.592, 0.0, 10.019802, 9.932257 
6.836725e+3, 3.1400985e+2, -17520.674, -83087.88, 83.30339, 0.0017417916, 0.000038285463, -17520.568, -17520.568, 0.0, 10.020036, 9.933658 
6.8467015e+3, 1.2528607e+2, -1699872.5, -1721348.6, 33.923954, 0.0017265244, 0.00019799094, -1699872.5, 12325.251, 0.0, 10.016003, 9.987523 
6.846703e+3, 1.3527346e+2, -1602203.8, -1624454.1, 18.246069, 0.0017344464, 0.00001887855, -1602203.8, 12117.614, 0.0, 10.01624, 9.986735 
6.8467045e+3, 1.452541e+2, -1514084.5, -1545610.3, 146.54808, 0.0017362285, 0.00027994273, -1514083.9, 2427.1553, 0.0, 10.016479, 9.974707 
6.846706e+3, 1.5522878e+2, -1416064.6, -1448176.6, 126.87703, 0.0017320784, 0.00008980804, -1416064.1, 2695.0227, 0.0, 10.016719, 9.974173 
6.846708e+3, 1.6519675e+2, -1327899.1, -1369555.9, 224.63362, 0.0017318005, 0.00017073117, -1327898.0, -6824.8906, 0.0, 10.016951, 9.961866 
6.84671e+3, 1.7515866e+2, -1229681.1, -1271822.0, 203.14703, 0.0017351663, 0.000065974986, -1229680.1, -6233.881, 0.0, 10.017175, 9.9614525 
6.8467116e+3, 1.8511383e+2, -1141491.3, -1193476.4, 271.92123, 0.0017375828, 0.00020976337, -1141489.9, -15604.29, 0.0, 10.017399, 9.948799 
6.8467146e+3, 1.9506265e+2, -1043084.8, -1095502.6, 247.2778, 0.0017390163, 0.00007643593, -1043083.7, -14696.677, 0.0, 10.017624, 9.948456 
6.846717e+3, 2.050046e+2, -954994.8, -1017706.4, 297.05457, 0.0017386249, 0.00019650615, -954993.44, -24037.568, 0.0, 10.017848, 9.935256 
6.8467194e+3, 2.1493989e+2, -856461.44, -919604.5, 270.58496, 0.0017364214, 0.0000002876696, -856460.3, -22870.29, 0.0, 10.01807, 9.934913 
6.846722e+3, 2.2486831e+2, -768185.56, -841820.8, 294.96252, 0.0017377611, 0.000245787, -768184.4, -31892.873, 0.0, 10.018294, 9.92151 
6.846724e+3, 2.347899e+2, -669510.0, -743573.94, 270.25598, 0.0017427405, 0.000032753353, -669509.0, -30448.879, 0.0, 10.018518, 9.921172 
6.8467265e+3, 2.4470437e+2, -581114.25, -665958.06, 268.56573, 0.0017438787, 0.0001919204, -581113.4, -39215.3, 0.0, 10.018745, 9.907465 
6.8467295e+3, 2.5461194e+2, -482118.47, -567220.06, 241.07043, 0.0017407603, 0.000005057261, -482117.78, -37313.95, 0.0, 10.018976, 9.907356 
6.846732e+3, 2.645123e+2, -393833.06, -490252.38, 213.71556, 0.001740765, 0.0002495173, -393832.6, -46052.152, 0.0, 10.019207, 9.892982 
6.846735e+3, 2.7440578e+2, -294316.4, -390593.63, 186.20883, 0.0017444323, -0.00009432168, -294316.03, -43492.1, 0.0, 10.019438, 9.893384 
6.846737e+3, 2.8429112e+2, -207507.14, -317128.53, 138.02946, 0.0017458856, 0.00033506556, -207506.97, -53559.14, 0.0, 10.019674, 9.8765 
6.8467396e+3, 2.9416868e+2, -107542.83, -216732.56, 105.18039, 0.0017444452, -0.00015502704, -107542.73, -50394.9, 0.0, 10.019919, 9.877283 
6.846742e+3, 3.0407366e+2, -18383.807, -85193.63, 31.770689, 0.0017450092, 0.00026557423, -18383.791, -18383.791, 0.0, 10.020167, 9.932174 
6.8467444e+3, 3.1400764e+2, -17017.514, -82937.36, -4.777262, 0.0017484409, 0.000034845823, -17017.514, -17017.514, 0.0, 10.020421, 9.933575 
6.856718e+3, 1.2528491e+2, -1699919.6, -1721429.8, 112.49565, 0.0017391567, 0.00019301586, -1699919.0, 12290.112, 0.0, 10.016, 9.987475 
6.856719e+3, 1.3527225e+2, -1602246.4, -1624532.8, 96.80528, 0.0017381395, 0.000020770023, -1602245.9, 12087.347, 0.0, 10.016239, 9.986687 
6.856721e+3, 1.4525284e+2, -1514133.5, -1545701.5, 226.39851, 0.0017388588, 0.0002823735, -1514131.9, 2391.4272, 0.0, 10.016478, 9.97465 
6.8567234e+3, 1.5522747e+2, -1416117.0, -1448269.4, 206.83766, 0.0017407469, 0.00008704898, -1416115.6, 2656.371, 0.0, 10.016716, 9.974116 
6.856725e+3, 1.6519536e+2, -1327953.9, -1369652.4, 298.31314, 0.0017428979, 0.00016757274, -1327951.8, -6865.2314, 0.0, 10.016947, 9.961808 
6.856727e+3, 1.7515722e+2, -1229733.4, -1271917.0, 276.5553, 0.001745388, 0.00006681289, -1229731.5, -6271.2446, 0.0, 10.017172, 9.961394 
6.8567294e+3, 1.8511234e+2, -1141548.1, -1193581.3, 346.06497, 0.0017448098, 0.000210052, -1141545.9, -15645.63, 0.0, 10.017397, 9.948734 
6.856732e+3, 1.950611e+2, -1043142.4, -1095607.5, 321.70508, 0.0017412547, 0.000071870374, -1043140.4, -14738.082, 0.0, 10.017621, 9.948391 
6.856734e+3, 2.0500298e+2, -955057.06, -1017819.25, 370.4849, 0.0017431519, 0.00019347468, -955054.9, -24083.049, 0.0, 10.017844, 9.935186 
6.856737e+3, 2.1493821e+2, -856524.2, -919717.3, 343.82855, 0.0017504138, 0.0000050809304, -856522.3, -22915.717, 0.0, 10.018065, 9.934843 
6.8567395e+3, 2.2486654e+2, -768245.0, -841927.56, 368.9047, 0.0017514218, 0.00024882294, -768243.1, -31934.361, 0.0, 10.01829, 9.921443 
6.8567425e+3, 2.3478805e+2, -669567.8, -743679.44, 344.13846, 0.0017458987, 0.000024083087, -669566.2, -30488.086, 0.0, 10.018514, 9.921106 
6.8567455e+3, 2.4470246e+2, -581177.56, -666074.4, 344.89282, 0.0017453829, 0.00018439176, -581176.2, -39259.387, 0.0, 10.018741, 9.9073925 
6.8567485e+3, 2.5460997e+2, -482183.47, -567337.0, 317.72357, 0.0017503776, 0.000012862925, -482182.28, -37359.137, 0.0, 10.01897, 9.907283 
6.8567514e+3, 2.6451024e+2, -393896.94, -490366.78, 290.8157, 0.0017526195, 0.0002575066, -393896.06, -46095.633, 0.0, 10.0192, 9.89291 
6.856754e+3, 2.744037e+2, -294378.3, -390706.53, 263.45715, 0.0017515415, -0.00010413591, -294377.6, -43532.82, 0.0, 10.019432, 9.893313 
6.856757e+3, 2.842889e+2, -207575.81, -317256.22, 220.1345, 0.0017518854, 0.00032349798, -207575.36, -53605.965, 0.0, 10.019669, 9.876419 
6.85676e+3, 2.941664e+2, -107612.55, -216861.1, 187.38252, 0.0017540248, -0.0001477461, -107612.23, -50442.164, 0.0, 10.019913, 9.877202 
6.856763e+3, 3.040713e+2, -18452.746, -85320.07, 116.603935, 0.0017547453, 0.00027562125, -18452.543, -18452.543, 0.0, 10.020161, 9.932092 
6.856765e+3, 3.140052e+2, -17086.0, -83063.51, 81.149506, 0.0017534788, 0.000024831232, -17085.9, -17085.9, 0.0, 10.020413, 9.933493 
6.866734e+3, 1.2528346e+2, -1699733.5, -1721389.5, 22.394405, 0.001747577, 0.0001932929, -1699733.5, 12489.857, 0.0, 10.016142, 9.987424 
6.866736e+3, 1.3527073e+2, -1602013.4, -1624467.9, 4.316782, 0.001744619, 0.000019752351, -1602013.4, 12334.61, 0.0, 10.016411, 9.986635 
6.8667376e+3, 1.4525129e+2, -1513880.9, -1545632.3, 125.88436, 0.0017455631, 0.0002808157, -1513880.4, 2658.2214, 0.0, 10.016665, 9.974594 
6.86674e+3, 1.5522584e+2, -1415861.9, -1448199.5, 105.67348, 0.0017496035, 0.00008564577, -1415861.5, 2926.3184, 0.0, 10.016906, 9.97406 
6.8667424e+3, 1.6519369e+2, -1327688.6, -1369585.6, 193.42238, 0.0017516207, 0.00016646489, -1327687.8, -6584.8315, 0.0, 10.017147, 9.961744 
6.866745e+3, 1.7515549e+2, -1229441.0, -1271836.6, 168.8186, 0.0017518649, 0.0000661385, -1229440.4, -5963.0703, 0.0, 10.01739, 9.96133 
6.866747e+3, 1.8511054e+2, -1141238.3, -1193493.3, 234.11545, 0.0017513005, 0.0002096289, -1141237.3, -15319.39, 0.0, 10.017627, 9.94867 
6.8667495e+3, 1.9505924e+2, -1042823.6, -1095515.8, 209.78615, 0.0017498874, 0.000071527444, -1042822.8, -14402.255, 0.0, 10.0178585, 9.948327 
6.8667525e+3, 2.0500104e+2, -954736.1, -1017737.0, 256.21906, 0.0017519174, 0.00019221383, -954735.1, -23744.34, 0.0, 10.018088, 9.935114 
6.8667555e+3, 2.149362e+2, -856194.9, -919631.5, 227.92125, 0.001757317, 0.000001919743, -856194.06, -22567.818, 0.0, 10.018316, 9.934771 
6.8667585e+3, 2.2486447e+2, -767897.7, -841827.0, 254.06967, 0.0017579938, 0.00024687557, -767896.8, -31567.75, 0.0, 10.018549, 9.921376 
6.8667614e+3, 2.347859e+2, -669202.7, -743570.7, 228.69275, 0.0017537408, 0.000026597148, -669202.0, -30102.932, 0.0, 10.018786, 9.92104 
6.8667644e+3, 2.4470025e+2, -580803.4, -665965.8, 228.87726, 0.0017537643, 0.00018635858, -580802.75, -38864.375, 0.0, 10.019022, 9.907322 
6.8667674e+3, 2.546077e+2, -481805.5, -567227.7, 202.97687, 0.0017584864, 0.000008722345, -481805.03, -36959.543, 0.0, 10.019256, 9.907212 
6.8667704e+3, 2.645079e+2, -393505.63, -490250.94, 180.19157, 0.0017604026, 0.0002526589, -393505.28, -45681.813, 0.0, 10.019495, 9.89284 
6.8667734e+3, 2.7440128e+2, -293965.06, -390580.84, 153.85966, 0.0017589433, -0.00010324246, -293964.8, -43096.367, 0.0, 10.019743, 9.893244 
6.866777e+3, 2.8428644e+2, -207153.7, -317142.9, 112.97998, 0.0017591304, 0.0003259386, -207153.6, -53159.777, 0.0, 10.019994, 9.876336 
6.86678e+3, 2.9416382e+2, -107177.94, -216743.98, 79.263985, 0.0017614058, -0.00014914508, -107177.88, -49982.547, 0.0, 10.020247, 9.877117 
6.866783e+3, 3.0406865e+2, -17994.229, -85180.78, 16.450335, 0.0017625239, 0.00027316774, -17994.225, -17994.225, 0.0, 10.02051, 9.932017 
6.866786e+3, 3.1400245e+2, -16598.248, -82908.8, -13.92925, 0.0017620104, 0.00002544563, -16598.244, -16598.244, 0.0, 10.020782, 9.93342 
6.87675e+3, 1.2528178e+2, -1699780.3, -1721477.6, 112.865135, 0.0017536556, 0.00019613835, -1699779.8, 12460.071, 0.0, 10.016143, 9.98737 
6.876752e+3, 1.35269e+2, -1602065.3, -1624558.5, 94.71614, 0.0017526477, 0.000017033592, -1602064.9, 12300.164, 0.0, 10.016408, 9.986581 
6.876754e+3, 1.4524949e+2, -1513935.8, -1545728.0, 205.82768, 0.0017544841, 0.0002770432, -1513934.4, 2621.824, 0.0, 10.016662, 9.974536 
6.8767565e+3, 1.55224e+2, -1415912.5, -1448293.0, 185.24184, 0.0017584692, 0.000084851046, -1415911.4, 2894.5564, 0.0, 10.016905, 9.974003 
6.8767595e+3, 1.6519177e+2, -1327746.0, -1369693.0, 273.55984, 0.0017589959, 0.00016632074, -1327744.3, -6622.5713, 0.0, 10.017146, 9.9616785 
6.876762e+3, 1.7515351e+2, -1229500.5, -1271944.8, 249.19371, 0.0017564483, 0.00006450242, -1229499.1, -6002.362, 0.0, 10.017387, 9.961265 
6.876765e+3, 1.8510848e+2, -1141297.4, -1193598.4, 310.35358, 0.0017574839, 0.00020864268, -1141295.5, -15357.594, 0.0, 10.017623, 9.9486065 
6.876768e+3, 1.9505712e+2, -1042883.06, -1095620.9, 285.77444, 0.0017618431, 0.00007321861, -1042881.56, -14440.328, 0.0, 10.017854, 9.948263 
6.87677e+3, 2.0499887e+2, -954803.1, -1017857.7, 331.11136, 0.0017628598, 0.00019176875, -954801.4, -23789.29, 0.0, 10.018084, 9.9350395 
6.876774e+3, 2.1493395e+2, -856259.8, -919750.75, 302.98508, 0.001760555, -0.0000054198667, -856258.4, -22609.967, 0.0, 10.018312, 9.934696 
6.876777e+3, 2.2486216e+2, -767958.1, -841936.25, 332.7012, 0.0017609219, 0.0002422268, -767956.6, -31604.707, 0.0, 10.018544, 9.9213085 
6.8767804e+3, 2.3478353e+2, -669266.1, -743681.06, 307.13486, 0.0017640452, 0.00003460216, -669264.8, -30142.39, 0.0, 10.01878, 9.920972 
6.8767834e+3, 2.446978e+2, -580868.3, -666078.4, 305.82193, 0.001765733, 0.00019297666, -580867.25, -38904.777, 0.0, 10.019014, 9.907253 
6.8767864e+3, 2.5460514e+2, -481867.88, -567338.56, 280.24094, 0.0017657961, -0.0000015713731, -481866.94, -36996.605, 0.0, 10.019249, 9.907144 
6.87679e+3, 2.6450527e+2, -393567.56, -490361.53, 262.84204, 0.0017660676, 0.00024123373, -393566.84, -45717.844, 0.0, 10.019488, 9.892772 
6.8767935e+3, 2.743986e+2, -294028.75, -390691.9, 236.4115, 0.0017665424, -0.00009704614, -294028.2, -43133.664, 0.0, 10.019734, 9.893174 
6.876797e+3, 2.842837e+2, -207229.44, -317277.88, 198.16496, 0.0017670904, 0.0003353594, -207229.08, -53208.465, 0.0, 10.019984, 9.876252 
6.8768e+3, 2.94161e+2, -107252.734, -216879.25, 165.60974, 0.0017676895, -0.00015517099, -107252.484, -50029.383, 0.0, 10.020239, 9.877032 
6.876803e+3, 3.0406576e+2, -18056.395, -85290.1, 108.95859, 0.001769308, 0.0002642452, -18056.217, -18056.217, 0.0, 10.020501, 9.931948 
6.8768066e+3, 3.1399947e+2, -16660.748, -83016.414, 78.58352, 0.0017723546, 0.000031301806, -16660.654, -16660.654, 0.0, 10.020773, 9.9333515 
6.886766e+3, 1.2527978e+2, -1699557.1, -1721422.6, 13.631607, 0.0017582693, 0.00019466558, -1699557.1, 12702.134, 0.0, 10.01631, 9.987313 
6.8867683e+3, 1.3526696e+2, -1601842.0, -1624504.0, -6.0480056, 0.0017630121, 0.0000144915875, -1601842.0, 12543.106, 0.0, 10.016576, 9.986525 
6.886771e+3, 1.4524737e+2, -1513698.8, -1545676.5, 98.77605, 0.0017650699, 0.00027516042, -1513698.4, 2878.411, 0.0, 10.016843, 9.974472 
6.886774e+3, 1.5522183e+2, -1415637.1, -1448221.6, 74.130226, 0.0017642671, 0.000085196065, -1415637.0, 3190.1963, 0.0, 10.017111, 9.973938 
6.886776e+3, 1.6518955e+2, -1327452.1, -1369614.5, 154.44922, 0.0017640354, 0.00016654207, -1327451.6, -6307.9883, 0.0, 10.017366, 9.961612 
6.886779e+3, 1.751512e+2, -1229203.9, -1271865.5, 129.72154, 0.0017644247, 0.000062446445, -1229203.5, -5684.2124, 0.0, 10.01761, 9.961198 
6.886782e+3, 1.8510611e+2, -1140996.4, -1193520.5, 185.98547, 0.0017665303, 0.00020628308, -1140995.6, -15034.567, 0.0, 10.01785, 9.948538 
6.8867856e+3, 1.9505468e+2, -1042573.3, -1095539.1, 158.71745, 0.0017701671, 0.000072425144, -1042572.8, -14107.745, 0.0, 10.018087, 9.9481945 
6.8867886e+3, 2.0499635e+2, -954483.3, -1017777.3, 203.08134, 0.0017702794, 0.00019180175, -954482.6, -23445.973, 0.0, 10.018327, 9.934966 
6.886792e+3, 2.1493135e+2, -855921.7, -919661.75, 174.97299, 0.0017668869, -0.000005279586, -855921.2, -22247.537, 0.0, 10.018569, 9.934623 
6.886795e+3, 2.2485949e+2, -767610.2, -841838.94, 202.61122, 0.0017676991, 0.0002413505, -767609.6, -31231.717, 0.0, 10.018806, 9.921239 
6.886799e+3, 2.3478079e+2, -668923.75, -743587.5, 175.75473, 0.0017728601, 0.000031533116, -668923.3, -29774.193, 0.0, 10.019039, 9.920901 
6.886803e+3, 2.4469501e+2, -580514.56, -665974.6, 177.62263, 0.0017745988, 0.00019041695, -580514.2, -38524.36, 0.0, 10.0192795, 9.907187 
6.886806e+3, 2.5460228e+2, -481492.53, -567224.75, 153.89198, 0.0017725201, -0.00000062215514, -481492.25, -36593.938, 0.0, 10.019529, 9.907078 
6.8868095e+3, 2.6450235e+2, -393182.7, -490250.7, 138.24019, 0.0017724311, 0.00024280587, -393182.47, -45304.844, 0.0, 10.019779, 9.8927 
6.8868136e+3, 2.7439559e+2, -293640.22, -390580.66, 110.79078, 0.0017746638, -0.000098290824, -293640.1, -42716.22, 0.0, 10.02003, 9.893103 
6.8868166e+3, 2.842806e+2, -206831.05, -317167.72, 79.03848, 0.0017756958, 0.00033287646, -206831.0, -52780.29, 0.0, 10.020289, 9.876176 
6.88682e+3, 2.9415783e+2, -106831.71, -216759.45, 51.52789, 0.0017751418, -0.00015677718, -106831.69, -49577.766, 0.0, 10.020561, 9.876956 
6.8868244e+3, 3.0406255e+2, -17614.244, -85157.305, 3.7751756, 0.001776344, 0.00026328326, -17614.244, -17614.244, 0.0, 10.020839, 9.931875 
6.8868273e+3, 3.139962e+2, -16198.37, -82873.34, -27.70822, 0.0017800026, 0.000030797917, -16198.358, -16198.358, 0.0, 10.021125, 9.93328 
6.8967825e+3, 1.2527755e+2, -1699611.6, -1721519.4, 102.974915, 0.0017623077, 0.00019082848, -1699611.1, 12670.0625, 0.0, 10.016308, 9.987255 
6.896785e+3, 1.3526465e+2, -1601891.0, -1624597.9, 82.939766, 0.0017743665, 0.000011982815, -1601890.8, 12516.867, 0.0, 10.016577, 9.986466 
6.896788e+3, 1.4524503e+2, -1513756.8, -1545787.4, 187.88788, 0.0017762718, 0.0002741815, -1513755.6, 2844.2725, 0.0, 10.016844, 9.974403 
6.896791e+3, 1.5521939e+2, -1415699.5, -1448334.5, 163.37561, 0.0017685931, 0.00008589015, -1415698.8, 3152.3252, 0.0, 10.017108, 9.973869 
6.896794e+3, 1.6518705e+2, -1327514.3, -1369724.9, 234.91698, 0.0017680353, 0.00016671917, -1327513.0, -6344.89, 0.0, 10.017363, 9.961545 
6.896797e+3, 1.7514864e+2, -1229264.6, -1271974.9, 209.95207, 0.0017741463, 0.000060089857, -1229263.6, -5719.197, 0.0, 10.017606, 9.961131 
6.8968004e+3, 1.8510349e+2, -1141060.3, -1193637.0, 263.91086, 0.0017769608, 0.00020314573, -1141058.9, -15072.012, 0.0, 10.017847, 9.948466 
6.896804e+3, 1.9505198e+2, -1042636.56, -1095654.9, 236.92404, 0.0017765636, 0.00007016953, -1042635.5, -14143.882, 0.0, 10.018084, 9.948123 
6.896807e+3, 2.0499358e+2, -954549.8, -1017897.25, 282.92468, 0.0017758906, 0.0001918591, -954548.56, -23484.656, 0.0, 10.018322, 9.934893 
6.8968105e+3, 2.1492851e+2, -855991.5, -919783.06, 254.32649, 0.0017749321, -0.0000015016182, -855990.5, -22288.912, 0.0, 10.018561, 9.934548 
6.896815e+3, 2.2485657e+2, -767678.25, -841956.4, 278.85947, 0.0017765512, 0.00024226881, -767677.2, -31270.68, 0.0, 10.018799, 9.921167 
6.8968177e+3, 2.347778e+2, -668988.5, -743702.75, 252.5676, 0.0017808223, 0.000022734144, -668987.6, -29809.07, 0.0, 10.0190325, 9.920831 
6.896822e+3, 2.4469194e+2, -580573.6, -666078.44, 260.5864, 0.0017817749, 0.00018306126, -580572.8, -38552.96, 0.0, 10.019274, 9.907124 
6.8968254e+3, 2.5459918e+2, -481554.84, -567329.6, 236.30054, 0.0017790213, 0.000005844669, -481554.22, -36625.31, 0.0, 10.019521, 9.907015 
6.8968296e+3, 2.644992e+2, -393252.72, -490369.0, 221.083, 0.0017792686, 0.000250784, -393252.22, -45343.33, 0.0, 10.019769, 9.892629 
6.896834e+3, 2.7439234e+2, -293708.94, -390698.34, 194.74905, 0.0017830334, -0.00010347693, -293708.53, -42752.6, 0.0, 10.02002, 9.89303 
6.8968374e+3, 2.842773e+2, -206899.14, -317284.2, 170.94942, 0.0017845827, 0.00032427526, -206898.88, -52815.375, 0.0, 10.020279, 9.876104 
6.8968415e+3, 2.941544e+2, -106901.055, -216876.0, 143.2083, 0.0017832321, -0.00015626794, -106900.87, -49613.543, 0.0, 10.02055, 9.876884 
6.8968445e+3, 3.0405906e+2, -17684.408, -85274.84, 99.77248, 0.001783586, 0.0002663166, -17684.262, -17684.262, 0.0, 10.020826, 9.931802 
6.8968487e+3, 3.1399265e+2, -16267.622, -82990.57, 70.06954, 0.0017863043, 0.000026847629, -16267.549, -16267.549, 0.0, 10.021112, 9.933206 
6.906799e+3, 1.2527499e+2, -1699399.0, -1721481.4, -2.171015, 0.0017747518, 0.00018947673, -1699399.0, 12907.363, 0.0, 10.016474, 9.987189 
6.9068015e+3, 1.3526203e+2, -1601629.0, -1624534.0, -26.951874, 0.0017776723, 0.000013371455, -1601629.0, 12804.331, 0.0, 10.016774, 9.986401 
6.9068044e+3, 1.4524232e+2, -1513476.4, -1545718.8, 65.983315, 0.0017788769, 0.00027499837, -1513476.3, 3150.128, 0.0, 10.0170555, 9.974334 
6.906808e+3, 1.5521663e+2, -1415422.9, -1448268.5, 40.369564, 0.001778113, 0.00008315075, -1415422.9, 3455.272, 0.0, 10.017319, 9.9738 
6.9068116e+3, 1.651842e+2, -1327231.6, -1369658.6, 104.82785, 0.0017792372, 0.00016391934, -1327231.4, -6035.4863, 0.0, 10.017578, 9.961473 
6.906815e+3, 1.7514573e+2, -1228964.6, -1271900.3, 76.90856, 0.0017821766, 0.00006046546, -1228964.5, -5391.6035, 0.0, 10.017834, 9.96106 
6.906818e+3, 1.851005e+2, -1140745.6, -1193555.4, 125.34803, 0.0017829736, 0.00020377572, -1140745.4, -14729.237, 0.0, 10.018085, 9.948395 
6.906822e+3, 1.9504891e+2, -1042311.0, -1095568.4, 97.810905, 0.0017816413, 0.00006827145, -1042310.8, -13789.289, 0.0, 10.01833, 9.948051 
6.906826e+3, 2.0499045e+2, -954228.94, -1017822.94, 139.57729, 0.0017825163, 0.00018952499, -954228.6, -23134.063, 0.0, 10.01857, 9.934813 
6.9068295e+3, 2.149253e+2, -855679.1, -919713.9, 108.01466, 0.0017855557, -0.0000021905369, -855678.94, -21945.955, 0.0, 10.018805, 9.934469 
6.9068336e+3, 2.2485329e+2, -767348.94, -841863.94, 134.24147, 0.0017867077, 0.00024212725, -767348.7, -30910.045, 0.0, 10.019046, 9.921102 
6.906837e+3, 2.3477444e+2, -668638.3, -743600.4, 110.43263, 0.001785852, 0.000022004646, -668638.1, -29426.803, 0.0, 10.019296, 9.920765 
6.9068414e+3, 2.4468853e+2, -580218.7, -665979.0, 118.40879, 0.0017861811, 0.00018209124, -580218.5, -38165.207, 0.0, 10.019542, 9.907054 
6.906845e+3, 2.545957e+2, -481207.53, -567235.1, 91.20309, 0.0017878109, 0.000004999869, -481207.44, -36244.406, 0.0, 10.019785, 9.906944 
6.90685e+3, 2.6449564e+2, -392894.8, -490260.8, 81.17226, 0.0017891472, 0.00024971974, -392894.75, -44951.09, 0.0, 10.020038, 9.892567 
6.9068533e+3, 2.7438873e+2, -293333.56, -390582.0, 60.6129, 0.001790062, -0.00010514339, -293333.5, -42342.195, 0.0, 10.020301, 9.892969 
6.9068575e+3, 2.842736e+2, -206521.06, -317185.56, 43.71599, 0.0017908196, 0.0003230696, -206521.05, -52401.5, 0.0, 10.020571, 9.876027 
6.9068617e+3, 2.9415065e+2, -106514.96, -216775.83, 13.374358, 0.0017913639, -0.00015558994, -106514.95, -49190.813, 0.0, 10.020849, 9.876806 
6.906866e+3, 3.0405524e+2, -17270.793, -85142.805, -18.662987, 0.0017921221, 0.00026688553, -17270.787, -17270.787, 0.0, 10.021139, 9.93174 
6.90687e+3, 3.1398875e+2, -15821.936, -82840.91, -40.230526, 0.0017930912, 0.000024680081, -15821.911, -15821.911, 0.0, 10.021446, 9.933146 
6.9168156e+3, 1.2527215e+2, -1699457.5, -1721595.6, 99.503555, 0.0017911331, 0.0001892692, -1699457.0, 12877.08, 0.0, 10.016476, 9.987119 
6.9168186e+3, 1.3525912e+2, -1601692.5, -1624650.5, 74.605644, 0.0017771354, 0.000016437696, -1601692.3, 12769.527, 0.0, 10.016773, 9.98633 
6.9168216e+3, 1.4523935e+2, -1513541.0, -1545835.9, 153.72089, 0.0017773903, 0.00027647172, -1513540.3, 3115.204, 0.0, 10.017053, 9.974262 
6.916825e+3, 1.5521358e+2, -1415485.0, -1448384.0, 127.90918, 0.0017901406, 0.00007859177, -1415484.5, 3423.525, 0.0, 10.017317, 9.973728 
6.9168293e+3, 1.6518109e+2, -1327296.9, -1369780.4, 189.49957, 0.0017938559, 0.00015953353, -1327296.0, -6069.521, 0.0, 10.017576, 9.961398 
6.9168323e+3, 1.7514253e+2, -1229031.5, -1272022.4, 161.50636, 0.0017893217, 0.000061983315, -1229030.9, -5426.742, 0.0, 10.017831, 9.960984 
6.9168365e+3, 1.8509723e+2, -1140812.1, -1193674.3, 206.02284, 0.0017868368, 0.00020606627, -1140811.4, -14763.229, 0.0, 10.01808, 9.948322 
6.91684e+3, 1.9504558e+2, -1042379.0, -1095687.6, 178.53659, 0.0017862269, 0.0000664519, -1042378.4, -13824.13, 0.0, 10.018324, 9.947979 
6.916844e+3, 2.0498703e+2, -954304.94, -1017957.94, 216.61021, 0.0017897257, 0.0001858925, -954304.2, -23176.113, 0.0, 10.018563, 9.934731 
6.9168484e+3, 2.149218e+2, -855752.9, -919847.25, 185.19138, 0.0017972824, -0.0000053670615, -855752.3, -21985.006, 0.0, 10.018799, 9.934386 
6.9168526e+3, 2.2484972e+2, -767408.8, -841968.4, 216.48242, 0.0017973584, 0.00024120779, -767408.2, -30934.506, 0.0, 10.01904, 9.921038 
6.916856e+3, 2.3477082e+2, -668702.0, -743706.2, 191.92784, 0.0017895828, 0.00002522154, -668701.5, -29454.57, 0.0, 10.019286, 9.920701 
6.916861e+3, 2.4468482e+2, -580290.8, -666099.4, 198.1079, 0.0017894086, 0.00018422939, -580290.4, -38200.777, 0.0, 10.019531, 9.906981 
6.916865e+3, 2.545919e+2, -481278.13, -567354.56, 172.13705, 0.0017976644, 0.00000027189478, -481277.78, -36277.69, 0.0, 10.019775, 9.906872 
6.91687e+3, 2.644918e+2, -392953.53, -490355.63, 169.65465, 0.0018004022, 0.00024390615, -392953.22, -44971.844, 0.0, 10.020027, 9.892509 
6.916874e+3, 2.7438483e+2, -293393.78, -390676.28, 148.38814, 0.0017964673, -0.0001051462, -293393.56, -42364.043, 0.0, 10.020288, 9.892913 
6.916878e+3, 2.8426963e+2, -206599.98, -317316.6, 136.58025, 0.0017958377, 0.0003255266, -206599.83, -52441.44, 0.0, 10.020557, 9.875948 
6.916883e+3, 2.9414663e+2, -106594.22, -216908.44, 107.872025, 0.001799491, -0.00015513074, -106594.12, -49230.31, 0.0, 10.020835, 9.876725 
6.916887e+3, 3.0405113e+2, -17330.313, -85233.37, 85.8614, 0.0018012597, 0.00026601885, -17330.203, -17330.203, 0.0, 10.021125, 9.931686 
6.9168913e+3, 3.139846e+2, -15881.859, -82928.45, 64.71338, 0.0018002035, 0.00002330639, -15881.797, -15881.797, 0.0, 10.021431, 9.933095 
6.926832e+3, 1.2526898e+2, -1699193.5, -1721539.6, -16.112831, 0.0017922332, 0.00018902519, -1699193.5, 13171.717, 0.0, 10.016678, 9.987044 
6.926835e+3, 1.3525587e+2, -1601429.4, -1624595.6, -43.486443, 0.0017896364, 0.000013074377, -1601429.4, 13064.257, 0.0, 10.016975, 9.986256 
6.926839e+3, 1.4523603e+2, -1513266.6, -1545778.9, 23.80386, 0.0017910233, 0.00027346116, -1513266.6, 3421.4402, 0.0, 10.017264, 9.974185 
6.926843e+3, 1.5521017e+2, -1415184.6, -1448313.9, -5.6651764, 0.0017955668, 0.00007909325, -1415184.6, 3756.6604, 0.0, 10.017546, 9.973652 
6.9268465e+3, 1.651776e+2, -1326985.0, -1369707.0, 45.405487, 0.0017970338, 0.00016020013, -1326985.0, -5724.4595, 0.0, 10.017814, 9.961319 
6.9268507e+3, 1.7513898e+2, -1228719.5, -1271949.6, 15.002, 0.0017957492, 0.00005972055, -1228719.5, -5080.4272, 0.0, 10.018069, 9.960906 
6.926854e+3, 1.850936e+2, -1140497.1, -1193596.1, 52.774506, 0.0017958073, 0.00020378291, -1140497.1, -14413.359, 0.0, 10.018319, 9.948247 
6.9268584e+3, 1.9504187e+2, -1042065.6, -1095611.1, 23.428276, 0.0017970416, 0.00006692275, -1042065.6, -13475.0, 0.0, 10.018563, 9.947904 
6.9268626e+3, 2.0498325e+2, -953991.25, -1017890.5, 59.045494, 0.0017986441, 0.00018622392, -953991.2, -22825.984, 0.0, 10.018807, 9.9346485 
6.9268674e+3, 2.1491793e+2, -855426.3, -919774.0, 27.536816, 0.0018005751, -0.0000080430145, -855426.3, -21621.037, 0.0, 10.0190525, 9.934304 
6.9268715e+3, 2.2484577e+2, -767073.7, -841878.8, 56.4964, 0.0018011202, 0.00023876653, -767073.7, -30561.277, 0.0, 10.019294, 9.920966 
6.926876e+3, 2.3476678e+2, -668381.3, -743624.6, 28.267735, 0.0018002037, 0.000026414806, -668381.3, -29094.998, 0.0, 10.019531, 9.92063 
6.9268805e+3, 2.4468075e+2, -579963.56, -666003.44, 37.74535, 0.001800994, 0.00018542826, -579963.56, -37833.91, 0.0, 10.019776, 9.90692 
6.926885e+3, 2.5458777e+2, -480938.63, -567252.94, 17.871273, 0.0018036409, -0.0000025717516, -480938.63, -35897.895, 0.0, 10.02003, 9.906812 
6.9268894e+3, 2.6448756e+2, -392610.06, -490257.16, 20.993946, 0.001804882, 0.00024067613, -392610.06, -44587.434, 0.0, 10.0202875, 9.892446 
6.926894e+3, 2.7438056e+2, -293051.2, -390579.4, -3.7009404, 0.0018043821, -0.000104375606, -293051.2, -41979.824, 0.0, 10.02055, 9.892849 
6.926899e+3, 2.8426528e+2, -206253.17, -317223.75, -7.5593657, 0.001804807, 0.00032690738, -206253.17, -52052.293, 0.0, 10.020824, 9.875879 
6.926904e+3, 2.9414222e+2, -106231.02, -216808.9, -29.542261, 0.0018064226, -0.00015748163, -106231.016, -48824.008, 0.0, 10.021114, 9.876656 
6.9269085e+3, 3.0404663e+2, -16943.96, -85108.305, -37.0432, 0.00180778, 0.00026311414, -16943.941, -16943.941, 0.0, 10.021416, 9.93163 
6.926913e+3, 3.1398004e+2, -15479.058, -82793.76, -57.815075, 0.0018086069, 0.000024603434, -15479.008, -15479.008, 0.0, 10.021732, 9.933041 
6.936849e+3, 1.2526551e+2, -1699259.6, -1721664.9, 85.06505, 0.0017859625, 0.00018855701, -1699259.3, 13139.836, 0.0, 10.016679, 9.986967 
6.9368523e+3, 1.3525234e+2, -1601493.5, -1624719.5, 57.421432, 0.0018083724, 0.0000063918196, -1601493.4, 13034.928, 0.0, 10.016977, 9.986178 
6.9368565e+3, 1.4523241e+2, -1513334.8, -1545909.6, 118.30766, 0.0018118755, 0.00026811392, -1513334.3, 3389.3105, 0.0, 10.017265, 9.974104 
6.93686e+3, 1.5520649e+2, -1415254.9, -1448445.4, 88.35671, 0.0017978017, 0.00008188768, -1415254.8, 3722.8813, 0.0, 10.017545, 9.97357 
6.936864e+3, 1.6517383e+2, -1327057.5, -1369839.9, 129.7507, 0.0017947033, 0.00016315478, -1327057.1, -5759.513, 0.0, 10.017812, 9.961238 
6.9368684e+3, 1.7513512e+2, -1228793.1, -1272082.8, 99.47744, 0.0018018772, 0.0000554537, -1228792.9, -5115.8926, 0.0, 10.018065, 9.960824 
6.936873e+3, 1.8508965e+2, -1140567.9, -1193722.8, 132.96968, 0.0018072404, 0.00019908273, -1140567.6, -14445.143, 0.0, 10.018314, 9.94817 
6.9368774e+3, 1.9503786e+2, -1042136.25, -1095737.3, 103.48918, 0.0018107909, 0.000068266745, -1042136.06, -13506.04, 0.0, 10.018558, 9.947826 
6.9368815e+3, 2.0497914e+2, -954066.9, -1018025.2, 139.34956, 0.0018083487, 0.000188302, -954066.6, -22861.248, 0.0, 10.018802, 9.934566 
6.9368863e+3, 2.1491374e+2, -855503.3, -919908.94, 107.4801, 0.0017999166, -0.00001052074, -855503.1, -21656.879, 0.0, 10.019045, 9.934222 
6.9368905e+3, 2.248415e+2, -767145.9, -842002.3, 134.12184, 0.0018016576, 0.00023548036, -767145.6, -30591.45, 0.0, 10.019285, 9.920892 
6.936895e+3, 2.3476245e+2, -668453.94, -743747.8, 106.76021, 0.0018140471, 0.00002624464, -668453.75, -29124.928, 0.0, 10.019522, 9.920555 
6.9369006e+3, 2.4467634e+2, -580022.44, -666096.7, 121.82028, 0.0018164944, 0.00018581189, -580022.25, -37849.48, 0.0, 10.019766, 9.906866 
6.9369054e+3, 2.545833e+2, -480999.4, -567346.1, 100.94027, 0.0018078071, -0.000004486041, -480999.28, -35914.9, 0.0, 10.020017, 9.906757 
6.9369096e+3, 2.6448306e+2, -392681.97, -490370.63, 107.627594, 0.0018061954, 0.00023876499, -392681.84, -44614.97, 0.0, 10.020273, 9.892379 
6.9369143e+3, 2.7437598e+2, -293123.34, -390693.25, 84.569626, 0.0018130009, -0.00010353388, -293123.28, -42006.992, 0.0, 10.0205345, 9.892781 
6.9369197e+3, 2.8426066e+2, -206323.0, -317331.34, 91.10981, 0.0018156307, 0.00032744734, -206322.92, -52076.473, 0.0, 10.020808, 9.875815 
6.936925e+3, 2.941375e+2, -106302.25, -216916.36, 69.13945, 0.0018128051, -0.00016133457, -106302.21, -48849.004, 0.0, 10.021097, 9.876593 
6.93693e+3, 3.0404186e+2, -17009.842, -85202.914, 70.02274, 0.0018130839, 0.0002592665, -17009.771, -17009.771, 0.0, 10.021398, 9.931575 
6.9369346e+3, 3.1397521e+2, -15544.409, -82887.1, 51.23814, 0.0018175993, 0.000026853708, -15544.37, -15544.37, 0.0, 10.021714, 9.932986 
6.946866e+3, 1.252617e+2, -1698985.5, -1721615.3, -35.28183, 0.0018003377, 0.00018688681, -1698985.5, 13451.09, 0.0, 10.016892, 9.986883 
6.9468695e+3, 1.3524842e+2, -1601190.5, -1624655.0, -67.58768, 0.0018107431, 0.000006601243, -1601190.3, 13376.268, 0.0, 10.01721, 9.9860935 
6.9468737e+3, 1.4522842e+2, -1513020.8, -1545845.5, -22.27869, 0.0018128516, 0.00026831028, -1513020.8, 3741.8628, 0.0, 10.0175085, 9.974015 
6.946878e+3, 1.552024e+2, -1414939.8, -1448381.1, -56.95768, 0.0018070342, 0.00008035189, -1414939.6, 4077.9111, 0.0, 10.017789, 9.973481 
6.9468826e+3, 1.6516966e+2, -1326737.1, -1369767.8, -28.741861, 0.0018063106, 0.00016152, -1326737.1, -5398.763, 0.0, 10.018057, 9.961154 
6.946887e+3, 1.7513086e+2, -1228473.3, -1272011.6, -60.845047, 0.0018103597, 0.000055245684, -1228473.1, -4754.612, 0.0, 10.0183115, 9.96074 
6.946891e+3, 1.8508533e+2, -1140245.6, -1193648.9, -34.050808, 0.0018133381, 0.00019869523, -1140245.6, -14080.715, 0.0, 10.018562, 9.948088 
6.946896e+3, 1.9503345e+2, -1041812.5, -1095663.6, -66.62435, 0.001815191, 0.00006615248, -1041812.44, -13139.188, 0.0, 10.018807, 9.947744 
6.9469005e+3, 2.0497464e+2, -953749.1, -1017960.56, -35.069424, 0.0018143613, 0.000186951, -953749.1, -22499.684, 0.0, 10.019051, 9.934479 
6.946905e+3, 2.1490917e+2, -855192.5, -919848.6, -69.11165, 0.001810838, -0.000008611573, -855192.44, -21301.281, 0.0, 10.01929, 9.934135 
6.94691e+3, 2.2483684e+2, -766824.25, -841914.75, -44.254208, 0.0018121374, 0.00023636578, -766824.25, -30224.428, 0.0, 10.019528, 9.920825 
6.946915e+3, 2.3475772e+2, -668135.4, -743662.25, -67.92938, 0.0018184535, 0.000021608988, -668135.3, -28760.164, 0.0, 10.019764, 9.920488 
6.94692e+3, 2.4467154e+2, -579707.06, -666010.56, -49.15367, 0.0018202158, 0.00018153408, -579707.06, -37487.316, 0.0, 10.020005, 9.906802 
6.9469255e+3, 2.5457847e+2, -480692.38, -567264.94, -74.30314, 0.0018168853, -0.0000018385947, -480692.3, -35560.375, 0.0, 10.020252, 9.906693 
6.94693e+3, 2.6447815e+2, -392368.4, -490275.0, -61.35687, 0.0018165977, 0.00024227049, -392368.38, -44253.375, 0.0, 10.020508, 9.892325 
6.9469357e+3, 2.74371e+2, -292803.56, -390594.78, -76.749245, 0.0018198604, -0.00010645568, -292803.5, -41638.527, 0.0, 10.020775, 9.892729 
6.9469404e+3, 2.8425562e+2, -206007.64, -317251.94, -58.526005, 0.0018213018, 0.00032296273, -206007.61, -51711.88, 0.0, 10.021053, 9.875749 
6.946946e+3, 2.941324e+2, -105983.305, -216837.23, -81.76795, 0.0018203928, -0.00016094942, -105983.24, -48480.117, 0.0, 10.021346, 9.876525 
6.946951e+3, 3.040367e+2, -16663.328, -85083.71, -65.00876, 0.0018212291, 0.00026083778, -16663.266, -16663.266, 0.0, 10.021656, 9.931531 
6.9469565e+3, 3.1397003e+2, -15171.998, -82752.37, -75.57525, 0.0018242911, 0.000024561139, -15171.914, -15171.914, 0.0, 10.021989, 9.932945 
6.9568825e+3, 1.2525758e+2, -1699058.9, -1721759.0, 72.681816, 0.0018246069, 0.00018446303, -1699058.6, 13418.233, 0.0, 10.016896, 9.986793 
6.9568866e+3, 1.3524422e+2, -1601263.9, -1624798.5, 39.89287, 0.0018052572, 0.000010009626, -1601263.8, 13343.981, 0.0, 10.017212, 9.986004 
6.956891e+3, 1.4522412e+2, -1513099.3, -1545996.8, 71.98134, 0.0018042586, 0.00027105195, -1513099.1, 3705.6675, 0.0, 10.017509, 9.973921 
6.956896e+3, 1.5519801e+2, -1415020.0, -1448532.9, 37.720978, 0.0018196091, 0.00007647876, -1415020.0, 4040.6543, 0.0, 10.017789, 9.973387 
6.9569004e+3, 1.6516517e+2, -1326812.5, -1369907.8, 56.16362, 0.0018245799, 0.00015740775, -1326812.5, -5430.1206, 0.0, 10.018055, 9.961067 
6.956905e+3, 1.751263e+2, -1228549.6, -1272151.8, 23.534922, 0.0018199718, 0.000056820667, -1228549.6, -4786.314, 0.0, 10.018309, 9.960654 
6.95691e+3, 1.8508066e+2, -1140322.6, -1193788.8, 46.25841, 0.0018168715, 0.00020025088, -1140322.6, -14112.18, 0.0, 10.018558, 9.948002 
6.9569147e+3, 1.950287e+2, -1041890.25, -1095803.4, 13.130908, 0.0018151368, 0.00006222826, -1041890.25, -13170.523, 0.0, 10.018802, 9.947659 
6.9569194e+3, 2.0496982e+2, -953831.0, -1018105.6, 42.861984, 0.0018186097, 0.00018373999, -953831.0, -22534.215, 0.0, 10.019043, 9.93439 
6.956925e+3, 2.1490423e+2, -855276.94, -919994.5, 9.634879, 0.0018272694, -0.0000049421087, -855276.94, -21337.604, 0.0, 10.019281, 9.934047 
6.9569296e+3, 2.2483185e+2, -766890.4, -842021.75, 33.199013, 0.00182737, 0.00023899153, -766890.3, -30241.594, 0.0, 10.019518, 9.920761 
6.956935e+3, 2.3475266e+2, -668201.56, -743768.56, 8.859904, 0.0018184152, 0.0000148543195, -668201.56, -28776.783, 0.0, 10.0197525, 9.920425 
6.9569397e+3, 2.4466641e+2, -579778.6, -666125.56, 31.773201, 0.0018183436, 0.00017499698, -579778.6, -37508.66, 0.0, 10.019993, 9.9067335 
6.956945e+3, 2.545733e+2, -480766.0, -567380.7, 7.7895513, 0.0018282132, 0.0000025878812, -480766.0, -35583.207, 0.0, 10.020237, 9.906625 
6.9569504e+3, 2.644729e+2, -392427.94, -490358.56, 28.383501, 0.0018312456, 0.00024794898, -392427.9, -44261.508, 0.0, 10.020492, 9.892279 
6.956956e+3, 2.743657e+2, -292864.44, -390677.38, 12.416701, 0.0018259285, -0.00011122291, -292864.44, -41647.55, 0.0, 10.020757, 9.892683 
6.956962e+3, 2.8425023e+2, -206086.75, -317369.72, 39.761375, 0.0018245983, 0.00031617953, -206086.73, -51738.53, 0.0, 10.021033, 9.875681 
6.956967e+3, 2.94127e+2, -106063.48, -216956.92, 18.364176, 0.0018285232, -0.0001588579, -106063.48, -48507.254, 0.0, 10.021326, 9.876455 
6.956973e+3, 3.0403125e+2, -16720.404, -85153.36, 48.744553, 0.0018306761, 0.0002647524, -16720.37, -16720.37, 0.0, 10.021634, 9.931495 
6.9569784e+3, 3.1396452e+2, -15229.578, -82818.27, 39.339447, 0.001829926, 0.00001996626, -15229.555, -15229.555, 0.0, 10.021965, 9.932912 
6.9668996e+3, 1.2525308e+2, -1698743.1, -1721703.0, -56.08752, 0.0018264018, 0.0001837356, -1698743.0, 13777.897, 0.0, 10.017143, 9.986694 
6.9669044e+3, 1.3523965e+2, -1600930.9, -1624733.8, -94.39358, 0.0018166157, 0.0000098239925, -1600930.5, 13722.202, 0.0, 10.01747, 9.985906 
6.9669086e+3, 1.4521943e+2, -1512755.4, -1545923.1, -82.02084, 0.0018167404, 0.0002705195, -1512755.1, 4095.4976, 0.0, 10.017774, 9.973825 
6.9669133e+3, 1.5519322e+2, -1414677.4, -1448460.5, -117.63958, 0.0018254811, 0.0000747984, -1414676.9, 4430.546, 0.0, 10.018053, 9.973292 
6.966919e+3, 1.651603e+2, -1326472.3, -1369838.0, -112.71323, 0.0018286721, 0.00015562604, -1326471.9, -5041.795, 0.0, 10.018319, 9.960973 
6.9669235e+3, 1.7512132e+2, -1228213.1, -1272084.8, -150.35442, 0.0018267642, 0.000055910245, -1228212.5, -4400.5317, 0.0, 10.018571, 9.960559 
6.966929e+3, 1.8507561e+2, -1139990.5, -1193724.4, -137.08652, 0.001825195, 0.00020015366, -1139990.3, -13730.115, 0.0, 10.018818, 9.947907 
6.9669336e+3, 1.9502355e+2, -1041565.1, -1095743.4, -175.21652, 0.0018238409, 0.00006288621, -1041564.56, -12794.255, 0.0, 10.019059, 9.947564 
6.966939e+3, 2.0496456e+2, -953507.56, -1018033.25, -151.1787, 0.0018263883, 0.00018317095, -953507.2, -22159.021, 0.0, 10.019294, 9.934308 
6.966944e+3, 2.1489891e+2, -854970.5, -919931.56, -181.77898, 0.0018327974, -0.000008719953, -854970.0, -20978.434, 0.0, 10.019522, 9.933965 
6.966949e+3, 2.2482644e+2, -766584.75, -841944.5, -158.27605, 0.0018333951, 0.00023645489, -766584.44, -29882.709, 0.0, 10.019752, 9.920692 
6.9669545e+3, 2.3474719e+2, -667902.44, -743695.06, -185.3824, 0.0018278529, 0.000018269848, -667902.0, -28423.625, 0.0, 10.019983, 9.920357 
6.9669604e+3, 2.4466087e+2, -579479.94, -666041.2, -159.35208, 0.0018276644, 0.00017787765, -579479.6, -37155.438, 0.0, 10.020218, 9.906675 
6.966966e+3, 2.5456768e+2, -480478.28, -567302.2, -178.16785, 0.0018334389, -0.0000023702946, -480477.9, -35240.25, 0.0, 10.020456, 9.906568 
6.966971e+3, 2.6446727e+2, -392144.5, -490276.25, -148.61806, 0.0018359913, 0.00024225969, -392144.25, -43922.44, 0.0, 10.020705, 9.892226 
6.966977e+3, 2.7435997e+2, -292587.63, -390598.78, -166.59311, 0.0018345653, -0.00010903721, -292587.34, -41314.6, 0.0, 10.0209675, 9.892632 
6.966983e+3, 2.842445e+2, -205813.53, -317300.1, -127.09717, 0.0018342402, 0.00032019007, -205813.38, -51408.797, 0.0, 10.021245, 9.875623 
6.966989e+3, 2.9412115e+2, -105781.76, -216884.36, -141.43163, 0.0018353909, -0.00016089271, -105781.58, -48168.363, 0.0, 10.021544, 9.876397 
6.9669944e+3, 3.0402538e+2, -16414.238, -85042.69, -91.14632, 0.0018366475, 0.0002609566, -16414.117, -16414.117, 0.0, 10.02186, 9.93146 
6.9670004e+3, 3.1395862e+2, -14911.116, -82698.695, -97.15175, 0.0018376573, 0.000020884385, -14910.978, -14910.978, 0.0, 10.022199, 9.93288 
6.976917e+3, 1.2524828e+2, -1698823.6, -1721867.5, 57.1342, 0.0018173195, 0.00018365229, -1698823.5, 13744.584, 0.0, 10.017149, 9.98659 
6.976922e+3, 1.3523473e+2, -1601017.4, -1624900.9, 18.679731, 0.0018360248, 0.00000755573, -1601017.4, 13683.497, 0.0, 10.017472, 9.985802 
6.976927e+3, 1.4521442e+2, -1512837.5, -1546079.3, 12.884316, 0.001839323, 0.00026810938, -1512837.5, 4062.274, 0.0, 10.017774, 9.973729 
6.9769317e+3, 1.5518811e+2, -1414757.4, -1448615.3, -23.71554, 0.00182816, 0.000074071664, -1414757.3, 4400.2153, 0.0, 10.018054, 9.973195 
6.976937e+3, 1.6515508e+2, -1326555.9, -1369999.1, -29.31061, 0.0018259509, 0.00015487893, -1326555.9, -5074.7334, 0.0, 10.018319, 9.960872 
6.976942e+3, 1.7511602e+2, -1228299.0, -1272246.6, -66.58713, 0.0018321754, 0.00005356712, -1228299.0, -4434.8687, 0.0, 10.01857, 9.960458 
6.976947e+3, 1.8507019e+2, -1140079.5, -1193887.4, -57.68853, 0.0018357802, 0.00019895729, -1140079.5, -13766.373, 0.0, 10.018814, 9.947807 
6.9769526e+3, 1.9501804e+2, -1041657.8, -1095907.8, -96.311134, 0.0018367805, 0.00006547301, -1041657.6, -12833.378, 0.0, 10.019052, 9.947464 
6.976958e+3, 2.0495898e+2, -953585.06, -1018165.6, -77.2416, 0.001835906, 0.00018369015, -953585.0, -22181.936, 0.0, 10.019285, 9.934228 
6.976963e+3, 2.1489322e+2, -855047.0, -920062.94, -107.77038, 0.001833114, -0.000016141777, -855046.9, -20999.547, 0.0, 10.019513, 9.933885 
6.976969e+3, 2.2482067e+2, -766657.2, -842064.44, -82.60442, 0.001834971, 0.00023128759, -766657.06, -29898.918, 0.0, 10.019741, 9.920621 
6.9769746e+3, 2.3474136e+2, -667979.9, -743816.94, -109.37694, 0.0018417288, 0.000026114263, -667979.7, -28444.254, 0.0, 10.019969, 9.920286 
6.9769806e+3, 2.44655e+2, -579546.1, -666136.25, -80.73946, 0.0018423025, 0.00018489186, -579546.06, -37164.176, 0.0, 10.020202, 9.906622 
6.9769865e+3, 2.5456172e+2, -480543.97, -567395.94, -99.85661, 0.0018358735, -0.00001174023, -480543.84, -35247.895, 0.0, 10.020439, 9.906514 
6.976992e+3, 2.6446125e+2, -392212.2, -490372.38, -61.675304, 0.0018360979, 0.00023121864, -392212.13, -43931.484, 0.0, 10.020687, 9.892173 
6.976998e+3, 2.7435395e+2, -292657.13, -390695.4, -78.344894, 0.0018442639, -0.000103989616, -292657.06, -41325.06, 0.0, 10.020947, 9.892577 
6.977004e+3, 2.842384e+2, -205884.16, -317394.66, -25.317162, 0.0018467238, 0.00032889508, -205884.16, -51419.813, 0.0, 10.021223, 9.875571 
6.9770104e+3, 2.94115e+2, -105855.75, -216979.86, -39.204388, 0.0018417262, -0.00016498874, -105855.734, -48182.184, 0.0, 10.02152, 9.876346 
6.9770163e+3, 3.0401915e+2, -16474.865, -85107.1, 23.883993, 0.001841092, 0.00025366622, -16474.857, -16474.857, 0.0, 10.021833, 9.931429 
6.977023e+3, 3.139524e+2, -14970.172, -82759.74, 20.303349, 0.0018462801, 0.000024018691, -14970.166, -14970.166, 0.0, 10.022172, 9.932852 
6.986934e+3, 1.2524308e+2, -1698448.9, -1721793.4, -78.2607, 0.0018269881, 0.00018330733, -1698448.6, 14170.177, 0.0, 10.017439, 9.986481 
6.9869393e+3, 1.3522941e+2, -1600655.9, -1624834.6, -120.98513, 0.0018417051, 0.0000039578404, -1600655.3, 14097.553, 0.0, 10.0177555, 9.985692 
6.9869447e+3, 1.4520901e+2, -1512475.8, -1546014.3, -145.60333, 0.0018446031, 0.00026524303, -1512475.1, 4477.661, 0.0, 10.018058, 9.9736185 
6.98695e+3, 1.551826e+2, -1414383.5, -1448544.5, -190.03447, 0.0018363525, 0.000075587835, -1414382.5, 4829.1025, 0.0, 10.018347, 9.973085 
6.9869554e+3, 1.6514948e+2, -1326176.3, -1369916.6, -215.44127, 0.0018345099, 0.00015667919, -1326175.3, -4638.976, 0.0, 10.018612, 9.96077 
6.986961e+3, 1.751103e+2, -1227933.6, -1272172.6, -254.34663, 0.0018386687, 0.000051821335, -1227932.3, -4012.056, 0.0, 10.018854, 9.960356 
6.986966e+3, 1.8506436e+2, -1139739.0, -1193834.9, -255.47224, 0.0018420882, 0.00019616602, -1139737.8, -13367.492, 0.0, 10.019087, 9.947699 
6.9869715e+3, 1.9501208e+2, -1041342.44, -1095869.1, -298.8812, 0.0018446945, 0.000064037806, -1041340.8, -12458.356, 0.0, 10.01931, 9.947355 
6.9869775e+3, 2.0495293e+2, -953262.9, -1018091.5, -284.4287, 0.0018440702, 0.000183659, -953261.6, -21799.477, 0.0, 10.019533, 9.934148 
6.9869834e+3, 2.1488711e+2, -854732.56, -919993.5, -315.75775, 0.0018401591, -0.000014709333, -854731.06, -20623.883, 0.0, 10.019757, 9.9338045 
6.986989e+3, 2.248145e+2, -766352.75, -841987.6, -294.47394, 0.0018413584, 0.00023144414, -766351.6, -29532.8, 0.0, 10.019974, 9.920552 
6.986995e+3, 2.347351e+2, -667707.0, -743756.75, -320.0367, 0.0018479394, 0.00002209081, -667705.7, -28108.908, 0.0, 10.020182, 9.9202175 
6.987001e+3, 2.4464867e+2, -579282.75, -666065.94, -284.60263, 0.0018495761, 0.00018175201, -579281.8, -36838.016, 0.0, 10.020402, 9.906568 
6.9870067e+3, 2.5455534e+2, -480287.97, -567329.5, -304.10297, 0.0018456229, -0.000008275816, -480286.9, -34928.543, 0.0, 10.020636, 9.90646 
6.9870126e+3, 2.644548e+2, -391956.72, -490295.16, -256.97076, 0.0018451057, 0.00023465167, -391956.03, -43612.484, 0.0, 10.020879, 9.892128 
6.987019e+3, 2.7434748e+2, -292411.03, -390622.94, -267.87814, 0.0018486021, -0.00010864284, -292410.3, -41014.902, 0.0, 10.021133, 9.892533 
6.987025e+3, 2.8423187e+2, -205653.69, -317341.25, -199.96637, 0.0018506573, 0.00032308148, -205653.33, -51125.113, 0.0, 10.021404, 9.875519 
6.9870317e+3, 2.9410845e+2, -105634.42, -216932.39, -213.25694, 0.001850909, -0.0001627214, -105634.01, -47896.113, 0.0, 10.021696, 9.876292 
6.987039e+3, 3.0401257e+2, -16226.623, -85006.82, -126.77211, 0.0018513871, 0.00025787254, -16226.389, -16226.389, 0.0, 10.022012, 9.931411 
6.987045e+3, 3.1394577e+2, -14699.369, -82644.086, -120.71592, 0.0018516046, 0.000021555916, -14699.155, -14699.155, 0.0, 10.022364, 9.932837 
6.996951e+3, 1.2523758e+2, -1698543.4, -1721978.1, 30.674671, 0.0018457483, 0.00018258327, -1698543.4, 14129.461, 0.0, 10.017443, 9.986365 
6.996957e+3, 1.3522379e+2, -1600742.9, -1625015.0, -12.611735, 0.0018407332, -0.00000031852232, -1600742.9, 14065.006, 0.0, 10.017763, 9.985577 
6.996963e+3, 1.4520326e+2, -1512567.0, -1546201.1, -47.88971, 0.0018414499, 0.00026208683, -1512566.9, 4442.207, 0.0, 10.0180645, 9.973499 
6.9969684e+3, 1.5517674e+2, -1414482.3, -1448734.6, -92.09265, 0.001847151, 0.000077801895, -1414482.0, 4787.041, 0.0, 10.018348, 9.972966 
6.9969743e+3, 1.6514349e+2, -1326266.8, -1370085.5, -134.65605, 0.0018484958, 0.00015930382, -1326266.4, -4671.5645, 0.0, 10.01861, 9.960665 
6.99698e+3, 1.751042e+2, -1228024.3, -1272341.3, -173.98514, 0.0018457765, 0.000050220235, -1228023.5, -4043.798, 0.0, 10.018852, 9.960251 
6.996985e+3, 1.8505816e+2, -1139838.1, -1194019.0, -182.65987, 0.0018463738, 0.00019252556, -1139837.5, -13406.57, 0.0, 10.019084, 9.947584 
6.996991e+3, 1.9500579e+2, -1041442.2, -1096053.0, -225.94276, 0.0018501024, 0.000060476417, -1041441.25, -12497.002, 0.0, 10.019305, 9.947241 
6.996997e+3, 2.0494653e+2, -953340.4, -1018226.0, -211.18382, 0.0018514867, 0.00018307725, -953339.7, -21814.77, 0.0, 10.019526, 9.934067 
6.997003e+3, 2.1488063e+2, -854817.06, -920131.06, -242.72307, 0.0018504793, -0.000009408222, -854816.2, -20645.52, 0.0, 10.019744, 9.933723 
6.997009e+3, 2.2480793e+2, -766428.9, -842104.7, -226.98573, 0.0018501552, 0.00023388985, -766428.2, -29545.158, 0.0, 10.0199585, 9.920485 
6.997015e+3, 2.3472849e+2, -667780.3, -743871.6, -252.52335, 0.0018505161, 0.000012403109, -667779.5, -28117.766, 0.0, 10.020168, 9.92015 
6.997021e+3, 2.4464199e+2, -579348.9, -666163.56, -207.76656, 0.0018532443, 0.00017367242, -579348.4, -36838.965, 0.0, 10.020387, 9.906511 
6.9970274e+3, 2.545486e+2, -480359.94, -567429.2, -226.96674, 0.0018586341, 0.0000007643541, -480359.34, -34934.996, 0.0, 10.020616, 9.9064045 
6.997034e+3, 2.6444802e+2, -392020.72, -490372.1, -172.14743, 0.0018582348, 0.00024451423, -392020.4, -43610.42, 0.0, 10.020856, 9.892089 
6.99704e+3, 2.7434063e+2, -292475.78, -390698.84, -182.56337, 0.0018506325, -0.0001177639, -292475.44, -41013.113, 0.0, 10.021109, 9.892495 
6.997047e+3, 2.8422502e+2, -205730.8, -317440.28, -101.13294, 0.0018507482, 0.0003106185, -205730.7, -51135.082, 0.0, 10.0213785, 9.875465 
6.9970536e+3, 2.9410154e+2, -105713.17, -217033.02, -112.548355, 0.0018611532, -0.00015804914, -105713.055, -47907.344, 0.0, 10.021668, 9.876239 
6.997061e+3, 3.0400562e+2, -16276.656, -85043.055, -5.812866, 0.0018641171, 0.00026698457, -16276.656, -16276.656, 0.0, 10.021983, 9.9314 
6.9970673e+3, 3.1393883e+2, -14751.872, -82676.12, 2.1257753, 0.0018555915, 0.000016419173, -14751.872, -14751.872, 0.0, 10.02233, 9.932831 
7.006969e+3, 1.2523167e+2, -1698148.4, -1721912.8, -108.83122, 0.0018552339, 0.00018079183, -1698147.9, 14582.797, 0.0, 10.017754, 9.9862385 
7.006975e+3, 1.3521777e+2, -1600309.4, -1624929.8, -159.77083, 0.0018462957, 0.0000026002397, -1600308.3, 14558.662, 0.0, 10.018099, 9.98545 
7.006981e+3, 1.4519711e+2, -1512128.4, -1546108.3, -224.03444, 0.001846319, 0.00026428088, -1512126.9, 4942.504, 0.0, 10.018402, 9.973378 
7.006987e+3, 1.5517046e+2, -1414078.4, -1448661.0, -271.03757, 0.0018542961, 0.0000742661, -1414076.3, 5254.262, 0.0, 10.018665, 9.972845 
7.0069927e+3, 1.651371e+2, -1325877.3, -1370010.5, -330.17603, 0.0018569793, 0.00015535507, -1325874.8, -4217.401, 0.0, 10.018914, 9.960552 
7.0069987e+3, 1.750977e+2, -1227645.5, -1272272.8, -374.6933, 0.0018546866, 0.000050862174, -1227642.4, -3598.8896, 0.0, 10.019151, 9.960138 
7.0070046e+3, 1.8505155e+2, -1139477.3, -1193965.9, -396.54132, 0.0018539227, 0.00019420448, -1139474.4, -12978.634, 0.0, 10.019374, 9.947467 
7.0070106e+3, 1.9499905e+2, -1041100.2, -1096010.5, -442.39664, 0.0018545269, 0.000059736536, -1041096.6, -12086.381, 0.0, 10.019585, 9.947124 
7.0070165e+3, 2.049397e+2, -953004.56, -1018149.94, -435.76535, 0.0018565173, 0.00018120681, -953001.6, -21409.72, 0.0, 10.019785, 9.933982 
7.007023e+3, 2.1487372e+2, -854528.1, -920079.7, -469.38016, 0.0018598767, -0.000011106092, -854524.75, -20286.242, 0.0, 10.019975, 9.933639 
7.007029e+3, 2.2480094e+2, -766152.8, -842039.56, -452.94113, 0.0018602241, 0.00023322209, -766150.1, -29198.492, 0.0, 10.020172, 9.920418 
7.007035e+3, 2.3472142e+2, -667511.8, -743810.6, -477.97592, 0.001857328, 0.000013700687, -667508.8, -27777.887, 0.0, 10.020377, 9.920084 
7.0070416e+3, 2.4463485e+2, -579092.75, -666095.4, -430.35342, 0.0018582859, 0.00017403631, -579090.6, -36511.418, 0.0, 10.020582, 9.906458 
7.007048e+3, 2.5454143e+2, -480141.97, -567380.4, -448.2459, 0.0018635826, -0.0000031145153, -480139.7, -34644.957, 0.0, 10.020786, 9.906352 
7.0070547e+3, 2.644408e+2, -391815.63, -490309.5, -380.2432, 0.0018651737, 0.00024156338, -391814.16, -43333.367, 0.0, 10.021009, 9.892054 
7.007061e+3, 2.7433342e+2, -292283.16, -390641.88, -387.46954, 0.0018620953, -0.00011344303, -292281.63, -40748.207, 0.0, 10.021255, 9.892461 
7.0070684e+3, 2.8421772e+2, -205552.52, -317400.78, -288.5143, 0.0018612811, 0.0003147433, -205551.78, -50884.7, 0.0, 10.021519, 9.8754225 
7.007075e+3, 2.9409418e+2, -105537.73, -216996.13, -293.09464, 0.0018635553, -0.00016392562, -105536.95, -47659.285, 0.0, 10.021809, 9.876195 
7.0070827e+3, 3.0399826e+2, -16079.821, -84954.14, -160.31332, 0.0018658494, 0.00025939272, -16079.448, -16079.448, 0.0, 10.02212, 9.931394 
7.00709e+3, 3.1393147e+2, -14558.073, -82584.01, -147.20976, 0.0018674071, 0.00001953352, -14557.755, -14557.755, 0.0, 10.022464, 9.932829 
7.0169866e+3, 1.2522544e+2, -1698245.9, -1722122.9, 11.830723, 0.0018599388, 0.00017831617, -1698245.9, 14545.982, 0.0, 10.017766, 9.986102 
7.016993e+3, 1.352114e+2, -1600419.0, -1625145.8, -39.658432, 0.0018551645, 0.000008473007, -1600419.0, 14510.434, 0.0, 10.018104, 9.985313 
7.017e+3, 1.4519061e+2, -1512232.9, -1546309.5, -134.30855, 0.0018552771, 0.00026861797, -1512232.4, 4900.7705, 0.0, 10.018404, 9.973252 
7.017005e+3, 1.5516382e+2, -1414177.5, -1448858.9, -181.64078, 0.0018596491, 0.000067925415, -1414176.6, 5218.939, 0.0, 10.018669, 9.972719 
7.0170116e+3, 1.6513035e+2, -1325971.9, -1370198.6, -251.28975, 0.0018626404, 0.00014822479, -1325970.5, -4246.8135, 0.0, 10.018917, 9.960433 
7.017018e+3, 1.7509083e+2, -1227745.8, -1272463.4, -296.06577, 0.0018643365, 0.000052253956, -1227743.8, -3632.935, 0.0, 10.01915, 9.960019 
7.017024e+3, 1.8504456e+2, -1139583.9, -1194161.5, -327.59305, 0.0018630301, 0.00019803568, -1139582.0, -13017.685, 0.0, 10.019369, 9.947346 
7.01703e+3, 1.9499193e+2, -1041211.0, -1096207.8, -373.38358, 0.0018587202, 0.000060104474, -1041208.44, -12128.47, 0.0, 10.019577, 9.947002 
7.0170367e+3, 2.0493248e+2, -953090.2, -1018295.3, -374.53564, 0.0018605641, 0.00017856927, -953088.06, -21425.377, 0.0, 10.019775, 9.933894 
7.017043e+3, 2.1486641e+2, -854612.6, -920223.8, -408.19443, 0.0018686134, -0.000016296683, -854610.1, -20299.963, 0.0, 10.019964, 9.933552 
7.017049e+3, 2.2479357e+2, -766224.44, -842152.6, -386.16873, 0.0018706344, 0.00023082727, -766222.5, -29198.506, 0.0, 10.020159, 9.920352 
7.017056e+3, 2.3471397e+2, -667591.3, -743926.9, -411.43866, 0.0018661825, 0.000019792169, -667589.1, -27785.236, 0.0, 10.020358, 9.920018 
7.0170623e+3, 2.4462736e+2, -579165.6, -666192.56, -363.58026, 0.0018641462, 0.00017809428, -579164.1, -36511.383, 0.0, 10.02056, 9.906405 
7.017069e+3, 2.5453386e+2, -480212.78, -567475.56, -380.86447, 0.0018648175, -0.000013037978, -480211.13, -34642.246, 0.0, 10.020765, 9.9063 
7.0170754e+3, 2.644332e+2, -391874.4, -490376.38, -298.23236, 0.0018690954, 0.00023252793, -391873.5, -43318.156, 0.0, 10.020987, 9.892021 
7.0170826e+3, 2.743258e+2, -292348.25, -390710.28, -304.93814, 0.0018776014, -0.00010347747, -292347.3, -40739.168, 0.0, 10.021227, 9.89243 
7.01709e+3, 2.8421006e+2, -205626.73, -317479.9, -190.14839, 0.0018764749, 0.00032614826, -205626.4, -50884.285, 0.0, 10.021487, 9.875386 
7.017097e+3, 2.9408646e+2, -105614.055, -217076.28, -193.06056, 0.0018626836, -0.00017452822, -105613.72, -47660.492, 0.0, 10.021774, 9.876158 
7.0171046e+3, 3.039905e+2, -16132.212, -84981.71, -41.747, 0.0018628238, 0.00024449124, -16132.1875, -16132.1875, 0.0, 10.022085, 9.931392 
7.0171124e+3, 3.1392375e+2, -14609.503, -82606.58, -25.748823, 0.0018823362, 0.000025788991, -14609.493, -14609.493, 0.0, 10.022428, 9.932831 
7.027005e+3, 1.2521881e+2, -1697741.0, -1722019.5, -135.35104, 0.0018604037, 0.00017886148, -1697740.3, 15116.509, 0.0, 10.018155, 9.985957 
7.0270115e+3, 1.3520461e+2, -1599962.4, -1625068.9, -193.4677, 0.0018671901, 0.0000042818524, -1599960.9, 15034.938, 0.0, 10.018463, 9.985169 
7.027018e+3, 1.4518368e+2, -1511784.9, -1546227.1, -313.21643, 0.0018687828, 0.00026483217, -1511782.1, 5418.797, 0.0, 10.018754, 9.973117 
7.0270246e+3, 1.5515679e+2, -1413719.6, -1448772.1, -366.9619, 0.0018653466, 0.00006931037, -1413715.9, 5748.763, 0.0, 10.019027, 9.972584 
7.0270306e+3, 1.6512316e+2, -1325521.9, -1370107.3, -461.93912, 0.0018656765, 0.00015025407, -1325517.0, -3723.078, 0.0, 10.019267, 9.960307 
7.027037e+3, 1.7508353e+2, -1227335.0, -1272393.8, -511.43823, 0.0018695258, 0.000050648043, -1227329.3, -3146.7856, 0.0, 10.019476, 9.959892 
7.0270437e+3, 1.8503712e+2, -1139210.9, -1194110.9, -556.97943, 0.0018708732, 0.00019568141, -1139205.1, -12568.075, 0.0, 10.019671, 9.947221 
7.0270497e+3, 1.9498438e+2, -1040877.4, -1096178.4, -606.1084, 0.0018696846, 0.000059812322, -1040870.75, -11716.738, 0.0, 10.019855, 9.9468775 
7.027057e+3, 2.049248e+2, -952758.6, -1018226.06, -614.58405, 0.001870019, 0.0001788475, -952752.9, -21015.105, 0.0, 10.020034, 9.933805 
7.027063e+3, 2.1485864e+2, -854304.8, -920167.4, -649.56683, 0.0018718372, -0.00001696341, -854298.4, -19912.287, 0.0, 10.020209, 9.933463 
7.0270693e+3, 2.2478572e+2, -765940.3, -842085.56, -630.7007, 0.0018736824, 0.00022967263, -765935.06, -28834.367, 0.0, 10.020378, 9.920283 
7.027076e+3, 2.3470607e+2, -667364.4, -743889.1, -657.0642, 0.001875555, 0.000018647315, -667358.75, -27477.424, 0.0, 10.020541, 9.9199505 
7.027083e+3, 2.446194e+2, -578958.2, -666139.3, -600.49664, 0.0018751961, 0.00017774868, -578954.06, -36223.34, 0.0, 10.02072, 9.906361 
7.0270896e+3, 2.5452587e+2, -480019.47, -567429.0, -613.7836, 0.0018722399, -0.000011672763, -480015.16, -34367.914, 0.0, 10.020916, 9.906256 
7.027097e+3, 2.6442516e+2, -391696.78, -490322.16, -520.5754, 0.0018739302, 0.00023260847, -391694.03, -43059.914, 0.0, 10.021119, 9.891991 
7.027104e+3, 2.7431768e+2, -292210.8, -390675.66, -525.15894, 0.0018811008, -0.00010835074, -292208.0, -40520.746, 0.0, 10.021333, 9.8924 
7.027111e+3, 2.8420198e+2, -205516.8, -317459.3, -387.56766, 0.0018824007, 0.0003224921, -205515.45, -50693.938, 0.0, 10.021575, 9.875357 
7.0271194e+3, 2.9407835e+2, -105515.15, -217061.33, -384.41415, 0.0018760844, -0.00016860105, -105513.83, -47480.98, 0.0, 10.021855, 9.876128 
7.027127e+3, 3.0398238e+2, -16008.451, -84907.49, -203.61978, 0.001875575, 0.00025095727, -16007.85, -16007.85, 0.0, 10.022163, 9.931403 
7.027135e+3, 3.1391558e+2, -14477.09, -82522.79, -176.9855, 0.0018824403, 0.000019931807, -14476.63, -14476.63, 0.0, 10.02251, 9.932847 
7.037023e+3, 1.2521183e+2, -1697861.1, -1722261.9, -27.087149, 0.0018593498, 0.00018052844, -1697861.1, 15063.962, 0.0, 10.018163, 9.985805 
7.03703e+3, 1.3519748e+2, -1600075.1, -1625306.5, -85.3654, 0.0018802533, -0.000004741036, -1600074.8, 14990.901, 0.0, 10.018476, 9.985016 
7.0370364e+3, 1.4517641e+2, -1511890.6, -1546449.3, -219.1139, 0.0018838838, 0.00025711817, -1511889.3, 5382.922, 0.0, 10.0187645, 9.972975 
7.0370436e+3, 1.5514937e+2, -1413834.3, -1448998.3, -273.64993, 0.0018713548, 0.000073976866, -1413832.1, 5705.0386, 0.0, 10.019031, 9.972442 
7.03705e+3, 1.6511561e+2, -1325632.4, -1370318.6, -392.4473, 0.001867812, 0.00015621644, -1325628.9, -3760.9397, 0.0, 10.019267, 9.960175 
7.0370567e+3, 1.7507583e+2, -1227445.8, -1272604.8, -441.27673, 0.0018727266, 0.000047423648, -1227441.4, -3183.6367, 0.0, 10.019475, 9.959761 
7.037063e+3, 1.8502931e+2, -1139321.9, -1194319.1, -496.5645, 0.0018779956, 0.00019023682, -1139317.4, -12603.663, 0.0, 10.019669, 9.947091 
7.03707e+3, 1.9497642e+2, -1040992.25, -1096388.0, -546.4613, 0.0018835419, 0.00005895066, -1040986.9, -11754.996, 0.0, 10.019849, 9.946748 
7.037077e+3, 2.0491675e+2, -952846.8, -1018376.56, -558.26465, 0.001881874, 0.00018021435, -952842.06, -21025.377, 0.0, 10.020024, 9.933715 
7.037083e+3, 2.1485052e+2, -854397.9, -920319.7, -593.1959, 0.0018727911, -0.000015786241, -854392.56, -19926.648, 0.0, 10.020195, 9.9333725 
7.03709e+3, 2.2477749e+2, -766019.94, -842206.6, -578.583, 0.0018735514, 0.0002288689, -766015.56, -28834.215, 0.0, 10.020362, 9.920215 
7.0370966e+3, 2.3469777e+2, -667444.06, -744009.2, -604.8102, 0.0018848749, 0.000013931578, -667439.25, -27476.635, 0.0, 10.020524, 9.919882 
7.037104e+3, 2.4461104e+2, -579021.6, -666219.56, -536.1746, 0.0018882668, 0.0001750891, -579018.3, -36205.79, 0.0, 10.020699, 9.906319 
7.037111e+3, 2.545175e+2, -480091.66, -567512.1, -549.48236, 0.0018825361, -0.0000054799602, -480088.2, -34358.766, 0.0, 10.020888, 9.906215 
7.0371175e+3, 2.6441675e+2, -391763.75, -490388.2, -449.5228, 0.0018793906, 0.00023665799, -391761.72, -43045.05, 0.0, 10.021089, 9.891962 
7.037125e+3, 2.7430925e+2, -292274.5, -390738.8, -452.66113, 0.001879181, -0.00011998547, -292272.44, -40502.254, 0.0, 10.021304, 9.892373 
7.037133e+3, 2.841935e+2, -205581.95, -317520.72, -291.34824, 0.0018839384, 0.00031194257, -205581.2, -50676.51, 0.0, 10.0215435, 9.875331 
7.037141e+3, 2.9406986e+2, -105590.16, -217126.94, -287.11505, 0.0018955156, -0.00015591332, -105589.42, -47473.324, 0.0, 10.021817, 9.876103 
7.037149e+3, 3.0397388e+2, -16055.849, -84906.25, -84.53089, 0.0018951973, 0.00026668323, -16055.745, -16055.745, 0.0, 10.02212, 9.931425 
7.0371574e+3, 3.1390712e+2, -14521.079, -82513.87, -54.72782, 0.0018762193, 0.000008769893, -14521.035, -14521.035, 0.0, 10.022466, 9.932874 
7.047041e+3, 1.2520447e+2, -1697327.0, -1722163.6, -174.08868, 0.0018758032, 0.0001786136, -1697325.8, 15671.389, 0.0, 10.0185795, 9.9856415 
7.047048e+3, 1.3518997e+2, -1599517.6, -1625197.0, -239.83792, 0.0018800878, -0.000004026436, -1599515.4, 15623.941, 0.0, 10.018908, 9.984853 
7.047056e+3, 1.4516874e+2, -1511344.1, -1546338.3, -409.19318, 0.0018819104, 0.0002580936, -1511339.3, 6008.143, 0.0, 10.019187, 9.972818 
7.0470625e+3, 1.5514153e+2, -1413343.0, -1448917.5, -471.844, 0.00188142, 0.0000729926, -1413336.8, 6277.265, 0.0, 10.019421, 9.972286 
7.047069e+3, 1.6510764e+2, -1325162.4, -1370225.5, -614.4656, 0.0018809976, 0.0001544897, -1325154.0, -3207.9048, 0.0, 10.019633, 9.960041 
7.047076e+3, 1.7506772e+2, -1227001.8, -1272526.4, -666.288, 0.0018805024, 0.00004613392, -1226992.0, -2654.801, 0.0, 10.019826, 9.959626 
7.047083e+3, 1.8502106e+2, -1138918.4, -1194269.4, -739.91345, 0.0018825872, 0.0001893567, -1138908.5, -12113.873, 0.0, 10.019999, 9.946952 
7.04709e+3, 1.9496804e+2, -1040635.06, -1096363.3, -795.37756, 0.00188711, 0.000058442507, -1040623.75, -11309.643, 0.0, 10.020149, 9.946609 
7.0470965e+3, 2.0490825e+2, -952502.4, -1018303.8, -815.9991, 0.0018876849, 0.00017988723, -952492.25, -20592.227, 0.0, 10.020292, 9.933623 
7.0471036e+3, 2.148419e+2, -854110.94, -920276.9, -852.00696, 0.0018841872, -0.000016128592, -854099.94, -19549.785, 0.0, 10.020428, 9.933281 
7.04711e+3, 2.2476883e+2, -765760.6, -842150.75, -838.5444, 0.0018841331, 0.00022833301, -765751.44, -28485.059, 0.0, 10.020565, 9.920147 
7.0471174e+3, 2.3468903e+2, -667220.44, -743971.56, -863.7299, 0.0018877401, 0.000013028797, -667210.75, -27162.432, 0.0, 10.020703, 9.919815 
7.0471245e+3, 2.4460225e+2, -578828.8, -666170.6, -789.4355, 0.0018905486, 0.00017397082, -578821.7, -35922.914, 0.0, 10.020846, 9.906276 
7.0471317e+3, 2.5450864e+2, -479962.8, -567494.9, -802.54944, 0.0018924284, -0.0000066474845, -479955.44, -34139.375, 0.0, 10.020994, 9.906173 
7.0471394e+3, 2.6440787e+2, -391655.38, -490351.5, -683.6334, 0.0018912291, 0.0002363964, -391650.63, -42847.05, 0.0, 10.021169, 9.891947 
7.0471466e+3, 2.7430037e+2, -292176.22, -390705.72, -678.81537, 0.001885938, -0.00011811203, -292171.53, -40314.3, 0.0, 10.021377, 9.892358 
7.0471543e+3, 2.8418458e+2, -205518.48, -317518.63, -498.83655, 0.0018876839, 0.0003125303, -205516.25, -50524.313, 0.0, 10.021599, 9.875305 
7.0471627e+3, 2.9406092e+2, -105573.9, -217149.31, -492.89957, 0.0018990817, -0.0001610712, -105571.72, -47368.055, 0.0, 10.021841, 9.876076 
7.047171e+3, 3.0396494e+2, -16021.573, -84850.93, -252.00322, 0.0019009872, 0.00026231853, -16020.65, -16020.65, 0.0, 10.022127, 9.931458 
7.04718e+3, 3.1389824e+2, -14476.642, -82445.74, -210.43456, 0.0018876035, 0.0000152718, -14475.99, -14475.99, 0.0, 10.022476, 9.932915 
7.05706e+3, 1.2519677e+2, -1697450.0, -1722429.8, -57.983093, 0.0018998011, 0.00017481472, -1697449.9, 15622.884, 0.0, 10.018597, 9.985469 
7.057067e+3, 1.351821e+2, -1599648.9, -1625466.9, -124.83662, 0.0018742656, 0.000000928834, -1599648.4, 15568.163, 0.0, 10.018918, 9.984681 
7.057075e+3, 1.4516069e+2, -1511473.6, -1546598.9, -329.09186, 0.0018725476, 0.00026282598, -1511470.6, 5955.6084, 0.0, 10.019195, 9.972653 
7.057082e+3, 1.5513332e+2, -1413472.3, -1449177.0, -391.00345, 0.0018930831, 0.00006910112, -1413468.0, 6226.483, 0.0, 10.019426, 9.972121 
7.057089e+3, 1.6509928e+2, -1325272.9, -1370444.3, -548.8502, 0.0018988558, 0.00014894547, -1325266.1, -3238.0415, 0.0, 10.019637, 9.959902 
7.0570964e+3, 1.7505921e+2, -1227117.9, -1272747.6, -601.0029, 0.0018904111, 0.00004555995, -1227110.0, -2689.413, 0.0, 10.019825, 9.959488 
7.057103e+3, 1.8501242e+2, -1139044.6, -1194504.6, -690.28046, 0.0018862197, 0.00019039198, -1139036.0, -12156.778, 0.0, 10.019994, 9.946806 
7.05711e+3, 1.9495925e+2, -1040762.8, -1096598.6, -745.80475, 0.0018861438, 0.000057784946, -1040752.9, -11352.6455, 0.0, 10.0201435, 9.946463 
7.0571166e+3, 2.0489934e+2, -952591.3, -1018457.8, -772.91974, 0.0018907097, 0.00017845475, -952582.25, -20594.918, 0.0, 10.020284, 9.93353 
7.057124e+3, 2.148329e+2, -854205.1, -920432.6, -809.47577, 0.0019000095, -0.000017420058, -854195.25, -19556.865, 0.0, 10.020414, 9.933188 
7.057131e+3, 2.2475976e+2, -765839.6, -842267.56, -794.5618, 0.0018993893, 0.00022770143, -765831.4, -28476.041, 0.0, 10.020547, 9.920081 
7.057138e+3, 2.346799e+2, -667304.94, -744090.0, -819.541, 0.0018879736, 0.00001360034, -667296.2, -27158.295, 0.0, 10.020681, 9.919749 
7.057145e+3, 2.4459305e+2, -578899.25, -666255.2, -741.6488, 0.001888167, 0.00017330535, -578892.94, -35904.008, 0.0, 10.020822, 9.906234 
7.057153e+3, 2.5449938e+2, -480033.22, -567578.0, -754.1796, 0.001901707, -0.000011372478, -480026.72, -34120.066, 0.0, 10.020968, 9.906132 
7.05716e+3, 2.643986e+2, -391707.4, -490387.6, -613.927, 0.0019054521, 0.00023394708, -391703.6, -42809.17, 0.0, 10.021138, 9.891938 
7.057168e+3, 2.7429107e+2, -292239.56, -390744.9, -608.5939, 0.0018967441, -0.00011053235, -292235.8, -40287.777, 0.0, 10.021337, 9.892351 
7.057176e+3, 2.841753e+2, -205599.42, -317586.16, -415.41348, 0.001892779, 0.00031796625, -205597.89, -50514.984, 0.0, 10.021556, 9.875281 
7.0571846e+3, 2.9405162e+2, -105649.93, -217215.52, -406.20773, 0.0018954483, -0.00017432297, -105648.45, -47353.434, 0.0, 10.021802, 9.876051 
7.0571935e+3, 3.039556e+2, -16052.15, -84817.74, -128.8408, 0.001900263, 0.00024898438, -16051.908, -16051.908, 0.0, 10.022085, 9.9315 
7.057202e+3, 3.1388897e+2, -14518.04, -82408.96, -84.214066, 0.001906639, 0.000028783032, -14517.936, -14517.936, 0.0, 10.022423, 9.932964 
7.0670784e+3, 1.251887e+2, -1696796.4, -1722296.5, -209.66644, 0.001897532, 0.00017490113, -1696794.6, 16357.308, 0.0, 10.0191, 9.985281 
7.0670867e+3, 1.3517383e+2, -1599040.5, -1625358.9, -286.93237, 0.0018883222, 0.0000012848883, -1599037.4, 16260.111, 0.0, 10.019396, 9.984493 
7.0670944e+3, 1.4515226e+2, -1510883.0, -1546477.5, -528.78577, 0.001888133, 0.00026231474, -1510875.1, 6633.858, 0.0, 10.01965, 9.9724865 
7.0671016e+3, 1.5512471e+2, -1412909.4, -1449071.6, -594.2416, 0.0018963903, 0.00006665868, -1412899.6, 6879.2324, 0.0, 10.019868, 9.971954 
7.067109e+3, 1.650905e+2, -1324739.5, -1370337.8, -779.50214, 0.0018997786, 0.0001471319, -1324726.1, -2612.0278, 0.0, 10.020052, 9.959751 
7.0671165e+3, 1.750503e+2, -1226642.3, -1272672.8, -840.50385, 0.0018983757, 0.000046845773, -1226626.9, -2118.9482, 0.0, 10.0202055, 9.959336 
7.067123e+3, 1.8500334e+2, -1138619.6, -1194453.8, -949.0116, 0.0018965949, 0.00019154714, -1138603.5, -11635.283, 0.0, 10.020342, 9.946657 
7.06713e+3, 1.9495003e+2, -1040387.5, -1096574.5, -1006.1007, 0.0018943379, 0.000055615652, -1040369.5, -10878.8955, 0.0, 10.02046, 9.946314 
7.0671374e+3, 2.0489e+2, -952234.75, -1018387.3, -1046.042, 0.0018966397, 0.00017586284, -952218.25, -20139.275, 0.0, 10.020564, 9.933431 
7.0671445e+3, 2.1482345e+2, -853916.7, -920397.5, -1085.9418, 0.0019035799, -0.000017439843, -853898.94, -19167.996, 0.0, 10.020652, 9.933089 
7.067151e+3, 2.2475022e+2, -765591.06, -842213.6, -1071.3892, 0.0019048563, 0.00022833841, -765576.06, -28127.367, 0.0, 10.020741, 9.920017 
7.067159e+3, 2.3467028e+2, -667122.5, -744069.5, -1095.4004, 0.001899986, 0.000012819955, -667106.94, -26875.023, 0.0, 10.020833, 9.919686 
7.067166e+3, 2.445834e+2, -578750.1, -666220.44, -1008.18097, 0.0018990127, 0.00017203431, -578738.5, -35655.09, 0.0, 10.020938, 9.906198 
7.067174e+3, 2.5448972e+2, -479924.6, -567562.8, -1016.81836, 0.0019024478, -0.000012047281, -479912.8, -33911.316, 0.0, 10.021057, 9.906096 
7.067181e+3, 2.6438892e+2, -391635.63, -490361.5, -861.3184, 0.0019061167, 0.00023355379, -391628.1, -42638.645, 0.0, 10.02119, 9.891929 
7.067189e+3, 2.7428138e+2, -292241.84, -390754.16, -854.3088, 0.0019097764, -0.00011100002, -292234.44, -40191.26, 0.0, 10.021338, 9.8923435 
7.0671976e+3, 2.8416556e+2, -205638.88, -317607.63, -628.89124, 0.0019076957, 0.0003174541, -205635.34, -50457.258, 0.0, 10.02153, 9.875278 
7.067206e+3, 2.9404187e+2, -105685.516, -217234.39, -605.4428, 0.001898138, -0.00017464008, -105682.23, -47292.023, 0.0, 10.021778, 9.876049 
7.0672154e+3, 3.0394593e+2, -16074.779, -84776.12, -294.24045, 0.0019001486, 0.00024708995, -16073.52, -16073.52, 0.0, 10.022047, 9.931546 
7.0672244e+3, 3.1387934e+2, -14594.418, -82387.14, -244.03734, 0.001917539, 0.000023143679, -14593.54, -14593.54, 0.0, 10.022346, 9.933016 
7.077098e+3, 1.2518027e+2, -1696939.6, -1722606.1, -102.536644, 0.0018835583, 0.00017647153, -1696939.1, 16295.292, 0.0, 10.019119, 9.985081 
7.077106e+3, 1.3516518e+2, -1599189.6, -1625670.4, -179.88895, 0.0019110116, -0.00000089471916, -1599188.4, 16193.722, 0.0, 10.01941, 9.984293 
7.077114e+3, 1.4514343e+2, -1511014.1, -1546747.6, -451.68124, 0.0019146829, 0.0002590622, -1511008.4, 6586.937, 0.0, 10.019661, 9.972314 
7.077122e+3, 1.5511572e+2, -1413044.8, -1449343.3, -518.6298, 0.0018961318, 0.00006477979, -1413037.4, 6829.551, 0.0, 10.019874, 9.971782 
7.077129e+3, 1.6508135e+2, -1324870.0, -1370594.8, -727.9243, 0.001893283, 0.00014690284, -1324858.4, -2654.574, 0.0, 10.020056, 9.959589 
7.077136e+3, 1.7504099e+2, -1226775.0, -1272930.1, -788.1538, 0.0019053374, 0.00004852869, -1226761.5, -2162.285, 0.0, 10.020206, 9.959174 
7.077144e+3, 1.8499386e+2, -1138746.9, -1194694.9, -909.71625, 0.0019097959, 0.00019232322, -1138732.0, -11671.055, 0.0, 10.020339, 9.9465065 
7.077151e+3, 1.949404e+2, -1040519.44, -1096817.1, -967.738, 0.0019066504, 0.000052662024, -1040502.8, -10917.912, 0.0, 10.020454, 9.946163 
7.0771575e+3, 2.0488024e+2, -952332.8, -1018557.0, -1019.5589, 0.0019039972, 0.00017267332, -952317.1, -20142.652, 0.0, 10.020554, 9.933328 
7.077165e+3, 2.1481362e+2, -854018.44, -920568.0, -1058.9766, 0.0019017893, -0.000017277334, -854001.56, -19174.133, 0.0, 10.020638, 9.932987 
7.0771724e+3, 2.2474028e+2, -765668.0, -842326.25, -1042.7009, 0.0019058682, 0.00022912226, -765653.8, -28107.803, 0.0, 10.020723, 9.919953 
7.0771796e+3, 2.346603e+2, -667206.3, -744184.06, -1067.0186, 0.0019167918, 0.000011225761, -667191.5, -26861.645, 0.0, 10.020809, 9.919624 
7.0771873e+3, 2.4457337e+2, -578817.8, -666291.6, -969.5856, 0.0019154757, 0.00017035383, -578807.06, -35625.203, 0.0, 10.020909, 9.906165 
7.077195e+3, 2.5447965e+2, -479998.13, -567635.1, -977.6525, 0.0018998574, -0.000011180498, -479987.22, -33887.016, 0.0, 10.021024, 9.906066 
7.077203e+3, 2.6437882e+2, -391695.53, -490399.75, -810.9505, 0.0019011007, 0.00023380846, -391688.88, -42600.49, 0.0, 10.021153, 9.891921 
7.0772105e+3, 2.7427128e+2, -292301.2, -390790.13, -802.3499, 0.001923029, -0.000115390605, -292294.66, -40152.484, 0.0, 10.021302, 9.892338 
7.0772195e+3, 2.8415546e+2, -205694.55, -317624.28, -542.5965, 0.0019261532, 0.00031412335, -205691.9, -50414.832, 0.0, 10.021487, 9.875288 
7.077228e+3, 2.940318e+2, -105756.5, -217256.73, -517.9219, 0.0019040944, -0.00016948131, -105754.09, -47265.086, 0.0, 10.021724, 9.8760605 
7.0772374e+3, 3.039359e+2, -16122.355, -84739.984, -189.05518, 0.0019009925, 0.00025045197, -16121.834, -16121.834, 0.0, 10.021989, 9.931599 
7.077247e+3, 3.1386933e+2, -14630.666, -82339.85, -133.7748, 0.0019241202, 0.000009000931, -14630.401, -14630.401, 0.0, 10.022292, 9.933073 
7.0871174e+3, 1.2517148e+2, -1696191.0, -1722447.4, -253.4327, 0.0018949147, 0.00017494075, -1696188.6, 17131.893, 0.0, 10.019693, 9.98487 
7.087126e+3, 1.351562e+2, -1598485.0, -1625536.6, -338.80936, 0.0019142758, -0.0000054504517, -1598480.8, 16989.465, 0.0, 10.0199585, 9.984083 
7.0871335e+3, 1.4513423e+2, -1510343.0, -1546614.3, -650.89825, 0.0019173656, 0.00025584298, -1510331.4, 7354.1035, 0.0, 10.020182, 9.97212 
7.087142e+3, 1.5510634e+2, -1412426.0, -1449238.9, -730.2964, 0.0019054401, 0.000066987144, -1412411.5, 7547.34, 0.0, 10.020364, 9.971588 
7.0871496e+3, 1.6507177e+2, -1324283.3, -1370477.0, -972.61035, 0.0019033141, 0.00014882501, -1324262.9, -1965.3337, 0.0, 10.020513, 9.959422 
7.087157e+3, 1.7503124e+2, -1226247.8, -1272844.9, -1037.5608, 0.0019103335, 0.000044708577, -1226224.6, -1529.9843, 0.0, 10.020627, 9.959008 
7.087164e+3, 1.8498398e+2, -1138282.3, -1194637.3, -1180.6797, 0.0019140595, 0.00018860659, -1138257.5, -11099.527, 0.0, 10.020719, 9.946346 
7.0871717e+3, 1.9493036e+2, -1040131.0, -1096800.0, -1243.9786, 0.0019144533, 0.000054869084, -1040103.75, -10420.302, 0.0, 10.020786, 9.946003 
7.087179e+3, 2.0487006e+2, -951969.5, -1018483.5, -1309.8595, 0.0019130785, 0.00017510263, -951943.75, -19669.447, 0.0, 10.020839, 9.9332285 
7.087186e+3, 2.1480332e+2, -853727.8, -920532.06, -1348.5065, 0.001909805, -0.000020545542, -853700.6, -18772.365, 0.0, 10.020877, 9.932888 
7.087193e+3, 2.2472993e+2, -765428.0, -842277.6, -1333.5292, 0.0019117013, 0.00022513747, -765404.8, -27757.201, 0.0, 10.020912, 9.9198885 
7.087201e+3, 2.3464987e+2, -667048.5, -744176.94, -1358.5365, 0.0019192325, 0.000011990935, -667024.6, -26592.523, 0.0, 10.020946, 9.9195595 
7.087208e+3, 2.4456288e+2, -578709.8, -666267.9, -1249.2878, 0.0019205572, 0.00017238031, -578692.0, -35407.508, 0.0, 10.020994, 9.906137 
7.087216e+3, 2.5446916e+2, -479962.38, -567646.4, -1254.022, 0.0019146113, -0.000011955905, -479944.44, -33741.305, 0.0, 10.02106, 9.90604 
7.0872235e+3, 2.643683e+2, -391694.28, -490391.94, -1066.7566, 0.0019139812, 0.00023127186, -391682.75, -42491.32, 0.0, 10.021152, 9.891927 
7.087232e+3, 2.7426076e+2, -292339.13, -390799.63, -1049.8513, 0.0019195038, -0.00011830017, -292327.9, -40082.76, 0.0, 10.021273, 9.892345 
7.087241e+3, 2.8414497e+2, -205793.1, -317667.47, -762.4708, 0.0019225003, 0.00031293207, -205787.9, -50407.914, 0.0, 10.021419, 9.875293 
7.08725e+3, 2.940213e+2, -105937.19, -217340.34, -736.9616, 0.0019225429, -0.0001659164, -105932.31, -47340.453, 0.0, 10.0216, 9.876064 
7.087259e+3, 3.0392542e+2, -16286.001, -84725.25, -361.3799, 0.0019221732, 0.00025468392, -16284.093, -16284.093, 0.0, 10.021835, 9.931681 
7.087269e+3, 3.1385896e+2, -14768.398, -82301.91, -284.02124, 0.0019188916, 0.000008359586, -14767.204, -14767.204, 0.0, 10.022153, 9.933165 
7.097137e+3, 1.2516236e+2, -1696352.0, -1722789.8, -155.00008, 0.0019177024, 0.00017172648, -1696351.0, 17058.754, 0.0, 10.019712, 9.98465 
7.0971453e+3, 1.3514687e+2, -1598641.4, -1625875.8, -241.38109, 0.0019088269, -0.000011055963, -1598639.3, 16922.45, 0.0, 10.0199795, 9.983863 
7.0971537e+3, 1.4512469e+2, -1510492.9, -1546935.5, -585.06354, 0.0019092449, 0.00025259895, -1510483.5, 7295.54, 0.0, 10.020199, 9.971912 
7.097162e+3, 1.5509659e+2, -1412586.5, -1449564.6, -664.0343, 0.0019188909, 0.00007053237, -1412574.6, 7479.873, 0.0, 10.020373, 9.97138 
7.09717e+3, 1.6506185e+2, -1324421.8, -1370751.3, -932.3542, 0.0019207005, 0.00015127509, -1324403.0, -2008.121, 0.0, 10.020516, 9.9592495 
7.0971775e+3, 1.7502113e+2, -1226388.3, -1273119.3, -999.863, 0.0019145969, 0.000038410057, -1226366.9, -1573.0029, 0.0, 10.020629, 9.958835 
7.097185e+3, 1.8497367e+2, -1138420.3, -1194901.6, -1161.1821, 0.0019144164, 0.00018283623, -1138396.4, -11137.579, 0.0, 10.020718, 9.94618 
7.0971924e+3, 1.9491991e+2, -1040273.25, -1097065.6, -1222.4708, 0.0019201228, 0.000058847352, -1040246.94, -10461.135, 0.0, 10.020781, 9.945837 
7.097199e+3, 2.0485948e+2, -952065.4, -1018648.0, -1298.6868, 0.0019227478, 0.00017954597, -952040.06, -19662.074, 0.0, 10.020828, 9.933129 
7.097207e+3, 2.1479264e+2, -853832.7, -920699.8, -1337.9083, 0.0019220941, -0.000025359275, -853805.94, -18772.963, 0.0, 10.02086, 9.93279 
7.097214e+3, 2.2471915e+2, -765513.0, -842396.7, -1324.6149, 0.0019197513, 0.00021904283, -765490.2, -27736.984, 0.0, 10.02089, 9.919824 
7.097221e+3, 2.3463903e+2, -667135.1, -744295.44, -1349.3347, 0.0019155055, 0.000013356557, -667111.5, -26573.314, 0.0, 10.020922, 9.919496 
7.097229e+3, 2.4455202e+2, -578771.44, -666327.1, -1227.7937, 0.0019204974, 0.00017552945, -578754.2, -35363.168, 0.0, 10.020966, 9.906114 
7.097237e+3, 2.5445825e+2, -480032.94, -567707.8, -1232.207, 0.0019362498, -0.000013695258, -480015.63, -33705.69, 0.0, 10.021025, 9.906017 
7.097245e+3, 2.643574e+2, -391746.16, -490402.28, -1025.5005, 0.0019342455, 0.00022751516, -391735.5, -42437.203, 0.0, 10.02111, 9.89194 
7.097253e+3, 2.7424988e+2, -292395.4, -390809.28, -1007.6753, 0.0019093745, -0.00012060033, -292385.1, -40033.23, 0.0, 10.021227, 9.892362 
7.097262e+3, 2.841341e+2, -205862.33, -317695.56, -698.53156, 0.001909793, 0.00031260922, -205857.97, -50371.395, 0.0, 10.02137, 9.875298 
7.0972717e+3, 2.9401043e+2, -106010.64, -217371.19, -669.34235, 0.0019452268, -0.0001638763, -106006.625, -47308.22, 0.0, 10.021547, 9.876069 
7.0972806e+3, 3.039146e+2, -16298.99, -84618.21, -247.9384, 0.001950914, 0.0002587881, -16298.091, -16298.091, 0.0, 10.021778, 9.931781 
7.0972914e+3, 3.1384823e+2, -14787.297, -82184.76, -168.07108, 0.0019094697, 0.000013474243, -14786.878, -14786.878, 0.0, 10.022085, 9.933276 
7.1071565e+3, 1.2515293e+2, -1695515.3, -1722617.1, -299.61032, 0.0019268333, 0.00017079631, -1695511.9, 17990.395, 0.0, 10.020356, 9.984411 
7.107166e+3, 1.3513719e+2, -1597819.5, -1625712.6, -398.50598, 0.0019136983, -0.000007871545, -1597813.8, 17842.725, 0.0, 10.020617, 9.9836235 
7.1071744e+3, 1.451148e+2, -1509701.4, -1546761.4, -795.8613, 0.0019133907, 0.00025472077, -1509684.3, 8191.8145, 0.0, 10.020806, 9.971699 
7.107183e+3, 1.5508646e+2, -1411883.0, -1449439.1, -880.60724, 0.0019257496, 0.00006664225, -1411862.3, 8291.345, 0.0, 10.020927, 9.971167 
7.1071905e+3, 1.6505152e+2, -1323788.6, -1370652.1, -1181.0461, 0.0019288936, 0.00014748322, -1323758.9, -1262.6796, 0.0, 10.021023, 9.959045 
7.107198e+3, 1.750106e+2, -1225827.5, -1273059.6, -1264.6794, 0.0019227341, 0.000040725034, -1225793.8, -896.6875, 0.0, 10.0210905, 9.9586315 
7.1072054e+3, 1.8496299e+2, -1137898.9, -1194805.4, -1453.3167, 0.0019213568, 0.00018500756, -1137861.8, -10498.03, 0.0, 10.021129, 9.946028 
7.107213e+3, 1.9490904e+2, -1039842.2, -1097017.4, -1510.0558, 0.0019247149, 0.00005461588, -1039802.4, -9910.061, 0.0, 10.021136, 9.945684 
7.10722e+3, 2.0484848e+2, -951692.44, -1018574.75, -1600.5004, 0.0019277172, 0.00017547209, -951654.2, -19168.473, 0.0, 10.021122, 9.933025 
7.1072274e+3, 2.1478154e+2, -853564.8, -920680.7, -1642.6085, 0.0019302989, -0.000022386366, -853524.6, -18382.977, 0.0, 10.021086, 9.932687 
7.1072346e+3, 2.2470796e+2, -765303.0, -842359.5, -1626.3851, 0.0019292441, 0.0002223148, -765268.7, -27406.006, 0.0, 10.021058, 9.919762 
7.1072423e+3, 2.346278e+2, -667000.44, -744295.9, -1648.9573, 0.0019241718, 0.000009474962, -666965.3, -26316.95, 0.0, 10.02104, 9.919435 
7.10725e+3, 2.4454072e+2, -578691.94, -666311.1, -1518.7721, 0.0019263588, 0.00017013504, -578665.6, -35163.99, 0.0, 10.0210285, 9.906092 
7.107258e+3, 2.5444695e+2, -480048.2, -567737.94, -1520.8927, 0.0019369544, -0.000013951519, -480021.8, -33601.137, 0.0, 10.021025, 9.905997 
7.107266e+3, 2.643461e+2, -391817.13, -490416.78, -1288.3081, 0.0019377462, 0.00023024809, -391800.28, -42391.25, 0.0, 10.021053, 9.891958 
7.1072745e+3, 2.742386e+2, -292534.72, -390854.94, -1265.5381, 0.0019256586, -0.000117510965, -292518.4, -40056.02, 0.0, 10.021123, 9.892382 
7.1072835e+3, 2.8412282e+2, -206057.56, -317761.7, -925.7899, 0.0019248457, 0.00031244644, -206049.89, -50452.973, 0.0, 10.021225, 9.875323 
7.1072924e+3, 2.9399917e+2, -106252.65, -217459.16, -882.8826, 0.00193987, -0.0001719342, -106245.63, -47437.094, 0.0, 10.02137, 9.876095 
7.1073025e+3, 3.039034e+2, -16545.64, -84632.43, -410.63318, 0.001944051, 0.00025158993, -16543.164, -16543.164, 0.0, 10.021564, 9.931873 
7.107313e+3, 3.1383717e+2, -15092.6, -82218.37, -327.48865, 0.0019293803, 0.000020863761, -15091.001, -15091.001, 0.0, 10.021827, 9.933376 
7.117177e+3, 1.2514317e+2, -1695689.8, -1723005.6, -201.70496, 0.0019294492, 0.00017074517, -1695688.3, 17909.742, 0.0, 10.020385, 9.984157 
7.117187e+3, 1.3512719e+2, -1598007.0, -1626106.9, -300.7681, 0.0019233625, -0.0000012535992, -1598003.8, 17750.828, 0.0, 10.020636, 9.98337 
7.117195e+3, 1.4510454e+2, -1509867.0, -1547107.1, -749.61395, 0.0019233028, 0.00025883075, -1509851.9, 8124.611, 0.0, 10.020821, 9.971477 
7.1172035e+3, 1.5507598e+2, -1412045.3, -1449782.1, -834.9484, 0.0019295965, 0.00005941582, -1412026.8, 8229.571, 0.0, 10.020944, 9.970944 
7.117212e+3, 1.650408e+2, -1323955.4, -1370997.4, -1156.1045, 0.0019327598, 0.00014087856, -1323927.0, -1325.9664, 0.0, 10.021034, 9.958824 
7.117219e+3, 1.749997e+2, -1226005.1, -1273409.4, -1240.0608, 0.0019324886, 0.000046341564, -1225972.6, -968.718, 0.0, 10.021094, 9.95841 
7.1172273e+3, 1.8495187e+2, -1138025.5, -1195044.1, -1451.6921, 0.0019312609, 0.00019025731, -1137988.6, -10516.101, 0.0, 10.021126, 9.945879 
7.1172345e+3, 1.9489779e+2, -1039974.94, -1097258.3, -1508.4097, 0.0019290249, 0.000046757476, -1039935.25, -9932.638, 0.0, 10.021129, 9.945536 
7.1172416e+3, 2.048371e+2, -951797.0, -1018752.8, -1615.0076, 0.0019307026, 0.0001675905, -951758.06, -19160.785, 0.0, 10.021111, 9.932919 
7.117249e+3, 2.1477006e+2, -853672.5, -920859.2, -1657.4121, 0.001936435, -0.000016609787, -853631.6, -18377.432, 0.0, 10.021071, 9.93258 
7.117256e+3, 2.2469641e+2, -765381.75, -842468.44, -1634.8138, 0.0019390153, 0.00022914301, -765347.1, -27371.125, 0.0, 10.021037, 9.919703 
7.1172637e+3, 2.3461616e+2, -667091.56, -744409.2, -1657.0425, 0.001938081, 0.0000033553097, -667056.06, -26293.758, 0.0, 10.021009, 9.919377 
7.117271e+3, 2.4452905e+2, -578760.25, -666367.7, -1520.8634, 0.0019348423, 0.00016116357, -578733.8, -35117.84, 0.0, 10.020993, 9.906073 
7.1172786e+3, 2.5443527e+2, -480115.22, -567791.56, -1522.4838, 0.0019287547, -0.000013892761, -480088.8, -33553.645, 0.0, 10.020989, 9.90598 
7.117287e+3, 2.643344e+2, -391861.97, -490413.53, -1263.6099, 0.00193384, 0.00023531074, -391845.78, -42322.305, 0.0, 10.021012, 9.89198 
7.117295e+3, 2.7422696e+2, -292594.66, -390856.03, -1238.4963, 0.0019525476, -0.00011275415, -292579.03, -40002.438, 0.0, 10.0210705, 9.892406 
7.117305e+3, 2.841112e+2, -206117.52, -317747.38, -871.4619, 0.0019513366, 0.00031220217, -206110.72, -50399.87, 0.0, 10.021166, 9.875361 
7.117314e+3, 2.939876e+2, -106311.48, -217442.6, -826.86084, 0.0019231284, -0.00018397794, -106305.33, -47383.184, 0.0, 10.021311, 9.876135 
7.1173245e+3, 3.0389187e+2, -16570.441, -84536.08, -314.1376, 0.0019224865, 0.0002401205, -16568.988, -16568.988, 0.0, 10.0215, 9.931969 
7.117335e+3, 3.1382576e+2, -15128.021, -82119.25, -222.91263, 0.0019606177, 0.00002789867, -15127.28, -15127.28, 0.0, 10.021752, 9.933479 
7.127198e+3, 1.251331e+2, -1694686.1, -1722774.1, -351.45142, 0.001929179, 0.00017140443, -1694681.8, 19014.895, 0.0, 10.021146, 9.9838915 
7.1272075e+3, 1.3511685e+2, -1597098.6, -1625928.4, -460.45624, 0.0019358634, -0.00000466168, -1597091.3, 18764.574, 0.0, 10.02134, 9.983105 
7.1272165e+3, 1.4509395e+2, -1509005.4, -1546922.0, -960.5344, 0.0019371517, 0.00025548882, -1508981.0, 9099.209, 0.0, 10.021483, 9.97124 
7.127225e+3, 1.5506516e+2, -1411234.5, -1449626.1, -1055.7269, 0.001933976, 0.00006005462, -1411205.5, 9156.878, 0.0, 10.021577, 9.970708 
7.127233e+3, 1.6502975e+2, -1323225.3, -1370880.1, -1418.4214, 0.0019346823, 0.00014177235, -1323183.1, -473.7534, 0.0, 10.021616, 9.958592 
7.127241e+3, 1.749884e+2, -1225394.1, -1273356.3, -1509.1776, 0.0019387434, 0.000043934193, -1225346.8, -232.14575, 0.0, 10.021604, 9.9581785 
7.127248e+3, 1.849404e+2, -1137464.5, -1194926.1, -1746.8749, 0.0019400682, 0.00018794977, -1137411.5, -9826.49, 0.0, 10.021563, 9.945727 
7.127255e+3, 1.9488615e+2, -1039527.44, -1097200.1, -1806.2151, 0.0019385886, 0.000048031146, -1039470.94, -9354.395, 0.0, 10.021494, 9.945385 
7.127263e+3, 2.0482533e+2, -951420.94, -1018683.5, -1928.9084, 0.0019384085, 0.00016808738, -951365.7, -18653.19, 0.0, 10.021409, 9.932809 
7.12727e+3, 2.1475819e+2, -853394.75, -920840.6, -1972.7107, 0.001939535, -0.000021467971, -853337.06, -17966.58, 0.0, 10.021307, 9.932472 
7.127277e+3, 2.2468445e+2, -765174.9, -842426.9, -1950.7335, 0.0019424409, 0.00022483329, -765125.6, -27032.49, 0.0, 10.021201, 9.919646 
7.1272844e+3, 2.3460415e+2, -667010.4, -744430.6, -1971.379, 0.0019473663, 0.0000061719948, -666960.25, -26080.277, 0.0, 10.0210905, 9.919322 
7.127292e+3, 2.4451701e+2, -578748.25, -666375.6, -1817.1613, 0.0019454608, 0.00016519074, -578710.56, -34976.617, 0.0, 10.021008, 9.90606 
7.1273e+3, 2.544232e+2, -480175.2, -567833.6, -1814.2926, 0.0019353073, -0.00001566499, -480137.63, -33484.367, 0.0, 10.020955, 9.905969 
7.127308e+3, 2.6432237e+2, -391980.56, -490432.63, -1535.3342, 0.0019382236, 0.00023006035, -391956.63, -42315.113, 0.0, 10.020916, 9.8920145 
7.1273166e+3, 2.7421492e+2, -292828.7, -390929.0, -1502.0975, 0.001957088, -0.00011837433, -292805.7, -40111.41, 0.0, 10.020895, 9.892444 
7.1273255e+3, 2.8409925e+2, -206434.73, -317855.2, -1089.3474, 0.0019577022, 0.00031033513, -206424.1, -50595.98, 0.0, 10.020931, 9.875404 
7.1273357e+3, 2.9397568e+2, -106673.1, -217570.84, -1037.5333, 0.0019336926, -0.00017606156, -106663.4, -47624.477, 0.0, 10.021045, 9.876177 
7.127346e+3, 3.0388007e+2, -16924.385, -84559.57, -479.9598, 0.0019327647, 0.00024580758, -16920.98, -16920.98, 0.0, 10.0211935, 9.932099 
7.1273565e+3, 3.1381404e+2, -15552.526, -82164.71, -365.15723, 0.0019635286, 0.000013809912, -15550.524, -15550.524, 0.0, 10.021392, 9.93362 
7.1372193e+3, 1.2512274e+2, -1694884.4, -1723203.8, -273.1785, 0.0019280385, 0.00017171983, -1694881.8, 18916.47, 0.0, 10.021173, 9.983613 
7.137229e+3, 1.351062e+2, -1597294.6, -1626355.6, -382.9189, 0.0019491011, -0.000012634374, -1597289.6, 18670.693, 0.0, 10.021367, 9.982826 
7.1372384e+3, 1.4508304e+2, -1509180.0, -1547303.6, -921.4978, 0.0019521472, 0.00024882943, -1509157.8, 9029.478, 0.0, 10.021507, 9.970992 
7.137247e+3, 1.55054e+2, -1411417.5, -1450011.1, -1016.9443, 0.0019387673, 0.00006379487, -1411390.8, 9080.908, 0.0, 10.021593, 9.970459 
7.137255e+3, 1.6501835e+2, -1323408.0, -1371255.4, -1419.8044, 0.0019360988, 0.0001456587, -1323366.0, -544.8864, 0.0, 10.021628, 9.958352 
7.137262e+3, 1.7497675e+2, -1225580.3, -1273732.1, -1511.2004, 0.0019434748, 0.000037832615, -1225532.9, -304.1401, 0.0, 10.021611, 9.957938 
7.13727e+3, 1.8492854e+2, -1137588.6, -1195171.4, -1770.7662, 0.0019481817, 0.00018214979, -1137534.3, -9833.185, 0.0, 10.0215645, 9.945572 
7.137277e+3, 1.9487417e+2, -1039662.25, -1097449.6, -1831.1547, 0.0019501705, 0.00005286495, -1039604.25, -9370.199, 0.0, 10.021488, 9.94523 
7.137284e+3, 2.0481321e+2, -951529.75, -1018867.2, -1966.0717, 0.0019480811, 0.0001719754, -951472.4, -18641.059, 0.0, 10.021396, 9.932699 
7.137291e+3, 2.1474594e+2, -853511.94, -921027.25, -2008.7648, 0.001941579, -0.000030899122, -853452.25, -17961.684, 0.0, 10.021287, 9.932363 
7.1372986e+3, 2.2467212e+2, -765255.7, -842531.6, -1989.1073, 0.0019432588, 0.00021562976, -765204.5, -26990.537, 0.0, 10.021176, 9.919592 
7.137306e+3, 2.345918e+2, -667093.94, -744534.56, -2010.3394, 0.001954104, 0.000012297831, -667041.75, -26040.592, 0.0, 10.021064, 9.919269 
7.137313e+3, 2.445046e+2, -578807.56, -666415.0, -1835.5148, 0.0019563572, 0.00017426706, -578769.1, -34913.656, 0.0, 10.020972, 9.906052 
7.1373206e+3, 2.544108e+2, -480251.34, -567878.9, -1830.8191, 0.0019482389, -0.000018401659, -480213.1, -33438.152, 0.0, 10.020907, 9.905963 
7.1373284e+3, 2.6430997e+2, -392028.38, -490407.63, -1539.4875, 0.0019463913, 0.00022060411, -392004.3, -42241.234, 0.0, 10.020864, 9.892056 
7.1373373e+3, 2.742026e+2, -292869.38, -390896.53, -1505.9048, 0.0019518175, -0.0001282549, -292846.25, -40030.88, 0.0, 10.020845, 9.892489 
7.137347e+3, 2.840869e+2, -206482.13, -317823.2, -1046.4934, 0.0019549427, 0.0003078141, -206472.3, -50523.59, 0.0, 10.020876, 9.875452 
7.1373564e+3, 2.9396343e+2, -106746.61, -217551.28, -989.44434, 0.0019555138, -0.00016095127, -106737.77, -47578.844, 0.0, 10.020971, 9.876225 
7.1373665e+3, 3.0386788e+2, -16937.176, -84394.42, -401.87326, 0.0019564482, 0.00025818267, -16934.783, -16934.783, 0.0, 10.0211115, 9.93225 
7.137378e+3, 3.1380203e+2, -15548.238, -81976.63, -284.55695, 0.001954282, -0.000008242225, -15547.02, -15547.02, 0.0, 10.021316, 9.9337845 
7.1472406e+3, 1.251121e+2, -1693757.6, -1722945.4, -410.41608, 0.0019406052, 0.00016859149, -1693751.9, 20150.52, 0.0, 10.022029, 9.983314 
7.147251e+3, 1.3509527e+2, -1596232.5, -1626134.1, -535.2227, 0.0019509036, -0.000014065564, -1596222.9, 19844.438, 0.0, 10.022186, 9.982528 
7.14726e+3, 1.4507183e+2, -1508175.6, -1547073.0, -1133.5352, 0.001952896, 0.00024821854, -1508142.6, 10154.43, 0.0, 10.022273, 9.970729 
7.1472687e+3, 1.5504254e+2, -1410527.1, -1449843.3, -1239.5128, 0.0019479478, 0.000063094325, -1410488.1, 10095.91, 0.0, 10.022291, 9.970197 
7.1472764e+3, 1.6500664e+2, -1322615.8, -1371122.8, -1687.6908, 0.0019471612, 0.00014445091, -1322557.0, 378.8704, 0.0, 10.022257, 9.958105 
7.147284e+3, 1.7496479e+2, -1224898.8, -1273659.1, -1782.5369, 0.0019498598, 0.000035838097, -1224833.8, 512.3009, 0.0, 10.022173, 9.957691 
7.1472913e+3, 1.8491636e+2, -1136968.0, -1195039.1, -2074.675, 0.0019523, 0.00018025971, -1136893.9, -9073.526, 0.0, 10.022047, 9.945405 
7.147299e+3, 1.9486181e+2, -1039185.06, -1097392.9, -2141.2031, 0.0019544894, 0.000052050982, -1039106.44, -8751.394, 0.0, 10.02188, 9.945064 
7.1473056e+3, 2.0480074e+2, -951138.4, -1018782.1, -2288.7122, 0.001954865, 0.00017204488, -951061.06, -18107.463, 0.0, 10.0217, 9.932597 
7.147313e+3, 2.1473336e+2, -853251.44, -921009.25, -2328.627, 0.0019532708, -0.000030099687, -853171.5, -17557.754, 0.0, 10.021507, 9.932261 
7.14732e+3, 2.2465947e+2, -765080.75, -842507.1, -2306.9678, 0.0019529269, 0.00021530566, -765012.06, -26674.078, 0.0, 10.021319, 9.919535 
7.1473265e+3, 2.3457907e+2, -667026.9, -744563.94, -2329.021, 0.0019540065, 0.000008765971, -666956.94, -25831.18, 0.0, 10.021135, 9.919213 
7.147334e+3, 2.4449186e+2, -578821.94, -666418.56, -2141.2156, 0.0019571544, 0.00017033568, -578769.6, -34789.28, 0.0, 10.020962, 9.9060545 
7.147342e+3, 2.5439805e+2, -480411.4, -567952.8, -2130.151, 0.0019626473, -0.000019367313, -480359.63, -33459.875, 0.0, 10.020799, 9.905968 
7.14735e+3, 2.6429725e+2, -392264.7, -490470.66, -1804.8744, 0.0019614806, 0.00022218177, -392231.53, -42343.938, 0.0, 10.020682, 9.892104 
7.147358e+3, 2.7418992e+2, -293161.94, -390983.78, -1765.5203, 0.0019508216, -0.00012450505, -293130.06, -40190.668, 0.0, 10.020624, 9.892539 
7.147367e+3, 2.8407434e+2, -206858.56, -317935.13, -1273.1481, 0.0019517296, 0.00030844015, -206843.97, -50771.766, 0.0, 10.020591, 9.875516 
7.147377e+3, 2.939509e+2, -107264.85, -217730.56, -1203.9712, 0.001969509, -0.00017038619, -107251.734, -47969.87, 0.0, 10.020588, 9.876291 
7.147388e+3, 3.0385548e+2, -17475.563, -84476.07, -549.8284, 0.0019735699, 0.00025030793, -17471.049, -17471.049, 0.0, 10.020665, 9.932408 
7.147399e+3, 3.1378976e+2, -16092.281, -82047.66, -419.69766, 0.0019526854, 0.000003960619, -16089.61, -16089.61, 0.0, 10.02086, 9.933954 
7.1572626e+3, 1.2510121e+2, -1693979.8, -1723434.0, -348.0586, 0.001958853, 0.00016460303, -1693975.8, 20033.432, 0.0, 10.022062, 9.982996 
7.1572727e+3, 1.3508406e+2, -1596457.4, -1626622.8, -473.36133, 0.0019479862, -0.00001266803, -1596450.0, 19727.203, 0.0, 10.022217, 9.98221 
7.157282e+3, 1.4506032e+2, -1508369.5, -1547496.4, -1123.7761, 0.0019476499, 0.0002499709, -1508337.3, 10072.565, 0.0, 10.022299, 9.970453 
7.157291e+3, 1.5503074e+2, -1410726.3, -1450268.1, -1229.4274, 0.0019587881, 0.00006021454, -1410688.0, 10011.574, 0.0, 10.022312, 9.969921 
7.157299e+3, 1.6499458e+2, -1322801.3, -1371511.3, -1715.7212, 0.001962097, 0.00014091833, -1322740.9, 313.15836, 0.0, 10.022273, 9.957855 
7.1573067e+3, 1.7495248e+2, -1225092.5, -1274050.6, -1810.325, 0.0019569984, 0.000035485195, -1225025.6, 440.90756, 0.0, 10.0221815, 9.957441 
7.157313e+3, 1.8490386e+2, -1137107.1, -1195312.4, -2132.4004, 0.001954862, 0.00017995799, -1137029.1, -9086.15, 0.0, 10.022049, 9.945232 
7.157321e+3, 1.9484913e+2, -1039332.7, -1097668.9, -2197.479, 0.0019558142, 0.00004845265, -1039250.0, -8770.647, 0.0, 10.021875, 9.944891 
7.1573275e+3, 2.0478792e+2, -951238.1, -1018949.6, -2354.3013, 0.0019602894, 0.00017009485, -951156.4, -18077.129, 0.0, 10.021688, 9.932497 
7.157334e+3, 2.1472046e+2, -853361.6, -921180.2, -2395.5342, 0.0019684858, -0.000025265059, -853277.1, -17536.791, 0.0, 10.021487, 9.932163 
7.1573406e+3, 2.2464646e+2, -765168.8, -842618.0, -2370.3318, 0.0019660082, 0.00021860102, -765096.4, -26631.031, 0.0, 10.021292, 9.919478 
7.157348e+3, 2.3456602e+2, -667124.3, -744677.8, -2390.3582, 0.0019514544, 0.0000010902593, -667050.7, -25796.953, 0.0, 10.0211, 9.919158 
7.157355e+3, 2.4447879e+2, -578877.06, -666436.56, -2194.2417, 0.0019538759, 0.00016082844, -578822.1, -34713.55, 0.0, 10.020922, 9.906063 
7.157362e+3, 2.54385e+2, -480467.9, -567967.75, -2184.0806, 0.0019766025, -0.000019762692, -480413.4, -33385.637, 0.0, 10.020756, 9.90598 
7.15737e+3, 2.6428422e+2, -392301.4, -490427.75, -1821.9535, 0.0019784158, 0.0002282376, -392267.6, -42252.32, 0.0, 10.020632, 9.892158 
7.157379e+3, 2.7417696e+2, -293218.03, -390947.16, -1778.8202, 0.0019522343, -0.00011574572, -293185.66, -40119.13, 0.0, 10.020559, 9.892595 
7.157388e+3, 2.840614e+2, -206911.25, -317874.4, -1265.2704, 0.0019491154, 0.00031021054, -206896.81, -50698.074, 0.0, 10.020517, 9.875591 
7.157397e+3, 2.9393804e+2, -107312.31, -217665.05, -1194.3505, 0.0019791091, -0.0001896827, -107299.39, -47891.59, 0.0, 10.020518, 9.8763685 
7.157408e+3, 3.0384275e+2, -17466.879, -84281.62, -474.23672, 0.0019865027, 0.00023466135, -17463.512, -17463.512, 0.0, 10.020589, 9.932576 
7.15742e+3, 3.1377724e+2, -16101.741, -81848.82, -336.15076, 0.001954821, 0.000028794528, -16100.022, -16100.022, 0.0, 10.020765, 9.934134 
7.1672857e+3, 1.2509008e+2, -1692662.8, -1723117.9, -485.0953, 0.0019641595, 0.00016213747, -1692655.1, 21463.11, 0.0, 10.023056, 9.982658 
7.167295e+3, 1.350726e+2, -1595250.9, -1626368.5, -625.37164, 0.001955891, -0.000012632412, -1595238.4, 21051.186, 0.0, 10.023146, 9.981873 
7.1673054e+3, 1.4504856e+2, -1507239.6, -1547226.1, -1343.1838, 0.0019555162, 0.00025008884, -1507194.5, 11330.62, 0.0, 10.023156, 9.970167 
7.1673137e+3, 1.5501869e+2, -1409728.8, -1450070.5, -1458.1461, 0.001964105, 0.00005790862, -1409676.1, 11141.656, 0.0, 10.023089, 9.969635 
7.1673214e+3, 1.6498226e+2, -1321913.3, -1371331.9, -1991.2609, 0.0019673272, 0.0001391161, -1321833.1, 1341.7396, 0.0, 10.0229645, 9.957605 
7.167329e+3, 1.7493992e+2, -1224353.1, -1273950.9, -2086.8953, 0.0019644983, 0.00003726732, -1224265.4, 1324.3461, 0.0, 10.022781, 9.957191 
7.167336e+3, 1.8489109e+2, -1136445.1, -1195156.9, -2439.7656, 0.0019631358, 0.00018104099, -1136343.9, -8275.633, 0.0, 10.022557, 9.945067 
7.167343e+3, 1.9483618e+2, -1038817.1, -1097590.3, -2503.1775, 0.0019633237, 0.000044517703, -1038710.7, -8104.437, 0.0, 10.022291, 9.944727 
7.167349e+3, 2.0477483e+2, -950830.1, -1018866.6, -2673.6638, 0.0019659584, 0.000165706, -950725.2, -17517.664, 0.0, 10.022009, 9.932386 
7.167356e+3, 2.1470726e+2, -853107.56, -921176.4, -2721.0073, 0.0019711996, -0.000025106132, -852998.94, -17129.291, 0.0, 10.0217085, 9.932053 
7.1673626e+3, 2.2463319e+2, -765011.1, -842585.5, -2691.854, 0.0019714227, 0.00021981221, -764917.8, -26322.428, 0.0, 10.021416, 9.9194355 
7.167369e+3, 2.3455271e+2, -667110.94, -744716.8, -2705.1218, 0.001966046, -0.00000062195227, -667016.75, -25632.506, 0.0, 10.02113, 9.919117 
7.1673757e+3, 2.4446546e+2, -578960.25, -666472.8, -2492.844, 0.0019659624, 0.00015872641, -578889.3, -34650.027, 0.0, 10.0208645, 9.906068 
7.167383e+3, 2.5437167e+2, -480663.63, -568058.2, -2483.2659, 0.0019720115, -0.000019188921, -480593.13, -33434.734, 0.0, 10.020623, 9.905987 
7.1673906e+3, 2.6427093e+2, -392583.1, -490488.53, -2091.6897, 0.001974481, 0.00022812404, -392538.44, -42392.883, 0.0, 10.02041, 9.892226 
7.167399e+3, 2.7416372e+2, -293654.13, -391079.25, -2037.4058, 0.0019712935, -0.00012069401, -293611.53, -40415.43, 0.0, 10.02023, 9.892669 
7.1674085e+3, 2.840483e+2, -207454.47, -318044.0, -1476.5231, 0.001970282, 0.00030588152, -207434.75, -51107.215, 0.0, 10.02011, 9.875677 
7.167418e+3, 2.93925e+2, -107913.17, -217860.2, -1395.2256, 0.0019729608, -0.00018514362, -107895.47, -48359.793, 0.0, 10.020068, 9.876455 
7.167429e+3, 3.038298e+2, -18084.623, -84376.29, -615.57166, 0.0019759336, 0.00023947429, -18078.908, -18078.908, 0.0, 10.020078, 9.932756 
7.1674407e+3, 3.137645e+2, -16846.633, -81991.54, -462.01843, 0.0019750157, 0.000021348242, -16843.355, -16843.355, 0.0, 10.020162, 9.934327 
7.177309e+3, 1.2507871e+2, -1692896.0, -1723657.6, -442.92123, 0.0019636315, 0.00015795614, -1692889.6, 21339.988, 0.0, 10.023104, 9.982302 
7.177319e+3, 1.3506086e+2, -1595499.9, -1626915.1, -584.80707, 0.0019682557, -0.000013813081, -1595489.0, 20915.486, 0.0, 10.023182, 9.981516 
7.177328e+3, 1.450365e+2, -1507450.6, -1547685.3, -1361.7778, 0.0019689032, 0.00024967646, -1507404.6, 11238.712, 0.0, 10.023184, 9.969869 
7.177336e+3, 1.5500633e+2, -1409945.8, -1450531.3, -1477.7385, 0.001967159, 0.000055777204, -1409892.0, 11046.778, 0.0, 10.023111, 9.9693365 
7.177344e+3, 1.6496962e+2, -1322098.9, -1371720.5, -2053.4673, 0.0019684187, 0.00013787427, -1322014.0, 1284.524, 0.0, 10.02298, 9.957355 
7.177352e+3, 1.7492703e+2, -1224548.5, -1274343.1, -2146.0684, 0.0019719992, 0.000039417155, -1224456.1, 1259.7924, 0.0, 10.022789, 9.956942 
7.177358e+3, 1.8487799e+2, -1136581.4, -1195418.4, -2528.6267, 0.0019736493, 0.00018239193, -1136472.9, -8276.397, 0.0, 10.022556, 9.944903 
7.1773654e+3, 1.9482292e+2, -1038964.6, -1097855.9, -2592.6033, 0.0019733836, 0.000040512885, -1038850.75, -8114.6436, 0.0, 10.022282, 9.944564 
7.1773714e+3, 2.0476143e+2, -950949.5, -1019064.0, -2774.721, 0.001971799, 0.00016044176, -950836.6, -17497.91, 0.0, 10.021993, 9.932269 
7.1773773e+3, 2.1469375e+2, -853231.75, -921374.6, -2820.3555, 0.0019687286, -0.000027379565, -853115.2, -17113.19, 0.0, 10.021688, 9.931936 
7.177384e+3, 2.2461961e+2, -765082.06, -842664.06, -2786.3762, 0.001973361, 0.00021963545, -764982.06, -26253.586, 0.0, 10.021389, 9.919399 
7.17739e+3, 2.3453909e+2, -667194.1, -744798.4, -2801.3186, 0.001986862, 0.00000018361698, -667093.1, -25575.523, 0.0, 10.021093, 9.919084 
7.1773964e+3, 2.4445182e+2, -579025.25, -666499.7, -2572.711, 0.0019838002, 0.00015983077, -578949.6, -34576.85, 0.0, 10.02082, 9.906074 
7.1774036e+3, 2.5435802e+2, -480736.53, -568086.7, -2560.129, 0.0019603826, -0.000018604671, -480661.56, -33369.69, 0.0, 10.020572, 9.905993 
7.1774113e+3, 2.6425734e+2, -392611.4, -490411.5, -2145.2373, 0.0019623, 0.00022525954, -392564.38, -42285.707, 0.0, 10.020351, 9.892305 
7.1774197e+3, 2.741502e+2, -293689.06, -390999.56, -2090.2844, 0.001996282, -0.00013120429, -293644.2, -40315.746, 0.0, 10.020165, 9.892753 
7.177428e+3, 2.8403485e+2, -207493.44, -317953.56, -1481.6658, 0.001999878, 0.00029942225, -207473.56, -51014.594, 0.0, 10.020037, 9.875772 
7.177438e+3, 2.939117e+2, -107965.7, -217775.33, -1395.5588, 0.0019610599, -0.00017173549, -107947.97, -48281.96, 0.0, 10.019986, 9.876552 
7.177449e+3, 3.0381665e+2, -18080.748, -84154.195, -572.1641, 0.0019566347, 0.00025232497, -18075.793, -18075.793, 0.0, 10.019986, 9.932951 
7.17746e+3, 3.1375152e+2, -16845.186, -81756.06, -410.9358, 0.0020010048, 0.00000086975786, -16842.584, -16842.584, 0.0, 10.0200615, 9.934534 
7.1873325e+3, 1.2506723e+2, -1691352.0, -1723272.9, -554.98505, 0.0019685624, 0.00017531868, -1691342.3, 22999.795, 0.0, 10.024263, 9.981918 
7.187342e+3, 1.35049e+2, -1594134.4, -1626629.4, -714.36755, 0.0019769277, -0.000012961279, -1594118.8, 22402.07, 0.0, 10.024235, 9.9811325 
7.1873516e+3, 1.4502425e+2, -1506197.8, -1547387.4, -1559.5693, 0.001978263, 0.00024511703, -1506138.8, 12624.359, 0.0, 10.024135, 9.96955 
7.1873605e+3, 1.5499379e+2, -1408852.9, -1450320.9, -1689.1167, 0.0019742907, 0.000056798344, -1408784.3, 12277.515, 0.0, 10.023966, 9.969018 
7.1873677e+3, 1.6495681e+2, -1321102.9, -1371468.8, -2316.906, 0.0019741578, 0.00013872804, -1320996.5, 2427.68, 0.0, 10.023732, 9.957118 
7.187375e+3, 1.7491397e+2, -1223725.8, -1274184.0, -2407.4167, 0.001977049, 0.00003447198, -1223611.1, 2232.8513, 0.0, 10.023435, 9.956706 
7.1873814e+3, 1.8486473e+2, -1135879.9, -1195252.9, -2824.0156, 0.0019795431, 0.00017819086, -1135745.9, -7419.3394, 0.0, 10.023094, 9.94473 
7.187388e+3, 1.948095e+2, -1038435.6, -1097780.8, -2895.055, 0.0019817315, 0.000044013243, -1038294.7, -7426.9614, 0.0, 10.022711, 9.944391 
7.1873933e+3, 2.0474787e+2, -950529.9, -1018970.44, -3087.7332, 0.001980604, 0.00016359777, -950390.9, -16919.092, 0.0, 10.022318, 9.932162 
7.187399e+3, 2.1468008e+2, -852964.1, -921358.8, -3130.4795, 0.0019758665, -0.000033196124, -852821.1, -16685.012, 0.0, 10.021916, 9.93183 
7.187405e+3, 2.2460584e+2, -764932.9, -842644.2, -3098.758, 0.0019783457, 0.0002132836, -764809.5, -25946.102, 0.0, 10.021511, 9.919351 
7.187411e+3, 2.3452528e+2, -667218.94, -744865.5, -3119.8137, 0.0019892259, 0.000002976215, -667093.8, -25440.865, 0.0, 10.021101, 9.919036 
7.187418e+3, 2.4443801e+2, -579158.3, -666538.56, -2869.9402, 0.0019887767, 0.00016385128, -579064.1, -34555.902, 0.0, 10.02072, 9.906097 
7.1874243e+3, 2.5434422e+2, -481017.16, -568195.6, -2846.7039, 0.0019742476, -0.000023044207, -480924.3, -33497.227, 0.0, 10.020372, 9.906021 
7.187431e+3, 2.642436e+2, -392995.34, -490508.25, -2401.8035, 0.0019750872, 0.00021918918, -392936.22, -42522.87, 0.0, 10.020055, 9.892387 
7.187439e+3, 2.7413657e+2, -294207.88, -391158.2, -2342.4548, 0.0019947211, -0.00012964696, -294151.3, -40689.055, 0.0, 10.019775, 9.892839 
7.1874475e+3, 2.840213e+2, -208131.95, -318145.56, -1681.3541, 0.00199684, 0.00030260635, -208106.25, -51514.434, 0.0, 10.019555, 9.875879 
7.1874577e+3, 2.9389822e+2, -108733.81, -218027.14, -1582.44, 0.0019748975, -0.00017484115, -108710.91, -48913.06, 0.0, 10.019412, 9.87666 
7.1874684e+3, 3.0380335e+2, -18878.87, -84285.99, -697.0884, 0.001973784, 0.00024674195, -18871.441, -18871.441, 0.0, 10.01933, 9.933176 
7.1874803e+3, 3.137385e+2, -17735.209, -81915.12, -512.0497, 0.001999911, -0.00000024776534, -17731.123, -17731.123, 0.0, 10.019335, 9.934775 
7.197356e+3, 1.250556e+2, -1691612.9, -1723883.3, -548.4099, 0.00197638, 0.0002072861, -1691603.5, 22852.518, 0.0, 10.02432, 9.981514 
7.197367e+3, 1.3503695e+2, -1594406.0, -1627243.9, -708.5117, 0.001983853, -0.000010278827, -1594390.8, 22248.219, 0.0, 10.024282, 9.980728 
7.197376e+3, 1.4501183e+2, -1506425.4, -1547897.9, -1606.44, 0.0019854216, 0.00023786468, -1506363.1, 12521.812, 0.0, 10.024172, 9.969214 
7.197384e+3, 1.5498102e+2, -1409098.3, -1450839.0, -1736.0829, 0.0019830244, 0.000058783084, -1409026.3, 12160.6455, 0.0, 10.02399, 9.968683 
7.1973914e+3, 1.6494375e+2, -1321281.1, -1371837.1, -2411.676, 0.001981895, 0.00014065512, -1321166.4, 2385.758, 0.0, 10.023746, 9.9568815 
7.1973985e+3, 1.7490068e+2, -1223915.1, -1274556.4, -2502.161, 0.0019812393, 0.000026718048, -1223791.9, 2182.3716, 0.0, 10.023438, 9.9564705 
7.1974045e+3, 1.8485123e+2, -1136034.4, -1195544.5, -2949.9648, 0.0019835108, 0.0001716687, -1135888.5, -7429.6504, 0.0, 10.023091, 9.944548 
7.19741e+3, 1.9479582e+2, -1038594.94, -1098073.3, -3020.2544, 0.0019890266, 0.000049896877, -1038442.0, -7440.2285, 0.0, 10.022703, 9.94421 
7.197416e+3, 2.0473404e+2, -950638.8, -1019149.06, -3220.024, 0.0019902664, 0.00016980938, -950487.8, -16880.637, 0.0, 10.022304, 9.932057 
7.197421e+3, 2.1466614e+2, -853087.4, -921542.5, -3263.6843, 0.0019868105, -0.00004015353, -852932.1, -16659.518, 0.0, 10.021891, 9.931727 
7.1974266e+3, 2.2459184e+2, -765027.06, -842755.5, -3234.3608, 0.001984588, 0.000204709, -764892.75, -25892.035, 0.0, 10.021479, 9.919296 
7.197432e+3, 2.3451123e+2, -667315.6, -744975.94, -3253.629, 0.001983861, 0.0000060357356, -667179.56, -25388.852, 0.0, 10.021066, 9.918983 
7.197438e+3, 2.4442394e+2, -579199.56, -666521.0, -2981.3743, 0.001987924, 0.0001684524, -579097.9, -34451.79, 0.0, 10.020677, 9.906131 
7.1974444e+3, 2.543302e+2, -481075.63, -568181.5, -2958.64, 0.001997718, -0.000029316747, -480975.25, -33410.633, 0.0, 10.020315, 9.906059 
7.1974516e+3, 2.6422963e+2, -393029.3, -490424.13, -2489.277, 0.0019974478, 0.00021241985, -392965.75, -42415.44, 0.0, 10.019989, 9.892475 
7.197459e+3, 2.741227e+2, -294242.78, -391070.44, -2427.3904, 0.0019825308, -0.00012366075, -294181.97, -40583.77, 0.0, 10.019708, 9.89293 
7.197467e+3, 2.8400755e+2, -208159.23, -318022.84, -1717.8961, 0.0019806223, 0.00030949005, -208132.39, -51405.613, 0.0, 10.019478, 9.875998 
7.197477e+3, 2.9388458e+2, -108783.79, -217912.77, -1613.4326, 0.001998306, -0.00018486219, -108759.94, -48828.19, 0.0, 10.01932, 9.876781 
7.197488e+3, 3.0378985e+2, -18855.59, -83996.125, -677.33594, 0.0020047496, 0.00023426193, -18848.547, -18848.547, 0.0, 10.019227, 9.933422 
7.197499e+3, 3.137253e+2, -17701.018, -81601.07, -487.91003, 0.001987843, 0.0000060104335, -17697.293, -17697.293, 0.0, 10.019231, 9.935038 
7.207381e+3, 1.250439e+2, -1689872.6, -1723440.1, -626.0734, 0.0019814249, 0.00012810502, -1689860.9, 24709.904, 0.0, 10.025622, 9.98109 
7.207392e+3, 1.3502486e+2, -1592848.8, -1626902.4, -800.4892, 0.0019870324, -0.000025596471, -1592829.9, 23927.463, 0.0, 10.025476, 9.980304 
7.207401e+3, 1.4499937e+2, -1504999.6, -1547542.8, -1768.078, 0.0019890245, 0.00024834275, -1504926.3, 14080.718, 0.0, 10.025247, 9.968866 
7.2074085e+3, 1.5496822e+2, -1407883.6, -1450598.5, -1908.8612, 0.001989274, 0.00005636523, -1407798.5, 13513.887, 0.0, 10.024937, 9.968335 
7.2074157e+3, 1.6493063e+2, -1320186.6, -1371548.6, -2639.6187, 0.0019901413, 0.00013518424, -1320051.4, 3629.2532, 0.0, 10.024567, 9.956633 
7.2074217e+3, 1.7488733e+2, -1223017.5, -1274373.0, -2741.218, 0.0019907074, 0.000028562585, -1222871.6, 3233.424, 0.0, 10.024138, 9.956222 
7.2074276e+3, 1.8483767e+2, -1135269.8, -1195358.8, -3224.4373, 0.0019911407, 0.0001733969, -1135097.1, -6505.4087, 0.0, 10.023675, 9.944363 
7.207433e+3, 1.9478206e+2, -1038005.06, -1097979.3, -3299.7512, 0.0019915912, 0.00004382674, -1037824.06, -6687.505, 0.0, 10.023177, 9.944026 
7.2074383e+3, 2.0472012e+2, -950184.1, -1019049.2, -3519.3796, 0.0019934902, 0.00016441909, -950004.75, -16261.257, 0.0, 10.022657, 9.93194 
7.207443e+3, 2.1465212e+2, -852836.8, -921547.2, -3570.3477, 0.0019970608, -0.000035354213, -852651.8, -16241.801, 0.0, 10.022113, 9.931611 
7.2074485e+3, 2.2457774e+2, -764903.1, -842740.4, -3537.028, 0.0019956406, 0.00020947977, -764742.75, -25603.924, 0.0, 10.021581, 9.919254 
7.207453e+3, 2.3449709e+2, -667352.56, -745040.25, -3550.9988, 0.0019885653, -0.0000010660117, -667190.56, -25261.285, 0.0, 10.021062, 9.918943 
7.207459e+3, 2.4440978e+2, -579366.3, -666574.5, -3265.122, 0.001990965, 0.00015978303, -579244.25, -34459.473, 0.0, 10.020554, 9.9061575 
7.2074646e+3, 2.543161e+2, -481443.56, -568332.25, -3244.4373, 0.002004774, -0.000026868993, -481322.6, -33619.645, 0.0, 10.020057, 9.906089 
7.207471e+3, 2.642156e+2, -393517.56, -490551.97, -2735.1926, 0.0020055985, 0.00021786384, -393440.53, -42752.535, 0.0, 10.019614, 9.892576 
7.207478e+3, 2.7410874e+2, -294862.72, -391256.84, -2662.3916, 0.0019876037, -0.00012567865, -294789.25, -41054.33, 0.0, 10.01924, 9.893037 
7.2074866e+3, 2.839937e+2, -208909.97, -318236.6, -1907.1887, 0.0019857297, 0.00030421908, -208876.7, -52014.387, 0.0, 10.018906, 9.876135 
7.207496e+3, 2.9387087e+2, -109710.49, -218207.78, -1788.4655, 0.0020079052, -0.00018644346, -109681.02, -49615.125, 0.0, 10.018624, 9.876922 
7.2075063e+3, 3.0377635e+2, -19837.58, -84189.46, -772.8094, 0.0020142714, 0.0002352854, -19828.3, -19828.3, 0.0, 10.018434, 9.933672 
7.207518e+3, 3.1371203e+2, -18759.758, -81814.82, -569.4073, 0.0019898522, 0.000008753703, -18754.617, -18754.617, 0.0, 10.018377, 9.935303 
7.217407e+3, 1.2503207e+2, -1690150.0, -1724101.6, -651.9265, 0.0019843418, -0.0000060699426, -1690137.4, 24549.268, 0.0, 10.025688, 9.980649 
7.217417e+3, 1.3501269e+2, -1593150.4, -1627575.0, -825.9237, 0.0019886664, -0.00005008324, -1593130.6, 23746.074, 0.0, 10.025525, 9.979863 
7.217426e+3, 1.4498684e+2, -1505252.0, -1548097.9, -1853.686, 0.0019913542, 0.0002675136, -1505171.9, 13957.987, 0.0, 10.025283, 9.968504 
7.2174335e+3, 1.549553e+2, -1408144.8, -1451156.3, -1994.2928, 0.0019944787, 0.000052145904, -1408052.5, 13386.533, 0.0, 10.024965, 9.967974 
7.2174406e+3, 1.6491741e+2, -1320378.3, -1371956.3, -2769.639, 0.001998313, 0.00012620415, -1320229.9, 3580.3938, 0.0, 10.024586, 9.956368 
7.2174466e+3, 1.7487383e+2, -1223222.5, -1274785.4, -2872.6404, 0.0020020052, 0.000033836845, -1223062.9, 3174.3286, 0.0, 10.024147, 9.955959 
7.217452e+3, 1.8482395e+2, -1135429.3, -1195665.1, -3382.73, 0.002000103, 0.00017850833, -1135239.9, -6513.724, 0.0, 10.023675, 9.944171 
7.2174567e+3, 1.9476815e+2, -1038174.5, -1098288.6, -3459.019, 0.0019925202, 0.000033126013, -1037976.1, -6703.1255, 0.0, 10.023169, 9.943835 
7.217461e+3, 2.0470606e+2, -950309.75, -1019259.44, -3696.0842, 0.0019942275, 0.00015447788, -950112.2, -16230.747, 0.0, 10.022641, 9.931815 
7.217465e+3, 2.1463792e+2, -852968.75, -921758.6, -3747.2644, 0.0020062884, -0.000026551972, -852765.25, -16216.175, 0.0, 10.022092, 9.931487 
7.21747e+3, 2.2456346e+2, -764980.1, -842823.7, -3705.8335, 0.0020078379, 0.00021909886, -764804.1, -25525.418, 0.0, 10.021551, 9.919216 
7.217474e+3, 2.3448275e+2, -667446.75, -745128.7, -3720.4373, 0.0019972194, -0.000011667264, -667269.0, -25199.342, 0.0, 10.021018, 9.918909 
7.2174793e+3, 2.4439545e+2, -579425.9, -666575.2, -3426.085, 0.00199548, 0.00014640212, -579291.4, -34366.17, 0.0, 10.020502, 9.906183 
7.217485e+3, 2.5430182e+2, -481503.97, -568329.75, -3404.1677, 0.0020045894, -0.00002134369, -481370.7, -33527.727, 0.0, 10.020003, 9.906118 
7.2174907e+3, 2.6420134e+2, -393529.53, -490430.9, -2851.3276, 0.0020071543, 0.00022785927, -393445.72, -42618.395, 0.0, 10.019551, 9.892687 
7.217498e+3, 2.7409464e+2, -294896.72, -391139.8, -2775.1965, 0.0019994616, -0.00013104231, -294816.78, -40943.547, 0.0, 10.01916, 9.893153 
7.2175056e+3, 2.839797e+2, -208935.14, -318076.06, -1987.0637, 0.001999328, 0.00029464433, -208898.97, -51899.605, 0.0, 10.018815, 9.876285 
7.2175145e+3, 2.9385707e+2, -109734.664, -218043.23, -1866.3232, 0.0020110386, -0.00018505467, -109702.516, -49501.17, 0.0, 10.018533, 9.877074 
7.2175246e+3, 3.0376276e+2, -19798.867, -83874.76, -774.355, 0.0020141064, 0.00024185215, -19789.512, -19789.512, 0.0, 10.018333, 9.933933 
7.2175366e+3, 3.136987e+2, -18741.78, -81493.734, -559.23724, 0.0019974408, 0.000009477853, -18736.795, -18736.795, 0.0, 10.018256, 9.935578 
7.2274333e+3, 1.2502086e+2, -1688178.9, -1723572.1, -692.9734, 0.0020178184, 0.00040622454, -1688165.3, 26631.203, 0.0, 10.027151, 9.980193 
7.2274435e+3, 1.350008e+2, -1591435.4, -1627188.6, -882.1648, 0.0020067142, 0.00008447743, -1591413.6, 25579.566, 0.0, 10.026835, 9.979405 
7.227452e+3, 1.4497432e+2, -1503691.8, -1547703.3, -1972.2294, 0.001992353, 0.00014661225, -1503603.5, 15648.975, 0.0, 10.026457, 9.968128 
7.227459e+3, 1.549425e+2, -1406781.8, -1450869.0, -2125.2341, 0.0020015354, 0.000049189057, -1406679.6, 14884.732, 0.0, 10.02602, 9.967599 
7.2274655e+3, 1.6490431e+2, -1319149.0, -1371640.1, -2961.8982, 0.0020064514, 0.00016364978, -1318982.5, 4956.1406, 0.0, 10.025513, 9.956082 
7.227471e+3, 1.7486043e+2, -1222214.0, -1274587.0, -3079.9268, 0.002005882, 0.00003099043, -1222033.5, 4335.1377, 0.0, 10.024938, 9.955673 
7.2274756e+3, 1.8481027e+2, -1134575.9, -1195461.9, -3627.4033, 0.0020047831, 0.0001630586, -1134360.5, -5500.394, 0.0, 10.024328, 9.943962 
7.22748e+3, 1.9475427e+2, -1037536.4, -1098198.3, -3715.2488, 0.002003418, 0.000035102858, -1037309.7, -5900.885, 0.0, 10.023686, 9.943627 
7.227484e+3, 2.0469202e+2, -949819.1, -1019157.7, -3975.2463, 0.0020041717, 0.00015991941, -949591.94, -15573.0205, 0.0, 10.023026, 9.931684 
7.2274876e+3, 2.1462376e+2, -852680.9, -921760.5, -4031.457, 0.002007389, -0.000032992444, -852446.44, -15758.53, 0.0, 10.022346, 9.931358 
7.227491e+3, 2.245492e+2, -764843.56, -842807.06, -3993.1936, 0.0020091792, 0.00021162712, -764639.56, -25221.145, 0.0, 10.021664, 9.91917 
7.2274953e+3, 2.3446846e+2, -667541.6, -745226.9, -4011.9807, 0.0020095103, -0.000007443003, -667334.94, -25125.273, 0.0, 10.020979, 9.918866 
7.2274995e+3, 2.4438114e+2, -579666.25, -666656.44, -3697.2014, 0.0020083499, 0.00015269319, -579509.4, -34444.105, 0.0, 10.020327, 9.906219 
7.227504e+3, 2.5428754e+2, -481913.88, -568491.25, -3669.1436, 0.002004936, -0.000025061232, -481758.66, -33775.92, 0.0, 10.019712, 9.9061575 
7.22751e+3, 2.6418716e+2, -394073.0, -490564.03, -3080.5398, 0.0020065422, 0.00022062343, -393974.78, -43008.395, 0.0, 10.019131, 9.892807 
7.227517e+3, 2.7408057e+2, -295660.56, -391374.53, -2996.033, 0.002013045, -0.00013268173, -295566.88, -41555.9, 0.0, 10.018587, 9.893279 
7.227524e+3, 2.839658e+2, -209862.25, -318355.28, -2149.8323, 0.0020140181, 0.00029572344, -209819.66, -52683.926, 0.0, 10.018116, 9.876441 
7.227533e+3, 2.938433e+2, -110786.7, -218378.3, -2018.7399, 0.002007742, -0.00018449186, -110748.84, -50412.67, 0.0, 10.017744, 9.8772335 
7.2275424e+3, 3.037492e+2, -20901.877, -84083.08, -854.48596, 0.0020087725, 0.0002409484, -20890.322, -20890.322, 0.0, 10.017438, 9.934222 
7.2275543e+3, 3.1368545e+2, -20026.498, -81770.1, -614.68054, 0.0020152312, 0.0000066964244, -20020.379, -20020.379, 0.0, 10.017228, 9.935885 
7.237461e+3, 1.25009e+2, -1688447.3, -1724240.5, -766.54236, 0.0019822977, -0.000043456144, -1688430.9, 26481.795, 0.0, 10.027228, 9.979742 
7.23747e+3, 1.34989e+2, -1591761.3, -1627918.8, -961.5953, 0.0020338602, 0.00031974903, -1591735.8, 25372.95, 0.0, 10.02689, 9.978927 
7.237478e+3, 1.4496174e+2, -1503967.1, -1548304.6, -2098.504, 0.0019900526, -0.0000616653, -1503868.0, 15507.687, 0.0, 10.026494, 9.967737 
7.237485e+3, 1.549297e+2, -1407070.6, -1451475.0, -2250.9075, 0.0020092223, 0.00004608283, -1406956.8, 14732.995, 0.0, 10.026046, 9.967208 
7.237491e+3, 1.6489121e+2, -1319375.3, -1372112.9, -3138.2815, 0.0020153758, 0.00023036127, -1319189.1, 4877.6953, 0.0, 10.025532, 9.955778 
7.237496e+3, 1.7484698e+2, -1222443.5, -1275059.0, -3256.866, 0.0020069485, 0.00002526188, -1222242.6, 4257.879, 0.0, 10.024952, 9.95537 
7.2375e+3, 1.8479654e+2, -1134749.1, -1195812.5, -3830.2332, 0.0020073843, 0.00013595472, -1134509.8, -5515.0786, 0.0, 10.024336, 9.943738 
7.2375035e+3, 1.9474034e+2, -1037721.9, -1098552.5, -3919.8052, 0.0020177632, 0.00004149229, -1037470.3, -5924.994, 0.0, 10.023684, 9.943405 
7.237507e+3, 2.0467792e+2, -949949.9, -1019385.1, -4195.0967, 0.0020174892, 0.0001726048, -949697.3, -15540.159, 0.0, 10.023014, 9.931546 
7.2375095e+3, 2.146095e+2, -852823.8, -921991.4, -4251.6313, 0.0020053831, -0.00004508261, -852563.44, -15735.817, 0.0, 10.022324, 9.931222 
7.237513e+3, 2.2453485e+2, -764931.56, -842910.9, -4215.461, 0.0020060914, 0.00019721632, -764704.4, -25145.234, 0.0, 10.021633, 9.919121 
7.237516e+3, 2.3445407e+2, -667638.25, -745331.4, -4234.7686, 0.0020221535, 0.0000022286345, -667408.1, -25057.434, 0.0, 10.020941, 9.918818 
7.23752e+3, 2.4436677e+2, -579710.25, -666632.1, -3895.0403, 0.0020233337, 0.00016648883, -579536.06, -34329.77, 0.0, 10.020278, 9.90626 
7.2375244e+3, 2.5427318e+2, -481975.53, -568470.4, -3865.5134, 0.0020055885, -0.0000321703, -481803.13, -33679.664, 0.0, 10.0196495, 9.906202 
7.237529e+3, 2.6417288e+2, -394087.53, -490423.25, -3251.557, 0.0020050842, 0.0002073151, -393977.9, -42871.582, 0.0, 10.019057, 9.892936 
7.237535e+3, 2.7406645e+2, -295679.16, -391228.63, -3165.9424, 0.0020261726, -0.00013297464, -295574.38, -41424.87, 0.0, 10.018508, 9.8934145 
7.237542e+3, 2.8395182e+2, -209872.94, -318169.94, -2259.64, 0.0020278944, 0.00030127424, -209825.81, -52553.05, 0.0, 10.018027, 9.876606 
7.23755e+3, 2.9382947e+2, -110818.64, -218200.48, -2120.6235, 0.0020021978, -0.00018485163, -110776.78, -50305.176, 0.0, 10.01764, 9.877401 
7.23756e+3, 3.0373558e+2, -20853.164, -83708.91, -899.56415, 0.0020017156, 0.0002373799, -20840.293, -20840.293, 0.0, 10.017322, 9.934531 
7.237572e+3, 3.1367218e+2, -19976.086, -81373.17, -653.2399, 0.0020351917, 0.0000022858133, -19969.135, -19969.135, 0.0, 10.017103, 9.9362135 
7.2474885e+3, 1.24997795e+2, -1686218.3, -1723591.6, -759.1288, 0.0019890822, -0.00017505248, -1686202.8, 28819.74, 0.0, 10.02886, 9.97927 
7.247498e+3, 1.3497774e+2, -1589886.4, -1627546.0, -991.50165, 0.0020791816, 0.00078182225, -1589860.4, 27358.795, 0.0, 10.028346, 9.978384 
7.247505e+3, 1.449493e+2, -1502240.3, -1547862.0, -2185.4507, 0.0019604017, -0.00047420416, -1502135.8, 17361.984, 0.0, 10.027792, 9.967326 
7.247512e+3, 1.5491717e+2, -1405574.5, -1451157.1, -2355.4976, 0.0020151455, 0.00004144463, -1405453.1, 16359.525, 0.0, 10.027203, 9.966799 
7.247517e+3, 1.6487843e+2, -1318026.9, -1371774.8, -3303.5544, 0.002034328, 0.00036861523, -1317824.5, 6367.6426, 0.0, 10.026552, 9.955457 
7.247521e+3, 1.7483376e+2, -1221307.6, -1274834.1, -3435.37, 0.0020150607, 0.000027315922, -1221088.0, 5541.9863, 0.0, 10.025841, 9.95505 
7.247524e+3, 1.84783e+2, -1133782.5, -1195593.1, -4053.895, 0.0020102502, 0.0000878598, -1133517.8, -4390.312, 0.0, 10.025082, 9.943492 
7.247527e+3, 1.9472659e+2, -1037004.4, -1098463.8, -4157.365, 0.0020215153, 0.000037388338, -1036724.4, -5044.3066, 0.0, 10.024272, 9.94316 
7.24753e+3, 2.0466399e+2, -949400.3, -1019269.44, -4456.628, 0.002023693, 0.00018638883, -949117.2, -14823.483, 0.0, 10.023443, 9.931401 
7.247532e+3, 2.145954e+2, -852521.1, -922001.25, -4518.831, 0.002015829, -0.000042852487, -852228.5, -15262.816, 0.0, 10.022594, 9.93108 
7.2475344e+3, 2.2452065e+2, -764800.06, -842907.4, -4485.681, 0.002015153, 0.00019290586, -764543.3, -24845.154, 0.0, 10.021748, 9.919065 
7.2475374e+3, 2.3443983e+2, -667736.94, -745441.75, -4507.457, 0.0020232648, -0.0000024883086, -667476.3, -24986.088, 0.0, 10.020904, 9.918767 
7.24754e+3, 2.4435252e+2, -579974.1, -666713.9, -4147.6426, 0.002024839, 0.00016308704, -579776.25, -34430.324, 0.0, 10.020082, 9.906305 
7.247544e+3, 2.54259e+2, -482485.4, -568669.5, -4114.2183, 0.0020177134, -0.000032292148, -482289.44, -34026.887, 0.0, 10.019288, 9.906253 
7.247548e+3, 2.641588e+2, -394760.25, -490606.13, -3460.7703, 0.0020181055, 0.00020871844, -394635.44, -43390.93, 0.0, 10.018543, 9.89307 
7.2475535e+3, 2.7405247e+2, -296541.16, -391497.0, -3368.3342, 0.002026543, -0.00013193066, -296421.8, -42135.457, 0.0, 10.017862, 9.893554 
7.2475594e+3, 2.8393802e+2, -210899.5, -318458.3, -2399.6206, 0.0020266469, 0.00030050447, -210845.98, -53437.973, 0.0, 10.017243, 9.876798 
7.247567e+3, 2.9381585e+2, -112054.375, -218583.33, -2240.69, 0.0020153648, -0.00018831847, -112007.266, -51402.313, 0.0, 10.016708, 9.877598 
7.247577e+3, 3.0372226e+2, -22177.209, -83983.81, -939.4959, 0.0020170817, 0.00023307659, -22162.932, -22162.932, 0.0, 10.016258, 9.934857 
7.247588e+3, 3.136592e+2, -21445.543, -81698.32, -674.46875, 0.0020328762, 0.0000012118649, -21437.994, -21437.994, 0.0, 10.015931, 9.936558 
7.2575176e+3, 1.2498681e+2, -1686513.9, -1724288.1, -876.27515, 0.0019806123, -0.00026461063, -1686493.5, 28636.684, 0.0, 10.028927, 9.978807 
7.2575265e+3, 1.349667e+2, -1590299.9, -1628443.1, -1113.3138, 0.0021352894, 0.0013670716, -1590267.5, 27059.697, 0.0, 10.028401, 9.977802 
7.257533e+3, 1.4493686e+2, -1502538.1, -1548528.4, -2338.5342, 0.0019168836, -0.0009938013, -1502419.5, 17200.012, 0.0, 10.02784, 9.966889 
7.257539e+3, 1.5490472e+2, -1405873.3, -1451820.6, -2517.7559, 0.0020201588, 0.00003486122, -1405735.8, 16198.901, 0.0, 10.027247, 9.966363 
7.257543e+3, 1.6486573e+2, -1318254.0, -1372288.3, -3518.1096, 0.002058005, 0.00054386904, -1318025.9, 6290.6846, 0.0, 10.026588, 9.955118 
7.257547e+3, 1.7482059e+2, -1221549.1, -1275352.3, -3653.863, 0.002025819, 0.000032818636, -1221302.1, 5456.931, 0.0, 10.025866, 9.954713 
7.25755e+3, 1.8476948e+2, -1133976.9, -1195999.6, -4310.968, 0.0020127583, 0.000028808217, -1133678.8, -4418.8447, 0.0, 10.025096, 9.94323 
7.2575516e+3, 1.9471286e+2, -1037210.6, -1098874.0, -4415.4023, 0.0020211255, 0.000028890616, -1036896.06, -5081.3604, 0.0, 10.024277, 9.942899 
7.257554e+3, 2.0465006e+2, -949534.0, -1019515.94, -4730.995, 0.0020270334, 0.00020169848, -949215.6, -14785.467, 0.0, 10.0234375, 9.931249 
7.2575545e+3, 2.1458133e+2, -852669.94, -922251.8, -4794.737, 0.002030363, -0.00003518526, -852341.06, -15237.452, 0.0, 10.022576, 9.93093 
7.257557e+3, 2.2450647e+2, -764892.2, -843021.2, -4760.4346, 0.002028192, 0.0001921803, -764603.2, -24765.979, 0.0, 10.021718, 9.919009 
7.257558e+3, 2.3442559e+2, -667842.25, -745558.25, -4781.4585, 0.0020197346, -0.0000124088865, -667549.2, -24919.264, 0.0, 10.020863, 9.918714 
7.25756e+3, 2.4433826e+2, -580016.06, -666679.5, -4403.7793, 0.0020206263, 0.00015345315, -579792.8, -34307.2, 0.0, 10.020031, 9.906354 
7.257563e+3, 2.5424477e+2, -482539.03, -568634.44, -4370.4346, 0.0020332243, -0.00002963575, -482317.75, -33916.1, 0.0, 10.019226, 9.906307 
7.2575665e+3, 2.641447e+2, -394765.47, -490447.0, -3677.0234, 0.002035528, 0.00021613718, -394624.38, -43241.73, 0.0, 10.018471, 9.89321 
7.257571e+3, 2.7403852e+2, -296559.53, -391337.0, -3580.6519, 0.0020218226, -0.00013073372, -296424.44, -42001.336, 0.0, 10.017777, 9.893702 
7.257577e+3, 2.8392422e+2, -210892.47, -318215.28, -2560.5862, 0.0020193965, 0.00029772584, -210831.4, -53288.324, 0.0, 10.017146, 9.877006 
7.2575843e+3, 2.9380232e+2, -112064.9, -218342.42, -2397.6746, 0.0020346597, -0.00019308679, -112010.836, -51272.906, 0.0, 10.016597, 9.877811 
7.257593e+3, 3.0370894e+2, -22115.979, -83566.96, -1025.1481, 0.0020398176, 0.00022943526, -22098.883, -22098.883, 0.0, 10.016134, 9.935199 
7.257604e+3, 3.1364623e+2, -21383.092, -81260.984, -749.9171, 0.002021687, 0.0000011309677, -21373.701, -21373.701, 0.0, 10.0157995, 9.936916 
7.267547e+3, 1.24976344e+2, -1684055.5, -1723455.6, -786.7486, 0.0019689198, -0.0005325496, -1684039.8, 31192.992, 0.0, 10.030673, 9.978387 
7.2675556e+3, 1.3495632e+2, -1588242.0, -1628055.8, -1056.5055, 0.0022055693, 0.0019585772, -1588214.0, 29214.92, 0.0, 10.03001, 9.977188 
7.2675616e+3, 1.4492501e+2, -1500629.1, -1548119.6, -2337.1448, 0.0018686961, -0.0015109954, -1500514.4, 19221.299, 0.0, 10.029311, 9.966367 
7.267567e+3, 1.5489274e+2, -1404188.4, -1451533.4, -2560.0376, 0.0020257554, 0.00002416563, -1404050.4, 18001.484, 0.0, 10.028583, 9.965841 
7.267571e+3, 1.6485347e+2, -1316700.9, -1371911.3, -3649.152, 0.002082611, 0.00071408204, -1316460.8, 7975.984, 0.0, 10.02777, 9.954737 
7.2675735e+3, 1.748078e+2, -1220273.8, -1275122.4, -3808.2495, 0.002032218, 0.00003603486, -1220010.6, 6873.7036, 0.0, 10.026875, 9.954334 
7.267575e+3, 1.8475632e+2, -1132894.6, -1195756.5, -4516.9185, 0.002012925, -0.000029732904, -1132571.6, -3182.8276, 0.0, 10.025931, 9.942952 
7.2675765e+3, 1.9469947e+2, -1036402.8, -1098774.4, -4631.815, 0.0020283104, 0.000025545845, -1036060.75, -4114.7847, 0.0, 10.024939, 9.942622 
7.267577e+3, 2.0463645e+2, -948918.2, -1019392.3, -4974.082, 0.0020359533, 0.00021946015, -948568.8, -14005.423, 0.0, 10.023921, 9.931081 
7.2675776e+3, 2.1456756e+2, -852337.2, -922272.2, -5046.715, 0.0020350348, -0.000035337504, -851974.9, -14736.2295, 0.0, 10.022877, 9.930765 
7.267578e+3, 2.2449256e+2, -764750.75, -843011.9, -5012.798, 0.0020326374, 0.00018488358, -764430.94, -24457.535, 0.0, 10.021838, 9.918955 
7.267579e+3, 2.3441164e+2, -667970.5, -745681.75, -5032.633, 0.0020287726, -0.00001368269, -667645.94, -24879.412, 0.0, 10.020805, 9.918664 
7.26758e+3, 2.4432433e+2, -580336.25, -666788.2, -4634.506, 0.0020298925, 0.0001549341, -580088.56, -34466.285, 0.0, 10.019797, 9.906401 
7.267582e+3, 2.542309e+2, -483114.75, -568865.06, -4600.128, 0.0020368262, -0.000029819517, -482868.7, -34330.902, 0.0, 10.01882, 9.90636 
7.267585e+3, 2.641309e+2, -395516.16, -490643.47, -3861.0664, 0.0020380504, 0.0002141559, -395359.7, -43841.875, 0.0, 10.017895, 9.893367 
7.2675884e+3, 2.7402487e+2, -297549.75, -391641.78, -3752.4333, 0.002028982, -0.00013413368, -297400.34, -42843.66, 0.0, 10.017035, 9.893866 
7.267594e+3, 2.839108e+2, -212084.28, -318556.5, -2671.3423, 0.0020284648, 0.00029493368, -212017.3, -54342.508, 0.0, 10.016239, 9.877222 
7.2676e+3, 2.937891e+2, -113483.63, -218786.34, -2496.9016, 0.0020413564, -0.00019085735, -113424.46, -52557.02, 0.0, 10.015531, 9.878034 
7.2676086e+3, 3.03696e+2, -23630.564, -83889.99, -1032.8634, 0.0020452195, 0.00023301724, -23612.867, -23612.867, 0.0, 10.014922, 9.935564 
7.2676194e+3, 3.136337e+2, -23062.24, -81641.01, -732.3027, 0.002027462, 0.000001345544, -23053.088, -23053.088, 0.0, 10.014465, 9.937302 
7.277578e+3, 1.2496629e+2, -1684285.1, -1724023.3, -968.4886, 0.0019460074, -0.0007011358, -1684261.5, 31069.738, 0.0, 10.030738, 9.978005 
7.277585e+3, 1.3494624e+2, -1588680.8, -1629042.6, -1258.4329, 0.0022828307, 0.00255115, -1588641.5, 28886.176, 0.0, 10.030085, 9.97654 
7.2775906e+3, 1.4491343e+2, -1500999.6, -1548979.0, -2566.3484, 0.0018170966, -0.0020239437, -1500862.8, 18986.46, 0.0, 10.029384, 9.965796 
7.277596e+3, 1.5488102e+2, -1404574.6, -1452397.3, -2784.5742, 0.0020314883, 0.000011494498, -1404413.0, 17753.932, 0.0, 10.028642, 9.965274 
7.2775984e+3, 1.6484138e+2, -1316968.9, -1372525.6, -3933.0178, 0.002108014, 0.0008817447, -1316691.8, 7863.4424, 0.0, 10.027817, 9.9543295 
7.2776e+3, 1.7479518e+2, -1220554.8, -1275739.0, -4091.6487, 0.002036942, 0.00003855576, -1220253.0, 6754.975, 0.0, 10.02691, 9.95393 
7.2776014e+3, 1.8474329e+2, -1133099.4, -1196201.1, -4836.436, 0.0020118344, -0.000087532666, -1132730.9, -3214.367, 0.0, 10.025953, 9.942661 
7.2776014e+3, 1.946862e+2, -1036624.9, -1099224.1, -4952.238, 0.0020380593, 0.000024033106, -1036235.5, -4159.5415, 0.0, 10.024947, 9.942334 
7.2776014e+3, 2.0462297e+2, -949068.2, -1019676.0, -5314.0264, 0.002046729, 0.00023837482, -948670.5, -13974.934, 0.0, 10.023917, 9.930904 
7.277601e+3, 2.1455388e+2, -852500.5, -922558.6, -5386.3164, 0.0020355764, -0.000038551036, -852088.8, -14716.106, 0.0, 10.022862, 9.930591 
7.2776e+3, 2.2447878e+2, -764836.4, -843118.5, -5349.1426, 0.0020331526, 0.00017506532, -764472.56, -24363.887, 0.0, 10.021811, 9.918901 
7.2775996e+3, 2.343978e+2, -668072.5, -745791.0, -5369.91, 0.0020417243, -0.000011287723, -667703.25, -24801.105, 0.0, 10.020764, 9.918615 
7.2776e+3, 2.4431048e+2, -580381.06, -666755.2, -4951.9277, 0.0020432025, 0.00016101432, -580098.06, -34340.215, 0.0, 10.019744, 9.906449 
7.2776014e+3, 2.542171e+2, -483171.63, -568831.94, -4915.4785, 0.002035381, -0.000030962616, -482890.5, -34217.57, 0.0, 10.018756, 9.906414 
7.2776026e+3, 2.641172e+2, -395506.75, -490446.88, -4134.484, 0.0020341885, 0.00020913871, -395327.03, -43675.098, 0.0, 10.017818, 9.893533 
7.2776055e+3, 2.7401137e+2, -297556.38, -391443.13, -4023.526, 0.0020400041, -0.00013916282, -297384.28, -42695.203, 0.0, 10.016944, 9.894041 
7.27761e+3, 2.838975e+2, -212071.55, -318288.03, -2889.553, 0.0020429273, 0.00029305174, -211993.0, -54187.79, 0.0, 10.016136, 9.877449 
7.2776157e+3, 2.93776e+2, -113481.14, -218517.78, -2708.8872, 0.0020422826, -0.00018662492, -113411.33, -52415.777, 0.0, 10.015418, 9.878265 
7.2776234e+3, 3.0368325e+2, -23542.389, -83412.0, -1158.5413, 0.0020429154, 0.00023963985, -23519.979, -23519.979, 0.0, 10.014796, 9.935947 
7.2776335e+3, 3.136213e+2, -22990.88, -81147.29, -846.76465, 0.0020388877, 0.0000014191702, -22978.555, -22978.555, 0.0, 10.0143175, 9.937707 
7.2876096e+3, 1.2495683e+2, -1681559.9, -1723056.9, -899.3821, 0.0019349217, -0.0009057072, -1681540.4, 33883.508, 0.0, 10.032654, 9.977576 
7.287617e+3, 1.3493663e+2, -1586384.8, -1628675.6, -1254.9518, 0.0023630925, 0.0030821045, -1586347.6, 31274.285, 0.0, 10.03191, 9.975798 
7.287621e+3, 1.4490238e+2, -1498770.9, -1548434.9, -2640.1333, 0.001756727, -0.0024872236, -1498630.9, 21326.605, 0.0, 10.031072, 9.965243 
7.287625e+3, 1.5486977e+2, -1402649.0, -1452016.4, -2858.5413, 0.002037329, 0.000002727303, -1402484.1, 19793.008, 0.0, 10.030145, 9.964723 
7.287627e+3, 1.6482979e+2, -1315230.6, -1372087.5, -4071.0134, 0.0021375979, 0.001036896, -1314940.6, 9728.248, 0.0, 10.029133, 9.9539175 
7.287628e+3, 1.7478305e+2, -1219121.0, -1275462.3, -4237.905, 0.0020442668, 0.0000413699, -1218804.0, 8322.838, 0.0, 10.028036, 9.95352 
7.2876275e+3, 1.8473075e+2, -1131889.5, -1195921.5, -5029.321, 0.0020105292, -0.000141314, -1131497.0, -1857.7126, 0.0, 10.026884, 9.942358 
7.287626e+3, 1.9467342e+2, -1035734.06, -1099111.0, -5154.7046, 0.0020434372, 0.000022251406, -1035317.56, -3116.2732, 0.0, 10.025676, 9.942033 
7.2876257e+3, 2.0460996e+2, -948391.56, -1019533.0, -5538.8135, 0.0020551276, 0.00025562415, -947962.94, -13139.84, 0.0, 10.0244465, 9.930726 
7.287623e+3, 2.1454066e+2, -852129.25, -922570.5, -5613.7085, 0.0020427476, -0.00004061207, -851684.7, -14182.603, 0.0, 10.023193, 9.930416 
7.287622e+3, 2.2446546e+2, -764684.3, -843112.2, -5576.995, 0.0020393808, 0.00016630719, -764289.75, -24050.498, 0.0, 10.021942, 9.918841 
7.287621e+3, 2.3438443e+2, -668228.7, -745936.94, -5601.2876, 0.0020473527, -0.000011064269, -667827.06, -24793.83, 0.0, 10.020692, 9.918559 
7.28762e+3, 2.442971e+2, -580747.44, -666872.1, -5157.9424, 0.002048901, 0.00016397747, -580439.6, -34550.68, 0.0, 10.019474, 9.90651 
7.287619e+3, 2.542038e+2, -483819.97, -569082.56, -5113.9375, 0.002041474, -0.000033676744, -483514.34, -34710.977, 0.0, 10.018294, 9.906481 
7.2876203e+3, 2.64104e+2, -396360.66, -490675.84, -4286.3276, 0.0020411923, 0.0002050637, -396166.28, -44385.008, 0.0, 10.017165, 9.893706 
7.287622e+3, 2.7399835e+2, -298688.38, -391799.1, -4167.795, 0.0020480135, -0.0001380121, -298502.2, -43685.605, 0.0, 10.016098, 9.894222 
7.2876257e+3, 2.8388467e+2, -213418.06, -318668.88, -2962.899, 0.0020494515, 0.0002946772, -213334.72, -55404.07, 0.0, 10.01511, 9.877699 
7.2876304e+3, 2.9376346e+2, -115055.55, -218999.5, -2763.1711, 0.0020433073, -0.00019001095, -114982.14, -53863.63, 0.0, 10.01423, 9.878521 
7.2876376e+3, 3.0367103e+2, -25241.627, -83781.836, -1122.2855, 0.0020446044, 0.00023461986, -25220.12, -25220.12, 0.0, 10.01344, 9.936351 
7.287647e+3, 3.136095e+2, -24936.793, -81613.14, -788.5837, 0.002051195, 0.0000018401851, -24925.824, -24925.824, 0.0, 10.012782, 9.938131 
7.297643e+3, 1.249478e+2, -1681801.1, -1723695.8, -1098.7102, 0.0019130624, -0.0010405901, -1681772.4, 33740.105, 0.0, 10.032742, 9.9771385 
7.297649e+3, 1.3492732e+2, -1586943.8, -1629900.6, -1473.1532, 0.0024463779, 0.0035876534, -1586893.4, 30819.822, 0.0, 10.03199, 9.975 
7.2976524e+3, 1.4489162e+2, -1499135.3, -1549278.3, -2926.9966, 0.0016918811, -0.002928533, -1498964.9, 21098.025, 0.0, 10.031143, 9.9646845 
7.2976553e+3, 1.548588e+2, -1403023.4, -1452858.6, -3145.336, 0.0020430293, -0.0000051007746, -1402825.6, 19558.89, 0.0, 10.030205, 9.964168 
7.2976565e+3, 1.6481847e+2, -1315509.5, -1372726.4, -4420.8657, 0.0021689546, 0.0011865535, -1315169.9, 9609.926, 0.0, 10.029181, 9.953495 
7.297656e+3, 1.7477117e+2, -1219413.9, -1276104.1, -4588.237, 0.0020525225, 0.00004459573, -1219045.0, 8198.141, 0.0, 10.028071, 9.953099 
7.297654e+3, 1.8471849e+2, -1132111.3, -1196402.6, -5421.0293, 0.0020088628, -0.00019276862, -1131657.4, -1897.777, 0.0, 10.026908, 9.942044 
7.2976524e+3, 1.9466086e+2, -1035970.1, -1099596.1, -5546.2197, 0.0020469595, 0.00002008308, -1035490.3, -3166.032, 0.0, 10.025688, 9.941721 
7.29765e+3, 2.0459718e+2, -948540.25, -1019821.1, -5947.4634, 0.0020622946, 0.00027238266, -948047.44, -13099.084, 0.0, 10.024446, 9.930545 
7.297647e+3, 2.145277e+2, -852295.6, -922862.9, -6022.93, 0.0020517628, -0.00004197335, -851785.25, -14156.007, 0.0, 10.023178, 9.930239 
7.297644e+3, 2.2445235e+2, -764779.44, -843235.56, -5985.635, 0.0020468654, 0.0001583317, -764325.4, -23957.748, 0.0, 10.021914, 9.918777 
7.297641e+3, 2.3437126e+2, -668337.44, -746061.94, -6009.1724, 0.0020494694, -0.000011430446, -667875.56, -24713.43, 0.0, 10.020652, 9.9185 
7.297639e+3, 2.4428394e+2, -580778.0, -666810.9, -5540.6514, 0.0020506014, 0.00016588448, -580422.7, -34404.813, 0.0, 10.019421, 9.906577 
7.2976375e+3, 2.541907e+2, -483868.16, -569021.75, -5495.969, 0.002049696, -0.00003641506, -483514.88, -34583.3, 0.0, 10.018226, 9.906555 
7.2976375e+3, 2.6409104e+2, -396349.0, -490462.16, -4628.5654, 0.002051274, 0.00020241847, -396121.9, -44213.652, 0.0, 10.017083, 9.8938875 
7.297638e+3, 2.739856e+2, -298687.44, -391581.4, -4506.5493, 0.0020539174, -0.00013475904, -298469.3, -43527.625, 0.0, 10.0160055, 9.894411 
7.2976404e+3, 2.8387213e+2, -213381.9, -318345.5, -3236.234, 0.0020520443, 0.0002982797, -213282.22, -55228.645, 0.0, 10.015004, 9.877964 
7.297645e+3, 2.9375118e+2, -115041.37, -218678.88, -3029.4946, 0.0020439785, -0.0001963279, -114952.88, -53714.05, 0.0, 10.014107, 9.878794 
7.297651e+3, 3.0365908e+2, -25146.38, -83258.414, -1311.1472, 0.002047147, 0.00022650744, -25116.813, -25116.813, 0.0, 10.013302, 9.936771 
7.2976595e+3, 3.1359804e+2, -24842.146, -81066.734, -966.53827, 0.0020620294, 0.0000019533675, -24825.537, -24825.537, 0.0, 10.012633, 9.938573 
7.307676e+3, 1.24939494e+2, -1678667.4, -1722521.5, -970.53815, 0.0018931061, -0.0012372081, -1678645.9, 36947.906, 0.0, 10.034917, 9.976699 
7.3076814e+3, 1.349187e+2, -1584431.0, -1629519.0, -1391.9987, 0.0025386116, 0.00403399, -1584388.0, 33409.504, 0.0, 10.0339985, 9.974172 
7.307684e+3, 1.4488164e+2, -1496705.8, -1548653.8, -2938.16, 0.001629249, -0.0033143135, -1496540.0, 23620.764, 0.0, 10.0329685, 9.964108 
7.307686e+3, 1.5484855e+2, -1400913.4, -1452405.1, -3172.4155, 0.0020472284, -0.000017252036, -1400718.6, 21766.408, 0.0, 10.031835, 9.963595 
7.307686e+3, 1.6480781e+2, -1313612.0, -1372232.0, -4525.133, 0.0021977513, 0.0013130021, -1313264.8, 11619.482, 0.0, 10.030609, 9.953058 
7.3076844e+3, 1.7476e+2, -1217850.5, -1275786.8, -4704.24, 0.0020594255, 0.000048749087, -1217471.0, 9881.666, 0.0, 10.029292, 9.952665 
7.307682e+3, 1.8470688e+2, -1130789.5, -1196082.3, -5586.523, 0.002007778, -0.00023622457, -1130315.0, -441.73706, 0.0, 10.027918, 9.941726 
7.3076785e+3, 1.9464897e+2, -1034986.6, -1099452.4, -5717.7236, 0.0020538047, 0.000015914464, -1034483.44, -2042.6959, 0.0, 10.026484, 9.941404 
7.307674e+3, 2.0458505e+2, -947796.3, -1019655.2, -6142.7935, 0.0020718698, 0.00028465065, -947275.0, -12207.819, 0.0, 10.0250225, 9.930358 
7.30767e+3, 2.1451539e+2, -851898.3, -922873.06, -6223.359, 0.002057907, -0.000040339943, -851356.75, -13606.808, 0.0, 10.023531, 9.930055 
7.307666e+3, 2.2443989e+2, -764623.25, -843224.75, -6183.2085, 0.002051533, 0.0001541345, -764139.8, -23650.217, 0.0, 10.022046, 9.918719 
7.307662e+3, 2.3435876e+2, -668509.0, -746212.6, -6204.5806, 0.002054923, -0.000015035865, -668016.7, -24732.055, 0.0, 10.020567, 9.918447 
7.307658e+3, 2.4427146e+2, -581187.2, -666939.7, -5710.098, 0.0020572406, 0.00016407474, -580808.6, -34668.355, 0.0, 10.019117, 9.906647 
7.307656e+3, 2.541783e+2, -484606.25, -569307.4, -5662.337, 0.002057366, -0.000035381065, -484229.38, -35176.145, 0.0, 10.0177, 9.906631 
7.307654e+3, 2.6407877e+2, -397315.1, -490721.84, -4742.7676, 0.0020582774, 0.00020336205, -397074.88, -45046.26, 0.0, 10.016344, 9.894083 
7.307654e+3, 2.7397352e+2, -299942.56, -391972.0, -4608.443, 0.0020571044, -0.00013736596, -299712.38, -44652.3, 0.0, 10.015065, 9.894616 
7.3076546e+3, 2.838603e+2, -214876.17, -318758.56, -3264.2505, 0.0020558026, 0.00029438155, -214773.7, -56604.1, 0.0, 10.013861, 9.878248 
7.307658e+3, 2.9373965e+2, -116827.875, -219222.64, -3039.6748, 0.0020545325, -0.00019628942, -116737.72, -55385.754, 0.0, 10.012757, 9.8790865 
7.3076636e+3, 3.0364788e+2, -27085.037, -83696.086, -1222.1719, 0.0020579256, 0.00022702174, -27058.664, -27058.664, 0.0, 10.011762, 9.937218 
7.3076713e+3, 3.1358728e+2, -27008.418, -81589.95, -851.56494, 0.0020620797, -0.0000010396727, -26995.137, -26995.137, 0.0, 10.010927, 9.939041 
7.317712e+3, 1.2493177e+2, -1678897.9, -1723156.4, -1217.0723, 0.0018656441, -0.00133233, -1678864.4, 36805.12, 0.0, 10.035011, 9.97626 
7.317716e+3, 1.3491054e+2, -1585028.3, -1630836.0, -1665.2021, 0.0026351726, 0.004451728, -1584967.8, 32909.785, 0.0, 10.034087, 9.973312 
7.317717e+3, 1.4487211e+2, -1497088.0, -1549551.3, -3291.8616, 0.0015661897, -0.003672511, -1496882.3, 23371.809, 0.0, 10.033049, 9.963512 
7.3177177e+3, 1.548387e+2, -1401307.5, -1453301.8, -3525.5127, 0.002050942, -0.000030844258, -1401069.6, 21511.865, 0.0, 10.031902, 9.963003 
7.317717e+3, 1.6479756e+2, -1313903.4, -1372909.3, -4945.958, 0.0022260286, 0.0014293373, -1313491.6, 11492.994, 0.0, 10.030664, 9.952609 
7.317714e+3, 1.7474921e+2, -1218156.6, -1276467.0, -5125.5444, 0.0020658057, 0.00005338309, -1217709.6, 9748.898, 0.0, 10.029334, 9.952218 
7.31771e+3, 1.8469566e+2, -1131014.8, -1196579.4, -6051.7285, 0.002006497, -0.00027552337, -1130460.9, -477.7397, 0.0, 10.0279455, 9.9414 
7.317705e+3, 1.9463746e+2, -1035230.75, -1099955.1, -6183.4, 0.0020614683, 0.000011060583, -1034645.3, -2091.8057, 0.0, 10.026496, 9.941081 
7.3177e+3, 2.0457329e+2, -947954.75, -1019962.44, -6630.0483, 0.0020818177, 0.00029557192, -947349.4, -12167.024, 0.0, 10.025022, 9.930164 
7.317694e+3, 2.1450342e+2, -852071.2, -923182.75, -6710.6665, 0.0020623358, -0.000037615395, -851443.5, -13576.405, 0.0, 10.023518, 9.929865 
7.317688e+3, 2.244278e+2, -764710.94, -843336.0, -6666.63, 0.0020541977, 0.00015157521, -764149.7, -23541.652, 0.0, 10.022018, 9.918663 
7.317682e+3, 2.3434663e+2, -668615.56, -746327.2, -6687.67, 0.0020608688, -0.000019105528, -668044.25, -24640.709, 0.0, 10.020524, 9.918395 
7.317677e+3, 2.4425934e+2, -581219.06, -666872.8, -6171.1016, 0.0020644283, 0.00016145641, -580776.75, -34517.656, 0.0, 10.01906, 9.90672 
7.3176736e+3, 2.5416625e+2, -484651.16, -569238.94, -6122.13, 0.0020637882, -0.000032654287, -484210.38, -35039.117, 0.0, 10.017632, 9.906712 
7.3176706e+3, 2.6406687e+2, -397285.56, -490469.75, -5154.0845, 0.0020628027, 0.00020641068, -397001.34, -44856.08, 0.0, 10.016262, 9.894289 
7.317669e+3, 2.739618e+2, -299930.38, -391717.13, -5016.2197, 0.0020587, -0.00014185166, -299657.06, -44482.39, 0.0, 10.014967, 9.894833 
7.317669e+3, 2.8384885e+2, -214825.53, -318387.28, -3610.9854, 0.0020593277, 0.00028909382, -214699.77, -56418.082, 0.0, 10.013747, 9.878549 
7.317671e+3, 2.9372853e+2, -116793.414, -218850.58, -3380.0012, 0.0020673578, -0.00019422454, -116681.59, -55220.617, 0.0, 10.0126295, 9.8793955 
7.3176754e+3, 3.0363715e+2, -26963.824, -83108.7, -1469.6573, 0.0020700751, 0.00023185517, -26925.38, -26925.38, 0.0, 10.011619, 9.937684 
7.3176825e+3, 3.1357703e+2, -26896.93, -80982.6, -1086.4889, 0.002057315, -0.0000050231633, -26875.113, -26875.113, 0.0, 10.010767, 9.939529 
7.3277473e+3, 1.2492499e+2, -1675451.6, -1721862.1, -1020.41504, 0.0018449527, -0.0015002995, -1675429.3, 40306.79, 0.0, 10.037404, 9.97578 
7.3277515e+3, 1.3490328e+2, -1582243.0, -1630381.4, -1522.1515, 0.002727481, 0.0047962563, -1582194.9, 35753.83, 0.0, 10.036299, 9.972422 
7.3277515e+3, 1.4486358e+2, -1494392.1, -1548824.5, -3255.5735, 0.0014964823, -0.0039680502, -1494198.1, 26139.633, 0.0, 10.03506, 9.962901 
7.327751e+3, 1.548298e+2, -1398970.0, -1452765.8, -3503.9968, 0.0020565987, -0.000039641374, -1398742.8, 23926.02, 0.0, 10.033693, 9.962398 
7.3277485e+3, 1.647882e+2, -1311810.4, -1372343.0, -5004.373, 0.0022591, 0.0015277676, -1311399.5, 13676.888, 0.0, 10.03223, 9.952146 
7.327744e+3, 1.7473932e+2, -1216432.0, -1276095.9, -5195.7354, 0.0020730833, 0.000055785407, -1215983.0, 11572.458, 0.0, 10.030671, 9.951758 
7.3277384e+3, 1.8468535e+2, -1129561.1, -1196207.9, -6176.301, 0.0020037806, -0.00031045434, -1128993.6, 1090.6052, 0.0, 10.029047, 9.941067 
7.327732e+3, 1.9462685e+2, -1034158.5, -1099782.6, -6315.4014, 0.0020669452, 0.000008826688, -1033556.3, -898.65717, 0.0, 10.027356, 9.94075 
7.327725e+3, 2.0456241e+2, -947148.94, -1019772.8, -6784.7876, 0.0020905994, 0.00030609124, -946520.5, -11231.52, 0.0, 10.025641, 9.92997 
7.3277175e+3, 2.1449234e+2, -851633.0, -923179.75, -6868.2114, 0.0020684774, -0.000038187314, -850979.6, -13003.972, 0.0, 10.023899, 9.929674 
7.32771e+3, 2.2441661e+2, -764537.44, -843311.5, -6822.4746, 0.0020597992, 0.00014666685, -763950.94, -23233.072, 0.0, 10.02216, 9.91861 
7.3277026e+3, 2.343354e+2, -668815.3, -746486.75, -6842.6245, 0.0020682705, -0.000019482555, -668217.06, -24703.277, 0.0, 10.020418, 9.918347 
7.327696e+3, 2.4424809e+2, -581684.56, -667017.4, -6295.865, 0.0020717166, 0.00016238369, -581222.56, -34853.367, 0.0, 10.018714, 9.9068 
7.327691e+3, 2.541551e+2, -485462.16, -569548.0, -6240.8423, 0.0020676232, -0.000035203226, -485001.5, -35720.953, 0.0, 10.017052, 9.906799 
7.327686e+3, 2.6405585e+2, -398347.84, -490751.84, -5218.379, 0.002066805, 0.00020317886, -398054.06, -45800.945, 0.0, 10.015448, 9.894507 
7.327683e+3, 2.7395105e+2, -301332.66, -392154.25, -5069.6904, 0.0020670632, -0.00014132645, -301050.53, -45770.28, 0.0, 10.013917, 9.895061 
7.327682e+3, 2.8383836e+2, -216495.27, -318846.72, -3586.6692, 0.0020682064, 0.0002900596, -216369.73, -57985.11, 0.0, 10.012469, 9.878869 
7.3276824e+3, 2.937183e+2, -118769.234, -219445.63, -3337.1492, 0.0020704507, -0.00019590446, -118658.74, -57098.016, 0.0, 10.011134, 9.8797245 
7.327686e+3, 3.0362737e+2, -29118.53, -83604.695, -1322.7831, 0.0020721725, 0.00022938996, -29086.436, -29086.436, 0.0, 10.009912, 9.938171 
7.3276925e+3, 3.1356776e+2, -29337.465, -81591.555, -914.8501, 0.0020662695, -0.0000030062831, -29321.453, -29321.453, 0.0, 10.008853, 9.94004 
7.3377854e+3, 1.24918945e+2, -1675730.6, -1722605.1, -1325.0865, 0.0018246314, -0.001562547, -1675693.1, 40102.082, 0.0, 10.037506, 9.975269 
7.337788e+3, 1.348966e+2, -1582873.1, -1631787.3, -1853.2249, 0.0028190473, 0.005104777, -1582803.0, 35210.992, 0.0, 10.036401, 9.971501 
7.337786e+3, 1.4485568e+2, -1494782.1, -1549764.5, -3682.2483, 0.0014239436, -0.0042318776, -1494536.6, 25878.521, 0.0, 10.035152, 9.962272 
7.337785e+3, 1.5482147e+2, -1399377.4, -1453707.0, -3930.7893, 0.002062922, -0.00004644831, -1399094.4, 23655.834, 0.0, 10.03377, 9.961773 
7.3377806e+3, 1.6477942e+2, -1312115.3, -1373058.3, -5502.7866, 0.0022939164, 0.0016176264, -1311622.4, 13540.142, 0.0, 10.03229, 9.951669 
7.3377746e+3, 1.7472997e+2, -1216756.0, -1276816.5, -5694.7056, 0.0020807676, 0.00005765705, -1216220.9, 11426.054, 0.0, 10.030715, 9.951284 
7.3377675e+3, 1.8467559e+2, -1129796.1, -1196729.3, -6724.316, 0.0020003251, -0.0003420901, -1129127.3, 1052.7983, 0.0, 10.029078, 9.940724 
7.337759e+3, 1.9461675e+2, -1034408.6, -1100307.5, -6863.777, 0.0020711748, 0.000007630629, -1033701.3, -944.8205, 0.0, 10.027373, 9.940411 
7.33775e+3, 2.0455207e+2, -947305.4, -1020084.3, -7352.75, 0.0020982474, 0.00031675582, -946570.0, -11179.576, 0.0, 10.025643, 9.929772 
7.337741e+3, 2.144818e+2, -851811.7, -923497.56, -7436.072, 0.0020746128, -0.000039841972, -851048.5, -12969.417, 0.0, 10.023884, 9.929481 
7.337732e+3, 2.2440593e+2, -764627.0, -843419.8, -7390.728, 0.0020654083, 0.00014127382, -763939.75, -23117.21, 0.0, 10.022128, 9.918557 
7.3377234e+3, 2.3432466e+2, -668918.7, -746595.44, -7411.305, 0.002075105, -0.000017869315, -668217.9, -24598.98, 0.0, 10.020375, 9.9183 
7.337715e+3, 2.442374e+2, -581705.3, -666928.8, -6837.335, 0.0020773762, 0.00016516577, -581160.25, -34686.117, 0.0, 10.018657, 9.906888 
7.337707e+3, 2.541445e+2, -485500.97, -569459.8, -6780.5684, 0.0020697939, -0.000038875703, -484956.88, -35572.305, 0.0, 10.016979, 9.906894 
7.337702e+3, 2.640454e+2, -398309.4, -490470.56, -5711.561, 0.0020694998, 0.0001988402, -397956.78, -45601.168, 0.0, 10.01536, 9.894735 
7.337697e+3, 2.7394083e+2, -301309.22, -391868.47, -5559.8022, 0.0020767278, -0.00013889626, -300969.16, -45588.78, 0.0, 10.013815, 9.8953 
7.337694e+3, 2.8382844e+2, -216423.03, -318423.6, -4008.8955, 0.0020777406, 0.00029453944, -216265.72, -57783.766, 0.0, 10.012352, 9.879206 
7.3376936e+3, 2.9370874e+2, -118714.5, -219020.88, -3752.0144, 0.0020690353, -0.0001989109, -118574.35, -56919.63, 0.0, 10.011003, 9.880071 
7.337696e+3, 3.036182e+2, -28978.395, -82962.695, -1641.7609, 0.0020694148, 0.00022603835, -28928.512, -28928.512, 0.0, 10.009762, 9.938678 
7.3377013e+3, 3.1355911e+2, -29211.465, -80931.53, -1220.1926, 0.002078447, 0.0000008831143, -29182.693, -29182.693, 0.0, 10.008683, 9.940568 
7.347824e+3, 1.2491405e+2, -1671974.9, -1721227.4, -1066.0184, 0.0018023228, -0.0016821321, -1671951.9, 43891.38, 0.0, 10.040131, 9.974717 
7.347825e+3, 1.348911e+2, -1579750.1, -1631176.0, -1634.3308, 0.002910981, 0.0053389925, -1579698.1, 38369.977, 0.0, 10.038835, 9.970589 
7.347822e+3, 1.4484902e+2, -1491793.0, -1548922.3, -3587.0396, 0.0013576099, -0.0044344417, -1491568.8, 28911.65, 0.0, 10.037367, 9.961626 
7.347819e+3, 1.5481433e+2, -1396797.1, -1453083.0, -3852.1448, 0.0020662656, -0.000055048844, -1396534.8, 26285.475, 0.0, 10.035732, 9.961132 
7.347814e+3, 1.6477177e+2, -1309819.5, -1372415.4, -5506.5825, 0.0023241106, 0.0016836482, -1309338.8, 15898.679, 0.0, 10.0339985, 9.9511795 
7.347806e+3, 1.7472179e+2, -1214872.6, -1276392.1, -5710.1094, 0.0020896813, 0.000060093178, -1214347.1, 13379.956, 0.0, 10.0321665, 9.950798 
7.347797e+3, 1.8466695e+2, -1128207.3, -1196303.3, -6793.2324, 0.0019999207, -0.00036515758, -1127536.1, 2728.3716, 0.0, 10.030272, 9.940376 
7.347787e+3, 1.9460781e+2, -1033222.7, -1100091.9, -6938.967, 0.0020755047, 0.0000063238476, -1032510.25, 333.96222, 0.0, 10.028313, 9.940066 
7.347776e+3, 2.0454285e+2, -946412.56, -1019853.1, -7454.3125, 0.002105551, 0.00032349376, -945663.6, -10182.859, 0.0, 10.0263195, 9.929575 
7.347765e+3, 2.1447237e+2, -851338.25, -923479.7, -7539.79, 0.0020824592, -0.00004166674, -850558.7, -12387.33, 0.0, 10.02429, 9.929288 
7.347754e+3, 2.2439638e+2, -764451.5, -843392.8, -7488.704, 0.0020723958, 0.00013642317, -763747.4, -22831.33, 0.0, 10.022269, 9.918505 
7.3477435e+3, 2.3431507e+2, -669134.25, -746761.5, -7508.9277, 0.002079127, -0.00001833546, -668414.56, -24701.707, 0.0, 10.020258, 9.918253 
7.3477334e+3, 2.4422783e+2, -582205.5, -667072.56, -6905.187, 0.0020816668, 0.000166777, -581647.4, -35079.47, 0.0, 10.018279, 9.906984 
7.347724e+3, 2.54135e+2, -486392.16, -569789.94, -6841.3438, 0.0020776296, -0.0000388831, -485834.66, -36357.344, 0.0, 10.016336, 9.906999 
7.347716e+3, 2.640361e+2, -399486.34, -490785.47, -5714.4097, 0.0020780233, 0.00019735549, -399130.06, -46683.33, 0.0, 10.014459, 9.894975 
7.347711e+3, 2.7393177e+2, -302852.2, -392350.84, -5551.7085, 0.0020809432, -0.00014119642, -302509.13, -47040.08, 0.0, 10.01266, 9.895549 
7.347706e+3, 2.8381968e+2, -218253.02, -318918.9, -3917.598, 0.002080858, 0.00029212714, -218100.8, -59533.086, 0.0, 10.010948, 9.879563 
7.347704e+3, 2.9370037e+2, -120887.71, -219667.75, -3640.7473, 0.0020753935, -0.00019837456, -120753.71, -59016.863, 0.0, 10.009355, 9.880439 
7.347705e+3, 3.0361027e+2, -31366.893, -83521.89, -1425.1705, 0.0020768337, 0.00022620149, -31327.977, -31327.977, 0.0, 10.007874, 9.93921 
7.3477083e+3, 3.1355172e+2, -31931.576, -81625.11, -977.3361, 0.0020830156, -0.0000022424329, -31912.361, -31912.361, 0.0, 10.006557, 9.941123 
7.357864e+3, 1.2491004e+2, -1672301.9, -1722097.0, -1429.45, 0.001785823, -0.0017022301, -1672260.9, 43621.535, 0.0, 10.04025, 9.97412 
7.3578644e+3, 1.3488634e+2, -1580370.1, -1632581.6, -2023.7952, 0.0030028597, 0.0055349674, -1580291.8, 37822.94, 0.0, 10.038944, 9.969665 
7.3578596e+3, 1.4484319e+2, -1492205.1, -1549916.5, -4098.8203, 0.0012939463, -0.004603601, -1491915.5, 28622.055, 0.0, 10.037464, 9.96096 
7.357855e+3, 1.5480797e+2, -1397222.5, -1454075.6, -4363.3965, 0.0020689885, -0.000063536645, -1396889.6, 25993.096, 0.0, 10.035815, 9.960472 
7.3578477e+3, 1.6476487e+2, -1310132.5, -1373165.9, -6091.0815, 0.0023525949, 0.0017387604, -1309549.4, 15755.757, 0.0, 10.034066, 9.950677 
7.357838e+3, 1.7471436e+2, -1215205.6, -1277147.9, -6295.2827, 0.002098737, 0.00006300652, -1214572.3, 13227.7705, 0.0, 10.032218, 9.950298 
7.3578274e+3, 1.8465906e+2, -1128445.3, -1196840.9, -7426.365, 0.00200009, -0.00038312882, -1127648.1, 2693.707, 0.0, 10.030306, 9.940022 
7.3578155e+3, 1.9459958e+2, -1033485.75, -1100637.6, -7572.3594, 0.0020797371, 0.0000050784042, -1032642.44, 282.41846, 0.0, 10.028327, 9.939714 
7.357803e+3, 2.0453435e+2, -946575.6, -1020171.2, -8114.6475, 0.0021122561, 0.0003291282, -945691.5, -10127.498, 0.0, 10.026319, 9.929375 
7.357789e+3, 2.1446367e+2, -851514.4, -923798.7, -8200.831, 0.0020898948, -0.00004305829, -850595.6, -12339.027, 0.0, 10.024277, 9.929092 
7.357777e+3, 2.2438756e+2, -764534.6, -843496.7, -8144.412, 0.002078303, 0.00013259951, -763703.3, -22700.744, 0.0, 10.022242, 9.918453 
7.3577636e+3, 2.343062e+2, -669238.56, -746869.6, -8164.0283, 0.0020813316, -0.00001887067, -668389.25, -24589.475, 0.0, 10.020213, 9.918207 
7.357752e+3, 2.4421898e+2, -582218.94, -666961.1, -7536.331, 0.0020840564, 0.0001683001, -581553.94, -34899.38, 0.0, 10.018218, 9.907088 
7.357741e+3, 2.5412628e+2, -486421.94, -569677.0, -7472.2554, 0.0020863565, -0.00003684803, -485756.6, -36193.715, 0.0, 10.016261, 9.907111 
7.357731e+3, 2.6402754e+2, -399435.03, -490472.8, -6295.395, 0.002086943, 0.00019821867, -399001.75, -46471.168, 0.0, 10.014368, 9.895225 
7.3577225e+3, 2.739235e+2, -302814.72, -392033.1, -6129.092, 0.0020821698, -0.0001445792, -302395.63, -46845.26, 0.0, 10.012555, 9.89581 
7.3577166e+3, 2.838117e+2, -218156.44, -318439.03, -4424.111, 0.002080599, 0.00028895042, -217961.64, -59315.676, 0.0, 10.010828, 9.879938 
7.3577136e+3, 2.9369277e+2, -120814.42, -219187.25, -4139.771, 0.00208329, -0.0001967568, -120640.52, -58829.242, 0.0, 10.009214, 9.880825 
7.3577124e+3, 3.036031e+2, -31206.377, -82818.125, -1827.7648, 0.002086296, 0.00022956343, -31141.73, -31141.73, 0.0, 10.007716, 9.939761 
7.3577154e+3, 3.1354517e+2, -31777.521, -80899.13, -1367.1731, 0.0020828901, -0.0000073330025, -31739.5, -31739.5, 0.0, 10.006385, 9.941698 
7.367906e+3, 1.2490744e+2, -1668223.3, -1720681.9, -1097.6426, 0.0017578286, -0.0017916268, -1668200.3, 47707.67, 0.0, 10.0431385, 9.97345 
7.367905e+3, 1.3488302e+2, -1576887.4, -1631770.0, -1724.4116, 0.0030848174, 0.0056587984, -1576833.3, 41314.2, 0.0, 10.041599, 9.968758 
7.367898e+3, 1.4483887e+2, -1488934.1, -1548954.6, -3936.0496, 0.0012395406, -0.004704065, -1488677.1, 31902.652, 0.0, 10.039869, 9.960288 
7.367892e+3, 1.5480307e+2, -1394388.6, -1453349.6, -4214.312, 0.002075565, -0.000068955225, -1394088.9, 28841.828, 0.0, 10.037952, 9.959803 
7.367883e+3, 1.647594e+2, -1307611.0, -1372432.3, -6026.679, 0.0023802414, 0.0017713901, -1307055.4, 18303.242, 0.0, 10.03593, 9.950163 
7.367871e+3, 1.7470834e+2, -1213132.8, -1276652.9, -6241.928, 0.002102438, 0.000065083485, -1212525.1, 15333.749, 0.0, 10.033802, 9.949787 
7.367858e+3, 1.8465261e+2, -1126701.4, -1196346.4, -7429.4424, 0.001996843, -0.00039483298, -1125917.6, 4487.36, 0.0, 10.031604, 9.939664 
7.367844e+3, 1.9459277e+2, -1032203.0, -1100383.6, -7580.6865, 0.0020891656, 0.0000025117183, -1031370.3, 1621.1176, 0.0, 10.029333, 9.93936 
7.3678297e+3, 2.0452727e+2, -945616.25, -1019910.2, -8144.4927, 0.0021247254, 0.00033159208, -944733.9, -9100.528, 0.0, 10.02704, 9.929173 
7.367814e+3, 2.1445641e+2, -850983.1, -923755.56, -8233.037, 0.0020936357, -0.000040641567, -850063.3, -11735.42, 0.0, 10.02472, 9.928895 
7.3677987e+3, 2.2438015e+2, -764320.3, -843441.56, -8173.226, 0.002079834, 0.0001333191, -763484.8, -22409.754, 0.0, 10.022402, 9.918408 
7.367784e+3, 2.3429877e+2, -669466.4, -747033.4, -8189.9165, 0.0020881356, -0.000021449263, -668611.06, -24738.361, 0.0, 10.020082, 9.918168 
7.3677695e+3, 2.4421157e+2, -582770.4, -667117.94, -7529.6836, 0.0020928932, 0.0001650981, -582103.44, -35376.297, 0.0, 10.017799, 9.907196 
7.3677564e+3, 2.54119e+2, -487393.97, -570034.94, -7460.7783, 0.002091849, -0.00003781822, -486725.8, -37091.48, 0.0, 10.015558, 9.907227 
7.3677444e+3, 2.6402044e+2, -400713.6, -490811.25, -6222.539, 0.002091249, 0.0001988733, -400285.88, -47685.656, 0.0, 10.013386, 9.895488 
7.367735e+3, 2.7391666e+2, -304489.53, -392552.7, -6043.7666, 0.00208727, -0.00014292692, -304076.7, -48459.35, 0.0, 10.011299, 9.896084 
7.367727e+3, 2.8380516e+2, -220147.4, -318968.53, -4255.8203, 0.0020867423, 0.00028914987, -219964.47, -61254.766, 0.0, 10.009296, 9.880336 
7.367722e+3, 2.936867e+2, -123200.836, -219891.88, -3951.7202, 0.0020901347, -0.00019973429, -123039.6, -61168.563, 0.0, 10.007403, 9.881234 
7.3677194e+3, 3.035975e+2, -33846.98, -83454.16, -1527.6566, 0.0020922904, 0.00022625261, -33799.98, -33799.98, 0.0, 10.005637, 9.940333 
7.36772e+3, 3.1354013e+2, -34767.645, -81678.625, -1042.7174, 0.0020850934, -0.0000030302742, -34744.477, -34744.477, 0.0, 10.004057, 9.942292 
7.377949e+3, 1.2490593e+2, -1668654.3, -1721772.3, -1543.118, 0.0017485956, -0.0017806246, -1668609.4, 47313.285, 0.0, 10.043269, 9.972712 
7.3779464e+3, 1.3488065e+2, -1577467.4, -1633137.5, -2186.482, 0.003161901, 0.0057432973, -1577381.6, 40788.9, 0.0, 10.041725, 9.967848 
7.3779386e+3, 1.4483559e+2, -1489342.3, -1549976.3, -4533.6655, 0.0011893366, -0.00476773, -1489005.1, 31606.84, 0.0, 10.039982, 9.959597 
7.3779297e+3, 1.5479915e+2, -1394822.4, -1454375.6, -4812.845, 0.0020836708, -0.00007222057, -1394436.0, 28533.123, 0.0, 10.038043, 9.959118 
7.377919e+3, 1.647549e+2, -1307940.5, -1373220.5, -6703.451, 0.0024072437, 0.0017937616, -1307259.3, 18143.48, 0.0, 10.036, 9.9496355 
7.3779047e+3, 1.7470331e+2, -1213484.9, -1277447.1, -6918.9595, 0.0021047506, 0.0000670665, -1212745.0, 15163.334, 0.0, 10.033854, 9.949264 
7.3778903e+3, 1.8464713e+2, -1126944.6, -1196898.5, -8159.7866, 0.0019924091, -0.00040204293, -1126005.5, 4453.446, 0.0, 10.031639, 9.9393 
7.3778737e+3, 1.9458692e+2, -1032464.0, -1100940.4, -8311.918, 0.0020994165, 0.000000030898285, -1031469.5, 1579.3351, 0.0, 10.029353, 9.938998 
7.3778564e+3, 2.0452113e+2, -945773.75, -1020230.0, -8895.464, 0.0021377692, 0.0003334621, -944725.75, -9032.294, 0.0, 10.027042, 9.92897 
7.377839e+3, 2.1445008e+2, -851166.06, -924083.3, -8984.548, 0.0020955314, -0.000036774152, -850075.3, -11685.384, 0.0, 10.024704, 9.928695 
7.377821e+3, 2.243737e+2, -764403.6, -843534.8, -8926.81, 0.002078875, 0.00013618784, -763409.06, -22270.738, 0.0, 10.022368, 9.918366 
7.377804e+3, 2.3429227e+2, -669565.44, -747127.6, -8944.179, 0.0020955305, -0.000023614093, -668547.4, -24611.033, 0.0, 10.020035, 9.918133 
7.377788e+3, 2.442051e+2, -582775.44, -666991.4, -8257.004, 0.0021020195, 0.00016121364, -581973.5, -35183.023, 0.0, 10.017738, 9.90731 
7.377772e+3, 2.5411266e+2, -487414.13, -569906.75, -8187.269, 0.0020949612, -0.00003887359, -486609.4, -36912.934, 0.0, 10.015484, 9.907349 
7.377758e+3, 2.6401427e+2, -400643.66, -490461.34, -6896.0503, 0.0020922269, 0.00020057666, -400117.28, -47456.832, 0.0, 10.013295, 9.8957615 
7.377746e+3, 2.739108e+2, -304440.16, -392199.84, -6714.671, 0.0020926984, -0.0001391144, -303929.38, -48254.652, 0.0, 10.011189, 9.89637 
7.3777366e+3, 2.8379965e+2, -220029.67, -318432.38, -4860.1284, 0.0020938904, 0.00029233552, -219790.22, -61026.508, 0.0, 10.00917, 9.88075 
7.377729e+3, 2.936816e+2, -123097.52, -219349.33, -4549.409, 0.0020948704, -0.00020378499, -122882.97, -60962.06, 0.0, 10.007263, 9.881662 
7.3777246e+3, 3.0359292e+2, -33659.586, -82694.34, -2017.5365, 0.0020950437, 0.00022352854, -33576.715, -33576.715, 0.0, 10.005479, 9.940924 
7.377724e+3, 3.1353617e+2, -34601.832, -80905.195, -1517.471, 0.0020863214, 0.000004459864, -34552.156, -34552.156, 0.0, 10.003873, 9.942904 
7.387994e+3, 1.24906115e+2, -1664285.6, -1720374.0, -1132.534, 0.0017242117, -0.0018339659, -1664262.8, 51658.168, 0.0, 10.046419, 9.971891 
7.38799e+3, 1.3488e+2, -1573548.9, -1632041.9, -1786.0773, 0.0032214003, 0.0057479623, -1573494.5, 44682.305, 0.0, 10.044629, 9.966985 
7.3879796e+3, 1.4483416e+2, -1485739.9, -1548868.5, -4290.4966, 0.001147695, -0.0047755726, -1485449.6, 35176.297, 0.0, 10.042608, 9.958897 
7.3879695e+3, 1.5479703e+2, -1391727.9, -1453545.3, -4584.821, 0.0020875752, -0.000072861876, -1391389.6, 31600.227, 0.0, 10.0403595, 9.958419 
7.387956e+3, 1.6475217e+2, -1305203.1, -1372392.4, -6558.1895, 0.0024298169, 0.001796625, -1304569.0, 20860.602, 0.0, 10.038008, 9.949103 
7.3879397e+3, 1.7470002e+2, -1211238.3, -1276880.8, -6781.4214, 0.0021155141, 0.00006665761, -1210545.0, 17395.307, 0.0, 10.035556, 9.948734 
7.3879224e+3, 1.846434e+2, -1125048.9, -1196335.4, -8075.9644, 0.0019958068, -0.00040417668, -1124145.4, 6350.0044, 0.0, 10.033037, 9.9389305 
7.3879033e+3, 1.9458283e+2, -1031042.8, -1100625.1, -8232.665, 0.0021008165, 0.0000009271274, -1030082.0, 3006.822, 0.0, 10.030451, 9.938633 
7.3878837e+3, 2.0451677e+2, -944706.0, -1019915.8, -8840.223, 0.0021407001, 0.00033456454, -943680.9, -7944.5894, 0.0, 10.027832, 9.928765 
7.387864e+3, 2.144455e+2, -850588.8, -924019.75, -8930.664, 0.0021036193, -0.000038704045, -849518.3, -11083.538, 0.0, 10.025177, 9.928494 
7.387844e+3, 2.24369e+2, -764178.75, -843466.5, -8865.998, 0.002088672, 0.00013414491, -763199.5, -22015.102, 0.0, 10.022531, 9.918327 
7.3878235e+3, 2.3428753e+2, -669801.9, -747287.9, -8881.173, 0.0021019566, -0.000021753282, -668796.94, -24814.266, 0.0, 10.019893, 9.918099 
7.387805e+3, 2.4420042e+2, -583353.3, -667145.1, -8159.4395, 0.0021065646, 0.0001641313, -582566.1, -35729.75, 0.0, 10.017293, 9.907431 
7.387787e+3, 2.541081e+2, -488442.1, -570276.25, -8082.555, 0.0020983892, -0.000039332004, -487651.44, -37910.29, 0.0, 10.014735, 9.907478 
7.387771e+3, 2.6400992e+2, -402014.63, -490823.88, -6731.2764, 0.00209658, 0.00019828866, -401507.3, -48804.15, 0.0, 10.012241, 9.896044 
7.387756e+3, 2.739067e+2, -306262.25, -392770.63, -6540.179, 0.0020998302, -0.00014096314, -305770.6, -50056.004, 0.0, 10.009825, 9.896663 
7.387745e+3, 2.8379595e+2, -222193.05, -319001.88, -4597.835, 0.0021010747, 0.00029189218, -221975.17, -63175.105, 0.0, 10.007503, 9.8811865 
7.387735e+3, 2.936783e+2, -125670.43, -220098.11, -4266.832, 0.0020971647, -0.00019939718, -125478.016, -63525.176, 0.0, 10.005305, 9.882112 
7.387729e+3, 3.0359018e+2, -36524.324, -83391.17, -1625.8888, 0.0020968274, 0.00022672405, -36467.99, -36467.99, 0.0, 10.003226, 9.941537 
7.387727e+3, 3.1353405e+2, -37895.266, -81784.305, -1100.9933, 0.002094652, -0.000000020459188, -37867.664, -37867.664, 0.0, 10.001318, 9.943541 
7.39804e+3, 1.2490766e+2, -1664817.1, -1721705.6, -1665.3589, 0.0017449217, -0.0017343558, -1664768.4, 51137.445, 0.0, 10.046574, 9.970992 
7.3980343e+3, 1.3488059e+2, -1574064.6, -1633311.4, -2321.6096, 0.003272325, 0.00570858, -1573973.8, 44197.39, 0.0, 10.044765, 9.966129 
7.398022e+3, 1.44834e+2, -1486162.5, -1549929.8, -4989.8057, 0.0011120128, -0.0047476306, -1485774.4, 34853.09, 0.0, 10.0427265, 9.9581785 
7.3980093e+3, 1.5479612e+2, -1392174.4, -1454613.1, -5284.485, 0.0020906911, -0.00007143469, -1391730.4, 31268.373, 0.0, 10.040458, 9.957704 
7.397994e+3, 1.6475062e+2, -1305532.1, -1373197.6, -7333.437, 0.0024498112, 0.0017896178, -1304746.5, 20698.123, 0.0, 10.038085, 9.948562 
7.3979753e+3, 1.7469797e+2, -1211594.4, -1277694.9, -7557.6807, 0.0021286942, 0.000066008106, -1210741.3, 17219.395, 0.0, 10.035611, 9.948195 
7.397955e+3, 1.8464088e+2, -1125296.3, -1196900.1, -8903.151, 0.0020014746, -0.00040147605, -1124205.9, 6314.152, 0.0, 10.033073, 9.938558 
7.397934e+3, 1.9457994e+2, -1031315.25, -1101197.8, -9060.573, 0.002099172, 0.000003551193, -1030159.6, 2957.5664, 0.0, 10.030467, 9.938263 
7.3979115e+3, 2.0451358e+2, -944869.7, -1020241.44, -9695.2, 0.0021395434, 0.00033581426, -943642.56, -7875.092, 0.0, 10.027831, 9.92856 
7.397889e+3, 2.144421e+2, -850768.6, -924348.0, -9786.514, 0.0021127334, -0.00004186857, -849489.25, -11021.296, 0.0, 10.025163, 9.928293 
7.397866e+3, 2.2436549e+2, -764250.75, -843547.9, -9718.675, 0.002100187, 0.00013161472, -763077.0, -21858.248, 0.0, 10.022501, 9.918292 
7.3978436e+3, 2.3428401e+2, -669894.1, -747372.75, -9735.493, 0.0021069183, -0.000017629958, -668689.56, -24672.271, 0.0, 10.019847, 9.918069 
7.397822e+3, 2.4419695e+2, -583348.06, -666995.5, -8987.937, 0.0021077592, 0.00017001398, -582393.2, -35522.67, 0.0, 10.017229, 9.90756 
7.397802e+3, 2.5410476e+2, -488455.28, -570126.44, -8911.382, 0.0021010095, -0.000038313043, -487494.25, -37720.285, 0.0, 10.014656, 9.907616 
7.3977834e+3, 2.6400676e+2, -401935.72, -490449.63, -7511.6235, 0.0021005147, 0.00019623191, -401302.75, -48568.805, 0.0, 10.012147, 9.896336 
7.397767e+3, 2.7390388e+2, -306196.47, -392390.28, -7317.894, 0.0021060214, -0.00014382144, -305579.6, -49837.168, 0.0, 10.009717, 9.896966 
7.397752e+3, 2.8379348e+2, -222042.3, -318404.84, -5301.031, 0.0021064712, 0.0002921482, -221751.55, -62927.32, 0.0, 10.007379, 9.8816395 
7.3977405e+3, 2.9367632e+2, -125542.71, -219496.56, -4963.5073, 0.002097133, -0.00019214753, -125281.22, -63308.855, 0.0, 10.00516, 9.882581 
7.397732e+3, 3.0358872e+2, -36314.883, -82572.28, -2222.3635, 0.0020966486, 0.00023498033, -36208.36, -36208.36, 0.0, 10.003062, 9.94217 
7.397728e+3, 3.1353328e+2, -37699.707, -80948.69, -1684.4783, 0.0021026013, -0.00000765527, -37634.2, -37634.2, 0.0, 10.001134, 9.944194 
7.4080884e+3, 1.24911144e+2, -1660122.3, -1720339.4, -1173.579, 0.0017041172, -0.0018174085, -1660099.4, 55772.25, 0.0, 10.050024, 9.969992 
7.4080807e+3, 1.3488322e+2, -1569706.1, -1631902.4, -1817.9847, 0.003299553, 0.005575978, -1569653.0, 48492.21, 0.0, 10.04791, 9.965331 
7.4080664e+3, 1.4483608e+2, -1482256.5, -1548680.8, -4653.0015, 0.0011046424, -0.004632822, -1481932.3, 38674.844, 0.0, 10.045552, 9.9574585 
7.4080515e+3, 1.547974e+2, -1388803.9, -1453657.3, -4958.6533, 0.0020964586, -0.00006913864, -1388427.0, 34559.21, 0.0, 10.042956, 9.9569845 
7.408033e+3, 1.6475123e+2, -1302551.8, -1372260.1, -7089.099, 0.0024595186, 0.00175101, -1301838.1, 23600.467, 0.0, 10.040254, 9.948011 
7.4080116e+3, 1.7469805e+2, -1209148.1, -1277042.4, -7321.178, 0.0021320586, 0.00006675708, -1208367.6, 19592.055, 0.0, 10.037448, 9.947649 
7.4079895e+3, 1.8464051e+2, -1123237.4, -1196256.5, -8717.821, 0.0020046271, -0.00038688566, -1122210.9, 8312.641, 0.0, 10.034576, 9.938184 
7.407965e+3, 1.9457921e+2, -1029781.1, -1100828.6, -8877.286, 0.0021087816, 0.000004740551, -1028688.7, 4435.711, 0.0, 10.031637, 9.937893 
7.40794e+3, 2.0451255e+2, -943715.25, -1019880.0, -9531.288, 0.0021498727, 0.00033189286, -942540.6, -6763.0234, 0.0, 10.028673, 9.928356 
7.4079144e+3, 2.1444088e+2, -850114.3, -924242.6, -9622.041, 0.002116609, -0.000040589613, -848885.7, -10405.728, 0.0, 10.025682, 9.928093 
7.407889e+3, 2.2436415e+2, -763973.94, -843451.6, -9548.373, 0.0021019194, 0.00013425133, -762842.9, -21610.928, 0.0, 10.022694, 9.918252 
7.407864e+3, 2.3428263e+2, -670123.2, -747528.56, -9564.582, 0.002110737, -0.000018006647, -668958.9, -24927.973, 0.0, 10.019707, 9.9180355 
7.4078393e+3, 2.441956e+2, -583953.6, -667149.7, -8782.95, 0.0021142047, 0.00016943573, -583036.56, -36152.844, 0.0, 10.016758, 9.907693 
7.407816e+3, 2.5410354e+2, -489554.2, -570517.7, -8700.569, 0.0021096282, -0.000036003905, -488629.78, -38844.04, 0.0, 10.013852, 9.907756 
7.4077946e+3, 2.640058e+2, -403401.7, -490832.7, -7237.661, 0.0021085227, 0.00019956128, -402806.6, -50063.0, 0.0, 10.011016, 9.896639 
7.4077755e+3, 2.7390322e+2, -308129.7, -392988.84, -7031.4307, 0.0021083478, -0.00014226633, -307551.0, -51802.02, 0.0, 10.008265, 9.897281 
7.407758e+3, 2.837932e+2, -224343.92, -319000.66, -4927.353, 0.0021077967, 0.0002909818, -224088.11, -65261.094, 0.0, 10.0056, 9.882111 
7.4077445e+3, 2.9367656e+2, -128318.914, -220302.31, -4571.6772, 0.0021037427, -0.00019560679, -128092.26, -66121.836, 0.0, 10.003047, 9.883066 
7.407734e+3, 3.0358946e+2, -39431.2, -83348.47, -1722.1322, 0.0021042242, 0.0002321427, -39363.773, -39363.773, 0.0, 10.00062, 9.94282 
7.407728e+3, 3.135347e+2, -41268.004, -81919.16, -1162.4132, 0.0021035045, -0.0000009381895, -41234.793, -41234.793, 0.0, 9.998375, 9.944866 
7.4181384e+3, 1.24916375e+2, -1660788.4, -1721957.4, -1825.0917, 0.0017548349, -0.0015978226, -1660733.9, 55086.48, 0.0, 10.050193, 9.968908 
7.418128e+3, 1.3488734e+2, -1570139.1, -1633050.1, -2448.8591, 0.0033142928, 0.005391665, -1570044.0, 48060.95, 0.0, 10.04806, 9.964543 
7.4181116e+3, 1.4483973e+2, -1482669.8, -1549750.3, -5455.837, 0.0011103032, -0.0044684685, -1482228.9, 38342.48, 0.0, 10.045681, 9.956729 
7.418094e+3, 1.5480019e+2, -1389259.4, -1454748.5, -5761.05, 0.002103809, -0.00006484149, -1388756.4, 34202.563, 0.0, 10.043056, 9.956254 
7.4180734e+3, 1.6475333e+2, -1302895.0, -1373091.3, -7969.025, 0.002464817, 0.0016980871, -1302001.8, 23416.484, 0.0, 10.040329, 9.947454 
7.4180496e+3, 1.7469963e+2, -1209516.4, -1277882.3, -8200.9795, 0.002132459, 0.00006838563, -1208546.4, 19397.965, 0.0, 10.037503, 9.947093 
7.418024e+3, 1.8464164e+2, -1123483.1, -1196824.0, -9648.736, 0.0020067692, -0.00036494003, -1122235.0, 8277.597, 0.0, 10.034613, 9.937808 
7.4179965e+3, 1.9457994e+2, -1030050.1, -1101403.9, -9809.987, 0.0021210818, 0.000006429302, -1028726.0, 4391.254, 0.0, 10.031656, 9.93752 
7.4179685e+3, 2.04513e+2, -943871.7, -1020198.3, -10487.58, 0.0021624118, 0.00032684195, -942456.9, -6683.5713, 0.0, 10.028674, 9.928155 
7.41794e+3, 2.1444114e+2, -850293.44, -924568.1, -10581.119, 0.0021181537, -0.000036990627, -848815.5, -10337.953, 0.0, 10.025665, 9.927895 
7.417912e+3, 2.2436427e+2, -764047.94, -843534.7, -10509.903, 0.002099144, 0.00014010257, -762681.8, -21451.13, 0.0, 10.022661, 9.918217 
7.417883e+3, 2.3428272e+2, -670212.56, -747613.56, -10527.8, 0.0021132622, -0.00001871653, -668806.1, -24776.195, 0.0, 10.019661, 9.918004 
7.417856e+3, 2.4419574e+2, -583934.5, -666981.94, -9720.604, 0.0021204078, 0.00016753377, -582811.9, -35929.582, 0.0, 10.016697, 9.907832 
7.41783e+3, 2.5410384e+2, -489554.1, -570349.94, -9639.786, 0.002118659, -0.000032119675, -488419.88, -38637.06, 0.0, 10.013775, 9.907905 
7.417806e+3, 2.6400635e+2, -403301.6, -490420.25, -8126.083, 0.0021157824, 0.00020601282, -402550.13, -49811.668, 0.0, 10.010922, 9.8969555 
7.417784e+3, 2.739041e+2, -308047.28, -392571.75, -7919.5464, 0.0021081385, -0.00013798762, -307311.66, -51571.043, 0.0, 10.008154, 9.89761 
7.417764e+3, 2.8379446e+2, -224169.53, -318351.47, -5748.7007, 0.0021063332, 0.00029196677, -223819.94, -65005.188, 0.0, 10.005473, 9.882599 
7.4177474e+3, 2.9367828e+2, -128161.19, -219645.02, -5386.61, 0.0021106394, -0.00020182188, -127845.11, -65891.84, 0.0, 10.002904, 9.883571 
7.417734e+3, 3.0359182e+2, -39192.117, -82476.7, -2430.2349, 0.0021122515, 0.00022953142, -39056.098, -39056.098, 0.0, 10.000459, 9.943486 
7.417726e+3, 3.1353772e+2, -41050.33, -81035.74, -1857.6593, 0.0020993839, 0.000010921168, -40964.207, -40964.207, 0.0, 9.998189, 9.945552 
7.428191e+3, 1.24923825e+2, -1655782.9, -1720610.8, -1247.1921, 0.001709691, -0.0017065308, -1655758.9, 59988.523, 0.0, 10.053924, 9.967745 
7.428178e+3, 1.3489392e+2, -1565304.8, -1631285.6, -1830.551, 0.003287506, 0.005082424, -1565254.0, 52786.523, 0.0, 10.051456, 9.963828 
7.428159e+3, 1.4484605e+2, -1478423.0, -1548323.1, -5013.489, 0.0011394707, -0.0041993954, -1478065.3, 42444.215, 0.0, 10.048721, 9.956004 
7.428139e+3, 1.5480556e+2, -1385618.0, -1453655.1, -5325.567, 0.0021129618, -0.00005499797, -1385203.8, 37702.56, 0.0, 10.045728, 9.955528 
7.428115e+3, 1.6475798e+2, -1299691.0, -1372040.9, -7602.82, 0.002465575, 0.0016097049, -1298900.8, 26471.742, 0.0, 10.04264, 9.9468975 
7.428088e+3, 1.747038e+2, -1206874.0, -1277133.1, -7837.566, 0.0021383595, 0.00006492817, -1206010.3, 21893.066, 0.0, 10.039465, 9.946539 
7.428059e+3, 1.8464538e+2, -1121252.1, -1196095.4, -9333.196, 0.002013724, -0.00033566, -1120105.9, 10370.112, 0.0, 10.036225, 9.9374275 
7.4280286e+3, 1.9458328e+2, -1028369.9, -1100964.8, -9496.697, 0.0021238367, 0.000009242206, -1027148.1, 5936.441, 0.0, 10.03292, 9.937142 
7.427998e+3, 2.0451602e+2, -942604.6, -1019784.06, -10194.005, 0.002165338, 0.0003192073, -941280.9, -5537.2583, 0.0, 10.029589, 9.927943 
7.427966e+3, 2.1444395e+2, -849572.2, -924434.9, -10289.359, 0.0021257282, -0.000034957447, -848183.7, -9733.89, 0.0, 10.026228, 9.927688 
7.4279344e+3, 2.24367e+2, -763728.2, -843409.7, -10210.221, 0.0021083187, 0.00014593008, -762440.7, -21236.53, 0.0, 10.022876, 9.918181 
7.427903e+3, 2.342854e+2, -670417.06, -747750.3, -10224.523, 0.0021189793, -0.000016196704, -669088.06, -25084.346, 0.0, 10.019531, 9.917974 
7.4278724e+3, 2.4419847e+2, -584539.8, -667126.7, -9385.12, 0.0021242034, 0.00016760519, -583486.7, -36631.11, 0.0, 10.016219, 9.90797 
7.427843e+3, 2.5410673e+2, -490689.7, -570751.06, -9299.628, 0.002121401, -0.000033701403, -489623.7, -39868.945, 0.0, 10.012941, 9.908051 
7.427816e+3, 2.6400942e+2, -404843.25, -490827.06, -7723.531, 0.0021195717, 0.00020553586, -404154.97, -51446.836, 0.0, 10.009733, 9.897269 
7.427791e+3, 2.739075e+2, -310107.2, -393219.75, -7509.847, 0.002114829, -0.00013387884, -309434.06, -53726.95, 0.0, 10.006609, 9.897934 
7.427769e+3, 2.837983e+2, -226616.05, -318969.03, -5252.911, 0.002113545, 0.0002977153, -226318.22, -67541.016, 0.0, 10.003574, 9.883112 
7.4277496e+3, 2.9368263e+2, -131105.11, -220479.84, -4869.0845, 0.0021139404, -0.00019730277, -130840.625, -68930.08, 0.0, 10.000654, 9.8841 
7.427734e+3, 3.0359676e+2, -42526.23, -83322.85, -1806.6803, 0.0021140403, 0.00023037741, -42446.375, -42446.375, 0.0, 9.997853, 9.944166 
7.427723e+3, 3.1354338e+2, -44903.926, -82112.83, -1216.3802, 0.002103768, 0.000008959649, -44864.203, -44864.203, 0.0, 9.995222, 9.94625 
7.438245e+3, 1.2493364e+2, -1656448.1, -1722398.5, -2016.247, 0.0018708999, -0.0011188468, -1656386.5, 59264.71, 0.0, 10.054171, 9.966515 
7.43823e+3, 1.3490222e+2, -1565664.5, -1632294.0, -2572.4111, 0.003239358, 0.0046987045, -1565565.4, 52393.695, 0.0, 10.051605, 9.963126 
7.438208e+3, 1.4485423e+2, -1478887.3, -1549419.4, -5943.469, 0.0011847985, -0.0038632574, -1478389.9, 42039.41, 0.0, 10.048816, 9.955276 
7.4381846e+3, 1.5481275e+2, -1386096.3, -1454756.6, -6245.0776, 0.002123012, -0.000041603802, -1385532.9, 37302.883, 0.0, 10.04581, 9.954799 
7.438158e+3, 1.6476443e+2, -1300044.6, -1372880.4, -8585.698, 0.002461506, 0.0015025688, -1299046.3, 26263.023, 0.0, 10.042707, 9.946338 
7.4381274e+3, 1.747098e+2, -1207249.3, -1277979.8, -8821.357, 0.0021459362, 0.00006094031, -1206165.8, 21679.12, 0.0, 10.039515, 9.945981 
7.438095e+3, 1.8465093e+2, -1121504.0, -1196673.4, -10368.884, 0.0020227218, -0.00029857573, -1120099.9, 10321.771, 0.0, 10.036259, 9.937046 
7.438062e+3, 1.9458841e+2, -1028639.5, -1101547.5, -10535.541, 0.0021232583, 0.000013783304, -1027147.56, 5886.709, 0.0, 10.032939, 9.936763 
7.438027e+3, 2.0452085e+2, -942759.44, -1020112.56, -11259.099, 0.0021636982, 0.00031093403, -941154.0, -5457.658, 0.0, 10.0295925, 9.927733 
7.437992e+3, 2.1444859e+2, -849746.06, -924768.75, -11358.513, 0.002134149, -0.000032606757, -848064.1, -9659.611, 0.0, 10.0262165, 9.92748 
7.437957e+3, 2.243715e+2, -763786.9, -843478.25, -11280.439, 0.0021194757, 0.00015354669, -762220.94, -21060.945, 0.0, 10.022847, 9.918152 
7.4379224e+3, 2.3428987e+2, -670499.56, -747824.9, -11299.137, 0.0021248735, -0.000011365743, -668882.3, -24922.5, 0.0, 10.0194845, 9.91795 
7.4378884e+3, 2.44203e+2, -584515.7, -666949.56, -10441.249, 0.0021255123, 0.00016952804, -583213.75, -36402.605, 0.0, 10.016156, 9.908116 
7.437856e+3, 2.541114e+2, -490677.94, -570571.6, -10358.991, 0.002120665, -0.000035252215, -489356.66, -39647.867, 0.0, 10.012867, 9.908204 
7.437826e+3, 2.6401433e+2, -404727.25, -490399.16, -8733.081, 0.002120092, 0.00020453859, -403846.1, -51186.184, 0.0, 10.0096445, 9.897593 
7.437797e+3, 2.7391276e+2, -310011.13, -392789.3, -8518.83, 0.0021221412, -0.00012857704, -309143.53, -53487.965, 0.0, 10.006502, 9.898269 
7.437772e+3, 2.83804e+2, -226402.67, -318250.13, -6194.964, 0.0021218942, 0.00030730807, -225986.7, -67265.234, 0.0, 10.003449, 9.883644 
7.43775e+3, 2.9368886e+2, -130910.23, -219749.34, -5808.366, 0.002114205, -0.0001884011, -130532.08, -68682.68, 0.0, 10.00051, 9.884652 
7.4377316e+3, 3.0360365e+2, -42265.66, -82409.06, -2645.6887, 0.0021118529, 0.00023734104, -42092.043, -42092.043, 0.0, 9.99769, 9.94486 
7.4377185e+3, 3.1355092e+2, -44662.848, -81191.73, -2042.7516, 0.0021078796, 0.000003339638, -44548.97, -44548.97, 0.0, 9.99504, 9.9469595 
7.448301e+3, 1.2494557e+2, -1650933.1, -1721045.1, -1377.4701, 0.0016980624, -0.0016543115, -1650906.1, 64628.223, 0.0, 10.058344, 9.965117 
7.4482834e+3, 1.3491331e+2, -1560509.0, -1630388.5, -1910.3369, 0.003118066, 0.0040410534, -1560456.8, 57393.66, 0.0, 10.055216, 9.962382 
7.4482584e+3, 1.448656e+2, -1474405.1, -1547781.4, -5389.084, 0.0013055508, -0.0033049106, -1474011.5, 46306.46, 0.0, 10.051964, 9.95462 
7.4482316e+3, 1.5482304e+2, -1382192.3, -1453440.3, -5668.5366, 0.0021287058, -0.000024796731, -1381744.1, 40991.023, 0.0, 10.048608, 9.954142 
7.448202e+3, 1.6477394e+2, -1296631.6, -1371718.6, -8065.869, 0.0024257894, 0.0013188814, -1295775.0, 29441.217, 0.0, 10.045148, 9.945779 
7.448168e+3, 1.7471887e+2, -1204419.3, -1277133.8, -8303.321, 0.0021505032, 0.000059195718, -1203483.1, 24272.639, 0.0, 10.0415945, 9.945422 
7.448132e+3, 1.8465959e+2, -1119107.5, -1195866.8, -9896.418, 0.002043353, -0.00023211878, -1117852.0, 12484.728, 0.0, 10.037977, 9.936655 
7.4480957e+3, 1.9459663e+2, -1026810.44, -1101040.0, -10065.028, 0.0021312882, 0.000018579942, -1025469.94, 7483.747, 0.0, 10.034299, 9.936375 
7.4480575e+3, 2.0452876e+2, -941362.75, -1019641.8, -10809.869, 0.00216512, 0.00029088228, -939897.4, -4278.49, 0.0, 10.030591, 9.92751 
7.448019e+3, 2.1445629e+2, -848916.1, -924590.9, -10911.022, 0.002135528, -0.000032582273, -847374.3, -9045.262, 0.0, 10.026851, 9.9272585 
7.44798e+3, 2.2437908e+2, -763388.9, -843318.1, -10829.973, 0.0021231053, 0.00016213467, -761947.44, -20861.648, 0.0, 10.023111, 9.918109 
7.447942e+3, 2.3429741e+2, -670678.7, -747954.25, -10849.237, 0.0021321604, -0.000008365818, -669184.4, -25298.33, 0.0, 10.019369, 9.917912 
7.447905e+3, 2.4421059e+2, -585125.3, -667090.94, -9957.255, 0.0021337685, 0.00017134889, -583933.0, -37196.08, 0.0, 10.015669, 9.908256 
7.4478686e+3, 2.5411913e+2, -491834.4, -570978.0, -9870.275, 0.0021255442, -0.000028574568, -490622.0, -40988.906, 0.0, 10.0120125, 9.908351 
7.4478346e+3, 2.6402232e+2, -406309.25, -490808.72, -8186.0117, 0.0021229903, 0.00021096777, -405523.53, -52941.56, 0.0, 10.008417, 9.897919 
7.447803e+3, 2.7392104e+2, -312154.16, -393461.4, -7962.122, 0.0021241019, -0.00013025098, -311381.78, -55807.406, 0.0, 10.004892, 9.898605 
7.4477744e+3, 2.8381267e+2, -228970.05, -318893.56, -5552.75, 0.0021253265, 0.0003031893, -228628.47, -69992.36, 0.0, 10.001453, 9.884183 
7.4477494e+3, 2.9369816e+2, -134029.08, -220635.72, -5152.3555, 0.0021218853, -0.00018484349, -133723.64, -71965.1, 0.0, 9.998126, 9.885209 
7.4477273e+3, 3.036135e+2, -45819.77, -83324.51, -1890.0668, 0.002119097, 0.000243225, -45724.76, -45724.76, 0.0, 9.994919, 9.94557 
7.447711e+3, 3.1356156e+2, -48773.69, -82357.34, -1268.4188, 0.0021073634, 0.000008382394, -48725.855, -48725.855, 0.0, 9.991882, 9.947686 
7.4583596e+3, 1.2496091e+2, -1651780.6, -1723174.3, -2277.916, 0.0019612547, -0.00068288157, -1651708.0, 63676.004, 0.0, 10.058586, 9.963678 
7.458338e+3, 1.3492647e+2, -1560863.4, -1631472.4, -2757.0195, 0.0029655106, 0.0032687145, -1560755.9, 56965.63, 0.0, 10.055402, 9.961612 
7.458311e+3, 1.448792e+2, -1474717.1, -1548701.1, -6334.264, 0.0014572971, -0.002642354, -1474178.6, 46005.918, 0.0, 10.052107, 9.953973 
7.4582803e+3, 1.5483546e+2, -1382551.1, -1454385.0, -6638.317, 0.0021339091, -0.000005627089, -1381942.9, 40670.42, 0.0, 10.048718, 9.953492 
7.4582464e+3, 1.6478558e+2, -1296953.4, -1372546.3, -9129.398, 0.0023777273, 0.0011037744, -1295866.5, 29235.607, 0.0, 10.045235, 9.945215 
7.4582094e+3, 1.7473014e+2, -1204767.9, -1277975.8, -9379.531, 0.0021540874, 0.0000590784, -1203585.3, 24060.322, 0.0, 10.041662, 9.944857 
7.4581707e+3, 1.8467042e+2, -1119339.4, -1196446.4, -11032.167, 0.0020673675, -0.00015099083, -1117792.0, 12438.546, 0.0, 10.038026, 9.936263 
7.45813e+3, 1.9460702e+2, -1027070.06, -1101632.0, -11208.691, 0.002141226, 0.000025342782, -1025421.56, 7430.326, 0.0, 10.0343275, 9.935984 
7.4580884e+3, 2.0453882e+2, -941512.75, -1019980.44, -11985.928, 0.002165942, 0.00026793365, -939722.75, -4202.3657, 0.0, 10.030601, 9.927289 
7.4580455e+3, 2.1446614e+2, -849090.1, -924939.1, -12093.524, 0.0021343683, -0.000031827007, -847208.56, -8976.046, 0.0, 10.026843, 9.927039 
7.458003e+3, 2.2438881e+2, -763443.9, -843396.6, -12021.779, 0.002123009, 0.0001734859, -761675.4, -20684.953, 0.0, 10.0230875, 9.918069 
7.4579614e+3, 2.343071e+2, -670749.8, -748035.9, -12047.437, 0.0021384144, -0.000004617679, -668915.44, -25124.299, 0.0, 10.019333, 9.917876 
7.4579203e+3, 2.4422032e+2, -585081.06, -666901.44, -11132.905, 0.0021419176, 0.00017438197, -583593.3, -36951.867, 0.0, 10.0156145, 9.908404 
7.457881e+3, 2.5412905e+2, -491815.75, -570793.1, -11050.472, 0.0021307894, -0.00001775748, -490298.72, -40762.668, 0.0, 10.011939, 9.908506 
7.4578434e+3, 2.6403245e+2, -406180.97, -490357.6, -9326.2705, 0.0021249007, 0.00022136145, -405160.06, -52677.504, 0.0, 10.008327, 9.898256 
7.457808e+3, 2.7393153e+2, -312037.56, -393003.38, -9105.478, 0.0021226944, -0.00013203143, -311026.2, -55554.57, 0.0, 10.004788, 9.898955 
7.457776e+3, 2.8382364e+2, -228726.31, -318134.63, -6632.681, 0.0021250402, 0.0002980857, -228236.95, -69707.92, 0.0, 10.001336, 9.884737 
7.4577475e+3, 2.9370967e+2, -133803.86, -219865.78, -6228.72, 0.002129452, -0.00018200204, -133355.39, -71709.59, 0.0, 9.99799, 9.885782 
7.4577224e+3, 3.0362567e+2, -45525.08, -82360.06, -2865.386, 0.002127147, 0.0002538747, -45303.51, -45303.51, 0.0, 9.994763, 9.946295 
7.4577034e+3, 3.1357443e+2, -48504.56, -81388.87, -2234.5383, 0.0021022768, 0.000018050865, -48353.414, -48353.414, 0.0, 9.991702, 9.948424 
7.46842e+3, 1.2497966e+2, -1645805.6, -1721468.5, -1316.4473, 0.0019599323, -0.00065201, -1645782.8, 69417.54, 0.0, 10.062998, 9.962365 
7.468395e+3, 1.3494359e+2, -1555271.3, -1629377.6, -1771.502, 0.0027253998, 0.002255432, -1555229.0, 62324.77, 0.0, 10.059307, 9.960823 
7.468365e+3, 1.4489707e+2, -1469875.1, -1547026.0, -5430.766, 0.0016650681, -0.0017565341, -1469494.8, 50514.8, 0.0, 10.055551, 9.953178 
7.468331e+3, 1.5485184e+2, -1378371.6, -1453075.5, -5789.805, 0.002145464, 0.000017238348, -1377925.6, 44527.32, 0.0, 10.051759, 9.952698 
7.468293e+3, 1.6480099e+2, -1293277.5, -1371333.1, -8381.129, 0.0023165748, 0.00080913195, -1292387.8, 32563.44, 0.0, 10.047879, 9.944575 
7.468252e+3, 1.7474511e+2, -1201708.8, -1277095.3, -8658.0625, 0.0021554325, 0.000049076298, -1200727.1, 26771.535, 0.0, 10.043923, 9.944219 
7.468209e+3, 1.8468496e+2, -1116719.1, -1195560.5, -10374.461, 0.002092956, -0.000051666717, -1115376.8, 14711.334, 0.0, 10.039901, 9.935834 
7.468165e+3, 1.9462106e+2, -1025063.6, -1101070.3, -10560.296, 0.002146286, 0.000034993136, -1023623.7, 9090.653, 0.0, 10.035814, 9.935556 
7.468119e+3, 2.0455249e+2, -939966.6, -1019450.7, -11363.462, 0.0021645287, 0.00024125815, -938373.94, -2987.5793, 0.0, 10.031698, 9.927045 
7.468073e+3, 2.144796e+2, -848149.25, -924723.44, -11473.958, 0.0021419364, -0.000030306051, -846466.94, -8366.281, 0.0, 10.027552, 9.926797 
7.468026e+3, 2.2440211e+2, -762955.6, -843202.4, -11399.004, 0.0021322398, 0.00018675724, -761367.9, -20507.861, 0.0, 10.02341, 9.918011 
7.4679804e+3, 2.3432034e+2, -670849.56, -748137.7, -11425.079, 0.0021390792, 0.00000011027048, -669196.06, -25534.781, 0.0, 10.01927, 9.917823 
7.4679357e+3, 2.4423361e+2, -585636.7, -667014.5, -10482.782, 0.002141208, 0.00017366406, -584308.06, -37796.727, 0.0, 10.015158, 9.90854 
7.467892e+3, 2.5414246e+2, -492984.75, -571205.25, -10396.788, 0.00213737, -0.000019267967, -491626.44, -42221.93, 0.0, 10.011071, 9.908649 
7.4678504e+3, 2.640461e+2, -407817.63, -490786.88, -8611.732, 0.0021344728, 0.00022273535, -406933.22, -54584.51, 0.0, 10.007056, 9.898584 
7.4678123e+3, 2.7394554e+2, -314254.03, -393705.34, -8385.318, 0.0021284632, -0.00012346967, -313378.66, -58044.254, 0.0, 10.003122, 9.899293 
7.467776e+3, 2.8383806e+2, -231373.44, -318775.7, -5833.1426, 0.0021275997, 0.00030712163, -230985.86, -72598.4, 0.0, 9.999266, 9.885308 
7.4677444e+3, 2.9372472e+2, -137043.92, -220767.6, -5410.6865, 0.0021287713, -0.0001810259, -136695.69, -75197.19, 0.0, 9.995502, 9.886373 
7.467716e+3, 3.0364135e+2, -49268.42, -83347.945, -1953.5864, 0.0021267983, 0.0002512343, -49156.8, -49156.8, 0.0, 9.991854, 9.947017 
7.467693e+3, 3.1359088e+2, -52876.99, -82667.8, -1314.4048, 0.0021092119, 0.000025023792, -52819.11, -52819.11, 0.0, 9.988361, 9.949159 
7.4784833e+3, 1.2500124e+2, -1646557.8, -1723322.8, -2401.77, 0.0019935837, -0.0005477748, -1646482.8, 68506.16, 0.0, 10.063192, 9.961118 
7.478455e+3, 1.3496336e+2, -1555666.4, -1630543.8, -2839.176, 0.0024552988, 0.0011573369, -1555558.9, 61801.137, 0.0, 10.059491, 9.96 
7.47842e+3, 1.449177e+2, -1470301.8, -1548236.6, -6552.108, 0.0018976931, -0.00077819824, -1469754.8, 50052.727, 0.0, 10.055724, 9.952333 
7.4783826e+3, 1.5487084e+2, -1378822.1, -1454296.5, -6911.805, 0.0021590379, 0.00004138948, -1378194.4, 44072.316, 0.0, 10.051913, 9.951853 
7.478341e+3, 1.6481896e+2, -1293611.5, -1372283.5, -9571.168, 0.0022480055, 0.00048669847, -1292463.9, 32311.309, 0.0, 10.048007, 9.943911 
7.478296e+3, 1.7476267e+2, -1202092.5, -1278069.1, -9853.958, 0.002156403, 0.00003883927, -1200835.3, 26491.365, 0.0, 10.044016, 9.943555 
7.4782497e+3, 1.8470207e+2, -1116955.3, -1196193.5, -11628.828, 0.002119445, 0.00005897204, -1115284.0, 14636.562, 0.0, 10.039966, 9.935399 
7.478201e+3, 1.9463767e+2, -1025326.94, -1101713.4, -11823.958, 0.0021494704, 0.000047164085, -1023538.56, 9013.182, 0.0, 10.035858, 9.935123 
7.478151e+3, 2.0456871e+2, -940106.56, -1019809.9, -12661.486, 0.0021605552, 0.0002139408, -938143.56, -2916.124, 0.0, 10.031721, 9.926802 
7.4781007e+3, 2.144956e+2, -848317.6, -925094.06, -12780.934, 0.00215142, -0.000026785945, -846245.9, -8302.033, 0.0, 10.0275545, 9.926557 
7.47805e+3, 2.2441798e+2, -763004.94, -843293.6, -12714.6875, 0.0021430277, 0.00020376597, -761039.56, -20335.041, 0.0, 10.023393, 9.917958 
7.4779993e+3, 2.3433617e+2, -670924.75, -748237.94, -12747.831, 0.0021371248, 0.000006608912, -668877.0, -25370.674, 0.0, 10.019234, 9.917773 
7.4779505e+3, 2.4424946e+2, -585587.44, -666826.3, -11795.322, 0.0021361066, 0.00017333475, -583909.5, -37553.477, 0.0, 10.015105, 9.908685 
7.4779034e+3, 2.5415847e+2, -492948.78, -571016.1, -11717.226, 0.0021421816, -0.000022622493, -491228.03, -41980.33, 0.0, 10.011007, 9.908802 
7.477858e+3, 2.6406235e+2, -407667.16, -490325.06, -9887.39, 0.0021437781, 0.00022346611, -406500.9, -54311.35, 0.0, 10.006976, 9.898922 
7.477815e+3, 2.7396214e+2, -314127.3, -393243.84, -9664.363, 0.0021346721, -0.0001092878, -312963.88, -57792.125, 0.0, 10.003023, 9.899642 
7.477775e+3, 2.8385514e+2, -231095.89, -317957.72, -7059.591, 0.002129035, 0.00032417008, -230525.86, -72305.59, 0.0, 9.999149, 9.885899 
7.4777395e+3, 2.9374236e+2, -136777.25, -219931.31, -6638.0254, 0.0021229428, -0.00017919093, -136250.69, -74925.266, 0.0, 9.995371, 9.886987 
7.477707e+3, 3.036597e+2, -48952.594, -82365.72, -3087.2488, 0.0021213358, 0.00025070313, -48669.74, -48669.74, 0.0, 9.991706, 9.947747 
7.4776816e+3, 3.1360996e+2, -52589.75, -81691.01, -2439.267, 0.0021160962, 0.000032508273, -52386.707, -52386.707, 0.0, 9.988191, 9.949897 
7.4885494e+3, 1.2502816e+2, -1640315.6, -1721415.9, -1323.4275, 0.0022773773, 0.00049298623, -1640294.0, 74430.96, 0.0, 10.067743, 9.9598465 
7.488516e+3, 1.3498794e+2, -1549847.5, -1628534.8, -1787.3611, 0.002298316, 0.0004971207, -1549806.9, 67312.31, 0.0, 10.063634, 9.959026 
7.488478e+3, 1.4494236e+2, -1465053.8, -1546420.3, -5570.7925, 0.0020509942, -0.00019604056, -1464674.1, 54891.69, 0.0, 10.059456, 9.9514675 
7.488436e+3, 1.5489416e+2, -1374235.5, -1452847.0, -5944.0967, 0.0021657224, 0.000055102104, -1373788.6, 48249.484, 0.0, 10.055243, 9.950985 
7.488391e+3, 1.6484134e+2, -1289551.6, -1370918.4, -8685.694, 0.0022024075, 0.00029415192, -1288634.8, 35920.984, 0.0, 10.050914, 9.94322 
7.4883413e+3, 1.7478453e+2, -1198739.6, -1277086.8, -8975.519, 0.0021606314, 0.000040720148, -1197724.5, 29388.049, 0.0, 10.046483, 9.942864 
7.4882907e+3, 1.847234e+2, -1114094.9, -1195226.1, -10791.255, 0.0021422154, 0.00013126289, -1112684.1, 17027.398, 0.0, 10.042008, 9.934925 
7.488237e+3, 1.9465846e+2, -1023110.4, -1101086.9, -10993.616, 0.002153772, 0.000049790382, -1021590.06, 10757.864, 0.0, 10.037495, 9.934652 
7.4881834e+3, 2.0458911e+2, -938371.5, -1019209.7, -11857.978, 0.002157804, 0.00019103484, -936668.0, -1640.5204, 0.0, 10.032948, 9.926528 
7.4881285e+3, 2.1451576e+2, -847226.1, -924828.6, -11980.511, 0.0021540255, -0.000022457763, -845418.7, -7672.3047, 0.0, 10.028368, 9.926284 
7.488074e+3, 2.2443797e+2, -762395.5, -843043.2, -11909.619, 0.0021499575, 0.00021767069, -760673.5, -20164.87, 0.0, 10.02379, 9.917889 
7.488019e+3, 2.3435608e+2, -670954.2, -748310.56, -11939.756, 0.0021461013, 0.000008726849, -669153.25, -25842.018, 0.0, 10.019214, 9.917707 
7.487966e+3, 2.442694e+2, -586101.5, -666923.4, -10956.36, 0.0021433234, 0.00017212196, -584642.56, -38481.945, 0.0, 10.014671, 9.908811 
7.4879134e+3, 2.5417855e+2, -494078.9, -571415.7, -10875.479, 0.0021425064, -0.000015218917, -492578.66, -43527.645, 0.0, 10.010162, 9.908933 
7.4878645e+3, 2.6408267e+2, -409285.16, -490738.5, -8991.142, 0.0021427427, 0.0002319189, -408304.5, -56313.855, 0.0, 10.005711, 9.89925 
7.4878174e+3, 2.7398276e+2, -316391.84, -393964.1, -8761.881, 0.002139223, -0.00011041957, -315414.47, -60444.86, 0.0, 10.001318, 9.899978 
7.4877733e+3, 2.838762e+2, -233825.75, -318605.1, -6077.341, 0.0021360333, 0.00032143813, -233392.31, -75378.63, 0.0, 9.997005, 9.886493 
7.4877334e+3, 2.9376405e+2, -140129.97, -220853.1, -5642.183, 0.0021269186, -0.00017030888, -139737.52, -78624.78, 0.0, 9.992789, 9.887601 
7.4876976e+3, 3.0368206e+2, -52856.01, -83412.055, -2011.361, 0.0021232138, 0.00025984825, -52724.184, -52724.184, 0.0, 9.988677, 9.948481 
7.487668e+3, 3.1363305e+2, -57173.11, -83057.85, -1354.6605, 0.002119524, 0.00003019019, -57102.406, -57102.406, 0.0, 9.984699, 9.950638 
7.4986166e+3, 1.2505709e+2, -1640966.5, -1723051.6, -2528.7737, 0.002168364, 0.00017375, -1640888.8, 73552.81, 0.0, 10.067921, 9.958739 
7.4985796e+3, 1.350157e+2, -1550412.3, -1630036.0, -2980.2642, 0.002186037, 0.000015632348, -1550300.9, 66546.35, 0.0, 10.063821, 9.957993 
7.4985373e+3, 1.449699e+2, -1465494.4, -1547681.8, -6809.2505, 0.0021710808, 0.00023525387, -1464934.0, 54362.004, 0.0, 10.059635, 9.950584 
7.4984914e+3, 1.5492049e+2, -1374718.4, -1454130.3, -7183.044, 0.002170769, 0.00006639334, -1374073.9, 47706.36, 0.0, 10.055392, 9.950101 
7.4984413e+3, 1.6486675e+2, -1289907.4, -1371917.6, -10013.963, 0.0021665099, 0.00015852612, -1288702.4, 35604.406, 0.0, 10.05104, 9.942524 
7.498388e+3, 1.7480935e+2, -1199120.0, -1278099.1, -10314.064, 0.00216615, 0.00004852012, -1197795.4, 29073.959, 0.0, 10.046592, 9.942166 
7.498332e+3, 1.8474768e+2, -1114325.5, -1195902.4, -12175.974, 0.0021616241, 0.00018945559, -1112547.0, 16926.65, 0.0, 10.042092, 9.93445 
7.498275e+3, 1.9468223e+2, -1023383.9, -1101783.6, -12386.457, 0.0021581908, 0.000052272746, -1021473.5, 10641.631, 0.0, 10.037549, 9.934177 
7.498216e+3, 2.046125e+2, -938517.25, -1019603.6, -13287.615, 0.0021548583, 0.0001742963, -936395.4, -1596.8928, 0.0, 10.032976, 9.926257 
7.498157e+3, 2.1453887e+2, -847400.9, -925235.56, -13419.352, 0.0021541326, -0.000015841633, -845152.25, -7632.442, 0.0, 10.028376, 9.926014 
7.4980974e+3, 2.2446094e+2, -762432.56, -843136.7, -13360.745, 0.002154113, 0.00023281592, -760278.1, -19994.502, 0.0, 10.02378, 9.9178295 
7.498038e+3, 2.3437896e+2, -671014.9, -748413.0, -13401.911, 0.0021566104, 0.00001166476, -668760.0, -25673.098, 0.0, 10.019186, 9.91765 
7.4979806e+3, 2.4429233e+2, -586041.0, -666740.2, -12406.563, 0.0021522753, 0.00017387426, -584176.7, -38240.785, 0.0, 10.014626, 9.908946 
7.497924e+3, 2.5420162e+2, -494042.1, -571238.8, -12334.102, 0.002139552, -0.00000224338, -492119.3, -43294.477, 0.0, 10.010099, 9.909074 
7.49787e+3, 2.6410598e+2, -409124.8, -490269.78, -10419.096, 0.002136212, 0.00024480882, -407808.34, -56046.188, 0.0, 10.005631, 9.89959 
7.4978185e+3, 2.740064e+2, -316244.72, -393491.03, -10197.286, 0.0021407353, -0.0001138011, -314921.25, -60183.42, 0.0, 10.001226, 9.900328 
7.497771e+3, 2.8390035e+2, -233508.84, -317742.78, -7460.6265, 0.0021417858, 0.00031699825, -232853.16, -75075.875, 0.0, 9.9969, 9.887106 
7.4977267e+3, 2.9378885e+2, -139830.0, -219975.23, -7027.5684, 0.0021316307, -0.00015709923, -139218.45, -78348.47, 0.0, 9.992665, 9.888236 
7.497687e+3, 3.0370754e+2, -52515.82, -82404.11, -3314.8843, 0.0021254139, 0.00027894834, -52152.586, -52152.586, 0.0, 9.988536, 9.9492235 
7.497653e+3, 3.1365925e+2, -56857.69, -82056.945, -2654.2107, 0.0021167444, 0.00002693293, -56581.16, -56581.16, 0.0, 9.984539, 9.951385 
7.508687e+3, 1.2509093e+2, -1634304.9, -1720669.6, -1306.8997, 0.0020847437, -0.00020541868, -1634285.1, 79824.92, 0.0, 10.0726185, 9.957673 
7.508646e+3, 1.3504869e+2, -1544324.4, -1627972.4, -1776.1522, 0.0021635457, -0.000079147074, -1544286.8, 72237.11, 0.0, 10.068172, 9.956933 
7.5086e+3, 1.4500208e+2, -1459895.3, -1545682.3, -5680.0225, 0.0021910034, 0.00031790213, -1459520.8, 59459.89, 0.0, 10.063588, 9.949705 
7.5085485e+3, 1.5495172e+2, -1369846.8, -1452533.3, -6050.379, 0.0021735523, 0.000071540286, -1369406.4, 52067.83, 0.0, 10.0589, 9.949222 
7.508494e+3, 1.6489716e+2, -1285611.9, -1370477.3, -8949.304, 0.0021639597, 0.00013265006, -1284678.5, 39330.46, 0.0, 10.054113, 9.941782 
7.508436e+3, 1.7483902e+2, -1195498.3, -1277025.8, -9258.398, 0.0021702433, 0.000048855414, -1194460.1, 32118.4, 0.0, 10.049248, 9.941424 
7.508376e+3, 1.8477675e+2, -1111188.1, -1194815.3, -11165.558, 0.0021691567, 0.00020138154, -1109723.0, 19465.803, 0.0, 10.044317, 9.933946 
7.5083137e+3, 1.9471078e+2, -1020951.8, -1101072.6, -11376.239, 0.0021638153, 0.000059435988, -1019367.8, 12467.506, 0.0, 10.039329, 9.933673 
7.50825e+3, 2.0464064e+2, -936599.2, -1018919.8, -12291.398, 0.0021598258, 0.00017724077, -934803.1, -280.54996, 0.0, 10.034318, 9.925965 
7.5081855e+3, 2.1456674e+2, -846153.94, -924903.6, -12418.745, 0.002158487, -0.000016120312, -844241.94, -6995.0767, 0.0, 10.029288, 9.925721 
7.508122e+3, 2.244886e+2, -761690.3, -842831.94, -12351.758, 0.002157258, 0.0002335863, -759851.75, -19839.166, 0.0, 10.024262, 9.917739 
7.5080574e+3, 2.3440656e+2, -670932.25, -748444.9, -12391.536, 0.002157521, 0.000019531843, -668999.5, -26182.877, 0.0, 10.019238, 9.917562 
7.507995e+3, 2.4431993e+2, -586464.2, -666789.0, -11366.632, 0.0021546292, 0.00018181975, -584886.7, -39221.125, 0.0, 10.014243, 9.909065 
7.5079334e+3, 2.5422934e+2, -495133.72, -571617.8, -11287.129, 0.0021480646, -0.0000017320957, -493502.78, -44949.48, 0.0, 10.009273, 9.909197 
7.507875e+3, 2.641339e+2, -410738.13, -490678.8, -9316.411, 0.0021447386, 0.00024461883, -409666.72, -58178.234, 0.0, 10.004361, 9.89991 
7.507819e+3, 2.7403468e+2, -318513.6, -394213.94, -9090.263, 0.0021407516, -0.00010570566, -317437.3, -62976.43, 0.0, 9.999512, 9.900655 
7.507766e+3, 2.8392908e+2, -236252.08, -318365.2, -6281.8022, 0.0021403027, 0.0003252541, -235774.3, -78278.46, 0.0, 9.994728, 9.887718 
7.5077176e+3, 2.938182e+2, -143255.11, -220900.31, -5835.831, 0.0021373965, -0.00015788405, -142818.94, -82236.53, 0.0, 9.990017, 9.88887 
7.5076735e+3, 3.0373758e+2, -56561.105, -83513.6, -2052.973, 0.002131941, 0.00027518303, -56405.63, -56405.63, 0.0, 9.985405, 9.949953 
7.5076354e+3, 3.1369004e+2, -61626.902, -83514.484, -1391.8103, 0.0021162708, 0.000036771813, -61538.754, -61538.754, 0.0, 9.98092, 9.952116 
7.51876e+3, 1.2512887e+2, -1634861.8, -1722230.0, -2603.3196, 0.002225139, 0.00029272182, -1634784.3, 78953.85, 0.0, 10.072838, 9.956587 
7.518714e+3, 1.3508523e+2, -1544917.6, -1629545.0, -3082.705, 0.002187104, 0.0000098382725, -1544805.5, 71360.336, 0.0, 10.068363, 9.955851 
7.518663e+3, 1.450375e+2, -1460340.8, -1546938.4, -7086.4565, 0.0021664165, 0.00024359702, -1459764.6, 58868.89, 0.0, 10.063755, 9.94883 
7.5186074e+3, 1.5498632e+2, -1370320.3, -1453802.8, -7464.011, 0.0021768592, 0.00007681952, -1369658.3, 51476.84, 0.0, 10.059045, 9.948344 
7.518548e+3, 1.6493098e+2, -1285997.4, -1371541.1, -10433.433, 0.0021761653, 0.00016581547, -1284743.3, 38934.254, 0.0, 10.054237, 9.941043 
7.518485e+3, 1.7487209e+2, -1195916.1, -1278107.0, -10734.193, 0.002174237, 0.000050496456, -1194537.4, 31717.205, 0.0, 10.049349, 9.940683 
7.51842e+3, 1.848092e+2, -1111438.3, -1195527.6, -12692.986, 0.0021702053, 0.00019522721, -1109564.1, 19306.902, 0.0, 10.0443945, 9.933448 
7.518352e+3, 1.9474272e+2, -1021235.0, -1101802.6, -12913.598, 0.0021696151, 0.00007048866, -1019215.75, 12306.504, 0.0, 10.039383, 9.933173 
7.5182843e+3, 2.0467222e+2, -936735.9, -1019319.5, -13859.7295, 0.0021668007, 0.0001917027, -934471.9, -258.5709, 0.0, 10.03435, 9.925685 
7.5182146e+3, 2.14598e+2, -846322.0, -925320.5, -13997.874, 0.0021636356, -0.000014960582, -843915.06, -6974.6436, 0.0, 10.0293, 9.925441 
7.5181454e+3, 2.245197e+2, -761727.0, -842946.06, -13944.019, 0.0021587398, 0.00023353734, -759399.75, -19691.844, 0.0, 10.024254, 9.917662 
7.518077e+3, 2.3443757e+2, -670998.5, -748574.56, -13994.852, 0.0021539298, 0.000030734132, -668551.0, -26038.375, 0.0, 10.019212, 9.917483 
7.518009e+3, 2.4435098e+2, -586392.3, -666601.4, -12965.241, 0.0021530697, 0.00019459266, -584348.6, -38987.34, 0.0, 10.014199, 9.9092 
7.517943e+3, 2.542605e+2, -495079.22, -571434.0, -12898.448, 0.0021573876, -0.000002292204, -492959.2, -44711.395, 0.0, 10.009215, 9.909336 
7.517879e+3, 2.641653e+2, -410560.78, -490208.47, -10899.179, 0.0021551582, 0.00024402114, -409096.25, -57915.574, 0.0, 10.004291, 9.900244 
7.517818e+3, 2.7406645e+2, -318355.03, -393744.72, -10682.758, 0.00213783, -0.0000905971, -316870.5, -62720.89, 0.0, 9.999426, 9.900997 
7.517761e+3, 2.8396133e+2, -235901.67, -317462.1, -7837.878, 0.0021335126, 0.00034298355, -235155.3, -77975.42, 0.0, 9.994629, 9.888352 
7.5177073e+3, 2.9385108e+2, -142914.9, -219977.69, -7398.2085, 0.0021400657, -0.00016077378, -142211.1, -81950.94, 0.0, 9.989903, 9.889527 
7.5176585e+3, 3.0377114e+2, -56198.863, -82504.13, -3539.4697, 0.0021368377, 0.00027185332, -55730.938, -55730.938, 0.0, 9.985277, 9.950687 
7.517616e+3, 3.1372437e+2, -61294.77, -82521.9, -2877.48, 0.0021115376, 0.00005524708, -60911.625, -60911.625, 0.0, 9.980772, 9.952848 
7.5288355e+3, 1.2517178e+2, -1627765.9, -1719656.0, -1291.8835, 0.0022263506, 0.00030840322, -1627747.8, 85569.945, 0.0, 10.0778265, 9.955474 
7.528785e+3, 1.3512701e+2, -1538549.0, -1627370.9, -1783.8677, 0.0021932155, 0.000024522307, -1538513.3, 77243.07, 0.0, 10.072907, 9.954746 
7.528729e+3, 1.4507829e+2, -1454502.9, -1544813.8, -5862.0244, 0.0021739868, 0.00024902844, -1454123.9, 64109.89, 0.0, 10.067856, 9.947938 
7.5286686e+3, 1.5502621e+2, -1365194.9, -1452070.9, -6234.9023, 0.0021813698, 0.00007723321, -1364749.8, 55994.4, 0.0, 10.06271, 9.947455 
7.528604e+3, 1.649701e+2, -1281382.1, -1369835.5, -9246.8125, 0.0021798087, 0.00016484212, -1280425.9, 42868.24, 0.0, 10.057465, 9.940374 
7.5285363e+3, 1.7491053e+2, -1191999.9, -1276784.8, -9512.74, 0.0021767684, 0.000054990764, -1190945.6, 34932.16, 0.0, 10.052143, 9.940011 
7.528466e+3, 1.8484704e+2, -1108090.9, -1194333.5, -11498.023, 0.0021733022, 0.00019980689, -1106584.3, 21915.725, 0.0, 10.046747, 9.93293 
7.528393e+3, 1.9478007e+2, -1018605.4, -1100996.5, -11709.587, 0.0021733015, 0.00007094644, -1016973.5, 14182.943, 0.0, 10.0412855, 9.9326515 
7.5283194e+3, 2.0470913e+2, -934627.44, -1018534.4, -12658.649, 0.0021710226, 0.00019330857, -932759.25, 1092.2631, 0.0, 10.035806, 9.925384 
7.528245e+3, 2.1463463e+2, -844906.7, -924902.9, -12787.183, 0.0021672503, -0.0000071273766, -842912.44, -6330.891, 0.0, 10.030313, 9.925136 
7.5281703e+3, 2.2455612e+2, -760837.25, -842559.94, -12719.088, 0.0021629496, 0.00024035812, -758903.44, -19552.469, 0.0, 10.024821, 9.917564 
7.528096e+3, 2.344739e+2, -670801.0, -748545.2, -12758.953, 0.0021600337, 0.000030243247, -668760.6, -26603.863, 0.0, 10.019328, 9.917385 
7.528023e+3, 2.443873e+2, -586723.9, -666604.7, -11693.647, 0.0021581238, 0.00019319064, -585047.25, -40041.863, 0.0, 10.013867, 9.909307 
7.5279516e+3, 2.5429696e+2, -496088.47, -571775.75, -11620.711, 0.0021576283, 0.0000046200316, -494344.47, -46453.707, 0.0, 10.008436, 9.909445 
7.527883e+3, 2.6420197e+2, -412112.16, -490587.1, -9570.275, 0.0021556504, 0.00025246284, -410961.88, -60140.246, 0.0, 10.003053, 9.900553 
7.527817e+3, 2.741034e+2, -320604.2, -394460.94, -9349.502, 0.0021440522, -0.00008856356, -319439.0, -65651.45, 0.0, 9.997719, 9.90131 
7.5277543e+3, 2.8399873e+2, -238640.0, -318053.5, -6439.4697, 0.0021407837, 0.00034353655, -238121.22, -81307.9, 0.0, 9.992441, 9.888979 
7.5276965e+3, 2.9388916e+2, -146359.61, -220884.88, -5989.026, 0.0021406007, -0.00015238974, -145881.39, -85994.18, 0.0, 9.987224, 9.890174 
7.527643e+3, 3.0380988e+2, -60326.418, -83665.94, -2075.5464, 0.0021348158, 0.0002799889, -60143.28, -60143.28, 0.0, 9.982092, 9.951394 
7.527595e+3, 3.137638e+2, -66207.14, -84068.88, -1420.8431, 0.0021160864, 0.000060426675, -66094.83, -66094.83, 0.0, 9.977061, 9.953551 
7.538913e+3, 1.2521826e+2, -1628272.0, -1721225.0, -2695.479, 0.002173613, 0.00013480613, -1628193.9, 84668.22, 0.0, 10.078087, 9.954355 
7.5388575e+3, 1.3517252e+2, -1539093.8, -1628947.5, -3200.6292, 0.0021938086, 0.000008531422, -1538979.9, 76330.61, 0.0, 10.073135, 9.953636 
7.5387967e+3, 1.4512286e+2, -1454911.6, -1546055.9, -7373.9634, 0.0021909769, 0.00029357747, -1454318.9, 63478.34, 0.0, 10.068041, 9.947056 
7.538731e+3, 1.5506986e+2, -1365678.9, -1453348.3, -7760.2847, 0.0021869729, 0.0000794267, -1364997.3, 55319.215, 0.0, 10.062842, 9.946575 
7.5386614e+3, 1.6501297e+2, -1281713.0, -1370748.4, -10850.281, 0.002179602, 0.00015628152, -1280409.9, 42464.12, 0.0, 10.057559, 9.939739 
7.5385886e+3, 1.7495279e+2, -1192366.1, -1277719.3, -11121.951, 0.0021794587, 0.00006329206, -1190940.8, 34523.082, 0.0, 10.052215, 9.939373 
7.538513e+3, 1.8488874e+2, -1108361.3, -1195054.3, -13171.533, 0.0021765071, 0.00021224817, -1106404.3, 21687.316, 0.0, 10.0468025, 9.932434 
7.538435e+3, 1.9482122e+2, -1018887.9, -1101727.6, -13386.557, 0.002176228, 0.00007271855, -1016778.4, 13974.5625, 0.0, 10.041332, 9.932151 
7.538355e+3, 2.0474993e+2, -934754.2, -1018930.8, -14363.159, 0.002173349, 0.00019498845, -932370.9, 1080.9551, 0.0, 10.035837, 9.925102 
7.538275e+3, 2.1467514e+2, -845073.56, -925324.2, -14505.293, 0.0021697497, 0.0000055611854, -842532.2, -6347.6484, 0.0, 10.03032, 9.9248495 
7.5381947e+3, 2.2459646e+2, -760863.5, -842662.3, -14456.564, 0.002166697, 0.00025390918, -758383.7, -19427.934, 0.0, 10.024809, 9.917493 
7.5381154e+3, 2.3451415e+2, -670849.94, -748662.75, -14511.716, 0.0021668517, 0.000029576317, -668231.7, -26469.31, 0.0, 10.019303, 9.91731 
7.538037e+3, 2.4442756e+2, -586640.3, -666421.56, -13443.578, 0.002162499, 0.00019188777, -584435.9, -39825.117, 0.0, 10.013828, 9.909432 
7.53796e+3, 2.5433737e+2, -496027.5, -571602.75, -13385.728, 0.0021520641, 0.000017362925, -493726.7, -46231.902, 0.0, 10.008382, 9.909572 
7.537886e+3, 2.6424262e+2, -411924.8, -490121.53, -11317.524, 0.0021498858, 0.000267912, -410319.75, -59896.313, 0.0, 10.002986, 9.900877 
7.5378144e+3, 2.7414435e+2, -320432.75, -393997.22, -11109.561, 0.0021504622, -0.000087645596, -318791.63, -65405.4, 0.0, 9.997639, 9.901642 
7.537747e+3, 2.8404015e+2, -238253.34, -317115.3, -8173.626, 0.0021494096, 0.00034554536, -237415.11, -81007.82, 0.0, 9.992352, 9.8896265 
7.537684e+3, 2.9393128e+2, -145979.4, -219926.55, -7734.0254, 0.0021370114, -0.000136181, -145179.17, -85704.695, 0.0, 9.987123, 9.890844 
7.537624e+3, 3.0385268e+2, -59952.496, -82679.375, -3759.2017, 0.002127379, 0.00030035828, -59346.836, -59346.836, 0.0, 9.981977, 9.952104 
7.5375724e+3, 3.1380728e+2, -65873.26, -83112.234, -3106.1023, 0.0021184352, 0.00006388222, -65330.68, -65330.68, 0.0, 9.976924, 9.95425 
7.5489944e+3, 1.2527092e+2, -1620713.3, -1718431.6, -1220.0323, 0.0021810685, 0.00013294014, -1620698.0, 91648.086, 0.0, 10.083378, 9.953202 
7.548933e+3, 1.3522401e+2, -1532332.9, -1626585.0, -1743.9314, 0.00219075, -0.0000019837037, -1532300.6, 82505.16, 0.0, 10.077934, 9.952499 
7.5488675e+3, 1.4517333e+2, -1448777.6, -1543794.6, -6006.1875, 0.0021881338, 0.00028310032, -1448399.5, 68903.11, 0.0, 10.072333, 9.946133 
7.548796e+3, 1.5511942e+2, -1360373.0, -1451535.6, -6398.387, 0.0021904607, 0.000083802544, -1359926.0, 59904.746, 0.0, 10.066622, 9.94566 
7.548721e+3, 1.6506179e+2, -1276900.0, -1368832.3, -9500.725, 0.0021860697, 0.00016264756, -1275928.4, 46467.184, 0.0, 10.060857, 9.939148 
7.548642e+3, 1.75001e+2, -1188276.0, -1276201.1, -9725.578, 0.0021828678, 0.000064023654, -1187213.0, 37778.293, 0.0, 10.055065, 9.938777 
7.5485605e+3, 1.8493642e+2, -1104846.6, -1193696.6, -11773.131, 0.002178886, 0.00021199224, -1103313.1, 24311.125, 0.0, 10.049219, 9.931968 
7.5484765e+3, 1.9486846e+2, -1016041.06, -1100735.4, -11953.445, 0.0021782364, 0.0000762594, -1014386.3, 15903.966, 0.0, 10.043332, 9.931678 
7.548392e+3, 2.0479675e+2, -932458.8, -1018033.8, -12932.596, 0.0021761688, 0.00019865028, -930547.06, 2445.8494, 0.0, 10.0373955, 9.9248 
7.5483054e+3, 2.1472166e+2, -843509.0, -924818.25, -13057.927, 0.0021742906, 0.0000057889697, -841463.44, -5734.7007, 0.0, 10.031414, 9.92454 
7.54822e+3, 2.2464277e+2, -759841.1, -842197.9, -12982.606, 0.002171061, 0.0002548639, -757843.0, -19341.102, 0.0, 10.025447, 9.91739 
7.548135e+3, 2.3456037e+2, -670513.5, -748555.56, -13024.54, 0.0021691956, 0.000037143906, -668397.2, -27087.678, 0.0, 10.019498, 9.917203 
7.54805e+3, 2.4447377e+2, -586842.1, -666354.0, -11922.239, 0.0021650393, 0.00019961152, -585092.94, -40934.97, 0.0, 10.01357, 9.909528 
7.547968e+3, 2.5438365e+2, -496935.53, -571892.25, -11853.667, 0.0021568525, 0.000020653524, -495105.66, -48064.563, 0.0, 10.007658, 9.909666 
7.547888e+3, 2.6428908e+2, -413393.7, -490453.03, -9733.599, 0.0021544676, 0.0002692778, -412183.22, -62215.355, 0.0, 10.001791, 9.901176 
7.547811e+3, 2.7419117e+2, -322614.38, -394677.88, -9518.549, 0.0021510387, -0.00008383906, -321378.3, -68450.64, 0.0, 9.995966, 9.901941 
7.5477386e+3, 2.840874e+2, -240932.5, -317659.7, -6523.7456, 0.0021498152, 0.0003502549, -240381.78, -84437.5, 0.0, 9.990188, 9.890254 
7.547669e+3, 2.9397917e+2, -149389.05, -220801.25, -6078.0205, 0.0021412964, -0.00012797653, -148875.42, -89870.266, 0.0, 9.984453, 9.891489 
7.547605e+3, 3.0390128e+2, -64104.63, -83865.92, -2074.2302, 0.0021315583, 0.00030210247, -63889.258, -63889.258, 0.0, 9.978776, 9.952785 
7.547547e+3, 3.138565e+2, -70881.58, -84723.63, -1430.0315, 0.0021202865, 0.00005254124, -70735.39, -70735.39, 0.0, 9.973151, 9.954923 
7.559078e+3, 1.253278e+2, -1621217.0, -1720043.5, -2735.839, 0.002207024, 0.0002065578, -1621141.3, 90647.54, 0.0, 10.0836525, 9.952044 
7.559011e+3, 1.3527967e+2, -1532895.8, -1628212.9, -3270.0657, 0.002192072, -0.0000011705042, -1532783.8, 81476.71, 0.0, 10.078161, 9.951352 
7.5589395e+3, 1.4522794e+2, -1449193.6, -1545078.6, -7634.7134, 0.0021791211, 0.0002656735, -1448589.6, 68177.84, 0.0, 10.072522, 9.945216 
7.5588626e+3, 1.5517312e+2, -1360821.4, -1452826.5, -8038.4116, 0.0021938642, 0.000091393114, -1360124.4, 59180.06, 0.0, 10.066782, 9.94475 
7.5587815e+3, 1.6511479e+2, -1277095.9, -1369564.8, -11199.382, 0.002192889, 0.000178259, -1275758.9, 46117.35, 0.0, 10.060979, 9.938606 
7.558697e+3, 1.7505343e+2, -1188545.8, -1276974.1, -11461.355, 0.0021868518, 0.00006703165, -1187084.4, 37393.082, 0.0, 10.05514, 9.938233 
7.55861e+3, 1.849884e+2, -1105064.0, -1194299.5, -13571.206, 0.002180642, 0.00021322341, -1103045.6, 24069.328, 0.0, 10.049258, 9.931548 
7.55852e+3, 1.9492e+2, -1016292.7, -1101362.3, -13754.735, 0.0021798944, 0.000085378044, -1014124.0, 15661.161, 0.0, 10.043351, 9.931252 
7.558429e+3, 2.0484795e+2, -932597.8, -1018423.06, -14785.09, 0.0021783633, 0.00020794656, -930122.2, 2369.028, 0.0, 10.037403, 9.924529 
7.5583375e+3, 2.1477258e+2, -843654.75, -925218.7, -14924.075, 0.0021782217, 0.000006606045, -841009.8, -5780.067, 0.0, 10.03142, 9.924262 
7.5582457e+3, 2.246935e+2, -759841.3, -842286.94, -14861.285, 0.0021734976, 0.00025853675, -757244.3, -19239.67, 0.0, 10.025443, 9.917317 
7.5581545e+3, 2.3461103e+2, -670553.6, -748672.3, -14922.055, 0.0021674794, 0.0000508426, -667800.3, -26987.367, 0.0, 10.01947, 9.917124 
7.558064e+3, 2.4452448e+2, -586752.7, -666169.06, -13829.037, 0.0021638398, 0.00021428036, -584413.5, -40752.336, 0.0, 10.013525, 9.909653 
7.5579756e+3, 2.5443447e+2, -496865.63, -571719.7, -13778.526, 0.002161984, 0.000025236623, -494409.97, -47866.797, 0.0, 10.007602, 9.909789 
7.5578904e+3, 2.6434013e+2, -413190.8, -489984.03, -11648.475, 0.0021587324, 0.00027271608, -411462.78, -61994.996, 0.0, 10.001726, 9.901498 
7.557807e+3, 2.7424252e+2, -322423.66, -394211.88, -11451.641, 0.0021465598, -0.000074300086, -320641.16, -68216.8, 0.0, 9.9958935, 9.9022665 
7.557728e+3, 2.8413925e+2, -240518.08, -316705.75, -8444.103, 0.0021439665, 0.0003640035, -239593.42, -84157.19, 0.0, 9.990107, 9.890903 
7.557654e+3, 2.9403168e+2, -148984.47, -219832.78, -8011.186, 0.0021443674, -0.000119846765, -148089.89, -89599.29, 0.0, 9.98436, 9.892158 
7.5575835e+3, 3.0395448e+2, -63716.38, -82899.88, -3974.4023, 0.0021363273, 0.00030763424, -62925.566, -62925.566, 0.0, 9.978674, 9.953469 
7.55752e+3, 3.1391037e+2, -70518.85, -83785.55, -3342.6548, 0.0021160312, 0.000044128315, -69724.234, -69724.234, 0.0, 9.973038, 9.955593 
7.569164e+3, 1.2539144e+2, -1613201.0, -1716985.6, -1061.694, 0.002201246, 0.00020056411, -1613190.3, 97974.875, 0.0, 10.089217, 9.950888 
7.569092e+3, 1.3534218e+2, -1525776.3, -1625636.0, -1599.3134, 0.0022000214, 0.000012782143, -1525750.6, 87897.27, 0.0, 10.083172, 9.950215 
7.5690144e+3, 1.452894e+2, -1442746.9, -1542627.1, -6018.344, 0.0021891193, 0.00027674754, -1442385.5, 73779.32, 0.0, 10.076995, 9.944294 
7.568931e+3, 1.5523368e+2, -1355198.4, -1450812.4, -6413.4233, 0.0021901138, 0.00008718235, -1354770.1, 63940.906, 0.0, 10.07074, 9.943844 
7.568844e+3, 1.6517454e+2, -1272110.4, -1367646.3, -9606.221, 0.0021889254, 0.00017121989, -1271154.0, 50136.563, 0.0, 10.064418, 9.93792 
7.5687534e+3, 1.7511252e+2, -1184386.1, -1275498.0, -9885.404, 0.0021909594, 0.0000715327, -1183325.9, 40572.496, 0.0, 10.05806, 9.937552 
7.5686604e+3, 1.8504697e+2, -1101370.4, -1192681.0, -11973.068, 0.0021872201, 0.000219345, -1099826.5, 26714.39, 0.0, 10.051704, 9.931209 
7.5685644e+3, 1.9497822e+2, -1013286.94, -1100122.5, -12084.889, 0.0021831477, 0.00008473824, -1011636.44, 17578.11, 0.0, 10.045368, 9.9309025 
7.568467e+3, 2.0490587e+2, -930192.6, -1017418.5, -13086.927, 0.0021802883, 0.00020696162, -928271.44, 3652.1812, 0.0, 10.038999, 9.924252 
7.568369e+3, 2.1483022e+2, -841896.75, -924567.6, -13197.915, 0.002180727, 0.00001102378, -839840.9, -5175.9536, 0.0, 10.032607, 9.923973 
7.568272e+3, 2.2475095e+2, -758624.2, -841709.75, -13120.895, 0.0021757567, 0.00026299988, -756601.4, -19159.629, 0.0, 10.026189, 9.917208 
7.568174e+3, 2.3466834e+2, -670074.8, -748483.7, -13164.245, 0.0021699856, 0.000053250817, -667923.7, -27672.438, 0.0, 10.019741, 9.9170065 
7.5680774e+3, 2.4458179e+2, -586830.44, -666020.06, -12026.702, 0.0021671301, 0.00021580957, -585044.2, -41944.605, 0.0, 10.013328, 9.909746 
7.5679827e+3, 2.544919e+2, -497644.97, -571929.8, -11959.905, 0.0021660686, 0.000028182068, -495766.88, -49786.195, 0.0, 10.006945, 9.909877 
7.567891e+3, 2.643977e+2, -414540.28, -490255.9, -9778.731, 0.0021635306, 0.00027737042, -413297.72, -64394.227, 0.0, 10.000599, 9.901777 
7.567802e+3, 2.743004e+2, -324492.34, -394841.0, -9576.507, 0.0021481893, -0.000064494496, -323212.0, -71354.68, 0.0, 9.994287, 9.902543 
7.5677174e+3, 2.8419757e+2, -243075.47, -317159.88, -6520.424, 0.0021455411, 0.00036868957, -242505.95, -87641.09, 0.0, 9.988001, 9.891538 
7.567637e+3, 2.9409063e+2, -152301.56, -220635.73, -6076.354, 0.0021467714, -0.00012535528, -151765.45, -93852.5, 0.0, 9.981731, 9.892806 
7.5675607e+3, 3.0401406e+2, -67846.945, -84135.04, -2035.2078, 0.0021382403, 0.00031588317, -67596.49, -67596.49, 0.0, 9.975504, 9.95408 
7.567491e+3, 3.1397063e+2, -75508.17, -85455.35, -1435.0526, 0.002118695, 0.000104267616, -75305.28, -75305.28, 0.0, 9.9693, 9.956186 
7.579253e+3, 1.2545972e+2, -1613702.6, -1718579.6, -2720.7354, 0.0021876732, 0.00018052332, -1613632.1, 96863.89, 0.0, 10.089475, 9.94974 
7.579175e+3, 1.3540933e+2, -1526310.8, -1627229.1, -3276.7725, 0.0022113745, 0.000029315872, -1526204.4, 86785.37, 0.0, 10.083396, 9.949082 
7.579091e+3, 1.4535558e+2, -1443123.3, -1543867.0, -7783.951, 0.0021993604, 0.0003008685, -1442525.4, 72991.3, 0.0, 10.077187, 9.943395 
7.579002e+3, 1.5529892e+2, -1355603.3, -1452051.3, -8200.143, 0.0021866222, 0.00008518132, -1354911.0, 63160.75, 0.0, 10.070904, 9.942957 
7.578909e+3, 1.65239e+2, -1272374.4, -1368565.4, -11444.0625, 0.0021829808, 0.00016636618, -1271031.6, 49627.28, 0.0, 10.064553, 9.937245 
7.5788116e+3, 1.7517632e+2, -1184682.3, -1276425.4, -11736.323, 0.002194368, 0.00008078992, -1183204.8, 40068.535, 0.0, 10.058169, 9.936885 
7.578712e+3, 1.851103e+2, -1101391.9, -1193000.8, -13857.417, 0.0021932474, 0.00023082721, -1099341.6, 26578.604, 0.0, 10.051776, 9.930943 
7.5786096e+3, 1.9504127e+2, -1013385.94, -1100489.4, -14020.27, 0.0021859354, 0.000087464054, -1011184.8, 17411.803, 0.0, 10.045392, 9.930632 
7.5785065e+3, 2.0496868e+2, -930301.44, -1017742.75, -15078.682, 0.002181116, 0.00021069842, -927774.25, 3533.8098, 0.0, 10.038993, 9.924023 
7.5784016e+3, 2.1489279e+2, -842040.4, -924922.6, -15192.813, 0.0021805146, 0.000021609321, -839343.25, -5291.4985, 0.0, 10.032584, 9.923733 
7.578297e+3, 2.2481339e+2, -758642.94, -841802.9, -15156.06, 0.0021751686, 0.0002741593, -755966.8, -19136.83, 0.0, 10.026159, 9.917138 
7.5781935e+3, 2.3473069e+2, -670101.0, -748592.7, -15219.517, 0.0021703916, 0.000056533943, -667253.3, -27612.975, 0.0, 10.0197115, 9.916927 
7.578091e+3, 2.4464415e+2, -586709.44, -665812.25, -14087.592, 0.0021670118, 0.00021947482, -584275.44, -41787.03, 0.0, 10.013289, 9.909876 
7.5779897e+3, 2.545544e+2, -497556.7, -571744.6, -14045.856, 0.002165305, 0.00003653999, -494986.47, -49618.234, 0.0, 10.006888, 9.910002 
7.5778913e+3, 2.644604e+2, -414336.78, -489802.5, -11865.345, 0.0021624805, 0.00029000427, -412515.2, -64226.31, 0.0, 10.000531, 9.902084 
7.5777966e+3, 2.743634e+2, -324304.4, -394397.34, -11682.274, 0.002149019, -0.000051378163, -322408.6, -71168.88, 0.0, 9.99421, 9.902849 
7.577705e+3, 2.8426108e+2, -242628.63, -316171.1, -8633.174, 0.0021459889, 0.00037982783, -241628.77, -87386.19, 0.0, 9.987923, 9.892203 
7.5776184e+3, 2.941548e+2, -151845.6, -219627.16, -8210.079, 0.0021448836, -0.00012983565, -150865.33, -93581.24, 0.0, 9.981655, 9.893488 
7.577536e+3, 3.0407888e+2, -67472.47, -83271.766, -4153.56, 0.0021350821, 0.00033408214, -66447.07, -66447.07, 0.0, 9.975423, 9.954679 
7.5774604e+3, 3.1403607e+2, -75179.555, -84640.89, -3564.8606, 0.0021166934, 0.00018444724, -73986.76, -73986.76, 0.0, 9.969199, 9.956761 
7.5893456e+3, 1.2553568e+2, -1605358.8, -1715316.9, -830.3267, 0.0021992247, 0.00018159233, -1605352.5, 104399.07, 0.0, 10.095229, 9.948586 
7.589261e+3, 1.3548413e+2, -1518883.9, -1624454.0, -1384.6881, 0.0022007925, 0.00001734895, -1518865.6, 93391.06, 0.0, 10.088579, 9.947951 
7.589171e+3, 1.4542937e+2, -1436383.5, -1541220.4, -5919.3677, 0.0021925303, 0.00028939935, -1436050.3, 78743.18, 0.0, 10.08182, 9.942483 
7.589075e+3, 1.5537181e+2, -1349701.9, -1449845.5, -6318.7534, 0.0021963955, 0.00009299133, -1349304.8, 68052.695, 0.0, 10.075009, 9.942066 
7.588975e+3, 1.6531113e+2, -1267114.1, -1366471.8, -9561.771, 0.0021948798, 0.00017341418, -1266202.3, 53749.9, 0.0, 10.068142, 9.936562 
7.588872e+3, 1.7524774e+2, -1180219.1, -1274754.8, -9836.051, 0.0021926162, 0.00007418654, -1179206.5, 43366.805, 0.0, 10.061256, 9.936211 
7.588765e+3, 1.8518116e+2, -1097552.3, -1191428.3, -11960.029, 0.0021885964, 0.00022306695, -1096052.5, 29173.307, 0.0, 10.054358, 9.930474 
7.5886565e+3, 1.9511166e+2, -1010346.44, -1099348.8, -12147.395, 0.0021889515, 0.000089482106, -1008718.3, 19188.514, 0.0, 10.047471, 9.930161 
7.588546e+3, 2.0503879e+2, -927712.4, -1016445.56, -13165.109, 0.0021856474, 0.00021600822, -925800.3, 4820.8027, 0.0, 10.040606, 9.923895 
7.588435e+3, 2.1496275e+2, -840116.44, -923991.7, -13192.6045, 0.002181314, 0.00002404643, -838090.3, -4724.1685, 0.0, 10.033779, 9.923589 
7.588324e+3, 2.2488323e+2, -757326.9, -841131.25, -13106.268, 0.0021761786, 0.00027387845, -755325.0, -19179.41, 0.0, 10.026937, 9.917043 
7.588213e+3, 2.3480043e+2, -669429.8, -748269.06, -13142.855, 0.0021761125, 0.00005832755, -667296.56, -28339.633, 0.0, 10.020077, 9.916818 
7.588104e+3, 2.4471389e+2, -586586.5, -665558.56, -11983.9795, 0.0021727881, 0.00022380524, -584808.0, -43002.836, 0.0, 10.013207, 9.909947 
7.587997e+3, 2.5462416e+2, -498183.97, -571880.1, -11930.172, 0.0021643036, 0.000044695033, -496300.8, -51616.42, 0.0, 10.006317, 9.910064 
7.587892e+3, 2.645304e+2, -415540.6, -489972.53, -9690.239, 0.0021622507, 0.00029394566, -414299.72, -66696.36, 0.0, 9.999475, 9.902366 
7.58779e+3, 2.744336e+2, -326233.84, -394933.0, -9488.468, 0.0021533067, -0.00005649682, -324947.4, -74395.83, 0.0, 9.992672, 9.903123 
7.587692e+3, 2.8433177e+2, -245033.47, -316535.78, -6387.3774, 0.0021522385, 0.00038229965, -244467.36, -90917.31, 0.0, 9.9859, 9.892825 
7.5875986e+3, 2.9422614e+2, -154962.1, -220325.11, -5961.6284, 0.002146268, -0.000092673705, -154422.8, -97837.69, 0.0, 9.979147, 9.894117 
7.5875103e+3, 3.041508e+2, -71437.66, -84469.836, -1943.7023, 0.002134648, 0.00032202114, -71153.94, -71153.94, 0.0, 9.972373, 9.955227 
7.587428e+3, 3.1410837e+2, -80079.65, -86313.74, -1377.1208, 0.0021236984, 0.000020211926, -79788.99, -79788.99, 0.0, 9.965532, 9.957291 
7.599441e+3, 1.256168e+2, -1605823.8, -1716868.6, -2632.5474, 0.0022113752, 0.0001971742, -1605761.4, 103195.14, 0.0, 10.095487, 9.947454 
7.59935e+3, 1.355641e+2, -1519390.5, -1626005.8, -3208.6082, 0.0021928558, 0.0000066481707, -1519294.0, 92178.875, 0.0, 10.088796, 9.946837 
7.599253e+3, 1.4550836e+2, -1436733.4, -1542411.1, -7815.1274, 0.0021812182, 0.0002818911, -1436158.6, 77860.72, 0.0, 10.081998, 9.94161 
7.59915e+3, 1.5544996e+2, -1350076.6, -1451028.5, -8241.053, 0.0022086038, 0.00010618461, -1349408.4, 67183.28, 0.0, 10.07516, 9.941211 
7.599043e+3, 1.6538852e+2, -1267346.8, -1367347.5, -11532.095, 0.0022080957, 0.00018814298, -1266034.1, 53159.613, 0.0, 10.068272, 9.935907 
7.5989324e+3, 1.7532447e+2, -1180458.1, -1275619.5, -11833.169, 0.0021885305, 0.000071187176, -1179008.9, 42812.563, 0.0, 10.061374, 9.935569 
7.598819e+3, 1.8525735e+2, -1097672.9, -1192021.5, -13984.5625, 0.0021809984, 0.00021900135, -1095643.8, 28835.504, 0.0, 10.054452, 9.930016 
7.5987035e+3, 1.951874e+2, -1010510.2, -1099961.1, -14192.503, 0.0021902914, 0.000098436416, -1008312.4, 18852.318, 0.0, 10.047535, 9.929705 
7.5985867e+3, 2.0511428e+2, -927588.44, -1016423.9, -15239.883, 0.002188451, 0.00022938602, -925046.7, 4834.556, 0.0, 10.040637, 9.923858 
7.5984687e+3, 2.150382e+2, -840069.3, -924022.8, -15327.692, 0.0021789195, 0.000029071356, -837358.4, -4731.533, 0.0, 10.033768, 9.923543 
7.598351e+3, 2.2495863e+2, -757320.5, -841178.3, -15299.635, 0.0021740776, 0.00027913277, -754616.4, -19209.701, 0.0, 10.0268955, 9.917002 
7.598233e+3, 2.3487578e+2, -669465.1, -748355.4, -15348.392, 0.002177539, 0.00006646989, -666584.25, -28365.729, 0.0, 10.020017, 9.916761 
7.598117e+3, 2.4478926e+2, -586502.9, -665385.5, -14224.47, 0.0021725497, 0.00023513267, -584016.25, -42949.836, 0.0, 10.013139, 9.910063 
7.598003e+3, 2.5469965e+2, -498105.38, -571721.06, -14192.138, 0.002159095, 0.000057810204, -495464.1, -51519.543, 0.0, 10.006251, 9.910171 
7.597891e+3, 2.6460612e+2, -415306.56, -489483.2, -11950.149, 0.002155359, 0.0003040882, -413428.88, -66567.414, 0.0, 9.999405, 9.902689 
7.5977826e+3, 2.7450964e+2, -326023.3, -394460.84, -11777.381, 0.0021557084, -0.00006154027, -324053.28, -74246.66, 0.0, 9.99259, 9.903443 
7.5976783e+3, 2.8440827e+2, -244584.81, -315558.5, -8685.032, 0.0021548197, 0.00039208133, -243537.48, -90737.266, 0.0, 9.985816, 9.893479 
7.5975776e+3, 2.9430336e+2, -154506.88, -219338.73, -8276.007, 0.0021438084, -0.000042415017, -153467.1, -97638.61, 0.0, 9.979068, 9.89478 
7.597482e+3, 3.0422857e+2, -71061.83, -83661.63, -4299.497, 0.0021316144, 0.000311062, -69734.516, -69734.516, 0.0, 9.972303, 9.955776 
7.5973934e+3, 3.141865e+2, -79701.766, -85534.52, -3763.848, 0.0021256872, -0.00020075424, -77856.66, -77856.66, 0.0, 9.965477, 9.957813 
7.6095396e+3, 1.2570645e+2, -1597177.5, -1713381.4, -531.2148, 0.002194982, 0.00018161129, -1597175.1, 110903.01, 0.0, 10.101397, 9.946325 
7.609441e+3, 1.3565263e+2, -1511715.3, -1623029.3, -1095.4767, 0.0022041278, 0.000022092518, -1511704.5, 98900.875, 0.0, 10.094096, 9.945738 
7.6093376e+3, 1.4559591e+2, -1429774.3, -1539586.8, -5690.1963, 0.0021968468, 0.00029020532, -1429480.1, 83681.25, 0.0, 10.086732, 9.940723 
7.6092273e+3, 1.5553659e+2, -1343955.3, -1448640.8, -6092.676, 0.0022011013, 0.00008928259, -1343601.8, 72140.79, 0.0, 10.079364, 9.940348 
7.6091135e+3, 1.654744e+2, -1261862.3, -1365099.0, -9349.626, 0.0022002487, 0.00017364352, -1261022.4, 57329.72, 0.0, 10.071976, 9.935226 
7.6089954e+3, 1.7540969e+2, -1175712.3, -1273751.8, -9626.212, 0.0021941029, 0.000082198036, -1174776.0, 46210.316, 0.0, 10.064606, 9.934908 
7.6088756e+3, 1.85342e+2, -1093550.3, -1190299.5, -11753.425, 0.0021877647, 0.00023108917, -1092142.9, 31506.82, 0.0, 10.0572, 9.929519 
7.608752e+3, 1.9527154e+2, -1007157.75, -1098644.5, -11934.816, 0.0021902774, 0.000092012866, -1005626.44, 20713.691, 0.0, 10.049793, 9.9292145 
7.608628e+3, 2.0519803e+2, -924848.8, -1015204.56, -12971.504, 0.002187434, 0.00021897756, -923023.5, 6037.0415, 0.0, 10.042401, 9.923565 
7.6085037e+3, 2.1512166e+2, -838096.44, -923214.25, -13099.939, 0.002184107, 0.000028662314, -836125.94, -4316.947, 0.0, 10.035044, 9.923244 
7.6083785e+3, 2.2504196e+2, -755810.5, -840234.7, -13038.962, 0.0021780191, 0.0002823877, -753842.56, -19252.574, 0.0, 10.027707, 9.917029 
7.6082534e+3, 2.3495914e+2, -668638.44, -747782.4, -13003.561, 0.0021763921, 0.00007113088, -666556.6, -29154.885, 0.0, 10.020393, 9.916772 
7.6081306e+3, 2.4487267e+2, -586266.25, -665003.1, -11808.962, 0.0021726072, 0.00023515483, -584533.25, -44284.23, 0.0, 10.013085, 9.910168 
7.608009e+3, 2.5478315e+2, -498528.22, -571691.75, -11740.942, 0.0021643771, 0.000050858325, -496690.25, -53563.844, 0.0, 10.005772, 9.910257 
7.6078904e+3, 2.646898e+2, -416309.22, -489546.38, -9451.322, 0.002162337, 0.00030771378, -415109.2, -69067.69, 0.0, 9.998463, 9.902946 
7.607774e+3, 2.745936e+2, -327797.3, -394920.06, -9271.778, 0.0021537899, -0.000025218049, -326540.16, -77556.125, 0.0, 9.99114, 9.9036875 
7.607663e+3, 2.8449264e+2, -246782.89, -315738.1, -6101.0957, 0.0021549403, 0.0003999518, -246247.23, -94273.78, 0.0, 9.983883, 9.894144 
7.6075554e+3, 2.943883e+2, -157379.56, -219838.05, -5655.679, 0.002152025, -0.00012318963, -156871.58, -101875.72, 0.0, 9.976676, 9.895448 
7.607453e+3, 3.043142e+2, -74825.12, -84898.41, -1743.8595, 0.0021390512, 0.00037826764, -74531.766, -74531.766, 0.0, 9.969437, 9.956175 
7.6073575e+3, 3.1427285e+2, -84230.35, -87178.96, -1279.7964, 0.0021242574, 0.00031703193, -83752.36, -83752.36, 0.0, 9.962114, 9.958179 
7.619641e+3, 1.2580177e+2, -1597627.4, -1714871.6, -2486.48, 0.0021768918, 0.00017453617, -1597574.8, 109569.19, 0.0, 10.101623, 9.945235 
7.619536e+3, 1.3574688e+2, -1512176.0, -1624497.9, -3075.5078, 0.0022220886, 0.0000406602, -1512091.9, 97589.8, 0.0, 10.094299, 9.94467 
7.619424e+3, 1.456892e+2, -1430076.0, -1540706.1, -7712.8174, 0.0022095924, 0.000306329, -1429540.9, 82706.016, 0.0, 10.086905, 9.939886 
7.6193064e+3, 1.5562904e+2, -1344273.9, -1449744.3, -8147.489, 0.0021912754, 0.00007567177, -1343648.1, 71188.4, 0.0, 10.079513, 9.93953 
7.6191854e+3, 1.6556613e+2, -1262066.4, -1365929.8, -11430.596, 0.0021893156, 0.00016564284, -1260823.3, 56629.81, 0.0, 10.072094, 9.934595 
7.61906e+3, 1.7550083e+2, -1175943.1, -1274573.4, -11740.335, 0.002198799, 0.00010189941, -1174565.0, 45528.273, 0.0, 10.064695, 9.934296 
7.618933e+3, 1.854326e+2, -1093662.9, -1190873.0, -13910.69, 0.0021947485, 0.00025148795, -1091711.4, 31050.316, 0.0, 10.057278, 9.9290695 
7.618802e+3, 1.9536167e+2, -1007260.06, -1099202.3, -14123.072, 0.0021866031, 0.00009090368, -1005139.56, 20317.166, 0.0, 10.049871, 9.928774 
7.618671e+3, 2.0528781e+2, -924849.25, -1015543.25, -15181.699, 0.0021823794, 0.00021529505, -922375.4, 5805.2627, 0.0, 10.042469, 9.92327 
7.618538e+3, 2.1521114e+2, -838142.94, -923579.44, -15337.481, 0.0021849757, 0.000033579465, -835473.0, -4540.9688, 0.0, 10.035083, 9.922948 
7.6184064e+3, 2.2513138e+2, -755561.75, -839958.44, -15322.6455, 0.002177004, 0.00029511467, -752865.94, -19152.236, 0.0, 10.02772, 9.917158 
7.618274e+3, 2.3504867e+2, -668447.75, -747554.06, -15358.321, 0.0021667096, 0.000080581674, -665570.6, -29046.227, 0.0, 10.020379, 9.916886 
7.6181436e+3, 2.4496235e+2, -586099.5, -664725.6, -14227.813, 0.0021633029, 0.00023994256, -583604.06, -44233.84, 0.0, 10.013029, 9.910337 
7.618015e+3, 2.5487298e+2, -498454.4, -571479.6, -14195.427, 0.0021665252, 0.000047190228, -495792.0, -53545.86, 0.0, 10.005664, 9.910412 
7.6178885e+3, 2.6477984e+2, -416161.1, -489121.72, -11934.012, 0.002162792, 0.00032035567, -414258.7, -69099.86, 0.0, 9.998331, 9.903252 
7.6177657e+3, 2.7468398e+2, -327656.88, -394513.13, -11763.146, 0.0021459528, 0.000021662156, -325647.56, -77549.38, 0.0, 9.991011, 9.903981 
7.6176465e+3, 2.8458354e+2, -246296.86, -314650.5, -8572.169, 0.0021470997, 0.00041441384, -245238.23, -94155.375, 0.0, 9.983769, 9.894877 
7.617532e+3, 2.9447982e+2, -156856.16, -218729.61, -8157.619, 0.0021591668, -0.00022995433, -155798.7, -101699.76, 0.0, 9.976589, 9.896187 
7.617423e+3, 3.0440646e+2, -74539.1, -84344.48, -4297.2837, 0.0021458985, 0.0004830905, -72922.36, -72922.36, 0.0, 9.969381, 9.956538 
7.617319e+3, 3.1436595e+2, -83929.61, -86668.14, -3847.4143, 0.0021102664, 0.0010326616, -81215.07, -81215.07, 0.0, 9.962091, 9.958499 
7.6297456e+3, 1.259065e+2, -1588783.4, -1711178.9, -164.42497, 0.0022023197, 0.00019012393, -1588783.3, 117334.27, 0.0, 10.107603, 9.944159 
7.629633e+3, 1.3585052e+2, -1504293.3, -1621307.5, -731.0188, 0.0022081416, 0.000014625915, -1504288.8, 104377.38, 0.0, 10.099673, 9.943626 
7.629513e+3, 1.4579192e+2, -1422923.8, -1537697.0, -5317.455, 0.0021962873, 0.00028296703, -1422678.0, 88562.5, 0.0, 10.091712, 9.939035 
7.6293886e+3, 1.5573093e+2, -1337960.0, -1447167.4, -5718.872, 0.0021939692, 0.00009452334, -1337661.3, 76176.86, 0.0, 10.083786, 9.938709 
7.629259e+3, 1.656673e+2, -1256405.4, -1363508.3, -8934.906, 0.0021978393, 0.00018011114, -1255665.0, 60796.65, 0.0, 10.07586, 9.933948 
7.6291263e+3, 1.756013e+2, -1171035.0, -1272536.4, -9202.305, 0.0022018722, 0.00008010773, -1170207.4, 48901.074, 0.0, 10.067979, 9.933672 
7.628991e+3, 1.8553253e+2, -1089348.4, -1189008.9, -11307.1, 0.0021950193, 0.00022882555, -1088081.6, 33700.695, 0.0, 10.060115, 9.928574 
7.6288533e+3, 1.9546114e+2, -1003579.6, -1097666.5, -11489.262, 0.0021891424, 0.00009342265, -1002196.94, 22285.117, 0.0, 10.052303, 9.92829 
7.6287144e+3, 2.0538686e+2, -921762.44, -1014185.2, -12518.409, 0.0021841708, 0.00022119084, -920096.9, 7113.1343, 0.0, 10.044457, 9.922906 
7.6285744e+3, 2.1530981e+2, -835773.44, -922597.7, -12650.355, 0.002185154, 0.000032139647, -833967.8, -4002.6863, 0.0, 10.036612, 9.9225855 
7.6284343e+3, 2.2522977e+2, -753798.0, -839111.8, -12643.22, 0.0021767449, 0.00028782483, -751963.75, -19214.213, 0.0, 10.02878, 9.916953 
7.628294e+3, 2.3514684e+2, -667419.9, -747094.06, -12748.895, 0.0021712743, 0.000070477436, -665429.56, -29867.24, 0.0, 10.020964, 9.916678 
7.6281565e+3, 2.4506049e+2, -585631.8, -664187.2, -11658.342, 0.0021683904, 0.00024102864, -583938.1, -45529.625, 0.0, 10.013091, 9.910446 
7.62802e+3, 2.5497124e+2, -498869.8, -571410.5, -11591.427, 0.0021644204, 0.00007756285, -497062.6, -55779.293, 0.0, 10.005156, 9.9105 
7.627886e+3, 2.6487833e+2, -417099.7, -488918.22, -9200.594, 0.002163263, 0.0003192315, -415939.75, -71746.12, 0.0, 9.997313, 9.903681 
7.627756e+3, 2.7478284e+2, -329288.4, -394674.84, -8931.254, 0.0021505842, -0.00006597037, -328090.44, -80960.74, 0.0, 9.989541, 9.904387 
7.6276296e+3, 2.8468296e+2, -248359.53, -314718.06, -5585.029, 0.0021516404, 0.00041187264, -247892.75, -97784.336, 0.0, 9.981893, 9.895546 
7.627508e+3, 2.9458013e+2, -159470.72, -219074.7, -5166.6567, 0.0021540867, 0.000041086194, -159026.17, -105910.25, 0.0, 9.974345, 9.896844 
7.6273906e+3, 3.0450693e+2, -77886.42, -85366.21, -1351.84, 0.002145669, 0.00027650766, -77649.6, -77649.6, 0.0, 9.966778, 9.956913 
7.6272804e+3, 3.1446567e+2, -87815.414, -87983.82, -880.963, 0.0021381169, -0.00051826466, -87014.64, -87014.64, 0.0, 9.959143, 9.958842 
7.639853e+3, 1.2601748e+2, -1589175.1, -1712554.4, -2257.336, 0.0022256018, 0.00021333813, -1589133.9, 115896.03, 0.0, 10.107808, 9.943133 
7.6397324e+3, 1.3596043e+2, -1504697.0, -1622659.8, -2857.12, 0.0021971986, -0.000009074389, -1504627.9, 102961.05, 0.0, 10.0998535, 9.942626 
7.639605e+3, 1.4590095e+2, -1423188.9, -1538728.3, -7462.9946, 0.0021772885, 0.00027169098, -1422708.8, 87463.04, 0.0, 10.091858, 9.9382515 
7.639472e+3, 1.5583922e+2, -1338243.1, -1448178.0, -7900.3633, 0.0022008247, 0.00012147953, -1337678.3, 75098.61, 0.0, 10.083905, 9.93795 
7.6393354e+3, 1.6577493e+2, -1256559.6, -1364240.0, -11128.811, 0.0022079726, 0.0002017432, -1255421.5, 59985.387, 0.0, 10.075959, 9.933373 
7.639195e+3, 1.7570832e+2, -1171184.9, -1273240.4, -11437.763, 0.0021990938, 0.000062079795, -1169918.8, 48140.863, 0.0, 10.0680685, 9.933121 
7.639051e+3, 1.8563908e+2, -1089431.1, -1189549.6, -13557.481, 0.0021903778, 0.00021228223, -1087627.8, 33110.473, 0.0, 10.060186, 9.928135 
7.6389056e+3, 1.9556728e+2, -1003688.6, -1098200.3, -13777.507, 0.0021888015, 0.00010706074, -1001721.2, 21720.797, 0.0, 10.052347, 9.92787 
7.638759e+3, 2.0549265e+2, -921786.7, -1014557.5, -14861.89, 0.002182866, 0.00024188402, -919464.0, 6709.371, 0.0, 10.044502, 9.922588 
7.6386106e+3, 2.1541525e+2, -835783.06, -922960.1, -15028.732, 0.002176119, 0.000035593366, -833264.94, -4333.18, 0.0, 10.036664, 9.922271 
7.638463e+3, 2.2533494e+2, -753738.25, -839338.7, -15057.317, 0.0021693828, 0.00028814466, -751166.9, -19448.105, 0.0, 10.028832, 9.916726 
7.6383156e+3, 2.3525177e+2, -667382.4, -747338.1, -15194.786, 0.0021692112, 0.00006648122, -664592.1, -30058.213, 0.0, 10.021005, 9.916449 
7.6381695e+3, 2.4516544e+2, -585270.94, -663803.2, -14215.467, 0.002164162, 0.00025212744, -582776.94, -45396.805, 0.0, 10.01314, 9.910619 
7.6380247e+3, 2.5507635e+2, -498484.6, -571034.1, -14230.534, 0.0021527803, 0.00011570191, -495793.16, -55539.973, 0.0, 10.005231, 9.910659 
7.637884e+3, 2.649838e+2, -416584.75, -488036.28, -11889.956, 0.0021528685, 0.0003222141, -414658.16, -71497.89, 0.0, 9.997288, 9.904223 
7.637746e+3, 2.7488872e+2, -329106.47, -393976.7, -11730.022, 0.0021556818, -0.00017251636, -327050.56, -80958.59, 0.0, 9.9893055, 9.90492 
7.637611e+3, 2.847896e+2, -248150.34, -313761.88, -8316.067, 0.0021521938, 0.00042121907, -247112.72, -98049.22, 0.0, 9.981578, 9.896287 
7.6374817e+3, 2.946878e+2, -159239.45, -218126.97, -7837.7476, 0.0021364135, 0.00039857274, -158214.13, -106152.984, 0.0, 9.974055, 9.897568 
7.637358e+3, 3.0461463e+2, -77618.375, -84752.53, -4038.4124, 0.0021377725, -0.000031682055, -75797.24, -75797.24, 0.0, 9.966667, 9.957336 
7.637239e+3, 3.1457227e+2, -87103.125, -87188.31, -3640.58, 0.0021742817, -0.0026882489, -83504.89, -83504.89, 0.0, 9.959346, 9.959238 
7.649964e+3, 1.2613872e+2, -1580184.0, -1708664.8, 292.60822, 0.0022039458, 0.00016905856, -1580183.4, 123658.484, 0.0, 10.113817, 9.94212 
7.649835e+3, 1.3608071e+2, -1496692.5, -1619278.8, -276.10135, 0.0022042193, 0.000033073495, -1496691.9, 109718.23, 0.0, 10.105234, 9.941651 
7.6496994e+3, 1.4602037e+2, -1415929.0, -1535533.9, -4786.2725, 0.0021953513, 0.0002991578, -1415737.9, 93263.75, 0.0, 10.096662, 9.937471 
7.649559e+3, 1.5595779e+2, -1331826.6, -1445413.1, -5172.3076, 0.0022049076, 0.00008232471, -1331591.5, 80023.22, 0.0, 10.088167, 9.937203 
7.6494133e+3, 1.6589285e+2, -1250784.5, -1361662.4, -8283.991, 0.0022080855, 0.00016420272, -1250169.0, 64082.215, 0.0, 10.07974, 9.932768 
7.649265e+3, 1.7582569e+2, -1166082.3, -1271000.9, -8546.489, 0.0021978912, 0.000075566066, -1165390.6, 51518.88, 0.0, 10.071414, 9.932542 
7.649113e+3, 1.8575592e+2, -1084925.1, -1187518.5, -10581.28, 0.002189022, 0.00022856463, -1083845.1, 35747.984, 0.0, 10.0631, 9.927654 
7.64896e+3, 1.9568361e+2, -999825.3, -1096489.0, -10757.806, 0.0021923075, 0.00009155672, -998642.56, 23659.336, 0.0, 10.054843, 9.927413 
7.648804e+3, 2.0560855e+2, -918472.56, -1013056.0, -11767.423, 0.0021861573, 0.00021785202, -917030.5, 8006.8423, 0.0, 10.046609, 9.922203 
7.6486486e+3, 2.155308e+2, -833000.06, -921725.44, -11896.653, 0.0021805374, 0.00002431826, -831432.6, -3633.155, 0.0, 10.038425, 9.921899 
7.6484925e+3, 2.2545016e+2, -751497.75, -838309.6, -11895.476, 0.0021711667, 0.00028797617, -749897.25, -19307.68, 0.0, 10.0302105, 9.916422 
7.648337e+3, 2.353667e+2, -665774.5, -746642.44, -12008.261, 0.002168122, 0.00008911614, -664029.06, -30621.414, 0.0, 10.0219755, 9.91614 
7.648183e+3, 2.4528004e+2, -584239.8, -663366.25, -11093.165, 0.0021656335, 0.00023927735, -582714.06, -46457.137, 0.0, 10.013721, 9.910346 
7.6480305e+3, 2.551906e+2, -498026.97, -570900.56, -11244.659, 0.0021594046, 0.000018125897, -496331.3, -57197.863, 0.0, 10.005442, 9.910381 
7.6478803e+3, 2.6509798e+2, -417203.8, -488204.78, -9289.141, 0.0021566583, 0.00032354964, -416008.63, -73967.27, 0.0, 9.996684, 9.9041605 
7.6477337e+3, 2.7500302e+2, -331626.66, -395106.34, -9333.048, 0.0021437965, 0.0001030673, -330282.9, -85311.21, 0.0, 9.987446, 9.904847 
7.647591e+3, 2.8490442e+2, -250651.64, -313035.1, -5395.111, 0.002147095, 0.00042703582, -250188.48, -102250.28, 0.0, 9.978962, 9.897807 
7.647455e+3, 2.948035e+2, -162127.38, -217603.1, -4494.151, 0.00215786, -0.00038491472, -161765.66, -110838.34, 0.0, 9.971187, 9.899056 
7.647323e+3, 3.0473223e+2, -81048.66, -86360.72, -219.95445, 0.0021534427, 0.00071245595, -81039.56, -81039.56, 0.0, 9.964241, 9.957188 
7.6471984e+3, 3.1469288e+2, -88784.06, -88009.71, -112.654175, 0.002151703, 0.0020117436, -87993.66, -87993.66, 0.0, 9.958132, 9.959044 
7.6600784e+3, 1.2626675e+2, -1580520.9, -1709910.3, -1943.3828, 0.002177929, 0.00014409967, -1580491.6, 122095.414, 0.0, 10.113988, 9.941173 
7.65994e+3, 1.3620786e+2, -1497050.4, -1620499.0, -2548.9958, 0.0022210644, 0.00007544243, -1496997.8, 108166.34, 0.0, 10.105372, 9.940736 
7.659796e+3, 1.4614671e+2, -1416132.6, -1536420.3, -7049.9033, 0.0022119312, 0.0003320483, -1415720.9, 92042.45, 0.0, 10.096774, 9.936777 
7.659646e+3, 1.560834e+2, -1332012.9, -1446256.4, -7479.2495, 0.0022087435, 0.00004677452, -1331525.4, 78858.51, 0.0, 10.088273, 9.936539 
7.659493e+3, 1.6601789e+2, -1250884.4, -1362297.1, -10569.523, 0.0022047868, 0.00013705375, -1249890.5, 63135.418, 0.0, 10.079823, 9.932247 
7.659336e+3, 1.7595024e+2, -1166204.8, -1271617.6, -10880.992, 0.0021931625, 0.00010540218, -1165093.4, 50595.508, 0.0, 10.071468, 9.932048 
7.659176e+3, 1.8588004e+2, -1084985.1, -1187999.1, -12932.741, 0.00218496, 0.00025811835, -1083386.4, 34990.406, 0.0, 10.063145, 9.927251 
7.659014e+3, 1.958073e+2, -999868.9, -1096932.8, -13153.626, 0.002189193, 0.00008016093, -998117.94, 22971.773, 0.0, 10.054885, 9.927035 
7.658851e+3, 2.057319e+2, -918474.25, -1013405.4, -14190.033, 0.0021843202, 0.00020786621, -916398.56, 7429.922, 0.0, 10.046644, 9.92189 
7.6586866e+3, 2.1565384e+2, -833032.56, -922077.3, -14361.343, 0.002176976, 0.000023808436, -830773.7, -4180.1504, 0.0, 10.038435, 9.921599 
7.658523e+3, 2.2557297e+2, -751491.1, -838579.2, -14430.943, 0.002165564, 0.00030002109, -749162.1, -19776.01, 0.0, 10.030216, 9.916179 
7.658359e+3, 2.3548926e+2, -665766.5, -746925.8, -14582.4, 0.002154653, 0.00011619518, -663225.94, -31019.41, 0.0, 10.021989, 9.915885 
7.6581967e+3, 2.4540228e+2, -584270.75, -663781.75, -13717.334, 0.0021557598, 0.00023314981, -581970.75, -46911.8, 0.0, 10.013759, 9.909995 
7.658036e+3, 2.553124e+2, -498016.94, -571308.06, -13882.649, 0.0021622393, -0.000081620376, -495475.44, -57535.637, 0.0, 10.00551, 9.910018 
7.657877e+3, 2.6521957e+2, -416802.5, -488253.2, -12324.311, 0.0021515077, 0.00034293532, -414736.44, -73886.945, 0.0, 9.996929, 9.903941 
7.657721e+3, 2.7512467e+2, -330752.03, -394928.56, -12451.602, 0.0021171232, 0.00043332682, -328420.84, -84641.12, 0.0, 9.98801, 9.904624 
7.65757e+3, 2.8502664e+2, -248812.86, -309901.25, -8242.679, 0.0021301263, 0.00041308772, -247720.2, -100979.78, 0.0, 9.979129, 9.899738 
7.657426e+3, 2.9492682e+2, -161843.06, -215256.6, -7705.691, 0.0021886984, -0.0014035394, -160753.63, -111035.055, 0.0, 9.970332, 9.900987 
7.657287e+3, 3.048581e+2, -82161.54, -87368.49, -2804.7903, 0.0021658423, 0.001850576, -80938.14, -80938.14, 0.0, 9.963614, 9.956785 
7.657156e+3, 3.148227e+2, -88221.74, -88269.76, -2559.2969, 0.0020680928, 0.00861371, -85686.34, -85686.34, 0.0, 9.958663, 9.958581 
7.670195e+3, 1.2640607e+2, -1571477.0, -1705824.5, 829.585, 0.002190742, 0.00018275072, -1571471.9, 129749.766, 0.0, 10.119939, 9.940258 
7.6700485e+3, 1.3634619e+2, -1489025.8, -1616932.1, 274.74353, 0.0022227226, 0.000011000774, -1489025.3, 114783.24, 0.0, 10.110669, 9.939866 
7.669895e+3, 1.4628428e+2, -1408854.3, -1533066.0, -4059.421, 0.0022129985, 0.0002736011, -1408721.8, 97693.38, 0.0, 10.101504, 9.936079 
7.669737e+3, 1.5622033e+2, -1325515.0, -1443293.0, -4428.6353, 0.0022020647, 0.00007768062, -1325348.8, 83693.05, 0.0, 10.0925, 9.935878 
7.6695746e+3, 1.6615424e+2, -1245032.3, -1359560.5, -7368.072, 0.0022063954, 0.00016550432, -1244560.3, 67129.47, 0.0, 10.083581, 9.931695 
7.669409e+3, 1.7608598e+2, -1161016.4, -1269205.6, -7619.3794, 0.0022058901, 0.000074911375, -1160482.4, 53876.03, 0.0, 10.074794, 9.93153 
7.669241e+3, 1.8601532e+2, -1080351.8, -1185804.8, -9537.282, 0.002193829, 0.00021617676, -1079496.1, 37554.863, 0.0, 10.066079, 9.926805 
7.6690704e+3, 1.9594212e+2, -995757.7, -1094991.9, -9703.428, 0.0021891072, 0.00006087486, -994817.75, 24950.475, 0.0, 10.057478, 9.926614 
7.6688987e+3, 2.0586638e+2, -914905.75, -1011712.44, -10657.075, 0.0021817158, 0.0002083219, -913746.44, 8764.152, 0.0, 10.048871, 9.921505 
7.668726e+3, 2.1578795e+2, -830012.25, -920648.56, -10784.87, 0.0021809048, 0.000048121186, -828746.6, -3467.299, 0.0, 10.040299, 9.921237 
7.6685536e+3, 2.257067e+2, -748959.0, -837352.6, -10792.78, 0.0021701518, 0.00026544498, -747660.3, -19584.766, 0.0, 10.031744, 9.915864 
7.668382e+3, 2.3562257e+2, -663720.9, -745952.75, -10892.994, 0.0021632127, -0.000022092576, -662302.4, -31402.396, 0.0, 10.023202, 9.91557 
7.668211e+3, 2.4553546e+2, -582580.4, -662875.4, -9921.807, 0.0021541754, 0.00024390081, -581372.5, -47618.844, 0.0, 10.014694, 9.9097805 
7.6680416e+3, 2.5544563e+2, -496734.75, -570657.0, -9976.388, 0.0021385239, 0.0002720169, -495412.03, -58777.832, 0.0, 10.0062, 9.909761 
7.6678747e+3, 2.6535192e+2, -415714.28, -488348.47, -8523.238, 0.0021481353, 0.00029709813, -414727.53, -75175.23, 0.0, 9.997777, 9.903131 
7.66771e+3, 2.752554e+2, -328864.34, -394625.16, -8912.219, 0.0021632076, -0.0006019077, -327677.94, -85179.516, 0.0, 9.9893875, 9.903827 
7.667549e+3, 2.851573e+2, -250593.42, -311776.63, -6723.0195, 0.0021510432, 0.00043597564, -249863.38, -104403.47, 0.0, 9.978188, 9.898666 
7.6673925e+3, 2.9505876e+2, -171152.6, -220781.1, -7534.3784, 0.0021215503, 0.0014657702, -170033.97, -121608.1, 0.0, 9.964339, 9.899998 
7.667248e+3, 3.0498528e+2, -88767.84, -88903.945, 1209.1957, 0.0021169537, -0.0013554572, -87624.79, -87624.79, 0.0, 9.958428, 9.958103 
7.667116e+3, 3.1493944e+2, -84886.02, -84988.6, 2367.4614, 0.0021432478, -0.009121551, -82569.3, -82569.3, 0.0, 9.960187, 9.959864 
7.680315e+3, 1.2655276e+2, -1571789.6, -1706904.1, -1553.5743, 0.0022059905, 0.00022783443, -1571771.8, 128012.28, 0.0, 10.1200285, 9.939433 
7.680159e+3, 1.3649198e+2, -1489280.8, -1617939.1, -2146.3025, 0.0022281057, -0.000049390757, -1489245.0, 113134.64, 0.0, 10.110773, 9.939077 
7.6799965e+3, 1.4642942e+2, -1408976.8, -1533787.8, -6420.767, 0.0022038454, 0.00023220894, -1408647.4, 96345.48, 0.0, 10.101589, 9.93548 
7.6798296e+3, 1.5636495e+2, -1325645.1, -1443980.0, -6843.8965, 0.0021976961, 0.00011876729, -1325250.6, 82374.02, 0.0, 10.09256, 9.935313 
7.679658e+3, 1.6629834e+2, -1245081.3, -1360075.9, -9745.012, 0.0022089474, 0.00020509848, -1244261.3, 66016.086, 0.0, 10.083632, 9.931245 
7.679484e+3, 1.762296e+2, -1161033.9, -1269668.6, -10049.708, 0.0022146346, 0.000052849882, -1160112.0, 52838.996, 0.0, 10.074848, 9.931112 
7.679307e+3, 1.8615855e+2, -1080341.5, -1186183.3, -11958.232, 0.0021998119, 0.00018477615, -1079007.3, 36639.97, 0.0, 10.066119, 9.926451 
7.679128e+3, 1.9608504e+2, -995780.2, -1095354.9, -12183.587, 0.0021826657, 0.000051788713, -994311.1, 24056.541, 0.0, 10.057482, 9.926291 
7.678948e+3, 2.06009e+2, -914920.06, -1012051.6, -13185.052, 0.0021750152, 0.00023256405, -913162.1, 7950.641, 0.0, 10.04887, 9.921202 
7.678767e+3, 2.159303e+2, -830015.3, -920956.1, -13361.447, 0.0021749027, 0.00009553903, -828092.8, -4208.6484, 0.0, 10.040295, 9.9209585 
7.6785856e+3, 2.2584875e+2, -748937.6, -837586.0, -13423.361, 0.002165521, 0.00023771376, -746949.6, -20266.318, 0.0, 10.031727, 9.915641 
7.678405e+3, 2.3576428e+2, -663724.6, -746184.7, -13562.5625, 0.002159361, -0.00020165101, -661551.25, -32040.066, 0.0, 10.023163, 9.915361 
7.6782256e+3, 2.4567722e+2, -582597.56, -662961.7, -12645.956, 0.0021419993, 0.00028771325, -580654.56, -48290.21, 0.0, 10.01458, 9.909705 
7.678048e+3, 2.5558767e+2, -496964.84, -570912.75, -12745.42, 0.0021044598, 0.00078887615, -494829.75, -59587.75, 0.0, 10.005973, 9.909634 
7.677873e+3, 2.6549295e+2, -416582.5, -489870.06, -11156.656, 0.0021382866, 0.00020771292, -414921.72, -76751.445, 0.0, 9.997541, 9.902177 
7.6777e+3, 2.753943e+2, -329710.3, -396202.72, -11400.17, 0.0022113738, -0.0021290567, -327810.03, -86672.734, 0.0, 9.989189, 9.902803 
7.677527e+3, 2.8529587e+2, -251549.17, -314876.16, -10947.329, 0.0021736464, 0.0005925001, -249710.11, -105608.195, 0.0, 9.978465, 9.896364 
7.677357e+3, 2.9519838e+2, -170584.36, -223129.05, -11414.836, 0.0020314783, 0.0058565023, -168211.73, -121154.24, 0.0, 9.965631, 9.897683 
7.6772064e+3, 3.0511677e+2, -85715.48, -85303.52, 1806.4662, 0.0020081373, -0.0068218117, -83691.33, -83691.33, 0.0, 9.959603, 9.959975 
7.6770765e+3, 3.150777e+2, -82819.3, -79263.58, 403.69702, 0.0030787645, -0.008621371, -79218.32, -79218.32, 0.0, 9.959581, 9.964121 
7.690438e+3, 1.2671153e+2, -1562851.9, -1702643.9, 1469.5428, 0.0022222488, 0.00014546663, -1562836.5, 135391.56, 0.0, 10.125789, 9.938667 
7.6902723e+3, 1.3665012e+2, -1481309.1, -1614166.4, 945.1759, 0.0022145053, 0.00002310816, -1481302.4, 119527.555, 0.0, 10.11591, 9.938357 
7.6901007e+3, 1.4658687e+2, -1401773.4, -1530298.4, -3111.4646, 0.0022010596, 0.000272986, -1401698.1, 101751.625, 0.0, 10.106173, 9.93488 
7.689924e+3, 1.565217e+2, -1319203.3, -1440860.4, -3454.4895, 0.0022170343, 0.000047458198, -1319105.3, 86983.13, 0.0, 10.096646, 9.934758 
7.6897436e+3, 1.6645461e+2, -1239226.6, -1357183.8, -6135.1133, 0.0022246458, 0.00014764027, -1238908.4, 69837.414, 0.0, 10.087304, 9.93077 
7.6895607e+3, 1.7638546e+2, -1155714.4, -1267030.1, -6367.857, 0.002206502, 0.00008310514, -1155351.3, 56072.074, 0.0, 10.078167, 9.930673 
7.6893747e+3, 1.8631399e+2, -1075579.6, -1183844.9, -8134.551, 0.0021940588, 0.00018930864, -1074971.9, 39152.152, 0.0, 10.069083, 9.926012 
7.6891863e+3, 1.9623995e+2, -991517.94, -1093247.8, -8307.888, 0.0021961038, -0.000037506958, -990843.94, 26005.553, 0.0, 10.060113, 9.925887 
7.6889974e+3, 2.0616359e+2, -911155.8, -1010209.75, -9200.55, 0.0021925187, 0.00021136583, -910308.44, 9289.335, 0.0, 10.051183, 9.920798 
7.688808e+3, 2.1608463e+2, -826663.4, -919291.75, -9335.469, 0.0021948586, 0.00026394083, -825731.9, -3360.2163, 0.0, 10.042327, 9.920594 
7.6886183e+3, 2.2600257e+2, -746019.8, -836061.5, -9335.597, 0.0021527826, 0.00017308579, -745062.1, -19886.457, 0.0, 10.033442, 9.915353 
7.688429e+3, 2.359174e+2, -661328.56, -744915.2, -9416.445, 0.002097235, -0.0007656575, -660280.9, -32270.484, 0.0, 10.024534, 9.915089 
7.688241e+3, 2.4583068e+2, -580923.25, -661943.6, -8522.264, 0.0021619683, 0.00039083653, -580036.5, -49176.2, 0.0, 10.015428, 9.909535 
7.6880544e+3, 2.5574213e+2, -496254.88, -570314.2, -8547.454, 0.002295457, 0.0023660061, -495281.2, -61553.105, 0.0, 10.006159, 9.909525 
7.6878697e+3, 2.6564646e+2, -415271.56, -487478.1, -6099.6226, 0.0021005743, -0.00014315425, -414759.94, -78093.97, 0.0, 9.997496, 9.903337 
7.6876885e+3, 2.755453e+2, -328345.7, -393911.7, -5378.846, 0.0016592923, -0.0068963803, -327907.38, -88250.016, 0.0, 9.989233, 9.903812 
7.6875067e+3, 2.8545192e+2, -248900.6, -312791.44, -4823.412, 0.002202521, 0.0013119334, -248538.52, -105965.96, 0.0, 9.979682, 9.8966 
7.687326e+3, 2.953654e+2, -165068.7, -220447.8, -3907.035, 0.0034935707, 0.019936452, -164794.42, -119373.52, 0.0, 9.969117, 9.897172 
7.6871663e+3, 3.052458e+2, -101158.0, -123043.45, 5232.9395, 0.0006045077, -0.022376206, -99971.13, -99971.13, 0.0, 9.96207, 9.933223 
7.687035e+3, 3.1522506e+2, -90003.04, -89310.586, -10711.052, 0.003120011, 0.030826159, -78940.164, -78940.164, 0.0, 9.957529, 9.958666 
7.7005637e+3, 1.2687828e+2, -1563023.6, -1703445.5, -1039.5491, 0.0022245364, 0.000099526806, -1563016.0, 133577.9, 0.0, 10.125845, 9.938005 
7.7003884e+3, 1.368163e+2, -1481500.6, -1614936.5, -1621.7332, 0.002215841, 0.00009248324, -1481481.0, 117720.39, 0.0, 10.115931, 9.937733 
7.7002066e+3, 1.467525e+2, -1401847.9, -1530836.0, -5580.521, 0.00220088, 0.00032398917, -1401606.9, 100219.555, 0.0, 10.106189, 9.934407 
7.700021e+3, 1.5668678e+2, -1319212.8, -1441320.5, -5970.95, 0.002236161, -0.000013963286, -1318921.5, 85548.984, 0.0, 10.096683, 9.934324 
7.699831e+3, 1.6661935e+2, -1239189.3, -1357535.0, -8566.484, 0.002235764, 0.00010494112, -1238572.4, 68559.06, 0.0, 10.087334, 9.930412 
7.6996386e+3, 1.7654991e+2, -1155682.4, -1267350.3, -8869.03, 0.0021953182, 0.00012874157, -1154982.4, 54829.48, 0.0, 10.078177, 9.930347 
7.699443e+3, 1.8647808e+2, -1075550.1, -1184191.8, -10633.723, 0.0021854956, 0.00021296566, -1074519.1, 37996.625, 0.0, 10.069103, 9.92567 
7.6992464e+3, 1.9640362e+2, -991436.25, -1093525.0, -10871.836, 0.0022029732, -0.00011248181, -990291.3, 24954.012, 0.0, 10.060147, 9.925584 
7.699049e+3, 2.0632704e+2, -911089.9, -1010517.56, -11801.196, 0.0022065633, 0.00021857907, -909708.4, 8287.474, 0.0, 10.051217, 9.920481 
7.69885e+3, 2.1624792e+2, -826613.06, -919566.06, -12004.054, 0.0022039455, 0.00045502104, -825087.9, -4316.589, 0.0, 10.042333, 9.920315 
7.6986516e+3, 2.2616544e+2, -745952.9, -836229.6, -12122.38, 0.0021301357, 0.00010504439, -744353.4, -20774.01, 0.0, 10.033414, 9.915163 
7.698453e+3, 2.3607962e+2, -661303.5, -745080.56, -12301.817, 0.0020134845, -0.0014082129, -659534.44, -33113.918, 0.0, 10.024467, 9.914924 
7.698256e+3, 2.4599347e+2, -580718.44, -661918.06, -11628.033, 0.0021860863, 0.00057913567, -579086.06, -49821.23, 0.0, 10.015431, 9.909462 
7.69806e+3, 2.559063e+2, -495711.0, -569903.06, -11689.287, 0.002534053, 0.0043643177, -493912.88, -61793.95, 0.0, 10.006294, 9.90964 
7.697867e+3, 2.658097e+2, -413867.56, -484363.38, -9239.133, 0.0020240978, -0.0007169818, -412676.8, -77611.32, 0.0, 9.997232, 9.905433 
7.697677e+3, 2.7570596e+2, -328088.28, -391420.97, -8999.05, 0.00088942377, -0.013334548, -326834.4, -88751.64, 0.0, 9.988237, 9.905887 
7.697486e+3, 2.8562072e+2, -247623.36, -310471.84, -9385.462, 0.0022826325, 0.0027552268, -246251.72, -105333.58, 0.0, 9.979627, 9.8981 
7.697297e+3, 2.9555088e+2, -162650.25, -220184.78, -8343.573, 0.0056172656, 0.04024937, -161464.7, -117861.73, 0.0, 9.970954, 9.896407 
7.697127e+3, 3.0537304e+2, -131675.84, -186066.39, 4270.407, -0.0016172992, -0.04679803, -131342.6, -131342.6, 0.0, 9.962007, 9.891235 
7.6969886e+3, 3.1530672e+2, -49297.89, 4799.7646, -6806.2114, -0.0011962337, 0.0002577287, 5642.936, 5642.936, 0.0, 9.95316, 10.024731 
7.710692e+3, 1.2705824e+2, -1554314.0, -1699078.1, 2203.8137, 0.0021997879, 0.00016761584, -1554280.5, 140549.83, 0.0, 10.131331, 9.937378 
7.710507e+3, 1.3699548e+2, -1473809.0, -1611065.1, 1711.9794, 0.0022599162, -0.0000063785174, -1473787.8, 123657.56, 0.0, 10.120751, 9.937167 
7.7103156e+3, 1.4693125e+2, -1394853.1, -1527185.8, -1911.453, 0.0022348978, 0.0002521987, -1394825.5, 105249.266, 0.0, 10.110496, 9.933979 
7.7101195e+3, 1.5686521e+2, -1312841.9, -1437970.6, -2196.5647, 0.0022141791, 0.000049173843, -1312803.4, 89918.6, 0.0, 10.10058, 9.933936 
7.7099204e+3, 1.6679734e+2, -1233407.9, -1354526.4, -4530.3467, 0.0022293557, 0.00012849929, -1233238.6, 72148.336, 0.0, 10.09087, 9.930006 
7.7097183e+3, 1.767274e+2, -1150369.6, -1264559.4, -4751.664, 0.0022292107, 0.000030040605, -1150172.3, 57900.043, 0.0, 10.081403, 9.929976 
7.709514e+3, 1.8665522e+2, -1070697.3, -1181731.9, -6321.415, 0.0022100345, 0.00017771142, -1070338.6, 40440.97, 0.0, 10.072075, 9.925227 
7.709308e+3, 1.9658047e+2, -986862.9, -1091174.0, -6507.1167, 0.0021968705, 0.000016027208, -986458.56, 27053.617, 0.0, 10.062925, 9.925183 
7.709101e+3, 2.065033e+2, -906959.7, -1008512.2, -7352.029, 0.0021927943, 0.0001570417, -906430.2, 9838.198, 0.0, 10.0537615, 9.919987 
7.7088934e+3, 2.1642339e+2, -822842.9, -917719.7, -7533.7876, 0.0022074035, 0.000042464, -822248.4, -3196.9045, 0.0, 10.044634, 9.919854 
7.708686e+3, 2.2634083e+2, -742758.8, -834820.2, -7700.0366, 0.0021626004, 0.00019404742, -742119.25, -20258.723, 0.0, 10.035401, 9.914591 
7.7084786e+3, 2.362552e+2, -658607.7, -743878.2, -7922.1885, 0.0020851106, -0.00036592814, -657877.9, -33178.2, 0.0, 10.026112, 9.914404 
7.7082723e+3, 2.461675e+2, -578133.8, -660641.5, -7272.514, 0.0021693748, 0.00022972148, -577497.7, -49938.473, 0.0, 10.01695, 9.909064 
7.708067e+3, 2.5607777e+2, -493154.75, -568682.1, -7447.7065, 0.002355948, 0.0013308523, -492427.3, -61988.805, 0.0, 10.0078125, 9.909219 
7.707864e+3, 2.6598352e+2, -414251.8, -485111.03, -6286.1016, 0.0020425916, -0.000057750414, -413698.47, -80336.414, 0.0, 9.997001, 9.904623 
7.707664e+3, 2.7588505e+2, -332835.44, -394127.3, -6947.4336, 0.001341858, -0.0051608724, -332057.8, -95730.3, 0.0, 9.98503, 9.905312 
7.707467e+3, 2.8579235e+2, -244542.9, -307218.9, -4910.2534, 0.0022521273, 0.0011785378, -244160.55, -104924.945, 0.0, 9.980878, 9.899344 
7.7072734e+3, 2.957068e+2, -145897.28, -212338.11, -4391.315, 0.004473484, 0.017843924, -145608.3, -103534.99, 0.0, 9.982255, 9.895822 
7.7070886e+3, 3.0555606e+2, -145827.58, -212014.55, 5250.132, -0.00069537206, -0.02410198, -145413.72, -145413.72, 0.0, 9.960204, 9.874302 
7.706932e+3, 3.154567e+2, -47792.598, 86125.53, 5788.216, 0.009002294, 0.000036911602, 86375.24, 86375.24, 0.0, 9.919143, 10.096677 
7.720824e+3, 1.2724672e+2, -1554457.6, -1699640.8, -444.80154, 0.0021883498, 0.00023348768, -1554456.3, 138526.8, 0.0, 10.1312685, 9.936894 
7.720627e+3, 1.3718338e+2, -1473874.4, -1611534.9, -972.3588, 0.0023013782, -0.00009392325, -1473867.5, 121736.36, 0.0, 10.120712, 9.936729 
7.720426e+3, 1.4711884e+2, -1394797.3, -1527420.0, -4412.8057, 0.0022512896, 0.00020597829, -1394650.6, 103585.695, 0.0, 10.11046, 9.933695 
7.72022e+3, 1.570526e+2, -1312754.9, -1438152.9, -4773.9526, 0.0021940416, 0.00012005409, -1312573.4, 88311.945, 0.0, 10.100548, 9.933686 
7.7200115e+3, 1.6698447e+2, -1233317.0, -1354739.4, -7001.8877, 0.0022257587, 0.00016507713, -1232914.6, 70638.42, 0.0, 10.090859, 9.929732 
7.7198e+3, 1.7691417e+2, -1150205.0, -1264700.9, -7290.306, 0.0022608452, -0.00005384299, -1149742.8, 56499.17, 0.0, 10.081424, 9.929735 
7.7195865e+3, 1.8684179e+2, -1070604.8, -1182028.6, -8817.761, 0.0022311236, 0.00016872853, -1069911.3, 39040.0, 0.0, 10.072107, 9.924889 
7.7193713e+3, 1.9676682e+2, -986761.25, -1091423.6, -9081.844, 0.0021817915, 0.00017783634, -985979.06, 25706.65, 0.0, 10.062943, 9.924886 
7.719155e+3, 2.0668915e+2, -906928.6, -1008940.75, -9996.285, 0.0021747635, 0.000098610115, -905958.3, 8488.655, 0.0, 10.053797, 9.919572 
7.718938e+3, 2.1660848e+2, -822780.3, -918118.7, -10258.682, 0.0021958135, -0.00045442616, -821688.94, -4451.352, 0.0, 10.0446825, 9.919455 
7.718721e+3, 2.26526e+2, -742750.8, -835443.3, -10565.694, 0.0021967627, 0.00039129937, -741561.7, -21515.938, 0.0, 10.035498, 9.914026 
7.7185047e+3, 2.3644082e+2, -658467.5, -744369.7, -10840.21, 0.0021773032, 0.001102414, -657120.7, -34240.38, 0.0, 10.026266, 9.913898 
7.718289e+3, 2.46351e+2, -578073.9, -661080.8, -10274.13, 0.0021236143, -0.00038927436, -576821.1, -51060.55, 0.0, 10.017013, 9.908644 
7.718075e+3, 2.5625762e+2, -493461.75, -569466.4, -10655.163, 0.0020450058, -0.0032808788, -491996.25, -63320.688, 0.0, 10.007697, 9.908665 
7.7178615e+3, 2.6616713e+2, -414335.72, -487199.03, -10453.109, 0.0021192671, 0.0015006528, -412865.75, -81303.49, 0.0, 9.997601, 9.902846 
7.7176493e+3, 2.7607688e+2, -330874.38, -394848.22, -10571.163, 0.0022195298, 0.008753508, -329172.8, -94725.5, 0.0, 9.986858, 9.903833 
7.717447e+3, 2.859695e+2, -243528.6, -305431.66, -4502.574, 0.0020680497, -0.0030566582, -243202.81, -105703.81, 0.0, 9.981023, 9.900457 
7.7172536e+3, 2.9585424e+2, -151594.02, -215512.2, -5757.837, 0.0019329846, -0.02448891, -151079.48, -110452.55, 0.0, 9.978555, 9.89552 
7.7170503e+3, 3.0577758e+2, -151201.6, -221052.56, -9656.167, 0.0021716275, 0.02937407, -149891.31, -149891.31, 0.0, 9.958594, 9.868766 
7.7168447e+3, 3.1567338e+2, -66972.77, 32281.139, -6701.1367, 0.0015986064, 0.054866463, 32731.523, 32731.523, 0.0, 9.9247265, 10.05612 
7.730957e+3, 1.2744914e+2, -1546198.3, -1695117.3, 3051.873, 0.0022631222, 0.00011201778, -1546135.8, 144863.63, 0.0, 10.13626, 9.936545 
7.7307504e+3, 1.3738562e+2, -1466554.5, -1607484.6, 2658.7048, 0.0022461864, 0.0000026386922, -1466504.4, 127117.54, 0.0, 10.125095, 9.9364195 
7.730538e+3, 1.4732073e+2, -1388206.5, -1523742.0, -344.53522, 0.002223918, 0.00025125485, -1388205.6, 108051.97, 0.0, 10.114377, 9.933405 
7.7303225e+3, 1.5725411e+2, -1306684.6, -1434704.0, -585.74567, 0.0022515596, 0.000022931508, -1306682.0, 92228.47, 0.0, 10.104114, 9.933448 
7.730104e+3, 1.6718574e+2, -1227690.6, -1351600.3, -2465.4746, 0.0022664452, 0.000097837474, -1227641.6, 73938.76, 0.0, 10.094183, 9.929434 
7.7298826e+3, 1.7711525e+2, -1144819.8, -1261658.1, -2653.9846, 0.0022372473, -0.000004533572, -1144759.5, 59511.742, 0.0, 10.084582, 9.929472 
7.7296597e+3, 1.8704247e+2, -1065619.6, -1179423.3, -3960.2375, 0.0022237857, 0.00017352965, -1065482.0, 41502.406, 0.0, 10.075115, 9.924434 
7.7294356e+3, 1.9696698e+2, -981938.25, -1088876.0, -4165.431, 0.0022265308, 0.00007720259, -981776.25, 27947.893, 0.0, 10.065838, 9.924464 
7.72921e+3, 2.0688884e+2, -902445.1, -1006801.3, -4979.841, 0.0022053926, 0.000065925065, -902208.0, 10281.846, 0.0, 10.056577, 9.918958 
7.7289844e+3, 2.1680768e+2, -818411.2, -916019.8, -5220.665, 0.0021877168, -0.00032868577, -818132.75, -2847.5405, 0.0, 10.047383, 9.918868 
7.7287585e+3, 2.2672436e+2, -738633.75, -833762.44, -5531.3022, 0.0022018247, 0.00032803597, -738313.2, -20211.465, 0.0, 10.038162, 9.913199 
7.728532e+3, 2.366381e+2, -654403.9, -742707.25, -5832.8633, 0.0022354808, 0.00070876424, -654020.25, -33073.215, 0.0, 10.028893, 9.913093 
7.728307e+3, 2.4654776e+2, -574730.7, -659948.94, -5501.161, 0.0021151435, -0.00032824365, -574377.06, -50544.96, 0.0, 10.019234, 9.907711 
7.728083e+3, 2.564541e+2, -491129.3, -568990.2, -5942.718, 0.0019107738, -0.0023733492, -490678.34, -63928.523, 0.0, 10.009321, 9.907621 
7.727861e+3, 2.6636133e+2, -409671.75, -486392.47, -5395.898, 0.0022136709, 0.0013022376, -409294.13, -79634.98, 0.0, 10.001155, 9.901091 
7.727641e+3, 2.7626756e+2, -321199.38, -391856.8, -5640.5146, 0.002750831, 0.0064280625, -320751.94, -88173.84, 0.0, 9.993875, 9.901832 
7.727428e+3, 2.8615904e+2, -245535.47, -310613.84, -1938.7367, 0.0018466725, -0.0029274242, -245477.77, -109836.25, 0.0, 9.9812565, 9.896483 
7.7272224e+3, 2.9604426e+2, -172848.1, -227964.5, -5668.9614, 0.00023200148, -0.019081159, -172271.06, -133504.8, 0.0, 9.964963, 9.893554 
7.727009e+3, 3.0597305e+2, -136376.4, -186948.81, -2390.2385, 0.00405088, 0.027668403, -136263.69, -136263.69, 0.0, 9.956781, 9.891289 
7.726785e+3, 3.157802e+2, -37648.535, 24630.283, 13281.614, -0.00043861187, -0.08266951, 27344.443, 27344.443, 0.0, 9.953583, 10.035083 
7.7410936e+3, 1.2766075e+2, -1546207.1, -1695245.1, 288.39542, 0.0023047056, 0.000055983728, -1546206.6, 142718.92, 0.0, 10.136078, 9.936359 
7.7408755e+3, 1.3759717e+2, -1466486.4, -1607539.3, -172.44568, 0.0022172886, 0.000090917696, -1466486.1, 125062.52, 0.0, 10.124946, 9.936265 
7.7406526e+3, 1.4753215e+2, -1388073.3, -1523711.3, -2901.9688, 0.0022034883, 0.00030959715, -1388011.3, 106174.42, 0.0, 10.11426, 9.9333 
7.7404267e+3, 1.5746532e+2, -1306470.9, -1434587.0, -3193.1985, 0.0023020485, -0.00005287521, -1306391.3, 90449.26, 0.0, 10.104027, 9.933383 
7.740198e+3, 1.673969e+2, -1227518.1, -1351607.4, -4899.8413, 0.002297825, 0.000054618016, -1227325.0, 72186.086, 0.0, 10.094128, 9.929288 
7.739967e+3, 1.7732634e+2, -1144589.5, -1261606.3, -5175.7075, 0.0022084666, 0.00006760905, -1144361.0, 57841.402, 0.0, 10.084551, 9.929356 
7.7397346e+3, 1.8725333e+2, -1065529.1, -1179705.0, -6432.415, 0.0022130995, 0.00019773285, -1065167.9, 39750.12, 0.0, 10.075117, 9.924098 
7.7395016e+3, 1.971774e+2, -981789.9, -1089105.8, -6711.582, 0.0022666755, -0.000032272397, -981371.75, 26290.295, 0.0, 10.065866, 9.92415 
7.739267e+3, 2.0709893e+2, -902445.7, -1007378.25, -7577.795, 0.002238226, 0.000088577726, -901901.25, 8529.491, 0.0, 10.05663, 9.918417 
7.739032e+3, 2.1701741e+2, -818398.4, -916574.1, -7895.1943, 0.0021574234, -0.000084084604, -817767.5, -4537.8774, 0.0, 10.047438, 9.918345 
7.7387965e+3, 2.2693315e+2, -738854.3, -834732.8, -8311.741, 0.0021930777, 0.00020752226, -738139.06, -22083.813, 0.0, 10.038192, 9.912426 
7.738561e+3, 2.3684561e+2, -654680.2, -743707.6, -8677.238, 0.0022817573, -0.00005067652, -653842.3, -34929.13, 0.0, 10.028885, 9.912318 
7.738327e+3, 2.4675527e+2, -575076.2, -661267.7, -8637.165, 0.0021064053, 0.0000126505665, -574219.2, -52420.777, 0.0, 10.01929, 9.906694 
7.7380925e+3, 2.566622e+2, -491402.0, -570406.56, -8945.84, 0.0017879972, -0.00004909185, -490401.7, -65691.2, 0.0, 10.009492, 9.906489 
7.7378625e+3, 2.6656523e+2, -411426.53, -489269.94, -7514.0913, 0.0023135194, 0.00033368487, -410707.84, -83047.7, 0.0, 10.000699, 9.899326 
7.737635e+3, 2.764645e+2, -324956.03, -396440.84, -7942.1177, 0.0032279866, -0.00094090553, -324084.28, -93437.1, 0.0, 9.992367, 9.899434 
7.7374095e+3, 2.8635952e+2, -250675.05, -320009.6, -6352.07, 0.0015436925, -0.00040710758, -250097.9, -116421.086, 0.0, 9.980433, 9.89046 
7.7371854e+3, 2.962552e+2, -171813.67, -228946.45, -8571.698, -0.0014391507, 0.003554419, -170555.38, -133854.16, 0.0, 9.965973, 9.892124 
7.736968e+3, 3.0616376e+2, -106693.79, -127021.71, -3461.921, 0.006000613, -0.0015957645, -106120.38, -106120.38, 0.0, 9.957292, 9.930884 
7.7367413e+3, 3.160865e+2, -86172.195, -71278.78, 915.4748, 0.0028445858, -0.011336034, -71222.73, -71222.73, 0.0, 9.951346, 9.970696 
7.751232e+3, 1.2788744e+2, -1538740.5, -1690792.6, 4025.5554, 0.0022485363, 0.00016285197, -1538634.0, 148069.92, 0.0, 10.140371, 9.936244 
7.751002e+3, 1.3782357e+2, -1459872.0, -1603469.1, 3721.2834, 0.0023133685, -0.000028871376, -1459775.6, 129554.266, 0.0, 10.128665, 9.936224 
7.7507687e+3, 1.4775859e+2, -1382012.0, -1519880.3, 1579.4045, 0.002259804, 0.00022236982, -1381993.9, 109972.75, 0.0, 10.117619, 9.933309 
7.750532e+3, 1.5769188e+2, -1300738.3, -1430902.6, 1462.3118, 0.0022729759, 0.000018934103, -1300721.8, 93898.44, 0.0, 10.107167, 9.933421 
7.7502936e+3, 1.6762337e+2, -1222190.6, -1348404.6, 187.2502, 0.0022915825, 0.00008915803, -1222190.4, 75101.305, 0.0, 10.097145, 9.929096 
7.7500534e+3, 1.7755254e+2, -1139303.3, -1258392.1, 25.14798, 0.0022505587, 0.0000037565303, -1139303.3, 60682.46, 0.0, 10.087531, 9.929199 
7.7498114e+3, 1.8747924e+2, -1060441.3, -1176893.4, -956.7015, 0.002244549, 0.00014054464, -1060433.4, 42270.53, 0.0, 10.078113, 9.923687 
7.749569e+3, 1.9740294e+2, -976607.44, -1086234.9, -1159.9817, 0.002271238, -0.00004108003, -976595.2, 28856.45, 0.0, 10.068923, 9.923758 
7.749325e+3, 2.0732394e+2, -897495.94, -1005051.4, -1916.7651, 0.0022443514, 0.00010734631, -897461.8, 10763.915, 0.0, 10.059728, 9.9176655 
7.7490807e+3, 2.172417e+2, -813354.1, -914138.0, -2205.7668, 0.0021965574, -0.00002575425, -813305.9, -2274.2087, 0.0, 10.050573, 9.917658 
7.7488357e+3, 2.2715658e+2, -734040.3, -832581.7, -2613.9133, 0.0022108443, 0.00012213446, -733971.0, -20105.412, 0.0, 10.041246, 9.911602 
7.7485913e+3, 2.3706803e+2, -650080.6, -741687.2, -2908.8267, 0.0022576095, -0.00034969556, -649988.4, -33254.996, 0.0, 10.031813, 9.911487 
7.748347e+3, 2.4697706e+2, -570609.4, -659653.6, -2915.47, 0.0021548003, 0.00013029734, -570514.0, -50889.246, 0.0, 10.022273, 9.905578 
7.748104e+3, 2.5688347e+2, -486646.25, -568385.9, -3149.2756, 0.0019655188, 0.00081157207, -486525.1, -63983.293, 0.0, 10.012554, 9.905608 
7.7478635e+3, 2.6678523e+2, -408700.53, -486988.38, -1276.1719, 0.00224618, -0.0001346551, -408679.72, -83175.43, 0.0, 10.001858, 9.899528 
7.747626e+3, 2.7668267e+2, -326374.38, -395473.34, -711.5063, 0.0027742938, -0.0038244163, -326367.06, -97857.99, 0.0, 9.99045, 9.90023 
7.747389e+3, 2.865843e+2, -247485.36, -311795.84, 3974.931, 0.0018118797, 0.0009057928, -247240.6, -115767.14, 0.0, 9.97944, 9.895341 
7.747155e+3, 2.9649088e+2, -165057.4, -221597.92, 6948.1997, 0.00004798978, 0.012903008, -164216.08, -129826.484, 0.0, 9.968496, 9.89444 
7.7469236e+3, 3.0637383e+2, -113554.125, -142721.5, -5.735492, 0.0039784135, -0.016709298, -113554.125, -113554.125, 0.0, 9.957741, 9.919673 
7.74669e+3, 3.1635147e+2, -83382.14, -56216.188, -15323.3125, 0.0031880068, 0.05209847, -49322.32, -49322.32, 0.0, 9.94723, 9.983653 
7.7613723e+3, 1.2812385e+2, -1538605.8, -1690476.6, 1156.0599, 0.0022164707, 0.00025181985, -1538596.9, 145790.19, 0.0, 10.140071, 9.936357 
7.761131e+3, 1.3805996e+2, -1459733.6, -1603090.6, 833.98486, 0.002402552, -0.00011419378, -1459728.8, 127284.42, 0.0, 10.128339, 9.936391 
7.760886e+3, 1.4799522e+2, -1381773.3, -1519401.4, -929.1668, 0.0022836349, 0.00017111242, -1381767.0, 107880.5, 0.0, 10.11736, 9.933525 
7.760639e+3, 1.5792885e+2, -1300351.8, -1430333.0, -1130.8909, 0.002237474, 0.00009356766, -1300342.0, 91956.05, 0.0, 10.106998, 9.933654 
7.7603906e+3, 1.6786043e+2, -1221943.9, -1348202.6, -2178.6946, 0.0022873804, 0.00014698989, -1221906.3, 73062.2, 0.0, 10.09704, 9.92908 
7.760141e+3, 1.7778952e+2, -1138968.6, -1258119.0, -2413.1465, 0.002290725, -0.0000400794, -1138919.8, 58743.51, 0.0, 10.087471, 9.92921 
7.7598894e+3, 1.8771611e+2, -1060307.8, -1177078.5, -3326.6326, 0.002266679, 0.000108925364, -1060213.1, 40169.55, 0.0, 10.078092, 9.923402 
7.759638e+3, 1.9763955e+2, -976439.9, -1086400.9, -3626.7253, 0.0022576505, -0.000028116847, -976320.4, 26812.377, 0.0, 10.068922, 9.923479 
7.7593845e+3, 2.0756012e+2, -897580.8, -1005791.06, -4448.1025, 0.0022475512, 0.00016304711, -897398.25, 8512.827, 0.0, 10.059762, 9.91701 
7.759131e+3, 2.1747725e+2, -813356.44, -914761.3, -4816.6523, 0.0022258973, 0.000053847412, -813128.1, -4404.9946, 0.0, 10.050626, 9.91707 
7.758877e+3, 2.2739139e+2, -734174.1, -833465.0, -5447.991, 0.002220172, 0.00005257515, -733876.1, -22311.57, 0.0, 10.04129, 9.910856 
7.758623e+3, 2.3730192e+2, -650253.06, -742596.94, -5847.918, 0.0021942623, -0.00063566095, -649884.2, -35443.008, 0.0, 10.031834, 9.910742 
7.7583694e+3, 2.4721043e+2, -571007.1, -660998.56, -6086.762, 0.0022196386, 0.00030637314, -570597.3, -53259.773, 0.0, 10.022278, 9.904563 
7.758116e+3, 2.5711644e+2, -486738.2, -569045.56, -6474.4937, 0.0022300952, 0.0016297324, -486232.0, -65973.24, 0.0, 10.012523, 9.905057 
7.7578646e+3, 2.6701754e+2, -407752.72, -485254.66, -5536.3867, 0.0020653906, -0.00066150766, -407359.22, -84131.32, 0.0, 10.001667, 9.900618 
7.7576154e+3, 2.7691463e+2, -324405.84, -391399.4, -5322.0347, 0.0018748938, -0.0063813874, -323985.72, -97748.805, 0.0, 9.990156, 9.902939 
7.757369e+3, 2.868264e+2, -239822.1, -296679.4, -1871.2671, 0.0024221437, 0.002346946, -239760.58, -110660.84, 0.0, 9.97943, 9.905278 
7.7571255e+3, 2.9674736e+2, -162653.16, -217904.98, -410.28415, 0.0031615107, 0.020387776, -162650.11, -130777.08, 0.0, 9.968762, 9.896816 
7.756877e+3, 3.065932e+2, -139013.52, -195829.92, -4231.7734, -0.00079036516, -0.031379666, -138700.05, -138700.05, 0.0, 9.957724, 9.884321 
7.756634e+3, 3.1652564e+2, -30898.457, 52014.625, -8755.094, -0.001639654, 0.01613324, 52929.023, 52929.023, 0.0, 9.947308, 10.057709 
7.7715135e+3, 1.2837584e+2, -1532164.9, -1685941.0, 5076.0093, 0.0023049116, 0.000082981715, -1531997.5, 149920.17, 0.0, 10.14338, 9.936714 
7.77126e+3, 1.3831252e+2, -1454112.6, -1598962.4, 5009.867, 0.0023551655, 0.000008253759, -1453939.6, 130598.586, 0.0, 10.131118, 9.936777 
7.7710044e+3, 1.4824805e+2, -1376670.3, -1515695.1, 4049.6543, 0.0022610417, 0.0002142395, -1376552.4, 110617.53, 0.0, 10.119914, 9.933782 
7.7707475e+3, 1.581818e+2, -1295242.6, -1426577.0, 4032.9822, 0.002288695, -0.000008857848, -1295118.9, 94700.17, 0.0, 10.10954, 9.93395 
7.770489e+3, 1.681136e+2, -1216982.6, -1344842.1, 3497.3057, 0.0023342953, 0.00010358161, -1216887.1, 75600.26, 0.0, 10.099655, 9.9291 
7.77023e+3, 1.780428e+2, -1133767.0, -1254630.6, 3414.6067, 0.0022976736, 0.000028081718, -1133670.6, 61510.527, 0.0, 10.090244, 9.929234 
7.769969e+3, 1.8796913e+2, -1055194.4, -1174156.4, 2813.7434, 0.0022729514, 0.00010627238, -1055127.9, 42775.16, 0.0, 10.0810585, 9.922979 
7.7697086e+3, 1.9789207e+2, -970947.9, -1083261.0, 2587.931, 0.0022810663, -0.00012090839, -970888.25, 29769.91, 0.0, 10.072129, 9.923083 
7.7694464e+3, 2.0781215e+2, -892092.9, -1003116.75, 1888.6757, 0.0022680883, 0.0001803317, -892060.75, 11380.584, 0.0, 10.063175, 9.916219 
7.7691835e+3, 2.1772859e+2, -807575.44, -911943.9, 1554.019, 0.0022533534, 0.00022551003, -807552.3, -1292.3025, 0.0, 10.054237, 9.916285 
7.7689207e+3, 2.2764146e+2, -728593.0, -831258.94, 774.88885, 0.002255763, -0.00010699501, -728587.1, -19473.357, 0.0, 10.044988, 9.909644 
7.768657e+3, 2.3755045e+2, -644655.0, -740356.3, 337.5656, 0.0022540658, -0.0012078324, -644653.8, -32648.164, 0.0, 10.035534, 9.909574 
7.768394e+3, 2.4745859e+2, -565675.5, -659085.9, -65.10349, 0.0021971948, 0.0007856591, -565675.44, -50769.65, 0.0, 10.025878, 9.903244 
7.7681303e+3, 2.573644e+2, -481794.47, -567392.1, -657.19904, 0.002123642, 0.0035232278, -481789.4, -63960.387, 0.0, 10.015887, 9.903704 
7.767868e+3, 2.672613e+2, -404155.44, -484637.4, -1096.64, 0.002184794, -0.002108179, -404140.5, -83301.5, 0.0, 10.0042515, 9.899009 
7.7676064e+3, 2.7715304e+2, -322768.8, -392482.3, -1780.6758, 0.002284312, -0.012388017, -322723.38, -98823.8, 0.0, 9.991766, 9.900785 
7.767349e+3, 2.870694e+2, -239882.11, -302180.47, -2618.7244, 0.0022060857, 0.006779965, -239772.22, -113052.695, 0.0, 9.98149, 9.900337 
7.767095e+3, 2.9699787e+2, -159032.92, -218107.72, -8014.444, 0.0021124056, 0.03953362, -157964.94, -128544.5, 0.0, 9.971772, 9.895331 
7.7668357e+3, 3.06814e+2, -128146.97, -175487.98, -626.1221, 0.00069804676, -0.05772247, -128138.69, -128138.69, 0.0, 9.958256, 9.896772 
7.766587e+3, 3.167652e+2, -34946.184, 55275.645, 14327.209, 0.009417259, -0.001529849, 57496.152, 57496.152, 0.0, 9.942202, 10.060774 
7.781657e+3, 1.2863821e+2, -1531987.9, -1685014.6, 2100.8862, 0.0023656185, 0.000040419298, -1531959.1, 147387.39, 0.0, 10.142791, 9.937315 
7.781392e+3, 1.3857563e+2, -1453666.1, -1597868.6, 1999.8384, 0.0023208237, 0.000120756435, -1453638.4, 128321.31, 0.0, 10.1306925, 9.937405 
7.781125e+3, 1.4851172e+2, -1376250.4, -1514748.0, 1614.1742, 0.0022377658, 0.00028946064, -1376231.5, 108354.484, 0.0, 10.119578, 9.934301 
7.780857e+3, 1.584459e+2, -1294733.4, -1425567.5, 1539.5636, 0.002324803, -0.00006817322, -1294715.3, 92515.75, 0.0, 10.109256, 9.934489 
7.780588e+3, 1.6837811e+2, -1216662.9, -1344311.9, 1279.1705, 0.002366567, 0.00008970756, -1216650.1, 73245.11, 0.0, 10.099449, 9.929319 
7.78032e+3, 1.7830762e+2, -1133351.4, -1254066.3, 1101.6742, 0.002292324, 0.00011579827, -1133341.4, 59244.72, 0.0, 10.090108, 9.929445 
7.78005e+3, 1.8823385e+2, -1055081.4, -1174329.8, 608.2426, 0.0022706944, 0.00013941592, -1055078.4, 40230.453, 0.0, 10.081001, 9.922697 
7.77978e+3, 1.9815645e+2, -970725.44, -1083360.0, 308.50653, 0.002285986, -0.00018259429, -970724.56, 27342.725, 0.0, 10.072135, 9.922821 
7.7795094e+3, 2.0807612e+2, -892194.1, -1003897.2, -488.30023, 0.0022914738, 0.00022533388, -892192.0, 8662.325, 0.0, 10.063199, 9.915521 
7.7792376e+3, 2.17992e+2, -807730.7, -912787.94, -936.47534, 0.0022617127, 0.0003900452, -807722.3, -4043.557, 0.0, 10.054239, 9.915562 
7.778965e+3, 2.2790365e+2, -728977.3, -832771.56, -1968.7393, 0.002284641, -0.00022656436, -728940.0, -22395.645, 0.0, 10.045068, 9.908451 
7.778692e+3, 2.3781116e+2, -644882.56, -741760.06, -2449.7832, 0.0023047258, -0.0016873779, -644820.7, -35370.066, 0.0, 10.035704, 9.908407 
7.778419e+3, 2.4771893e+2, -566280.75, -660806.06, -3150.604, 0.002138542, 0.0013269617, -566175.8, -53821.336, 0.0, 10.025834, 9.901976 
7.778146e+3, 2.576244e+2, -482939.72, -569673.56, -3958.317, 0.001912185, 0.005293847, -482759.44, -67478.37, 0.0, 10.015598, 9.902186 
7.7778727e+3, 2.6751643e+2, -404545.66, -487612.1, -5198.6646, 0.002394445, -0.0037943188, -404221.56, -85883.36, 0.0, 10.00487, 9.8965645 
7.7775985e+3, 2.7740192e+2, -323085.84, -397872.25, -5536.117, 0.0030560368, -0.018557595, -322678.25, -101218.51, 0.0, 9.993508, 9.89621 
7.77733e+3, 2.8731894e+2, -248016.53, -319413.78, -4858.5254, 0.0015216013, 0.012350853, -247687.44, -123411.88, 0.0, 9.981476, 9.888784 
7.7770644e+3, 2.972491e+2, -164209.75, -223603.8, -9620.418, -0.00064116117, 0.060453717, -162690.34, -135727.06, 0.0, 9.969283, 9.892609 
7.7767986e+3, 3.070445e+2, -101064.53, -120704.67, -5968.5815, 0.0061237933, -0.08933972, -99392.97, -99392.97, 0.0, 9.958336, 9.933009 
7.776523e+3, 3.1705013e+2, -100142.414, -87691.54, 6077.1855, 0.0015246379, 0.0063992045, -85217.08, -85217.08, 0.0, 9.9455185, 9.961251 
7.7918005e+3, 1.2891714e+2, -1527263.8, -1680834.8, 6261.53, 0.002383157, 0.00016819089, -1527008.9, 149604.19, 0.0, 10.144711, 9.938086 
7.791523e+3, 1.3885511e+2, -1449403.6, -1593855.3, 6437.0195, 0.002357498, -0.000006625956, -1449117.4, 130103.414, 0.0, 10.13229, 9.938237 
7.7912444e+3, 1.4879206e+2, -1372217.5, -1510974.0, 7038.221, 0.0022561927, 0.00023638687, -1371861.4, 109977.25, 0.0, 10.121142, 9.935023 
7.790967e+3, 1.5872706e+2, -1290421.4, -1421644.3, 7219.8955, 0.0023433089, 0.000024798677, -1290025.4, 94450.17, 0.0, 10.111005, 9.935202 
7.790689e+3, 1.6865969e+2, -1212343.8, -1340950.0, 7581.3223, 0.0023925703, 0.000099472105, -1211898.4, 75237.48, 0.0, 10.101498, 9.929539 
7.790411e+3, 1.7858933e+2, -1128408.4, -1250349.0, 7573.485, 0.0023127168, 0.000042377873, -1127939.8, 61885.605, 0.0, 10.092554, 9.9296875 
7.790133e+3, 1.885156e+2, -1049879.1, -1171089.8, 7471.6797, 0.0022885918, 0.00015480051, -1049420.3, 43127.402, 0.0, 10.083913, 9.922406 
7.7898544e+3, 1.9843799e+2, -964778.94, -1079756.0, 7274.3755, 0.0023048916, -0.00007284973, -964320.5, 30987.852, 0.0, 10.075543, 9.922514 
7.789575e+3, 2.0835689e+2, -886156.25, -1000964.8, 6545.9775, 0.0023200945, 0.00015578189, -885784.2, 12318.755, 0.0, 10.066988, 9.914598 
7.789295e+3, 2.1827169e+2, -801131.06, -909557.25, 6153.8745, 0.0023356953, 0.00014227562, -800782.9, 155.14435, 0.0, 10.058397, 9.91466 
7.789013e+3, 2.2818261e+2, -722122.94, -829899.06, 5065.2373, 0.0022639055, -0.00000031245818, -721885.4, -18074.7, 0.0, 10.049598, 9.907136 
7.78873e+3, 2.3808928e+2, -637543.7, -738555.2, 4541.108, 0.0021792392, -0.0008791767, -637339.94, -30614.662, 0.0, 10.040512, 9.907184 
7.788448e+3, 2.4799462e+2, -559674.94, -658244.3, 3433.9302, 0.0023077712, 0.00073950615, -559555.44, -49902.496, 0.0, 10.030241, 9.90053 
7.788164e+3, 2.5789717e+2, -477355.1, -567814.56, 2954.4805, 0.0024441718, 0.0029126452, -477258.7, -64650.61, 0.0, 10.019432, 9.900594 
7.7878803e+3, 2.6779047e+2, -395845.47, -484704.75, 2328.2427, 0.0020363338, -0.0023098239, -395784.5, -80131.49, 0.0, 10.011019, 9.8945265 
7.787596e+3, 2.7767828e+2, -309669.1, -392168.28, 1510.6422, 0.0016379571, -0.011626461, -309641.44, -90889.81, 0.0, 10.002542, 9.894562 
7.7873135e+3, 2.875859e+2, -242817.27, -316067.28, 3242.9475, 0.0024174594, 0.008618058, -242673.97, -121014.805, 0.0, 9.9841, 9.888388 
7.787032e+3, 2.9750302e+2, -173621.22, -228031.05, 5146.787, 0.0031854585, 0.041435428, -173138.64, -148664.73, 0.0, 9.96252, 9.89137 
7.7867556e+3, 3.0732945e+2, -95987.71, -120591.09, 2079.5444, 0.0024619454, -0.066969946, -95813.18, -95813.18, 0.0, 9.962755, 9.930381 
7.786478e+3, 3.1736192e+2, -72564.305, -80850.96, -5110.0938, -0.0025435693, 0.064490534, -70128.87, -70128.87, 0.0, 9.966443, 9.955815 
7.801945e+3, 1.2920682e+2, -1526820.8, -1679156.8, 3235.7693, 0.0023664064, 0.0002873021, -1526752.0, 147022.34, 0.0, 10.14397, 9.939195 
7.801655e+3, 1.3914576e+2, -1448928.6, -1592128.0, 3450.0776, 0.0024023391, -0.000069951246, -1448845.5, 127526.94, 0.0, 10.13156, 9.939379 
7.801366e+3, 1.4908387e+2, -1371694.8, -1509372.8, 4771.9585, 0.0022493824, 0.00024683215, -1371529.5, 107449.6, 0.0, 10.120579, 9.936041 
7.801078e+3, 1.5901998e+2, -1289678.4, -1419963.5, 4876.7246, 0.002341725, 0.00012653439, -1289496.1, 92109.05, 0.0, 10.110604, 9.936196 
7.8007907e+3, 1.6895324e+2, -1211911.5, -1340075.6, 5594.8477, 0.0024025175, 0.00012964565, -1211667.8, 72591.375, 0.0, 10.101228, 9.929986 
7.800504e+3, 1.7888327e+2, -1127833.3, -1249411.3, 5522.6685, 0.0023207432, -0.000010330232, -1127582.9, 59361.86, 0.0, 10.092382, 9.930131 
7.8002167e+3, 1.888098e+2, -1049694.4, -1171035.3, 5517.374, 0.002296562, 0.00021694056, -1049444.0, 40220.688, 0.0, 10.083814, 9.922273 
7.79993e+3, 1.9873214e+2, -964583.1, -1079741.4, 5196.537, 0.0023095296, 0.00008751092, -964349.1, 28076.73, 0.0, 10.07547, 9.922349 
7.7996415e+3, 2.0865037e+2, -886323.44, -1001897.6, 4332.9053, 0.0023501017, 0.000104018625, -886161.25, 9065.927, 0.0, 10.067013, 9.913785 
7.7993524e+3, 2.1856415e+2, -801173.8, -910396.06, 3878.2075, 0.0023584617, -0.00014378603, -801036.3, -2964.2634, 0.0, 10.058489, 9.913878 
7.799063e+3, 2.2847459e+2, -722686.56, -831561.94, 2493.7124, 0.0022069213, 0.0003478268, -722629.44, -21679.875, 0.0, 10.049577, 9.905879 
7.798771e+3, 2.3838061e+2, -638254.8, -740219.2, 1745.4304, 0.0020274022, 0.00019543555, -638224.94, -34354.57, 0.0, 10.040348, 9.905996 
7.798478e+3, 2.4828312e+2, -559961.2, -659836.9, -71.73448, 0.0025480103, -0.00019863843, -559961.1, -53135.434, 0.0, 10.030373, 9.899229 
7.798184e+3, 2.581823e+2, -477237.4, -569334.44, -223.9629, 0.0030711445, -0.00055360177, -477236.88, -67423.09, 0.0, 10.019919, 9.899186 
7.797891e+3, 2.6807922e+2, -397878.03, -487648.44, -305.2258, 0.001420022, 0.0006783986, -397877.0, -85053.34, 0.0, 10.010269, 9.892822 
7.7975965e+3, 2.779723e+2, -312483.53, -393447.66, -2605.6035, -0.00041485848, -0.00033022373, -312399.78, -96528.63, 0.0, 10.000265, 9.89463 
7.797299e+3, 2.8786653e+2, -237874.63, -307794.7, -5127.8896, 0.004103862, -0.00070763915, -237500.55, -118593.21, 0.0, 9.984254, 9.893434 
7.797e+3, 2.977663e+2, -169701.7, -229319.64, -551.6616, 0.009331573, 0.005509768, -169696.6, -147807.19, 0.0, 9.9661045, 9.888612 
7.796711e+3, 3.07652e+2, -112471.484, -155262.16, 5106.926, -0.0065241326, -0.011401725, -111870.43, -111870.43, 0.0, 9.963227, 9.907093 
7.7964455e+3, 3.1757918e+2, -42955.863, -9198.02, -14755.245, -0.00041220215, 0.009533206, -3657.8586, -3657.8586, 0.0, 9.961161, 10.006669 
7.812089e+3, 1.2951298e+2, -1524135.5, -1675129.0, 7431.397, 0.0023570326, 0.000112293616, -1523770.6, 147003.4, 0.0, 10.144111, 9.940714 
7.811786e+3, 1.3945368e+2, -1446537.0, -1588240.1, 8078.916, 0.002464662, 0.000050068105, -1446077.9, 127277.305, 0.0, 10.131525, 9.940891 
7.811486e+3, 1.4939304e+2, -1369291.1, -1505825.0, 10677.739, 0.0022668059, 0.0002716119, -1368461.1, 107488.21, 0.0, 10.120807, 9.937236 
7.8111887e+3, 1.5933026e+2, -1286484.1, -1415979.6, 11067.45, 0.0023581816, 0.000053191226, -1285545.0, 93019.58, 0.0, 10.1113405, 9.937387 
7.810892e+3, 1.6926445e+2, -1208306.5, -1336551.1, 12510.643, 0.0024321105, 0.000108194, -1207097.5, 74112.016, 0.0, 10.102587, 9.930579 
7.8105974e+3, 1.791951e+2, -1123196.5, -1245433.5, 12667.52, 0.0023413186, 0.000027988197, -1121897.6, 61991.496, 0.0, 10.094456, 9.930637 
7.810302e+3, 1.8912172e+2, -1044619.75, -1167669.4, 13063.504, 0.0023090453, 0.00024143828, -1043248.1, 43360.06, 0.0, 10.086576, 9.922047 
7.810007e+3, 1.9904381e+2, -958350.25, -1075755.0, 12859.646, 0.0023414707, 0.000109515066, -956958.2, 32413.58, 0.0, 10.078985, 9.922142 
7.809711e+3, 2.0896147e+2, -879498.3, -998383.94, 12112.134, 0.0023702804, 0.00010347175, -878276.9, 13901.698, 0.0, 10.071262, 9.912905 
7.8094137e+3, 2.1887434e+2, -793338.44, -906406.6, 11701.553, 0.0023594555, -0.00018721512, -792140.1, 2892.4382, 0.0, 10.063421, 9.91297 
7.8091145e+3, 2.2878364e+2, -714908.25, -828359.7, 10047.119, 0.0022394191, 0.00044278457, -714025.4, -16103.993, 0.0, 10.054778, 9.904325 
7.808814e+3, 2.3868826e+2, -630257.5, -736905.25, 9341.52, 0.002148967, 0.00051306305, -629445.5, -28589.557, 0.0, 10.045701, 9.904466 
7.808512e+3, 2.4858855e+2, -551031.5, -656543.3, 7173.8364, 0.0025190602, -0.00048640886, -550546.0, -46713.21, 0.0, 10.036527, 9.897294 
7.808207e+3, 2.5848526e+2, -467252.72, -565256.5, 6669.3203, 0.0028808615, -0.0015104593, -466800.97, -59956.484, 0.0, 10.02665, 9.897509 
7.807902e+3, 2.6838267e+2, -392850.1, -485569.38, 5900.2627, 0.0016532147, 0.0019760735, -392476.16, -82625.62, 0.0, 10.013425, 9.891575 
7.8075963e+3, 2.782767e+2, -313638.44, -393767.38, 4167.176, 0.00031614094, 0.0036534867, -313422.3, -100532.85, 0.0, 9.999031, 9.893969 
7.8072864e+3, 2.8816438e+2, -224589.36, -299468.56, 1021.0898, 0.0036829817, -0.0050339284, -224575.44, -108588.35, 0.0, 9.9920635, 9.89417 
7.806976e+3, 2.9805648e+2, -142116.64, -220218.0, 3137.5103, 0.0075701373, -0.008349912, -141990.8, -122949.4, 0.0, 9.986119, 9.884105 
7.806674e+3, 3.0796206e+2, -126423.59, -181737.89, 7094.6304, -0.0047401874, 0.016327443, -125528.125, -125528.125, 0.0, 9.961736, 9.889342 
7.8063977e+3, 3.178276e+2, -50808.617, 39428.766, -10446.525, 0.008671705, -0.029913008, 40622.34, 40622.34, 0.0, 9.932908, 10.053018 
7.822233e+3, 1.298304e+2, -1523564.9, -1672488.0, 4393.66, 0.0023558196, 0.00013152618, -1523435.4, 144228.1, 0.0, 10.142998, 9.942578 
7.8219175e+3, 1.3977306e+2, -1445718.6, -1585470.6, 5124.9614, 0.002511633, 0.0001758095, -1445531.0, 124694.4, 0.0, 10.130588, 9.9427595 
7.821607e+3, 1.4971407e+2, -1368546.3, -1503472.0, 8683.113, 0.0022514365, 0.00033227628, -1367989.8, 104813.6, 0.0, 10.120091, 9.9387865 
7.8213e+3, 1.5965278e+2, -1285518.1, -1413570.6, 9018.082, 0.0023489415, 0.000029857905, -1284886.1, 90517.836, 0.0, 10.1108, 9.938894 
7.820995e+3, 1.6958818e+2, -1207701.1, -1335097.1, 10843.554, 0.0024427925, 0.00015195068, -1206784.8, 71252.27, 0.0, 10.102211, 9.931435 
7.8206915e+3, 1.7951971e+2, -1122480.6, -1244048.5, 10908.733, 0.0023356394, 0.000118720454, -1121509.5, 59198.426, 0.0, 10.094213, 9.931393 
7.820388e+3, 1.8944664e+2, -1044348.06, -1167438.8, 11443.414, 0.0022974964, 0.00029929768, -1043293.2, 40130.996, 0.0, 10.086483, 9.922011 
7.820086e+3, 1.9936869e+2, -957945.5, -1075458.1, 11171.591, 0.002324753, 0.00013548895, -956892.9, 29295.37, 0.0, 10.078979, 9.92211 
7.819782e+3, 2.0928597e+2, -879624.75, -999219.06, 10222.857, 0.0023751566, 0.00016621214, -878757.25, 10241.474, 0.0, 10.071286, 9.912142 
7.8194773e+3, 2.1919808e+2, -793522.25, -907322.56, 9623.682, 0.0023523478, -0.00011274304, -792714.1, -854.19196, 0.0, 10.063421, 9.912171 
7.819169e+3, 2.2910623e+2, -715408.0, -830266.6, 7461.9844, 0.0022989924, 0.00053527503, -714925.25, -20165.01, 0.0, 10.0549, 9.902818 
7.81886e+3, 2.3900938e+2, -630606.8, -738757.56, 6746.7793, 0.0022578512, 0.0005956235, -630187.56, -32477.934, 0.0, 10.045936, 9.9029455 
7.818548e+3, 2.4890776e+2, -552034.6, -659295.5, 4141.876, 0.002370114, -0.0005660515, -551874.9, -51170.008, 0.0, 10.036544, 9.895292 
7.8182334e+3, 2.5880253e+2, -468285.22, -567508.2, 3068.5315, 0.0024440805, -0.0016799502, -468190.4, -64454.78, 0.0, 10.026378, 9.895956 
7.817916e+3, 2.6869947e+2, -392820.16, -486718.25, 568.6983, 0.0022170495, 0.0026827971, -392816.72, -86069.89, 0.0, 10.013486, 9.890539 
7.817597e+3, 2.7859282e+2, -312865.47, -394671.1, -70.434296, 0.001902462, 0.004783867, -312865.4, -103072.54, 0.0, 9.999749, 9.892847 
7.817278e+3, 2.8847677e+2, -224743.13, -300886.0, -1197.5656, 0.0021802082, -0.007181518, -224724.3, -111800.05, 0.0, 9.992381, 9.893029 
7.816958e+3, 2.9836538e+2, -148125.97, -231182.03, -2329.2676, 0.0025912405, -0.012131209, -148060.7, -132050.3, 0.0, 9.9851, 9.877208 
7.816641e+3, 3.0827063e+2, -135565.88, -201693.48, -3548.9758, 0.0029494544, 0.02563125, -135375.95, -135375.95, 0.0, 9.961215, 9.875787 
7.8163254e+3, 3.1813228e+2, -47164.152, 42150.223, -4943.6475, 0.0008005403, -0.011411248, 42423.027, 42423.027, 0.0, 9.935202, 10.053681 
7.8323746e+3, 1.3016461e+2, -1523822.9, -1669160.8, 8590.114, 0.002475165, 0.00021664063, -1523316.9, 141071.38, 0.0, 10.140823, 9.944806 
7.832047e+3, 1.4010932e+2, -1445713.9, -1581917.0, 9848.067, 0.0024691843, 0.000058438123, -1445005.5, 121924.59, 0.0, 10.1285715, 9.945029 
7.831726e+3, 1.5005247e+2, -1368055.4, -1500071.5, 14957.199, 0.0022394524, 0.00027494272, -1366382.0, 103105.27, 0.0, 10.11871, 9.940674 
7.831411e+3, 1.5999311e+2, -1283718.8, -1409606.1, 15630.54, 0.0024144994, 0.000087090186, -1281807.1, 90261.766, 0.0, 10.110327, 9.940637 
7.831097e+3, 1.699298e+2, -1205199.3, -1331641.9, 18264.1, 0.0024916872, 0.00019045947, -1202613.9, 72075.45, 0.0, 10.102658, 9.932398 
7.830787e+3, 1.7986226e+2, -1118402.3, -1239740.0, 18580.613, 0.0023230205, 0.00010563318, -1115620.8, 61730.598, 0.0, 10.095675, 9.932363 
7.830476e+3, 1.8978971e+2, -1039291.75, -1163554.3, 19649.43, 0.00228664, 0.00029401397, -1036258.7, 43803.598, 0.0, 10.089038, 9.922154 
7.830167e+3, 1.9971189e+2, -951283.3, -1070888.3, 19569.633, 0.0023502142, 0.00015473909, -948162.75, 34662.344, 0.0, 10.082652, 9.922113 
7.8298557e+3, 2.0962863e+2, -872310.8, -995394.44, 18684.545, 0.0023724302, 0.00014701835, -869536.94, 16104.144, 0.0, 10.075864, 9.911203 
7.8295434e+3, 2.1953982e+2, -784830.75, -902771.06, 18181.297, 0.002381863, -0.00008900608, -782091.6, 6419.7695, 0.0, 10.068901, 9.911259 
7.8292274e+3, 2.2944678e+2, -705856.4, -826232.7, 15770.7295, 0.0023587763, 0.00070991524, -703824.5, -12401.048, 0.0, 10.061334, 9.901078 
7.82891e+3, 2.3934819e+2, -619958.1, -734225.44, 15082.25, 0.0023444095, 0.0008241058, -618000.94, -23611.252, 0.0, 10.053124, 9.901176 
7.828588e+3, 2.4924414e+2, -541754.2, -655556.94, 11921.853, 0.0022724317, -0.0008401986, -540518.6, -43109.574, 0.0, 10.043693, 9.893015 
7.828263e+3, 2.5913638e+2, -458593.63, -564242.1, 10587.284, 0.002221158, -0.0021840727, -457543.1, -57078.227, 0.0, 10.0331955, 9.893561 
7.827934e+3, 2.690321e+2, -381628.38, -483021.16, 6743.891, 0.0025230928, 0.0037833145, -381181.78, -77693.805, 0.0, 10.021338, 9.887923 
7.827602e+3, 2.7892363e+2, -300534.5, -391013.56, 6304.339, 0.0027961181, 0.0069688163, -300097.34, -93545.805, 0.0, 10.008698, 9.889801 
7.827273e+3, 2.887998e+2, -217875.8, -301247.34, 4986.5513, 0.001788621, -0.0099235205, -217578.61, -107818.76, 0.0, 9.998317, 9.888969 
7.8269416e+3, 2.986821e+2, -145573.22, -230493.64, 1224.9263, 0.00073323917, -0.018126963, -145555.55, -132646.95, 0.0, 9.986588, 9.875966 
7.826606e+3, 3.0860314e+2, -118647.95, -185941.56, 2031.0964, 0.004639154, 0.036060683, -118586.7, -118586.7, 0.0, 9.968548, 9.880963 
7.826262e+3, 3.1846705e+2, -35048.613, 48870.6, 7330.0146, -0.002209099, -0.0056018597, 49506.035, 49506.035, 0.0, 9.94232, 10.052729 
7.842515e+3, 1.3050993e+2, -1523145.1, -1665486.9, 5605.872, 0.0024749984, 0.00031614944, -1522924.8, 138079.55, 0.0, 10.139298, 9.947509 
7.8421754e+3, 1.4045727e+2, -1444599.0, -1578022.3, 7093.1587, 0.0024284783, 0.00004219479, -1444223.0, 119297.336, 0.0, 10.127358, 9.947722 
7.841844e+3, 1.5040295e+2, -1367021.9, -1496728.3, 13346.946, 0.002208271, 0.00032660674, -1365662.8, 100389.97, 0.0, 10.117809, 9.94294 
7.8415203e+3, 1.6034587e+2, -1282460.3, -1406344.3, 13919.208, 0.0024236445, 0.00018130096, -1280915.5, 87696.484, 0.0, 10.109669, 9.942741 
7.8411996e+3, 1.7028418e+2, -1204364.0, -1329542.3, 17025.877, 0.002497867, 0.000246354, -1202089.6, 69127.14, 0.0, 10.102213, 9.933695 
7.840882e+3, 1.8021792e+2, -1117370.3, -1237591.9, 17314.795, 0.0022829545, 0.00014916057, -1114926.1, 58940.01, 0.0, 10.095389, 9.9336195 
7.840565e+3, 1.9014622e+2, -1038726.7, -1162632.3, 18479.98, 0.0022837964, 0.00036193707, -1036029.2, 40539.64, 0.0, 10.088918, 9.922573 
7.8402495e+3, 2.0006879e+2, -950714.3, -1070171.4, 18264.324, 0.0023654348, 0.00023305941, -947984.2, 31343.51, 0.0, 10.082624, 9.922363 
7.839931e+3, 2.0998518e+2, -872251.6, -996107.75, 17147.729, 0.0023453285, 0.00018216674, -869921.4, 12225.858, 0.0, 10.076011, 9.910448 
7.8396124e+3, 2.1989565e+2, -784649.75, -903418.5, 16553.219, 0.002311028, -0.00005895786, -782385.8, 2639.1018, 0.0, 10.069124, 9.910514 
7.8392893e+3, 2.2980157e+2, -706391.9, -828277.9, 13569.6455, 0.0023531246, 0.0009136008, -704899.44, -16952.291, 0.0, 10.061495, 9.899453 
7.8389627e+3, 2.3970143e+2, -620609.8, -736367.44, 12718.187, 0.0024140412, 0.0010829138, -619228.94, -28300.432, 0.0, 10.053215, 9.899524 
7.838631e+3, 2.4959505e+2, -542680.44, -658568.8, 8665.448, 0.0022007676, -0.0010157138, -542036.06, -48064.918, 0.0, 10.043844, 9.890742 
7.8382957e+3, 2.594848e+2, -459617.4, -567654.94, 7087.648, 0.0019826076, -0.002586447, -459154.44, -62102.832, 0.0, 10.033417, 9.89099 
7.8379554e+3, 2.693789e+2, -382800.1, -487069.63, 2372.3137, 0.0027643181, 0.004957264, -382746.16, -82656.15, 0.0, 10.02162, 9.884873 
7.8376114e+3, 2.7926785e+2, -302493.88, -396646.13, 2510.8088, 0.0034396288, 0.008966076, -302426.97, -99248.38, 0.0, 10.009019, 9.8857155 
7.837271e+3, 2.8913507e+2, -221692.9, -308868.47, 1430.3466, 0.0017362565, -0.013178037, -221669.44, -115192.56, 0.0, 9.997856, 9.883944 
7.836928e+3, 2.990111e+2, -145802.48, -229032.23, -3733.8513, -0.00032614675, -0.024151199, -145635.31, -135946.22, 0.0, 9.985263, 9.877271 
7.8365725e+3, 3.0895755e+2, -107273.94, -162002.89, -4505.1597, 0.003386907, 0.047139395, -106905.56, -106905.56, 0.0, 9.9676485, 9.896776 
7.8362054e+3, 3.1881854e+2, -65947.62, -16802.266, -10433.068, 0.000054126587, -0.003673107, -14679.15, -14679.15, 0.0, 9.941494, 10.007007 
7.8526515e+3, 1.3087098e+2, -1526852.0, -1662664.5, 9554.567, 0.0024208254, 0.00013942804, -1526183.1, 131283.06, 0.0, 10.134291, 9.950899 
7.8523004e+3, 1.4082186e+2, -1447374.9, -1574861.8, 11746.11, 0.0025016188, 0.00016505497, -1446301.6, 113645.914, 0.0, 10.123062, 9.950918 
7.8519607e+3, 1.5077026e+2, -1368902.6, -1493813.1, 19737.986, 0.002207064, 0.00035378858, -1365858.0, 96595.3, 0.0, 10.114585, 9.945479 
7.851629e+3, 1.6071567e+2, -1282439.1, -1402410.8, 20678.37, 0.002433068, 0.00014946265, -1278975.0, 86013.23, 0.0, 10.107672, 9.94525 
7.8513014e+3, 1.7065607e+2, -1203012.1, -1325763.6, 24711.271, 0.0024972067, 0.00022169975, -1198224.3, 69348.164, 0.0, 10.101541, 9.935424 
7.850978e+3, 1.8059152e+2, -1114118.3, -1233035.0, 25391.129, 0.0022970235, 0.00017982197, -1108923.6, 61281.387, 0.0, 10.096061, 9.935128 
7.850655e+3, 1.9052075e+2, -1034265.9, -1158480.4, 27132.064, 0.0023234321, 0.0003495464, -1028598.06, 44300.586, 0.0, 10.090881, 9.923156 
7.850334e+3, 2.0044388e+2, -944161.0, -1064980.6, 27201.854, 0.0024401925, 0.00019945776, -938319.1, 37333.14, 0.0, 10.085987, 9.922888 
7.85001e+3, 2.1036038e+2, -864260.3, -991347.3, 26319.133, 0.0023243665, 0.00031376065, -859025.4, 19445.363, 0.0, 10.080836, 9.9099245 
7.8496844e+3, 2.2027034e+2, -774681.0, -897796.9, 25957.9, 0.0022307774, 0.00015932992, -769431.75, 11921.534, 0.0, 10.075323, 9.909842 
7.849354e+3, 2.301746e+2, -695680.8, -823407.25, 22693.822, 0.0023765734, 0.00060210936, -691768.5, -7476.7915, 0.0, 10.068631, 9.897791 
7.84902e+3, 2.4007252e+2, -608550.6, -730830.56, 22026.973, 0.0025224942, 0.00044340585, -604703.75, -17411.42, 0.0, 10.061261, 9.89786 
7.84868e+3, 2.4996544e+2, -529908.5, -653794.9, 17367.988, 0.0021377238, 0.0001665489, -527519.7, -37177.496, 0.0, 10.05277, 9.888107 
7.8483343e+3, 2.598536e+2, -445777.1, -562226.9, 15727.805, 0.0018495925, -0.000101731566, -443690.28, -50251.715, 0.0, 10.0429945, 9.888487 
7.8479826e+3, 2.6974034e+2, -368707.75, -482142.75, 10300.1455, 0.002948454, 0.0017549144, -367780.06, -71231.97, 0.0, 10.031523, 9.881829 
7.8476256e+3, 2.7962297e+2, -289349.84, -392690.78, 10764.354, 0.0038110572, 0.0018381634, -288240.5, -88542.03, 0.0, 10.018518, 9.882271 
7.847271e+3, 2.8950027e+2, -214077.06, -308166.47, 9450.538, 0.00094416854, -0.00303525, -213137.22, -110234.25, 0.0, 10.003797, 9.880049 
7.846912e+3, 2.9938394e+2, -140126.36, -221854.92, 4180.3027, -0.0016308635, -0.0014421993, -139913.11, -133869.34, 0.0, 9.986626, 9.879768 
7.846543e+3, 3.0929253e+2, -92416.58, -139302.83, 640.62024, 0.0066279415, 0.011713789, -92407.83, -92407.83, 0.0, 9.970384, 9.909071 
7.84616e+3, 3.1917498e+2, -51000.277, -23731.51, -4081.647, 0.0055728466, -0.022581447, -23133.666, -23133.666, 0.0, 9.957076, 9.993199 
7.8627855e+3, 1.3124287e+2, -1525910.4, -1657600.4, 6813.9023, 0.0024269552, 0.00023847094, -1525558.8, 128263.125, 0.0, 10.1323595, 9.954681 
7.862423e+3, 1.4119755e+2, -1445853.6, -1569635.0, 9240.926, 0.0025494061, 0.00028511783, -1445167.6, 111098.49, 0.0, 10.121608, 9.954584 
7.862075e+3, 1.5114921e+2, -1367658.3, -1489438.0, 18581.574, 0.0021454638, 0.00041287002, -1364886.1, 93853.625, 0.0, 10.11343, 9.948541 
7.861737e+3, 1.6109765e+2, -1281009.9, -1398102.5, 19539.486, 0.0024288916, 0.00018087155, -1277835.4, 83409.875, 0.0, 10.106723, 9.948176 
7.8614026e+3, 1.7104055e+2, -1201759.6, -1322469.4, 23974.025, 0.0024979336, 0.00026126872, -1197172.5, 66632.28, 0.0, 10.100963, 9.937563 
7.8610736e+3, 1.8097809e+2, -1112657.1, -1229922.9, 24582.77, 0.0022464197, 0.00025222523, -1107712.3, 58704.598, 0.0, 10.095758, 9.937028 
7.860746e+3, 1.9090867e+2, -1033186.56, -1156629.1, 26485.707, 0.0022744434, 0.00038993085, -1027743.8, 41353.504, 0.0, 10.090838, 9.924138 
7.86042e+3, 2.0083278e+2, -942961.9, -1063182.1, 26500.924, 0.0023999813, 0.0002174789, -937379.3, 34462.047, 0.0, 10.086077, 9.9237795 
7.86009e+3, 2.1074983e+2, -863744.56, -991058.4, 25307.875, 0.0022699835, 0.00054365053, -858898.25, 15756.22, 0.0, 10.08098, 9.909825 
7.85976e+3, 2.2065973e+2, -774247.1, -897812.3, 24740.791, 0.0021518576, 0.00044633826, -769477.5, 8060.2, 0.0, 10.075518, 9.909525 
7.8594226e+3, 2.3056257e+2, -695724.1, -824944.9, 20797.906, 0.0023974415, 0.0002783355, -692459.25, -11969.011, 0.0, 10.0690155, 9.896376 
7.859081e+3, 2.4045883e+2, -608560.44, -732374.3, 20024.773, 0.0024854187, -0.00020159116, -605402.4, -21895.291, 0.0, 10.061676, 9.896434 
7.8587323e+3, 2.503516e+2, -531035.9, -657144.75, 14344.317, 0.0020649876, 0.0017701958, -529424.9, -42866.125, 0.0, 10.052888, 9.885622 
7.858377e+3, 2.6023838e+2, -447061.0, -565425.7, 12500.883, 0.0017689503, 0.0027553332, -445755.16, -56085.973, 0.0, 10.04289, 9.886207 
7.8580135e+3, 2.7011636e+2, -369777.22, -485882.16, 5867.7163, 0.0030348669, -0.0031197837, -369481.4, -76617.84, 0.0, 10.031722, 9.878997 
7.857644e+3, 2.7999252e+2, -290591.66, -396993.34, 6116.49, 0.003821681, -0.0075519015, -290241.2, -94163.78, 0.0, 10.01879, 9.8790245 
7.857273e+3, 2.898882e+2, -216713.36, -313007.88, 3375.5254, -0.00007474611, 0.014339336, -216595.19, -117487.4, 0.0, 10.002936, 9.876946 
7.856898e+3, 2.9978275e+2, -139413.19, -218440.67, -2556.0107, -0.0026966638, 0.03152324, -139330.61, -137185.3, 0.0, 9.9851465, 9.882427 
7.856517e+3, 3.0961767e+2, -83130.17, -122416.34, -5356.5625, 0.012068919, -0.057992373, -82412.914, -82412.914, 0.0, 9.970719, 9.9198065 
7.856112e+3, 3.1958386e+2, -65758.89, -59226.156, 1553.1293, -0.0014029471, 0.009607788, -58875.703, -58875.703, 0.0, 9.959771, 9.967939 
7.8729135e+3, 1.31629e+2, -1533933.0, -1656217.1, 10288.711, 0.0026403028, 0.00032454115, -1533073.4, 116964.58, 0.0, 10.124217, 9.958881 
7.8725404e+3, 1.4158778e+2, -1451808.8, -1566930.0, 13450.165, 0.002462479, 0.00021445149, -1450258.1, 102183.9, 0.0, 10.114736, 9.95891 
7.872185e+3, 1.5154347e+2, -1371928.5, -1486495.9, 24633.777, 0.002127374, 0.00034101645, -1366856.4, 88019.71, 0.0, 10.108125, 9.9522505 
7.871841e+3, 1.614955e+2, -1283040.9, -1394387.9, 26077.08, 0.0025678636, 0.00016606628, -1277236.3, 80109.78, 0.0, 10.103062, 9.95147 
7.8715026e+3, 1.7144124e+2, -1202197.9, -1318764.5, 31498.727, 0.0025985253, 0.0002782777, -1194230.8, 65647.266, 0.0, 10.098804, 9.940081 
7.871169e+3, 1.8138124e+2, -1110683.3, -1225037.0, 32524.672, 0.0022863909, 0.00023141522, -1102079.8, 60386.402, 0.0, 10.095212, 9.939427 
7.870837e+3, 1.9131383e+2, -1029342.4, -1151546.0, 35202.67, 0.0021876786, 0.00037153665, -1019927.06, 45199.87, 0.0, 10.09191, 9.925809 
7.870507e+3, 2.0123953e+2, -936871.56, -1057244.6, 35669.156, 0.0023127631, 0.00025062222, -927095.9, 40759.367, 0.0, 10.088766, 9.925133 
7.870174e+3, 2.1115728e+2, -856190.7, -985448.9, 34881.8, 0.0023993303, 0.00047379528, -847378.2, 23283.584, 0.0, 10.085115, 9.910183 
7.8698385e+3, 2.2106743e+2, -764242.56, -890993.25, 34790.094, 0.0023268012, 0.0002787389, -755321.4, 18221.098, 0.0, 10.081303, 9.909805 
7.869496e+3, 2.3097019e+2, -683885.4, -818646.9, 30894.313, 0.0021474108, 0.0005297982, -677140.4, -644.698, 0.0, 10.076607, 9.895332 
7.8691477e+3, 2.4086559e+2, -594392.25, -725051.25, 30434.82, 0.002145457, 0.0003593191, -587650.75, -8129.6943, 0.0, 10.070885, 9.895227 
7.868791e+3, 2.5075528e+2, -516646.28, -651096.56, 24036.516, 0.0025043492, 0.00082826766, -512478.34, -29875.082, 0.0, 10.06272, 9.883183 
7.868426e+3, 2.6063904e+2, -431798.4, -558874.4, 22691.025, 0.0025940242, 0.0011461193, -427868.22, -42124.895, 0.0, 10.053308, 9.883842 
7.868051e+3, 2.7051798e+2, -352766.66, -478947.97, 15337.172, 0.0019130151, -0.0004367308, -350929.2, -62001.426, 0.0, 10.043386, 9.876194 
7.867667e+3, 2.8039277e+2, -273918.4, -390991.34, 14530.915, 0.0016767462, -0.002734688, -272141.8, -79987.25, 0.0, 10.03045, 9.875608 
7.867282e+3, 2.902756e+2, -206868.8, -311065.06, 9343.891, 0.00233229, 0.008036009, -206037.5, -110724.44, 0.0, 10.010026, 9.873 
7.866888e+3, 3.0016288e+2, -133343.06, -214517.48, 4965.749, 0.002449734, 0.019937983, -133040.42, -133040.42, 0.0, 9.988225, 9.881886 
7.866486e+3, 3.100208e+2, -65115.51, -108594.86, -1340.8676, 0.0056830673, -0.043522354, -65074.203, -65074.203, 0.0, 9.980295, 9.923386 
7.8660744e+3, 3.2000494e+2, -56956.707, -59241.76, 4546.0986, -0.0035648937, 0.043608915, -53411.766, -53411.766, 0.0, 9.967307, 9.963556 
7.8830373e+3, 1.3202462e+2, -1532694.6, -1649661.0, 7946.552, 0.0024497279, 0.00037571066, -1532157.3, 114003.74, 0.0, 10.121876, 9.963835 
7.8826547e+3, 1.4198825e+2, -1450525.8, -1560523.3, 11706.355, 0.0024982295, 0.00020088187, -1449293.6, 99223.9, 0.0, 10.112566, 9.963705 
7.882293e+3, 1.5194836e+2, -1370330.0, -1480759.1, 24078.045, 0.0021015673, 0.00035331317, -1365308.4, 85600.016, 0.0, 10.106713, 9.956344 
7.881944e+3, 1.6190444e+2, -1280870.9, -1388780.9, 25369.71, 0.002473804, 0.00024040871, -1275204.0, 78134.664, 0.0, 10.102226, 9.955209 
7.881601e+3, 1.7185351e+2, -1200258.3, -1314006.5, 31299.094, 0.002593401, 0.000349368, -1192214.8, 63623.254, 0.0, 10.09822, 9.943186 
7.881264e+3, 1.817966e+2, -1108651.5, -1220446.4, 32370.135, 0.0022574337, 0.00028722256, -1099955.3, 58440.777, 0.0, 10.094802, 9.942354 
7.8809285e+3, 1.917318e+2, -1027364.06, -1147699.6, 35138.477, 0.0020939528, 0.00047465667, -1017854.9, 43176.19, 0.0, 10.091822, 9.928124 
7.880596e+3, 2.016597e+2, -934777.25, -1053760.1, 35422.258, 0.0022023083, 0.00031465726, -925030.2, 38707.516, 0.0, 10.088941, 9.9270935 
7.8802586e+3, 2.1157879e+2, -854440.6, -983171.9, 34431.34, 0.0024978307, 0.00041918675, -845810.0, 20721.22, 0.0, 10.085517, 9.911255 
7.87992e+3, 2.2149e+2, -762534.5, -888894.44, 34231.156, 0.0023931724, 0.0002052429, -753857.1, 15544.52, 0.0, 10.081749, 9.910755 
7.879572e+3, 2.3139347e+2, -683129.3, -818506.8, 29596.92, 0.0017709056, 0.0010265061, -676941.56, -4594.1104, 0.0, 10.077012, 9.895019 
7.879218e+3, 2.4128872e+2, -593864.8, -725295.0, 28769.453, 0.001740603, 0.0011087117, -587843.25, -12468.823, 0.0, 10.071228, 9.894691 
7.878854e+3, 2.5117514e+2, -516850.5, -653569.4, 21026.547, 0.0030241357, -0.000770809, -513689.8, -35200.555, 0.0, 10.06325, 9.881035 
7.87848e+3, 2.610563e+2, -431711.84, -560723.0, 19960.875, 0.0033628289, -0.0012495201, -428694.06, -47039.305, 0.0, 10.053855, 9.882118 
7.8780925e+3, 2.7093968e+2, -354546.88, -483120.0, 11209.213, 0.00029807363, 0.0054434915, -353576.94, -68781.8, 0.0, 10.043146, 9.873301 
7.877695e+3, 2.8081366e+2, -276712.4, -396033.13, 8697.32, -0.0009845496, 0.0058432305, -276081.78, -88052.414, 0.0, 10.029509, 9.8724 
7.8772944e+3, 2.9067022e+2, -208287.81, -316456.5, 915.02576, 0.0065288004, -0.011454606, -208280.08, -116834.95, 0.0, 10.010131, 9.86887 
7.8768826e+3, 3.0054596e+2, -132999.17, -218142.31, -25.614326, 0.009336764, -0.009308302, -132999.17, -132999.17, 0.0, 9.989501, 9.878535 
7.876453e+3, 3.1048426e+2, -65760.35, -111269.05, -3202.306, -0.009726799, 0.028303094, -65536.12, -65536.12, 0.0, 9.980554, 9.92118 
7.8760463e+3, 3.2036683e+2, -69252.02, -83013.305, -4195.9517, 0.0021691916, -0.0010256977, -68073.555, -68073.555, 0.0, 9.96558, 9.947626 
7.893152e+3, 1.3243163e+2, -1544385.0, -1648143.1, 10154.044, 0.0021413804, 0.00022604283, -1543400.6, 98771.85, 0.0, 10.110461, 9.970012 
7.8927624e+3, 1.4240117e+2, -1459924.0, -1558785.6, 15153.183, 0.0029162574, 0.00016932013, -1457653.5, 86817.13, 0.0, 10.103181, 9.968932 
7.892395e+3, 1.5236586e+2, -1377534.1, -1478970.9, 29291.373, 0.0021508434, 0.0003724427, -1369683.4, 77133.53, 0.0, 10.099432, 9.960556 
7.8920436e+3, 1.6232619e+2, -1285072.4, -1385244.8, 30858.313, 0.0023350364, 0.00025756267, -1276329.4, 72876.37, 0.0, 10.096789, 9.959501 
7.891697e+3, 1.7227939e+2, -1202236.9, -1309513.3, 37734.027, 0.0024990456, 0.00031346228, -1190293.8, 61370.78, 0.0, 10.094388, 9.947228 
7.8913575e+3, 1.8222634e+2, -1108649.8, -1215347.1, 39473.473, 0.00225021, 0.00026284714, -1095634.0, 58550.258, 0.0, 10.092474, 9.945955 
7.891021e+3, 1.9216482e+2, -1025409.3, -1142049.3, 43181.246, 0.0022267422, 0.00046500273, -1011163.2, 45624.242, 0.0, 10.091032, 9.931245 
7.890686e+3, 2.0209576e+2, -930446.2, -1047019.25, 44110.082, 0.0023469976, 0.00027662903, -915636.75, 43827.613, 0.0, 10.089784, 9.930017 
7.8903455e+3, 2.1201727e+2, -847790.5, -975940.2, 43911.406, 0.0023039463, 0.0002838339, -834187.9, 28046.05, 0.0, 10.088214, 9.91346 
7.890004e+3, 2.2193068e+2, -753314.9, -880593.75, 44515.223, 0.0022695616, 0.00020215182, -739291.0, 25791.764, 0.0, 10.086275, 9.912655 
7.889652e+3, 2.3183535e+2, -672153.0, -810576.9, 40340.266, 0.002116916, 0.0010028866, -661254.9, 6762.3174, 0.0, 10.083221, 9.895693 
7.889294e+3, 2.4173108e+2, -579881.56, -715798.4, 40347.902, 0.0021061015, 0.00090921734, -568806.44, 2233.0974, 0.0, 10.079437, 9.895322 
7.888922e+3, 2.5161728e+2, -500492.78, -644862.25, 32461.002, 0.0024164228, -0.0008089401, -493529.84, -19374.164, 0.0, 10.073775, 9.8798065 
7.8885394e+3, 2.614974e+2, -412467.44, -550531.25, 32081.125, 0.0024859875, -0.0010187869, -405377.03, -28046.04, 0.0, 10.06631, 9.880869 
7.888142e+3, 2.7137843e+2, -337858.8, -476512.38, 21856.875, 0.001361909, 0.005673789, -334494.97, -53998.594, 0.0, 10.0546255, 9.870024 
7.887731e+3, 2.812494e+2, -259848.95, -387877.8, 19472.852, 0.0009352494, 0.0059338086, -256952.7, -73192.14, 0.0, 10.040438, 9.870404 
7.8873104e+3, 2.911024e+2, -184686.0, -304465.75, 10950.686, 0.004839009, -0.013796425, -183693.08, -96487.055, 0.0, 10.025095, 9.867187 
7.8868777e+3, 3.0097502e+2, -111772.016, -213170.45, 10828.534, 0.0063804504, -0.011818784, -110628.51, -110628.51, 0.0, 10.005416, 9.871846 
7.8864354e+3, 3.109173e+2, -66411.1, -121140.125, 1416.3553, -0.0068873563, 0.0432836, -66374.47, -66374.47, 0.0, 9.983367, 9.911509 
7.8860134e+3, 3.2075655e+2, -62009.527, -52148.617, 455.63864, 0.009730204, -0.038656246, -52127.61, -52127.61, 0.0, 9.957968, 9.97046 
7.903262e+3, 1.3284603e+2, -1543954.8, -1640528.1, 8419.28, 0.0022577352, 0.00027594174, -1543226.3, 94885.15, 0.0, 10.107006, 9.976309 
7.9028654e+3, 1.428217e+2, -1456973.9, -1550500.4, 13786.077, 0.0029387884, 0.0002261426, -1454984.1, 85365.29, 0.0, 10.101714, 9.974662 
7.9024947e+3, 1.5279159e+2, -1375652.9, -1472157.1, 29212.242, 0.0020790154, 0.00040574474, -1367499.1, 75145.6, 0.0, 10.097849, 9.965493 
7.9021394e+3, 1.6275685e+2, -1283358.9, -1378695.5, 30820.19, 0.0023314974, 0.00029475015, -1274263.3, 70722.27, 0.0, 10.095193, 9.96429 
7.9017913e+3, 1.7271473e+2, -1199511.1, -1302518.1, 37927.13, 0.002515198, 0.00032042075, -1187053.1, 60345.2, 0.0, 10.093542, 9.951949 
7.90145e+3, 1.8266624e+2, -1105489.8, -1208656.3, 39643.26, 0.0021538842, 0.00026306548, -1092015.9, 57857.383, 0.0, 10.09217, 9.950233 
7.901111e+3, 1.9260891e+2, -1022018.44, -1135376.9, 43590.14, 0.0022428099, 0.00051347876, -1007195.0, 45240.535, 0.0, 10.0909815, 9.9354 
7.9007757e+3, 2.0254393e+2, -927020.06, -1040677.44, 44439.816, 0.002403314, 0.00030744242, -911707.25, 43365.207, 0.0, 10.089923, 9.933883 
7.900434e+3, 2.1246904e+2, -844224.06, -969952.3, 44030.27, 0.0020126307, 0.00028857889, -830338.2, 27468.318, 0.0, 10.088639, 9.916965 
7.9000896e+3, 2.2238584e+2, -749780.6, -875144.94, 44394.457, 0.001974826, 0.0002841578, -735651.9, 24970.14, 0.0, 10.086908, 9.915723 
7.8997356e+3, 2.322928e+2, -669162.2, -806687.5, 39631.906, 0.0024542736, 0.0008904604, -658558.7, 4975.6636, 0.0, 10.084016, 9.8976345 
7.899374e+3, 2.4219045e+2, -576940.2, -712075.4, 39451.336, 0.002429643, 0.0007101892, -566265.94, 271.84512, 0.0, 10.080259, 9.897161 
7.898995e+3, 2.520782e+2, -498838.0, -643940.5, 30227.088, 0.0015075168, -0.00014144504, -492793.06, -23155.53, 0.0, 10.07455, 9.879792 
7.898604e+3, 2.619584e+2, -411713.25, -550847.94, 29249.71, 0.0012521856, -0.0002279485, -405814.3, -33002.098, 0.0, 10.066769, 9.880187 
7.8981984e+3, 2.7183524e+2, -338685.22, -479913.44, 16758.219, 0.0033837557, 0.0035933296, -336723.9, -60703.145, 0.0, 10.054742, 9.867362 
7.897774e+3, 2.8170365e+2, -259505.98, -388694.2, 14566.855, 0.0038630557, 0.003309003, -257883.83, -78573.16, 0.0, 10.040505, 9.869492 
7.897332e+3, 2.9156375e+2, -183779.63, -304946.0, 3817.7131, -0.00033484795, -0.0073933387, -183659.45, -100979.94, 0.0, 10.025291, 9.866384 
7.896878e+3, 3.0143374e+2, -117593.734, -227328.25, 2076.629, -0.0005350722, -0.0040190425, -117554.45, -117554.45, 0.0, 10.005351, 9.862108 
7.89643e+3, 3.1133533e+2, -76918.81, -144144.05, -7064.93, 0.008521555, 0.018514743, -76184.36, -76184.36, 0.0, 9.982696, 9.895685 
7.8959656e+3, 3.2121736e+2, -42892.918, -15628.823, 500.88663, 0.0017417856, -0.005283298, -15619.625, -15619.625, 0.0, 9.959016, 9.994407 
7.913362e+3, 1.3326733e+2, -1560391.5, -1641896.6, 10038.285, 0.003040621, 0.0003075237, -1559173.4, 74809.086, 0.0, 10.092975, 9.982458 
7.9129606e+3, 1.432495e+2, -1468253.1, -1548665.5, 15596.813, 0.0021072046, 0.0004350804, -1465333.9, 70823.92, 0.0, 10.090734, 9.981132 
7.9125875e+3, 1.5322535e+2, -1384323.9, -1469563.6, 32113.016, 0.0019488566, 0.000396484, -1373579.9, 64814.28, 0.0, 10.088924, 9.971359 
7.9122317e+3, 1.6319609e+2, -1290049.6, -1375766.9, 34403.93, 0.002874478, 0.00020495323, -1277949.3, 62731.453, 0.0, 10.087896, 9.969478 
7.9118824e+3, 1.7315924e+2, -1203741.3, -1297957.6, 42396.31, 0.0027170905, 0.00027150553, -1187472.5, 55569.445, 0.0, 10.087737, 9.957361 
7.9115397e+3, 1.8311615e+2, -1107730.8, -1203216.9, 44660.188, 0.0021199232, 0.0002762642, -1090098.5, 55365.867, 0.0, 10.087736, 9.955432 
7.9112005e+3, 1.930641e+2, -1022017.6, -1128178.5, 49633.76, 0.002095845, 0.0004314011, -1002427.25, 45547.363, 0.0, 10.087791, 9.941008 
7.9108644e+3, 2.0300458e+2, -925599.75, -1033184.3, 51409.41, 0.0023988734, 0.0003221589, -904984.1, 45573.715, 0.0, 10.087889, 9.939004 
7.910522e+3, 2.129349e+2, -840518.75, -960990.56, 52259.12, 0.0022957684, 0.00046742932, -821008.94, 32232.115, 0.0, 10.088021, 9.922187 
7.910178e+3, 2.2285664e+2, -743776.7, -865328.9, 53716.523, 0.002097332, 0.0003507478, -723440.56, 32567.459, 0.0, 10.087968, 9.920516 
7.909821e+3, 2.3276767e+2, -660579.75, -795925.44, 50298.24, 0.0020214308, 0.00050676824, -643934.6, 14945.462, 0.0, 10.086957, 9.901882 
7.9094565e+3, 2.426694e+2, -564988.94, -700008.8, 51663.734, 0.002181092, 0.00032935568, -547488.7, 14354.733, 0.0, 10.085663, 9.900864 
7.9090744e+3, 2.5256053e+2, -484287.25, -632159.9, 43227.04, 0.0023410446, 0.00023412304, -472578.03, -7667.5054, 0.0, 10.082286, 9.881852 
7.9086775e+3, 2.6244262e+2, -393054.47, -537169.06, 43497.39, 0.0020682146, 0.00009822327, -380943.6, -12877.241, 0.0, 10.077319, 9.881918 
7.9082584e+3, 2.7231792e+2, -317778.8, -468145.44, 30531.775, 0.001644293, 0.001670654, -311815.8, -40526.805, 0.0, 10.067793, 9.866188 
7.907821e+3, 2.8218442e+2, -236277.4, -376430.5, 29579.225, 0.0022588805, 0.0011656793, -230290.47, -55693.03, 0.0, 10.055471, 9.86772 
7.907366e+3, 2.9204723e+2, -163004.16, -295844.97, 15387.333, 0.0032427474, -0.0024952486, -161245.1, -83303.5, 0.0, 10.039001, 9.863031 
7.9068905e+3, 3.0191627e+2, -100720.7, -218511.94, 13689.834, 0.0017343741, 0.0030745766, -99150.586, -99150.586, 0.0, 10.015511, 9.860067 
7.9064083e+3, 3.1179598e+2, -64305.52, -139929.0, 7128.751, 0.00019370747, 0.0028465842, -63639.387, -63639.387, 0.0, 9.990714, 9.890916 
7.9059255e+3, 3.2170084e+2, -33200.402, 1473.4376, 12399.37, 0.002124842, 0.006923766, 5451.1406, 5451.1406, 0.0, 9.959157, 10.002821 
7.923454e+3, 1.336925e+2, -1558468.3, -1632518.4, 9400.145, 0.0028358535, 0.00031134769, -1557293.6, 72522.25, 0.0, 10.090164, 9.989644 
7.92305e+3, 1.4368168e+2, -1467933.1, -1540713.4, 15611.371, 0.0019071777, 0.00041721875, -1464725.9, 67196.92, 0.0, 10.087234, 9.987808 
7.9226756e+3, 1.5366374e+2, -1382099.1, -1461305.1, 32303.648, 0.0018836719, 0.00035814202, -1370595.1, 63502.688, 0.0, 10.087039, 9.977458 
7.922319e+3, 1.6364045e+2, -1286780.9, -1367390.6, 34527.477, 0.00289469, 0.00019580522, -1274013.8, 62312.086, 0.0, 10.086909, 9.975226 
7.92197e+3, 1.7360966e+2, -1199984.9, -1288602.4, 42847.727, 0.0026897357, 0.00028863904, -1182656.0, 55971.78, 0.0, 10.086777, 9.96373 
7.921627e+3, 1.8357283e+2, -1104025.3, -1194252.5, 45172.297, 0.0020018213, 0.0002623777, -1085297.1, 55691.9, 0.0, 10.086933, 9.961492 
7.921288e+3, 1.9352716e+2, -1016928.1, -1117547.8, 50209.563, 0.001900628, 0.00038612567, -996160.0, 47276.473, 0.0, 10.087499, 9.947893 
7.9209524e+3, 2.0347437e+2, -920401.0, -1023124.06, 51904.824, 0.002262072, 0.0003219324, -898741.2, 47212.64, 0.0, 10.08797, 9.945361 
7.920611e+3, 2.1341148e+2, -834402.9, -949578.94, 52870.355, 0.002576302, 0.0006213583, -813813.9, 34756.47, 0.0, 10.088351, 9.9292965 
7.9202664e+3, 2.2334014e+2, -737720.94, -854651.1, 54081.848, 0.002215595, 0.00044435097, -716543.0, 34726.535, 0.0, 10.088572, 9.927028 
7.919908e+3, 2.3325744e+2, -653779.6, -784632.1, 50480.89, 0.0014928337, 0.0003018046, -636568.6, 17511.156, 0.0, 10.087965, 9.908592 
7.919542e+3, 2.4316557e+2, -558760.25, -689885.06, 51478.484, 0.0016350984, 0.000081859325, -540965.25, 16014.953, 0.0, 10.086667, 9.906829 
7.919158e+3, 2.530622e+2, -479168.56, -624337.56, 42208.29, 0.0033099216, 0.0005073031, -467788.47, -7794.5127, 0.0, 10.083231, 9.886294 
7.918756e+3, 2.629488e+2, -387572.3, -528828.4, 41782.043, 0.0029621592, 0.0004326533, -376139.03, -13034.121, 0.0, 10.078314, 9.886684 
7.918323e+3, 2.7282506e+2, -314930.34, -466962.88, 25883.305, -0.0016652053, 0.00023637155, -310644.6, -44328.28, 0.0, 10.069215, 9.865882 
7.9178745e+3, 2.826905e+2, -235739.03, -378545.72, 25290.572, -0.0004853401, -0.00065674196, -231392.45, -61756.945, 0.0, 10.056313, 9.865574 
7.9174113e+3, 2.925549e+2, -166183.53, -300977.94, 7927.107, 0.01176768, 0.0014128654, -165718.94, -92749.08, 0.0, 10.037326, 9.859821 
7.916909e+3, 3.0242488e+2, -100510.73, -215490.83, 4672.3345, 0.005083967, 0.009471682, -100321.18, -100321.18, 0.0, 10.013202, 9.862512 
7.916375e+3, 3.122936e+2, -60154.89, -135078.58, -1798.6504, -0.025933875, -0.010199562, -60111.74, -60111.74, 0.0, 9.990876, 9.8930645 
7.9158986e+3, 3.2219744e+2, -56663.895, -48574.316, -6982.809, 0.020725906, 0.0068737725, -44549.414, -44549.414, 0.0, 9.957028, 9.967975 
7.933535e+3, 1.3411918e+2, -1575304.6, -1631729.8, 7725.148, 0.002185834, 0.00037369505, -1574266.0, 51368.945, 0.0, 10.074807, 9.998223 
7.9331315e+3, 1.4411567e+2, -1481572.6, -1540645.1, 15558.693, 0.0029692084, 0.00004215968, -1477725.4, 49943.3, 0.0, 10.075185, 9.994234 
7.932757e+3, 1.5410395e+2, -1392526.0, -1460336.9, 32544.078, 0.0019575458, 0.00041271665, -1379434.8, 50349.09, 0.0, 10.077416, 9.98314 
7.9324013e+3, 1.6408676e+2, -1294492.5, -1364173.1, 34635.77, 0.0025554053, 0.00044563095, -1280205.6, 51746.676, 0.0, 10.078595, 9.98157 
7.932052e+3, 1.7406297e+2, -1205611.1, -1282755.0, 43544.832, 0.002575434, 0.00049285596, -1186011.4, 48174.008, 0.0, 10.079123, 9.971338 
7.9317105e+3, 1.8403333e+2, -1109280.5, -1188882.8, 46698.754, 0.0020411827, 0.0003847587, -1087722.9, 48752.902, 0.0, 10.079857, 9.96844 
7.9313725e+3, 1.9399506e+2, -1020059.2, -1109466.6, 52682.72, 0.0020725762, 0.00028977884, -995669.56, 43181.37, 0.0, 10.081118, 9.95614 
7.931037e+3, 2.0395026e+2, -922722.1, -1014839.5, 55210.37, 0.002406241, 0.00009088951, -896880.94, 44409.05, 0.0, 10.082223, 9.953309 
7.9306966e+3, 2.1389581e+2, -834529.3, -938131.75, 57644.492, 0.002355289, 0.00006623089, -808830.5, 34992.957, 0.0, 10.083191, 9.938841 
7.9303527e+3, 2.2383387e+2, -737094.4, -843401.75, 60293.492, 0.0022069889, 0.000016508335, -709870.06, 36560.297, 0.0, 10.084208, 9.935884 
7.929995e+3, 2.3376116e+2, -650068.1, -769930.06, 58698.61, 0.0020336404, 0.0005837717, -626110.75, 23032.275, 0.0, 10.084866, 9.918801 
7.9296285e+3, 2.4367933e+2, -553576.44, -674914.5, 61609.395, 0.0020856515, 0.00054647675, -527779.0, 24165.828, 0.0, 10.084771, 9.916325 
7.929241e+3, 2.535849e+2, -470794.56, -607076.94, 55335.367, 0.0026871513, 0.00037661323, -451156.34, 3714.0964, 0.0, 10.083199, 9.895886 
7.928836e+3, 2.6348057e+2, -375195.13, -510532.28, 58632.7, 0.0025961355, 0.00023740037, -353326.94, 4565.91, 0.0, 10.081488, 9.894942 
7.9283994e+3, 2.7336374e+2, -295635.25, -447707.16, 45023.633, 0.00041769905, 0.00046567616, -283304.94, -22268.31, 0.0, 10.077919, 9.871295 
7.92794e+3, 2.832349e+2, -207067.48, -353835.34, 47280.082, 0.0011408611, -0.00013833052, -193155.33, -28855.688, 0.0, 10.070874, 9.871062 
7.927451e+3, 2.9309887e+2, -148337.66, -293101.84, 26939.102, 0.008162025, 0.0008596641, -143487.1, -75851.28, 0.0, 10.048545, 9.854948 
7.926926e+3, 3.0296215e+2, -84036.75, -204180.7, 23844.986, 0.0050665285, 0.0061152135, -79477.266, -79477.266, 0.0, 10.022038, 9.861638 
7.926382e+3, 3.128319e+2, -33167.703, -107864.195, 12236.351, -0.011220884, -0.016839676, -31214.299, -31214.299, 0.0, 10.001727, 9.901881 
7.9258543e+3, 3.2274207e+2, -33772.047, -36831.336, 10148.832, 0.014277936, -0.00040708954, -25038.232, -25038.232, 0.0, 9.969995, 9.96387 
7.943608e+3, 1.345446e+2, -1576609.3, -1623266.3, 7844.6475, 0.0019633, 0.000384157, -1575325.6, 46140.04, 0.0, 10.069786, 10.006267 
7.943207e+3, 1.445487e+2, -1477129.6, -1530513.6, 15690.634, 0.0035324923, 0.00006884935, -1472859.4, 50565.285, 0.0, 10.074473, 10.001077 
7.9428345e+3, 1.5454347e+2, -1390514.1, -1451829.5, 32722.203, 0.0019081342, 0.00036482044, -1376331.6, 49144.81, 0.0, 10.075295, 9.989645 
7.942479e+3, 1.6453286e+2, -1292766.0, -1355520.9, 34877.55, 0.0023582655, 0.0003631391, -1277228.8, 50351.883, 0.0, 10.076164, 9.988331 
7.942131e+3, 1.7451668e+2, -1200988.9, -1270754.9, 43630.01, 0.0025923979, 0.00046853485, -1180011.3, 49727.613, 0.0, 10.077735, 9.979705 
7.94179e+3, 1.844952e+2, -1104200.9, -1177245.9, 46888.215, 0.0020707478, 0.0003867781, -1081289.4, 50660.13, 0.0, 10.079082, 9.976306 
7.9414535e+3, 1.9446564e+2, -1013427.7, -1094971.6, 53047.184, 0.0021841724, 0.0002697053, -987294.06, 46945.133, 0.0, 10.080466, 9.965791 
7.9411197e+3, 2.0443025e+2, -916068.7, -1000734.06, 55470.797, 0.002444406, -0.00007032882, -888622.7, 47963.176, 0.0, 10.081788, 9.962628 
7.94078e+3, 2.1438622e+2, -825478.8, -920022.9, 58034.88, 0.002068841, -0.00018158181, -797899.75, 41117.29, 0.0, 10.083141, 9.950583 
7.9404366e+3, 2.2433573e+2, -728768.56, -826684.94, 60665.375, 0.0018681067, -0.00018137206, -699770.44, 41741.523, 0.0, 10.084171, 9.946753 
7.940081e+3, 2.3427546e+2, -639406.4, -748741.94, 59167.723, 0.002372709, 0.0007505514, -613517.44, 30584.934, 0.0, 10.084969, 9.932518 
7.9397136e+3, 2.4420711e+2, -542793.6, -654855.1, 61605.363, 0.002437366, 0.00087934587, -515549.72, 31222.355, 0.0, 10.085471, 9.929013 
7.939323e+3, 2.5412598e+2, -457423.1, -582834.6, 55258.62, 0.0015177602, 0.00013248144, -436549.38, 13017.172, 0.0, 10.084418, 9.91104 
7.938917e+3, 2.6403576e+2, -363540.88, -489691.88, 58468.7, 0.001785835, -0.00026787713, -340609.94, 11840.709, 0.0, 10.082693, 9.907899 
7.93848e+3, 2.7393174e+2, -285849.63, -429447.5, 44677.004, 0.0041006436, 0.0009247041, -273084.25, -17613.785, 0.0, 10.07855, 9.882741 
7.938011e+3, 2.8381547e+2, -196624.47, -333596.7, 43291.082, 0.002400466, 0.0011968259, -184089.19, -25480.164, 0.0, 10.070801, 9.883968 
7.93749e+3, 2.93679e+2, -151986.66, -305604.72, 16546.295, -0.0028220525, -0.0015820265, -150224.66, -88279.8, 0.0, 10.048992, 9.845409 
7.936951e+3, 3.0352783e+2, -86285.74, -212096.3, 17731.47, 0.0068695704, -0.004309163, -83834.46, -83834.46, 0.0, 10.022477, 9.855563 
7.9364145e+3, 3.13414e+2, -26828.172, -85063.68, 3482.262, 0.028829973, -0.010322092, -26620.686, -26620.686, 0.0, 9.996068, 9.918796 
7.935801e+3, 3.2333958e+2, -44014.71, -65192.836, 21947.396, -0.020123374, 0.014211403, -30235.424, -30235.424, 0.0, 9.97472, 9.943215 
7.95367e+3, 1.3496359e+2, -1593639.0, -1625398.3, 7093.537, 0.0021703402, 0.0005176432, -1592126.6, 25232.035, 0.0, 10.056208, 10.01284 
7.9532754e+3, 1.4497541e+2, -1487692.5, -1528172.1, 11947.666, 0.0033529212, 0.0009210792, -1484429.3, 34814.477, 0.0, 10.064151, 10.008539 
7.952904e+3, 1.5497668e+2, -1399430.6, -1448557.5, 28003.477, 0.001902209, 0.00018134591, -1386744.1, 34486.89, 0.0, 10.065861, 9.997113 
7.95255e+3, 1.6497265e+2, -1302076.5, -1353358.9, 30980.281, 0.0026158947, -0.00029471505, -1287502.6, 35767.875, 0.0, 10.066958, 9.995005 
7.9522043e+3, 1.7496403e+2, -1208048.9, -1265420.4, 39782.457, 0.0027180654, -0.00021802256, -1187688.6, 37666.414, 0.0, 10.069033, 9.988078 
7.9518646e+3, 1.849513e+2, -1110833.8, -1171381.5, 43118.94, 0.0021566444, 0.000092862676, -1088422.3, 39057.273, 0.0, 10.07049, 9.984914 
7.951529e+3, 1.9493195e+2, -1018651.0, -1085775.1, 49796.043, 0.0021317312, 0.0005712855, -992162.56, 37506.54, 0.0, 10.071618, 9.976605 
7.951197e+3, 2.049077e+2, -921949.06, -992198.7, 52850.547, 0.002543214, 0.00092083076, -893615.75, 38291.21, 0.0, 10.072668, 9.973103 
7.9508585e+3, 2.1487622e+2, -829257.06, -906809.4, 56223.895, 0.0023051684, 0.0014473391, -799734.5, 34480.914, 0.0, 10.073802, 9.964104 
7.9505163e+3, 2.2483869e+2, -733343.1, -813788.25, 59680.297, 0.0021100808, 0.0008268832, -701596.3, 34986.72, 0.0, 10.074262, 9.960235 
7.95016e+3, 2.3479192e+2, -642187.8, -730215.94, 60039.664, 0.0021207735, -0.0006394903, -611757.25, 27283.7, 0.0, 10.074218, 9.9499035 
7.9497933e+3, 2.4474019e+2, -547541.06, -638143.5, 64380.586, 0.0021865705, -0.0009254469, -514120.88, 27426.63, 0.0, 10.0738, 9.945401 
7.9494023e+3, 2.546795e+2, -458685.25, -556959.6, 61155.973, 0.0020569048, -0.00015950062, -429371.72, 14770.159, 0.0, 10.071878, 9.933404 
7.9489934e+3, 2.6461166e+2, -367234.72, -464931.2, 68309.72, 0.0019957335, -0.00019574726, -332104.6, 14701.775, 0.0, 10.068462, 9.929668 
7.9485494e+3, 2.745326e+2, -288277.5, -394740.63, 62787.832, 0.0025547366, 0.0009175356, -259193.14, -9611.904, 0.0, 10.061174, 9.911234 
7.9480726e+3, 2.844436e+2, -199787.5, -295382.0, 72297.09, 0.0024041093, -0.00007359427, -160916.16, -8463.276, 0.0, 10.051164, 9.913842 
7.947535e+3, 2.9433873e+2, -140132.6, -247946.88, 65582.125, 0.0007988867, -0.0046486156, -109145.71, -53667.625, 0.0, 10.033896, 9.881131 
7.9469573e+3, 3.0422944e+2, -81707.98, -187433.13, 96732.055, -0.007473789, 0.010498687, -24336.518, -24336.518, 0.0, 10.0162, 9.861242 
7.9463845e+3, 3.1405768e+2, -68620.34, -243402.89, 31364.102, -0.009886703, 0.011342541, -63162.59, -63162.59, 0.0, 10.025833, 9.794962 
7.945831e+3, 3.2385412e+2, 30809.691, -18970.84, -9356.356, 0.015258897, -0.013201732, 32510.152, 32510.152, 0.0, 10.022787, 9.958214 
7.963727e+3, 1.3537645e+2, -1590472.5, -1615599.3, 8506.247, 0.002840343, 0.00023592263, -1587863.8, 25449.336, 0.0, 10.054624, 10.019966 
7.963337e+3, 1.4539523e+2, -1491914.3, -1522729.9, 13620.971, 0.002351545, 0.0005881206, -1486756.8, 28372.91, 0.0, 10.058122, 10.015298 
7.9629695e+3, 1.5540372e+2, -1397140.5, -1439174.9, 27845.406, 0.0019315565, 0.00020664027, -1383270.9, 33775.34, 0.0, 10.06358, 10.004323 
7.962617e+3, 1.6540675e+2, -1297900.9, -1343288.4, 30927.412, 0.0028380398, -0.00018647434, -1282234.3, 36781.906, 0.0, 10.066068, 10.001975 
7.962273e+3, 1.7540604e+2, -1203121.5, -1252679.5, 39655.547, 0.0025641348, -0.00024806464, -1181139.8, 39883.582, 0.0, 10.067588, 9.997042 
7.961935e+3, 1.8540224e+2, -1106158.8, -1158626.4, 42906.15, 0.0018799006, 0.000007504674, -1082101.9, 40958.613, 0.0, 10.068834, 9.994024 
7.9616004e+3, 1.953934e+2, -1011650.5, -1068958.0, 49431.82, 0.0019570661, 0.000630463, -983168.1, 41978.83, 0.0, 10.0702, 9.98824 
7.961269e+3, 2.0538078e+2, -914994.6, -975462.0, 52686.793, 0.0023659463, 0.0011257062, -884483.2, 42787.375, 0.0, 10.071299, 9.984704 
7.960932e+3, 2.1536294e+2, -819307.06, -884530.3, 56210.16, 0.0024107955, 0.0018870407, -786933.3, 42512.305, 0.0, 10.072641, 9.979211 
7.96059e+3, 2.2534014e+2, -723012.4, -791438.06, 59592.563, 0.0021907229, 0.00093372545, -688509.94, 43158.676, 0.0, 10.073442, 9.975246 
7.9602337e+3, 2.3531035e+2, -627710.1, -699716.56, 59787.027, 0.0018869567, -0.0013905964, -593922.8, 40037.266, 0.0, 10.073509, 9.970249 
7.959867e+3, 2.4527831e+2, -534410.4, -609622.5, 64037.676, 0.0018078078, -0.0018831593, -497753.13, 38520.54, 0.0, 10.072811, 9.964618 
7.9594743e+3, 2.5524214e+2, -438322.9, -514164.22, 60520.785, 0.0027416057, -0.000267429, -404824.1, 33803.863, 0.0, 10.071096, 9.962012 
7.959061e+3, 2.6520392e+2, -347311.5, -423304.3, 66275.18, 0.001382406, 0.0010582402, -308913.38, 32088.691, 0.0, 10.067715, 9.957479 
7.958607e+3, 2.7516085e+2, -255802.05, -326537.4, 59386.313, -0.0013165735, 0.0016873053, -222049.48, 21373.852, 0.0, 10.060031, 9.957068 
7.958124e+3, 2.8511438e+2, -164977.9, -221238.45, 65866.29, 0.0020887551, -0.0035353273, -121486.39, 24392.043, 0.0, 10.04918, 9.964058 
7.957573e+3, 2.950784e+2, -85634.625, -130000.0, 58873.67, 0.008098194, -0.006545489, -44903.24, 3326.945, 0.0, 10.03062, 9.961382 
7.973777e+3, 1.3577749e+2, -1599471.4, -1612782.4, -205.52551, 0.0040685884, -0.0008213479, -1599468.3, 9916.502, 0.0, 10.045281, 10.02742 
7.973388e+3, 1.4580205e+2, -1501245.6, -1522615.9, 8686.587, -0.00015976783, -0.0012439656, -1498160.3, 12982.931, 0.0, 10.050179, 10.02061 
7.973029e+3, 1.5581834e+2, -1404270.5, -1437443.3, 20500.28, 0.0021907506, 0.0013264074, -1394487.0, 18495.957, 0.0, 10.056578, 10.0100565 
7.9726803e+3, 1.6582844e+2, -1304302.8, -1340219.4, 22060.328, 0.00379079, 0.0020755753, -1293815.4, 21068.639, 0.0, 10.058962, 10.008579 
7.972336e+3, 1.7583525e+2, -1209006.9, -1247284.5, 30063.658, 0.0024023, 0.0019705112, -1192506.9, 24310.133, 0.0, 10.059814, 10.005484 
7.9719985e+3, 1.8583876e+2, -1113026.8, -1154081.8, 32895.207, 0.001426418, 0.0011055978, -1094779.6, 24002.924, 0.0, 10.06058, 10.002236 
7.971666e+3, 1.9583783e+2, -1017286.7, -1060649.1, 38717.87, 0.00207645, -0.00041639677, -994592.9, 26198.705, 0.0, 10.061271, 9.999244 
7.9713356e+3, 2.0583507e+2, -920707.4, -965718.1, 41679.15, 0.002778978, -0.0019958974, -895845.7, 26972.352, 0.0, 10.061638, 9.997054 
7.970998e+3, 2.1582969e+2, -824117.8, -870124.44, 45073.043, 0.002439405, -0.003554764, -796517.44, 28352.748, 0.0, 10.06165, 9.9952755 
7.970658e+3, 2.2582552e+2, -730079.1, -778356.0, 48337.496, 0.002257794, -0.0009791679, -700188.1, 26722.697, 0.0, 10.061023, 9.991184 
7.970301e+3, 2.3582049e+2, -632794.8, -679820.75, 48086.074, 0.002544049, 0.0041427435, -602780.9, 26179.455, 0.0, 10.059762, 9.991351 
7.9699326e+3, 2.4580936e+2, -542291.4, -591228.4, 52149.17, 0.0028497523, 0.0034554056, -509155.66, 21913.48, 0.0, 10.057211, 9.985671 
7.969537e+3, 2.5579295e+2, -444239.1, -487255.6, 47731.117, 0.002725132, -0.00076150126, -413394.1, 19835.818, 0.0, 10.053406, 9.989874 
7.969119e+3, 2.6578128e+2, -360924.75, -402016.72, 50119.793, 0.0032049364, -0.0004933833, -327303.1, 8040.7314, 0.0, 10.045306, 9.983938 
7.968657e+3, 2.75773e+2, -266578.44, -288892.6, 39286.527, 0.0036931408, 0.0020426374, -236895.45, 529.81055, 0.0, 10.03295, 9.997533 
7.9681605e+3, 2.8576577e+2, -181352.7, -198229.25, 36813.586, 0.0032144748, 0.0002229068, -152022.67, -12527.196, 0.0, 10.023281, 9.995325 
7.9675925e+3, 2.9577526e+2, -69689.8, -73338.7, 10000.093, 0.0024199672, 0.0025954086, -61349.09, -19946.69, 0.0, 10.019052, 10.012479 
7.983821e+3, 1.3616985e+2, -1602572.0, -1608746.4, 1678.013, 0.0037036336, 0.00057684176, -1602145.4, 3394.6082, 0.0, 10.04104, 10.03256 
7.98344e+3, 1.4619872e+2, -1493287.1, -1514128.5, 8833.389, 0.0004482416, -0.000117402094, -1490047.0, 17208.992, 0.0, 10.053482, 10.024596 
7.983086e+3, 1.562183e+2, -1402326.9, -1431180.5, 18438.45, 0.0023556743, 0.0011966837, -1393342.0, 15721.733, 0.0, 10.055448, 10.014926 
7.9827386e+3, 1.6623363e+2, -1303609.1, -1332920.6, 19684.502, 0.0041208225, 0.0014263155, -1293723.8, 17189.445, 0.0, 10.056232, 10.014946 
7.982395e+3, 1.7624767e+2, -1206439.0, -1237161.6, 27518.396, 0.0025118997, 0.0013708521, -1190284.8, 22490.6, 0.0, 10.057425, 10.013467 
7.982059e+3, 1.8625902e+2, -1109306.9, -1143569.6, 30860.504, 0.0013848185, 0.0006029938, -1091141.6, 23522.365, 0.0, 10.059084, 10.010032 
7.981728e+3, 1.9626717e+2, -1009560.56, -1044631.2, 36689.645, 0.0022678745, -0.001273185, -986431.2, 30152.906, 0.0, 10.060815, 10.010049 
7.9813975e+3, 2.0627505e+2, -912820.5, -948645.2, 39243.043, 0.0028526692, -0.0034099764, -887595.06, 30911.3, 0.0, 10.060868, 10.008778 
7.98106e+3, 2.1628307e+2, -814802.0, -847905.4, 41730.293, 0.0022694631, -0.005587427, -786460.75, 33965.918, 0.0, 10.059823, 10.01101 
7.9807186e+3, 2.2629537e+2, -721076.25, -755396.8, 45214.188, 0.002157788, -0.0022441337, -689875.44, 32430.451, 0.0, 10.058647, 10.007745 
7.980361e+3, 2.3631158e+2, -619994.2, -649666.9, 44630.4, 0.0027925486, 0.0054775774, -587798.75, 36348.516, 0.0, 10.057548, 10.012628 
7.9799896e+3, 2.463219e+2, -528607.5, -559807.6, 49268.305, 0.0023379768, 0.0046958285, -492528.47, 33517.617, 0.0, 10.055311, 10.007673 
7.979589e+3, 2.5632808e+2, -426725.0, -448712.8, 44429.98, 0.0016403316, -0.0020252084, -391948.94, 36036.375, 0.0, 10.051698, 10.016548 
7.9791665e+3, 2.663407e+2, -343448.9, -364735.72, 45279.563, 0.0046659475, -0.003651914, -307578.66, 22283.012, 0.0, 10.043898, 10.009386 
7.978694e+3, 2.76363e+2, -242828.27, -240531.39, 35170.76, 0.008972695, 0.00061304576, -206490.33, 25153.666, 0.0, 10.032363, 10.030281 
7.978181e+3, 2.8638968e+2, -176143.34, -187239.55, 34266.18, 0.00035870133, 0.010433767, -146979.02, -13596.569, 0.0, 10.022662, 10.002695 
7.977615e+3, 2.9640612e+2, -42908.08, -16811.848, 2165.9272, 0.0066231545, 0.0029456522, -16633.3, 18589.22, 0.0, 10.017263, 10.051768 
7.993859e+3, 1.3655114e+2, -1604575.9, -1609730.5, 2978.7722, 0.0014090358, 0.0047916668, -1603214.3, -1412.2075, 0.0, 10.040578, 10.033363 
7.9934967e+3, 1.4658046e+2, -1497032.9, -1515670.1, 1618.915, 0.005685454, 0.0035180128, -1496893.3, 6621.685, 0.0, 10.051005, 10.025838 
7.9931384e+3, 1.5659586e+2, -1406674.4, -1431433.0, 8707.811, 0.0017560286, -0.002942547, -1403918.5, 1445.2877, 0.0, 10.051678, 10.017661 
7.9927903e+3, 1.6661339e+2, -1306890.0, -1330718.8, 9203.935, 0.0017454366, -0.004679938, -1303749.0, 3442.5105, 0.0, 10.052307, 10.0194845 
7.99245e+3, 1.7663294e+2, -1209217.3, -1233436.8, 15315.498, 0.0024322562, -0.0045038755, -1201802.4, 7196.7944, 0.0, 10.053183, 10.019252 
7.992116e+3, 1.8665406e+2, -1111622.4, -1138128.3, 17845.193, 0.0024749236, -0.0009155109, -1102647.1, 8145.1206, 0.0, 10.054502, 10.017267 
7.9917854e+3, 1.9667679e+2, -1010642.5, -1035540.06, 22037.045, 0.0026011239, 0.004230855, -997781.1, 14789.387, 0.0, 10.055566, 10.020046 
7.9914534e+3, 2.0670028e+2, -917627.2, -943378.6, 22613.86, 0.0022535757, 0.010548896, -904480.44, 9860.841, 0.0, 10.053964, 10.017233 
7.9911137e+3, 2.1672572e+2, -818570.4, -836535.3, 23403.865, 0.0013198169, 0.016324464, -802484.44, 13608.636, 0.0, 10.051019, 10.024581 
7.990771e+3, 2.2674078e+2, -723999.25, -739177.6, 26529.674, 0.0023085861, 0.0037502272, -703994.56, 13949.696, 0.0, 10.04843, 10.025374 
7.990412e+3, 2.3675463e+2, -621399.75, -628376.2, 25303.076, 0.003596896, -0.015953196, -599345.56, 20460.84, 0.0, 10.046373, 10.034259 
7.9900366e+3, 2.4679427e+2, -528545.1, -533251.1, 30370.773, 0.0007405377, -0.009225346, -500436.34, 20980.36, 0.0, 10.043135, 10.03341 
7.98963e+3, 2.568465e+2, -424882.06, -419216.3, 24340.158, -0.0030309677, 0.007404727, -397544.72, 25359.412, 0.0, 10.039764, 10.044428 
7.989203e+3, 2.6688588e+2, -332658.1, -329941.0, 23990.61, 0.00012822484, 0.0041662855, -307270.5, 17248.117, 0.0, 10.03771, 10.038336 
7.9887253e+3, 2.7691993e+2, -220847.66, -208956.55, 10577.885, 0.004822846, -0.008854532, -202767.8, 23417.59, 0.0, 10.037843, 10.052317 
7.988194e+3, 2.8696543e+2, -151676.19, -148015.38, 6309.28, -0.013135216, -0.0073577263, -143276.34, -15537.326, 0.0, 10.026459, 10.030542 
7.987637e+3, 2.970068e+2, -6661.1934, 16101.262, -11124.397, 0.0012873816, -0.005816367, 20634.95, 49970.758, 0.0, 10.036782, 10.069147 
8.003896e+3, 1.3690594e+2, -1599344.3, -1599657.5, 1217.252, -0.0011674145, -0.0034655086, -1598273.6, 50.54335, 0.0, 10.041167, 10.040643 
8.003548e+3, 1.4694458e+2, -1497717.4, -1510229.3, -2053.607, 0.008087229, -0.00023981421, -1497388.9, 2557.0315, 0.0, 10.047973, 10.0313835 
8.0031896e+3, 1.5697229e+2, -1402848.5, -1425523.6, 5881.823, 0.0015481284, 0.0022773792, -1401413.5, 260.70786, 0.0, 10.052321, 10.021356 
8.0028427e+3, 1.66993e+2, -1302434.0, -1329016.4, 4065.1897, 0.0016242561, 0.002744382, -1301826.3, 1645.2445, 0.0, 10.055514, 10.019486 
8.002504e+3, 1.7701343e+2, -1203297.5, -1228973.3, 5408.562, 0.0027214265, 0.0029288158, -1202204.8, 3066.8704, 0.0, 10.056324, 10.021381 
8.00217e+3, 1.8703294e+2, -1109703.9, -1134481.0, 4484.663, 0.001567158, 0.00101893, -1108917.1, -1836.7108, 0.0, 10.054493, 10.020861 
8.0018383e+3, 1.9705634e+2, -1011196.3, -1028676.56, 4595.954, 0.0011583974, -0.00027805223, -1010061.56, -1210.2471, 0.0, 10.051837, 10.027957 
8.0015075e+3, 2.0707944e+2, -912828.75, -930794.75, 5652.5894, 0.0023149415, -0.006125828, -911198.25, -574.1284, 0.0, 10.052387, 10.027751 
8.001168e+3, 2.1710975e+2, -804278.8, -814778.2, 8295.36, 0.0036172827, -0.009869799, -799711.56, 12614.787, 0.0, 10.053741, 10.038818 
8.000821e+3, 2.2715946e+2, -714749.4, -719144.1, 9254.729, 0.0031578848, 0.0025307802, -707434.75, 6404.6074, 0.0, 10.047415, 10.040612 
8.000457e+3, 2.3721233e+2, -617873.4, -605883.0, 4711.5435, 0.0030571115, 0.009080338, -604253.2, 11067.673, 0.0, 10.039109, 10.054754 
8.0000806e+3, 2.4726176e+2, -523118.34, -506736.25, 6893.8003, 0.0021699388, 0.0009884734, -504221.34, 12614.423, 0.0, 10.035903, 10.05723 
7.9996735e+3, 2.573234e+2, -414878.16, -391106.97, -1850.2656, 0.0009484826, -0.0010040697, -390963.8, 27267.291, 0.0, 10.035996, 10.068243 
7.999244e+3, 2.6739177e+2, -323092.0, -294430.97, 3366.4272, 0.0044374727, -0.001965329, -294040.88, 25519.576, 0.0, 10.0303335, 10.068584 
7.998771e+3, 2.7745968e+2, -221730.38, -194256.69, 3675.4363, 0.015558379, -0.00080905703, -193773.48, 27120.602, 0.0, 10.030486, 10.066861 
7.9982185e+3, 2.8754222e+2, -117411.33, -80858.87, -6048.7144, -0.0139648495, 0.009628266, -79883.93, 42198.332, 0.0, 10.026752, 10.077077 
7.9976815e+3, 2.9759383e+2, -34876.188, -43520.492, 6652.9175, 0.012037242, -0.0013705633, -31264.723, -7686.476, 0.0, 10.041149, 10.028205 
