coord_x,coord_y,stress_xx,stress_yy,tau_xy,velocity_x,velocity_y,stress_1,eps,damage,lx,ly
2.507934e+0, 1.2299583e+2, -1702375.9, -1737932.1, -35.77995, -0.00000028831042, 0.0009229869, -1702375.8, 32265.082, 0.0, 5.015867, 4.992686 
2.5079763e+0, 1.2798801e+2, -1654738.6, -1692021.4, -36.563152, -0.000001028185, -0.0031887772, -1654738.6, 30978.94, 0.0, 5.0159526, 4.991647 
2.5080174e+0, 1.329788e+2, -1609345.5, -1650679.6, -40.106438, 0.0000002905593, 0.0035931303, -1609345.4, 27462.416, 0.0, 5.0160346, 4.9890137 
2.5080565e+0, 1.3796753e+2, -1561179.3, -1603705.6, -40.89366, -0.000000023143599, -0.0013207492, -1561179.3, 26739.025, 0.0, 5.016113, 4.9883165 
2.5080937e+0, 1.4295463e+2, -1516021.5, -1562923.1, -43.99451, -0.00000077788746, 0.00024616363, -1516021.4, 23023.182, 0.0, 5.0161877, 4.9855313 
2.5081298e+0, 1.4794032e+2, -1467672.0, -1515591.3, -44.678104, -0.00000028909966, -0.0009289036, -1467672.0, 22512.86, 0.0, 5.016259, 4.9849496 
2.5081643e+0, 1.5292415e+2, -1422568.1, -1474996.1, -47.502995, 0.0000001883779, 0.0013243249, -1422568.1, 18775.314, 0.0, 5.0163283, 4.9821124 
2.5081974e+0, 1.5790628e+2, -1374166.8, -1427576.8, -48.102913, -0.00000019292801, -0.0013096911, -1374166.8, 18351.684, 0.0, 5.016395, 4.9815507 
2.5082296e+0, 1.6288671e+2, -1329095.8, -1387121.4, -50.573837, -0.000000089136265, 0.0012579148, -1329095.6, 14614.738, 0.0, 5.016459, 4.978644 
2.5082606e+0, 1.6786538e+2, -1280584.6, -1339496.1, -51.1113, 0.000000026130515, -0.0011789515, -1280584.6, 14334.595, 0.0, 5.016521, 4.9781394 
2.5082904e+0, 1.7284237e+2, -1235557.8, -1299211.5, -53.20659, 0.000000041827207, 0.0011488352, -1235557.6, 10587.192, 0.0, 5.0165806, 4.975151 
2.5083193e+0, 1.7781758e+2, -1186962.8, -1251437.3, -53.650185, 0.00000017056504, -0.0012084235, -1186962.8, 10424.966, 0.0, 5.0166383, 4.974685 
2.5083476e+0, 1.827911e+2, -1141953.3, -1211276.8, -55.373222, 0.00000012041589, 0.0012495739, -1141953.3, 6694.04, 0.0, 5.0166945, 4.9716344 
2.508375e+0, 1.8776278e+2, -1093289.3, -1163387.6, -55.757816, 0.000000037677978, -0.0013004235, -1093289.1, 6635.525, 0.0, 5.0167494, 4.971195 
2.5084016e+0, 1.927328e+2, -1048293.9, -1123349.9, -57.014874, 0.0000004267998, 0.0013079722, -1048293.9, 2924.6965, 0.0, 5.0168033, 4.9680758 
2.5084278e+0, 1.9770095e+2, -999548.8, -1075323.9, -57.300426, -0.00000003869088, -0.0013107241, -999548.75, 2981.989, 0.0, 5.0168557, 4.96767 
2.5084537e+0, 2.0266742e+2, -954555.75, -1035393.44, -58.267715, 0.00000034535185, 0.0013040866, -954555.7, -696.4297, 0.0, 5.016907, 4.9644933 
2.5084794e+0, 2.0763199e+2, -905751.25, -987280.4, -58.487625, 0.00000034205425, -0.0013487977, -905751.25, -544.6837, 0.0, 5.016958, 4.9641037 
2.508505e+0, 2.1259488e+2, -860751.06, -947442.94, -58.976734, 0.00000008914163, 0.0013689311, -860751.06, -4180.931, 0.0, 5.0170093, 4.9608665 
2.50853e+0, 2.1755582e+2, -811877.1, -899224.8, -59.127052, -0.00000009128709, -0.001436618, -811877.1, -3924.1526, 0.0, 5.01706, 4.9604993 
2.5085557e+0, 2.2251508e+2, -766971.5, -859712.4, -59.123238, 0.0000003515335, 0.0014205256, -766971.44, -7619.15, 0.0, 5.017111, 4.9571238 
2.5085813e+0, 2.2747229e+2, -718035.8, -811412.75, -59.2935, 0.00000027268453, -0.0014073185, -718035.8, -7264.19, 0.0, 5.017162, 4.95677 
2.508607e+0, 2.3242779e+2, -673073.2, -771904.2, -58.897705, -0.00000012360795, 0.0014548553, -673073.1, -10865.541, 0.0, 5.017214, 4.9533663 
2.5086334e+0, 2.3738125e+2, -624055.25, -723481.2, -58.85638, -0.0000004027799, -0.0016568291, -624055.2, -10391.449, 0.0, 5.0172663, 4.95304 
2.50866e+0, 2.4233305e+2, -579049.7, -684012.1, -58.1865, 0.00000009299685, 0.0016977835, -579049.7, -13913.52, 0.0, 5.01732, 4.9495907 
2.5086874e+0, 2.4728274e+2, -529926.6, -635415.75, -58.032524, 0.00000029430768, -0.0016971426, -529926.56, -13297.478, 0.0, 5.0173745, 4.94931 
2.5087154e+0, 2.5223073e+2, -485019.88, -596310.75, -56.968655, -0.00000072649317, 0.0016700262, -485019.84, -16881.098, 0.0, 5.0174303, 4.945706 
2.508744e+0, 2.5717667e+2, -435622.5, -547162.44, -56.69536, -0.00000051908484, -0.0017304684, -435622.47, -15953.663, 0.0, 5.017488, 4.945603 
2.5087735e+0, 2.621208e+2, -390936.6, -508709.78, -55.356274, -0.0000002893256, 0.0016734429, -390936.56, -19720.62, 0.0, 5.0175467, 4.941738 
2.5088042e+0, 2.6706293e+2, -341182.4, -458817.22, -54.893406, -0.0000002965746, -0.0016367194, -341182.38, -18399.0, 0.0, 5.0176077, 4.9418826 
2.5088352e+0, 2.7200317e+2, -296762.38, -421137.06, -53.267704, -0.00000070529177, 0.0017010084, -296762.34, -22393.594, 0.0, 5.01767, 4.9377074 
2.508868e+0, 2.7694142e+2, -246652.03, -370493.47, -52.609318, -0.000000969732, -0.0019351874, -246652.02, -20677.9, 0.0, 5.0177355, 4.9381013 
2.5089017e+0, 2.8187785e+2, -202366.6, -333304.63, -50.72035, -0.0000007034902, 0.002194729, -202366.58, -24769.514, 0.0, 5.0178027, 4.9337177 
2.5089368e+0, 2.868122e+2, -151974.9, -282072.9, -49.943657, -0.00000041753714, -0.0025288386, -151974.89, -22734.41, 0.0, 5.0178733, 4.934306 
2.5089732e+0, 2.9174432e+2, -108885.92, -247867.13, -47.724808, -0.0000007498218, 0.0017571576, -108885.91, -27980.357, 0.0, 5.017946, 4.928826 
2.5090113e+0, 2.9667404e+2, -58389.17, -196467.58, -46.865337, -0.000001710241, -0.0005155048, -58389.156, -25794.865, 0.0, 5.0180225, 4.9294577 
2.5090507e+0, 3.016106e+2, -17384.324, -133952.17, -43.746746, -0.0000008244269, 0.0021503267, -17384.309, -17384.309, 0.0, 5.018101, 4.9430346 
2.509092e+0, 3.0655423e+2, -16089.649, -131339.78, -42.64352, 0.000000004927767, -0.005239456, -16089.634, -16089.634, 0.0, 5.0181837, 4.943939 
2.5091347e+0, 3.115151e+2, 22198.465, -41818.496, -38.548786, -0.0000013881547, 0.0041161645, 22198.488, 22198.488, 0.0, 5.018269, 4.976684 
2.5091794e+0, 3.1649277e+2, 24062.77, -37896.918, -37.339424, -0.00000090925084, -0.0010311676, 24062.791, 24062.791, 0.0, 5.0183587, 4.9780936 
7.523802e+0, 1.2299574e+2, -1702377.4, -1737935.1, 28.516764, -0.0000008578032, 0.00092302676, -1702377.4, 32264.393, 0.0, 5.015867, 4.992685 
7.523929e+0, 1.2798792e+2, -1654740.3, -1692024.4, 27.819805, -0.0000030515107, -0.0031891004, -1654740.3, 30978.22, 0.0, 5.0159526, 4.991646 
7.524052e+0, 1.329787e+2, -1609346.9, -1650682.5, 18.881903, 0.0000008688185, 0.0035932616, -1609346.9, 27461.861, 0.0, 5.0160346, 4.9890127 
7.5241697e+0, 1.3796744e+2, -1561180.5, -1603708.3, 17.990292, -0.000000078931365, -0.0013208989, -1561180.5, 26738.594, 0.0, 5.0161123, 4.9883156 
7.524282e+0, 1.4295454e+2, -1516022.8, -1562925.6, 10.19417, -0.0000022957977, 0.00024602262, -1516022.8, 23022.791, 0.0, 5.0161877, 4.985531 
7.524389e+0, 1.4794023e+2, -1467673.3, -1515593.8, 9.506316, -0.00000082423117, -0.00092873204, -1467673.3, 22512.516, 0.0, 5.016259, 4.984949 
7.5244933e+0, 1.5292406e+2, -1422569.3, -1474998.4, 2.4646566, 0.000000568065, 0.001323949, -1422569.3, 18775.088, 0.0, 5.0163283, 4.9821115 
7.524593e+0, 1.5790619e+2, -1374167.9, -1427579.0, 1.8924725, -0.00000057535175, -0.0013098193, -1374167.9, 18351.494, 0.0, 5.016395, 4.9815497 
7.5246894e+0, 1.6288659e+2, -1329096.6, -1387123.4, -4.191009, -0.0000002522806, 0.0012579242, -1329096.6, 14614.648, 0.0, 5.016459, 4.9786434 
7.524782e+0, 1.6786529e+2, -1280585.5, -1339498.0, -4.721362, 0.000000097415395, -0.0011787851, -1280585.5, 14334.555, 0.0, 5.016521, 4.978139 
7.524871e+0, 1.7284226e+2, -1235558.5, -1299213.3, -9.815467, 0.00000012133019, 0.0011486649, -1235558.5, 10587.274, 0.0, 5.0165806, 4.9751506 
7.524958e+0, 1.778175e+2, -1186963.6, -1251438.9, -10.193565, 0.00000050928924, -0.0012091572, -1186963.6, 10425.059, 0.0, 5.0166383, 4.9746847 
7.525042e+0, 1.82791e+2, -1141954.0, -1211278.0, -14.290577, 0.00000036185006, 0.0012500238, -1141954.0, 6694.3096, 0.0, 5.0166945, 4.971634 
7.5251245e+0, 1.877627e+2, -1093289.9, -1163389.0, -14.672101, 0.00000011397174, -0.0012996218, -1093289.9, 6635.744, 0.0, 5.0167494, 4.9711947 
7.525205e+0, 1.927327e+2, -1048294.44, -1123351.0, -17.70914, 0.0000012794053, 0.001307029, -1048294.44, 2925.048, 0.0, 5.0168033, 4.9680753 
7.5252837e+0, 1.9770086e+2, -999549.25, -1075324.8, -18.055199, -0.00000011428673, -0.0013113441, -999549.25, 2982.4492, 0.0, 5.0168557, 4.9676695 
7.525362e+0, 2.0266733e+2, -954556.1, -1035394.1, -19.95431, 0.0000010369248, 0.001304888, -954556.1, -695.87134, 0.0, 5.016907, 4.964493 
7.525438e+0, 2.0763189e+2, -905751.7, -987281.1, -20.22982, 0.0000010255009, -0.0013483594, -905751.7, -544.18176, 0.0, 5.016958, 4.9641037 
7.5255144e+0, 2.1259479e+2, -860751.4, -947443.4, -21.084211, 0.00000026268063, 0.0013682996, -860751.4, -4180.259, 0.0, 5.0170093, 4.960866 
7.52559e+0, 2.1755573e+2, -811877.44, -899225.25, -21.296015, -0.00000027747538, -0.0014369696, -811877.44, -3923.4875, 0.0, 5.01706, 4.9604993 
7.525667e+0, 2.2251497e+2, -766971.8, -859712.94, -20.73324, 0.000001049295, 0.0014209987, -766971.8, -7618.534, 0.0, 5.017111, 4.9571233 
7.525743e+0, 2.2747219e+2, -718036.1, -811413.2, -20.959738, 0.0000008160064, -0.0014071106, -718036.1, -7263.541, 0.0, 5.017162, 4.95677 
7.5258213e+0, 2.324277e+2, -673073.2, -771904.06, -19.375673, -0.00000037312745, 0.0014546578, -673073.2, -10864.615, 0.0, 5.017214, 4.9533663 
7.5259e+0, 2.3738115e+2, -624055.2, -723480.94, -19.37563, -0.0000012120457, -0.0016571113, -624055.2, -10390.49, 0.0, 5.0172663, 4.9530406 
7.5259805e+0, 2.4233295e+2, -579049.56, -684011.7, -17.207674, 0.0000002793164, 0.001698022, -579049.56, -13912.474, 0.0, 5.0173197, 4.9495907 
7.526063e+0, 2.4728264e+2, -529926.5, -635415.2, -17.048925, 0.0000008802472, -0.0016968758, -529926.5, -13296.392, 0.0, 5.0173745, 4.94931 
7.526146e+0, 2.5223064e+2, -485019.56, -596309.9, -13.938423, -0.000002180764, 0.0016698369, -485019.56, -16879.852, 0.0, 5.0174303, 4.9457064 
7.526232e+0, 2.5717655e+2, -435622.25, -547161.6, -13.556875, -0.000001559355, -0.0017306458, -435622.25, -15952.468, 0.0, 5.0174875, 4.945603 
7.52632e+0, 2.6212072e+2, -390936.25, -508708.7, -9.687098, -0.0000008686178, 0.0016734608, -390936.25, -19719.322, 0.0, 5.0175467, 4.9417386 
7.526412e+0, 2.6706284e+2, -341182.03, -458816.13, -8.967052, -0.0000008922721, -0.00163644, -341182.03, -18397.701, 0.0, 5.0176077, 4.9418826 
7.526506e+0, 2.7200308e+2, -296761.88, -421135.66, -4.4336195, -0.000002116624, 0.0017009428, -296761.88, -22392.18, 0.0, 5.01767, 4.937708 
7.526604e+0, 2.7694133e+2, -246651.58, -370492.1, -3.284886, -0.000002912804, -0.00193556, -246651.58, -20676.51, 0.0, 5.0177355, 4.938102 
7.5267047e+0, 2.8187776e+2, -202366.06, -333303.03, 1.9497107, -0.000002101895, 0.0021948132, -202366.06, -24768.06, 0.0, 5.0178027, 4.933718 
7.52681e+0, 2.868121e+2, -151974.38, -282071.25, 3.2566483, -0.0000012423893, -0.0025286777, -151974.38, -22732.947, 0.0, 5.0178733, 4.9343066 
7.526919e+0, 2.9174423e+2, -108885.4, -247865.52, 9.452832, -0.0000022319675, 0.0017569605, -108885.4, -27978.916, 0.0, 5.017946, 4.928827 
7.5270337e+0, 2.9667395e+2, -58388.668, -196465.98, 11.035454, -0.0000051192224, -0.0005156697, -58388.668, -25793.447, 0.0, 5.018022, 4.9294586 
7.5271523e+0, 3.016105e+2, -17383.7, -133950.25, 18.149248, -0.000002498551, 0.0021503265, -17383.695, -17383.695, 0.0, 5.0181007, 4.9430356 
7.527276e+0, 3.0655414e+2, -16089.063, -131337.89, 20.3028, 0.0000000034183745, -0.0052394792, -16089.06, -16089.06, 0.0, 5.0181837, 4.9439397 
7.5274044e+0, 3.11515e+2, 22199.201, -41816.125, 28.510237, -0.000004153512, 0.0041155037, 22199.215, 22199.215, 0.0, 5.018269, 4.976685 
7.5275385e+0, 3.1649268e+2, 24063.389, -37894.508, 30.557766, -0.000002939602, -0.0010303084, 24063.402, 24063.402, 0.0, 5.018358, 4.9780946 
1.2539671e+1, 1.2299557e+2, -1702363.1, -1737932.5, -42.902004, -0.0000012474619, 0.00092290563, -1702363.1, 32280.38, 0.0, 5.015873, 4.992683 
1.2539884e+1, 1.2798773e+2, -1654726.5, -1692022.1, -45.265984, -0.0000047339327, -0.0031892625, -1654726.5, 30993.783, 0.0, 5.0159583, 4.991644 
1.254009e+1, 1.3297851e+2, -1609334.0, -1650680.4, -61.218334, 0.0000013057279, 0.0035927424, -1609334.0, 27476.553, 0.0, 5.01604, 4.989011 
1.2540284e+1, 1.3796726e+2, -1561168.5, -1603706.4, -63.67881, -0.00000028878952, -0.0013210715, -1561168.4, 26752.492, 0.0, 5.0161176, 4.9883137 
1.2540472e+1, 1.4295436e+2, -1516011.4, -1562924.0, -77.75848, -0.000003272308, 0.00024580976, -1516011.3, 23036.072, 0.0, 5.016192, 4.985529 
1.2540652e+1, 1.4794005e+2, -1467662.8, -1515592.5, -79.814156, -0.0000011619748, -0.0009288233, -1467662.6, 22524.906, 0.0, 5.0162635, 4.984947 
1.2540823e+1, 1.5292385e+2, -1422559.6, -1474997.1, -92.49589, 0.0000009283176, 0.001323508, -1422559.5, 18786.705, 0.0, 5.0163326, 4.98211 
1.254099e+1, 1.5790601e+2, -1374159.3, -1427578.1, -94.29379, -0.00000067092674, -0.0013099717, -1374159.0, 18362.207, 0.0, 5.0163984, 4.9815483 
1.254115e+1, 1.6288641e+2, -1329088.9, -1387122.6, -105.325134, -0.00000022969303, 0.0012577085, -1329088.6, 14624.52, 0.0, 5.0164623, 4.978642 
1.2541305e+1, 1.678651e+2, -1280578.9, -1339497.8, -106.91448, 0.00000054440994, -0.0011788977, -1280578.6, 14343.375, 0.0, 5.016524, 4.9781375 
1.2541454e+1, 1.7284207e+2, -1235552.5, -1299212.9, -116.2408, 0.00000025151346, 0.0011485053, -1235552.3, 10595.408, 0.0, 5.016583, 4.9751496 
1.2541598e+1, 1.7781729e+2, -1186958.6, -1251439.0, -117.52377, 0.0000006611597, -0.0012095275, -1186958.4, 10432.184, 0.0, 5.0166407, 4.9746833 
1.2541738e+1, 1.827908e+2, -1141950.0, -1211278.3, -125.06052, 0.0000012510434, 0.0012499846, -1141949.8, 6700.461, 0.0, 5.0166965, 4.9716334 
1.2541875e+1, 1.877625e+2, -1093287.0, -1163389.5, -126.22962, 0.00000041158674, -0.0012991901, -1093286.8, 6640.875, 0.0, 5.016751, 4.971194 
1.254201e+1, 1.9273251e+2, -1048292.25, -1123351.5, -131.80165, 0.0000020282625, 0.0013064498, -1048292.0, 2929.4524, 0.0, 5.016804, 4.968075 
1.254214e+1, 1.9770065e+2, -999548.2, -1075325.9, -132.72366, 0.00000062641357, -0.0013117682, -999547.94, 2985.7183, 0.0, 5.016856, 4.967669 
1.254227e+1, 2.0266713e+2, -954555.8, -1035395.06, -136.50208, 0.0000017815692, 0.0013053213, -954555.6, -693.42365, 0.0, 5.0169077, 4.9644923 
1.2542397e+1, 2.0763168e+2, -905752.5, -987282.6, -137.28513, 0.0000012573735, -0.0013481809, -905752.25, -542.7925, 0.0, 5.016958, 4.964103 
1.2542525e+1, 2.1259458e+2, -860752.94, -947444.7, -139.08978, 0.0000013582869, 0.0013679552, -860752.75, -4179.683, 0.0, 5.017009, 4.960866 
1.254265e+1, 2.1755552e+2, -811880.2, -899227.1, -139.6057, 0.0000005189668, -0.0014370946, -811880.0, -3924.0825, 0.0, 5.017059, 4.9604993 
1.2542777e+1, 2.2251476e+2, -766975.75, -859715.5, -139.03438, 0.0000013450799, 0.001421308, -766975.5, -7620.2876, 0.0, 5.0171094, 4.9571233 
1.2542905e+1, 2.2747198e+2, -718041.1, -811416.2, -139.58885, 0.0000011749602, -0.00140714, -718040.9, -7266.3306, 0.0, 5.01716, 4.9567695 
1.2543035e+1, 2.324275e+2, -673078.7, -771906.2, -137.22691, 0.00000019442702, 0.0014547489, -673078.5, -10867.962, 0.0, 5.0172114, 4.9533663 
1.2543166e+1, 2.3738095e+2, -624061.75, -723483.5, -137.15506, -0.0000010015904, -0.0016571515, -624061.56, -10394.866, 0.0, 5.017264, 4.9530406 
1.25433e+1, 2.4233274e+2, -579056.94, -684014.2, -133.61107, 0.0000002056237, 0.0016981638, -579056.8, -13917.706, 0.0, 5.0173173, 4.949591 
1.2543435e+1, 2.4728245e+2, -529934.8, -635418.06, -133.15167, 0.0000010535459, -0.0016967056, -529934.6, -13302.601, 0.0, 5.017371, 4.9493103 
1.2543574e+1, 2.5223044e+2, -485028.8, -596312.6, -127.991516, -0.000002690754, 0.0016698232, -485028.7, -16887.014, 0.0, 5.017427, 4.945707 
1.2543719e+1, 2.5717637e+2, -435632.53, -547164.9, -127.01196, -0.0000020104567, -0.0017305968, -435632.38, -15960.647, 0.0, 5.0174837, 4.945604 
1.2543865e+1, 2.6212052e+2, -390947.16, -508711.78, -120.402084, -0.0000015087999, 0.001673445, -390947.03, -19728.176, 0.0, 5.0175424, 4.9417396 
1.2544018e+1, 2.6706263e+2, -341193.94, -458819.6, -118.765884, -0.0000012853097, -0.0016361356, -341193.84, -18407.56, 0.0, 5.017603, 4.9418836 
1.2544174e+1, 2.720029e+2, -296774.53, -421139.03, -110.95255, -0.0000032796243, 0.0017009336, -296774.44, -22402.795, 0.0, 5.0176654, 4.937709 
1.2544337e+1, 2.7694112e+2, -246665.13, -370495.8, -108.5011, -0.0000043967602, -0.0019359018, -246665.03, -20688.05, 0.0, 5.01773, 4.9381027 
1.2544505e+1, 2.8187758e+2, -202380.34, -333306.63, -99.470634, -0.0000029322066, 0.0021949604, -202380.27, -24780.348, 0.0, 5.017797, 4.933719 
1.2544681e+1, 2.8681192e+2, -151989.34, -282075.03, -96.56117, -0.0000021978408, -0.002528392, -151989.28, -22745.963, 0.0, 5.017867, 4.934308 
1.2544861e+1, 2.9174405e+2, -108901.305, -247869.83, -85.93932, -0.0000039368424, 0.0017566537, -108901.25, -27992.887, 0.0, 5.0179396, 4.928828 
1.2545052e+1, 2.9667377e+2, -58405.48, -196470.7, -82.66772, -0.0000076535425, -0.0005158846, -58405.43, -25808.336, 0.0, 5.0180154, 4.9294596 
1.254525e+1, 3.0161032e+2, -17400.818, -133954.39, -69.27733, -0.0000034622456, 0.002150455, -17400.777, -17400.777, 0.0, 5.018094, 4.943037 
1.2545457e+1, 3.0655396e+2, -16106.845, -131342.3, -64.861465, -0.0000005182353, -0.0052393903, -16106.809, -16106.809, 0.0, 5.0181766, 4.943941 
1.2545669e+1, 3.1151482e+2, 22181.475, -41819.543, -48.42791, -0.000007499612, 0.0041151736, 22181.51, 22181.51, 0.0, 5.018262, 4.976687 
1.2545894e+1, 3.164925e+2, 24045.586, -37897.7, -43.954967, -0.000002958217, -0.001030608, 24045.617, 24045.617, 0.0, 5.018351, 4.978097 
1.7555545e+1, 1.229953e+2, -1702367.9, -1737941.8, 20.800753, -0.0000021994213, 0.00092259486, -1702367.9, 32278.2, 0.0, 5.015873, 4.9926796 
1.7555843e+1, 1.2798746e+2, -1654731.0, -1692031.1, 18.338589, -0.000006250473, -0.0031890296, -1654731.0, 30991.834, 0.0, 5.0159583, 4.991641 
1.755613e+1, 1.3297826e+2, -1609338.3, -1650688.9, -3.05075, 0.0000014035905, 0.0035917878, -1609338.3, 27474.885, 0.0, 5.0160394, 4.989008 
1.7556402e+1, 1.3796698e+2, -1561172.6, -1603714.6, -5.5683126, -0.000001003269, -0.0013210996, -1561172.6, 26750.955, 0.0, 5.0161176, 4.9883113 
1.7556663e+1, 1.4295408e+2, -1516015.3, -1562931.8, -24.391735, -0.000004083753, 0.00024568866, -1516015.3, 23034.762, 0.0, 5.016192, 4.9855266 
1.7556915e+1, 1.4793977e+2, -1467666.6, -1515600.0, -26.450464, -0.0000017751087, -0.00092906406, -1467666.6, 22523.74, 0.0, 5.0162635, 4.984945 
1.7557158e+1, 1.5292358e+2, -1422563.1, -1475004.1, -43.330986, 0.00000063295823, 0.0013230974, -1422563.1, 18785.824, 0.0, 5.0163326, 4.9821076 
1.7557389e+1, 1.5790571e+2, -1374162.6, -1427584.9, -45.126255, -0.0000011781041, -0.0013100391, -1374162.6, 18361.451, 0.0, 5.0163984, 4.9815464 
1.7557614e+1, 1.6288613e+2, -1329091.9, -1387128.6, -59.807487, -0.00000064954145, 0.0012573507, -1329091.9, 14624.1455, 0.0, 5.0164623, 4.97864 
1.755783e+1, 1.6786483e+2, -1280581.9, -1339503.6, -61.35522, 0.00000082456313, -0.0011792637, -1280581.8, 14343.076, 0.0, 5.016524, 4.9781356 
1.7558037e+1, 1.7284179e+2, -1235555.1, -1299218.0, -73.70932, -0.00000012363441, 0.001148375, -1235555.1, 10595.491, 0.0, 5.016583, 4.9751477 
1.755824e+1, 1.77817e+2, -1186961.1, -1251444.0, -74.98862, 0.000000035759626, -0.0012095146, -1186961.1, 10432.349, 0.0, 5.0166407, 4.974682 
1.7558436e+1, 1.8279052e+2, -1141952.1, -1211282.5, -84.89083, 0.0000021577148, 0.001249471, -1141952.1, 6700.978, 0.0, 5.0166965, 4.971632 
1.7558627e+1, 1.8776219e+2, -1093289.0, -1163393.5, -86.03626, 0.000000211261, -0.0012991059, -1093289.0, 6641.538, 0.0, 5.016751, 4.9711924 
1.7558813e+1, 1.9273221e+2, -1048293.94, -1123354.6, -93.34751, 0.0000018860483, 0.001306285, -1048293.8, 2930.5208, 0.0, 5.016804, 4.968074 
1.7558996e+1, 1.9770035e+2, -999550.0, -1075329.1, -94.29489, 0.0000013675019, -0.0013119587, -999549.9, 2986.6824, 0.0, 5.016856, 4.967668 
1.7559177e+1, 2.0266682e+2, -954557.25, -1035397.44, -99.090324, 0.0000017183833, 0.0013054223, -954557.1, -692.0005, 0.0, 5.0169077, 4.964492 
1.7559355e+1, 2.076314e+2, -905753.9, -987284.94, -99.92368, 0.00000013712894, -0.0013482464, -905753.75, -541.3681, 0.0, 5.016958, 4.9641023 
1.7559534e+1, 2.1259429e+2, -860753.94, -947446.0, -102.14349, 0.0000024466724, 0.0013678961, -860753.8, -4177.813, 0.0, 5.017009, 4.9608655 
1.755971e+1, 2.1755522e+2, -811881.2, -899228.44, -102.70184, 0.0000013402599, -0.0014370275, -811881.06, -3922.237, 0.0, 5.017059, 4.960499 
1.7559887e+1, 2.2251447e+2, -766976.9, -859717.1, -101.55844, 0.00000025483078, 0.0014214069, -766976.75, -7618.579, 0.0, 5.0171094, 4.9571223 
1.7560065e+1, 2.2747168e+2, -718042.2, -811417.75, -102.167564, 0.00000034971214, -0.0014074472, -718042.06, -7264.581, 0.0, 5.01716, 4.956769 
1.7560245e+1, 2.324272e+2, -673078.9, -771905.75, -98.64327, 0.00000058359814, 0.0014550757, -673078.8, -10865.297, 0.0, 5.0172114, 4.9533668 
1.756043e+1, 2.3738064e+2, -624061.9, -723482.9, -98.590385, -0.0000007293403, -0.0016570364, -624061.75, -10392.147, 0.0, 5.017264, 4.953041 
1.7560618e+1, 2.4233244e+2, -579056.75, -684012.75, -93.55398, -0.0000010424093, 0.001698106, -579056.6, -13914.627, 0.0, 5.017317, 4.9495916 
1.7560807e+1, 2.4728215e+2, -529934.56, -635416.5, -93.08677, -0.000000043677794, -0.0016967301, -529934.44, -13299.475, 0.0, 5.017371, 4.9493113 
1.7561e+1, 2.5223014e+2, -485028.22, -596310.25, -85.92125, -0.00000309159, 0.0016698804, -485028.13, -16883.543, 0.0, 5.0174265, 4.945708 
1.7561203e+1, 2.5717604e+2, -435631.9, -547162.5, -84.79389, -0.000002685684, -0.0017304386, -435631.84, -15957.197, 0.0, 5.0174837, 4.945605 
1.7561407e+1, 2.6212025e+2, -390946.2, -508708.5, -75.655304, -0.0000030267233, 0.0016732774, -390946.13, -19724.361, 0.0, 5.0175424, 4.941741 
1.756162e+1, 2.670623e+2, -341193.0, -458816.34, -73.79431, -0.00000229726, -0.0016359324, -341192.97, -18403.805, 0.0, 5.017603, 4.941885 
1.756184e+1, 2.720026e+2, -296773.3, -421135.03, -63.03307, -0.0000050545577, 0.0017008475, -296773.28, -22398.76, 0.0, 5.017665, 4.9377103 
1.7562068e+1, 2.7694082e+2, -246663.97, -370491.88, -60.101963, -0.000006330547, -0.0019363284, -246663.94, -20684.096, 0.0, 5.0177298, 4.938104 
1.7562301e+1, 2.8187725e+2, -202378.86, -333301.8, -47.749153, -0.000004114122, 0.0021950824, -202378.84, -24776.072, 0.0, 5.017797, 4.933721 
1.7562547e+1, 2.8681162e+2, -151987.83, -282070.06, -44.277893, -0.000004068529, -0.0025280926, -151987.81, -22741.664, 0.0, 5.017867, 4.93431 
1.75628e+1, 2.9174376e+2, -108899.96, -247865.2, -29.713486, -0.000006536934, 0.001756087, -108899.95, -27988.771, 0.0, 5.017939, 4.9288297 
1.7563069e+1, 2.966735e+2, -58404.195, -196466.16, -25.700907, -0.000009897143, -0.0005163742, -58404.188, -25804.297, 0.0, 5.0180154, 4.9294615 
1.7563343e+1, 3.0161005e+2, -17399.076, -133948.67, -8.223222, -0.0000042789748, 0.0021505665, -17399.076, -17399.076, 0.0, 5.0180936, 4.9430394 
1.7563635e+1, 3.0655366e+2, -16105.171, -131336.56, -2.7998104, -0.0000021887997, -0.0052395514, -16105.171, -16105.171, 0.0, 5.018176, 4.9439435 
1.756393e+1, 3.1151456e+2, 22183.598, -41812.367, 17.763002, -0.000012680664, 0.0041147154, 22183.604, 22183.604, 0.0, 5.0182614, 4.97669 
1.7564245e+1, 3.1649223e+2, 24047.424, -37890.297, 23.126112, -0.0000044801964, -0.0010307947, 24047.434, 24047.434, 0.0, 5.01835, 4.9781 
2.2571425e+1, 1.22994944e+2, -1702338.9, -1737936.6, -49.720745, -0.0000022220574, 0.0009220901, -1702338.9, 32310.771, 0.0, 5.015885, 4.992676 
2.2571808e+1, 1.279871e+2, -1654703.8, -1692026.5, -53.934566, -0.000007180843, -0.0031882408, -1654703.6, 31022.768, 0.0, 5.0159693, 4.9916368 
2.2572175e+1, 1.3297789e+2, -1609312.4, -1650684.5, -82.34965, 0.0000016267136, 0.0035898283, -1609312.3, 27504.527, 0.0, 5.01605, 4.989004 
2.2572525e+1, 1.3796662e+2, -1561148.3, -1603710.9, -86.40785, -0.0000012283773, -0.0013214326, -1561148.1, 26779.078, 0.0, 5.016127, 4.9883075 
2.257286e+1, 1.4295371e+2, -1515992.5, -1562928.4, -111.54415, -0.0000046224795, 0.0002459435, -1515992.3, 23061.455, 0.0, 5.0162015, 4.985523 
2.2573183e+1, 1.479394e+2, -1467645.5, -1515597.3, -114.9802, -0.0000018531034, -0.00092948374, -1467645.3, 22548.691, 0.0, 5.0162725, 4.9849415 
2.2573493e+1, 1.529232e+2, -1422543.8, -1475001.5, -137.52525, 0.000000856142, 0.001322284, -1422543.4, 18809.287, 0.0, 5.0163403, 4.982105 
2.2573791e+1, 1.5790534e+2, -1374145.1, -1427583.1, -140.54547, -0.000001021306, -0.0013102504, -1374144.8, 18383.002, 0.0, 5.016406, 4.981543 
2.2574078e+1, 1.6288574e+2, -1329076.1, -1387127.0, -160.19258, -0.0000005004912, 0.001256985, -1329075.6, 14644.103, 0.0, 5.016469, 4.9786377 
2.2574355e+1, 1.6786443e+2, -1280568.0, -1339502.9, -162.81064, 0.0000013119828, -0.0011795099, -1280567.6, 14361.038, 0.0, 5.0165296, 4.9781327 
2.2574623e+1, 1.728414e+2, -1235543.0, -1299217.4, -179.3688, 0.00000027722615, 0.0011480402, -1235542.5, 10611.816, 0.0, 5.016588, 4.975146 
2.2574882e+1, 1.778166e+2, -1186951.1, -1251444.1, -181.57217, 0.000000054974908, -0.0012094356, -1186950.6, 10446.657, 0.0, 5.016645, 4.9746795 
2.2575134e+1, 1.8279012e+2, -1141943.9, -1211282.8, -194.89618, 0.000003244338, 0.0012490856, -1141943.4, 6713.5737, 0.0, 5.0167003, 4.97163 
2.2575378e+1, 1.877618e+2, -1093282.9, -1163394.6, -196.74103, 0.0000010491686, -0.0012995434, -1093282.4, 6651.987, 0.0, 5.0167537, 4.971191 
2.2575618e+1, 1.9273181e+2, -1048289.44, -1123355.6, -206.76933, 0.0000024160813, 0.0013064449, -1048288.9, 2939.374, 0.0, 5.016806, 4.9680724 
2.2575854e+1, 1.9769995e+2, -999547.75, -1075331.3, -208.32643, 0.0000018522289, -0.0013117716, -999547.1, 2993.3125, 0.0, 5.0168576, 4.9676666 
2.2576086e+1, 2.0266643e+2, -954556.3, -1035399.1, -214.89104, 0.0000029130476, 0.0013051119, -954555.75, -686.73883, 0.0, 5.016908, 4.964491 
2.2576314e+1, 2.0763098e+2, -905755.4, -987287.75, -216.21066, 0.0000011169699, -0.0013484627, -905754.75, -538.4521, 0.0, 5.016958, 4.9641013 
2.2576542e+1, 2.1259388e+2, -860757.2, -947448.7, -219.3924, 0.0000030837232, 0.0013682748, -860756.6, -4176.706, 0.0, 5.017008, 4.960865 
2.2576767e+1, 2.1755482e+2, -811886.5, -899232.06, -220.28482, 0.000001911314, -0.0014368359, -811885.94, -3923.1697, 0.0, 5.017057, 4.9604983 
2.2576995e+1, 2.2251406e+2, -766984.6, -859722.2, -219.13087, 0.0000013228691, 0.0014213538, -766984.06, -7621.97, 0.0, 5.017107, 4.957122 
2.2577223e+1, 2.2747128e+2, -718052.1, -811423.7, -220.07991, 0.00000093739374, -0.0014074872, -718051.6, -7270.1465, 0.0, 5.0171566, 4.9567685 
2.2577456e+1, 2.3242679e+2, -673089.7, -771909.94, -215.77344, 0.0000010928051, 0.0014554552, -673089.25, -10871.79, 0.0, 5.0172076, 4.953367 
2.2577693e+1, 2.3738025e+2, -624074.8, -723487.94, -215.6422, -0.00000021302252, -0.0016568304, -624074.3, -10400.767, 0.0, 5.017259, 4.9530416 
2.2577931e+1, 2.4233204e+2, -579071.4, -684017.7, -209.22023, -0.00000090738945, 0.0016981873, -579070.94, -13924.995, 0.0, 5.0173116, 4.9495926 
2.2578174e+1, 2.4728175e+2, -529951.25, -635422.2, -208.46234, 0.00000029987908, -0.0016966055, -529950.8, -13311.918, 0.0, 5.017365, 4.9493117 
2.2578424e+1, 2.5222975e+2, -485046.47, -596315.8, -199.2563, -0.0000032317398, 0.0016701262, -485046.13, -16897.605, 0.0, 5.0174193, 4.945709 
2.2578682e+1, 2.5717565e+2, -435652.16, -547168.8, -197.48871, -0.0000029793616, -0.0017302862, -435651.8, -15973.244, 0.0, 5.0174756, 4.9456058 
2.2578946e+1, 2.6211983e+2, -390968.1, -508714.63, -185.61621, -0.0000033840374, 0.0016733041, -390967.78, -19742.127, 0.0, 5.0175333, 4.9417424 
2.257922e+1, 2.6706192e+2, -341216.84, -458823.3, -182.85828, -0.0000023578089, -0.0016354612, -341216.56, -18423.537, 0.0, 5.0175934, 4.9418864 
2.2579499e+1, 2.720022e+2, -296798.47, -421141.7, -168.77617, -0.000005824138, 0.0017007737, -296798.25, -22419.865, 0.0, 5.017655, 4.9377127 
2.2579792e+1, 2.7694044e+2, -246690.92, -370499.28, -164.52948, -0.000007391266, -0.0019365859, -246690.7, -20707.023, 0.0, 5.0177193, 4.9381065 
2.2580093e+1, 2.818769e+2, -202407.08, -333308.84, -148.35103, -0.000004699426, 0.0021953066, -202406.9, -24800.32, 0.0, 5.0177855, 4.9337234 
2.258041e+1, 2.8681123e+2, -152017.8, -282077.63, -143.33218, -0.0000046085615, -0.0025277599, -152017.64, -22767.7, 0.0, 5.0178547, 4.9343123 
2.2580734e+1, 2.9174337e+2, -108931.836, -247873.84, -124.31598, -0.0000075670823, 0.0017555865, -108931.73, -28016.78, 0.0, 5.017926, 4.928832 
2.2581078e+1, 2.966731e+2, -58437.496, -196475.4, -118.54694, -0.000012039567, -0.00051653176, -58437.395, -25833.76, 0.0, 5.018002, 4.929464 
2.258143e+1, 3.0160964e+2, -17433.043, -133956.89, -94.773026, -0.000005505893, 0.0021509372, -17432.967, -17432.967, 0.0, 5.0180798, 4.9430423 
2.2581802e+1, 3.0655327e+2, -16140.728, -131345.38, -87.17823, -0.0000023215264, -0.005240115, -16140.661, -16140.661, 0.0, 5.018162, 4.9439464 
2.2582185e+1, 3.115142e+2, 22147.836, -41819.367, -58.37404, -0.000014364945, 0.004114398, 22147.889, 22147.889, 0.0, 5.018246, 4.9766936 
2.2582588e+1, 3.164918e+2, 24011.447, -37896.84, -50.446686, -0.000003833552, -0.001031211, 24011.488, 24011.488, 0.0, 5.0183353, 4.9781036 
2.758731e+1, 1.229945e+2, -1702346.9, -1737952.1, 12.949383, -0.000003396265, 0.0009213657, -1702346.9, 32307.102, 0.0, 5.0158844, 4.9926705 
2.7587777e+1, 1.2798665e+2, -1654711.1, -1692041.4, 8.642361, -0.000008479271, -0.003186637, -1654711.1, 31019.625, 0.0, 5.0159693, 4.991632 
2.7588224e+1, 1.3297743e+2, -1609319.5, -1650698.6, -25.238928, 0.0000012661276, 0.0035871307, -1609319.5, 27501.72, 0.0, 5.01605, 4.989 
2.758865e+1, 1.3796616e+2, -1561155.3, -1603724.8, -29.361115, -0.0000016929964, -0.0013219065, -1561155.3, 26776.434, 0.0, 5.016127, 4.988303 
2.7589062e+1, 1.4295325e+2, -1515999.0, -1562941.3, -59.272835, -0.0000056888503, 0.00024674038, -1515999.0, 23059.252, 0.0, 5.016201, 4.985519 
2.7589455e+1, 1.4793894e+2, -1467652.0, -1515609.9, -62.716015, -0.000002403086, -0.00092985935, -1467651.9, 22546.686, 0.0, 5.016272, 4.984937 
2.7589834e+1, 1.5292273e+2, -1422549.6, -1475013.1, -89.50705, 0.00000040791383, 0.0013212514, -1422549.4, 18807.797, 0.0, 5.0163403, 4.982101 
2.7590197e+1, 1.5790486e+2, -1374150.9, -1427594.4, -92.525276, -0.0000014407625, -0.0013104887, -1374150.6, 18381.723, 0.0, 5.0164056, 4.9815397 
2.759055e+1, 1.6288526e+2, -1329081.3, -1387137.1, -115.82223, -0.0000009422697, 0.0012566481, -1329081.0, 14643.413, 0.0, 5.016469, 4.9786344 
2.7590886e+1, 1.6786395e+2, -1280573.0, -1339512.8, -118.41926, 0.00000094058095, -0.0011797032, -1280572.8, 14360.512, 0.0, 5.0165296, 4.97813 
2.759121e+1, 1.7284091e+2, -1235547.5, -1299226.0, -137.99597, 0.0000003754847, 0.0011474271, -1235547.1, 10611.927, 0.0, 5.016588, 4.975143 
2.7591527e+1, 1.7781612e+2, -1186955.5, -1251452.5, -140.21852, -0.00000042257307, -0.0012093224, -1186955.1, 10446.879, 0.0, 5.016645, 4.974677 
2.7591836e+1, 1.8278962e+2, -1141947.6, -1211289.8, -155.94797, 0.000003315089, 0.0012488178, -1141947.3, 6714.472, 0.0, 5.0167, 4.9716277 
2.7592131e+1, 1.877613e+2, -1093286.6, -1163401.6, -157.74503, 0.0000015839765, -0.0013005055, -1093286.3, 6652.895, 0.0, 5.0167537, 4.9711885 
2.7592427e+1, 1.9273132e+2, -1048292.5, -1123361.1, -169.53427, 0.000002203535, 0.0013069519, -1048292.1, 2940.9626, 0.0, 5.016806, 4.9680705 
2.7592713e+1, 1.9769946e+2, -999550.8, -1075336.8, -171.03409, 0.00000069672757, -0.0013112403, -999550.4, 2994.9187, 0.0, 5.016857, 4.9676647 
2.7592996e+1, 2.0266594e+2, -954558.6, -1035402.94, -178.72063, 0.0000039347324, 0.0013042819, -954558.25, -684.36005, 0.0, 5.016908, 4.9644895 
2.7593273e+1, 2.076305e+2, -905757.75, -987291.6, -180.14676, 0.0000026406472, -0.0013489748, -905757.3, -536.1386, 0.0, 5.0169578, 4.9641004 
2.759355e+1, 2.1259338e+2, -860758.9, -947451.0, -183.58736, 0.000001673574, 0.0013689838, -860758.5, -4173.7065, 0.0, 5.0170074, 4.9608645 
2.7593824e+1, 2.1755432e+2, -811888.2, -899234.4, -184.55043, 0.0000006285926, -0.0014365902, -811887.8, -3920.1646, 0.0, 5.017057, 4.9604974 
2.75941e+1, 2.2251357e+2, -766986.56, -859724.94, -182.88399, 0.0000028583243, 0.0014210632, -766986.2, -7619.1787, 0.0, 5.0171065, 4.9571214 
2.7594382e+1, 2.2747079e+2, -718054.06, -811426.44, -183.87932, 0.000001206127, -0.001407387, -718053.7, -7267.36, 0.0, 5.0171566, 4.9567676 
2.7594665e+1, 2.3242629e+2, -673090.06, -771909.2, -178.37808, 0.000000007537094, 0.0014557587, -673089.75, -10867.427, 0.0, 5.017207, 4.9533677 
2.759495e+1, 2.3737974e+2, -624075.1, -723487.0, -178.27762, -0.0000011018815, -0.0016566508, -624074.8, -10396.356, 0.0, 5.0172586, 4.953042 
2.7595243e+1, 2.4233155e+2, -579071.1, -684015.3, -170.37831, -0.0000010032871, 0.0016982743, -579070.8, -13919.974, 0.0, 5.017311, 4.9495935 
2.759554e+1, 2.4728125e+2, -529950.94, -635419.75, -169.58778, 0.0000005304439, -0.0016964927, -529950.7, -13306.8955, 0.0, 5.0173645, 4.949313 
2.7595845e+1, 2.5222924e+2, -485045.66, -596312.06, -158.3478, -0.0000046584328, 0.0016703767, -485045.4, -16892.033, 0.0, 5.017419, 4.9457107 
2.7596158e+1, 2.5717518e+2, -435651.28, -547164.8, -156.43478, -0.0000044585368, -0.0017303431, -435651.06, -15967.65, 0.0, 5.017475, 4.945607 
2.759648e+1, 2.6211932e+2, -390966.7, -508709.28, -142.06514, -0.00000419175, 0.001673312, -390966.5, -19736.002, 0.0, 5.0175333, 4.9417443 
2.7596813e+1, 2.6706144e+2, -341215.56, -458818.06, -139.02792, -0.0000031485688, -0.001634944, -341215.4, -18417.54, 0.0, 5.017593, 4.941889 
2.7597153e+1, 2.720017e+2, -296796.66, -421135.03, -121.94857, -0.0000074157147, 0.0017004783, -296796.53, -22413.35, 0.0, 5.0176544, 4.937715 
2.759751e+1, 2.7693993e+2, -246689.23, -370492.72, -117.25476, -0.000009614889, -0.0019368936, -246689.13, -20700.66, 0.0, 5.017719, 4.938109 
2.759788e+1, 2.8187642e+2, -202404.89, -333300.97, -97.73467, -0.0000068562467, 0.0021954305, -202404.83, -24793.494, 0.0, 5.017785, 4.933727 
2.7598265e+1, 2.8681076e+2, -152015.6, -282069.6, -92.170044, -0.000005799492, -0.0025276116, -152015.53, -22760.88, 0.0, 5.017854, 4.9343157 
2.759866e+1, 2.917429e+2, -108929.88, -247866.17, -69.09937, -0.000008807857, 0.0017549103, -108929.85, -28010.215, 0.0, 5.0179257, 4.928835 
2.7599078e+1, 2.966726e+2, -58435.684, -196467.89, -62.554047, -0.000015534373, -0.0005165959, -58435.652, -25827.361, 0.0, 5.0180016, 4.9294667 
2.759951e+1, 3.016092e+2, -17430.563, -133947.61, -34.72135, -0.000008472224, 0.0021513433, -17430.553, -17430.553, 0.0, 5.0180793, 4.9430456 
2.7599967e+1, 3.0655283e+2, -16138.3, -131336.02, -26.144196, -0.000002793721, -0.0052413265, -16138.294, -16138.294, 0.0, 5.0181613, 4.94395 
2.760043e+1, 3.1151372e+2, 22151.143, -41807.5, 6.9036264, -0.000016196385, 0.004114007, 22151.143, 22151.143, 0.0, 5.0182457, 4.9766984 
2.760092e+1, 3.1649137e+2, 24014.545, -37884.36, 15.785565, -0.000009367981, -0.0010311592, 24014.549, 24014.549, 0.0, 5.018334, 4.978109 
3.2603204e+1, 1.2299397e+2, -1702303.1, -1737944.4, -56.50024, -0.0000030878848, 0.00092080585, -1702303.1, 32356.098, 0.0, 5.015902, 4.992665 
3.2603753e+1, 1.2798612e+2, -1654669.8, -1692034.4, -62.49235, -0.0000085770425, -0.0031860063, -1654669.8, 31066.377, 0.0, 5.015986, 4.9916263 
3.2604283e+1, 1.3297689e+2, -1609280.4, -1650692.0, -103.57638, 0.0000010735283, 0.0035851835, -1609280.1, 27546.387, 0.0, 5.0160656, 4.988994 
3.2604787e+1, 1.379656e+2, -1561118.6, -1603719.1, -109.2351, -0.0000013973306, -0.0013223626, -1561118.4, 26818.729, 0.0, 5.016142, 4.9882975 
3.260527e+1, 1.429527e+2, -1515964.6, -1562936.0, -145.47963, -0.0000061114724, 0.00024700136, -1515964.1, 23099.502, 0.0, 5.0162153, 4.9855137 
3.2605734e+1, 1.4793837e+2, -1467620.3, -1515605.8, -150.31558, -0.0000023657487, -0.0009301524, -1467619.8, 22584.29, 0.0, 5.0162854, 4.9849324 
3.2606182e+1, 1.5292217e+2, -1422520.4, -1475009.3, -182.78879, 0.0000006450069, 0.0013202124, -1422519.8, 18843.057, 0.0, 5.016352, 4.982096 
3.260661e+1, 1.579043e+2, -1374124.5, -1427591.6, -187.03416, -0.0000011452519, -0.0013108419, -1374123.9, 18414.158, 0.0, 5.016417, 4.981535 
3.2607022e+1, 1.6288468e+2, -1329057.4, -1387134.8, -215.30788, -0.00000081791694, 0.0012563493, -1329056.6, 14673.502, 0.0, 5.016479, 4.97863 
3.2607418e+1, 1.6786337e+2, -1280552.1, -1339511.5, -219.00697, 0.0000008234143, -0.0011797327, -1280551.3, 14387.686, 0.0, 5.0165386, 4.978126 
3.2607803e+1, 1.7284033e+2, -1235529.3, -1299224.9, -242.79372, 0.00000110329, 0.0011467374, -1235528.4, 10636.483, 0.0, 5.016596, 4.9751396 
3.2608178e+1, 1.7781554e+2, -1186940.5, -1251452.9, -245.90144, 0.0000003269112, -0.001209596, -1186939.6, 10468.176, 0.0, 5.0166516, 4.9746737 
3.2608536e+1, 1.8278903e+2, -1141934.8, -1211289.8, -265.11295, 0.0000034172285, 0.0012488819, -1141933.8, 6733.691, 0.0, 5.0167055, 4.971625 
3.260889e+1, 1.8776073e+2, -1093277.1, -1163403.4, -267.61444, 0.0000019101333, -0.0013009917, -1093276.1, 6668.8027, 0.0, 5.016758, 4.9711857 
3.2609233e+1, 1.9273072e+2, -1048285.5, -1123362.6, -282.13812, 0.0000033002912, 0.0013070996, -1048284.44, 2954.4458, 0.0, 5.0168095, 4.9680686 
3.260957e+1, 1.9769886e+2, -999546.9, -1075339.5, -284.29324, 0.0000011825206, -0.0013110854, -999545.8, 3005.3142, 0.0, 5.0168595, 4.967663 
3.2609904e+1, 2.0266533e+2, -954557.6, -1035405.6, -293.7136, 0.0000045307943, 0.0013041183, -954556.56, -676.81494, 0.0, 5.016909, 4.964488 
3.261023e+1, 2.076299e+2, -905759.94, -987295.94, -295.6179, 0.000003340721, -0.0013489024, -905758.9, -531.82745, 0.0, 5.0169578, 4.964099 
3.2610556e+1, 2.125928e+2, -860763.25, -947454.8, -300.05975, 0.0000023643665, 0.0013692843, -860762.2, -4171.5, 0.0, 5.0170064, 4.9608636 
3.261088e+1, 2.1755372e+2, -811896.06, -899239.75, -301.32654, 0.0000010561241, -0.0014364909, -811895.06, -3921.51, 0.0, 5.0170546, 4.960497 
3.2611206e+1, 2.2251298e+2, -766997.94, -859732.4, -299.68207, 0.0000035505586, 0.0014212512, -766997.0, -7624.0815, 0.0, 5.0171027, 4.9571204 
3.2611534e+1, 2.2747019e+2, -718068.7, -811435.25, -301.03268, 0.0000017730141, -0.0014069523, -718067.7, -7275.44, 0.0, 5.017152, 4.9567666 
3.261187e+1, 2.3242569e+2, -673106.2, -771915.4, -294.7121, 0.0000003491767, 0.0014559947, -673105.3, -10877.076, 0.0, 5.0172014, 4.953368 
3.2612205e+1, 2.3737915e+2, -624094.44, -723494.5, -294.5508, -0.0000009665994, -0.001656607, -624093.56, -10409.167, 0.0, 5.0172515, 4.9530425 
3.261255e+1, 2.4233095e+2, -579092.8, -684022.56, -285.2954, -0.0000007843377, 0.0016988058, -579092.06, -13935.307, 0.0, 5.0173025, 4.949595 
3.26129e+1, 2.4728064e+2, -529975.75, -635428.2, -284.17856, 0.0000009451276, -0.0016959871, -529974.94, -13325.281, 0.0, 5.017355, 4.949314 
3.261326e+1, 2.5222865e+2, -485072.84, -596320.25, -270.80817, -0.0000050891877, 0.0016706105, -485072.2, -16912.934, 0.0, 5.0174084, 4.9457126 
3.261363e+1, 2.5717455e+2, -435681.53, -547174.25, -268.30765, -0.0000045544534, -0.0017301481, -435680.9, -15991.631, 0.0, 5.0174637, 4.945609 
3.2614005e+1, 2.6211876e+2, -390999.25, -508718.38, -251.25415, -0.0000043726886, 0.0016736774, -390998.72, -19762.389, 0.0, 5.0175204, 4.941747 
3.2614398e+1, 2.6706085e+2, -341250.94, -458828.3, -247.24931, -0.0000037543834, -0.0016342858, -341250.4, -18446.744, 0.0, 5.017579, 4.941891 
3.2614803e+1, 2.7200112e+2, -296834.16, -421144.9, -226.8714, -0.000007738472, 0.0017005034, -296833.72, -22444.783, 0.0, 5.0176396, 4.937718 
3.2615224e+1, 2.7693936e+2, -246729.55, -370503.75, -220.92114, -0.000010049135, -0.001936858, -246729.16, -20734.951, 0.0, 5.0177026, 4.938112 
3.2615653e+1, 2.8187582e+2, -202447.17, -333311.47, -197.49019, -0.0000076079123, 0.0021957445, -202446.88, -24829.832, 0.0, 5.017768, 4.93373 
3.261611e+1, 2.868102e+2, -152060.1, -282080.75, -190.34192, -0.0000065766544, -0.0025273757, -152059.81, -22799.484, 0.0, 5.017836, 4.934319 
3.2616577e+1, 2.917423e+2, -108977.16, -247878.86, -162.8094, -0.000009480572, 0.0017546496, -108976.96, -28051.69, 0.0, 5.017907, 4.9288387 
3.2617068e+1, 2.9667205e+2, -58485.63, -196481.73, -154.52536, -0.000016860316, -0.000516625, -58485.453, -25871.559, 0.0, 5.0179815, 4.9294705 
3.261758e+1, 3.0160862e+2, -17481.574, -133959.98, -120.33954, -0.000009528958, 0.0021516297, -17481.45, -17481.45, 0.0, 5.0180583, 4.9430504 
3.2618114e+1, 3.0655223e+2, -16191.018, -131348.92, -109.57875, -0.0000033175345, -0.0052418965, -16190.914, -16190.914, 0.0, 5.01814, 4.9439545 
3.261867e+1, 3.1151316e+2, 22098.123, -41817.64, -68.2745, -0.00001713767, 0.0041134143, 22098.197, 22098.197, 0.0, 5.0182233, 4.976704 
3.2619244e+1, 3.1649083e+2, 23959.64, -37894.66, -56.75133, -0.000008891581, -0.0010308184, 23959.691, 23959.691, 0.0, 5.018311, 4.978115 
3.7619105e+1, 1.2299335e+2, -1702314.0, -1737965.8, 4.988679, -0.0000043195328, 0.0009206508, -1702314.0, 32351.254, 0.0, 5.015902, 4.9926577 
3.761974e+1, 1.2798549e+2, -1654680.5, -1692055.6, -1.1727716, -0.0000090662015, -0.0031863165, -1654680.5, 31061.734, 0.0, 5.0159855, 4.991619 
3.762035e+1, 1.3297626e+2, -1609290.4, -1650711.9, -47.724712, -0.00000017029917, 0.0035840366, -1609290.4, 27542.395, 0.0, 5.0160656, 4.988988 
3.762093e+1, 1.3796496e+2, -1561128.4, -1603738.5, -53.432262, -0.0000016091755, -0.0013227072, -1561128.4, 26814.998, 0.0, 5.016142, 4.9882913 
3.7621486e+1, 1.4295204e+2, -1515973.8, -1562954.1, -94.52694, -0.0000071141853, 0.00024678046, -1515973.6, 23096.367, 0.0, 5.0162153, 4.985508 
3.762202e+1, 1.4793772e+2, -1467629.1, -1515623.4, -99.40979, -0.0000030101662, -0.0009303156, -1467629.0, 22581.445, 0.0, 5.016285, 4.9849267 
3.7622532e+1, 1.5292151e+2, -1422528.6, -1475025.5, -136.13928, 0.00000023063568, 0.0013192123, -1422528.3, 18840.941, 0.0, 5.016352, 4.982091 
3.7623024e+1, 1.5790363e+2, -1374132.5, -1427607.5, -140.38104, -0.0000013922514, -0.0013113194, -1374132.1, 18412.297, 0.0, 5.0164165, 4.98153 
3.76235e+1, 1.6288401e+2, -1329064.8, -1387149.0, -172.31944, -0.0000012473364, 0.0012560782, -1329064.1, 14672.426, 0.0, 5.0164785, 4.978626 
3.762396e+1, 1.678627e+2, -1280559.3, -1339525.4, -176.05109, -0.00000009099421, -0.0011795609, -1280558.8, 14386.86, 0.0, 5.016538, 4.9781213 
3.76244e+1, 1.7283964e+2, -1235535.5, -1299236.9, -202.91217, 0.0000013873738, 0.001145984, -1235534.9, 10636.555, 0.0, 5.016596, 4.9751353 
3.7624827e+1, 1.7781487e+2, -1186946.8, -1251464.8, -205.93254, 0.000001181816, -0.0012102635, -1186946.0, 10468.349, 0.0, 5.016651, 4.97467 
3.7625244e+1, 1.8278836e+2, -1141940.0, -1211299.5, -227.62271, 0.00000245591, 0.0012492628, -1141939.3, 6734.8706, 0.0, 5.0167055, 4.971622 
3.762565e+1, 1.8776004e+2, -1093282.6, -1163413.4, -230.08961, 0.0000008761705, -0.0013010589, -1093281.9, 6669.8525, 0.0, 5.016758, 4.9711823 
3.7626046e+1, 1.9273004e+2, -1048289.94, -1123370.6, -246.36122, 0.000004545943, 0.0013067786, -1048289.2, 2956.4763, 0.0, 5.016809, 4.9680657 
3.762643e+1, 1.9769816e+2, -999551.2, -1075347.0, -248.61374, 0.0000022778718, -0.0013114869, -999550.4, 3007.5557, 0.0, 5.016859, 4.9676604 
3.7626812e+1, 2.0266464e+2, -954561.06, -1035411.06, -259.00906, 0.000003635174, 0.0013044341, -954560.2, -673.69196, 0.0, 5.0169086, 4.9644866 
3.762719e+1, 2.0762919e+2, -905763.56, -987301.56, -260.88995, 0.0000020392488, -0.0013484022, -905762.75, -528.8454, 0.0, 5.0169573, 4.964097 
3.7627563e+1, 2.1259208e+2, -860765.8, -947458.1, -265.8156, 0.000003980461, 0.0013690304, -860765.0, -4167.4854, 0.0, 5.017006, 4.9608626 
3.7627932e+1, 2.1755302e+2, -811898.75, -899243.1, -267.1084, 0.0000020528942, -0.0014366576, -811897.94, -3917.547, 0.0, 5.017054, 4.960496 
3.762831e+1, 2.2251227e+2, -767000.94, -859736.3, -264.8832, 0.000002187022, 0.0014218201, -767000.2, -7620.422, 0.0, 5.0171022, 4.957119 
3.762869e+1, 2.2746949e+2, -718071.6, -811439.0, -266.29715, 0.0000014176741, -0.0014062863, -718070.9, -7271.7407, 0.0, 5.0171514, 4.9567657 
3.762907e+1, 2.3242499e+2, -673107.06, -771914.44, -258.81622, 0.00000090978995, 0.0014560438, -673106.4, -10871.253, 0.0, 5.0172005, 4.9533687 
3.7629455e+1, 2.3737845e+2, -624095.25, -723493.4, -258.66882, -0.000001008554, -0.00165685, -624094.56, -10403.319, 0.0, 5.017251, 4.953043 
3.7629852e+1, 2.4233025e+2, -579092.8, -684019.44, -247.90656, -0.0000014577109, 0.0016995764, -579092.2, -13928.612, 0.0, 5.017302, 4.9495964 
3.7630257e+1, 2.4727996e+2, -529975.6, -635424.9, -246.74998, 0.00000033374081, -0.0016953454, -529975.06, -13318.552, 0.0, 5.0173545, 4.9493155 
3.7630668e+1, 2.5222796e+2, -485071.94, -596314.94, -231.36086, -0.0000058026226, 0.0016705212, -485071.47, -16905.396, 0.0, 5.017408, 4.9457145 
3.763109e+1, 2.5717387e+2, -435680.75, -547169.0, -228.68962, -0.0000046415526, -0.0017300567, -435680.28, -15984.218, 0.0, 5.0174627, 4.9456115 
3.7631527e+1, 2.6211804e+2, -390997.7, -508711.13, -209.09956, -0.000005436663, 0.0016740122, -390997.3, -19754.21, 0.0, 5.0175195, 4.94175 
3.7631977e+1, 2.6706016e+2, -341249.44, -458821.03, -204.77727, -0.0000058178175, -0.0016338577, -341249.06, -18438.674, 0.0, 5.017578, 4.941894 
3.7632442e+1, 2.7200046e+2, -296832.03, -421135.94, -181.42241, -0.00000862142, 0.0017004906, -296831.75, -22436.1, 0.0, 5.0176387, 4.9377217 
3.7632924e+1, 2.7693868e+2, -246727.53, -370494.75, -175.03172, -0.000010793079, -0.0019368848, -246727.3, -20726.418, 0.0, 5.0177016, 4.9381156 
3.7633422e+1, 2.8187513e+2, -202444.47, -333300.53, -148.14085, -0.000009237614, 0.0021958263, -202444.3, -24820.625, 0.0, 5.017767, 4.9337344 
3.7633947e+1, 2.868095e+2, -152057.45, -282069.7, -140.41315, -0.000009056902, -0.002527426, -152057.31, -22790.389, 0.0, 5.017835, 4.934324 
3.7634483e+1, 2.9174164e+2, -108974.914, -247868.38, -108.93135, -0.000011634766, 0.0017545124, -108974.83, -28043.01, 0.0, 5.0179057, 4.928843 
3.7635052e+1, 2.966714e+2, -58483.617, -196471.48, -99.83602, -0.000018122993, -0.00051681476, -58483.543, -25863.139, 0.0, 5.0179806, 4.9294744 
3.763564e+1, 3.0160797e+2, -17478.605, -133947.19, -61.345333, -0.00001086923, 0.0021516199, -17478.572, -17478.572, 0.0, 5.0180573, 4.943055 
3.7636256e+1, 3.065516e+2, -16188.066, -131335.86, -49.595123, -0.000006384434, -0.0052419226, -16188.046, -16188.046, 0.0, 5.0181384, 4.9439597 
3.763689e+1, 3.115125e+2, 22102.508, -41800.867, -4.242, -0.000021235897, 0.0041126674, 22102.508, 22102.508, 0.0, 5.018222, 4.976711 
3.763756e+1, 3.1649017e+2, 23964.055, -37877.195, 8.28658, -0.000011081366, -0.00103094, 23964.055, 23964.055, 0.0, 5.0183096, 4.9781218 
4.2635018e+1, 1.22992635e+2, -1702255.5, -1737955.1, -63.19445, -0.000003896098, 0.00092049147, -1702255.4, 32416.787, 0.0, 5.015925, 4.9926496 
4.263574e+1, 1.2798478e+2, -1654625.0, -1692046.5, -71.191216, -0.000008464396, -0.0031862305, -1654624.9, 31124.322, 0.0, 5.016008, 4.9916115 
4.2636424e+1, 1.3297552e+2, -1609237.8, -1650702.9, -124.87769, -0.00000052297275, 0.003582558, -1609237.4, 27602.424, 0.0, 5.0160866, 4.9889803 
4.263708e+1, 1.3796423e+2, -1561079.1, -1603730.9, -132.16028, -0.0000011308367, -0.0013228494, -1561078.8, 26871.797, 0.0, 5.016162, 4.988284 
4.2637712e+1, 1.4295131e+2, -1515927.8, -1562947.1, -179.64685, -0.000007239009, 0.00024675098, -1515927.0, 23150.143, 0.0, 5.016234, 4.9855013 
4.2638314e+1, 1.4793697e+2, -1467586.8, -1515617.8, -185.93607, -0.0000028434856, -0.0009305839, -1467586.0, 22631.74, 0.0, 5.0163026, 4.98492 
4.2638892e+1, 1.5292077e+2, -1422489.4, -1475020.3, -228.3849, 0.0000003604831, 0.0013183893, -1422488.4, 18888.242, 0.0, 5.0163684, 4.9820848 
4.263945e+1, 1.5790288e+2, -1374097.1, -1427603.9, -233.87366, -0.0000012053258, -0.0013116383, -1374096.0, 18455.83, 0.0, 5.0164313, 4.981524 
4.263999e+1, 1.6288325e+2, -1329032.6, -1387145.6, -270.80383, -0.0000010533363, 0.0012557915, -1329031.4, 14712.718, 0.0, 5.016492, 4.9786205 
4.2640504e+1, 1.6786192e+2, -1280531.3, -1339523.8, -275.60913, -0.000000075652395, -0.0011797237, -1280530.0, 14423.137, 0.0, 5.01655, 4.978116 
4.2641002e+1, 1.7283888e+2, -1235510.8, -1299235.3, -306.78897, 0.000001802528, 0.0011455807, -1235509.4, 10669.698, 0.0, 5.0166063, 4.975131 
4.2641485e+1, 1.7781408e+2, -1186926.3, -1251465.0, -310.67264, 0.0000018647668, -0.0012104011, -1186924.8, 10497.293, 0.0, 5.01666, 4.974665 
4.2641953e+1, 1.8278757e+2, -1141922.9, -1211299.6, -335.91876, 0.0000026056678, 0.0012491842, -1141921.3, 6760.579, 0.0, 5.016713, 4.971618 
4.2642406e+1, 1.8775925e+2, -1093269.6, -1163415.4, -339.23026, 0.0000009861037, -0.0013009935, -1093268.0, 6691.3916, 0.0, 5.016764, 4.971179 
4.2642856e+1, 1.9272925e+2, -1048280.44, -1123372.4, -357.9758, 0.0000054485363, 0.0013067023, -1048278.75, 2974.6326, 0.0, 5.0168138, 4.9680634 
4.264329e+1, 1.9769737e+2, -999546.1, -1075350.8, -360.81067, 0.0000030631904, -0.0013112153, -999544.4, 3021.2905, 0.0, 5.0168624, 4.9676576 
4.2643723e+1, 2.0266385e+2, -954558.94, -1035414.4, -373.2056, 0.000004001898, 0.0013046388, -954557.2, -662.8888, 0.0, 5.0169106, 4.9644847 
4.2644146e+1, 2.076284e+2, -905766.0, -987307.0, -375.5456, 0.0000021385617, -0.0013483794, -905764.25, -522.57025, 0.0, 5.0169573, 4.964095 
4.264457e+1, 2.1259129e+2, -860771.56, -947463.1, -381.47708, 0.0000050974804, 0.0013695761, -860769.9, -4164.5684, 0.0, 5.0170045, 4.9608617 
4.264499e+1, 2.1755223e+2, -811908.75, -899250.06, -383.08017, 0.0000029598848, -0.0014362349, -811907.06, -3918.8887, 0.0, 5.0170507, 4.960495 
4.264541e+1, 2.2251147e+2, -767015.8, -859746.06, -380.79672, 0.0000022209308, 0.0014221262, -767014.25, -7626.6626, 0.0, 5.017098, 4.957118 
4.2645836e+1, 2.2746867e+2, -718090.8, -811450.6, -382.5722, 0.0000019976624, -0.0014058352, -718089.25, -7282.3086, 0.0, 5.017145, 4.9567647 
4.2646268e+1, 2.324242e+2, -673128.06, -771922.5, -374.3177, 0.0000013770845, 0.0014567745, -673126.6, -10883.66, 0.0, 5.017193, 4.953369 
4.2646706e+1, 2.3737764e+2, -624120.4, -723503.1, -374.0968, -0.00000055883163, -0.0016565772, -624118.94, -10419.889, 0.0, 5.0172415, 4.953044 
4.2647147e+1, 2.4232945e+2, -579121.44, -684028.94, -361.95114, -0.0000012064502, 0.0017004063, -579120.2, -13948.758, 0.0, 5.017291, 4.949598 
4.2647603e+1, 2.4727914e+2, -530008.4, -635436.0, -360.4735, 0.00000013209241, -0.00169476, -530007.1, -13342.826, 0.0, 5.017342, 4.9493175 
4.2648068e+1, 2.5222716e+2, -485107.88, -596325.6, -343.02646, -0.0000056311987, 0.0016710304, -485106.8, -16932.951, 0.0, 5.017394, 4.945717 
4.2648548e+1, 2.5717306e+2, -435720.63, -547181.44, -339.70926, -0.0000041100393, -0.0017292355, -435719.6, -16015.777, 0.0, 5.0174475, 4.945614 
4.2649037e+1, 2.6211724e+2, -391040.56, -508722.97, -317.36444, -0.000005884444, 0.0016744523, -391039.72, -19788.855, 0.0, 5.017503, 4.9417534 
4.2649546e+1, 2.670594e+2, -341296.3, -458834.53, -312.1164, -0.0000066486255, -0.0016332661, -341295.47, -18477.367, 0.0, 5.01756, 4.9418974 
4.265007e+1, 2.7199966e+2, -296881.8, -421149.03, -285.4344, -0.000008504161, 0.0017009899, -296881.16, -22477.822, 0.0, 5.017619, 4.9377255 
4.2650616e+1, 2.769379e+2, -246780.69, -370509.13, -277.77988, -0.000010868864, -0.0019362392, -246780.06, -20771.559, 0.0, 5.0176806, 4.93812 
4.265118e+1, 2.8187436e+2, -202500.25, -333314.16, -246.97285, -0.000009999139, 0.0021962042, -202499.78, -24868.52, 0.0, 5.0177445, 4.9337397 
4.2651767e+1, 2.8680873e+2, -152116.77, -282084.56, -237.67398, -0.000009793653, -0.002527296, -152116.33, -22841.861, 0.0, 5.0178113, 4.9343286 
4.2652377e+1, 2.9174086e+2, -109037.88, -247885.23, -201.69473, -0.000012149502, 0.0017547782, -109037.586, -28098.27, 0.0, 5.017881, 4.928848 
4.2653018e+1, 2.9667062e+2, -58549.344, -196489.56, -190.77377, -0.00001875857, -0.00051667244, -58549.082, -25921.227, 0.0, 5.0179543, 4.929479 
4.2653683e+1, 3.0160722e+2, -17545.72, -133963.28, -145.89783, -0.000011531506, 0.0021519165, -17545.537, -17545.537, 0.0, 5.0180297, 4.9430614 
4.265438e+1, 3.0655083e+2, -16258.641, -131353.1, -132.01607, -0.0000070971023, -0.0052415803, -16258.489, -16258.489, 0.0, 5.01811, 4.943966 
4.2655095e+1, 3.1151178e+2, 22031.39, -41814.383, -78.331894, -0.000022164353, 0.0041116234, 22031.488, 22031.488, 0.0, 5.0181923, 4.9767184 
4.265585e+1, 3.1648943e+2, 23891.424, -37890.758, -63.152626, -0.000011430629, -0.0010305044, 23891.488, 23891.488, 0.0, 5.018279, 4.97813 
4.7650945e+1, 1.22991845e+2, -1702269.3, -1737982.6, -3.0185556, -0.000004757855, 0.0009201705, -1702269.3, 32410.63, 0.0, 5.015925, 4.992641 
4.7651744e+1, 1.2798397e+2, -1654638.8, -1692073.9, -11.284454, -0.000008847559, -0.0031858962, -1654638.8, 31118.28, 0.0, 5.016008, 4.9916024 
4.7652513e+1, 1.3297471e+2, -1609250.6, -1650728.4, -70.45718, -0.0000017325112, 0.0035806487, -1609250.5, 27597.22, 0.0, 5.0160866, 4.988972 
4.7653243e+1, 1.3796341e+2, -1561091.8, -1603755.9, -77.87592, -0.0000016228357, -0.0013228969, -1561091.6, 26866.906, 0.0, 5.016162, 4.988276 
4.7653946e+1, 1.4295049e+2, -1515939.6, -1562970.5, -130.2196, -0.000007991501, 0.0002468167, -1515939.3, 23146.066, 0.0, 5.0162334, 4.9854937 
4.7654617e+1, 1.4793614e+2, -1467598.3, -1515640.6, -136.5703, -0.0000032986452, -0.0009310345, -1467597.9, 22627.982, 0.0, 5.016302, 4.984913 
4.765526e+1, 1.5291992e+2, -1422500.0, -1475041.3, -183.32378, -0.00000032122048, 0.0013176934, -1422499.4, 18885.406, 0.0, 5.016368, 4.982078 
4.765588e+1, 1.5790202e+2, -1374107.6, -1427624.4, -188.84839, -0.0000017907691, -0.0013118142, -1374106.9, 18453.287, 0.0, 5.0164313, 4.9815173 
4.765648e+1, 1.628824e+2, -1329042.1, -1387164.0, -229.48915, -0.0000013290074, 0.0012554812, -1329041.1, 14711.274, 0.0, 5.016492, 4.9786143 
4.7657052e+1, 1.6786107e+2, -1280540.5, -1339541.6, -234.30066, -0.00000017588098, -0.0011802447, -1280539.6, 14421.907, 0.0, 5.01655, 4.9781103 
4.765761e+1, 1.7283802e+2, -1235519.1, -1299251.0, -268.6298, 0.000001317409, 0.0011454774, -1235518.0, 10669.551, 0.0, 5.016606, 4.975126 
4.7658142e+1, 1.778132e+2, -1186934.4, -1251480.4, -272.42596, 0.0000013055705, -0.0012101026, -1186933.3, 10497.315, 0.0, 5.0166597, 4.9746604 
4.7658664e+1, 1.827867e+2, -1141930.0, -1211312.8, -300.14728, 0.0000027986086, 0.0012485012, -1141928.8, 6761.6724, 0.0, 5.0167127, 4.971614 
4.765917e+1, 1.8775836e+2, -1093276.5, -1163427.8, -303.46262, 0.000001205201, -0.0013009721, -1093275.3, 6692.7827, 0.0, 5.0167637, 4.971175 
4.7659668e+1, 1.9272837e+2, -1048286.2, -1123382.1, -323.9811, 0.0000049859636, 0.0013066542, -1048284.8, 2977.2122, 0.0, 5.0168133, 4.96806 
4.766015e+1, 1.9769649e+2, -999552.2, -1075361.0, -326.8096, 0.0000024528294, -0.0013104924, -999550.8, 3023.5881, 0.0, 5.016862, 4.9676547 
4.7660634e+1, 2.0266296e+2, -954563.75, -1035421.7, -340.279, 0.0000044876133, 0.0013045078, -954562.3, -659.2794, 0.0, 5.0169096, 4.9644823 
4.7661102e+1, 2.076275e+2, -905770.9, -987314.25, -342.63562, 0.0000024089659, -0.0013490154, -905769.44, -519.01135, 0.0, 5.016957, 4.964093 
4.7661576e+1, 2.1259041e+2, -860775.25, -947467.6, -348.9734, 0.000004441537, 0.0013707601, -860773.9, -4159.787, 0.0, 5.0170035, 4.9608607 
4.766204e+1, 2.1755134e+2, -811912.5, -899254.44, -350.63452, 0.0000025206996, -0.0014354035, -811911.1, -3914.1555, 0.0, 5.0170503, 4.9604936 
4.7662508e+1, 2.2251058e+2, -767020.06, -859751.4, -347.77274, 0.0000023645034, 0.0014219914, -767018.75, -7622.3906, 0.0, 5.017097, 4.9571166 
4.766298e+1, 2.2746778e+2, -718095.06, -811455.8, -349.5934, 0.0000022187598, -0.0014057942, -718093.8, -7278.032, 0.0, 5.017144, 4.9567633 
4.766346e+1, 2.3242329e+2, -673129.56, -771921.5, -340.1511, 0.00000047155143, 0.0014579513, -673128.4, -10876.644, 0.0, 5.017192, 4.95337 
4.7663945e+1, 2.3737675e+2, -624121.8, -723501.8, -339.9412, -0.0000008644883, -0.0016560791, -624120.7, -10412.817, 0.0, 5.0172405, 4.953045 
4.766444e+1, 2.4232855e+2, -579121.9, -684025.2, -326.37006, -0.0000012886632, 0.0017009679, -579120.8, -13940.633, 0.0, 5.01729, 4.9495997 
4.7664946e+1, 2.4727826e+2, -530008.8, -635432.0, -324.77106, -0.0000009774947, -0.0016945999, -530007.8, -13334.723, 0.0, 5.017341, 4.9493194 
4.7665462e+1, 2.5222626e+2, -485107.22, -596319.06, -305.278, -0.000005975653, 0.0016717217, -485106.38, -16923.797, 0.0, 5.017393, 4.9457197 
4.7665992e+1, 2.5717217e+2, -435720.1, -547174.8, -301.7511, -0.0000043925706, -0.0017281426, -435719.28, -16006.757, 0.0, 5.0174465, 4.9456167 
4.766654e+1, 2.6211637e+2, -391039.03, -508713.84, -276.8788, -0.000007236172, 0.0016745034, -391038.38, -19778.854, 0.0, 5.0175014, 4.9417567 
4.7667107e+1, 2.670585e+2, -341294.97, -458825.5, -271.31265, -0.000007890421, -0.0016330422, -341294.34, -18467.584, 0.0, 5.0175586, 4.941901 
4.766769e+1, 2.719988e+2, -296879.63, -421137.75, -241.51747, -0.000009165517, 0.0017014483, -296879.16, -22467.242, 0.0, 5.0176177, 4.9377303 
4.7668296e+1, 2.7693704e+2, -246778.64, -370497.72, -233.40903, -0.0000121651, -0.0019354606, -246778.2, -20761.148, 0.0, 5.017679, 4.938124 
4.7668922e+1, 2.818735e+2, -202497.34, -333300.34, -199.20447, -0.000011940882, 0.0021963434, -202497.05, -24857.28, 0.0, 5.017743, 4.933745 
4.7669584e+1, 2.8680786e+2, -152113.98, -282070.6, -189.30727, -0.000011028713, -0.0025274947, -152113.7, -22830.8, 0.0, 5.01781, 4.9343343 
4.7670257e+1, 2.9174003e+2, -109035.61, -247871.97, -149.21295, -0.00001343466, 0.0017549904, -109035.445, -28087.74, 0.0, 5.017879, 4.928853 
4.7670975e+1, 2.9666978e+2, -58547.414, -196476.61, -137.40714, -0.000021228354, -0.00051657524, -58547.277, -25911.086, 0.0, 5.0179524, 4.9294844 
4.767171e+1, 3.0160636e+2, -17542.652, -133947.2, -88.362366, -0.000014255634, 0.002152125, -17542.584, -17542.584, 0.0, 5.0180283, 4.9430676 
4.767249e+1, 3.0655003e+2, -16255.521, -131336.53, -73.56147, -0.000008650845, -0.005241036, -16255.475, -16255.475, 0.0, 5.018108, 4.9439726 
4.7673285e+1, 3.1151092e+2, 22036.445, -41792.94, -15.372967, -0.000023755038, 0.004110298, 22036.45, 22036.45, 0.0, 5.0181904, 4.9767275 
4.7674128e+1, 3.1648862e+2, 23896.527, -37868.684, 0.98797894, -0.000015073696, -0.0010302328, 23896.527, 23896.527, 0.0, 5.018277, 4.978139 
5.2666885e+1, 1.22990966e+2, -1702195.6, -1737969.1, -69.77412, -0.000004017481, 0.0009201531, -1702195.5, 32493.08, 0.0, 5.0159545, 4.992631 
5.2667767e+1, 1.2798308e+2, -1654569.0, -1692062.1, -80.05188, -0.00000794209, -0.0031849884, -1654568.9, 31196.926, 0.0, 5.016036, 4.9915924 
5.266861e+1, 1.3297382e+2, -1609184.5, -1650717.0, -146.28214, -0.0000018146451, 0.0035786713, -1609184.0, 27672.604, 0.0, 5.0161133, 4.9889627 
5.266942e+1, 1.379625e+2, -1561029.8, -1603746.3, -155.33913, -0.000001059496, -0.0013228103, -1561029.3, 26938.223, 0.0, 5.016187, 4.988267 
5.2670187e+1, 1.4294957e+2, -1515881.5, -1562961.4, -214.1071, -0.000007773808, 0.00024735526, -1515880.5, 23213.764, 0.0, 5.0162573, 4.985485 
5.267093e+1, 1.4793521e+2, -1467544.8, -1515633.5, -221.88007, -0.0000029025596, -0.0009312837, -1467543.8, 22691.238, 0.0, 5.0163245, 4.9849043 
5.267164e+1, 1.5291898e+2, -1422450.5, -1475034.5, -274.4337, -0.00000028575292, 0.0013170268, -1422449.1, 18944.904, 0.0, 5.0163884, 4.9820704 
5.267232e+1, 1.5790108e+2, -1374062.9, -1427619.6, -281.22156, -0.0000013771577, -0.001311842, -1374061.5, 18508.004, 0.0, 5.01645, 4.98151 
5.2672976e+1, 1.6288145e+2, -1329001.6, -1387159.5, -326.93683, -0.0000011914642, 0.001255404, -1328999.8, 14762.039, 0.0, 5.0165086, 4.9786077 
5.267361e+1, 1.678601e+2, -1280505.3, -1339539.5, -332.8204, 0.00000003768678, -0.0011804913, -1280503.4, 14467.558, 0.0, 5.016565, 4.9781036 
5.267422e+1, 1.7283705e+2, -1235487.8, -1299248.8, -371.48297, 0.0000019095335, 0.0011455284, -1235485.5, 10711.401, 0.0, 5.016619, 4.97512 
5.2674806e+1, 1.7781223e+2, -1186908.0, -1251480.3, -376.19797, 0.0000013095517, -0.0012097303, -1186905.9, 10534.199, 0.0, 5.0166717, 4.9746547 
5.2675384e+1, 1.8278572e+2, -1141908.4, -1211312.9, -407.42975, 0.0000034604257, 0.0012480748, -1141906.0, 6793.993, 0.0, 5.016722, 4.9716096 
5.267594e+1, 1.8775739e+2, -1093260.3, -1163430.1, -411.40796, 0.0000020917996, -0.001300291, -1093257.9, 6719.7603, 0.0, 5.0167713, 4.9711704 
5.2676487e+1, 1.9272739e+2, -1048273.6, -1123384.0, -434.78317, 0.0000051994, 0.0013067487, -1048271.1, 3000.5322, 0.0, 5.016819, 4.9680567 
5.267702e+1, 1.9769551e+2, -999545.4, -1075365.8, -438.20276, 0.0000029843416, -0.0013104808, -999542.8, 3041.198, 0.0, 5.0168657, 4.967651 
5.267754e+1, 2.0266198e+2, -954560.7, -1035425.7, -453.4543, 0.0000054420575, 0.001305274, -954558.1, -645.4168, 0.0, 5.016912, 4.96448 
5.267806e+1, 2.0762652e+2, -905773.25, -987320.7, -456.3678, 0.0000033795925, -0.0013483177, -905770.7, -510.55322, 0.0, 5.016957, 4.964091 
5.267858e+1, 2.125894e+2, -860782.1, -947473.7, -463.6568, 0.0000049997393, 0.0013710266, -860779.6, -4155.847, 0.0, 5.0170016, 4.9608593 
5.2679086e+1, 2.1755034e+2, -811924.75, -899263.0, -465.63422, 0.000003191174, -0.0014348004, -811922.3, -3915.5957, 0.0, 5.0170465, 4.9604926 
5.2679604e+1, 2.2250958e+2, -767038.06, -859763.25, -462.83197, 0.0000033721867, 0.0014229572, -767035.75, -7629.648, 0.0, 5.0170913, 4.9571147 
5.268012e+1, 2.2746678e+2, -718118.5, -811470.06, -464.98544, 0.0000028728173, -0.0014053934, -718116.2, -7290.636, 0.0, 5.0171366, 4.956762 
5.268065e+1, 2.3242229e+2, -673155.4, -771931.4, -454.71072, 0.0000009823154, 0.0014589458, -673153.3, -10891.775, 0.0, 5.0171824, 4.953371 
5.268118e+1, 2.3737575e+2, -624153.06, -723513.94, -454.44498, 0.00000023675994, -0.0016548462, -624151.0, -10433.346, 0.0, 5.017229, 4.953046 
5.2681726e+1, 2.4232756e+2, -579156.94, -684036.6, -439.4869, -0.0000010735034, 0.0017016147, -579155.1, -13965.145, 0.0, 5.017277, 4.9496017 
5.268228e+1, 2.4727727e+2, -530049.06, -635445.7, -437.5558, -0.0000010093845, -0.0016942489, -530047.25, -13364.434, 0.0, 5.017326, 4.9493213 
5.2682847e+1, 2.5222528e+2, -485151.66, -596332.25, -416.06244, -0.000005158637, 0.0016731386, -485150.1, -16957.803, 0.0, 5.0173755, 4.945723 
5.268343e+1, 2.571712e+2, -435769.56, -547190.06, -411.84262, -0.0000040608115, -0.0017268404, -435768.03, -16045.82, 0.0, 5.0174274, 4.94562 
5.268403e+1, 2.621154e+2, -391092.28, -508728.4, -384.22568, -0.0000072472217, 0.0016749577, -391091.03, -19821.865, 0.0, 5.0174804, 4.941761 
5.268465e+1, 2.6705754e+2, -341352.97, -458842.13, -377.7195, -0.00000790801, -0.0016322813, -341351.75, -18515.4, 0.0, 5.0175357, 4.941905 
5.2685297e+1, 2.719978e+2, -296941.13, -421153.72, -344.505, -0.000008968509, 0.0017023113, -296940.16, -22518.67, 0.0, 5.0175934, 4.9377356 
5.2685964e+1, 2.7693605e+2, -246844.78, -370515.5, -335.17972, -0.000012066985, -0.0019340663, -246843.88, -20817.309, 0.0, 5.017653, 4.9381294 
5.2686656e+1, 2.8187254e+2, -202566.84, -333317.22, -297.0027, -0.000012238178, 0.0021967757, -202566.17, -24916.953, 0.0, 5.017715, 4.933751 
5.2687377e+1, 2.868069e+2, -152187.31, -282088.8, -285.50494, -0.000011089003, -0.0025273704, -152186.69, -22894.383, 0.0, 5.0177803, 4.9343405 
5.268812e+1, 2.9173908e+2, -109113.414, -247892.58, -240.89662, -0.000013425122, 0.0017557595, -109113.0, -28155.959, 0.0, 5.017848, 4.928859 
5.268891e+1, 2.9666883e+2, -58629.516, -196499.13, -227.2288, -0.00002152832, -0.0005158359, -58629.14, -25983.674, 0.0, 5.0179195, 4.9294906 
5.268972e+1, 3.016054e+2, -17626.814, -133967.45, -171.70023, -0.000014559456, 0.0021526322, -17626.56, -17626.56, 0.0, 5.017994, 4.943075 
5.269058e+1, 3.0654907e+2, -16342.691, -131357.53, -154.75864, -0.000008991032, -0.0052402983, -16342.482, -16342.482, 0.0, 5.0180726, 4.94398 
5.269146e+1, 3.1151e+2, 21948.826, -41809.188, -88.279884, -0.00002368892, 0.0041092644, 21948.947, 21948.947, 0.0, 5.018153, 4.976737 
5.269239e+1, 3.164877e+2, 23805.348, -37885.703, -69.199554, -0.000015924705, -0.0010296339, 23805.426, 23805.426, 0.0, 5.0182385, 4.978149 
5.7682836e+1, 1.2299e+2, -1702212.6, -1738003.1, -11.11722, -0.0000046410105, 0.0009198246, -1702212.6, 32485.37, 0.0, 5.015954, 4.9926195 
5.76838e+1, 1.2798211e+2, -1654585.8, -1692095.5, -21.772993, -0.00000823071, -0.0031839411, -1654585.8, 31189.586, 0.0, 5.0160356, 4.9915814 
5.7684726e+1, 1.3297284e+2, -1609200.3, -1650748.1, -93.49228, -0.000003025632, 0.0035762573, -1609200.0, 27666.225, 0.0, 5.016113, 4.9889526 
5.76856e+1, 1.3796152e+2, -1561045.4, -1603777.0, -102.756996, -0.0000015954911, -0.001322873, -1561045.1, 26932.107, 0.0, 5.0161867, 4.988257 
5.768645e+1, 1.4294857e+2, -1515896.0, -1562990.0, -166.3959, -0.000008559944, 0.00024815206, -1515895.5, 23208.697, 0.0, 5.016257, 4.9854755 
5.768726e+1, 1.4793418e+2, -1467559.1, -1515661.5, -174.26375, -0.0000034608495, -0.0009315207, -1467558.5, 22686.453, 0.0, 5.016324, 4.984895 
5.768803e+1, 1.5291795e+2, -1422463.8, -1475060.1, -231.20993, -0.0000011887646, 0.0013162133, -1422462.8, 18941.326, 0.0, 5.016388, 4.9820623 
5.768877e+1, 1.5790005e+2, -1374075.9, -1427644.8, -238.05992, -0.0000014771732, -0.0013119023, -1374074.8, 18504.746, 0.0, 5.0164495, 4.9815016 
5.768949e+1, 1.6288042e+2, -1329013.4, -1387182.0, -287.5765, -0.0000020573677, 0.0012553695, -1329011.9, 14760.07, 0.0, 5.016508, 4.9786005 
5.7690173e+1, 1.6785906e+2, -1280516.9, -1339561.5, -293.41888, -0.000000832809, -0.0011806733, -1280515.4, 14465.815, 0.0, 5.0165644, 4.9780965 
5.769084e+1, 1.72836e+2, -1235498.0, -1299268.1, -335.20642, 0.0000021821784, 0.0011455051, -1235496.3, 10711.003, 0.0, 5.0166187, 4.975114 
5.7691485e+1, 1.7781119e+2, -1186918.3, -1251499.1, -339.9847, 0.0000004988865, -0.0012095197, -1186916.5, 10533.991, 0.0, 5.016671, 4.974649 
5.7692105e+1, 1.8278465e+2, -1141917.3, -1211328.8, -373.72256, 0.0000031637842, 0.0012476684, -1141915.3, 6795.1846, 0.0, 5.0167217, 4.9716043 
5.769271e+1, 1.8775631e+2, -1093269.1, -1163445.8, -377.55185, 0.0000020874033, -0.00129925, -1093267.1, 6720.998, 0.0, 5.0167704, 4.9711657 
5.769331e+1, 1.927263e+2, -1048281.1, -1123396.4, -402.85703, 0.0000044498843, 0.00130665, -1048278.94, 3003.2214, 0.0, 5.0168185, 4.968053 
5.769388e+1, 1.9769442e+2, -999553.0, -1075378.3, -406.18738, 0.0000029153157, -0.0013114604, -999550.9, 3043.7654, 0.0, 5.016865, 4.967647 
5.7694453e+1, 2.0266089e+2, -954566.9, -1035434.75, -422.54636, 0.000004956646, 0.0013067079, -954564.7, -641.35754, 0.0, 5.016911, 4.9644775 
5.769502e+1, 2.0762543e+2, -905779.56, -987329.7, -425.63043, 0.0000030246636, -0.0013465529, -905777.3, -506.5586, 0.0, 5.016956, 4.964088 
5.769558e+1, 2.1258833e+2, -860787.06, -947479.3, -433.17856, 0.0000046924642, 0.0013701095, -860784.9, -4150.4116, 0.0, 5.0170007, 4.960858 
5.7696134e+1, 2.1754925e+2, -811929.8, -899268.6, -435.17572, 0.0000028337977, -0.0014346822, -811927.6, -3910.2722, 0.0, 5.0170455, 4.960491 
5.7696694e+1, 2.2250849e+2, -767043.7, -859769.9, -431.89554, 0.0000030694905, 0.0014247766, -767041.7, -7624.858, 0.0, 5.0170903, 4.9571133 
5.769726e+1, 2.274657e+2, -718124.1, -811476.56, -434.07642, 0.0000018086881, -0.0014048866, -718122.1, -7285.882, 0.0, 5.0171356, 4.95676 
5.769783e+1, 2.324212e+2, -673157.7, -771930.2, -422.62802, 0.00000081857365, 0.0014594969, -673155.9, -10883.621, 0.0, 5.0171814, 4.953372 
5.769841e+1, 2.3737466e+2, -624155.4, -723512.6, -422.3283, 0.0000007292715, -0.0016531546, -624153.56, -10425.262, 0.0, 5.017228, 4.953047 
5.7699e+1, 2.4232647e+2, -579157.9, -684032.06, -405.8514, -0.0000025133531, 0.0017020537, -579156.3, -13955.693, 0.0, 5.017276, 4.9496036 
5.76996e+1, 2.4727619e+2, -530050.1, -635441.2, -403.81836, -0.000001870797, -0.0016940469, -530048.6, -13355.137, 0.0, 5.0173244, 4.9493237 
5.770022e+1, 2.522242e+2, -485151.53, -596324.6, -380.34262, -0.000005119671, 0.0016749054, -485150.22, -16947.293, 0.0, 5.017374, 4.9457264 
5.770086e+1, 2.5717014e+2, -435769.47, -547182.2, -375.82352, -0.0000051169714, -0.001725718, -435768.2, -16035.388, 0.0, 5.0174255, 4.9456234 
5.770151e+1, 2.6211432e+2, -391091.06, -508717.5, -345.62543, -0.0000080110985, 0.0016754038, -391090.03, -19810.31, 0.0, 5.017479, 4.941766 
5.770219e+1, 2.6705644e+2, -341352.0, -458831.38, -338.76166, -0.000008888646, -0.0016314465, -341351.03, -18504.164, 0.0, 5.0175343, 4.94191 
5.770289e+1, 2.7199674e+2, -296939.13, -421140.16, -302.43628, -0.0000102590475, 0.0017030804, -296938.4, -22506.453, 0.0, 5.0175915, 4.937741 
5.7703614e+1, 2.76935e+2, -246843.02, -370501.88, -292.71075, -0.000013130769, -0.0019325777, -246842.33, -20805.35, 0.0, 5.017651, 4.938135 
5.770437e+1, 2.8187147e+2, -202564.05, -333300.63, -250.9289, -0.000013676024, 0.0021969995, -202563.56, -24903.99, 0.0, 5.017713, 4.9337583 
5.770515e+1, 2.8680584e+2, -152184.7, -282072.1, -238.76854, -0.0000129401915, -0.0025274288, -152184.27, -22881.684, 0.0, 5.0177784, 4.9343476 
5.770597e+1, 2.9173803e+2, -109111.4, -247876.61, -190.17627, -0.000015335421, 0.0017565896, -109111.14, -28143.885, 0.0, 5.017846, 4.928866 
5.7706827e+1, 2.9666778e+2, -58627.887, -196483.53, -175.60197, -0.000023179056, -0.00051499536, -58627.664, -25972.049, 0.0, 5.0179176, 4.9294972 
5.7707715e+1, 3.016044e+2, -17623.826, -133948.11, -115.59069, -0.000016268996, 0.002153002, -17623.71, -17623.71, 0.0, 5.0179915, 4.9430833 
5.770865e+1, 3.0654806e+2, -16339.725, -131337.6, -97.65566, -0.000012005703, -0.0052397875, -16339.642, -16339.642, 0.0, 5.01807, 4.943989 
5.7709616e+1, 3.11509e+2, 21954.02, -41783.45, -26.932293, -0.000026144502, 0.004108165, 21954.031, 21954.031, 0.0, 5.018151, 4.9767475 
5.7710624e+1, 3.1648672e+2, 23810.568, -37859.043, -6.6226907, -0.00001913705, -0.0010280543, 23810.57, 23810.57, 0.0, 5.0182357, 4.97816 
6.269881e+1, 1.2298895e+2, -1702123.5, -1737986.6, -76.31867, -0.000003450983, 0.0009204876, -1702123.3, 32585.053, 0.0, 5.01599, 4.9926076 
6.2699854e+1, 1.2798104e+2, -1654501.6, -1692081.4, -88.97228, -0.0000069902007, -0.0031834913, -1654501.4, 31284.451, 0.0, 5.0160694, 4.9915695 
6.2700856e+1, 1.3297175e+2, -1609120.3, -1650734.3, -167.91829, -0.000002974696, 0.003575389, -1609119.5, 27757.291, 0.0, 5.016145, 4.9889417 
6.270181e+1, 1.3796042e+2, -1560970.6, -1603765.5, -178.85619, -0.00000071564676, -0.0013224694, -1560969.9, 27018.063, 0.0, 5.016217, 4.988246 
6.2702715e+1, 1.4294747e+2, -1515825.6, -1562978.8, -248.9672, -0.000008177088, 0.00024881333, -1515824.4, 23290.566, 0.0, 5.0162854, 4.9854655 
6.270359e+1, 1.479331e+2, -1467494.3, -1515652.9, -258.31183, -0.0000028851948, -0.0009312393, -1467492.9, 22762.887, 0.0, 5.0163507, 4.984885 
6.270443e+1, 1.5291683e+2, -1422403.8, -1475051.9, -321.0686, -0.0000009670943, 0.0013158035, -1422401.8, 19013.201, 0.0, 5.0164127, 4.9820533 
6.2705237e+1, 1.5789893e+2, -1374021.8, -1427639.0, -329.19965, -0.0000007829092, -0.0013116874, -1374019.8, 18570.889, 0.0, 5.0164723, 4.981493 
6.2706006e+1, 1.6287927e+2, -1328964.1, -1387176.5, -383.8784, -0.0000018379935, 0.0012556462, -1328961.5, 14821.555, 0.0, 5.0165286, 4.9785924 
6.270675e+1, 1.6785793e+2, -1280473.6, -1339558.6, -390.8288, -0.0000009431694, -0.0011803635, -1280471.0, 14521.369, 0.0, 5.016583, 4.978089 
6.2707466e+1, 1.7283484e+2, -1235460.0, -1299265.3, -436.94513, 0.0000030668016, 0.0011455301, -1235457.0, 10761.494, 0.0, 5.016635, 4.975107 
6.2708163e+1, 1.7781003e+2, -1186886.8, -1251499.3, -442.6172, 0.000001043701, -0.0012086058, -1186883.8, 10578.057, 0.0, 5.016685, 4.9746423 
6.270883e+1, 1.827835e+2, -1141890.1, -1211328.3, -479.97607, 0.0000032855316, 0.0012477972, -1141886.9, 6834.9185, 0.0, 5.0167336, 4.971599 
6.2709486e+1, 1.8775515e+2, -1093248.6, -1163448.4, -484.4469, 0.0000026550542, -0.0012993847, -1093245.4, 6754.2295, 0.0, 5.0167804, 4.97116 
6.2710124e+1, 1.9272512e+2, -1048265.75, -1123398.6, -512.6433, 0.000005032174, 0.0013078279, -1048262.25, 3031.4578, 0.0, 5.0168257, 4.9680486 
6.271075e+1, 1.9769326e+2, -999544.0, -1075383.4, -516.63934, 0.0000037321768, -0.0013103106, -999540.44, 3065.6973, 0.0, 5.01687, 4.9676433 
6.271137e+1, 2.026597e+2, -954563.06, -1035439.4, -534.72266, 0.0000054923994, 0.0013066902, -954559.56, -624.6535, 0.0, 5.016914, 4.9644747 
6.271198e+1, 2.0762426e+2, -905782.4, -987337.4, -538.3094, 0.0000037145219, -0.0013455265, -905778.8, -496.4346, 0.0, 5.0169563, 4.9640856 
6.271258e+1, 2.1258713e+2, -860794.4, -947486.25, -546.8656, 0.0000055512464, 0.0013711108, -860790.94, -4144.8193, 0.0, 5.016999, 4.9608564 
6.2713176e+1, 2.1754807e+2, -811943.8, -899278.5, -549.2196, 0.0000037023776, -0.0014339612, -811940.3, -3911.3228, 0.0, 5.017041, 4.9604897 
6.271378e+1, 2.225073e+2, -767064.9, -859783.9, -545.9761, 0.0000038082499, 0.0014258628, -767061.6, -7633.1704, 0.0, 5.0170836, 4.9571114 
6.271439e+1, 2.274645e+2, -718151.8, -811493.4, -548.46735, 0.0000022782456, -0.0014036063, -718148.56, -7300.651, 0.0, 5.0171266, 4.956758 
6.2715006e+1, 2.3242001e+2, -673188.1, -771941.6, -536.2656, 0.0000015985328, 0.0014604579, -673185.2, -10901.278, 0.0, 5.01717, 4.953373 
6.271563e+1, 2.3737347e+2, -624192.1, -723526.8, -535.86414, 0.0000018152921, -0.0016522123, -624189.25, -10449.223, 0.0, 5.0172143, 4.953048 
6.271627e+1, 2.4232528e+2, -579199.56, -684045.5, -518.0136, -0.000002328138, 0.0017033855, -579197.0, -13984.719, 0.0, 5.0172596, 4.9496064 
6.271692e+1, 2.47275e+2, -530098.2, -635457.4, -515.62683, -0.0000016138979, -0.0016925614, -530095.7, -13390.566, 0.0, 5.017306, 4.949326 
6.2717587e+1, 2.52223e+2, -485204.06, -596340.0, -490.00732, -0.000004316123, 0.0016758698, -485201.9, -16987.365, 0.0, 5.0173535, 4.9457297 
6.271827e+1, 2.5716895e+2, -435828.06, -547200.1, -484.87088, -0.0000045832803, -0.0017244143, -435825.97, -16081.594, 0.0, 5.017403, 4.945627 
6.271898e+1, 2.6211312e+2, -391154.38, -508734.75, -452.02234, -0.000007535705, 0.0016767931, -391152.63, -19861.377, 0.0, 5.0174537, 4.9417706 
6.271971e+1, 2.6705527e+2, -341421.1, -458850.94, -444.13187, -0.000008844328, -0.0016303661, -341419.44, -18561.092, 0.0, 5.017507, 4.941915 
6.2720466e+1, 2.7199557e+2, -297012.63, -421159.13, -404.33356, -0.000009562849, 0.0017042642, -297011.3, -22567.932, 0.0, 5.017562, 4.937747 
6.272125e+1, 2.7693385e+2, -246921.67, -370522.8, -393.43732, -0.000012230361, -0.0019307547, -246920.42, -20872.084, 0.0, 5.01762, 4.9381413 
6.2722063e+1, 2.8187034e+2, -202646.61, -333320.4, -347.5834, -0.000013324656, 0.0021977678, -202645.69, -24974.82, 0.0, 5.0176797, 4.9337654 
6.2722915e+1, 2.868047e+2, -152272.45, -282093.78, -333.76138, -0.000012743831, -0.0025267845, -152271.6, -22957.791, 0.0, 5.017743, 4.9343553 
6.27238e+1, 2.917369e+2, -109204.64, -247901.2, -280.5959, -0.000014860491, 0.001757767, -109204.07, -28225.672, 0.0, 5.0178084, 4.928873 
6.272472e+1, 2.9666665e+2, -58725.605, -196510.14, -264.15958, -0.00002229181, -0.00051398604, -58725.1, -26058.41, 0.0, 5.0178785, 4.9295044 
6.272569e+1, 3.0160326e+2, -17723.902, -133971.89, -197.61536, -0.000015871297, 0.0021539242, -17723.566, -17723.566, 0.0, 5.0179505, 4.943092 
6.27267e+1, 3.0654693e+2, -16444.531, -131362.75, -177.48616, -0.000012543764, -0.005238243, -16444.258, -16444.258, 0.0, 5.0180273, 4.943998 
6.2727743e+1, 3.115079e+2, 21848.459, -41803.074, -98.44686, -0.000025145466, 0.004107448, 21848.611, 21848.611, 0.0, 5.0181065, 4.9767594 
6.2728834e+1, 3.164856e+2, 23702.566, -37878.676, -75.31157, -0.000018352996, -0.0010273345, 23702.658, 23702.658, 0.0, 5.0181904, 4.9781723 
6.77148e+1, 1.22987814e+2, -1702143.5, -1738026.6, -19.362953, -0.0000041069457, 0.0009210672, -1702143.5, 32575.996, 0.0, 5.01599, 4.9925947 
6.7715925e+1, 1.2797989e+2, -1654521.5, -1692121.1, -32.45666, -0.0000070797914, -0.0031843646, -1654521.5, 31275.578, 0.0, 5.0160694, 4.9915566 
6.7717e+1, 1.329706e+2, -1609138.8, -1650771.1, -116.939865, -0.000004335093, 0.0035753748, -1609138.4, 27749.744, 0.0, 5.0161448, 4.9889293 
6.7718023e+1, 1.3795926e+2, -1560989.0, -1603802.0, -128.10735, -0.0000010450858, -0.0013221735, -1560988.6, 27010.715, 0.0, 5.0162168, 4.988234 
6.7719e+1, 1.4294627e+2, -1515842.9, -1563012.6, -203.21144, -0.000009094346, 0.0002488501, -1515842.0, 23284.5, 0.0, 5.016285, 4.9854546 
6.771994e+1, 1.4793189e+2, -1467511.3, -1515686.1, -212.7309, -0.0000035207067, -0.00093093904, -1467510.4, 22757.139, 0.0, 5.0163503, 4.9848742 
6.772084e+1, 1.5291563e+2, -1422419.4, -1475082.1, -279.90274, -0.0000018695688, 0.0013153565, -1422417.9, 19008.871, 0.0, 5.0164123, 4.9820433 
6.77217e+1, 1.5789771e+2, -1374037.3, -1427668.9, -288.11096, -0.0000013828388, -0.0013115507, -1374035.6, 18566.828, 0.0, 5.0164714, 4.981483 
6.7722535e+1, 1.6287805e+2, -1328978.1, -1387203.3, -346.61823, -0.0000024355884, 0.0012558863, -1328976.1, 14818.969, 0.0, 5.016528, 4.978584 
6.7723334e+1, 1.678567e+2, -1280487.5, -1339584.8, -353.60757, -0.0000020775853, -0.0011799748, -1280485.4, 14519.091, 0.0, 5.0165825, 4.9780803 
6.772411e+1, 1.728336e+2, -1235472.4, -1299288.1, -402.95435, 0.0000028328927, 0.0011452031, -1235469.9, 10760.833, 0.0, 5.0166345, 4.9751 
6.772485e+1, 1.7780878e+2, -1186899.1, -1251521.6, -408.5282, 0.0000012009382, -0.001207393, -1186896.5, 10577.506, 0.0, 5.016684, 4.974635 
6.7725563e+1, 1.8278225e+2, -1141900.9, -1211347.0, -448.51822, 0.0000020647233, 0.0012480188, -1141898.0, 6836.097, 0.0, 5.0167327, 4.971593 
6.7726266e+1, 1.8775389e+2, -1093259.6, -1163467.4, -452.91534, 0.0000019839001, -0.0013011397, -1093256.6, 6755.2075, 0.0, 5.0167794, 4.971154 
6.772695e+1, 1.9272387e+2, -1048275.0, -1123413.8, -482.94833, 0.0000050458016, 0.0013099147, -1048271.9, 3034.1719, 0.0, 5.0168247, 4.968044 
6.7727625e+1, 1.9769199e+2, -999553.2, -1075397.9, -487.003, 0.0000034162194, -0.0013075013, -999550.06, 3068.518, 0.0, 5.016869, 4.9676385 
6.772828e+1, 2.0265843e+2, -954570.7, -1035450.06, -506.14502, 0.000004880798, 0.0013047555, -954567.5, -620.13995, 0.0, 5.0169125, 4.9644713 
6.7728925e+1, 2.0762298e+2, -905790.2, -987348.25, -509.77942, 0.0000031690618, -0.0013455966, -905787.0, -492.15305, 0.0, 5.0169554, 4.9640822 
6.7729574e+1, 2.1258587e+2, -860800.56, -947493.1, -518.7574, 0.000005239799, 0.0013737569, -860797.5, -4138.8604, 0.0, 5.016998, 4.9608545 
6.773022e+1, 2.1754679e+2, -811950.1, -899285.3, -521.1433, 0.0000034219584, -0.0014328904, -811947.0, -3905.4722, 0.0, 5.01704, 4.960488 
6.773087e+1, 2.2250602e+2, -767071.9, -859791.9, -517.35974, 0.000003203219, 0.0014260117, -767069.0, -7627.971, 0.0, 5.017082, 4.9571095 
6.773151e+1, 2.2746322e+2, -718158.9, -811501.25, -519.8583, 0.0000019769295, -0.0014017068, -718156.0, -7295.522, 0.0, 5.017125, 4.956756 
6.773218e+1, 2.3241873e+2, -673191.4, -771940.56, -506.52548, 0.00000110901, 0.0014617046, -673188.75, -10892.246, 0.0, 5.0171685, 4.9533744 
6.7732847e+1, 2.3737219e+2, -624195.44, -723525.7, -506.0474, 0.000001359584, -0.0016521532, -624192.9, -10440.305, 0.0, 5.017213, 4.953049 
6.7733526e+1, 2.42324e+2, -579201.25, -684040.3, -486.70856, -0.000002613326, 0.0017054633, -579199.0, -13974.162, 0.0, 5.0172577, 4.949609 
6.7734224e+1, 2.4727371e+2, -530100.06, -635452.25, -484.16327, -0.000002331864, -0.0016899587, -530097.9, -13380.232, 0.0, 5.0173044, 4.949329 
6.773494e+1, 2.5222173e+2, -485204.4, -596330.94, -456.45203, -0.0000049269133, 0.0016758424, -485202.53, -16975.512, 0.0, 5.0173516, 4.945734 
6.773567e+1, 2.5716767e+2, -435828.75, -547191.3, -451.06638, -0.0000048004877, -0.0017232025, -435826.94, -16070.107, 0.0, 5.017401, 4.945631 
6.7736435e+1, 2.6211187e+2, -391153.7, -508722.34, -415.62256, -0.000008393535, 0.0016787729, -391152.22, -19848.563, 0.0, 5.017452, 4.941776 
6.7737216e+1, 2.6705402e+2, -341420.6, -458838.3, -407.31262, -0.000010638989, -0.0016294236, -341419.2, -18548.494, 0.0, 5.0175047, 4.9419203 
6.773803e+1, 2.7199432e+2, -297011.1, -421143.5, -364.32278, -0.000010111518, 0.0017054587, -297010.0, -22554.34, 0.0, 5.0175595, 4.9377537 
6.7738867e+1, 2.769326e+2, -246920.39, -370507.03, -353.0074, -0.000013000471, -0.0019290211, -246919.39, -20858.818, 0.0, 5.017617, 4.938148 
6.773975e+1, 2.8186908e+2, -202644.08, -333301.03, -303.54935, -0.000015202085, 0.0021986545, -202643.38, -24960.342, 0.0, 5.0176773, 4.9337735 
6.774066e+1, 2.8680345e+2, -152270.17, -282074.28, -289.0408, -0.00001475262, -0.0025259003, -152269.52, -22943.63, 0.0, 5.0177402, 4.9343634 
6.774161e+1, 2.9173568e+2, -109203.05, -247882.64, -231.69772, -0.000016461658, 0.0017588087, -109202.664, -28212.258, 0.0, 5.0178056, 4.928881 
6.774261e+1, 2.9666543e+2, -58724.523, -196492.06, -214.2616, -0.000023390516, -0.0005132589, -58724.19, -26045.572, 0.0, 5.017875, 4.929512 
6.7743635e+1, 3.0160207e+2, -17721.145, -133949.23, -143.32817, -0.000018063884, 0.0021550013, -17720.967, -17720.967, 0.0, 5.0179477, 4.9431014 
6.7744726e+1, 3.0654573e+2, -16441.734, -131339.3, -122.24552, -0.000015781765, -0.005236334, -16441.605, -16441.605, 0.0, 5.018024, 4.9440074 
6.774585e+1, 3.1150672e+2, 21853.777, -41772.918, -38.632523, -0.000027039618, 0.004106438, 21853.8, 21853.8, 0.0, 5.018103, 4.976772 
6.7747027e+1, 3.1648442e+2, 23707.676, -37847.49, -14.141468, -0.000023010778, -0.0010260111, 23707.68, 23707.68, 0.0, 5.0181866, 4.978185 
7.273081e+1, 1.2298659e+2, -1702038.5, -1738007.0, -82.84303, -0.0000023511445, 0.0009223753, -1702038.4, 32693.072, 0.0, 5.0160313, 4.9925804 
7.273202e+1, 1.2797867e+2, -1654422.5, -1692104.6, -98.03068, -0.0000057628235, -0.0031842517, -1654422.3, 31386.89, 0.0, 5.0161095, 4.9915423 
7.2733164e+1, 1.3296935e+2, -1609044.5, -1650754.5, -189.77844, -0.00000392639, 0.0035755578, -1609043.6, 27856.824, 0.0, 5.0161824, 4.9889164 
7.273426e+1, 1.3795799e+2, -1560900.9, -1603788.3, -202.71532, -0.000000113711316, -0.0013211891, -1560899.9, 27111.807, 0.0, 5.0162525, 4.988221 
7.2735304e+1, 1.42945e+2, -1515760.1, -1562999.4, -284.33426, -0.000008498281, 0.00024963007, -1515758.5, 23380.521, 0.0, 5.016319, 4.9854426 
7.273631e+1, 1.479306e+2, -1467435.0, -1515675.8, -295.3902, -0.000002695648, -0.0009301218, -1467433.3, 22846.852, 0.0, 5.0163817, 4.984863 
7.2737265e+1, 1.5291433e+2, -1422348.6, -1475072.1, -368.42645, -0.0000014545324, 0.001315434, -1422346.0, 19093.455, 0.0, 5.0164413, 4.982033 
7.273819e+1, 1.578964e+2, -1373973.3, -1427661.9, -377.967, -0.0000010525719, -0.0013109648, -1373970.6, 18644.69, 0.0, 5.016498, 4.9814725 
7.2739077e+1, 1.6287674e+2, -1328920.1, -1387196.5, -441.6123, -0.000001735382, 0.0012566363, -1328916.8, 14891.266, 0.0, 5.0165524, 4.9785743 
7.2739923e+1, 1.6785537e+2, -1280436.6, -1339581.3, -449.68536, -0.0000015983551, -0.0011791687, -1280433.1, 14584.281, 0.0, 5.016604, 4.978071 
7.2740746e+1, 1.7283228e+2, -1235427.3, -1299284.4, -503.57385, 0.0000030607616, 0.0011455781, -1235423.3, 10820.542, 0.0, 5.0166535, 4.975092 
7.274154e+1, 1.7780744e+2, -1186861.5, -1251521.4, -510.00003, 0.0000018333982, -0.0012065573, -1186857.4, 10629.745, 0.0, 5.0167007, 4.974627 
7.274231e+1, 1.8278088e+2, -1141868.9, -1211346.4, -553.71954, 0.0000023709101, 0.0012487428, -1141864.4, 6882.8623, 0.0, 5.0167465, 4.9715867 
7.274305e+1, 1.8775253e+2, -1093235.1, -1163470.1, -558.93567, 0.0000025465404, -0.0013003692, -1093230.6, 6794.5566, 0.0, 5.016791, 4.971148 
7.274378e+1, 1.927225e+2, -1048256.4, -1123416.0, -591.5436, 0.0000055944647, 0.0013108242, -1048251.75, 3067.6953, 0.0, 5.0168333, 4.968039 
7.274449e+1, 1.976906e+2, -999542.3, -1075403.8, -596.23, 0.0000038177154, -0.0013061091, -999537.6, 3094.3604, 0.0, 5.0168753, 4.9676337 
7.274519e+1, 2.0265706e+2, -954565.5, -1035455.2, -617.31476, 0.000005519998, 0.0013052948, -954560.75, -599.9732, 0.0, 5.016916, 4.964468 
7.274589e+1, 2.076216e+2, -905792.75, -987357.0, -621.4986, 0.0000040726004, -0.0013443455, -905788.0, -479.6855, 0.0, 5.016956, 4.964079 
7.2746575e+1, 2.1258447e+2, -860808.6, -947500.94, -631.4627, 0.000005641672, 0.0013750773, -860804.0, -4131.9146, 0.0, 5.016996, 4.9608526 
7.2747254e+1, 2.1754539e+2, -811965.8, -899296.56, -634.1423, 0.000003918812, -0.0014318351, -811961.25, -3906.1614, 0.0, 5.017035, 4.9604864 
7.274794e+1, 2.2250465e+2, -767096.0, -859807.9, -630.3598, 0.0000039792712, 0.0014273454, -767091.7, -7637.1235, 0.0, 5.0170746, 4.957107 
7.274864e+1, 2.2746184e+2, -718190.5, -811520.56, -633.20544, 0.000003105892, -0.0014000251, -718186.2, -7312.1655, 0.0, 5.0171146, 4.956754 
7.2749335e+1, 2.3241735e+2, -673226.1, -771953.6, -619.11896, 0.0000013336609, 0.0014630305, -673222.25, -10912.17, 0.0, 5.0171556, 4.953376 
7.2750056e+1, 2.373708e+2, -624237.6, -723541.9, -618.50104, 0.0000018453954, -0.0016511116, -624233.75, -10467.659, 0.0, 5.017197, 4.9530506 
7.2750777e+1, 2.4232262e+2, -579249.3, -684055.75, -597.87756, -0.0000015370019, 0.0017073097, -579245.94, -14007.545, 0.0, 5.0172396, 4.9496117 
7.2751516e+1, 2.4727234e+2, -530155.44, -635470.8, -594.9179, -0.0000021806666, -0.0016879883, -530152.06, -13420.928, 0.0, 5.017283, 4.9493318 
7.275228e+1, 2.5222036e+2, -485265.1, -596348.5, -565.1242, -0.0000041322282, 0.0016770309, -485262.22, -17021.734, 0.0, 5.0173283, 4.9457383 
7.275306e+1, 2.571663e+2, -435896.72, -547212.0, -559.06854, -0.0000036565166, -0.001721435, -435893.9, -16123.649, 0.0, 5.0173745, 4.945636 
7.275387e+1, 2.621105e+2, -391226.84, -508742.06, -520.7675, -0.0000079664815, 0.001680492, -391224.56, -19907.52, 0.0, 5.0174227, 4.9417815 
7.2754705e+1, 2.6705265e+2, -341500.47, -458860.72, -511.52023, -0.000010396987, -0.0016277555, -341498.22, -18614.213, 0.0, 5.017473, 4.941926 
7.275557e+1, 2.7199298e+2, -297096.16, -421165.25, -465.03726, -0.000008796712, 0.0017070662, -297094.44, -22625.508, 0.0, 5.0175257, 4.937761 
7.275647e+1, 2.7693126e+2, -247011.81, -370531.22, -452.5116, -0.0000118331245, -0.0019271412, -247010.16, -20936.414, 0.0, 5.017581, 4.938155 
7.27574e+1, 2.8186774e+2, -202740.16, -333323.94, -398.93842, -0.000014451501, 0.0022001404, -202738.94, -25042.805, 0.0, 5.017638, 4.933782 
7.2758377e+1, 2.8680214e+2, -152371.9, -282099.22, -382.76477, -0.000013993195, -0.002524356, -152370.78, -23031.877, 0.0, 5.0176992, 4.934372 
7.2759384e+1, 2.9173434e+2, -109311.12, -247910.86, -320.75836, -0.00001541596, 0.0017601061, -109310.375, -28307.043, 0.0, 5.017762, 4.9288898 
7.276045e+1, 2.9666412e+2, -58838.492, -196522.95, -301.36752, -0.000021936214, -0.00051219284, -58837.832, -26146.367, 0.0, 5.01783, 4.9295206 
7.276156e+1, 3.0160075e+2, -17838.06, -133976.95, -223.8278, -0.000017557335, 0.0021568208, -17837.629, -17837.629, 0.0, 5.0179, 4.943112 
7.276273e+1, 3.0654445e+2, -16563.404, -131368.25, -200.5744, -0.000015867834, -0.0052340575, -16563.055, -16563.055, 0.0, 5.0179744, 4.9440184 
7.2763926e+1, 3.1150544e+2, 21731.436, -41795.484, -108.61944, -0.000024513804, 0.0041053956, 21731.621, 21731.621, 0.0, 5.0180516, 4.9767857 
7.2765183e+1, 3.164832e+2, 23581.277, -37870.49, -81.18721, -0.000021409896, -0.0010241751, 23581.385, 23581.385, 0.0, 5.018133, 4.9781995 
7.7746844e+1, 1.22985296e+2, -1702061.5, -1738053.1, -27.725632, -0.0000028929846, 0.0009232014, -1702061.5, 32682.662, 0.0, 5.0160313, 4.992565 
7.7748126e+1, 1.2797734e+2, -1654445.5, -1692150.8, -43.425133, -0.0000062717295, -0.003184067, -1654445.4, 31376.586, 0.0, 5.016109, 4.9915276 
7.774934e+1, 1.3296802e+2, -1609065.9, -1650797.3, -140.80463, -0.0000046572854, 0.0035750307, -1609065.4, 27848.066, 0.0, 5.0161824, 4.9889026 
7.775051e+1, 1.3795665e+2, -1560922.1, -1603830.4, -154.08852, -0.000000826592, -0.0013204212, -1560921.5, 27103.318, 0.0, 5.016252, 4.9882073 
7.7751625e+1, 1.4294365e+2, -1515780.0, -1563038.5, -240.74026, -0.000009205546, 0.00025034221, -1515778.8, 23373.473, 0.0, 5.0163183, 4.98543 
7.775269e+1, 1.4792925e+2, -1467454.8, -1515714.3, -252.00389, -0.0000031955742, -0.0009295146, -1467453.4, 22840.086, 0.0, 5.0163813, 4.98485 
7.775371e+1, 1.5291296e+2, -1422366.8, -1475107.4, -329.5161, -0.0000024743508, 0.0013153384, -1422364.8, 19088.28, 0.0, 5.016441, 4.9820213 
7.7754694e+1, 1.57895e+2, -1373991.3, -1427696.5, -339.19644, -0.0000023444247, -0.0013105972, -1373989.1, 18639.785, 0.0, 5.0164976, 4.9814615 
7.775563e+1, 1.6287534e+2, -1328936.4, -1387227.4, -406.74274, -0.0000020518032, 0.0012572742, -1328933.5, 14888.173, 0.0, 5.016552, 4.9785643 
7.775653e+1, 1.6785395e+2, -1280452.9, -1339611.8, -414.83276, -0.0000016511459, -0.0011785643, -1280449.9, 14581.362, 0.0, 5.0166035, 4.978061 
7.77574e+1, 1.7283085e+2, -1235441.8, -1299310.9, -472.09363, 0.0000016689853, 0.0011460948, -1235438.3, 10819.494, 0.0, 5.0166526, 4.9750834 
7.775824e+1, 1.77806e+2, -1186876.0, -1251547.6, -478.3842, 0.0000008699724, -0.0012065467, -1186872.4, 10628.745, 0.0, 5.0167, 4.974619 
7.775906e+1, 1.8277945e+2, -1141881.6, -1211368.4, -524.7414, 0.0000021867074, 0.0012495236, -1141877.6, 6883.765, 0.0, 5.0167456, 4.9715796 
7.7759844e+1, 1.8775108e+2, -1093247.8, -1163491.6, -529.97253, 0.0000023219009, -0.0012976631, -1093243.8, 6795.5903, 0.0, 5.0167894, 4.971141 
7.776061e+1, 1.9272105e+2, -1048267.2, -1123433.1, -564.4136, 0.0000046130504, 0.0013100473, -1048262.94, 3070.672, 0.0, 5.0168324, 4.968034 
7.776137e+1, 1.9768916e+2, -999553.5, -1075421.1, -569.1446, 0.000002884444, -0.0013065226, -999549.2, 3097.032, 0.0, 5.016874, 4.9676285 
7.7762115e+1, 2.0265561e+2, -954574.75, -1035467.9, -591.3139, 0.000005306637, 0.0013079693, -954570.44, -595.31366, 0.0, 5.0169144, 4.9644647 
7.776284e+1, 2.0762013e+2, -905802.3, -987369.75, -595.49585, 0.0000042029824, -0.00134215, -905797.94, -475.25726, 0.0, 5.0169544, 4.964075 
7.7763575e+1, 2.12583e+2, -860816.2, -947509.0, -605.94403, 0.000004480921, 0.0013747527, -860812.0, -4125.4927, 0.0, 5.016994, 4.9608507 
7.776429e+1, 2.1754393e+2, -811973.7, -899304.75, -608.7064, 0.0000029171943, -0.0014309781, -811969.44, -3899.9922, 0.0, 5.017033, 4.9604845 
7.776501e+1, 2.2250317e+2, -767104.6, -859817.4, -604.34656, 0.0000038404564, 0.0014297534, -767100.7, -7631.738, 0.0, 5.0170727, 4.9571047 
7.7765745e+1, 2.2746035e+2, -718199.3, -811529.8, -607.1654, 0.0000033700799, -0.0013986775, -718195.3, -7306.8633, 0.0, 5.0171127, 4.956752 
7.7766496e+1, 2.3241587e+2, -673230.5, -771952.7, -591.9701, -0.000000010664257, 0.0014643535, -673226.94, -10902.435, 0.0, 5.0171533, 4.953377 
7.776725e+1, 2.3736934e+2, -624242.1, -723540.75, -591.2547, 0.0000010281035, -0.0016491085, -624238.6, -10458.054, 0.0, 5.0171947, 4.953052 
7.7768016e+1, 2.4232115e+2, -579252.06, -684050.3, -569.20575, -0.0000013582346, 0.0017089025, -579249.0, -13996.208, 0.0, 5.017237, 4.9496145 
7.7768797e+1, 2.4727087e+2, -530158.4, -635465.3, -565.98047, -0.000003466417, -0.0016867422, -530155.3, -13409.817, 0.0, 5.0172806, 4.9493346 
7.776961e+1, 2.522189e+2, -485266.3, -596338.5, -534.06726, -0.000004360616, 0.0016792791, -485263.75, -17008.922, 0.0, 5.0173254, 4.945743 
7.777044e+1, 2.5716487e+2, -435898.22, -547202.06, -527.7725, -0.0000037803397, -0.0017193308, -435895.72, -16111.17, 0.0, 5.017372, 4.94564 
7.7771294e+1, 2.6210904e+2, -391226.84, -508728.0, -486.76547, -0.000009190518, 0.0016816751, -391224.8, -19893.549, 0.0, 5.01742, 4.9417877 
7.7772176e+1, 2.6705122e+2, -341500.75, -458846.66, -477.1131, -0.000011432941, -0.0016257098, -341498.8, -18600.635, 0.0, 5.0174704, 4.9419327 
7.7773094e+1, 2.7199152e+2, -297095.16, -421147.4, -427.3957, -0.00000935868, 0.001708694, -297093.7, -22610.654, 0.0, 5.017523, 4.9377685 
7.777405e+1, 2.769298e+2, -247011.1, -370513.2, -414.41672, -0.000012992005, -0.0019254966, -247009.7, -20921.928, 0.0, 5.0175776, 4.9381633 
7.777504e+1, 2.8186634e+2, -202738.08, -333301.97, -357.11017, -0.000015819429, 0.0022018496, -202737.1, -25027.021, 0.0, 5.017635, 4.9337916 
7.7776074e+1, 2.8680074e+2, -152370.08, -282077.0, -340.20032, -0.000015377142, -0.002522533, -152369.19, -23016.43, 0.0, 5.017696, 4.9343815 
7.7777153e+1, 2.9173294e+2, -109310.055, -247889.6, -274.02356, -0.000016769694, 0.0017613249, -109309.516, -28292.41, 0.0, 5.017759, 4.928899 
7.777828e+1, 2.9666275e+2, -58838.016, -196502.25, -253.60283, -0.000022972043, -0.0005111207, -58837.55, -26132.404, 0.0, 5.017826, 4.9295297 
7.777946e+1, 3.0159935e+2, -17835.674, -133951.05, -171.47241, -0.000019532366, 0.0021590271, -17835.42, -17835.42, 0.0, 5.017896, 4.943123 
7.77807e+1, 3.0654308e+2, -16560.97, -131341.47, -147.21588, -0.000018747729, -0.005231734, -16560.783, -16560.783, 0.0, 5.0179706, 4.94403 
7.7781975e+1, 3.1150407e+2, 21736.805, -41761.043, -50.678032, -0.000025474106, 0.0041040415, 21736.846, 21736.846, 0.0, 5.0180473, 4.9768 
7.7783316e+1, 3.1648183e+2, 23586.676, -37834.523, -21.92161, -0.000026450329, -0.0010217784, 23586.684, 23586.684, 0.0, 5.018129, 4.9782147 
8.27629e+1, 1.2298391e+2, -1701940.5, -1738030.4, -89.3243, -0.0000008457216, 0.00092476857, -1701940.4, 32817.383, 0.0, 5.0160794, 4.992549 
8.276426e+1, 1.2797596e+2, -1654331.3, -1692131.4, -107.27212, -0.0000051261977, -0.0031828396, -1654330.9, 31504.814, 0.0, 5.0161552, 4.9915113 
8.276555e+1, 1.329666e+2, -1608957.1, -1650778.0, -211.90747, -0.0000036810989, 0.0035750088, -1608956.1, 27971.225, 0.0, 5.016226, 4.9888873 
8.2766783e+1, 1.3795522e+2, -1560820.5, -1603814.5, -227.04744, 0.0000000042605244, -0.0013188012, -1560819.3, 27219.617, 0.0, 5.0162935, 4.9881926 
8.276796e+1, 1.429422e+2, -1515684.5, -1563023.0, -320.28104, -0.000008379377, 0.00025191627, -1515682.3, 23484.127, 0.0, 5.016357, 4.985416 
8.276909e+1, 1.4792778e+2, -1467366.6, -1515702.1, -333.11282, -0.0000024070216, -0.0009284267, -1467364.4, 22943.465, 0.0, 5.0164175, 4.9848366 
8.2770175e+1, 1.5291148e+2, -1422285.0, -1475095.6, -416.6017, -0.000001934068, 0.0013160009, -1422281.8, 19185.719, 0.0, 5.0164742, 4.982009 
8.27712e+1, 1.5789352e+2, -1373917.5, -1427688.4, -427.626, -0.0000016893655, -0.0013095344, -1373914.1, 18729.355, 0.0, 5.0165286, 4.981449 
8.2772195e+1, 1.6287383e+2, -1328869.0, -1387219.3, -500.4717, -0.0000015806753, 0.0012583474, -1328864.8, 14971.683, 0.0, 5.0165796, 4.978554 
8.277315e+1, 1.6785245e+2, -1280394.0, -1339607.5, -509.63254, -0.00000084912404, -0.0011774157, -1280389.6, 14656.464, 0.0, 5.0166283, 4.9780507 
8.277406e+1, 1.7282933e+2, -1235389.0, -1299306.4, -571.4699, 0.000002028818, 0.0011470411, -1235383.9, 10888.637, 0.0, 5.016675, 4.9750743 
8.277495e+1, 1.7780447e+2, -1186831.5, -1251546.8, -578.71173, 0.00000073836077, -0.0012056347, -1186826.3, 10689.821, 0.0, 5.0167193, 4.97461 
8.277581e+1, 1.8277793e+2, -1141844.6, -1211367.6, -628.77246, 0.0000032384244, 0.0012505554, -1141838.9, 6937.4775, 0.0, 5.016762, 4.9715724 
8.277664e+1, 1.8774956e+2, -1093219.4, -1163494.4, -634.77014, 0.0000033179479, -0.0012956172, -1093213.6, 6840.7876, 0.0, 5.016803, 4.9711337 
8.277745e+1, 1.9271952e+2, -1048245.0, -1123435.0, -671.9541, 0.0000043987334, 0.0013102709, -1048239.0, 3109.8013, 0.0, 5.0168424, 4.9680285 
8.2778245e+1, 1.9768761e+2, -999540.5, -1075427.8, -677.26874, 0.0000037078562, -0.001305484, -999534.44, 3127.0117, 0.0, 5.016881, 4.9676228 
8.277903e+1, 2.0265405e+2, -954567.8, -1035473.25, -701.4057, 0.0000060261304, 0.0013099015, -954561.75, -571.3792, 0.0, 5.0169187, 4.964461 
8.2779795e+1, 2.0761858e+2, -905804.1, -987379.1, -706.0941, 0.000004691736, -0.0013407939, -905798.0, -460.01227, 0.0, 5.0169554, 4.9640718 
8.2780564e+1, 2.1258146e+2, -860825.0, -947517.6, -717.499, 0.0000052291025, 0.0013758875, -860819.06, -4117.2725, 0.0, 5.016992, 4.960849 
8.278132e+1, 2.1754238e+2, -811991.2, -899317.4, -720.63696, 0.000004000746, -0.0014290838, -811985.25, -3900.4387, 0.0, 5.017028, 4.960482 
8.278209e+1, 2.225016e+2, -767131.25, -859835.25, -716.2764, 0.0000043293835, 0.0014312763, -767125.7, -7641.3438, 0.0, 5.0170646, 4.9571023 
8.278285e+1, 2.2745879e+2, -718234.44, -811551.44, -719.3617, 0.0000039664633, -0.0013975294, -718228.9, -7325.002, 0.0, 5.0171013, 4.9567494 
8.278364e+1, 2.3241429e+2, -673269.56, -771967.25, -703.47156, 0.0000009726784, 0.0014664689, -673264.56, -10924.655, 0.0, 5.017139, 4.9533787 
8.278443e+1, 2.3736776e+2, -624289.8, -723559.0, -702.6143, 0.0000024824487, -0.0016467398, -624284.9, -10488.931, 0.0, 5.017177, 4.9530535 
8.278524e+1, 2.4231958e+2, -579305.94, -684067.4, -679.217, -0.0000008860526, 0.0017101669, -579301.5, -14033.369, 0.0, 5.0172167, 4.949618 
8.278607e+1, 2.472693e+2, -530220.7, -635486.06, -675.58716, -0.000003359482, -0.0016852826, -530216.4, -13455.514, 0.0, 5.017257, 4.949338 
8.278692e+1, 2.5221732e+2, -485335.28, -596358.4, -641.64056, -0.0000027714577, 0.0016817694, -485331.6, -17061.46, 0.0, 5.0172987, 4.945748 
8.2787794e+1, 2.571633e+2, -435975.22, -547225.25, -634.641, -0.0000027946298, -0.0017172135, -435971.6, -16171.826, 0.0, 5.017342, 4.9456453 
8.2788694e+1, 2.6210752e+2, -391309.8, -508750.13, -590.7445, -0.000008539395, 0.0016832621, -391306.84, -19960.4, 0.0, 5.0173874, 4.941795 
8.278963e+1, 2.6704964e+2, -341591.6, -458872.0, -580.12146, -0.000010413804, -0.001623285, -341588.72, -18675.404, 0.0, 5.0174346, 4.9419394 
8.2790595e+1, 2.7199e+2, -297191.84, -421171.88, -526.75, -0.000008282826, 0.0017105968, -297189.6, -22691.516, 0.0, 5.017484, 4.9377766 
8.27916e+1, 2.7692828e+2, -247115.03, -370540.47, -512.589, -0.0000117920235, -0.0019237084, -247112.9, -21010.162, 0.0, 5.017536, 4.9381714 
8.2792646e+1, 2.8186482e+2, -202847.45, -333327.88, -451.07123, -0.000014499004, 0.002203833, -202845.9, -25120.95, 0.0, 5.0175905, 4.9338017 
8.279375e+1, 2.8679922e+2, -152486.11, -282105.22, -432.42953, -0.000014491094, -0.0025201335, -152484.67, -23117.135, 0.0, 5.0176487, 4.9343915 
8.279488e+1, 2.9173145e+2, -109433.34, -247921.63, -361.52426, -0.000015647052, 0.0017627506, -109432.4, -28400.621, 0.0, 5.0177093, 4.928909 
8.279608e+1, 2.9666126e+2, -58967.895, -196537.25, -339.16345, -0.000020922256, -0.00050981366, -58967.06, -26247.332, 0.0, 5.017774, 4.9295397 
8.2797325e+1, 3.015979e+2, -17968.988, -133982.4, -250.33846, -0.000018291355, 0.002161635, -17968.447, -17968.447, 0.0, 5.0178413, 4.943135 
8.2798636e+1, 3.0654162e+2, -16699.99, -131374.38, -223.79762, -0.000018811812, -0.0052291714, -16699.553, -16699.553, 0.0, 5.017914, 4.944042 
8.279999e+1, 3.1150264e+2, 21596.754, -41786.96, -118.842865, -0.000022803171, 0.0041034133, 21596.977, 21596.977, 0.0, 5.017988, 4.9768157 
8.2801414e+1, 3.164804e+2, 23442.127, -37860.684, -87.112816, -0.000024638446, -0.0010192513, 23442.25, 23442.25, 0.0, 5.018068, 4.978231 
8.7778974e+1, 1.2298245e+2, -1701966.5, -1738083.0, -36.231186, -0.0000012208111, 0.0009258771, -1701966.5, 32805.55, 0.0, 5.0160794, 4.992532 
8.778041e+1, 1.2797447e+2, -1654357.0, -1692183.5, -54.801033, -0.000005811617, -0.003181843, -1654356.9, 31493.285, 0.0, 5.016155, 4.991494 
8.7781775e+1, 1.3296512e+2, -1608981.3, -1650826.5, -165.15996, -0.0000041219855, 0.0035742864, -1608980.6, 27961.281, 0.0, 5.016226, 4.9888716 
8.778308e+1, 1.379537e+2, -1560844.5, -1603862.5, -180.72029, -0.000000723343, -0.0013174315, -1560843.8, 27209.896, 0.0, 5.016293, 4.988177 
8.7784314e+1, 1.4294067e+2, -1515706.9, -1563067.4, -279.03156, -0.000008997964, 0.00025329393, -1515705.3, 23476.086, 0.0, 5.0163565, 4.9854016 
8.7785506e+1, 1.4792624e+2, -1467389.0, -1515746.1, -292.115, -0.0000032822022, -0.0009278559, -1467387.3, 22935.617, 0.0, 5.016417, 4.9848223 
8.7786645e+1, 1.5290995e+2, -1422305.6, -1475135.6, -380.2242, -0.0000027958336, 0.0013164926, -1422302.9, 19179.725, 0.0, 5.016474, 4.981996 
8.778773e+1, 1.5789196e+2, -1373938.0, -1427727.8, -391.36478, -0.0000018885937, -0.0013086494, -1373935.3, 18723.613, 0.0, 5.0165277, 4.9814363 
8.778877e+1, 1.6287227e+2, -1328887.6, -1387254.4, -468.30054, -0.0000028862153, 0.001259074, -1328883.9, 14968.015, 0.0, 5.016579, 4.9785423 
8.7789774e+1, 1.6785087e+2, -1280412.6, -1339642.3, -477.4162, -0.0000015916601, -0.0011763899, -1280408.8, 14652.867, 0.0, 5.016628, 4.9780393 
8.779074e+1, 1.7282774e+2, -1235405.6, -1299336.6, -542.5778, 0.0000017612845, 0.0011478224, -1235401.1, 10887.151, 0.0, 5.016674, 4.9750648 
8.7791663e+1, 1.7780288e+2, -1186848.1, -1251576.6, -549.9727, -0.00000094340766, -0.0012043777, -1186843.5, 10688.398, 0.0, 5.0167184, 4.9746003 
8.779257e+1, 1.827763e+2, -1141859.4, -1211393.0, -602.64484, 0.0000032200896, 0.0012513457, -1141854.1, 6938.0703, 0.0, 5.016761, 4.9715643 
8.779344e+1, 1.8774793e+2, -1093234.0, -1163518.9, -608.4829, 0.0000032047483, -0.0012945855, -1093228.8, 6841.613, 0.0, 5.0168014, 4.971126 
8.77943e+1, 1.9271788e+2, -1048257.6, -1123454.5, -647.67706, 0.0000025368056, 0.0013112201, -1048252.0, 3112.767, 0.0, 5.016841, 4.968023 
8.7795126e+1, 1.9768597e+2, -999553.75, -1075448.0, -652.92847, 0.0000038357143, -0.001303346, -999548.1, 3129.3923, 0.0, 5.016879, 4.967617 
8.7795943e+1, 2.0265241e+2, -954578.75, -1035487.8, -678.25604, 0.000005124033, 0.0013107433, -954573.06, -566.5894, 0.0, 5.0169168, 4.9644566 
8.7796754e+1, 2.0761693e+2, -905815.3, -987393.7, -683.0993, 0.0000028680586, -0.001340503, -905809.6, -455.47058, 0.0, 5.0169535, 4.9640675 
8.779755e+1, 2.125798e+2, -860834.2, -947527.06, -694.8048, 0.000005144001, 0.0013783571, -860828.56, -4110.602, 0.0, 5.0169897, 4.9608464 
8.7798345e+1, 2.1754071e+2, -812000.6, -899326.8, -697.9533, 0.000004395843, -0.0014262799, -811995.0, -3894.026, 0.0, 5.017026, 4.96048 
8.779915e+1, 2.2249994e+2, -767141.6, -859846.1, -693.1913, 0.00000257843, 0.0014318281, -767136.44, -7635.8584, 0.0, 5.017062, 4.9571 
8.7799954e+1, 2.2745714e+2, -718245.06, -811562.4, -696.2532, 0.0000019059006, -0.0013966083, -718239.9, -7319.774, 0.0, 5.017099, 4.956747 
8.780077e+1, 2.3241264e+2, -673275.1, -771966.4, -679.2466, 0.000001248133, 0.0014693938, -673270.5, -10914.317, 0.0, 5.017136, 4.95338 
8.780161e+1, 2.3736611e+2, -624295.6, -723558.06, -678.22565, 0.000003243892, -0.0016439483, -624291.0, -10478.836, 0.0, 5.0171747, 4.9530554 
8.780246e+1, 2.4231791e+2, -579309.7, -684061.3, -653.3096, -0.0000030293954, 0.001711189, -579305.6, -14021.27, 0.0, 5.017214, 4.9496217 
8.780333e+1, 2.4726765e+2, -530224.8, -635480.1, -649.48004, -0.0000047059884, -0.0016835296, -530220.8, -13443.796, 0.0, 5.017254, 4.9493413 
8.7804216e+1, 2.5221568e+2, -485337.56, -596347.56, -613.4604, -0.000002250599, 0.0016845467, -485334.16, -17047.898, 0.0, 5.0172954, 4.945753 
8.780514e+1, 2.5716165e+2, -435977.72, -547214.2, -606.0954, -0.0000037132731, -0.0017150925, -435974.4, -16158.538, 0.0, 5.0173388, 4.945651 
8.780608e+1, 2.6210585e+2, -391310.63, -508734.44, -559.4433, -0.000009204117, 0.0016852247, -391307.97, -19945.488, 0.0, 5.0173836, 4.9418015 
8.7807065e+1, 2.6704803e+2, -341592.75, -458856.25, -548.45703, -0.000010761523, -0.0016205299, -341590.2, -18660.914, 0.0, 5.017431, 4.9419465 
8.7808084e+1, 2.7198836e+2, -297191.53, -421151.9, -491.68887, -0.000009336635, 0.0017127095, -297189.6, -22675.633, 0.0, 5.0174804, 4.9377856 
8.7809145e+1, 2.7692667e+2, -247115.13, -370520.44, -477.07324, -0.000012459802, -0.001921861, -247113.28, -20994.746, 0.0, 5.0175323, 4.9381804 
8.781024e+1, 2.8186318e+2, -202845.95, -333303.22, -411.7609, -0.000015117857, 0.0022059511, -202844.66, -25104.002, 0.0, 5.0175867, 4.933812 
8.781139e+1, 2.8679764e+2, -152484.86, -282080.2, -392.34024, -0.000016036416, -0.0025173477, -152483.67, -23100.549, 0.0, 5.0176444, 4.9344025 
8.781259e+1, 2.9172987e+2, -109433.04, -247897.81, -317.13, -0.000016929724, 0.0017642129, -109432.31, -28385.047, 0.0, 5.017705, 4.928919 
8.781386e+1, 2.9665968e+2, -58968.273, -196514.1, -293.717, -0.000020978963, -0.0005084404, -58967.645, -26232.531, 0.0, 5.0177693, 4.9295497 
8.781517e+1, 3.0159634e+2, -17967.127, -133953.19, -200.23804, -0.000019378573, 0.002164422, -17966.781, -17966.781, 0.0, 5.0178366, 4.9431477 
8.781655e+1, 3.0654007e+2, -16698.041, -131344.14, -172.61882, -0.00002197555, -0.005226422, -16697.781, -16697.781, 0.0, 5.0179086, 4.944055 
8.781798e+1, 3.115011e+2, 21602.041, -41748.23, -62.90538, -0.000023816334, 0.00410353, 21602.104, 21602.104, 0.0, 5.017983, 4.9768324 
8.781948e+1, 3.1647888e+2, 23447.854, -37819.824, -29.7984, -0.000027363445, -0.0010172097, 23447.867, 23447.867, 0.0, 5.0180626, 4.9782486 
9.279508e+1, 1.2298091e+2, -1701829.1, -1738057.1, -95.80809, 0.0000007501782, 0.0009280185, -1701828.8, 32958.324, 0.0, 5.016134, 4.9925137 
9.2796594e+1, 1.279729e+2, -1654227.4, -1692161.4, -116.62388, -0.000004787833, -0.003180456, -1654227.0, 31638.55, 0.0, 5.016207, 4.991476 
9.2798024e+1, 1.3296354e+2, -1608857.6, -1650804.4, -234.41183, -0.0000028434063, 0.0035749893, -1608856.4, 28101.055, 0.0, 5.0162754, 4.988855 
9.2799395e+1, 1.3795212e+2, -1560729.1, -1603844.3, -251.85722, 0.0000000583574, -0.0013155933, -1560727.6, 27341.701, 0.0, 5.01634, 4.9881597 
9.2800695e+1, 1.4293908e+2, -1515598.1, -1563049.6, -356.90128, -0.00000798907, 0.00025550395, -1515595.5, 23601.695, 0.0, 5.0164003, 4.9853864 
9.2801946e+1, 1.479246e+2, -1467288.9, -1515732.3, -371.61118, -0.0000023754865, -0.000926321, -1467286.0, 23052.832, 0.0, 5.016458, 4.984807 
9.280314e+1, 1.529083e+2, -1422212.5, -1475121.9, -465.7928, -0.0000022287193, 0.0013173356, -1422208.4, 19290.37, 0.0, 5.016512, 4.981982 
9.2804277e+1, 1.578903e+2, -1373853.9, -1427718.1, -478.28302, -0.0000010180119, -0.0013069304, -1373849.6, 18825.455, 0.0, 5.016563, 4.981423 
9.280537e+1, 1.6287059e+2, -1328810.6, -1387244.9, -560.6638, -0.000002376085, 0.0012602806, -1328805.3, 15062.906, 0.0, 5.016611, 4.9785304 
9.280641e+1, 1.6784918e+2, -1280344.9, -1339637.0, -570.93036, -0.0000011605164, -0.0011746748, -1280339.4, 14738.671, 0.0, 5.0166564, 4.9780273 
9.2807424e+1, 1.7282605e+2, -1235345.6, -1299331.1, -640.60156, 0.0000024131664, 0.0011488968, -1235339.3, 10965.619, 0.0, 5.0166993, 4.9750547 
9.2808396e+1, 1.7780116e+2, -1186798.0, -1251575.8, -648.9918, -0.00000055851456, -0.0012028464, -1186791.5, 10757.084, 0.0, 5.0167403, 4.9745903 
9.2809343e+1, 1.827746e+2, -1141816.1, -1211391.3, -705.3866, 0.0000037217142, 0.0012529086, -1141809.0, 7000.0054, 0.0, 5.0167794, 4.9715557 
9.281025e+1, 1.877462e+2, -1093200.6, -1163521.8, -711.81726, 0.0000040031355, -0.0012940784, -1093193.5, 6893.763, 0.0, 5.0168166, 4.971118 
9.2811143e+1, 1.9271615e+2, -1048232.0, -1123456.9, -754.30304, 0.0000028449479, 0.0013133266, -1048224.44, 3157.2935, 0.0, 5.016853, 4.968016 
9.2812014e+1, 1.9768423e+2, -999538.06, -1075454.6, -760.24493, 0.000004334597, -0.0013009092, -999530.44, 3164.0825, 0.0, 5.0168877, 4.967611 
9.2812866e+1, 2.0265067e+2, -954570.5, -1035493.5, -787.1218, 0.000005810722, 0.0013112441, -954562.8, -539.3052, 0.0, 5.0169215, 4.9644523 
9.2813706e+1, 2.0761518e+2, -905817.06, -987404.06, -792.45636, 0.0000042002034, -0.0013394401, -905809.4, -438.14838, 0.0, 5.016955, 4.964063 
9.2814547e+1, 2.1257804e+2, -860843.06, -947536.4, -805.11957, 0.0000054270367, 0.0013808262, -860835.56, -4100.454, 0.0, 5.016988, 4.9608445 
9.281537e+1, 2.1753897e+2, -812019.1, -899340.5, -808.64557, 0.0000048808306, -0.0014239141, -812011.6, -3893.505, 0.0, 5.01702, 4.960478 
9.281621e+1, 2.2249818e+2, -767170.8, -859865.8, -803.9941, 0.000004051789, 0.0014326001, -767163.8, -7646.068, 0.0, 5.017053, 4.957097 
9.2817044e+1, 2.2745538e+2, -718283.94, -811586.4, -807.306, 0.0000026053156, -0.0013944339, -718277.0, -7339.6597, 0.0, 5.0170865, 4.956744 
9.28179e+1, 2.324109e+2, -673318.1, -771982.3, -789.59674, 0.0000020938671, 0.0014714904, -673311.8, -10938.433, 0.0, 5.0171204, 4.9533815 
9.281877e+1, 2.3736435e+2, -624348.25, -723578.2, -788.4164, 0.000004360788, -0.0016421737, -624342.0, -10512.627, 0.0, 5.017155, 4.9530573 
9.2819655e+1, 2.4231617e+2, -579369.75, -684080.25, -762.224, -0.0000022746046, 0.0017131808, -579364.2, -14062.686, 0.0, 5.0171905, 4.949625 
9.2820567e+1, 2.472659e+2, -530294.5, -635503.25, -757.9393, -0.0000035724486, -0.0016810447, -530289.06, -13494.929, 0.0, 5.0172276, 4.949345 
9.2821497e+1, 2.5221395e+2, -485414.1, -596369.3, -719.689, -0.0000011837317, 0.0016863297, -485409.4, -17106.078, 0.0, 5.017266, 4.945759 
9.2822456e+1, 2.5715992e+2, -436063.56, -547239.8, -711.68243, -0.000003358146, -0.0017132568, -436059.0, -16226.108, 0.0, 5.0173054, 4.945657 
9.2823446e+1, 2.6210412e+2, -391403.66, -508759.16, -662.14734, -0.000007755744, 0.0016874843, -391399.9, -20020.48, 0.0, 5.017347, 4.941809 
9.282447e+1, 2.6704633e+2, -341694.34, -458884.28, -650.1582, -0.000009192316, -0.0016180703, -341690.75, -18744.598, 0.0, 5.0173907, 4.941954 
9.282554e+1, 2.7198666e+2, -297299.88, -421179.1, -589.6096, -0.000008497537, 0.001714693, -297297.1, -22766.33, 0.0, 5.017437, 4.9377947 
9.282665e+1, 2.76925e+2, -247231.72, -370550.84, -573.76404, -0.000011118561, -0.0019198302, -247229.05, -21093.803, 0.0, 5.0174856, 4.93819 
9.2827797e+1, 2.818615e+2, -202968.56, -333332.03, -504.12128, -0.00001338359, 0.0022082638, -202966.63, -25209.361, 0.0, 5.017537, 4.9338236 
9.282901e+1, 2.8679597e+2, -152615.08, -282111.63, -482.98987, -0.000014903416, -0.0025147563, -152613.27, -23213.65, 0.0, 5.017592, 4.934414 
9.283027e+1, 2.917282e+2, -109571.47, -247933.56, -402.8963, -0.000015396861, 0.0017656416, -109570.3, -28506.65, 0.0, 5.017649, 4.9289303 
9.2831594e+1, 2.96658e+2, -59114.12, -196553.13, -377.4798, -0.000018466182, -0.000506377, -59113.086, -26361.7, 0.0, 5.017711, 4.9295607 
9.283297e+1, 3.015947e+2, -18116.94, -133988.19, -277.27493, -0.000017785458, 0.0021674668, -18116.275, -18116.275, 0.0, 5.0177755, 4.943161 
9.2834425e+1, 3.0653846e+2, -16854.434, -131380.94, -247.34267, -0.000021703678, -0.0052242605, -16853.9, -16853.9, 0.0, 5.0178447, 4.9440694 
9.283592e+1, 3.1149948e+2, 21444.38, -41777.363, -129.0611, -0.00002060616, 0.0041037467, 21444.645, 21444.645, 0.0, 5.0179167, 4.9768496 
9.2837507e+1, 3.164773e+2, 23285.094, -37849.094, -93.048355, -0.00002586812, -0.0010146823, 23285.234, 23285.234, 0.0, 5.017994, 4.978267 
9.7811216e+1, 1.2297929e+2, -1701857.9, -1738116.0, -45.021904, 0.00000052728603, 0.0009297303, -1701857.8, 32945.19, 0.0, 5.016134, 4.992494 
9.7812796e+1, 1.2797128e+2, -1654256.1, -1692219.9, -66.43215, -0.000005567309, -0.0031801062, -1654256.0, 31625.596, 0.0, 5.0162067, 4.9914565 
9.78143e+1, 1.3296188e+2, -1608884.5, -1650858.6, -190.0756, -0.0000031035397, 0.0035757823, -1608883.6, 28089.973, 0.0, 5.016275, 4.988837 
9.7815734e+1, 1.3795044e+2, -1560756.0, -1603898.3, -207.97974, -0.00000089823885, -0.0013145078, -1560755.0, 27330.662, 0.0, 5.01634, 4.988142 
9.78171e+1, 1.4293738e+2, -1515623.3, -1563099.4, -318.26773, -0.0000084727135, 0.00025739137, -1515621.1, 23592.61, 0.0, 5.0164003, 4.9853697 
9.7818404e+1, 1.4792292e+2, -1467313.9, -1515781.5, -333.2553, -0.000002750243, -0.00092493463, -1467311.6, 23043.963, 0.0, 5.0164576, 4.984791 
9.781965e+1, 1.5290657e+2, -1422235.5, -1475166.8, -432.15494, -0.0000032932564, 0.0013175128, -1422232.0, 19283.568, 0.0, 5.016511, 4.9819674 
9.7820836e+1, 1.5788856e+2, -1373876.9, -1427762.5, -444.79782, -0.000001977282, -0.0013052846, -1373873.3, 18818.84, 0.0, 5.016562, 4.9814086 
9.7821975e+1, 1.6286886e+2, -1328831.8, -1387284.6, -531.2958, -0.0000027460308, 0.0012611605, -1328827.0, 15058.385, 0.0, 5.01661, 4.9785175 
9.782307e+1, 1.6784741e+2, -1280365.9, -1339676.1, -541.59985, -0.0000020710922, -0.0011729961, -1280361.0, 14734.378, 0.0, 5.0166554, 4.978015 
9.7824126e+1, 1.7282426e+2, -1235364.4, -1299365.0, -614.74445, 0.0000015678133, 0.0011496048, -1235358.5, 10963.715, 0.0, 5.0166984, 4.975044 
9.7825134e+1, 1.7779937e+2, -1186817.0, -1251609.6, -623.1551, -0.00000053539264, -0.0012016076, -1186811.0, 10755.026, 0.0, 5.016739, 4.9745793 
9.782612e+1, 1.827728e+2, -1141832.8, -1211419.3, -682.27155, 0.0000023066932, 0.0012547639, -1141826.0, 7000.5815, 0.0, 5.016778, 4.971547 
9.7827065e+1, 1.877444e+2, -1093218.0, -1163550.6, -688.66547, 0.000003184076, -0.0012945717, -1093211.3, 6893.6353, 0.0, 5.016815, 4.971109 
9.7827995e+1, 1.9271433e+2, -1048246.94, -1123479.8, -733.15234, 0.0000026413002, 0.0013160896, -1048239.75, 3159.6914, 0.0, 5.016851, 4.9680095 
9.7828895e+1, 1.9768243e+2, -999552.75, -1075476.4, -739.06036, 0.0000023605528, -0.0012984711, -999545.56, 3166.744, 0.0, 5.0168853, 4.967604 
9.782979e+1, 2.0264883e+2, -954583.06, -1035509.75, -767.14514, 0.00000505951, 0.0013112458, -954575.75, -534.3844, 0.0, 5.0169196, 4.964448 
9.783066e+1, 2.0761336e+2, -905830.1, -987420.7, -772.5701, 0.000005501207, -0.0013378307, -905822.8, -433.71344, 0.0, 5.0169525, 4.964059 
9.783153e+1, 2.1257621e+2, -860853.8, -947547.2, -785.50793, 0.0000027708836, 0.001383118, -860846.7, -4093.663, 0.0, 5.016985, 4.9608417 
9.783239e+1, 2.1753713e+2, -812030.3, -899351.4, -789.0957, 0.0000020823973, -0.0014220098, -812023.1, -3887.0374, 0.0, 5.017018, 4.9604754 
9.783326e+1, 2.2249636e+2, -767182.9, -859878.0, -784.0242, 0.000005321496, 0.0014336804, -767176.25, -7640.512, 0.0, 5.0170503, 4.957094 
9.7834134e+1, 2.2745353e+2, -718296.44, -811598.75, -787.294, 0.0000026351092, -0.0013908827, -718289.75, -7334.4272, 0.0, 5.0170836, 4.9567413 
9.783502e+1, 2.3240905e+2, -673325.0, -771981.75, -768.54285, 0.000000112676354, 0.0014729482, -673319.06, -10927.653, 0.0, 5.017117, 4.9533834 
9.783593e+1, 2.3736252e+2, -624355.5, -723577.6, -767.18866, 0.000002518607, -0.0016411775, -624349.56, -10502.221, 0.0, 5.017152, 4.9530587 
9.783685e+1, 2.4231432e+2, -579374.75, -684073.8, -739.54047, -0.0000018651972, 0.0017164423, -579369.5, -14050.013, 0.0, 5.017187, 4.9496293 
9.7837794e+1, 2.4726407e+2, -530299.9, -635496.75, -735.0043, -0.0000030995616, -0.0016774508, -530294.7, -13482.635, 0.0, 5.017224, 4.9493494 
9.783876e+1, 2.522121e+2, -485417.34, -596357.25, -694.5298, -0.000002646346, 0.001687595, -485413.0, -17091.754, 0.0, 5.0172615, 4.945765 
9.783976e+1, 2.5715807e+2, -436067.28, -547227.9, -686.2691, -0.0000048399584, -0.0017111395, -436063.03, -16212.302, 0.0, 5.0173016, 4.9456625 
9.784079e+1, 2.6210234e+2, -391405.53, -508742.1, -633.8884, -0.0000074939394, 0.0016905885, -391402.13, -20004.906, 0.0, 5.0173426, 4.9418173 
9.7841865e+1, 2.6704448e+2, -341696.5, -458866.8, -621.4627, -0.000009257339, -0.0016153996, -341693.22, -18729.37, 0.0, 5.0173864, 4.9419622 
9.7842973e+1, 2.7198488e+2, -297300.5, -421157.03, -557.44775, -0.00000958307, 0.0017170224, -297298.0, -22749.629, 0.0, 5.017432, 4.9378047 
9.784414e+1, 2.7692318e+2, -247232.77, -370528.72, -541.1156, -0.00001187613, -0.0019172664, -247230.39, -21077.64, 0.0, 5.017481, 4.9382 
9.784534e+1, 2.8185976e+2, -202967.89, -333304.78, -467.57547, -0.000013764112, 0.002211015, -202966.2, -25191.545, 0.0, 5.017532, 4.9338355 
9.7846603e+1, 2.867942e+2, -152614.7, -282084.0, -445.67117, -0.000015888923, -0.0025121323, -152613.17, -23196.266, 0.0, 5.0175867, 4.9344263 
9.7847915e+1, 2.9172644e+2, -109572.1, -247907.16, -361.08456, -0.00001613944, 0.0017672065, -109571.164, -28490.344, 0.0, 5.017644, 4.928942 
9.7849303e+1, 2.9665628e+2, -59115.48, -196527.34, -334.6167, -0.000018646513, -0.0005036257, -59114.664, -26346.223, 0.0, 5.0177054, 4.9295726 
9.7850746e+1, 3.0159295e+2, -18115.893, -133955.81, -229.69011, -0.000019123803, 0.002170821, -18115.436, -18115.436, 0.0, 5.01777, 4.9431753 
9.785227e+1, 3.065367e+2, -16853.262, -131347.38, -198.59943, -0.000023943101, -0.005222377, -16852.918, -16852.918, 0.0, 5.017839, 4.944084 
9.7853845e+1, 3.1149778e+2, 21449.23, -41734.473, -75.30186, -0.000019775665, 0.0041043437, 21449.32, 21449.32, 0.0, 5.0179105, 4.976868 
9.7855496e+1, 3.1647563e+2, 23290.46, -37803.773, -37.8725, -0.000028470453, -0.0010115036, 23290.484, 23290.484, 0.0, 5.0179873, 4.9782863 
1.02827385e+2, 1.2297759e+2, -1701703.5, -1738086.8, -102.39143, 0.0000022192241, 0.00093230384, -1701703.3, 33116.367, 0.0, 5.0161953, 4.9924736 
1.0282903e+2, 1.2796956e+2, -1654110.4, -1692194.8, -126.04394, -0.000004637112, -0.0031785085, -1654110.0, 31788.436, 0.0, 5.0162654, 4.9914365 
1.028306e+2, 1.3296014e+2, -1608745.5, -1650833.4, -257.33624, -0.0000016626849, 0.0035769239, -1608744.0, 28246.717, 0.0, 5.0163307, 4.988818 
1.028321e+2, 1.3794869e+2, -1560626.4, -1603877.6, -277.2127, 0.00000010837463, -0.0013124123, -1560624.5, 27478.389, 0.0, 5.016392, 4.9881234 
1.02833524e+2, 1.429356e+2, -1515500.9, -1563079.0, -394.34164, -0.000007503339, 0.0002600004, -1515497.6, 23733.54, 0.0, 5.0164495, 4.9853525 
1.0283489e+2, 1.4792112e+2, -1467201.1, -1515765.5, -411.0198, -0.0000018367351, -0.00092284766, -1467197.6, 23175.506, 0.0, 5.016504, 4.9847736 
1.02836184e+2, 1.5290476e+2, -1422130.8, -1475151.1, -516.09283, -0.0000023581254, 0.0013184082, -1422125.8, 19407.633, 0.0, 5.016554, 4.981952 
1.0283742e+2, 1.5788674e+2, -1373782.0, -1427751.4, -530.12006, -0.0000014383104, -0.0013032311, -1373776.9, 18933.082, 0.0, 5.0166016, 4.9813933 
1.02838606e+2, 1.6286701e+2, -1328744.9, -1387273.6, -622.0242, -0.000001841332, 0.0012627472, -1328738.3, 15165.043, 0.0, 5.016646, 4.9785037 
1.02839746e+2, 1.6784556e+2, -1280289.3, -1339669.6, -633.46783, -0.0000014244157, -0.0011711161, -1280282.5, 14830.958, 0.0, 5.016688, 4.9780016 
1.0284083e+2, 1.728224e+2, -1235296.4, -1299358.4, -711.4524, 0.0000017996066, 0.0011510594, -1235288.5, 11051.976, 0.0, 5.016727, 4.9750323 
1.0284189e+2, 1.777975e+2, -1186760.3, -1251608.3, -720.7329, 0.0000010367057, -0.0012002268, -1186752.3, 10832.204, 0.0, 5.0167637, 4.974568 
1.02842905e+2, 1.8277091e+2, -1141783.1, -1211416.6, -783.8394, 0.0000021141443, 0.0012566858, -1141774.3, 7070.8154, 0.0, 5.0167994, 4.971538 
1.0284389e+2, 1.877425e+2, -1093179.6, -1163553.5, -791.2985, 0.0000031478169, -0.0012928258, -1093170.8, 6952.7285, 0.0, 5.016833, 4.9711 
1.0284485e+2, 1.9271243e+2, -1048217.5, -1123482.0, -838.3149, 0.000004149393, 0.0013175476, -1048208.1, 3209.9785, 0.0, 5.0168643, 4.9680023 
1.0284579e+2, 1.9768052e+2, -999534.06, -1075483.3, -844.82104, 0.000002859498, -0.0012971599, -999524.7, 3206.3647, 0.0, 5.0168953, 4.9675975 
1.0284671e+2, 2.0264693e+2, -954573.5, -1035516.0, -875.0362, 0.0000054909, 0.0013133135, -954564.0, -503.8592, 0.0, 5.016925, 4.964443 
1.0284761e+2, 2.0761144e+2, -905831.75, -987432.2, -880.92035, 0.000006205261, -0.0013354712, -905822.25, -414.28207, 0.0, 5.016954, 4.964054 
1.0284851e+2, 2.1257429e+2, -860862.44, -947556.9, -894.74646, 0.0000035510961, 0.0013842373, -860853.2, -4081.301, 0.0, 5.0169835, 4.9608393 
1.028494e+2, 2.175352e+2, -812050.1, -899366.25, -898.53876, 0.000003164372, -0.0014202856, -812040.9, -3885.8647, 0.0, 5.0170116, 4.960473 
1.028503e+2, 2.2249442e+2, -767214.4, -859899.5, -893.46014, 0.000005547086, 0.0014355055, -767205.75, -7651.12, 0.0, 5.0170407, 4.9570913 
1.0285121e+2, 2.274516e+2, -718338.5, -811624.94, -897.09436, 0.000003958343, -0.0013882397, -718329.9, -7355.5576, 0.0, 5.01707, 4.9567385 
1.02852136e+2, 2.3240711e+2, -673371.7, -771999.0, -877.76465, 0.00000084008406, 0.0014744353, -673363.9, -10953.524, 0.0, 5.0171, 4.9533854 
1.0285307e+2, 2.3736058e+2, -624413.0, -723599.5, -876.18445, 0.0000026585974, -0.0016395594, -624405.25, -10538.957, 0.0, 5.0171304, 4.9530606 
1.0285403e+2, 2.423124e+2, -579440.6, -684094.56, -847.2599, -0.0000003503779, 0.0017188044, -579433.8, -14095.382, 0.0, 5.017162, 4.949633 
1.02855004e+2, 2.4726215e+2, -530376.5, -635521.94, -842.26013, -0.0000018398351, -0.0016751137, -530369.75, -13538.777, 0.0, 5.0171947, 4.9493537 
1.02856e+2, 2.522102e+2, -485501.9, -596381.06, -799.53754, -0.0000019489887, 0.0016893815, -485496.16, -17156.082, 0.0, 5.0172286, 4.945771 
1.0285704e+2, 2.571562e+2, -436162.22, -547256.0, -790.5806, -0.0000039243305, -0.0017090968, -436156.6, -16287.121, 0.0, 5.0172644, 4.945669 
1.0285811e+2, 2.6210043e+2, -391508.25, -508769.13, -735.0048, -0.0000060133516, 0.001692797, -391503.63, -20087.744, 0.0, 5.017302, 4.941826 
1.0285923e+2, 2.670426e+2, -341808.8, -458897.5, -721.61536, -0.000007708592, -0.0016129877, -341804.38, -18821.93, 0.0, 5.017342, 4.941971 
1.0286038e+2, 2.7198297e+2, -297420.53, -421186.94, -653.8066, -0.000008298608, 0.0017190233, -297417.06, -22850.207, 0.0, 5.017384, 4.937815 
1.0286159e+2, 2.7692133e+2, -247361.94, -370562.13, -636.20123, -0.00001019628, -0.0019151691, -247358.66, -21187.496, 0.0, 5.0174294, 4.9382105 
1.0286284e+2, 2.8185785e+2, -203103.81, -333336.47, -558.218, -0.000011657694, 0.0022134066, -203101.42, -25308.473, 0.0, 5.017477, 4.933848 
1.0286416e+2, 2.8679234e+2, -152759.05, -282118.63, -534.577, -0.000014544523, -0.0025099015, -152756.83, -23321.768, 0.0, 5.0175285, 4.934439 
1.02865525e+2, 2.9172462e+2, -109725.625, -247946.55, -444.9436, -0.00001418178, 0.001768782, -109724.19, -28625.334, 0.0, 5.017582, 4.9289546 
1.02866985e+2, 2.9665446e+2, -59277.484, -196570.39, -416.47946, -0.00001539563, -0.00050088175, -59276.22, -26489.865, 0.0, 5.0176406, 4.929585 
1.02868475e+2, 3.0159116e+2, -18282.39, -133994.53, -304.68576, -0.000017204717, 0.0021737264, -18281.588, -18281.588, 0.0, 5.0177016, 4.9431906 
1.0287007e+2, 3.0653492e+2, -17026.867, -131387.94, -271.21762, -0.000023279366, -0.0052208155, -17026.225, -17026.225, 0.0, 5.017768, 4.9440994 
1.0287171e+2, 3.11496e+2, 21274.25, -41766.547, -139.24503, -0.00001591086, 0.0041051907, 21274.559, 21274.559, 0.0, 5.017837, 4.9768877 
1.0287345e+2, 3.1647384e+2, 23109.467, -37836.12, -98.91326, -0.000025925134, -0.0010092915, 23109.627, 23109.627, 0.0, 5.017911, 4.9783072 
1.0784358e+2, 1.2297583e+2, -1701735.1, -1738152.0, -54.074295, 0.0000018374416, 0.00093402824, -1701735.1, 33101.84, 0.0, 5.0161953, 4.992452 
1.078453e+2, 1.2796776e+2, -1654142.1, -1692259.8, -78.300285, -0.0000055407786, -0.003177195, -1654141.9, 31774.021, 0.0, 5.0162654, 4.991415 
1.0784693e+2, 1.3295832e+2, -1608775.1, -1650893.6, -215.67589, -0.0000019723022, 0.003576982, -1608774.0, 28234.365, 0.0, 5.0163307, 4.988798 
1.07848495e+2, 1.3794686e+2, -1560656.0, -1603937.5, -235.98868, -0.00000031084392, -0.0013106245, -1560654.8, 27466.16, 0.0, 5.0163918, 4.988104 
1.0784998e+2, 1.4293376e+2, -1515528.5, -1563134.3, -358.52454, -0.0000083495925, 0.00026210817, -1515525.9, 23723.41, 0.0, 5.016449, 4.9853344 
1.07851386e+2, 1.4791925e+2, -1467228.8, -1515820.3, -375.56146, -0.0000028190289, -0.0009212274, -1467225.9, 23165.527, 0.0, 5.0165033, 4.9847555 
1.07852735e+2, 1.5290287e+2, -1422156.4, -1475200.9, -485.41556, -0.000002555523, 0.0013189408, -1422151.9, 19399.908, 0.0, 5.0165534, 4.9819355 
1.07854016e+2, 1.5788484e+2, -1373807.8, -1427800.6, -499.5993, -0.000002379097, -0.0013017503, -1373803.1, 18925.49, 0.0, 5.0166006, 4.981377 
1.0785525e+2, 1.628651e+2, -1328768.3, -1387317.5, -595.6851, -0.0000024886644, 0.001264134, -1328762.3, 15159.919, 0.0, 5.016645, 4.9784894 
1.0785643e+2, 1.6784362e+2, -1280312.8, -1339713.4, -607.29083, -0.000001949782, -0.001169861, -1280306.6, 14825.803, 0.0, 5.0166864, 4.9779873 
1.0785757e+2, 1.7282046e+2, -1235317.5, -1299396.4, -688.9403, 0.000000462588, 0.001152508, -1235310.1, 11049.3955, 0.0, 5.0167255, 4.9750204 
1.0785865e+2, 1.7779554e+2, -1186781.6, -1251646.0, -697.8971, 0.000001513816, -0.0011994294, -1186774.1, 10829.484, 0.0, 5.0167623, 4.974556 
1.078597e+2, 1.8276896e+2, -1141802.1, -1211448.4, -764.0169, 0.00000045369953, 0.001258014, -1141793.8, 7070.667, 0.0, 5.0167975, 4.971528 
1.0786073e+2, 1.8774052e+2, -1093198.8, -1163584.9, -771.6856, 0.0000011185532, -0.0012892628, -1093190.3, 6952.539, 0.0, 5.016831, 4.9710903 
1.0786172e+2, 1.9271044e+2, -1048233.94, -1123506.6, -820.50256, 0.000004443705, 0.0013173898, -1048225.0, 3212.5764, 0.0, 5.0168624, 4.9679947 
1.0786268e+2, 1.976785e+2, -999551.1, -1075508.3, -827.2517, 0.0000027825263, -0.0012974334, -999542.1, 3208.441, 0.0, 5.016893, 4.96759 
1.07863635e+2, 2.0264493e+2, -954588.0, -1035534.5, -858.4939, 0.000003895887, 0.0013170331, -954578.9, -499.1611, 0.0, 5.0169225, 4.964438 
1.0786457e+2, 2.0760943e+2, -905846.75, -987450.75, -864.08704, 0.0000029381697, -0.0013325401, -905837.6, -410.04456, 0.0, 5.016951, 4.964049 
1.078655e+2, 2.1257229e+2, -860874.75, -947568.6, -878.6068, 0.000004383148, 0.0013841871, -860865.9, -4074.2698, 0.0, 5.01698, 4.960837 
1.07866414e+2, 2.175332e+2, -812062.94, -899378.3, -882.42914, 0.000004811312, -0.0014186801, -812054.0, -3879.3296, 0.0, 5.017009, 4.96047 
1.07867345e+2, 2.2249241e+2, -767228.5, -859913.6, -876.7575, 0.000001377087, 0.0014382529, -767220.2, -7645.837, 0.0, 5.0170374, 4.957088 
1.0786828e+2, 2.2744958e+2, -718352.94, -811639.0, -880.3435, 0.000003216367, -0.0013861763, -718344.6, -7350.58, 0.0, 5.0170665, 4.9567356 
1.0786923e+2, 2.324051e+2, -673380.0, -771998.7, -860.14105, 0.0000010178237, 0.0014764222, -673372.5, -10942.414, 0.0, 5.017096, 4.9533873 
1.078702e+2, 2.3735857e+2, -624421.7, -723599.0, -858.4165, 0.0000016478833, -0.0016367255, -624414.25, -10528.218, 0.0, 5.0171266, 4.953063 
1.0787118e+2, 2.4231039e+2, -579447.06, -684087.94, -828.1004, -0.0000008163312, 0.0017209738, -579440.5, -14082.38, 0.0, 5.0171576, 4.9496374 
1.078722e+2, 2.4726015e+2, -530383.3, -635515.1, -822.7953, -0.000002899529, -0.001673249, -530376.9, -13526.2295, 0.0, 5.01719, 4.949358 
1.0787324e+2, 2.522082e+2, -485506.47, -596368.1, -777.7609, -0.0000022862, 0.0016925157, -485501.0, -17141.328, 0.0, 5.017224, 4.945778 
1.07874304e+2, 2.5715417e+2, -436167.16, -547242.75, -768.58264, -0.000003974937, -0.0017062934, -436161.84, -16272.804, 0.0, 5.0172596, 4.945676 
1.07875414e+2, 2.6209843e+2, -391511.25, -508750.38, -709.9962, -0.000006902002, 0.0016949635, -391506.94, -20071.572, 0.0, 5.017297, 4.9418344 
1.0787657e+2, 2.670406e+2, -341812.25, -458878.56, -696.1967, -0.000008363256, -0.0016099646, -341808.1, -18806.277, 0.0, 5.017337, 4.94198 
1.0787776e+2, 2.7198103e+2, -297422.25, -421162.88, -624.83075, -0.000008770692, 0.0017215483, -297419.1, -22832.943, 0.0, 5.017379, 4.937826 
1.0787902e+2, 2.7691934e+2, -247364.13, -370537.9, -606.6557, -0.000010587823, -0.0019127103, -247361.13, -21170.797, 0.0, 5.0174236, 4.9382215 
1.0788032e+2, 2.8185594e+2, -203104.11, -333306.63, -524.67755, -0.000011927345, 0.0022162322, -203102.0, -25289.984, 0.0, 5.017471, 4.9338613 
1.0788169e+2, 2.867904e+2, -152759.7, -282088.3, -500.2526, -0.000015931293, -0.0025073765, -152757.77, -23303.766, 0.0, 5.017522, 4.9344525 
1.0788311e+2, 2.9172269e+2, -109727.414, -247917.69, -406.02112, -0.000014837517, 0.0017709495, -109726.23, -28608.57, 0.0, 5.0175757, 4.9289675 
1.0788462e+2, 2.9665256e+2, -59280.004, -196542.06, -376.53342, -0.000014364273, -0.0004975845, -59278.97, -26473.943, 0.0, 5.017634, 4.929598 
1.0788618e+2, 3.0158925e+2, -18282.297, -133958.98, -259.7597, -0.000017973742, 0.0021768727, -18281.713, -18281.713, 0.0, 5.017695, 4.9432063 
1.0788784e+2, 3.0653304e+2, -17026.701, -131351.05, -225.0673, -0.000025656154, -0.005219033, -17026.26, -17026.26, 0.0, 5.0177608, 4.944116 
1.0788955e+2, 3.1149414e+2, 21278.379, -41719.414, -87.997025, -0.000015662257, 0.004106678, 21278.502, 21278.502, 0.0, 5.0178294, 4.976908 
1.0789136e+2, 3.1647202e+2, 23114.01, -37786.402, -46.325783, -0.00002763385, -0.0010060057, 23114.045, 23114.045, 0.0, 5.0179033, 4.9783287 
1.1285981e+2, 1.2297398e+2, -1701563.4, -1738119.1, -109.09515, 0.0000033405674, 0.00093654246, -1701563.0, 33291.98, 0.0, 5.0162635, 4.9924293 
1.128616e+2, 1.279659e+2, -1653979.9, -1692231.4, -135.60527, -0.000004530346, -0.003174537, -1653979.4, 31954.865, 0.0, 5.0163307, 4.991392 
1.12863295e+2, 1.3295643e+2, -1608620.4, -1650865.4, -280.80923, -0.00000048725866, 0.0035772107, -1608618.5, 28408.492, 0.0, 5.016392, 4.988777 
1.1286491e+2, 1.3794495e+2, -1560511.3, -1603914.0, -303.1408, 0.00000059691337, -0.0013079572, -1560509.1, 27630.441, 0.0, 5.0164504, 4.988083 
1.1286645e+2, 1.4293182e+2, -1515392.3, -1563111.3, -432.67343, -0.0000070848732, 0.00026505464, -1515388.3, 23879.875, 0.0, 5.0165043, 4.9853153 
1.12867914e+2, 1.479173e+2, -1467103.1, -1515802.3, -451.41064, -0.0000017171591, -0.00091920083, -1467099.0, 23311.543, 0.0, 5.0165544, 4.984737 
1.1286931e+2, 1.529009e+2, -1422039.1, -1475183.0, -567.59106, -0.0000016128753, 0.001320207, -1422033.1, 19537.992, 0.0, 5.016601, 4.981919 
1.1287064e+2, 1.5788285e+2, -1373701.8, -1427788.0, -583.18854, -0.000001722537, -0.0012998193, -1373695.5, 19052.57, 0.0, 5.0166445, 4.98136 
1.12871915e+2, 1.628631e+2, -1328671.3, -1387304.8, -684.876, -0.000001459892, 0.0012661242, -1328663.3, 15278.471, 0.0, 5.016685, 4.9784746 
1.1287314e+2, 1.6784161e+2, -1280227.8, -1339706.1, -697.61206, -0.0000006051165, -0.0011682359, -1280219.6, 14932.592, 0.0, 5.0167227, 4.9779725 
1.1287431e+2, 1.7281844e+2, -1235240.5, -1299388.4, -784.1478, 0.0000006002721, 0.0011543169, -1235230.9, 11148.468, 0.0, 5.016758, 4.9750075 
1.12875424e+2, 1.777935e+2, -1186715.9, -1251643.1, -794.0688, 0.000002079152, -0.0011975364, -1186706.1, 10917.489, 0.0, 5.016791, 4.9745436 
1.1287651e+2, 1.8276688e+2, -1141747.3, -1211446.0, -864.1787, 0.0000015962631, 0.0012590926, -1141736.5, 7147.939, 0.0, 5.0168214, 4.9715176 
1.1287756e+2, 1.8773846e+2, -1093155.8, -1163587.3, -872.7373, 0.0000015855358, -0.0012864292, -1093144.9, 7018.157, 0.0, 5.0168505, 4.9710803 
1.1287858e+2, 1.9270837e+2, -1048199.5, -1123508.0, -924.53436, 0.0000049252067, 0.0013182032, -1048188.1, 3269.7615, 0.0, 5.016878, 4.967987 
1.12879574e+2, 1.9767644e+2, -999530.6, -1075516.8, -932.04315, 0.0000038652142, -0.0012961463, -999519.2, 3251.755, 0.0, 5.016904, 4.967582 
1.1288056e+2, 2.0264284e+2, -954575.44, -1035540.3, -965.3786, 0.00000437086, 0.0013195386, -954563.94, -463.723, 0.0, 5.016929, 4.964433 
1.1288152e+2, 2.0760734e+2, -905846.75, -987462.25, -971.279, 0.0000030621118, -0.0013310033, -905835.2, -387.11508, 0.0, 5.0169535, 4.964044 
1.1288248e+2, 2.1257019e+2, -860885.2, -947579.7, -986.4407, 0.000005373619, 0.0013856037, -860874.0, -4061.8347, 0.0, 5.016978, 4.960834 
1.12883426e+2, 2.175311e+2, -812084.2, -899394.44, -990.6299, 0.0000061532846, -0.0014164142, -812073.0, -3877.6877, 0.0, 5.0170026, 4.960468 
1.1288438e+2, 2.2249031e+2, -767261.7, -859936.5, -984.9585, 0.0000014252139, 0.0014399508, -767251.2, -7656.2, 0.0, 5.0170274, 4.9570847 
1.1288534e+2, 2.2744748e+2, -718397.5, -811667.0, -988.6623, 0.0000039851384, -0.001384886, -718387.0, -7372.329, 0.0, 5.017052, 4.9567323 
1.1288632e+2, 2.3240298e+2, -673429.9, -772017.3, -968.15594, 0.000002187447, 0.0014785063, -673420.4, -10969.627, 0.0, 5.0170774, 4.953389 
1.12887315e+2, 2.3735645e+2, -624484.0, -723622.9, -966.36365, 0.0000024099297, -0.0016342311, -624474.56, -10567.875, 0.0, 5.0171037, 4.953065 
1.1288833e+2, 2.4230829e+2, -579518.25, -684109.8, -934.75024, 0.00000012491006, 0.0017224177, -579509.9, -14131.166, 0.0, 5.0171304, 4.949642 
1.12889364e+2, 2.4725804e+2, -530466.9, -635542.2, -928.81995, -0.0000018585479, -0.0016718854, -530458.7, -13587.479, 0.0, 5.017158, 4.9493628 
1.12890445e+2, 2.522061e+2, -485599.5, -596394.25, -881.2683, -0.0000010147716, 0.0016950723, -485592.5, -17212.316, 0.0, 5.0171876, 4.945785 
1.1289155e+2, 2.571521e+2, -436271.16, -547273.2, -871.379, -0.0000027415338, -0.0017040222, -436264.3, -16354.835, 0.0, 5.017219, 4.9456835 
1.1289269e+2, 2.6209635e+2, -391623.7, -508779.7, -809.5251, -0.0000054746242, 0.0016965321, -391618.1, -20162.377, 0.0, 5.0172524, 4.941844 
1.1289388e+2, 2.6703858e+2, -341935.44, -458912.1, -794.78455, -0.000006467579, -0.0016078259, -341930.06, -18907.97, 0.0, 5.017288, 4.94199 
1.1289511e+2, 2.7197894e+2, -297553.84, -421195.47, -719.4905, -0.000007280136, 0.0017236591, -297549.66, -22943.348, 0.0, 5.017326, 4.9378376 
1.12896405e+2, 2.769173e+2, -247505.72, -370574.25, -699.96826, -0.000008662108, -0.0019105709, -247501.73, -21291.363, 0.0, 5.017367, 4.9382334 
1.1289776e+2, 2.8185388e+2, -203253.23, -333341.13, -613.4231, -0.000009516511, 0.002218298, -203250.34, -25418.42, 0.0, 5.0174108, 4.933875 
1.1289918e+2, 2.867884e+2, -152918.44, -282126.2, -587.28394, -0.000014358984, -0.0025056752, -152915.77, -23441.988, 0.0, 5.017458, 4.934467 
1.1290065e+2, 2.9172066e+2, -109896.35, -247960.84, -487.8061, -0.000012564219, 0.0017725059, -109894.625, -28757.33, 0.0, 5.017508, 4.9289813 
1.1290222e+2, 2.966506e+2, -59457.906, -196588.98, -456.3218, -0.000010712887, -0.00049502705, -59456.387, -26631.854, 0.0, 5.0175624, 4.9296117 
1.1290383e+2, 3.0158728e+2, -18465.258, -134001.27, -332.5797, -0.000015753378, 0.0021795677, -18464.3, -18464.3, 0.0, 5.01762, 4.943223 
1.12905554e+2, 3.065311e+2, -17218.03, -131395.5, -295.4539, -0.000024388026, -0.0052175457, -17217.266, -17217.266, 0.0, 5.0176826, 4.9441333 
1.12907335e+2, 3.1149217e+2, 21085.395, -41754.64, -149.49861, -0.000010976578, 0.004107315, 21085.752, 21085.752, 0.0, 5.0177484, 4.97693 
1.1290922e+2, 3.164701e+2, 22915.191, -37821.684, -104.94614, -0.000023256482, -0.0010039671, 22915.373, 22915.373, 0.0, 5.0178194, 4.9783516 
1.1787607e+2, 1.2297207e+2, -1701598.0, -1738191.0, -63.444206, 0.0000023959792, 0.00093798764, -1701597.9, 33275.883, 0.0, 5.016264, 4.9924054 
1.1787793e+2, 1.2796396e+2, -1654014.4, -1692302.6, -90.4799, -0.000005299269, -0.0031721496, -1654014.1, 31939.121, 0.0, 5.0163307, 4.991369 
1.1787968e+2, 1.3295448e+2, -1608652.6, -1650931.6, -241.99603, -0.0000008021145, 0.0035760966, -1608651.3, 28394.89, 0.0, 5.016392, 4.988755 
1.17881365e+2, 1.3794297e+2, -1560543.8, -1603979.8, -264.83847, -0.00000073528616, -0.0013058217, -1560542.1, 27616.943, 0.0, 5.0164504, 4.9880614 
1.1788295e+2, 1.4292982e+2, -1515422.5, -1563171.9, -399.89072, -0.000007180767, 0.00026751703, -1515419.1, 23868.688, 0.0, 5.016504, 4.9852953 
1.17884465e+2, 1.4791527e+2, -1467133.6, -1515862.6, -418.94785, -0.0000019050824, -0.000918039, -1467130.0, 23300.365, 0.0, 5.016554, 4.984717 
1.1788591e+2, 1.5289886e+2, -1422067.3, -1475237.9, -540.1093, -0.0000028498139, 0.0013210425, -1422061.8, 19529.328, 0.0, 5.0166, 4.9819007 
1.1788729e+2, 1.578808e+2, -1373730.0, -1427842.4, -555.9111, -0.0000027064464, -0.0012985036, -1373724.3, 19043.92, 0.0, 5.0166435, 4.9813423 
1.178886e+2, 1.6286102e+2, -1328696.9, -1387352.9, -661.9985, -0.0000018527753, 0.0012677175, -1328689.4, 15272.643, 0.0, 5.016684, 4.9784594 
1.1788985e+2, 1.6783953e+2, -1280253.8, -1339754.3, -674.68634, -0.00000039254965, -0.0011671729, -1280246.1, 14926.542, 0.0, 5.0167212, 4.9779572 
1.1789106e+2, 1.7281634e+2, -1235264.0, -1299430.3, -764.8394, -0.00000080425355, 0.0011556351, -1235254.9, 11145.168, 0.0, 5.0167565, 4.974994 
1.1789222e+2, 1.777914e+2, -1186739.6, -1251684.8, -775.02985, -0.00000036132008, -0.0011952766, -1186730.4, 10914.08, 0.0, 5.016789, 4.97453 
1.1789333e+2, 1.8276475e+2, -1141768.5, -1211481.5, -847.95355, 0.000002401501, 0.00125928, -1141758.3, 7147.144, 0.0, 5.0168195, 4.9715066 
1.1789441e+2, 1.8773633e+2, -1093176.9, -1163621.4, -856.34, 0.000001437463, -0.0012849335, -1093166.5, 7017.6084, 0.0, 5.016848, 4.97107 
1.1789546e+2, 1.9270623e+2, -1048218.0, -1123535.5, -910.70337, 0.0000024438843, 0.0013195169, -1048207.0, 3271.9878, 0.0, 5.0168753, 4.967979 
1.1789648e+2, 1.9767427e+2, -999550.4, -1075545.9, -917.999, 0.0000028695756, -0.0012936232, -999539.3, 3252.8428, 0.0, 5.016901, 4.967573 
1.1789748e+2, 2.0264067e+2, -954591.5, -1035560.25, -952.54694, 0.0000036615827, 0.0013206054, -954580.3, -458.85696, 0.0, 5.0169263, 4.9644275 
1.1789848e+2, 2.0760517e+2, -905863.56, -987482.1, -958.7629, 0.0000033248327, -0.0013310213, -905852.3, -382.9301, 0.0, 5.01695, 4.964039 
1.17899455e+2, 2.1256801e+2, -860899.6, -947593.3, -973.63605, 0.0000031716352, 0.001388492, -860888.75, -4055.249, 0.0, 5.0169744, 4.960831 
1.1790042e+2, 2.1752891e+2, -812099.06, -899408.1, -977.77527, 0.000003727585, -0.0014132803, -812088.1, -3871.4565, 0.0, 5.016999, 4.9604645 
1.1790141e+2, 2.2248814e+2, -767277.56, -859951.8, -971.83655, 0.0000022247875, 0.0014409849, -767267.4, -7650.9805, 0.0, 5.017023, 4.9570813 
1.1790239e+2, 2.274453e+2, -718413.75, -811682.44, -975.5003, 0.0000028376874, -0.0013838294, -718403.56, -7367.437, 0.0, 5.0170484, 4.956729 
1.179034e+2, 2.324008e+2, -673439.9, -772017.75, -954.44586, 0.00000094523335, 0.0014813415, -673430.6, -10958.445, 0.0, 5.017073, 4.9533906 
1.1790442e+2, 2.3735428e+2, -624494.7, -723623.25, -952.383, 0.0000015857568, -0.0016313535, -624485.56, -10557.445, 0.0, 5.017099, 4.953067 
1.1790545e+2, 2.4230611e+2, -579526.0, -684102.3, -919.37225, -0.00000089677167, 0.0017239297, -579517.94, -14117.819, 0.0, 5.017125, 4.949647 
1.17906526e+2, 2.4725588e+2, -530475.06, -635534.5, -913.21124, -0.000002147323, -0.0016701517, -530467.1, -13574.587, 0.0, 5.017153, 4.9493675 
1.1790762e+2, 2.5220394e+2, -485605.44, -596380.4, -863.15314, -0.0000016653606, 0.0016979676, -485598.72, -17197.268, 0.0, 5.0171824, 4.945792 
1.1790877e+2, 2.5714993e+2, -436277.4, -547258.75, -852.948, -0.000003910925, -0.0017013584, -436270.88, -16340.197, 0.0, 5.0172133, 4.945691 
1.17909946e+2, 2.620942e+2, -391627.97, -508759.47, -788.0223, -0.0000056340573, 0.0016985073, -391622.66, -20145.828, 0.0, 5.0172462, 4.9418535 
1.1791117e+2, 2.670364e+2, -341940.22, -458891.7, -772.9126, -0.0000061906353, -0.001605511, -341935.13, -18892.023, 0.0, 5.017282, 4.9419994 
1.17912434e+2, 2.719768e+2, -297556.8, -421169.5, -693.91815, -0.00000829645, 0.001726391, -297552.9, -22925.697, 0.0, 5.0173197, 4.9378495 
1.1791378e+2, 2.769152e+2, -247509.19, -370547.94, -673.7883, -0.000009182743, -0.001907681, -247505.48, -21274.322, 0.0, 5.01736, 4.938246 
1.1791517e+2, 2.8185177e+2, -203254.66, -333308.7, -583.16425, -0.000009517334, 0.0022207673, -203252.05, -25399.455, 0.0, 5.0174036, 4.93389 
1.17916636e+2, 2.867863e+2, -152920.25, -282093.28, -556.2622, -0.0000150992555, -0.0025036146, -152917.86, -23423.566, 0.0, 5.017451, 4.9344816 
1.1791815e+2, 2.917186e+2, -109899.445, -247929.5, -451.93723, -0.000012788664, 0.0017746005, -109897.96, -28740.293, 0.0, 5.0175004, 4.9289956 
1.1791978e+2, 2.966485e+2, -59461.79, -196558.11, -419.44846, -0.000009938464, -0.0004920912, -59460.504, -26615.742, 0.0, 5.0175548, 4.929626 
1.1792146e+2, 3.0158523e+2, -18466.348, -133962.63, -290.67392, -0.000016280457, 0.0021829046, -18465.617, -18465.617, 0.0, 5.017612, 4.94324 
1.1792324e+2, 3.0652905e+2, -17218.955, -131355.2, -252.28802, -0.000025881616, -0.005215404, -17218.398, -17218.398, 0.0, 5.0176744, 4.9441514 
1.17925085e+2, 3.1149018e+2, 21088.738, -41703.223, -100.8118, -0.000009937504, 0.0041080187, 21088.9, 21088.9, 0.0, 5.01774, 4.9769526 
1.1792704e+2, 3.1646812e+2, 22918.75, -37767.676, -54.960045, -0.000025451942, -0.0010007205, 22918.8, 22918.8, 0.0, 5.0178103, 4.9783754 
1.2289237e+2, 1.22970074e+2, -1701408.1, -1738154.4, -116.012794, 0.0000037459845, 0.00094042503, -1701407.8, 33485.527, 0.0, 5.0163393, 4.9923806 
1.22894295e+2, 1.2796195e+2, -1653835.0, -1692270.8, -145.27303, -0.000004119924, -0.0031694195, -1653834.5, 32138.533, 0.0, 5.0164027, 4.991344 
1.2289612e+2, 1.3295244e+2, -1608481.5, -1650900.0, -304.89886, 0.0000006076059, 0.0035761062, -1608479.4, 28586.777, 0.0, 5.016461, 4.9887323 
1.2289785e+2, 1.379409e+2, -1560383.9, -1603953.6, -329.7297, 0.000000033365755, -0.0013034556, -1560381.4, 27797.885, 0.0, 5.016515, 4.9880385 
1.2289949e+2, 1.4292774e+2, -1515271.5, -1563145.9, -472.02808, -0.0000055531327, 0.0002708015, -1515266.9, 24041.387, 0.0, 5.0165644, 4.985275 
1.2290105e+2, 1.4791317e+2, -1466994.5, -1515842.4, -492.82913, -0.0000005512949, -0.0009159819, -1466989.5, 23461.447, 0.0, 5.016611, 4.9846964 
1.2290254e+2, 1.5289675e+2, -1421937.5, -1475217.6, -620.47253, -0.00000206642, 0.0013220322, -1421930.4, 19681.586, 0.0, 5.016653, 4.981882 
1.2290395e+2, 1.5787867e+2, -1373612.6, -1427827.9, -637.7007, -0.0000014816225, -0.00129654, -1373605.1, 19184.08, 0.0, 5.016692, 4.9813237 
1.22905314e+2, 1.6285886e+2, -1328589.0, -1387338.3, -749.6312, -0.0000009409679, 0.0012696445, -1328579.5, 15403.753, 0.0, 5.0167284, 4.9784427 
1.229066e+2, 1.6783735e+2, -1280158.5, -1339745.5, -763.54034, 0.0000008364829, -0.0011653272, -1280148.8, 15045.249, 0.0, 5.0167613, 4.977941 
1.2290784e+2, 1.7281413e+2, -1235178.9, -1299421.1, -858.39154, 0.00000000021524231, 0.0011569187, -1235167.4, 11254.131, 0.0, 5.016792, 4.9749804 
1.2290902e+2, 1.7778918e+2, -1186667.6, -1251681.8, -869.6221, -0.00000044524194, -0.0011932038, -1186656.0, 11010.018, 0.0, 5.0168204, 4.974517 
1.2291017e+2, 1.8276255e+2, -1141706.0, -1211477.5, -946.4334, 0.0000038692333, 0.0012608101, -1141693.1, 7233.9424, 0.0, 5.016846, 4.9714956 
1.2291127e+2, 1.877341e+2, -1093127.9, -1163623.8, -955.1963, 0.0000026829673, -0.0012842395, -1093114.9, 7090.966, 0.0, 5.0168705, 4.9710584 
1.2291235e+2, 1.9270399e+2, -1048178.8, -1123536.9, -1013.45996, 0.000002414406, 0.0013216971, -1048165.2, 3335.7212, 0.0, 5.016893, 4.9679704 
1.2291339e+2, 1.9767202e+2, -999523.6, -1075553.0, -1021.52765, 0.0000032546982, -0.0012913366, -999509.94, 3304.2524, 0.0, 5.0169144, 4.9675646 
1.2291441e+2, 2.0263842e+2, -954576.75, -1035567.1, -1058.4408, 0.0000044200724, 0.0013212985, -954562.94, -419.358, 0.0, 5.016934, 4.9644217 
1.2291542e+2, 2.076029e+2, -905865.8, -987496.94, -1065.8392, 0.000005075216, -0.0013296817, -905851.94, -360.36758, 0.0, 5.0169525, 4.9640326 
1.2291642e+2, 2.1256575e+2, -860910.8, -947604.4, -1080.2817, 0.0000031385964, 0.0013908062, -860897.4, -4041.696, 0.0, 5.0169716, 4.960829 
1.2291742e+2, 2.1752664e+2, -812121.2, -899424.25, -1084.1272, 0.0000036703673, -0.0014117523, -812107.75, -3868.8594, 0.0, 5.016992, 4.960462 
1.2291842e+2, 2.2248586e+2, -767312.5, -859977.06, -1078.4208, 0.0000042735624, 0.0014417669, -767299.94, -7661.2837, 0.0, 5.017013, 4.9570775 
1.2291943e+2, 2.2744302e+2, -718459.5, -811712.6, -1082.826, 0.000003515643, -0.0013814734, -718446.94, -7388.5044, 0.0, 5.017034, 4.9567246 
1.2292045e+2, 2.3239852e+2, -673490.8, -772035.25, -1062.4258, 0.0000017803885, 0.0014828667, -673479.4, -10984.845, 0.0, 5.017054, 4.9533935 
1.22921504e+2, 2.37352e+2, -624562.2, -723648.0, -1059.4568, 0.0000025689214, -0.0016297263, -624550.9, -10600.468, 0.0, 5.0170736, 4.9530697 
1.2292257e+2, 2.4230385e+2, -579604.94, -684126.44, -1024.1292, 0.0000002252106, 0.001725572, -579594.9, -14172.539, 0.0, 5.017095, 4.949652 
1.2292366e+2, 2.472536e+2, -530566.06, -635563.6, -1017.4678, -0.00000027319868, -0.0016684285, -530556.2, -13641.499, 0.0, 5.017118, 4.9493732 
1.2292479e+2, 2.5220168e+2, -485706.03, -596408.4, -964.8542, -0.0000006636328, 0.0016995838, -485697.63, -17274.04, 0.0, 5.017143, 4.9458003 
1.2292595e+2, 2.5714767e+2, -436390.25, -547291.6, -954.0458, -0.0000033245856, -0.001699514, -436382.03, -16429.303, 0.0, 5.0171695, 4.9456987 
1.2292716e+2, 2.6209193e+2, -391750.28, -508791.25, -885.9041, -0.0000034910054, 0.0017001599, -391743.6, -20244.777, 0.0, 5.0171976, 4.941864 
1.2292842e+2, 2.6703417e+2, -342074.13, -458927.88, -869.8175, -0.0000036920321, -0.0016041124, -342067.66, -19002.684, 0.0, 5.017229, 4.9420104 
1.2292972e+2, 2.7197462e+2, -297700.0, -421204.84, -786.77875, -0.000007196817, 0.0017282364, -297695.0, -23046.021, 0.0, 5.017262, 4.9378624 
1.2293111e+2, 2.76913e+2, -247663.45, -370587.34, -765.26575, -0.000007234255, -0.0019056572, -247658.69, -21405.89, 0.0, 5.0172987, 4.9382586 
1.2293253e+2, 2.818496e+2, -203417.22, -333346.1, -669.91113, -0.0000067849232, 0.0022222414, -203413.77, -25539.686, 0.0, 5.017338, 4.933905 
1.2293404e+2, 2.867841e+2, -153093.16, -282134.28, -641.304, -0.000013183306, -0.0025024042, -153089.97, -23574.342, 0.0, 5.0173807, 4.9344974 
1.22935615e+2, 2.9171643e+2, -110083.54, -247976.2, -531.5184, -0.00001025677, 0.0017759751, -110081.49, -28902.635, 0.0, 5.0174265, 4.9290113 
1.22937284e+2, 2.9664636e+2, -59656.09, -196609.03, -497.0405, -0.0000064124615, -0.00049015385, -59654.285, -26788.484, 0.0, 5.0174766, 4.9296412 
1.2293902e+2, 3.015831e+2, -18666.332, -134008.67, -361.1442, -0.000013599269, 0.0021851505, -18665.201, -18665.201, 0.0, 5.01753, 4.943259 
1.2294087e+2, 3.0652696e+2, -17427.63, -131403.34, -320.2768, -0.000023857276, -0.005213931, -17426.73, -17426.73, 0.0, 5.017589, 4.9441705 
1.22942775e+2, 3.114881e+2, 20878.176, -41741.383, -159.75366, -0.0000050943813, 0.004107405, 20878.584, 20878.584, 0.0, 5.017651, 4.9769764 
1.22944795e+2, 3.1646603e+2, 22700.852, -37806.402, -111.01375, -0.000020061421, -0.0009982816, 22701.055, 22701.055, 0.0, 5.0177183, 4.9784 
1.2790872e+2, 1.22968026e+2, -1701445.5, -1738232.9, -73.19958, 0.0000021881294, 0.00094194914, -1701445.4, 33468.016, 0.0, 5.01634, 4.9923544 
1.279107e+2, 1.2795986e+2, -1653872.3, -1692348.6, -102.95353, -0.0000049108876, -0.0031679813, -1653872.0, 32121.355, 0.0, 5.0164027, 4.991318 
1.2791258e+2, 1.3295034e+2, -1608516.4, -1650972.1, -269.1429, 0.000000018415887, 0.0035756333, -1608514.8, 28572.057, 0.0, 5.016461, 4.9887085 
1.2791435e+2, 1.3793877e+2, -1560419.0, -1604025.6, -294.4445, -0.0000008672221, -0.0013023894, -1560417.1, 27783.01, 0.0, 5.016515, 4.9880147 
1.2791605e+2, 1.4292559e+2, -1515304.3, -1563212.3, -442.48227, -0.0000058610535, 0.00027346436, -1515300.3, 24029.078, 0.0, 5.0165644, 4.985253 
1.2791766e+2, 1.47911e+2, -1467027.5, -1515908.3, -463.6432, -0.000001274126, -0.00091446086, -1467023.1, 23449.098, 0.0, 5.01661, 4.9846745 
1.2791918e+2, 1.5289456e+2, -1421968.0, -1475277.3, -596.4123, -0.000002889426, 0.0013218216, -1421961.4, 19672.018, 0.0, 5.0166526, 4.9818625 
1.2792064e+2, 1.5787645e+2, -1373643.5, -1427887.4, -613.83344, -0.0000015449149, -0.0012951934, -1373636.5, 19174.375, 0.0, 5.016691, 4.9813046 
1.2792203e+2, 1.6285662e+2, -1328617.4, -1387391.5, -730.27704, -0.0000020216592, 0.0012707616, -1328608.3, 15396.8125, 0.0, 5.016727, 4.9784255 
1.2792337e+2, 1.678351e+2, -1280187.0, -1339798.0, -744.24945, -0.00000012097239, -0.0011636601, -1280177.6, 15038.354, 0.0, 5.01676, 4.977924 
1.2792464e+2, 1.7281188e+2, -1235204.4, -1299466.5, -842.8175, -0.00000021432156, 0.0011572946, -1235193.4, 11250.352, 0.0, 5.0167904, 4.974966 
1.2792584e+2, 1.7778692e+2, -1186693.8, -1251727.4, -854.1614, -0.0000013270138, -0.0011922102, -1186682.6, 11005.765, 0.0, 5.016818, 4.974502 
1.2792702e+2, 1.8276025e+2, -1141729.0, -1211515.0, -934.0318, 0.0000028486468, 0.0012629075, -1141716.5, 7233.123, 0.0, 5.016844, 4.9714837 
1.2792814e+2, 1.877318e+2, -1093152.1, -1163663.0, -942.6423, 0.0000019766312, -0.0012848835, -1093139.5, 7088.906, 0.0, 5.0168676, 4.9710464 
1.2792924e+2, 1.9270168e+2, -1048200.25, -1123568.8, -1003.1421, 0.0000014631087, 0.0013242667, -1048186.9, 3336.6958, 0.0, 5.01689, 4.967961 
1.279303e+2, 1.9766971e+2, -999544.94, -1075583.4, -1011.18854, 0.000001710356, -0.0012897603, -999531.5, 3305.4404, 0.0, 5.016911, 4.967556 
1.2793136e+2, 2.0263608e+2, -954595.9, -1035591.56, -1050.4402, 0.0000031988006, 0.0013213126, -954582.25, -415.828, 0.0, 5.0169306, 4.964415 
1.2793237e+2, 2.0760056e+2, -905885.6, -987521.75, -1057.8029, 0.0000046711493, -0.0013271497, -905871.94, -357.4515, 0.0, 5.0169487, 4.964026 
1.279334e+2, 2.1256341e+2, -860925.6, -947617.0, -1070.6927, 0.0000015461763, 0.0013925545, -860912.4, -4033.7651, 0.0, 5.016968, 4.960826 
1.2793441e+2, 2.175243e+2, -812136.8, -899437.2, -1075.1438, 0.0000021498138, -0.0014115545, -812123.56, -3861.7341, 0.0, 5.016988, 4.9604597 
1.2793544e+2, 2.224835e+2, -767331.7, -859996.25, -1069.1442, 0.0000035733935, 0.0014426692, -767319.3, -7657.663, 0.0, 5.0170083, 4.9570727 
1.2793647e+2, 2.2744067e+2, -718479.44, -811732.0, -1072.833, 0.0000019714346, -0.0013774909, -718467.1, -7385.6245, 0.0, 5.017029, 4.9567204 
1.2793751e+2, 2.3239617e+2, -673501.75, -772033.5, -1053.2931, 0.00000065568804, 0.0014835111, -673490.44, -10972.896, 0.0, 5.017049, 4.9533963 
1.2793857e+2, 2.3734966e+2, -624573.56, -723646.2, -1050.2683, 0.000001353648, -0.0016286981, -624562.44, -10589.034, 0.0, 5.0170684, 4.9530725 
1.2793966e+2, 2.423015e+2, -579614.06, -684118.4, -1012.4335, -0.00000048833454, 0.001728145, -579604.25, -14158.928, 0.0, 5.0170894, 4.9496574 
1.2794077e+2, 2.4725127e+2, -530575.75, -635555.3, -1005.56384, -0.00000012696769, -0.0016658871, -530566.1, -13628.463, 0.0, 5.0171123, 4.949379 
1.2794192e+2, 2.5219935e+2, -485713.44, -596393.6, -950.59314, -0.000001871029, 0.0017008286, -485705.28, -17258.824, 0.0, 5.0171366, 4.945808 
1.2794313e+2, 2.5714535e+2, -436398.22, -547276.7, -939.47833, -0.000004913884, -0.0016974772, -436390.25, -16414.732, 0.0, 5.017163, 4.9457073 
1.2794437e+2, 2.6208964e+2, -391756.06, -508769.8, -868.1533, -0.000003060531, 0.0017025535, -391749.63, -20228.12, 0.0, 5.017191, 4.9418745 
1.2794565e+2, 2.6703188e+2, -342080.34, -458905.9, -851.67834, -0.0000030896667, -0.0016024768, -342074.13, -18986.57, 0.0, 5.017222, 4.942021 
1.2794699e+2, 2.719723e+2, -297704.38, -421177.0, -764.9144, -0.0000083422165, 0.001730452, -297699.63, -23028.182, 0.0, 5.017255, 4.9378757 
1.279484e+2, 2.769107e+2, -247668.33, -370559.03, -742.74854, -0.0000075748294, -0.0019031588, -247663.84, -21388.697, 0.0, 5.017291, 4.938272 
1.2794986e+2, 2.8184733e+2, -203419.94, -333311.16, -643.1139, -0.000006409273, 0.002224112, -203416.75, -25520.465, 0.0, 5.0173297, 4.933921 
1.2795143e+2, 2.8678185e+2, -153096.36, -282098.88, -613.7498, -0.000013739242, -0.0025007448, -153093.45, -23555.77, 0.0, 5.017372, 4.9345136 
1.2795304e+2, 2.917142e+2, -110088.08, -247942.27, -499.0236, -0.000010213888, 0.0017779365, -110086.27, -28885.525, 0.0, 5.017418, 4.929027 
1.2795477e+2, 2.9664412e+2, -59661.48, -196575.55, -463.57162, -0.0000055441383, -0.0004878126, -59659.91, -26772.377, 0.0, 5.017468, 4.929657 
1.2795655e+2, 3.015809e+2, -18668.803, -133966.95, -322.35382, -0.000013420973, 0.0021877352, -18667.9, -18667.9, 0.0, 5.017521, 4.9432774 
1.2795846e+2, 3.0652478e+2, -17429.928, -131359.75, -280.15457, -0.00002463833, -0.005211611, -17429.24, -17429.24, 0.0, 5.0175796, 4.9441905 
1.2796043e+2, 3.1148595e+2, 20880.53, -41685.71, -113.9031, -0.000004594063, 0.004107096, 20880.736, 20880.736, 0.0, 5.017641, 4.977001 
1.2796251e+2, 3.164639e+2, 22703.635, -37747.797, -63.949986, -0.000020572757, -0.0009951633, 22703.703, 22703.703, 0.0, 5.0177083, 4.9784265 
1.329251e+2, 1.22965895e+2, -1701237.0, -1738192.1, -123.13515, 0.0000032831445, 0.0009441158, -1701236.6, 33697.633, 0.0, 5.0164223, 4.992327 
1.3292713e+2, 1.2795772e+2, -1653675.3, -1692313.4, -155.07199, -0.0000034233326, -0.003165506, -1653674.6, 32339.773, 0.0, 5.016482, 4.991291 
1.3292907e+2, 1.3294815e+2, -1608328.4, -1650936.9, -329.72766, 0.0000010163059, 0.0035752675, -1608325.9, 28782.293, 0.0, 5.0165358, 4.9886837 
1.329309e+2, 1.3793656e+2, -1560243.4, -1603996.5, -357.05173, 0.00000046794239, -0.0013004092, -1560240.5, 27981.191, 0.0, 5.016586, 4.98799 
1.3293265e+2, 1.4292336e+2, -1515138.3, -1563183.1, -512.5031, -0.000004490622, 0.00027677993, -1515132.8, 24218.346, 0.0, 5.016631, 4.98523 
1.3293432e+2, 1.4790875e+2, -1466874.5, -1515885.5, -535.4739, -0.00000021720864, -0.0009127932, -1466868.6, 23625.629, 0.0, 5.0166726, 4.984652 
1.3293587e+2, 1.5289229e+2, -1421825.3, -1475254.5, -674.9151, -0.0000014370074, 0.0013225029, -1421816.8, 19838.96, 0.0, 5.0167103, 4.981842 
1.3293736e+2, 1.5787415e+2, -1373514.0, -1427870.9, -693.83167, 0.000000004452363, -0.0012931222, -1373505.3, 19328.156, 0.0, 5.016745, 4.981284 
1.3293879e+2, 1.6285431e+2, -1328498.4, -1387374.9, -816.04517, -0.0000012647376, 0.0012721102, -1328487.1, 15540.64, 0.0, 5.016776, 4.978408 
1.3294014e+2, 1.6783278e+2, -1280081.6, -1339787.6, -831.21796, 0.0000005646813, -0.0011622364, -1280070.0, 15168.822, 0.0, 5.016804, 4.977906 
1.3294144e+2, 1.7280953e+2, -1235110.5, -1299455.8, -934.92017, 0.0000008521997, 0.0011587227, -1235096.9, 11369.77, 0.0, 5.0168295, 4.974951 
1.3294268e+2, 1.7778455e+2, -1186614.9, -1251723.8, -947.1035, 0.00000035210363, -0.001190201, -1186601.1, 11110.363, 0.0, 5.0168524, 4.9744873 
1.3294388e+2, 1.8275787e+2, -1141659.0, -1211509.3, -1031.1632, 0.0000028868737, 0.0012639579, -1141643.8, 7329.0474, 0.0, 5.016874, 4.971472 
1.3294502e+2, 1.877294e+2, -1093096.9, -1163664.8, -1040.7261, 0.0000021059502, -0.0012849871, -1093081.5, 7170.306, 0.0, 5.0168924, 4.971034 
1.3294613e+2, 1.9269928e+2, -1048156.7, -1123569.5, -1103.7168, 0.0000031473155, 0.0013269816, -1048140.5, 3406.5798, 0.0, 5.0169096, 4.9679513 
1.3294722e+2, 1.976673e+2, -999515.56, -1075590.1, -1112.0045, 0.0000025616355, -0.0012875347, -999499.3, 3361.1934, 0.0, 5.016926, 4.967547 
1.329483e+2, 2.0263366e+2, -954577.44, -1035596.94, -1153.6544, 0.0000036595277, 0.0013210811, -954561.0, -370.94424, 0.0, 5.01694, 4.964409 
1.3294932e+2, 2.0759815e+2, -905880.6, -987533.7, -1160.4318, 0.000004915897, -0.0013258941, -905864.1, -325.9391, 0.0, 5.0169535, 4.96402 
1.3295037e+2, 2.1256098e+2, -860936.44, -947639.94, -1175.6669, 0.0000028471427, 0.001394129, -860920.5, -4018.0667, 0.0, 5.016968, 4.9608183 
1.329514e+2, 2.1752186e+2, -812164.06, -899467.7, -1186.8914, 0.0000037504756, -0.0014101873, -812147.94, -3862.217, 0.0, 5.016982, 4.960452 
1.3295244e+2, 2.2248106e+2, -767363.94, -860009.44, -1180.8689, 0.0000036069239, 0.0014445434, -767348.9, -7663.2866, 0.0, 5.0169964, 4.9570737 
1.3295348e+2, 2.2743823e+2, -718527.56, -811752.4, -1178.1389, 0.0000032364571, -0.0013754535, -718512.7, -7407.3076, 0.0, 5.0170116, 4.9567213 
1.3295454e+2, 2.3239374e+2, -673562.06, -772055.6, -1156.6694, 0.0000020751095, 0.0014836947, -673548.5, -11007.043, 0.0, 5.0170264, 4.9533987 
1.3295563e+2, 2.3734722e+2, -624646.9, -723674.06, -1154.4175, 0.0000018189573, -0.0016277564, -624633.44, -10636.129, 0.0, 5.017041, 4.9530754 
1.3295673e+2, 2.4229906e+2, -579697.6, -684144.3, -1114.9318, 0.0000010923178, 0.0017297532, -579685.7, -14216.541, 0.0, 5.017057, 4.949663 
1.3295788e+2, 2.4724884e+2, -530673.4, -635587.06, -1107.9884, 0.0000017406417, -0.0016639486, -530661.7, -13700.262, 0.0, 5.0170746, 4.949384 
1.3295904e+2, 2.5219694e+2, -485821.44, -596423.7, -1050.7141, -0.0000009969021, 0.0017014223, -485811.44, -17341.293, 0.0, 5.017094, 4.9458165 
1.3296025e+2, 2.5714293e+2, -436519.6, -547312.06, -1038.9731, -0.0000037417215, -0.0016964395, -436509.84, -16510.703, 0.0, 5.0171156, 4.945716 
1.3296151e+2, 2.6208726e+2, -391888.0, -508804.03, -964.26337, -0.0000010463793, 0.0017041295, -391880.03, -20335.006, 0.0, 5.0171385, 4.941886 
1.3296284e+2, 2.670295e+2, -342224.94, -458944.78, -946.80927, -0.00000089991295, -0.0016014939, -342217.28, -19106.3, 0.0, 5.0171647, 4.942033 
1.3296421e+2, 2.7196994e+2, -297859.25, -421215.06, -855.93665, -0.000006776697, 0.0017316628, -297853.3, -23158.555, 0.0, 5.0171924, 4.937889 
1.3296565e+2, 2.7690834e+2, -247835.13, -370601.38, -832.3324, -0.000005407871, -0.001901739, -247829.48, -21531.184, 0.0, 5.0172243, 4.9382863 
1.3296716e+2, 2.8184497e+2, -203595.88, -333351.44, -727.83044, -0.0000035672367, 0.0022251469, -203591.8, -25672.506, 0.0, 5.017258, 4.9339375 
1.3296875e+2, 2.8677955e+2, -153283.73, -282143.06, -696.7121, -0.000011524841, -0.0024999222, -153279.97, -23719.453, 0.0, 5.0172963, 4.9345307 
1.3297041e+2, 2.917119e+2, -110287.64, -247992.6, -576.30634, -0.00000761219, 0.0017786106, -110285.23, -29061.814, 0.0, 5.0173373, 4.929044 
1.3297218e+2, 2.9664186e+2, -59871.992, -196630.36, -538.91327, -0.000002020976, -0.00048667213, -59869.867, -26959.826, 0.0, 5.017383, 4.9296737 
1.3297403e+2, 3.015786e+2, -18885.537, -134016.53, -390.3946, -0.000010069774, 0.002189481, -18884.213, -18884.213, 0.0, 5.017432, 4.9432974 
1.3297598e+2, 3.0652252e+2, -17656.541, -131411.7, -345.60648, -0.000022067907, -0.0052100304, -17655.492, -17655.492, 0.0, 5.0174866, 4.9442115 
1.32978e+2, 3.114837e+2, 20651.496, -41727.133, -170.07085, -0.0000005545698, 0.004105215, 20651.959, 20651.959, 0.0, 5.0175447, 4.977027 
1.3298017e+2, 3.164617e+2, 22466.857, -37789.707, -117.320366, -0.000014989797, -0.0009932029, 22467.086, 22467.086, 0.0, 5.017608, 4.9784536 
1.3794151e+2, 1.2296371e+2, -1701277.0, -1738277.1, -83.31492, 0.0000012093435, 0.00094500964, -1701276.8, 33678.895, 0.0, 5.016423, 4.992299 
1.3794363e+2, 1.279555e+2, -1653715.4, -1692397.9, -115.7138, -0.000003850209, -0.0031637663, -1653715.0, 32321.15, 0.0, 5.0164824, 4.991263 
1.379456e+2, 1.3294592e+2, -1608365.9, -1651015.1, -297.2087, -0.0000002600021, 0.0035732966, -1608363.8, 28766.299, 0.0, 5.016536, 4.9886575 
1.379475e+2, 1.379343e+2, -1560281.3, -1604074.6, -324.94543, 0.00000016953041, -0.0012991909, -1560278.9, 27965.05, 0.0, 5.016586, 4.9879637 
1.3794927e+2, 1.4292106e+2, -1515173.5, -1563255.0, -486.39145, -0.0000051589, 0.00027908277, -1515168.6, 24204.975, 0.0, 5.0166306, 4.985206 
1.3795097e+2, 1.4790644e+2, -1466910.3, -1515957.3, -509.78375, -0.0000011635834, -0.00091262703, -1466905.0, 23612.002, 0.0, 5.016672, 4.984628 
1.379526e+2, 1.5288994e+2, -1421858.3, -1475319.4, -654.4707, -0.0000015920276, 0.0013225337, -1421850.3, 19828.31, 0.0, 5.01671, 4.981821 
1.3795412e+2, 1.578718e+2, -1373547.5, -1427935.5, -673.60986, -0.00000051593383, -0.0012916997, -1373539.1, 19317.357, 0.0, 5.0167437, 4.981263 
1.3795556e+2, 1.6285193e+2, -1328528.9, -1387432.0, -800.3533, -0.0000020595721, 0.0012723929, -1328518.0, 15533.086, 0.0, 5.0167747, 4.9783893 
1.3795695e+2, 1.6783038e+2, -1280112.6, -1339844.9, -815.79144, -0.00000034173047, -0.0011623665, -1280101.5, 15160.8955, 0.0, 5.016803, 4.977888 
1.3795827e+2, 1.7280711e+2, -1235138.5, -1299505.4, -923.52454, -0.000000013507327, 0.0011600564, -1235125.3, 11365.141, 0.0, 5.0168276, 4.974935 
1.3795954e+2, 1.7778212e+2, -1186643.3, -1251772.9, -935.29663, 0.0000013463992, -0.0011880518, -1186629.9, 11105.414, 0.0, 5.01685, 4.9744716 
1.3796073e+2, 1.8275543e+2, -1141684.4, -1211550.5, -1022.6977, 0.00000065045936, 0.0012630976, -1141669.4, 7327.418, 0.0, 5.016871, 4.971459 
1.3796191e+2, 1.8772694e+2, -1093122.9, -1163706.0, -1032.4642, -0.00000041890598, -0.0012854958, -1093107.8, 7168.1523, 0.0, 5.0168896, 4.9710217 
1.3796304e+2, 1.9269681e+2, -1048179.1, -1123601.8, -1097.6277, 0.0000038352105, 0.0013290953, -1048163.2, 3408.1143, 0.0, 5.0169063, 4.9679418 
1.3796414e+2, 1.9766483e+2, -999538.8, -1075622.5, -1106.1306, 0.0000020594523, -0.0012852413, -999522.7, 3362.073, 0.0, 5.016922, 4.9675374 
1.3796523e+2, 2.0263118e+2, -954596.75, -1035619.6, -1149.6353, 0.0000018426176, 0.0013201335, -954580.44, -365.9992, 0.0, 5.0169363, 4.9644027 
1.3796628e+2, 2.0759566e+2, -905900.6, -987557.1, -1156.1814, 0.0000016424704, -0.0013261043, -905884.3, -321.69504, 0.0, 5.016949, 4.9640136 
1.3796733e+2, 2.125585e+2, -860965.0, -947680.44, -1170.8682, 0.0000027774906, 0.0013953345, -860949.2, -4022.28, 0.0, 5.016963, 4.9608064 
1.3796836e+2, 2.1751936e+2, -812193.7, -899508.4, -1181.747, 0.0000041341023, -0.0014081303, -812177.7, -3867.3396, 0.0, 5.0169773, 4.96044 
1.3796943e+2, 2.2247854e+2, -767373.3, -860003.9, -1175.1592, -0.00000011927133, 0.0014470847, -767358.4, -7648.1855, 0.0, 5.016991, 4.957078 
1.3797049e+2, 2.2743571e+2, -718538.1, -811747.25, -1172.685, 0.0000027833526, -0.001375017, -718523.4, -7393.403, 0.0, 5.017006, 4.9567256 
1.3797158e+2, 2.3239122e+2, -673576.7, -772057.9, -1151.7196, 0.0000015859542, 0.0014840468, -673563.2, -10997.168, 0.0, 5.01702, 4.953401 
1.3797267e+2, 2.3734471e+2, -624661.9, -723676.44, -1149.2795, -0.0000002908489, -0.0016263785, -624648.56, -10626.706, 0.0, 5.017035, 4.9530773 
1.3797379e+2, 2.4229658e+2, -579709.06, -684137.44, -1107.5863, 0.0000008547504, 0.0017309836, -579697.3, -14203.595, 0.0, 5.0170507, 4.9496684 
1.3797495e+2, 2.4724634e+2, -530685.5, -635580.1, -1100.37, 0.0000012669828, -0.001661787, -530673.94, -13688.0625, 0.0, 5.017068, 4.94939 
1.3797614e+2, 2.5219443e+2, -485830.63, -596408.5, -1040.4989, -0.000002062965, 0.0017023602, -485820.8, -17326.268, 0.0, 5.017087, 4.945825 
1.3797738e+2, 2.5714046e+2, -436529.34, -547296.44, -1028.5221, -0.0000038120686, -0.0016953264, -436519.78, -16496.336, 0.0, 5.017108, 4.9457245 
1.3797866e+2, 2.6208478e+2, -391895.38, -508781.3, -950.57935, -0.0000014928365, 0.0017060174, -391887.66, -20318.4, 0.0, 5.017131, 4.9418974 
1.3798001e+2, 2.6702705e+2, -342232.84, -458921.44, -932.6681, -0.0000012481443, -0.001599981, -342225.4, -19090.324, 0.0, 5.017156, 4.9420443 
1.379814e+2, 2.7196747e+2, -297865.2, -421185.4, -837.97766, -0.000006859266, 0.0017331064, -297859.47, -23140.758, 0.0, 5.0171843, 4.9379034 
1.3798288e+2, 2.7690592e+2, -247841.61, -370571.16, -813.6637, -0.000005471046, -0.0019001737, -247836.22, -21514.086, 0.0, 5.0172153, 4.938301 
1.3798442e+2, 2.8184256e+2, -203600.06, -333314.03, -704.769, -0.0000033051715, 0.0022265967, -203596.23, -25653.264, 0.0, 5.017249, 4.9339547 
1.3798605e+2, 2.8677714e+2, -153288.42, -282104.97, -672.88074, -0.000011630906, -0.0024986237, -153284.9, -23700.889, 0.0, 5.017287, 4.9345484 
1.3798775e+2, 2.917095e+2, -110293.85, -247956.17, -547.3103, -0.0000076348015, 0.0017794035, -110291.67, -29044.922, 0.0, 5.0173273, 4.929061 
1.3798957e+2, 2.9663947e+2, -59879.184, -196594.45, -508.93982, -0.0000011706719, -0.00048537963, -59877.29, -26944.08, 0.0, 5.017373, 4.929691 
1.3799146e+2, 3.015763e+2, -18889.572, -133971.63, -354.9502, -0.0000092234, 0.002191745, -18888.479, -18888.479, 0.0, 5.0174217, 4.9433184 
1.3799347e+2, 3.065202e+2, -17660.42, -131364.73, -308.8172, -0.000022202325, -0.0052075754, -17659.58, -17659.58, 0.0, 5.0174756, 4.944233 
1.3799556e+2, 3.114814e+2, 20652.543, -41667.3, -127.08187, -0.00000009275014, 0.0041036196, 20652.8, 20652.8, 0.0, 5.0175333, 4.977054 
1.3799778e+2, 3.1645945e+2, 22468.453, -37726.63, -73.08782, -0.000013856269, -0.0009909406, 22468.541, 22468.541, 0.0, 5.0175967, 4.978482 
1.4295797e+2, 1.22961454e+2, -1701049.1, -1738232.1, -130.47023, 0.0000017247119, 0.0009466448, -1701048.6, 33929.08, 0.0, 5.0165133, 4.9922695 
1.4296015e+2, 1.2795322e+2, -1653500.1, -1692359.0, -165.09895, -0.0000016413734, -0.0031614802, -1653499.4, 32559.164, 0.0, 5.016568, 4.991234 
1.4296219e+2, 1.329436e+2, -1608160.3, -1650976.1, -355.31778, -0.000000022787678, 0.0035719818, -1608157.3, 28995.443, 0.0, 5.016618, 4.988631 
1.4296412e+2, 1.3793196e+2, -1560089.0, -1604042.1, -385.09192, 0.0000014369466, -0.0012973432, -1560085.6, 28181.207, 0.0, 5.016663, 4.987937 
1.4296594e+2, 1.429187e+2, -1514991.9, -1563222.6, -554.2292, -0.0000034406264, 0.0002818366, -1514985.5, 24411.22, 0.0, 5.0167036, 4.985182 
1.4296769e+2, 1.4790404e+2, -1466742.9, -1515931.9, -579.497, 0.0000002620641, -0.000911612, -1466736.0, 23804.418, 0.0, 5.016741, 4.984604 
1.4296933e+2, 1.5288752e+2, -1421701.6, -1475293.9, -731.0193, -0.0000004137745, 0.0013230684, -1421691.8, 20010.525, 0.0, 5.016773, 4.9817986 
1.4297089e+2, 1.5786935e+2, -1373405.6, -1427916.9, -751.694, 0.0000006722304, -0.0012902301, -1373395.3, 19485.12, 0.0, 5.0168023, 4.981241 
1.4297237e+2, 1.6284947e+2, -1328398.5, -1387413.0, -884.4128, -0.0000007512839, 0.0012735684, -1328385.3, 15689.876, 0.0, 5.016828, 4.97837 
1.4297377e+2, 1.6782789e+2, -1279997.9, -1339833.4, -901.1019, 0.0000010003619, -0.0011616334, -1279984.3, 15302.3, 0.0, 5.016851, 4.977869 
1.429751e+2, 1.7280461e+2, -1235034.4, -1299492.6, -1014.0888, 0.00000061676644, 0.0011613837, -1235018.4, 11496.397, 0.0, 5.016871, 4.974919 
1.4297639e+2, 1.777796e+2, -1186554.0, -1251767.0, -1026.7511, 0.0000023165192, -0.0011867296, -1186537.9, 11222.032, 0.0, 5.016888, 4.974456 
1.4297763e+2, 1.827529e+2, -1141608.6, -1211544.8, -1118.5541, 0.0000017057165, 0.0012632689, -1141590.8, 7430.81, 0.0, 5.0169034, 4.9714456 
1.4297882e+2, 1.8772441e+2, -1093062.8, -1163706.9, -1129.2362, 0.0000002056122, -0.0012828595, -1093044.6, 7256.122, 0.0, 5.0169163, 4.9710083 
1.4297996e+2, 1.9269426e+2, -1048129.94, -1123600.8, -1197.4957, 0.000004687148, 0.0013290334, -1048110.94, 3485.3066, 0.0, 5.016928, 4.967932 
1.4298108e+2, 1.9766226e+2, -999507.0, -1075630.3, -1206.6514, 0.0000030946637, -0.0012854307, -999487.9, 3422.011, 0.0, 5.0169377, 4.9675274 
1.4298216e+2, 2.0262861e+2, -954573.75, -1035624.7, -1253.0518, 0.0000026097584, 0.0013226849, -954554.4, -314.79666, 0.0, 5.0169473, 4.964396 
1.4298323e+2, 2.0759308e+2, -905889.94, -987567.94, -1261.0061, 0.0000022411225, -0.0013243253, -905870.5, -282.6739, 0.0, 5.0169563, 4.964007 
1.4298429e+2, 2.125559e+2, -860975.1, -947706.6, -1275.2673, 0.0000037797954, 0.0013953473, -860956.4, -4004.175, 0.0, 5.016964, 4.9607973 
1.4298536e+2, 2.1751676e+2, -812222.3, -899543.06, -1283.2698, 0.000004876733, -0.0014075686, -812203.5, -3867.752, 0.0, 5.0169716, 4.9604306 
1.4298642e+2, 2.2247595e+2, -767406.06, -860015.06, -1276.7391, 0.00000074515197, 0.00144835, -767388.5, -7652.8223, 0.0, 5.016979, 4.95708 
1.4298749e+2, 2.2743312e+2, -718590.06, -811767.06, -1277.4924, 0.000004384583, -0.0013746022, -718572.56, -7417.1323, 0.0, 5.016987, 4.9567275 
1.4298858e+2, 2.3238863e+2, -673643.06, -772082.0, -1257.1603, 0.0000026154048, 0.0014855046, -673627.06, -11035.606, 0.0, 5.016996, 4.953404 
1.4298968e+2, 2.3734213e+2, -624740.4, -723705.75, -1253.5981, -0.00000014701745, -0.0016248841, -624724.5, -10677.309, 0.0, 5.017006, 4.95308 
1.4299081e+2, 2.4229397e+2, -579797.4, -684164.6, -1209.8367, 0.000002683826, 0.0017309615, -579783.4, -14264.324, 0.0, 5.0170164, 4.949674 
1.4299199e+2, 2.4724376e+2, -530789.4, -635613.8, -1201.9797, 0.0000033169797, -0.0016609255, -530775.56, -13764.419, 0.0, 5.0170283, 4.949396 
1.429932e+2, 2.5219187e+2, -485946.4, -596440.6, -1139.2477, -0.0000013172379, 0.0017033494, -485934.66, -17414.898, 0.0, 5.0170417, 4.945834 
1.4299445e+2, 2.571379e+2, -436659.53, -547334.2, -1126.518, -0.0000022690765, -0.0016946839, -436648.06, -16599.502, 0.0, 5.017057, 4.945734 
1.4299576e+2, 2.6208222e+2, -392036.8, -508817.72, -1044.9885, 0.0000005617885, 0.0017066699, -392027.44, -20433.2, 0.0, 5.0170746, 4.9419093 
1.4299713e+2, 2.6702452e+2, -342388.16, -458963.06, -1026.0645, 0.00000085363683, -0.0015991897, -342379.13, -19219.166, 0.0, 5.0170946, 4.942057 
1.4299855e+2, 2.7196497e+2, -298031.56, -421226.06, -927.129, -0.000004639187, 0.0017335995, -298024.6, -23281.11, 0.0, 5.017117, 4.9379187 
1.4300007e+2, 2.7690342e+2, -248021.1, -370616.47, -901.2906, -0.000003109163, -0.001899532, -248014.47, -21667.732, 0.0, 5.0171432, 4.9383163 
1.4300163e+2, 2.8184006e+2, -203789.53, -333357.25, -787.3727, -0.000000859572, 0.0022271273, -203784.75, -25817.344, 0.0, 5.0171723, 4.9339733 
1.430033e+2, 2.8677467e+2, -153490.22, -282152.22, -753.7377, -0.000008597169, -0.0024980798, -153485.8, -23877.516, 0.0, 5.0172048, 4.934567 
1.4300503e+2, 2.9170707e+2, -110508.914, -248010.03, -622.22925, -0.0000044476383, 0.0017792817, -110506.1, -29235.264, 0.0, 5.017241, 4.929079 
1.4300689e+2, 2.9663703e+2, -60106.15, -196653.19, -581.86584, 0.0000016057743, -0.0004852673, -60103.668, -27146.557, 0.0, 5.017282, 4.929709 
1.4300881e+2, 3.0157384e+2, -19123.34, -134024.77, -420.42966, -0.000006001581, 0.0021929794, -19121.803, -19121.803, 0.0, 5.017326, 4.9433403 
1.430109e+2, 3.0651778e+2, -17904.969, -131420.48, -371.7256, -0.000018518966, -0.0052062273, -17903.752, -17903.752, 0.0, 5.0173755, 4.944256 
1.4301303e+2, 3.1147903e+2, 20405.04, -41711.984, -180.4583, 0.000004488442, 0.0041004596, 20405.564, 20405.564, 0.0, 5.017429, 4.977082 
1.4301533e+2, 3.164571e+2, 22212.621, -37771.613, -123.68994, -0.000009225329, -0.0009893904, 22212.877, 22212.877, 0.0, 5.0174885, 4.9785113 
1.479745e+2, 1.2295915e+2, -1701091.6, -1738323.8, -93.81823, -0.0000007801165, 0.00094700325, -1701091.4, 33909.027, 0.0, 5.0165143, 4.992239 
1.4797671e+2, 1.2795088e+2, -1653542.9, -1692450.3, -128.88205, -0.0000009960522, -0.00316064, -1653542.4, 32539.078, 0.0, 5.016569, 4.9912033 
1.4797881e+2, 1.3294123e+2, -1608200.3, -1651060.8, -326.20724, -0.0000021792778, 0.0035694102, -1608197.9, 28978.135, 0.0, 5.0166183, 4.988602 
1.479808e+2, 1.3792956e+2, -1560129.5, -1604126.5, -356.42947, 0.0000003142538, -0.0012967377, -1560126.6, 28163.678, 0.0, 5.0166636, 4.987909 
1.4798266e+2, 1.4291628e+2, -1515029.8, -1563300.1, -531.7363, -0.0000031170632, 0.00028321202, -1515023.9, 24396.666, 0.0, 5.0167036, 4.985156 
1.4798442e+2, 1.479016e+2, -1466781.3, -1516009.4, -557.40063, 0.0000002444157, -0.0009115265, -1466774.9, 23789.5, 0.0, 5.0167403, 4.984578 
1.479861e+2, 1.5288505e+2, -1421737.1, -1475363.8, -714.4085, -0.0000018458212, 0.0013223664, -1421727.6, 19998.857, 0.0, 5.0167723, 4.9817758 
1.479877e+2, 1.5786687e+2, -1373441.6, -1427986.8, -735.3656, -0.00000027777622, -0.0012903926, -1373431.8, 19473.11, 0.0, 5.0168014, 4.9812183 
1.479892e+2, 1.6284695e+2, -1328431.3, -1387474.6, -872.87933, -0.00000091217055, 0.0012740954, -1328418.4, 15681.481, 0.0, 5.0168266, 4.97835 
1.4799061e+2, 1.6782536e+2, -1280031.4, -1339895.3, -889.61163, 0.000001182764, -0.0011613943, -1280018.1, 15293.308, 0.0, 5.016849, 4.977849 
1.4799199e+2, 1.7280206e+2, -1235064.6, -1299546.3, -1006.64624, -0.00000070831095, 0.0011613858, -1235048.9, 11490.903, 0.0, 5.0168686, 4.9749017 
1.4799328e+2, 1.7777704e+2, -1186585.0, -1251820.5, -1019.47974, -0.00000023198245, -0.0011876601, -1186569.0, 11216.067, 0.0, 5.0168858, 4.9744387 
1.4799453e+2, 1.8275031e+2, -1141636.4, -1211590.0, -1114.5052, 0.0000024610883, 0.0012631863, -1141618.6, 7428.2607, 0.0, 5.0169005, 4.9714317 
1.4799573e+2, 1.877218e+2, -1093090.6, -1163750.6, -1124.9814, 0.00000019353035, -0.0012781536, -1093072.6, 7253.627, 0.0, 5.0169134, 4.9709954 
1.4799689e+2, 1.9269165e+2, -1048154.44, -1123635.6, -1196.0557, 0.0000018114864, 0.0013257373, -1048135.5, 3486.4155, 0.0, 5.0169244, 4.967922 
1.4799802e+2, 1.9765964e+2, -999533.2, -1075667.4, -1204.9403, 0.0000016054399, -0.0012891595, -999514.1, 3421.4958, 0.0, 5.016934, 4.967517 
1.4799911e+2, 2.0262598e+2, -954597.0, -1035653.6, -1252.2404, 0.0000016593859, 0.001327677, -954577.6, -312.23914, 0.0, 5.016943, 4.964388 
1.4800018e+2, 2.0759045e+2, -905914.0, -987596.7, -1260.4548, 0.0000022655895, -0.0013216393, -905894.56, -280.8489, 0.0, 5.0169516, 4.9639993 
1.4800125e+2, 2.1255325e+2, -861000.5, -947736.4, -1275.5905, 0.0000013790001, 0.001393457, -860981.75, -4003.5176, 0.0, 5.0169587, 4.960789 
1.4800233e+2, 2.175141e+2, -812248.56, -899573.2, -1283.5173, 0.0000014719275, -0.0014084624, -812229.75, -3867.9417, 0.0, 5.016966, 4.960423 
1.4800338e+2, 2.224733e+2, -767423.2, -860023.5, -1276.7473, 0.0000016408638, 0.001448538, -767405.56, -7643.8193, 0.0, 5.016973, 4.9570794 
1.4800447e+2, 2.2743046e+2, -718607.94, -811775.56, -1277.3927, 0.00000359222, -0.001374526, -718590.44, -7408.9404, 0.0, 5.0169806, 4.9567275 
1.4800557e+2, 2.3238598e+2, -673657.56, -772081.25, -1255.501, 0.00000081442903, 0.0014877383, -673641.56, -11024.069, 0.0, 5.016989, 4.953407 
1.4800668e+2, 2.3733947e+2, -624755.75, -723704.94, -1251.7886, -0.0000020460072, -0.0016229937, -624739.94, -10666.688, 0.0, 5.016999, 4.9530835 
1.4800784e+2, 2.4229132e+2, -579810.44, -684156.9, -1206.9154, 0.000002394778, 0.001730315, -579796.5, -14251.484, 0.0, 5.0170093, 4.9496803 
1.4800902e+2, 2.4724112e+2, -530803.1, -635605.9, -1198.9048, 0.000003830024, -0.0016607149, -530789.4, -13752.3, 0.0, 5.0170207, 4.9494023 
1.4801024e+2, 2.5218922e+2, -485957.34, -596424.6, -1133.4652, -0.0000028538188, 0.0017050866, -485945.72, -17400.094, 0.0, 5.0170336, 4.945843 
1.480115e+2, 2.5713527e+2, -436671.06, -547317.6, -1120.39, -0.000003278447, -0.0016937124, -436659.72, -16585.385, 0.0, 5.0170484, 4.9457436 
1.4801283e+2, 2.620796e+2, -392045.84, -508793.53, -1035.5416, 0.00000083017727, 0.00170701, -392036.66, -20416.756, 0.0, 5.0170655, 4.9419217 
1.4801422e+2, 2.670219e+2, -342397.9, -458938.5, -1016.1608, 0.00000090361493, -0.0015981075, -342389.06, -19203.563, 0.0, 5.0170856, 4.9420695 
1.4801568e+2, 2.7196237e+2, -298039.2, -421194.53, -913.29425, -0.000004825369, 0.001734204, -298032.4, -23263.521, 0.0, 5.0171075, 4.937934 
1.480172e+2, 2.7690083e+2, -248029.31, -370584.22, -886.7151, -0.00000309498, -0.0018987276, -248022.89, -21650.916, 0.0, 5.017133, 4.938332 
1.4801879e+2, 2.818375e+2, -203795.42, -333317.5, -768.2163, -0.0000012008784, 0.0022278628, -203790.88, -25798.379, 0.0, 5.017162, 4.933992 
1.4802049e+2, 2.8677213e+2, -153496.6, -282111.56, -733.8229, -0.000007716695, -0.002497165, -153492.4, -23859.234, 0.0, 5.0171943, 4.934586 
1.4802228e+2, 2.9170454e+2, -110516.93, -247971.05, -596.90735, -0.0000034716004, 0.0017794343, -110514.34, -29218.799, 0.0, 5.0172296, 4.9290977 
1.4802417e+2, 2.9663453e+2, -60115.285, -196614.7, -555.5538, 0.0000011678147, -0.00048509752, -60113.023, -27131.387, 0.0, 5.01727, 4.929728 
1.4802615e+2, 3.0157137e+2, -19129.244, -133976.83, -388.45978, -0.000005723133, 0.0021946284, -19127.932, -19127.932, 0.0, 5.017314, 4.9433627 
1.4802825e+2, 3.065153e+2, -17910.768, -131370.34, -338.40872, -0.000017025563, -0.0052043535, -17909.758, -17909.758, 0.0, 5.017363, 4.944279 
1.4803046e+2, 3.114766e+2, 20404.309, -41648.336, -140.49225, 0.0000064042392, 0.004097375, 20404.625, 20404.625, 0.0, 5.017416, 4.977111 
1.480328e+2, 3.1645468e+2, 22212.357, -37704.203, -82.39771, -0.0000094901, -0.0009863146, 22212.47, 22212.47, 0.0, 5.017475, 4.978542 
1.5299106e+2, 1.22956775e+2, -1700843.6, -1738274.0, -138.02913, -0.00000079355095, 0.00094838894, -1700843.1, 34180.57, 0.0, 5.016612, 4.992207 
1.5299334e+2, 1.2794848e+2, -1653308.5, -1692407.5, -175.30446, 0.0000018578147, -0.003159836, -1653307.6, 32797.4, 0.0, 5.0166626, 4.9911714 
1.5299547e+2, 1.329388e+2, -1607976.4, -1651017.6, -381.73608, -0.000002579986, 0.003568305, -1607973.0, 29226.848, 0.0, 5.0167074, 4.988573 
1.529975e+2, 1.379271e+2, -1559920.1, -1604090.6, -414.0169, 0.0000012197125, -0.0012956411, -1559916.3, 28398.238, 0.0, 5.016748, 4.9878798 
1.5299939e+2, 1.4291379e+2, -1514831.6, -1563264.3, -597.2884, -0.00000077642767, 0.0002850951, -1514824.3, 24620.668, 0.0, 5.016783, 4.9851294 
1.530012e+2, 1.4789908e+2, -1466598.6, -1515981.1, -624.83777, 0.0000018319723, -0.00091061945, -1466590.8, 23998.451, 0.0, 5.0168147, 4.9845514 
1.530029e+2, 1.528825e+2, -1421566.4, -1475335.3, -788.8965, -0.0000011742109, 0.0013221004, -1421554.8, 20196.68, 0.0, 5.0168414, 4.981752 
1.5300451e+2, 1.5786429e+2, -1373286.9, -1427966.0, -811.4199, 0.0000012198042, -0.0012899538, -1373274.9, 19655.184, 0.0, 5.0168653, 4.9811945 
1.5300605e+2, 1.6284437e+2, -1328288.6, -1387453.1, -955.2801, 0.0000002538372, 0.0012750938, -1328273.3, 15852.027, 0.0, 5.016885, 4.978329 
1.5300749e+2, 1.6782275e+2, -1279905.3, -1339881.8, -973.2923, 0.0000028225736, -0.0011599469, -1279889.5, 15447.581, 0.0, 5.016902, 4.977828 
1.5300888e+2, 1.7279942e+2, -1234950.8, -1299531.9, -1095.4888, 0.0000003603937, 0.0011613598, -1234932.3, 11633.401, 0.0, 5.016916, 4.974884 
1.5301019e+2, 1.7777438e+2, -1186487.8, -1251814.0, -1109.4539, -0.0000010668524, -0.0011880152, -1186468.9, 11342.198, 0.0, 5.0169272, 4.974421 
1.5301146e+2, 1.8274765e+2, -1141552.1, -1211582.5, -1208.8076, 0.000004772442, 0.0012645175, -1141531.3, 7541.7886, 0.0, 5.0169363, 4.9714174 
1.5301266e+2, 1.8771914e+2, -1093023.6, -1163751.0, -1219.6957, 0.00000249544, -0.0012758647, -1093002.5, 7350.011, 0.0, 5.016943, 4.970981 
1.5301383e+2, 1.9268896e+2, -1048099.3, -1123634.5, -1294.8949, 0.00000074211715, 0.0013247858, -1048077.1, 3571.1423, 0.0, 5.0169487, 4.9679112 
1.5301496e+2, 1.9765693e+2, -999494.1, -1075674.1, -1304.5978, 0.0000018343184, -0.0012897474, -999471.8, 3490.2842, 0.0, 5.0169525, 4.967506 
1.5301605e+2, 2.0262328e+2, -954571.3, -1035659.0, -1353.2108, 0.0000031843483, 0.0013301624, -954548.75, -256.74908, 0.0, 5.0169554, 4.9643803 
1.5301713e+2, 2.0758772e+2, -905907.1, -987610.8, -1361.5769, 0.0000042499887, -0.0013212163, -905884.44, -244.0711, 0.0, 5.0169573, 4.9639916 
1.530182e+2, 2.1255052e+2, -861011.3, -947759.25, -1377.8959, 0.0000011510385, 0.0013934459, -860989.44, -3984.4866, 0.0, 5.0169587, 4.9607816 
1.5301928e+2, 2.1751137e+2, -812276.44, -899603.9, -1385.9792, 0.0000013867532, -0.0014073284, -812254.44, -3865.8171, 0.0, 5.0169597, 4.9604154 
1.5302035e+2, 2.2247055e+2, -767458.2, -860040.56, -1379.3433, 0.0000040523987, 0.0014485297, -767437.7, -7649.061, 0.0, 5.016961, 4.9570794 
1.5302144e+2, 2.2742772e+2, -718659.75, -811800.1, -1380.2017, 0.0000040089785, -0.0013740386, -718639.3, -7430.972, 0.0, 5.0169625, 4.956727 
1.5302256e+2, 2.3238324e+2, -673722.44, -772103.8, -1357.4229, 0.0000017987143, 0.0014884493, -673703.75, -11059.375, 0.0, 5.016965, 4.95341 
1.5302366e+2, 2.3733672e+2, -624838.7, -723735.3, -1353.8257, -0.00000054599724, -0.0016224026, -624820.1, -10720.088, 0.0, 5.016968, 4.9530873 
1.5302482e+2, 2.4228859e+2, -579906.4, -684185.94, -1307.582, 0.000003512016, 0.0017304787, -579889.94, -14318.167, 0.0, 5.016972, 4.9496865 
1.5302601e+2, 2.4723838e+2, -530914.3, -635641.25, -1298.9868, 0.0000054532998, -0.0016602293, -530898.2, -13834.422, 0.0, 5.016978, 4.949409 
1.5302724e+2, 2.521865e+2, -486080.84, -596458.56, -1230.6405, -0.0000013855488, 0.0017054115, -486067.13, -17494.887, 0.0, 5.016985, 4.945853 
1.5302853e+2, 2.5713256e+2, -436810.13, -547357.6, -1216.7468, -0.0000015575366, -0.0016933441, -436796.75, -16695.9, 0.0, 5.016994, 4.9457536 
1.5302986e+2, 2.620769e+2, -392197.06, -508832.2, -1128.2919, 0.0000029857124, 0.0017070355, -392186.13, -20539.809, 0.0, 5.0170054, 4.9419346 
1.5303126e+2, 2.6701918e+2, -342564.0, -458982.7, -1107.7634, 0.0000030020267, -0.0015978031, -342553.44, -19341.672, 0.0, 5.0170197, 4.942083 
1.5303273e+2, 2.719597e+2, -298217.22, -421237.78, -1000.43713, -0.0000025691468, 0.0017343191, -298209.1, -23414.078, 0.0, 5.017036, 4.93795 
1.5303428e+2, 2.7689818e+2, -248221.53, -370632.44, -972.31036, -0.0000003031069, -0.0018987495, -248213.81, -21815.855, 0.0, 5.017056, 4.938349 
1.5303592e+2, 2.8183487e+2, -203998.66, -333363.7, -848.5718, 0.000001565174, 0.0022276384, -203993.1, -25974.793, 0.0, 5.0170794, 4.934011 
1.5303764e+2, 2.867695e+2, -153712.83, -282161.84, -812.3902, -0.0000047711624, -0.0024970616, -153707.69, -24048.91, 0.0, 5.0171065, 4.934606 
1.5303944e+2, 2.9170194e+2, -110747.55, -248028.39, -669.3489, -0.0000005106593, 0.0017787295, -110744.28, -29423.32, 0.0, 5.0171366, 4.929117 
1.530414e+2, 2.9663196e+2, -60359.004, -196677.31, -625.9954, 0.000004407068, -0.0004858527, -60356.13, -27349.268, 0.0, 5.0171723, 4.9297476 
1.530434e+2, 3.015688e+2, -19380.383, -134033.58, -451.20935, -0.0000015188187, 0.002195216, -19378.607, -19378.607, 0.0, 5.017211, 4.943386 
1.5304556e+2, 3.065128e+2, -18173.268, -131429.81, -398.54373, -0.000013786298, -0.0052031674, -18171.865, -18171.865, 0.0, 5.017256, 4.9443035 
1.5304781e+2, 3.1147408e+2, 20138.344, -41696.242, -190.93631, 0.000009901643, 0.004093359, 20138.934, 20138.934, 0.0, 5.017304, 4.977141 
1.5305021e+2, 3.164522e+2, 21937.156, -37752.242, -130.00543, -0.0000031594411, -0.0009854438, 21937.44, 21937.44, 0.0, 5.017359, 4.978574 
1.5800768e+2, 1.22954346e+2, -1700888.5, -1738372.3, -104.69962, -0.0000033778838, 0.0009484357, -1700888.3, 34159.203, 0.0, 5.0166135, 4.992174 
1.5800999e+2, 1.27946e+2, -1653354.1, -1692506.0, -142.41464, 0.000002838873, -0.0031613156, -1653353.5, 32775.6, 0.0, 5.016664, 4.9911385 
1.5801218e+2, 1.3293631e+2, -1608019.0, -1651108.4, -356.23373, -0.000005147455, 0.0035664474, -1608016.0, 29208.244, 0.0, 5.0167084, 4.9885426 
1.5801424e+2, 1.3792458e+2, -1559963.5, -1604181.5, -388.96112, 0.00000017232543, -0.0012961391, -1559960.0, 28379.16, 0.0, 5.016748, 4.987849 
1.5801618e+2, 1.4291124e+2, -1514872.0, -1563347.6, -578.64703, -0.00000028906197, 0.00028547156, -1514865.1, 24604.85, 0.0, 5.016783, 4.9851017 
1.5801802e+2, 1.478965e+2, -1466639.6, -1516064.4, -606.60065, 0.0000011526367, -0.0009108861, -1466632.3, 23982.2, 0.0, 5.016814, 4.9845243 
1.5801975e+2, 1.5287991e+2, -1421604.1, -1475410.3, -776.3338, -0.0000023353455, 0.0013203212, -1421593.0, 20183.986, 0.0, 5.016841, 4.9817276 
1.5802138e+2, 1.5786166e+2, -1373325.5, -1428041.3, -799.1346, 0.0000012856076, -0.0012908007, -1373313.9, 19641.895, 0.0, 5.016864, 4.98117 
1.5802294e+2, 1.6284172e+2, -1328324.0, -1387520.0, -948.01996, -0.0000009879666, 0.0012747225, -1328308.9, 15842.367, 0.0, 5.0168834, 4.9783077 
1.580244e+2, 1.6782008e+2, -1279941.4, -1339948.3, -966.0568, 0.0000022528743, -0.0011591149, -1279925.8, 15437.494, 0.0, 5.0169, 4.9778066 
1.5802579e+2, 1.7279674e+2, -1234983.4, -1299589.4, -1092.3488, 0.00000013260228, 0.0011596088, -1234964.9, 11627.146, 0.0, 5.016914, 4.974866 
1.5802711e+2, 1.7777167e+2, -1186521.3, -1251871.8, -1106.5924, -0.000003855978, -0.0011892826, -1186502.5, 11335.149, 0.0, 5.016925, 4.974403 
1.5802838e+2, 1.8274492e+2, -1141581.9, -1211630.5, -1209.3749, 0.0000049023424, 0.0012657552, -1141561.0, 7538.766, 0.0, 5.016933, 4.9714026 
1.580296e+2, 1.8771638e+2, -1093054.8, -1163800.3, -1219.936, 0.0000032158612, -0.0012776209, -1093033.8, 7345.7466, 0.0, 5.016939, 4.9709663 
1.5803078e+2, 1.926862e+2, -1048127.0, -1123674.4, -1297.6105, -0.0000025312977, 0.0013246769, -1048104.75, 3570.5415, 0.0, 5.0169444, 4.9678993 
1.5803191e+2, 1.9765416e+2, -999522.44, -1075713.4, -1307.158, -0.00000035457833, -0.0012884991, -999500.0, 3489.2158, 0.0, 5.016948, 4.9674945 
1.5803301e+2, 2.0262049e+2, -954595.75, -1035688.0, -1357.4359, 0.0000028559296, 0.0013290321, -954573.06, -253.86816, 0.0, 5.0169506, 4.9643726 
1.5803409e+2, 2.0758493e+2, -905932.94, -987640.7, -1365.9436, 0.0000037092502, -0.0013238392, -905910.1, -242.46167, 0.0, 5.016952, 4.9639835 
1.5803517e+2, 2.1254773e+2, -861038.5, -947790.2, -1382.8242, -0.0000014386217, 0.0013945084, -861016.5, -3984.1792, 0.0, 5.016953, 4.9607735 
1.5803625e+2, 2.1750857e+2, -812304.56, -899635.0, -1390.9004, 0.00000008864198, -0.001405371, -812282.4, -3866.3552, 0.0, 5.0169535, 4.9604073 
1.5803732e+2, 2.2246775e+2, -767477.8, -860051.1, -1384.0193, 0.0000034422262, 0.0014473218, -767457.1, -7641.0283, 0.0, 5.0169544, 4.9570785 
1.5803841e+2, 2.274249e+2, -718680.3, -811810.9, -1384.7776, 0.0000011375759, -0.0013733353, -718659.75, -7423.899, 0.0, 5.0169554, 4.9567266 
1.5803951e+2, 2.3238043e+2, -673739.5, -772104.75, -1360.7518, 0.000001094837, 0.0014877777, -673720.6, -11048.821, 0.0, 5.0169573, 4.9534135 
1.5804063e+2, 2.3733394e+2, -624856.7, -723736.4, -1357.0156, -0.00000012583396, -0.001623189, -624838.06, -10710.551, 0.0, 5.01696, 4.95309 
1.5804179e+2, 2.422858e+2, -579920.94, -684177.25, -1308.9689, 0.0000016478102, 0.0017313542, -579904.5, -14305.296, 0.0, 5.016964, 4.9496937 
1.5804298e+2, 2.472356e+2, -530929.7, -635632.3, -1300.2467, 0.000003950587, -0.0016593181, -530913.56, -13822.423, 0.0, 5.016969, 4.949416 
1.5804423e+2, 2.5218374e+2, -486093.44, -596441.3, -1229.4294, -0.0000012230487, 0.0017046483, -486079.75, -17480.262, 0.0, 5.016976, 4.9458632 
1.5804552e+2, 2.571298e+2, -436823.6, -547340.2, -1215.1302, -0.0000015652427, -0.0016931595, -436810.22, -16682.229, 0.0, 5.0169845, 4.945764 
1.5804686e+2, 2.6207417e+2, -392207.94, -508806.72, -1123.2561, 0.0000025071574, 0.00170726, -392197.13, -20523.762, 0.0, 5.0169954, 4.941948 
1.5804829e+2, 2.6701647e+2, -342575.53, -458956.44, -1102.2792, 0.0000026391317, -0.0015976728, -342565.1, -19326.416, 0.0, 5.0170093, 4.9420967 
1.5804978e+2, 2.7195698e+2, -298226.7, -421204.4, -990.9159, -0.0000025586592, 0.0017347072, -298218.7, -23396.922, 0.0, 5.0170255, 4.9379663 
1.5805134e+2, 2.7689543e+2, -248231.67, -370598.25, -962.02795, 0.00000020241717, -0.001898677, -248224.11, -21799.564, 0.0, 5.017045, 4.9383655 
1.58053e+2, 2.818322e+2, -204006.39, -333321.6, -833.53033, 0.00000217169, 0.0022275103, -204001.03, -25956.322, 0.0, 5.0170674, 4.934031 
1.5805475e+2, 2.8676686e+2, -153721.11, -282118.6, -796.53937, -0.00000479463, -0.002496723, -153716.17, -24031.188, 0.0, 5.017094, 4.934627 
1.5805659e+2, 2.916993e+2, -110757.62, -247986.9, -647.958, -0.0000006558246, 0.0017782223, -110754.555, -29407.594, 0.0, 5.017124, 4.9291377 
1.5805857e+2, 2.9662934e+2, -60370.25, -196636.25, -603.57007, 0.0000056720914, -0.00048646942, -60367.58, -27334.91, 0.0, 5.017159, 4.9297676 
1.5806063e+2, 3.015662e+2, -19388.252, -133982.45, -422.75177, 0.00000064578484, 0.002195971, -19386.693, -19386.693, 0.0, 5.0171976, 4.9434104 
1.5806282e+2, 3.065102e+2, -18181.19, -131376.4, -368.72382, -0.000014332274, -0.0052015306, -18179.988, -18179.988, 0.0, 5.0172415, 4.944329 
1.5806513e+2, 3.1147152e+2, 20135.576, -41628.688, -154.3529, 0.000008504619, 0.004089468, 20135.96, 20135.96, 0.0, 5.0172896, 4.977172 
1.5806757e+2, 3.1644967e+2, 21934.781, -37680.445, -92.06096, -0.0000014908151, -0.0009834715, 21934.922, 21934.922, 0.0, 5.0173435, 4.9786067 
1.6302434e+2, 1.2295186e+2, -1700619.4, -1738317.5, -145.7548, -0.0000034948516, 0.0009492276, -1700618.8, 34453.023, 0.0, 5.01672, 4.99214 
1.630267e+2, 1.2794349e+2, -1653099.8, -1692459.0, -185.80542, 0.0000058108244, -0.00316111, -1653098.9, 33054.934, 0.0, 5.016765, 4.991104 
1.6302893e+2, 1.3293375e+2, -1607775.9, -1651060.9, -408.99072, -0.0000056468425, 0.0035644772, -1607772.0, 29477.32, 0.0, 5.0168047, 4.9885116 
1.6303104e+2, 1.37922e+2, -1559736.1, -1604141.9, -443.88428, 0.00000091114515, -0.0012958581, -1559731.6, 28632.85, 0.0, 5.0168395, 4.9878182 
1.6303301e+2, 1.4290862e+2, -1514657.0, -1563308.0, -641.76263, 0.0000022220322, 0.00028703987, -1514648.5, 24847.031, 0.0, 5.016869, 4.985073 
1.6303487e+2, 1.4789385e+2, -1466441.3, -1516033.0, -671.60736, 0.000002613735, -0.0009107214, -1466432.3, 24208.092, 0.0, 5.016895, 4.9844956 
1.6303661e+2, 1.5287724e+2, -1421418.4, -1475378.4, -848.64856, -0.000001670265, 0.0013193628, -1421405.0, 20398.11, 0.0, 5.016916, 4.981702 
1.6303828e+2, 1.5785897e+2, -1373157.0, -1428017.9, -873.1096, 0.0000027376648, -0.001290605, -1373143.1, 19839.092, 0.0, 5.0169334, 4.9811444 
1.6303983e+2, 1.6283901e+2, -1328168.6, -1387496.1, -1028.3575, 0.00000026380872, 0.0012748793, -1328150.9, 16027.017, 0.0, 5.016947, 4.9782853 
1.6304132e+2, 1.6781734e+2, -1279803.4, -1339932.6, -1047.6486, 0.0000033964398, -0.0011583627, -1279785.1, 15605.0205, 0.0, 5.0169578, 4.9777846 
1.6304274e+2, 1.7279397e+2, -1234859.4, -1299572.9, -1179.4547, 0.0000010699729, 0.0011590112, -1234837.9, 11781.222, 0.0, 5.016965, 4.974847 
1.6304407e+2, 1.7776889e+2, -1186416.0, -1251864.5, -1194.7451, -0.0000029609475, -0.0011889244, -1186394.3, 11470.657, 0.0, 5.0169697, 4.9743843 
1.6304533e+2, 1.8274213e+2, -1141488.5, -1211620.9, -1302.0151, 0.000005666108, 0.0012667686, -1141464.4, 7662.8325, 0.0, 5.0169725, 4.9713874 
1.6304655e+2, 1.8771358e+2, -1092979.5, -1163799.9, -1313.2831, 0.0000041541, -0.0012795283, -1092955.1, 7451.8413, 0.0, 5.0169725, 4.9709506 
1.6304773e+2, 1.9268337e+2, -1048066.3, -1123673.1, -1394.2966, -0.0000019700042, 0.0013262294, -1048040.56, 3662.4094, 0.0, 5.016971, 4.9678874 
1.6304886e+2, 1.9765133e+2, -999479.7, -1075719.4, -1404.441, 0.0000005022611, -0.0012862473, -999453.8, 3563.2068, 0.0, 5.0169683, 4.967483 
1.6304997e+2, 2.0261765e+2, -954567.8, -1035692.7, -1456.8356, 0.0000036900365, 0.0013272805, -954541.7, -194.54959, 0.0, 5.016964, 4.964365 
1.6305104e+2, 2.0758207e+2, -905924.1, -987654.94, -1465.7002, 0.000004094983, -0.0013250125, -905897.8, -202.16951, 0.0, 5.016959, 4.963976 
1.6305213e+2, 2.1254486e+2, -861047.4, -947813.0, -1483.986, -0.00000039062385, 0.0013966282, -861022.0, -3961.613, 0.0, 5.016954, 4.9607654 
1.6305318e+2, 2.175057e+2, -812332.2, -899666.3, -1492.4597, 0.0000014204162, -0.0014044497, -812306.7, -3862.4634, 0.0, 5.0169477, 4.9603996 
1.6305426e+2, 2.2246487e+2, -767514.0, -860069.1, -1485.5396, 0.000004082502, 0.0014459348, -767490.2, -7645.8804, 0.0, 5.016942, 4.957078 
1.6305535e+2, 2.2742204e+2, -718734.7, -811837.06, -1486.2405, 0.0000017812473, -0.0013722859, -718711.0, -7446.9463, 0.0, 5.016937, 4.956726 
1.6305646e+2, 2.3237754e+2, -673807.44, -772128.7, -1461.162, 0.0000026596824, 0.0014878456, -673785.75, -11085.705, 0.0, 5.016932, 4.9534163 
1.6305758e+2, 2.3733105e+2, -624943.06, -723768.3, -1457.2505, 0.0000016059312, -0.0016237333, -624921.56, -10765.899, 0.0, 5.0169277, 4.9530935 
1.6305873e+2, 2.4228293e+2, -580021.3, -684207.3, -1407.3604, 0.0000027153349, 0.0017317997, -580002.3, -14375.03, 0.0, 5.0169253, 4.9497004 
1.6305993e+2, 2.4723274e+2, -531047.7, -635669.56, -1398.3143, 0.00000467599, -0.0016586416, -531029.0, -13909.826, 0.0, 5.016924, 4.9494233 
1.6306117e+2, 2.5218087e+2, -486224.66, -596476.94, -1324.8243, 0.0000009945959, 0.0017040274, -486208.75, -17581.299, 0.0, 5.0169244, 4.9458737 
1.6306247e+2, 2.5712696e+2, -436971.44, -547382.4, -1309.6381, 0.00000102349, -0.0016933797, -436955.9, -16800.055, 0.0, 5.016927, 4.945775 
1.6306382e+2, 2.620713e+2, -392369.0, -508847.66, -1213.9557, 0.0000039327306, 0.00170737, -392356.34, -20655.25, 0.0, 5.0169315, 4.9419622 
1.6306525e+2, 2.6701364e+2, -342752.47, -459003.1, -1191.8539, 0.000004364478, -0.0015976822, -342740.25, -19473.994, 0.0, 5.016939, 4.9421115 
1.6306676e+2, 2.7195415e+2, -298416.6, -421250.25, -1075.8958, 0.00000048057586, 0.0017341274, -298407.2, -23557.97, 0.0, 5.0169487, 4.937984 
1.6306834e+2, 2.7689266e+2, -248436.66, -370649.38, -1045.4248, 0.0000030343379, -0.0018991092, -248427.72, -21975.908, 0.0, 5.0169625, 4.9383836 
1.6307001e+2, 2.8182942e+2, -204223.23, -333370.63, -911.54767, 0.000004758077, 0.0022272605, -204216.8, -26145.01, 0.0, 5.016979, 4.934052 
1.630718e+2, 2.867641e+2, -153952.13, -282171.94, -872.70953, -0.0000014395957, -0.0024972241, -153946.19, -24234.328, 0.0, 5.017, 4.9346485 
1.6307366e+2, 2.9169658e+2, -111004.22, -248047.9, -717.793, 0.0000026366374, 0.0017767664, -111000.46, -29626.834, 0.0, 5.0170245, 4.9291587 
1.6307567e+2, 2.9662663e+2, -60630.645, -196702.66, -671.3255, 0.000008846533, -0.0004872592, -60627.332, -27568.21, 0.0, 5.017054, 4.929789 
1.6307776e+2, 3.0156353e+2, -19656.627, -134042.63, -482.5937, 0.0000044525787, 0.0021963764, -19654.592, -19654.592, 0.0, 5.0170875, 4.9434357 
1.6308e+2, 3.0650756e+2, -18462.477, -131439.78, -425.97406, -0.00001037934, -0.0052012564, -18460.87, -18460.87, 0.0, 5.017126, 4.944355 
1.6308233e+2, 3.114689e+2, 19850.215, -41680.1, -201.6759, 0.000012903297, 0.0040849377, 19850.875, 19850.875, 0.0, 5.0171695, 4.9772043 
1.6308485e+2, 3.164471e+2, 21640.316, -37731.535, -136.42792, 0.000004807661, -0.0009831034, 21640.63, 21640.63, 0.0, 5.017219, 4.978641 
1.6804107e+2, 1.22949325e+2, -1700667.0, -1738422.6, -115.92259, -0.0000060484804, 0.0009480842, -1700666.6, 34430.023, 0.0, 5.0167217, 4.9921045 
1.6804348e+2, 1.2794092e+2, -1653148.3, -1692564.6, -156.4344, 0.000006655806, -0.003161564, -1653147.6, 33031.383, 0.0, 5.0167665, 4.991069 
1.6804573e+2, 1.3293116e+2, -1607821.0, -1651158.0, -387.25592, -0.000008078692, 0.0035600646, -1607817.5, 29457.291, 0.0, 5.0168056, 4.9884787 
1.6804786e+2, 1.3791935e+2, -1559782.1, -1604239.3, -422.6716, -0.0000005702032, -0.001297054, -1559778.1, 28612.234, 0.0, 5.01684, 4.9877853 
1.6804989e+2, 1.4290597e+2, -1514699.9, -1563397.0, -627.2028, 0.0000028113868, 0.00028762716, -1514691.8, 24829.95, 0.0, 5.016869, 4.9850435 
1.6805176e+2, 1.4789116e+2, -1466485.1, -1516122.4, -657.4311, 0.000002257629, -0.00091228983, -1466476.4, 24190.328, 0.0, 5.0168943, 4.984466 
1.6805354e+2, 1.5287451e+2, -1421458.8, -1475458.8, -840.3285, -0.0000031665302, 0.0013171062, -1421445.6, 20384.158, 0.0, 5.016915, 4.981675 
1.6805522e+2, 1.5785621e+2, -1373198.3, -1428098.6, -865.13586, 0.0000016824131, -0.0012913944, -1373184.6, 19824.463, 0.0, 5.016932, 4.981118 
1.6805679e+2, 1.6283622e+2, -1328206.4, -1387567.5, -1025.426, 0.0000001978259, 0.0012736153, -1328188.8, 16016.341, 0.0, 5.0169454, 4.978262 
1.6805829e+2, 1.6781452e+2, -1279842.1, -1340004.1, -1044.909, 0.0000024661827, -0.001159589, -1279823.9, 15593.648, 0.0, 5.0169554, 4.9777617 
1.6805969e+2, 1.7279115e+2, -1234894.3, -1299634.5, -1181.1396, -0.0000005968439, 0.0011576749, -1234872.8, 11774.0205, 0.0, 5.0169625, 4.974828 
1.6806103e+2, 1.7776605e+2, -1186452.0, -1251926.3, -1196.2606, -0.0000021483195, -0.0011888674, -1186430.1, 11462.593, 0.0, 5.016967, 4.9743648 
1.6806231e+2, 1.8273927e+2, -1141520.6, -1211672.6, -1307.0525, 0.000003254472, 0.0012656659, -1141496.4, 7658.8564, 0.0, 5.0169687, 4.9713717 
1.6806352e+2, 1.8771069e+2, -1093013.1, -1163852.8, -1318.3298, 0.0000013798292, -0.0012833846, -1092988.6, 7446.5435, 0.0, 5.0169687, 4.9709344 
1.680647e+2, 1.9268048e+2, -1048096.2, -1123715.8, -1401.8789, -0.0000017055924, 0.0013276994, -1048070.2, 3661.0894, 0.0, 5.016967, 4.967875 
1.6806583e+2, 1.9764842e+2, -999510.0, -1075760.9, -1412.162, 0.00000009953258, -0.0012846467, -999483.9, 3561.5728, 0.0, 5.0169635, 4.967471 
1.6806693e+2, 2.0261472e+2, -954594.3, -1035723.75, -1466.0868, 0.0000012283448, 0.0013232679, -954567.9, -192.23853, 0.0, 5.0169587, 4.964357 
1.68068e+2, 2.0757917e+2, -905952.4, -987687.5, -1474.6584, 0.00000079395136, -0.0013264478, -905925.8, -201.53873, 0.0, 5.016953, 4.9639673 
1.6806908e+2, 2.1254194e+2, -861077.0, -947846.25, -1493.8805, -0.00000043493586, 0.0013983576, -861051.25, -3962.2097, 0.0, 5.0169473, 4.960757 
1.6807012e+2, 2.1750276e+2, -812362.8, -899699.7, -1502.3698, 0.0000005473824, -0.0014054269, -812337.0, -3864.0403, 0.0, 5.016941, 4.960391 
1.680712e+2, 2.2246192e+2, -767535.6, -860080.5, -1495.0011, 0.0000010239677, 0.0014436832, -767511.5, -7638.3833, 0.0, 5.016935, 4.9570775 
1.6807228e+2, 2.274191e+2, -718757.5, -811848.75, -1495.6907, 0.0000009561302, -0.0013718677, -718733.44, -7440.6, 0.0, 5.0169287, 4.9567256 
1.6807339e+2, 2.3237462e+2, -673826.5, -772130.06, -1469.4583, 0.0000015967568, 0.0014877022, -673804.56, -11075.715, 0.0, 5.0169234, 4.9534197 
1.680745e+2, 2.3732813e+2, -624963.1, -723769.7, -1465.5173, -0.000000018327352, -0.0016246123, -624941.4, -10756.973, 0.0, 5.016919, 4.9530973 
1.6807567e+2, 2.4227999e+2, -580038.0, -684198.8, -1413.6903, 0.0000022052475, 0.0017314383, -580018.8, -14362.81, 0.0, 5.016916, 4.9497075 
1.6807686e+2, 2.4722981e+2, -531065.25, -635660.75, -1404.4541, 0.0000031406887, -0.0016584975, -531046.4, -13898.588, 0.0, 5.0169144, 4.9494305 
1.680781e+2, 2.5217795e+2, -486239.22, -596459.0, -1328.2274, 0.0000008049102, 0.0017033601, -486223.22, -17567.205, 0.0, 5.016914, 4.9458847 
1.680794e+2, 2.5712407e+2, -436986.8, -547363.8, -1312.705, 0.0000018553332, -0.0016941082, -436971.2, -16786.904, 0.0, 5.0169163, 4.945786 
1.6808076e+2, 2.6206842e+2, -392381.75, -508820.75, -1213.5703, 0.000002883733, 0.0017073967, -392369.13, -20639.709, 0.0, 5.0169206, 4.9419765 
1.6808219e+2, 2.6701078e+2, -342766.03, -458975.4, -1190.9717, 0.0000035750627, -0.0015975706, -342753.8, -19459.385, 0.0, 5.0169272, 4.9421263 
1.680837e+2, 2.719513e+2, -298427.97, -421214.97, -1070.8572, 0.0000017207478, 0.0017330436, -298418.66, -23541.42, 0.0, 5.016937, 4.9380016 
1.680853e+2, 2.7688983e+2, -248448.88, -370613.3, -1039.5792, 0.000003339492, -0.0018995942, -248440.03, -21960.39, 0.0, 5.01695, 4.9384017 
1.6808699e+2, 2.818266e+2, -204233.0, -333326.22, -900.8472, 0.0000041706053, 0.0022274167, -204226.72, -26127.29, 0.0, 5.0169663, 4.9340734 
1.680888e+2, 2.8676128e+2, -153962.39, -282126.0, -861.17566, -0.0000003018632, -0.0024977974, -153956.61, -24217.326, 0.0, 5.016987, 4.934671 
1.6809069e+2, 2.9169378e+2, -111016.516, -248004.0, -700.47614, 0.000003662364, 0.0017752469, -111012.94, -29612.1, 0.0, 5.0170107, 4.92918 
1.6809271e+2, 2.966239e+2, -60644.215, -196659.05, -652.89075, 0.000008720929, -0.0004874962, -60641.082, -27554.965, 0.0, 5.01704, 4.929811 
1.6809484e+2, 3.0156082e+2, -19666.664, -133988.3, -457.92853, 0.000004560421, 0.0021972633, -19664.828, -19664.828, 0.0, 5.017072, 4.943462 
1.6809712e+2, 3.0650485e+2, -18472.57, -131383.0, -400.0201, -0.000008681398, -0.0052012433, -18471.152, -18471.152, 0.0, 5.017111, 4.944382 
1.6809952e+2, 3.1146625e+2, 19845.459, -41608.47, -168.50345, 0.000014243324, 0.0040808283, 19845.922, 19845.922, 0.0, 5.0171533, 4.9772377 
1.6810207e+2, 3.1644446e+2, 21635.836, -37655.344, -101.80739, 0.0000024553742, -0.0009816389, 21636.012, 21636.012, 0.0, 5.017202, 4.9786763 
1.7305782e+2, 1.2294674e+2, -1700375.5, -1738362.6, -153.60826, -0.00000583039, 0.00094815425, -1700374.9, 34747.074, 0.0, 5.016836, 4.992068 
1.730603e+2, 1.279383e+2, -1652872.9, -1692513.0, -196.6378, 0.000009587553, -0.0031614732, -1652872.0, 33332.79, 0.0, 5.016876, 4.991032 
1.730626e+2, 1.3292848e+2, -1607558.0, -1651105.8, -437.08038, -0.000008617827, 0.0035568075, -1607553.6, 29747.209, 0.0, 5.01691, 4.9884453 
1.7306475e+2, 1.3791665e+2, -1559536.3, -1604195.8, -474.72363, 0.00000034302005, -0.0012971354, -1559531.3, 28885.549, 0.0, 5.0169387, 4.987752 
1.730668e+2, 1.4290322e+2, -1514466.9, -1563353.1, -687.7079, 0.000005085476, 0.00028866425, -1514457.3, 25091.146, 0.0, 5.0169625, 4.985013 
1.7306872e+2, 1.4788839e+2, -1466270.1, -1516087.6, -719.8712, 0.00000352345, -0.0009130545, -1466259.8, 24433.951, 0.0, 5.0169816, 4.9844356 
1.7307049e+2, 1.5287173e+2, -1421257.4, -1475423.5, -910.29614, -0.0000023433909, 0.0013158949, -1421242.1, 20615.002, 0.0, 5.0169964, 4.981648 
1.7307219e+2, 1.5785341e+2, -1373015.8, -1428072.5, -936.786, 0.000003053768, -0.0012916556, -1372999.8, 20036.934, 0.0, 5.0170074, 4.981091 
1.7307378e+2, 1.628334e+2, -1328037.8, -1387540.5, -1103.5573, 0.000001500591, 0.0012733163, -1328017.3, 16215.612, 0.0, 5.017014, 4.978238 
1.7307527e+2, 1.6781168e+2, -1279692.5, -1339986.5, -1124.432, 0.0000026068612, -0.0011597931, -1279671.5, 15774.1, 0.0, 5.017018, 4.977738 
1.7307669e+2, 1.7278826e+2, -1234759.1, -1299615.8, -1266.3438, 0.00000035599018, 0.0011572224, -1234734.5, 11940.546, 0.0, 5.0170183, 4.9748073 
1.7307802e+2, 1.7776315e+2, -1186336.4, -1251916.9, -1282.3259, 0.000001093631, -0.0011887484, -1186311.3, 11609.919, 0.0, 5.017016, 4.9743447 
1.730793e+2, 1.8273634e+2, -1141419.3, -1211661.9, -1397.7916, 0.0000018156863, 0.0012653152, -1141391.5, 7792.325, 0.0, 5.0170116, 4.971355 
1.7308052e+2, 1.8770777e+2, -1092931.1, -1163851.0, -1410.1833, 0.00000056771495, -0.0012838984, -1092903.1, 7560.8438, 0.0, 5.017005, 4.970918 
1.7308168e+2, 1.9267754e+2, -1048029.44, -1123712.6, -1496.6423, 0.0000012108845, 0.0013279865, -1047999.9, 3760.3706, 0.0, 5.016996, 4.9678626 
1.7308281e+2, 1.9764546e+2, -999463.44, -1075767.1, -1507.357, 0.0000012060717, -0.0012842816, -999433.7, 3640.8406, 0.0, 5.0169854, 4.9674587 
1.7308389e+2, 2.0261176e+2, -954561.6, -1035727.56, -1564.1686, 0.0000010749841, 0.0013227689, -954531.5, -126.69041, 0.0, 5.016974, 4.9643483 
1.7308496e+2, 2.0757617e+2, -905939.75, -987701.1, -1573.104, 0.00000044667206, -0.0013265993, -905909.5, -156.01329, 0.0, 5.0169616, 4.9639587 
1.7308602e+2, 2.1253894e+2, -861084.9, -947869.6, -1593.3885, 0.0000017202267, 0.0013987736, -861055.6, -3937.2407, 0.0, 5.0169487, 4.960748 
1.7308706e+2, 2.1749976e+2, -812390.7, -899732.25, -1602.1473, 0.0000019071714, -0.0014054767, -812361.3, -3858.918, 0.0, 5.0169353, 4.9603825 
1.7308813e+2, 2.2245893e+2, -767572.44, -860098.8, -1594.7277, 0.0000010182428, 0.0014434243, -767544.94, -7642.383, 0.0, 5.016922, 4.957077 
1.730892e+2, 2.274161e+2, -718813.94, -811875.9, -1595.5417, 0.0000025767133, -0.0013718541, -718786.6, -7464.2944, 0.0, 5.016909, 4.956725 
1.7309028e+2, 2.3237161e+2, -673897.9, -772155.06, -1568.243, 0.0000028038166, 0.0014877085, -673872.8, -11114.544, 0.0, 5.0168967, 4.9534235 
1.730914e+2, 2.3732512e+2, -625053.94, -723803.06, -1564.1519, 0.00000085562317, -0.0016245699, -625029.2, -10815.331, 0.0, 5.0168853, 4.9531007 
1.7309256e+2, 2.4227701e+2, -580143.25, -684230.25, -1510.304, 0.00000406917, 0.001731032, -580121.3, -14435.959, 0.0, 5.0168753, 4.949715 
1.7309375e+2, 2.4722683e+2, -531189.25, -635699.75, -1500.6388, 0.000004530074, -0.0016589465, -531167.7, -13990.611, 0.0, 5.0168667, 4.9494386 
1.7309499e+2, 2.5217497e+2, -486377.94, -596496.56, -1421.5164, 0.00000243853, 0.0017035361, -486359.6, -17674.385, 0.0, 5.0168595, 4.9458957 
1.7309628e+2, 2.571211e+2, -437143.3, -547408.1, -1405.1537, 0.0000043186087, -0.0016947228, -437125.4, -16912.037, 0.0, 5.016855, 4.945798 
1.7309764e+2, 2.6206547e+2, -392552.63, -508863.8, -1302.1328, 0.0000047824087, 0.0017067606, -392538.06, -20779.691, 0.0, 5.0168524, 4.9419913 
1.7309907e+2, 2.6700786e+2, -342954.0, -459024.8, -1278.3715, 0.0000051178367, -0.0015971988, -342939.94, -19616.676, 0.0, 5.016853, 4.9421415 
1.7310059e+2, 2.719484e+2, -298629.47, -421263.25, -1153.5275, 0.000004973954, 0.001732085, -298618.63, -23712.746, 0.0, 5.0168557, 4.93802 
1.731022e+2, 2.7688694e+2, -248666.72, -370667.28, -1120.6362, 0.0000064500377, -0.0019002486, -248656.42, -22148.314, 0.0, 5.016863, 4.938421 
1.731039e+2, 2.818237e+2, -204463.81, -333378.2, -976.28143, 0.000006556415, 0.0022270402, -204456.4, -26328.723, 0.0, 5.0168724, 4.934096 
1.7310573e+2, 2.8675845e+2, -154208.25, -282182.34, -934.747, 0.0000033954138, -0.0024987196, -154201.42, -24434.1, 0.0, 5.0168867, 4.934694 
1.7310764e+2, 2.9169095e+2, -111279.09, -248068.53, -767.51666, 0.000007337762, 0.0017738136, -111274.79, -29846.139, 0.0, 5.0169044, 4.929203 
1.731097e+2, 2.9662105e+2, -60921.65, -196729.2, -717.7088, 0.000011773551, -0.0004879559, -60917.855, -27804.148, 0.0, 5.0169277, 4.929834 
1.7311184e+2, 3.0155802e+2, -19953.063, -134052.23, -514.64105, 0.00000791943, 0.00219733, -19950.742, -19950.742, 0.0, 5.016955, 4.943489 
1.7311417e+2, 3.065021e+2, -18772.484, -131450.17, -454.20078, -0.0000044334292, -0.0052022873, -18770.652, -18770.652, 0.0, 5.016988, 4.944411 
1.731166e+2, 3.114635e+2, 19540.852, -41663.246, -212.58006, 0.000019376108, 0.004077287, 19541.59, 19541.59, 0.0, 5.0170245, 4.9772725 
1.7311919e+2, 3.1644177e+2, 21320.82, -37710.02, -142.75926, 0.000007654866, -0.0009809908, 21321.166, 21321.166, 0.0, 5.017069, 4.978713 
1.7807467e+2, 1.2294412e+2, -1700425.9, -1738475.0, -127.45327, -0.00000840105, 0.0009466588, -1700425.5, 34722.273, 0.0, 5.0168386, 4.9920297 
1.7807718e+2, 1.2793563e+2, -1652924.1, -1692625.6, -171.10167, 0.000010336704, -0.0031632509, -1652923.5, 33307.438, 0.0, 5.016878, 4.990994 
1.780795e+2, 1.3292578e+2, -1607605.8, -1651209.4, -419.42554, -0.000011353786, 0.0035523465, -1607601.8, 29725.633, 0.0, 5.016911, 4.9884105 
1.7808169e+2, 1.3791393e+2, -1559585.0, -1604299.6, -457.55835, -0.000000466905, -0.0012983256, -1559580.4, 28863.258, 0.0, 5.0169396, 4.987717 
1.7808376e+2, 1.4290045e+2, -1514512.3, -1563448.1, -677.4151, 0.0000049887353, 0.00028802248, -1514502.9, 25072.668, 0.0, 5.0169625, 4.984981 
1.7808568e+2, 1.4788559e+2, -1466316.8, -1516183.1, -709.9929, 0.0000022913023, -0.0009151644, -1466306.6, 24414.61, 0.0, 5.0169816, 4.9844036 
1.7808749e+2, 1.528689e+2, -1421300.3, -1475509.3, -906.53186, -0.0000033848246, 0.001313587, -1421285.1, 20599.807, 0.0, 5.0169954, 4.98162 
1.7808919e+2, 1.5785053e+2, -1373059.6, -1428158.6, -933.32983, 0.0000028096322, -0.0012934853, -1373043.9, 20020.879, 0.0, 5.017006, 4.981063 
1.780908e+2, 1.6283049e+2, -1328077.8, -1387616.5, -1105.3157, 0.00000029375596, 0.0012719113, -1328057.3, 16203.889, 0.0, 5.0170126, 4.978214 
1.7809229e+2, 1.6780876e+2, -1279733.8, -1340062.8, -1126.468, 0.000000029928458, -0.0011610441, -1279712.8, 15761.471, 0.0, 5.017016, 4.977713 
1.780937e+2, 1.7278534e+2, -1234796.5, -1299681.6, -1272.8756, 0.0000001341875, 0.0011555781, -1234771.5, 11932.248, 0.0, 5.0170155, 4.9747863 
1.7809504e+2, 1.777602e+2, -1186374.9, -1251983.1, -1288.6543, 0.0000029008054, -0.0011906418, -1186349.5, 11600.625, 0.0, 5.0170126, 4.9743237 
1.7809631e+2, 1.8273337e+2, -1141454.0, -1211717.8, -1407.7083, -0.0000026020568, 0.0012636349, -1141425.9, 7787.1514, 0.0, 5.017008, 4.971338 
1.7809752e+2, 1.8770477e+2, -1092966.6, -1163906.3, -1420.2892, -0.000002489978, -0.00128313, -1092938.3, 7555.06, 0.0, 5.0170007, 4.9709015 
1.7809868e+2, 1.9267453e+2, -1048060.8, -1123756.6, -1509.3787, 0.0000024176727, 0.0013250053, -1048030.75, 3758.9382, 0.0, 5.016991, 4.9678497 
1.780998e+2, 1.9764245e+2, -999496.8, -1075813.0, -1520.0109, -0.00000059830757, -0.0012872575, -999466.56, 3637.56, 0.0, 5.01698, 4.9674454 
1.7810087e+2, 2.0260873e+2, -954590.7, -1035761.7, -1578.5536, -0.0000014313974, 0.0013237526, -954560.0, -125.53455, 0.0, 5.0169683, 4.9643397 
1.7810193e+2, 2.0757313e+2, -905970.1, -987735.5, -1587.3109, -0.0000019323077, -0.0013272724, -905939.3, -156.03195, 0.0, 5.016955, 4.96395 
1.7810297e+2, 2.1253589e+2, -861116.8, -947904.9, -1608.4053, 0.0000008724152, 0.0013961818, -861087.0, -3938.719, 0.0, 5.0169415, 4.9607396 
1.78104e+2, 2.1749671e+2, -812423.94, -899768.06, -1617.1373, 0.00000019863525, -0.0014064393, -812394.0, -3861.6765, 0.0, 5.0169277, 4.9603734 
1.7810506e+2, 2.2245586e+2, -767596.2, -860111.4, -1609.3346, -0.0000012916646, 0.0014434324, -767568.25, -7635.649, 0.0, 5.016914, 4.9570765 
1.7810611e+2, 2.2741303e+2, -718838.94, -811888.56, -1610.2378, 0.0000013739829, -0.0013735223, -718811.06, -7458.728, 0.0, 5.0169005, 4.9567246 
1.7810719e+2, 2.3236854e+2, -673919.06, -772157.0, -1581.6971, 0.0000011218222, 0.0014868494, -673893.56, -11105.303, 0.0, 5.0168877, 4.953427 
1.7810829e+2, 2.3732206e+2, -625076.2, -723804.75, -1577.6188, -0.0000008358943, -0.0016245821, -625050.94, -10807.139, 0.0, 5.0168757, 4.9531045 
1.7810944e+2, 2.4227396e+2, -580162.06, -684221.8, -1521.6454, 0.000003399107, 0.0017297135, -580139.8, -14424.498, 0.0, 5.0168653, 4.9497223 
1.7811061e+2, 2.4722378e+2, -531208.94, -635690.8, -1511.8768, 0.0000041870608, -0.0016606974, -531187.06, -13980.153, 0.0, 5.0168557, 4.949446 
1.7811185e+2, 2.5217196e+2, -486394.6, -596478.06, -1429.9375, 0.0000013238333, 0.0017039806, -486376.03, -17661.084, 0.0, 5.0168486, 4.945907 
1.7811313e+2, 2.5711808e+2, -437160.8, -547388.8, -1413.163, 0.000003830936, -0.0016956193, -437142.7, -16899.686, 0.0, 5.0168433, 4.94581 
1.7811449e+2, 2.6206246e+2, -392567.38, -508835.4, -1306.6478, 0.000005018051, 0.0017052054, -392552.7, -20764.822, 0.0, 5.01684, 4.9420066 
1.7811593e+2, 2.6700485e+2, -342969.78, -458995.9, -1282.3016, 0.000004356834, -0.0015968462, -342955.6, -19603.012, 0.0, 5.01684, 4.9421577 
1.7811745e+2, 2.7194542e+2, -298642.9, -421226.1, -1153.1266, 0.0000053641334, 0.0017310462, -298632.06, -23697.021, 0.0, 5.0168424, 4.938039 
1.7811906e+2, 2.7688396e+2, -248681.08, -370629.22, -1119.5222, 0.000007026372, -0.0019009701, -248670.8, -22133.709, 0.0, 5.0168486, 4.9384403 
1.7812078e+2, 2.8182077e+2, -204475.72, -333331.44, -970.12006, 0.000006214343, 0.002226463, -204468.4, -26311.943, 0.0, 5.016858, 4.9341187 
1.7812261e+2, 2.8675553e+2, -154220.7, -282133.84, -927.6877, 0.0000040507134, -0.0024997059, -154213.97, -24418.107, 0.0, 5.016872, 4.9347177 
1.7812455e+2, 2.9168808e+2, -111293.734, -248022.1, -754.5181, 0.000008042512, 0.001772794, -111289.57, -29832.6, 0.0, 5.016889, 4.9292264 
1.7812662e+2, 2.966182e+2, -60937.598, -196682.83, -703.5438, 0.000012186164, -0.00048808532, -60933.953, -27792.158, 0.0, 5.0169115, 4.9298573 
1.781288e+2, 3.015552e+2, -19965.486, -133994.86, -493.98874, 0.000008433999, 0.002197452, -19963.348, -19963.348, 0.0, 5.0169377, 4.9435167 
1.7813115e+2, 3.064993e+2, -18784.965, -131390.1, -432.1951, -0.000003957144, -0.0052033644, -18783.305, -18783.305, 0.0, 5.01697, 4.94444 
1.7813362e+2, 3.1146073e+2, 19533.967, -41587.566, -183.1556, 0.000020089885, 0.0040751104, 19534.516, 19534.516, 0.0, 5.017007, 4.977308 
1.7813626e+2, 3.1643903e+2, 21314.322, -37629.34, -111.74615, 0.0000057344973, -0.0009792275, 21314.535, 21314.535, 0.0, 5.0170503, 4.9787507 
1.8309157e+2, 1.22941434e+2, -1700111.1, -1738409.1, -161.55463, -0.000007817239, 0.00094681105, -1700110.5, 35063.52, 0.0, 5.016962, 4.9919906 
1.8309411e+2, 1.2793292e+2, -1652627.3, -1692569.3, -207.76202, 0.000013439928, -0.003165393, -1652626.1, 33631.363, 0.0, 5.0169964, 4.990955 
1.8309647e+2, 1.3292304e+2, -1607321.8, -1651152.1, -466.1138, -0.000012000449, 0.0035501982, -1607316.8, 30037.557, 0.0, 5.0170236, 4.988374 
1.8309869e+2, 1.3791113e+2, -1559319.6, -1604251.9, -506.48138, 0.00000028747675, -0.001298789, -1559313.9, 29157.014, 0.0, 5.017046, 4.987681 
1.8310077e+2, 1.4289764e+2, -1514260.9, -1563400.0, -735.10944, 0.00000738455, 0.0002878302, -1514249.9, 25353.377, 0.0, 5.0170627, 4.9849486 
1.8310271e+2, 1.4788273e+2, -1466084.6, -1516144.8, -769.67114, 0.0000033329843, -0.00091620395, -1466072.8, 24676.412, 0.0, 5.0170755, 4.984371 
1.8310453e+2, 1.5286599e+2, -1421082.6, -1475470.1, -973.9611, -0.0000026261594, 0.0013121569, -1421065.3, 20848.004, 0.0, 5.017083, 4.9815907 
1.8310623e+2, 1.5784763e+2, -1372862.1, -1428129.6, -1002.48376, 0.0000042439783, -0.0012943718, -1372844.0, 20249.396, 0.0, 5.017087, 4.981034 
1.8310784e+2, 1.6282755e+2, -1327895.4, -1387586.4, -1181.1956, 0.000001250536, 0.0012713054, -1327872.0, 16418.023, 0.0, 5.0170865, 4.978188 
1.8310933e+2, 1.6780579e+2, -1279572.1, -1340042.9, -1203.7772, -0.000000027962582, -0.0011614399, -1279548.1, 15955.159, 0.0, 5.017083, 4.977688 
1.8311074e+2, 1.7278233e+2, -1234649.6, -1299660.4, -1355.9042, 0.0000012276504, 0.0011548132, -1234621.4, 12111.708, 0.0, 5.017076, 4.974765 
1.8311207e+2, 1.7775717e+2, -1186248.3, -1251971.5, -1372.7162, 0.0000054149396, -0.001191186, -1186219.6, 11760.065, 0.0, 5.0170665, 4.9743023 
1.8311334e+2, 1.8273033e+2, -1141344.3, -1211705.3, -1496.3717, -0.0000037633645, 0.0012629627, -1141312.4, 7930.339, 0.0, 5.017054, 4.9713206 
1.8311453e+2, 1.8770172e+2, -1092878.1, -1163903.4, -1509.7646, -0.000002632648, -0.0012818803, -1092846.0, 7677.2236, 0.0, 5.0170393, 4.9708843 
1.8311568e+2, 1.9267146e+2, -1047987.0, -1123751.5, -1602.6106, 0.000004499886, 0.0013237076, -1047953.1, 3866.6582, 0.0, 5.0170226, 4.967837 
1.8311678e+2, 1.9763936e+2, -999444.7, -1075819.0, -1613.7548, 0.0000000017736577, -0.0012890496, -999410.6, 3723.7139, 0.0, 5.0170045, 4.967432 
1.8311784e+2, 2.0260563e+2, -954553.75, -1035765.06, -1674.709, -0.0000012318701, 0.0013253937, -954519.2, -54.393284, 0.0, 5.0169854, 4.9643307 
1.8311888e+2, 2.0757003e+2, -905954.56, -987748.7, -1683.8076, -0.000001399833, -0.001326563, -905919.94, -106.24155, 0.0, 5.016965, 4.963941 
1.8311991e+2, 2.1253277e+2, -861123.2, -947928.5, -1706.0189, 0.0000020569723, 0.0013945923, -861089.6, -3910.8857, 0.0, 5.016944, 4.9607306 
1.8312092e+2, 2.1749358e+2, -812451.3, -899801.5, -1715.1014, 0.0000012180877, -0.0014068134, -812417.7, -3854.7444, 0.0, 5.0169225, 4.9603643 
1.8312196e+2, 2.2245274e+2, -767633.56, -860130.1, -1707.3024, -0.00000037281004, 0.0014442228, -767602.06, -7638.8535, 0.0, 5.016901, 4.9570756 
1.83123e+2, 2.274099e+2, -718897.4, -811916.56, -1708.3019, 0.000002055961, -0.0013742022, -718866.0, -7483.019, 0.0, 5.01688, 4.956724 
1.8312405e+2, 2.3236541e+2, -673993.3, -772183.06, -1678.6572, 0.0000026286757, 0.001486793, -673964.6, -11145.747, 0.0, 5.01686, 4.95343 
1.8312515e+2, 2.3731893e+2, -625171.0, -723839.4, -1674.4281, 0.0000008920687, -0.0016247479, -625142.6, -10868.2, 0.0, 5.0168405, 4.953109 
1.8312627e+2, 2.4227084e+2, -580272.6, -684254.6, -1616.2867, 0.000004528542, 0.0017293768, -580247.5, -14501.678, 0.0, 5.0168223, 4.9497304 
1.8312745e+2, 2.4722067e+2, -531339.4, -635731.56, -1606.119, 0.0000056204667, -0.0016614567, -531314.7, -14077.306, 0.0, 5.0168056, 4.949455 
1.8312864e+2, 2.5216886e+2, -486540.66, -596517.3, -1521.0563, 0.0000032871335, 0.0017039081, -486519.63, -17774.334, 0.0, 5.016791, 4.945919 
1.8312994e+2, 2.5711498e+2, -437326.1, -547435.4, -1503.4318, 0.0000060485527, -0.0016954994, -437305.56, -17032.318, 0.0, 5.0167785, 4.9458222 
1.8313129e+2, 2.620594e+2, -392747.75, -508880.53, -1393.0569, 0.0000074037102, 0.0017043324, -392731.03, -20913.072, 0.0, 5.016768, 4.942023 
1.8313272e+2, 2.670018e+2, -343168.5, -459047.78, -1367.4138, 0.000005862284, -0.0015972755, -343152.38, -19769.854, 0.0, 5.016761, 4.942174 
1.8313424e+2, 2.7194238e+2, -298856.47, -421277.03, -1233.2728, 0.000008444214, 0.0017305939, -298844.06, -23879.262, 0.0, 5.0167565, 4.938059 
1.8313587e+2, 2.7688095e+2, -248911.97, -370686.03, -1198.0913, 0.000010810419, -0.0019009857, -248900.19, -22333.543, 0.0, 5.016756, 4.938461 
1.8313757e+2, 2.818178e+2, -204720.5, -333386.22, -1042.7623, 0.000009089399, 0.0022256894, -204712.05, -26526.232, 0.0, 5.0167584, 4.9341426 
1.8313941e+2, 2.8675255e+2, -154481.58, -282193.34, -998.38226, 0.0000069299895, -0.002501044, -154473.77, -24648.803, 0.0, 5.0167656, 4.9347425 
1.8314135e+2, 2.9168513e+2, -111572.54, -248090.2, -818.5181, 0.0000111785175, 0.0017717143, -111567.63, -30081.805, 0.0, 5.016776, 4.9292507 
1.8314347e+2, 2.9661527e+2, -61232.37, -196756.78, -765.241, 0.000016540458, -0.00048810118, -61228.05, -28057.635, 0.0, 5.016793, 4.929882 
1.8314567e+2, 3.0155227e+2, -20270.074, -134062.53, -547.34424, 0.000012651789, 0.0021977113, -20267.441, -20267.441, 0.0, 5.016813, 4.943546 
1.8314806e+2, 3.0649644e+2, -19103.871, -131461.05, -482.94043, -0.0000013092582, -0.005204793, -19101.795, -19101.795, 0.0, 5.0168395, 4.9444704 
1.8315054e+2, 3.1145787e+2, 19209.727, -41645.676, -223.70325, 0.000023624705, 0.004072032, 19210.549, 19210.549, 0.0, 5.01687, 4.977345 
1.8315323e+2, 3.1643623e+2, 20978.373, -37687.74, -149.05621, 0.000011668927, -0.0009789488, 20978.75, 20978.75, 0.0, 5.0169077, 4.97879 
1.8810853e+2, 1.2293872e+2, -1700164.0, -1738528.4, -139.39534, -0.000010316636, 0.0009458695, -1700163.5, 35037.055, 0.0, 5.0169644, 4.99195 
1.881111e+2, 1.2793015e+2, -1652681.4, -1692689.5, -186.2158, 0.000014382898, -0.0031701792, -1652680.6, 33603.965, 0.0, 5.0169983, 4.990914 
1.881135e+2, 1.3292022e+2, -1607372.0, -1651262.3, -452.75458, -0.0000148867075, 0.0035481043, -1607367.4, 30014.39, 0.0, 5.017025, 4.988337 
1.8811573e+2, 1.379083e+2, -1559371.3, -1604362.9, -493.6354, -0.0000017218036, -0.0013006005, -1559365.9, 29132.824, 0.0, 5.017047, 4.9876437 
1.8811783e+2, 1.4289476e+2, -1514308.8, -1563501.0, -729.4213, 0.000008038285, 0.00028610879, -1514298.0, 25333.406, 0.0, 5.017063, 4.984915 
1.8811978e+2, 1.4787984e+2, -1466133.9, -1516246.3, -764.3909, 0.0000023140356, -0.0009182032, -1466122.1, 24655.488, 0.0, 5.0170755, 4.9843373 
1.8812162e+2, 1.5286307e+2, -1421127.9, -1475561.1, -974.9727, -0.0000045423867, 0.0013095728, -1421110.5, 20831.479, 0.0, 5.017082, 4.9815607 
1.8812332e+2, 1.5784466e+2, -1372908.8, -1428221.3, -1003.83453, 0.0000030437275, -0.0012962978, -1372890.5, 20231.852, 0.0, 5.0170856, 4.9810033 
1.8812492e+2, 1.6282456e+2, -1327937.9, -1387667.0, -1187.9972, 0.00000030805873, 0.0012694949, -1327914.3, 16405.117, 0.0, 5.0170846, 4.9781623 
1.8812642e+2, 1.6780277e+2, -1279615.9, -1340124.1, -1210.7501, -0.0000014702271, -0.0011630674, -1279591.8, 15941.18, 0.0, 5.017081, 4.9776616 
1.8812782e+2, 1.7277929e+2, -1234689.5, -1299730.6, -1367.374, -0.00000028154824, 0.0011527393, -1234660.8, 12102.183, 0.0, 5.017073, 4.9747424 
1.8812916e+2, 1.777541e+2, -1186289.4, -1252041.9, -1384.3242, 0.0000045712727, -0.0011926547, -1186260.3, 11749.553, 0.0, 5.0170627, 4.9742804 
1.8813041e+2, 1.8272725e+2, -1141381.0, -1211764.1, -1511.6906, -0.000005886737, 0.0012609521, -1141348.5, 7924.4136, 0.0, 5.01705, 4.9713025 
1.8813157e+2, 1.876986e+2, -1092916.3, -1163962.6, -1524.9668, -0.00000432191, -0.0012825462, -1092883.6, 7670.0444, 0.0, 5.0170345, 4.970866 
1.881327e+2, 1.9266833e+2, -1048020.75, -1123798.6, -1620.6174, 0.0000028192028, 0.0013216505, -1047986.1, 3864.196, 0.0, 5.0170174, 4.9678235 
1.8813379e+2, 1.9763623e+2, -999480.4, -1075867.5, -1631.5234, -0.0000017985118, -0.0012921458, -999445.56, 3719.4673, 0.0, 5.016999, 4.967418 
1.8813482e+2, 2.0260249e+2, -954585.06, -1035801.5, -1694.4299, -0.0000034139434, 0.0013252358, -954549.7, -54.096462, 0.0, 5.0169787, 4.964321 
1.8813585e+2, 2.0756687e+2, -905987.3, -987785.4, -1703.5881, -0.000003254353, -0.001326878, -905951.8, -107.23405, 0.0, 5.0169578, 4.9639316 
1.8813686e+2, 2.1252961e+2, -861157.5, -947965.9, -1726.2893, -0.00000015716037, 0.0013917254, -861123.1, -3913.401, 0.0, 5.0169363, 4.960721 
1.8813784e+2, 2.1749042e+2, -812487.2, -899839.56, -1735.4133, -0.00000059926083, -0.001408662, -812452.75, -3858.7192, 0.0, 5.0169144, 4.9603553 
1.8813886e+2, 2.2244956e+2, -767659.5, -860143.8, -1727.3373, -0.000001909119, 0.0014439143, -767627.25, -7632.915, 0.0, 5.0168924, 4.957075 
1.8813987e+2, 2.2740673e+2, -718924.5, -811930.25, -1728.3739, -0.0000010487053, -0.001375684, -718892.44, -7478.3105, 0.0, 5.016871, 4.9567237 
1.8814091e+2, 2.3236224e+2, -674016.75, -772185.6, -1697.5403, 0.0000017431329, 0.0014858966, -673987.4, -11137.358, 0.0, 5.01685, 4.953434 
1.8814199e+2, 2.3731576e+2, -625195.5, -723841.6, -1693.2725, 0.0000006701592, -0.0016265194, -625166.44, -10860.937, 0.0, 5.01683, 4.9531126 
1.881431e+2, 2.4226767e+2, -580293.5, -684246.0, -1632.9833, 0.0000023079842, 0.0017287661, -580267.8, -14490.991, 0.0, 5.0168114, 4.9497385 
1.8814424e+2, 2.4721752e+2, -531361.3, -635722.4, -1622.6968, 0.0000038224152, -0.0016623128, -531336.06, -14067.744, 0.0, 5.016794, 4.949463 
1.8814544e+2, 2.521657e+2, -486559.28, -596497.8, -1534.7601, 0.0000032933958, 0.0017023074, -486537.88, -17761.72, 0.0, 5.0167785, 4.9459314 
1.8814671e+2, 2.5711185e+2, -437345.84, -547415.44, -1516.6827, 0.000005909699, -0.001695378, -437324.94, -17020.998, 0.0, 5.0167656, 4.945835 
1.8814805e+2, 2.6205626e+2, -392764.7, -508851.03, -1402.6467, 0.0000068257086, 0.0017032706, -392747.75, -20899.2, 0.0, 5.0167546, 4.942039 
1.881495e+2, 2.6699868e+2, -343186.4, -459017.28, -1376.4283, 0.0000044387652, -0.0015990504, -343170.06, -19757.133, 0.0, 5.016747, 4.942191 
1.88151e+2, 2.7193928e+2, -298872.16, -421238.13, -1237.7861, 0.000008760562, 0.0017303148, -298859.63, -23864.602, 0.0, 5.0167418, 4.938079 
1.8815261e+2, 2.768779e+2, -248928.6, -370645.97, -1201.8961, 0.000011894901, -0.0019006721, -248916.72, -22320.05, 0.0, 5.016741, 4.938482 
1.8815432e+2, 2.8181472e+2, -204734.55, -333336.88, -1041.343, 0.000009040013, 0.0022245739, -204726.13, -26510.5, 0.0, 5.016742, 4.934167 
1.8815619e+2, 2.8674954e+2, -154496.4, -282142.4, -996.00116, 0.000006226178, -0.0025025543, -154488.64, -24634.102, 0.0, 5.016749, 4.9347677 
1.8815814e+2, 2.9168212e+2, -111589.66, -248041.22, -810.11914, 0.000010920816, 0.0017709498, -111584.85, -30069.7, 0.0, 5.016759, 4.9292755 
1.8816027e+2, 2.966123e+2, -61250.83, -196707.64, -755.5948, 0.000018440334, -0.00048777915, -61246.613, -28047.127, 0.0, 5.0167747, 4.9299073 
1.8816248e+2, 3.0154935e+2, -20284.95, -134001.94, -530.88495, 0.000013826549, 0.0021985369, -20282.47, -20282.47, 0.0, 5.016794, 4.9435754 
1.8816489e+2, 3.0649352e+2, -19118.86, -131397.44, -465.08414, -0.0000027646504, -0.0052054776, -19116.932, -19116.932, 0.0, 5.01682, 4.9445014 
1.8816742e+2, 3.11455e+2, 19200.54, -41565.72, -198.32695, 0.000022314642, 0.004069275, 19201.186, 19201.186, 0.0, 5.01685, 4.9773827 
1.8817014e+2, 3.164334e+2, 20969.486, -37602.83, -121.90269, 0.000011543134, -0.0009774141, 20969.74, 20969.74, 0.0, 5.016887, 4.97883 
1.9312556e+2, 1.2293596e+2, -1699825.1, -1738456.5, -169.64264, -0.000009301531, 0.0009459528, -1699824.4, 35403.234, 0.0, 5.0170975, 4.9919086 
1.9312817e+2, 1.2792735e+2, -1652361.8, -1692628.0, -219.12718, 0.000017256478, -0.0031732726, -1652360.5, 33951.406, 0.0, 5.017125, 4.990872 
1.9313058e+2, 1.3291739e+2, -1607066.1, -1651199.5, -495.97098, -0.000015097569, 0.0035462978, -1607060.5, 30349.021, 0.0, 5.0171456, 4.988299 
1.9313285e+2, 1.3790542e+2, -1559085.5, -1604310.6, -539.21387, -0.0000018344085, -0.0013013496, -1559079.1, 29447.824, 0.0, 5.0171614, 4.9876056 
1.9313495e+2, 1.4289184e+2, -1514038.1, -1563448.1, -784.0572, 0.000010866526, 0.00028550482, -1514025.6, 25634.28, 0.0, 5.017171, 4.98488 
1.9313692e+2, 1.4787689e+2, -1465883.9, -1516204.0, -821.06537, 0.0000036768668, -0.0009195604, -1465870.5, 24936.055, 0.0, 5.017176, 4.9843025 
1.9313875e+2, 1.5286009e+2, -1420893.4, -1475518.0, -1039.6343, -0.0000043809105, 0.0013080745, -1420873.6, 21097.576, 0.0, 5.0171766, 4.9815297 
1.9314046e+2, 1.5784164e+2, -1372695.6, -1428188.9, -1070.2878, 0.0000033600568, -0.0012968977, -1372675.0, 20476.865, 0.0, 5.017173, 4.9809723 
1.9314204e+2, 1.6282152e+2, -1327741.0, -1387633.6, -1261.371, 0.0000017792759, 0.0012685618, -1327714.5, 16634.738, 0.0, 5.0171647, 4.978135 
1.9314355e+2, 1.677997e+2, -1279441.1, -1340101.6, -1285.5281, 0.00000019258316, -0.0011642877, -1279413.9, 16149.099, 0.0, 5.0171533, 4.9776344 
1.9314493e+2, 1.7277619e+2, -1234530.8, -1299706.8, -1448.0453, -0.00000087941396, 0.0011524388, -1234498.6, 12294.6045, 0.0, 5.0171385, 4.9747195 
1.9314624e+2, 1.7775099e+2, -1186152.9, -1252028.6, -1466.1881, 0.0000041535454, -0.0011925687, -1186120.4, 11919.974, 0.0, 5.0171204, 4.9742575 
1.9314747e+2, 1.8272412e+2, -1141261.4, -1211749.1, -1598.333, -0.000004249964, 0.0012595982, -1141225.1, 8078.5874, 0.0, 5.0171, 4.971284 
1.9314864e+2, 1.8769544e+2, -1092819.3, -1163958.8, -1612.2657, -0.0000031370755, -0.0012826417, -1092782.8, 7801.841, 0.0, 5.017077, 4.970848 
1.9314973e+2, 1.9266516e+2, -1047940.0, -1123792.4, -1711.8306, 0.000001998785, 0.0013217963, -1047901.4, 3980.0422, 0.0, 5.017052, 4.967809 
1.9315079e+2, 1.9763304e+2, -999422.44, -1075872.3, -1723.3395, -0.0000009340898, -0.0012934194, -999383.56, 3812.6516, 0.0, 5.0170255, 4.9674044 
1.9315182e+2, 2.0259929e+2, -954544.0, -1035804.06, -1788.4807, -0.0000028579304, 0.0013254954, -954504.6, 22.306591, 0.0, 5.016998, 4.9643116 
1.931528e+2, 2.0756367e+2, -905968.94, -987798.7, -1798.0668, -0.0000023270218, -0.0013257385, -905929.44, -53.426907, 0.0, 5.0169687, 4.963922 
1.931538e+2, 2.125264e+2, -861161.44, -947989.44, -1821.9763, 0.00000039352895, 0.0013903865, -861123.25, -3881.9473, 0.0, 5.016939, 4.9607115 
1.9315475e+2, 2.1748719e+2, -812513.8, -899873.75, -1831.5175, -0.00000007884449, -0.0014099946, -812475.44, -3849.8218, 0.0, 5.016909, 4.9603457 
1.9315575e+2, 2.2244634e+2, -767697.25, -860162.8, -1823.3412, -0.00000035892577, 0.0014449789, -767661.3, -7635.3022, 0.0, 5.0168796, 4.957074 
1.9315673e+2, 2.2740349e+2, -718984.8, -811959.06, -1824.3896, -0.00000072604774, -0.001375563, -718949.0, -7503.2153, 0.0, 5.01685, 4.9567237 
1.9315775e+2, 2.32359e+2, -674093.7, -772212.4, -1792.4631, 0.0000030913102, 0.0014851878, -674060.94, -11179.246, 0.0, 5.0168214, 4.953438 
1.931588e+2, 2.3731254e+2, -625294.1, -723877.5, -1788.0416, 0.000002816081, -0.001627336, -625261.75, -10924.623, 0.0, 5.0167933, 4.953117 
1.9315988e+2, 2.4226445e+2, -580409.44, -684280.1, -1725.6177, 0.0000032901355, 0.0017291395, -580380.75, -14572.336, 0.0, 5.0167665, 4.9497466 
1.9316101e+2, 2.472143e+2, -531498.3, -635764.94, -1714.8235, 0.0000039236825, -0.0016625526, -531470.1, -14170.344, 0.0, 5.0167413, 4.949472 
1.9316219e+2, 2.5216252e+2, -486712.6, -596538.5, -1623.746, 0.000006107711, 0.001701679, -486688.6, -17881.08, 0.0, 5.016718, 4.9459443 
1.9316345e+2, 2.5710863e+2, -437519.8, -547464.2, -1604.754, 0.000008926672, -0.0016950738, -437496.4, -17161.201, 0.0, 5.0166974, 4.945848 
1.9316477e+2, 2.620531e+2, -392954.8, -508898.3, -1486.4857, 0.000008096105, 0.0017027643, -392935.78, -21056.123, 0.0, 5.016679, 4.942056 
1.9316618e+2, 2.6699552e+2, -343396.1, -459071.6, -1459.0214, 0.0000059420076, -0.001599978, -343377.72, -19933.842, 0.0, 5.0166636, 4.942209 
1.931677e+2, 2.7193615e+2, -299097.9, -421291.72, -1315.2101, 0.00001252778, 0.0017301234, -299083.75, -24057.984, 0.0, 5.0166507, 4.9381 
1.9316931e+2, 2.7687478e+2, -249172.67, -370705.7, -1277.71, 0.000015239041, -0.0019001045, -249159.25, -22532.04, 0.0, 5.0166426, 4.9385033 
1.9317102e+2, 2.8181165e+2, -204993.44, -333394.44, -1111.0677, 0.000011437213, 0.0022238472, -204983.81, -26737.89, 0.0, 5.016637, 4.9341927 
1.9317287e+2, 2.8674647e+2, -154772.69, -282205.16, -1063.6768, 0.000009562267, -0.0025039713, -154763.81, -24879.225, 0.0, 5.016637, 4.934794 
1.9317482e+2, 2.9167908e+2, -111884.98, -248112.9, -870.85205, 0.000014772359, 0.0017702167, -111879.41, -30334.46, 0.0, 5.0166397, 4.9293013 
1.9317695e+2, 2.9660928e+2, -61562.992, -196785.36, -813.89246, 0.000022364839, -0.00048735022, -61558.094, -28329.066, 0.0, 5.016649, 4.9299335 
1.931792e+2, 3.0154637e+2, -20607.922, -134073.34, -580.6665, 0.000016456812, 0.0021992887, -20604.951, -20604.951, 0.0, 5.0166616, 4.9436064 
1.9318163e+2, 3.0649057e+2, -19457.383, -131472.3, -512.20447, 0.0000012490525, -0.0052070064, -19455.041, -19455.041, 0.0, 5.016681, 4.944534 
1.9318418e+2, 3.114521e+2, 18856.127, -41627.168, -235.13162, 0.000027641961, 0.0040665274, 18857.041, 18857.041, 0.0, 5.016705, 4.977422 
1.9318694e+2, 3.164305e+2, 20612.832, -37664.832, -155.30112, 0.000015333006, -0.0009771324, 20613.246, 20613.246, 0.0, 5.0167365, 4.9788713 
1.9814266e+2, 1.2293317e+2, -1699880.6, -1738583.1, -151.72063, -0.000011342121, 0.0009445798, -1699880.1, 35374.88, 0.0, 5.0171003, 4.991865 
1.981453e+2, 1.2792452e+2, -1652418.9, -1692755.9, -201.82504, 0.000017287706, -0.0031767555, -1652417.9, 33921.906, 0.0, 5.0171275, 4.990829 
1.9814771e+2, 1.3291451e+2, -1607119.0, -1651316.3, -487.16678, -0.000017205712, 0.0035428165, -1607113.6, 30324.121, 0.0, 5.0171475, 4.9882593 
1.9815001e+2, 1.3790251e+2, -1559139.9, -1604428.3, -530.99084, -0.0000046416194, -0.0013028744, -1559133.6, 29421.793, 0.0, 5.017163, 4.987566 
1.9815211e+2, 1.428889e+2, -1514088.5, -1563555.3, -783.242, 0.000011406688, 0.000284194, -1514076.1, 25612.768, 0.0, 5.017172, 4.984844 
1.9815408e+2, 1.4787391e+2, -1465935.9, -1516311.9, -820.6307, 0.0000028540926, -0.0009221897, -1465922.5, 24913.365, 0.0, 5.0171766, 4.9842668 
1.9815591e+2, 1.5285707e+2, -1420941.1, -1475614.8, -1045.6891, -0.0000068829586, 0.0013056799, -1420921.1, 21079.6, 0.0, 5.017176, 4.981498 
1.9815762e+2, 1.578386e+2, -1372745.0, -1428286.3, -1076.7496, 0.0000006719088, -0.0012981893, -1372724.1, 20457.72, 0.0, 5.017172, 4.9809403 
1.981592e+2, 1.6281843e+2, -1327785.9, -1387719.3, -1273.4155, 0.0000014064427, 0.001266406, -1327758.9, 16620.516, 0.0, 5.017163, 4.9781075 
1.981607e+2, 1.6779658e+2, -1279487.6, -1340188.0, -1297.6808, 0.0000008882971, -0.0011673027, -1279459.9, 16133.556, 0.0, 5.017151, 4.977607 
1.9816206e+2, 1.7277308e+2, -1234572.9, -1299781.0, -1464.9253, -0.0000045671295, 0.0011516124, -1234540.0, 12284.013, 0.0, 5.017135, 4.974696 
1.9816336e+2, 1.7774783e+2, -1186196.5, -1252103.4, -1483.2867, 0.00000003887133, -0.0011932984, -1186163.1, 11908.082, 0.0, 5.0171165, 4.974234 
1.9816457e+2, 1.8272093e+2, -1141300.4, -1211811.3, -1619.1564, -0.0000031528696, 0.0012563802, -1141263.3, 8071.6865, 0.0, 5.0170956, 4.9712653 
1.9816571e+2, 1.8769225e+2, -1092860.1, -1164022.1, -1632.8856, -0.000003605066, -0.0012848778, -1092822.8, 7793.2026, 0.0, 5.0170717, 4.9708285 
1.9816679e+2, 1.9266194e+2, -1047976.44, -1123843.3, -1735.4022, -0.0000027013043, 0.001321361, -1047936.75, 3976.209, 0.0, 5.0170465, 4.9677944 
1.9816782e+2, 1.9762981e+2, -999460.2, -1075923.0, -1746.7268, -0.0000023439256, -0.0012956155, -999420.3, 3807.6133, 0.0, 5.0170193, 4.96739 
1.9816881e+2, 2.0259605e+2, -954577.4, -1035842.4, -1813.7238, -0.000004816969, 0.0013234703, -954536.94, 21.815937, 0.0, 5.0169907, 4.9643016 
1.9816977e+2, 2.0756042e+2, -906004.25, -987838.1, -1823.3713, -0.000004181574, -0.0013257964, -905963.6, -55.731445, 0.0, 5.016961, 4.963912 
1.9817074e+2, 2.1252313e+2, -861198.2, -948029.0, -1847.879, -0.000001984705, 0.0013880294, -861158.9, -3885.6018, 0.0, 5.016931, 4.960702 
1.9817166e+2, 2.1748392e+2, -812552.2, -899913.9, -1857.5413, -0.0000029782068, -0.0014132459, -812512.7, -3854.9814, 0.0, 5.0169005, 4.9603357 
1.9817263e+2, 2.2244306e+2, -767725.3, -860177.44, -1849.0062, -0.0000016056064, 0.0014451174, -767688.4, -7630.2075, 0.0, 5.01687, 4.9570737 
1.9817358e+2, 2.2740021e+2, -719014.25, -811973.8, -1849.9945, -0.000002804916, -0.0013759793, -718977.44, -7499.5166, 0.0, 5.0168395, 4.956723 
1.9817458e+2, 2.3235574e+2, -674119.1, -772215.25, -1816.9882, 0.0000009964893, 0.0014826638, -674085.44, -11171.656, 0.0, 5.0168104, 4.9534416 
1.9817558e+2, 2.3730926e+2, -625320.9, -723880.1, -1812.4911, 0.0000018725206, -0.001629098, -625287.56, -10918.368, 0.0, 5.016782, 4.9531207 
1.9817664e+2, 2.4226119e+2, -580432.4, -684271.3, -1748.0365, 0.0000021417277, 0.0017287034, -580402.94, -14562.528, 0.0, 5.016754, 4.949755 
1.9817775e+2, 2.4721104e+2, -531522.44, -635755.44, -1736.9888, 0.0000006463514, -0.0016638606, -531493.5, -14161.767, 0.0, 5.016729, 4.949481 
1.981789e+2, 2.5215927e+2, -486733.4, -596518.4, -1642.8802, 0.000006508564, 0.0017005191, -486708.84, -17869.484, 0.0, 5.0167046, 4.945957 
1.9818014e+2, 2.571054e+2, -437541.8, -547443.3, -1623.5358, 0.000009902628, -0.0016959137, -437517.8, -17150.926, 0.0, 5.016683, 4.945862 
1.9818144e+2, 2.6204988e+2, -392973.88, -508867.34, -1501.395, 0.0000057913444, 0.0017016424, -392954.44, -21043.238, 0.0, 5.016664, 4.9420733 
1.9818285e+2, 2.6699233e+2, -343416.3, -459039.72, -1473.3771, 0.000004619837, -0.0016010001, -343397.53, -19922.31, 0.0, 5.016648, 4.9422264 
1.9818434e+2, 2.7193296e+2, -299115.8, -421250.88, -1324.8984, 0.000013823766, 0.0017293246, -299101.44, -24044.475, 0.0, 5.016635, 4.9381213 
1.9818595e+2, 2.7687162e+2, -249191.66, -370663.63, -1286.6329, 0.000014987218, -0.0018997256, -249178.03, -22519.863, 0.0, 5.0166254, 4.9385257 
1.9818765e+2, 2.818085e+2, -205009.78, -333342.53, -1114.6461, 0.000010073272, 0.0022233345, -205000.1, -26723.44, 0.0, 5.0166197, 4.9342184 
1.9818951e+2, 2.8674337e+2, -154789.9, -282151.6, -1066.2438, 0.00001003051, -0.0025052838, -154780.98, -24865.936, 0.0, 5.0166183, 4.934821 
1.9819146e+2, 2.9167598e+2, -111904.61, -248061.2, -867.22833, 0.000015677251, 0.0017697421, -111899.086, -30323.934, 0.0, 5.0166206, 4.929328 
1.9819361e+2, 2.9660624e+2, -61584.113, -196733.44, -808.9344, 0.000022144883, -0.00048642195, -61579.273, -28320.309, 0.0, 5.016629, 4.9299603 
1.9819586e+2, 3.0154333e+2, -20625.465, -134009.63, -568.74976, 0.0000143175575, 0.0022007795, -20622.611, -20622.611, 0.0, 5.0166416, 4.9436383 
1.9819832e+2, 3.064876e+2, -19474.982, -131405.13, -498.8592, 0.0000027758174, -0.005208179, -19472.76, -19472.76, 0.0, 5.01666, 4.944567 
1.9820088e+2, 3.1144914e+2, 18844.504, -41542.89, -213.91629, 0.000029879882, 0.004064956, 18845.262, 18845.262, 0.0, 5.016683, 4.977463 
1.9820367e+2, 3.1642762e+2, 20601.049, -37575.902, -132.0717, 0.000010230167, -0.00097444083, 20601.35, 20601.35, 0.0, 5.0167136, 4.978914 
2.0315984e+2, 1.2293034e+2, -1699516.5, -1738504.8, -177.81612, -0.00001002315, 0.00094427215, -1699515.8, 35766.89, 0.0, 5.0172434, 4.991821 
2.0316249e+2, 1.2792166e+2, -1652075.1, -1692688.4, -230.75331, 0.000019728044, -0.0031785192, -1652073.8, 34294.02, 0.0, 5.017264, 4.990784 
2.0316494e+2, 1.3291161e+2, -1606790.6, -1651247.9, -526.6808, -0.00001707655, 0.0035397653, -1606784.4, 30681.945, 0.0, 5.0172772, 4.988219 
2.0316721e+2, 1.3789955e+2, -1558833.0, -1604371.1, -572.9261, -0.0000047308718, -0.0013035529, -1558825.9, 29758.543, 0.0, 5.0172853, 4.987525 
2.0316935e+2, 1.4288591e+2, -1513797.4, -1563497.3, -834.5349, 0.000013867506, 0.00028429323, -1513783.4, 25934.785, 0.0, 5.0172873, 4.9848075 
2.0317133e+2, 1.4787087e+2, -1465667.0, -1516265.4, -874.01245, 0.0000038047958, -0.00092374696, -1465652.0, 25213.549, 0.0, 5.017285, 4.9842296 
2.0317315e+2, 1.5285401e+2, -1420689.1, -1475567.3, -1107.3486, -0.000006654924, 0.001304294, -1420666.8, 21364.049, 0.0, 5.017277, 4.981465 
2.0317484e+2, 1.578355e+2, -1372516.1, -1428250.6, -1140.2118, 0.0000007175488, -0.001298964, -1372492.8, 20719.361, 0.0, 5.017265, 4.9809074 
2.0317642e+2, 1.628153e+2, -1327573.6, -1387682.0, -1344.0626, 0.0000024011013, 0.001265789, -1327543.6, 16866.438, 0.0, 5.0172486, 4.978079 
2.0317787e+2, 1.6779344e+2, -1279298.9, -1340162.6, -1369.8026, 0.000002629602, -0.0011684143, -1279268.0, 16356.308, 0.0, 5.0172286, 4.977578 
2.0317923e+2, 1.7276989e+2, -1234401.9, -1299754.0, -1543.0801, -0.0000052628757, 0.001151313, -1234365.4, 12489.734, 0.0, 5.017205, 4.974672 
2.0318049e+2, 1.7774463e+2, -1186049.3, -1252088.0, -1562.7178, -0.0000015512243, -0.0011929675, -1186012.4, 12090.344, 0.0, 5.0171785, 4.97421 
2.0318168e+2, 1.8271771e+2, -1141170.5, -1211794.0, -1703.5664, -0.0000011798338, 0.0012553715, -1141129.5, 8237.041, 0.0, 5.0171494, 4.971246 
2.031828e+2, 1.87689e+2, -1092754.4, -1164016.5, -1718.0841, -0.0000015450167, -0.0012863694, -1092713.0, 7934.73, 0.0, 5.0171175, 4.970809 
2.0318386e+2, 1.9265868e+2, -1047888.5, -1123835.6, -1824.2366, -0.000004967765, 0.0013221538, -1047844.7, 4100.2134, 0.0, 5.0170836, 4.9677796 
2.0318484e+2, 1.9762653e+2, -999396.3, -1075926.8, -1836.0106, -0.0000020869545, -0.0012948496, -999352.3, 3907.741, 0.0, 5.0170484, 4.9673753 
2.0318581e+2, 2.0259276e+2, -954531.25, -1035843.7, -1905.709, -0.000003480077, 0.0013220332, -954486.6, 104.37608, 0.0, 5.0170116, 4.9642916 
2.0318674e+2, 2.0755711e+2, -905982.3, -987851.0, -1915.8527, -0.00000342773, -0.0013263003, -905937.5, 2.7657435, 0.0, 5.0169735, 4.963902 
2.0318766e+2, 2.1251982e+2, -861200.0, -948052.6, -1941.4148, -0.0000017886265, 0.0013887704, -861156.6, -3850.889, 0.0, 5.016935, 4.960692 
2.0318857e+2, 2.1748058e+2, -812578.25, -899948.6, -1951.5034, -0.0000026208525, -0.0014137964, -812534.7, -3844.4124, 0.0, 5.016896, 4.960326 
2.0318948e+2, 2.2243972e+2, -767763.0, -860196.44, -1942.8553, -0.00000021901292, 0.0014448531, -767722.2, -7631.4663, 0.0, 5.016857, 4.957073 
2.0319042e+2, 2.2739688e+2, -719075.75, -812003.3, -1943.8761, -0.0000021699439, -0.0013758687, -719035.1, -7524.5664, 0.0, 5.0168185, 4.9567227 
2.0319135e+2, 2.3235242e+2, -674198.6, -772242.5, -1909.7943, 0.0000019102679, 0.0014822595, -674161.44, -11215.014, 0.0, 5.0167804, 4.953446 
2.0319234e+2, 2.3730595e+2, -625423.8, -723917.4, -1905.1273, 0.0000035159637, -0.0016290136, -625386.94, -10985.224, 0.0, 5.016743, 4.9531255 
2.0319337e+2, 2.4225788e+2, -580552.94, -684306.44, -1838.4047, 0.0000033425417, 0.0017284189, -580520.4, -14647.476, 0.0, 5.0167074, 4.949764 
2.0319444e+2, 2.4720775e+2, -531665.7, -635799.6, -1826.8436, 0.0000006550257, -0.0016644993, -531633.7, -14269.54, 0.0, 5.0166736, 4.94949 
2.0319557e+2, 2.5215596e+2, -486894.47, -596561.06, -1729.4594, 0.000008867607, 0.0017009409, -486867.22, -17995.574, 0.0, 5.016641, 4.9459705 
2.0319678e+2, 2.5710213e+2, -437724.5, -547494.06, -1709.1752, 0.000012655306, -0.001696347, -437697.88, -17298.842, 0.0, 5.0166116, 4.9458756 
2.0319806e+2, 2.6204664e+2, -393174.16, -508916.78, -1582.6062, 0.000007016186, 0.0017013364, -393152.5, -21209.316, 0.0, 5.016584, 4.9420915 
2.0319945e+2, 2.6698908e+2, -343637.38, -459096.75, -1553.294, 0.000006000115, -0.0016007853, -343616.5, -20109.436, 0.0, 5.01656, 4.9422455 
2.032009e+2, 2.7192974e+2, -299353.44, -421306.88, -1399.4001, 0.000017054079, 0.0017288888, -299337.4, -24248.818, 0.0, 5.016539, 4.9381437 
2.0320252e+2, 2.768684e+2, -249449.1, -370726.25, -1359.5294, 0.000018208519, -0.0018993991, -249433.86, -22744.3, 0.0, 5.016522, 4.9385486 
2.0320421e+2, 2.8180534e+2, -205283.2, -333403.03, -1181.2081, 0.000012759403, 0.0022231021, -205272.31, -26964.504, 0.0, 5.016508, 4.9342456 
2.0320605e+2, 2.867402e+2, -155081.73, -282217.56, -1130.6376, 0.000012937387, -0.0025061716, -155071.67, -25125.74, 0.0, 5.0164995, 4.9348493 
2.0320803e+2, 2.916729e+2, -112216.5, -248136.36, -924.43884, 0.000019046194, 0.0017694146, -112210.21, -30604.451, 0.0, 5.0164948, 4.9293556 
2.0321016e+2, 2.966031e+2, -61914.11, -196815.0, -863.60187, 0.000026662832, -0.00048573196, -61908.582, -28619.283, 0.0, 5.0164957, 4.9299884 
2.0321241e+2, 3.0154026e+2, -20967.531, -134085.03, -614.7637, 0.000017211149, 0.0022019485, -20964.191, -20964.191, 0.0, 5.016501, 4.943671 
2.0321488e+2, 3.0648452e+2, -19833.047, -131483.81, -542.0577, 0.0000064550673, -0.0052097123, -19830.416, -19830.416, 0.0, 5.016513, 4.9446015 
2.0321748e+2, 3.1144613e+2, 18480.041, -41607.61, -246.79816, 0.00003439367, 0.004063676, 18481.055, 18481.055, 0.0, 5.016529, 4.9775043 
2.0322031e+2, 3.1642464e+2, 20222.994, -37641.79, -161.32742, 0.000015392205, -0.0009736192, 20223.443, 20223.443, 0.0, 5.016554, 4.9789577 
2.0817707e+2, 1.22927494e+2, -1699574.9, -1738639.3, -164.36694, -0.000011881709, 0.00094268494, -1699574.3, 35736.355, 0.0, 5.0172467, 4.991775 
2.0817974e+2, 1.2791875e+2, -1652134.9, -1692823.5, -218.05232, 0.000019464782, -0.0031805884, -1652133.8, 34262.5, 0.0, 5.0172668, 4.9907384 
2.0818222e+2, 1.3290866e+2, -1606846.0, -1651371.5, -522.7858, -0.00001964077, 0.0035352951, -1606839.9, 30655.176, 0.0, 5.017279, 4.988177 
2.0818451e+2, 1.3789658e+2, -1558890.3, -1604495.8, -569.51105, -0.000006949655, -0.0013051418, -1558883.1, 29730.475, 0.0, 5.017287, 4.987483 
2.0818663e+2, 1.4288288e+2, -1513850.3, -1563610.4, -838.7915, 0.000013625566, 0.00028403406, -1513836.1, 25911.592, 0.0, 5.017288, 4.9847693 
2.081886e+2, 1.4786781e+2, -1465721.8, -1516379.8, -878.7091, 0.0000018135836, -0.00092605525, -1465706.5, 25188.941, 0.0, 5.017285, 4.9841914 
2.0819041e+2, 1.5285091e+2, -1420739.3, -1475669.4, -1118.8116, -0.000008504147, 0.0013020061, -1420716.5, 21344.613, 0.0, 5.0172763, 4.981431 
2.0819211e+2, 1.5783237e+2, -1372568.1, -1428353.8, -1151.9576, -0.0000009943178, -0.0013012361, -1372544.4, 20698.463, 0.0, 5.017264, 4.9808736 
2.0819366e+2, 1.6281214e+2, -1327621.0, -1387772.5, -1361.5896, 0.00000055982156, 0.0012645625, -1327590.1, 16850.875, 0.0, 5.0172467, 4.9780493 
2.081951e+2, 1.6779025e+2, -1279348.0, -1340254.1, -1387.5968, 0.0000013463249, -0.0011698959, -1279316.4, 16339.208, 0.0, 5.017226, 4.9775486 
2.0819645e+2, 1.7276666e+2, -1234446.3, -1299832.4, -1565.5868, -0.0000070267906, 0.0011491027, -1234408.8, 12477.939, 0.0, 5.017202, 4.974647 
2.0819768e+2, 1.7774138e+2, -1186095.5, -1252167.4, -1585.4359, -0.0000047193416, -0.0011941281, -1186057.5, 12076.929, 0.0, 5.0171747, 4.974185 
2.0819883e+2, 1.8271445e+2, -1141212.1, -1211860.4, -1730.1262, -0.0000025167885, 0.0012539205, -1141169.9, 8228.694, 0.0, 5.0171447, 4.9712253 
2.0819992e+2, 1.8768573e+2, -1092797.6, -1164083.0, -1744.4977, -0.0000013564952, -0.001289845, -1092755.0, 7924.9634, 0.0, 5.0171123, 4.970789 
2.0820095e+2, 1.9265538e+2, -1047927.2, -1123889.3, -1853.6261, -0.000009453104, 0.0013213805, -1047882.0, 4095.3179, 0.0, 5.017078, 4.9677644 
2.082019e+2, 1.9762321e+2, -999436.94, -1075981.3, -1865.2711, -0.0000050709455, -0.001294019, -999391.5, 3901.0364, 0.0, 5.0170417, 4.9673595 
2.0820282e+2, 2.0258944e+2, -954566.94, -1035884.3, -1936.8352, -0.0000041478565, 0.0013182688, -954520.9, 102.79942, 0.0, 5.017004, 4.964281 
2.082037e+2, 2.0755377e+2, -906019.9, -987892.5, -1946.9906, -0.0000057185257, -0.0013301567, -905973.6, -0.5792106, 0.0, 5.0169654, 4.9638915 
2.082046e+2, 2.1251649e+2, -861239.2, -948094.3, -1973.2456, -0.0000048227057, 0.0013897856, -861194.4, -3855.7808, 0.0, 5.0169263, 4.9606814 
2.0820546e+2, 2.1747722e+2, -812619.06, -899990.75, -1983.419, -0.0000048733878, -0.0014143677, -812574.06, -3850.8481, 0.0, 5.016886, 4.9603157 
2.0820633e+2, 2.2243635e+2, -767793.25, -860212.2, -1974.4092, -0.0000021576163, 0.0014415415, -767751.1, -7627.3633, 0.0, 5.0168467, 4.9570723 
2.0820723e+2, 2.2739352e+2, -719107.6, -812019.44, -1975.4651, -0.000004723644, -0.0013778077, -719065.7, -7522.1133, 0.0, 5.0168076, 4.956722 
2.0820814e+2, 2.3234904e+2, -674226.1, -772245.5, -1940.1772, 0.000000068729975, 0.0014814984, -674187.7, -11208.309, 0.0, 5.016769, 4.95345 
2.082091e+2, 2.3730259e+2, -625452.8, -723920.4, -1935.4939, 0.0000021918117, -0.0016294227, -625414.75, -10980.081, 0.0, 5.016731, 4.95313 
2.0821007e+2, 2.4225451e+2, -580578.06, -684297.3, -1866.5746, 0.0000015406789, 0.0017261093, -580544.44, -14638.651, 0.0, 5.0166945, 4.949773 
2.0821112e+2, 2.472044e+2, -531692.2, -635790.1, -1854.8346, -0.0000011527569, -0.0016665346, -531659.1, -14262.21, 0.0, 5.0166597, 4.9494996 
2.0821223e+2, 2.5215262e+2, -486917.53, -596540.3, -1754.3344, 0.000008128918, 0.0017010143, -486889.47, -17985.154, 0.0, 5.016627, 4.9459844 
2.0821339e+2, 2.5709882e+2, -437748.7, -547472.2, -1733.686, 0.000011916853, -0.0016981128, -437721.3, -17289.709, 0.0, 5.0165963, 4.9458904 
2.0821464e+2, 2.620433e+2, -393195.38, -508884.3, -1603.1853, 0.0000063140174, 0.0017003358, -393173.16, -21197.588, 0.0, 5.016568, 4.94211 
2.08216e+2, 2.6698577e+2, -343659.97, -459063.47, -1573.2365, 0.0000046272457, -0.0016006703, -343638.53, -20099.28, 0.0, 5.0165434, 4.9422646 
2.0821746e+2, 2.719265e+2, -299373.63, -421264.0, -1414.467, 0.000016440836, 0.0017277744, -299357.2, -24236.627, 0.0, 5.0165215, 4.938166 
2.0821904e+2, 2.7686518e+2, -249470.52, -370682.16, -1373.9586, 0.000018295865, -0.0018996333, -249454.95, -22733.623, 0.0, 5.016504, 4.9385724 
2.0822072e+2, 2.8180212e+2, -205301.9, -333348.56, -1190.036, 0.000012389832, 0.0022230265, -205290.86, -26951.525, 0.0, 5.016489, 4.9342732 
2.0822255e+2, 2.8673702e+2, -155101.45, -282161.34, -1138.353, 0.000011579994, -0.0025067434, -155091.25, -25114.08, 0.0, 5.01648, 4.934878 
2.082245e+2, 2.9166973e+2, -112238.7, -248081.81, -925.83344, 0.000018040297, 0.001769391, -112232.4, -30595.672, 0.0, 5.0164742, 4.9293838 
2.0822665e+2, 2.966e+2, -61937.93, -196760.19, -863.60724, 0.000028067312, -0.00048469228, -61932.4, -28612.422, 0.0, 5.0164742, 4.9300175 
2.0822893e+2, 3.0153716e+2, -20987.748, -134018.03, -607.67413, 0.000016890148, 0.0022038207, -20984.48, -20984.48, 0.0, 5.0164785, 4.943705 
2.082314e+2, 3.0648148e+2, -19853.385, -131413.1, -533.3268, 0.000004876561, -0.0052105873, -19850.836, -19850.836, 0.0, 5.01649, 4.944637 
2.0823401e+2, 3.1144312e+2, 18465.807, -41519.105, -230.10318, 0.000032129832, 0.004063706, 18466.69, 18466.69, 0.0, 5.0165057, 4.977547 
2.0823684e+2, 3.1642166e+2, 20208.26, -37548.75, -142.36972, 0.000013084243, -0.00097045756, 20208.611, 20208.611, 0.0, 5.016529, 4.979003 
2.1319441e+2, 1.2292462e+2, -1699184.4, -1738554.0, -186.10832, -0.000010191475, 0.00094294146, -1699183.5, 36155.277, 0.0, 5.0173993, 4.991728 
2.131971e+2, 1.2791583e+2, -1651766.8, -1692750.1, -242.5902, 0.000021210843, -0.003182886, -1651765.3, 34659.594, 0.0, 5.017412, 4.990691 
2.1319957e+2, 1.329057e+2, -1606493.6, -1651296.8, -558.36206, -0.000019120987, 0.003533426, -1606486.8, 31037.479, 0.0, 5.017418, 4.988134 
2.1320187e+2, 1.3789357e+2, -1558561.1, -1604433.4, -607.4671, -0.0000068583977, -0.0013058478, -1558553.0, 30090.06, 0.0, 5.017418, 4.98744 
2.1320398e+2, 1.4287984e+2, -1513538.3, -1563547.1, -886.5201, 0.00001537268, 0.0002843775, -1513522.5, 26255.201, 0.0, 5.0174117, 4.9847302 
2.1320595e+2, 1.4786471e+2, -1465433.6, -1516328.9, -928.5901, 0.0000023397945, -0.0009268031, -1465416.8, 25509.059, 0.0, 5.017401, 4.9841523 
2.1320775e+2, 1.5284778e+2, -1420468.5, -1475617.1, -1177.2546, -0.000008280419, 0.0013006598, -1420443.4, 21648.414, 0.0, 5.0173845, 4.981396 
2.1320942e+2, 1.5782921e+2, -1372322.1, -1428314.3, -1212.2313, -0.00000064155876, -0.001302468, -1372295.9, 20978.0, 0.0, 5.017364, 4.980839 
2.1321096e+2, 1.6280894e+2, -1327393.0, -1387731.5, -1429.2838, 0.0000011230248, 0.0012647256, -1327359.3, 17113.139, 0.0, 5.0173388, 4.9780188 
2.1321237e+2, 1.6778702e+2, -1279145.3, -1340225.6, -1456.9824, 0.000001026374, -0.0011695848, -1279110.5, 16576.79, 0.0, 5.01731, 4.977518 
2.1321368e+2, 1.727634e+2, -1234261.8, -1299802.0, -1640.9843, -0.0000067715887, 0.0011479176, -1234220.8, 12697.888, 0.0, 5.0172772, 4.974622 
2.1321489e+2, 1.777381e+2, -1185936.6, -1252149.8, -1662.1337, -0.0000038206686, -0.0011949658, -1185895.0, 12271.633, 0.0, 5.0172415, 4.9741592 
2.13216e+2, 1.8271114e+2, -1141071.9, -1211840.5, -1811.8735, -0.0000034462926, 0.00125503, -1141025.5, 8405.409, 0.0, 5.017203, 4.9712048 
2.1321705e+2, 1.876824e+2, -1092682.9, -1164075.8, -1826.9843, -0.0000010403866, -0.0012911874, -1092636.3, 8076.3154, 0.0, 5.0171614, 4.9707685 
2.1321803e+2, 1.9265203e+2, -1047831.4, -1123879.8, -1940.2308, -0.0000091989805, 0.0013214083, -1047781.94, 4228.1494, 0.0, 5.0171185, 4.9677486 
2.1321894e+2, 1.9761986e+2, -999366.6, -1075983.8, -1952.5016, -0.000004743889, -0.0012923212, -999316.9, 4008.5852, 0.0, 5.017073, 4.967344 
2.1321984e+2, 2.0258605e+2, -954515.6, -1035884.44, -2026.3563, -0.000004099757, 0.0013168018, -954465.2, 191.506, 0.0, 5.017027, 4.9642706 
2.1322067e+2, 2.0755039e+2, -905994.1, -987904.75, -2036.9565, -0.000005119987, -0.0013320887, -905943.5, 62.678352, 0.0, 5.016979, 4.9638805 
2.132215e+2, 2.1251307e+2, -861238.5, -948117.75, -2064.4065, -0.0000041624053, 0.0013915672, -861189.44, -3817.6333, 0.0, 5.016931, 4.9606714 
2.1322234e+2, 2.1747382e+2, -812643.9, -900025.75, -2074.9973, -0.0000048890843, -0.0014133455, -812594.6, -3838.066, 0.0, 5.0168824, 4.9603057 
2.1322317e+2, 2.2243296e+2, -767830.6, -860231.1, -2065.9812, -0.0000007612786, 0.0014395412, -767784.5, -7627.3228, 0.0, 5.0168343, 4.957072 
2.1322401e+2, 2.2739011e+2, -719170.25, -812049.56, -2067.1868, -0.000004090445, -0.0013779794, -719124.25, -7547.29, 0.0, 5.0167856, 4.9567213 
2.1322489e+2, 2.3234564e+2, -674307.94, -772273.3, -2030.6931, 0.0000009270342, 0.0014819741, -674265.8, -11253.043, 0.0, 5.016738, 4.9534545 
2.132258e+2, 2.3729917e+2, -625559.5, -723958.75, -2025.8472, 0.000003069199, -0.001629377, -625517.8, -11049.787, 0.0, 5.016691, 4.9531345 
2.1322674e+2, 2.4225111e+2, -580703.5, -684333.44, -1954.4946, 0.000002596019, 0.0017256158, -580666.7, -14727.585, 0.0, 5.016646, 4.9497824 
2.1322773e+2, 2.4720101e+2, -531841.9, -635836.06, -1942.2484, 0.00000035797225, -0.0016669532, -531805.56, -14375.469, 0.0, 5.016602, 4.9495096 
2.132288e+2, 2.5214925e+2, -487086.06, -596584.5, -1838.1044, 0.00000934788, 0.0017012712, -487055.22, -18117.816, 0.0, 5.01656, 4.9459987 
2.1322995e+2, 2.5709546e+2, -437940.34, -547525.1, -1816.6093, 0.0000129666505, -0.0016982089, -437910.25, -17445.725, 0.0, 5.016521, 4.945905 
2.1323118e+2, 2.6204e+2, -393405.5, -508935.88, -1681.6862, 0.000008622524, 0.0017002319, -393381.03, -21372.697, 0.0, 5.016484, 4.942129 
2.132325e+2, 2.669825e+2, -343892.16, -459122.97, -1650.3116, 0.00000647715, -0.001600784, -343868.53, -20296.707, 0.0, 5.016451, 4.942284 
2.1323392e+2, 2.7192318e+2, -299623.8, -421322.66, -1485.8793, 0.00001850524, 0.0017277419, -299605.7, -24452.746, 0.0, 5.0164204, 4.93819 
2.1323547e+2, 2.768619e+2, -249741.63, -370747.8, -1443.7627, 0.000021149492, -0.0018991745, -249724.4, -22970.965, 0.0, 5.0163946, 4.9385967 
2.1323714e+2, 2.8179887e+2, -205589.92, -333411.9, -1253.1733, 0.000015382786, 0.0022232174, -205577.63, -27206.438, 0.0, 5.0163717, 4.934302 
2.1323897e+2, 2.867338e+2, -155409.1, -282230.63, -1199.1835, 0.000014273842, -0.0025074633, -155397.75, -25389.002, 0.0, 5.0163546, 4.9349074 
2.132409e+2, 2.9166654e+2, -112567.59, -248160.48, -979.24286, 0.00002087025, 0.0017690156, -112560.52, -30892.512, 0.0, 5.0163407, 4.9294133 
2.1324305e+2, 2.9659683e+2, -62286.08, -196845.67, -914.4115, 0.00003254568, -0.00048364015, -62279.863, -28928.89, 0.0, 5.0163336, 4.930047 
2.1324532e+2, 3.0153403e+2, -21348.844, -134097.19, -649.74976, 0.000019997737, 0.0022058233, -21345.1, -21345.1, 0.0, 5.0163302, 4.94374 
2.132478e+2, 3.0647835e+2, -20231.615, -131495.77, -572.30206, 0.000008438359, -0.005211904, -20228.672, -20228.672, 0.0, 5.0163345, 4.9446735 
2.1325043e+2, 3.1144005e+2, 18080.498, -41587.473, -258.8136, 0.000035840334, 0.0040623466, 18081.621, 18081.621, 0.0, 5.0163426, 4.9775915 
2.1325327e+2, 3.1641868e+2, 19808.547, -37618.53, -167.2017, 0.00001993549, -0.0009695445, 19809.035, 19809.035, 0.0, 5.01636, 4.979049 
2.182118e+2, 1.2292172e+2, -1699245.4, -1738695.9, -177.53699, -0.000011869673, 0.0009425076, -1699244.5, 36122.605, 0.0, 5.017403, 4.9916797 
2.1821451e+2, 1.279129e+2, -1651829.4, -1692893.0, -234.64038, 0.000019448024, -0.0031874562, -1651828.1, 34625.656, 0.0, 5.0174155, 4.9906425 
2.1821699e+2, 1.3290271e+2, -1606551.8, -1651427.3, -559.5443, -0.000020727573, 0.0035322465, -1606544.8, 31008.777, 0.0, 5.0174203, 4.9880896 
2.1821928e+2, 1.3789053e+2, -1558621.3, -1604565.4, -609.1324, -0.000009535167, -0.0013075164, -1558613.1, 30059.703, 0.0, 5.01742, 4.9873953 
2.182214e+2, 1.4287676e+2, -1513593.8, -1563666.8, -896.19867, 0.000014296801, 0.0002835118, -1513577.8, 26230.16, 0.0, 5.017413, 4.98469 
2.1822335e+2, 1.478616e+2, -1465491.1, -1516449.5, -938.6296, 0.00000066482255, -0.0009278715, -1465473.9, 25482.547, 0.0, 5.017401, 4.984112 
2.1822514e+2, 1.5284462e+2, -1420521.1, -1475724.8, -1194.3162, -0.00001067055, 0.0012982683, -1420495.4, 21627.389, 0.0, 5.0173845, 4.981361 
2.1822679e+2, 1.57826e+2, -1372376.9, -1428423.3, -1229.6141, -0.0000026729374, -0.0013047872, -1372349.9, 20955.252, 0.0, 5.017363, 4.980803 
2.182283e+2, 1.6280572e+2, -1327443.0, -1387827.3, -1452.5697, -0.00000008165896, 0.0012640302, -1327408.0, 17095.914, 0.0, 5.017337, 4.977988 
2.182297e+2, 1.6778375e+2, -1279197.0, -1340322.3, -1480.5789, -0.0000023380467, -0.0011697859, -1279161.1, 16558.023, 0.0, 5.0173073, 4.977487 
2.1823096e+2, 1.7276013e+2, -1234308.5, -1299884.4, -1669.4082, -0.00000850036, 0.001145308, -1234266.0, 12684.828, 0.0, 5.017274, 4.9745955 
2.1823213e+2, 1.7773479e+2, -1185985.8, -1252233.9, -1690.7937, -0.0000028992363, -0.0011981066, -1185942.6, 12256.479, 0.0, 5.017237, 4.974133 
2.1823321e+2, 1.827078e+2, -1141115.8, -1211910.3, -1844.4404, -0.000008196146, 0.0012558956, -1141067.8, 8395.89, 0.0, 5.0171976, 4.9711833 
2.1823421e+2, 1.8767905e+2, -1092729.1, -1164146.9, -1859.4512, -0.000005118574, -0.0012933704, -1092680.8, 8064.6396, 0.0, 5.0171556, 4.970747 
2.1823515e+2, 1.9264866e+2, -1047872.6, -1123936.6, -1975.7323, -0.000008964963, 0.001319249, -1047821.3, 4221.833, 0.0, 5.017112, 4.967732 
2.1823603e+2, 1.9761646e+2, -999409.5, -1076040.8, -1987.9485, -0.0000060627376, -0.0012927549, -999357.94, 4000.7822, 0.0, 5.017066, 4.967328 
2.1823686e+2, 2.0258264e+2, -954553.75, -1035927.6, -2063.672, -0.000008655611, 0.001314642, -954501.44, 188.62363, 0.0, 5.017019, 4.964259 
2.1823765e+2, 2.0754698e+2, -906034.25, -987948.8, -2074.2249, -0.0000073610604, -0.0013351284, -905981.75, 57.90269, 0.0, 5.0169706, 4.9638696 
2.1823844e+2, 2.1250966e+2, -861280.1, -948161.6, -2102.3352, -0.0000057902525, 0.0013910828, -861229.3, -3823.8608, 0.0, 5.0169215, 4.9606605 
2.1823922e+2, 2.1747038e+2, -812687.25, -900070.0, -2113.0176, -0.000008753636, -0.0014136856, -812636.2, -3845.945, 0.0, 5.0168724, 4.960295 
2.1824001e+2, 2.224295e+2, -767863.2, -860248.06, -2103.708, -0.000002196813, 0.001436008, -767815.3, -7624.368, 0.0, 5.016823, 4.957071 
2.182408e+2, 2.2738665e+2, -719204.44, -812066.56, -2105.058, -0.000006376246, -0.0013792004, -719156.75, -7546.0264, 0.0, 5.0167737, 4.956721 
2.1824162e+2, 2.323422e+2, -674337.7, -772276.94, -2067.2378, -0.0000014437284, 0.0014808956, -674294.06, -11247.557, 0.0, 5.0167255, 4.953459 
2.1824248e+2, 2.3729575e+2, -625590.94, -723962.4, -2062.4165, 0.00000046795688, -0.0016315746, -625547.75, -11045.986, 0.0, 5.016678, 4.9531393 
2.1824338e+2, 2.4224769e+2, -580730.8, -684324.0, -1988.714, 0.0000009686148, 0.001724378, -580692.6, -14719.923, 0.0, 5.0166316, 4.949792 
2.1824434e+2, 2.4719758e+2, -531870.7, -635826.3, -1976.3527, -0.00000022855653, -0.0016681647, -531833.1, -14369.491, 0.0, 5.0165873, 4.9495196 
2.1824536e+2, 2.5214586e+2, -487111.2, -596562.44, -1868.9972, 0.0000072209373, 0.0016994817, -487079.28, -18108.467, 0.0, 5.0165443, 4.9460135 
2.1824646e+2, 2.5709206e+2, -437967.03, -547502.56, -1847.1445, 0.000010488307, -0.0016987209, -437935.9, -17438.125, 0.0, 5.0165043, 4.9459205 
2.1824765e+2, 2.620366e+2, -393429.1, -508902.13, -1708.131, 0.000008358591, 0.0016991722, -393403.84, -21362.406, 0.0, 5.0164666, 4.9421487 
2.1824895e+2, 2.6697913e+2, -343917.1, -459088.0, -1676.1135, 0.000005600421, -0.0016025826, -343892.7, -20287.986, 0.0, 5.016433, 4.9423046 
2.1825033e+2, 2.7191982e+2, -299646.38, -421277.8, -1506.6443, 0.000016959111, 0.001727645, -299627.72, -24442.092, 0.0, 5.016402, 4.938214 
2.1825188e+2, 2.7685857e+2, -249765.52, -370701.56, -1463.9025, 0.000020056226, -0.0018989234, -249747.8, -22961.922, 0.0, 5.0163746, 4.9386215 
2.1825351e+2, 2.8179556e+2, -205611.05, -333354.78, -1267.4999, 0.000014421958, 0.0022231666, -205598.47, -27195.098, 0.0, 5.016351, 4.934331 
2.1825533e+2, 2.8673056e+2, -155431.42, -282171.84, -1212.3341, 0.0000133111225, -0.0025083525, -155419.83, -25379.205, 0.0, 5.016333, 4.9349375 
2.1825725e+2, 2.916633e+2, -112592.41, -248102.98, -985.9258, 0.000019606025, 0.0017687612, -112585.234, -30885.639, 0.0, 5.0163183, 4.9294434 
2.1825938e+2, 2.9659367e+2, -62312.668, -196787.92, -919.6136, 0.000032351854, -0.000482125, -62306.38, -28924.121, 0.0, 5.01631, 4.9300776 
2.1826164e+2, 3.015309e+2, -21371.709, -134026.64, -647.777, 0.000018565162, 0.0022086813, -21367.984, -21367.984, 0.0, 5.0163064, 4.9437757 
2.1826413e+2, 3.0647525e+2, -20254.709, -131421.34, -568.4847, 0.000008021499, -0.005212306, -20251.8, -20251.8, 0.0, 5.0163093, 4.944711 
2.1826677e+2, 3.1143698e+2, 18063.605, -41494.78, -246.84325, 0.000033650802, 0.0040613557, 18064.629, 18064.629, 0.0, 5.016317, 4.9776363 
2.1826963e+2, 3.164156e+2, 19791.088, -37521.098, -152.69176, 0.00001626819, -0.0009667305, 19791.494, 19791.494, 0.0, 5.016333, 4.9790964 
2.2322929e+2, 1.2291881e+2, -1698827.5, -1738603.4, -194.64716, -0.000009786415, 0.00094355945, -1698826.5, 36569.168, 0.0, 5.017566, 4.9916296 
2.23232e+2, 1.2790991e+2, -1651435.4, -1692813.3, -254.52489, 0.000020300551, -0.0031904683, -1651433.9, 35048.965, 0.0, 5.0175714, 4.9905925 
2.2323447e+2, 1.3289969e+2, -1606174.6, -1651346.0, -590.89435, -0.000019551057, 0.0035320714, -1606166.9, 31416.143, 0.0, 5.0175686, 4.9880443 
2.2323677e+2, 1.3788746e+2, -1558269.0, -1604497.4, -642.9317, -0.000009467179, -0.0013075281, -1558260.1, 30442.725, 0.0, 5.01756, 4.9873495 
2.2323887e+2, 1.4287366e+2, -1513259.4, -1563597.6, -940.073, 0.000015454598, 0.00028361817, -1513241.9, 26596.414, 0.0, 5.017545, 4.984649 
2.2324081e+2, 1.4785846e+2, -1465182.4, -1516393.6, -984.7091, 0.0000008012154, -0.0009281561, -1465163.4, 25823.764, 0.0, 5.0175257, 4.984071 
2.2324258e+2, 1.5284145e+2, -1420231.3, -1475667.8, -1249.2633, -0.000010279797, 0.0012976057, -1420203.1, 21950.78, 0.0, 5.0175, 4.981324 
2.232442e+2, 1.5782279e+2, -1372113.3, -1428379.8, -1286.4698, -0.0000024830267, -0.0013053558, -1372083.8, 21252.887, 0.0, 5.01747, 4.980766 
2.2324568e+2, 1.6280246e+2, -1327198.3, -1387782.0, -1516.9271, 0.00000013457101, 0.0012644482, -1327160.3, 17375.56, 0.0, 5.0174356, 4.977956 
2.2324704e+2, 1.6778047e+2, -1278978.9, -1340290.5, -1546.6556, -0.0000028202292, -0.0011698473, -1278939.9, 16811.475, 0.0, 5.017397, 4.9774547 
2.2324827e+2, 1.727568e+2, -1234110.3, -1299850.6, -1742.0042, -0.0000085697375, 0.001145488, -1234064.1, 12919.132, 0.0, 5.0173545, 4.974569 
2.232494e+2, 1.7773144e+2, -1185815.4, -1252214.1, -1764.7103, -0.0000013107139, -0.0011992407, -1185768.5, 12463.329, 0.0, 5.0173087, 4.974106 
2.2325045e+2, 1.8270443e+2, -1140963.8, -1211887.4, -1923.4233, -0.000009651526, 0.0012566589, -1140911.6, 8584.978, 0.0, 5.0172606, 4.9711614 
2.2325139e+2, 1.8767565e+2, -1092604.1, -1164137.3, -1939.6721, -0.0000056716613, -0.0012922933, -1092551.5, 8227.086, 0.0, 5.0172095, 4.970725 
2.2325228e+2, 1.9264525e+2, -1047769.0, -1123925.3, -2059.5105, -0.000007702952, 0.0013180791, -1047713.4, 4363.204, 0.0, 5.0171556, 4.9677157 
2.2325312e+2, 1.9761303e+2, -999332.6, -1076041.8, -2072.3267, -0.00000583635, -0.0012934562, -999276.7, 4115.6167, 0.0, 5.0171003, 4.9673114 
2.2325389e+2, 2.0257922e+2, -954496.94, -1035926.44, -2150.7515, -0.000008694446, 0.0013156347, -954440.2, 283.6133, 0.0, 5.017044, 4.964248 
2.2325464e+2, 2.0754354e+2, -906004.6, -987960.44, -2161.5938, -0.0000071909094, -0.0013345438, -905947.6, 125.82965, 0.0, 5.0169864, 4.9638586 
2.2325537e+2, 2.1250619e+2, -861275.9, -948184.3, -2190.9973, -0.000004976442, 0.001390011, -861220.7, -3781.3489, 0.0, 5.016928, 4.96065 
2.2325608e+2, 2.1746692e+2, -812710.1, -900105.1, -2202.116, -0.000007956957, -0.0014140077, -812654.7, -3830.399, 0.0, 5.016869, 4.9602847 
2.2325683e+2, 2.2242603e+2, -767900.1, -860267.0, -2192.762, -0.0000018735791, 0.001436256, -767848.1, -7623.141, 0.0, 5.0168104, 4.95707 
2.2325757e+2, 2.273832e+2, -719268.06, -812097.06, -2194.3481, -0.0000054641423, -0.0013790954, -719216.25, -7571.4233, 0.0, 5.016752, 4.956721 
2.2325833e+2, 2.3233871e+2, -674421.44, -772305.2, -2155.1755, -0.0000005688065, 0.0014805404, -674374.06, -11293.443, 0.0, 5.0166936, 4.9534636 
2.2325914e+2, 2.3729226e+2, -625700.94, -724001.75, -2150.2678, 0.0000011261085, -0.0016323514, -625653.94, -11118.202, 0.0, 5.0166364, 4.9531446 
2.2325999e+2, 2.4224421e+2, -580861.44, -684361.2, -2074.043, 0.0000021399912, 0.0017244953, -580819.9, -14813.242, 0.0, 5.0165806, 4.949802 
2.232609e+2, 2.4719414e+2, -532026.9, -635874.0, -2061.1135, 0.0000007582547, -0.0016679971, -531986.0, -14488.5, 0.0, 5.0165267, 4.94953 
2.2326186e+2, 2.521424e+2, -487286.97, -596607.9, -1950.0371, 0.000008617516, 0.0016988135, -487252.2, -18247.684, 0.0, 5.0164747, 4.9460287 
2.2326292e+2, 2.5708866e+2, -438167.72, -547557.9, -1927.2914, 0.000011399273, -0.0016986754, -438133.75, -17602.424, 0.0, 5.0164256, 4.945936 
2.2326407e+2, 2.6203316e+2, -393649.06, -508955.72, -1783.4708, 0.000010022013, 0.0016991078, -393621.47, -21546.666, 0.0, 5.016379, 4.9421687 
2.2326532e+2, 2.6697573e+2, -344160.47, -459149.97, -1750.0769, 0.000007940512, -0.0016031363, -344133.84, -20495.963, 0.0, 5.0163355, 4.9423256 
2.2326668e+2, 2.7191648e+2, -299909.3, -421339.16, -1574.7072, 0.000018809287, 0.0017279872, -299888.9, -24670.326, 0.0, 5.0162954, 4.938239 
2.2326818e+2, 2.7685526e+2, -250050.55, -370770.22, -1530.2734, 0.000021941943, -0.001898757, -250031.16, -23212.568, 0.0, 5.0162597, 4.9386477 
2.2326979e+2, 2.8179225e+2, -205913.95, -333421.13, -1327.0455, 0.000017099088, 0.0022233445, -205900.14, -27464.344, 0.0, 5.0162277, 4.934361 
2.2327158e+2, 2.8672725e+2, -155755.17, -282244.5, -1269.4617, 0.000016586135, -0.0025091202, -155742.44, -25669.676, 0.0, 5.016201, 4.9349685 
2.2327349e+2, 2.9166007e+2, -112938.53, -248185.13, -1035.3665, 0.000022545932, 0.0017684418, -112930.61, -31199.186, 0.0, 5.016178, 4.929475 
2.232756e+2, 2.9659042e+2, -62679.2, -196877.31, -966.3112, 0.000035500525, -0.00048067063, -62672.242, -29258.47, 0.0, 5.016162, 4.9301095 
2.2327787e+2, 3.0152768e+2, -21752.088, -134109.52, -685.7068, 0.000020549924, 0.0022105423, -21747.902, -21747.902, 0.0, 5.0161495, 4.9438124 
2.2328036e+2, 3.064721e+2, -20653.523, -131508.16, -603.0537, 0.000013465075, -0.005214161, -20650.242, -20650.242, 0.0, 5.016145, 4.9447503 
2.23283e+2, 3.1143388e+2, 17656.799, -41567.156, -271.16214, 0.000038190206, 0.004060748, 17658.041, 17658.041, 0.0, 5.016145, 4.977683 
2.2328587e+2, 3.1641257e+2, 19369.16, -37594.832, -172.86385, 0.000022004047, -0.000965478, 19369.686, 19369.686, 0.0, 5.016155, 4.9791455 
2.2824685e+2, 1.2291588e+2, -1698891.1, -1738752.9, -191.12071, -0.000011833033, 0.0009433155, -1698890.3, 36534.18, 0.0, 5.0175705, 4.9915786 
2.2824958e+2, 1.2790695e+2, -1651501.0, -1692964.1, -251.5623, 0.000017643362, -0.0031942655, -1651499.5, 35012.52, 0.0, 5.017575, 4.990541 
2.2825204e+2, 1.3289666e+2, -1606235.4, -1651483.6, -597.48096, -0.000021171087, 0.0035307212, -1606227.4, 31385.29, 0.0, 5.0175714, 4.9879975 
2.2825433e+2, 1.3788438e+2, -1558331.9, -1604636.4, -649.8932, -0.000012046244, -0.0013079229, -1558322.8, 30410.195, 0.0, 5.017562, 4.987303 
2.2825642e+2, 1.4287053e+2, -1513317.5, -1563723.5, -955.3953, 0.000013784809, 0.0002826854, -1513299.4, 26569.48, 0.0, 5.0175467, 4.9846067 
2.2825833e+2, 1.4785528e+2, -1465242.6, -1516521.0, -1000.4544, -0.0000021003145, -0.00092979794, -1465223.1, 25795.049, 0.0, 5.017526, 4.984028 
2.2826008e+2, 1.5283825e+2, -1420286.6, -1475781.4, -1272.1549, -0.000011860693, 0.001296431, -1420257.5, 21927.846, 0.0, 5.0174994, 4.981286 
2.2826168e+2, 1.5781955e+2, -1372170.8, -1428494.8, -1309.629, -0.00000458352, -0.0013064529, -1372140.3, 21228.178, 0.0, 5.017469, 4.980728 
2.2826312e+2, 1.627992e+2, -1327250.5, -1387882.5, -1546.1953, -0.000002412329, 0.001263585, -1327211.1, 17356.885, 0.0, 5.0174336, 4.977923 
2.2826444e+2, 1.6777717e+2, -1279033.5, -1340392.6, -1576.355, -0.0000044776784, -0.0011723625, -1278993.1, 16790.736, 0.0, 5.0173945, 4.9774218 
2.2826563e+2, 1.7275347e+2, -1234159.6, -1299937.9, -1776.8456, -0.000011100228, 0.0011457272, -1234111.6, 12904.404, 0.0, 5.0173507, 4.974541 
2.282667e+2, 1.7772809e+2, -1185866.9, -1252302.6, -1799.3967, -0.0000033004828, -0.0012011568, -1185818.3, 12446.593, 0.0, 5.0173044, 4.974078 
2.282677e+2, 1.8270104e+2, -1141010.1, -1211961.0, -1962.1735, -0.00001227607, 0.0012544595, -1140955.9, 8573.929, 0.0, 5.0172553, 4.971139 
2.282686e+2, 1.8767224e+2, -1092652.8, -1164211.8, -1978.8796, -0.000007383616, -0.0012909146, -1092598.1, 8214.031, 0.0, 5.0172033, 4.9707026 
2.2826944e+2, 1.9264181e+2, -1047812.5, -1123984.8, -2101.3462, -0.000010374135, 0.0013148164, -1047754.56, 4355.633, 0.0, 5.0171485, 4.9676986 
2.282702e+2, 1.9760959e+2, -999378.2, -1076102.0, -2114.072, -0.000009373211, -0.0012977229, -999320.0, 4106.127, 0.0, 5.0170927, 4.9672947 
2.2827093e+2, 2.0257574e+2, -954537.5, -1035972.1, -2194.47, -0.000009903107, 0.0013165231, -954478.44, 279.31708, 0.0, 5.0170355, 4.9642363 
2.2827162e+2, 2.0754005e+2, -906047.3, -988007.0, -2204.9395, -0.000010613343, -0.0013334923, -905988.0, 119.54225, 0.0, 5.016977, 4.9638467 
2.2827229e+2, 2.125027e+2, -861320.0, -948230.3, -2235.368, -0.000007926599, 0.0013852388, -861262.56, -3789.0322, 0.0, 5.016918, 4.9606385 
2.2827294e+2, 2.174634e+2, -812756.2, -900151.7, -2246.6646, -0.000008806022, -0.0014175116, -812698.5, -3839.8958, 0.0, 5.016858, 4.9602737 
2.2827362e+2, 2.2242251e+2, -767935.0, -860285.25, -2236.8806, -0.000006229353, 0.0014370615, -767880.9, -7621.5103, 0.0, 5.0167985, 4.9570694 
2.282743e+2, 2.2737968e+2, -719304.56, -812115.0, -2238.6653, -0.000007767804, -0.0013807253, -719250.56, -7571.427, 0.0, 5.016739, 4.9567204 
2.2827503e+2, 2.3233522e+2, -674453.56, -772309.44, -2198.1208, -0.00000269416, 0.0014779699, -674404.2, -11289.277, 0.0, 5.0166802, 4.9534683 
2.2827578e+2, 2.3728877e+2, -625734.9, -724005.9, -2193.2969, -0.0000009591366, -0.0016345872, -625685.94, -11115.878, 0.0, 5.016622, 4.9531493 
2.2827657e+2, 2.4224073e+2, -580891.0, -684351.56, -2114.779, 0.00000021365969, 0.0017231599, -580847.8, -14806.909, 0.0, 5.0165653, 4.9498124 
2.2827742e+2, 2.4719065e+2, -532058.1, -635863.94, -2101.6033, -0.0000025251163, -0.0016691596, -532015.6, -14484.009, 0.0, 5.0165105, 4.9495406 
2.2827834e+2, 2.5213894e+2, -487314.34, -596584.9, -1987.1528, 0.000007742953, 0.0016967889, -487278.22, -18239.723, 0.0, 5.016458, 4.946044 
2.2827934e+2, 2.5708517e+2, -438196.84, -547534.44, -1964.1403, 0.000009848108, -0.0017002844, -438161.6, -17596.414, 0.0, 5.0164075, 4.945952 
2.2828044e+2, 2.6202977e+2, -393674.94, -508920.4, -1815.9789, 0.000007437676, 0.001698016, -393646.3, -21537.854, 0.0, 5.0163603, 4.942189 
2.2828166e+2, 2.6697233e+2, -344187.9, -459113.53, -1782.0505, 0.000006940656, -0.0016042414, -344160.28, -20488.934, 0.0, 5.016316, 4.942347 
2.2828297e+2, 2.7191308e+2, -299934.22, -421292.16, -1601.4827, 0.000017193603, 0.0017273851, -299913.1, -24661.29, 0.0, 5.016275, 4.9382644 
2.2828443e+2, 2.768519e+2, -250076.97, -370721.8, -1556.319, 0.00001948652, -0.0018994652, -250056.89, -23205.344, 0.0, 5.0162387, 4.938674 
2.2828601e+2, 2.8178895e+2, -205937.6, -333361.4, -1347.1643, 0.000015386087, 0.0022234179, -205923.34, -27454.863, 0.0, 5.0162053, 4.934392 
2.2828779e+2, 2.8672397e+2, -155780.1, -282182.9, -1288.3689, 0.00001567379, -0.0025099374, -155766.95, -25661.828, 0.0, 5.0161777, 4.9350004 
2.2828966e+2, 2.916568e+2, -112965.98, -248124.55, -1047.617, 0.000021120599, 0.0017682555, -112957.86, -31194.375, 0.0, 5.0161543, 4.9295063 
2.2829178e+2, 2.965872e+2, -62708.625, -196816.52, -976.9752, 0.00003376521, -0.00047864858, -62701.508, -29255.998, 0.0, 5.016137, 4.930142 
2.28294e+2, 3.0152446e+2, -21777.725, -134035.42, -689.16846, 0.000017328091, 0.0022126215, -21773.494, -21773.494, 0.0, 5.016124, 4.9438505 
2.2829649e+2, 3.0646893e+2, -20679.486, -131430.1, -604.43463, 0.000014705439, -0.0052160486, -20676.19, -20676.19, 0.0, 5.0161185, 4.94479 
2.2829913e+2, 3.1143075e+2, 17637.115, -41470.44, -264.16202, 0.000036723166, 0.0040619886, 17638.297, 17638.297, 0.0, 5.0161176, 4.9777308 
2.2830203e+2, 3.1640953e+2, 19348.994, -37492.863, -162.99103, 0.000016988279, -0.00096242013, 19349.46, 19349.46, 0.0, 5.0161257, 4.9791956 
2.332645e+2, 1.2291294e+2, -1698445.0, -1738652.8, -203.34145, -0.000009650963, 0.00094456226, -1698444.0, 37009.25, 0.0, 5.0177445, 4.9915257 
2.3326723e+2, 1.2790395e+2, -1651080.3, -1692877.5, -266.62073, 0.000018112254, -0.0031954846, -1651078.5, 35462.81, 0.0, 5.0177407, 4.990488 
2.332697e+2, 1.3289362e+2, -1605832.6, -1651395.6, -624.36145, -0.000019918922, 0.0035297961, -1605824.1, 31818.45, 0.0, 5.0177293, 4.9879494 
2.3327197e+2, 1.3788131e+2, -1557955.4, -1604562.3, -679.2288, -0.0000120355935, -0.0013070438, -1557945.5, 30817.72, 0.0, 5.0177116, 4.987254 
2.3327403e+2, 1.428674e+2, -1512960.3, -1563648.3, -995.1418, 0.000014583387, 0.0002838397, -1512940.8, 26958.81, 0.0, 5.017688, 4.9845634 
2.3327592e+2, 1.4785211e+2, -1464912.8, -1516460.1, -1042.4325, -0.000002059315, -0.0009304925, -1464891.6, 26157.668, 0.0, 5.017658, 4.9839845 
2.3327763e+2, 1.5283503e+2, -1419976.3, -1475718.9, -1323.2972, -0.000011556781, 0.0012968602, -1419944.9, 22271.982, 0.0, 5.017623, 4.9812474 
2.332792e+2, 1.5781629e+2, -1371888.4, -1428446.6, -1362.7329, -0.000004568119, -0.0013061471, -1371855.5, 21544.87, 0.0, 5.0175834, 4.980689 
2.3328061e+2, 1.627959e+2, -1326988.5, -1387832.5, -1607.1641, -0.0000025183815, 0.0012640643, -1326946.0, 17654.213, 0.0, 5.0175385, 4.9778895 
2.3328188e+2, 1.6777383e+2, -1278800.5, -1340357.8, -1639.071, -0.000004039725, -0.0011734404, -1278756.9, 17059.584, 0.0, 5.01749, 4.977388 
2.3328301e+2, 1.727501e+2, -1233946.1, -1299900.4, -1846.2185, -0.000011412719, 0.0011472042, -1233894.4, 13154.514, 0.0, 5.0174375, 4.9745126 
2.3328404e+2, 1.777247e+2, -1185681.1, -1252278.8, -1870.3453, -0.000004223734, -0.0012003417, -1185628.8, 12669.325, 0.0, 5.0173817, 4.9740496 
2.33285e+2, 1.8269764e+2, -1140848.0, -1211936.0, -2038.4015, -0.000011531883, 0.0012532707, -1140789.6, 8773.711, 0.0, 5.0173216, 4.971116 
2.3328583e+2, 1.8766879e+2, -1092519.8, -1164200.5, -2056.3794, -0.0000064535225, -0.0012895982, -1092460.8, 8384.99, 0.0, 5.01726, 4.9706798 
2.332866e+2, 1.9263837e+2, -1047698.94, -1123970.0, -2182.342, -0.000011227299, 0.0013145802, -1047636.5, 4507.5684, 0.0, 5.0171957, 4.9676814 
2.332873e+2, 1.9760612e+2, -999294.56, -1076102.0, -2195.4045, -0.000009204701, -0.0012984504, -999231.8, 4228.32, 0.0, 5.01713, 4.967277 
2.3328798e+2, 2.0257226e+2, -954474.4, -1035969.56, -2278.6606, -0.000009010232, 0.001317168, -954410.7, 381.2187, 0.0, 5.0170627, 4.9642243 
2.332886e+2, 2.0753655e+2, -906011.94, -988017.2, -2289.6548, -0.00001031491, -0.0013326271, -905948.06, 193.815, 0.0, 5.0169945, 4.9638352 
2.3328921e+2, 2.1249919e+2, -861313.5, -948252.7, -2321.2095, -0.0000075342027, 0.0013842095, -861251.56, -3743.6052, 0.0, 5.016926, 4.9606276 
2.3328981e+2, 2.1745989e+2, -812777.1, -900186.6, -2332.8882, -0.00000785974, -0.001418506, -812714.94, -3821.8342, 0.0, 5.016856, 4.9602623 
2.3329042e+2, 2.22419e+2, -767970.6, -860304.06, -2323.1533, -0.0000058070805, 0.0014380097, -767912.2, -7618.2627, 0.0, 5.0167866, 4.9570684 
2.3329103e+2, 2.2737615e+2, -719368.4, -812146.0, -2325.2708, -0.0000071394284, -0.0013817629, -719310.1, -7596.405, 0.0, 5.016717, 4.9567194 
2.3329169e+2, 2.3233168e+2, -674539.06, -772337.8, -2283.5454, -0.0000018983773, 0.0014778783, -674485.75, -11336.275, 0.0, 5.016648, 4.953473 
2.3329236e+2, 2.3728524e+2, -625848.75, -724046.2, -2278.5571, 0.00000010926594, -0.0016346545, -625795.94, -11191.354, 0.0, 5.0165796, 4.9531546 
2.3329309e+2, 2.4223721e+2, -581026.1, -684389.4, -2197.2515, 0.00000088823674, 0.0017220993, -580979.44, -14904.108, 0.0, 5.016513, 4.949823 
2.3329389e+2, 2.4718715e+2, -532220.5, -635913.1, -2183.4827, -0.0000021297892, -0.00166929, -532174.56, -14608.642, 0.0, 5.016448, 4.9495516 
2.3329476e+2, 2.5213543e+2, -487497.84, -596632.0, -2065.1917, 0.000009346051, 0.0016964906, -487458.78, -18386.064, 0.0, 5.016385, 4.94606 
2.3329571e+2, 2.5708172e+2, -438406.38, -547591.8, -2041.2233, 0.0000105590625, -0.0017014364, -438368.22, -17769.021, 0.0, 5.016325, 4.9459686 
2.3329675e+2, 2.620263e+2, -393905.22, -508976.2, -1887.9795, 0.000008656374, 0.0016979838, -393874.25, -21731.92, 0.0, 5.016268, 4.9422107 
2.3329791e+2, 2.6696888e+2, -344442.97, -459178.28, -1852.6744, 0.000009469397, -0.0016043178, -344413.06, -20708.086, 0.0, 5.0162144, 4.942369 
2.3329918e+2, 2.7190965e+2, -300209.6, -421355.97, -1665.9512, 0.00001822684, 0.0017268256, -300186.72, -24901.504, 0.0, 5.016164, 4.9382906 
2.3330061e+2, 2.7684852e+2, -250376.02, -370793.66, -1619.0249, 0.000021002235, -0.00190017, -250354.25, -23469.566, 0.0, 5.016118, 4.938701 
2.3330216e+2, 2.8178558e+2, -206255.73, -333430.94, -1402.8531, 0.00001857184, 0.002223928, -206240.27, -27738.922, 0.0, 5.0160756, 4.9344234 
2.3330387e+2, 2.8672063e+2, -156120.16, -282258.94, -1341.5486, 0.00001831735, -0.0025113334, -156105.89, -25968.219, 0.0, 5.0160394, 4.9350333 
2.3330572e+2, 2.916535e+2, -113329.62, -248210.23, -1092.8634, 0.000023048306, 0.0017672012, -113320.766, -31525.072, 0.0, 5.0160065, 4.9295397 
2.3330781e+2, 2.9658395e+2, -63093.86, -196909.88, -1019.33307, 0.0000372668, -0.00047656256, -63086.094, -29608.705, 0.0, 5.0159807, 4.9301753 
2.3331004e+2, 3.0152127e+2, -22177.79, -134122.03, -722.6867, 0.000020298372, 0.002214022, -22173.123, -22173.123, 0.0, 5.015959, 4.9438896 
2.3331252e+2, 3.0646574e+2, -21099.137, -131521.08, -634.2944, 0.00001924668, -0.0052196835, -21095.494, -21095.494, 0.0, 5.015946, 4.944831 
2.3331514e+2, 3.1142762e+2, 17208.533, -41546.96, -283.85535, 0.000038927512, 0.0040623513, 17209.904, 17209.904, 0.0, 5.015937, 4.97778 
2.3331806e+2, 3.1640643e+2, 18904.219, -37570.73, -178.26282, 0.000024901692, -0.0009617702, 18904.781, 18904.781, 0.0, 5.0159373, 4.979247 
2.3828226e+2, 1.2290999e+2, -1698511.4, -1738810.3, -205.11583, -0.000012406203, 0.0009440183, -1698510.4, 36971.75, 0.0, 5.0177493, 4.991472 
2.3828498e+2, 1.2790096e+2, -1651148.4, -1693035.8, -268.91495, 0.00001501251, -0.0031969054, -1651146.6, 35424.043, 0.0, 5.017745, 4.990434 
2.3828743e+2, 1.3289058e+2, -1605895.9, -1651540.4, -636.58203, -0.000021744898, 0.0035267717, -1605887.0, 31785.379, 0.0, 5.0177326, 4.9879 
2.3828968e+2, 1.3787821e+2, -1558021.1, -1604708.5, -691.80725, -0.000015190814, -0.0013073703, -1558010.9, 30782.805, 0.0, 5.017714, 4.9872046 
2.3829173e+2, 1.4286424e+2, -1513020.9, -1563780.5, -1016.30743, 0.00001256052, 0.00028459722, -1513000.5, 26929.865, 0.0, 5.017689, 4.9845185 
2.3829359e+2, 1.4784892e+2, -1464975.9, -1516594.4, -1063.951, -0.000004174641, -0.0009327191, -1464954.0, 26126.584, 0.0, 5.017659, 4.983939 
2.3829526e+2, 1.528318e+2, -1420034.3, -1475838.5, -1352.3231, -0.000014370112, 0.0012963932, -1420001.5, 22247.068, 0.0, 5.017623, 4.981208 
2.3829678e+2, 1.5781301e+2, -1371948.8, -1428567.6, -1392.0499, -0.0000071826225, -0.0013069994, -1371914.5, 21517.973, 0.0, 5.0175824, 4.9806495 
2.3829815e+2, 1.627926e+2, -1327043.1, -1387937.9, -1642.8668, -0.000004514123, 0.0012632232, -1326998.9, 17633.879, 0.0, 5.0175366, 4.977855 
2.3829935e+2, 1.6777049e+2, -1278857.8, -1340465.3, -1674.9479, -0.0000056024865, -0.0011758391, -1278812.3, 17036.94, 0.0, 5.0174875, 4.977353 
2.3830046e+2, 1.7274673e+2, -1233998.0, -1299992.8, -1887.1914, -0.000013758756, 0.0011470842, -1233944.1, 13137.943, 0.0, 5.0174336, 4.974483 
2.3830144e+2, 1.7772128e+2, -1185735.4, -1252371.9, -1911.9375, -0.000008447078, -0.0011997593, -1185680.6, 12650.792, 0.0, 5.017377, 4.97402 
2.383023e+2, 1.826942e+2, -1140896.9, -1212013.9, -2084.0063, -0.000011985596, 0.0012499915, -1140835.9, 8761.021, 0.0, 5.0173163, 4.971092 
2.3830308e+2, 1.8766534e+2, -1092570.8, -1164278.4, -2101.7974, -0.0000079047795, -0.0012916623, -1092509.1, 8370.497, 0.0, 5.0172534, 4.9706564 
2.383038e+2, 1.9263488e+2, -1047744.5, -1124031.9, -2231.0718, -0.000015696196, 0.0013140823, -1047679.3, 4498.882, 0.0, 5.0171885, 4.967664 
2.3830444e+2, 1.9760261e+2, -999343.5, -1076166.5, -2243.8809, -0.000010929475, -0.0012988722, -999278.0, 4216.393, 0.0, 5.0171213, 4.9672594 
2.3830503e+2, 2.0256874e+2, -954518.06, -1036018.5, -2328.7666, -0.000011887223, 0.0013142711, -954451.56, 374.77658, 0.0, 5.0170536, 4.964212 
2.383056e+2, 2.0753302e+2, -906057.2, -988066.0, -2339.8325, -0.000012484804, -0.0013353302, -905990.44, 185.91835, 0.0, 5.0169845, 4.963823 
2.3830613e+2, 2.1249565e+2, -861359.8, -948300.4, -2371.9546, -0.00001019541, 0.0013836393, -861295.2, -3752.587, 0.0, 5.016915, 4.960616 
2.3830666e+2, 2.1745634e+2, -812825.2, -900234.56, -2383.9055, -0.000011642323, -0.001420227, -812760.2, -3832.349, 0.0, 5.0168443, 4.9602513 
2.3830721e+2, 2.2241543e+2, -768007.6, -860323.9, -2374.247, -0.000007229051, 0.0014358584, -767946.6, -7617.899, 0.0, 5.016774, 4.957067 
2.3830776e+2, 2.273726e+2, -719407.75, -812166.0, -2376.439, -0.000010142867, -0.0013854472, -719346.94, -7598.3623, 0.0, 5.016703, 4.956719 
2.3830834e+2, 2.3232815e+2, -674573.44, -772342.2, -2333.4739, -0.0000045903284, 0.0014770754, -674517.8, -11333.507, 0.0, 5.0166335, 4.9534783 
2.3830895e+2, 2.3728171e+2, -625885.06, -724050.5, -2328.4587, -0.0000018364088, -0.0016356158, -625829.9, -11190.574, 0.0, 5.0165644, 4.9531603 
2.383096e+2, 2.4223368e+2, -581057.9, -684379.1, -2244.5667, -0.0000018865968, 0.001718384, -581009.1, -14899.139, 0.0, 5.0164967, 4.949834 
2.3831034e+2, 2.4718362e+2, -532254.25, -635902.9, -2230.6243, -0.0000040386594, -0.0016711471, -532206.25, -14605.792, 0.0, 5.016431, 4.949563 
2.3831114e+2, 2.5213194e+2, -487527.6, -596608.25, -2108.8074, 0.000007395534, 0.0016953159, -487486.84, -18379.705, 0.0, 5.016367, 4.9460764 
2.3831202e+2, 2.5707823e+2, -438437.84, -547567.25, -2084.5774, 0.000007231115, -0.0017045666, -438398.06, -17764.586, 0.0, 5.0163064, 4.945986 
2.3831302e+2, 2.6202282e+2, -393933.38, -508939.28, -1926.8984, 0.000007059115, 0.0016968584, -393901.1, -21724.705, 0.0, 5.0162477, 4.942232 
2.3831414e+2, 2.6696542e+2, -344472.88, -459140.38, -1891.061, 0.000008702701, -0.0016050985, -344441.7, -20702.875, 0.0, 5.0161934, 4.9423914 
2.3831536e+2, 2.7190626e+2, -300236.84, -421306.75, -1698.9911, 0.000014579698, 0.001724995, -300213.0, -24894.201, 0.0, 5.016142, 4.938318 
2.3831673e+2, 2.768451e+2, -250405.03, -370743.22, -1651.3408, 0.00001809416, -0.0019018253, -250382.38, -23464.344, 0.0, 5.016095, 4.9387293 
2.3831822e+2, 2.817822e+2, -206281.89, -333368.63, -1429.0477, 0.000017512422, 0.0022244037, -206265.83, -27731.445, 0.0, 5.016052, 4.934456 
2.3831992e+2, 2.8671733e+2, -156147.66, -282194.4, -1366.4988, 0.000015793143, -0.002513171, -156132.84, -25962.465, 0.0, 5.016014, 4.935067 
2.3832174e+2, 2.916502e+2, -113359.75, -248146.5, -1111.0098, 0.000019469004, 0.0017658387, -113350.59, -31522.52, 0.0, 5.0159807, 4.9295735 
2.383238e+2, 2.9658067e+2, -63126.152, -196845.97, -1035.7864, 0.00003608617, -0.00047391545, -63118.13, -29608.697, 0.0, 5.015954, 4.9302096 
2.38326e+2, 3.0151802e+2, -22206.148, -134044.1, -731.8742, 0.00001900494, 0.0022157552, -22201.36, -22201.36, 0.0, 5.015931, 4.9439297 
2.3832846e+2, 3.064626e+2, -21128.107, -131439.34, -641.06335, 0.000017537623, -0.0052232565, -21124.383, -21124.383, 0.0, 5.015917, 4.944873 
2.3833108e+2, 3.1142446e+2, 17185.83, -41446.266, -282.22327, 0.000033100132, 0.0040640044, 17187.19, 17187.19, 0.0, 5.015907, 4.9778295 
2.3833399e+2, 3.1640333e+2, 18881.117, -37464.29, -173.41124, 0.000023791363, -0.0009595331, 18881.65, 18881.65, 0.0, 5.0159063, 4.9793 
2.4330011e+2, 1.2290705e+2, -1698035.9, -1738702.3, -212.28592, -0.000010530762, 0.0009457, -1698034.8, 37476.168, 0.0, 5.017935, 4.991416 
2.433028e+2, 1.2789796e+2, -1650699.9, -1692941.9, -278.80457, 0.000015367548, -0.00319772, -1650698.0, 35902.06, 0.0, 5.0179214, 4.9903784 
2.4330524e+2, 1.3288753e+2, -1605466.5, -1651445.0, -658.77704, -0.00002082341, 0.003526559, -1605457.1, 32245.203, 0.0, 5.0179005, 4.987849 
2.4330749e+2, 1.3787511e+2, -1557619.8, -1604628.1, -716.3706, -0.000015110353, -0.001306501, -1557608.8, 31215.227, 0.0, 5.0178733, 4.987154 
2.433095e+2, 1.428611e+2, -1512639.6, -1563698.8, -1051.7366, 0.0000128909005, 0.00028653085, -1512618.0, 27343.313, 0.0, 5.0178394, 4.9844728 
2.4331133e+2, 1.4784572e+2, -1464623.6, -1516527.9, -1101.7102, -0.0000038625712, -0.00093285285, -1464600.3, 26511.613, 0.0, 5.0178, 4.9838934 
2.4331295e+2, 1.5282854e+2, -1419702.9, -1475770.4, -1399.4763, -0.000014432265, 0.0012969415, -1419668.0, 22612.295, 0.0, 5.0177546, 4.9811673 
2.4331442e+2, 1.5780973e+2, -1371646.9, -1428514.9, -1441.1611, -0.0000071342556, -0.0013065868, -1371610.4, 21854.19, 0.0, 5.017704, 4.9806085 
2.4331574e+2, 1.6278926e+2, -1326762.6, -1387883.1, -1700.1774, -0.000004416945, 0.0012639723, -1326715.4, 17949.844, 0.0, 5.017649, 4.97782 
2.4331689e+2, 1.6776714e+2, -1278607.3, -1340425.8, -1734.1761, -0.0000061039386, -0.001175618, -1278558.6, 17323.445, 0.0, 5.0175896, 4.977318 
2.4331793e+2, 1.7274335e+2, -1233769.5, -1299951.3, -1952.8512, -0.000013308977, 0.001147754, -1233712.0, 13403.28, 0.0, 5.017526, 4.9744534 
2.4331884e+2, 1.7771786e+2, -1185537.4, -1252345.9, -1979.2389, -0.000008937283, -0.0011991943, -1185478.8, 12886.105, 0.0, 5.0174594, 4.97399 
2.4331966e+2, 1.8269075e+2, -1140720.5, -1211985.1, -2156.9766, -0.000011726943, 0.0012503075, -1140655.3, 8975.415, 0.0, 5.0173883, 4.971068 
2.4332038e+2, 1.8766189e+2, -1092425.4, -1164264.9, -2175.649, -0.000007651838, -0.0012923292, -1092359.5, 8554.092, 0.0, 5.017315, 4.970632 
2.4332102e+2, 1.926314e+2, -1047622.5, -1124015.9, -2310.0562, -0.00001581056, 0.0013150459, -1047552.7, 4659.653, 0.0, 5.0172396, 4.9676456 
2.4332158e+2, 1.9759911e+2, -999253.4, -1076165.6, -2323.9158, -0.000009785306, -0.0012984596, -999183.2, 4345.571, 0.0, 5.0171614, 4.967241 
2.4332212e+2, 2.0256522e+2, -954450.2, -1036013.7, -2409.4863, -0.000012149064, 0.0013135687, -954379.06, 481.76718, 0.0, 5.0170827, 4.9642 
2.4332258e+2, 2.075295e+2, -906017.56, -988074.0, -2420.3733, -0.0000116481315, -0.0013356261, -905946.25, 264.75906, 0.0, 5.017004, 4.9638114 
2.4332306e+2, 2.1249211e+2, -861348.75, -948323.1, -2453.8262, -0.0000093947, 0.0013835611, -861279.56, -3702.2478, 0.0, 5.0169244, 4.960604 
2.433235e+2, 2.174528e+2, -812842.06, -900269.9, -2467.0122, -0.000011727755, -0.0014204765, -812772.56, -3809.8113, 0.0, 5.0168443, 4.9602394 
2.4332395e+2, 2.2241187e+2, -768040.0, -860340.75, -2458.7202, -0.0000058700866, 0.0014351354, -767974.5, -7610.858, 0.0, 5.016763, 4.9570665 
2.4332443e+2, 2.2736904e+2, -719472.0, -812196.8, -2460.8, -0.000009429527, -0.0013862835, -719406.75, -7623.25, 0.0, 5.0166807, 4.9567184 
2.4332494e+2, 2.3232457e+2, -674661.44, -772370.5, -2416.0112, -0.0000040159102, 0.0014766905, -674601.75, -11382.508, 0.0, 5.0165997, 4.9534836 
2.4332549e+2, 2.3727815e+2, -626002.7, -724091.5, -2410.659, -0.0000014386619, -0.0016363856, -625943.44, -11269.305, 0.0, 5.01652, 4.953166 
2.4332607e+2, 2.4223013e+2, -581198.06, -684418.0, -2323.79, -0.0000012759972, 0.0017172575, -581145.75, -15001.014, 0.0, 5.016442, 4.949845 
2.4332672e+2, 2.4718009e+2, -532423.06, -635953.7, -2309.247, -0.0000024193903, -0.0016718968, -532371.56, -14736.418, 0.0, 5.0163655, 4.9495745 
2.4332745e+2, 2.521284e+2, -487718.47, -596656.94, -2183.255, 0.0000077713785, 0.0016944795, -487674.72, -18533.063, 0.0, 5.016291, 4.946093 
2.4332829e+2, 2.570747e+2, -438656.34, -547626.8, -2158.2107, 0.0000069508164, -0.0017058958, -438613.63, -17945.791, 0.0, 5.01622, 4.946003 
2.4332921e+2, 2.620193e+2, -394173.8, -508997.22, -1995.3876, 0.000008763056, 0.0016962707, -394139.16, -21928.59, 0.0, 5.0161514, 4.9422545 
2.4333026e+2, 2.6696196e+2, -344739.53, -459207.84, -1958.1047, 0.000011203651, -0.0016062629, -344706.03, -20933.271, 0.0, 5.0160866, 4.9424148 
2.4333142e+2, 2.719028e+2, -300525.16, -421373.3, -1759.7375, 0.000015143724, 0.0017241632, -300499.53, -25147.03, 0.0, 5.016025, 4.9383454 
2.4333274e+2, 2.768417e+2, -250718.25, -370818.28, -1710.1938, 0.000019201558, -0.0019028946, -250693.9, -23742.465, 0.0, 5.015969, 4.938758 
2.433342e+2, 2.8177884e+2, -206615.31, -333441.3, -1480.5768, 0.000020052446, 0.0022243373, -206598.03, -28030.54, 0.0, 5.015916, 4.9344893 
2.4333584e+2, 2.8671396e+2, -156504.4, -282273.94, -1415.5038, 0.000018743847, -0.0025158164, -156488.47, -26285.32, 0.0, 5.0158687, 4.935102 
2.4333763e+2, 2.9164687e+2, -113741.28, -248235.8, -1151.8365, 0.000021627642, 0.001764123, -113731.414, -31870.906, 0.0, 5.0158257, 4.9296083 
2.4333966e+2, 2.965774e+2, -63530.383, -196943.33, -1073.5284, 0.000038548176, -0.0004718107, -63521.746, -29980.232, 0.0, 5.01579, 4.9302454 
2.4334183e+2, 3.015148e+2, -22626.047, -134134.36, -760.73505, 0.00002127436, 0.0022161603, -22620.857, -22620.857, 0.0, 5.015758, 4.943971 
2.4334426e+2, 3.0645937e+2, -21569.174, -131534.72, -665.97766, 0.00002282188, -0.005228176, -21565.14, -21565.14, 0.0, 5.015735, 4.944916 
2.4334688e+2, 3.1142133e+2, 16734.846, -41527.035, -297.04404, 0.00003585631, 0.0040637497, 16736.361, 16736.361, 0.0, 5.0157166, 4.977881 
2.4334978e+2, 3.1640023e+2, 18413.275, -37546.305, -183.43831, 0.000031237192, -0.00096008374, 18413.877, 18413.877, 0.0, 5.0157084, 4.979354 
2.4831805e+2, 1.22904114e+2, -1698104.6, -1738867.5, -219.67793, -0.0000139644, 0.00094591605, -1698103.5, 37436.297, 0.0, 5.01794, 4.991359 
2.4832073e+2, 1.2789495e+2, -1650770.8, -1693108.1, -286.55795, 0.000012035514, -0.003201177, -1650768.9, 35860.633, 0.0, 5.017926, 4.9903216 
2.4832316e+2, 1.3288446e+2, -1605532.3, -1651596.9, -676.86053, -0.000023356075, 0.0035260338, -1605522.4, 32209.908, 0.0, 5.0179043, 4.9877973 
2.4832535e+2, 1.37872e+2, -1557688.3, -1604781.9, -734.6959, -0.000017815737, -0.0013073876, -1557676.8, 31177.678, 0.0, 5.017876, 4.9871016 
2.4832733e+2, 1.4285794e+2, -1512702.9, -1563837.8, -1079.0327, 0.000010040896, 0.00028684398, -1512680.1, 27312.111, 0.0, 5.0178413, 4.984426 
2.4832912e+2, 1.4784253e+2, -1464689.5, -1516668.5, -1129.3738, -0.0000064664446, -0.0009337305, -1464665.0, 26478.283, 0.0, 5.017801, 4.983846 
2.483307e+2, 1.5282528e+2, -1419763.3, -1475895.5, -1434.8812, -0.000016965454, 0.0012956033, -1419726.6, 22585.496, 0.0, 5.0177546, 4.9811254 
2.4833213e+2, 1.5780644e+2, -1371710.1, -1428642.0, -1476.832, -0.000009274687, -0.0013078409, -1371671.8, 21825.053, 0.0, 5.017703, 4.9805665 
2.483334e+2, 1.6278593e+2, -1326820.4, -1387994.8, -1742.3868, -0.0000065933827, 0.0012633979, -1326770.8, 17927.086, 0.0, 5.0176473, 4.977783 
2.4833448e+2, 1.6776378e+2, -1278667.4, -1340538.5, -1776.6559, -0.000009715376, -0.0011757418, -1278616.4, 17298.674, 0.0, 5.0175867, 4.977281 
2.4833547e+2, 1.7273994e+2, -1233823.8, -1300047.4, -2000.541, -0.00001441059, 0.001146146, -1233763.4, 13385.129, 0.0, 5.0175223, 4.974423 
2.483363e+2, 1.7771445e+2, -1185594.8, -1252444.6, -2027.1786, -0.000010030402, -0.0012017883, -1185533.4, 12865.13, 0.0, 5.0174546, 4.973959 
2.4833705e+2, 1.8268728e+2, -1140771.9, -1212066.8, -2209.3535, -0.000015257399, 0.0012510617, -1140703.5, 8961.115, 0.0, 5.0173826, 4.971043 
2.4833769e+2, 1.8765838e+2, -1092479.9, -1164349.3, -2228.0012, -0.000010802028, -0.0012949167, -1092410.9, 8536.869, 0.0, 5.0173087, 4.9706063 
2.4833825e+2, 1.9262788e+2, -1047671.4, -1124083.3, -2365.9746, -0.0000171416, 0.0013140924, -1047598.2, 4648.5474, 0.0, 5.0172315, 4.967626 
2.4833874e+2, 1.9759558e+2, -999304.44, -1076232.4, -2379.795, -0.000011510394, -0.0013005835, -999230.9, 4332.4424, 0.0, 5.0171523, 4.967222 
2.4833919e+2, 2.0256168e+2, -954494.9, -1036062.06, -2466.0898, -0.00001585182, 0.0013116873, -954420.44, 475.11713, 0.0, 5.0170727, 4.964188 
2.4833958e+2, 2.0752594e+2, -906064.25, -988122.8, -2477.597, -0.0000141415685, -0.00133682, -905989.56, 256.26505, 0.0, 5.016993, 4.9637995 
2.4833998e+2, 2.1248855e+2, -861399.06, -948376.0, -2511.8057, -0.000011607165, 0.0013807036, -861326.6, -3714.3542, 0.0, 5.016913, 4.9605913 
2.4834035e+2, 2.174492e+2, -812894.2, -900322.94, -2524.4744, -0.0000147159035, -0.0014225761, -812821.4, -3823.5884, 0.0, 5.016832, 4.9602265 
2.4834073e+2, 2.224083e+2, -768078.94, -860360.5, -2517.2197, -0.000008446691, 0.0014325854, -768010.3, -7611.565, 0.0, 5.01675, 4.9570656 
2.4834113e+2, 2.2736545e+2, -719513.6, -812216.8, -2519.4348, -0.000011646692, -0.0013874329, -719445.2, -7626.565, 0.0, 5.0166664, 4.956718 
2.4834153e+2, 2.32321e+2, -674698.06, -772374.6, -2472.8745, -0.000006621596, 0.001473646, -674635.5, -11381.191, 0.0, 5.0165844, 4.9534893 
2.4834199e+2, 2.3727459e+2, -626041.3, -724095.75, -2467.5718, -0.000004865611, -0.001639971, -625979.25, -11270.049, 0.0, 5.0165033, 4.9531717 
2.4834251e+2, 2.4222656e+2, -581232.1, -684407.56, -2377.9, -0.0000033643419, 0.0017158069, -581177.4, -14997.659, 0.0, 5.016424, 4.9498563 
2.483431e+2, 2.4717653e+2, -532459.1, -635943.06, -2363.2498, -0.000003341579, -0.0016742956, -532405.2, -14735.224, 0.0, 5.016347, 4.9495864 
2.4834375e+2, 2.5212488e+2, -487750.38, -596632.06, -2233.6162, 0.000004375752, 0.0016913416, -487704.56, -18528.236, 0.0, 5.016272, 4.9461102 
2.4834451e+2, 2.570712e+2, -438690.38, -547601.75, -2208.37, 0.000003425271, -0.001707875, -438645.63, -17943.297, 0.0, 5.0161996, 4.946021 
2.4834535e+2, 2.6201585e+2, -394204.3, -508958.84, -2040.983, 0.0000070036594, 0.0016940045, -394168.0, -21923.14, 0.0, 5.01613, 4.9422774 
2.4834634e+2, 2.669585e+2, -344771.88, -459168.34, -2003.1567, 0.00000952565, -0.0016096524, -344736.8, -20929.959, 0.0, 5.0160646, 4.9424386 
2.4834745e+2, 2.7189934e+2, -300554.78, -421322.03, -1799.3489, 0.000011843526, 0.0017228676, -300527.97, -25141.65, 0.0, 5.0160017, 4.9383736 
2.4834871e+2, 2.7683824e+2, -250749.77, -370765.6, -1749.0173, 0.000015762918, -0.0019044499, -250724.28, -23739.3, 0.0, 5.015944, 4.938787 
2.4835011e+2, 2.8177544e+2, -206643.94, -333376.25, -1513.1675, 0.000016791048, 0.002223216, -206625.88, -28025.146, 0.0, 5.01589, 4.9345236 
2.4835171e+2, 2.867106e+2, -156534.56, -282206.7, -1446.8351, 0.000016827502, -0.0025193277, -156517.9, -26281.87, 0.0, 5.015842, 4.9351373 
2.4835345e+2, 2.9164356e+2, -113774.02, -248168.75, -1176.1476, 0.000018822153, 0.0017623487, -113763.734, -31870.686, 0.0, 5.015798, 4.929644 
2.4835545e+2, 2.9657412e+2, -63565.492, -196876.1, -1096.047, 0.000034854023, -0.0004696467, -63556.48, -29982.79, 0.0, 5.015761, 4.9302816 
2.483576e+2, 3.0151156e+2, -22657.174, -134052.5, -775.9443, 0.000017111872, 0.0022165247, -22651.768, -22651.768, 0.0, 5.015728, 4.9440136 
2.4836001e+2, 3.0645618e+2, -21601.197, -131449.27, -678.45404, 0.000023153605, -0.005232473, -21597.008, -21597.008, 0.0, 5.015704, 4.94496 
2.483626e+2, 3.1141818e+2, 16709.098, -41422.18, -301.0712, 0.00003252014, 0.0040638656, 16710.658, 16710.658, 0.0, 5.015684, 4.9779334 
2.4836548e+2, 3.1639713e+2, 18386.896, -37435.48, -183.88812, 0.000026503487, -0.00095858285, 18387.504, 18387.504, 0.0, 5.015675, 4.979409 
2.5333607e+2, 1.2290119e+2, -1697598.8, -1738750.9, -221.50539, -0.000012502143, 0.000948337, -1697597.6, 37970.848, 0.0, 5.0181365, 4.9913006 
2.5333875e+2, 1.2789197e+2, -1650293.5, -1693006.8, -290.9925, 0.000011765671, -0.0032030707, -1650291.5, 36367.293, 0.0, 5.0181136, 4.990263 
2.5334114e+2, 1.3288142e+2, -1605075.3, -1651493.9, -694.16425, -0.000022437789, 0.0035274082, -1605064.9, 32697.266, 0.0, 5.0180826, 4.9877443 
2.533433e+2, 1.378689e+2, -1557260.6, -1604694.5, -754.46246, -0.000017084923, -0.0013059716, -1557248.6, 31636.178, 0.0, 5.0180454, 4.987048 
2.5334525e+2, 1.428548e+2, -1512296.8, -1563749.0, -1109.8983, 0.000009479566, 0.00028809722, -1512272.9, 27750.219, 0.0, 5.018001, 4.984378 
2.53347e+2, 1.4783932e+2, -1464314.1, -1516595.9, -1162.6012, -0.000006812218, -0.00093341206, -1464288.4, 26886.307, 0.0, 5.0179505, 4.983798 
2.5334853e+2, 1.5282205e+2, -1419410.0, -1475821.3, -1477.8118, -0.00001614764, 0.001296461, -1419371.4, 22972.555, 0.0, 5.0178943, 4.981083 
2.533499e+2, 1.5780316e+2, -1371388.0, -1428584.0, -1521.8248, -0.000009001672, -0.0013074927, -1371347.5, 22181.533, 0.0, 5.017833, 4.9805236 
2.533511e+2, 1.6278261e+2, -1326520.9, -1387934.9, -1795.5302, -0.0000069651296, 0.0012642292, -1326468.4, 18261.986, 0.0, 5.0177665, 4.977746 
2.5335214e+2, 1.677604e+2, -1278399.4, -1340494.5, -1831.5194, -0.000010372916, -0.0011752283, -1278345.4, 17602.621, 0.0, 5.017696, 4.977244 
2.5335303e+2, 1.7273656e+2, -1233579.3, -1300000.8, -2062.5164, -0.000013811962, 0.0011466953, -1233515.3, 13666.603, 0.0, 5.0176206, 4.9743915 
2.533538e+2, 1.7771101e+2, -1185383.4, -1252415.0, -2090.6816, -0.000009361608, -0.0012020229, -1185318.3, 13113.817, 0.0, 5.017542, 4.9739275 
2.5335446e+2, 1.8268384e+2, -1140581.5, -1212034.1, -2278.3066, -0.000015765223, 0.0012521052, -1140508.9, 9189.526, 0.0, 5.0174603, 4.971018 
2.5335503e+2, 1.8765491e+2, -1092320.6, -1164332.1, -2298.0403, -0.00001066507, -0.0012954706, -1092247.3, 8734.583, 0.0, 5.0173755, 4.9705806 
2.533555e+2, 1.9262439e+2, -1047538.7, -1124065.1, -2440.6123, -0.000016050855, 0.0013143552, -1047460.9, 4820.143, 0.0, 5.017287, 4.9676065 
2.5335592e+2, 1.9759205e+2, -999205.94, -1076229.6, -2455.273, -0.000011269455, -0.0013007282, -999127.75, 4470.0796, 0.0, 5.0171957, 4.967203 
2.5335628e+2, 2.0255813e+2, -954423.2, -1036062.75, -2543.703, -0.00001509474, 0.0013112738, -954344.0, 586.2065, 0.0, 5.017105, 4.9641733 
2.5335658e+2, 2.0752238e+2, -906022.6, -988137.44, -2558.685, -0.000013187929, -0.0013367418, -905943.0, 337.65552, 0.0, 5.0170145, 4.9637847 
2.5335687e+2, 2.1248499e+2, -861379.9, -948389.75, -2594.304, -0.000011063518, 0.0013798011, -861302.6, -3655.3867, 0.0, 5.0169244, 4.9605813 
2.5335717e+2, 2.1744563e+2, -812905.1, -900350.2, -2604.255, -0.000013361397, -0.0014237117, -812827.7, -3794.8394, 0.0, 5.0168324, 4.960217 
2.5335747e+2, 2.224047e+2, -768110.5, -860376.44, -2597.6978, -0.000008207347, 0.00143188, -768037.44, -7603.525, 0.0, 5.016739, 4.957065 
2.5335777e+2, 2.2736186e+2, -719579.2, -812247.7, -2600.1008, -0.000010054142, -0.0013878478, -719506.3, -7652.6, 0.0, 5.0166435, 4.956718 
2.533581e+2, 2.3231742e+2, -674788.8, -772404.0, -2551.0518, -0.000005924963, 0.0014722337, -674722.2, -11432.79, 0.0, 5.0165496, 4.9534945 
2.5335848e+2, 2.37271e+2, -626162.1, -724138.0, -2545.8047, -0.0000052895903, -0.0016422629, -626096.06, -11351.832, 0.0, 5.016458, 4.953178 
2.533589e+2, 2.42223e+2, -581376.9, -684447.7, -2453.3704, -0.0000019957615, 0.0017152957, -581318.5, -15103.855, 0.0, 5.0163674, 4.9498677 
2.5335938e+2, 2.4717298e+2, -532634.0, -635995.56, -2438.2366, -0.0000014689163, -0.0016756527, -532576.56, -14871.742, 0.0, 5.016279, 4.9495983 
2.5335997e+2, 2.5212133e+2, -487948.47, -596682.25, -2304.4758, 0.0000041480744, 0.0016894563, -487899.66, -18688.645, 0.0, 5.0161934, 4.946128 
2.5336066e+2, 2.5706765e+2, -438917.72, -547663.6, -2278.3828, 0.0000031759828, -0.0017093457, -438870.0, -18133.174, 0.0, 5.01611, 4.946039 
2.5336143e+2, 2.6201233e+2, -394454.66, -509018.9, -2105.5913, 0.000008588556, 0.0016926725, -394415.97, -22136.813, 0.0, 5.01603, 4.942301 
2.5336236e+2, 2.6695502e+2, -345050.06, -459238.6, -2066.3418, 0.000011740797, -0.0016121275, -345012.7, -21171.766, 0.0, 5.015953, 4.9424624 
2.5336337e+2, 2.7189592e+2, -300856.0, -421391.3, -1856.0669, 0.000012165585, 0.0017218594, -300827.44, -25407.305, 0.0, 5.01588, 4.9384027 
2.533646e+2, 2.7683485e+2, -251077.36, -370843.94, -1803.7378, 0.000016673383, -0.0019056888, -251050.2, -24031.71, 0.0, 5.015812, 4.938817 
2.5336593e+2, 2.8177208e+2, -206992.9, -333452.16, -1560.3783, 0.000019136163, 0.0022217904, -206973.66, -28339.736, 0.0, 5.0157475, 4.934559 
2.5336745e+2, 2.8670725e+2, -156908.2, -282289.94, -1491.4834, 0.000019539646, -0.0025231834, -156890.47, -26621.584, 0.0, 5.01569, 4.935174 
2.5336915e+2, 2.9164025e+2, -114173.695, -248261.69, -1212.348, 0.000020554193, 0.0017604476, -114162.734, -32237.203, 0.0, 5.0156355, 4.9296813 
2.5337112e+2, 2.9657084e+2, -63989.207, -196977.56, -1128.9541, 0.000036771216, -0.00046860977, -63979.625, -30373.816, 0.0, 5.015589, 4.9303193 
2.533732e+2, 3.0150834e+2, -23097.492, -134146.61, -799.89105, 0.000019506675, 0.0022154762, -23091.732, -23091.732, 0.0, 5.015547, 4.944057 
2.533756e+2, 3.06453e+2, -22063.951, -131549.05, -698.14984, 0.00002823089, -0.0052377945, -22059.5, -22059.5, 0.0, 5.0155134, 4.9450054 
2.5337815e+2, 3.1141505e+2, 16235.547, -41507.094, -310.74683, 0.000034681663, 0.004062436, 16237.219, 16237.219, 0.0, 5.015485, 4.9779873 
2.5338104e+2, 3.1639403e+2, 17895.133, -37522.063, -188.36697, 0.000034675133, -0.0009597768, 17895.773, 17895.773, 0.0, 5.015467, 4.979466 
2.5835422e+2, 1.22898266e+2, -1697669.9, -1738923.8, -234.71906, -0.000016202916, 0.00094863697, -1697668.5, 37928.555, 0.0, 5.0181427, 4.991241 
2.5835687e+2, 1.2788898e+2, -1650367.1, -1693181.4, -304.4589, 0.000007157656, -0.003207271, -1650365.0, 36322.992, 0.0, 5.018119, 4.990203 
2.5835922e+2, 1.328784e+2, -1605143.6, -1651653.3, -718.3752, -0.000024557987, 0.0035269503, -1605132.5, 32659.37, 0.0, 5.018087, 4.9876895 
2.5836137e+2, 1.378658e+2, -1557331.8, -1604855.5, -778.8612, -0.000019163359, -0.0013057158, -1557319.0, 31596.146, 0.0, 5.0180483, 4.9869933 
2.5836325e+2, 1.4285165e+2, -1512362.5, -1563894.6, -1143.6083, 0.0000054800903, 0.00028701092, -1512337.1, 27716.773, 0.0, 5.018003, 4.9843283 
2.5836492e+2, 1.4783613e+2, -1464382.9, -1516743.4, -1196.6721, -0.000010444719, -0.00093521224, -1464355.5, 26850.43, 0.0, 5.0179515, 4.9837484 
2.5836644e+2, 1.5281881e+2, -1419473.0, -1475952.5, -1519.77, -0.000017372357, 0.001296259, -1419432.3, 22943.494, 0.0, 5.0178943, 4.981039 
2.5836775e+2, 1.5779988e+2, -1371453.9, -1428717.1, -1564.0619, -0.000011308145, -0.0013086485, -1371411.3, 22150.047, 0.0, 5.0178323, 4.9804792 
2.5836888e+2, 1.6277929e+2, -1326580.8, -1388051.0, -1844.4602, -0.000010067458, 0.0012633868, -1326525.5, 18237.521, 0.0, 5.0177646, 4.9777083 
2.583698e+2, 1.6775705e+2, -1278462.4, -1340612.6, -1880.8098, -0.000012376121, -0.0011772047, -1278405.5, 17575.467, 0.0, 5.017693, 4.9772058 
2.5837064e+2, 1.7273316e+2, -1233636.3, -1300101.8, -2117.5452, -0.000015876687, 0.0011463806, -1233568.9, 13646.311, 0.0, 5.0176167, 4.9743595 
2.5837132e+2, 1.7770758e+2, -1185443.3, -1252517.5, -2145.438, -0.000011494347, -0.001203043, -1185374.6, 13091.065, 0.0, 5.0175366, 4.9738955 
2.5837192e+2, 1.8268037e+2, -1140635.5, -1212119.6, -2337.4744, -0.00001810871, 0.0012501122, -1140559.1, 9173.242, 0.0, 5.017454, 4.9709916 
2.583724e+2, 1.8765143e+2, -1092377.1, -1164418.6, -2357.7349, -0.00001252436, -0.0012971, -1092300.1, 8715.988, 0.0, 5.0173683, 4.970555 
2.583728e+2, 1.9262087e+2, -1047589.6, -1124135.5, -2504.4128, -0.000018233892, 0.0013127847, -1047507.8, 4807.669, 0.0, 5.0172787, 4.9675865 
2.583731e+2, 1.9758853e+2, -999258.6, -1076300.4, -2518.9531, -0.000015031857, -0.0013023481, -999176.4, 4456.0586, 0.0, 5.0171866, 4.967183 
2.5837338e+2, 2.025546e+2, -954475.0, -1036126.56, -2606.9407, -0.000016229118, 0.001308809, -954391.9, 573.16675, 0.0, 5.017095, 4.964156 
2.583736e+2, 2.0751882e+2, -906077.8, -988202.44, -2622.568, -0.00001557433, -0.0013386802, -905994.1, 321.4638, 0.0, 5.0170035, 4.9637675 
2.583738e+2, 2.124814e+2, -861427.0, -948431.1, -2659.4202, -0.000014735988, 0.0013776488, -861345.75, -3663.4834, 0.0, 5.016912, 4.9605727 
2.58374e+2, 2.1744205e+2, -812955.3, -900392.25, -2668.5413, -0.000014628905, -0.001427004, -812874.0, -3805.9927, 0.0, 5.0168185, 4.960209 
2.583742e+2, 2.2240111e+2, -768153.4, -860397.8, -2664.0652, -0.000012151481, 0.0014300032, -768076.5, -7607.4043, 0.0, 5.016724, 4.9570646 
2.5837442e+2, 2.2735828e+2, -719623.44, -812268.75, -2666.7952, -0.0000115691355, -0.001390478, -719546.75, -7657.815, 0.0, 5.016628, 4.9567175 
2.5837466e+2, 2.3231383e+2, -674827.9, -772409.56, -2614.9392, -0.00000866978, 0.0014696048, -674757.9, -11433.287, 0.0, 5.0165334, 4.9535003 
2.5837493e+2, 2.372674e+2, -626203.5, -724143.6, -2609.791, -0.000009205384, -0.0016460125, -626134.0, -11354.671, 0.0, 5.016441, 4.9531837 
2.583753e+2, 2.4221942e+2, -581413.5, -684437.6, -2514.8032, -0.000003538389, 0.0017129984, -581352.1, -15102.441, 0.0, 5.0163493, 4.9498796 
2.5837567e+2, 2.4716942e+2, -532672.75, -635985.25, -2499.4915, -0.0000030869478, -0.0016785688, -532612.3, -14872.618, 0.0, 5.0162597, 4.9496107 
2.5837615e+2, 2.5211778e+2, -487982.84, -596656.9, -2361.8865, 0.0000007206771, 0.0016863307, -487931.53, -18685.746, 0.0, 5.016173, 4.946146 
2.5837678e+2, 2.5706413e+2, -438954.25, -547637.75, -2335.6665, -0.00000049424955, -0.0017127354, -438904.1, -18132.662, 0.0, 5.0160885, 4.946058 
2.5837746e+2, 2.6200882e+2, -394487.5, -508979.06, -2158.1646, 0.0000063675816, 0.0016899749, -394446.8, -22133.275, 0.0, 5.016007, 4.942325 
2.583783e+2, 2.6695153e+2, -345084.97, -459197.8, -2118.3928, 0.000010244322, -0.0016157972, -345045.66, -21170.596, 0.0, 5.0159297, 4.9424877 
2.5837925e+2, 2.7189246e+2, -300887.97, -421337.8, -1902.5824, 0.000007779068, 0.001719254, -300857.94, -25403.918, 0.0, 5.0158553, 4.9384327 
2.583804e+2, 2.7683142e+2, -251111.42, -370789.16, -1849.3512, 0.000012425203, -0.0019080295, -251082.84, -24030.787, 0.0, 5.0157857, 4.938848 
2.5838166e+2, 2.8176865e+2, -207023.97, -333384.28, -1599.6504, 0.000016638138, 0.0022192623, -207003.72, -28336.537, 0.0, 5.0157204, 4.9345946 
2.5838315e+2, 2.8670388e+2, -156940.97, -282219.84, -1529.49, 0.000016498789, -0.0025278826, -156922.31, -26620.533, 0.0, 5.0156612, 4.935211 
2.583848e+2, 2.9163694e+2, -114208.99, -248191.19, -1243.202, 0.00001617858, 0.0017582745, -114197.45, -32239.402, 0.0, 5.015606, 4.929719 
2.583867e+2, 2.9656756e+2, -64027.098, -196906.94, -1157.8851, 0.000032946064, -0.00046833334, -64017.008, -30379.063, 0.0, 5.0155582, 4.930358 
2.5838876e+2, 3.0150506e+2, -23131.375, -134060.8, -821.35925, 0.000016677861, 0.0022140895, -23125.293, -23125.293, 0.0, 5.015515, 4.944102 
2.583911e+2, 3.064498e+2, -22099.027, -131459.75, -716.5707, 0.00002650511, -0.005242642, -22094.332, -22094.332, 0.0, 5.01548, 4.945052 
2.5839365e+2, 3.114119e+2, 16206.721, -41397.88, -320.75833, 0.00002823784, 0.0040611667, 16208.507, 16208.507, 0.0, 5.01545, 4.9780426 
2.583965e+2, 3.1639096e+2, 17865.256, -37407.035, -194.46526, 0.000031100044, -0.00095912383, 17865.941, 17865.941, 0.0, 5.015431, 4.9795237 
2.6337248e+2, 1.2289536e+2, -1697132.5, -1738798.3, -230.9538, -0.000015340851, 0.0009510231, -1697131.3, 38494.277, 0.0, 5.018351, 4.99118 
2.633751e+2, 1.2788603e+2, -1649859.8, -1693071.8, -303.3918, 0.0000067416845, -0.0032087036, -1649857.6, 36859.4, 0.0, 5.0183177, 4.9901414 
2.633774e+2, 1.3287537e+2, -1604657.8, -1651542.4, -730.49426, -0.000023848555, 0.003527892, -1604646.4, 33175.07, 0.0, 5.018276, 4.9876337 
2.6337948e+2, 1.3786273e+2, -1556876.9, -1604760.6, -793.4474, -0.000018576678, -0.0013038832, -1556863.8, 32081.518, 0.0, 5.018228, 4.9869375 
2.6338136e+2, 1.4284852e+2, -1511930.8, -1563798.6, -1169.6864, 0.0000049544146, 0.0002881561, -1511904.4, 28180.197, 0.0, 5.0181723, 4.984278 
2.6338297e+2, 1.4783294e+2, -1463983.4, -1516664.5, -1225.1199, -0.0000107372525, -0.0009355014, -1463954.9, 27282.16, 0.0, 5.0181108, 4.9836974 
2.633844e+2, 1.5281558e+2, -1419096.8, -1475871.9, -1558.2262, -0.000016614342, 0.0012976263, -1419054.1, 23353.227, 0.0, 5.018043, 4.980994 
2.6338562e+2, 1.577966e+2, -1371110.8, -1428653.6, -1604.6617, -0.000011229356, -0.0013083671, -1371066.0, 22527.227, 0.0, 5.01797, 4.9804344 
2.633867e+2, 1.6277596e+2, -1326261.8, -1387985.1, -1893.6082, -0.000010283728, 0.0012640646, -1326203.6, 18591.816, 0.0, 5.0178914, 4.9776697 
2.6338756e+2, 1.677537e+2, -1278177.4, -1340564.4, -1931.7577, -0.000012101032, -0.0011775194, -1278117.6, 17896.22, 0.0, 5.017809, 4.9771667 
2.633883e+2, 1.7272976e+2, -1233374.3, -1300050.6, -2175.6191, -0.000015519418, 0.0011471931, -1233303.4, 13944.977, 0.0, 5.0177217, 4.974327 
2.633889e+2, 1.7770416e+2, -1185214.4, -1252483.0, -2204.8953, -0.000011916306, -0.0012025435, -1185142.1, 13357.08, 0.0, 5.017631, 4.9738626 
2.633894e+2, 1.8267693e+2, -1140433.8, -1212083.1, -2402.5266, -0.000017086546, 0.0012491829, -1140353.3, 9412.902, 0.0, 5.017536, 4.9709654 
2.633898e+2, 1.8764795e+2, -1092210.0, -1164398.5, -2423.966, -0.0000115966295, -0.0012967072, -1092128.8, 8921.432, 0.0, 5.0174384, 4.9705286 
2.633901e+2, 1.9261737e+2, -1047443.6, -1124111.5, -2574.6646, -0.000017912816, 0.0013124467, -1047357.25, 4992.4956, 0.0, 5.0173388, 4.9675665 
2.6339033e+2, 1.97585e+2, -999143.2, -1076291.9, -2589.2598, -0.000014494967, -0.001302891, -999056.4, 4610.525, 0.0, 5.017236, 4.9671626 
2.633905e+2, 2.0255105e+2, -954394.8, -1036139.06, -2681.1763, -0.000014764148, 0.0013084608, -954306.94, 692.7444, 0.0, 5.017133, 4.9641337 
2.6339063e+2, 2.0751525e+2, -906034.44, -988231.7, -2701.9063, -0.000014151573, -0.0013399397, -905945.75, 404.74722, 0.0, 5.017029, 4.9637456 
2.6339072e+2, 2.1247783e+2, -861398.94, -948427.25, -2739.8667, -0.000014101139, 0.0013771805, -861312.75, -3595.4624, 0.0, 5.0169234, 4.9605684 
2.633908e+2, 2.1743846e+2, -812963.75, -900404.8, -2744.786, -0.0000131761535, -0.0014284834, -812877.7, -3774.626, 0.0, 5.0168176, 4.960205 
2.6339093e+2, 2.2239754e+2, -768190.94, -860417.7, -2739.5144, -0.000011315191, 0.001428977, -768109.6, -7605.4707, 0.0, 5.0167117, 4.957063 
2.6339102e+2, 2.2735469e+2, -719690.0, -812301.4, -2742.9915, -0.000009902117, -0.0013926184, -719608.8, -7684.801, 0.0, 5.016605, 4.956717 
2.6339117e+2, 2.3231024e+2, -674918.1, -772439.1, -2689.497, -0.000007861593, 0.001468526, -674844.0, -11484.385, 0.0, 5.016499, 4.9535055 
2.6339132e+2, 2.3726384e+2, -626327.06, -724187.4, -2684.439, -0.00000904093, -0.0016478542, -626253.44, -11439.12, 0.0, 5.016394, 4.9531894 
2.6339158e+2, 2.4221586e+2, -581561.75, -684478.5, -2586.5813, -0.0000023502166, 0.0017110308, -581496.8, -15212.185, 0.0, 5.016291, 4.9498916 
2.633919e+2, 2.4716586e+2, -532852.94, -636039.25, -2570.7788, -0.0000012417826, -0.0016814059, -532788.94, -15014.444, 0.0, 5.01619, 4.949623 
2.633923e+2, 2.5211424e+2, -488188.38, -596708.94, -2428.9648, 0.00000078056115, 0.001684955, -488134.03, -18853.602, 0.0, 5.0160913, 4.9461646 
2.633928e+2, 2.5706065e+2, -439190.34, -547701.7, -2401.8174, -0.00000081779916, -0.0017151051, -439137.2, -18331.31, 0.0, 5.0159955, 4.946077 
2.633934e+2, 2.6200533e+2, -394747.78, -509041.16, -2218.6904, 0.000007896603, 0.0016878622, -394704.72, -22356.928, 0.0, 5.0159025, 4.9423494 
2.6339418e+2, 2.6694804e+2, -345374.88, -459271.0, -2177.5112, 0.000012555003, -0.0016186686, -345333.25, -21424.209, 0.0, 5.015814, 4.942513 
2.63395e+2, 2.71889e+2, -301202.03, -421409.75, -1955.042, 0.000007848872, 0.0017170112, -301170.25, -25682.5, 0.0, 5.015728, 4.938463 
2.6339608e+2, 2.76828e+2, -251453.39, -370870.84, -1899.6937, 0.0000130448025, -0.001909542, -251423.17, -24337.69, 0.0, 5.015648, 4.9388795 
2.633973e+2, 2.8176528e+2, -207388.56, -333463.34, -1642.2607, 0.00001902132, 0.002217153, -207367.17, -28666.895, 0.0, 5.0155716, 4.9346313 
2.633987e+2, 2.8670055e+2, -157331.86, -282306.9, -1569.4996, 0.000019063586, -0.002532868, -157312.16, -26977.648, 0.0, 5.015502, 4.9352493 
2.634003e+2, 2.9163364e+2, -114627.09, -248287.81, -1274.531, 0.000017536815, 0.0017557157, -114614.94, -32624.541, 0.0, 5.015436, 4.929758 
2.6340216e+2, 2.965643e+2, -64470.707, -197012.63, -1185.7302, 0.00003430947, -0.0004684468, -64460.1, -30790.195, 0.0, 5.0153785, 4.9303975 
2.6340413e+2, 3.0150187e+2, -23592.576, -134158.9, -840.135, 0.000019251383, 0.0022125028, -23586.193, -23586.193, 0.0, 5.0153246, 4.944148 
2.6340646e+2, 3.064466e+2, -22583.982, -131564.06, -730.8174, 0.00003127748, -0.0052485135, -22579.082, -22579.082, 0.0, 5.0152802, 4.9451 
2.6340896e+2, 3.114088e+2, 15710.084, -41486.9, -325.00647, 0.0000296503, 0.0040581133, 15711.931, 15711.931, 0.0, 5.0152407, 4.978099 
2.634118e+2, 3.1638792e+2, 17348.857, -37498.625, -193.112, 0.000039544815, -0.0009611687, 17349.537, 17349.537, 0.0, 5.015213, 4.9795833 
2.683908e+2, 1.2289248e+2, -1697206.1, -1738979.4, -250.17989, -0.000019938174, 0.00095060805, -1697204.6, 38449.11, 0.0, 5.0183578, 4.991117 
2.683934e+2, 1.2788308e+2, -1649936.0, -1693254.3, -322.82578, 0.000003036572, -0.0032119448, -1649933.6, 36812.23, 0.0, 5.0183234, 4.9900784 
2.683957e+2, 1.3287236e+2, -1604728.8, -1651709.3, -761.08685, -0.000026957623, 0.0035259116, -1604716.4, 33134.543, 0.0, 5.018281, 4.9875765 
2.6839775e+2, 1.3785967e+2, -1556950.8, -1604929.0, -824.2712, -0.000021838396, -0.0013044584, -1556936.6, 32038.701, 0.0, 5.0182314, 4.98688 
2.683995e+2, 1.4284539e+2, -1511999.0, -1563950.9, -1210.0549, 0.000001912005, 0.00028773528, -1511970.8, 28144.29, 0.0, 5.0181746, 4.9842267 
2.684011e+2, 1.4782979e+2, -1464054.9, -1516818.9, -1265.7448, -0.00001334509, -0.0009379763, -1464024.6, 27243.59, 0.0, 5.018112, 4.9836454 
2.6840243e+2, 1.5281236e+2, -1419162.4, -1476009.3, -1607.1427, -0.000019348176, 0.0012970314, -1419117.0, 23321.83, 0.0, 5.018043, 4.9809484 
2.684036e+2, 1.5779333e+2, -1371179.5, -1428792.8, -1653.869, -0.000013902163, -0.0013100712, -1371132.0, 22493.252, 0.0, 5.017969, 4.980388 
2.6840457e+2, 1.6277266e+2, -1326324.0, -1388106.3, -1949.8727, -0.000012344452, 0.0012629457, -1326262.5, 18565.348, 0.0, 5.0178895, 4.97763 
2.684054e+2, 1.6775034e+2, -1278243.0, -1340687.9, -1988.101, -0.0000140706325, -0.0011794411, -1278179.8, 17866.842, 0.0, 5.0178056, 4.9771266 
2.6840603e+2, 1.7272638e+2, -1233433.6, -1300156.1, -2237.6772, -0.000017390244, 0.0011460276, -1233358.8, 13922.806, 0.0, 5.0177174, 4.974293 
2.6840657e+2, 1.7770074e+2, -1185276.8, -1252589.9, -2267.4985, -0.000015431939, -0.0012034532, -1185200.4, 13332.318, 0.0, 5.017626, 4.973829 
2.6840696e+2, 1.8267348e+2, -1140489.8, -1212171.6, -2469.6638, -0.000017705692, 0.0012464058, -1140404.8, 9395.218, 0.0, 5.0175295, 4.970938 
2.6840723e+2, 1.8764447e+2, -1092268.3, -1164487.1, -2490.9775, -0.000013386092, -0.001297577, -1092182.5, 8901.699, 0.0, 5.0174313, 4.970502 
2.6840743e+2, 1.9261387e+2, -1047495.6, -1124182.0, -2645.3398, -0.000021080356, 0.001309989, -1047404.44, 4979.5527, 0.0, 5.01733, 4.9675465 
2.6840755e+2, 1.975815e+2, -999198.6, -1076365.6, -2659.8672, -0.000016036307, -0.0013054148, -999107.06, 4594.33, 0.0, 5.017227, 4.967142 
2.684076e+2, 2.0254752e+2, -954458.7, -1036225.8, -2752.959, -0.00001752663, 0.0013072306, -954366.06, 668.3059, 0.0, 5.0171227, 4.9641094 
2.6840764e+2, 2.075117e+2, -906101.1, -988318.44, -2773.0432, -0.000016139724, -0.0013435242, -906007.7, 377.71988, 0.0, 5.017017, 4.9637218 
2.6840764e+2, 2.1247424e+2, -861439.4, -948450.9, -2811.649, -0.000016541087, 0.0013754785, -861348.56, -3596.214, 0.0, 5.0169106, 4.9605665 
2.684076e+2, 2.174349e+2, -813007.3, -900429.2, -2817.5525, -0.000016388482, -0.0014309527, -812916.6, -3778.4795, 0.0, 5.0168033, 4.960203 
2.684076e+2, 2.2239394e+2, -768236.94, -860442.1, -2813.1338, -0.000013099949, 0.0014261417, -768151.2, -7611.93, 0.0, 5.016696, 4.9570622 
2.684076e+2, 2.273511e+2, -719738.0, -812326.06, -2816.588, -0.000012375253, -0.0013968425, -719652.44, -7693.2886, 0.0, 5.0165887, 4.9567156 
2.6840764e+2, 2.3230666e+2, -674960.4, -772446.44, -2761.523, -0.000010628208, 0.0014665141, -674882.25, -11487.514, 0.0, 5.016482, 4.9535108 
2.6840773e+2, 2.3726027e+2, -626371.56, -724194.7, -2756.3728, -0.000011655661, -0.0016501724, -626293.94, -11444.583, 0.0, 5.016376, 4.953195 
2.6840788e+2, 2.422123e+2, -581600.94, -684468.75, -2655.5442, -0.000005181318, 0.0017070968, -581532.44, -15212.877, 0.0, 5.0162716, 4.9499035 
2.684081e+2, 2.4716231e+2, -532894.4, -636029.2, -2639.6553, -0.0000026054374, -0.0016864034, -532826.9, -15017.549, 0.0, 5.0161695, 4.949636 
2.684084e+2, 2.521107e+2, -488225.28, -596683.1, -2493.9932, -0.0000024584388, 0.0016829973, -488167.97, -18852.848, 0.0, 5.0160694, 4.946183 
2.6840878e+2, 2.570571e+2, -439229.3, -547674.94, -2466.5361, -0.000004886299, -0.0017189339, -439173.22, -18332.875, 0.0, 5.0159726, 4.9460964 
2.684093e+2, 2.6200184e+2, -394782.88, -508999.72, -2278.5513, 0.00000566068, 0.0016839298, -394737.44, -22355.387, 0.0, 5.0158787, 4.9423747 
2.6840997e+2, 2.669446e+2, -345412.34, -459228.88, -2236.904, 0.000010567143, -0.0016229212, -345368.38, -21425.328, 0.0, 5.0157886, 4.9425387 
2.6841077e+2, 2.7188557e+2, -301236.3, -421354.06, -2008.7328, 0.000003405686, 0.0017130254, -301202.72, -25681.252, 0.0, 5.015702, 4.938494 
2.6841176e+2, 2.7682462e+2, -251489.98, -370813.97, -1952.4012, 0.00000862919, -0.0019123107, -251458.05, -24339.146, 0.0, 5.01562, 4.9389114 
2.6841286e+2, 2.817619e+2, -207421.97, -333392.56, -1688.5071, 0.000015457552, 0.0022138145, -207399.34, -28665.994, 0.0, 5.0155425, 4.934669 
2.6841423e+2, 2.8669724e+2, -157367.23, -282234.0, -1614.46, 0.000015824893, -0.002539234, -157346.38, -26979.172, 0.0, 5.0154715, 4.9352884 
2.6841575e+2, 2.9163033e+2, -114664.91, -248213.8, -1312.1656, 0.000012865076, 0.0017520164, -114652.016, -32629.305, 0.0, 5.0154047, 4.929798 
2.6841754e+2, 2.9656103e+2, -64511.363, -196938.53, -1221.3164, 0.000029409757, -0.00046972142, -64500.1, -30798.283, 0.0, 5.0153456, 4.930438 
2.684195e+2, 3.0149865e+2, -23629.219, -134069.06, -868.10077, 0.000015485599, 0.0022103644, -23622.396, -23622.396, 0.0, 5.0152903, 4.944195 
2.6842174e+2, 3.0644345e+2, -22622.154, -131470.86, -755.5064, 0.000029448745, -0.0052546533, -22616.91, -22616.91, 0.0, 5.015245, 4.945149 
2.6842418e+2, 3.1140566e+2, 15678.297, -41372.906, -341.22946, 0.000022609302, 0.004054425, 15680.338, 15680.338, 0.0, 5.015204, 4.9781566 
2.6842704e+2, 3.1638485e+2, 17315.42, -37379.508, -205.03911, 0.000034648343, -0.00096217304, 17316.19, 17316.19, 0.0, 5.0151744, 4.9796433 
2.7340928e+2, 1.2288963e+2, -1696635.6, -1738844.4, -240.58157, -0.000019346591, 0.00095308234, -1696634.3, 39047.348, 0.0, 5.018579, 4.9910526 
2.7341184e+2, 1.2788017e+2, -1649397.4, -1693136.0, -315.922, 0.0000026483847, -0.003214162, -1649395.1, 37379.242, 0.0, 5.0185347, 4.990014 
2.7341408e+2, 1.3286938e+2, -1604213.0, -1651589.6, -767.8058, -0.000026343125, 0.003527248, -1604200.5, 33679.484, 0.0, 5.0184817, 4.987518 
2.7341604e+2, 1.3785665e+2, -1556467.9, -1604826.6, -833.45654, -0.000021511465, -0.0013033119, -1556453.5, 32551.482, 0.0, 5.018422, 4.986821 
2.7341777e+2, 1.4284232e+2, -1511540.3, -1563847.3, -1231.1307, 0.0000015236533, 0.00028873896, -1511511.3, 28634.078, 0.0, 5.0183544, 4.984174 
2.734193e+2, 1.4782664e+2, -1463630.3, -1516733.1, -1289.188, -0.000013384449, -0.0009382186, -1463599.0, 27699.947, 0.0, 5.018281, 4.9835925 
2.7342057e+2, 1.5280917e+2, -1418762.4, -1475921.6, -1640.9093, -0.000018907245, 0.0012977975, -1418715.3, 23754.81, 0.0, 5.018201, 4.9809017 
2.7342165e+2, 1.577901e+2, -1370814.3, -1428723.3, -1689.8047, -0.000013640372, -0.0013101471, -1370764.9, 22892.055, 0.0, 5.0181155, 4.9803414 
2.734225e+2, 1.6276939e+2, -1325984.1, -1388034.8, -1994.7927, -0.000012285692, 0.0012630452, -1325920.1, 18939.926, 0.0, 5.0180244, 4.977589 
2.7342325e+2, 1.6774702e+2, -1277938.5, -1340634.4, -2034.9315, -0.000014329146, -0.0011789419, -1277872.5, 18206.652, 0.0, 5.017929, 4.9770856 
2.734238e+2, 1.7272303e+2, -1233154.8, -1300100.0, -2291.5625, -0.000016392072, 0.0011455918, -1233076.5, 14237.939, 0.0, 5.017829, 4.9742594 
2.7342424e+2, 1.7769736e+2, -1185033.9, -1252552.3, -2323.0571, -0.000015265668, -0.0012042826, -1184954.0, 13611.935, 0.0, 5.0177255, 4.9737945 
2.7342454e+2, 1.8267006e+2, -1140272.3, -1212131.0, -2531.3674, -0.000016888729, 0.0012468789, -1140183.1, 9650.357, 0.0, 5.0176177, 4.9709105 
2.734247e+2, 1.8764102e+2, -1092086.5, -1164464.0, -2553.758, -0.000012980917, -0.0012982398, -1091996.5, 9121.483, 0.0, 5.017507, 4.9704742 
2.734248e+2, 1.926104e+2, -1047339.06, -1124156.6, -2713.386, -0.000019966941, 0.0013091366, -1047243.3, 5174.7505, 0.0, 5.0173945, 4.967525 
2.734248e+2, 1.97578e+2, -999074.7, -1076355.9, -2729.6733, -0.000014187342, -0.0013065876, -998978.4, 4757.2476, 0.0, 5.01728, 4.9671206 
2.7342477e+2, 2.0254399e+2, -954369.8, -1036230.75, -2823.45, -0.00001714496, 0.0013069763, -954272.5, 796.3418, 0.0, 5.0171633, 4.9640884 
2.7342469e+2, 2.0750815e+2, -906050.06, -988340.6, -2839.817, -0.000014494396, -0.0013451945, -905952.2, 467.90787, 0.0, 5.017044, 4.9637012 
2.7342457e+2, 2.1247071e+2, -861407.44, -948451.06, -2879.8555, -0.000014988472, 0.0013743844, -861312.25, -3525.0737, 0.0, 5.0169244, 4.96056 
2.7342445e+2, 2.1743134e+2, -813013.0, -900446.1, -2890.5295, -0.000015096348, -0.0014324867, -812917.56, -3744.5596, 0.0, 5.016804, 4.960197 
2.7342433e+2, 2.223904e+2, -768270.8, -860459.25, -2887.4683, -0.000011566144, 0.0014241659, -768180.5, -7606.323, 0.0, 5.0166845, 4.9570613 
2.734242e+2, 2.2734755e+2, -719804.3, -812357.44, -2890.2134, -0.000011008498, -0.001398464, -719714.1, -7720.1396, 0.0, 5.0165653, 4.9567156 
2.734241e+2, 2.323031e+2, -675052.4, -772475.7, -2833.4211, -0.000009369685, 0.0014644534, -674970.06, -11540.454, 0.0, 5.0164466, 4.9535165 
2.7342406e+2, 2.3725672e+2, -626497.6, -724238.56, -2827.7295, -0.000010688687, -0.001652971, -626415.9, -11531.72, 0.0, 5.0163283, 4.9532013 
2.734241e+2, 2.4220875e+2, -581753.5, -684510.4, -2723.551, -0.000004506147, 0.0017054402, -581681.4, -15327.1, 0.0, 5.016212, 4.9499164 
2.734242e+2, 2.4715878e+2, -533080.44, -636084.56, -2707.0535, -0.0000005709166, -0.0016897791, -533009.3, -15165.413, 0.0, 5.016097, 4.949649 
2.7342442e+2, 2.521072e+2, -488437.66, -596736.44, -2556.8616, -0.000002155258, 0.0016809502, -488377.3, -19027.781, 0.0, 5.015985, 4.9462023 
2.734247e+2, 2.570536e+2, -439474.03, -547741.0, -2528.462, -0.0000051755496, -0.0017213374, -439415.03, -18540.434, 0.0, 5.015876, 4.946116 
2.734251e+2, 2.6199836e+2, -395053.3, -509063.8, -2334.8005, 0.0000072552098, 0.0016811019, -395005.5, -22589.432, 0.0, 5.01577, 4.9424005 
2.734257e+2, 2.6694113e+2, -345713.97, -459304.8, -2291.6938, 0.000012479024, -0.0016265532, -345667.75, -21690.936, 0.0, 5.015668, 4.942565 
2.7342638e+2, 2.7188215e+2, -301563.34, -421428.66, -2056.6604, 0.0000039269553, 0.0017105249, -301528.06, -25973.12, 0.0, 5.015569, 4.938526 
2.7342728e+2, 2.7682123e+2, -251846.5, -370898.94, -1998.1094, 0.000009477914, -0.0019140112, -251812.97, -24660.926, 0.0, 5.015476, 4.9389443 
2.7342832e+2, 2.8175855e+2, -207802.28, -333474.72, -1726.185, 0.000017005914, 0.0022106795, -207778.58, -29012.43, 0.0, 5.0153875, 4.9347076 
2.734296e+2, 2.866939e+2, -157775.6, -282325.03, -1649.5156, 0.00001895632, -0.002544645, -157753.75, -27354.135, 0.0, 5.015305, 4.935328 
2.7343103e+2, 2.9162708e+2, -115101.68, -248314.06, -1338.2872, 0.000014827118, 0.0017493814, -115088.234, -33033.504, 0.0, 5.015227, 4.929839 
2.7343276e+2, 2.965578e+2, -64975.152, -197048.45, -1243.8201, 0.000029518775, -0.0004708804, -64963.438, -31230.012, 0.0, 5.015157, 4.9304795 
2.7343467e+2, 3.0149546e+2, -24111.781, -134171.34, -881.5112, 0.000017302576, 0.0022081386, -24104.72, -24104.72, 0.0, 5.0150914, 4.9442434 
2.734369e+2, 3.0644032e+2, -23129.88, -131579.9, -764.13, 0.000034600824, -0.0052606156, -23124.496, -23124.496, 0.0, 5.0150356, 4.945199 
2.734393e+2, 3.114026e+2, 15158.117, -41466.0, -339.82047, 0.000024940076, 0.004050815, 15160.156, 15160.156, 0.0, 5.0149846, 4.978216 
2.734421e+2, 3.1638184e+2, 16773.576, -37476.504, -197.66525, 0.00004081434, -0.00096442376, 16774.297, 16774.297, 0.0, 5.014946, 4.9797053 
2.7842787e+2, 1.2288681e+2, -1696711.9, -1739033.8, -266.16684, -0.000024144405, 0.00095278455, -1696710.1, 38999.137, 0.0, 5.018586, 4.990987 
2.7843037e+2, 1.2787728e+2, -1649476.4, -1693326.8, -341.6138, -0.000002204676, -0.003220228, -1649473.8, 37328.977, 0.0, 5.018541, 4.9899483 
2.7843255e+2, 1.3286644e+2, -1604286.3, -1651763.9, -805.07874, -0.000028890465, 0.003527008, -1604272.6, 33636.285, 0.0, 5.018487, 4.9874578 
2.784345e+2, 1.3785362e+2, -1556544.5, -1605002.8, -870.91504, -0.000024239855, -0.0013049546, -1556528.9, 32505.604, 0.0, 5.018426, 4.986761 
2.7843612e+2, 1.4283925e+2, -1511611.1, -1564006.4, -1278.4808, -0.000002349592, 0.00028703458, -1511579.9, 28595.482, 0.0, 5.0183573, 4.9841194 
2.7843755e+2, 1.4782351e+2, -1463704.4, -1516894.0, -1336.7319, -0.000016647396, -0.0009403717, -1463670.8, 27658.707, 0.0, 5.0182824, 4.983538 
2.7843875e+2, 1.52806e+2, -1418830.4, -1476064.9, -1697.0577, -0.000020875885, 0.0012959482, -1418780.1, 23721.045, 0.0, 5.0182014, 4.980854 
2.7843976e+2, 1.5778688e+2, -1370885.6, -1428868.6, -1746.2421, -0.00001561641, -0.0013122578, -1370833.1, 22855.459, 0.0, 5.0181146, 4.9802933 
2.7844056e+2, 1.6276611e+2, -1326049.5, -1388162.4, -2058.5002, -0.000014891237, 0.0012610377, -1325981.4, 18910.68, 0.0, 5.0180225, 4.9775476 
2.784412e+2, 1.6774371e+2, -1278006.8, -1340763.0, -2098.703, -0.000017509232, -0.0011791715, -1277936.6, 18174.959, 0.0, 5.017926, 4.977044 
2.7844164e+2, 1.7271969e+2, -1233216.4, -1300209.8, -2361.2773, -0.0000172364, 0.0011428415, -1233133.3, 14213.904, 0.0, 5.0178246, 4.9742246 
2.7844197e+2, 1.7769396e+2, -1185099.1, -1252664.6, -2393.0876, -0.000016284199, -0.0012081257, -1185014.5, 13584.622, 0.0, 5.0177197, 4.973759 
2.7844214e+2, 1.8266664e+2, -1140330.9, -1212224.3, -2606.152, -0.000019740779, 0.0012476092, -1140236.5, 9630.408, 0.0, 5.017611, 4.9708824 
2.784422e+2, 1.8763757e+2, -1092149.0, -1164560.4, -2628.346, -0.000016002397, -0.0013013626, -1092053.8, 9097.989, 0.0, 5.017499, 4.970445 
2.784422e+2, 1.9260694e+2, -1047396.1, -1124235.8, -2790.6443, -0.000020679616, 0.0013072591, -1047294.9, 5157.171, 0.0, 5.0173855, 4.9675026 
2.7844208e+2, 1.9757451e+2, -999134.3, -1076434.3, -2806.9163, -0.000015382524, -0.00130932, -999032.5, 4737.332, 0.0, 5.0172696, 4.9670987 
2.7844194e+2, 2.0254049e+2, -954428.1, -1036300.75, -2903.8862, -0.00002050804, 0.0013048494, -954325.25, 777.981, 0.0, 5.017152, 4.9640703 
2.784417e+2, 2.0750463e+2, -906111.1, -988411.44, -2920.5583, -0.000016600354, -0.0013475767, -906007.6, 447.06717, 0.0, 5.0170317, 4.963683 
2.784415e+2, 2.1246715e+2, -861458.94, -948496.06, -2961.4795, -0.000017054736, 0.0013714215, -861358.3, -3536.3948, 0.0, 5.016911, 4.960551 
2.7844122e+2, 2.1742778e+2, -813066.8, -900491.1, -2971.9766, -0.000016947906, -0.0014354195, -812965.94, -3758.1345, 0.0, 5.0167894, 4.9601884 
2.78441e+2, 2.2238684e+2, -768316.7, -860481.06, -2967.7354, -0.000014402738, 0.0014207949, -768221.25, -7612.239, 0.0, 5.0166683, 4.9570613 
2.7844077e+2, 2.2734399e+2, -719853.3, -812379.9, -2970.6924, -0.000013404915, -0.0013995976, -719758.0, -7729.163, 0.0, 5.016548, 4.9567156 
2.7844056e+2, 2.3229955e+2, -675096.6, -772481.94, -2913.1445, -0.000011493778, 0.0014603776, -675009.56, -11545.153, 0.0, 5.016428, 4.9535227 
2.784404e+2, 2.3725317e+2, -626544.4, -724245.25, -2907.4785, -0.000013251773, -0.0016582464, -626457.9, -11538.972, 0.0, 5.016309, 4.953208 
2.784403e+2, 2.4220522e+2, -581795.06, -684500.2, -2800.4343, -0.000007259634, 0.0017039918, -581718.75, -15329.824, 0.0, 5.016191, 4.949929 
2.784403e+2, 2.4715526e+2, -533124.25, -636073.94, -2783.8425, -0.0000019619765, -0.0016936682, -533049.06, -15170.594, 0.0, 5.0160756, 4.9496627 
2.7844036e+2, 2.521037e+2, -488476.78, -596709.5, -2629.7222, -0.000005305996, 0.0016765895, -488412.9, -19029.025, 0.0, 5.015962, 4.946222 
2.784406e+2, 2.5705013e+2, -439515.6, -547713.6, -2600.9678, -0.000009014708, -0.0017246484, -439453.13, -18544.365, 0.0, 5.015852, 4.9461365 
2.784409e+2, 2.619949e+2, -395090.72, -509020.9, -2402.2869, 0.0000048998168, 0.0016769081, -395040.1, -22590.082, 0.0, 5.0157447, 4.9424267 
2.7844134e+2, 2.669377e+2, -345753.8, -459261.03, -2358.7144, 0.000009779778, -0.0016322386, -345704.8, -21694.33, 0.0, 5.015641, 4.942592 
2.7844197e+2, 2.7187875e+2, -301599.97, -421370.88, -2117.8267, -0.00000012143971, 0.0017068608, -301562.53, -25974.207, 0.0, 5.0155416, 4.9385586 
2.7844274e+2, 2.7681783e+2, -251885.58, -370839.88, -2058.2385, 0.0000050426843, -0.0019170438, -251849.97, -24664.87, 0.0, 5.015447, 4.938978 
2.784437e+2, 2.817552e+2, -207838.0, -333400.88, -1779.6488, 0.000012047297, 0.002205514, -207812.78, -29013.926, 0.0, 5.015357, 4.934747 
2.7844492e+2, 2.8669062e+2, -157813.63, -282249.5, -1701.6743, 0.000015911733, -0.0025515582, -157790.36, -27358.44, 0.0, 5.015273, 4.9353685 
2.7844626e+2, 2.916238e+2, -115141.91, -248236.38, -1382.9303, 0.000010529464, 0.0017454872, -115127.54, -33040.906, 0.0, 5.0151935, 4.929881 
2.784479e+2, 2.965546e+2, -65018.535, -196970.75, -1286.3002, 0.0000226435, -0.0004739276, -65005.996, -31241.086, 0.0, 5.0151224, 4.9305224 
2.7844974e+2, 3.014923e+2, -24151.21, -134077.45, -916.25946, 0.000012509549, 0.0022042068, -24143.574, -24143.574, 0.0, 5.015055, 4.9442925 
2.784519e+2, 3.0643722e+2, -23171.094, -131482.67, -795.40985, 0.000032290245, -0.0052675745, -23165.252, -23165.252, 0.0, 5.0149984, 4.9452505 
2.7845424e+2, 3.1139952e+2, 15123.376, -41347.125, -362.3913, 0.000019104644, 0.004046144, 15125.702, 15125.702, 0.0, 5.0149455, 4.9782767 
2.78457e+2, 3.1637883e+2, 16736.328, -37353.43, -215.56241, 0.00003315011, -0.00096583535, 16737.188, 16737.188, 0.0, 5.014905, 4.9797683 
2.8344655e+2, 1.2288404e+2, -1696107.0, -1738888.6, -250.38028, -0.00002327594, 0.00095554785, -1696105.5, 39630.926, 0.0, 5.0188203, 4.9909196 
2.83449e+2, 1.2787443e+2, -1648905.3, -1693199.4, -328.47375, -0.0000031709574, -0.0032245687, -1648902.8, 37927.734, 0.0, 5.018764, 4.989881 
2.8345114e+2, 1.3286354e+2, -1603739.5, -1651635.3, -806.1361, -0.000027763248, 0.0035297305, -1603726.0, 34211.426, 0.0, 5.0186996, 4.9873962 
2.8345302e+2, 1.3785066e+2, -1556032.5, -1604892.1, -874.5469, -0.00002361109, -0.0013038607, -1556016.9, 33046.71, 0.0, 5.018627, 4.9866996 
2.834546e+2, 1.4283623e+2, -1511124.4, -1563894.6, -1294.254, -0.0000030314466, 0.00028651147, -1511092.6, 29112.36, 0.0, 5.0185475, 4.9840646 
2.8345594e+2, 1.4782044e+2, -1463253.5, -1516800.9, -1354.8467, -0.000017076676, -0.0009409566, -1463219.3, 28140.451, 0.0, 5.018461, 4.983483 
2.8345704e+2, 1.5280287e+2, -1418405.6, -1475970.1, -1725.7943, -0.000019535937, 0.0012965264, -1418354.0, 24177.916, 0.0, 5.0183682, 4.980805 
2.8345793e+2, 1.577837e+2, -1370497.4, -1428792.8, -1777.1943, -0.000015592566, -0.0013125847, -1370443.3, 23276.457, 0.0, 5.01827, 4.980244 
2.8345865e+2, 1.627629e+2, -1325688.0, -1388084.8, -2098.393, -0.0000147432365, 0.0012604344, -1325617.5, 19306.197, 0.0, 5.0181656, 4.977505 
2.8345916e+2, 1.6774045e+2, -1277681.9, -1340703.9, -2140.3494, -0.000017213637, -0.0011790796, -1277609.3, 18534.297, 0.0, 5.018057, 4.977001 
2.8345954e+2, 1.7271636e+2, -1232919.5, -1300148.5, -2410.7751, -0.00001683496, 0.0011421555, -1232833.3, 14546.408, 0.0, 5.0179434, 4.974189 
2.8345972e+2, 1.7769063e+2, -1184840.6, -1252622.9, -2444.1035, -0.000015046314, -0.0012094927, -1184752.6, 13879.219, 0.0, 5.0178256, 4.973723 
2.834598e+2, 1.8266326e+2, -1140096.9, -1212179.0, -2663.124, -0.000019323137, 0.0012477789, -1139998.6, 9901.378, 0.0, 5.017705, 4.9708533 
2.8345975e+2, 1.8763417e+2, -1091951.1, -1164533.1, -2686.7424, -0.00001544211, -0.0013030939, -1091851.9, 9333.231, 0.0, 5.0175815, 4.970416 
2.834596e+2, 1.926035e+2, -1047228.44, -1124207.1, -2852.4966, -0.000018676525, 0.0013068189, -1047122.9, 5362.815, 0.0, 5.0174537, 4.96748 
2.834594e+2, 1.9757105e+2, -999005.44, -1076423.4, -2869.127, -0.00001426628, -0.0013104072, -998899.25, 4904.449, 0.0, 5.017325, 4.967077 
2.834591e+2, 2.0253702e+2, -954334.0, -1036301.3, -2969.8494, -0.000018921319, 0.0013032901, -954226.5, 910.7769, 0.0, 5.017194, 4.9640503 
2.8345877e+2, 2.0750113e+2, -906053.0, -988428.7, -2987.865, -0.00001473866, -0.001349045, -905944.75, 544.1349, 0.0, 5.017061, 4.9636636 
2.834584e+2, 2.1246365e+2, -861421.1, -948497.5, -3030.2437, -0.000015820302, 0.0013700686, -861315.8, -3459.5469, 0.0, 5.016928, 4.960542 
2.8345802e+2, 2.1742427e+2, -813065.1, -900508.5, -3040.1213, -0.000013979318, -0.0014375563, -812959.56, -3717.3474, 0.0, 5.0167937, 4.9601803 
2.8345764e+2, 2.2238332e+2, -768343.75, -860495.56, -3035.0918, -0.000013787654, 0.0014187866, -768243.9, -7600.4224, 0.0, 5.0166593, 4.9570603 
2.834573e+2, 2.2734047e+2, -719918.75, -812411.44, -3038.6785, -0.000011336203, -0.0014010575, -719819.0, -7755.6675, 0.0, 5.0165253, 4.956715 
2.8345698e+2, 2.3229603e+2, -675190.44, -772511.06, -2979.8645, -0.000009846911, 0.0014579634, -675099.3, -11600.447, 0.0, 5.016392, 4.9535294 
2.8345668e+2, 2.3724966e+2, -626673.4, -724289.56, -2974.003, -0.000012392277, -0.0016617633, -626582.8, -11629.515, 0.0, 5.01626, 4.9532146 
2.8345647e+2, 2.4220172e+2, -581951.9, -684542.3, -2863.823, -0.000005720241, 0.0017023816, -581872.0, -15448.767, 0.0, 5.0161295, 4.949942 
2.8345633e+2, 2.4715178e+2, -533316.2, -636130.5, -2846.687, -0.00000071984533, -0.0016962143, -533237.44, -15324.819, 0.0, 5.0160007, 4.949676 
2.834563e+2, 2.5210023e+2, -488695.97, -596763.9, -2688.0632, -0.00000470033, 0.0016735875, -488629.13, -19211.246, 0.0, 5.015875, 4.946242 
2.8345636e+2, 2.570467e+2, -439768.9, -547781.56, -2658.2686, -0.00000767881, -0.0017276265, -439703.53, -18760.982, 0.0, 5.0157514, 4.9461575 
2.8345656e+2, 2.6199147e+2, -395371.28, -509087.03, -2453.6616, 0.0000060213924, 0.0016745835, -395318.34, -22834.777, 0.0, 5.0156317, 4.9424534 
2.8345692e+2, 2.669343e+2, -346067.13, -459339.5, -2408.674, 0.000010327142, -0.0016358768, -346015.9, -21972.146, 0.0, 5.015516, 4.94262 
2.8345743e+2, 2.7187535e+2, -301940.0, -421448.1, -2160.734, 0.0000013595317, 0.0017041215, -301900.94, -26279.621, 0.0, 5.0154037, 4.938592 
2.8345814e+2, 2.7681452e+2, -252256.78, -370928.2, -2098.9414, 0.000006886311, -0.0019189224, -252219.67, -25001.912, 0.0, 5.0152974, 4.9390125 
2.8345895e+2, 2.8175193e+2, -208234.34, -333486.2, -1812.1233, 0.000013581544, 0.0022022966, -208208.13, -29376.979, 0.0, 5.015195, 4.9347873 
2.8346008e+2, 2.8668737e+2, -158239.61, -282344.53, -1731.4298, 0.000018248882, -0.002556679, -158215.45, -27751.64, 0.0, 5.0150995, 4.9354105 
2.8346133e+2, 2.916206e+2, -115597.43, -248340.17, -1403.5134, 0.000011971638, 0.0017426797, -115582.59, -33464.484, 0.0, 5.0150084, 4.929924 
2.834629e+2, 2.9655144e+2, -65502.92, -197084.98, -1303.1904, 0.000023604574, -0.00047558578, -65490.016, -31694.06, 0.0, 5.0149255, 4.9305663 
2.834647e+2, 3.0148917e+2, -24655.467, -134183.9, -923.9613, 0.00001577854, 0.0022020473, -24647.672, -24647.672, 0.0, 5.0148473, 4.9443436 
2.834668e+2, 3.0643415e+2, -23702.082, -131596.52, -798.1323, 0.000034917255, -0.005273135, -23696.178, -23696.178, 0.0, 5.0147796, 4.945303 
2.8346908e+2, 3.113965e+2, 14579.095, -41444.49, -355.072, 0.000019421948, 0.0040416606, 14581.346, 14581.346, 0.0, 5.014716, 4.9783387 
2.8347176e+2, 3.1637588e+2, 16168.427, -37456.05, -202.04996, 0.000040260602, -0.00096840126, 16169.188, 16169.188, 0.0, 5.0146656, 4.9798326 
2.8846538e+2, 1.228813e+2, -1696185.5, -1739086.3, -282.5808, -0.00002830676, 0.00095514447, -1696183.6, 39579.613, 0.0, 5.0188284, 4.9908504 
2.8846776e+2, 1.2787163e+2, -1648986.8, -1693398.4, -360.6784, -0.00000826031, -0.003232797, -1648983.9, 37874.223, 0.0, 5.018771, 4.989812 
2.8846985e+2, 1.3286066e+2, -1603815.5, -1651817.3, -850.36884, -0.000030052173, 0.0035298993, -1603800.4, 34165.188, 0.0, 5.018705, 4.987334 
2.884716e+2, 1.3784772e+2, -1556111.8, -1605075.6, -918.8796, -0.00002645384, -0.0013050074, -1556094.5, 32997.863, 0.0, 5.0186315, 4.9866366 
2.8847316e+2, 1.4283322e+2, -1511197.8, -1564060.6, -1348.9266, -0.000006870678, 0.0002825809, -1511163.4, 29071.033, 0.0, 5.0185504, 4.984008 
2.8847438e+2, 1.4781739e+2, -1463330.4, -1516968.9, -1409.6942, -0.000020707705, -0.00094446325, -1463293.4, 28096.232, 0.0, 5.018463, 4.983426 
2.884754e+2, 1.5279976e+2, -1418476.4, -1476119.8, -1789.4235, -0.000020740414, 0.0012953618, -1418420.9, 24141.451, 0.0, 5.0183687, 4.980755 
2.8847623e+2, 1.5778054e+2, -1370571.6, -1428944.4, -1841.0842, -0.000018983223, -0.0013149376, -1370513.6, 23237.092, 0.0, 5.018269, 4.9801936 
2.884768e+2, 1.6275969e+2, -1325755.5, -1388217.3, -2169.6772, -0.000016841359, 0.0012577428, -1325680.3, 19274.79, 0.0, 5.0181637, 4.977462 
2.8847724e+2, 1.677372e+2, -1277753.1, -1340838.6, -2211.885, -0.000018202527, -0.0011820009, -1277675.6, 18499.813, 0.0, 5.018054, 4.976958 
2.8847748e+2, 1.7271307e+2, -1232984.1, -1300263.9, -2488.6633, -0.000019946428, 0.0011405685, -1232892.1, 14519.646, 0.0, 5.017939, 4.974152 
2.8847754e+2, 1.776873e+2, -1184908.5, -1252739.8, -2521.4766, -0.00001661139, -0.0012109644, -1184814.9, 13849.527, 0.0, 5.01782, 4.973686 
2.884775e+2, 1.8265991e+2, -1140158.6, -1212277.1, -2745.3115, -0.000020997555, 0.0012448477, -1140054.3, 9878.688, 0.0, 5.0176983, 4.9708233 
2.8847733e+2, 1.8763079e+2, -1092016.1, -1164632.4, -2769.4326, -0.000017125853, -0.001306157, -1091910.6, 9307.62, 0.0, 5.017573, 4.970386 
2.8847706e+2, 1.926001e+2, -1047286.7, -1124286.4, -2938.4907, -0.000020316718, 0.0013052373, -1047174.75, 5344.3926, 0.0, 5.0174446, 4.9674573 
2.884767e+2, 1.9756761e+2, -999066.8, -1076503.6, -2955.3435, -0.000017626404, -0.0013121834, -998954.2, 4883.1377, 0.0, 5.017314, 4.9670544 
2.884763e+2, 2.0253356e+2, -954396.2, -1036377.5, -3058.3345, -0.000019646393, 0.0013000454, -954282.25, 888.9142, 0.0, 5.017182, 4.96403 
2.8847584e+2, 2.0749766e+2, -906118.3, -988505.8, -3076.0232, -0.000016662078, -0.0013518623, -906003.6, 519.36847, 0.0, 5.017048, 4.963643 
2.8847533e+2, 2.1246016e+2, -861473.5, -948540.7, -3119.881, -0.000019272973, 0.0013681942, -861361.8, -3471.3599, 0.0, 5.0169134, 4.960534 
2.8847483e+2, 2.1742076e+2, -813120.25, -900551.8, -3129.8723, -0.000014253113, -0.001440816, -813008.4, -3731.8425, 0.0, 5.016778, 4.9601727 
2.884743e+2, 2.2237982e+2, -768393.5, -860521.25, -3124.3896, -0.000017804858, 0.0014164215, -768287.7, -7609.8394, 0.0, 5.0166426, 4.9570594 
2.884738e+2, 2.2733697e+2, -719971.3, -812437.6, -3127.9736, -0.000012698792, -0.0014045243, -719865.56, -7767.906, 0.0, 5.016507, 4.956714 
2.8847337e+2, 2.3229253e+2, -675236.8, -772517.8, -3067.5266, -0.000012125122, 0.0014554636, -675140.2, -11607.015, 0.0, 5.0163727, 4.9535356 
2.8847292e+2, 2.3724617e+2, -626722.5, -724296.75, -3061.7117, -0.000015484698, -0.0016652881, -626626.56, -11638.987, 0.0, 5.0162396, 4.9532213 
2.884726e+2, 2.4219823e+2, -581995.7, -684531.7, -2948.9219, -0.0000069660864, 0.0016988515, -581910.94, -15453.575, 0.0, 5.0161076, 4.9499555 
2.8847232e+2, 2.471483e+2, -533362.56, -636119.75, -2931.6553, -0.000003815627, -0.0016993526, -533279.0, -15332.369, 0.0, 5.015978, 4.9496903 
2.8847218e+2, 2.5209674e+2, -488737.5, -596736.25, -2768.9358, -0.00000759447, 0.0016698132, -488666.56, -19214.81, 0.0, 5.0158505, 4.9462624 
2.8847212e+2, 2.5704324e+2, -439812.88, -547753.1, -2738.8843, -0.000008893094, -0.0017327671, -439743.4, -18767.223, 0.0, 5.015726, 4.9461784 
2.884722e+2, 2.6198807e+2, -395411.03, -509042.66, -2529.102, 0.000002420718, 0.0016712869, -395354.78, -22837.805, 0.0, 5.015605, 4.9424806 
2.8847244e+2, 2.6693094e+2, -346109.4, -459294.22, -2483.583, 0.0000054335374, -0.0016405707, -346054.94, -21978.043, 0.0, 5.015488, 4.9426484 
2.884728e+2, 2.7187204e+2, -301978.84, -421388.0, -2229.658, -0.0000014967137, 0.0016990496, -301937.22, -26283.094, 0.0, 5.015374, 4.9386263 
2.8847343e+2, 2.7681118e+2, -252298.34, -370867.1, -2166.7957, 0.000003355235, -0.0019230229, -252258.75, -25008.523, 0.0, 5.0152664, 4.9390473 
2.8847414e+2, 2.8174865e+2, -208272.31, -333409.38, -1873.0677, 0.000008799474, 0.0021975003, -208244.28, -29381.02, 0.0, 5.015163, 4.9348288 
2.8847516e+2, 2.8668416e+2, -158280.19, -282266.22, -1791.0024, 0.00001329732, -0.002563636, -158254.31, -27758.807, 0.0, 5.0150657, 4.935453 
2.8847635e+2, 2.916174e+2, -115639.98, -248258.66, -1455.4379, 0.0000061157343, 0.0017374228, -115624.01, -33474.62, 0.0, 5.014973, 4.9299684 
2.8847784e+2, 2.9654828e+2, -65548.92, -197003.61, -1352.8419, 0.000018414652, -0.000479805, -65535.0, -31708.205, 0.0, 5.0148892, 4.930611 
2.8847954e+2, 3.0148607e+2, -24697.53, -134085.73, -965.6447, 0.000012649096, 0.002197981, -24689.006, -24689.006, 0.0, 5.014809, 4.944395 
2.8848156e+2, 3.0643108e+2, -23746.346, -131495.14, -836.2918, 0.00002860685, -0.0052801743, -23739.855, -23739.855, 0.0, 5.01474, 4.945357 
2.884838e+2, 3.1139353e+2, 14541.271, -41320.793, -384.16818, 0.00000964976, 0.0040347227, 14543.913, 14543.913, 0.0, 5.0146747, 4.978402 
2.8848645e+2, 3.1637296e+2, 16127.26, -37329.004, -226.17859, 0.000034328667, -0.000970853, 16128.217, 16128.217, 0.0, 5.014622, 4.979898 
2.9348433e+2, 1.22878626e+2, -1695545.1, -1738930.8, -260.33105, -0.000026979444, 0.00095757074, -1695543.6, 40245.93, 0.0, 5.0190754, 4.9907804 
2.9348665e+2, 1.2786888e+2, -1648381.8, -1693261.3, -341.1059, -0.000009332121, -0.0032372808, -1648379.1, 38505.79, 0.0, 5.019007, 4.9897413 
2.9348865e+2, 1.3285784e+2, -1603236.4, -1651679.3, -845.392, -0.000028362785, 0.0035318064, -1603221.6, 34771.48, 0.0, 5.01893, 4.9872694 
2.9349035e+2, 1.3784485e+2, -1555569.1, -1604956.3, -916.4447, -0.000026400312, -0.0013039018, -1555552.1, 33568.445, 0.0, 5.0188446, 4.9865727 
2.9349178e+2, 1.428303e+2, -1510682.4, -1563940.5, -1359.0623, -0.0000069816433, 0.00028141178, -1510647.8, 29615.438, 0.0, 5.0187516, 4.98395 
2.9349294e+2, 1.478144e+2, -1462852.5, -1516868.1, -1422.1361, -0.000020759271, -0.0009458629, -1462815.1, 28603.846, 0.0, 5.018652, 4.9833684 
2.9349387e+2, 1.5279672e+2, -1418025.8, -1476017.5, -1812.7333, -0.000019593965, 0.0012961163, -1417969.1, 24623.076, 0.0, 5.0185456, 4.980704 
2.9349458e+2, 1.5777744e+2, -1370159.6, -1428861.9, -1866.5676, -0.000019646342, -0.0013157289, -1370100.4, 23680.703, 0.0, 5.0184336, 4.9801426 
2.9349506e+2, 1.6275655e+2, -1325371.8, -1388132.6, -2204.3643, -0.000015841932, 0.001256957, -1325294.4, 19691.48, 0.0, 5.0183153, 4.9774175 
2.9349536e+2, 1.6773401e+2, -1277408.8, -1340774.4, -2248.3457, -0.000016941023, -0.0011834142, -1277329.1, 18877.582, 0.0, 5.0181923, 4.976913 
2.9349545e+2, 1.7270985e+2, -1232667.3, -1300197.0, -2532.953, -0.000020426452, 0.0011401869, -1232572.4, 14871.184, 0.0, 5.018065, 4.9741144 
2.9349542e+2, 1.7768404e+2, -1184629.5, -1252691.5, -2567.215, -0.000015596821, -0.0012113346, -1184532.9, 14163.64, 0.0, 5.0179334, 4.973649 
2.9349524e+2, 1.826566e+2, -1139911.3, -1212228.5, -2797.1462, -0.000019599009, 0.0012428866, -1139803.3, 10162.025, 0.0, 5.0177975, 4.970793 
2.9349494e+2, 1.8762745e+2, -1091808.3, -1164602.1, -2822.4834, -0.000016426922, -0.0013072384, -1091699.0, 9551.924, 0.0, 5.0176587, 4.970356 
2.9349452e+2, 1.9259672e+2, -1047106.06, -1124253.0, -2995.713, -0.000018390208, 0.001304124, -1046989.94, 5562.1484, 0.0, 5.0175176, 4.9674344 
2.9349405e+2, 1.9756424e+2, -998926.3, -1076490.0, -3013.4773, -0.000015729636, -0.0013133025, -998809.44, 5061.074, 0.0, 5.0173736, 4.967031 
2.934935e+2, 2.0253015e+2, -954290.5, -1036374.6, -3119.7683, -0.000018225493, 0.0012986251, -954172.06, 1032.4818, 0.0, 5.017228, 4.9640093 
2.9349288e+2, 2.0749423e+2, -906051.0, -988520.44, -3137.9165, -0.0000143047, -0.0013541476, -905931.8, 624.76025, 0.0, 5.017081, 4.963623 
2.9349226e+2, 2.1245672e+2, -861431.3, -948540.25, -3183.0688, -0.000017478116, 0.0013672019, -861315.2, -3390.996, 0.0, 5.016932, 4.960526 
2.9349157e+2, 2.1741731e+2, -813116.1, -900568.4, -3193.4202, -0.0000116734755, -0.001442895, -812999.7, -3689.3967, 0.0, 5.016783, 4.9601645 
2.9349095e+2, 2.2237636e+2, -768418.5, -860535.4, -3187.744, -0.000016257409, 0.001414655, -768308.3, -7596.677, 0.0, 5.016634, 4.9570584 
2.934903e+2, 2.2733352e+2, -720034.5, -812468.6, -3191.2393, -0.000010173083, -0.0014072886, -719924.44, -7792.9233, 0.0, 5.016485, 4.9567137 
2.9348972e+2, 2.3228908e+2, -675329.7, -772546.1, -3129.0254, -0.000010454539, 0.0014538942, -675229.06, -11662.079, 0.0, 5.016337, 4.953542 
2.9348913e+2, 2.3724273e+2, -626853.7, -724341.6, -3123.0486, -0.000014443619, -0.0016672882, -626753.75, -11732.435, 0.0, 5.01619, 4.9532285 
2.9348868e+2, 2.4219479e+2, -582155.6, -684573.94, -3007.125, -0.000004863513, 0.0016961338, -582067.44, -15576.405, 0.0, 5.0160446, 4.9499693 
2.9348826e+2, 2.4714488e+2, -533559.44, -636177.4, -2989.392, -0.0000025266968, -0.001702136, -533472.44, -15492.309, 0.0, 5.015901, 4.9497046 
2.9348794e+2, 2.5209334e+2, -488963.78, -596792.0, -2822.0068, -0.0000066811053, 0.0016680798, -488889.97, -19404.914, 0.0, 5.0157604, 4.9462833 
2.934878e+2, 2.5703984e+2, -440074.78, -547822.94, -2790.989, -0.0000070275037, -0.0017358148, -440002.53, -18993.232, 0.0, 5.0156226, 4.9462004 
2.9348773e+2, 2.619847e+2, -395701.34, -509110.53, -2575.1165, 0.0000034537736, 0.0016690475, -395642.9, -23093.043, 0.0, 5.015488, 4.9425087 
2.9348785e+2, 2.669276e+2, -346434.44, -459375.38, -2528.255, 0.0000057445104, -0.0016427349, -346377.84, -22268.36, 0.0, 5.015358, 4.942677 
2.934881e+2, 2.7186874e+2, -302331.75, -421467.7, -2267.141, 0.00000086733235, 0.0016962204, -302288.63, -26602.195, 0.0, 5.015231, 4.938661 
2.934886e+2, 2.7680796e+2, -252684.27, -370958.7, -2202.0928, 0.0000051383386, -0.0019253968, -252643.28, -25361.11, 0.0, 5.015111, 4.939083 
2.9348922e+2, 2.8174543e+2, -208684.78, -333497.84, -1899.9352, 0.000009834645, 0.002195698, -208655.88, -29761.047, 0.0, 5.014994, 4.9348707 
2.9349014e+2, 2.8668094e+2, -158724.08, -282365.22, -1815.0913, 0.000016097953, -0.0025675762, -158697.44, -28170.787, 0.0, 5.014885, 4.9354963 
2.934912e+2, 2.916143e+2, -116114.59, -248366.02, -1470.1282, 0.00000848343, 0.0017342084, -116098.25, -33918.156, 0.0, 5.01478, 4.9300137 
2.9349262e+2, 2.965452e+2, -66054.08, -197122.16, -1363.7902, 0.000018473456, -0.00048069822, -66039.88, -32182.832, 0.0, 5.0146837, 4.930657 
2.934942e+2, 3.0148304e+2, -25223.629, -134196.23, -967.26154, 0.000014802639, 0.002196714, -25215.043, -25215.043, 0.0, 5.014592, 4.9444485 
2.934962e+2, 3.064281e+2, -24301.41, -131614.02, -832.85266, 0.000031831347, -0.005285324, -24294.947, -24294.947, 0.0, 5.014511, 4.9454117 
2.934983e+2, 3.113906e+2, 13972.061, -41422.88, -370.57233, 0.000012330406, 0.004030973, 13974.539, 13974.539, 0.0, 5.014435, 4.978467 
2.9350093e+2, 3.1637013e+2, 15533.026, -37437.16, -206.2614, 0.000038330454, -0.00097348983, 15533.829, 15533.829, 0.0, 5.014372, 4.979965 
2.9850343e+2, 1.2287599e+2, -1695626.0, -1739136.8, -299.39728, -0.00003170654, 0.00095604005, -1695624.0, 40191.36, 0.0, 5.0190845, 4.9907084 
2.9850566e+2, 1.2786618e+2, -1648465.8, -1693468.6, -380.12225, -0.000014621568, -0.0032442426, -1648462.5, 38448.92, 0.0, 5.019015, 4.9896693 
2.985076e+2, 1.3285507e+2, -1603314.8, -1651868.9, -896.87177, -0.000029977711, 0.0035295645, -1603298.1, 34722.152, 0.0, 5.018936, 4.987204 
2.985092e+2, 1.3784201e+2, -1555650.9, -1605147.1, -968.0536, -0.000030474088, -0.0013060007, -1555632.0, 33516.39, 0.0, 5.0188494, 4.986507 
2.9851052e+2, 1.4282739e+2, -1510758.3, -1564113.5, -1421.3088, -0.000009857103, 0.0002779088, -1510720.5, 29571.154, 0.0, 5.018755, 4.983891 
2.985116e+2, 1.4781143e+2, -1462932.1, -1517043.0, -1484.3884, -0.000023389543, -0.00095009344, -1462891.4, 28556.582, 0.0, 5.018654, 4.9833093 
2.9851243e+2, 1.527937e+2, -1418099.0, -1476173.3, -1884.2059, -0.000022179847, 0.0012942562, -1418037.9, 24583.844, 0.0, 5.0185466, 4.9806514 
2.98513e+2, 1.5777439e+2, -1370236.6, -1429019.8, -1938.2615, -0.0000232646, -0.0013190361, -1370172.8, 23638.365, 0.0, 5.018433, 4.98009 
2.9851335e+2, 1.6275342e+2, -1325441.8, -1388270.3, -2283.768, -0.000016993497, 0.0012543706, -1325358.9, 19657.63, 0.0, 5.0183134, 4.977372 
2.9851356e+2, 1.6773085e+2, -1277482.8, -1340914.5, -2327.7546, -0.000018457233, -0.0011865979, -1277397.4, 18840.291, 0.0, 5.0181894, 4.9768677 
2.9851353e+2, 1.7270663e+2, -1232734.5, -1300317.4, -2618.593, -0.000023356417, 0.0011381042, -1232633.3, 14841.688, 0.0, 5.0180607, 4.9740763 
2.9851335e+2, 1.7768079e+2, -1184700.4, -1252813.5, -2653.1401, -0.000017313116, -0.0012132705, -1184597.1, 14131.096, 0.0, 5.0179276, 4.9736104 
2.9851305e+2, 1.8265332e+2, -1139975.5, -1212330.4, -2887.9744, -0.000020669646, 0.0012394638, -1139860.4, 10137.025, 0.0, 5.0177903, 4.970762 
2.985126e+2, 1.8762414e+2, -1091875.4, -1164704.0, -2913.049, -0.000019564108, -0.0013086912, -1091759.0, 9524.387, 0.0, 5.0176506, 4.9703255 
2.9851204e+2, 1.925934e+2, -1047166.7, -1124335.3, -3090.2666, -0.000019777526, 0.0013012642, -1047043.1, 5541.6143, 0.0, 5.017508, 4.9674115 
2.9851142e+2, 1.9756086e+2, -998991.3, -1076575.5, -3108.0032, -0.000015806037, -0.0013158899, -998867.0, 5036.44, 0.0, 5.0173626, 4.967007 
2.985107e+2, 2.0252676e+2, -954354.94, -1036452.8, -3216.6707, -0.000022404953, 0.0012970892, -954229.06, 1008.623, 0.0, 5.0172157, 4.963989 
2.9850996e+2, 2.0749083e+2, -906118.4, -988598.8, -3235.182, -0.000015985426, -0.0013576404, -905991.7, 598.2207, 0.0, 5.017067, 4.9636025 
2.9850918e+2, 2.1245329e+2, -861486.5, -948585.9, -3281.3162, -0.000018986371, 0.0013656451, -861363.0, -3405.356, 0.0, 5.0169168, 4.960517 
2.9850838e+2, 2.1741389e+2, -813174.3, -900614.56, -3291.544, -0.0000147673245, -0.0014452137, -813050.56, -3706.717, 0.0, 5.0167665, 4.9601564 
2.9850757e+2, 2.2237292e+2, -768470.5, -860561.9, -3285.7874, -0.000017764576, 0.0014120662, -768353.44, -7608.1567, 0.0, 5.0166163, 4.9570575 
2.9850677e+2, 2.2733009e+2, -720089.44, -812495.6, -3289.2256, -0.000012190243, -0.001410732, -719972.56, -7807.391, 0.0, 5.016466, 4.9567127 
2.9850605e+2, 2.3228566e+2, -675378.7, -772554.0, -3225.5178, -0.000012896052, 0.0014518531, -675271.75, -11671.192, 0.0, 5.016317, 4.9535484 
2.9850534e+2, 2.372393e+2, -626905.56, -724349.75, -3219.4626, -0.000016993206, -0.0016692674, -626799.3, -11744.502, 0.0, 5.016168, 4.953235 
2.985047e+2, 2.4219139e+2, -582201.9, -684563.4, -3100.586, -0.000006978383, 0.0016926347, -582108.06, -15583.632, 0.0, 5.0160217, 4.9499836 
2.9850414e+2, 2.471415e+2, -533608.44, -636166.7, -3082.8457, -0.0000042912566, -0.0017065287, -533515.8, -15502.437, 0.0, 5.0158772, 4.949719 
2.9850373e+2, 2.5208998e+2, -489007.66, -596763.44, -2911.393, -0.000009546491, 0.001666074, -488929.03, -19410.873, 0.0, 5.0157347, 4.946305 
2.9850343e+2, 2.570365e+2, -440121.25, -547793.8, -2879.9536, -0.00000990277, -0.001739474, -440044.28, -19002.09, 0.0, 5.015596, 4.9462223 
2.985032e+2, 2.619814e+2, -395743.3, -509064.4, -2658.7908, 0.00000076562605, 0.0016646804, -395680.97, -23098.473, 0.0, 5.01546, 4.9425373 
2.985032e+2, 2.669243e+2, -346479.22, -459328.72, -2611.4285, 0.0000018574298, -0.0016460759, -346418.8, -22276.965, 0.0, 5.0153284, 4.9427066 
2.9850334e+2, 2.7186546e+2, -302372.84, -421405.34, -2344.0313, -0.000002077374, 0.0016915818, -302326.72, -26608.242, 0.0, 5.0152006, 4.9386964 
2.985037e+2, 2.7680472e+2, -252728.19, -370895.28, -2277.9436, 0.00000086761787, -0.0019303757, -252684.3, -25370.441, 0.0, 5.0150785, 4.93912 
2.985042e+2, 2.8174222e+2, -208724.98, -333418.1, -1968.617, 0.000004037067, 0.0021921135, -208693.92, -29767.799, 0.0, 5.014961, 4.9349136 
2.98505e+2, 2.866778e+2, -158767.1, -282284.0, -1882.3367, 0.000012390405, -0.002573652, -158738.4, -28180.89, 0.0, 5.0148497, 4.93554 
2.98506e+2, 2.9161116e+2, -116159.31, -248280.53, -1529.542, 0.0000042583215, 0.0017278595, -116141.61, -33931.09, 0.0, 5.014743, 4.93006 
2.985073e+2, 2.9654214e+2, -66102.586, -197037.05, -1420.8612, 0.000010646301, -0.0004838517, -66087.164, -32200.15, 0.0, 5.0146456, 4.9307036 
2.985088e+2, 3.0148005e+2, -25268.145, -134093.55, -1016.1405, 0.000008805695, 0.002192869, -25258.656, -25258.656, 0.0, 5.014552, 4.944503 
2.9851067e+2, 3.0642518e+2, -24348.617, -131508.4, -878.3074, 0.000027291719, -0.0052937823, -24341.42, -24341.42, 0.0, 5.014469, 4.945468 
2.9851276e+2, 3.113877e+2, 13931.068, -41294.65, -406.2972, 0.0000066715966, 0.0040251706, 13934.057, 13934.057, 0.0, 5.014391, 4.978533 
2.985153e+2, 3.1636727e+2, 15488.043, -37305.805, -236.9741, 0.000025667054, -0.0009764606, 15489.106, 15489.106, 0.0, 5.0143256, 4.9800334 
3.0352265e+2, 1.2287343e+2, -1694948.6, -1738970.3, -270.32974, -0.000029595476, 0.0009582425, -1694947.0, 40893.355, 0.0, 5.0193458, 4.9906344 
3.0352482e+2, 1.2786354e+2, -1647825.6, -1693321.0, -353.79245, -0.000016389218, -0.0032485828, -1647822.9, 39114.31, 0.0, 5.019264, 4.989596 
3.0352664e+2, 1.3285238e+2, -1602702.4, -1651720.9, -885.50433, -0.000027039581, 0.0035311505, -1602686.4, 35360.4, 0.0, 5.019173, 4.987137 
3.0352816e+2, 1.3783924e+2, -1555077.0, -1605018.8, -959.172, -0.00003067751, -0.0013055239, -1555058.6, 34116.816, 0.0, 5.0190744, 4.98644 
3.0352938e+2, 1.4282456e+2, -1510212.8, -1563984.4, -1425.404, -0.0000097699485, 0.0002768056, -1510175.0, 30144.281, 0.0, 5.0189676, 4.983831 
3.0353037e+2, 1.4780855e+2, -1462426.0, -1516934.0, -1490.6985, -0.00002343263, -0.0009513468, -1462385.3, 29091.07, 0.0, 5.0188537, 4.983249 
3.0353108e+2, 1.5279076e+2, -1417622.0, -1476063.0, -1901.7533, -0.000021093683, 0.001294259, -1417560.1, 25090.453, 0.0, 5.018733, 4.9805984 
3.0353153e+2, 1.5777138e+2, -1369800.3, -1428930.4, -1957.8651, -0.000023250584, -0.0013203807, -1369735.5, 24104.977, 0.0, 5.0186067, 4.9800367 
3.0353177e+2, 1.6275038e+2, -1325034.6, -1388178.8, -2312.95, -0.000016500073, 0.0012536254, -1324950.0, 20096.309, 0.0, 5.018474, 4.9773264 
3.035318e+2, 1.6772775e+2, -1277116.5, -1340844.0, -2358.8042, -0.000017758472, -0.0011876243, -1277029.4, 19238.68, 0.0, 5.0183363, 4.9768214 
3.0353165e+2, 1.727035e+2, -1232398.4, -1300244.5, -2657.2, -0.00002273232, 0.0011371898, -1232294.5, 15211.16, 0.0, 5.0181937, 4.9740376 
3.0353135e+2, 1.7767762e+2, -1184405.6, -1252761.4, -2693.1558, -0.000016732862, -0.0012151896, -1184299.6, 14459.764, 0.0, 5.0180473, 4.9735713 
3.0353087e+2, 1.8265012e+2, -1139710.6, -1212275.5, -2934.2178, -0.000019296833, 0.0012386149, -1139592.1, 10436.703, 0.0, 5.017896, 4.9707303 
3.035303e+2, 1.8762091e+2, -1091651.9, -1164669.6, -2960.111, -0.000018439554, -0.0013088038, -1091532.1, 9783.044, 0.0, 5.017742, 4.970294 
3.035296e+2, 1.9259012e+2, -1046973.6, -1124298.3, -3142.5793, -0.000018315372, 0.0012991772, -1046846.1, 5770.6606, 0.0, 5.0175858, 4.967387 
3.0352882e+2, 1.9755758e+2, -998838.9, -1076558.3, -3161.4414, -0.000013355749, -0.0013185773, -998710.5, 5225.1807, 0.0, 5.0174265, 4.9669833 
3.0352795e+2, 2.0252346e+2, -954239.94, -1036446.7, -3272.436, -0.00002114622, 0.0012972605, -954109.9, 1160.3024, 0.0, 5.0172653, 4.9639673 
3.0352703e+2, 2.074875e+2, -906044.25, -988611.4, -3291.5286, -0.0000131086235, -0.001358709, -905913.25, 709.3479, 0.0, 5.0171022, 4.9635816 
3.035261e+2, 2.1244995e+2, -861436.7, -948582.75, -3339.2207, -0.000017061871, 0.001363301, -861308.94, -3318.4285, 0.0, 5.016938, 4.9605083 
3.0352515e+2, 2.1741053e+2, -813165.0, -900629.56, -3349.6858, -0.000012374965, -0.0014469324, -813036.9, -3660.105, 0.0, 5.0167737, 4.960148 
3.035242e+2, 2.2236957e+2, -768492.5, -860574.56, -3343.8599, -0.00001523613, 0.0014107488, -768371.25, -7593.0444, 0.0, 5.016609, 4.957056 
3.035232e+2, 2.2732672e+2, -720151.6, -812526.1, -3347.153, -0.000010600774, -0.0014121919, -720030.5, -7832.405, 0.0, 5.0164447, 4.9567122 
3.0352235e+2, 2.322823e+2, -675471.5, -772581.75, -3281.6538, -0.000010629544, 0.0014498893, -675360.75, -11727.236, 0.0, 5.0162807, 4.953555 
3.0352148e+2, 2.3723595e+2, -627038.06, -724394.8, -3275.3909, -0.00001415217, -0.0016709509, -626928.0, -11840.318, 0.0, 5.016118, 4.9532423 
3.0352068e+2, 2.4218805e+2, -582365.06, -684605.8, -3153.075, -0.0000058775636, 0.0016908579, -582267.9, -15710.725, 0.0, 5.0159574, 4.949998 
3.0352e+2, 2.4713817e+2, -533810.3, -636225.44, -3134.9578, -0.0000034980142, -0.0017086451, -533714.44, -15668.47, 0.0, 5.0157986, 4.9497337 
3.035194e+2, 2.5208667e+2, -489240.1, -596819.9, -2958.7505, -0.0000073160145, 0.0016647236, -489158.78, -19608.182, 0.0, 5.015642, 4.9463263 
3.0351895e+2, 2.5703323e+2, -440391.53, -547865.44, -2926.3518, -0.000008062469, -0.0017413195, -440311.9, -19237.498, 0.0, 5.015489, 4.9462447 
3.0351862e+2, 2.6197812e+2, -396043.34, -509133.94, -2699.104, 0.0000020379277, 0.0016628092, -395978.94, -23364.488, 0.0, 5.0153394, 4.9425664 
3.0351847e+2, 2.6692107e+2, -346815.72, -459412.34, -2650.4358, 0.0000024293415, -0.0016471911, -346753.38, -22579.85, 0.0, 5.015194, 4.9427366 
3.0351847e+2, 2.7186227e+2, -302738.66, -421487.44, -2375.5208, 0.00000027574475, 0.0016900008, -302691.13, -26941.326, 0.0, 5.0150523, 4.9387326 
3.0351868e+2, 2.7680156e+2, -253128.94, -370990.1, -2307.3804, 0.0000030778886, -0.0019324675, -253083.78, -25738.938, 0.0, 5.014917, 4.939157 
3.0351907e+2, 2.8173912e+2, -209153.75, -333509.8, -1989.3784, 0.0000052563964, 0.002191347, -209121.94, -30165.223, 0.0, 5.0147853, 4.9349575 
3.0351976e+2, 2.866747e+2, -159228.98, -282386.97, -1900.3202, 0.00001476646, -0.0025759775, -159199.67, -28612.01, 0.0, 5.0146613, 4.9355855 
3.0352062e+2, 2.9160812e+2, -116653.08, -248391.31, -1537.9116, 0.000006879664, 0.0017253264, -116635.125, -34394.906, 0.0, 5.0145416, 4.9301076 
3.035218e+2, 2.9653916e+2, -66628.76, -197159.88, -1425.4564, 0.000011143968, -0.00048275583, -66613.195, -32696.951, 0.0, 5.0144315, 4.930752 
3.035232e+2, 3.014771e+2, -25816.492, -134208.13, -1011.24023, 0.0000112225325, 0.0021922244, -25807.059, -25807.059, 0.0, 5.0143256, 4.944558 
3.0352503e+2, 3.0642226e+2, -24928.111, -131632.39, -868.4081, 0.000028644568, -0.0052985083, -24921.043, -24921.043, 0.0, 5.0142303, 4.945525 
3.03527e+2, 3.113849e+2, 13336.07, -41402.246, -386.03287, 0.0000110240335, 0.00402397, 13338.792, 13338.792, 0.0, 5.0141406, 4.9786005 
3.0352944e+2, 3.1636453e+2, 14866.903, -37419.53, -210.41983, 0.000029128181, -0.0009775641, 14867.75, 14867.75, 0.0, 5.0140643, 4.980103 
3.0854198e+2, 1.2287094e+2, -1695031.9, -1739185.0, -316.6243, -0.000033217046, 0.000956743, -1695029.6, 40835.24, 0.0, 5.0193553, 4.990559 
3.085441e+2, 1.2786096e+2, -1647912.0, -1693536.4, -399.95514, -0.000023009268, -0.0032572693, -1647908.4, 39054.06, 0.0, 5.0192723, 4.989521 
3.0854583e+2, 1.3284974e+2, -1602783.0, -1651918.0, -944.6134, -0.000026980124, 0.0035298439, -1602764.8, 35307.89, 0.0, 5.0191803, 4.9870687 
3.0854723e+2, 1.3783652e+2, -1555161.5, -1605217.6, -1018.25146, -0.000034170393, -0.0013085663, -1555140.9, 34061.242, 0.0, 5.0190797, 4.986372 
3.0854836e+2, 1.4282177e+2, -1510291.3, -1564164.4, -1495.4988, -0.000013325328, 0.00027251447, -1510249.8, 30096.842, 0.0, 5.0189714, 4.9837694 
3.0854923e+2, 1.4780569e+2, -1462508.1, -1517115.5, -1560.7323, -0.000027186463, -0.0009549904, -1462463.5, 29040.6, 0.0, 5.018856, 4.983187 
3.085498e+2, 1.5278786e+2, -1417697.8, -1476224.8, -1981.3572, -0.00002253703, 0.0012912398, -1417630.8, 25048.365, 0.0, 5.018734, 4.980544 
3.0855015e+2, 1.5776841e+2, -1369879.9, -1429094.4, -2037.5393, -0.000025296893, -0.0013241117, -1369809.9, 24059.584, 0.0, 5.018606, 4.979982 
3.0855024e+2, 1.6274737e+2, -1325107.5, -1388322.5, -2400.5906, -0.000019545205, 0.0012509043, -1325016.5, 20059.34, 0.0, 5.018472, 4.977279 
3.0855015e+2, 1.677247e+2, -1277193.3, -1340989.6, -2446.5105, -0.000020085328, -0.00118975, -1277099.6, 19198.395, 0.0, 5.018333, 4.9767737 
3.0854985e+2, 1.727004e+2, -1232467.8, -1300368.5, -2751.3103, -0.000023940953, 0.0011345178, -1232356.5, 15179.543, 0.0, 5.018189, 4.973998 
3.085494e+2, 1.7767449e+2, -1184479.4, -1252888.4, -2787.481, -0.000019164048, -0.0012196383, -1184366.0, 14424.194, 0.0, 5.018041, 4.9735317 
3.085488e+2, 1.8264695e+2, -1139776.9, -1212380.3, -3033.7537, -0.000021038199, 0.0012380705, -1139650.3, 10409.681, 0.0, 5.017889, 4.9706984 
3.0854803e+2, 1.876177e+2, -1091722.9, -1164778.1, -3059.5134, -0.000019338731, -0.0013099011, -1091595.0, 9751.605, 0.0, 5.0177336, 4.9702616 
3.0854717e+2, 1.9258688e+2, -1047037.25, -1124384.8, -3245.681, -0.000020970718, 0.0012960405, -1046901.25, 5747.2095, 0.0, 5.0175753, 4.967363 
3.0854625e+2, 1.9755432e+2, -998905.7, -1076645.3, -3264.7568, -0.000015879612, -0.0013230279, -998768.8, 5198.822, 0.0, 5.017415, 4.966959 
3.0854523e+2, 2.0252018e+2, -954306.56, -1036526.8, -3378.3354, -0.000022638233, 0.0012975057, -954168.0, 1134.3475, 0.0, 5.0172524, 4.9639463 
3.0854413e+2, 2.0748419e+2, -906114.3, -988692.5, -3397.4866, -0.000014361012, -0.0013587839, -905974.75, 680.1669, 0.0, 5.017088, 4.9635606 
3.0854303e+2, 2.1244663e+2, -861494.3, -948630.4, -3446.4536, -0.000020599344, 0.0013589959, -861358.2, -3335.1885, 0.0, 5.0169225, 4.9604993 
3.085419e+2, 2.1740721e+2, -813225.75, -900677.7, -3456.8228, -0.000013406255, -0.0014491979, -813089.3, -3679.965, 0.0, 5.0167565, 4.9601393 
3.085408e+2, 2.2236624e+2, -768546.9, -860602.2, -3450.9358, -0.000017585398, 0.001409596, -768417.7, -7606.866, 0.0, 5.0165906, 4.957055 
3.0853966e+2, 2.273234e+2, -720209.25, -812554.44, -3454.1218, -0.000014150426, -0.001412783, -720080.2, -7849.478, 0.0, 5.0164247, 4.956712 
3.0853862e+2, 2.3227896e+2, -675522.9, -772589.9, -3387.026, -0.000012238053, 0.001446882, -675404.8, -11738.712, 0.0, 5.0162597, 4.9535623 
3.085376e+2, 2.3723264e+2, -627092.7, -724403.75, -3380.7554, -0.000014228969, -0.0016735984, -626975.4, -11855.12, 0.0, 5.0160956, 4.9532495 
3.0853665e+2, 2.4218474e+2, -582413.56, -684594.9, -3255.4365, -0.0000094797615, 0.0016893125, -582310.0, -15720.367, 0.0, 5.0159335, 4.950012 
3.0853578e+2, 2.4713488e+2, -533861.9, -636214.75, -3237.2725, -0.000007802812, -0.001710366, -533759.6, -15681.332, 0.0, 5.0157733, 4.949749 
3.0853504e+2, 2.520834e+2, -489286.2, -596790.25, -3056.9316, -0.000007926232, 0.0016617315, -489199.34, -19616.633, 0.0, 5.0156155, 4.9463487 
3.085344e+2, 2.5702998e+2, -440440.6, -547835.8, -3024.0442, -0.000009937802, -0.0017442163, -440355.5, -19249.229, 0.0, 5.015461, 4.9462676 
3.0853394e+2, 2.6197487e+2, -396087.63, -509086.4, -2791.306, -0.0000015748406, 0.0016599409, -396018.72, -23372.643, 0.0, 5.01531, 4.9425964 
3.0853367e+2, 2.6691788e+2, -346862.88, -459364.06, -2742.1895, -0.0000019408317, -0.001650263, -346796.06, -22591.22, 0.0, 5.015163, 4.942767 
3.0853352e+2, 2.718591e+2, -302781.97, -421422.84, -2460.6765, -0.000002649517, 0.0016868006, -302730.94, -26950.135, 0.0, 5.01502, 4.93877 
3.085336e+2, 2.7679843e+2, -253175.25, -370924.5, -2391.5735, -0.00000042611566, -0.0019366303, -253126.69, -25751.22, 0.0, 5.014883, 4.939195 
3.0853388e+2, 2.8173602e+2, -209196.16, -333427.06, -2066.0818, 0.000000008691932, 0.0021879768, -209161.8, -30174.86, 0.0, 5.01475, 4.9350023 
3.085344e+2, 2.866717e+2, -159274.39, -282302.88, -1975.5313, 0.000009419831, -0.0025808874, -159242.67, -28625.225, 0.0, 5.0146246, 4.9356313 
3.0853516e+2, 2.9160514e+2, -116699.83, -248301.69, -1605.0596, 0.0000019207264, 0.0017198403, -116680.25, -34410.71, 0.0, 5.0145035, 4.930156 
3.0853626e+2, 2.9653624e+2, -66679.63, -197070.84, -1490.2465, 0.000005008772, -0.0004844579, -66662.6, -32717.521, 0.0, 5.014391, 4.9308014 
3.0853754e+2, 3.014742e+2, -25863.28, -134100.72, -1067.5308, 0.000006427986, 0.0021879338, -25852.752, -25852.752, 0.0, 5.0142837, 4.9446154 
3.0853924e+2, 3.0641943e+2, -24977.975, -131522.3, -921.4278, 0.00001919684, -0.005306603, -24970.006, -24970.006, 0.0, 5.0141864, 4.945584 
3.0854115e+2, 3.113821e+2, 13291.92, -41269.945, -428.61057, 0.0000049006317, 0.0040202215, 13295.287, 13295.287, 0.0, 5.014095, 4.9786687 
3.085435e+2, 3.1636184e+2, 14818.3955, -37283.44, -248.0964, 0.000015512813, -0.0009790369, 14819.577, 14819.577, 0.0, 5.0140157, 4.980174 
3.135615e+2, 1.2286853e+2, -1694316.1, -1739006.9, -280.37146, -0.000030086656, 0.0009593678, -1694314.4, 41574.08, 0.0, 5.019631, 4.9904823 
3.135635e+2, 1.2785849e+2, -1647235.6, -1693377.8, -366.29596, -0.000025576415, -0.0032625028, -1647232.8, 39754.1, 0.0, 5.019535, 4.9894447 
3.1356514e+2, 1.3284718e+2, -1602135.9, -1651759.4, -926.5417, -0.000022846469, 0.003532543, -1602118.6, 35979.12, 0.0, 5.01943, 4.9869986 
3.1356648e+2, 1.378339e+2, -1554555.1, -1605079.6, -1002.58435, -0.00003386003, -0.0013079769, -1554535.3, 34692.523, 0.0, 5.0193167, 4.986302 
3.1356743e+2, 1.4281909e+2, -1509714.6, -1564025.8, -1493.166, -0.0000136637655, 0.00027085212, -1509673.6, 30699.326, 0.0, 5.0191956, 4.983707 
3.1356817e+2, 1.4780295e+2, -1461973.0, -1516998.0, -1560.5305, -0.000027664117, -0.00095600344, -1461928.8, 29602.35, 0.0, 5.019067, 4.9831247 
3.1356862e+2, 1.5278503e+2, -1417193.3, -1476106.1, -1992.6775, -0.000020748725, 0.0012912737, -1417125.9, 25580.73, 0.0, 5.0189314, 4.980489 
3.1356883e+2, 1.5776555e+2, -1369417.9, -1428997.4, -2050.827, -0.000025173182, -0.0013253142, -1369347.4, 24550.197, 0.0, 5.0187893, 4.9799266 
3.135688e+2, 1.6274445e+2, -1324676.5, -1388223.8, -2423.4954, -0.000019419753, 0.0012502495, -1324584.3, 20520.209, 0.0, 5.0186415, 4.977231 
3.1356853e+2, 1.6772172e+2, -1276805.0, -1340912.6, -2471.1729, -0.000019300618, -0.0011910837, -1276709.9, 19617.172, 0.0, 5.0184884, 4.976726 
3.1356812e+2, 1.7269741e+2, -1232111.5, -1300289.1, -2784.0474, -0.00002350566, 0.0011337793, -1231998.0, 15567.475, 0.0, 5.01833, 4.973958 
3.1356752e+2, 1.7767143e+2, -1184167.0, -1252831.5, -2821.6846, -0.000018420356, -0.0012206165, -1184051.3, 14768.751, 0.0, 5.018167, 4.973491 
3.1356674e+2, 1.8264386e+2, -1139494.3, -1212319.4, -3074.2039, -0.000019947705, 0.0012370857, -1139364.8, 10725.528, 0.0, 5.018001, 4.970666 
3.1356582e+2, 1.8761458e+2, -1091483.4, -1164739.6, -3101.1816, -0.000017947665, -0.0013121229, -1091352.4, 10024.762, 0.0, 5.0178313, 4.970228 
3.1356478e+2, 1.9258374e+2, -1046830.3, -1124343.4, -3291.5493, -0.000019610043, 0.0012959442, -1046690.8, 5988.5537, 0.0, 5.0176587, 4.967338 
3.135637e+2, 1.9755115e+2, -998741.9, -1076624.4, -3311.798, -0.000013835485, -0.0013239554, -998601.25, 5397.4473, 0.0, 5.017483, 4.966934 
3.135625e+2, 2.0251697e+2, -954181.4, -1036516.75, -3428.6003, -0.000020645492, 0.001295782, -954038.9, 1294.7809, 0.0, 5.017306, 4.963925 
3.1356126e+2, 2.0748097e+2, -906031.3, -988702.06, -3448.15, -0.000012209199, -0.0013593698, -905887.75, 798.726, 0.0, 5.0171266, 4.9635396 
3.1355998e+2, 2.1244341e+2, -861437.4, -948624.7, -3498.7266, -0.000018488567, 0.0013577054, -861297.2, -3242.518, 0.0, 5.016947, 4.96049 
3.1355867e+2, 2.1740396e+2, -813211.44, -900691.06, -3509.118, -0.000009853028, -0.0014502994, -813070.9, -3629.746, 0.0, 5.0167656, 4.9601307 
3.135574e+2, 2.22363e+2, -768565.2, -860613.1, -3503.0417, -0.00001599377, 0.0014084231, -768432.06, -7589.3994, 0.0, 5.0165844, 4.957054 
3.135561e+2, 2.2732015e+2, -720269.56, -812584.25, -3506.0825, -0.000012264924, -0.0014129994, -720136.56, -7874.025, 0.0, 5.0164037, 4.956711 
3.1355485e+2, 2.3227572e+2, -675615.44, -772616.9, -3437.164, -0.00000961778, 0.0014454977, -675493.8, -11795.883, 0.0, 5.0162234, 4.953569 
3.1355366e+2, 2.3722939e+2, -627226.6, -724449.06, -3430.6873, -0.000011191948, -0.0016750316, -627105.75, -11953.795, 0.0, 5.0160446, 4.9532566 
3.1355253e+2, 2.4218151e+2, -582579.56, -684637.1, -3301.8303, -0.000007789191, 0.0016885891, -582472.9, -15851.65, 0.0, 5.0158677, 4.9500275 
3.1355152e+2, 2.4713165e+2, -534068.9, -636274.56, -3283.3098, -0.000007952524, -0.0017098779, -533963.5, -15853.773, 0.0, 5.0156927, 4.9497643 
3.135506e+2, 2.520802e+2, -489524.34, -596847.2, -3098.0786, -0.0000049958644, 0.0016601312, -489434.97, -19820.99, 0.0, 5.01552, 4.9463716 
3.1354982e+2, 2.570268e+2, -440718.7, -547909.1, -3064.2993, -0.000006610603, -0.0017454393, -440631.16, -19493.824, 0.0, 5.015351, 4.946291 
3.1354916e+2, 2.6197174e+2, -396397.38, -509157.72, -2825.2393, -0.0000008014196, 0.0016602846, -396326.63, -23649.768, 0.0, 5.015185, 4.9426265 
3.1354874e+2, 2.6691476e+2, -347210.72, -459449.94, -2774.9004, -0.0000024007556, -0.0016505559, -347142.16, -22906.826, 0.0, 5.0150237, 4.9427986 
3.1354845e+2, 2.71856e+2, -303160.72, -421507.28, -2485.6575, 0.000000608138, 0.0016864884, -303108.53, -27297.568, 0.0, 5.0148664, 4.9388075 
3.1354836e+2, 2.767954e+2, -253590.81, -371022.53, -2414.6582, 0.000003010184, -0.0019370262, -253541.19, -26135.951, 0.0, 5.014715, 4.939234 
3.135485e+2, 2.8173304e+2, -209641.13, -333521.97, -2080.276, 0.0000017429231, 0.0021886022, -209606.2, -30589.906, 0.0, 5.0145683, 4.935048 
3.1354892e+2, 2.8666872e+2, -159754.31, -282409.72, -1986.983, 0.000010367763, -0.0025815342, -159722.13, -29075.781, 0.0, 5.0144286, 4.935678 
3.1354952e+2, 2.9160222e+2, -117212.87, -248415.83, -1606.6515, 0.000004466429, 0.0017186351, -117193.2, -34895.227, 0.0, 5.014294, 4.930206 
3.135505e+2, 2.9653335e+2, -67227.164, -197197.95, -1488.0461, 0.00000807676, -0.0004814054, -67210.13, -33237.113, 0.0, 5.0141683, 4.9308515 
3.135517e+2, 3.014714e+2, -26434.205, -134219.42, -1055.544, 0.000010164432, 0.0021886975, -26423.87, -26423.87, 0.0, 5.0140476, 4.9446735 
3.1355327e+2, 3.0641672e+2, -25582.309, -131651.39, -904.6375, 0.000016985588, -0.0053088297, -25574.594, -25574.594, 0.0, 5.0139375, 4.945644 
3.135551e+2, 3.1137943e+2, 12670.6, -41383.53, -401.18094, 0.00000924458, 0.0040200925, 12673.577, 12673.577, 0.0, 5.0138335, 4.9787383 
3.135574e+2, 3.1635922e+2, 14169.554, -37402.895, -214.65814, 0.000020793746, -0.0009791739, 14170.447, 14170.447, 0.0, 5.013743, 4.9802465 
3.185811e+2, 1.2286619e+2, -1694401.6, -1739230.1, -334.29214, -0.00003274272, 0.00095794233, -1694399.1, 41512.277, 0.0, 5.0196414, 4.990404 
3.1858304e+2, 1.2785606e+2, -1647324.3, -1693601.5, -419.85278, -0.000032364773, -0.0032720622, -1647320.5, 39690.113, 0.0, 5.019544, 4.9893665 
3.1858456e+2, 1.3284467e+2, -1602219.0, -1651964.4, -993.5139, -0.000022033468, 0.0035318418, -1602199.1, 35923.11, 0.0, 5.019438, 4.9869275 
3.1858578e+2, 1.3783133e+2, -1554642.1, -1605286.0, -1069.3112, -0.000036939626, -0.0013104599, -1554619.6, 34633.37, 0.0, 5.0193224, 4.986231 
3.1858665e+2, 1.4281645e+2, -1509795.5, -1564212.8, -1571.4695, -0.000017470715, 0.00026565837, -1509750.1, 30648.633, 0.0, 5.0192, 4.9836426 
3.1858724e+2, 1.4780025e+2, -1462057.9, -1517186.5, -1638.711, -0.000031160223, -0.00096024456, -1462009.3, 29548.383, 0.0, 5.0190697, 4.983061 
3.1858754e+2, 1.5278228e+2, -1417271.5, -1476274.1, -2080.6516, -0.000021880662, 0.0012890515, -1417198.3, 25535.451, 0.0, 5.0189323, 4.980432 
3.185876e+2, 1.5776274e+2, -1369500.3, -1429167.5, -2138.8015, -0.000028645316, -0.0013287051, -1369423.6, 24501.521, 0.0, 5.018789, 4.97987 
3.1858742e+2, 1.6274157e+2, -1324751.6, -1388372.3, -2519.5806, -0.000021458416, 0.0012476096, -1324652.0, 20480.55, 0.0, 5.0186396, 4.9771824 
3.1858703e+2, 1.6771881e+2, -1276884.4, -1341063.8, -2567.5156, -0.000020634943, -0.0011950559, -1276781.9, 19573.8, 0.0, 5.018485, 4.976677 
3.1858644e+2, 1.7269443e+2, -1232183.6, -1300418.3, -2887.1548, -0.00002665475, 0.0011320357, -1232061.8, 15532.842, 0.0, 5.018325, 4.9739165 
3.1858566e+2, 1.7766842e+2, -1184243.3, -1252962.5, -2924.549, -0.0000198376, -0.0012206385, -1184119.0, 14730.501, 0.0, 5.018161, 4.9734497 
3.185847e+2, 1.826408e+2, -1139563.1, -1212428.4, -3182.4265, -0.000021815116, 0.0012336364, -1139424.5, 10695.603, 0.0, 5.0179935, 4.970633 
3.1858364e+2, 1.8761149e+2, -1091556.8, -1164851.4, -3209.73, -0.000020609205, -0.0013170954, -1091416.4, 9990.843, 0.0, 5.0178223, 4.970195 
3.1858245e+2, 1.9258064e+2, -1046896.2, -1124432.6, -3403.762, -0.000021261705, 0.0012973681, -1046747.06, 5962.676, 0.0, 5.0176477, 4.967313 
3.1858113e+2, 1.9754802e+2, -998811.8, -1076715.6, -3424.3872, -0.000014934806, -0.0013227768, -998661.56, 5367.831, 0.0, 5.0174713, 4.966909 
3.185798e+2, 2.0251383e+2, -954250.2, -1036598.7, -3543.653, -0.000023488048, 0.0012910593, -954097.94, 1266.6051, 0.0, 5.017292, 4.9639034 
3.1857836e+2, 2.074778e+2, -906103.75, -988785.25, -3563.0286, -0.000015497475, -0.0013614498, -905950.5, 767.0672, 0.0, 5.017112, 4.963518 
3.185769e+2, 2.1244022e+2, -861497.4, -948674.0, -3615.4026, -0.000019883302, 0.0013584914, -861347.7, -3261.7373, 0.0, 5.01693, 4.960481 
3.1857544e+2, 2.1740077e+2, -813274.75, -900741.0, -3625.6152, -0.000010968859, -0.001451084, -813124.75, -3652.2456, 0.0, 5.0167475, 4.9601216 
3.1857395e+2, 2.2235979e+2, -768622.0, -860642.0, -3619.4502, -0.000019838279, 0.0014064594, -768479.9, -7605.8057, 0.0, 5.016565, 4.957053 
3.185725e+2, 2.2731695e+2, -720329.9, -812614.06, -3622.3074, -0.0000141520895, -0.0014136953, -720187.9, -7893.9272, 0.0, 5.0163827, 4.9567103 
3.1857106e+2, 2.3227252e+2, -675669.1, -772625.44, -3551.9268, -0.000011708488, 0.0014447933, -675539.2, -11809.909, 0.0, 5.0162015, 4.9535766 
3.185697e+2, 2.372262e+2, -627283.8, -724458.6, -3545.3818, -0.000013674324, -0.0016765315, -627154.6, -11971.379, 0.0, 5.0160213, 4.953264 
3.1856838e+2, 2.4217834e+2, -582630.4, -684625.8, -3413.479, -0.000009204739, 0.0016870896, -582516.3, -15863.881, 0.0, 5.0158424, 4.9500427 
3.185672e+2, 2.471285e+2, -534123.06, -636264.0, -3394.8933, -0.0000122453475, -0.001709059, -534010.4, -15869.577, 0.0, 5.015666, 4.94978 
3.185661e+2, 2.5207704e+2, -489572.75, -596816.8, -3205.1853, -0.00000693097, 0.0016575652, -489477.06, -19832.22, 0.0, 5.0154924, 4.9463944 
3.1856516e+2, 2.570237e+2, -440770.28, -547878.8, -3171.1235, -0.0000067283313, -0.00174815, -440676.47, -19508.527, 0.0, 5.0153217, 4.946315 
3.1856436e+2, 2.6196867e+2, -396444.03, -509108.78, -2926.3528, -0.000004819133, 0.0016600942, -396368.06, -23660.84, 0.0, 5.0151544, 4.9426575 
3.1856376e+2, 2.669117e+2, -347260.25, -459400.1, -2875.4783, -0.000008856543, -0.0016523139, -347186.56, -22921.188, 0.0, 5.0149918, 4.94283 
3.1856328e+2, 2.71853e+2, -303206.2, -421440.3, -2579.4404, -0.0000009923419, 0.0016840962, -303149.94, -27309.266, 0.0, 5.014833, 4.938846 
3.1856307e+2, 2.7679238e+2, -253639.48, -370954.78, -2507.516, 0.00000064956123, -0.0019394972, -253585.9, -26151.357, 0.0, 5.01468, 4.9392734 
3.1856307e+2, 2.817301e+2, -209685.7, -333436.3, -2165.3115, -0.000003872435, 0.0021868923, -209647.83, -30602.627, 0.0, 5.0145316, 4.9350944 
3.1856334e+2, 2.8666583e+2, -159801.98, -282322.63, -2070.5122, 0.0000029092002, -0.0025848765, -159767.0, -29092.213, 0.0, 5.0143905, 4.935726 
3.1856385e+2, 2.915994e+2, -117261.516, -248321.95, -1681.8326, -0.00000070825945, 0.0017140752, -117239.94, -34914.008, 0.0, 5.014254, 4.930257 
3.1856465e+2, 2.9653054e+2, -67280.16, -197104.77, -1560.8926, 0.0000043648474, -0.00048199037, -67261.39, -33260.92, 0.0, 5.0141263, 4.930903 
3.1856573e+2, 3.0146867e+2, -26483.07, -134107.2, -1119.3851, 0.000005234129, 0.0021858914, -26471.43, -26471.43, 0.0, 5.0140038, 4.9447327 
3.1856722e+2, 3.0641404e+2, -25634.592, -131536.56, -965.4648, 0.000004028328, -0.005313927, -25625.791, -25625.791, 0.0, 5.0138917, 4.945705 
3.1856892e+2, 3.1137684e+2, 12623.453, -41247.152, -450.89056, 0.0000022248212, 0.0040158425, 12627.227, 12627.227, 0.0, 5.0137854, 4.9788094 
3.1857112e+2, 3.163567e+2, 14118.017, -37261.805, -259.89697, 0.000007377553, -0.000980756, 14119.331, 14119.331, 0.0, 5.013692, 4.9803205 
3.2360092e+2, 1.22863956e+2, -1693646.3, -1739039.8, -290.53027, -0.000028596949, 0.0009606493, -1693644.4, 42288.86, 0.0, 5.019932, 4.990324 
3.2360274e+2, 1.2785375e+2, -1646610.4, -1693431.5, -378.54404, -0.00003484764, -0.0032754103, -1646607.4, 40425.906, 0.0, 5.019821, 4.989287 
3.2360414e+2, 1.3284229e+2, -1601536.1, -1651794.6, -968.3065, -0.000017302596, 0.003533624, -1601517.5, 36628.16, 0.0, 5.0197015, 4.986855 
3.2360524e+2, 1.3782887e+2, -1554001.9, -1605137.6, -1046.3196, -0.00003660941, -0.0013094555, -1553980.5, 35296.586, 0.0, 5.0195723, 4.986159 
3.2360595e+2, 1.4281392e+2, -1509187.0, -1564064.1, -1562.2843, -0.00001763215, 0.00026499722, -1509142.6, 31280.977, 0.0, 5.019436, 4.9835777 
3.236064e+2, 1.4779766e+2, -1461492.8, -1517059.9, -1631.6031, -0.00003103747, -0.000961152, -1461444.9, 30138.088, 0.0, 5.0192914, 4.9829955 
3.236066e+2, 1.5277964e+2, -1416738.6, -1476146.6, -2085.2917, -0.000020335441, 0.0012895811, -1416665.5, 26094.15, 0.0, 5.0191402, 4.980375 
3.2360652e+2, 1.5776002e+2, -1369012.0, -1429062.5, -2145.3079, -0.000029226594, -0.0013295305, -1368935.4, 25016.313, 0.0, 5.018982, 4.979812 
3.2360616e+2, 1.6273881e+2, -1324296.0, -1388265.5, -2535.8582, -0.000020686248, 0.0012474351, -1324195.6, 20964.047, 0.0, 5.018818, 4.977133 
3.236056e+2, 1.67716e+2, -1276473.9, -1340980.1, -2585.6794, -0.000019559686, -0.0011965923, -1276370.4, 20012.816, 0.0, 5.0186486, 4.976627 
3.2360482e+2, 1.7269157e+2, -1231805.8, -1300332.3, -2913.4058, -0.000026983684, 0.0011321639, -1231682.1, 15940.446, 0.0, 5.018474, 4.973875 
3.2360387e+2, 1.7766552e+2, -1183910.0, -1252898.8, -2952.1304, -0.000019255056, -0.0012206862, -1183783.9, 15094.065, 0.0, 5.018295, 4.973408 
3.236028e+2, 1.8263789e+2, -1139264.0, -1212362.6, -3216.4343, -0.000020531677, 0.0012322589, -1139122.8, 11026.127, 0.0, 5.018112, 4.970599 
3.2360154e+2, 1.8760854e+2, -1091302.6, -1164807.9, -3245.0837, -0.000019188115, -0.0013179933, -1091159.6, 10276.726, 0.0, 5.0179257, 4.970161 
3.2360017e+2, 1.9257763e+2, -1046674.56, -1124385.6, -3443.2842, -0.000020053947, 0.001296956, -1046522.3, 6216.8745, 0.0, 5.0177364, 4.9672875 
3.2359865e+2, 1.9754499e+2, -998635.7, -1076691.5, -3464.986, -0.000013499424, -0.0013228351, -998482.2, 5576.885, 0.0, 5.0175443, 4.966883 
3.235971e+2, 2.0251077e+2, -954112.94, -1036584.0, -3587.508, -0.000021432514, 0.0012901258, -953957.1, 1437.3171, 0.0, 5.0173497, 4.9638815 
3.235955e+2, 2.0747474e+2, -906011.06, -988791.2, -3607.233, -0.000012361807, -0.0013622657, -905854.2, 893.51294, 0.0, 5.0171537, 4.9634967 
3.2359385e+2, 2.1243712e+2, -861433.7, -948665.8, -3661.1987, -0.000018219796, 0.0013585648, -861280.3, -3164.0935, 0.0, 5.016957, 4.9604716 
3.2359216e+2, 2.1739767e+2, -813254.9, -900752.56, -3671.374, -0.000009162035, -0.0014509866, -813101.1, -3598.2861, 0.0, 5.016759, 4.9601126 
3.2359052e+2, 2.2235669e+2, -768636.2, -860651.2, -3665.0918, -0.000016702263, 0.0014057633, -768490.44, -7585.9585, 0.0, 5.0165606, 4.957052 
3.2358888e+2, 2.2731385e+2, -720387.94, -812642.94, -3667.758, -0.000011182185, -0.0014137991, -720242.4, -7917.9834, 0.0, 5.0163627, 4.9567094 
3.2358724e+2, 2.3226942e+2, -675760.8, -772651.4, -3595.577, -0.000010044363, 0.0014450062, -675627.56, -11867.924, 0.0, 5.0161657, 4.9535837 
3.235857e+2, 2.372231e+2, -627419.0, -724503.75, -3588.7524, -0.000011836269, -0.0016757211, -627286.56, -12072.992, 0.0, 5.0159698, 4.953272 
3.235842e+2, 2.4217525e+2, -582798.94, -684667.9, -3453.336, -0.0000061832825, 0.0016866763, -582682.0, -15999.375, 0.0, 5.0157757, 4.950058 
3.2358283e+2, 2.4712543e+2, -534334.3, -636324.5, -3434.3647, -0.000011565356, -0.001708345, -534218.8, -16048.008, 0.0, 5.0155835, 4.9497957 
3.2358155e+2, 2.52074e+2, -489817.0, -596874.44, -3239.494, -0.0000046961327, 0.0016583079, -489719.06, -20044.387, 0.0, 5.015394, 4.9464183 
3.235804e+2, 2.5702065e+2, -441056.22, -547953.7, -3204.733, -0.0000035883959, -0.0017473868, -440960.22, -19762.684, 0.0, 5.0152082, 4.946339 
3.2357943e+2, 2.6196566e+2, -396762.97, -509181.4, -2953.3303, -0.0000035734267, 0.0016610511, -396685.44, -23948.867, 0.0, 5.0150256, 4.942689 
3.2357866e+2, 2.6690874e+2, -347619.47, -459488.47, -2901.3376, -0.000008862232, -0.0016510313, -347544.28, -23249.896, 0.0, 5.0148478, 4.9428625 
3.2357803e+2, 2.7185008e+2, -303597.53, -421526.97, -2597.4822, 0.0000027488366, 0.0016853553, -303540.34, -27671.002, 0.0, 5.014674, 4.938885 
3.2357767e+2, 2.767895e+2, -254069.63, -371055.8, -2523.802, 0.0000038428584, -0.0019382576, -254015.2, -26552.365, 0.0, 5.0145063, 4.939314 
3.235775e+2, 2.8172722e+2, -210147.03, -333534.5, -2172.4456, -0.0000021272679, 0.002189132, -210108.8, -31035.75, 0.0, 5.014343, 4.935142 
3.2357764e+2, 2.8666306e+2, -160300.2, -282433.38, -2074.9792, 0.000004156174, -0.0025838907, -160264.97, -29562.799, 0.0, 5.0141873, 4.935775 
3.2357797e+2, 2.9159665e+2, -117794.09, -248439.53, -1676.1547, 0.0000030511678, 0.0017149344, -117772.59, -35419.773, 0.0, 5.0140367, 4.930309 
3.235787e+2, 2.9652786e+2, -67849.08, -197236.0, -1551.4491, 0.000008056029, -0.00047769514, -67830.48, -33803.64, 0.0, 5.013895, 4.9309554 
3.2357958e+2, 3.0146605e+2, -27077.127, -134230.28, -1099.8369, 0.0000074633595, 0.0021883305, -27065.84, -27065.84, 0.0, 5.013758, 4.944793 
3.2358095e+2, 3.0641145e+2, -26264.035, -131670.73, -941.39856, 0.0000019530514, -0.0053125094, -26255.629, -26255.629, 0.0, 5.0136323, 4.9457674 
3.2358256e+2, 3.113743e+2, 11975.259, -41367.043, -415.7942, 0.000011670836, 0.0040161195, 11978.5, 11978.5, 0.0, 5.0135126, 4.9788814 
3.2358465e+2, 3.1635424e+2, 13440.945, -37387.26, -219.1986, 0.000010206926, -0.0009789122, 13441.891, 13441.891, 0.0, 5.013407, 4.980396 
3.2862085e+2, 1.22861795e+2, -1693734.0, -1739271.6, -352.34366, -0.00003033686, 0.00095848914, -1693731.3, 42223.14, 0.0, 5.019943, 4.990242 
3.2862252e+2, 1.2785152e+2, -1646701.5, -1693663.8, -439.8402, -0.00004132917, -0.003281072, -1646697.4, 40357.805, 0.0, 5.019831, 4.9892054 
3.2862383e+2, 1.3283996e+2, -1601621.4, -1652007.4, -1043.4894, -0.000016005642, 0.0035300492, -1601599.9, 36568.5, 0.0, 5.019709, 4.9867806 
3.2862478e+2, 1.3782647e+2, -1554091.4, -1605351.5, -1121.1066, -0.000040126302, -0.0013121992, -1554066.9, 35233.645, 0.0, 5.0195785, 4.986085 
3.286254e+2, 1.4281146e+2, -1509270.4, -1564258.0, -1649.0078, -0.000020874688, 0.00026209158, -1509220.9, 31226.783, 0.0, 5.01944, 4.983511 
3.2862574e+2, 1.4779513e+2, -1461580.3, -1517255.3, -1718.1094, -0.000033792083, -0.00096506625, -1461527.3, 30080.516, 0.0, 5.0192943, 4.982929 
3.2862574e+2, 1.5277705e+2, -1416819.5, -1476320.9, -2181.9868, -0.000022445198, 0.0012872167, -1416739.5, 26045.512, 0.0, 5.019141, 4.980316 
3.286255e+2, 1.5775737e+2, -1369097.0, -1429238.8, -2241.9226, -0.000032756554, -0.0013327543, -1369013.5, 24964.162, 0.0, 5.018982, 4.9797535 
3.2862496e+2, 1.6273612e+2, -1324373.6, -1388419.5, -2640.8745, -0.000022419496, 0.0012455019, -1324264.9, 20921.232, 0.0, 5.0188165, 4.9770823 
3.2862428e+2, 1.6771324e+2, -1276556.0, -1341136.5, -2690.876, -0.00002114832, -0.0011992535, -1276444.0, 19966.17, 0.0, 5.0186453, 4.976576 
3.2862332e+2, 1.7268877e+2, -1231880.5, -1300466.1, -3025.411, -0.000029818619, 0.0011310941, -1231747.4, 15902.737, 0.0, 5.018469, 4.973832 
3.286222e+2, 1.7766267e+2, -1183989.0, -1253034.8, -3064.221, -0.000022248925, -0.0012234757, -1183853.3, 15052.533, 0.0, 5.0182886, 4.9733653 
3.2862088e+2, 1.82635e+2, -1139335.6, -1212475.9, -3333.9092, -0.00002197276, 0.0012308595, -1139184.0, 10993.157, 0.0, 5.018104, 4.970565 
3.2861945e+2, 1.876056e+2, -1091378.3, -1164922.4, -3362.74, -0.00002023912, -0.0013162125, -1091224.8, 10240.243, 0.0, 5.017916, 4.9701266 
3.286179e+2, 1.925747e+2, -1046742.6, -1124477.3, -3564.882, -0.000023167635, 0.0012936855, -1046579.5, 6188.558, 0.0, 5.017725, 4.967262 
3.286162e+2, 1.9754203e+2, -998708.56, -1076786.5, -3586.8064, -0.000017240764, -0.0013251628, -998544.2, 5544.049, 0.0, 5.0175314, 4.966857 
3.2861447e+2, 2.0250776e+2, -954184.06, -1036668.3, -3712.1292, -0.000022968508, 0.001292134, -954017.4, 1406.49, 0.0, 5.0173354, 4.9638596 
3.2861263e+2, 2.0747171e+2, -906085.9, -988876.3, -3731.8484, -0.000011955671, -0.0013625041, -905918.0, 859.3029, 0.0, 5.017138, 4.9634748 
3.286108e+2, 2.1243408e+2, -861496.06, -948716.9, -3787.4087, -0.000023006265, 0.0013573737, -861331.9, -3185.931, 0.0, 5.016939, 4.960462 
3.2860896e+2, 2.1739462e+2, -813320.9, -900804.56, -3797.406, -0.000014119561, -0.0014505628, -813156.4, -3623.7104, 0.0, 5.01674, 4.9601035 
3.2860708e+2, 2.2235364e+2, -768695.4, -860681.25, -3791.2434, -0.000016423939, 0.0014057669, -768539.4, -7605.0483, 0.0, 5.01654, 4.9570513 
3.2860523e+2, 2.2731079e+2, -720450.7, -812673.8, -3793.664, -0.00001295194, -0.0014141044, -720294.94, -7940.658, 0.0, 5.0163407, 4.956709 
3.286034e+2, 2.3226637e+2, -675817.0, -772660.7, -3719.9856, -0.000013895716, 0.0014450386, -675674.3, -11884.782, 0.0, 5.0161424, 4.953591 
3.2860166e+2, 2.3722006e+2, -627478.6, -724513.75, -3713.0872, -0.000014689845, -0.0016739076, -627336.75, -12093.447, 0.0, 5.015945, 4.9532795 
3.286e+2, 2.4217221e+2, -582852.2, -684656.7, -3574.5193, -0.000007607879, 0.001685778, -582726.9, -16014.593, 0.0, 5.0157495, 4.9500737 
3.2859838e+2, 2.4712242e+2, -534391.06, -636313.94, -3555.4807, -0.0000146680795, -0.0017098835, -534267.2, -16066.877, 0.0, 5.0155563, 4.949812 
3.2859692e+2, 2.5207102e+2, -489867.75, -596843.2, -3355.939, -0.0000069870307, 0.0016596944, -489762.56, -20058.584, 0.0, 5.0153656, 4.946442 
3.2859564e+2, 2.570177e+2, -441110.3, -547922.7, -3320.9578, -0.0000060660946, -0.0017464065, -441007.16, -19780.545, 0.0, 5.0151777, 4.9463634 
3.2859445e+2, 2.619627e+2, -396811.7, -509130.56, -3063.696, -0.0000066684297, 0.0016593651, -396728.2, -23962.82, 0.0, 5.0149937, 4.942721 
3.285935e+2, 2.669058e+2, -347671.5, -459437.44, -3011.138, -0.0000131312145, -0.0016511546, -347590.44, -23267.58, 0.0, 5.0148144, 4.9428954 
3.2859272e+2, 2.718472e+2, -303645.16, -421457.8, -2700.1165, 0.00000005967348, 0.0016851249, -303583.28, -27685.836, 0.0, 5.014639, 4.9389253 
3.2859215e+2, 2.7678668e+2, -254120.45, -370985.6, -2625.6511, -0.00000021278956, -0.0019391195, -254061.48, -26570.936, 0.0, 5.0144696, 4.939355 
3.2859182e+2, 2.8172445e+2, -210193.7, -333445.97, -2266.1682, -0.0000074819945, 0.0021889436, -210152.05, -31051.705, 0.0, 5.0143046, 4.93519 
3.285918e+2, 2.866603e+2, -160350.0, -282343.16, -2167.1824, -0.00000210771, -0.0025860327, -160311.52, -29582.53, 0.0, 5.0141473, 4.935824 
3.2859197e+2, 2.9159397e+2, -117844.55, -248341.48, -1759.6067, -0.0000012853621, 0.0017128154, -117820.83, -35441.695, 0.0, 5.0139947, 4.9303617 
3.2859257e+2, 2.9652524e+2, -67903.96, -197138.45, -1632.6682, 0.0000032971134, -0.0004773908, -67883.336, -33830.715, 0.0, 5.013851, 4.9310093 
3.2859334e+2, 3.0146343e+2, -27127.846, -134113.22, -1171.5782, 0.00000016240972, 0.0021868702, -27115.018, -27115.018, 0.0, 5.013713, 4.944855 
3.2859457e+2, 3.0640894e+2, -26318.355, -131550.9, -1010.3334, -0.000010618503, -0.0053142724, -26308.656, -26308.656, 0.0, 5.0135846, 4.9458313 
3.2859606e+2, 3.1137186e+2, 11925.377, -41226.496, -472.928, 0.000010669817, 0.0040121907, 11929.585, 11929.585, 0.0, 5.0134625, 4.978955 
3.2859805e+2, 3.163519e+2, 13386.594, -37241.133, -272.40842, -0.000008924777, -0.0009780686, 13388.06, 13388.06, 0.0, 5.013354, 4.980472 
3.3364093e+2, 1.2285977e+2, -1692937.6, -1739068.1, -300.64993, -0.000025013358, 0.0009615204, -1692935.6, 43038.58, 0.0, 5.020249, 4.990159 
3.336425e+2, 1.278494e+2, -1645948.9, -1693481.6, -390.58017, -0.00004401791, -0.0032820168, -1645945.6, 41130.215, 0.0, 5.0201225, 4.989123 
3.3364367e+2, 1.3283779e+2, -1600901.8, -1651826.0, -1010.7309, -0.000010462511, 0.0035315163, -1600881.6, 37308.074, 0.0, 5.0199866, 4.9867053 
3.336445e+2, 1.3782422e+2, -1553416.3, -1605192.4, -1090.4006, -0.00003904267, -0.0013107988, -1553393.3, 35929.38, 0.0, 5.0198417, 4.9860096 
3.33645e+2, 1.4280912e+2, -1508628.6, -1564099.0, -1632.4536, -0.00002146774, 0.0002629971, -1508580.6, 31889.92, 0.0, 5.0196886, 4.9834433 
3.3364514e+2, 1.4779273e+2, -1460984.0, -1517118.9, -1703.5587, -0.000033794404, -0.00096504606, -1460932.4, 30698.938, 0.0, 5.019528, 4.982862 
3.33645e+2, 1.5277457e+2, -1416257.5, -1476184.3, -2179.4846, -0.000020642174, 0.001288107, -1416178.3, 26630.924, 0.0, 5.01936, 4.980256 
3.3364457e+2, 1.5775485e+2, -1368581.5, -1429125.4, -2241.1597, -0.000031903815, -0.0013329657, -1368498.6, 25503.8, 0.0, 5.019185, 4.979694 
3.3364388e+2, 1.6273354e+2, -1323892.3, -1388304.5, -2650.1794, -0.000022779845, 0.0012461643, -1323783.4, 21427.984, 0.0, 5.0190043, 4.9770308 
3.33643e+2, 1.6771062e+2, -1276121.8, -1341045.3, -2702.0583, -0.000021633887, -0.0011993276, -1276009.5, 20426.521, 0.0, 5.018818, 4.9765244 
3.3364186e+2, 1.726861e+2, -1231480.6, -1300373.0, -3044.6106, -0.00002816345, 0.0011315517, -1231346.3, 16330.004, 0.0, 5.018626, 4.973789 
3.3364055e+2, 1.7765996e+2, -1183635.9, -1252964.9, -3084.8718, -0.000021984828, -0.0012244345, -1183498.9, 15433.621, 0.0, 5.01843, 4.973322 
3.3363906e+2, 1.8263224e+2, -1139017.8, -1212404.1, -3360.8462, -0.00002137888, 0.0012311266, -1138864.1, 11339.988, 0.0, 5.0182295, 4.97053 
3.3363742e+2, 1.8760282e+2, -1091107.3, -1164873.4, -3390.8037, -0.00001875248, -0.0013143074, -1090951.8, 10540.618, 0.0, 5.018026, 4.970092 
3.3363566e+2, 1.9257185e+2, -1046506.44, -1124425.8, -3597.687, -0.000022298429, 0.0012923543, -1046340.7, 6455.105, 0.0, 5.017819, 4.967235 
3.3363375e+2, 1.9753917e+2, -998519.2, -1076758.0, -3620.6726, -0.000015268923, -0.0013262407, -998352.0, 5764.152, 0.0, 5.0176096, 4.9668303 
3.3363184e+2, 2.025049e+2, -954035.3, -1036649.0, -3748.8286, -0.000021319187, 0.0012940273, -953865.5, 1586.5039, 0.0, 5.0173974, 4.9638376 
3.336298e+2, 2.0746881e+2, -905983.4, -988878.5, -3768.7693, -0.000010097498, -0.001361557, -905812.4, 993.3081, 0.0, 5.0171843, 4.963453 
3.3362776e+2, 2.1243116e+2, -861423.9, -948705.3, -3826.1538, -0.000020391733, 0.0013566562, -861256.5, -3081.9702, 0.0, 5.0169687, 4.9604526 
3.3362567e+2, 2.1739171e+2, -813295.25, -900814.25, -3836.134, -0.00001137353, -0.0014494491, -813127.44, -3566.1125, 0.0, 5.016753, 4.960094 
3.336236e+2, 2.223507e+2, -768704.8, -860688.2, -3829.9612, -0.0000141312885, 0.0014067397, -768545.6, -7582.553, 0.0, 5.016537, 4.9570503 
3.3362156e+2, 2.2730786e+2, -720506.0, -812701.4, -3832.059, -0.000011413537, -0.0014130174, -720346.94, -7963.994, 0.0, 5.0163217, 4.956708 
3.3361953e+2, 2.3226345e+2, -675907.7, -772685.5, -3756.523, -0.000011118901, 0.0014460458, -675762.06, -11943.904, 0.0, 5.016107, 4.9535985 
3.3361757e+2, 2.3721714e+2, -627614.75, -724558.56, -3749.392, -0.000011135476, -0.0016715117, -627469.94, -12198.008, 0.0, 5.0158935, 4.9532876 
3.336157e+2, 2.421693e+2, -583022.94, -684698.5, -3607.1172, -0.0000061996307, 0.0016868456, -582895.1, -16154.383, 0.0, 5.0156817, 4.95009 
3.336139e+2, 2.4711952e+2, -534606.25, -636374.94, -3587.7612, -0.000014321576, -0.0017085532, -534479.94, -16251.315, 0.0, 5.015472, 4.9498286 
3.3361223e+2, 2.5206813e+2, -490117.88, -596901.44, -3382.9758, -0.000003457695, 0.001662144, -490010.8, -20278.701, 0.0, 5.015265, 4.9464664 
3.3361074e+2, 2.5701484e+2, -441404.13, -547999.06, -3347.3506, -0.0000037806326, -0.0017432772, -441299.13, -20044.62, 0.0, 5.0150614, 4.9463887 
3.3360937e+2, 2.619599e+2, -397139.47, -509204.4, -3083.4722, -0.000004963438, 0.0016611001, -397054.7, -24261.734, 0.0, 5.0148616, 4.942754 
3.336082e+2, 2.6690304e+2, -348041.6, -459528.0, -3029.801, -0.000011880976, -0.0016490448, -347959.3, -23609.193, 0.0, 5.014666, 4.9429293 
3.3360723e+2, 2.7184445e+2, -304049.25, -421546.78, -2710.5693, 0.0000027609494, 0.001688577, -303986.75, -28062.383, 0.0, 5.014475, 4.938966 
3.3360654e+2, 2.7678397e+2, -254565.2, -371089.63, -2634.5447, 0.0000031547343, -0.001935446, -254505.67, -26988.625, 0.0, 5.01429, 4.9393964 
3.33606e+2, 2.817218e+2, -210671.31, -333547.3, -2265.5986, -0.000004511649, 0.002192191, -210629.55, -31503.145, 0.0, 5.014109, 4.9352393 
3.3360583e+2, 2.866577e+2, -160866.48, -282457.88, -2164.1016, -0.0000011423755, -0.0025838884, -160827.97, -30073.432, 0.0, 5.013937, 4.9358745 
3.3360586e+2, 2.915914e+2, -118396.86, -248462.64, -1746.0913, 0.0000019687277, 0.001716671, -118373.43, -35969.242, 0.0, 5.013769, 4.930416 
3.336063e+2, 2.9652274e+2, -68494.62, -197273.8, -1615.4957, 0.00000869202, -0.00047195415, -68474.36, -34397.223, 0.0, 5.0136104, 4.931064 
3.3360693e+2, 3.01461e+2, -27745.395, -134240.84, -1144.041, 0.0000037518225, 0.002190455, -27733.105, -27733.105, 0.0, 5.013458, 4.944918 
3.33608e+2, 3.0640656e+2, -26973.008, -131690.1, -978.5943, -0.000014209137, -0.0053099412, -26963.863, -26963.863, 0.0, 5.0133147, 4.9458966 
3.3360934e+2, 3.1136957e+2, 11249.874, -41352.95, -429.73712, 0.000020598489, 0.0040141516, 11253.385, 11253.385, 0.0, 5.0131793, 4.979029 
3.3361125e+2, 3.163497e+2, 12680.898, -37372.84, -224.0809, -0.000003421043, -0.0009744657, 12681.901, 12681.901, 0.0, 5.0130577, 4.9805503 
3.386612e+2, 1.22857824e+2, -1693027.8, -1739308.8, -370.68652, -0.000025766041, 0.0009601099, -1693024.8, 42968.543, 0.0, 5.020261, 4.9900737 
3.3866262e+2, 1.2784737e+2, -1646042.3, -1693722.1, -460.0119, -0.000051249255, -0.0032873156, -1646037.8, 41057.938, 0.0, 5.020133, 4.9890385 
3.3866367e+2, 1.3283567e+2, -1600989.3, -1652046.4, -1094.4609, -0.000007992813, 0.0035294264, -1600965.9, 37244.58, 0.0, 5.019995, 4.9866285 
3.3866432e+2, 1.3782203e+2, -1553508.3, -1605414.0, -1173.5206, -0.000040794457, -0.0013129463, -1553481.8, 35862.33, 0.0, 5.0198483, 4.985933 
3.3866468e+2, 1.4280687e+2, -1508714.4, -1564299.8, -1727.835, -0.000026316136, 0.00026065097, -1508660.6, 31832.035, 0.0, 5.019694, 4.9833746 
3.3866468e+2, 1.4779039e+2, -1461074.0, -1517321.0, -1798.7192, -0.000037835252, -0.00096778385, -1461016.6, 30637.537, 0.0, 5.0195313, 4.982793 
3.3866432e+2, 1.5277217e+2, -1416340.8, -1476364.6, -2285.1653, -0.000021585089, 0.0012863269, -1416253.9, 26578.73, 0.0, 5.0193615, 4.9801955 
3.3866376e+2, 1.577524e+2, -1368669.1, -1429307.4, -2346.6494, -0.00003280894, -0.0013353283, -1368578.5, 25448.037, 0.0, 5.019185, 4.9796333 
3.386629e+2, 1.6273102e+2, -1323972.6, -1388464.0, -2764.4382, -0.0000272116, 0.0012449966, -1323854.4, 21381.648, 0.0, 5.0190024, 4.9769783 
3.386618e+2, 1.6770805e+2, -1276206.5, -1341206.9, -2816.443, -0.000026199617, -0.00120057, -1276084.8, 20376.361, 0.0, 5.018814, 4.976472 
3.3866048e+2, 1.7268349e+2, -1231557.8, -1300511.3, -3165.8606, -0.000027614844, 0.0011306264, -1231412.8, 16289.127, 0.0, 5.018621, 4.973745 
3.3865896e+2, 1.776573e+2, -1183717.5, -1253105.4, -3206.4504, -0.000024218381, -0.0012258672, -1183569.6, 15388.799, 0.0, 5.018423, 4.9732776 
3.386573e+2, 1.8262953e+2, -1139091.9, -1212521.1, -3487.8994, -0.000024881076, 0.001231158, -1138926.5, 11304.02, 0.0, 5.018221, 4.9704943 
3.386554e+2, 1.8760008e+2, -1091185.9, -1164992.5, -3517.9832, -0.000021610555, -0.001313899, -1091018.5, 10500.601, 0.0, 5.018016, 4.9700565 
3.3865348e+2, 1.925691e+2, -1046577.4, -1124521.5, -3728.845, -0.000024907322, 0.0012917749, -1046399.44, 6423.39, 0.0, 5.0178075, 4.9672084 
3.386514e+2, 1.9753638e+2, -998594.25, -1076855.1, -3752.0908, -0.000015484738, -0.0013268866, -998414.75, 5728.7256, 0.0, 5.0175962, 4.9668036 
3.3864924e+2, 2.0250209e+2, -954108.44, -1036734.75, -3883.255, -0.000025143077, 0.0012953315, -953926.4, 1553.2333, 0.0, 5.0173826, 4.963815 
3.3864698e+2, 2.0746598e+2, -906060.5, -988965.56, -3903.1536, -0.00001638136, -0.0013596986, -905877.1, 956.30695, 0.0, 5.0171676, 4.963431 
3.386447e+2, 2.1242832e+2, -861488.6, -948758.1, -3962.375, -0.00002057006, 0.0013560285, -861309.06, -3106.6162, 0.0, 5.016951, 4.960443 
3.3864242e+2, 2.1738884e+2, -813363.8, -900868.1, -3972.0168, -0.000011080017, -0.0014483142, -813183.9, -3594.53, 0.0, 5.0167336, 4.9600844 
3.3864012e+2, 2.2234784e+2, -768766.3, -860719.2, -3966.0603, -0.000020034187, 0.0014079127, -768595.56, -7604.415, 0.0, 5.016516, 4.9570494 
3.3863786e+2, 2.27305e+2, -720571.4, -812733.7, -3967.9587, -0.000016775435, -0.0014114748, -720400.8, -7989.783, 0.0, 5.0162992, 4.9567075 
3.3863562e+2, 2.3226058e+2, -675966.06, -772695.06, -3890.8538, -0.000011668321, 0.001446834, -675809.8, -11963.602, 0.0, 5.016083, 4.953606 
3.3863345e+2, 2.372143e+2, -627676.9, -724569.25, -3883.6267, -0.000010776988, -0.0016701709, -627521.5, -12221.598, 0.0, 5.0158677, 4.953295 
3.3863136e+2, 2.4216647e+2, -583078.44, -684686.9, -3738.0454, -0.000011372759, 0.0016878358, -582941.1, -16172.516, 0.0, 5.0156546, 4.950106 
3.3862936e+2, 2.471167e+2, -534665.5, -636364.2, -3718.6836, -0.000019726169, -0.0017067405, -534529.7, -16273.367, 0.0, 5.0154433, 4.9498453 
3.3862752e+2, 2.5206536e+2, -490170.88, -596869.3, -3509.2075, -0.0000033492418, 0.0016628486, -490055.6, -20296.006, 0.0, 5.015235, 4.9464917 
3.386258e+2, 2.5701207e+2, -441460.6, -547967.2, -3473.2976, -0.0000064089513, -0.0017413775, -441347.47, -20065.742, 0.0, 5.01503, 4.946414 
3.3862424e+2, 2.6195714e+2, -397190.5, -509152.28, -3203.263, -0.00000871219, 0.0016623518, -397098.9, -24279.03, 0.0, 5.014828, 4.942787 
3.386229e+2, 2.6690033e+2, -348095.88, -459475.3, -3149.1707, -0.000015921523, -0.0016492163, -348006.9, -23630.16, 0.0, 5.0146313, 4.942963 
3.3862174e+2, 2.7184176e+2, -304098.97, -421475.38, -2822.4697, -0.000001020651, 0.0016904359, -304031.13, -28080.523, 0.0, 5.0144386, 4.9390073 
3.386208e+2, 2.7678135e+2, -254618.23, -371017.16, -2745.7102, 0.000000030649755, -0.0019332241, -254553.5, -27010.613, 0.0, 5.0142517, 4.939439 
3.3862013e+2, 2.817192e+2, -210719.92, -333455.78, -2368.336, -0.00000894892, 0.002192365, -210674.23, -31522.447, 0.0, 5.0140696, 4.935289 
3.3861977e+2, 2.8665516e+2, -160918.36, -282364.75, -2265.3384, -0.000008851286, -0.0025850895, -160876.11, -30096.678, 0.0, 5.013895, 4.935926 
3.3861962e+2, 2.9158893e+2, -118448.91, -248360.23, -1838.184, -0.0000036847896, 0.0017178541, -118422.9, -35994.348, 0.0, 5.0137258, 4.9304714 
3.386199e+2, 2.965203e+2, -68551.08, -197171.53, -1705.4736, 0.00000616243, -0.00047034476, -68528.47, -34427.516, 0.0, 5.0135655, 4.9311204 
3.3862036e+2, 3.0145866e+2, -27797.826, -134118.92, -1224.0256, -0.0000016478054, 0.0021898262, -27783.736, -27783.736, 0.0, 5.01341, 4.9449825 
3.3862135e+2, 3.0640426e+2, -27029.03, -131565.02, -1056.0148, -0.000029325436, -0.00530932, -27018.361, -27018.361, 0.0, 5.013265, 4.945963 
3.3862254e+2, 3.113673e+2, 11197.615, -41208.2, -494.69232, 0.000016102096, 0.004012734, 11202.284, 11202.284, 0.0, 5.013127, 4.979105 
3.386243e+2, 3.163475e+2, 12624.021, -37221.66, -285.61813, -0.000019513505, -0.00097160303, 12625.657, 12625.657, 0.0, 5.013002, 4.9806294 
3.436816e+2, 1.2285604e+2, -1692189.0, -1739091.6, -310.67313, -0.00001959441, 0.00096435385, -1692187.0, 43823.87, 0.0, 5.020582, 4.9899874 
3.4368291e+2, 1.278455e+2, -1645250.0, -1693527.6, -402.25336, -0.00005364691, -0.0032879573, -1645246.6, 41867.53, 0.0, 5.020439, 4.9889526 
3.4368384e+2, 1.328337e+2, -1600231.5, -1651852.6, -1053.717, -0.0000023326816, 0.003533034, -1600210.0, 38019.66, 0.0, 5.0202866, 4.9865503 
3.4368432e+2, 1.3781999e+2, -1552797.3, -1605243.6, -1134.6741, -0.000038734845, -0.0013104002, -1552772.6, 36591.39, 0.0, 5.0201244, 4.985855 
3.4368446e+2, 1.4280476e+2, -1508038.6, -1564129.8, -1703.432, -0.000027305097, 0.00026212132, -1507986.9, 32526.496, 0.0, 5.0199547, 4.9833045 
3.4368432e+2, 1.4778821e+2, -1460446.0, -1517174.8, -1776.3063, -0.00003757712, -0.00096645235, -1460390.4, 31285.107, 0.0, 5.019777, 4.982723 
3.4368384e+2, 1.5276992e+2, -1415748.5, -1476218.3, -2274.9756, -0.000019615165, 0.0012881993, -1415663.1, 27191.596, 0.0, 5.0195913, 4.9801335 
3.4368303e+2, 1.5775008e+2, -1368125.0, -1429184.8, -2338.1528, -0.000031479023, -0.0013343076, -1368035.6, 26013.453, 0.0, 5.0193987, 4.9795713 
3.4368202e+2, 1.6272865e+2, -1323465.0, -1388340.8, -2766.1638, -0.000027554172, 0.001246288, -1323347.3, 21911.908, 0.0, 5.0192003, 4.976925 
3.4368068e+2, 1.6770563e+2, -1275747.6, -1341107.6, -2819.9312, -0.0000271988, -0.0011996344, -1275626.1, 20858.66, 0.0, 5.0189962, 4.9764185 
3.436792e+2, 1.7268102e+2, -1231135.3, -1300410.6, -3177.5068, -0.000025482566, 0.0011315804, -1230989.9, 16736.195, 0.0, 5.0187864, 4.9737005 
3.4367746e+2, 1.7765479e+2, -1183344.4, -1253029.0, -3219.5945, -0.000024123552, -0.0012244084, -1183195.9, 15787.163, 0.0, 5.0185723, 4.973233 
3.4367555e+2, 1.8262698e+2, -1138754.5, -1212442.8, -3507.2637, -0.000024510438, 0.0012323225, -1138587.9, 11667.653, 0.0, 5.018354, 4.9704585 
3.4367353e+2, 1.875975e+2, -1090896.9, -1164937.8, -3538.5479, -0.000019997997, -0.0013148215, -1090728.1, 10816.384, 0.0, 5.018132, 4.9700203 
3.4367132e+2, 1.9256648e+2, -1046325.94, -1124465.3, -3754.0242, -0.00002409697, 0.0012942221, -1046146.0, 6702.458, 0.0, 5.017907, 4.9671807 
3.43669e+2, 1.9753374e+2, -998391.3, -1076821.5, -3778.1694, -0.000014118044, -0.0013243027, -998209.75, 5959.6626, 0.0, 5.017679, 4.9667764 
3.436666e+2, 2.0249942e+2, -953947.3, -1036710.2, -3912.4949, -0.000023057153, 0.0012946306, -953762.75, 1742.9852, 0.0, 5.017449, 4.963793 
3.436642e+2, 2.074633e+2, -905947.7, -988963.6, -3932.5278, -0.00001431706, -0.0013587036, -905761.8, 1098.0344, 0.0, 5.017217, 4.9634085 
3.436617e+2, 2.1242562e+2, -861407.75, -948743.2, -3993.5657, -0.000018380877, 0.0013584624, -861225.5, -2996.4966, 0.0, 5.0169835, 4.960433 
3.4365916e+2, 2.1738613e+2, -813330.94, -900875.2, -4003.1152, -0.000009194346, -0.0014459665, -813148.3, -3532.313, 0.0, 5.0167494, 4.960075 
3.4365666e+2, 2.2234513e+2, -768770.7, -860723.75, -3997.1553, -0.000016960132, 0.0014086816, -768597.25, -7579.457, 0.0, 5.016515, 4.9570484 
3.4365416e+2, 2.2730228e+2, -720623.8, -812760.06, -3998.7622, -0.000014977341, -0.0014083232, -720450.56, -8012.844, 0.0, 5.0162807, 4.9567065 
3.4365168e+2, 2.3225787e+2, -676055.1, -772718.44, -3919.7722, -0.000009335436, 0.0014490968, -675896.4, -12023.516, 0.0, 5.0160475, 4.953614 
3.436493e+2, 2.3721159e+2, -627813.06, -724613.5, -3912.2634, -0.000007629796, -0.0016678752, -627655.25, -12328.755, 0.0, 5.0158157, 4.953304 
3.4364697e+2, 2.4216378e+2, -583251.44, -684728.25, -3762.995, -0.000009518519, 0.0016908438, -583112.06, -16317.025, 0.0, 5.0155854, 4.9501233 
3.4364474e+2, 2.4711402e+2, -534885.06, -636425.7, -3743.2563, -0.000018972672, -0.0017025531, -534747.3, -16464.676, 0.0, 5.0153575, 4.9498625 
3.4364268e+2, 2.5206268e+2, -490425.88, -596927.8, -3528.3728, 0.00000006180054, 0.0016650707, -490309.1, -20523.432, 0.0, 5.0151324, 4.946517 
3.4364074e+2, 2.5700942e+2, -441761.22, -548044.6, -3491.9854, -0.0000041294597, -0.0017374216, -441646.63, -20339.059, 0.0, 5.01491, 4.9464397 
3.43639e+2, 2.6195455e+2, -397527.53, -509227.8, -3215.089, -0.0000068083145, 0.0016667568, -397435.1, -24589.643, 0.0, 5.014692, 4.942821 
3.436374e+2, 2.6689777e+2, -348476.8, -459567.9, -3159.966, -0.000014135517, -0.0016470916, -348387.0, -23985.07, 0.0, 5.0144787, 4.942998 
3.4363604e+2, 2.7183923e+2, -304515.7, -421566.63, -2824.8818, 0.0000016218731, 0.0016951583, -304447.53, -28472.104, 0.0, 5.0142694, 4.9390492 
3.43635e+2, 2.7677885e+2, -255077.42, -371124.16, -2746.6748, 0.0000034024256, -0.001926919, -255012.45, -27445.164, 0.0, 5.014066, 4.939482 
3.436341e+2, 2.8171676e+2, -211213.66, -333560.25, -2359.5908, -0.0000054447355, 0.0021961955, -211168.16, -31992.416, 0.0, 5.013868, 4.93534 
3.4363353e+2, 2.8665277e+2, -161453.11, -282483.5, -2254.1978, -0.000007700477, -0.0025826606, -161411.14, -30608.264, 0.0, 5.0136776, 4.935978 
3.436332e+2, 2.9158658e+2, -119021.08, -248484.9, -1816.2882, -0.0000004909367, 0.0017236118, -118995.6, -36544.137, 0.0, 5.013492, 4.9305277 
3.436333e+2, 2.9651803e+2, -69163.57, -197310.84, -1680.0848, 0.000012877207, -0.00046349014, -69141.55, -35018.242, 0.0, 5.0133157, 4.9311776 
3.4363362e+2, 3.0145642e+2, -28439.264, -134251.34, -1188.0203, 0.0000025801844, 0.0021950272, -28425.926, -28425.926, 0.0, 5.013145, 4.945048 
3.4363443e+2, 3.064021e+2, -27708.975, -131709.25, -1016.1515, -0.000032254666, -0.005304152, -27699.047, -27699.047, 0.0, 5.0129848, 4.9460306 
3.436355e+2, 3.1136525e+2, 10494.791, -41341.13, -442.9798, 0.000025983234, 0.00401645, 10498.577, 10498.577, 0.0, 5.0128326, 4.979182 
3.436371e+2, 3.1634548e+2, 11889.067, -37360.203, -229.23936, -0.000011095332, -0.0009676935, 11890.134, 11890.134, 0.0, 5.012694, 4.98071 
3.4870222e+2, 1.2285434e+2, -1692281.3, -1739340.5, -389.39127, -0.000019905925, 0.0009644528, -1692278.0, 43749.438, 0.0, 5.020595, 4.989899 
3.4870335e+2, 1.2784371e+2, -1645345.8, -1693776.8, -480.09488, -0.0000595169, -0.0032932393, -1645341.0, 41790.59, 0.0, 5.0204506, 4.988865 
3.487041e+2, 1.3283184e+2, -1600321.3, -1652080.6, -1146.2173, -0.0000008311362, 0.0035334784, -1600295.9, 37952.035, 0.0, 5.020296, 4.98647 
3.4870446e+2, 1.3781805e+2, -1552891.6, -1605473.0, -1226.4293, -0.000040511713, -0.001311008, -1552863.1, 36520.047, 0.0, 5.020132, 4.9857755 
3.4870443e+2, 1.4280273e+2, -1508126.6, -1564337.5, -1807.8522, -0.000031531596, 0.00026026112, -1508068.5, 32464.719, 0.0, 5.0199604, 4.983233 
3.487041e+2, 1.4778611e+2, -1460538.5, -1517383.5, -1880.4823, -0.00004007799, -0.00096799515, -1460476.4, 31219.684, 0.0, 5.01978, 4.9826517 
3.4870344e+2, 1.5276778e+2, -1415834.4, -1476404.9, -2389.8638, -0.000021907974, 0.0012876611, -1415740.3, 27135.582, 0.0, 5.019593, 4.9800706 
3.4870246e+2, 1.5774786e+2, -1368215.3, -1429372.6, -2452.8804, -0.000034725555, -0.001334926, -1368117.0, 25953.92, 0.0, 5.0193987, 4.979509 
3.487012e+2, 1.6272637e+2, -1323547.9, -1388505.9, -2889.852, -0.000029737237, 0.0012457855, -1323419.6, 21861.908, 0.0, 5.0191984, 4.9768705 
3.4869972e+2, 1.6770329e+2, -1275834.9, -1341274.1, -2943.6843, -0.000030194387, -0.0012001235, -1275702.8, 20804.98, 0.0, 5.0189924, 4.9763646 
3.4869796e+2, 1.7267863e+2, -1231215.1, -1300553.6, -3308.6296, -0.000027472448, 0.001131517, -1231057.6, 16691.813, 0.0, 5.018781, 4.9736547 
3.4869605e+2, 1.7765236e+2, -1183428.5, -1253173.6, -3350.8105, -0.000027609782, -0.0012224771, -1183267.9, 15739.003, 0.0, 5.018565, 4.973188 
3.486939e+2, 1.8262452e+2, -1138831.1, -1212563.6, -3643.9695, -0.000026974729, 0.0012327672, -1138651.4, 11628.369, 0.0, 5.0183454, 4.970422 
3.4869164e+2, 1.8759498e+2, -1090978.0, -1165060.6, -3675.7026, -0.000021328193, -0.0013185879, -1090796.1, 10772.995, 0.0, 5.0181217, 4.9699836 
3.4868923e+2, 1.9256394e+2, -1046399.9, -1124565.0, -3895.1943, -0.000027749618, 0.0012986063, -1046206.25, 6667.103, 0.0, 5.0178947, 4.9671526 
3.486867e+2, 1.9753118e+2, -998468.75, -1076921.3, -3919.4587, -0.000019720736, -0.0013190072, -998273.4, 5921.1704, 0.0, 5.0176654, 4.9667487 
3.4868407e+2, 2.0249683e+2, -954022.4, -1036797.44, -4057.0022, -0.000024421235, 0.0012915401, -953824.0, 1707.1442, 0.0, 5.0174336, 4.9637704 
3.486814e+2, 2.0746066e+2, -906026.9, -989052.2, -4076.946, -0.000013898882, -0.00135918, -905827.1, 1058.3341, 0.0, 5.0172, 4.9633865 
3.4867865e+2, 2.1242297e+2, -861474.8, -948797.9, -4139.916, -0.000024345092, 0.0013634303, -861278.94, -3024.1711, 0.0, 5.016965, 4.960423 
3.486759e+2, 2.1738349e+2, -813402.06, -900931.06, -4149.2427, -0.000016499636, -0.0014430105, -813205.8, -3563.9321, 0.0, 5.0167294, 4.9600654 
3.4867316e+2, 2.2234246e+2, -768834.44, -860755.9, -4143.474, -0.000015843658, 0.001408113, -768648.06, -7604.2905, 0.0, 5.0164933, 4.9570475 
3.4867042e+2, 2.2729962e+2, -720691.6, -812793.5, -4144.851, -0.000016761862, -0.0014049126, -720505.44, -8041.7773, 0.0, 5.0162573, 4.9567056 
3.486677e+2, 2.3225522e+2, -676115.75, -772728.5, -4064.3225, -0.000014649954, 0.0014511362, -675945.1, -12046.299, 0.0, 5.0160227, 4.9536223 
3.486651e+2, 2.3720895e+2, -627877.7, -724624.6, -4056.7095, -0.000011949013, -0.0016667367, -627707.9, -12355.588, 0.0, 5.015789, 4.953312 
3.4866253e+2, 2.4216115e+2, -583309.2, -684716.44, -3904.1624, -0.000010700372, 0.001693421, -583159.1, -16338.361, 0.0, 5.0155573, 4.95014 
3.486601e+2, 2.4711142e+2, -534946.56, -636414.56, -3884.3337, -0.000022151657, -0.0016986275, -534798.06, -16489.947, 0.0, 5.0153275, 4.9498796 
3.4865782e+2, 2.5206012e+2, -490481.13, -596894.9, -3664.3672, -0.000003339715, 0.0016658022, -490355.1, -20544.084, 0.0, 5.015101, 4.9465423 
3.4865567e+2, 2.5700685e+2, -441820.0, -548011.9, -3628.028, -0.000007160781, -0.0017350491, -441696.22, -20363.586, 0.0, 5.0148773, 4.946466 
3.4865367e+2, 2.61952e+2, -397580.78, -509174.3, -3344.781, -0.000010057653, 0.0016703196, -397480.63, -24610.396, 0.0, 5.0146575, 4.942855 
3.4865192e+2, 2.6689526e+2, -348533.25, -459513.53, -3289.1348, -0.000018120743, -0.0016468802, -348435.88, -24009.484, 0.0, 5.0144424, 4.943033 
3.4865034e+2, 2.718368e+2, -304567.4, -421492.97, -2946.4587, -0.0000018448778, 0.0016979367, -304493.22, -28493.717, 0.0, 5.0142317, 4.939092 
3.4864905e+2, 2.7677643e+2, -255132.52, -371049.38, -2867.5344, -0.0000007167883, -0.0019221611, -255061.63, -27470.713, 0.0, 5.0140266, 4.939526 
3.4864795e+2, 2.8171438e+2, -211264.13, -333465.72, -2471.7537, -0.00000978633, 0.0021976489, -211214.16, -32015.246, 0.0, 5.0138264, 4.9353914 
3.486472e+2, 2.8665045e+2, -161506.94, -282387.4, -2364.8772, -0.000014669476, -0.0025832918, -161460.69, -30635.156, 0.0, 5.013634, 4.936031 
3.486467e+2, 2.915843e+2, -119074.555, -248378.05, -1917.4642, -0.0000061528845, 0.0017263647, -119046.125, -36572.547, 0.0, 5.0134473, 4.930585 
3.486466e+2, 2.9651585e+2, -69221.38, -197203.67, -1779.232, 0.000010568098, -0.0004602036, -69196.65, -35051.813, 0.0, 5.013269, 4.931236 
3.4864676e+2, 3.0145428e+2, -28493.182, -134124.58, -1276.6963, -0.0000037144644, 0.0021967425, -28477.754, -28477.754, 0.0, 5.0130963, 4.9451146 
3.486474e+2, 3.0640003e+2, -27766.396, -131578.86, -1102.4609, -0.000046024645, -0.005303429, -27754.69, -27754.69, 0.0, 5.0129337, 4.9460998 
3.486483e+2, 3.1136325e+2, 10440.598, -41191.652, -516.2991, 0.00002139598, 0.0040167114, 10445.76, 10445.76, 0.0, 5.0127788, 4.9792595 
3.486498e+2, 3.163436e+2, 11829.788, -37204.31, -299.57645, -0.000027464566, -0.00096474367, 11831.618, 11831.618, 0.0, 5.012636, 4.980792 
3.5372296e+2, 1.22852825e+2, -1691399.3, -1739109.1, -320.57925, -0.000013381306, 0.0009696905, -1691397.1, 44645.25, 0.0, 5.020932, 4.9898095 
3.53724e+2, 1.278421e+2, -1644512.4, -1693569.3, -413.4237, -0.00006121243, -0.0032919408, -1644508.9, 42638.55, 0.0, 5.020772, 4.9887757 
3.5372457e+2, 1.3283016e+2, -1599524.5, -1651874.3, -1096.9619, 0.0000044594717, 0.0035378935, -1599501.5, 38763.05, 0.0, 5.0206017, 4.986389 
3.5372472e+2, 1.3781627e+2, -1552143.5, -1605290.6, -1178.9672, -0.000037357, -0.001307217, -1552117.4, 37283.18, 0.0, 5.020422, 4.985695 
3.5372454e+2, 1.4280088e+2, -1507415.8, -1564156.0, -1775.0537, -0.000033106677, 0.0002630812, -1507360.3, 33191.098, 0.0, 5.0202346, 4.98316 
3.53724e+2, 1.4778419e+2, -1459877.3, -1517226.4, -1849.7045, -0.000039305363, -0.00096544845, -1459817.8, 31897.178, 0.0, 5.020038, 4.9825797 
3.5372314e+2, 1.5276578e+2, -1415211.1, -1476248.4, -2371.398, -0.000019478774, 0.0012908274, -1415119.1, 27776.21, 0.0, 5.0198345, 4.9800067 
3.5372195e+2, 1.5774582e+2, -1367641.9, -1429240.5, -2436.112, -0.000033670578, -0.001332298, -1367545.8, 26545.31, 0.0, 5.0196238, 4.979445 
3.537205e+2, 1.6272426e+2, -1323012.9, -1388373.6, -2883.3943, -0.000029680172, 0.0012479165, -1322885.9, 22416.344, 0.0, 5.019407, 4.976815 
3.537188e+2, 1.6770113e+2, -1275350.5, -1341166.4, -2938.932, -0.000031438714, -0.0011979244, -1275219.5, 21309.477, 0.0, 5.0191836, 4.97631 
3.5371682e+2, 1.7267641e+2, -1230769.3, -1300445.4, -3312.2395, -0.000025313093, 0.0011338413, -1230612.1, 17159.104, 0.0, 5.018955, 4.9736085 
3.537147e+2, 1.7765008e+2, -1183033.6, -1253090.0, -3355.579, -0.000026548369, -0.0012207946, -1182873.3, 16155.9, 0.0, 5.0187225, 4.9731417 
3.5371235e+2, 1.8262221e+2, -1138473.8, -1212478.5, -3655.1892, -0.000027449702, 0.0012348308, -1138293.8, 12008.729, 0.0, 5.0184855, 4.9703846 
3.5370982e+2, 1.8759266e+2, -1090671.8, -1164999.9, -3688.5205, -0.000020620435, -0.0013167863, -1090489.1, 11102.935, 0.0, 5.0182447, 4.9699464 
3.537072e+2, 1.9256157e+2, -1046132.3, -1124503.1, -3912.0085, -0.000025583095, 0.0013007418, -1045937.56, 6959.1475, 0.0, 5.0180006, 4.9671245 
3.537044e+2, 1.9752876e+2, -998250.56, -1076882.1, -3937.1074, -0.000018785553, -0.0013171041, -998053.94, 6164.216, 0.0, 5.017754, 4.966721 
3.5370153e+2, 2.0249438e+2, -953848.56, -1036767.7, -4078.1892, -0.000022509188, 0.0012937894, -953648.5, 1906.5068, 0.0, 5.0175047, 4.9637475 
3.536986e+2, 2.0745821e+2, -905903.1, -989045.7, -4098.0845, -0.0000122419015, -0.0013560718, -905701.6, 1207.9232, 0.0, 5.017254, 4.963364 
3.5369566e+2, 2.1242052e+2, -861384.0, -948778.9, -4163.11, -0.000021692416, 0.0013651757, -861186.2, -2907.167, 0.0, 5.017001, 4.960413 
3.5369262e+2, 2.17381e+2, -813362.3, -900935.7, -4172.188, -0.000015048433, -0.0014403388, -813164.0, -3497.827, 0.0, 5.016748, 4.9600554 
3.5368964e+2, 2.2233999e+2, -768833.06, -860757.8, -4166.382, -0.000013243071, 0.0014112337, -768644.6, -7576.5005, 0.0, 5.016494, 4.9570465 
3.5368663e+2, 2.2729713e+2, -720740.2, -812817.94, -4167.5522, -0.000013765901, -0.0014009554, -720551.94, -8063.8887, 0.0, 5.0162406, 4.956705 
3.536837e+2, 2.3225275e+2, -676203.0, -772750.4, -4085.0906, -0.000012772565, 0.0014540021, -676030.5, -12107.338, 0.0, 5.015988, 4.9536304 
3.5368085e+2, 2.3720649e+2, -628014.0, -724668.0, -4077.1055, -0.000010401612, -0.001662999, -627842.3, -12465.771, 0.0, 5.0157366, 4.9533205 
3.5367808e+2, 2.421587e+2, -583483.75, -684757.5, -3920.8765, -0.000007507298, 0.0016974829, -583332.2, -16487.28, 0.0, 5.015487, 4.950157 
3.536754e+2, 2.4710897e+2, -535169.2, -636475.94, -3900.6462, -0.000020104748, -0.0016946606, -535019.2, -16687.13, 0.0, 5.01524, 4.949898 
3.5367286e+2, 2.5205767e+2, -490741.75, -596954.1, -3675.101, -0.0000012045591, 0.0016700596, -490614.75, -20780.01, 0.0, 5.014996, 4.9465685 
3.5367048e+2, 2.570045e+2, -442127.84, -548090.44, -3638.3928, -0.0000050075964, -0.0017300249, -442003.06, -20646.963, 0.0, 5.0147552, 4.946493 
3.5366824e+2, 2.6194966e+2, -397926.2, -509250.97, -3347.9502, -0.000007576234, 0.0016751002, -397825.6, -24932.213, 0.0, 5.014518, 4.94289 
3.5366625e+2, 2.6689294e+2, -348924.7, -459608.13, -3291.4053, -0.000015695156, -0.0016434505, -348826.88, -24377.69, 0.0, 5.014285, 4.943069 
3.5366446e+2, 2.718345e+2, -304996.44, -421586.44, -2940.297, 0.0000009707026, 0.0017033672, -304922.34, -28900.42, 0.0, 5.014057, 4.9391356 
3.5366297e+2, 2.767742e+2, -255605.98, -371159.28, -2859.9705, 0.0000023303453, -0.0019152208, -255535.23, -27922.332, 0.0, 5.0138354, 4.939571 
3.5366166e+2, 2.8171217e+2, -211774.0, -333573.4, -2454.2566, -0.000006064134, 0.0022023246, -211724.56, -32504.127, 0.0, 5.013618, 4.935444 
3.536607e+2, 2.866483e+2, -162059.95, -282510.2, -2345.0515, -0.000012189596, -0.0025805526, -162014.31, -31167.783, 0.0, 5.013409, 4.9360847 
3.5366002e+2, 2.9158226e+2, -119666.58, -248506.23, -1886.5786, -0.0000020759549, 0.0017329656, -119638.95, -37144.934, 0.0, 5.013205, 4.9306436 
3.5365972e+2, 2.965138e+2, -69855.72, -197346.97, -1745.0535, 0.000016646236, -0.00045238744, -69831.836, -35667.14, 0.0, 5.01301, 4.931296 
3.536597e+2, 3.0145234e+2, -29158.668, -134261.84, -1231.6815, -0.00000051769723, 0.0022028552, -29144.236, -29144.236, 0.0, 5.012821, 4.945183 
3.536602e+2, 3.0639812e+2, -28471.82, -131728.27, -1053.8523, -0.000044465178, -0.0052995747, -28461.064, -28461.064, 0.0, 5.012643, 4.9461703 
3.536609e+2, 3.1136143e+2, 9710.269, -41330.75, -455.59323, 0.00003282274, 0.004022692, 9714.335, 9714.335, 0.0, 5.0124726, 4.979339 
3.5366225e+2, 3.1634185e+2, 11065.179, -37350.37, -234.57587, -0.000017028857, -0.0009608381, 11066.314, 11066.314, 0.0, 5.012316, 4.980875 
3.587439e+2, 1.2285141e+2, -1691493.5, -1739366.1, -408.21704, -0.00001334499, 0.0009703013, -1691490.0, 44566.215, 0.0, 5.0209465, 4.9897184 
3.5874474e+2, 1.278406e+2, -1644610.8, -1693827.3, -500.18143, -0.00006706031, -0.0032931664, -1644605.6, 42556.527, 0.0, 5.020784, 4.988685 
3.587452e+2, 1.3282856e+2, -1599616.5, -1652110.0, -1198.6563, 0.000006109319, 0.0035377918, -1599589.1, 38690.965, 0.0, 5.020612, 4.9863067 
3.587452e+2, 1.378146e+2, -1552240.3, -1605527.1, -1279.7802, -0.000036992904, -0.0013065392, -1552209.5, 37207.406, 0.0, 5.02043, 4.985613 
3.5874477e+2, 1.4279914e+2, -1507506.0, -1564370.5, -1888.7783, -0.000039205144, 0.00026369677, -1507443.4, 33125.152, 0.0, 5.0202403, 4.983086 
3.5874406e+2, 1.4778237e+2, -1459972.1, -1517441.8, -1963.2263, -0.000042801963, -0.000965649, -1459905.1, 31827.613, 0.0, 5.020042, 4.9825063 
3.5874298e+2, 1.5276389e+2, -1415299.5, -1476441.5, -2495.8196, -0.000020128884, 0.0012914675, -1415197.9, 27716.111, 0.0, 5.0198364, 4.9799414 
3.5874158e+2, 1.5774386e+2, -1367734.6, -1429434.1, -2560.3513, -0.000035385532, -0.0013316184, -1367628.5, 26481.727, 0.0, 5.0196238, 4.9793806 
3.587399e+2, 1.6272224e+2, -1323098.4, -1388544.3, -3016.891, -0.000033505705, 0.001248445, -1322959.6, 22362.496, 0.0, 5.019405, 4.976759 
3.5873798e+2, 1.6769905e+2, -1275440.3, -1341338.1, -3072.351, -0.000036908845, -0.0011967004, -1275297.3, 21252.023, 0.0, 5.0191803, 4.9762535 
3.587358e+2, 1.7267428e+2, -1230851.3, -1300592.8, -3453.4583, -0.000025279583, 0.0011357829, -1230680.6, 17111.389, 0.0, 5.01895, 4.973562 
3.587334e+2, 1.7764792e+2, -1183120.4, -1253239.3, -3496.6655, -0.000027191889, -0.00122129, -1182946.5, 16103.972, 0.0, 5.018715, 4.973095 
3.587308e+2, 1.8261997e+2, -1138553.3, -1212603.9, -3802.1162, -0.000032763135, 0.001237043, -1138358.5, 11965.629, 0.0, 5.0184765, 4.9703465 
3.5872805e+2, 1.8759039e+2, -1090755.3, -1165125.8, -3835.9336, -0.000025824142, -0.0013106893, -1090557.9, 11056.252, 0.0, 5.018234, 4.969909 
3.5872516e+2, 1.9255929e+2, -1046208.4, -1124605.0, -4063.1414, -0.000026278627, 0.0012996607, -1045998.3, 6920.7773, 0.0, 5.0179877, 4.967096 
3.5872215e+2, 1.9752644e+2, -998330.6, -1076985.1, -4088.7327, -0.000020236177, -0.0013195444, -998118.6, 6122.2236, 0.0, 5.01774, 4.966693 
3.5871905e+2, 2.0249204e+2, -953925.8, -1036856.9, -4233.0024, -0.00002714399, 0.0013004551, -953710.3, 1867.6309, 0.0, 5.0174885, 4.9637246 
3.5871586e+2, 2.0745584e+2, -905984.3, -989135.8, -4252.3486, -0.000020089688, -0.0013500189, -905767.44, 1165.2759, 0.0, 5.0172358, 4.963341 
3.5871264e+2, 2.1241814e+2, -861453.1, -948835.0, -4320.082, -0.000021514648, 0.0013631626, -861240.06, -2937.7573, 0.0, 5.016982, 4.9604025 
3.587094e+2, 2.1737862e+2, -813435.8, -900993.5, -4328.864, -0.000015947859, -0.0014390365, -813222.3, -3532.718, 0.0, 5.016727, 4.9600453 
3.5870615e+2, 2.2233759e+2, -768899.06, -860791.25, -4323.1455, -0.000020526571, 0.0014165639, -768696.1, -7604.5474, 0.0, 5.0164714, 4.9570456 
3.587029e+2, 2.2729474e+2, -720810.4, -812852.4, -4324.1406, -0.000017421215, -0.0013981506, -720607.7, -8096.1245, 0.0, 5.0162163, 4.9567046 
3.586997e+2, 2.3225035e+2, -676266.06, -772761.1, -4240.0317, -0.000014904599, 0.0014556486, -676080.1, -12133.55, 0.0, 5.015962, 4.9536386 
3.5869658e+2, 2.3720409e+2, -628080.8, -724679.25, -4231.9624, -0.000013985995, -0.001659064, -627895.75, -12495.842, 0.0, 5.015709, 4.953329 
3.5869354e+2, 2.4215631e+2, -583543.94, -684746.06, -4072.3552, -0.000010954942, 0.0017003735, -583380.3, -16512.207, 0.0, 5.015458, 4.9501743 
3.5869062e+2, 2.4710661e+2, -535232.9, -636464.5, -4052.0823, -0.00002368834, -0.0016936467, -535070.94, -16715.787, 0.0, 5.015209, 4.9499154 
3.5868785e+2, 2.5205535e+2, -490799.22, -596920.7, -3821.382, -0.0000042062084, 0.0016745186, -490661.78, -20804.215, 0.0, 5.0149636, 4.946595 
3.5868523e+2, 2.5700217e+2, -442188.72, -548056.56, -3784.7622, -0.000008636219, -0.0017259056, -442053.56, -20674.904, 0.0, 5.014721, 4.9465203 
3.5868278e+2, 2.619474e+2, -397981.38, -509195.78, -3487.8093, -0.000010967388, 0.0016771952, -397872.1, -24956.424, 0.0, 5.014482, 4.9429255 
3.5868055e+2, 2.668907e+2, -348983.3, -459552.4, -3430.822, -0.000019124695, -0.0016410726, -348876.94, -24405.828, 0.0, 5.014248, 4.943105 
3.586785e+2, 2.7183232e+2, -305050.1, -421510.53, -3071.9573, -0.0000031056443, 0.00170707, -304969.13, -28925.664, 0.0, 5.014018, 4.9391794 
3.586768e+2, 2.7677202e+2, -255662.97, -371082.03, -2990.8943, -0.0000021252165, -0.0019105409, -255585.52, -27951.523, 0.0, 5.0137944, 4.939616 
3.5867527e+2, 2.817101e+2, -211826.28, -333475.97, -2576.2732, -0.00001067601, 0.0022054326, -211771.75, -32530.697, 0.0, 5.0135756, 4.935497 
3.5867414e+2, 2.8664628e+2, -162115.58, -282411.06, -2465.603, -0.000018016795, -0.0025802383, -162065.06, -31198.459, 0.0, 5.013365, 4.9361396 
3.5867321e+2, 2.9158026e+2, -119721.33, -248394.88, -1997.3508, -0.0000068875784, 0.0017367612, -119690.33, -37176.785, 0.0, 5.013159, 4.9307036 
3.5867277e+2, 2.9651186e+2, -69914.72, -197234.9, -1853.8763, 0.000012421201, -0.00044753827, -69887.73, -35704.11, 0.0, 5.012962, 4.9313564 
3.5867253e+2, 3.0145043e+2, -29213.79, -134129.98, -1329.6663, -0.000008323832, 0.0022058191, -29196.94, -29196.94, 0.0, 5.0127707, 4.9452524 
3.5867283e+2, 3.0639637e+2, -28530.436, -131592.6, -1149.6022, -0.00005262806, -0.005300246, -28517.613, -28517.613, 0.0, 5.01259, 4.946242 
3.586734e+2, 3.113597e+2, 9654.762, -41175.887, -537.9578, 0.000027498363, 0.0040262667, 9660.454, 9660.454, 0.0, 5.012417, 4.97942 
3.5867456e+2, 3.163402e+2, 11003.765, -37190.223, -314.14755, -0.000035072797, -0.0009563611, 11005.8125, 11005.8125, 0.0, 5.0122566, 4.9809594 
3.6376503e+2, 1.2285019e+2, -1690567.0, -1739119.5, -330.06235, -0.0000067122314, 0.0009766034, -1690564.8, 45503.434, 0.0, 5.0213, 4.9896255 
3.6376572e+2, 1.2783928e+2, -1643735.3, -1693606.3, -424.27036, -0.000068844114, -0.0032908004, -1643731.8, 43443.305, 0.0, 5.021121, 4.9885926 
3.6376595e+2, 1.3282716e+2, -1598779.5, -1651890.4, -1140.2988, 0.000011560145, 0.0035438042, -1598755.0, 39538.758, 0.0, 5.0209327, 4.9862227 
3.6376575e+2, 1.378131e+2, -1551453.9, -1605332.1, -1223.2365, -0.00003264587, -0.0013010892, -1551426.1, 38005.41, 0.0, 5.020734, 4.9855294 
3.6376518e+2, 1.4279757e+2, -1506759.5, -1564177.3, -1846.9706, -0.000041421314, 0.00026721618, -1506700.1, 33883.688, 0.0, 5.0205274, 4.9830112 
3.6376423e+2, 1.4778073e+2, -1459277.1, -1517273.4, -1923.3987, -0.000042117874, -0.0009622097, -1459213.5, 32535.357, 0.0, 5.0203123, 4.982432 
3.6376294e+2, 1.5276217e+2, -1414644.3, -1476274.5, -2468.4753, -0.000017136612, 0.0012962715, -1414545.5, 28385.164, 0.0, 5.0200896, 4.979875 
3.6376134e+2, 1.5774208e+2, -1367131.1, -1429291.6, -2534.6577, -0.000033307086, -0.0013273248, -1367027.9, 27099.727, 0.0, 5.01986, 4.979315 
3.6375943e+2, 1.6272041e+2, -1322535.3, -1388402.5, -3001.6978, -0.000033769662, 0.0012511958, -1322398.8, 22941.293, 0.0, 5.0196233, 4.976702 
3.6375725e+2, 1.6769716e+2, -1274930.0, -1341221.9, -3058.565, -0.000038517992, -0.0011937789, -1274789.3, 21778.633, 0.0, 5.019381, 4.9761972 
3.637548e+2, 1.7267235e+2, -1230380.1, -1300476.1, -3448.538, -0.000022103135, 0.0011395651, -1230210.9, 17600.18, 0.0, 5.0191336, 4.973514 
3.637522e+2, 1.7764592e+2, -1182702.0, -1253148.0, -3493.1226, -0.000026601516, -0.0012187291, -1182529.3, 16540.666, 0.0, 5.018881, 4.9730473 
3.6374936e+2, 1.8261795e+2, -1138176.6, -1212512.1, -3804.753, -0.00003275893, 0.001239616, -1137982.4, 12361.619, 0.0, 5.018624, 4.9703083 
3.6374637e+2, 1.8758832e+2, -1090430.6, -1165057.8, -3839.798, -0.000025244912, -0.0013065271, -1090233.5, 11400.898, 0.0, 5.0183635, 4.9698715 
3.6374322e+2, 1.9255717e+2, -1045923.75, -1124537.0, -4071.1694, -0.000024475568, 0.001301638, -1045713.5, 7226.216, 0.0, 5.0181, 4.967067 
3.6373994e+2, 1.9752431e+2, -998099.06, -1076942.0, -4097.5586, -0.00001865279, -0.0013174831, -997886.6, 6375.0996, 0.0, 5.017833, 4.966664 
3.6373657e+2, 2.0248988e+2, -953736.6, -1036820.06, -4245.403, -0.00002531527, 0.0013043797, -953520.25, 2078.8223, 0.0, 5.017565, 4.963702 
3.637331e+2, 2.0745367e+2, -905847.25, -989123.3, -4264.519, -0.000019376086, -0.0013463096, -905629.44, 1324.605, 0.0, 5.017294, 4.963319 
3.6372966e+2, 2.1241593e+2, -861353.7, -948813.0, -4334.589, -0.00001828799, 0.001365773, -861139.4, -2815.5496, 0.0, 5.0170217, 4.960392 
3.637261e+2, 2.1737641e+2, -813388.0, -900995.25, -4343.286, -0.000013616925, -0.0014353491, -813173.25, -3462.0103, 0.0, 5.0167484, 4.960035 
3.637226e+2, 2.2233537e+2, -768891.2, -860789.94, -4337.5493, -0.000018502946, 0.0014205471, -768686.9, -7573.618, 0.0, 5.0164742, 4.9570446 
3.6371908e+2, 2.2729252e+2, -720854.9, -812874.6, -4338.1587, -0.000015673884, -0.0013948426, -720650.8, -8117.585, 0.0, 5.0162005, 4.9567037 
3.6371565e+2, 2.3224814e+2, -676351.1, -772781.5, -4251.935, -0.000012007385, 0.0014602022, -676164.0, -12195.781, 0.0, 5.0159283, 4.953647 
3.6371225e+2, 2.3720188e+2, -628216.7, -724721.5, -4243.531, -0.000011314208, -0.0016540214, -628030.44, -12608.968, 0.0, 5.015657, 4.953338 
3.6370894e+2, 2.4215414e+2, -583719.6, -684786.56, -4080.0286, -0.000009082185, 0.0017044509, -583555.2, -16665.617, 0.0, 5.0153875, 4.950192 
3.6370578e+2, 2.4710445e+2, -535458.4, -636525.8, -4059.4456, -0.000020992255, -0.0016896075, -535295.56, -16919.186, 0.0, 5.0151205, 4.949934 
3.637027e+2, 2.520532e+2, -491064.84, -596980.56, -3823.1484, -0.0000013778008, 0.001680164, -490927.03, -21048.432, 0.0, 5.014857, 4.946622 
3.6369985e+2, 2.5700006e+2, -442503.13, -548136.0, -3786.1726, -0.00000731723, -0.0017210032, -442367.6, -20968.154, 0.0, 5.014596, 4.946548 
3.6369714e+2, 2.6194528e+2, -398335.16, -509273.8, -3482.0547, -0.000007847877, 0.0016821685, -398225.97, -25289.865, 0.0, 5.014339, 4.942961 
3.636947e+2, 2.6688865e+2, -349384.94, -459649.0, -3424.1475, -0.000015208449, -0.0016366089, -349278.72, -24787.508, 0.0, 5.0140867, 4.9431424 
3.636924e+2, 2.718303e+2, -305491.06, -421606.13, -3056.5122, -0.0000010617226, 0.0017123044, -305410.66, -29347.518, 0.0, 5.013839, 4.9392247 
3.6369047e+2, 2.7677009e+2, -256150.44, -371194.84, -2974.11, 0.0000010523925, -0.0019043289, -256073.61, -28420.371, 0.0, 5.0135975, 4.9396625 
3.636887e+2, 2.8170818e+2, -212352.17, -333586.9, -2549.3372, -0.00000596503, 0.0022106464, -212298.6, -33038.797, 0.0, 5.0133605, 4.935551 
3.6368734e+2, 2.866444e+2, -162686.8, -282537.94, -2436.4033, -0.0000144430705, -0.0025772257, -162637.3, -31752.475, 0.0, 5.013132, 4.936195 
3.636862e+2, 2.9157847e+2, -120333.07, -248526.47, -1956.826, -0.0000031407983, 0.0017428377, -120303.2, -37772.023, 0.0, 5.012909, 4.9307647 
3.6368555e+2, 2.9651013e+2, -70570.68, -197382.13, -1810.2781, 0.000018193929, -0.00043912907, -70544.84, -36344.2, 0.0, 5.0126944, 4.931419 
3.6368516e+2, 3.014488e+2, -29903.217, -134271.92, -1275.205, -0.0000030688811, 0.0022118283, -29887.639, -29887.639, 0.0, 5.012486, 4.945323 
3.6368525e+2, 3.0639476e+2, -29261.824, -131747.52, -1091.6411, -0.00004727153, -0.0052994136, -29250.197, -29250.197, 0.0, 5.012289, 4.9463153 
3.6368564e+2, 3.1135818e+2, 8896.612, -41321.07, -467.83023, 0.000034759956, 0.004035121, 8900.97, 8900.97, 0.0, 5.0120997, 4.979502 
3.6368665e+2, 3.1633878e+2, 10209.097, -37344.387, -239.86595, -0.00001927606, -0.000953607, 10210.307, 10210.307, 0.0, 5.0119243, 4.981045 
3.6878633e+2, 1.2284909e+2, -1690663.4, -1739384.9, -427.017, -0.0000066275707, 0.0009792969, -1690659.6, 45419.277, 0.0, 5.0213146, 4.989531 
3.6878684e+2, 1.2783809e+2, -1643836.1, -1693872.5, -520.3343, -0.00007454655, -0.0032930882, -1643830.6, 43356.023, 0.0, 5.021134, 4.9884987 
3.687869e+2, 1.3282588e+2, -1598873.9, -1652133.9, -1251.4875, 0.000013273708, 0.0035479371, -1598844.5, 39461.875, 0.0, 5.020943, 4.986137 
3.687865e+2, 1.3781175e+2, -1551552.9, -1605576.0, -1333.6608, -0.00003241341, -0.0012977815, -1551520.0, 37924.887, 0.0, 5.0207424, 4.9854445 
3.687857e+2, 1.4279613e+2, -1506852.0, -1564398.5, -1970.3512, -0.000047167014, 0.00026748108, -1506784.6, 33813.344, 0.0, 5.020534, 4.9829345 
3.6878455e+2, 1.4777921e+2, -1459374.4, -1517495.3, -2046.5103, -0.00004481347, -0.0009613305, -1459302.4, 32461.365, 0.0, 5.0203166, 4.982356 
3.6878303e+2, 1.527606e+2, -1414735.0, -1476473.6, -2602.7375, -0.000018576768, 0.0012994396, -1414625.5, 28320.844, 0.0, 5.0200915, 4.979808 
3.6878118e+2, 1.5774041e+2, -1367226.0, -1429490.9, -2668.7517, -0.000035160516, -0.0013244759, -1367111.9, 27032.072, 0.0, 5.01986, 4.979248 
3.6877906e+2, 1.6271868e+2, -1322623.1, -1388578.4, -3145.3813, -0.00003733663, 0.0012522524, -1322473.4, 22883.486, 0.0, 5.019622, 4.9766445 
3.6877665e+2, 1.6769537e+2, -1275022.1, -1341398.1, -3202.018, -0.00004262556, -0.0011922326, -1274868.0, 21717.322, 0.0, 5.019377, 4.97614 
3.6877397e+2, 1.726705e+2, -1230465.0, -1300629.1, -3599.775, -0.000022308335, 0.0011427846, -1230280.8, 17548.283, 0.0, 5.0191283, 4.9734654 
3.6877108e+2, 1.7764404e+2, -1182790.9, -1253301.6, -3644.8171, -0.000031615375, -0.0012149031, -1182603.0, 16485.416, 0.0, 5.0188737, 4.972999 
3.6876798e+2, 1.8261603e+2, -1138258.1, -1212640.8, -3962.0237, -0.000034712662, 0.0012411273, -1138047.6, 12315.29, 0.0, 5.0186143, 4.970269 
3.687647e+2, 1.8758637e+2, -1090517.0, -1165186.5, -3997.518, -0.000027039667, -0.0013055181, -1090303.6, 11350.106, 0.0, 5.0183516, 4.9698334 
3.6876133e+2, 1.9255517e+2, -1046003.3, -1124642.8, -4233.0625, -0.000029077743, 0.0013057366, -1045776.1, 7183.164, 0.0, 5.0180864, 4.967037 
3.6875775e+2, 1.9752228e+2, -998182.4, -1077049.1, -4259.051, -0.000023523868, -0.0013117753, -997953.0, 6328.5933, 0.0, 5.0178185, 4.9666348 
3.6875412e+2, 2.0248784e+2, -953815.0, -1036909.7, -4410.514, -0.000027619762, 0.0013049298, -953581.56, 2037.6869, 0.0, 5.0175486, 4.9636793 
3.687504e+2, 2.0745158e+2, -905929.3, -989214.1, -4429.9, -0.000021372869, -0.0013458999, -905694.4, 1280.052, 0.0, 5.0172763, 4.9632964 
3.6874664e+2, 2.1241383e+2, -861424.6, -948871.4, -4502.178, -0.000023527258, 0.0013715958, -861193.44, -2849.0947, 0.0, 5.017002, 4.9603815 
3.6874285e+2, 2.173743e+2, -813464.25, -901055.06, -4510.4893, -0.000019805146, -0.0014306844, -813232.56, -3500.753, 0.0, 5.0167265, 4.9600244 
3.6873907e+2, 2.2233327e+2, -768959.8, -860824.25, -4505.11, -0.00001924648, 0.0014217643, -768739.44, -7605.483, 0.0, 5.016451, 4.9570436 
3.6873528e+2, 2.2729042e+2, -720927.5, -812910.0, -4505.572, -0.000020537358, -0.0013930702, -720707.3, -8153.4033, 0.0, 5.0161753, 4.956703 
3.6873156e+2, 2.3224603e+2, -676416.3, -772792.75, -4417.484, -0.000015887163, 0.0014650995, -676214.3, -12225.412, 0.0, 5.015901, 4.9536557 
3.687279e+2, 2.371998e+2, -628285.56, -724732.94, -4408.9663, -0.000014078136, -0.0016506595, -628084.44, -12642.423, 0.0, 5.0156283, 4.953347 
3.6872435e+2, 2.4215204e+2, -583781.8, -684774.9, -4242.057, -0.000013748363, 0.0017067147, -583603.94, -16693.95, 0.0, 5.0153575, 4.95021 
3.687209e+2, 2.4710238e+2, -535524.1, -636514.06, -4221.503, -0.000023878823, -0.0016858716, -535348.0, -16951.357, 0.0, 5.0150886, 4.9499526 
3.6871758e+2, 2.5205117e+2, -491124.38, -596946.4, -3980.125, -0.000004453889, 0.0016836008, -490974.9, -21076.271, 0.0, 5.014823, 4.946649 
3.6871445e+2, 2.5699803e+2, -442565.94, -548100.94, -3943.1714, -0.000012910894, -0.0017186656, -442418.8, -20999.639, 0.0, 5.0145607, 4.946576 
3.687115e+2, 2.619433e+2, -398392.38, -509217.4, -3632.44, -0.000010622238, 0.001686573, -398273.44, -25317.896, 0.0, 5.0143023, 4.9429975 
3.6870876e+2, 2.668867e+2, -349445.4, -459591.38, -3574.178, -0.000016903641, -0.0016335445, -349329.53, -24819.268, 0.0, 5.014048, 4.9431796 
3.6870626e+2, 2.718284e+2, -305546.44, -421527.8, -3198.659, -0.000006862094, 0.0017157443, -305458.28, -29376.484, 0.0, 5.0137987, 4.93927 
3.6870405e+2, 2.767682e+2, -256209.33, -371115.4, -3115.5105, -0.0000040455457, -0.0018997907, -256124.92, -28453.486, 0.0, 5.013555, 4.9397087 
3.6870208e+2, 2.817064e+2, -212406.08, -333486.4, -2681.6892, -0.0000094473735, 0.002214367, -212346.72, -33069.21, 0.0, 5.0133166, 4.935606 
3.6870047e+2, 2.8664267e+2, -162744.16, -282435.88, -2567.2668, -0.000019135397, -0.0025759856, -162689.11, -31787.137, 0.0, 5.0130863, 4.936251 
3.6869913e+2, 2.9157674e+2, -120388.81, -248410.33, -2077.7148, -0.000009244103, 0.0017463738, -120355.1, -37807.336, 0.0, 5.0128613, 4.9308267 
3.6869824e+2, 2.9650852e+2, -70630.625, -197265.03, -1929.2955, 0.000013030458, -0.00043263106, -70601.234, -36384.633, 0.0, 5.012645, 4.9314823 
3.6869764e+2, 3.0144724e+2, -29959.205, -134134.7, -1383.2747, -0.000008373244, 0.0022153032, -29940.84, -29940.84, 0.0, 5.012434, 4.945395 
3.6869752e+2, 3.0639324e+2, -29321.336, -131606.56, -1197.4917, -0.000053015534, -0.0053026117, -29307.318, -29307.318, 0.0, 5.0122347, 4.946389 
3.6869773e+2, 3.1135678e+2, 8840.281, -41160.594, -559.86224, 0.00002271791, 0.004042818, 8846.549, 8846.549, 0.0, 5.0120425, 4.9795856 
3.6869854e+2, 3.1633747e+2, 10145.929, -37180.11, -329.149, -0.000032576754, -0.0009497817, 10148.218, 10148.218, 0.0, 5.0118637, 4.9811316 
3.7380785e+2, 1.2284821e+2, -1689691.1, -1739122.8, -339.0566, -0.00000013326986, 0.000987434, -1689688.8, 46398.707, 0.0, 5.0216846, 4.9894357 
3.7380818e+2, 1.2783712e+2, -1642917.4, -1693637.1, -434.69736, -0.00007644421, -0.0032925606, -1642913.8, 44282.527, 0.0, 5.0214868, 4.988404 
3.73808e+2, 1.3282481e+2, -1597995.8, -1651900.4, -1183.4565, 0.000018839908, 0.0035579083, -1597969.8, 40346.996, 0.0, 5.0212793, 4.9860506 
3.738074e+2, 1.378106e+2, -1550727.6, -1605368.0, -1267.4891, -0.000027557626, -0.0012910868, -1550698.3, 38757.844, 0.0, 5.021061, 4.9853587 
3.738064e+2, 1.4279489e+2, -1506068.5, -1564192.6, -1919.0099, -0.00004945851, 0.0002702964, -1506005.3, 34604.82, 0.0, 5.020835, 4.982857 
3.73805e+2, 1.4777792e+2, -1458644.5, -1517314.9, -1997.1526, -0.00004348746, -0.00095653726, -1458576.6, 33199.95, 0.0, 5.0205994, 4.9822793 
3.7380326e+2, 1.527592e+2, -1414046.9, -1476295.3, -2565.916, -0.000015169824, 0.0013054395, -1413941.4, 29018.502, 0.0, 5.020357, 4.9797397 
3.7380117e+2, 1.5773897e+2, -1366591.5, -1429337.6, -2633.5012, -0.0000336218, -0.0013193564, -1366481.3, 27676.9, 0.0, 5.0201073, 4.979181 
3.7379876e+2, 1.6271718e+2, -1322031.0, -1388427.1, -3120.8599, -0.00003695017, 0.001255523, -1321884.6, 23487.127, 0.0, 5.019851, 4.9765854 
3.737961e+2, 1.6769382e+2, -1274484.0, -1341271.9, -3178.723, -0.000042963824, -0.0011874349, -1274333.0, 22267.68, 0.0, 5.0195885, 4.976082 
3.7379318e+2, 1.7266889e+2, -1229968.6, -1300503.9, -3584.8542, -0.000019451198, 0.0011467853, -1229786.9, 18058.096, 0.0, 5.019321, 4.973416 
3.7379003e+2, 1.7764236e+2, -1182348.5, -1253202.0, -3631.4229, -0.000032170887, -0.0012116942, -1182162.9, 16941.855, 0.0, 5.019048, 4.9729505 
3.737867e+2, 1.8261431e+2, -1137858.8, -1212542.0, -3956.166, -0.000033078468, 0.0012457514, -1137649.8, 12729.989, 0.0, 5.0187707, 4.970229 
3.7378314e+2, 1.875846e+2, -1090175.8, -1165115.3, -3993.076, -0.000025489027, -0.0013031657, -1089963.5, 11707.385, 0.0, 5.018488, 4.969794 
3.7377945e+2, 1.9255339e+2, -1045703.06, -1124567.4, -4232.192, -0.00002796717, 0.001309504, -1045476.56, 7500.28, 0.0, 5.0182037, 4.967008 
3.7377563e+2, 1.9752046e+2, -997933.6, -1076997.3, -4258.0083, -0.000022885364, -0.0013070977, -997705.0, 6594.4663, 0.0, 5.017918, 4.966606 
3.737717e+2, 2.02486e+2, -953612.1, -1036868.56, -4412.5366, -0.000025222915, 0.0013078057, -953378.94, 2258.3738, 0.0, 5.0176296, 4.9636555 
3.737677e+2, 2.0744972e+2, -905779.0, -989197.9, -4432.5845, -0.00001859111, -0.0013434028, -905544.1, 1448.6255, 0.0, 5.0173397, 4.9632726 
3.7376368e+2, 2.1241195e+2, -861310.8, -948842.0, -4508.5444, -0.000021639613, 0.0013763532, -861079.2, -2716.3376, 0.0, 5.0170465, 4.960371 
3.7375957e+2, 2.173724e+2, -813408.1, -901052.0, -4516.255, -0.000019474373, -0.0014260508, -813176.06, -3425.6257, 0.0, 5.0167503, 4.9600143 
3.737555e+2, 2.2233137e+2, -768947.25, -860820.44, -4509.787, -0.000014861881, 0.0014248004, -768726.4, -7573.7905, 0.0, 5.0164557, 4.957043 
3.7375146e+2, 2.2728851e+2, -720967.8, -812930.06, -4509.917, -0.00001838853, -0.0013885369, -720747.2, -8174.642, 0.0, 5.0161614, 4.9567027 
3.7374744e+2, 2.3224413e+2, -676498.5, -772811.4, -4419.724, -0.0000136777635, 0.0014698585, -676296.06, -12288.612, 0.0, 5.015868, 4.9536643 
3.737435e+2, 2.371979e+2, -628420.2, -724774.06, -4410.912, -0.000011972105, -0.0016466187, -628218.7, -12758.151, 0.0, 5.0155764, 4.9533567 
3.7373966e+2, 2.4215017e+2, -583958.44, -684814.75, -4240.2827, -0.000011286898, 0.0017114542, -583780.44, -16852.107, 0.0, 5.0152864, 4.950228 
3.7373593e+2, 2.4710053e+2, -535752.44, -636575.25, -4219.3623, -0.000019791602, -0.0016804814, -535576.1, -17161.33, 0.0, 5.014999, 4.9499717 
3.7373233e+2, 2.5204933e+2, -491394.0, -597006.4, -3972.1956, -0.0000023904754, 0.0016881574, -491244.8, -21328.23, 0.0, 5.0147142, 4.9466767 
3.7372893e+2, 2.5699624e+2, -442886.25, -548181.2, -3934.9858, -0.000011839626, -0.0017147044, -442739.4, -21302.559, 0.0, 5.014433, 4.9466047 
3.737257e+2, 2.6194152e+2, -398754.3, -509296.88, -3616.9133, -0.000006562089, 0.0016923697, -398636.1, -25663.186, 0.0, 5.0141554, 4.9430346 
3.7372273e+2, 2.6688498e+2, -349856.9, -459689.78, -3557.788, -0.000011975137, -0.0016291001, -349741.78, -25214.52, 0.0, 5.0138826, 4.9432178 
3.7371993e+2, 2.7182668e+2, -305999.34, -421625.6, -3173.401, -0.0000048051998, 0.0017201527, -305912.3, -29813.92, 0.0, 5.0136147, 4.9393163 
3.737175e+2, 2.7676657e+2, -256710.72, -371231.28, -3088.8247, -0.0000010046305, -0.0018944775, -256627.47, -28939.922, 0.0, 5.0133524, 4.9397564 
3.7371528e+2, 2.8170478e+2, -212947.63, -333600.47, -2644.6946, -0.00000428666, 0.0022193706, -212889.67, -33596.55, 0.0, 5.0130954, 4.935662 
3.7371343e+2, 2.8664112e+2, -163333.27, -282566.94, -2528.0176, -0.000013852451, -0.0025734138, -163279.7, -32362.66, 0.0, 5.0128465, 4.936309 
3.7371185e+2, 2.9157528e+2, -121020.05, -248545.13, -2026.8894, -0.0000046806945, 0.0017500393, -120987.84, -38425.61, 0.0, 5.012603, 4.93089 
3.7371072e+2, 2.9650712e+2, -71308.164, -197416.16, -1875.529, 0.000017458387, -0.00042345517, -71280.27, -37049.844, 0.0, 5.012368, 4.9315467 
3.7370986e+2, 3.014459e+2, -30672.225, -134281.11, -1318.7107, -0.000003083433, 0.0022209808, -30655.443, -30655.443, 0.0, 5.01214, 4.945468 
3.7370956e+2, 3.0639198e+2, -30078.781, -131767.25, -1129.4471, -0.000041827916, -0.005306473, -30066.236, -30066.236, 0.0, 5.011923, 4.946465 
3.7370956e+2, 3.113556e+2, 8053.9287, -41311.97, -479.77017, 0.00002812786, 0.004052536, 8058.591, 8058.591, 0.0, 5.0117135, 4.9796705 
3.7371024e+2, 3.1633636e+2, 9320.67, -37342.938, -244.92725, -0.000013192562, -0.00094944716, 9321.956, 9321.956, 0.0, 5.011519, 4.981219 
3.7882954e+2, 1.22847475e+2, -1689789.9, -1739396.6, -445.67883, -0.0000003632102, 0.0009922408, -1689785.9, 46308.91, 0.0, 5.0217004, 4.989338 
3.7882966e+2, 1.2783629e+2, -1643020.6, -1693911.8, -540.4175, -0.00008257074, -0.0032963327, -1643014.9, 44189.637, 0.0, 5.0215006, 4.9883065 
3.7882927e+2, 1.3282388e+2, -1598092.3, -1652151.4, -1304.5201, 0.000020524198, 0.003566689, -1598060.8, 40265.117, 0.0, 5.0212903, 4.9859624 
3.7882847e+2, 1.3780959e+2, -1550829.0, -1605619.3, -1387.8644, -0.000026295904, -0.0012867581, -1550793.9, 38672.23, 0.0, 5.02107, 4.985271 
3.788272e+2, 1.4279379e+2, -1506163.4, -1564420.8, -2052.4849, -0.00005609322, 0.00027071795, -1506091.1, 34529.8, 0.0, 5.0208416, 4.9827785 
3.788256e+2, 1.4777672e+2, -1458743.9, -1517542.8, -2130.404, -0.00004620473, -0.00095305656, -1458666.8, 33121.383, 0.0, 5.020604, 4.9822016 
3.788236e+2, 1.5275794e+2, -1414139.9, -1476500.0, -2710.3875, -0.000015478447, 0.0013094692, -1414022.3, 28949.879, 0.0, 5.0203595, 4.9796705 
3.7882128e+2, 1.5773764e+2, -1366688.8, -1429542.3, -2777.794, -0.00003647072, -0.0013159172, -1366566.3, 27604.865, 0.0, 5.0201073, 4.9791126 
3.7881863e+2, 1.627158e+2, -1322121.5, -1388608.8, -3274.829, -0.00003968309, 0.0012578347, -1321960.6, 23424.705, 0.0, 5.0198493, 4.976526 
3.788157e+2, 1.6769236e+2, -1274578.4, -1341452.8, -3332.2056, -0.00004650844, -0.0011823444, -1274412.8, 22202.111, 0.0, 5.0195847, 4.976023 
3.788125e+2, 1.7266738e+2, -1230056.1, -1300661.1, -3746.2363, -0.000020609565, 0.0011493592, -1229857.9, 18001.813, 0.0, 5.0193152, 4.973366 
3.788091e+2, 1.7764083e+2, -1182440.8, -1253360.6, -3792.8782, -0.000035456847, -0.0012107209, -1182238.5, 16881.459, 0.0, 5.0190406, 4.9729004 
3.7880546e+2, 1.8261272e+2, -1137943.1, -1212676.0, -4124.556, -0.000035746507, 0.0012520335, -1137716.3, 12679.216, 0.0, 5.018761, 4.9701886 
3.7880164e+2, 1.8758295e+2, -1090264.6, -1165251.4, -4161.4136, -0.00002938269, -0.0013003944, -1090034.4, 11652.614, 0.0, 5.0184765, 4.9697533 
3.7879765e+2, 1.9255172e+2, -1045781.94, -1124673.5, -4403.805, -0.000030576863, 0.0013125269, -1045536.9, 7456.3564, 0.0, 5.0181904, 4.9669785 
3.7879354e+2, 1.9751877e+2, -998016.56, -1077102.5, -4431.706, -0.00002661355, -0.0013043964, -997769.0, 6547.118, 0.0, 5.017903, 4.9665775 
3.7878934e+2, 2.0248426e+2, -953694.1, -1036962.1, -4589.992, -0.000028836475, 0.001311717, -953441.9, 2212.37, 0.0, 5.0176125, 4.963632 
3.7878504e+2, 2.0744796e+2, -905866.5, -989293.9, -4607.7505, -0.000022692071, -0.0013396567, -905612.75, 1397.1324, 0.0, 5.01732, 4.9632487 
3.787807e+2, 2.1241018e+2, -861384.94, -948900.7, -4686.9873, -0.000024933892, 0.0013792168, -861134.6, -2754.4368, 0.0, 5.0170255, 4.960361 
3.7877634e+2, 2.1737063e+2, -813485.9, -901111.3, -4694.892, -0.00002492149, -0.0014230309, -813235.0, -3467.1707, 0.0, 5.016728, 4.960005 
3.7877196e+2, 2.2232959e+2, -769017.25, -860855.25, -4687.64, -0.000017725026, 0.0014275796, -768778.6, -7608.5366, 0.0, 5.0164313, 4.957042 
3.787676e+2, 2.2728673e+2, -721042.06, -812965.8, -4687.7935, -0.000021737373, -0.0013836346, -720803.6, -8213.59, 0.0, 5.016135, 4.9567027 
3.7876332e+2, 2.3224236e+2, -676565.7, -772823.3, -4596.1206, -0.000017842645, 0.0014718928, -676346.75, -12321.798, 0.0, 5.0158405, 4.953673 
3.7875906e+2, 2.3719613e+2, -628491.2, -724786.1, -4587.2197, -0.000017371109, -0.0016447378, -628273.1, -12795.266, 0.0, 5.015547, 4.953366 
3.7875494e+2, 2.4214841e+2, -584022.6, -684803.2, -4413.278, -0.000014196779, 0.0017156245, -583829.75, -16884.156, 0.0, 5.0152555, 4.9502463 
3.7875092e+2, 2.4709879e+2, -535820.0, -636562.94, -4392.3647, -0.000021241636, -0.0016765895, -535628.9, -17197.014, 0.0, 5.014966, 4.9499907 
3.7874705e+2, 2.520476e+2, -491455.34, -596971.3, -4140.04, -0.000007696835, 0.001690655, -491293.16, -21359.744, 0.0, 5.01468, 4.9467044 
3.7874338e+2, 2.5699458e+2, -442951.06, -548145.4, -4102.9805, -0.00001691131, -0.0017123308, -442791.25, -21337.875, 0.0, 5.0143967, 4.9466333 
3.7873986e+2, 2.6193988e+2, -398813.25, -509238.9, -3778.2847, -0.000009076401, 0.0016966193, -398684.13, -25695.004, 0.0, 5.0141177, 4.943072 
3.7873662e+2, 2.6688337e+2, -349919.13, -459630.44, -3718.77, -0.000014421571, -0.0016259648, -349793.22, -25250.129, 0.0, 5.013843, 4.9432564 
3.7873355e+2, 2.7182513e+2, -306056.28, -421544.84, -3326.5308, -0.000009723539, 0.0017231618, -305960.53, -29846.727, 0.0, 5.0135727, 4.939363 
3.7873083e+2, 2.7676505e+2, -256771.3, -371149.44, -3241.113, -0.0000061788164, -0.0018905061, -256679.52, -28977.025, 0.0, 5.013309, 4.9398046 
3.7872836e+2, 2.817033e+2, -213003.02, -333496.9, -2787.8972, -0.000008403443, 0.0022236286, -212938.53, -33630.98, 0.0, 5.01305, 4.9357185 
3.7872624e+2, 2.8663972e+2, -163392.2, -282461.9, -2669.747, -0.000017447624, -0.0025716422, -163332.38, -32401.463, 0.0, 5.0127993, 4.9363666 
3.7872446e+2, 2.915739e+2, -121076.55, -248423.98, -2158.5234, -0.00000940455, 0.0017517791, -121039.97, -38464.457, 0.0, 5.0125537, 4.9309545 
3.7872308e+2, 2.965058e+2, -71368.82, -197293.94, -2005.3284, 0.000010368299, -0.00041510424, -71336.9, -37093.836, 0.0, 5.012317, 4.9316125 
3.78722e+2, 3.0144468e+2, -30728.766, -134138.36, -1437.5099, -0.000010241366, 0.0022254798, -30708.787, -30708.787, 0.0, 5.0120864, 4.945543 
3.787215e+2, 3.0639085e+2, -30139.025, -131621.19, -1246.0173, -0.000040646948, -0.0053129806, -30123.729, -30123.729, 0.0, 5.011867, 4.946542 
3.787213e+2, 3.1135452e+2, 7997.1177, -41145.684, -582.2645, 0.000014399402, 0.004061749, 8004.0156, 8004.0156, 0.0, 5.0116553, 4.979757 
3.7872174e+2, 3.1633538e+2, 9255.935, -37174.797, -344.4213, -0.000027864598, -0.0009460503, 9258.489, 9258.489, 0.0, 5.0114565, 4.9813075 
3.8385144e+2, 1.22846976e+2, -1688770.9, -1739118.4, -347.4048, 0.0000056791587, 0.0010008875, -1688768.5, 47331.21, 0.0, 5.0220876, 4.989239 
3.8385132e+2, 1.2783569e+2, -1642057.6, -1693661.1, -444.4976, -0.00008471366, -0.0032956158, -1642053.9, 45156.496, 0.0, 5.0218697, 4.9882083 
3.8385075e+2, 1.328232e+2, -1597172.1, -1651903.4, -1226.3024, 0.000026589238, 0.003578019, -1597144.8, 41187.996, 0.0, 5.0216417, 4.9858727 
3.838497e+2, 1.3780881e+2, -1549964.0, -1605397.5, -1311.7123, -0.0000211311, -0.0012794905, -1549933.0, 39540.84, 0.0, 5.0214033, 4.985183 
3.8384822e+2, 1.4279293e+2, -1505342.3, -1564201.9, -1991.0808, -0.000058525507, 0.00027374222, -1505275.0, 35354.418, 0.0, 5.0211563, 4.9826984 
3.8384634e+2, 1.4777577e+2, -1457978.5, -1517350.1, -2070.9612, -0.000044667766, -0.0009474011, -1457906.4, 33891.08, 0.0, 5.0209002, 4.9821224 
3.838441e+2, 1.5275693e+2, -1413418.1, -1476309.8, -2663.537, -0.0000109943185, 0.0013160444, -1413305.5, 29676.611, 0.0, 5.020637, 4.9796004 
3.838415e+2, 1.5773655e+2, -1366022.8, -1429378.0, -2732.5002, -0.00003538013, -0.0013105922, -1365905.1, 28276.637, 0.0, 5.020366, 4.9790435 
3.838386e+2, 1.6271463e+2, -1321499.6, -1388446.6, -3240.225, -0.00003821803, 0.0012617796, -1321343.3, 24053.41, 0.0, 5.020089, 4.976465 
3.8383538e+2, 1.6769114e+2, -1274012.5, -1341316.3, -3298.3608, -0.000045536253, -0.0011769762, -1273851.3, 22775.557, 0.0, 5.019806, 4.9759636 
3.8383195e+2, 1.7266612e+2, -1229534.0, -1300525.6, -3721.304, -0.000018907123, 0.0011536385, -1229339.5, 18532.576, 0.0, 5.0195174, 4.9733157 
3.8382822e+2, 1.776395e+2, -1181976.0, -1253252.3, -3768.511, -0.00003463076, -0.0012078759, -1181777.4, 17355.53, 0.0, 5.019223, 4.972851 
3.838243e+2, 1.8261136e+2, -1137519.3, -1212566.3, -4106.9634, -0.00003394076, 0.0012573858, -1137295.1, 13113.609, 0.0, 5.0189257, 4.9701486 
3.8382015e+2, 1.8758155e+2, -1089895.1, -1165167.4, -4144.3804, -0.000028683433, -0.0012966512, -1089667.6, 12033.068, 0.0, 5.018623, 4.969713 
3.8381588e+2, 1.9255027e+2, -1045466.4, -1124609.5, -4392.6665, -0.00002809903, 0.0013167518, -1045223.3, 7784.0493, 0.0, 5.018317, 4.9669414 
3.838115e+2, 1.9751729e+2, -997758.75, -1077063.9, -4426.609, -0.000024854702, -0.0013015214, -997512.44, 6818.1606, 0.0, 5.0180087, 4.9665413 
3.8380697e+2, 2.0248276e+2, -953469.3, -1036894.75, -4588.8535, -0.000026362099, 0.0013156635, -953217.6, 2451.3433, 0.0, 5.0176983, 4.9636154 
3.8380238e+2, 2.0744646e+2, -905700.25, -989254.3, -4600.449, -0.000022134858, -0.0013352336, -905447.7, 1577.108, 0.0, 5.017386, 4.963232 
3.8379776e+2, 2.1240865e+2, -861266.3, -948871.06, -4680.2603, -0.000021053676, 0.0013825368, -861016.94, -2621.727, 0.0, 5.0170717, 4.9603496 
3.8379306e+2, 2.1736908e+2, -813422.1, -901107.0, -4688.9395, -0.000022475144, -0.0014192163, -813172.06, -3389.0845, 0.0, 5.016755, 4.959994 
3.8378838e+2, 2.2232804e+2, -768996.4, -860848.8, -4681.2554, -0.000015842556, 0.0014316939, -768758.4, -7573.1025, 0.0, 5.016439, 4.957041 
3.8378373e+2, 2.2728519e+2, -721076.9, -812984.25, -4681.6553, -0.000018614377, -0.0013788595, -720839.06, -8233.797, 0.0, 5.0161233, 4.9567018 
3.837791e+2, 2.3224081e+2, -676643.9, -772840.0, -4588.2183, -0.000014922331, 0.0014756557, -676425.5, -12385.403, 0.0, 5.015809, 4.9536815 
3.8377458e+2, 2.371946e+2, -628623.75, -724825.94, -4579.0947, -0.000015938702, -0.0016407364, -628406.25, -12913.3125, 0.0, 5.015496, 4.9533753 
3.8377014e+2, 2.4214688e+2, -584199.25, -684842.3, -4401.3486, -0.00001072437, 0.0017202924, -584007.2, -17046.643, 0.0, 5.015184, 4.950265 
3.8376585e+2, 2.4709728e+2, -536050.06, -636623.75, -4380.105, -0.000016639831, -0.0016723421, -535859.7, -17413.04, 0.0, 5.014875, 4.9500103 
3.8376164e+2, 2.5204614e+2, -491728.94, -597031.5, -4121.9795, -0.0000059643694, 0.0016949547, -491567.8, -21619.902, 0.0, 5.0145693, 4.9467325 
3.8375768e+2, 2.5699311e+2, -443277.25, -548226.56, -4084.5737, -0.000014732649, -0.0017087733, -443118.53, -21650.896, 0.0, 5.0142665, 4.946663 
3.8375387e+2, 2.6193848e+2, -399182.53, -509319.28, -3752.2578, -0.000005003673, 0.0017008431, -399054.84, -26051.814, 0.0, 5.013968, 4.94311 
3.8375035e+2, 2.66882e+2, -350340.2, -459730.84, -3691.9316, -0.000009419874, -0.0016213735, -350215.72, -25659.102, 0.0, 5.013674, 4.943296 
3.83747e+2, 2.718238e+2, -306520.5, -421644.56, -3290.779, -0.0000065600184, 0.0017266389, -306426.5, -30299.594, 0.0, 5.013384, 4.939411 
3.8374403e+2, 2.7676377e+2, -257286.27, -371268.28, -3203.8145, -0.000003017073, -0.0018877749, -257196.28, -29481.164, 0.0, 5.013101, 4.9398537 
3.8374126e+2, 2.817021e+2, -213560.06, -333614.2, -2740.1804, -0.000003045423, 0.002227808, -213497.56, -34177.895, 0.0, 5.0128226, 4.9357758 
3.8373893e+2, 2.8663853e+2, -163999.05, -282597.16, -2619.7373, -0.000010587689, -0.0025688629, -163941.2, -32998.766, 0.0, 5.0125523, 4.936425 
3.8373685e+2, 2.915728e+2, -121726.805, -248561.84, -2096.7163, -0.000003579488, 0.0017529348, -121692.16, -39105.727, 0.0, 5.0122876, 4.9310203 
3.8373527e+2, 2.9650477e+2, -72067.516, -197448.9, -1940.6439, 0.000013169371, -0.0004073996, -72037.484, -37784.17, 0.0, 5.0120316, 4.9316797 
3.8373393e+2, 3.014437e+2, -31465.252, -134289.03, -1362.127, -0.000005093408, 0.0022291967, -31447.21, -31447.21, 0.0, 5.011782, 4.9456186 
3.8373318e+2, 3.0638996e+2, -30922.592, -131787.8, -1167.0398, -0.000023448694, -0.005318994, -30909.09, -30909.09, 0.0, 5.0115447, 4.9466195 
3.8373277e+2, 3.113537e+2, 7182.65, -41303.18, -491.64233, 0.000018627645, 0.004071315, 7187.635, 7187.635, 0.0, 5.011315, 4.9798446 
3.83733e+2, 3.1633466e+2, 8399.594, -37346.668, -249.53294, -0.000006488306, -0.0009474275, 8400.955, 8400.955, 0.0, 5.0111, 4.9813967 
3.8887355e+2, 1.22846626e+2, -1688872.0, -1739400.5, -464.06717, 0.0000043428217, 0.0010058419, -1688867.8, 47235.406, 0.0, 5.0221043, 4.9891386 
3.888732e+2, 1.2783523e+2, -1642163.0, -1693943.5, -560.29083, -0.000091143615, -0.00329643, -1642156.9, 45057.844, 0.0, 5.021884, 4.9881086 
3.888724e+2, 1.3282265e+2, -1597270.9, -1652162.0, -1357.576, 0.000028890066, 0.0035863698, -1597237.4, 41100.727, 0.0, 5.0216537, 4.9857817 
3.888711e+2, 1.3780817e+2, -1550067.4, -1605655.6, -1442.4784, -0.000020355292, -0.0012737433, -1550030.0, 39450.07, 0.0, 5.021413, 4.9850926 
3.8886937e+2, 1.4279221e+2, -1505439.0, -1564436.3, -2135.017, -0.00006484985, 0.00027541522, -1505361.9, 35274.56, 0.0, 5.0211635, 4.9826174 
3.8886726e+2, 1.4777498e+2, -1458080.0, -1517584.3, -2214.6787, -0.000047316455, -0.0009436574, -1457997.8, 33807.594, 0.0, 5.020905, 4.9820423 
3.8886476e+2, 1.5275607e+2, -1413513.1, -1476520.3, -2818.5078, -0.000010813544, 0.0013215912, -1413387.4, 29603.36, 0.0, 5.0206394, 4.979529 
3.8886186e+2, 1.5773562e+2, -1366122.3, -1429588.0, -2887.3132, -0.000038979415, -0.0013061468, -1365991.3, 28199.838, 0.0, 5.0203667, 4.978973 
3.888587e+2, 1.6271362e+2, -1321592.1, -1388632.3, -3404.847, -0.00004034226, 0.0012651224, -1321419.6, 23986.957, 0.0, 5.0200877, 4.976404 
3.888552e+2, 1.6769008e+2, -1274109.3, -1341501.9, -3462.584, -0.000047382673, -0.0011731493, -1273931.8, 22705.494, 0.0, 5.0198016, 4.975903 
3.8885143e+2, 1.7266499e+2, -1229623.1, -1300685.4, -3893.9321, -0.00002166916, 0.0011582216, -1229410.4, 18472.846, 0.0, 5.019511, 4.973265 
3.8884744e+2, 1.7763832e+2, -1182069.8, -1253412.6, -3940.847, -0.000037348327, -0.0012041962, -1181852.8, 17291.773, 0.0, 5.019215, 4.9728007 
3.888432e+2, 1.8261012e+2, -1137604.6, -1212701.3, -4286.229, -0.00003589971, 0.0012612059, -1137360.8, 13060.002, 0.0, 5.0189157, 4.9701076 
3.8883877e+2, 1.8758029e+2, -1089983.4, -1165301.9, -4324.2793, -0.00003276462, -0.0012932874, -1089735.9, 11977.228, 0.0, 5.0186114, 4.969673 
3.8883424e+2, 1.9254896e+2, -1045559.44, -1124745.6, -4576.042, -0.000030631178, 0.0013205102, -1045295.9, 7724.3276, 0.0, 5.018304, 4.9669013 
3.888295e+2, 1.9751595e+2, -997857.2, -1077200.9, -4608.6475, -0.000028226184, -0.001298777, -997590.4, 6753.441, 0.0, 5.0179935, 4.966502 
3.8882467e+2, 2.0248139e+2, -953540.3, -1036961.8, -4774.394, -0.000029385095, 0.0013195772, -953267.94, 2414.4973, 0.0, 5.0176806, 4.963601 
3.8881975e+2, 2.0744507e+2, -905777.44, -989323.8, -4786.757, -0.000029116445, -0.0013314296, -905504.1, 1534.3042, 0.0, 5.0173655, 4.963218 
3.888148e+2, 2.1240726e+2, -861344.9, -948934.94, -4870.6187, -0.000022611639, 0.0013847387, -861074.9, -2665.8997, 0.0, 5.01705, 4.960338 
3.888098e+2, 2.1736768e+2, -813503.9, -901171.8, -4879.082, -0.000024882404, -0.0014162951, -813233.2, -3436.3513, 0.0, 5.0167317, 4.9599824 
3.8880485e+2, 2.2232662e+2, -769069.25, -860886.9, -4870.627, -0.000022239412, 0.0014350454, -768811.6, -7612.4194, 0.0, 5.016414, 4.9570394 
3.8879985e+2, 2.2728376e+2, -721154.06, -813023.1, -4870.944, -0.0000221684, -0.0013766099, -720896.5, -8277.376, 0.0, 5.0160966, 4.956701 
3.8879493e+2, 2.322394e+2, -676713.25, -772853.1, -4775.7803, -0.000017994182, 0.0014785207, -676476.56, -12422.611, 0.0, 5.0157804, 4.95369 
3.8879007e+2, 2.371932e+2, -628696.75, -724838.56, -4766.659, -0.000020802941, -0.001637588, -628461.0, -12954.277, 0.0, 5.0154653, 4.953385 
3.887853e+2, 2.421455e+2, -584265.44, -684830.9, -4585.7017, -0.000014176528, 0.0017226315, -584056.75, -17082.586, 0.0, 5.015152, 4.9502835 
3.887807e+2, 2.4709591e+2, -536119.7, -636611.44, -4564.3726, -0.00001919094, -0.0016704581, -535912.75, -17452.693, 0.0, 5.0148416, 4.95003 
3.887762e+2, 2.520448e+2, -491792.03, -596995.6, -4301.1436, -0.000010446128, 0.0016985026, -491616.47, -21655.318, 0.0, 5.014534, 4.946761 
3.8877195e+2, 2.569918e+2, -443343.75, -548189.7, -4263.8633, -0.00001887871, -0.0017063943, -443170.63, -21690.078, 0.0, 5.0142293, 4.946693 
3.8876784e+2, 2.619372e+2, -399242.94, -509259.47, -3924.9463, -0.000008445832, 0.0017029606, -399103.1, -26087.469, 0.0, 5.013929, 4.9431486 
3.88764e+2, 2.6688075e+2, -350404.2, -459670.16, -3864.288, -0.000011629057, -0.0016172318, -350267.7, -25698.867, 0.0, 5.013633, 4.9433355 
3.8876042e+2, 2.7182257e+2, -306578.8, -421561.28, -3455.3176, -0.00001095848, 0.0017293486, -306475.06, -30336.377, 0.0, 5.0133414, 4.9394593 
3.887571e+2, 2.767626e+2, -257348.36, -371184.03, -3367.4368, -0.000008759235, -0.00188649, -257248.84, -29522.412, 0.0, 5.0130563, 4.939903 
3.887541e+2, 2.81701e+2, -213616.8, -333507.6, -2894.7166, -0.000007003502, 0.0022320626, -213546.95, -34216.51, 0.0, 5.012776, 4.935834 
3.8875148e+2, 2.8663749e+2, -164059.38, -282489.13, -2772.8306, -0.000012833776, -0.002565275, -163994.48, -33041.855, 0.0, 5.012504, 4.936485 
3.8874912e+2, 2.9157183e+2, -121783.84, -248435.7, -2239.6675, -0.000007783193, 0.001753648, -121744.25, -39148.234, 0.0, 5.012237, 4.931087 
3.8874727e+2, 2.9650384e+2, -72128.65, -197321.52, -2081.8633, 0.0000039700326, -0.00040036123, -72094.04, -37831.81, 0.0, 5.0119796, 4.931748 
3.887457e+2, 3.0144283e+2, -31522.047, -134140.48, -1492.3842, -0.000011902372, 0.0022328566, -31500.348, -31500.348, 0.0, 5.0117273, 4.945696 
3.887447e+2, 3.0638918e+2, -30983.41, -131636.63, -1294.8522, -0.000018129615, -0.0053242124, -30966.754, -30966.754, 0.0, 5.0114875, 4.9466987 
3.8874406e+2, 3.1135303e+2, 7125.5884, -41131.113, -605.40674, 0.0000025025677, 0.0040807533, 7133.1826, 7133.1826, 0.0, 5.0112553, 4.9799337 
3.887441e+2, 3.1633407e+2, 8333.569, -37174.88, -360.0345, -0.000021117761, -0.0009437, 8336.418, 8336.418, 0.0, 5.011036, 4.9814873 
3.9389583e+2, 1.2284655e+2, -1687805.5, -1739105.9, -355.02927, 0.000010093246, 0.0010143158, -1687803.0, 48300.832, 0.0, 5.022509, 4.9890366 
3.938953e+2, 1.2783505e+2, -1641154.5, -1693676.9, -453.7635, -0.000094075534, -0.0032954393, -1641150.6, 46065.95, 0.0, 5.0222697, 4.9880075 
3.9389423e+2, 1.3282238e+2, -1596307.9, -1651899.1, -1268.612, 0.0000355178, 0.003597547, -1596279.0, 42061.793, 0.0, 5.0220203, 4.9856896 
3.938927e+2, 1.378078e+2, -1549161.6, -1605419.5, -1355.7852, -0.000015431977, -0.0012659588, -1549129.0, 40354.684, 0.0, 5.021761, 4.9850016 
3.938907e+2, 1.4279175e+2, -1504579.6, -1564203.9, -2063.053, -0.00006657138, 0.00027795843, -1504508.4, 36132.55, 0.0, 5.021492, 4.9825354 
3.938883e+2, 1.4777444e+2, -1457278.3, -1517378.8, -2144.6035, -0.000045271063, -0.0009382495, -1457201.9, 34608.67, 0.0, 5.0212145, 4.9819613 
3.9388552e+2, 1.5275545e+2, -1412756.8, -1476317.5, -2761.2063, -0.0000058634164, 0.001328893, -1412637.0, 30359.69, 0.0, 5.02093, 4.979457 
3.938824e+2, 1.5773493e+2, -1365424.1, -1429412.5, -2831.5625, -0.00003786165, -0.0013008988, -1365299.0, 28898.768, 0.0, 5.0206375, 4.978902 
3.938789e+2, 1.6271286e+2, -1320939.8, -1388458.8, -3360.061, -0.000037962498, 0.0012695059, -1320773.0, 24641.006, 0.0, 5.020339, 4.976342 
3.9387512e+2, 1.6768925e+2, -1273515.6, -1341356.0, -3418.7192, -0.000045076715, -0.001168865, -1273343.8, 23301.521, 0.0, 5.0200334, 4.975842 
3.9387107e+2, 1.726641e+2, -1229074.0, -1300540.5, -3859.3066, -0.0000204209, 0.0011632026, -1228866.3, 19025.479, 0.0, 5.0197234, 4.973213 
3.9386672e+2, 1.776374e+2, -1181578.6, -1253294.6, -3907.592, -0.000035930283, -0.0012003954, -1181366.4, 17787.172, 0.0, 5.0194077, 4.9727497 
3.9386222e+2, 1.8260916e+2, -1137159.5, -1212585.3, -4259.576, -0.000033033273, 0.0012650031, -1136919.8, 13510.525, 0.0, 5.0190883, 4.9700656 
3.9385748e+2, 1.8757929e+2, -1089593.5, -1165211.8, -4298.8784, -0.000031523563, -0.0012887775, -1089349.9, 12373.131, 0.0, 5.0187654, 4.9696317 
3.9385256e+2, 1.9254792e+2, -1045218.0, -1124664.0, -4555.002, -0.000027792914, 0.0013234944, -1044957.7, 8072.749, 0.0, 5.018438, 4.9668665 
3.9384753e+2, 1.9751486e+2, -997579.4, -1077150.5, -4584.134, -0.000026569613, -0.0012964407, -997316.2, 7038.269, 0.0, 5.018106, 4.966467 
3.938424e+2, 2.0248027e+2, -953301.3, -1036893.25, -4753.9824, -0.00002617557, 0.0013246348, -953031.8, 2661.4968, 0.0, 5.017772, 4.963582 
3.9383715e+2, 2.0744394e+2, -905600.6, -989284.1, -4769.962, -0.000027664262, -0.0013273456, -905329.6, 1719.8257, 0.0, 5.0174356, 4.963199 
3.9383188e+2, 2.1240611e+2, -861217.6, -948900.56, -4856.174, -0.00001894513, 0.0013871321, -860949.5, -2529.3386, 0.0, 5.017099, 4.960327 
3.9382657e+2, 2.1736652e+2, -813430.6, -901162.4, -4863.8374, -0.000022504706, -0.001412593, -813161.8, -3353.6753, 0.0, 5.0167623, 4.959972 
3.9382124e+2, 2.2232546e+2, -769039.1, -860876.0, -4855.038, -0.000019206793, 0.0014391969, -768783.2, -7572.6475, 0.0, 5.016425, 4.9570384 
3.938159e+2, 2.2728261e+2, -721182.0, -813038.2, -4855.0547, -0.00001922757, -0.001374002, -720926.06, -8295.541, 0.0, 5.016087, 4.9567 
3.9381066e+2, 2.3223823e+2, -676786.94, -772867.3, -4757.441, -0.000014680215, 0.0014824586, -676551.94, -12486.629, 0.0, 5.0157504, 4.9536986 
3.9380547e+2, 2.3719205e+2, -628827.2, -724876.75, -4748.0493, -0.000018379282, -0.001633176, -628593.06, -13075.047, 0.0, 5.0154147, 4.9533944 
3.938004e+2, 2.4214436e+2, -584440.94, -684868.4, -4563.032, -0.000011095225, 0.0017251354, -584234.06, -17248.764, 0.0, 5.015081, 4.9503026 
3.9379546e+2, 2.4709481e+2, -536350.75, -636671.8, -4541.3315, -0.000014157889, -0.0016674651, -536145.56, -17674.6, 0.0, 5.01475, 4.95005 
3.937907e+2, 2.520437e+2, -492069.2, -597055.8, -4272.283, -0.000007988914, 0.0017024822, -491895.6, -21923.785, 0.0, 5.0144215, 4.94679 
3.937861e+2, 2.5699073e+2, -443675.28, -548271.5, -4234.4785, -0.000015903028, -0.0017040148, -443504.13, -22013.191, 0.0, 5.014097, 4.946723 
3.937817e+2, 2.6193616e+2, -399619.16, -509340.56, -3887.8782, -0.000004195456, 0.0017054804, -399481.56, -26455.885, 0.0, 5.0137763, 4.9431877 
3.9377755e+2, 2.6687977e+2, -350834.47, -459772.6, -3826.355, -0.000006289451, -0.0016133011, -350700.25, -26121.764, 0.0, 5.01346, 4.9433756 
3.9377362e+2, 2.7182165e+2, -307053.78, -421662.78, -3408.2703, -0.0000072249504, 0.0017310237, -306952.53, -30804.602, 0.0, 5.013148, 4.9395084 
3.9377004e+2, 2.767617e+2, -257876.48, -371305.88, -3318.7385, -0.0000047895255, -0.0018862361, -257779.47, -30044.314, 0.0, 5.0128427, 4.9399533 
3.9376673e+2, 2.8170013e+2, -214188.94, -333628.0, -2835.4424, -0.0000010140861, 0.0022346415, -214121.67, -34783.035, 0.0, 5.0125422, 4.935893 
3.937638e+2, 2.866367e+2, -164683.58, -282628.56, -2711.2656, -0.000005238403, -0.0025628998, -164621.3, -33661.066, 0.0, 5.01225, 4.9365454 
3.937612e+2, 2.9157114e+2, -122452.836, -248576.56, -2166.1067, -0.0000015551141, 0.0017525211, -122415.65, -39812.652, 0.0, 5.0119634, 4.931155 
3.937591e+2, 2.9650322e+2, -72848.086, -197480.13, -2005.4071, 0.000006454462, -0.00039662723, -72815.82, -38547.3, 0.0, 5.0116854, 4.9318175 
3.9375725e+2, 3.014423e+2, -32281.428, -134295.31, -1405.498, -0.000004785423, 0.0022342447, -32262.066, -32262.066, 0.0, 5.0114136, 4.945774 
3.93756e+2, 3.063887e+2, -31793.1, -131809.14, -1204.1129, 0.0000012430261, -0.005328299, -31778.605, -31778.605, 0.0, 5.0111547, 4.9467793 
3.9375514e+2, 3.1135264e+2, 6282.478, -41295.17, -503.5999, 0.000004049267, 0.004084781, 6287.8076, 6287.8076, 0.0, 5.010903, 4.980024 
3.937549e+2, 3.1633377e+2, 7446.106, -37355.883, -253.54608, 0.00000444042, -0.00094636605, 7447.541, 7447.541, 0.0, 5.010667, 4.9815784 
3.9891836e+2, 1.2284663e+2, -1687909.0, -1739396.6, -481.9968, 0.000008078678, 0.001020074, -1687904.5, 48198.56, 0.0, 5.022526, 4.988933 
3.9891756e+2, 1.2783504e+2, -1641261.6, -1693966.5, -579.9915, -0.00010179904, -0.0032968586, -1641255.3, 45961.465, 0.0, 5.022285, 4.987905 
3.9891627e+2, 1.3282226e+2, -1596408.8, -1652165.1, -1410.3838, 0.000038246686, 0.0036076028, -1596373.0, 41968.863, 0.0, 5.022033, 4.9855957 
3.9891446e+2, 1.378076e+2, -1549267.0, -1605684.4, -1497.3253, -0.000015109616, -0.0012591229, -1549227.3, 40258.44, 0.0, 5.021771, 4.984909 
3.989122e+2, 1.4279145e+2, -1504678.4, -1564444.6, -2217.7083, -0.00007240555, 0.00027896647, -1504596.3, 36047.6, 0.0, 5.0214996, 4.982452 
3.989095e+2, 1.4777407e+2, -1457382.0, -1517619.1, -2298.94, -0.000047521222, -0.00093400886, -1457294.4, 34519.957, 0.0, 5.0212197, 4.981879 
3.9890647e+2, 1.5275498e+2, -1412853.9, -1476533.5, -2927.0654, -0.000005923389, 0.0013353236, -1412719.6, 30281.64, 0.0, 5.0209327, 4.979384 
3.98903e+2, 1.577344e+2, -1365525.9, -1429628.3, -2997.244, -0.000041299005, -0.0012968088, -1365386.1, 28816.92, 0.0, 5.020638, 4.97883 
3.9889923e+2, 1.6271226e+2, -1321034.1, -1388649.3, -3535.7231, -0.000039466733, 0.0012735421, -1320849.8, 24570.055, 0.0, 5.020337, 4.9762793 
3.9889514e+2, 1.676886e+2, -1273614.8, -1341546.8, -3593.8298, -0.000046391706, -0.0011651316, -1273425.1, 23226.605, 0.0, 5.0200295, 4.97578 
3.9889076e+2, 1.7266339e+2, -1229165.8, -1300706.3, -4042.5962, -0.00002295646, 0.0011679103, -1228938.1, 18960.682, 0.0, 5.0197177, 4.9731607 
3.9888614e+2, 1.7763662e+2, -1181674.8, -1253460.6, -4091.1414, -0.000038963488, -0.0011970381, -1181442.3, 17718.793, 0.0, 5.0193996, 4.9726977 
3.988813e+2, 1.8260834e+2, -1137248.5, -1212726.5, -4448.5176, -0.00003438815, 0.0012682411, -1136987.3, 13451.06, 0.0, 5.0190783, 4.970023 
3.9887622e+2, 1.8757842e+2, -1089687.8, -1165353.9, -4487.528, -0.000034819437, -0.001283389, -1089422.6, 12308.889, 0.0, 5.0187526, 4.9695897 
3.98871e+2, 1.9254701e+2, -1045305.75, -1124782.8, -4750.5923, -0.000030317971, 0.0013259286, -1045022.75, 8016.5044, 0.0, 5.0184236, 4.966833 
3.9886564e+2, 1.9751392e+2, -997672.9, -1077273.4, -4778.9995, -0.000030950698, -0.0012952443, -997387.0, 6976.608, 0.0, 5.01809, 4.966433 
3.9886016e+2, 2.024793e+2, -953382.1, -1036980.44, -4952.8022, -0.000028814646, 0.0013293858, -953089.7, 2613.0254, 0.0, 5.017754, 4.9635606 
3.988546e+2, 2.0744295e+2, -905685.9, -989372.3, -4969.037, -0.000030551404, -0.0013242402, -905391.9, 1667.2177, 0.0, 5.017416, 4.9631786 
3.9884898e+2, 2.124051e+2, -861294.6, -948961.75, -5055.667, -0.000022949736, 0.0013885796, -861004.06, -2574.1016, 0.0, 5.017077, 4.9603167 
3.9884332e+2, 2.173655e+2, -813512.94, -901225.4, -5063.456, -0.000028666114, -0.001409908, -813221.56, -3403.5623, 0.0, 5.0167384, 4.9599614 
3.9883766e+2, 2.2232445e+2, -769114.2, -860914.25, -5055.826, -0.000020562442, 0.0014418501, -768836.6, -7616.125, 0.0, 5.0163994, 4.9570374 
3.98832e+2, 2.2728159e+2, -721261.06, -813077.1, -5055.956, -0.000023469793, -0.0013733801, -720983.5, -8343.011, 0.0, 5.0160594, 4.9566994 
3.9882642e+2, 2.3223723e+2, -676858.2, -772880.56, -4956.565, -0.000018657405, 0.0014851716, -676603.06, -12527.825, 0.0, 5.015721, 4.9537077 
3.988209e+2, 2.3719104e+2, -628902.1, -724889.56, -4947.1636, -0.00002228343, -0.0016298845, -628647.8, -13120.048, 0.0, 5.0153837, 4.9534044 
3.9881548e+2, 2.4214338e+2, -584508.8, -684856.56, -4758.8115, -0.000015223215, 0.0017255306, -584283.6, -17288.67, 0.0, 5.015048, 4.9503217 
3.988102e+2, 2.4709383e+2, -536422.2, -636659.4, -4737.1494, -0.000015606294, -0.0016656229, -536198.8, -17718.377, 0.0, 5.014715, 4.95007 
3.988051e+2, 2.5204274e+2, -492133.84, -597019.06, -4463.2773, -0.0000128282, 0.0017050921, -491944.25, -21963.213, 0.0, 5.014385, 4.94682 
3.9880016e+2, 2.569898e+2, -443743.47, -548233.7, -4425.3296, -0.000020222065, -0.0017031544, -443556.38, -22056.51, 0.0, 5.0140586, 4.9467535 
3.9879543e+2, 2.6193526e+2, -399680.94, -509278.9, -4072.2422, -0.0000070162446, 0.001707444, -399529.84, -26495.594, 0.0, 5.013736, 4.9432273 
3.98791e+2, 2.668789e+2, -350900.1, -459710.44, -4010.48, -0.000008587657, -0.0016097231, -350752.47, -26165.814, 0.0, 5.013418, 4.943416 
3.9878678e+2, 2.7182087e+2, -307113.3, -421576.9, -3584.6274, -0.0000116505125, 0.0017323842, -307001.16, -30845.484, 0.0, 5.0131044, 4.939558 
3.987829e+2, 2.76761e+2, -257940.03, -371219.4, -3494.1763, -0.00000956382, -0.0018854601, -257832.34, -30089.943, 0.0, 5.012797, 4.940004 
3.9877927e+2, 2.8169945e+2, -214246.78, -333518.22, -3001.835, -0.000005093251, 0.0022380457, -214171.28, -34825.93, 0.0, 5.0124946, 4.9359527 
3.9877608e+2, 2.8663608e+2, -164745.17, -282517.63, -2876.2817, -0.000007491118, -0.002559035, -164674.97, -33708.633, 0.0, 5.0122004, 4.9366064 
3.9877316e+2, 2.9157054e+2, -122510.21, -248445.3, -2320.9465, -0.0000056692666, 0.001752804, -122467.45, -39858.977, 0.0, 5.011912, 4.9312243 
3.9877078e+2, 2.965027e+2, -72909.414, -197347.33, -2158.6377, -0.0000030067363, -0.00039284583, -72871.98, -38598.664, 0.0, 5.011632, 4.931888 
3.9876866e+2, 3.0144188e+2, -32338.258, -134141.06, -1547.926, -0.000010009854, 0.0022370357, -32314.727, -32314.727, 0.0, 5.011358, 4.9458537 
3.9876717e+2, 3.0638838e+2, -31854.049, -131652.6, -1343.8326, 0.0000070460037, -0.005327508, -31835.957, -31835.957, 0.0, 5.0110965, 4.9468603 
3.98766e+2, 3.1135237e+2, 6225.3735, -41117.605, -629.3082, -0.00001559707, 0.0040885494, 6233.737, 6233.737, 0.0, 5.0108423, 4.980115 
3.987656e+2, 3.163336e+2, 7379.151, -37180.2, -375.68924, -0.000008583599, -0.00094200915, 7382.3184, 7382.3184, 0.0, 5.010602, 4.981671 
4.039411e+2, 1.2284701e+2, -1686794.3, -1739085.3, -361.77982, 0.000012891919, 0.0010277197, -1686791.8, 49307.55, 0.0, 5.0229483, 4.988828 
4.0394005e+2, 1.2783532e+2, -1640206.9, -1693682.9, -462.36993, -0.00010438321, -0.0032967199, -1640202.9, 47011.1, 0.0, 5.0226874, 4.9878016 
4.0393847e+2, 1.3282244e+2, -1595402.1, -1651886.8, -1310.1721, 0.000045264565, 0.0036187647, -1595371.8, 42968.43, 0.0, 5.022416, 4.985501 
4.0393642e+2, 1.3780767e+2, -1548320.0, -1605433.5, -1399.503, -0.000011021999, -0.0012522115, -1548285.8, 41199.168, 0.0, 5.022134, 4.984816 
4.0393388e+2, 1.4279145e+2, -1503779.6, -1564197.9, -2134.6577, -0.00007311014, 0.000280499, -1503704.3, 36939.625, 0.0, 5.021843, 4.982368 
4.039309e+2, 1.4777397e+2, -1456543.0, -1517400.4, -2217.7322, -0.000044864006, -0.0009287628, -1456462.3, 35352.938, 0.0, 5.021543, 4.981796 
4.0392756e+2, 1.5275483e+2, -1412062.0, -1476317.8, -2858.76, -0.0000006743639, 0.0013418981, -1411935.1, 31067.783, 0.0, 5.021236, 4.97931 
4.039238e+2, 1.5773414e+2, -1364794.5, -1429440.9, -2930.3596, -0.000039879735, -0.0012925377, -1364661.9, 29543.488, 0.0, 5.020921, 4.978757 
4.039197e+2, 1.6271196e+2, -1320349.9, -1388464.1, -3480.021, -0.000036365927, 0.0012775859, -1320172.6, 25250.295, 0.0, 5.0206, 4.976216 
4.039153e+2, 1.6768824e+2, -1272990.6, -1341389.8, -3539.1218, -0.000042566444, -0.0011607475, -1272808.0, 23847.42, 0.0, 5.020272, 4.9757175 
4.039106e+2, 1.7266296e+2, -1228589.0, -1300551.4, -3996.5615, -0.000021686068, 0.0011718079, -1228367.8, 19535.262, 0.0, 5.01994, 4.9731073 
4.0390563e+2, 1.7763613e+2, -1181158.0, -1253333.9, -4046.124, -0.00003724955, -0.0011944154, -1180931.9, 18233.94, 0.0, 5.019602, 4.9726453 
4.0390044e+2, 1.826078e+2, -1136778.6, -1212599.6, -4409.8574, -0.000030423276, 0.0012724011, -1136523.0, 13920.489, 0.0, 5.0192595, 4.9699807 
4.0389505e+2, 1.8757784e+2, -1089281.4, -1165258.3, -4448.6953, -0.000032940043, -0.0012801177, -1089021.8, 12715.384, 0.0, 5.018913, 4.9695473 
4.038895e+2, 1.925464e+2, -1044946.75, -1124688.3, -4718.534, -0.000026913247, 0.0013289106, -1044668.56, 8376.729, 0.0, 5.018563, 4.9668 
4.0388379e+2, 1.9751328e+2, -997374.25, -1077208.4, -4746.5176, -0.000029271057, -0.0012930403, -997093.06, 7276.8564, 0.0, 5.0182085, 4.9663997 
4.0387797e+2, 2.0247863e+2, -953128.25, -1036910.9, -4923.418, -0.00002517674, 0.0013325568, -952839.94, 2869.383, 0.0, 5.0178523, 4.963539 
4.0387204e+2, 2.0744225e+2, -905492.8, -989331.56, -4940.094, -0.000027333816, -0.0013206425, -905202.75, 1863.148, 0.0, 5.017493, 4.963157 
4.0386608e+2, 2.124044e+2, -861148.3, -948919.44, -5027.8926, -0.000019598496, 0.0013905121, -860861.25, -2424.329, 0.0, 5.017133, 4.9603057 
4.0386003e+2, 2.1736479e+2, -813428.8, -901211.8, -5036.1216, -0.000026926115, -0.0014072427, -813140.8, -3315.7412, 0.0, 5.0167727, 4.9599504 
4.0385407e+2, 2.2232372e+2, -769077.25, -860899.56, -5028.5645, -0.000015669833, 0.0014446459, -768802.7, -7575.0615, 0.0, 5.0164127, 4.9570365 
4.0384805e+2, 2.2728086e+2, -721282.94, -813088.7, -5028.573, -0.00002075755, -0.0013706294, -721008.4, -8360.753, 0.0, 5.016052, 4.956699 
4.0384212e+2, 2.3223649e+2, -676927.1, -772891.8, -4926.779, -0.000015048682, 0.0014874929, -676674.8, -12592.515, 0.0, 5.015692, 4.953717 
4.0383625e+2, 2.3719034e+2, -629029.4, -724925.7, -4917.113, -0.000018821444, -0.0016275895, -628777.9, -13243.11, 0.0, 5.0153337, 4.9534144 
4.038305e+2, 2.4214266e+2, -584683.3, -684892.5, -4724.666, -0.000011973201, 0.0017274014, -584461.06, -17459.248, 0.0, 5.0149775, 4.950341 
4.038249e+2, 2.4709316e+2, -536654.3, -636719.2, -4702.5444, -0.0000098013215, -0.001662997, -536433.8, -17946.678, 0.0, 5.014623, 4.9500904 
4.0381944e+2, 2.5204208e+2, -492413.2, -597078.5, -4422.699, -0.000010392029, 0.0017062727, -492226.63, -22239.168, 0.0, 5.0142717, 4.94685 
4.0381414e+2, 2.569892e+2, -444079.6, -548316.3, -4384.108, -0.000016843462, -0.0017021666, -443895.53, -22389.549, 0.0, 5.0139246, 4.9467845 
4.0380907e+2, 2.619347e+2, -400063.72, -509360.66, -4023.4043, -0.000002032137, 0.0017087738, -399915.8, -26875.793, 0.0, 5.0135803, 4.9432673 
4.0380433e+2, 2.6687837e+2, -351339.13, -459814.75, -3960.6257, -0.000002635018, -0.0016078886, -351194.72, -26602.676, 0.0, 5.0132413, 4.943457 
4.0379974e+2, 2.7182034e+2, -307598.6, -421680.03, -3525.5217, -0.0000074108293, 0.0017323096, -307489.75, -31329.156, 0.0, 5.0129066, 4.9396086 
4.0379557e+2, 2.7676052e+2, -258480.89, -371344.25, -3433.3042, -0.0000054978027, -0.0018863449, -258376.55, -30629.734, 0.0, 5.012578, 4.9400554 
4.0379164e+2, 2.8169906e+2, -214833.44, -333641.66, -2930.2246, 0.0000013478381, 0.0022378431, -214761.2, -35411.992, 0.0, 5.0122547, 4.9360137 
4.0378812e+2, 2.8663576e+2, -165386.25, -282661.28, -2802.427, 0.0000013413512, -0.0025578802, -165319.31, -34349.72, 0.0, 5.0119395, 4.9366684 
4.037849e+2, 2.915703e+2, -123197.42, -248588.95, -2234.868, 0.0000016628571, 0.0017504608, -123157.6, -40546.51, 0.0, 5.01163, 4.9312944 
4.0378222e+2, 2.9650253e+2, -73649.17, -197509.36, -2069.6023, -0.0000019436086, -0.00039444986, -73614.59, -39339.37, 0.0, 5.0113297, 4.93196 
4.0377983e+2, 3.0144173e+2, -33120.27, -134300.1, -1448.7587, -0.0000024101535, 0.0022354824, -33099.53, -33099.53, 0.0, 5.011035, 4.945935 
4.0377808e+2, 3.0638835e+2, -32689.41, -131830.8, -1240.5106, 0.000028601966, -0.005326085, -32673.89, -32673.89, 0.0, 5.0107527, 4.9469433 
4.0377665e+2, 3.1135246e+2, 5353.5776, -41288.81, -515.624, -0.000013255678, 0.0040839873, 5359.2773, 5359.2773, 0.0, 5.0104785, 4.9802074 
4.0377596e+2, 3.1633374e+2, 6460.1724, -37370.57, -256.97903, 0.000017728586, -0.00094559934, 6461.679, 6461.679, 0.0, 5.0102205, 4.981764 
4.0896404e+2, 1.2284758e+2, -1686899.9, -1739384.4, -499.4224, 0.000008843065, 0.0010329777, -1686895.1, 49198.65, 0.0, 5.0229664, 4.988721 
4.0896273e+2, 1.2783577e+2, -1640315.6, -1693979.4, -599.40393, -0.00011099474, -0.0032977029, -1640309.0, 46900.63, 0.0, 5.022703, 4.987696 
4.089609e+2, 1.328228e+2, -1595504.6, -1652159.5, -1462.7056, 0.00004751105, 0.0036288355, -1595466.9, 42869.805, 0.0, 5.022429, 4.9854045 
4.0895855e+2, 1.3780792e+2, -1548427.4, -1605705.3, -1552.0181, -0.000012085475, -0.0012464559, -1548385.4, 41097.03, 0.0, 5.0221443, 4.9847207 
4.0895572e+2, 1.4279161e+2, -1503880.3, -1564445.0, -2300.317, -0.00007761045, 0.00028165494, -1503793.0, 36849.254, 0.0, 5.021851, 4.982282 
4.0895244e+2, 1.4777404e+2, -1456648.5, -1517646.8, -2383.0295, -0.00004685067, -0.0009239805, -1456555.6, 35258.766, 0.0, 5.0215487, 4.9817114 
4.0894878e+2, 1.5275483e+2, -1412160.9, -1476538.9, -3035.687, -0.0000006138183, 0.0013472959, -1412018.0, 30984.805, 0.0, 5.0212393, 4.979235 
4.0894473e+2, 1.5773408e+2, -1364898.5, -1429662.3, -3107.02, -0.000043394197, -0.0012888006, -1364749.9, 29456.268, 0.0, 5.0209217, 4.978683 
4.0894032e+2, 1.6271183e+2, -1320446.8, -1388660.3, -3666.6956, -0.00003756107, 0.0012812547, -1320250.3, 25173.988, 0.0, 5.0205984, 4.9761515 
4.0893558e+2, 1.6768801e+2, -1273092.1, -1341585.6, -3725.2773, -0.000042263968, -0.0011559748, -1272890.1, 23767.29, 0.0, 5.020268, 4.9756536 
4.0893054e+2, 1.726627e+2, -1228683.0, -1300721.1, -4190.7603, -0.000025151186, 0.0011749183, -1228440.0, 19465.547, 0.0, 5.0199337, 4.9730535 
4.0892524e+2, 1.7763582e+2, -1181257.0, -1253504.5, -4240.2466, -0.000039701878, -0.0011923152, -1181009.0, 18159.912, 0.0, 5.0195932, 4.972592 
4.0891972e+2, 1.8260744e+2, -1136868.8, -1212741.6, -4610.5605, -0.000030915806, 0.0012777498, -1136589.6, 13857.428, 0.0, 5.019249, 4.969938 
4.0891397e+2, 1.8757744e+2, -1089378.4, -1165404.6, -4649.1777, -0.00003649833, -0.0012789683, -1089095.1, 12646.027, 0.0, 5.0189, 4.969504 
4.0890804e+2, 1.9254597e+2, -1045035.4, -1124807.4, -4925.156, -0.000028812141, 0.001332388, -1044732.44, 8317.187, 0.0, 5.018548, 4.966767 
4.08902e+2, 1.975128e+2, -997467.4, -1077328.3, -4952.656, -0.000032999385, -0.0012901878, -997161.4, 7213.2344, 0.0, 5.018192, 4.966367 
4.0889582e+2, 2.0247814e+2, -953211.9, -1037001.6, -5133.853, -0.000027480075, 0.0013338943, -952898.5, 2815.83, 0.0, 5.0178337, 4.963517 
4.0888953e+2, 2.0744173e+2, -905581.7, -989425.0, -5150.478, -0.00003118796, -0.0013174149, -905266.5, 1804.5953, 0.0, 5.0174723, 4.963135 
4.088832e+2, 2.1240385e+2, -861228.1, -948984.25, -5239.4653, -0.000022644941, 0.0013914915, -860916.44, -2474.1614, 0.0, 5.017111, 4.9602942 
4.0887684e+2, 2.1736422e+2, -813513.7, -901278.2, -5247.729, -0.000031038682, -0.0014061967, -813201.0, -3370.451, 0.0, 5.0167484, 4.959939 
4.0887046e+2, 2.2232315e+2, -769153.5, -860937.9, -5240.314, -0.000018429217, 0.0014460117, -768855.25, -7622.123, 0.0, 5.016386, 4.9570355 
4.088641e+2, 2.2728029e+2, -721363.5, -813127.7, -5240.7314, -0.000025159901, -0.001367638, -721065.2, -8412.043, 0.0, 5.0160236, 4.956699 
4.0885782e+2, 2.3223595e+2, -677000.06, -772905.25, -5137.4546, -0.000018023298, 0.0014873832, -676725.6, -12637.843, 0.0, 5.015662, 4.9537263 
4.088516e+2, 2.3718977e+2, -629106.25, -724939.0, -5127.8994, -0.00002245502, -0.0016280608, -628832.6, -13292.45, 0.0, 5.0153017, 4.9534245 
4.0884545e+2, 2.4214214e+2, -584752.8, -684880.3, -4932.2715, -0.000016102234, 0.0017295014, -584510.44, -17503.36, 0.0, 5.0149436, 4.950361 
4.088395e+2, 2.4709263e+2, -536727.44, -636706.3, -4910.193, -0.000011109821, -0.0016604522, -536486.9, -17994.713, 0.0, 5.014588, 4.9501114 
4.0883368e+2, 2.520416e+2, -492479.13, -597040.2, -4625.713, -0.000015060996, 0.0017055997, -492274.9, -22282.63, 0.0, 5.0142345, 4.94688 
4.0882805e+2, 2.5698873e+2, -444149.63, -548278.2, -4586.875, -0.000020713502, -0.0017010779, -443947.97, -22437.488, 0.0, 5.013885, 4.9468155 
4.0882266e+2, 2.6193425e+2, -400126.78, -509297.16, -4219.8994, -0.0000047138815, 0.0017101343, -399963.9, -26919.72, 0.0, 5.0135393, 4.9433084 
4.0881753e+2, 2.6687798e+2, -351406.2, -459751.03, -4156.863, -0.0000045112974, -0.001606235, -351246.94, -26651.158, 0.0, 5.013199, 4.943499 
4.0881264e+2, 2.7182e+2, -307659.16, -421591.5, -3714.1313, -0.0000114871245, 0.0017334108, -307538.2, -31374.322, 0.0, 5.0128617, 4.9396596 
4.0880814e+2, 2.7676025e+2, -258545.73, -371255.53, -3621.057, -0.000011171662, -0.0018852171, -258429.52, -30679.914, 0.0, 5.0125313, 4.9401073 
4.0880385e+2, 2.8169882e+2, -214892.27, -333528.84, -3108.9734, -0.0000021859107, 0.002239267, -214810.84, -35459.4, 0.0, 5.012206, 4.9360747 
4.0880004e+2, 2.8663558e+2, -165448.95, -282547.5, -2979.9514, 0.000000054626383, -0.0025538008, -165373.16, -34401.95, 0.0, 5.011889, 4.936731 
4.0879655e+2, 2.915702e+2, -123254.86, -248452.44, -2402.1892, -0.0000017126766, 0.0017516664, -123208.78, -40596.727, 0.0, 5.0115776, 4.931366 
4.0879354e+2, 2.965025e+2, -73710.42, -197371.0, -2235.4321, -0.000013466836, -0.00039479762, -73670.03, -39394.55, 0.0, 5.011275, 4.9320335 
4.0879086e+2, 3.014418e+2, -33176.99, -134140.2, -1603.992, -0.000007745006, 0.002236754, -33151.51, -33151.51, 0.0, 5.010978, 4.946017 
4.0878883e+2, 3.0638847e+2, -32750.256, -131668.72, -1392.7234, 0.000036008954, -0.005317076, -32730.65, -32730.65, 0.0, 5.010694, 4.947027 
4.087871e+2, 3.1135267e+2, 5296.407, -41106.465, -653.95776, -0.00003137314, 0.0040805885, 5305.622, 5305.622, 0.0, 5.010417, 4.9803014 
4.087862e+2, 3.1633407e+2, 6392.877, -37190.773, -391.24713, 0.0000016611618, -0.0009396026, 6396.389, 6396.389, 0.0, 5.0101547, 4.9818583 
4.1398725e+2, 1.22848466e+2, -1685736.4, -1739055.6, -367.52484, 0.0000127301555, 0.0010383382, -1685733.8, 50351.316, 0.0, 5.0234065, 4.988613 
4.1398567e+2, 1.2783654e+2, -1639214.0, -1693678.4, -470.16043, -0.00011268121, -0.0032957834, -1639210.0, 47991.992, 0.0, 5.023123, 4.9875903 
4.1398355e+2, 1.3282347e+2, -1594453.8, -1651865.0, -1350.7744, 0.000053345324, 0.0036360568, -1594422.0, 43908.008, 0.0, 5.022828, 4.985307 
4.139809e+2, 1.378085e+2, -1547438.4, -1605439.3, -1442.6599, -0.000008310811, -0.0012411415, -1547402.5, 42074.156, 0.0, 5.022523, 4.9846253 
4.1397774e+2, 1.427921e+2, -1502941.3, -1564183.5, -2205.6658, -0.00007668888, 0.00028323274, -1502861.9, 37775.57, 0.0, 5.0222087, 4.982196 
4.139742e+2, 1.4777446e+2, -1455771.5, -1517414.0, -2290.1553, -0.000043907803, -0.00091991294, -1455686.5, 36123.906, 0.0, 5.021886, 4.9816265 
4.1397017e+2, 1.5275514e+2, -1411332.8, -1476309.4, -2955.7734, 0.0000048929646, 0.0013520065, -1411198.6, 31801.08, 0.0, 5.0215554, 4.9791594 
4.139658e+2, 1.5773433e+2, -1364133.0, -1429462.4, -3028.4636, -0.000041572275, -0.0012853767, -1363992.9, 30210.781, 0.0, 5.0212173, 4.978608 
4.1396102e+2, 1.62712e+2, -1319730.1, -1388462.9, -3598.948, -0.00003352287, 0.0012842056, -1319542.3, 25880.262, 0.0, 5.020873, 4.976086 
4.1395596e+2, 1.6768813e+2, -1272437.6, -1341417.4, -3658.31, -0.00003694379, -0.0011531297, -1272244.1, 24412.184, 0.0, 5.0205216, 4.9755898 
4.139506e+2, 1.7266275e+2, -1228078.5, -1300555.1, -4132.7246, -0.000024420462, 0.0011778459, -1227843.6, 20061.416, 0.0, 5.020166, 4.972999 
4.1394496e+2, 1.7763582e+2, -1180716.1, -1253368.3, -4182.689, -0.000036748716, -0.001190109, -1180476.1, 18692.836, 0.0, 5.019804, 4.9725385 
4.1393906e+2, 1.826074e+2, -1136374.6, -1212604.9, -4560.097, -0.000026164258, 0.0012804075, -1136102.9, 14344.716, 0.0, 5.019439, 4.969895 
4.1393295e+2, 1.8757735e+2, -1088948.0, -1165300.0, -4599.362, -0.000034267225, -0.0012776824, -1088671.9, 13070.106, 0.0, 5.0190687, 4.96946 
4.1392666e+2, 1.9254582e+2, -1044653.8, -1124701.9, -4880.799, -0.000024348717, 0.0013346198, -1044357.3, 8693.607, 0.0, 5.0186954, 4.966734 
4.1392022e+2, 1.9751264e+2, -997148.8, -1077252.6, -4908.036, -0.000030366618, -0.0012878769, -996849.2, 7527.01, 0.0, 5.018317, 4.9663343 
4.139137e+2, 2.0247795e+2, -952942.2, -1036925.7, -5093.3477, -0.000023118248, 0.0013348155, -952634.44, 3081.7441, 0.0, 5.017937, 4.963495 
4.1390705e+2, 2.0744151e+2, -905374.94, -989379.5, -5109.7866, -0.000029128823, -0.0013153368, -905065.25, 2007.9219, 0.0, 5.0175548, 4.9631124 
4.1390032e+2, 2.1240363e+2, -861067.8, -948936.3, -5199.972, -0.000017958222, 0.0013926612, -860761.1, -2316.6301, 0.0, 5.017172, 4.9602823 
4.1389358e+2, 2.17364e+2, -813416.9, -901259.44, -5208.257, -0.000027024087, -0.0014048364, -813109.1, -3276.2183, 0.0, 5.0167875, 4.959928 
4.1388685e+2, 2.2232291e+2, -769106.2, -860918.7, -5199.9053, -0.000015107335, 0.0014475965, -768812.6, -7577.02, 0.0, 5.016403, 4.9570346 
4.138801e+2, 2.2728005e+2, -721377.94, -813136.25, -5200.6655, -0.000021448719, -0.0013660486, -721084.1, -8428.556, 0.0, 5.016019, 4.9566984 
4.1387343e+2, 2.322357e+2, -677062.9, -772913.4, -5095.1514, -0.000013473818, 0.0014881061, -676792.8, -12702.593, 0.0, 5.0156355, 4.953736 
4.1386685e+2, 2.3718955e+2, -629229.4, -724973.0, -5085.4424, -0.000018596182, -0.001627706, -628960.0, -13417.54, 0.0, 5.0152535, 4.953435 
4.1386035e+2, 2.4214192e+2, -584925.4, -684914.3, -4885.6626, -0.000012256679, 0.0017301387, -584687.25, -17678.033, 0.0, 5.014873, 4.950381 
4.1385403e+2, 2.4709244e+2, -536959.75, -636765.4, -4863.045, -0.000005745513, -0.0016592224, -536723.3, -18229.23, 0.0, 5.0144954, 4.9501324 
4.1384783e+2, 2.5204143e+2, -492760.03, -597098.6, -4572.8257, -0.000011481309, 0.0017045643, -492560.0, -22566.03, 0.0, 5.01412, 4.946911 
4.1384184e+2, 2.5698858e+2, -444489.78, -548361.44, -4532.972, -0.000015312555, -0.0017010513, -444292.34, -22780.469, 0.0, 5.013749, 4.946847 
4.1383612e+2, 2.6193416e+2, -400515.2, -509379.25, -4158.2637, -0.00000059474786, 0.0017092866, -400356.6, -27311.373, 0.0, 5.0133815, 4.9433494 
4.1383064e+2, 2.6687792e+2, -351853.28, -459857.16, -4094.1013, 0.0000012529454, -0.0016076157, -351698.3, -27101.92, 0.0, 5.0130186, 4.943541 
4.1382542e+2, 2.7182e+2, -308154.25, -421696.13, -3642.059, -0.0000055272762, 0.0017317147, -308037.53, -31873.484, 0.0, 5.01266, 4.939711 
4.1382053e+2, 2.7676028e+2, -259098.72, -371383.28, -3547.144, -0.000006861149, -0.0018867302, -258986.77, -31237.51, 0.0, 5.0123076, 4.9401603 
4.1381595e+2, 2.816989e+2, -215492.73, -333655.16, -3024.142, 0.0000046314367, 0.002235381, -215415.39, -36064.836, 0.0, 5.0119605, 4.936137 
4.138118e+2, 2.8663576e+2, -166106.31, -282695.3, -2892.9707, 0.0000095191, -0.0025547415, -166034.56, -35064.87, 0.0, 5.0116215, 4.9367943 
4.1380796e+2, 2.9157043e+2, -123959.664, -248598.72, -2302.7512, 0.0000060643997, 0.0017491749, -123917.13, -41307.25, 0.0, 5.011288, 4.931439 
4.1380465e+2, 2.965028e+2, -74470.164, -197536.31, -2132.958, -0.000012490935, -0.0004022385, -74433.2, -40160.63, 0.0, 5.0109644, 4.932108 
4.1380167e+2, 3.0144218e+2, -33981.36, -134303.48, -1491.6123, 0.0000012650188, 0.002231136, -33959.188, -33959.188, 0.0, 5.0106454, 4.9461 
4.1379932e+2, 3.063889e+2, -33610.586, -131852.33, -1275.9364, 0.00005640767, -0.0053095478, -33594.02, -33594.02, 0.0, 5.0103397, 4.9471126 
4.1379732e+2, 3.113532e+2, 4396.243, -41285.28, -527.69604, -0.000027165446, 0.004067934, 4402.3384, 4402.3384, 0.0, 5.0100417, 4.980396 
4.1379613e+2, 3.1633472e+2, 5442.3784, -37390.184, -259.45215, 0.000028359826, -0.0009441253, 5443.9497, 5443.9497, 0.0, 5.0097604, 4.9819536 
4.1901064e+2, 1.2284955e+2, -1685843.9, -1739362.6, -516.2068, 0.0000074900245, 0.0010409538, -1685838.9, 50235.676, 0.0, 5.023425, 4.988503 
4.190088e+2, 1.2783752e+2, -1639324.3, -1693981.6, -618.4411, -0.00011852651, -0.0032922712, -1639317.3, 47875.223, 0.0, 5.023139, 4.987482 
4.1900638e+2, 1.3282435e+2, -1594558.0, -1652144.5, -1514.3197, 0.0000538909, 0.0036402782, -1594518.1, 43803.336, 0.0, 5.022842, 4.9852085 
4.1900343e+2, 1.3780928e+2, -1547547.4, -1605717.3, -1606.3271, -0.000009337215, -0.0012361446, -1547503.1, 41966.063, 0.0, 5.0225344, 4.984528 
4.1899997e+2, 1.4279279e+2, -1503043.5, -1564436.4, -2382.5708, -0.00007998594, 0.00028536003, -1502951.3, 37679.625, 0.0, 5.0222173, 4.9821076 
4.1899607e+2, 1.4777504e+2, -1455879.0, -1517666.4, -2466.6963, -0.000045945817, -0.00091664516, -1455780.8, 36023.9, 0.0, 5.0218916, 4.9815397 
4.1899174e+2, 1.5275565e+2, -1411433.5, -1476535.9, -3143.9949, 0.0000048646784, 0.001356109, -1411282.0, 31712.646, 0.0, 5.021559, 4.9790826 
4.18987e+2, 1.5773475e+2, -1364239.1, -1429689.0, -3216.3726, -0.00004509136, -0.0012818825, -1364081.5, 30117.96, 0.0, 5.021218, 4.9785323 
4.189819e+2, 1.6271235e+2, -1319828.6, -1388662.8, -3796.797, -0.00003384876, 0.0012870623, -1319619.9, 25799.102, 0.0, 5.0208716, 4.9760203 
4.189765e+2, 1.6768843e+2, -1272541.6, -1341617.9, -3855.911, -0.000035588986, -0.0011513308, -1272327.0, 24326.434, 0.0, 5.020518, 4.9755244 
4.1897076e+2, 1.7266299e+2, -1228174.8, -1300728.5, -4338.723, -0.000028746676, 0.0011816123, -1227916.3, 19986.53, 0.0, 5.0201597, 4.9729443 
4.1896474e+2, 1.77636e+2, -1180817.4, -1253541.9, -4387.9233, -0.00003791571, -0.0011868433, -1180553.6, 18613.549, 0.0, 5.019795, 4.972484 
4.189585e+2, 1.8260753e+2, -1136467.5, -1212751.0, -4772.2354, -0.000026507072, 0.0012815193, -1136170.1, 14276.131, 0.0, 5.0194283, 4.969851 
4.1895202e+2, 1.8757744e+2, -1089046.3, -1165448.5, -4811.375, -0.000037911213, -0.0012752427, -1088744.5, 12996.711, 0.0, 5.019056, 4.969416 
4.1894537e+2, 1.9254588e+2, -1044742.6, -1124820.9, -5098.835, -0.000025585734, 0.0013365189, -1044419.25, 8631.168, 0.0, 5.01868, 4.966701 
4.1893855e+2, 1.9751266e+2, -997243.3, -1077374.0, -5126.0806, -0.000033400156, -0.0012858661, -996916.75, 7459.316, 0.0, 5.0183, 4.9663014 
4.189316e+2, 2.0247793e+2, -953028.0, -1037018.5, -5315.4795, -0.000024819336, 0.0013356169, -952692.94, 3023.3591, 0.0, 5.017918, 4.9634724 
4.189246e+2, 2.0744148e+2, -905466.5, -989475.1, -5331.153, -0.000034546127, -0.0013142383, -905129.56, 1943.9323, 0.0, 5.0175333, 4.96309 
4.189175e+2, 2.1240358e+2, -861150.25, -949003.1, -5423.316, -0.00001929879, 0.001393604, -860816.75, -2371.7102, 0.0, 5.017149, 4.960271 
4.1891038e+2, 2.1736394e+2, -813503.5, -901327.06, -5432.084, -0.000028965955, -0.0014040703, -813168.75, -3335.2568, 0.0, 5.0167623, 4.9599166 
4.1890323e+2, 2.2232284e+2, -769184.1, -860958.7, -5423.372, -0.00002027927, 0.0014481702, -768864.75, -7628.531, 0.0, 5.016376, 4.9570336 
4.188961e+2, 2.2727999e+2, -721460.6, -813177.3, -5424.6323, -0.000024408937, -0.0013669671, -721140.9, -8484.649, 0.0, 5.01599, 4.9566975 
4.1888908e+2, 2.3223563e+2, -677137.44, -772927.25, -5317.59, -0.000016221189, 0.0014890376, -676843.2, -12752.336, 0.0, 5.015605, 4.9537454 
4.1888207e+2, 2.3718949e+2, -629308.06, -724986.75, -5308.2, -0.000022092183, -0.0016268719, -629014.44, -13471.423, 0.0, 5.0152206, 4.9534454 
4.1887525e+2, 2.4214187e+2, -584996.4, -684901.6, -5105.511, -0.000015335052, 0.0017292603, -584736.1, -17726.521, 0.0, 5.0148387, 4.9504013 
4.188685e+2, 2.4709243e+2, -537034.75, -636752.75, -5082.8066, -0.00000885347, -0.0016587791, -536776.3, -18282.03, 0.0, 5.014459, 4.9501534 
4.1886196e+2, 2.5204143e+2, -492827.4, -597059.5, -4788.1475, -0.000015155103, 0.001704413, -492607.9, -22614.018, 0.0, 5.014082, 4.946942 
4.188556e+2, 2.569886e+2, -444561.34, -548322.5, -4748.023, -0.00001615465, -0.0017002804, -444344.53, -22833.031, 0.0, 5.013709, 4.9468784 
4.188495e+2, 2.6193422e+2, -400579.38, -509313.97, -4367.2866, -0.00000544352, 0.001709215, -400404.25, -27359.773, 0.0, 5.0133395, 4.9433913 
4.1884366e+2, 2.6687804e+2, -351921.8, -459792.22, -4302.865, -0.0000019268464, -0.001607699, -351750.44, -27155.195, 0.0, 5.0129747, 4.9435835 
4.1883805e+2, 2.7182016e+2, -308215.7, -421604.97, -3843.378, -0.0000073864926, 0.0017323759, -308085.56, -31923.129, 0.0, 5.0126143, 4.939764 
4.1883284e+2, 2.767605e+2, -259164.69, -371292.4, -3747.6975, -0.00001226318, -0.0018846729, -259039.56, -31292.451, 0.0, 5.01226, 4.940213 
4.188279e+2, 2.8169918e+2, -215552.38, -333539.4, -3215.7476, 0.00000019273945, 0.0022344682, -215464.8, -36116.95, 0.0, 5.011911, 4.9361997 
4.1882342e+2, 2.8663608e+2, -166169.95, -282578.8, -3083.605, 0.000008088028, -0.0025518227, -166088.33, -35121.98, 0.0, 5.01157, 4.936858 
4.1881925e+2, 2.9157084e+2, -124017.016, -248457.0, -2483.1406, 0.000002544756, 0.0017522892, -123967.484, -41361.61, 0.0, 5.0112348, 4.9315124 
4.188156e+2, 2.965033e+2, -74531.05, -197392.2, -2312.031, -0.000023378605, -0.0004065293, -74487.555, -40219.72, 0.0, 5.0109086, 4.9321833 
4.1881227e+2, 3.014427e+2, -34037.67, -134138.03, -1660.1802, -0.0000028724746, 0.0022298563, -34010.145, -34010.145, 0.0, 5.0105877, 4.946185 
4.1880965e+2, 3.063896e+2, -33671.047, -131684.67, -1441.2349, 0.000059562535, -0.005292753, -33649.86, -33649.86, 0.0, 5.01028, 4.947199 
4.1880733e+2, 3.1135395e+2, 4338.7495, -41099.027, -679.54034, -0.0000440078, 0.0040591285, 4348.9097, 4348.9097, 0.0, 5.0099792, 4.980491 
4.1880587e+2, 3.1633553e+2, 5374.822, -37206.203, -406.74054, 0.000011100599, -0.00093721657, 5378.7065, 5378.7065, 0.0, 5.0096936, 4.98205 
4.240343e+2, 1.22850984e+2, -1684630.9, -1739015.8, -372.159, 0.00001001033, 0.0010432357, -1684628.4, 51432.08, 0.0, 5.0238833, 4.9883924 
4.2403212e+2, 1.2783885e+2, -1638175.1, -1693662.8, -477.19016, -0.00011766901, -0.003288221, -1638171.0, 49008.43, 0.0, 5.023576, 4.987374 
4.240294e+2, 1.3282557e+2, -1593462.4, -1651833.3, -1390.2129, 0.00005816671, 0.0036421055, -1593429.3, 44880.285, 0.0, 5.0232573, 4.985109 
4.2402616e+2, 1.378104e+2, -1546515.5, -1605435.0, -1484.885, -0.000006104404, -0.0012326639, -1546478.1, 42980.055, 0.0, 5.022928, 4.98443 
4.2402238e+2, 1.427938e+2, -1502063.6, -1564159.5, -2275.795, -0.00007767339, 0.00028589292, -1501980.4, 38640.35, 0.0, 5.0225897, 4.9820194 
4.240181e+2, 1.47776e+2, -1454963.1, -1517419.1, -2361.6575, -0.000042105625, -0.00091425824, -1454873.9, 36921.48, 0.0, 5.0222425, 4.9814525 
4.2401347e+2, 1.5275651e+2, -1410568.5, -1476292.3, -3051.85, 0.0000101547585, 0.0013586782, -1410427.1, 32559.113, 0.0, 5.0218887, 4.9790053 
4.2400837e+2, 1.5773554e+2, -1363439.1, -1429476.0, -3125.4536, -0.000042507254, -0.001280073, -1363291.5, 30900.217, 0.0, 5.021526, 4.978456 
4.2400292e+2, 1.6271308e+2, -1319079.4, -1388452.1, -3716.6792, -0.000029360965, 0.001288581, -1318880.9, 26531.143, 0.0, 5.0211577, 4.9759545 
4.2399713e+2, 1.6768907e+2, -1271857.8, -1341438.6, -3776.6606, -0.000029368675, -0.0011509097, -1271653.4, 24993.777, 0.0, 5.020782, 4.975459 
4.2399102e+2, 1.7266357e+2, -1227541.3, -1300550.5, -4268.313, -0.00002724738, 0.0011833768, -1227292.5, 20604.496, 0.0, 5.0204024, 4.972889 
4.2398465e+2, 1.7763653e+2, -1180247.9, -1253393.6, -4317.8022, -0.000034837383, -0.0011857263, -1179993.9, 19168.143, 0.0, 5.020016, 4.9724298 
4.23978e+2, 1.8260801e+2, -1135949.6, -1212604.8, -4708.9297, -0.000020731622, 0.0012807603, -1135661.4, 14780.166, 0.0, 5.0196266, 4.9698067 
4.2397115e+2, 1.8757787e+2, -1088592.4, -1165332.8, -4748.238, -0.00003448282, -0.0012727549, -1088299.6, 13437.189, 0.0, 5.0192327, 4.9693727 
4.239641e+2, 1.9254628e+2, -1044337.7, -1124705.1, -5041.775, -0.000021243526, 0.0013358374, -1044022.6, 9023.921, 0.0, 5.0188355, 4.966668 
4.239569e+2, 1.9751301e+2, -996905.56, -1077291.3, -5068.692, -0.000030247127, -0.0012870338, -996587.25, 7785.2456, 0.0, 5.0184326, 4.966268 
4.239496e+2, 2.0247827e+2, -952738.9, -1036933.7, -5262.4194, -0.000019777677, 0.0013371254, -952411.25, 3301.757, 0.0, 5.0180287, 4.9634504 
4.2394215e+2, 2.074418e+2, -905242.8, -989420.5, -5277.6064, -0.00003115118, -0.0013130615, -904913.2, 2157.206, 0.0, 5.0176215, 4.9630685 
4.2393467e+2, 2.1240386e+2, -860979.1, -948951.0, -5369.957, -0.000014389103, 0.0013923604, -860652.56, -2210.4392, 0.0, 5.017214, 4.9602585 
4.2392713e+2, 2.173642e+2, -813395.25, -901304.1, -5379.164, -0.000025092784, -0.0014045112, -813067.3, -3236.5828, 0.0, 5.0168056, 4.9599047 
4.2391962e+2, 2.2232312e+2, -769124.94, -860934.75, -5369.9375, -0.000015718515, 0.00144881, -768811.94, -7578.427, 0.0, 5.0163975, 4.957032 
4.2391208e+2, 2.2728026e+2, -721465.5, -813182.25, -5371.541, -0.000020006557, -0.0013686604, -721152.0, -8498.441, 0.0, 5.0159883, 4.956697 
4.2390463e+2, 2.3223592e+2, -677193.1, -772931.75, -5262.017, -0.0000117303225, 0.0014891011, -676904.75, -12816.675, 0.0, 5.0155807, 4.953755 
4.2389727e+2, 2.3718978e+2, -629426.75, -725018.5, -5252.4517, -0.000017467508, -0.0016271705, -629139.06, -13598.87, 0.0, 5.015174, 4.953456 
4.2389002e+2, 2.4214219e+2, -585165.44, -684933.2, -5045.629, -0.000010522219, 0.0017272936, -584910.9, -17904.297, 0.0, 5.014769, 4.950422 
4.238829e+2, 2.4709274e+2, -537265.9, -636810.7, -5022.1597, -0.0000035767112, -0.001660633, -537013.1, -18522.043, 0.0, 5.014367, 4.9501743 
4.23876e+2, 2.520418e+2, -493109.47, -597117.1, -4721.802, -0.000011410652, 0.0017024404, -492895.56, -22905.117, 0.0, 5.013967, 4.9469733 
4.2386922e+2, 2.56989e+2, -444904.7, -548406.0, -4680.4033, -0.000008932691, -0.0017014967, -444693.47, -23185.77, 0.0, 5.0135717, 4.9469104 
4.2386273e+2, 2.6193467e+2, -400972.8, -509396.2, -4292.007, -0.0000012141214, 0.0017060628, -400803.16, -27762.822, 0.0, 5.013179, 4.9434333 
4.238565e+2, 2.6687852e+2, -352376.4, -459900.16, -4226.253, 0.0000031920183, -0.0016119557, -352210.56, -27619.857, 0.0, 5.0127916, 4.9436264 
4.2385057e+2, 2.7182066e+2, -308719.5, -421710.94, -3757.4707, -0.00000026702685, 0.0017288796, -308594.7, -32437.262, 0.0, 5.0124083, 4.939817 
4.2384496e+2, 2.7676108e+2, -259728.9, -371422.84, -3659.9185, -0.0000071154586, -0.0018861315, -259609.11, -31867.543, 0.0, 5.0120316, 4.940267 
4.2383966e+2, 2.8169984e+2, -216166.0, -333668.53, -3116.753, 0.0000071031463, 0.0022274712, -216083.38, -36741.652, 0.0, 5.01166, 4.9362636 
4.238348e+2, 2.8663677e+2, -166842.94, -282730.7, -2982.6077, 0.00001788563, -0.0025559564, -166766.23, -35806.63, 0.0, 5.0112963, 4.9369226 
4.238303e+2, 2.915716e+2, -124738.98, -248605.9, -2369.4329, 0.0000101215355, 0.001749792, -124693.67, -42095.227, 0.0, 5.010938, 4.931587 
4.2382634e+2, 2.965041e+2, -75310.15, -197560.56, -2195.2893, -0.00002124835, -0.00041773694, -75270.734, -41011.08, 0.0, 5.0105896, 4.93226 
4.238227e+2, 3.0144364e+2, -34863.668, -134305.4, -1533.7186, 0.0000077138175, 0.0022213988, -34840.02, -34840.02, 0.0, 5.0102463, 4.946271 
4.2381972e+2, 3.0639058e+2, -34555.855, -131873.42, -1310.1677, 0.000075348704, -0.0052824253, -34538.223, -34538.223, 0.0, 5.009916, 4.9472866 
4.238171e+2, 3.1135505e+2, 3410.0332, -41286.344, -539.91315, -0.000037689035, 0.004040611, 3416.5542, 3416.5542, 0.0, 5.0095925, 4.980587 
4.2381534e+2, 3.1633672e+2, 4393.792, -37414.15, -260.99292, 0.000039002978, -0.00094198924, 4395.4214, 4395.4214, 0.0, 5.0092874, 4.9821467 
4.290582e+2, 1.2285263e+2, -1684739.8, -1739329.9, -532.12317, 0.0000025874492, 0.0010435489, -1684734.5, 51309.734, 0.0, 5.023903, 4.9882793 
4.2905572e+2, 1.2784038e+2, -1638286.8, -1693972.8, -637.179, -0.000120364, -0.0032836648, -1638279.5, 48884.902, 0.0, 5.0235934, 4.987263 
4.2905268e+2, 1.32827e+2, -1593568.0, -1652119.3, -1565.1351, 0.00005608651, 0.0036426608, -1593526.3, 44769.29, 0.0, 5.0232716, 4.985008 
4.2904907e+2, 1.3781174e+2, -1546626.0, -1605719.0, -1660.0854, -0.000008395189, -0.0012289678, -1546579.4, 42865.715, 0.0, 5.0229397, 4.98433 
4.2904496e+2, 1.4279504e+2, -1502167.5, -1564418.0, -2464.1262, -0.0000792397, 0.00028656932, -1502070.1, 38538.465, 0.0, 5.0225987, 4.9819293 
4.2904037e+2, 1.4777713e+2, -1455072.4, -1517676.9, -2549.6165, -0.000042961055, -0.00091167947, -1454968.8, 36815.47, 0.0, 5.022249, 4.9813643 
4.2903534e+2, 1.5275757e+2, -1410670.9, -1476523.6, -3251.6611, 0.000008927431, 0.0013609389, -1410510.8, 32465.068, 0.0, 5.021892, 4.9789267 
4.290299e+2, 1.5773652e+2, -1363547.3, -1429707.5, -3324.8716, -0.00004491554, -0.0012783956, -1363380.5, 30801.572, 0.0, 5.021527, 4.9783783 
4.2902407e+2, 1.6271397e+2, -1319179.5, -1388655.8, -3926.2803, -0.000029905403, 0.0012905773, -1318958.3, 26444.764, 0.0, 5.0211563, 4.9758873 
4.290179e+2, 1.6768992e+2, -1271963.6, -1341643.3, -3985.9841, -0.000027762335, -0.0011497098, -1271736.4, 24902.49, 0.0, 5.020778, 4.9753923 
4.290114e+2, 1.7266437e+2, -1227639.1, -1300727.3, -4485.966, -0.000029971854, 0.0011854486, -1227364.9, 20524.441, 0.0, 5.0203958, 4.972833 
4.2900464e+2, 1.7763726e+2, -1180351.3, -1253570.6, -4535.2813, -0.00003781473, -0.0011843209, -1180071.5, 19083.387, 0.0, 5.020007, 4.972375 
4.289976e+2, 1.826087e+2, -1136045.0, -1212754.1, -4932.931, -0.00001962968, 0.0012807307, -1135729.1, 14705.835, 0.0, 5.0196157, 4.969762 
4.289904e+2, 1.875785e+2, -1088692.5, -1165482.3, -4971.6064, -0.00003592228, -0.0012681229, -1088371.9, 13358.747, 0.0, 5.019219, 4.969329 
4.2898294e+2, 1.9254687e+2, -1044428.56, -1124825.6, -5271.968, -0.000023937655, 0.0013343883, -1044084.3, 8956.358, 0.0, 5.01882, 4.9666348 
4.2897534e+2, 1.9751358e+2, -997002.56, -1077415.6, -5297.203, -0.000033420078, -0.0012894921, -996655.1, 7711.842, 0.0, 5.018415, 4.966234 
4.2896762e+2, 2.0247881e+2, -952826.56, -1037028.7, -5495.3594, -0.000021033802, 0.0013407123, -952469.4, 3238.3467, 0.0, 5.018009, 4.9634275 
4.289598e+2, 2.0744231e+2, -905334.8, -989515.5, -5511.5996, -0.00003295257, -0.0013111908, -904975.5, 2089.9165, 0.0, 5.0175996, 4.963046 
4.2895186e+2, 2.1240436e+2, -861063.06, -949019.4, -5605.1006, -0.000017604647, 0.0013896656, -860707.3, -2270.0386, 0.0, 5.0171905, 4.9602466 
4.2894393e+2, 2.173647e+2, -813484.06, -901374.4, -5614.7803, -0.000029976522, -0.0014052709, -813126.8, -3300.8308, 0.0, 5.01678, 4.9598927 
4.28936e+2, 2.223236e+2, -769205.0, -860976.5, -5605.7935, -0.000016375758, 0.001450246, -768863.8, -7634.9595, 0.0, 5.01637, 4.9570313 
4.2892808e+2, 2.2728074e+2, -721550.4, -813225.06, -5607.9653, -0.000023151659, -0.0013705218, -721208.56, -8559.707, 0.0, 5.015959, 4.956696 
4.2892024e+2, 2.3223639e+2, -677269.5, -772946.1, -5496.882, -0.000015121376, 0.0014889837, -676954.7, -12871.308, 0.0, 5.015549, 4.953765 
4.2891243e+2, 2.3719028e+2, -629507.3, -725032.94, -5487.634, -0.00002030941, -0.0016272203, -629193.1, -13657.757, 0.0, 5.0151405, 4.9534664 
4.2890477e+2, 2.4214269e+2, -585238.0, -684920.44, -5277.827, -0.00001369179, 0.0017263291, -584959.3, -17957.691, 0.0, 5.014734, 4.9504423 
4.288973e+2, 2.4709328e+2, -537342.56, -636798.1, -5254.3774, -0.0000053522267, -0.0016619241, -537065.75, -18579.824, 0.0, 5.01433, 4.950196 
4.2888993e+2, 2.5204235e+2, -493178.25, -597077.3, -4949.9355, -0.000015728108, 0.0017022897, -492942.97, -22957.936, 0.0, 5.013928, 4.947005 
4.288828e+2, 2.569896e+2, -444977.75, -548366.5, -4908.079, -0.000009935775, -0.0017003973, -444745.25, -23243.287, 0.0, 5.0135307, 4.946943 
4.2887592e+2, 2.6193526e+2, -401037.97, -509329.03, -4514.0513, -0.0000046646132, 0.0017052642, -400850.16, -27815.902, 0.0, 5.0131364, 4.943476 
4.288693e+2, 2.6687917e+2, -352446.28, -459834.16, -4447.9907, -0.00000048001306, -0.0016135274, -352262.34, -27678.19, 0.0, 5.0127473, 4.9436693 
4.2886296e+2, 2.7182138e+2, -308781.78, -421617.56, -3971.9224, -0.000002525322, 0.001729105, -308642.16, -32491.736, 0.0, 5.012362, 4.9398704 
4.28857e+2, 2.7676183e+2, -259795.84, -371329.9, -3873.8535, -0.000011916747, -0.0018820441, -259661.47, -31927.434, 0.0, 5.011983, 4.9403214 
4.288513e+2, 2.8170064e+2, -216226.27, -333549.84, -3321.724, 0.0000027815581, 0.0022255296, -216132.3, -36798.67, 0.0, 5.0116096, 4.9363275 
4.288461e+2, 2.8663766e+2, -166907.39, -282611.63, -3186.9475, 0.000016237207, -0.0025551054, -166819.67, -35868.824, 0.0, 5.011244, 4.936988 
4.288412e+2, 2.9157254e+2, -124796.01, -248459.06, -2563.5366, 0.000005384593, 0.0017543123, -124742.89, -42153.887, 0.0, 5.010884, 4.931663 
4.288369e+2, 2.9650515e+2, -75370.41, -197410.67, -2388.1826, -0.000031325777, -0.00042284097, -75323.69, -41074.223, 0.0, 5.0105333, 4.932338 
4.2883295e+2, 3.0144477e+2, -34919.47, -134134.47, -1716.1511, 0.0000050394074, 0.0022197578, -34889.793, -34889.793, 0.0, 5.010188, 4.9463577 
4.288296e+2, 3.0639178e+2, -34615.65, -131699.98, -1489.3572, 0.000073506126, -0.005263391, -34592.805, -34592.805, 0.0, 5.0098553, 4.947376 
4.288267e+2, 3.1135637e+2, 3352.1638, -41097.117, -705.9727, -0.000052477506, 0.0040293164, 3363.3738, 3363.3738, 0.0, 5.009529, 4.9806843 
4.288246e+2, 3.1633812e+2, 4326.597, -37225.664, -421.8318, 0.000020110097, -0.0009348374, 4330.879, 4330.879, 0.0, 5.0092196, 4.982245 
4.3408233e+2, 1.22854665e+2, -1683476.8, -1738963.8, -375.40244, 0.000004081962, 0.0010428601, -1683474.3, 52550.12, 0.0, 5.0243793, 4.988166 
4.3407956e+2, 1.278423e+2, -1637090.1, -1693636.3, -483.54498, -0.00011595696, -0.0032801076, -1637086.0, 50059.566, 0.0, 5.0240474, 4.987152 
4.3407616e+2, 1.3282882e+2, -1592426.9, -1651790.5, -1428.3809, 0.00005726071, 0.0036408904, -1592392.5, 45885.164, 0.0, 5.023703, 4.9849057 
4.3407223e+2, 1.3781345e+2, -1545550.5, -1605420.3, -1526.0211, -0.0000053206154, -0.0012278758, -1545511.6, 43916.715, 0.0, 5.02335, 4.98423 
4.3406776e+2, 1.4279667e+2, -1501146.1, -1564125.1, -2344.6409, -0.00007457887, 0.00028523366, -1501058.9, 39533.844, 0.0, 5.0229864, 4.981839 
4.340628e+2, 1.4777866e+2, -1454117.0, -1517414.4, -2431.8054, -0.000038643346, -0.0009108512, -1454023.6, 37745.496, 0.0, 5.0226145, 4.981275 
4.340574e+2, 1.5275902e+2, -1409768.6, -1476265.4, -3146.6497, 0.00001311143, 0.0013603116, -1409620.0, 33341.617, 0.0, 5.0222354, 4.978848 
4.3405157e+2, 1.577379e+2, -1362711.8, -1429480.8, -3220.9624, -0.000040413728, -0.0012787577, -1362556.8, 31611.96, 0.0, 5.0218477, 4.9783006 
4.3404537e+2, 1.6271527e+2, -1318396.8, -1388432.1, -3833.26, -0.00002534139, 0.0012899621, -1318187.5, 27202.807, 0.0, 5.0214543, 4.9758196 
4.3403882e+2, 1.6769114e+2, -1271247.9, -1341451.4, -3894.0256, -0.000021603986, -0.0011500558, -1271032.5, 25594.33, 0.0, 5.0210543, 4.9753256 
4.3403196e+2, 1.7266552e+2, -1226976.5, -1300538.1, -4402.752, -0.000026885764, 0.0011839817, -1226713.9, 21163.969, 0.0, 5.020649, 4.972777 
4.3402475e+2, 1.7763837e+2, -1179755.8, -1253412.9, -4452.5425, -0.000034980916, -0.0011855164, -1179487.6, 19656.373, 0.0, 5.0202374, 4.972319 
4.3401733e+2, 1.8260974e+2, -1135501.5, -1212597.1, -4856.479, -0.000013073133, 0.0012795206, -1135196.9, 15227.7295, 0.0, 5.019823, 4.9697175 
4.3400967e+2, 1.8757953e+2, -1088216.1, -1165357.5, -4894.4717, -0.000030821655, -0.0012683255, -1087906.8, 13813.917, 0.0, 5.019404, 4.969284 
4.3400183e+2, 1.9254786e+2, -1043998.7, -1124691.9, -5201.4395, -0.000020060053, 0.0013320901, -1043664.75, 9366.372, 0.0, 5.0189824, 4.966604 
4.3399382e+2, 1.9751452e+2, -996639.06, -1077313.8, -5224.2866, -0.000029949208, -0.0012916415, -996302.1, 8055.568, 0.0, 5.018555, 4.966204 
4.3398565e+2, 2.0247972e+2, -952522.5, -1036943.7, -5425.583, -0.000015237962, 0.0013402432, -952175.25, 3523.5305, 0.0, 5.0181265, 4.9634023 
4.339774e+2, 2.0744321e+2, -905097.5, -989461.2, -5443.555, -0.000027650967, -0.0013129654, -904747.75, 2308.9329, 0.0, 5.0176935, 4.9630213 
4.3396908e+2, 2.1240525e+2, -860874.56, -948959.9, -5538.349, -0.000013466399, 0.0013873252, -860527.7, -2098.9895, 0.0, 5.0172615, 4.960234 
4.3396074e+2, 2.1736555e+2, -813361.5, -901345.3, -5548.409, -0.000026283651, -0.0014071176, -813012.94, -3195.4, 0.0, 5.016828, 4.959881 
4.3395236e+2, 2.2232445e+2, -769133.8, -860946.5, -5538.952, -0.0000097392, 0.0014486063, -768800.9, -7580.393, 0.0, 5.016395, 4.9570303 
4.3394402e+2, 2.2728159e+2, -721545.75, -813225.1, -5541.175, -0.000018959023, -0.0013729074, -721212.06, -8571.528, 0.0, 5.0159607, 4.9566956 
4.3393573e+2, 2.3223725e+2, -677317.4, -772946.56, -5427.1187, -0.000010179533, 0.0014867249, -677010.4, -12935.357, 0.0, 5.0155272, 4.953775 
4.339275e+2, 2.3719113e+2, -629620.06, -725061.6, -5417.5576, -0.000014149079, -0.001630809, -629313.56, -13786.687, 0.0, 5.015095, 4.953477 
4.3391946e+2, 2.4214357e+2, -585403.44, -684949.5, -5203.497, -0.000009313019, 0.0017241448, -585132.1, -18139.146, 0.0, 5.014665, 4.9504633 
4.3391153e+2, 2.4709418e+2, -537572.06, -636854.7, -5179.0938, 0.00000029367163, -0.0016656758, -537302.6, -18825.576, 0.0, 5.014238, 4.9502177 
4.3390378e+2, 2.5204328e+2, -493460.06, -597133.56, -4868.944, -0.000010715563, 0.0016979029, -493231.9, -23255.98, 0.0, 5.0138125, 4.9470367 
4.3389624e+2, 2.5699058e+2, -445323.38, -548450.1, -4825.5713, -0.0000028744225, -0.001703136, -445098.06, -23605.51, 0.0, 5.013392, 4.9469757 
4.3388894e+2, 2.6193628e+2, -401435.44, -509411.28, -4424.2407, -0.0000000854562, 0.0017000383, -401254.47, -28230.023, 0.0, 5.012974, 4.9435196 
4.3388194e+2, 2.668802e+2, -352907.2, -459943.4, -4356.5024, 0.000005443254, -0.0016201239, -352730.16, -28156.209, 0.0, 5.0125613, 4.943713 
4.3387517e+2, 2.7182248e+2, -309293.63, -421724.84, -3871.0544, 0.0000047701446, 0.0017238238, -309160.5, -33020.785, 0.0, 5.0121527, 4.9399247 
4.3386883e+2, 2.7676296e+2, -260370.42, -371462.75, -3771.2002, -0.000006846791, -0.0018849634, -260242.55, -32519.76, 0.0, 5.0117507, 4.9403763 
4.3386278e+2, 2.8170183e+2, -216852.31, -333681.72, -3207.5476, 0.000010135808, 0.0022164509, -216764.31, -37442.51, 0.0, 5.0113535, 4.9363923 
4.338572e+2, 2.8663895e+2, -167595.25, -282767.56, -3070.944, 0.000026317543, -0.0025620349, -167513.42, -36575.027, 0.0, 5.0109644, 4.9370537 
4.3385193e+2, 2.9157388e+2, -125534.26, -248610.25, -2434.5627, 0.000012635946, 0.0017508328, -125486.12, -42910.26, 0.0, 5.0105805, 4.9317403 
4.3384725e+2, 2.9650658e+2, -76168.2, -197581.92, -2256.2166, -0.000028433478, -0.000435441, -76126.29, -41890.75, 0.0, 5.0102067, 4.9324174 
4.3384293e+2, 3.0144626e+2, -35766.613, -134305.83, -1574.5856, 0.000015774576, 0.0022089095, -35741.46, -35741.46, 0.0, 5.0098376, 4.946446 
4.3383926e+2, 3.063934e+2, -35524.23, -131893.73, -1343.2858, 0.00008572463, -0.005255668, -35505.508, -35505.508, 0.0, 5.0094814, 4.947466 
4.33836e+2, 3.1135803e+2, 2395.8323, -41293.37, -552.1775, -0.00004152486, 0.004010486, 2402.8098, 2402.8098, 0.0, 5.009132, 4.9807816 
4.3383363e+2, 3.1633994e+2, 3315.3596, -37442.223, -261.51685, 0.000044525586, -0.0009425892, 3317.0376, 3317.0376, 0.0, 5.0088015, 4.982344 
4.3910673e+2, 1.2285693e+2, -1683586.3, -1739283.8, -546.95447, -0.0000050545927, 0.0010408149, -1683580.9, 52421.184, 0.0, 5.0243998, 4.988051 
4.391036e+2, 1.2784445e+2, -1637203.3, -1693953.4, -655.67816, -0.000115002586, -0.0032765425, -1637195.6, 49928.813, 0.0, 5.0240655, 4.9870386 
4.3909988e+2, 1.3283086e+2, -1592533.6, -1652082.1, -1614.9711, 0.000051551808, 0.0036390768, -1592489.9, 45767.86, 0.0, 5.0237184, 4.9848022 
4.390956e+2, 1.3781539e+2, -1545662.4, -1605710.1, -1713.0607, -0.000007680786, -0.0012268828, -1545613.6, 43795.688, 0.0, 5.023362, 4.9841285 
4.3909073e+2, 1.4279851e+2, -1501251.4, -1564389.1, -2544.7092, -0.00007402178, 0.0002844447, -1501149.0, 39425.7, 0.0, 5.022996, 4.981747 
4.3908542e+2, 1.477804e+2, -1454227.8, -1517677.0, -2631.5388, -0.00003979947, -0.0009093214, -1454118.8, 37633.254, 0.0, 5.022621, 4.981185 
4.3907964e+2, 1.5276068e+2, -1409872.5, -1476501.3, -3358.1895, 0.000010866552, 0.0013594531, -1409703.6, 33241.637, 0.0, 5.022239, 4.978768 
4.390734e+2, 1.5773949e+2, -1362821.5, -1429716.6, -3432.0957, -0.000040893065, -0.001278321, -1362645.9, 31507.256, 0.0, 5.0218487, 4.9782214 
4.3906683e+2, 1.6271678e+2, -1318499.0, -1388640.6, -4054.5493, -0.000026300613, 0.0012898783, -1318265.4, 27110.162, 0.0, 5.021453, 4.975751 
4.3905988e+2, 1.676926e+2, -1271355.6, -1341660.0, -4115.07, -0.000020929117, -0.0011484456, -1271115.5, 25497.121, 0.0, 5.02105, 4.975258 
4.3905258e+2, 1.726669e+2, -1227076.3, -1300718.6, -4632.3506, -0.00002841846, 0.0011827816, -1226786.0, 21078.332, 0.0, 5.0206423, 4.9727197 
4.3904498e+2, 1.776397e+2, -1179861.0, -1253594.1, -4681.8257, -0.000037053545, -0.0011857114, -1179564.9, 19566.076, 0.0, 5.0202284, 4.972263 
4.3903717e+2, 1.8261102e+2, -1135598.4, -1212748.3, -5092.309, -0.0000126570985, 0.0012807758, -1135263.8, 15148.322, 0.0, 5.0198116, 4.969672 
4.390291e+2, 1.8758075e+2, -1088321.6, -1165513.1, -5129.595, -0.00003175433, -0.0012698452, -1087982.3, 13726.451, 0.0, 5.019389, 4.9692388 
4.390208e+2, 1.9254903e+2, -1044089.25, -1124805.5, -5443.447, -0.000022546717, 0.0013323714, -1043723.8, 9295.669, 0.0, 5.0189657, 4.966574 
4.3901235e+2, 1.9751568e+2, -996732.44, -1077426.6, -5465.142, -0.000032899043, -0.0012905869, -996363.94, 7982.365, 0.0, 5.0185366, 4.9661746 
4.390038e+2, 2.0248085e+2, -952615.56, -1037049.3, -5671.2173, -0.000015965794, 0.0013386838, -952236.4, 3451.2903, 0.0, 5.0181065, 4.963376 
4.389951e+2, 2.0744431e+2, -905194.06, -989567.56, -5689.692, -0.000029411845, -0.0013150375, -904812.1, 2233.676, 0.0, 5.017672, 4.9629955 
4.3898636e+2, 2.1240632e+2, -860958.56, -949029.56, -5785.411, -0.000016668262, 0.0013883709, -860580.2, -2162.1204, 0.0, 5.017238, 4.960222 
4.3897754e+2, 2.1736664e+2, -813452.1, -901416.94, -5796.0244, -0.000029181743, -0.0014075671, -813071.9, -3264.8643, 0.0, 5.016802, 4.959869 
4.3896875e+2, 2.2232552e+2, -769215.9, -860988.3, -5787.0767, -0.000011351571, 0.001446296, -768852.44, -7642.4, 0.0, 5.0163665, 4.9570293 
4.3895996e+2, 2.2728266e+2, -721632.4, -813267.94, -5790.2344, -0.0000230121, -0.0013728465, -721267.94, -8637.911, 0.0, 5.01593, 4.956695 
4.3895125e+2, 2.3223832e+2, -677395.44, -772961.2, -5674.36, -0.000012602251, 0.0014859225, -677059.7, -12995.1875, 0.0, 5.015495, 4.953785 
4.3894264e+2, 2.3719221e+2, -629702.44, -725076.7, -5665.319, -0.00001489685, -0.0016339615, -629367.1, -13850.848, 0.0, 5.0150614, 4.9534874 
4.3893412e+2, 2.4214467e+2, -585477.44, -684936.6, -5448.5225, -0.000013557865, 0.0017252055, -585179.9, -18197.65, 0.0, 5.014629, 4.9504848 
4.3892574e+2, 2.470953e+2, -537650.4, -636842.06, -5424.1265, -0.0000028825066, -0.0016662986, -537354.6, -18888.535, 0.0, 5.0142, 4.950239 
4.3891758e+2, 2.520444e+2, -493530.03, -597092.75, -5110.216, -0.000012802708, 0.001695858, -493278.47, -23313.809, 0.0, 5.013773, 4.947069 
4.3890965e+2, 2.5699174e+2, -445397.9, -548410.4, -5066.3584, -0.0000041430094, -0.0017019259, -445149.3, -23668.36, 0.0, 5.0133505, 4.947008 
4.3890187e+2, 2.619375e+2, -401501.75, -509343.0, -4659.775, -0.0000043830746, 0.0016991866, -401300.78, -28288.271, 0.0, 5.0129304, 4.943563 
4.3889448e+2, 2.6688147e+2, -352978.1, -459876.06, -4591.669, 0.0000031766717, -0.0016222112, -352781.22, -28219.66, 0.0, 5.012516, 4.943757 
4.3888733e+2, 2.718238e+2, -309356.7, -421629.47, -4099.1743, 0.0000026361631, 0.0017242893, -309207.25, -33080.387, 0.0, 5.0121055, 4.939979 
4.388806e+2, 2.7676433e+2, -260438.17, -371367.84, -3999.13, -0.00001274666, -0.0018817569, -260294.17, -32584.803, 0.0, 5.011701, 4.9404316 
4.3887413e+2, 2.8170326e+2, -216913.14, -333560.56, -3426.4666, 0.000005977825, 0.0022143929, -216812.58, -37504.766, 0.0, 5.011302, 4.936458 
4.3886817e+2, 2.8664044e+2, -167660.31, -282646.2, -3289.5925, 0.00002435743, -0.0025619022, -167566.28, -36642.543, 0.0, 5.010911, 4.9371204 
4.3886253e+2, 2.9157546e+2, -125590.66, -248458.13, -2643.0684, 0.000007598146, 0.0017553834, -125533.83, -42973.332, 0.0, 5.0105257, 4.9318185 
4.3885747e+2, 2.9650822e+2, -76227.69, -197426.38, -2463.6016, -0.000037426988, -0.00043922963, -76177.625, -41958.227, 0.0, 5.0101495, 4.9324975 
4.3885276e+2, 3.01448e+2, -35821.63, -134129.39, -1771.5035, 0.000012176507, 0.0022061847, -35789.72, -35789.72, 0.0, 5.0097785, 4.946535 
4.3884876e+2, 3.063952e+2, -35583.22, -131714.8, -1537.1808, 0.00007892338, -0.0052400534, -35558.645, -35558.645, 0.0, 5.00942, 4.947557 
4.3884513e+2, 3.1135994e+2, 2337.4277, -41101.92, -733.19476, -0.00005203406, 0.004003814, 2349.7996, 2349.7996, 0.0, 5.009068, 4.98088 
4.3884242e+2, 3.1634194e+2, 3248.4832, -37249.496, -436.69888, 0.000022321605, -0.00093602104, 3253.1917, 3253.1917, 0.0, 5.0087333, 4.9824443 
4.4413137e+2, 1.2285962e+2, -1682272.8, -1738897.6, -377.036, -0.00000397707, 0.0010368635, -1682270.3, 53705.516, 0.0, 5.0248938, 4.9879355 
4.441279e+2, 1.2784702e+2, -1635958.8, -1693598.9, -489.34314, -0.000107035936, -0.003272119, -1635954.5, 51144.7, 0.0, 5.0245366, 4.986925 
4.4412383e+2, 1.3283332e+2, -1591346.1, -1651735.3, -1465.0922, 0.000049655908, 0.003632179, -1591310.6, 46922.91, 0.0, 5.0241666, 4.9846983 
4.4411916e+2, 1.3781776e+2, -1544542.9, -1605394.4, -1566.022, -0.000004251833, -0.0012290379, -1544502.6, 44883.598, 0.0, 5.0237875, 4.9840264 
4.441139e+2, 1.4280076e+2, -1500187.9, -1564079.6, -2411.9119, -0.00006802212, 0.00028215084, -1500097.0, 40455.54, 0.0, 5.0233984, 4.981655 
4.4410825e+2, 1.4778258e+2, -1453232.4, -1517398.5, -2500.3718, -0.00003495245, -0.00091060274, -1453135.1, 38595.637, 0.0, 5.0230007, 4.9810944 
4.4410205e+2, 1.5276277e+2, -1408932.3, -1476227.9, -3239.5842, 0.000014945588, 0.0013557905, -1408776.8, 34148.21, 0.0, 5.022596, 4.9786873 
4.4409546e+2, 1.5774149e+2, -1361949.9, -1429475.3, -3314.5525, -0.000035146193, -0.0012801883, -1361787.6, 32345.969, 0.0, 5.0221825, 4.9781423 
4.4408843e+2, 1.6271871e+2, -1317682.1, -1388403.1, -3947.3438, -0.00002177277, 0.0012863985, -1317462.5, 27894.156, 0.0, 5.021764, 4.9756823 
4.4408107e+2, 1.6769445e+2, -1270607.1, -1341454.8, -4008.685, -0.000015780472, -0.0011505929, -1270381.0, 26213.428, 0.0, 5.0213375, 4.97519 
4.4407338e+2, 1.726687e+2, -1226383.3, -1300517.3, -4534.7266, -0.000023725972, 0.0011789656, -1226107.0, 21739.805, 0.0, 5.0209064, 4.9726624 
4.4406533e+2, 1.7764144e+2, -1179237.4, -1253425.3, -4584.2065, -0.000031578984, -0.001188036, -1178955.3, 20158.785, 0.0, 5.0204687, 4.972206 
4.4405708e+2, 1.826127e+2, -1135028.4, -1212580.9, -5002.431, -0.000007864452, 0.0012772963, -1134707.1, 15688.446, 0.0, 5.0200286, 4.9696264 
4.4404855e+2, 1.875824e+2, -1087824.5, -1165381.1, -5039.853, -0.00002668108, -0.0012741514, -1087498.4, 14194.211, 0.0, 5.019582, 4.9691935 
4.4403985e+2, 1.9255064e+2, -1043637.9, -1124656.3, -5357.1313, -0.000016998043, 0.0013299497, -1043285.2, 9718.527, 0.0, 5.0191345, 4.9665456 
4.4403094e+2, 1.9751726e+2, -996345.2, -1077306.1, -5376.8047, -0.000028252116, -0.0012930695, -995989.7, 8341.229, 0.0, 5.0186834, 4.9661474 
4.4402194e+2, 2.024824e+2, -952294.5, -1036962.0, -5586.9414, -0.0000102949325, 0.0013340419, -951927.44, 3745.0435, 0.0, 5.0182304, 4.9633484 
4.440128e+2, 2.0744583e+2, -904937.4, -989510.2, -5606.1807, -0.000025312544, -0.0013197238, -904567.4, 2463.5554, 0.0, 5.017774, 4.962968 
4.440036e+2, 2.1240783e+2, -860748.1, -948959.56, -5704.7173, -0.000010573349, 0.001386361, -860380.7, -1977.3701, 0.0, 5.017317, 4.96021 
4.4399434e+2, 2.1736811e+2, -813314.75, -901380.3, -5715.331, -0.000022988774, -0.0014112259, -812945.4, -3152.9526, 0.0, 5.0168552, 4.959857 
4.439851e+2, 2.22327e+2, -769134.4, -860953.06, -5704.357, -0.0000069797898, 0.0014417801, -768781.3, -7585.8354, 0.0, 5.016395, 4.9570284 
4.439759e+2, 2.2728413e+2, -721618.1, -813263.06, -5707.7646, -0.000017820823, -0.0013773645, -721264.0, -8648.466, 0.0, 5.015935, 4.9566946 
4.4396675e+2, 2.3223981e+2, -677434.94, -772957.4, -5588.751, -0.0000067691753, 0.0014828009, -677109.06, -13059.121, 0.0, 5.015476, 4.953795 
4.4395763e+2, 2.371937e+2, -629808.56, -725102.1, -5579.4463, -0.000007695038, -0.0016395295, -629483.0, -13981.406, 0.0, 5.0150185, 4.9534984 
4.439487e+2, 2.4214618e+2, -585638.0, -684962.9, -5358.404, -0.000008708144, 0.001721141, -585349.75, -18382.328, 0.0, 5.014562, 4.9505057 
4.439399e+2, 2.4709684e+2, -537877.2, -636896.94, -5332.8955, 0.0000014758074, -0.0016719032, -537590.8, -19139.738, 0.0, 5.014109, 4.950261 
4.4393128e+2, 2.52046e+2, -493810.6, -597147.5, -5013.5864, -0.000005902337, 0.0016902349, -493567.94, -23618.537, 0.0, 5.0136576, 4.9471016 
4.4392288e+2, 2.5699332e+2, -445744.6, -548493.56, -4967.8877, 0.0000039520396, -0.0017068499, -445504.94, -24039.574, 0.0, 5.0132113, 4.9470415 
4.4391474e+2, 2.619391e+2, -401902.13, -509425.25, -4554.051, -0.00000021585257, 0.0016925035, -401709.56, -28713.041, 0.0, 5.012767, 4.943607 
4.439069e+2, 2.6688313e+2, -353444.1, -459986.13, -4484.072, 0.000009118385, -0.0016291282, -353255.72, -28710.545, 0.0, 5.012328, 4.9438014 
4.438993e+2, 2.718255e+2, -309875.75, -421737.88, -3982.1658, 0.000010373705, 0.0017171564, -309734.2, -33624.207, 0.0, 5.0118933, 4.9400344 
4.4389212e+2, 2.7676612e+2, -261022.1, -371502.94, -3880.453, -0.0000067182636, -0.0018873157, -260885.97, -33194.016, 0.0, 5.0114646, 4.9404874 
4.4388527e+2, 2.817051e+2, -217550.58, -333695.2, -3296.0444, 0.000013459751, 0.002205376, -217457.11, -38167.324, 0.0, 5.0110416, 4.936524 
4.4387892e+2, 2.8664234e+2, -168362.0, -282805.84, -3157.5513, 0.000033092532, -0.002570417, -168274.95, -37369.88, 0.0, 5.010626, 4.9371877 
4.4387287e+2, 2.9157743e+2, -126344.24, -248611.14, -2497.9211, 0.00001442136, 0.0017491797, -126293.234, -43752.117, 0.0, 5.0102158, 4.931898 
4.4386742e+2, 2.9651028e+2, -77043.695, -197600.52, -2315.506, -0.000031174273, -0.0004492938, -76999.24, -42800.01, 0.0, 5.0098147, 4.932579 
4.4386235e+2, 3.0145013e+2, -36689.047, -134304.36, -1613.7003, 0.000022718457, 0.002194543, -36662.38, -36662.38, 0.0, 5.00942, 4.9466257 
4.4385794e+2, 3.0639747e+2, -36514.516, -131913.45, -1375.2284, 0.00008442548, -0.005241119, -36494.695, -36494.695, 0.0, 5.009037, 4.9476495 
4.4385397e+2, 3.1136227e+2, 1354.5963, -41307.01, -564.35114, -0.00003804092, 0.0039908863, 1362.0605, 1362.0605, 0.0, 5.0086603, 4.9809785 
4.438509e+2, 3.1634435e+2, 2208.0334, -37474.453, -260.97812, 0.00004729476, -0.00094601937, 2209.7498, 2209.7498, 0.0, 5.0083036, 4.9825454 
4.4915628e+2, 1.2286255e+2, -1682382.6, -1739223.1, -560.37305, -0.00001385994, 0.0010312058, -1682377.1, 53569.977, 0.0, 5.024915, 4.987818 
4.4915244e+2, 1.2784983e+2, -1636073.1, -1693922.6, -673.88965, -0.0001032641, -0.0032654803, -1636065.3, 51006.4, 0.0, 5.0245557, 4.9868093 
4.4914797e+2, 1.3283601e+2, -1591453.9, -1652032.3, -1663.6963, 0.00004090599, 0.0036236378, -1591408.1, 46798.89, 0.0, 5.024183, 4.9845924 
4.4914293e+2, 1.3782035e+2, -1544656.0, -1605689.8, -1765.3002, -0.0000059871163, -0.0012308084, -1544605.0, 44755.695, 0.0, 5.0238004, 4.9839225 
4.4913733e+2, 1.4280327e+2, -1500294.4, -1564348.4, -2623.931, -0.00006684771, 0.0002814968, -1500187.1, 40340.95, 0.0, 5.0234084, 4.981561 
4.4913122e+2, 1.47785e+2, -1453344.6, -1517666.0, -2712.1604, -0.00003578305, -0.0009117956, -1453230.5, 38476.7, 0.0, 5.023008, 4.9810023 
4.4912466e+2, 1.527651e+2, -1409037.8, -1476468.1, -3462.9272, 0.000012441947, 0.0013525733, -1408860.4, 34041.773, 0.0, 5.0225997, 4.9786057 
4.491176e+2, 1.577437e+2, -1362061.3, -1429715.1, -3537.599, -0.000035373396, -0.0012805131, -1361876.8, 32234.855, 0.0, 5.0221834, 4.978062 
4.491102e+2, 1.6272089e+2, -1317785.9, -1388615.0, -4180.275, -0.0000226242, 0.0012839818, -1317540.0, 27795.39, 0.0, 5.021762, 4.9756126 
4.4910237e+2, 1.6769655e+2, -1270716.9, -1341667.0, -4241.6543, -0.000016615902, -0.001152011, -1270464.1, 26109.758, 0.0, 5.021333, 4.9751215 
4.4909424e+2, 1.7267074e+2, -1226485.4, -1300701.4, -4776.3364, -0.00002434865, 0.0011774802, -1226179.3, 21647.63, 0.0, 5.0208993, 4.972604 
4.490858e+2, 1.776434e+2, -1179345.4, -1253610.1, -4824.6245, -0.000030243611, -0.0011872438, -1179033.3, 20061.371, 0.0, 5.020459, 4.972149 
4.490771e+2, 1.8261462e+2, -1135128.3, -1212737.0, -5250.8013, -0.000010950543, 0.0012745778, -1134774.5, 15602.143, 0.0, 5.0200167, 4.96958 
4.4906813e+2, 1.8758428e+2, -1087930.4, -1165538.9, -5287.5503, -0.000029122994, -0.0012761363, -1087571.8, 14102.49, 0.0, 5.0195675, 4.969147 
4.4905895e+2, 1.9255248e+2, -1043725.2, -1124764.3, -5609.9404, -0.000016979708, 0.0013301293, -1043338.7, 9647.041, 0.0, 5.019118, 4.9665174 
4.4904962e+2, 1.9751908e+2, -996436.56, -1077413.4, -5631.6543, -0.000029275801, -0.0012932444, -996046.8, 8266.363, 0.0, 5.0186644, 4.9661202 
4.4904017e+2, 2.0248419e+2, -952392.75, -1037074.94, -5846.3716, -0.000012298305, 0.0013321253, -951991.0, 3664.0117, 0.0, 5.01821, 4.96332 
4.4903055e+2, 2.0744759e+2, -905039.94, -989623.56, -5862.887, -0.000030521616, -0.0013217408, -904635.44, 2378.2522, 0.0, 5.017751, 4.96294 
4.490209e+2, 2.1240956e+2, -860835.2, -949030.06, -5964.719, -0.00001061439, 0.0013864931, -860433.6, -2047.2783, 0.0, 5.017292, 4.9601974 
4.490112e+2, 2.1736984e+2, -813406.8, -901451.9, -5976.476, -0.000023131488, -0.0014124097, -813003.0, -3227.4375, 0.0, 5.0168285, 4.9598455 
4.490015e+2, 2.2232871e+2, -769217.6, -860995.5, -5964.378, -0.000012509694, 0.0014412832, -768831.6, -7652.9297, 0.0, 5.0163665, 4.9570274 
4.4899184e+2, 2.2728585e+2, -721706.06, -813306.3, -5969.153, -0.000019746258, -0.0013802586, -721318.7, -8719.963, 0.0, 5.0159044, 4.956694 
4.4898218e+2, 2.3224153e+2, -677514.44, -772972.44, -5848.5796, -0.00000932877, 0.0014833262, -677157.44, -13124.342, 0.0, 5.0154433, 4.953805 
4.4897264e+2, 2.3719545e+2, -629892.5, -725117.75, -5840.0845, -0.000009156722, -0.0016404832, -629535.7, -14051.045, 0.0, 5.0149837, 4.953509 
4.4896325e+2, 2.4214794e+2, -585713.44, -684949.94, -5616.6416, -0.000011386418, 0.0017204169, -585396.56, -18446.244, 0.0, 5.0145254, 4.950527 
4.48954e+2, 2.470986e+2, -537957.0, -636884.7, -5591.1426, -0.0000035097366, -0.0016733897, -537642.0, -19208.293, 0.0, 5.0140705, 4.9502835 
4.4894493e+2, 2.5204778e+2, -493881.9, -597106.56, -5268.341, -0.000007297911, 0.0016906895, -493613.72, -23681.951, 0.0, 5.013617, 4.9471345 
4.489361e+2, 2.5699514e+2, -445820.3, -548453.25, -5222.2695, 0.000004267669, -0.001707018, -445555.28, -24107.834, 0.0, 5.013169, 4.9470744 
4.489275e+2, 2.6194102e+2, -401969.5, -509356.1, -4803.5557, -0.0000051705933, 0.001691864, -401755.06, -28776.844, 0.0, 5.0127225, 4.9436507 
4.4891918e+2, 2.6688507e+2, -353516.0, -459917.78, -4733.217, 0.000005221523, -0.0016281819, -353305.88, -28779.467, 0.0, 5.012282, 4.943846 
4.489112e+2, 2.718275e+2, -309939.4, -421640.5, -4224.551, 0.000008668829, 0.0017168239, -309779.88, -33689.145, 0.0, 5.011845, 4.94009 
4.489036e+2, 2.7676815e+2, -261090.53, -371406.34, -4122.905, -0.000010885144, -0.0018857168, -260936.66, -33264.508, 0.0, 5.0114145, 4.9405437 
4.488963e+2, 2.8170723e+2, -217611.9, -333571.97, -3529.4656, 0.000008406633, 0.0022062277, -217504.6, -38235.2, 0.0, 5.0109897, 4.9365907 
4.4888952e+2, 2.866445e+2, -168427.45, -282682.16, -3391.0874, 0.00002877246, -0.0025696908, -168326.89, -37442.883, 0.0, 5.010572, 4.937255 
4.4888306e+2, 2.9157966e+2, -126399.7, -248453.64, -2721.6025, 0.000008270856, 0.0017514214, -126339.05, -43819.71, 0.0, 5.01016, 4.931978 
4.4887722e+2, 2.9651257e+2, -77102.23, -197439.58, -2538.1584, -0.00003633104, -0.00044775382, -77048.72, -42872.08, 0.0, 5.009757, 4.932662 
4.4887173e+2, 3.0145255e+2, -36742.992, -134122.31, -1825.5615, 0.000018812754, 0.002193428, -36708.78, -36708.78, 0.0, 5.00936, 4.9467177 
4.4886696e+2, 3.0639994e+2, -36572.68, -131729.48, -1584.6572, 0.000070531125, -0.005236063, -36546.297, -36546.297, 0.0, 5.008975, 4.947743 
4.4886264e+2, 3.1136483e+2, 1295.6543, -41113.76, -761.3147, -0.000046901907, 0.003992918, 1309.3167, 1309.3167, 0.0, 5.0085955, 4.981077 
4.4885918e+2, 3.1634703e+2, 2141.184, -37278.137, -451.6112, 0.00002278617, -0.00094146753, 2146.3572, 2146.3572, 0.0, 5.0082345, 4.9826474 
4.5418146e+2, 1.2286594e+2, -1681017.9, -1738816.1, -376.8551, -0.000013234409, 0.0010240495, -1681015.5, 54898.438, 0.0, 5.025428, 4.9877005 
4.5417726e+2, 1.2785311e+2, -1634780.3, -1693549.6, -494.60355, -0.00009124791, -0.0032609405, -1634776.1, 52263.543, 0.0, 5.025044, 4.986693 
4.5417243e+2, 1.3283917e+2, -1590220.0, -1651666.6, -1500.2668, 0.00003665938, 0.0036130033, -1590183.4, 47992.703, 0.0, 5.024647, 4.984487 
4.5416695e+2, 1.3782339e+2, -1543492.1, -1605356.1, -1604.8427, -0.0000016323481, -0.0012353567, -1543450.5, 45880.293, 0.0, 5.024242, 4.9838185 
4.5416096e+2, 1.4280622e+2, -1499188.4, -1564021.4, -2477.269, -0.000060057377, 0.0002775511, -1499093.9, 41405.176, 0.0, 5.023826, 4.9814677 
4.5415446e+2, 1.4778784e+2, -1452309.1, -1517371.3, -2567.0925, -0.00003063018, -0.00091571664, -1452208.0, 39471.19, 0.0, 5.0234017, 4.9809103 
4.5414743e+2, 1.5276785e+2, -1408059.4, -1476179.0, -3330.0166, 0.000016073776, 0.0013466092, -1407897.0, 34977.99, 0.0, 5.02297, 4.978524 
4.5413998e+2, 1.5774642e+2, -1361153.6, -1429458.6, -3405.6682, -0.000027840899, -0.0012838246, -1360984.3, 33101.05, 0.0, 5.02253, 4.9779816 
4.541321e+2, 1.627235e+2, -1316935.0, -1388362.9, -4058.231, -0.000018096964, 0.0012781918, -1316705.1, 28604.691, 0.0, 5.0220847, 4.975543 
4.5412388e+2, 1.6769908e+2, -1269937.0, -1341448.3, -4120.257, -0.000013310008, -0.0011572844, -1269700.4, 26848.568, 0.0, 5.0216317, 4.975053 
4.541153e+2, 1.7267321e+2, -1225761.3, -1300485.4, -4663.144, -0.000017564214, 0.0011723444, -1225471.4, 22331.121, 0.0, 5.021174, 4.9725466 
4.541064e+2, 1.7764583e+2, -1178691.8, -1253427.3, -4710.806, -0.000022660182, -0.0011901229, -1178396.0, 20674.95, 0.0, 5.0207105, 4.9720917 
4.540972e+2, 1.8261701e+2, -1134531.0, -1212557.0, -5144.2305, -0.000008382946, 0.0012672018, -1134193.4, 16160.093, 0.0, 5.020243, 4.969534 
4.540878e+2, 1.8758659e+2, -1087404.0, -1165392.3, -5180.2446, -0.000023757553, -0.0012808593, -1087061.4, 14590.047, 0.0, 5.01977, 4.969102 
4.5407817e+2, 1.9255476e+2, -1043254.06, -1124619.8, -5507.442, -0.000009915137, 0.0013252165, -1042882.94, 10080.366, 0.0, 5.0192966, 4.966483 
4.5406836e+2, 1.9752131e+2, -996035.5, -1077301.4, -5533.2046, -0.000024119681, -0.001297777, -995660.44, 8630.641, 0.0, 5.018819, 4.9660864 
4.540584e+2, 2.0248641e+2, -952042.7, -1036959.2, -5752.169, -0.000006737353, 0.0013268085, -951654.8, 3978.447, 0.0, 5.018341, 4.9632983 
4.5404834e+2, 2.0744978e+2, -904758.7, -989538.8, -5762.881, -0.00002535257, -0.0013285952, -904368.75, 2623.4148, 0.0, 5.0178585, 4.9629197 
4.5403823e+2, 2.1241175e+2, -860614.5, -948956.56, -5865.611, -0.0000049457694, 0.0013826825, -860226.7, -1861.7759, 0.0, 5.017375, 4.9601846 
4.5402804e+2, 2.1737202e+2, -813256.0, -901410.25, -5878.096, -0.00001670196, -0.001418332, -812865.8, -3111.5122, 0.0, 5.0168867, 4.959833 
4.5401788e+2, 2.2233087e+2, -769122.25, -860955.06, -5863.8022, -0.00000747213, 0.0014367141, -768749.3, -7591.8438, 0.0, 5.0164003, 4.9570265 
4.540077e+2, 2.2728801e+2, -721680.2, -813297.2, -5869.4106, -0.000012943946, -0.0013879504, -721305.7, -8728.13, 0.0, 5.0159135, 4.9566936 
4.539976e+2, 2.322437e+2, -677544.25, -772964.3, -5745.895, -0.000004160997, 0.0014790578, -677199.5, -13187.666, 0.0, 5.0154276, 4.9538155 
4.5398757e+2, 2.3719762e+2, -629991.2, -725139.8, -5737.133, -0.0000027372425, -0.0016465076, -629646.5, -14183.181, 0.0, 5.0149436, 4.95352 
4.5397773e+2, 2.4215011e+2, -585867.4, -684972.8, -5509.479, -0.0000045515408, 0.0017143232, -585562.06, -18633.209, 0.0, 5.0144606, 4.9505486 
4.53968e+2, 2.4710082e+2, -538179.6, -636937.5, -5482.729, 0.000001760339, -0.0016808953, -537876.2, -19464.162, 0.0, 5.013981, 4.9503055 
4.5395845e+2, 2.5205e+2, -494160.28, -597159.75, -5154.5244, -0.00000092208006, 0.001685078, -493902.97, -23993.146, 0.0, 5.0135026, 4.9471674 
4.5394915e+2, 2.5699744e+2, -446166.78, -548535.44, -5106.548, 0.000011900519, -0.0017144083, -445912.66, -24487.514, 0.0, 5.013029, 4.9471083 
4.539401e+2, 2.619433e+2, -402371.8, -509438.1, -4680.675, 0.0000005883999, 0.0016841035, -402167.56, -29212.023, 0.0, 5.012558, 4.943695 
4.5393136e+2, 2.6688743e+2, -353986.16, -460028.4, -4608.2856, 0.000010744048, -0.0016339249, -353786.25, -29282.957, 0.0, 5.012092, 4.943891 
4.5392293e+2, 2.718299e+2, -310464.13, -421749.6, -4090.2468, 0.000016052289, 0.0017075605, -310314.0, -34246.855, 0.0, 5.0116305, 4.940146 
4.5391485e+2, 2.767706e+2, -261682.45, -371543.22, -3987.0303, -0.00000307384, -0.001894391, -261537.95, -33889.95, 0.0, 5.011175, 4.9406004 
4.5390713e+2, 2.8170973e+2, -218259.88, -333709.16, -3381.5615, 0.000015852947, 0.0021978877, -218160.92, -38916.27, 0.0, 5.0107245, 4.9366574 
4.538999e+2, 2.8664708e+2, -169142.08, -282845.3, -3241.784, 0.00003579523, -0.0025779726, -169049.73, -38191.13, 0.0, 5.0102816, 4.937323 
4.5389304e+2, 2.9158235e+2, -127167.36, -248608.11, -2559.1633, 0.000014740072, 0.0017423023, -127113.45, -44620.246, 0.0, 5.009844, 4.93206 
4.5388678e+2, 2.9651535e+2, -77934.984, -197616.36, -2372.8926, -0.000026906684, -0.0004551008, -77887.96, -43738.26, 0.0, 5.0094156, 4.9327455 
4.5388088e+2, 3.0145538e+2, -37629.855, -134300.6, -1650.5548, 0.000028385697, 0.0021831263, -37601.684, -37601.684, 0.0, 5.008993, 4.9468107 
4.5387572e+2, 3.0640286e+2, -37526.2, -131933.06, -1405.9352, 0.00007121413, -0.0052474895, -37505.266, -37505.266, 0.0, 5.008583, 4.9478374 
4.5387098e+2, 3.113679e+2, 287.6625, -41327.313, -576.2728, -0.000029361338, 0.003988035, 295.64102, 295.64102, 0.0, 5.0081787, 4.9811773 
4.538672e+2, 3.163502e+2, 1072.794, -37511.82, -259.8489, 0.000045423236, -0.0009547192, 1074.5438, 1074.5438, 0.0, 5.007794, 4.98275 
4.5920688e+2, 1.2286958e+2, -1681127.6, -1739146.6, -572.1557, -0.00002420156, 0.0010161365, -1681122.0, 54756.1, 0.0, 5.02545, 4.987581 
4.592023e+2, 1.2785664e+2, -1634895.6, -1693879.8, -691.93884, -0.00008351323, -0.0032570986, -1634887.5, 52117.496, 0.0, 5.025064, 4.9865746 
4.5919704e+2, 1.3284259e+2, -1590328.3, -1651968.5, -1711.1062, 0.000025262925, 0.003603143, -1590280.9, 47861.813, 0.0, 5.024664, 4.9843793 
4.591912e+2, 1.3782671e+2, -1543606.4, -1605656.5, -1816.6349, -0.0000029287614, -0.0012391583, -1543553.3, 45745.152, 0.0, 5.0242553, 4.9837127 
4.591848e+2, 1.4280944e+2, -1499295.9, -1564294.5, -2701.4456, -0.000058342892, 0.00027408954, -1499183.9, 41283.754, 0.0, 5.0238366, 4.9813724 
4.5917782e+2, 1.4779095e+2, -1452422.6, -1517643.0, -2791.2207, -0.000031395823, -0.0009188081, -1452303.4, 39345.207, 0.0, 5.023409, 4.980817 
4.591704e+2, 1.5277089e+2, -1408166.1, -1476422.9, -3565.4773, 0.000012495664, 0.0013418625, -1407980.4, 34864.953, 0.0, 5.0229745, 4.978441 
4.591625e+2, 1.5774935e+2, -1361266.3, -1429701.8, -3640.9587, -0.000025994887, -0.0012857808, -1361073.1, 32983.28, 0.0, 5.0225315, 4.9779005 
4.5915422e+2, 1.6272636e+2, -1317039.9, -1388576.9, -4303.342, -0.00002015201, 0.0012742791, -1316781.9, 28499.793, 0.0, 5.022083, 4.9754725 
4.591455e+2, 1.6770189e+2, -1270048.3, -1341663.0, -4365.48, -0.000016943075, -0.0011605028, -1269783.1, 26738.457, 0.0, 5.0216274, 4.974983 
4.5913646e+2, 1.7267595e+2, -1225864.6, -1300671.0, -4916.9263, -0.000015519307, 0.001169968, -1225542.8, 22232.895, 0.0, 5.021167, 4.972488 
4.5912707e+2, 1.7764851e+2, -1178801.1, -1253613.4, -4964.0483, -0.00002113106, -0.0011900609, -1178473.3, 20571.432, 0.0, 5.0207005, 4.9720345 
4.5911744e+2, 1.8261963e+2, -1134631.3, -1212713.3, -5405.6763, -0.000013021808, 0.0012624158, -1134258.9, 16068.865, 0.0, 5.0202312, 4.9694877 
4.5910755e+2, 1.8758917e+2, -1087508.1, -1165548.0, -5441.4316, -0.000024801293, -0.001280824, -1087130.6, 14495.54, 0.0, 5.019756, 4.969056 
4.5909745e+2, 1.925573e+2, -1043352.2, -1124752.3, -5772.4204, -0.000010531346, 0.00132283, -1042944.94, 9993.529, 0.0, 5.01928, 4.9664464 
4.5908716e+2, 1.9752382e+2, -996140.2, -1077436.3, -5797.2036, -0.000027310254, -0.0012990687, -995728.9, 8537.729, 0.0, 5.0188, 4.9660497 
4.5907676e+2, 2.0248887e+2, -952131.0, -1037047.2, -6021.089, -0.000008375426, 0.0013264479, -951706.2, 3902.808, 0.0, 5.0183196, 4.9632792 
4.5906618e+2, 2.0745224e+2, -904852.2, -989626.5, -6032.1025, -0.000025173551, -0.001331527, -904425.1, 2542.965, 0.0, 5.0178347, 4.9629016 
4.590556e+2, 2.1241419e+2, -860706.5, -949031.7, -6139.3325, -0.000009202763, 0.0013838629, -860281.8, -1940.7815, 0.0, 5.017349, 4.9601717 
4.5904493e+2, 2.1737443e+2, -813351.3, -901485.3, -6152.7427, -0.000020099209, -0.001420117, -812923.9, -3193.3706, 0.0, 5.016859, 4.9598207 
4.5903426e+2, 2.223333e+2, -769207.75, -861000.3, -6137.252, -0.000008813244, 0.0014370437, -768799.25, -7665.4917, 0.0, 5.016371, 4.9570246 
4.590236e+2, 2.2729042e+2, -721770.4, -813343.2, -6144.206, -0.000014172304, -0.0013908668, -721360.0, -8806.153, 0.0, 5.015882, 4.956692 
4.5901304e+2, 2.3224612e+2, -677625.44, -772980.56, -6019.0625, -0.000008017439, 0.0014804715, -677247.0, -13258.893, 0.0, 5.015394, 4.9538255 
4.5900252e+2, 2.3720005e+2, -630076.7, -725156.44, -6011.158, -0.0000058869377, -0.001646643, -629698.2, -14258.732, 0.0, 5.0149083, 4.953531 
4.5899215e+2, 2.4215257e+2, -585944.2, -684960.3, -5781.2, -0.0000065673757, 0.0017142289, -585607.8, -18703.0, 0.0, 5.0144234, 4.9505706 
4.5898196e+2, 2.4710329e+2, -538260.94, -636925.8, -5754.6504, -0.0000004461963, -0.0016821246, -537926.44, -19538.652, 0.0, 5.013942, 4.9503274 
4.5897195e+2, 2.5205252e+2, -494232.88, -597118.9, -5423.2407, -0.00000401431, 0.0016868926, -493947.8, -24062.49, 0.0, 5.0134616, 4.9472003 
4.589622e+2, 2.5699997e+2, -446243.63, -548494.8, -5375.0225, 0.0000091141255, -0.0017147177, -445961.84, -24561.523, 0.0, 5.012986, 4.9471416 
4.5895264e+2, 2.619459e+2, -402440.1, -509368.16, -4944.6694, -0.0000015076488, 0.0016842446, -402211.94, -29281.596, 0.0, 5.0125127, 4.94374 
4.5894346e+2, 2.6689005e+2, -354058.9, -459959.16, -4871.9775, 0.000007082226, -0.0016301081, -353835.25, -29357.6, 0.0, 5.0120454, 4.9439363 
4.5893452e+2, 2.7183256e+2, -310528.34, -421650.8, -4347.398, 0.000012280358, 0.0017071825, -310358.53, -34317.566, 0.0, 5.011582, 4.9402027 
4.5892602e+2, 2.7677333e+2, -261751.34, -371445.03, -4244.649, -0.000006334254, -0.0018939945, -261587.34, -33966.066, 0.0, 5.011124, 4.9406576 
4.5891786e+2, 2.8171253e+2, -218321.5, -333584.03, -3630.201, 0.000010819427, 0.0022007546, -218207.28, -38989.965, 0.0, 5.010672, 4.936725 
4.589102e+2, 2.8664994e+2, -169207.73, -282719.6, -3490.8604, 0.000029144452, -0.0025748503, -169100.48, -38269.883, 0.0, 5.010227, 4.9373918 
4.5890287e+2, 2.9158527e+2, -127221.59, -248445.4, -2798.6006, 0.00000815051, 0.0017429166, -127157.02, -44692.555, 0.0, 5.0097876, 4.9321427 
4.588962e+2, 2.9651836e+2, -77992.43, -197450.45, -2611.4795, -0.000029434872, -0.0004508291, -77935.37, -43815.242, 0.0, 5.0093575, 4.9328303 
4.588899e+2, 3.0145848e+2, -37682.668, -134113.22, -1878.2301, 0.000022566814, 0.0021852716, -37646.098, -37646.098, 0.0, 5.0089326, 4.946904 
4.588843e+2, 3.0640608e+2, -37583.42, -131744.1, -1631.7599, 0.00005251646, -0.0052509913, -37555.152, -37555.152, 0.0, 5.00852, 4.9479327 
4.5887914e+2, 3.1137118e+2, 228.54335, -41132.035, -789.67786, -0.000034872646, 0.003998508, 243.6148, 243.6148, 0.0, 5.0081134, 4.9812775 
4.5887497e+2, 3.163536e+2, 1005.92084, -37313.125, -466.9782, 0.000017751716, -0.0009515165, 1011.61084, 1011.61084, 0.0, 5.0077243, 4.982853 
4.642326e+2, 1.2287372e+2, -1679711.4, -1738718.1, -374.64944, -0.000022337255, 0.0010079347, -1679708.9, 56128.63, 0.0, 5.025981, 4.987461 
4.6422762e+2, 1.2786065e+2, -1633554.1, -1693487.8, -499.32974, -0.00006922957, -0.003256273, -1633550.0, 53415.605, 0.0, 5.02557, 4.9864564 
4.6422195e+2, 1.3284649e+2, -1589047.0, -1651583.1, -1533.6744, 0.000018485962, 0.0035929494, -1589009.5, 49094.895, 0.0, 5.0251455, 4.984272 
4.642157e+2, 1.3783051e+2, -1542398.1, -1605305.1, -1642.3209, 0.0000018464549, -0.0012460392, -1542355.3, 46905.88, 0.0, 5.0247126, 4.983607 
4.6420884e+2, 1.4281313e+2, -1498147.6, -1563949.8, -2540.3613, -0.000049725182, 0.0002677815, -1498049.6, 42381.72, 0.0, 5.024269, 4.9812775 
4.6420145e+2, 1.4779457e+2, -1451346.9, -1517331.4, -2631.7034, -0.000025713498, -0.00092376466, -1451242.0, 40371.28, 0.0, 5.023817, 4.9807234 
4.6419358e+2, 1.527744e+2, -1407149.4, -1476117.3, -3417.6484, 0.000015076773, 0.001333857, -1406980.4, 35830.492, 0.0, 5.023358, 4.9783587 
4.641852e+2, 1.577528e+2, -1360322.3, -1429429.6, -3494.0146, -0.000017443732, -0.0012911959, -1360146.0, 33876.703, 0.0, 5.0228906, 4.977819 
4.6417642e+2, 1.6272973e+2, -1316154.6, -1388309.6, -4166.192, -0.00001568626, 0.0012670424, -1315914.9, 29333.895, 0.0, 5.0224175, 4.9754024 
4.6416727e+2, 1.6770516e+2, -1269236.3, -1341430.0, -4228.962, -0.000013946406, -0.0011666463, -1268989.4, 27499.926, 0.0, 5.0219374, 4.974914 
4.6415776e+2, 1.7267917e+2, -1225109.9, -1300441.6, -4788.4575, -0.000007694258, 0.001162486, -1224806.8, 22937.379, 0.0, 5.0214524, 4.9724298 
4.641479e+2, 1.7765167e+2, -1178118.9, -1253418.4, -4835.126, -0.000014287108, -0.0011954146, -1177809.6, 21203.994, 0.0, 5.0209613, 4.9719768 
4.641378e+2, 1.8262273e+2, -1134006.5, -1212521.9, -5283.298, -0.0000099035915, 0.0012539258, -1133652.5, 16644.684, 0.0, 5.0204678, 4.969441 
4.641274e+2, 1.8759224e+2, -1086953.3, -1165389.5, -5318.7227, -0.000018364535, -0.001285944, -1086594.3, 15001.891, 0.0, 5.0199685, 4.9690104 
4.641168e+2, 1.9256033e+2, -1042853.75, -1124596.9, -5653.9067, -0.0000046357245, 0.001315389, -1042464.56, 10444.29, 0.0, 5.0194683, 4.966411 
4.6410602e+2, 1.9752681e+2, -995715.56, -1077315.5, -5676.831, -0.000021385897, -0.0013067788, -995322.5, 8914.791, 0.0, 5.0189633, 4.966015 
4.6409512e+2, 2.0249183e+2, -951759.56, -1036917.6, -5904.033, -0.0000033243848, 0.0013211018, -951352.2, 4227.817, 0.0, 5.0184574, 4.9632597 
4.640841e+2, 2.0745519e+2, -904554.25, -989529.7, -5914.9863, -0.000017888331, -0.0013389776, -904144.5, 2794.8105, 0.0, 5.0179467, 4.962883 
4.6407297e+2, 2.124171e+2, -860472.0, -948950.94, -6024.0664, -0.000004350527, 0.0013776536, -860063.75, -1751.3413, 0.0, 5.017436, 4.9601593 
4.640618e+2, 2.1737735e+2, -813185.1, -901435.6, -6037.327, -0.0000136413155, -0.0014285195, -812774.0, -3072.0503, 0.0, 5.0169225, 4.959809 
4.6405062e+2, 2.223362e+2, -769098.06, -860953.1, -6019.927, -0.0000029525877, 0.0014316967, -768705.2, -7599.8735, 0.0, 5.0164094, 4.9570236 
4.6403944e+2, 2.2729331e+2, -721731.8, -813328.0, -6027.0, -0.0000075675516, -0.0013986073, -721336.94, -8811.5205, 0.0, 5.0158954, 4.9566917 
4.640284e+2, 2.3224902e+2, -677644.06, -772967.1, -5898.339, -0.0000017522065, 0.0014742456, -677280.5, -13320.893, 0.0, 5.015383, 4.9538355 
4.640174e+2, 2.3720297e+2, -630166.25, -725174.44, -5890.0386, 0.000000609033, -0.0016546566, -629802.5, -14391.61, 0.0, 5.014871, 4.9535413 
4.6400654e+2, 2.421555e+2, -586091.0, -684979.44, -5655.7456, -0.00000015919684, 0.0017081542, -585768.56, -18892.49, 0.0, 5.014361, 4.950592 
4.6399584e+2, 2.4710622e+2, -538478.5, -636975.94, -5627.8433, 0.000006240022, -0.0016900632, -538158.0, -19799.1, 0.0, 5.0138535, 4.95035 
4.6398532e+2, 2.520555e+2, -494507.56, -597169.6, -5290.7646, 0.0000031884952, 0.00167997, -494235.63, -24379.506, 0.0, 5.013348, 4.9472337 
4.6397507e+2, 2.5700298e+2, -446588.88, -548575.75, -5240.711, 0.000014704862, -0.0017224646, -446320.28, -24949.484, 0.0, 5.012847, 4.9471755 
4.6396506e+2, 2.6194894e+2, -402842.66, -509449.34, -4803.341, 0.0000058613377, 0.001675837, -402626.7, -29726.256, 0.0, 5.0123477, 4.9437847 
4.6395537e+2, 2.6689312e+2, -354531.4, -460069.66, -4728.4854, 0.000013559146, -0.001635944, -354319.97, -29872.697, 0.0, 5.0118546, 4.9439816 
4.6394598e+2, 2.7183568e+2, -311058.06, -421760.63, -4194.4473, 0.000018845863, 0.0016980544, -310899.34, -34889.23, 0.0, 5.0113654, 4.9402595 
4.63937e+2, 2.7677655e+2, -262350.2, -371583.2, -4090.213, 0.0000028393727, -0.0019039526, -262197.22, -34607.36, 0.0, 5.010882, 4.9407153 
4.6392834e+2, 2.8171578e+2, -218978.72, -333723.28, -3463.5688, 0.00001816658, 0.002192823, -218874.27, -39688.965, 0.0, 5.010403, 4.9367933 
4.6392024e+2, 2.8665325e+2, -169934.03, -282886.1, -3323.023, 0.000033615735, -0.0025810513, -169836.34, -39038.438, 0.0, 5.0099325, 4.937461 
4.639125e+2, 2.9158866e+2, -128001.72, -248600.66, -2617.6155, 0.000015443638, 0.0017324315, -127944.93, -45513.87, 0.0, 5.009466, 4.932226 
4.6390533e+2, 2.9652184e+2, -78840.625, -197629.38, -2427.8108, -0.000016237898, -0.00045750343, -78791.02, -44705.145, 0.0, 5.0090094, 4.932916 
4.638986e+2, 3.0146205e+2, -38587.734, -134294.75, -1685.051, 0.00002875718, 0.0021771854, -38558.08, -38558.08, 0.0, 5.0085583, 4.9469995 
4.638926e+2, 3.0640975e+2, -38558.035, -131952.3, -1435.5903, 0.000049543887, -0.0052667884, -38535.973, -38535.973, 0.0, 5.0081196, 4.9480295 
4.6388704e+2, 3.1137496e+2, -802.772, -41352.56, -587.30817, -0.0000121668545, 0.0039981524, -794.2674, -794.2674, 0.0, 5.007687, 4.9813786 
4.6388245e+2, 3.1635746e+2, -89.61777, -37556.51, -258.63092, 0.000035911653, -0.00096571347, -87.83254, -87.83254, 0.0, 5.007273, 4.9829564 
4.6925858e+2, 1.2287815e+2, -1679820.5, -1739052.8, -582.07135, -0.000031385513, 0.0009994854, -1679814.8, 55979.406, 0.0, 5.0260043, 4.98734 
4.692532e+2, 1.2786496e+2, -1633670.4, -1693824.0, -709.4796, -0.000060485, -0.0032573654, -1633662.0, 53261.414, 0.0, 5.025591, 4.9863358 
4.692471e+2, 1.3285069e+2, -1589155.6, -1651889.3, -1756.9177, 0.000005205963, 0.0035851179, -1589106.5, 48956.84, 0.0, 5.0251627, 4.984163 
4.692404e+2, 1.3783458e+2, -1542513.4, -1605610.4, -1866.8824, 0.00000030723498, -0.0012529154, -1542458.1, 46762.99, 0.0, 5.0247264, 4.9834995 
4.692331e+2, 1.4281711e+2, -1498255.8, -1564226.4, -2776.8044, -0.000045963327, 0.0002620084, -1498139.1, 42253.285, 0.0, 5.02428, 4.9811807 
4.6922526e+2, 1.4779845e+2, -1451461.4, -1517606.8, -2868.3374, -0.00002616818, -0.000927091, -1451337.3, 40238.03, 0.0, 5.0238247, 4.9806285 
4.692169e+2, 1.527782e+2, -1407256.9, -1476364.0, -3665.3474, 0.000009843694, 0.0013269149, -1407063.0, 35710.652, 0.0, 5.0233626, 4.978275 
4.692081e+2, 1.577565e+2, -1360436.1, -1429675.9, -3741.7888, -0.000016121568, -0.0012949663, -1360234.5, 33751.895, 0.0, 5.022892, 4.9777365 
4.6919885e+2, 1.6273335e+2, -1316261.0, -1388526.8, -4423.6978, -0.000017484212, 0.0012623471, -1315991.3, 29222.0, 0.0, 5.0224156, 4.975331 
4.691892e+2, 1.6770874e+2, -1269348.9, -1341647.4, -4486.3525, -0.000016557919, -0.0011690325, -1269071.6, 27382.854, 0.0, 5.0219326, 4.974844 
4.691792e+2, 1.7268266e+2, -1225214.3, -1300629.1, -5054.6074, -0.000006798249, 0.0011579443, -1224877.0, 22832.893, 0.0, 5.0214453, 4.9723706 
4.6916884e+2, 1.776551e+2, -1178229.5, -1253607.0, -5101.0786, -0.00001507005, -0.001197424, -1177885.8, 21094.146, 0.0, 5.0209513, 4.971918 
4.6915823e+2, 1.8262611e+2, -1134108.9, -1212681.5, -5556.1504, -0.000012873523, 0.0012509308, -1133718.0, 16546.115, 0.0, 5.020455, 4.9693937 
4.6914732e+2, 1.8759556e+2, -1087061.9, -1165550.8, -5590.9985, -0.000019310657, -0.0012865178, -1086665.6, 14897.759, 0.0, 5.0199533, 4.968963 
4.6913627e+2, 1.9256362e+2, -1042953.25, -1124727.6, -5931.7373, -0.0000074304835, 0.0013134459, -1042525.25, 10351.27, 0.0, 5.0194507, 4.9663754 
4.6912497e+2, 1.9753008e+2, -995819.8, -1077446.1, -5954.1416, -0.000021537626, -0.0013099313, -995387.8, 8817.552, 0.0, 5.0189433, 4.9659805 
4.6911356e+2, 2.0249507e+2, -951850.06, -1037008.44, -6186.412, -0.0000071261206, 0.0013222058, -951403.0, 4145.2944, 0.0, 5.0184355, 4.963239 
4.69102e+2, 2.0745839e+2, -904649.2, -989620.06, -6197.541, -0.000020122723, -0.0013389472, -904199.5, 2708.2642, 0.0, 5.0179224, 4.962864 
4.690904e+2, 2.124203e+2, -860563.56, -949024.2, -6309.332, -0.000007212433, 0.0013768134, -860115.8, -1834.7733, 0.0, 5.01741, 4.960147 
4.6907872e+2, 2.1738054e+2, -813281.4, -901509.7, -6323.8657, -0.000014230183, -0.0014304981, -812830.4, -3159.6423, 0.0, 5.0168943, 4.959797 
4.69067e+2, 2.2233938e+2, -769185.56, -860998.9, -6306.801, -0.00000711688, 0.0014339129, -768754.4, -7680.235, 0.0, 5.0163794, 4.957022 
4.6905535e+2, 2.272965e+2, -721823.56, -813374.1, -6315.227, -0.000010989233, -0.0013979248, -721390.0, -8895.735, 0.0, 5.0158634, 4.9566913 
4.6904376e+2, 2.3225221e+2, -677726.7, -772983.8, -6185.208, -0.0000038265757, 0.0014747307, -677326.75, -13398.367, 0.0, 5.0153484, 4.953846 
4.6903226e+2, 2.3720616e+2, -630253.5, -725192.2, -6177.8213, -0.0000014180622, -0.0016557834, -629853.2, -14473.614, 0.0, 5.0148354, 4.953552 
4.6902087e+2, 2.4215871e+2, -586169.0, -684967.1, -5941.435, -0.000003858553, 0.001711387, -585813.0, -18968.367, 0.0, 5.0143228, 4.950614 
4.6900967e+2, 2.4710947e+2, -538561.0, -636964.44, -5913.9063, 0.0000027389187, -0.0016885425, -538206.9, -19879.678, 0.0, 5.013814, 4.950372 
4.6899867e+2, 2.5205877e+2, -494581.03, -597128.25, -5573.843, 0.0000017070822, 0.0016810568, -494278.94, -24454.803, 0.0, 5.013306, 4.947267 
4.689879e+2, 2.570063e+2, -446666.75, -548535.1, -5523.8784, 0.000010249619, -0.0017201105, -446368.06, -25029.592, 0.0, 5.0128036, 4.94721 
4.689774e+2, 2.6195228e+2, -402911.8, -509379.16, -5082.1816, 0.0000033449746, 0.0016777163, -402669.78, -29802.04, 0.0, 5.0123024, 4.94383 
4.6896723e+2, 2.6689652e+2, -354604.7, -459999.44, -5007.316, 0.000010089547, -0.0016316437, -354367.3, -29953.174, 0.0, 5.0118074, 4.944028 
4.6895733e+2, 2.7183914e+2, -311122.72, -421660.78, -4466.9746, 0.000014393779, 0.0017007359, -310942.5, -34966.027, 0.0, 5.0113163, 4.9403167 
4.689479e+2, 2.7678004e+2, -262419.22, -371483.38, -4363.471, 0.00000044775467, -0.001902558, -262244.94, -34689.266, 0.0, 5.010831, 4.9407735 
4.6893874e+2, 2.8171933e+2, -219040.42, -333596.34, -3728.0928, 0.000012119403, 0.0021968246, -218919.22, -39768.758, 0.0, 5.01035, 4.9368615 
4.6893016e+2, 2.866569e+2, -169999.86, -282759.03, -3588.2258, 0.00002355236, -0.0025740664, -169885.8, -39123.395, 0.0, 5.0098777, 4.93753 
4.6892193e+2, 2.915924e+2, -128054.54, -248432.88, -2873.3906, 0.000009690725, 0.0017339411, -127985.99, -45591.19, 0.0, 5.0094094, 4.932311 
4.6891433e+2, 2.9652563e+2, -78896.69, -197458.36, -2683.0813, -0.000014650267, -0.00045250214, -78836.0, -44787.227, 0.0, 5.0089507, 4.933003 
4.6890715e+2, 3.0146593e+2, -38639.313, -134102.61, -1929.4296, 0.000018827335, 0.0021813398, -38600.332, -38600.332, 0.0, 5.0084977, 4.9470954 
4.689007e+2, 3.0641374e+2, -38614.15, -131758.86, -1678.8315, 0.000027100976, -0.005270182, -38583.9, -38583.9, 0.0, 5.0080566, 4.948127 
4.6889472e+2, 3.1137902e+2, -861.3789, -41153.934, -817.69006, -0.000013552791, 0.0040123863, -844.7917, -844.7917, 0.0, 5.0076213, 4.9814806 
4.688897e+2, 3.1636164e+2, -157.62192, -37357.34, -483.4989, 0.000003738147, -0.0009620165, -151.33876, -151.33876, 0.0, 5.007203, 4.98306 
4.742849e+2, 1.228831e+2, -1678351.9, -1738602.3, -370.33698, -0.000029049526, 0.0009897851, -1678349.6, 57396.08, 0.0, 5.0265536, 4.987219 
4.7427905e+2, 1.2786978e+2, -1632279.9, -1693412.1, -503.2869, -0.000044218996, -0.0032574206, -1632275.8, 54600.332, 0.0, 5.0261145, 4.9862156 
4.7427252e+2, 1.3285539e+2, -1587826.9, -1651483.5, -1564.9407, 0.000000014173015, 0.0035749865, -1587788.4, 50228.7, 0.0, 5.025661, 4.984054 
4.7426537e+2, 1.3783918e+2, -1541260.6, -1605240.5, -1678.321, 0.0000040604173, -0.0012619573, -1541216.6, 47959.457, 0.0, 5.0251994, 4.983392 
4.742576e+2, 1.4282161e+2, -1497064.8, -1563863.1, -2600.7036, -0.000037099326, 0.00025436108, -1496963.6, 43384.645, 0.0, 5.0247273, 4.9810843 
4.742493e+2, 1.4780286e+2, -1450345.4, -1517278.3, -2693.794, -0.000019182067, -0.0009328131, -1450237.1, 41294.957, 0.0, 5.024247, 4.980534 
4.7424048e+2, 1.5278251e+2, -1406201.6, -1476041.5, -3501.9626, 0.000011818336, 0.0013173731, -1406026.4, 36705.008, 0.0, 5.02376, 4.9781914 
4.7423118e+2, 1.5776072e+2, -1359455.4, -1429387.9, -3579.279, -0.000008626577, -0.001301625, -1359272.8, 34672.21, 0.0, 5.023264, 4.9776545 
4.7422144e+2, 1.627375e+2, -1315340.8, -1388244.0, -4270.484, -0.000012544793, 0.001254093, -1315091.5, 30080.977, 0.0, 5.022763, 4.97526 
4.7421128e+2, 1.6771281e+2, -1268503.6, -1341399.6, -4333.345, -0.000011832834, -0.0011759948, -1268246.9, 28167.504, 0.0, 5.022254, 4.974774 
4.742008e+2, 1.726867e+2, -1224428.1, -1300385.9, -4909.264, -0.0000003583804, 0.0011491966, -1224112.1, 23558.39, 0.0, 5.021742, 4.972312 
4.741899e+2, 1.7765908e+2, -1177517.6, -1253399.4, -4955.3906, -0.000010040568, -0.0012036046, -1177195.4, 21745.752, 0.0, 5.021223, 4.97186 
4.741788e+2, 1.8263002e+2, -1133455.3, -1212476.8, -5416.0737, -0.000007822851, 0.0012421175, -1133085.8, 17140.008, 0.0, 5.0207014, 4.9693465 
4.7416738e+2, 1.8759942e+2, -1086482.1, -1165381.3, -5449.871, -0.000011692409, -0.0012943713, -1086107.5, 15418.141, 0.0, 5.020175, 4.968917 
4.7415578e+2, 1.9256744e+2, -1042433.2, -1124561.9, -5794.616, -0.0000034704856, 0.0013063959, -1042026.3, 10812.7705, 0.0, 5.0196466, 4.96634 
4.7414398e+2, 1.9753385e+2, -995372.7, -1077313.4, -5816.0156, -0.000014577444, -0.0013183352, -994961.94, 9206.355, 0.0, 5.019114, 4.965946 
4.7413206e+2, 2.0249882e+2, -951456.06, -1036866.25, -6051.494, -0.0000022268873, 0.0013145385, -951029.44, 4482.1016, 0.0, 5.0185804, 4.9632206 
4.7411996e+2, 2.0746213e+2, -904328.25, -989510.94, -6061.3066, -0.0000127614185, -0.0013466076, -903899.06, 2972.0757, 0.0, 5.0180426, 4.962846 
4.7410783e+2, 2.1242402e+2, -860308.3, -948933.44, -6174.071, -0.0000024903657, 0.0013692594, -859880.25, -1635.6847, 0.0, 5.017504, 4.9601345 
4.740956e+2, 2.1738425e+2, -813098.94, -901452.25, -6188.956, -0.000006970659, -0.0014395402, -812667.56, -3033.1187, 0.0, 5.016963, 4.9597855 
4.740834e+2, 2.2234307e+2, -769062.3, -860944.6, -6170.0728, -0.0000015949244, 0.0014273892, -768649.9, -7611.9746, 0.0, 5.0164223, 4.957021 
4.740712e+2, 2.273002e+2, -721772.44, -813352.5, -6178.4214, -0.000004084745, -0.0014051014, -721357.5, -8899.505, 0.0, 5.015881, 4.956691 
4.7405908e+2, 2.322559e+2, -677733.8, -772964.2, -6045.0024, 0.000002272756, 0.0014666934, -677351.6, -13459.496, 0.0, 5.015341, 4.9538565 
4.7404706e+2, 2.3720989e+2, -630333.2, -725205.44, -6037.0186, 0.0000054589623, -0.0016647262, -629950.56, -14607.382, 0.0, 5.0148015, 4.9535627 
4.7403514e+2, 2.4216245e+2, -586307.5, -684981.8, -5796.1685, 0.0000034545278, 0.0017052172, -585968.2, -19160.11, 0.0, 5.014263, 4.950636 
4.740234e+2, 2.4711321e+2, -538772.44, -637011.4, -5767.2715, 0.000008176656, -0.0016961531, -538435.0, -20144.572, 0.0, 5.013728, 4.9503946 
4.740119e+2, 2.5206253e+2, -494850.88, -597175.94, -5421.4653, 0.000009720839, 0.001673144, -494564.44, -24777.314, 0.0, 5.0131946, 4.947301 
4.740006e+2, 2.570101e+2, -447009.44, -548614.3, -5369.7085, 0.00001605561, -0.0017276397, -446726.44, -25425.307, 0.0, 5.012665, 4.947244 
4.739896e+2, 2.6195613e+2, -403313.47, -509459.03, -4920.582, 0.000011080344, 0.0016695482, -403085.84, -30255.834, 0.0, 5.012138, 4.9438753 
4.7397888e+2, 2.6690042e+2, -355078.28, -460109.28, -4843.802, 0.00001635253, -0.0016370052, -354855.38, -30479.416, 0.0, 5.011616, 4.944074 
4.739685e+2, 2.7184308e+2, -311655.94, -421770.9, -4293.9297, 0.00002028359, 0.0016923011, -311488.75, -35550.926, 0.0, 5.011098, 4.940374 
4.7395855e+2, 2.7678403e+2, -263023.53, -371622.25, -4189.028, 0.000010854225, -0.0019125742, -262862.2, -35345.754, 0.0, 5.010586, 4.9408317 
4.7394896e+2, 2.817234e+2, -219705.58, -333737.28, -3541.6018, 0.000020007368, 0.002189696, -219595.69, -40485.063, 0.0, 5.0100784, 4.93693 
4.7393984e+2, 2.8666103e+2, -170736.42, -282928.44, -3400.5583, 0.000025483892, -0.0025782331, -170633.45, -39911.582, 0.0, 5.0095787, 4.9375997 
4.7393116e+2, 2.915966e+2, -128845.445, -248588.55, -2672.659, 0.000016864571, 0.0017243188, -128785.82, -46432.285, 0.0, 5.0090833, 4.932397 
4.739231e+2, 2.9652995e+2, -79758.3, -197638.52, -2480.0005, 0.0000019800411, -0.00045819703, -79706.15, -45699.492, 0.0, 5.008597, 4.933091 
4.7391543e+2, 3.0147034e+2, -39560.96, -134286.97, -1717.0969, 0.000023414792, 0.002174217, -39529.844, -39529.844, 0.0, 5.0081162, 4.947192 
4.7390854e+2, 3.064182e+2, -39608.45, -131971.53, -1464.1425, 0.000020644364, -0.005283679, -39585.242, -39585.242, 0.0, 5.007648, 4.948225 
4.739021e+2, 3.113836e+2, -1914.1022, -41380.023, -596.7762, 0.000009597677, 0.0040150997, -1905.0802, -1905.0802, 0.0, 5.0071864, 4.981583 
4.7389668e+2, 3.1636634e+2, -1279.266, -37611.348, -258.02127, 0.000022521112, -0.00097402686, -1277.4337, -1277.4337, 0.0, 5.0067425, 4.9831634 
4.7931144e+2, 1.2288835e+2, -1678460.8, -1738941.6, -590.0559, -0.000037523136, 0.0009792881, -1678455.0, 57239.21, 0.0, 5.0265784, 4.9870954 
4.7930518e+2, 1.2787493e+2, -1632396.4, -1693753.1, -726.2623, -0.000034980974, -0.0032569296, -1632387.8, 54438.043, 0.0, 5.026136, 4.986093 
4.7929817e+2, 1.328604e+2, -1587935.6, -1651793.3, -1800.5068, -0.0000103067305, 0.0035644653, -1587884.9, 50083.063, 0.0, 5.025679, 4.983943 
4.7929054e+2, 1.3784409e+2, -1541376.6, -1605550.1, -1915.7185, 0.0000010603078, -0.0012702306, -1541319.5, 47808.477, 0.0, 5.025214, 4.9832826 
4.7928232e+2, 1.4282642e+2, -1497173.5, -1564142.8, -2849.5166, -0.000034418725, 0.00024829298, -1497052.4, 43248.777, 0.0, 5.024739, 4.9809866 
4.7927353e+2, 1.4780755e+2, -1450461.0, -1517557.3, -2943.0496, -0.00001816472, -0.00093716476, -1450332.3, 41153.785, 0.0, 5.024255, 4.9804378 
4.7926423e+2, 1.5278712e+2, -1406309.9, -1476290.9, -3761.8787, 0.000006431652, 0.0013099296, -1406108.3, 36577.926, 0.0, 5.023764, 4.9781065 
4.7925442e+2, 1.5776525e+2, -1359570.3, -1429636.8, -3839.5557, -0.0000090420235, -0.0013057346, -1359360.5, 34540.035, 0.0, 5.0232654, 4.9775715 
4.7924417e+2, 1.6274196e+2, -1315447.9, -1388463.3, -4540.2993, -0.000014262689, 0.0012489461, -1315166.8, 29962.145, 0.0, 5.022761, 4.975188 
4.7923353e+2, 1.6771719e+2, -1268617.4, -1341619.3, -4603.306, -0.000012795489, -0.0011798979, -1268328.3, 28043.201, 0.0, 5.022249, 4.974703 
4.792225e+2, 1.72691e+2, -1224533.8, -1300575.4, -5187.5776, -0.0000017033045, 0.0011450314, -1224181.5, 23446.64, 0.0, 5.021734, 4.9722524 
4.7921115e+2, 1.7766333e+2, -1177630.3, -1253590.5, -5233.5635, -0.000012977366, -0.0012042762, -1177271.4, 21628.02, 0.0, 5.0212126, 4.9718013 
4.791995e+2, 1.8263423e+2, -1133559.3, -1212637.3, -5701.068, -0.000009520248, 0.0012383433, -1133150.3, 17034.29, 0.0, 5.0206885, 4.9692993 
4.7918755e+2, 1.876036e+2, -1086592.3, -1165543.4, -5734.8984, -0.000011442464, -0.0012976405, -1086177.9, 15306.953, 0.0, 5.0201592, 4.9688697 
4.7917545e+2, 1.9257155e+2, -1042534.8, -1124694.8, -6084.993, -0.0000087727985, 0.0013070503, -1042086.6, 10712.159, 0.0, 5.0196285, 4.9663043 
4.7916308e+2, 1.9753793e+2, -995479.44, -1077446.6, -6106.23, -0.000016530452, -0.0013179118, -995027.06, 9101.272, 0.0, 5.0190935, 4.965911 
4.791506e+2, 2.0250288e+2, -951545.94, -1036952.94, -6346.696, -0.0000052230885, 0.0013132691, -951076.9, 4394.911, 0.0, 5.018558, 4.9632025 
4.79138e+2, 2.0746616e+2, -904423.06, -989598.56, -6356.7935, -0.000012946537, -0.0013466165, -903951.25, 2880.359, 0.0, 5.018018, 4.962828 
4.791253e+2, 2.1242803e+2, -860401.6, -949008.25, -6472.588, -0.0000077553905, 0.0013711555, -859931.3, -1726.1399, 0.0, 5.0174775, 4.960122 
4.7911254e+2, 2.1738824e+2, -813196.9, -901527.8, -6488.7754, -0.000009704458, -0.001439339, -812722.75, -3127.6345, 0.0, 5.0169344, 4.9597735 
4.7909978e+2, 2.2234708e+2, -769150.9, -860990.2, -6470.1353, -0.0000046982527, 0.0014293195, -768697.3, -7698.611, 0.0, 5.0163918, 4.9570203 
4.7908705e+2, 2.273042e+2, -721865.56, -813399.2, -6479.8867, -0.0000054353677, -0.0014025929, -721409.06, -8990.296, 0.0, 5.0158486, 4.9566903 
4.790744e+2, 2.3225991e+2, -677817.4, -772980.6, -6345.737, -0.0000024213894, 0.0014683604, -677396.06, -13543.224, 0.0, 5.015306, 4.953867 
4.7906184e+2, 2.372139e+2, -630421.7, -725223.75, -6338.7783, 0.0000015112157, -0.0016627487, -629999.75, -14695.915, 0.0, 5.0147653, 4.9535737 
4.790494e+2, 2.4216647e+2, -586386.5, -684969.5, -6096.222, 0.0000016901533, 0.0017092071, -586010.94, -19242.375, 0.0, 5.014225, 4.9506583 
4.7903714e+2, 2.4711728e+2, -538856.0, -637000.25, -6067.9063, 0.0000029335483, -0.0016929058, -538482.25, -20231.578, 0.0, 5.0136876, 4.950417 
4.7902507e+2, 2.520666e+2, -494925.16, -597134.5, -5719.1636, 0.000007457208, 0.001677018, -494606.13, -24859.021, 0.0, 5.013152, 4.947335 
4.7901326e+2, 2.570142e+2, -447088.06, -548573.44, -5667.982, 0.000011869398, -0.0017239761, -446772.47, -25511.69, 0.0, 5.012621, 4.9472785 
4.790017e+2, 2.6196027e+2, -403383.16, -509388.3, -5214.5977, 0.000008154772, 0.0016732254, -403127.25, -30337.973, 0.0, 5.0120916, 4.943921 
4.789905e+2, 2.669046e+2, -355152.0, -460038.5, -5138.3096, 0.000011901749, -0.001629328, -354900.88, -30566.105, 0.0, 5.0115685, 4.9441204 
4.789796e+2, 2.718473e+2, -311720.84, -421670.13, -4582.341, 0.0000146555485, 0.0016962172, -311530.22, -35634.094, 0.0, 5.0110483, 4.9404316 
4.7896913e+2, 2.7678835e+2, -263092.6, -371521.13, -4478.368, 0.000008627497, -0.0019096431, -262907.94, -35433.78, 0.0, 5.0105343, 4.9408903 
4.78959e+2, 2.817278e+2, -219767.16, -333608.8, -3822.6167, 0.000014601671, 0.0021966014, -219638.95, -40571.234, 0.0, 5.010025, 4.9369993 
4.7894943e+2, 2.8666547e+2, -170802.11, -282800.0, -3682.4077, 0.000013131258, -0.0025688442, -170681.17, -40002.895, 0.0, 5.0095234, 4.9376698 
4.7894022e+2, 2.916011e+2, -128896.71, -248416.31, -2945.3335, 0.000010052535, 0.0017276936, -128824.18, -46514.99, 0.0, 5.0090265, 4.932483 
4.7893167e+2, 2.9653454e+2, -79812.625, -197462.48, -2752.7217, 0.0000056285485, -0.0004513504, -79748.25, -45786.81, 0.0, 5.008538, 4.93318 
4.7892353e+2, 3.0147505e+2, -39611.203, -134090.36, -1978.9814, 0.00001284296, 0.0021801468, -39569.77, -39569.77, 0.0, 5.008055, 4.94729 
4.7891617e+2, 3.06423e+2, -39663.465, -131774.03, -1725.4739, -0.0000041559783, -0.0052833348, -39631.156, -39631.156, 0.0, 5.0075846, 4.948324 
4.7890928e+2, 3.1138852e+2, -1971.842, -41177.895, -844.4346, 0.000006282054, 0.0040299133, -1953.6628, -1953.6628, 0.0, 5.00712, 4.9816866 
4.7890338e+2, 3.1637135e+2, -1348.6316, -37412.953, -501.4732, -0.0000105901945, -0.00096794346, -1341.66, -1341.66, 0.0, 5.006672, 4.9832673 
4.8433828e+2, 1.2289417e+2, -1676939.4, -1738468.8, -363.75674, -0.00003201975, 0.00096869865, -1676937.3, 58699.914, 0.0, 5.027146, 4.9869723 
4.8433158e+2, 1.2788062e+2, -1630956.3, -1693320.3, -506.03525, -0.000021150776, -0.0032565503, -1630952.1, 55817.906, 0.0, 5.026677, 4.985971 
4.8432413e+2, 1.32866e+2, -1586559.6, -1651367.0, -1593.5776, -0.000013665351, 0.0035530655, -1586520.5, 51392.848, 0.0, 5.0261936, 4.9838333 
4.8431602e+2, 1.3784955e+2, -1540079.9, -1605161.5, -1712.3702, 0.0000057302427, -0.0012794059, -1540034.9, 49039.555, 0.0, 5.0257025, 4.9831743 
4.843073e+2, 1.4283177e+2, -1495939.4, -1563760.3, -2657.7773, -0.000025222796, 0.00024089857, -1495835.4, 44413.203, 0.0, 5.0252013, 4.98089 
4.84298e+2, 1.4781281e+2, -1449304.3, -1517211.0, -2752.879, -0.000011447944, -0.00094309036, -1449192.9, 42241.508, 0.0, 5.0246916, 4.9803424 
4.842882e+2, 1.527923e+2, -1405215.8, -1475950.6, -3582.131, 0.000007859697, 0.0012999126, -1405034.9, 37600.645, 0.0, 5.0241747, 4.9780226 
4.8427787e+2, 1.5777034e+2, -1358553.4, -1429332.6, -3660.6064, -0.0000015152465, -0.0013132343, -1358364.5, 35486.14, 0.0, 5.02365, 4.9774885 
4.8426712e+2, 1.6274697e+2, -1314492.8, -1388164.8, -4370.0317, -0.000008970879, 0.0012409701, -1314234.4, 30845.332, 0.0, 5.02312, 4.9751163 
4.842559e+2, 1.6772214e+2, -1267738.8, -1341356.9, -4433.0806, -0.000008604266, -0.0011867969, -1267472.8, 28850.332, 0.0, 5.0225825, 4.9746327 
4.8424438e+2, 1.7269588e+2, -1223715.9, -1300316.9, -5024.2563, 0.0000043474533, 0.0011351896, -1223387.8, 24192.684, 0.0, 5.0220413, 4.9721932 
4.842325e+2, 1.7766814e+2, -1176888.6, -1253368.6, -5069.8022, -0.0000066788916, -0.001211667, -1176554.0, 22298.213, 0.0, 5.021494, 4.971743 
4.8422027e+2, 1.8263899e+2, -1132878.5, -1212419.8, -5542.3184, -0.0000055161318, 0.0012298163, -1132494.3, 17643.678, 0.0, 5.020944, 4.969252 
4.8420784e+2, 1.876083e+2, -1085987.3, -1165361.5, -5575.4175, -0.00000395591, -0.0013056721, -1085597.5, 15841.157, 0.0, 5.020389, 4.9688234 
4.8419514e+2, 1.9257623e+2, -1041989.7, -1124516.4, -5928.356, -0.0000045017196, 0.0012983708, -1041566.0, 11186.9795, 0.0, 5.019833, 4.9662695 
4.8418224e+2, 1.9754258e+2, -995009.9, -1077304.9, -5948.044, -0.000010016546, -0.0013250671, -994582.2, 9500.686, 0.0, 5.0192723, 4.965876 
4.8416921e+2, 2.025075e+2, -951127.4, -1036795.06, -6191.3247, -0.000000055691608, 0.0013042747, -950682.25, 4744.3696, 0.0, 5.0187106, 4.9631853 
4.8415604e+2, 2.0747074e+2, -904079.9, -989476.56, -6200.686, -0.0000050399044, -0.0013567354, -903632.0, 3154.585, 0.0, 5.0181446, 4.9628115 
4.841428e+2, 2.1243262e+2, -860127.94, -948908.7, -6317.1343, -0.0000037498664, 0.0013642178, -859680.7, -1520.3859, 0.0, 5.017578, 4.96011 
4.841295e+2, 2.1739282e+2, -812997.2, -901462.0, -6333.0244, -0.0000027864621, -0.0014465483, -812546.1, -2995.695, 0.0, 5.0170093, 4.959762 
4.8411617e+2, 2.2235164e+2, -769011.2, -860927.6, -6312.2764, 0.00000083380246, 0.0014198286, -768579.75, -7625.7163, 0.0, 5.0164404, 4.95702 
4.841029e+2, 2.2730877e+2, -721800.1, -813371.0, -6321.883, 0.0000027123083, -0.0014108511, -721365.75, -8991.625, 0.0, 5.015871, 4.95669 
4.840897e+2, 2.3226447e+2, -677811.94, -772954.3, -6184.4194, 0.0000031443874, 0.001460751, -677411.6, -13603.475, 0.0, 5.0153027, 4.9538784 
4.8407653e+2, 2.3721845e+2, -630491.06, -725231.9, -6176.696, 0.000007143119, -0.001669738, -630090.06, -14831.065, 0.0, 5.014735, 4.9535847 
4.8406357e+2, 2.4217106e+2, -586515.1, -684978.75, -5929.4404, 0.0000099539875, 0.001700947, -586159.3, -19435.725, 0.0, 5.0141683, 4.9506807 
4.8405075e+2, 2.4712189e+2, -539059.8, -637043.4, -5899.865, 0.000009453934, -0.001700317, -538705.8, -20500.307, 0.0, 5.0136046, 4.95044 
4.8403814e+2, 2.5207126e+2, -495189.38, -597179.0, -5545.166, 0.00001496595, 0.0016703949, -494888.78, -25187.102, 0.0, 5.013042, 4.9473686 
4.8402578e+2, 2.5701886e+2, -447426.84, -548650.0, -5492.4277, 0.000016796412, -0.0017322509, -447129.7, -25914.676, 0.0, 5.0124836, 4.947313 
4.8401368e+2, 2.61965e+2, -403782.72, -509466.28, -5031.2876, 0.000016440943, 0.0016660369, -403543.75, -30800.611, 0.0, 5.0119276, 4.943967 
4.8400196e+2, 2.6690936e+2, -355625.53, -460147.38, -4953.376, 0.00001828406, -0.0016322982, -355391.3, -31103.14, 0.0, 5.011377, 4.9441667 
4.8399052e+2, 2.7185214e+2, -312255.56, -421779.56, -4387.789, 0.000020175874, 0.0016877031, -312080.06, -36231.05, 0.0, 5.0108294, 4.94049 
4.839795e+2, 2.767932e+2, -263700.78, -371660.28, -4282.5293, 0.000019359477, -0.0019186054, -263531.16, -36104.676, 0.0, 5.010288, 4.940949 
4.8396885e+2, 2.817327e+2, -220438.48, -333750.9, -3614.9556, 0.000022518492, 0.0021914765, -220323.27, -41303.84, 0.0, 5.009751, 4.937069 
4.8395878e+2, 2.8667048e+2, -171547.19, -282971.6, -3473.6123, 0.000013685976, -0.0025711136, -171439.02, -40809.703, 0.0, 5.009221, 4.9377403 
4.8394907e+2, 2.9160616e+2, -129696.76, -248572.1, -2723.5295, 0.000017201877, 0.0017208534, -129634.39, -47374.918, 0.0, 5.0086966, 4.9325705 
4.8394e+2, 2.965397e+2, -80685.23, -197642.77, -2529.0774, 0.000022953534, -0.00045751032, -80630.56, -46719.7, 0.0, 5.008179, 4.93327 
4.8393136e+2, 3.014803e+2, -40547.46, -134276.98, -1746.683, 0.000016382708, 0.002174303, -40514.92, -40514.92, 0.0, 5.007668, 4.9473886 
4.839235e+2, 3.0642837e+2, -40675.71, -131990.53, -1491.3145, -0.000010488754, -0.0052894833, -40651.363, -40651.363, 0.0, 5.007169, 4.9484243 
4.8391613e+2, 3.1139398e+2, -3044.6177, -41409.516, -604.02167, 0.000028566736, 0.004030374, -3035.11, -3035.11, 0.0, 5.0066776, 4.9817905 
4.839098e+2, 3.163769e+2, -2494.5764, -37677.19, -258.2914, 0.000007678918, -0.0009794483, -2492.6802, -2492.6802, 0.0, 5.006202, 4.983371 
4.8936546e+2, 1.22900315e+2, -1677048.1, -1738812.6, -596.0394, -0.00003618708, 0.00095773744, -1677042.4, 58534.59, 0.0, 5.0271716, 4.986847 
4.8935825e+2, 1.2788664e+2, -1631072.5, -1693665.1, -742.09735, -0.000015929038, -0.0032560478, -1631063.8, 55647.273, 0.0, 5.0266995, 4.985847 
4.8935032e+2, 1.3287188e+2, -1586668.3, -1651679.8, -1841.6083, -0.00002213961, 0.0035426137, -1586616.1, 51239.336, 0.0, 5.026212, 4.9837213 
4.893417e+2, 1.3785535e+2, -1540196.5, -1605474.6, -1962.5209, 0.0000044178187, -0.0012878346, -1540137.5, 48880.09, 0.0, 5.0257173, 4.9830637 
4.893325e+2, 1.4283746e+2, -1496048.5, -1564042.4, -2918.865, -0.000022640505, 0.00023467331, -1495923.5, 44269.46, 0.0, 5.0252123, 4.980791 
4.893227e+2, 1.478184e+2, -1449420.9, -1517493.1, -3014.8777, -0.000012192614, -0.0009470225, -1449287.6, 42092.0, 0.0, 5.0246997, 4.980245 
4.8931235e+2, 1.5279779e+2, -1405324.8, -1476202.0, -3854.5234, 0.000001970789, 0.0012922144, -1405115.8, 37465.887, 0.0, 5.0241795, 4.977937 
4.893015e+2, 1.5777576e+2, -1358669.1, -1429583.9, -3933.5684, -0.0000006677982, -0.0013184379, -1358451.6, 35345.938, 0.0, 5.0236516, 4.9774046 
4.892902e+2, 1.627523e+2, -1314600.6, -1388385.4, -4652.1064, -0.000011212601, 0.001237169, -1314308.5, 30718.914, 0.0, 5.023118, 4.9750443 
4.892785e+2, 1.677274e+2, -1267853.6, -1341578.1, -4715.3804, -0.000013083391, -0.0011883781, -1267553.3, 28718.232, 0.0, 5.022578, 4.974561 
4.8926643e+2, 1.7270108e+2, -1223822.6, -1300507.5, -5314.3687, 0.0000037190262, 0.0011299718, -1223456.1, 24073.418, 0.0, 5.0220337, 4.9721336 
4.8925397e+2, 1.7767328e+2, -1177002.4, -1253560.9, -5360.6724, -0.000006554617, -0.0012142304, -1176628.9, 22172.998, 0.0, 5.0214834, 4.971684 
4.892412e+2, 1.8264407e+2, -1132983.9, -1212581.5, -5839.758, -0.000011390298, 0.0012289857, -1132557.8, 17530.316, 0.0, 5.020931, 4.969205 
4.892282e+2, 1.8761334e+2, -1086098.6, -1165523.9, -5873.145, -0.0000057035854, -0.0013048725, -1085666.6, 15722.619, 0.0, 5.020373, 4.9687767 
4.8921496e+2, 1.9258122e+2, -1042091.94, -1124647.5, -6231.3584, -0.000008077866, 0.0012958058, -1041624.25, 11079.798, 0.0, 5.019814, 4.9662347 
4.8920152e+2, 1.9754753e+2, -995118.8, -1077439.8, -6251.546, -0.000012282722, -0.0013234019, -994646.8, 9387.455, 0.0, 5.0192513, 4.965841 
4.8918793e+2, 2.0251241e+2, -951217.2, -1036878.5, -6499.653, -0.0000042278953, 0.0013057528, -950726.8, 4651.426, 0.0, 5.0186872, 4.9631686 
4.8917416e+2, 2.0747568e+2, -904175.3, -989562.56, -6509.4517, -0.000006879379, -0.0013577943, -903681.94, 3056.4744, 0.0, 5.0181193, 4.962795 
4.8916036e+2, 2.1243753e+2, -860222.5, -948983.6, -6628.8555, -0.000008600917, 0.0013682427, -859730.2, -1617.9257, 0.0, 5.017551, 4.960098 
4.8914647e+2, 2.173977e+2, -813096.2, -901537.75, -6646.076, -0.0000049336954, -0.0014411118, -812599.56, -3097.0815, 0.0, 5.0169797, 4.95975 
4.8913264e+2, 2.2235653e+2, -769100.6, -860973.3, -6626.1606, -0.000004298558, 0.0014205773, -768625.2, -7719.022, 0.0, 5.0164094, 4.9570193 
4.8911875e+2, 2.2731364e+2, -721894.7, -813418.9, -6637.215, 0.0000004514216, -0.0014080015, -721415.8, -9089.559, 0.0, 5.015838, 4.9566894 
4.8910496e+2, 2.3226936e+2, -677896.3, -772970.5, -6499.2593, -0.0000013273049, 0.0014659871, -677454.06, -13693.8125, 0.0, 5.0152674, 4.9538894 
4.8909128e+2, 2.3722337e+2, -630580.5, -725250.5, -6492.7324, 0.0000017514456, -0.0016629983, -630137.3, -14926.288, 0.0, 5.014698, 4.9535956 
4.8907772e+2, 2.4217598e+2, -586594.56, -684966.06, -6243.8896, 0.000006601619, 0.0017044598, -586199.9, -19524.438, 0.0, 5.0141296, 4.9507036 
4.8906434e+2, 2.4712683e+2, -539144.25, -637032.8, -6215.395, 0.0000059846034, -0.0016944909, -538751.2, -20594.053, 0.0, 5.013564, 4.9504623 
4.8905113e+2, 2.520762e+2, -495264.25, -597137.56, -5857.908, 0.000010893587, 0.0016777369, -494928.5, -25275.498, 0.0, 5.0129995, 4.947403 
4.8903823e+2, 2.5702387e+2, -447505.84, -548608.94, -5806.1934, 0.000009550918, -0.0017275529, -447173.5, -26007.482, 0.0, 5.0124393, 4.9473476 
4.890256e+2, 2.6197004e+2, -403852.63, -509395.03, -5340.888, 0.000014358204, 0.0016730195, -403583.03, -30889.314, 0.0, 5.0118814, 4.9440126 
4.890133e+2, 2.6691446e+2, -355699.5, -460076.25, -5263.9497, 0.000013479612, -0.0016204133, -355434.7, -31196.393, 0.0, 5.0113287, 4.944214 
4.890013e+2, 2.7185726e+2, -312320.4, -421677.84, -4692.4917, 0.000013218746, 0.0016931605, -312119.44, -36320.79, 0.0, 5.0107794, 4.940548 
4.8898977e+2, 2.767984e+2, -263769.63, -371558.16, -4588.49, 0.000017007787, -0.0019127914, -263574.66, -36199.12, 0.0, 5.0102363, 4.9410086 
4.889786e+2, 2.8173798e+2, -220499.86, -333621.4, -3912.9812, 0.000016103066, 0.0022013593, -220364.67, -41396.82, 0.0, 5.009697, 4.9371386 
4.8896796e+2, 2.866758e+2, -171612.56, -282841.97, -3772.6492, 0.00000006517956, -0.002558739, -171484.75, -40907.72, 0.0, 5.009166, 4.937811 
4.8895773e+2, 2.9161158e+2, -129746.52, -248395.98, -3013.4104, 0.00001088872, 0.0017292172, -129670.04, -47463.605, 0.0, 5.0086393, 4.932658 
4.8894817e+2, 2.965452e+2, -80737.51, -197461.66, -2819.8113, 0.00002646532, -0.00045194163, -80669.43, -46812.49, 0.0, 5.00812, 4.9333606 
4.8893902e+2, 3.0148587e+2, -40596.33, -134076.55, -2027.0951, 0.0000043884806, 0.0021814178, -40552.39, -40552.39, 0.0, 5.0076065, 4.947488 
4.8893067e+2, 3.0643407e+2, -40729.457, -131789.17, -1771.4248, -0.00003509822, -0.0052781017, -40695.008, -40695.008, 0.0, 5.0071054, 4.948525 
4.889228e+2, 3.113998e+2, -3101.983, -41205.105, -869.2399, 0.000024339237, 0.0040418925, -3082.1633, -3082.1633, 0.0, 5.006611, 4.9818945 
4.8891598e+2, 3.163828e+2, -2565.4282, -37480.008, -521.37085, -0.000026527476, -0.0009703482, -2557.6443, -2557.6443, 0.0, 5.006131, 4.9834743 
4.943929e+2, 1.2290706e+2, -1675473.9, -1738316.6, -354.9743, -0.000028400837, 0.00094795716, -1675471.9, 60038.996, 0.0, 5.0277576, 4.986723 
4.943852e+2, 1.2789325e+2, -1629583.3, -1693210.8, -507.0854, -0.00000384657, -0.0032550003, -1629579.3, 57066.875, 0.0, 5.027258, 4.9857235 
4.9437678e+2, 1.328784e+2, -1585244.3, -1651231.6, -1619.265, -0.000021331758, 0.0035337417, -1585204.5, 52587.203, 0.0, 5.0267434, 4.98361 
4.943677e+2, 1.3786174e+2, -1538855.4, -1605066.8, -1743.7612, 0.000007955982, -0.0012975188, -1538809.5, 50145.58, 0.0, 5.0262218, 4.9829535 
4.9435794e+2, 1.4284375e+2, -1494771.9, -1563640.4, -2710.8452, -0.0000141458995, 0.00022685352, -1494665.4, 45465.94, 0.0, 5.0256896, 4.9806933 
4.943476e+2, 1.478246e+2, -1448223.9, -1517128.8, -2808.5022, -0.000004583949, -0.000951105, -1448109.6, 43209.41, 0.0, 5.0251503, 4.980149 
4.9433672e+2, 1.528039e+2, -1404191.6, -1475843.8, -3657.6104, 0.000003714934, 0.0012824512, -1404005.5, 38516.414, 0.0, 5.0246034, 4.9778523 
4.9432534e+2, 1.5778176e+2, -1357615.1, -1429262.8, -3737.2585, 0.0000064465435, -0.0013262287, -1357420.8, 36317.918, 0.0, 5.024049, 4.977321 
4.943135e+2, 1.6275825e+2, -1313610.3, -1388069.9, -4463.8667, -0.000005995498, 0.0012298254, -1313343.5, 31625.727, 0.0, 5.023489, 4.9749727 
4.9430123e+2, 1.6773327e+2, -1266941.9, -1341299.6, -4527.4614, -0.000010076271, -0.0011936659, -1266667.3, 29546.809, 0.0, 5.022922, 4.974491 
4.9428856e+2, 1.7270686e+2, -1222973.5, -1300234.5, -5132.239, 0.000010161365, 0.0011197075, -1222634.0, 24838.654, 0.0, 5.0223517, 4.972075 
4.9427557e+2, 1.7767902e+2, -1176231.3, -1253325.5, -5177.8696, 0.0000021979051, -0.0012230168, -1175885.1, 22860.598, 0.0, 5.0217752, 4.9716253 
4.9426228e+2, 1.8264975e+2, -1132275.3, -1212350.0, -5661.003, -0.000010425476, 0.0012223758, -1131877.0, 18155.34, 0.0, 5.021196, 4.969158 
4.9424866e+2, 1.8761897e+2, -1085467.8, -1165329.3, -5693.215, -0.00000054048223, -0.0013111487, -1085063.9, 16270.185, 0.0, 5.020612, 4.968731 
4.9423486e+2, 1.9258682e+2, -1041522.4, -1124456.6, -6054.2813, -0.0000005490468, 0.001285001, -1041082.7, 11566.499, 0.0, 5.0200267, 4.9662 
4.9422082e+2, 1.9755308e+2, -994626.0, -1077286.5, -6073.485, -0.0000044192016, -0.0013302722, -994182.1, 9797.646, 0.0, 5.019438, 4.965806 
4.9420667e+2, 2.0251796e+2, -950774.44, -1036704.25, -6323.028, -0.0000017929876, 0.0012978681, -950311.6, 5012.3896, 0.0, 5.0188475, 4.963154 
4.9419233e+2, 2.0748119e+2, -903809.44, -989426.44, -6331.332, -0.00000028687626, -0.0013670255, -903343.75, 3340.6191, 0.0, 5.0182533, 4.962779 
4.9417794e+2, 2.1244302e+2, -859928.4, -948873.75, -6450.9165, -0.0000029055764, 0.0013602213, -859462.94, -1404.5695, 0.0, 5.0176587, 4.9600863 
4.9416348e+2, 2.174032e+2, -812878.06, -901463.5, -6467.8525, 0.000002625226, -0.0014470969, -812408.3, -2959.6475, 0.0, 5.017061, 4.9597387 
4.9414903e+2, 2.22362e+2, -768944.0, -860902.0, -6446.1084, 0.0000002454358, 0.0014097911, -768494.4, -7641.9175, 0.0, 5.0164638, 4.9570193 
4.9413458e+2, 2.2731912e+2, -721814.1, -813383.25, -6456.573, 0.000007888902, -0.0014156393, -721361.06, -9088.503, 0.0, 5.0158663, 4.956689 
4.941202e+2, 2.3227485e+2, -677877.1, -772937.0, -6315.1406, 0.0000051571205, 0.0014580617, -677459.44, -13752.912, 0.0, 5.015269, 4.953901 
4.9410594e+2, 2.3722887e+2, -630638.06, -725253.0, -6307.7, 0.00000718651, -0.0016700696, -630219.4, -15062.222, 0.0, 5.0146723, 4.953607 
4.940918e+2, 2.421815e+2, -586712.8, -684969.6, -6054.0767, 0.000013836543, 0.0016962095, -586341.2, -19719.77, 0.0, 5.0140767, 4.9507265 
4.9407783e+2, 2.4713236e+2, -539339.5, -637071.56, -6024.445, 0.000013733175, -0.0017002531, -538969.5, -20866.613, 0.0, 5.0134835, 4.950485 
4.940641e+2, 2.5208178e+2, -495521.13, -597177.6, -5660.4, 0.000017555623, 0.0016704346, -495206.9, -25608.39, 0.0, 5.012892, 4.9474373 
4.940506e+2, 2.5702947e+2, -447839.4, -548682.6, -5607.546, 0.000013183535, -0.0017341583, -447528.56, -26417.354, 0.0, 5.012304, 4.9473825 
4.9403736e+2, 2.6197565e+2, -404248.38, -509470.44, -5134.499, 0.00002329434, 0.0016674413, -403998.4, -31359.877, 0.0, 5.0117183, 4.944059 
4.9402452e+2, 2.6692015e+2, -356171.16, -460183.3, -5056.226, 0.000020413674, -0.0016238643, -355925.94, -31743.291, 0.0, 5.0111375, 4.9442606 
4.9401194e+2, 2.71863e+2, -312855.5, -421786.2, -4475.081, 0.00001823438, 0.0016864685, -312671.97, -36929.45, 0.0, 5.01056, 4.940606 
4.9399984e+2, 2.768042e+2, -264379.94, -371696.9, -4369.888, 0.000026665355, -0.0019183406, -264202.3, -36883.473, 0.0, 5.009989, 4.9410677 
4.9398813e+2, 2.8174382e+2, -221175.22, -333764.06, -3682.7886, 0.000024049863, 0.002197087, -221054.88, -42144.363, 0.0, 5.0094213, 4.9372087 
4.9397695e+2, 2.8668174e+2, -172364.0, -283015.03, -3541.5212, 0.0000015624213, -0.0025598377, -172250.77, -41731.758, 0.0, 5.008861, 4.9378815 
4.939662e+2, 2.9161757e+2, -130553.875, -248551.17, -2769.2598, 0.000018790175, 0.0017272051, -130488.92, -48341.266, 0.0, 5.008306, 4.9327474 
4.939561e+2, 2.965513e+2, -81618.945, -197640.92, -2574.472, 0.000041468382, -0.00045942885, -81561.84, -47764.566, 0.0, 5.0077577, 4.9334526 
4.9394637e+2, 3.0149207e+2, -41544.332, -134264.69, -1773.9452, 0.000007924554, 0.0021760066, -41510.406, -41510.406, 0.0, 5.0072145, 4.947588 
4.9393752e+2, 3.0644032e+2, -41756.945, -132008.55, -1516.8568, -0.00003835266, -0.0052702334, -41731.46, -41731.46, 0.0, 5.0066833, 4.9486265 
4.9392918e+2, 3.1140617e+2, -4193.884, -41442.81, -608.40356, 0.000047585134, 0.004036965, -4183.9487, -4183.9487, 0.0, 5.006161, 4.9819994 
4.9392185e+2, 3.163893e+2, -3733.5881, -37753.586, -259.81494, -0.000008922907, -0.0009767595, -3731.604, -3731.604, 0.0, 5.0056534, 4.9835777 
4.9942064e+2, 1.2291415e+2, -1675581.9, -1738663.8, -600.1543, -0.000030796826, 0.0009385058, -1675576.1, 59865.203, 0.0, 5.0277843, 4.986596 
4.994125e+2, 1.2790023e+2, -1629699.8, -1693559.4, -756.0527, -0.00000030358248, -0.003255452, -1629690.8, 56887.01, 0.0, 5.027281, 4.985598 
4.994035e+2, 1.3288523e+2, -1585352.9, -1651546.8, -1879.775, -0.00002496377, 0.0035270469, -1585299.5, 52425.113, 0.0, 5.0267625, 4.983497 
4.9939388e+2, 1.3786846e+2, -1538972.6, -1605383.4, -2006.7445, 0.0000038360563, -0.0013062087, -1538912.1, 49976.906, 0.0, 5.026237, 4.982842 
4.993836e+2, 1.4285037e+2, -1494881.3, -1563924.4, -2984.189, -0.000012537947, 0.00022051366, -1494752.5, 45313.84, 0.0, 5.0257015, 4.9805937 
4.9937275e+2, 1.4783113e+2, -1448341.0, -1517412.9, -3083.183, -0.0000036111032, -0.0009524722, -1448203.6, 43051.355, 0.0, 5.0251584, 4.980051 
4.9936134e+2, 1.5281034e+2, -1404301.0, -1476096.1, -3942.253, -0.0000026005544, 0.0012750136, -1404085.3, 38373.55, 0.0, 5.024608, 4.977767 
4.993494e+2, 1.5778811e+2, -1357731.9, -1429515.4, -4022.7976, 0.0000051740662, -0.0013303877, -1357507.1, 36169.273, 0.0, 5.02405, 4.9772367 
4.99337e+2, 1.627645e+2, -1313719.3, -1388292.3, -4758.272, -0.000008187766, 0.0012267929, -1313416.9, 31490.836, 0.0, 5.023487, 4.9749 
4.993241e+2, 1.6773945e+2, -1267057.6, -1341522.0, -4822.451, -0.000014957569, -0.001193508, -1266746.6, 29406.59, 0.0, 5.022917, 4.9744196 
4.993109e+2, 1.7271301e+2, -1223080.5, -1300424.9, -5434.8477, 0.000008484137, 0.0011151477, -1222700.5, 24711.992, 0.0, 5.0223436, 4.9720154 
4.9929732e+2, 1.7768508e+2, -1176345.9, -1253518.3, -5481.561, 0.0000041703875, -0.001225759, -1175958.4, 22727.676, 0.0, 5.021764, 4.9715667 
4.9928343e+2, 1.8265578e+2, -1132381.1, -1212510.9, -5971.002, -0.000018747674, 0.0012239438, -1131938.6, 18034.66, 0.0, 5.0211816, 4.9691114 
4.9926925e+2, 1.8762496e+2, -1085580.9, -1165492.8, -6003.809, -0.0000064938986, -0.0013091706, -1085132.4, 16143.099, 0.0, 5.0205946, 4.968684 
4.9925485e+2, 1.9259275e+2, -1041626.44, -1124588.8, -6369.9233, -0.0000009782297, 0.0012832913, -1041140.2, 11450.836, 0.0, 5.020007, 4.966165 
4.9924022e+2, 1.9755898e+2, -994735.94, -1077420.5, -6389.882, -0.000004582722, -0.0013274768, -994245.06, 9676.837, 0.0, 5.019416, 4.9657717 
4.992255e+2, 2.0252383e+2, -950863.44, -1036783.0, -6644.2153, -0.000010539315, 0.0013000383, -950352.7, 4913.748, 0.0, 5.0188236, 4.963139 
4.9921057e+2, 2.0748705e+2, -903904.8, -989509.5, -6653.4023, -0.0000037871655, -0.0013640292, -903390.8, 3236.0898, 0.0, 5.018227, 4.962764 
4.9919558e+2, 2.1244887e+2, -860024.4, -948949.1, -6776.249, -0.0000063033453, 0.0013635522, -859511.0, -1509.9761, 0.0, 5.0176306, 4.9600744 
4.9918053e+2, 2.1740903e+2, -812978.9, -901540.7, -6794.395, -0.0000002113152, -0.0014399507, -812460.6, -3069.1665, 0.0, 5.017031, 4.959727 
4.9916548e+2, 2.2236782e+2, -769034.25, -860947.6, -6773.8853, -0.000006078005, 0.0014125265, -768537.7, -7742.4063, 0.0, 5.0164323, 4.957019 
4.9915043e+2, 2.2732495e+2, -721909.06, -813431.2, -6785.9526, 0.0000038133103, -0.0014081744, -721408.7, -9193.237, 0.0, 5.0158324, 4.956689 
4.9913543e+2, 2.3228069e+2, -677961.75, -772953.25, -6644.5244, 0.00000056766635, 0.0014641052, -677499.25, -13849.92, 0.0, 5.015233, 4.9539123 
4.9912056e+2, 2.3723471e+2, -630728.3, -725272.5, -6638.3413, 0.0000012018262, -0.001663512, -630264.5, -15164.645, 0.0, 5.014635, 4.953618 
4.9910584e+2, 2.4218735e+2, -586792.75, -684956.8, -6383.3267, 0.00000907419, 0.0017038778, -586379.44, -19815.465, 0.0, 5.0140376, 4.9507494 
4.9909127e+2, 2.4713825e+2, -539424.44, -637061.1, -6355.2124, 0.000009800469, -0.0016898826, -539012.5, -20967.271, 0.0, 5.0134425, 4.950508 
4.9907693e+2, 2.5208768e+2, -495595.9, -597135.25, -5988.4575, 0.000011852845, 0.001676912, -495243.94, -25703.375, 0.0, 5.0128493, 4.947472 
4.9906287e+2, 2.5703543e+2, -447918.84, -548642.0, -5937.1055, 0.0000047582084, -0.001724366, -447570.1, -26517.207, 0.0, 5.0122595, 4.9474173 
4.9904907e+2, 2.6198167e+2, -404318.38, -509399.16, -5459.9316, 0.000020120471, 0.001677168, -404035.44, -31455.607, 0.0, 5.011672, 4.944105 
4.9903563e+2, 2.6692617e+2, -356244.88, -460111.53, -5383.281, 0.000015376938, -0.001613662, -355966.63, -31843.115, 0.0, 5.01109, 4.944308 
4.9902248e+2, 2.7186912e+2, -312920.03, -421683.75, -4796.497, 0.000010368093, 0.0016967616, -312708.9, -37026.08, 0.0, 5.0105104, 4.940665 
4.9900982e+2, 2.7681038e+2, -264448.4, -371593.94, -4692.7534, 0.000021365277, -0.001906544, -264243.25, -36984.695, 0.0, 5.009937, 4.941128 
4.9899754e+2, 2.8175002e+2, -221236.2, -333633.97, -3998.2456, 0.00001729915, 0.0022075775, -221094.16, -42244.527, 0.0, 5.0093675, 4.9372787 
4.989858e+2, 2.8668803e+2, -172428.9, -282884.78, -3858.2725, -0.000010750906, -0.0025461845, -172294.31, -41836.887, 0.0, 5.0088058, 4.9379525 
4.9897444e+2, 2.9162395e+2, -130601.85, -248371.27, -3076.9521, 0.000012311485, 0.0017418979, -130521.516, -48436.22, 0.0, 5.008249, 4.9328365 
4.989638e+2, 2.9655772e+2, -81668.78, -197454.56, -2883.7957, 0.000040574854, -0.000454446, -81597.0, -47862.977, 0.0, 5.0076985, 4.933545 
4.9895358e+2, 3.0149862e+2, -41591.51, -134060.78, -2073.4043, -0.0000038701105, 0.002182789, -41545.043, -41545.043, 0.0, 5.007153, 4.947688 
4.989442e+2, 3.06447e+2, -41808.992, -131803.66, -1816.3286, -0.00005899732, -0.00524281, -41772.35, -41772.35, 0.0, 5.0066195, 4.948728 
4.989353e+2, 3.1141293e+2, -4251.0015, -41237.363, -891.6796, 0.000042351854, 0.004041616, -4229.517, -4229.517, 0.0, 5.0060945, 4.982104 
4.989275e+2, 3.1639615e+2, -3805.6719, -37557.367, -543.12964, -0.000045697125, -0.0009632448, -3796.934, -3796.934, 0.0, 5.005582, 4.983681 
5.044488e+2, 1.2292189e+2, -1673954.5, -1738143.6, -344.00812, -0.00002151958, 0.000928583, -1673952.8, 61412.793, 0.0, 5.028389, 4.9864707 
5.0444007e+2, 1.2790784e+2, -1628161.6, -1693083.1, -505.775, 0.000009742976, -0.0032521416, -1628157.6, 58345.555, 0.0, 5.0278563, 4.9854736 
5.0443053e+2, 1.3289273e+2, -1583881.5, -1651076.5, -1641.3916, -0.000020011777, 0.0035187232, -1583841.4, 53809.78, 0.0, 5.0273104, 4.9833856 
5.044204e+2, 1.3787585e+2, -1537587.1, -1604955.4, -1771.9968, 0.000007009835, -0.0013144704, -1537540.5, 51276.145, 0.0, 5.0267563, 4.9827313 
5.0440955e+2, 1.4285766e+2, -1493561.5, -1563502.1, -2759.1848, -0.0000039298784, 0.00021458154, -1493452.9, 46542.145, 0.0, 5.0261936, 4.980496 
5.043981e+2, 1.4783831e+2, -1447103.5, -1517029.6, -2860.032, 0.0000038259795, -0.00095523486, -1446986.8, 44197.89, 0.0, 5.0256233, 4.979954 
5.043861e+2, 1.5281741e+2, -1403129.6, -1475719.5, -3727.4917, -0.0000009846483, 0.0012653585, -1402938.8, 39450.563, 0.0, 5.0250454, 4.977682 
5.043736e+2, 1.5779512e+2, -1356641.0, -1429176.6, -3808.623, 0.000011274639, -0.0013357467, -1356441.5, 37166.273, 0.0, 5.0244603, 4.977154 
5.043607e+2, 1.6277143e+2, -1312693.5, -1387960.0, -4550.965, -0.0000024065714, 0.0012206587, -1312419.4, 32420.572, 0.0, 5.02387, 4.9748282 
5.043472e+2, 1.677463e+2, -1266112.5, -1341227.6, -4614.7813, -0.0000100136, -0.0011991414, -1265830.0, 30256.152, 0.0, 5.023273, 4.974349 
5.043334e+2, 1.7271979e+2, -1222200.3, -1300136.4, -5232.6787, 0.000012427646, 0.0011073176, -1221850.5, 25495.564, 0.0, 5.022672, 4.9719567 
5.043192e+2, 1.7769182e+2, -1175546.4, -1253268.5, -5278.992, 0.000011667705, -0.0012325571, -1175189.4, 23430.824, 0.0, 5.0220656, 4.9715085 
5.043047e+2, 1.8266244e+2, -1131644.1, -1212265.1, -5771.8623, -0.0000149596735, 0.0012163908, -1131233.0, 18674.984, 0.0, 5.0214567, 4.969065 
5.042899e+2, 1.8763158e+2, -1084923.0, -1165284.9, -5803.7163, -0.0000018485008, -0.0013140611, -1084506.0, 16704.53, 0.0, 5.020843, 4.9686384 
5.0427496e+2, 1.9259934e+2, -1041032.1, -1124384.3, -6170.7686, 0.000004717792, 0.001273753, -1040577.8, 11948.741, 0.0, 5.020228, 4.9661317 
5.042597e+2, 1.9756554e+2, -994218.8, -1077253.6, -6189.2866, 0.0000031653435, -0.0013346206, -993760.06, 10097.73, 0.0, 5.0196104, 4.965738 
5.042443e+2, 2.0253035e+2, -950396.7, -1036594.2, -6444.9575, -0.000007218149, 0.0012918822, -949917.5, 5285.0386, 0.0, 5.0189915, 4.9631257 
5.0422883e+2, 2.0749356e+2, -903516.5, -989360.06, -6452.4287, 0.000003080871, -0.0013696156, -903034.25, 3528.9226, 0.0, 5.0183682, 4.96275 
5.042133e+2, 2.1245536e+2, -859708.6, -948827.3, -6575.0264, -0.0000012831747, 0.0013528796, -859226.1, -1288.716, 0.0, 5.017745, 4.9600635 
5.041976e+2, 2.1741551e+2, -812741.1, -901456.2, -6592.1484, 0.0000075374023, -0.0014470273, -812253.94, -2925.9744, 0.0, 5.017119, 4.959716 
5.0418186e+2, 2.223743e+2, -768860.5, -860868.1, -6569.3945, -0.0000019094884, 0.0014041222, -768393.8, -7661.9526, 0.0, 5.016493, 4.957019 
5.0416625e+2, 2.2733141e+2, -721812.56, -813388.5, -6580.7275, 0.0000111630525, -0.0014146464, -721342.06, -9190.021, 0.0, 5.0158663, 4.9566884 
5.041506e+2, 2.3228715e+2, -677926.94, -772911.75, -6436.323, 0.0000062272707, 0.001455082, -677492.8, -13906.924, 0.0, 5.0152397, 4.9539237 
5.041352e+2, 2.372412e+2, -630772.3, -725268.44, -6428.986, 0.000006639036, -0.0016700743, -630336.9, -15300.576, 0.0, 5.0146136, 4.953629 
5.041198e+2, 2.4219385e+2, -586899.8, -684954.3, -6168.934, 0.00001670921, 0.0016965447, -586513.25, -20012.994, 0.0, 5.0139885, 4.950773 
5.041047e+2, 2.4714476e+2, -539610.06, -637094.9, -6139.6787, 0.000016286054, -0.0016954964, -539224.9, -21243.59, 0.0, 5.0133657, 4.950531 
5.040897e+2, 2.5209424e+2, -495844.13, -597170.3, -5766.3784, 0.000018133649, 0.0016692505, -495517.03, -26040.64, 0.0, 5.0127444, 4.947507 
5.0407505e+2, 2.57042e+2, -448245.6, -548712.1, -5714.037, 0.000009865792, -0.0017269927, -447921.66, -26933.268, 0.0, 5.0121264, 4.9474525 
5.040606e+2, 2.6198828e+2, -404708.53, -509471.13, -5228.5576, 0.000027603548, 0.0016711234, -404448.25, -31933.293, 0.0, 5.011511, 4.9441514 
5.0404656e+2, 2.6693285e+2, -356712.9, -460216.22, -5151.1343, 0.000021787842, -0.0016199115, -356457.2, -32399.012, 0.0, 5.0109, 4.944355 
5.0403285e+2, 2.7187583e+2, -313453.53, -421790.34, -4554.8564, 0.000015864789, 0.0016943285, -313262.38, -37645.383, 0.0, 5.0102916, 4.940724 
5.040196e+2, 2.7681714e+2, -265058.8, -371731.4, -4449.99, 0.000029209494, -0.0019073072, -264873.5, -37681.355, 0.0, 5.0096893, 4.9411874 
5.0400674e+2, 2.8175688e+2, -221913.45, -333776.47, -3744.2869, 0.000025268891, 0.0022018454, -221788.27, -43005.668, 0.0, 5.009091, 4.937349 
5.039944e+2, 2.866949e+2, -173184.39, -283058.44, -3603.7263, -0.000006984327, -0.0025464399, -173066.31, -42676.613, 0.0, 5.0084996, 4.938024 
5.039825e+2, 2.9163095e+2, -131414.31, -248525.02, -2809.4526, 0.00001979289, 0.0017460954, -131346.95, -49330.14, 0.0, 5.007913, 4.932927 
5.0397134e+2, 2.9656482e+2, -82556.734, -197631.83, -2615.8494, 0.00005009942, -0.00046334226, -82497.305, -48832.66, 0.0, 5.007333, 4.933639 
5.039605e+2, 3.015058e+2, -42548.785, -134249.61, -1798.3176, 0.0000016409057, 0.0021758534, -42513.535, -42513.535, 0.0, 5.0067573, 4.94779 
5.0395054e+2, 3.0645427e+2, -42848.945, -132025.11, -1540.2327, -0.00005693052, -0.0052193403, -42822.348, -42822.348, 0.0, 5.0061927, 4.9488316 
5.039411e+2, 3.114203e+2, -5360.5483, -41482.1, -609.75543, 0.00006004298, 0.004030447, -5350.2583, -5350.2583, 0.0, 5.005638, 4.9822087 
5.039328e+2, 3.1640363e+2, -4994.04, -37839.637, -262.44202, -0.00002401049, -0.00096529885, -4991.9434, -4991.9434, 0.0, 5.0050964, 4.983784 
5.0947714e+2, 1.2293e+2, -1674062.4, -1738493.8, -602.6189, -0.000021499116, 0.00091863715, -1674056.8, 61229.27, 0.0, 5.028416, 4.9863424 
5.094679e+2, 1.2791581e+2, -1628278.0, -1693435.0, -767.9106, 0.000010521164, -0.0032462247, -1628269.0, 58156.043, 0.0, 5.0278797, 4.9853463 
5.094578e+2, 1.329006e+2, -1583989.8, -1651393.4, -1914.523, -0.000020539825, 0.0035098493, -1583935.4, 53638.76, 0.0, 5.0273294, 4.983272 
5.0944716e+2, 1.3788359e+2, -1537704.9, -1605274.5, -2047.8215, 0.0000031724398, -0.0013210935, -1537642.9, 51097.86, 0.0, 5.026772, 4.9826183 
5.094357e+2, 1.428653e+2, -1493671.1, -1563787.3, -3044.873, -0.0000027064407, 0.00021160771, -1493539.1, 46381.023, 0.0, 5.026205, 4.980396 
5.0942373e+2, 1.4784583e+2, -1447221.3, -1517315.5, -3147.694, 0.0000030519845, -0.0009554502, -1447080.1, 44030.547, 0.0, 5.025631, 4.9798555 
5.0941116e+2, 1.5282486e+2, -1403239.5, -1475973.0, -4024.2532, -0.0000067450264, 0.0012589531, -1403017.5, 39298.797, 0.0, 5.0250497, 4.977596 
5.0939804e+2, 1.5780249e+2, -1356758.1, -1429430.0, -4106.663, 0.000008877318, -0.0013362793, -1356526.8, 37008.86, 0.0, 5.0244613, 4.977069 
5.093845e+2, 1.6277872e+2, -1312802.6, -1388181.9, -4857.637, -0.0000050166227, 0.0012190877, -1312490.9, 32277.65, 0.0, 5.0238676, 4.974756 
5.093705e+2, 1.6775352e+2, -1266228.6, -1341450.4, -4922.4727, -0.000011360935, -0.0012011796, -1265907.9, 30107.55, 0.0, 5.0232673, 4.9742775 
5.09356e+2, 1.7272694e+2, -1222308.0, -1300327.5, -5547.916, 0.0000065675295, 0.0011070799, -1221915.5, 25360.475, 0.0, 5.0226636, 4.971897 
5.093413e+2, 1.776989e+2, -1175661.3, -1253460.9, -5595.2373, 0.000007757504, -0.0012309302, -1175260.9, 23289.873, 0.0, 5.0220537, 4.97145 
5.0932616e+2, 1.8266949e+2, -1131750.5, -1212426.0, -6094.4272, -0.000017997278, 0.0012150839, -1131292.8, 18546.24, 0.0, 5.021442, 4.9690185 
5.093108e+2, 1.8763857e+2, -1085036.6, -1165447.6, -6127.8047, -0.0000047668614, -0.0013091502, -1084572.3, 16569.809, 0.0, 5.0208254, 4.9685926 
5.0929517e+2, 1.9260627e+2, -1041136.9, -1124514.6, -6499.1826, -0.0000012442295, 0.0012738352, -1040633.3, 11825.111, 0.0, 5.0202074, 4.966098 
5.092793e+2, 1.9757245e+2, -994331.8, -1077388.0, -6519.0293, -0.0000005772862, -0.0013321294, -993823.25, 9966.724, 0.0, 5.019587, 4.965704 
5.0926334e+2, 2.0253725e+2, -950487.4, -1036670.1, -6779.271, -0.000012335394, 0.0012959826, -949957.4, 5177.579, 0.0, 5.0189657, 4.963113 
5.092472e+2, 2.0750043e+2, -903612.25, -989440.0, -6786.544, -0.00000035638115, -0.0013600654, -903078.94, 3416.809, 0.0, 5.0183415, 4.962736 
5.09231e+2, 2.1246223e+2, -859804.6, -948901.4, -6913.0825, -0.0000083788145, 0.0013541607, -859271.44, -1401.3132, 0.0, 5.017717, 4.960052 
5.0921464e+2, 2.1742237e+2, -812840.75, -901532.25, -6932.671, 0.0000048211573, -0.0014410625, -812302.1, -3041.303, 0.0, 5.0170894, 4.9597044 
5.0919837e+2, 2.2238114e+2, -768950.06, -860914.0, -6911.7417, -0.000009654998, 0.0014130315, -768433.5, -7768.7295, 0.0, 5.0164614, 4.9570184 
5.091821e+2, 2.2733827e+2, -721908.5, -813437.9, -6924.302, 0.000007704437, -0.0014057368, -721387.6, -9302.722, 0.0, 5.0158324, 4.956688 
5.091659e+2, 2.3229401e+2, -678012.5, -772928.1, -6780.59, -0.00000044054605, 0.0014613369, -677530.56, -14011.83, 0.0, 5.015204, 4.953935 
5.0914973e+2, 2.3724806e+2, -630863.3, -725288.25, -6774.583, -0.0000006607227, -0.0016590684, -630379.75, -15410.686, 0.0, 5.0145764, 4.9536405 
5.091338e+2, 2.4220073e+2, -586980.06, -684941.25, -6513.4434, 0.000011759617, 0.0017058424, -586548.9, -20116.04, 0.0, 5.0139494, 4.9507957 
5.09118e+2, 2.4715167e+2, -539695.2, -637084.5, -6485.889, 0.000008750697, -0.00168521, -539265.1, -21351.46, 0.0, 5.0133247, 4.9505544 
5.091024e+2, 2.5210118e+2, -495918.8, -597127.94, -6109.983, 0.000011870021, 0.0016791513, -495551.28, -26142.82, 0.0, 5.0127015, 4.9475417 
5.0908715e+2, 2.57049e+2, -448324.78, -548671.5, -6059.7275, 0.0000032674416, -0.0017112157, -447960.2, -27040.059, 0.0, 5.012082, 4.9474874 
5.090721e+2, 2.6199526e+2, -404778.03, -509399.22, -5570.172, 0.00002048618, 0.0016816037, -404482.3, -32036.023, 0.0, 5.0114646, 4.944198 
5.0905746e+2, 2.6693988e+2, -356786.4, -460144.66, -5494.9917, 0.000014592932, -0.0016105485, -356495.1, -32506.043, 0.0, 5.010852, 4.944402 
5.090431e+2, 2.7188292e+2, -313517.6, -421687.66, -4893.3755, 0.000008263276, 0.0017096776, -313296.7, -37749.33, 0.0, 5.0102415, 4.9407825 
5.0902927e+2, 2.7682427e+2, -265126.56, -371627.72, -4790.065, 0.000021631118, -0.0018896877, -264911.53, -37789.62, 0.0, 5.009638, 4.9412475 
5.090158e+2, 2.817641e+2, -221973.95, -333646.2, -4077.4517, 0.000017357133, 0.0022120422, -221825.28, -43113.53, 0.0, 5.0090375, 4.937419 
5.090029e+2, 2.8670225e+2, -173248.52, -282927.6, -3938.6106, -0.00001664137, -0.0025311203, -173107.27, -42789.113, 0.0, 5.0084443, 4.938095 
5.089904e+2, 2.916383e+2, -131460.23, -248341.61, -3135.4883, 0.000012703088, 0.001766981, -131376.19, -49431.703, 0.0, 5.007856, 4.9330173 
5.089786e+2, 2.965723e+2, -82603.89, -197440.58, -2944.2258, 0.000042672513, -0.00045947367, -82528.45, -48937.047, 0.0, 5.0072737, 4.9337335 
5.089673e+2, 3.0151337e+2, -42594.1, -134042.61, -2117.0808, -0.0000069307057, 0.0021814595, -42545.117, -42545.117, 0.0, 5.006696, 4.947891 
5.0895673e+2, 3.0646193e+2, -42899.176, -131817.08, -1859.3053, -0.00007098135, -0.005176824, -42860.313, -42860.313, 0.0, 5.006129, 4.948934 
5.089468e+2, 3.1142807e+2, -5418.003, -41277.945, -911.8448, 0.000047605485, 0.0040293587, -5394.8315, -5394.8315, 0.0, 5.0055714, 4.982313 
5.089379e+2, 3.164115e+2, -5066.5605, -37643.914, -566.11035, -0.00005847755, -0.00094656483, -5056.7256, -5056.7256, 0.0, 5.005025, 4.9838877 
5.1450586e+2, 1.229388e+2, -1672382.6, -1737948.9, -330.8365, -0.000009137669, 0.0009093488, -1672381.0, 62818.85, 0.0, 5.029039, 4.986216 
5.144961e+2, 1.2792449e+2, -1626690.6, -1692936.0, -501.6183, 0.00001851594, -0.003235178, -1626686.8, 59653.25, 0.0, 5.0284724, 4.9852214 
5.144855e+2, 1.3290915e+2, -1582471.0, -1650900.4, -1659.6715, -0.000015488939, 0.0034993354, -1582430.8, 55059.59, 0.0, 5.0278935, 4.98316 
5.1447415e+2, 1.3789202e+2, -1536275.3, -1604825.8, -1796.4636, 0.000006477899, -0.0013284191, -1536228.3, 52429.9, 0.0, 5.0273066, 4.982507 
5.144622e+2, 1.4287363e+2, -1492308.8, -1563344.0, -2802.1143, 0.00000696652, 0.0002100096, -1492198.5, 47640.04, 0.0, 5.0267115, 4.9802976 
5.144496e+2, 1.4785407e+2, -1445943.5, -1516913.0, -2907.0095, 0.000010493814, -0.0009564443, -1445824.6, 45205.434, 0.0, 5.0261097, 4.9797583 
5.144364e+2, 1.5283301e+2, -1402029.5, -1475577.5, -3790.715, -0.0000050740086, 0.0012506157, -1401834.6, 40401.883, 0.0, 5.0255, 4.9775114 
5.144227e+2, 1.5781054e+2, -1355631.3, -1429073.3, -3873.5664, 0.000014125781, -0.0013392213, -1355427.5, 38029.234, 0.0, 5.0248837, 4.976986 
5.144086e+2, 1.6278669e+2, -1311742.5, -1387832.0, -4630.4297, 0.0000011760732, 0.0012139599, -1311461.8, 33228.63, 0.0, 5.0242624, 4.9746847 
5.143939e+2, 1.6776143e+2, -1265250.9, -1341139.8, -4694.7466, -0.00000428429, -0.0012065435, -1264961.5, 30976.5, 0.0, 5.0236344, 4.9742074 
5.1437885e+2, 1.7273477e+2, -1221395.4, -1300023.3, -5324.693, 0.000009316089, 0.0011017573, -1221036.5, 26162.736, 0.0, 5.023003, 4.971839 
5.1436347e+2, 1.7770667e+2, -1174829.0, -1253194.6, -5371.5024, 0.000011628594, -0.0012349553, -1174462.5, 24012.012, 0.0, 5.0223665, 4.971392 
5.1434773e+2, 1.8267721e+2, -1130986.3, -1212167.3, -5873.708, -0.0000110488445, 0.0012072452, -1130563.5, 19199.834, 0.0, 5.021726, 4.968972 
5.143317e+2, 1.8764624e+2, -1084353.1, -1165226.9, -5905.9937, 0.0000017385344, -0.0013122263, -1083924.1, 17142.803, 0.0, 5.021082, 4.968547 
5.143154e+2, 1.9261393e+2, -1040516.8, -1124297.3, -6278.3584, 0.0000022878307, 0.001265238, -1040048.94, 12334.675, 0.0, 5.0204372, 4.9660645 
5.14299e+2, 1.9758005e+2, -993795.0, -1077211.9, -6296.9707, 0.0000068059794, -0.0013381441, -993322.4, 10393.163, 0.0, 5.0197883, 4.9656706 
5.1428235e+2, 2.0254482e+2, -949995.7, -1036459.6, -6555.5054, -0.000008529912, 0.0012885222, -949501.44, 5559.2505, 0.0, 5.0191402, 4.963104 
5.1426554e+2, 2.07508e+2, -903196.5, -989267.7, -6558.81, 0.0000072996504, -0.0013637326, -902699.56, 3722.044, 0.0, 5.0184903, 4.962726 
5.142487e+2, 2.1246979e+2, -859471.25, -948775.2, -6684.4775, -0.000003993561, 0.0013438027, -858973.7, -1177.5732, 0.0, 5.0178385, 4.9600396 
5.1423174e+2, 2.174299e+2, -812583.3, -901443.25, -6704.4175, 0.000011959312, -0.0014482735, -812080.3, -2893.378, 0.0, 5.017185, 4.959691 
5.142149e+2, 2.2238867e+2, -768753.3, -860822.4, -6683.5576, -0.0000050567996, 0.0014059317, -768270.6, -7679.671, 0.0, 5.0165296, 4.957019 
5.141979e+2, 2.273458e+2, -721793.7, -813385.56, -6694.351, 0.0000143896295, -0.0014124875, -721307.0, -9295.819, 0.0, 5.0158725, 4.956688 
5.14181e+2, 2.3230155e+2, -677962.7, -772877.94, -6546.9614, 0.000005699075, 0.001452053, -677513.25, -14068.343, 0.0, 5.0152154, 4.9539475 
5.1416427e+2, 2.372556e+2, -630893.9, -725276.5, -6539.1885, 0.000005739542, -0.0016641249, -630443.0, -15547.828, 0.0, 5.0145597, 4.9536524 
5.1414764e+2, 2.4220829e+2, -587074.06, -684931.94, -6272.772, 0.000017779616, 0.0016979808, -586673.6, -20314.846, 0.0, 5.0139046, 4.9508195 
5.1413125e+2, 2.4715924e+2, -539869.1, -637112.4, -6244.136, 0.000014202748, -0.0016909603, -539469.9, -21630.469, 0.0, 5.013252, 4.9505773 
5.1411504e+2, 2.5210878e+2, -496157.7, -597158.44, -5861.697, 0.000018415343, 0.0016724395, -495818.66, -26484.73, 0.0, 5.0126004, 4.9475765 
5.140991e+2, 2.5705662e+2, -448642.88, -548737.06, -5810.5474, 0.00000900493, -0.0017134278, -448306.7, -27461.463, 0.0, 5.011952, 4.9475226 
5.1408345e+2, 2.6200297e+2, -405161.5, -509467.22, -5312.694, 0.00002617811, 0.0016764678, -404891.6, -32520.563, 0.0, 5.011306, 4.944245 
5.140682e+2, 2.6694763e+2, -357249.34, -460246.63, -5237.0693, 0.000020581181, -0.0016171485, -356983.75, -33070.406, 0.0, 5.010664, 4.9444494 
5.140532e+2, 2.718907e+2, -314046.72, -421791.56, -4626.1665, 0.000014573703, 0.0017078023, -313848.44, -38377.29, 0.0, 5.010024, 4.9408417 
5.1403874e+2, 2.7683213e+2, -265734.6, -371763.06, -4521.9927, 0.000027843113, -0.00188786, -265542.06, -38496.926, 0.0, 5.009391, 4.941308 
5.140247e+2, 2.8177202e+2, -222650.81, -333787.9, -3798.4895, 0.000024082668, 0.0022061483, -222521.14, -43886.785, 0.0, 5.008761, 4.9374895 
5.1401114e+2, 2.867102e+2, -174005.38, -283100.84, -3659.5967, -0.000010060692, -0.002530081, -173882.77, -43642.688, 0.0, 5.008137, 4.9381666 
5.1399803e+2, 2.9164636e+2, -132275.31, -248492.89, -2843.7166, 0.000019386358, 0.0017741426, -132205.78, -50340.152, 0.0, 5.007519, 4.9331093 
5.1398563e+2, 2.9658043e+2, -83495.92, -197615.0, -2652.5854, 0.00004663898, -0.00047022838, -83434.3, -49922.652, 0.0, 5.0069056, 4.9338293 
5.139737e+2, 3.015216e+2, -43558.137, -134231.52, -1818.9109, 0.0000031143218, 0.002175034, -43521.664, -43521.664, 0.0, 5.006297, 4.947994 
5.1396257e+2, 3.064703e+2, -43948.426, -132039.45, -1560.7662, -0.00006520985, -0.0051429356, -43920.78, -43920.78, 0.0, 5.005698, 4.9490385 
5.139521e+2, 3.1143653e+2, -6543.4326, -41530.773, -608.51605, 0.0000619563, 0.0040141884, -6532.852, -6532.852, 0.0, 5.0051093, 4.982417 
5.139426e+2, 3.1642005e+2, -6271.623, -37932.668, -265.14352, -0.000030863444, -0.0009481823, -6269.4023, -6269.4023, 0.0, 5.004534, 4.9839907 
5.195349e+2, 1.2294798e+2, -1672490.1, -1738301.4, -603.0469, -0.0000066372004, 0.0009006993, -1672484.6, 62625.07, 0.0, 5.0290666, 4.9860873 
5.195245e+2, 1.2793355e+2, -1626807.3, -1693290.5, -777.12366, 0.000018804409, -0.0032208986, -1626798.1, 59453.03, 0.0, 5.0284963, 4.985093 
5.1951337e+2, 1.3291809e+2, -1582579.3, -1651218.3, -1945.9001, -0.000017709137, 0.0034884897, -1582524.1, 54878.63, 0.0, 5.027913, 4.983046 
5.1950145e+2, 1.3790086e+2, -1536393.5, -1605146.9, -2085.4182, 0.0000021685466, -0.0013339584, -1536330.3, 52241.3, 0.0, 5.0273223, 4.9823937 
5.194889e+2, 1.4288233e+2, -1492418.3, -1563629.6, -3100.0293, 0.00000953781, 0.0002126867, -1492283.6, 47469.434, 0.0, 5.0267234, 4.980198 
5.194757e+2, 1.478627e+2, -1446061.9, -1517200.1, -3207.5398, 0.000010342121, -0.0009544431, -1445917.5, 45028.043, 0.0, 5.0261173, 4.9796596 
5.194619e+2, 1.5284154e+2, -1402139.6, -1475831.1, -4099.8354, -0.000012153344, 0.001246028, -1401912.3, 40240.74, 0.0, 5.025504, 4.977425 
5.194476e+2, 1.5781899e+2, -1355748.5, -1429326.6, -4184.3574, 0.000010416678, -0.0013372701, -1355511.4, 37862.637, 0.0, 5.0248847, 4.9769015 
5.194328e+2, 1.6279505e+2, -1311851.5, -1388053.4, -4949.318, -0.0000010872601, 0.0012140198, -1311531.5, 33076.945, 0.0, 5.02426, 4.9746127 
5.194175e+2, 1.6776972e+2, -1265367.3, -1341362.0, -5014.8535, -0.000005835462, -0.0012055262, -1265037.8, 30818.95, 0.0, 5.0236287, 4.9741364 
5.1940185e+2, 1.72743e+2, -1221504.0, -1300214.6, -5651.738, 0.000003685493, 0.0011030841, -1221100.3, 26018.309, 0.0, 5.0229945, 4.97178 
5.193858e+2, 1.7771484e+2, -1174944.5, -1253386.9, -5700.446, 0.0000053261656, -0.0012314587, -1174532.4, 23862.096, 0.0, 5.0223546, 4.971334 
5.193694e+2, 1.8268533e+2, -1131093.8, -1212329.1, -6208.678, -0.00001296604, 0.001207442, -1130621.9, 19061.877, 0.0, 5.0217113, 4.968926 
5.1935273e+2, 1.8765432e+2, -1084466.8, -1165389.1, -6241.8735, -0.0000019867907, -0.001306839, -1083988.1, 16999.668, 0.0, 5.0210643, 4.9685016 
5.1933587e+2, 1.9262195e+2, -1040622.56, -1124428.3, -6619.7754, -0.0000051961374, 0.0012673386, -1040102.9, 12202.045, 0.0, 5.0204163, 4.966031 
5.193187e+2, 1.9758804e+2, -993910.25, -1077347.5, -6639.7593, 0.0000048104453, -0.0013316306, -993385.2, 10251.972, 0.0, 5.0197644, 4.9656367 
5.193015e+2, 2.025528e+2, -950083.56, -1036525.3, -6901.623, -0.000016605618, 0.0012920222, -949536.0, 5446.581, 0.0, 5.0191135, 4.9630947 
5.19284e+2, 2.0751595e+2, -903287.8, -989335.0, -6908.5605, 0.000003966402, -0.0013558334, -902736.7, 3606.8777, 0.0, 5.018462, 4.962717 
5.1926655e+2, 2.1247774e+2, -859571.06, -948855.5, -7038.114, -0.000011083574, 0.0013494124, -859019.7, -1301.4768, 0.0, 5.0178094, 4.9600263 
5.192489e+2, 2.1743783e+2, -812686.5, -901526.3, -7057.509, 0.0000062787353, -0.00143922, -812129.3, -3020.1846, 0.0, 5.017155, 4.959677 
5.192313e+2, 2.2239661e+2, -768842.4, -860866.7, -7040.1733, -0.000010975149, 0.0014140826, -768306.94, -7793.684, 0.0, 5.0164976, 4.9570193 
5.1921374e+2, 2.2735372e+2, -721890.0, -813434.2, -7052.3623, 0.000006982865, -0.0014023832, -721349.9, -9416.48, 0.0, 5.015838, 4.9566875 
5.191962e+2, 2.3230948e+2, -678048.4, -772893.1, -6905.7354, -0.0000014159348, 0.001461033, -677548.2, -14181.062, 0.0, 5.015179, 4.95396 
5.191788e+2, 2.3726355e+2, -630984.44, -725295.2, -6899.506, -0.00000019255472, -0.0016511099, -630482.4, -15665.146, 0.0, 5.0145216, 4.953664 
5.191616e+2, 2.4221626e+2, -587154.0, -684919.0, -6632.266, 0.000008810519, 0.0017078375, -586706.1, -20425.436, 0.0, 5.0138655, 4.9508424 
5.191445e+2, 2.4716723e+2, -539953.8, -637102.1, -6605.9146, 0.000006220535, -0.001677977, -539506.7, -21745.598, 0.0, 5.013211, 4.9506006 
5.191276e+2, 2.521168e+2, -496232.13, -597116.7, -6221.256, 0.000010957655, 0.0016844398, -495849.94, -26594.598, 0.0, 5.0125575, 4.9476113 
5.1911104e+2, 2.5706467e+2, -448721.38, -548696.25, -6172.491, 0.00000063341804, -0.0016986311, -448341.72, -27575.406, 0.0, 5.0119076, 4.9475574 
5.190947e+2, 2.6201105e+2, -405230.13, -509395.13, -5671.029, 0.000017768487, 0.0016903025, -404922.28, -32630.57, 0.0, 5.0112596, 4.9442916 
5.190788e+2, 2.6695576e+2, -357322.2, -460175.4, -5597.949, 0.000011920229, -0.0016048931, -357018.4, -33184.848, 0.0, 5.0106163, 4.9444966 
5.1906323e+2, 2.718989e+2, -314109.97, -421688.94, -4982.122, 0.0000063518346, 0.0017232653, -313879.72, -38488.867, 0.0, 5.009975, 4.940901 
5.190481e+2, 2.768404e+2, -265801.4, -371659.16, -4879.9067, 0.00001830341, -0.0018683126, -265576.9, -38612.652, 0.0, 5.0093393, 4.941368 
5.190334e+2, 2.8178033e+2, -222710.67, -333658.06, -4149.6943, 0.000014338994, 0.0022176686, -222555.67, -44002.816, 0.0, 5.0087075, 4.9375596 
5.190193e+2, 2.867186e+2, -174068.72, -282969.88, -4013.0352, -0.000017466371, -0.0025117367, -173921.03, -43763.156, 0.0, 5.0080824, 4.9382377 
5.1900554e+2, 2.9165486e+2, -132319.11, -248306.17, -3188.6304, 0.000011229247, 0.0017978795, -132231.52, -50448.867, 0.0, 5.007462, 4.933201 
5.1899254e+2, 2.9658902e+2, -83540.305, -197419.27, -3000.3245, 0.000034146036, -0.00046777716, -83461.31, -50033.566, 0.0, 5.006847, 4.933925 
5.1897997e+2, 3.0153027e+2, -43601.563, -134022.28, -2157.086, -0.0000018272248, 0.0021831815, -43550.133, -43550.133, 0.0, 5.0062366, 4.9480963 
5.1896834e+2, 3.0647907e+2, -43996.55, -131828.81, -1899.8228, -0.00007861383, -0.0050935075, -43955.477, -43955.477, 0.0, 5.005635, 4.9491425 
5.1895714e+2, 3.114454e+2, -6601.9707, -41330.22, -930.73065, 0.00004684908, 0.004010805, -6577.0444, -6577.0444, 0.0, 5.005043, 4.9825196 
5.189471e+2, 3.1642902e+2, -6344.8438, -37737.996, -589.7789, -0.00006318868, -0.00092679367, -6333.7676, -6333.7676, 0.0, 5.004462, 4.9840937 
5.2456427e+2, 1.2295791e+2, -1670757.8, -1737730.4, -315.3408, 0.0000025419265, 0.00089157216, -1670756.3, 64256.22, 0.0, 5.029707, 4.985961 
5.2455336e+2, 1.2794334e+2, -1625171.9, -1692768.9, -494.2872, 0.000031819494, -0.0032053527, -1625168.3, 60986.92, 0.0, 5.029105, 4.984967 
5.2454156e+2, 1.3292775e+2, -1581013.5, -1650701.4, -1673.9435, -0.000012170406, 0.0034788912, -1580973.3, 56334.688, 0.0, 5.0284925, 4.982934 
5.2452904e+2, 1.3791041e+2, -1534919.5, -1604676.9, -1816.6091, 0.0000043302584, -0.001340763, -1534872.3, 53605.68, 0.0, 5.027872, 4.982282 
5.2451587e+2, 1.428918e+2, -1491013.3, -1563164.8, -2838.8828, 0.000019249355, 0.00021462463, -1490901.8, 48758.66, 0.0, 5.027244, 4.9800997 
5.245021e+2, 1.4787206e+2, -1444744.5, -1516777.9, -2948.7415, 0.000018689236, -0.00095306087, -1444624.0, 46229.895, 0.0, 5.0266094, 4.9795628 
5.244876e+2, 1.528508e+2, -1400891.8, -1475416.0, -3846.7427, -0.000010318297, 0.0012386246, -1400693.8, 41368.434, 0.0, 5.025967, 4.977341 
5.2447265e+2, 1.5782815e+2, -1354585.5, -1428951.3, -3931.5361, 0.000015342215, -0.0013380281, -1354378.3, 38905.805, 0.0, 5.025319, 4.9768186 
5.244572e+2, 1.6280416e+2, -1310756.9, -1387686.0, -4701.3843, 0.0000053662216, 0.0012110713, -1310470.6, 34048.59, 0.0, 5.024666, 4.9745417 
5.244413e+2, 1.6777875e+2, -1264355.9, -1341033.5, -4766.4243, 0.00000029886553, -0.0012076914, -1264060.6, 31707.602, 0.0, 5.024007, 4.9740667 
5.2442497e+2, 1.7275196e+2, -1220560.4, -1299893.6, -5406.193, 0.0000079678675, 0.0010981734, -1220193.6, 26837.088, 0.0, 5.0233445, 4.971722 
5.244083e+2, 1.7772375e+2, -1174083.9, -1253105.4, -5453.92, 0.000010156645, -0.0012346517, -1173709.3, 24598.033, 0.0, 5.0226765, 4.9712768 
5.2439123e+2, 1.8269417e+2, -1130298.4, -1212053.6, -5964.2075, -0.0000067105016, 0.0012032356, -1129865.6, 19731.453, 0.0, 5.0220056, 4.9688807 
5.243739e+2, 1.8766311e+2, -1083753.5, -1165153.0, -5995.0522, 0.000003624333, -0.0013116044, -1083314.3, 17587.25, 0.0, 5.021331, 4.9684567 
5.2435637e+2, 1.9263071e+2, -1039976.8, -1124198.6, -6375.5015, -0.000000970755, 0.0012619023, -1039496.94, 12722.146, 0.0, 5.020654, 4.9659977 
5.2433854e+2, 1.9759677e+2, -993348.56, -1077157.8, -6393.9023, 0.000012628213, -0.0013336841, -992863.56, 10688.097, 0.0, 5.0199738, 4.965604 
5.243206e+2, 2.025615e+2, -949575.9, -1036314.7, -6651.225, -0.000013220262, 0.0012827603, -949068.8, 5828.5107, 0.0, 5.019295, 4.9630823 
5.243025e+2, 2.0752464e+2, -902856.2, -989161.94, -6659.0674, 0.000012582933, -0.0013616243, -902345.44, 3912.9995, 0.0, 5.018618, 4.9627047 
5.2428436e+2, 2.124864e+2, -859208.06, -948702.1, -6787.721, -0.0000070673523, 0.0013429688, -858696.2, -1063.0134, 0.0, 5.0179386, 4.9600196 
5.2426606e+2, 2.174465e+2, -812400.3, -901410.94, -6801.5166, 0.0000125595225, -0.0014438377, -811883.56, -2859.3596, 0.0, 5.017258, 4.95967 
5.242478e+2, 2.2240527e+2, -768625.56, -860764.3, -6784.7905, -0.000004204962, 0.0014040829, -768128.6, -7700.259, 0.0, 5.016573, 4.9570208 
5.242295e+2, 2.273624e+2, -721758.1, -813373.1, -6794.904, 0.000012240575, -0.0014083101, -721256.9, -9408.341, 0.0, 5.015884, 4.956688 
5.2421135e+2, 2.3231815e+2, -677983.3, -772835.9, -6643.635, 0.0000041986796, 0.0014531972, -677520.25, -14238.056, 0.0, 5.015196, 4.9539723 
5.241933e+2, 2.3727222e+2, -630999.9, -725276.56, -6635.6406, 0.0000065489453, -0.0016571465, -630535.06, -15802.861, 0.0, 5.0145106, 4.9536757 
5.2417535e+2, 2.4222495e+2, -587234.4, -684903.44, -6363.6353, 0.000013759818, 0.0016998646, -586821.44, -20625.93, 0.0, 5.013826, 4.9508657 
5.241576e+2, 2.4717595e+2, -540114.75, -637123.7, -6336.223, 0.000012292404, -0.0016828749, -539702.7, -22026.951, 0.0, 5.0131426, 4.9506235 
5.2414006e+2, 2.5212553e+2, -496459.38, -597141.6, -5945.027, 0.000016296384, 0.0016768989, -496109.53, -26939.826, 0.0, 5.01246, 4.947646 
5.241228e+2, 2.5707343e+2, -449029.13, -548757.0, -5895.563, 0.0000067065025, -0.0017027652, -448681.8, -28001.447, 0.0, 5.011781, 4.9475927 
5.241059e+2, 2.6201987e+2, -405604.6, -509458.94, -5386.441, 0.00002306891, 0.0016861339, -405325.97, -33120.586, 0.0, 5.011104, 4.9443383 
5.240893e+2, 2.669646e+2, -357777.28, -460273.25, -5312.9307, 0.000015953277, -0.001610214, -357502.63, -33755.83, 0.0, 5.010431, 4.9445443 
5.2407306e+2, 2.719078e+2, -314633.0, -421789.7, -4688.087, 0.000012849964, 0.0017201438, -314428.3, -39124.7, 0.0, 5.00976, 4.94096 
5.240573e+2, 2.7684933e+2, -266404.6, -371791.72, -4585.3555, 0.000023235572, -0.0018674897, -266205.47, -39329.05, 0.0, 5.009094, 4.9414287 
5.2404195e+2, 2.8178933e+2, -223384.47, -333798.22, -3844.3994, 0.000019963236, 0.0022123165, -223250.78, -44786.363, 0.0, 5.0084324, 4.9376297 
5.2402717e+2, 2.867277e+2, -174824.19, -283141.84, -3708.3088, -0.000007853496, -0.0025093532, -174697.38, -44628.633, 0.0, 5.0077763, 4.9383097 
5.240128e+2, 2.91664e+2, -133133.92, -248453.83, -2871.329, 0.00001752422, 0.0018041738, -133062.47, -51369.73, 0.0, 5.0071244, 4.933294 
5.2399915e+2, 2.9659826e+2, -84434.23, -197590.3, -2683.784, 0.000034772907, -0.00047969492, -84370.61, -51033.688, 0.0, 5.006478, 4.9340224 
5.23986e+2, 3.0153963e+2, -44569.6, -134210.5, -1834.4746, 0.000010228704, 0.002177861, -44532.074, -44532.074, 0.0, 5.005836, 4.9482 
5.239737e+2, 3.0648854e+2, -45051.867, -132051.36, -1577.893, -0.00007084073, -0.00506152, -45023.258, -45023.258, 0.0, 5.005202, 4.949248 
5.239619e+2, 3.1145495e+2, -7740.465, -41591.234, -605.4461, 0.000062489766, 0.0039970637, -7729.6396, -7729.6396, 0.0, 5.004577, 4.9826226 
5.2395135e+2, 3.164387e+2, -7563.0938, -38032.473, -267.40247, -0.000031643707, -0.00092736597, -7560.747, -7560.747, 0.0, 5.003966, 4.984197 
5.29594e+2, 1.2296826e+2, -1670865.1, -1738083.5, -601.6628, 0.0000011934196, 0.0008847775, -1670859.6, 64051.46, 0.0, 5.0297346, 4.9858317 
5.2958244e+2, 1.2795356e+2, -1625289.3, -1693126.3, -783.4389, 0.00003831868, -0.0031877342, -1625280.3, 60774.89, 0.0, 5.0291295, 4.9848385 
5.2957e+2, 1.3293785e+2, -1581121.3, -1651019.3, -1973.2643, -0.000015263802, 0.0034729156, -1581065.6, 56143.492, 0.0, 5.028512, 4.98282 
5.2955693e+2, 1.379204e+2, -1535038.5, -1604999.9, -2118.7378, -0.0000014336807, -0.0013451937, -1534974.4, 53405.703, 0.0, 5.027888, 4.982168 
5.295431e+2, 1.4290167e+2, -1491122.9, -1563450.4, -3149.3206, 0.000021232156, 0.00022087454, -1490986.0, 48577.652, 0.0, 5.0272555, 4.98 
5.295286e+2, 1.4788182e+2, -1444863.1, -1517065.3, -3262.446, 0.00001866615, -0.0009467812, -1444716.0, 46042.13, 0.0, 5.026617, 4.979464 
5.2951354e+2, 1.5286048e+2, -1401001.9, -1475668.9, -4168.0366, -0.000017006087, 0.0012351219, -1400770.0, 41197.387, 0.0, 5.025971, 4.9772553 
5.29498e+2, 1.5783775e+2, -1354703.3, -1429204.5, -4254.9478, 0.000011844724, -0.0013340109, -1354461.0, 38728.992, 0.0, 5.0253196, 4.976734 
5.294819e+2, 1.6281368e+2, -1310866.9, -1387907.8, -5032.2373, 0.000003215575, 0.0012140584, -1310539.5, 33886.44, 0.0, 5.024663, 4.9744697 
5.2946526e+2, 1.677882e+2, -1264472.3, -1341254.5, -5099.0083, -0.00000371248, -0.001202503, -1264135.1, 31540.6, 0.0, 5.0240006, 4.973996 
5.2944833e+2, 1.7276134e+2, -1220668.5, -1300082.8, -5745.3687, 0.0000031615273, 0.0010991439, -1220255.0, 26683.807, 0.0, 5.023335, 4.9716635 
5.294309e+2, 1.7773308e+2, -1174199.8, -1253296.8, -5795.0264, 0.000006519981, -0.0012314012, -1173777.4, 24438.457, 0.0, 5.022664, 4.9712195 
5.294132e+2, 1.8270345e+2, -1130406.0, -1212213.3, -6311.4976, -0.00001163563, 0.0012099295, -1129922.0, 19584.236, 0.0, 5.0219903, 4.968835 
5.293952e+2, 1.8767233e+2, -1083869.1, -1165316.0, -6343.504, -0.0000016038119, -0.0013091263, -1083378.1, 17433.059, 0.0, 5.021312, 4.968411 
5.293769e+2, 1.9263989e+2, -1040083.4, -1124330.3, -6730.5005, -0.000005820791, 0.0012669734, -1039549.06, 12579.971, 0.0, 5.020633, 4.965964 
5.293585e+2, 1.9760592e+2, -993459.06, -1077288.6, -6750.6563, 0.000008951458, -0.0013236811, -992918.94, 10543.043, 0.0, 5.0199504, 4.9655714 
5.293399e+2, 2.0257063e+2, -949667.5, -1036394.0, -7008.775, -0.00002183786, 0.0012855374, -949104.75, 5703.0938, 0.0, 5.0192695, 4.9630685 
5.2932113e+2, 2.0753376e+2, -902955.5, -989246.0, -7021.427, 0.000009164993, -0.0013548761, -902387.9, 3781.2275, 0.0, 5.01859, 4.96269 
5.2930224e+2, 2.1249552e+2, -859300.3, -948760.5, -7154.469, -0.000015495254, 0.0013516784, -858731.75, -1187.8033, 0.0, 5.0179086, 4.9600143 
5.2928334e+2, 2.174556e+2, -812498.5, -901473.4, -7166.6416, 0.000006105945, -0.0014312699, -811924.94, -2989.849, 0.0, 5.017226, 4.9596643 
5.2926433e+2, 2.2241437e+2, -768719.06, -860809.94, -7156.6094, -0.0000107704445, 0.0014096157, -768166.25, -7826.9946, 0.0, 5.016539, 4.957021 
5.2924544e+2, 2.2737148e+2, -721854.94, -813421.8, -7168.318, 0.000004434791, -0.0013963841, -721297.2, -9537.736, 0.0, 5.0158496, 4.9566884 
5.292265e+2, 2.3232724e+2, -678068.2, -772852.06, -7016.9863, -0.0000036996894, 0.0014635525, -677551.56, -14358.522, 0.0, 5.01516, 4.9539843 
5.2920777e+2, 2.3728132e+2, -631089.9, -725296.3, -7010.6743, -0.0000013216235, -0.0016453218, -630571.0, -15928.077, 0.0, 5.014473, 4.9536867 
5.2918917e+2, 2.4223407e+2, -587313.8, -684891.5, -6738.5474, 0.000004227572, 0.0017122916, -586850.7, -20744.59, 0.0, 5.013787, 4.9508886 
5.291707e+2, 2.4718511e+2, -540198.4, -637113.56, -6713.7905, 0.000003902355, -0.001667709, -539735.5, -22149.467, 0.0, 5.013102, 4.9506464 
5.291525e+2, 2.521347e+2, -496532.53, -597099.94, -6321.0664, 0.0000058888063, 0.0016884791, -496136.78, -27057.023, 0.0, 5.0124183, 4.9476805 
5.291346e+2, 2.5708264e+2, -449106.75, -548717.06, -6274.1333, -0.0000016843989, -0.0016875627, -448713.1, -28123.03, 0.0, 5.0117373, 4.947627 
5.291169e+2, 2.620291e+2, -405672.6, -509387.94, -5761.835, 0.000013545925, 0.0017010611, -405353.47, -33238.77, 0.0, 5.011059, 4.9443846 
5.2909964e+2, 2.669739e+2, -357848.9, -460201.9, -5691.19, 0.000004724332, -0.0015966649, -357533.44, -33877.77, 0.0, 5.0103836, 4.944591 
5.290828e+2, 2.7191713e+2, -314695.38, -421687.66, -5061.9575, 0.000004866213, 0.0017358006, -314456.44, -39244.473, 0.0, 5.009711, 4.9410186 
5.290663e+2, 2.7685878e+2, -266470.47, -371688.1, -4961.4604, 0.000011927523, -0.0018489461, -266237.03, -39452.844, 0.0, 5.009043, 4.9414887 
5.290503e+2, 2.8179884e+2, -223443.78, -333669.47, -4214.0337, 0.000007940978, 0.002225142, -223282.92, -44911.348, 0.0, 5.0083795, 4.9376993 
5.290349e+2, 2.8673723e+2, -174886.64, -283011.5, -4080.78, -0.000013093842, -0.002489014, -174732.84, -44757.65, 0.0, 5.007722, 4.9383807 
5.290199e+2, 2.9167363e+2, -133175.03, -248263.81, -3235.8384, 0.000007868543, 0.0018261502, -133084.11, -51485.703, 0.0, 5.007068, 4.933387 
5.290056e+2, 2.96608e+2, -84475.7, -197390.81, -3051.37, 0.000019534411, -0.0004757728, -84393.3, -51151.637, 0.0, 5.0064197, 4.9341197 
5.289918e+2, 3.0154943e+2, -44610.863, -133999.4, -2192.223, 0.0000067085934, 0.0021877605, -44557.133, -44557.133, 0.0, 5.0057755, 4.9483027 
5.289789e+2, 3.0649847e+2, -45097.645, -131838.73, -1937.5883, -0.000081904785, -0.0050177346, -45054.387, -45054.387, 0.0, 5.005139, 4.9493523 
5.289665e+2, 3.1146497e+2, -7799.4517, -41395.207, -948.893, 0.00004804313, 0.004000377, -7772.672, -7772.672, 0.0, 5.004511, 4.9827237 
5.289553e+2, 3.164488e+2, -7636.3066, -37839.504, -613.27936, -0.00006340758, -0.00090865087, -7623.8594, -7623.8594, 0.0, 5.0038943, 4.984299 
5.3462404e+2, 1.2297937e+2, -1669081.1, -1737485.9, -297.31393, 0.000012604372, 0.00087711005, -1669079.8, 65722.37, 0.0, 5.0303926, 4.9857054 
5.346119e+2, 1.2796456e+2, -1623605.8, -1692581.4, -483.5872, 0.00005139721, -0.0031679377, -1623602.3, 62345.027, 0.0, 5.029755, 4.984712 
5.345988e+2, 1.3294871e+2, -1579508.6, -1650478.1, -1683.5759, -0.000015443762, 0.0034634867, -1579468.8, 57633.836, 0.0, 5.0291076, 4.982709 
5.3458506e+2, 1.3793115e+2, -1533520.9, -1604508.1, -1832.1598, 0.00000284545, -0.001350414, -1533473.6, 54801.125, 0.0, 5.0284524, 4.9820566 
5.3457063e+2, 1.4291233e+2, -1489675.8, -1562963.3, -2868.933, 0.000034486002, 0.00022692615, -1489563.6, 49895.56, 0.0, 5.0277905, 4.9799027 
5.345555e+2, 1.4789239e+2, -1443506.4, -1516622.6, -2984.601, 0.000025615935, -0.000943597, -1443384.8, 47269.934, 0.0, 5.0271225, 4.9793673 
5.3453976e+2, 1.5287094e+2, -1399716.1, -1475233.4, -3894.5242, -0.000015836296, 0.0012289734, -1399515.8, 42349.047, 0.0, 5.026447, 4.977172 
5.345235e+2, 1.5784813e+2, -1353504.1, -1428810.0, -3981.7698, 0.000017965793, -0.001333406, -1353294.1, 39794.164, 0.0, 5.0257664, 4.976652 
5.3450674e+2, 1.6282398e+2, -1309738.1, -1387522.1, -4762.414, 0.000010723617, 0.0012132216, -1309447.6, 34877.414, 0.0, 5.0250807, 4.9743996 
5.3448945e+2, 1.6779841e+2, -1263428.3, -1340908.0, -4828.2793, 0.0000030051633, -0.0012021995, -1263128.6, 32446.941, 0.0, 5.0243893, 4.9739275 
5.344718e+2, 1.727715e+2, -1219694.0, -1299744.8, -5477.216, 0.00000642271, 0.0010956331, -1219321.0, 27518.295, 0.0, 5.023695, 4.9716067 
5.3445375e+2, 1.7774318e+2, -1173310.5, -1252999.5, -5525.3145, 0.0000113456335, -0.0012345029, -1172929.3, 25187.682, 0.0, 5.022995, 4.9711633 
5.344354e+2, 1.827135e+2, -1129581.4, -1211921.0, -6043.1523, -0.0000040180475, 0.0012093497, -1129140.3, 20267.512, 0.0, 5.022294, 4.968791 
5.344166e+2, 1.8768233e+2, -1083127.5, -1165064.0, -6073.013, 0.0000046595205, -0.0013127382, -1082679.9, 18033.246, 0.0, 5.0215883, 4.968367 
5.343977e+2, 1.9264986e+2, -1039409.8, -1124085.1, -6459.778, -0.0000010493211, 0.0012624187, -1038919.8, 13111.581, 0.0, 5.0208807, 4.965932 
5.343785e+2, 1.9761585e+2, -992864.75, -1077080.6, -6477.3525, 0.000016274345, -0.0013260783, -992369.5, 10995.2, 0.0, 5.0201707, 4.9655395 
5.343592e+2, 2.0258053e+2, -949140.3, -1036193.2, -6732.8154, -0.000016874874, 0.0012793179, -948622.7, 6088.151, 0.0, 5.0194616, 4.963048 
5.343397e+2, 2.0754364e+2, -902511.3, -989086.4, -6747.8555, 0.000017913226, -0.001360339, -901988.56, 4083.792, 0.0, 5.0187535, 4.962669 
5.343202e+2, 2.1250539e+2, -858904.2, -948565.25, -6879.1055, -0.000010909443, 0.0013454135, -858379.5, -932.2131, 0.0, 5.018044, 4.960019 
5.3430057e+2, 2.1746548e+2, -812185.56, -901319.44, -6882.6787, 0.000012819528, -0.0014343221, -811657.25, -2818.871, 0.0, 5.017333, 4.959668 
5.342809e+2, 2.2242424e+2, -768491.0, -860701.94, -6871.4067, -0.000005172919, 0.0013997573, -767981.75, -7739.241, 0.0, 5.0166183, 4.9570227 
5.342612e+2, 2.2738135e+2, -721705.75, -813352.8, -6880.7065, 0.000010741458, -0.0014029288, -721192.06, -9529.302, 0.0, 5.015901, 4.956689 
5.342416e+2, 2.3233712e+2, -677983.56, -772786.9, -6725.893, 0.0000018712865, 0.0014564411, -677508.75, -14412.472, 0.0, 5.015184, 4.953996 
5.342222e+2, 2.3729122e+2, -631086.94, -725269.8, -6717.5854, 0.0000049064756, -0.0016525743, -630610.2, -16064.075, 0.0, 5.014468, 4.953698 
5.342029e+2, 2.4224398e+2, -587378.94, -684869.75, -6441.007, 0.000010166319, 0.0017044852, -586955.2, -20946.092, 0.0, 5.013753, 4.950912 
5.3418374e+2, 2.4719502e+2, -540344.7, -637128.7, -6415.0024, 0.000008813365, -0.0016734803, -539921.3, -22432.453, 0.0, 5.013039, 4.95067 
5.3416485e+2, 2.5214466e+2, -496745.7, -597118.7, -6016.376, 0.000010432387, 0.0016803076, -496386.34, -27404.006, 0.0, 5.0123262, 4.9477153 
5.341462e+2, 2.5709262e+2, -449401.6, -548771.8, -5968.523, 0.0000053060007, -0.0016926583, -449044.4, -28552.072, 0.0, 5.0116158, 4.9476624 
5.341279e+2, 2.6203912e+2, -406036.06, -509447.0, -5448.5845, 0.000017534778, 0.0016946732, -405749.78, -33733.19, 0.0, 5.010907, 4.944431 
5.3410995e+2, 2.66984e+2, -358293.84, -460294.78, -5377.612, 0.0000071274953, -0.0016014407, -358011.13, -34454.01, 0.0, 5.0102024, 4.9446387 
5.3409237e+2, 2.7192724e+2, -315209.72, -421784.56, -4739.8506, 0.000012588308, 0.0017312646, -314999.34, -39886.434, 0.0, 5.009499, 4.941077 
5.340752e+2, 2.7686894e+2, -267065.97, -371816.78, -4639.112, 0.000017438027, -0.0018527823, -266860.94, -40176.344, 0.0, 5.008801, 4.9415493 
5.340585e+2, 2.8180906e+2, -224112.25, -333807.8, -3881.3042, 0.000011938861, 0.00221927, -223975.08, -45703.74, 0.0, 5.008106, 4.9377694 
5.340424e+2, 2.8674752e+2, -175637.89, -283181.34, -3749.035, -0.0000034225757, -0.0024866727, -175507.34, -45633.05, 0.0, 5.007417, 4.9384522 
5.3402674e+2, 2.9168403e+2, -133986.48, -248406.45, -2892.042, 0.000012093498, 0.0018269276, -133913.42, -52416.684, 0.0, 5.006731, 4.933481 
5.3401184e+2, 2.9661846e+2, -85368.73, -197557.89, -2708.7302, 0.00002103116, -0.00048341765, -85303.37, -52164.31, 0.0, 5.00605, 4.9342184 
5.339973e+2, 3.0156e+2, -45580.37, -134185.98, -1843.6396, 0.000020092535, 0.002182855, -45542.027, -45542.027, 0.0, 5.0053744, 4.948407 
5.339837e+2, 3.0650917e+2, -46156.37, -132060.8, -1591.1963, -0.00007476095, -0.0050035776, -46126.91, -46126.91, 0.0, 5.0047045, 4.949458 
5.339707e+2, 3.1147572e+2, -8946.985, -41663.98, -600.9958, 0.0000653017, 0.003998313, -8935.949, -8935.949, 0.0, 5.0040426, 4.982825 
5.3395885e+2, 3.164597e+2, -8864.794, -38139.926, -268.55203, -0.000026034244, -0.00091695506, -8862.33, -8862.33, 0.0, 5.0033956, 4.9844017 
5.3965443e+2, 1.22990936e+2, -1669188.6, -1737839.1, -597.8361, 0.000013750038, 0.0008718158, -1669183.5, 65505.37, 0.0, 5.0304203, 4.985576 
5.396417e+2, 1.27976e+2, -1623723.9, -1692941.0, -786.66907, 0.000056926256, -0.0031431958, -1623715.0, 62120.26, 0.0, 5.029779, 4.9845824 
5.396279e+2, 1.3296004e+2, -1579616.4, -1650795.8, -1996.284, -0.000025412663, 0.0034557728, -1579560.5, 57431.215, 0.0, 5.029127, 4.982595 
5.3961354e+2, 1.3794236e+2, -1533640.4, -1604831.8, -2147.776, -0.00000022517183, -0.001351452, -1533575.6, 54589.355, 0.0, 5.0284677, 4.9819427 
5.395984e+2, 1.4292341e+2, -1489785.1, -1563247.4, -3191.836, 0.00004030167, 0.0002385879, -1489646.6, 49703.85, 0.0, 5.0278015, 4.9798036 
5.395826e+2, 1.4790337e+2, -1443625.6, -1516910.1, -3311.4688, 0.00002294685, -0.000936242, -1443476.4, 47070.62, 0.0, 5.0271297, 4.979269 
5.3956616e+2, 1.5288183e+2, -1399826.5, -1475485.5, -4227.872, -0.000023695156, 0.0012288926, -1399591.0, 42167.01, 0.0, 5.02645, 4.977087 
5.3954923e+2, 1.5785895e+2, -1353622.4, -1429062.6, -4317.8745, 0.000014724729, -0.0013267533, -1353376.0, 39606.324, 0.0, 5.025766, 4.976568 
5.3953177e+2, 1.6283472e+2, -1309848.0, -1387742.3, -5105.2744, 0.000008598894, 0.00121884, -1309514.9, 34704.902, 0.0, 5.0250773, 4.974328 
5.3951377e+2, 1.6780908e+2, -1263545.0, -1341127.9, -5173.384, 0.0000018941383, -0.0011961511, -1263201.5, 32269.416, 0.0, 5.0243826, 4.973858 
5.394954e+2, 1.7278211e+2, -1219802.5, -1299932.9, -5828.8745, -0.00000055337654, 0.0011000246, -1219380.6, 27354.64, 0.0, 5.023685, 4.971549 
5.394767e+2, 1.7775372e+2, -1173426.3, -1253189.0, -5878.2495, 0.0000048589386, -0.0012298325, -1172995.4, 25018.201, 0.0, 5.022982, 4.9711065 
5.3945756e+2, 1.82724e+2, -1129688.5, -1212078.6, -6402.482, -0.000005470877, 0.0012160365, -1129194.0, 20110.861, 0.0, 5.0222783, 4.968746 
5.394382e+2, 1.8769279e+2, -1083241.8, -1165223.5, -6434.9497, 0.0000009824574, -0.0013062077, -1082739.8, 17870.904, 0.0, 5.0215693, 4.968323 
5.394185e+2, 1.9266026e+2, -1039514.9, -1124213.3, -6827.392, -0.000009188988, 0.001268075, -1038968.06, 12961.313, 0.0, 5.0208592, 4.9658995 
5.3939867e+2, 1.9762623e+2, -992974.9, -1077210.0, -6847.566, 0.00001078714, -0.0013189937, -992421.9, 10841.073, 0.0, 5.0201473, 4.965508 
5.3937864e+2, 2.0259088e+2, -949244.25, -1036297.7, -7103.6807, -0.000022428274, 0.0012860923, -948668.4, 5940.97, 0.0, 5.0194354, 4.9630256 
5.3935844e+2, 2.0755397e+2, -902623.2, -989195.6, -7119.801, 0.000013072119, -0.0013526386, -902041.56, 3929.5466, 0.0, 5.018725, 4.962646 
5.393382e+2, 2.125157e+2, -858982.8, -948590.9, -7255.6733, -0.000020248503, 0.001353019, -858399.1, -1053.013, 0.0, 5.018013, 4.960026 
5.393178e+2, 2.174758e+2, -812270.56, -901349.5, -7261.3716, 0.0000069187568, -0.0014225345, -811682.5, -2945.3699, 0.0, 5.0173, 4.9596744 
5.3929746e+2, 2.2243457e+2, -768586.44, -860749.06, -7257.1313, -0.000013655319, 0.0014072079, -768018.44, -7877.2085, 0.0, 5.016584, 4.957023 
5.392771e+2, 2.2739169e+2, -721803.44, -813402.7, -7267.4897, 0.0000037709362, -0.0013927137, -721230.44, -9668.966, 0.0, 5.0158668, 4.9566884 
5.3925675e+2, 2.3234746e+2, -678069.1, -772805.6, -7114.476, -0.000007685393, 0.0014686037, -677537.8, -14542.832, 0.0, 5.015148, 4.954007 
5.3923655e+2, 2.3730156e+2, -631176.0, -725290.44, -7108.156, -0.000004372671, -0.0016407294, -630642.1, -16197.437, 0.0, 5.0144315, 4.953709 
5.392166e+2, 2.4225433e+2, -587457.2, -684859.0, -6832.392, 0.00000086003894, 0.0017165458, -586980.25, -21072.695, 0.0, 5.0137143, 4.950934 
5.391967e+2, 2.4720539e+2, -540427.3, -637119.4, -6808.6997, -0.0000030543324, -0.0016596154, -539950.25, -22563.146, 0.0, 5.012999, 4.950692 
5.391771e+2, 2.5215507e+2, -496818.34, -597078.44, -6408.988, 0.00000047476226, 0.0016924553, -496410.3, -27530.035, 0.0, 5.0122843, 4.947749 
5.3915775e+2, 2.5710306e+2, -449477.9, -548732.0, -6364.014, -0.000001439762, -0.0016780925, -449071.53, -28681.582, 0.0, 5.011573, 4.9476967 
5.3913873e+2, 2.6204962e+2, -406102.97, -509377.0, -5841.4243, 0.000004759432, 0.0017078929, -405773.63, -33859.813, 0.0, 5.0108624, 4.9444766 
5.3912014e+2, 2.669945e+2, -358364.22, -460224.0, -5773.4834, -0.0000075225807, -0.0015850672, -358038.03, -34584.14, 0.0, 5.0101557, 4.9446855 
5.391018e+2, 2.7193785e+2, -315271.13, -421683.84, -5131.9614, 0.0000049126897, 0.0017456936, -315024.22, -40015.03, 0.0, 5.0094504, 4.9411354 
5.3908396e+2, 2.7687958e+2, -267130.56, -371713.8, -5033.8193, 0.0000067931473, -0.0018390587, -266888.8, -40308.54, 0.0, 5.008751, 4.941609 
5.390666e+2, 2.8181976e+2, -224170.9, -333681.13, -4270.034, -0.0000022231172, 0.002234345, -224004.66, -45838.234, 0.0, 5.0080543, 4.937838 
5.390498e+2, 2.867583e+2, -175699.34, -283051.84, -4140.999, -0.000009689591, -0.0024652854, -175539.84, -45771.156, 0.0, 5.0073633, 4.938523 
5.390335e+2, 2.9169485e+2, -134025.05, -248213.61, -3276.9438, 0.0000015459578, 0.0018430601, -133931.1, -52540.74, 0.0, 5.0066752, 4.9335747 
5.390178e+2, 2.9662943e+2, -85407.5, -197355.6, -3096.744, 0.000008888048, -0.0004719627, -85321.9, -52290.184, 0.0, 5.0059924, 4.934316 
5.3900266e+2, 3.0157107e+2, -45619.277, -133973.33, -2221.4177, 0.000016087197, 0.0021947662, -45563.46, -45563.46, 0.0, 5.0053144, 4.9485106 
5.389884e+2, 3.0652028e+2, -46199.945, -131847.38, -1972.491, -0.00008897063, -0.0049830875, -46154.543, -46154.543, 0.0, 5.0046425, 4.9495625 
5.389747e+2, 3.11487e+2, -9006.463, -41473.813, -966.97363, 0.00005315737, 0.0040205866, -8977.689, -8977.689, 0.0, 5.003978, 4.9829235 
5.389623e+2, 3.1647107e+2, -8937.872, -37949.72, -636.3253, -0.000056825116, -0.0009019796, -8923.922, -8923.922, 0.0, 5.003324, 4.9845033 
5.446852e+2, 1.2300333e+2, -1667353.8, -1737214.4, -276.43314, 0.000021585534, 0.00086438115, -1667352.8, 67214.68, 0.0, 5.031095, 4.9854507 
5.446718e+2, 1.2798826e+2, -1621992.4, -1692371.6, -469.64078, 0.00007515705, -0.0031182154, -1621989.3, 63725.797, 0.0, 5.030421, 4.984456 
5.4465735e+2, 1.3297217e+2, -1577957.9, -1650229.6, -1688.2742, -0.000026212518, 0.0034470577, -1577918.4, 58954.27, 0.0, 5.0297375, 4.9824843 
5.4464227e+2, 1.3795437e+2, -1532079.4, -1604317.1, -1842.6381, 0.0000032971739, -0.0013562286, -1532032.4, 56014.707, 0.0, 5.029047, 4.981832 
5.446264e+2, 1.4293534e+2, -1488296.6, -1562737.1, -2891.4902, 0.000052681073, 0.0002465855, -1488184.4, 51049.234, 0.0, 5.0283504, 4.9797077 
5.4460996e+2, 1.4791518e+2, -1442230.6, -1516447.4, -3013.787, 0.000031496962, -0.0009329897, -1442108.5, 48322.64, 0.0, 5.0276475, 4.979173 
5.4459286e+2, 1.5289357e+2, -1398503.3, -1475029.1, -3933.0076, -0.0000208211, 0.0012263248, -1398301.6, 43341.402, 0.0, 5.026938, 4.977004 
5.445752e+2, 1.5787059e+2, -1352387.9, -1428648.8, -4023.3845, 0.000020667865, -0.0013237799, -1352176.3, 40691.938, 0.0, 5.0262246, 4.9764867 
5.4455703e+2, 1.6284628e+2, -1308685.4, -1387337.1, -4812.902, 0.000015066769, 0.0012185781, -1308391.9, 35714.47, 0.0, 5.025506, 4.974259 
5.445384e+2, 1.6782059e+2, -1262469.4, -1340763.8, -4879.797, 0.000010902832, -0.0011970351, -1262166.4, 33191.848, 0.0, 5.024782, 4.9737897 
5.445193e+2, 1.7279355e+2, -1218795.8, -1299577.4, -5536.9907, 0.000004546013, 0.0011000126, -1218418.0, 28205.201, 0.0, 5.024056, 4.9714932 
5.444998e+2, 1.777651e+2, -1172503.0, -1252872.5, -5585.2197, 0.000007824661, -0.0012305955, -1172116.8, 25785.254, 0.0, 5.0233245, 4.971051 
5.4447997e+2, 1.8273532e+2, -1128837.1, -1211773.1, -6110.012, 0.000004510267, 0.0012134806, -1128389.4, 20804.465, 0.0, 5.022591, 4.9687023 
5.444598e+2, 1.8770407e+2, -1082474.4, -1164957.3, -6140.236, 0.000010173991, -0.0013082474, -1082019.8, 18480.398, 0.0, 5.021854, 4.9682803 
5.4443944e+2, 1.9267151e+2, -1038813.4, -1123954.9, -6531.714, -0.0000059578288, 0.0012659654, -1038315.2, 13504.003, 0.0, 5.0211163, 4.9658675 
5.444189e+2, 1.9763744e+2, -992355.9, -1076991.4, -6549.4673, 0.000018570101, -0.0013236214, -991852.0, 11301.125, 0.0, 5.020376, 4.965476 
5.443981e+2, 2.0260204e+2, -948691.25, -1036082.4, -6801.2427, -0.000015632642, 0.001283345, -948165.06, 6334.7593, 0.0, 5.019636, 4.963006 
5.443772e+2, 2.0756513e+2, -902154.2, -989021.0, -6813.1895, 0.000020778196, -0.0013570352, -901623.06, 4238.6943, 0.0, 5.018897, 4.9626265 
5.443562e+2, 2.1252686e+2, -858564.75, -948379.06, -6945.8286, -0.000014324622, 0.0013465479, -858030.75, -793.889, 0.0, 5.0181546, 4.9600334 
5.443351e+2, 2.1748695e+2, -811936.56, -901179.56, -6948.008, 0.000014563022, -0.0014271808, -811398.8, -2770.968, 0.0, 5.017413, 4.959681 
5.44314e+2, 2.2244573e+2, -768338.44, -860629.6, -6943.1826, -0.0000069009093, 0.0013998466, -767819.0, -7787.044, 0.0, 5.0166693, 4.9570255 
5.442929e+2, 2.2740284e+2, -721633.25, -813321.25, -6949.7866, 0.000009385029, -0.001400391, -721109.5, -9657.281, 0.0, 5.015925, 4.95669 
5.442719e+2, 2.323586e+2, -677965.75, -772732.44, -6794.285, -0.0000014440706, 0.0014606126, -677481.1, -14595.442, 0.0, 5.0151787, 4.9540186 
5.4425097e+2, 2.3731273e+2, -631154.1, -725255.44, -6785.473, 0.0000041188223, -0.0016481775, -630667.4, -16332.046, 0.0, 5.0144334, 4.9537206 
5.442302e+2, 2.4226551e+2, -587502.56, -684827.94, -6506.0625, 0.000005230477, 0.0017076544, -587069.56, -21271.54, 0.0, 5.013687, 4.950957 
5.4420966e+2, 2.472166e+2, -540555.56, -637125.4, -6480.3457, -0.0000005338418, -0.0016673814, -540122.6, -22845.3, 0.0, 5.0129423, 4.9507155 
5.4418933e+2, 2.521663e+2, -497017.34, -597091.1, -6074.577, 0.000007593053, 0.0016835028, -496649.94, -27879.65, 0.0, 5.0121975, 4.9477835 
5.4416925e+2, 2.5711432e+2, -449758.3, -548779.5, -6028.2437, 0.0000075527037, -0.0016861288, -449392.66, -29113.027, 0.0, 5.011456, 4.9477315 
5.4414946e+2, 2.620609e+2, -406453.4, -509430.63, -5498.335, 0.0000072578696, 0.0016993587, -406160.66, -34357.508, 0.0, 5.0107155, 4.944523 
5.4413015e+2, 2.6700583e+2, -358796.7, -460311.38, -5429.986, -0.0000075684998, -0.0015889853, -358507.06, -35164.277, 0.0, 5.009979, 4.9447327 
5.441111e+2, 2.7194923e+2, -315773.78, -421776.38, -4780.244, 0.000013450442, 0.0017365771, -315558.66, -40661.055, 0.0, 5.009243, 4.9411936 
5.440926e+2, 2.7689102e+2, -267715.38, -371837.88, -4682.121, 0.000014449695, -0.0018496201, -267505.25, -41037.094, 0.0, 5.0085125, 4.941669 
5.440745e+2, 2.8183126e+2, -224831.28, -333817.0, -3908.3606, -0.00000038808736, 0.002229026, -224691.3, -46637.605, 0.0, 5.0077844, 4.937907 
5.4405695e+2, 2.8676987e+2, -176443.25, -283218.6, -3780.5742, -0.0000018173126, -0.0024647736, -176309.56, -46654.29, 0.0, 5.0070615, 4.9385943 
5.440399e+2, 2.917065e+2, -134829.81, -248350.52, -2905.4126, 0.000007009196, 0.001835072, -134755.5, -53479.316, 0.0, 5.0063405, 4.9336705 
5.4402363e+2, 2.9664117e+2, -86296.234, -197517.94, -2726.4675, 0.000016720924, -0.0004778175, -86229.44, -53312.844, 0.0, 5.0056243, 4.9344163 
5.440078e+2, 3.015829e+2, -46587.48, -134157.5, -1845.5068, 0.000026977816, 0.0021888127, -46548.605, -46548.605, 0.0, 5.004914, 4.9486156 
5.439928e+2, 3.0653226e+2, -47258.938, -132068.72, -1600.513, -0.00008580767, -0.0049933875, -47228.742, -47228.742, 0.0, 5.004208, 4.949669 
5.4397845e+2, 3.1149906e+2, -10158.377, -41748.668, -595.1697, 0.00007678349, 0.0040342533, -10147.168, -10147.168, 0.0, 5.003509, 4.9830227 
5.439653e+2, 3.164832e+2, -10172.15, -38255.027, -268.2761, -0.000014144929, -0.00091993937, -10169.588, -10169.588, 0.0, 5.002824, 4.9846044 
5.4971623e+2, 1.23016186e+2, -1667461.5, -1737567.3, -590.87006, 0.000016833912, 0.00086172845, -1667456.5, 66984.8, 0.0, 5.031122, 4.985322 
5.4970217e+2, 1.2800099e+2, -1622111.8, -1692732.3, -786.82825, 0.000087005545, -0.0030892412, -1622103.0, 63487.27, 0.0, 5.0304446, 4.9843264 
5.496871e+2, 1.3298479e+2, -1578065.9, -1650546.4, -2014.2719, -0.00003679321, 0.0034435324, -1578010.0, 58739.125, 0.0, 5.0297565, 4.9823713 
5.496713e+2, 1.3796687e+2, -1532199.5, -1604640.8, -2171.8196, -0.0000021540952, -0.0013555827, -1532134.4, 55790.188, 0.0, 5.029062, 4.9817185 
5.496547e+2, 1.4294773e+2, -1488405.5, -1563019.3, -3226.8115, 0.00005621617, 0.00026078997, -1488266.3, 50846.027, 0.0, 5.028361, 4.9796095 
5.4963756e+2, 1.479275e+2, -1442350.5, -1516734.6, -3353.577, 0.000031429518, -0.0009247851, -1442199.6, 48111.0, 0.0, 5.027654, 4.979075 
5.4961973e+2, 1.5290578e+2, -1398613.6, -1475279.3, -4278.3315, -0.000027711783, 0.0012308153, -1398375.5, 43147.89, 0.0, 5.0269413, 4.97692 
5.496014e+2, 1.5788272e+2, -1352506.5, -1428900.1, -4372.102, 0.000017375607, -0.0013140712, -1352257.0, 40492.37, 0.0, 5.0262237, 4.9764037 
5.4958254e+2, 1.6285832e+2, -1308795.4, -1387555.1, -5167.7705, 0.0000116254805, 0.0012245075, -1308457.8, 35530.684, 0.0, 5.0255017, 4.974189 
5.495631e+2, 1.6783255e+2, -1262586.6, -1340982.3, -5237.083, 0.000009324239, -0.0011914637, -1262238.4, 33002.58, 0.0, 5.0247746, 4.9737206 
5.4954326e+2, 1.7280544e+2, -1218905.5, -1299765.9, -5899.86, 0.000000077810704, 0.0011089712, -1218477.3, 28029.25, 0.0, 5.0240455, 4.9714355 
5.4952306e+2, 1.7777695e+2, -1172619.3, -1253061.5, -5950.6396, -0.0000006636354, -0.001222323, -1172181.4, 25604.465, 0.0, 5.023311, 4.970995 
5.4950255e+2, 1.8274711e+2, -1128944.1, -1211930.6, -6480.7925, 0.000003575598, 0.0012186525, -1128441.1, 20637.11, 0.0, 5.022575, 4.9686575 
5.494817e+2, 1.8771581e+2, -1082586.5, -1165114.1, -6513.521, 0.000007858242, -0.0013010625, -1082075.5, 18309.379, 0.0, 5.0218353, 4.968237 
5.494606e+2, 1.9268323e+2, -1038918.0, -1124083.9, -6910.5166, -0.000015249582, 0.0012743243, -1038360.94, 13343.451, 0.0, 5.021095, 4.9658346 
5.494392e+2, 1.9764912e+2, -992467.3, -1077123.3, -6930.8125, 0.000015084944, -0.0013194955, -991903.7, 11134.966, 0.0, 5.0203524, 4.965443 
5.4941773e+2, 2.0261371e+2, -948794.7, -1036180.94, -7185.2275, -0.00002251697, 0.001293405, -948207.9, 6177.7344, 0.0, 5.019609, 4.9629865 
5.4939604e+2, 2.0757677e+2, -902267.44, -989122.44, -7200.7383, 0.000014696646, -0.0013490738, -901674.5, 4073.2324, 0.0, 5.018866, 4.9626074 
5.4937434e+2, 2.1253848e+2, -858647.6, -948405.2, -7336.6543, -0.000021319576, 0.0013537557, -858051.9, -928.9898, 0.0, 5.0181217, 4.9600406 
5.4935247e+2, 2.174986e+2, -812021.1, -901208.5, -7338.8335, 0.000006651492, -0.00141803, -811421.25, -2907.446, 0.0, 5.01738, 4.959687 
5.4933065e+2, 2.2245736e+2, -768429.94, -860673.4, -7339.4443, -0.000013795135, 0.0014094568, -767849.56, -7931.729, 0.0, 5.016636, 4.957027 
5.493088e+2, 2.2741447e+2, -721725.06, -813366.44, -7348.807, -0.0000016397177, -0.0013909411, -721139.5, -9801.394, 0.0, 5.015892, 4.956691 
5.49287e+2, 2.3237026e+2, -678047.44, -772749.9, -7198.238, -0.000010393471, 0.0014706799, -677503.44, -14731.945, 0.0, 5.0151443, 4.954029 
5.492654e+2, 2.3732439e+2, -631242.7, -725276.25, -7190.8867, -0.000001027049, -0.001635459, -630695.94, -16474.912, 0.0, 5.0143967, 4.953731 
5.492438e+2, 2.4227719e+2, -587581.44, -684817.75, -6913.2734, -0.000007762518, 0.001718025, -587092.4, -21408.758, 0.0, 5.0136485, 4.950979 
5.492225e+2, 2.472283e+2, -540636.94, -637115.1, -6890.102, -0.000014727955, -0.0016557422, -540147.4, -22984.678, 0.0, 5.0129023, 4.950738 
5.492015e+2, 2.52178e+2, -497088.97, -597052.2, -6483.8506, -0.0000007528571, 0.0016963142, -496670.2, -28014.793, 0.0, 5.0121565, 4.947817 
5.491807e+2, 2.571261e+2, -449832.5, -548739.0, -6440.3633, -0.000000033277605, -0.0016749272, -449414.88, -29250.49, 0.0, 5.0114136, 4.9477663 
5.491602e+2, 2.6207268e+2, -406518.9, -509361.88, -5908.813, -0.000006236647, 0.0017104918, -406180.53, -34492.992, 0.0, 5.0106716, 4.9445677 
5.491401e+2, 2.670177e+2, -358865.4, -460241.5, -5843.708, -0.000023972229, -0.0015713469, -358529.66, -35302.97, 0.0, 5.009933, 4.9447784 
5.491203e+2, 2.7196112e+2, -315834.06, -421677.66, -5190.8354, 0.000005427616, 0.0017469003, -315580.1, -40799.066, 0.0, 5.0091953, 4.9412503 
5.49101e+2, 2.7690294e+2, -267778.7, -371736.16, -5095.8755, 0.0000065415134, -0.0018423457, -267529.47, -41178.47, 0.0, 5.008463, 4.9417276 
5.490822e+2, 2.8184327e+2, -224889.55, -333693.16, -4316.8364, -0.000016819276, 0.0022444848, -224718.55, -46782.6, 0.0, 5.007733, 4.937975 
5.49064e+2, 2.8678197e+2, -176503.75, -283090.75, -4192.4873, -0.0000123923, -0.0024445343, -176339.1, -46802.258, 0.0, 5.007008, 4.938664 
5.490462e+2, 2.917187e+2, -134865.67, -248155.89, -3311.4915, -0.000004588929, 0.0018441291, -134768.95, -53611.973, 0.0, 5.0062857, 4.9337645 
5.490292e+2, 2.9665345e+2, -86332.11, -197313.77, -3135.6243, 0.000011624815, -0.00046397964, -86243.586, -53447.152, 0.0, 5.0055676, 4.9345145 
5.4901266e+2, 3.0159527e+2, -46623.95, -133944.05, -2244.466, 0.000019115985, 0.0022028794, -46566.293, -46566.293, 0.0, 5.0048547, 4.9487185 
5.489969e+2, 3.0654472e+2, -47300.156, -131855.5, -2004.4237, -0.000104553736, -0.004995685, -47252.668, -47252.668, 0.0, 5.0041466, 4.949773 
5.489819e+2, 3.1151164e+2, -10218.053, -41565.168, -984.6198, 0.00006904307, 0.0040696636, -10187.156, -10187.156, 0.0, 5.0034447, 4.9831185 
5.489681e+2, 3.1649584e+2, -10246.479, -38071.188, -659.4352, -0.00004688127, -0.0009115124, -10230.858, -10230.858, 0.0, 5.0027533, 4.9847035 
5.5474776e+2, 1.2302993e+2, -1665576.3, -1736914.5, -252.11864, 0.000024059895, 0.00085503334, -1665575.4, 68731.41, 0.0, 5.0318136, 4.9851975 
5.547329e+2, 1.2801461e+2, -1620334.1, -1692138.4, -452.2582, 0.00010510227, -0.003067384, -1620331.3, 65125.55, 0.0, 5.0311017, 4.984201 
5.547171e+2, 1.3299827e+2, -1576362.5, -1649954.9, -1687.1416, -0.000039910803, 0.0034376034, -1576323.9, 60293.07, 0.0, 5.030382, 4.982262 
5.547006e+2, 1.3798025e+2, -1530596.3, -1604103.1, -1847.4595, 0.0000044068242, -0.0013592906, -1530549.9, 57243.684, 0.0, 5.0296555, 4.9816084 
5.546833e+2, 1.42961e+2, -1486876.1, -1562485.1, -2905.7688, 0.00006891768, 0.00026968896, -1486764.6, 52217.605, 0.0, 5.0289226, 4.9795146 
5.5466545e+2, 1.4794067e+2, -1440917.5, -1516250.5, -3035.29, 0.000039081548, -0.00092200417, -1440795.4, 49386.125, 0.0, 5.028185, 4.97898 
5.546469e+2, 1.5291886e+2, -1397253.5, -1474801.3, -3961.2522, -0.000024756735, 0.0012296018, -1397051.8, 44343.54, 0.0, 5.027441, 4.976839 
5.5462784e+2, 1.578957e+2, -1351237.3, -1428466.4, -4055.496, 0.000026522857, -0.0013106905, -1351024.9, 41597.16, 0.0, 5.0266933, 4.9763236 
5.5460817e+2, 1.6287124e+2, -1307598.8, -1387130.6, -4852.092, 0.000019706076, 0.0012244442, -1307303.9, 36557.87, 0.0, 5.0259414, 4.9741206 
5.545881e+2, 1.6784541e+2, -1261477.1, -1340598.4, -4920.2275, 0.000016545664, -0.0011909677, -1261172.3, 33942.727, 0.0, 5.025185, 4.9736543 
5.545675e+2, 1.7281826e+2, -1217867.4, -1299392.3, -5582.9077, 0.0000070219344, 0.0011083941, -1217486.9, 28894.344, 0.0, 5.0244265, 4.97138 
5.5454654e+2, 1.7778969e+2, -1171666.9, -1252727.4, -5632.0996, 0.0000058932255, -0.0012222833, -1171277.4, 26383.684, 0.0, 5.023663, 4.970941 
5.545252e+2, 1.8275979e+2, -1128062.1, -1211609.1, -6161.4487, 0.000012512682, 0.0012183983, -1127610.3, 21343.758, 0.0, 5.0228987, 4.968614 
5.545036e+2, 1.8772845e+2, -1081788.6, -1164832.3, -6190.821, 0.00001649232, -0.0013062905, -1081329.6, 18931.47, 0.0, 5.02213, 4.9681945 
5.5448174e+2, 1.9269581e+2, -1038189.5, -1123811.8, -6587.1406, -0.000009802901, 0.0012761693, -1037685.7, 13895.279, 0.0, 5.021361, 4.9658027 
5.5445963e+2, 1.9766168e+2, -991821.3, -1076890.0, -6605.137, 0.000023990831, -0.0013241553, -991311.56, 11604.023, 0.0, 5.0205903, 4.965412 
5.544374e+2, 2.0262626e+2, -948222.9, -1035957.75, -6857.017, -0.000014194146, 0.0012898918, -947690.2, 6572.623, 0.0, 5.019816, 4.9629664 
5.54415e+2, 2.0758927e+2, -901786.9, -988942.4, -6870.073, 0.000023549468, -0.0013538154, -901248.7, 4376.4736, 0.0, 5.0190415, 4.962588 
5.5439246e+2, 2.1255098e+2, -858206.44, -948169.0, -6997.2188, -0.000013687151, 0.0013484783, -857665.5, -665.121, 0.0, 5.0182686, 4.960054 
5.5436987e+2, 2.175111e+2, -811657.1, -901011.1, -6991.868, 0.0000136860635, -0.0014242742, -811113.3, -2722.1057, 0.0, 5.017501, 4.9596996 
5.543473e+2, 2.2246988e+2, -768159.3, -860549.75, -6990.585, -0.000005099422, 0.0014026893, -767633.4, -7838.136, 0.0, 5.0167303, 4.957026 
5.543246e+2, 2.2742699e+2, -721530.0, -813279.7, -6998.014, 0.0000029092732, -0.0013975785, -720999.3, -9783.795, 0.0, 5.01596, 4.95669 
5.543021e+2, 2.3238276e+2, -677915.56, -772659.7, -6850.539, -0.0000031207912, 0.0014613038, -677422.8, -14773.907, 0.0, 5.0151844, 4.9540424 
5.5427974e+2, 2.3733692e+2, -631199.4, -725227.2, -6839.1743, 0.000009565071, -0.0016449314, -630704.56, -16606.232, 0.0, 5.0144053, 4.953744 
5.5425745e+2, 2.4228972e+2, -587611.3, -684778.4, -6555.4775, -0.0000038998005, 0.0017088078, -587171.0, -21610.293, 0.0, 5.0136266, 4.9510026 
5.5423534e+2, 2.4724086e+2, -540747.8, -637111.3, -6529.6797, -0.000012930012, -0.0016637518, -540307.4, -23267.752, 0.0, 5.0128517, 4.9507623 
5.542135e+2, 2.5219062e+2, -497270.9, -597057.8, -6117.549, 0.0000074109544, 0.001684627, -496897.28, -28365.201, 0.0, 5.012076, 4.9478507 
5.5419195e+2, 2.571387e+2, -450096.22, -548779.2, -6072.6284, 0.000008490144, -0.0016859889, -449723.94, -29683.176, 0.0, 5.011303, 4.947801 
5.541707e+2, 2.6208535e+2, -406854.0, -509409.88, -5534.708, -0.000003718906, 0.0016996643, -406556.16, -34992.61, 0.0, 5.010531, 4.944613 
5.5414987e+2, 2.670304e+2, -359282.53, -460322.4, -5468.841, -0.000024809066, -0.0015769688, -358987.38, -35885.09, 0.0, 5.009762, 4.944825 
5.5412936e+2, 2.7197388e+2, -316322.72, -421765.47, -4808.0474, 0.000013691449, 0.0017348344, -316103.94, -41447.766, 0.0, 5.0089936, 4.941308 
5.5410933e+2, 2.7691576e+2, -268349.7, -371854.66, -4713.4263, 0.000018199038, -0.0018585427, -268135.47, -41909.88, 0.0, 5.00823, 4.9417877 
5.540898e+2, 2.8185615e+2, -225538.69, -333825.72, -3924.761, -0.000015080105, 0.0022356107, -225396.63, -47586.695, 0.0, 5.0074677, 4.938043 
5.5407083e+2, 2.867949e+2, -177237.22, -283253.94, -3801.5234, -0.00000815665, -0.002447725, -177101.08, -47690.91, 0.0, 5.0067105, 4.9387345 
5.540523e+2, 2.917317e+2, -135659.9, -248286.27, -2910.5588, 0.00000020373344, 0.0018291025, -135584.75, -54555.19, 0.0, 5.0059543, 4.9338603 
5.5403453e+2, 2.9666653e+2, -87212.16, -197470.23, -2735.9, 0.000027065193, -0.00047159844, -87144.31, -54476.258, 0.0, 5.0052023, 4.934615 
5.5401725e+2, 3.016085e+2, -47588.098, -134125.58, -1840.2671, 0.000025845271, 0.0021946062, -47548.98, -47548.98, 0.0, 5.0044556, 4.948824 
5.5400085e+2, 3.06558e+2, -48356.676, -132075.64, -1605.5287, -0.00010203261, -0.0050248266, -48325.9, -48325.9, 0.0, 5.0037136, 4.9498787 
5.539851e+2, 3.1152502e+2, -11368.625, -41842.625, -587.0842, 0.00009717596, 0.004085805, -11357.319, -11357.319, 0.0, 5.002978, 4.9832163 
5.539706e+2, 3.1650937e+2, -11483.118, -38383.332, -267.4768, 0.000000035229696, -0.0009388548, -11480.459, -11480.459, 0.0, 5.0022535, 4.984802 
5.597795e+2, 1.23044156e+2, -1665684.9, -1737266.3, -581.0667, 0.00001884171, 0.00085407915, -1665680.1, 68487.12, 0.0, 5.03184, 4.9850698 
5.5976397e+2, 1.2802872e+2, -1620454.5, -1692499.3, -783.8753, 0.00011485621, -0.0030418425, -1620446.0, 64872.547, 0.0, 5.0311246, 4.9840713 
5.5974746e+2, 1.3301225e+2, -1576470.4, -1650269.5, -2026.178, -0.00005359203, 0.003440605, -1576414.9, 60065.05, 0.0, 5.0304003, 4.98215 
5.5973023e+2, 1.3799413e+2, -1530717.4, -1604426.3, -2190.0784, 0.0000031948327, -0.0013566593, -1530652.4, 57005.254, 0.0, 5.02967, 4.9814954 
5.597123e+2, 1.4297478e+2, -1486985.0, -1562764.8, -3253.437, 0.00007277669, 0.00028505005, -1486845.6, 52001.664, 0.0, 5.0289326, 4.9794183 
5.596936e+2, 1.4795433e+2, -1441037.8, -1516536.1, -3387.9443, 0.00003629414, -0.00091233925, -1440886.0, 49161.51, 0.0, 5.028191, 4.978883 
5.596743e+2, 1.5293244e+2, -1397363.6, -1475048.4, -4318.255, -0.00003217958, 0.0012358627, -1397124.4, 44137.813, 0.0, 5.027443, 4.9767566 
5.596545e+2, 1.5790921e+2, -1351356.3, -1428716.1, -4416.5474, 0.000025555959, -0.0012999143, -1351104.9, 41384.832, 0.0, 5.026692, 4.9762416 
5.596341e+2, 1.6288467e+2, -1307709.5, -1387347.4, -5218.1426, 0.000016985961, 0.0012327848, -1307369.1, 36361.145, 0.0, 5.0259366, 4.9740515 
5.596132e+2, 1.6785876e+2, -1261594.6, -1340814.9, -5289.2065, 0.0000118347, -0.0011806926, -1261243.1, 33741.074, 0.0, 5.025177, 4.973586 
5.595918e+2, 1.7283155e+2, -1217977.3, -1299578.8, -5957.141, 0.000003693568, 0.001114754, -1217544.8, 28706.254, 0.0, 5.0244155, 4.971324 
5.5957013e+2, 1.7780292e+2, -1171782.9, -1252914.0, -6008.9443, 0.0000033864007, -0.0012141613, -1171340.3, 26191.133, 0.0, 5.023649, 4.9708858 
5.595481e+2, 1.8277298e+2, -1128169.0, -1211764.3, -6543.5054, 0.000007754636, 0.0012294244, -1127659.9, 21164.904, 0.0, 5.022882, 4.9685707 
5.5952567e+2, 1.8774159e+2, -1081902.3, -1164990.6, -6575.5913, 0.000012618959, -0.0013054851, -1081385.1, 18747.246, 0.0, 5.022111, 4.9681506 
5.595031e+2, 1.9270892e+2, -1038295.6, -1123941.8, -6976.0283, -0.0000150497435, 0.0012902875, -1037731.1, 13721.4375, 0.0, 5.0213394, 4.9657702 
5.594802e+2, 1.9767474e+2, -991932.75, -1077019.3, -6997.2407, 0.000018767478, -0.0013175044, -991361.1, 11426.333, 0.0, 5.020566, 4.9653807 
5.594572e+2, 2.026393e+2, -948326.9, -1036058.5, -7254.0356, -0.000020005496, 0.0012960176, -947731.1, 6403.8003, 0.0, 5.019789, 4.962946 
5.5943394e+2, 2.0760229e+2, -901897.94, -989045.56, -7269.332, 0.000016843842, -0.0013463495, -901295.75, 4201.8022, 0.0, 5.019012, 4.962568 
5.594107e+2, 2.12564e+2, -858278.94, -948179.06, -7397.905, -0.000020828587, 0.0013570731, -857674.2, -801.43866, 0.0, 5.018237, 4.9600663 
5.593873e+2, 2.1752414e+2, -811733.9, -901024.6, -7401.173, 0.00000636957, -0.001417155, -811124.56, -2861.0425, 0.0, 5.017468, 4.9597116 
5.5936396e+2, 2.224829e+2, -768255.2, -860600.7, -7405.6665, -0.000011885681, 0.001411151, -767665.06, -7997.611, 0.0, 5.0166965, 4.9570255 
5.593406e+2, 2.2744003e+2, -721628.06, -813332.56, -7407.641, -0.000007937087, -0.0013863791, -721033.56, -9945.792, 0.0, 5.015926, 4.9566884 
5.5931723e+2, 2.3239581e+2, -677998.1, -772674.25, -7267.4287, -0.000011155169, 0.0014684534, -677443.56, -14922.46, 0.0, 5.015149, 4.954055 
5.5929404e+2, 2.3734996e+2, -631285.1, -725243.2, -7259.013, 0.0000034916145, -0.0016383562, -630727.6, -16757.217, 0.0, 5.0143685, 4.953757 
5.59271e+2, 2.4230279e+2, -587687.3, -684766.8, -6976.397, -0.000016696444, 0.001720768, -587188.56, -21755.9, 0.0, 5.013589, 4.951025 
5.5924815e+2, 2.4725395e+2, -540825.7, -637098.7, -6953.9224, -0.00002766341, -0.0016504697, -540326.0, -23414.656, 0.0, 5.0128126, 4.950785 
5.592255e+2, 2.5220373e+2, -497340.03, -597019.2, -6542.999, -0.00000017041536, 0.0016905835, -496912.38, -28508.885, 0.0, 5.012036, 4.9478836 
5.592032e+2, 2.5715184e+2, -450168.3, -548739.8, -6501.1406, 0.0000019506278, -0.001676488, -449741.38, -29829.51, 0.0, 5.0112615, 4.9478345 
5.591812e+2, 2.6209855e+2, -406918.03, -509343.44, -5962.6797, -0.000017442038, 0.0017096661, -406572.06, -35137.793, 0.0, 5.0104876, 4.944657 
5.591595e+2, 2.6704362e+2, -359349.22, -460253.22, -5900.2886, -0.00004268922, -0.0015638109, -359005.38, -36032.81, 0.0, 5.0097165, 4.944871 
5.591383e+2, 2.7198714e+2, -316382.03, -421669.72, -5237.181, 0.0000055466976, 0.0017433187, -316122.16, -41596.18, 0.0, 5.008947, 4.9413633 
5.591175e+2, 2.769291e+2, -268411.4, -371754.44, -5146.4443, 0.000012979261, -0.0018541011, -268155.75, -42060.887, 0.0, 5.008181, 4.9418454 
5.590972e+2, 2.8186953e+2, -225596.1, -333704.88, -4353.701, -0.000033750643, 0.0022478015, -225421.05, -47742.465, 0.0, 5.0074167, 4.938109 
5.5907744e+2, 2.8680834e+2, -177296.73, -283128.75, -4233.8076, -0.000022699987, -0.002429863, -177127.63, -47849.477, 0.0, 5.006658, 4.938803 
5.5905825e+2, 2.9174525e+2, -135693.06, -248090.6, -3338.49, -0.000009785563, 0.0018348312, -135593.98, -54697.22, 0.0, 5.0059, 4.9339547 
5.5903965e+2, 2.9668018e+2, -87245.11, -197264.72, -3166.9236, 0.000029836974, -0.00046009896, -87154.02, -54619.71, 0.0, 5.0051465, 4.934714 
5.5902165e+2, 3.016222e+2, -47622.547, -133912.92, -2262.2253, 0.0000108339045, 0.002204315, -47563.28, -47563.28, 0.0, 5.0043974, 4.9489264 
5.5900455e+2, 3.0657187e+2, -48395.61, -131863.86, -2033.0018, -0.000121243116, -0.0050352793, -48346.12, -48346.12, 0.0, 5.0036535, 4.9499817 
5.5898803e+2, 3.11539e+2, -11425.731, -41662.41, -1000.5643, 0.0000922082, 0.004126761, -11392.658, -11392.658, 0.0, 5.002915, 4.9833107 
5.589728e+2, 3.165234e+2, -11558.962, -38209.83, -684.16815, -0.000034798406, -0.0009371289, -11541.409, -11541.409, 0.0, 5.002184, 4.9848967 
5.648117e+2, 1.23059325e+2, -1663751.5, -1736585.4, -224.3202, 0.000028534103, 0.0008492955, -1663750.8, 70267.86, 0.0, 5.032547, 4.9849467 
5.6479543e+2, 1.2804376e+2, -1618631.0, -1691879.3, -431.0635, 0.00012922025, -0.0030218607, -1618628.5, 66542.69, 0.0, 5.0317974, 4.983947 
5.6477815e+2, 1.3302718e+2, -1574722.6, -1649652.0, -1679.4622, -0.000056754532, 0.0034404132, -1574685.0, 61648.74, 0.0, 5.03104, 4.9820423 
5.647602e+2, 1.3800892e+2, -1529073.0, -1603864.6, -1846.2684, 0.000012040937, -0.001361062, -1529027.5, 58485.07, 0.0, 5.0302763, 4.9813867 
5.6474143e+2, 1.4298947e+2, -1485416.5, -1562206.4, -2910.8083, 0.00008401868, 0.00029097954, -1485306.4, 53396.9, 0.0, 5.029507, 4.9793253 
5.6472206e+2, 1.4796893e+2, -1439567.6, -1516029.8, -3048.1343, 0.000044592158, -0.0009086861, -1439446.4, 50458.14, 0.0, 5.0287337, 4.97879 
5.64702e+2, 1.5294695e+2, -1395967.0, -1474547.5, -3977.9814, -0.000026362914, 0.0012366712, -1395766.1, 45353.867, 0.0, 5.0279546, 4.9766774 
5.646814e+2, 1.5792364e+2, -1350052.3, -1428261.6, -4077.0293, 0.000034052442, -0.0012991345, -1349840.4, 42508.01, 0.0, 5.027173, 4.976163 
5.646602e+2, 1.6289903e+2, -1306479.8, -1386902.6, -4877.761, 0.000025409354, 0.0012335997, -1306185.0, 37404.535, 0.0, 5.026387, 4.9739847 
5.6463856e+2, 1.6787304e+2, -1260452.8, -1340411.3, -4947.3804, 0.000022228993, -0.0011770673, -1260147.8, 34696.37, 0.0, 5.0255976, 4.973521 
5.6461644e+2, 1.7284577e+2, -1216908.6, -1299186.5, -5614.3477, 0.000010376772, 0.0011111192, -1216527.4, 29584.24, 0.0, 5.024806, 4.97127 
5.645939e+2, 1.7781708e+2, -1170802.8, -1252563.5, -5663.205, 0.000012275529, -0.0012171208, -1170412.4, 26980.26, 0.0, 5.02401, 4.9708333 
5.64571e+2, 1.827871e+2, -1127256.9, -1211423.0, -6195.7983, 0.000016668233, 0.0012312875, -1126803.1, 21883.232, 0.0, 5.023215, 4.968529 
5.645479e+2, 1.8775566e+2, -1081074.8, -1164691.0, -6225.9897, 0.000022772845, -0.0013105114, -1080613.8, 19380.69, 0.0, 5.022415, 4.9681096 
5.645245e+2, 1.9272296e+2, -1037539.44, -1123650.9, -6622.1826, -0.000005963134, 0.0012896714, -1037033.1, 14281.865, 0.0, 5.021614, 4.9657407 
5.645008e+2, 1.9768876e+2, -991261.9, -1076769.1, -6640.0605, 0.000027276654, -0.0013236192, -990749.3, 11900.978, 0.0, 5.0208116, 4.9653516 
5.6447697e+2, 2.0265326e+2, -947726.75, -1035816.2, -6894.896, -0.000009792347, 0.0012944582, -947190.3, 6807.687, 0.0, 5.0200047, 4.9629283 
5.64453e+2, 2.0761624e+2, -901385.56, -988846.06, -6905.1616, 0.000026330375, -0.0013523969, -900843.75, 4517.079, 0.0, 5.019198, 4.96255 
5.644289e+2, 2.1257794e+2, -857829.5, -947975.2, -7027.681, -0.0000117833615, 0.0013523669, -857284.94, -548.7504, 0.0, 5.0183945, 4.960064 
5.644048e+2, 2.1753807e+2, -811367.44, -900862.25, -7036.909, 0.000014865035, -0.0014232728, -810817.56, -2690.5552, 0.0, 5.0175967, 4.959708 
5.643806e+2, 2.2249684e+2, -767940.56, -860412.25, -7038.4683, -0.0000023242208, 0.0014033593, -767407.9, -7876.9644, 0.0, 5.0167975, 4.957044 
5.6435645e+2, 2.2745398e+2, -721393.25, -813182.8, -7023.5146, -0.0000015099057, -0.0013953412, -720858.94, -9907.923, 0.0, 5.0159993, 4.9567065 
5.643324e+2, 2.3240978e+2, -677852.2, -772579.06, -6881.9575, -0.0000021727208, 0.0014593536, -677354.8, -14970.559, 0.0, 5.015194, 4.954067 
5.6430835e+2, 2.3736392e+2, -631222.3, -725187.06, -6871.0117, 0.000011702821, -0.0016481114, -630722.56, -16889.03, 0.0, 5.0143847, 4.9537687 
5.6428456e+2, 2.4231677e+2, -587697.0, -684721.2, -6583.2803, -0.000009851631, 0.0017093444, -587252.4, -21956.74, 0.0, 5.013575, 4.951047 
5.6426084e+2, 2.4726795e+2, -540916.6, -637088.56, -6558.811, -0.000023915225, -0.0016600178, -540471.4, -23697.27, 0.0, 5.012769, 4.950808 
5.642375e+2, 2.5221777e+2, -497500.88, -597016.8, -6143.725, 0.0000074364934, 0.0016766945, -497123.03, -28856.967, 0.0, 5.011963, 4.9479165 
5.6421435e+2, 2.5716588e+2, -450412.2, -548772.44, -6100.395, 0.00001147018, -0.0016893415, -450035.28, -30261.166, 0.0, 5.0111585, 4.947869 
5.641915e+2, 2.6211265e+2, -407234.53, -509385.1, -5555.7856, -0.000013713888, 0.001696568, -406933.25, -35637.043, 0.0, 5.010354, 4.9447007 
5.641691e+2, 2.6705775e+2, -359747.72, -460326.63, -5492.6084, -0.000042916185, -0.0015731337, -359448.66, -36614.563, 0.0, 5.0095525, 4.944917 
5.641471e+2, 2.7200133e+2, -316854.06, -421752.2, -4821.64, 0.00001417296, 0.0017271016, -316632.88, -42245.85, 0.0, 5.008752, 4.9414196 
5.6412554e+2, 2.7694333e+2, -268965.84, -371867.03, -4731.45, 0.000026331492, -0.0018737011, -268748.75, -42793.38, 0.0, 5.0079546, 4.941904 
5.6410444e+2, 2.818838e+2, -226230.73, -333833.25, -3929.8677, -0.000032106538, 0.0022345341, -226087.4, -48548.875, 0.0, 5.0071573, 4.938176 
5.6408393e+2, 2.8682274e+2, -178016.19, -283287.94, -3810.3376, -0.000020748399, -0.0024386279, -177878.45, -48741.01, 0.0, 5.0063663, 4.9388723 
5.640639e+2, 2.9175967e+2, -136472.73, -248213.4, -2906.51, -0.0000029211585, 0.0018143117, -136397.19, -55641.87, 0.0, 5.0055747, 4.934051 
5.640446e+2, 2.966947e+2, -88111.86, -197413.61, -2735.9722, 0.00005234821, -0.00047457186, -88043.414, -55651.51, 0.0, 5.0047865, 4.934815 
5.640258e+2, 3.0163687e+2, -48578.2, -134090.78, -1828.8572, 0.000011148741, 0.002187212, -48539.1, -48539.1, 0.0, 5.0040016, 4.9490314 
5.6400794e+2, 3.0658662e+2, -49445.766, -132081.83, -1605.3679, -0.000115901516, -0.005067907, -49414.59, -49414.59, 0.0, 5.003223, 4.950087 
5.6399065e+2, 3.1155384e+2, -12570.568, -41938.66, -575.59546, 0.00011838127, 0.0041365833, -12559.291, -12559.291, 0.0, 5.002451, 4.983407 
5.639747e+2, 3.1653833e+2, -12795.591, -38531.508, -267.7643, 0.00001517626, -0.0009689982, -12792.805, -12792.805, 0.0, 5.0016866, 4.9849906 
5.6984425e+2, 1.23075016e+2, -1663860.6, -1736934.9, -567.2483, 0.000023483422, 0.0008514418, -1663856.3, 70008.7, 0.0, 5.0325723, 4.9848204 
5.698272e+2, 1.2805931e+2, -1618753.1, -1692239.1, -776.7911, 0.00013309004, -0.0029981884, -1618745.0, 66273.77, 0.0, 5.031819, 4.9838185 
5.6980914e+2, 1.330426e+2, -1574831.6, -1649964.6, -2031.7079, -0.000068878195, 0.0034496372, -1574776.8, 61405.684, 0.0, 5.0310574, 4.9819317 
5.697905e+2, 1.3802424e+2, -1529194.5, -1604185.4, -2202.6675, 0.000011664868, -0.0013573493, -1529129.9, 58232.438, 0.0, 5.0302896, 4.9812746 
5.6977093e+2, 1.4300469e+2, -1485525.3, -1562482.3, -3270.6353, 0.00008484742, 0.0003035422, -1485386.5, 53167.527, 0.0, 5.029516, 4.9792304 
5.697507e+2, 1.4798406e+2, -1439688.6, -1516313.1, -3413.4175, 0.000042493444, -0.00089698465, -1439536.9, 50219.344, 0.0, 5.0287385, 4.978694 
5.697299e+2, 1.5296197e+2, -1396077.1, -1474791.0, -4346.3706, -0.00003048913, 0.0012470039, -1395837.8, 45134.797, 0.0, 5.027956, 4.9765964 
5.6970847e+2, 1.579386e+2, -1350171.9, -1428509.3, -4450.3374, 0.000030142568, -0.0012913672, -1349919.9, 42281.91, 0.0, 5.0271707, 4.9760823 
5.6968653e+2, 1.629139e+2, -1306590.5, -1387116.1, -5254.7637, 0.000022362037, 0.0012439628, -1306249.1, 37194.66, 0.0, 5.0263815, 4.973917 
5.696641e+2, 1.6788787e+2, -1260570.8, -1340625.0, -5327.775, 0.00002339829, -0.0011638551, -1260217.6, 34481.31, 0.0, 5.025589, 4.9734545 
5.696412e+2, 1.7286052e+2, -1217018.3, -1299369.5, -6000.0244, 0.000003059757, 0.0011169366, -1216583.4, 29383.564, 0.0, 5.024794, 4.9712152 
5.6961787e+2, 1.7783178e+2, -1170917.8, -1252746.0, -6051.087, 0.000008369636, -0.0012102098, -1170472.8, 26775.846, 0.0, 5.0239954, 4.9707794 
5.6959426e+2, 1.8280175e+2, -1127363.8, -1211576.5, -6588.329, 0.000014154294, 0.0012442849, -1126851.4, 21691.428, 0.0, 5.0231977, 4.968487 
5.6957024e+2, 1.8777028e+2, -1081187.5, -1164845.3, -6622.839, 0.00002027846, -0.0013008141, -1080666.4, 19184.906, 0.0, 5.0223956, 4.9680676 
5.6954604e+2, 1.9273753e+2, -1037643.06, -1123773.5, -7022.8545, -0.00001147063, 0.0012972389, -1037074.2, 14098.042, 0.0, 5.0215917, 4.9657106 
5.6952155e+2, 1.9770329e+2, -991372.7, -1076895.0, -7044.952, 0.000020225734, -0.0013203608, -990796.25, 11711.522, 0.0, 5.0207863, 4.9653215 
5.6949687e+2, 2.0266779e+2, -947825.9, -1035909.06, -7306.2183, -0.000013021273, 0.0013077208, -947224.0, 6631.7534, 0.0, 5.019978, 4.9629107 
5.6947213e+2, 2.0763074e+2, -901487.06, -988940.6, -7320.0083, 0.000021039328, -0.0013483961, -900878.6, 4340.1123, 0.0, 5.0191703, 4.962532 
5.694473e+2, 2.1259242e+2, -857922.4, -948040.6, -7440.2593, -0.000019567235, 0.0013600657, -857312.25, -718.04694, 0.0, 5.0183644, 4.960057 
5.694223e+2, 2.1755254e+2, -811471.0, -900934.8, -7451.895, 0.000006720221, -0.0014147285, -810854.5, -2869.4187, 0.0, 5.017564, 4.9597 
5.693974e+2, 2.2251134e+2, -768009.3, -860397.06, -7458.151, -0.000008153211, 0.0014105733, -767411.06, -8022.1353, 0.0, 5.016762, 4.957067 
5.693724e+2, 2.2746849e+2, -721466.75, -813170.44, -7444.216, -0.000010535851, -0.0013909553, -720866.4, -10057.494, 0.0, 5.015962, 4.9567294 
5.6934756e+2, 2.324243e+2, -677941.5, -772600.6, -7314.6035, -0.000009929664, 0.0014690314, -677379.6, -15137.688, 0.0, 5.0151567, 4.954078 
5.693227e+2, 2.3737846e+2, -631307.94, -725207.1, -7306.351, 0.000001430649, -0.0016377793, -630742.8, -17051.768, 0.0, 5.014349, 4.9537797 
5.69298e+2, 2.4233133e+2, -587770.4, -684713.3, -7020.47, -0.000018125686, 0.0017142937, -587264.56, -22111.537, 0.0, 5.013539, 4.9510674 
5.692736e+2, 2.4728252e+2, -540993.1, -637080.44, -6998.4736, -0.00003653718, -0.0016516653, -540486.1, -23854.773, 0.0, 5.012732, 4.9508295 
5.692494e+2, 2.5223234e+2, -497568.47, -596980.94, -6585.3955, -0.000002084704, 0.001684612, -497134.13, -29011.113, 0.0, 5.011924, 4.947948 
5.692255e+2, 2.5718054e+2, -450482.56, -548734.94, -6545.5713, 0.000004997158, -0.0016835815, -450048.4, -30417.623, 0.0, 5.011118, 4.9479012 
5.692018e+2, 2.6212728e+2, -407297.3, -509321.6, -6001.091, -0.000026737736, 0.001702282, -406945.53, -35793.04, 0.0, 5.0103116, 4.944743 
5.691786e+2, 2.6707244e+2, -359812.44, -460259.03, -5941.8105, -0.000059430433, -0.0015617347, -359462.16, -36772.223, 0.0, 5.0095086, 4.9449615 
5.6915575e+2, 2.7201608e+2, -316911.9, -421659.03, -5269.5054, 0.0000049803784, 0.001730978, -316647.5, -42405.063, 0.0, 5.008706, 4.941474 
5.691334e+2, 2.7695814e+2, -269026.06, -371769.34, -5183.7373, 0.000021848962, -0.0018728815, -268765.2, -42954.973, 0.0, 5.007907, 4.941961 
5.691115e+2, 2.818987e+2, -226286.97, -333715.78, -4379.843, -0.000048668888, 0.0022427605, -226108.7, -48715.92, 0.0, 5.0071077, 4.9382405 
5.690902e+2, 2.8683764e+2, -178074.88, -283166.44, -4263.1523, -0.00003795774, -0.0024255472, -177902.23, -48911.184, 0.0, 5.0063148, 4.938939 
5.690694e+2, 2.917747e+2, -136503.38, -248017.95, -3357.0667, -0.000014314586, 0.0018172029, -136402.4, -55794.25, 0.0, 5.0055213, 4.934145 
5.690493e+2, 2.967098e+2, -88141.414, -197207.02, -3189.7012, 0.00005883491, -0.00046934042, -88048.21, -55804.418, 0.0, 5.004731, 4.9349136 
5.690298e+2, 3.0165207e+2, -48610.08, -133879.89, -2275.754, -0.000009386322, 0.0021910777, -48549.383, -48549.383, 0.0, 5.003945, 4.949133 
5.690111e+2, 3.066019e+2, -49482.395, -131872.45, -2057.5574, -0.00012820512, -0.0050731786, -49431.043, -49431.043, 0.0, 5.0031643, 4.9501886 
5.689931e+2, 3.1156924e+2, -12625.133, -41760.844, -1013.78204, 0.00010742667, 0.0041642245, -12589.901, -12589.901, 0.0, 5.0023894, 4.9835 
5.6897634e+2, 3.165538e+2, -12873.398, -38370.883, -710.7265, -0.000022937344, -0.0009675184, -12853.604, -12853.604, 0.0, 5.0016184, 4.9850807 
5.7487714e+2, 1.23091675e+2, -1661880.0, -1736225.9, -192.78693, 0.000027681657, 0.0008454425, -1661879.5, 71822.086, 0.0, 5.0332947, 4.9846992 
5.748593e+2, 1.2807585e+2, -1616886.3, -1691593.1, -405.65738, 0.00015089395, -0.0029848039, -1616884.0, 67972.62, 0.0, 5.0325055, 4.983696 
5.748405e+2, 1.3305904e+2, -1573042.4, -1649321.4, -1664.4811, -0.00006750894, 0.003452152, -1573006.1, 63015.47, 0.0, 5.03171, 4.981826 
5.7482105e+2, 1.3804056e+2, -1527509.6, -1603598.4, -1838.6265, 0.00001895662, -0.0013621639, -1527465.3, 59737.26, 0.0, 5.0309095, 4.9811683 
5.7480067e+2, 1.430209e+2, -1483918.4, -1561899.0, -2905.736, 0.00009447237, 0.00030528673, -1483810.3, 54584.973, 0.0, 5.0301027, 4.97914 
5.7477975e+2, 1.4800017e+2, -1438182.8, -1515784.1, -3051.1602, 0.000051395797, -0.0008963035, -1438063.0, 51535.367, 0.0, 5.0292926, 4.9786024 
5.7475805e+2, 1.52978e+2, -1394645.1, -1474266.5, -3981.7166, -0.000021337723, 0.0012489991, -1394446.5, 46369.094, 0.0, 5.0284786, 4.97652 
5.747359e+2, 1.5795453e+2, -1348834.8, -1428033.5, -4086.718, 0.000038652284, -0.0012912573, -1348624.4, 43421.195, 0.0, 5.0276623, 4.9760056 
5.7471305e+2, 1.6292977e+2, -1305327.8, -1386649.0, -4888.6167, 0.000031591055, 0.0012431033, -1305034.9, 38253.29, 0.0, 5.026842, 4.973853 
5.7468987e+2, 1.6790366e+2, -1259398.6, -1340201.6, -4959.8687, 0.00003884758, -0.0011645082, -1259095.3, 35448.86, 0.0, 5.026019, 4.9733915 
5.7466614e+2, 1.7287625e+2, -1215919.3, -1298958.4, -5630.0547, 0.0000090800395, 0.0011129363, -1215539.3, 30273.512, 0.0, 5.025195, 4.9711633 
5.74642e+2, 1.7784746e+2, -1169904.3, -1252374.0, -5678.507, 0.000017255425, -0.0012107767, -1169515.1, 27579.785, 0.0, 5.024367, 4.9707294 
5.7461756e+2, 1.8281738e+2, -1126426.0, -1211219.6, -6212.3823, 0.0000279859, 0.0012401927, -1125973.3, 22416.379, 0.0, 5.0235386, 4.9684463 
5.745927e+2, 1.8778588e+2, -1080334.6, -1164526.8, -6244.993, 0.000032667693, -0.0013061997, -1079874.0, 19824.537, 0.0, 5.0227075, 4.968029 
5.745677e+2, 1.9275308e+2, -1036859.75, -1123465.8, -6640.42, -0.0000044075396, 0.0012952868, -1036353.56, 14666.187, 0.0, 5.021875, 4.965683 
5.745424e+2, 1.9771881e+2, -990676.94, -1076630.6, -6659.812, 0.000029913504, -0.0013257468, -990164.0, 12191.696, 0.0, 5.0210404, 4.9652934 
5.7451695e+2, 2.0268327e+2, -947197.6, -1035654.0, -6917.7837, 0.00000092678766, 0.0013047699, -946659.9, 7044.01, 0.0, 5.020204, 4.962893 
5.744913e+2, 2.076462e+2, -900940.4, -988726.25, -6928.404, 0.000031535303, -0.0013592266, -900396.94, 4670.1772, 0.0, 5.0193686, 4.9625134 
5.7446563e+2, 2.1260788e+2, -857446.4, -947832.4, -7041.6626, -0.000008794809, 0.0013583491, -856901.06, -458.3413, 0.0, 5.0185328, 4.9600506 
5.744399e+2, 2.17568e+2, -811087.3, -900772.25, -7048.1226, 0.00001559015, -0.001421286, -810536.8, -2703.0588, 0.0, 5.0177007, 4.959693 
5.7441413e+2, 2.2252677e+2, -767667.1, -860175.56, -7047.944, 0.000004063968, 0.0014015111, -767133.25, -7895.703, 0.0, 5.0168686, 4.9570947 
5.743883e+2, 2.2748396e+2, -721209.8, -812990.06, -7026.675, -0.0000033965687, -0.0014011421, -720675.0, -10017.751, 0.0, 5.0160394, 4.9567566 
5.7436264e+2, 2.3243979e+2, -677782.8, -772499.5, -6896.156, 0.0000007298891, 0.0014597655, -677283.3, -15193.213, 0.0, 5.0152063, 4.9540906 
5.7433695e+2, 2.3739396e+2, -631221.7, -725140.1, -6883.8765, 0.000009920896, -0.0016468801, -630719.8, -17180.627, 0.0, 5.014373, 4.9537916 
5.743115e+2, 2.4234684e+2, -587750.7, -684655.0, -6596.449, -0.000009455174, 0.0017006483, -587303.7, -22302.674, 0.0, 5.0135355, 4.9510894 
5.742863e+2, 2.4729805e+2, -541058.2, -637059.4, -6571.0693, -0.000030267496, -0.0016654794, -540610.5, -24131.352, 0.0, 5.012698, 4.9508514 
5.742612e+2, 2.522479e+2, -497706.47, -596969.4, -6153.0327, 0.0000060245065, 0.0016716558, -497326.5, -29355.877, 0.0, 5.0118594, 4.9479804 
5.7423645e+2, 2.571961e+2, -450703.66, -548757.5, -6111.2764, 0.000011431735, -0.0016961072, -450324.25, -30846.137, 0.0, 5.011023, 4.9479356 
5.74212e+2, 2.6214293e+2, -407592.9, -509355.63, -5559.949, -0.000020391528, 0.0016847644, -407290.03, -36290.53, 0.0, 5.0101857, 4.9447865 
5.74188e+2, 2.6708812e+2, -360190.03, -460325.13, -5499.7075, -0.00005347824, -0.0015748412, -359888.88, -37352.332, 0.0, 5.009352, 4.945007 
5.7416433e+2, 2.7203175e+2, -317363.7, -421734.75, -4819.885, 0.000011275943, 0.0017130473, -317141.6, -43052.992, 0.0, 5.0085187, 4.941529 
5.7414114e+2, 2.769739e+2, -269560.78, -371875.9, -4734.4443, 0.000034657667, -0.0018945384, -269342.16, -43686.313, 0.0, 5.007688, 4.9420185 
5.7411844e+2, 2.8191453e+2, -226902.89, -333838.63, -3922.8875, -0.000043054722, 0.0022239473, -226759.17, -49521.3, 0.0, 5.006856, 4.938306 
5.740963e+2, 2.8685352e+2, -178776.44, -283320.6, -3805.613, -0.00003308064, -0.0024385941, -178638.1, -49802.594, 0.0, 5.00603, 4.939007 
5.740747e+2, 2.917906e+2, -137264.4, -248132.69, -2892.4297, -0.0000067879273, 0.0017956302, -137188.98, -56737.11, 0.0, 5.0052023, 4.934241 
5.740538e+2, 2.9672587e+2, -88989.41, -197346.47, -2725.8425, 0.00007849866, -0.00049450644, -88920.875, -56834.305, 0.0, 5.004378, 4.935015 
5.7403344e+2, 3.0166823e+2, -49552.38, -134053.58, -1812.5864, -0.000011896122, 0.0021650007, -49513.516, -49513.516, 0.0, 5.003555, 4.9492364 
5.7401395e+2, 3.0661815e+2, -50520.832, -132086.97, -1599.3463, -0.0001077232, -0.0050966954, -50489.484, -50489.484, 0.0, 5.002739, 4.950293 
5.7399523e+2, 3.1158558e+2, -13760.871, -42034.563, -560.2589, 0.00012643692, 0.0041558333, -13749.773, -13749.773, 0.0, 5.0019293, 4.983596 
5.7397765e+2, 3.1657025e+2, -14104.685, -38699.633, -268.1487, 0.000034062203, -0.0010087877, -14101.762, -14101.762, 0.0, 5.0011253, 4.98517 
5.799104e+2, 1.23108886e+2, -1661990.1, -1736572.3, -550.2337, 0.000014289235, 0.0008471547, -1661986.0, 71546.875, 0.0, 5.033319, 4.9845743 
5.7989186e+2, 1.2809294e+2, -1617009.3, -1691949.9, -765.7889, 0.00016093369, -0.0029656969, -1617001.5, 67687.69, 0.0, 5.032526, 4.983569 
5.798722e+2, 1.33076e+2, -1573152.1, -1649630.6, -2029.4109, -0.00007703632, 0.0034654918, -1573098.3, 62756.97, 0.0, 5.0317264, 4.981717 
5.7985187e+2, 1.3805743e+2, -1527632.0, -1603915.5, -2208.6968, 0.000014756777, -0.0013569925, -1527568.1, 59469.2, 0.0, 5.0309215, 4.981058 
5.7983077e+2, 1.4303766e+2, -1484027.5, -1562170.8, -3277.7834, 0.00009556511, 0.00031575098, -1483890.3, 54340.727, 0.0, 5.0301104, 4.9790473 
5.7980895e+2, 1.4801683e+2, -1438304.1, -1516064.0, -3428.8777, 0.00004866588, -0.00088742195, -1438153.3, 51281.79, 0.0, 5.029297, 4.9785085 
5.797865e+2, 1.5299459e+2, -1394754.9, -1474505.1, -4361.2505, -0.000024369045, 0.0012621859, -1394517.1, 46136.043, 0.0, 5.0284786, 4.9764414 
5.797635e+2, 1.5797104e+2, -1348954.9, -1428277.9, -4471.938, 0.000035217006, -0.0012801946, -1348703.5, 43180.336, 0.0, 5.027659, 4.9759264 
5.7973987e+2, 1.629462e+2, -1305437.9, -1386857.1, -5276.823, 0.000027807288, 0.0012521854, -1305097.3, 38029.984, 0.0, 5.0268354, 4.973788 
5.7971585e+2, 1.6792001e+2, -1259516.3, -1340411.9, -5351.9824, 0.00004035391, -0.0011552346, -1259163.8, 35220.086, 0.0, 5.026009, 4.9733267 
5.796913e+2, 1.7289254e+2, -1216029.0, -1299139.1, -6026.1387, 0.0000010184805, 0.00112255, -1215594.3, 30058.688, 0.0, 5.0251822, 4.97111 
5.796663e+2, 1.778637e+2, -1170018.3, -1252552.4, -6078.1655, 0.00001132845, -0.0011958476, -1169573.0, 27362.57, 0.0, 5.0243516, 4.9706774 
5.79641e+2, 1.8283358e+2, -1126532.8, -1211371.0, -6615.66, 0.000028788061, 0.0012459025, -1126019.9, 22210.92, 0.0, 5.023521, 4.968405 
5.796154e+2, 1.8780203e+2, -1080444.9, -1164674.5, -6652.0674, 0.00003180604, -0.0013004441, -1079922.8, 19617.357, 0.0, 5.0226874, 4.9679894 
5.795895e+2, 1.9276921e+2, -1036962.06, -1123586.9, -7051.3853, -0.000012645551, 0.0013089341, -1036391.8, 14469.902, 0.0, 5.0218525, 4.965654 
5.795634e+2, 1.977349e+2, -990784.9, -1076755.4, -7075.971, 0.000025531372, -0.0013154711, -990206.3, 11991.605, 0.0, 5.021016, 4.965264 
5.7953703e+2, 2.0269933e+2, -947295.9, -1035749.44, -7337.7373, -0.0000014898175, 0.0013111335, -946691.3, 6855.111, 0.0, 5.020178, 4.962874 
5.795106e+2, 2.0766225e+2, -901044.0, -988825.4, -7352.218, 0.000024126872, -0.0013597673, -900432.44, 4477.3535, 0.0, 5.019341, 4.962494 
5.794841e+2, 2.1262392e+2, -857541.44, -947899.06, -7467.6216, -0.000013743843, 0.0013743257, -856928.44, -642.8813, 0.0, 5.018502, 4.9600434 
5.794575e+2, 2.1758401e+2, -811193.44, -900844.8, -7476.853, 0.0000072108137, -0.001415029, -810574.1, -2897.474, 0.0, 5.0176663, 4.9596853 
5.7943094e+2, 2.2254282e+2, -767732.3, -860149.7, -7480.0586, -0.0000004352171, 0.0014055803, -767130.8, -8050.4404, 0.0, 5.0168324, 4.957122 
5.794043e+2, 2.2750002e+2, -721275.56, -812965.4, -7462.518, -0.000013885399, -0.0013950431, -720672.2, -10172.378, 0.0, 5.016003, 4.9567833 
5.793778e+2, 2.3245586e+2, -677867.06, -772517.94, -7339.661, -0.0000051568527, 0.0014666758, -677301.3, -15368.799, 0.0, 5.0151706, 4.954102 
5.793513e+2, 2.3741005e+2, -631303.06, -725157.44, -7328.8433, 0.00000193252, -0.0016388146, -630734.25, -17352.777, 0.0, 5.014338, 4.953803 
5.7932496e+2, 2.4236295e+2, -587821.7, -684647.25, -7048.651, -0.000018916464, 0.0017062763, -587311.25, -22468.084, 0.0, 5.0135, 4.9511094 
5.792989e+2, 2.4731418e+2, -541133.8, -637052.06, -7025.8726, -0.000039441635, -0.0016623437, -540621.9, -24300.81, 0.0, 5.012661, 4.9508724 
5.79273e+2, 2.5226405e+2, -497774.0, -596935.5, -6610.017, -0.0000011727797, 0.0016776735, -497335.3, -29522.975, 0.0, 5.011821, 4.948011 
5.792474e+2, 2.572123e+2, -450771.8, -548720.06, -6572.428, -0.00000039358787, -0.0016877941, -450332.78, -31013.287, 0.0, 5.0109835, 4.947968 
5.7922214e+2, 2.621591e+2, -407653.47, -509293.84, -6022.198, -0.000029221472, 0.0016855365, -407297.9, -36457.363, 0.0, 5.0101447, 4.944828 
5.791973e+2, 2.6710436e+2, -360252.94, -460260.44, -5966.171, -0.000061066305, -0.0015701504, -359898.28, -37521.12, 0.0, 5.0093093, 4.9450502 
5.791728e+2, 2.720481e+2, -317419.47, -421644.44, -5286.4194, -0.0000026335736, 0.0017168387, -317152.03, -43223.277, 0.0, 5.008474, 4.9415817 
5.791488e+2, 2.7699026e+2, -269619.5, -371781.75, -5205.716, 0.000026511172, -0.0018938187, -269354.9, -43859.426, 0.0, 5.0076413, 4.9420733 
5.791252e+2, 2.8193095e+2, -226957.89, -333725.03, -4394.042, -0.00005730464, 0.0022266323, -226777.36, -49700.43, 0.0, 5.006807, 4.9383683 
5.791023e+2, 2.8687003e+2, -178833.81, -283203.1, -4279.3867, -0.00004685308, -0.002428833, -178658.64, -49984.73, 0.0, 5.0059795, 4.939072 
5.7907987e+2, 2.918072e+2, -137292.19, -247938.22, -3366.1584, -0.000017635954, 0.0017993905, -137189.88, -56900.324, 0.0, 5.0051503, 4.934334 
5.790582e+2, 2.9674253e+2, -89015.38, -197139.25, -3202.9922, 0.000078233774, -0.0005008119, -88920.58, -56997.29, 0.0, 5.0043244, 4.9351134 
5.79037e+2, 3.0168498e+2, -49582.67, -133846.5, -2286.0977, -0.00003494263, 0.0021620807, -49520.695, -49520.695, 0.0, 5.003499, 4.9493365 
5.790167e+2, 3.0663502e+2, -50555.402, -131881.0, -2076.5527, -0.00010557769, -0.005086283, -50502.414, -50502.414, 0.0, 5.0026813, 4.950393 
5.7899714e+2, 3.1160253e+2, -13813.451, -41861.965, -1024.447, 0.000099672725, 0.004167235, -13776.084, -13776.084, 0.0, 5.0018697, 4.983686 
5.789788e+2, 3.1658727e+2, -14185.759, -38554.65, -738.4766, -0.000008017224, -0.0010058926, -14163.4, -14163.4, 0.0, 5.001058, 4.9852533 
5.8494407e+2, 1.2312713e+2, -1659965.6, -1735835.3, -157.37076, 0.000024379526, 0.0008422643, -1659965.3, 73388.836, 0.0, 5.0340548, 4.9844556 
5.849247e+2, 1.2811106e+2, -1615100.1, -1691276.6, -375.61185, 0.00017402777, -0.00295699, -1615098.3, 69413.29, 0.0, 5.0332255, 4.983449 
5.8490425e+2, 1.3309401e+2, -1571322.3, -1648960.8, -1641.3276, -0.00008151229, 0.0034734996, -1571287.6, 64391.15, 0.0, 5.032392, 4.9816136 
5.848831e+2, 1.3807532e+2, -1525909.9, -1603303.5, -1823.9001, 0.000023968161, -0.001363079, -1525866.9, 60994.98, 0.0, 5.031553, 4.980954 
5.848611e+2, 1.4305545e+2, -1482384.5, -1561562.5, -2889.839, 0.000111832815, 0.0003140767, -1482279.3, 55777.387, 0.0, 5.030708, 4.9789596 
5.848385e+2, 1.4803454e+2, -1436763.3, -1515510.9, -3043.164, 0.000055427838, -0.0008879093, -1436645.8, 52615.773, 0.0, 5.0298615, 4.97842 
5.848152e+2, 1.530122e+2, -1393288.3, -1473956.4, -3971.498, -0.000016728307, 0.0012637648, -1393093.3, 47387.203, 0.0, 5.0290117, 4.976368 
5.8479136e+2, 1.5798858e+2, -1347585.9, -1427780.4, -4083.295, 0.000046260848, -0.0012819855, -1347378.5, 44333.547, 0.0, 5.0281606, 4.9758525 
5.847669e+2, 1.6296367e+2, -1304143.5, -1386368.0, -4883.7954, 0.00004060435, 0.0012480487, -1303854.5, 39101.625, 0.0, 5.0273056, 4.9737267 
5.84742e+2, 1.6793743e+2, -1258312.5, -1339967.5, -4957.5415, 0.000054680295, -0.0011561993, -1258012.6, 36200.7, 0.0, 5.0264497, 4.973266 
5.847166e+2, 1.729099e+2, -1214900.1, -1298707.6, -5627.314, 0.000008037012, 0.0011170481, -1214524.0, 30959.066, 0.0, 5.0255923, 4.97106 
5.846908e+2, 1.77881e+2, -1168976.4, -1252161.0, -5676.6104, 0.000024181189, -0.0011992456, -1168590.8, 28175.404, 0.0, 5.024732, 4.970629 
5.846647e+2, 1.8285082e+2, -1125565.1, -1210993.6, -6209.8257, 0.00004167806, 0.0012410397, -1125116.1, 22945.734, 0.0, 5.0238714, 4.968367 
5.846382e+2, 1.8781923e+2, -1079564.0, -1164339.1, -6244.3794, 0.000046209894, -0.0013072994, -1079106.6, 20265.02, 0.0, 5.0230083, 4.9679523 
5.846115e+2, 1.9278638e+2, -1036150.56, -1123261.6, -6638.4453, -0.0000025323482, 0.0013042944, -1035647.6, 15045.937, 0.0, 5.0221453, 4.965627 
5.845845e+2, 1.9775203e+2, -990059.3, -1076474.4, -6660.518, 0.000036116697, -0.0013222782, -989549.0, 12481.09, 0.0, 5.02128, 4.965236 
5.845573e+2, 2.0271644e+2, -946638.6, -1035477.4, -6915.863, 0.000013195808, 0.0013054071, -946103.5, 7275.316, 0.0, 5.0204134, 4.9628577 
5.8453e+2, 2.0767935e+2, -900474.1, -988598.1, -6926.1543, 0.000034642762, -0.0013699478, -899933.06, 4809.359, 0.0, 5.019547, 4.9624767 
5.8450264e+2, 2.1264099e+2, -857045.0, -947680.3, -7038.0615, 0.0000004059701, 0.001370178, -856501.75, -383.40137, 0.0, 5.0186777, 4.9600377 
5.8447516e+2, 2.1760108e+2, -810792.3, -900672.5, -7042.1577, 0.000016596185, -0.0014248664, -810243.9, -2734.3328, 0.0, 5.017809, 4.959679 
5.8444774e+2, 2.2255987e+2, -767372.06, -859921.7, -7034.343, 0.00001409524, 0.0013964091, -766840.44, -7927.262, 0.0, 5.0169454, 4.9571486 
5.8442026e+2, 2.275171e+2, -720993.8, -812775.6, -7012.47, -0.0000047471876, -0.001403914, -720461.1, -10128.733, 0.0, 5.0160894, 4.9568095 
5.843929e+2, 2.3247296e+2, -677672.94, -772390.5, -6886.2383, 0.0000073099454, 0.0014543646, -677174.9, -15409.899, 0.0, 5.0152307, 4.9541187 
5.8436555e+2, 2.3742716e+2, -631182.6, -725064.75, -6868.833, 0.000010341901, -0.0016503163, -630682.75, -17468.918, 0.0, 5.014373, 4.9538193 
5.8433837e+2, 2.4238007e+2, -587773.7, -684573.7, -6591.236, -0.000008878541, 0.0016952315, -587326.94, -22651.576, 0.0, 5.0135064, 4.951132 
5.843114e+2, 2.4733132e+2, -541173.56, -637017.2, -6564.2363, -0.000030351004, -0.0016760688, -540726.06, -24572.93, 0.0, 5.0126357, 4.950896 
5.842847e+2, 2.5228122e+2, -497890.16, -596914.8, -6140.958, 0.000008489111, 0.0016622713, -497510.78, -29866.623, 0.0, 5.0117645, 4.948043 
5.842583e+2, 2.572295e+2, -450969.38, -548733.2, -6101.3286, 0.000003658187, -0.00169922, -450590.06, -31439.041, 0.0, 5.010897, 4.9480014 
5.8423215e+2, 2.6217636e+2, -407924.66, -509319.34, -5545.2817, -0.000020799338, 0.0016667537, -407622.28, -36950.492, 0.0, 5.0100284, 4.94487 
5.842064e+2, 2.6712164e+2, -360606.4, -460319.28, -5488.1606, -0.000046026697, -0.0015890372, -360305.25, -38097.246, 0.0, 5.0091624, 4.9450936 
5.841811e+2, 2.720654e+2, -317847.3, -421712.72, -4801.616, 0.0000002155555, 0.0017003093, -317625.8, -43866.625, 0.0, 5.008296, 4.941635 
5.841563e+2, 2.770076e+2, -270130.66, -371881.06, -4721.0015, 0.000033751418, -0.0019132193, -269912.1, -44586.664, 0.0, 5.007432, 4.942129 
5.8413184e+2, 2.8194833e+2, -227551.23, -333841.1, -3902.5295, -0.000044999193, 0.0022012962, -227408.14, -50501.8, 0.0, 5.006564, 4.938432 
5.841081e+2, 2.8688747e+2, -179513.42, -283352.0, -3786.3003, -0.00003362989, -0.0024451592, -179375.55, -50872.824, 0.0, 5.005704, 4.9391375 
5.8408475e+2, 2.9182473e+2, -138029.69, -248043.16, -2867.254, -0.000010274501, 0.0017785316, -137955.02, -57837.375, 0.0, 5.0048404, 4.934429 
5.840623e+2, 2.9676017e+2, -89839.35, -197267.69, -2704.5847, 0.00008828789, -0.0005361903, -89771.305, -58020.86, 0.0, 5.0039797, 4.935215 
5.840402e+2, 3.017027e+2, -50505.72, -134014.47, -1792.1461, -0.000033966666, 0.0021296274, -50467.273, -50467.273, 0.0, 5.0031166, 4.9494386 
5.840191e+2, 3.0665284e+2, -51575.555, -132089.88, -1585.6921, -0.0000658482, -0.005097091, -51544.34, -51544.34, 0.0, 5.0022635, 4.950496 
5.839987e+2, 3.1162044e+2, -14936.65, -42134.05, -541.9819, 0.00009838311, 0.0041408725, -14925.8545, -14925.8545, 0.0, 5.0014153, 4.9837794 
5.839795e+2, 3.166053e+2, -15406.868, -38888.953, -267.7086, 0.000051157625, -0.0010410995, -15403.816, -15403.816, 0.0, 5.0005713, 4.9853373 
5.899781e+2, 1.2314597e+2, -1660077.4, -1736178.0, -529.0401, 0.00001707989, 0.00084363745, -1660073.6, 73095.94, 0.0, 5.034077, 4.984333 
5.899579e+2, 1.2812978e+2, -1615224.1, -1691629.0, -749.8868, 0.00017435123, -0.0029454923, -1615216.8, 69111.43, 0.0, 5.0332446, 4.9833245 
5.899366e+2, 1.331126e+2, -1571433.0, -1649265.3, -2019.3894, -0.00009738192, 0.0034931959, -1571380.6, 64115.96, 0.0, 5.0324063, 4.9815073 
5.899146e+2, 1.380938e+2, -1526033.3, -1603616.1, -2207.839, 0.000022383356, -0.0013613217, -1525970.4, 60710.375, 0.0, 5.031563, 4.980847 
5.898918e+2, 1.4307384e+2, -1482494.1, -1561829.1, -3273.8457, 0.000119335935, 0.00032128973, -1482359.3, 55517.17, 0.0, 5.0307145, 4.978869 
5.8986837e+2, 1.4805283e+2, -1436884.9, -1515785.6, -3432.837, 0.000049693404, -0.000877475, -1436735.9, 52346.453, 0.0, 5.0298643, 4.978328 
5.8984417e+2, 1.5303041e+2, -1393397.8, -1474189.0, -4362.2793, -0.00002261591, 0.0012754719, -1393162.9, 47139.207, 0.0, 5.029011, 4.976292 
5.8981943e+2, 1.580067e+2, -1347705.8, -1428019.9, -4480.3833, 0.00004295698, -0.0012725515, -1347456.5, 44077.816, 0.0, 5.028156, 4.9757757 
5.897941e+2, 1.6298172e+2, -1304253.1, -1386571.5, -5282.2725, 0.00003967231, 0.0012567261, -1303915.5, 38863.61, 0.0, 5.027298, 4.9736633 
5.8976835e+2, 1.6795541e+2, -1258429.8, -1340173.4, -5360.8154, 0.000053656422, -0.0011424427, -1258079.8, 35957.258, 0.0, 5.0264387, 4.973203 
5.897421e+2, 1.7292783e+2, -1215009.0, -1298882.9, -6033.506, 0.00000020402003, 0.001123971, -1214577.3, 30730.035, 0.0, 5.0255785, 4.971009 
5.897155e+2, 1.7789888e+2, -1169090.6, -1252335.9, -6087.1387, 0.000024237239, -0.0011915398, -1168647.9, 27943.041, 0.0, 5.024716, 4.970579 
5.896884e+2, 1.8286867e+2, -1125671.4, -1211141.1, -6623.087, 0.000036311754, 0.0012551349, -1125161.3, 22725.852, 0.0, 5.023853, 4.9683275 
5.8966106e+2, 1.8783702e+2, -1079675.0, -1164487.9, -6661.654, 0.00004403919, -0.001296939, -1079155.0, 20042.174, 0.0, 5.0229883, 4.9679127 
5.8963346e+2, 1.9280414e+2, -1036252.3, -1123381.8, -7058.566, -0.0000068303902, 0.0013134282, -1035684.2, 14835.29, 0.0, 5.022123, 4.965598 
5.896056e+2, 1.9776978e+2, -990164.6, -1076594.3, -7086.203, 0.000030508283, -0.0013165645, -989587.44, 12268.81, 0.0, 5.021256, 4.9652085 
5.895776e+2, 2.0273416e+2, -946735.44, -1035570.1, -7344.912, 0.0000112197895, 0.0013178199, -946132.25, 7072.9487, 0.0, 5.0203876, 4.96284 
5.895495e+2, 2.0769703e+2, -900577.9, -988696.5, -7359.519, 0.000027803613, -0.001360467, -899967.44, 4601.5835, 0.0, 5.019519, 4.9624577 
5.895212e+2, 2.1265866e+2, -857138.06, -947746.3, -7477.3574, -0.0000034869947, 0.0013763872, -856525.1, -580.0559, 0.0, 5.0186477, 4.9600306 
5.894929e+2, 2.1761875e+2, -810890.8, -900741.9, -7483.962, 0.0000072948205, -0.0014203966, -810271.7, -2935.3252, 0.0, 5.017777, 4.959672 
5.894646e+2, 2.2257756e+2, -767434.44, -859903.56, -7476.132, 0.000010943828, 0.001406462, -766833.9, -8093.9307, 0.0, 5.016912, 4.957172 
5.894363e+2, 2.275348e+2, -721061.3, -812760.8, -7464.4297, -0.000013264393, -0.0013948423, -720457.7, -10298.697, 0.0, 5.016054, 4.9568324 
5.8940804e+2, 2.3249067e+2, -677750.1, -772391.94, -7344.0796, 0.0000022709025, 0.0014568014, -677183.6, -15592.308, 0.0, 5.0151944, 4.9541364 
5.893799e+2, 2.374449e+2, -631261.7, -725067.56, -7322.754, 0.00000058695315, -0.0016464312, -630693.5, -17653.484, 0.0, 5.0143356, 4.953837 
5.8935183e+2, 2.4239781e+2, -587848.8, -684566.4, -7055.7007, -0.000014726531, 0.0017032583, -587336.8, -22835.426, 0.0, 5.013469, 4.951153 
5.89324e+2, 2.4734908e+2, -541247.06, -637007.56, -7032.9673, -0.000037080645, -0.0016716053, -540733.3, -24754.377, 0.0, 5.0125985, 4.9509172 
5.892964e+2, 2.52299e+2, -497954.16, -596881.8, -6611.8135, 0.0000014557746, 0.0016638685, -497514.22, -30044.498, 0.0, 5.0117273, 4.948073 
5.892691e+2, 2.5724733e+2, -451034.38, -548697.9, -6577.109, -0.000008647469, -0.0016919874, -450593.44, -31617.154, 0.0, 5.010859, 4.9480324 
5.892421e+2, 2.6219422e+2, -407982.3, -509260.53, -6024.146, -0.000028583028, 0.0016677906, -407625.25, -37128.547, 0.0, 5.009989, 4.9449096 
5.892155e+2, 2.6713952e+2, -360667.5, -460258.75, -5971.647, -0.000044460157, -0.0015911106, -360310.7, -38278.152, 0.0, 5.0091214, 4.9451346 
5.8918935e+2, 2.7208334e+2, -317901.72, -421626.4, -5286.586, -0.000016387878, 0.0017041311, -317632.97, -44049.676, 0.0, 5.008252, 4.941686 
5.8916366e+2, 2.770256e+2, -270187.63, -371790.47, -5211.264, 0.000017638718, -0.0019091669, -269921.06, -44772.055, 0.0, 5.007386, 4.9421825 
5.891384e+2, 2.819664e+2, -227604.28, -333730.97, -4395.093, -0.00005254621, 0.0021970542, -227422.56, -50693.207, 0.0, 5.0065165, 4.9384933 
5.891137e+2, 2.8690562e+2, -179569.83, -283240.2, -4280.94, -0.00003807098, -0.0024386754, -179393.34, -51068.23, 0.0, 5.0056543, 4.9392 
5.890896e+2, 2.9184294e+2, -138054.23, -247849.64, -3364.2163, -0.000025208456, 0.0017848895, -137951.25, -58011.95, 0.0, 5.00479, 4.9345217 
5.8906615e+2, 2.9677844e+2, -89861.62, -197060.48, -3205.35, 0.00007284343, -0.00054965937, -89765.86, -58194.684, 0.0, 5.003927, 4.9353127 
5.8904326e+2, 3.017211e+2, -50534.01, -133812.31, -2293.417, -0.00005304456, 0.0021202248, -50470.902, -50470.902, 0.0, 5.0030622, 4.9495363 
5.890213e+2, 3.0667132e+2, -51608.0, -131888.72, -2088.1746, -0.0000419192, -0.0050713136, -51553.72, -51553.72, 0.0, 5.0022073, 4.950594 
5.8900005e+2, 3.1163904e+2, -14988.225, -41969.68, -1033.7253, 0.000048248003, 0.004137803, -14948.678, -14948.678, 0.0, 5.001357, 4.983866 
5.8898e+2, 3.1662396e+2, -15489.3545, -38757.54, -765.8553, 0.000010794394, -0.0010412986, -15464.175, -15464.175, 0.0, 5.000506, 4.985415 
5.950125e+2, 1.23165876e+2, -1658011.4, -1735413.3, -117.87013, 0.000021186368, 0.0008363184, -1658011.1, 74963.27, 0.0, 5.0348263, 4.984217 
5.949914e+2, 1.2814957e+2, -1613274.3, -1690927.6, -340.70963, 0.00019631565, -0.0029435686, -1613272.8, 70861.47, 0.0, 5.0339565, 4.9832077 
5.949692e+2, 1.3313228e+2, -1569565.8, -1648568.6, -1610.1384, -0.00010001497, 0.0035022504, -1569532.9, 65770.84, 0.0, 5.0330834, 4.981407 
5.949464e+2, 1.3811338e+2, -1524275.4, -1602978.3, -1801.7292, 0.000025566718, -0.0013723793, -1524234.3, 62254.805, 0.0, 5.0322046, 4.980746 
5.949227e+2, 1.430933e+2, -1480816.0, -1561195.1, -2862.261, 0.00013824416, 0.00031366368, -1480714.3, 56971.387, 0.0, 5.0313225, 4.978785 
5.9489846e+2, 1.4807221e+2, -1435310.8, -1515208.0, -3022.9287, 0.000058503123, -0.0008787321, -1435196.5, 53695.824, 0.0, 5.030439, 4.978243 
5.9487337e+2, 1.530497e+2, -1391898.9, -1473615.6, -3946.4458, -0.000011335697, 0.001273521, -1391708.8, 48404.176, 0.0, 5.0295534, 4.976222 
5.948478e+2, 1.5802592e+2, -1346305.9, -1427499.9, -4065.401, 0.000052331, -0.0012782554, -1346102.9, 45243.09, 0.0, 5.0286665, 4.9757047 
5.948216e+2, 1.6300088e+2, -1302927.8, -1386059.3, -4860.63, 0.00005266693, 0.0012522684, -1302644.5, 39946.957, 0.0, 5.0277777, 4.9736056 
5.94795e+2, 1.679745e+2, -1257195.8, -1339707.3, -4938.0947, 0.00007056858, -0.0011455141, -1256901.3, 36948.645, 0.0, 5.0268884, 4.9731455 
5.947678e+2, 1.7294687e+2, -1213852.3, -1298430.3, -5605.011, 0.00000922893, 0.0011137255, -1213482.5, 31638.3, 0.0, 5.025997, 4.970962 
5.947403e+2, 1.7791787e+2, -1168021.6, -1251924.6, -5655.645, 0.00004337632, -0.0012001711, -1167642.1, 28762.854, 0.0, 5.0251045, 4.970534 
5.947124e+2, 1.828876e+2, -1124672.9, -1210743.3, -6185.86, 0.000045393244, 0.0012493833, -1124230.6, 23470.896, 0.0, 5.0242133, 4.9682918 
5.946842e+2, 1.8785591e+2, -1078762.1, -1164129.4, -6222.654, 0.000058041405, -0.0013036237, -1078311.0, 20701.066, 0.0, 5.0233192, 4.9678783 
5.946557e+2, 1.92823e+2, -1035416.75, -1123042.8, -6612.5195, 0.000009040272, 0.0013036748, -1034920.5, 15414.103, 0.0, 5.0224237, 4.9655724 
5.9462696e+2, 1.9778861e+2, -989412.56, -1076294.1, -6636.3867, 0.000041826686, -0.0013266896, -988908.56, 12763.205, 0.0, 5.0215282, 4.9651833 
5.9459805e+2, 2.0275296e+2, -946053.5, -1035280.44, -6888.5273, 0.000029013356, 0.0013100572, -945524.9, 7496.0835, 0.0, 5.020631, 4.962826 
5.94569e+2, 2.0771582e+2, -899983.9, -988452.25, -6898.524, 0.000038429724, -0.0013702938, -899449.2, 4935.791, 0.0, 5.0197325, 4.9624424 
5.945399e+2, 2.1267743e+2, -856610.8, -947509.5, -7012.579, 0.00001279535, 0.0013678059, -856073.0, -311.82037, 0.0, 5.018833, 4.9600263 
5.945107e+2, 2.176375e+2, -810453.06, -900549.44, -7012.911, 0.000020236217, -0.0014312658, -809910.44, -2757.8718, 0.0, 5.017932, 4.9596667 
5.9448147e+2, 2.2259632e+2, -767063.1, -859711.3, -6996.1973, 0.000023316186, 0.0013979458, -766537.8, -7981.5913, 0.0, 5.0170374, 4.9571805 
5.9445226e+2, 2.2755356e+2, -720775.2, -812609.4, -6990.1353, -0.000001815525, -0.0014041642, -720246.1, -10270.9795, 0.0, 5.0161505, 4.9568405 
5.944232e+2, 2.3250945e+2, -677505.56, -772191.1, -6863.3716, 0.000016978614, 0.0014449777, -677010.6, -15603.264, 0.0, 5.0152626, 4.9541745 
5.943941e+2, 2.374637e+2, -631097.7, -724905.25, -6824.956, 0.0000060977977, -0.0016573962, -630603.7, -17747.98, 0.0, 5.0143757, 4.953875 
5.9436524e+2, 2.4241664e+2, -587786.06, -684487.2, -6555.45, 0.0000009896087, 0.0016910275, -587343.7, -23026.777, 0.0, 5.0134807, 4.9511747 
5.943365e+2, 2.4736793e+2, -541263.1, -636964.56, -6529.7686, -0.000023461747, -0.0016842964, -540819.7, -25025.416, 0.0, 5.0125823, 4.950939 
5.94308e+2, 2.5231788e+2, -498040.94, -596853.4, -6103.7754, 0.000008237149, 0.0016479427, -497665.3, -30380.45, 0.0, 5.0116825, 4.9481025 
5.942798e+2, 2.572662e+2, -451202.88, -548704.25, -6068.1147, -0.0000026803928, -0.0017062271, -450826.7, -32035.49, 0.0, 5.0107846, 4.948063 
5.9425193e+2, 2.6221314e+2, -408223.06, -509275.56, -5511.1157, -0.00001810066, 0.0016529935, -407923.38, -37612.047, 0.0, 5.009884, 4.9449506 
5.942245e+2, 2.6715848e+2, -360991.56, -460307.53, -5457.066, -0.00002529814, -0.0016110973, -360692.63, -38845.81, 0.0, 5.0089855, 4.945177 
5.941974e+2, 2.7210233e+2, -318303.16, -421685.72, -4765.146, -0.000011842217, 0.0016848753, -318083.97, -44686.824, 0.0, 5.0080843, 4.941738 
5.941708e+2, 2.7704465e+2, -270672.53, -371882.28, -4689.1943, 0.000022824004, -0.0019257448, -270455.75, -45493.35, 0.0, 5.007187, 4.942237 
5.9414464e+2, 2.8198546e+2, -228169.67, -333838.66, -3867.8342, -0.000035928126, 0.0021694822, -228028.3, -51486.035, 0.0, 5.006284, 4.9385552 
5.9411913e+2, 2.8692475e+2, -180222.36, -283382.53, -3751.2456, -0.000016382912, -0.0024574713, -180086.13, -51948.695, 0.0, 5.0053897, 4.9392633 
5.940941e+2, 2.9186216e+2, -138764.2, -247943.39, -2830.2844, -0.000016869071, 0.001766597, -138690.88, -58939.957, 0.0, 5.0044904, 4.9346166 
5.9406984e+2, 2.9679775e+2, -90657.13, -197177.0, -2671.1045, 0.000068744455, -0.00058679644, -90590.195, -59208.316, 0.0, 5.0035934, 4.935414 
5.9404606e+2, 3.017405e+2, -51430.65, -133972.66, -1767.3564, -0.000049129492, 0.0020818925, -51392.824, -51392.824, 0.0, 5.002691, 4.949637 
5.940232e+2, 3.0669087e+2, -52602.406, -132090.4, -1562.3783, 0.000022077173, -0.0050697867, -52571.71, -52571.71, 0.0, 5.0018, 4.950695 
5.940011e+2, 3.1165862e+2, -16096.159, -42243.066, -522.36884, 0.000027912494, 0.0040989798, -16085.728, -16085.728, 0.0, 5.0009108, 4.983955 
5.9398025e+2, 3.1664363e+2, -16694.928, -39094.55, -265.1869, 0.00007665901, -0.0010808852, -16691.79, -16691.79, 0.0, 5.000027, 4.9854946 
6.000473e+2, 1.231864e+2, -1658123.3, -1735750.1, -503.25385, 0.0000025999543, 0.0008385103, -1658120.0, 74653.35, 0.0, 5.0348473, 4.9840975 
6.0002536e+2, 1.2816997e+2, -1613399.6, -1691273.9, -729.223, 0.00021022512, -0.0029338503, -1613392.8, 70541.54, 0.0, 5.033973, 4.9830866 
6.0000235e+2, 1.3315257e+2, -1569678.1, -1648867.5, -2001.0829, -0.00011368957, 0.0035231574, -1569627.6, 65477.305, 0.0, 5.033096, 4.9813037 
5.9997857e+2, 1.3813356e+2, -1524399.4, -1603284.1, -2198.8865, 0.000013720043, -0.0013719507, -1524338.1, 61953.08, 0.0, 5.032213, 4.980642 
5.99954e+2, 1.4311339e+2, -1480926.3, -1561455.6, -3258.2568, 0.00014747868, 0.00031679505, -1480794.6, 56694.113, 0.0, 5.0313272, 4.9786973 
5.9992886e+2, 1.4809221e+2, -1435432.9, -1515476.6, -3424.6191, 0.000052968175, -0.00086721824, -1435286.6, 53409.734, 0.0, 5.03044, 4.9781547 
5.999028e+2, 1.5306963e+2, -1392008.0, -1473841.1, -4347.848, -0.000013671365, 0.001285325, -1391777.6, 48140.1, 0.0, 5.0295506, 4.9761496 
5.998764e+2, 1.5804575e+2, -1346426.0, -1427733.9, -4473.56, 0.000046363206, -0.001271631, -1346180.5, 44970.96, 0.0, 5.028661, 4.9756308 
5.998493e+2, 1.6302064e+2, -1303036.4, -1386255.5, -5268.6816, 0.000049509912, 0.0012627624, -1302704.1, 39693.508, 0.0, 5.0277686, 4.9735456 
5.998218e+2, 1.6799422e+2, -1257312.5, -1339907.9, -5352.5396, 0.000070017835, -0.0011337681, -1256967.1, 36689.582, 0.0, 5.0268764, 4.9730854 
5.997938e+2, 1.7296652e+2, -1213960.1, -1298599.9, -6021.16, -0.00000044720477, 0.0011215853, -1213533.9, 31394.22, 0.0, 5.0259824, 4.9709134 
5.997653e+2, 1.7793746e+2, -1168134.6, -1252093.9, -6075.6826, 0.000046760015, -0.0011879624, -1167697.3, 28515.553, 0.0, 5.0250874, 4.970486 
5.997365e+2, 1.8290716e+2, -1124779.1, -1210888.4, -6608.5747, 0.000035478264, 0.0012610765, -1124274.9, 23234.904, 0.0, 5.0241942, 4.968253 
5.997074e+2, 1.8787545e+2, -1078870.5, -1164271.5, -6650.967, 0.000054562446, -0.0012921438, -1078355.6, 20465.092, 0.0, 5.0232983, 4.9678416 
5.9967804e+2, 1.928425e+2, -1035515.94, -1123157.5, -7042.7793, 0.000008430152, 0.0013135257, -1034953.56, 15190.02, 0.0, 5.022401, 4.9655457 
5.9964836e+2, 1.9780806e+2, -989515.8, -1076409.8, -7072.232, 0.000033350592, -0.0013138799, -988943.94, 12537.046, 0.0, 5.021504, 4.965157 
5.996186e+2, 2.0277241e+2, -946146.8, -1035366.94, -7327.9756, 0.000028302795, 0.0013206615, -945548.94, 7281.46, 0.0, 5.0206046, 4.96281 
5.9958863e+2, 2.0773524e+2, -900083.75, -988544.75, -7342.4204, 0.000027611019, -0.0013634136, -899478.44, 4716.1123, 0.0, 5.019705, 4.962425 
5.995586e+2, 2.1269685e+2, -856697.94, -947571.5, -7464.8057, 0.000010531537, 0.0013805683, -856088.8, -517.9228, 0.0, 5.0188046, 4.96002 
5.995285e+2, 2.176569e+2, -810540.3, -900613.1, -7469.2295, 0.000017527052, -0.0014231467, -809925.1, -2962.732, 0.0, 5.017904, 4.95966 
5.994984e+2, 2.226157e+2, -767145.25, -859750.2, -7449.603, 0.000013959474, 0.0014052507, -766549.8, -8183.7705, 0.0, 5.0170064, 4.957183 
5.994684e+2, 2.2757295e+2, -720872.56, -812655.5, -7447.968, -0.0000066742195, -0.0013984707, -720272.1, -10487.085, 0.0, 5.0161138, 4.956843 
5.9943837e+2, 2.3252887e+2, -677559.2, -772127.2, -7324.3374, 0.000014388571, 0.0014519531, -676995.3, -15778.288, 0.0, 5.015223, 4.9542165 
5.994084e+2, 2.3748317e+2, -631151.94, -724842.3, -7289.2896, -0.000008511816, -0.0016503114, -630588.2, -17923.23, 0.0, 5.0143366, 4.9539165 
5.993786e+2, 2.4243614e+2, -587864.6, -684486.0, -7033.1704, 0.00000023458489, 0.0016952528, -587355.4, -23229.543, 0.0, 5.013443, 4.9511943 
5.99349e+2, 2.4738745e+2, -541332.8, -636959.4, -7012.205, -0.00002541293, -0.0016776336, -540821.4, -25218.34, 0.0, 5.012548, 4.9509587 
5.9931964e+2, 2.523374e+2, -498100.03, -596825.9, -6590.7896, -0.0000020620269, 0.0016514587, -497662.0, -30568.592, 0.0, 5.011648, 4.948129 
5.9929055e+2, 2.5728577e+2, -451268.56, -548677.5, -6559.536, -0.000011651799, -0.001704581, -450828.84, -32229.361, 0.0, 5.0107474, 4.9480906 
5.9926176e+2, 2.6223272e+2, -408281.78, -509221.78, -6006.4253, -0.000024637322, 0.0016590708, -407925.63, -37806.33, 0.0, 5.009845, 4.9449887 
5.992334e+2, 2.6717812e+2, -361051.7, -460250.5, -5957.479, -0.000023505696, -0.001611121, -360695.2, -39040.78, 0.0, 5.008945, 4.9452167 
5.992054e+2, 2.72122e+2, -318355.22, -421602.22, -5268.7744, -0.000026288873, 0.0016858308, -318087.06, -44882.742, 0.0, 5.0080423, 4.941788 
5.991779e+2, 2.7706438e+2, -270727.94, -371796.94, -5197.7935, 0.0000052843707, -0.0019196605, -270461.34, -45692.293, 0.0, 5.007143, 4.942288 
5.991509e+2, 2.8200528e+2, -228220.48, -333733.53, -4381.181, -0.000043123207, 0.0021645462, -228038.88, -51690.484, 0.0, 5.0062385, 4.9386144 
5.991245e+2, 2.8694457e+2, -180277.11, -283276.88, -4266.8677, -0.000015789952, -0.0024540585, -180100.64, -52157.668, 0.0, 5.005342, 4.939323 
5.9909856e+2, 2.9188207e+2, -138785.06, -247750.94, -3351.2046, -0.000029679575, 0.0017742501, -138682.1, -59126.35, 0.0, 5.004441, 4.9347076 
5.9907335e+2, 2.9681778e+2, -90675.805, -196970.94, -3195.3738, 0.000037277183, -0.00060141284, -90579.836, -59394.06, 0.0, 5.0035424, 4.9355106 
5.9904873e+2, 3.017606e+2, -51457.082, -133776.11, -2296.2046, -0.00006552807, 0.002066291, -51393.082, -51393.082, 0.0, 5.002638, 4.949732 
5.9902495e+2, 3.0671105e+2, -52633.67, -131895.67, -2089.493, 0.00006770037, -0.005034706, -52578.63, -52578.63, 0.0, 5.0017457, 4.9507904 
5.9900194e+2, 3.1167892e+2, -16149.785, -42093.586, -1043.7671, -0.000046534842, 0.0040885564, -16107.86, -16107.86, 0.0, 5.000854, 4.984036 
5.9898025e+2, 3.1666398e+2, -16778.033, -38974.78, -788.8688, 0.000029674871, -0.0010744499, -16750.033, -16750.033, 0.0, 4.9999633, 4.985568 
6.0508245e+2, 1.2320807e+2, -1656018.8, -1734957.9, -73.607704, 0.000005529188, 0.0008301248, -1656018.6, 76542.34, 0.0, 5.0356073, 4.983985 
6.050596e+2, 1.2819152e+2, -1611412.8, -1690544.8, -301.17245, 0.00023767003, -0.0029331606, -1611411.6, 72311.51, 0.0, 5.034696, 4.982973 
6.050357e+2, 1.33174e+2, -1567776.3, -1648144.1, -1570.1641, -0.00012434971, 0.003533863, -1567745.6, 67149.23, 0.0, 5.033783, 4.9812074 
6.0501105e+2, 1.381549e+2, -1522608.1, -1602619.3, -1770.7632, 0.000013700121, -0.0013822102, -1522569.0, 63513.176, 0.0, 5.0328646, 4.980545 
6.049856e+2, 1.4313462e+2, -1479215.9, -1560796.3, -2822.6685, 0.00017912957, 0.0003051347, -1479118.4, 58162.3, 0.0, 5.0319443, 4.978617 
6.049595e+2, 1.4811336e+2, -1433827.6, -1514874.0, -2989.5984, 0.000058395923, -0.0008712386, -1433717.4, 54771.656, 0.0, 5.0310235, 4.978073 
6.049326e+2, 1.530907e+2, -1390477.9, -1473242.4, -3905.0493, -0.000006998027, 0.0012824053, -1390294.0, 49417.223, 0.0, 5.0301023, 4.9760838 
6.0490525e+2, 1.5806676e+2, -1344997.0, -1427190.8, -4031.4397, 0.000058521644, -0.0012794029, -1344799.8, 46145.957, 0.0, 5.02918, 4.975563 
6.0487723e+2, 1.6304158e+2, -1301682.0, -1385718.9, -4817.529, 0.000068179885, 0.001254799, -1301406.8, 40785.836, 0.0, 5.0282564, 4.9734917 
6.048488e+2, 1.680151e+2, -1256052.1, -1339421.1, -4900.5767, 0.00008663578, -0.001143531, -1255765.0, 37687.137, 0.0, 5.0273337, 4.9730306 
6.048199e+2, 1.7298734e+2, -1212773.5, -1298124.9, -5561.376, 0.000006006718, 0.0011130386, -1212412.6, 32311.533, 0.0, 5.0264096, 4.97087 
6.047905e+2, 1.7795824e+2, -1167033.1, -1251659.4, -5613.204, 0.000068633475, -0.0011940744, -1166662.4, 29346.889, 0.0, 5.025486, 4.9704437 
6.047608e+2, 1.8292789e+2, -1123757.5, -1210473.6, -6138.258, 0.000047658177, 0.0012466939, -1123325.1, 23981.535, 0.0, 5.024562, 4.9682198 
6.047308e+2, 1.8789612e+2, -1077934.0, -1163894.3, -6177.339, 0.00006794138, -0.0013037798, -1077492.4, 21125.654, 0.0, 5.0236363, 4.96781 
6.047005e+2, 1.9286314e+2, -1034651.1, -1122796.8, -6561.2393, 0.000026808784, 0.0013018994, -1034165.44, 15775.827, 0.0, 5.022711, 4.965523 
6.046699e+2, 1.9782868e+2, -988738.06, -1076091.6, -6588.265, 0.00004697589, -0.0013218917, -988244.0, 13034.946, 0.0, 5.021784, 4.965134 
6.0463923e+2, 2.02793e+2, -945437.6, -1035061.6, -6837.5366, 0.000044625664, 0.0013067407, -944919.0, 7709.5854, 0.0, 5.020857, 4.9627967 
6.046084e+2, 2.0775582e+2, -899460.44, -988283.3, -6847.629, 0.000038777474, -0.0013774238, -898935.6, 5057.3438, 0.0, 5.0199285, 4.962411 
6.045774e+2, 2.1271741e+2, -856143.25, -947323.9, -6964.649, 0.000028966051, 0.0013730105, -855614.4, -244.89154, 0.0, 5.0190005, 4.9600143 
6.0454637e+2, 2.1767744e+2, -810064.3, -900405.06, -6964.427, 0.000031272593, -0.001434022, -809530.56, -2769.4849, 0.0, 5.018073, 4.9596534 
6.045154e+2, 2.2263625e+2, -766743.5, -859554.25, -6939.1763, 0.000027363758, 0.00139397, -766227.5, -8062.709, 0.0, 5.017145, 4.9571867 
6.0448444e+2, 2.275935e+2, -720572.1, -812507.44, -6933.4946, 0.0000068598865, -0.0014107168, -720052.2, -10468.349, 0.0, 5.016217, 4.9568467 
6.044535e+2, 2.3254943e+2, -677289.2, -771892.4, -6794.074, 0.000031548512, 0.0014410838, -676803.75, -15788.113, 0.0, 5.015296, 4.954264 
6.044227e+2, 2.3750375e+2, -630961.4, -724645.7, -6751.471, -0.0000020219647, -0.0016611343, -630477.3, -18014.17, 0.0, 5.0143814, 4.9539638 
6.04392e+2, 2.4245676e+2, -587779.94, -684402.44, -6492.45, 0.000015440344, 0.0016836254, -587345.7, -23421.896, 0.0, 5.013464, 4.9512134 
6.043615e+2, 2.4740808e+2, -541312.2, -636905.75, -6468.9463, -0.000009409728, -0.0016889512, -540876.4, -25475.55, 0.0, 5.012546, 4.950978 
6.043312e+2, 2.5235805e+2, -498142.38, -596775.0, -6051.12, 0.0000065255595, 0.0016378828, -497772.5, -30881.451, 0.0, 5.0116186, 4.9481597 
6.0430115e+2, 2.5730643e+2, -451402.06, -548666.0, -6016.3633, -0.000006129928, -0.0017196077, -451031.34, -32634.445, 0.0, 5.010685, 4.948122 
6.042715e+2, 2.622534e+2, -408494.9, -509225.75, -5454.9165, -0.000011810955, 0.0016454867, -408200.38, -38283.934, 0.0, 5.00975, 4.945029 
6.042422e+2, 2.6719886e+2, -361345.9, -460287.97, -5403.607, 0.0000027439703, -0.0016308406, -361051.7, -39600.473, 0.0, 5.00882, 4.945258 
6.0421324e+2, 2.721428e+2, -318725.16, -421651.2, -4709.5513, -0.000020826748, 0.0016690184, -318510.13, -45509.383, 0.0, 5.007886, 4.9418387 
6.0418487e+2, 2.770852e+2, -271181.66, -371880.94, -4637.131, 0.000005343815, -0.0019322394, -270968.56, -46403.543, 0.0, 5.006956, 4.9423394 
6.041569e+2, 2.820261e+2, -228752.95, -333832.0, -3816.9014, -0.00002206505, 0.002139335, -228614.48, -52470.586, 0.0, 5.0060196, 4.938674 
6.041296e+2, 2.8696552e+2, -180897.72, -283411.16, -3699.7148, 0.000016857308, -0.002469748, -180764.38, -53026.426, 0.0, 5.0050898, 4.939384 
6.041028e+2, 2.9190305e+2, -139462.64, -247831.69, -2781.5125, -0.00001961004, 0.0017617907, -139391.3, -60041.254, 0.0, 5.0041533, 4.934802 
6.040767e+2, 2.9683888e+2, -91438.375, -197074.77, -2624.1619, 0.000019192643, -0.0006404331, -91373.23, -60394.05, 0.0, 5.003221, 4.935611 
6.040511e+2, 3.0178177e+2, -52320.78, -133927.08, -1736.8307, -0.000051061998, 0.0020296723, -52283.832, -52283.832, 0.0, 5.0022798, 4.94983 
6.0402644e+2, 3.0673233e+2, -53595.105, -132087.69, -1527.9237, 0.00014658723, -0.005016409, -53565.375, -53565.375, 0.0, 5.0013514, 4.950889 
6.040025e+2, 3.1170028e+2, -17236.066, -42369.19, -504.37164, -0.000081893, 0.0040444047, -17225.95, -17225.95, 0.0, 5.000418, 4.9841194 
6.039799e+2, 3.166854e+2, -17958.176, -39307.996, -255.99449, 0.00009949914, -0.0011092419, -17955.107, -17955.107, 0.0, 4.9994955, 4.985644 
6.1011803e+2, 1.2323037e+2, -1656132.6, -1735288.8, -472.9295, -0.000010306454, 0.0008231504, -1656129.9, 76212.555, 0.0, 5.035626, 4.983868 
6.100943e+2, 1.2821372e+2, -1611538.0, -1690882.8, -703.8883, 0.00025210058, -0.0029291317, -1611531.8, 71973.96, 0.0, 5.034711, 4.982856 
6.100694e+2, 1.3319607e+2, -1567890.0, -1648436.0, -1973.4731, -0.00014880567, 0.0035517246, -1567841.8, 66836.76, 0.0, 5.033793, 4.9811077 
6.100439e+2, 1.3817686e+2, -1522733.6, -1602917.4, -2180.6946, -0.00000007847321, -0.001383307, -1522674.4, 63192.434, 0.0, 5.032871, 4.980445 
6.100175e+2, 1.4315651e+2, -1479327.3, -1561049.4, -3230.527, 0.00020355482, 0.00030404865, -1479199.8, 57866.47, 0.0, 5.0319467, 4.9785333 
6.099904e+2, 1.4813516e+2, -1433950.1, -1515135.0, -3402.4739, 0.000049407146, -0.0008639761, -1433807.8, 54467.766, 0.0, 5.031022, 4.9779882 
6.0996264e+2, 1.5311241e+2, -1390586.9, -1473460.3, -4316.914, -0.000018783292, 0.0012934755, -1390362.5, 49135.86, 0.0, 5.030098, 4.9760146 
6.099344e+2, 1.5808842e+2, -1345117.1, -1427417.9, -4450.432, 0.000052773998, -0.0012708504, -1344877.1, 45856.496, 0.0, 5.0291724, 4.975492 
6.099055e+2, 1.6306315e+2, -1301788.9, -1385906.0, -5235.139, 0.00007043833, 0.0012638478, -1301464.4, 40516.69, 0.0, 5.028246, 4.973436 
6.0987604e+2, 1.6803661e+2, -1256168.1, -1339615.5, -5325.437, 0.00008394994, -0.0011374867, -1255829.6, 37411.582, 0.0, 5.027321, 4.9729733 
6.098462e+2, 1.730088e+2, -1212880.4, -1298288.5, -5986.079, -0.000006879186, 0.0011254749, -1212462.9, 32050.953, 0.0, 5.0263944, 4.9708242 
6.098159e+2, 1.7797966e+2, -1167144.6, -1251823.0, -6044.071, 0.00007046206, -0.0011789454, -1166715.5, 29083.926, 0.0, 5.0254683, 4.9703984 
6.0978526e+2, 1.8294926e+2, -1123861.3, -1210611.8, -6570.614, 0.00004058811, 0.001253229, -1123366.4, 23730.814, 0.0, 5.024542, 4.968184 
6.097543e+2, 1.8791747e+2, -1078038.9, -1164027.8, -6614.782, 0.000060481667, -0.0012892297, -1077533.0, 20875.861, 0.0, 5.023615, 4.967777 
6.097231e+2, 1.9288446e+2, -1034748.75, -1122908.4, -7001.273, 0.00002531435, 0.0013159958, -1034196.2, 15536.184, 0.0, 5.022688, 4.9654975 
6.096917e+2, 1.9784997e+2, -988839.7, -1076205.3, -7033.01, 0.00004320296, -0.0013054525, -988277.1, 12793.17, 0.0, 5.0217595, 4.965109 
6.0965997e+2, 2.0281427e+2, -945529.4, -1035148.44, -7285.8164, 0.00003837887, 0.0013165044, -944940.94, 7479.2188, 0.0, 5.0208316, 4.962781 
6.096282e+2, 2.0777707e+2, -899556.5, -988373.56, -7301.0093, 0.000032257132, -0.0013665223, -898960.3, 4824.416, 0.0, 5.0199018, 4.9623947 
6.095963e+2, 2.1273865e+2, -856231.25, -947391.1, -7422.5347, 0.000026678914, 0.0013887349, -855630.9, -469.52484, 0.0, 5.0189724, 4.960006 
6.0956436e+2, 2.1769866e+2, -810156.5, -900476.2, -7425.4106, 0.000022127047, -0.0014238252, -809550.1, -2997.0623, 0.0, 5.018044, 4.9596443 
6.095325e+2, 2.2265747e+2, -766827.4, -859597.8, -7406.0513, 0.000024747394, 0.0014045276, -766239.9, -8283.023, 0.0, 5.017114, 4.957188 
6.095005e+2, 2.2761472e+2, -720663.2, -812554.0, -7404.1714, 0.0000003666073, -0.0014024243, -720070.4, -10694.547, 0.0, 5.0161834, 4.956848 
6.094687e+2, 2.3257066e+2, -677329.4, -771817.25, -7264.6, 0.00002788524, 0.0014509418, -676774.1, -15966.682, 0.0, 5.01526, 4.9543085 
6.094369e+2, 2.3752505e+2, -631005.56, -724573.2, -7237.9023, -0.000012555167, -0.001652828, -630449.0, -18194.418, 0.0, 5.014344, 4.9540076 
6.0940534e+2, 2.4247807e+2, -587858.0, -684403.1, -6986.166, 0.000013662416, 0.0016910223, -587355.1, -23640.254, 0.0, 5.0134263, 4.951232 
6.093739e+2, 2.4742942e+2, -541389.5, -636906.3, -6956.7964, -0.000009229431, -0.001683417, -540885.44, -25693.688, 0.0, 5.012509, 4.9509964 
6.0934263e+2, 2.5237942e+2, -498207.13, -596747.6, -6550.219, -0.0000024261083, 0.0016444754, -497773.63, -31091.846, 0.0, 5.0115814, 4.948188 
6.0931176e+2, 2.5732782e+2, -451465.53, -548636.0, -6522.439, -0.000019162868, -0.0017137409, -451029.66, -32842.348, 0.0, 5.0106483, 4.948151 
6.092811e+2, 2.6227483e+2, -408549.56, -509173.22, -5964.3086, -0.000014741426, 0.0016525815, -408197.25, -38490.707, 0.0, 5.009712, 4.945066 
6.092509e+2, 2.6722032e+2, -361401.94, -460233.38, -5919.238, 0.000013292747, -0.0016313948, -361048.66, -39807.703, 0.0, 5.008782, 4.9452963 
6.0922104e+2, 2.721643e+2, -318773.44, -421571.66, -5231.486, -0.00003804156, 0.0016731466, -318507.88, -45717.813, 0.0, 5.007846, 4.9418864 
6.091918e+2, 2.7710676e+2, -271235.22, -371802.5, -5163.7734, -0.000019972096, -0.0019245134, -270970.78, -46616.89, 0.0, 5.0069137, 4.9423876 
6.0916287e+2, 2.8204772e+2, -228802.39, -333733.3, -4350.422, -0.000024031073, 0.0021346887, -228622.33, -52690.04, 0.0, 5.0059752, 4.9387302 
6.091346e+2, 2.8698716e+2, -180950.98, -283312.0, -4236.1533, 0.000027764727, -0.0024640393, -180775.97, -53250.2, 0.0, 5.005044, 4.939441 
6.091069e+2, 2.9192477e+2, -139479.19, -247640.73, -3326.185, -0.00003805655, 0.0017738966, -139376.98, -60239.832, 0.0, 5.004106, 4.934892 
6.0907984e+2, 2.9686067e+2, -91453.4, -196871.36, -3171.3674, -0.000027797621, -0.00066273264, -91358.08, -60592.688, 0.0, 5.003172, 4.935706 
6.0905325e+2, 3.0180368e+2, -52346.223, -133738.73, -2292.3262, -0.000057641115, 0.0020147294, -52281.715, -52281.715, 0.0, 5.0022287, 4.949922 
6.0902774e+2, 3.0675432e+2, -53626.016, -131901.27, -2079.5989, 0.00019696486, -0.0049666576, -53570.805, -53570.805, 0.0, 5.001298, 4.950981 
6.090029e+2, 3.1172234e+2, -17294.438, -42239.79, -1057.8804, -0.00016927093, 0.004022718, -17249.654, -17249.654, 0.0, 5.000363, 4.984193 
6.089793e+2, 3.1670755e+2, -18045.29, -39203.79, -805.6614, 0.000051056773, -0.0011016498, -18014.656, -18014.656, 0.0, 4.9994326, 4.9857116 
6.1515397e+2, 1.2325387e+2, -1653994.5, -1734469.0, -24.307055, -0.00000038097699, 0.0008117761, -1653994.5, 78117.67, 0.0, 5.036396, 4.98376 
6.151293e+2, 1.282371e+2, -1609515.0, -1690123.3, -257.29443, 0.00027480078, -0.0029297052, -1609514.1, 73762.375, 0.0, 5.035444, 4.9827476 
6.151035e+2, 1.3321936e+2, -1565955.1, -1647685.1, -1521.4874, -0.00015931083, 0.0035554878, -1565926.9, 68523.49, 0.0, 5.034489, 4.981016 
6.15077e+2, 1.3820004e+2, -1520913.1, -1602227.0, -1729.5404, -0.0000005227166, -0.0013979967, -1520876.4, 64763.31, 0.0, 5.0335298, 4.980353 
6.150496e+2, 1.431796e+2, -1477586.3, -1560363.1, -2770.3176, 0.00023816086, 0.00029021694, -1477493.6, 59346.36, 0.0, 5.0325723, 4.9784575 
6.1502165e+2, 1.4815818e+2, -1432315.0, -1514506.5, -2941.596, 0.000056143414, -0.0008717168, -1432209.8, 55840.223, 0.0, 5.0316143, 4.977911 
6.149929e+2, 1.5313534e+2, -1389028.5, -1472836.5, -3846.6775, -0.000012245353, 0.0012883802, -1388852.4, 50421.387, 0.0, 5.030657, 4.975953 
6.149637e+2, 1.5811127e+2, -1343661.6, -1426851.4, -3980.0325, 0.00006489878, -0.0012797029, -1343471.6, 47037.953, 0.0, 5.029699, 4.9754286 
6.1493385e+2, 1.6308595e+2, -1300406.8, -1385345.0, -4753.403, 0.00008878891, 0.0012519228, -1300141.5, 41616.137, 0.0, 5.028742, 4.9733863 
6.149035e+2, 1.6805933e+2, -1254880.1, -1339106.3, -4843.385, 0.00010008986, -0.0011508613, -1254602.5, 38415.87, 0.0, 5.027786, 4.972922 
6.148727e+2, 1.730315e+2, -1211667.9, -1297791.1, -5492.7007, 0.0000061408427, 0.0011152773, -1211319.0, 32972.5, 0.0, 5.026829, 4.9707847 
6.148415e+2, 1.780023e+2, -1166019.8, -1251369.5, -5548.0186, 0.000091974136, -0.0011905351, -1165660.6, 29916.926, 0.0, 5.0258737, 4.9703593 
6.1480993e+2, 1.8297186e+2, -1122812.4, -1210175.4, -6065.093, 0.000050735976, 0.0012367966, -1122393.4, 24482.375, 0.0, 5.0249176, 4.9681535 
6.1477804e+2, 1.8794003e+2, -1077074.8, -1163630.3, -6105.1045, 0.00007571227, -0.0013014914, -1076646.3, 21541.52, 0.0, 5.0239615, 4.967748 
6.1474586e+2, 1.9290698e+2, -1033858.06, -1122529.4, -6484.3486, 0.00004365264, 0.0013005559, -1033386.4, 16125.2, 0.0, 5.023006, 4.9654765 
6.1471343e+2, 1.9787246e+2, -988032.6, -1075866.4, -6512.097, 0.000058118356, -0.0013175419, -987552.44, 13297.373, 0.0, 5.0220494, 4.9650884 
6.146808e+2, 2.0283675e+2, -944791.06, -1034824.94, -6756.9326, 0.00005392531, 0.0012972493, -944286.75, 7913.113, 0.0, 5.021094, 4.962769 
6.146481e+2, 2.0779952e+2, -898902.44, -988092.94, -6767.335, 0.000046085945, -0.001380098, -898391.9, 5172.7646, 0.0, 5.020136, 4.9623814 
6.146153e+2, 2.1276107e+2, -855645.1, -947123.06, -6881.1777, 0.000045508947, 0.0013772738, -855130.44, -188.99629, 0.0, 5.019179, 4.9600024 
6.145824e+2, 2.177211e+2, -809654.56, -900249.94, -6877.8105, 0.00003531844, -0.0014382815, -809135.44, -2802.1301, 0.0, 5.018222, 4.95964 
6.145495e+2, 2.2267988e+2, -766396.7, -859383.75, -6854.732, 0.000041043822, 0.0013934138, -765894.06, -8156.9736, 0.0, 5.0172625, 4.957194 
6.145167e+2, 2.2763713e+2, -720323.0, -812383.75, -6846.909, 0.000014932083, -0.0014131911, -719816.56, -10660.397, 0.0, 5.0163007, 4.956853 
6.144839e+2, 2.3259309e+2, -677051.7, -771639.1, -6695.9487, 0.000041907973, 0.0014398022, -676580.0, -15992.324, 0.0, 5.015348, 4.95433 
6.144512e+2, 2.3754749e+2, -630810.7, -724434.8, -6681.7217, -0.000004051167, -0.0016650292, -630336.25, -18301.557, 0.0, 5.0144033, 4.9540286 
6.144186e+2, 2.4250053e+2, -587704.25, -684221.4, -6422.797, 0.00003230851, 0.001682176, -587278.75, -23784.006, 0.0, 5.0134583, 4.95128 
6.143863e+2, 2.4745192e+2, -541312.0, -636760.5, -6371.388, 0.000009768157, -0.0016957228, -540888.56, -25917.34, 0.0, 5.012514, 4.951044 
6.1435413e+2, 2.5240195e+2, -498232.16, -596691.94, -5962.02, 0.0000075382113, 0.0016305635, -497872.47, -31411.535, 0.0, 5.011559, 4.9482174 
6.1432225e+2, 2.573504e+2, -451570.16, -548616.8, -5933.2305, -0.000012907586, -0.0017238327, -451208.78, -33242.492, 0.0, 5.010597, 4.94818 
6.142907e+2, 2.6229742e+2, -408727.03, -509169.53, -5369.698, 0.00000027849998, 0.001641161, -408440.78, -38955.508, 0.0, 5.009632, 4.945102 
6.1425954e+2, 2.672429e+2, -361659.88, -460264.34, -5323.6187, 0.00004118959, -0.0016516637, -361373.28, -40353.88, 0.0, 5.0086718, 4.9453335 
6.142288e+2, 2.7218693e+2, -319104.94, -421607.75, -4634.0737, -0.000034372297, 0.001662672, -318895.88, -46327.703, 0.0, 5.0077047, 4.941935 
6.141985e+2, 2.771294e+2, -271652.38, -371875.44, -4563.549, -0.000018651956, -0.0019345572, -271445.03, -47313.44, 0.0, 5.006741, 4.942437 
6.1416864e+2, 2.8207046e+2, -229298.14, -333821.1, -3747.255, 0.0000030760837, 0.0021095232, -229163.98, -53454.42, 0.0, 5.00577, 4.9387875 
6.1413944e+2, 2.8700995e+2, -181535.06, -283436.16, -3630.401, 0.0000641758, -0.0024770328, -181405.89, -54103.363, 0.0, 5.004806, 4.9394994 
6.141107e+2, 2.9194763e+2, -140117.94, -247706.78, -2719.8398, -0.000030165846, 0.0017690435, -140049.23, -61135.97, 0.0, 5.0038333, 4.9349856 
6.140827e+2, 2.968836e+2, -92176.805, -196961.22, -2562.3394, -0.00004621037, -0.0006980855, -92114.18, -61573.55, 0.0, 5.0028653, 4.935805 
6.140553e+2, 3.0182672e+2, -53172.297, -133879.83, -1698.5289, -0.000036179692, 0.001982406, -53136.566, -53136.566, 0.0, 5.0018854, 4.950017 
6.1402875e+2, 3.0677745e+2, -54547.47, -132082.55, -1481.0934, 0.00026824637, -0.0049375673, -54519.188, -54519.188, 0.0, 5.0009203, 4.9510765 
6.1400294e+2, 3.1174555e+2, -18349.113, -42514.977, -490.34094, -0.0001982851, 0.003984395, -18339.168, -18339.168, 0.0, 4.9999413, 4.98427 
6.1397845e+2, 3.167308e+2, -19190.203, -39531.633, -238.14592, 0.000117824966, -0.0011270614, -19187.416, -19187.416, 0.0, 4.998981, 4.9857817 
6.201903e+2, 1.23278044e+2, -1654109.3, -1734792.3, -435.53815, -0.000013541469, 0.00080900604, -1654106.9, 77768.305, 0.0, 5.0364122, 4.983647 
6.201647e+2, 1.2826115e+2, -1609641.8, -1690451.3, -673.8511, 0.0002818209, -0.0029220611, -1609636.1, 73404.67, 0.0, 5.0354557, 4.982635 
6.201379e+2, 1.3324332e+2, -1566070.8, -1647967.9, -1937.8585, -0.00017912732, 0.0035693839, -1566025.0, 68190.59, 0.0, 5.034496, 4.980921 
6.2011045e+2, 1.3822389e+2, -1521039.6, -1602516.1, -2151.154, -0.000016538123, -0.0014016723, -1520982.9, 64423.0, 0.0, 5.033533, 4.980257 
6.2008214e+2, 1.4320336e+2, -1477698.5, -1560607.3, -3189.0964, 0.0002581245, 0.00029014412, -1477576.0, 59031.035, 0.0, 5.0325723, 4.9783783 
6.2005323e+2, 1.4818186e+2, -1432438.5, -1514758.6, -3365.4624, 0.000046502286, -0.00086515205, -1432301.1, 55516.82, 0.0, 5.0316105, 4.9778304 
6.200235e+2, 1.5315895e+2, -1389137.8, -1473045.3, -4268.704, -0.000021288692, 0.00129946, -1388921.1, 50121.188, 0.0, 5.0306506, 4.9758883 
6.199933e+2, 1.5813482e+2, -1343780.9, -1427069.4, -4409.021, 0.00006029178, -0.001271711, -1343548.1, 46730.754, 0.0, 5.02969, 4.975362 
6.1996245e+2, 1.6310944e+2, -1300512.6, -1385523.5, -5179.6167, 0.00008497564, 0.0012573913, -1300198.1, 41329.402, 0.0, 5.02873, 4.973334 
6.199312e+2, 1.6808277e+2, -1254995.0, -1339292.9, -5278.286, 0.000092106326, -0.0011421867, -1254665.8, 38123.1, 0.0, 5.0277715, 4.972868 
6.198994e+2, 1.7305487e+2, -1211771.5, -1297944.4, -5925.8447, -0.00000041332154, 0.0011294027, -1211365.9, 32696.5, 0.0, 5.026812, 4.9707427 
6.1986727e+2, 1.7802563e+2, -1166129.0, -1251526.1, -5988.7275, 0.00009060823, -0.0011780732, -1165711.1, 29637.78, 0.0, 5.0258555, 4.970317 
6.198347e+2, 1.8299517e+2, -1122913.4, -1210306.4, -6506.433, 0.000038531954, 0.001249529, -1122431.6, 24215.78, 0.0, 5.024897, 4.9681206 
6.198019e+2, 1.8796329e+2, -1077179.1, -1163761.1, -6552.0127, 0.000071531234, -0.0012863033, -1076686.1, 21273.639, 0.0, 5.0239396, 4.9677157 
6.1976874e+2, 1.929302e+2, -1033955.1, -1122638.3, -6933.1777, 0.000039610764, 0.0013154377, -1033416.4, 15867.556, 0.0, 5.0229826, 4.965452 
6.1973536e+2, 1.9789568e+2, -988131.3, -1075973.1, -6965.0557, 0.000051531188, -0.0012969854, -987582.44, 13039.946, 0.0, 5.0220246, 4.9650655 
6.1970186e+2, 2.0285994e+2, -944881.5, -1034909.7, -7213.3896, 0.000048922906, 0.001310628, -944307.25, 7665.4424, 0.0, 5.021068, 4.962754 
6.196681e+2, 2.078227e+2, -898996.4, -988180.9, -7229.266, 0.00003672847, -0.001361501, -898414.2, 4923.427, 0.0, 5.020109, 4.9623656 
6.1963433e+2, 2.1278425e+2, -855729.2, -947185.0, -7349.0996, 0.00004243494, 0.0013935489, -855142.44, -427.9353, 0.0, 5.019151, 4.959996 
6.1960053e+2, 2.1774425e+2, -809743.56, -900315.75, -7349.849, 0.000029710718, -0.0014253234, -809151.0, -3044.597, 0.0, 5.018193, 4.959633 
6.195667e+2, 2.2270304e+2, -766473.0, -859421.8, -7336.424, 0.000034334465, 0.0014098542, -765897.5, -8387.212, 0.0, 5.0172334, 4.957196 
6.195328e+2, 2.2766028e+2, -720396.9, -812422.2, -7334.534, 0.00001118247, -0.0013989335, -719816.0, -10886.64, 0.0, 5.0162725, 4.956855 
6.1949915e+2, 2.3261625e+2, -677120.5, -771651.44, -7177.6357, 0.000038112237, 0.0014495972, -676578.6, -16217.822, 0.0, 5.0153165, 4.954342 
6.1946553e+2, 2.3757064e+2, -630898.44, -724456.9, -7170.7007, -0.000014095386, -0.0016562748, -630352.06, -18544.354, 0.0, 5.0143657, 4.95404 
6.1943203e+2, 2.4252373e+2, -587747.7, -684129.1, -6915.182, 0.000029266675, 0.0016984185, -587254.06, -23986.664, 0.0, 5.0134177, 4.951333 
6.1939865e+2, 2.4747516e+2, -541355.7, -636668.7, -6868.5864, 0.000008570524, -0.0016853716, -540863.3, -26119.855, 0.0, 5.012473, 4.9510965 
6.193656e+2, 2.5242522e+2, -498305.1, -596676.0, -6476.708, 0.00000022560859, 0.0016384766, -497880.5, -31647.734, 0.0, 5.0115204, 4.948242 
6.193328e+2, 2.573737e+2, -451630.94, -548595.56, -6455.1895, -0.000022833745, -0.0017112255, -451203.1, -33465.22, 0.0, 5.010563, 4.948205 
6.1930025e+2, 2.6232073e+2, -408776.38, -509125.66, -5897.1997, -0.0000032180637, 0.0016500173, -408431.0, -39174.395, 0.0, 5.0095983, 4.945135 
6.192681e+2, 2.6726627e+2, -361717.7, -460223.03, -5855.696, 0.000050588143, -0.0016526756, -361370.8, -40580.37, 0.0, 5.008635, 4.945367 
6.1923635e+2, 2.7221033e+2, -319154.4, -421535.22, -5174.522, -0.000050685525, 0.0016759667, -318893.53, -46554.73, 0.0, 5.007665, 4.9419804 
6.192051e+2, 2.7715287e+2, -271705.53, -371803.6, -5108.2227, -0.00004160355, -0.0019226044, -271445.5, -47543.723, 0.0, 5.0067, 4.9424825 
6.191743e+2, 2.8209394e+2, -229345.58, -333729.66, -4300.4473, 0.00000044283763, 0.002108297, -229168.7, -53689.4, 0.0, 5.0057282, 4.9388404 
6.1914414e+2, 2.8703347e+2, -181585.78, -283344.34, -4187.7217, 0.000071466995, -0.0024710111, -181413.73, -54341.99, 0.0, 5.004762, 4.9395533 
6.191145e+2, 2.9197127e+2, -140130.39, -247518.9, -3287.6953, -0.00004965907, 0.0017829705, -140029.84, -61348.03, 0.0, 5.003788, 4.9350743 
6.190855e+2, 2.969073e+2, -92188.6, -196761.89, -3131.7463, -0.0000864798, -0.0007144599, -92094.9, -61786.605, 0.0, 5.002818, 4.935899 
6.1905706e+2, 3.0185053e+2, -53196.93, -133700.66, -2279.772, -0.00003766095, 0.0019677742, -53132.418, -53132.418, 0.0, 5.0018363, 4.950105 
6.190296e+2, 3.0680132e+2, -54578.74, -131906.14, -2056.5723, 0.0002958091, -0.004894721, -54524.082, -54524.082, 0.0, 5.0008683, 4.951165 
6.190028e+2, 3.1176952e+2, -18412.13, -42405.65, -1077.2233, -0.00027748136, 0.0039727166, -18363.865, -18363.865, 0.0, 4.999887, 4.984336 
6.1897737e+2, 3.1675485e+2, -19283.057, -39446.336, -813.2364, 0.000063794796, -0.001125921, -19250.31, -19250.31, 0.0, 4.998918, 4.9858427 
6.2522703e+2, 1.23303466e+2, -1651938.9, -1733945.6, 30.51976, -0.000012989892, 0.0007942711, -1651938.9, 79687.25, 0.0, 5.037191, 4.9835434 
6.2520045e+2, 1.2828647e+2, -1607589.6, -1689664.0, -208.8444, 0.0003068902, -0.0029178218, -1607589.1, 75203.59, 0.0, 5.0361958, 4.9825325 
6.251727e+2, 1.3326852e+2, -1564107.6, -1647189.5, -1464.3927, -0.00017680446, 0.0035747995, -1564081.9, 69886.6, 0.0, 5.035199, 4.9808345 
6.251443e+2, 1.3824901e+2, -1519190.6, -1601798.0, -1676.6537, -0.000021776781, -0.0014175946, -1519156.6, 66003.14, 0.0, 5.0341997, 4.9801702 
6.251149e+2, 1.432284e+2, -1475929.0, -1559894.3, -2704.0813, 0.00028971393, 0.00027238607, -1475842.0, 60519.695, 0.0, 5.0332055, 4.9783077 
6.25085e+2, 1.482068e+2, -1430777.1, -1514104.4, -2878.3364, 0.000053244767, -0.00087345776, -1430677.8, 56895.594, 0.0, 5.032209, 4.9777584 
6.250543e+2, 1.5318382e+2, -1387553.4, -1472395.8, -3769.9458, -0.000012032603, 0.001292623, -1387386.1, 51412.367, 0.0, 5.031216, 4.975832 
6.250232e+2, 1.5815963e+2, -1342299.6, -1426478.0, -3909.021, 0.00007634971, -0.0012855923, -1342118.5, 47917.188, 0.0, 5.030223, 4.975303 
6.249914e+2, 1.6313419e+2, -1299105.4, -1384938.6, -4665.8623, 0.00010087268, 0.0012438814, -1298852.5, 42432.445, 0.0, 5.029232, 4.973289 
6.249591e+2, 1.6810746e+2, -1253683.5, -1338761.5, -4763.989, 0.00010344765, -0.0011563126, -1253417.6, 39129.16, 0.0, 5.028243, 4.972821 
6.249263e+2, 1.7307952e+2, -1210535.1, -1297424.4, -5397.447, 0.000017866483, 0.0011163898, -1210201.1, 33619.703, 0.0, 5.027253, 4.9707074 
6.2489325e+2, 1.7805023e+2, -1164981.1, -1251052.5, -5458.0625, 0.000112649985, -0.0011909037, -1164636.4, 30471.293, 0.0, 5.026267, 4.970281 
6.248597e+2, 1.8301973e+2, -1121838.6, -1209848.5, -5963.8916, 0.000047654015, 0.001230959, -1121436.4, 24970.346, 0.0, 5.02528, 4.968094 
6.248259e+2, 1.8798782e+2, -1076187.4, -1163343.6, -6004.639, 0.000088123415, -0.0013037174, -1075775.6, 21943.822, 0.0, 5.024295, 4.9676895 
6.2479174e+2, 1.9295472e+2, -1033036.25, -1122238.9, -6376.6733, 0.00005855719, 0.0012970541, -1032582.75, 16461.092, 0.0, 5.023309, 4.965434 
6.2475747e+2, 1.9792014e+2, -987296.9, -1075615.5, -6404.4224, 0.0000668897, -0.0013097659, -986834.9, 13547.666, 0.0, 5.022323, 4.965047 
6.247229e+2, 2.0288439e+2, -944116.44, -1034568.1, -6644.1714, 0.00006614134, 0.0012889394, -943631.0, 8102.0117, 0.0, 5.0213394, 4.9627438 
6.246882e+2, 2.0784712e+2, -898314.0, -987882.44, -6654.7163, 0.000049625804, -0.0013769924, -897822.25, 5275.894, 0.0, 5.020353, 4.962354 
6.246535e+2, 2.1280865e+2, -855113.75, -946900.5, -6767.8687, 0.000059556245, 0.001377432, -854617.44, -142.21286, 0.0, 5.019368, 4.959993 
6.2461865e+2, 2.1776864e+2, -809211.75, -900072.8, -6763.7046, 0.000045918776, -0.001442072, -808711.0, -2843.7488, 0.0, 5.018381, 4.959629 
6.2458384e+2, 2.2272743e+2, -766007.8, -859196.2, -6744.9673, 0.000046678793, 0.0013982498, -765522.2, -8250.944, 0.0, 5.0173955, 4.957199 
6.245491e+2, 2.2768466e+2, -720005.6, -812233.6, -6740.576, 0.000026417492, -0.001412484, -719515.6, -10825.281, 0.0, 5.0164094, 4.956857 
6.245144e+2, 2.3264062e+2, -676803.8, -771476.9, -6577.1563, 0.00005620761, 0.0014367129, -676349.06, -16227.27, 0.0, 5.015423, 4.9543533 
6.244798e+2, 2.3759504e+2, -630686.6, -724332.2, -6569.0723, -0.0000027137694, -0.0016687196, -630228.06, -18659.387, 0.0, 5.0144353, 4.954051 
6.244453e+2, 2.4254814e+2, -587560.1, -683901.6, -6294.856, 0.000047303678, 0.0016889315, -587150.56, -24122.398, 0.0, 5.013456, 4.951394 
6.2441105e+2, 2.4749963e+2, -541247.25, -636478.9, -6240.5957, 0.000025643583, -0.0016966835, -540840.06, -26336.42, 0.0, 5.0124836, 4.9511576 
6.2437695e+2, 2.5244972e+2, -498309.06, -596617.1, -5845.9404, 0.000010312315, 0.0016275538, -497962.66, -31970.021, 0.0, 5.0115066, 4.9482684 
6.2434316e+2, 2.573982e+2, -451691.7, -548563.9, -5822.6426, -0.00001302245, -0.0017204856, -451342.97, -33845.387, 0.0, 5.010529, 4.9482307 
6.243097e+2, 2.623453e+2, -408897.97, -509094.53, -5269.9087, 0.000012852483, 0.001640029, -408621.56, -39605.457, 0.0, 5.0095377, 4.9451723 
6.242766e+2, 2.6729086e+2, -361932.47, -460233.4, -5223.55, 0.000080626334, -0.0016706011, -361655.7, -41106.04, 0.0, 5.0085406, 4.9454045 
6.2424386e+2, 2.7223492e+2, -319449.78, -421558.97, -4536.6826, -0.00004096508, 0.001668447, -319248.63, -47150.914, 0.0, 5.007538, 4.9420276 
6.242116e+2, 2.771775e+2, -272083.03, -371863.06, -4466.435, -0.000037690508, -0.001930809, -271883.5, -48223.19, 0.0, 5.0065427, 4.94253 
6.241799e+2, 2.8211862e+2, -229799.23, -333805.34, -3656.676, 0.00002962232, 0.002095131, -229670.83, -54433.42, 0.0, 5.00554, 4.938895 
6.241487e+2, 2.8705823e+2, -182127.48, -283457.2, -3542.272, 0.00010432747, -0.0024745474, -182003.8, -55174.41, 0.0, 5.0045414, 4.9396086 
6.2411803e+2, 2.9199603e+2, -140724.8, -247567.7, -2643.7444, -0.000039243296, 0.0017801394, -140659.42, -62220.58, 0.0, 5.003532, 4.935167 
6.2408805e+2, 2.969322e+2, -92868.18, -196836.16, -2484.0588, -0.00009500778, -0.0007307459, -92808.86, -62744.375, 0.0, 5.0025287, 4.9359956 
6.2405866e+2, 3.018755e+2, -53977.023, -133828.97, -1650.6906, -0.000012450276, 0.0019509967, -53942.918, -53942.918, 0.0, 5.0015116, 4.950197 
6.2403023e+2, 3.0682638e+2, -55455.008, -132075.78, -1421.114, 0.00034951724, -0.0048820167, -55428.66, -55428.66, 0.0, 5.000509, 4.9512568 
6.240024e+2, 3.117946e+2, -19425.395, -42679.453, -481.9271, -0.00028501143, 0.0039624507, -19415.412, -19415.412, 0.0, 4.999485, 4.9844055 
6.23976e+2, 3.1678e+2, -20382.748, -39769.03, -211.37456, 0.00012922575, -0.0011466297, -20380.443, -20380.443, 0.0, 4.998486, 4.985907 
6.302642e+2, 1.2332959e+2, -1652054.0, -1734257.9, -394.18704, -0.00003033221, 0.0007797856, -1652052.1, 79317.88, 0.0, 5.0372047, 4.9834356 
6.3023657e+2, 1.2831248e+2, -1607716.9, -1689979.6, -638.51135, 0.00031523325, -0.0029131903, -1607711.9, 74825.8, 0.0, 5.0362043, 4.9824257 
6.302078e+2, 1.3329445e+2, -1564225.4, -1647461.9, -1891.9642, -0.00018346909, 0.0035841647, -1564182.4, 69532.11, 0.0, 5.035203, 4.9807444 
6.3017833e+2, 1.3827485e+2, -1519319.1, -1602076.5, -2108.807, -0.000042795986, -0.001424633, -1519265.5, 65641.2, 0.0, 5.0341997, 4.9800797 
6.3014805e+2, 1.4325413e+2, -1476042.9, -1560128.0, -3133.8813, 0.00030550448, 0.00026658273, -1475926.3, 60183.242, 0.0, 5.033202, 4.9782333 
6.301171e+2, 1.4823247e+2, -1430901.5, -1514346.3, -3312.5393, 0.000041738476, -0.0008672289, -1430770.3, 56551.62, 0.0, 5.0322027, 4.977683 
6.3008547e+2, 1.5320943e+2, -1387662.8, -1472593.9, -4201.2173, -0.000020946214, 0.001303308, -1387455.5, 51092.24, 0.0, 5.031207, 4.975772 
6.300533e+2, 1.5818517e+2, -1342418.8, -1426686.1, -4347.255, 0.00007195685, -0.001280626, -1342195.1, 47590.336, 0.0, 5.030211, 4.975241 
6.300205e+2, 1.6315967e+2, -1299209.8, -1385106.3, -5100.1367, 0.000094548646, 0.0012541997, -1298907.9, 42127.38, 0.0, 5.029218, 4.9732413 
6.2998724e+2, 1.681329e+2, -1253796.1, -1338938.1, -5208.143, 0.0000899342, -0.0011479381, -1253478.6, 38818.953, 0.0, 5.0282273, 4.972771 
6.299535e+2, 1.7310488e+2, -1210636.0, -1297567.9, -5838.1436, 0.000013846444, 0.0011272904, -1210245.6, 33326.438, 0.0, 5.0272355, 4.9706693 
6.2991935e+2, 1.7807558e+2, -1165087.9, -1251200.6, -5907.2744, 0.00011117712, -0.001173683, -1164684.5, 30174.873, 0.0, 5.026248, 4.970242 
6.298849e+2, 1.8304503e+2, -1121937.0, -1209971.3, -6412.737, 0.000030544154, 0.0012431915, -1121472.3, 24686.44, 0.0, 5.025259, 4.9680643 
6.2985003e+2, 1.8801309e+2, -1076289.9, -1163468.0, -6459.9385, 0.00007974252, -0.0012871679, -1075813.9, 21657.926, 0.0, 5.024272, 4.96766 
6.298149e+2, 1.9297995e+2, -1033132.3, -1122344.3, -6834.316, 0.000055038578, 0.00131796, -1032611.75, 16184.687, 0.0, 5.0232854, 4.965411 
6.2977964e+2, 1.9794537e+2, -987393.0, -1075717.5, -6866.137, 0.00005822932, -0.0012848276, -986862.44, 13272.939, 0.0, 5.0222983, 4.9650254 
6.297441e+2, 2.0290959e+2, -944205.4, -1034651.7, -7110.7437, 0.000058389203, 0.0013022141, -943649.75, 7836.305, 0.0, 5.021314, 4.962729 
6.2970847e+2, 2.0787232e+2, -898404.56, -987965.9, -7125.651, 0.000041879943, -0.0013551568, -897841.2, 5010.175, 0.0, 5.0203266, 4.96234 
6.296727e+2, 2.1283384e+2, -855196.3, -946964.75, -7244.2124, 0.000054392258, 0.0014017922, -854628.0, -399.48013, 0.0, 5.0193415, 4.9599853 
6.2963694e+2, 2.177938e+2, -809296.8, -900139.2, -7245.0015, 0.000040992723, -0.0014230277, -808722.6, -3101.9734, 0.0, 5.0183535, 4.959621 
6.296011e+2, 2.2275259e+2, -766086.5, -859245.06, -7230.9966, 0.00003874339, 0.0014183944, -765528.56, -8503.856, 0.0, 5.017367, 4.957197 
6.2956536e+2, 2.2770981e+2, -720088.06, -812286.4, -7231.459, 0.000021414648, -0.0013962707, -719524.3, -11080.461, 0.0, 5.0163803, 4.9568543 
6.2952965e+2, 2.3266579e+2, -676879.25, -771505.1, -7073.1284, 0.000051051466, 0.0014566706, -676353.44, -16478.158, 0.0, 5.015392, 4.95436 
6.294941e+2, 2.3762019e+2, -630769.2, -724363.56, -7071.162, -0.000014159397, -0.0016510821, -630237.94, -18915.787, 0.0, 5.0144014, 4.9540577 
6.2945867e+2, 2.4257334e+2, -587585.06, -683793.44, -6796.2183, 0.000046138834, 0.0017052289, -587107.3, -24326.031, 0.0, 5.0134196, 4.9514503 
6.294234e+2, 2.4752487e+2, -541278.9, -636374.56, -6762.913, 0.000025170222, -0.0016819491, -540800.3, -26544.068, 0.0, 5.0124454, 4.9512134 
6.293884e+2, 2.52475e+2, -498382.4, -596603.5, -6377.7515, 0.0000013545443, 0.0016436506, -497970.0, -32225.13, 0.0, 5.011468, 4.9482927 
6.293536e+2, 2.5742352e+2, -451762.13, -548549.94, -6348.502, -0.000021386775, -0.0017067095, -451347.5, -34097.918, 0.0, 5.0104914, 4.9482546 
6.293191e+2, 2.6237065e+2, -408953.78, -509052.1, -5811.2285, 0.000007911948, 0.0016572657, -408617.53, -39849.715, 0.0, 5.0095005, 4.945206 
6.2928504e+2, 2.6731622e+2, -361987.13, -460190.25, -5772.265, 0.00008635661, -0.0016616659, -361649.0, -41347.93, 0.0, 5.0085044, 4.9454384 
6.292513e+2, 2.722603e+2, -319494.34, -421491.34, -5093.214, -0.000056570596, 0.0016843913, -319240.66, -47391.895, 0.0, 5.0075006, 4.94207 
6.292181e+2, 2.7720296e+2, -272131.34, -371796.3, -5027.9395, -0.000060864662, -0.0019230051, -271878.34, -48467.4, 0.0, 5.006504, 4.942573 
6.291853e+2, 2.821441e+2, -229843.97, -333721.53, -4228.859, 0.000030145, 0.0021001163, -229672.11, -54684.48, 0.0, 5.0055, 4.9389453 
6.2915313e+2, 2.8708377e+2, -182177.22, -283374.88, -4119.5566, 0.00010500566, -0.0024610101, -182009.8, -55430.668, 0.0, 5.0044994, 4.9396586 
6.291215e+2, 2.9202163e+2, -140733.22, -247383.5, -3234.276, -0.000058871883, 0.0017878782, -140635.22, -62447.277, 0.0, 5.0034885, 4.9352536 
6.290905e+2, 2.9695788e+2, -92877.08, -196642.89, -3074.9229, -0.00012739355, -0.00073454686, -92786.04, -62973.316, 0.0, 5.0024834, 4.936087 
6.2906003e+2, 3.0190125e+2, -54001.14, -133660.38, -2256.6616, -0.000017636696, 0.0019425984, -53937.266, -53937.266, 0.0, 5.001464, 4.950281 
6.2903064e+2, 3.0685222e+2, -55487.625, -131911.75, -2020.9238, 0.00035498716, -0.0048742006, -55434.223, -55434.223, 0.0, 5.0004582, 4.9513407 
6.290018e+2, 3.1182057e+2, -19494.998, -42595.016, -1100.5231, -0.00034395466, 0.003985662, -19442.686, -19442.686, 0.0, 4.9994316, 4.9844627 
6.2897444e+2, 3.16806e+2, -20482.555, -39703.32, -809.979, 0.000062021776, -0.0011496537, -20448.48, -20448.48, 0.0, 4.998423, 4.9859614 
6.353017e+2, 1.23357035e+2, -1649857.3, -1733382.1, 90.29042, -0.00001229351, 0.00076427584, -1649857.3, 81243.945, 0.0, 5.0379896, 4.9833384 
6.352731e+2, 1.2833981e+2, -1605638.6, -1689162.8, -155.13435, 0.00031508922, -0.002911667, -1605638.3, 76631.54, 0.0, 5.0369506, 4.98233 
6.352433e+2, 1.3332169e+2, -1562235.5, -1646656.3, -1397.8248, -0.00017226058, 0.00358079, -1562212.4, 71235.164, 0.0, 5.0359125, 4.9806643 
6.3521284e+2, 1.3830198e+2, -1517445.9, -1601331.6, -1610.4202, -0.00003738012, -0.0014399329, -1517415.0, 67225.664, 0.0, 5.034872, 4.9799995 
6.3518155e+2, 1.432812e+2, -1474248.8, -1559387.6, -2623.623, 0.00032922206, 0.000250345, -1474168.0, 61676.277, 0.0, 5.0338407, 4.978169 
6.3514954e+2, 1.4825946e+2, -1429215.8, -1513665.6, -2798.483, 0.000045661473, -0.0008781836, -1429123.1, 57934.188, 0.0, 5.0328064, 4.9776173 
6.351168e+2, 1.5323634e+2, -1386055.4, -1471919.0, -3673.2073, -0.00000969419, 0.0012939195, -1385898.5, 52385.33, 0.0, 5.0317783, 4.9757214 
6.350837e+2, 1.5821202e+2, -1340915.6, -1426070.3, -3816.6348, 0.0000872127, -0.001296208, -1340744.9, 48777.29, 0.0, 5.0307493, 4.975188 
6.350499e+2, 1.6318648e+2, -1297780.5, -1384497.4, -4553.001, 0.000111612775, 0.0012410913, -1297542.1, 43230.48, 0.0, 5.0297256, 4.973202 
6.350156e+2, 1.6815965e+2, -1252463.5, -1338384.4, -4660.092, 0.000099866906, -0.001165637, -1252211.4, 39823.957, 0.0, 5.028704, 4.972729 
6.3498086e+2, 1.731316e+2, -1209376.6, -1297025.4, -5272.99, 0.00003414375, 0.001109703, -1209060.5, 34249.76, 0.0, 5.0276823, 4.9706388 
6.3494575e+2, 1.7810225e+2, -1163917.1, -1250705.6, -5339.5605, 0.00013472908, -0.0011892313, -1163589.8, 31008.219, 0.0, 5.026666, 4.9702106 
6.349102e+2, 1.8307166e+2, -1120839.5, -1209493.3, -5830.862, 0.000037672024, 0.0012215563, -1120457.6, 25440.057, 0.0, 5.0256486, 4.968041 
6.348744e+2, 1.8803969e+2, -1075273.6, -1163029.9, -5873.004, 0.0000932939, -0.0013008125, -1074882.4, 22328.662, 0.0, 5.0246344, 4.967637 
6.348383e+2, 1.9300653e+2, -1032187.56, -1121926.4, -6235.9307, 0.00007765506, 0.001295562, -1031756.3, 16779.752, 0.0, 5.0236206, 4.965395 
6.348019e+2, 1.9797193e+2, -986527.9, -1075337.3, -6260.8823, 0.00007359879, -0.0013056762, -986088.7, 13786.556, 0.0, 5.0226064, 4.9650097 
6.3476545e+2, 2.0293611e+2, -943411.94, -1034294.0, -6498.442, 0.000069527385, 0.0012814661, -942949.6, 8276.485, 0.0, 5.021595, 4.962719 
6.3472885e+2, 2.0789883e+2, -897689.1, -987644.25, -6506.8555, 0.00005891484, -0.0013727328, -897220.9, 5370.7046, 0.0, 5.020581, 4.962331 
6.346921e+2, 2.1286032e+2, -854548.4, -946663.3, -6619.6987, 0.00007035388, 0.0013805466, -854075.06, -106.17494, 0.0, 5.0195694, 4.9599824 
6.346553e+2, 2.1782029e+2, -808726.25, -899875.9, -6615.0693, 0.000055154927, -0.001440434, -808248.7, -2887.478, 0.0, 5.0185556, 4.9596176 
6.3461846e+2, 2.2277905e+2, -765582.3, -858997.7, -6593.888, 0.000053161668, 0.0014056913, -765119.2, -8353.887, 0.0, 5.017543, 4.957201 
6.345817e+2, 2.2773626e+2, -719663.8, -812078.5, -6589.993, 0.000039684048, -0.0014179656, -719196.25, -11011.712, 0.0, 5.0165286, 4.9568577 
6.3454497e+2, 2.3269224e+2, -676526.25, -771312.6, -6426.9736, 0.00006579382, 0.0014469721, -676092.44, -16476.424, 0.0, 5.015511, 4.9543715 
6.345084e+2, 2.3764665e+2, -630506.4, -724214.1, -6420.711, -0.0000074735794, -0.0016597918, -630068.5, -19005.65, 0.0, 5.0144897, 4.954069 
6.34472e+2, 2.4259982e+2, -587385.25, -683634.4, -6134.2446, 0.000065737266, 0.0016903131, -586995.9, -24473.988, 0.0, 5.0134773, 4.9514785 
6.344357e+2, 2.4755137e+2, -541165.0, -636257.06, -6118.7397, 0.000050164123, -0.0016946006, -540772.9, -26776.223, 0.0, 5.012473, 4.951241 
6.343997e+2, 2.5250155e+2, -498305.03, -596428.8, -5724.4873, 0.0000107123715, 0.0016378812, -497972.2, -32487.25, 0.0, 5.011468, 4.948353 
6.343639e+2, 2.5745007e+2, -451756.78, -548410.06, -5669.511, -0.0000092488035, -0.0017243214, -451425.34, -34436.152, 0.0, 5.010466, 4.948314 
6.343284e+2, 2.6239726e+2, -409054.03, -509018.88, -5131.097, 0.000028859202, 0.0016508265, -408791.34, -40284.277, 0.0, 5.0094495, 4.94524 
6.342933e+2, 2.6734284e+2, -362163.84, -460193.28, -5090.963, 0.00010793671, -0.0016612628, -361900.16, -41860.086, 0.0, 5.0084257, 4.9454713 
6.342586e+2, 2.7228698e+2, -319742.38, -421503.03, -4410.718, -0.000045338078, 0.0016732782, -319551.56, -47964.07, 0.0, 5.0073924, 4.942113 
6.3422436e+2, 2.7722964e+2, -272462.63, -371845.78, -4342.703, -0.000049019305, -0.0019386609, -272273.22, -49123.844, 0.0, 5.006366, 4.9426155 
6.3419056e+2, 2.8217083e+2, -230249.52, -333780.9, -3544.6714, 0.000056824174, 0.0021033299, -230128.3, -55402.62, 0.0, 5.0053306, 4.9389973 
6.341575e+2, 2.8711054e+2, -182672.11, -283472.2, -3433.7104, 0.0001305831, -0.0024560562, -182555.28, -56238.508, 0.0, 5.0042973, 4.9397116 
6.3412476e+2, 2.9204845e+2, -141276.61, -247412.53, -2550.8706, -0.000043580243, 0.001782469, -141215.33, -63290.31, 0.0, 5.003252, 4.935345 
6.340927e+2, 2.969848e+2, -93505.25, -196699.66, -2387.5637, -0.00011692689, -0.00072695094, -93450.04, -63901.066, 0.0, 5.002214, 4.936182 
6.340613e+2, 3.0192825e+2, -54728.473, -133774.16, -1591.0485, 0.000007758786, 0.0019368341, -54696.46, -54696.46, 0.0, 5.0011606, 4.9503694 
6.340308e+2, 3.068793e+2, -56311.156, -132067.44, -1349.3636, 0.00037521787, -0.0048881858, -56287.13, -56287.13, 0.0, 5.00012, 4.951428 
6.340009e+2, 3.118477e+2, -20454.691, -42866.668, -477.3169, -0.00031740003, 0.0040403884, -20444.53, -20444.53, 0.0, 4.999054, 4.984523 
6.339725e+2, 3.1683317e+2, -21524.162, -40013.32, -174.72755, 0.00012068059, -0.0011832679, -21522.512, -21522.512, 0.0, 4.998016, 4.98602 
6.403396e+2, 1.233852e+2, -1649976.1, -1733684.6, -345.90613, -0.000012085824, 0.0007530977, -1649974.8, 80850.336, 0.0, 5.0379996, 4.9832354 
6.4030993e+2, 1.2836789e+2, -1605768.1, -1689466.4, -597.12933, 0.00029105294, -0.0029045222, -1605763.9, 76230.93, 0.0, 5.0369554, 4.9822288 
6.4027905e+2, 1.3334966e+2, -1562355.0, -1646916.8, -1837.3043, -0.00017365156, 0.0035862755, -1562315.1, 70858.305, 0.0, 5.0359125, 4.98058 
6.4024764e+2, 1.3832986e+2, -1517576.3, -1601597.9, -2052.2961, -0.00004609773, -0.0014453363, -1517526.1, 66841.2, 0.0, 5.0348682, 4.9799147 
6.402152e+2, 1.4330901e+2, -1474364.6, -1559609.0, -3062.8506, 0.00033330522, 0.0002476867, -1474254.8, 61317.055, 0.0, 5.0338335, 4.978101 
6.4018226e+2, 1.482872e+2, -1429341.6, -1513895.0, -3242.189, 0.0000312467, -0.0008727977, -1429217.4, 57568.094, 0.0, 5.032797, 4.9775476 
6.401485e+2, 1.5326402e+2, -1386165.6, -1472105.9, -4113.2744, -0.000016903106, 0.0013039168, -1385969.1, 52043.473, 0.0, 5.0317664, 4.975667 
6.401143e+2, 1.5823963e+2, -1341034.1, -1426266.3, -4263.386, 0.000080762, -0.0012914244, -1340821.4, 48430.2, 0.0, 5.0307355, 4.975131 
6.4007944e+2, 1.6321403e+2, -1297883.5, -1384653.3, -4994.684, 0.00010384996, 0.0012530708, -1297597.0, 42905.543, 0.0, 5.02971, 4.9731593 
6.400442e+2, 1.6818719e+2, -1252574.1, -1338550.0, -5112.228, 0.0000817664, -0.0011546015, -1252271.3, 39494.523, 0.0, 5.028687, 4.972684 
6.400084e+2, 1.7315908e+2, -1209474.9, -1297158.3, -5720.416, 0.000029065004, 0.001124055, -1209103.3, 33937.86, 0.0, 5.0276637, 4.970605 
6.3997227e+2, 1.7812969e+2, -1164021.1, -1250844.8, -5796.8027, 0.0001317338, -0.0011729057, -1163635.8, 30693.365, 0.0, 5.0266457, 4.970175 
6.3993573e+2, 1.8309906e+2, -1120935.0, -1209608.3, -6286.637, 0.000017462577, 0.0012363273, -1120491.6, 25137.592, 0.0, 5.025627, 4.9680142 
6.3989884e+2, 1.8806706e+2, -1075372.4, -1163145.6, -6336.0386, 0.00007954512, -0.0012720892, -1074917.4, 22025.396, 0.0, 5.024611, 4.9676104 
6.3986176e+2, 1.9303387e+2, -1032280.4, -1122024.9, -6701.46, 0.000076243574, 0.001309377, -1031782.7, 16485.287, 0.0, 5.023597, 4.965375 
6.398244e+2, 1.9799925e+2, -986622.75, -1075436.1, -6731.235, 0.00006711702, -0.0012872572, -986115.5, 13491.876, 0.0, 5.0225816, 4.96499 
6.397869e+2, 2.0296343e+2, -943500.94, -1034378.3, -6973.614, 0.000054059015, 0.0013156302, -942968.9, 7989.5684, 0.0, 5.0215693, 4.962704 
6.397492e+2, 2.0792612e+2, -897778.9, -987727.4, -6985.2056, 0.000051670337, -0.0013415972, -897239.6, 5084.458, 0.0, 5.0205545, 4.9623165 
6.397115e+2, 2.128876e+2, -854630.1, -946727.44, -7104.441, 0.00006271824, 0.0013980325, -854085.3, -383.7684, 0.0, 5.019543, 4.959975 
6.3967365e+2, 2.1784757e+2, -808811.75, -899944.56, -7104.4746, 0.000046773046, -0.0014150637, -808261.25, -3167.323, 0.0, 5.018528, 4.959609 
6.3963586e+2, 2.2280632e+2, -765660.0, -859045.7, -7089.4946, 0.000045519657, 0.0014391856, -765124.8, -8626.773, 0.0, 5.017514, 4.9572 
6.395981e+2, 2.2776353e+2, -719744.7, -812129.3, -7091.9775, 0.000036332676, -0.0014030142, -719203.44, -11286.118, 0.0, 5.016499, 4.956856 
6.3956034e+2, 2.3271951e+2, -676594.8, -771338.94, -6938.812, 0.00005871941, 0.0014757564, -676089.3, -16740.5, 0.0, 5.0154824, 4.954378 
6.395228e+2, 2.3767392e+2, -630570.9, -724239.2, -6941.3164, -0.00002053545, -0.0016313716, -630059.25, -19263.67, 0.0, 5.0144625, 4.9540753 
6.394853e+2, 2.4262708e+2, -587445.2, -683634.7, -6648.789, 0.00006443019, 0.001708144, -586987.75, -24733.207, 0.0, 5.0134473, 4.9514947 
6.3944805e+2, 2.4757867e+2, -541244.9, -636268.1, -6643.467, 0.000051909436, -0.0016757863, -540782.6, -27053.412, 0.0, 5.012436, 4.9512563 
6.3941103e+2, 2.5252888e+2, -498332.13, -596305.44, -6254.0527, -0.0000074783966, 0.001669605, -497934.53, -32717.432, 0.0, 5.0114274, 4.9484167 
6.3937426e+2, 2.574775e+2, -451785.94, -548288.75, -6208.149, -0.000019106008, -0.0017145354, -451388.2, -34667.465, 0.0, 5.010425, 4.948377 
6.393378e+2, 2.6242468e+2, -409122.0, -508995.03, -5692.3394, 0.000030900697, 0.0016732416, -408798.63, -40560.47, 0.0, 5.0094104, 4.945268 
6.3930166e+2, 2.673703e+2, -362220.03, -460165.63, -5656.88, 0.000102025326, -0.0016284399, -361894.4, -42123.5, 0.0, 5.0083914, 4.945499 
6.392659e+2, 2.723145e+2, -319784.2, -421447.03, -4987.1064, -0.000056281217, 0.0016787418, -319540.13, -48222.094, 0.0, 5.007359, 4.9421506 
6.392306e+2, 2.7725717e+2, -272514.94, -371795.97, -4921.64, -0.0000575966, -0.0019399149, -272271.53, -49391.957, 0.0, 5.0063286, 4.942652 
6.391958e+2, 2.8219843e+2, -230296.06, -333707.94, -4135.2114, 0.000044485314, 0.002134223, -230130.97, -55675.492, 0.0, 5.005291, 4.9390435 
6.3916165e+2, 2.8713816e+2, -182719.69, -283397.94, -4030.8254, 0.0001161935, -0.0024407755, -182558.56, -56512.43, 0.0, 5.004257, 4.9397583 
6.3912785e+2, 2.9207614e+2, -141280.56, -247233.36, -3162.6887, -0.000058109832, 0.0017788055, -141186.25, -63532.457, 0.0, 5.003211, 4.9354296 
6.390948e+2, 2.9701257e+2, -93511.69, -196514.17, -2999.6777, -0.00012521606, -0.0007077087, -93424.4, -64147.516, 0.0, 5.0021706, 4.93627 
6.3906235e+2, 3.019561e+2, -54752.84, -133617.97, -2220.2, -0.000001412229, 0.0019322184, -54690.387, -54690.387, 0.0, 5.001115, 4.9504485 
6.390308e+2, 3.0690724e+2, -56345.703, -131918.05, -1973.4265, 0.00033033683, -0.004934573, -56294.207, -56294.207, 0.0, 5.000071, 4.951506 
6.389999e+2, 3.118757e+2, -20535.635, -42815.836, -1125.3347, -0.0003349527, 0.0041084327, -20478.94, -20478.94, 0.0, 4.9990015, 4.984568 
6.3897043e+2, 3.168612e+2, -21636.363, -39972.293, -798.5976, 0.00004064043, -0.0012098658, -21601.648, -21601.648, 0.0, 4.9979515, 4.9860663 
6.4537793e+2, 1.2341474e+2, -1647755.5, -1732781.3, 154.27673, 0.0000013483849, 0.00073395413, -1647755.3, 82780.33, 0.0, 5.0387893, 4.983145 
6.453472e+2, 1.2839733e+2, -1603667.6, -1688621.3, -94.57479, 0.00028513925, -0.002897454, -1603667.5, 78038.734, 0.0, 5.037706, 4.9821405 
6.4531523e+2, 1.3337901e+2, -1560342.4, -1646082.6, -1322.6859, -0.0001445556, 0.0035870764, -1560322.0, 72563.734, 0.0, 5.036627, 4.980507 
6.452827e+2, 1.3835913e+2, -1515680.6, -1600825.1, -1530.4553, -0.000040427167, -0.0014654322, -1515653.1, 68427.35, 0.0, 5.0355444, 4.9798417 
6.4524925e+2, 1.4333819e+2, -1472549.8, -1558842.0, -2526.653, 0.00034200444, 0.00022884802, -1472475.9, 62809.844, 0.0, 5.0344763, 4.9780436 
6.452152e+2, 1.4831631e+2, -1427636.3, -1513188.0, -2700.399, 0.000040775096, -0.0008857662, -1427551.0, 58949.04, 0.0, 5.0334044, 4.9774885 
6.451804e+2, 1.5329307e+2, -1384539.0, -1471406.3, -3554.663, 0.0000026104321, 0.0012951521, -1384393.9, 53333.98, 0.0, 5.032341, 4.9756227 
6.451452e+2, 1.5826865e+2, -1339510.8, -1425625.0, -3700.4146, 0.00009470605, -0.0013116938, -1339352.1, 49615.23, 0.0, 5.0312777, 4.9750843 
6.451093e+2, 1.63243e+2, -1296435.5, -1384021.1, -4412.824, 0.000115963216, 0.0012355333, -1296213.6, 44005.03, 0.0, 5.030221, 4.9731255 
6.45073e+2, 1.6821608e+2, -1251223.5, -1337973.5, -4528.3247, 0.00009110004, -0.0011704785, -1250987.8, 40494.664, 0.0, 5.029167, 4.9726477 
6.4503616e+2, 1.7318794e+2, -1208195.4, -1296593.9, -5116.224, 0.000053244632, 0.0011037944, -1207900.3, 34857.902, 0.0, 5.0281153, 4.970579 
6.4499897e+2, 1.7815852e+2, -1162829.0, -1250328.6, -5189.9775, 0.0001482981, -0.0011899896, -1162522.3, 31524.293, 0.0, 5.0270696, 4.970147 
6.4496136e+2, 1.8312787e+2, -1119816.3, -1209110.1, -5662.4087, 0.000026694026, 0.0012141052, -1119458.6, 25888.299, 0.0, 5.0260224, 4.9679947 
6.449235e+2, 1.8809584e+2, -1074333.4, -1162688.0, -5705.7773, 0.00009371753, -0.0012876027, -1073966.4, 22694.416, 0.0, 5.02498, 4.967591 
6.4488536e+2, 1.9306262e+2, -1031311.0, -1121588.3, -6058.7417, 0.00009347289, 0.0012837693, -1030906.2, 17080.137, 0.0, 5.023939, 4.965361 
6.4484704e+2, 1.9802797e+2, -985729.4, -1075036.1, -6080.7773, 0.00008903094, -0.0013119659, -985317.25, 14008.716, 0.0, 5.022898, 4.9649763 
6.448085e+2, 2.0299213e+2, -942674.94, -1034000.7, -6314.6455, 0.00006194511, 0.0012980282, -942240.4, 8436.85, 0.0, 5.021861, 4.9626956 
6.447698e+2, 2.079548e+2, -897025.06, -987380.25, -6320.4517, 0.00006535798, -0.0013615001, -896585.06, 5458.0044, 0.0, 5.020821, 4.9623103 
6.4473104e+2, 2.1291625e+2, -853948.75, -946410.56, -6432.548, 0.00008033587, 0.001372597, -853503.44, -82.77319, 0.0, 5.0197835, 4.959971 
6.446921e+2, 2.1787621e+2, -808204.0, -899661.5, -6427.879, 0.00006097409, -0.0014383299, -807754.44, -2941.2913, 0.0, 5.018743, 4.9596057 
6.446533e+2, 2.2283496e+2, -765118.9, -858780.4, -6407.343, 0.000058209193, 0.0014243522, -764682.56, -8465.1455, 0.0, 5.0177035, 4.9572034 
6.446145e+2, 2.2779216e+2, -719283.5, -811904.6, -6406.5293, 0.00005013121, -0.0014256886, -718842.5, -11205.702, 0.0, 5.016661, 4.956858 
6.445757e+2, 2.3274814e+2, -676198.44, -771133.8, -6248.3496, 0.00007218293, 0.001464192, -675788.94, -16720.645, 0.0, 5.0156193, 4.9543853 
6.445371e+2, 2.3770253e+2, -630244.6, -724068.25, -6250.6353, -0.000005290337, -0.0016510393, -629830.0, -19314.883, 0.0, 5.014575, 4.9540825 
6.4449865e+2, 2.426557e+2, -587194.7, -683479.94, -5951.9893, 0.00008275808, 0.0016965424, -586828.1, -24854.047, 0.0, 5.013529, 4.9515104 
6.444604e+2, 2.4760728e+2, -541102.5, -636164.8, -5947.4326, 0.00007399107, -0.0016875529, -540731.8, -27283.115, 0.0, 5.01248, 4.9512715 
6.444223e+2, 2.5255752e+2, -498216.38, -596098.56, -5538.8877, 0.0000019846498, 0.0016583839, -497903.97, -32967.664, 0.0, 5.011439, 4.9484825 
6.443845e+2, 2.575062e+2, -451749.75, -548121.0, -5489.9067, -0.000006916415, -0.0017307951, -451438.03, -34998.61, 0.0, 5.010409, 4.9484425 
6.44347e+2, 2.6245344e+2, -409188.53, -508937.7, -4973.221, 0.000056665198, 0.0016701336, -408941.2, -40984.773, 0.0, 5.0093703, 4.945305 
6.443099e+2, 2.6739907e+2, -362341.06, -460136.03, -4930.574, 0.000114005015, -0.0016221899, -362093.13, -42604.188, 0.0, 5.008332, 4.9455347 
6.44273e+2, 2.7234328e+2, -319969.7, -421428.97, -4269.322, -0.00003831089, 0.0016661206, -319790.34, -48754.535, 0.0, 5.007273, 4.9421935 
6.4423674e+2, 2.7728602e+2, -272794.0, -371821.94, -4197.5005, -0.000023154018, -0.0019578268, -272616.4, -50019.348, 0.0, 5.00621, 4.9426947 
6.4420086e+2, 2.822273e+2, -230654.95, -333754.44, -3407.166, 0.00006559528, 0.0021502154, -230542.47, -56369.875, 0.0, 5.005141, 4.9390917 
6.4416564e+2, 2.8716704e+2, -183162.22, -283478.44, -3302.7368, 0.00012223353, -0.002431445, -183053.6, -57290.703, 0.0, 5.0040755, 4.939808 
6.441309e+2, 2.921051e+2, -141765.23, -247239.44, -2439.7498, -0.000035617988, 0.0017792652, -141708.83, -64338.82, 0.0, 5.002997, 4.935519 
6.4409673e+2, 2.970416e+2, -94081.84, -196549.52, -2272.8743, -0.00008636261, -0.0006750424, -94031.45, -65039.14, 0.0, 5.001924, 4.936363 
6.440632e+2, 3.019852e+2, -55420.098, -133713.61, -1516.6366, 0.000019399797, 0.0019440383, -55390.73, -55390.73, 0.0, 5.0008354, 4.9505324 
6.4403063e+2, 3.069364e+2, -57106.438, -132057.92, -1265.7444, 0.00030787822, -0.004969852, -57085.07, -57085.07, 0.0, 4.9997582, 4.9515886 
6.439986e+2, 3.1190494e+2, -21427.982, -43082.066, -470.9562, -0.0002571939, 0.0041971668, -21417.744, -21417.744, 0.0, 4.998654, 4.9846168 
6.439681e+2, 3.1689048e+2, -22607.076, -40267.723, -133.53897, 0.0000965888, -0.0012130756, -22606.066, -22606.066, 0.0, 4.997574, 4.986117 
6.504166e+2, 1.2344506e+2, -1647873.5, -1733066.6, -294.7289, -0.0000053902754, 0.00072133285, -1647872.5, 82366.08, 0.0, 5.0387955, 4.9830503 
6.503848e+2, 1.2842754e+2, -1603800.1, -1688910.0, -547.1662, 0.00026472256, -0.0028898055, -1603796.6, 77613.53, 0.0, 5.037706, 4.982047 
6.503518e+2, 1.3340913e+2, -1560465.8, -1646330.0, -1772.6606, -0.00012489031, 0.0035954802, -1560429.1, 72161.35, 0.0, 5.036622, 4.980429 
6.503181e+2, 1.3838917e+2, -1515813.5, -1601077.8, -1981.3193, -0.000055385728, -0.0014776435, -1515767.5, 68018.64, 0.0, 5.035537, 4.9797635 
6.5028363e+2, 1.4336817e+2, -1472667.6, -1559050.0, -2974.4204, 0.00032571744, 0.00022350502, -1472565.4, 62426.625, 0.0, 5.034465, 4.9779816 
6.502485e+2, 1.4834622e+2, -1427763.5, -1513403.8, -3152.898, 0.000027660282, -0.00087965885, -1427647.6, 58559.46, 0.0, 5.0333905, 4.9774256 
6.5021265e+2, 1.5332292e+2, -1384650.4, -1471580.1, -4002.449, 0.0000017171462, 0.001312923, -1384466.5, 52968.824, 0.0, 5.0323253, 4.975574 
6.5017635e+2, 1.5829843e+2, -1339628.8, -1425806.8, -4154.7065, 0.00008398871, -0.0013053078, -1339428.9, 49246.45, 0.0, 5.0312605, 4.9750338 
6.501394e+2, 1.6327274e+2, -1296537.6, -1384165.5, -4861.565, 0.000099929595, 0.0012460443, -1296268.8, 43658.418, 0.0, 5.030203, 4.973088 
6.50102e+2, 1.6824579e+2, -1251331.1, -1338125.6, -4987.4644, 0.00007304451, -0.0011542374, -1251045.5, 40145.75, 0.0, 5.029148, 4.9726076 
6.500642e+2, 1.7321762e+2, -1208291.0, -1296715.8, -5569.394, 0.000050960723, 0.0011167926, -1207941.6, 34525.82, 0.0, 5.0280952, 4.9705496 
6.500259e+2, 1.7818816e+2, -1162929.9, -1250457.4, -5654.548, 0.0001335361, -0.0011695968, -1162566.0, 31190.045, 0.0, 5.027048, 4.9701157 
6.499872e+2, 1.8315747e+2, -1119908.8, -1209215.9, -6124.2036, 0.000011244322, 0.001232857, -1119490.8, 25565.998, 0.0, 5.026, 4.9679713 
6.4994836e+2, 1.8812543e+2, -1074430.1, -1162797.3, -6175.575, 0.000082710605, -0.001263101, -1074000.6, 22370.275, 0.0, 5.024956, 4.967567 
6.499092e+2, 1.9309218e+2, -1031401.56, -1121681.6, -6530.8906, 0.000079011515, 0.0013089651, -1030931.56, 16765.08, 0.0, 5.023915, 4.9653425 
6.4986974e+2, 1.9805752e+2, -985821.56, -1075129.4, -6557.9893, 0.000084292675, -0.0012849608, -985342.56, 13693.893, 0.0, 5.022873, 4.9649587 
6.498302e+2, 2.0302163e+2, -942763.4, -1034084.06, -6797.289, 0.000042327345, 0.0013270887, -942260.25, 8127.6885, 0.0, 5.021836, 4.9626813 
6.4979047e+2, 2.079843e+2, -897115.06, -987464.5, -6806.7217, 0.000054760734, -0.00133192, -896605.1, 5148.7373, 0.0, 5.020795, 4.9622955 
6.497506e+2, 2.1294576e+2, -854030.6, -946475.8, -6926.173, 0.00007512948, 0.001406469, -853514.56, -382.98666, 0.0, 5.019757, 4.9599633 
6.497108e+2, 2.179057e+2, -808289.4, -899731.7, -6926.4985, 0.000051736184, -0.0014078132, -807767.7, -3243.4883, 0.0, 5.018716, 4.9595966 
6.4967084e+2, 2.2286443e+2, -765196.1, -858833.94, -6912.1504, 0.00004808019, 0.0014599244, -764688.7, -8760.115, 0.0, 5.0176764, 4.9572 
6.4963096e+2, 2.2782163e+2, -719362.25, -811961.4, -6918.3433, 0.000041560616, -0.00139769, -718848.25, -11500.253, 0.0, 5.016634, 4.956854 
6.4959127e+2, 2.3277761e+2, -676271.1, -771176.2, -6765.411, 0.00006481226, 0.001501515, -675791.3, -17011.76, 0.0, 5.015591, 4.9543858 
6.495515e+2, 2.37732e+2, -630318.9, -724112.06, -6775.934, -0.000011568313, -0.0016298275, -629831.9, -19605.484, 0.0, 5.0145464, 4.9540825 
6.4951205e+2, 2.4268518e+2, -587259.94, -683500.44, -6484.682, 0.00006909659, 0.0017351918, -586825.0, -25139.686, 0.0, 5.0134997, 4.951519 
6.494727e+2, 2.4763675e+2, -541172.0, -636187.44, -6489.7905, 0.00007079539, -0.0016545033, -540730.8, -27570.941, 0.0, 5.0124493, 4.95128 
6.494336e+2, 2.5258705e+2, -498231.63, -595984.1, -6080.414, -0.000006850897, 0.0016817674, -497854.88, -33207.75, 0.0, 5.011405, 4.94854 
6.4939475e+2, 2.5753573e+2, -451778.63, -548015.94, -6053.6816, -0.000017394612, -0.0017108559, -451399.3, -35249.617, 0.0, 5.0103707, 4.9484987 
6.4935625e+2, 2.6248303e+2, -409248.38, -508895.34, -5549.8467, 0.000056085348, 0.0017005223, -408940.22, -41273.96, 0.0, 5.0093307, 4.94534 
6.4931804e+2, 2.6742876e+2, -362400.63, -460096.94, -5500.566, 0.0000953411, -0.0015886539, -362091.9, -42893.46, 0.0, 5.008293, 4.945568 
6.4928013e+2, 2.7237296e+2, -320020.47, -421379.63, -4861.8345, -0.000049724433, 0.0016822601, -319787.8, -49042.81, 0.0, 5.0072365, 4.94223 
6.492428e+2, 2.7731574e+2, -272841.13, -371773.72, -4796.245, -0.00002096959, -0.0019555585, -272609.13, -50303.195, 0.0, 5.0061746, 4.94273 
6.4920586e+2, 2.8225702e+2, -230695.83, -333691.3, -4015.588, 0.000045295277, 0.0021804632, -230539.5, -56658.418, 0.0, 5.0051055, 4.9391327 
6.491696e+2, 2.8719684e+2, -183208.27, -283414.63, -3918.3884, 0.00008913886, -0.0024155015, -183055.28, -57584.29, 0.0, 5.004038, 4.9398503 
6.4913374e+2, 2.9213494e+2, -141767.84, -247067.95, -3071.6277, -0.000042584365, 0.0017811758, -141678.33, -64600.773, 0.0, 5.0029573, 4.935601 
6.490986e+2, 2.9707155e+2, -94087.06, -196373.03, -2905.242, -0.00006963409, -0.0006586038, -94004.61, -65305.57, 0.0, 5.0018826, 4.9364476 
6.490639e+2, 3.020152e+2, -55445.33, -133571.4, -2166.4888, -0.0000002560718, 0.0019351488, -55385.297, -55385.297, 0.0, 5.000791, 4.9506063 
6.4903027e+2, 3.0696645e+2, -57143.39, -131925.67, -1912.1859, 0.00021623165, -0.0050212587, -57094.527, -57094.527, 0.0, 4.9997106, 4.95166 
6.489972e+2, 3.1193507e+2, -21518.883, -43063.555, -1143.5037, -0.00023482245, 0.0042760824, -21458.36, -21458.36, 0.0, 4.9986024, 4.98465 
6.489656e+2, 3.1692064e+2, -22733.69, -40256.344, -783.9508, -0.00000024170373, -0.0012195249, -22698.686, -22698.686, 0.0, 4.9975085, 4.986153 
6.5545577e+2, 1.2347678e+2, -1645633.9, -1732133.0, 221.91763, 0.0000097982775, 0.0007029885, -1645633.4, 84294.15, 0.0, 5.039588, 4.9829683 
6.554228e+2, 1.2845919e+2, -1601684.8, -1688037.1, -26.102604, 0.00024582038, -0.0028880332, -1601684.8, 79415.22, 0.0, 5.0384574, 4.981967 
6.5538865e+2, 1.3344069e+2, -1558435.9, -1645468.6, -1237.2366, -0.0000798628, 0.0036012693, -1558418.3, 73862.984, 0.0, 5.0373387, 4.9803643 
6.553539e+2, 1.3842066e+2, -1513900.1, -1600276.8, -1435.5565, -0.000044452205, -0.0014993345, -1513876.3, 69601.33, 0.0, 5.0362153, 4.9796987 
6.553183e+2, 1.4339958e+2, -1470836.5, -1558257.0, -2411.8152, 0.0003235676, 0.00020396689, -1470770.0, 63914.043, 0.0, 5.0351095, 4.977932 
6.552821e+2, 1.4837758e+2, -1426042.6, -1512670.9, -2582.2576, 0.000033933, -0.00089284714, -1425965.6, 59934.063, 0.0, 5.034, 4.977374 
6.552451e+2, 1.5335423e+2, -1383008.9, -1470857.0, -3411.8792, 0.000025471547, 0.0013062247, -1382876.6, 54252.004, 0.0, 5.0329022, 4.9755363 
6.5520775e+2, 1.5832968e+2, -1338089.4, -1425140.4, -3557.8914, 0.00009812586, -0.0013227499, -1337944.1, 50424.887, 0.0, 5.031805, 4.974994 
6.5516967e+2, 1.6330394e+2, -1295074.8, -1383512.0, -4242.8, 0.000111487614, 0.0012245707, -1294871.6, 44749.785, 0.0, 5.030717, 4.9730597 
6.551313e+2, 1.6827697e+2, -1249963.8, -1337525.6, -4364.6772, 0.000079870035, -0.0011738938, -1249746.8, 41139.094, 0.0, 5.0296316, 4.9725776 
6.550923e+2, 1.7324874e+2, -1206995.5, -1296130.4, -4923.4736, 0.00007595533, 0.0010966094, -1206724.4, 35438.016, 0.0, 5.02855, 4.9705286 
6.55053e+2, 1.7821926e+2, -1161721.4, -1249921.4, -5005.3696, 0.00014557774, -0.0011886, -1161438.1, 32013.193, 0.0, 5.0274754, 4.970093 
6.550133e+2, 1.8318854e+2, -1118768.1, -1208696.5, -5455.0996, 0.000022976894, 0.001209802, -1118438.4, 26313.947, 0.0, 5.026401, 4.967956 
6.549733e+2, 1.8815647e+2, -1073367.4, -1162320.4, -5499.814, 0.00010134092, -0.0012848517, -1073028.6, 23038.078, 0.0, 5.025332, 4.96755 
6.549331e+2, 1.931232e+2, -1030406.4, -1121226.1, -5841.3564, 0.00009013159, 0.0012866277, -1030032.25, 17360.496, 0.0, 5.0242653, 4.965331 
6.548926e+2, 1.980885e+2, -984897.3, -1074707.8, -5860.806, 0.000102474674, -0.0013089271, -984516.5, 14216.288, 0.0, 5.0231996, 4.9649477 
6.54852e+2, 2.0305261e+2, -941906.2, -1033685.4, -6089.726, 0.00004841365, 0.0013030483, -941503.9, 8580.563, 0.0, 5.0221376, 4.9626746 
6.548112e+2, 2.0801525e+2, -896327.06, -987101.0, -6092.485, 0.00007139929, -0.0013573605, -895920.0, 5530.589, 0.0, 5.021074, 4.962289 
6.547703e+2, 2.129767e+2, -853306.75, -946131.56, -6203.3022, 0.00008799579, 0.0013838598, -852894.06, -65.59801, 0.0, 5.020012, 4.9599614 
6.5472937e+2, 2.1793662e+2, -807640.25, -899428.2, -6199.892, 0.00006362818, -0.0014357104, -807223.4, -3002.1116, 0.0, 5.018946, 4.959593 
6.546885e+2, 2.2289534e+2, -764611.6, -858550.44, -6181.186, 0.00006272202, 0.0014429878, -764206.6, -8580.962, 0.0, 5.017882, 4.9572015 
6.546475e+2, 2.2785252e+2, -718850.7, -811713.75, -6183.953, 0.000054700096, -0.0014233203, -718440.7, -11395.437, 0.0, 5.016814, 4.956855 
6.5460676e+2, 2.3280849e+2, -675825.44, -770948.5, -6024.913, 0.00007980232, 0.0014835044, -675445.3, -16968.477, 0.0, 5.0157466, 4.9543924 
6.54566e+2, 2.3776288e+2, -629950.7, -723922.0, -6033.205, 0.000010434132, -0.0016583818, -629564.9, -19641.092, 0.0, 5.0146747, 4.9540887 
6.545254e+2, 2.4271604e+2, -586962.3, -683328.94, -5737.9834, 0.00007779111, 0.0017282991, -586621.8, -25239.111, 0.0, 5.0136003, 4.9515314 
6.5448505e+2, 2.4766764e+2, -540960.56, -636057.25, -5741.969, 0.00007866316, -0.0016666672, -540615.06, -27757.8, 0.0, 5.0125194, 4.951292 
6.544449e+2, 2.5261793e+2, -498091.3, -595848.3, -5325.143, 0.000017668497, 0.0016638801, -497802.1, -33457.637, 0.0, 5.0114427, 4.9485693 
6.54405e+2, 2.5756666e+2, -451734.13, -547928.6, -5317.0923, 0.000012365151, -0.0017230758, -451441.13, -35594.22, 0.0, 5.010375, 4.948526 
6.543654e+2, 2.6251397e+2, -409224.2, -508711.1, -4802.5493, 0.0000684288, 0.0016970544, -408992.9, -41629.832, 0.0, 5.009307, 4.9454136 
6.543262e+2, 2.6745972e+2, -362449.75, -459950.72, -4726.274, 0.00009630384, -0.0015950851, -362221.2, -43326.527, 0.0, 5.008244, 4.9456396 
6.542872e+2, 2.72404e+2, -320182.0, -421365.63, -4089.4778, -0.000014646792, 0.0016797899, -320016.97, -49576.164, 0.0, 5.007163, 4.942266 
6.542488e+2, 2.7734676e+2, -273070.5, -371792.63, -4022.8647, 0.000015507287, -0.0019554603, -272906.84, -50905.3, 0.0, 5.0060773, 4.9427648 
6.5421075e+2, 2.822881e+2, -230990.75, -333713.38, -3246.4302, 0.000052927586, 0.002193758, -230888.25, -57311.836, 0.0, 5.00498, 4.9391785 
6.541734e+2, 2.8722796e+2, -183592.11, -283474.1, -3150.5776, 0.000091252725, -0.0023991298, -183492.83, -58326.832, 0.0, 5.0038795, 4.939897 
6.541364e+2, 2.921661e+2, -142189.48, -247046.97, -2308.1045, -0.000008353635, 0.0017931435, -142138.7, -65366.652, 0.0, 5.0027676, 4.9356894 
6.5410024e+2, 2.9710278e+2, -94591.55, -196381.67, -2138.3472, -0.00001309522, -0.00064048177, -94546.64, -66153.85, 0.0, 5.001661, 4.936539 
6.540645e+2, 3.0204654e+2, -56046.766, -133648.6, -1424.853, 0.000014797734, 0.0019530273, -56020.613, -56020.613, 0.0, 5.000539, 4.950685 
6.5402967e+2, 3.0699787e+2, -57834.61, -132045.05, -1168.8702, 0.00016770988, -0.005007584, -57816.203, -57816.203, 0.0, 4.9994264, 4.9517374 
6.5399545e+2, 3.119665e+2, -22329.447, -43314.957, -455.57172, -0.0001191565, 0.0043599824, -22319.563, -22319.563, 0.0, 4.9982896, 4.984689 
6.539628e+2, 3.1695205e+2, -23623.514, -40540.082, -92.69777, 0.000053035757, -0.0012866436, -23623.006, -23623.006, 0.0, 4.997166, 4.9861927 
6.6049516e+2, 1.23509325e+2, -1645758.5, -1732406.6, -239.30215, 0.000012777365, 0.0006889561, -1645757.9, 83850.83, 0.0, 5.039588, 4.98288 
6.604611e+2, 1.2849163e+2, -1601820.9, -1688311.9, -488.95798, 0.00020223587, -0.00289011, -1601818.0, 78964.01, 0.0, 5.0384526, 4.981881 
6.6042584e+2, 1.3347305e+2, -1558562.3, -1645700.1, -1696.5626, -0.000054442105, 0.0036169703, -1558529.3, 73434.76, 0.0, 5.0373287, 4.980294 
6.6039e+2, 1.3845295e+2, -1514036.4, -1600513.6, -1894.7946, -0.000052202773, -0.001506874, -1513994.9, 69166.23, 0.0, 5.036202, 4.9796286 
6.6035324e+2, 1.4343181e+2, -1470957.8, -1558450.3, -2867.5002, 0.00029939163, 0.00020430797, -1470863.8, 63504.477, 0.0, 5.035094, 4.9778776 
6.60316e+2, 1.4840974e+2, -1426171.0, -1512870.5, -3042.0747, 0.000016074062, -0.00088997587, -1426064.4, 59520.055, 0.0, 5.033982, 4.9773183 
6.602779e+2, 1.5338635e+2, -1383121.5, -1471017.1, -3866.2607, 0.000024325785, 0.0013204394, -1382951.8, 53862.117, 0.0, 5.032883, 4.975494 
6.602394e+2, 1.5836176e+2, -1338205.9, -1425306.1, -4018.8752, 0.00008469995, -0.0013090936, -1338020.8, 50033.96, 0.0, 5.0317845, 4.9749503 
6.6020024e+2, 1.6333596e+2, -1295176.4, -1383644.0, -4697.5796, 0.00009482338, 0.0012378669, -1294927.6, 44379.813, 0.0, 5.030696, 4.973027 
6.601608e+2, 1.6830894e+2, -1250069.3, -1337663.8, -4829.7026, 0.000055925582, -0.001158351, -1249803.8, 40768.586, 0.0, 5.02961, 4.9725432 
6.6012067e+2, 1.732807e+2, -1207089.0, -1296240.8, -5381.7314, 0.000072590155, 0.0011185706, -1206765.3, 35083.836, 0.0, 5.0285287, 4.970504 
6.600803e+2, 1.7825119e+2, -1161819.9, -1250039.6, -5475.431, 0.00012837326, -0.0011648004, -1161481.4, 31657.053, 0.0, 5.027453, 4.9700656 
6.6003954e+2, 1.8322045e+2, -1118857.3, -1208792.6, -5921.758, 0.00000274179, 0.0012317612, -1118469.0, 25970.69, 0.0, 5.0263777, 4.9679365 
6.5999854e+2, 1.8818836e+2, -1073461.3, -1162423.4, -5975.7734, 0.000088616056, -0.0012601446, -1073061.6, 22692.598, 0.0, 5.025308, 4.967528 
6.5995723e+2, 1.9315507e+2, -1030495.9, -1121316.0, -6319.1035, 0.00007257133, 0.0013174886, -1030058.3, 17022.09, 0.0, 5.0242405, 4.9653144 
6.599156e+2, 1.9812034e+2, -984988.2, -1074796.6, -6345.309, 0.00009568205, -0.001278637, -984542.1, 13878.554, 0.0, 5.023174, 4.9649315 
6.5987396e+2, 2.0308444e+2, -941993.4, -1033764.06, -6578.7144, 0.000028175726, 0.0013369115, -941524.1, 8248.312, 0.0, 5.0221114, 4.962662 
6.598321e+2, 2.0804708e+2, -896419.06, -987187.8, -6587.43, 0.00006465239, -0.001323348, -895943.5, 5195.2764, 0.0, 5.0210466, 4.9622736 
6.5979016e+2, 2.130085e+2, -853388.25, -946197.56, -6703.493, 0.000073730844, 0.0014240869, -852906.56, -389.86258, 0.0, 5.0199847, 4.959954 
6.597482e+2, 2.179684e+2, -807728.1, -899507.75, -6706.943, 0.00005022126, -0.0014049942, -807240.6, -3330.9438, 0.0, 5.018919, 4.9595804 
6.597062e+2, 2.2292712e+2, -764689.75, -858609.5, -6694.4863, 0.000056026525, 0.0014890219, -764214.94, -8900.753, 0.0, 5.0178547, 4.957196 
6.596642e+2, 2.2788431e+2, -718931.2, -811777.06, -6704.369, 0.00004243422, -0.0013858536, -718449.56, -11715.701, 0.0, 5.016787, 4.956848 
6.596223e+2, 2.3284025e+2, -675897.6, -770994.6, -6553.634, 0.0000657002, 0.0015251734, -675448.06, -17282.572, 0.0, 5.0157194, 4.9543915 
6.595805e+2, 2.3779465e+2, -630023.4, -723969.3, -6571.5635, 0.000012077832, -0.0016302969, -629565.94, -19953.434, 0.0, 5.0146475, 4.9540873 
6.5953887e+2, 2.4274781e+2, -587023.44, -683356.7, -6286.7544, 0.00006510247, 0.001776782, -586614.94, -25543.516, 0.0, 5.013574, 4.951536 
6.594974e+2, 2.476994e+2, -541016.44, -636083.56, -6302.7915, 0.00005237306, -0.0016316718, -540600.44, -28054.469, 0.0, 5.0124955, 4.951297 
6.594562e+2, 2.526497e+2, -498142.25, -595851.2, -5885.3384, 0.00001621095, 0.0016947319, -497789.03, -33755.992, 0.0, 5.011416, 4.948583 
6.5941525e+2, 2.5759843e+2, -451805.7, -547945.2, -5885.7656, 0.00002223074, -0.0016903143, -451446.7, -35911.33, 0.0, 5.0103416, 4.9485373 
6.5937454e+2, 2.625458e+2, -409228.63, -508556.22, -5378.266, 0.000044469813, 0.001733489, -408938.28, -41887.16, 0.0, 5.009269, 4.9454875 
6.5933424e+2, 2.6749164e+2, -362464.03, -459805.03, -5318.5576, 0.00005704698, -0.0015756657, -362174.3, -43592.277, 0.0, 5.008204, 4.9457116 
6.5929425e+2, 2.7243593e+2, -320249.44, -421345.22, -4707.199, -0.0000034339434, 0.0017078408, -320030.72, -49903.05, 0.0, 5.007124, 4.9422936 
6.5925467e+2, 2.7737877e+2, -273128.88, -371769.53, -4637.703, 0.000026352782, -0.0019350753, -272911.3, -51223.168, 0.0, 5.0060415, 4.9427915 
6.592156e+2, 2.8232014e+2, -231035.02, -333661.84, -3874.7126, 0.000018015655, 0.0022064527, -230888.92, -57626.188, 0.0, 5.004945, 4.9392157 
6.591771e+2, 2.8726e+2, -183642.02, -283425.1, -3785.6177, 0.000048870792, -0.002379977, -183498.6, -58646.617, 0.0, 5.0038424, 4.9399343 
6.5913904e+2, 2.921982e+2, -142190.97, -246881.95, -2956.978, -0.000011806504, 0.001807134, -142107.52, -65650.016, 0.0, 5.002729, 4.9357686 
6.591017e+2, 2.9713494e+2, -94593.83, -196211.44, -2789.4277, 0.000013895696, -0.00064686866, -94517.32, -66439.836, 0.0, 5.0016212, 4.9366207 
6.590648e+2, 3.0207875e+2, -56074.23, -133525.6, -2093.7754, -0.000013068227, 0.0019448211, -56017.668, -56017.668, 0.0, 5.000497, 4.9507513 
6.59029e+2, 3.0703017e+2, -57873.28, -131930.25, -1835.4694, 0.00005505809, -0.0050201314, -57827.816, -57827.816, 0.0, 4.9993806, 4.9518023 
6.5899366e+2, 3.1199887e+2, -22426.604, -43323.12, -1147.0488, -0.00006725206, 0.0043938695, -22363.828, -22363.828, 0.0, 4.99824, 4.984712 
6.5895987e+2, 3.1698444e+2, -23764.072, -40564.63, -770.39526, -0.00006219259, -0.0013990893, -23728.82, -23728.82, 0.0, 4.9971004, 4.986216 
6.655351e+2, 1.2354335e+2, -1643504.0, -1731444.4, 292.64948, 0.000038908904, 0.00067104277, -1643503.1, 85772.125, 0.0, 5.040382, 4.9828076 
6.654998e+2, 1.2852557e+2, -1599688.0, -1687408.4, 52.070618, 0.00017512492, -0.0028946775, -1599688.0, 80761.41, 0.0, 5.0392056, 4.98181 
6.6546345e+2, 1.3350692e+2, -1556518.9, -1644811.8, -1139.974, -0.00001261994, 0.0036250413, -1556504.3, 75127.94, 0.0, 5.038046, 4.980238 
6.654264e+2, 1.3848674e+2, -1512111.9, -1599685.5, -1324.8695, -0.000036551617, -0.0015278092, -1512091.9, 70738.02, 0.0, 5.0368805, 4.9795723 
6.653885e+2, 1.4346555e+2, -1469116.9, -1557633.4, -2277.1282, 0.00029534765, 0.00018449947, -1469058.4, 64979.36, 0.0, 5.035738, 4.9778357 
6.653501e+2, 1.4844343e+2, -1424438.3, -1512111.0, -2441.6375, 0.000027302596, -0.00090342993, -1424370.4, 60884.055, 0.0, 5.034591, 4.977276 
6.653109e+2, 1.5341999e+2, -1381470.5, -1470271.9, -3241.7908, 0.00004866734, 0.0013065418, -1381352.4, 55131.867, 0.0, 5.03346, 4.9754634 
6.652713e+2, 1.5839535e+2, -1336655.8, -1424615.6, -3385.4885, 0.00009468422, -0.0013308602, -1336525.6, 51199.973, 0.0, 5.032329, 4.9749184 
6.65231e+2, 1.6336952e+2, -1293703.0, -1382969.1, -4039.3865, 0.00010747379, 0.0012186648, -1293520.6, 45458.094, 0.0, 5.0312104, 4.973006 
6.6519046e+2, 1.6834247e+2, -1248689.3, -1337041.6, -4165.231, 0.00006405382, -0.001181063, -1248493.3, 41750.566, 0.0, 5.030095, 4.9725194 
6.651493e+2, 1.733142e+2, -1205779.1, -1295634.9, -4692.2095, 0.0000942224, 0.0010994883, -1205534.8, 35986.22, 0.0, 5.028986, 4.9704885 
6.6510785e+2, 1.7828463e+2, -1160595.1, -1249482.5, -4781.3125, 0.00013904212, -0.0011869534, -1160338.8, 32471.805, 0.0, 5.0278835, 4.9700475 
6.6506594e+2, 1.8325387e+2, -1117696.6, -1208253.1, -5205.089, 0.0000149750795, 0.0012069936, -1117398.4, 26713.688, 0.0, 5.026784, 4.967925 
6.6502386e+2, 1.8822175e+2, -1072374.3, -1161925.3, -5252.95, 0.00010211882, -0.0012808921, -1072067.1, 23359.674, 0.0, 5.025691, 4.967515 
6.649814e+2, 1.9318844e+2, -1029474.75, -1120840.4, -5578.859, 0.00008103188, 0.00129513, -1029135.4, 17617.945, 0.0, 5.024599, 4.965306 
6.6493887e+2, 1.981537e+2, -984032.0, -1074352.8, -5597.146, 0.00011520165, -0.0013067968, -983686.44, 14407.314, 0.0, 5.023511, 4.964923 
6.648961e+2, 2.0311779e+2, -941102.7, -1033345.75, -5819.269, 0.00003336009, 0.001315209, -940737.0, 8708.74, 0.0, 5.0224247, 4.962657 
6.648531e+2, 2.0808038e+2, -895591.9, -986800.94, -5822.6104, 0.00008279389, -0.0013499571, -895221.7, 5590.5522, 0.0, 5.021339, 4.9622684 
6.648101e+2, 2.1304181e+2, -852624.6, -945836.56, -5930.696, 0.00008244927, 0.0013993086, -852248.8, -58.452187, 0.0, 5.0202546, 4.9599504 
6.64767e+2, 2.180017e+2, -807031.1, -899179.1, -5928.2793, 0.000059061487, -0.0014417319, -806651.3, -3067.7988, 0.0, 5.019166, 4.959577 
6.6472393e+2, 2.229604e+2, -764058.1, -858306.2, -5909.3174, 0.000072165465, 0.0014728421, -763689.06, -8700.929, 0.0, 5.0180783, 4.9571958 
6.646809e+2, 2.2791755e+2, -718370.6, -811507.7, -5916.759, 0.00005617808, -0.0014150612, -717996.25, -11588.262, 0.0, 5.016986, 4.9568477 
6.646379e+2, 2.328735e+2, -675402.9, -770748.44, -5760.6245, 0.000071252056, 0.0014998623, -675056.06, -17216.355, 0.0, 5.0158935, 4.9543953 
6.64595e+2, 2.3782788e+2, -629603.9, -723760.2, -5779.03, 0.000029852721, -0.0016571904, -629250.5, -19963.658, 0.0, 5.014796, 4.9540906 
6.6455233e+2, 2.4278106e+2, -586669.75, -683169.0, -5490.086, 0.000083744184, 0.0017643737, -586358.4, -25612.59, 0.0, 5.0136976, 4.951544 
6.645097e+2, 2.4773262e+2, -540731.75, -635930.4, -5508.649, 0.000062881634, -0.0016614334, -540414.06, -28193.61, 0.0, 5.0125947, 4.951303 
6.644674e+2, 2.526829e+2, -497934.28, -595712.94, -5090.677, 0.00003722957, 0.0016832983, -497669.97, -33962.426, 0.0, 5.011484, 4.948599 
6.644254e+2, 2.5763166e+2, -451708.97, -547861.7, -5090.1484, 0.00005214459, -0.001697493, -451440.25, -36230.383, 0.0, 5.010371, 4.9485517 
6.643836e+2, 2.6257905e+2, -409166.94, -508383.25, -4569.9, 0.000057420933, 0.001720623, -408956.9, -42231.53, 0.0, 5.009266, 4.9455476 
6.643422e+2, 2.6752493e+2, -362490.3, -459677.3, -4520.5825, 0.0000443632, -0.0015846716, -362280.5, -44024.664, 0.0, 5.00817, 4.9457693 
6.6430116e+2, 2.7246928e+2, -320349.63, -421260.53, -3910.0146, 0.000042100593, 0.0017161582, -320198.34, -50397.26, 0.0, 5.0070653, 4.942347 
6.6426057e+2, 2.7741215e+2, -273284.53, -371710.38, -3823.6555, 0.00007733665, -0.0019325856, -273136.2, -51775.035, 0.0, 5.0059633, 4.9428444 
6.6422033e+2, 2.8235355e+2, -231271.83, -333656.03, -3066.9033, 0.000025421252, 0.002207459, -231180.05, -58244.633, 0.0, 5.004841, 4.9392614 
6.641807e+2, 2.8729343e+2, -183965.63, -283459.16, -2977.0037, 0.000044969922, -0.002364243, -183876.63, -59352.28, 0.0, 5.003707, 4.939979 
6.6414154e+2, 2.9223168e+2, -142547.17, -246835.39, -2149.2588, 0.000023271667, 0.0018357905, -142502.89, -66373.51, 0.0, 5.0025644, 4.935855 
6.641031e+2, 2.9716852e+2, -95026.69, -196192.03, -1982.4442, 0.00008094052, -0.0006123763, -94987.86, -67239.22, 0.0, 5.001427, 4.9367094 
6.6406506e+2, 3.021124e+2, -56598.7, -133579.61, -1315.3522, -0.0000007144512, 0.0019741228, -56576.23, -56576.23, 0.0, 5.0002756, 4.9508247 
6.6402805e+2, 3.0706385e+2, -58481.105, -132020.25, -1057.1998, -0.0000057435072, -0.0050374204, -58465.91, -58465.91, 0.0, 4.9991293, 4.951875 
6.6399163e+2, 3.1203258e+2, -23147.818, -43557.41, -423.21582, 0.00006377507, 0.0045034946, -23139.047, -23139.047, 0.0, 4.9979653, 4.9847403 
6.6395664e+2, 3.1701818e+2, -24556.14, -40835.043, -54.186455, 0.000008057196, -0.0011860473, -24555.959, -24555.959, 0.0, 4.996801, 4.986242 
6.705753e+2, 1.235782e+2, -1643634.0, -1731700.1, -179.84785, 0.0000478454, 0.00066690193, -1643633.6, 85299.95, 0.0, 5.040375, 4.9827285 
6.705389e+2, 1.2856035e+2, -1599829.5, -1687665.3, -419.81882, 0.00012824188, -0.0028893831, -1599827.5, 80281.15, 0.0, 5.039194, 4.9817333 
6.7050135e+2, 1.3354163e+2, -1556651.8, -1645029.6, -1608.6985, 0.000010203369, 0.0036478322, -1556622.5, 74669.5, 0.0, 5.0380297, 4.9801755 
6.7046314e+2, 1.3852137e+2, -1512250.9, -1599903.9, -1791.8174, -0.000046711462, -0.0015421263, -1512214.3, 70276.23, 0.0, 5.0368614, 4.9795113 
6.704241e+2, 1.4350012e+2, -1469241.5, -1557810.5, -2738.9766, 0.0002618029, 0.00017802883, -1469156.9, 64541.89, 0.0, 5.0357165, 4.977789 
6.703845e+2, 1.4847797e+2, -1424567.9, -1512291.0, -2908.069, 0.000007789302, -0.0008837533, -1424471.5, 60444.45, 0.0, 5.0345683, 4.9772286 
6.7034423e+2, 1.5345447e+2, -1381584.8, -1470417.4, -3701.7188, 0.00004633172, 0.0013293268, -1381430.8, 54715.438, 0.0, 5.0334363, 4.975428 
6.7030346e+2, 1.584298e+2, -1336771.4, -1424763.8, -3852.1152, 0.00007395137, -0.0013203793, -1336603.1, 50784.902, 0.0, 5.0323057, 4.974882 
6.702621e+2, 1.6340393e+2, -1293804.3, -1383086.8, -4499.191, 0.00008811102, 0.0012400851, -1293578.1, 45063.36, 0.0, 5.0311866, 4.9729795 
6.702203e+2, 1.6837686e+2, -1248792.6, -1337165.3, -4635.0205, 0.00004224624, -0.0011612064, -1248550.1, 41356.695, 0.0, 5.0300713, 4.972491 
6.701781e+2, 1.7334856e+2, -1205870.5, -1295733.3, -5154.9883, 0.00008440398, 0.0011251611, -1205575.8, 35608.527, 0.0, 5.0289626, 4.9704685 
6.7013556e+2, 1.7831899e+2, -1160689.8, -1249587.9, -5255.892, 0.000116595285, -0.0011629618, -1160380.1, 32093.941, 0.0, 5.0278597, 4.970025 
6.700925e+2, 1.8328819e+2, -1117783.8, -1208341.0, -5675.3022, -0.0000012545117, 0.001234871, -1117429.5, 26346.313, 0.0, 5.02676, 4.967909 
6.7004937e+2, 1.8825604e+2, -1072465.5, -1162019.0, -5734.2754, 0.00008801607, -0.0012475982, -1072099.9, 22990.87, 0.0, 5.025666, 4.967497 
6.7000586e+2, 1.9322272e+2, -1029562.44, -1120923.8, -6060.4287, 0.000058898615, 0.0013249575, -1029162.2, 17255.22, 0.0, 5.024574, 4.9652915 
6.6996217e+2, 1.9818796e+2, -984122.25, -1074438.0, -6087.819, 0.000104129715, -0.0012801674, -983713.75, 14044.243, 0.0, 5.023484, 4.9649086 
6.699183e+2, 2.0315205e+2, -941192.5, -1033429.3, -6313.592, 0.000009340223, 0.0013607794, -940762.3, 8347.808, 0.0, 5.022398, 4.962643 
6.6987425e+2, 2.0811462e+2, -895681.4, -986881.7, -6323.9355, 0.00007369039, -0.0013085222, -895244.94, 5231.803, 0.0, 5.0213113, 4.9622555 
6.698302e+2, 2.1307603e+2, -852712.9, -945915.56, -6438.9077, 0.000065426575, 0.0014393069, -852270.2, -415.13763, 0.0, 5.020227, 4.9599385 
6.6978604e+2, 2.1803589e+2, -807118.1, -899255.94, -6442.566, 0.000043570282, -0.0014107699, -806669.8, -3421.5369, 0.0, 5.019139, 4.9595656 
6.697418e+2, 2.229946e+2, -764140.0, -858376.2, -6432.2534, 0.00006285124, 0.001535123, -763703.0, -9049.96, 0.0, 5.0180516, 4.9571867 
6.696977e+2, 2.2795174e+2, -718452.06, -811578.8, -6447.724, 0.000049435166, -0.001374727, -718007.8, -11934.794, 0.0, 5.0169597, 4.956838 
6.6965365e+2, 2.3290767e+2, -675476.75, -770807.8, -6299.6323, 0.0000547598, 0.0015429832, -675062.25, -17557.393, 0.0, 5.015868, 4.954389 
6.696096e+2, 2.3786205e+2, -629676.0, -723820.2, -6328.8867, 0.000017674789, -0.0016125971, -629252.44, -20300.387, 0.0, 5.014771, 4.954084 
6.695658e+2, 2.428152e+2, -586734.5, -683216.56, -6047.383, 0.0000719718, 0.0018177546, -586356.94, -25945.88, 0.0, 5.0136733, 4.951541 
6.6952217e+2, 2.4776676e+2, -540796.5, -635980.2, -6077.662, 0.00004589526, -0.0016369688, -540410.0, -28524.258, 0.0, 5.012571, 4.9512997 
6.694787e+2, 2.5271708e+2, -497984.63, -595735.8, -5673.9404, 0.000025936795, 0.0017348563, -497656.38, -34283.56, 0.0, 5.011461, 4.9486036 
6.6943556e+2, 2.576658e+2, -451760.4, -547888.0, -5682.6484, 0.000052542, -0.0016521913, -451425.63, -36550.496, 0.0, 5.0103483, 4.9485555 
6.693927e+2, 2.626132e+2, -409179.84, -508299.84, -5162.579, 0.000043719847, 0.0017448891, -408911.7, -42521.266, 0.0, 5.0092382, 4.945592 
6.693502e+2, 2.6755914e+2, -362529.56, -459611.84, -5134.7954, -0.0000003753653, -0.001563631, -362258.72, -44338.234, 0.0, 5.0081344, 4.945811 
6.6930807e+2, 2.7250355e+2, -320387.9, -421175.16, -4537.066, 0.000051368705, 0.0017525541, -320184.06, -50718.8, 0.0, 5.0070257, 4.9423976 
6.6926634e+2, 2.7744645e+2, -273325.34, -371626.5, -4448.4375, 0.000081247395, -0.0019048933, -273124.47, -52099.59, 0.0, 5.005923, 4.942895 
6.6922504e+2, 2.8238788e+2, -231329.67, -333615.5, -3717.2175, -0.000017852686, 0.0022262316, -231194.77, -58596.06, 0.0, 5.0048013, 4.9392967 
6.6918427e+2, 2.8732783e+2, -184017.63, -283418.5, -3634.7144, 0.000001098227, -0.0023556526, -183884.89, -59697.55, 0.0, 5.0036697, 4.9400134 
6.69144e+2, 2.9226613e+2, -142548.6, -246682.13, -2816.8357, 0.000023710823, 0.0018487311, -142472.45, -66680.59, 0.0, 5.0025277, 4.935929 
6.691044e+2, 2.9720303e+2, -95035.016, -196036.78, -2650.0596, 0.00011367921, -0.00060694496, -94965.53, -67555.14, 0.0, 5.001387, 4.9367857 
6.690652e+2, 3.0214697e+2, -56635.418, -133478.81, -1997.8916, -0.00003735793, 0.0019674948, -56583.508, -56583.508, 0.0, 5.000233, 4.9508834 
6.6902703e+2, 3.0709848e+2, -58520.395, -131918.6, -1740.2806, -0.00012659135, -0.0051117367, -58479.156, -58479.156, 0.0, 4.9990854, 4.951935 
6.689895e+2, 3.1206727e+2, -23254.47, -43601.277, -1126.4026, 0.000120164776, 0.004573796, -23192.303, -23192.303, 0.0, 4.997918, 4.9847493 
6.689533e+2, 3.170529e+2, -24713.041, -40902.566, -753.22, -0.000116093455, -0.00095510465, -24678.074, -24678.074, 0.0, 4.9967356, 4.986249 
6.7561597e+2, 1.2361461e+2, -1641368.6, -1730708.1, 368.34955, 0.00005423751, 0.000644159, -1641367.1, 87209.65, 0.0, 5.041168, 4.9826655 
6.755783e+2, 1.2859668e+2, -1597690.5, -1686731.6, 140.21379, 0.00010544438, -0.0028856737, -1597690.3, 82062.33, 0.0, 5.0399446, 4.9816737 
6.7553955e+2, 1.335779e+2, -1554602.0, -1644115.4, -1030.2557, 0.00006271992, 0.0036713267, -1554590.3, 76346.38, 0.0, 5.038745, 4.980129 
6.7550015e+2, 1.3855758e+2, -1510317.9, -1599045.4, -1196.58, -0.00003292726, -0.0015691307, -1510301.8, 71833.97, 0.0, 5.037538, 4.9794664 
6.7546004e+2, 1.4353627e+2, -1467397.8, -1556971.0, -2119.0376, 0.00025065037, 0.00014808433, -1467347.6, 65996.86, 0.0, 5.036358, 4.977756 
6.754193e+2, 1.4851406e+2, -1422831.5, -1511506.1, -2275.1838, 0.000019021656, -0.0008901573, -1422773.3, 61788.92, 0.0, 5.035175, 4.977196 
6.753777e+2, 1.5349054e+2, -1379929.5, -1469651.0, -3041.1538, 0.00007573844, 0.0013232017, -1379826.5, 55966.223, 0.0, 5.034011, 4.975405 
6.753359e+2, 1.5846583e+2, -1335214.1, -1424048.8, -3180.5537, 0.000082514984, -0.0013441273, -1335100.4, 51934.465, 0.0, 5.0328484, 4.974859 
6.752933e+2, 1.6343994e+2, -1292325.1, -1382392.3, -3799.5398, 0.00010083525, 0.0012193928, -1292165.1, 46123.582, 0.0, 5.0317, 4.972965 
6.752505e+2, 1.6841282e+2, -1247403.4, -1336520.4, -3926.8987, 0.000053358177, -0.0011816818, -1247230.6, 42323.707, 0.0, 5.030556, 4.9724746 
6.752071e+2, 1.7338449e+2, -1204547.9, -1295106.6, -4419.209, 0.00010166968, 0.0010998127, -1204332.8, 36499.266, 0.0, 5.0294223, 4.970459 
6.751634e+2, 1.783549e+2, -1159448.0, -1249008.3, -4514.0747, 0.00011695573, -0.0011917154, -1159221.0, 32901.016, 0.0, 5.028294, 4.970013 
6.7511934e+2, 1.8332408e+2, -1116606.9, -1207782.3, -4908.5854, 0.000015339987, 0.0012191688, -1116343.4, 27080.658, 0.0, 5.02717, 4.9679017 
6.75075e+2, 1.8829192e+2, -1071356.5, -1161498.4, -4961.6543, 0.000107458414, -0.0012682186, -1071084.3, 23654.918, 0.0, 5.0260544, 4.9674883 
6.750304e+2, 1.9325857e+2, -1028513.0, -1120426.0, -5267.625, 0.0000612866, 0.0012926564, -1028212.06, 17853.996, 0.0, 5.0249405, 4.965286 
6.749856e+2, 1.982238e+2, -983132.8, -1073973.0, -5287.8145, 0.00012201051, -0.001314369, -982826.06, 14580.805, 0.0, 5.023832, 4.964902 
6.749406e+2, 2.0318784e+2, -940265.75, -1032994.2, -5499.494, 0.000016118705, 0.0013478138, -939940.7, 8818.473, 0.0, 5.0227246, 4.962637 
6.748955e+2, 2.081504e+2, -894809.0, -986467.4, -5503.7207, 0.0000914081, -0.0013403277, -894479.7, 5646.347, 0.0, 5.021619, 4.962252 
6.7485034e+2, 2.1311179e+2, -851907.8, -945535.25, -5609.297, 0.000070898735, 0.0014059945, -851572.94, -68.46994, 0.0, 5.020512, 4.959934 
6.7480505e+2, 2.1807164e+2, -806372.5, -898899.94, -5607.166, 0.00005481141, -0.001442263, -806033.94, -3136.0261, 0.0, 5.0194025, 4.9595637 
6.747598e+2, 2.2303033e+2, -763458.5, -858052.06, -5590.359, 0.00007662005, 0.0015125648, -763129.25, -8826.479, 0.0, 5.018294, 4.957184 
6.7471457e+2, 2.2798745e+2, -717835.0, -811285.56, -5603.282, 0.000056774596, -0.0014140471, -717500.25, -11777.27, 0.0, 5.0171795, 4.9568357 
6.746694e+2, 2.3294337e+2, -674924.25, -770542.7, -5451.44, 0.00007268279, 0.0015214089, -674614.44, -17459.477, 0.0, 5.0160656, 4.954388 
6.7462426e+2, 2.3789772e+2, -629190.7, -723586.56, -5481.167, 0.000040858173, -0.0016458224, -628873.5, -20271.172, 0.0, 5.014945, 4.9540834 
6.745793e+2, 2.4285087e+2, -586317.06, -683005.8, -5196.685, 0.00008093707, 0.0017977866, -586038.56, -25977.1, 0.0, 5.0138216, 4.951545 
6.7453456e+2, 2.4780244e+2, -540457.3, -635809.3, -5228.453, 0.000051586994, -0.001665218, -540171.44, -28635.148, 0.0, 5.0126925, 4.9513016 
6.7449003e+2, 2.5275272e+2, -497711.28, -595581.56, -4827.1206, 0.000049355876, 0.0017271712, -497473.75, -34450.31, 0.0, 5.0115566, 4.948612 
6.7444575e+2, 2.5770146e+2, -451568.2, -547774.6, -4837.311, 0.000081888254, -0.0016651194, -451325.56, -36799.703, 0.0, 5.010416, 4.9485626 
6.744018e+2, 2.6264885e+2, -409068.7, -508192.13, -4321.114, 0.0000604306, 0.0017303834, -408880.66, -42839.504, 0.0, 5.009271, 4.9456124 
6.743581e+2, 2.6759478e+2, -362533.16, -459561.3, -4314.396, -0.000005642879, -0.0015673158, -362341.7, -44770.49, 0.0, 5.008127, 4.9458294 
6.7431486e+2, 2.7253923e+2, -320397.22, -420979.03, -3703.4055, 0.000100064215, 0.0017494776, -320261.06, -51145.438, 0.0, 5.006988, 4.9424806 
6.7427206e+2, 2.7748218e+2, -273412.28, -371466.44, -3596.66, 0.00012436786, -0.0019112143, -273280.53, -52605.945, 0.0, 5.005857, 4.942978 
6.7422956e+2, 2.8242368e+2, -231538.45, -333603.72, -2869.4116, -0.0000136709095, 0.0022452795, -231457.84, -59209.92, 0.0, 5.00471, 4.9393377 
6.7418766e+2, 2.8736365e+2, -184286.05, -283434.16, -2788.9, 0.0000038405306, -0.0023247898, -184207.67, -60371.36, 0.0, 5.0035577, 4.940054 
6.7414623e+2, 2.92302e+2, -142822.48, -246582.98, -1977.6417, 0.0000628527, 0.0018773127, -142784.8, -67344.44, 0.0, 5.0023913, 4.936021 
6.741055e+2, 2.9723895e+2, -95388.31, -195965.03, -1808.2954, 0.00017763629, -0.0006202565, -95355.81, -68297.63, 0.0, 5.0012207, 4.936881 
6.740652e+2, 3.0218297e+2, -57087.46, -133510.33, -1174.584, -0.0000233451, 0.001983655, -57069.414, -57069.414, 0.0, 5.0000415, 4.950951 
6.7402583e+2, 3.0713454e+2, -59033.86, -131975.8, -921.7556, -0.00016605867, -0.0049730656, -59022.21, -59022.21, 0.0, 4.9988713, 4.952003 
6.7398715e+2, 3.1210336e+2, -23873.313, -43814.637, -366.93967, 0.00025528693, 0.004610462, -23866.563, -23866.563, 0.0, 4.9976864, 4.984766 
6.739498e+2, 3.170889e+2, -25389.78, -41142.105, -12.1409645, -0.000040333074, -0.0016403267, -25389.771, -25389.771, 0.0, 4.996483, 4.9862647 
6.8065697e+2, 1.2365188e+2, -1641508.3, -1730950.3, -116.63914, 0.0000529421, 0.0006366946, -1641508.1, 86703.42, 0.0, 5.0411544, 4.9825954 
6.806181e+2, 1.2863387e+2, -1597840.5, -1686970.3, -340.5291, 0.00007191312, -0.0028883377, -1597839.3, 81548.85, 0.0, 5.039925, 4.981607 
6.805782e+2, 1.3361503e+2, -1554744.5, -1644316.0, -1506.016, 0.00009460523, 0.0037068813, -1554719.1, 75853.484, 0.0, 5.0387206, 4.9800763 
6.805375e+2, 1.3859467e+2, -1510460.3, -1599240.4, -1670.2272, -0.000054423224, -0.0015726975, -1510428.9, 71343.48, 0.0, 5.0375123, 4.9794164 
6.8049616e+2, 1.435733e+2, -1467526.5, -1557132.0, -2586.771, 0.00021235223, 0.00014684047, -1467451.9, 65529.652, 0.0, 5.036331, 4.9777174 
6.804542e+2, 1.4855106e+2, -1422962.1, -1511665.8, -2746.6084, -0.00000010097439, -0.00087582786, -1422877.1, 61322.445, 0.0, 5.0351467, 4.9771585 
6.8041164e+2, 1.535275e+2, -1380045.3, -1469779.3, -3505.3257, 0.00007082938, 0.0013461111, -1379908.5, 55522.063, 0.0, 5.0339828, 4.975378 
6.8036854e+2, 1.5850276e+2, -1335327.8, -1424176.8, -3651.9292, 0.000054280325, -0.001327581, -1335178.0, 51495.03, 0.0, 5.032821, 4.9748316 
6.803249e+2, 1.6347684e+2, -1292425.8, -1382495.6, -4263.322, 0.00008073691, 0.0012446678, -1292224.5, 45702.547, 0.0, 5.0316734, 4.9729447 
6.802808e+2, 1.684497e+2, -1247503.8, -1336626.0, -4399.9404, 0.00003181144, -0.0011521459, -1247287.1, 41905.83, 0.0, 5.0305295, 4.9724536 
6.8023634e+2, 1.7342135e+2, -1204638.3, -1295193.0, -4885.112, 0.0000854901, 0.0011255544, -1204375.5, 36095.285, 0.0, 5.029396, 4.970444 
6.801915e+2, 1.7839174e+2, -1159540.9, -1249102.3, -4992.6997, 0.000087460576, -0.0011695903, -1159263.5, 32497.525, 0.0, 5.0282683, 4.9699955 
6.801463e+2, 1.8336092e+2, -1116693.3, -1207862.0, -5381.2305, 0.0000045747647, 0.0012633438, -1116376.8, 26686.43, 0.0, 5.0271444, 4.967889 
6.801009e+2, 1.8832873e+2, -1071445.5, -1161582.4, -5446.9077, 0.00009287625, -0.0012298982, -1071117.5, 23260.914, 0.0, 5.026028, 4.967474 
6.8005514e+2, 1.9329536e+2, -1028599.3, -1120504.1, -5751.897, 0.000027128346, 0.001321867, -1028240.75, 17464.777, 0.0, 5.0249143, 4.965274 
6.800093e+2, 1.9826058e+2, -983222.56, -1074056.1, -5783.236, 0.0001083608, -0.0012826634, -982855.8, 14190.599, 0.0, 5.023805, 4.9648886 
6.799631e+2, 2.0322461e+2, -940358.2, -1033081.06, -5997.825, -0.0000060964244, 0.0014037117, -939971.8, 8427.103, 0.0, 5.022697, 4.962622 
6.799169e+2, 2.0818715e+2, -894897.3, -986543.2, -6011.4365, 0.00008202211, -0.0013066325, -894504.7, 5261.2397, 0.0, 5.0215907, 4.962241 
6.7987067e+2, 2.1314853e+2, -851999.7, -945621.56, -6124.385, 0.000046175057, 0.0014535548, -851600.75, -456.2566, 0.0, 5.020484, 4.9599204 
6.798243e+2, 2.1810837e+2, -806461.94, -898982.1, -6130.9526, 0.000041413557, -0.0013881301, -806057.44, -3519.3364, 0.0, 5.019375, 4.959551 
6.797779e+2, 2.2306703e+2, -763543.75, -858131.06, -6121.07, 0.00006622777, 0.0015595219, -763149.3, -9206.223, 0.0, 5.0182667, 4.957172 
6.797315e+2, 2.2802415e+2, -717920.94, -811370.0, -6143.804, 0.000030778407, -0.0013779685, -717518.7, -12155.293, 0.0, 5.0171537, 4.956821 
6.7968524e+2, 2.3298006e+2, -675001.9, -770616.3, -6000.249, 0.000061906074, 0.0015918993, -674626.8, -17831.281, 0.0, 5.016041, 4.954377 
6.7963904e+2, 2.3793438e+2, -629265.8, -723662.0, -6040.928, 0.00003810536, -0.0016008758, -628880.8, -20637.74, 0.0, 5.0149217, 4.9540706 
6.7959297e+2, 2.4288753e+2, -586380.7, -683065.7, -5767.8945, 0.00005695097, 0.0018476318, -586037.8, -26335.533, 0.0, 5.0138, 4.9515367 
6.795471e+2, 2.4783906e+2, -540519.25, -635872.06, -5811.5103, 0.00002670225, -0.0016253599, -540166.4, -28989.105, 0.0, 5.012672, 4.9512925 
6.795014e+2, 2.5278935e+2, -497761.66, -595627.94, -5423.2813, 0.000049047965, 0.0017771998, -497462.03, -34797.555, 0.0, 5.011538, 4.9486074 
6.79456e+2, 2.5773805e+2, -451614.1, -547822.25, -5444.9365, 0.00007801586, -0.0016335656, -451306.94, -37139.95, 0.0, 5.0103993, 4.9485564 
6.794108e+2, 2.6268548e+2, -409109.84, -508222.6, -4938.397, 0.00003679567, 0.0017692425, -408864.4, -43182.11, 0.0, 5.009253, 4.945613 
6.793661e+2, 2.676314e+2, -362591.44, -459602.72, -4941.109, -0.000051088406, -0.001520408, -362340.4, -45128.055, 0.0, 5.0081034, 4.9458284 
6.7932165e+2, 2.7257589e+2, -320380.8, -420814.78, -4335.9346, 0.000105894615, 0.0017736945, -320193.97, -51437.555, 0.0, 5.006957, 4.9425554 
6.792777e+2, 2.7751893e+2, -273423.06, -371316.13, -4257.449, 0.0001256735, -0.0019117782, -273238.25, -52923.55, 0.0, 5.005817, 4.943052 
6.7923415e+2, 2.8246048e+2, -231613.27, -333583.0, -3551.9932, -0.000055441946, 0.0022778772, -231489.69, -59602.184, 0.0, 5.0046663, 4.939368 
6.791911e+2, 2.8740045e+2, -184354.69, -283410.78, -3459.7122, -0.000033075998, -0.0022971982, -184234.0, -60758.414, 0.0, 5.0035157, 4.940084 
6.7914844e+2, 2.9233888e+2, -142831.11, -246422.48, -2659.7568, 0.000058109454, 0.001889056, -142762.86, -67683.72, 0.0, 5.0023494, 4.9361 
6.791066e+2, 2.972759e+2, -95402.99, -195800.75, -2498.6174, 0.00018715429, -0.0006649879, -95340.84, -68644.6, 0.0, 5.0011754, 4.9369636 
6.7906505e+2, 3.0221996e+2, -57140.7, -133433.42, -1869.2463, -0.00006165715, 0.0019569423, -57094.93, -57094.93, 0.0, 4.999995, 4.951003 
6.790245e+2, 3.0717164e+2, -59079.016, -131894.27, -1611.693, -0.0002575886, -0.0048692436, -59043.363, -59043.363, 0.0, 4.9988275, 4.9520555 
6.789847e+2, 3.1214043e+2, -23980.756, -43891.73, -1076.0076, 0.00028259345, 0.004570539, -23922.775, -23922.775, 0.0, 4.9976444, 4.9847603 
6.789461e+2, 3.171259e+2, -25526.346, -41226.375, -733.6526, -0.00019181747, -0.0025369506, -25492.137, -25492.137, 0.0, 4.9964294, 4.9862614 
6.856984e+2, 1.2369077e+2, -1639238.1, -1729929.4, 448.1188, 0.000067449415, 0.0006202909, -1639235.9, 88594.59, 0.0, 5.041944, 4.9825435 
6.856583e+2, 1.2867269e+2, -1595693.8, -1686001.6, 240.3508, 0.000043430162, -0.0028997785, -1595693.1, 83314.48, 0.0, 5.0406723, 4.98156 
6.856171e+2, 1.336538e+2, -1552694.0, -1643376.0, -902.72974, 0.00015485114, 0.0037121184, -1552685.0, 77507.734, 0.0, 5.039431, 4.98004 
6.855752e+2, 1.3863337e+2, -1508529.9, -1598355.4, -1046.9532, -0.000042569944, -0.0015961074, -1508517.6, 72875.24, 0.0, 5.0381823, 4.979383 
6.855326e+2, 1.4361198e+2, -1465685.9, -1556271.1, -1935.8876, 0.0001977624, 0.00012719436, -1465644.6, 66958.04, 0.0, 5.036967, 4.977694 
6.854895e+2, 1.4858969e+2, -1421225.0, -1510854.3, -2079.5703, 0.000015757547, -0.00089079485, -1421176.8, 62644.242, 0.0, 5.035748, 4.9771366 
6.8544567e+2, 1.535661e+2, -1378393.0, -1468993.8, -2806.4995, 0.00009942388, 0.001328836, -1378306.1, 56746.152, 0.0, 5.0345526, 4.975364 
6.8540144e+2, 1.5854134e+2, -1333769.9, -1423438.1, -2939.989, 0.00006286697, -0.0013467917, -1333673.6, 52621.402, 0.0, 5.03336, 4.974818 
6.8535656e+2, 1.6351537e+2, -1290944.6, -1381782.4, -3519.9658, 0.00008994571, 0.001220582, -1290808.4, 46740.836, 0.0, 5.032184, 4.9729376 
6.853114e+2, 1.6848823e+2, -1246106.8, -1335957.3, -3645.2766, 0.000040457406, -0.0011768328, -1245959.1, 42856.23, 0.0, 5.0310135, 4.9724455 
6.852657e+2, 1.7345986e+2, -1203307.6, -1294547.0, -4100.2, 0.00010462625, 0.0011066647, -1203123.8, 36969.746, 0.0, 5.0298557, 4.970441 
6.8521976e+2, 1.7843021e+2, -1158284.6, -1248500.5, -4201.2783, 0.00009107132, -0.0012011348, -1158089.4, 33294.42, 0.0, 5.0287046, 4.96999 
6.851734e+2, 1.8339936e+2, -1115496.1, -1207281.6, -4561.645, 0.000021113605, 0.0012417352, -1115270.0, 27416.152, 0.0, 5.0275593, 4.967887 
6.851269e+2, 1.8836717e+2, -1070312.3, -1161038.9, -4621.154, 0.00010760048, -0.0012586956, -1070077.5, 23924.193, 0.0, 5.0264235, 4.96747 
6.8508e+2, 1.9333379e+2, -1027523.44, -1119986.8, -4903.7817, 0.000024566612, 0.0012946711, -1027264.06, 18064.873, 0.0, 5.02529, 4.965271 
6.85033e+2, 1.9829898e+2, -982198.75, -1073566.4, -4929.643, 0.00012261541, -0.001310082, -981933.56, 14736.534, 0.0, 5.0241637, 4.964885 
6.8498576e+2, 2.0326298e+2, -939395.44, -1032624.5, -5125.989, 0.0000035264777, 0.0013795567, -939114.44, 8908.319, 0.0, 5.023036, 4.9626174 
6.849385e+2, 2.0822552e+2, -893981.94, -986102.06, -5133.1685, 0.00009985196, -0.00134538, -893696.8, 5693.198, 0.0, 5.021912, 4.96224 
6.8489105e+2, 2.1318687e+2, -851148.1, -945218.75, -5234.776, 0.00004722336, 0.0014351279, -850857.7, -88.99383, 0.0, 5.020786, 4.9599156 
6.8484354e+2, 2.181467e+2, -805664.94, -898604.5, -5232.7153, 0.000054979704, -0.0014126999, -805371.25, -3208.752, 0.0, 5.0196576, 4.959547 
6.847961e+2, 2.2310534e+2, -762805.25, -857780.6, -5219.1045, 0.000081547674, 0.0015134619, -762519.3, -8951.587, 0.0, 5.0185304, 4.957168 
6.847486e+2, 2.2806242e+2, -717241.1, -811051.25, -5239.6084, 0.00003331274, -0.0014228073, -716949.4, -11961.081, 0.0, 5.0173974, 4.956816 
6.8470114e+2, 2.3301832e+2, -674385.3, -770327.1, -5093.7495, 0.0000780519, 0.0015762926, -674115.6, -17695.068, 0.0, 5.016263, 4.9543724 
6.846538e+2, 2.3797263e+2, -628714.25, -723402.1, -5135.295, 0.00006255394, -0.0016317228, -628436.56, -20568.229, 0.0, 5.015121, 4.9540668 
6.846066e+2, 2.4292575e+2, -585895.94, -682833.75, -4860.4155, 0.000059174447, 0.0018200347, -585652.9, -26325.145, 0.0, 5.013976, 4.9515347 
6.845596e+2, 2.4787726e+2, -540105.8, -635675.9, -4908.219, 0.000026710053, -0.0016590835, -539854.4, -29051.447, 0.0, 5.0128236, 4.9512897 
6.8451273e+2, 2.5282753e+2, -497413.3, -595455.0, -4522.2285, 0.000091289316, 0.00175908, -497205.16, -34914.83, 0.0, 5.011666, 4.9486074 
6.844662e+2, 2.5777623e+2, -451338.16, -547686.56, -4548.6753, 0.000105361214, -0.0016534718, -451123.88, -37330.86, 0.0, 5.010502, 4.9485545 
6.8441993e+2, 2.6272362e+2, -408908.6, -508104.13, -4052.204, 0.00003975393, 0.001760672, -408743.34, -43434.883, 0.0, 5.0093255, 4.9456186 
6.84374e+2, 2.6766953e+2, -362493.2, -459532.78, -4058.3882, -0.000049253336, -0.0015270407, -362323.78, -45485.1, 0.0, 5.0081396, 4.9458337 
6.8432844e+2, 2.72614e+2, -320348.5, -420701.75, -3459.1445, 0.00015794739, 0.0017670941, -320229.4, -51846.707, 0.0, 5.0069556, 4.942592 
6.8428326e+2, 2.7755708e+2, -273513.44, -371259.6, -3418.0215, 0.00015831445, -0.0019029311, -273394.06, -53453.3, 0.0, 5.0057716, 4.943088 
6.8423855e+2, 2.8249866e+2, -231729.97, -333424.8, -2703.8896, -0.000040415995, 0.002304355, -231658.14, -60145.004, 0.0, 5.0045896, 4.939454 
6.841943e+2, 2.8743872e+2, -184522.3, -283271.9, -2580.5903, -0.0000096809135, -0.0023163357, -184454.9, -61354.332, 0.0, 5.00342, 4.9401717 
6.841506e+2, 2.923772e+2, -143067.97, -246317.63, -1783.997, 0.00009359134, 0.0019029696, -143037.14, -68333.72, 0.0, 5.0022306, 4.936186 
6.841074e+2, 2.9731435e+2, -95720.87, -195728.67, -1635.0289, 0.00022565878, -0.000521364, -95694.14, -69374.39, 0.0, 5.001026, 4.9370503 
6.8406475e+2, 3.0225846e+2, -57518.387, -133406.1, -1008.1433, -0.000027323416, 0.002009539, -57504.996, -57504.996, 0.0, 4.9998274, 4.9510813 
6.840231e+2, 3.0721012e+2, -59478.965, -131869.92, -745.50494, -0.00026188558, -0.0052008657, -59471.29, -59471.29, 0.0, 4.9986506, 4.952136 
6.839821e+2, 3.1217903e+2, -24493.252, -44104.668, -264.3516, 0.00036714954, 0.00489528, -24489.69, -24489.69, 0.0, 4.9974623, 4.984755 
6.839423e+2, 3.171646e+2, -26035.088, -41446.8, 40.149563, -0.00003647337, -0.00031276248, -26034.982, -26034.982, 0.0, 4.99625, 4.986253 
6.9074017e+2, 1.23730555e+2, -1639396.6, -1730157.5, -48.13706, 0.000089255635, 0.0006209777, -1639396.6, 88043.96, 0.0, 5.0419183, 4.9824834 
6.9069874e+2, 1.2871242e+2, -1595852.0, -1686215.6, -249.70425, -0.000036138317, -0.0028873468, -1595851.3, 82767.086, 0.0, 5.0406437, 4.9815063 
6.906563e+2, 1.3369349e+2, -1552845.3, -1643559.1, -1386.6976, 0.0001908446, 0.0037424236, -1552824.1, 76979.805, 0.0, 5.0393987, 4.9799976 
6.906132e+2, 1.3867301e+2, -1508678.4, -1598529.5, -1527.1532, -0.000054751777, -0.0016004905, -1508652.4, 72352.24, 0.0, 5.0381494, 4.979344 
6.905694e+2, 1.4365156e+2, -1465819.4, -1556411.5, -2408.3298, 0.00014757832, 0.0001377596, -1465755.5, 66459.2, 0.0, 5.0369334, 4.977666 
6.905251e+2, 1.4862926e+2, -1421354.8, -1510987.4, -2555.5183, -0.000013372398, -0.0008642069, -1421281.9, 62151.418, 0.0, 5.035714, 4.977111 
6.9048005e+2, 1.5360563e+2, -1378510.9, -1469104.9, -3273.6646, 0.000096108626, 0.0013592023, -1378392.6, 56272.17, 0.0, 5.0345197, 4.975345 
6.904346e+2, 1.5858084e+2, -1333881.9, -1423543.3, -3414.2615, 0.00003889212, -0.0013177692, -1333752.1, 52155.69, 0.0, 5.033328, 4.9748 
6.9038856e+2, 1.6355488e+2, -1291045.8, -1381870.3, -3986.0645, 0.000058428952, 0.0012438927, -1290871.1, 46291.11, 0.0, 5.0321536, 4.9729247 
6.9034225e+2, 1.6852771e+2, -1246204.8, -1336044.5, -4120.8335, 0.000012262589, -0.0011511345, -1246016.1, 42412.414, 0.0, 5.030984, 4.9724326 
6.9029534e+2, 1.7349932e+2, -1203397.5, -1294620.9, -4568.0093, 0.000093710216, 0.0011500986, -1203169.3, 36537.43, 0.0, 5.029827, 4.970432 
6.902483e+2, 1.7846969e+2, -1158375.6, -1248581.0, -4682.556, 0.0000584987, -0.0011686307, -1158133.3, 32863.973, 0.0, 5.028677, 4.9699783 
6.9020075e+2, 1.8343881e+2, -1115581.0, -1207352.1, -5036.001, 0.0000011587449, 0.0012829184, -1115305.5, 26994.17, 0.0, 5.027532, 4.967878 
6.9015306e+2, 1.884066e+2, -1070399.9, -1161116.4, -5109.7285, 0.00009351757, -0.0012247236, -1070113.0, 23502.363, 0.0, 5.0263963, 4.9674587 
6.901051e+2, 1.933732e+2, -1027611.5, -1120063.8, -5389.224, -0.000005921205, 0.001340498, -1027298.44, 17644.303, 0.0, 5.0252624, 4.96526 
6.900569e+2, 1.9833837e+2, -982288.0, -1073643.8, -5429.11, 0.000105234256, -0.0012653986, -981966.5, 14317.511, 0.0, 5.0241356, 4.9648743 
6.900086e+2, 2.0330237e+2, -939488.8, -1032710.75, -5627.5938, -0.000018773273, 0.0014221688, -939150.3, 8486.462, 0.0, 5.0230074, 4.962603 
6.899601e+2, 2.0826487e+2, -894073.44, -986183.2, -5646.578, 0.0000844023, -0.0013121828, -893728.6, 5275.6045, 0.0, 5.021883, 4.962228 
6.899116e+2, 2.1322623e+2, -851239.8, -945303.5, -5756.0366, 0.000019847734, 0.0014941868, -850888.94, -505.8732, 0.0, 5.020757, 4.9599023 
6.8986297e+2, 2.1818604e+2, -805760.6, -898698.94, -5760.617, 0.000039068414, -0.0013540381, -805404.94, -3627.9834, 0.0, 5.019629, 4.9595304 
6.898144e+2, 2.2314467e+2, -762892.25, -857863.5, -5759.5576, 0.000065497006, 0.001558843, -762544.25, -9361.862, 0.0, 5.018503, 4.957155 
6.8976575e+2, 2.2810173e+2, -717332.56, -811150.25, -5787.892, 0.00000710127, -0.0013747788, -716976.8, -12373.689, 0.0, 5.017371, 4.956797 
6.8971723e+2, 2.330576e+2, -674467.0, -770416.2, -5652.8604, 0.00006923555, 0.0016417678, -674135.1, -18099.54, 0.0, 5.016239, 4.9543557 
6.896687e+2, 2.3801188e+2, -628791.44, -723489.4, -5705.3765, 0.000063074775, -0.0015820956, -628448.94, -20965.361, 0.0, 5.0150986, 4.95405 
6.896204e+2, 2.42965e+2, -585966.0, -682917.94, -5441.7427, 0.00003055074, 0.0018732878, -585661.5, -26718.357, 0.0, 5.013956, 4.951518 
6.895722e+2, 2.4791649e+2, -540168.8, -635758.9, -5501.2295, -0.000016359678, -0.0016159111, -539853.25, -29434.654, 0.0, 5.0128064, 4.951272 
6.8952423e+2, 2.5286672e+2, -497465.3, -595528.0, -5127.2163, 0.00010174171, 0.0018162588, -497197.97, -35291.85, 0.0, 5.011651, 4.9485917 
6.894765e+2, 2.5781542e+2, -451387.6, -547761.8, -5164.9785, 0.000102886486, -0.0016140419, -451111.56, -37702.55, 0.0, 5.010489, 4.948538 
6.8942904e+2, 2.627628e+2, -408943.0, -508157.06, -4690.419, 0.0000042654615, 0.0017982887, -408721.75, -43797.125, 0.0, 5.0093145, 4.9456086 
6.893819e+2, 2.677087e+2, -362521.0, -459584.1, -4709.9316, -0.0000818349, -0.001500234, -362293.0, -45838.047, 0.0, 5.008131, 4.9458227 
6.8933517e+2, 2.7265316e+2, -320360.75, -420703.16, -4120.0454, 0.00016168688, 0.0017967015, -320191.84, -52192.86, 0.0, 5.0069437, 4.9426007 
6.8928885e+2, 2.7759624e+2, -273551.75, -371274.25, -4099.2393, 0.00013283326, -0.0018759898, -273380.1, -53823.11, 0.0, 5.0057507, 4.943096 
6.892429e+2, 2.8253788e+2, -231721.7, -333254.03, -3392.435, -0.000073268944, 0.0023297574, -231608.48, -60479.527, 0.0, 5.004553, 4.9395347 
6.891976e+2, 2.87478e+2, -184568.48, -283120.13, -3289.79, -0.000032491935, -0.0023344085, -184458.78, -61743.133, 0.0, 5.0033627, 4.9402547 
6.891526e+2, 2.9241657e+2, -143139.56, -246206.06, -2513.3809, 0.00007675067, 0.0019083872, -143078.3, -68760.57, 0.0, 5.002169, 4.9362564 
6.8910825e+2, 2.9735377e+2, -95764.41, -195604.64, -2345.7598, 0.00020256446, -0.00041276801, -95709.32, -69776.05, 0.0, 5.0009747, 4.9371214 
6.890644e+2, 3.0229795e+2, -57562.855, -133304.2, -1693.8256, -0.00004620284, 0.0020143443, -57524.992, -57524.992, 0.0, 4.9997797, 4.951143 
6.890215e+2, 3.0724964e+2, -59527.883, -131761.45, -1439.7319, -0.00031024052, -0.005628246, -59499.2, -59499.2, 0.0, 4.9985995, 4.952202 
6.889794e+2, 3.1221864e+2, -24642.332, -44255.15, -971.8408, 0.00033451887, 0.0052224128, -24594.295, -24594.295, 0.0, 4.997415, 4.984725 
6.8893844e+2, 3.1720445e+2, -26187.008, -41601.313, -664.6525, -0.00011733936, 0.0024097955, -26158.402, -26158.402, 0.0, 4.9962025, 4.9862213 
6.957823e+2, 1.2377201e+2, -1637126.9, -1729106.1, 534.1193, 0.00010481191, 0.00058860076, -1637123.8, 89910.5, 0.0, 5.042702, 4.9824443 
6.9573957e+2, 1.2875381e+2, -1593708.6, -1685212.6, 353.42615, -0.00009499571, -0.0028632171, -1593707.3, 84505.3, 0.0, 5.041383, 4.981475 
6.956959e+2, 1.3373485e+2, -1550803.3, -1642595.0, -757.8726, 0.00026171887, 0.003755928, -1550797.0, 78601.53, 0.0, 5.040101, 4.979973 
6.956515e+2, 1.3871433e+2, -1506754.0, -1597615.1, -873.9446, -0.000028610799, -0.0016277139, -1506745.5, 73854.12, 0.0, 5.038811, 4.979324 
6.9560647e+2, 1.4369285e+2, -1463988.5, -1555528.0, -1722.7701, 0.00011471608, 0.000101425554, -1463956.1, 67853.88, 0.0, 5.037561, 4.977654 
6.955609e+2, 1.4867052e+2, -1419625.8, -1510149.8, -1851.8915, -0.0000017222853, -0.00087048486, -1419587.9, 63441.04, 0.0, 5.0363073, 4.977102 
6.955146e+2, 1.5364687e+2, -1376867.8, -1468300.5, -2534.1563, 0.00013727752, 0.0013513959, -1376797.5, 57463.16, 0.0, 5.0350823, 4.975341 
6.9546795e+2, 1.5862206e+2, -1332327.5, -1422779.3, -2658.7578, 0.000049940674, -0.0013407269, -1332249.4, 53254.41, 0.0, 5.0338607, 4.974798 
6.9542074e+2, 1.6359608e+2, -1289566.4, -1381138.4, -3195.483, 0.000062631116, 0.0012158471, -1289455.0, 47303.477, 0.0, 5.03266, 4.9729257 
6.9537324e+2, 1.685689e+2, -1244802.3, -1335352.3, -3317.5005, 0.000017964741, -0.001180286, -1244680.9, 43344.02, 0.0, 5.0314655, 4.972433 
6.953252e+2, 1.7354049e+2, -1202061.6, -1293956.4, -3731.7627, 0.00011715113, 0.0011308206, -1201910.3, 37392.97, 0.0, 5.030286, 4.970435 
6.952769e+2, 1.7851083e+2, -1157106.9, -1247953.9, -3837.8123, 0.00006599699, -0.0011943574, -1156945.1, 33648.824, 0.0, 5.0291142, 4.9699802 
6.952283e+2, 1.8347995e+2, -1114365.5, -1206750.8, -4160.2856, 0.0000013867077, 0.0012511493, -1114178.5, 27718.031, 0.0, 5.027952, 4.9678807 
6.9517946e+2, 1.8844773e+2, -1069240.5, -1160548.5, -4229.148, 0.000102415055, -0.0012606017, -1069045.0, 24167.37, 0.0, 5.0267987, 4.9674597 
6.951303e+2, 1.934143e+2, -1026508.1, -1119526.8, -4481.495, 0.0000075314438, 0.0013233722, -1026292.7, 18247.209, 0.0, 5.0256467, 4.965259 
6.9508106e+2, 1.9837946e+2, -981227.5, -1073126.9, -4517.4365, 0.00011841495, -0.0012908399, -981006.0, 14875.381, 0.0, 5.0245056, 4.9648743 
6.950316e+2, 2.0334345e+2, -938488.3, -1032232.3, -4695.103, -0.000016297203, 0.0013805709, -938253.75, 8980.616, 0.0, 5.0233593, 4.9625993 
6.9498193e+2, 2.0830593e+2, -893117.0, -985722.94, -4707.199, 0.00009999379, -0.0013459716, -892878.4, 5723.6294, 0.0, 5.0222197, 4.9622264 
6.949322e+2, 2.1326725e+2, -850336.25, -944873.5, -4805.5386, 0.0000303699, 0.0014688596, -850092.56, -111.55286, 0.0, 5.0210776, 4.9598985 
6.948825e+2, 2.1822703e+2, -804907.6, -898299.9, -4802.674, 0.00005524805, -0.0013911809, -804661.3, -3286.1309, 0.0, 5.0199337, 4.9595237 
6.9483274e+2, 2.2318564e+2, -762090.0, -857483.1, -4798.1274, 0.000074865886, 0.0015220004, -761849.3, -9068.506, 0.0, 5.01879, 4.957151 
6.94783e+2, 2.2814266e+2, -716587.5, -810805.25, -4819.87, 0.000011916907, -0.0014050126, -716341.56, -12139.704, 0.0, 5.01764, 4.9567895 
6.947333e+2, 2.3309852e+2, -673779.75, -770098.1, -4682.8633, 0.000090886984, 0.0016076583, -673552.56, -17918.03, 0.0, 5.016489, 4.954348 
6.946837e+2, 2.3805279e+2, -628165.6, -723201.4, -4736.4927, 0.00008245715, -0.0016190103, -627930.1, -20847.307, 0.0, 5.0153275, 4.9540424 
6.946342e+2, 2.4300586e+2, -585404.8, -682657.8, -4473.4966, 0.000044933342, 0.0018453615, -585199.5, -26656.838, 0.0, 5.0141625, 4.951511 
6.9458485e+2, 2.4795732e+2, -539673.1, -635533.9, -4535.8105, -0.000016092274, -0.001648267, -539459.0, -29440.604, 0.0, 5.012991, 4.9512634 
6.9453573e+2, 2.5290754e+2, -497034.7, -595330.44, -4167.3667, 0.00013480506, 0.0018047458, -496858.3, -35352.145, 0.0, 5.0118127, 4.9485846 
6.944868e+2, 2.578562e+2, -451030.88, -547600.0, -4211.2563, 0.00012535408, -0.0016260705, -450847.6, -37838.215, 0.0, 5.0106244, 4.9485297 
6.9443816e+2, 2.6280355e+2, -408651.22, -508026.38, -3747.6135, 0.000017566039, 0.0017771822, -408510.1, -43984.848, 0.0, 5.0094275, 4.9455996 
6.943898e+2, 2.6774943e+2, -362296.06, -459486.72, -3779.1345, -0.000063326304, -0.0015035203, -362149.3, -46093.473, 0.0, 5.0082207, 4.945813 
6.943419e+2, 2.7269387e+2, -320220.38, -420636.13, -3211.8096, 0.00020264807, 0.0018090507, -320117.75, -52517.59, 0.0, 5.007002, 4.9425945 
6.942944e+2, 2.7763692e+2, -273528.38, -371256.78, -3218.9158, 0.0001486828, -0.0019174947, -273422.47, -54264.004, 0.0, 5.005766, 4.9430914 
6.942472e+2, 2.8257856e+2, -231774.05, -333133.4, -2540.125, -0.000039409988, 0.0023211474, -231710.42, -60980.09, 0.0, 5.0045147, 4.93959 
6.9420063e+2, 2.8751874e+2, -184795.63, -283073.13, -2468.5588, 0.000008417612, -0.0021754536, -184733.67, -62417.145, 0.0, 5.00326, 4.940312 
6.941545e+2, 2.9245737e+2, -143341.05, -245934.5, -1647.1277, 0.00010695448, 0.0019573837, -143314.61, -69396.71, 0.0, 5.002035, 4.9364066 
6.9410896e+2, 2.9739466e+2, -95958.72, -195327.81, -1439.3799, 0.00020153233, -0.0008216228, -95937.87, -70405.28, 0.0, 5.0008435, 4.937272 
6.940639e+2, 3.0233896e+2, -57882.88, -133296.3, -785.6075, -0.0000032979258, 0.001983744, -57874.695, -57874.695, 0.0, 4.9996433, 4.9511995 
6.940199e+2, 3.072908e+2, -59897.984, -131771.58, -559.9007, -0.00022102598, -0.004347481, -59893.62, -59893.62, 0.0, 4.998444, 4.95226 
6.939765e+2, 3.122596e+2, -25054.39, -44363.895, -113.18977, 0.0003706197, 0.004361717, -25053.727, -25053.727, 0.0, 4.997259, 4.9847465 
6.939343e+2, 3.1724477e+2, -26487.793, -41657.22, 199.96675, -0.000089021545, -0.004683435, -26485.158, -26485.158, 0.0, 4.9960866, 4.9862447 
7.0082486e+2, 1.23814404e+2, -1637302.8, -1729317.0, 23.609549, 0.000110961875, 0.0005878373, -1637302.8, 89316.03, 0.0, 5.042664, 4.982396 
7.0078075e+2, 1.2879618e+2, -1593882.6, -1685404.4, -145.827, -0.00015311138, -0.00283554, -1593882.4, 83915.21, 0.0, 5.041342, 4.9814343 
7.007358e+2, 1.3377714e+2, -1550969.0, -1642757.9, -1249.2953, 0.0003161269, 0.003788398, -1550952.0, 78031.914, 0.0, 5.040058, 4.9799423 
7.0069015e+2, 1.3875659e+2, -1506906.8, -1597759.1, -1359.7902, -0.00005226359, -0.0016190379, -1506886.4, 73299.016, 0.0, 5.0387692, 4.9792986 
7.006438e+2, 1.4373511e+2, -1464127.9, -1555648.4, -2199.5557, 0.00003997478, 0.000104404855, -1464075.0, 67320.94, 0.0, 5.03752, 4.9776363 
7.005969e+2, 1.4871274e+2, -1419757.0, -1510257.5, -2331.5635, -0.000026138156, -0.0008372775, -1419696.9, 62918.19, 0.0, 5.036267, 4.977088 
7.005495e+2, 1.5368909e+2, -1376987.1, -1468390.5, -3003.5098, 0.00014008825, 0.0013901426, -1376888.6, 56958.445, 0.0, 5.0350437, 4.9753313 
7.0050156e+2, 1.5866426e+2, -1332436.3, -1422858.4, -3134.8484, 0.000014892575, -0.0013136101, -1332327.6, 52762.637, 0.0, 5.0338244, 4.9747915 
7.0045316e+2, 1.6363828e+2, -1289666.8, -1381208.3, -3662.2825, 0.000027854516, 0.0012483443, -1289520.5, 46824.53, 0.0, 5.0326257, 4.972921 
7.004044e+2, 1.6861106e+2, -1244897.9, -1335420.0, -3794.9297, -0.000014695117, -0.001146092, -1244739.1, 42872.42, 0.0, 5.0314326, 4.972429 
7.0035523e+2, 1.7358266e+2, -1202151.5, -1294018.9, -4200.477, 0.00010280733, 0.0011763863, -1201959.9, 36930.12, 0.0, 5.0302544, 4.970432 
7.0030576e+2, 1.78553e+2, -1157194.0, -1248016.4, -4319.152, 0.00004860776, -0.0011493397, -1156989.1, 33191.605, 0.0, 5.029084, 4.969976 
7.00256e+2, 1.835221e+2, -1114452.3, -1206815.3, -4634.7603, -0.000032353157, 0.0012886354, -1114220.3, 27263.115, 0.0, 5.027922, 4.9678755 
7.00206e+2, 1.8848987e+2, -1069328.3, -1160617.5, -4720.412, 0.000071982235, -0.0012283523, -1069084.8, 23714.531, 0.0, 5.026769, 4.9674525 
7.001557e+2, 1.9345644e+2, -1026599.25, -1119603.5, -4966.7915, -0.0000070608708, 0.0013849323, -1026334.75, 17792.186, 0.0, 5.0256176, 4.965249 
7.001053e+2, 1.9842158e+2, -981316.75, -1073200.0, -5019.9805, 0.00009728871, -0.0012368561, -981043.3, 14425.208, 0.0, 5.024476, 4.9648657 
7.0005465e+2, 2.0338555e+2, -938583.75, -1032320.25, -5198.9, -0.0000505745, 0.001412047, -938296.3, 8525.404, 0.0, 5.02333, 4.962586 
7.000039e+2, 2.0834802e+2, -893209.9, -985804.6, -5223.5176, 0.000078941186, -0.0012922684, -892916.1, 5273.3237, 0.0, 5.02219, 4.9622145 
6.999531e+2, 2.1330933e+2, -850433.9, -944970.25, -5331.486, 0.0000067538354, 0.001530871, -850134.2, -565.5069, 0.0, 5.0210485, 4.9598813 
6.999022e+2, 2.182691e+2, -805005.1, -898398.3, -5337.136, 0.00003683775, -0.0013457625, -804701.06, -3738.0786, 0.0, 5.0199046, 4.959506 
6.9985133e+2, 2.2322768e+2, -762185.75, -857586.3, -5346.53, 0.000049314076, 0.0015760234, -761887.06, -9518.249, 0.0, 5.018762, 4.9571314 
6.998004e+2, 2.2818469e+2, -716684.8, -810916.7, -5375.0527, -0.000012268467, -0.0013457879, -716379.2, -12589.076, 0.0, 5.0176134, 4.9567666 
6.997496e+2, 2.3314051e+2, -673867.44, -770200.06, -5252.402, 0.00008055712, 0.0016557906, -673581.9, -18358.842, 0.0, 5.0164647, 4.954327 
6.9969875e+2, 2.3809475e+2, -628249.3, -723306.8, -5316.9937, 0.00005715266, -0.001565188, -627952.8, -21281.22, 0.0, 5.0153055, 4.9540195 
6.9964814e+2, 2.430478e+2, -585480.7, -682763.4, -5063.042, 0.000026338803, 0.0019101202, -585217.94, -27086.258, 0.0, 5.014144, 4.9514866 
6.995976e+2, 2.4799922e+2, -539741.4, -635637.94, -5136.943, -0.00004180189, -0.0016094026, -539467.0, -29859.297, 0.0, 5.0129747, 4.951238 
6.995473e+2, 2.5294945e+2, -497092.06, -595430.2, -4780.8154, 0.0001329591, 0.0018512694, -496860.2, -35764.457, 0.0, 5.0118003, 4.9485593 
6.9949716e+2, 2.5789803e+2, -451079.78, -547697.0, -4836.2847, 0.0001062797, -0.0015758778, -450838.3, -38239.082, 0.0, 5.0106153, 4.9485044 
6.994474e+2, 2.6284537e+2, -408690.4, -508123.28, -4387.42, -0.000012641363, 0.001809912, -408497.2, -44381.797, 0.0, 5.009423, 4.945572 
6.993978e+2, 2.677912e+2, -362327.0, -459583.13, -4431.236, -0.0000853049, -0.0014777724, -362125.53, -46479.21, 0.0, 5.0082192, 4.945784 
6.993487e+2, 2.7273563e+2, -320245.16, -420737.25, -3885.8682, 0.00019057085, 0.0018532228, -320095.13, -52904.188, 0.0, 5.0070033, 4.9425626 
6.9929993e+2, 2.776786e+2, -273541.66, -371348.16, -3909.5603, 0.0001069003, -0.0019210649, -273385.63, -54636.0, 0.0, 5.0057707, 4.943062 
6.9925153e+2, 2.8262028e+2, -231728.58, -333082.53, -3266.393, -0.0000623643, 0.0023269106, -231623.42, -61301.87, 0.0, 5.0045176, 4.9396114 
6.9920367e+2, 2.875605e+2, -184764.63, -283025.13, -3228.115, 0.0000032891485, -0.0020286872, -184658.69, -62751.29, 0.0, 5.0032573, 4.9403353 
6.991562e+2, 2.9249918e+2, -143292.31, -245606.55, -2400.5383, 0.00008543861, 0.0019929477, -143236.02, -69727.92, 0.0, 5.0019855, 4.936549 
6.9910955e+2, 2.9743657e+2, -96140.83, -195099.0, -2231.8853, 0.00013112054, -0.001297839, -96090.516, -70968.63, 0.0, 5.0007095, 4.937416 
6.9906336e+2, 3.02381e+2, -58209.453, -133363.2, -1538.1243, -0.000025237554, 0.0019276635, -58177.984, -58177.984, 0.0, 4.9995003, 4.951242 
6.990181e+2, 3.0733305e+2, -60044.516, -131756.31, -1231.2263, -0.00018738353, -0.0028986484, -60023.383, -60023.383, 0.0, 4.998366, 4.9523044 
6.989736e+2, 3.123016e+2, -25062.703, -44395.938, -746.1306, 0.00025806384, 0.0031751927, -25033.951, -25033.951, 0.0, 4.9972515, 4.9847436 
6.9893026e+2, 3.17286e+2, -26318.498, -41598.26, -505.98987, -0.00041074766, -0.013601624, -26301.762, -26301.762, 0.0, 4.996142, 4.9862485 
7.058676e+2, 1.23858534e+2, -1635040.4, -1728233.4, 625.0709, 0.000103082515, 0.00056341564, -1635036.3, 91150.12, 0.0, 5.043439, 4.9823713 
7.058222e+2, 1.2884025e+2, -1591753.9, -1684370.1, 481.27322, -0.00017874515, -0.0028322106, -1591751.4, 85614.04, 0.0, 5.0420685, 4.9814186 
7.05776e+2, 1.3382122e+2, -1548942.9, -1641767.4, -591.4431, 0.00040018294, 0.0037622096, -1548939.1, 79613.03, 0.0, 5.0407486, 4.9799323 
7.05729e+2, 1.3880064e+2, -1504996.5, -1596814.0, -674.44745, -0.000038671176, -0.001642558, -1504991.5, 74762.35, 0.0, 5.0394197, 4.979295 
7.056814e+2, 1.4377911e+2, -1462316.4, -1554745.5, -1477.62, -0.000004636605, 0.00008582192, -1462292.8, 68671.92, 0.0, 5.038135, 4.977637 
7.056333e+2, 1.4875674e+2, -1418042.3, -1509394.5, -1588.1029, 0.0000023761215, -0.0008577578, -1418014.6, 64169.32, 0.0, 5.036849, 4.9770927 
7.055845e+2, 1.5373306e+2, -1375359.3, -1467566.5, -2219.2703, 0.00018376338, 0.0013655028, -1375305.9, 58110.05, 0.0, 5.035596, 4.975339 
7.055355e+2, 1.5870823e+2, -1330890.3, -1422069.8, -2332.787, 0.000009892903, -0.0013385755, -1330830.6, 53828.723, 0.0, 5.0343485, 4.974802 
7.0548576e+2, 1.6368224e+2, -1288196.5, -1380459.3, -2822.2183, 0.000037749607, 0.001225283, -1288110.3, 47803.9, 0.0, 5.033125, 4.972931 
7.054359e+2, 1.6865502e+2, -1243495.9, -1334702.6, -2939.6433, 0.000004594376, -0.0011676081, -1243401.3, 43779.504, 0.0, 5.0319095, 4.9724402 
7.053855e+2, 1.736266e+2, -1200809.8, -1293336.3, -3308.3474, 0.00010612795, 0.0011385871, -1200691.6, 37767.68, 0.0, 5.0307126, 4.9704413 
7.0533484e+2, 1.7859693e+2, -1155908.8, -1247363.1, -3417.7383, 0.000051213712, -0.0011849581, -1155781.3, 33968.934, 0.0, 5.029524, 4.969986 
7.052839e+2, 1.8356602e+2, -1113223.4, -1206196.5, -3699.6653, -0.000012550336, 0.0012735747, -1113076.4, 27976.566, 0.0, 5.028345, 4.9678826 
7.0523274e+2, 1.8853378e+2, -1068141.9, -1160021.0, -3781.3115, 0.00008029525, -0.0012622409, -1067986.5, 24382.55, 0.0, 5.027179, 4.9674597 
7.0518124e+2, 1.9350034e+2, -1025465.7, -1119044.4, -3996.3394, -0.0000009558985, 0.0013457368, -1025295.3, 18401.53, 0.0, 5.026012, 4.965251 
7.051297e+2, 1.9846545e+2, -980222.2, -1072658.1, -4046.8518, 0.000112395675, -0.001261576, -980045.4, 14993.235, 0.0, 5.0248575, 4.964869 
7.050779e+2, 2.034294e+2, -937540.3, -1031818.9, -4203.094, -0.00004530848, 0.0013741301, -937353.3, 9038.666, 0.0, 5.0236974, 4.962582 
7.0502603e+2, 2.0839185e+2, -892200.3, -985314.1, -4222.19, 0.00009200958, -0.0013239842, -892009.25, 5750.7524, 0.0, 5.0225453, 4.962214 
7.0497406e+2, 2.1335313e+2, -849479.94, -944521.56, -4317.264, 0.000017358847, 0.0014996594, -849284.25, -144.85909, 0.0, 5.0213885, 4.959874 
7.04922e+2, 2.1831286e+2, -804086.56, -897962.4, -4316.278, 0.00005221571, -0.0013751709, -803888.56, -3354.5332, 0.0, 5.020232, 4.9595013 
7.048699e+2, 2.2327144e+2, -761323.4, -857190.56, -4320.4883, 0.000060271756, 0.0015423866, -761129.0, -9188.96, 0.0, 5.019074, 4.9571204 
7.048179e+2, 2.282284e+2, -715862.4, -810526.94, -4344.8955, -0.0000033599888, -0.0013675621, -715663.4, -12301.641, 0.0, 5.0179095, 4.956762 
7.0476586e+2, 2.331842e+2, -673112.44, -769861.75, -4217.14, 0.00010397901, 0.0016056811, -672929.0, -18134.002, 0.0, 5.016742, 4.9543133 
7.0471394e+2, 2.381384e+2, -627544.9, -722987.8, -4285.134, 0.00006308409, -0.0016054404, -627352.9, -21109.072, 0.0, 5.015565, 4.9540076 
7.046621e+2, 2.4309142e+2, -584837.25, -682472.4, -4030.838, 0.000044100645, 0.0019019091, -584671.1, -26966.943, 0.0, 5.0143833, 4.9514747 
7.046104e+2, 2.4804282e+2, -539159.9, -635377.3, -4109.1074, -0.00002998853, -0.0016367703, -538984.7, -29804.092, 0.0, 5.0131927, 4.9512258 
7.045589e+2, 2.5299296e+2, -496569.28, -595198.56, -3757.4028, 0.00015829787, 0.0018039199, -496426.34, -35757.34, 0.0, 5.0119987, 4.948546 
7.0450765e+2, 2.5794154e+2, -450623.78, -547496.6, -3821.2666, 0.00012441131, -0.0015808212, -450473.28, -38300.477, 0.0, 5.0107903, 4.9484916 
7.044566e+2, 2.6288885e+2, -408297.75, -507959.56, -3378.5515, 0.0000048840748, 0.0018022323, -408183.34, -44493.984, 0.0, 5.009577, 4.945556 
7.044059e+2, 2.6783463e+2, -361989.56, -459445.16, -3432.0957, -0.000062684536, -0.0015559905, -361868.84, -46648.117, 0.0, 5.008353, 4.9457684 
7.043555e+2, 2.7277902e+2, -319977.97, -420653.8, -2904.0767, 0.00022977804, 0.0018557406, -319894.25, -53128.55, 0.0, 5.0071173, 4.942537 
7.0430547e+2, 2.7772197e+2, -273332.56, -371290.56, -2946.5837, 0.00013720278, -0.0017433908, -273244.03, -54919.313, 0.0, 5.0058637, 4.9430366 
7.042558e+2, 2.8266355e+2, -231616.38, -333112.3, -2361.6807, -0.000032779168, 0.0023168519, -231561.45, -61664.063, 0.0, 5.0045843, 4.9395666 
7.042067e+2, 2.8760365e+2, -184746.69, -283088.97, -2392.5588, 0.000029906574, -0.002487973, -184688.52, -63204.17, 0.0, 5.0032887, 4.940294 
7.0415795e+2, 2.925424e+2, -143477.94, -245523.34, -1724.9572, 0.00012243897, 0.0020492962, -143448.8, -70364.16, 0.0, 5.001898, 4.936611 
7.0410985e+2, 2.9747996e+2, -96865.43, -195245.08, -1636.8488, 0.00018624337, 0.000048161928, -96838.2, -72141.5, 0.0, 5.0004234, 4.9374814 
7.040624e+2, 3.024244e+2, -58733.242, -132884.48, -623.2755, 0.000041332532, 0.0019903628, -58728.004, -58728.004, 0.0, 4.999183, 4.9515452 
7.040161e+2, 3.0737635e+2, -60185.19, -131102.23, -141.78506, -0.0001975792, -0.00670909, -60184.906, -60184.906, 0.0, 4.9981875, 4.9526114 
7.0397055e+2, 3.1234568e+2, -25348.193, -44904.58, 384.21338, 0.00034277982, 0.0065629575, -25340.646, -25340.646, 0.0, 4.9972324, 4.984558 
7.039264e+2, 3.1733182e+2, -26041.355, -41880.625, 434.96176, 0.0002034494, 0.009176948, -26029.42, -26029.42, 0.0, 4.9963336, 4.9860563 
7.109109e+2, 1.2390365e+2, -1635243.1, -1728424.9, 99.98979, 0.000114017894, 0.00057234423, -1635243.0, 90501.27, 0.0, 5.0433846, 4.982338 
7.1086407e+2, 1.2888533e+2, -1591947.8, -1684536.3, -28.511055, -0.0002606318, -0.0027849555, -1591947.8, 84976.01, 0.0, 5.0420127, 4.981394 
7.108165e+2, 1.3386625e+2, -1549121.5, -1641907.9, -1090.389, 0.0004362822, 0.0037832698, -1549108.6, 79002.0, 0.0, 5.040694, 4.979915 
7.1076816e+2, 1.3884564e+2, -1505155.6, -1596930.6, -1167.6371, -0.00005524595, -0.0016219403, -1505140.8, 74171.9, 0.0, 5.0393686, 4.979284 
7.107193e+2, 1.4382413e+2, -1462462.1, -1554839.4, -1958.6328, -0.00008397041, 0.00012315583, -1462420.5, 68102.984, 0.0, 5.0380855, 4.977632 
7.106699e+2, 1.4880174e+2, -1418172.8, -1509470.1, -2071.6348, -0.000025138575, -0.00081941613, -1418125.9, 63617.12, 0.0, 5.036802, 4.977093 
7.106199e+2, 1.5377806e+2, -1375479.4, -1467633.8, -2689.4526, 0.00018096287, 0.0014045367, -1375401.0, 57574.02, 0.0, 5.035552, 4.9753404 
7.105695e+2, 1.5875322e+2, -1330997.4, -1422123.1, -2809.969, -0.00003510573, -0.0013030815, -1330910.9, 53307.59, 0.0, 5.0343075, 4.974807 
7.1051866e+2, 1.6372724e+2, -1288298.0, -1380511.8, -3288.348, 0.000006654173, 0.0012683558, -1288180.9, 47292.258, 0.0, 5.0330863, 4.9729347 
7.104675e+2, 1.6870002e+2, -1243586.9, -1334744.9, -3415.7463, -0.000011458811, -0.001113577, -1243459.1, 43280.723, 0.0, 5.031873, 4.9724464 
7.104159e+2, 1.736716e+2, -1200900.8, -1293387.1, -3775.708, 0.00006726581, 0.0011692047, -1200746.9, 37271.496, 0.0, 5.0306783, 4.9704437 
7.1036416e+2, 1.7864192e+2, -1155995.5, -1247412.6, -3899.8696, 0.000007952968, -0.001152807, -1155829.5, 33479.75, 0.0, 5.029491, 4.969988 
7.1031195e+2, 1.8361102e+2, -1113314.1, -1206257.8, -4171.767, -0.000020240645, 0.0013473931, -1113127.3, 27484.832, 0.0, 5.028313, 4.96788 
7.102596e+2, 1.8857877e+2, -1068228.3, -1160078.1, -4271.919, 0.000055490975, -0.0012085899, -1068030.0, 23898.295, 0.0, 5.0271473, 4.9674582 
7.10207e+2, 1.935453e+2, -1025558.75, -1119120.5, -4481.11, -0.000039766557, 0.0013787255, -1025344.6, 17911.541, 0.0, 5.0259814, 4.9652424 
7.101543e+2, 1.9851042e+2, -980312.1, -1072729.3, -4550.341, 0.00009139414, -0.0012053736, -980088.6, 14509.358, 0.0, 5.024827, 4.964862 
7.101013e+2, 2.0347434e+2, -937639.7, -1031913.75, -4708.0137, -0.00007401129, 0.0014274672, -937405.1, 8546.378, 0.0, 5.0236673, 4.962567 
7.1004826e+2, 2.0843679e+2, -892294.2, -985399.1, -4742.749, 0.00006755908, -0.0012706233, -892053.2, 5266.5044, 0.0, 5.0225153, 4.962202 
7.0999515e+2, 2.1339804e+2, -849583.4, -944632.25, -4846.46, -0.0000091376805, 0.0015464814, -849336.9, -637.6134, 0.0, 5.0213594, 4.9598527 
7.09942e+2, 2.1835776e+2, -804182.44, -898059.8, -4856.599, 0.00002817353, -0.0013241769, -803931.9, -3837.7246, 0.0, 5.0202036, 4.959484 
7.0988876e+2, 2.233163e+2, -761427.75, -857313.44, -4872.819, 0.000039606337, 0.0015888229, -761180.75, -9680.309, 0.0, 5.0190463, 4.9570947 
7.098355e+2, 2.2827324e+2, -715961.2, -810642.9, -4908.7983, -0.00003188087, -0.0012964662, -715707.4, -12785.0, 0.0, 5.017883, 4.956738 
7.0978236e+2, 2.3322901e+2, -673209.5, -769986.0, -4793.8115, 0.00008857842, 0.0016467932, -672972.6, -18616.707, 0.0, 5.016718, 4.954285 
7.097292e+2, 2.3818317e+2, -627636.9, -723111.1, -4872.406, 0.000036053683, -0.0015708946, -627388.9, -21583.77, 0.0, 5.0155425, 4.953979 
7.096762e+2, 2.4313615e+2, -584925.3, -682603.4, -4631.127, 0.000033132852, 0.0019738043, -584706.25, -27440.46, 0.0, 5.014364, 4.951442 
7.096233e+2, 2.4808751e+2, -539238.2, -635501.56, -4718.668, -0.000052682793, -0.0015750653, -539007.44, -30264.922, 0.0, 5.0131764, 4.951194 
7.095707e+2, 2.5303763e+2, -496637.9, -595322.8, -4378.0693, 0.00013576796, 0.0018314422, -496444.06, -36212.74, 0.0, 5.0119863, 4.9485126 
7.0951813e+2, 2.579862e+2, -450681.3, -547615.6, -4453.875, 0.00009687632, -0.0015264375, -450477.1, -38741.633, 0.0, 5.0107813, 4.9484587 
7.094659e+2, 2.6293343e+2, -408348.2, -508081.78, -4020.1248, -0.000005568111, 0.001853719, -408186.4, -44933.99, 0.0, 5.0095716, 4.9455204 
7.0941395e+2, 2.678792e+2, -362030.8, -459562.2, -4082.9536, -0.00008530789, -0.0015837607, -361860.2, -47075.96, 0.0, 5.008351, 4.945733 
7.093624e+2, 2.728235e+2, -320013.56, -420796.6, -3570.206, 0.00019664875, 0.0019005686, -319887.25, -53557.684, 0.0, 5.007122, 4.9424896 
7.0931107e+2, 2.7776644e+2, -273343.0, -371425.0, -3620.488, 0.00010841373, -0.0015598774, -273209.53, -55320.59, 0.0, 5.0058775, 4.9429884 
7.092601e+2, 2.8270793e+2, -231640.69, -333342.22, -3058.5571, -0.000058306534, 0.0022950668, -231548.8, -62086.242, 0.0, 5.0046105, 4.9394794 
7.092098e+2, 2.876479e+2, -184730.03, -283295.3, -3091.0095, -0.0000067985047, -0.0029738462, -184633.19, -63582.336, 0.0, 5.003328, 4.940209 
7.091596e+2, 2.9258662e+2, -143246.7, -245452.64, -2585.906, 0.00008952714, 0.0021330416, -143181.33, -70530.26, 0.0, 5.001979, 4.936606 
7.0911e+2, 2.9752433e+2, -96451.63, -195087.19, -2575.501, 0.00018537209, 0.0015441979, -96384.43, -72122.65, 0.0, 5.00057, 4.9374795 
7.090613e+2, 3.024688e+2, -58420.844, -132049.92, -1390.4285, 0.00002144227, 0.0019625563, -58394.594, -58394.594, 0.0, 4.999153, 4.9518647 
7.0901406e+2, 3.074206e+2, -60972.25, -130738.5, -1135.1144, -0.00031707634, -0.011318456, -60953.785, -60953.785, 0.0, 4.997753, 4.952935 
7.0896757e+2, 3.1239086e+2, -26536.715, -45969.67, -370.20944, 0.0003158341, 0.010972187, -26529.666, -26529.666, 0.0, 4.99689, 4.9843206 
7.089226e+2, 3.173792e+2, -25693.967, -42287.16, -12.686242, 0.00062854646, 0.037767157, -25693.957, -25693.957, 0.0, 4.996559, 4.9858165 
7.159544e+2, 1.2395055e+2, -1633000.0, -1727307.8, 719.2611, 0.00012273058, 0.00052897795, -1632994.5, 92290.11, 0.0, 5.044144, 4.9823318 
7.159062e+2, 1.2893221e+2, -1589839.0, -1683471.3, 626.8207, -0.000307725, -0.0027542822, -1589834.8, 86629.56, 0.0, 5.042725, 4.9813952 
7.158573e+2, 1.3391311e+2, -1547121.4, -1640893.0, -400.57654, 0.0004970494, 0.0037591283, -1547119.8, 80531.73, 0.0, 5.041369, 4.9799204 
7.158076e+2, 1.3889249e+2, -1503271.4, -1595962.6, -448.17816, -0.0000187951, -0.0016615293, -1503269.3, 75584.38, 0.0, 5.0400033, 4.979295 
7.1575737e+2, 1.4387096e+2, -1460679.9, -1553914.0, -1195.6144, -0.00012488727, 0.0000924704, -1460664.6, 69399.92, 0.0, 5.0386844, 4.977648 
7.157067e+2, 1.4884858e+2, -1416482.9, -1508581.0, -1284.5493, -0.000010900681, -0.0008357757, -1416465.0, 64818.96, 0.0, 5.0373683, 4.977114 
7.1565545e+2, 1.5382491e+2, -1373875.1, -1466793.4, -1857.4733, 0.00022849687, 0.0013854217, -1373838.0, 58677.992, 0.0, 5.0360913, 4.9753594 
7.156038e+2, 1.5880007e+2, -1329465.9, -1421309.6, -1957.8138, -0.000025196152, -0.0013285594, -1329424.3, 54335.24, 0.0, 5.034821, 4.9748306 
7.155517e+2, 1.6377406e+2, -1286839.0, -1379745.0, -2393.3972, 0.000010889148, 0.0012248744, -1286777.4, 48236.887, 0.0, 5.0335784, 4.9729543 
7.1549934e+2, 1.6874686e+2, -1242186.8, -1334002.8, -2503.657, 0.000004400158, -0.0011438248, -1242118.6, 44162.3, 0.0, 5.032345, 4.9724684 
7.1544653e+2, 1.7371842e+2, -1199559.8, -1292686.4, -2824.2937, 0.000083088555, 0.0011484724, -1199474.3, 38085.242, 0.0, 5.031133, 4.970461 
7.1539354e+2, 1.7868873e+2, -1154696.5, -1246732.3, -2939.049, 0.000011716812, -0.0011921399, -1154602.8, 34247.625, 0.0, 5.0299325, 4.970006 
7.1534014e+2, 1.8365784e+2, -1112068.1, -1205620.4, -3173.3958, -0.0000014309699, 0.0013151832, -1111960.6, 28192.771, 0.0, 5.028741, 4.9678907 
7.152867e+2, 1.8862556e+2, -1067016.1, -1159453.9, -3269.6704, 0.00006528331, -0.0012415374, -1066900.6, 24568.953, 0.0, 5.027563, 4.967471 
7.1523285e+2, 1.9359209e+2, -1024394.1, -1118541.5, -3446.914, -0.000043078293, 0.0013347652, -1024268.1, 18529.543, 0.0, 5.0263867, 4.9652457 
7.15179e+2, 1.9855717e+2, -979175.0, -1072159.3, -3514.0696, 0.00010198048, -0.0012376871, -979042.4, 15097.344, 0.0, 5.0252223, 4.964868 
7.151249e+2, 2.0352109e+2, -936552.9, -1031391.9, -3646.5452, -0.000056272766, 0.0013909247, -936412.9, 9080.588, 0.0, 5.0240517, 4.962562 
7.1507066e+2, 2.0848349e+2, -891230.9, -984880.6, -3677.8704, 0.00008092979, -0.0012955875, -891086.6, 5775.247, 0.0, 5.02289, 4.9622016 
7.150164e+2, 2.1344474e+2, -848570.56, -944158.6, -3766.2087, 0.0000025170489, 0.0015002534, -848422.4, -180.62537, 0.0, 5.021722, 4.959843 
7.1496207e+2, 2.184044e+2, -803201.44, -897599.56, -3771.4482, 0.000036922254, -0.0013527339, -803051.0, -3414.1064, 0.0, 5.0205555, 4.959476 
7.1490765e+2, 2.2336291e+2, -760495.0, -856880.75, -3780.9507, 0.000058575144, 0.0015486453, -760346.94, -9303.373, 0.0, 5.0193844, 4.9570837 
7.148532e+2, 2.2831982e+2, -715077.4, -810249.4, -3812.4365, -0.000019821058, -0.001316967, -714924.9, -12459.092, 0.0, 5.018207, 4.956721 
7.147989e+2, 2.3327555e+2, -672364.4, -769594.4, -3696.2053, 0.00010380749, 0.0016090083, -672224.06, -18324.281, 0.0, 5.0170274, 4.954274 
7.1474457e+2, 2.3822968e+2, -626848.9, -722762.0, -3776.487, 0.000044919885, -0.0016063413, -626700.44, -21351.053, 0.0, 5.015835, 4.953962 
7.1469045e+2, 2.4318263e+2, -584190.56, -682275.4, -3541.6384, 0.00006152325, 0.001944419, -584062.9, -27252.438, 0.0, 5.014639, 4.951425 
7.1463627e+2, 2.4813394e+2, -538563.9, -635201.6, -3631.6165, -0.000032409625, -0.0015817055, -538427.56, -30140.004, 0.0, 5.01343, 4.951178 
7.1458244e+2, 2.53084e+2, -496024.9, -595050.1, -3292.4417, 0.00016015707, 0.0017989432, -495915.56, -36138.773, 0.0, 5.0122194, 4.9484973 
7.1452874e+2, 2.5803253e+2, -450131.94, -547372.6, -3377.521, 0.00009844423, -0.0015881944, -450014.78, -38733.406, 0.0, 5.010992, 4.9484434 
7.144753e+2, 2.6297975e+2, -407860.1, -507866.0, -2946.4485, 0.000029098703, 0.0018537928, -407773.34, -44974.695, 0.0, 5.009761, 4.9455056 
7.144221e+2, 2.6792544e+2, -361601.66, -459370.34, -3017.8862, -0.000034629542, -0.0014346165, -361508.6, -47177.86, 0.0, 5.0085187, 4.94572 
7.1436924e+2, 2.7286977e+2, -319626.34, -420632.63, -2502.2637, 0.0002120141, 0.0018707826, -319564.38, -53687.734, 0.0, 5.0072765, 4.9424734 
7.143168e+2, 2.778126e+2, -272981.34, -371274.0, -2557.3848, 0.00010309586, -0.002070743, -272914.84, -55477.96, 0.0, 5.006023, 4.9429717 
7.142646e+2, 2.8275406e+2, -231319.22, -333282.72, -1999.4954, -0.00000032812054, 0.0023665992, -231280.03, -62269.51, 0.0, 5.004756, 4.93943 
7.142129e+2, 2.876941e+2, -184397.02, -283239.4, -2030.6799, 0.000074530384, -0.0014843099, -184355.31, -63757.137, 0.0, 5.0034795, 4.9401565 
7.141615e+2, 2.9263255e+2, -142907.94, -245727.31, -1634.3892, 0.00010341032, 0.0020477602, -142881.97, -70680.53, 0.0, 5.0021973, 4.9364066 
7.141106e+2, 2.9756957e+2, -95765.24, -195194.58, -1802.1205, 0.00011372867, -0.0027191695, -95732.59, -71914.2, 0.0, 5.000912, 4.9372864 
7.1406025e+2, 3.025142e+2, -59010.176, -133041.2, -1506.2876, 0.000076436896, 0.0019949318, -58979.54, -58979.54, 0.0, 4.999092, 4.951527 
7.1401095e+2, 3.074669e+2, -64125.7, -132827.95, -1792.7183, 0.00002567153, 0.0010639797, -64078.95, -64078.95, 0.0, 4.99675, 4.9526067 
7.1396375e+2, 3.124349e+2, -27861.13, -44926.56, 1059.0834, 0.00022441555, -0.0008584367, -27795.654, -27795.654, 0.0, 4.9961004, 4.9850373 
7.139192e+2, 3.1741774e+2, -22959.023, -39464.926, 2159.672, -0.0005720178, -0.035825495, -22681.125, -22681.125, 0.0, 4.9972615, 4.9865484 
7.209983e+2, 1.23998456e+2, -1633232.1, -1727473.6, 176.75008, 0.00012813769, 0.0005352232, -1633231.8, 91583.33, 0.0, 5.0440707, 4.982316 
7.209487e+2, 1.2898012e+2, -1590050.3, -1683613.1, 105.10183, -0.00036333906, -0.0026932724, -1590050.1, 85944.78, 0.0, 5.0426555, 4.981385 
7.208984e+2, 1.33961e+2, -1547313.9, -1641002.0, -909.48865, 0.000508968, 0.003794222, -1547305.1, 79877.04, 0.0, 5.0413017, 4.97992 
7.2084737e+2, 1.3894036e+2, -1503442.1, -1596049.9, -950.5433, -0.000038407965, -0.0016457718, -1503432.4, 74952.03, 0.0, 5.039941, 4.979299 
7.2079575e+2, 1.4391886e+2, -1460831.8, -1553981.1, -1679.3634, -0.00020930392, 0.00012427839, -1460801.5, 68793.75, 0.0, 5.0386257, 4.977657 
7.2074383e+2, 1.4889647e+2, -1416613.4, -1508624.9, -1770.8191, -0.0000452354, -0.00078899297, -1416579.3, 64235.363, 0.0, 5.0373144, 4.9771285 
7.2069126e+2, 1.538728e+2, -1373997.1, -1466835.6, -2328.2273, 0.00022716085, 0.0014377648, -1373938.8, 58107.82, 0.0, 5.036041, 4.975373 
7.206384e+2, 1.5884796e+2, -1329570.0, -1421332.6, -2434.033, -0.00006530476, -0.0012753415, -1329505.5, 53784.453, 0.0, 5.0347743, 4.9748483 
7.2058505e+2, 1.6382198e+2, -1286940.0, -1379778.6, -2857.2336, -0.000038868733, 0.0012550498, -1286852.1, 47692.52, 0.0, 5.0335355, 4.9729667 
7.205314e+2, 1.6879477e+2, -1242275.5, -1334024.5, -2978.8252, -0.00003193633, -0.001103335, -1242178.9, 43632.32, 0.0, 5.032305, 4.972483 
7.204774e+2, 1.7376636e+2, -1199652.5, -1292725.9, -3287.6838, 0.000057962945, 0.0012189538, -1199536.5, 37553.24, 0.0, 5.0310955, 4.970469 
7.204232e+2, 1.7873667e+2, -1154780.9, -1246765.9, -3418.1558, -0.000022835138, -0.0011455418, -1154654.0, 33726.67, 0.0, 5.0298967, 4.9700146 
7.2036856e+2, 1.8370576e+2, -1112160.4, -1205677.9, -3642.626, -0.000026311685, 0.0013615505, -1112018.8, 27664.885, 0.0, 5.028707, 4.9678903 
7.2031397e+2, 1.8867348e+2, -1067101.8, -1159502.9, -3758.3806, 0.00003992137, -0.0011859343, -1066949.1, 24050.842, 0.0, 5.02753, 4.9674735 
7.2025895e+2, 1.9364e+2, -1024492.44, -1118622.3, -3929.8325, -0.000078555844, 0.0013881347, -1024328.6, 17999.451, 0.0, 5.0263543, 4.965236 
7.2020394e+2, 1.9860509e+2, -979265.8, -1072229.0, -4017.471, 0.00006956242, -0.0011807434, -979092.5, 14577.763, 0.0, 5.025191, 4.964862 
7.201486e+2, 2.0356897e+2, -936656.9, -1031497.44, -4150.276, -0.000077373836, 0.0014406553, -936475.6, 8548.533, 0.0, 5.024021, 4.962543 
7.200933e+2, 2.0853135e+2, -891326.0, -984970.94, -4199.617, 0.00004923349, -0.0012327872, -891138.0, 5254.7856, 0.0, 5.0228605, 4.9621873 
7.200378e+2, 2.1349257e+2, -848678.25, -944282.1, -4296.714, -0.000027647964, 0.0015373218, -848485.56, -712.6435, 0.0, 5.021693, 4.9598174 
7.199823e+2, 2.1845223e+2, -803306.56, -897720.9, -4314.271, 0.0000042406236, -0.0012900771, -803109.8, -3941.4644, 0.0, 5.0205274, 4.9594507 
7.199268e+2, 2.2341071e+2, -760599.06, -857007.9, -4339.309, 0.000037220187, 0.0015930309, -760404.2, -9828.906, 0.0, 5.019357, 4.957056 
7.1987116e+2, 2.2836758e+2, -715185.0, -810389.25, -4380.321, -0.00004514038, -0.001270084, -714983.94, -12986.036, 0.0, 5.018181, 4.9566884 
7.198157e+2, 2.3332326e+2, -672469.3, -769738.56, -4281.3716, 0.00008172917, 0.0016476442, -672281.25, -18849.045, 0.0, 5.017003, 4.9542394 
7.197601e+2, 2.3827735e+2, -626953.75, -722915.8, -4372.4824, 0.000012015875, -0.0015484251, -626754.9, -21872.717, 0.0, 5.0158124, 4.9539227 
7.1970475e+2, 2.4323025e+2, -584285.2, -682423.3, -4150.3535, 0.00004084799, 0.0019893895, -584110.0, -27766.334, 0.0, 5.0146194, 4.951387 
7.1964943e+2, 2.4818152e+2, -538649.6, -635343.44, -4253.0063, -0.000059490347, -0.0015278459, -538462.9, -30641.666, 0.0, 5.0134134, 4.9511404 
7.1959436e+2, 2.5313157e+2, -496104.0, -595191.1, -3924.2832, 0.00014657389, 0.001837917, -495948.8, -36637.953, 0.0, 5.012205, 4.948459 
7.195394e+2, 2.5808e+2, -450202.94, -547507.0, -4022.0652, 0.000059257447, -0.0015904874, -450036.97, -39221.063, 0.0, 5.01098, 4.9484067 
7.1948475e+2, 2.630272e+2, -407924.56, -507997.75, -3597.7075, 0.000012012723, 0.0018981033, -407795.38, -45461.844, 0.0, 5.009751, 4.9454694 
7.194304e+2, 2.679729e+2, -361659.9, -459493.7, -3675.362, -0.000029640356, -0.0012625819, -361522.03, -47656.156, 0.0, 5.0085096, 4.945687 
7.1937627e+2, 2.7291712e+2, -319686.88, -420758.47, -3159.5808, 0.00016572194, 0.0018677928, -319588.22, -54175.832, 0.0, 5.0072665, 4.942439 
7.193225e+2, 2.7785987e+2, -273053.3, -371405.56, -3219.2192, 0.000028048771, -0.0025406624, -272948.06, -55974.61, 0.0, 5.0060086, 4.9429374 
7.1926904e+2, 2.8280133e+2, -231418.25, -333481.3, -2649.0066, -0.0000021254807, 0.0024864387, -231349.55, -62802.543, 0.0, 5.004742, 4.9393716 
7.192161e+2, 2.8774145e+2, -184497.14, -283461.4, -2647.5598, 0.000110113586, 0.00002975521, -184426.36, -64292.445, 0.0, 5.0034695, 4.940088 
7.191634e+2, 2.9267958e+2, -143211.7, -246476.7, -2155.7866, 0.000039938124, 0.0018579476, -143166.72, -71426.14, 0.0, 5.002197, 4.936146 
7.191112e+2, 2.976159e+2, -96039.07, -195938.2, -2198.8962, -0.000095237476, -0.0073499605, -95990.695, -72626.195, 0.0, 5.000923, 4.9370213 
7.190591e+2, 3.025606e+2, -59379.48, -134428.75, -2477.8035, 0.00004043142, 0.002271827, -59297.76, -59297.76, 0.0, 4.999183, 4.9509935 
7.190075e+2, 3.0751416e+2, -64079.55, -134036.23, -2528.7322, 0.00042224608, 0.01541726, -63988.26, -63988.26, 0.0, 4.9969935, 4.9520726 
7.189596e+2, 3.124793e+2, -26775.492, -43160.9, 1842.1897, -0.00015935779, -0.0157662, -26570.93, -26570.93, 0.0, 4.996236, 4.9856367 
7.1891606e+2, 3.174553e+2, -22976.992, -38109.46, 578.2956, -0.003135494, -0.12532113, -22954.926, -22954.926, 0.0, 4.9969773, 4.9871774 
7.260425e+2, 1.24048226e+2, -1631014.6, -1726319.9, 821.72473, 0.00012079469, 0.00049186527, -1631007.6, 93319.79, 0.0, 5.0448127, 4.9823294 
7.2599137e+2, 1.2902987e+2, -1587984.9, -1682530.5, 787.50464, -0.000349339, -0.0026893024, -1587978.4, 87528.875, 0.0, 5.0433464, 4.9814024 
7.2593975e+2, 1.3401078e+2, -1545355.6, -1639959.9, -185.38533, 0.0005209315, 0.003762546, -1545355.3, 81339.195, 0.0, 5.0419536, 4.9799447 
7.2588736e+2, 1.3899013e+2, -1501591.6, -1595049.3, -196.1482, -0.000013821995, -0.001677671, -1501591.1, 76305.57, 0.0, 5.0405545, 4.9793305 
7.258344e+2, 1.4396863e+2, -1459088.5, -1553038.0, -871.73126, -0.00021628066, 0.00008484681, -1459080.4, 70027.15, 0.0, 5.0392046, 4.9776883 
7.2578114e+2, 1.4894624e+2, -1414956.9, -1507714.8, -935.4054, -0.000015654376, -0.00081765454, -1414947.5, 65379.336, 0.0, 5.0378623, 4.977165 
7.257273e+2, 1.5392259e+2, -1372425.0, -1465975.9, -1443.4648, 0.00025344957, 0.0014050798, -1372402.8, 59155.86, 0.0, 5.0365634, 4.9754057 
7.256731e+2, 1.5889777e+2, -1328062.3, -1420496.5, -1526.5902, -0.00006911767, -0.0013079153, -1328037.1, 54764.836, 0.0, 5.0352736, 4.974886 
7.256185e+2, 1.638718e+2, -1285500.4, -1378994.6, -1902.8883, -0.00001570744, 0.0012219276, -1285461.8, 48594.83, 0.0, 5.0340166, 4.9729967 
7.2556365e+2, 1.688446e+2, -1240880.5, -1333258.1, -2006.2738, -0.000006953605, -0.0011454262, -1240837.0, 44486.105, 0.0, 5.0327706, 4.9725165 
7.2550845e+2, 1.7381617e+2, -1198313.9, -1292009.3, -2272.437, 0.000053016174, 0.0011922958, -1198258.9, 38342.68, 0.0, 5.0315475, 4.9704924 
7.25453e+2, 1.7878649e+2, -1153471.8, -1246058.3, -2393.748, -0.00002027449, -0.0011772783, -1153409.9, 34482.535, 0.0, 5.030339, 4.9700418 
7.253972e+2, 1.8375558e+2, -1110896.5, -1205019.5, -2578.104, -0.0000064078513, 0.0013155283, -1110825.9, 28369.574, 0.0, 5.02914, 4.9679055 
7.253414e+2, 1.8872328e+2, -1065858.6, -1158850.8, -2688.7922, 0.0000555705, -0.001221441, -1065781.0, 24730.908, 0.0, 5.027956, 4.967491 
7.2528523e+2, 1.936898e+2, -1023296.56, -1118023.0, -2826.4893, -0.00006920735, 0.0013620943, -1023212.3, 18627.873, 0.0, 5.026771, 4.9652405 
7.25229e+2, 1.9865485e+2, -978083.9, -1071628.5, -2913.4468, 0.000080084814, -0.0012165653, -977993.25, 15189.333, 0.0, 5.025602, 4.964871 
7.251725e+2, 2.0361872e+2, -935521.3, -1030953.06, -3019.5898, -0.00005496442, 0.001385295, -935425.9, 9110.808, 0.0, 5.0244246, 4.962537 
7.25116e+2, 2.0858108e+2, -890204.3, -984423.5, -3066.7163, 0.000056625053, -0.0012597938, -890104.56, 5801.029, 0.0, 5.0232573, 4.9621863 
7.250594e+2, 2.1354225e+2, -847606.0, -943788.7, -3149.5835, -0.000008202585, 0.0014983271, -847502.94, -216.90904, 0.0, 5.022081, 4.9598026 
7.250027e+2, 2.1850187e+2, -802250.2, -897219.25, -3162.9875, 0.000023664226, -0.0012953703, -802144.94, -3463.0996, 0.0, 5.0209064, 4.959444 
7.2494596e+2, 2.234603e+2, -759595.8, -856563.44, -3188.4585, 0.000050145514, 0.0015498041, -759491.1, -9401.904, 0.0, 5.0197263, 4.957034 
7.2488916e+2, 2.2841713e+2, -714209.9, -809944.7, -3220.8867, -0.000027578528, -0.001311198, -714101.6, -12589.372, 0.0, 5.018538, 4.9566727 
7.2483253e+2, 2.3337278e+2, -671547.94, -769336.94, -3129.1565, 0.00010657823, 0.0016356277, -671447.9, -18500.906, 0.0, 5.0173464, 4.954215 
7.2477573e+2, 2.3832682e+2, -626067.9, -722522.0, -3219.784, 0.000020693096, -0.0015274731, -625960.5, -21563.023, 0.0, 5.0161424, 4.953903 
7.247192e+2, 2.4327967e+2, -583458.06, -682069.8, -2996.2236, 0.000069332535, 0.0019188407, -583367.1, -27507.629, 0.0, 5.0149326, 4.9513607 
7.2466266e+2, 2.4823086e+2, -537880.56, -635012.1, -3109.2004, -0.000048048027, -0.0016252933, -537781.1, -30443.521, 0.0, 5.0137057, 4.951117 
7.246064e+2, 2.531809e+2, -495400.56, -594883.4, -2790.5298, 0.00017191516, 0.0018550297, -495322.34, -36494.73, 0.0, 5.012474, 4.948438 
7.2455025e+2, 2.581293e+2, -449560.63, -547218.7, -2898.9731, 0.00006648397, -0.0014012334, -449474.66, -39141.7, 0.0, 5.0112257, 4.94839 
7.2449434e+2, 2.6307642e+2, -407342.2, -507720.4, -2477.491, 0.00003949016, 0.0017981688, -407281.1, -45429.8, 0.0, 5.009973, 4.945461 
7.2443867e+2, 2.68022e+2, -361143.0, -459238.16, -2561.8655, 0.000033468983, -0.001934274, -361076.13, -47691.6, 0.0, 5.008707, 4.9456825 
7.243833e+2, 2.729663e+2, -319241.88, -420514.5, -2044.5416, 0.0001720837, 0.002044839, -319200.6, -54270.11, 0.0, 5.007434, 4.942444 
7.243282e+2, 2.7790922e+2, -272690.97, -371183.94, -2107.0708, 0.000021803005, -0.0006005144, -272645.94, -56155.883, 0.0, 5.0061436, 4.9429493 
7.2427356e+2, 2.8285047e+2, -231044.77, -333121.44, -1485.2043, 0.00006596526, 0.0021076836, -231023.16, -62957.43, 0.0, 5.004855, 4.9394417 
7.242194e+2, 2.8779006e+2, -184159.89, -283111.34, -1415.6605, 0.000269729, -0.00569756, -184139.66, -64482.17, 0.0, 5.003568, 4.9401608 
7.241653e+2, 2.927289e+2, -142759.06, -245851.1, -702.57245, 0.0000423604, 0.0025818506, -142754.27, -71497.4, 0.0, 5.0022936, 4.9363174 
7.2411186e+2, 2.9766697e+2, -95566.4, -195306.95, -468.41577, -0.00045639713, 0.009264889, -95564.2, -72700.33, 0.0, 5.0010285, 4.937193 
7.2405815e+2, 3.026101e+2, -58324.24, -133304.84, -813.63885, 0.000098738965, 0.0012416235, -58315.41, -58315.41, 0.0, 4.999456, 4.9512734 
7.240047e+2, 3.075592e+2, -62185.17, -132663.83, -234.58614, 0.0017447531, -0.032370917, -62184.39, -62184.39, 0.0, 4.997595, 4.952301 
7.239557e+2, 3.1253082e+2, -34198.234, -62090.12, 2925.8958, -0.0015315501, 0.036278233, -33894.61, -33894.61, 0.0, 4.996567, 4.97854 
7.2391266e+2, 3.1752637e+2, -30453.178, -52569.11, -4290.811, -0.0008940458, 0.19193162, -29649.877, -29649.877, 0.0, 4.996418, 4.9820943 
7.3108697e+2, 1.2409905e+2, -1631276.8, -1726457.4, 261.19147, 0.00007986892, 0.0005238342, -1631276.1, 92553.19, 0.0, 5.044719, 4.9823337 
7.3103446e+2, 1.290807e+2, -1588232.3, -1682654.3, 250.68817, -0.00034455446, -0.0026246163, -1588231.6, 86777.58, 0.0, 5.0432563, 4.9814086 
7.309814e+2, 1.340616e+2, -1545563.8, -1640037.6, -700.6595, 0.00045815916, 0.0038073608, -1545558.6, 80637.76, 0.0, 5.0418715, 4.979962 
7.309276e+2, 1.3904098e+2, -1501767.1, -1595096.8, -709.772, -0.000041805295, -0.0016295756, -1501761.8, 75636.72, 0.0, 5.0404806, 4.979354 
7.3087335e+2, 1.4401948e+2, -1459249.6, -1553074.4, -1359.809, -0.00026050958, 0.00012578836, -1459230.0, 69379.12, 0.0, 5.039135, 4.9777126 
7.308187e+2, 1.4899713e+2, -1415090.8, -1507725.1, -1423.6847, -0.000049511134, -0.0007591559, -1415068.9, 64759.332, 0.0, 5.0377994, 4.977195 
7.3076355e+2, 1.5397349e+2, -1372547.1, -1465990.0, -1912.8527, 0.00021612596, 0.001459867, -1372508.0, 58551.805, 0.0, 5.0365067, 4.9754314 
7.3070806e+2, 1.5894869e+2, -1328163.6, -1420490.6, -2002.5383, -0.00012066939, -0.0012596849, -1328120.3, 54182.65, 0.0, 5.035222, 4.974916 
7.306522e+2, 1.6392273e+2, -1285601.4, -1379006.3, -2361.901, -0.00003887378, 0.001280444, -1285541.8, 48015.598, 0.0, 5.033969, 4.973019 
7.305961e+2, 1.6889556e+2, -1240966.1, -1333258.5, -2477.1096, -0.000032453496, -0.0011043483, -1240899.8, 43923.953, 0.0, 5.0327272, 4.9725404 
7.305396e+2, 1.7386715e+2, -1198408.3, -1292038.5, -2729.3362, 0.0000030259257, 0.0012486491, -1198328.8, 37773.18, 0.0, 5.0315065, 4.9705057 
7.3048306e+2, 1.7883746e+2, -1153554.3, -1246072.5, -2866.9219, -0.00005503352, -0.0011155438, -1153465.5, 33927.414, 0.0, 5.0302997, 4.970059 
7.30426e+2, 1.8380655e+2, -1110993.1, -1205075.0, -3040.7039, -0.00002848742, 0.0013555556, -1110895.0, 27800.94, 0.0, 5.029103, 4.9679074 
7.3036903e+2, 1.8877426e+2, -1065945.5, -1158895.6, -3172.4585, 0.000020059118, -0.0011774279, -1065837.4, 24175.023, 0.0, 5.0279207, 4.967496 
7.3031163e+2, 1.9374077e+2, -1023398.4, -1118109.5, -3303.78, -0.00010903691, 0.0014362916, -1023283.3, 18057.354, 0.0, 5.026738, 4.96523 
7.302543e+2, 1.987058e+2, -978172.56, -1071697.5, -3413.5613, 0.000041892286, -0.0011553399, -978048.2, 14635.051, 0.0, 5.0255704, 4.964865 
7.3019665e+2, 2.0366965e+2, -935627.56, -1031069.25, -3520.5725, -0.00007814233, 0.0014197727, -935497.9, 8539.625, 0.0, 5.024395, 4.962514 
7.3013896e+2, 2.0863199e+2, -890300.25, -984523.4, -3586.9648, 0.000013615721, -0.00120179, -890163.9, 5242.805, 0.0, 5.0232286, 4.9621687 
7.3008114e+2, 2.1359314e+2, -847720.56, -943938.5, -3679.0225, -0.000031604053, 0.0015428623, -847580.06, -792.6483, 0.0, 5.022054, 4.9597673 
7.3002326e+2, 2.1855271e+2, -802349.9, -897341.0, -3704.278, -0.000003908397, -0.0012310501, -802205.7, -4022.0647, 0.0, 5.02088, 4.9594173 
7.299653e+2, 2.2351111e+2, -759715.0, -856735.3, -3751.0261, 0.000010600511, 0.0015602862, -759570.2, -9978.815, 0.0, 5.0197015, 4.9569902 
7.299074e+2, 2.284679e+2, -714315.7, -810092.4, -3787.6343, -0.000055742035, -0.001304377, -714166.1, -13151.294, 0.0, 5.018514, 4.9566364 
7.298496e+2, 2.3342349e+2, -671663.06, -769515.44, -3723.1826, 0.0000827333, 0.0017085341, -671521.6, -19071.662, 0.0, 5.0173244, 4.954168 
7.297916e+2, 2.3837747e+2, -626178.3, -722699.7, -3821.0078, -0.000018890627, -0.0014275901, -626027.3, -22126.404, 0.0, 5.016122, 4.953855 
7.297338e+2, 2.4333026e+2, -583557.7, -682236.1, -3619.6892, 0.000055658715, 0.001886964, -583425.1, -28061.576, 0.0, 5.014915, 4.951315 
7.29676e+2, 2.4828142e+2, -537977.75, -635186.5, -3744.8088, -0.000069805756, -0.0016826742, -537833.7, -30991.488, 0.0, 5.01369, 4.9510674 
7.2961855e+2, 2.5323138e+2, -495488.4, -595053.06, -3439.214, 0.00014964186, 0.0019659086, -495369.75, -37037.152, 0.0, 5.012462, 4.948389 
7.295611e+2, 2.581798e+2, -449635.4, -547370.44, -3563.5317, 0.000022771834, -0.0010737838, -449505.66, -39667.465, 0.0, 5.011215, 4.948346 
7.29504e+2, 2.6312682e+2, -407403.0, -507844.72, -3155.24, 0.000023012763, 0.0017285161, -407303.97, -45946.645, 0.0, 5.009963, 4.9454274 
7.29447e+2, 2.680723e+2, -361203.06, -459351.72, -3251.6052, 0.00004386929, -0.0028058838, -361095.47, -48203.71, 0.0, 5.0086946, 4.945654 
7.2939044e+2, 2.7301666e+2, -319292.78, -420601.53, -2750.4856, 0.00010588455, 0.0023557285, -319218.16, -54781.33, 0.0, 5.00742, 4.942425 
7.293341e+2, 2.7795976e+2, -272733.75, -371245.13, -2830.1858, -0.00002755561, 0.0021257652, -272652.5, -56658.28, 0.0, 5.0061283, 4.9429398 
7.2927815e+2, 2.8290072e+2, -231027.69, -332979.25, -2219.4016, 0.00006200564, 0.0014709968, -230979.39, -63406.465, 0.0, 5.0048265, 4.93951 
7.292226e+2, 2.8783965e+2, -184191.44, -282964.56, -2174.6484, 0.0002864515, -0.013836368, -184143.58, -64972.22, 0.0, 5.0035167, 4.940241 
7.2916734e+2, 2.9277962e+2, -142670.45, -245262.19, -1493.5977, -0.000028680333, 0.0040283827, -142648.72, -71889.01, 0.0, 5.0022097, 4.936569 
7.2911257e+2, 2.9772022e+2, -95580.4, -194748.11, -1361.2145, -0.0007461956, 0.033417176, -95561.72, -73219.7, 0.0, 5.0009046, 4.937452 
7.290573e+2, 3.02661e+2, -57380.945, -131854.89, -2194.7432, 0.000025146608, -0.0016232016, -57316.324, -57316.324, 0.0, 4.9995894, 4.9517455 
7.290022e+2, 3.0760378e+2, -60215.28, -131375.75, -1755.0349, 0.0026388736, -0.1036224, -60172.023, -60172.023, 0.0, 4.9982214, 4.952503 
7.2895205e+2, 3.125861e+2, -44670.254, -88033.12, 3133.4768, -0.002873692, 0.119419776, -44444.992, -44444.992, 0.0, 4.9968514, 4.9689507 
7.289119e+2, 3.175402e+2, 1993.6377, 27341.48, -1876.616, 0.029554255, -0.044375256, 27479.662, 27479.662, 0.0, 4.9955616, 5.012066 
7.361318e+2, 1.2415179e+2, -1629105.0, -1725270.8, 928.4562, 0.000056742152, 0.00047558025, -1629096.0, 94216.49, 0.0, 5.045434, 4.982371 
7.360778e+2, 1.2913345e+2, -1586204.9, -1681540.4, 963.9085, -0.0002703501, -0.0026336636, -1586195.1, 88297.15, 0.0, 5.0439243, 4.9814467 
7.3602325e+2, 1.3411437e+2, -1543657.5, -1638974.3, 64.389275, 0.00040310607, 0.0037590836, -1543657.5, 82021.805, 0.0, 5.0424967, 4.9800067 
7.35968e+2, 1.3909376e+2, -1499972.8, -1594078.5, 84.35881, -0.000015808973, -0.0016932357, -1499972.8, 76908.586, 0.0, 5.041067, 4.9794035 
7.3591244e+2, 1.440723e+2, -1457563.5, -1552113.8, -501.71695, -0.00021658822, 0.00007969294, -1457560.9, 70530.72, 0.0, 5.0396867, 4.9777613 
7.358564e+2, 1.4904995e+2, -1413478.6, -1506790.3, -536.33136, -0.000037853486, -0.0007821452, -1413475.5, 65834.914, 0.0, 5.038325, 4.9772496 
7.3579997e+2, 1.5402636e+2, -1371014.9, -1465112.9, -969.9344, 0.00022864706, 0.0014196647, -1371004.9, 59536.848, 0.0, 5.037009, 4.9754796 
7.357432e+2, 1.5900157e+2, -1326686.8, -1419634.3, -1034.8773, -0.000111670706, -0.0013081561, -1326675.3, 55109.418, 0.0, 5.035705, 4.974968 
7.356861e+2, 1.6397563e+2, -1284186.1, -1378205.0, -1343.3873, -0.000012726322, 0.0012473142, -1284167.0, 48871.918, 0.0, 5.0344377, 4.9730606 
7.356287e+2, 1.6894847e+2, -1239581.8, -1332466.5, -1441.3582, -0.0000032811263, -0.001135113, -1239559.4, 44745.793, 0.0, 5.033185, 4.972585 
7.35571e+2, 1.7392008e+2, -1197072.1, -1291301.3, -1646.6895, -0.0000048514753, 0.0012050543, -1197043.3, 38540.035, 0.0, 5.0319552, 4.970537 
7.355132e+2, 1.7889039e+2, -1152233.9, -1245337.0, -1773.3185, -0.000047670426, -0.0011544364, -1152200.0, 34674.17, 0.0, 5.030742, 4.970094 
7.3545504e+2, 1.8385948e+2, -1109713.9, -1204398.8, -1906.2476, 0.000022443543, 0.0013262061, -1109675.5, 28501.652, 0.0, 5.0295405, 4.967926 
7.353968e+2, 1.8882717e+2, -1064672.1, -1158216.0, -2034.4108, 0.000034324345, -0.0012323537, -1064627.9, 24865.879, 0.0, 5.0283556, 4.9675183 
7.353383e+2, 1.9379365e+2, -1022166.06, -1117488.8, -2129.0593, -0.00011780557, 0.0013827813, -1022118.5, 18703.72, 0.0, 5.0271688, 4.9652343 
7.3527974e+2, 1.9875868e+2, -976945.25, -1071070.8, -2238.3933, 0.000045998855, -0.0011938338, -976892.06, 15272.9795, 0.0, 5.025998, 4.9648747 
7.352209e+2, 2.037225e+2, -934442.56, -1030503.4, -2319.9844, -0.000031145966, 0.001379581, -934386.56, 9133.004, 0.0, 5.024818, 4.962505 
7.35162e+2, 2.086848e+2, -889117.44, -983947.9, -2385.6658, 0.000033499815, -0.0012239733, -889057.5, 5831.6587, 0.0, 5.0236497, 4.9621654 
7.35103e+2, 2.136459e+2, -846579.1, -943423.94, -2465.0276, -0.000031982192, 0.001482404, -846516.44, -246.16164, 0.0, 5.022471, 4.959745 
7.35044e+2, 2.1860544e+2, -801216.6, -896813.5, -2485.6953, 0.000007313146, -0.0012544928, -801152.0, -3485.0862, 0.0, 5.0212913, 4.9594035 
7.3498493e+2, 2.2356378e+2, -758627.4, -856262.25, -2534.8232, 0.000044416476, 0.0015388342, -758561.6, -9486.467, 0.0, 5.0201054, 4.9569607 
7.3492575e+2, 2.2852051e+2, -713248.9, -809623.1, -2564.5103, -0.000035346504, -0.0013383722, -713180.7, -12681.475, 0.0, 5.0189095, 4.9566107 
7.348667e+2, 2.3347606e+2, -670639.44, -769077.75, -2511.569, 0.00009425904, 0.0016811406, -670575.4, -18640.537, 0.0, 5.017709, 4.9541364 
7.3480755e+2, 2.3842998e+2, -625199.94, -722292.75, -2606.459, -0.00001131727, -0.0013914008, -625130.06, -21743.664, 0.0, 5.0164924, 4.95382 
7.347486e+2, 2.433827e+2, -582628.4, -681845.3, -2426.134, 0.00009134491, 0.0018241487, -582569.06, -27719.352, 0.0, 5.015269, 4.951282 
7.346896e+2, 2.4833378e+2, -537099.3, -634822.7, -2552.7012, -0.000044600725, -0.0018139535, -537032.7, -30703.59, 0.0, 5.0140266, 4.951034 
7.346308e+2, 2.532837e+2, -494672.78, -594720.5, -2262.9856, 0.00015940587, 0.0020092775, -494621.63, -36801.688, 0.0, 5.0127783, 4.9483542 
7.345722e+2, 2.582321e+2, -448883.2, -547056.44, -2402.7676, 0.000060770293, -0.0007607841, -448824.4, -39498.523, 0.0, 5.0115075, 4.948317 
7.3451376e+2, 2.6317897e+2, -406723.6, -507544.75, -2014.9755, 0.000058817735, 0.0015775985, -406683.34, -45837.316, 0.0, 5.0102262, 4.9454064 
7.344555e+2, 2.6812434e+2, -360602.03, -459072.1, -2129.671, -0.000007677083, -0.0038853004, -360556.0, -48174.188, 0.0, 5.0089273, 4.94564 
7.343976e+2, 2.7306882e+2, -318778.5, -420362.94, -1649.488, 0.00013390776, 0.0027360334, -318751.72, -54825.816, 0.0, 5.0076227, 4.9424105 
7.3434e+2, 2.780122e+2, -272286.47, -371017.2, -1758.3951, 0.0003399036, 0.005334935, -272255.16, -56774.223, 0.0, 5.0063024, 4.9429345 
7.342827e+2, 2.829527e+2, -230670.23, -332697.56, -1205.202, 0.00006020694, 0.00047257025, -230656.0, -63592.13, 0.0, 5.00495, 4.9395456 
7.342257e+2, 2.878908e+2, -184019.44, -282757.6, -1214.3007, -0.00064608443, -0.023477139, -184004.5, -65333.9, 0.0, 5.0035715, 4.9402804 
7.341692e+2, 2.9283196e+2, -142718.23, -245099.28, -652.7346, 0.0002288621, 0.0064374045, -142714.08, -72467.16, 0.0, 5.0021744, 4.9366326 
7.3411334e+2, 2.977752e+2, -95929.75, -194722.14, -676.3025, 0.0022679637, 0.062018137, -95925.12, -74121.79, 0.0, 5.0007596, 4.9375143 
7.3405683e+2, 3.027126e+2, -56338.4, -131527.19, -1256.9247, -0.0004232345, -0.006916828, -56317.395, -56317.395, 0.0, 5.0000124, 4.951673 
7.3400027e+2, 3.076474e+2, -56291.664, -130369.51, -1296.592, -0.0058921343, -0.1874034, -56268.977, -56268.977, 0.0, 4.9998097, 4.9521747 
7.339501e+2, 3.1264544e+2, -48618.895, -100982.12, 3251.2441, 0.007111152, 0.22138152, -48417.797, -48417.797, 0.0, 4.9975934, 4.9639144 
7.338995e+2, 3.175681e+2, -14693.294, -1117.3087, 1098.8282, -0.03485643, -0.20811504, -1028.9456, -1028.9456, 0.0, 4.9935474, 5.0023236 
7.411769e+2, 1.2420562e+2, -1629403.0, -1725373.5, 350.98132, 0.000035958717, 0.0005050629, -1629401.8, 93383.25, 0.0, 5.0453167, 4.982398 
7.411214e+2, 1.291873e+2, -1586471.1, -1681631.4, 406.8837, -0.00023638553, -0.0025592234, -1586469.4, 87495.055, 0.0, 5.043819, 4.981472 
7.4106544e+2, 1.3416824e+2, -1543884.8, -1639014.5, -462.9014, 0.0002512206, 0.0038248058, -1543882.5, 81268.78, 0.0, 5.0423985, 4.980044 
7.410088e+2, 1.3914765e+2, -1500163.9, -1594091.8, -441.91888, -0.00004622828, -0.0016690225, -1500161.8, 76191.22, 0.0, 5.0409784, 4.979445 
7.409518e+2, 1.4412624e+2, -1457730.3, -1552115.6, -990.8299, -0.00020814629, 0.00012868716, -1457719.9, 69843.05, 0.0, 5.039607, 4.9778023 
7.4089444e+2, 1.4910394e+2, -1413612.0, -1506763.3, -1027.925, -0.00009630535, -0.0007066456, -1413600.6, 65180.734, 0.0, 5.038254, 4.977296 
7.408367e+2, 1.5408036e+2, -1371139.4, -1465096.3, -1438.0565, 0.00017735948, 0.001480007, -1371117.4, 58894.965, 0.0, 5.0369444, 4.975519 
7.4077857e+2, 1.5905562e+2, -1326790.9, -1419602.4, -1506.5721, -0.00015765498, -0.0012699307, -1326766.4, 54488.64, 0.0, 5.0356464, 4.97501 
7.4072015e+2, 1.640297e+2, -1284288.3, -1378197.1, -1793.6364, -0.00004420538, 0.001310195, -1284254.0, 48254.92, 0.0, 5.034385, 4.9730916 
7.4066156e+2, 1.6900256e+2, -1239664.3, -1332440.0, -1905.4999, -0.000026033129, -0.0010695393, -1239625.1, 44149.723, 0.0, 5.0331373, 4.9726205 
7.406026e+2, 1.739742e+2, -1197169.0, -1291319.3, -2094.4055, -0.00007649992, 0.001236, -1197122.5, 37930.465, 0.0, 5.0319104, 4.9705563 
7.405436e+2, 1.7894453e+2, -1152315.5, -1245341.1, -2237.1587, -0.00010626628, -0.0011189946, -1152261.8, 34082.02, 0.0, 5.030701, 4.970116 
7.4048424e+2, 1.8391362e+2, -1109811.5, -1204451.0, -2359.078, 0.000028711169, 0.0014122736, -1109752.8, 27893.86, 0.0, 5.0295024, 4.96793 
7.404248e+2, 1.8888132e+2, -1064755.6, -1158253.3, -2511.0037, 0.00000035602736, -0.0011686338, -1064688.1, 24275.047, 0.0, 5.0283203, 4.967526 
7.40365e+2, 1.9384779e+2, -1022268.4, -1117580.0, -2598.6294, -0.00018050829, 0.0014222701, -1022197.56, 18094.191, 0.0, 5.0271363, 4.965222 
7.4030536e+2, 1.9881281e+2, -977034.3, -1071146.3, -2731.932, -0.0000064437972, -0.0011467339, -976955.06, 14679.641, 0.0, 5.025968, 4.9648666 
7.4024534e+2, 2.037766e+2, -934551.2, -1030635.5, -2813.198, -0.000027950566, 0.0014409947, -934468.94, 8520.56, 0.0, 5.024791, 4.962476 
7.401854e+2, 2.0873886e+2, -889212.44, -984061.56, -2898.5767, 0.0000055681544, -0.0011537623, -889123.94, 5235.388, 0.0, 5.0236244, 4.962142 
7.401251e+2, 2.1369992e+2, -846695.6, -943595.9, -2990.5754, -0.00009662518, 0.0014856639, -846603.44, -862.5026, 0.0, 5.0224476, 4.9597 
7.400649e+2, 2.1865942e+2, -801319.3, -896961.0, -3023.5874, -0.000034169, -0.0012297838, -801223.8, -4085.816, 0.0, 5.0212693, 4.9593663 
7.4000466e+2, 2.236177e+2, -758749.9, -856459.56, -3096.2615, 0.00004553136, 0.0016019257, -758651.9, -10105.186, 0.0, 5.020084, 4.9569063 
7.399443e+2, 2.2857437e+2, -713368.7, -809820.5, -3132.079, -0.0000652571, -0.0013021947, -713267.06, -13295.81, 0.0, 5.0188894, 4.9565554 
7.39884e+2, 2.3352987e+2, -670755.25, -769278.44, -3106.685, 0.000046231075, 0.0016726186, -670657.44, -19249.865, 0.0, 5.0176907, 4.954079 
7.398237e+2, 2.3848371e+2, -625311.56, -722495.75, -3210.007, -0.000053919302, -0.0013323446, -625205.6, -22345.979, 0.0, 5.0164766, 4.953761 
7.397635e+2, 2.4343637e+2, -582739.3, -682062.75, -3055.445, 0.0000842752, 0.0018380437, -582645.4, -28321.678, 0.0, 5.015256, 4.9512167 
7.3970324e+2, 2.483874e+2, -537195.44, -635023.5, -3197.031, -0.00007053871, -0.001863292, -537091.06, -31287.244, 0.0, 5.014017, 4.950973 
7.396433e+2, 2.5333726e+2, -494764.63, -594931.9, -2927.4739, 0.00009935444, 0.002089322, -494679.13, -37383.973, 0.0, 5.012772, 4.948288 
7.3958325e+2, 2.5828558e+2, -448957.72, -547245.44, -3083.695, 0.00005811013, -0.0005025037, -448861.06, -40059.453, 0.0, 5.011504, 4.9482574 
7.3952365e+2, 2.6323238e+2, -406784.0, -507720.16, -2720.0518, 0.00004733209, 0.0014879483, -406710.75, -46388.016, 0.0, 5.0102267, 4.94535 
7.3946404e+2, 2.6817757e+2, -360646.2, -459223.72, -2851.753, -0.00014557663, -0.0046899808, -360563.78, -48704.035, 0.0, 5.00893, 4.945591 
7.394049e+2, 2.7312213e+2, -318819.0, -420513.28, -2387.699, 0.00010249242, 0.0031606087, -318762.97, -55359.79, 0.0, 5.0076256, 4.9423614 
7.39346e+2, 2.7806568e+2, -272323.9, -371152.03, -2512.0708, 0.00072750886, 0.00800473, -272260.13, -57303.563, 0.0, 5.006304, 4.942892 
7.392873e+2, 2.830058e+2, -230631.61, -332740.63, -2011.9756, -0.00007855496, -0.00056710985, -230591.98, -64048.586, 0.0, 5.0049667, 4.939528 
7.3922884e+2, 2.8794315e+2, -183914.63, -282774.56, -2058.774, -0.001964685, -0.03167687, -183871.77, -65714.53, 0.0, 5.003613, 4.9402614 
7.391711e+2, 2.928854e+2, -142571.9, -245155.4, -1562.1932, 0.0005478397, 0.009242401, -142548.13, -72824.96, 0.0, 5.0022407, 4.9365897 
7.391142e+2, 2.9783085e+2, -95739.195, -194790.53, -1594.9792, 0.006233256, 0.087230235, -95713.52, -74455.25, 0.0, 5.000848, 4.9374576 
7.390564e+2, 3.0276486e+2, -56533.145, -132273.69, -1288.4454, -0.0013480025, -0.013751272, -56511.23, -56511.23, 0.0, 5.0000567, 4.9513917 
7.3899853e+2, 3.076925e+2, -57281.68, -132391.28, -1356.9733, -0.017771225, -0.2630569, -57257.17, -57257.17, 0.0, 4.9997416, 4.951482 
7.3894894e+2, 3.1270608e+2, -53497.664, -110465.92, 1175.197, 0.022465637, 0.3203788, -53473.434, -53473.434, 0.0, 4.9972143, 4.9606447 
7.3889244e+2, 3.1763124e+2, -9594.53, 14971.077, -2557.4285, -0.037452776, -0.051084686, 15234.496, 15234.496, 0.0, 4.9927135, 5.008673 
7.4622214e+2, 1.242614e+2, -1627291.3, -1724160.6, 1052.334, 0.000031294618, 0.00042357424, -1627279.8, 94958.51, 0.0, 5.046002, 4.982458 
7.4616516e+2, 1.2924312e+2, -1584520.0, -1680507.4, 1148.594, -0.00015202496, -0.002585032, -1584506.3, 88911.21, 0.0, 5.0444527, 4.981529 
7.461077e+2, 1.342241e+2, -1542056.8, -1637926.4, 346.63354, 0.00015462586, 0.0038353875, -1542055.5, 82548.36, 0.0, 5.042986, 4.9801135 
7.460497e+2, 1.3920355e+2, -1498435.9, -1593044.9, 396.9345, -0.000021239064, -0.0017215009, -1498434.3, 77370.99, 0.0, 5.0415316, 4.97952 
7.459913e+2, 1.4418218e+2, -1456106.3, -1551138.1, -77.34954, -0.00011029424, 0.000041279825, -1456106.3, 70908.484, 0.0, 5.040129, 4.9778705 
7.459326e+2, 1.4915992e+2, -1412059.5, -1505812.9, -81.687584, -0.000093695635, -0.00075015845, -1412059.5, 66173.31, 0.0, 5.038751, 4.977369 
7.4587345e+2, 1.541364e+2, -1369661.1, -1464201.8, -432.94644, 0.00016862278, 0.0014538364, -1369659.1, 59804.24, 0.0, 5.037422, 4.975584 
7.458141e+2, 1.5911168e+2, -1325349.6, -1418720.1, -477.21988, -0.00013345446, -0.0013108522, -1325347.1, 55358.47, 0.0, 5.036111, 4.9750786 
7.457544e+2, 1.640858e+2, -1282900.4, -1377376.3, -706.57874, -0.000018835202, 0.0012490638, -1282895.1, 49064.09, 0.0, 5.0348396, 4.973146 
7.456946e+2, 1.6905868e+2, -1238293.8, -1331622.9, -801.2296, 0.00000048265736, -0.0011171002, -1238286.9, 44938.13, 0.0, 5.0335855, 4.972678 
7.456344e+2, 1.7403033e+2, -1195839.8, -1290562.6, -940.27856, -0.00007758991, 0.0012118064, -1195830.4, 38672.383, 0.0, 5.032354, 4.9705963 
7.455742e+2, 1.7900068e+2, -1150985.5, -1244581.0, -1071.765, -0.00010440673, -0.0011732165, -1150973.3, 34820.297, 0.0, 5.0311446, 4.9701586 
7.455136e+2, 1.8396977e+2, -1108517.1, -1203754.3, -1149.987, 0.00006878539, 0.0013696096, -1108503.3, 28593.176, 0.0, 5.029945, 4.967952 
7.45453e+2, 1.8893746e+2, -1063454.5, -1157545.5, -1296.9856, 0.000019273513, -0.0011957499, -1063436.6, 24976.451, 0.0, 5.0287642, 4.9675527 
7.45392e+2, 1.9390391e+2, -1020999.06, -1116936.8, -1348.0284, -0.00016883345, 0.0013756619, -1020980.1, 18761.637, 0.0, 5.0275807, 4.965227 
7.4533117e+2, 1.988689e+2, -975757.8, -1070493.1, -1482.091, 0.0000072749517, -0.0011885577, -975734.7, 15350.348, 0.0, 5.0264144, 4.964875 
7.4527e+2, 2.0383266e+2, -933308.6, -1030044.5, -1538.2352, 0.000013498142, 0.0013883163, -933284.2, 9155.936, 0.0, 5.0252376, 4.9624634 
7.452088e+2, 2.0879488e+2, -887964.25, -983459.5, -1622.7572, 0.000022403621, -0.0011782261, -887936.7, 5873.693, 0.0, 5.024072, 4.962134 
7.4514747e+2, 2.1375589e+2, -845479.5, -943053.44, -1706.3796, -0.00008296899, 0.0014565641, -845449.7, -257.23276, 0.0, 5.0228953, 4.9596715 
7.450861e+2, 2.1871531e+2, -800100.25, -896411.9, -1735.75, -0.0000200943, -0.0012537021, -800069.0, -3478.8896, 0.0, 5.0217175, 4.959341 
7.450246e+2, 2.2367355e+2, -757565.25, -855958.75, -1816.7803, 0.00008398926, 0.001582457, -757531.7, -9532.307, 0.0, 5.020528, 4.9568667 
7.44963e+2, 2.2863016e+2, -712192.4, -809308.25, -1851.4824, -0.00003824942, -0.0012895712, -712157.06, -12732.412, 0.0, 5.0193276, 4.9565234 
7.4490154e+2, 2.3358555e+2, -669630.44, -768832.6, -1845.1216, 0.00005982859, 0.0016198633, -669596.1, -18734.45, 0.0, 5.018121, 4.954028 
7.4483997e+2, 2.3853934e+2, -624213.4, -722054.8, -1944.9463, -0.00003576148, -0.0014031304, -624174.75, -21860.135, 0.0, 5.0168962, 4.9537144 
7.447786e+2, 2.4349193e+2, -581692.3, -681657.75, -1808.226, 0.00012907492, 0.0018506207, -581659.6, -27880.297, 0.0, 5.0156612, 4.9511642 
7.4471706e+2, 2.4844286e+2, -536199.94, -634645.0, -1960.377, -0.00003125863, -0.001733007, -536160.9, -30900.76, 0.0, 5.0144053, 4.95092 
7.4465585e+2, 2.5339264e+2, -493821.34, -594568.9, -1711.3518, 0.0000928082, 0.0019938073, -493792.28, -37039.75, 0.0, 5.0131416, 4.948239 
7.4459463e+2, 2.583408e+2, -448072.88, -546904.56, -1883.0121, 0.000082646766, -0.0010161606, -448037.0, -39776.832, 0.0, 5.0118523, 4.9482107 
7.4453366e+2, 2.6328763e+2, -405977.16, -507434.84, -1551.5756, 0.00010052441, 0.0016456048, -405953.44, -46171.973, 0.0, 5.010552, 4.945295 
7.444728e+2, 2.6823288e+2, -359889.47, -458943.2, -1712.1141, -0.00020685175, -0.0032783442, -359859.88, -48541.844, 0.0, 5.0092344, 4.9455442 
7.444123e+2, 2.7317715e+2, -318135.78, -420242.0, -1279.011, 0.0001322681, 0.0027071002, -318119.78, -55255.742, 0.0, 5.0078993, 4.942325 
7.443521e+2, 2.7812025e+2, -271723.63, -370921.84, -1422.8008, 0.0011180781, 0.0036969893, -271703.22, -57281.4, 0.0, 5.006549, 4.9428544 
7.44292e+2, 2.830608e+2, -230067.61, -332621.03, -958.522, -0.00016580764, 0.00047251757, -230058.66, -64054.344, 0.0, 5.005217, 4.939449 
7.442321e+2, 2.879992e+2, -183289.77, -282652.5, -1088.1315, -0.0030090332, -0.01900648, -183277.84, -65670.07, 0.0, 5.00389, 4.940172 
7.441732e+2, 2.929398e+2, -141972.94, -245260.5, -715.00946, 0.00096064527, 0.007078277, -141967.98, -72778.086, 0.0, 5.002549, 4.936408 
7.4411523e+2, 2.9788157e+2, -95044.2, -194834.06, -843.5586, 0.0096172, 0.05034266, -95037.07, -74275.92, 0.0, 5.0011873, 4.937285 
7.440562e+2, 3.028195e+2, -56023.324, -132196.03, 94.896866, -0.00197966, -0.010027827, -56023.207, -56023.207, 0.0, 5.0002894, 4.95131 
7.4399704e+2, 3.0775732e+2, -57487.55, -132885.19, -45.13104, -0.027007462, -0.15624851, -57487.527, -57487.527, 0.0, 4.9997616, 4.951286 
7.439462e+2, 3.1274822e+2, -54332.457, -108181.94, 846.15356, 0.03191018, 0.19642882, -54319.164, -54319.164, 0.0, 4.9964175, 4.961805 
7.438925e+2, 3.1768122e+2, -671.7483, 46910.566, 2389.5103, 0.052361384, -0.11332788, 47030.266, 47030.266, 0.0, 4.990545, 5.021539 
7.5126785e+2, 1.2431834e+2, -1627626.5, -1724231.1, 453.4321, -0.000062114945, 0.0004756277, -1627624.4, 94055.93, 0.0, 5.0458603, 4.982508 
7.512093e+2, 1.2930009e+2, -1584819.3, -1680570.1, 567.8984, -0.00006925271, -0.0025496485, -1584815.9, 88043.19, 0.0, 5.0443254, 4.981575 
7.5115037e+2, 1.3428113e+2, -1542297.1, -1637919.1, -187.37904, -0.000019778097, 0.003957793, -1542296.8, 81748.28, 0.0, 5.042871, 4.980175 
7.510909e+2, 1.3926063e+2, -1498638.3, -1593012.8, -142.2093, -0.00007364511, -0.0016712578, -1498638.0, 76607.83, 0.0, 5.0414276, 4.9795837 
7.5103104e+2, 1.442393e+2, -1456284.0, -1551103.6, -570.90375, -0.0000733409, 0.000056005927, -1456280.6, 70174.24, 0.0, 5.0400367, 4.9779296 
7.5097096e+2, 1.4921711e+2, -1412199.4, -1505750.9, -574.6252, -0.00016134705, -0.00068726426, -1412195.9, 65476.46, 0.0, 5.038669, 4.977432 
7.509105e+2, 1.5419365e+2, -1369790.0, -1464155.4, -895.5456, 0.00008860908, 0.00154446, -1369781.5, 59120.883, 0.0, 5.037349, 4.9756384 
7.5084984e+2, 1.5916896e+2, -1325451.3, -1418651.8, -943.9656, -0.00016060322, -0.0012345403, -1325441.8, 54702.523, 0.0, 5.0360456, 4.9751363 
7.5078887e+2, 1.6414313e+2, -1283005.1, -1377346.5, -1147.1757, -0.000057338522, 0.0012686729, -1282991.3, 48406.227, 0.0, 5.0347815, 4.9731874 
7.507278e+2, 1.6911605e+2, -1238375.9, -1331577.6, -1255.2178, -0.0000400083, -0.0010844056, -1238359.0, 44303.883, 0.0, 5.0335336, 4.9727216 
7.506664e+2, 1.7408772e+2, -1195937.3, -1290565.8, -1373.344, -0.00011787834, 0.0013068431, -1195917.4, 38023.016, 0.0, 5.0323057, 4.970621 
7.506049e+2, 1.7905807e+2, -1151065.0, -1244569.9, -1522.7507, -0.00014854342, -0.0011252792, -1151040.3, 34190.77, 0.0, 5.031101, 4.970186 
7.505432e+2, 1.8402718e+2, -1108614.5, -1203804.3, -1588.0991, 0.00004862499, 0.0014014638, -1108588.0, 27945.707, 0.0, 5.0299063, 4.9679565 
7.5048137e+2, 1.8899485e+2, -1063535.1, -1157576.8, -1757.9994, -0.000026707861, -0.0011582526, -1063502.4, 24348.164, 0.0, 5.0287285, 4.967562 
7.5041926e+2, 1.9396132e+2, -1021102.2, -1117034.9, -1803.1534, -0.00022067866, 0.0014277395, -1021068.3, 18110.898, 0.0, 5.0275493, 4.965212 
7.503572e+2, 1.9892627e+2, -975845.0, -1070578.0, -1962.9531, -0.000041189873, -0.0011232982, -975804.4, 14718.318, 0.0, 5.0263867, 4.9648633 
7.5029486e+2, 2.0389e+2, -933416.3, -1030192.6, -2020.6082, -0.0000071559602, 0.0014095766, -933374.1, 8503.9375, 0.0, 5.0252137, 4.962427 
7.5023246e+2, 2.0885219e+2, -888059.4, -983593.94, -2124.0972, -0.00002235714, -0.0011574756, -888012.2, 5236.5713, 0.0, 5.0240507, 4.962101 
7.5016993e+2, 2.1381316e+2, -845596.2, -943245.56, -2220.4749, -0.00011312067, 0.001503271, -845545.75, -914.5091, 0.0, 5.022876, 4.959618 
7.5010735e+2, 2.187725e+2, -800210.2, -896598.56, -2262.1602, -0.00006452077, -0.0012332177, -800157.1, -4127.6216, 0.0, 5.0217, 4.9592886 
7.5004476e+2, 2.2373068e+2, -757692.25, -856194.2, -2369.637, 0.00005287347, 0.0015758761, -757635.25, -10195.798, 0.0, 5.020512, 4.956796 
7.49982e+2, 2.2868723e+2, -712309.75, -809528.1, -2408.1106, -0.0000682623, -0.001246468, -712250.1, -13384.707, 0.0, 5.0193133, 4.9564576 
7.499193e+2, 2.3364255e+2, -669757.9, -769086.2, -2440.697, 0.00001661536, 0.0016143247, -669697.94, -19394.727, 0.0, 5.0181084, 4.95395 
7.498565e+2, 2.3859623e+2, -624327.4, -722294.9, -2543.3606, -0.00008373535, -0.0014610807, -624261.4, -22504.389, 0.0, 5.0168867, 4.9536395 
7.497938e+2, 2.4354875e+2, -581806.4, -681923.3, -2446.0535, 0.00009919535, 0.0019162362, -581746.7, -28524.27, 0.0, 5.0156565, 4.9510784 
7.4973106e+2, 2.4849962e+2, -536299.4, -634897.94, -2603.5835, -0.00003247501, -0.0015282797, -536230.7, -31526.756, 0.0, 5.014404, 4.9508367 
7.496686e+2, 2.5344926e+2, -493910.22, -594819.0, -2389.4934, 0.000034235378, 0.0019071369, -493853.66, -37656.168, 0.0, 5.0131445, 4.9481554 
7.496061e+2, 2.583973e+2, -448150.03, -547147.25, -2575.917, 0.00002831409, -0.0016237405, -448083.03, -40376.543, 0.0, 5.0118585, 4.948128 
7.4954385e+2, 2.633441e+2, -406055.94, -507701.47, -2264.2231, 0.00011165212, 0.0019623896, -406005.5, -46777.7, 0.0, 5.010562, 4.9452014 
7.494816e+2, 2.6828942e+2, -359953.56, -459187.78, -2438.7622, -0.00028235812, -0.0012822204, -359893.66, -49130.004, 0.0, 5.0092463, 4.945458 
7.494198e+2, 2.7323335e+2, -318163.72, -420442.06, -2029.5238, 0.00007406583, 0.0019706602, -318123.44, -55810.3, 0.0, 5.007918, 4.942251 
7.493583e+2, 2.7817583e+2, -271737.03, -371124.94, -2173.439, 0.0013124517, -0.0024599142, -271689.53, -57812.535, 0.0, 5.006574, 4.9427767 
7.492968e+2, 2.831171e+2, -230171.36, -333004.16, -1692.8468, -0.00029036478, 0.0024861393, -230143.5, -64690.914, 0.0, 5.005236, 4.9393096 
7.492356e+2, 2.8805706e+2, -183454.22, -283093.47, -1826.5679, -0.0037858293, -0.0000667557, -183420.75, -66379.87, 0.0, 5.0038924, 4.9400196 
7.491754e+2, 2.9299513e+2, -142097.67, -245900.34, -1395.4854, 0.0012135834, 0.0023505467, -142078.9, -73430.64, 0.0, 5.0026064, 4.936161 
7.491163e+2, 2.9793137e+2, -94903.03, -195324.56, -1380.6884, 0.011859478, -0.006783765, -94884.05, -74610.695, 0.0, 5.0013347, 4.9370522 
7.490561e+2, 3.028759e+2, -56466.227, -132590.61, 57.34097, -0.002646426, 0.00051236834, -56466.184, -56466.184, 0.0, 5.0001526, 4.9512353 
7.4899566e+2, 3.0782977e+2, -59555.383, -134160.83, -419.19586, -0.033456594, 0.015590106, -59553.027, -59553.027, 0.0, 4.9990625, 4.951135 
7.489428e+2, 3.127831e+2, -50893.375, -100709.53, -2871.2961, 0.0381623, -0.021862166, -50728.426, -50728.426, 0.0, 4.9965043, 4.9644914 
7.48876e+2, 3.1777123e+2, -15083.578, 3378.033, 1123.5352, -0.019872459, 0.19906004, 3446.1577, 3446.1577, 0.0, 4.992482, 5.0044627 
7.563137e+2, 1.24377266e+2, -1625601.1, -1722992.5, 1190.1409, -0.00004573788, 0.00043968266, -1625586.6, 95516.23, 0.0, 5.046502, 4.9825974 
7.5625354e+2, 1.2935908e+2, -1582944.3, -1679413.8, 1341.9431, 0.000028742423, -0.0026306387, -1582925.6, 89355.37, 0.0, 5.04492, 4.981662 
7.561931e+2, 1.3434018e+2, -1540563.9, -1636820.5, 673.1497, -0.00014397627, 0.00392338, -1540559.1, 82907.15, 0.0, 5.043416, 4.980269 
7.561321e+2, 1.3931975e+2, -1497002.6, -1591952.1, 748.8816, -0.000034255198, -0.0017558729, -1496996.8, 77669.86, 0.0, 5.0419383, 4.979683 
7.56071e+2, 1.4429848e+2, -1454744.4, -1550109.5, 404.11398, 0.000048826936, -0.000035076653, -1454742.8, 71132.234, 0.0, 5.0405207, 4.9780207 
7.5600946e+2, 1.4927635e+2, -1410712.6, -1504776.4, 430.1997, -0.00016073817, -0.00071630435, -1410710.6, 66381.14, 0.0, 5.039135, 4.977527 
7.559477e+2, 1.5425295e+2, -1368370.6, -1463243.0, 177.15236, 0.00005968379, 0.0015029218, -1368370.3, 59950.93, 0.0, 5.0378, 4.9757214 
7.5588566e+2, 1.5922831e+2, -1324057.1, -1417746.4, 155.34113, -0.00012958428, -0.0012939919, -1324056.9, 55505.746, 0.0, 5.036487, 4.975223 
7.558235e+2, 1.6420251e+2, -1281653.5, -1376503.8, 12.5168085, -0.000022427528, 0.0012075563, -1281653.5, 49161.88, 0.0, 5.0352187, 4.973256 
7.557611e+2, 1.6917546e+2, -1237025.3, -1330734.3, -80.912994, -0.000028519482, -0.0011331195, -1237025.1, 45055.348, 0.0, 5.0339713, 4.9727917 
7.556985e+2, 1.7414717e+2, -1194619.9, -1289791.6, -143.7504, -0.00009580383, 0.0012907459, -1194619.8, 38738.047, 0.0, 5.032743, 4.970669 
7.5563586e+2, 1.7911755e+2, -1149730.8, -1243779.9, -280.66486, -0.0001285219, -0.0011572046, -1149729.9, 34918.36, 0.0, 5.0315433, 4.9702387 
7.5557286e+2, 1.8408665e+2, -1107301.9, -1203085.6, -301.06357, 0.00008885924, 0.0013278729, -1107300.9, 28650.07, 0.0, 5.0303555, 4.9679823 
7.5551e+2, 1.8905433e+2, -1062203.9, -1156844.3, -467.5233, -0.000005313799, -0.0012180859, -1062201.6, 25066.168, 0.0, 5.0291834, 4.9675913 
7.554467e+2, 1.9402076e+2, -1019797.3, -1116370.5, -474.8673, -0.00020509589, 0.0013870741, -1019794.94, 18801.734, 0.0, 5.0280085, 4.965216 
7.5538343e+2, 1.9898568e+2, -974518.0, -1069897.1, -633.0843, -0.000022807664, -0.0011453647, -974513.75, 15426.637, 0.0, 5.026853, 4.9648714 
7.553199e+2, 2.0394938e+2, -932109.2, -1029573.94, -667.77246, 0.000042729076, 0.0013461566, -932104.56, 9191.668, 0.0, 5.025687, 4.9624104 
7.552564e+2, 2.089115e+2, -886735.9, -982968.25, -774.5243, -0.000019928853, -0.0012122159, -886729.6, 5937.813, 0.0, 5.0245304, 4.9620852 
7.551927e+2, 2.1387242e+2, -844296.3, -942675.25, -867.6183, -0.0000794911, 0.0015106979, -844288.7, -238.22523, 0.0, 5.023359, 4.9595814 
7.551289e+2, 2.1883172e+2, -798889.25, -896012.25, -912.5845, -0.00002565366, -0.001252033, -798880.7, -3431.2488, 0.0, 5.022189, 4.959256 
7.550651e+2, 2.237898e+2, -756395.94, -855667.6, -1031.1963, 0.000057784637, 0.0014974242, -756385.2, -9525.032, 0.0, 5.021004, 4.9567423 
7.550011e+2, 2.2874625e+2, -711024.2, -809005.9, -1062.1516, -0.000036943497, -0.0012361095, -711012.7, -12725.745, 0.0, 5.0198016, 4.956405 
7.5493723e+2, 2.3370148e+2, -668506.0, -768594.56, -1118.609, 0.00006192739, 0.0016063901, -668493.5, -18767.875, 0.0, 5.018588, 4.9538913 
7.5487316e+2, 2.3865508e+2, -623110.9, -721837.8, -1217.2979, -0.00006529654, -0.0015515729, -623095.9, -21915.473, 0.0, 5.017359, 4.9535737 
7.548093e+2, 2.4360749e+2, -580622.3, -681495.06, -1154.9637, 0.000110227986, 0.0019420453, -580609.1, -27962.38, 0.0, 5.01612, 4.9510074 
7.547453e+2, 2.4855825e+2, -535156.06, -634488.7, -1319.5624, 0.000031935353, -0.0013757177, -535138.56, -31009.365, 0.0, 5.014854, 4.9507666 
7.546815e+2, 2.5350776e+2, -492831.6, -594440.0, -1136.6876, 0.000037826878, 0.0017606711, -492818.88, -37194.805, 0.0, 5.013572, 4.9480844 
7.546177e+2, 2.584557e+2, -447115.7, -546783.5, -1334.48, -0.000068065696, -0.0022339616, -447097.84, -39963.32, 0.0, 5.0122705, 4.9480605 
7.5455415e+2, 2.6340246e+2, -405102.44, -507402.25, -1052.245, 0.00020024071, 0.002239554, -405091.63, -46435.61, 0.0, 5.010952, 4.9451203 
7.544907e+2, 2.6834783e+2, -359056.5, -458896.38, -1248.4032, 0.000110169894, 0.00051774643, -359040.9, -48849.434, 0.0, 5.0096135, 4.945385 
7.544275e+2, 2.7329138e+2, -317297.2, -420125.4, -861.10034, -0.00009899942, 0.0010996532, -317290.0, -55545.477, 0.0, 5.008267, 4.942196 
7.5436455e+2, 2.782333e+2, -270906.97, -370831.63, -1019.4475, 0.00029819546, -0.008306461, -270896.56, -57582.54, 0.0, 5.0069118, 4.9427185 
7.543019e+2, 2.8317523e+2, -229515.55, -332920.66, -563.5978, 0.00015174304, 0.00479088, -229512.47, -64629.66, 0.0, 5.0055366, 4.939194 
7.542395e+2, 2.8811663e+2, -182921.39, -283033.72, -693.0346, -0.00063957326, 0.018052338, -182916.6, -66459.5, 0.0, 5.0041423, 4.9399185 
7.5417775e+2, 2.9305223e+2, -141118.67, -245282.73, 22.855255, 0.0003421008, -0.003605681, -141118.67, -73030.164, 0.0, 5.002948, 4.93622 
7.5411665e+2, 2.9798356e+2, -93466.766, -194566.8, 183.43506, 0.0027725003, -0.062267713, -93466.43, -73704.586, 0.0, 5.001854, 4.9370866 
7.540559e+2, 3.0293503e+2, -57199.457, -133372.11, 1018.506, -0.0006322931, 0.015869156, -57185.844, -57185.844, 0.0, 4.999994, 4.9510107 
7.53996e+2, 3.079042e+2, -63727.246, -136470.94, 494.46872, -0.00682179, 0.18685588, -63723.887, -63723.887, 0.0, 4.9976506, 4.9509006 
7.5393605e+2, 3.128213e+2, -45908.22, -91837.91, -1197.7372, 0.008356678, -0.22914767, -45877.004, -45877.004, 0.0, 4.9970603, 4.9674644 
7.5387025e+2, 3.177961e+2, -2024.3677, 9986.76, 2622.815, -0.02877346, -0.17077915, 10534.513, 10534.513, 0.0, 4.99715, 5.004904 
7.6135975e+2, 1.2443739e+2, -1625968.5, -1723016.9, 574.4309, -0.00008781594, 0.0004928482, -1625965.1, 94548.484, 0.0, 5.0463357, 4.982675 
7.612981e+2, 1.2941928e+2, -1583267.5, -1679426.3, 728.16486, 0.000050534796, -0.002567065, -1583262.0, 88429.055, 0.0, 5.0447702, 4.981735 
7.612361e+2, 1.3440046e+2, -1540825.4, -1636772.0, 125.54938, -0.0003559663, 0.004043439, -1540825.3, 82050.36, 0.0, 5.043282, 4.980353 
7.611737e+2, 1.3938008e+2, -1497212.6, -1591869.9, 202.05992, -0.000076656535, -0.0017169777, -1497212.3, 76863.01, 0.0, 5.04182, 4.979771 
7.611111e+2, 1.443589e+2, -1454928.4, -1550032.0, -89.13225, 0.00010376021, -0.0000063041875, -1454928.3, 70354.57, 0.0, 5.0404162, 4.9781003 
7.6104814e+2, 1.4933686e+2, -1410855.4, -1504670.6, -66.430305, -0.00023461402, -0.00061923853, -1410855.3, 65643.62, 0.0, 5.0390425, 4.97761 
7.6098514e+2, 1.543135e+2, -1368505.6, -1463163.9, -280.38312, -0.00003384287, 0.0015826172, -1368504.8, 59222.953, 0.0, 5.0377173, 4.9757905 
7.6092184e+2, 1.5928894e+2, -1324164.3, -1417649.4, -301.40622, -0.00015756434, -0.0012586279, -1324163.3, 54805.246, 0.0, 5.036413, 4.9752946 
7.608583e+2, 1.642632e+2, -1281762.6, -1376449.8, -412.3521, -0.000051519124, 0.0012617502, -1281760.8, 48459.992, 0.0, 5.035154, 4.9733086 
7.607947e+2, 1.692362e+2, -1237111.9, -1330667.6, -522.3525, -0.000080335725, -0.0010934097, -1237109.0, 44376.527, 0.0, 5.033913, 4.9728456 
7.6073086e+2, 1.7420793e+2, -1194720.5, -1289785.3, -557.6152, -0.00014238956, 0.0013447109, -1194717.3, 38045.11, 0.0, 5.0326915, 4.970699 
7.6066697e+2, 1.7917831e+2, -1149803.8, -1243747.6, -709.7893, -0.00018707516, -0.0011078502, -1149798.4, 34254.223, 0.0, 5.031498, 4.9702744 
7.6060283e+2, 1.8414743e+2, -1107398.0, -1203131.4, -719.781, 0.00005283447, 0.0013443509, -1107392.6, 27962.6, 0.0, 5.0303164, 4.9679885 
7.605387e+2, 1.891151e+2, -1062281.5, -1156878.3, -911.1219, -0.000052747328, -0.0011560988, -1062272.8, 24399.336, 0.0, 5.02915, 4.9675994 
7.6047426e+2, 1.9408154e+2, -1019895.94, -1116475.8, -909.29193, -0.00024833047, 0.0014453321, -1019887.4, 18113.682, 0.0, 5.0279803, 4.965197 
7.6040983e+2, 1.9904643e+2, -974598.25, -1069985.3, -1092.0032, -0.00007188327, -0.0011083574, -974585.75, 14759.288, 0.0, 5.0268292, 4.964856 
7.6034516e+2, 2.0401008e+2, -932216.9, -1029739.4, -1129.4314, 0.000024533647, 0.0013500507, -932203.75, 8497.494, 0.0, 5.025667, 4.962367 
7.602805e+2, 2.0897217e+2, -886836.7, -983136.3, -1257.7533, -0.000084653, -0.0012182022, -886820.25, 5252.7163, 0.0, 5.0245137, 4.9620395 
7.602156e+2, 2.1393304e+2, -844418.3, -942906.4, -1362.1243, -0.00010303506, 0.0015830445, -844399.5, -942.95465, 0.0, 5.023345, 4.959512 
7.601507e+2, 2.1889223e+2, -799000.2, -896228.25, -1420.2402, -0.0000370862, -0.0012210802, -798979.44, -4123.114, 0.0, 5.022177, 4.959191 
7.6008564e+2, 2.2385024e+2, -756524.25, -855933.1, -1571.3998, -0.000012988615, 0.0014368201, -756499.44, -10231.53, 0.0, 5.0209937, 4.9566593 
7.600205e+2, 2.2880661e+2, -711148.94, -809276.4, -1607.9181, -0.000077927754, -0.0012196113, -711122.6, -13427.177, 0.0, 5.019794, 4.9563193 
7.599554e+2, 2.3376174e+2, -668625.0, -768872.7, -1706.7881, 0.000044969405, 0.0016378526, -668595.94, -19460.951, 0.0, 5.0185843, 4.9538007 
7.5989014e+2, 2.3871523e+2, -623241.1, -722158.56, -1805.2264, -0.00009797967, -0.0016182185, -623208.25, -22617.342, 0.0, 5.017358, 4.9534664 
7.59825e+2, 2.4366756e+2, -580732.44, -681792.56, -1787.8353, 0.000063166444, 0.0019773396, -580700.8, -28642.664, 0.0, 5.0161233, 4.950907 
7.597598e+2, 2.4861822e+2, -535263.2, -634798.25, -1958.8926, 0.00003306339, -0.0012450145, -535224.6, -31682.979, 0.0, 5.0148606, 4.95066 
7.596947e+2, 2.5356758e+2, -492927.06, -594742.0, -1815.1632, -0.000011856142, 0.0016687122, -492894.72, -37856.89, 0.0, 5.013582, 4.947979 
7.596295e+2, 2.5851536e+2, -447201.72, -547083.6, -2029.0192, -0.00022961499, -0.0026563192, -447160.53, -40610.855, 0.0, 5.012284, 4.9479537 
7.595647e+2, 2.634621e+2, -405184.3, -507720.63, -1769.7145, 0.00022411939, 0.002520881, -405153.78, -47082.164, 0.0, 5.0109706, 4.945005 
7.5949997e+2, 2.6840743e+2, -359133.13, -459209.75, -1966.0016, 0.00051987544, 0.0018890768, -359094.53, -49487.348, 0.0, 5.0096326, 4.9452705 
7.594353e+2, 2.7335072e+2, -317368.88, -420394.1, -1603.744, -0.0003947477, 0.00035656706, -317343.9, -56180.55, 0.0, 5.008279, 4.9421 
7.593709e+2, 2.7829212e+2, -271019.1, -371128.34, -1778.1804, -0.0010560427, -0.012872192, -270987.53, -58250.02, 0.0, 5.006911, 4.9426184 
7.593071e+2, 2.8323463e+2, -229668.06, -333329.72, -1319.6235, 0.0006469994, 0.0070052836, -229651.27, -65350.383, 0.0, 5.0055385, 4.9390535 
7.5924367e+2, 2.8817713e+2, -183019.47, -283361.0, -1372.0134, 0.0032517684, 0.03292553, -183000.7, -67136.46, 0.0, 5.0041523, 4.9398026 
7.591802e+2, 2.9311067e+2, -141352.44, -245186.88, -470.03378, -0.0011595855, -0.009524009, -141350.31, -73834.266, 0.0, 5.002813, 4.9363184 
7.591168e+2, 2.9803798e+2, -94385.79, -194876.25, -439.73825, -0.009380939, -0.109235056, -94383.87, -75155.2, 0.0, 5.001489, 4.9371395 
7.5905585e+2, 3.0299565e+2, -57696.617, -134195.61, -225.26588, 0.0025694508, 0.032115452, -57695.953, -57695.953, 0.0, 4.9999146, 4.9507565 
7.58997e+2, 3.0797786e+2, -63093.023, -137773.38, -437.32288, 0.02920509, 0.33577734, -63090.465, -63090.465, 0.0, 4.998173, 4.950215 
7.589284e+2, 3.128629e+2, -42348.586, -83973.95, -544.76776, -0.03480395, -0.42144087, -42341.457, -42341.457, 0.0, 4.997123, 4.970313 
7.588708e+2, 3.1789452e+2, -16333.557, -16922.48, -2100.3396, 0.010281909, 0.18787009, -14507.138, -14507.138, 0.0, 4.995864, 4.995485 
7.6640594e+2, 1.2449955e+2, -1624066.3, -1721774.6, 1347.3553, -0.00011667412, 0.00037459738, -1624047.8, 95856.77, 0.0, 5.0469236, 4.982792 
7.663427e+2, 1.2948154e+2, -1581518.3, -1678257.6, 1537.986, 0.00018055883, -0.0026035234, -1581493.8, 89587.31, 0.0, 5.0453076, 4.981854 
7.6627916e+2, 1.3446279e+2, -1539213.8, -1635655.9, 1042.5487, -0.00038913178, 0.004063694, -1539202.5, 83062.22, 0.0, 5.043772, 4.9804783 
7.662153e+2, 1.394425e+2, -1495685.1, -1590790.3, 1150.2233, -0.00009236195, -0.0018052716, -1495671.3, 77792.26, 0.0, 5.0422816, 4.9798994 
7.661513e+2, 1.444214e+2, -1453487.0, -1549026.5, 949.2351, 0.00021746274, -0.00013907137, -1453477.6, 71192.664, 0.0, 5.0408573, 4.978215 
7.66087e+2, 1.4939944e+2, -1409457.8, -1503677.8, 1004.8604, -0.00021856229, -0.0006657771, -1409447.0, 66438.42, 0.0, 5.0394683, 4.9777293 
7.6602256e+2, 1.5437618e+2, -1367160.6, -1462232.0, 865.6389, -0.000043664404, 0.001546168, -1367152.8, 59960.75, 0.0, 5.0381346, 4.9758945 
7.65958e+2, 1.5935168e+2, -1322819.3, -1416717.8, 867.9329, -0.00013269973, -0.0013370572, -1322811.3, 55542.445, 0.0, 5.036831, 4.9753995 
7.658932e+2, 1.6432598e+2, -1280454.9, -1375588.9, 822.68774, -0.000008118268, 0.0012120235, -1280447.9, 49157.566, 0.0, 5.0355716, 4.973391 
7.658284e+2, 1.6929902e+2, -1235782.9, -1329792.1, 728.127, -0.000042966793, -0.0011347387, -1235777.3, 45092.47, 0.0, 5.0343375, 4.972932 
7.657633e+2, 1.742708e+2, -1193409.1, -1288987.6, 751.6199, -0.00014552496, 0.0012801946, -1193403.3, 38742.957, 0.0, 5.0331244, 4.970755 
7.6569825e+2, 1.7924121e+2, -1148466.8, -1242932.1, 612.50867, -0.00016564717, -0.0011563572, -1148462.8, 34973.527, 0.0, 5.0319395, 4.9703345 
7.656329e+2, 1.8421035e+2, -1106081.5, -1202392.1, 647.7105, 0.00010923763, 0.0012829795, -1106077.1, 28661.637, 0.0, 5.030767, 4.968019 
7.6556766e+2, 1.89178e+2, -1060925.1, -1156116.3, 463.63593, -0.000023928147, -0.0011557317, -1060922.9, 25132.834, 0.0, 5.029614, 4.967633 
7.6550204e+2, 1.9414441e+2, -1018546.2, -1115786.4, 503.4086, -0.00022331068, 0.0013905175, -1018543.56, 18841.361, 0.0, 5.028458, 4.9651995 
7.6543653e+2, 1.9910927e+2, -973218.4, -1069283.1, 318.3862, -0.00007393356, -0.0011771014, -973217.3, 15511.915, 0.0, 5.027319, 4.9648585 
7.6537067e+2, 2.0407288e+2, -930844.1, -1029093.0, 299.0552, 0.00010634647, 0.0013607676, -930843.2, 9242.675, 0.0, 5.026168, 4.9623456 
7.6530486e+2, 2.0903489e+2, -885423.1, -982475.4, 165.51634, -0.000043892862, -0.0012388958, -885422.8, 6035.355, 0.0, 5.0250306, 4.962017 
7.6523876e+2, 2.1399567e+2, -843008.94, -942305.5, 62.42861, -0.000117693264, 0.0015179631, -843008.94, -166.36823, 0.0, 5.023874, 4.959463 
7.6517266e+2, 2.189548e+2, -797569.5, -895610.25, 1.0018824, -0.0000007843455, -0.0012104058, -797569.5, -3326.418, 0.0, 5.0227127, 4.9591465 
7.651065e+2, 2.239127e+2, -755116.8, -855370.75, -167.55173, 0.00004222443, 0.0014299972, -755116.56, -9460.957, 0.0, 5.0215306, 4.9565954 
7.650401e+2, 2.2886898e+2, -709748.5, -808741.2, -198.93922, -0.00004027798, -0.0012853338, -709748.06, -12663.904, 0.0, 5.020334, 4.9562464 
7.649738e+2, 2.3382401e+2, -667228.6, -768347.5, -334.42468, 0.0000503355, 0.0016308664, -667227.5, -18702.766, 0.0, 5.019124, 4.9537253 
7.6490736e+2, 2.3877737e+2, -621872.9, -721670.56, -432.21542, -0.00006880763, -0.0015851551, -621871.0, -21889.234, 0.0, 5.017894, 4.9533815 
7.6484096e+2, 2.4372956e+2, -579401.94, -681335.0, -450.2766, 0.00012668647, 0.0018930588, -579399.94, -27949.527, 0.0, 5.0166483, 4.950818 
7.6477444e+2, 2.4868008e+2, -533964.6, -634350.7, -623.12604, 0.000091391164, -0.0015306085, -533960.8, -31025.441, 0.0, 5.0153737, 4.9505744 
7.6470804e+2, 2.5362936e+2, -491704.16, -594359.56, -515.70917, -0.000018052555, 0.0017570442, -491701.56, -37269.152, 0.0, 5.0140753, 4.9478793 
7.646416e+2, 2.5857705e+2, -446031.97, -546712.9, -743.0356, -0.00019157406, -0.0019165989, -446026.47, -40081.555, 0.0, 5.0127563, 4.9478607 
7.645755e+2, 2.6352355e+2, -404052.88, -507347.0, -517.67285, 0.0002486182, 0.0020698446, -404050.28, -46581.047, 0.0, 5.011426, 4.94492 
7.645093e+2, 2.684686e+2, -358058.5, -458864.88, -716.7385, 0.00053321937, -0.00066402834, -358053.4, -49045.44, 0.0, 5.010069, 4.945185 
7.6444334e+2, 2.7341208e+2, -316440.2, -420158.3, -404.92358, -0.0003740468, 0.0014563865, -316438.6, -55876.76, 0.0, 5.0086727, 4.941995 
7.6437753e+2, 2.7835396e+2, -270193.94, -370895.7, -608.87665, -0.0009974536, -0.005427619, -270190.25, -58059.145, 0.0, 5.0072594, 4.942533 
7.643123e+2, 2.832954e+2, -228789.19, -332849.03, -103.210266, 0.0006837669, 0.0037930557, -228789.08, -65083.594, 0.0, 5.005863, 4.939067 
7.6424754e+2, 2.8823596e+2, -182172.94, -282892.78, -104.971245, 0.0032896257, 0.010557459, -182172.83, -66885.01, 0.0, 5.004465, 4.939818 
7.641825e+2, 2.9317245e+2, -141368.48, -245025.19, 615.51483, -0.0012631294, -0.0019588382, -141364.83, -74454.586, 0.0, 5.0027976, 4.9363694 
7.641175e+2, 2.9810554e+2, -95719.8, -195094.53, 638.751, -0.009611713, -0.044312272, -95715.695, -77149.3, 0.0, 5.0009546, 4.937279 
7.6405543e+2, 3.0305532e+2, -56724.29, -132017.17, 1767.1595, 0.0030370555, 0.013809531, -56682.836, -56682.836, 0.0, 4.9999566, 4.951512 
7.639957e+2, 3.0802113e+2, -58207.227, -133361.05, 2047.094, 0.030670844, 0.14669833, -58151.508, -58151.508, 0.0, 4.999545, 4.951203 
7.639245e+2, 3.1294686e+2, -43637.74, -85664.01, -1261.3672, -0.03717866, -0.19848305, -43599.914, -43599.914, 0.0, 4.9968953, 4.969782 
7.6386595e+2, 3.1795204e+2, -6335.37, 24728.082, -2032.4377, 0.031010302, 0.13633211, 24860.496, 24860.496, 0.0, 4.9923377, 5.0124493 
7.714524e+2, 1.2456296e+2, -1624465.5, -1721753.1, 705.8476, -0.00023503262, 0.00043033872, -1624460.5, 94822.62, 0.0, 5.046731, 4.982898 
7.713876e+2, 1.2954503e+2, -1581853.0, -1678204.9, 897.9206, 0.00021136564, -0.0025763267, -1581844.6, 88614.09, 0.0, 5.0451374, 4.98196 
7.713225e+2, 1.3452642e+2, -1539484.6, -1635545.9, 486.29416, -0.00051381276, 0.004218971, -1539482.3, 82159.07, 0.0, 5.0436206, 4.9805927 
7.7125716e+2, 1.395062e+2, -1495909.1, -1590659.4, 590.9854, -0.00018655979, -0.0017695684, -1495905.4, 76933.73, 0.0, 5.0421457, 4.980013 
7.711917e+2, 1.4448522e+2, -1453680.8, -1548904.1, 452.0819, 0.00024183866, -0.00013554409, -1453678.6, 70366.32, 0.0, 5.0407386, 4.978317 
7.7112603e+2, 1.4946337e+2, -1409605.6, -1503526.8, 509.12878, -0.00028787498, -0.0005777588, -1409602.9, 65656.29, 0.0, 5.039364, 4.977834 
7.710603e+2, 1.5444016e+2, -1367302.6, -1462115.5, 420.20236, -0.00013317964, 0.0016304371, -1367300.8, 59185.68, 0.0, 5.038041, 4.975982 
7.7099437e+2, 1.5941574e+2, -1322932.6, -1416588.8, 419.61795, -0.00018549158, -0.0012948094, -1322930.8, 54795.15, 0.0, 5.0367475, 4.9754868 
7.709283e+2, 1.6439012e+2, -1280572.8, -1375517.1, 414.6032, -0.000019959009, 0.0012803159, -1280571.0, 48405.88, 0.0, 5.0354986, 4.9734535 
7.708623e+2, 1.693632e+2, -1235865.3, -1329693.3, 312.44147, -0.00007880693, -0.0010861084, -1235864.3, 44376.43, 0.0, 5.034274, 4.972998 
7.70796e+2, 1.7433502e+2, -1193510.8, -1288969.4, 361.29648, -0.00023698268, 0.001297257, -1193509.4, 38007.44, 0.0, 5.03307, 4.9707904 
7.707298e+2, 1.7930546e+2, -1148537.9, -1242890.8, 205.39783, -0.00020846957, -0.0010918729, -1148537.5, 34269.117, 0.0, 5.0318933, 4.9703736 
7.7066326e+2, 1.842746e+2, -1106175.4, -1202437.3, 256.30374, 0.00010549115, 0.0013212278, -1106174.6, 27934.318, 0.0, 5.0307293, 4.9680243 
7.7059686e+2, 1.8924227e+2, -1060993.5, -1156141.5, 52.748985, -0.00007976096, -0.0011312087, -1060993.5, 24432.398, 0.0, 5.029583, 4.967642 
7.7053005e+2, 1.9420867e+2, -1018640.4, -1115895.4, 97.5574, -0.00028733417, 0.0013726503, -1018640.25, 18115.006, 0.0, 5.0284333, 4.965177 
7.704634e+2, 1.991735e+2, -973302.8, -1069402.3, -114.34213, -0.00016380468, -0.0012064449, -973302.7, 14797.246, 0.0, 5.0273, 4.9648304 
7.703964e+2, 2.0413706e+2, -930948.0, -1029279.25, -132.26373, 0.00014161214, 0.0014536948, -930947.9, 8509.074, 0.0, 5.026154, 4.962292 
7.703294e+2, 2.09099e+2, -885519.06, -982660.1, -285.55362, -0.000060771094, -0.0012108529, -885518.2, 5311.706, 0.0, 5.025019, 4.961963 
7.702622e+2, 2.140597e+2, -843132.2, -942567.25, -409.14224, -0.00023659242, 0.0014011317, -843130.5, -915.3882, 0.0, 5.023866, 4.959381 
7.7019495e+2, 2.1901874e+2, -797680.06, -895859.25, -486.2279, -0.000042286785, -0.0012237481, -797677.7, -4061.2, 0.0, 5.0227075, 4.9590673 
7.7012753e+2, 2.2397657e+2, -755246.7, -855673.2, -688.49286, 0.000053599804, 0.0014933272, -755241.94, -10212.128, 0.0, 5.021528, 4.9564962 
7.7006e+2, 2.2893271e+2, -709879.2, -809059.44, -723.37024, -0.00006881096, -0.0013427049, -709873.94, -13414.399, 0.0, 5.0203333, 4.95614 
7.699925e+2, 2.3388764e+2, -667359.5, -768689.9, -909.72754, -0.000030325136, 0.0016362504, -667351.3, -19450.13, 0.0, 5.019128, 4.9536095 
7.6992476e+2, 2.3884088e+2, -621997.94, -722018.8, -1007.1459, -0.00012270614, -0.0015078135, -621987.8, -22628.404, 0.0, 5.017901, 4.953262 
7.6985717e+2, 2.4379292e+2, -579522.44, -681694.4, -1075.7217, 0.00012343646, 0.0018463657, -579511.1, -28681.69, 0.0, 5.0166593, 4.9506927 
7.6978934e+2, 2.4874328e+2, -534070.6, -634697.9, -1258.1578, 0.0000670284, -0.0018070892, -534054.9, -31739.018, 0.0, 5.0153885, 4.9504514 
7.697217e+2, 2.5369248e+2, -491806.47, -594734.44, -1197.9904, -0.00011476737, 0.0019201001, -491792.53, -37978.742, 0.0, 5.0140963, 4.947743 
7.696539e+2, 2.586401e+2, -446125.47, -547078.4, -1424.7458, -0.00015936367, -0.0010306077, -446105.38, -40778.383, 0.0, 5.012779, 4.9477262 
7.6958644e+2, 2.6358634e+2, -404131.22, -507675.4, -1244.917, 0.00021658362, 0.001525458, -404116.25, -47262.285, 0.0, 5.0114474, 4.9447994 
7.695189e+2, 2.68531e+2, -358145.7, -459206.13, -1459.9578, 0.00033980506, -0.0037096024, -358124.63, -49728.277, 0.0, 5.010089, 4.9450603 
7.694516e+2, 2.7347478e+2, -316543.16, -420567.16, -1191.9214, -0.00035189863, 0.0031089522, -316529.5, -56582.508, 0.0, 5.008698, 4.941844 
7.693844e+2, 2.7841738e+2, -270255.53, -371228.66, -1380.1339, -0.00067558297, 0.004304067, -270236.7, -58726.83, 0.0, 5.0072875, 4.9424067 
7.6931775e+2, 2.8335723e+2, -228775.2, -332879.2, -905.58527, 0.00046130293, -0.0010905735, -228767.33, -65668.22, 0.0, 5.0058646, 4.93906 
7.6925147e+2, 2.8829524e+2, -182279.98, -282978.25, -1000.52386, 0.0021191468, -0.020219753, -182270.03, -67563.234, 0.0, 5.0044227, 4.9398103 
7.691849e+2, 2.9323608e+2, -141263.03, -245065.06, -616.05414, -0.0010165358, 0.011020647, -141259.38, -74972.86, 0.0, 5.002841, 4.9363437 
7.691184e+2, 2.9817733e+2, -95088.04, -194651.78, -535.0971, -0.006367542, 0.050577313, -95085.164, -77222.53, 0.0, 5.0011406, 4.9373646 
7.690549e+2, 3.0311465e+2, -55704.453, -129556.25, 1065.4607, 0.0020955096, -0.021696035, -55689.082, -55689.082, 0.0, 4.9999237, 4.9524226 
7.6899374e+2, 3.080557e+2, -58993.336, -132640.5, 539.08875, 0.020207493, -0.14560674, -58989.39, -58989.39, 0.0, 4.999035, 4.951691 
7.6892203e+2, 3.1304905e+2, -45254.97, -89560.86, -4240.8135, -0.022796907, 0.18965556, -44852.703, -44852.703, 0.0, 4.9968987, 4.9683747 
7.688556e+2, 3.1800485e+2, -14883.5, -1906.3907, 2883.2207, 0.0034474938, 0.052045327, -1294.6423, -1294.6423, 0.0, 4.9936066, 5.002016 
7.76499e+2, 1.24628425e+2, -1622721.0, -1720505.1, 1518.2793, -0.00011184491, 0.00038425016, -1622697.5, 95943.98, 0.0, 5.047249, 4.983051 
7.764325e+2, 1.2961061e+2, -1580261.9, -1677027.8, 1743.2864, 0.00017317943, -0.002690543, -1580230.5, 89585.586, 0.0, 5.045604, 4.982115 
7.763658e+2, 1.3459212e+2, -1538026.5, -1634432.8, 1461.837, -0.0005301839, 0.0042143716, -1538004.3, 82993.0, 0.0, 5.0440454, 4.9807477 
7.7629906e+2, 1.3957204e+2, -1494510.5, -1589568.8, 1604.346, -0.00009700359, -0.0018718989, -1494483.4, 77710.66, 0.0, 5.04255, 4.980172 
7.762322e+2, 1.4455114e+2, -1452358.6, -1547880.8, 1560.8615, 0.00032783128, -0.00026676143, -1452333.1, 71065.69, 0.0, 5.0411267, 4.9784617 
7.761651e+2, 1.495294e+2, -1408305.5, -1502513.0, 1647.3549, -0.00029619614, -0.00061073806, -1408276.8, 66335.16, 0.0, 5.0397453, 4.97798 
7.76098e+2, 1.5450631e+2, -1366041.5, -1461168.0, 1642.8871, -0.00013951291, 0.0016040535, -1366013.1, 59825.016, 0.0, 5.038421, 4.9761076 
7.7603084e+2, 1.5948196e+2, -1321651.3, -1415630.9, 1666.9182, -0.0001437655, -0.001377677, -1321621.6, 55455.246, 0.0, 5.0371356, 4.975613 
7.759636e+2, 1.6445643e+2, -1279317.9, -1374637.4, 1730.2985, 0.000029953666, 0.0011941573, -1279286.5, 49040.715, 0.0, 5.035894, 4.9735503 
7.758963e+2, 1.6942957e+2, -1234573.1, -1328787.8, 1642.609, -0.00006960677, -0.0011264255, -1234544.5, 45045.9, 0.0, 5.0346813, 4.9730997 
7.758288e+2, 1.7440143e+2, -1192224.8, -1288155.0, 1752.679, -0.00021802545, 0.0012160055, -1192192.8, 38673.414, 0.0, 5.0334935, 4.970855 
7.757614e+2, 1.793719e+2, -1147204.6, -1242049.5, 1614.4095, -0.00016486601, -0.0011259654, -1147177.1, 34978.45, 0.0, 5.0323324, 4.970442 
7.756938e+2, 1.8434103e+2, -1104844.3, -1201676.3, 1711.2245, 0.00016177325, 0.0012851193, -1104814.0, 28643.855, 0.0, 5.031186, 4.9680567 
7.756262e+2, 1.893087e+2, -1059610.6, -1155356.9, 1510.4031, -0.00007677696, -0.0012019266, -1059586.9, 25188.02, 0.0, 5.030059, 4.9676747 
7.755583e+2, 1.9427507e+2, -1017250.44, -1115170.3, 1587.466, -0.00023366054, 0.0013407837, -1017224.75, 18879.75, 0.0, 5.028928, 4.965183 
7.7549046e+2, 1.9923985e+2, -971857.1, -1068668.4, 1375.8324, -0.000110196095, -0.0012166043, -971837.56, 15611.933, 0.0, 5.0278172, 4.96483 
7.7542233e+2, 2.0420337e+2, -929485.0, -1028602.9, 1370.8654, 0.0001571096, 0.0014204222, -929466.06, 9341.078, 0.0, 5.026692, 4.962262 
7.7535427e+2, 2.0916523e+2, -884013.06, -981963.56, 1211.1653, -0.000030821637, -0.0011921392, -883998.1, 6182.6763, 0.0, 5.025573, 4.961934 
7.752859e+2, 2.1412584e+2, -841625.25, -941934.0, 1087.34, -0.00019379234, 0.0013546393, -841613.44, -46.561172, 0.0, 5.024434, 4.959324 
7.752175e+2, 2.1908478e+2, -796130.6, -895214.94, 1004.3218, -0.000004104318, -0.0013101718, -796120.44, -3151.2183, 0.0, 5.023293, 4.9590077 
7.751489e+2, 2.240425e+2, -753701.0, -855079.1, 779.20667, 0.000095680414, 0.0015289967, -753695.0, -9311.437, 0.0, 5.0221224, 4.9564157 
7.750802e+2, 2.2899854e+2, -708314.9, -808463.2, 747.03485, -0.0000064687897, -0.0013671248, -708309.3, -12494.793, 0.0, 5.0209365, 4.956058 
7.750115e+2, 2.3395333e+2, -665818.44, -768155.06, 516.9046, 0.000016832197, 0.0015395973, -665815.8, -18558.293, 0.0, 5.019732, 4.9535084 
7.749425e+2, 2.3890641e+2, -620468.6, -721479.5, 427.1835, -0.00006455601, -0.0015515484, -620466.8, -21749.648, 0.0, 5.0185, 4.953166 
7.748737e+2, 2.4385832e+2, -578045.5, -681221.06, 313.65015, 0.0001383948, 0.0018230167, -578044.56, -27856.04, 0.0, 5.0172477, 4.95058 
7.748046e+2, 2.4880853e+2, -532626.6, -634243.2, 132.86589, 0.00009875651, -0.0018473238, -532626.44, -30950.041, 0.0, 5.015967, 4.950338 
7.7473557e+2, 2.5375757e+2, -490391.22, -594288.06, 140.77357, -0.000102234124, 0.0018827571, -490391.0, -37215.19, 0.0, 5.014664, 4.9476323 
7.746665e+2, 2.5870505e+2, -444768.5, -546681.2, -87.12269, -0.00007969161, -0.0011896912, -444768.44, -40077.766, 0.0, 5.013331, 4.9476066 
7.745977e+2, 2.6365113e+2, -402856.16, -507294.94, 42.31133, 0.0002514153, 0.0014752176, -402856.16, -46637.117, 0.0, 5.0119677, 4.944688 
7.745288e+2, 2.6859564e+2, -356955.47, -458883.9, -199.97346, 0.0002983669, -0.0034790852, -356955.1, -49192.453, 0.0, 5.010583, 4.944941 
7.744601e+2, 2.7353927e+2, -315389.1, -420221.56, 42.086933, -0.00027775616, 0.0029442606, -315389.1, -56074.074, 0.0, 5.009172, 4.941742 
7.743915e+2, 2.7848166e+2, -269168.13, -370943.06, -149.978, -0.00049161114, 0.0035866858, -269167.9, -58288.09, 0.0, 5.0077443, 4.942292 
7.743233e+2, 2.8342146e+2, -227906.14, -332688.84, 185.26102, 0.00042410832, -0.0010802103, -227905.81, -65435.895, 0.0, 5.0062423, 4.9389467 
7.742555e+2, 2.883594e+2, -181728.97, -282959.16, -14.846113, 0.0017933222, -0.01911941, -181728.97, -67650.87, 0.0, 5.004691, 4.9396844 
7.741875e+2, 2.9329994e+2, -140433.16, -245064.97, 241.27467, -0.00089244894, 0.011010587, -140432.6, -74772.15, 0.0, 5.003238, 4.936158 
7.741196e+2, 2.9824078e+2, -93604.6, -194554.84, 149.30692, -0.0051514492, 0.048790608, -93604.38, -76364.44, 0.0, 5.001813, 4.937097 
7.740544e+2, 3.0317754e+2, -56504.16, -131906.94, 680.10645, 0.0021906905, -0.022952452, -56498.027, -56498.027, 0.0, 5.000041, 4.951511 
7.739913e+2, 3.0811775e+2, -61804.4, -134290.19, -1285.4536, 0.017005267, -0.14597705, -61781.61, -61781.61, 0.0, 4.9981112, 4.951481 
7.739187e+2, 3.1311503e+2, -39027.664, -77158.414, -3932.1248, -0.019705912, 0.20732921, -38626.4, -38626.4, 0.0, 4.9973397, 4.97269 
7.7384955e+2, 3.1803814e+2, -4297.363, 8037.3506, 7649.2783, -0.008403791, -0.30158347, 11695.865, 11695.865, 0.0, 4.996497, 5.0044627 
7.815457e+2, 1.246952e+2, -1623142.8, -1720413.5, 853.32605, -0.00017230952, 0.00042131043, -1623135.3, 94851.87, 0.0, 5.047031, 4.9831934 
7.814776e+2, 1.296775e+2, -1580606.4, -1676905.8, 1066.1361, 0.000050746574, -0.0026577984, -1580594.6, 88565.82, 0.0, 5.0454135, 4.982254 
7.8140944e+2, 1.3465917e+2, -1538301.8, -1634262.8, 895.5834, -0.00062175165, 0.004383375, -1538293.4, 82046.84, 0.0, 5.043877, 4.9808903 
7.8134114e+2, 1.396392e+2, -1494735.6, -1589370.9, 1043.0316, -0.0001556526, -0.001842618, -1494724.1, 76811.77, 0.0, 5.042399, 4.9803157 
7.812728e+2, 1.4461844e+2, -1452562.0, -1547705.5, 1066.817, 0.00030163612, -0.00026841176, -1452550.1, 70189.31, 0.0, 5.0409923, 4.978589 
7.8120434e+2, 1.4959681e+2, -1408462.3, -1502313.5, 1153.5339, -0.00037442739, -0.00053373375, -1408448.0, 65503.21, 0.0, 5.0396266, 4.978108 
7.81136e+2, 1.5457384e+2, -1366192.1, -1461017.8, 1212.1322, -0.00020323132, 0.0017146572, -1366176.6, 58999.777, 0.0, 5.0383167, 4.976212 
7.810675e+2, 1.5954956e+2, -1321764.3, -1415459.4, 1237.2079, -0.00017640689, -0.0013483026, -1321747.9, 54666.47, 0.0, 5.037043, 4.9757185 
7.80999e+2, 1.645241e+2, -1279444.4, -1374543.6, 1343.7401, -0.000013337453, 0.001201252, -1279425.4, 48238.53, 0.0, 5.0358133, 4.973623 
7.809305e+2, 1.6949731e+2, -1234661.1, -1328665.0, 1250.898, -0.00012386263, -0.0010320027, -1234644.5, 44281.848, 0.0, 5.034611, 4.9731774 
7.808618e+2, 1.7446922e+2, -1192326.4, -1288122.0, 1392.011, -0.0002596404, 0.001238329, -1192306.3, 37895.492, 0.0, 5.0334363, 4.970896 
7.8079325e+2, 1.7943971e+2, -1147270.4, -1241997.4, 1241.287, -0.00022585467, -0.0011190474, -1147254.1, 34236.75, 0.0, 5.032287, 4.9704833 
7.8072447e+2, 1.8440889e+2, -1104935.3, -1201714.9, 1355.9158, 0.00012204178, 0.0013158628, -1104916.3, 27876.78, 0.0, 5.0311494, 4.9680624 
7.8065574e+2, 1.8937655e+2, -1059682.0, -1155395.5, 1135.6931, -0.0001563258, -0.0011922043, -1059668.5, 24441.426, 0.0, 5.0300303, 4.967677 
7.805867e+2, 1.943429e+2, -1017336.9, -1115290.5, 1223.6625, -0.00024244271, 0.0013910263, -1017321.6, 18118.152, 0.0, 5.0289083, 4.965155 
7.805178e+2, 1.9930765e+2, -971933.8, -1068796.1, 991.3763, -0.00012226934, -0.0012149843, -971923.6, 14861.561, 0.0, 5.0278034, 4.9647965 
7.8044856e+2, 2.0427108e+2, -929590.06, -1028816.1, 975.54626, 0.00005159339, 0.0013328645, -929580.44, 8563.066, 0.0, 5.0266833, 4.962197 
7.8037935e+2, 2.0923288e+2, -884101.5, -982167.25, 795.16174, -0.00008056182, -0.0011971802, -884095.06, 5422.7515, 0.0, 5.0255694, 4.96187 
7.803098e+2, 2.141934e+2, -841744.75, -942214.8, 651.3598, -0.00017492806, 0.0013693874, -841740.5, -835.74414, 0.0, 5.024432, 4.9592323 
7.802403e+2, 2.1915224e+2, -796253.56, -895515.25, 546.90784, -0.000049687544, -0.0013762848, -796250.56, -3942.375, 0.0, 5.023293, 4.958908 
7.8017056e+2, 2.2410984e+2, -753834.75, -855429.2, 287.15295, 0.000017315193, 0.0015955096, -753833.94, -10110.399, 0.0, 5.022127, 4.9562964 
7.8010064e+2, 2.2906575e+2, -708445.06, -808820.5, 249.10222, -0.000054899196, -0.0013630169, -708444.44, -13288.709, 0.0, 5.020944, 4.9559345 
7.800307e+2, 2.340204e+2, -665952.2, -768544.7, -43.625465, -0.000025732721, 0.0014612852, -665952.1, -19351.959, 0.0, 5.019744, 4.953373 
7.799605e+2, 2.3897335e+2, -620594.2, -721868.1, -131.90823, -0.00007588402, -0.0015587917, -620594.0, -22532.787, 0.0, 5.018515, 4.953029 
7.798904e+2, 2.4392511e+2, -578166.8, -681630.6, -308.8244, 0.00007592832, 0.0018538053, -578165.9, -28631.844, 0.0, 5.017268, 4.9504323 
7.798201e+2, 2.4887517e+2, -532745.56, -634660.6, -487.327, 0.000085204774, -0.001834422, -532743.2, -31719.799, 0.0, 5.01599, 4.9501863 
7.797498e+2, 2.5382406e+2, -490506.13, -594711.06, -535.8337, -0.000119249766, 0.0018694559, -490503.38, -37979.0, 0.0, 5.014689, 4.9474773 
7.7967936e+2, 2.5877133e+2, -444879.5, -547104.06, -771.2615, -0.0001087971, -0.0014710419, -444873.7, -40832.637, 0.0, 5.013357, 4.947451 
7.796092e+2, 2.637173e+2, -402961.94, -507726.56, -694.8858, 0.000205018, 0.0015708235, -402957.3, -47386.684, 0.0, 5.0119967, 4.9445276 
7.7953887e+2, 2.6866174e+2, -357055.06, -459303.03, -927.4626, 0.0002508724, -0.002561791, -357046.63, -49931.582, 0.0, 5.010612, 4.9447846 
7.794688e+2, 2.7360508e+2, -315479.9, -420616.3, -735.04596, -0.00028980584, 0.0023700362, -315474.78, -56804.45, 0.0, 5.0091987, 4.941595 
7.7939874e+2, 2.7854702e+2, -269297.5, -371387.3, -936.0767, -0.0004987415, 0.0004649632, -269288.94, -59049.887, 0.0, 5.0077634, 4.9421306 
7.793291e+2, 2.8348708e+2, -228026.22, -333191.7, -662.0992, 0.00034333047, 0.000474893, -228022.05, -66195.59, 0.0, 5.0062757, 4.9387593 
7.792597e+2, 2.8842568e+2, -181804.97, -283478.0, -823.4734, 0.0016980207, -0.009418043, -181798.3, -68369.59, 0.0, 5.004747, 4.9394813 
7.7919024e+2, 2.9336455e+2, -140649.11, -245820.02, -453.15997, -0.0010660358, 0.006608778, -140647.16, -75620.24, 0.0, 5.0032735, 4.9358826 
7.79121e+2, 2.9830247e+2, -94170.1, -195876.81, -538.85724, -0.0051913173, 0.018011667, -94167.25, -77532.69, 0.0, 5.0017996, 4.93664 
7.7905405e+2, 3.0324244e+2, -58339.125, -135970.4, 95.807335, 0.0025892092, -0.011434458, -58339.008, -58339.008, 0.0, 4.999983, 4.950079 
7.789889e+2, 3.0818966e+2, -63141.098, -136845.67, -1086.3015, 0.01676331, -0.05012183, -63125.09, -63125.09, 0.0, 4.997987, 4.9506216 
7.7891505e+2, 3.131676e+2, -31785.674, -60869.633, -3504.3232, -0.022475325, 0.07429786, -31369.396, -31369.396, 0.0, 4.997431, 4.9786205 
7.788501e+2, 3.1814402e+2, -23452.504, -38329.54, 4275.6396, 0.034856644, 0.058188, -22311.24, -22311.24, 0.0, 4.996802, 4.987182 
7.865924e+2, 1.2476405e+2, -1621616.5, -1719184.5, 1700.5802, -0.00020729541, 0.0003487075, -1621586.9, 95725.54, 0.0, 5.047458, 4.9833837 
7.865227e+2, 1.2974651e+2, -1579206.8, -1675724.4, 1957.1552, 0.00018615041, -0.0027280613, -1579167.1, 89317.11, 0.0, 5.0457964, 4.9824514 
7.8645295e+2, 1.3472831e+2, -1537022.1, -1633149.4, 1931.0947, -0.00050873106, 0.0043837223, -1536983.4, 82679.08, 0.0, 5.044225, 4.981082 
7.8638315e+2, 1.397085e+2, -1493504.0, -1588277.5, 2113.4578, -0.00020527192, -0.0019599143, -1493457.0, 77399.734, 0.0, 5.042732, 4.980509 
7.863135e+2, 1.4468788e+2, -1451390.3, -1546682.8, 2244.9797, 0.00035414373, -0.0003993176, -1451337.4, 70721.445, 0.0, 5.0413184, 4.978762 
7.862437e+2, 1.496664e+2, -1407282.3, -1501281.1, 2363.5586, -0.00030509857, -0.0005980555, -1407222.9, 66046.54, 0.0, 5.0399556, 4.978284 
7.8617394e+2, 1.5464354e+2, -1365033.6, -1460058.5, 2514.9597, -0.00016682564, 0.0016691982, -1364967.1, 59526.227, 0.0, 5.0386534, 4.9763594 
7.8610426e+2, 1.5961938e+2, -1320561.5, -1414475.1, 2564.2283, -0.0001462185, -0.0014209516, -1320491.6, 55238.668, 0.0, 5.0373955, 4.9758687 
7.8603446e+2, 1.64594e+2, -1278250.6, -1373643.3, 2745.7473, 0.00000067118765, 0.0010819127, -1278171.6, 48807.29, 0.0, 5.0361824, 4.9737363 
7.8596485e+2, 1.6956729e+2, -1233406.0, -1327736.3, 2675.0015, -0.00008425865, -0.0010767361, -1233330.3, 44910.42, 0.0, 5.0350018, 4.9732924 
7.8589493e+2, 1.7453924e+2, -1191066.5, -1287281.6, 2873.4927, -0.0001759196, 0.0012082715, -1190980.8, 38534.668, 0.0, 5.0338492, 4.970971 
7.8582525e+2, 1.7950976e+2, -1145947.3, -1241130.5, 2736.2786, -0.00020086223, -0.0011804719, -1145868.6, 34935.754, 0.0, 5.032724, 4.9705577 
7.857554e+2, 1.8447895e+2, -1103593.6, -1200918.4, 2892.7273, 0.00013394647, 0.0012504815, -1103507.8, 28598.645, 0.0, 5.0316105, 4.968103 
7.8568554e+2, 1.8944661e+2, -1058267.5, -1154579.4, 2675.571, -0.00010846109, -0.0012030457, -1058193.3, 25230.06, 0.0, 5.0305195, 4.967713 
7.8561544e+2, 1.9441292e+2, -1015886.44, -1114545.0, 2789.3027, -0.00017120519, 0.0013627528, -1015807.6, 18945.83, 0.0, 5.0294285, 4.9651537 
7.855454e+2, 1.9937763e+2, -970418.3, -1068024.9, 2555.8362, -0.00009128208, -0.0012275215, -970351.44, 15747.904, 0.0, 5.0283484, 4.9647937 
7.85475e+2, 2.04341e+2, -928045.4, -1028101.56, 2553.0166, 0.000071051276, 0.0012793497, -927980.25, 9478.103, 0.0, 5.027254, 4.9621625 
7.8540474e+2, 2.0930272e+2, -882492.8, -981445.75, 2365.8232, -0.00003748688, -0.0012657272, -882436.25, 6397.1704, 0.0, 5.026168, 4.961827 
7.853341e+2, 2.1426314e+2, -840117.06, -941543.9, 2213.772, -0.00009721867, 0.0014407532, -840068.8, 152.47379, 0.0, 5.0250497, 4.9591637 
7.852634e+2, 2.1922186e+2, -794567.7, -894830.44, 2102.1345, 0.00002282943, -0.0013873025, -794523.6, -2897.8025, 0.0, 5.023934, 4.9588356 
7.851925e+2, 2.2417934e+2, -752134.94, -854805.56, 1820.8885, 0.00003516968, 0.0015000838, -752102.6, -9060.091, 0.0, 5.0227847, 4.956197 
7.8512144e+2, 2.2913508e+2, -706724.8, -808198.1, 1784.5043, 0.0000026116256, -0.0014010401, -706693.44, -12217.302, 0.0, 5.0216126, 4.9558315 
7.850503e+2, 2.3408958e+2, -664243.9, -767951.6, 1444.1969, 0.000014968715, 0.0014149789, -664223.8, -18301.75, 0.0, 5.020413, 4.953262 
7.8497887e+2, 2.3904237e+2, -618914.75, -721321.5, 1375.939, 0.000011046484, -0.0016271693, -618896.3, -21511.549, 0.0, 5.0191817, 4.9529047 
7.849075e+2, 2.4399397e+2, -576490.6, -681088.8, 1133.5239, 0.00007741964, 0.001808667, -576478.4, -27619.201, 0.0, 5.017934, 4.9503074 
7.848359e+2, 2.4894385e+2, -531099.25, -634155.0, 944.60565, 0.00011532204, -0.001968976, -531090.56, -30740.314, 0.0, 5.01665, 4.950053 
7.8476435e+2, 2.5389257e+2, -488922.63, -594232.44, 849.81506, 0.0000030014094, 0.0018309199, -488915.78, -37062.953, 0.0, 5.015327, 4.947347 
7.846926e+2, 2.5883967e+2, -443345.97, -546656.94, 610.7565, -0.00007815794, -0.0014674902, -443342.34, -39971.09, 0.0, 5.01398, 4.9473176 
7.84621e+2, 2.6378542e+2, -401484.03, -507289.88, 639.1585, 0.00014942483, 0.0013856373, -401480.16, -46577.54, 0.0, 5.012596, 4.944401 
7.845493e+2, 2.6872972e+2, -355657.84, -458914.56, 393.58905, 0.00046490747, -0.0027202708, -355656.34, -49207.613, 0.0, 5.011185, 4.9446545 
7.844777e+2, 2.736729e+2, -314162.0, -420235.06, 542.1897, -0.00027807083, 0.0024383608, -314159.22, -56153.848, 0.0, 5.0097404, 4.9414763 
7.8440624e+2, 2.7861473e+2, -268080.28, -371054.66, 333.4652, -0.000978083, 0.0004862421, -268079.22, -58503.516, 0.0, 5.0082693, 4.9420114 
7.8433514e+2, 2.8355458e+2, -226808.25, -332803.94, 592.90125, 0.00072690664, 0.00013711835, -226804.94, -65640.1, 0.0, 5.006771, 4.9386654 
7.842644e+2, 2.8849304e+2, -180575.81, -283089.2, 457.15637, 0.003526994, -0.009662628, -180573.78, -67805.5, 0.0, 5.0052476, 4.939387 
7.841931e+2, 2.9343188e+2, -139659.19, -245497.95, 897.97705, -0.001944669, 0.00687354, -139651.56, -75284.29, 0.0, 5.003681, 4.9358063 
7.841219e+2, 2.983696e+2, -93385.06, -195334.73, 887.27454, -0.010182297, 0.017654493, -93377.34, -77400.67, 0.0, 5.0020733, 4.936701 
7.8405386e+2, 3.0330992e+2, -57226.1, -133776.05, 2206.526, 0.00508826, -0.012192115, -57162.555, -57162.555, 0.0, 5.0000877, 4.95081 
7.8398776e+2, 3.0825806e+2, -62539.875, -135167.17, 2789.283, 0.030895632, -0.047976147, -62432.91, -62432.91, 0.0, 4.9979615, 4.9512215 
7.8390986e+2, 3.1323454e+2, -32552.44, -64224.61, -1338.7681, -0.04301393, 0.070411906, -32495.951, -32495.951, 0.0, 4.9977636, 4.9772325 
7.8384286e+2, 3.18204e+2, -14548.603, -22119.129, -637.7732, -0.0068997233, -0.007927424, -14495.249, -14495.249, 0.0, 4.9977417, 4.992726 
7.916393e+2, 1.2483425e+2, -1622040.4, -1719013.5, 1012.0214, -0.00030755618, 0.0003943428, -1622029.9, 94594.586, 0.0, 5.04722, 4.9835634 
7.915679e+2, 1.2981687e+2, -1579556.8, -1675512.0, 1261.516, 0.000104402774, -0.0027251036, -1579540.3, 88254.44, 0.0, 5.045583, 4.9826326 
7.9149663e+2, 1.3479887e+2, -1537309.6, -1632908.3, 1359.1044, -0.0005135549, 0.0045306785, -1537290.3, 81680.78, 0.0, 5.044036, 4.9812593 
7.9142535e+2, 1.3977921e+2, -1493725.6, -1588010.6, 1542.7632, -0.00034652237, -0.001956351, -1493700.4, 76463.4, 0.0, 5.042567, 4.9806833 
7.913543e+2, 1.4475873e+2, -1451594.6, -1546448.3, 1758.2158, 0.00029588892, -0.00038640795, -1451562.0, 69802.484, 0.0, 5.0411706, 4.9789157 
7.912831e+2, 1.497374e+2, -1407442.6, -1501023.9, 1881.5975, -0.0003600277, -0.00050578284, -1407404.9, 65168.695, 0.0, 5.0398226, 4.978438 
7.912121e+2, 1.5471466e+2, -1365198.4, -1459870.8, 2104.1113, -0.00023016927, 0.0017447602, -1365151.6, 58644.71, 0.0, 5.038535, 4.976482 
7.911411e+2, 1.5969062e+2, -1320679.6, -1414257.4, 2154.8977, -0.0001959511, -0.0013492866, -1320630.0, 54402.08, 0.0, 5.037291, 4.975994 
7.9107016e+2, 1.6466533e+2, -1278380.9, -1373522.0, 2386.0793, -0.00006399952, 0.0010965791, -1278321.1, 47958.76, 0.0, 5.0360937, 4.9738216 
7.9099935e+2, 1.6963871e+2, -1233495.1, -1327597.6, 2317.9685, -0.0001725876, -0.0010740984, -1233438.0, 44102.754, 0.0, 5.034928, 4.973376 
7.9092836e+2, 1.7461072e+2, -1191171.3, -1287234.9, 2549.3264, -0.00017655078, 0.0012854651, -1191103.8, 37711.293, 0.0, 5.033789, 4.9710164 
7.908575e+2, 1.7958128e+2, -1146015.3, -1241070.1, 2404.0186, -0.00024071922, -0.0011393325, -1145954.5, 34149.105, 0.0, 5.032677, 4.970602 
7.907865e+2, 1.8455048e+2, -1103675.8, -1200956.3, 2582.3643, 0.000052627987, 0.0012182806, -1103607.3, 27798.264, 0.0, 5.0315766, 4.968109 
7.907156e+2, 1.8951812e+2, -1058329.4, -1154622.9, 2352.3467, -0.0001591918, -0.0012225701, -1058272.0, 24450.494, 0.0, 5.030496, 4.9677124 
7.9064435e+2, 1.9448441e+2, -1015974.06, -1114678.1, 2469.6099, -0.00019671096, 0.0013289464, -1015912.3, 18140.637, 0.0, 5.029413, 4.965118 
7.9057324e+2, 1.9944906e+2, -970489.2, -1068161.6, 2219.002, -0.00013573749, -0.0012113305, -970438.8, 14960.442, 0.0, 5.028341, 4.9647536 
7.9050183e+2, 2.0441236e+2, -928140.56, -1028321.06, 2207.1277, 0.000031084754, 0.0012502903, -928091.94, 8667.012, 0.0, 5.0272512, 4.962092 
7.904304e+2, 2.09374e+2, -882594.6, -981703.8, 1992.2162, -0.00009813824, -0.0013887115, -882554.6, 5580.2646, 0.0, 5.0261693, 4.961741 
7.9035866e+2, 2.1433434e+2, -840230.06, -941858.4, 1819.3079, -0.0001354684, 0.001548183, -840197.5, -673.89014, 0.0, 5.0250573, 4.959056 
7.9028684e+2, 2.1929292e+2, -794671.8, -895147.0, 1684.6891, -0.00000781736, -0.0013968982, -794643.6, -3714.176, 0.0, 5.0239453, 4.958725 
7.902148e+2, 2.2425024e+2, -752269.56, -855194.75, 1356.5868, -0.000048613623, 0.0013244348, -752251.6, -9904.036, 0.0, 5.0227976, 4.956061 
7.9014254e+2, 2.2920588e+2, -706857.7, -808594.5, 1308.3513, -0.0000239654, -0.0013883185, -706840.9, -13058.418, 0.0, 5.0216274, 4.955692 
7.900702e+2, 2.3416023e+2, -664375.3, -768380.8, 901.7435, -0.000019996385, 0.001521083, -664367.5, -19137.74, 0.0, 5.0204334, 4.9531074 
7.899976e+2, 2.3911284e+2, -619057.4, -721784.8, 839.1811, 0.00002086794, -0.0016575642, -619050.5, -22356.293, 0.0, 5.019204, 4.9527373 
7.899249e+2, 2.4406426e+2, -576622.8, -681550.8, 519.44385, -0.000015741545, 0.0018152101, -576620.2, -28449.938, 0.0, 5.0179596, 4.9501395 
7.8985196e+2, 2.4901395e+2, -531233.56, -634637.3, 317.90765, 0.0000064029127, -0.0020277284, -531232.56, -31569.344, 0.0, 5.0166783, 4.949877 
7.897791e+2, 2.539625e+2, -489039.28, -594701.1, 170.36403, 0.000086091466, 0.0018957685, -489039.03, -37871.586, 0.0, 5.0153594, 4.9471736 
7.89706e+2, 2.5890943e+2, -443470.72, -547146.56, -70.035126, -0.00004107456, -0.0013517304, -443470.66, -40783.047, 0.0, 5.0140123, 4.9471364 
7.8963304e+2, 2.6385498e+2, -401580.78, -507724.4, -107.44033, 0.000002912635, 0.0011752988, -401580.7, -47359.723, 0.0, 5.012629, 4.944239 
7.8956e+2, 2.6879907e+2, -355789.4, -459409.0, -357.97742, 0.00055576744, -0.0030424464, -355788.16, -50019.176, 0.0, 5.0112143, 4.9444723 
7.8948694e+2, 2.7374217e+2, -314259.03, -420657.4, -263.5804, -0.00030134595, 0.0027899763, -314258.38, -56931.71, 0.0, 5.0097685, 4.9413195 
7.894139e+2, 2.7868384e+2, -268189.63, -371486.9, -473.02765, -0.0015538845, 0.0013183859, -268187.47, -59289.37, 0.0, 5.008294, 4.9418526 
7.8934145e+2, 2.8362346e+2, -226871.14, -333144.25, -270.00775, 0.0009908827, -0.00073977996, -226870.45, -66380.234, 0.0, 5.0067964, 4.9385414 
7.8926927e+2, 2.8856155e+2, -180634.23, -283422.0, -424.64444, 0.005182725, -0.012570621, -180632.48, -68535.625, 0.0, 5.005273, 4.9392653 
7.891962e+2, 2.9350075e+2, -139647.92, -245683.5, -65.707535, -0.0030992285, 0.008949717, -139647.88, -75955.76, 0.0, 5.0037074, 4.9357367 
7.8912294e+2, 2.9843915e+2, -93141.086, -194930.67, -185.80836, -0.0155680245, 0.02683308, -93140.75, -77845.33, 0.0, 5.0020895, 4.9368463 
7.8905374e+2, 3.0337867e+2, -55489.004, -130260.35, 267.2759, 0.0079521155, -0.018958803, -55488.05, -55488.05, 0.0, 5.000173, 4.9520516 
7.889867e+2, 3.083257e+2, -62082.344, -134867.17, 431.61267, 0.04604893, -0.07773169, -62079.785, -62079.785, 0.0, 4.9980903, 4.951285 
7.889047e+2, 3.133079e+2, -37040.188, -74908.695, -748.15283, -0.06486801, 0.11353517, -37025.41, -37025.41, 0.0, 4.997781, 4.973329 
7.8884155e+2, 3.1826702e+2, -6774.0796, -2796.7717, -725.6972, 0.0070769973, -0.0315116, -2668.4983, -2668.4983, 0.0, 4.997481, 5.000005 
7.966862e+2, 1.24906525e+2, -1620767.6, -1717806.5, 1883.084, -0.00013989848, 0.00027932573, -1620731.1, 95184.93, 0.0, 5.0475407, 4.9837976 
7.966131e+2, 1.2988935e+2, -1578410.1, -1674350.1, 2184.4873, -0.0000040405084, -0.002754719, -1578360.4, 88723.9, 0.0, 5.04586, 4.982874 
7.965402e+2, 1.3487156e+2, -1536255.6, -1631814.1, 2455.7112, -0.00040056667, 0.00460368, -1536192.5, 82066.195, 0.0, 5.0442905, 4.9814887 
7.964675e+2, 1.3985205e+2, -1492678.6, -1586913.9, 2678.437, -0.00022810951, -0.0021172534, -1492602.6, 76847.3, 0.0, 5.0428195, 4.980915 
7.96395e+2, 1.4483176e+2, -1450597.3, -1545426.5, 3008.622, 0.00033755606, -0.000557434, -1450501.9, 70147.01, 0.0, 5.0414233, 4.979121 
7.9632246e+2, 1.498106e+2, -1406406.9, -1499980.0, 3166.1128, -0.00036625582, -0.0004970346, -1406299.9, 65556.34, 0.0, 5.040089, 4.978645 
7.9625016e+2, 1.54788e+2, -1364159.9, -1458902.6, 3491.0066, -0.00019066983, 0.0016992715, -1364031.4, 59046.15, 0.0, 5.0388217, 4.9766536 
7.96178e+2, 1.5976407e+2, -1319575.4, -1413259.3, 3569.5144, -0.00014032173, -0.0014603612, -1319439.5, 54872.605, 0.0, 5.037602, 4.9761653 
7.961059e+2, 1.6473891e+2, -1277268.6, -1372607.8, 3878.7598, 0.000013915629, 0.0010230693, -1277111.0, 48447.78, 0.0, 5.0364285, 4.973953 
7.9603386e+2, 1.6971235e+2, -1232294.1, -1326649.3, 3830.4314, -0.00018145613, -0.0011506481, -1232138.9, 44679.996, 0.0, 5.035296, 4.9735045 
7.959618e+2, 1.7468445e+2, -1189942.0, -1286363.8, 4118.138, -0.00013208605, 0.0012004446, -1189766.4, 38326.05, 0.0, 5.0341907, 4.9711046 
7.958899e+2, 1.7965505e+2, -1144697.6, -1240166.5, 3987.2046, -0.00016127511, -0.0011695484, -1144531.4, 34849.195, 0.0, 5.0331106, 4.9706874 
7.9581773e+2, 1.8462425e+2, -1102309.5, -1200130.9, 4201.0464, 0.00006232609, 0.0011615596, -1102129.4, 28552.957, 0.0, 5.0320477, 4.968153 
7.957458e+2, 1.895919e+2, -1056881.8, -1153780.4, 3980.1082, -0.00012401582, -0.0012387208, -1056718.6, 25280.879, 0.0, 5.031001, 4.967747 
7.9567355e+2, 1.9455813e+2, -1014472.8, -1113881.9, 4115.595, -0.000136814, 0.0013196395, -1014302.7, 19027.521, 0.0, 5.029953, 4.96512 
7.9560137e+2, 1.9952275e+2, -968900.44, -1067359.9, 3860.9553, -0.00008761612, -0.0012493312, -968749.25, 15927.766, 0.0, 5.0289183, 4.964742 
7.955289e+2, 2.0448598e+2, -926494.0, -1027570.75, 3853.9507, 0.00009918645, 0.0012963988, -926347.25, 9690.149, 0.0, 5.0278625, 4.96205 
7.9545635e+2, 2.0944752e+2, -880863.5, -980941.5, 3628.8599, -0.000043936994, -0.0014104504, -880732.06, 6682.22, 0.0, 5.0268164, 4.961688 
7.953835e+2, 2.1440773e+2, -838463.44, -941156.3, 3454.1426, -0.000114273564, 0.0014973707, -838347.4, 456.82144, 0.0, 5.025731, 4.958971 
7.953107e+2, 2.193662e+2, -792847.06, -894421.1, 3312.127, 0.0000696152, -0.0014111802, -792739.2, -2527.8982, 0.0, 5.024641, 4.95864 
7.952374e+2, 2.2432338e+2, -750430.44, -854531.06, 2961.4922, -0.0000019699132, 0.001252453, -750346.25, -8715.328, 0.0, 5.023512, 4.9559484 
7.95164e+2, 2.2927883e+2, -704970.3, -807927.25, 2913.1519, 0.000065791246, -0.0014892073, -704887.94, -11820.611, 0.0, 5.022363, 4.955572 
7.9509044e+2, 2.3423304e+2, -662474.6, -767759.5, 2456.5037, 0.000039655166, 0.0015194148, -662417.4, -17901.053, 0.0, 5.0211835, 4.952968 
7.950166e+2, 2.3918544e+2, -617146.75, -721168.7, 2394.7893, 0.00010446888, -0.001779178, -617091.7, -21109.045, 0.0, 5.0199604, 4.952595 
7.9494274e+2, 2.4413668e+2, -574760.94, -680976.6, 2016.8606, 0.000042977674, 0.0016763805, -574722.7, -27262.094, 0.0, 5.0187035, 4.949992 
7.948685e+2, 2.4908617e+2, -529398.4, -634084.7, 1812.1931, 0.0000069703983, -0.0020637624, -529367.0, -30411.566, 0.0, 5.0174155, 4.949726 
7.947943e+2, 2.5403452e+2, -487242.38, -594167.56, 1604.2614, 0.00011320192, 0.0018440458, -487218.3, -36756.75, 0.0, 5.0160837, 4.9470224 
7.947199e+2, 2.5898123e+2, -441737.94, -546656.06, 1357.8005, 0.00019549888, -0.0014274827, -441720.38, -39736.637, 0.0, 5.0147176, 4.946981 
7.946454e+2, 2.6392663e+2, -399904.8, -507232.9, 1246.1926, -0.000085649066, 0.0010890946, -399890.34, -46371.426, 0.0, 5.0133085, 4.9440966 
7.945709e+2, 2.688705e+2, -354207.03, -458990.34, 1000.60986, 0.000068360634, -0.0031549488, -354197.47, -49128.504, 0.0, 5.0118666, 4.944318 
7.9449654e+2, 2.7381343e+2, -312744.66, -420219.44, 1017.92236, 0.0001843233, 0.0027846126, -312735.03, -56106.73, 0.0, 5.010386, 4.9411883 
7.944221e+2, 2.7875495e+2, -266788.63, -371112.0, 797.45013, 0.00009328648, 0.001423591, -266782.53, -58581.145, 0.0, 5.0088725, 4.9417176 
7.943479e+2, 2.836943e+2, -225569.2, -332783.9, 953.73065, -0.000006206786, -0.0011289653, -225560.73, -65765.03, 0.0, 5.0073347, 4.9384212 
7.942738e+2, 2.886322e+2, -179453.61, -283127.0, 755.8806, 0.00042495242, -0.013192116, -179448.1, -68043.82, 0.0, 5.0057697, 4.9391418 
7.941999e+2, 2.935714e+2, -138640.77, -245438.02, 1007.5659, -0.00023378889, 0.009730931, -138631.27, -75631.64, 0.0, 5.004139, 4.9356217 
7.941261e+2, 2.9850978e+2, -92441.22, -195131.83, 733.25806, -0.00084751484, 0.028820613, -92435.984, -77832.766, 0.0, 5.00247, 4.9365945 
7.9405284e+2, 3.0344814e+2, -55368.92, -132222.02, -239.85023, 0.0009567249, -0.021334926, -55368.176, -55368.176, 0.0, 5.0006347, 4.95113 
7.9398036e+2, 3.083939e+2, -60712.13, -134921.22, -1510.0792, 0.0038352357, -0.08392019, -60681.414, -60681.414, 0.0, 4.9987454, 4.9509687 
7.9390705e+2, 3.1337833e+2, -35251.766, -71261.26, 25.702848, -0.011305951, 0.12642694, -35251.746, -35251.746, 0.0, 4.9979167, 4.9745846 
7.9384226e+2, 3.1833127e+2, -7092.6553, -865.8887, 3497.229, 0.04669595, -0.09585137, 703.01013, 703.01013, 0.0, 4.9969893, 5.000917 
8.0173314e+2, 1.24980204e+2, -1621202.8, -1717544.0, 1171.4896, -0.00024620886, 0.00026875743, -1621188.5, 94005.42, 0.0, 5.047278, 4.9840198 
8.0165833e+2, 1.2996325e+2, -1578728.4, -1674031.0, 1463.0056, -0.0001962144, -0.0027679875, -1578705.9, 87654.305, 0.0, 5.0456357, 4.983096 
8.01584e+2, 1.3494568e+2, -1536532.8, -1631484.3, 1888.578, -0.00038249165, 0.0047936244, -1536495.3, 81037.13, 0.0, 5.0440865, 4.9817023 
8.0150974e+2, 1.3992636e+2, -1492900.1, -1586559.5, 2113.7732, -0.0003193335, -0.0021429171, -1492852.4, 75869.3, 0.0, 5.0426354, 4.9811273 
8.014358e+2, 1.4490624e+2, -1450813.8, -1545136.9, 2535.442, 0.00023568937, -0.00060565316, -1450745.6, 69173.234, 0.0, 5.041258, 4.979301 
8.01362e+2, 1.4988527e+2, -1406566.5, -1499656.1, 2703.1626, -0.00043965928, -0.00040358223, -1406488.1, 64636.324, 0.0, 5.039942, 4.9788275 
8.012884e+2, 1.5486282e+2, -1364330.0, -1458665.0, 3105.479, -0.00021828286, 0.0017605816, -1364227.9, 58116.426, 0.0, 5.0386906, 4.976797 
8.0121505e+2, 1.5983902e+2, -1319696.6, -1413004.5, 3187.949, -0.00021231083, -0.0014730239, -1319587.9, 53989.71, 0.0, 5.037489, 4.9763064 
8.011418e+2, 1.6481397e+2, -1277401.8, -1372449.6, 3557.007, -0.000007886206, 0.0010809673, -1277268.9, 47554.293, 0.0, 5.036332, 4.974053 
8.010686e+2, 1.6978753e+2, -1232385.1, -1326478.8, 3512.1213, -0.00024400049, -0.0010676158, -1232254.3, 43828.02, 0.0, 5.0352154, 4.973601 
8.009954e+2, 1.7475966e+2, -1190046.8, -1286302.8, 3838.1917, -0.00017612208, 0.0011976274, -1189893.9, 37461.4, 0.0, 5.034128, 4.971156 
8.0092245e+2, 1.797303e+2, -1144764.8, -1240097.8, 3710.985, -0.00018858186, -0.001167098, -1144620.6, 34022.457, 0.0, 5.0330634, 4.970734 
8.008493e+2, 1.8469952e+2, -1102394.3, -1200163.6, 3942.885, -0.000022082904, 0.0011375676, -1102235.5, 27709.182, 0.0, 5.0320144, 4.968159 
8.0077624e+2, 1.8966717e+2, -1056944.9, -1153829.4, 3716.4026, -0.00015483693, -0.001244157, -1056802.5, 24459.33, 0.0, 5.03098, 4.9677424 
8.007029e+2, 1.9463338e+2, -1014547.9, -1114014.0, 3855.4146, -0.00014078221, 0.0013236307, -1014398.6, 18194.29, 0.0, 5.0299425, 4.965082 
8.0062973e+2, 1.9959792e+2, -968975.1, -1067535.5, 3582.1357, -0.00017970215, -0.0013953702, -968845.1, 15095.205, 0.0, 5.0289164, 4.9646854 
8.005561e+2, 2.0456108e+2, -926577.94, -1027806.0, 3565.6826, 0.00007184556, 0.0013416444, -926452.5, 8848.855, 0.0, 5.027869, 4.96197 
8.004827e+2, 2.0952252e+2, -880944.75, -981199.7, 3310.8945, -0.00006289124, -0.001408812, -880835.56, 5843.677, 0.0, 5.0268283, 4.9615974 
8.004087e+2, 2.144826e+2, -838580.2, -941502.94, 3107.135, -0.00019864684, 0.0013360959, -838486.5, -416.01962, 0.0, 5.025745, 4.958848 
8.0033475e+2, 2.1944095e+2, -792958.4, -894766.9, 2939.3132, 0.00005731965, -0.0014071974, -792873.6, -3394.9429, 0.0, 5.024657, 4.9585166 
8.0026037e+2, 2.2439799e+2, -750559.1, -854956.4, 2537.026, -0.000079160454, 0.0013562439, -750497.5, -9597.845, 0.0, 5.023535, 4.955795 
8.0018586e+2, 2.2935328e+2, -705107.5, -808386.0, 2464.0444, 0.000008057606, -0.0015608043, -705048.75, -12710.9, 0.0, 5.0223885, 4.9554057 
8.0011106e+2, 2.343073e+2, -662617.1, -768247.8, 1939.2535, -0.000006969963, 0.0015655804, -662581.56, -18793.064, 0.0, 5.021211, 4.95279 
8.00036e+2, 2.3925953e+2, -617289.2, -721675.6, 1861.3118, 0.000033150263, -0.001768309, -617256.0, -21999.385, 0.0, 5.019992, 4.9524083 
7.9996085e+2, 2.4421056e+2, -574892.3, -681493.94, 1408.2322, 0.000040070543, 0.001700513, -574873.7, -28137.21, 0.0, 5.0187397, 4.9498014 
7.998854e+2, 2.4915986e+2, -529535.6, -634609.06, 1204.9885, 0.000022319293, -0.0019862012, -529521.8, -31288.43, 0.0, 5.0174503, 4.9495335 
7.998098e+2, 2.5410798e+2, -487375.84, -594702.6, 912.67566, 0.000043650318, 0.0017523363, -487368.06, -37626.438, 0.0, 5.0161214, 4.946824 
7.99734e+2, 2.590545e+2, -441889.63, -547219.94, 665.35785, 0.0003287145, -0.001552121, -441885.44, -40619.605, 0.0, 5.0147524, 4.946773 
7.996582e+2, 2.639997e+2, -400028.56, -507737.4, 482.44138, -0.00019561223, 0.0012415574, -400026.4, -47223.695, 0.0, 5.0133424, 4.94391 
7.995821e+2, 2.689434e+2, -354355.44, -459534.2, 241.7953, -0.000551312, -0.0030116497, -354354.88, -50000.117, 0.0, 5.0118966, 4.9441185 
7.995064e+2, 2.7388608e+2, -312859.28, -420704.9, 187.25447, 0.0006304649, 0.0026004491, -312858.97, -56942.688, 0.0, 5.010418, 4.9410105 
7.994306e+2, 2.7882737e+2, -266909.16, -371601.5, -27.153307, 0.0019698797, 0.0010171717, -266909.16, -59417.73, 0.0, 5.008902, 4.9415393 
7.993545e+2, 2.837666e+2, -225711.02, -333260.66, 88.90977, -0.0014645398, -0.0010197733, -225710.94, -66623.91, 0.0, 5.00735, 4.9382553 
7.992784e+2, 2.8870445e+2, -179657.63, -283654.4, -112.09398, -0.0057574245, -0.011994597, -179657.5, -68961.13, 0.0, 5.005767, 4.9389653 
7.992039e+2, 2.9364336e+2, -138654.48, -245872.11, 108.734146, 0.0037777498, 0.009621489, -138654.38, -76359.71, 0.0, 5.0042, 4.9354496 
7.9913e+2, 2.9858115e+2, -92610.66, -196334.81, -146.25046, 0.018488467, 0.025488378, -92610.445, -78707.07, 0.0, 5.002609, 4.9361143 
7.990518e+2, 3.0351868e+2, -56823.61, -136459.47, -787.17633, -0.010217725, -0.021981, -56815.832, -56815.832, 0.0, 5.000777, 4.949553 
7.9897267e+2, 3.0846384e+2, -62001.867, -138298.75, -1262.3506, -0.055008385, -0.07500206, -61980.99, -61980.99, 0.0, 4.9987965, 4.9497414 
7.9891264e+2, 3.1344745e+2, -31410.025, -63484.516, 131.49326, 0.07412634, 0.109029084, -31409.486, -31409.486, 0.0, 4.9981155, 4.9773583 
7.9883146e+2, 3.1841817e+2, -19726.133, -30918.43, 3220.5732, -0.027511394, 0.055073567, -18865.582, -18865.582, 0.0, 4.997078, 4.989767 
8.0677986e+2, 1.2505598e+2, -1620268.0, -1716398.0, 2075.5955, -0.00023861196, 0.00033368886, -1620223.3, 94228.13, 0.0, 5.0474653, 4.9842978 
8.0670345e+2, 1.3003923e+2, -1577859.6, -1672886.4, 2420.2383, -0.000059877802, -0.0029113402, -1577798.0, 87817.57, 0.0, 5.0457954, 4.983388 
8.066275e+2, 1.3502191e+2, -1535742.1, -1630416.0, 3035.8225, -0.00020800269, 0.00477533, -1535644.9, 81140.31, 0.0, 5.044234, 4.981973 
8.065518e+2, 1.400028e+2, -1492098.0, -1585474.8, 3301.7947, -0.00035549654, -0.0022002826, -1491981.5, 75990.95, 0.0, 5.0427856, 4.981403 
8.0647665e+2, 1.449829e+2, -1450022.1, -1544131.8, 3857.8723, 0.00024916322, -0.0007099482, -1449864.3, 69303.28, 0.0, 5.0414257, 4.9795394 
8.0640143e+2, 1.4996213e+2, -1405695.1, -1498608.0, 4063.0234, -0.00034106543, -0.00047442777, -1405517.9, 64853.273, 0.0, 5.0401373, 4.9790673 
8.0632675e+2, 1.5493988e+2, -1363441.3, -1457690.6, 4574.816, -0.000106655476, 0.0017045464, -1363219.6, 58369.555, 0.0, 5.038915, 4.976998 
8.0625206e+2, 1.599162e+2, -1318709.5, -1411989.0, 4686.9526, -0.00020436024, -0.0015426988, -1318474.6, 54346.457, 0.0, 5.0377493, 4.976505 
8.061777e+2, 1.6489129e+2, -1276371.1, -1371516.0, 5139.0557, -0.000015263702, 0.0009731042, -1276094.4, 47971.063, 0.0, 5.036633, 4.9742045 
8.0610347e+2, 1.6986495e+2, -1231241.8, -1325498.8, 5116.1816, -0.0001660818, -0.0011013476, -1230964.9, 44358.598, 0.0, 5.0355577, 4.97375 
8.060292e+2, 1.7483716e+2, -1188852.4, -1285398.8, 5495.5386, -0.00008178483, 0.0011125327, -1188540.5, 38055.234, 0.0, 5.0345135, 4.971259 
8.059551e+2, 1.7980786e+2, -1143456.9, -1239165.9, 5384.6772, -0.00017494439, -0.001218699, -1143154.9, 34728.03, 0.0, 5.0334945, 4.9708266 
8.0588096e+2, 1.847771e+2, -1101012.6, -1199290.4, 5642.9683, -0.000000007296427, 0.0011486746, -1100689.6, 28494.803, 0.0, 5.03249, 4.968213 
8.0580693e+2, 1.8974474e+2, -1055453.0, -1152943.1, 5420.212, -0.00009755372, -0.0012980583, -1055152.6, 25348.967, 0.0, 5.0315022, 4.967781 
8.057326e+2, 1.9471093e+2, -1012969.56, -1113176.4, 5571.556, -0.000069599264, 0.0013106642, -1012660.75, 19172.234, 0.0, 5.0305114, 4.9650846 
8.0565846e+2, 1.9967541e+2, -967293.56, -1066690.9, 5294.9194, -0.00013360773, -0.0014361539, -967012.25, 16168.618, 0.0, 5.02953, 4.9646716 
8.055838e+2, 2.046385e+2, -924831.75, -1027019.5, 5285.6665, 0.00009341197, 0.0013160642, -924559.06, 9983.74, 0.0, 5.0285215, 4.9619193 
8.0550927e+2, 2.0959982e+2, -879101.44, -980383.4, 5019.755, 0.000032055108, -0.0013756042, -878853.25, 7068.3545, 0.0, 5.027518, 4.961542 
8.054343e+2, 2.1455976e+2, -836674.44, -940752.6, 4814.386, -0.00015256042, 0.0012293179, -836452.25, 861.9933, 0.0, 5.0264726, 4.9587545 
8.0535924e+2, 2.1951798e+2, -790974.8, -894013.9, 4640.7886, 0.00015299235, -0.0015404116, -790766.25, -2042.4148, 0.0, 5.0254197, 4.9584093 
8.052837e+2, 2.2447485e+2, -748528.44, -854253.4, 4209.25, 0.000007402866, 0.0014512923, -748361.1, -8214.786, 0.0, 5.024326, 4.9556613 
8.0520815e+2, 2.2942995e+2, -703003.25, -807655.94, 4131.3965, 0.00007860858, -0.0016028363, -702840.4, -11253.967, 0.0, 5.0232077, 4.955271 
8.051322e+2, 2.3438375e+2, -660527.06, -767582.56, 3568.3677, 0.000082020706, 0.0013141976, -660408.25, -17369.096, 0.0, 5.0220385, 4.952631 
8.050559e+2, 2.3933579e+2, -615175.1, -720997.44, 3484.777, 0.00012376746, -0.0018617428, -615060.5, -20551.266, 0.0, 5.0208287, 4.952252 
8.049795e+2, 2.4428663e+2, -572805.8, -680880.6, 2957.9792, -0.000016388934, 0.0017466572, -572724.94, -26733.865, 0.0, 5.0195765, 4.9496245 
8.049027e+2, 2.4923567e+2, -527468.3, -633994.44, 2762.1772, 0.00010354224, -0.0019897588, -527396.75, -29906.521, 0.0, 5.0182796, 4.9493623 
8.048258e+2, 2.5418356e+2, -485345.13, -594100.3, 2388.8926, 0.00016522502, 0.0014355987, -485292.7, -36291.8, 0.0, 5.016939, 4.946656 
8.047486e+2, 2.5912982e+2, -439911.38, -546667.3, 2130.4436, 0.00030881696, -0.0020694754, -439868.88, -39341.36, 0.0, 5.015557, 4.9465957 
8.0467135e+2, 2.6407492e+2, -398124.0, -507199.3, 1864.5074, -0.00012261466, 0.0016419726, -398092.16, -46026.535, 0.0, 5.0141144, 4.9437437 
8.0459386e+2, 2.6901847e+2, -352547.88, -459034.06, 1613.9941, -0.00032628057, -0.0017363466, -352523.44, -48904.477, 0.0, 5.0126333, 4.943957 
8.045166e+2, 2.7396068e+2, -311114.25, -420157.8, 1519.1438, 0.00055721693, 0.0013092842, -311093.1, -55908.22, 0.0, 5.0111175, 4.940884 
8.044392e+2, 2.7890152e+2, -265293.66, -371117.75, 1293.6677, 0.0016277218, -0.0031716607, -265277.84, -58513.047, 0.0, 5.0095563, 4.941412 
8.043616e+2, 2.8384134e+2, -224288.9, -332843.75, 1350.9152, -0.001168182, 0.0022378732, -224272.1, -65917.52, 0.0, 5.007931, 4.9381366 
8.042839e+2, 2.8878e+2, -178428.67, -283273.8, 1189.5309, -0.004585273, 0.0011149709, -178415.17, -68459.586, 0.0, 5.0062685, 4.9388704 
8.042077e+2, 2.9371658e+2, -137132.95, -245056.28, 1567.8884, 0.0034174134, 0.00036968026, -137110.19, -75533.05, 0.0, 5.004751, 4.9354873 
8.0413216e+2, 2.9865122e+2, -90641.73, -195078.53, 1383.0178, 0.015922604, -0.0153981475, -90623.414, -77405.53, 0.0, 5.003278, 4.9362593 
8.0405235e+2, 3.035959e+2, -54656.04, -134284.75, 1469.4614, -0.009490985, 0.005328504, -54628.934, -54628.934, 0.0, 5.001364, 4.950067 
8.039717e+2, 3.0855128e+2, -60918.18, -138092.19, 2760.0696, -0.0492404, 0.051778052, -60819.594, -60819.594, 0.0, 4.999276, 4.949591 
8.039097e+2, 3.1350157e+2, -34451.54, -73644.875, 1487.4928, 0.069674835, -0.06783231, -34395.168, -34395.168, 0.0, 4.998742, 4.9733562 
8.0382633e+2, 3.184738e+2, -10552.416, -10200.158, -2640.2542, -0.044879295, -0.0826789, -7730.165, -7730.165, 0.0, 4.9972434, 4.9973364 
8.1182665e+2, 1.2513317e+2, -1620668.4, -1716015.1, 1355.1084, -0.00033091783, 0.0003325544, -1620649.1, 93045.75, 0.0, 5.047191, 4.9845657 
8.117486e+2, 1.3011667e+2, -1578191.5, -1672455.8, 1700.807, -0.0002016761, -0.002976171, -1578160.9, 86695.734, 0.0, 5.0455413, 4.9836626 
8.1167114e+2, 1.3509962e+2, -1536030.8, -1630009.5, 2483.1416, -0.00017254008, 0.0048615877, -1535965.3, 80058.42, 0.0, 5.0440083, 4.982223 
8.11594e+2, 1.4008076e+2, -1492290.3, -1585012.4, 2749.9175, -0.00048992597, -0.0022239315, -1492208.8, 74999.805, 0.0, 5.042591, 4.981656 
8.115174e+2, 1.4506108e+2, -1450229.9, -1543758.1, 3412.2764, 0.00012250482, -0.0007165604, -1450105.6, 68295.81, 0.0, 5.041247, 4.9797525 
8.11441e+2, 1.500405e+2, -1405863.4, -1498216.0, 3626.6372, -0.0004059516, -0.0004034981, -1405721.1, 63881.72, 0.0, 5.039972, 4.9792805 
8.1136507e+2, 1.5501845e+2, -1363617.9, -1457397.4, 4227.0986, -0.00010494718, 0.0017724908, -1363427.8, 57391.52, 0.0, 5.0387692, 4.977167 
8.1128925e+2, 1.5999494e+2, -1318829.3, -1411671.0, 4348.2554, -0.00026752302, -0.0015107462, -1318626.0, 53423.55, 0.0, 5.0376244, 4.9766726 
8.1121373e+2, 1.6497014e+2, -1276509.4, -1371325.9, 4862.855, -0.00013062452, 0.0009463259, -1276260.6, 47031.984, 0.0, 5.036527, 4.97432 
8.1113845e+2, 1.6994393e+2, -1231331.5, -1325292.9, 4846.292, -0.00021359518, -0.0010597667, -1231082.3, 43467.383, 0.0, 5.035471, 4.973862 
8.110632e+2, 1.749162e+2, -1188963.0, -1285309.4, 5267.1455, -0.000086536, 0.0010842229, -1188675.9, 37145.37, 0.0, 5.0344443, 4.9713225 
8.1098807e+2, 1.7988694e+2, -1143535.6, -1239097.4, 5166.612, -0.0002438901, -0.0012459059, -1143257.1, 33850.875, 0.0, 5.0334435, 4.9708753 
8.109129e+2, 1.848562e+2, -1101094.1, -1199312.1, 5444.903, -0.000019221578, 0.0012107476, -1100793.3, 27615.947, 0.0, 5.0324554, 4.968223 
8.1083786e+2, 1.8982382e+2, -1055518.4, -1153000.8, 5220.3735, -0.00015468495, -0.0013860414, -1055239.6, 24486.822, 0.0, 5.031482, 4.967772 
8.107626e+2, 1.9478996e+2, -1013038.9, -1113309.5, 5375.626, -0.00011535884, 0.0012915168, -1012751.5, 18306.8, 0.0, 5.030505, 4.9650445 
8.1068736e+2, 1.9975442e+2, -967349.44, -1066852.3, 5083.176, -0.00013066722, -0.0014222175, -967090.44, 15316.259, 0.0, 5.0295353, 4.9646163 
8.106118e+2, 2.0471738e+2, -924916.75, -1027281.9, 5057.4004, 0.00002413709, 0.001255387, -924667.5, 9102.144, 0.0, 5.0285344, 4.9618254 
8.1053627e+2, 2.0967862e+2, -879175.0, -980648.6, 4763.3906, 0.0000044080084, -0.001372183, -878951.9, 6197.523, 0.0, 5.027536, 4.961445 
8.104602e+2, 2.1463844e+2, -836770.56, -941107.06, 4516.949, -0.00023127107, 0.0011990104, -836575.4, -32.162296, 0.0, 5.026497, 4.9586244 
8.103841e+2, 2.1959649e+2, -791087.06, -894430.5, 4307.2715, 0.00006831148, -0.0016668243, -790907.9, -2953.575, 0.0, 5.0254493, 4.9582553 
8.1030756e+2, 2.2455323e+2, -748654.9, -854715.75, 3821.9617, -0.0000014154167, 0.0016320558, -748517.4, -9139.066, 0.0, 5.024358, 4.955489 
8.1023073e+2, 2.2950813e+2, -703125.44, -808112.8, 3711.026, -0.00000606905, -0.0015175403, -702994.44, -12174.248, 0.0, 5.02324, 4.9551005 
8.101536e+2, 2.344617e+2, -660671.25, -768135.25, 3073.407, 0.00002037572, 0.0011290864, -660583.44, -18308.287, 0.0, 5.022078, 4.9524264 
8.100762e+2, 2.3941354e+2, -615304.5, -721525.9, 2971.0706, 0.0001941052, -0.0018716241, -615221.44, -21474.28, 0.0, 5.0208697, 4.9520545 
8.099984e+2, 2.4436417e+2, -572965.8, -681496.06, 2345.6643, -0.00015009641, 0.0019463275, -572915.1, -27684.176, 0.0, 5.0196195, 4.9493957 
8.099204e+2, 2.49313e+2, -527626.5, -634590.25, 2152.3015, 0.000040597526, -0.0018656042, -527583.2, -30850.822, 0.0, 5.018319, 4.9491415 
8.0984217e+2, 2.5426066e+2, -485490.53, -594695.0, 1682.0461, 0.0002709363, 0.0013187306, -485464.63, -37219.168, 0.0, 5.016981, 4.9464364 
8.0976355e+2, 2.5920662e+2, -440066.8, -547288.7, 1420.3856, 0.00016058165, -0.0024623415, -440048.0, -40273.305, 0.0, 5.0155993, 4.946366 
8.096849e+2, 2.6415157e+2, -398261.66, -507792.66, 1076.5448, -0.00010863479, 0.0020817383, -398251.1, -46936.81, 0.0, 5.0141582, 4.943523 
8.0960596e+2, 2.6909497e+2, -352695.63, -459623.63, 822.6553, 0.000017912225, -0.00038467036, -352689.28, -49820.41, 0.0, 5.0126715, 4.9437394 
8.0952704e+2, 2.7403677e+2, -311199.38, -420592.3, 639.6083, 0.0002362659, -0.000054447388, -311195.63, -56756.254, 0.0, 5.011151, 4.9407253 
8.0944806e+2, 2.7897713e+2, -265444.56, -371655.06, 391.45093, 0.0005107132, -0.0075651105, -265443.13, -59418.906, 0.0, 5.00958, 4.9412208 
8.0936897e+2, 2.8391758e+2, -224323.9, -333240.5, 340.6782, -0.0004372278, 0.0062552546, -224322.84, -66715.62, 0.0, 5.007977, 4.9379864 
8.0928993e+2, 2.8885716e+2, -178364.53, -283556.8, 210.54578, -0.0014837334, 0.015663749, -178364.11, -69164.914, 0.0, 5.0063357, 4.938751 
8.092116e+2, 2.937911e+2, -137240.02, -245085.45, 626.7394, 0.0010860036, -0.01129387, -137236.38, -76388.664, 0.0, 5.0046897, 4.935516 
8.091337e+2, 2.9872218e+2, -90963.195, -194729.14, 297.82217, 0.005857688, -0.06279055, -90962.336, -78438.05, 0.0, 5.003047, 4.936496 
8.090537e+2, 3.0367586e+2, -52891.027, -131232.56, -284.6578, -0.003774004, 0.040766936, -52889.992, -52889.992, 0.0, 5.001547, 4.9511027 
8.089733e+2, 3.0864385e+2, -60450.313, -140511.34, 872.5495, -0.020719469, 0.20498665, -60440.805, -60440.805, 0.0, 4.9999304, 4.9484515 
8.0890346e+2, 3.1355157e+2, -41801.7, -90673.34, 2271.6516, 0.028741308, -0.30775836, -41696.336, -41696.336, 0.0, 4.998692, 4.9671817 
8.0882716e+2, 3.185624e+2, -471.3566, 18690.668, -5985.6826, -0.002118797, 0.11494443, 20406.744, 20406.744, 0.0, 4.996151, 5.008562 
8.1687325e+2, 1.2521242e+2, -1620103.6, -1714909.8, 2251.1313, -0.00016899886, 0.00012007432, -1620050.1, 92868.19, 0.0, 5.047226, 4.9849043 
8.167934e+2, 1.3019623e+2, -1577667.4, -1671328.6, 2668.9187, -0.00031509256, -0.0027986607, -1577591.4, 86485.44, 0.0, 5.045554, 4.984019 
8.167145e+2, 1.3517947e+2, -1535559.3, -1629001.0, 3682.008, 0.000074000694, 0.0049234526, -1535414.4, 79826.72, 0.0, 5.0440283, 4.982535 
8.166359e+2, 1.4016084e+2, -1491750.0, -1583948.4, 3992.7578, -0.00040020805, -0.0024388253, -1491577.5, 74846.25, 0.0, 5.0426326, 4.981976 
8.1655806e+2, 1.4514142e+2, -1449675.3, -1542773.1, 4792.563, 0.00010610084, -0.000859349, -1449429.1, 68184.9, 0.0, 5.0413175, 4.980029 
8.1648034e+2, 1.5012111e+2, -1405193.5, -1497168.9, 5051.3467, -0.0003784212, -0.0003557049, -1404917.0, 63896.137, 0.0, 5.040082, 4.97956 
8.1640327e+2, 1.5509923e+2, -1362893.6, -1456424.5, 5773.081, 0.000012752798, 0.0017362079, -1362538.6, 57488.844, 0.0, 5.038925, 4.977398 
8.163264e+2, 1.6007592e+2, -1317968.3, -1410637.1, 5927.87, -0.00019632543, -0.0015949813, -1317590.6, 53665.47, 0.0, 5.0378294, 4.9769015 
8.162497e+2, 1.6505125e+2, -1275577.9, -1370371.6, 6529.211, -0.00011545471, 0.0008316395, -1275130.3, 47367.445, 0.0, 5.0367846, 4.974497 
8.161734e+2, 1.7002515e+2, -1230257.9, -1324293.3, 6537.0654, -0.00018468322, -0.0010941231, -1229805.6, 43947.684, 0.0, 5.035783, 4.97403 
8.1609714e+2, 1.7499752e+2, -1187804.4, -1284362.1, 7012.985, -0.0000022601487, 0.0010728914, -1187297.6, 37726.473, 0.0, 5.0348096, 4.971447 
8.1602114e+2, 1.7996834e+2, -1142222.5, -1238121.9, 6924.663, -0.00020849642, -0.001321062, -1141725.1, 34585.047, 0.0, 5.0338717, 4.9709816 
8.15945e+2, 1.8493764e+2, -1099680.1, -1198390.3, 7223.7676, 0.000030672247, 0.0011951581, -1099154.3, 28456.877, 0.0, 5.032942, 4.968286 
8.1586903e+2, 1.8990526e+2, -1053972.3, -1152053.3, 7008.067, -0.00009077998, -0.0014039105, -1053474.1, 25454.277, 0.0, 5.0320215, 4.96782 
8.157928e+2, 1.9487137e+2, -1011397.5, -1112432.4, 7174.978, -0.00013700288, 0.0012102814, -1010890.56, 19370.037, 0.0, 5.031099, 4.965046 
8.157167e+2, 1.9983575e+2, -965585.8, -1065948.4, 6875.1426, -0.00005966106, -0.0014134906, -965117.06, 16492.412, 0.0, 5.030178, 4.964607 
8.156401e+2, 2.0479864e+2, -923055.9, -1026445.25, 6856.0854, 0.00011805922, 0.0012208617, -922603.2, 10370.058, 0.0, 5.029231, 4.9617696 
8.155636e+2, 2.0975977e+2, -877195.94, -979794.7, 6558.3364, 0.000046525754, -0.001479254, -876778.44, 7575.691, 0.0, 5.028282, 4.961374 
8.154865e+2, 2.1471944e+2, -834709.44, -940310.3, 6300.089, -0.00018577692, 0.0012389111, -834334.9, 1414.3947, 0.0, 5.027287, 4.9585185 
8.154094e+2, 2.1967734e+2, -788915.56, -893612.1, 6079.7773, 0.0001347177, -0.0016538478, -788563.7, -1401.7048, 0.0, 5.0262837, 4.958139 
8.153318e+2, 2.2463387e+2, -746443.1, -853971.2, 5576.312, 0.00011231024, 0.0014498332, -746154.7, -7566.6865, 0.0, 5.025223, 4.955336 
8.1525385e+2, 2.2958858e+2, -700834.6, -807316.94, 5450.171, 0.00013075328, -0.0016436015, -700556.4, -10524.561, 0.0, 5.0241323, 4.9549546 
8.151756e+2, 2.3454194e+2, -658357.94, -767417.0, 4770.7866, -0.000035801124, 0.0010716587, -658149.6, -16660.773, 0.0, 5.0229964, 4.952246 
8.150969e+2, 2.3949353e+2, -612943.56, -720809.2, 4672.0464, 0.0002914802, -0.0019382425, -612741.56, -19778.377, 0.0, 5.0218105, 4.951866 
8.1501794e+2, 2.4444392e+2, -570600.1, -680768.8, 3965.201, 0.000021720774, 0.0017620035, -570457.6, -26008.182, 0.0, 5.0205617, 4.949211 
8.1493855e+2, 2.4939248e+2, -525284.3, -633905.75, 3768.955, 0.00010953096, -0.0020603947, -525153.7, -29200.326, 0.0, 5.0192604, 4.948944 
8.14859e+2, 2.5433993e+2, -483207.06, -594051.5, 3195.9229, 0.00024326447, 0.0014418701, -483115.0, -35646.426, 0.0, 5.017904, 4.946236 
8.147789e+2, 2.592857e+2, -437834.63, -546661.75, 2921.6614, 0.000045840716, -0.0022171517, -437756.25, -38756.008, 0.0, 5.0165033, 4.94617 
8.146989e+2, 2.6423028e+2, -396087.38, -507182.28, 2498.336, 0.0000773823, 0.0015960381, -396031.22, -45488.32, 0.0, 5.01504, 4.943333 
8.1461847e+2, 2.691734e+2, -350647.3, -459076.6, 2222.8862, 0.00048212605, -0.0011922397, -350601.75, -48501.484, 0.0, 5.0135093, 4.943549 
8.1453794e+2, 2.7411512e+2, -309280.03, -420066.56, 1946.0841, -0.00013463221, 0.0006164143, -309245.88, -55574.285, 0.0, 5.0119343, 4.940554 
8.144573e+2, 2.7905536e+2, -263678.25, -371208.66, 1671.7507, -0.0007291561, -0.0053712013, -263652.25, -58395.07, 0.0, 5.0103106, 4.9410477 
8.1437683e+2, 2.839952e+2, -222613.2, -332821.9, 1549.8656, 0.00088920805, 0.004360625, -222591.4, -65745.0, 0.0, 5.0086865, 4.9378147 
8.1429636e+2, 2.8893405e+2, -176688.39, -283059.72, 1318.3792, 0.0028078589, 0.008676057, -176672.06, -68226.57, 0.0, 5.0070143, 4.938623 
8.142155e+2, 2.9386902e+2, -136387.61, -244711.72, 1499.1129, -0.0023560524, -0.006810922, -136366.88, -76283.01, 0.0, 5.0050263, 4.9354897 
8.141347e+2, 2.988016e+2, -91325.98, -195085.34, 1310.9679, -0.007493777, -0.042537823, -91309.414, -79563.61, 0.0, 5.0029798, 4.9363837 
8.14056e+2, 3.037517e+2, -51466.633, -131510.7, 549.9801, 0.005963092, 0.028737396, -51462.855, -51462.855, 0.0, 5.0022726, 4.950674 
8.139779e+2, 3.0871475e+2, -54875.793, -137700.34, 162.7395, 0.020352745, 0.14778602, -54875.477, -54875.477, 0.0, 5.0019255, 4.9485917 
8.13895e+2, 3.1363565e+2, -41031.78, -88364.16, 2510.3318, -0.030898698, -0.2316051, -40899.016, -40899.016, 0.0, 4.998635, 4.968026 
8.138231e+2, 3.1864294e+2, -4330.079, 22423.664, -820.4153, 0.019082455, 0.14006601, 22448.799, 22448.799, 0.0, 4.9936805, 5.0110054 
8.2191974e+2, 1.2529312e+2, -1620504.6, -1714419.6, 1530.0465, -0.00027927745, 0.00007986268, -1620479.8, 91647.664, 0.0, 5.046926, 4.985221 
8.2183826e+2, 1.3027725e+2, -1577911.4, -1670718.8, 1947.0552, -0.00055588287, -0.0027574825, -1577870.5, 85412.22, 0.0, 5.0452986, 4.984354 
8.2175785e+2, 1.352608e+2, -1535824.4, -1628477.5, 3152.31, 0.00018854637, 0.0049906257, -1535717.3, 78726.74, 0.0, 5.043788, 4.98283 
8.216779e+2, 1.4024244e+2, -1491957.8, -1583389.3, 3473.0417, -0.000530195, -0.0025080852, -1491826.0, 73797.87, 0.0, 5.04241, 4.9822745 
8.215987e+2, 1.4522329e+2, -1449887.6, -1542323.1, 4384.2476, -0.000077348224, -0.00091908354, -1449680.1, 67131.51, 0.0, 5.041119, 4.980278 
8.215198e+2, 1.5020324e+2, -1405342.1, -1496678.8, 4659.0986, -0.00042895883, -0.0002850741, -1405105.0, 62903.137, 0.0, 5.039904, 4.979812 
8.2144153e+2, 1.5518159e+2, -1363072.9, -1456064.3, 5473.613, 0.000027510987, 0.0017548249, -1362751.8, 56468.78, 0.0, 5.038765, 4.9775963 
8.213635e+2, 1.6015843e+2, -1318094.8, -1410258.5, 5642.829, -0.00026202344, -0.0015918311, -1317750.6, 52696.676, 0.0, 5.0376887, 4.9770966 
8.2128596e+2, 1.6513392e+2, -1275723.1, -1370124.8, 6311.8247, -0.00021710285, 0.00077050726, -1275303.0, 46384.406, 0.0, 5.0366654, 4.974638 
8.212086e+2, 1.7010798e+2, -1230357.4, -1324055.8, 6325.729, -0.00023848747, -0.0011001248, -1229932.3, 43009.47, 0.0, 5.0356865, 4.974157 
8.211314e+2, 1.7508045e+2, -1187915.1, -1284236.4, 6854.375, 0.000042256794, 0.0011636382, -1187429.8, 36781.836, 0.0, 5.034732, 4.9715276 
8.210544e+2, 1.800513e+2, -1142309.4, -1238028.9, 6777.7744, -0.00027967, -0.0013770609, -1141831.9, 33665.316, 0.0, 5.033812, 4.9710426 
8.2097733e+2, 1.8502061e+2, -1099772.8, -1198405.1, 7093.269, -0.000039327206, 0.0011485295, -1099265.3, 27532.676, 0.0, 5.032903, 4.9683003 
8.2090044e+2, 1.8998824e+2, -1054028.3, -1152074.9, 6883.037, -0.000056271496, -0.0013695586, -1053547.5, 24567.684, 0.0, 5.0320005, 4.967825 
8.208233e+2, 1.9495429e+2, -1011472.4, -1112577.0, 7045.1616, -0.00021863208, 0.0011359239, -1010983.8, 18464.014, 0.0, 5.0310936, 4.9650016 
8.207463e+2, 1.9991864e+2, -965635.7, -1066108.0, 6730.804, -0.00011071082, -0.0014297275, -965186.75, 15610.515, 0.0, 5.0301867, 4.96455 
8.2066876e+2, 2.0488143e+2, -923123.1, -1026697.75, 6689.7114, 0.00012590937, 0.0012328743, -922692.8, 9469.107, 0.0, 5.0292516, 4.9616747 
8.2059133e+2, 2.0984244e+2, -877268.44, -980100.4, 6360.356, -0.00003642409, -0.0015966598, -876876.5, 6667.421, 0.0, 5.0283103, 4.9612575 
8.205132e+2, 2.1480198e+2, -834802.94, -940695.75, 6065.4517, -0.00020161144, 0.0013588293, -834456.7, 483.71753, 0.0, 5.027321, 4.9583735 
8.204351e+2, 2.1975972e+2, -789001.7, -894005.0, 5805.395, 0.0000981439, -0.0015578255, -788681.7, -2327.0635, 0.0, 5.026322, 4.957989 
8.2035637e+2, 2.2471602e+2, -746566.9, -854486.3, 5230.1426, 0.000028021444, 0.0012142137, -746314.0, -8531.192, 0.0, 5.025267, 4.955141 
8.202774e+2, 2.2967055e+2, -700950.4, -807820.1, 5065.6377, 0.00016205413, -0.0016276162, -700710.8, -11482.38, 0.0, 5.024177, 4.954764 
8.2019794e+2, 2.3462373e+2, -658497.56, -768010.44, 4298.2227, -0.00020343202, 0.0013838022, -658329.1, -17641.84, 0.0, 5.0230455, 4.9520235 
8.201181e+2, 2.3957507e+2, -613108.7, -721453.2, 4167.059, 0.0001481564, -0.0018392795, -612948.7, -20784.629, 0.0, 5.0218577, 4.951626 
8.200379e+2, 2.445252e+2, -570737.1, -681379.3, 3367.3765, 0.00016081314, 0.0016233189, -570634.75, -26981.87, 0.0, 5.0206127, 4.948982 
8.1995714e+2, 2.4947351e+2, -525467.6, -634621.25, 3162.5867, 0.00012955029, -0.002217379, -525376.06, -30216.703, 0.0, 5.0193114, 4.948678 
8.198762e+2, 2.5442073e+2, -483360.06, -594720.25, 2479.6677, 0.000085214815, 0.001756575, -483304.88, -36628.125, 0.0, 5.0179563, 4.9459863 
8.197948e+2, 2.593662e+2, -438000.38, -547327.1, 2209.1606, -0.000055203276, -0.0017756509, -437955.75, -39744.777, 0.0, 5.016549, 4.9459243 
8.1971323e+2, 2.6431048e+2, -396234.66, -507829.63, 1675.3539, 0.00027536365, 0.00096649374, -396209.5, -46452.44, 0.0, 5.015089, 4.943093 
8.1963134e+2, 2.6925328e+2, -350799.38, -459742.25, 1378.733, 0.00076384214, -0.0022500125, -350781.94, -49464.527, 0.0, 5.013559, 4.9433017 
8.195492e+2, 2.74195e+2, -309395.1, -420689.8, 1028.6969, -0.00062695006, 0.0019537928, -309385.6, -56496.797, 0.0, 5.0119896, 4.9403205 
8.1946677e+2, 2.7913523e+2, -263789.47, -371830.56, 729.9216, -0.001915956, -0.0018581059, -263784.53, -59309.984, 0.0, 5.0103664, 4.940814 
8.1938493e+2, 2.8407413e+2, -222697.05, -333408.75, 589.6489, 0.0020551549, 0.0008585061, -222693.9, -66620.82, 0.0, 5.008745, 4.937595 
8.1930315e+2, 2.890119e+2, -176725.88, -283556.13, 262.28223, 0.006555151, -0.003161702, -176725.23, -69042.555, 0.0, 5.007076, 4.9384336 
8.1921947e+2, 2.939489e+2, -136069.14, -244904.08, 100.46902, -0.0060668197, 0.0031651352, -136069.05, -76768.125, 0.0, 5.005186, 4.9353657 
8.191358e+2, 2.9888412e+2, -91050.08, -195883.55, 206.73979, -0.020309173, -0.004105672, -91049.67, -80113.35, 0.0, 5.003237, 4.936002 
8.1905866e+2, 3.038265e+2, -52613.016, -134196.38, 642.1029, 0.016430445, -0.0034124723, -52607.96, -52607.96, 0.0, 5.0022492, 4.949731 
8.189831e+2, 3.087795e+2, -56926.555, -140097.58, -363.09442, 0.060241655, 0.024811292, -56924.97, -56924.97, 0.0, 5.0014405, 4.947952 
8.1888616e+2, 3.1373423e+2, -36775.13, -79308.46, -560.1685, -0.09334209, -0.04418164, -36767.754, -36767.754, 0.0, 4.9987698, 4.971284 
8.188155e+2, 3.1871495e+2, -11803.303, 433.04523, 863.99243, 0.011087823, 0.049998034, 493.74945, 493.74945, 0.0, 4.994547, 5.0024505 
8.269658e+2, 1.2537588e+2, -1620424.8, -1713451.1, 2440.3147, -0.00013069186, 0.00026546244, -1620360.8, 90955.49, 0.0, 5.046777, 4.9856024 
8.268828e+2, 1.3036032e+2, -1577792.4, -1669655.0, 2927.6653, -0.00054894056, -0.0029337695, -1577699.1, 84769.7, 0.0, 5.0451465, 4.984769 
8.268009e+2, 1.3534422e+2, -1535717.4, -1627517.4, 4370.831, 0.0004977687, 0.0049188505, -1535509.8, 78116.79, 0.0, 5.0436606, 4.9831953 
8.267195e+2, 1.403262e+2, -1491733.5, -1582350.1, 4754.311, -0.0005209862, -0.0024276557, -1491484.8, 73318.445, 0.0, 5.0423193, 4.982649 
8.266391e+2, 1.4530733e+2, -1449595.5, -1541364.8, 5815.993, -0.00013362743, -0.0009866724, -1449228.4, 66759.695, 0.0, 5.041081, 4.980598 
8.26559e+2, 1.5028754e+2, -1404893.8, -1495638.1, 6140.643, -0.00028225282, -0.0003477755, -1404480.1, 62701.887, 0.0, 5.03992, 4.980134 
8.264797e+2, 1.5526614e+2, -1362541.3, -1455090.9, 7084.916, 0.00020431256, 0.0017055814, -1362002.0, 56389.848, 0.0, 5.0388393, 4.977865 
8.2640064e+2, 1.6024321e+2, -1317380.0, -1409207.8, 7291.187, -0.00027842517, -0.0016068898, -1316804.6, 52811.86, 0.0, 5.0378294, 4.9773607 
8.263221e+2, 1.6521887e+2, -1274900.1, -1369140.8, 8050.1836, -0.00020658699, 0.00071489485, -1274217.5, 46637.445, 0.0, 5.0368724, 4.9748483 
8.2624376e+2, 1.7019308e+2, -1229352.5, -1323015.6, 8086.635, -0.00017063839, -0.0011443186, -1228659.5, 43448.3, 0.0, 5.035964, 4.974354 
8.261657e+2, 1.7516565e+2, -1186788.6, -1283255.0, 8671.796, 0.00013045105, 0.0011709455, -1186015.3, 37361.26, 0.0, 5.0350785, 4.9716706 
8.260878e+2, 1.8013659e+2, -1140993.5, -1236984.5, 8611.878, -0.0002488984, -0.0014095223, -1140227.0, 34434.227, 0.0, 5.0342298, 4.971175 
8.2600987e+2, 1.8510593e+2, -1098337.9, -1197440.4, 8954.284, -0.00006382103, 0.0009966023, -1097535.3, 28426.451, 0.0, 5.033393, 4.9683743 
8.2593215e+2, 1.900736e+2, -1052428.6, -1151065.9, 8753.889, 0.000010815343, -0.0013729319, -1051657.8, 25620.885, 0.0, 5.0325546, 4.9678855 
8.2585406e+2, 1.9503963e+2, -1009758.0, -1111642.5, 8927.985, -0.00012945455, 0.0011750101, -1008981.56, 19629.994, 0.0, 5.0317125, 4.9650087 
8.2577616e+2, 2.000039e+2, -963759.2, -1065134.8, 8616.096, -0.000053596556, -0.0015157581, -963032.1, 16929.48, 0.0, 5.0308704, 4.9645424 
8.256978e+2, 2.049666e+2, -921141.6, -1025797.5, 8575.444, 0.00015648479, 0.0011297151, -920443.6, 10883.55, 0.0, 5.0299935, 4.9616194 
8.256194e+2, 2.099275e+2, -875140.94, -979171.3, 8234.148, 0.000038597624, -0.0015852415, -874493.25, 8217.018, 0.0, 5.0291104, 4.9611883 
8.2554036e+2, 2.1488689e+2, -832570.75, -939845.3, 7931.844, -0.000076685574, 0.0012982071, -831987.44, 2120.8389, 0.0, 5.028178, 4.958256 
8.254613e+2, 2.1984443e+2, -786648.7, -893101.2, 7665.6978, 0.00020054125, -0.0016304047, -786099.56, -575.25464, 0.0, 5.027224, 4.9578714 
8.253815e+2, 2.2480054e+2, -744135.8, -853668.5, 7064.8174, -0.000037272217, 0.0009999911, -743682.0, -6727.4365, 0.0, 5.0262194, 4.9549756 
8.2530147e+2, 2.2975485e+2, -698415.2, -806970.6, 6893.713, 0.0002629442, -0.0017175716, -697979.2, -9576.907, 0.0, 5.0251694, 4.954594 
8.252209e+2, 2.3470779e+2, -655942.25, -767231.4, 6073.6304, 0.00005464294, 0.0014998775, -655611.75, -15748.359, 0.0, 5.0240607, 4.9518204 
8.251398e+2, 2.3965888e+2, -610455.25, -720599.6, 5904.421, 0.00020431203, -0.0019285873, -610139.6, -18796.781, 0.0, 5.0229034, 4.9514365 
8.2505834e+2, 2.446087e+2, -568112.9, -680615.8, 5050.541, 0.00010450069, 0.0012528918, -567886.6, -25052.086, 0.0, 5.021665, 4.948761 
8.249764e+2, 2.4955676e+2, -522847.38, -633878.75, 4837.2676, 0.00019883116, -0.002194686, -522637.03, -28293.6, 0.0, 5.0203676, 4.948451 
8.248941e+2, 2.5450367e+2, -480730.22, -593962.1, 4052.4377, 0.00014783762, 0.0017139262, -480585.38, -34721.71, 0.0, 5.0190125, 4.945766 
8.248112e+2, 2.594489e+2, -435471.56, -546643.2, 3772.9565, 0.00007991003, -0.0019362941, -435343.66, -37942.85, 0.0, 5.0175753, 4.945694 
8.2472813e+2, 2.6439288e+2, -393785.28, -507135.06, 3146.872, 0.00036183442, 0.00089185213, -393698.0, -44748.516, 0.0, 5.0160785, 4.9428864 
8.246446e+2, 2.6933542e+2, -348470.9, -459174.7, 2837.4019, 0.0004907601, -0.002256137, -348398.25, -47885.734, 0.0, 5.014519, 4.943066 
8.24561e+2, 2.7427682e+2, -307129.97, -420105.06, 2369.3147, -0.00023882158, 0.0018617229, -307080.3, -54993.617, 0.0, 5.012914, 4.940111 
8.244771e+2, 2.792168e+2, -261702.1, -371338.34, 2055.928, -0.0006629613, -0.0017189384, -261663.55, -57988.594, 0.0, 5.0112305, 4.9406013 
8.2439333e+2, 2.8415543e+2, -220707.61, -332765.2, 1895.2844, 0.0009827489, 0.00054721837, -220675.56, -65399.3, 0.0, 5.0095387, 4.9374666 
8.243096e+2, 2.8909293e+2, -175027.75, -283266.25, 1537.2689, 0.0029664317, -0.00418493, -175005.92, -68117.08, 0.0, 5.0078087, 4.938208 
8.242247e+2, 2.940297e+2, -134273.31, -244903.3, 1110.4849, -0.002777771, 0.004137758, -134262.16, -75753.81, 0.0, 5.0060196, 4.934993 
8.241401e+2, 2.989649e+2, -88778.18, -195460.13, 1148.0657, -0.008811915, 0.0001253935, -88765.83, -78621.78, 0.0, 5.004202, 4.9357247 
8.2405937e+2, 3.0390626e+2, -52186.277, -134119.36, 2166.2732, 0.007890273, -0.006799532, -52129.043, -52129.043, 0.0, 5.0024557, 4.9496546 
8.2398003e+2, 3.0885795e+2, -58171.727, -138796.92, 1478.783, 0.02790826, 0.009039195, -58144.61, -58144.61, 0.0, 5.000656, 4.94874 
8.23889e+2, 3.1381842e+2, -32939.67, -73719.84, -925.20435, -0.043732684, -0.0062689413, -32918.69, -32918.69, 0.0, 4.9994555, 4.973011 
8.2381403e+2, 3.1878313e+2, -6913.5073, -846.52277, 490.1531, 0.041279398, -0.09278966, -807.1783, -807.1783, 0.0, 4.997046, 5.0008917 
8.320118e+2, 1.2546007e+2, -1620743.4, -1712778.5, 1726.0471, -0.0003225452, 0.00019616583, -1620711.0, 89780.11, 0.0, 5.0464745, 4.985981 
8.319271e+2, 1.3044488e+2, -1578061.1, -1668909.3, 2247.0642, -0.00073213596, -0.0029936535, -1578005.6, 83634.44, 0.0, 5.0448513, 4.9851675 
8.3184385e+2, 1.3542917e+2, -1535975.4, -1626889.0, 3889.11, 0.0006337453, 0.0048701745, -1535809.4, 76984.76, 0.0, 5.043401, 4.9835353 
8.317611e+2, 1.4041147e+2, -1491888.9, -1581644.6, 4287.233, -0.00068574894, -0.002429618, -1491684.5, 72282.89, 0.0, 5.0420885, 4.9830003 
8.3167946e+2, 1.4539291e+2, -1449796.3, -1540800.3, 5458.4453, -0.0003806371, -0.0010434514, -1449470.0, 65679.32, 0.0, 5.0408645, 4.980893 
8.315983e+2, 1.5037341e+2, -1405050.6, -1495056.9, 5802.0625, -0.00030470078, -0.00031016604, -1404678.1, 61662.22, 0.0, 5.0397196, 4.9804277 
8.315179e+2, 1.5535225e+2, -1362719.3, -1454646.3, 6851.9355, 0.00024449336, 0.0016955906, -1362211.4, 55336.52, 0.0, 5.0386615, 4.9781013 
8.314378e+2, 1.6032955e+2, -1317506.6, -1408756.6, 7073.4043, -0.00040829432, -0.0016472207, -1316961.5, 51808.76, 0.0, 5.037674, 4.9775887 
8.3135825e+2, 1.653054e+2, -1275052.0, -1368829.1, 7906.9116, -0.00026092824, 0.0006862856, -1274390.0, 45616.92, 0.0, 5.0367374, 4.97502 
8.312791e+2, 1.7027976e+2, -1229462.8, -1322720.4, 7952.716, -0.00018038371, -0.001185706, -1228789.4, 42468.94, 0.0, 5.0358515, 4.9745092 
8.312001e+2, 1.7525244e+2, -1186918.6, -1283100.5, 8586.612, 0.00007892648, 0.0011397738, -1186158.1, 36367.88, 0.0, 5.034988, 4.9717674 
8.311214e+2, 1.8022346e+2, -1141071.9, -1236820.6, 8537.872, -0.0002596893, -0.0013560407, -1140316.5, 33493.42, 0.0, 5.03416, 4.9712653 
8.3104265e+2, 1.8519282e+2, -1098445.4, -1197434.3, 8888.343, -0.00010228069, 0.0008912538, -1097653.5, 27456.588, 0.0, 5.033344, 4.968401 
8.30964e+2, 1.901605e+2, -1052492.8, -1151076.6, 8698.971, -0.00005708489, -0.0014167244, -1051731.0, 24695.957, 0.0, 5.0325284, 4.9678955 
8.308852e+2, 1.951265e+2, -1009828.25, -1111763.0, 8867.413, -0.00010602911, 0.0013091591, -1009062.6, 18697.414, 0.0, 5.031707, 4.964971 
8.3080643e+2, 2.0009074e+2, -963803.94, -1065274.6, 8539.484, -0.000081342776, -0.0015270376, -963090.3, 16020.385, 0.0, 5.03088, 4.9644914 
8.3072716e+2, 2.0505331e+2, -921208.25, -1026063.5, 8477.839, 0.00006804506, 0.0010657891, -920527.2, 9950.089, 0.0, 5.0300183, 4.9615197 
8.306479e+2, 2.1001413e+2, -875191.3, -979452.94, 8109.1055, -0.000024385685, -0.0015186183, -874564.4, 7297.0034, 0.0, 5.0291452, 4.961079 
8.3056796e+2, 2.1497335e+2, -832654.4, -940253.7, 7743.8965, -0.000097417374, 0.0012849777, -832099.94, 1161.0963, 0.0, 5.0282226, 4.9580975 
8.304879e+2, 2.1993074e+2, -786716.8, -893499.94, 7438.957, 0.00020342803, -0.0015382302, -786201.06, -1522.4456, 0.0, 5.027272, 4.9577146 
8.304071e+2, 2.2488663e+2, -744239.56, -854192.75, 6753.057, -0.00021142539, 0.0010460678, -743826.4, -7715.55, 0.0, 5.026274, 4.954775 
8.3032596e+2, 2.2984071e+2, -698531.4, -807539.06, 6534.168, 0.00009950511, -0.001769482, -698141.06, -10580.333, 0.0, 5.025227, 4.954376 
8.302443e+2, 2.3479342e+2, -656090.8, -767885.4, 5635.3535, 0.00022706002, 0.0016513172, -655807.5, -16783.324, 0.0, 5.0241194, 4.9515715 
8.301621e+2, 2.3974423e+2, -610582.0, -721204.5, 5419.722, 0.00020086004, -0.0018530787, -610317.06, -19810.871, 0.0, 5.0229616, 4.951205 
8.300793e+2, 2.4469379e+2, -568288.9, -681374.8, 4469.388, -0.00013949879, 0.0011353244, -568112.5, -26111.854, 0.0, 5.0217276, 4.9484773 
8.299961e+2, 2.4964158e+2, -523026.34, -634599.3, 4239.466, 0.00019596843, -0.0019770446, -522865.5, -29353.35, 0.0, 5.0204206, 4.9481845 
8.299124e+2, 2.545882e+2, -480926.3, -594741.5, 3321.6362, 0.0002563337, 0.0017321978, -480829.44, -35794.08, 0.0, 5.0190673, 4.9454756 
8.2982814e+2, 2.5953308e+2, -435668.66, -547426.94, 3019.569, 0.00006624174, -0.00205298, -435587.13, -39011.637, 0.0, 5.0176296, 4.9454017 
8.297435e+2, 2.6447684e+2, -393943.34, -507863.94, 2308.6165, 0.00021061527, 0.001181128, -393896.56, -45769.96, 0.0, 5.016136, 4.9426146 
8.2965845e+2, 2.694191e+2, -348643.4, -459918.88, 1978.6549, -0.000008546667, -0.002034498, -348608.22, -48915.746, 0.0, 5.0145726, 4.942791 
8.295732e+2, 2.7436018e+2, -307269.97, -420849.72, 1416.3846, 0.00024276014, 0.0014474589, -307252.3, -55982.215, 0.0, 5.0129805, 4.9398327 
8.2948774e+2, 2.7929983e+2, -261785.81, -371985.13, 1107.2126, 0.00089807034, -0.0020873987, -261774.69, -58913.598, 0.0, 5.0113015, 4.9403543 
8.2940197e+2, 2.8423834e+2, -220781.03, -333291.97, 844.51, -0.00077451847, 0.0012120974, -220774.69, -66310.93, 0.0, 5.0095887, 4.937272 
8.293161e+2, 2.891757e+2, -175276.23, -284105.7, 471.89658, -0.0023644296, -0.0027524251, -175274.19, -69196.305, 0.0, 5.0078397, 4.9379106 
8.292306e+2, 2.9411176e+2, -134407.39, -246125.44, 92.40906, 0.0023123077, 0.0025635322, -134407.33, -76703.31, 0.0, 5.0061717, 4.934508 
8.291453e+2, 2.9904607e+2, -88478.45, -196231.63, 282.3651, 0.008355599, -0.0050414843, -88477.71, -79130.25, 0.0, 5.004462, 4.9353533 
8.2905954e+2, 3.039883e+2, -52241.56, -134057.39, 1033.959, -0.0077759237, -0.003004809, -52228.492, -52228.492, 0.0, 5.002393, 4.9497194 
8.2897455e+2, 3.0894142e+2, -59896.258, -140353.66, 61.837143, -0.026000816, 0.027299015, -59896.21, -59896.21, 0.0, 5.0001554, 4.9484096 
8.2889634e+2, 3.1389815e+2, -31160.43, -70524.3, -1006.5766, 0.047585197, -0.042213395, -31134.707, -31134.707, 0.0, 4.9996023, 4.9741335 
8.288046e+2, 3.1888106e+2, -8465.545, -8535.158, 294.60175, -0.01791612, 0.056123313, -8203.7, -8203.7, 0.0, 4.9978056, 4.997719 
8.370573e+2, 1.2554622e+2, -1621164.3, -1711841.4, 2580.286, -0.00021955789, -0.000055562414, -1621090.9, 88556.14, 0.0, 5.046113, 4.986455 
8.36971e+2, 1.305315e+2, -1578401.8, -1667887.5, 3218.8083, -0.00071404566, -0.0026181592, -1578286.1, 82504.95, 0.0, 5.0445075, 4.9856606 
8.368864e+2, 1.3551614e+2, -1536282.4, -1626031.3, 5124.0146, 0.0010719219, 0.0047658286, -1535990.8, 75950.83, 0.0, 5.043112, 4.9839454 
8.3680236e+2, 1.4049882e+2, -1492015.3, -1580660.8, 5589.1367, -0.00070432265, -0.0026210984, -1491664.3, 71447.28, 0.0, 5.041856, 4.983424 
8.3671945e+2, 1.4548062e+2, -1449813.4, -1539870.3, 6911.265, -0.0004972756, -0.0010597778, -1449286.1, 65003.73, 0.0, 5.040698, 4.9812655 
8.366372e+2, 1.5046145e+2, -1404857.5, -1494019.6, 7321.445, -0.00015703237, -0.00018655103, -1404260.4, 61217.246, 0.0, 5.039625, 4.980801 
8.3655584e+2, 1.5544055e+2, -1362389.8, -1453669.5, 8510.038, 0.0004316728, 0.0016748204, -1361603.1, 55079.324, 0.0, 5.038646, 4.978415 
8.364748e+2, 1.6041811e+2, -1316947.6, -1407691.6, 8771.566, -0.0004073423, -0.0017178096, -1316107.5, 51794.906, 0.0, 5.0377436, 4.977892 
8.363944e+2, 1.6539419e+2, -1274345.3, -1367818.0, 9696.937, -0.00026369272, 0.0006607378, -1273349.9, 45787.027, 0.0, 5.03689, 4.9752645 
8.363144e+2, 1.7036872e+2, -1228526.0, -1321619.9, 9773.426, -0.000083641025, -0.0011278795, -1227511.0, 42875.445, 0.0, 5.0360875, 4.9747458 
8.362346e+2, 1.7534152e+2, -1185818.9, -1282076.3, 10477.808, 0.000086730106, 0.0010637875, -1184691.5, 36961.34, 0.0, 5.035313, 4.9719367 
8.361551e+2, 1.8031266e+2, -1139758.3, -1235720.3, 10455.6455, -0.00024511173, -0.001363117, -1138632.3, 34303.38, 0.0, 5.034567, 4.971423 
8.360756e+2, 1.8528211e+2, -1097015.6, -1196415.4, 10835.048, 0.00006173358, 0.00093392667, -1095848.3, 28386.943, 0.0, 5.0338235, 4.9684944 
8.3599627e+2, 1.902498e+2, -1050827.6, -1149974.5, 10664.746, -0.00002281539, -0.0014797286, -1049693.5, 25858.322, 0.0, 5.033096, 4.967979 
8.359166e+2, 1.9521579e+2, -1008029.25, -1110765.1, 10841.226, -0.00018672342, 0.0011407005, -1006897.7, 19987.44, 0.0, 5.0323544, 4.964986 
8.35837e+2, 2.0017998e+2, -961824.6, -1064210.3, 10513.25, -0.000022379747, -0.0015422812, -960756.25, 17479.861, 0.0, 5.031594, 4.964501 
8.3575696e+2, 2.0514247e+2, -919098.5, -1025100.1, 10454.096, 0.0001845456, 0.0009955342, -918077.3, 11526.293, 0.0, 5.0308075, 4.961465 
8.356769e+2, 2.1010315e+2, -872900.7, -978428.9, 10087.56, 0.000013011919, -0.0016113749, -871945.06, 9043.939, 0.0, 5.030003, 4.9610147 
8.35596e+2, 2.1506222e+2, -830243.3, -939315.94, 9708.146, -0.00011905623, 0.001109911, -829385.94, 3004.2395, 0.0, 5.0291486, 4.957978 
8.355151e+2, 2.2001943e+2, -784158.9, -892524.7, 9400.92, 0.0003209511, -0.0015705411, -783349.4, 460.02057, 0.0, 5.0282555, 4.9575853 
8.354333e+2, 2.249751e+2, -741588.6, -853287.5, 8678.077, 0.00002987322, 0.0011060981, -740918.44, -5674.711, 0.0, 5.027312, 4.954602 
8.353511e+2, 2.2992894e+2, -695720.7, -806556.06, 8438.263, 0.00015455879, -0.0018469333, -695081.94, -8385.699, 0.0, 5.0263224, 4.954205 
8.352683e+2, 2.3488134e+2, -653258.5, -767008.56, 7500.7104, 0.00012938099, 0.0012824459, -652766.0, -14603.536, 0.0, 5.0252466, 4.9513497 
8.35185e+2, 2.3983192e+2, -607669.0, -720257.8, 7256.3667, 0.00029513126, -0.0018293294, -607203.25, -17556.324, 0.0, 5.0241117, 4.9510007 
8.35101e+2, 2.447812e+2, -565338.75, -680527.56, 6228.4185, -0.000049270802, 0.0012407836, -565002.94, -23858.795, 0.0, 5.022912, 4.948227 
8.350164e+2, 2.4972865e+2, -520025.56, -633710.5, 5976.868, 0.00026532044, -0.0020338646, -519712.2, -27053.295, 0.0, 5.021619, 4.947945 
8.349313e+2, 2.5467497e+2, -478021.1, -593924.94, 4981.314, 0.00040588604, 0.0015319791, -477807.38, -33622.195, 0.0, 5.0202394, 4.9452224 
8.348456e+2, 2.5961953e+2, -432810.63, -546619.7, 4647.0796, 0.00005813372, -0.0019340763, -432621.2, -36893.047, 0.0, 5.018783, 4.945157 
8.3475953e+2, 2.64563e+2, -391161.84, -507159.6, 3828.7312, 0.0002389832, 0.001153031, -391035.6, -43753.055, 0.0, 5.0172715, 4.9423466 
8.3467287e+2, 2.6950487e+2, -345991.6, -459211.56, 3477.3188, 0.00011934858, -0.0023892967, -345884.88, -47033.043, 0.0, 5.0156507, 4.9425526 
8.34586e+2, 2.744457e+2, -304740.4, -420144.8, 2858.7783, 0.0001720171, 0.0016746928, -304669.63, -54238.008, 0.0, 5.0140076, 4.9396186 
8.3449876e+2, 2.7938518e+2, -259373.97, -371363.06, 2520.2622, 0.00068771694, -0.00094576227, -259317.28, -57292.78, 0.0, 5.0122914, 4.9401307 
8.344113e+2, 2.843232e+2, -218668.11, -332801.44, 2124.647, -0.00020961164, 0.00008499643, -218628.56, -64996.14, 0.0, 5.0104675, 4.9370527 
8.343237e+2, 2.8926003e+2, -173444.45, -283626.25, 1803.9685, -0.0009928718, -0.0061751744, -173414.92, -68163.2, 0.0, 5.0085936, 4.937745 
8.342364e+2, 2.9419664e+2, -132079.89, -245085.97, 1782.3625, 0.0014784383, 0.0058890064, -132051.8, -75179.86, 0.0, 5.007042, 4.9344883 
8.341493e+2, 2.9913157e+2, -86077.266, -195657.33, 1921.8732, 0.00520116, 0.0054893433, -86043.57, -77534.76, 0.0, 5.005459, 4.935113 
8.3406144e+2, 3.040711e+2, -52799.082, -136125.94, 1305.6418, -0.005438382, -0.011830424, -52778.63, -52778.63, 0.0, 5.002567, 4.9488854 
8.3397424e+2, 3.0902126e+2, -60981.39, -138594.67, 621.1109, -0.017782029, -0.0046290606, -60976.42, -60976.42, 0.0, 4.9993534, 4.9493747 
8.3389413e+2, 3.13988e+2, -25505.285, -60730.008, 1755.9288, 0.038572732, 0.012964015, -25417.969, -25417.969, 0.0, 5.0002904, 4.9774127 
8.338004e+2, 3.1896192e+2, -6415.627, -14870.089, -566.9984, -0.045958642, -0.009563225, -6377.7705, -6377.7705, 0.0, 5.0000467, 4.9943786 
8.421026e+2, 1.2563385e+2, -1621461.5, -1711015.1, 1904.347, -0.00032693867, -0.00008824843, -1621421.0, 87367.19, 0.0, 5.0457826, 4.9869003 
8.420147e+2, 1.306196e+2, -1578549.8, -1666927.4, 2577.4814, -0.0009784747, -0.0024801027, -1578474.6, 81453.06, 0.0, 5.0442166, 4.98613 
8.419288e+2, 1.3560463e+2, -1536501.6, -1625255.5, 4687.755, 0.0012453558, 0.00454739, -1536254.8, 74819.74, 0.0, 5.0428367, 4.984342 
8.418434e+2, 1.4058769e+2, -1492193.8, -1579849.5, 5186.143, -0.0008876625, -0.0026835643, -1491888.0, 70352.51, 0.0, 5.0415916, 4.9838276 
8.4175944e+2, 1.4556988e+2, -1450003.8, -1539187.8, 6624.2056, -0.0007748828, -0.0010765119, -1449514.4, 63900.777, 0.0, 5.04046, 4.9816117 
8.416762e+2, 1.5055104e+2, -1404987.8, -1493308.5, 7063.4585, -0.00012341388, -0.00020060533, -1404426.4, 60173.254, 0.0, 5.039409, 4.981147 
8.415938e+2, 1.5553042e+2, -1362570.8, -1453123.8, 8358.924, 0.0004800474, 0.0015980136, -1361805.6, 53996.03, 0.0, 5.0384474, 4.9786963 
8.4151185e+2, 1.6050825e+2, -1317090.8, -1407155.6, 8637.218, -0.00050512515, -0.0017763419, -1316270.0, 50749.074, 0.0, 5.037564, 4.9781613 
8.414306e+2, 1.6548453e+2, -1274520.8, -1367442.3, 9637.261, -0.00037521645, 0.00061119715, -1273531.8, 44719.727, 0.0, 5.0367317, 4.975469 
8.4134984e+2, 1.7045926e+2, -1228640.5, -1321229.9, 9734.302, -0.00005847041, -0.0011144947, -1227628.1, 41870.97, 0.0, 5.035954, 4.974943 
8.412693e+2, 1.7543219e+2, -1185963.6, -1281857.3, 10478.572, 0.00006308468, 0.0009508295, -1184831.9, 35932.37, 0.0, 5.035203, 4.972065 
8.41189e+2, 1.8040344e+2, -1139858.3, -1235516.0, 10459.006, -0.00035840223, -0.0014542975, -1138728.0, 33317.94, 0.0, 5.03448, 4.971535 
8.411088e+2, 1.8537295e+2, -1097131.6, -1196362.1, 10853.943, 0.00012188127, 0.0010506848, -1095958.3, 27386.578, 0.0, 5.0337634, 4.9685407 
8.410287e+2, 1.9034068e+2, -1050881.4, -1149905.6, 10689.49, -0.000015945858, -0.0014160327, -1049740.6, 24920.547, 0.0, 5.03306, 4.9680195 
8.409483e+2, 1.9530663e+2, -1008117.0, -1110882.9, 10847.067, -0.00033912846, 0.00098456, -1006984.56, 19010.25, 0.0, 5.0323424, 4.9649534 
8.4086806e+2, 2.0027079e+2, -961860.94, -1064313.5, 10512.873, -0.000027243308, -0.001481736, -960793.3, 16552.799, 0.0, 5.0316014, 4.9644637 
8.407872e+2, 2.052332e+2, -919168.1, -1025356.1, 10415.261, 0.0002930809, 0.0011419895, -918156.2, 10558.247, 0.0, 5.0308313, 4.961368 
8.407062e+2, 2.1019375e+2, -872936.2, -978677.75, 10024.918, -0.000027508439, -0.0014969216, -871994.2, 8106.8423, 0.0, 5.03004, 4.9609146 
8.406245e+2, 2.1515265e+2, -830302.06, -939707.4, 9574.445, -0.00027531676, 0.001042065, -829470.5, 2033.2974, 0.0, 5.029201, 4.9578223 
8.405427e+2, 2.201097e+2, -784215.8, -892956.2, 9224.484, 0.00015843085, -0.0016561572, -783438.9, -514.151, 0.0, 5.028316, 4.9574127 
8.4045994e+2, 2.2506519e+2, -741677.94, -853840.5, 8424.89, 0.00017166021, 0.0013515552, -741048.7, -6687.7725, 0.0, 5.0273805, 4.9543843 
8.4037685e+2, 2.3001876e+2, -695794.0, -807081.7, 8131.4287, 0.00016326975, -0.0016293376, -695203.0, -9387.237, 0.0, 5.026392, 4.9539967 
8.4029293e+2, 2.349709e+2, -653395.7, -767719.1, 7086.229, -0.00016753367, 0.0009774523, -652958.1, -15673.131, 0.0, 5.02532, 4.9510765 
8.402084e+2, 2.399212e+2, -607825.3, -720968.9, 6800.8867, 0.00028936347, -0.0017645095, -607418.0, -18646.115, 0.0, 5.0241756, 4.9507313 
8.4012324e+2, 2.4487022e+2, -565537.1, -681324.0, 5662.92, 0.00007422027, 0.0015838171, -565260.9, -24989.135, 0.0, 5.0229726, 4.947928 
8.400373e+2, 2.4981734e+2, -520247.25, -634559.75, 5367.9663, 0.00010403318, -0.0020411161, -519995.72, -28205.879, 0.0, 5.021679, 4.9476275 
8.3995086e+2, 2.547633e+2, -478181.0, -594700.75, 4268.1973, 0.0003562543, 0.0014396168, -478024.84, -34705.59, 0.0, 5.020307, 4.94493 
8.3986366e+2, 2.597076e+2, -433024.5, -547488.3, 3910.8923, 0.000018852437, -0.0017055614, -432891.03, -38025.902, 0.0, 5.018844, 4.944835 
8.3977604e+2, 2.6465067e+2, -391353.25, -508001.97, 2943.3884, 0.00025789224, 0.0011364128, -391279.0, -44855.926, 0.0, 5.017337, 4.942033 
8.396878e+2, 2.6959223e+2, -346155.2, -459983.5, 2577.9565, 0.00030774722, -0.0026942862, -346096.84, -48101.04, 0.0, 5.0157127, 4.942265 
8.395992e+2, 2.7453285e+2, -304913.03, -420896.0, 1862.3721, -0.00010577653, 0.0022042731, -304883.13, -55305.605, 0.0, 5.0140576, 4.9393454 
8.395102e+2, 2.7947214e+2, -259622.52, -372207.34, 1486.916, -0.00024764834, 0.0004010947, -259602.88, -58430.52, 0.0, 5.012325, 4.9398317 
8.394211e+2, 2.8440955e+2, -218779.48, -333524.03, 991.5896, 0.0005724587, -0.0015196794, -218770.9, -65984.65, 0.0, 5.0105333, 4.936785 
8.393318e+2, 2.8934583e+2, -173396.42, -284112.63, 804.9925, 0.0017346428, -0.010355575, -173390.56, -68979.51, 0.0, 5.0086846, 4.9375496 
8.3924234e+2, 2.9428333e+2, -132156.33, -245096.36, 887.4938, -0.0014189018, 0.011100731, -132149.36, -76127.24, 0.0, 5.0069847, 4.9345236 
8.39153e+2, 2.992191e+2, -87115.36, -197038.95, 511.0714, -0.003947866, 0.019842481, -87112.984, -79463.04, 0.0, 5.0052333, 4.9347315 
8.3906406e+2, 3.0415478e+2, -53519.277, -138961.84, -514.7135, 0.003161123, -0.02835385, -53516.18, -53516.18, 0.0, 5.0027595, 4.947799 
8.3897567e+2, 3.091012e+2, -59621.17, -138630.14, 228.42299, 0.00941576, -0.04889754, -59620.51, -59620.51, 0.0, 4.999943, 4.949128 
8.388881e+2, 3.140833e+2, -21715.102, -51256.113, 3374.3684, -0.011422865, 0.08926264, -21334.563, -21334.563, 0.0, 5.0001316, 4.980973 
8.3880484e+2, 3.1904984e+2, -16437.725, -34551.87, -5245.711, 0.0061201258, -0.018874614, -15028.276, -15028.276, 0.0, 4.99928, 4.9874473 
8.471473e+2, 1.257234e+2, -1622528.0, -1710313.1, 2719.6191, 0.000033032247, 0.00011000714, -1622443.8, 85466.62, 0.0, 5.0451827, 4.987414 
8.470577e+2, 1.3070957e+2, -1579428.9, -1666041.0, 3534.689, -0.0011360544, -0.0026337146, -1579284.9, 79761.12, 0.0, 5.043662, 4.9866815 
8.4697056e+2, 1.356951e+2, -1537262.6, -1624458.8, 5884.326, 0.0015666424, 0.004427781, -1536867.4, 73320.56, 0.0, 5.04236, 4.9848228 
8.46884e+2, 1.4067863e+2, -1492713.3, -1578919.6, 6475.5913, -0.0007563567, -0.0024395688, -1492229.5, 69119.7, 0.0, 5.041196, 4.9843125 
8.4679896e+2, 1.4566119e+2, -1450354.6, -1538296.3, 8081.1436, -0.00082306925, -0.0010194848, -1449618.3, 62901.97, 0.0, 5.040153, 4.9820395 
8.4671474e+2, 1.5064272e+2, -1405068.0, -1492283.9, 8587.993, 0.000037011505, -0.00028489996, -1404230.4, 59470.76, 0.0, 5.0391974, 4.981572 
8.4663147e+2, 1.5562244e+2, -1362465.4, -1452156.8, 10034.182, 0.0006467128, 0.0015665267, -1361356.5, 53543.332, 0.0, 5.038335, 4.979054 
8.465487e+2, 1.6060057e+2, -1316696.5, -1406060.6, 10360.386, -0.00048317228, -0.001689675, -1315511.1, 50603.168, 0.0, 5.0375547, 4.9785123 
8.4646666e+2, 1.655771e+2, -1273937.3, -1366396.4, 11465.292, -0.0003664986, 0.000608993, -1272536.8, 44807.535, 0.0, 5.0368223, 4.9757547 
8.463852e+2, 1.7055205e+2, -1227789.4, -1320082.9, 11603.179, -0.000033285887, -0.0011370188, -1226353.0, 42236.754, 0.0, 5.036144, 4.9752164 
8.4630394e+2, 1.7552516e+2, -1184934.6, -1280787.9, 12416.728, 0.00018828333, 0.00094873953, -1183352.3, 36500.93, 0.0, 5.035489, 4.9722667 
8.46223e+2, 1.8049656e+2, -1138554.6, -1234338.0, 12428.243, -0.00030304436, -0.0015005028, -1136968.4, 34165.26, 0.0, 5.034867, 4.971728 
8.461422e+2, 1.8546614e+2, -1095653.3, -1195267.3, 12874.068, 0.00003800347, 0.0009240297, -1094016.3, 28415.25, 0.0, 5.034248, 4.96866 
8.460614e+2, 1.9043395e+2, -1049164.0, -1148707.3, 12742.555, 0.000046785153, -0.0014211047, -1047558.75, 26188.428, 0.0, 5.0336313, 4.9681344 
8.459803e+2, 1.9539988e+2, -1006257.1, -1109802.1, 12905.369, -0.00023504313, 0.0009002103, -1004672.94, 20407.92, 0.0, 5.033004, 4.964988 
8.4589934e+2, 2.0036401e+2, -959758.44, -1063146.1, 12593.702, 0.0000085869515, -0.0015347039, -958246.5, 18186.025, 0.0, 5.0323544, 4.964488 
8.4581774e+2, 2.0532633e+2, -916916.9, -1024289.25, 12493.885, 0.00034881718, 0.0010555364, -915482.25, 12319.334, 0.0, 5.0316663, 4.9613247 
8.457361e+2, 2.1028681e+2, -870482.94, -977534.8, 12113.393, 0.000067761095, -0.0015418923, -869129.4, 10059.731, 0.0, 5.0309496, 4.960867 
8.456536e+2, 2.1524554e+2, -827701.4, -938666.1, 11632.576, -0.000160223, 0.000916151, -826495.06, 4098.4526, 0.0, 5.0301957, 4.957708 
8.4557086e+2, 2.2020239e+2, -781420.56, -891845.06, 11278.019, 0.00017459581, -0.0017593524, -780280.44, 1735.8511, 0.0, 5.029385, 4.9572906 
8.4548724e+2, 2.2515765e+2, -738796.2, -852832.2, 10448.653, 0.00015153976, 0.0011989127, -737846.75, -4392.0034, 0.0, 5.028508, 4.9542017 
8.4540313e+2, 2.30111e+2, -692756.44, -805988.4, 10139.948, 0.00032959602, -0.0015682214, -691855.56, -6943.7554, 0.0, 5.027572, 4.9538236 
8.4531814e+2, 2.3506285e+2, -650236.5, -766711.9, 9037.104, -0.000120699, 0.0009013672, -649539.5, -13155.67, 0.0, 5.0265713, 4.9508452 
8.4523255e+2, 2.4001285e+2, -604550.9, -719942.9, 8739.181, 0.00035660513, -0.0018717006, -603892.75, -16018.919, 0.0, 5.0254755, 4.9504857 
8.451461e+2, 2.4496153e+2, -562275.6, -680322.44, 7526.4736, 0.00036154408, 0.0014822588, -561797.7, -22420.896, 0.0, 5.024271, 4.947673 
8.450589e+2, 2.4990834e+2, -516951.75, -633550.0, 7175.814, 0.00009561799, -0.002093311, -516511.78, -25613.785, 0.0, 5.022992, 4.947373 
8.4497106e+2, 2.5485396e+2, -474862.7, -593787.06, 5991.1143, 0.00017087981, 0.0011669568, -474561.66, -32130.723, 0.0, 5.021643, 4.944643 
8.4488237e+2, 2.597979e+2, -429813.34, -546644.3, 5611.225, 0.00012648391, -0.001721029, -429544.47, -35564.277, 0.0, 5.0201483, 4.9445405 
8.4479326e+2, 2.6474065e+2, -388227.53, -507090.25, 4556.162, 0.00052346924, 0.0009702183, -388053.16, -42511.527, 0.0, 5.018593, 4.9417825 
8.447034e+2, 2.6968184e+2, -343164.0, -459178.22, 4146.188, 0.00051516516, -0.0027512033, -343016.0, -45898.46, 0.0, 5.01693, 4.941997 
8.44613e+2, 2.746222e+2, -302096.1, -420151.25, 3321.783, -0.000045098124, 0.0024266737, -302002.72, -53300.426, 0.0, 5.015203, 4.939094 
8.445223e+2, 2.7956116e+2, -257068.52, -371533.56, 2910.621, -0.00021972306, 0.0005404774, -256994.55, -56694.19, 0.0, 5.0133667, 4.939604 
8.4443134e+2, 2.8449824e+2, -216292.92, -332689.47, 2395.1619, 0.00070591125, -0.0021623687, -216243.66, -64326.53, 0.0, 5.011514, 4.9366426 
8.443402e+2, 2.8943425e+2, -171098.05, -283370.88, 2245.61, 0.0018606175, -0.011096055, -171053.16, -67509.14, 0.0, 5.0096006, 4.937404 
8.442487e+2, 2.943718e+2, -130915.836, -244777.78, 2134.5928, -0.0017443505, 0.013149028, -130875.83, -75720.516, 0.0, 5.007506, 4.934397 
8.441574e+2, 2.993077e+2, -86689.68, -196349.48, 1680.8009, -0.0044238963, 0.023844028, -86663.92, -79880.58, 0.0, 5.0053177, 4.9349275 
8.440667e+2, 3.0424285e+2, -50406.98, -135934.02, 1583.7302, 0.0053407084, -0.0334713, -50377.664, -50377.664, 0.0, 5.0036054, 4.9485106 
8.439764e+2, 3.0918887e+2, -54386.453, -135910.98, 3538.1167, 0.014022956, -0.06315878, -54233.19, -54233.19, 0.0, 5.0017996, 4.9492946 
8.438852e+2, 3.1417292e+2, -25877.951, -59154.08, 2152.414, -0.025504395, 0.12304025, -25739.303, -25739.303, 0.0, 4.999809, 4.9781985 
8.4380317e+2, 3.1913054e+2, -13693.658, -18306.32, -6942.035, 0.01655184, -0.070458725, -8684.867, -8684.867, 0.0, 4.9974113, 4.994224 
8.521915e+2, 1.2581433e+2, -1622737.6, -1709253.6, 2073.0723, -0.00023157807, -0.0000029537719, -1622687.9, 84331.3, 0.0, 5.0448413, 4.987941 
8.521005e+2, 1.3080105e+2, -1579576.0, -1664920.6, 2992.1978, -0.0013094407, -0.0026361882, -1579471.3, 78678.29, 0.0, 5.043338, 4.98722 
8.520121e+2, 1.3578704e+2, -1537446.8, -1623516.8, 5527.6274, 0.0016147259, 0.004238056, -1537093.3, 72193.62, 0.0, 5.0420637, 4.9852853 
8.5192436e+2, 1.4077105e+2, -1492833.1, -1577935.4, 6157.6797, -0.0009231137, -0.002447738, -1492389.9, 68053.78, 0.0, 5.040921, 4.9847784 
8.518383e+2, 1.4575401e+2, -1450534.5, -1537471.0, 7883.846, -0.0010753244, -0.0010802451, -1449825.3, 61785.195, 0.0, 5.039891, 4.982445 
8.517531e+2, 1.5073593e+2, -1405207.9, -1491457.9, 8421.753, 0.000020245676, -0.0003160023, -1404393.3, 58394.414, 0.0, 5.038954, 4.9819694 
8.516691e+2, 1.5571599e+2, -1362647.6, -1451509.6, 9982.711, 0.00064191653, 0.0014702438, -1361540.0, 52443.016, 0.0, 5.038112, 4.979381 
8.515855e+2, 1.6069442e+2, -1316842.1, -1405416.9, 10324.305, -0.0005987813, -0.0017385165, -1315654.6, 49539.703, 0.0, 5.0373507, 4.9788294 
8.5150284e+2, 1.6567121e+2, -1274122.5, -1365922.1, 11499.542, -0.0004386829, 0.0005246905, -1272704.0, 43717.887, 0.0, 5.036639, 4.976003 
8.5142064e+2, 1.706464e+2, -1227929.1, -1319619.3, 11653.763, -0.00006816817, -0.0011996116, -1226471.1, 41193.996, 0.0, 5.0359845, 4.97545 
8.513388e+2, 1.756197e+2, -1185098.5, -1280487.0, 12507.701, 0.00024144596, 0.0009755196, -1183485.6, 35441.06, 0.0, 5.0353565, 4.972431 
8.512572e+2, 1.8059123e+2, -1138650.8, -1234027.5, 12523.208, -0.00030109324, -0.0014304037, -1137033.9, 33171.75, 0.0, 5.0347624, 4.9718823 
8.511757e+2, 1.8556091e+2, -1095778.5, -1195155.1, 12972.535, -0.0001331131, 0.00083830644, -1094113.0, 27389.773, 0.0, 5.03417, 4.9687347 
8.5109437e+2, 1.9052878e+2, -1049232.1, -1148578.1, 12848.837, 0.00003540073, -0.0014028053, -1047597.25, 25220.586, 0.0, 5.0335774, 4.968204 
8.510127e+2, 1.9549476e+2, -1006359.75, -1109850.1, 12982.766, -0.00013016116, 0.0009939821, -1004755.94, 19395.332, 0.0, 5.0329742, 4.964986 
8.5093105e+2, 2.0045882e+2, -959796.06, -1063186.9, 12666.401, -0.000080563565, -0.0014782366, -958266.94, 17236.352, 0.0, 5.0323505, 4.9644766 
8.5084873e+2, 2.0542109e+2, -916964.44, -1024501.5, 12515.442, 0.00020711074, 0.0010452098, -915527.06, 11345.934, 0.0, 5.0316906, 4.961242 
8.5076636e+2, 2.1038145e+2, -870491.8, -977746.56, 12109.844, -0.00004410418, -0.0015262987, -869141.5, 9119.977, 0.0, 5.030991, 4.9607773 
8.506831e+2, 2.1534006e+2, -827749.7, -939049.56, 11548.773, -0.00010600403, 0.0010562338, -826564.0, 3103.2012, 0.0, 5.0302544, 4.957553 
8.505996e+2, 2.2029673e+2, -781438.0, -892220.25, 11157.249, 0.0001969997, -0.0015386798, -780325.5, 766.3279, 0.0, 5.0294547, 4.9571333 
8.50515e+2, 2.2525175e+2, -738868.1, -853398.7, 10231.517, -0.00000529987, 0.0010979555, -737961.3, -5428.7188, 0.0, 5.0285883, 4.9539723 
8.504301e+2, 2.3020488e+2, -692822.1, -806538.0, 9883.715, 0.00029592036, -0.0015811635, -691969.5, -7977.617, 0.0, 5.0276504, 4.953601 
8.50344e+2, 2.3515648e+2, -650363.75, -767418.75, 8666.343, -0.0001966991, 0.0010507333, -649725.6, -14259.291, 0.0, 5.026651, 4.95057 
8.5025734e+2, 2.4010617e+2, -604724.6, -720750.3, 8316.287, 0.00006779441, -0.0018226805, -604131.6, -17172.285, 0.0, 5.0255537, 4.950176 
8.5016966e+2, 2.4505451e+2, -562433.0, -681151.25, 6985.5825, 0.0005513246, 0.001562985, -562023.4, -23558.021, 0.0, 5.024355, 4.9473524 
8.500812e+2, 2.50001e+2, -517138.5, -634399.8, 6578.8164, 0.000089159446, -0.0019810963, -516770.56, -26780.682, 0.0, 5.023066, 4.947049 
8.4999186e+2, 2.5494626e+2, -475086.53, -594725.75, 5244.86, -0.00009904591, 0.0012279185, -474857.03, -33330.766, 0.0, 5.021718, 4.9442906 
8.499018e+2, 2.5988987e+2, -430033.4, -547560.8, 4829.307, 0.00007582911, -0.0014425146, -429835.3, -36756.33, 0.0, 5.0202184, 4.944198 
8.49811e+2, 2.6483223e+2, -388402.47, -507963.75, 3643.8457, 0.0005384461, 0.0009786314, -388291.53, -43647.555, 0.0, 5.0186677, 4.9414515 
8.497194e+2, 2.6977313e+2, -343379.66, -460112.72, 3169.7651, 0.00027211636, -0.0026804716, -343293.66, -47070.523, 0.0, 5.016997, 4.9416494 
8.4962744e+2, 2.7471313e+2, -302223.5, -420983.3, 2246.2656, -0.00024815573, 0.0027274056, -302181.03, -54369.9, 0.0, 5.0152864, 4.9387794 
8.4953487e+2, 2.7965173e+2, -257119.06, -372236.97, 1781.5853, 0.00008227901, 0.00046447528, -257091.5, -57678.69, 0.0, 5.013458, 4.939332 
8.49442e+2, 2.8458858e+2, -216328.0, -333237.72, 1156.4712, 0.0006627521, -0.0023237471, -216316.56, -65284.95, 0.0, 5.011582, 4.9364333 
8.4934884e+2, 2.8952444e+2, -171238.55, -284019.88, 897.2952, 0.00083680474, -0.010663086, -171231.4, -68571.67, 0.0, 5.0096393, 4.9371724 
8.492554e+2, 2.9446182e+2, -130911.7, -245336.33, 626.0726, -0.0015119911, 0.013783329, -130908.28, -76633.78, 0.0, 5.007586, 4.934182 
8.491621e+2, 2.993974e+2, -86069.695, -195694.23, 294.81738, -0.0023348718, 0.023422774, -86068.9, -80162.54, 0.0, 5.0054398, 4.935128 
8.490693e+2, 3.0433315e+2, -48683.824, -132907.47, -95.0743, 0.004467754, -0.036800563, -48683.72, -48683.72, 0.0, 5.003766, 4.949552 
8.489769e+2, 3.0928028e+2, -56104.58, -140552.4, 893.9357, 0.008808099, -0.06102185, -56095.113, -56095.113, 0.0, 5.0018888, 4.9476023 
8.488841e+2, 3.142609e+2, -31060.709, -72388.51, 1035.604, -0.02068352, 0.116759256, -31034.775, -31034.775, 0.0, 4.999992, 4.973289 
8.4879863e+2, 3.19221e+2, -805.73224, 11298.965, -649.08453, 0.0043263184, -0.02053983, 11333.671, 11333.671, 0.0, 4.9974484, 5.005191 
8.57235e+2, 1.2590706e+2, -1624386.0, -1708544.0, 2801.474, -0.00015818836, -0.00015685175, -1624292.8, 81817.805, 0.0, 5.043984, 4.988583 
8.571425e+2, 1.3089442e+2, -1581027.8, -1664151.6, 3906.4004, -0.00094369944, -0.0021594367, -1580844.5, 76389.88, 0.0, 5.0425577, 4.9878416 
8.57053e+2, 1.3588087e+2, -1538709.1, -1622835.5, 6672.4697, 0.001828935, 0.004151206, -1538183.1, 70184.06, 0.0, 5.0413885, 4.985824 
8.569642e+2, 1.4086536e+2, -1493785.3, -1577075.3, 7397.1494, -0.0009564131, -0.002637213, -1493133.4, 66385.88, 0.0, 5.0403485, 4.985326 
8.568772e+2, 1.4584883e+2, -1451271.8, -1536635.3, 9303.494, -0.0010119225, -0.0009996499, -1450269.6, 60411.684, 0.0, 5.0394254, 4.9829297 
8.5679114e+2, 1.508312e+2, -1405588.5, -1490450.6, 9931.188, 0.00020022398, -0.000061451385, -1404441.8, 57412.344, 0.0, 5.038612, 4.9824514 
8.567063e+2, 1.5581161e+2, -1362781.1, -1450542.1, 11643.991, 0.0007476488, 0.0014841142, -1361262.5, 51783.414, 0.0, 5.0378914, 4.979791 
8.566221e+2, 1.607904e+2, -1316652.0, -1404316.5, 12048.128, -0.00059487385, -0.0017827153, -1315026.4, 49227.51, 0.0, 5.037248, 4.9792275 
8.565388e+2, 1.657675e+2, -1273692.8, -1364847.4, 13339.137, -0.0003916329, 0.0005604002, -1271780.8, 43697.457, 0.0, 5.0366535, 4.9763355 
8.56456e+2, 1.7074294e+2, -1227170.6, -1318409.1, 13549.069, 0.00003097036, -0.0011083733, -1225201.0, 41517.77, 0.0, 5.0361185, 4.9757714 
8.563736e+2, 1.7571646e+2, -1184119.0, -1279340.4, 14482.959, 0.00028169423, 0.0009563328, -1181964.9, 36013.492, 0.0, 5.0356064, 4.9726763 
8.562914e+2, 1.8068819e+2, -1137387.5, -1232761.6, 14553.112, -0.00026861782, -0.0013941248, -1135216.3, 34039.17, 0.0, 5.0351152, 4.9721203 
8.562094e+2, 1.85658e+2, -1094317.6, -1193995.4, 15054.528, -0.00009068488, 0.0008037502, -1092093.5, 28457.89, 0.0, 5.034631, 4.9688873 
8.5612756e+2, 1.9062595e+2, -1047466.2, -1147282.0, 14969.417, 0.000111513786, -0.0014187883, -1045269.56, 26595.95, 0.0, 5.0341487, 4.9683523 
8.5604537e+2, 1.9559197e+2, -1004427.44, -1108646.5, 15129.9375, -0.000039466053, 0.0009287342, -1002275.4, 20923.156, 0.0, 5.0336423, 4.9650593 
8.559631e+2, 2.0055604e+2, -957589.8, -1061878.6, 14850.594, -0.000031846634, -0.0015922061, -955516.3, 19034.178, 0.0, 5.0331197, 4.9645424 
8.558802e+2, 2.0551826e+2, -914570.75, -1023309.9, 14684.199, 0.00015125149, 0.00085724134, -912622.7, 13298.14, 0.0, 5.0325665, 4.961224 
8.557972e+2, 2.1047853e+2, -867864.7, -976474.06, 14312.732, -0.000009164716, -0.001619704, -866010.2, 11299.939, 0.0, 5.0319567, 4.9607487 
8.557132e+2, 2.15437e+2, -824984.5, -937868.2, 13731.234, 0.000027784507, 0.0009815224, -823338.2, 5378.975, 0.0, 5.031303, 4.9574566 
8.5562897e+2, 2.2039351e+2, -778431.9, -890935.8, 13347.273, 0.0003012865, -0.0015423287, -776870.06, 3273.3306, 0.0, 5.030591, 4.957036 
8.555435e+2, 2.2534831e+2, -735714.9, -852231.5, 12375.3955, 0.000018869605, 0.0009539244, -734414.94, -2828.6545, 0.0, 5.029817, 4.953795 
8.5545766e+2, 2.3030119e+2, -689468.2, -805291.7, 12019.364, 0.00032522186, -0.0016995841, -688234.06, -5185.954, 0.0, 5.028955, 4.953418 
8.553706e+2, 2.3525251e+2, -646947.7, -766254.4, 10732.171, 0.000016790911, 0.0011030327, -645989.94, -11464.843, 0.0, 5.0279965, 4.950342 
8.5528284e+2, 2.4020192e+2, -601162.5, -719573.56, 10352.56, 0.00008624186, -0.0017214483, -600264.2, -14243.19, 0.0, 5.0269637, 4.9499283 
8.5519403e+2, 2.4514991e+2, -558732.1, -679981.8, 8942.595, 0.00041996234, 0.0013547532, -558076.1, -20545.555, 0.0, 5.025824, 4.947083 
8.5510427e+2, 2.5009605e+2, -513466.75, -633324.8, 8531.958, 0.00029438033, -0.0017121123, -512862.47, -23804.027, 0.0, 5.0245414, 4.946748 
8.5501355e+2, 2.5504094e+2, -471430.03, -593626.06, 7089.164, 0.00011277658, 0.0013154886, -471020.16, -30421.572, 0.0, 5.0231824, 4.9440017 
8.5492194e+2, 2.5998417e+2, -426406.4, -546470.1, 6614.361, 0.00021576254, -0.0014781845, -426043.1, -33888.094, 0.0, 5.021672, 4.9439154 
8.548296e+2, 2.6492614e+2, -384910.06, -507076.56, 5324.0576, 0.0005101953, 0.0009858402, -384678.47, -40954.836, 0.0, 5.0200925, 4.94112 
8.5473627e+2, 2.6986668e+2, -339993.0, -459200.03, 4787.057, 0.00009646419, -0.0024107844, -339801.06, -44494.637, 0.0, 5.018372, 4.941352 
8.546425e+2, 2.7480626e+2, -299046.56, -420129.72, 3776.8303, -0.000079658086, 0.0025682577, -298928.84, -52030.387, 0.0, 5.016583, 4.9384966 
8.545481e+2, 2.7974448e+2, -254168.64, -371503.2, 3258.5696, 0.0008001786, -0.0003209716, -254078.22, -55574.0, 0.0, 5.0146737, 4.9390464 
8.544532e+2, 2.8468114e+2, -213730.69, -332720.53, 2457.2632, 0.00010381405, -0.00081406353, -213679.97, -63555.504, 0.0, 5.012674, 4.936127 
8.5435796e+2, 2.896169e+2, -168970.11, -283517.13, 2087.5635, -0.0005186939, -0.0068758577, -168932.08, -67178.16, 0.0, 5.0105867, 4.936927 
8.5426277e+2, 2.9455325e+2, -128619.15, -244392.08, 1741.1469, 0.0009762319, 0.0093401745, -128592.97, -75214.38, 0.0, 5.0084596, 4.9341288 
8.5416764e+2, 2.9948792e+2, -84329.36, -195790.08, 1491.9904, 0.0032385746, 0.011529257, -84309.39, -79289.766, 0.0, 5.006264, 4.934727 
8.540718e+2, 3.0442536e+2, -47947.465, -134939.94, -106.42524, -0.0027968334, -0.021464864, -47947.332, -47947.332, 0.0, 5.004516, 4.9484816 
8.5397667e+2, 3.09374e+2, -53887.9, -139080.67, -594.5729, -0.008312179, -0.022214858, -53883.746, -53883.746, 0.0, 5.0026274, 4.9477983 
8.538862e+2, 3.1434444e+2, -28265.123, -69637.72, 952.7938, 0.010865269, 0.0602735, -28243.191, -28243.191, 0.0, 5.0007586, 4.973947 
8.537947e+2, 3.193085e+2, -4373.981, 5537.2397, 1866.2493, -0.00011229471, -0.048665255, 5877.001, 5877.001, 0.0, 4.996963, 5.0032544 
8.6227804e+2, 1.2600118e+2, -1624530.5, -1707276.9, 2250.1204, -0.00034622653, -0.00022519092, -1624469.4, 80719.04, 0.0, 5.0436234, 4.9891906 
8.6218417e+2, 1.3098912e+2, -1581124.8, -1662878.9, 3446.994, -0.0009777462, -0.002147175, -1580979.6, 75326.66, 0.0, 5.042221, 4.9884386 
8.620935e+2, 1.359761e+2, -1538857.9, -1621707.9, 6405.54, 0.0016343365, 0.0038624702, -1538365.5, 69068.44, 0.0, 5.041068, 4.9863605 
8.620037e+2, 1.4096113e+2, -1493889.4, -1575930.1, 7173.9663, -0.0010901571, -0.0027612322, -1493266.8, 65314.05, 0.0, 5.0400457, 4.9858594 
8.6191577e+2, 1.4594509e+2, -1451434.8, -1535671.9, 9216.704, -0.0010655684, -0.001065268, -1450438.1, 59299.89, 0.0, 5.03914, 4.9833927 
8.618289e+2, 1.5092789e+2, -1405709.3, -1489479.3, 9885.651, 0.00017442029, -0.0001385624, -1404558.5, 56347.93, 0.0, 5.038346, 4.982908 
8.6174345e+2, 1.5590872e+2, -1362969.1, -1449755.6, 11692.281, 0.00067486713, 0.001335798, -1361421.5, 50672.844, 0.0, 5.037639, 4.980178 
8.616586e+2, 1.6088787e+2, -1316803.5, -1403545.9, 12114.635, -0.0006634973, -0.0018703124, -1315143.4, 48155.36, 0.0, 5.0370164, 4.9795995 
8.6157465e+2, 1.658653e+2, -1273881.8, -1364246.1, 13475.282, -0.0004294975, 0.0005196851, -1271915.1, 42604.79, 0.0, 5.0364428, 4.976639 
8.614914e+2, 1.7084102e+2, -1227318.8, -1317818.0, 13704.315, -0.000015373465, -0.0011496441, -1225289.0, 40468.668, 0.0, 5.03593, 4.976061 
8.614085e+2, 1.7581476e+2, -1184295.0, -1278934.0, 14664.979, 0.0002238075, 0.0008314702, -1182074.6, 34940.473, 0.0, 5.0354486, 4.972887 
8.6132586e+2, 1.8078668e+2, -1137489.5, -1232332.9, 14746.558, -0.0002951993, -0.0014403913, -1135249.6, 33040.7, 0.0, 5.034987, 4.9723244 
8.612434e+2, 1.8575662e+2, -1094456.9, -1193755.5, 15250.016, -0.00014876664, 0.0007378211, -1092167.6, 27417.133, 0.0, 5.0345273, 4.9690156 
8.6116105e+2, 1.907247e+2, -1047531.3, -1147037.1, 15158.193, 0.000028944716, -0.0013639019, -1045273.44, 25624.305, 0.0, 5.0340767, 4.968468 
8.610783e+2, 1.9569078e+2, -1004500.56, -1108592.5, 15288.661, -0.000043393782, 0.0010390774, -1002301.44, 19928.697, 0.0, 5.033603, 4.9650955 
8.6099553e+2, 2.0065488e+2, -957605.44, -1061811.4, 15008.799, -0.00001405567, -0.0014911309, -955486.8, 18095.156, 0.0, 5.0331044, 4.964572 
8.609121e+2, 2.0561706e+2, -914613.5, -1023433.2, 14761.237, 0.000058557067, 0.0009594282, -912646.7, 12305.887, 0.0, 5.032578, 4.961178 
8.608285e+2, 2.1057725e+2, -867857.7, -976598.9, 14372.166, -0.000010193721, -0.0014798597, -865990.2, 10352.423, 0.0, 5.03199, 4.960691 
8.607438e+2, 2.1553561e+2, -825006.1, -938191.2, 13708.545, 0.00008056945, 0.0011165132, -823369.44, 4381.356, 0.0, 5.0313606, 4.9573193 
8.606588e+2, 2.2049196e+2, -778412.4, -891244.44, 13290.044, 0.00013231482, -0.0015285417, -776868.1, 2310.3882, 0.0, 5.0306635, 4.956897 
8.6057264e+2, 2.2544657e+2, -735761.75, -852771.1, 12216.567, -0.00013706299, 0.00093926094, -734499.9, -3876.4526, 0.0, 5.0299044, 4.9535713 
8.6048585e+2, 2.303992e+2, -689529.94, -805877.8, 11810.918, 0.00009252127, -0.0016802709, -688343.06, -6255.5093, 0.0, 5.029044, 4.9531775 
8.603979e+2, 2.3535028e+2, -647050.6, -766976.94, 10418.1455, 0.000300181, 0.0014218951, -646152.3, -12585.28, 0.0, 5.028089, 4.950054 
8.60309e+2, 2.4029936e+2, -601269.6, -720270.8, 9987.218, 0.00014470852, -0.001613374, -600437.25, -15371.266, 0.0, 5.0270476, 4.949652 
8.60219e+2, 2.4524699e+2, -558908.4, -680872.9, 8411.399, -0.000080285616, 0.00088153034, -558331.0, -21751.826, 0.0, 5.025913, 4.94674 
8.60128e+2, 2.5019282e+2, -513668.44, -634276.1, 7974.0513, 0.00016352578, -0.0016029023, -513143.5, -25033.348, 0.0, 5.0246305, 4.9463825 
8.6003596e+2, 2.5513735e+2, -471589.84, -594544.25, 6363.0693, 0.00030720024, 0.0015867756, -471261.4, -31607.633, 0.0, 5.0232773, 4.943647 
8.5994273e+2, 2.6008016e+2, -426622.3, -547521.25, 5823.875, 0.00007889261, -0.0016148839, -426342.4, -35128.11, 0.0, 5.0217657, 4.943514 
8.598488e+2, 2.6502177e+2, -385054.2, -508025.53, 4390.5273, 0.00023831807, 0.0011621888, -384897.63, -42111.133, 0.0, 5.020197, 4.940753 
8.597538e+2, 2.6996195e+2, -340154.63, -460179.03, 3796.8462, -0.000062385385, -0.001989098, -340034.66, -45661.688, 0.0, 5.0184712, 4.940977 
8.5965824e+2, 2.749011e+2, -299202.6, -421069.03, 2642.5867, 0.00022394014, 0.0023531478, -299145.3, -53175.984, 0.0, 5.0166726, 4.9381394 
8.59562e+2, 2.7983883e+2, -254402.98, -372504.75, 2087.5872, 0.0009690076, -0.0013745249, -254366.1, -56786.81, 0.0, 5.0147395, 4.9386773 
8.594648e+2, 2.8477544e+2, -213867.58, -333744.75, 1186.031, -0.0012389296, 0.0008207463, -213855.84, -64654.98, 0.0, 5.01278, 4.9357343 
8.593675e+2, 2.8971103e+2, -168911.47, -284274.9, 852.7813, -0.0022742096, -0.0027585854, -168905.17, -68073.43, 0.0, 5.01073, 4.9366117 
8.5927063e+2, 2.9464623e+2, -128412.14, -244690.56, 255.77054, 0.0038688583, 0.0043328837, -128411.58, -75944.555, 0.0, 5.0085793, 4.933992 
8.591736e+2, 2.9957977e+2, -85055.766, -198073.6, 85.928635, 0.008593707, -0.0017465256, -85055.7, -80936.984, 0.0, 5.006346, 4.9338984 
8.590744e+2, 3.0451888e+2, -49560.15, -139515.19, -637.67163, -0.012209656, -0.005056984, -49555.63, -49555.63, 0.0, 5.0046344, 4.9467993 
8.5897636e+2, 3.0946904e+2, -54823.465, -141729.77, -941.297, -0.029013643, 0.025639355, -54813.27, -54813.27, 0.0, 5.0026827, 4.946837 
8.5888994e+2, 3.1442767e+2, -25229.71, -62958.0, 226.04451, 0.057276197, -0.037882425, -25228.357, -25228.357, 0.0, 5.0008006, 4.9763865 
8.587877e+2, 3.1940752e+2, -14182.804, -17080.371, 289.83463, -0.030187583, 0.01683414, -14154.097, -14154.097, 0.0, 4.9968896, 4.9948783 
8.673201e+2, 1.2609698e+2, -1626950.8, -1706901.4, 2862.6953, 0.000016067665, -0.000020904858, -1626848.4, 77400.86, 0.0, 5.0424953, 4.9898553 
8.6722493e+2, 1.3108552e+2, -1583172.3, -1662258.6, 4266.406, -0.00092835457, -0.0022630736, -1582942.8, 72419.08, 0.0, 5.041207, 4.9891267 
8.6713326e+2, 1.3607313e+2, -1540628.8, -1621087.0, 7453.8413, 0.001506731, 0.003898348, -1539944.1, 66539.13, 0.0, 5.0401764, 4.9869866 
8.670425e+2, 1.4105876e+2, -1495297.5, -1575147.1, 8324.724, -0.00073632214, -0.002389694, -1494438.8, 63185.117, 0.0, 5.0392833, 4.9864755 
8.669538e+2, 1.4604323e+2, -1452561.9, -1534910.3, 10570.898, -0.0007765614, -0.00089484896, -1451226.6, 57549.55, 0.0, 5.0385113, 4.9839334 
8.6686623e+2, 1.510265e+2, -1406420.4, -1488520.5, 11334.012, 0.00014480637, -0.00019275674, -1404884.4, 55055.6, 0.0, 5.037862, 4.9834433 
8.6678016e+2, 1.5600778e+2, -1363378.5, -1448798.0, 13296.311, 0.00066988077, 0.0013392451, -1361356.6, 49766.91, 0.0, 5.0372953, 4.980645 
8.666947e+2, 1.6098735e+2, -1316829.4, -1402419.5, 13797.669, -0.0005177209, -0.001702663, -1314660.1, 47663.53, 0.0, 5.0368104, 4.9800563 
8.6661035e+2, 1.6596514e+2, -1273621.0, -1363132.4, 15288.389, -0.00032093693, 0.0005954148, -1271081.8, 42459.637, 0.0, 5.0363717, 4.977025 
8.665266e+2, 1.7094119e+2, -1226699.4, -1316556.4, 15587.912, 0.0000028663026, -0.0011632983, -1224072.0, 40704.043, 0.0, 5.0359907, 4.976434 
8.664433e+2, 1.7591521e+2, -1183426.6, -1277711.8, 16645.684, 0.00029606104, 0.00078426866, -1180574.1, 35456.598, 0.0, 5.0356336, 4.973187 
8.6636037e+2, 1.8088737e+2, -1136276.3, -1230968.8, 16787.113, -0.00021750214, -0.0013652551, -1133388.4, 33915.13, 0.0, 5.035299, 4.972614 
8.6627746e+2, 1.858575e+2, -1093008.4, -1192453.4, 17353.916, -0.00014493537, 0.00068850257, -1090067.0, 28529.285, 0.0, 5.0349565, 4.969231 
8.661947e+2, 1.9082572e+2, -1045775.8, -1145619.6, 17327.08, 0.00009098871, -0.0015093123, -1042854.3, 27053.459, 0.0, 5.03462, 4.968672 
8.661116e+2, 1.9579189e+2, -1002515.44, -1107266.3, 17489.875, -0.000014091658, 0.0008975365, -999672.4, 21566.91, 0.0, 5.034265, 4.965216 
8.6602837e+2, 2.0075604e+2, -955330.9, -1060378.6, 17278.375, 0.000021866043, -0.0015788361, -952561.9, 20028.604, 0.0, 5.033877, 4.9646797 
8.6594445e+2, 2.0571823e+2, -912129.3, -1022076.7, 17036.117, 0.00016490267, 0.0009051986, -909550.1, 14410.96, 0.0, 5.033463, 4.9612107 
8.658603e+2, 2.1067837e+2, -865072.0, -975121.56, 16684.426, 0.000026169171, -0.0016301791, -862598.1, 12753.502, 0.0, 5.0329885, 4.9607153 
8.6577505e+2, 2.1563664e+2, -822056.6, -936825.4, 16011.519, 0.00017446773, 0.0009831634, -819864.7, 6895.9277, 0.0, 5.0324626, 4.9572573 
8.656894e+2, 2.2059287e+2, -775177.9, -889764.25, 15612.189, 0.0001741923, -0.0016247887, -773088.8, 5100.8804, 0.0, 5.0318727, 4.9568286 
8.656025e+2, 2.2554728e+2, -732390.06, -851412.1, 14483.175, -0.00006638925, 0.0008155008, -730653.0, -1016.61115, 0.0, 5.0312004, 4.9534245 
8.655149e+2, 2.3049971e+2, -685903.1, -804420.56, 14075.675, 0.0002220926, -0.0015915337, -684254.4, -3151.7808, 0.0, 5.0304346, 4.9530263 
8.6542594e+2, 2.354505e+2, -643272.75, -765656.56, 12615.753, 0.00035234282, 0.00141666, -641985.8, -9401.015, 0.0, 5.0295715, 4.949816 
8.653361e+2, 2.4039927e+2, -597360.0, -718871.4, 12190.698, 0.00031998174, -0.0016510548, -596149.0, -12062.13, 0.0, 5.028573, 4.9494243 
8.6524487e+2, 2.4534656e+2, -554914.1, -679577.0, 10499.17, -0.000090008485, 0.0005724667, -554036.06, -18432.484, 0.0, 5.027495, 4.946457 
8.651526e+2, 2.5029203e+2, -509594.63, -632990.44, 10039.059, 0.00016248356, -0.0017446346, -508783.22, -21645.342, 0.0, 5.026251, 4.946083 
8.650592e+2, 2.552362e+2, -467523.84, -593328.6, 8318.086, 0.00046738825, 0.0016351619, -466976.25, -28291.168, 0.0, 5.0249014, 4.943328 
8.649645e+2, 2.601786e+2, -422594.9, -546364.56, 7746.5522, -0.000016254997, -0.0017635248, -422111.94, -31862.258, 0.0, 5.0233874, 4.943179 
8.648689e+2, 2.651198e+2, -381101.72, -506887.4, 6197.0186, 0.00020960422, 0.0008765123, -380797.16, -38971.168, 0.0, 5.021791, 4.9404316 
8.6477214e+2, 2.700595e+2, -336375.47, -459178.97, 5538.2583, 0.0004131293, -0.0022385388, -336126.2, -42709.605, 0.0, 5.0200143, 4.940633 
8.6467475e+2, 2.749983e+2, -295629.25, -420128.16, 4269.5244, 0.0003682176, 0.0026514998, -295483.03, -50466.418, 0.0, 5.0181246, 4.937817 
8.645764e+2, 2.7993572e+2, -251056.77, -371572.2, 3638.0313, 0.0009835436, -0.000653844, -250947.05, -54317.06, 0.0, 5.0160937, 4.938397 
8.6447734e+2, 2.8487173e+2, -210668.47, -332762.34, 2738.4873, -0.0008415906, -0.0008219034, -210607.08, -62350.277, 0.0, 5.014056, 4.9355125 
8.643779e+2, 2.8980687e+2, -166079.42, -283663.22, 2384.7122, -0.0017174794, -0.00611075, -166031.08, -66138.7, 0.0, 5.0119114, 4.9363027 
8.642787e+2, 2.947425e+2, -126203.46, -244613.97, 1484.3795, 0.0032813195, 0.009637075, -126184.85, -74660.33, 0.0, 5.0095816, 4.9335747 
8.641792e+2, 2.996763e+2, -82867.445, -196943.48, 1481.903, 0.0070039737, 0.010139555, -82848.2, -79674.24, 0.0, 5.00714, 4.933947 
8.640786e+2, 3.04613e+2, -47157.684, -137180.33, 2161.1516, -0.0107069155, -0.019030109, -47105.832, -47105.832, 0.0, 5.0052943, 4.9473386 
8.63979e+2, 3.0956143e+2, -52740.45, -139817.52, 2935.6873, -0.02368493, -0.009944682, -52641.59, -52641.59, 0.0, 5.003276, 4.9472547 
8.6388874e+2, 3.1452852e+2, -25778.158, -65923.15, -80.864265, 0.050842915, 0.034446996, -25777.996, -25777.996, 0.0, 5.001174, 4.9751244 
8.6378485e+2, 3.195e+2, -10014.524, -8078.5303, -1689.2255, -0.019740822, -0.0006623242, -7099.6064, -7099.6064, 0.0, 4.9970193, 4.9981866 
8.723616e+2, 1.2619399e+2, -1627096.9, -1705420.9, 2395.0522, -0.00011953572, -0.00014093974, -1627023.8, 76274.86, 0.0, 5.0420923, 4.9905524 
8.7226516e+2, 1.311832e+2, -1583214.0, -1660777.3, 3960.1426, -0.00092065433, -0.002312392, -1583012.4, 71392.06, 0.0, 5.0408516, 4.9898005 
8.721724e+2, 1.3617142e+2, -1540737.3, -1619759.3, 7310.2026, 0.00095551286, 0.0036864872, -1540066.8, 65453.17, 0.0, 5.0398316, 4.987601 
8.7208086e+2, 1.4115767e+2, -1495370.3, -1573818.3, 8215.943, -0.0007094937, -0.0025072573, -1494519.0, 62135.59, 0.0, 5.038956, 4.9870806 
8.719915e+2, 1.4614269e+2, -1452707.5, -1533772.9, 10614.156, -0.00066827796, -0.0009953537, -1451340.9, 56460.555, 0.0, 5.0382004, 4.984465 
8.7190324e+2, 1.5112647e+2, -1406539.8, -1487397.0, 11412.763, -0.000066639324, -0.00027307085, -1404959.8, 54000.42, 0.0, 5.037566, 4.983964 
8.7181664e+2, 1.5610822e+2, -1363556.4, -1447859.6, 13465.051, 0.00045652923, 0.0011940419, -1361458.0, 48681.24, 0.0, 5.037016, 4.981095 
8.7173074e+2, 1.6108823e+2, -1316978.6, -1401497.3, 13983.203, -0.0005209537, -0.0017728631, -1314725.3, 46609.793, 0.0, 5.0365486, 4.9804926 
8.71646e+2, 1.660664e+2, -1273813.4, -1362384.6, 15533.074, -0.0003514234, 0.0005361649, -1271168.4, 41380.727, 0.0, 5.0361314, 4.9773903 
8.715618e+2, 1.710428e+2, -1226838.1, -1315810.6, 15841.223, -0.00007737847, -0.0011729054, -1224101.8, 39678.45, 0.0, 5.035776, 4.976786 
8.714782e+2, 1.760171e+2, -1183598.3, -1277137.3, 16930.1, 0.00027726797, 0.000711936, -1180628.3, 34403.816, 0.0, 5.035444, 4.9734674 
8.713949e+2, 1.8098956e+2, -1136389.8, -1230403.3, 17085.16, -0.0002939161, -0.001328897, -1133381.1, 32920.93, 0.0, 5.035138, 4.9728775 
8.713117e+2, 1.859599e+2, -1093114.8, -1192048.1, 17640.846, -0.00020370474, 0.0007821784, -1090063.3, 27529.426, 0.0, 5.0348325, 4.9694247 
8.7122864e+2, 1.9092827e+2, -1045815.7, -1145221.4, 17602.568, 0.00014198234, -0.0014276229, -1042790.7, 26111.938, 0.0, 5.0345273, 4.9688487 
8.711451e+2, 1.9589458e+2, -1002566.1, -1107022.3, 17718.682, -0.00008914188, 0.0009574043, -999642.4, 20590.541, 0.0, 5.0342, 4.9653263 
8.7106156e+2, 2.0085883e+2, -955322.6, -1060154.5, 17503.32, -0.000107249376, -0.0015230983, -952477.4, 19105.855, 0.0, 5.033842, 4.9647703 
8.709772e+2, 2.0582107e+2, -912123.2, -1022037.25, 17188.459, 0.0002351123, 0.0010612585, -909497.94, 13455.419, 0.0, 5.0334635, 4.9612226 
8.708926e+2, 2.1078119e+2, -865020.25, -975103.4, 16800.633, -0.0001364845, -0.0015865192, -862513.25, 11830.831, 0.0, 5.0330143, 4.960708 
8.708068e+2, 2.157394e+2, -822042.75, -937033.56, 16056.128, 0.000075237964, 0.0011033263, -819842.9, 5910.8105, 0.0, 5.0325165, 4.9571595 
8.7072057e+2, 2.206955e+2, -775142.9, -889992.8, 15627.9795, 0.00012113659, -0.0015084298, -773054.3, 4129.614, 0.0, 5.031939, 4.956718 
8.7063295e+2, 2.2564973e+2, -732409.5, -851867.4, 14394.718, -0.000027069947, 0.00088233827, -730699.44, -2067.1067, 0.0, 5.0312843, 4.9532304 
8.7054455e+2, 2.3060194e+2, -685889.5, -804849.94, 13956.761, 0.00024134795, -0.0015324127, -684274.0, -4173.322, 0.0, 5.030527, 4.9528365 
8.704547e+2, 2.3555247e+2, -643345.94, -766357.3, 12336.786, -0.000039414423, 0.0012269729, -642120.94, -10535.435, 0.0, 5.029677, 4.949526 
8.703639e+2, 2.4050099e+2, -597418.06, -719552.0, 11885.618, 0.00014464754, -0.0014930209, -596272.2, -13182.045, 0.0, 5.0286803, 4.94914 
8.702716e+2, 2.4544795e+2, -555010.6, -680419.06, 10009.774, -0.000016620319, 0.0008421734, -554216.7, -19606.88, 0.0, 5.0276093, 4.9461193 
8.7017804e+2, 2.5039306e+2, -509730.22, -633920.94, 9464.665, -0.000048087728, -0.0017383494, -509013.06, -22865.195, 0.0, 5.026365, 4.9457145 
8.700833e+2, 2.5533688e+2, -467656.16, -594280.1, 7581.162, 0.00053917296, 0.001990615, -467203.88, -29505.393, 0.0, 5.025019, 4.9429464 
8.69987e+2, 2.6027888e+2, -422737.47, -547304.44, 6968.55, -0.00011220201, -0.0016282254, -422348.88, -33081.785, 0.0, 5.023497, 4.9428053 
8.698898e+2, 2.6521963e+2, -381283.7, -507971.9, 5227.313, -0.000026864911, 0.0010272653, -381068.38, -40220.96, 0.0, 5.021904, 4.940015 
8.6979127e+2, 2.7015898e+2, -336554.47, -460221.13, 4500.5356, 0.00031887644, -0.0021775786, -336390.9, -43948.746, 0.0, 5.0201173, 4.940236 
8.6969185e+2, 2.7509737e+2, -295739.4, -421188.25, 3088.3052, -0.00023225845, 0.0032736068, -295663.44, -51617.664, 0.0, 5.018252, 4.937402 
8.695915e+2, 2.8003448e+2, -251084.14, -372498.2, 2402.4412, 0.0004108342, 0.0007233536, -251036.63, -55374.207, 0.0, 5.0162306, 4.938026 
8.6949056e+2, 2.8496984e+2, -210646.7, -333459.1, 1378.3385, -0.00012997394, -0.002569784, -210631.23, -63335.97, 0.0, 5.0141716, 4.9352326 
8.6938894e+2, 2.8990442e+2, -166323.58, -284770.8, 856.0694, -0.00086717494, -0.0104718525, -166317.39, -67381.14, 0.0, 5.011985, 4.935895 
8.692871e+2, 2.9484072e+2, -126389.445, -245939.63, -58.275814, 0.0011355347, 0.017260501, -126389.42, -75827.11, 0.0, 5.00972, 4.933062 
8.69185e+2, 2.9977503e+2, -82234.58, -196562.69, 195.166, 0.0029939457, 0.026524372, -82234.24, -80026.7, 0.0, 5.007317, 4.934027 
8.690833e+2, 3.0470812e+2, -45982.0, -134567.36, 432.09274, -0.005450715, -0.046782017, -45979.895, -45979.895, 0.0, 5.00528, 4.948309 
8.689826e+2, 3.096544e+2, -54913.793, -143772.5, 88.98545, -0.011367637, -0.063752025, -54913.703, -54913.703, 0.0, 5.003022, 4.9459596 
8.6888534e+2, 3.146365e+2, -29023.81, -73133.02, -602.8046, 0.02259868, 0.13831788, -29015.574, -29015.574, 0.0, 5.0010605, 4.97255 
8.6878115e+2, 3.1959277e+2, 633.78015, 15352.282, -1798.3146, -0.01803235, -0.036941428, 15568.815, 15568.815, 0.0, 4.997259, 5.006768 
8.774019e+2, 1.2629253e+2, -1630095.1, -1704969.5, 2902.782, -0.00001073802, -0.00010046138, -1629982.8, 72350.43, 0.0, 5.0406938, 4.991374 
8.773044e+2, 1.3128254e+2, -1585865.1, -1660276.6, 4649.5977, -0.00034066, -0.0017676099, -1585575.8, 67855.06, 0.0, 5.039597, 4.9905653 
8.7721074e+2, 1.3627137e+2, -1543085.3, -1619295.0, 8229.277, 0.0006332219, 0.0037359474, -1542206.8, 62333.586, 0.0, 5.0387163, 4.9882846 
8.7711847e+2, 1.4125824e+2, -1497252.5, -1573116.8, 9243.314, -0.00051197776, -0.0027293882, -1496142.5, 59526.62, 0.0, 5.0379987, 4.9877653 
8.770285e+2, 1.462439e+2, -1454246.6, -1533072.0, 11844.841, -0.00020803127, -0.0008339817, -1452505.3, 54304.324, 0.0, 5.0374, 4.9850698 
8.7693965e+2, 1.5122828e+2, -1407597.5, -1486476.8, 12739.354, -0.000087776956, 0.00010638217, -1405591.1, 52371.59, 0.0, 5.036933, 4.984561 
8.768526e+2, 1.562105e+2, -1364254.8, -1446905.0, 14957.974, 0.00038767618, 0.0012671317, -1361630.9, 47505.996, 0.0, 5.036539, 4.9816275 
8.767664e+2, 1.6119097e+2, -1317246.5, -1400355.3, 15569.985, -0.00031595398, -0.0017937322, -1314425.4, 45902.836, 0.0, 5.0362267, 4.981013 
8.7668127e+2, 1.6616958e+2, -1273762.0, -1361241.1, 17267.104, -0.00020000682, 0.0005937445, -1270477.1, 41060.77, 0.0, 5.0359554, 4.9778385 
8.7659687e+2, 1.711464e+2, -1226400.0, -1314497.4, 17659.598, -0.00006483543, -0.0010129858, -1222991.9, 39773.203, 0.0, 5.0357404, 4.9772243 
8.76513e+2, 1.7612104e+2, -1182871.6, -1275818.0, 18859.834, 0.00035815785, 0.0007367579, -1179190.5, 34822.973, 0.0, 5.035541, 4.973841 
8.7642944e+2, 1.8109381e+2, -1135281.6, -1228933.4, 19093.621, -0.00022090254, -0.0013667648, -1131538.5, 33741.96, 0.0, 5.0353765, 4.9732375 
8.76346e+2, 1.8606442e+2, -1091724.4, -1190617.9, 19741.115, -0.0001377858, 0.0007856963, -1087929.3, 28639.186, 0.0, 5.035203, 4.969716 
8.762628e+2, 1.9103304e+2, -1044107.44, -1143683.6, 19811.955, 0.00024237913, -0.0013052505, -1040310.4, 27565.691, 0.0, 5.0350184, 4.969122 
8.76179e+2, 1.959995e+2, -1000588.4, -1105513.1, 19972.467, -0.00011327788, 0.0009486322, -996915.2, 22289.53, 0.0, 5.034818, 4.965532 
8.760951e+2, 2.0096387e+2, -953014.2, -1058525.1, 19835.494, -0.000025324462, -0.00166787, -949408.44, 21145.408, 0.0, 5.03459, 4.9649596 
8.760104e+2, 2.0592618e+2, -909606.6, -1020480.8, 19549.957, 0.00039283955, 0.0009581655, -906260.44, 15662.755, 0.0, 5.034328, 4.9613338 
8.759254e+2, 2.1088636e+2, -862146.94, -973402.3, 19224.05, -0.00007731131, -0.0016021375, -858918.8, 14394.727, 0.0, 5.0340137, 4.960809 
8.758392e+2, 2.1584451e+2, -818929.06, -935433.4, 18477.555, -0.00004599577, 0.0009627614, -816068.75, 8654.793, 0.0, 5.0336504, 4.9571624 
8.757524e+2, 2.2080055e+2, -771711.1, -888254.94, 18074.973, 0.00017303742, -0.0014347319, -768972.2, 7182.0923, 0.0, 5.033191, 4.9567165 
8.756642e+2, 2.2575468e+2, -728803.75, -850251.06, 16803.307, 0.00021114825, 0.0010131309, -726521.75, 1082.0817, 0.0, 5.0326457, 4.9531336 
8.7557507e+2, 2.3070669e+2, -682000.3, -803120.06, 16404.666, 0.0002289345, -0.0015622616, -679817.75, -743.6863, 0.0, 5.031995, 4.9527335 
8.7548435e+2, 2.3565698e+2, -639286.44, -764769.6, 14682.391, -0.0002746566, 0.0009133707, -637591.4, -7030.0215, 0.0, 5.0312467, 4.949332 
8.753926e+2, 2.4060526e+2, -593143.1, -717900.94, 14254.925, 0.0002815292, -0.0013110159, -591535.06, -9466.853, 0.0, 5.030336, 4.9489374 
8.752993e+2, 2.4555194e+2, -550697.2, -678920.4, 12269.343, 0.0005341331, 0.001315089, -549533.75, -15942.979, 0.0, 5.0293064, 4.9458513 
8.752044e+2, 2.5049666e+2, -505269.25, -632360.06, 11745.274, 0.000061809995, -0.001608298, -504192.9, -19060.348, 0.0, 5.0281186, 4.9454465 
8.7510824e+2, 2.554401e+2, -463170.0, -592857.56, 9718.1045, 0.00017607468, 0.001838784, -462445.8, -25758.658, 0.0, 5.0268083, 4.94262 
8.750105e+2, 2.6038167e+2, -418258.03, -545860.7, 9073.86, 0.00020871281, -0.0016027602, -417616.0, -29356.596, 0.0, 5.025277, 4.942496 
8.749116e+2, 2.6532206e+2, -376926.63, -506685.84, 7174.488, 0.00032462878, 0.001188165, -376531.13, -36687.36, 0.0, 5.023655, 4.939673 
8.748113e+2, 2.7026093e+2, -332293.2, -458916.66, 6393.029, 0.00023554114, -0.0020323133, -331971.22, -40528.395, 0.0, 5.021827, 4.9399204 
8.747099e+2, 2.7519888e+2, -291720.2, -420033.56, 4876.7573, -0.0005482741, 0.002553571, -291535.13, -48484.016, 0.0, 5.019879, 4.9370723 
8.7460756e+2, 2.8013557e+2, -247379.34, -371612.78, 4155.611, 0.0004476203, 0.00022220088, -247240.5, -52568.7, 0.0, 5.017766, 4.937648 
8.745044e+2, 2.850707e+2, -207369.14, -332787.6, 2922.5054, 0.00012172199, -0.000713886, -207301.08, -60993.523, 0.0, 5.0155435, 4.934858 
8.7440056e+2, 2.900049e+2, -163350.56, -283836.84, 2319.8713, -0.00031332707, -0.008011395, -163305.92, -65353.824, 0.0, 5.0131707, 4.9356966 
8.7429625e+2, 2.9494044e+2, -123363.24, -244588.75, 1630.3049, 0.0007787142, 0.013505207, -123341.32, -73757.06, 0.0, 5.0108514, 4.933038 
8.7419176e+2, 2.998741e+2, -80187.08, -197027.48, 1915.4829, 0.0022373074, 0.018675338, -80155.69, -78920.88, 0.0, 5.008357, 4.933402 
8.740879e+2, 3.0480772e+2, -46472.836, -137858.28, 416.65466, -0.0025671436, -0.035301547, -46470.938, -46470.938, 0.0, 5.0057273, 4.946917 
8.7398505e+2, 3.097543e+2, -53488.195, -139569.86, -1071.023, -0.0057993736, -0.04204626, -53474.87, -53474.87, 0.0, 5.00288, 4.9475183 
8.7388355e+2, 3.147332e+2, -23994.97, -62379.68, 714.4405, 0.009936915, 0.111464486, -23981.678, -23981.678, 0.0, 5.001293, 4.9763613 
8.737806e+2, 3.1969067e+2, -3112.0151, -263.29837, 1265.9081, 0.005290266, -0.076745234, 217.94554, 217.94554, 0.0, 4.9986477, 5.0003552 
8.8244146e+2, 1.2639214e+2, -1630178.8, -1703285.9, 2597.372, -0.0003130979, -0.0003449513, -1630086.6, 71270.34, 0.0, 5.0402746, 4.992146 
8.8234293e+2, 1.313829e+2, -1585974.5, -1658667.6, 4439.513, -0.00002615589, -0.0019354172, -1585704.4, 66742.79, 0.0, 5.039186, 4.991309 
8.822484e+2, 1.3637243e+2, -1543189.9, -1617774.3, 8228.606, -0.00004098165, 0.003520694, -1542292.8, 61257.082, 0.0, 5.038335, 4.9889812 
8.8215554e+2, 1.4135998e+2, -1497270.9, -1571590.6, 9290.399, -0.0004880009, -0.0029324938, -1496127.1, 58544.895, 0.0, 5.037655, 4.988446 
8.8206506e+2, 1.4634627e+2, -1454363.5, -1531774.4, 12026.855, 0.000084494925, -0.0009921587, -1452538.0, 53268.285, 0.0, 5.0370674, 4.9856663 
8.819757e+2, 1.5133122e+2, -1407695.1, -1485181.0, 12946.769, -0.00036854946, 0.000042299434, -1405589.1, 51364.547, 0.0, 5.0366106, 4.9851527 
8.8188833e+2, 1.5631399e+2, -1364412.0, -1445770.5, 15247.507, 0.00009744246, 0.0011081641, -1361648.4, 46474.367, 0.0, 5.0362296, 4.9821568 
8.8180184e+2, 1.6129498e+2, -1317373.6, -1399241.1, 15874.89, -0.00027587826, -0.0019231553, -1314403.1, 44905.832, 0.0, 5.0359364, 4.981526 
8.817165e+2, 1.6627404e+2, -1273931.4, -1360292.0, 17621.766, -0.00020868237, 0.00045728555, -1270474.1, 40040.0, 0.0, 5.0356855, 4.9782834 
8.8163185e+2, 1.712513e+2, -1226522.5, -1313558.9, 18013.111, -0.00020544777, -0.0010888389, -1222941.8, 38795.23, 0.0, 5.035495, 4.9776545 
8.8154787e+2, 1.7622633e+2, -1183018.9, -1275022.0, 19245.527, 0.0002984796, 0.00065497746, -1179155.4, 33826.35, 0.0, 5.035319, 4.97421 
8.814641e+2, 1.8119946e+2, -1135367.1, -1228147.5, 19482.248, -0.0002837195, -0.0013627759, -1131442.3, 32802.844, 0.0, 5.035185, 4.973589 
8.8138056e+2, 1.8617037e+2, -1091796.3, -1189955.3, 20107.893, -0.00021799454, 0.00073082314, -1087836.9, 27693.229, 0.0, 5.0350437, 4.9700108 
8.8129705e+2, 1.9113925e+2, -1044121.06, -1143045.8, 20190.9, 0.0001671641, -0.0014067747, -1040158.7, 26676.365, 0.0, 5.034891, 4.969394 
8.8121307e+2, 1.9610596e+2, -1000565.9, -1105008.1, 20286.861, -0.00022267687, 0.0010608167, -996763.75, 21397.627, 0.0, 5.0347342, 4.965742 
8.81129e+2, 2.0107052e+2, -952932.8, -1058053.0, 20117.402, -0.00007320353, -0.0015538348, -949214.4, 20294.342, 0.0, 5.034538, 4.9651437 
8.810441e+2, 2.0603295e+2, -909541.25, -1020209.06, 19775.96, 0.00040725598, 0.0011033491, -906113.5, 14763.358, 0.0, 5.03431, 4.961432 
8.8095874e+2, 2.109932e+2, -862020.4, -973122.8, 19437.23, -0.000070844304, -0.0014606171, -858718.0, 13548.397, 0.0, 5.034021, 4.9608994 
8.808721e+2, 2.1595134e+2, -818878.4, -935456.5, 18604.137, -0.00022623585, 0.0007625176, -815981.44, 7695.1143, 0.0, 5.033683, 4.957139 
8.8078487e+2, 2.2090736e+2, -771630.06, -888302.4, 18181.75, 0.00012714304, -0.0014713511, -768862.4, 6245.276, 0.0, 5.0332427, 4.9566755 
8.8069606e+2, 2.2586142e+2, -728782.7, -850543.1, 16796.324, 0.00032396388, 0.001290033, -726508.2, 49.70411, 0.0, 5.0327187, 4.952995 
8.806063e+2, 2.3081328e+2, -681971.25, -803434.1, 16377.099, 0.00004297287, -0.0014706695, -679801.8, -1772.1462, 0.0, 5.032075, 4.9525857 
8.8051474e+2, 2.3576334e+2, -639301.25, -765312.06, 14477.566, -0.00050294586, 0.00075986166, -637659.3, -8140.1533, 0.0, 5.031346, 4.9491024 
8.804221e+2, 2.4071136e+2, -593184.2, -718517.9, 13994.272, -0.0000148437575, -0.0014962825, -591640.7, -10612.234, 0.0, 5.030436, 4.948681 
8.8032776e+2, 2.4565779e+2, -550734.06, -679666.3, 11830.331, 0.00088464987, 0.0016619448, -549657.56, -17104.096, 0.0, 5.0294285, 4.945539 
8.802317e+2, 2.5060216e+2, -505244.97, -633020.94, 11265.691, -0.00013969009, -0.0018105605, -504259.3, -20160.553, 0.0, 5.028251, 4.9451585 
8.8013405e+2, 2.5554517e+2, -463248.1, -593843.3, 8995.809, -0.0006369236, 0.0013719951, -462631.34, -26974.256, 0.0, 5.026951, 4.9422264 
8.8003486e+2, 2.6048645e+2, -418360.56, -546895.0, 8290.652, 0.00012522849, -0.0015563857, -417828.0, -30595.277, 0.0, 5.025418, 4.9420857 
8.799343e+2, 2.6542646e+2, -376993.34, -507674.44, 6179.0986, 0.0007311593, 0.0017477206, -376701.8, -37880.918, 0.0, 5.0237975, 4.939276 
8.798321e+2, 2.703649e+2, -332412.53, -460015.34, 5349.0317, -0.0000010521139, -0.0015278779, -332188.7, -41764.438, 0.0, 5.0219646, 4.9394884 
8.797287e+2, 2.7530232e+2, -291743.72, -420961.6, 3612.8079, -0.000964916, 0.0017592037, -291642.78, -49605.3, 0.0, 5.020023, 4.936696 
8.7962425e+2, 2.8023854e+2, -247553.86, -372798.9, 2859.1838, 0.00046487304, -0.0007934055, -247488.61, -53826.04, 0.0, 5.0178905, 4.9371886 
8.7951887e+2, 2.851735e+2, -207560.58, -334043.47, 1475.4132, -0.000010363822, 0.0017605935, -207543.38, -62243.063, 0.0, 5.0156646, 4.9343762 
8.794126e+2, 2.901075e+2, -163305.02, -284441.66, 904.75934, -0.0009483472, -0.0042786067, -163298.27, -66350.63, 0.0, 5.0132713, 4.935455 
8.7930596e+2, 2.950419e+2, -122993.48, -244607.8, 7.592531, 0.00014051107, 0.006994129, -122993.48, -74404.74, 0.0, 5.0109806, 4.9329987 
8.79199e+2, 2.9997462e+2, -81088.04, -200012.1, 96.5454, 0.0017053784, 0.005506768, -81087.96, -80840.57, 0.0, 5.008485, 4.932305 
8.7909263e+2, 3.049099e+2, -48722.555, -143719.02, -747.1148, -0.0013446221, -0.014233978, -48716.68, -48716.68, 0.0, 5.005798, 4.9448037 
8.789872e+2, 3.0985764e+2, -52699.34, -137786.73, -1744.0305, -0.003159207, 0.0065276963, -52663.61, -52663.61, 0.0, 5.002852, 4.9481974 
8.7888175e+2, 3.1482637e+2, -17420.31, -47502.24, -499.75607, -0.0029101432, 0.0022534295, -17412.01, -17412.01, 0.0, 5.00134, 4.9818115 
8.787786e+2, 3.198041e+2, -17902.074, -35146.37, 2025.0266, 0.005766802, 0.012243872, -17667.465, -17667.465, 0.0, 4.9986815, 4.9874086 
8.8747984e+2, 1.2649311e+2, -1633985.9, -1703252.6, 2903.907, -0.00031848392, -0.00018613992, -1633864.3, 66502.88, 0.0, 5.0386086, 4.99296 
8.8738036e+2, 1.3148464e+2, -1589206.4, -1658285.3, 4927.279, 0.00039898377, -0.0020129206, -1588856.8, 62593.66, 0.0, 5.037696, 4.992153 
8.872851e+2, 1.3647498e+2, -1546026.5, -1617348.0, 8987.773, -0.00043007976, 0.0037970992, -1544911.4, 57633.67, 0.0, 5.037005, 4.9897633 
8.871917e+2, 1.414633e+2, -1499593.9, -1570965.3, 10143.773, -0.0001389161, -0.002428745, -1498180.1, 55479.375, 0.0, 5.036511, 4.9892015 
8.871008e+2, 1.4645019e+2, -1456306.8, -1531165.1, 13076.457, 0.0006550701, -0.00083675084, -1454088.3, 50699.53, 0.0, 5.0360985, 4.986329 
8.8701105e+2, 1.5143576e+2, -1409121.8, -1484320.0, 14107.809, -0.00055412605, 0.00007856647, -1406562.1, 49367.1, 0.0, 5.035817, 4.9858146 
8.869234e+2, 1.5641913e+2, -1365436.3, -1444829.3, 16577.32, -0.000028409233, 0.0012890265, -1362114.0, 44978.355, 0.0, 5.035603, 4.9827614 
8.868367e+2, 1.6140069e+2, -1317928.0, -1398084.6, 17305.527, -0.0000031061506, -0.0016102608, -1314351.4, 43921.58, 0.0, 5.035476, 4.982121 
8.867513e+2, 1.6638027e+2, -1274134.9, -1359095.5, 19209.309, -0.000005625434, 0.00059628236, -1269993.5, 39479.605, 0.0, 5.035381, 4.9788127 
8.866665e+2, 1.71358e+2, -1226299.8, -1312172.4, 19698.514, -0.00015303977, -0.0009588259, -1221996.8, 38694.67, 0.0, 5.0353413, 4.978175 
8.865824e+2, 1.7633349e+2, -1182463.9, -1273602.0, 21068.807, 0.0003064189, 0.00072760246, -1177829.0, 34102.656, 0.0, 5.0353065, 4.974674 
8.8649863e+2, 1.8130702e+2, -1134444.6, -1226592.0, 21415.002, -0.0002119096, -0.0012466442, -1129711.0, 33479.973, 0.0, 5.0353093, 4.9740367 
8.8641506e+2, 1.8627828e+2, -1090569.8, -1188397.3, 22142.9, -0.000045796925, 0.0007107804, -1085791.3, 28681.324, 0.0, 5.0353045, 4.9703984 
8.863315e+2, 1.9124748e+2, -1042516.9, -1141320.0, 22327.465, 0.00025941976, -0.001664855, -1037705.6, 28068.81, 0.0, 5.0352917, 4.969777 
8.862474e+2, 1.9621447e+2, -998681.56, -1103300.0, 22531.398, -0.00020123589, 0.00082504086, -994035.4, 23062.594, 0.0, 5.0352707, 4.9660635 
8.8616323e+2, 2.0117928e+2, -950677.3, -1056180.6, 22477.209, 0.000092892595, -0.001592375, -946088.25, 22354.584, 0.0, 5.035211, 4.965459 
8.8607806e+2, 2.0614189e+2, -907022.75, -1018412.2, 22204.717, 0.00035515663, 0.00094001996, -902759.56, 17049.643, 0.0, 5.0351305, 4.961647 
8.8599247e+2, 2.1110229e+2, -859099.56, -971145.56, 21932.043, -0.00015766668, -0.0014368633, -854959.56, 16237.709, 0.0, 5.0349917, 4.9611063 
8.8590556e+2, 2.1606053e+2, -815725.8, -933561.94, 21120.346, 0.00003049114, 0.0008294141, -812054.7, 10551.824, 0.0, 5.0347824, 4.9572535 
8.85818e+2, 2.2101656e+2, -768049.94, -886244.4, 20749.215, 0.00015066165, -0.0016615253, -764513.2, 9524.321, 0.0, 5.0345063, 4.9567733 
8.857287e+2, 2.2597058e+2, -724939.06, -848591.7, 19344.463, 0.00024492943, 0.0010888437, -721983.44, 3504.578, 0.0, 5.0341215, 4.952995 
8.856384e+2, 2.309224e+2, -677807.6, -801383.5, 18984.559, 0.00037659542, -0.0014178904, -674956.8, 2003.5605, 0.0, 5.0336027, 4.952569 
8.855462e+2, 2.358723e+2, -634973.6, -763403.94, 16998.193, -0.0000019563636, 0.00080946117, -632761.94, -4310.622, 0.0, 5.032974, 4.9489965 
8.8545257e+2, 2.408201e+2, -588595.4, -716561.6, 16577.484, 0.000020123087, -0.0017233364, -586482.75, -6519.802, 0.0, 5.0321703, 4.9485493 
8.853572e+2, 2.4576627e+2, -546005.06, -677838.4, 14303.824, 0.0006347379, 0.0014549118, -544470.94, -12980.462, 0.0, 5.0312467, 4.945329 
8.852599e+2, 2.5071034e+2, -500435.66, -631168.1, 13736.731, 0.00003169153, -0.0019622887, -499007.88, -15969.352, 0.0, 5.0301003, 4.9449496 
8.85161e+2, 2.5565302e+2, -458392.78, -592168.4, 11307.203, -0.00057585485, 0.0011836917, -457443.78, -22843.428, 0.0, 5.0288515, 4.9419436 
8.8506025e+2, 2.6059392e+2, -413410.4, -545215.5, 10611.6, 0.00008533181, -0.0014565149, -412561.53, -26381.959, 0.0, 5.0273666, 4.941785 
8.849581e+2, 2.6553348e+2, -372149.84, -506098.56, 8370.993, 0.00068394316, 0.0014331, -371628.72, -33856.68, 0.0, 5.0257177, 4.9389477 
8.8485396e+2, 2.7047148e+2, -327758.53, -458537.44, 7510.7246, 0.00035846184, -0.0017697808, -327328.63, -37949.258, 0.0, 5.0238185, 4.939162 
8.847486e+2, 2.7540854e+2, -287306.38, -419669.22, 5596.0645, -0.0007984047, 0.0019547744, -287070.22, -46073.633, 0.0, 5.0218086, 4.9363494 
8.846419e+2, 2.8034425e+2, -243303.31, -371437.4, 4816.7896, 0.00061542273, -0.0016324399, -243122.48, -50495.73, 0.0, 5.019582, 4.936908 
8.8453424e+2, 2.8527886e+2, -203757.34, -332805.63, 3393.3176, 0.0008674196, 0.0011672782, -203668.19, -59400.797, 0.0, 5.0171847, 4.9341316 
8.844255e+2, 2.902126e+2, -160092.33, -283653.4, 2821.3857, 0.000069939546, -0.0036939436, -160027.94, -64111.0, 0.0, 5.014607, 4.935138 
8.843162e+2, 2.9514638e+2, -120237.86, -244086.5, 1725.556, -0.0014218957, 0.0056858025, -120213.82, -72648.04, 0.0, 5.0121574, 4.932664 
8.842066e+2, 3.000786e+2, -78167.38, -198335.13, 1564.2998, -0.0011462192, 0.0026016077, -78147.02, -78147.02, 0.0, 5.009508, 4.93245 
8.840982e+2, 3.05015e+2, -46069.625, -141234.88, 2065.5505, 0.0039692726, -0.008193091, -46024.813, -46024.813, 0.0, 5.006547, 4.945362 
8.839901e+2, 3.0996317e+2, -51680.543, -137616.8, 2656.6252, 0.0056303497, 0.013922816, -51598.496, -51598.496, 0.0, 5.003316, 4.948041 
8.8388014e+2, 3.1492633e+2, -18408.756, -52805.758, -2421.4111, -0.01738594, -0.013479543, -18239.135, -18239.135, 0.0, 5.001961, 4.9795914 
8.837766e+2, 3.19906e+2, -13083.388, -24205.805, -1596.1587, 0.008317123, 0.013858387, -12858.858, -12858.858, 0.0, 4.9988036, 4.9913864 
8.925173e+2, 1.2659495e+2, -1634182.5, -1701403.6, 2720.5645, 0.000045936664, -0.0001920515, -1634072.5, 65296.734, 0.0, 5.0381093, 4.9938245 
8.9241695e+2, 1.3158731e+2, -1589211.8, -1656429.1, 4903.952, 0.00014663862, -0.0020930103, -1588855.9, 61588.383, 0.0, 5.0372796, 4.99298 
8.9232105e+2, 1.3657841e+2, -1546121.5, -1615646.5, 9153.824, -0.0012231949, 0.003620409, -1544936.5, 56594.85, 0.0, 5.0365906, 4.990534 
8.922273e+2, 1.4156747e+2, -1499650.5, -1569280.9, 10332.199, 0.0001827451, -0.0025991474, -1498149.6, 54488.88, 0.0, 5.036117, 4.989959 
8.9213604e+2, 1.4655508e+2, -1456402.5, -1529664.4, 13390.172, 0.000979436, -0.0010512995, -1454031.9, 49728.03, 0.0, 5.0357366, 4.9870067 
8.92046e+2, 1.5154131e+2, -1409180.4, -1482816.4, 14456.282, -0.0010310063, -0.000085176056, -1406444.0, 48450.918, 0.0, 5.0354724, 4.9864864 
8.919582e+2, 1.565253e+2, -1365555.0, -1443462.1, 17004.035, -0.00033298894, 0.0010889135, -1362005.4, 44046.504, 0.0, 5.0352664, 4.983381 
8.9187145e+2, 1.6150746e+2, -1318024.8, -1396736.4, 17741.592, 0.00015731763, -0.0017740491, -1314210.6, 43016.12, 0.0, 5.035154, 4.982728 
8.9178586e+2, 1.6648757e+2, -1274270.6, -1357901.5, 19690.035, -0.000014381293, 0.00037156985, -1269866.8, 38554.76, 0.0, 5.0350785, 4.979356 
8.917011e+2, 1.7146584e+2, -1226382.0, -1310972.6, 20168.482, -0.00034259903, -0.0010438106, -1221819.4, 37815.06, 0.0, 5.0350614, 4.9787107 
8.91617e+2, 1.7644182e+2, -1182544.0, -1272507.9, 21554.418, 0.00013021866, 0.00062773295, -1177646.4, 33223.508, 0.0, 5.0350513, 4.9751616 
8.9153326e+2, 1.8141583e+2, -1134458.4, -1225497.5, 21893.781, -0.0002238854, -0.0012893213, -1129466.9, 32657.645, 0.0, 5.0350842, 4.97451 
8.9144963e+2, 1.8638755e+2, -1090569.9, -1187409.5, 22593.959, -0.00004132559, 0.0008068665, -1085557.8, 27843.994, 0.0, 5.0351133, 4.970819 
8.91366e+2, 1.9135717e+2, -1042439.6, -1140339.8, 22761.205, 0.00010892006, -0.0012750383, -1037406.5, 27293.031, 0.0, 5.035135, 4.9701805 
8.9128196e+2, 1.963245e+2, -998567.7, -1102477.5, 22924.611, -0.00038652413, 0.0010586679, -993734.8, 22284.938, 0.0, 5.035159, 4.9663935 
8.9119774e+2, 2.0128961e+2, -950465.9, -1055320.6, 22841.01, 0.00013573162, -0.0014168856, -945706.3, 21655.219, 0.0, 5.035137, 4.965785 
8.911125e+2, 2.0625246e+2, -906873.75, -1017837.06, 22517.846, 0.00025941452, 0.0008098146, -902478.25, 16247.445, 0.0, 5.0350876, 4.9618616 
8.9102674e+2, 2.1121305e+2, -858919.9, -970607.56, 22222.62, -0.00034940333, -0.0015101315, -854660.6, 15451.188, 0.0, 5.034972, 4.961297 
8.909397e+2, 2.1617147e+2, -815613.06, -933247.2, 21368.154, 0.00044863316, 0.0012109112, -811851.8, 9667.53, 0.0, 5.034781, 4.957356 
8.9085174e+2, 2.2112755e+2, -767940.9, -886008.7, 20974.283, 0.0000037271143, -0.0015911618, -764325.6, 8624.154, 0.0, 5.0345173, 4.9568443 
8.90762e+2, 2.2608157e+2, -724835.94, -848578.94, 19444.477, -0.00034187944, 0.00086765795, -721852.44, 2548.0256, 0.0, 5.034168, 4.952977 
8.906712e+2, 2.3103335e+2, -677710.25, -801442.2, 19062.736, 0.00016527028, -0.0013915108, -674839.94, 1033.0513, 0.0, 5.033662, 4.952521 
8.905784e+2, 2.3598318e+2, -634870.4, -763646.56, 16879.494, 0.00024323119, 0.0011946756, -632694.6, -5329.9634, 0.0, 5.0330715, 4.948867 
8.90484e+2, 2.4093081e+2, -588424.2, -716836.44, 16427.746, -0.00013103918, -0.0015627166, -586355.94, -7478.1094, 0.0, 5.032305, 4.948393 
8.903875e+2, 2.4587676e+2, -545886.56, -678396.25, 13902.456, -0.00013141995, 0.0014127971, -544443.7, -14035.927, 0.0, 5.0314054, 4.945069 
8.902892e+2, 2.5082058e+2, -500351.22, -631777.1, 13282.568, 0.000010796777, -0.0017703507, -499022.25, -17064.088, 0.0, 5.0302534, 4.9446745 
8.90189e+2, 2.5576296e+2, -458337.34, -592910.5, 10613.067, -0.000033854343, 0.0016793049, -457505.5, -23982.49, 0.0, 5.0290093, 4.941626 
8.9008665e+2, 2.6070347e+2, -413369.2, -545998.6, 9842.484, -0.000041957166, -0.0012957803, -412642.75, -27536.709, 0.0, 5.0275245, 4.9414525 
8.8998264e+2, 2.6564258e+2, -372156.1, -507074.84, 7341.2324, 0.000102912854, 0.0010401072, -371757.8, -35055.207, 0.0, 5.025886, 4.938536 
8.898767e+2, 2.7058026e+2, -327757.1, -459489.84, 6439.0513, 0.0002063518, -0.001786535, -327443.1, -39129.773, 0.0, 5.023982, 4.938761 
8.897692e+2, 2.7551702e+2, -287361.8, -420768.2, 4300.277, -0.0009485677, 0.0035111804, -287223.34, -47289.88, 0.0, 5.0219626, 4.9359126 
8.896603e+2, 2.8045225e+2, -243317.88, -372325.56, 3429.1375, -0.0004000028, -0.0013074313, -243226.8, -51658.246, 0.0, 5.0197115, 4.936558 
8.8955027e+2, 2.8538644e+2, -203567.88, -333541.75, 1733.0531, 0.0011642975, 0.0005445619, -203544.78, -60332.03, 0.0, 5.017374, 4.9338145 
8.8943905e+2, 2.9031995e+2, -160071.0, -284766.0, 1107.5723, 0.0010601025, -0.0027777788, -160061.17, -65196.89, 0.0, 5.014792, 4.9346895 
8.89327e+2, 2.952532e+2, -120730.84, -245554.06, 129.33861, -0.003415406, 0.006301144, -120730.71, -74210.2, 0.0, 5.012175, 4.9321604 
8.892145e+2, 3.00185e+2, -78056.67, -197744.03, -275.8606, -0.004876718, 0.0021665304, -78056.03, -78056.03, 0.0, 5.0094004, 4.9327345 
8.89104e+2, 3.0512217e+2, -44234.285, -138033.11, -522.00226, 0.009014384, -0.01092482, -44231.38, -44231.38, 0.0, 5.006712, 4.946472 
8.8899314e+2, 3.100709e+2, -53797.465, -144391.92, -179.33675, 0.013674383, 0.015256847, -53797.11, -53797.11, 0.0, 5.003623, 4.945499 
8.888785e+2, 3.1503034e+2, -24201.844, -66460.555, -1766.3584, -0.034037415, -0.017679794, -24128.14, -24128.14, 0.0, 5.001931, 4.974621 
8.887752e+2, 3.2000768e+2, 422.59793, 9374.825, 196.89082, 0.0132594425, 0.0014433723, 9379.153, 9379.153, 0.0, 4.998334, 5.0040226 
8.975534e+2, 1.266979e+2, -1638470.1, -1701175.3, 2915.0315, 0.0010590303, 0.00028970567, -1638334.9, 60025.76, 0.0, 5.03619, 4.994828 
8.9745224e+2, 1.316912e+2, -1592992.0, -1656140.0, 5170.9785, -0.0005483456, -0.0014862417, -1592571.4, 56854.504, 0.0, 5.0355654, 4.9939036 
8.9735585e+2, 1.3668306e+2, -1549523.6, -1615443.6, 9689.433, -0.0015105918, 0.0034992062, -1548128.9, 52376.895, 0.0, 5.035055, 4.991346 
8.9726186e+2, 1.4167288e+2, -1502423.5, -1568751.1, 10970.823, 0.0009286248, -0.0028230231, -1500656.0, 50949.555, 0.0, 5.0347896, 4.990776 
8.9717036e+2, 1.466613e+2, -1458700.8, -1529046.1, 14185.078, 0.0013885925, -0.00071982003, -1455948.0, 46771.01, 0.0, 5.034604, 4.987756 
8.9708e+2, 1.5164825e+2, -1410962.6, -1481979.0, 15338.865, -0.0013134866, 0.00047582565, -1407791.3, 46055.676, 0.0, 5.0345216, 4.987221 
8.9699227e+2, 1.5663287e+2, -1366913.8, -1442516.3, 18064.537, -0.0004115339, 0.0012563181, -1362819.1, 42178.51, 0.0, 5.0344844, 4.9840655 
8.9690554e+2, 1.6161565e+2, -1318860.3, -1395542.5, 18901.396, 0.00051824533, -0.0017679211, -1314454.5, 41711.82, 0.0, 5.0345516, 4.983409 
8.9682e+2, 1.6659643e+2, -1274732.6, -1356657.9, 21014.768, 0.00018708898, 0.00048676942, -1269656.6, 37698.23, 0.0, 5.034633, 4.979977 
8.9673525e+2, 1.715753e+2, -1226423.8, -1309516.4, 21617.637, -0.00036831034, -0.00072493346, -1221136.1, 37425.953, 0.0, 5.0347605, 4.979334 
8.9665127e+2, 1.765518e+2, -1182245.8, -1271003.3, 23177.99, 0.00017485017, 0.000725873, -1176557.6, 33234.516, 0.0, 5.034888, 4.975737 
8.9656764e+2, 1.8152633e+2, -1133791.6, -1223824.8, 23654.14, 0.00001656007, -0.001301233, -1127955.4, 33086.336, 0.0, 5.035054, 4.9750805 
8.9648414e+2, 1.8649855e+2, -1089579.5, -1185644.9, 24501.348, 0.00008752377, 0.0007035215, -1083691.4, 28622.67, 0.0, 5.035225, 4.9713545 
8.9640063e+2, 1.9146866e+2, -1041043.1, -1138398.8, 24820.992, 0.00016757411, -0.0011297081, -1035080.2, 28526.688, 0.0, 5.0353923, 4.9707117 
8.9631665e+2, 1.9643639e+2, -996916.3, -1100613.5, 25130.04, -0.00023519984, 0.0009768924, -991147.25, 23775.924, 0.0, 5.0355544, 4.966833 
8.962324e+2, 2.0140189e+2, -948400.9, -1053228.5, 25153.953, 0.00009646234, -0.0014391545, -942677.56, 23583.703, 0.0, 5.035684, 4.96623 
8.961472e+2, 2.063651e+2, -904510.3, -1015722.2, 24950.072, 0.0004729003, 0.0008999581, -899169.3, 18452.568, 0.0, 5.035781, 4.9622407 
8.960615e+2, 2.1132599e+2, -856054.4, -968288.75, 24750.408, -0.0002445202, -0.0014593435, -850838.7, 18166.44, 0.0, 5.0358567, 4.961659 
8.9597416e+2, 2.1628465e+2, -812375.25, -930950.94, 23932.408, 0.00026210325, 0.0012998945, -807727.1, 12683.097, 0.0, 5.0358415, 4.9576273 
8.958861e+2, 2.2124095e+2, -764301.5, -883566.0, 23636.297, 0.000055299795, -0.0012559918, -759788.0, 12050.528, 0.0, 5.0357304, 4.9571013 
8.9579606e+2, 2.2619504e+2, -720884.75, -846242.8, 22107.441, -0.00020714106, 0.0009341389, -717100.25, 6188.142, 0.0, 5.035539, 4.953128 
8.957048e+2, 2.3114687e+2, -673398.06, -798974.56, 21811.682, 0.000028217828, -0.0014763079, -669717.4, 5043.1694, 0.0, 5.0351796, 4.9526515 
8.956114e+2, 2.360967e+2, -630350.0, -761319.1, 19597.217, 0.00017831712, 0.0012435123, -627480.5, -1228.1885, 0.0, 5.034714, 4.9488945 
8.955163e+2, 2.4104427e+2, -583635.5, -714450.9, 19246.715, 0.0001210137, -0.0014145308, -580862.5, -3096.4907, 0.0, 5.03406, 4.948397 
8.954189e+2, 2.4599001e+2, -540884.1, -676167.7, 16579.275, -0.000018981356, 0.001298936, -538881.94, -9584.126, 0.0, 5.0332875, 4.944968 
8.953195e+2, 2.5093368e+2, -495098.0, -629496.44, 16066.435, 0.00034399852, -0.0013278422, -493204.06, -12354.064, 0.0, 5.032243, 4.9445496 
8.95218e+2, 2.5587574e+2, -453060.25, -590798.1, 13263.588, 0.00020486646, 0.0017882235, -451794.66, -19376.836, 0.0, 5.031033, 4.9414268 
8.951142e+2, 2.6081592e+2, -408015.66, -543808.6, 12496.524, 0.000018859166, -0.0014397356, -406875.22, -22871.3, 0.0, 5.029566, 4.9412804 
8.950085e+2, 2.6575473e+2, -366899.2, -505218.3, 9811.421, -0.00010297421, 0.00089971535, -366206.7, -30602.914, 0.0, 5.027951, 4.9382415 
8.949006e+2, 2.7069202e+2, -322557.66, -457652.88, 8894.184, 0.00007825085, -0.0021538064, -321974.6, -34756.266, 0.0, 5.026028, 4.938471 
8.9479107e+2, 2.7562836e+2, -282511.88, -419121.8, 6595.1147, -0.00038619988, 0.0033031448, -282194.22, -43352.004, 0.0, 5.023877, 4.9356265 
8.946797e+2, 2.805632e+2, -238866.48, -370884.28, 5702.3594, -0.000045129942, -0.0011886455, -238620.64, -48139.69, 0.0, 5.021488, 4.936267 
8.945672e+2, 2.854969e+2, -199339.16, -332295.1, 3866.4822, -0.00027094677, -0.0002554778, -199226.81, -57096.383, 0.0, 5.0190873, 4.9334946 
8.944533e+2, 2.9043e+2, -156103.92, -283355.94, 3046.814, -0.000048751328, -0.003060379, -156031.02, -62245.152, 0.0, 5.0163584, 4.934492 
8.943387e+2, 2.9536313e+2, -117882.875, -244366.45, 2058.601, 0.00051943946, 0.00771933, -117849.38, -72407.03, 0.0, 5.013279, 4.932082 
8.942236e+2, 3.0029464e+2, -76715.61, -197862.38, 1887.128, 0.00095546397, 0.0027606895, -76686.22, -76686.22, 0.0, 5.0100803, 4.9323754 
8.9410883e+2, 3.0523062e+2, -42591.277, -138875.97, 385.61566, -0.0014704148, -0.013235273, -42589.73, -42589.73, 0.0, 5.0076857, 4.945726 
8.939946e+2, 3.1017867e+2, -49349.8, -140279.48, -6.278099, -0.0040544076, 0.009740759, -49349.8, -49349.8, 0.0, 5.0048785, 4.946426 
8.9388275e+2, 3.1514052e+2, -22216.398, -62639.09, 877.1569, 0.0075684474, 0.002967317, -22197.373, -22197.373, 0.0, 5.002144, 4.9759007 
8.937705e+2, 3.2011673e+2, -6588.2773, 2593.2808, 645.73083, 0.0042138766, -0.0025027273, 2638.472, 2638.472, 0.0, 4.996521, 5.00227 
9.025883e+2, 1.2680142e+2, -1638633.5, -1699156.1, 2946.4956, -0.000069575464, -0.00023378663, -1638490.4, 58855.777, 0.0, 5.03567, 4.9957595 
9.024867e+2, 1.3179569e+2, -1593205.1, -1654190.8, 5254.821, 0.00056598627, -0.001601427, -1592755.6, 55646.383, 0.0, 5.0350394, 4.994816 
9.023898e+2, 1.3678835e+2, -1549599.8, -1613582.6, 10033.417, -0.0019223985, 0.0031595228, -1548063.3, 51410.617, 0.0, 5.0346184, 4.992184 
9.0229565e+2, 1.41779e+2, -1502380.1, -1566877.3, 11364.775, 0.0006980953, -0.0029857703, -1500436.1, 50129.457, 0.0, 5.034404, 4.991595 
9.022041e+2, 1.4676818e+2, -1458754.5, -1527331.4, 14639.235, 0.0014255731, -0.00088028924, -1455760.3, 45911.363, 0.0, 5.0342193, 4.988518 
9.021137e+2, 1.5175587e+2, -1411038.8, -1480296.4, 15804.953, -0.0014328758, 0.0003771977, -1407602.5, 45189.746, 0.0, 5.0341325, 4.987976 
9.020259e+2, 1.567412e+2, -1367006.1, -1440926.1, 18625.348, -0.00064039876, 0.0010555149, -1362578.4, 41357.746, 0.0, 5.034111, 4.9847794 
9.019393e+2, 1.6172469e+2, -1318918.5, -1393948.3, 19462.871, 0.00047631745, -0.0019569958, -1314170.3, 40927.625, 0.0, 5.034194, 4.984117 
9.0185386e+2, 1.6670612e+2, -1274826.5, -1355169.9, 21601.488, 0.00017975143, 0.00032856612, -1269386.9, 36893.004, 0.0, 5.034288, 4.98064 
9.017693e+2, 1.7168562e+2, -1226452.9, -1307994.5, 22202.201, -0.0005106639, -0.00076891977, -1220799.6, 36681.06, 0.0, 5.0344367, 4.98 
9.016854e+2, 1.7666279e+2, -1182232.9, -1269527.1, 23755.033, -0.000009613569, 0.00062718085, -1176187.1, 32517.39, 0.0, 5.0345955, 4.9763727 
9.0160197e+2, 1.8163796e+2, -1133705.4, -1222332.6, 24187.543, -0.00008348668, -0.0012141216, -1127534.0, 32413.861, 0.0, 5.0347905, 4.97571 
9.0151864e+2, 1.8661074e+2, -1089449.5, -1184254.8, 25004.096, -0.0000752816, 0.0006657501, -1083259.1, 27955.414, 0.0, 5.035002, 4.9719286 
9.014353e+2, 1.915814e+2, -1040793.25, -1136968.3, 25297.277, 0.00005972456, -0.0012399852, -1034545.1, 27956.975, 0.0, 5.0352173, 4.971278 
9.013515e+2, 1.9654965e+2, -996658.2, -1099309.6, 25565.139, -0.00017908694, 0.0008026309, -990643.6, 23169.662, 0.0, 5.035421, 4.967333 
9.012674e+2, 2.0151564e+2, -948079.3, -1051978.8, 25566.814, -0.00010384906, -0.0014408282, -942128.8, 23017.736, 0.0, 5.035588, 4.9666977 
9.011823e+2, 2.0647928e+2, -904218.9, -1014647.1, 25385.074, 0.000595581, 0.0011019144, -898662.94, 17839.889, 0.0, 5.0357027, 4.962641 
9.0109664e+2, 2.1144053e+2, -855767.3, -967279.5, 25176.625, -0.00024998328, -0.0015652062, -850346.6, 17535.92, 0.0, 5.035789, 4.9620337 
9.0100926e+2, 2.1639948e+2, -812138.75, -930202.0, 24270.39, -0.00025176306, 0.0008319622, -807344.2, 11940.831, 0.0, 5.035802, 4.9579053 
9.0092117e+2, 2.2135603e+2, -764044.9, -882833.5, 23977.357, 0.00017486801, -0.0014248599, -759387.7, 11322.948, 0.0, 5.0357075, 4.957365 
9.0083086e+2, 2.2631034e+2, -720718.4, -845765.2, 22310.893, 0.0003113988, 0.0009362589, -716856.9, 5301.593, 0.0, 5.035532, 4.9532948 
9.007392e+2, 2.312623e+2, -673184.75, -798575.1, 21996.098, -0.00010111442, -0.0013312269, -669438.1, 4191.1646, 0.0, 5.035206, 4.9527783 
9.006452e+2, 2.3621216e+2, -630116.7, -761162.56, 19599.54, -0.00027115652, 0.0012388927, -627248.1, -2127.491, 0.0, 5.0347905, 4.948916 
9.005495e+2, 2.4115974e+2, -583465.4, -714416.8, 19252.691, 0.000020483472, -0.0014817589, -580693.5, -4059.155, 0.0, 5.0341315, 4.94838 
9.004513e+2, 2.4610539e+2, -540658.7, -676299.94, 16286.925, -0.00007887349, 0.0012719468, -538730.44, -10563.404, 0.0, 5.033409, 4.944878 
9.003508e+2, 2.510489e+2, -494852.47, -629751.06, 15708.289, -0.00009226853, -0.0013941439, -493047.47, -13326.701, 0.0, 5.0323954, 4.9444027 
9.00248e+2, 2.559907e+2, -452849.03, -591354.06, 12601.964, -0.00017626479, 0.0014668026, -451711.75, -20420.813, 0.0, 5.0312214, 4.9411526 
9.001427e+2, 2.609307e+2, -407790.44, -544324.44, 11755.731, -0.0002609035, -0.0016214967, -406785.63, -23906.367, 0.0, 5.029752, 4.9410224 
9.000353e+2, 2.6586926e+2, -366783.25, -506015.2, 8762.604, 0.000020426547, 0.0017661004, -366233.94, -31752.596, 0.0, 5.028134, 4.9378996 
8.999255e+2, 2.7080616e+2, -322449.4, -458513.28, 7747.1953, -0.0002953442, -0.0019726574, -322009.72, -35909.855, 0.0, 5.0262175, 4.938104 
8.998138e+2, 2.7574202e+2, -282269.63, -419865.16, 5124.047, -0.000014072926, 0.0027621507, -282079.06, -44351.055, 0.0, 5.0241003, 4.935289 
8.9970005e+2, 2.806766e+2, -238711.38, -371819.5, 4192.44, 0.0005856125, -0.0005482903, -238579.47, -49209.98, 0.0, 5.021706, 4.9358644 
8.995848e+2, 2.856098e+2, -199357.73, -333324.9, 2156.6838, -0.0019710297, -0.0006431787, -199323.03, -58298.785, 0.0, 5.0192356, 4.933093 
8.994681e+2, 2.9054248e+2, -156151.44, -284166.66, 1183.3887, -0.002326325, -0.0037945553, -156140.48, -63456.355, 0.0, 5.0164504, 4.9341936 
8.993511e+2, 2.954757e+2, -117184.82, -244421.22, -189.49051, 0.00477697, 0.009723466, -117184.54, -72846.08, 0.0, 5.0135536, 4.9319725 
8.9923304e+2, 3.004069e+2, -76805.01, -200120.89, -85.361435, 0.0075076027, 0.0050297254, -76804.945, -76804.945, 0.0, 5.0104237, 4.931451 
8.991136e+2, 3.0534086e+2, -44226.535, -142893.14, -1021.5064, -0.016621338, -0.019223876, -44215.96, -44215.96, 0.0, 5.007671, 4.9443197 
8.989958e+2, 3.1028828e+2, -49659.617, -139362.81, -1903.4962, -0.028144792, 0.0075273453, -49619.246, -49619.246, 0.0, 5.004513, 4.946945 
8.98889e+2, 3.1525415e+2, -18813.225, -53902.83, -650.60834, 0.06914393, 0.0033896274, -18801.166, -18801.166, 0.0, 5.0019417, 4.979214 
8.98763e+2, 3.2023007e+2, -13247.919, -16581.63, -2804.0369, -0.026840976, -0.0019057231, -11652.716, -11652.716, 0.0, 4.9971724, 4.994865 
9.076215e+2, 1.2690572e+2, -1643659.0, -1699385.0, 2794.9233, -0.0024178145, -0.0007686105, -1643519.1, 52804.445, 0.0, 5.0335217, 4.996726 
9.0751994e+2, 1.3190101e+2, -1597488.4, -1653991.5, 5270.762, 0.003541957, -0.0014775787, -1597001.0, 50369.176, 0.0, 5.0331206, 4.995813 
9.074226e+2, 1.3689466e+2, -1553365.0, -1613381.6, 10321.308, -0.0018142469, 0.0036558711, -1551639.6, 46792.715, 0.0, 5.032916, 4.9930835 
9.0732825e+2, 1.4188619e+2, -1505505.6, -1566440.8, 11695.257, -0.00034625473, -0.0022753149, -1503338.0, 46177.223, 0.0, 5.0329337, 4.992458 
9.0723675e+2, 1.468761e+2, -1461392.0, -1526778.5, 15073.591, 0.0015803298, -0.0007687996, -1458084.4, 42529.707, 0.0, 5.0329385, 4.9893293 
9.071464e+2, 1.5186454e+2, -1413136.8, -1479474.8, 16351.787, -0.00089944457, 0.00046524894, -1409325.3, 42402.074, 0.0, 5.033033, 4.988788 
9.070587e+2, 1.5685068e+2, -1368626.4, -1439948.3, 19361.38, -0.00053325313, 0.0014594498, -1363709.4, 39153.84, 0.0, 5.0331845, 4.9855556 
9.069723e+2, 1.6183491e+2, -1320054.5, -1392748.6, 20303.705, 0.0004938989, -0.0014574329, -1314768.1, 39249.62, 0.0, 5.0334373, 4.984883 
9.068872e+2, 1.6681705e+2, -1275617.3, -1353874.8, 22590.547, 0.00030284654, 0.0005266994, -1269564.3, 35628.6, 0.0, 5.033667, 4.9813666 
9.068027e+2, 1.7179726e+2, -1226824.8, -1306479.1, 23329.543, -0.00028513884, -0.00062227505, -1220494.9, 35891.805, 0.0, 5.033954, 4.9807377 
9.0671915e+2, 1.7677511e+2, -1182253.6, -1267933.9, 25086.54, 0.00008711539, 0.0007655023, -1175449.0, 32154.828, 0.0, 5.0342503, 4.9770794 
9.06636e+2, 1.8175092e+2, -1133355.3, -1220532.4, 25682.553, 0.000022306902, -0.001095306, -1126351.8, 32488.941, 0.0, 5.0345707, 4.9764285 
9.065529e+2, 1.8672438e+2, -1088823.8, -1182413.3, 26728.24, 0.00014166681, 0.0006842803, -1081728.4, 28372.504, 0.0, 5.034906, 4.972602 
9.064698e+2, 1.9169566e+2, -1039787.25, -1134893.8, 27171.254, 0.00004999293, -0.0012264211, -1032572.0, 28810.322, 0.0, 5.0352583, 4.9719653 
9.063863e+2, 1.9666454e+2, -995367.5, -1097060.1, 27618.021, -0.00020662144, 0.0007596751, -988351.06, 24336.377, 0.0, 5.0356007, 4.9680023 
9.063025e+2, 2.0163111e+2, -946268.75, -1049493.3, 27757.338, 0.000097487005, -0.0013180174, -939278.1, 24736.69, 0.0, 5.035952, 4.9673653 
9.062175e+2, 2.065953e+2, -902021.8, -1012163.5, 27703.148, 0.0004990527, 0.0011409988, -895446.4, 19919.402, 0.0, 5.0362463, 4.963221 
9.06132e+2, 2.1155709e+2, -853112.9, -964568.25, 27619.832, -0.00034098217, -0.0012962242, -846643.8, 20096.578, 0.0, 5.0364957, 4.962618 
9.060447e+2, 2.1651645e+2, -809088.0, -927510.75, 26821.514, -0.00009782279, 0.00083497714, -803296.44, 14842.213, 0.0, 5.0366917, 4.958397 
9.059566e+2, 2.2147341e+2, -760484.2, -879933.2, 26679.125, 0.00023898667, -0.0013777479, -754796.2, 14764.228, 0.0, 5.036792, 4.95784 
9.058662e+2, 2.2642805e+2, -716812.8, -842930.0, 25075.068, 0.00053909863, 0.0008441232, -712010.2, 8994.806, 0.0, 5.036787, 4.9536695 
9.0577435e+2, 2.313803e+2, -668818.06, -795618.4, 24936.934, 0.00024609725, -0.001425492, -664090.2, 8382.805, 0.0, 5.036648, 4.953118 
9.0567994e+2, 2.363303e+2, -625402.2, -758345.06, 22507.668, -0.00025627261, 0.0010179572, -621695.0, 2267.891, 0.0, 5.036409, 4.9491363 
9.055837e+2, 2.41278e+2, -578344.06, -711427.5, 22265.898, 0.00044549283, -0.0017461609, -574717.6, 757.8362, 0.0, 5.0359097, 4.9485927 
9.054847e+2, 2.4622366e+2, -535397.06, -673549.2, 19276.898, 0.0003900354, 0.00093210995, -532757.75, -5749.7256, 0.0, 5.035295, 4.9449673 
9.053832e+2, 2.511671e+2, -489267.84, -626912.94, 18804.215, -0.00015227655, -0.0019192721, -486745.16, -8182.8027, 0.0, 5.0344086, 4.94447 
9.0527916e+2, 2.561088e+2, -447168.0, -588801.6, 15568.266, -0.00048798945, 0.0009976117, -445476.94, -15343.184, 0.0, 5.0333443, 4.9410686 
9.051725e+2, 2.6104861e+2, -401962.44, -541778.2, 14808.158, 0.00024294689, -0.001629109, -400411.28, -18687.613, 0.0, 5.031947, 4.940909 
9.0506345e+2, 2.6598692e+2, -361069.0, -503701.1, 11668.429, 0.00047375823, 0.0020423937, -360120.72, -26792.504, 0.0, 5.0303106, 4.937721 
9.049516e+2, 2.709235e+2, -316839.7, -456213.4, 10652.162, -0.00015326966, -0.00203976, -316030.25, -31080.338, 0.0, 5.0283566, 4.9379444 
9.0483767e+2, 2.7585894e+2, -276818.63, -417879.06, 7853.017, -0.000555565, 0.0017592522, -276382.78, -39800.406, 0.0, 5.026243, 4.9350224 
9.0472156e+2, 2.807932e+2, -233553.78, -369850.25, 6905.6553, 0.00067709154, -0.0005620729, -233204.8, -44977.867, 0.0, 5.0237246, 4.9356456 
9.046038e+2, 2.8572607e+2, -194980.34, -331578.84, 4659.7373, -0.00017613727, -0.00046600428, -194821.56, -54936.547, 0.0, 5.0209627, 4.9329157 
9.044842e+2, 2.9065827e+2, -152286.22, -282661.25, 3729.757, -0.00037832386, -0.0050797774, -152179.61, -60630.223, 0.0, 5.0179887, 4.934023 
9.043637e+2, 2.9559124e+2, -113157.13, -242944.08, 2228.0996, 0.0006238095, 0.009634917, -113118.89, -69913.53, 0.0, 5.0151706, 4.9317703 
9.042424e+2, 3.0052224e+2, -73014.67, -199000.61, 2087.419, 0.0015526342, 0.0063644033, -72980.09, -72980.09, 0.0, 5.0119934, 4.931147 
9.041214e+2, 3.054554e+2, -42923.953, -143121.19, 1409.1685, -0.0031942937, -0.019269072, -42904.137, -42904.137, 0.0, 5.008361, 4.9439144 
9.0400094e+2, 3.104022e+2, -48915.97, -136431.13, 1167.9302, -0.007370451, 0.0022777035, -48900.387, -48900.387, 0.0, 5.0043497, 4.9480343 
9.0388423e+2, 3.153702e+2, -17116.764, -50083.137, -648.6983, 0.023557631, 0.021331646, -17104.004, -17104.004, 0.0, 5.002078, 4.9805346 
9.037603e+2, 3.20345e+2, -10528.025, -21459.672, -1806.9608, -0.025587846, -0.0040705055, -10237.085, -10237.085, 0.0, 4.9994316, 4.9921126 
9.126539e+2, 1.270104e+2, -1644166.5, -1697328.6, 2971.289, -0.0002342343, -0.00025752065, -1644000.9, 51296.9, 0.0, 5.03284, 4.997748 
9.125517e+2, 1.3200663e+2, -1597349.3, -1651737.8, 5528.052, 0.0014832079, -0.0015935838, -1596793.0, 49542.016, 0.0, 5.0326867, 4.9967804 
9.124544e+2, 1.3700117e+2, -1553457.6, -1611387.9, 10771.244, -0.0021159595, 0.0034044255, -1551519.8, 45868.766, 0.0, 5.032444, 4.9939837 
9.123602e+2, 1.419936e+2, -1505693.6, -1564530.5, 12201.878, 0.0003730018, -0.0023733408, -1503263.5, 45199.2, 0.0, 5.0324388, 4.993342 
9.122688e+2, 1.4698432e+2, -1461433.5, -1524843.0, 15637.818, 0.0015713533, -0.0010756478, -1457786.6, 41766.83, 0.0, 5.0325117, 4.9901857 
9.121785e+2, 1.519736e+2, -1413130.5, -1477556.1, 16963.822, -0.0013060762, 0.00015933804, -1408936.8, 41721.805, 0.0, 5.032633, 4.9896264 
9.120911e+2, 1.5696053e+2, -1368680.3, -1438075.6, 20055.305, -0.0007191192, 0.0011289286, -1363301.3, 38485.44, 0.0, 5.0327744, 4.9863796 
9.1200495e+2, 1.6194557e+2, -1320098.5, -1390882.4, 20980.037, 0.0005689358, -0.0017766609, -1314347.4, 38585.93, 0.0, 5.0330334, 4.9857035 
9.119201e+2, 1.669285e+2, -1275631.1, -1352028.0, 23258.41, 0.00009572517, 0.00019986773, -1269107.4, 34993.18, 0.0, 5.0332866, 4.9821687 
9.118359e+2, 1.7190951e+2, -1226747.0, -1304557.6, 23974.94, -0.00044696443, -0.00067745295, -1219953.0, 35333.547, 0.0, 5.0335984, 4.981555 
9.117527e+2, 1.7688817e+2, -1182108.9, -1266016.0, 25709.959, -0.00009120511, 0.0006806584, -1174857.8, 31638.121, 0.0, 5.0339274, 4.9778805 
9.116699e+2, 1.8186478e+2, -1133096.4, -1218534.1, 26252.953, -0.00009888942, -0.0011679748, -1125674.3, 32050.842, 0.0, 5.0342846, 4.977241 
9.115872e+2, 1.86839e+2, -1088508.1, -1180428.6, 27304.154, 0.00020393831, 0.00062706147, -1081009.4, 27968.162, 0.0, 5.0346556, 4.9733877 
9.1150445e+2, 1.9181108e+2, -1039407.75, -1132920.0, 27697.771, -0.000062818275, -0.0009801373, -1031819.6, 28431.59, 0.0, 5.035034, 4.97274 
9.114211e+2, 1.9678067e+2, -994961.56, -1095256.9, 28186.748, -0.00041552042, 0.00095330644, -987582.9, 23966.396, 0.0, 5.03542, 4.9687023 
9.1133773e+2, 2.0174792e+2, -945811.44, -1047686.56, 28305.191, 0.00026917376, -0.0013458187, -938475.4, 24394.88, 0.0, 5.0357947, 4.968057 
9.1125304e+2, 2.0671272e+2, -901624.06, -1010555.4, 28222.832, 0.0002906944, 0.00088598666, -894746.1, 19469.043, 0.0, 5.036107, 4.963837 
9.111678e+2, 2.116751e+2, -852679.25, -962928.0, 28157.398, -0.00032722915, -0.0013087598, -845904.25, 19679.646, 0.0, 5.0363684, 4.96324 
9.110808e+2, 2.1663502e+2, -808725.8, -926070.94, 27313.104, 0.0002733482, 0.00074071786, -802679.94, 14296.707, 0.0, 5.0365753, 4.958944 
9.109926e+2, 2.2159253e+2, -760130.56, -878589.25, 27171.674, -0.00013554939, -0.0011788245, -754195.4, 14197.769, 0.0, 5.0366917, 4.9583488 
9.1090214e+2, 2.265476e+2, -716409.25, -841789.8, 25444.383, -0.00007437022, 0.0010543446, -711442.44, 8390.993, 0.0, 5.036742, 4.9540854 
9.108102e+2, 2.3150021e+2, -668391.56, -794554.3, 25274.955, 0.00006532037, -0.0014204154, -663516.44, 7781.2583, 0.0, 5.036632, 4.9534936 
9.107155e+2, 2.3645052e+2, -625028.3, -757587.06, 22612.623, -0.000365798, 0.0010690863, -621277.06, 1507.6938, 0.0, 5.036429, 4.949393 
9.1061866e+2, 2.4139847e+2, -577876.8, -710703.0, 22328.064, 0.000009252087, -0.0012120645, -574223.9, 71.01218, 0.0, 5.035981, 4.9488134 
9.1051906e+2, 2.4634424e+2, -534998.8, -673250.56, 19101.617, 0.000349383, 0.001223988, -532408.2, -6581.762, 0.0, 5.035415, 4.945012 
9.1041666e+2, 2.512878e+2, -488866.72, -626642.56, 18625.514, -0.0001899169, -0.0013300773, -486393.2, -9013.497, 0.0, 5.034539, 4.944502 
9.1031146e+2, 2.5622943e+2, -446757.38, -588839.0, 15002.207, -0.00087319943, 0.0018080915, -445190.6, -16239.221, 0.0, 5.033524, 4.9409833 
9.102034e+2, 2.6116905e+2, -401640.78, -542052.9, 14149.054, -0.000020546395, -0.0018135523, -400229.2, -19685.975, 0.0, 5.032133, 4.940738 
9.100926e+2, 2.6610717e+2, -360663.97, -504075.34, 10641.722, 0.0004611756, 0.0021804569, -359878.6, -27728.824, 0.0, 5.03054, 4.9375057 
9.0997875e+2, 2.710435e+2, -316388.94, -456526.28, 9526.615, -0.00025664494, -0.0016182797, -315744.28, -31970.7, 0.0, 5.02859, 4.9377503 
9.098624e+2, 2.759786e+2, -276595.22, -418662.28, 6378.4814, -0.001681932, 0.0012569048, -276309.44, -40899.813, 0.0, 5.026462, 4.9346714 
9.0974385e+2, 2.8091258e+2, -233326.72, -370548.53, 5323.4795, -0.0005165417, -0.00018186154, -233120.5, -46063.844, 0.0, 5.0239263, 4.9353347 
9.0962356e+2, 2.8584525e+2, -194603.3, -332242.06, 2727.0962, 0.0018657617, 0.0011600371, -194549.28, -55832.363, 0.0, 5.0212145, 4.9326005 
9.095009e+2, 2.90777e+2, -152016.44, -283449.03, 1806.9498, 0.0014977572, -0.005121218, -151991.6, -61605.89, 0.0, 5.0182123, 4.933677 
9.093767e+2, 2.9570955e+2, -113211.69, -243919.38, 239.58789, -0.0060061133, 0.008918637, -113211.25, -71165.79, 0.0, 5.0152802, 4.931413 
9.092519e+2, 3.0064023e+2, -73406.08, -200133.83, -262.96805, -0.0074928217, 0.006332638, -73405.53, -73405.53, 0.0, 5.0119815, 4.9307866 
9.0913033e+2, 3.05573e+2, -43076.504, -144018.47, -1100.3221, 0.017890502, -0.020978091, -43064.51, -43064.51, 0.0, 5.008411, 4.9436054 
9.090068e+2, 3.105198e+2, -49321.86, -138005.34, -1311.2997, 0.020791372, 0.005196104, -49302.473, -49302.473, 0.0, 5.004421, 4.947469 
9.088757e+2, 3.1548733e+2, -16349.19, -49491.945, -1922.0457, -0.06020518, 0.007511653, -16238.098, -16238.098, 0.0, 5.0022364, 4.980712 
9.0876406e+2, 3.2046315e+2, -10595.129, -19536.318, 1641.7996, 0.029030966, -0.003687091, -10303.19, -10303.19, 0.0, 4.998976, 4.992968 
9.17685e+2, 1.2711562e+2, -1649405.8, -1697264.9, 2817.9893, 0.0053584464, 0.0012823687, -1649240.4, 45026.863, 0.0, 5.0305266, 4.9988966 
9.175815e+2, 1.321128e+2, -1602045.6, -1651644.6, 5244.23, -0.005757384, -0.0012877695, -1601497.3, 43797.188, 0.0, 5.030603, 4.997826 
9.17485e+2, 1.3710822e+2, -1557584.0, -1611327.3, 10652.053, -0.0015691796, 0.0028988193, -1555549.8, 40789.71, 0.0, 5.0306087, 4.994906 
9.173912e+2, 1.4210157e+2, -1509105.5, -1564096.4, 12190.932, 0.003367995, -0.0024085129, -1506524.1, 40880.367, 0.0, 5.0308356, 4.994273 
9.172997e+2, 1.470933e+2, -1464316.6, -1524205.0, 15688.002, 0.0014571571, -0.00045665403, -1460456.0, 38029.742, 0.0, 5.0310955, 4.9910936 
9.172095e+2, 1.5208344e+2, -1415503.0, -1476736.1, 17047.398, -0.002353373, 0.00075740484, -1411076.9, 38505.29, 0.0, 5.031403, 4.990502 
9.171225e+2, 1.5707117e+2, -1370618.4, -1437115.9, 20317.656, -0.00059638364, 0.0012622682, -1364902.0, 35800.527, 0.0, 5.031698, 4.987227 
9.1703683e+2, 1.6205704e+2, -1321568.8, -1389660.8, 21345.732, 0.0012155977, -0.0016412179, -1315430.5, 36410.383, 0.0, 5.0321064, 4.986567 
9.169522e+2, 1.6704084e+2, -1276704.0, -1350638.3, 23802.025, 0.00019855479, 0.00042701839, -1269704.0, 33295.69, 0.0, 5.032494, 4.9830275 
9.1686845e+2, 1.720227e+2, -1227469.3, -1302965.4, 24694.908, -0.00048482278, -0.0002876514, -1220109.1, 34068.285, 0.0, 5.0329237, 4.9824247 
9.1678566e+2, 1.7700216e+2, -1182560.3, -1264292.3, 26639.184, 0.00014966949, 0.00071735744, -1174644.4, 30734.297, 0.0, 5.0333548, 4.9787498 
9.167033e+2, 1.8197961e+2, -1133257.8, -1216618.9, 27358.906, 0.00017276416, -0.0010538901, -1125080.8, 31518.922, 0.0, 5.033813, 4.978126 
9.1662097e+2, 1.869547e+2, -1088373.1, -1178303.9, 28640.797, 0.00022226064, 0.00074745424, -1080026.4, 27817.383, 0.0, 5.034298, 4.974281 
9.165387e+2, 1.9192763e+2, -1038787.9, -1130507.0, 29148.996, 0.00013653551, -0.00095156697, -1030308.1, 28801.008, 0.0, 5.0348372, 4.9736567 
9.1645586e+2, 1.9689806e+2, -994002.8, -1092790.5, 29897.887, -0.00011825778, 0.0009564855, -985659.0, 24739.95, 0.0, 5.0353694, 4.9695663 
9.1637284e+2, 2.0186612e+2, -944392.56, -1044915.25, 30170.182, 0.00019933033, -0.0011888731, -936032.7, 25679.164, 0.0, 5.0358996, 4.968949 
9.1628855e+2, 2.0683172e+2, -899833.6, -1007664.8, 30291.604, 0.0003045979, 0.0009216828, -891906.94, 21141.97, 0.0, 5.0363703, 4.9646864 
9.162037e+2, 2.1179493e+2, -850342.75, -959763.6, 30410.22, -0.00004619438, -0.0010627998, -842459.1, 21950.594, 0.0, 5.0368295, 4.964092 
9.161169e+2, 2.1675558e+2, -805984.06, -922868.2, 29732.826, 0.00044631932, 0.00085304026, -798855.44, 16939.691, 0.0, 5.0372124, 4.9597282 
9.16029e+2, 2.2171383e+2, -756860.75, -875174.9, 29806.252, -0.000044531396, -0.00096231705, -749776.06, 17428.383, 0.0, 5.037529, 4.9591193 
9.159386e+2, 2.266695e+2, -712668.75, -838402.0, 28224.092, -0.00018666075, 0.001263248, -706623.75, 12014.856, 0.0, 5.037795, 4.9547563 
9.158467e+2, 2.316227e+2, -664231.25, -790991.0, 28304.627, 0.00013313955, -0.0012729326, -658198.1, 11899.318, 0.0, 5.0378566, 4.954146 
9.1575176e+2, 2.3657344e+2, -620502.44, -754109.44, 25733.033, -0.000027326469, 0.00090291805, -615717.56, 5862.5513, 0.0, 5.03785, 4.949922 
9.156546e+2, 2.4152184e+2, -572843.06, -707066.2, 25707.473, -0.00021681919, -0.001018964, -568087.8, 4998.0547, 0.0, 5.037612, 4.949306 
9.1555434e+2, 2.4646784e+2, -529600.44, -669884.9, 22440.465, -0.000009088193, 0.0011479042, -526098.25, -1483.2601, 0.0, 5.0372562, 4.9453187 
9.154513e+2, 2.5141162e+2, -483047.84, -623045.9, 22117.424, 0.0003563232, -0.0015163203, -479636.75, -3470.6133, 0.0, 5.0365434, 4.9448204 
9.15345e+2, 2.5635335e+2, -440796.0, -585600.75, 18417.775, -0.00011674941, 0.0017972434, -438490.16, -10753.179, 0.0, 5.0356517, 4.9411407 
9.152355e+2, 2.6129293e+2, -395359.0, -538643.44, 17689.598, 0.000040876643, -0.0022087486, -393207.4, -13878.179, 0.0, 5.0343766, 4.9409065 
9.1512305e+2, 2.6623085e+2, -354453.13, -501098.47, 14037.824, -0.00009319292, 0.00088730914, -353121.4, -22183.938, 0.0, 5.032852, 4.9374876 
9.1500735e+2, 2.7116716e+2, -310237.53, -453597.3, 12935.231, 0.00041602371, -0.0014164691, -309079.75, -26517.852, 0.0, 5.0308905, 4.937724 
9.1488874e+2, 2.76102e+2, -270787.63, -416026.25, 9597.793, -0.00080896943, 0.001139608, -270156.1, -35955.855, 0.0, 5.0286603, 4.934582 
9.147674e+2, 2.810356e+2, -227813.02, -368147.88, 8477.539, -0.00056776626, -0.0018480223, -227302.75, -41451.82, 0.0, 5.0260425, 4.9352107 
9.146442e+2, 2.8596812e+2, -189459.77, -330023.88, 5807.1436, 0.001149571, 0.0013541451, -189220.27, -51708.043, 0.0, 5.0232058, 4.932482 
9.145185e+2, 2.9089972e+2, -147337.47, -281393.4, 4905.024, 0.00096281426, -0.0037274954, -147158.23, -57975.375, 0.0, 5.0200243, 4.9335794 
9.143913e+2, 2.9583162e+2, -109609.29, -242462.48, 3212.8372, -0.0041206344, 0.0070546595, -109531.63, -68681.78, 0.0, 5.0167146, 4.9312687 
9.142632e+2, 3.0076185e+2, -70558.336, -198600.8, 2589.3154, -0.004356221, 0.0027356658, -70506.0, -70506.0, 0.0, 5.0130706, 4.9308176 
9.1413707e+2, 3.0569535e+2, -40477.84, -142478.23, 1558.1892, 0.013388517, -0.014610661, -40454.043, -40454.043, 0.0, 5.009413, 4.943671 
9.140097e+2, 3.1064215e+2, -46806.637, -136723.67, 1962.501, 0.014984919, 0.012638657, -46763.824, -46763.824, 0.0, 5.0054154, 4.9474607 
9.138774e+2, 3.1560656e+2, -14621.987, -50552.59, -819.33466, -0.047318175, 0.0037844644, -14603.313, -14603.313, 0.0, 5.0032725, 4.9798503 
9.137616e+2, 3.2058385e+2, -13509.935, -17329.44, -275.0073, 0.037742097, 0.0007864996, -13490.235, -13490.235, 0.0, 4.99727, 4.9944963 
9.227138e+2, 1.2722057e+2, -1649552.1, -1694910.9, 3209.6729, 0.0008484337, 0.00017979098, -1649326.1, 43912.563, 0.0, 5.0299473, 4.999969 
9.226112e+2, 1.3221891e+2, -1602632.5, -1649640.1, 5731.229, -0.0014487267, -0.0011543909, -1601943.9, 42310.613, 0.0, 5.0299053, 4.998841 
9.2251456e+2, 1.3721521e+2, -1557651.5, -1609220.9, 11321.18, -0.0013228594, 0.0023191364, -1555275.5, 40015.43, 0.0, 5.0301266, 4.9958487 
9.2242086e+2, 1.4220951e+2, -1508988.0, -1561929.6, 12896.191, 0.0019245605, -0.0026382292, -1506013.6, 40333.06, 0.0, 5.030429, 4.995199 
9.2232984e+2, 1.4720215e+2, -1464368.5, -1522089.5, 16363.989, 0.0010182143, -0.00048640606, -1460052.0, 37366.914, 0.0, 5.030636, 4.992026 
9.2224014e+2, 1.5219319e+2, -1415616.6, -1474675.3, 17751.975, -0.00180659, 0.0006260187, -1410691.4, 37815.32, 0.0, 5.0309253, 4.991427 
9.2215335e+2, 1.571818e+2, -1370618.8, -1434994.1, 21095.975, -0.00056474627, 0.0010005232, -1364321.6, 35296.785, 0.0, 5.031257, 4.988155 
9.220681e+2, 1.6216859e+2, -1321480.9, -1387454.5, 22093.89, 0.0009233424, -0.0016920958, -1314765.4, 35982.42, 0.0, 5.031688, 4.9875126 
9.2198396e+2, 1.6715331e+2, -1276597.3, -1348362.0, 24519.578, 0.000008048361, 0.00030368924, -1269019.8, 32877.625, 0.0, 5.0320716, 4.983997 
9.219007e+2, 1.7213616e+2, -1227315.3, -1300643.8, 25381.752, -0.000624259, -0.00031273827, -1219386.9, 33678.727, 0.0, 5.032515, 4.9834056 
9.218184e+2, 1.7711659e+2, -1182249.6, -1261843.4, 27294.273, 0.000059599584, 0.00061133894, -1173789.3, 30468.125, 0.0, 5.0329957, 4.97975 
9.2173636e+2, 1.8209502e+2, -1132814.5, -1214121.5, 27943.807, -0.00003387763, -0.0010536837, -1124136.9, 31331.965, 0.0, 5.0335, 4.979125 
9.216545e+2, 1.8707106e+2, -1087839.3, -1175815.4, 29248.162, -0.00016022276, 0.0005968082, -1079003.0, 27700.432, 0.0, 5.0340257, 4.9752617 
9.2157286e+2, 1.9204494e+2, -1038221.8, -1127975.9, 29664.047, -0.000007821085, -0.0011339185, -1029303.8, 28655.723, 0.0, 5.034576, 4.974644 
9.2149055e+2, 1.9701633e+2, -993452.9, -1090268.8, 30507.93, 0.000091300455, 0.00066109764, -984641.4, 24598.535, 0.0, 5.0351157, 4.970537 
9.21408e+2, 2.0198539e+2, -943783.1, -1042379.5, 30794.203, -0.000050789447, -0.0011930866, -934955.6, 25587.596, 0.0, 5.0356693, 4.9699183 
9.213242e+2, 2.0695192e+2, -899196.9, -1005190.5, 30940.393, 0.00015595448, 0.00073629146, -890826.2, 21044.87, 0.0, 5.0361605, 4.9656296 
9.2123973e+2, 2.1191604e+2, -849715.0, -957340.5, 31053.03, -0.00018874189, -0.0011102229, -841398.0, 21824.7, 0.0, 5.0366254, 4.965019 
9.2115337e+2, 2.168776e+2, -805346.94, -920564.56, 30331.672, 0.00020534567, 0.0007040821, -797849.8, 16749.682, 0.0, 5.037037, 4.9606037 
9.210658e+2, 2.2183666e+2, -756216.7, -872925.0, 30417.404, 0.00003125018, -0.0012938371, -748764.9, 17235.773, 0.0, 5.0373755, 4.9599657 
9.209756e+2, 2.2679316e+2, -712027.7, -836286.44, 28666.422, -0.00017469589, 0.0010404502, -705733.25, 11693.785, 0.0, 5.037672, 4.955541 
9.208837e+2, 2.317471e+2, -663557.25, -788956.25, 28755.24, 0.00013131059, -0.0011673474, -657277.8, 11600.445, 0.0, 5.037764, 4.9548926 
9.2078876e+2, 2.3669848e+2, -619830.9, -752405.56, 26000.916, 0.000114464616, 0.00065258733, -614913.8, 5440.9785, 0.0, 5.037821, 4.9505253 
9.206914e+2, 2.4164747e+2, -572119.3, -705482.75, 25964.49, -0.000057141064, -0.0010410224, -567242.6, 4612.165, 0.0, 5.037632, 4.9498467 
9.2059064e+2, 2.4659391e+2, -528935.94, -668689.94, 22389.492, -0.00033521716, 0.0010840863, -525436.6, -2056.9717, 0.0, 5.037319, 4.945711 
9.204868e+2, 2.51538e+2, -482429.2, -622078.44, 22009.268, -0.00020689971, -0.0016947858, -479042.56, -4114.956, 0.0, 5.036632, 4.9451222 
9.203796e+2, 2.5647998e+2, -440154.72, -584971.8, 17953.555, 0.00026620156, 0.002142777, -437962.16, -11466.199, 0.0, 5.0358095, 4.9412975 
9.202688e+2, 2.6141974e+2, -394619.13, -538020.9, 17159.922, -0.00008041146, -0.0012820234, -392594.3, -14507.901, 0.0, 5.0345836, 4.941041 
9.201545e+2, 2.6635754e+2, -353838.25, -501089.22, 12999.471, -0.0013249705, 0.00050991337, -352699.47, -23003.643, 0.0, 5.033105, 4.9373956 
9.200369e+2, 2.7129382e+2, -309614.8, -453577.84, 11825.13, 0.00022976643, -0.000963467, -308649.97, -27329.506, 0.0, 5.031142, 4.9376397 
9.1991615e+2, 2.762286e+2, -270177.88, -416290.9, 8020.632, 0.0001810731, 0.002458878, -269738.9, -36779.305, 0.0, 5.0289497, 4.9343867 
9.19792e+2, 2.8116187e+2, -227141.67, -368278.97, 6687.44, -0.0009609155, -0.0026146104, -226825.52, -42211.83, 0.0, 5.026327, 4.935065 
9.1966563e+2, 2.8609425e+2, -189022.69, -330601.78, 3719.5884, -0.00028086704, 0.0012263869, -188925.03, -52648.816, 0.0, 5.023463, 4.9321976 
9.195368e+2, 2.9102567e+2, -147031.69, -281956.2, 2858.2703, -0.00042762692, -0.002771153, -146971.16, -59023.035, 0.0, 5.0202208, 4.9333262 
9.1940665e+2, 2.9595703e+2, -109428.81, -243107.81, 863.1919, -0.0009524744, 0.004993785, -109423.234, -69801.48, 0.0, 5.016865, 4.931014 
9.192751e+2, 3.008869e+2, -70496.31, -199263.4, 100.32791, -0.00012481547, 0.00016174329, -70496.234, -70496.234, 0.0, 5.0131683, 4.930579 
9.191434e+2, 3.0582103e+2, -40032.53, -142683.58, -1086.8625, 0.000014287321, -0.010514842, -40021.023, -40021.023, 0.0, 5.009587, 4.943558 
9.19012e+2, 3.1076786e+2, -48316.85, -140890.44, -637.36786, -0.0010202022, 0.02351056, -48312.46, -48312.46, 0.0, 5.0054727, 4.9459662 
9.1888297e+2, 3.1572732e+2, -17122.709, -54703.848, -1190.6833, 0.0002906416, -0.034725856, -17085.021, -17085.021, 0.0, 5.002873, 4.9785233 
9.187531e+2, 3.2070848e+2, -9634.83, -7619.8076, -3697.6775, -0.004347005, 0.007186554, -4794.8394, -4794.8394, 0.0, 4.99706, 4.9981356 
9.2774034e+2, 1.2732553e+2, -1655326.3, -1695264.4, 2284.2317, -0.009151285, -0.0016792451, -1655196.0, 37013.42, 0.0, 5.027506, 5.0010433 
9.2764026e+2, 1.3232519e+2, -1607545.8, -1649567.9, 5255.6406, 0.011693323, -0.00026706097, -1606898.4, 36314.945, 0.0, 5.027732, 4.999927 
9.2754275e+2, 1.3732249e+2, -1561942.0, -1609159.4, 10912.633, -0.0017132786, 0.0029160532, -1559541.9, 34697.87, 0.0, 5.0282145, 4.9968114 
9.274489e+2, 1.4231774e+2, -1512640.6, -1561664.0, 12349.091, -0.0038261083, -0.001953244, -1509705.6, 35580.418, 0.0, 5.0287523, 4.996115 
9.273588e+2, 1.4731124e+2, -1467469.9, -1521510.4, 15820.393, 0.0011412309, -0.00031374348, -1463179.1, 33170.746, 0.0, 5.029132, 4.9929647 
9.272697e+2, 1.523032e+2, -1418186.4, -1473807.9, 17337.334, 0.0007268484, 0.00082806457, -1413224.9, 34203.68, 0.0, 5.0295863, 4.99238 
9.271833e+2, 1.572928e+2, -1372730.1, -1433963.4, 20819.855, -0.00044903872, 0.0014010699, -1366321.9, 32208.768, 0.0, 5.03006, 4.9890995 
9.270984e+2, 1.6228053e+2, -1323277.0, -1386253.6, 21924.77, 0.00013082869, -0.0012350705, -1316396.0, 33254.742, 0.0, 5.030593, 4.9884634 
9.270148e+2, 1.6726622e+2, -1278069.9, -1346970.3, 24497.63, 0.00019391983, 0.0004013589, -1270247.8, 30543.375, 0.0, 5.03107, 4.9849696 
9.2693216e+2, 1.7225003e+2, -1228503.0, -1299052.0, 25545.469, 0.000056196837, -0.00024105606, -1220224.5, 31725.266, 0.0, 5.0316052, 4.984404 
9.2685026e+2, 1.7723148e+2, -1183151.6, -1259978.3, 27691.15, 0.00032808172, 0.0006738492, -1174211.1, 28920.328, 0.0, 5.0321736, 4.980801 
9.2676884e+2, 1.8221094e+2, -1133406.8, -1212069.6, 28510.924, -0.00007458756, -0.00079650496, -1124160.0, 30172.764, 0.0, 5.0327835, 4.980191 
9.266876e+2, 1.8718804e+2, -1088113.4, -1173479.3, 30091.654, 0.0000020820883, 0.00093744736, -1078572.4, 26984.719, 0.0, 5.0334044, 4.976375 
9.2660654e+2, 1.9216302e+2, -1038191.06, -1125426.1, 30697.227, 0.00017927097, -0.00044443784, -1028471.9, 28330.545, 0.0, 5.034067, 4.9757657 
9.2652476e+2, 1.9713551e+2, -993151.75, -1087403.1, 31780.148, -0.0000050752633, 0.0010986635, -983437.25, 24634.695, 0.0, 5.0346937, 4.9716935 
9.2644286e+2, 2.0210572e+2, -942982.6, -1039212.44, 32190.531, 0.00000777578, -0.0007156299, -933207.3, 26156.65, 0.0, 5.0354137, 4.9711046 
9.263596e+2, 2.0707336e+2, -897989.9, -1001881.8, 32582.318, 0.00023886329, 0.00089797, -888617.1, 22063.8, 0.0, 5.036054, 4.966802 
9.262757e+2, 2.1203862e+2, -848046.75, -953785.25, 32938.234, -0.00016917833, -0.00087405695, -838625.7, 23395.732, 0.0, 5.0366817, 4.9662037 
9.261898e+2, 2.170013e+2, -803154.44, -916835.2, 32480.32, 0.00014859528, 0.0010199533, -794528.8, 18858.383, 0.0, 5.037296, 4.961758 
9.2610264e+2, 2.2196142e+2, -753570.1, -868959.06, 32892.758, 0.000050996066, -0.001164395, -744852.4, 19925.55, 0.0, 5.037805, 4.9611235 
9.260129e+2, 2.2691894e+2, -708942.3, -832228.4, 31383.807, 0.00019683593, 0.0005740887, -701413.0, 14781.39, 0.0, 5.038302, 4.9566345 
9.2592114e+2, 2.3187393e+2, -659807.0, -784625.6, 31821.21, 0.0004188226, -0.0011076753, -652162.7, 15472.669, 0.0, 5.038653, 4.955967 
9.2582625e+2, 2.3682618e+2, -615571.75, -748126.6, 29277.922, -0.00008261521, 0.0006565966, -609393.06, 9710.158, 0.0, 5.03896, 4.95147 
9.257288e+2, 2.4177597e+2, -567324.3, -701011.94, 29604.123, 0.00041478884, -0.0012235503, -561062.0, 9533.316, 0.0, 5.0389915, 4.950761 
9.2562777e+2, 2.4672312e+2, -523680.97, -664328.3, 26068.947, 0.00012295139, 0.0007805875, -519004.6, 3108.851, 0.0, 5.038917, 4.946483 
9.2552334e+2, 2.5166783e+2, -476469.16, -617487.8, 26029.605, -0.00021765319, -0.001737442, -471817.97, 1837.4124, 0.0, 5.0385137, 4.945854 
9.254152e+2, 2.566101e+2, -433976.9, -580870.4, 21967.092, -0.00018052444, 0.001016723, -430762.22, -5541.4917, 0.0, 5.0378947, 4.941772 
9.2530334e+2, 2.6155022e+2, -388047.44, -533681.8, 21329.25, 0.00036336275, -0.0014095923, -384987.9, -8180.407, 0.0, 5.036814, 4.9415417 
9.251876e+2, 2.6648822e+2, -347229.38, -497408.72, 17027.709, -0.0008171968, 0.0004480925, -345322.94, -16907.717, 0.0, 5.0354643, 4.9376225 
9.2506796e+2, 2.7142447e+2, -302746.78, -449703.03, 15949.971, 0.00011385832, -0.0020990884, -301035.6, -20995.4, 0.0, 5.0335865, 4.9379053 
9.2494476e+2, 2.7635932e+2, -263866.66, -413026.0, 11988.89, 0.00029828833, 0.0029484746, -262909.2, -31230.617, 0.0, 5.031284, 4.9344816 
9.24818e+2, 2.812925e+2, -221073.1, -364939.75, 10726.865, -0.00016598156, -0.0013857873, -220277.69, -36944.547, 0.0, 5.0285373, 4.935235 
9.246886e+2, 2.8622457e+2, -183671.42, -327863.4, 7504.4614, 0.0003525067, 0.0002819879, -183281.9, -48282.914, 0.0, 5.025473, 4.932216 
9.245564e+2, 2.9115584e+2, -142209.48, -279115.5, 6565.789, 0.0007726775, -0.0039942865, -141895.33, -55223.063, 0.0, 5.0219846, 4.933496 
9.244225e+2, 2.960874e+2, -105478.76, -240739.0, 4602.305, -0.001070519, 0.006622091, -105322.34, -66978.84, 0.0, 5.0183706, 4.9311213 
9.242871e+2, 3.0101717e+2, -67272.27, -197816.39, 3947.1887, -0.0007263005, 0.0023157557, -67153.03, -67153.03, 0.0, 5.014508, 4.9304357 
9.241519e+2, 3.0594996e+2, -37024.832, -142073.0, 2224.4617, 0.0015140235, -0.014727855, -36977.75, -36977.75, 0.0, 5.0109363, 4.9431467 
9.240166e+2, 3.1089613e+2, -44196.62, -136304.0, 2761.5422, 0.0003643875, 0.012672763, -44113.9, -44113.9, 0.0, 5.0065675, 4.947082 
9.2388344e+2, 3.1585914e+2, -16338.871, -51590.04, 1734.2579, 0.0032253864, -0.0051489593, -16253.756, -16253.756, 0.0, 5.0027814, 4.9796333 
9.237485e+2, 3.2083842e+2, -10732.604, -11091.252, -1898.0945, -0.006081293, 0.009250001, -9005.381, -9005.381, 0.0, 4.997382, 4.996687 
9.327672e+2, 1.274302e+2, -1656302.4, -1693293.1, 2967.218, -0.0016537319, -0.0006499384, -1656065.9, 35117.934, 0.0, 5.0266433, 5.002126 
9.3266624e+2, 1.3243078e+2, -1607021.8, -1646994.6, 5802.5713, 0.0058478345, -0.00084280607, -1606196.4, 35982.16, 0.0, 5.027406, 5.000948 
9.325698e+2, 1.3742909e+2, -1562194.0, -1607071.4, 11500.638, -0.0019262236, 0.0028570849, -1559418.4, 33776.65, 0.0, 5.027656, 4.997785 
9.3247676e+2, 1.4242534e+2, -1513210.9, -1559754.9, 13062.537, -0.0016002915, -0.0018805343, -1509795.5, 34436.32, 0.0, 5.0280952, 4.9970775 
9.3238693e+2, 1.4741974e+2, -1467460.5, -1519184.0, 16570.295, 0.0009964808, -0.00069566333, -1462607.4, 32679.314, 0.0, 5.028649, 4.993981 
9.322984e+2, 1.5241265e+2, -1418095.1, -1471516.9, 18151.166, 0.0001522831, 0.00033060618, -1412511.5, 33844.5, 0.0, 5.0291486, 4.9933624 
9.3221253e+2, 1.5740326e+2, -1372708.8, -1431581.5, 21618.059, -0.0006628708, 0.0010136566, -1365623.3, 31824.809, 0.0, 5.0295763, 4.99013 
9.321282e+2, 1.6239205e+2, -1323213.4, -1383774.4, 22694.777, 0.00011634307, -0.0014793098, -1315652.6, 32905.38, 0.0, 5.030111, 4.989529 
9.3204516e+2, 1.6737881e+2, -1277786.9, -1344222.8, 25198.95, -0.00018972832, 0.00027422438, -1269310.5, 30377.158, 0.0, 5.030637, 4.9861045 
9.31963e+2, 1.7236376e+2, -1228099.1, -1296234.8, 26175.193, -0.00017718543, -0.00018545506, -1219204.8, 31630.6, 0.0, 5.0312095, 4.9855466 
9.318818e+2, 1.7734635e+2, -1182648.9, -1257000.5, 28322.918, 0.00024727153, 0.0005158605, -1173089.0, 28916.924, 0.0, 5.0317936, 4.981988 
9.318009e+2, 1.8232697e+2, -1132828.4, -1209045.5, 29104.398, -0.00034043787, -0.0009705144, -1122985.6, 30210.154, 0.0, 5.032432, 4.98138 
9.317203e+2, 1.8730529e+2, -1087423.3, -1170235.3, 30751.19, -0.00004844947, 0.00064367417, -1077253.1, 27155.021, 0.0, 5.0330596, 4.9776344 
9.316399e+2, 1.9228147e+2, -1037479.06, -1122208.3, 31328.596, 0.0002669675, -0.001053358, -1027153.6, 28488.066, 0.0, 5.0337353, 4.9770174 
9.315588e+2, 1.9725521e+2, -992348.0, -1084113.9, 32503.371, -0.00013573663, 0.0004890343, -982001.8, 24897.217, 0.0, 5.0343823, 4.9729695 
9.314776e+2, 2.0222668e+2, -942180.3, -1035907.3, 32856.977, 0.00006982566, -0.0009556684, -931809.5, 26369.012, 0.0, 5.0351014, 4.972387 
9.3139493e+2, 2.0719564e+2, -897112.25, -998470.44, 33281.125, 0.000411441, 0.0006311531, -887161.3, 22321.494, 0.0, 5.035756, 4.9681125 
9.313117e+2, 2.1216218e+2, -847151.7, -950363.7, 33657.723, -0.00014994008, -0.0010956477, -837145.8, 23664.785, 0.0, 5.0363936, 4.9675155 
9.312263e+2, 2.1712619e+2, -802210.06, -913313.9, 33151.723, 0.000108998465, 0.0009352021, -793070.0, 19093.332, 0.0, 5.0370197, 4.9630933 
9.311397e+2, 2.2208765e+2, -752596.5, -865473.5, 33586.773, -0.000011005666, -0.0009705938, -743358.7, 20182.33, 0.0, 5.0375495, 4.9624424 
9.3105036e+2, 2.270464e+2, -707951.94, -828904.9, 31990.305, 0.00006688463, 0.00053407793, -700012.1, 14933.064, 0.0, 5.038088, 4.957878 
9.30959e+2, 2.3200268e+2, -658782.56, -781374.75, 32432.035, 0.00002846122, -0.0006381251, -650731.3, 15642.346, 0.0, 5.0384746, 4.9571714 
9.308643e+2, 2.3695607e+2, -614523.7, -745159.25, 29670.676, -0.00083352305, 0.0011658164, -608100.5, 9729.935, 0.0, 5.0388446, 4.952552 
9.307668e+2, 2.4190687e+2, -566323.6, -698153.8, 30000.68, 0.00002937939, -0.0011491786, -559817.44, 9495.259, 0.0, 5.038883, 4.951802 
9.3066573e+2, 2.4685492e+2, -522702.4, -661952.25, 26189.37, 0.0005014797, 0.0009735431, -517939.75, 2881.985, 0.0, 5.0388923, 4.9473224 
9.3056077e+2, 2.518005e+2, -475300.13, -615063.5, 26126.594, -0.00032504517, -0.0007482769, -470575.84, 1779.036, 0.0, 5.0385723, 4.9466724 
9.3045187e+2, 2.5674334e+2, -433018.38, -579286.44, 21661.236, -0.0008125548, 0.00080456736, -429877.94, -5962.7627, 0.0, 5.038012, 4.9422784 
9.30339e+2, 2.6168397e+2, -387112.72, -532315.9, 20993.457, 0.00034620392, -0.0012198355, -384138.44, -8641.27, 0.0, 5.0369635, 4.9419603 
9.3022174e+2, 2.6662236e+2, -346248.44, -496400.2, 16185.083, 0.000102613885, 0.00186495, -344523.66, -17423.158, 0.0, 5.0356936, 4.937883 
9.301e+2, 2.715587e+2, -301840.94, -449054.8, 14977.616, -0.00048907846, -0.0021421625, -300332.56, -21608.096, 0.0, 5.033854, 4.938024 
9.299744e+2, 2.7649358e+2, -262869.7, -412572.63, 10501.816, -0.0006765352, 0.0029617106, -262136.56, -31774.006, 0.0, 5.0316057, 4.934517 
9.2984486e+2, 2.8142688e+2, -220330.97, -364756.94, 9139.469, -0.0009300725, -0.00094780856, -219754.92, -37738.47, 0.0, 5.028798, 4.935206 
9.2971236e+2, 2.863587e+2, -182885.03, -327793.88, 5440.9375, -0.000121114295, -0.0006941598, -182681.02, -48996.625, 0.0, 5.025759, 4.932153 
9.2957664e+2, 2.9129e+2, -141343.78, -278894.53, 4129.028, 0.00075581105, -0.004391709, -141219.95, -55862.043, 0.0, 5.0222726, 4.9334874 
9.294388e+2, 2.9622185e+2, -104838.15, -240691.03, 2075.7642, -0.0023138497, 0.009476674, -104806.44, -67781.27, 0.0, 5.0185995, 4.9310684 
9.2929953e+2, 3.0115134e+2, -67452.66, -199185.39, 1512.027, -0.0031087524, 0.0048318133, -67435.305, -67435.305, 0.0, 5.014641, 4.9299154 
9.2916125e+2, 3.0608222e+2, -37753.25, -144161.4, -138.51459, 0.0058604944, -0.026235372, -37753.07, -37753.07, 0.0, 5.0109477, 4.942426 
9.290218e+2, 3.1102836e+2, -44001.566, -135547.67, -423.2527, 0.0030385437, 0.005554219, -43999.61, -43999.61, 0.0, 5.006454, 4.9474363 
9.288818e+2, 3.1599635e+2, -15008.185, -48032.277, -707.1758, -0.012984684, 0.013672371, -14993.049, -14993.049, 0.0, 5.0026245, 4.9810414 
9.287463e+2, 3.2097077e+2, -13467.581, -16955.473, -2047.4386, 0.014119939, -0.016738936, -12522.037, -12522.037, 0.0, 4.997199, 4.994553 
9.3779314e+2, 1.2753461e+2, -1661787.8, -1693257.8, 2453.4636, 0.014503817, 0.0024356912, -1661597.6, 28563.596, 0.0, 5.0242424, 5.00331 
9.37689e+2, 1.3253589e+2, -1612006.9, -1646948.1, 4765.7554, -0.019350365, -0.0016264765, -1611368.5, 29780.088, 0.0, 5.0252094, 5.002037 
9.375957e+2, 1.3753529e+2, -1566381.8, -1606956.5, 10384.447, -0.00012603277, 0.0026527666, -1563878.4, 28275.855, 0.0, 5.02577, 4.9987574 
9.3750405e+2, 1.425326e+2, -1516782.4, -1559245.0, 12061.986, 0.00835488, -0.0015381556, -1513595.3, 29585.35, 0.0, 5.0263886, 4.998093 
9.374139e+2, 1.4752808e+2, -1470604.1, -1518427.4, 15593.538, 0.0005514257, -0.00017068912, -1465968.9, 28256.14, 0.0, 5.0270653, 4.99502 
9.3732554e+2, 1.52522e+2, -1420807.5, -1470745.0, 17114.248, -0.003686297, 0.0007520352, -1415505.3, 29779.154, 0.0, 5.0277424, 4.994318 
9.3724066e+2, 1.5751356e+2, -1375073.6, -1430620.8, 20650.818, -0.00034769438, 0.0011002454, -1368237.5, 28129.574, 0.0, 5.0282636, 4.991115 
9.371571e+2, 1.625034e+2, -1325357.5, -1382580.8, 21863.865, 0.0020464729, -0.0012008394, -1317960.1, 29506.71, 0.0, 5.028847, 4.990571 
9.3707454e+2, 1.6749127e+2, -1279594.0, -1342676.6, 24548.723, -0.00005442197, 0.00057219196, -1271166.6, 27419.008, 0.0, 5.0294485, 4.987239 
9.3699294e+2, 1.724773e+2, -1229745.0, -1294599.8, 25675.855, -0.0006204103, 0.00009394487, -1220810.8, 28911.707, 0.0, 5.0300827, 4.9866776 
9.3691236e+2, 1.7746107e+2, -1184093.6, -1255025.4, 28023.666, 0.00044242825, 0.00086955744, -1174358.3, 26523.266, 0.0, 5.0307093, 4.9831963 
9.368322e+2, 1.8244293e+2, -1134023.4, -1206802.0, 28912.56, 0.000085911764, -0.0005724715, -1123935.6, 28123.691, 0.0, 5.0314164, 4.98264 
9.3675226e+2, 1.8742254e+2, -1088359.3, -1167669.0, 30762.996, 0.00003847623, 0.0008685064, -1077825.8, 25433.424, 0.0, 5.032104, 4.9789624 
9.3667257e+2, 1.9240005e+2, -1038046.75, -1119341.4, 31432.904, 0.00038963824, -0.00082835194, -1027310.9, 27168.57, 0.0, 5.032876, 4.9784074 
9.365921e+2, 1.9737522e+2, -992460.06, -1080848.1, 32941.48, -0.000012396687, 0.0007148864, -981533.75, 24188.996, 0.0, 5.0336266, 4.9744577 
9.3651164e+2, 2.0234819e+2, -942061.06, -1032529.3, 33546.434, 0.00016169161, -0.00060851424, -930979.2, 26008.537, 0.0, 5.034436, 4.973868 
9.3642974e+2, 2.0731865e+2, -896601.75, -994718.7, 34272.465, 0.0004296939, 0.0008554615, -885815.94, 22461.334, 0.0, 5.035199, 4.9696655 
9.363472e+2, 2.1228673e+2, -846272.25, -946356.8, 34969.113, -0.0001190372, -0.0007367666, -835264.8, 24325.174, 0.0, 5.035966, 4.9690943 
9.362625e+2, 2.1725228e+2, -800973.75, -909023.3, 34794.707, 0.00011572914, 0.00088119664, -790738.56, 20189.045, 0.0, 5.036711, 4.964707 
9.3617654e+2, 2.2221537e+2, -750840.06, -860878.2, 35578.637, 0.00040113385, -0.0006876983, -740338.6, 21950.758, 0.0, 5.037421, 4.964083 
9.360877e+2, 2.2717567e+2, -705683.3, -824168.8, 34382.18, 0.00024443647, 0.0006798633, -696429.06, 17249.248, 0.0, 5.038175, 4.9594736 
9.3599683e+2, 2.3213343e+2, -655948.44, -776331.25, 35280.734, 0.00011448634, -0.0008587892, -646370.7, 18721.57, 0.0, 5.038773, 4.958775 
9.3590254e+2, 2.3708831e+2, -611168.0, -739958.2, 32904.754, -0.00035913472, 0.0008964373, -603248.2, 13286.346, 0.0, 5.039383, 4.9540954 
9.358053e+2, 2.4204054e+2, -562081.06, -692478.9, 33726.5, 0.0004712315, -0.001193086, -553874.4, 14128.223, 0.0, 5.0397534, 4.953354 
9.357042e+2, 2.4698985e+2, -518019.88, -656476.3, 30267.416, 0.0007054634, 0.00043553268, -511692.4, 7806.8955, 0.0, 5.04004, 4.948674 
9.355991e+2, 2.519367e+2, -469951.8, -609374.9, 30705.203, -0.00012850152, -0.0006854568, -463489.16, 7531.2544, 0.0, 5.0400004, 4.947974 
9.3548954e+2, 2.5688052e+2, -426949.2, -573793.06, 26271.846, -0.001172413, 0.0008243908, -422390.4, 180.42639, 0.0, 5.0398054, 4.943347 
9.353758e+2, 2.6182193e+2, -380281.75, -526696.56, 26064.06, 0.00062682515, -0.0016897564, -375780.34, -1635.5261, 0.0, 5.039102, 4.942922 
9.352572e+2, 2.6676098e+2, -339201.53, -491137.75, 21100.213, 0.00018487294, 0.0013448601, -336325.66, -10583.345, 0.0, 5.038001, 4.9386477 
9.3513376e+2, 2.7169782e+2, -294593.2, -443899.9, 20007.191, -0.00025001366, -0.0024820596, -291958.7, -14597.446, 0.0, 5.0362926, 4.938688 
9.3500566e+2, 2.7663282e+2, -255851.42, -408172.47, 15297.59, -0.00008892626, 0.00094806886, -254330.28, -25332.193, 0.0, 5.034074, 4.934905 
9.3487334e+2, 2.8156623e+2, -213733.11, -360520.34, 13795.362, 0.0005789781, -0.0030820444, -212447.84, -31796.977, 0.0, 5.031126, 4.93561 
9.347373e+2, 2.864983e+2, -177193.17, -324147.4, 10216.136, -0.0001905923, -0.00097543816, -176486.36, -44170.027, 0.0, 5.027804, 4.9324803 
9.3459797e+2, 2.9142973e+2, -136344.66, -275585.88, 8854.149, 0.00015228092, -0.003067797, -135783.9, -51795.42, 0.0, 5.0240645, 4.93381 
9.344564e+2, 2.9636133e+2, -100712.35, -238200.44, 6751.221, -0.0011882941, 0.008585979, -100381.63, -64723.008, 0.0, 5.0201583, 4.931166 
9.343132e+2, 3.012906e+2, -63398.547, -196389.69, 6448.9053, -0.0012699495, 0.0026456795, -63086.563, -63086.563, 0.0, 5.016137, 4.930144 
9.3417084e+2, 3.0622184e+2, -34572.516, -142573.83, 4731.4863, 0.006826277, -0.021075102, -34365.63, -34365.63, 0.0, 5.012295, 4.942304 
9.340269e+2, 3.1116763e+2, -40633.55, -132587.86, 4168.209, 0.0033565087, 0.008179219, -40444.996, -40444.996, 0.0, 5.0076027, 4.9479184 
9.3388146e+2, 3.1613454e+2, -12363.323, -46400.848, 311.15518, -0.018288357, 0.019339856, -12360.4795, -12360.4795, 0.0, 5.0036526, 4.9811673 
9.33741e+2, 3.211096e+2, -11946.44, -17806.41, -247.61446, 0.0021582476, -0.0067128525, -11935.996, -11935.996, 0.0, 4.9982705, 4.993759 
9.428152e+2, 1.276377e+2, -1661664.3, -1690683.3, 3322.605, 0.004092085, 0.0010809104, -1661288.8, 27862.227, 0.0, 5.0237274, 5.004422 
9.427139e+2, 1.3264029e+2, -1613311.1, -1645374.0, 5797.598, -0.007868162, -0.0010934041, -1612295.1, 27830.307, 0.0, 5.0242963, 5.003012 
9.4262034e+2, 1.376405e+2, -1566478.1, -1604773.6, 11261.572, -0.0007315638, 0.0020612201, -1563411.9, 27711.39, 0.0, 5.0252695, 4.9997325 
9.4252926e+2, 1.4263877e+2, -1516471.9, -1556802.6, 12930.921, 0.0060362467, -0.0020119327, -1512682.1, 29458.037, 0.0, 5.026016, 4.999092 
9.4244e+2, 1.4763531e+2, -1470620.9, -1516005.5, 16439.357, 0.00048687702, -0.00014124707, -1465291.9, 27882.195, 0.0, 5.026555, 4.9960804 
9.423524e+2, 1.5263028e+2, -1420943.6, -1468413.8, 17963.338, -0.0035793365, 0.00088438776, -1414912.4, 29310.945, 0.0, 5.0272017, 4.995364 
9.4226813e+2, 1.5762287e+2, -1374869.0, -1427935.1, 21419.26, -0.0006138444, 0.000895087, -1367302.4, 27993.553, 0.0, 5.027798, 4.9922457 
9.4218516e+2, 1.6261382e+2, -1325016.1, -1379752.1, 22593.777, 0.0020167786, -0.0011925836, -1316894.9, 29489.783, 0.0, 5.0284133, 4.9917364 
9.421032e+2, 1.6760291e+2, -1279130.3, -1339516.8, 25221.484, -0.00021036551, 0.00042511517, -1269982.0, 27509.686, 0.0, 5.029003, 4.9885216 
9.420222e+2, 1.725902e+2, -1229251.1, -1291423.8, 26263.768, -0.00095203076, -0.00020780523, -1219641.6, 28974.592, 0.0, 5.0296483, 4.9879637 
9.419424e+2, 1.7757526e+2, -1183423.4, -1251587.1, 28653.977, 0.00018192944, 0.0005384545, -1172978.6, 26783.951, 0.0, 5.0303044, 4.984558 
9.41863e+2, 1.8255845e+2, -1133295.5, -1203288.3, 29496.627, 0.00018865081, -0.0009415441, -1122523.0, 28404.371, 0.0, 5.0310225, 4.984025 
9.4178367e+2, 1.8753946e+2, -1087553.8, -1163936.1, 31428.771, -0.00013455524, 0.00045172128, -1076284.5, 25828.836, 0.0, 5.0317044, 4.980425 
9.417047e+2, 1.9251849e+2, -1037182.1, -1115479.8, 32057.273, 0.00012628756, -0.0006081147, -1025731.56, 27587.32, 0.0, 5.0324755, 4.979916 
9.4162506e+2, 1.9749524e+2, -991418.1, -1076568.6, 33624.96, -0.00012339796, 0.00068023975, -979741.25, 24805.477, 0.0, 5.0332103, 4.9761176 
9.415454e+2, 2.024698e+2, -941082.56, -1028306.9, 34204.336, 0.00008208412, -0.0009516553, -929269.44, 26526.467, 0.0, 5.03401, 4.975516 
9.414643e+2, 2.07442e+2, -895457.0, -990111.8, 34984.15, 0.00050787703, 0.0007594266, -883930.6, 23137.893, 0.0, 5.0347786, 4.97144 
9.4138247e+2, 2.1241185e+2, -845059.4, -941696.5, 35686.188, -0.0002759799, -0.0007117007, -833309.75, 25054.162, 0.0, 5.0355644, 4.970886 
9.4129854e+2, 2.1737917e+2, -799590.6, -904193.5, 35491.23, -0.00015401957, 0.00040995335, -788685.5, 20998.646, 0.0, 5.036353, 4.966541 
9.412132e+2, 2.2234412e+2, -749430.44, -856013.1, 36230.727, 0.00020633811, -0.0006748696, -738280.9, 22746.879, 0.0, 5.037074, 4.9659266 
9.4112504e+2, 2.2730629e+2, -704209.06, -819192.3, 35016.45, 0.000103377184, 0.0007651852, -694384.7, 18013.658, 0.0, 5.0378513, 4.96134 
9.410348e+2, 2.3226587e+2, -654386.56, -771340.9, 35919.83, -0.00004178554, -0.000913038, -644235.7, 19558.795, 0.0, 5.038489, 4.9606338 
9.4094104e+2, 2.3722255e+2, -609600.6, -735118.06, 33450.125, -0.0001458806, 0.0007630566, -601242.75, 13976.166, 0.0, 5.039134, 4.955883 
9.408441e+2, 2.4217664e+2, -560464.0, -687690.1, 34290.336, 0.00008514905, -0.00042785323, -551810.56, 14858.329, 0.0, 5.0395436, 4.955113 
9.407431e+2, 2.4712752e+2, -516367.6, -652199.2, 30537.727, -0.00016189808, 0.00031208346, -509817.9, 8332.39, 0.0, 5.0399446, 4.9502087 
9.4063807e+2, 2.5207585e+2, -468277.75, -605304.4, 30981.9, -0.000050180155, -0.0009467162, -461598.28, 8058.462, 0.0, 5.0399637, 4.949414 
9.405282e+2, 2.5702107e+2, -425322.16, -570243.7, 26155.074, -0.0008501218, 0.0014514155, -420746.25, 447.19125, 0.0, 5.0398436, 4.9445786 
9.4041365e+2, 2.619636e+2, -378826.66, -523658.3, 25916.936, 0.00023985465, -0.0018866125, -374328.63, -1571.8645, 0.0, 5.039176, 4.9439573 
9.402938e+2, 2.669035e+2, -337795.84, -488703.94, 20390.719, 0.00015154507, 0.0017433674, -335089.22, -10743.833, 0.0, 5.0381527, 4.9394503 
9.4016856e+2, 2.7184108e+2, -293231.0, -441939.16, 19213.938, -0.00029022904, -0.001727442, -290788.56, -14831.153, 0.0, 5.036514, 4.9393005 
9.400381e+2, 2.7677643e+2, -254420.4, -406914.3, 13742.725, -0.0007303792, 0.00095603813, -253191.81, -25601.027, 0.0, 5.034442, 4.935217 
9.399028e+2, 2.817102e+2, -212084.4, -359080.34, 11956.915, 0.00055124104, -0.0014810967, -211118.16, -31878.441, 0.0, 5.031551, 4.935967 
9.397632e+2, 2.8664258e+2, -175897.38, -323381.53, 7989.614, -0.00043022857, 0.0008649599, -175465.83, -44563.375, 0.0, 5.0281796, 4.9326167 
9.396199e+2, 2.9157394e+2, -135448.88, -274877.03, 6591.7065, -0.0017735255, -0.0035172056, -135137.92, -52562.992, 0.0, 5.0242763, 4.9339976 
9.394746e+2, 2.9650536e+2, -100351.195, -238558.02, 4263.9287, -0.0006201467, 0.0065733483, -100219.77, -65972.79, 0.0, 5.02033, 4.9310007 
9.3932736e+2, 3.014346e+2, -62975.758, -196173.33, 4034.245, -0.0015224047, 0.00014451185, -62853.684, -62853.684, 0.0, 5.0162277, 4.930216 
9.3918085e+2, 3.0636647e+2, -35291.723, -144167.66, 2033.869, 0.0059572067, -0.016030835, -35253.742, -35253.742, 0.0, 5.012232, 4.9417853 
9.3903214e+2, 3.1131193e+2, -42220.51, -136105.11, 852.268, -0.00023255851, 0.017899238, -42212.773, -42212.773, 0.0, 5.0075183, 4.9467053 
9.3888324e+2, 3.1627396e+2, -12932.363, -48733.207, -1664.892, -0.0068668434, -0.023715217, -12855.105, -12855.105, 0.0, 5.003756, 4.9802995 
9.387379e+2, 3.2125407e+2, -11480.125, -15074.038, 2207.6772, 0.00696053, 0.010682968, -10430.524, -10430.524, 0.0, 4.9979186, 4.9948297 
9.4783443e+2, 1.2773989e+2, -1667219.5, -1690879.5, 1179.7599, -0.018584386, -0.0018851011, -1667160.8, 20988.277, 0.0, 5.021362, 5.0055113 
9.477396e+2, 1.3274404e+2, -1618055.3, -1645288.6, 4671.5283, 0.025318379, 0.001612732, -1617276.3, 21832.273, 0.0, 5.0222044, 5.0040655 
9.4764334e+2, 1.3774501e+2, -1570554.6, -1604630.9, 9952.204, -0.005076637, 0.0018467834, -1567861.0, 22238.05, 0.0, 5.02344, 5.0006814 
9.4755214e+2, 1.4274424e+2, -1520089.0, -1556527.5, 11233.073, -0.007874062, -0.0024134396, -1516904.5, 24202.094, 0.0, 5.024346, 5.00001 
9.47465e+2, 1.4774184e+2, -1473806.3, -1515460.5, 14692.883, 0.0022579934, 0.0002489669, -1469145.1, 22985.012, 0.0, 5.0249934, 4.9970417 
9.473786e+2, 1.5273783e+2, -1423807.6, -1467645.8, 16293.438, 0.0015935301, 0.0012997893, -1418415.1, 24754.363, 0.0, 5.0257187, 4.9963665 
9.472944e+2, 1.5773146e+2, -1377396.1, -1426916.5, 19737.643, -0.0009818827, 0.0009360958, -1370491.8, 23740.14, 0.0, 5.026383, 4.993315 
9.4721204e+2, 1.6272351e+2, -1327432.4, -1378655.1, 20970.365, 0.00046231376, -0.0011089507, -1319942.4, 25367.432, 0.0, 5.027028, 4.9928184 
9.471309e+2, 1.6771375e+2, -1281337.4, -1338095.6, 23738.766, 0.00044573972, 0.0004964631, -1272717.9, 23687.639, 0.0, 5.0276413, 4.989706 
9.470506e+2, 1.7270227e+2, -1231304.4, -1289778.9, 24882.34, 0.000059357088, 0.000057113393, -1222149.5, 25368.352, 0.0, 5.0283184, 4.989203 
9.469713e+2, 1.7768867e+2, -1185156.9, -1249395.5, 27464.043, 0.000086586515, 0.0007775688, -1175016.0, 23635.098, 0.0, 5.0290165, 4.9859514 
9.468927e+2, 1.826733e+2, -1134834.5, -1200923.4, 28379.213, 0.00017890803, -0.00037219838, -1124320.8, 25480.865, 0.0, 5.0297904, 4.9854484 
9.468141e+2, 1.8765587e+2, -1088789.9, -1161066.6, 30518.93, 0.000030455913, 0.0011832687, -1077627.1, 23345.508, 0.0, 5.0305037, 4.9820013 
9.467359e+2, 1.9263649e+2, -1038371.9, -1112519.3, 31328.8, 0.000081945895, 0.00021994907, -1026907.44, 25255.146, 0.0, 5.031281, 4.981514 
9.4665706e+2, 1.9761491e+2, -992368.94, -1073174.3, 33130.508, -0.00000050347063, 0.0011832479, -980522.2, 22851.846, 0.0, 5.0320187, 4.9778543 
9.465782e+2, 2.0259127e+2, -941861.06, -1024662.25, 33922.168, 0.00015803734, -0.00038435534, -929738.56, 24867.074, 0.0, 5.0328493, 4.9773245 
9.4649786e+2, 2.0756535e+2, -895880.2, -985956.75, 35015.492, 0.00035851693, 0.00090855797, -883869.94, 21989.715, 0.0, 5.033674, 4.973398 
9.464168e+2, 2.125372e+2, -845259.6, -937298.1, 36002.516, -0.0000041381027, -0.00060687296, -832849.9, 24285.646, 0.0, 5.0345197, 4.972907 
9.463337e+2, 2.175066e+2, -799407.75, -899308.6, 36278.38, 0.00010477818, 0.0004781519, -787623.56, 20811.785, 0.0, 5.0354023, 4.9686904 
9.462491e+2, 2.2247368e+2, -748910.44, -850892.4, 37502.117, 0.00034388606, -0.00030753345, -736604.56, 23153.35, 0.0, 5.0362463, 4.968094 
9.461618e+2, 2.2743802e+2, -703361.6, -813614.25, 36778.65, 0.00016851137, 0.00065326825, -692218.94, 18888.484, 0.0, 5.037119, 4.9636 
9.460722e+2, 2.3239987e+2, -653016.1, -765315.75, 38176.055, 0.00016549705, -0.0007414018, -641267.44, 21213.865, 0.0, 5.037926, 4.962971 
9.459791e+2, 2.373588e+2, -607704.06, -728818.4, 36307.94, 0.00021155864, 0.00037299562, -597653.56, 16230.284, 0.0, 5.038788, 4.9582095 
9.4588274e+2, 2.4231511e+2, -557825.75, -681023.4, 37782.105, 0.00006822241, -0.0007893488, -547161.8, 18150.084, 0.0, 5.0394793, 4.957442 
9.457821e+2, 2.4726819e+2, -512981.2, -645297.8, 34628.41, -0.00035277673, 0.00050732587, -504466.56, 12305.176, 0.0, 5.0402184, 4.9524636 
9.4567734e+2, 2.5221854e+2, -463952.3, -597933.94, 35907.45, 0.0007757372, -0.0009483703, -454935.8, 13322.342, 0.0, 5.0406075, 4.9516597 
9.4556737e+2, 2.5716567e+2, -420306.88, -562817.0, 31492.621, -0.00006686586, 0.0009780206, -413657.72, 6118.6016, 0.0, 5.0408554, 4.9466567 
9.4545233e+2, 2.6211005e+2, -372619.25, -515835.97, 31998.102, 0.0005058819, -0.0013813429, -365795.25, 5526.115, 0.0, 5.0406737, 4.9459686 
9.4533134e+2, 2.670513e+2, -330983.28, -481892.13, 26701.111, -0.00038565524, 0.0009802008, -326398.22, -3501.187, 0.0, 5.0401125, 4.9409113 
9.452048e+2, 2.7199015e+2, -285248.94, -434619.9, 25957.066, -0.000063498235, -0.0010623757, -280866.8, -6370.452, 0.0, 5.0389237, 4.940761 
9.4507194e+2, 2.7692637e+2, -246593.78, -400902.3, 20225.064, -0.0014968651, 0.001995497, -243986.94, -17865.398, 0.0, 5.037016, 4.9361734 
9.449337e+2, 2.8186068e+2, -204801.53, -353472.8, 18469.902, -0.000044165616, -0.00027133457, -202541.31, -24776.26, 0.0, 5.033963, 4.9368434 
9.447905e+2, 2.867934e+2, -170306.1, -318861.66, 14075.859, 0.00079811004, 0.001891492, -168984.16, -39559.863, 0.0, 5.0300593, 4.933276 
9.4464314e+2, 2.9172492e+2, -130790.555, -270497.8, 12817.826, 0.0010234194, -0.004752723, -129624.28, -48528.645, 0.0, 5.0257688, 4.934778 
9.4449365e+2, 2.9665646e+2, -96319.07, -235070.02, 11139.134, 0.0011467696, 0.004212219, -95430.49, -62664.24, 0.0, 5.0217266, 4.931519 
9.443424e+2, 3.015859e+2, -58719.176, -193388.2, 10767.282, -0.00022908323, 0.00034836662, -57863.727, -57863.727, 0.0, 5.017813, 4.930434 
9.441909e+2, 3.0651778e+2, -31337.014, -142364.39, 8362.853, 0.00008809826, -0.009796584, -30710.639, -30710.639, 0.0, 5.0139422, 4.941563 
9.44038e+2, 3.1146216e+2, -36191.543, -131980.97, 7678.992, -0.0073663853, 0.015389069, -35579.86, -35579.86, 0.0, 5.009721, 4.947089 
9.4388753e+2, 3.1642407e+2, -5966.014, -47361.734, 2211.685, 0.013707503, -0.007309942, -5848.1836, -5848.1836, 0.0, 5.0068517, 4.979349 
9.437341e+2, 3.2140037e+2, -9766.854, -16999.455, 1643.8732, 0.002935365, -0.00019295097, -9410.756, -9410.756, 0.0, 4.9991446, 4.993631 
9.528555e+2, 1.2784098e+2, -1668474.9, -1689201.8, 2547.0508, -0.0071722805, -0.0011881591, -1668166.5, 18991.916, 0.0, 5.020434, 5.006539 
9.527602e+2, 1.3284598e+2, -1617130.0, -1642694.5, 5598.433, 0.01932233, 0.00060485647, -1615957.8, 22151.734, 0.0, 5.0220513, 5.005013 
9.5266557e+2, 1.3784796e+2, -1571147.5, -1602724.3, 10653.572, -0.0053127357, 0.0017474076, -1567889.4, 21200.832, 0.0, 5.0227823, 5.0016394 
9.525757e+2, 1.428482e+2, -1520802.5, -1554740.0, 12043.962, -0.0047928477, -0.0019151173, -1516962.8, 23125.271, 0.0, 5.0236597, 5.000945 
9.524892e+2, 1.4784667e+2, -1473735.8, -1513084.1, 15488.899, 0.0024929806, -0.0000052004757, -1468370.4, 22732.537, 0.0, 5.024526, 4.99807 
9.5240337e+2, 1.5284364e+2, -1423512.0, -1465050.5, 17109.758, 0.00085864513, 0.0007014499, -1417372.1, 24760.445, 0.0, 5.0253077, 4.9974422 
9.5232e+2, 1.5783843e+2, -1377109.6, -1423998.1, 20405.928, -0.001397838, 0.000743612, -1369472.8, 23710.674, 0.0, 5.025906, 4.9945292 
9.5223826e+2, 1.6283172e+2, -1327116.1, -1375681.8, 21600.758, 0.0002325586, -0.0009943319, -1318899.0, 25350.385, 0.0, 5.026556, 4.99405 
9.5215786e+2, 1.6782323e+2, -1280727.6, -1334696.5, 24342.076, 0.00017087655, 0.000410072, -1271370.6, 23962.023, 0.0, 5.0272202, 4.991053 
9.5207816e+2, 1.7281307e+2, -1230624.4, -1286288.6, 25440.549, -0.00032612178, 0.000015955462, -1220749.1, 25682.887, 0.0, 5.027909, 4.9905787 
9.519996e+2, 1.7780092e+2, -1184415.3, -1245535.4, 28079.611, -0.0002574781, 0.00040549517, -1173473.6, 24077.566, 0.0, 5.0285516, 4.9874797 
9.5192176e+2, 1.8278706e+2, -1134206.5, -1197100.8, 28949.236, 0.00020272279, -0.00079797953, -1122910.4, 25776.6, 0.0, 5.0292864, 4.9869843 
9.51844e+2, 1.8777123e+2, -1087900.6, -1156684.4, 31156.246, 0.00023409292, 0.00054077234, -1075886.5, 23955.68, 0.0, 5.030002, 4.983728 
9.5176655e+2, 1.9275351e+2, -1037473.75, -1108114.1, 31985.795, 0.000054784392, -0.00089812424, -1025143.06, 25872.682, 0.0, 5.030782, 4.9832544 
9.5168847e+2, 1.9773379e+2, -991212.4, -1068180.3, 33801.13, -0.0001100375, 0.00031771022, -978475.9, 23733.049, 0.0, 5.031522, 4.9797993 
9.5161045e+2, 2.0271216e+2, -940649.75, -1019543.56, 34557.063, 0.0002926358, -0.0005850693, -927653.8, 25767.1, 0.0, 5.0323477, 4.9793215 
9.515309e+2, 2.0768835e+2, -894379.7, -980237.5, 35663.813, 0.0001860022, 0.00056261464, -881498.25, 23156.15, 0.0, 5.033174, 4.975603 
9.514507e+2, 2.1266244e+2, -843708.94, -931453.8, 36602.67, -0.00008983202, -0.00052606926, -830445.1, 25462.965, 0.0, 5.0340204, 4.975159 
9.513684e+2, 2.1763423e+2, -797557.3, -892849.6, 36894.703, 0.00017791144, 0.00058880803, -784942.56, 22242.074, 0.0, 5.034922, 4.9711423 
9.512847e+2, 2.2260371e+2, -746995.4, -844388.2, 38075.754, 0.000061913604, -0.0006239743, -733876.7, 24607.023, 0.0, 5.035793, 4.970557 
9.5119816e+2, 2.275706e+2, -701196.8, -806683.1, 37347.77, 0.00003648331, 0.00031950625, -689312.6, 20495.734, 0.0, 5.0367002, 4.9661956 
9.5110935e+2, 2.325351e+2, -650717.1, -758220.1, 38661.49, -0.00011587651, -0.00037532212, -638257.4, 22898.701, 0.0, 5.037538, 4.965617 
9.51017e+2, 2.3749669e+2, -605286.0, -721497.6, 36784.797, 0.00022786458, 0.00035042074, -594621.1, 17911.432, 0.0, 5.0384345, 4.9609127 
9.509213e+2, 2.4245569e+2, -555365.44, -673805.4, 38245.98, -0.00007387543, -0.0006689388, -544088.9, 19845.426, 0.0, 5.0391645, 4.960105 
9.5082116e+2, 2.4741147e+2, -510425.34, -637969.06, 35002.305, -0.00080167357, 0.0011559338, -501451.0, 13916.521, 0.0, 5.0399337, 4.955151 
9.5071685e+2, 2.5236446e+2, -461532.0, -590849.44, 36432.08, 0.00048207087, -0.00051640044, -451974.5, 14853.661, 0.0, 5.0403233, 4.954268 
9.5060694e+2, 2.57314e+2, -417779.4, -556252.25, 31665.713, -0.00059070915, 0.0010013293, -410881.75, 7441.076, 0.0, 5.0407224, 4.94902 
9.5049167e+2, 2.6226074e+2, -369806.72, -509298.03, 32115.06, -0.00010040632, -0.0005933232, -362768.03, 7076.7246, 0.0, 5.0406775, 4.94827 
9.5036995e+2, 2.672038e+2, -328562.72, -477228.6, 26388.777, -0.00048601764, 0.00049343106, -324017.56, -2614.8523, 0.0, 5.0402822, 4.94249 
9.502421e+2, 2.7214414e+2, -283121.75, -430500.7, 25506.912, 0.0000048233674, -0.0017065634, -278832.13, -5844.694, 0.0, 5.039085, 4.9421444 
9.501071e+2, 2.770815e+2, -244929.66, -398152.44, 18860.723, -0.00045026292, 0.0021841903, -242642.17, -18040.793, 0.0, 5.037212, 4.9370704 
9.4996566e+2, 2.8201646e+2, -203444.16, -351785.2, 17024.557, -0.00017570518, -0.0015788664, -201515.39, -25276.795, 0.0, 5.034225, 4.937341 
9.498184e+2, 2.8694975e+2, -168206.47, -316687.75, 11779.623, 0.0001214452, 0.0018300056, -167277.75, -39385.84, 0.0, 5.0305443, 4.9338527 
9.496666e+2, 2.9188192e+2, -128894.71, -268528.4, 10254.427, -0.00026952915, -0.0029225764, -128145.664, -48588.934, 0.0, 5.026197, 4.935319 
9.495129e+2, 2.9681367e+2, -95438.69, -234355.98, 9206.124, -0.0005512195, 0.0031787297, -94831.25, -63605.367, 0.0, 5.0219617, 4.93168 
9.493578e+2, 3.0174327e+2, -59030.863, -194182.8, 8602.094, -0.00092228135, 0.0018506313, -58485.563, -58485.563, 0.0, 5.017806, 4.93015 
9.492015e+2, 3.0667457e+2, -31969.002, -144676.42, 5744.1626, -0.0073823226, -0.009438016, -31677.006, -31677.006, 0.0, 5.0140643, 4.9406934 
9.490441e+2, 3.116178e+2, -36560.313, -134008.84, 5099.7856, -0.02064341, 0.0128651345, -36294.152, -36294.152, 0.0, 5.0099154, 4.9462833 
9.488932e+2, 3.1657758e+2, -9368.318, -53666.785, 989.5158, 0.033759292, -0.030096985, -9346.226, -9346.226, 0.0, 5.0064855, 4.9772086 
9.4872653e+2, 3.215515e+2, -11306.911, -17602.697, -2857.8809, -0.045243092, -0.017398393, -10203.132, -10203.132, 0.0, 4.9984994, 4.9936104 
9.578763e+2, 1.2794085e+2, -1673170.4, -1688943.4, 1560.3116, 0.016928578, 0.0015021582, -1673017.5, 13162.449, 0.0, 5.0183992, 5.0076046 
9.5777595e+2, 1.3294615e+2, -1621505.6, -1642498.9, 3599.4185, -0.026641404, -0.0033006414, -1620905.6, 16222.28, 0.0, 5.0201163, 5.0060186 
9.576872e+2, 1.3794966e+2, -1574506.0, -1602312.4, 8536.302, 0.0003098262, 0.0028253377, -1572094.6, 15998.96, 0.0, 5.02119, 5.0025663 
9.575993e+2, 1.4295097e+2, -1523900.0, -1554285.5, 9960.449, 0.011736062, 0.000242734, -1520926.0, 18154.703, 0.0, 5.0221577, 5.0018477 
9.575119e+2, 1.4795023e+2, -1476592.3, -1512450.9, 13249.777, 0.0005545664, -0.00008949568, -1472227.8, 17860.34, 0.0, 5.023059, 4.9990215 
9.574264e+2, 1.5294817e+2, -1426350.9, -1464429.9, 14737.809, -0.0058241715, 0.00023629086, -1421313.3, 19794.88, 0.0, 5.023834, 4.9984045 
9.5734453e+2, 1.5794416e+2, -1379766.3, -1423025.4, 17950.613, -0.00039108683, 0.0010724814, -1373287.8, 18859.824, 0.0, 5.024429, 4.995624 
9.5726365e+2, 1.629386e+2, -1329763.1, -1374650.4, 19238.13, 0.0034032005, -0.00035571586, -1322646.3, 20555.691, 0.0, 5.025078, 4.995161 
9.571836e+2, 1.6793129e+2, -1283167.8, -1333183.4, 22005.553, 0.00008904582, 0.00074015424, -1274864.4, 19409.273, 0.0, 5.0257573, 4.9923086 
9.571046e+2, 1.7292248e+2, -1232891.1, -1284554.6, 23092.016, -0.0014776058, 0.0006447384, -1224074.4, 21285.637, 0.0, 5.0264707, 4.9918957 
9.5702684e+2, 1.7791176e+2, -1186429.3, -1243421.8, 25774.1, 0.000027378606, 0.0011979458, -1176502.3, 19962.742, 0.0, 5.0271163, 4.98892 
9.569498e+2, 1.8289942e+2, -1136102.3, -1194720.8, 26683.018, 0.0009992208, -0.00020311237, -1125775.4, 21810.48, 0.0, 5.0278463, 4.9885106 
9.5687264e+2, 1.8788525e+2, -1089571.5, -1153813.9, 29016.545, 0.00028168486, 0.0006294708, -1078406.1, 20318.646, 0.0, 5.0285482, 4.9854264 
9.567959e+2, 1.9286935e+2, -1039135.7, -1105112.9, 29912.613, -0.000034698696, -0.00060319435, -1027593.25, 22287.328, 0.0, 5.029309, 4.9850144 
9.5671856e+2, 1.978516e+2, -992505.6, -1064461.9, 31985.607, -0.00008743973, 0.0006777335, -980343.3, 20711.36, 0.0, 5.0300674, 4.9818163 
9.5664144e+2, 2.0283201e+2, -942028.8, -1015683.75, 32961.574, 0.0008109192, -0.00019609832, -929432.3, 22814.139, 0.0, 5.030832, 4.981411 
9.5656264e+2, 2.0781045e+2, -895597.75, -975698.44, 34389.125, 0.0003848713, 0.0006950706, -882859.44, 20598.49, 0.0, 5.031595, 4.9779534 
9.5648324e+2, 2.1278694e+2, -845006.3, -926850.06, 35632.6, -0.00013767566, -0.000116639516, -831667.0, 23021.129, 0.0, 5.0324035, 4.977544 
9.5640177e+2, 2.1776128e+2, -798694.8, -887565.4, 36327.3, 0.00044290387, 0.00087120413, -785735.25, 20204.4, 0.0, 5.0332484, 4.973779 
9.56319e+2, 2.2273345e+2, -748059.44, -838771.3, 37871.117, 0.0003070661, -0.00017773591, -734327.44, 22884.777, 0.0, 5.034104, 4.9733195 
9.5623326e+2, 2.2770321e+2, -701935.7, -800319.94, 37766.773, 0.00026022413, 0.00060713675, -689110.1, 19398.389, 0.0, 5.03503, 4.969201 
9.561454e+2, 2.3267074e+2, -651220.75, -751616.8, 39659.72, 0.00020041926, 0.00006915283, -637444.3, 22382.516, 0.0, 5.035941, 4.968672 
9.5605385e+2, 2.3763546e+2, -605421.9, -714020.75, 38493.793, 0.0002923576, 0.0006935613, -593161.56, 18010.963, 0.0, 5.036889, 4.9642158 
9.5595896e+2, 2.4259773e+2, -555054.8, -665892.56, 40770.973, 0.00069846684, -0.00022620536, -541673.06, 20869.166, 0.0, 5.037748, 4.9635034 
9.558595e+2, 2.4755687e+2, -509550.66, -629273.56, 38348.45, -0.0004360098, 0.00071132416, -498320.63, 15622.125, 0.0, 5.038673, 4.9587255 
9.5575565e+2, 2.5251323e+2, -459742.16, -581521.75, 40683.418, 0.00076179585, -0.0020934753, -447401.47, 17968.838, 0.0, 5.03939, 4.957916 
9.5564616e+2, 2.5746623e+2, -415372.28, -546676.4, 37135.246, 0.00039908444, -0.00026286938, -405597.44, 11233.688, 0.0, 5.040121, 4.9525843 
9.55531e+2, 2.624163e+2, -365981.88, -499037.9, 39033.664, -0.00009483634, -0.0005306226, -355376.22, 12943.995, 0.0, 5.040636, 4.9518037 
9.554089e+2, 2.6736242e+2, -323505.94, -466781.38, 34077.613, -0.0014397573, 0.00032896272, -315813.66, 4034.4988, 0.0, 5.0408754, 4.9457603 
9.5528054e+2, 2.7230558e+2, -276356.72, -419667.1, 34920.67, 0.0020857677, -0.0010520595, -268300.44, 3104.8484, 0.0, 5.040448, 4.94519 
9.5514375e+2, 2.772449e+2, -237065.03, -388757.03, 28367.748, 0.0015188401, 0.00042920187, -231933.61, -8933.94, 0.0, 5.0393424, 4.9392357 
9.549992e+2, 2.8218138e+2, -194624.4, -342834.44, 26987.713, -0.00067272695, -0.0050710537, -189863.14, -15240.923, 0.0, 5.036921, 4.939108 
9.548477e+2, 2.871155e+2, -161423.88, -310848.47, 21084.443, -0.0016838481, -0.0006388915, -158505.75, -32237.959, 0.0, 5.0328565, 4.934778 
9.546912e+2, 2.9204836e+2, -125817.22, -264149.1, 18524.857, 0.00074761146, -0.0015257554, -123379.4, -45453.723, 0.0, 5.027065, 4.936356 
9.545325e+2, 2.9698074e+2, -93916.76, -230671.81, 19163.809, -0.002278719, 0.006731337, -91282.05, -61693.63, 0.0, 5.022383, 4.93258 
9.543744e+2, 3.019102e+2, -53322.895, -188899.83, 20217.854, 0.00038537467, 0.0011591982, -50372.137, -50372.137, 0.0, 5.0199037, 4.9308777 
9.542176e+2, 3.0683878e+2, -23158.855, -146868.06, 16177.76, 0.01280968, -0.017544383, -21078.242, -21078.242, 0.0, 5.018882, 4.9375834 
9.540579e+2, 3.1177992e+2, -19018.625, -129271.195, 10701.327, 0.0036234856, 0.013758894, -17989.54, -17989.54, 0.0, 5.017141, 4.944813 
9.5389444e+2, 3.1674287e+2, 2831.6213, -43948.297, 1898.4282, -0.001968029, 0.015271252, 2908.537, 2908.537, 0.0, 5.010238, 4.9791646 
9.537279e+2, 3.2171792e+2, -12614.282, -18923.646, 1771.7794, 0.010997659, 0.025550311, -12150.785, -12150.785, 0.0, 4.998226, 4.993275 
9.6289325e+2, 1.2803864e+2, -1672900.3, -1686741.0, 2897.8193, 0.012373169, 0.0013201501, -1672318.0, 12903.656, 0.0, 5.018037, 5.0085297 
9.627953e+2, 1.3304491e+2, -1623015.1, -1641351.3, 4817.618, -0.020436078, -0.0022056487, -1621826.5, 14333.844, 0.0, 5.019203, 5.006857 
9.6270734e+2, 1.3804911e+2, -1574886.9, -1600458.9, 9289.718, -0.0003209161, 0.0022526402, -1571868.4, 15250.618, 0.0, 5.020641, 5.003448 
9.6262074e+2, 1.4305133e+2, -1523725.1, -1552047.5, 10734.261, 0.013181513, -0.0004031785, -1520116.6, 17980.756, 0.0, 5.021763, 5.0027895 
9.6253407e+2, 1.4805163e+2, -1476761.8, -1510145.5, 13903.503, 0.0003027182, -0.00014684387, -1471729.8, 17364.494, 0.0, 5.0225067, 5.0000634 
9.6244925e+2, 1.5305063e+2, -1426443.4, -1462032.4, 15386.452, -0.007454696, 0.0006216352, -1420713.6, 19390.463, 0.0, 5.0232997, 4.9994707 
9.623682e+2, 1.5804769e+2, -1379304.0, -1419997.9, 18438.92, -0.0006908327, 0.0009311209, -1372192.0, 18940.91, 0.0, 5.0240073, 4.9968486 
9.622881e+2, 1.6304332e+2, -1329244.9, -1371559.9, 19719.365, 0.0043644435, -0.00072726794, -1321480.1, 20695.541, 0.0, 5.024668, 4.9964046 
9.622086e+2, 1.6803728e+2, -1282571.6, -1329763.0, 22508.156, 0.000007129184, 0.00018215206, -1273557.9, 19676.955, 0.0, 5.025318, 4.9936767 
9.621303e+2, 1.730298e+2, -1232341.8, -1281080.1, 23574.389, -0.0020577065, -0.00019117912, -1222805.1, 21503.176, 0.0, 5.025999, 4.9933014 
9.620533e+2, 1.7802057e+2, -1185771.0, -1239528.6, 26252.232, -0.00009937002, 0.00045261072, -1175077.9, 20320.775, 0.0, 5.0266104, 4.9904833 
9.61977e+2, 1.8300985e+2, -1135469.3, -1190670.8, 27183.367, 0.0012417561, -0.0006313586, -1124330.6, 22173.225, 0.0, 5.0272994, 4.9901485 
9.6190053e+2, 1.8799746e+2, -1088736.0, -1149138.8, 29506.146, 0.000042669242, 0.00055500085, -1076714.9, 20910.14, 0.0, 5.027969, 4.98729 
9.6182454e+2, 1.9298352e+2, -1038279.25, -1100273.6, 30391.48, -0.0004456531, 0.00009874947, -1025866.0, 22895.723, 0.0, 5.0287013, 4.9869533 
9.6174794e+2, 1.979678e+2, -991304.3, -1058851.0, 32498.412, -0.00045731355, 0.00089412095, -978207.8, 21707.91, 0.0, 5.029446, 4.9840336 
9.616716e+2, 2.0295043e+2, -940818.44, -1009960.4, 33447.496, 0.0008653657, -0.00020842729, -927286.5, 23799.38, 0.0, 5.0301933, 4.9836817 
9.6159357e+2, 2.079313e+2, -893855.7, -968977.06, 34879.66, 0.00051067024, 0.0005144706, -880158.25, 22115.25, 0.0, 5.0309944, 4.980554 
9.6151495e+2, 2.1291037e+2, -843188.06, -920028.8, 36108.05, -0.0004383629, -0.0005699736, -828883.5, 24595.01, 0.0, 5.031825, 4.980174 
9.6143436e+2, 2.178875e+2, -796383.8, -879708.75, 36850.074, 0.00025032696, 0.00025376296, -782425.4, 22277.236, 0.0, 5.032691, 4.976758 
9.613524e+2, 2.2286277e+2, -745579.75, -830685.1, 38360.832, 0.00035151414, -0.00021030693, -730841.25, 25103.842, 0.0, 5.033577, 4.976374 
9.612676e+2, 2.2783579e+2, -698981.44, -791149.06, 38302.715, 0.00009866824, 0.000513158, -685141.8, 22067.645, 0.0, 5.034506, 4.972635 
9.6118057e+2, 2.3280668e+2, -648288.06, -742395.75, 40128.66, 0.000007236816, -0.00053969235, -633500.4, 24994.252, 0.0, 5.0354037, 4.9721403 
9.610898e+2, 2.3777507e+2, -601997.0, -703762.3, 38970.395, -0.0003109073, 0.00020038067, -588788.0, 21016.418, 0.0, 5.03638, 4.968035 
9.6099585e+2, 2.4274117e+2, -551587.1, -655454.7, 41178.758, 0.0003857033, -0.0007255267, -537242.7, 23894.01, 0.0, 5.03723, 4.967401 
9.608971e+2, 2.4770436e+2, -505729.56, -618096.06, 38747.66, -0.00041656313, 0.0007171947, -493663.72, 18833.576, 0.0, 5.0381956, 4.9628625 
9.60794e+2, 2.5266495e+2, -455577.97, -570096.3, 40995.16, -0.00032338226, -0.0006498621, -442415.44, 21467.912, 0.0, 5.0390186, 4.9621077 
9.60685e+2, 2.5762212e+2, -411030.63, -535016.94, 37420.02, 0.000716358, 0.00018368894, -400612.4, 14690.899, 0.0, 5.039799, 4.9568253 
9.6057034e+2, 2.6257646e+2, -361934.88, -487693.75, 39686.652, 0.00025006183, 0.000033249133, -350458.03, 16292.738, 0.0, 5.0402713, 4.9559627 
9.604479e+2, 2.6752675e+2, -319149.34, -455781.22, 34169.547, -0.0040956973, 0.0018422382, -311080.56, 7157.4395, 0.0, 5.0407023, 4.949729 
9.603193e+2, 2.7247348e+2, -272027.97, -409486.1, 35321.715, 0.0018106, -0.0015392359, -263482.8, 6277.091, 0.0, 5.040455, 4.9487953 
9.601813e+2, 2.7741587e+2, -233217.9, -381733.78, 27265.45, 0.0017219601, 0.0016151009, -228370.56, -7046.188, 0.0, 5.0397334, 4.9415736 
9.60034e+2, 2.8235468e+2, -190908.28, -336978.78, 25268.223, -0.0030886498, -0.00057982106, -186660.73, -13736.565, 0.0, 5.037464, 4.9409747 
9.59878e+2, 2.872894e+2, -159175.4, -309714.28, 17928.889, -0.0027915854, 0.0005251024, -157069.56, -32505.998, 0.0, 5.033545, 4.9349403 
9.5971614e+2, 2.9222214e+2, -124080.555, -263060.44, 14886.469, 0.0047821132, -0.0041703745, -122503.914, -46281.28, 0.0, 5.0275354, 4.936602 
9.5955205e+2, 2.9715574e+2, -93013.12, -227983.78, 17875.29, -0.004373953, 0.010519609, -90685.87, -62812.297, 0.0, 5.0223317, 4.933528 
9.59391e+2, 3.020854e+2, -54474.063, -188992.27, 19646.563, -0.006608541, -0.0012410892, -51663.383, -51663.383, 0.0, 5.019498, 4.9309645 
9.592359e+2, 3.0700925e+2, -34676.32, -165443.28, 16668.998, 0.03262878, -0.036610868, -32584.953, -32584.953, 0.0, 5.017316, 4.931552 
9.590766e+2, 3.1194702e+2, -30062.26, -142858.1, 8831.599, 0.04615721, 0.02049704, -29374.959, -29374.959, 0.0, 5.0147943, 4.9408946 
9.5889455e+2, 3.1691158e+2, 7270.548, -33779.473, -6196.739, -0.06626742, 0.023171552, 8185.5845, 8185.5845, 0.0, 5.010083, 4.983098 
9.587334e+2, 3.2188848e+2, -10367.093, -18082.633, 2023.1907, 0.10233791, 0.024802024, -9868.753, -9868.753, 0.0, 4.9989266, 4.9932504 
9.6790737e+2, 1.281344e+2, -1676766.9, -1686604.6, -42.953068, -0.008564825, -0.00033155875, -1676766.6, 7516.9907, 0.0, 5.0163527, 5.0093746 
9.6781623e+2, 1.3314234e+2, -1626214.1, -1641150.4, 2864.1377, 0.011995032, 0.003466797, -1625683.8, 9522.158, 0.0, 5.0177712, 5.0076184 
9.6772563e+2, 1.3814664e+2, -1577416.1, -1599975.8, 7059.8774, -0.007600999, 0.00087751827, -1575389.0, 10774.41, 0.0, 5.019389, 5.004245 
9.6763974e+2, 1.4314958e+2, -1526159.5, -1551324.9, 7946.731, 0.0012067691, -0.003409496, -1523860.1, 13274.178, 0.0, 5.02048, 5.0036774 
9.6755534e+2, 1.4815123e+2, -1479145.9, -1509368.0, 10959.868, 0.0030495818, 0.0004298821, -1475589.8, 12528.358, 0.0, 5.0212073, 5.0009913 
9.6747154e+2, 1.5315127e+2, -1429031.1, -1461423.4, 12407.123, -0.0032097404, 0.001857651, -1424825.0, 14292.735, 0.0, 5.0219464, 5.0003705 
9.6739066e+2, 1.5814918e+2, -1381810.9, -1419128.9, 15235.628, -0.0015834875, 0.00044692916, -1376380.9, 13757.508, 0.0, 5.0226226, 4.997862 
9.6731126e+2, 1.6314593e+2, -1331684.6, -1370491.3, 16415.252, 0.003240301, -0.0012081255, -1325672.4, 15497.857, 0.0, 5.023269, 4.997491 
9.672326e+2, 1.6814122e+2, -1284803.4, -1328293.4, 19166.6, 0.0006566757, 0.00065727055, -1277562.1, 14654.277, 0.0, 5.0239143, 4.9948993 
9.67155e+2, 1.7313504e+2, -1234485.6, -1279463.8, 20155.307, -0.0014355816, 0.0001890825, -1226775.5, 16501.41, 0.0, 5.0246053, 4.9945636 
9.670785e+2, 1.7812724e+2, -1187648.5, -1237272.3, 22811.873, -0.00053189555, 0.0005994789, -1178755.6, 15597.639, 0.0, 5.025204, 4.9919634 
9.6700287e+2, 1.831181e+2, -1137372.9, -1188298.1, 23741.275, 0.0012994846, -0.00031118622, -1128021.9, 17420.973, 0.0, 5.0258546, 4.991685 
9.669271e+2, 1.8810752e+2, -1090485.0, -1146160.6, 26093.25, 0.00037453024, 0.0011845847, -1080167.9, 16378.791, 0.0, 5.026468, 4.9890575 
9.668518e+2, 1.9309545e+2, -1040087.25, -1097097.3, 27000.303, -0.00047015407, 0.0004756526, -1029329.6, 18335.355, 0.0, 5.027119, 4.988828 
9.667759e+2, 1.9808176e+2, -993046.25, -1055153.1, 29156.389, -0.0003933905, 0.0003479428, -981503.8, 17295.238, 0.0, 5.027752, 4.9861584 
9.667002e+2, 2.0306665e+2, -942817.4, -1006140.0, 30188.867, 0.00086388463, -0.00057469524, -930731.6, 19215.385, 0.0, 5.0283666, 4.985909 
9.666229e+2, 2.0805007e+2, -895748.3, -964315.1, 31834.637, 0.00031779346, 0.0008142134, -883247.1, 17862.31, 0.0, 5.029053, 4.983131 
9.6654505e+2, 2.1303187e+2, -845398.06, -915236.75, 33214.574, -0.00047801848, 0.000119403805, -832124.4, 20163.453, 0.0, 5.029727, 4.9828663 
9.6646523e+2, 2.1801195e+2, -798527.25, -873918.8, 34283.496, -0.00000739804, 0.0005032864, -785268.9, 18214.273, 0.0, 5.030428, 4.979872 
9.663841e+2, 2.229904e+2, -748056.56, -824823.44, 36060.82, 0.00018900957, -0.00010686703, -733774.4, 20920.04, 0.0, 5.0311522, 4.9795895 
9.663001e+2, 2.2796692e+2, -701308.44, -784095.9, 36493.5, 0.00034831112, 0.000538463, -687518.7, 18405.732, 0.0, 5.031916, 4.9763355 
9.662139e+2, 2.3294155e+2, -650958.25, -735233.8, 38753.867, 0.0005140009, -0.0005766212, -635846.94, 21325.86, 0.0, 5.0326567, 4.975943 
9.661238e+2, 2.3791412e+2, -604458.5, -695300.4, 38370.605, -0.00031051482, 0.0007055883, -590420.5, 18021.453, 0.0, 5.03348, 4.972349 
9.660308e+2, 2.4288456e+2, -553982.3, -646475.1, 41192.17, 0.00029928063, -0.0003116205, -538297.1, 21434.229, 0.0, 5.034291, 4.9719057 
9.659328e+2, 2.4785255e+2, -508098.2, -607785.8, 39934.305, 0.00031850146, 0.0013526145, -494073.75, 16971.28, 0.0, 5.03508, 4.9678745 
9.658303e+2, 2.5281823e+2, -457975.7, -559394.25, 43270.633, -0.00028463555, 0.0009096257, -442023.3, 20357.96, 0.0, 5.035841, 4.967277 
9.6572185e+2, 2.5778073e+2, -412884.9, -522517.22, 41116.887, -0.00003109657, 0.0010777564, -399178.03, 14570.839, 0.0, 5.0365815, 4.9626007 
9.656079e+2, 2.6274067e+2, -363525.63, -474438.16, 45093.64, 0.0014419011, -0.0014072033, -347505.78, 17635.834, 0.0, 5.0371, 4.961965 
9.6548575e+2, 2.6769695e+2, -319606.66, -440877.2, 41804.066, -0.0017531415, 0.0011990545, -306592.66, 9977.253, 0.0, 5.0378385, 4.956194 
9.65357e+2, 2.7264956e+2, -270864.63, -393554.38, 45967.26, 0.0019018287, -0.0021217463, -255553.23, 12481.036, 0.0, 5.0382233, 4.955327 
9.652182e+2, 2.7759767e+2, -230443.55, -365115.1, 41377.914, 0.00057455886, 0.0008016393, -218746.17, 796.8392, 0.0, 5.03845, 4.94781 
9.6506995e+2, 2.8254202e+2, -184147.56, -318790.1, 43773.992, 0.0006552288, 0.0029545238, -171167.42, -79.35326, 0.0, 5.037903, 4.9469147 
9.649101e+2, 2.874797e+2, -152930.03, -297743.22, 37323.3, -0.001005851, -0.00023896308, -143876.55, -21177.656, 0.0, 5.0350065, 4.9381456 
9.647409e+2, 2.924143e+2, -122351.52, -253571.05, 35450.75, 0.0013283087, -0.006133438, -113386.51, -39046.684, 0.0, 5.027657, 4.9393654 
9.645763e+2, 2.9734394e+2, -89404.66, -242676.5, 41059.77, 0.009938783, 0.010188038, -79098.24, -53069.098, 0.0, 5.0279064, 4.925342 
9.6441764e+2, 3.022648e+2, -15544.434, -190761.34, 27324.35, -0.0030277974, 0.0060165995, -11382.188, -11382.188, 0.0, 5.03773, 4.9224544 
9.6424896e+2, 3.0718595e+2, 1435.8978, -149640.36, 11253.311, -0.044030387, -0.018033091, 2269.5303, 2269.5303, 0.0, 5.030306, 4.931958 
9.6407706e+2, 3.121218e+2, -38874.273, -147543.92, 14811.555, -0.05311173, 0.020433545, -36891.645, -36891.645, 0.0, 5.011655, 4.9406543 
9.6391004e+2, 3.170777e+2, 5847.239, -37636.496, -1337.3588, 0.03216671, -0.034390442, 5888.331, 5888.331, 0.0, 5.010149, 4.981725 
9.6371156e+2, 3.2204923e+2, -177.005, -22742.742, -2377.2844, -0.113917336, -0.06830363, 70.7207, 70.7207, 0.0, 5.004365, 4.989432 
9.729223e+2, 1.2822834e+2, -1678227.0, -1685517.3, 1586.0459, -0.009722924, 0.00076201867, -1677896.9, 5466.01, 0.0, 5.015448, 5.01019 
9.7283417e+2, 1.3323681e+2, -1625375.3, -1639172.8, 4133.238, 0.02315973, 0.0029092848, -1624231.9, 10047.924, 0.0, 5.017705, 5.0083127 
9.7274375e+2, 1.382419e+2, -1578322.8, -1598693.6, 7837.3755, -0.010284084, 0.0009783878, -1575656.5, 9573.384, 0.0, 5.0187354, 5.0049896 
9.72659e+2, 1.4324562e+2, -1526952.0, -1549846.4, 8599.838, -0.001363127, -0.002968585, -1524081.5, 12111.643, 0.0, 5.019827, 5.004492 
9.725758e+2, 1.4824814e+2, -1479288.3, -1507298.8, 11357.118, 0.0039109634, 0.0006184703, -1475262.1, 11906.449, 0.0, 5.020709, 5.0019307 
9.7249275e+2, 1.5324913e+2, -1429011.1, -1459135.4, 12831.792, -0.002486691, 0.0018605159, -1424286.4, 13872.523, 0.0, 5.021485, 5.001364 
9.7241247e+2, 1.5824808e+2, -1381613.6, -1416480.1, 15593.537, -0.0022419805, 0.0005145576, -1375657.3, 13511.901, 0.0, 5.022169, 4.9989715 
9.723337e+2, 1.6324592e+2, -1331456.4, -1367777.8, 16755.512, 0.0027979086, -0.0012358485, -1324907.6, 15282.739, 0.0, 5.0228148, 4.998623 
9.722558e+2, 1.6824242e+2, -1284451.0, -1325172.9, 19513.58, 0.0005055561, 0.00070522673, -1276610.0, 14614.458, 0.0, 5.0234265, 4.9961824 
9.721788e+2, 1.7323759e+2, -1234237.9, -1276278.8, 20521.754, -0.0017670398, 0.00052230875, -1225881.5, 16390.395, 0.0, 5.0240607, 4.9958982 
9.72103e+2, 1.7823122e+2, -1187130.9, -1233402.6, 23128.219, -0.0009026311, 0.00053920416, -1177553.1, 15781.129, 0.0, 5.02464, 4.9935455 
9.7202814e+2, 1.8322365e+2, -1136953.0, -1184381.9, 23997.354, 0.0015476897, -0.00057953206, -1126929.5, 17479.088, 0.0, 5.0252385, 4.99331 
9.719529e+2, 1.8821476e+2, -1089825.5, -1141563.8, 26337.736, 0.00030274884, 0.00045733593, -1078777.4, 16718.201, 0.0, 5.02582, 4.990932 
9.7187823e+2, 1.932046e+2, -1039401.06, -1092285.1, 27234.723, -0.0008052271, -0.00027498504, -1027883.75, 18711.566, 0.0, 5.026443, 4.990793 
9.7180307e+2, 1.981931e+2, -991931.2, -1049374.1, 29313.416, -0.00021820207, -0.000024948242, -979613.7, 18094.121, 0.0, 5.0270805, 4.988451 
9.717279e+2, 2.0318039e+2, -941539.2, -1000059.9, 30358.436, 0.0006530362, -0.00041559408, -928635.5, 20196.88, 0.0, 5.027707, 4.988308 
9.716513e+2, 2.0816642e+2, -893924.06, -957055.1, 32045.44, -0.000039455925, 0.00080616894, -880508.56, 19460.676, 0.0, 5.028395, 4.9859457 
9.715742e+2, 2.131511e+2, -843488.3, -907738.7, 33419.57, -0.000196846, 0.0004089707, -829257.3, 21862.268, 0.0, 5.029057, 4.9857793 
9.71495e+2, 2.1813433e+2, -795953.6, -864965.75, 34534.133, 0.00006661164, 0.00043768724, -781640.9, 20643.066, 0.0, 5.02976, 4.9832973 
9.7141457e+2, 2.2311617e+2, -745457.9, -815680.2, 36291.527, 0.00003361581, -0.0003679254, -730072.8, 23388.879, 0.0, 5.030471, 4.983094 
9.713312e+2, 2.2809653e+2, -697772.1, -773112.25, 36734.293, -0.00017407382, 0.00029347365, -682826.2, 21828.04, 0.0, 5.031294, 4.9804587 
9.712458e+2, 2.3307537e+2, -647264.94, -723996.3, 38880.74, 0.0004432476, -0.00044290686, -631007.94, 24853.682, 0.0, 5.032058, 4.980158 
9.7115654e+2, 2.3805249e+2, -599927.6, -682122.75, 38659.85, -0.00025853913, 0.0008900403, -584601.9, 22483.918, 0.0, 5.0328727, 4.9772534 
9.710642e+2, 2.4302793e+2, -549315.5, -633013.6, 41229.258, -0.00039668797, 0.000010305484, -532417.7, 25908.842, 0.0, 5.0336986, 4.976919 
9.709669e+2, 2.4800122e+2, -502558.22, -592182.56, 40006.65, 0.00022180425, 0.00048346457, -487298.25, 22289.875, 0.0, 5.034466, 4.9736557 
9.7086525e+2, 2.529727e+2, -452563.56, -543644.9, 43240.64, 0.00019204609, -0.0005075173, -435305.3, 25562.508, 0.0, 5.0351496, 4.9731646 
9.7075707e+2, 2.5794178e+2, -406341.38, -504082.44, 41059.36, -0.0013565478, 0.0015581106, -391382.44, 20788.229, 0.0, 5.0358677, 4.9694653 
9.706436e+2, 2.6290864e+2, -357014.22, -455772.5, 45031.207, -0.000097741446, -0.0008600289, -339564.4, 23931.063, 0.0, 5.0363374, 4.9689574 
9.7052205e+2, 2.6787236e+2, -312086.88, -419073.94, 41738.582, 0.00008132895, 0.00026150892, -297730.06, 17120.873, 0.0, 5.0370173, 4.964295 
9.7039324e+2, 2.7283323e+2, -263409.9, -372151.38, 46435.992, 0.0011763669, -0.00006813813, -246279.03, 19955.365, 0.0, 5.0374994, 4.9632497 
9.702539e+2, 2.7778956e+2, -221831.83, -341752.9, 42080.47, -0.0034481676, 0.0024088381, -208539.16, 9123.276, 0.0, 5.037793, 4.956428 
9.7010565e+2, 2.827418e+2, -177112.06, -297719.63, 45718.395, 0.00249172, -0.0013372847, -161740.77, 7389.5537, 0.0, 5.03706, 4.954801 
9.699419e+2, 2.876856e+2, -148143.92, -285763.88, 36180.316, -0.0054913876, -0.0010827737, -139211.83, -18530.703, 0.0, 5.034885, 4.942526 
9.697643e+2, 2.926246e+2, -116601.07, -244788.86, 33893.805, -0.01360769, 0.0021021606, -108191.055, -35912.14, 0.0, 5.0286336, 4.942072 
9.6960044e+2, 2.975456e+2, -127699.8, -300097.75, 57918.176, -0.00066992594, 0.014198845, -110048.984, -85996.11, 0.0, 5.0225153, 4.906838 
9.694527e+2, 3.024453e+2, -66465.61, -251527.4, 44438.086, -0.0017176613, -0.007253361, -56348.023, -56348.023, 0.0, 5.027174, 4.904847 
9.6928304e+2, 3.0736184e+2, 28168.504, -130103.734, -1437.243, 0.014246006, -0.021494417, 28181.555, 28181.555, 0.0, 5.038412, 4.93567 
9.6909374e+2, 3.1230363e+2, 7686.215, -124105.1, 2936.0024, 0.014035752, 0.030787721, 7751.59, 7751.59, 0.0, 5.027886, 4.9423404 
9.6891284e+2, 3.1726146e+2, -2385.2383, -49640.9, 7595.29, 0.00984708, -0.0069844993, -1194.4707, -1194.4707, 0.0, 5.0086966, 4.977905 
9.68725e+2, 3.2223713e+2, -8166.095, -19677.922, 3192.166, 0.027620398, 0.031032695, -7340.1807, -7340.1807, 0.0, 5.0003695, 4.9917216 
9.779365e+2, 1.2831996e+2, -1679977.5, -1684536.4, 472.0017, -0.006790731, 0.0013495111, -1679929.1, 2535.363, 0.0, 5.0144515, 5.010982 
9.778494e+2, 1.3332887e+2, -1627208.3, -1638692.9, 1506.5, 0.01168821, -0.0015780278, -1627013.9, 6362.82, 0.0, 5.016791, 5.0088973 
9.7776145e+2, 1.383353e+2, -1579934.4, -1598135.4, 4957.7256, -0.006761447, 0.0031775427, -1578671.6, 5642.668, 0.0, 5.0178547, 5.0056252 
9.776778e+2, 1.4333986e+2, -1528685.3, -1549349.4, 5677.193, 0.0013890612, 0.0008060269, -1527228.3, 8041.574, 0.0, 5.0188975, 5.0051427 
9.7759515e+2, 1.483427e+2, -1480984.3, -1506759.0, 8059.2866, 0.0027519865, 0.00031158442, -1478671.8, 7570.255, 0.0, 5.0197353, 5.0026464 
9.7751284e+2, 1.5334448e+2, -1430865.1, -1458301.3, 9301.147, -0.003464001, 0.0008367901, -1428009.1, 9215.285, 0.0, 5.020405, 5.002225 
9.7743356e+2, 1.5834461e+2, -1383473.9, -1415514.6, 11834.682, -0.00077954715, 0.0016533202, -1379576.6, 8646.405, 0.0, 5.0210557, 4.99989 
9.773554e+2, 1.6334341e+2, -1333291.9, -1366825.4, 12763.35, 0.004000102, -0.000066042216, -1328986.8, 10248.062, 0.0, 5.0217056, 4.9995294 
9.7727793e+2, 1.6834088e+2, -1286213.8, -1323880.8, 15202.672, 0.0001384324, 0.0007099062, -1280843.5, 9416.097, 0.0, 5.022258, 4.997226 
9.772015e+2, 1.733373e+2, -1235954.6, -1274735.0, 16008.792, -0.0018642909, 0.001033638, -1230200.0, 11094.9, 0.0, 5.022843, 4.99706 
9.771265e+2, 1.783323e+2, -1188638.9, -1231564.0, 18441.396, 0.00017057148, 0.001431292, -1181804.4, 10539.557, 0.0, 5.023418, 4.9948425 
9.770521e+2, 1.8332613e+2, -1138412.0, -1182230.1, 19176.69, 0.002202748, 0.00023102162, -1131204.9, 12199.438, 0.0, 5.023965, 4.9947405 
9.769774e+2, 1.8831882e+2, -1091160.9, -1138802.5, 21436.02, 0.00031348952, -0.000031365165, -1082935.9, 11539.981, 0.0, 5.0244656, 4.992616 
9.7690326e+2, 1.9331053e+2, -1041010.44, -1089459.8, 22275.725, -0.000114174254, 0.00030570052, -1032325.5, 13231.509, 0.0, 5.0249763, 4.9925404 
9.7682875e+2, 1.9830126e+2, -993581.6, -1045629.1, 24236.111, 0.0009852975, 0.0021331147, -984043.8, 12604.234, 0.0, 5.02545, 4.990571 
9.7675407e+2, 2.0329075e+2, -943469.9, -996148.6, 25216.8, 0.0014347698, 0.0012356762, -933344.94, 14406.22, 0.0, 5.025911, 4.9905653 
9.7667795e+2, 2.0827912e+2, -895936.75, -952272.4, 26794.156, 0.0005074265, -0.0001791855, -885228.44, 13636.643, 0.0, 5.026364, 4.9886274 
9.7660136e+2, 2.132666e+2, -846106.44, -902891.5, 28133.883, 0.00096185284, -0.0006997902, -834528.3, 15459.26, 0.0, 5.0267415, 4.9886136 
9.765228e+2, 2.1825317e+2, -798561.7, -858941.2, 29317.549, 0.001676882, 0.00039998893, -786668.9, 14450.291, 0.0, 5.0271964, 4.9866714 
9.7644293e+2, 2.2323863e+2, -748792.25, -809697.8, 31156.924, 0.0013626381, 0.0006175681, -735677.56, 16584.121, 0.0, 5.02761, 4.9865828 
9.7636e+2, 2.2822289e+2, -701174.3, -765805.5, 31800.104, -0.00038690193, 0.0013282845, -688151.8, 15264.251, 0.0, 5.0281086, 4.98458 
9.762753e+2, 2.3320602e+2, -651338.0, -716375.0, 34088.61, 0.00054164324, 0.00048214593, -636745.06, 17836.19, 0.0, 5.028518, 4.9845476 
9.761867e+2, 2.3818788e+2, -604138.3, -672931.56, 34380.36, 0.0013494215, 0.00034592408, -589902.25, 15856.669, 0.0, 5.0289273, 4.982386 
9.760949e+2, 2.431685e+2, -554605.1, -623972.3, 37341.918, 0.0006470578, -0.0007218145, -538324.3, 18624.404, 0.0, 5.029303, 4.9822 
9.759978e+2, 2.4814762e+2, -507871.2, -580994.06, 36750.574, -0.0006029034, -0.0007598887, -492593.03, 15560.415, 0.0, 5.0296106, 4.979883 
9.758967e+2, 2.5312555e+2, -458660.56, -531679.06, 40658.105, 0.0011938816, -0.0019128878, -440525.44, 18844.424, 0.0, 5.0298233, 4.9798646 
9.757889e+2, 2.5810203e+2, -412866.9, -489570.03, 39599.254, 0.001373228, -0.00006362201, -396091.84, 14508.372, 0.0, 5.0298734, 4.977359 
9.756752e+2, 2.6307705e+2, -365057.94, -440619.0, 44627.215, 0.00031251906, -0.00075200456, -344366.63, 17478.334, 0.0, 5.0295887, 4.977396 
9.755529e+2, 2.680503e+2, -321420.88, -399544.13, 43258.156, -0.0032233186, 0.0019988853, -302198.03, 10909.061, 0.0, 5.029013, 4.9747443 
9.7542423e+2, 2.7302185e+2, -274969.47, -350559.4, 50859.31, -0.0001448382, 0.0004349459, -249399.39, 14986.665, 0.0, 5.0281625, 4.974986 
9.752849e+2, 2.7799094e+2, -233600.06, -311872.88, 50721.69, 0.0057793097, -0.0040951646, -208671.28, 7017.7993, 0.0, 5.026784, 4.9719014 
9.7513354e+2, 2.8295922e+2, -192372.77, -263963.22, 62928.85, -0.0010920818, -0.0026414387, -155770.9, 11228.7705, 0.0, 5.024193, 4.972313 
9.749662e+2, 2.8792372e+2, -161120.72, -232346.7, 65553.836, -0.005758648, 0.007355614, -122130.83, -3783.2383, 0.0, 5.0202236, 4.9677367 
9.7478503e+2, 2.9288146e+2, -138581.02, -183814.69, 78807.98, 0.033461098, -0.014768504, -79208.71, -9446.895, 0.0, 5.009651, 4.9714837 
9.82951e+2, 1.2840864e+2, -1680364.8, -1683500.5, 1673.8074, 0.0015749618, -0.0017324771, -1679639.3, 1955.8506, 0.0, 5.014041, 5.011555 
9.828637e+2, 1.3341816e+2, -1628426.3, -1637971.4, 2138.0984, -0.0025753144, -0.0037513422, -1627969.1, 4532.7617, 0.0, 5.016086, 5.0095015 
9.827788e+2, 1.3842545e+2, -1580520.0, -1596773.1, 5141.96, -0.0031531658, 0.0024773714, -1579029.9, 4400.9067, 0.0, 5.0173116, 5.006346 
9.826962e+2, 1.434308e+2, -1529298.4, -1548069.6, 6162.0537, 0.0056915735, 0.00038311773, -1527456.4, 6922.2856, 0.0, 5.018356, 5.0058393 
9.826139e+2, 1.4843434e+2, -1481372.9, -1505118.4, 8250.231, 0.0011841886, -0.0004180354, -1478787.9, 6555.9897, 0.0, 5.0192285, 5.0034456 
9.8253226e+2, 1.5343685e+2, -1431233.5, -1456736.8, 9460.095, -0.004594558, -0.000042608524, -1428107.5, 8211.481, 0.0, 5.0199184, 5.002988 
9.824538e+2, 1.5843782e+2, -1383759.9, -1413719.4, 11938.967, -0.000700593, 0.0010203188, -1379584.1, 7725.4243, 0.0, 5.0205607, 5.0007234 
9.8237634e+2, 1.6343752e+2, -1333641.4, -1364905.1, 12934.208, 0.003905221, -0.000677604, -1328984.1, 9328.527, 0.0, 5.0211654, 5.0004263 
9.8229945e+2, 1.6843596e+2, -1286241.1, -1321490.9, 15327.729, -0.00036250713, 0.000020477071, -1280508.5, 8819.423, 0.0, 5.0217614, 4.9982677 
9.822237e+2, 1.734334e+2, -1236027.1, -1272216.8, 16120.419, -0.0019876603, 0.00022129792, -1229887.9, 10465.227, 0.0, 5.0223026, 4.998164 
9.821492e+2, 1.7842965e+2, -1188707.0, -1228550.9, 18488.506, 0.00019493955, 0.00045441292, -1181449.8, 9940.13, 0.0, 5.022784, 4.9961524 
9.820753e+2, 1.8342489e+2, -1138456.4, -1178943.0, 19255.379, 0.001359835, -0.00004405148, -1130761.1, 11675.146, 0.0, 5.023286, 4.996169 
9.820011e+2, 1.8841927e+2, -1090744.5, -1134635.4, 21376.293, -0.0004839196, 0.00018173762, -1082054.3, 11437.32, 0.0, 5.0237985, 4.9943485 
9.819275e+2, 1.9341272e+2, -1040600.25, -1085097.0, 22184.19, -0.0005412497, 0.0002468933, -1031430.06, 13125.567, 0.0, 5.024265, 4.9943633 
9.8185337e+2, 1.9840539e+2, -992756.7, -1040321.3, 24112.76, -0.000044788336, 0.0012134451, -982671.25, 12956.42, 0.0, 5.0247245, 4.992736 
9.8177916e+2, 2.0339708e+2, -942628.94, -990560.2, 25117.78, 0.00056657626, 0.00040746984, -931877.75, 14831.197, 0.0, 5.0251365, 4.992856 
9.817036e+2, 2.0838806e+2, -894564.94, -945321.44, 26620.203, 0.00023590321, -0.0005746001, -883164.25, 14633.035, 0.0, 5.025555, 4.9914093 
9.8162735e+2, 2.133784e+2, -844537.4, -895567.2, 28050.197, -0.00019833041, -0.0008574784, -832133.6, 16758.303, 0.0, 5.0259542, 4.991521 
9.815492e+2, 2.1836825e+2, -795873.94, -849621.5, 29167.66, 0.00021690104, 0.00018769062, -783087.25, 16904.266, 0.0, 5.026506, 4.990237 
9.8146975e+2, 2.2335729e+2, -746006.75, -800097.4, 31055.648, 0.0005933104, 0.00014406831, -731870.7, 19228.172, 0.0, 5.0269117, 4.990263 
9.813873e+2, 2.2834565e+2, -697532.8, -754006.8, 31797.637, -0.00045160338, 0.0006517089, -683244.3, 18968.775, 0.0, 5.0273504, 4.98907 
9.813029e+2, 2.3333332e+2, -647569.25, -704138.06, 34060.563, 0.000072702715, -0.000320996, -631580.3, 21753.596, 0.0, 5.0277433, 4.9892116 
9.8121464e+2, 2.3832028e+2, -599172.6, -658044.5, 34240.152, 0.00055355305, -0.00093741756, -583454.75, 21006.63, 0.0, 5.0281672, 4.98799 
9.8112327e+2, 2.4330655e+2, -549487.4, -608539.4, 37138.0, 0.0010095254, -0.0021654142, -531568.5, 24027.523, 0.0, 5.0285225, 4.988018 
9.810263e+2, 2.4829227e+2, -501011.63, -562226.6, 36537.31, -0.0016291093, -0.00061258493, -483955.78, 22780.342, 0.0, 5.0289474, 4.986849 
9.809254e+2, 2.532774e+2, -451444.47, -512052.53, 40084.43, -0.0009534941, -0.00008029753, -431498.2, 26383.678, 0.0, 5.029157, 4.987163 
9.808175e+2, 2.5826183e+2, -404111.9, -466018.2, 38488.445, 0.0017966494, 0.0001558861, -385674.2, 23359.857, 0.0, 5.029109, 4.9861317 
9.8070353e+2, 2.6324585e+2, -355802.63, -415745.1, 42981.855, 0.00075432204, -0.0004686192, -333374.28, 26816.557, 0.0, 5.028799, 4.9866853 
9.8058003e+2, 2.6822996e+2, -309168.72, -367456.3, 40729.98, -0.005932425, 0.0029931527, -288229.66, 23117.176, 0.0, 5.0281153, 4.9867287 
9.804507e+2, 2.7321357e+2, -262730.78, -315634.72, 47508.23, -0.0001673996, -0.0022044687, -234806.84, 27700.68, 0.0, 5.026703, 4.9883018 
9.803099e+2, 2.7819905e+2, -215235.45, -260947.52, 44847.277, 0.015099753, -0.009076882, -187755.84, 25893.814, 0.0, 5.024934, 4.9912634 
9.80153e+2, 2.8318965e+2, -170703.9, -206789.44, 55956.027, -0.022929972, 0.013005694, -129953.664, 34787.63, 0.0, 5.0226145, 4.993895 
9.7998375e+2, 2.8818315e+2, -123101.19, -133901.38, 50296.49, 0.006569625, 0.0053049875, -77915.73, 37889.363, 0.0, 5.0176396, 5.005161 
9.797853e+2, 2.931798e+2, -93120.01, -70968.305, 44434.695, -0.0030422455, -0.005590493, -36249.87, 30588.428, 0.0, 5.0072093, 5.014335 
9.879656e+2, 1.2849501e+2, -1680152.6, -1682473.5, -23.608343, 0.014555075, -0.0036902048, -1680152.4, 596.4353, 0.0, 5.0139365, 5.0119214 
9.8787665e+2, 1.3350536e+2, -1628930.6, -1637083.5, -152.06053, -0.023162602, -0.0025374435, -1628927.9, 2720.1008, 0.0, 5.0156245, 5.010039 
9.877952e+2, 1.3851292e+2, -1580966.1, -1595775.3, 2525.483, -0.0011108967, -0.00006932561, -1580547.3, 2026.797, 0.0, 5.016823, 5.0069633 
9.877142e+2, 1.4351898e+2, -1529702.5, -1546979.8, 3174.2068, 0.012577153, -0.0024393029, -1529137.8, 4376.6714, 0.0, 5.017868, 5.006474 
9.8763204e+2, 1.4852338e+2, -1482133.3, -1504328.3, 4813.555, 0.00081733434, -0.0012042293, -1481134.3, 3336.5388, 0.0, 5.0186725, 5.0040226 
9.875509e+2, 1.5352647e+2, -1431947.6, -1456192.6, 5743.5176, -0.007484829, -0.0004911314, -1430655.9, 4784.7793, 0.0, 5.019423, 5.0034413 
9.874732e+2, 1.585279e+2, -1384506.1, -1413066.4, 7671.2256, -0.00272446, -0.00081959425, -1382576.1, 3851.192, 0.0, 5.0200167, 5.0012336 
9.873965e+2, 1.6352837e+2, -1334277.1, -1363919.3, 8325.098, 0.0036799277, -0.0013594389, -1332099.1, 5323.481, 0.0, 5.020597, 5.0010667 
9.873203e+2, 1.6852777e+2, -1286699.6, -1320314.5, 10353.971, 0.000023925766, 0.0008109215, -1283766.4, 4661.72, 0.0, 5.0211987, 4.998999 
9.8724496e+2, 1.7352591e+2, -1236575.4, -1271019.3, 10774.581, -0.0021864537, -0.00014974503, -1233482.6, 5963.583, 0.0, 5.021702, 4.9989147 
9.8717076e+2, 1.7852303e+2, -1189349.1, -1226842.3, 12718.536, -0.0011681777, -0.0013044183, -1185442.0, 5032.391, 0.0, 5.02206, 4.997113 
9.870974e+2, 1.8351954e+2, -1139272.3, -1177199.3, 13168.881, 0.0010383914, -0.0005247222, -1135148.3, 6360.505, 0.0, 5.0224686, 4.997193 
9.8702383e+2, 1.8851544e+2, -1091473.3, -1132281.3, 14912.348, 0.00018078336, 0.0020548645, -1086604.8, 5944.352, 0.0, 5.0228605, 4.995654 
9.869505e+2, 1.935102e+2, -1041409.1, -1082366.8, 15370.129, -0.0008938296, -0.0001830197, -1036282.8, 7317.6543, 0.0, 5.0231977, 4.9958615 
9.868766e+2, 1.9850428e+2, -993526.25, -1036822.9, 16933.023, -0.0015332011, -0.0035653587, -987690.44, 6967.9214, 0.0, 5.023482, 4.9946012 
9.868028e+2, 2.034983e+2, -943884.06, -987017.44, 17723.908, 0.000044454864, -0.0017355111, -937535.5, 8181.2983, 0.0, 5.023673, 4.994838 
9.8672754e+2, 2.0849232e+2, -896003.4, -940695.9, 18876.666, 0.0004927644, 0.003124825, -889097.56, 7677.8354, 0.0, 5.0237994, 4.9939003 
9.8665136e+2, 2.1348538e+2, -846616.4, -890954.8, 20153.83, -0.0013746445, 0.003085818, -838824.75, 9018.762, 0.0, 5.0239153, 4.9941416 
9.8657334e+2, 2.1847804e+2, -798135.4, -843842.0, 20893.922, -0.003233847, 0.001418663, -790023.75, 8891.956, 0.0, 5.024122, 4.9934525 
9.864942e+2, 2.2347048e+2, -749109.7, -793966.4, 22461.154, -0.0010407536, -0.000011977165, -739796.4, 10193.439, 0.0, 5.02407, 4.9938164 
9.8641247e+2, 2.2846286e+2, -700867.3, -746427.6, 23010.314, 0.0022136914, -0.00088800717, -691268.3, 9795.911, 0.0, 5.0240836, 4.993354 
9.86328e+2, 2.3345518e+2, -652265.06, -697182.25, 25104.889, 0.0009373933, 0.0005166803, -641039.2, 11100.369, 0.0, 5.023995, 4.993495 
9.862394e+2, 2.3844756e+2, -603825.8, -648966.56, 25090.13, -0.0038157818, 0.004338754, -592648.06, 10566.417, 0.0, 5.02396, 4.9932637 
9.8614854e+2, 2.4343961e+2, -554953.25, -598685.3, 27875.117, 0.0008743498, 0.0038692683, -541391.25, 12900.925, 0.0, 5.0238028, 4.9937773 
9.8605204e+2, 2.4843179e+2, -506583.94, -550257.3, 27273.463, 0.0030570768, 0.004313624, -493482.38, 11886.123, 0.0, 5.02369, 4.9936485 
9.8595035e+2, 2.5342375e+2, -459045.78, -501098.7, 30466.031, -0.0017601963, 0.003599971, -443054.8, 13392.713, 0.0, 5.023204, 4.993902 
9.858414e+2, 2.5841576e+2, -412152.97, -452045.7, 28501.125, -0.003844887, 0.0024824257, -397311.8, 10214.055, 0.0, 5.02233, 4.994332 
9.857273e+2, 2.6340815e+2, -365782.0, -401908.25, 32496.6, 0.0012814584, -0.00023553747, -346665.75, 11934.656, 0.0, 5.021174, 4.9952064 
9.856027e+2, 2.6840195e+2, -319357.4, -349704.75, 28426.25, 0.0012542161, 0.0012775073, -302308.53, 7352.0034, 0.0, 5.0194535, 4.9971995 
9.8547024e+2, 2.7339703e+2, -278192.1, -300986.2, 32654.186, 0.0018254071, 0.0040515107, -255003.19, 5705.779, 0.0, 5.016215, 4.9984684 
9.853253e+2, 2.7839518e+2, -233106.67, -241670.48, 23932.03, 0.009815108, 0.0024950318, -213076.5, -1348.444, 0.0, 5.01212, 5.004297 
9.851654e+2, 2.8339767e+2, -195223.33, -191168.39, 26562.541, -0.01994954, 0.005562886, -166556.06, -3852.3984, 0.0, 5.0071435, 5.006967 
9.849922e+2, 2.884059e+2, -131918.66, -106935.36, 3226.8916, 0.022744324, -0.016862832, -106525.3, 7097.672, 0.0, 5.005737, 5.0215445 
9.847874e+2, 2.9342458e+2, -50730.785, -42230.223, -19889.758, -0.035687536, 0.019117365, -26141.69, 38297.992, 0.0, 5.0167365, 5.023127 
9.929782e+2, 1.2858021e+2, -1680295.9, -1682017.1, 818.00714, 0.007488832, 0.0046118456, -1679969.3, -54.697277, 0.0, 5.0137987, 5.012193 
9.928924e+2, 1.3359079e+2, -1629930.8, -1636607.8, 478.6862, -0.013003785, 0.005426978, -1629896.6, 914.5088, 0.0, 5.015073, 5.0105057 
9.928111e+2, 1.385984e+2, -1581172.6, -1594667.9, 3063.948, -0.0025558013, 0.0026828202, -1580509.5, 1226.3429, 0.0, 5.016464, 5.0075274 
9.9273133e+2, 1.436049e+2, -1530323.4, -1546668.4, 3232.5435, 0.012274926, 0.00039491936, -1529707.4, 2964.7102, 0.0, 5.017535, 5.0067472 
9.926501e+2, 1.4860971e+2, -1482815.8, -1504038.3, 4398.3633, 0.0020713627, 0.0029650326, -1481940.3, 1684.7526, 0.0, 5.018302, 5.004304 
9.925697e+2, 1.5361305e+2, -1432769.9, -1455789.4, 5488.217, -0.0068401736, 0.0020921773, -1431528.4, 3064.0098, 0.0, 5.018983, 5.0037837 
9.924928e+2, 1.5861481e+2, -1385120.1, -1412416.4, 7361.298, -0.0008248272, 0.001580862, -1383261.5, 2313.7625, 0.0, 5.019634, 5.0016246 
9.9241674e+2, 1.6361561e+2, -1335002.8, -1363375.0, 7984.077, 0.0063797752, 0.000553639, -1332910.3, 3656.9727, 0.0, 5.0201793, 5.0014396 
9.923409e+2, 1.6861542e+2, -1287440.0, -1319364.0, 9770.641, 0.001048822, 0.0016025188, -1284687.0, 2882.1875, 0.0, 5.020685, 4.9995575 
9.9226606e+2, 1.7361416e+2, -1237158.6, -1269855.9, 10157.491, -0.0021494234, 0.000754138, -1234260.1, 4321.281, 0.0, 5.0212197, 4.999531 
9.9219245e+2, 1.7861214e+2, -1189199.1, -1224872.4, 11823.635, -0.0003610647, 0.0006086549, -1185636.1, 3965.1553, 0.0, 5.0217295, 4.997946 
9.921195e+2, 1.8360943e+2, -1139326.0, -1175090.8, 12169.098, 0.0023435557, 0.00048627556, -1135578.3, 5049.8413, 0.0, 5.022021, 4.99813 
9.920462e+2, 1.8860634e+2, -1091820.1, -1129603.0, 13825.042, 0.00088440307, 0.0020481113, -1087301.9, 4356.488, 0.0, 5.022161, 4.9969034 
9.919732e+2, 1.9360253e+2, -1041870.94, -1079394.8, 14273.906, -0.00009354501, 0.0010871678, -1037058.4, 5637.077, 0.0, 5.0223904, 4.9972596 
9.918997e+2, 1.9859846e+2, -993424.1, -1032642.1, 15672.969, 0.00059928023, -0.0006768038, -987930.25, 5805.0127, 0.0, 5.022671, 4.996412 
9.9182606e+2, 2.0359425e+2, -943634.25, -982515.8, 16441.344, 0.0018353801, -0.00021326955, -937614.06, 7162.5713, 0.0, 5.022874, 4.996754 
9.917509e+2, 2.0859024e+2, -894877.1, -934592.56, 17405.096, 0.0020778892, 0.0024025599, -888329.0, 7486.869, 0.0, 5.023065, 4.996355 
9.916749e+2, 2.1358573e+2, -845660.8, -884503.5, 18809.193, 0.0012033759, 0.0013182807, -838045.6, 8814.513, 0.0, 5.023041, 4.996789 
9.9159706e+2, 2.1858142e+2, -797010.94, -835886.3, 19546.512, -0.000050718143, -0.00026557696, -788882.56, 9020.036, 0.0, 5.0230193, 4.996744 
9.915178e+2, 2.235772e+2, -747532.25, -785336.56, 21196.318, 0.0009941639, -0.0018065249, -738034.1, 10909.75, 0.0, 5.023039, 4.997321 
9.914359e+2, 2.2857353e+2, -697655.0, -735235.94, 21475.363, 0.0030714883, -0.0025328344, -687910.0, 12069.497, 0.0, 5.0232778, 4.9976707 
9.913514e+2, 2.3357019e+2, -648792.1, -685430.8, 23692.346, 0.0020663503, -0.0012756016, -637162.75, 13849.672, 0.0, 5.02321, 4.998007 
9.9126256e+2, 2.3856762e+2, -598887.56, -634155.75, 23761.934, -0.0036785821, 0.0019408116, -586931.25, 15106.685, 0.0, 5.023208, 4.9988666 
9.911715e+2, 2.4356538e+2, -550574.94, -583663.25, 26391.33, -0.000076745135, 0.0014863309, -535970.9, 17088.877, 0.0, 5.0227795, 4.9995937 
9.9107474e+2, 2.4856398e+2, -501508.53, -531958.56, 25543.654, 0.003887427, 0.0008772031, -486996.72, 17076.414, 0.0, 5.022323, 5.000816 
9.909729e+2, 2.535629e+2, -453185.44, -482197.22, 28815.643, 0.0014393149, -0.0019293919, -435430.5, 19653.326, 0.0, 5.02209, 5.001184 
9.9086267e+2, 2.58563e+2, -402729.84, -428535.94, 26792.469, -0.0039354027, -0.002655354, -385895.28, 20187.627, 0.0, 5.0219016, 5.003002 
9.907471e+2, 2.6356405e+2, -356523.72, -378799.6, 30283.553, -0.0022314396, -0.0044160914, -335394.84, 21677.664, 0.0, 5.0207696, 5.0037503 
9.906205e+2, 2.6856694e+2, -308003.75, -322820.72, 24964.959, 0.0010721139, -0.006358818, -289371.22, 18672.375, 0.0, 5.019168, 5.007125 
9.9048483e+2, 2.735722e+2, -266043.88, -275067.97, 28684.475, 0.000021621861, -0.00204856, -241518.75, 17473.602, 0.0, 5.016519, 5.0078077 
9.9033475e+2, 2.7858067e+2, -219936.05, -214979.88, 18240.623, 0.0030036923, 0.0046875575, -199049.78, 10860.521, 0.0, 5.0127025, 5.013936 
9.9017245e+2, 2.8359064e+2, -182405.92, -165737.4, 20327.91, 0.00045113088, -0.0070410105, -152101.6, 8711.229, 0.0, 5.0077724, 5.0161886 
9.899911e+2, 2.8860644e+2, -129115.016, -104762.586, 3085.2114, -0.006074149, -0.009034237, -104377.805, 7280.07, 0.0, 5.0068865, 5.021647 
9.898093e+2, 2.936227e+2, -63440.09, -66817.1, 10724.765, 0.049737662, 0.004717208, -54271.727, 8226.581, 0.0, 5.016636, 5.013373 
9.979898e+2, 1.2866323e+2, -1678360.0, -1680988.0, -1370.2532, -0.006719003, 0.005184179, -1677775.5, 1326.7688, 0.0, 5.0143757, 5.012391 
9.979091e+2, 1.3367347e+2, -1629240.1, -1635473.8, -491.46588, 0.012791828, 0.0025324621, -1629201.6, 799.394, 0.0, 5.015042, 5.0109725 
9.9782634e+2, 1.3868126e+2, -1580788.0, -1594447.3, 1325.7043, -0.0065749763, -0.0031180852, -1580660.5, 262.19815, 0.0, 5.0164857, 5.007673 
9.977471e+2, 1.4368784e+2, -1530634.6, -1547523.0, 941.608, 0.003301041, -0.0039097136, -1530582.3, 1276.4609, 0.0, 5.017504, 5.0065613 
9.9766743e+2, 1.4869271e+2, -1482793.0, -1504395.4, 1775.2323, -0.00011943065, 0.0004881399, -1482648.0, 164.5534, 0.0, 5.018321, 5.0042458 
9.975882e+2, 1.5369634e+2, -1431731.9, -1455034.1, 2309.9163, -0.0053041205, 0.0007830447, -1431505.1, 2271.6245, 0.0, 5.019211, 5.0039744 
9.9751204e+2, 1.5869841e+2, -1384476.4, -1412277.6, 3699.8955, 0.0010330752, 0.0008414399, -1383992.4, 762.80646, 0.0, 5.0198264, 5.001614 
9.9743617e+2, 1.6369921e+2, -1334212.3, -1363348.3, 3586.1077, 0.0048107444, -0.00029075466, -1333777.4, 1970.1713, 0.0, 5.020417, 5.001382 
9.973606e+2, 1.6869886e+2, -1286889.5, -1319328.1, 4855.1133, -0.0032096843, -0.0021330996, -1286178.4, 572.89813, 0.0, 5.020805, 4.9995837 
9.972865e+2, 1.7369816e+2, -1236380.5, -1269332.0, 4701.65, -0.0028700181, 0.0003954199, -1235722.8, 2035.8813, 0.0, 5.0212955, 4.9997864 
9.9721354e+2, 1.786969e+2, -1188497.1, -1224147.5, 5999.008, 0.0014699019, 0.0035993813, -1187514.6, 1256.606, 0.0, 5.021711, 4.9983716 
9.971407e+2, 1.8369438e+2, -1138466.1, -1173776.5, 5852.3, 0.002977476, 0.00006148293, -1137521.5, 2274.244, 0.0, 5.0219355, 4.998798 
9.970671e+2, 1.8869151e+2, -1090908.0, -1127702.3, 7099.733, -0.0024162973, -0.0053166808, -1089585.6, 1237.7748, 0.0, 5.021971, 4.9978046 
9.9699455e+2, 1.9368932e+2, -1041111.3, -1077251.5, 7276.2534, -0.00096835615, -0.00017405047, -1039701.3, 2143.2869, 0.0, 5.0220976, 4.9982696 
9.969215e+2, 1.9868772e+2, -992592.75, -1029631.44, 8082.086, 0.002191562, 0.009019696, -990906.0, 1954.2716, 0.0, 5.022219, 4.997768 
9.968476e+2, 2.0368443e+2, -943277.06, -979533.1, 8305.423, 0.00035655702, 0.0038046762, -941465.0, 2427.8904, 0.0, 5.0222306, 4.9981813 
9.9677217e+2, 2.0868097e+2, -894453.6, -930457.5, 8688.165, -0.0035327307, -0.0072551095, -892466.7, 2460.8142, 0.0, 5.0221844, 4.9983196 
9.966963e+2, 2.1367908e+2, -845734.3, -879628.4, 9476.26, -0.00027004318, -0.005988204, -843264.8, 2680.8274, 0.0, 5.0217905, 4.999199 
9.966188e+2, 2.1867844e+2, -797614.0, -830061.25, 9769.576, 0.0063114185, 0.00015927332, -794899.56, 2051.3188, 0.0, 5.0213356, 4.9997272 
9.9653876e+2, 2.2367792e+2, -749083.2, -779869.06, 11223.774, 0.0012866743, 0.0048185354, -745425.75, 2530.663, 0.0, 5.021003, 5.000349 
9.964556e+2, 2.2867832e+2, -699080.8, -728111.8, 10753.998, -0.009127458, 0.008923258, -695531.2, 3421.9932, 0.0, 5.0209017, 5.0015035 
9.963717e+2, 2.3367853e+2, -650649.1, -676967.44, 12502.706, -0.0010081858, 0.0029238455, -645656.6, 4294.232, 0.0, 5.020366, 5.0025353 
9.9628407e+2, 2.3867984e+2, -600967.94, -624266.7, 11929.024, 0.008435187, -0.007217097, -595943.75, 4993.798, 0.0, 5.0198684, 5.004208 
9.9619126e+2, 2.4368304e+2, -554555.94, -574438.75, 13935.43, 0.00394741, -0.0074017392, -547379.25, 4527.2197, 0.0, 5.01875, 5.005013 
9.960919e+2, 2.4868818e+2, -505167.8, -520233.03, 12639.19, -0.010143395, -0.004717955, -497986.84, 4870.149, 0.0, 5.0178137, 5.0074434 
9.959906e+2, 2.5369504e+2, -456989.88, -468308.56, 16211.589, -0.0027200845, -0.0007135785, -445478.22, 8310.825, 0.0, 5.017149, 5.0087366 
9.9588203e+2, 2.587041e+2, -404749.6, -412284.75, 13425.242, 0.011138028, 0.004494727, -394573.28, 10126.062, 0.0, 5.0171156, 5.011474 
9.957641e+2, 2.637142e+2, -359845.13, -363961.47, 16216.786, 0.0039887414, 0.009990092, -345556.44, 10045.162, 0.0, 5.0157065, 5.011848 
9.956345e+2, 2.687258e+2, -309350.94, -306454.56, 9871.579, -0.0058540776, 0.009983187, -297925.5, 8564.293, 0.0, 5.014459, 5.0157866 
9.9549687e+2, 2.7373892e+2, -263806.72, -255261.55, 13441.595, -0.0053457962, -0.0008209536, -245429.83, 11930.304, 0.0, 5.012818, 5.01733 
9.953439e+2, 2.7875504e+2, -210341.05, -197049.13, 1233.6508, -0.0013657657, -0.005363368, -196935.6, 11264.147, 0.0, 5.012366, 5.0215173 
9.951794e+2, 2.8377372e+2, -161822.1, -149830.1, 1619.8849, -0.00065543776, 0.002172622, -149615.14, 9401.265, 0.0, 5.012669, 5.020866 
9.950002e+2, 2.8879383e+2, -98344.6, -97698.6, -12538.168, -0.008109878, 0.030923529, -85479.27, 24340.752, 0.0, 5.0185804, 5.019986 
9.9481446e+2, 2.9380324e+2, -55183.426, -66404.64, -267.99, -0.04782385, -0.017329881, -55177.027, 5551.1445, 0.0, 5.019774, 5.0128803 
1.0030017e+3, 1.2874466e+2, -1677683.4, -1680408.6, -310.99774, -0.012355552, -0.0053772437, -1677648.3, 652.9145, 0.0, 5.014647, 5.012425 
1.0029242e+3, 1.3375477e+2, -1629539.9, -1636630.8, 533.27875, 0.022770718, -0.0017457819, -1629500.0, -296.85837, 0.0, 5.0151386, 5.010511 
1.0028412e+3, 1.387632e+2, -1581286.5, -1596077.6, 743.4726, -0.013042548, 0.0039131097, -1581249.3, -1127.5842, 0.0, 5.0165668, 5.007084 
1.0027635e+3, 1.4376953e+2, -1529736.5, -1547097.0, 27.222927, 0.0014096963, -0.00021651457, -1529736.5, 1322.6677, 0.0, 5.0177617, 5.0065722 
1.0026854e+3, 1.4877418e+2, -1481564.1, -1503633.4, 1353.4615, 0.005313977, 0.00064195576, -1481481.5, 531.4016, 0.0, 5.018634, 5.004337 
1.00260645e+3, 1.5377752e+2, -1432715.9, -1457167.8, 1331.8317, -0.005669605, -0.00030065476, -1432643.5, 336.80573, 0.0, 5.0191846, 5.0032597 
1.0025306e+3, 1.5877907e+2, -1385361.9, -1414242.9, 1755.0996, -0.0021424557, 0.00026284318, -1385255.6, -1289.7427, 0.0, 5.019753, 5.000986 
1.0024557e+3, 1.6377966e+2, -1334233.1, -1364315.3, 1384.879, 0.0042051272, -0.0004427888, -1334169.5, 790.38116, 0.0, 5.020546, 5.0009823 
1.0023812e+3, 1.6877975e+2, -1285362.1, -1318999.6, 2594.234, 0.0010681024, 0.0023421291, -1285163.3, 795.6768, 0.0, 5.0213265, 4.9994364 
1.0023071e+3, 1.7377855e+2, -1236223.0, -1269745.1, 1993.8046, -0.0020677743, -0.000558264, -1236104.8, 865.57996, 0.0, 5.0213933, 4.999586 
1.0022339e+3, 1.7877707e+2, -1189139.4, -1224031.6, 3015.0361, -0.00032373425, -0.0010373073, -1188880.8, -896.11383, 0.0, 5.0213013, 4.998614 
1.0021613e+3, 1.837753e+2, -1139200.0, -1173961.0, 2474.3352, 0.00064116955, -0.00081046706, -1139024.8, -22.523787, 0.0, 5.0215592, 4.9989185 
1.0020886e+3, 1.8877397e+2, -1089815.9, -1126153.8, 3098.258, 0.00045608496, 0.0044083586, -1089553.6, 461.6972, 0.0, 5.0219893, 4.9983554 
1.00201614e+3, 1.9377151e+2, -1040567.25, -1076339.5, 2785.0432, -0.000021462367, 0.00002131675, -1040351.75, 687.89465, 0.0, 5.022016, 4.9986477 
1.0019428e+3, 1.987693e+2, -991496.4, -1027182.0, 2857.3599, -0.0010064306, -0.00533795, -991269.0, 792.6469, 0.0, 5.0220284, 4.99874 
1.00186914e+3, 2.0376854e+2, -943224.94, -976516.5, 3160.958, 0.000920012, -0.00088026165, -942927.5, 141.16452, 0.0, 5.021471, 4.9996176 
1.00179404e+3, 2.0876865e+2, -895200.75, -927011.8, 3801.8726, 0.0036906516, 0.004654293, -894752.7, -685.7564, 0.0, 5.020939, 5.0001516 
1.0017171e+3, 2.1376833e+2, -845878.3, -876707.8, 3951.187, -0.0010283678, 0.0027604734, -845379.94, -309.3982, 0.0, 5.020933, 5.000669 
1.0016385e+3, 2.1876915e+2, -794104.9, -823356.3, 2839.535, -0.003831449, 0.0024728617, -793831.8, 2231.3003, 0.0, 5.0213113, 5.002164 
1.00155875e+3, 2.2377041e+2, -746715.56, -773221.75, 4006.8743, -0.00068579055, -0.0035442058, -746123.06, 927.50354, 0.0, 5.0204816, 5.003002 
1.0014767e+3, 2.2877383e+2, -697953.5, -719875.9, 3223.864, 0.0053813327, -0.0034095438, -697489.25, 527.72736, 0.0, 5.0194583, 5.005167 
1.001391e+3, 2.3377888e+2, -650841.6, -669013.0, 4683.898, 0.0018826396, -0.0012063122, -649705.3, -737.8387, 0.0, 5.018398, 5.006342 
1.0013012e+3, 2.387866e+2, -600026.2, -613329.94, 2861.408, -0.0040123677, 0.0052906936, -599436.9, 455.11652, 0.0, 5.0177712, 5.0091524 
1.0012082e+3, 2.4379505e+2, -551696.56, -562528.4, 4940.6694, -0.00092776323, 0.0040482176, -549781.56, 1027.0386, 0.0, 5.017309, 5.0100317 
1.00111015e+3, 2.4880607e+2, -498118.72, -503569.72, 3271.626, 0.0057797926, 0.0044328426, -496586.06, 5114.366, 0.0, 5.0172925, 5.0137963 
1.00100644e+3, 2.5381875e+2, -453795.47, -454042.03, 5650.2427, -0.0019169073, 0.00011580049, -448267.16, 4309.721, 0.0, 5.0153537, 5.0148273 
1.00089535e+3, 2.5883466e+2, -403726.44, -394677.9, 452.574, -0.0048634456, -0.00090852124, -394655.34, 8766.344, 0.0, 5.0136414, 5.0195704 
1.0007769e+3, 2.6385325e+2, -357083.38, -343870.63, 5299.8735, -0.0025599936, -0.0035711108, -342007.47, 12230.982, 0.0, 5.0125093, 5.020759 
1.0006476e+3, 2.688743e+2, -302706.4, -283660.28, 1781.7783, 0.0049013286, -0.0041800286, -283495.03, 21536.418, 0.0, 5.0125704, 5.0251393 
1.0005075e+3, 2.738976e+2, -258268.31, -236455.52, 5550.5864, -0.00030132258, 0.0012186279, -235124.31, 20679.943, 0.0, 5.0112834, 5.0250435 
1.0003533e+3, 2.789223e+2, -205968.53, -184954.2, -5100.067, 0.003489563, 0.013023451, -183781.86, 22780.947, 0.0, 5.011746, 5.026268 
1.0001881e+3, 2.8394267e+2, -158768.95, -142568.66, 1505.0636, -0.00510149, -0.014152153, -142430.02, 14933.019, 0.0, 5.0125923, 5.023525 
1.000015e+3, 2.8896162e+2, -103435.88, -99171.48, -2943.224, 0.0032337138, -0.0054823444, -97669.28, 10507.983, 0.0, 5.016913, 5.019987 
9.998361e+2, 2.93978e+2, -60493.527, -55280.96, 245.49588, 0.020731429, 0.0050672367, -55269.42, 3746.0662, 0.0, 5.0155935, 5.018648 
