coord_x,coord_y,stress_xx,stress_yy,tau_xy,velocity_x,velocity_y,stress_1,eps,damage,lx,ly
2.5068986e+0, 1.2283116e+2, -1707960.0, -1739670.8, -84.74933, -0.0000043181963, 0.0008169463, -1707959.8, 28294.725, 0.0, 5.0137978, 4.9931316 
2.5069985e+0, 1.2782376e+2, -1659968.4, -1693578.0, -87.04881, 0.0000044583153, -0.003427139, -1659968.1, 27358.877, 0.0, 5.0139956, 4.9920926 
2.5070933e+0, 1.3281496e+2, -1614360.3, -1652309.5, -95.23684, 0.000004358708, 0.0033576621, -1614360.0, 24053.316, 0.0, 5.014185, 4.9893785 
2.5071833e+0, 1.3780408e+2, -1565872.5, -1605172.4, -96.93782, 0.0000016634074, -0.0014088762, -1565872.3, 23647.639, 0.0, 5.014366, 4.988681 
2.5072712e+0, 1.4279151e+2, -1520526.6, -1564475.3, -103.66106, 0.00001129535, 0.00019515441, -1520526.4, 20116.803, 0.0, 5.0145397, 4.985816 
2.5073564e+0, 1.4777748e+2, -1471882.8, -1516994.3, -104.520485, 0.000029652465, -0.0010201797, -1471882.5, 19898.16, 0.0, 5.0147066, 4.985234 
2.5074366e+0, 1.5276155e+2, -1426594.9, -1476460.4, -110.099, 0.000025660767, 0.0012027748, -1426594.6, 16342.149, 0.0, 5.0148673, 4.982328 
2.507512e+0, 1.577439e+2, -1377918.4, -1428901.6, -111.517525, 0.000004140587, -0.0014418506, -1377918.1, 16191.627, 0.0, 5.0150228, 4.981766 
2.507586e+0, 1.6272451e+2, -1332670.9, -1388486.3, -118.209175, 0.0000020997709, 0.0011193374, -1332670.6, 12629.177, 0.0, 5.015171, 4.978803 
2.5076583e+0, 1.6770336e+2, -1283913.1, -1340735.5, -119.43566, 0.000015920183, -0.0013110603, -1283912.9, 12594.103, 0.0, 5.0153127, 4.9782987 
2.5077268e+0, 1.7268045e+2, -1238712.8, -1300464.0, -124.44441, 0.000017286204, 0.0009713917, -1238712.5, 9018.897, 0.0, 5.01545, 4.9752665 
2.5077927e+0, 1.7765577e+2, -1189886.6, -1252572.3, -126.21177, 0.000008712025, -0.0014677013, -1189886.4, 9086.789, 0.0, 5.0155835, 4.9748015 
2.5078562e+0, 1.8262939e+2, -1144709.9, -1212418.1, -129.78851, -0.0000063674634, 0.0009783938, -1144709.6, 5522.0903, 0.0, 5.015713, 4.9717116 
2.5079173e+0, 1.8760116e+2, -1095827.3, -1164418.3, -129.32266, -0.000027018788, -0.0015204821, -1095827.0, 5681.354, 0.0, 5.01584, 4.971273 
2.5079787e+0, 1.9257124e+2, -1050666.6, -1124366.3, -132.57875, -0.000025621886, 0.0010801466, -1050666.4, 2135.2366, 0.0, 5.0159626, 4.968124 
2.50804e+0, 1.9753943e+2, -1001724.2, -1076243.3, -132.51201, -0.0000040588666, -0.0016045814, -1001723.94, 2389.4292, 0.0, 5.0160804, 4.967718 
2.508099e+0, 2.0250589e+2, -956670.25, -1036508.44, -135.0, -0.0000016140065, 0.000940451, -956670.0, -1228.1077, 0.0, 5.016198, 4.964442 
2.508156e+0, 2.074704e+2, -907670.4, -988302.5, -138.6144, -0.00001789914, -0.0017811279, -907670.1, -880.40857, 0.0, 5.0163155, 4.9640512 
2.5082135e+0, 2.1243323e+2, -862548.06, -948530.06, -139.89322, -0.000030295076, 0.00095914444, -862547.9, -4393.799, 0.0, 5.016433, 4.960759 
2.5082713e+0, 2.1739405e+2, -813478.56, -900218.9, -138.23468, -0.000037447473, -0.0017291456, -813478.3, -3940.456, 0.0, 5.0165496, 4.960392 
2.5083306e+0, 2.2235323e+2, -768315.7, -860471.9, -138.08072, -0.000027870296, 0.0011740916, -768315.5, -7377.4556, 0.0, 5.0166664, 4.957065 
2.508391e+0, 2.2731037e+2, -719191.56, -812083.2, -138.42155, -0.00000024529106, -0.0016948796, -719191.4, -6833.4233, 0.0, 5.0167823, 4.9567113 
2.5084513e+0, 2.3226584e+2, -674018.6, -772443.06, -137.69666, 0.0000092513255, 0.001134983, -674018.44, -10223.951, 0.0, 5.0169005, 4.953322 
2.508511e+0, 2.3721926e+2, -624805.3, -723929.94, -139.16553, -0.0000011762161, -0.002006245, -624805.1, -9554.033, 0.0, 5.0170217, 4.9529953 
2.5085717e+0, 2.4217099e+2, -579637.2, -684445.94, -137.93524, -0.000006318478, 0.0013718171, -579637.0, -12912.957, 0.0, 5.017144, 4.9495187 
2.5086343e+0, 2.4712062e+2, -530316.4, -635761.8, -135.6917, -0.0000047998906, -0.0019444999, -530316.2, -12098.54, 0.0, 5.017269, 4.9492364 
2.5086987e+0, 2.5206852e+2, -485239.75, -596634.75, -132.75827, 0.0000032095788, 0.0014532867, -485239.6, -15511.461, 0.0, 5.0173965, 4.9456077 
2.508766e+0, 2.5701433e+2, -435639.47, -547399.25, -132.36691, 0.000020697353, -0.0019851562, -435639.3, -14380.105, 0.0, 5.017527, 4.9455023 
2.5088334e+0, 2.619584e+2, -390780.9, -508937.72, -129.30127, 0.00002307738, 0.0013937736, -390780.75, -17973.273, 0.0, 5.0176616, 4.9416075 
2.5089017e+0, 2.6690036e+2, -340812.47, -458958.3, -128.31364, 0.000005947839, -0.0019285083, -340812.3, -16436.104, 0.0, 5.017802, 4.941747 
2.5089726e+0, 2.7184048e+2, -296219.8, -421296.78, -124.24645, -0.0000052957375, 0.0014110091, -296219.72, -20256.596, 0.0, 5.017946, 4.93753 
2.509047e+0, 2.7677852e+2, -245885.33, -370569.88, -121.4011, -0.000011715067, -0.0021877019, -245885.2, -18314.926, 0.0, 5.018096, 4.9379168 
2.5091246e+0, 2.817148e+2, -201376.16, -333311.78, -116.96431, -0.000012236911, 0.0019783159, -201376.05, -22180.965, 0.0, 5.018251, 4.9335203 
2.5092065e+0, 2.8664893e+2, -150740.97, -281980.53, -117.14867, -0.000000270342, -0.002719302, -150740.88, -19900.438, 0.0, 5.0184126, 4.9341054 
2.5092903e+0, 2.9158074e+2, -107672.89, -248310.72, -112.845634, 0.000002605147, 0.0016084702, -107672.8, -25164.42, 0.0, 5.01858, 4.9283953 
2.5093776e+0, 2.9651e+2, -56958.67, -196920.69, -110.413185, -0.000010339876, -0.000584764, -56958.586, -22756.848, 0.0, 5.018757, 4.928981 
2.5094688e+0, 3.014461e+2, -15627.355, -134162.94, -102.96875, -0.000013009718, 0.0021135684, -15627.266, -15627.266, 0.0, 5.0189395, 4.9426003 
2.509566e+0, 3.0638927e+2, -14026.568, -131395.89, -100.45466, -0.0000013600087, -0.005385415, -14026.482, -14026.482, 0.0, 5.0191317, 4.9435134 
2.5096646e+0, 3.113498e+2, 24747.988, -41273.73, -91.272446, -0.0000020359005, 0.0039817886, 24748.115, 24748.115, 0.0, 5.019329, 4.9764323 
2.5097662e+0, 3.163273e+2, 26980.412, -37089.035, -88.407364, -0.000020323196, -0.0008879266, 26980.535, 26980.535, 0.0, 5.019536, 4.977889 
7.520696e+0, 1.2283095e+2, -1707963.9, -1739678.5, 65.60227, -0.000012943797, 0.0008083142, -1707963.8, 28292.832, 0.0, 5.0137978, 4.9931293 
7.520996e+0, 1.2782356e+2, -1659972.3, -1693585.9, 62.84823, 0.000013429683, -0.0033892693, -1659972.1, 27356.922, 0.0, 5.0139956, 4.99209 
7.5212795e+0, 1.3281476e+2, -1614363.0, -1652315.1, 42.2192, 0.000013072154, 0.0034026257, -1614362.9, 24052.426, 0.0, 5.014185, 4.9893765 
7.52155e+0, 1.3780387e+2, -1565875.1, -1605177.6, 40.1348, 0.0000049725204, -0.0013882471, -1565875.1, 23646.936, 0.0, 5.014366, 4.988679 
7.5218135e+0, 1.4279129e+2, -1520528.0, -1564478.3, 22.606955, 0.000033967517, 0.000184159, -1520528.0, 20117.285, 0.0, 5.0145397, 4.985815 
7.522069e+0, 1.4777726e+2, -1471884.1, -1516997.3, 21.690233, 0.00008903717, -0.0010685062, -1471884.1, 19898.656, 0.0, 5.0147066, 4.985233 
7.5223094e+0, 1.5276133e+2, -1426597.1, -1476465.1, 7.573229, 0.00007698572, 0.0011657603, -1426597.1, 16341.753, 0.0, 5.0148673, 4.9823265 
7.522536e+0, 1.5774368e+2, -1377920.8, -1428906.5, 5.9547443, 0.000012438166, -0.0014268289, -1377920.8, 16191.139, 0.0, 5.0150228, 4.981765 
7.522758e+0, 1.6272427e+2, -1332673.0, -1388490.8, -11.123169, 0.0000063412613, 0.0011457839, -1332673.0, 12628.919, 0.0, 5.015171, 4.9788017 
7.5229746e+0, 1.6770312e+2, -1283915.3, -1340739.9, -12.396617, 0.000047813446, -0.0013081034, -1283915.3, 12593.923, 0.0, 5.0153127, 4.978297 
7.523181e+0, 1.7268024e+2, -1238716.0, -1300470.8, -23.8578, 0.00005185133, 0.0009900319, -1238716.0, 9017.639, 0.0, 5.01545, 4.9752645 
7.523378e+0, 1.7765556e+2, -1189889.8, -1252578.9, -25.50017, 0.000026132904, -0.0013994302, -1189889.8, 9085.571, 0.0, 5.0155835, 4.974799 
7.523569e+0, 1.8262917e+2, -1144709.1, -1212416.4, -34.353764, -0.000019079522, 0.0010122305, -1144709.1, 5524.858, 0.0, 5.015713, 4.971712 
7.5237525e+0, 1.8760093e+2, -1095826.6, -1164416.8, -33.79135, -0.00008105136, -0.0015996979, -1095826.6, 5684.073, 0.0, 5.01584, 4.9712734 
7.523936e+0, 1.92571e+2, -1050666.6, -1124366.1, -43.628563, -0.000076859316, 0.0009822345, -1050666.5, 2137.3223, 0.0, 5.015962, 4.968124 
7.5241196e+0, 1.975392e+2, -1001724.0, -1076242.8, -43.623142, -0.000012182274, -0.0016270257, -1001724.0, 2391.563, 0.0, 5.0160804, 4.967718 
7.524298e+0, 2.0250568e+2, -956676.3, -1036521.44, -46.684135, -0.0000048217817, 0.0009998523, -956676.3, -1232.2065, 0.0, 5.016198, 4.9644375 
7.5244683e+0, 2.0747018e+2, -907676.5, -988315.56, -50.460114, -0.000053689993, -0.0016384271, -907676.44, -884.49854, 0.0, 5.0163155, 4.964047 
7.5246406e+0, 2.12433e+2, -862545.3, -948523.75, -51.7194, -0.00009085259, 0.0010561225, -862545.25, -4388.9194, 0.0, 5.016433, 4.9607615 
7.5248134e+0, 2.1739383e+2, -813475.75, -900212.4, -50.21479, -0.000112347625, -0.0018096435, -813475.7, -3935.4668, 0.0, 5.0165496, 4.960394 
7.5249916e+0, 2.22353e+2, -768316.1, -860472.6, -50.697605, -0.00008355618, 0.001049643, -768316.1, -7375.743, 0.0, 5.016666, 4.957065 
7.5251734e+0, 2.2731015e+2, -719192.06, -812084.06, -51.182163, -0.00000074713176, -0.0017155685, -719192.0, -6831.79, 0.0, 5.0167823, 4.956711 
7.525354e+0, 2.322656e+2, -674021.0, -772448.2, -46.7118, 0.000027797945, 0.0011941461, -674021.0, -10224.275, 0.0, 5.0169005, 4.95332 
7.525532e+0, 2.3721902e+2, -624807.8, -723935.25, -48.14217, -0.0000035010894, -0.0018952305, -624807.75, -9554.446, 0.0, 5.0170217, 4.9529934 
7.5257146e+0, 2.4217077e+2, -579634.1, -684438.9, -44.00515, -0.000018940971, 0.0014658397, -579634.1, -12907.812, 0.0, 5.017144, 4.9495215 
7.525903e+0, 2.471204e+2, -530313.06, -635753.94, -41.664825, -0.000014391587, -0.001953762, -530313.0, -12093.051, 0.0, 5.017269, 4.9492393 
7.526096e+0, 2.520683e+2, -485239.44, -596633.7, -34.823322, 0.000009643329, 0.0014030442, -485239.44, -15509.007, 0.0, 5.0173965, 4.945608 
7.5262976e+0, 2.570141e+2, -435639.47, -547398.9, -33.883266, 0.00006209746, -0.0019938813, -435639.47, -14377.981, 0.0, 5.017527, 4.9455023 
7.5265e+0, 2.6195815e+2, -390780.25, -508935.84, -24.495087, 0.00006923547, 0.0014126733, -390780.22, -17970.49, 0.0, 5.0176616, 4.941608 
7.526705e+0, 2.6690015e+2, -340811.8, -458956.44, -22.66348, 0.00001788854, -0.0018999034, -340811.8, -16433.361, 0.0, 5.017802, 4.9417477 
7.5269175e+0, 2.7184024e+2, -296216.94, -421289.66, -11.903713, -0.000015907655, 0.0014474969, -296216.94, -20251.633, 0.0, 5.017946, 4.9375324 
7.527141e+0, 2.7677828e+2, -245882.1, -370561.84, -7.9300632, -0.000035123958, -0.002145669, -245882.1, -18309.674, 0.0, 5.018096, 4.9379196 
7.5273734e+0, 2.8171453e+2, -201377.05, -333313.2, 4.007119, -0.000036707672, 0.0019994455, -201377.05, -22179.822, 0.0, 5.018251, 4.93352 
7.5276196e+0, 2.866487e+2, -150742.56, -281983.63, 4.8807497, -0.000000839592, -0.0027660623, -150742.56, -19899.883, 0.0, 5.0184126, 4.9341044 
7.527871e+0, 2.9158053e+2, -107671.67, -248307.28, 19.109211, 0.00000786995, 0.0015495728, -107671.664, -25161.016, 0.0, 5.0185795, 4.928396 
7.528133e+0, 2.965098e+2, -56956.92, -196915.88, 23.545174, -0.000031009822, -0.0005494201, -56956.918, -22753.027, 0.0, 5.018757, 4.9289827 
7.5284064e+0, 3.014459e+2, -15625.832, -134158.55, 40.290913, -0.000039049366, 0.002198247, -15625.818, -15625.818, 0.0, 5.0189395, 4.9426017 
7.528698e+0, 3.0638906e+2, -14025.157, -131391.69, 45.09052, -0.000004079737, -0.0053503443, -14025.141, -14025.141, 0.0, 5.0191317, 4.943515 
7.5289935e+0, 3.113496e+2, 24749.89, -41268.23, 63.138714, -0.000006050444, 0.0039710077, 24749.951, 24749.951, 0.0, 5.0193286, 4.9764347 
7.5292987e+0, 3.1632707e+2, 26982.215, -37083.527, 68.589554, -0.00006104526, -0.00092034135, 26982.287, 26982.287, 0.0, 5.0195355, 4.9778914 
1.2534499e+1, 1.22830525e+2, -1707928.8, -1739670.8, -104.988914, -0.000028380831, 0.00082769914, -1707928.4, 28332.23, 0.0, 5.0138116, 4.993125 
1.2534998e+1, 1.2782313e+2, -1659943.3, -1693581.4, -111.10551, 0.000026704694, -0.0033598265, -1659942.9, 27390.266, 0.0, 5.0140076, 4.992086 
1.2535472e+1, 1.3281433e+2, -1614336.9, -1652310.1, -146.6578, 0.00003673046, 0.003421012, -1614336.4, 24083.203, 0.0, 5.0141954, 4.989373 
1.2535924e+1, 1.3780344e+2, -1565850.9, -1605173.8, -151.71529, 0.000032219108, -0.0013964343, -1565850.4, 23675.951, 0.0, 5.014376, 4.9886756 
1.253636e+1, 1.4279087e+2, -1520503.0, -1564473.9, -183.30989, 0.00006096839, 0.00016665974, -1520502.3, 20147.29, 0.0, 5.0145497, 4.985811 
1.2536784e+1, 1.4777683e+2, -1471856.6, -1516991.8, -188.30002, 0.000110507775, -0.0010817541, -1471855.9, 19931.17, 0.0, 5.0147176, 4.985229 
1.2537184e+1, 1.5276088e+2, -1426574.1, -1476461.1, -216.13017, 0.00010152245, 0.0011612666, -1426573.3, 16370.001, 0.0, 5.014877, 4.982323 
1.2537566e+1, 1.5774325e+2, -1377908.3, -1428907.6, -220.33322, 0.000047830374, -0.001418814, -1377907.4, 16208.858, 0.0, 5.0150285, 4.9817615 
1.2537934e+1, 1.6272382e+2, -1332661.8, -1388490.3, -248.19571, 0.000035735156, 0.0011475842, -1332660.6, 12645.667, 0.0, 5.0151763, 4.9787993 
1.2538292e+1, 1.6770269e+2, -1283899.8, -1340737.5, -250.81793, 0.000058137834, -0.0013287629, -1283898.6, 12615.018, 0.0, 5.0153193, 4.9782953 
1.2538636e+1, 1.7267978e+2, -1238701.1, -1300470.8, -271.53958, 0.000057861824, 0.0009803362, -1238699.9, 9038.12, 0.0, 5.0154567, 4.975261 
1.2538967e+1, 1.776551e+2, -1189877.8, -1252580.3, -274.5403, 0.0000410727, -0.0013694991, -1189876.5, 9103.1875, 0.0, 5.0155888, 4.974796 
1.2539285e+1, 1.826287e+2, -1144702.1, -1212416.9, -292.65225, -0.000007800013, 0.0010433308, -1144700.9, 5537.5737, 0.0, 5.0157166, 4.97171 
1.2539592e+1, 1.8760046e+2, -1095829.8, -1164421.9, -295.53583, -0.000084826286, -0.0016021235, -1095828.4, 5686.7437, 0.0, 5.0158396, 4.971272 
1.2539896e+1, 1.9257054e+2, -1050669.9, -1124370.6, -312.86826, -0.0000989522, 0.00097313104, -1050668.6, 2139.819, 0.0, 5.0159616, 4.968123 
1.2540197e+1, 1.9753875e+2, -1001719.25, -1076243.5, -315.19272, -0.000055842138, -0.0016156784, -1001717.94, 2402.1587, 0.0, 5.016083, 4.967717 
1.2540492e+1, 2.0250522e+2, -956672.5, -1036526.56, -321.5202, -0.00004931481, 0.0010363575, -956671.25, -1222.5999, 0.0, 5.016201, 4.9644346 
1.2540781e+1, 2.0746973e+2, -907677.5, -988323.0, -323.41345, -0.000078301346, -0.0015729157, -907676.25, -879.72485, 0.0, 5.0163164, 4.964044 
1.254107e+1, 2.1243253e+2, -862548.7, -948525.0, -326.35242, -0.000105556945, 0.00111563, -862547.44, -4386.5234, 0.0, 5.0164313, 4.9607615 
1.254136e+1, 2.1739335e+2, -813487.6, -900217.5, -328.2908, -0.00012797232, -0.001792932, -813486.4, -3941.5623, 0.0, 5.0165453, 4.9603944 
1.2541653e+1, 2.2235252e+2, -768328.7, -860478.5, -329.38077, -0.00011098355, 0.0010550261, -768327.5, -7382.539, 0.0, 5.0166616, 4.957065 
1.254195e+1, 2.2730969e+2, -719196.1, -812086.0, -329.65076, -0.00004881747, -0.001686613, -719195.0, -6830.1553, 0.0, 5.016781, 4.956711 
1.2542251e+1, 2.3226514e+2, -674024.4, -772450.2, -322.92416, -0.000014592598, 0.001243861, -674023.3, -10222.008, 0.0, 5.0168996, 4.95332 
1.2542552e+1, 2.3721857e+2, -624818.9, -723940.8, -322.01544, -0.00000870256, -0.0018277303, -624817.8, -9559.92, 0.0, 5.017018, 4.9529934 
1.2542859e+1, 2.421703e+2, -579649.44, -684441.2, -314.54514, 0.00000044964213, 0.0015255327, -579648.5, -12917.628, 0.0, 5.017138, 4.9495234 
1.2543172e+1, 2.4711992e+2, -530334.8, -635758.94, -313.08716, 0.000017772241, -0.0019338204, -530333.9, -12109.3545, 0.0, 5.0172606, 4.949241 
1.2543492e+1, 2.5206783e+2, -485264.28, -596641.4, -301.44852, 0.00003858028, 0.0014077578, -485263.47, -15528.49, 0.0, 5.017387, 4.94561 
1.2543821e+1, 2.5701365e+2, -435660.5, -547405.06, -297.75217, 0.000063207415, -0.0019724057, -435659.7, -14393.688, 0.0, 5.017519, 4.9455037 
1.2544157e+1, 2.619577e+2, -390801.9, -508942.47, -282.63156, 0.0000612921, 0.0014428718, -390801.25, -17986.992, 0.0, 5.0176535, 4.9416094 
1.2544504e+1, 2.6689968e+2, -340841.2, -458966.6, -279.10507, 0.00003434532, -0.0018705024, -340840.53, -16457.582, 0.0, 5.017791, 4.941749 
1.254486e+1, 2.718398e+2, -296251.22, -421299.25, -261.59155, 0.000010109425, 0.0014755665, -296250.7, -20280.885, 0.0, 5.017932, 4.9375353 
1.254523e+1, 2.7677786e+2, -245920.88, -370572.78, -256.49615, -0.000031067648, -0.0021202029, -245920.34, -18343.488, 0.0, 5.0180807, 4.9379225 
1.2545615e+1, 2.817141e+2, -201418.95, -333327.6, -235.51723, -0.000048108177, 0.0020159318, -201418.53, -22216.893, 0.0, 5.0182347, 4.9335217 
1.2546024e+1, 2.866482e+2, -150781.11, -281996.84, -228.94835, -0.000011667664, -0.0027686593, -150780.7, -19933.604, 0.0, 5.0183973, 4.934106 
1.2546442e+1, 2.9158008e+2, -107709.375, -248318.52, -203.95311, -0.0000036818947, 0.0015416227, -107709.086, -25194.012, 0.0, 5.0185647, 4.9283986 
1.254688e+1, 2.9650933e+2, -57001.22, -196929.67, -196.42737, -0.000041930114, -0.0005389056, -57000.94, -22792.68, 0.0, 5.0187397, 4.928985 
1.2547335e+1, 3.0144545e+2, -15674.726, -134172.5, -165.3691, -0.000041650328, 0.002217621, -15674.495, -15674.495, 0.0, 5.01892, 4.942605 
1.2547821e+1, 3.0638865e+2, -14077.203, -131406.64, -155.1577, 0.0000023638804, -0.005340815, -14076.998, -14076.998, 0.0, 5.019111, 4.9435186 
1.2548313e+1, 3.1134918e+2, 24700.574, -41279.242, -116.822815, -0.000009211794, 0.0039653704, 24700.781, 24700.781, 0.0, 5.0193086, 4.976439 
1.2548824e+1, 3.1632662e+2, 26943.316, -37089.523, -104.21691, -0.00009476276, -0.0009436777, 26943.486, 26943.486, 0.0, 5.019519, 4.977896 
1.7548308e+1, 1.2282991e+2, -1707937.9, -1739689.0, 43.10861, -0.000051632036, 0.0008744197, -1707937.9, 28328.982, 0.0, 5.013811, 4.9931192 
1.754901e+1, 1.278225e+2, -1659952.1, -1693599.6, 36.410088, 0.000043913526, -0.0033383549, -1659952.1, 27387.285, 0.0, 5.0140076, 4.9920797 
1.7549671e+1, 1.3281369e+2, -1614344.4, -1652325.6, -10.560945, 0.00007472638, 0.0034135666, -1614344.4, 24081.469, 0.0, 5.0141954, 4.989368 
1.7550306e+1, 1.3780278e+2, -1565858.5, -1605189.4, -15.928889, 0.00008240047, -0.001432636, -1565858.5, 23674.152, 0.0, 5.014376, 4.9886703 
1.7550915e+1, 1.4279021e+2, -1520511.6, -1564491.6, -57.33349, 0.00009178056, 0.0001429249, -1520511.5, 20144.373, 0.0, 5.0145497, 4.9858055 
1.7551498e+1, 1.4777617e+2, -1471865.3, -1517009.4, -62.60145, 0.00009438552, -0.0010607512, -1471865.1, 19928.34, 0.0, 5.0147176, 4.9852233 
1.7552061e+1, 1.5276022e+2, -1426581.0, -1476475.1, -102.171234, 0.00009907585, 0.0011885235, -1426580.8, 16368.945, 0.0, 5.014877, 4.982319 
1.7552601e+1, 1.5774257e+2, -1377914.9, -1428921.3, -106.41329, 0.00010877783, -0.0014175543, -1377914.6, 16208.072, 0.0, 5.0150285, 4.981757 
1.7553116e+1, 1.6272315e+2, -1332666.0, -1388499.1, -140.99916, 0.00008890018, 0.0011253575, -1332665.6, 12647.223, 0.0, 5.015176, 4.9787965 
1.755361e+1, 1.67702e+2, -1283904.1, -1340746.5, -143.76108, 0.00004664653, -0.001372515, -1283903.8, 12616.429, 0.0, 5.0153193, 4.978292 
1.7554091e+1, 1.7267911e+2, -1238707.0, -1300482.8, -172.80035, 0.00003510984, 0.0009429662, -1238706.5, 9038.178, 0.0, 5.0154567, 4.9752574 
1.7554556e+1, 1.7765443e+2, -1189883.5, -1252592.1, -175.80493, 0.000052567164, -0.0013768914, -1189883.0, 9103.359, 0.0, 5.0155888, 4.974792 
1.7555006e+1, 1.8262804e+2, -1144707.8, -1212428.5, -201.0178, 0.000025776295, 0.0010717562, -1144707.3, 5537.9243, 0.0, 5.0157166, 4.9717064 
1.7555435e+1, 1.875998e+2, -1095835.3, -1164433.3, -203.73575, -0.000040809453, -0.0015296953, -1095834.6, 5687.235, 0.0, 5.0158396, 4.971268 
1.7555858e+1, 1.9256987e+2, -1050674.0, -1124378.9, -222.8207, -0.00009389336, 0.0010506276, -1050673.4, 2141.7917, 0.0, 5.0159616, 4.96812 
1.7556272e+1, 1.9753805e+2, -1001723.56, -1076252.0, -225.2231, -0.00013540639, -0.001571393, -1001722.9, 2403.9795, 0.0, 5.016083, 4.9677143 
1.7556687e+1, 2.0250452e+2, -956675.4, -1036531.9, -235.69244, -0.00013543101, 0.0010504425, -956674.7, -1219.2235, 0.0, 5.016201, 4.9644327 
1.7557096e+1, 2.0746903e+2, -907680.3, -988328.2, -237.7339, -0.00009354462, -0.0015827378, -907679.6, -876.24615, 0.0, 5.0163164, 4.964042 
1.7557506e+1, 2.1243183e+2, -862551.7, -948530.75, -241.71355, -0.00007707714, 0.0011383593, -862551.0, -4383.223, 0.0, 5.0164313, 4.9607596 
1.7557909e+1, 2.1739267e+2, -813490.56, -900223.2, -243.7967, -0.000087388726, -0.001681756, -813489.9, -3938.2317, 0.0, 5.0165453, 4.9603925 
1.7558315e+1, 2.2235183e+2, -768329.06, -860478.44, -241.09116, -0.00011248063, 0.001186501, -768328.44, -7376.6147, 0.0, 5.0166616, 4.957065 
1.7558722e+1, 2.2730899e+2, -719196.56, -812085.9, -241.4181, -0.00014477555, -0.0016096148, -719195.94, -6824.2666, 0.0, 5.0167804, 4.9567113 
1.755914e+1, 2.3226444e+2, -674023.4, -772446.75, -235.10828, -0.00011782547, 0.001283992, -674022.8, -10214.629, 0.0, 5.016899, 4.953321 
1.7559569e+1, 2.3721786e+2, -624817.8, -723937.25, -234.36049, -0.000018063965, -0.0018029781, -624817.25, -9552.482, 0.0, 5.0170174, 4.9529943 
1.756e+1, 2.421696e+2, -579648.0, -684436.9, -223.71948, 0.000049647686, 0.0015513706, -579647.5, -12909.815, 0.0, 5.0171375, 4.949525 
1.7560439e+1, 2.4711923e+2, -530333.44, -635754.75, -222.17221, 0.000089243615, -0.0018858899, -530333.0, -12101.633, 0.0, 5.01726, 4.9492426 
1.7560883e+1, 2.5206715e+2, -485261.5, -596633.9, -204.03503, 0.0000882022, 0.0014654953, -485261.13, -15519.354, 0.0, 5.0173864, 4.9456124 
1.7561336e+1, 2.5701296e+2, -435657.8, -547397.5, -199.52266, 0.000023955366, -0.0019218822, -435657.44, -14384.696, 0.0, 5.0175185, 4.9455066 
1.7561804e+1, 2.6195702e+2, -390800.22, -508936.97, -180.92596, -0.00000041413463, 0.0014837625, -390799.97, -17978.979, 0.0, 5.017653, 4.9416113 
1.7562295e+1, 2.66899e+2, -340839.72, -458961.44, -176.94525, 0.000054084536, -0.0018406378, -340839.44, -16449.75, 0.0, 5.0177903, 4.941751 
1.7562798e+1, 2.718391e+2, -296249.03, -421292.44, -152.0158, 0.00007064768, 0.0014951635, -296248.84, -20272.32, 0.0, 5.017932, 4.9375377 
1.7563315e+1, 2.7677715e+2, -245918.53, -370565.56, -145.78918, -0.0000014021354, -0.0021111767, -245918.36, -18334.791, 0.0, 5.01808, 4.937925 
1.756385e+1, 2.817134e+2, -201414.97, -333316.34, -115.378334, -0.00004787045, 0.0020274543, -201414.88, -22206.568, 0.0, 5.0182343, 4.9335256 
1.7564419e+1, 2.8664756e+2, -150777.11, -281985.06, -107.29195, -0.000033331136, -0.0027286597, -150777.02, -19923.322, 0.0, 5.018397, 4.9341106 
1.7565005e+1, 2.915794e+2, -107706.66, -248309.4, -74.840866, -0.00003242912, 0.001582729, -107706.62, -25185.01, 0.0, 5.018564, 4.928402 
1.756562e+1, 2.9650867e+2, -56998.76, -196921.25, -65.82979, -0.00004397827, -0.00055310526, -56998.73, -22783.912, 0.0, 5.018739, 4.9289885 
1.7566258e+1, 3.014448e+2, -15670.372, -134159.64, -24.61713, -0.000022260505, 0.0021729874, -15670.366, -15670.366, 0.0, 5.0189195, 4.94261 
1.7566933e+1, 3.0638796e+2, -14072.5205, -131392.78, -11.928486, 0.000017103343, -0.005356969, -14072.52, -14072.52, 0.0, 5.01911, 4.943524 
1.7567621e+1, 3.113485e+2, 24706.914, -41260.91, 38.22327, -0.000012474523, 0.0039636726, 24706.936, 24706.936, 0.0, 5.0193076, 4.976446 
1.7568341e+1, 3.16326e+2, 26949.39, -37070.473, 54.13278, -0.00012489948, -0.0009578902, 26949.436, 26949.436, 0.0, 5.0195184, 4.9779034 
2.2562134e+1, 1.2282908e+2, -1707877.0, -1739678.4, -121.58525, -0.000032891643, 0.0009158753, -1707876.5, 28398.479, 0.0, 5.013836, 4.9931107 
2.256303e+1, 1.2782167e+2, -1659890.4, -1693588.6, -132.96904, 0.000058114274, -0.003330136, -1659889.9, 27457.744, 0.0, 5.0140324, 4.992071 
2.256388e+1, 1.3281284e+2, -1614283.6, -1652313.8, -196.56789, 0.0000961136, 0.0034117342, -1614282.6, 24151.502, 0.0, 5.0142198, 4.9893603 
2.2564697e+1, 1.3780193e+2, -1565802.5, -1605180.0, -206.5587, 0.0001248736, -0.001423955, -1565801.5, 23739.564, 0.0, 5.0143986, 4.9886622 
2.2565478e+1, 1.4278933e+2, -1520460.9, -1564483.3, -261.54733, 0.00012093245, 0.0001559591, -1520459.4, 20205.047, 0.0, 5.01457, 4.9857984 
2.2566225e+1, 1.4777529e+2, -1471821.8, -1517004.4, -269.089, 0.00008169705, -0.0010486946, -1471820.1, 19981.887, 0.0, 5.014735, 4.985216 
2.2566946e+1, 1.5275934e+2, -1426538.8, -1476468.0, -321.83972, 0.000092581584, 0.0011904347, -1426536.8, 16421.617, 0.0, 5.0148935, 4.9823127 
2.2567642e+1, 1.5774168e+2, -1377872.4, -1428914.0, -328.13696, 0.00014885825, -0.0014336051, -1377870.4, 16261.084, 0.0, 5.0150456, 4.9817514 
2.2568303e+1, 1.6272227e+2, -1332630.1, -1388494.5, -374.59537, 0.00013412218, 0.0011107739, -1332627.6, 12694.012, 0.0, 5.015191, 4.9787908 
2.2568937e+1, 1.6770111e+2, -1283880.6, -1340747.8, -381.53427, 0.00006401834, -0.0013695314, -1283878.1, 12650.941, 0.0, 5.01533, 4.9782867 
2.2569552e+1, 1.7267819e+2, -1238687.5, -1300483.8, -420.1376, 0.000034183766, 0.00094414206, -1238684.6, 9068.8125, 0.0, 5.0154657, 4.9752526 
2.2570148e+1, 1.7765352e+2, -1189863.8, -1252593.1, -424.1748, 0.00004025202, -0.0013945347, -1189860.9, 9134.448, 0.0, 5.015598, 4.974787 
2.2570726e+1, 1.8262713e+2, -1144690.1, -1212431.1, -458.785, 0.000024365581, 0.0010709298, -1144687.0, 5567.1123, 0.0, 5.015725, 4.9717016 
2.2571282e+1, 1.8759888e+2, -1095820.8, -1164437.4, -462.935, -0.000010629231, -0.0014786033, -1095817.6, 5713.1836, 0.0, 5.0158467, 4.971263 
2.2571824e+1, 1.9256896e+2, -1050666.6, -1124383.3, -487.22076, -0.000068962254, 0.0011180297, -1050663.4, 2160.7854, 0.0, 5.015966, 4.9681168 
2.2572353e+1, 1.9753712e+2, -1001729.94, -1076263.0, -490.92017, -0.00015089568, -0.0015240458, -1001726.7, 2409.262, 0.0, 5.0160823, 4.9677105 
2.2572884e+1, 2.025036e+2, -956685.9, -1036542.5, -505.18835, -0.00016330686, 0.0010769926, -956682.7, -1218.0671, 0.0, 5.0161986, 4.9644303 
2.2573411e+1, 2.0746809e+2, -907688.4, -988337.7, -508.7425, -0.00010618941, -0.001574988, -907685.2, -872.6982, 0.0, 5.0163145, 4.96404 
2.2573936e+1, 2.1243091e+2, -862559.5, -948540.44, -516.0078, -0.000083548766, 0.0011714186, -862556.44, -4379.4937, 0.0, 5.01643, 4.9607573 
2.2574453e+1, 2.1739174e+2, -813498.94, -900233.0, -519.48883, -0.000095974865, -0.0015790948, -813495.8, -3935.0405, 0.0, 5.0165434, 4.9603896 
2.2574975e+1, 2.2235091e+2, -768340.56, -860483.44, -516.07996, -0.00012715066, 0.001306276, -768337.7, -7376.712, 0.0, 5.0166574, 4.957065 
2.2575495e+1, 2.2730806e+2, -719221.5, -812096.9, -516.50244, -0.00016988353, -0.0015301789, -719218.6, -6837.7505, 0.0, 5.016772, 4.9567113 
2.2576031e+1, 2.3226352e+2, -674053.1, -772455.5, -508.911, -0.00013953111, 0.001329896, -674050.5, -10233.17, 0.0, 5.0168877, 4.9533234 
2.257658e+1, 2.3721693e+2, -624847.56, -723945.9, -506.954, -0.000019583174, -0.0017821634, -624844.94, -9571.019, 0.0, 5.017006, 4.9529967 
2.2577134e+1, 2.4216866e+2, -579679.25, -684447.94, -493.3923, 0.000054849763, 0.0015757929, -579676.94, -12930.082, 0.0, 5.017126, 4.9495263 
2.2577694e+1, 2.471183e+2, -530365.9, -635766.6, -492.24377, 0.00008775924, -0.001820159, -530363.56, -12123.104, 0.0, 5.017248, 4.949244 
2.2578262e+1, 2.5206622e+2, -485296.94, -596642.44, -469.71756, 0.00008533965, 0.0015453734, -485294.97, -15544.121, 0.0, 5.017372, 4.945616 
2.2578846e+1, 2.5701207e+2, -435706.22, -547411.6, -463.62173, 0.000026430445, -0.0018641806, -435704.3, -14422.499, 0.0, 5.0175, 4.94551 
2.2579446e+1, 2.6195613e+2, -390856.84, -508953.7, -439.1435, 0.000008144943, 0.0015266101, -390855.22, -18025.207, 0.0, 5.0176306, 4.9416156 
2.2580077e+1, 2.6689807e+2, -340898.0, -458978.78, -431.50198, 0.0000704852, -0.0018000808, -340896.4, -16497.74, 0.0, 5.0177674, 4.941755 
2.2580719e+1, 2.718382e+2, -296309.34, -421311.9, -397.73917, 0.00008614485, 0.0015296993, -296308.06, -20322.594, 0.0, 5.0179086, 4.937541 
2.2581382e+1, 2.7677625e+2, -245980.14, -370585.56, -389.36807, -0.0000040625223, -0.0020907186, -245978.92, -18386.418, 0.0, 5.0180564, 4.937928 
2.2582072e+1, 2.8171253e+2, -201480.8, -333332.84, -350.78894, -0.00005405262, 0.002046852, -201479.86, -22262.658, 0.0, 5.018208, 4.9335313 
2.2582802e+1, 2.8664666e+2, -150859.06, -282007.7, -338.87207, -0.000014907621, -0.0026827734, -150858.19, -19995.69, 0.0, 5.0183644, 4.9341164 
2.2583553e+1, 2.9157853e+2, -107798.39, -248337.89, -294.6447, -0.0000056861245, 0.0016279056, -107797.77, -25267.424, 0.0, 5.0185285, 4.9284077 
2.2584343e+1, 2.9650778e+2, -57083.977, -196947.19, -280.5184, -0.000037400685, -0.0005642835, -57083.414, -22859.861, 0.0, 5.0187054, 4.928993 
2.2585161e+1, 3.014439e+2, -15750.927, -134181.34, -225.28038, -0.000020842803, 0.0021317536, -15750.498, -15750.498, 0.0, 5.018887, 4.942616 
2.258603e+1, 3.063871e+2, -14157.724, -131416.16, -208.89763, 0.00003507467, -0.00536655, -14157.352, -14157.352, 0.0, 5.0190763, 4.94353 
2.2586912e+1, 3.1134766e+2, 24620.035, -41277.895, -138.68054, 0.0000038632015, 0.003966788, 24620.326, 24620.326, 0.0, 5.0192714, 4.9764557 
2.2587837e+1, 3.1632513e+2, 26855.545, -37088.598, -115.49496, -0.00013908464, -0.0009824078, 26855.754, 26855.754, 0.0, 5.019479, 4.9779134 
2.7575976e+1, 1.2282805e+2, -1707893.5, -1739712.3, 25.904942, 0.000022908673, 0.0009523543, -1707893.5, 28391.678, 0.0, 5.013836, 4.993099 
2.7577063e+1, 1.2782061e+2, -1659906.5, -1693622.1, 13.893194, 0.00006827, -0.0033343309, -1659906.5, 27451.389, 0.0, 5.0140324, 4.99206 
2.7578104e+1, 1.3281178e+2, -1614299.0, -1652345.8, -62.618675, 0.00010077285, 0.0034154605, -1614298.9, 24145.668, 0.0, 5.0142198, 4.98935 
2.75791e+1, 1.3780086e+2, -1565817.8, -1605211.8, -72.980545, 0.00015904148, -0.001372374, -1565817.6, 23733.902, 0.0, 5.0143986, 4.9886518 
2.7580053e+1, 1.4278828e+2, -1520472.9, -1564508.5, -138.41678, 0.00014761362, 0.0002041558, -1520472.5, 20202.457, 0.0, 5.01457, 4.98579 
2.758096e+1, 1.477742e+2, -1471833.8, -1517029.5, -146.17592, 0.00007121832, -0.0010450439, -1471833.3, 19979.4, 0.0, 5.0147357, 4.985208 
2.7581838e+1, 1.5275826e+2, -1426548.9, -1476489.1, -208.85893, 0.00008083088, 0.001168217, -1426548.1, 16421.01, 0.0, 5.0148935, 4.982306 
2.758269e+1, 1.5774058e+2, -1377882.5, -1428935.1, -215.41693, 0.00016761258, -0.0014661312, -1377881.6, 16260.562, 0.0, 5.0150456, 4.9817443 
2.75835e+1, 1.6272116e+2, -1332641.8, -1388518.9, -271.733, 0.00017046861, 0.0011034169, -1332640.5, 12692.039, 0.0, 5.015191, 4.9787827 
2.758427e+1, 1.677e+2, -1283892.0, -1340771.8, -278.66736, 0.000107438296, -0.0013221588, -1283890.6, 12649.329, 0.0, 5.01533, 4.9782786 
2.7585018e+1, 1.7267708e+2, -1238695.0, -1300499.3, -322.38043, 0.000052471063, 0.0009819778, -1238693.3, 9071.235, 0.0, 5.0154653, 4.9752474 
2.7585742e+1, 1.7765239e+2, -1189871.4, -1252608.8, -326.51837, 0.000003717593, -0.0014219928, -1189869.8, 9136.671, 0.0, 5.015598, 4.974782 
2.7586448e+1, 1.8262598e+2, -1144698.8, -1212448.6, -369.17117, -0.000012118896, 0.0010421182, -1144696.8, 5568.5244, 0.0, 5.0157247, 4.971696 
2.758713e+1, 1.8759774e+2, -1095829.5, -1164455.1, -373.20477, 0.000004298451, -0.0014480691, -1095827.4, 5714.5967, 0.0, 5.0158467, 4.971257 
2.7587795e+1, 1.9256781e+2, -1050673.0, -1124396.3, -401.97137, -0.000027444903, 0.0011756003, -1050670.9, 2164.54, 0.0, 5.015966, 4.9681125 
2.758844e+1, 1.9753598e+2, -1001736.25, -1076275.6, -405.66324, -0.00010772583, -0.001474056, -1001734.06, 2413.183, 0.0, 5.016082, 4.9677067 
2.7589086e+1, 2.0250244e+2, -956691.06, -1036552.7, -419.94318, -0.00013813804, 0.0011150856, -956688.9, -1212.96, 0.0, 5.016198, 4.964427 
2.7589726e+1, 2.0746693e+2, -907693.8, -988347.9, -423.79825, -0.00011867876, -0.0015508484, -907691.56, -867.7342, 0.0, 5.0163145, 4.9640365 
2.759036e+1, 2.1242975e+2, -862565.06, -948551.0, -432.7588, -0.00012566932, 0.0012139316, -862562.94, -4374.617, 0.0, 5.0164294, 4.960754 
2.7590993e+1, 2.1739058e+2, -813504.4, -900243.4, -436.313, -0.00015374202, -0.0014849644, -813502.2, -3930.0078, 0.0, 5.016543, 4.9603863 
2.7591628e+1, 2.2234975e+2, -768341.4, -860483.6, -432.55344, -0.00015694313, 0.0014144859, -768339.4, -7366.9805, 0.0, 5.0166574, 4.957065 
2.7592272e+1, 2.273069e+2, -719222.3, -812096.75, -433.1267, -0.00013030545, -0.0014488978, -719220.25, -6827.987, 0.0, 5.0167713, 4.956712 
2.7592924e+1, 2.3226236e+2, -674050.5, -772447.6, -422.5652, -0.00008643141, 0.0013808605, -674048.7, -10219.943, 0.0, 5.016887, 4.953326 
2.7593586e+1, 2.3721577e+2, -624844.9, -723937.8, -420.6418, -0.000015971214, -0.0017655055, -624843.1, -9557.773, 0.0, 5.0170054, 4.9529996 
2.7594256e+1, 2.4216753e+2, -579679.0, -684445.06, -404.16846, 0.000016208733, 0.0015983611, -579677.5, -12919.25, 0.0, 5.0171256, 4.9495277 
2.7594936e+1, 2.4711716e+2, -530366.1, -635764.6, -402.85074, 0.000015063475, -0.0017381005, -530364.56, -12112.799, 0.0, 5.0172477, 4.949245 
2.7595627e+1, 2.520651e+2, -485293.7, -596632.25, -376.7721, 0.00003040792, 0.001645647, -485292.4, -15530.264, 0.0, 5.0173717, 4.9456196 
2.759635e+1, 2.570109e+2, -435702.88, -547401.0, -370.30493, 0.00006600767, -0.001800236, -435701.66, -14408.557, 0.0, 5.017499, 4.945514 
2.7597085e+1, 2.6195496e+2, -390851.7, -508938.7, -339.5922, 0.00008091429, 0.0015707926, -390850.72, -18009.457, 0.0, 5.01763, 4.941621 
2.7597845e+1, 2.6689693e+2, -340892.78, -458963.38, -331.16306, 0.000081652244, -0.0017499193, -340891.84, -16482.0, 0.0, 5.017767, 4.941761 
2.7598625e+1, 2.7183706e+2, -296306.38, -421301.38, -289.89767, 0.000056977613, 0.0015779241, -296305.72, -20309.117, 0.0, 5.0179076, 4.9375453 
2.7599436e+1, 2.7677512e+2, -245977.69, -370575.7, -280.3986, -0.000039376067, -0.002060108, -245977.05, -18373.424, 0.0, 5.0180554, 4.9379325 
2.7600276e+1, 2.817114e+2, -201474.64, -333314.13, -236.03665, -0.0000685606, 0.0020730596, -201474.22, -22245.94, 0.0, 5.018207, 4.9335384 
2.760117e+1, 2.8664556e+2, -150852.3, -281987.47, -223.2668, 0.000039415027, -0.0026321276, -150851.92, -19978.455, 0.0, 5.0183635, 4.934124 
2.760209e+1, 2.9157743e+2, -107792.42, -248319.22, -166.13112, 0.00007160294, 0.001676106, -107792.23, -25250.998, 0.0, 5.0185275, 4.9284143 
2.760305e+1, 2.9650667e+2, -57078.598, -196929.28, -149.2625, -0.000024249608, -0.00057356415, -57078.438, -22844.045, 0.0, 5.0187044, 4.9290004 
2.7604046e+1, 3.014428e+2, -15745.7, -134163.25, -86.53172, -0.000038144946, 0.0020927764, -15745.637, -15745.637, 0.0, 5.018886, 4.942623 
2.7605107e+1, 3.0638602e+2, -14152.77, -131398.31, -68.341606, 0.000054446857, -0.005371125, -14152.7295, -14152.7295, 0.0, 5.019075, 4.9435368 
2.760619e+1, 3.1134656e+2, 24629.459, -41248.863, 12.91995, 0.000035763496, 0.0039731544, 24629.46, 24629.46, 0.0, 5.01927, 4.9764667 
2.7607316e+1, 3.1632406e+2, 26865.67, -37056.5, 39.1538, -0.00014639177, -0.0010171047, 26865.695, 26865.695, 0.0, 5.0194774, 4.9779263 
3.258984e+1, 1.2282681e+2, -1707795.6, -1739693.8, -137.50958, 0.000109744775, 0.0010037706, -1707795.0, 28502.344, 0.0, 5.0138745, 4.9930863 
3.2591116e+1, 1.2781936e+2, -1659813.6, -1693606.5, -153.30142, 0.00008521864, -0.0033156527, -1659813.0, 27557.309, 0.0, 5.01407, 4.992047 
3.2592338e+1, 1.328105e+2, -1614209.4, -1652331.0, -246.31584, 0.00008967212, 0.0034346813, -1614207.9, 24249.154, 0.0, 5.014256, 4.989337 
3.2593518e+1, 1.3779958e+2, -1565731.4, -1605198.5, -260.49094, 0.00015712723, -0.0013268152, -1565729.6, 23834.416, 0.0, 5.014434, 4.9886394 
3.259464e+1, 1.4278696e+2, -1520391.9, -1564492.6, -341.24802, 0.00016240583, 0.00024133398, -1520389.1, 20298.453, 0.0, 5.0146027, 4.9857793 
3.2595712e+1, 1.4777291e+2, -1471765.8, -1517019.9, -352.33475, 0.00010968088, -0.0010443092, -1471763.0, 20062.502, 0.0, 5.0147634, 4.9851975 
3.259675e+1, 1.5275693e+2, -1426488.4, -1476480.6, -427.56644, 0.0001068576, 0.0011580877, -1426484.8, 16497.236, 0.0, 5.014919, 4.9822965 
3.2597744e+1, 1.5773925e+2, -1377827.4, -1428929.3, -437.69064, 0.00015309705, -0.0014658358, -1377823.6, 16331.628, 0.0, 5.015069, 4.981735 
3.25987e+1, 1.6271982e+2, -1332589.6, -1388514.8, -506.19116, 0.00015388004, 0.0011151965, -1332585.0, 12760.554, 0.0, 5.015213, 4.9787736 
3.2599613e+1, 1.6769865e+2, -1283840.8, -1340767.9, -514.92914, 0.00012111475, -0.0012980534, -1283836.1, 12716.98, 0.0, 5.015352, 4.9782696 
3.2600495e+1, 1.7267571e+2, -1238652.9, -1300495.1, -569.1813, 0.000080662045, 0.0010103883, -1238647.6, 9130.076, 0.0, 5.0154834, 4.9752407 
3.2601348e+1, 1.7765103e+2, -1189850.4, -1252614.6, -576.1372, 0.000031889896, -0.0013957926, -1189845.1, 9174.601, 0.0, 5.0156083, 4.9747753 
3.2602176e+1, 1.8262462e+2, -1144684.9, -1212454.4, -625.75287, -0.0000015404916, 0.0010613367, -1144679.1, 5599.539, 0.0, 5.0157323, 4.97169 
3.2602978e+1, 1.8759638e+2, -1095815.4, -1164461.0, -629.44165, -0.000016938042, -0.0014394583, -1095809.6, 5745.8647, 0.0, 5.015854, 4.971252 
3.2603765e+1, 1.9256644e+2, -1050661.4, -1124402.4, -664.37384, -0.00003937916, 0.0011967276, -1050655.4, 2193.526, 0.0, 5.015972, 4.968107 
3.2604527e+1, 1.975346e+2, -1001729.4, -1076284.0, -669.5505, -0.00007251749, -0.0014176554, -1001723.4, 2437.414, 0.0, 5.0160866, 4.9677014 
3.2605284e+1, 2.0250107e+2, -956695.4, -1036567.9, -688.2291, -0.00009756258, 0.0011956132, -956689.44, -1199.946, 0.0, 5.0161996, 4.9644213 
3.2606038e+1, 2.0746554e+2, -907712.25, -988369.7, -695.96783, -0.00011489555, -0.0014592241, -907706.25, -868.7609, 0.0, 5.0163107, 4.9640307 
3.2606784e+1, 2.1242836e+2, -862584.0, -948562.25, -705.6711, -0.00014346567, 0.0012876752, -862578.2, -4376.2305, 0.0, 5.016423, 4.960753 
3.260753e+1, 2.173892e+2, -813523.7, -900254.56, -705.86926, -0.00017584661, -0.0014564574, -813517.94, -3932.0256, 0.0, 5.0165367, 4.9603853 
3.260828e+1, 2.2234836e+2, -768365.94, -860496.6, -702.675, -0.00016402875, 0.0014326812, -768360.56, -7374.45, 0.0, 5.016649, 4.9570646 
3.260904e+1, 2.2730552e+2, -719257.56, -812114.56, -704.8718, -0.00010110909, -0.0014031073, -719252.2, -6846.172, 0.0, 5.016759, 4.956711 
3.2609805e+1, 2.3226097e+2, -674091.56, -772463.2, -693.16003, -0.00005807805, 0.0014423701, -674086.6, -10244.172, 0.0, 5.016872, 4.9533277 
3.261058e+1, 2.3721439e+2, -624891.56, -723955.7, -693.43567, -0.000029640967, -0.0017014204, -624886.7, -9587.682, 0.0, 5.0169883, 4.9530015 
3.261137e+1, 2.4216612e+2, -579730.7, -684461.06, -674.8697, -0.000015457974, 0.0016582316, -579726.3, -12954.415, 0.0, 5.0171056, 4.949531 
3.261217e+1, 2.4711576e+2, -530426.0, -635784.3, -669.8764, -0.0000053905796, -0.0016916789, -530421.75, -12156.308, 0.0, 5.017225, 4.9492483 
3.2612988e+1, 2.520637e+2, -485360.22, -596653.1, -638.67426, 0.000023175478, 0.001684904, -485356.56, -15580.79, 0.0, 5.017346, 4.945624 
3.2613835e+1, 2.5700954e+2, -435777.22, -547425.44, -631.7925, 0.000076308694, -0.00175666, -435773.66, -14466.971, 0.0, 5.017471, 4.945518 
3.26147e+1, 2.619536e+2, -390930.66, -508961.25, -595.1666, 0.000093538256, 0.0016212303, -390927.66, -18072.883, 0.0, 5.017599, 4.941627 
3.2615596e+1, 2.6689556e+2, -340977.22, -458987.84, -585.57947, 0.000074833035, -0.0016866631, -340974.3, -16550.992, 0.0, 5.0177336, 4.9417667 
3.2616517e+1, 2.7183568e+2, -296396.63, -421326.0, -536.06995, 0.000046631416, 0.0016471535, -296394.3, -20384.318, 0.0, 5.017872, 4.937552 
3.2617474e+1, 2.7677378e+2, -246076.84, -370603.63, -520.5286, -0.000031098174, -0.001997504, -246074.67, -18457.723, 0.0, 5.0180163, 4.9379396 
3.2618466e+1, 2.8171006e+2, -201579.66, -333343.53, -466.90622, -0.000048000566, 0.0021191204, -201578.0, -22336.467, 0.0, 5.018165, 4.933546 
3.2619518e+1, 2.866442e+2, -150957.72, -282016.66, -452.58682, 0.00006192571, -0.002617728, -150956.16, -20069.475, 0.0, 5.0183215, 4.934132 
3.2620597e+1, 2.915761e+2, -107900.85, -248348.44, -383.89157, 0.00009022779, 0.0016766094, -107899.805, -25345.43, 0.0, 5.018484, 4.928423 
3.262173e+1, 2.9650533e+2, -57196.15, -196962.3, -362.33206, -0.00001861569, -0.0005522842, -57195.21, -22947.783, 0.0, 5.0186577, 4.9290085 
3.262291e+1, 3.0144146e+2, -15869.485, -134195.34, -286.1641, -0.000031514966, 0.0021230197, -15868.793, -15868.793, 0.0, 5.018836, 4.9426327 
3.2624158e+1, 3.063847e+2, -14283.412, -131432.81, -261.49847, 0.00008900271, -0.0053576445, -14282.828, -14282.828, 0.0, 5.0190225, 4.943547 
3.2625434e+1, 3.1134528e+2, 24499.61, -41275.04, -157.74167, 0.00007375997, 0.0039620968, 24499.988, 24499.988, 0.0, 5.019216, 4.9764805 
3.2626763e+1, 3.1632274e+2, 26739.096, -37079.125, -125.06201, -0.00015853236, -0.0010605676, 26739.34, 26739.34, 0.0, 5.019424, 4.9779406 
3.7603724e+1, 1.2282536e+2, -1707817.4, -1739739.3, 8.0292845, 0.00022116046, 0.0010694993, -1707817.4, 28494.193, 0.0, 5.013875, 4.9930716 
3.760519e+1, 1.278179e+2, -1659835.6, -1693652.6, -8.40687, 0.00010662119, -0.003275391, -1659835.6, 27548.977, 0.0, 5.01407, 4.9920316 
3.760659e+1, 1.3280904e+2, -1614230.9, -1652376.0, -114.01543, 0.00006249568, 0.003468615, -1614230.5, 24240.943, 0.0, 5.014256, 4.9893217 
3.7607944e+1, 1.377981e+2, -1565752.6, -1605243.3, -128.6459, 0.00012015104, -0.0012868292, -1565752.1, 23826.504, 0.0, 5.014434, 4.988624 
3.760924e+1, 1.4278546e+2, -1520409.4, -1564529.9, -222.3912, 0.00016485403, 0.00026818417, -1520408.3, 20294.154, 0.0, 5.0146027, 4.985767 
3.7610486e+1, 1.4777137e+2, -1471783.1, -1517056.9, -233.74507, 0.00019243991, -0.0010463303, -1471781.9, 20058.541, 0.0, 5.0147634, 4.985185 
3.7611672e+1, 1.527554e+2, -1426504.4, -1476514.5, -316.9447, 0.00016663231, 0.0011591234, -1426502.4, 16494.67, 0.0, 5.014919, 4.982285 
3.7612808e+1, 1.5773772e+2, -1377843.3, -1428962.9, -327.27927, 0.00010619813, -0.0014352163, -1377841.1, 16329.147, 0.0, 5.015069, 4.981724 
3.7613907e+1, 1.6271828e+2, -1332604.3, -1388545.4, -404.582, 0.000086756256, 0.0011446163, -1332601.4, 12759.496, 0.0, 5.015213, 4.978763 
3.7614962e+1, 1.6769709e+2, -1283855.4, -1340798.4, -413.55902, 0.000105843545, -0.0012956378, -1283852.4, 12716.053, 0.0, 5.015352, 4.978259 
3.7615982e+1, 1.7267416e+2, -1238665.6, -1300521.8, -478.00827, 0.000116565556, 0.0010297938, -1238662.0, 9131.194, 0.0, 5.015483, 4.9752316 
3.7616965e+1, 1.7764945e+2, -1189863.0, -1252640.8, -484.76035, 0.00011851725, -0.0013202148, -1189859.3, 9175.999, 0.0, 5.0156083, 4.9747663 
3.7617916e+1, 1.8262303e+2, -1144692.6, -1212470.3, -537.0912, 0.000051115047, 0.0011249409, -1144688.4, 5605.805, 0.0, 5.015732, 4.971685 
3.7618828e+1, 1.8759477e+2, -1095823.5, -1164477.1, -540.92334, -0.00007355617, -0.0014512498, -1095819.3, 5751.855, 0.0, 5.015854, 4.9712462 
3.7619728e+1, 1.9256483e+2, -1050670.6, -1124420.6, -581.5879, -0.000102832804, 0.0011837094, -1050666.0, 2198.5476, 0.0, 5.015972, 4.968101 
3.7620616e+1, 1.9753301e+2, -1001738.56, -1076302.1, -586.8953, -0.000046480964, -0.0013558059, -1001733.94, 2442.51, 0.0, 5.0160866, 4.967695 
3.7621495e+1, 2.0249946e+2, -956707.56, -1036592.4, -607.9377, -0.000044443357, 0.0013150722, -956702.94, -1197.7234, 0.0, 5.016199, 4.964413 
3.7622353e+1, 2.0746395e+2, -907724.5, -988394.2, -615.63336, -0.00009788993, -0.0013056276, -907719.8, -866.4711, 0.0, 5.01631, 4.9640226 
3.7623212e+1, 2.1242674e+2, -862584.06, -948560.0, -623.6714, -0.00014034176, 0.00138989, -862579.56, -4361.6533, 0.0, 5.0164227, 4.960754 
3.7624064e+1, 2.1738756e+2, -813523.94, -900252.1, -624.11646, -0.00016653321, -0.0014891196, -813519.44, -3917.5872, 0.0, 5.016536, 4.9603868 
3.762493e+1, 2.2234672e+2, -768370.0, -860502.25, -623.36707, -0.00015192693, 0.0013672623, -768365.75, -7363.691, 0.0, 5.0166483, 4.957063 
3.7625802e+1, 2.2730388e+2, -719261.4, -812120.06, -625.6659, -0.00008322798, -0.0013905946, -719257.2, -6835.243, 0.0, 5.0167584, 4.9567094 
3.7626678e+1, 2.3225935e+2, -674093.4, -772464.06, -609.7378, -0.000054134463, 0.0015130723, -674089.56, -10231.199, 0.0, 5.0168715, 4.9533277 
3.7627566e+1, 2.3721276e+2, -624893.7, -723956.5, -609.8634, -0.000060780207, -0.0015941601, -624889.94, -9575.045, 0.0, 5.0169873, 4.9530015 
3.7628472e+1, 2.4216452e+2, -579726.5, -684447.2, -589.13464, -0.000042297124, 0.001752019, -579723.2, -12935.413, 0.0, 5.0171046, 4.9495363 
3.7629396e+1, 2.4711415e+2, -530421.7, -635769.8, -584.0383, 0.000020505388, -0.0016785982, -530418.5, -12137.164, 0.0, 5.017224, 4.949254 
3.7630337e+1, 2.5206208e+2, -485357.53, -596642.0, -549.0872, 0.000058040067, 0.0016673349, -485354.8, -15563.215, 0.0, 5.017345, 4.945628 
3.7631306e+1, 2.570079e+2, -435774.9, -547415.2, -541.89014, 0.000057737587, -0.001732515, -435772.28, -14449.8125, 0.0, 5.0174694, 4.9455223 
3.7632298e+1, 2.6195198e+2, -390926.22, -508945.9, -498.4307, 0.00004857446, 0.0016765821, -390924.1, -18053.598, 0.0, 5.017598, 4.9416327 
3.7633327e+1, 2.6689398e+2, -340972.94, -458972.13, -488.0285, 0.00004939977, -0.0016123315, -340970.9, -16531.953, 0.0, 5.0177326, 4.941773 
3.7634388e+1, 2.7183414e+2, -296388.25, -421300.38, -431.9709, 0.00005149856, 0.0017346413, -296386.75, -20361.21, 0.0, 5.017871, 4.937562 
3.7635493e+1, 2.7677223e+2, -246067.9, -370576.34, -415.58685, 0.000015071564, -0.0019065121, -246066.53, -18434.152, 0.0, 5.018015, 4.9379497 
3.7636635e+1, 2.8170848e+2, -201573.47, -333322.22, -354.1539, 0.0000024703443, 0.0021825118, -201572.53, -22315.64, 0.0, 5.0181637, 4.933554 
3.7637836e+1, 2.8664264e+2, -150952.19, -281996.53, -338.36914, 0.000053287058, -0.0026375756, -150951.31, -20049.277, 0.0, 5.01832, 4.9341397 
3.7639076e+1, 2.9157454e+2, -107893.86, -248324.3, -258.7688, 0.000053278578, 0.0016322829, -107893.38, -25323.697, 0.0, 5.0184827, 4.928432 
3.764039e+1, 2.965038e+2, -57189.477, -196937.86, -234.84512, -0.000021911379, -0.00050419255, -57189.082, -22926.533, 0.0, 5.018656, 4.929018 
3.7641746e+1, 3.0143997e+2, -15860.1455, -134163.77, -150.67622, -0.0000055721403, 0.0022153708, -15859.954, -15859.954, 0.0, 5.018834, 4.942645 
3.7643185e+1, 3.063832e+2, -14273.609, -131399.81, -124.145, 0.00013517859, -0.0053288448, -14273.478, -14273.478, 0.0, 5.0190206, 4.9435596 
3.7644655e+1, 3.1134376e+2, 24511.84, -41235.613, -7.3474894, 0.0001136325, 0.00393402, 24511.84, 24511.84, 0.0, 5.0192137, 4.9764957 
3.7646186e+1, 3.1632125e+2, 26751.152, -37038.21, 29.006058, -0.00018434356, -0.0011140547, 26751.166, 26751.166, 0.0, 5.019421, 4.977957 
4.2617634e+1, 1.2282372e+2, -1707680.8, -1739712.8, -150.92815, 0.0002925567, 0.0011373567, -1707680.0, 28647.668, 0.0, 5.013929, 4.9930534 
4.2619288e+1, 1.2781624e+2, -1659712.0, -1693633.0, -172.36372, 0.00014866887, -0.003200475, -1659711.1, 27689.832, 0.0, 5.01412, 4.9920135 
4.2620873e+1, 1.3280736e+2, -1614114.0, -1652355.3, -293.16754, 0.000083245715, 0.003524184, -1614111.8, 24376.207, 0.0, 5.0143027, 4.989306 
4.2622402e+1, 1.3779639e+2, -1565643.1, -1605226.4, -310.1865, 0.00012717357, -0.0012727553, -1565640.8, 23954.7, 0.0, 5.0144787, 4.9886084 
4.2623866e+1, 1.4278375e+2, -1520305.3, -1564514.4, -420.26947, 0.0001689987, 0.00027862433, -1520301.3, 20418.066, 0.0, 5.0146456, 4.9857516 
4.2625272e+1, 1.4776966e+2, -1471683.3, -1517043.4, -436.58798, 0.00020396028, -0.001009482, -1471679.0, 20178.373, 0.0, 5.014805, 4.98517 
4.262661e+1, 1.5275365e+2, -1426412.5, -1476501.4, -533.6413, 0.0001760339, 0.0012042646, -1426406.8, 16607.371, 0.0, 5.0149565, 4.9822717 
4.2627895e+1, 1.5773594e+2, -1377766.3, -1428956.5, -547.8476, 0.00010686986, -0.0013966592, -1377760.4, 16427.258, 0.0, 5.0151014, 4.9817104 
4.2629132e+1, 1.6271651e+2, -1332537.1, -1388537.1, -636.17365, 0.000083538005, 0.0011677288, -1332529.9, 12848.383, 0.0, 5.015241, 4.9787526 
4.2630327e+1, 1.676953e+2, -1283801.3, -1340796.4, -645.95667, 0.00010250849, -0.0012952902, -1283793.9, 12792.101, 0.0, 5.015375, 4.9782486 
4.2631477e+1, 1.7267236e+2, -1238618.3, -1300522.1, -721.3896, 0.00011866495, 0.001039373, -1238609.9, 9200.912, 0.0, 5.0155044, 4.9752216 
4.263259e+1, 1.7764767e+2, -1189819.3, -1252642.9, -730.2171, 0.00013230501, -0.0012740018, -1189810.8, 9242.1455, 0.0, 5.015628, 4.9747562 
4.2633656e+1, 1.8262121e+2, -1144657.9, -1212471.1, -790.49805, 0.00006803406, 0.0011855357, -1144648.8, 5663.2485, 0.0, 5.0157475, 4.9716773 
4.2634687e+1, 1.8759295e+2, -1095806.5, -1164486.1, -798.0204, -0.00006439944, -0.0013959031, -1095797.3, 5791.7285, 0.0, 5.0158634, 4.971239 
4.2635703e+1, 1.92563e+2, -1050663.0, -1124430.6, -845.0349, -0.000097132164, 0.0012293766, -1050653.4, 2229.1523, 0.0, 5.0159774, 4.9680953 
4.2636707e+1, 1.9753118e+2, -1001737.6, -1076315.5, -850.4913, -0.000038356902, -0.0013187582, -1001727.94, 2466.5815, 0.0, 5.0160894, 4.9676895 
4.263769e+1, 2.0249762e+2, -956714.6, -1036611.5, -874.2577, -0.000034445122, 0.0013527664, -956705.06, -1181.7206, 0.0, 5.0162, 4.964406 
4.263866e+1, 2.074621e+2, -907739.5, -988416.94, -880.4384, -0.00008526095, -0.0012609599, -907729.9, -858.4152, 0.0, 5.0163083, 4.9640155 
4.2639634e+1, 2.1242489e+2, -862606.3, -948575.6, -890.1763, -0.00011858714, 0.0014390926, -862597.1, -4361.039, 0.0, 5.016416, 4.9607515 
4.2640603e+1, 2.1738571e+2, -813563.4, -900275.5, -895.8379, -0.0001300721, -0.0014375065, -813554.1, -3934.0437, 0.0, 5.0165234, 4.9603844 
4.2641574e+1, 2.2234486e+2, -768415.06, -860523.9, -897.19324, -0.00012413545, 0.0014089098, -768406.3, -7386.0313, 0.0, 5.0166326, 4.9570627 
4.2642552e+1, 2.2730203e+2, -719304.25, -812140.4, -897.66235, -0.00008820506, -0.0013718562, -719295.56, -6855.411, 0.0, 5.0167437, 4.956709 
4.2643538e+1, 2.3225749e+2, -674142.7, -772484.2, -879.5718, -0.0000720258, 0.0015265871, -674134.8, -10258.22, 0.0, 5.0168533, 4.953329 
4.2644542e+1, 2.372109e+2, -624963.0, -723985.56, -878.22864, -0.00006734341, -0.0015658418, -624955.2, -9622.054, 0.0, 5.0169625, 4.953003 
4.2645562e+1, 2.4216266e+2, -579806.4, -684473.44, -854.17194, -0.00004219437, 0.001783676, -579799.4, -12993.402, 0.0, 5.017074, 4.949541 
4.2646602e+1, 2.471123e+2, -530509.6, -635799.25, -850.1438, 0.000022402106, -0.0016576637, -530502.75, -12203.297, 0.0, 5.0171905, 4.949259 
4.2647663e+1, 2.5206023e+2, -485449.06, -596670.3, -810.9013, 0.000050600145, 0.0016921433, -485443.16, -15633.448, 0.0, 5.0173097, 4.9456344 
4.2648754e+1, 2.5700608e+2, -435867.2, -547443.7, -800.76465, 0.000021837786, -0.0016833683, -435861.44, -14520.9375, 0.0, 5.017434, 4.945528 
4.264987e+1, 2.6195017e+2, -391023.34, -508973.88, -751.0286, 0.0000069554326, 0.001734557, -391018.56, -18130.082, 0.0, 5.01756, 4.94164 
4.2651036e+1, 2.6689216e+2, -341085.0, -459006.47, -738.57117, 0.00003779748, -0.0015658197, -341080.38, -16623.48, 0.0, 5.0176888, 4.94178 
4.2652234e+1, 2.7183232e+2, -296507.9, -421331.97, -674.4267, 0.000056111166, 0.0017762748, -296504.25, -20460.844, 0.0, 5.017823, 4.9375715 
4.2653483e+1, 2.7677038e+2, -246191.34, -370608.34, -656.9834, 0.000013497903, -0.0018570741, -246187.88, -18537.768, 0.0, 5.017966, 4.93796 
4.2654774e+1, 2.817067e+2, -201700.19, -333352.78, -586.7784, -0.0000019460551, 0.0022357942, -201697.56, -22423.059, 0.0, 5.0181127, 4.9335656 
4.2656133e+1, 2.8664088e+2, -151082.89, -282028.13, -563.93677, 0.00005204556, -0.002589898, -151080.45, -20160.902, 0.0, 5.018267, 4.934151 
4.265753e+1, 2.9157275e+2, -108032.72, -248360.7, -471.39545, 0.00005233509, 0.0016681434, -108031.14, -25444.045, 0.0, 5.018427, 4.928443 
4.2659014e+1, 2.9650205e+2, -57341.28, -196980.31, -443.35382, -0.000028132348, -0.0004890571, -57339.875, -23060.01, 0.0, 5.0185957, 4.929029 
4.266055e+1, 3.014382e+2, -16017.684, -134201.16, -345.30545, -0.000009645736, 0.0022145556, -16016.675, -16016.675, 0.0, 5.0187697, 4.942659 
4.2662174e+1, 3.0638143e+2, -14434.879, -131437.33, -313.78946, 0.00015309652, -0.0053351414, -14434.037, -14434.037, 0.0, 5.0189543, 4.9435744 
4.2663833e+1, 3.1134203e+2, 24349.424, -41266.94, -175.55432, 0.00014378721, 0.003922571, 24349.893, 24349.893, 0.0, 5.0191455, 4.9765134 
4.2665568e+1, 3.1631956e+2, 26579.764, -37071.707, -132.55962, -0.00017013845, -0.0011238795, 26580.041, 26580.041, 0.0, 5.0193496, 4.977975 
4.7631565e+1, 1.22821875e+2, -1707710.1, -1739775.1, -9.272909, 0.00032331378, 0.0012071779, -1707710.1, 28635.762, 0.0, 5.0139294, 4.993033 
4.7633415e+1, 1.2781438e+2, -1659741.3, -1693695.4, -31.328892, 0.00020713528, -0.0030939684, -1659741.3, 27678.014, 0.0, 5.0141206, 4.991993 
4.7635183e+1, 1.3280547e+2, -1614138.3, -1652407.1, -163.51886, 0.00014606578, 0.0035995403, -1614137.6, 24368.928, 0.0, 5.014303, 4.9892883 
4.7636887e+1, 1.3779448e+2, -1565667.6, -1605278.6, -181.21066, 0.00017274314, -0.0012822268, -1565666.8, 23947.328, 0.0, 5.0144787, 4.9885907 
4.7638512e+1, 1.4278182e+2, -1520331.3, -1564569.8, -303.48236, 0.00017333114, 0.00027404033, -1520329.1, 20408.986, 0.0, 5.0146456, 4.985733 
4.7640067e+1, 1.4776772e+2, -1471709.0, -1517098.3, -320.13544, 0.0001492207, -0.0009373952, -1471706.8, 20169.678, 0.0, 5.014805, 4.9851513 
4.7641563e+1, 1.5275171e+2, -1426435.0, -1476549.5, -427.78333, 0.00013799685, 0.0012894449, -1426431.4, 16601.965, 0.0, 5.0149565, 4.9822555 
4.7643003e+1, 1.5773398e+2, -1377788.4, -1429003.8, -442.21884, 0.0001492496, -0.0013509901, -1377784.6, 16422.361, 0.0, 5.015102, 4.981694 
4.764438e+1, 1.6271451e+2, -1332552.6, -1388570.1, -538.903, 0.0001370469, 0.0011849409, -1332547.4, 12850.334, 0.0, 5.015241, 4.9787416 
4.7645703e+1, 1.676933e+2, -1283817.0, -1340829.6, -548.8009, 0.000108699496, -0.0012970138, -1283811.8, 12793.871, 0.0, 5.015375, 4.9782376 
4.7646976e+1, 1.7267035e+2, -1238634.8, -1300556.6, -632.27826, 0.000088707966, 0.0010399232, -1238628.4, 9202.204, 0.0, 5.015504, 4.9752097 
4.764821e+1, 1.7764562e+2, -1189835.6, -1252677.1, -641.3137, 0.0000784305, -0.001254497, -1189829.1, 9243.639, 0.0, 5.015628, 4.974745 
4.76494e+1, 1.826192e+2, -1144672.5, -1212501.3, -707.7266, 0.000050834675, 0.0012430585, -1144665.1, 5666.734, 0.0, 5.0157475, 4.9716673 
4.7650558e+1, 1.8759093e+2, -1095821.0, -1164515.3, -715.1322, 0.0000023605194, -0.0012802426, -1095813.6, 5795.391, 0.0, 5.015863, 4.971229 
4.7651687e+1, 1.9256096e+2, -1050672.8, -1124449.3, -764.9579, -0.00003059098, 0.0013278899, -1050664.9, 2237.7234, 0.0, 5.015977, 4.968089 
4.7652793e+1, 1.975291e+2, -1001747.94, -1076334.9, -770.375, -0.000048013975, -0.0013042779, -1001739.94, 2474.7563, 0.0, 5.016089, 4.967683 
4.765389e+1, 2.0249556e+2, -956724.5, -1036629.94, -797.204, -0.000065148764, 0.0013162999, -956716.56, -1172.9144, 0.0, 5.0161996, 4.9644003 
4.765497e+1, 2.0746002e+2, -907749.2, -988435.0, -803.7198, -0.00007824128, -0.0013149994, -907741.2, -849.36694, 0.0, 5.016308, 4.96401 
4.765605e+1, 2.1242282e+2, -862615.6, -948592.56, -814.1594, -0.00008167698, 0.0014400925, -862607.9, -4351.4663, 0.0, 5.0164156, 4.960746 
4.7657132e+1, 2.1738364e+2, -813572.94, -900292.44, -819.87036, -0.00007096773, -0.0013105267, -813565.2, -3924.7727, 0.0, 5.016523, 4.960379 
4.765821e+1, 2.223428e+2, -768417.0, -860523.4, -818.5519, -0.00008387915, 0.0015464274, -768409.75, -7369.0884, 0.0, 5.0166316, 4.957063 
4.7659293e+1, 2.2729994e+2, -719306.5, -812139.56, -819.03644, -0.00011549341, -0.0013481252, -719299.3, -6838.684, 0.0, 5.016742, 4.95671 
4.766039e+1, 2.322554e+2, -674143.75, -772480.1, -802.6687, -0.0001112845, 0.0014880745, -674137.2, -10240.117, 0.0, 5.0168524, 4.953331 
4.7661507e+1, 2.3720883e+2, -624963.94, -723981.4, -801.38336, -0.00005359677, -0.0016090915, -624957.44, -9603.876, 0.0, 5.016961, 4.953005 
4.7662637e+1, 2.4216059e+2, -579805.2, -684464.44, -772.1932, -0.000019796738, 0.0017585931, -579799.5, -12973.154, 0.0, 5.0170727, 4.9495444 
4.7663793e+1, 2.4711023e+2, -530508.75, -635790.3, -767.79535, 0.0000007554189, -0.0016307248, -530503.2, -12183.377, 0.0, 5.017189, 4.9492626 
4.766497e+1, 2.5205818e+2, -485444.4, -596652.1, -722.89233, 0.0000030808865, 0.0017539784, -485439.72, -15609.774, 0.0, 5.017308, 4.945641 
4.766618e+1, 2.5700402e+2, -435862.8, -547425.06, -712.3204, -0.00003180308, -0.0016128207, -435858.25, -14497.616, 0.0, 5.017432, 4.945535 
4.7667426e+1, 2.619481e+2, -391018.63, -508953.84, -659.37274, -0.000033712568, 0.0017939133, -391014.94, -18106.361, 0.0, 5.017558, 4.9416475 
4.7668725e+1, 2.668901e+2, -341080.25, -458986.44, -646.51605, 0.000036532892, -0.0015451354, -341076.72, -16599.762, 0.0, 5.017687, 4.9417877 
4.767006e+1, 2.7183026e+2, -296501.03, -421306.8, -573.00995, 0.000058348218, 0.0017759711, -296498.4, -20434.998, 0.0, 5.0178213, 4.9375815 
4.7671443e+1, 2.767684e+2, -246184.52, -370582.53, -554.32764, -0.00003277218, -0.0018459336, -246182.05, -18512.021, 0.0, 5.017964, 4.93797 
4.7672883e+1, 2.817047e+2, -201688.84, -333315.63, -476.4327, -0.00005743446, 0.0022788115, -201687.13, -22392.842, 0.0, 5.0181108, 4.93358 
4.76744e+1, 2.866389e+2, -151071.3, -281989.16, -452.13663, 0.00005533671, -0.0024833605, -151069.73, -20130.643, 0.0, 5.018265, 4.9341664 
4.767596e+1, 2.9157078e+2, -108024.64, -248328.88, -350.82623, 0.00008137498, 0.0017741726, -108023.76, -25417.28, 0.0, 5.0184245, 4.9284554 
4.767761e+1, 2.9650006e+2, -57334.35, -196950.6, -320.71478, -0.000039296032, -0.00050428195, -57333.617, -23034.363, 0.0, 5.018593, 4.9290404 
4.7679314e+1, 3.0143622e+2, -16006.896, -134161.72, -212.65897, -0.00004339606, 0.0021297191, -16006.514, -16006.514, 0.0, 5.018767, 4.9426746 
4.7681126e+1, 3.063795e+2, -14423.5205, -131395.97, -178.80241, 0.00014328538, -0.0053738286, -14423.247, -14423.247, 0.0, 5.0189514, 4.9435906 
4.7682983e+1, 3.113401e+2, 24363.412, -41218.305, -28.81322, 0.00016184003, 0.003924738, 24363.426, 24363.426, 0.0, 5.0191426, 4.9765325 
4.7684926e+1, 3.1631765e+2, 26593.316, -37021.395, 17.485947, -0.00012780474, -0.0010968851, 26593.32, 26593.32, 0.0, 5.0193458, 4.9779954 
5.264553e+1, 1.2281983e+2, -1707538.5, -1739745.6, -161.49606, 0.0003423209, 0.0012222034, -1707537.6, 28828.283, 0.0, 5.0139985, 4.9930086 
5.264757e+1, 1.2781231e+2, -1659580.8, -1693671.4, -189.35341, 0.000251785, -0.0030390015, -1659579.8, 27859.855, 0.0, 5.014186, 4.9919686 
5.264952e+1, 1.3280338e+2, -1613986.4, -1652380.9, -338.85858, 0.00020075399, 0.0036644447, -1613983.4, 24543.695, 0.0, 5.0143642, 4.9892673 
5.26514e+1, 1.3779238e+2, -1565529.8, -1605259.4, -362.76068, 0.00022260657, -0.001230765, -1565526.4, 24108.46, 0.0, 5.0145354, 4.9885697 
5.265319e+1, 1.427797e+2, -1520202.1, -1564551.4, -500.409, 0.00019443154, 0.00031504701, -1520196.4, 20562.674, 0.0, 5.0146985, 4.9857135 
5.26549e+1, 1.4776556e+2, -1471588.5, -1517084.0, -519.2213, 0.00012491518, -0.0009046441, -1471582.5, 20315.049, 0.0, 5.014855, 4.9851317 
5.265654e+1, 1.5274952e+2, -1426323.3, -1476535.1, -640.4761, 0.00011591725, 0.0013189374, -1426315.1, 16739.576, 0.0, 5.0150027, 4.982238 
5.265813e+1, 1.577318e+2, -1377690.0, -1428995.6, -657.2461, 0.00016905689, -0.0013211039, -1377681.6, 16546.875, 0.0, 5.0151434, 4.981677 
5.265964e+1, 1.627123e+2, -1332465.8, -1388562.3, -767.1665, 0.00016596874, 0.0012249306, -1332455.3, 12964.156, 0.0, 5.015278, 4.978727 
5.26611e+1, 1.6769108e+2, -1283746.8, -1340829.5, -782.7176, 0.00012037758, -0.0012378931, -1283736.0, 12891.419, 0.0, 5.015406, 4.978223 
5.266249e+1, 1.7266811e+2, -1238572.8, -1300554.3, -876.52985, 0.000075679265, 0.0010964229, -1238560.3, 9292.16, 0.0, 5.015531, 4.975198 
5.2663845e+1, 1.7764339e+2, -1189780.9, -1252678.3, -886.79645, 0.00003280415, -0.0012198756, -1189768.4, 9326.422, 0.0, 5.015652, 4.974733 
5.2665156e+1, 1.8261693e+2, -1144629.3, -1212504.1, -962.47736, 0.000028615263, 0.0012786533, -1144615.6, 5738.4453, 0.0, 5.015767, 4.971657 
5.266643e+1, 1.8758865e+2, -1095797.8, -1164527.4, -970.4528, 0.000050884068, -0.0012215516, -1095784.1, 5847.165, 0.0, 5.015876, 4.971219 
5.266768e+1, 1.9255869e+2, -1050660.5, -1124457.5, -1023.22876, 0.000023713374, 0.0013892531, -1050646.4, 2278.636, 0.0, 5.015984, 4.968083 
5.266888e+1, 1.9752683e+2, -1001747.4, -1076348.8, -1028.9396, -0.000046245255, -0.0012610721, -1001733.2, 2503.9678, 0.0, 5.0160923, 4.9676766 
5.267009e+1, 2.0249325e+2, -956735.44, -1036655.06, -1060.2223, -0.000081162274, 0.0013443484, -956721.4, -1155.2142, 0.0, 5.0161996, 4.964391 
5.267128e+1, 2.0745772e+2, -907764.44, -988462.1, -1071.0953, -0.00007783534, -0.001295795, -907750.25, -835.8221, 0.0, 5.0163064, 4.964001 
5.2672464e+1, 2.1242052e+2, -862634.8, -948610.7, -1085.9342, -0.000068172485, 0.0014590321, -862621.1, -4342.036, 0.0, 5.016411, 4.960742 
5.267365e+1, 2.1738133e+2, -813608.56, -900317.94, -1089.8577, -0.00004608328, -0.0012849295, -813594.9, -3931.7756, 0.0, 5.016512, 4.960375 
5.2674836e+1, 2.2234048e+2, -768466.25, -860545.9, -1086.7009, -0.000056224333, 0.0015705015, -768453.44, -7390.0464, 0.0, 5.0166144, 4.9570637 
5.267603e+1, 2.2729762e+2, -719377.1, -812171.5, -1088.1719, -0.000096027805, -0.0013318075, -719364.4, -6881.0293, 0.0, 5.0167174, 4.9567103 
5.2677226e+1, 2.322531e+2, -674225.0, -772511.6, -1071.8214, -0.00009823975, 0.0014899109, -674213.3, -10293.525, 0.0, 5.0168223, 4.953334 
5.2678454e+1, 2.3720652e+2, -625048.75, -724014.2, -1069.7203, -0.00004572428, -0.0016305215, -625037.2, -9660.952, 0.0, 5.0169296, 4.9530077 
5.2679694e+1, 2.4215826e+2, -579895.7, -684497.0, -1036.735, -0.000029155772, 0.0017383295, -579885.44, -13036.408, 0.0, 5.017039, 4.9495487 
5.268096e+1, 2.4710792e+2, -530611.06, -635828.25, -1032.0715, -0.00003879755, -0.00161639, -530600.94, -12258.555, 0.0, 5.017151, 4.9492664 
5.268225e+1, 2.5205588e+2, -485556.84, -596686.6, -983.02814, -0.000041205178, 0.0017845161, -485548.16, -15695.654, 0.0, 5.017265, 4.9456487 
5.2683586e+1, 2.5700173e+2, -435993.38, -547467.0, -971.8525, -0.00004750674, -0.0015907044, -435984.9, -14601.7705, 0.0, 5.017382, 4.945543 
5.2684957e+1, 2.6194584e+2, -391156.9, -508992.44, -912.31775, -0.000036333196, 0.0018147031, -391149.84, -18218.877, 0.0, 5.0175037, 4.941658 
5.268638e+1, 2.6688784e+2, -341218.6, -459024.06, -894.71686, 0.00001909343, -0.0015145579, -341211.78, -16712.549, 0.0, 5.0176325, 4.9417987 
5.268785e+1, 2.71828e+2, -296642.8, -421344.8, -810.70215, 0.00002321866, 0.0018098034, -296637.53, -20551.938, 0.0, 5.017765, 4.9375925 
5.2689373e+1, 2.7676612e+2, -246336.23, -370624.56, -789.06714, -0.00008290596, -0.0018164978, -246331.22, -18639.098, 0.0, 5.017904, 4.9379816 
5.2690953e+1, 2.8170243e+2, -201847.94, -333352.03, -703.29645, -0.000103168786, 0.0023130565, -201844.17, -22527.92, 0.0, 5.018046, 4.933595 
5.269263e+1, 2.8663665e+2, -151243.89, -282029.66, -676.1328, 0.000046271005, -0.0024305314, -151240.39, -20279.508, 0.0, 5.018195, 4.934182 
5.2694345e+1, 2.9156858e+2, -108209.36, -248376.7, -563.5451, 0.0000860947, 0.0018261218, -108207.09, -25578.984, 0.0, 5.01835, 4.9284706 
5.2696157e+1, 2.9649788e+2, -57522.883, -197000.58, -527.0994, -0.00006808041, -0.00048614966, -57520.895, -23200.129, 0.0, 5.0185175, 4.929055 
5.2698034e+1, 3.0143404e+2, -16196.511, -134207.03, -403.67166, -0.00008836742, 0.0021290758, -16195.13, -16195.13, 0.0, 5.0186896, 4.9426913 
5.2700037e+1, 3.0637732e+2, -14618.774, -131442.97, -366.15164, 0.00013141967, -0.005359581, -14617.627, -14617.627, 0.0, 5.018872, 4.9436073 
5.270208e+1, 3.1133795e+2, 24164.43, -41255.484, -198.20328, 0.00017923435, 0.0039452496, 24165.03, 24165.03, 0.0, 5.0190587, 4.9765544 
5.270422e+1, 3.1631553e+2, 26373.123, -37064.508, -144.67424, -0.0001066288, -0.0010918255, 26373.453, 26373.453, 0.0, 5.0192533, 4.9780188 
5.765953e+1, 1.2281758e+2, -1707577.3, -1739828.1, -23.570883, 0.0003476754, 0.0011878617, -1707577.3, 28810.637, 0.0, 5.013999, 4.992981 
5.766176e+1, 1.2781005e+2, -1659619.0, -1693753.3, -51.99683, 0.00028163823, -0.0030305577, -1659618.9, 27842.887, 0.0, 5.0141864, 4.9919415 
5.7663894e+1, 1.3280109e+2, -1614020.8, -1652454.9, -213.55061, 0.00024595472, 0.0037195878, -1614019.5, 24530.006, 0.0, 5.014365, 4.9892426 
5.766594e+1, 1.3779007e+2, -1565563.9, -1605332.9, -237.986, 0.0002742968, -0.0011251831, -1565562.4, 24095.152, 0.0, 5.014536, 4.988545 
5.766789e+1, 1.4277735e+2, -1520230.6, -1564613.1, -386.59695, 0.00022863346, 0.0003966583, -1520227.3, 20554.75, 0.0, 5.014699, 4.9856925 
5.766975e+1, 1.477632e+2, -1471617.3, -1517145.6, -406.00232, 0.00012596328, -0.0009069321, -1471613.6, 20307.078, 0.0, 5.0148554, 4.985111 
5.767154e+1, 1.5274714e+2, -1426349.8, -1476591.5, -539.1153, 0.00010641939, 0.0012987438, -1426343.9, 16734.13, 0.0, 5.015003, 4.9822187 
5.767327e+1, 1.5772939e+2, -1377716.3, -1429051.8, -556.1052, 0.00016718719, -0.0013053912, -1377710.3, 16541.764, 0.0, 5.015144, 4.981658 
5.767492e+1, 1.6270989e+2, -1332491.5, -1388617.3, -675.1958, 0.00017131187, 0.0012849182, -1332483.4, 12959.743, 0.0, 5.015278, 4.9787083 
5.76765e+1, 1.6768865e+2, -1283772.0, -1340883.9, -690.73804, 0.00013511868, -0.0011251156, -1283763.6, 12887.588, 0.0, 5.0154066, 4.9782043 
5.7678026e+1, 1.7266567e+2, -1238590.6, -1300592.4, -790.13196, 0.00007600764, 0.0012022138, -1238580.6, 9295.91, 0.0, 5.015531, 4.975185 
5.767949e+1, 1.7764093e+2, -1189799.6, -1252716.5, -800.706, -0.00000723624, -0.0011720931, -1189789.4, 9329.614, 0.0, 5.015652, 4.97472 
5.768092e+1, 1.8261446e+2, -1144645.5, -1212536.6, -886.001, -0.00000007906147, 0.0012946915, -1144633.9, 5744.4634, 0.0, 5.0157666, 4.9716463 
5.768231e+1, 1.8758617e+2, -1095814.0, -1164560.3, -894.0004, 0.000081221864, -0.0012135688, -1095802.4, 5853.3115, 0.0, 5.0158753, 4.971208 
5.7683665e+1, 1.925562e+2, -1050670.9, -1124477.8, -947.43024, 0.000065056076, 0.0014174712, -1050658.8, 2290.743, 0.0, 5.0159836, 4.968076 
5.7684976e+1, 1.9752434e+2, -1001757.56, -1076368.0, -953.3093, -0.00003663206, -0.0011929679, -1001745.4, 2516.2502, 0.0, 5.016092, 4.9676704 
5.768629e+1, 2.0249075e+2, -956753.1, -1036689.6, -985.7496, -0.00008637591, 0.0014287471, -956740.94, -1150.2646, 0.0, 5.016199, 4.96438 
5.7687587e+1, 2.074552e+2, -907782.94, -988497.3, -996.56586, -0.000085491614, -0.0012124757, -907770.6, -831.51196, 0.0, 5.0163054, 4.9639893 
5.768888e+1, 2.1241799e+2, -862642.1, -948621.0, -1015.30853, -0.00007770079, 0.0014933583, -862630.1, -4326.2427, 0.0, 5.0164094, 4.960739 
5.769016e+1, 2.1737878e+2, -813615.6, -900327.7, -1019.319, -0.000053783282, -0.0013487609, -813603.6, -3915.631, 0.0, 5.016511, 4.9603724 
5.7691455e+1, 2.2233793e+2, -768470.5, -860549.06, -1015.07526, -0.000042460953, 0.0014943792, -768459.3, -7371.034, 0.0, 5.016613, 4.957063 
5.769275e+1, 2.2729509e+2, -719381.9, -812174.9, -1016.6593, -0.000038309103, -0.0013227179, -719370.75, -6862.5635, 0.0, 5.016716, 4.95671 
5.769406e+1, 2.3225057e+2, -674225.8, -772505.4, -997.36163, -0.00004203535, 0.0015262953, -674215.7, -10271.1045, 0.0, 5.016821, 4.9533367 
5.769538e+1, 2.3720399e+2, -625049.9, -724007.8, -995.1058, -0.00004560954, -0.0016336984, -625039.9, -9638.819, 0.0, 5.016928, 4.9530106 
5.769673e+1, 2.4215573e+2, -579896.25, -684488.6, -959.068, -0.00006885311, 0.0017215128, -579887.44, -13013.644, 0.0, 5.017037, 4.9495525 
5.76981e+1, 2.471054e+2, -530612.06, -635820.25, -954.08325, -0.00009636864, -0.0016137937, -530603.44, -12236.284, 0.0, 5.0171485, 4.9492702 
5.7699513e+1, 2.5205335e+2, -485553.7, -596668.56, -901.0314, -0.00008523164, 0.0017867938, -485546.38, -15669.171, 0.0, 5.0172625, 4.945656 
5.770097e+1, 2.569992e+2, -435990.28, -547448.3, -889.58356, -0.000032802567, -0.001611909, -435983.16, -14575.352, 0.0, 5.0173798, 4.9455504 
5.7702464e+1, 2.6194334e+2, -391148.0, -508959.78, -822.37317, -0.0000082618435, 0.0018007314, -391142.25, -18186.71, 0.0, 5.0175014, 4.941671 
5.770401e+1, 2.6688534e+2, -341209.44, -458989.94, -804.0326, -0.00001470789, -0.0014765195, -341203.94, -16680.336, 0.0, 5.0176296, 4.941812 
5.7705605e+1, 2.7182552e+2, -296635.22, -421313.06, -713.1394, -0.000046663212, 0.0018723356, -296631.13, -20521.324, 0.0, 5.017762, 4.937605 
5.7707274e+1, 2.7676368e+2, -246329.67, -370593.63, -690.5227, -0.00013855635, -0.0017723143, -246325.83, -18609.572, 0.0, 5.0179005, 4.937994 
5.7708997e+1, 2.817e+2, -201837.53, -333311.28, -598.1245, -0.00014269979, 0.0023385873, -201834.8, -22494.518, 0.0, 5.0180426, 4.933611 
5.771082e+1, 2.866342e+2, -151232.63, -281987.1, -569.6212, 0.000024065619, -0.0024253547, -151230.14, -20245.37, 0.0, 5.018192, 4.934199 
5.77127e+1, 2.9156616e+2, -108198.08, -248333.36, -445.69678, 0.00006711608, 0.0018299684, -108196.664, -25544.838, 0.0, 5.018347, 4.9284873 
5.771467e+1, 2.964955e+2, -57513.063, -196958.16, -406.68576, -0.00011491243, -0.0004406492, -57511.88, -23167.621, 0.0, 5.0185137, 4.929072 
5.771672e+1, 3.014317e+2, -16186.976, -134163.28, -273.9175, -0.00014653768, 0.002200004, -16186.34, -16186.34, 0.0, 5.0186853, 4.9427085 
5.771891e+1, 3.0637497e+2, -14609.657, -131399.47, -233.9761, 0.00011453822, -0.005301065, -14609.188, -14609.188, 0.0, 5.0188675, 4.943625 
5.7721144e+1, 3.1133562e+2, 24180.42, -41195.066, -58.151924, 0.00019239064, 0.003980199, 24180.47, 24180.47, 0.0, 5.0190544, 4.9765787 
5.7723475e+1, 3.163132e+2, 26390.46, -36999.12, -2.5786977, -0.00010949425, -0.0011064098, 26390.46, 26390.46, 0.0, 5.0192485, 4.978045 
6.2673575e+1, 1.2281515e+2, -1707378.4, -1739793.3, -177.46849, 0.0003701906, 0.0012244657, -1707377.4, 29034.393, 0.0, 5.0140786, 4.9929533 
6.267599e+1, 1.2780757e+2, -1659425.3, -1693721.3, -207.24895, 0.00031489923, -0.0030346878, -1659424.0, 28062.094, 0.0, 5.0142646, 4.991914 
6.2678295e+1, 1.327986e+2, -1613835.5, -1652427.1, -384.8765, 0.00027758745, 0.0037273283, -1613831.6, 24742.418, 0.0, 5.0144405, 4.989215 
6.268051e+1, 1.3778754e+2, -1565390.6, -1605311.0, -414.11227, 0.00028970922, -0.0010680071, -1565386.4, 24295.916, 0.0, 5.0146074, 4.9885173 
6.268262e+1, 1.427748e+2, -1520070.4, -1564589.0, -579.7983, 0.0002506103, 0.000463108, -1520062.8, 20744.246, 0.0, 5.0147643, 4.985669 
6.268464e+1, 1.4776061e+2, -1471480.0, -1517132.6, -604.0411, 0.00017633759, -0.00086370134, -1471472.0, 20474.006, 0.0, 5.014913, 4.985088 
6.2686574e+1, 1.5274455e+2, -1426224.3, -1476578.0, -751.1324, 0.00014164338, 0.0013349049, -1426213.1, 16890.41, 0.0, 5.0150557, 4.982198 
6.2688434e+1, 1.5772678e+2, -1377600.6, -1429042.9, -771.2553, 0.00015158174, -0.0012623366, -1377589.0, 16688.617, 0.0, 5.015193, 4.9816375 
6.269022e+1, 1.6270725e+2, -1332383.1, -1388608.4, -901.6747, 0.00014212068, 0.0013350782, -1332368.8, 13100.241, 0.0, 5.015324, 4.978689 
6.2691927e+1, 1.67686e+2, -1283672.5, -1340878.9, -918.31757, 0.00012357983, -0.0010668302, -1283657.8, 13019.524, 0.0, 5.0154495, 4.9781857 
6.269358e+1, 1.72663e+2, -1238506.6, -1300586.0, -1028.9425, 0.000083108, 0.0012631837, -1238489.6, 9413.105, 0.0, 5.015567, 4.97517 
6.269516e+1, 1.7763825e+2, -1189746.8, -1252724.9, -1042.7574, 0.000017751305, -0.0011106806, -1189729.4, 9415.92, 0.0, 5.0156775, 4.974705 
6.26967e+1, 1.8261175e+2, -1144603.6, -1212542.0, -1136.2802, 0.000013609489, 0.0013455852, -1144584.6, 5820.197, 0.0, 5.0157866, 4.971635 
6.269819e+1, 1.8758345e+2, -1095776.1, -1164568.1, -1145.2487, 0.00005996938, -0.0011849403, -1095757.0, 5925.241, 0.0, 5.015894, 4.9711967 
6.269965e+1, 1.9255346e+2, -1050643.1, -1124490.9, -1205.5245, 0.00004423934, 0.0014504553, -1050623.5, 2352.685, 0.0, 5.015999, 4.968065 
6.2701076e+1, 1.9752161e+2, -1001744.8, -1076387.6, -1218.6827, -0.000024928459, -0.0011351601, -1001724.94, 2563.536, 0.0, 5.0161014, 4.967659 
6.270249e+1, 2.02488e+2, -956756.4, -1036709.6, -1255.4711, -0.00006135632, 0.0014879543, -956736.7, -1119.0758, 0.0, 5.016202, 4.9643717 
6.270389e+1, 2.0745245e+2, -907809.75, -988528.44, -1261.8911, -0.00006671724, -0.0011723283, -907790.0, -823.90454, 0.0, 5.0163, 4.963981 
6.270528e+1, 2.1241522e+2, -862676.3, -948642.9, -1280.3368, -0.00006497851, 0.0015096273, -862657.25, -4326.25, 0.0, 5.016399, 4.9607363 
6.270667e+1, 2.1737602e+2, -813656.44, -900352.3, -1284.2007, -0.00004693022, -0.0013599893, -813637.44, -3922.292, 0.0, 5.016498, 4.9603696 
6.2708056e+1, 2.2233517e+2, -768523.7, -860577.9, -1282.1974, -0.000033319728, 0.0014761887, -768505.8, -7390.411, 0.0, 5.0165954, 4.9570613 
6.270945e+1, 2.2729233e+2, -719454.7, -812212.6, -1286.0068, -0.000019133515, -0.0013220003, -719436.9, -6901.5747, 0.0, 5.016691, 4.956708 
6.2710863e+1, 2.3224778e+2, -674310.75, -772538.25, -1265.1682, -0.000030513265, 0.0015370316, -674294.44, -10322.7295, 0.0, 5.0167894, 4.9533396 
6.271229e+1, 2.3720121e+2, -625150.25, -724047.25, -1263.0945, -0.00006203383, -0.0016205439, -625134.1, -9705.951, 0.0, 5.016891, 4.9530134 
6.271374e+1, 2.4215297e+2, -580008.1, -684526.9, -1223.5162, -0.00009203958, 0.0017300957, -579993.8, -13092.9375, 0.0, 5.016995, 4.9495583 
6.2715226e+1, 2.4710265e+2, -530737.2, -635864.0, -1215.4974, -0.00010213236, -0.0016205978, -530723.1, -12328.966, 0.0, 5.0171013, 4.949276 
6.2716746e+1, 2.520506e+2, -485687.8, -596710.06, -1156.7418, -0.00009441685, 0.0017678152, -485675.78, -15771.597, 0.0, 5.017211, 4.9456644 
6.2718314e+1, 2.5699645e+2, -436136.53, -547494.7, -1143.6976, -0.000070765636, -0.0016339626, -436124.78, -14690.076, 0.0, 5.0173235, 4.9455595 
6.271993e+1, 2.6194057e+2, -391302.88, -509002.88, -1069.3494, -0.00005973141, 0.0017899922, -391293.16, -18310.813, 0.0, 5.0174403, 4.9416823 
6.27216e+1, 2.6688263e+2, -341376.03, -459037.1, -1051.6268, -0.00006324049, -0.0014544816, -341366.66, -16816.38, 0.0, 5.0175643, 4.941824 
6.2723327e+1, 2.7182284e+2, -296812.34, -421356.97, -954.469, -0.000085856496, 0.0019139614, -296805.03, -20668.703, 0.0, 5.017691, 4.9376206 
6.2725127e+1, 2.76761e+2, -246524.05, -370643.84, -925.89044, -0.00015089006, -0.0017318432, -246517.14, -18774.543, 0.0, 5.0178227, 4.9380097 
6.272699e+1, 2.8169733e+2, -202040.6, -333362.25, -821.0393, -0.00015263527, 0.002367134, -202035.45, -22668.979, 0.0, 5.017961, 4.9336286 
6.2728965e+1, 2.8663155e+2, -151431.47, -282035.3, -789.0814, -0.000030329164, -0.0024295002, -151426.7, -20415.87, 0.0, 5.018111, 4.9342165 
6.273099e+1, 2.915635e+2, -108403.24, -248384.7, -657.6248, -0.0000061623073, 0.0018205749, -108400.16, -25722.43, 0.0, 5.0182643, 4.928505 
6.273313e+1, 2.9649284e+2, -57742.902, -197020.44, -616.31494, -0.0001600156, -0.00039678055, -57740.176, -23370.23, 0.0, 5.0184216, 4.929089 
6.273535e+1, 3.0142906e+2, -16430.379, -134223.08, -467.06085, -0.00017284007, 0.0022705968, -16428.527, -16428.527, 0.0, 5.0185866, 4.9427295 
6.273772e+1, 3.0637237e+2, -14857.036, -131459.36, -418.84085, 0.00010116665, -0.005263071, -14855.532, -14855.532, 0.0, 5.018767, 4.9436464 
6.274014e+1, 3.1133306e+2, 23935.95, -41241.035, -225.08836, 0.00019559082, 0.004000531, 23936.727, 23936.727, 0.0, 5.0189514, 4.976606 
6.2742674e+1, 3.1631067e+2, 26139.533, -37044.42, -164.43916, -0.000099390796, -0.0010664102, 26139.96, 26139.96, 0.0, 5.0191426, 4.9780736 
6.7687654e+1, 1.22812524e+2, -1707417.0, -1739877.4, -41.255665, 0.00040458015, 0.0013226545, -1707417.0, 29020.594, 0.0, 5.0140796, 4.992925 
6.7690253e+1, 1.278049e+2, -1659464.3, -1693806.1, -71.89746, 0.00034855405, -0.0030502412, -1659464.1, 28048.04, 0.0, 5.0142655, 4.991885 
6.769273e+1, 1.327959e+2, -1613877.4, -1652517.8, -263.53436, 0.00029512832, 0.0036933294, -1613875.6, 24724.777, 0.0, 5.0144415, 4.9891844 
6.7695117e+1, 1.3778482e+2, -1565432.5, -1605401.3, -293.35376, 0.0002711607, -0.0010535668, -1565430.4, 24278.576, 0.0, 5.0146084, 4.9884872 
6.769739e+1, 1.4277206e+2, -1520106.8, -1564668.1, -472.73343, 0.0002596605, 0.00051585666, -1520101.8, 20732.207, 0.0, 5.0147653, 4.9856424 
6.7699564e+1, 1.4775786e+2, -1471515.9, -1517210.9, -497.39175, 0.0002674455, -0.00078121905, -1471510.5, 20462.676, 0.0, 5.014914, 4.985061 
6.770164e+1, 1.5274176e+2, -1426255.3, -1476645.5, -653.01636, 0.00021372149, 0.0014197658, -1426246.8, 16884.188, 0.0, 5.015056, 4.9821754 
6.770363e+1, 1.5772395e+2, -1377631.9, -1429110.0, -673.4947, 0.00012218398, -0.0011958382, -1377623.0, 16682.318, 0.0, 5.015193, 4.981615 
6.7705536e+1, 1.6270442e+2, -1332410.8, -1388667.3, -812.86884, 0.00008131938, 0.0013765162, -1332399.0, 13097.808, 0.0, 5.015324, 4.978669 
6.770737e+1, 1.6768314e+2, -1283700.1, -1340937.1, -829.76575, 0.0000875419, -0.0010559134, -1283688.1, 13017.283, 0.0, 5.0154495, 4.978166 
6.770914e+1, 1.7266013e+2, -1238530.6, -1300636.6, -951.79443, 0.00009402207, 0.0012850027, -1238516.1, 9414.87, 0.0, 5.015567, 4.975153 
6.7710847e+1, 1.7763534e+2, -1189770.4, -1252775.0, -965.5046, 0.00009694376, -0.0010379934, -1189755.5, 9418.191, 0.0, 5.0156775, 4.9746885 
6.771249e+1, 1.8260886e+2, -1144620.5, -1212577.3, -1061.5454, 0.00006205534, 0.0014262248, -1144603.9, 5829.47, 0.0, 5.015786, 4.9716234 
6.7714083e+1, 1.8758054e+2, -1095793.9, -1164604.4, -1070.7977, -0.000007587756, -0.0011388224, -1095777.3, 5933.705, 0.0, 5.0158935, 4.9711847 
6.7715645e+1, 1.9255054e+2, -1050667.0, -1124539.1, -1134.7521, -0.000031990003, 0.0014870599, -1050649.5, 2355.4397, 0.0, 5.0159984, 4.9680486 
6.7717177e+1, 1.9751865e+2, -1001768.75, -1076435.5, -1148.1473, -0.000013502288, -0.0010868585, -1001751.06, 2566.3381, 0.0, 5.016101, 4.9676433 
6.7718697e+1, 2.0248504e+2, -956766.56, -1036727.25, -1188.217, -0.00001270083, 0.0015249673, -956748.94, -1102.2267, 0.0, 5.016201, 4.9643664 
6.772019e+1, 2.0744948e+2, -907820.25, -988546.06, -1194.5339, -0.000027676888, -0.0011697202, -907802.56, -807.30304, 0.0, 5.0162992, 4.963976 
6.7721677e+1, 2.1241225e+2, -862683.4, -948652.25, -1212.7124, -0.000035491554, 0.0015098023, -862666.3, -4306.156, 0.0, 5.0163975, 4.960734 
6.7723167e+1, 2.1737304e+2, -813664.2, -900361.8, -1216.8267, -0.000030173334, -0.0013267299, -813647.1, -3902.8718, 0.0, 5.016496, 4.960367 
6.772466e+1, 2.223322e+2, -768532.8, -860589.56, -1217.15, -0.000030642277, 0.0015071431, -768516.7, -7372.1255, 0.0, 5.0165935, 4.957058 
6.772614e+1, 2.2728933e+2, -719463.9, -812224.25, -1220.8289, -0.0000353167, -0.0013289806, -719447.8, -6883.2285, 0.0, 5.0166893, 4.9567046 
6.7727643e+1, 2.3224479e+2, -674313.25, -772534.3, -1196.0416, -0.00005960768, 0.0015251508, -674298.7, -10297.653, 0.0, 5.0167875, 4.9533415 
6.772918e+1, 2.3719823e+2, -625153.44, -724043.06, -1193.7645, -0.000094998584, -0.0015942014, -625139.0, -9681.615, 0.0, 5.016889, 4.953016 
6.7730737e+1, 2.4215e+2, -580006.25, -684510.06, -1150.7509, -0.000103365746, 0.0017597548, -579993.56, -13063.55, 0.0, 5.016992, 4.949565 
6.773233e+1, 2.4709967e+2, -530735.5, -635846.5, -1142.4108, -0.0000660777, -0.0016360447, -530723.06, -12299.773, 0.0, 5.0170984, 4.949283 
6.7733955e+1, 2.5204763e+2, -485684.13, -596687.06, -1079.3317, -0.00007620318, 0.0017300282, -485673.63, -15740.401, 0.0, 5.017208, 4.945674 
6.7735636e+1, 2.5699353e+2, -436133.34, -547471.8, -1066.1068, -0.00015544862, -0.0016574138, -436123.13, -14659.472, 0.0, 5.01732, 4.945569 
6.773736e+1, 2.6193765e+2, -391298.56, -508976.16, -984.0184, -0.00018094963, 0.0017811616, -391290.34, -18279.154, 0.0, 5.017437, 4.9416933 
6.773916e+1, 2.668797e+2, -341372.4, -459010.16, -965.2925, -0.00012669868, -0.001447142, -341364.5, -16785.47, 0.0, 5.0175605, 4.9418354 
6.774101e+1, 2.7181992e+2, -296800.94, -421310.78, -862.7319, -0.00010180537, 0.0019366159, -296794.97, -20630.023, 0.0, 5.0176873, 4.9376388 
6.7742956e+1, 2.7675807e+2, -246511.95, -370595.1, -833.65686, -0.00012960489, -0.0016957562, -246506.36, -18735.379, 0.0, 5.017819, 4.938029 
6.774496e+1, 2.8169444e+2, -202030.05, -333315.7, -717.03217, -0.00014060616, 0.0023969915, -202026.13, -22631.47, 0.0, 5.0179567, 4.9336467 
6.774707e+1, 2.866287e+2, -151422.27, -281989.78, -682.5626, -0.00011479997, -0.0024426463, -151418.7, -20379.809, 0.0, 5.018107, 4.9342346 
6.7749244e+1, 2.9156068e+2, -108395.9, -248341.7, -546.585, -0.00012830533, 0.0017988782, -108393.766, -25688.127, 0.0, 5.018259, 4.928522 
6.775155e+1, 2.9649004e+2, -57736.64, -196978.67, -504.0717, -0.0002071343, -0.00035571418, -57734.816, -23337.17, 0.0, 5.0184164, 4.929106 
6.7753935e+1, 3.0142626e+2, -16417.998, -134165.77, -340.6254, -0.00017619265, 0.002339492, -16417.014, -16417.014, 0.0, 5.018581, 4.9427524 
6.7756486e+1, 3.063696e+2, -14843.605, -131398.58, -288.80887, 0.00008681464, -0.00524357, -14842.891, -14842.891, 0.0, 5.018761, 4.9436707 
6.7759097e+1, 3.113303e+2, 23953.404, -41169.477, -88.399086, 0.00018564906, 0.0040072533, 23953.525, 23953.525, 0.0, 5.0189457, 4.9766345 
6.776182e+1, 3.1630796e+2, 26156.666, -36970.395, -26.126583, -0.000086011205, -0.0009809987, 26156.676, 26156.676, 0.0, 5.019136, 4.9781036 
7.270178e+1, 1.2280969e+2, -1707176.0, -1739833.6, -188.4972, 0.00041107327, 0.0013287314, -1707174.9, 29290.408, 0.0, 5.014176, 4.9928923 
7.2704566e+1, 1.2780204e+2, -1659240.6, -1693771.4, -226.83357, 0.00038639436, -0.003023923, -1659239.3, 28300.965, 0.0, 5.014356, 4.9918523 
7.2707224e+1, 1.3279301e+2, -1613667.1, -1652484.3, -436.0029, 0.0003377478, 0.003716652, -1613662.3, 24966.568, 0.0, 5.0145264, 4.989154 
7.270977e+1, 1.377819e+2, -1565238.5, -1605375.9, -466.96002, 0.00028877347, -0.001056681, -1565233.0, 24504.592, 0.0, 5.014688, 4.9884567 
7.271219e+1, 1.4276911e+2, -1519923.1, -1564644.6, -661.6462, 0.0002690518, 0.00052479876, -1519913.3, 20949.627, 0.0, 5.014841, 4.9856133 
7.2714514e+1, 1.4775488e+2, -1471341.6, -1517191.9, -690.3949, 0.00028591068, -0.00072883646, -1471331.3, 20671.164, 0.0, 5.0149865, 4.9850326 
7.271673e+1, 1.5273875e+2, -1426095.0, -1476626.4, -861.054, 0.00023659202, 0.0014880031, -1426080.4, 17080.09, 0.0, 5.015123, 4.9821496 
7.2718847e+1, 1.5772094e+2, -1377496.9, -1429102.9, -886.0708, 0.00014432057, -0.0011340171, -1377481.8, 16853.389, 0.0, 5.015251, 4.9815893 
7.2720885e+1, 1.6270135e+2, -1332291.1, -1388656.4, -1036.6761, 0.000093390445, 0.0014290825, -1332272.1, 13254.764, 0.0, 5.0153747, 4.9786487 
7.2722846e+1, 1.6768007e+2, -1283599.8, -1340935.5, -1055.1912, 0.00008044902, -0.0010149005, -1283580.4, 13155.196, 0.0, 5.0154934, 4.9781456 
7.272473e+1, 1.7265703e+2, -1238440.0, -1300633.9, -1189.0033, 0.00008367406, 0.0013259882, -1238417.3, 9544.129, 0.0, 5.0156064, 4.9751353 
7.272654e+1, 1.7763223e+2, -1189687.1, -1252775.8, -1204.2572, 0.00009782869, -0.0009866556, -1189664.1, 9540.134, 0.0, 5.015714, 4.9746704 
7.2728294e+1, 1.8260573e+2, -1144547.5, -1212574.6, -1307.9012, 0.00006601703, 0.001485662, -1144522.3, 5941.807, 0.0, 5.015818, 4.971609 
7.2729987e+1, 1.875774e+2, -1095742.6, -1164612.0, -1320.9235, -0.0000049673918, -0.00107346, -1095717.3, 6024.542, 0.0, 5.015918, 4.9711704 
7.273165e+1, 1.9254738e+2, -1050639.6, -1124565.0, -1390.6058, -0.000026251966, 0.0015350468, -1050613.5, 2422.4907, 0.0, 5.016016, 4.9680314 
7.2733283e+1, 1.9751547e+2, -1001759.75, -1076470.5, -1405.8589, -0.0000029987725, -0.0010738849, -1001733.3, 2615.301, 0.0, 5.016112, 4.967626 
7.2734904e+1, 2.0248185e+2, -956758.94, -1036735.75, -1450.7294, -0.00000015865393, 0.0015279611, -956732.6, -1054.6326, 0.0, 5.0162063, 4.9643607 
7.273649e+1, 2.0744629e+2, -907828.94, -988561.94, -1456.88, -0.000016270966, -0.0011543967, -907802.7, -776.0541, 0.0, 5.016299, 4.9639707 
7.2738075e+1, 2.1240905e+2, -862710.94, -948675.94, -1477.861, -0.000022361877, 0.0015402983, -862685.56, -4294.012, 0.0, 5.0163903, 4.960729 
7.2739655e+1, 2.1736984e+2, -813714.7, -900396.2, -1485.4572, -0.000015096438, -0.0012772421, -813689.25, -3913.5415, 0.0, 5.016481, 4.9603624 
7.2741234e+1, 2.2232898e+2, -768593.75, -860618.44, -1486.4824, -0.000020855898, 0.0015456954, -768569.75, -7393.6943, 0.0, 5.0165725, 4.957058 
7.274282e+1, 2.2728612e+2, -719533.5, -812256.7, -1486.1879, -0.00003550697, -0.0013317156, -719509.7, -6913.588, 0.0, 5.016665, 4.9567046 
7.2744423e+1, 2.3224159e+2, -674397.7, -772569.56, -1459.2104, -0.00006893285, 0.0015102648, -674376.0, -10343.513, 0.0, 5.016757, 4.9533434 
7.274604e+1, 2.3719503e+2, -625264.56, -724090.2, -1458.1459, -0.000110909845, -0.0015869299, -625243.06, -9754.158, 0.0, 5.016849, 4.9530177 
7.2747695e+1, 2.4214679e+2, -580133.0, -684552.4, -1411.7007, -0.000121117584, 0.0017746043, -580113.9, -13152.404, 0.0, 5.0169444, 4.949572 
7.27494e+1, 2.4709646e+2, -530877.7, -635894.9, -1403.2643, -0.0000851787, -0.00163191, -530858.94, -12404.277, 0.0, 5.017045, 4.9492903 
7.275113e+1, 2.5204444e+2, -485837.4, -596732.1, -1335.8369, -0.00010016106, 0.0017379652, -485821.3, -15856.816, 0.0, 5.0171485, 4.9456844 
7.2752917e+1, 2.569903e+2, -436300.8, -547522.3, -1320.292, -0.0001879142, -0.001624616, -436285.13, -14790.335, 0.0, 5.0172553, 4.94558 
7.275475e+1, 2.619345e+2, -391479.94, -509027.47, -1229.3925, -0.00021305872, 0.0018103938, -391467.1, -18424.861, 0.0, 5.017366, 4.9417067 
7.275668e+1, 2.6687655e+2, -341573.88, -459069.56, -1206.5281, -0.00014798224, -0.0014625958, -341561.47, -16951.504, 0.0, 5.017482, 4.941849 
7.2758657e+1, 2.7181676e+2, -297014.47, -421367.06, -1096.4702, -0.000120600904, 0.0019033037, -297004.8, -20809.059, 0.0, 5.0176024, 4.937656 
7.2760725e+1, 2.7675495e+2, -246734.16, -370653.7, -1068.165, -0.00015216252, -0.001701813, -246724.94, -18923.34, 0.0, 5.01773, 4.938047 
7.2762865e+1, 2.8169134e+2, -202261.47, -333370.88, -941.4992, -0.00016175823, 0.0024160836, -202254.7, -22829.635, 0.0, 5.0178633, 4.9336677 
7.2765124e+1, 2.8662562e+2, -151672.16, -282051.56, -900.3791, -0.0001291689, -0.0024040574, -151665.95, -20596.87, 0.0, 5.018006, 4.934256 
7.276745e+1, 2.915576e+2, -108664.2, -248415.06, -755.9196, -0.00013717501, 0.0018424229, -108660.12, -25924.496, 0.0, 5.018152, 4.928542 
7.2769904e+1, 2.96487e+2, -58015.42, -197057.25, -708.8979, -0.00021862853, -0.0003343161, -58011.81, -23584.33, 0.0, 5.0183053, 4.929126 
7.2772455e+1, 3.0142325e+2, -16698.895, -134233.63, -525.79767, -0.00020101418, 0.0023443005, -16696.541, -16696.541, 0.0, 5.018467, 4.9427767 
7.2775185e+1, 3.0636662e+2, -15129.631, -131466.1, -468.64362, 0.00004629621, -0.00524067, -15127.743, -15127.743, 0.0, 5.0186443, 4.9436965 
7.277797e+1, 3.1132734e+2, 23665.992, -41226.195, -255.37842, 0.0001597294, 0.004033535, 23666.998, 23666.998, 0.0, 5.018825, 4.976665 
7.278089e+1, 3.16305e+2, 25853.734, -37031.156, -189.83385, -0.000047187103, -0.0008695139, 25854.307, 25854.307, 0.0, 5.0190096, 4.978135 
7.771596e+1, 1.22806676e+2, -1707227.0, -1739945.1, -57.314953, 0.0003892423, 0.0012545155, -1707226.9, 29268.014, 0.0, 5.0141773, 4.9928546 
7.771893e+1, 1.27799e+2, -1659291.1, -1693881.9, -96.38017, 0.0004248736, -0.002962495, -1659290.9, 28279.172, 0.0, 5.014358, 4.991815 
7.7721757e+1, 1.3278994e+2, -1613708.6, -1652576.3, -319.45636, 0.00039924416, 0.00378842, -1613706.0, 24952.916, 0.0, 5.014528, 4.989123 
7.7724457e+1, 1.3777877e+2, -1565280.4, -1605468.0, -351.1007, 0.00033479664, -0.0010750932, -1565277.4, 24490.824, 0.0, 5.0146894, 4.9884253 
7.772704e+1, 1.4276595e+2, -1519965.8, -1564737.9, -557.894, 0.00027649192, 0.00049596303, -1519958.8, 20934.973, 0.0, 5.014842, 4.985582 
7.7729493e+1, 1.477517e+2, -1471384.1, -1517284.6, -587.2397, 0.00024023681, -0.00070269144, -1471376.6, 20656.898, 0.0, 5.0149875, 4.985001 
7.773185e+1, 1.5273555e+2, -1426133.8, -1476711.0, -770.40875, 0.00021513437, 0.0015416055, -1426122.0, 17069.836, 0.0, 5.0151234, 4.982121 
7.7734107e+1, 1.5771769e+2, -1377535.3, -1429186.4, -795.5542, 0.00020767293, -0.0010765255, -1377523.0, 16843.865, 0.0, 5.015252, 4.981561 
7.7736264e+1, 1.626981e+2, -1332320.4, -1388720.3, -953.6445, 0.0001649636, 0.0014907212, -1332304.3, 13254.545, 0.0, 5.015375, 4.978627 
7.7738345e+1, 1.6767679e+2, -1283629.6, -1340999.4, -972.4736, 0.000095899275, -0.0009489048, -1283613.1, 13154.578, 0.0, 5.0154934, 4.978124 
7.7740335e+1, 1.7265373e+2, -1238466.6, -1300690.6, -1114.7284, 0.000053631553, 0.0013829705, -1238446.8, 9546.978, 0.0, 5.0156064, 4.9751163 
7.774225e+1, 1.7762892e+2, -1189713.8, -1252832.0, -1129.9883, 0.000030817107, -0.000953617, -1189693.5, 9543.337, 0.0, 5.015714, 4.974652 
7.774411e+1, 1.8260239e+2, -1144570.9, -1212623.9, -1239.9344, 0.000030517593, 0.0015266155, -1144548.4, 5948.495, 0.0, 5.015818, 4.9715924 
7.774591e+1, 1.8757404e+2, -1095765.8, -1164660.0, -1253.0874, 0.00005464381, -0.0009924405, -1095743.0, 6031.658, 0.0, 5.015918, 4.971154 
7.774767e+1, 1.9254401e+2, -1050666.3, -1124619.3, -1325.5128, 0.00004636709, 0.001591901, -1050642.5, 2426.5474, 0.0, 5.016015, 4.9680133 
7.7749395e+1, 1.9751209e+2, -1001787.56, -1076526.3, -1340.9005, 0.0000047784965, -0.0010908794, -1001763.5, 2618.3635, 0.0, 5.0161114, 4.9676075 
7.7751106e+1, 2.0247845e+2, -956769.44, -1036753.44, -1388.6544, -0.000019771958, 0.0015021799, -956745.3, -1033.9382, 0.0, 5.0162053, 4.9643555 
7.775279e+1, 2.0744286e+2, -907839.44, -988579.1, -1394.8196, -0.000030107598, -0.0011290646, -907815.3, -755.3244, 0.0, 5.0162973, 4.9639654 
7.7754474e+1, 2.1240564e+2, -862724.2, -948698.25, -1417.4827, -0.000025047144, 0.0015955281, -862700.9, -4275.8735, 0.0, 5.016389, 4.960722 
7.7756137e+1, 2.1736643e+2, -813728.8, -900418.94, -1425.0204, -0.000003333934, -0.0012148591, -813705.44, -3896.182, 0.0, 5.0164795, 4.9603553 
7.775781e+1, 2.2232556e+2, -768597.1, -860616.0, -1424.6382, -0.0000074296404, 0.0015901224, -768575.1, -7365.4624, 0.0, 5.0165706, 4.9570594 
7.775948e+1, 2.272827e+2, -719537.5, -812253.9, -1424.4933, -0.000024521838, -0.001331436, -719515.6, -6886.01, 0.0, 5.0166626, 4.956707 
7.776118e+1, 2.3223816e+2, -674404.1, -772570.9, -1398.5527, -0.00006381871, 0.0014927285, -674384.2, -10318.151, 0.0, 5.0167546, 4.953344 
7.7762896e+1, 2.371916e+2, -625271.1, -724091.56, -1397.2377, -0.000114522205, -0.0015958104, -625251.4, -9728.942, 0.0, 5.016846, 4.953018 
7.776464e+1, 2.4214338e+2, -580132.94, -684537.9, -1344.4984, -0.00014616833, 0.0017763587, -580115.6, -13120.603, 0.0, 5.016941, 4.9495783 
7.7766436e+1, 2.4709307e+2, -530878.44, -635879.75, -1335.4425, -0.00015201893, -0.0016124287, -530861.44, -12373.353, 0.0, 5.017041, 4.9492974 
7.776827e+1, 2.5204104e+2, -485833.16, -596703.5, -1263.478, -0.00016119266, 0.0017830833, -485818.75, -15820.923, 0.0, 5.0171447, 4.9456964 
7.7770174e+1, 2.5698698e+2, -436296.94, -547492.7, -1247.8071, -0.00017949936, -0.0015464221, -436282.94, -14754.989, 0.0, 5.017251, 4.9455924 
7.777212e+1, 2.6193112e+2, -391473.25, -508989.8, -1150.7888, -0.0001741258, 0.001870036, -391461.97, -18386.73, 0.0, 5.017361, 4.941722 
7.777416e+1, 2.668732e+2, -341567.44, -459031.3, -1127.2257, -0.00013710659, -0.0014975335, -341556.6, -16913.688, 0.0, 5.017477, 4.9418645 
7.7776253e+1, 2.7181342e+2, -297007.72, -421326.5, -1008.97174, -0.0001444955, 0.001823103, -296999.53, -20770.934, 0.0, 5.017597, 4.9376726 
7.777845e+1, 2.767516e+2, -246728.5, -370613.4, -979.4034, -0.00021383635, -0.001743546, -246720.75, -18886.482, 0.0, 5.017725, 4.9380636 
7.7780724e+1, 2.81688e+2, -202249.28, -333313.28, -843.44214, -0.00021377635, 0.0024250892, -202243.84, -22786.332, 0.0, 5.0178576, 4.9336905 
7.7783126e+1, 2.8662235e+2, -151659.84, -281991.5, -800.4081, -0.000089869376, -0.0023244785, -151654.92, -20553.723, 0.0, 5.0179996, 4.9342804 
7.7785605e+1, 2.9155436e+2, -108655.77, -248362.17, -649.4077, -0.000056970963, 0.0019382301, -108652.75, -25885.256, 0.0, 5.018146, 4.9285636 
7.7788216e+1, 2.9648376e+2, -58008.543, -197006.56, -600.75934, -0.00020446362, -0.00032999698, -58005.95, -23546.701, 0.0, 5.0182986, 4.929147 
7.7790916e+1, 3.0142003e+2, -16688.08, -134172.22, -402.601, -0.00024698247, 0.0022958384, -16686.701, -16686.701, 0.0, 5.01846, 4.942802 
7.779381e+1, 3.063634e+2, -15118.701, -131402.44, -341.45325, -0.000019603063, -0.0052523003, -15117.698, -15117.698, 0.0, 5.018637, 4.9437227 
7.7796793e+1, 3.1132418e+2, 23681.482, -41150.098, -124.00123, 0.000115207884, 0.0040746196, 23681.719, 23681.719, 0.0, 5.0188174, 4.9766965 
7.7799904e+1, 3.163019e+2, 25869.2, -36952.465, -57.39879, 0.000002415757, -0.0007379097, 25869.252, 25869.252, 0.0, 5.019001, 4.9781675 
8.2730186e+1, 1.22803465e+2, -1706948.0, -1739898.3, -203.2929, 0.00037057934, 0.0012243821, -1706946.8, 29579.604, 0.0, 5.0142894, 4.992815 
8.2733345e+1, 1.2779576e+2, -1659029.9, -1693843.5, -246.71063, 0.0004366931, -0.002940024, -1659028.1, 28573.654, 0.0, 5.014464, 4.9917755 
8.273634e+1, 1.3278665e+2, -1613461.1, -1652533.8, -488.93344, 0.0004323672, 0.0038314033, -1613455.0, 25236.146, 0.0, 5.0146275, 4.9890885 
8.27392e+1, 1.3777547e+2, -1565056.0, -1605436.8, -526.24713, 0.00037145018, -0.0010370471, -1565049.1, 24751.51, 0.0, 5.014781, 4.988391 
8.274192e+1, 1.4276262e+2, -1519757.6, -1564709.6, -747.48193, 0.0003019915, 0.00052437367, -1519745.3, 21181.379, 0.0, 5.0149274, 4.98555 
8.274452e+1, 1.4774832e+2, -1471192.0, -1517264.3, -778.79474, 0.0002444004, -0.00068715645, -1471178.9, 20887.902, 0.0, 5.0150676, 4.984969 
8.2747006e+1, 1.5273213e+2, -1425953.4, -1476690.4, -976.2535, 0.00021211422, 0.0015643204, -1425934.6, 17290.76, 0.0, 5.0151987, 4.982092 
8.2749397e+1, 1.5771426e+2, -1377370.4, -1429173.0, -1002.9778, 0.00020837321, -0.0010307741, -1377351.0, 17049.568, 0.0, 5.0153217, 4.981532 
8.275168e+1, 1.6269465e+2, -1332171.9, -1388705.5, -1173.7595, 0.0001732766, 0.0015506158, -1332147.5, 13445.26, 0.0, 5.0154376, 4.978602 
8.275386e+1, 1.6767329e+2, -1283508.3, -1340997.5, -1197.4315, 0.000115450806, -0.0008817507, -1283483.4, 13318.665, 0.0, 5.015547, 4.9780993 
8.2755965e+1, 1.7265022e+2, -1238357.4, -1300683.6, -1349.5192, 0.00006203798, 0.001445011, -1238328.1, 9700.001, 0.0, 5.0156536, 4.975096 
8.275798e+1, 1.7762539e+2, -1189617.3, -1252831.0, -1366.4949, 0.000008704285, -0.0009099763, -1189587.8, 9683.848, 0.0, 5.015757, 4.974632 
8.275994e+1, 1.8259883e+2, -1144488.9, -1212624.5, -1485.3982, 0.00001715819, 0.0015577762, -1144456.5, 6075.184, 0.0, 5.0158544, 4.9715753 
8.276185e+1, 1.8757047e+2, -1095702.4, -1164669.1, -1500.0146, 0.000080835955, -0.00096539373, -1095669.9, 6139.888, 0.0, 5.015948, 4.971137 
8.27637e+1, 1.9254042e+2, -1050624.3, -1124640.4, -1577.8661, 0.00008085905, 0.0016207088, -1050590.6, 2513.6443, 0.0, 5.0160384, 4.9679956 
8.276552e+1, 1.9750847e+2, -1001769.5, -1076559.3, -1593.2915, 0.000020547344, -0.0010504704, -1001735.6, 2681.6758, 0.0, 5.016126, 4.9675894 
8.276732e+1, 2.0247482e+2, -956754.94, -1036765.25, -1644.8304, -0.000013807323, 0.0015448722, -956721.1, -974.2227, 0.0, 5.016214, 4.9643474 
8.276909e+1, 2.0743924e+2, -907839.06, -988597.3, -1655.1129, -0.000024276025, -0.0010966015, -907805.1, -709.5223, 0.0, 5.0163016, 4.9639573 
8.277086e+1, 2.1240199e+2, -862740.8, -948717.06, -1682.2092, -0.000018887647, 0.0016100255, -862707.94, -4247.246, 0.0, 5.0163856, 4.960717 
8.277261e+1, 2.1736278e+2, -813769.56, -900448.75, -1687.227, 0.000004608551, -0.0012227686, -813736.75, -3891.7349, 0.0, 5.0164676, 4.9603505 
8.277437e+1, 2.2232191e+2, -768657.56, -860645.9, -1686.8293, 0.0000022179777, 0.0015978719, -768626.6, -7381.219, 0.0, 5.0165496, 4.957059 
8.277613e+1, 2.2727905e+2, -719623.75, -812295.4, -1690.6656, -0.0000151116665, -0.0012655688, -719592.94, -6927.541, 0.0, 5.016633, 4.956706 
8.277792e+1, 2.3223452e+2, -674504.44, -772609.75, -1664.7211, -0.00005753392, 0.0015717322, -674476.2, -10374.436, 0.0, 5.016718, 4.953347 
8.277972e+1, 2.3718795e+2, -625382.0, -724134.6, -1659.8562, -0.000118054944, -0.0015588393, -625354.1, -9795.963, 0.0, 5.0168056, 4.953022 
8.2781553e+1, 2.4213974e+2, -580257.2, -684578.1, -1602.0059, -0.00016382868, 0.0017926975, -580232.6, -13201.901, 0.0, 5.016894, 4.9495854 
8.278345e+1, 2.4708943e+2, -531031.5, -635932.25, -1591.8866, -0.00018908855, -0.0015850377, -531007.3, -12483.606, 0.0, 5.0169835, 4.949305 
8.278538e+1, 2.5203744e+2, -486007.97, -596756.7, -1515.0009, -0.00019567981, 0.0018114613, -485987.25, -15953.902, 0.0, 5.017077, 4.945708 
8.278738e+1, 2.5698334e+2, -436493.56, -547554.4, -1499.5408, -0.00018034718, -0.0015336609, -436473.3, -14909.906, 0.0, 5.017175, 4.9456043 
8.2789445e+1, 2.6192752e+2, -391682.5, -509045.97, -1395.2286, -0.00015504575, 0.0018792001, -391665.9, -18555.361, 0.0, 5.0172787, 4.941739 
8.279159e+1, 2.668696e+2, -341788.63, -459091.2, -1368.5625, -0.00012403307, -0.0014727473, -341772.66, -17094.656, 0.0, 5.0173893, 4.941882 
8.279381e+1, 2.7180988e+2, -297243.5, -421389.72, -1241.7266, -0.00013877409, 0.0018463357, -297231.06, -20967.574, 0.0, 5.0175037, 4.937691 
8.279612e+1, 2.767481e+2, -246985.31, -370685.28, -1208.2642, -0.00020689644, -0.0017508053, -246973.52, -19104.479, 0.0, 5.0176234, 4.938082 
8.279852e+1, 2.8168452e+2, -202520.13, -333379.38, -1061.2212, -0.0002010096, 0.002403145, -202511.52, -23019.408, 0.0, 5.0177484, 4.933715 
8.2801074e+1, 2.8661883e+2, -151947.58, -282062.72, -1015.1582, -0.000068039495, -0.0023292296, -151939.66, -20804.133, 0.0, 5.017884, 4.934305 
8.280369e+1, 2.9155087e+2, -108961.35, -248445.4, -856.4702, -0.000024386949, 0.0019519207, -108956.09, -26154.52, 0.0, 5.018024, 4.9285865 
8.280645e+1, 2.9648033e+2, -58324.22, -197094.86, -804.28644, -0.00016329535, -0.0002978389, -58319.56, -23826.453, 0.0, 5.018173, 4.929169 
8.280931e+1, 3.014166e+2, -17008.367, -134251.28, -587.2932, -0.00021989293, 0.0023436244, -17005.424, -17005.424, 0.0, 5.0183296, 4.942829 
8.281238e+1, 3.0636e+2, -15452.01, -131484.56, -519.5927, -0.00003962482, -0.005196369, -15449.683, -15449.683, 0.0, 5.0185018, 4.943751 
8.281553e+1, 3.113208e+2, 23347.21, -41214.465, -287.6825, 0.00008434022, 0.004127251, 23348.492, 23348.492, 0.0, 5.018677, 4.9767323 
8.281883e+1, 3.1629857e+2, 25527.758, -37015.56, -212.92293, 0.00002843208, -0.0007015904, 25528.484, 25528.484, 0.0, 5.0188575, 4.9782057 
8.7744474e+1, 1.2280008e+2, -1707005.0, -1740023.8, -77.42271, 0.0003493142, 0.001230622, -1707004.8, 29554.633, 0.0, 5.014292, 4.9927726 
8.77478e+1, 1.2779233e+2, -1659085.9, -1693967.5, -121.38729, 0.00042297854, -0.0029510674, -1659085.5, 28549.932, 0.0, 5.0144663, 4.9917336 
8.775097e+1, 1.3278319e+2, -1613511.3, -1652645.9, -378.85, 0.0004388939, 0.0038491716, -1613507.6, 25217.516, 0.0, 5.0146294, 4.9890504 
8.775398e+1, 1.3777198e+2, -1565105.8, -1605547.9, -416.81894, 0.00039726967, -0.00095281895, -1565101.5, 24733.559, 0.0, 5.014783, 4.9883533 
8.775685e+1, 1.4275908e+2, -1519801.3, -1564807.5, -648.3728, 0.00033991045, 0.000599909, -1519792.0, 21169.324, 0.0, 5.0149293, 4.9855165 
8.7759596e+1, 1.4774475e+2, -1471236.4, -1517362.0, -680.323, 0.00028740737, -0.00068096386, -1471226.3, 20875.473, 0.0, 5.015069, 4.9849358 
8.7762207e+1, 1.5272853e+2, -1425994.1, -1476780.0, -890.43225, 0.00022161711, 0.0015607422, -1425978.5, 17282.146, 0.0, 5.0151997, 4.9820614 
8.776471e+1, 1.5771063e+2, -1377411.0, -1429262.1, -917.4972, 0.00015453213, -0.0009954788, -1377394.8, 17041.408, 0.0, 5.0153227, 4.9815016 
8.7767106e+1, 1.6269098e+2, -1332209.6, -1388788.5, -1098.7167, 0.00012674599, 0.0016082838, -1332188.4, 13440.363, 0.0, 5.0154386, 4.978574 
8.776941e+1, 1.676696e+2, -1283545.9, -1341079.8, -1122.1797, 0.00013599079, -0.00081437314, -1283524.0, 13314.219, 0.0, 5.0155478, 4.978071 
8.7771624e+1, 1.726465e+2, -1238386.0, -1300745.6, -1279.0498, 0.000099682795, 0.00151053, -1238359.8, 9704.896, 0.0, 5.0156536, 4.9750752 
8.777374e+1, 1.7762165e+2, -1189646.6, -1252893.0, -1296.7142, 0.000021070648, -0.0008581678, -1189620.0, 9688.146, 0.0, 5.0157566, 4.974611 
8.7775797e+1, 1.8259507e+2, -1144515.5, -1212679.8, -1423.2125, 0.000020012387, 0.0015804248, -1144485.9, 6082.7427, 0.0, 5.0158544, 4.9715567 
8.7777793e+1, 1.875667e+2, -1095729.0, -1164724.3, -1437.6495, 0.000077154466, -0.0009832651, -1095699.0, 6147.716, 0.0, 5.0159473, 4.971119 
8.7779737e+1, 1.9253662e+2, -1050651.3, -1124695.9, -1519.8577, 0.000081243845, 0.0016261217, -1050620.0, 2521.455, 0.0, 5.016038, 4.967977 
8.7781644e+1, 1.9750467e+2, -1001796.7, -1076614.1, -1535.2307, 0.000040346116, -0.00096394133, -1001765.25, 2689.3728, 0.0, 5.016125, 4.9675713 
8.7783533e+1, 2.02471e+2, -956772.8, -1036798.5, -1587.4921, 0.000010412486, 0.0016428102, -956741.4, -956.9833, 0.0, 5.016213, 4.9643364 
8.7785393e+1, 2.0743541e+2, -907858.1, -988631.06, -1598.1063, -0.0000046823993, -0.0010585674, -907826.5, -693.2586, 0.0, 5.0162997, 4.9639463 
8.778724e+1, 2.1239814e+2, -862750.94, -948730.1, -1629.1354, -0.000008040077, 0.0015909335, -862720.06, -4221.6606, 0.0, 5.0163836, 4.9607134 
8.7789077e+1, 2.1735892e+2, -813779.7, -900461.44, -1634.3848, 0.000006576423, -0.0012882915, -813748.94, -3866.1218, 0.0, 5.0164657, 4.960347 
8.779092e+1, 2.2231805e+2, -768668.25, -860658.6, -1633.2924, 0.000006375017, 0.0015752793, -768639.25, -7356.04, 0.0, 5.0165477, 4.957055 
8.779276e+1, 2.2727521e+2, -719635.5, -812308.7, -1636.9065, -0.0000099070585, -0.0011472977, -719606.56, -6903.463, 0.0, 5.01663, 4.9567027 
8.779463e+1, 2.3223068e+2, -674506.7, -772599.8, -1607.861, -0.000053070875, 0.0017281392, -674480.3, -10340.816, 0.0, 5.016715, 4.953352 
8.7796515e+1, 2.371841e+2, -625385.3, -724124.4, -1602.6635, -0.0001240342, -0.0014852665, -625359.3, -9763.441, 0.0, 5.016802, 4.9530272 
8.7798446e+1, 2.421359e+2, -580258.6, -684561.5, -1543.5066, -0.00017822545, 0.001820387, -580235.75, -13167.371, 0.0, 5.01689, 4.949593 
8.7800425e+1, 2.470856e+2, -531033.25, -635915.3, -1533.2231, -0.00020445485, -0.0015517992, -531010.9, -12449.539, 0.0, 5.016979, 4.9493127 
8.780245e+1, 2.520336e+2, -486006.5, -596730.94, -1450.175, -0.00021133997, 0.0018257445, -485987.5, -15916.61, 0.0, 5.017072, 4.945719 
8.7804556e+1, 2.5697953e+2, -436492.6, -547527.8, -1434.0651, -0.00019154417, -0.0015743186, -436474.06, -14873.18, 0.0, 5.0171704, 4.945616 
8.780672e+1, 2.619237e+2, -391674.9, -509002.1, -1321.2183, -0.00015469799, 0.0018468582, -391660.03, -18512.156, 0.0, 5.0172734, 4.9417567 
8.7808985e+1, 2.6686585e+2, -341781.66, -459045.84, -1293.8176, -0.00011200544, -0.0014011264, -341767.38, -17052.324, 0.0, 5.0173836, 4.9419007 
8.781131e+1, 2.7180612e+2, -297235.97, -421340.56, -1161.2256, -0.00011253323, 0.0019516066, -297225.13, -20924.824, 0.0, 5.0174975, 4.9377112 
8.781375e+1, 2.7674434e+2, -246978.9, -370636.28, -1126.7225, -0.00014817745, -0.0017309877, -246968.64, -19062.934, 0.0, 5.0176167, 4.9381027 
8.7816274e+1, 2.816808e+2, -202509.77, -333319.16, -969.5306, -0.00013959642, 0.0023558654, -202502.58, -22973.957, 0.0, 5.017741, 4.933739 
8.7818956e+1, 2.8661513e+2, -151937.36, -282001.16, -921.3874, -0.000063371204, -0.0024019503, -151930.84, -20759.012, 0.0, 5.0178766, 4.93433 
8.7821716e+1, 2.915472e+2, -108954.16, -248388.9, -754.2046, -0.000033249176, 0.001899227, -108950.07, -26112.453, 0.0, 5.0180163, 4.9286103 
8.782463e+1, 2.9647666e+2, -58319.082, -197040.39, -699.8634, -0.00010448254, -0.00024490512, -58315.55, -23786.707, 0.0, 5.0181646, 4.929192 
8.7827647e+1, 3.01413e+2, -16998.762, -134183.6, -468.8187, -0.00013864673, 0.0024663599, -16996.885, -16996.885, 0.0, 5.018321, 4.9428573 
8.783089e+1, 3.0635646e+2, -15442.375, -131413.92, -397.17236, -0.000027361362, -0.005088171, -15441.015, -15441.015, 0.0, 5.018492, 4.9437804 
8.7834203e+1, 3.1131727e+2, 23366.766, -41118.51, -160.04501, 0.000058832116, 0.0041880673, 23367.162, 23367.162, 0.0, 5.018667, 4.976772 
8.7837684e+1, 3.162951e+2, 25549.54, -36912.887, -84.19459, 0.000026456539, -0.0007411837, 25549.652, 25549.652, 0.0, 5.018847, 4.978248 
9.275883e+1, 1.22796506e+2, -1706697.3, -1739965.9, -223.83931, 0.00035505666, 0.0012683561, -1706695.6, 29898.822, 0.0, 5.014414, 4.9927316 
9.276233e+1, 1.2778871e+2, -1658791.9, -1693916.4, -267.60693, 0.0004219476, -0.0030001306, -1658789.8, 28881.17, 0.0, 5.014584, 4.9916925 
9.276565e+1, 1.3277952e+2, -1613231.6, -1652602.3, -542.9227, 0.0004374143, 0.0037982073, -1613224.1, 25536.896, 0.0, 5.0147424, 4.9890094 
9.2768824e+1, 1.3776827e+2, -1564841.1, -1605511.5, -585.9665, 0.00039129966, -0.0009385414, -1564832.8, 25038.586, 0.0, 5.0148916, 4.9883127 
9.277183e+1, 1.4275534e+2, -1519553.4, -1564768.1, -834.54083, 0.00034005448, 0.0006435995, -1519538.0, 21459.914, 0.0, 5.0150294, 4.985481 
9.2774713e+1, 1.4774096e+2, -1471020.0, -1517337.9, -870.68677, 0.0003028956, -0.0006377425, -1471003.6, 21135.123, 0.0, 5.015159, 4.9849005 
9.277745e+1, 1.5272473e+2, -1425794.9, -1476755.0, -1094.1202, 0.00023002023, 0.0015992759, -1425771.4, 17526.643, 0.0, 5.015282, 4.98203 
9.2780066e+1, 1.5770678e+2, -1377227.1, -1429244.5, -1123.3286, 0.00013644663, -0.0009642503, -1377202.9, 17270.957, 0.0, 5.0154, 4.9814706 
9.2782575e+1, 1.6268712e+2, -1332038.6, -1388771.1, -1317.1415, 0.00010314045, 0.0016331712, -1332008.1, 13658.586, 0.0, 5.01551, 4.978545 
9.278499e+1, 1.676657e+2, -1283392.5, -1341070.5, -1341.5726, 0.00012453848, -0.00079369504, -1283361.3, 13515.183, 0.0, 5.0156136, 4.978043 
9.27873e+1, 1.7264257e+2, -1238252.0, -1300735.5, -1507.8845, 0.000101050624, 0.0015348686, -1238215.6, 9887.467, 0.0, 5.015711, 4.9750514 
9.278952e+1, 1.776177e+2, -1189543.6, -1252897.6, -1529.646, 0.00003649258, -0.000820893, -1189506.8, 9840.16, 0.0, 5.0158033, 4.9745874 
9.279167e+1, 1.8259111e+2, -1144424.4, -1212678.1, -1663.8319, 0.00003550688, 0.001612359, -1144383.9, 6223.672, 0.0, 5.0158944, 4.971538 
9.2793757e+1, 1.875627e+2, -1095650.8, -1164729.1, -1678.6147, 0.00007755511, -0.0009750696, -1095610.0, 6275.8765, 0.0, 5.015983, 4.9711003 
9.279579e+1, 1.9253261e+2, -1050595.9, -1124718.8, -1769.1628, 0.00008035005, 0.0016339439, -1050553.6, 2627.163, 0.0, 5.016067, 4.967955 
9.279778e+1, 1.9750063e+2, -1001762.4, -1076646.0, -1788.7563, 0.000051403513, -0.0009431944, -1001719.7, 2774.4512, 0.0, 5.016147, 4.96755 
9.279975e+1, 2.0246696e+2, -956750.3, -1036809.4, -1844.6951, 0.000032299697, 0.0016620014, -956707.8, -883.725, 0.0, 5.0162253, 4.964327 
9.2801696e+1, 2.0743135e+2, -907866.2, -988656.2, -1853.9874, 0.000026821197, -0.0010482805, -907823.7, -650.6307, 0.0, 5.0163016, 4.963937 
9.280363e+1, 2.1239407e+2, -862774.6, -948753.44, -1887.8453, 0.00002250264, 0.0016116367, -862733.2, -4194.8955, 0.0, 5.0163784, 4.960708 
9.280554e+1, 2.1735486e+2, -813817.7, -900491.06, -1896.0057, 0.000026422134, -0.0012398947, -813776.2, -3853.5325, 0.0, 5.0164547, 4.960342 
9.280746e+1, 2.2231399e+2, -768721.8, -860687.9, -1897.1627, 0.000012086373, 0.001625954, -768682.7, -7359.554, 0.0, 5.01653, 4.957053 
9.280938e+1, 2.2727114e+2, -719714.8, -812349.56, -1899.072, -0.000026787911, -0.0011191084, -719675.9, -6932.772, 0.0, 5.0166035, 4.956701 
9.281132e+1, 2.3222661e+2, -674605.8, -772634.0, -1867.7639, -0.00007096962, 0.0017576288, -674570.25, -10390.728, 0.0, 5.016678, 4.9533567 
9.2813295e+1, 2.3718004e+2, -625516.6, -724172.44, -1862.508, -0.00011984177, -0.0014194634, -625481.44, -9845.654, 0.0, 5.016753, 4.9530325 
9.281531e+1, 2.4213183e+2, -580411.75, -684612.3, -1800.008, -0.00015965481, 0.0019034018, -580380.7, -13272.467, 0.0, 5.016832, 4.9496017 
9.281738e+1, 2.4708155e+2, -531202.7, -635972.7, -1788.492, -0.00018359802, -0.0014769523, -531172.1, -12571.072, 0.0, 5.0169153, 4.9493213 
9.281949e+1, 2.5202957e+2, -486188.8, -596783.5, -1699.0026, -0.00019888772, 0.0018796915, -486162.72, -16052.159, 0.0, 5.017001, 4.945732 
9.282169e+1, 2.569755e+2, -436696.22, -547588.5, -1679.6807, -0.00019710415, -0.0015563172, -436670.78, -15030.345, 0.0, 5.0170913, 4.9456296 
9.2823946e+1, 2.6191968e+2, -391899.06, -509065.5, -1558.9326, -0.00016077707, 0.0018526062, -391878.34, -18691.049, 0.0, 5.0171857, 4.9417734 
9.282632e+1, 2.6686183e+2, -342031.3, -459119.4, -1532.8561, -0.000097202326, -0.0013728342, -342011.25, -17256.97, 0.0, 5.0172863, 4.9419174 
9.2828757e+1, 2.7180213e+2, -297503.3, -421408.94, -1394.4768, -0.0000712543, 0.0019901863, -297487.63, -21148.28, 0.0, 5.0173907, 4.937734 
9.2831314e+1, 2.7674037e+2, -247265.7, -370711.06, -1354.9578, -0.000063509826, -0.0017063069, -247250.83, -19306.314, 0.0, 5.0175023, 4.938126 
9.283396e+1, 2.8167686e+2, -202811.4, -333394.66, -1184.4314, -0.00004514516, 0.0023636075, -202800.66, -23233.47, 0.0, 5.0176206, 4.933765 
9.283677e+1, 2.8661123e+2, -152251.39, -282080.94, -1132.6421, -0.000023829594, -0.0024107348, -152241.52, -21031.346, 0.0, 5.0177503, 4.934356 
9.283966e+1, 2.915433e+2, -109284.06, -248476.58, -957.1216, -0.000011441539, 0.0018870233, -109277.484, -26401.762, 0.0, 5.0178843, 4.9286356 
9.284273e+1, 2.9647282e+2, -58668.2, -197136.36, -897.94214, -0.000029563937, -0.00023660758, -58662.375, -24095.7, 0.0, 5.0180254, 4.9292173 
9.28459e+1, 3.0140918e+2, -17360.186, -134272.16, -647.5903, -0.000051391286, 0.0024886834, -17356.598, -17356.598, 0.0, 5.018174, 4.9428883 
9.2849296e+1, 3.0635265e+2, -15823.157, -131507.8, -568.65076, -0.000011395539, -0.005068823, -15820.361, -15820.361, 0.0, 5.0183377, 4.9438124 
9.2852783e+1, 3.1131348e+2, 22985.385, -41190.08, -315.0406, 0.00004293275, 0.0042017763, 22986.932, 22986.932, 0.0, 5.018507, 4.9768143 
9.2856455e+1, 3.1629136e+2, 25169.482, -36978.21, -234.1436, 0.00006285931, -0.0007156577, 25170.363, 25170.363, 0.0, 5.0186863, 4.9782925 
9.777324e+1, 1.2279276e+2, -1706749.3, -1740085.8, -101.52861, 0.0003778015, 0.0013309815, -1706749.0, 29882.346, 0.0, 5.0144167, 4.992691 
9.777691e+1, 1.2778491e+2, -1658844.5, -1694036.5, -146.43106, 0.0004279593, -0.0030811257, -1658843.9, 28864.324, 0.0, 5.0145864, 4.991652 
9.7780395e+1, 1.3277566e+2, -1613289.4, -1652731.9, -437.5952, 0.0004263262, 0.0036904484, -1613284.5, 25514.193, 0.0, 5.0147448, 4.9889655 
9.778371e+1, 1.3776438e+2, -1564898.8, -1605640.4, -481.04703, 0.0003565605, -0.000982318, -1564893.1, 25016.313, 0.0, 5.0148935, 4.988269 
9.7786856e+1, 1.4275143e+2, -1519603.1, -1564880.6, -744.1917, 0.00030660108, 0.00066023844, -1519590.9, 21445.506, 0.0, 5.015032, 4.9854426 
9.778987e+1, 1.4773701e+2, -1471069.1, -1517449.3, -780.7758, 0.0002930063, -0.0005654574, -1471056.0, 21121.598, 0.0, 5.015161, 4.9848623 
9.779273e+1, 1.5272073e+2, -1425837.1, -1476851.0, -1012.77856, 0.00023456804, 0.0016710347, -1425817.0, 17520.127, 0.0, 5.0152836, 4.981997 
9.779547e+1, 1.5770276e+2, -1377270.6, -1429340.8, -1042.4392, 0.00014454726, -0.00093713374, -1377249.8, 17263.594, 0.0, 5.0154014, 4.9814377 
9.7798085e+1, 1.6268304e+2, -1332078.1, -1388857.9, -1247.433, 0.000095626434, 0.0016308067, -1332050.8, 13655.798, 0.0, 5.015511, 4.978516 
9.78006e+1, 1.6766162e+2, -1283431.5, -1341156.3, -1272.086, 0.00008468512, -0.000811437, -1283403.5, 13513.106, 0.0, 5.015614, 4.978014 
9.780301e+1, 1.7263846e+2, -1238287.5, -1300813.1, -1446.5304, 0.00007055814, 0.0015249193, -1238254.1, 9889.44, 0.0, 5.0157113, 4.975025 
9.780533e+1, 1.7761356e+2, -1189579.5, -1252975.1, -1468.01, 0.00005212422, -0.0007963484, -1189545.5, 9842.03, 0.0, 5.015804, 4.974561 
9.7807574e+1, 1.8258694e+2, -1144450.6, -1212733.8, -1605.5243, 0.000058296908, 0.0016509589, -1144412.9, 6235.49, 0.0, 5.0158944, 4.9715195 
9.780974e+1, 1.8755852e+2, -1095678.8, -1164786.3, -1620.795, 0.00007836754, -0.0009473445, -1095640.8, 6286.0923, 0.0, 5.0159826, 4.9710813 
9.781186e+1, 1.925284e+2, -1050631.8, -1124791.6, -1717.7825, 0.00007584919, 0.0016431616, -1050592.0, 2630.0396, 0.0, 5.0160666, 4.967931 
9.7813934e+1, 1.974964e+2, -1001797.75, -1076717.4, -1737.413, 0.000052424915, -0.0009751293, -1001757.5, 2778.1875, 0.0, 5.016146, 4.967526 
9.781598e+1, 2.024627e+2, -956765.9, -1036837.1, -1796.3378, 0.000049378552, 0.0016173128, -956725.6, -859.83685, 0.0, 5.0162244, 4.964318 
9.7818e+1, 2.074271e+2, -907882.7, -988684.06, -1805.8342, 0.00006452471, -0.0010612673, -907842.3, -627.55853, 0.0, 5.0163, 4.963928 
9.782001e+1, 2.1238981e+2, -862790.3, -948777.7, -1839.8328, 0.0000656831, 0.0016635235, -862751.0, -4170.966, 0.0, 5.016376, 4.960701 
9.7822e+1, 2.1735059e+2, -813834.6, -900515.56, -1847.9218, 0.000057505185, -0.0011017914, -813795.25, -3830.8083, 0.0, 5.0164523, 4.960335 
9.782399e+1, 2.2230972e+2, -768732.1, -860695.7, -1851.2467, 0.00001552696, 0.0017339209, -768694.9, -7329.852, 0.0, 5.0165267, 4.957052 
9.782598e+1, 2.2726685e+2, -719725.8, -812357.3, -1852.9739, -0.000063888896, -0.0011624513, -719688.75, -6903.608, 0.0, 5.0166, 4.9567 
9.7827995e+1, 2.3222232e+2, -674610.2, -772625.44, -1820.4863, -0.00010952833, 0.0016860492, -674576.4, -10354.856, 0.0, 5.016674, 4.9533615 
9.7830045e+1, 2.3717578e+2, -625521.7, -724163.6, -1815.2506, -0.00011100124, -0.0013609888, -625488.3, -9810.676, 0.0, 5.016749, 4.9530373 
9.7832143e+1, 2.4212758e+2, -580413.3, -684593.25, -1747.3506, -0.000118081116, 0.0020291808, -580384.0, -13234.046, 0.0, 5.016827, 4.94961 
9.783429e+1, 2.470773e+2, -531205.25, -635953.25, -1735.295, -0.00013734426, -0.0013699257, -531176.5, -12533.764, 0.0, 5.01691, 4.9493303 
9.7836494e+1, 2.520253e+2, -486185.75, -596748.7, -1641.1759, -0.00016746481, 0.0019641144, -486161.38, -16009.263, 0.0, 5.016996, 4.945747 
9.783878e+1, 2.5697124e+2, -436693.9, -547552.75, -1621.59, -0.00020082024, -0.0014927067, -436670.2, -14988.382, 0.0, 5.017085, 4.945645 
9.784113e+1, 2.6191548e+2, -391898.1, -509030.2, -1493.3934, -0.0001748418, 0.0018880875, -391879.06, -18650.502, 0.0, 5.017179, 4.9417887 
9.7843605e+1, 2.6685762e+2, -342031.28, -459084.25, -1466.0203, -0.00008355263, -0.0013788184, -342012.94, -17217.453, 0.0, 5.017279, 4.941933 
9.784615e+1, 2.7179796e+2, -297493.56, -421349.47, -1320.5161, -0.000021457327, 0.00197592, -297479.47, -21099.111, 0.0, 5.0173836, 4.9377584 
9.784882e+1, 2.7673623e+2, -247255.5, -370648.53, -1280.0912, 0.00003805879, -0.0016784632, -247242.22, -19257.02, 0.0, 5.0174947, 4.938152 
9.785159e+1, 2.816727e+2, -202801.44, -333329.72, -1097.8246, 0.00007138776, 0.0024136764, -202792.2, -23184.629, 0.0, 5.017612, 4.9337916 
9.7854525e+1, 2.8660712e+2, -152243.77, -282017.1, -1043.4154, 0.000039358547, -0.002370399, -152235.38, -20985.041, 0.0, 5.017741, 4.934383 
9.785755e+1, 2.9153925e+2, -109277.89, -248412.69, -860.89386, 0.00003074785, 0.001905741, -109272.57, -26356.912, 0.0, 5.0178747, 4.928663 
9.7860754e+1, 2.9646876e+2, -58662.957, -197072.98, -799.95447, 0.00005393767, -0.00026340588, -58658.332, -24051.963, 0.0, 5.018016, 4.9292445 
9.786408e+1, 3.0140516e+2, -17349.715, -134194.48, -535.86334, 0.000036013145, 0.0024328548, -17347.258, -17347.258, 0.0, 5.0181637, 4.9429207 
9.786763e+1, 3.0634862e+2, -15812.744, -131426.89, -452.95273, 0.0000032757177, -0.0051185586, -15810.969, -15810.969, 0.0, 5.0183268, 4.9438467 
9.787129e+1, 3.1130955e+2, 23004.918, -41085.094, -189.71759, 0.000029281238, 0.004178398, 23005.48, 23005.48, 0.0, 5.0184956, 4.9768577 
9.7875136e+1, 3.1628746e+2, 25190.553, -36866.992, -106.45454, 0.00011982797, -0.00064131146, 25190.734, 25190.734, 0.0, 5.018674, 4.9783387 
1.0278773e+2, 1.2278881e+2, -1706392.8, -1740019.9, -239.5105, 0.0004019058, 0.0013028036, -1706391.0, 30278.926, 0.0, 5.014559, 4.9926424 
1.0279156e+2, 1.2778091e+2, -1658515.6, -1693984.0, -295.28656, 0.0004148869, -0.0030560428, -1658513.1, 29234.121, 0.0, 5.0147195, 4.991604 
1.027952e+2, 1.3277164e+2, -1612977.6, -1652676.1, -605.5265, 0.00040045104, 0.0037186441, -1612968.4, 25869.844, 0.0, 5.0148697, 4.988923 
1.02798656e+2, 1.377603e+2, -1564609.5, -1605595.6, -648.1481, 0.0003311045, -0.0009883739, -1564599.3, 25350.135, 0.0, 5.015011, 4.9882264 
1.0280194e+2, 1.427473e+2, -1519328.8, -1564838.5, -925.96344, 0.00027443163, 0.00065664185, -1519310.0, 21766.836, 0.0, 5.0151434, 4.985402 
1.0280508e+2, 1.4773287e+2, -1470808.9, -1517413.9, -966.0218, 0.0002496424, -0.0005374477, -1470788.9, 21429.46, 0.0, 5.015268, 4.9848223 
1.02808066e+2, 1.5271653e+2, -1425597.3, -1476815.8, -1213.8086, 0.00021022206, 0.001708266, -1425568.5, 17809.826, 0.0, 5.015382, 4.9819617 
1.0281091e+2, 1.5769853e+2, -1377067.8, -1429323.4, -1247.7745, 0.00016150679, -0.0009078734, -1377038.0, 17516.865, 0.0, 5.0154867, 4.9814024 
1.0281364e+2, 1.626788e+2, -1331894.0, -1388837.5, -1463.787, 0.000108367945, 0.0016556177, -1331856.4, 13891.976, 0.0, 5.015588, 4.978486 
1.0281625e+2, 1.6765732e+2, -1283263.8, -1341143.8, -1489.9745, 0.000053147854, -0.0007878331, -1283225.5, 13733.1875, 0.0, 5.0156856, 4.977984 
1.0281875e+2, 1.7263414e+2, -1238134.8, -1300801.4, -1675.1396, 0.000036049125, 0.0015351345, -1238090.0, 10095.892, 0.0, 5.0157766, 4.974998 
1.0282116e+2, 1.776092e+2, -1189447.9, -1252973.4, -1697.5609, 0.000052994925, -0.00080865156, -1189402.5, 10027.681, 0.0, 5.0158615, 4.974534 
1.0282349e+2, 1.8258257e+2, -1144338.9, -1212730.1, -1843.2212, 0.00006960909, 0.0016407778, -1144289.3, 6402.0005, 0.0, 5.015943, 4.9714975 
1.02825746e+2, 1.8755412e+2, -1095599.5, -1164798.3, -1863.2186, 0.00008357864, -0.0009339998, -1095549.4, 6420.6157, 0.0, 5.0160203, 4.9710593 
1.02827944e+2, 1.9252397e+2, -1050577.5, -1124816.8, -1965.5387, 0.000082144325, 0.0016538119, -1050525.5, 2739.8582, 0.0, 5.0160956, 4.9679084 
1.028301e+2, 1.9749194e+2, -1001761.06, -1076750.8, -1983.4485, 0.000059291327, -0.0009925623, -1001708.6, 2870.604, 0.0, 5.0161695, 4.9675035 
1.0283221e+2, 2.0245825e+2, -956738.44, -1036852.8, -2049.1726, 0.00006212271, 0.0015985039, -956686.06, -776.5173, 0.0, 5.0162396, 4.9643054 
1.0283431e+2, 2.0742263e+2, -907881.6, -988711.8, -2063.8845, 0.00008638911, -0.0010539059, -907828.94, -570.3214, 0.0, 5.0163064, 4.963916 
1.0283638e+2, 2.1238533e+2, -862809.9, -948800.9, -2101.3257, 0.00008631585, 0.001688405, -862758.56, -4134.5957, 0.0, 5.016372, 4.960695 
1.0283844e+2, 2.173461e+2, -813885.7, -900553.06, -2108.2383, 0.0000621023, -0.0010697917, -813834.4, -3825.9294, 0.0, 5.0164375, 4.9603286 
1.028405e+2, 2.2230522e+2, -768801.7, -860725.6, -2111.2727, 0.000020392412, 0.0017663586, -768753.2, -7344.139, 0.0, 5.016502, 4.957053 
1.0284257e+2, 2.2726236e+2, -719818.56, -812397.25, -2110.27, -0.00003550635, -0.0011364191, -719770.5, -6941.314, 0.0, 5.0165668, 4.956701 
1.0284465e+2, 2.3221783e+2, -674724.0, -772670.4, -2076.8564, -0.000080493424, 0.0017143902, -674680.0, -10414.487, 0.0, 5.0166326, 4.953365 
1.0284677e+2, 2.3717129e+2, -625659.75, -724219.2, -2073.867, -0.00010835672, -0.0013156672, -625616.1, -9894.517, 0.0, 5.016699, 4.9530406 
1.0284894e+2, 2.4212311e+2, -580569.4, -684642.5, -2002.498, -0.000117930824, 0.002080718, -580530.8, -13336.957, 0.0, 5.0167675, 4.9496202 
1.0285117e+2, 2.4707283e+2, -531388.9, -636013.5, -1988.7166, -0.00011615384, -0.0013262987, -531351.06, -12664.486, 0.0, 5.01684, 4.949341 
1.02853455e+2, 2.5202087e+2, -486391.13, -596807.7, -1889.552, -0.00012713842, 0.0020146272, -486358.78, -16162.957, 0.0, 5.016916, 4.945762 
1.0285582e+2, 2.5696683e+2, -436924.72, -547621.56, -1869.3029, -0.0001394839, -0.0014133519, -436893.16, -15167.816, 0.0, 5.0169954, 4.9456606 
1.0285826e+2, 2.6191103e+2, -392147.7, -509098.06, -1730.9556, -0.00011471992, 0.001954141, -392122.06, -18850.164, 0.0, 5.0170803, 4.941808 
1.0286082e+2, 2.668532e+2, -342299.94, -459158.94, -1696.5193, -0.000057508118, -0.0013919426, -342275.3, -17436.602, 0.0, 5.0171733, 4.941953 
1.02863476e+2, 2.7179354e+2, -297778.25, -421424.78, -1541.839, -0.0000017594937, 0.0019322411, -297759.03, -21335.629, 0.0, 5.0172706, 4.9377813 
1.0286626e+2, 2.7673188e+2, -247557.17, -370730.06, -1502.9587, 0.00009963054, -0.0016718671, -247538.84, -19510.861, 0.0, 5.017375, 4.938175 
1.02869146e+2, 2.8166837e+2, -203118.73, -333405.13, -1312.1274, 0.0001553244, 0.002449276, -203105.52, -23455.434, 0.0, 5.017484, 4.9338207 
1.0287219e+2, 2.8660282e+2, -152590.89, -282103.06, -1251.6373, 0.00010639178, -0.002344113, -152578.78, -21286.234, 0.0, 5.0176015, 4.934413 
1.0287535e+2, 2.9153496e+2, -109650.086, -248510.45, -1056.7474, 0.00009703572, 0.0019207685, -109642.04, -26684.451, 0.0, 5.017726, 4.928692 
1.028787e+2, 2.964645e+2, -59045.42, -197174.97, -990.62695, 0.0001501656, -0.0002619566, -59038.316, -24390.291, 0.0, 5.0178623, 4.9292736 
1.0288217e+2, 3.014009e+2, -17738.219, -134285.5, -709.37897, 0.00012969365, 0.002418924, -17733.902, -17733.902, 0.0, 5.018005, 4.9429555 
1.0288587e+2, 3.0634445e+2, -16222.6455, -131523.8, -619.77985, 0.00002257206, -0.0051542097, -16219.314, -16219.314, 0.0, 5.0181594, 4.943883 
1.0288969e+2, 3.113054e+2, 22589.035, -41165.008, -337.28403, 0.000009857943, 0.00413733, 22590.82, 22590.82, 0.0, 5.018321, 4.9769025 
1.02893725e+2, 3.1628335e+2, 24767.824, -36944.906, -249.59393, 0.00014083018, -0.0006219903, 24768.834, 24768.834, 0.0, 5.018496, 4.978386 
1.07802294e+2, 1.2278469e+2, -1706463.1, -1740180.9, -124.81925, 0.00042262676, 0.0012000588, -1706462.6, 30247.629, 0.0, 5.0145626, 4.992588 
1.0780628e+2, 1.2777676e+2, -1658584.9, -1694142.4, -180.99077, 0.00038313508, -0.0029475857, -1658583.9, 29204.12, 0.0, 5.0147233, 4.99155 
1.0781006e+2, 1.3276744e+2, -1613029.8, -1652798.6, -505.83395, 0.00035950038, 0.003854144, -1613023.4, 25856.076, 0.0, 5.014873, 4.9888806 
1.0781366e+2, 1.3775606e+2, -1564662.5, -1605718.0, -549.30896, 0.00030999907, -0.00096518954, -1564655.1, 25335.904, 0.0, 5.0150137, 4.9881845 
1.07817076e+2, 1.42743e+2, -1519383.0, -1564962.3, -839.80225, 0.00024066871, 0.0006358898, -1519367.6, 21751.313, 0.0, 5.015146, 4.98536 
1.0782033e+2, 1.4772853e+2, -1470863.3, -1517537.3, -880.3911, 0.00017719342, -0.00054594065, -1470846.6, 21414.238, 0.0, 5.01527, 4.9847803 
1.0782344e+2, 1.5271215e+2, -1425646.4, -1476927.9, -1142.7343, 0.00016010288, 0.0017166731, -1425620.9, 17800.318, 0.0, 5.015384, 4.981923 
1.07826404e+2, 1.576941e+2, -1377116.5, -1429434.5, -1176.8502, 0.0001823467, -0.00087843515, -1377090.0, 17508.121, 0.0, 5.015489, 4.9813643 
1.0782923e+2, 1.6267435e+2, -1331933.6, -1388928.1, -1398.7433, 0.0001343738, 0.0017004695, -1331899.3, 13892.602, 0.0, 5.0155897, 4.978455 
1.07831925e+2, 1.6765285e+2, -1283305.3, -1341235.0, -1425.4086, 0.000025857938, -0.00073312636, -1283270.1, 13732.36, 0.0, 5.0156865, 4.977953 
1.07834525e+2, 1.7262962e+2, -1238172.9, -1300883.9, -1620.1417, -0.0000040459304, 0.0015602385, -1238131.0, 10099.051, 0.0, 5.015777, 4.97497 
1.0783702e+2, 1.7760466e+2, -1189486.0, -1253055.4, -1642.2181, 0.000039629216, -0.0008511393, -1189443.6, 10031.117, 0.0, 5.015862, 4.9745064 
1.07839435e+2, 1.82578e+2, -1144373.5, -1212803.6, -1794.1996, 0.00006902151, 0.0015908822, -1144326.5, 6409.532, 0.0, 5.015943, 4.9714727 
1.0784176e+2, 1.8754953e+2, -1095634.3, -1164870.8, -1814.3918, 0.00008907187, -0.00093216466, -1095586.8, 6428.198, 0.0, 5.01602, 4.971035 
1.0784404e+2, 1.9251937e+2, -1050609.1, -1124880.5, -1919.398, 0.00009394997, 0.0016641013, -1050559.6, 2750.9739, 0.0, 5.016095, 4.9678874 
1.0784626e+2, 1.9748732e+2, -1001794.8, -1076816.3, -1937.981, 0.00006806233, -0.0010005761, -1001744.8, 2879.8267, 0.0, 5.016168, 4.967482 
1.0784845e+2, 2.024536e+2, -956765.56, -1036902.25, -2009.0461, 0.00006857057, 0.0015994611, -956715.25, -760.14075, 0.0, 5.0162377, 4.9642897 
1.0785061e+2, 2.0741795e+2, -907908.9, -988760.9, -2023.3447, 0.000092976145, -0.0010312153, -907858.3, -553.9042, 0.0, 5.0163045, 4.9639 
1.0785275e+2, 2.1238066e+2, -862824.8, -948821.44, -2062.2683, 0.00008664038, 0.0016907004, -862775.4, -4105.529, 0.0, 5.01637, 4.9606886 
1.0785487e+2, 2.1734141e+2, -813902.06, -900573.8, -2069.3289, 0.00004325887, -0.0011211733, -813852.7, -3798.2346, 0.0, 5.016434, 4.960323 
1.07857004e+2, 2.2230054e+2, -768809.2, -860724.0, -2072.667, 0.000023221699, 0.0017398373, -768762.5, -7307.465, 0.0, 5.0164986, 4.9570556 
1.0785914e+2, 2.2725768e+2, -719827.2, -812395.4, -2071.9697, 0.000040214338, -0.0010581495, -719780.8, -6905.865, 0.0, 5.0165625, 4.9567037 
1.0786129e+2, 2.3221317e+2, -674734.94, -772671.44, -2037.6914, -0.0000021689584, 0.0018192315, -674692.56, -10381.267, 0.0, 5.016628, 4.9533668 
1.0786347e+2, 2.3716661e+2, -625671.44, -724220.56, -2034.1271, -0.00011300794, -0.0012807328, -625629.44, -9861.939, 0.0, 5.0166936, 4.9530425 
1.078657e+2, 2.4211842e+2, -580571.6, -684620.7, -1958.1737, -0.00015238985, 0.0020743634, -580534.8, -13295.039, 0.0, 5.0167623, 4.9496303 
1.07868e+2, 2.4706817e+2, -531392.1, -635990.3, -1943.9634, -0.00011735961, -0.0013320583, -531356.06, -12623.695, 0.0, 5.016834, 4.949352 
1.0787037e+2, 2.5201622e+2, -486390.63, -596773.3, -1839.8157, -0.000083633226, 0.0020388046, -486359.97, -16118.542, 0.0, 5.016909, 4.945777 
1.0787283e+2, 2.5696218e+2, -436924.3, -547585.94, -1819.1633, -0.000032196727, -0.0013230497, -436894.4, -15123.661, 0.0, 5.0169883, 4.9456763 
1.07875355e+2, 2.6190645e+2, -392139.78, -509042.97, -1672.0973, -0.0000016650064, 0.0020426456, -392115.88, -18798.746, 0.0, 5.017073, 4.941831 
1.0787801e+2, 2.6684862e+2, -342293.13, -459102.38, -1636.6853, -0.000025280833, -0.0014101887, -342270.2, -17386.49, 0.0, 5.017165, 4.941977 
1.0788074e+2, 2.7178898e+2, -297775.6, -421374.1, -1474.5793, -0.000008494138, 0.0018663447, -297758.0, -21289.803, 0.0, 5.0172615, 4.9378033 
1.0788364e+2, 2.767273e+2, -247556.4, -370681.03, -1433.8608, 0.00012706955, -0.0016816556, -247539.72, -19467.125, 0.0, 5.0173655, 4.9381967 
1.07886635e+2, 2.8166384e+2, -203108.45, -333331.5, -1234.3612, 0.00021034527, 0.0024734056, -203096.77, -23402.314, 0.0, 5.017474, 4.933851 
1.078898e+2, 2.8659832e+2, -152580.14, -282025.66, -1172.0657, 0.00017224677, -0.0023290347, -152569.53, -21232.943, 0.0, 5.017591, 4.934445 
1.0789308e+2, 2.915305e+2, -109642.32, -248436.83, -965.3106, 0.00017730842, 0.0019323392, -109635.61, -26634.307, 0.0, 5.017715, 4.928723 
1.07896574e+2, 2.964601e+2, -59040.184, -197103.27, -896.5305, 0.00025138864, -0.00023991524, -59034.363, -24342.947, 0.0, 5.017851, 4.929304 
1.0790019e+2, 3.0139652e+2, -17728.363, -134199.08, -604.7635, 0.0002234168, 0.0024362851, -17725.223, -17725.223, 0.0, 5.017993, 4.942992 
1.0790403e+2, 3.063401e+2, -16213.033, -131433.92, -511.9644, 0.000041051815, -0.0051792273, -16210.759, -16210.759, 0.0, 5.0181465, 4.943921 
1.07908e+2, 3.1130105e+2, 22605.025, -41057.03, -216.49634, -0.000018801637, 0.004083147, 22605.76, 22605.76, 0.0, 5.018307, 4.9769483 
1.0791221e+2, 3.1627908e+2, 24784.58, -36832.125, -124.89179, 0.00012664362, -0.00064404757, 24784.834, 24784.834, 0.0, 5.0184817, 4.9784336 
1.1281693e+2, 1.22780405e+2, -1706067.8, -1740111.5, -260.2959, 0.00042119983, 0.0011759723, -1706065.8, 30686.549, 0.0, 5.0147204, 4.9925327 
1.1282107e+2, 1.2777242e+2, -1658210.6, -1694082.6, -317.9645, 0.00033653947, -0.0029472315, -1658207.9, 29622.768, 0.0, 5.014874, 4.9914956 
1.12825006e+2, 1.3276304e+2, -1612672.9, -1652730.9, -663.31024, 0.0003063383, 0.0038675752, -1612661.9, 26260.646, 0.0, 5.015015, 4.988834 
1.1282875e+2, 1.3775162e+2, -1564338.3, -1605666.0, -714.27234, 0.00028050086, -0.00093848695, -1564325.9, 25708.633, 0.0, 5.0151453, 4.9881377 
1.12832285e+2, 1.4273852e+2, -1519080.8, -1564912.8, -1020.0941, 0.00022296401, 0.0006495133, -1519058.0, 22104.832, 0.0, 5.0152683, 4.985317 
1.1283566e+2, 1.4772399e+2, -1470583.6, -1517498.9, -1062.5378, 0.00015995173, -0.0005665503, -1470559.5, 21745.746, 0.0, 5.015385, 4.9847374 
1.1283887e+2, 1.5270759e+2, -1425381.6, -1476889.4, -1340.7026, 0.00013436573, 0.0016912707, -1425346.8, 18119.234, 0.0, 5.0154924, 4.981884 
1.1284194e+2, 1.576895e+2, -1376869.5, -1429404.5, -1376.8599, 0.00013936248, -0.00088337087, -1376833.4, 17809.887, 0.0, 5.0155916, 4.981325 
1.1284486e+2, 1.6266969e+2, -1331710.8, -1388899.5, -1612.0804, 0.000104212326, 0.0017030158, -1331665.4, 14172.134, 0.0, 5.0156817, 4.9784203 
1.12847656e+2, 1.6764817e+2, -1283124.4, -1341226.6, -1643.7466, 0.000035042805, -0.0007343809, -1283077.9, 13970.557, 0.0, 5.0157647, 4.9779186 
1.1285033e+2, 1.7262492e+2, -1238012.3, -1300871.3, -1847.7456, 0.000017566457, 0.0015541824, -1237958.0, 10318.237, 0.0, 5.0158453, 4.9749417 
1.12852916e+2, 1.7759992e+2, -1189344.0, -1253051.4, -1870.8021, 0.000051322644, -0.00086508127, -1189289.0, 10232.15, 0.0, 5.015924, 4.9744782 
1.128554e+2, 1.8257323e+2, -1144252.0, -1212803.5, -2031.4443, 0.000065224536, 0.0015645856, -1144191.9, 6590.9175, 0.0, 5.015997, 4.9714475 
1.128578e+2, 1.8754472e+2, -1095538.4, -1164882.0, -2052.529, 0.00006223768, -0.00096995395, -1095477.6, 6584.3804, 0.0, 5.0160646, 4.97101 
1.1286015e+2, 1.9251454e+2, -1050543.6, -1124906.0, -2165.5325, 0.000075843556, 0.0016323016, -1050480.6, 2877.2317, 0.0, 5.0161295, 4.9678626 
1.12862445e+2, 1.9748247e+2, -1001767.56, -1076860.6, -2189.235, 0.0000896521, -0.0010013483, -1001703.8, 2968.3086, 0.0, 5.0161896, 4.9674573 
1.128647e+2, 2.0244873e+2, -956748.7, -1036923.9, -2264.2324, 0.00010092963, 0.0016045484, -956684.75, -682.0221, 0.0, 5.01625, 4.9642763 
1.1286692e+2, 2.0741308e+2, -907911.0, -988791.06, -2275.2712, 0.00010661836, -0.0010521703, -907847.06, -494.85135, 0.0, 5.0163097, 4.963887 
1.1286913e+2, 2.1237576e+2, -862847.25, -948847.0, -2317.446, 0.00008667, 0.0016545381, -862784.8, -4067.014, 0.0, 5.0163655, 4.960682 
1.128713e+2, 2.1733652e+2, -813959.0, -900615.06, -2326.0903, 0.00003373417, -0.001158778, -813896.56, -3794.114, 0.0, 5.0164175, 4.9603167 
1.1287349e+2, 2.2229564e+2, -768891.7, -860764.56, -2332.5264, 0.000019373401, 0.0017319372, -768832.5, -7329.4253, 0.0, 5.01647, 4.957054 
1.1287568e+2, 2.272528e+2, -719940.5, -812449.5, -2336.4192, 0.000057151457, -0.0010042347, -719881.5, -6958.52, 0.0, 5.0165234, 4.9567027 
1.128779e+2, 2.3220827e+2, -674865.1, -772716.9, -2299.9946, 0.000032240336, 0.0018841756, -674811.1, -10451.829, 0.0, 5.016579, 4.953373 
1.1288013e+2, 2.3716173e+2, -625821.3, -724273.75, -2290.0857, -0.00006844312, -0.0012699865, -625768.06, -9952.633, 0.0, 5.016638, 4.953049 
1.1288243e+2, 2.4211355e+2, -580741.2, -684672.3, -2208.423, -0.00010902933, 0.0020591037, -580694.3, -13406.642, 0.0, 5.016697, 4.9496417 
1.12884805e+2, 2.470633e+2, -531594.7, -636055.6, -2193.0452, -0.0000905598, -0.0013310863, -531548.6, -12768.561, 0.0, 5.0167565, 4.9493637 
1.1288724e+2, 2.5201136e+2, -486616.4, -596841.2, -2081.5317, -0.000062975996, 0.0020427376, -486577.13, -16288.072, 0.0, 5.0168214, 4.945792 
1.1288976e+2, 2.5695735e+2, -437166.22, -547659.5, -2060.0027, -0.00000071206244, -0.0013392629, -437127.84, -15309.576, 0.0, 5.016895, 4.945692 
1.1289238e+2, 2.6190162e+2, -392396.84, -509108.94, -1907.5256, 0.000041438514, 0.0020341785, -392365.66, -19001.229, 0.0, 5.016971, 4.941853 
1.1289511e+2, 2.6684383e+2, -342580.94, -459179.9, -1872.374, 0.000031694566, -0.0013687251, -342550.88, -17620.137, 0.0, 5.017051, 4.942 
1.1289794e+2, 2.7178422e+2, -298088.06, -421455.47, -1700.6162, 0.000049695176, 0.0019178803, -298064.63, -21549.615, 0.0, 5.017137, 4.937829 
1.1290094e+2, 2.7672255e+2, -247889.83, -370770.28, -1652.2394, 0.00016594, -0.0016846951, -247867.61, -19748.43, 0.0, 5.017233, 4.938223 
1.12904035e+2, 2.8165913e+2, -203454.55, -333410.97, -1440.1171, 0.00023369491, 0.0024350127, -203438.58, -23697.79, 0.0, 5.017334, 4.9338837 
1.1290732e+2, 2.8659362e+2, -152943.7, -282109.56, -1373.5332, 0.00018668245, -0.002365836, -152929.1, -21546.504, 0.0, 5.0174437, 4.9344788 
1.1291072e+2, 2.9152584e+2, -110030.43, -248537.52, -1155.1768, 0.00020034435, 0.0019037966, -110020.8, -26973.83, 0.0, 5.0175595, 4.928754 
1.12914346e+2, 2.9645544e+2, -59453.305, -197215.88, -1084.0487, 0.00031698565, -0.0002458156, -59444.773, -24707.99, 0.0, 5.017686, 4.9293346 
1.12918094e+2, 3.0139193e+2, -18155.398, -134299.17, -778.7358, 0.00030433707, 0.0024537924, -18150.178, -18150.178, 0.0, 5.0178185, 4.9430304 
1.1292208e+2, 3.0633554e+2, -16663.092, -131539.2, -679.79364, 0.00006639857, -0.005142303, -16659.068, -16659.068, 0.0, 5.0179625, 4.9439616 
1.1292621e+2, 3.1129658e+2, 22149.318, -41141.445, -360.26758, -0.000025573116, 0.004098325, 22151.37, 22151.37, 0.0, 5.0181155, 4.976999 
1.1293059e+2, 3.162746e+2, 24322.04, -36912.83, -257.2458, 0.00014007454, -0.0007239188, 24323.12, 24323.12, 0.0, 5.0182858, 4.9784875 
1.1783165e+2, 1.2277596e+2, -1706138.5, -1740275.1, -151.65718, 0.00039810472, 0.0012126969, -1706137.8, 30658.063, 0.0, 5.0147247, 4.992477 
1.1783594e+2, 1.277679e+2, -1658280.5, -1694244.6, -209.69496, 0.00027525317, -0.0030329635, -1658279.4, 29595.508, 0.0, 5.0148783, 4.9914403 
1.17840014e+2, 1.3275848e+2, -1612737.1, -1652881.4, -572.4208, 0.00024044595, 0.003783653, -1612729.0, 26238.313, 0.0, 5.015019, 4.988782 
1.1784388e+2, 1.37747e+2, -1564401.5, -1605814.9, -623.89813, 0.00024135537, -0.0009110355, -1564392.1, 25687.549, 0.0, 5.015149, 4.9880867 
1.1784755e+2, 1.4273387e+2, -1519134.5, -1565040.6, -939.8533, 0.00021497293, 0.0006882352, -1519115.3, 22093.17, 0.0, 5.0152717, 4.985273 
1.1785105e+2, 1.4771928e+2, -1470639.0, -1517626.9, -982.8852, 0.00018280293, -0.000598012, -1470618.4, 21732.986, 0.0, 5.015388, 4.9846935 
1.1785437e+2, 1.5270284e+2, -1425433.4, -1477008.1, -1274.5502, 0.00012503918, 0.0016381704, -1425401.9, 18110.674, 0.0, 5.015495, 4.981843 
1.1785752e+2, 1.5768471e+2, -1376921.3, -1429523.0, -1311.0768, 0.000044875385, -0.0009165593, -1376888.6, 17801.586, 0.0, 5.0155935, 4.9812846 
1.1786053e+2, 1.6266486e+2, -1331758.9, -1389009.6, -1558.7081, 0.000027958797, 0.0016710871, -1331716.5, 14168.224, 0.0, 5.0156837, 4.9783826 
1.1786342e+2, 1.676433e+2, -1283172.9, -1341336.4, -1590.2504, 0.00006936127, -0.00078055926, -1283129.4, 13966.754, 0.0, 5.015766, 4.977881 
1.1786619e+2, 1.7262001e+2, -1238050.3, -1300956.5, -1797.7625, 0.00008375039, 0.0015223578, -1237998.9, 10325.373, 0.0, 5.0158463, 4.9749126 
1.1786883e+2, 1.7759499e+2, -1189383.8, -1253137.0, -1821.4199, 0.00007884823, -0.0008584978, -1189331.8, 10237.634, 0.0, 5.015924, 4.974449 
1.17871396e+2, 1.8256827e+2, -1144289.4, -1212881.4, -1990.1587, 0.00005645072, 0.001555071, -1144231.6, 6599.627, 0.0, 5.0159965, 4.9714212 
1.1787386e+2, 1.8753976e+2, -1095575.9, -1164959.0, -2010.8888, 0.000008353372, -0.0010398859, -1095517.6, 6593.203, 0.0, 5.016064, 4.970984 
1.1787628e+2, 1.9250953e+2, -1050585.0, -1124990.0, -2130.1077, 0.00003149835, 0.0015669027, -1050524.1, 2882.8013, 0.0, 5.0161285, 4.9678345 
1.1787863e+2, 1.9747743e+2, -1001810.3, -1076945.9, -2153.8125, 0.0001176459, -0.0009978391, -1001748.6, 2972.808, 0.0, 5.016188, 4.9674287 
1.1788095e+2, 2.0244367e+2, -956769.8, -1036959.9, -2229.5789, 0.00015010356, 0.0016110386, -956707.8, -655.57495, 0.0, 5.0162477, 4.964265 
1.17883235e+2, 2.0740801e+2, -907934.25, -988827.4, -2241.312, 0.0001229657, -0.0011077265, -907872.2, -470.32858, 0.0, 5.016307, 4.9638762 
1.1788549e+2, 2.1237068e+2, -862867.7, -948874.44, -2289.0413, 0.000083433566, 0.001588757, -862806.8, -4039.2795, 0.0, 5.0163617, 4.9606743 
1.1788772e+2, 2.1733144e+2, -813980.25, -900642.56, -2297.6973, 0.000028383687, -0.0011866566, -813919.4, -3767.1199, 0.0, 5.0164137, 4.9603086 
1.17889956e+2, 2.2229055e+2, -768909.2, -860781.94, -2303.2588, 0.000008118824, 0.0017367427, -768851.5, -7298.566, 0.0, 5.0164657, 4.9570503 
1.17892206e+2, 2.272477e+2, -719958.94, -812466.75, -2306.6572, 0.0000265422, -0.0009702208, -719901.44, -6928.525, 0.0, 5.0165186, 4.956699 
1.1789448e+2, 2.3220319e+2, -674868.25, -772697.1, -2266.3845, 0.000030242329, 0.0019178995, -674815.75, -10406.558, 0.0, 5.0165734, 4.9533825 
1.1789678e+2, 2.3715664e+2, -625825.94, -724252.7, -2256.609, 0.000009925824, -0.001278053, -625774.2, -9908.966, 0.0, 5.016631, 4.9530597 
1.1789914e+2, 2.4210848e+2, -580745.1, -684646.9, -2174.4727, -0.00001079105, 0.0020365433, -580699.6, -13362.328, 0.0, 5.01669, 4.9496536 
1.1790156e+2, 2.4705824e+2, -531598.75, -636029.7, -2159.1682, -0.00004608505, -0.0013257818, -531554.1, -12724.525, 0.0, 5.0167494, 4.9493756 
1.1790406e+2, 2.5200632e+2, -486618.06, -596807.6, -2038.4539, -0.000062817395, 0.002031076, -486580.34, -16241.914, 0.0, 5.016814, 4.9458075 
1.1790665e+2, 2.5695235e+2, -437169.47, -547625.5, -2015.3649, -0.000029365521, -0.0014352318, -437132.7, -15265.11, 0.0, 5.0168867, 4.945708 
1.1790935e+2, 2.618966e+2, -392395.13, -509060.06, -1857.9049, 0.000028493267, 0.0019527582, -392365.56, -18951.955, 0.0, 5.016962, 4.941874 
1.1791217e+2, 2.6683885e+2, -342580.06, -459129.75, -1822.0905, 0.00010256258, -0.0012841562, -342551.6, -17572.014, 0.0, 5.0170417, 4.942022 
1.17915094e+2, 2.7177927e+2, -298080.78, -421387.5, -1640.4225, 0.00015159725, 0.0020555027, -298058.97, -21495.436, 0.0, 5.017127, 4.937857 
1.1791818e+2, 2.7671763e+2, -247883.1, -370700.38, -1590.0469, 0.00020934528, -0.0016827468, -247862.52, -19694.988, 0.0, 5.0172224, 4.938252 
1.1792137e+2, 2.816542e+2, -203444.06, -333328.47, -1369.0145, 0.00022958235, 0.002350794, -203429.64, -23640.758, 0.0, 5.0173225, 4.933918 
1.1792476e+2, 2.8658876e+2, -152935.05, -282025.9, -1300.7306, 0.00015939711, -0.0024404838, -152921.94, -21491.629, 0.0, 5.0174313, 4.934514 
1.17928274e+2, 2.9152098e+2, -110028.96, -248466.3, -1071.779, 0.0001772773, 0.0018460087, -110020.664, -26926.32, 0.0, 5.017546, 4.9287853 
1.1793203e+2, 2.9645064e+2, -59454.145, -197147.98, -997.55835, 0.00035165958, -0.00027256858, -59446.918, -24663.04, 0.0, 5.0176725, 4.9293647 
1.1793591e+2, 3.013872e+2, -18146.973, -134206.7, -681.33344, 0.0003704111, 0.0024705024, -18142.973, -18142.973, 0.0, 5.017804, 4.94307 
1.1794004e+2, 3.063308e+2, -16654.324, -131440.78, -579.4144, 0.00009225313, -0.0050609433, -16651.4, -16651.4, 0.0, 5.017947, 4.9440036 
1.1794432e+2, 3.1129187e+2, 22168.559, -41013.64, -243.85275, -0.000021646749, 0.0041638664, 22169.5, 22169.5, 0.0, 5.0180993, 4.977053 
1.17948875e+2, 3.1627e+2, 24342.48, -36776.22, -136.2287, 0.00016407252, -0.00084465847, 24342.785, 24342.785, 0.0, 5.0182686, 4.978545 
1.2284646e+2, 1.2277133e+2, -1705713.1, -1740189.6, -285.8813, 0.00035989375, 0.0012610126, -1705710.8, 31130.426, 0.0, 5.0148926, 4.9924226 
1.228509e+2, 1.2776323e+2, -1657875.0, -1694169.0, -343.49075, 0.00023736859, -0.0030512752, -1657871.8, 30048.973, 0.0, 5.01504, 4.991386 
1.22855105e+2, 1.3275374e+2, -1612350.0, -1652816.1, -725.41376, 0.00019926306, 0.0037474413, -1612337.0, 26676.715, 0.0, 5.015175, 4.9887276 
1.228591e+2, 1.3774222e+2, -1564030.8, -1605757.3, -781.763, 0.00019926667, -0.00091712945, -1564016.1, 26110.574, 0.0, 5.0153, 4.9880323 
1.2286289e+2, 1.4272901e+2, -1518783.3, -1564976.1, -1116.0068, 0.00018510492, 0.0006967548, -1518756.4, 22499.578, 0.0, 5.0154123, 4.985226 
1.22866504e+2, 1.477144e+2, -1470329.5, -1517582.9, -1163.3575, 0.00017285087, -0.0005887915, -1470300.9, 22098.389, 0.0, 5.0155144, 4.984647 
1.22869916e+2, 1.526979e+2, -1425147.9, -1476965.4, -1468.7585, 0.00012593587, 0.0016378033, -1425106.3, 18454.621, 0.0, 5.015611, 4.981801 
1.2287317e+2, 1.5767974e+2, -1376657.4, -1429491.0, -1507.7816, 0.000049293303, -0.0009326882, -1376614.4, 18124.629, 0.0, 5.015703, 4.9812427 
1.2287627e+2, 1.6265984e+2, -1331513.8, -1388979.8, -1770.5579, 0.000032505908, 0.001635457, -1331459.3, 14474.622, 0.0, 5.0157857, 4.978344 
1.2287924e+2, 1.6763823e+2, -1282952.3, -1341318.1, -1803.719, 0.00007240377, -0.0008371995, -1282896.6, 14249.096, 0.0, 5.0158596, 4.9778423 
1.22882076e+2, 1.7261492e+2, -1237857.6, -1300939.9, -2021.6874, 0.00009014123, 0.0014723942, -1237793.0, 10581.242, 0.0, 5.0159283, 4.9748793 
1.22884795e+2, 1.7758986e+2, -1189235.3, -1253141.5, -2051.3088, 0.00009341153, -0.0008741908, -1189169.5, 10450.197, 0.0, 5.0159907, 4.9744163 
1.2288742e+2, 1.8256311e+2, -1144163.0, -1212878.3, -2228.0588, 0.000076374876, 0.0015463845, -1144090.8, 6790.998, 0.0, 5.016052, 4.9713964 
1.2288994e+2, 1.8753456e+2, -1095475.4, -1164968.5, -2247.5027, 0.000025766278, -0.0010669397, -1095402.8, 6758.874, 0.0, 5.016111, 4.970959 
1.2289242e+2, 1.9250432e+2, -1050517.3, -1125025.4, -2374.6743, 0.000037945418, 0.0015234823, -1050441.6, 3016.3037, 0.0, 5.0161657, 4.967805 
1.2289484e+2, 1.9747218e+2, -1001769.0, -1076993.6, -2400.6777, 0.00010895971, -0.0010610196, -1001692.5, 3080.3071, 0.0, 5.0162168, 4.967399 
1.2289721e+2, 2.024384e+2, -956742.7, -1036977.8, -2482.3032, 0.0001400055, 0.0015547411, -956666.0, -562.1341, 0.0, 5.016264, 4.9642515 
1.2289954e+2, 2.0740272e+2, -907951.2, -988865.75, -2497.5696, 0.000124917, -0.0011248825, -907874.2, -420.64056, 0.0, 5.0163074, 4.963863 
1.2290184e+2, 2.123654e+2, -862910.4, -948910.06, -2549.942, 0.00009282809, 0.0015950814, -862834.9, -4015.5442, 0.0, 5.0163503, 4.960667 
1.2290412e+2, 2.1732613e+2, -814048.4, -900689.44, -2557.9387, 0.000042482054, -0.0011786488, -813972.9, -3768.8064, 0.0, 5.016393, 4.960302 
1.229064e+2, 2.2228524e+2, -768995.25, -860822.5, -2561.1106, 0.000011028028, 0.0017167584, -768923.9, -7319.032, 0.0, 5.016436, 4.95705 
1.2290869e+2, 2.272424e+2, -720071.7, -812518.94, -2559.9875, -0.000007582797, -0.0010510973, -720000.9, -6975.985, 0.0, 5.016479, 4.956699 
1.2291102e+2, 2.3219788e+2, -675005.8, -772745.9, -2518.2117, 0.0000070714564, 0.0018333783, -674940.94, -10479.84, 0.0, 5.0165224, 4.9533887 
1.2291338e+2, 2.3715135e+2, -626003.9, -724318.75, -2512.8198, 0.000053421405, -0.0012920769, -625939.7, -10022.679, 0.0, 5.0165653, 4.9530663 
1.229158e+2, 2.4210319e+2, -580946.44, -684711.44, -2429.0051, 0.00005647009, 0.0020540394, -580889.6, -13500.653, 0.0, 5.016613, 4.9496655 
1.2291827e+2, 2.4705297e+2, -531814.3, -636099.2, -2413.196, -0.000010368252, -0.0013308736, -531758.5, -12877.323, 0.0, 5.016667, 4.9493885 
1.2292082e+2, 2.5200105e+2, -486848.2, -596868.94, -2284.547, -0.00004124493, 0.0020028923, -486800.75, -16410.852, 0.0, 5.0167236, 4.9458265 
1.2292349e+2, 2.5694707e+2, -437431.97, -547699.4, -2255.5513, 0.000005513787, -0.0014841756, -437385.84, -15466.998, 0.0, 5.0167837, 4.9457273 
1.2292625e+2, 2.618914e+2, -392685.25, -509140.03, -2089.4744, 0.00006396199, 0.0018926918, -392647.75, -19183.092, 0.0, 5.0168476, 4.9418964 
1.2292915e+2, 2.6683366e+2, -342895.28, -459219.56, -2051.7126, 0.00012059321, -0.0013422895, -342859.1, -17828.656, 0.0, 5.0169177, 4.9420447 
1.2293214e+2, 2.7177408e+2, -298412.4, -421467.8, -1859.2073, 0.00015825413, 0.002003167, -298384.3, -21770.17, 0.0, 5.016994, 4.937887 
1.2293532e+2, 2.767125e+2, -248236.77, -370787.4, -1804.7633, 0.00021129772, -0.001721495, -248210.19, -19992.379, 0.0, 5.0170803, 4.9382834 
1.229386e+2, 2.816491e+2, -203820.19, -333416.47, -1575.6355, 0.00022930144, 0.0023308718, -203801.05, -23962.21, 0.0, 5.0171704, 4.933953 
1.229421e+2, 2.8658372e+2, -153343.6, -282125.9, -1505.2257, 0.00016283966, -0.002433296, -153326.0, -21846.088, 0.0, 5.0172663, 4.93455 
1.22945726e+2, 2.9151595e+2, -110463.805, -248575.75, -1260.8169, 0.00017867376, 0.0018530105, -110452.3, -27308.674, 0.0, 5.017371, 4.9288216 
1.229496e+2, 2.9644564e+2, -59901.445, -197261.72, -1175.5156, 0.00033981283, -0.00031756063, -59891.387, -25058.574, 0.0, 5.0174923, 4.9294014 
1.22953616e+2, 3.013822e+2, -18605.059, -134313.9, -843.3059, 0.00036015786, 0.0024050197, -18598.912, -18598.912, 0.0, 5.017617, 4.9431114 
1.22957885e+2, 3.0632588e+2, -17141.057, -131557.58, -738.20355, 0.00010478058, -0.0050760787, -17136.293, -17136.293, 0.0, 5.0177493, 4.9440465 
1.2296231e+2, 3.1128702e+2, 21671.787, -41105.43, -380.17383, 0.000012570674, 0.004167239, 21674.09, 21674.09, 0.0, 5.01789, 4.9771085 
1.22967035e+2, 3.1626517e+2, 23825.736, -36867.293, -265.53207, 0.00020845057, -0.00088964106, 23826.896, 23826.896, 0.0, 5.01805, 4.978605 
1.2786135e+2, 1.22766554e+2, -1705777.4, -1740346.4, -181.35721, 0.00030515186, 0.0013152739, -1705776.4, 31111.658, 0.0, 5.0148983, 4.992368 
1.2786593e+2, 1.2775838e+2, -1657940.4, -1694326.3, -240.26785, 0.00021394738, -0.0030200488, -1657938.8, 30029.275, 0.0, 5.0150447, 4.9913316 
1.2787028e+2, 1.3274884e+2, -1612421.1, -1652983.8, -639.11414, 0.00017400442, 0.003746016, -1612411.1, 26650.496, 0.0, 5.0151796, 4.98867 
1.278744e+2, 1.3773726e+2, -1564101.9, -1605923.8, -695.6663, 0.00015224027, -0.00095107034, -1564090.3, 26084.979, 0.0, 5.015304, 4.987975 
1.278783e+2, 1.42724e+2, -1518843.5, -1565119.8, -1046.5673, 0.00013599987, 0.00067979906, -1518819.8, 22485.23, 0.0, 5.015416, 4.9851766 
1.2788202e+2, 1.4770935e+2, -1470389.1, -1517725.4, -1094.3018, 0.00013534141, -0.0005512727, -1470363.9, 22084.908, 0.0, 5.0155187, 4.9845977 
1.2788554e+2, 1.5269281e+2, -1425200.4, -1477091.3, -1408.1564, 0.00013165046, 0.0016748651, -1425162.3, 18448.646, 0.0, 5.015615, 4.9817576 
1.2788887e+2, 1.576746e+2, -1376711.9, -1429617.5, -1447.829, 0.00012568271, -0.0009381607, -1376672.4, 18117.02, 0.0, 5.0157056, 4.9811993 
1.2789206e+2, 1.6265465e+2, -1331564.6, -1389096.3, -1724.0446, 0.00009585201, 0.0015949523, -1331513.0, 14471.767, 0.0, 5.0157876, 4.978304 
1.278951e+2, 1.67633e+2, -1283003.1, -1341434.0, -1757.3348, 0.000049538707, -0.0009033735, -1282950.3, 14246.65, 0.0, 5.0158615, 4.9778023 
1.2789801e+2, 1.7260966e+2, -1237905.6, -1301048.1, -1983.9305, 0.000048829286, 0.0014066506, -1237843.4, 10582.395, 0.0, 5.0159297, 4.9748425 
1.279008e+2, 1.7758456e+2, -1189284.6, -1253249.9, -2013.3052, 0.00009571626, -0.0009091552, -1189221.4, 10450.317, 0.0, 5.0159917, 4.9743795 
1.2790348e+2, 1.8255779e+2, -1144197.1, -1212951.3, -2193.5627, 0.000114552866, 0.0015361634, -1144127.1, 6806.875, 0.0, 5.0160522, 4.9713717 
1.2790607e+2, 1.875292e+2, -1095512.1, -1165043.9, -2213.6533, 0.000092957074, -0.0010643427, -1095441.8, 6772.287, 0.0, 5.01611, 4.970934 
1.2790859e+2, 1.9249894e+2, -1050564.0, -1125119.5, -2347.3892, 0.00007969938, 0.0014952671, -1050490.3, 3020.473, 0.0, 5.016165, 4.967774 
1.2791105e+2, 1.9746676e+2, -1001815.6, -1077086.0, -2373.0789, 0.000070432194, -0.0011749321, -1001740.9, 3085.046, 0.0, 5.016215, 4.9673686 
1.2791346e+2, 2.0243296e+2, -956770.3, -1037026.75, -2459.9404, 0.000082838946, 0.0014500393, -956695.0, -537.7533, 0.0, 5.0162616, 4.964236 
1.2791584e+2, 2.0739727e+2, -907980.94, -988915.56, -2475.5486, 0.00011297286, -0.0011154094, -907905.3, -398.3446, 0.0, 5.0163045, 4.963847 
1.2791818e+2, 2.1235994e+2, -862930.56, -948935.2, -2528.5964, 0.00010836529, 0.0016528303, -862856.25, -3983.443, 0.0, 5.0163465, 4.9606605 
1.2792052e+2, 2.1732067e+2, -814070.4, -900714.75, -2536.6755, 0.000067493806, -0.0011459343, -813996.1, -3738.4524, 0.0, 5.0163884, 4.9602957 
1.2792285e+2, 2.2227977e+2, -769008.06, -860824.25, -2539.6272, 0.00002081303, 0.0016775817, -768937.9, -7279.4023, 0.0, 5.0164304, 4.9570518 
1.2792517e+2, 2.2723691e+2, -720085.8, -812520.4, -2538.6528, -0.000047218466, -0.001216292, -720016.1, -6937.5684, 0.0, 5.016473, 4.9567013 
1.2792754e+2, 2.321924e+2, -675019.1, -772743.3, -2497.0142, -0.0000349466, 0.0016610868, -674955.4, -10440.563, 0.0, 5.0165157, 4.9533925 
1.2792994e+2, 2.3714589e+2, -626017.6, -724316.06, -2491.4648, 0.00006720554, -0.0013124977, -625954.5, -9983.916, 0.0, 5.0165586, 4.95307 
1.2793241e+2, 2.4209775e+2, -580951.75, -684687.2, -2399.837, 0.00009701726, 0.0020995368, -580896.3, -13453.865, 0.0, 5.016606, 4.9496775 
1.2793493e+2, 2.4704751e+2, -531821.56, -636074.0, -2383.348, 0.000015168124, -0.0013443923, -531767.1, -12832.543, 0.0, 5.016659, 4.949401 
1.2793756e+2, 2.5199562e+2, -486846.7, -596819.4, -2250.7412, -0.000007943816, 0.0019614717, -486800.66, -16357.5, 0.0, 5.016714, 4.945848 
1.2794028e+2, 2.5694168e+2, -437431.4, -547648.1, -2221.47, 0.00008249177, -0.0014997508, -437386.66, -15414.8545, 0.0, 5.0167737, 4.9457498 
1.279431e+2, 2.61886e+2, -392685.7, -509087.88, -2048.8323, 0.0001306011, 0.0018480559, -392649.63, -19132.229, 0.0, 5.016837, 4.9419193 
1.2794606e+2, 2.6682827e+2, -342896.56, -459167.34, -2009.4761, 0.000096452604, -0.0015036702, -342861.84, -17778.748, 0.0, 5.016907, 4.9420676 
1.2794913e+2, 2.7176875e+2, -298406.2, -421394.88, -1806.467, 0.000092044356, 0.0018130379, -298379.66, -21713.07, 0.0, 5.016982, 4.937918 
1.279524e+2, 2.7670717e+2, -248232.4, -370712.6, -1750.0769, 0.00017945288, -0.0017899702, -248207.4, -19937.621, 0.0, 5.0170674, 4.9383154 
1.2795578e+2, 2.8164387e+2, -203814.9, -333334.2, -1514.6583, 0.00022766287, 0.0023570394, -203797.19, -23906.793, 0.0, 5.0171566, 4.933988 
1.2795937e+2, 2.8657845e+2, -153339.42, -282042.72, -1442.6616, 0.00018394674, -0.0023680318, -153323.25, -21792.084, 0.0, 5.017252, 4.9345856 
1.279631e+2, 2.9151076e+2, -110457.05, -248482.11, -1182.6069, 0.00019321323, 0.0019059152, -110446.914, -27252.387, 0.0, 5.017356, 4.9288616 
1.2796709e+2, 2.9644048e+2, -59896.805, -197166.81, -1093.9067, 0.00029070713, -0.000374654, -59888.09, -25004.736, 0.0, 5.017476, 4.9294424 
1.2797122e+2, 3.013771e+2, -18601.932, -134217.44, -755.22766, 0.0002914371, 0.0022825, -18596.998, -18596.998, 0.0, 5.0176, 4.9431534 
1.2797563e+2, 3.0632085e+2, -17139.342, -131460.92, -647.59686, 0.00010351962, -0.005159522, -17135.674, -17135.674, 0.0, 5.017731, 4.944089 
1.279802e+2, 3.1128198e+2, 21686.498, -40975.184, -271.9445, 0.000062795574, 0.0041264384, 21687.678, 21687.678, 0.0, 5.0178714, 4.9771643 
1.2798509e+2, 3.162602e+2, 23843.158, -36725.746, -152.14795, 0.00025702023, -0.0008810321, 23843.541, 23843.541, 0.0, 5.01803, 4.9786654 
1.3287632e+2, 1.227616e+2, -1705298.9, -1740256.0, -300.13715, 0.00021203894, 0.0011976765, -1705296.3, 31640.346, 0.0, 5.0150886, 4.9923043 
1.3288106e+2, 1.2775338e+2, -1657498.8, -1694253.4, -372.22836, 0.00017101296, -0.0030118313, -1657495.0, 30522.102, 0.0, 5.015223, 4.991268 
1.3288553e+2, 1.3274378e+2, -1611999.1, -1652903.0, -791.1021, 0.00015379248, 0.0037654622, -1611983.8, 27127.467, 0.0, 5.0153475, 4.9886146 
1.3288978e+2, 1.3773213e+2, -1563705.9, -1605856.1, -846.0601, 0.00014270656, -0.0010024582, -1563688.9, 26536.621, 0.0, 5.0154634, 4.98792 
1.3289379e+2, 1.4271882e+2, -1518466.6, -1565057.5, -1214.7205, 0.00012463144, 0.00061182096, -1518435.0, 22920.764, 0.0, 5.0155687, 4.985123 
1.328976e+2, 1.477041e+2, -1470031.4, -1517672.5, -1267.9595, 0.00010916223, -0.0005920429, -1469997.8, 22502.352, 0.0, 5.0156646, 4.9845443 
1.3290122e+2, 1.5268752e+2, -1424867.6, -1477037.5, -1599.4961, 0.0001305295, 0.0016396685, -1424818.6, 18843.93, 0.0, 5.01575, 4.9817104 
1.3290465e+2, 1.5766925e+2, -1376424.8, -1429586.0, -1644.5046, 0.00018344301, -0.0009832855, -1376374.0, 18467.676, 0.0, 5.0158257, 4.981152 
1.3290791e+2, 1.6264927e+2, -1331301.8, -1389062.6, -1933.9835, 0.00016459642, 0.0015554664, -1331237.0, 14800.367, 0.0, 5.015897, 4.978263 
1.3291101e+2, 1.6762757e+2, -1282762.4, -1341411.1, -1969.1514, 0.00008688429, -0.00092196703, -1282696.4, 14553.635, 0.0, 5.015963, 4.9777617 
1.3291398e+2, 1.7260419e+2, -1237690.1, -1301028.3, -2208.1555, 0.00007166891, 0.0013738908, -1237613.3, 10866.047, 0.0, 5.016021, 4.974806 
1.3291682e+2, 1.7757906e+2, -1189107.0, -1253248.3, -2237.2134, 0.00012137549, -0.0009844997, -1189029.1, 10696.413, 0.0, 5.01607, 4.974343 
1.3291956e+2, 1.8255225e+2, -1144051.0, -1212954.0, -2426.3777, 0.00014161899, 0.0014604549, -1143965.6, 7022.619, 0.0, 5.0161176, 4.9713397 
1.3292222e+2, 1.8752363e+2, -1095406.9, -1165066.3, -2455.8474, 0.00012419136, -0.0011018239, -1095320.5, 6948.068, 0.0, 5.0161614, 4.970902 
1.3292478e+2, 1.9249333e+2, -1050487.4, -1125146.1, -2596.0115, 0.00010575688, 0.0014768473, -1050397.3, 3168.1711, 0.0, 5.0162044, 4.9677463 
1.3292728e+2, 1.9746114e+2, -1001765.1, -1077124.1, -2617.6519, 0.00007919481, -0.0011961913, -1001674.3, 3206.671, 0.0, 5.0162454, 4.9673414 
1.3292973e+2, 2.0242733e+2, -956739.3, -1037049.3, -2711.484, 0.000076219796, 0.0014187766, -956647.9, -435.40735, 0.0, 5.01628, 4.9642196 
1.3293214e+2, 2.0739162e+2, -907990.75, -988957.1, -2728.5354, 0.00009194977, -0.0011632014, -907898.9, -336.48102, 0.0, 5.016309, 4.963831 
1.3293453e+2, 2.1235426e+2, -862966.9, -948967.8, -2783.4316, 0.00008524348, 0.0015974145, -862876.9, -3948.4749, 0.0, 5.0163374, 4.960654 
1.329369e+2, 2.1731499e+2, -814146.2, -900765.1, -2792.0398, 0.00005232602, -0.0011995462, -814056.3, -3742.9724, 0.0, 5.016365, 4.960289 
1.3293925e+2, 2.222741e+2, -769111.1, -860870.6, -2795.1982, 0.000018829405, 0.0016368977, -769026.0, -7311.8994, 0.0, 5.016394, 4.9570527 
1.3294162e+2, 2.2723123e+2, -720221.56, -812580.94, -2796.1528, -0.00002749172, -0.0012311279, -720137.0, -7002.834, 0.0, 5.016425, 4.956702 
1.3294402e+2, 2.3218672e+2, -675175.6, -772802.56, -2753.0483, -0.00002202535, 0.001635107, -675098.06, -10527.669, 0.0, 5.016458, 4.953398 
1.3294648e+2, 2.3714021e+2, -626192.94, -724382.75, -2745.222, 0.000038095863, -0.0013926981, -626116.25, -10090.059, 0.0, 5.016494, 4.9530764 
1.3294898e+2, 2.4209207e+2, -581147.1, -684746.0, -2648.1106, 0.00006953949, 0.0019901914, -581079.5, -13581.563, 0.0, 5.0165305, 4.949691 
1.3295156e+2, 2.4704187e+2, -532058.3, -636149.56, -2629.535, 0.00004519055, -0.0014523651, -531991.94, -13002.002, 0.0, 5.016568, 4.949415 
1.3295421e+2, 2.5199e+2, -487114.5, -596896.56, -2491.8838, 0.000051528372, 0.0018748912, -487057.97, -16559.648, 0.0, 5.0166097, 4.9458675 
1.32957e+2, 2.5693607e+2, -437729.25, -547736.94, -2464.6318, 0.000129369, -0.0015347464, -437674.06, -15647.325, 0.0, 5.016658, 4.9457703 
1.3295987e+2, 2.618804e+2, -393000.84, -509167.22, -2283.3445, 0.00014774837, 0.0018187985, -392955.97, -19383.85, 0.0, 5.0167117, 4.9419475 
1.329629e+2, 2.668227e+2, -343229.44, -459251.66, -2236.0022, 0.000065481356, -0.0016002494, -343186.38, -18048.807, 0.0, 5.016774, 4.9420967 
1.3296603e+2, 2.7176318e+2, -298762.34, -421482.8, -2022.3888, 0.000049024413, 0.0016929992, -298729.0, -22008.234, 0.0, 5.0168395, 4.9379497 
1.3296938e+2, 2.7670166e+2, -248626.66, -370815.94, -1964.5259, 0.00017460158, -0.0018539485, -248595.08, -20271.422, 0.0, 5.01691, 4.9383473 
1.3297284e+2, 2.8163835e+2, -204234.2, -333432.78, -1719.4971, 0.0002307789, 0.0023213588, -204211.33, -24267.408, 0.0, 5.016987, 4.9340267 
1.3297652e+2, 2.8657302e+2, -153779.27, -282146.28, -1640.4794, 0.00014106222, -0.0024322513, -153758.31, -22173.975, 0.0, 5.0170736, 4.934626 
1.3298035e+2, 2.915054e+2, -110923.92, -248598.17, -1364.4806, 0.00012826573, 0.0018448114, -110910.4, -27663.082, 0.0, 5.017168, 4.928901 
1.3298444e+2, 2.9643515e+2, -60396.688, -197296.63, -1273.9473, 0.00025647852, -0.00036350766, -60384.832, -25449.146, 0.0, 5.017275, 4.929482 
1.329887e+2, 3.0137175e+2, -19120.17, -134337.77, -923.2878, 0.0002938066, 0.0023222447, -19112.773, -19112.773, 0.0, 5.017388, 4.9432006 
1.3299324e+2, 3.0631557e+2, -17675.262, -131584.2, -805.4812, 0.00013784834, -0.005191717, -17669.566, -17669.566, 0.0, 5.017512, 4.944138 
1.3299796e+2, 3.112768e+2, 21147.38, -41076.21, -401.6416, 0.00011085811, 0.004063571, 21149.973, 21149.973, 0.0, 5.017645, 4.977224 
1.33003e+2, 3.1625506e+2, 23289.908, -36824.67, -273.60858, 0.0002683561, -0.0008661872, 23291.154, 23291.154, 0.0, 5.017797, 4.978729 
1.378914e+2, 1.2275649e+2, -1705386.1, -1740464.5, -205.42645, 0.0000844145, 0.0009485725, -1705384.9, 31601.64, 0.0, 5.0150948, 4.992233 
1.3789627e+2, 1.2774822e+2, -1657584.9, -1694459.3, -277.4334, 0.000109983805, -0.003024095, -1657582.9, 30484.885, 0.0, 5.015229, 4.9911976 
1.3790087e+2, 1.3273856e+2, -1612062.0, -1653059.5, -710.47046, 0.00013397475, 0.00379735, -1612049.6, 27112.768, 0.0, 5.015353, 4.98856 
1.3790524e+2, 1.3772684e+2, -1563770.1, -1606013.3, -766.49927, 0.00015797852, -0.0010689199, -1563756.3, 26520.953, 0.0, 5.0154686, 4.9878654 
1.3790937e+2, 1.4271349e+2, -1518535.1, -1565221.5, -1150.3966, 0.00013874889, 0.0005037711, -1518506.9, 22901.213, 0.0, 5.0155735, 4.9850664 
1.3791327e+2, 1.4769872e+2, -1470100.3, -1517836.0, -1203.913, 0.00008908949, -0.0006934949, -1470069.9, 22482.986, 0.0, 5.0156693, 4.984488 
1.3791697e+2, 1.5268207e+2, -1424928.4, -1477183.4, -1550.6981, 0.000121753896, 0.001548274, -1424882.5, 18833.549, 0.0, 5.015754, 4.98166 
1.3792048e+2, 1.5766376e+2, -1376485.4, -1429731.1, -1595.8451, 0.00022426464, -0.0010603911, -1376437.6, 18457.918, 0.0, 5.0158296, 4.9811015 
1.379238e+2, 1.6264373e+2, -1331352.3, -1389183.9, -1892.6263, 0.00023426152, 0.0015139384, -1331290.4, 14801.302, 0.0, 5.0158997, 4.978221 
1.3792697e+2, 1.6762201e+2, -1282815.9, -1341533.6, -1928.4987, 0.00016588776, -0.0009087919, -1282752.6, 14551.985, 0.0, 5.0159655, 4.97772 
1.3793e+2, 1.7259856e+2, -1237737.9, -1301136.0, -2180.7065, 0.00013919867, 0.0013630235, -1237663.0, 10871.276, 0.0, 5.016022, 4.974769 
1.379329e+2, 1.775734e+2, -1189155.0, -1253355.8, -2209.2576, 0.00016183325, -0.0010912856, -1189079.1, 10701.84, 0.0, 5.0160713, 4.974306 
1.3793568e+2, 1.8254654e+2, -1144101.3, -1213064.4, -2403.0085, 0.00015763924, 0.0013345468, -1144017.6, 7026.468, 0.0, 5.016118, 4.971302 
1.3793837e+2, 1.875179e+2, -1095458.4, -1165176.0, -2433.1648, 0.0001260157, -0.0011706394, -1095373.5, 6951.178, 0.0, 5.0161614, 4.970865 
1.3794097e+2, 1.9248758e+2, -1050525.0, -1125221.9, -2575.7056, 0.000117133044, 0.0014623505, -1050436.3, 3185.6333, 0.0, 5.0162034, 4.967721 
1.3794352e+2, 1.9745535e+2, -1001805.8, -1077201.3, -2597.5466, 0.00011905199, -0.0011531335, -1001716.44, 3221.15, 0.0, 5.016243, 4.967316 
1.3794601e+2, 2.0242152e+2, -956771.5, -1037104.25, -2700.4148, 0.00010322546, 0.0014392062, -956680.9, -411.5228, 0.0, 5.0162773, 4.9642024 
1.3794845e+2, 2.0738578e+2, -908024.0, -989012.3, -2717.1865, 0.000060959526, -0.0012538083, -907932.94, -313.39227, 0.0, 5.016305, 4.963814 
1.3795087e+2, 2.1234842e+2, -862988.6, -948995.25, -2772.848, 0.00003110114, 0.0014585978, -862899.3, -3913.587, 0.0, 5.016333, 4.960646 
1.3795325e+2, 2.1730913e+2, -814169.44, -900792.56, -2781.8145, 0.0000048444113, -0.0013168277, -814080.2, -3709.5273, 0.0, 5.0163603, 4.960282 
1.3795564e+2, 2.2226824e+2, -769128.06, -860880.56, -2783.0051, 0.0000036904798, 0.0015931936, -769043.75, -7272.263, 0.0, 5.0163884, 4.9570518 
1.3795805e+2, 2.272254e+2, -720240.56, -812590.94, -2784.0686, 0.00003041858, -0.0011409732, -720156.75, -6965.335, 0.0, 5.0164185, 4.9567018 
1.3796048e+2, 2.3218088e+2, -675187.94, -772793.5, -2737.34, 0.000026623304, 0.0017128647, -675111.25, -10483.661, 0.0, 5.016451, 4.953405 
1.3796295e+2, 2.3713435e+2, -626206.94, -724373.06, -2729.2634, -0.000024751716, -0.0015156703, -626131.1, -10047.625, 0.0, 5.0164857, 4.9530835 
1.379655e+2, 2.4208622e+2, -581154.1, -684716.8, -2630.9077, -0.000009968513, 0.0017694373, -581087.3, -13532.106, 0.0, 5.0165215, 4.949705 
1.3796812e+2, 2.4703602e+2, -532066.06, -636118.94, -2612.409, 0.0000740341, -0.0016284354, -532000.5, -12953.505, 0.0, 5.0165586, 4.9494305 
1.3797082e+2, 2.5198418e+2, -487120.25, -596858.5, -2467.7466, 0.00012542642, 0.0017558878, -487064.78, -16509.623, 0.0, 5.0165997, 4.945885 
1.3797365e+2, 2.5693026e+2, -437735.94, -547698.2, -2439.2805, 0.00015090124, -0.0015850351, -437681.84, -15598.432, 0.0, 5.0166473, 4.9457884 
1.3797657e+2, 2.6187465e+2, -392994.94, -509094.88, -2248.599, 0.00012560468, 0.0017988019, -392951.4, -19322.857, 0.0, 5.0167, 4.941978 
1.3797966e+2, 2.6681697e+2, -343226.34, -459176.84, -2200.2583, 0.000026155987, -0.0016509462, -343184.6, -17990.99, 0.0, 5.016761, 4.9421287 
1.3798286e+2, 2.7175748e+2, -298763.7, -421411.22, -1981.8229, 0.000019238641, 0.00162283, -298731.66, -21955.162, 0.0, 5.0168247, 4.9379816 
1.3798629e+2, 2.7669603e+2, -248630.06, -370745.5, -1922.085, 0.00018457204, -0.0019148899, -248599.81, -20220.684, 0.0, 5.016895, 4.9383793 
1.3798982e+2, 2.8163275e+2, -204228.19, -333336.94, -1666.2067, 0.00023246244, 0.0022422178, -204206.69, -24207.582, 0.0, 5.016971, 4.9340677 
1.3799357e+2, 2.8656745e+2, -153772.84, -282045.7, -1584.8567, 0.000049783786, -0.0025868006, -153753.27, -22114.129, 0.0, 5.017057, 4.934669 
1.379975e+2, 2.9149985e+2, -110924.68, -248509.17, -1296.068, 0.0000042460492, 0.0017039529, -110912.47, -27610.771, 0.0, 5.01715, 4.928941 
1.3800173e+2, 2.9642966e+2, -60402.29, -197211.6, -1202.4078, 0.00022845312, -0.00030611324, -60391.723, -25402.154, 0.0, 5.017256, 4.9295206 
1.3800609e+2, 3.0136633e+2, -19115.588, -134222.94, -841.56226, 0.00034062457, 0.0024734146, -19109.436, -19109.436, 0.0, 5.017368, 4.9432507 
1.3801076e+2, 3.0631018e+2, -17668.467, -131460.92, -720.9586, 0.00019205, -0.0051882905, -17663.9, -17663.9, 0.0, 5.017491, 4.9441915 
1.380156e+2, 3.1127143e+2, 21160.545, -40934.47, -299.94687, 0.00015202597, 0.0039864886, 21161.994, 21161.994, 0.0, 5.017623, 4.9772854 
1.3802078e+2, 3.162498e+2, 23302.656, -36676.24, -166.61758, 0.00024567175, -0.00084706553, 23303.12, 23303.12, 0.0, 5.0177736, 4.978793 
1.4290659e+2, 1.2275124e+2, -1704866.3, -1740367.5, -323.39438, -0.000030424599, 0.0009409262, -1704863.3, 32174.64, 0.0, 5.0153017, 4.9921627 
1.4291161e+2, 1.277429e+2, -1657092.3, -1694375.5, -394.33353, 0.00005353373, -0.003081465, -1657088.1, 31031.729, 0.0, 5.015427, 4.991128 
1.4291632e+2, 1.3273317e+2, -1611591.4, -1652970.8, -847.8981, 0.000105191466, 0.0037353355, -1611574.0, 27641.176, 0.0, 5.0155406, 4.9884977 
1.4292079e+2, 1.377214e+2, -1563336.1, -1605942.4, -914.52234, 0.00014726704, -0.0010829943, -1563316.5, 27013.986, 0.0, 5.015644, 4.9878035 
1.4292502e+2, 1.4270799e+2, -1518126.4, -1565151.9, -1317.6359, 0.00015845275, 0.00048691398, -1518089.5, 23372.463, 0.0, 5.0157385, 4.9850097 
1.4292902e+2, 1.4769314e+2, -1469720.3, -1517780.6, -1372.4462, 0.00014632836, -0.00075538916, -1469681.0, 22926.354, 0.0, 5.015825, 4.9844313 
1.429328e+2, 1.5267645e+2, -1424567.1, -1477126.0, -1735.6836, 0.00017225542, 0.0014697213, -1424509.8, 19261.215, 0.0, 5.015901, 4.981608 
1.4293638e+2, 1.5765809e+2, -1376148.4, -1429685.9, -1783.1069, 0.00023093025, -0.001130336, -1376089.1, 18861.918, 0.0, 5.015969, 4.98105 
1.4293979e+2, 1.6263801e+2, -1331046.6, -1389141.5, -2095.6392, 0.0002527521, 0.001451317, -1330971.1, 15176.52, 0.0, 5.0160255, 4.9781747 
1.4294301e+2, 1.6761625e+2, -1282562.8, -1341516.9, -2137.0244, 0.0002459188, -0.0009649463, -1282485.4, 14875.647, 0.0, 5.0160737, 4.9776735 
1.429461e+2, 1.7259276e+2, -1237509.1, -1301112.0, -2401.277, 0.00023745502, 0.0013199612, -1237418.5, 11172.608, 0.0, 5.016118, 4.9747314 
1.4294901e+2, 1.7756756e+2, -1188948.8, -1253342.8, -2431.2546, 0.00023874205, -0.0011148308, -1188857.1, 10981.054, 0.0, 5.01616, 4.9742684 
1.4295185e+2, 1.8254066e+2, -1143934.8, -1213080.4, -2635.9236, 0.00020133986, 0.0013032071, -1143834.4, 7267.303, 0.0, 5.0161953, 4.9712605 
1.4295456e+2, 1.8751198e+2, -1095331.3, -1165210.0, -2671.6372, 0.00012891361, -0.0012315076, -1095229.3, 7153.49, 0.0, 5.016225, 4.970824 
1.4295721e+2, 1.924816e+2, -1050418.8, -1125225.5, -2821.088, 0.00011270502, 0.0014012826, -1050312.5, 3367.7866, 0.0, 5.016251, 4.967697 
1.4295977e+2, 1.9744937e+2, -1001752.94, -1077230.8, -2841.7693, 0.00014067006, -0.0011782423, -1001646.06, 3350.1282, 0.0, 5.016273, 4.9672923 
1.429623e+2, 2.0241551e+2, -956747.1, -1037127.44, -2949.3188, 0.00013062419, 0.0014255377, -956639.06, -310.93622, 0.0, 5.016293, 4.964187 
1.4296475e+2, 2.0737976e+2, -908029.8, -989049.25, -2964.1711, 0.00007279581, -0.0012859046, -907921.5, -242.9981, 0.0, 5.01631, 4.9637985 
1.429672e+2, 2.1234238e+2, -863021.3, -949031.8, -3021.6084, 0.000022510549, 0.0014158898, -862915.3, -3870.4868, 0.0, 5.0163264, 4.9606366 
1.429696e+2, 2.1730308e+2, -814237.25, -900845.06, -3033.4434, -0.000032875683, -0.0013634652, -814131.1, -3701.2576, 0.0, 5.016341, 4.9602723 
1.4297202e+2, 2.2226219e+2, -769223.4, -860928.75, -3036.0737, -0.00003677694, 0.0015449298, -769122.94, -7292.264, 0.0, 5.016356, 4.95705 
1.4297444e+2, 2.2721933e+2, -720376.1, -812656.7, -3038.5835, 0.000018326915, -0.0011876466, -720276.2, -7025.5405, 0.0, 5.0163717, 4.9567003 
1.429769e+2, 2.3217483e+2, -675351.25, -772850.5, -2988.379, 0.000038601327, 0.0016616931, -675259.7, -10572.89, 0.0, 5.0163894, 4.953413 
1.429794e+2, 2.3712832e+2, -626407.9, -724445.4, -2978.4238, 0.0000049844593, -0.0015846598, -626317.5, -10174.871, 0.0, 5.0164104, 4.9530926 
1.4298198e+2, 2.4208018e+2, -581382.8, -684789.75, -2877.2422, 0.000018197417, 0.00169291, -581302.8, -13688.579, 0.0, 5.016434, 4.949719 
1.4298463e+2, 2.4703002e+2, -532323.6, -636203.25, -2859.4038, 0.00007671611, -0.0016965303, -532245.0, -13139.129, 0.0, 5.0164604, 4.949445 
1.4298737e+2, 2.519782e+2, -487399.34, -596939.44, -2706.9739, 0.000105638435, 0.0016733954, -487332.47, -16718.592, 0.0, 5.016491, 4.9459057 
1.4299023e+2, 2.5692427e+2, -438039.38, -547787.94, -2674.34, 0.00010915674, -0.0017202623, -437974.25, -15832.263, 0.0, 5.016529, 4.9458094 
1.4299321e+2, 2.618687e+2, -393326.0, -509180.03, -2478.896, 0.00009306036, 0.0016651656, -393272.97, -19586.09, 0.0, 5.016568, 4.942006 
1.4299634e+2, 2.6681107e+2, -343609.9, -459282.8, -2433.3704, 0.00005908343, -0.0016957836, -343558.75, -18307.135, 0.0, 5.0166097, 4.942158 
1.429996e+2, 2.717516e+2, -299181.28, -421515.63, -2205.8867, 0.0000680602, 0.0016133983, -299141.53, -22307.371, 0.0, 5.016658, 4.938018 
1.4300308e+2, 2.7669016e+2, -249070.56, -370856.5, -2136.967, 0.0001495238, -0.0019764872, -249033.08, -20596.615, 0.0, 5.0167184, 4.938417 
1.4300668e+2, 2.816269e+2, -204684.2, -333437.84, -1865.0677, 0.00015452802, 0.002151609, -204657.19, -24601.121, 0.0, 5.016785, 4.9341125 
1.4301053e+2, 2.8656167e+2, -154249.88, -282151.22, -1777.2849, 0.000015219646, -0.0026629823, -154225.17, -22529.576, 0.0, 5.0168624, 4.9347157 
1.4301452e+2, 2.914941e+2, -111436.445, -248641.3, -1475.5112, -0.000003817996, 0.0016404233, -111420.58, -28062.86, 0.0, 5.016945, 4.928982 
1.4301886e+2, 2.9642394e+2, -60952.47, -197362.17, -1377.244, 0.00021072339, -0.0003625266, -60938.563, -25893.316, 0.0, 5.0170364, 4.929561 
1.4302333e+2, 3.013607e+2, -19681.482, -134353.58, -999.3061, 0.00032262414, 0.0024281414, -19672.775, -19672.775, 0.0, 5.0171366, 4.9433026 
1.4302813e+2, 3.063046e+2, -18248.36, -131590.03, -873.1538, 0.00018688406, -0.005208878, -18241.635, -18241.635, 0.0, 5.017253, 4.944247 
1.430331e+2, 3.112659e+2, 20574.918, -41044.79, -430.11685, 0.0001726875, 0.0039914823, 20577.92, 20577.92, 0.0, 5.017377, 4.9773498 
1.4303842e+2, 3.1624433e+2, 22691.719, -36789.703, -288.6044, 0.00031373507, -0.00082549604, 22693.12, 22693.12, 0.0, 5.0175166, 4.978861 
1.4792188e+2, 1.2274588e+2, -1704948.6, -1740568.0, -235.31242, -0.00014145976, 0.0011084833, -1704947.1, 32143.35, 0.0, 5.015309, 4.9920936 
1.4792702e+2, 1.2773745e+2, -1657173.8, -1694575.5, -306.59097, -0.0000027841631, -0.0031744223, -1657171.3, 31001.95, 0.0, 5.0154343, 4.9910583 
1.4793186e+2, 1.3272765e+2, -1611671.6, -1653168.5, -776.6902, 0.00006690528, 0.0036012717, -1611657.0, 27612.242, 0.0, 5.0155478, 4.988429 
1.4793643e+2, 1.3771582e+2, -1563415.1, -1606138.3, -843.77325, 0.0001143896, -0.0010629444, -1563398.5, 26986.643, 0.0, 5.015651, 4.9877353 
1.4794075e+2, 1.4270234e+2, -1518191.8, -1565317.1, -1260.089, 0.0001789346, 0.00053275743, -1518158.1, 23359.09, 0.0, 5.0157447, 4.984952 
1.4794485e+2, 1.4768744e+2, -1469788.6, -1517947.0, -1315.4891, 0.00025611735, -0.0007916556, -1469752.8, 22910.592, 0.0, 5.0158296, 4.9843736 
1.479487e+2, 1.5267068e+2, -1424630.8, -1477279.4, -1693.2062, 0.00026245878, 0.0013975042, -1424576.4, 19251.102, 0.0, 5.0159054, 4.981555 
1.4795235e+2, 1.5765227e+2, -1376212.8, -1429839.3, -1741.0872, 0.00021072848, -0.0011980782, -1376156.4, 18851.629, 0.0, 5.0159726, 4.980997 
1.479558e+2, 1.6263214e+2, -1331106.5, -1389284.3, -2068.5103, 0.00023178455, 0.0013706009, -1331033.0, 15172.19, 0.0, 5.0160294, 4.978125 
1.479591e+2, 1.676103e+2, -1282622.9, -1341659.4, -2109.5566, 0.00032323188, -0.0010740624, -1282547.6, 14871.504, 0.0, 5.016077, 4.9776244 
1.4796221e+2, 1.725868e+2, -1237556.3, -1301224.0, -2378.9587, 0.00035434685, 0.0012502428, -1237467.5, 11182.14, 0.0, 5.016121, 4.9746923 
1.479652e+2, 1.7756155e+2, -1188999.1, -1253456.1, -2409.7175, 0.00033819024, -0.0010822895, -1188909.1, 10987.74, 0.0, 5.016161, 4.97423 
1.4796805e+2, 1.8253462e+2, -1143996.5, -1213213.9, -2623.32, 0.00026209498, 0.0013365629, -1143897.1, 7263.662, 0.0, 5.016196, 4.9712152 
1.4797078e+2, 1.8750587e+2, -1095393.8, -1165342.3, -2658.456, 0.00013019076, -0.0012890961, -1095292.9, 7149.533, 0.0, 5.016225, 4.970779 
1.4797346e+2, 1.9247548e+2, -1050453.4, -1125295.1, -2814.1792, 0.0000938992, 0.0013045971, -1050347.8, 3392.6047, 0.0, 5.01625, 4.9676743 
1.4797606e+2, 1.9744322e+2, -1001790.1, -1077302.5, -2834.9812, 0.0001457587, -0.0012545481, -1001683.9, 3372.6326, 0.0, 5.016271, 4.9672685 
1.4797859e+2, 2.0240933e+2, -956774.25, -1037173.2, -2946.1626, 0.00015429957, 0.0013845371, -956666.44, -277.8642, 0.0, 5.01629, 4.964173 
1.4798108e+2, 2.0737357e+2, -908059.56, -989095.5, -2961.9854, 0.00011125982, -0.0012796002, -907951.44, -212.43059, 0.0, 5.0163064, 4.9637847 
1.4798352e+2, 2.123362e+2, -863049.7, -949070.7, -3021.1636, 0.000042201715, 0.0014387822, -862943.7, -3838.3286, 0.0, 5.0163217, 4.9606256 
1.4798594e+2, 2.1729688e+2, -814267.56, -900884.6, -3032.77, -0.0000673917, -0.0013624679, -814161.5, -3670.893, 0.0, 5.0163355, 4.9602613 
1.4798836e+2, 2.2225596e+2, -769244.94, -860945.56, -3034.7395, -0.00009774765, 0.0014916029, -769144.6, -7253.043, 0.0, 5.01635, 4.957047 
1.479908e+2, 2.272131e+2, -720399.2, -812673.06, -3037.0984, -0.000046654422, -0.001332024, -720299.3, -6987.6826, 0.0, 5.0163646, 4.956698 
1.4799328e+2, 2.3216861e+2, -675362.44, -772836.2, -2982.8298, 0.00002044458, 0.0015181575, -675271.25, -10523.502, 0.0, 5.0163817, 4.9534216 
1.4799581e+2, 2.3712212e+2, -626421.2, -724429.94, -2973.2615, 0.0000949023, -0.001617835, -626331.06, -10127.768, 0.0, 5.0164013, 4.953102 
1.4799841e+2, 2.42074e+2, -581393.9, -684764.44, -2868.7502, 0.00011732029, 0.0017157109, -581314.4, -13639.577, 0.0, 5.016424, 4.9497323 
1.4800109e+2, 2.4702385e+2, -532336.1, -636177.4, -2850.6936, 0.00005808532, -0.0016907703, -532257.9, -13091.605, 0.0, 5.0164495, 4.9494586 
1.4800385e+2, 2.5197202e+2, -487405.22, -596893.25, -2690.294, 0.000017531993, 0.0016156441, -487339.16, -16664.93, 0.0, 5.016479, 4.945927 
1.4800677e+2, 2.5691813e+2, -438048.53, -547740.94, -2656.1125, 0.000020261294, -0.0019139587, -437984.28, -15782.078, 0.0, 5.0165157, 4.945832 
1.4800976e+2, 2.6186255e+2, -393333.6, -509123.47, -2458.64, 0.00004980226, 0.0014527873, -393281.4, -19534.549, 0.0, 5.016554, 4.9420323 
1.4801295e+2, 2.6680496e+2, -343618.25, -459225.47, -2412.3167, 0.00013692706, -0.0017380153, -343567.94, -18256.693, 0.0, 5.0165944, 4.942185 
1.4801627e+2, 2.7174553e+2, -299176.34, -421423.84, -2172.2607, 0.00016592747, 0.0016443331, -299137.75, -22244.297, 0.0, 5.016642, 4.9380574 
1.4801979e+2, 2.7668414e+2, -249066.48, -370760.2, -2101.3508, 0.00007990993, -0.0020388735, -249030.2, -20534.828, 0.0, 5.016701, 4.9384584 
1.4802346e+2, 2.8162095e+2, -204677.25, -333327.1, -1819.3846, 0.0000182036, 0.0020530578, -204651.53, -24536.992, 0.0, 5.0167665, 4.93416 
1.4802739e+2, 2.8655577e+2, -154246.52, -282038.97, -1729.7867, 0.000015024964, -0.0026859725, -154223.11, -22469.611, 0.0, 5.016842, 4.9347644 
1.4803147e+2, 2.9148823e+2, -111444.56, -248548.13, -1418.974, 0.00006302674, 0.0016297917, -111429.88, -28014.723, 0.0, 5.016923, 4.9290247 
1.4803588e+2, 2.9641813e+2, -60963.504, -197273.31, -1317.2771, 0.0001963755, -0.0004959056, -60950.773, -25848.318, 0.0, 5.017014, 4.9296026 
1.4804047e+2, 3.013549e+2, -19681.13, -134235.11, -923.2122, 0.00025667791, 0.0022495626, -19673.691, -19673.691, 0.0, 5.0171137, 4.943355 
1.4804536e+2, 3.0629885e+2, -18246.707, -131463.34, -793.06134, 0.0001374389, -0.005246321, -18241.152, -18241.152, 0.0, 5.017229, 4.9443026 
1.4805046e+2, 3.1126025e+2, 20584.24, -40895.07, -336.25647, 0.00017415234, 0.004051383, 20586.08, 20586.08, 0.0, 5.017352, 4.9774156 
1.4805594e+2, 3.1623873e+2, 22701.188, -36631.49, -190.14856, 0.00043258487, -0.00080301246, 22701.797, 22701.797, 0.0, 5.01749, 4.978931 
1.529373e+2, 1.2274035e+2, -1704402.1, -1740457.9, -344.8785, -0.00022172189, 0.0010899585, -1704398.9, 32745.754, 0.0, 5.0155244, 4.9920235 
1.5294255e+2, 1.2773183e+2, -1656643.1, -1694474.3, -418.28586, -0.000010277694, -0.0032707923, -1656638.5, 31589.598, 0.0, 5.015645, 4.9909883 
1.5294752e+2, 1.3272196e+2, -1611160.9, -1653082.0, -908.97363, 0.00006743802, 0.00347446, -1611141.3, 28183.598, 0.0, 5.0157533, 4.988357 
1.5295218e+2, 1.3771006e+2, -1562923.6, -1606061.1, -981.14044, 0.00008580363, -0.0011745095, -1562901.4, 27540.13, 0.0, 5.0158505, 4.9876637 
1.5295659e+2, 1.4269651e+2, -1517725.0, -1565231.4, -1421.5968, 0.0001632505, 0.00043686497, -1517682.5, 23891.701, 0.0, 5.0159316, 4.9848895 
1.5296076e+2, 1.4768156e+2, -1469376.3, -1517888.0, -1483.0887, 0.0002844361, -0.0008715638, -1469331.0, 23389.854, 0.0, 5.015999, 4.984311 
1.529647e+2, 1.5266475e+2, -1424250.4, -1477220.9, -1876.053, 0.00031590348, 0.0013284311, -1424184.1, 19701.496, 0.0, 5.0160604, 4.9814997 
1.5296839e+2, 1.5764627e+2, -1375863.5, -1429796.3, -1927.4005, 0.00027609835, -0.0012584713, -1375794.8, 19271.857, 0.0, 5.0161176, 4.980942 
1.5297191e+2, 1.626261e+2, -1330777.0, -1389237.5, -2271.1348, 0.00028905756, 0.0012967583, -1330688.9, 15575.468, 0.0, 5.016165, 4.978076 
1.5297523e+2, 1.6760422e+2, -1282319.9, -1341625.6, -2312.6328, 0.0003560678, -0.0011800401, -1282229.8, 15248.997, 0.0, 5.016204, 4.9775753 
1.5297839e+2, 1.7258064e+2, -1237285.4, -1301193.1, -2594.7258, 0.00038358208, 0.0011524395, -1237180.1, 11529.55, 0.0, 5.016234, 4.974649 
1.529814e+2, 1.7755537e+2, -1188781.0, -1253450.8, -2631.3909, 0.00038103346, -0.0011317508, -1188674.1, 11283.316, 0.0, 5.016257, 4.9741864 
1.5298428e+2, 1.8252839e+2, -1143822.8, -1213228.5, -2853.4893, 0.0003167614, 0.0013160479, -1143705.6, 7516.143, 0.0, 5.016276, 4.9711723 
1.5298705e+2, 1.8749961e+2, -1095259.0, -1165375.3, -2885.6614, 0.00019558905, -0.0012993416, -1095140.5, 7363.323, 0.0, 5.0162916, 4.9707365 
1.5298975e+2, 1.9246918e+2, -1050334.1, -1125295.4, -3048.6897, 0.00013895435, 0.001276632, -1050210.3, 3591.7112, 0.0, 5.0163035, 4.967649 
1.5299234e+2, 1.9743688e+2, -1001710.2, -1077321.1, -3072.0095, 0.00014337774, -0.0013282625, -1001585.56, 3532.8755, 0.0, 5.0163107, 4.967244 
1.529949e+2, 2.0240298e+2, -956729.06, -1037192.5, -3191.0566, 0.00013250801, 0.0013156564, -956602.7, -151.93343, 0.0, 5.0163145, 4.9641547 
1.5299737e+2, 2.0736721e+2, -908062.0, -989137.0, -3211.957, 0.00010099914, -0.0012911725, -907934.94, -133.63838, 0.0, 5.016314, 4.9637666 
1.5299983e+2, 2.1232982e+2, -863082.2, -949105.44, -3273.0095, 0.000045904693, 0.0014455966, -862957.9, -3790.0425, 0.0, 5.0163145, 4.960617 
1.5300226e+2, 2.1729049e+2, -814337.7, -900936.3, -3281.898, -0.000044917284, -0.0013803164, -814213.5, -3660.378, 0.0, 5.016315, 4.9602532 
1.5300469e+2, 2.2224957e+2, -769342.5, -860992.56, -3281.1628, -0.0000759687, 0.0014387697, -769225.2, -7271.0117, 0.0, 5.0163164, 4.957046 
1.5300713e+2, 2.272067e+2, -720533.1, -812735.7, -3281.3574, -0.0000560934, -0.0014317859, -720416.5, -7042.247, 0.0, 5.016318, 4.9566975 
1.5300962e+2, 2.321622e+2, -675529.94, -772901.25, -3225.6104, 0.0000038144337, 0.0014173957, -675423.2, -10612.809, 0.0, 5.01632, 4.953427 
1.5301217e+2, 2.3711573e+2, -626633.75, -724514.2, -3220.6118, 0.00009907296, -0.0016600318, -626527.94, -10262.077, 0.0, 5.0163236, 4.953108 
1.5301478e+2, 2.4206762e+2, -581636.44, -684843.4, -3113.1084, 0.00012800163, 0.0016964008, -581542.6, -13805.443, 0.0, 5.0163317, 4.9497466 
1.5301748e+2, 2.4701749e+2, -532609.9, -636268.1, -3093.5718, 0.00006225426, -0.001740736, -532517.6, -13288.991, 0.0, 5.016345, 4.949474 
1.5302026e+2, 2.5196567e+2, -487707.88, -596975.94, -2927.0845, 0.000029217956, 0.0015522907, -487629.53, -16893.164, 0.0, 5.0163603, 4.945951 
1.530232e+2, 2.569118e+2, -438402.28, -547843.8, -2888.8584, 0.00005515018, -0.0019648543, -438326.1, -16062.046, 0.0, 5.0163774, 4.945857 
1.5302624e+2, 2.6185626e+2, -393722.97, -509232.3, -2682.0398, 0.000077356555, 0.0013962713, -393660.72, -19852.262, 0.0, 5.016401, 4.942062 
1.5302947e+2, 2.667987e+2, -344028.72, -459341.63, -2630.7134, 0.00011112153, -0.0018259704, -343968.75, -18596.148, 0.0, 5.0164332, 4.942215 
1.5303282e+2, 2.717393e+2, -299604.7, -421529.0, -2379.7107, 0.00011284723, 0.0015444378, -299558.25, -22603.76, 0.0, 5.01647, 4.9380956 
1.5303639e+2, 2.7667794e+2, -249530.95, -370877.22, -2308.9868, 0.00003362352, -0.0021167493, -249487.03, -20931.018, 0.0, 5.0165153, 4.9384985 
1.5304011e+2, 2.816148e+2, -205176.19, -333443.6, -2020.7164, -0.000007610141, 0.002007352, -205144.36, -24969.63, 0.0, 5.016565, 4.9342065 
1.5304412e+2, 2.8654966e+2, -154792.7, -282171.9, -1930.198, 0.000041655927, -0.0026789063, -154763.45, -22950.248, 0.0, 5.0166216, 4.9348125 
1.5304828e+2, 2.9148218e+2, -112026.36, -248690.53, -1602.8951, 0.00011201924, 0.0016433662, -112007.56, -28533.168, 0.0, 5.0166883, 4.9290752 
1.5305276e+2, 2.964121e+2, -61558.21, -197418.39, -1485.9618, 0.00020556536, -0.0005739356, -61541.96, -26380.744, 0.0, 5.0167737, 4.929654 
1.5305744e+2, 3.0134892e+2, -20286.654, -134376.16, -1068.1278, 0.00024250128, 0.0021285312, -20276.654, -20276.654, 0.0, 5.016866, 4.94341 
1.5306245e+2, 3.0629298e+2, -18876.396, -131612.19, -934.1073, 0.00013520822, -0.005291456, -18868.656, -18868.656, 0.0, 5.016972, 4.944359 
1.5306768e+2, 3.112544e+2, 19948.781, -41014.887, -458.39276, 0.00019336726, 0.004044961, 19952.229, 19952.229, 0.0, 5.017085, 4.977485 
1.5307328e+2, 3.1623298e+2, 22042.586, -36750.156, -302.71326, 0.0004840435, -0.0008802997, 22044.145, 22044.145, 0.0, 5.017212, 4.979006 
1.579528e+2, 1.2273468e+2, -1704480.1, -1740660.6, -259.52292, -0.00028479364, 0.0009340679, -1704478.3, 32721.912, 0.0, 5.015534, 4.9919524 
1.5795821e+2, 1.277261e+2, -1656722.8, -1694678.6, -334.59967, 0.000013521865, -0.0033729936, -1656719.8, 31564.355, 0.0, 5.015654, 4.9909167 
1.5796326e+2, 1.3271615e+2, -1611247.3, -1653297.0, -843.2117, 0.0000924481, 0.0033512046, -1611230.4, 28151.234, 0.0, 5.0157614, 4.988282 
1.5796803e+2, 1.3770418e+2, -1563011.8, -1606276.5, -915.44836, 0.000057668258, -0.0013818983, -1562992.4, 27506.7, 0.0, 5.0158577, 4.987589 
1.5797251e+2, 1.4269057e+2, -1517801.3, -1565421.0, -1378.2031, 0.000119517084, 0.00023741179, -1517761.4, 23871.148, 0.0, 5.0159383, 4.984823 
1.5797676e+2, 1.4767554e+2, -1469451.6, -1518076.4, -1439.7772, 0.00025190142, -0.0009855432, -1469409.0, 23370.736, 0.0, 5.0160055, 4.9842453 
1.5798075e+2, 1.5265866e+2, -1424315.5, -1477384.8, -1840.9369, 0.0003393458, 0.0012581673, -1424251.8, 19693.326, 0.0, 5.0160666, 4.981442 
1.5798452e+2, 1.5764013e+2, -1375932.4, -1429961.6, -1892.7708, 0.0003977762, -0.0013172186, -1375866.1, 19260.494, 0.0, 5.016122, 4.980884 
1.5798809e+2, 1.626199e+2, -1330837.6, -1389381.3, -2250.3823, 0.00039839413, 0.0012244716, -1330751.3, 15573.701, 0.0, 5.0161686, 4.9780264 
1.5799144e+2, 1.6759798e+2, -1282381.6, -1341769.6, -2291.9395, 0.00035543216, -0.0012862538, -1282293.3, 15246.525, 0.0, 5.0162067, 4.977525 
1.5799463e+2, 1.7257436e+2, -1237344.4, -1301329.4, -2586.2458, 0.0003486811, 0.001032247, -1237240.0, 11531.224, 0.0, 5.0162363, 4.974602 
1.5799765e+2, 1.7754902e+2, -1188840.9, -1253587.4, -2622.638, 0.00038102633, -0.0012422971, -1188734.9, 11284.636, 0.0, 5.0162587, 4.974139 
1.5800056e+2, 1.8252201e+2, -1143876.8, -1213349.1, -2849.987, 0.0003633329, 0.0012539822, -1143760.0, 7524.2085, 0.0, 5.016277, 4.9711313 
1.5800336e+2, 1.874932e+2, -1095316.8, -1165498.6, -2882.8093, 0.00030154642, -0.0012810837, -1095198.5, 7368.017, 0.0, 5.0162916, 4.9706945 
1.5800606e+2, 1.9246274e+2, -1050374.3, -1125376.0, -3052.6396, 0.00022495455, 0.0012935515, -1050250.1, 3614.973, 0.0, 5.016302, 4.9676223 
1.5800865e+2, 1.9743042e+2, -1001751.9, -1077400.5, -3076.0354, 0.00013300318, -0.0014025396, -1001627.06, 3554.862, 0.0, 5.0163083, 4.967218 
1.580112e+2, 2.0239648e+2, -956765.94, -1037257.6, -3200.5435, 0.00007627262, 0.0012246979, -956638.9, -124.4044, 0.0, 5.0163116, 4.964134 
1.5801369e+2, 2.073607e+2, -908100.7, -989202.9, -3221.4043, 0.000053455224, -0.0013183223, -907972.94, -107.693054, 0.0, 5.0163107, 4.963746 
1.5801615e+2, 2.123233e+2, -863105.56, -949133.6, -3281.5398, 0.000034512123, 0.0014375674, -862980.6, -3748.7554, 0.0, 5.0163097, 4.9606094 
1.5801857e+2, 2.1728396e+2, -814364.25, -900964.9, -3290.9395, 0.000012692835, -0.0014142947, -814239.4, -3622.1362, 0.0, 5.016309, 4.960246 
1.5802102e+2, 2.2224303e+2, -769362.7, -861001.44, -3289.8857, -0.0000014751071, 0.001384006, -769244.7, -7226.4434, 0.0, 5.016309, 4.9570465 
1.5802345e+2, 2.2720017e+2, -720555.5, -812744.5, -3290.4956, -0.00003110964, -0.0015021659, -720438.2, -6999.833, 0.0, 5.0163093, 4.9566984 
1.5802595e+2, 2.3215565e+2, -675552.0, -772905.25, -3233.0566, -0.000015131741, 0.0013441013, -675444.75, -10570.297, 0.0, 5.016311, 4.9534297 
1.580285e+2, 2.371092e+2, -626657.44, -724518.25, -3227.481, 0.000041119325, -0.0017110528, -626551.06, -10221.167, 0.0, 5.016314, 4.9531107 
1.580311e+2, 2.420611e+2, -581648.75, -684816.75, -3112.5974, 0.00007429547, 0.0016461875, -581554.94, -13753.71, 0.0, 5.0163207, 4.9497604 
1.5803383e+2, 2.4701096e+2, -532625.2, -636240.1, -3092.5547, 0.000077690434, -0.001830058, -532533.0, -13240.471, 0.0, 5.0163326, 4.949489 
1.5803663e+2, 2.5195917e+2, -487714.16, -596920.56, -2924.1125, 0.00010432083, 0.0014832597, -487635.9, -16835.883, 0.0, 5.0163465, 4.9459767 
1.5803958e+2, 2.5690538e+2, -438410.1, -547786.5, -2885.997, 0.0001689222, -0.0019208723, -438334.0, -16006.683, 0.0, 5.0163627, 4.9458838 
1.5804265e+2, 2.6184982e+2, -393728.28, -509163.5, -2669.7356, 0.00014828666, 0.0014445086, -393666.6, -19795.146, 0.0, 5.0163846, 4.9420934 
1.5804589e+2, 2.6679227e+2, -344036.66, -459272.25, -2616.4163, 0.0000120406485, -0.0019441904, -343977.28, -18541.865, 0.0, 5.0164156, 4.942247 
1.5804927e+2, 2.7173293e+2, -299610.3, -421446.8, -2356.9033, -0.000045513894, 0.0013570582, -299564.72, -22547.662, 0.0, 5.0164514, 4.938133 
1.580529e+2, 2.766716e+2, -249540.34, -370794.3, -2284.171, -0.0000010374732, -0.002205398, -249497.33, -20879.217, 0.0, 5.0164948, 4.9385366 
1.5805669e+2, 2.8160852e+2, -205180.33, -333341.7, -1987.9705, 0.00003641444, 0.0019959447, -205149.5, -24913.113, 0.0, 5.016543, 4.9342523 
1.5806073e+2, 2.865434e+2, -154795.72, -282065.63, -1895.3289, 0.00008095719, -0.0026540936, -154767.5, -22893.057, 0.0, 5.0165997, 4.9348598 
1.5806498e+2, 2.9147598e+2, -112022.22, -248562.78, -1550.5763, 0.00014329854, 0.0016706303, -112004.62, -28469.486, 0.0, 5.016665, 4.9291306 
1.5806955e+2, 2.9640597e+2, -61557.258, -197287.03, -1430.5438, 0.00022611966, -0.0006154785, -61542.18, -26320.861, 0.0, 5.0167484, 4.929712 
1.5807429e+2, 3.0134284e+2, -20293.102, -134252.73, -1000.6881, 0.00025846742, 0.00204632, -20284.314, -20284.314, 0.0, 5.0168395, 4.9434657 
1.5807942e+2, 3.0628693e+2, -18886.572, -131490.95, -862.4476, 0.00015924577, -0.0053423536, -18879.967, -18879.967, 0.0, 5.016944, 4.9444146 
1.5808475e+2, 3.1124845e+2, 19953.672, -40853.586, -373.08112, 0.00021821764, 0.0039936705, 19955.96, 19955.96, 0.0, 5.017056, 4.977557 
1.5809049e+2, 3.1622708e+2, 22051.732, -36574.11, -212.75244, 0.0004819825, -0.0010220482, 22052.504, 22052.504, 0.0, 5.017182, 4.9790835 
1.6296846e+2, 1.2272889e+2, -1703860.9, -1740544.1, -358.1425, -0.0003335414, 0.00085619563, -1703857.4, 33399.46, 0.0, 5.01578, 4.9918694 
1.6297397e+2, 1.2772024e+2, -1656140.3, -1694580.6, -448.68665, -0.0000069210796, -0.0033617935, -1656135.0, 32206.598, 0.0, 5.015888, 4.990834 
1.6297914e+2, 1.327102e+2, -1610690.6, -1653188.5, -982.02185, 0.000093974144, 0.0033660233, -1610668.0, 28771.873, 0.0, 5.015982, 4.98821 
1.62984e+2, 1.3769814e+2, -1562500.5, -1606191.1, -1052.3157, 0.00009284757, -0.001430684, -1562475.3, 28082.875, 0.0, 5.016064, 4.9875164 
1.6298856e+2, 1.4268446e+2, -1517315.9, -1565340.8, -1534.6969, 0.00014154907, 0.00016164267, -1517266.9, 24425.324, 0.0, 5.0161347, 4.984755 
1.6299286e+2, 1.4766937e+2, -1468986.0, -1518006.1, -1600.1912, 0.00021658395, -0.001057546, -1468933.9, 23906.217, 0.0, 5.0161953, 4.984177 
1.6299692e+2, 1.5265244e+2, -1423880.1, -1477311.9, -2020.2606, 0.0003069143, 0.0011839474, -1423803.9, 20202.164, 0.0, 5.016243, 4.9813814 
1.6300073e+2, 1.5763386e+2, -1375557.1, -1429918.1, -2076.7336, 0.00042322624, -0.0013968127, -1375477.9, 19710.412, 0.0, 5.0162783, 4.9808235 
1.6300434e+2, 1.6261356e+2, -1330496.3, -1389333.1, -2447.869, 0.00045307458, 0.0011608418, -1330394.5, 15992.542, 0.0, 5.016309, 4.9779754 
1.630077e+2, 1.6759157e+2, -1282076.5, -1341739.3, -2492.0498, 0.00041326685, -0.0013133036, -1281972.6, 15629.879, 0.0, 5.016335, 4.9774747 
1.6301093e+2, 1.725679e+2, -1237065.4, -1301297.4, -2798.5117, 0.00038304005, 0.0009917577, -1236943.6, 11890.738, 0.0, 5.016353, 4.9745574 
1.6301396e+2, 1.7754254e+2, -1188595.0, -1253571.4, -2832.4644, 0.00036788496, -0.0013411804, -1188471.8, 11611.32, 0.0, 5.016364, 4.974095 
1.6301689e+2, 1.8251547e+2, -1143674.9, -1213359.3, -3070.8845, 0.00034270622, 0.0011499103, -1143539.8, 7808.497, 0.0, 5.0163684, 4.9710846 
1.6301969e+2, 1.8748662e+2, -1095166.6, -1165533.8, -3110.5354, 0.0003169698, -0.0013380093, -1095029.5, 7601.6216, 0.0, 5.0163655, 4.970648 
1.6302238e+2, 1.9245611e+2, -1050246.9, -1125376.4, -3289.2437, 0.00025829996, 0.0012749953, -1050103.1, 3826.792, 0.0, 5.016359, 4.9675956 
1.6302499e+2, 1.9742377e+2, -1001670.3, -1077421.6, -3313.2542, 0.00016746296, -0.0013962407, -1001525.6, 3721.29, 0.0, 5.0163493, 4.9671917 
1.6302752e+2, 2.0238982e+2, -956716.2, -1037275.5, -3441.4092, 0.00009113869, 0.0012137615, -956569.44, 10.263048, 0.0, 5.0163374, 4.964116 
1.6303e+2, 2.0735401e+2, -908087.94, -989238.06, -3459.6401, 0.000026622414, -0.0013875512, -907940.75, -10.002316, 0.0, 5.0163236, 4.963728 
1.6303246e+2, 2.1231657e+2, -863124.9, -949165.06, -3522.1863, 0.000008824351, 0.0013507294, -862980.94, -3683.4285, 0.0, 5.016308, 4.9606 
1.6303487e+2, 2.1727726e+2, -814436.1, -901020.1, -3535.2556, 0.000034136363, -0.0014709536, -814292.0, -3609.0608, 0.0, 5.0162883, 4.9602365 
1.6303732e+2, 2.222363e+2, -769472.1, -861055.4, -3535.0605, 0.000042859385, 0.0013567213, -769335.9, -7251.8027, 0.0, 5.0162716, 4.957045 
1.6303974e+2, 2.2719344e+2, -720707.25, -812816.7, -3537.9602, 0.000010866904, -0.0015012529, -720571.56, -7067.43, 0.0, 5.016257, 4.9566975 
1.6304222e+2, 2.3214895e+2, -675732.06, -772971.5, -3476.789, 0.000011479861, 0.001330506, -675607.94, -10667.733, 0.0, 5.0162444, 4.953437 
1.6304477e+2, 2.3710248e+2, -626870.9, -724597.94, -3465.5242, 0.000036473582, -0.0017923252, -626748.1, -10352.492, 0.0, 5.016235, 4.953119 
1.6304737e+2, 2.4205439e+2, -581897.0, -684896.8, -3344.0742, 0.000066351226, 0.0015409116, -581788.5, -13921.657, 0.0, 5.016226, 4.9497757 
1.630501e+2, 2.4700427e+2, -532926.6, -636342.3, -3323.7136, 0.00010735704, -0.0019031324, -532819.94, -13461.961, 0.0, 5.0162187, 4.949505 
1.6305292e+2, 2.519525e+2, -488054.94, -597025.8, -3152.9355, 0.00014985548, 0.0014493435, -487963.78, -17098.477, 0.0, 5.016215, 4.9459987 
1.6305587e+2, 2.568987e+2, -438788.22, -547906.3, -3118.9602, 0.00018813308, -0.0019041293, -438699.16, -16306.774, 0.0, 5.016217, 4.9459066 
1.6305895e+2, 2.6184323e+2, -394131.56, -509268.47, -2895.2605, 0.00014316083, 0.0014847156, -394058.8, -20122.592, 0.0, 5.016225, 4.942127 
1.6306221e+2, 2.667857e+2, -344477.63, -459389.56, -2836.2126, -0.0000065808877, -0.0019217089, -344407.7, -18907.84, 0.0, 5.016241, 4.9422827 
1.6306561e+2, 2.7172637e+2, -300087.8, -421567.13, -2566.321, -0.000045491917, 0.0013635459, -300033.63, -22952.533, 0.0, 5.0162606, 4.938174 
1.6306928e+2, 2.766651e+2, -250065.86, -370932.5, -2487.4666, 0.000060028, -0.0022128525, -250014.69, -21332.928, 0.0, 5.0162854, 4.938579 
1.6307311e+2, 2.8160205e+2, -205733.86, -333473.28, -2173.561, 0.00009952872, 0.0019521838, -205696.89, -25397.27, 0.0, 5.0163193, 4.934303 
1.630772e+2, 2.86537e+2, -155360.34, -282196.78, -2072.143, 0.000039021303, -0.002771427, -155326.5, -23389.29, 0.0, 5.0163703, 4.934912 
1.630815e+2, 2.9146963e+2, -112614.73, -248710.38, -1714.9833, 0.00006311178, 0.0015436705, -112593.12, -28995.713, 0.0, 5.0164266, 4.9291806 
1.6308615e+2, 2.9639965e+2, -62198.254, -197455.48, -1600.6699, 0.00025239756, -0.0006195191, -62179.313, -26896.313, 0.0, 5.0164914, 4.9297614 
1.63091e+2, 3.0133662e+2, -20962.521, -134408.81, -1156.986, 0.00034076264, 0.0020946385, -20950.723, -20950.723, 0.0, 5.0165663, 4.9435263 
1.630962e+2, 3.0628073e+2, -19581.916, -131650.66, -1005.7527, 0.00017439465, -0.005412242, -19572.89, -19572.89, 0.0, 5.0166593, 4.9444785 
1.6310164e+2, 3.112423e+2, 19257.04, -40978.51, -488.54263, 0.00020268209, 0.003855841, 19261.002, 19261.002, 0.0, 5.0167623, 4.977637 
1.6310751e+2, 3.1622103e+2, 21348.047, -36689.938, -315.65427, 0.00053130515, -0.0010915229, 21349.764, 21349.764, 0.0, 5.016883, 4.9791684 
1.6798422e+2, 1.2272298e+2, -1703964.1, -1740807.0, -281.94748, -0.00037566182, 0.0008300759, -1703962.0, 33352.688, 0.0, 5.015791, 4.991778 
1.6798985e+2, 1.2771425e+2, -1656243.3, -1694842.0, -372.41568, -0.00006175957, -0.003275968, -1656239.6, 32160.648, 0.0, 5.015899, 4.9907427 
1.6799511e+2, 1.3270415e+2, -1610766.3, -1653389.9, -925.94946, 0.00007520283, 0.0034719289, -1610746.1, 28753.205, 0.0, 5.015992, 4.9881387 
1.6800006e+2, 1.37692e+2, -1562579.9, -1606394.6, -997.3246, 0.00016816484, -0.0013729524, -1562557.3, 28060.957, 0.0, 5.0160728, 4.987445 
1.680047e+2, 1.4267825e+2, -1517397.5, -1565544.4, -1495.8031, 0.00020606571, 0.00016866103, -1517351.1, 24401.951, 0.0, 5.016142, 4.9846835 
1.6800904e+2, 1.4766307e+2, -1469069.4, -1518210.1, -1561.3815, 0.00017721407, -0.0011039785, -1469019.8, 23881.943, 0.0, 5.016202, 4.984106 
1.6801314e+2, 1.5264608e+2, -1423953.9, -1477494.3, -2000.3187, 0.00023368826, 0.0011035178, -1423879.3, 20189.092, 0.0, 5.0162487, 4.981318 
1.68017e+2, 1.576274e+2, -1375631.0, -1430100.0, -2056.7302, 0.0003788641, -0.0014941833, -1375553.5, 19697.736, 0.0, 5.016284, 4.98076 
1.6802065e+2, 1.6260707e+2, -1330557.6, -1389484.4, -2435.3171, 0.00046603056, 0.0010991542, -1330457.1, 15993.393, 0.0, 5.0163136, 4.9779224 
1.6802406e+2, 1.6758503e+2, -1282142.5, -1341892.5, -2480.1504, 0.00050703133, -0.0012910987, -1282039.8, 15626.642, 0.0, 5.016338, 4.9774218 
1.6802728e+2, 1.7256132e+2, -1237121.3, -1301424.4, -2798.2732, 0.0004615073, 0.0010020313, -1236999.8, 11899.041, 0.0, 5.016355, 4.974514 
1.6803034e+2, 1.775359e+2, -1188652.4, -1253698.8, -2832.2073, 0.00034367957, -0.0014343992, -1188529.3, 11618.714, 0.0, 5.0163655, 4.974051 
1.6803324e+2, 1.825088e+2, -1143743.4, -1213508.4, -3081.1929, 0.00027365398, 0.0010142539, -1143607.6, 7806.0967, 0.0, 5.0163693, 4.971034 
1.6803604e+2, 1.8747988e+2, -1095235.4, -1165682.1, -3120.8386, 0.00026732314, -0.001449819, -1095097.5, 7599.5635, 0.0, 5.0163655, 4.9705977 
1.6803874e+2, 1.9244936e+2, -1050286.0, -1125457.5, -3304.2866, 0.00025192153, 0.001227543, -1050141.1, 3855.1848, 0.0, 5.0163584, 4.9675684 
1.6804133e+2, 1.9741699e+2, -1001713.2, -1077503.8, -3329.0908, 0.00022789142, -0.001340229, -1001567.25, 3746.124, 0.0, 5.016347, 4.967165 
1.6804387e+2, 2.0238301e+2, -956749.44, -1037330.1, -3460.4478, 0.00015012789, 0.0012529383, -956601.1, 45.27271, 0.0, 5.016334, 4.964099 
1.6804633e+2, 2.0734717e+2, -908124.56, -989293.8, -3478.745, 0.000010262672, -0.0014878622, -907975.75, 21.879366, 0.0, 5.016319, 4.9637113 
1.6804875e+2, 2.1230972e+2, -863157.75, -949207.94, -3545.329, -0.000029422054, 0.0012085553, -863011.94, -3647.3406, 0.0, 5.0163016, 4.9605875 
1.6805117e+2, 2.1727039e+2, -814470.4, -901063.1, -3558.5005, 0.000027640503, -0.0015459827, -814324.4, -3574.283, 0.0, 5.016282, 4.9602246 
1.6805357e+2, 2.2222945e+2, -769497.25, -861073.94, -3554.664, 0.00006176837, 0.0013438148, -769359.44, -7208.2, 0.0, 5.016264, 4.957042 
1.68056e+2, 2.2718659e+2, -720735.1, -812835.3, -3557.5059, 0.00005965279, -0.0014573922, -720597.94, -7026.594, 0.0, 5.0162477, 4.956695 
1.6805847e+2, 2.3214209e+2, -675747.75, -772956.06, -3492.7266, 0.00006423622, 0.0013538417, -675622.44, -10615.065, 0.0, 5.0162344, 4.953447 
1.68061e+2, 2.3709561e+2, -626890.06, -724581.7, -3481.8545, 0.000063539126, -0.0018951483, -626766.1, -10303.328, 0.0, 5.016223, 4.9531302 
1.6806361e+2, 2.4204755e+2, -581914.9, -684871.2, -3359.2336, 0.00008529597, 0.0013971806, -581805.4, -13871.495, 0.0, 5.016213, 4.9497905 
1.6806631e+2, 2.4699745e+2, -532946.0, -636316.4, -3338.3857, 0.00014160476, -0.0019673484, -532838.3, -13413.52, 0.0, 5.0162044, 4.94952 
1.6806912e+2, 2.519457e+2, -488072.03, -596990.1, -3160.4536, 0.00017097342, 0.0014370527, -487980.4, -17048.451, 0.0, 5.0162, 4.9460177 
1.6807209e+2, 2.5689194e+2, -438807.97, -547870.44, -3124.6516, 0.00014109151, -0.0019083234, -438718.53, -16259.609, 0.0, 5.016201, 4.945926 
1.6807516e+2, 2.6183647e+2, -394136.2, -509190.16, -2891.567, 0.000083356135, 0.0015161007, -394063.56, -20061.06, 0.0, 5.016207, 4.9421625 
1.6807845e+2, 2.66779e+2, -344485.56, -459307.38, -2831.64, 0.000022870527, -0.0018093333, -344415.78, -18850.162, 0.0, 5.016221, 4.9423203 
1.6808188e+2, 2.7171972e+2, -300093.22, -421470.2, -2556.8064, 0.00005381876, 0.0014955838, -300039.38, -22892.955, 0.0, 5.016239, 4.9382176 
1.6808558e+2, 2.7665848e+2, -250072.2, -370833.13, -2477.1545, 0.00017833186, -0.0021679795, -250021.42, -21274.686, 0.0, 5.016263, 4.938624 
1.6808943e+2, 2.8159547e+2, -205733.16, -333351.3, -2146.769, 0.00016975027, 0.0018875947, -205697.06, -25332.867, 0.0, 5.016296, 4.934356 
1.6809356e+2, 2.8653046e+2, -155362.25, -282071.47, -2041.596, -0.00005959026, -0.0029802183, -155329.36, -23328.047, 0.0, 5.016345, 4.934968 
1.680979e+2, 2.9146314e+2, -112631.4, -248611.44, -1675.6703, -0.000093056355, 0.0013166453, -112610.75, -28949.756, 0.0, 5.0164, 4.9292274 
1.6810265e+2, 2.9639325e+2, -62219.805, -197363.14, -1558.1592, 0.00027738945, -0.0006024822, -62201.84, -26855.82, 0.0, 5.0164638, 4.9298067 
1.6810757e+2, 3.0133024e+2, -20965.99, -134268.27, -1096.2554, 0.0004592558, 0.0022227769, -20955.385, -20955.385, 0.0, 5.016537, 4.9435897 
1.6811287e+2, 3.062744e+2, -19583.342, -131496.22, -940.3966, 0.00017767627, -0.00549622, -19575.441, -19575.441, 0.0, 5.0166287, 4.9445477 
1.6811839e+2, 3.1123605e+2, 19266.68, -40789.203, -407.22745, 0.00015415525, 0.003661992, 19269.441, 19269.441, 0.0, 5.0167294, 4.9777203 
1.681244e+2, 3.1621486e+2, 21357.191, -36489.3, -230.11615, 0.00060317625, -0.0011154787, 21358.107, 21358.107, 0.0, 5.016848, 4.979257 
1.7300017e+2, 1.22716956e+2, -1703283.4, -1740674.5, -377.74707, -0.00031137338, 0.00082730275, -1703279.6, 34094.094, 0.0, 5.016061, 4.9916887 
1.7300588e+2, 1.277081e+2, -1655596.6, -1694727.3, -466.90582, -0.000094462375, -0.0034243197, -1655591.1, 32869.31, 0.0, 5.016158, 4.9906535 
1.7301123e+2, 1.3269792e+2, -1610152.4, -1653269.9, -1049.23, 0.000008784659, 0.0033104608, -1610126.9, 29433.398, 0.0, 5.016236, 4.9880595 
1.7301625e+2, 1.3768572e+2, -1562024.1, -1606303.8, -1131.4341, 0.00013580311, -0.0014279083, -1561995.3, 28684.475, 0.0, 5.0162973, 4.9873657 
1.7302094e+2, 1.4267188e+2, -1516879.3, -1565453.3, -1648.7277, 0.00020762156, 0.000138593, -1516823.4, 24991.924, 0.0, 5.0163503, 4.984613 
1.7302535e+2, 1.4765665e+2, -1468594.0, -1518140.5, -1715.1665, 0.00020929663, -0.0011797509, -1468534.6, 24430.059, 0.0, 5.0163965, 4.984035 
1.730295e+2, 1.5263955e+2, -1423504.5, -1477423.1, -2172.3928, 0.00024027276, 0.0010081503, -1423417.1, 20714.941, 0.0, 5.016432, 4.9812536 
1.7303337e+2, 1.5762085e+2, -1375211.0, -1430043.6, -2230.5452, 0.00031269446, -0.0015861823, -1375120.4, 20195.162, 0.0, 5.0164576, 4.9806957 
1.7303702e+2, 1.6260043e+2, -1330175.1, -1389430.1, -2626.497, 0.00039287805, 0.0010092503, -1330058.9, 16456.586, 0.0, 5.016471, 4.977865 
1.7304046e+2, 1.6757835e+2, -1281825.0, -1341870.3, -2677.35, 0.00048587983, -0.001380734, -1281705.9, 16026.01, 0.0, 5.016474, 4.9773645 
1.730437e+2, 1.725546e+2, -1236837.9, -1301391.0, -3006.8682, 0.0004711434, 0.00093906, -1236698.1, 12266.644, 0.0, 5.0164733, 4.974469 
1.7304675e+2, 1.7752913e+2, -1188408.8, -1253684.8, -3043.2065, 0.00036444893, -0.0014470279, -1188267.3, 11947.102, 0.0, 5.0164704, 4.974006 
1.7304967e+2, 1.8250197e+2, -1143542.4, -1213522.4, -3301.514, 0.0002767593, 0.0009915188, -1143387.0, 8093.5806, 0.0, 5.016461, 4.970986 
1.7305245e+2, 1.8747301e+2, -1095065.6, -1165710.3, -3339.0237, 0.0002282437, -0.0015385709, -1094908.1, 7856.2383, 0.0, 5.016447, 4.97055 
1.7305513e+2, 1.9244243e+2, -1050136.3, -1125455.5, -3532.9788, 0.00020089728, 0.0011204393, -1049970.9, 4093.1436, 0.0, 5.0164247, 4.9675384 
1.730577e+2, 1.9741005e+2, -1001622.3, -1077529.8, -3562.079, 0.0001983876, -0.0014097978, -1001455.5, 3925.9238, 0.0, 5.016393, 4.9671345 
1.7306022e+2, 2.0237604e+2, -956697.0, -1037347.3, -3699.3035, 0.00014664941, 0.0012136905, -956527.7, 186.96524, 0.0, 5.0163608, 4.964081 
1.7306265e+2, 2.0734018e+2, -908124.56, -989334.94, -3719.827, 0.000039949984, -0.0015058949, -907954.5, 111.53169, 0.0, 5.0163274, 4.963693 
1.7306505e+2, 2.1230271e+2, -863193.7, -949247.7, -3787.6296, 0.0000036537192, 0.0011850438, -863027.25, -3594.125, 0.0, 5.016294, 4.9605775 
1.7306744e+2, 2.1726337e+2, -814541.56, -901118.56, -3799.0886, 0.000029109759, -0.0016047243, -814375.2, -3556.3599, 0.0, 5.0162616, 4.960215 
1.7306982e+2, 2.2222243e+2, -769599.2, -861125.4, -3793.1113, 0.000054009826, 0.0012627791, -769442.25, -7222.259, 0.0, 5.016229, 4.9570403 
1.7307222e+2, 2.2717957e+2, -720885.6, -812907.9, -3795.1848, 0.00006967054, -0.0015451445, -720729.4, -7089.252, 0.0, 5.016196, 4.9566936 
1.7307468e+2, 2.3213507e+2, -675939.7, -773027.1, -3729.3552, 0.000096419644, 0.0012833101, -675796.6, -10720.523, 0.0, 5.0161633, 4.9534545 
1.7307718e+2, 2.370886e+2, -627138.6, -724676.6, -3721.7114, 0.0001249734, -0.0019219667, -626996.9, -10465.438, 0.0, 5.0161314, 4.9531384 
1.7307977e+2, 2.4204054e+2, -582199.7, -684962.75, -3594.8735, 0.00014298402, 0.0013977538, -582074.06, -14071.709, 0.0, 5.016104, 4.9498076 
1.7308246e+2, 2.4699046e+2, -533263.44, -636420.25, -3570.5518, 0.00015085097, -0.0019592908, -533140.0, -13646.862, 0.0, 5.0160832, 4.949538 
1.7308526e+2, 2.5193873e+2, -488417.13, -597088.94, -3382.969, 0.00015866809, 0.0014293558, -488311.9, -17311.822, 0.0, 5.0160656, 4.9460435 
1.730882e+2, 2.5688502e+2, -439193.78, -547984.7, -3338.4758, 0.00014129847, -0.0019711494, -439091.44, -16564.594, 0.0, 5.016051, 4.945953 
1.7309128e+2, 2.6182956e+2, -394563.44, -509308.34, -3096.5227, 0.00009938069, 0.0014468948, -394479.94, -20409.77, 0.0, 5.016039, 4.9421954 
1.7309457e+2, 2.6677212e+2, -344971.6, -459449.03, -3039.838, 0.00006236337, -0.0018026629, -344890.94, -19258.016, 0.0, 5.016031, 4.942354 
1.7309801e+2, 2.717129e+2, -300616.38, -421606.84, -2757.8677, 0.00010025844, 0.0015515928, -300553.56, -23340.205, 0.0, 5.016031, 4.9382606 
1.7310171e+2, 2.766517e+2, -250621.81, -370976.34, -2676.4321, 0.00019482654, -0.0021097427, -250562.31, -21749.11, 0.0, 5.0160437, 4.938669 
1.731056e+2, 2.8158873e+2, -206304.73, -333480.3, -2331.6316, 0.00016969485, 0.0019411187, -206262.0, -25831.828, 0.0, 5.0160637, 4.9344115 
1.7310977e+2, 2.8652376e+2, -155974.36, -282212.0, -2220.8386, -0.000046050507, -0.0029383246, -155935.3, -23868.6, 0.0, 5.0160966, 4.9350257 
1.7311417e+2, 2.9145652e+2, -113286.44, -248779.81, -1839.607, -0.00006639587, 0.00131904, -113261.47, -29535.625, 0.0, 5.016137, 4.9292808 
1.7311896e+2, 2.9638666e+2, -62898.777, -197542.73, -1710.4814, 0.0003151773, -0.0006987064, -62877.05, -27466.596, 0.0, 5.0161915, 4.929859 
1.7312394e+2, 3.013237e+2, -21655.48, -134422.36, -1225.6096, 0.0004691035, 0.0020500745, -21642.16, -21642.16, 0.0, 5.0162544, 4.943655 
1.7312932e+2, 3.0626795e+2, -20306.762, -131655.55, -1064.8291, 0.00007835274, -0.005692471, -20296.578, -20296.578, 0.0, 5.0163317, 4.9446173 
1.7313495e+2, 3.1122968e+2, 18522.584, -40931.258, -513.0713, 0.000040541305, 0.00349744, 18527.012, 18527.012, 0.0, 5.0164175, 4.9778013 
1.7314106e+2, 3.162086e+2, 20577.258, -36638.023, -335.43027, 0.00071483466, -0.0011181497, 20579.225, 20579.225, 0.0, 5.0165205, 4.979342 
1.7801623e+2, 1.2271082e+2, -1703377.0, -1740924.4, -308.51605, -0.00017781713, 0.0008383767, -1703374.5, 34059.297, 0.0, 5.016073, 4.9916005 
1.7802203e+2, 1.2770186e+2, -1655694.1, -1694979.6, -398.4509, -0.00011464051, -0.0037338422, -1655690.1, 32831.46, 0.0, 5.0161695, 4.990565 
1.7802745e+2, 1.3269158e+2, -1610247.8, -1653514.9, -1007.21655, -0.00009269126, 0.0029652498, -1610224.3, 29398.066, 0.0, 5.0162463, 4.987973 
1.7803253e+2, 1.3767931e+2, -1562119.0, -1606547.8, -1089.2751, 0.000027326168, -0.0015626441, -1562092.3, 28650.287, 0.0, 5.016308, 4.98728 
1.7803729e+2, 1.426654e+2, -1516955.8, -1565655.6, -1618.493, 0.00016285466, 0.000080014026, -1516902.0, 24976.803, 0.0, 5.01636, 4.984541 
1.7804176e+2, 1.476501e+2, -1468674.8, -1518344.9, -1685.5809, 0.0002854791, -0.0012779855, -1468617.6, 24411.29, 0.0, 5.016404, 4.983963 
1.7804593e+2, 1.5263294e+2, -1423580.1, -1477610.9, -2158.492, 0.00029724932, 0.0009001883, -1423494.0, 20702.895, 0.0, 5.016438, 4.981188 
1.7804982e+2, 1.5761416e+2, -1375289.4, -1430232.6, -2216.7834, 0.00023018493, -0.0016772946, -1375200.1, 20180.928, 0.0, 5.016463, 4.9806304 
1.7805348e+2, 1.6259368e+2, -1330248.3, -1389605.5, -2629.899, 0.00026010702, 0.0008978975, -1330132.0, 16449.67, 0.0, 5.0164757, 4.9778047 
1.7805693e+2, 1.6757153e+2, -1281898.6, -1342045.6, -2680.3457, 0.00038451148, -0.001548133, -1281779.4, 16019.295, 0.0, 5.016478, 4.9773035 
1.7806016e+2, 1.7254771e+2, -1236893.9, -1301525.1, -3014.991, 0.00043064466, 0.00082276226, -1236753.5, 12278.591, 0.0, 5.0164766, 4.9744225 
1.7806321e+2, 1.7752221e+2, -1188468.9, -1253820.4, -3053.763, 0.00041023613, -0.0014118621, -1188326.5, 11955.48, 0.0, 5.016472, 4.97396 
1.7806613e+2, 1.8249501e+2, -1143607.1, -1213661.5, -3320.498, 0.0003242359, 0.0010396728, -1143450.1, 8098.5205, 0.0, 5.0164614, 4.9709387 
1.7806889e+2, 1.8746601e+2, -1095132.6, -1165848.8, -3357.2795, 0.00019364283, -0.0016140951, -1094973.6, 7859.304, 0.0, 5.016446, 4.9705033 
1.7807154e+2, 1.9243538e+2, -1050187.0, -1125554.9, -3563.5566, 0.000117461415, 0.0009708949, -1050018.9, 4114.2095, 0.0, 5.0164223, 4.9675055 
1.7807409e+2, 1.9740295e+2, -1001674.8, -1077630.4, -3592.1848, 0.000105976775, -0.0015663294, -1001505.3, 3945.5322, 0.0, 5.0163903, 4.9671016 
1.7807657e+2, 2.0236893e+2, -956734.4, -1037410.8, -3731.0815, 0.00009738569, 0.0011185174, -956562.2, 222.11716, 0.0, 5.0163574, 4.964061 
1.7807898e+2, 2.0733307e+2, -908164.9, -989398.5, -3752.4126, 0.00009542692, -0.0014750554, -907991.94, 143.84319, 0.0, 5.0163226, 4.9636736 
1.7808136e+2, 2.1229559e+2, -863224.44, -949283.6, -3819.232, 0.000078802295, 0.0012346455, -863055.25, -3552.286, 0.0, 5.016288, 4.9605684 
1.7808369e+2, 2.1725622e+2, -814576.06, -901155.4, -3831.0764, 0.000031410313, -0.0016561764, -814406.9, -3518.0784, 0.0, 5.016254, 4.960206 
1.7808604e+2, 2.2221527e+2, -769627.4, -861142.06, -3825.8086, 0.000025799472, 0.0011345877, -769467.75, -7177.612, 0.0, 5.01622, 4.957039 
1.7808843e+2, 2.2717239e+2, -720916.0, -812924.25, -3828.0657, 0.000050190774, -0.0017214082, -720757.0, -7046.718, 0.0, 5.0161853, 4.9566927 
1.7809084e+2, 2.3212792e+2, -675963.94, -773025.1, -3760.865, 0.00011024661, 0.0011478746, -675818.44, -10672.227, 0.0, 5.016152, 4.95346 
1.7809333e+2, 2.3708147e+2, -627164.75, -724674.0, -3752.9966, 0.00020307266, -0.0019040265, -627020.5, -10419.147, 0.0, 5.016119, 4.953145 
1.7809589e+2, 2.4203342e+2, -582214.56, -684928.2, -3618.2915, 0.00022034995, 0.0014875612, -582087.25, -14015.1, 0.0, 5.0160904, 4.949826 
1.7809854e+2, 2.4698336e+2, -533282.3, -636384.75, -3593.384, 0.0001399783, -0.0019084642, -533157.25, -13594.492, 0.0, 5.016068, 4.949558 
1.7810132e+2, 2.5193167e+2, -488428.47, -597027.0, -3401.8274, 0.000120258155, 0.0014219165, -488322.03, -17252.496, 0.0, 5.016048, 4.9460726 
1.7810425e+2, 2.5687793e+2, -439208.1, -547921.0, -3356.8113, 0.00016693033, -0.0020729192, -439104.53, -16508.531, 0.0, 5.0160317, 4.945984 
1.7810734e+2, 2.6182252e+2, -394580.78, -509245.22, -3110.434, 0.00015991887, 0.0013121394, -394496.47, -20357.428, 0.0, 5.0160184, 4.9422264 
1.781106e+2, 2.6676515e+2, -344990.38, -459386.34, -3051.7969, 0.000103085105, -0.0018658984, -344909.0, -19207.482, 0.0, 5.01601, 4.9423857 
1.7811404e+2, 2.7170593e+2, -300623.94, -421513.56, -2755.4702, 0.000106733525, 0.001555622, -300561.2, -23279.574, 0.0, 5.016009, 4.9383035 
1.7811775e+2, 2.7664477e+2, -250631.38, -370878.78, -2671.8496, 0.00014185642, -0.0020468065, -250572.03, -21691.064, 0.0, 5.0160203, 4.938714 
1.7812166e+2, 2.8158188e+2, -206306.17, -333353.5, -2314.9534, 0.000120341225, 0.0020660977, -206264.02, -25766.625, 0.0, 5.0160384, 4.9344673 
1.7812587e+2, 2.86517e+2, -155979.64, -282081.1, -2202.0315, 0.00003220951, -0.002741093, -155941.2, -23807.965, 0.0, 5.0160685, 4.9350843 
1.7813031e+2, 2.9144976e+2, -113299.49, -248655.47, -1807.6476, 0.00006943696, 0.0014645277, -113275.36, -29483.543, 0.0, 5.016107, 4.929338 
1.7813514e+2, 2.9637995e+2, -62916.027, -197420.6, -1674.3945, 0.00035655117, -0.00086605124, -62895.188, -27419.082, 0.0, 5.01616, 4.9299164 
1.781402e+2, 3.0131704e+2, -21666.12, -134277.4, -1175.5615, 0.00040648074, 0.001688799, -21653.848, -21653.848, 0.0, 5.0162215, 4.9437213 
1.7814563e+2, 3.062614e+2, -20317.846, -131503.5, -1011.19293, -0.00008941593, -0.0059582344, -20308.65, -20308.65, 0.0, 5.016297, 4.944687 
1.7815134e+2, 3.1122318e+2, 18517.59, -40759.023, -443.46902, -0.00012011432, 0.003351619, 18520.908, 18520.908, 0.0, 5.0163813, 4.97788 
1.7815761e+2, 3.162022e+2, 20573.063, -36458.367, -259.6184, 0.0008370224, -0.0011115851, 20574.244, 20574.244, 0.0, 5.016484, 4.979424 
1.8303245e+2, 1.2270458e+2, -1702639.9, -1740766.3, -393.45587, -0.000083055405, 0.0008900701, -1702635.9, 34859.113, 0.0, 5.016362, 4.9915104 
1.8303834e+2, 1.2769553e+2, -1655016.6, -1694852.5, -487.35562, -0.00007861481, -0.0036887496, -1655010.6, 33572.92, 0.0, 5.0164394, 4.9904747 
1.8304382e+2, 1.3268515e+2, -1609605.5, -1653396.4, -1120.0251, -0.000109771696, 0.0029816646, -1609576.9, 30108.35, 0.0, 5.016503, 4.9878874 
1.8304896e+2, 1.376728e+2, -1561504.6, -1606443.9, -1203.6162, -0.000028772158, -0.0016000192, -1561472.4, 29333.97, 0.0, 5.0165553, 4.9871936 
1.8305378e+2, 1.4265881e+2, -1516374.8, -1565547.6, -1755.2549, 0.00009634141, 0.000032387128, -1516312.1, 25631.303, 0.0, 5.016592, 4.984464 
1.8305826e+2, 1.4764342e+2, -1468158.0, -1518269.0, -1829.55, 0.00022945006, -0.0012969848, -1468091.3, 25003.006, 0.0, 5.0166154, 4.9838862 
1.8306245e+2, 1.5262619e+2, -1423106.3, -1477535.1, -2320.8955, 0.00026225628, 0.00089340174, -1423007.5, 21255.533, 0.0, 5.0166306, 4.98112 
1.8306638e+2, 1.5760735e+2, -1374864.9, -1430181.6, -2382.8037, 0.00022867267, -0.0016849997, -1374762.4, 20685.326, 0.0, 5.016639, 4.9805627 
1.8307003e+2, 1.6258681e+2, -1329851.1, -1389548.3, -2811.4063, 0.00023810928, 0.0008668627, -1329719.0, 16929.938, 0.0, 5.0166388, 4.9777455 
1.8307348e+2, 1.6756459e+2, -1281533.8, -1342004.6, -2860.184, 0.00029308093, -0.0016244864, -1281398.8, 16467.887, 0.0, 5.0166306, 4.977245 
1.8307671e+2, 1.7254072e+2, -1236578.5, -1301510.8, -3211.9995, 0.00032202614, 0.0007286459, -1236420.0, 12680.56, 0.0, 5.016613, 4.9743624 
1.8307975e+2, 1.7751516e+2, -1188216.8, -1253836.4, -3267.2947, 0.00033245067, -0.0014962893, -1188054.5, 12296.65, 0.0, 5.016587, 4.9739 
1.8308264e+2, 1.8248792e+2, -1143388.4, -1213652.8, -3545.9937, 0.00028467772, 0.0009921405, -1143209.9, 8408.349, 0.0, 5.0165567, 4.9708967 
1.8308537e+2, 1.8745886e+2, -1094967.5, -1165865.1, -3577.4875, 0.00019949593, -0.0016007866, -1094787.5, 8115.42, 0.0, 5.016523, 4.970462 
1.83088e+2, 1.9242819e+2, -1050052.6, -1125560.0, -3790.7063, 0.000117548094, 0.0009752656, -1049862.9, 4340.532, 0.0, 5.0164833, 4.9674754 
1.830905e+2, 1.9739574e+2, -1001578.06, -1077652.9, -3816.8833, 0.000053034302, -0.0016396039, -1001387.0, 4134.5176, 0.0, 5.016438, 4.9670715 
1.8309294e+2, 2.0236167e+2, -956673.9, -1037433.8, -3960.3052, 0.000030460962, 0.0010152479, -956480.2, 375.09787, 0.0, 5.016389, 4.9640384 
1.830953e+2, 2.0732579e+2, -908158.1, -989446.2, -3985.4656, 0.00005872428, -0.0015551058, -907963.2, 243.78763, 0.0, 5.0163355, 4.963651 
1.8309765e+2, 2.1228832e+2, -863256.3, -949323.0, -4054.9878, 0.00007172599, 0.0011744191, -863065.7, -3491.3667, 0.0, 5.016282, 4.9605575 
1.8309993e+2, 2.1724893e+2, -814663.94, -901219.7, -4068.9812, 0.00005806597, -0.0016999905, -814473.1, -3512.8855, 0.0, 5.016228, 4.9601955 
1.8310225e+2, 2.2220798e+2, -769753.75, -861202.06, -4063.3289, 0.00006456907, 0.0010897937, -769573.56, -7211.9956, 0.0, 5.016176, 4.9570384 
1.8310457e+2, 2.271651e+2, -721086.3, -813002.9, -4064.9033, 0.00006980114, -0.0017874066, -720906.9, -7125.154, 0.0, 5.0161257, 4.956693 
1.8310694e+2, 2.321206e+2, -676167.56, -773101.0, -3994.8674, 0.00011197821, 0.0010680583, -676003.2, -10785.516, 0.0, 5.0160766, 4.9534683 
1.8310939e+2, 2.3707417e+2, -627409.0, -724766.56, -3984.7512, 0.00018690755, -0.0019870435, -627246.2, -10573.457, 0.0, 5.016029, 4.9531536 
1.831119e+2, 2.4202615e+2, -582496.6, -685016.3, -3844.8535, 0.00020112784, 0.001410694, -582352.6, -14209.183, 0.0, 5.015982, 4.949844 
1.8311453e+2, 2.469761e+2, -533623.56, -636497.2, -3820.0796, 0.00014358404, -0.001966889, -533481.94, -13848.073, 0.0, 5.015938, 4.949577 
1.8311729e+2, 2.5192443e+2, -488812.94, -597134.56, -3623.4749, 0.00014980252, 0.0014005506, -488691.84, -17551.502, 0.0, 5.0158973, 4.9461026 
1.8312019e+2, 2.5687072e+2, -439641.88, -548047.1, -3577.6492, 0.00022282304, -0.0020292345, -439523.9, -16857.455, 0.0, 5.0158625, 4.946015 
1.8312325e+2, 2.6181537e+2, -395047.06, -509369.38, -3320.1528, 0.00021077502, 0.0013753708, -394950.72, -20741.57, 0.0, 5.0158343, 4.9422646 
1.831265e+2, 2.66758e+2, -345480.75, -459517.78, -3251.0366, 0.000091959046, -0.0018548848, -345388.13, -19616.82, 0.0, 5.0158157, 4.942425 
1.8312992e+2, 2.7169886e+2, -301141.3, -421645.25, -2938.7249, 0.000075482625, 0.0015314788, -301069.7, -23718.656, 0.0, 5.0158024, 4.9383473 
1.8313365e+2, 2.7663776e+2, -251192.73, -371026.56, -2852.7466, 0.00016903938, -0.002076452, -251124.86, -22174.895, 0.0, 5.0157967, 4.9387593 
1.8313755e+2, 2.815749e+2, -206908.0, -333500.38, -2486.6606, 0.00016690756, 0.002045691, -206859.17, -26293.262, 0.0, 5.015796, 4.9345207 
1.831418e+2, 2.8651005e+2, -156635.53, -282246.56, -2375.0115, 0.00001811789, -0.0027212573, -156590.64, -24389.424, 0.0, 5.015805, 4.9351397 
1.8314625e+2, 2.914429e+2, -113998.68, -248827.1, -1964.937, 0.000044388576, 0.0014933847, -113970.05, -30110.818, 0.0, 5.015825, 4.9293985 
1.8315116e+2, 2.9637313e+2, -63645.656, -197600.6, -1821.7609, 0.00043249776, -0.0008952692, -63620.887, -28077.996, 0.0, 5.0158653, 4.9299784 
1.8315627e+2, 3.0131027e+2, -22419.006, -134452.45, -1303.9504, 0.00051107205, 0.0016314073, -22403.832, -22403.832, 0.0, 5.015914, 4.9437895 
1.8316175e+2, 3.0625468e+2, -21101.973, -131687.0, -1134.7826, -0.00012208459, -0.005973385, -21090.33, -21090.33, 0.0, 5.015977, 4.9447575 
1.8316753e+2, 3.1121656e+2, 17728.932, -40909.63, -542.01465, -0.0002408075, 0.0033177682, 17733.941, 17733.941, 0.0, 5.016051, 4.977966 
1.831739e+2, 3.1619564e+2, 19776.229, -36600.996, -342.90213, 0.00077104516, -0.0013232199, 19778.313, 19778.313, 0.0, 5.0161476, 4.979515 
1.8804882e+2, 1.2269825e+2, -1702730.8, -1741024.4, -337.4735, -0.00001971684, 0.00096365454, -1702727.8, 34829.285, 0.0, 5.016378, 4.991418 
1.880548e+2, 1.2768912e+2, -1655114.3, -1695114.6, -432.95734, -0.000009311841, -0.0034121228, -1655109.6, 33536.77, 0.0, 5.016453, 4.9903817 
1.8806033e+2, 1.3267866e+2, -1609699.4, -1653643.4, -1084.2316, -0.000073684474, 0.0032364763, -1609672.6, 30076.21, 0.0, 5.0165143, 4.9878 
1.880655e+2, 1.3766618e+2, -1561601.5, -1606692.8, -1167.8063, -0.00005220571, -0.0015752977, -1561571.3, 29299.826, 0.0, 5.016566, 4.9871063 
1.8807034e+2, 1.4265211e+2, -1516464.4, -1565778.9, -1741.2378, 0.000013659526, -0.000011361768, -1516403.0, 25606.055, 0.0, 5.016602, 4.9843826 
1.8807486e+2, 1.4763664e+2, -1468248.3, -1518500.1, -1815.6166, 0.000083650586, -0.001267594, -1468182.8, 24977.826, 0.0, 5.016625, 4.9838047 
1.8807907e+2, 1.5261935e+2, -1423183.0, -1477733.8, -2318.51, 0.00016290053, 0.0009488475, -1423084.6, 21245.352, 0.0, 5.0166388, 4.98105 
1.8808301e+2, 1.5760042e+2, -1374946.0, -1430382.1, -2380.5605, 0.0002756761, -0.0016424089, -1374843.9, 20671.563, 0.0, 5.0166454, 4.9804926 
1.8808669e+2, 1.6257982e+2, -1329919.1, -1389715.0, -2822.1147, 0.00028510517, 0.00088432647, -1329786.1, 16931.168, 0.0, 5.016644, 4.9776874 
1.8809009e+2, 1.6755754e+2, -1281604.9, -1342173.0, -2871.7144, 0.00020625284, -0.001644302, -1281469.1, 16466.508, 0.0, 5.0166345, 4.977186 
1.880933e+2, 1.725336e+2, -1236667.1, -1301712.4, -3236.6765, 0.0001671272, 0.00064647873, -1236506.5, 12663.7295, 0.0, 5.016616, 4.974293 
1.8809631e+2, 1.7750797e+2, -1188306.0, -1254037.8, -3291.6182, 0.00017116763, -0.0016615638, -1188141.6, 12279.97, 0.0, 5.0165896, 4.9738307 
1.8809918e+2, 1.8248066e+2, -1143438.9, -1213766.9, -3575.675, 0.00018411395, 0.0008776699, -1143257.6, 8431.561, 0.0, 5.0165577, 4.9708576 
1.881019e+2, 1.874516e+2, -1095023.5, -1165982.0, -3608.176, 0.00022632317, -0.0015374869, -1094840.5, 8133.5933, 0.0, 5.016522, 4.9704227 
1.881045e+2, 1.924209e+2, -1050099.4, -1125649.1, -3830.2515, 0.00016705194, 0.0010741698, -1049905.8, 4369.106, 0.0, 5.016481, 4.9674463 
1.8810694e+2, 1.973884e+2, -1001627.9, -1077741.8, -3856.9792, 0.000022091075, -0.0016621613, -1001432.94, 4160.409, 0.0, 5.0164347, 4.9670434 
1.8810932e+2, 2.0235431e+2, -956721.7, -1037513.06, -4006.7263, -0.000050584138, 0.0009031437, -956523.44, 403.91074, 0.0, 5.016384, 4.9640136 
1.8811163e+2, 2.0731841e+2, -908207.6, -989526.06, -4031.5376, -0.000040926887, -0.0017101545, -908008.2, 271.17548, 0.0, 5.01633, 4.963627 
1.8811391e+2, 2.122809e+2, -863291.7, -949367.5, -4100.7954, 0.0000072136863, 0.0010394951, -863096.75, -3449.829, 0.0, 5.0162754, 4.9605455 
1.8811616e+2, 2.1724151e+2, -814702.3, -901264.2, -4115.383, 0.00009529258, -0.0017440115, -814507.06, -3474.2222, 0.0, 5.01622, 4.960184 
1.8811843e+2, 2.2220054e+2, -769781.9, -861216.25, -4107.461, 0.0001402614, 0.0010932483, -769597.7, -7163.471, 0.0, 5.0161667, 4.957038 
1.881207e+2, 2.2715767e+2, -721118.75, -813017.3, -4109.435, 0.000109186396, -0.0017867638, -720935.4, -7080.997, 0.0, 5.016114, 4.956693 
1.8812303e+2, 2.3211318e+2, -676193.4, -773092.6, -4037.3623, 0.000101805206, 0.0010206806, -676025.44, -10735.143, 0.0, 5.016063, 4.9534774 
1.8812542e+2, 2.3706676e+2, -627437.56, -724757.7, -4026.866, 0.00010718349, -0.0021370824, -627271.2, -10525.821, 0.0, 5.016014, 4.9531636 
1.8812789e+2, 2.4201874e+2, -582518.25, -684985.94, -3884.2861, 0.00011589137, 0.0012253703, -582371.2, -14155.22, 0.0, 5.0159664, 4.9498615 
1.8813048e+2, 2.4696872e+2, -533647.3, -636465.9, -3858.7285, 0.00015008566, -0.002097613, -533502.7, -13796.5205, 0.0, 5.015921, 4.9495955 
1.8813318e+2, 2.5191706e+2, -488826.28, -597073.56, -3655.3533, 0.00021584627, 0.0013653793, -488703.0, -17490.578, 0.0, 5.015879, 4.9461317 
1.8813606e+2, 2.5686345e+2, -439657.56, -547984.2, -3608.8728, 0.00029106464, -0.0019002246, -439537.47, -16799.361, 0.0, 5.015843, 4.946046 
1.8813908e+2, 2.618081e+2, -395053.56, -509276.5, -3340.8455, 0.00024913647, 0.0015577438, -394955.94, -20675.531, 0.0, 5.015813, 4.9423065 
1.8814231e+2, 2.6675075e+2, -345491.3, -459422.25, -3270.2332, 0.000043516175, -0.001800866, -345397.53, -19555.34, 0.0, 5.0157924, 4.942469 
1.8814574e+2, 2.7169165e+2, -301156.22, -421549.34, -2949.5396, 0.00001570954, 0.0014874596, -301084.0, -23662.477, 0.0, 5.015777, 4.9383926 
1.8814947e+2, 2.7663058e+2, -251210.78, -370931.1, -2861.3464, 0.00024073232, -0.0021658395, -251142.44, -22122.375, 0.0, 5.01577, 4.9388046 
1.8815337e+2, 2.8156778e+2, -206921.97, -333389.56, -2484.9402, 0.00026810364, 0.0019326629, -206873.17, -26237.568, 0.0, 5.015768, 4.934572 
1.8815759e+2, 2.86503e+2, -156649.97, -282132.78, -2369.8838, -0.00005861954, -0.0028155919, -156605.22, -24334.781, 0.0, 5.015776, 4.9351926 
1.8816206e+2, 2.9143593e+2, -114005.88, -248688.98, -1940.3368, -0.00008671326, 0.0014449876, -113977.93, -30050.063, 0.0, 5.0157948, 4.9294605 
1.8816702e+2, 2.963662e+2, -63657.492, -197458.55, -1793.9601, 0.0005221814, -0.00084261835, -63633.445, -28022.744, 0.0, 5.0158324, 4.930043 
1.8817219e+2, 3.0130345e+2, -22433.85, -134303.08, -1264.3632, 0.00071046955, 0.0017587447, -22419.56, -22419.56, 0.0, 5.015878, 4.943859 
1.8817772e+2, 3.062479e+2, -21122.17, -131536.1, -1091.0566, -0.00007767513, -0.0058376994, -21111.39, -21111.39, 0.0, 5.0159383, 4.9448285 
1.8818356e+2, 3.1120983e+2, 17723.01, -40713.93, -477.40637, -0.0003426574, 0.0033511333, 17726.91, 17726.91, 0.0, 5.01601, 4.9780555 
1.8819001e+2, 3.16189e+2, 19772.666, -36389.97, -270.1656, 0.00058131525, -0.0016635585, 19773.965, 19773.965, 0.0, 5.0161047, 4.979611 
1.9306538e+2, 1.2269182e+2, -1701916.1, -1740858.0, -414.1263, 0.000006019732, 0.0008796018, -1701911.8, 35708.28, 0.0, 5.016699, 4.9913144 
1.930714e+2, 1.276826e+2, -1654382.5, -1694990.1, -523.5262, -0.0000153447, -0.0033611984, -1654375.8, 34334.586, 0.0, 5.016747, 4.9902787 
1.9307698e+2, 1.3267204e+2, -1609008.1, -1653501.6, -1194.6051, -0.00007424519, 0.0033173603, -1608976.1, 30837.668, 0.0, 5.0167875, 4.9877133 
1.9308221e+2, 1.3765949e+2, -1560962.0, -1606578.3, -1279.0017, -0.000013505364, -0.0015615396, -1560926.3, 30010.586, 0.0, 5.0168223, 4.987019 
1.9308709e+2, 1.4264531e+2, -1515862.4, -1565675.3, -1873.9366, 0.000027996548, -0.00003833809, -1515792.0, 26283.604, 0.0, 5.0168447, 4.984299 
1.930916e+2, 1.4762977e+2, -1467681.9, -1518414.9, -1951.812, 0.000013307174, -0.0013130069, -1467607.0, 25621.08, 0.0, 5.016856, 4.9837217 
1.930958e+2, 1.526124e+2, -1422652.0, -1477643.5, -2475.1904, 0.000064861975, 0.0008926185, -1422540.8, 21857.457, 0.0, 5.016854, 4.9809766 
1.9309975e+2, 1.5759338e+2, -1374477.9, -1430323.1, -2542.3433, 0.00020326681, -0.0017016141, -1374362.4, 21222.004, 0.0, 5.0168395, 4.980419 
1.931034e+2, 1.6257273e+2, -1329495.3, -1389654.6, -3000.7173, 0.00023921415, 0.000848472, -1329346.0, 17440.95, 0.0, 5.016818, 4.9776244 
1.931068e+2, 1.6755038e+2, -1281236.4, -1342139.8, -3056.7332, 0.00018668192, -0.0016325191, -1281083.4, 16922.41, 0.0, 5.0167904, 4.9771233 
1.9310999e+2, 1.7252639e+2, -1236346.9, -1301705.5, -3433.0596, 0.00012524925, 0.00064535416, -1236167.0, 13074.026, 0.0, 5.016756, 4.974229 
1.9311295e+2, 1.7750067e+2, -1188024.1, -1254049.5, -3483.4163, 0.000062526335, -0.0017356405, -1187840.9, 12652.111, 0.0, 5.016717, 4.973767 
1.9311579e+2, 1.8247332e+2, -1143182.0, -1213746.0, -3779.3557, 0.000061416475, 0.00077322894, -1142980.1, 8781.015, 0.0, 5.0166674, 4.9708133 
1.9311845e+2, 1.874442e+2, -1094834.5, -1165993.8, -3819.2822, 0.00014356546, -0.0016294309, -1094630.1, 8416.4795, 0.0, 5.016608, 4.970378 
1.9312099e+2, 1.9241346e+2, -1049957.8, -1125655.6, -4053.4045, 0.000120873665, 0.0010214688, -1049741.3, 4606.3687, 0.0, 5.0165453, 4.967414 
1.931234e+2, 1.9738093e+2, -1001543.9, -1077774.3, -4084.3638, 0.000010620243, -0.0016532739, -1001325.6, 4340.7534, 0.0, 5.0164785, 4.9670115 
1.9312571e+2, 2.0234683e+2, -956674.44, -1037540.0, -4238.332, -0.00005828539, 0.00090821163, -956452.9, 547.8087, 0.0, 5.016411, 4.963992 
1.9312796e+2, 2.0731089e+2, -908200.4, -989571.3, -4259.943, -0.00007701394, -0.0017725866, -907977.94, 375.01627, 0.0, 5.0163426, 4.9636054 
1.9313017e+2, 2.1227336e+2, -863320.44, -949412.9, -4331.258, -0.00003873825, 0.00094561663, -863103.06, -3382.3596, 0.0, 5.016272, 4.960531 
1.9313237e+2, 2.1723396e+2, -814784.1, -901333.4, -4348.9136, 0.000059964783, -0.0018255791, -814566.1, -3459.3567, 0.0, 5.016198, 4.9601707 
1.9313456e+2, 2.2219299e+2, -769905.94, -861277.8, -4342.762, 0.00011508954, 0.0010329265, -769700.0, -7191.771, 0.0, 5.016124, 4.957036 
1.9313678e+2, 2.2715011e+2, -721305.25, -813105.7, -4346.695, 0.00009852651, -0.0018153497, -721099.94, -7171.5513, 0.0, 5.016049, 4.9566927 
1.9313903e+2, 2.3210564e+2, -676421.0, -773171.44, -4270.2524, 0.00010140896, 0.0009997654, -676232.9, -10868.626, 0.0, 5.015978, 4.953489 
1.9314137e+2, 2.3705922e+2, -627712.8, -724855.7, -4256.6, 0.000112877264, -0.002180136, -627526.6, -10707.447, 0.0, 5.015911, 4.953176 
1.9314378e+2, 2.4201122e+2, -582829.8, -685080.5, -4107.8867, 0.00011047353, 0.0011657632, -582665.0, -14375.393, 0.0, 5.0158463, 4.9498825 
1.9314632e+2, 2.469612e+2, -534001.44, -636577.3, -4078.0403, 0.00010939947, -0.0021671618, -533839.56, -14059.899, 0.0, 5.0157847, 4.9496174 
1.9314897e+2, 2.5190958e+2, -489215.3, -597183.56, -3866.8547, 0.00016278797, 0.0012882043, -489077.0, -17791.38, 0.0, 5.015727, 4.9461613 
1.9315182e+2, 2.56856e+2, -440092.16, -548112.06, -3820.1523, 0.000254885, -0.001976289, -439957.22, -17146.148, 0.0, 5.0156736, 4.9460764 
1.9315478e+2, 2.6180068e+2, -395526.47, -509396.13, -3544.7468, 0.00023194852, 0.0015032403, -395416.22, -21063.219, 0.0, 5.0156245, 4.942348 
1.9315799e+2, 2.6674342e+2, -346022.0, -459562.66, -3473.6553, 0.000045042605, -0.0018014574, -345915.8, -20001.5, 0.0, 5.0155816, 4.9425125 
1.9316138e+2, 2.7168435e+2, -301730.38, -421691.38, -3139.3142, 0.00004597399, 0.0015218065, -301648.25, -24155.102, 0.0, 5.0155473, 4.938443 
1.931651e+2, 2.766233e+2, -251820.5, -371084.28, -3041.4202, 0.00032763666, -0.0021334663, -251743.0, -22651.803, 0.0, 5.0155253, 4.938857 
1.9316901e+2, 2.8156057e+2, -207557.33, -333538.78, -2646.071, 0.0003520842, 0.001930929, -207501.78, -26795.572, 0.0, 5.015511, 4.934631 
1.9317321e+2, 2.8649586e+2, -157307.34, -282287.06, -2519.6294, -0.00010325823, -0.0029135887, -157256.56, -24916.03, 0.0, 5.01551, 4.9352527 
1.9317769e+2, 2.914288e+2, -114704.664, -248872.0, -2074.3762, -0.00019198624, 0.0013193574, -114672.6, -30675.174, 0.0, 5.015515, 4.9295163 
1.9318269e+2, 2.9635915e+2, -64414.016, -197668.19, -1935.7339, 0.00051174604, -0.00084582577, -64385.902, -28706.238, 0.0, 5.0155315, 4.9300976 
1.9318789e+2, 3.0129647e+2, -23225.918, -134491.8, -1398.0685, 0.0007492269, 0.0018309519, -23208.354, -23208.354, 0.0, 5.015556, 4.9439287 
1.9319347e+2, 3.06241e+2, -21961.553, -131733.81, -1216.6367, -0.00009448888, -0.0058109113, -21948.07, -21948.07, 0.0, 5.015596, 4.9449034 
1.9319935e+2, 3.1120303e+2, 16871.176, -40865.074, -570.15826, -0.00039180522, 0.0033338391, 16876.805, 16876.805, 0.0, 5.0156503, 4.978153 
1.9320591e+2, 3.161823e+2, 18903.367, -36530.977, -344.77036, 0.0005806975, -0.0017195275, 18905.512, 18905.512, 0.0, 5.015735, 4.979717 
1.9808207e+2, 1.22685306e+2, -1702035.0, -1741173.6, -377.5122, 0.0000019978017, 0.0006915623, -1702031.4, 35652.543, 0.0, 5.0167146, 4.991203 
1.9808814e+2, 1.2767598e+2, -1654500.8, -1695304.6, -485.59174, -0.00007418859, -0.0034613102, -1654494.9, 34280.39, 0.0, 5.0167623, 4.990167 
1.9809377e+2, 1.3266534e+2, -1609093.4, -1653745.0, -1166.89, -0.000102485676, 0.0032799353, -1609062.9, 30816.775, 0.0, 5.016802, 4.987626 
1.9809905e+2, 1.3765268e+2, -1561051.5, -1606824.4, -1253.1774, 0.00006097997, -0.0015578318, -1561017.1, 29986.236, 0.0, 5.0168357, 4.9869313 
1.9810393e+2, 1.4263843e+2, -1515952.9, -1565916.5, -1866.6885, 0.00010143004, -0.00005586578, -1515883.3, 26259.809, 0.0, 5.016856, 4.984214 
1.9810845e+2, 1.4762278e+2, -1467777.4, -1518658.6, -1944.7438, -0.000010161985, -0.0014087013, -1467703.1, 25593.283, 0.0, 5.0168657, 4.983636 
1.9811265e+2, 1.5260532e+2, -1422737.3, -1477861.6, -2487.3428, -0.000033961824, 0.00076220563, -1422625.3, 21842.246, 0.0, 5.0168624, 4.9809 
1.9811657e+2, 1.5758625e+2, -1374564.0, -1430541.5, -2554.7532, 0.000051360825, -0.0018284983, -1374447.6, 21206.738, 0.0, 5.0168476, 4.9803424 
1.981202e+2, 1.625655e+2, -1329570.0, -1389844.6, -3023.466, 0.00012991212, 0.00077483995, -1329418.6, 17438.875, 0.0, 5.016825, 4.977557 
1.9812359e+2, 1.6754313e+2, -1281315.5, -1342332.0, -3079.9595, 0.00020509415, -0.0016063508, -1281160.4, 16916.53, 0.0, 5.0167956, 4.977056 
1.9812673e+2, 1.7251906e+2, -1236423.0, -1301884.0, -3465.375, 0.0001510236, 0.0006911782, -1236240.1, 13072.742, 0.0, 5.01676, 4.9741673 
1.9812967e+2, 1.7749327e+2, -1188104.9, -1254229.9, -3517.116, -0.000014801448, -0.0017546859, -1187918.3, 12647.086, 0.0, 5.016719, 4.973705 
1.9813243e+2, 1.8246585e+2, -1143247.6, -1213889.1, -3827.2646, -0.00007728302, 0.00067271525, -1143040.9, 8793.239, 0.0, 5.0166683, 4.9707646 
1.9813503e+2, 1.8743667e+2, -1094901.9, -1166137.1, -3866.9539, -0.000012139798, -0.0018221405, -1094692.6, 8427.588, 0.0, 5.016608, 4.9703298 
1.9813752e+2, 1.9240591e+2, -1050009.6, -1125760.4, -4106.235, 0.00001001134, 0.0008682225, -1049787.6, 4634.0376, 0.0, 5.016544, 4.967379 
1.9813986e+2, 1.9737336e+2, -1001599.2, -1077879.1, -4137.759, 0.00000667581, -0.0016314599, -1001375.4, 4365.236, 0.0, 5.0164757, 4.966977 
1.9814214e+2, 2.0233923e+2, -956715.44, -1037605.9, -4293.316, -0.00002500118, 0.000981101, -956488.25, 586.88855, 0.0, 5.016406, 4.9639716 
1.981443e+2, 2.0730327e+2, -908246.3, -989638.44, -4315.393, -0.00007771118, -0.0017808096, -908018.1, 409.4487, 0.0, 5.016336, 4.9635854 
1.9814645e+2, 2.1226572e+2, -863365.06, -949469.56, -4390.696, -0.00007619968, 0.0008739412, -863141.75, -3346.1636, 0.0, 5.016264, 4.960516 
1.9814856e+2, 2.172263e+2, -814831.4, -901390.6, -4408.1094, -0.000024315012, -0.0019345236, -814607.44, -3425.627, 0.0, 5.0161886, 4.9601555 
1.9815068e+2, 2.2218531e+2, -769940.06, -861300.56, -4401.961, 0.00002206996, 0.00092855515, -769728.44, -7145.039, 0.0, 5.0161133, 4.957033 
1.9815281e+2, 2.2714245e+2, -721341.75, -813127.5, -4406.1953, 0.000051266637, -0.001867503, -721130.7, -7127.159, 0.0, 5.016037, 4.9566903 
1.9815502e+2, 2.3209798e+2, -676442.75, -773152.6, -4324.3677, 0.00010061655, 0.0009901075, -676249.75, -10810.417, 0.0, 5.0159645, 4.9535017 
1.9815728e+2, 2.3705158e+2, -627739.0, -724836.06, -4311.193, 0.00016484741, -0.002161345, -627547.94, -10653.899, 0.0, 5.0158954, 4.95319 
1.9815964e+2, 2.4200359e+2, -582849.75, -685037.06, -4159.3975, 0.00014922154, 0.0011800221, -582680.75, -14316.434, 0.0, 5.0158286, 4.949906 
1.981621e+2, 2.469536e+2, -534024.94, -636533.44, -4128.842, 0.000034625566, -0.0022024182, -533858.9, -14004.773, 0.0, 5.0157657, 4.949641 
1.9816469e+2, 2.51902e+2, -489236.34, -597126.4, -3911.359, 0.00003093708, 0.0011824665, -489094.72, -17734.8, 0.0, 5.015706, 4.946191 
1.9816746e+2, 2.5684842e+2, -440115.75, -548054.4, -3862.9036, 0.0001489773, -0.0021818026, -439977.66, -17092.49, 0.0, 5.0156517, 4.9461064 
1.9817041e+2, 2.6179317e+2, -395540.28, -509309.7, -3579.8088, 0.00017431965, 0.0012987233, -395427.75, -21000.938, 0.0, 5.015601, 4.9423885 
1.9817357e+2, 2.6673594e+2, -346037.1, -459472.5, -3507.4363, 0.00006993719, -0.0018418764, -345928.75, -19941.16, 0.0, 5.015557, 4.942555 
1.9817694e+2, 2.7167693e+2, -301735.72, -421570.63, -3159.4077, 0.00012378368, 0.0015968926, -301652.47, -24086.633, 0.0, 5.015521, 4.9384975 
1.9818063e+2, 2.7661598e+2, -251828.94, -370959.7, -3060.0193, 0.00041632444, -0.0020328478, -251750.39, -22587.115, 0.0, 5.015497, 4.938914 
1.981845e+2, 2.8155324e+2, -207564.14, -333398.06, -2652.7207, 0.00041902254, 0.0019935472, -207508.25, -26730.543, 0.0, 5.0154805, 4.9346943 
1.9818872e+2, 2.864886e+2, -157320.03, -282145.22, -2522.922, -0.0001323895, -0.0030148625, -157269.05, -24857.566, 0.0, 5.0154767, 4.9353175 
1.9819319e+2, 2.914216e+2, -114739.234, -248770.61, -2065.888, -0.00028470866, 0.0011460787, -114707.4, -30639.537, 0.0, 5.0154796, 4.9295673 
1.9819821e+2, 2.9635203e+2, -64452.977, -197576.47, -1921.8385, 0.00043501134, -0.00088632666, -64425.234, -28675.586, 0.0, 5.015496, 4.9301457 
1.9820343e+2, 3.012894e+2, -23241.877, -134341.19, -1368.5658, 0.0006826743, 0.0018640937, -23225.021, -23225.021, 0.0, 5.015519, 4.943999 
1.9820906e+2, 3.06234e+2, -21978.32, -131567.33, -1183.0336, -0.00015464475, -0.0058542043, -21965.55, -21965.55, 0.0, 5.0155563, 4.9449806 
1.98215e+2, 3.1119612e+2, 16872.54, -40638.418, -511.3979, -0.00041713976, 0.0032832483, 16877.086, 16877.086, 0.0, 5.015607, 4.9782553 
1.9822165e+2, 3.161755e+2, 18903.441, -36285.37, -278.9054, 0.00067748653, -0.0016067943, 18904.85, 18904.85, 0.0, 5.015687, 4.979828 
2.0309895e+2, 1.2267875e+2, -1701198.0, -1741001.9, -438.48032, 0.000044717854, 0.00079328933, -1701193.1, 36554.88, 0.0, 5.0170445, 4.9910975 
2.0310506e+2, 1.276693e+2, -1653697.9, -1695151.6, -541.84753, -0.000088652065, -0.0035291316, -1653690.8, 35149.883, 0.0, 5.0170817, 4.9900613 
2.0311072e+2, 1.3265856e+2, -1608329.9, -1653600.0, -1243.7004, -0.00013818414, 0.0031987403, -1608295.8, 31650.275, 0.0, 5.017106, 4.9875255 
2.0311603e+2, 1.3764581e+2, -1560348.0, -1606710.0, -1346.4884, 0.00003439508, -0.0015127638, -1560308.9, 30761.791, 0.0, 5.0171204, 4.9868307 
2.0312092e+2, 1.4263147e+2, -1515292.8, -1565794.5, -1988.6311, 0.000101076424, 0.000017494145, -1515214.6, 26996.615, 0.0, 5.0171204, 4.984126 
2.0312545e+2, 1.4761572e+2, -1467183.0, -1518570.1, -2070.6628, 0.000028793513, -0.0013964692, -1467099.8, 26265.79, 0.0, 5.0171084, 4.9835477 
2.0312963e+2, 1.5259819e+2, -1422182.1, -1477773.1, -2631.8328, -0.000025522106, 0.0007462056, -1422057.8, 22479.607, 0.0, 5.017088, 4.9808207 
2.0313352e+2, 1.5757902e+2, -1374048.3, -1430473.0, -2703.3171, -0.00003360172, -0.0018439012, -1373919.0, 21806.084, 0.0, 5.0170608, 4.9802628 
2.0313713e+2, 1.6255821e+2, -1329092.3, -1389771.9, -3190.7412, 0.000008969674, 0.00074840325, -1328924.9, 18004.107, 0.0, 5.0170207, 4.977488 
2.0314047e+2, 1.6753575e+2, -1280904.0, -1342292.0, -3250.9888, 0.00010155514, -0.0016566275, -1280732.4, 17416.795, 0.0, 5.016969, 4.976987 
2.0314357e+2, 1.7251162e+2, -1236075.8, -1301874.0, -3650.9238, 0.00008154779, 0.00066927035, -1235873.9, 13511.837, 0.0, 5.0169115, 4.9740987 
2.0314646e+2, 1.7748578e+2, -1187821.8, -1254250.8, -3711.4321, -0.000033313554, -0.0017007896, -1187615.0, 13023.795, 0.0, 5.0168486, 4.9736366 
2.0314915e+2, 1.824583e+2, -1142986.9, -1213865.6, -4034.5994, -0.00010146478, 0.0007240906, -1142758.0, 9150.136, 0.0, 5.016779, 4.9707203 
2.0315169e+2, 1.8742907e+2, -1094686.8, -1166134.5, -4070.565, -0.000097884054, -0.0018516564, -1094455.6, 8739.007, 0.0, 5.016703, 4.970286 
2.031541e+2, 1.9239827e+2, -1049838.4, -1125764.0, -4317.2383, -0.00009139362, 0.0007956178, -1049593.6, 4902.9077, 0.0, 5.0166206, 4.967342 
2.0315637e+2, 1.9736569e+2, -1001488.2, -1077911.1, -4352.194, -0.000060803868, -0.0017019822, -1001241.1, 4574.7734, 0.0, 5.016532, 4.9669404 
2.0315856e+2, 2.0233153e+2, -956649.75, -1037630.2, -4515.0034, -0.00006273759, 0.00093584193, -956398.8, 751.8588, 0.0, 5.0164404, 4.9639473 
2.0316064e+2, 2.0729554e+2, -908247.0, -989692.8, -4542.0835, -0.000090420115, -0.0017737591, -907994.5, 508.8431, 0.0, 5.016347, 4.963562 
2.031627e+2, 2.1225797e+2, -863409.75, -949517.56, -4618.966, -0.00007974753, 0.0008859925, -863162.7, -3291.1978, 0.0, 5.016254, 4.960504 
2.0316473e+2, 2.1721853e+2, -814924.5, -901459.8, -4632.518, -0.000036535184, -0.0019703805, -814677.25, -3419.3274, 0.0, 5.0161614, 4.960144 
2.0316677e+2, 2.2217755e+2, -770071.5, -861367.3, -4625.17, -0.00001413497, 0.00086468563, -769837.75, -7178.196, 0.0, 5.0160685, 4.957031 
2.0316881e+2, 2.2713467e+2, -721523.25, -813215.8, -4629.7734, -0.000026341706, -0.0019360464, -721290.06, -7210.3696, 0.0, 5.0159745, 4.9566884 
2.0317093e+2, 2.320902e+2, -676668.4, -773237.06, -4547.419, 0.000013639273, 0.0009344443, -676454.7, -10939.228, 0.0, 5.015881, 4.9535103 
2.0317312e+2, 2.3704381e+2, -628029.75, -724948.0, -4539.203, 0.000116060466, -0.0021833067, -627817.6, -10847.481, 0.0, 5.015788, 4.9532 
2.0317538e+2, 2.4199586e+2, -583183.06, -685135.44, -4384.6123, 0.00012047064, 0.0011772464, -582994.8, -14554.618, 0.0, 5.0157, 4.9499297 
2.0317777e+2, 2.4694589e+2, -534410.7, -636651.8, -4351.926, -0.0000049487394, -0.002202081, -534225.8, -14296.04, 0.0, 5.015617, 4.949667 
2.031803e+2, 2.5189433e+2, -489658.56, -597235.5, -4123.0977, -0.000015117731, 0.0011675538, -489500.78, -18065.53, 0.0, 5.015539, 4.946227 
2.0318301e+2, 2.5684077e+2, -440580.06, -548178.4, -4065.0916, 0.00010568826, -0.0022420704, -440426.7, -17466.559, 0.0, 5.015468, 4.946144 
2.031859e+2, 2.6178554e+2, -396041.63, -509438.22, -3768.9116, 0.0001282633, 0.0011959977, -395916.5, -21415.104, 0.0, 5.015402, 4.942432 
2.03189e+2, 2.6672837e+2, -346578.63, -459616.03, -3693.621, 0.000003814809, -0.001984993, -346458.06, -20396.275, 0.0, 5.015342, 4.9425993 
2.0319232e+2, 2.7166942e+2, -302314.66, -421715.03, -3334.4402, 0.000054747212, 0.0014530128, -302221.6, -24581.99, 0.0, 5.0152893, 4.938548 
2.0319599e+2, 2.766085e+2, -252458.08, -371122.3, -3237.614, 0.00039238165, -0.0021031261, -252369.8, -23133.313, 0.0, 5.0152464, 4.938966 
2.0319985e+2, 2.8154585e+2, -208233.39, -333549.2, -2821.8506, 0.000450356, 0.0019909372, -208169.88, -27319.566, 0.0, 5.015209, 4.9347587 
2.0320404e+2, 2.8648123e+2, -158045.6, -282313.22, -2686.225, -0.000039461876, -0.0029713977, -157987.56, -25504.182, 0.0, 5.015182, 4.935385 
2.032085e+2, 2.9141435e+2, -115515.12, -248969.23, -2203.589, -0.00019323375, 0.001191862, -115478.74, -31339.648, 0.0, 5.015168, 4.929631 
2.0321353e+2, 2.9634482e+2, -65239.652, -197780.45, -2038.3903, 0.0003944658, -0.00093122944, -65208.313, -29387.953, 0.0, 5.01518, 4.930208 
2.0321876e+2, 3.0128223e+2, -24039.271, -134524.25, -1467.238, 0.0005614975, 0.0017447198, -24019.79, -24019.79, 0.0, 5.015193, 4.9440722 
2.032244e+2, 3.0622694e+2, -22835.143, -131768.13, -1279.6936, -0.0002102977, -0.0059928903, -22820.111, -22820.111, 0.0, 5.015207, 4.945058 
2.032304e+2, 3.1118912e+2, 15978.801, -40813.688, -583.29987, -0.00042116427, 0.0031998085, 15984.791, 15984.791, 0.0, 5.015233, 4.97835 
2.032371e+2, 3.161686e+2, 17954.057, -36470.45, -351.74326, 0.00069037534, -0.0014755994, 17956.33, 17956.33, 0.0, 5.01529, 4.9799294 
2.0811601e+2, 1.22672155e+2, -1701303.3, -1741292.3, -410.2449, 0.000111098576, 0.0010745961, -1701299.1, 36513.57, 0.0, 5.0170608, 4.990994 
2.0812213e+2, 1.2766258e+2, -1653802.4, -1695442.9, -514.3732, -0.000077553006, -0.0035782906, -1653796.0, 35110.484, 0.0, 5.0170984, 4.9899573 
2.0812783e+2, 1.3265172e+2, -1608444.0, -1653909.9, -1233.3318, -0.00018069435, 0.0030873239, -1608410.6, 31602.348, 0.0, 5.0171223, 4.9874153 
2.0813313e+2, 1.3763888e+2, -1560464.0, -1607020.5, -1335.5072, -0.000058679303, -0.0014476476, -1560425.8, 30712.914, 0.0, 5.0171356, 4.9867206 
2.0813803e+2, 1.4262444e+2, -1515383.0, -1566046.5, -1997.0826, 0.00005008456, 0.00014178183, -1515304.4, 26975.783, 0.0, 5.017134, 4.984036 
2.0814256e+2, 1.476086e+2, -1467277.4, -1518824.5, -2079.6094, 0.00010149279, -0.0013206179, -1467193.6, 26241.69, 0.0, 5.017121, 4.983457 
2.0814672e+2, 1.5259098e+2, -1422269.6, -1478004.3, -2652.9192, 0.00004596261, 0.0007984306, -1422143.6, 22464.354, 0.0, 5.0170984, 4.9807386 
2.0815058e+2, 1.5757173e+2, -1374143.0, -1430707.5, -2724.7678, -0.00007802578, -0.0017937875, -1374012.0, 21784.516, 0.0, 5.0170684, 4.9801807 
2.0815414e+2, 1.6255084e+2, -1329174.9, -1389976.1, -3230.106, -0.000120315446, 0.00074794976, -1329003.9, 17997.447, 0.0, 5.017027, 4.9774165 
2.0815742e+2, 1.675283e+2, -1280986.3, -1342496.3, -3290.903, -0.00008064935, -0.0017571024, -1280810.6, 17411.527, 0.0, 5.0169754, 4.9769154 
2.0816047e+2, 1.7250408e+2, -1236162.5, -1302084.0, -3698.6794, -0.00005099563, 0.000600751, -1235955.6, 13503.812, 0.0, 5.016917, 4.9740252 
2.081633e+2, 1.774782e+2, -1187913.0, -1254462.4, -3759.3433, -0.000020948159, -0.0016090564, -1187701.4, 13011.898, 0.0, 5.0168524, 4.9735637 
2.0816594e+2, 1.8245067e+2, -1143040.9, -1213988.8, -4091.4812, -0.000059350783, 0.00086308434, -1142805.6, 9177.38, 0.0, 5.0167804, 4.970678 
2.081684e+2, 1.8742138e+2, -1094745.9, -1166257.8, -4129.063, -0.00014284033, -0.0017845182, -1094508.3, 8761.693, 0.0, 5.0167027, 4.9702444 
2.0817071e+2, 1.9239053e+2, -1049898.5, -1125882.3, -4385.657, -0.00018946899, 0.0007691663, -1049646.3, 4926.0474, 0.0, 5.0166187, 4.967303 
2.0817289e+2, 1.973579e+2, -1001551.0, -1078031.1, -4419.8955, -0.00017101181, -0.0018327103, -1001296.44, 4595.7075, 0.0, 5.0165286, 4.966901 
2.0817499e+2, 2.023237e+2, -956699.6, -1037716.4, -4585.771, -0.00014783925, 0.0008138434, -956440.9, 786.4251, 0.0, 5.016436, 4.96392 
2.0817699e+2, 2.072877e+2, -908300.2, -989778.7, -4613.0005, -0.00011485333, -0.0017637426, -908039.8, 540.2745, 0.0, 5.0163407, 4.9635353 
2.0817895e+2, 2.1225013e+2, -863446.25, -949558.1, -4688.9976, -0.00006830797, 0.00094336027, -863191.6, -3243.2717, 0.0, 5.016246, 4.960494 
2.0818089e+2, 2.1721068e+2, -814966.25, -901500.75, -4703.436, -0.000010047875, -0.0019658133, -814711.4, -3376.4883, 0.0, 5.0161514, 4.9601345 
2.0818283e+2, 2.2216968e+2, -770109.7, -861391.1, -4697.503, -0.000019599309, 0.0008220505, -769868.56, -7131.9126, 0.0, 5.0160565, 4.9570284 
2.0818478e+2, 2.271268e+2, -721564.6, -813239.75, -4702.139, -0.00012631039, -0.002018017, -721324.1, -7167.257, 0.0, 5.0159607, 4.9566865 
2.081868e+2, 2.3208232e+2, -676703.2, -773239.8, -4617.9717, -0.00013004764, 0.0008472532, -676482.8, -10890.169, 0.0, 5.015866, 4.9535165 
2.0818889e+2, 2.3703595e+2, -628067.3, -724950.2, -4608.823, 0.0000005952944, -0.0022345795, -627848.56, -10801.306, 0.0, 5.015772, 4.9532065 
2.0819107e+2, 2.4198799e+2, -583203.06, -685089.8, -4447.28, 0.000044366036, 0.0011583809, -583009.3, -14492.103, 0.0, 5.0156817, 4.9499536 
2.0819339e+2, 2.4693806e+2, -534434.8, -636603.8, -4414.397, -0.000029220948, -0.0021866818, -534244.44, -14238.017, 0.0, 5.0155964, 4.9496927 
2.0819584e+2, 2.5188652e+2, -489670.44, -597148.7, -4178.1543, -0.000015677319, 0.0012019572, -489508.25, -17996.734, 0.0, 5.0155168, 4.9462676 
2.0819849e+2, 2.5683302e+2, -440595.16, -548088.25, -4120.4634, 0.00009336826, -0.0022194828, -440437.44, -17401.496, 0.0, 5.015444, 4.946187 
2.0820129e+2, 2.6177782e+2, -396059.63, -509345.0, -3817.315, 0.00008386922, 0.0011517799, -395931.13, -21354.352, 0.0, 5.0153756, 4.9424763 
2.0820433e+2, 2.6672068e+2, -346600.47, -459523.63, -3739.5977, -0.000121204655, -0.0021911124, -346476.75, -20339.89, 0.0, 5.015314, 4.942644 
2.0820759e+2, 2.7166173e+2, -302335.8, -421613.66, -3368.1953, -0.00010733301, 0.0011753854, -302240.78, -24526.447, 0.0, 5.0152597, 4.9385967 
2.0821123e+2, 2.7660093e+2, -252481.45, -371020.03, -3268.0044, 0.00029459412, -0.002281002, -252391.42, -23080.703, 0.0, 5.0152154, 4.9390154 
2.0821506e+2, 2.8153834e+2, -208242.1, -333404.56, -2841.6233, 0.0004519467, 0.0019418034, -208177.63, -27253.697, 0.0, 5.015177, 4.934824 
2.0821925e+2, 2.864738e+2, -158056.94, -282161.13, -2704.5276, 0.00011663818, -0.0028500431, -157998.03, -25441.873, 0.0, 5.015147, 4.9354544 
2.082237e+2, 2.91407e+2, -115532.76, -248816.4, -2199.2322, -0.00000062942024, 0.0013616892, -115496.48, -31285.36, 0.0, 5.0151305, 4.929702 
2.0822869e+2, 2.9633752e+2, -65266.297, -197630.36, -2027.7183, 0.00037026376, -0.0009796489, -65235.242, -29343.422, 0.0, 5.015139, 4.9302797 
2.0823394e+2, 3.0127499e+2, -24069.023, -134367.48, -1455.9528, 0.00040450506, 0.0015374514, -24049.807, -24049.807, 0.0, 5.015149, 4.9441476 
2.0823961e+2, 3.0621976e+2, -22866.451, -131608.75, -1266.5469, -0.0002678964, -0.006186154, -22851.701, -22851.701, 0.0, 5.0151615, 4.9451346 
2.0824562e+2, 3.1118205e+2, 15959.448, -40621.305, -543.17773, -0.00042042165, 0.003097115, 15964.662, 15964.662, 0.0, 5.0151863, 4.978441 
2.082524e+2, 3.1616166e+2, 17935.758, -36266.414, -300.5927, 0.00063722907, -0.0013395174, 17937.426, 17937.426, 0.0, 5.0152416, 4.9800253 
2.1313325e+2, 1.22665465e+2, -1700432.5, -1741111.4, -471.16034, 0.000062329804, 0.0009492563, -1700427.0, 37451.164, 0.0, 5.0174036, 4.990885 
2.131394e+2, 1.2765579e+2, -1652955.3, -1695276.0, -583.62866, -0.0000133257645, -0.003578597, -1652947.1, 36025.734, 0.0, 5.017434, 4.9898477 
2.131451e+2, 1.3264482e+2, -1607629.9, -1653755.5, -1327.3684, -0.000105557374, 0.0030827667, -1607591.8, 32488.764, 0.0, 5.0174465, 4.9873075 
2.1315043e+2, 1.3763186e+2, -1559699.6, -1606892.1, -1428.1753, -0.00006487175, -0.0015778216, -1559656.5, 31550.924, 0.0, 5.0174437, 4.986613 
2.131553e+2, 1.4261733e+2, -1514656.8, -1565910.8, -2114.8433, -0.0000023162502, 0.0000049498253, -1514569.6, 27780.297, 0.0, 5.0174246, 4.98394 
2.1315981e+2, 1.476014e+2, -1466612.8, -1518720.1, -2205.5369, 0.000032982334, -0.0013572142, -1466519.5, 26986.332, 0.0, 5.017391, 4.9833612 
2.1316396e+2, 1.5258367e+2, -1421660.9, -1477900.6, -2800.174, 0.0000072346916, 0.0008053313, -1421521.9, 23157.602, 0.0, 5.0173445, 4.9806547 
2.1316776e+2, 1.5756436e+2, -1373618.9, -1430645.9, -2875.3293, -0.000043634467, -0.0017976991, -1373474.3, 22394.51, 0.0, 5.0172863, 4.980097 
2.1317126e+2, 1.6254339e+2, -1328693.3, -1389911.0, -3392.2222, -0.00010964088, 0.000738971, -1328505.9, 18568.418, 0.0, 5.0172257, 4.9773436 
2.1317448e+2, 1.6752076e+2, -1280536.9, -1342447.1, -3456.6152, -0.00018543084, -0.0017664132, -1280344.5, 17951.455, 0.0, 5.0171638, 4.976842 
2.1317746e+2, 1.724965e+2, -1235760.0, -1302053.1, -3879.707, -0.00019057894, 0.0005734352, -1235533.6, 14000.235, 0.0, 5.0170884, 4.973954 
2.1318021e+2, 1.7747052e+2, -1187578.3, -1254464.0, -3939.5313, -0.00011790654, -0.001672112, -1187347.0, 13441.501, 0.0, 5.0170007, 4.9734926 
2.1318279e+2, 1.8244293e+2, -1142748.1, -1213961.6, -4285.402, -0.00011632134, 0.00082782557, -1142491.3, 9567.676, 0.0, 5.0169044, 4.9706287 
2.1318515e+2, 1.8741362e+2, -1094528.3, -1166265.6, -4331.9243, -0.00016271057, -0.0017299305, -1094267.6, 9078.488, 0.0, 5.016801, 4.970196 
2.1318737e+2, 1.9238272e+2, -1049724.6, -1125880.6, -4596.885, -0.00020354553, 0.0008394068, -1049448.3, 5200.7207, 0.0, 5.0166955, 4.9672675 
2.1318944e+2, 1.9735004e+2, -1001425.56, -1078051.8, -4627.648, -0.00021265705, -0.0018237666, -1001147.1, 4822.024, 0.0, 5.0165887, 4.966866 
2.1319143e+2, 2.023158e+2, -956618.4, -1037740.4, -4797.2305, -0.00020190924, 0.0007874278, -956335.7, 968.9602, 0.0, 5.016477, 4.963893 
2.1319333e+2, 2.0727979e+2, -908278.8, -989829.9, -4825.3926, -0.0001637734, -0.0017950223, -907994.25, 663.44946, 0.0, 5.016361, 4.9635086 
2.1319519e+2, 2.1224217e+2, -863473.94, -949604.0, -4905.556, -0.00010627628, 0.0009276915, -863195.44, -3169.2566, 0.0, 5.016243, 4.9604793 
2.1319702e+2, 2.1720272e+2, -815064.9, -901578.0, -4925.4937, -0.000025631387, -0.001940057, -814785.4, -3372.5725, 0.0, 5.0161233, 4.960121 
2.1319886e+2, 2.2216171e+2, -770256.2, -861461.56, -4920.165, -0.000032701588, 0.0008653143, -769991.5, -7176.8926, 0.0, 5.0160055, 4.9570274 
2.132007e+2, 2.2711883e+2, -721765.2, -813332.9, -4923.1006, -0.00016380458, -0.0019864216, -721501.25, -7266.4106, 0.0, 5.0158906, 4.9566865 
2.1320261e+2, 2.3207437e+2, -676943.06, -773325.3, -4833.946, -0.00019556536, 0.00086173357, -676701.25, -11030.653, 0.0, 5.015776, 4.9535275 
2.1320459e+2, 2.37028e+2, -628357.6, -725056.3, -4818.9395, -0.000096582175, -0.002246271, -628118.06, -10992.957, 0.0, 5.0156636, 4.9532185 
2.1320668e+2, 2.4198006e+2, -583538.6, -685194.06, -4651.6533, -0.000059790604, 0.001123084, -583326.2, -14731.319, 0.0, 5.015553, 4.9499755 
2.132089e+2, 2.4693017e+2, -534835.44, -636734.9, -4621.7085, -0.000106073145, -0.0022407072, -534626.25, -14542.357, 0.0, 5.015444, 4.9497156 
2.1321124e+2, 2.5187865e+2, -490119.63, -597274.06, -4380.886, -0.00007830764, 0.001160266, -489940.8, -18352.07, 0.0, 5.015341, 4.9463024 
2.132138e+2, 2.5682518e+2, -441101.1, -548234.94, -4328.9185, 0.000033350567, -0.002199924, -440926.44, -17813.686, 0.0, 5.0152464, 4.9462233 
2.1321654e+2, 2.6177e+2, -396602.66, -509476.44, -4018.079, 0.000041037383, 0.0011926852, -396459.78, -21806.621, 0.0, 5.015158, 4.9425263 
2.1321951e+2, 2.6671293e+2, -347186.84, -459668.25, -3930.5906, -0.00013688985, -0.0022001166, -347049.66, -20836.922, 0.0, 5.0150795, 4.9426966 
2.1322271e+2, 2.7165404e+2, -302959.66, -421762.72, -3538.0625, -0.00012962929, 0.0010992602, -302854.38, -25064.682, 0.0, 5.015009, 4.9386544 
2.1322629e+2, 2.7659327e+2, -253140.02, -371181.1, -3425.5107, 0.00022713516, -0.0024562243, -253040.69, -23655.129, 0.0, 5.0149508, 4.939074 
2.1323007e+2, 2.8153077e+2, -208938.39, -333571.38, -2987.85, 0.00037851965, 0.0017321084, -208866.8, -27868.594, 0.0, 5.014896, 4.934887 
2.132342e+2, 2.864663e+2, -158807.28, -282347.8, -2853.9436, 0.00010524587, -0.0029688429, -158741.39, -26111.586, 0.0, 5.0148454, 4.9355187 
2.1323864e+2, 2.9139954e+2, -116336.586, -249013.2, -2330.7544, 0.00003057967, 0.0013356463, -116295.66, -32011.566, 0.0, 5.0148063, 4.9297714 
2.1324365e+2, 2.9633015e+2, -66132.695, -197849.4, -2152.9834, 0.00040262187, -0.0009183737, -66097.51, -30133.498, 0.0, 5.01479, 4.9303513 
2.1324886e+2, 3.012677e+2, -24973.582, -134576.36, -1570.4554, 0.00044797073, 0.0016533304, -24951.084, -24951.084, 0.0, 5.0147796, 4.94423 
2.1325456e+2, 3.0621254e+2, -23794.28, -131819.48, -1368.6226, -0.00018029992, -0.006084179, -23776.943, -23776.943, 0.0, 5.0147815, 4.945221 
2.1326059e+2, 3.1117493e+2, 15030.205, -40797.902, -607.5632, -0.00037314178, 0.0031555027, 15036.815, 15036.815, 0.0, 5.0147967, 4.9785423 
2.1326739e+2, 3.1615463e+2, 16988.422, -36438.754, -344.30334, 0.00044727526, -0.0014178191, 16990.64, 16990.64, 0.0, 5.0148425, 4.980132 
2.1815062e+2, 1.226587e+2, -1700540.8, -1741428.0, -444.64917, -0.00006506687, 0.00056799286, -1700535.9, 37408.617, 0.0, 5.017424, 4.990771 
2.1815684e+2, 1.2764895e+2, -1653066.4, -1695594.8, -558.6694, 0.00007880532, -0.0035553281, -1653059.0, 35980.883, 0.0, 5.0174537, 4.989733 
2.1816258e+2, 1.3263786e+2, -1607735.0, -1654053.4, -1327.6669, 0.000038281516, 0.0031418023, -1607697.0, 32451.574, 0.0, 5.017464, 4.9872007 
2.1816786e+2, 1.3762477e+2, -1559812.5, -1607194.6, -1428.0752, -0.000020618045, -0.0018281848, -1559769.5, 31507.209, 0.0, 5.017459, 4.9865055 
2.1817273e+2, 1.4261012e+2, -1514763.6, -1566194.9, -2137.0293, -0.00005773252, -0.00029308588, -1514675.0, 27745.42, 0.0, 5.017438, 4.983839 
2.1817718e+2, 1.4759411e+2, -1466719.8, -1519004.3, -2227.3823, -0.00012347764, -0.0014659786, -1466625.0, 26952.158, 0.0, 5.0174046, 4.98326 
2.1818128e+2, 1.5257631e+2, -1421748.6, -1478141.3, -2840.2246, -0.00010248372, 0.0007805095, -1421605.9, 23145.74, 0.0, 5.017357, 4.9805684 
2.1818505e+2, 1.575569e+2, -1373710.3, -1430888.3, -2915.6501, 0.000032361142, -0.001837863, -1373562.0, 22379.91, 0.0, 5.0172973, 4.9800105 
2.1818851e+2, 1.6253586e+2, -1328775.4, -1390124.4, -3436.2817, -0.000018760164, 0.000721319, -1328583.5, 18564.701, 0.0, 5.017235, 4.9772677 
2.1819164e+2, 1.6751316e+2, -1280626.8, -1342664.0, -3503.1658, -0.00024469668, -0.0017237803, -1280429.5, 17940.904, 0.0, 5.0171695, 4.9767666 
2.1819453e+2, 1.7248881e+2, -1235846.6, -1302255.9, -3944.9248, -0.00033512563, 0.00056906324, -1235613.1, 13996.024, 0.0, 5.0170927, 4.973884 
2.1819721e+2, 1.7746276e+2, -1187665.9, -1254666.8, -4003.51, -0.00028290896, -0.0018297938, -1187427.5, 13437.076, 0.0, 5.0170045, 4.9734225 
2.1819967e+2, 1.8243511e+2, -1142816.3, -1214118.8, -4359.448, -0.00023674214, 0.0006842404, -1142550.6, 9584.873, 0.0, 5.016907, 4.9705744 
2.1820195e+2, 1.8740575e+2, -1094599.9, -1166423.6, -4406.06, -0.00017275078, -0.0016905142, -1094330.6, 9092.6455, 0.0, 5.016802, 4.970142 
2.1820407e+2, 1.9237481e+2, -1049774.4, -1125982.8, -4673.6616, -0.00017149512, 0.0009611007, -1049488.8, 5237.6094, 0.0, 5.0166945, 4.967233 
2.1820602e+2, 1.9734211e+2, -1001480.44, -1078153.8, -4705.6626, -0.00021634372, -0.001736221, -1001192.75, 4854.1377, 0.0, 5.0165854, 4.9668326 
2.182079e+2, 2.0230785e+2, -956671.5, -1037829.4, -4882.5186, -0.00024115432, 0.0008139068, -956378.8, 1003.8688, 0.0, 5.016472, 4.963865 
2.1820968e+2, 2.0727177e+2, -908335.5, -989919.75, -4910.661, -0.00023102737, -0.0018545493, -908041.0, 695.18976, 0.0, 5.016354, 4.963481 
2.1821144e+2, 2.1223414e+2, -863521.06, -949666.1, -4992.7856, -0.0001773849, 0.00086394354, -863232.7, -3127.7866, 0.0, 5.016235, 4.960462 
2.1821316e+2, 2.1719469e+2, -815115.25, -901639.94, -5012.638, -0.00007127733, -0.0019077669, -814825.8, -3334.2053, 0.0, 5.0161133, 4.9601045 
2.1821485e+2, 2.221537e+2, -770290.7, -861479.06, -5003.961, -0.000056331377, 0.00095333747, -770016.94, -7123.4517, 0.0, 5.0159936, 4.957027 
2.1821658e+2, 2.2711079e+2, -721805.5, -813350.2, -5007.306, -0.00016977101, -0.0018931454, -721532.44, -7218.7676, 0.0, 5.015876, 4.9566875 
2.1821837e+2, 2.3206635e+2, -676972.9, -773307.75, -4916.6665, -0.00021917043, 0.00093128905, -676722.56, -10973.227, 0.0, 5.0157595, 4.9535413 
2.1822025e+2, 2.3701997e+2, -628391.2, -725037.75, -4902.0566, -0.00018745664, -0.0022390662, -628143.2, -10939.516, 0.0, 5.015645, 4.9532332 
2.1822222e+2, 2.4197204e+2, -583570.1, -685162.3, -4732.3887, -0.00018527724, 0.0010753771, -583350.2, -14676.829, 0.0, 5.0155325, 4.949996 
2.1822432e+2, 2.4692217e+2, -534870.06, -636703.1, -4701.1074, -0.00021903084, -0.0023383903, -534653.5, -14491.262, 0.0, 5.015422, 4.9497366 
2.1822658e+2, 2.518707e+2, -490145.56, -597214.7, -4449.3105, -0.00018313041, 0.0010687524, -489960.97, -18294.105, 0.0, 5.015317, 4.946334 
2.1822906e+2, 2.5681725e+2, -441130.6, -548174.06, -4395.449, -0.00006131705, -0.0021895072, -440950.4, -17759.871, 0.0, 5.0152206, 4.946256 
2.182317e+2, 2.6176214e+2, -396613.13, -509360.28, -4074.5046, -0.000008078123, 0.0012752308, -396466.06, -21735.588, 0.0, 5.0151305, 4.9425797 
2.1823458e+2, 2.667051e+2, -347201.63, -459545.78, -3987.1423, -0.00009545142, -0.0021005804, -347060.3, -20770.928, 0.0, 5.0150485, 4.9427533 
2.1823771e+2, 2.716463e+2, -302974.7, -421626.8, -3582.4805, -0.00007640187, 0.001137796, -302866.63, -25000.898, 0.0, 5.0149755, 4.938717 
2.1824123e+2, 2.7658555e+2, -253158.63, -371043.97, -3467.308, 0.00017135519, -0.0026295898, -253056.73, -23595.654, 0.0, 5.0149155, 4.939138 
2.1824495e+2, 2.8152308e+2, -208963.67, -333441.7, -3024.3052, 0.00025531952, 0.0014298508, -208890.23, -27817.018, 0.0, 5.014859, 4.934949 
2.1824904e+2, 2.8645867e+2, -158835.81, -282220.34, -2886.6282, -0.0000096595095, -0.003230244, -158768.33, -26064.035, 0.0, 5.0148077, 4.9355803 
2.1825345e+2, 2.91392e+2, -116360.98, -248866.61, -2341.139, -0.000039489656, 0.0011893682, -116319.625, -31961.7, 0.0, 5.0147667, 4.9298406 
2.1825844e+2, 2.9632273e+2, -66164.164, -197700.94, -2158.0046, 0.0004569205, -0.0008021437, -66128.766, -30091.818, 0.0, 5.014747, 4.930423 
2.1826367e+2, 3.0126035e+2, -24996.232, -134390.77, -1565.9799, 0.00059493905, 0.0019469482, -24973.82, -24973.82, 0.0, 5.0147333, 4.944317 
2.1826935e+2, 3.062053e+2, -23817.916, -131623.27, -1360.8329, -0.0000180165, -0.0058178916, -23800.742, -23800.742, 0.0, 5.014733, 4.945313 
2.182754e+2, 3.1116775e+2, 15016.211, -40566.543, -575.0395, -0.00030681115, 0.0033048086, 15022.159, 15022.159, 0.0, 5.014745, 4.9786496 
2.182822e+2, 3.1614757e+2, 16971.043, -36196.273, -301.34558, 0.00016811216, -0.0016123122, 16972.75, 16972.75, 0.0, 5.014787, 4.980245 
2.2316824e+2, 1.2265193e+2, -1699571.6, -1741234.5, -485.28555, -0.0001567467, 0.0004633076, -1699565.9, 38444.805, 0.0, 5.017807, 4.990646 
2.231745e+2, 1.2764205e+2, -1652152.5, -1695430.0, -613.245, 0.00012402413, -0.0036194662, -1652143.9, 36963.582, 0.0, 5.017819, 4.9896083 
2.2318022e+2, 1.3263085e+2, -1606861.9, -1653865.6, -1418.6625, 0.00012379541, 0.003119832, -1606819.1, 33398.086, 0.0, 5.017807, 4.9870954 
2.231855e+2, 1.3761768e+2, -1559023.0, -1607050.1, -1519.5677, 0.00001683058, -0.0018130128, -1558974.9, 32371.438, 0.0, 5.017775, 4.9863997 
2.2319032e+2, 1.4260292e+2, -1514023.3, -1566058.6, -2243.4063, -0.00005310383, -0.00027915294, -1513926.6, 28564.297, 0.0, 5.0177345, 4.9837403 
2.2319473e+2, 1.4758681e+2, -1466019.5, -1518889.1, -2333.3552, -0.0001389585, -0.0014900473, -1465916.8, 27732.068, 0.0, 5.0176883, 4.9831614 
2.2319877e+2, 1.525689e+2, -1421084.9, -1478020.6, -2970.2188, -0.0001539917, 0.0007567197, -1420930.4, 23893.877, 0.0, 5.017624, 4.98048 
2.2320247e+2, 1.5754941e+2, -1373110.3, -1430799.8, -3049.6753, -0.00007027889, -0.0018270073, -1372949.5, 23065.871, 0.0, 5.0175433, 4.979922 
2.2320583e+2, 1.6252828e+2, -1328250.5, -1390072.9, -3586.7034, -0.00009860558, 0.0007728873, -1328043.1, 19179.35, 0.0, 5.0174556, 4.9771795 
2.232089e+2, 1.675055e+2, -1280188.8, -1342655.4, -3669.1624, -0.00023144842, -0.001625707, -1279974.0, 18471.574, 0.0, 5.017361, 4.976678 
2.2321172e+2, 1.7248107e+2, -1235434.9, -1302194.6, -4124.5903, -0.00031941902, 0.0006805788, -1235181.0, 14504.04, 0.0, 5.017262, 4.9738245 
2.2321428e+2, 1.7745496e+2, -1187301.3, -1254629.0, -4173.9526, -0.00035141892, -0.0017393926, -1187043.4, 13897.5205, 0.0, 5.017158, 4.973363 
2.2321664e+2, 1.8242724e+2, -1142494.8, -1214087.5, -4539.314, -0.00033331022, 0.0007316921, -1142208.1, 10004.472, 0.0, 5.017043, 4.970521 
2.232188e+2, 1.8739784e+2, -1094339.1, -1166421.6, -4586.9165, -0.00024345041, -0.0017100918, -1094048.4, 9452.423, 0.0, 5.016917, 4.9700885 
2.232208e+2, 1.9236685e+2, -1049566.5, -1125978.6, -4863.9478, -0.00021435389, 0.00094165036, -1049258.1, 5546.391, 0.0, 5.016786, 4.9671917 
2.2322264e+2, 1.9733411e+2, -1001348.25, -1078183.8, -4904.788, -0.00023089795, -0.0016855651, -1001036.4, 5088.9097, 0.0, 5.01665, 4.966792 
2.232244e+2, 2.022998e+2, -956589.0, -1037851.1, -5089.746, -0.00024290444, 0.0008910282, -956271.44, 1189.9613, 0.0, 5.0165133, 4.9638386 
2.2322604e+2, 2.0726372e+2, -908311.75, -989967.8, -5116.9185, -0.00023597735, -0.0017979266, -907992.4, 822.78467, 0.0, 5.016375, 4.963455 
2.2322766e+2, 2.1222608e+2, -863542.1, -949711.75, -5200.443, -0.00019393783, 0.0009028983, -863229.44, -3045.33, 0.0, 5.016235, 4.9604464 
2.2322923e+2, 2.1718659e+2, -815194.6, -901711.06, -5219.0557, -0.00010801077, -0.0018797693, -814880.94, -3309.954, 0.0, 5.016093, 4.9600897 
2.2323082e+2, 2.2214557e+2, -770421.56, -861546.44, -5210.8926, -0.00009723222, 0.0009799214, -770124.56, -7151.6123, 0.0, 5.0159492, 4.957024 
2.2323242e+2, 2.271027e+2, -722012.1, -813450.25, -5217.3965, -0.00018980197, -0.0018579334, -721715.4, -7322.218, 0.0, 5.0158043, 4.9566855 
2.2323407e+2, 2.3205824e+2, -677233.75, -773403.44, -5125.6914, -0.00024232687, 0.0009845706, -676961.4, -11132.553, 0.0, 5.0156627, 4.9535522 
2.2323583e+2, 2.3701188e+2, -628713.56, -725158.56, -5114.0303, -0.00024341662, -0.0021532595, -628443.1, -11160.117, 0.0, 5.015526, 4.9532456 
2.2323765e+2, 2.4196398e+2, -583934.3, -685271.9, -4939.835, -0.00025193856, 0.0011738134, -583694.06, -14941.62, 0.0, 5.015392, 4.9500213 
2.2323965e+2, 2.4691412e+2, -535283.75, -636831.3, -4901.7617, -0.00026914343, -0.002261604, -535047.7, -14806.5625, 0.0, 5.0152626, 4.9497633 
2.2324179e+2, 2.5186265e+2, -490601.4, -597341.06, -4635.6045, -0.00024529095, 0.0010890398, -490400.47, -18655.012, 0.0, 5.0151386, 4.946369 
2.2324415e+2, 2.5680926e+2, -441641.97, -548322.1, -4576.042, -0.00017274325, -0.0022766571, -441446.03, -18177.203, 0.0, 5.0150213, 4.946293 
2.232467e+2, 2.6175418e+2, -397176.44, -509510.7, -4248.439, -0.00011474598, 0.0011507912, -397016.0, -22207.598, 0.0, 5.0149074, 4.9426255 
2.232495e+2, 2.666972e+2, -347835.78, -459723.25, -4169.573, -0.00011224355, -0.0021447758, -347680.6, -21313.797, 0.0, 5.014799, 4.942801 
2.2325255e+2, 2.7163845e+2, -303655.94, -421791.1, -3753.5967, -0.00006093222, 0.0011604194, -303536.8, -25594.23, 0.0, 5.014702, 4.9387794 
2.2325598e+2, 2.7657777e+2, -253883.3, -371219.7, -3633.4375, 0.00013038234, -0.002575476, -253770.89, -24233.666, 0.0, 5.014624, 4.9392033 
2.2325963e+2, 2.815154e+2, -209719.36, -333609.8, -3177.4565, 0.00019269424, 0.0014591777, -209637.92, -28489.24, 0.0, 5.014552, 4.9350233 
2.2326367e+2, 2.8645104e+2, -159619.56, -282394.44, -3022.2349, -0.000032173, -0.0033384163, -159545.2, -26766.127, 0.0, 5.014488, 4.935657 
2.2326802e+2, 2.9138443e+2, -117194.125, -249074.0, -2451.6636, -0.00005930808, 0.0010123715, -117148.56, -32716.508, 0.0, 5.0144315, 4.9299116 
2.2327298e+2, 2.9631522e+2, -67063.3, -197939.06, -2265.9082, 0.00035932355, -0.0008954107, -67024.08, -30913.68, 0.0, 5.014387, 4.930492 
2.2327816e+2, 3.0125296e+2, -25933.973, -134608.13, -1661.7765, 0.00048907916, 0.0019403909, -25908.566, -25908.566, 0.0, 5.0143504, 4.9444027 
2.2328386e+2, 3.0619797e+2, -24797.268, -131847.22, -1453.0806, 0.000045586108, -0.0057309247, -24777.547, -24777.547, 0.0, 5.0143323, 4.9454036 
2.2328992e+2, 3.1116056e+2, 14021.004, -40748.01, -641.0779, -0.00018803171, 0.0034608021, 14028.507, 14028.507, 0.0, 5.0143266, 4.9787617 
2.2329672e+2, 3.1614044e+2, 15933.209, -36378.87, -351.5458, 0.000055461172, -0.0014695921, 15935.571, 15935.571, 0.0, 5.014349, 4.980365 
2.2818604e+2, 1.22645125e+2, -1699702.3, -1741604.8, -472.46298, -0.00022863047, 0.0005232221, -1699696.9, 38380.203, 0.0, 5.0178294, 4.9905133 
2.281923e+2, 1.276351e+2, -1652287.1, -1695801.6, -598.3585, 0.00013706135, -0.003743542, -1652279.0, 36896.543, 0.0, 5.0178394, 4.9894757 
2.2819802e+2, 1.3262379e+2, -1606961.8, -1654159.9, -1436.3492, 0.00016833248, 0.0030400283, -1606918.1, 33368.313, 0.0, 5.017826, 4.986989 
2.2820327e+2, 1.3761054e+2, -1559126.4, -1607346.6, -1538.436, 0.000043935994, -0.0016449913, -1559077.4, 32338.98, 0.0, 5.0177927, 4.986293 
2.2820805e+2, 1.4259568e+2, -1514120.9, -1566333.1, -2273.5188, -0.000017403416, -0.00008192362, -1514022.0, 28539.86, 0.0, 5.0177503, 4.983642 
2.2821243e+2, 1.4757945e+2, -1466126.5, -1519168.8, -2363.6973, -0.00007252792, -0.0014665499, -1466021.4, 27699.54, 0.0, 5.0177007, 4.9830627 
2.282164e+2, 1.5256144e+2, -1421183.3, -1478276.9, -3025.1255, -0.00017132743, 0.000729979, -1421023.4, 23873.934, 0.0, 5.017635, 4.9803896 
2.2821999e+2, 1.5754187e+2, -1373206.4, -1431055.0, -3104.3586, -0.0002799844, -0.0017898043, -1373040.3, 23049.002, 0.0, 5.0175548, 4.979831 
2.2822328e+2, 1.6252065e+2, -1328356.8, -1390347.0, -3650.524, -0.00028305006, 0.00086054346, -1328142.5, 19154.807, 0.0, 5.017466, 4.9770827 
2.2822627e+2, 1.6749778e+2, -1280299.4, -1342931.0, -3732.6978, -0.0001814225, -0.0015019163, -1280077.8, 18443.65, 0.0, 5.01737, 4.976581 
2.2822899e+2, 1.7247328e+2, -1235493.8, -1302349.8, -4195.505, -0.00021477259, 0.00085358595, -1235231.5, 14530.038, 0.0, 5.017268, 4.973769 
2.2823143e+2, 1.7744711e+2, -1187369.0, -1254787.6, -4247.461, -0.00036596745, -0.0015088981, -1187102.4, 13915.462, 0.0, 5.017161, 4.9733076 
2.2823368e+2, 1.8241934e+2, -1142567.1, -1214246.1, -4629.344, -0.00041693728, 0.00088792725, -1142269.4, 10020.724, 0.0, 5.017044, 4.970467 
2.282357e+2, 1.8738987e+2, -1094413.4, -1166580.3, -4676.807, -0.0003515202, -0.0017653473, -1094111.6, 9467.495, 0.0, 5.016917, 4.9700346 
2.2823758e+2, 1.9235882e+2, -1049633.3, -1126116.4, -4959.6943, -0.00030459103, 0.00083666533, -1049313.0, 5570.302, 0.0, 5.0167847, 4.9671454 
2.2823928e+2, 1.9732605e+2, -1001417.44, -1078320.9, -4999.7607, -0.000256393, -0.0016629619, -1001093.75, 5110.7275, 0.0, 5.016648, 4.966747 
2.282409e+2, 2.0229171e+2, -956637.1, -1037934.75, -5186.4653, -0.0002272456, 0.0009905719, -956307.6, 1233.2604, 0.0, 5.016509, 4.963812 
2.2824243e+2, 2.072556e+2, -908364.94, -990051.7, -5214.4053, -0.00020971877, -0.0016803263, -908033.44, 861.3476, 0.0, 5.0163684, 4.9634295 
2.282439e+2, 2.1221793e+2, -863587.5, -949767.75, -5301.2026, -0.0001839938, 0.0009961107, -863262.6, -2998.7, 0.0, 5.0162263, 4.9604316 
2.2824533e+2, 2.1717842e+2, -815245.3, -901767.7, -5320.357, -0.00014423569, -0.0018587678, -814919.4, -3268.3247, 0.0, 5.016082, 4.9600754 
2.2824676e+2, 2.2213739e+2, -770464.9, -861577.0, -5313.875, -0.00015315242, 0.0009671416, -770156.0, -7102.8525, 0.0, 5.0159364, 4.95702 
2.2824821e+2, 2.2709452e+2, -722059.06, -813480.5, -5319.9243, -0.00022267125, -0.0018611663, -721750.5, -7277.134, 0.0, 5.0157895, 4.9566817 
2.2824974e+2, 2.3205006e+2, -677269.5, -773399.6, -5222.0884, -0.00027052592, 0.0010224218, -676986.6, -11077.639, 0.0, 5.015646, 4.9535613 
2.2825134e+2, 2.3700374e+2, -628753.44, -725153.8, -5209.6465, -0.00028543413, -0.002029616, -628472.7, -11109.631, 0.0, 5.0155067, 4.9532557 
2.2825305e+2, 2.4195586e+2, -583958.25, -685219.6, -5030.616, -0.0002904636, 0.0013485991, -583708.94, -14876.647, 0.0, 5.0153704, 4.950049 
2.2825491e+2, 2.4690603e+2, -535313.1, -636776.7, -4992.964, -0.0002893999, -0.0020910497, -535068.0, -14747.44, 0.0, 5.0152383, 4.9497933 
2.2825691e+2, 2.518546e+2, -490627.44, -597266.1, -4719.0903, -0.00028835968, 0.0011702416, -490419.0, -18594.4, 0.0, 5.015112, 4.9464073 
2.2825916e+2, 2.5680122e+2, -441671.56, -548246.0, -4658.265, -0.0002981308, -0.0024205481, -441468.34, -18120.604, 0.0, 5.0149927, 4.9463325 
2.2826158e+2, 2.6174617e+2, -397207.44, -509429.6, -4324.145, -0.0002598861, 0.0009066648, -397041.06, -22154.059, 0.0, 5.014878, 4.942667 
2.282643e+2, 2.6668924e+2, -347869.4, -459642.13, -4242.872, -0.00016992782, -0.0022762541, -347708.6, -21263.584, 0.0, 5.014768, 4.9428434 
2.2826724e+2, 2.7163053e+2, -303671.6, -421657.44, -3806.7517, -0.00007539259, 0.0011655046, -303548.9, -25528.693, 0.0, 5.0146685, 4.938841 
2.282706e+2, 2.7656993e+2, -253905.4, -371079.97, -3683.7278, 0.00008968681, -0.002400449, -253789.72, -24175.666, 0.0, 5.014587, 4.939269 
2.2827417e+2, 2.815076e+2, -209732.97, -333431.53, -3220.4783, 0.00015651729, 0.0016708847, -209649.17, -28424.465, 0.0, 5.014511, 4.9351044 
2.2827815e+2, 2.8644335e+2, -159636.22, -282209.06, -3063.901, -0.0000082655515, -0.0033605704, -159559.69, -26705.305, 0.0, 5.014445, 4.935742 
2.2828244e+2, 2.913768e+2, -117232.336, -248927.11, -2481.5051, -0.000055640747, 0.00081993284, -117185.59, -32678.932, 0.0, 5.0143857, 4.9299836 
2.2828734e+2, 2.9630765e+2, -67108.945, -197803.52, -2289.8445, 0.00016862917, -0.0011070159, -67068.836, -30884.389, 0.0, 5.01434, 4.9305606 
2.282925e+2, 3.0124545e+2, -25965.42, -134431.22, -1669.0653, 0.00023096937, 0.001762483, -25939.742, -25939.742, 0.0, 5.014302, 4.944487 
2.2829819e+2, 3.061906e+2, -24831.203, -131659.84, -1454.1812, 0.000044659057, -0.005749829, -24811.412, -24811.412, 0.0, 5.0142803, 4.945493 
2.2830425e+2, 3.111533e+2, 14005.293, -40501.625, -619.6293, -0.000050165916, 0.0036134464, 14012.336, 14012.336, 0.0, 5.0142713, 4.978876 
2.2831106e+2, 3.1613332e+2, 15915.666, -36113.605, -321.703, 0.000017711756, -0.0011442924, 15917.655, 15917.655, 0.0, 5.0142894, 4.9804883 
2.3320408e+2, 1.22638315e+2, -1698660.5, -1741368.5, -516.05994, -0.00007844753, 0.0005593102, -1698654.3, 39489.625, 0.0, 5.018235, 4.9903917 
2.3321036e+2, 1.2762813e+2, -1651314.5, -1695601.9, -632.8361, 0.00019760919, -0.0040350943, -1651305.5, 37938.242, 0.0, 5.0182233, 4.9893537 
2.3321605e+2, 1.326167e+2, -1606043.8, -1653974.8, -1504.2772, 0.00014076626, 0.0027271814, -1605996.6, 34359.152, 0.0, 5.0181894, 4.9868727 
2.3322122e+2, 1.3760334e+2, -1558268.6, -1607192.4, -1619.0935, -0.00006667365, -0.0016952346, -1558215.1, 33271.594, 0.0, 5.0181365, 4.9861765 
2.3322597e+2, 1.4258839e+2, -1513315.6, -1566165.1, -2377.8025, -0.00009139813, -0.000026566087, -1513208.9, 29424.398, 0.0, 5.0180683, 4.9835434 
2.332303e+2, 1.4757207e+2, -1465417.6, -1519049.3, -2469.9094, 0.00000042090534, -0.0014534376, -1465304.1, 28489.238, 0.0, 5.0179873, 4.9829636 
2.3323418e+2, 1.5255398e+2, -1420521.0, -1478159.1, -3144.4443, -0.00009020648, 0.0007380326, -1420350.0, 24620.68, 0.0, 5.0179014, 4.9803004 
2.3323767e+2, 1.575343e+2, -1372572.5, -1430952.1, -3224.273, -0.0003238496, -0.001755902, -1372395.0, 23768.475, 0.0, 5.0178127, 4.979742 
2.3324086e+2, 1.6251299e+2, -1327778.1, -1390281.9, -3786.9946, -0.00038886, 0.0008912621, -1327549.5, 19822.92, 0.0, 5.017708, 4.976989 
2.3324375e+2, 1.6749004e+2, -1279790.3, -1342899.9, -3867.85, -0.00028602508, -0.0015034551, -1279554.1, 19043.287, 0.0, 5.0175886, 4.9764876 
2.3324636e+2, 1.7246546e+2, -1235029.9, -1302283.0, -4348.494, -0.00028639918, 0.0008842058, -1234749.9, 15088.481, 0.0, 5.0174594, 4.973701 
2.3324867e+2, 1.7743923e+2, -1186998.1, -1254765.4, -4416.114, -0.000370788, -0.0013833614, -1186711.6, 14383.755, 0.0, 5.0173206, 4.97324 
2.332508e+2, 1.8241139e+2, -1142247.9, -1214210.1, -4812.988, -0.00039577376, 0.001057321, -1141927.4, 10440.66, 0.0, 5.017178, 4.970416 
2.3325269e+2, 1.8738185e+2, -1094147.6, -1166568.6, -4858.595, -0.0003539763, -0.0016033684, -1093823.1, 9834.349, 0.0, 5.0170326, 4.9699845 
2.332544e+2, 1.9235078e+2, -1049410.5, -1126105.4, -5146.0234, -0.00031841997, 0.0009548322, -1049066.8, 5895.453, 0.0, 5.0168815, 4.9671044 
2.3325598e+2, 1.9731794e+2, -1001253.56, -1078337.1, -5182.0347, -0.00026742052, -0.0016281524, -1000906.75, 5377.1133, 0.0, 5.016724, 4.966706 
2.3325744e+2, 2.0228359e+2, -956525.06, -1037953.1, -5374.4893, -0.00023429307, 0.0009931299, -956171.9, 1448.7861, 0.0, 5.016563, 4.963781 
2.332588e+2, 2.0724744e+2, -908325.75, -990102.8, -5408.6177, -0.00021363319, -0.0016496836, -907969.56, 1005.2977, 0.0, 5.0163965, 4.963399 
2.3326012e+2, 2.1220975e+2, -863604.5, -949814.06, -5502.103, -0.00019167193, 0.00106133, -863254.75, -2910.506, 0.0, 5.016228, 4.960415 
2.3326139e+2, 2.1717022e+2, -815333.75, -901845.0, -5523.4966, -0.00016048561, -0.0017541116, -814982.5, -3251.076, 0.0, 5.0160584, 4.9600596 
2.3326267e+2, 2.221292e+2, -770602.6, -861644.3, -5517.0034, -0.00016059939, 0.001087744, -770269.5, -7135.9, 0.0, 5.0158887, 4.9570184 
2.3326398e+2, 2.270863e+2, -722258.4, -813573.56, -5519.797, -0.00019409067, -0.0017566201, -721925.94, -7372.079, 0.0, 5.0157194, 4.9566817 
2.3326534e+2, 2.3204185e+2, -677519.56, -773491.2, -5414.643, -0.00025021445, 0.0010978234, -677215.0, -11225.583, 0.0, 5.015553, 4.953572 
2.3326677e+2, 2.3699553e+2, -629068.8, -725272.75, -5400.373, -0.0003303422, -0.0020036316, -628766.6, -11323.139, 0.0, 5.01539, 4.9532676 
2.3326832e+2, 2.4194767e+2, -584329.7, -685338.9, -5220.03, -0.00035664445, 0.00136885, -584060.6, -15148.105, 0.0, 5.0152287, 4.9500713 
2.3327005e+2, 2.4689788e+2, -535759.94, -636926.75, -5188.418, -0.0003173923, -0.0020107871, -535494.56, -15094.016, 0.0, 5.0150685, 4.949817 
2.3327193e+2, 2.5184646e+2, -491124.47, -597402.8, -4906.0923, -0.00030082613, 0.0012961471, -490898.47, -18994.219, 0.0, 5.0149164, 4.946447 
2.3327401e+2, 2.567931e+2, -442222.06, -548400.75, -4841.075, -0.00032116662, -0.0022792562, -442001.8, -18574.88, 0.0, 5.0147767, 4.946374 
2.3327632e+2, 2.6173812e+2, -397800.28, -509585.22, -4494.04, -0.0002937868, 0.0010060437, -397619.9, -22654.152, 0.0, 5.0146427, 4.9427166 
2.3327892e+2, 2.6668125e+2, -348503.72, -459812.4, -4402.344, -0.00022086978, -0.0023207439, -348329.88, -21806.52, 0.0, 5.014517, 4.942894 
2.3328175e+2, 2.716226e+2, -304354.84, -421832.3, -3950.05, -0.00015335206, 0.0010451922, -304222.2, -26124.088, 0.0, 5.0143957, 4.938899 
2.3328501e+2, 2.7656204e+2, -254669.56, -371286.44, -3830.4622, -0.000018880763, -0.0024675848, -254543.88, -24852.516, 0.0, 5.0142837, 4.9393287 
2.332885e+2, 2.8149977e+2, -210549.69, -333618.3, -3359.8538, 0.00007694462, 0.0016646034, -210458.02, -29156.68, 0.0, 5.0141797, 4.935182 
2.3329242e+2, 2.8643563e+2, -160504.38, -282406.78, -3202.603, 0.000055040684, -0.0032952747, -160420.3, -27490.178, 0.0, 5.014092, 4.9358244 
2.3329663e+2, 2.9136914e+2, -118150.12, -249145.94, -2601.672, 0.0000320241, 0.00091749965, -118098.47, -33516.926, 0.0, 5.0140142, 4.930066 
2.3330145e+2, 2.9630008e+2, -68055.3, -198033.16, -2390.8413, 0.00001557437, -0.0010717208, -68011.336, -31752.79, 0.0, 5.013957, 4.930643 
2.3330654e+2, 3.0123797e+2, -26935.69, -134650.5, -1747.4695, -0.000021651453, 0.0017449069, -26907.348, -26907.348, 0.0, 5.0139046, 4.944578 
2.3331223e+2, 3.061832e+2, -25854.947, -131896.55, -1524.194, 0.00005528869, -0.0057805446, -25833.045, -25833.045, 0.0, 5.0138626, 4.9455867 
2.3331828e+2, 3.11146e+2, 12954.548, -40702.84, -664.93207, 0.00007919683, 0.003607242, 12962.787, 12962.787, 0.0, 5.013831, 4.97899 
2.3332508e+2, 3.1612617e+2, 14812.136, -36321.8, -360.32587, -0.00012323578, -0.0010425422, 14814.675, 14814.675, 0.0, 5.0138264, 4.9806094 
2.3822235e+2, 1.2263146e+2, -1698758.8, -1741687.3, -513.6086, 0.00019790855, 0.00058199064, -1698752.6, 39458.5, 0.0, 5.0182605, 4.9902744 
2.3822859e+2, 1.2762113e+2, -1651425.1, -1695928.0, -632.1305, 0.00028068, -0.0044195927, -1651416.1, 37896.023, 0.0, 5.0182447, 4.989236 
2.3823422e+2, 1.3260958e+2, -1606168.8, -1654320.6, -1534.0122, 0.00006519078, 0.0022833853, -1606120.0, 34305.527, 0.0, 5.0182085, 4.986749 
2.3823935e+2, 1.3759612e+2, -1558393.9, -1607538.1, -1647.137, -0.00025833992, -0.0018752727, -1558338.8, 33218.938, 0.0, 5.0181556, 4.986053 
2.3824401e+2, 1.4258108e+2, -1513408.5, -1566440.4, -2426.3474, -0.00023095425, -0.00005846549, -1513297.6, 29407.545, 0.0, 5.018086, 4.9834437 
2.3824827e+2, 1.4756463e+2, -1465514.5, -1519327.0, -2520.1528, 0.00007023692, -0.0014481074, -1465396.8, 28469.346, 0.0, 5.0180035, 4.9828634 
2.3825209e+2, 1.5254647e+2, -1420609.6, -1478408.6, -3201.1125, 0.000041308827, 0.0007657306, -1420432.9, 24611.422, 0.0, 5.0179152, 4.980211 
2.3825549e+2, 1.575267e+2, -1372670.4, -1431206.0, -3282.4133, -0.00027306945, -0.0017260486, -1372486.9, 23751.098, 0.0, 5.0178227, 4.979652 
2.3825856e+2, 1.625053e+2, -1327884.9, -1390547.4, -3867.096, -0.00044810135, 0.0008872094, -1327647.1, 19800.768, 0.0, 5.0177164, 4.976896 
2.3826133e+2, 1.6748224e+2, -1279895.9, -1343164.0, -3947.49, -0.00047970648, -0.0015779561, -1279650.6, 19023.297, 0.0, 5.0175977, 4.9763947 
2.382638e+2, 1.7245756e+2, -1235114.4, -1302499.9, -4441.105, -0.00046145872, 0.0008297741, -1234823.0, 15092.661, 0.0, 5.0174675, 4.973624 
2.38266e+2, 1.7743127e+2, -1187086.5, -1254983.3, -4508.226, -0.0003752177, -0.0013257904, -1186788.5, 14384.91, 0.0, 5.017327, 4.973163 
2.3826797e+2, 1.824034e+2, -1142306.0, -1214353.4, -4909.649, -0.00032032095, 0.0012246256, -1141973.0, 10473.69, 0.0, 5.017182, 4.970366 
2.3826972e+2, 1.8737383e+2, -1094213.3, -1166713.3, -4957.48, -0.00030061102, -0.0013265711, -1093875.8, 9860.637, 0.0, 5.0170336, 4.969935 
2.382713e+2, 1.9234268e+2, -1049469.5, -1126223.8, -5254.875, -0.00029252906, 0.0011945986, -1049111.4, 5930.097, 0.0, 5.01688, 4.967065 
2.3827271e+2, 1.9730979e+2, -1001318.4, -1078457.9, -5291.534, -0.00027354746, -0.0015885732, -1000957.06, 5406.6177, 0.0, 5.0167203, 4.9666667 
2.3827401e+2, 2.022754e+2, -956588.06, -1038061.56, -5489.905, -0.000257891, 0.0009384518, -956219.8, 1481.1532, 0.0, 5.016557, 4.9637465 
2.3827519e+2, 2.0723921e+2, -908391.4, -990210.8, -5523.074, -0.00023828539, -0.0016737778, -908020.25, 1035.2736, 0.0, 5.0163894, 4.9633656 
2.3827635e+2, 2.1220149e+2, -863653.3, -949878.9, -5618.231, -0.00021416409, 0.0011041847, -863288.8, -2863.6797, 0.0, 5.01622, 4.9603963 
2.3827745e+2, 2.1716198e+2, -815385.06, -901908.1, -5639.7905, -0.00017243286, -0.0016106488, -815019.0, -3206.5664, 0.0, 5.0160484, 4.9600425 
2.3827857e+2, 2.2212094e+2, -770637.8, -861661.2, -5633.3228, -0.00014794637, 0.0012749006, -770290.5, -7075.8555, 0.0, 5.0158763, 4.9570184 
2.382797e+2, 2.2707805e+2, -722300.8, -813590.6, -5637.334, -0.00013800914, -0.0015979345, -721954.0, -7319.1816, 0.0, 5.015704, 4.956683 
2.3828088e+2, 2.320336e+2, -677557.0, -773482.94, -5528.164, -0.00020782437, 0.0011906523, -677239.44, -11169.064, 0.0, 5.0155344, 4.9535832 
2.3828216e+2, 2.3698728e+2, -629111.5, -725264.6, -5512.8, -0.000380451, -0.0020352222, -628796.5, -11272.118, 0.0, 5.0153694, 4.9532795 
2.3828356e+2, 2.4193943e+2, -584368.25, -685312.3, -5329.516, -0.0004422659, 0.0012978402, -584087.6, -15094.276, 0.0, 5.015206, 4.950091 
2.3828511e+2, 2.4688965e+2, -535800.06, -636898.8, -5296.5693, -0.00035559724, -0.0019889497, -535523.4, -15042.192, 0.0, 5.015045, 4.949837 
2.3828684e+2, 2.518383e+2, -491145.78, -597321.56, -5000.785, -0.00030410805, 0.0014379491, -490910.78, -18926.287, 0.0, 5.0148907, 4.946487 
2.382888e+2, 2.56785e+2, -442250.7, -548315.75, -4935.386, -0.00029474188, -0.0019870088, -442021.53, -18514.984, 0.0, 5.014747, 4.9464173 
2.3829097e+2, 2.6173007e+2, -397824.9, -509473.8, -4580.2324, -0.00027149162, 0.0012922911, -397637.3, -22592.457, 0.0, 5.0146093, 4.9427705 
2.3829342e+2, 2.6667318e+2, -348532.34, -459698.75, -4487.089, -0.00027274204, -0.0023167825, -348351.53, -21749.443, 0.0, 5.0144815, 4.94295 
2.3829614e+2, 2.7161458e+2, -304388.66, -421719.72, -4025.641, -0.00027170836, 0.00085607887, -304250.7, -26074.26, 0.0, 5.0143585, 4.9389553 
2.3829927e+2, 2.765541e+2, -254708.31, -371175.9, -3901.7678, -0.00017204681, -0.0026712916, -254577.75, -24808.494, 0.0, 5.0142446, 4.939385 
2.3830266e+2, 2.814919e+2, -210570.45, -333454.25, -3414.979, -0.0000361822, 0.001532078, -210475.63, -29097.012, 0.0, 5.014138, 4.9352584 
2.3830651e+2, 2.8642786e+2, -160528.56, -282233.03, -3254.9297, 0.00012999366, -0.0031891873, -160441.58, -27435.178, 0.0, 5.014047, 4.9359055 
2.3831065e+2, 2.9136148e+2, -118175.88, -248957.14, -2636.56, 0.00015695278, 0.0011679761, -118122.75, -33465.887, 0.0, 5.013966, 4.9301543 
2.3831539e+2, 2.9629248e+2, -68089.47, -197843.73, -2421.1409, -0.00012406381, -0.00090503646, -68044.305, -31711.338, 0.0, 5.013905, 4.930733 
2.3832043e+2, 3.0123046e+2, -26974.03, -134454.33, -1770.0255, -0.00027838477, 0.0018137785, -26944.889, -26944.889, 0.0, 5.0138493, 4.9446726 
2.383261e+2, 3.0617577e+2, -25897.092, -131699.42, -1541.2701, 0.00006285971, -0.0058186497, -25874.645, -25874.645, 0.0, 5.013805, 4.9456825 
2.3833212e+2, 3.1113866e+2, 12926.361, -40463.35, -659.8166, 0.00019192859, 0.003512245, 12934.515, 12934.515, 0.0, 5.0137715, 4.979104 
2.3833887e+2, 3.1611896e+2, 14781.515, -36069.91, -344.61475, -0.00033835645, -0.001063923, 14783.851, 14783.851, 0.0, 5.013763, 4.980729 
2.4324086e+2, 1.22624636e+2, -1697635.8, -1741427.0, -525.19183, 0.000378474, 0.00045343523, -1697629.5, 40648.61, 0.0, 5.018697, 4.9901457 
2.4324705e+2, 1.2761422e+2, -1650414.9, -1695725.4, -658.1435, 0.000239548, -0.0041480437, -1650405.4, 38974.754, 0.0, 5.018645, 4.9891067 
2.4325262e+2, 1.3260254e+2, -1605214.9, -1654114.8, -1581.7518, -0.000021126629, 0.0026111172, -1605163.8, 35330.848, 0.0, 5.0185833, 4.9866343 
2.4325769e+2, 1.3758895e+2, -1557487.3, -1607357.5, -1688.0814, -0.00022294463, -0.0018186453, -1557430.3, 34197.85, 0.0, 5.018515, 4.9859376 
2.4326228e+2, 1.4257376e+2, -1512549.8, -1566270.9, -2494.286, -0.00020652059, -0.00005432299, -1512434.1, 30342.654, 0.0, 5.018428, 4.983334 
2.4326643e+2, 1.4755724e+2, -1464722.1, -1519191.5, -2600.662, -0.000040324237, -0.0012926799, -1464598.3, 29340.41, 0.0, 5.0183234, 4.982754 
2.4327016e+2, 1.5253897e+2, -1419879.1, -1478274.8, -3303.0571, -0.000048452435, 0.0009795027, -1419692.9, 25424.928, 0.0, 5.0182085, 4.980114 
2.4327345e+2, 1.5751912e+2, -1372035.5, -1431119.9, -3394.2673, -0.00019401294, -0.0015473834, -1371841.1, 24471.328, 0.0, 5.0180845, 4.979555 
2.4327642e+2, 1.6249761e+2, -1327307.0, -1390472.4, -3993.5608, -0.00033370874, 0.0010503212, -1327055.5, 20467.791, 0.0, 5.017956, 4.9768066 
2.4327904e+2, 1.6747446e+2, -1279358.5, -1343108.8, -4072.401, -0.0004600661, -0.0014110456, -1279099.4, 19650.732, 0.0, 5.017823, 4.9763055 
2.4328138e+2, 1.7244971e+2, -1234605.5, -1302419.4, -4581.872, -0.00050026254, 0.00093627314, -1234297.4, 15695.348, 0.0, 5.0176754, 4.9735527 
2.4328342e+2, 1.7742334e+2, -1186644.8, -1254936.1, -4645.7476, -0.000437954, -0.0013416773, -1186330.1, 14921.107, 0.0, 5.0175123, 4.9730916 
2.4328524e+2, 1.8239538e+2, -1141927.6, -1214314.0, -5060.7603, -0.00037872553, 0.0011878009, -1141575.5, 10949.697, 0.0, 5.017341, 4.970304 
2.4328682e+2, 1.8736576e+2, -1093925.5, -1166718.0, -5122.5054, -0.0003251693, -0.0012803999, -1093566.8, 10248.808, 0.0, 5.0171623, 4.969873 
2.4328822e+2, 1.9233458e+2, -1049237.4, -1126211.5, -5435.671, -0.0002818656, 0.0013162784, -1048855.5, 6265.6323, 0.0, 5.01698, 4.967022 
2.4328946e+2, 1.9730166e+2, -1001160.0, -1078479.1, -5476.9126, -0.00023132245, -0.0014004242, -1000773.94, 5669.694, 0.0, 5.016795, 4.9666243 
2.432906e+2, 2.0226721e+2, -956479.0, -1038073.6, -5677.904, -0.00019667903, 0.0011259497, -956085.8, 1695.414, 0.0, 5.016608, 4.963719 
2.4329162e+2, 2.0723099e+2, -908342.4, -990249.0, -5704.867, -0.00017049766, -0.0015674795, -907946.94, 1189.1837, 0.0, 5.0164194, 4.9633384 
2.4329257e+2, 2.1219325e+2, -863654.25, -949921.3, -5799.8623, -0.0001781621, 0.00115071, -863266.06, -2760.1423, 0.0, 5.016228, 4.960378 
2.432935e+2, 2.1715371e+2, -815447.0, -901977.25, -5822.618, -0.00021318161, -0.0016013434, -815056.94, -3163.4597, 0.0, 5.016035, 4.960025 
2.4329442e+2, 2.2211266e+2, -770757.8, -861731.25, -5824.1855, -0.00020636144, 0.0013003306, -770386.5, -7090.665, 0.0, 5.015837, 4.957012 
2.4329537e+2, 2.2706978e+2, -722507.2, -813698.3, -5835.5674, -0.00013465002, -0.0014838096, -722135.25, -7419.235, 0.0, 5.015634, 4.956678 
2.4329637e+2, 2.3202534e+2, -677820.4, -773574.1, -5722.1675, -0.0001537765, 0.0013605548, -677479.6, -11328.12, 0.0, 5.0154357, 4.9535966 
2.4329747e+2, 2.3697904e+2, -629445.1, -725383.6, -5703.0347, -0.00029157274, -0.0018577077, -629107.3, -11501.997, 0.0, 5.0152445, 4.9532948 
2.432987e+2, 2.419312e+2, -584752.2, -685431.56, -5509.3027, -0.00036469003, 0.0014325755, -584451.6, -15377.527, 0.0, 5.0150585, 4.950116 
2.4330007e+2, 2.4688144e+2, -536231.9, -637036.44, -5469.4775, -0.0003607589, -0.0019750425, -535936.0, -15374.244, 0.0, 5.014879, 4.949864 
2.4330162e+2, 2.518301e+2, -491633.3, -597465.8, -5167.046, -0.00036080045, 0.0014057797, -491381.66, -19316.82, 0.0, 5.0147014, 4.9465213 
2.4330342e+2, 2.5677687e+2, -442827.38, -548496.7, -5108.4814, -0.00033597523, -0.001947575, -442581.0, -18994.463, 0.0, 5.0145245, 4.9464526 
2.4330543e+2, 2.6172197e+2, -398459.72, -509640.3, -4743.8047, -0.00027509153, 0.0014003718, -398257.7, -23133.32, 0.0, 5.014358, 4.9428234 
2.4330777e+2, 2.6666516e+2, -349223.34, -459882.44, -4647.471, -0.00021069929, -0.002150272, -349028.5, -22347.553, 0.0, 5.0142074, 4.943006 
2.4331033e+2, 2.716066e+2, -305124.7, -421900.03, -4171.403, -0.00022120711, 0.0010200997, -304975.88, -26721.186, 0.0, 5.0140634, 4.9390216 
2.4331333e+2, 2.7654618e+2, -255491.64, -371371.4, -4032.402, -0.00027179177, -0.0026268072, -255351.48, -25504.582, 0.0, 5.0139303, 4.939453 
2.4331659e+2, 2.8148407e+2, -211400.25, -333651.13, -3526.171, -0.00019660199, 0.001494237, -211298.63, -29842.998, 0.0, 5.0138035, 4.9353347 
2.4332036e+2, 2.8642008e+2, -161423.27, -282452.66, -3366.0107, 0.0000995043, -0.0032230297, -161329.73, -28247.021, 0.0, 5.0136867, 4.9359837 
2.433244e+2, 2.913538e+2, -119131.72, -249186.97, -2732.8445, 0.00017544723, 0.0011620686, -119074.32, -34341.938, 0.0, 5.01358, 4.930239 
2.4332906e+2, 2.9628488e+2, -69110.695, -198096.13, -2515.2058, -0.0002463851, -0.000842123, -69061.664, -32654.104, 0.0, 5.0134926, 4.93082 
2.4333401e+2, 3.0122295e+2, -28034.352, -134688.47, -1850.023, -0.00045046344, 0.0019130866, -28002.27, -28002.27, 0.0, 5.0134144, 4.9447746 
2.4333964e+2, 3.0616838e+2, -26991.79, -131937.94, -1605.345, 0.000068341506, -0.0057648425, -26967.238, -26967.238, 0.0, 5.0133553, 4.9457893 
2.4334563e+2, 3.111314e+2, 11819.373, -40666.316, -693.4287, 0.0002570248, 0.003521879, 11828.533, 11828.533, 0.0, 5.013306, 4.979228 
2.4335234e+2, 3.1611177e+2, 13634.864, -36277.395, -359.82584, -0.00052134215, -0.0010765012, 13637.458, 13637.458, 0.0, 5.0132804, 4.980859 
2.4825956e+2, 1.22617796e+2, -1697756.4, -1741802.9, -547.8727, 0.0004943283, 0.00022397982, -1697749.6, 40595.63, 0.0, 5.018725, 4.9900084 
2.4826565e+2, 1.2760732e+2, -1650544.0, -1696105.4, -680.81995, 0.00012090806, -0.0035164752, -1650533.9, 38914.04, 0.0, 5.0186696, 4.9889693 
2.482712e+2, 1.3259554e+2, -1605313.6, -1654420.3, -1616.8092, -0.00011943786, 0.0033742646, -1605260.5, 35302.938, 0.0, 5.018605, 4.9865227 
2.4827622e+2, 1.3758177e+2, -1557593.1, -1607667.5, -1724.4474, -0.00006245421, -0.0016277981, -1557533.8, 34164.543, 0.0, 5.0185347, 4.9858255 
2.4828073e+2, 1.4256647e+2, -1512665.1, -1566595.3, -2556.763, -0.00008956194, -0.000032160155, -1512544.1, 30304.182, 0.0, 5.018446, 4.9832177 
2.4828474e+2, 1.4754985e+2, -1464838.1, -1519516.1, -2662.948, -0.0002515162, -0.0010594169, -1464708.8, 29302.56, 0.0, 5.0183415, 4.9826374 
2.4828835e+2, 1.5253147e+2, -1419976.0, -1478557.4, -3380.238, -0.00026568855, 0.0012893106, -1419781.6, 25409.941, 0.0, 5.0182257, 4.9800115 
2.4829155e+2, 1.575115e+2, -1372134.1, -1431403.4, -3474.6936, -0.000106768995, -0.0012930311, -1371931.1, 24456.014, 0.0, 5.018101, 4.9794526 
2.4829438e+2, 1.6248992e+2, -1327393.9, -1390718.1, -4080.9646, -0.00012860337, 0.0012996746, -1327131.9, 20466.943, 0.0, 5.017969, 4.976718 
2.4829687e+2, 1.6746667e+2, -1279458.5, -1343359.6, -4160.295, -0.00032409801, -0.0011156686, -1279188.8, 19637.752, 0.0, 5.017832, 4.9762173 
2.4829905e+2, 1.7244184e+2, -1234687.6, -1302619.1, -4691.7515, -0.00046297128, 0.0011289425, -1234365.1, 15704.782, 0.0, 5.017681, 4.973483 
2.4830092e+2, 1.7741537e+2, -1186729.8, -1255138.1, -4756.089, -0.000531603, -0.0013993812, -1186400.6, 14928.645, 0.0, 5.017517, 4.973021 
2.4830256e+2, 1.8238734e+2, -1142012.9, -1214513.3, -5181.479, -0.00051275594, 0.0010362738, -1141644.4, 10959.587, 0.0, 5.017345, 4.970235 
2.4830396e+2, 1.8735765e+2, -1094013.8, -1166920.8, -5241.0767, -0.00039723163, -0.0013700776, -1093638.9, 10256.214, 0.0, 5.017165, 4.969803 
2.483052e+2, 1.9232641e+2, -1049296.4, -1126344.4, -5558.107, -0.00028515357, 0.0013611885, -1048897.5, 6303.7144, 0.0, 5.0169816, 4.9669766 
2.4830627e+2, 1.9729349e+2, -1001224.25, -1078611.5, -5601.048, -0.00016937927, -0.0011431777, -1000821.0, 5702.953, 0.0, 5.016794, 4.96658 
2.4830721e+2, 2.02259e+2, -956525.5, -1038152.8, -5806.015, -0.000096583455, 0.0014380293, -956114.56, 1747.1813, 0.0, 5.016604, 4.963694 
2.4830805e+2, 2.0722274e+2, -908397.7, -990329.56, -5834.8853, -0.000058327565, -0.0013938271, -907984.25, 1232.6881, 0.0, 5.0164113, 4.963315 
2.4830881e+2, 2.1218498e+2, -863711.06, -949991.0, -5932.9253, -0.00011396506, 0.0011966322, -863305.0, -2717.9448, 0.0, 5.016217, 4.9603596 
2.4830951e+2, 2.171454e+2, -815508.1, -902047.3, -5954.0864, -0.00027160335, -0.0016692645, -815100.4, -3125.482, 0.0, 5.016022, 4.9600067 
2.4831024e+2, 2.2210434e+2, -770810.7, -861778.3, -5961.1924, -0.00030697865, 0.0012311081, -770421.7, -7044.2803, 0.0, 5.0158234, 4.957002 
2.4831098e+2, 2.2706147e+2, -722558.2, -813742.7, -5971.78, -0.00016868113, -0.0014036067, -722168.8, -7371.1045, 0.0, 5.01562, 4.956669 
2.4831182e+2, 2.3201704e+2, -677846.2, -773553.8, -5850.1855, -0.00010369646, 0.0015613359, -677489.94, -11256.904, 0.0, 5.01542, 4.953611 
2.4831273e+2, 2.3697075e+2, -629481.2, -725362.7, -5832.115, -0.00013515611, -0.0015748203, -629127.75, -11441.222, 0.0, 5.015224, 4.9533114 
2.4831377e+2, 2.4192293e+2, -584784.5, -685382.44, -5630.94, -0.00020346965, 0.0016755237, -584470.3, -15315.175, 0.0, 5.015034, 4.9501443 
2.4831495e+2, 2.4687319e+2, -536269.8, -636986.4, -5590.004, -0.00035047377, -0.0019665274, -535960.5, -15317.87, 0.0, 5.0148525, 4.9498935 
2.4831632e+2, 2.5182188e+2, -491674.28, -597413.1, -5285.234, -0.00044969327, 0.0012763947, -491410.75, -19265.24, 0.0, 5.0146728, 4.9465528 
2.4831793e+2, 2.5676864e+2, -442869.44, -548443.94, -5224.213, -0.00042118382, -0.002051773, -442611.53, -18944.555, 0.0, 5.0144954, 4.9464846 
2.4831979e+2, 2.617138e+2, -398480.8, -509530.1, -4841.5796, -0.00030294884, 0.0014020631, -398270.13, -23065.746, 0.0, 5.0143266, 4.9428763 
2.4832198e+2, 2.6665708e+2, -349252.22, -459767.1, -4743.679, -0.00009603377, -0.0019049144, -349048.97, -22288.785, 0.0, 5.0141716, 4.9430623 
2.4832442e+2, 2.715986e+2, -305146.06, -421746.75, -4258.273, -0.0000856335, 0.0013700265, -304990.75, -26657.604, 0.0, 5.0140233, 4.939093 
2.4832726e+2, 2.7653825e+2, -255517.98, -371213.2, -4117.512, -0.00034788522, -0.0024492266, -255371.63, -25446.916, 0.0, 5.0138874, 4.939528 
2.4833038e+2, 2.814762e+2, -211432.06, -333491.4, -3601.22, -0.000388941, 0.0015086196, -211325.9, -29793.11, 0.0, 5.0137577, 4.935411 
2.4833404e+2, 2.8641227e+2, -161459.64, -282294.25, -3436.4795, 0.0000034368843, -0.0033328868, -161361.98, -28202.684, 0.0, 5.0136395, 4.936061 
2.4833798e+2, 2.9134604e+2, -119167.15, -249012.9, -2783.9675, 0.000126342, 0.0010148708, -119107.49, -34299.203, 0.0, 5.01353, 4.9303226 
2.4834253e+2, 2.9627725e+2, -69156.125, -197922.28, -2560.4128, -0.0003690302, -0.00084111205, -69105.23, -32622.705, 0.0, 5.0134387, 4.930906 
2.483474e+2, 3.012154e+2, -28066.973, -134464.6, -1879.818, -0.00058693317, 0.002022005, -28033.77, -28033.77, 0.0, 5.013356, 4.9448805 
2.4835299e+2, 3.0616096e+2, -27023.885, -131699.16, -1629.7788, 0.00006168489, -0.005666474, -26998.516, -26998.516, 0.0, 5.013294, 4.9459014 
2.4835894e+2, 3.1112406e+2, 11798.176, -40388.6, -701.07587, 0.0002833293, 0.0035840387, 11807.592, 11807.592, 0.0, 5.0132422, 4.9793577 
2.483656e+2, 3.1610462e+2, 13608.077, -35990.215, -359.43884, -0.0007076732, -0.0010819377, 13610.682, 13610.682, 0.0, 5.013212, 4.980994 
2.5327855e+2, 1.22611135e+2, -1696577.5, -1741544.9, -544.7513, 0.00067213894, 0.0010500932, -1696571.0, 41839.63, 0.0, 5.019186, 4.9898663 
2.5328454e+2, 1.2760046e+2, -1649461.5, -1695896.6, -684.77783, -0.000012105932, -0.0032888746, -1649451.4, 40064.01, 0.0, 5.0190997, 4.988827 
2.5329e+2, 1.3258852e+2, -1604283.4, -1654185.0, -1637.3354, -0.00028294593, 0.0033971204, -1604229.8, 36402.715, 0.0, 5.019007, 4.986404 
2.5329494e+2, 1.3757466e+2, -1556641.9, -1607473.0, -1755.1829, 0.00001642801, -0.0014208918, -1556581.4, 35186.83, 0.0, 5.0189114, 4.985707 
2.5329936e+2, 1.4255923e+2, -1511770.8, -1566420.1, -2612.2651, 0.00005455103, 0.00018665615, -1511646.1, 31273.12, 0.0, 5.018802, 4.9831033 
2.5330326e+2, 1.4754249e+2, -1463994.1, -1519367.3, -2719.4397, -0.0002127703, -0.000998974, -1463860.9, 30222.652, 0.0, 5.0186815, 4.9825225 
2.5330675e+2, 1.5252398e+2, -1419188.6, -1478443.0, -3460.6084, -0.00029670852, 0.0012918762, -1418987.1, 26277.777, 0.0, 5.0185485, 4.979894 
2.5330982e+2, 1.5750392e+2, -1371403.8, -1431318.4, -3573.1003, -0.00017512919, -0.0012519929, -1371191.4, 25270.252, 0.0, 5.0184054, 4.9793353 
2.533125e+2, 1.624822e+2, -1326712.9, -1390595.6, -4207.7666, -0.00016432455, 0.0013814035, -1326436.9, 21237.52, 0.0, 5.0182443, 4.9766273 
2.5331482e+2, 1.6745889e+2, -1278897.5, -1343295.9, -4291.4194, -0.00025804088, -0.0009905624, -1278612.8, 20290.174, 0.0, 5.0180664, 4.976127 
2.5331685e+2, 1.7243397e+2, -1234189.8, -1302542.3, -4836.7065, -0.00034569047, 0.0012908971, -1233849.1, 16297.914, 0.0, 5.017885, 4.973412 
2.5331855e+2, 1.7740744e+2, -1186291.4, -1255090.9, -4903.8535, -0.0004123161, -0.0012064383, -1185943.6, 15463.377, 0.0, 5.017701, 4.97295 
2.5332e+2, 1.8237935e+2, -1141612.3, -1214457.3, -5336.96, -0.00043443262, 0.0011613056, -1141223.4, 11459.027, 0.0, 5.017511, 4.9701757 
2.533212e+2, 1.8734957e+2, -1093669.3, -1166893.5, -5387.651, -0.00040516103, -0.0014218761, -1093275.0, 10699.209, 0.0, 5.017312, 4.9697433 
2.5332224e+2, 1.9231829e+2, -1049011.8, -1126330.3, -5713.234, -0.00034164902, 0.0012347173, -1048591.9, 6689.0, 0.0, 5.017105, 4.9669237 
2.533231e+2, 1.972853e+2, -1001021.7, -1078635.9, -5766.0034, -0.0002386062, -0.0012294711, -1000595.7, 6008.4883, 0.0, 5.016889, 4.9665275 
2.5332385e+2, 2.0225078e+2, -956386.8, -1038164.6, -5986.4565, -0.00013959788, 0.0014442184, -955950.9, 1991.5269, 0.0, 5.016668, 4.9636602 
2.5332445e+2, 2.072145e+2, -908355.94, -990384.44, -6025.499, -0.000029810193, -0.001238447, -907915.7, 1382.0876, 0.0, 5.016441, 4.9632826 
2.5332505e+2, 2.1217673e+2, -863726.4, -950025.06, -6123.596, -0.000019954527, 0.0014113991, -863294.0, -2625.9185, 0.0, 5.016217, 4.9603477 
2.5332552e+2, 2.1713713e+2, -815592.2, -902109.8, -6136.799, -0.000118435586, -0.0015066019, -815159.06, -3103.0571, 0.0, 5.0159974, 4.9599967 
2.5332606e+2, 2.2209606e+2, -770943.25, -861848.06, -6137.8003, -0.00019567413, 0.001320525, -770530.7, -7072.054, 0.0, 5.0157785, 4.956999 
2.5332657e+2, 2.2705317e+2, -722728.56, -813828.3, -6142.275, -0.00022458169, -0.0014188123, -722316.25, -7437.243, 0.0, 5.0155616, 4.956666 
2.533272e+2, 2.3200874e+2, -678072.3, -773645.4, -6026.036, -0.00021351589, 0.0015277122, -677693.9, -11379.444, 0.0, 5.0153375, 4.9536166 
2.5332788e+2, 2.3696248e+2, -629813.9, -725501.06, -6018.7417, -0.00013394258, -0.0015032827, -629436.8, -11668.988, 0.0, 5.0151033, 4.953318 
2.533287e+2, 2.4191467e+2, -585185.3, -685502.5, -5809.119, -0.000101405436, 0.0018327298, -584850.06, -15613.893, 0.0, 5.014879, 4.9501724 
2.5332972e+2, 2.4686496e+2, -536743.1, -637132.7, -5765.2627, -0.0001694199, -0.0017625607, -536413.1, -15689.858, 0.0, 5.01467, 4.9499245 
2.533309e+2, 2.5181368e+2, -492197.6, -597558.06, -5447.881, -0.00029763405, 0.0014515619, -491916.66, -19690.813, 0.0, 5.0144672, 4.9465938 
2.5333232e+2, 2.567605e+2, -443432.34, -548602.56, -5373.9673, -0.00046695786, -0.0020257635, -443158.44, -19411.47, 0.0, 5.0142746, 4.946527 
2.5333396e+2, 2.617057e+2, -399096.66, -509697.9, -4978.534, -0.0004308174, 0.0013533538, -398873.0, -23588.984, 0.0, 5.014084, 4.942925 
2.53336e+2, 2.66649e+2, -349960.13, -459972.84, -4885.659, -0.000095470816, -0.0018953437, -349743.6, -22904.248, 0.0, 5.0138946, 4.9431124 
2.5333828e+2, 2.7159062e+2, -305919.06, -421940.88, -4391.201, -0.000022660783, 0.0014506818, -305753.1, -27341.367, 0.0, 5.0137143, 4.9391603 
2.5334093e+2, 2.765303e+2, -256356.3, -371426.75, -4250.4033, -0.00036399218, -0.0022809936, -256199.5, -26197.008, 0.0, 5.013552, 4.939599 
2.5334394e+2, 2.8146836e+2, -212315.3, -333690.88, -3718.5188, -0.0004552818, 0.0017103632, -212201.48, -30591.697, 0.0, 5.013399, 4.935497 
2.5334746e+2, 2.8640452e+2, -162384.39, -282502.56, -3537.822, -0.000040278494, -0.0032070917, -162280.28, -29044.842, 0.0, 5.013263, 4.93615 
2.5335127e+2, 2.9133835e+2, -120148.484, -249245.08, -2863.0212, 0.00007284575, 0.0010745858, -120085.016, -35201.42, 0.0, 5.0131326, 4.9304113 
2.533557e+2, 2.9626966e+2, -70213.32, -198186.25, -2631.7234, -0.0005063691, -0.00082110096, -70159.22, -33602.22, 0.0, 5.0130124, 4.9309945 
2.5336048e+2, 3.0120793e+2, -29171.627, -134712.75, -1929.2609, -0.0007471126, 0.0020184244, -29136.373, -29136.373, 0.0, 5.0129037, 4.944985 
2.5336602e+2, 3.0615357e+2, -28173.438, -131955.9, -1674.4299, 0.000018460054, -0.0056545218, -28146.43, -28146.43, 0.0, 5.012823, 4.9460106 
2.533719e+2, 3.1111678e+2, 10629.594, -40606.35, -731.45044, 0.00027655635, 0.003621896, 10640.034, 10640.034, 0.0, 5.0127516, 4.979487 
2.5337848e+2, 3.1609747e+2, 12390.029, -36215.21, -381.6199, -0.0008849635, -0.0009749105, 12393.025, 12393.025, 0.0, 5.0127, 4.9811296 
2.5829774e+2, 1.2260437e+2, -1696727.9, -1741963.1, -590.3252, 0.0005689721, 0.0005067325, -1696720.3, 41756.793, 0.0, 5.01921, 4.9897175 
2.583036e+2, 1.275936e+2, -1649601.9, -1696302.4, -726.50995, -0.00014873165, -0.0032585114, -1649590.5, 39992.258, 0.0, 5.019125, 4.9886813 
2.5830898e+2, 1.3258149e+2, -1604390.1, -1654524.5, -1685.8503, -0.00048735988, 0.002981102, -1604333.5, 36368.164, 0.0, 5.019033, 4.9862795 
2.5831386e+2, 1.3756755e+2, -1556748.6, -1607812.3, -1806.653, 0.000043498225, -0.0012123544, -1556684.8, 35153.23, 0.0, 5.018937, 4.985582 
2.583182e+2, 1.4255203e+2, -1511868.6, -1566733.0, -2683.7231, 0.00020724906, 0.0005184867, -1511737.8, 31252.346, 0.0, 5.0188255, 4.9829884 
2.5832197e+2, 1.4753515e+2, -1464102.1, -1519685.3, -2792.927, -0.00004051501, -0.0010342706, -1463962.1, 30193.535, 0.0, 5.0187016, 4.9824076 
2.5832528e+2, 1.525165e+2, -1419319.6, -1478798.8, -3549.9868, -0.00022570654, 0.0011217863, -1419108.5, 26229.963, 0.0, 5.018566, 4.9797673 
2.583282e+2, 1.574963e+2, -1371536.8, -1431674.8, -3662.1895, -0.00032696742, -0.0013307872, -1371314.6, 25221.734, 0.0, 5.0184216, 4.979208 
2.5833073e+2, 1.624745e+2, -1326799.5, -1390851.5, -4321.2056, -0.00033271307, 0.001366977, -1326509.3, 21240.771, 0.0, 5.0182595, 4.9765344 
2.583329e+2, 1.674511e+2, -1278986.4, -1343552.0, -4405.9463, -0.00023617395, -0.00096856896, -1278687.1, 20292.402, 0.0, 5.0180807, 4.976034 
2.5833476e+2, 1.724261e+2, -1234258.9, -1302743.9, -4956.9023, -0.00019344855, 0.0014241945, -1233901.9, 16322.485, 0.0, 5.0178967, 4.9733386 
2.5833628e+2, 1.7739952e+2, -1186373.1, -1255297.6, -5026.0728, -0.00018402754, -0.0008890063, -1186008.6, 15476.242, 0.0, 5.0177083, 4.972877 
2.5833753e+2, 1.8237133e+2, -1141679.6, -1214615.3, -5471.7715, -0.0002441848, 0.0014296009, -1141271.4, 11489.466, 0.0, 5.0175138, 4.970121 
2.5833854e+2, 1.873415e+2, -1093745.0, -1167055.6, -5524.125, -0.00037946363, -0.0014527405, -1093331.1, 10722.16, 0.0, 5.0173125, 4.9696884 
2.5833935e+2, 1.9231012e+2, -1049096.1, -1126501.6, -5860.6646, -0.00042846714, 0.0010175335, -1048654.9, 6705.801, 0.0, 5.017103, 4.9668665 
2.5833997e+2, 1.9727707e+2, -1001108.2, -1078808.6, -5910.602, -0.00038096757, -0.0015053434, -1000661.1, 6023.544, 0.0, 5.016886, 4.9664702 
2.583405e+2, 2.0224252e+2, -956450.4, -1038284.56, -6136.456, -0.0002641833, 0.0012756021, -955992.8, 2030.6084, 0.0, 5.0166645, 4.963621 
2.5834092e+2, 2.0720623e+2, -908420.0, -990501.8, -6175.2744, -0.000056948527, -0.001108348, -907958.0, 1420.9319, 0.0, 5.0164366, 4.9632444 
2.5834128e+2, 2.1216844e+2, -863759.44, -950060.75, -6270.1772, 0.00007721434, 0.0017024962, -863306.25, -2556.9138, 0.0, 5.01621, 4.960339 
2.5834155e+2, 2.1712886e+2, -815637.94, -902146.2, -6285.7656, 0.00013816773, -0.0012288495, -815183.56, -3046.3406, 0.0, 5.0159845, 4.9599905 
2.5834185e+2, 2.2208776e+2, -770992.4, -861871.5, -6285.301, 0.000023446617, 0.0014926039, -770559.75, -7019.7974, 0.0, 5.0157614, 4.956999 
2.5834215e+2, 2.2704485e+2, -722782.75, -813852.44, -6287.98, -0.00029170723, -0.0014859958, -722350.7, -7390.144, 0.0, 5.0155425, 4.9566665 
2.583425e+2, 2.3200041e+2, -678127.5, -773668.25, -6181.584, -0.00040963755, 0.0013655282, -677729.2, -11333.155, 0.0, 5.0153174, 4.953618 
2.5834298e+2, 2.3695417e+2, -629865.0, -725521.7, -6172.9463, -0.00022446318, -0.0015538535, -629468.3, -11618.874, 0.0, 5.0150847, 4.9533195 
2.583436e+2, 2.4190639e+2, -585206.06, -685448.8, -5945.9307, -0.000043702275, 0.0019315218, -584854.6, -15537.052, 0.0, 5.014859, 4.9502 
2.583444e+2, 2.4685672e+2, -536774.7, -637076.0, -5902.3447, 0.00009140221, -0.0014642429, -536428.5, -15624.388, 0.0, 5.0146446, 4.949956 
2.5834537e+2, 2.5180548e+2, -492223.2, -597463.94, -5575.9336, -0.000023486911, 0.0017840246, -491928.6, -19622.371, 0.0, 5.0144367, 4.9466405 
2.583466e+2, 2.567523e+2, -443465.2, -548506.4, -5500.9575, -0.00049351854, -0.0019313018, -443177.88, -19350.861, 0.0, 5.0142407, 4.946576 
2.5834802e+2, 2.6169753e+2, -399138.47, -509609.38, -5102.381, -0.00061504846, 0.0012782437, -398903.28, -23539.592, 0.0, 5.014047, 4.942972 
2.583499e+2, 2.6664093e+2, -350003.88, -459886.13, -5006.232, -0.00016441429, -0.0020146011, -349776.28, -22857.564, 0.0, 5.013858, 4.9431596 
2.5835198e+2, 2.7158257e+2, -305945.1, -421804.06, -4493.4326, -0.000009702211, 0.0013801764, -305771.1, -27280.496, 0.0, 5.0136757, 4.9392257 
2.5835449e+2, 2.7652237e+2, -256390.02, -371284.53, -4348.705, -0.00035804874, -0.0021266993, -256225.64, -26145.111, 0.0, 5.0135093, 4.939668 
2.5835732e+2, 2.814605e+2, -212335.13, -333494.13, -3801.4543, -0.00046335618, 0.002003704, -212215.97, -30529.04, 0.0, 5.013352, 4.9355874 
2.583607e+2, 2.8639674e+2, -162408.52, -282295.94, -3618.459, -0.00006366346, -0.0029610018, -162299.4, -28987.785, 0.0, 5.013212, 4.936246 
2.583644e+2, 2.913307e+2, -120186.55, -249052.42, -2935.389, 0.000010272494, 0.0012418869, -120119.72, -35160.88, 0.0, 5.013078, 4.930504 
2.583687e+2, 2.9626206e+2, -70260.86, -198000.56, -2700.2258, -0.00065956416, -0.0007925722, -70203.805, -33572.344, 0.0, 5.0129547, 4.9310856 
2.5837338e+2, 3.0120042e+2, -29212.906, -134497.33, -1974.5046, -0.0009297202, 0.0019543045, -29175.889, -29175.889, 0.0, 5.012843, 4.9450884 
2.5837883e+2, 3.0614614e+2, -28219.234, -131733.69, -1709.9132, -0.00005525351, -0.0056901607, -28190.998, -28190.998, 0.0, 5.012759, 4.9461184 
2.5838464e+2, 3.1110948e+2, 10598.142, -40333.605, -750.9768, 0.00023958394, 0.0036430017, 10609.213, 10609.213, 0.0, 5.012684, 4.979616 
2.5839117e+2, 3.1609038e+2, 12353.421, -35929.516, -392.9712, -0.0010774088, -0.0008141014, 12356.619, 12356.619, 0.0, 5.0126276, 4.981266 
2.6331714e+2, 1.2259775e+2, -1695563.5, -1741700.8, -571.4351, 0.00027773422, 0.0005011911, -1695556.4, 42985.727, 0.0, 5.0196643, 4.98958 
2.63323e+2, 1.2758698e+2, -1648461.5, -1696046.9, -697.9168, 0.0000028420363, -0.002045156, -1648451.3, 41196.598, 0.0, 5.019571, 4.9885473 
2.6332822e+2, 1.3257453e+2, -1603298.0, -1654310.8, -1672.5598, -0.0005728411, 0.0022820428, -1603243.3, 37526.7, 0.0, 5.019467, 4.9861383 
2.6333305e+2, 1.3756055e+2, -1555703.4, -1607622.8, -1813.6678, 0.000016938595, -0.0010105795, -1555640.1, 36266.723, 0.0, 5.019356, 4.9854407 
2.6333722e+2, 1.4254493e+2, -1510871.9, -1566529.6, -2733.3994, 0.00023540604, 0.0010269476, -1510738.0, 32321.97, 0.0, 5.019221, 4.982864 
2.6334086e+2, 1.4752786e+2, -1463204.3, -1519531.8, -2854.6318, 0.000023003859, -0.0008403895, -1463059.9, 31167.117, 0.0, 5.019064, 4.982283 
2.6334402e+2, 1.525091e+2, -1418499.5, -1478682.3, -3624.9463, -0.00013195738, 0.0011783796, -1418282.0, 27129.096, 0.0, 5.018903, 4.9796443 
2.633468e+2, 1.5748878e+2, -1370778.9, -1431589.5, -3736.4055, -0.0002085718, -0.001225648, -1370550.1, 26059.912, 0.0, 5.0187383, 4.979085 
2.6334915e+2, 1.6246685e+2, -1326066.4, -1390719.1, -4422.33, -0.00026463295, 0.0014277091, -1325765.4, 22059.604, 0.0, 5.018555, 4.9764376 
2.6335114e+2, 1.6744335e+2, -1278316.6, -1343450.6, -4513.501, -0.0002965717, -0.0010550469, -1278005.3, 21050.162, 0.0, 5.0183554, 4.9759374 
2.6335275e+2, 1.7241825e+2, -1233662.5, -1302656.1, -5089.2285, -0.00026931253, 0.0013030773, -1233289.1, 17012.123, 0.0, 5.0181417, 4.973252 
2.633541e+2, 1.7739159e+2, -1185890.6, -1255264.0, -5174.054, -0.00015122155, -0.0009248034, -1185506.8, 16055.792, 0.0, 5.017915, 4.9727907 
2.6335514e+2, 1.8236336e+2, -1141267.4, -1214558.5, -5637.467, -0.00014580521, 0.0015010954, -1140836.3, 12002.949, 0.0, 5.0176845, 4.97006 
2.6335594e+2, 1.8733345e+2, -1093423.5, -1167041.0, -5697.3423, -0.0002666479, -0.0012428418, -1092985.1, 11146.985, 0.0, 5.017452, 4.969628 
2.633565e+2, 1.9230203e+2, -1048822.1, -1126467.5, -6036.54, -0.0003196394, 0.0012132582, -1048355.56, 7084.368, 0.0, 5.0172176, 4.9668245 
2.6335692e+2, 1.9726892e+2, -1000893.5, -1078802.8, -6071.6367, -0.000298308, -0.0014980703, -1000423.1, 6341.319, 0.0, 5.01698, 4.9664283 
2.6335722e+2, 2.0223431e+2, -956287.4, -1038293.6, -6296.947, -0.00026264912, 0.0011497445, -955806.7, 2296.9697, 0.0, 5.0167384, 4.963584 
2.6335737e+2, 2.07198e+2, -908315.0, -990537.1, -6336.149, -0.00020267048, -0.0013011444, -907829.6, 1630.0919, 0.0, 5.0164905, 4.9632077 
2.633575e+2, 2.1216017e+2, -863723.25, -950093.94, -6445.26, -0.00008795771, 0.0015674887, -863244.94, -2414.526, 0.0, 5.016233, 4.9603176 
2.6335755e+2, 2.1712059e+2, -815723.06, -902232.9, -6475.979, 0.000121286655, -0.0011546781, -815240.94, -3022.5613, 0.0, 5.0159645, 4.95997 
2.633576e+2, 2.220795e+2, -771146.44, -861932.2, -6469.8447, 0.00013433438, 0.0016905171, -770687.7, -7066.6353, 0.0, 5.015705, 4.957004 
2.6335764e+2, 2.270366e+2, -723009.06, -813941.3, -6464.88, -0.00007827563, -0.0012873594, -722551.75, -7510.2773, 0.0, 5.0154595, 4.9566736 
2.6335776e+2, 2.3199216e+2, -678400.7, -773765.2, -6351.852, -0.00023609151, 0.0014949001, -677979.44, -11502.539, 0.0, 5.0152154, 4.953631 
2.63358e+2, 2.3694591e+2, -630162.5, -725628.1, -6331.049, -0.00029127498, -0.0015963744, -629744.44, -11814.136, 0.0, 5.014973, 4.9533334 
2.6335835e+2, 2.4189815e+2, -585556.2, -685566.06, -6100.9414, -0.00019289601, 0.0018309833, -585185.4, -15786.9795, 0.0, 5.014726, 4.9502196 
2.6335895e+2, 2.4684851e+2, -537238.94, -637243.2, -6068.9106, 0.00010366517, -0.0014453562, -536871.94, -15987.221, 0.0, 5.01447, 4.9499755 
2.6335973e+2, 2.517973e+2, -492764.1, -597613.9, -5734.9126, 0.00010232996, 0.0019111425, -492451.34, -20064.865, 0.0, 5.0142245, 4.946683 
2.6336068e+2, 2.567442e+2, -444088.06, -548684.56, -5659.91, -0.00034004534, -0.0017216555, -443782.7, -19875.969, 0.0, 5.013997, 4.9466224 
2.6336193e+2, 2.6168948e+2, -399814.8, -509780.44, -5246.824, -0.0004919165, 0.0014948727, -399565.03, -24122.18, 0.0, 5.0137777, 4.943032 
2.633636e+2, 2.666329e+2, -350718.06, -460067.88, -5133.4507, -0.00016384284, -0.0019272594, -350477.6, -23480.275, 0.0, 5.0135727, 4.943221 
2.6336548e+2, 2.7157462e+2, -306709.1, -421993.28, -4602.5933, -0.00008383327, 0.00138761, -306525.66, -27956.992, 0.0, 5.01337, 4.9392934 
2.6336783e+2, 2.7651447e+2, -257241.83, -371508.88, -4455.3833, -0.00042946465, -0.0020904837, -257068.36, -26910.428, 0.0, 5.01317, 4.9397373 
2.6337045e+2, 2.8145266e+2, -213252.63, -333709.13, -3891.3293, -0.0005108077, 0.0020835337, -213127.05, -31363.46, 0.0, 5.012981, 4.9356728 
2.6337367e+2, 2.86389e+2, -163395.11, -282530.6, -3709.622, -0.000036261892, -0.002814666, -163279.7, -29892.342, 0.0, 5.012813, 4.9363356 
2.6337725e+2, 2.9132307e+2, -121236.5, -249301.19, -3017.0479, 0.000053695625, 0.0014244281, -121165.46, -36131.805, 0.0, 5.012653, 4.9305987 
2.6338142e+2, 2.9625455e+2, -71364.93, -198267.86, -2772.6218, -0.0007385829, -0.0006416484, -71304.38, -34599.055, 0.0, 5.0125084, 4.9311824 
2.6338592e+2, 3.01193e+2, -30354.35, -134748.75, -2019.0385, -0.0010721555, 0.0020692993, -30315.314, -30315.314, 0.0, 5.012375, 4.9451985 
2.633913e+2, 3.0613884e+2, -29416.592, -132000.08, -1739.3777, -0.00012039508, -0.005611131, -29387.11, -29387.11, 0.0, 5.0122685, 4.946233 
2.6339704e+2, 3.111023e+2, 9372.988, -40564.395, -760.4532, 0.00020915613, 0.003679976, 9384.565, 9384.565, 0.0, 5.0121703, 4.9797506 
2.6340348e+2, 3.1608328e+2, 11073.034, -36169.992, -390.87317, -0.0012008642, -0.0008145775, 11076.269, 11076.269, 0.0, 5.0120907, 4.9814067 
2.6833677e+2, 1.2259121e+2, -1695683.4, -1742058.9, -624.53656, -0.00014211278, 0.00087606575, -1695675.0, 42931.484, 0.0, 5.0196886, 4.989451 
2.6834258e+2, 1.2758046e+2, -1648572.5, -1696400.5, -755.5252, 0.0003197645, -0.00012148953, -1648560.5, 41151.09, 0.0, 5.019598, 4.9884176 
2.6834768e+2, 1.3256758e+2, -1603440.8, -1654730.9, -1741.9275, -0.0006045584, 0.001360655, -1603381.6, 37456.105, 0.0, 5.019494, 4.9859867 
2.683524e+2, 1.3755356e+2, -1555850.8, -1608044.1, -1879.7303, -0.00003971791, -0.0008285664, -1555783.1, 36192.19, 0.0, 5.019381, 4.985289 
2.6835644e+2, 1.4253785e+2, -1510989.9, -1566888.4, -2831.1077, 0.00019585555, 0.0016353795, -1510846.9, 32282.668, 0.0, 5.019245, 4.9827332 
2.6835993e+2, 1.4752063e+2, -1463319.8, -1519889.4, -2954.9187, 0.000021688573, -0.00053728494, -1463165.9, 31132.184, 0.0, 5.019089, 4.9821525 
2.6836294e+2, 1.525017e+2, -1418609.4, -1479017.8, -3731.4253, -0.000035691693, 0.0013373565, -1418379.8, 27103.7, 0.0, 5.018925, 4.9795213 
2.6836556e+2, 1.5748128e+2, -1370903.1, -1431931.8, -3843.8691, 0.000047053858, -0.0010314258, -1370662.0, 26021.598, 0.0, 5.0187554, 4.9789624 
2.6836774e+2, 1.6245924e+2, -1326168.1, -1390999.3, -4554.487, -0.00007286776, 0.0015267404, -1325849.8, 22049.904, 0.0, 5.0185695, 4.976337 
2.6836947e+2, 1.6743559e+2, -1278421.4, -1343730.9, -4645.4053, -0.0003997134, -0.0011986627, -1278092.6, 21038.572, 0.0, 5.018368, 4.9758377 
2.6837087e+2, 1.724104e+2, -1233763.5, -1302923.6, -5239.009, -0.00046657078, 0.0010460973, -1233368.9, 17009.29, 0.0, 5.018153, 4.9731565 
2.68372e+2, 1.7738365e+2, -1185991.6, -1255529.3, -5321.5522, -0.00022835325, -0.0011540004, -1185586.8, 16053.785, 0.0, 5.0179253, 4.9726963 
2.6837283e+2, 1.8235534e+2, -1141334.6, -1214742.5, -5788.395, -0.00010509622, 0.0014567997, -1140881.0, 12036.826, 0.0, 5.017693, 4.969994 
2.6837337e+2, 1.8732542e+2, -1093499.3, -1167225.8, -5849.991, -0.000117147756, -0.0009227558, -1093038.0, 11173.06, 0.0, 5.0174565, 4.969563 
2.6837376e+2, 1.9229396e+2, -1048869.8, -1126570.6, -6195.115, -0.00011578633, 0.0016153501, -1048378.94, 7140.272, 0.0, 5.0172176, 4.9667897 
2.6837394e+2, 1.9726078e+2, -1000955.8, -1078911.8, -6233.362, -0.000103617574, -0.001343999, -1000460.5, 6383.6035, 0.0, 5.016975, 4.966394 
2.6837397e+2, 2.0222612e+2, -956362.8, -1038413.8, -6466.1313, -0.00019774002, 0.0010494681, -955856.4, 2327.4656, 0.0, 5.01673, 4.963547 
2.6837385e+2, 2.0718974e+2, -908393.4, -990657.8, -6502.5615, -0.0004089697, -0.0016629836, -907882.5, 1657.9512, 0.0, 5.0164804, 4.963171 
2.683737e+2, 2.1215189e+2, -863791.7, -950192.8, -6623.1563, -0.0003921067, 0.0012041077, -863286.94, -2375.357, 0.0, 5.0162225, 4.9602885 
2.6837346e+2, 2.171123e+2, -815786.1, -902326.94, -6652.3315, -0.000051942334, -0.0012015282, -815277.75, -2978.0205, 0.0, 5.0159554, 4.959942 
2.6837328e+2, 2.2207122e+2, -771169.7, -861927.4, -6630.9946, 0.00017211371, 0.0018845001, -770687.75, -6985.4287, 0.0, 5.0156937, 4.9570107 
2.6837313e+2, 2.2702834e+2, -723048.7, -813936.75, -6627.7983, 0.00026894754, -0.0009608786, -722567.94, -7445.4727, 0.0, 5.015441, 4.956684 
2.68373e+2, 2.3198391e+2, -678443.0, -773741.0, -6513.5933, 0.00012542825, 0.0017732653, -677999.9, -11442.147, 0.0, 5.0151916, 4.9536505 
2.6837295e+2, 2.3693766e+2, -630209.5, -725603.94, -6491.603, -0.0003447164, -0.0016330315, -629769.75, -11758.641, 0.0, 5.0149474, 4.9533534 
2.6837307e+2, 2.418899e+2, -585611.9, -685557.56, -6268.5254, -0.00045096842, 0.0016262829, -585220.25, -15741.061, 0.0, 5.0146995, 4.9502344 
2.683734e+2, 2.4684028e+2, -537291.94, -637235.2, -6234.3813, -0.00002246964, -0.0015794648, -536904.56, -15939.082, 0.0, 5.014445, 4.9499903 
2.6837394e+2, 2.5178912e+2, -492787.56, -597532.7, -5880.72, 0.00013709563, 0.0019196472, -492458.44, -19991.52, 0.0, 5.014198, 4.9467235 
2.683747e+2, 2.5673607e+2, -444122.0, -548598.56, -5804.023, -0.00010384039, -0.0014629451, -443800.56, -19814.045, 0.0, 5.0139647, 4.9466667 
2.6837572e+2, 2.6168144e+2, -399835.94, -509639.84, -5377.6523, -0.00021557159, 0.0018559303, -399573.2, -24051.19, 0.0, 5.0137405, 4.943098 
2.6837716e+2, 2.666249e+2, -350745.06, -459921.47, -5263.419, -0.00013202631, -0.001734228, -350491.88, -23416.06, 0.0, 5.0135317, 4.943291 
2.6837885e+2, 2.7156666e+2, -306744.78, -421850.88, -4730.2056, -0.00020803479, 0.0014359024, -306550.72, -27904.184, 0.0, 5.0133257, 4.9393635 
2.6838097e+2, 2.765066e+2, -257282.86, -371369.44, -4579.9917, -0.00054800586, -0.002118244, -257099.3, -26864.055, 0.0, 5.013124, 4.939807 
2.683834e+2, 2.8144485e+2, -213283.36, -333533.56, -3994.3174, -0.00058845856, 0.0020474258, -213150.83, -31310.598, 0.0, 5.012933, 4.935756 
2.683865e+2, 2.863813e+2, -163431.22, -282349.7, -3806.5195, 0.0000057057405, -0.0027273642, -163309.5, -29846.38, 0.0, 5.0127616, 4.9364223 
2.6838988e+2, 2.9131547e+2, -121270.99, -249096.55, -3100.1082, 0.00014054656, 0.0016062161, -121195.85, -36087.375, 0.0, 5.0125976, 4.930696 
2.683939e+2, 2.96247e+2, -71408.71, -198061.1, -2852.2554, -0.0007877335, -0.00043454487, -71344.51, -34565.402, 0.0, 5.0124483, 4.931282 
2.6839828e+2, 3.0118558e+2, -30394.09, -134510.75, -2077.8923, -0.0012017245, 0.0022714236, -30352.637, -30352.637, 0.0, 5.012311, 4.945312 
2.6840356e+2, 3.0613154e+2, -29460.95, -131754.56, -1790.1597, -0.0001919277, -0.005476419, -29429.63, -29429.63, 0.0, 5.012201, 4.9463506 
2.684092e+2, 3.1109512e+2, 9340.235, -40274.516, -797.3146, 0.00016924874, 0.0037234765, 9353.045, 9353.045, 0.0, 5.012099, 4.9798884 
2.6841557e+2, 3.1607622e+2, 11034.35, -35869.03, -419.81583, -0.0013095064, -0.00089652004, 11038.107, 11038.107, 0.0, 5.012014, 4.9815507 
2.7335662e+2, 1.2258465e+2, -1694477.0, -1741791.1, -610.00446, -0.0006671289, 0.00016670606, -1694469.1, 44201.613, 0.0, 5.02016, 4.989307 
2.733625e+2, 1.27574e+2, -1647384.5, -1696156.6, -767.42126, 0.0006778854, 0.0015553359, -1647372.5, 42402.617, 0.0, 5.020067, 4.988268 
2.7336743e+2, 1.3256067e+2, -1602275.1, -1654465.5, -1783.0897, -0.0006155354, 0.0000012468478, -1602214.3, 38691.336, 0.0, 5.0199494, 4.985852 
2.7337196e+2, 1.3754663e+2, -1554762.0, -1607818.4, -1906.9863, 0.000019814323, -0.000964479, -1554693.5, 37349.754, 0.0, 5.0198116, 4.9851546 
2.7337593e+2, 1.4253081e+2, -1509968.1, -1566713.8, -2883.5808, 0.00024715922, 0.0019251152, -1509822.0, 33376.28, 0.0, 5.0196576, 4.9825916 
2.733792e+2, 1.4751342e+2, -1462337.5, -1519735.1, -3021.4214, -0.000032085416, -0.00068301556, -1462178.9, 32189.75, 0.0, 5.019489, 4.9820104 
2.7338207e+2, 1.5249436e+2, -1417683.6, -1478854.0, -3828.4639, -0.000094809424, 0.0010807703, -1417444.9, 28110.57, 0.0, 5.0192986, 4.9793963 
2.7338448e+2, 1.5747383e+2, -1370101.1, -1431829.6, -3946.3394, 0.000085005144, -0.0010492533, -1369849.9, 26906.86, 0.0, 5.019088, 4.978837 
2.7338648e+2, 1.6245167e+2, -1325425.1, -1390865.3, -4674.079, 0.000019552906, 0.0016400991, -1325093.0, 22880.686, 0.0, 5.018869, 4.9762387 
2.73388e+2, 1.6742794e+2, -1277750.3, -1343631.3, -4765.741, -0.00030019908, -0.0010779486, -1277407.3, 21798.977, 0.0, 5.0186434, 4.9757395 
2.733892e+2, 1.7240265e+2, -1233139.0, -1302815.0, -5371.3774, -0.00041595547, 0.0010903537, -1232727.4, 17726.758, 0.0, 5.0184064, 4.973073 
2.7339005e+2, 1.773758e+2, -1185427.1, -1255448.1, -5444.1157, -0.0002866297, -0.0012664648, -1185006.4, 16710.9, 0.0, 5.018158, 4.972614 
2.7339062e+2, 1.8234742e+2, -1140841.6, -1214682.0, -5923.7104, -0.00019972306, 0.0012710048, -1140369.4, 12626.073, 0.0, 5.0178986, 4.9699173 
2.7339092e+2, 1.8731742e+2, -1093108.9, -1167213.6, -5997.3765, -0.00016553896, -0.0010924574, -1092626.6, 11662.95, 0.0, 5.0176272, 4.969487 
2.7339104e+2, 1.9228591e+2, -1048555.8, -1126537.4, -6364.632, -0.0001113933, 0.0015609879, -1048039.75, 7558.586, 0.0, 5.0173497, 4.966739 
2.7339095e+2, 1.972527e+2, -1000763.1, -1078934.1, -6420.054, -0.00003958658, -0.0011698905, -1000239.4, 6684.1353, 0.0, 5.0170655, 4.9663444 
2.733907e+2, 2.02218e+2, -956232.25, -1038403.94, -6651.036, -0.000084656356, 0.0012904223, -955697.4, 2566.1042, 0.0, 5.0167856, 4.963525 
2.7339035e+2, 2.0718159e+2, -908329.0, -990675.4, -6672.4604, -0.00025386416, -0.0015559979, -907791.9, 1828.4816, 0.0, 5.016513, 4.9631505 
2.733899e+2, 2.1214369e+2, -863776.06, -950228.56, -6788.004, -0.00033537726, 0.0011570163, -863246.3, -2254.591, 0.0, 5.016237, 4.96027 
2.733894e+2, 2.1710408e+2, -815801.9, -902376.5, -6808.1406, -0.0002700612, -0.0014330118, -815269.75, -2889.5586, 0.0, 5.0159583, 4.9599237 
2.7338895e+2, 2.2206299e+2, -771250.8, -861982.1, -6794.8066, -0.000100843194, 0.0016414031, -770744.75, -6961.742, 0.0, 5.015669, 4.9570036 
2.733885e+2, 2.2702011e+2, -723273.5, -814055.56, -6808.4795, 0.00024082787, -0.0009788262, -722765.75, -7562.6177, 0.0, 5.0153646, 4.956678 
2.7338815e+2, 2.3197572e+2, -678748.5, -773834.4, -6686.411, 0.0002678694, 0.0019129446, -678280.6, -11642.463, 0.0, 5.015074, 4.9536715 
2.7338785e+2, 2.3692948e+2, -630585.7, -725722.9, -6658.881, -0.00014755044, -0.0014341852, -630121.9, -12030.649, 0.0, 5.014803, 4.9533777 
2.733877e+2, 2.4188174e+2, -586035.6, -685683.3, -6426.9976, -0.00029405465, 0.0017915395, -585622.8, -16063.775, 0.0, 5.0145354, 4.950265 
2.7338776e+2, 2.4683215e+2, -537742.25, -637370.9, -6376.2207, -0.000043811127, -0.0015902969, -537335.8, -16290.7, 0.0, 5.0142703, 4.9500213 
2.7338803e+2, 2.5178102e+2, -493290.47, -597677.56, -6012.268, 0.00004642807, 0.0018265318, -492945.34, -20398.98, 0.0, 5.014002, 4.9467607 
2.7338856e+2, 2.5672802e+2, -444738.78, -548792.44, -5941.2285, -0.00008671422, -0.0014793258, -444400.66, -20335.055, 0.0, 5.0137267, 4.946705 
2.7338934e+2, 2.6167342e+2, -400531.97, -509821.7, -5501.384, -0.00012437538, 0.0019302008, -400255.75, -24655.168, 0.0, 5.0134645, 4.9431567 
2.7339053e+2, 2.6661697e+2, -351521.88, -460130.06, -5390.6543, -0.000024331375, -0.0015477471, -351255.0, -24101.28, 0.0, 5.013224, 4.943353 
2.73392e+2, 2.7155882e+2, -307578.63, -422050.53, -4850.446, -0.00011002239, 0.0016702575, -307373.44, -28649.768, 0.0, 5.0129905, 4.9394403 
2.733939e+2, 2.7649882e+2, -258168.67, -371583.78, -4687.3374, -0.0005357877, -0.001954325, -257975.28, -27663.63, 0.0, 5.012768, 4.939887 
2.7339613e+2, 2.8143716e+2, -214217.44, -333743.88, -4074.6997, -0.0006379837, 0.002156389, -214078.69, -32162.863, 0.0, 5.0125537, 4.935847 
2.7339906e+2, 2.8637367e+2, -164432.8, -282582.3, -3875.5127, -0.00003470337, -0.002638923, -164305.81, -30767.98, 0.0, 5.0123553, 4.936516 
2.7340224e+2, 2.9130793e+2, -122343.984, -249352.92, -3152.8071, 0.00011139789, 0.0016854481, -122265.77, -37083.49, 0.0, 5.012164, 4.930792 
2.734061e+2, 2.9623958e+2, -72559.16, -198348.19, -2903.611, -0.00081187877, -0.00033074888, -72492.17, -35640.22, 0.0, 5.011985, 4.931379 
2.7341032e+2, 3.0117825e+2, -31594.86, -134780.64, -2106.7102, -0.0012190338, 0.0023964094, -31551.865, -31551.865, 0.0, 5.0118194, 4.945425 
2.7341548e+2, 3.0612436e+2, -30719.592, -132037.81, -1808.9535, -0.00021516267, -0.0053312224, -30687.305, -30687.305, 0.0, 5.011686, 4.946469 
2.73421e+2, 3.1108806e+2, 8056.432, -40515.08, -801.47986, 0.00013946598, 0.0038579616, 8069.654, 8069.654, 0.0, 5.0115604, 4.9800296 
2.7342725e+2, 3.160693e+2, 9697.897, -36115.164, -412.199, -0.001375797, -0.00082760805, 9701.605, 9701.605, 0.0, 5.0114527, 4.9817 
2.783767e+2, 1.22578025e+2, -1694609.0, -1742199.0, -652.7105, -0.0013786209, -0.0015744645, -1694600.0, 44135.406, 0.0, 5.02019, 4.9891586 
2.7838257e+2, 1.2756753e+2, -1647535.9, -1696605.6, -815.53784, 0.0010639336, 0.0031191302, -1647522.3, 42316.105, 0.0, 5.020097, 4.988106 
2.7838737e+2, 1.3255376e+2, -1602376.8, -1654809.6, -1865.5992, -0.0006307095, -0.0016284453, -1602310.5, 38662.996, 0.0, 5.019978, 4.985724 
2.783918e+2, 1.3753971e+2, -1554867.1, -1608164.0, -1992.0349, 0.00012894323, -0.0012749571, -1554792.8, 37318.094, 0.0, 5.019839, 4.985027 
2.7839556e+2, 1.4252381e+2, -1510109.5, -1567126.8, -2990.788, 0.00034072896, 0.002058619, -1509953.0, 33313.758, 0.0, 5.0196834, 4.982442 
2.7839872e+2, 1.475062e+2, -1462482.5, -1520148.9, -3128.2168, -0.0001131795, -0.0010620225, -1462313.4, 32125.861, 0.0, 5.0195127, 4.981861 
2.7840137e+2, 1.52487e+2, -1417800.5, -1479204.6, -3964.7183, -0.00023601484, 0.0006011028, -1417545.6, 28081.877, 0.0, 5.019321, 4.979269 
2.7840355e+2, 1.5746637e+2, -1370220.0, -1432181.3, -4082.252, 0.0000015025732, -0.001182822, -1369952.3, 26877.486, 0.0, 5.0191097, 4.978709 
2.7840534e+2, 1.6244416e+2, -1325511.6, -1391135.1, -4820.0195, 0.000049251455, 0.0017545946, -1325159.5, 22888.148, 0.0, 5.0188875, 4.9761395 
2.7840665e+2, 1.6742031e+2, -1277851.0, -1343906.1, -4913.717, -0.00010368605, -0.00082982524, -1277487.4, 21793.613, 0.0, 5.0186567, 4.9756413 
2.784076e+2, 1.7239495e+2, -1233222.9, -1303036.0, -5536.5103, -0.00024007303, 0.001284571, -1232786.5, 17743.166, 0.0, 5.0184155, 4.9729943 
2.784082e+2, 1.7736799e+2, -1185516.5, -1255669.1, -5610.541, -0.00033699846, -0.0013173767, -1185070.6, 16723.049, 0.0, 5.0181646, 4.972536 
2.784085e+2, 1.8233949e+2, -1140942.8, -1214919.8, -6105.2656, -0.00036641583, 0.0010195812, -1140442.3, 12630.59, 0.0, 5.0179033, 4.9698353 
2.7840853e+2, 1.8730938e+2, -1093211.9, -1167451.5, -6174.2163, -0.00031912868, -0.0015134821, -1092701.9, 11666.1875, 0.0, 5.0176306, 4.969405 
2.7840838e+2, 1.9227782e+2, -1048630.9, -1126710.5, -6548.384, -0.00021453161, 0.0012649565, -1048085.44, 7592.0864, 0.0, 5.0173526, 4.9666796 
2.7840802e+2, 1.9724461e+2, -1000839.06, -1079103.3, -6604.1963, -0.000054732744, -0.001002885, -1000285.75, 6717.2944, 0.0, 5.0170665, 4.9662867 
2.7840754e+2, 2.022099e+2, -956263.7, -1038456.44, -6829.0527, 0.00003946239, 0.0016913756, -955700.1, 2642.961, 0.0, 5.0167823, 4.9635086 
2.784069e+2, 2.0717347e+2, -908379.06, -990730.56, -6854.9487, 0.000076128774, -0.0012127326, -907812.3, 1887.6117, 0.0, 5.016502, 4.9631367 
2.7840617e+2, 2.1213554e+2, -863840.0, -950289.56, -6975.7466, -0.0000950351, 0.0012762819, -863280.75, -2209.218, 0.0, 5.0162206, 4.9602566 
2.7840534e+2, 2.1709585e+2, -815869.44, -902438.4, -6993.188, -0.0005055632, -0.0017519408, -815308.2, -2847.6868, 0.0, 5.0159407, 4.959911 
2.7840456e+2, 2.2205473e+2, -771320.0, -862047.7, -6994.675, -0.00053152966, 0.0011758674, -770783.9, -6920.276, 0.0, 5.015651, 4.9569893 
2.7840388e+2, 2.2701189e+2, -723337.2, -814118.6, -7005.9473, 0.000008699737, -0.0011829698, -722799.7, -7515.884, 0.0, 5.015349, 4.9566636 
2.7840322e+2, 2.3196751e+2, -678769.9, -773795.06, -6860.535, 0.0002802144, 0.0019647737, -678277.1, -11558.419, 0.0, 5.0150566, 4.9536934 
2.784027e+2, 2.3692133e+2, -630622.06, -725681.56, -6833.651, 0.00016535717, -0.0011279702, -630133.3, -11962.08, 0.0, 5.0147786, 4.953403 
2.7840227e+2, 2.4187362e+2, -586070.4, -685611.9, -6599.294, 0.000069047615, 0.002140735, -585634.75, -15996.191, 0.0, 5.0145054, 4.9503036 
2.7840203e+2, 2.4682406e+2, -537781.94, -637298.2, -6548.4575, -0.000014002856, -0.0015372699, -537352.9, -16228.411, 0.0, 5.014238, 4.9500613 
2.78402e+2, 2.517729e+2, -493339.16, -597617.6, -6190.341, -0.00011096849, 0.0016825744, -492972.97, -20347.492, 0.0, 5.013968, 4.946797 
2.7840227e+2, 2.5671998e+2, -444788.66, -548735.3, -6116.976, -0.00018927496, -0.0016394438, -444429.94, -20285.44, 0.0, 5.013693, 4.94674 
2.784028e+2, 2.6166543e+2, -400561.44, -509709.63, -5652.404, -0.00013972587, 0.0018498051, -400269.5, -24590.424, 0.0, 5.0134287, 4.943212 
2.784038e+2, 2.6660907e+2, -351559.9, -460013.63, -5537.303, 0.00011030015, -0.0013751199, -351277.9, -24046.43, 0.0, 5.013184, 4.9434123 
2.78405e+2, 2.7155095e+2, -307601.66, -421876.56, -4986.722, 0.00009205268, 0.0019902226, -307384.47, -28583.787, 0.0, 5.0129457, 4.939522 
2.7840668e+2, 2.7649105e+2, -258197.53, -371401.4, -4822.4043, -0.00046381314, -0.0016994404, -257992.47, -27604.682, 0.0, 5.0127187, 4.9399734 
2.784087e+2, 2.8142947e+2, -214245.61, -333540.25, -4195.1187, -0.0006797483, 0.0023344166, -214098.27, -32107.166, 0.0, 5.0125012, 4.935942 
2.784114e+2, 2.863661e+2, -164465.98, -282376.1, -3991.9265, -0.00012539279, -0.002553605, -164331.0, -30718.785, 0.0, 5.0123005, 4.936613 
2.784144e+2, 2.9130045e+2, -122386.4, -249152.58, -3257.763, 0.000013705299, 0.0017087158, -122302.734, -37046.977, 0.0, 5.012106, 4.9308887 
2.7841806e+2, 2.962322e+2, -72612.06, -198153.92, -3003.874, -0.0008331867, -0.00028528084, -72540.23, -35615.727, 0.0, 5.0119233, 4.931475 
2.7842215e+2, 3.0117095e+2, -31637.791, -134543.75, -2180.1375, -0.0011907245, 0.0024752193, -31591.623, -31591.623, 0.0, 5.011754, 4.945539 
2.7842715e+2, 3.0611718e+2, -30768.03, -131790.55, -1872.5713, -0.0002267686, -0.0051882146, -30733.332, -30733.332, 0.0, 5.0116158, 4.946588 
2.7843252e+2, 3.1108102e+2, 8022.666, -40211.56, -851.6016, 0.00010188789, 0.0040304926, 8037.6973, 8037.6973, 0.0, 5.0114856, 4.9801736 
2.784387e+2, 3.1606245e+2, 9659.186, -35794.695, -456.04776, -0.00144099, -0.0006847875, 9663.761, 9663.761, 0.0, 5.0113726, 4.9818525 
2.8339717e+2, 1.2257167e+2, -1693276.5, -1741876.3, -595.19965, -0.0016880203, -0.0019257079, -1693269.1, 45528.176, 0.0, 5.020705, 4.989012 
2.8340298e+2, 1.275612e+2, -1646294.4, -1696389.8, -779.26807, 0.0015478058, 0.0046622897, -1646282.3, 43618.008, 0.0, 5.0205956, 4.9879327 
2.834076e+2, 1.3254689e+2, -1601146.9, -1654525.1, -1879.4702, -0.00080555107, -0.0037342191, -1601080.8, 39959.742, 0.0, 5.0204577, 4.9855843 
2.8341186e+2, 1.3753293e+2, -1553708.8, -1607915.9, -2021.5607, 0.000020012267, -0.0013068237, -1553633.5, 38543.82, 0.0, 5.0202956, 4.984887 
2.834155e+2, 1.4251696e+2, -1509032.3, -1566934.3, -3050.0042, 0.0003220929, 0.0027497315, -1508872.0, 34461.934, 0.0, 5.0201163, 4.982296 
2.8341842e+2, 1.4749913e+2, -1461480.6, -1519994.0, -3187.1626, -0.00004765423, -0.0010824144, -1461307.6, 33200.848, 0.0, 5.0199213, 4.9817157 
2.8342086e+2, 1.5247977e+2, -1416837.5, -1479020.5, -4050.5825, -0.00023036893, 0.00032583636, -1416574.8, 29123.537, 0.0, 5.0197062, 4.9791446 
2.8342286e+2, 1.5745904e+2, -1369323.3, -1432030.6, -4167.9863, -0.00019745814, -0.0012180418, -1369047.4, 27854.217, 0.0, 5.019473, 4.9785852 
2.8342438e+2, 1.6243671e+2, -1324684.8, -1390980.3, -4931.7026, -0.00014234595, 0.0018147596, -1324320.0, 23800.652, 0.0, 5.01922, 4.9760327 
2.8342548e+2, 1.6741277e+2, -1277149.3, -1343811.8, -5035.776, -0.00007227423, -0.0008400962, -1276771.0, 22584.184, 0.0, 5.0189466, 4.975535 
2.8342617e+2, 1.7238729e+2, -1232598.0, -1302928.9, -5675.8306, -0.00013190028, 0.0013282965, -1232142.9, 18461.848, 0.0, 5.018669, 4.97291 
2.834265e+2, 1.7736027e+2, -1184980.0, -1255602.5, -5757.326, -0.00030596156, -0.0010806035, -1184513.8, 17355.738, 0.0, 5.0183883, 4.972453 
2.8342652e+2, 1.8233171e+2, -1140454.5, -1214831.4, -6259.701, -0.0003606206, 0.0012767545, -1139931.4, 13217.875, 0.0, 5.018101, 4.969772 
2.8342625e+2, 1.8730153e+2, -1092788.8, -1167392.0, -6310.848, -0.0002723822, -0.0014335564, -1092258.6, 12186.47, 0.0, 5.017806, 4.969343 
2.834258e+2, 1.9226988e+2, -1048274.94, -1126676.8, -6685.242, -0.000219735, 0.0011941721, -1047709.0, 8046.309, 0.0, 5.0175033, 4.966621 
2.8342515e+2, 1.972366e+2, -1000554.9, -1079102.4, -6742.9214, -0.00022110718, -0.0011942483, -999980.25, 7101.247, 0.0, 5.0171924, 4.9662285 
2.8342432e+2, 2.0220186e+2, -956060.7, -1038448.44, -6987.0713, -0.00012681975, 0.0015627125, -955472.4, 2949.7393, 0.0, 5.016871, 4.9634705 
2.834234e+2, 2.071654e+2, -908328.2, -990791.3, -7037.0723, 0.000111346366, -0.0010559574, -907732.0, 2047.1184, 0.0, 5.0165367, 4.9631 
2.8342238e+2, 2.1212748e+2, -863863.06, -950310.4, -7154.3613, 0.000063054984, 0.001560886, -863274.94, -2124.178, 0.0, 5.016215, 4.9602523 
2.834213e+2, 2.1708779e+2, -815961.9, -902485.8, -7159.8086, -0.0003299798, -0.0015466196, -815373.44, -2833.769, 0.0, 5.015909, 4.959909 
2.834202e+2, 2.2204664e+2, -771461.9, -862110.56, -7157.245, -0.00045983464, 0.0012282709, -770900.25, -6957.3945, 0.0, 5.0156007, 4.956991 
2.8341916e+2, 2.2700377e+2, -723506.6, -814193.6, -7153.0654, -0.00018191704, -0.0013799239, -722945.94, -7582.717, 0.0, 5.0152884, 4.9566655 
2.834182e+2, 2.319594e+2, -679002.06, -773880.2, -7003.1255, 0.000026144593, 0.0016909628, -678487.94, -11689.765, 0.0, 5.01497, 4.9537034 
2.834174e+2, 2.3691323e+2, -630993.44, -725828.56, -6990.8, 0.00013991515, -0.001217965, -630480.9, -12230.37, 0.0, 5.0146422, 4.953414 
2.834167e+2, 2.4186559e+2, -586526.25, -685739.3, -6749.4443, 0.00019172495, 0.0022051246, -586069.2, -16351.657, 0.0, 5.014327, 4.95034 
2.8341618e+2, 2.4681604e+2, -538312.25, -637451.6, -6697.342, 0.00012847099, -0.0013717785, -537861.9, -16658.898, 0.0, 5.0140314, 4.950101 
2.8341585e+2, 2.5176498e+2, -493921.94, -597771.94, -6334.4185, 0.000017984268, 0.0018715216, -493537.0, -20833.53, 0.0, 5.0137377, 4.9468465 
2.8341582e+2, 2.5671208e+2, -445414.5, -548905.5, -6245.796, -0.00014392665, -0.0015493463, -445038.9, -20816.848, 0.0, 5.0134463, 4.9467907 
2.8341606e+2, 2.6165757e+2, -401240.5, -509883.0, -5758.018, -0.00014640488, 0.0018782328, -400936.16, -25179.97, 0.0, 5.013159, 4.943271 
2.8341678e+2, 2.6660126e+2, -352336.38, -460226.44, -5638.5967, 0.00012507326, -0.0013340112, -352042.47, -24734.445, 0.0, 5.0128775, 4.943473 
2.8341776e+2, 2.7154323e+2, -308452.7, -422082.53, -5075.123, 0.00014291113, 0.0020541328, -308226.47, -29349.889, 0.0, 5.012604, 4.9395995 
2.834192e+2, 2.764834e+2, -259131.9, -371634.7, -4912.1875, -0.00038479103, -0.0015920905, -258917.84, -28454.98, 0.0, 5.0123444, 4.940055 
2.8342098e+2, 2.8142193e+2, -215242.8, -333766.44, -4267.2256, -0.0006001498, 0.0024792645, -215089.36, -33024.086, 0.0, 5.012097, 4.9360385 
2.8342345e+2, 2.8635865e+2, -165521.97, -282618.1, -4056.3613, -0.000089731686, -0.0023863383, -165381.63, -31696.238, 0.0, 5.011872, 4.936713 
2.8342625e+2, 2.9129308e+2, -123505.05, -249415.5, -3307.659, 0.000021587663, 0.0018756408, -123418.21, -38090.28, 0.0, 5.011653, 4.9309907 
2.834297e+2, 2.9622495e+2, -73796.89, -198443.0, -3043.734, -0.0008259901, -0.00015868792, -73722.61, -36726.914, 0.0, 5.0114446, 4.9315777 
2.8343362e+2, 3.0116382e+2, -32869.883, -134818.19, -2189.7632, -0.001188568, 0.002567067, -32822.87, -32822.87, 0.0, 5.011249, 4.945656 
2.8343847e+2, 3.0611017e+2, -32071.082, -132085.17, -1870.2098, -0.00024914686, -0.005100954, -32036.123, -32036.123, 0.0, 5.0110826, 4.94671 
2.834437e+2, 3.1107414e+2, 6683.021, -40469.94, -834.98975, 0.000100260215, 0.0041056615, 6697.8022, 6697.8022, 0.0, 5.010926, 4.980318 
2.8344974e+2, 3.160557e+2, 8260.505, -36060.23, -433.03156, -0.0013720855, -0.0006006014, 8264.735, 8264.735, 0.0, 5.0107865, 4.982005 
2.8841782e+2, 1.2256536e+2, -1693382.4, -1742253.9, -661.8999, -0.002003729, -0.0025089148, -1693373.5, 45485.215, 0.0, 5.0207396, 4.9888706 
2.8842366e+2, 1.2755492e+2, -1646473.1, -1696895.3, -854.01483, 0.0020816238, 0.006222758, -1646458.8, 43502.563, 0.0, 5.0206256, 4.9877515 
2.88428e+2, 1.3254005e+2, -1601282.0, -1654933.3, -1990.3981, -0.0010850579, -0.0061028777, -1601208.3, 39898.883, 0.0, 5.0204854, 4.985436 
2.8843215e+2, 1.375262e+2, -1553838.8, -1608320.8, -2129.9185, -0.000207911, -0.0012170613, -1553755.5, 38487.625, 0.0, 5.0203247, 4.984739 
2.884356e+2, 1.4251015e+2, -1509161.9, -1567332.3, -3179.9534, 0.00024183333, 0.0037134977, -1508988.5, 34411.953, 0.0, 5.020144, 4.9821506 
2.8843835e+2, 1.4749211e+2, -1461621.5, -1520396.6, -3315.5713, 0.00008267268, -0.0009259926, -1461435.0, 33142.066, 0.0, 5.0199447, 4.9815702 
2.884406e+2, 1.5247259e+2, -1416956.8, -1479363.1, -4204.044, -0.0001575551, 0.0001505498, -1416674.9, 29093.81, 0.0, 5.0197263, 4.979021 
2.884423e+2, 1.5745175e+2, -1369449.6, -1432376.4, -4320.1567, -0.00045290205, -0.001205443, -1369154.5, 27818.56, 0.0, 5.0194902, 4.9784613 
2.8844357e+2, 1.6242929e+2, -1324798.3, -1391292.0, -5109.4375, -0.0004444194, 0.0018458075, -1324408.0, 23785.213, 0.0, 5.019235, 4.975921 
2.884444e+2, 1.6740523e+2, -1277264.0, -1344124.6, -5210.6064, -0.00013248564, -0.0009859188, -1276860.4, 22568.748, 0.0, 5.018962, 4.975423 
2.8844485e+2, 1.7237967e+2, -1232685.1, -1303173.5, -5854.3823, -0.00006821747, 0.0012875797, -1232202.1, 18477.492, 0.0, 5.018682, 4.9728217 
2.8844488e+2, 1.773526e+2, -1185076.8, -1255849.6, -5935.5156, -0.00024278199, -0.0007148927, -1184582.5, 17362.441, 0.0, 5.018397, 4.972366 
2.8844464e+2, 1.8232398e+2, -1140518.6, -1214988.4, -6450.328, -0.0002733325, 0.0017769835, -1139964.1, 13261.165, 0.0, 5.018105, 4.969717 
2.884441e+2, 1.8729374e+2, -1092863.4, -1167548.5, -6505.439, -0.00013145967, -0.0011032646, -1092300.9, 12220.599, 0.0, 5.017805, 4.9692907 
2.8844333e+2, 1.9226201e+2, -1048366.44, -1126855.6, -6890.1206, -0.00017779769, 0.0012443493, -1047766.2, 8066.268, 0.0, 5.0174994, 4.966562 
2.8844228e+2, 1.9722863e+2, -1000646.56, -1079280.3, -6943.9004, -0.00046191932, -0.0015574011, -1000038.06, 7121.555, 0.0, 5.017188, 4.96617 
2.8844115e+2, 2.0219381e+2, -956139.94, -1038600.2, -7201.0063, -0.00043915407, 0.0011679902, -955515.8, 2985.0542, 0.0, 5.0168667, 4.963421 
2.8843993e+2, 2.0715736e+2, -908404.56, -990939.75, -7249.386, -0.000014202722, -0.0010067825, -907772.6, 2085.554, 0.0, 5.016533, 4.9630513 
2.8843862e+2, 2.1211943e+2, -863885.25, -950322.8, -7348.831, 0.0001622319, 0.0019115575, -863264.94, -2035.032, 0.0, 5.016207, 4.960252 
2.8843722e+2, 2.1707976e+2, -816005.25, -902499.2, -7358.2217, 0.00004175922, -0.0010858792, -815383.75, -2765.2769, 0.0, 5.0158925, 4.9599123 
2.8843585e+2, 2.2203863e+2, -771513.25, -862112.7, -7362.8994, -0.00013731825, 0.0015438426, -770918.8, -6897.255, 0.0, 5.015578, 4.957001 
2.8843445e+2, 2.2699569e+2, -723560.75, -814195.6, -7357.9365, -0.00034738093, -0.0015649351, -722967.25, -7525.1523, 0.0, 5.0152645, 4.956676 
2.8843316e+2, 2.3195131e+2, -679065.1, -773899.5, -7216.267, -0.00036104216, 0.0012599231, -678519.1, -11641.925, 0.0, 5.0149455, 4.953708 
2.88432e+2, 2.3690517e+2, -631056.56, -725849.9, -7201.002, -0.00006453848, -0.0015115937, -630512.6, -12183.029, 0.0, 5.014618, 4.953418 
2.88431e+2, 2.4185754e+2, -586554.4, -685673.1, -6936.0923, 0.00017978124, 0.0021136913, -586071.4, -16274.969, 0.0, 5.0143013, 4.9503746 
2.8843024e+2, 2.4680808e+2, -538350.4, -637380.9, -6882.6714, 0.00031513386, -0.0011621049, -537874.3, -16593.135, 0.0, 5.014, 4.9501395 
2.8842962e+2, 2.5175706e+2, -493950.97, -597658.25, -6518.29, 0.00028220107, 0.0022189869, -493542.88, -20761.793, 0.0, 5.013702, 4.9469023 
2.884293e+2, 2.5670418e+2, -445448.63, -548788.75, -6430.2607, -0.000030161767, -0.0013377777, -445050.06, -20750.908, 0.0, 5.0134077, 4.946849 
2.8842923e+2, 2.6164976e+2, -401277.75, -509759.84, -5935.5405, -0.00015446504, 0.001959909, -400953.94, -25121.178, 0.0, 5.0131173, 4.9433327 
2.8842965e+2, 2.6659352e+2, -352379.13, -460105.1, -5813.328, 0.000072173505, -0.0013616058, -352066.3, -24682.195, 0.0, 5.012834, 4.943535 
2.8843036e+2, 2.7153555e+2, -308484.6, -421923.13, -5234.7773, 0.00010849761, 0.001984293, -308243.53, -29291.451, 0.0, 5.0125585, 4.939676 
2.8843156e+2, 2.764758e+2, -259169.78, -371470.97, -5068.343, -0.00031227013, -0.0015656288, -258941.52, -28403.975, 0.0, 5.0122952, 4.9401345 
2.8843307e+2, 2.8141442e+2, -215269.75, -333557.7, -4401.3833, -0.00047020646, 0.0025992428, -215106.2, -32967.16, 0.0, 5.0120435, 4.936136 
2.8843534e+2, 2.8635126e+2, -165555.45, -282402.1, -4185.1533, -0.0000027631668, -0.002187494, -165405.73, -31647.646, 0.0, 5.0118146, 4.936815 
2.8843793e+2, 2.9128578e+2, -123545.375, -249193.44, -3426.8162, 0.000071019684, 0.0021048894, -123451.984, -38052.387, 0.0, 5.0115914, 4.9310966 
2.8844115e+2, 2.9621774e+2, -73846.875, -198223.36, -3159.9973, -0.0008124531, 0.00000032360717, -73766.64, -36700.293, 0.0, 5.0113792, 4.931684 
2.8844485e+2, 3.0115673e+2, -32915.42, -134568.64, -2281.4314, -0.0012077499, 0.0026591236, -32864.246, -32864.246, 0.0, 5.0111804, 4.945776 
2.8844953e+2, 3.0610317e+2, -32122.285, -131828.47, -1952.5963, -0.0002894401, -0.0050472077, -32084.063, -32084.063, 0.0, 5.0110097, 4.946834 
2.8845462e+2, 3.1106728e+2, 6643.7593, -40166.3, -902.211, 0.00010130586, 0.0041265977, 6661.142, 6661.142, 0.0, 5.0108485, 4.980463 
2.8846052e+2, 3.1604898e+2, 8217.022, -35740.223, -493.55603, -0.0012622407, -0.0005484665, 8222.563, 8222.563, 0.0, 5.0107045, 4.982158 
2.9343888e+2, 1.225591e+2, -1691893.1, -1741800.8, -683.3692, -0.00163196, -0.0032843677, -1691883.8, 47036.492, 0.0, 5.0212955, 4.9887466 
2.9344457e+2, 1.2754875e+2, -1645185.1, -1696670.0, -889.781, 0.0025268507, 0.008152598, -1645169.8, 44852.094, 0.0, 5.021143, 4.9875727 
2.934487e+2, 1.3253333e+2, -1600012.5, -1654627.5, -2046.0591, -0.001756492, -0.008268929, -1599936.0, 41237.24, 0.0, 5.020978, 4.9852967 
2.934527e+2, 1.3751951e+2, -1552608.6, -1608034.9, -2179.771, -0.0004504016, -0.0014654411, -1552523.0, 39785.74, 0.0, 5.0208044, 4.9846 
2.9345596e+2, 1.425034e+2, -1508003.8, -1567080.6, -3262.4128, 0.00019564934, 0.004219043, -1507824.1, 35642.566, 0.0, 5.0206, 4.982013 
2.9345852e+2, 1.4748517e+2, -1460572.5, -1520199.5, -3393.8284, -0.00002564723, -0.00094546325, -1460380.0, 34265.18, 0.0, 5.0203648, 4.981433 
2.9346052e+2, 1.5246548e+2, -1415976.5, -1479151.6, -4300.5244, -0.00025441588, -0.000024681887, -1415685.0, 30153.098, 0.0, 5.0201135, 4.978905 
2.9346198e+2, 1.5744458e+2, -1368561.5, -1432210.9, -4412.197, -0.00046283263, -0.0011213489, -1368257.0, 28786.336, 0.0, 5.0198474, 4.9783454 
2.93463e+2, 1.6242203e+2, -1323960.4, -1391108.8, -5215.5415, -0.0004526644, 0.001997271, -1323557.8, 24706.824, 0.0, 5.0195665, 4.9758244 
2.9346353e+2, 1.6739784e+2, -1276492.0, -1343975.5, -5305.0474, -0.00023135099, -0.0009875919, -1276077.6, 23423.86, 0.0, 5.0192714, 4.9753256 
2.9346365e+2, 1.7237218e+2, -1231987.5, -1303044.9, -5958.567, -0.00018530987, 0.0012063535, -1231491.4, 19261.656, 0.0, 5.0189633, 4.9727316 
2.934634e+2, 1.7734502e+2, -1184486.9, -1255773.1, -6044.1206, -0.00029614987, -0.0007946693, -1183978.0, 18041.135, 0.0, 5.018642, 4.9722757 
2.9346284e+2, 1.8231633e+2, -1140017.8, -1214911.4, -6581.5967, -0.0002653908, 0.0018176843, -1139443.8, 13856.485, 0.0, 5.0183105, 4.9696465 
2.9346198e+2, 1.8728603e+2, -1092480.4, -1167524.0, -6654.6206, -0.000062361025, -0.00079797924, -1091894.9, 12702.245, 0.0, 5.0179696, 4.9692216 
2.934609e+2, 1.9225428e+2, -1048037.8, -1126794.9, -7039.8223, -0.000074239324, 0.0016326274, -1047413.44, 8494.978, 0.0, 5.0176325, 4.966521 
2.9345956e+2, 1.9722085e+2, -1000380.56, -1079246.3, -7076.486, -0.0003505497, -0.0013016863, -999750.6, 7485.3564, 0.0, 5.017299, 4.96613 
2.934581e+2, 2.0218597e+2, -955931.5, -1038593.94, -7334.4917, -0.00042665092, 0.001248568, -955285.75, 3291.9976, 0.0, 5.0169578, 4.963381 
2.934565e+2, 2.0714946e+2, -908247.44, -990957.75, -7375.765, -0.0002318382, -0.0011525785, -907594.8, 2340.8545, 0.0, 5.0166063, 4.9630113 
2.9345483e+2, 2.121115e+2, -863811.5, -950344.6, -7485.5566, -0.000059431364, 0.0017569618, -863168.75, -1860.9861, 0.0, 5.0162444, 4.9602275 
2.9345313e+2, 2.1707182e+2, -816099.94, -902596.75, -7520.9077, 0.00011730416, -0.00096386496, -815450.9, -2754.4402, 0.0, 5.01587, 4.9598894 
2.934514e+2, 2.2203068e+2, -771691.44, -862171.06, -7524.1797, 0.00007852545, 0.0018130154, -771070.0, -6970.5596, 0.0, 5.0155106, 4.957012 
2.9344967e+2, 2.2698778e+2, -723805.7, -814277.44, -7513.9863, -0.00021749432, -0.0013325049, -723185.9, -7666.0674, 0.0, 5.015172, 4.9566903 
2.9344803e+2, 2.319434e+2, -679362.9, -773988.75, -7369.2944, -0.00032925536, 0.0013832183, -678792.4, -11837.6875, 0.0, 5.0148306, 4.9537296 
2.9344654e+2, 2.3689726e+2, -631403.56, -725960.1, -7336.7617, -0.00014517718, -0.0016002696, -630837.7, -12430.689, 0.0, 5.0144854, 4.95344 
2.9344523e+2, 2.4184966e+2, -586964.8, -685790.6, -7054.1885, 0.000069819755, 0.0019296013, -586463.8, -16590.168, 0.0, 5.014141, 4.950406 
2.9344413e+2, 2.4680023e+2, -538876.44, -637548.56, -7005.9883, 0.00031079917, -0.0012469419, -538381.44, -17023.404, 0.0, 5.013798, 4.950172 
2.934432e+2, 2.5174928e+2, -494557.06, -597817.3, -6637.702, 0.00036468485, 0.0022347488, -494132.13, -21274.594, 0.0, 5.013462, 4.946954 
2.9344258e+2, 2.5669646e+2, -446134.75, -548976.7, -6551.7744, 0.00008130337, -0.0012239165, -445719.03, -21344.027, 0.0, 5.0131373, 4.9469037 
2.934422e+2, 2.616421e+2, -402025.25, -509943.13, -6046.609, -0.00003925828, 0.002127818, -401687.5, -25779.516, 0.0, 5.012819, 4.943401 
2.934423e+2, 2.6658592e+2, -353193.3, -460311.94, -5914.194, 0.0001593019, -0.0012157615, -352867.78, -25409.107, 0.0, 5.0125093, 4.9436054 
2.9344273e+2, 2.71528e+2, -309358.34, -422130.66, -5316.5063, 0.00019234003, 0.0021056985, -309108.25, -30082.352, 0.0, 5.0122066, 4.9397573 
2.9344362e+2, 2.7646837e+2, -260122.28, -371707.0, -5143.456, -0.0002119098, -0.0014629123, -259885.69, -29275.137, 0.0, 5.0119133, 4.9402184 
2.934449e+2, 2.814071e+2, -216287.17, -333786.66, -4451.8633, -0.00038257742, 0.00268694, -216118.73, -33907.53, 0.0, 5.0116305, 4.9362345 
2.934469e+2, 2.86344e+2, -166652.4, -282655.6, -4228.8936, 0.000017327335, -0.002105913, -166498.45, -32669.201, 0.0, 5.0113697, 4.936918 
2.9344925e+2, 2.9127866e+2, -124719.484, -249470.45, -3456.9084, 0.00008158338, 0.0021867217, -124623.766, -39154.04, 0.0, 5.0111165, 4.9312034 
2.9345226e+2, 2.9621074e+2, -75091.94, -198527.23, -3185.1458, -0.000691621, 0.00010568402, -75009.805, -37874.4, 0.0, 5.010876, 4.9317923 
2.9345575e+2, 3.0114982e+2, -34207.914, -134854.83, -2279.6477, -0.0010423673, 0.0027789332, -34156.31, -34156.31, 0.0, 5.0106506, 4.9458995 
2.9346025e+2, 3.060964e+2, -33479.316, -132130.34, -1937.1201, -0.0002506967, -0.004930469, -33441.293, -33441.293, 0.0, 5.010454, 4.9469633 
2.934651e+2, 3.1106064e+2, 5253.031, -40437.676, -869.57794, 0.00010717601, 0.004221193, 5269.574, 5269.574, 0.0, 5.0102677, 4.9806113 
2.934709e+2, 3.1604248e+2, 6772.8203, -36016.72, -451.8003, -0.0011311705, -0.0004705327, 6777.5903, 6777.5903, 0.0, 5.0101, 4.9823146 
2.9846025e+2, 1.2255287e+2, -1691917.4, -1742069.1, -739.93256, -0.0010201759, -0.0040914426, -1691906.4, 47075.473, 0.0, 5.0213423, 4.988635 
2.9846576e+2, 1.2754264e+2, -1645342.5, -1697168.3, -970.6118, 0.0029229266, 0.010286716, -1645324.4, 44757.59, 0.0, 5.0211806, 4.98739 
2.9846957e+2, 1.3252662e+2, -1600123.5, -1654997.6, -2146.61, -0.0026443014, -0.010329542, -1600039.6, 41199.207, 0.0, 5.0210085, 4.98516 
2.9847348e+2, 1.3751285e+2, -1552728.6, -1608407.0, -2281.7417, -0.0006975672, -0.0018739767, -1552635.4, 39738.844, 0.0, 5.020831, 4.984464 
2.9847658e+2, 1.4249668e+2, -1508126.1, -1567451.6, -3408.579, 0.00017711065, 0.0045100185, -1507931.0, 35601.79, 0.0, 5.0206246, 4.9818783 
2.9847887e+2, 1.4747827e+2, -1460691.4, -1520567.5, -3536.8733, -0.00025898765, -0.0010458722, -1460483.1, 34229.8, 0.0, 5.0203905, 4.9812984 
2.9848063e+2, 1.5245846e+2, -1416071.3, -1479459.3, -4464.8105, -0.0004503581, -0.00020081879, -1415758.4, 30148.84, 0.0, 5.020137, 4.9787917 
2.9848185e+2, 1.5743746e+2, -1368672.1, -1432525.6, -4577.959, -0.0003592318, -0.001008743, -1368345.6, 28767.701, 0.0, 5.019865, 4.978232 
2.9848257e+2, 1.624148e+2, -1324050.6, -1391362.1, -5402.722, -0.00031740012, 0.002201163, -1323619.8, 24715.504, 0.0, 5.01958, 4.9757333 
2.9848278e+2, 1.6739054e+2, -1276589.1, -1344231.8, -5493.8096, -0.00035149234, -0.00092307176, -1276145.8, 23427.225, 0.0, 5.0192823, 4.9752345 
2.984826e+2, 1.7236476e+2, -1232091.4, -1303307.1, -6165.043, -0.0003931283, 0.0011051444, -1231561.6, 19263.932, 0.0, 5.0189724, 4.9726396 
2.9848203e+2, 1.7733748e+2, -1184592.8, -1256035.5, -6247.342, -0.00041156734, -0.0010918651, -1184050.6, 18042.404, 0.0, 5.0186496, 4.9721837 
2.9848114e+2, 1.8230873e+2, -1140108.8, -1215137.3, -6796.178, -0.00030125317, 0.0016286162, -1139498.1, 13876.803, 0.0, 5.018317, 4.9695673 
2.9847994e+2, 1.872784e+2, -1092571.6, -1167745.9, -6867.721, -0.00004288244, -0.00052245904, -1091949.4, 12722.959, 0.0, 5.0179753, 4.9691443 
2.9847854e+2, 1.922466e+2, -1048082.1, -1126895.0, -7249.344, 0.000044349443, 0.0021688107, -1047420.9, 8563.134, 0.0, 5.0176334, 4.9664865 
2.984769e+2, 1.9721313e+2, -1000445.8, -1079351.1, -7290.7427, -0.000072958916, -0.00074814085, -999777.8, 7533.7695, 0.0, 5.0172915, 4.9660983 
2.9847506e+2, 2.0217821e+2, -956013.5, -1038714.0, -7562.4585, -0.00025281854, 0.001569906, -955327.7, 3326.0732, 0.0, 5.016946, 4.963346 
2.9847306e+2, 2.0714162e+2, -908326.94, -991076.3, -7601.2476, -0.0004890753, -0.0013811927, -907634.5, 2377.974, 0.0, 5.0165954, 4.9629765 
2.9847103e+2, 2.1210359e+2, -863890.1, -950464.56, -7723.5337, -0.0004384901, 0.0013618602, -863206.5, -1821.3556, 0.0, 5.016234, 4.9601917 
2.98469e+2, 2.1706392e+2, -816177.5, -902716.1, -7755.994, 0.000034470217, -0.0010162906, -815487.9, -2713.7927, 0.0, 5.01586, 4.9598536 
2.9846692e+2, 2.220228e+2, -771716.0, -862158.2, -7735.164, 0.00022620722, 0.0020438612, -771059.2, -6882.132, 0.0, 5.0154967, 4.957023 
2.9846486e+2, 2.2697994e+2, -723847.2, -814261.94, -7726.9976, 0.000049424354, -0.0009055267, -723191.6, -7594.6626, 0.0, 5.01515, 4.956706 
2.984629e+2, 2.3193558e+2, -679401.4, -773938.94, -7589.881, -0.00009226738, 0.0017768771, -678795.94, -11764.394, 0.0, 5.014803, 4.9537597 
2.9846102e+2, 2.3688942e+2, -631445.7, -725908.56, -7558.914, -0.00016568264, -0.0015835359, -630844.6, -12360.898, 0.0, 5.014456, 4.9534717 
2.9845935e+2, 2.4184182e+2, -587013.44, -685744.7, -7273.738, -0.000092933165, 0.0017043267, -586480.44, -16530.209, 0.0, 5.01411, 4.9504366 
2.984579e+2, 2.4679244e+2, -538930.4, -637506.6, -7222.739, 0.00020389548, -0.0014786379, -538403.94, -16969.5, 0.0, 5.0137653, 4.950202 
2.9845667e+2, 2.5174153e+2, -494591.38, -597719.6, -6840.4263, 0.00034609615, 0.0020804845, -494139.63, -21206.053, 0.0, 5.0134273, 4.9470043 
2.984557e+2, 2.5668877e+2, -446175.06, -548874.75, -6752.0938, 0.00018087045, -0.0011674624, -445733.03, -21282.652, 0.0, 5.0130987, 4.9469566 
2.9845506e+2, 2.616345e+2, -402051.6, -509791.56, -6236.3013, 0.00012731749, 0.002328127, -401691.8, -25709.139, 0.0, 5.012777, 4.9434733 
2.9845482e+2, 2.6657838e+2, -353225.3, -460155.47, -6103.0005, 0.0003049278, -0.000992473, -352878.13, -25345.559, 0.0, 5.012464, 4.9436812 
2.9845497e+2, 2.7152056e+2, -309388.34, -421952.1, -5495.3696, 0.00032337685, 0.00231509, -309120.7, -30021.688, 0.0, 5.012158, 4.939842 
2.9845557e+2, 2.76461e+2, -260159.11, -371527.34, -5320.4287, -0.00010723281, -0.0013286289, -259905.52, -29222.648, 0.0, 5.0118613, 4.940305 
2.9845655e+2, 2.813998e+2, -216316.48, -333571.7, -4607.913, -0.0003248509, 0.0027524559, -216135.67, -33853.008, 0.0, 5.011575, 4.936335 
2.9845825e+2, 2.863368e+2, -166687.61, -282435.13, -4379.2036, -0.000006301641, -0.0020891633, -166522.16, -32622.428, 0.0, 5.0113106, 4.937022 
2.9846036e+2, 2.9127157e+2, -124760.6, -249243.4, -3593.8477, 0.00006105289, 0.0021882101, -124656.93, -39117.734, 0.0, 5.0110536, 4.931311 
2.9846317e+2, 2.9620376e+2, -75143.57, -198302.78, -3318.1372, -0.0005300249, 0.0001752776, -75054.24, -37850.477, 0.0, 5.0108094, 4.931901 
2.9846644e+2, 3.0114296e+2, -34251.188, -134589.4, -2386.7178, -0.0008003482, 0.0029026796, -34194.445, -34194.445, 0.0, 5.0105796, 4.946026 
2.984707e+2, 3.060897e+2, -33526.93, -131853.08, -2035.7631, -0.00018884477, -0.0047917813, -33484.8, -33484.8, 0.0, 5.010379, 4.947096 
2.984754e+2, 3.1105405e+2, 5213.398, -40121.88, -952.61664, 0.00009886999, 0.004344152, 5233.406, 5233.406, 0.0, 5.010188, 4.9807615 
2.98481e+2, 3.1603608e+2, 6729.5313, -35684.258, -528.68787, -0.0010159288, -0.00038352533, 6736.12, 6736.12, 0.0, 5.0100155, 4.9824734 
3.0348197e+2, 1.2254692e+2, -1690246.9, -1741563.0, -624.2784, -0.00054862583, -0.004628628, -1690239.3, 48801.063, 0.0, 5.0219665, 4.9884953 
3.0348724e+2, 1.2753677e+2, -1643980.0, -1697019.0, -921.74994, 0.0030724588, 0.012978355, -1643964.0, 46175.637, 0.0, 5.021747, 4.987162 
3.0349076e+2, 1.3252018e+2, -1598776.6, -1654669.5, -2126.251, -0.0036526618, -0.011606729, -1598695.8, 42606.473, 0.0, 5.0215297, 4.985014 
3.034946e+2, 1.3750643e+2, -1551487.5, -1608130.6, -2272.7244, -0.00053373765, -0.0015367478, -1551396.5, 41040.746, 0.0, 5.021318, 4.9843187 
3.0349746e+2, 1.4249018e+2, -1506929.0, -1567146.0, -3434.6912, 0.0005917341, 0.0054207845, -1506733.6, 36862.86, 0.0, 5.0210867, 4.9817557 
3.0349946e+2, 1.4747159e+2, -1459545.3, -1520287.1, -3554.5305, -0.00054907583, -0.00074750645, -1459338.0, 35440.605, 0.0, 5.020836, 4.981177 
3.0350092e+2, 1.5245163e+2, -1415010.3, -1479216.3, -4520.0713, -0.00088011054, -0.0001883871, -1414693.6, 31280.742, 0.0, 5.020553, 4.9786725 
3.035019e+2, 1.5743051e+2, -1367739.6, -1432346.1, -4641.44, -0.0003416133, -0.00090278074, -1367407.9, 29773.646, 0.0, 5.020238, 4.978113 
3.0350235e+2, 1.6240776e+2, -1323197.0, -1391173.4, -5486.6943, -0.00012613228, 0.0023418658, -1322757.0, 25647.438, 0.0, 5.0199165, 4.9756355 
3.0350223e+2, 1.6738337e+2, -1275827.1, -1344087.3, -5586.4688, -0.00028530858, -0.0008297581, -1275372.9, 24270.277, 0.0, 5.0195885, 4.975137 
3.0350173e+2, 1.7235751e+2, -1231385.9, -1303146.9, -6270.7925, -0.0003693717, 0.0011861606, -1230842.0, 20054.56, 0.0, 5.0192504, 4.972562 
3.0350083e+2, 1.7733017e+2, -1183963.4, -1255911.8, -6341.3384, -0.00033708473, -0.00097519055, -1183408.8, 18755.873, 0.0, 5.0189023, 4.9721065 
3.034996e+2, 1.8230133e+2, -1139550.5, -1215039.8, -6895.744, -0.00030003462, 0.0016898516, -1138925.8, 14521.706, 0.0, 5.018544, 4.969494 
3.0349803e+2, 1.8727092e+2, -1092089.5, -1167684.0, -6964.0854, -0.00025843212, -0.0006242341, -1091453.4, 13292.407, 0.0, 5.0181756, 4.9690714 
3.0349624e+2, 1.9223906e+2, -1047691.7, -1126839.5, -7366.7344, -0.00014156972, 0.0021243033, -1047011.9, 9046.196, 0.0, 5.0177946, 4.96643 
3.0349424e+2, 1.9720557e+2, -1000214.7, -1079368.0, -7432.5024, 0.00007579667, -0.000469674, -999522.8, 7863.197, 0.0, 5.0173974, 4.9660435 
3.0349207e+2, 2.0217063e+2, -955854.25, -1038693.25, -7701.1387, 0.000017138029, 0.0020024113, -955144.44, 3583.9753, 0.0, 5.017012, 4.9633226 
3.0348969e+2, 2.0713401e+2, -908218.8, -991075.1, -7726.5835, -0.00036418473, -0.0010130769, -907504.44, 2582.8423, 0.0, 5.0166426, 4.962955 
3.0348727e+2, 2.1209595e+2, -863834.8, -950486.0, -7852.218, -0.000450314, 0.0015849152, -863129.0, -1668.8096, 0.0, 5.0162625, 4.9601717 
3.0348483e+2, 2.1705623e+2, -816180.3, -902765.06, -7871.2295, -0.00010110891, -0.001039777, -815470.56, -2621.036, 0.0, 5.015868, 4.959833 
3.0348238e+2, 2.220151e+2, -771798.5, -862212.7, -7845.3027, 0.000118971504, 0.0019373407, -771122.8, -6870.0054, 0.0, 5.0154705, 4.9570165 
3.0347997e+2, 2.2697222e+2, -724083.44, -814384.6, -7856.487, 0.00017520429, -0.0008558005, -723404.94, -7732.334, 0.0, 5.0150695, 4.956701 
3.0347764e+2, 2.3192789e+2, -679725.25, -774035.3, -7722.8477, 0.00012856821, 0.001927367, -679097.0, -11989.955, 0.0, 5.014678, 4.9537835 
3.034754e+2, 2.3688176e+2, -631845.9, -726032.25, -7695.0347, -0.000067902925, -0.0014128282, -631221.3, -12662.392, 0.0, 5.014302, 4.9534984 
3.0347335e+2, 2.418342e+2, -587473.7, -685863.9, -7404.446, -0.00008743717, 0.0018469989, -586919.6, -16894.559, 0.0, 5.013928, 4.9504776 
3.0347157e+2, 2.4678484e+2, -539462.7, -637654.7, -7340.948, 0.00018114879, -0.0014336862, -538916.9, -17407.959, 0.0, 5.013557, 4.950244 
3.0346993e+2, 2.5173396e+2, -495188.78, -597868.5, -6940.952, 0.00034198273, 0.0020651962, -494721.7, -21714.092, 0.0, 5.0131893, 4.9470587 
3.0346864e+2, 2.566813e+2, -446864.47, -549060.75, -6848.3037, 0.00025172488, -0.0011746454, -446407.6, -21883.703, 0.0, 5.012827, 4.947013 
3.0346766e+2, 2.6162705e+2, -402815.16, -509977.28, -6319.519, 0.0002288444, 0.0023432113, -402443.75, -26388.197, 0.0, 5.012471, 4.943544 
3.0346712e+2, 2.6657102e+2, -354074.38, -460372.78, -6186.4375, 0.00035701282, -0.00092211174, -353715.53, -26110.826, 0.0, 5.012126, 4.943754 
3.0346692e+2, 2.715133e+2, -310306.6, -422168.44, -5567.263, 0.00037617364, 0.002424609, -310030.22, -30859.836, 0.0, 5.0117884, 4.9399285 
3.0346718e+2, 2.764538e+2, -261154.86, -371770.0, -5387.6143, 0.000028238748, -0.0012161271, -260893.06, -30139.717, 0.0, 5.0114613, 4.9403944 
3.034679e+2, 2.813927e+2, -217375.02, -333806.5, -4650.5522, -0.00016409483, 0.002858542, -217189.56, -34837.348, 0.0, 5.011145, 4.9364395 
3.0346933e+2, 2.8632984e+2, -167820.6, -282692.1, -4412.317, 0.00005512896, -0.001999496, -167651.36, -33683.145, 0.0, 5.0108504, 4.9371305 
3.0347112e+2, 2.9126468e+2, -125970.055, -249525.81, -3609.4292, 0.00008991559, 0.0022626612, -125864.7, -40258.1, 0.0, 5.010564, 4.9314227 
3.0347368e+2, 2.96197e+2, -76430.4, -198615.25, -3326.9465, -0.00039047928, 0.0002390013, -76339.875, -39069.777, 0.0, 5.0102897, 4.932013 
3.0347672e+2, 3.011363e+2, -35591.28, -134886.42, -2367.1848, -0.00062644994, 0.0029655246, -35534.88, -35534.88, 0.0, 5.0100307, 4.9461536 
3.0348074e+2, 3.0608317e+2, -34935.816, -132166.58, -2005.9747, -0.00016528423, -0.0046999482, -34894.445, -34894.445, 0.0, 5.009802, 4.94723 
3.034852e+2, 3.1104767e+2, 3767.8962, -40406.94, -906.61206, 0.00011286531, 0.004441036, 3786.4949, 3786.4949, 0.0, 5.009585, 4.9809146 
3.034907e+2, 3.1602988e+2, 5233.398, -35971.09, -473.85446, -0.00075787934, -0.00029393233, 5238.8467, 5238.8467, 0.0, 5.0093894, 4.982635 
3.0850396e+2, 1.2254114e+2, -1690310.3, -1741933.1, -749.51, -0.0002518164, -0.0047544385, -1690299.4, 48797.438, 0.0, 5.0220184, 4.988348 
3.08509e+2, 1.2753104e+2, -1644221.8, -1697723.6, -1064.5482, 0.0031190282, 0.015898472, -1644200.5, 45995.508, 0.0, 5.021792, 4.986908 
3.0851218e+2, 1.3251387e+2, -1598889.5, -1655074.9, -2260.8455, -0.0047302614, -0.012516922, -1598798.6, 42565.883, 0.0, 5.021567, 4.984862 
3.0851594e+2, 1.375001e+2, -1551622.9, -1608545.6, -2405.3218, -0.00018903553, -0.000853476, -1551521.4, 40977.742, 0.0, 5.021347, 4.9841676 
3.0851862e+2, 1.4248379e+2, -1507032.1, -1567468.4, -3594.737, 0.0012104943, 0.006617864, -1506819.1, 36840.063, 0.0, 5.0211096, 4.981638 
3.0852026e+2, 1.47465e+2, -1459656.8, -1520611.3, -3714.9429, -0.0008515246, -0.00026220278, -1459431.1, 35412.11, 0.0, 5.0208554, 4.9810596 
3.0852142e+2, 1.5244488e+2, -1415133.5, -1479559.5, -4724.9565, -0.0014147562, -0.00009038261, -1414788.8, 31251.787, 0.0, 5.020571, 4.9785495 
3.0852216e+2, 1.5742365e+2, -1367860.0, -1432686.6, -4842.156, -0.00037155117, -0.0008078257, -1367500.4, 29748.418, 0.0, 5.020257, 4.9779906 
3.0852228e+2, 1.6240078e+2, -1323292.5, -1391454.6, -5693.76, 0.000079383935, 0.0024429134, -1322820.1, 25652.66, 0.0, 5.0199337, 4.9755335 
3.0852184e+2, 1.6737631e+2, -1275929.6, -1344368.3, -5790.842, -0.00014716857, -0.00073741906, -1275443.0, 24269.553, 0.0, 5.0196023, 4.9750366 
3.08521e+2, 1.7235036e+2, -1231462.8, -1303351.4, -6489.3027, -0.00024500937, 0.0013405645, -1230881.6, 20085.184, 0.0, 5.019259, 4.972489 
3.0851975e+2, 1.7732297e+2, -1184056.5, -1256121.3, -6562.872, -0.00017626643, -0.0006694889, -1183463.8, 18771.613, 0.0, 5.0189047, 4.972035 
3.0851814e+2, 1.8229404e+2, -1139651.3, -1215252.5, -7130.423, -0.00027943315, 0.0018722073, -1138984.6, 14534.215, 0.0, 5.0185437, 4.9694223 
3.0851617e+2, 1.872635e+2, -1092185.6, -1167893.6, -7194.62, -0.00058114773, -0.000901149, -1091508.0, 13310.324, 0.0, 5.0181766, 4.9690003 
3.08514e+2, 1.9223157e+2, -1047781.0, -1127037.5, -7614.2485, -0.0004729841, 0.0018015144, -1047056.1, 9075.369, 0.0, 5.017796, 4.966363 
3.0851164e+2, 1.9719806e+2, -1000302.9, -1079561.9, -7677.932, 0.00014575511, -0.00034083115, -999565.94, 7893.9443, 0.0, 5.0173984, 4.965977 
3.085091e+2, 2.021631e+2, -955890.8, -1038754.7, -7928.0293, 0.00031207537, 0.002465103, -955139.1, 3663.314, 0.0, 5.0170083, 4.9633036 
3.0850637e+2, 2.0712648e+2, -908277.06, -991139.4, -7957.724, -0.00006283995, -0.00037142614, -907519.75, 2641.3704, 0.0, 5.0166297, 4.9629393 
3.0850357e+2, 2.120884e+2, -863902.6, -950547.9, -8103.1665, -0.00028202005, 0.002104381, -863151.3, -1617.147, 0.0, 5.016245, 4.960159 
3.0850068e+2, 2.1704863e+2, -816245.2, -902825.3, -8122.305, -0.00025902112, -0.0010407631, -815489.8, -2565.81, 0.0, 5.0158515, 4.9598207 
3.0849785e+2, 2.2200745e+2, -771866.0, -862278.56, -8099.601, -0.000114510745, 0.0016761906, -771146.1, -6818.4834, 0.0, 5.015454, 4.957002 
3.0849504e+2, 2.2696458e+2, -724155.6, -814453.75, -8107.4194, 0.00022184465, -0.0009885716, -723433.5, -7685.794, 0.0, 5.015051, 4.9566855 
3.0849233e+2, 2.3192026e+2, -679759.4, -774005.1, -7955.244, 0.00032904075, 0.0019520138, -679092.56, -11910.516, 0.0, 5.0146565, 4.953804 
3.084897e+2, 2.3687418e+2, -631889.75, -725997.25, -7927.347, 0.00008015256, -0.0011775604, -631226.6, -12593.197, 0.0, 5.014275, 4.953523 
3.0848727e+2, 2.4182665e+2, -587503.2, -685773.4, -7634.9473, -0.000004734885, 0.0021613482, -586913.5, -16814.412, 0.0, 5.0138965, 4.9505234 
3.0848512e+2, 2.4677733e+2, -539498.8, -637561.4, -7572.9575, 0.00019247293, -0.0012579086, -538917.44, -17334.908, 0.0, 5.0135217, 4.9502926 
3.0848315e+2, 2.517265e+2, -495223.0, -597754.3, -7167.4136, 0.00033606964, 0.0021148138, -494724.38, -21643.623, 0.0, 5.013151, 4.947116 
3.0848148e+2, 2.566739e+2, -446905.34, -548947.8, -7073.3813, 0.00029835096, -0.0012152285, -446417.38, -21820.816, 0.0, 5.012786, 4.947071 
3.0848014e+2, 2.616197e+2, -402848.47, -509832.97, -6531.7485, 0.0002878132, 0.002263853, -402451.16, -26323.512, 0.0, 5.0124273, 4.943614 
3.0847925e+2, 2.6656374e+2, -354113.0, -460226.2, -6395.7856, 0.0003525438, -0.0009336935, -353728.9, -26052.813, 0.0, 5.0120792, 4.9438267 
3.084787e+2, 2.715061e+2, -310334.75, -421981.72, -5763.5947, 0.00037854633, 0.0024771166, -310038.0, -30797.064, 0.0, 5.011739, 4.9400163 
3.0847865e+2, 2.7644673e+2, -261189.19, -371578.22, -5582.4287, 0.00016617245, -0.001123262, -260907.61, -30084.605, 0.0, 5.011408, 4.940486 
3.0847907e+2, 2.8138572e+2, -217401.52, -333575.5, -4824.8623, 0.000034121425, 0.0029744892, -217201.48, -34780.605, 0.0, 5.011088, 4.9365463 
3.084802e+2, 2.8632295e+2, -167854.8, -282455.47, -4581.826, 0.0001446013, -0.0018839262, -167671.89, -33636.133, 0.0, 5.010789, 4.9372416 
3.084817e+2, 2.9125792e+2, -126012.66, -249286.78, -3765.8057, 0.00012964538, 0.0023640564, -125897.73, -40224.67, 0.0, 5.010498, 4.931536 
3.08484e+2, 2.9619035e+2, -76481.08, -198378.44, -3479.4385, -0.00027358942, 0.0002912086, -76381.84, -39046.367, 0.0, 5.010221, 4.9321275 
3.0848676e+2, 3.0112976e+2, -35634.273, -134613.28, -2491.8872, -0.000498887, 0.0029902891, -35571.58, -35571.58, 0.0, 5.0099583, 4.9462833 
3.0849054e+2, 3.0607677e+2, -34985.188, -131882.9, -2121.664, -0.00017562794, -0.004640058, -34938.754, -34938.754, 0.0, 5.009724, 4.9473653 
3.084948e+2, 3.110414e+2, 3725.6765, -40083.367, -1003.3777, 0.00011910469, 0.0045164623, 3748.6453, 3748.6453, 0.0, 5.0095024, 4.981069 
3.0850008e+2, 3.1602377e+2, 5188.103, -35627.51, -563.9754, -0.00046369497, -0.00020882553, 5195.8945, 5195.8945, 0.0, 5.0093017, 4.9827995 
3.1352633e+2, 1.2253553e+2, -1688488.5, -1741300.1, -756.6133, -0.00019496618, -0.0045396974, -1688477.6, 50675.133, 0.0, 5.0226817, 4.9882307 
3.1353116e+2, 1.2752542e+2, -1642733.0, -1697546.1, -1093.4092, 0.0034924785, 0.018367052, -1642711.1, 47540.797, 0.0, 5.0224075, 4.9866652 
3.1353396e+2, 1.3250767e+2, -1597412.1, -1654688.5, -2281.4912, -0.0055839075, -0.013975984, -1597321.4, 44104.574, 0.0, 5.0221334, 4.984713 
3.1353757e+2, 1.3749391e+2, -1550301.5, -1608235.6, -2425.4172, -0.00016718762, -0.0006351223, -1550200.1, 42360.152, 0.0, 5.021862, 4.9840198 
3.1354004e+2, 1.4247751e+2, -1505800.6, -1567143.9, -3634.6885, 0.001583529, 0.0074786837, -1505586.0, 38134.918, 0.0, 5.0215826, 4.9815164 
3.1354138e+2, 1.4745857e+2, -1458526.9, -1520335.8, -3761.8257, -0.0006983033, 0.00006475463, -1458298.8, 36607.95, 0.0, 5.0212946, 4.980939 
3.1354225e+2, 1.5243831e+2, -1414062.5, -1479280.0, -4804.8516, -0.0013443318, -0.000032317108, -1413710.4, 32394.879, 0.0, 5.020984, 4.978444 
3.1354263e+2, 1.5741697e+2, -1366848.4, -1432435.6, -4908.1055, -0.0002388496, -0.000695153, -1366483.1, 30831.186, 0.0, 5.02065, 4.977886 
3.1354243e+2, 1.6239402e+2, -1322343.0, -1391207.0, -5767.51, 0.00015736301, 0.0024991755, -1321863.3, 26676.014, 0.0, 5.0203004, 4.9754415 
3.135416e+2, 1.6736941e+2, -1275084.1, -1344169.6, -5858.283, -0.00025930506, -0.0008707401, -1274590.9, 25189.201, 0.0, 5.0199337, 4.9749455 
3.135404e+2, 1.7234339e+2, -1230728.4, -1303190.6, -6580.1484, -0.00032254503, 0.0012189692, -1230135.8, 20899.398, 0.0, 5.01955, 4.9724054 
3.135388e+2, 1.7731594e+2, -1183462.1, -1256027.9, -6667.0063, 0.000023113, -0.0005524148, -1182854.8, 19449.586, 0.0, 5.019148, 4.9719515 
3.135368e+2, 1.8228695e+2, -1139115.8, -1215126.5, -7230.1343, 0.0000022026206, 0.0020916325, -1138434.1, 15154.405, 0.0, 5.018754, 4.969366 
3.1353447e+2, 1.8725637e+2, -1091700.6, -1167789.6, -7281.384, -0.00043633356, -0.00074255955, -1091010.1, 13878.232, 0.0, 5.0183697, 4.968945 
3.135319e+2, 1.9222435e+2, -1047359.3, -1126962.8, -7712.2847, -0.0005012602, 0.0018244882, -1046619.0, 9583.153, 0.0, 5.0179667, 4.9663086 
3.1352907e+2, 1.9719076e+2, -999952.7, -1079518.8, -7766.0073, -0.00008987681, -0.0005473334, -999201.8, 8329.564, 0.0, 5.0175443, 4.9659243 
3.1352615e+2, 2.0215577e+2, -955639.56, -1038732.3, -8020.7563, 0.00011680708, 0.0022662075, -954872.4, 4002.032, 0.0, 5.017115, 4.963262 
3.1352305e+2, 2.0711912e+2, -908193.4, -991194.3, -8074.405, 0.00009496299, -0.00025395508, -907415.2, 2818.1582, 0.0, 5.016678, 4.9628987 
3.1351984e+2, 2.1208104e+2, -863898.0, -950572.1, -8226.202, 0.0000064239975, 0.0024056898, -863124.1, -1517.6122, 0.0, 5.0162516, 4.960148 
3.1351653e+2, 2.1704125e+2, -816292.94, -902868.9, -8241.336, -0.00014756364, -0.0007314082, -815515.44, -2519.056, 0.0, 5.0158386, 4.959812 
3.1351328e+2, 2.2200006e+2, -771968.1, -862328.4, -8221.004, -0.000111573725, 0.0019248524, -771226.25, -6826.2427, 0.0, 5.015418, 4.9570017 
3.1351006e+2, 2.2695719e+2, -724338.4, -814539.7, -8215.428, 0.0002170948, -0.0008883259, -723596.2, -7776.014, 0.0, 5.0149865, 4.9566855 
3.1350696e+2, 2.3191285e+2, -680020.4, -774093.5, -8048.5117, 0.0003566261, 0.0019685884, -679336.75, -12082.168, 0.0, 5.0145574, 4.953819 
3.1350395e+2, 2.368668e+2, -632271.3, -726137.3, -8027.4937, 0.00019423201, -0.0011366511, -631589.75, -12883.915, 0.0, 5.0141325, 4.9535394 
3.135011e+2, 2.4181932e+2, -587969.9, -685899.8, -7734.2715, 0.00012483732, 0.0022231457, -587362.8, -17191.615, 0.0, 5.0137134, 4.9505625 
3.134985e+2, 2.4677004e+2, -540061.7, -637724.4, -7677.711, 0.00022454062, -0.001181813, -539461.75, -17807.586, 0.0, 5.0133023, 4.9503345 
3.1349614e+2, 2.5171924e+2, -495856.94, -597907.56, -7265.821, 0.00033114958, 0.0021934113, -495342.25, -22190.34, 0.0, 5.012898, 4.947176 
3.1349412e+2, 2.566667e+2, -447623.78, -549132.44, -7166.6733, 0.00034040582, -0.0011465324, -447120.28, -22453.232, 0.0, 5.012501, 4.947134 
3.134924e+2, 2.616126e+2, -403636.63, -510017.4, -6607.3286, 0.00034581003, 0.0023184326, -403227.8, -27030.346, 0.0, 5.0121107, 4.94369 
3.1349114e+2, 2.665567e+2, -354982.1, -460440.2, -6463.549, 0.00036906498, -0.00089526316, -354587.44, -26842.281, 0.0, 5.0117316, 4.943905 
3.1349024e+2, 2.7149916e+2, -311275.63, -422200.5, -5815.3433, 0.00039840039, 0.002508369, -310971.6, -31662.383, 0.0, 5.011359, 4.9401064 
3.1348985e+2, 2.7643985e+2, -262216.22, -371828.0, -5631.669, 0.0002711494, -0.0010917267, -261927.63, -31037.266, 0.0, 5.010995, 4.9405785 
3.1348994e+2, 2.8137892e+2, -218500.63, -333820.8, -4852.459, 0.00017048519, 0.003006057, -218296.8, -35809.51, 0.0, 5.0106416, 4.936654 
3.1349072e+2, 2.8631628e+2, -169040.34, -282727.9, -4603.6816, 0.00018633807, -0.0018394637, -168854.23, -34753.156, 0.0, 5.0103083, 4.9373536 
3.134919e+2, 2.9125136e+2, -127277.92, -249580.9, -3768.12, 0.00015233459, 0.0024197102, -127161.94, -41424.707, 0.0, 5.0099854, 4.931653 
3.1349394e+2, 2.9618388e+2, -77813.414, -198695.98, -3473.0356, -0.00010541238, 0.0003442486, -77713.71, -40315.223, 0.0, 5.0096817, 4.9322457 
3.134964e+2, 3.0112347e+2, -37016.65, -134916.36, -2457.8894, -0.00028071072, 0.003043532, -36954.98, -36954.98, 0.0, 5.0093913, 4.9464173 
3.1349993e+2, 3.060706e+2, -36445.293, -132206.17, -2076.4988, -0.00013060785, -0.0045762397, -36400.29, -36400.29, 0.0, 5.009126, 4.947505 
3.1350398e+2, 3.110354e+2, 2220.8015, -40381.465, -936.89844, 0.00014413874, 0.0045738905, 2241.3955, 2241.3955, 0.0, 5.0088754, 4.9812274 
3.1350908e+2, 3.1601793e+2, 3628.3987, -35927.254, -487.07242, -0.00017348747, -0.00016905466, 3634.3953, 3634.3953, 0.0, 5.00865, 4.982968 
3.18549e+2, 1.2253008e+2, -1688478.4, -1741517.8, -846.3762, -0.0003852331, -0.003699884, -1688464.9, 50742.734, 0.0, 5.0227327, 4.988134 
3.1855363e+2, 1.2751988e+2, -1642956.0, -1698210.3, -1221.5819, 0.004037283, 0.020594522, -1642929.0, 47378.227, 0.0, 5.0224524, 4.9864244 
3.1855604e+2, 1.3250153e+2, -1597510.6, -1655085.3, -2415.0227, -0.0063100406, -0.01566105, -1597409.5, 44077.254, 0.0, 5.0221753, 4.984562 
3.185594e+2, 1.3748781e+2, -1550396.8, -1608627.1, -2568.026, -0.00030291214, -0.00064828095, -1550283.8, 42337.16, 0.0, 5.0219035, 4.98387 
3.1856164e+2, 1.4247133e+2, -1505872.3, -1567467.5, -3794.7776, 0.0018207078, 0.008160551, -1505639.4, 38142.715, 0.0, 5.02162, 4.981391 
3.1856272e+2, 1.4745222e+2, -1458622.5, -1520668.0, -3922.3352, -0.00034543802, 0.00030475913, -1458375.5, 36593.87, 0.0, 5.0213227, 4.980815 
3.1856322e+2, 1.5243183e+2, -1414144.5, -1479548.4, -5000.093, -0.0010062045, -0.0000028024422, -1413764.5, 32404.691, 0.0, 5.0210047, 4.978345 
3.1856328e+2, 1.574104e+2, -1366946.8, -1432709.9, -5105.8296, -0.000043811884, -0.0005929567, -1366552.6, 30826.318, 0.0, 5.020664, 4.9777875 
3.1856272e+2, 1.6238733e+2, -1322435.6, -1391455.6, -5989.812, 0.00017018714, 0.0025231645, -1321919.8, 26685.078, 0.0, 5.020312, 4.975353 
3.1856152e+2, 1.6736263e+2, -1275173.0, -1344414.0, -6081.156, -0.00048491886, -0.0011090243, -1274642.9, 25203.543, 0.0, 5.0199456, 4.9748583 
3.1855994e+2, 1.723365e+2, -1230819.6, -1303442.0, -6827.7373, -0.0004964355, 0.0009690961, -1230183.4, 20919.09, 0.0, 5.019562, 4.972316 
3.1855795e+2, 1.7730899e+2, -1183551.6, -1256277.0, -6913.126, 0.00021643809, -0.00053621613, -1182900.4, 19472.154, 0.0, 5.01916, 4.9718623 
3.185556e+2, 1.8227996e+2, -1139166.6, -1215269.0, -7465.9556, 0.00038222235, 0.0023106504, -1138441.1, 15216.051, 0.0, 5.018761, 4.969315 
3.1855285e+2, 1.8724933e+2, -1091782.3, -1167942.1, -7522.0195, -0.000076149314, -0.00039093875, -1091046.4, 13910.895, 0.0, 5.018365, 4.9688964 
3.1854987e+2, 1.9221726e+2, -1047452.1, -1127117.8, -7979.7495, -0.0003790292, 0.0020105692, -1046660.75, 9610.848, 0.0, 5.0179577, 4.9662604 
3.185466e+2, 1.9718358e+2, -1000032.6, -1079665.1, -8032.13, -0.00046137147, -0.00089898444, -999230.56, 8371.078, 0.0, 5.017539, 4.9658775 
3.1854323e+2, 2.021485e+2, -955722.75, -1038892.1, -8294.147, -0.0003085014, 0.0017651785, -954903.7, 4041.6875, 0.0, 5.0171103, 4.96321 
3.185397e+2, 2.0711187e+2, -908283.2, -991357.9, -8343.403, 0.00017045895, -0.00039116517, -907453.5, 2851.2893, 0.0, 5.016671, 4.9628463 
3.185361e+2, 2.1207377e+2, -863943.4, -950619.6, -8477.804, 0.00033294284, 0.0025866812, -863121.94, -1443.8363, 0.0, 5.0162406, 4.9601374 
3.185324e+2, 2.17034e+2, -816352.25, -902914.94, -8494.653, 0.00008284516, -0.00029189262, -815526.56, -2458.7979, 0.0, 5.0158215, 4.9598045 
3.185287e+2, 2.2199282e+2, -772020.75, -862339.9, -8489.498, 0.0000007569568, 0.002405424, -771229.75, -6758.4365, 0.0, 5.0153966, 4.957008 
3.1852505e+2, 2.2694992e+2, -724391.6, -814548.94, -8486.475, 0.00018464406, -0.0006797128, -723599.75, -7708.22, 0.0, 5.014964, 4.956693 
3.1852147e+2, 2.3190558e+2, -680071.94, -774090.5, -8314.984, 0.0002952286, 0.0019837513, -679342.2, -12016.281, 0.0, 5.0145335, 4.953831 
3.1851807e+2, 2.3685953e+2, -632331.7, -726137.8, -8291.674, 0.0002832613, -0.0011874912, -631604.4, -12827.2295, 0.0, 5.0141053, 4.9535522 
3.1851482e+2, 2.4181205e+2, -588009.6, -685837.3, -7987.2656, 0.00026824416, 0.0021616793, -587361.8, -17119.412, 0.0, 5.013683, 4.9505987 
3.185118e+2, 2.4676281e+2, -540107.7, -637657.8, -7929.1963, 0.00025694608, -0.0011587598, -539467.4, -17742.441, 0.0, 5.0132685, 4.9503736 
3.1850904e+2, 2.5171208e+2, -495884.75, -597781.25, -7507.7925, 0.00031612333, 0.002279054, -495334.53, -22112.443, 0.0, 5.0128603, 4.9472375 
3.1850663e+2, 2.566596e+2, -447658.1, -549001.0, -7409.2656, 0.00036940214, -0.0010332181, -447119.25, -22382.713, 0.0, 5.012459, 4.947199 
3.185045e+2, 2.6160556e+2, -403664.2, -509850.44, -6838.114, 0.0003914571, 0.0024304441, -403225.63, -26959.398, 0.0, 5.012065, 4.9437695 
3.1850287e+2, 2.6654974e+2, -355017.25, -460270.72, -6692.7715, 0.0003834561, -0.0008393898, -354593.38, -26780.242, 0.0, 5.011682, 4.943987 
3.185016e+2, 2.7149227e+2, -311308.56, -422007.9, -6033.8, 0.00041351942, 0.002522528, -310980.66, -31604.281, 0.0, 5.0113063, 4.940198 
3.1850088e+2, 2.7643308e+2, -262254.06, -371632.97, -5848.561, 0.00034633031, -0.0010967264, -261942.22, -30985.57, 0.0, 5.0109396, 4.940672 
3.1850058e+2, 2.8137225e+2, -218528.6, -333586.53, -5049.097, 0.00026278902, 0.0029896565, -218307.45, -35754.848, 0.0, 5.0105834, 4.936763 
3.18501e+2, 2.8630975e+2, -169074.92, -282487.53, -4795.484, 0.00019053846, -0.0018380817, -168872.52, -34707.23, 0.0, 5.010246, 4.937466 
3.185019e+2, 2.9124492e+2, -127316.46, -249327.28, -3940.751, 0.00015184138, 0.0024440454, -127189.31, -41389.008, 0.0, 5.0099187, 4.931772 
3.1850362e+2, 2.961776e+2, -77861.61, -198441.98, -3640.8755, 0.000071709015, 0.00038844015, -77751.77, -40291.426, 0.0, 5.0096107, 4.932367 
3.1850582e+2, 3.0111727e+2, -37060.34, -134628.92, -2601.9197, -0.00003713893, 0.0031015617, -36991.004, -36991.004, 0.0, 5.009316, 4.946553 
3.1850907e+2, 3.0606458e+2, -36494.773, -131907.36, -2213.2996, -0.000076334356, -0.004520946, -36443.457, -36443.457, 0.0, 5.009046, 4.9476476 
3.1851286e+2, 3.1102952e+2, 2178.9153, -40043.348, -1050.6088, 0.0001571634, 0.004614103, 2205.0413, 2205.0413, 0.0, 5.0087905, 4.981388 
3.1851774e+2, 3.1601217e+2, 3586.1104, -35566.82, -593.48254, 0.00007868948, -0.00015353362, 3595.1042, 3595.1042, 0.0, 5.00856, 4.983139 
3.2357195e+2, 1.2252489e+2, -1686600.1, -1740846.5, -613.6898, -0.0015773862, -0.0046417867, -1686593.3, 52665.133, 0.0, 5.0234127, 4.9880214 
3.235765e+2, 1.2751469e+2, -1641455.4, -1698096.9, -1060.4231, 0.0051704333, 0.0224183, -1641435.5, 48922.137, 0.0, 5.023087, 4.9861517 
3.2357857e+2, 1.3249578e+2, -1595995.4, -1654787.6, -2273.504, -0.006142486, -0.016981065, -1595907.6, 45634.88, 0.0, 5.022777, 4.984367 
3.235816e+2, 1.3748197e+2, -1548943.8, -1608357.4, -2469.1956, -0.00038608751, -0.0008505697, -1548841.4, 43836.113, 0.0, 5.0224853, 4.983677 
3.235835e+2, 1.424654e+2, -1504438.1, -1567060.0, -3754.2053, 0.0017015724, 0.008455632, -1504213.9, 39626.1, 0.0, 5.0221643, 4.9812627 
3.235843e+2, 1.4744614e+2, -1457352.9, -1520339.9, -3888.0684, -0.00030874187, 0.0003325875, -1457113.8, 37915.227, 0.0, 5.0218124, 4.980688 
3.235845e+2, 1.5242562e+2, -1412999.6, -1479243.6, -5001.033, -0.0008928547, -0.0001093311, -1412624.1, 33605.926, 0.0, 5.0214443, 4.9782352 
3.2358417e+2, 1.5740408e+2, -1365937.4, -1432470.3, -5119.581, 0.000065482745, -0.0006498733, -1365545.6, 31895.21, 0.0, 5.021059, 4.977679 
3.2358322e+2, 1.6238092e+2, -1321500.0, -1391209.9, -6018.8057, 0.00031296015, 0.0025235894, -1320984.1, 27683.41, 0.0, 5.020673, 4.975263 
3.2358167e+2, 1.6735612e+2, -1274302.1, -1344198.3, -6114.112, -0.00027149552, -0.0010567954, -1273771.3, 26138.766, 0.0, 5.0202847, 4.974769 
3.2357964e+2, 1.7232992e+2, -1230008.5, -1303247.6, -6886.4653, -0.00041090485, 0.0009670216, -1229366.6, 21800.344, 0.0, 5.0198793, 4.9722304 
3.2357723e+2, 1.7730229e+2, -1182809.5, -1256115.8, -6969.9043, -0.000058104604, -0.000709995, -1182152.6, 20285.354, 0.0, 5.019454, 4.971778 
3.2357445e+2, 1.8227318e+2, -1138535.3, -1215129.6, -7544.677, 0.00014899737, 0.0021348675, -1137799.1, 15924.402, 0.0, 5.019011, 4.9692445 
3.2357135e+2, 1.8724251e+2, -1091346.9, -1167895.6, -7621.812, 0.0002072873, -0.00037174814, -1090595.4, 14428.882, 0.0, 5.0185475, 4.9688263 
3.2356793e+2, 1.9221039e+2, -1047094.3, -1127038.1, -8077.2026, 0.00004302334, 0.0021375942, -1046286.44, 10052.481, 0.0, 5.0180993, 4.966222 
3.235642e+2, 1.9717667e+2, -999703.4, -1079596.0, -8120.951, -0.000361654, -0.00076347846, -998886.25, 8782.913, 0.0, 5.01767, 4.9658403 
3.235604e+2, 2.0214155e+2, -955447.1, -1038843.94, -8395.803, -0.00040226337, 0.0018229975, -954610.3, 4403.006, 0.0, 5.0172224, 4.9631753 
3.2355642e+2, 2.0710486e+2, -908100.94, -991353.9, -8430.688, 0.00004982056, -0.0005171167, -907255.75, 3117.506, 0.0, 5.016751, 4.9628115 
3.2355237e+2, 2.1206674e+2, -863858.9, -950632.8, -8553.943, 0.0002667226, 0.0024109334, -863023.7, -1276.6964, 0.0, 5.0162807, 4.9601145 
3.2354823e+2, 2.1702696e+2, -816406.7, -902991.4, -8583.29, 0.00017322441, -0.00033179336, -815564.0, -2427.2815, 0.0, 5.0158124, 4.959783 
3.2354409e+2, 2.2198577e+2, -772159.1, -862404.9, -8587.785, 0.00014994144, 0.002477579, -771349.2, -6808.8457, 0.0, 5.015348, 4.9570084 
3.2353997e+2, 2.2694288e+2, -724604.0, -814643.44, -8589.602, 0.00024342646, -0.0005306364, -723791.9, -7831.4063, 0.0, 5.0148883, 4.9566956 
3.2353598e+2, 2.3189856e+2, -680349.5, -774177.3, -8418.49, 0.00032545198, 0.0021633233, -679600.2, -12205.418, 0.0, 5.014427, 4.9538503 
3.235321e+2, 2.3685254e+2, -632709.25, -726266.2, -8387.788, 0.00037833996, -0.0010479066, -631963.2, -13117.406, 0.0, 5.0139623, 4.9535728 
3.235284e+2, 2.4180509e+2, -588466.56, -685961.2, -8068.111, 0.00036905135, 0.0022548253, -587803.4, -17492.629, 0.0, 5.013503, 4.950637 
3.2352495e+2, 2.4675588e+2, -540665.2, -637821.8, -8007.163, 0.0002619447, -0.0011126178, -540009.7, -18216.742, 0.0, 5.0130515, 4.950414 
3.2352176e+2, 2.517052e+2, -496523.56, -597941.44, -7576.258, 0.00027842965, 0.0022947988, -495960.72, -22671.068, 0.0, 5.012606, 4.9472957 
3.2351893e+2, 2.5665277e+2, -448397.16, -549199.1, -7480.938, 0.00037231165, -0.0010204631, -447845.0, -23041.475, 0.0, 5.012167, 4.94726 
3.235164e+2, 2.615988e+2, -404483.06, -510042.44, -6898.346, 0.00040876842, 0.0024420356, -404034.16, -27701.63, 0.0, 5.011736, 4.943848 
3.2351434e+2, 2.6654306e+2, -355930.8, -460495.94, -6750.6006, 0.00035674716, -0.0008276841, -355496.8, -27618.215, 0.0, 5.011317, 4.9440694 
3.2351267e+2, 2.714857e+2, -312299.7, -422237.63, -6075.4546, 0.00037823094, 0.0025358084, -311964.97, -32524.016, 0.0, 5.0109067, 4.940293 
3.2351157e+2, 2.7642658e+2, -263322.1, -371888.72, -5884.361, 0.00038192692, -0.0010849205, -263004.1, -31983.836, 0.0, 5.01051, 4.9407697 
3.235109e+2, 2.8136587e+2, -219663.69, -333838.75, -5062.815, 0.0003291622, 0.002995873, -219439.64, -36824.414, 0.0, 5.0101223, 4.9368744 
3.2351097e+2, 2.8630346e+2, -170295.3, -282766.94, -4802.448, 0.0001836795, -0.0018378156, -170090.61, -35863.816, 0.0, 5.009751, 4.9375815 
3.2351154e+2, 2.9123875e+2, -128619.72, -249628.6, -3924.7107, 0.00014041936, 0.0024512354, -128492.56, -42631.92, 0.0, 5.0093904, 4.931893 
3.2351294e+2, 2.9617158e+2, -79247.42, -198772.67, -3618.1174, 0.00020624389, 0.00041964982, -79138.0, -41618.535, 0.0, 5.00905, 4.9324903 
3.2351482e+2, 3.011114e+2, -38506.938, -134946.39, -2554.6572, 0.00015174206, 0.003143398, -38439.313, -38439.313, 0.0, 5.0087233, 4.946693 
3.2351777e+2, 3.060588e+2, -38018.71, -132242.7, -2155.584, -0.000036307993, -0.0045005046, -37969.426, -37969.426, 0.0, 5.0084214, 4.947794 
3.2352126e+2, 3.110239e+2, 611.23224, -40354.418, -966.6618, 0.00018263144, 0.004631978, 634.0298, 634.0298, 0.0, 5.008137, 4.981553 
3.2352594e+2, 3.1600678e+2, 1970.6053, -35876.37, -498.31253, 0.00034902646, -0.00009964725, 1977.1652, 1977.1652, 0.0, 5.007885, 4.9833136 
3.2859522e+2, 1.2251993e+2, -1686571.5, -1741097.5, -795.74023, -0.0032245575, -0.005423988, -1686559.9, 52745.996, 0.0, 5.0234795, 4.987906 
3.2859975e+2, 1.2750968e+2, -1641711.9, -1698895.4, -1287.7653, 0.0065959836, 0.023994742, -1641682.9, 48722.73, 0.0, 5.0231457, 4.98586 
3.286014e+2, 1.3249025e+2, -1596175.9, -1655374.9, -2473.2659, -0.005601969, -0.018124854, -1596072.6, 45522.938, 0.0, 5.022824, 4.98415 
3.286041e+2, 1.3747633e+2, -1549160.5, -1608957.6, -2658.8926, -0.0004588631, -0.0011275538, -1549042.5, 43689.44, 0.0, 5.022518, 4.9834623 
3.2860568e+2, 1.4245962e+2, -1504558.0, -1567421.1, -3979.4146, 0.0014195843, 0.008578215, -1504307.1, 39588.863, 0.0, 5.022188, 4.9811316 
3.2860607e+2, 1.4744018e+2, -1457482.4, -1520700.9, -4105.507, -0.00040891638, 0.00025230763, -1457216.9, 37869.97, 0.0, 5.021832, 4.980559 
3.2860592e+2, 1.5241952e+2, -1413112.5, -1479566.3, -5236.7295, -0.00089043204, -0.00029116496, -1412702.4, 33587.027, 0.0, 5.021463, 4.978119 
3.2860523e+2, 1.5739788e+2, -1366038.3, -1432784.9, -5350.9663, 0.000105789695, -0.00079635286, -1365611.9, 31889.406, 0.0, 5.0210805, 4.9775634 
3.2860392e+2, 1.6237463e+2, -1321579.1, -1391459.9, -6251.322, 0.00048776023, 0.0024981, -1321024.4, 27704.61, 0.0, 5.02069, 4.975171 
3.28602e+2, 1.6734977e+2, -1274413.8, -1344461.4, -6348.33, 0.00012563025, -0.00088558055, -1273843.1, 26129.08, 0.0, 5.0202904, 4.9746785 
3.2859957e+2, 1.7232347e+2, -1230122.4, -1303494.9, -7146.088, -0.00020656272, 0.0010728942, -1229432.9, 21797.072, 0.0, 5.0198803, 4.9721475 
3.2859665e+2, 1.7729573e+2, -1182910.1, -1256354.4, -7228.3423, -0.00053227687, -0.0009617044, -1182205.5, 20296.656, 0.0, 5.0194592, 4.9716954 
3.2859343e+2, 1.8226652e+2, -1138624.9, -1215356.8, -7828.082, -0.00035859892, 0.0017870449, -1137834.4, 15954.205, 0.0, 5.019018, 4.969165 
3.2858995e+2, 1.8723579e+2, -1091434.0, -1168119.9, -7903.007, 0.00043207253, -0.0005138848, -1090628.0, 14462.106, 0.0, 5.018555, 4.9687476 
3.285861e+2, 1.9220364e+2, -1047136.0, -1127142.9, -8335.165, 0.0005750886, 0.002217415, -1046276.9, 10128.317, 0.0, 5.018102, 4.9661856 
3.285819e+2, 1.9716991e+2, -999773.06, -1079709.4, -8382.675, -0.000051570918, -0.00042171008, -998903.44, 8831.962, 0.0, 5.0176625, 4.9658055 
3.285776e+2, 2.0213476e+2, -955522.9, -1038944.4, -8690.277, -0.0003392413, 0.0021311874, -954627.2, 4452.5796, 0.0, 5.0172095, 4.9631476 
3.2857314e+2, 2.07098e+2, -908171.94, -991450.44, -8727.462, -0.00015845802, -0.00063346984, -907267.1, 3173.1174, 0.0, 5.016739, 4.9627843 
3.2856864e+2, 2.1205983e+2, -863931.4, -950731.1, -8847.229, 0.00001670106, 0.0020785728, -863038.8, -1224.3741, 0.0, 5.016268, 4.9600873 
3.2856402e+2, 2.1702003e+2, -816487.06, -903094.4, -8872.773, 0.00018852467, -0.0005924119, -815587.44, -2382.8362, 0.0, 5.015797, 4.959755 
3.2855946e+2, 2.2197884e+2, -772214.6, -862437.6, -8869.555, 0.00030397545, 0.0023541695, -771351.0, -6742.6714, 0.0, 5.0153294, 4.957006 
3.2855487e+2, 2.2693598e+2, -724667.94, -814674.3, -8870.828, 0.00033375004, -0.0004203861, -723801.94, -7773.6978, 0.0, 5.014866, 4.9566956 
3.2855043e+2, 2.3189168e+2, -680395.3, -774150.06, -8703.439, 0.00038938058, 0.002408301, -679594.2, -12131.838, 0.0, 5.0144005, 4.953872 
3.2854608e+2, 2.3684567e+2, -632759.9, -726235.2, -8674.772, 0.00046639028, -0.00082691544, -631961.7, -13048.551, 0.0, 5.013933, 4.953597 
3.2854193e+2, 2.4179825e+2, -588506.6, -685890.7, -8346.628, 0.0004392823, 0.0024157867, -587796.44, -17418.63, 0.0, 5.0134706, 4.9506764 
3.28538e+2, 2.4674909e+2, -540712.44, -637750.06, -8284.919, 0.0002456834, -0.0010583778, -540010.2, -18150.53, 0.0, 5.0130157, 4.9504557 
3.2853436e+2, 2.5169843e+2, -496561.4, -597830.56, -7844.4277, 0.00022019682, 0.0022761694, -495957.34, -22601.436, 0.0, 5.0125666, 4.9473524 
3.285311e+2, 2.5664607e+2, -448441.94, -549085.6, -7747.9355, 0.00035025456, -0.0010596575, -447848.97, -22979.74, 0.0, 5.012124, 4.947319 
3.285281e+2, 2.6159215e+2, -404513.56, -509877.3, -7151.231, 0.00040014338, 0.0023992048, -404030.4, -27632.822, 0.0, 5.011689, 4.9439273 
3.2852566e+2, 2.6653653e+2, -355967.53, -460324.72, -7002.02, 0.00029827826, -0.000844611, -355499.8, -27557.018, 0.0, 5.011266, 4.9441524 
3.2852355e+2, 2.7147925e+2, -312329.53, -422030.88, -6311.6123, 0.00030497028, 0.0025402878, -311967.6, -32463.36, 0.0, 5.0108523, 4.9403896 
3.285221e+2, 2.7642024e+2, -263357.6, -371677.1, -6118.996, 0.000384151, -0.001072956, -263013.03, -31930.473, 0.0, 5.0104523, 4.9408703 
3.28521e+2, 2.813596e+2, -219693.39, -333593.88, -5280.81, 0.00036835577, 0.0030057628, -219449.08, -36772.59, 0.0, 5.010061, 4.9369884 
3.2852072e+2, 2.8629732e+2, -170332.9, -282517.44, -5016.5425, 0.00015711936, -0.0018466781, -170109.02, -35822.11, 0.0, 5.009685, 4.9376993 
3.285209e+2, 2.9123276e+2, -128662.37, -249368.77, -4118.0146, 0.00010884423, 0.0024409413, -128522.04, -42602.43, 0.0, 5.0093207, 4.932016 
3.28522e+2, 2.9616567e+2, -79297.0, -198511.66, -3805.9417, 0.0003038051, 0.0004358528, -79175.62, -41598.414, 0.0, 5.008977, 4.932615 
3.2852355e+2, 3.0110562e+2, -38547.4, -134644.52, -2718.1763, 0.00029600595, 0.0031688751, -38470.574, -38470.574, 0.0, 5.008646, 4.946835 
3.285262e+2, 3.060532e+2, -38065.008, -131926.72, -2312.4236, -0.000020146586, -0.004506821, -38008.074, -38008.074, 0.0, 5.0083394, 4.9479437 
3.285294e+2, 3.1101847e+2, 569.53186, -40002.355, -1094.7737, 0.00019087023, 0.0046322234, 599.0513, 599.0513, 0.0, 5.0080495, 4.9817204 
3.2853386e+2, 3.160015e+2, 1925.3102, -35503.887, -617.58264, 0.00058677053, -0.00003143539, 1935.4976, 1935.4976, 0.0, 5.0077915, 4.983491 
3.33619e+2, 1.2251515e+2, -1684495.1, -1740347.6, -808.51306, -0.0043835538, -0.0064022234, -1684483.5, 54869.61, 0.0, 5.0242305, 4.987784 
3.3362338e+2, 1.2750478e+2, -1640067.1, -1698785.9, -1369.8286, 0.0077424445, 0.024955397, -1640035.1, 50418.832, 0.0, 5.0238457, 4.9855533 
3.3362454e+2, 1.324849e+2, -1594531.1, -1654998.1, -2541.6133, -0.0055368617, -0.019291518, -1594424.5, 47223.96, 0.0, 5.0234656, 4.983962 
3.336269e+2, 1.3747089e+2, -1547728.0, -1608679.8, -2703.796, -0.0005987206, -0.001157955, -1547608.4, 45177.063, 0.0, 5.0230885, 4.9832773 
3.3362812e+2, 1.4245407e+2, -1503170.6, -1566974.4, -4022.6084, 0.0013815297, 0.009008494, -1502918.0, 41032.324, 0.0, 5.0227036, 4.9810305 
3.336282e+2, 1.4743452e+2, -1456208.8, -1520306.5, -4124.727, -0.00008668097, 0.0003167811, -1455944.4, 39198.21, 0.0, 5.022309, 4.9804597 
3.3362764e+2, 1.5241374e+2, -1411918.4, -1479218.3, -5244.5225, -0.00067908294, -0.00048058582, -1411512.1, 34834.164, 0.0, 5.021915, 4.978018 
3.336265e+2, 1.57392e+2, -1364885.1, -1432457.5, -5348.409, -0.00027653924, -0.0010691615, -1364464.4, 33094.668, 0.0, 5.0215197, 4.9774623 
3.3362478e+2, 1.6236864e+2, -1320540.1, -1391186.1, -6283.6953, 0.0000620831, 0.0022653115, -1319985.5, 28802.033, 0.0, 5.021091, 4.975072 
3.3362246e+2, 1.673437e+2, -1273574.0, -1344284.8, -6391.9116, 0.00025139595, -0.0009571979, -1273000.9, 27030.93, 0.0, 5.0206237, 4.9745793 
3.3361962e+2, 1.7231733e+2, -1229370.1, -1303308.0, -7181.4956, 0.00013058716, 0.001127153, -1228679.1, 22611.234, 0.0, 5.0201735, 4.9720716 
3.336163e+2, 1.7728952e+2, -1182192.8, -1256182.5, -7258.3843, -0.00038331447, -0.00081923784, -1181487.4, 21075.754, 0.0, 5.01974, 4.9716206 
3.336126e+2, 1.8226023e+2, -1137950.1, -1215191.4, -7885.3584, -0.00039394756, 0.001828136, -1137153.4, 16696.945, 0.0, 5.019282, 4.969097 
3.3360857e+2, 1.872294e+2, -1090831.3, -1167989.1, -7952.1304, 0.00021749089, -0.00080482505, -1090020.1, 15132.464, 0.0, 5.0187945, 4.96868 
3.3360428e+2, 1.9219717e+2, -1046642.3, -1127042.0, -8389.107, 0.00040401582, 0.0018274279, -1045776.3, 10692.117, 0.0, 5.0182996, 4.966128 
3.3359966e+2, 1.971634e+2, -999464.1, -1079694.8, -8458.202, 0.00009629076, -0.0006109086, -998582.1, 9217.013, 0.0, 5.017796, 4.965749 
3.335949e+2, 2.0212823e+2, -955310.56, -1038915.6, -8781.277, -0.00009065706, 0.0020904234, -954398.2, 4745.623, 0.0, 5.0172973, 4.963117 
3.3358994e+2, 2.0709145e+2, -908019.94, -991446.2, -8820.413, -0.00009313206, -0.0005999126, -907097.56, 3406.9158, 0.0, 5.016805, 4.9627557 
3.335849e+2, 2.1205325e+2, -863839.1, -950725.56, -8942.299, -0.00001835192, 0.0021188632, -862928.3, -1049.443, 0.0, 5.0163074, 4.9600716 
3.3357984e+2, 2.1701343e+2, -816494.5, -903133.8, -8956.542, 0.00016309686, -0.000631449, -815578.3, -2309.0996, 0.0, 5.0158014, 4.95974 
3.3357474e+2, 2.2197223e+2, -772310.5, -862486.2, -8943.445, 0.00028565287, 0.002267666, -771432.06, -6759.0244, 0.0, 5.015296, 4.957005 
3.335697e+2, 2.2692937e+2, -724879.06, -814773.3, -8944.315, 0.00030518288, -0.00050504855, -723997.75, -7904.728, 0.0, 5.014791, 4.956696 
3.3356473e+2, 2.3188509e+2, -680695.1, -774251.1, -8778.751, 0.00037438056, 0.0023585928, -679878.5, -12351.479, 0.0, 5.014287, 4.953889 
3.335599e+2, 2.368391e+2, -633159.2, -726376.94, -8755.16, 0.00049422233, -0.00079290924, -632344.0, -13366.418, 0.0, 5.013783, 4.9536166 
3.335553e+2, 2.4179171e+2, -588983.94, -686022.9, -8421.182, 0.00047920554, 0.0025058426, -588258.56, -17816.572, 0.0, 5.0132837, 4.950715 
3.335509e+2, 2.4674259e+2, -541291.0, -637921.3, -8358.441, 0.00024525062, -0.00095506513, -540573.4, -18649.984, 0.0, 5.012791, 4.950497 
3.335468e+2, 2.51692e+2, -497220.66, -597994.94, -7906.5024, 0.00018750882, 0.0023616618, -496604.13, -23184.945, 0.0, 5.0123043, 4.9474125 
3.3354303e+2, 2.566397e+2, -449201.16, -549286.9, -7805.5435, 0.00030283126, -0.0010486878, -448596.06, -23664.195, 0.0, 5.0118237, 4.9473825 
3.335396e+2, 2.615858e+2, -405356.6, -510078.53, -7192.131, 0.00034213348, 0.002356256, -404864.94, -28405.38, 0.0, 5.011351, 4.9440064 
3.335367e+2, 2.6653028e+2, -356909.66, -460561.5, -7041.0015, 0.00021644215, -0.00090342236, -356433.53, -28429.584, 0.0, 5.01089, 4.944235 
3.3353418e+2, 2.7147308e+2, -313354.84, -422270.94, -6332.5674, 0.00021935666, 0.0024842261, -312987.9, -33423.35, 0.0, 5.0104394, 4.940487 
3.3353227e+2, 2.764142e+2, -264471.38, -371947.03, -6137.3203, 0.0003589702, -0.0010969371, -264122.03, -32980.176, 0.0, 5.0100045, 4.940971 
3.335308e+2, 2.8135368e+2, -220882.39, -333859.66, -5281.519, 0.00037837034, 0.0029951837, -220636.03, -37901.31, 0.0, 5.009578, 4.9371047 
3.3353013e+2, 2.862915e+2, -171613.05, -282811.5, -5010.9355, 0.00012903694, -0.0018874046, -171387.69, -37043.703, 0.0, 5.009166, 4.93782 
3.3352992e+2, 2.9122704e+2, -130026.97, -249683.67, -4084.2004, 0.00009205008, 0.002393107, -129887.73, -43912.246, 0.0, 5.0087676, 4.9321427 
3.3353066e+2, 2.961601e+2, -80735.26, -198851.03, -3761.9402, 0.0004061863, 0.00042700383, -80615.56, -42983.777, 0.0, 5.0083942, 4.932744 
3.335319e+2, 3.011002e+2, -40043.375, -134970.66, -2651.3823, 0.00044645017, 0.0031762181, -39969.38, -39969.38, 0.0, 5.008033, 4.9469805 
3.3353418e+2, 3.0604792e+2, -39646.684, -132274.5, -2237.7395, 0.000029231891, -0.004532663, -39592.652, -39592.652, 0.0, 5.0076914, 4.948096 
3.3353707e+2, 3.1101334e+2, -1066.357, -40330.85, -990.6124, 0.00022709068, 0.004620455, -1041.3806, -1041.3806, 0.0, 5.007369, 4.9818907 
3.3354127e+2, 3.1599656e+2, 228.09808, -35837.375, -501.5855, 0.0007904979, 0.000017062961, 235.0726, 235.0726, 0.0, 5.0070844, 4.9836707 
3.3864313e+2, 1.2251061e+2, -1684500.0, -1740630.8, -896.1843, -0.0052609397, -0.0062441104, -1684485.6, 54912.64, 0.0, 5.024289, 4.9876623 
3.3864734e+2, 1.2749997e+2, -1640371.1, -1699669.8, -1505.9081, 0.00874034, 0.025563847, -1640332.9, 50169.086, 0.0, 5.0239015, 4.9852347 
3.38648e+2, 1.3247964e+2, -1594643.3, -1655462.9, -2671.6023, -0.0057267155, -0.020499138, -1594526.1, 47174.52, 0.0, 5.0235157, 4.983784 
3.3864996e+2, 1.3746561e+2, -1547855.3, -1609143.8, -2841.6086, -0.0007675436, -0.0011015276, -1547723.8, 45114.156, 0.0, 5.023132, 4.983103 
3.3865085e+2, 1.424487e+2, -1503201.5, -1567205.5, -4187.6685, 0.0014451132, 0.00955238, -1502928.8, 41074.816, 0.0, 5.022739, 4.9809365 
3.3865058e+2, 1.4742902e+2, -1456256.6, -1520539.1, -4307.512, 0.00038154688, 0.00041797134, -1455969.3, 39227.746, 0.0, 5.0223374, 4.9803686 
3.386496e+2, 1.5240811e+2, -1411994.8, -1479479.3, -5440.5024, -0.00039881648, -0.00067738193, -1411558.9, 34842.855, 0.0, 5.0219364, 4.9779205 
3.38648e+2, 1.5738626e+2, -1364973.4, -1432722.8, -5551.114, -0.0008291349, -0.0013871586, -1364521.5, 33093.766, 0.0, 5.021537, 4.977366 
3.3864582e+2, 1.6236281e+2, -1320640.3, -1391477.8, -6542.929, -0.00061509234, 0.0019464238, -1320041.0, 28803.691, 0.0, 5.0211077, 4.9749665 
3.386431e+2, 1.6733778e+2, -1273656.6, -1344566.0, -6654.8604, 0.00023039016, -0.001145707, -1273037.5, 27052.475, 0.0, 5.020646, 4.974475 
3.3863983e+2, 1.723113e+2, -1229422.3, -1303505.4, -7426.268, 0.00049157825, 0.0011430206, -1228685.1, 22664.139, 0.0, 5.020191, 4.9719973 
3.3863604e+2, 1.7728347e+2, -1182284.8, -1256395.0, -7511.382, 0.000028430268, -0.00051350985, -1181531.1, 21091.344, 0.0, 5.019744, 4.971548 
3.386319e+2, 1.822541e+2, -1138046.4, -1215384.8, -8180.66, -0.000216248, 0.0020434007, -1137190.5, 16719.736, 0.0, 5.0192795, 4.9690337 
3.3862734e+2, 1.8722317e+2, -1090914.9, -1168175.5, -8249.646, -0.00018371321, -0.001145471, -1090043.8, 15169.701, 0.0, 5.018796, 4.9686165 
3.3862254e+2, 1.9219084e+2, -1046727.75, -1127238.5, -8697.243, -0.00007902246, 0.0012473424, -1045798.94, 10731.179, 0.0, 5.018302, 4.9660606 
3.3861747e+2, 1.9715703e+2, -999555.06, -1079892.8, -8763.123, 0.00015822497, -0.0010332408, -998610.3, 9251.199, 0.0, 5.017796, 4.965682 
3.386122e+2, 2.0212182e+2, -955365.8, -1039017.75, -9077.474, 0.0002246904, 0.0018870563, -954392.1, 4814.517, 0.0, 5.017293, 4.9630847 
3.3860675e+2, 2.0708504e+2, -908089.44, -991549.56, -9118.299, 0.000085864536, -0.000508787, -907104.9, 3462.469, 0.0, 5.016795, 4.9627256 
3.3860123e+2, 2.1204683e+2, -863896.94, -950779.2, -9252.124, 0.000038496193, 0.0023172663, -862922.56, -980.82654, 0.0, 5.016292, 4.960061 
3.385956e+2, 2.1700698e+2, -816560.6, -903187.6, -9269.247, 0.000115819785, -0.0005747066, -815579.9, -2247.6628, 0.0, 5.0157824, 4.959731 
3.3859003e+2, 2.2196577e+2, -772373.25, -862517.1, -9255.895, 0.00018435421, 0.0021979408, -771432.6, -6696.4565, 0.0, 5.015274, 4.9570055 
3.3858448e+2, 2.269229e+2, -724947.56, -814805.25, -9255.688, 0.00021591099, -0.00067699916, -724004.1, -7847.814, 0.0, 5.0147667, 4.956697 
3.38579e+2, 2.3187862e+2, -680751.5, -774244.0, -9088.022, 0.0003141687, 0.002173441, -679876.3, -12286.014, 0.0, 5.01426, 4.9539046 
3.385737e+2, 2.3683268e+2, -633220.8, -726368.1, -9063.676, 0.00048188883, -0.0008502301, -632347.06, -13306.448, 0.0, 5.0137534, 4.9536333 
3.3856857e+2, 2.4178532e+2, -589027.56, -685956.4, -8721.226, 0.000491676, 0.0025556579, -588249.1, -17744.453, 0.0, 5.0132504, 4.9507537 
3.3856368e+2, 2.4673624e+2, -541344.1, -637851.6, -8658.099, 0.00024146357, -0.00083779334, -540573.5, -18587.887, 0.0, 5.012753, 4.950539 
3.385591e+2, 2.516857e+2, -497259.66, -597872.25, -8197.039, 0.0001569856, 0.002486443, -496596.2, -23115.309, 0.0, 5.012262, 4.947475 
3.3855483e+2, 2.5663346e+2, -449244.13, -549157.94, -8096.5034, 0.00023285203, -0.0010201025, -448592.28, -23599.285, 0.0, 5.0117784, 4.9474483 
3.3855096e+2, 2.6157966e+2, -405390.84, -509912.53, -7469.971, 0.00024964265, 0.00230943, -404859.7, -28339.693, 0.0, 5.0113025, 4.944087 
3.385476e+2, 2.665242e+2, -356951.16, -460391.66, -7317.2944, 0.00011201404, -0.0009867768, -356436.13, -28372.523, 0.0, 5.0108376, 4.9443183 
3.385446e+2, 2.7146706e+2, -313389.78, -422065.2, -6590.631, 0.00011483703, 0.0023942185, -312991.56, -33368.26, 0.0, 5.010383, 4.9405847 
3.3854228e+2, 2.7640826e+2, -264512.88, -371736.4, -6392.641, 0.00030740336, -0.0011450899, -264133.1, -32933.48, 0.0, 5.0099444, 4.941072 
3.385404e+2, 2.813479e+2, -220913.92, -333605.9, -5521.249, 0.00036065615, 0.002966968, -220644.06, -37852.664, 0.0, 5.0095143, 4.9372225 
3.3853927e+2, 2.8628582e+2, -171649.08, -282549.22, -5247.741, 0.00008615605, -0.0019506763, -171401.31, -37001.816, 0.0, 5.0090985, 4.9379425 
3.3853868e+2, 2.9122153e+2, -130065.5, -249406.27, -4295.5874, 0.00006678735, 0.0023205697, -129911.08, -43881.324, 0.0, 5.008696, 4.9322724 
3.3853906e+2, 2.961547e+2, -80782.984, -198572.05, -3967.2446, 0.00049242773, 0.00039976096, -80649.516, -42964.79, 0.0, 5.0083184, 4.9328766 
3.3853993e+2, 3.0109495e+2, -40086.203, -134657.08, -2837.3167, 0.00057940854, 0.0031679927, -40001.156, -40001.156, 0.0, 5.0079527, 4.947128 
3.3854187e+2, 3.060428e+2, -39694.71, -131948.1, -2418.4866, 0.00007589052, -0.0045759943, -39631.35, -39631.35, 0.0, 5.0076065, 4.9482503 
3.3854443e+2, 3.1100836e+2, -1108.5834, -39967.887, -1137.6375, 0.00025094458, 0.004597248, -1075.3066, -1075.3066, 0.0, 5.007279, 4.9820633 
3.3854833e+2, 3.159918e+2, 181.76329, -35455.047, -637.8279, 0.0009337597, 0.000052848678, 193.17549, 193.17549, 0.0, 5.0069885, 4.983853 
3.4366786e+2, 1.2250657e+2, -1682426.5, -1739854.6, -477.86783, -0.0048487154, -0.008056192, -1682422.5, 57014.094, 0.0, 5.0250316, 4.987553 
3.4367165e+2, 1.2749574e+2, -1638690.3, -1699549.8, -1144.3551, 0.009227487, 0.024877958, -1638668.8, 51873.43, 0.0, 5.024614, 4.9849267 
3.4367174e+2, 1.3247506e+2, -1592935.3, -1655098.9, -2327.8247, -0.006848172, -0.02207089, -1592848.3, 48896.15, 0.0, 5.024189, 4.9835763 
3.4367344e+2, 1.374609e+2, -1546288.3, -1608845.3, -2526.399, -0.0008629612, -0.0017756216, -1546186.5, 46696.645, 0.0, 5.0237575, 4.9828978 
3.4367388e+2, 1.4244387e+2, -1501721.9, -1566866.9, -3932.8948, 0.001672199, 0.009400021, -1501485.3, 42565.133, 0.0, 5.0233173, 4.980769 
3.4367317e+2, 1.4742403e+2, -1454927.6, -1520271.6, -4122.2373, 0.00018541675, 0.0003316002, -1454668.6, 40577.14, 0.0, 5.0228653, 4.980203 
3.4367174e+2, 1.5240298e+2, -1410746.9, -1479160.8, -5297.5264, -0.00064172555, -0.0006866561, -1410339.1, 36112.906, 0.0, 5.0224185, 4.9777946 
3.4366977e+2, 1.5738101e+2, -1363849.3, -1432463.8, -5435.67, -0.00070804666, -0.0012780398, -1363421.4, 34245.16, 0.0, 5.0219774, 4.9772415 
3.4366715e+2, 1.6235743e+2, -1319582.3, -1391234.5, -6476.3447, -0.0005390012, 0.0019754146, -1319001.6, 29895.502, 0.0, 5.021523, 4.9748497 
3.436639e+2, 1.6733225e+2, -1272627.1, -1344336.3, -6600.694, -0.00018772374, -0.001420064, -1272024.6, 28119.201, 0.0, 5.0210524, 4.974359 
3.4366018e+2, 1.7230567e+2, -1228499.9, -1303308.6, -7411.8774, 0.00006383019, 0.00084515003, -1227772.5, 23631.754, 0.0, 5.0205574, 4.97189 
3.4365594e+2, 1.7727776e+2, -1181586.5, -1256304.9, -7529.542, 0.00013325391, -0.000509181, -1180835.3, 21843.232, 0.0, 5.0200334, 4.9714417 
3.436513e+2, 1.8224834e+2, -1137432.6, -1215247.5, -8213.964, 0.000063905994, 0.002210164, -1136575.0, 17392.084, 0.0, 5.0195217, 4.968966 
3.4364623e+2, 1.8721731e+2, -1090339.0, -1168052.5, -8286.483, -0.00016510965, -0.0009911666, -1089465.3, 15805.557, 0.0, 5.019025, 4.968551 
3.4364092e+2, 1.9218494e+2, -1046205.8, -1127117.5, -8755.164, -0.0001927154, 0.0013113262, -1045269.3, 11318.634, 0.0, 5.018508, 4.966006 
3.4363535e+2, 1.9715105e+2, -999134.44, -1079818.3, -8810.844, 0.00008246665, -0.0011567477, -998183.5, 9736.51, 0.0, 5.0179663, 4.9656286 
3.4362957e+2, 2.0211579e+2, -955047.5, -1038964.9, -9123.224, 0.00019083773, 0.0016714282, -954067.06, 5198.5923, 0.0, 5.0174227, 4.963043 
3.4362358e+2, 2.0707895e+2, -907910.0, -991560.56, -9173.714, 0.00008994971, -0.0006881291, -906915.75, 3711.02, 0.0, 5.016876, 4.962685 
3.4361753e+2, 2.1204072e+2, -863816.5, -950786.7, -9320.584, 0.00006676224, 0.002177831, -862828.8, -827.3081, 0.0, 5.016329, 4.960042 
3.436114e+2, 2.1700087e+2, -816593.6, -903244.0, -9345.453, 0.00014456309, -0.0006640487, -815597.1, -2205.0354, 0.0, 5.0157785, 4.959714 
3.4360528e+2, 2.2195965e+2, -772488.8, -862564.44, -9330.541, 0.00020000394, 0.002146453, -771532.44, -6736.306, 0.0, 5.0152316, 4.957009 
3.4359917e+2, 2.2691679e+2, -725162.56, -814893.8, -9325.484, 0.00019086909, -0.00071139244, -724203.6, -7987.5093, 0.0, 5.014688, 4.9567027 
3.435932e+2, 2.3187253e+2, -681050.06, -774338.75, -9152.507, 0.00024854747, 0.0021454915, -680160.56, -12510.608, 0.0, 5.0141454, 4.953924 
3.4358734e+2, 2.368266e+2, -633620.0, -726504.75, -9124.1875, 0.00037419875, -0.00088966213, -632732.25, -13632.084, 0.0, 5.013602, 4.953655 
3.435817e+2, 2.4177927e+2, -589515.56, -686093.6, -8775.017, 0.0003883339, 0.0025150047, -588724.75, -18160.785, 0.0, 5.0130596, 4.9507923 
3.4357628e+2, 2.4673024e+2, -541951.44, -638036.6, -8711.947, 0.00021025825, -0.0008658936, -541167.94, -19123.475, 0.0, 5.012518, 4.9505806 
3.4357116e+2, 2.5167975e+2, -497957.06, -598052.75, -8237.376, 0.00015654227, 0.0024672204, -497283.7, -23744.445, 0.0, 5.0119853, 4.9475355 
3.4356645e+2, 2.5662756e+2, -450038.28, -549373.06, -8136.9463, 0.00019457213, -0.0010320051, -449376.16, -24325.482, 0.0, 5.011465, 4.9475126 
3.4356204e+2, 2.6157385e+2, -406267.84, -510125.84, -7498.0386, 0.00018326877, 0.0022941437, -405729.3, -29152.328, 0.0, 5.0109515, 4.9441676 
3.435582e+2, 2.6651847e+2, -357930.66, -460641.03, -7342.6724, 0.00002364254, -0.0010369472, -357408.38, -29288.633, 0.0, 5.0104475, 4.944403 
3.4355474e+2, 2.7146143e+2, -314457.25, -422317.56, -6594.5024, 0.000022186805, 0.0023221883, -314055.56, -34377.004, 0.0, 5.0099535, 4.940685 
3.4355196e+2, 2.7640274e+2, -265676.38, -372021.22, -6391.046, 0.00027423838, -0.0012186375, -265293.66, -34039.805, 0.0, 5.009477, 4.941176 
3.435496e+2, 2.8134248e+2, -222156.28, -333886.7, -5499.8623, 0.00036731013, 0.0028955757, -221886.2, -39041.633, 0.0, 5.009011, 4.9373426 
3.435481e+2, 2.862805e+2, -172977.8, -282855.38, -5221.1533, 0.00006924312, -0.002020585, -172730.25, -38278.813, 0.0, 5.00856, 4.9380674 
3.4354705e+2, 2.9121634e+2, -131479.48, -249732.6, -4240.819, 0.000058291058, 0.0022670815, -131327.6, -45247.15, 0.0, 5.0081234, 4.932404 
3.4354705e+2, 2.9614967e+2, -82285.414, -198928.83, -3904.9707, 0.0005653717, 0.00039202775, -82154.83, -44420.75, 0.0, 5.0077105, 4.9330106 
3.4354755e+2, 3.0109003e+2, -41655.566, -135001.52, -2755.551, 0.00068876846, 0.0031752097, -41574.293, -41574.293, 0.0, 5.00731, 4.9472795 
3.435491e+2, 3.0603805e+2, -41346.88, -132311.95, -2328.105, 0.00013710896, -0.0046117473, -41287.336, -41287.336, 0.0, 5.00693, 4.948409 
3.4355134e+2, 3.1100377e+2, -2813.2537, -40311.08, -1013.6023, 0.00029183706, 0.00457319, -2785.875, -2785.875, 0.0, 5.0065703, 4.98224 
3.4355494e+2, 3.159874e+2, -1587.7952, -35806.29, -499.5801, 0.001041648, 0.0000518644, -1580.5029, -1580.5029, 0.0, 5.006252, 4.984039 
3.4869298e+2, 1.2250292e+2, -1682414.8, -1740083.3, -707.8319, -0.0038570503, -0.009346803, -1682406.1, 57064.09, 0.0, 5.025087, 4.987451 
3.4869632e+2, 1.274918e+2, -1638989.9, -1700402.8, -1437.9215, 0.009459554, 0.023758614, -1638956.1, 51622.3, 0.0, 5.024666, 4.98462 
3.486958e+2, 1.3247083e+2, -1593123.6, -1655703.5, -2624.3848, -0.008415866, -0.023662204, -1593013.8, 48770.23, 0.0, 5.0242357, 4.983354 
3.486972e+2, 1.3745649e+2, -1546497.1, -1609450.3, -2803.6882, -0.0009438377, -0.0027448875, -1546372.5, 46552.3, 0.0, 5.0237947, 4.9826794 
3.4869727e+2, 1.424393e+2, -1501914.9, -1567422.6, -4210.1753, 0.0019721382, 0.008938776, -1501645.5, 42448.676, 0.0, 5.023351, 4.980569 
3.48696e+2, 1.474193e+2, -1455100.3, -1520811.4, -4386.4014, -0.0003083562, 0.00014854128, -1454808.8, 40482.85, 0.0, 5.022904, 4.9800053 
3.4869415e+2, 1.523981e+2, -1410847.1, -1479533.1, -5550.6025, -0.0011245853, -0.00063116784, -1410401.5, 36098.016, 0.0, 5.022453, 4.9776545 
3.4869176e+2, 1.5737602e+2, -1363986.9, -1432849.4, -5690.0747, -0.00031414288, -0.0009980467, -1363519.9, 34195.3, 0.0, 5.021998, 4.977103 
3.486887e+2, 1.623523e+2, -1319716.0, -1391581.8, -6750.4883, -0.00014091436, 0.0021548253, -1319087.4, 29859.744, 0.0, 5.021537, 4.9747276 
3.486849e+2, 1.6732696e+2, -1272752.8, -1344676.5, -6871.984, -0.0007606623, -0.001712415, -1272102.1, 28093.26, 0.0, 5.0210676, 4.974238 
3.4868068e+2, 1.7230025e+2, -1228621.6, -1303648.3, -7718.833, -0.00069653266, 0.00042966154, -1227835.8, 23621.555, 0.0, 5.020574, 4.9717684 
3.48676e+2, 1.7727223e+2, -1181704.4, -1256639.9, -7833.8057, 0.00008769654, -0.00064165745, -1180894.1, 21838.607, 0.0, 5.0200505, 4.9713216 
3.4867087e+2, 1.8224274e+2, -1137493.3, -1215441.1, -8499.473, 0.00036489853, 0.0023359018, -1136577.3, 17444.938, 0.0, 5.019535, 4.9688954 
3.486653e+2, 1.8721166e+2, -1090423.8, -1168249.9, -8577.335, 0.000024717721, -0.0006413656, -1089489.8, 15836.492, 0.0, 5.0190277, 4.968484 
3.4865946e+2, 1.9217923e+2, -1046283.1, -1127270.3, -9080.836, -0.00014811175, 0.0016457482, -1045277.44, 11366.406, 0.0, 5.0185046, 4.965956 
3.486533e+2, 1.9714527e+2, -999213.3, -1079968.5, -9140.76, -0.000053803586, -0.0011457162, -998191.56, 9784.96, 0.0, 5.017962, 4.96558 
3.4864697e+2, 2.0210992e+2, -955127.44, -1039109.5, -9457.788, 0.0000026117154, 0.0014594011, -954075.5, 5247.271, 0.0, 5.0174165, 4.9629974 
3.4864044e+2, 2.0707305e+2, -907996.25, -991707.4, -9505.819, 0.000013317923, -0.0009800266, -906930.4, 3754.1423, 0.0, 5.0168676, 4.9626393 
3.4863386e+2, 2.1203479e+2, -863880.6, -950870.2, -9653.803, 0.00007595224, 0.0018921313, -862822.2, -762.53064, 0.0, 5.016317, 4.9600196 
3.4862718e+2, 2.1699494e+2, -816667.44, -903327.56, -9678.626, 0.00019680429, -0.00082153844, -815599.6, -2149.2688, 0.0, 5.0157623, 4.9596934 
3.486205e+2, 2.219537e+2, -772541.44, -862579.25, -9659.342, 0.0002566338, 0.0020968325, -771516.8, -6662.459, 0.0, 5.0152106, 4.957014 
3.4861386e+2, 2.2691086e+2, -725225.3, -814907.0, -9656.03, 0.00018660953, -0.0006903422, -724197.44, -7923.217, 0.0, 5.0146623, 4.9567103 
3.4860733e+2, 2.3186661e+2, -681106.1, -774316.56, -9483.919, 0.00017354198, 0.0021838488, -680150.94, -12443.068, 0.0, 5.0141153, 4.953946 
3.4860095e+2, 2.368207e+2, -633682.3, -726481.1, -9456.0625, 0.00021637086, -0.00092419604, -632728.56, -13570.692, 0.0, 5.013569, 4.953679 
3.4859473e+2, 2.4177341e+2, -589566.56, -686029.5, -9104.91, 0.0002246302, 0.0024310031, -588714.7, -18093.297, 0.0, 5.0130234, 4.950832 
3.485888e+2, 2.4672441e+2, -542007.9, -637969.4, -9041.474, 0.00015436436, -0.00096235477, -541163.4, -19061.846, 0.0, 5.012479, 4.950622 
3.4858316e+2, 2.5167397e+2, -497998.7, -597935.3, -8551.133, 0.00015527439, 0.0023786817, -497272.28, -23676.445, 0.0, 5.011943, 4.947596 
3.4857792e+2, 2.5662184e+2, -450085.9, -549250.2, -8450.092, 0.00015810398, -0.0010679015, -449371.0, -24264.406, 0.0, 5.0114193, 4.947577 
3.48573e+2, 2.6156822e+2, -406303.97, -509957.22, -7800.1304, 0.00011629426, 0.002287927, -405720.28, -29088.14, 0.0, 5.010902, 4.9442496 
3.4856865e+2, 2.665129e+2, -357972.7, -460465.9, -7643.967, -0.00006880288, -0.0010773678, -357405.75, -29231.652, 0.0, 5.0103936, 4.944489 
3.4856465e+2, 2.7145597e+2, -314490.72, -422102.28, -6876.593, -0.000076259654, 0.0022525291, -314053.06, -34321.05, 0.0, 5.009896, 4.9407864 
3.4856144e+2, 2.7639738e+2, -265715.7, -371799.9, -6670.08, 0.00023534999, -0.001309697, -265297.97, -33991.668, 0.0, 5.009416, 4.9412813 
3.4855863e+2, 2.8133723e+2, -222186.63, -333624.28, -5761.635, 0.00036931533, 0.0027990236, -221889.53, -38993.62, 0.0, 5.0089455, 4.937464 
3.4855664e+2, 2.8627542e+2, -173013.5, -282585.0, -5479.7837, 0.00004973792, -0.0020993317, -172740.14, -38238.61, 0.0, 5.008491, 4.938194 
3.4855518e+2, 2.9121137e+2, -131518.06, -249447.42, -4474.1694, 0.000042183605, 0.0022154788, -131348.56, -45219.31, 0.0, 5.0080504, 4.932537 
3.4855476e+2, 2.961448e+2, -82332.164, -198641.64, -4131.9346, 0.0006125121, 0.00038519665, -82185.56, -44404.023, 0.0, 5.0076337, 4.9331465 
3.4855485e+2, 3.0108532e+2, -41693.59, -134671.89, -2962.6284, 0.0007650081, 0.003181009, -41599.285, -41599.285, 0.0, 5.007229, 4.9474335 
3.4855604e+2, 3.0603352e+2, -41389.773, -131967.34, -2530.2734, 0.0001856762, -0.0046517076, -41319.145, -41319.145, 0.0, 5.0068436, 4.9485707 
3.485579e+2, 3.1099942e+2, -2851.6052, -39929.945, -1179.6989, 0.0003128184, 0.0045439457, -2814.1094, -2814.1094, 0.0, 5.0064783, 4.98242 
3.485612e+2, 3.159832e+2, -1635.0284, -35409.87, -653.90186, 0.0010852354, 0.000032495518, -1622.3732, -1622.3732, 0.0, 5.0061526, 4.9842277 
3.537186e+2, 1.2249963e+2, -1680272.6, -1739267.4, -728.2106, -0.0027253968, -0.009128324, -1680263.6, 59240.02, 0.0, 5.0258503, 4.987346 
3.5372135e+2, 1.2748827e+2, -1637257.1, -1700245.6, -1530.8804, 0.009325882, 0.024655053, -1637220.0, 53394.43, 0.0, 5.025392, 4.984318 
3.537202e+2, 1.3246708e+2, -1591323.5, -1655178.5, -2714.4739, -0.010335115, -0.022710126, -1591208.3, 50613.703, 0.0, 5.0249147, 4.9831967 
3.5372132e+2, 1.3745254e+2, -1544855.3, -1608995.9, -2838.535, -0.0008188056, -0.0021825347, -1544729.9, 48234.363, 0.0, 5.0244203, 4.9825263 
3.5372096e+2, 1.4243516e+2, -1500376.9, -1567034.8, -4184.8647, 0.002639576, 0.009103827, -1500115.1, 44020.008, 0.0, 5.023945, 4.9804106 
3.5371915e+2, 1.4741495e+2, -1453597.3, -1520441.3, -4329.895, -0.00069502444, -0.00014185633, -1453318.0, 42016.453, 0.0, 5.023487, 4.9798474 
3.5371682e+2, 1.523936e+2, -1409453.3, -1479197.6, -5516.362, -0.0017143645, -0.00098461, -1409019.6, 37524.2, 0.0, 5.022996, 4.9775057 
3.5371402e+2, 1.573714e+2, -1362810.6, -1432620.6, -5668.2104, -0.00017588661, -0.0009763287, -1362353.4, 35407.34, 0.0, 5.022468, 4.9769545 
3.5371047e+2, 1.6234758e+2, -1318632.5, -1391316.6, -6716.2446, 0.00021024153, 0.0023914608, -1318017.1, 30976.576, 0.0, 5.021959, 4.974615 
3.5370618e+2, 1.6732211e+2, -1271734.0, -1344440.6, -6829.936, -0.00078455254, -0.0014443994, -1271098.0, 29144.813, 0.0, 5.0214677, 4.974127 
3.537014e+2, 1.7229529e+2, -1227668.5, -1303437.8, -7708.73, -0.00093173847, 0.00056002784, -1226892.1, 24613.715, 0.0, 5.020951, 4.971661 
3.536962e+2, 1.7726713e+2, -1180829.6, -1256466.3, -7814.313, -0.00016270459, -0.00083603786, -1180030.8, 22751.883, 0.0, 5.0204005, 4.971215 
3.5369056e+2, 1.8223754e+2, -1136722.0, -1215282.8, -8485.158, 0.00017526562, 0.002029688, -1135816.0, 18257.135, 0.0, 5.0198426, 4.9688044 
3.5368446e+2, 1.8720639e+2, -1089829.9, -1168173.3, -8583.746, -0.000028048917, -0.00081263017, -1088900.5, 16477.46, 0.0, 5.019274, 4.9683943 
3.5367805e+2, 1.9217388e+2, -1045790.56, -1127176.5, -9114.468, -0.00013343689, 0.0015802246, -1044782.4, 11913.867, 0.0, 5.0187025, 4.9658957 
3.536713e+2, 1.9713986e+2, -998815.3, -1079916.3, -9184.104, -0.000059840262, -0.0011378634, -997788.3, 10241.106, 0.0, 5.018127, 4.9655213 
3.5366446e+2, 2.021045e+2, -954802.44, -1039047.4, -9509.918, -0.00000229113, 0.001482173, -953742.25, 5633.8374, 0.0, 5.017547, 4.9629583 
3.5365734e+2, 2.0706756e+2, -907775.6, -991691.0, -9551.022, 0.00003552397, -0.0010222743, -906702.25, 4035.9426, 0.0, 5.0169616, 4.962602 
3.5365018e+2, 2.1202926e+2, -863751.44, -950857.25, -9700.006, 0.000091770475, 0.0017880391, -862684.3, -570.7016, 0.0, 5.016371, 4.96 
3.5364294e+2, 2.1698938e+2, -816661.6, -903369.5, -9723.654, 0.000151556, -0.0009770435, -815584.6, -2080.0483, 0.0, 5.0157723, 4.959675 
3.5363567e+2, 2.2194815e+2, -772638.9, -862629.9, -9701.702, 0.00018820717, 0.0019368171, -771604.9, -6696.1943, 0.0, 5.015177, 4.957013 
3.536285e+2, 2.2690532e+2, -725450.25, -815012.25, -9704.8, 0.00014300764, -0.0007912295, -724410.75, -8082.263, 0.0, 5.0145826, 4.956711 
3.5362136e+2, 2.3186107e+2, -681426.5, -774417.3, -9531.886, 0.0001332887, 0.0021294972, -680459.5, -12697.438, 0.0, 5.0139923, 4.9539676 
3.5361442e+2, 2.3681518e+2, -634110.06, -726624.06, -9503.079, 0.00014351953, -0.0009613414, -633144.0, -13932.22, 0.0, 5.0134063, 4.9537034 
3.5360762e+2, 2.4176793e+2, -590081.0, -686171.44, -9147.569, 0.0001376864, 0.0024031478, -589217.94, -18542.926, 0.0, 5.0128217, 4.950874 
3.5360113e+2, 2.4671897e+2, -542626.44, -638151.4, -9080.984, 0.000070920425, -0.0009916943, -541770.9, -19616.166, 0.0, 5.012238, 4.950667 
3.5359493e+2, 2.516686e+2, -498708.2, -598122.06, -8573.739, 0.000070041875, 0.0023478724, -497974.2, -24325.703, 0.0, 5.0116625, 4.9476566 
3.5358915e+2, 2.566165e+2, -450903.78, -549477.8, -8471.731, 0.00008133045, -0.0011041154, -450181.0, -25022.361, 0.0, 5.011098, 4.9476404 
3.535837e+2, 2.6156294e+2, -407210.72, -510181.0, -7809.2295, 0.00005727787, 0.0022420762, -406621.84, -29938.363, 0.0, 5.0105395, 4.944332 
3.535788e+2, 2.6650774e+2, -358984.6, -460725.88, -7651.196, -0.000108405286, -0.0011533762, -358412.4, -30187.838, 0.0, 5.0099907, 4.944576 
3.535743e+2, 2.714509e+2, -315591.97, -422362.84, -6861.72, -0.0001115562, 0.0021575028, -315152.78, -35371.223, 0.0, 5.009453, 4.9408894 
3.5357058e+2, 2.7639243e+2, -266915.72, -372093.25, -6650.0576, 0.00020196386, -0.0013993912, -266496.94, -35142.15, 0.0, 5.0089345, 4.9413886 
3.535673e+2, 2.8133237e+2, -223470.38, -333916.3, -5721.289, 0.00034903118, 0.0027202237, -223174.8, -40231.52, 0.0, 5.0084257, 4.9375877 
3.5356483e+2, 2.8627068e+2, -174390.61, -282905.34, -5434.477, 0.000053398697, -0.0021738254, -174119.13, -39571.477, 0.0, 5.007934, 4.9383216 
3.535629e+2, 2.9120678e+2, -132982.64, -249783.11, -4398.997, 0.00006683432, 0.0021446839, -132817.2, -46643.125, 0.0, 5.007457, 4.9326744 
3.5356206e+2, 2.9614037e+2, -83883.87, -199005.17, -4046.4675, 0.0006474993, 0.00031796665, -83741.81, -45916.82, 0.0, 5.007005, 4.933287 
3.535617e+2, 3.0108106e+2, -43314.746, -135025.31, -2857.4426, 0.0008040813, 0.003108142, -43225.805, -43225.805, 0.0, 5.0065646, 4.947591 
3.535625e+2, 3.0602938e+2, -43101.04, -132344.56, -2418.1218, 0.00023759014, -0.0047215587, -43035.566, -43035.566, 0.0, 5.0061436, 4.948735 
3.5356396e+2, 3.1099546e+2, -4623.6455, -40287.234, -1035.3323, 0.00034346132, 0.0045196353, -4593.6147, -4593.6147, 0.0, 5.005742, 4.982604 
3.535669e+2, 3.1597942e+2, -3489.9502, -35784.68, -495.5893, 0.001087831, 0.0000075814546, -3482.3467, -3482.3467, 0.0, 5.005382, 4.9844193 
3.587446e+2, 1.2249668e+2, -1680183.4, -1739461.1, -764.4462, -0.0014250412, -0.0071499664, -1680173.5, 59361.402, 0.0, 5.025933, 4.9872413 
3.5874674e+2, 1.27485e+2, -1637556.8, -1701092.5, -1654.408, 0.009136159, 0.026386328, -1637513.6, 53135.54, 0.0, 5.025444, 4.984013 
3.587449e+2, 1.324636e+2, -1591418.9, -1655543.8, -2883.1199, -0.012393377, -0.02065195, -1591289.5, 50568.89, 0.0, 5.024951, 4.9830585 
3.5874575e+2, 1.3744886e+2, -1544926.9, -1609335.9, -3024.7742, -0.0006575473, -0.0010061994, -1544785.1, 48216.832, 0.0, 5.0244613, 4.9823937 
3.5874504e+2, 1.4243126e+2, -1500465.4, -1567413.6, -4361.5483, 0.0034624438, 0.009522385, -1500182.5, 43991.94, 0.0, 5.023987, 4.9802647 
3.5874262e+2, 1.4741082e+2, -1453684.1, -1520816.3, -4518.4365, -0.0010092639, -0.0004383289, -1453381.4, 41993.953, 0.0, 5.0235286, 4.979703 
3.5873973e+2, 1.5238932e+2, -1409554.6, -1479608.8, -5767.888, -0.0023388257, -0.0014726317, -1409083.0, 37503.258, 0.0, 5.023038, 4.977349 
3.5873652e+2, 1.57367e+2, -1362902.9, -1433025.3, -5930.5894, -0.00016302518, -0.0010689815, -1362404.9, 35399.45, 0.0, 5.0225124, 4.9767985 
3.587325e+2, 1.6234308e+2, -1318679.6, -1391598.0, -6964.9077, 0.00052123464, 0.0026326012, -1318020.3, 31017.967, 0.0, 5.0219965, 4.974503 
3.5872766e+2, 1.6731754e+2, -1271821.9, -1344736.6, -7093.248, -0.0005787051, -0.00094881153, -1271138.3, 29149.842, 0.0, 5.021491, 4.974017 
3.5872236e+2, 1.722906e+2, -1227768.8, -1303723.9, -8023.9307, -0.00093628897, 0.0009274048, -1226930.4, 24621.682, 0.0, 5.020966, 4.9715586 
3.5871655e+2, 1.7726226e+2, -1180926.9, -1256748.1, -8134.484, -0.00048977544, -0.0010354597, -1180064.0, 22766.16, 0.0, 5.020416, 4.971113 
3.5871035e+2, 1.8223254e+2, -1136821.0, -1215560.9, -8818.746, -0.00021745944, 0.0015656694, -1135845.5, 18276.34, 0.0, 5.019856, 4.9687047 
3.587037e+2, 1.872013e+2, -1089939.5, -1168453.9, -8916.007, -0.00018751301, -0.0011891138, -1088939.8, 16487.838, 0.0, 5.0192833, 4.968296 
3.5869676e+2, 1.9216873e+2, -1045866.94, -1127364.6, -9451.543, -0.00013939025, 0.0013483313, -1044785.1, 11961.529, 0.0, 5.0187073, 4.965831 
3.5868946e+2, 1.9713467e+2, -998903.2, -1080106.0, -9522.653, -0.000018893485, -0.0011365563, -997801.44, 10278.861, 0.0, 5.0181265, 4.965458 
3.58682e+2, 2.0209926e+2, -954867.9, -1039164.44, -9858.305, 0.000062610336, 0.0015997491, -953730.3, 5697.067, 0.0, 5.017542, 4.962922 
3.5867432e+2, 2.070623e+2, -907852.8, -991807.75, -9902.432, 0.00009415282, -0.0009613977, -906700.6, 4089.15, 0.0, 5.0169506, 4.9625683 
3.5866657e+2, 2.1202397e+2, -863818.75, -950934.1, -10061.193, 0.00010612413, 0.0017609772, -862671.9, -506.41385, 0.0, 5.016356, 4.9599814 
3.586587e+2, 2.1698405e+2, -816732.56, -903445.44, -10086.293, 0.000059439008, -0.0011289595, -815574.8, -2018.211, 0.0, 5.0157557, 4.959657 
3.5865086e+2, 2.2194281e+2, -772699.75, -862669.56, -10061.28, 0.000059089216, 0.0017317443, -771588.3, -6627.444, 0.0, 5.015157, 4.9570093 
3.5864305e+2, 2.2689997e+2, -725521.56, -815053.25, -10063.741, 0.000072895695, -0.0009464024, -724404.25, -8023.521, 0.0, 5.014559, 4.956709 
3.5863534e+2, 2.3185575e+2, -681479.06, -774394.56, -9884.866, 0.00009811779, 0.0020312855, -680439.06, -12624.837, 0.0, 5.0139637, 4.9539895 
3.586278e+2, 2.368099e+2, -634171.44, -726597.4, -9856.45, 0.00009804583, -0.0010030349, -633132.0, -13868.339, 0.0, 5.013373, 4.9537287 
3.5862046e+2, 2.4176267e+2, -590129.75, -686096.7, -9499.142, 0.00007432046, 0.0023953973, -589198.5, -18471.982, 0.0, 5.012784, 4.9509172 
3.5861337e+2, 2.4671376e+2, -542678.56, -638070.6, -9433.991, -0.00003476391, -0.0009964709, -541754.5, -19548.783, 0.0, 5.012198, 4.950714 
3.586066e+2, 2.5166345e+2, -498751.1, -598004.44, -8913.801, -0.00006465962, 0.0023396953, -497956.94, -24257.94, 0.0, 5.0116196, 4.9477177 
3.5860023e+2, 2.566114e+2, -450954.03, -549356.9, -8810.574, -0.000025680847, -0.0011444135, -450171.4, -24962.852, 0.0, 5.0110507, 4.9477043 
3.5859424e+2, 2.6155794e+2, -407247.84, -510009.97, -8136.334, -0.000009175946, 0.002173237, -406607.63, -29874.895, 0.0, 5.0104885, 4.944415 
3.5858878e+2, 2.665028e+2, -359027.1, -460547.88, -7977.416, -0.00013560575, -0.0012495497, -358404.06, -30131.098, 0.0, 5.009936, 4.944663 
3.5858378e+2, 2.7144605e+2, -315624.16, -422141.22, -7167.5317, -0.00013115244, 0.0020464787, -315144.03, -35314.99, 0.0, 5.0093946, 4.940994 
3.585795e+2, 2.7638766e+2, -266953.22, -371864.56, -6952.687, 0.00015737503, -0.0014934387, -266494.47, -35093.28, 0.0, 5.0088725, 4.9414973 
3.585757e+2, 2.8132772e+2, -223499.1, -333646.72, -6006.169, 0.0003042035, 0.002644956, -223172.55, -40184.035, 0.0, 5.00836, 4.937712 
3.5857275e+2, 2.862662e+2, -174425.27, -282627.8, -5716.103, 0.00005394253, -0.00225145, -174124.14, -39532.51, 0.0, 5.007864, 4.9384513 
3.5857034e+2, 2.9120243e+2, -133016.95, -249481.0, -4653.911, 0.000095248106, 0.002059625, -132831.28, -46614.52, 0.0, 5.0073824, 4.9328146 
3.5856906e+2, 2.9613614e+2, -83927.195, -198698.61, -4295.1514, 0.0006580243, 0.0002180517, -83766.68, -45900.406, 0.0, 5.006926, 4.933431 
3.5856828e+2, 3.0107698e+2, -43353.453, -134682.77, -3088.2964, 0.00080581463, 0.002994962, -43249.14, -43249.14, 0.0, 5.0064807, 4.947751 
3.5856864e+2, 3.0602548e+2, -43145.664, -131990.25, -2644.281, 0.00027207873, -0.004809746, -43067.03, -43067.03, 0.0, 5.0060544, 4.9489017 
3.585697e+2, 3.1099173e+2, -4661.4136, -39891.836, -1225.652, 0.0003507543, 0.004492154, -4618.825, -4618.825, 0.0, 5.0056477, 4.98279 
3.585723e+2, 3.1597593e+2, -3537.4243, -35376.06, -673.77924, 0.0010236924, -0.000020701851, -3523.172, -3523.172, 0.0, 5.0052805, 4.9846134 
3.63771e+2, 1.224945e+2, -1677805.3, -1738632.0, -162.98581, -0.0015161737, -0.0075744945, -1677804.8, 61750.77, 0.0, 5.0268016, 4.9870872 
3.637726e+2, 1.2748246e+2, -1635863.3, -1701084.8, -1204.6981, 0.009756696, 0.02598765, -1635841.0, 54832.67, 0.0, 5.026188, 4.9836516 
3.6377013e+2, 1.3246092e+2, -1589684.9, -1655180.1, -2434.8025, -0.01300438, -0.019575907, -1589594.5, 52289.996, 0.0, 5.0256324, 4.9828486 
3.637706e+2, 1.3744594e+2, -1543239.0, -1608986.4, -2642.1816, -0.00040206153, -0.00039907495, -1543133.0, 49897.76, 0.0, 5.025127, 4.9821877 
3.637694e+2, 1.4242812e+2, -1498838.6, -1567067.1, -4015.2344, 0.0040140175, 0.009929531, -1498603.1, 45602.15, 0.0, 5.0246286, 4.980069 
3.637665e+2, 1.4740749e+2, -1452156.0, -1520518.0, -4218.7656, -0.0007299361, -0.0000101237065, -1451896.6, 43511.145, 0.0, 5.0241385, 4.9795084 
3.6376312e+2, 1.5238576e+2, -1408103.6, -1479345.5, -5550.6807, -0.0022903485, -0.0012398168, -1407673.8, 38946.934, 0.0, 5.0236216, 4.9771566 
3.637593e+2, 1.573632e+2, -1361518.3, -1432793.1, -5746.1025, -0.00029235368, -0.0012342434, -1361058.0, 36783.168, 0.0, 5.023074, 4.976608 
3.6375475e+2, 1.6233909e+2, -1317403.3, -1391368.8, -6829.7764, 0.00044831308, 0.0024591363, -1316777.9, 32299.258, 0.0, 5.0225115, 4.9743347 
3.637494e+2, 1.6731343e+2, -1270767.1, -1344612.3, -7008.9106, -0.00034526043, -0.0007011336, -1270107.8, 30220.68, 0.0, 5.02193, 4.9738503 
3.6374357e+2, 1.7228636e+2, -1226799.9, -1303524.4, -7981.7007, -0.000659229, 0.0013437314, -1225978.4, 25615.352, 0.0, 5.0213513, 4.971443 
3.6373717e+2, 1.7725794e+2, -1180040.5, -1256583.5, -8103.454, -0.00047173182, -0.00074377126, -1179192.0, 23680.918, 0.0, 5.020773, 4.9710007 
3.6373037e+2, 1.8222807e+2, -1136009.8, -1215386.4, -8812.099, -0.00033038977, 0.0017317681, -1135043.1, 19122.354, 0.0, 5.020178, 4.9686127 
3.637231e+2, 1.8719675e+2, -1089255.4, -1168339.1, -8904.646, -0.00028134772, -0.0011563066, -1088265.1, 17207.176, 0.0, 5.019562, 4.9682045 
3.637156e+2, 1.9216408e+2, -1045284.5, -1127252.3, -9446.09, -0.0002174238, 0.0012965129, -1044210.0, 12582.221, 0.0, 5.0189414, 4.96576 
3.6370766e+2, 1.9712995e+2, -998453.2, -1080054.6, -9523.05, -0.000096101314, -0.0012118269, -997356.56, 10770.046, 0.0, 5.018315, 4.9653883 
3.6369962e+2, 2.0209447e+2, -954519.7, -1039107.0, -9873.263, 0.000018342665, 0.0015120459, -953382.56, 6091.6885, 0.0, 5.0176835, 4.9628763 
3.636913e+2, 2.0705746e+2, -907639.94, -991810.1, -9925.986, 0.00012299644, -0.0010481866, -906485.25, 4351.809, 0.0, 5.0170445, 4.9625244 
3.6368296e+2, 2.120191e+2, -863698.9, -950928.25, -10091.117, 0.00015489645, 0.0016824958, -862546.7, -333.65897, 0.0, 5.016407, 4.9599605 
3.6367443e+2, 2.1697918e+2, -816715.25, -903483.06, -10117.69, 0.000045699468, -0.0011935324, -815551.06, -1946.7532, 0.0, 5.0157704, 4.9596386 
3.63666e+2, 2.2193791e+2, -772772.1, -862707.0, -10093.378, 0.000002450579, 0.0016678737, -771653.25, -6644.54, 0.0, 5.0151315, 4.9570084 
3.6365756e+2, 2.2689508e+2, -725720.06, -815144.7, -10092.966, -0.0000010360369, -0.0010270034, -724595.06, -8166.491, 0.0, 5.0144877, 4.95671 
3.6364922e+2, 2.3185086e+2, -681781.5, -774489.25, -9906.551, 0.000015905875, 0.0019478685, -680734.75, -12872.781, 0.0, 5.013847, 4.9540105 
3.6364108e+2, 2.3680504e+2, -634601.06, -726743.6, -9878.973, 0.00001652145, -0.0010728155, -633553.8, -14242.653, 0.0, 5.0132093, 4.953752 
3.6363313e+2, 2.4175784e+2, -590659.56, -686248.3, -9515.608, -0.0000066147586, 0.0023405107, -589721.5, -18947.793, 0.0, 5.0125775, 4.9509583 
3.6362544e+2, 2.46709e+2, -543312.8, -638262.0, -9452.186, -0.00012373707, -0.0010369236, -542381.0, -20128.52, 0.0, 5.011952, 4.950758 
3.6361805e+2, 2.516587e+2, -499474.84, -598192.56, -8920.523, -0.00015670626, 0.0023043968, -498675.22, -24929.996, 0.0, 5.0113325, 4.9477806 
3.6361107e+2, 2.566068e+2, -451791.22, -549586.75, -8813.832, -0.00008093586, -0.0011971489, -451003.22, -25749.094, 0.0, 5.010721, 4.947771 
3.636045e+2, 2.6155335e+2, -408179.44, -510239.6, -8124.129, -0.000023581448, 0.0021038495, -407536.78, -30759.21, 0.0, 5.0101166, 4.9445 
3.6359847e+2, 2.664983e+2, -360066.84, -460815.44, -7962.3843, -0.00012389683, -0.0013414657, -359441.44, -31124.496, 0.0, 5.0095224, 4.9447517 
3.6359292e+2, 2.7144164e+2, -316757.28, -422412.2, -7128.9478, -0.00011462496, 0.0019409258, -316278.44, -36406.35, 0.0, 5.0089393, 4.9410987 
3.635881e+2, 2.763834e+2, -268188.97, -372170.34, -6909.61, 0.00016595145, -0.0015913191, -267731.84, -36288.703, 0.0, 5.008377, 4.941606 
3.6358377e+2, 2.8132358e+2, -224821.53, -333949.06, -5943.184, 0.00032660656, 0.0025563037, -224498.83, -41469.49, 0.0, 5.007825, 4.9378386 
3.6358032e+2, 2.8626215e+2, -175847.53, -282960.28, -5647.956, 0.00012983927, -0.0023482123, -175550.55, -40919.38, 0.0, 5.007289, 4.9385824 
3.6357743e+2, 2.9119852e+2, -134532.84, -249826.05, -4555.35, 0.00019752303, 0.0019614499, -134353.14, -48098.168, 0.0, 5.0067673, 4.9329576 
3.6357564e+2, 2.961324e+2, -85541.98, -199074.9, -4187.6807, 0.0007238797, 0.00014379655, -85387.73, -47484.715, 0.0, 5.006272, 4.9335785 
3.635744e+2, 3.0107337e+2, -45048.81, -135055.28, -2962.3853, 0.00085937633, 0.00292615, -44951.414, -44951.414, 0.0, 5.005787, 4.947914 
3.6357427e+2, 3.0602205e+2, -44935.113, -132389.77, -2510.576, 0.0003771438, -0.004899099, -44863.1, -44863.1, 0.0, 5.0053234, 4.949071 
3.6357492e+2, 3.109885e+2, -6512.487, -40267.42, -1060.8533, 0.0004239101, 0.004414412, -6479.179, -6479.179, 0.0, 5.0048795, 4.9829807 
3.6357713e+2, 3.1597283e+2, -5475.612, -35772.617, -494.2026, 0.0009908151, -0.00009977418, -5467.5527, -5467.5527, 0.0, 5.0044765, 4.984812 
3.6879766e+2, 1.22492954e+2, -1677933.3, -1738996.6, -475.20505, -0.0027511956, -0.006465496, -1677929.5, 61639.26, 0.0, 5.026822, 4.9869576 
3.687989e+2, 1.2748028e+2, -1636295.0, -1702189.4, -1583.7454, 0.010754954, 0.024638982, -1636256.9, 54436.43, 0.0, 5.026234, 4.983266 
3.6879578e+2, 1.3245861e+2, -1589877.4, -1655839.1, -2715.7358, -0.01305894, -0.01898312, -1589765.8, 52140.004, 0.0, 5.025691, 4.982601 
3.6879575e+2, 1.3744338e+2, -1543364.5, -1609595.3, -2935.0366, -0.00017377945, -0.000050366572, -1543234.8, 49820.598, 0.0, 5.025203, 4.9819484 
3.6879405e+2, 1.4242533e+2, -1498934.8, -1567619.5, -4310.559, 0.004421079, 0.010314648, -1498665.3, 45566.945, 0.0, 5.024704, 4.97985 
3.687907e+2, 1.474045e+2, -1452312.3, -1521096.8, -4516.5073, -0.00020693753, 0.00068241335, -1452017.0, 43419.324, 0.0, 5.024192, 4.9792905 
3.6878678e+2, 1.5238255e+2, -1408270.8, -1479902.1, -5885.433, -0.0019461543, -0.0007281259, -1407790.4, 38861.04, 0.0, 5.0236654, 4.9769506 
3.6878237e+2, 1.5735972e+2, -1361670.1, -1433338.9, -6070.7813, -0.00046173728, -0.0014257513, -1361159.6, 36715.15, 0.0, 5.023122, 4.9764028 
3.6877725e+2, 1.6233541e+2, -1317539.5, -1391877.3, -7170.3145, 0.00022295721, 0.0021167935, -1316854.1, 32258.85, 0.0, 5.0225577, 4.974143 
3.6877137e+2, 1.673096e+2, -1270923.3, -1345126.0, -7340.692, -0.00011237134, -0.0005774525, -1270204.0, 30162.156, 0.0, 5.0219684, 4.9736605 
3.6876497e+2, 1.722824e+2, -1226884.1, -1303846.9, -8308.181, -0.00028339715, 0.0017482962, -1225997.5, 25635.389, 0.0, 5.0213814, 4.9713216 
3.6875796e+2, 1.7725384e+2, -1180145.8, -1256907.6, -8432.792, -0.00031982086, -0.00027771972, -1179230.3, 23682.791, 0.0, 5.0207934, 4.9708824 
3.6875054e+2, 1.8222389e+2, -1136096.1, -1215636.8, -9170.076, -0.00032951118, 0.002138309, -1135052.6, 19154.02, 0.0, 5.020191, 4.9685225 
3.6874267e+2, 1.8719244e+2, -1089355.4, -1168593.5, -9266.859, -0.00034464404, -0.000963414, -1088286.0, 17228.41, 0.0, 5.01957, 4.968116 
3.687345e+2, 1.9215968e+2, -1045374.44, -1127466.1, -9817.025, -0.00032122733, 0.0013214517, -1044216.75, 12618.435, 0.0, 5.0189447, 4.965687 
3.68726e+2, 1.9712548e+2, -998548.94, -1080268.0, -9893.926, -0.00022164489, -0.0013139851, -997368.1, 10802.267, 0.0, 5.0183153, 4.9653163 
3.6871728e+2, 2.0208992e+2, -954593.75, -1039257.8, -10253.7, -0.00007527179, 0.0013411604, -953369.6, 6149.1157, 0.0, 5.0176806, 4.962827 
3.6870837e+2, 2.0705287e+2, -907723.6, -991961.75, -10306.771, 0.00012811804, -0.0011958367, -906480.9, 4401.109, 0.0, 5.017038, 4.9624767 
3.6869934e+2, 2.1201448e+2, -863761.1, -951010.7, -10470.451, 0.00020478919, 0.0015822593, -862522.2, -263.88788, 0.0, 5.0163956, 4.9599385 
3.6869022e+2, 2.1697453e+2, -816789.56, -903565.06, -10497.76, 0.000057795904, -0.0012252689, -815537.7, -1887.9706, 0.0, 5.0157533, 4.959619 
3.6868113e+2, 2.2193328e+2, -772832.7, -862735.8, -10478.296, -0.000028644561, 0.0016582034, -771627.6, -6573.4673, 0.0, 5.0151095, 4.95701 
3.68672e+2, 2.2689044e+2, -725788.0, -815171.8, -10479.735, -0.00008314807, -0.0010787965, -724575.75, -8101.757, 0.0, 5.014462, 4.956713 
3.6866307e+2, 2.3184624e+2, -681836.4, -774470.3, -10288.872, -0.00009439978, 0.0018684786, -680707.4, -12800.066, 0.0, 5.013818, 4.954031 
3.6865428e+2, 2.3680043e+2, -634661.7, -726721.44, -10261.945, -0.00008976006, -0.0011573033, -633531.7, -14175.381, 0.0, 5.0131774, 4.9537754 
3.6864567e+2, 2.4175327e+2, -590708.25, -686181.2, -9890.236, -0.00010608107, 0.0022636564, -589694.5, -18875.93, 0.0, 5.0125413, 4.950999 
3.6863735e+2, 2.4670446e+2, -543369.44, -638191.56, -9826.229, -0.0002157468, -0.0010959854, -542361.9, -20065.006, 0.0, 5.011912, 4.9508014 
3.6862937e+2, 2.5165424e+2, -499516.63, -598067.6, -9284.908, -0.0002403903, 0.0022515089, -498649.5, -24860.38, 0.0, 5.011288, 4.947845 
3.686218e+2, 2.5660235e+2, -451838.7, -549455.2, -9178.36, -0.00012501689, -0.001259481, -450983.22, -25685.863, 0.0, 5.010673, 4.9478393 
3.686146e+2, 2.6154903e+2, -408214.66, -510061.66, -8476.807, -0.000028016542, 0.0020314746, -407513.94, -30693.912, 0.0, 5.010065, 4.944586 
3.68608e+2, 2.6649404e+2, -360105.5, -460630.2, -8314.843, -0.00010833001, -0.001434211, -359422.4, -31063.885, 0.0, 5.0094676, 4.944842 
3.6860186e+2, 2.714375e+2, -316786.13, -422186.13, -7460.6694, -0.00009578337, 0.001835866, -316260.63, -36347.95, 0.0, 5.0088816, 4.941204 
3.685965e+2, 2.7637935e+2, -268225.38, -371939.16, -7237.385, 0.00018363094, -0.001693328, -267722.75, -36240.086, 0.0, 5.008315, 4.9417157 
3.685916e+2, 2.8131965e+2, -224848.03, -333671.56, -6253.21, 0.00036313583, 0.002458159, -224489.89, -41422.156, 0.0, 5.007758, 4.9379663 
3.685876e+2, 2.8625837e+2, -175879.81, -282673.53, -5954.971, 0.00022357042, -0.002457364, -175548.78, -40880.51, 0.0, 5.0072184, 4.938716 
3.685842e+2, 2.9119486e+2, -134562.88, -249509.9, -4835.8623, 0.00031512277, 0.0018529621, -134359.78, -48069.074, 0.0, 5.0066924, 4.933103 
3.6858192e+2, 2.9612887e+2, -85580.03, -198752.8, -4462.56, 0.00079251436, 0.00007573554, -85404.34, -47467.094, 0.0, 5.0061917, 4.933728 
3.6858016e+2, 3.0107e+2, -45082.27, -134697.38, -3218.7737, 0.0009123618, 0.002872972, -44966.81, -44966.81, 0.0, 5.005702, 4.94808 
3.6857963e+2, 3.0601886e+2, -44975.797, -132021.52, -2760.8958, 0.00049031875, -0.00499159, -44888.313, -44888.313, 0.0, 5.005234, 4.949243 
3.685798e+2, 3.1098548e+2, -6545.347, -39853.902, -1276.0287, 0.0004950416, 0.0043092454, -6496.5347, -6496.5347, 0.0, 5.0047836, 4.9831743 
3.6858156e+2, 3.1597006e+2, -5520.3643, -35348.42, -697.40497, 0.00092073524, -0.00019917985, -5504.067, -5504.067, 0.0, 5.0043736, 4.9850125 
3.7382466e+2, 1.2249177e+2, -1675831.8, -1737957.3, -431.8098, -0.0047041946, -0.0046831714, -1675828.8, 63753.465, 0.0, 5.027522, 4.9869566 
3.7382573e+2, 1.274786e+2, -1634416.1, -1701782.3, -1531.7091, 0.012577566, 0.023713779, -1634381.3, 56329.715, 0.0, 5.0269723, 4.9830394 
3.73822e+2, 1.3245693e+2, -1587990.3, -1655565.9, -2550.1765, -0.012184493, -0.017497782, -1587894.3, 54029.043, 0.0, 5.0264616, 4.9823174 
3.7382138e+2, 1.374412e+2, -1541425.1, -1609297.6, -2809.4092, -0.00028510782, -0.00040565713, -1541309.1, 51768.125, 0.0, 5.025993, 4.981664 
3.7381917e+2, 1.4242284e+2, -1497029.5, -1567227.0, -4285.269, 0.0042287568, 0.009406326, -1496768.8, 47488.25, 0.0, 5.0254593, 4.9796147 
3.738153e+2, 1.4740187e+2, -1450681.9, -1520837.3, -4508.084, 0.000432088, 0.0005616718, -1450393.4, 45069.063, 0.0, 5.0248556, 4.979057 
3.7381086e+2, 1.5237974e+2, -1406722.5, -1479545.5, -5861.3765, -0.0011272061, -0.0005865967, -1406253.8, 40425.332, 0.0, 5.0242724, 4.976778 
3.7380585e+2, 1.5735671e+2, -1360177.8, -1433007.8, -6020.4697, -0.0001530245, -0.0015815821, -1359683.4, 38220.805, 0.0, 5.0237103, 4.976232 
3.738001e+2, 1.623322e+2, -1316136.8, -1391567.8, -7143.1743, 0.0002802843, 0.0017986514, -1315466.3, 33677.906, 0.0, 5.0231113, 4.973983 
3.737936e+2, 1.6730623e+2, -1269679.9, -1344893.0, -7290.216, -0.000025929075, -0.00091116806, -1268979.8, 31419.29, 0.0, 5.0224686, 4.973501 
3.7378657e+2, 1.722789e+2, -1225764.1, -1303607.4, -8248.859, -0.00020461842, 0.0014497641, -1224899.6, 26767.605, 0.0, 5.0218253, 4.971192 
3.7377897e+2, 1.7725024e+2, -1179195.8, -1256748.0, -8382.85, -0.00027856108, -0.0004809987, -1178299.9, 24648.557, 0.0, 5.0211797, 4.970754 
3.737709e+2, 1.8222018e+2, -1135258.8, -1215463.1, -9146.833, -0.00028649083, 0.0020208603, -1134228.9, 20014.295, 0.0, 5.020525, 4.968425 
3.737624e+2, 1.8718863e+2, -1088655.9, -1168485.8, -9252.557, -0.00025610992, -0.0010112436, -1087597.5, 17954.227, 0.0, 5.0198565, 4.9680185 
3.7375358e+2, 1.921558e+2, -1044771.5, -1127351.8, -9809.386, -0.00022776317, 0.0013161756, -1043622.25, 13251.083, 0.0, 5.0191875, 4.9656124 
3.737444e+2, 1.971215e+2, -998062.1, -1080205.5, -9886.15, -0.00019064265, -0.001325478, -996889.06, 11320.206, 0.0, 5.0185175, 4.965244 
3.73735e+2, 2.020859e+2, -954198.2, -1039185.75, -10257.809, -0.00010807212, 0.0013125819, -952977.6, 6580.545, 0.0, 5.0178404, 4.962778 
3.7372544e+2, 2.070488e+2, -907455.0, -991945.4, -10310.813, 0.000028000568, -0.0012543887, -906214.94, 4706.9863, 0.0, 5.0171523, 4.96243 
3.7371576e+2, 2.1201035e+2, -863594.1, -950988.0, -10474.82, 0.00010346347, 0.0014908923, -862356.2, -57.59667, 0.0, 5.0164638, 4.959915 
3.7370595e+2, 2.169704e+2, -816762.06, -903602.9, -10503.5205, 0.000041738007, -0.001350899, -815509.7, -1819.5258, 0.0, 5.015772, 4.959598 
3.736962e+2, 2.2192912e+2, -772913.0, -862776.4, -10485.006, -0.000010420275, 0.0015196147, -771705.8, -6611.136, 0.0, 5.015081, 4.9570093 
3.7368643e+2, 2.2688629e+2, -725990.5, -815263.6, -10487.769, -0.00011052698, -0.0011992181, -724774.94, -8260.4375, 0.0, 5.0143895, 4.9567156 
3.736768e+2, 2.318421e+2, -682138.8, -774567.44, -10290.809, -0.0001586743, 0.0017743808, -681006.9, -13059.187, 0.0, 5.0137014, 4.9540505 
3.7366733e+2, 2.3679632e+2, -635080.94, -726866.06, -10264.088, -0.0001773885, -0.0012123868, -633947.1, -14550.646, 0.0, 5.013018, 4.953798 
3.736581e+2, 2.417492e+2, -591225.75, -686325.7, -9884.185, -0.00019181128, 0.0022253566, -590209.3, -19350.904, 0.0, 5.0123386, 4.9510403 
3.7364912e+2, 2.4670042e+2, -544010.0, -638383.7, -9817.748, -0.00026511893, -0.0011642268, -542999.5, -20663.139, 0.0, 5.0116634, 4.9508467 
3.7364048e+2, 2.5165024e+2, -500260.06, -598263.3, -9263.581, -0.00027087465, 0.0021647029, -499392.13, -25564.076, 0.0, 5.0109944, 4.9479084 
3.7363225e+2, 2.5659844e+2, -452699.0, -549694.56, -9156.479, -0.0001402523, -0.0013379164, -451842.2, -26506.56, 0.0, 5.010335, 4.9479065 
3.7362444e+2, 2.6154515e+2, -409171.56, -510303.1, -8439.852, -0.000020520805, 0.0019614163, -408472.06, -31614.494, 0.0, 5.0096836, 4.9446707 
3.7361726e+2, 2.6649028e+2, -361167.34, -460908.5, -8277.042, -0.000071023875, -0.0015045416, -360485.16, -32089.96, 0.0, 5.009046, 4.94493 
3.7361047e+2, 2.7143383e+2, -317939.63, -422461.78, -7402.451, -0.000045357945, 0.001762088, -317417.97, -37469.563, 0.0, 5.008418, 4.941311 
3.7360454e+2, 2.763758e+2, -269491.84, -372253.22, -7173.628, 0.00023033806, -0.0017803317, -268993.47, -37476.164, 0.0, 5.0078077, 4.941827 
3.7359905e+2, 2.8131622e+2, -226209.5, -333983.16, -6167.6895, 0.00042496063, 0.0023568238, -225857.67, -42756.477, 0.0, 5.0072074, 4.938096 
3.7359452e+2, 2.8625506e+2, -177347.06, -283017.3, -5864.1025, 0.0003359102, -0.0025798492, -177022.64, -42322.215, 0.0, 5.006625, 4.938851 
3.7359056e+2, 2.911917e+2, -136128.36, -249866.1, -4714.145, 0.00043555186, 0.001719625, -135933.3, -49611.8, 0.0, 5.0060573, 4.933251 
3.735877e+2, 2.961259e+2, -87247.22, -199140.9, -4332.7695, 0.00083086954, -0.000034604847, -87079.695, -49113.17, 0.0, 5.0055165, 4.9338803 
3.735855e+2, 3.0106717e+2, -46831.6, -135077.36, -3071.191, 0.000918441, 0.002771004, -46724.844, -46724.844, 0.0, 5.004986, 4.9482503 
3.7358445e+2, 3.060162e+2, -46826.99, -132430.7, -2603.1343, 0.0005679251, -0.005118232, -46747.902, -46747.902, 0.0, 5.004477, 4.94942 
3.7358418e+2, 3.10983e+2, -8468.4375, -40246.008, -1088.4227, 0.00054143835, 0.0041739275, -8431.201, -8431.201, 0.0, 5.003986, 4.9833717 
3.735855e+2, 3.1596777e+2, -7542.0005, -35770.477, -496.3176, 0.0008582515, -0.00029288937, -7533.277, -7533.277, 0.0, 5.0035367, 4.985215 
3.7885195e+2, 1.2249077e+2, -1675837.1, -1737965.1, -543.3341, -0.0066863555, -0.003324773, -1675832.4, 63762.656, 0.0, 5.027524, 4.9869523 
3.7885287e+2, 1.2747721e+2, -1634532.9, -1702238.1, -1790.5132, 0.014559639, 0.022915097, -1634485.5, 56241.168, 0.0, 5.0270214, 4.982865 
3.7884858e+2, 1.3245557e+2, -1588202.5, -1656371.6, -2765.775, -0.010844227, -0.015673995, -1588090.4, 53847.63, 0.0, 5.026541, 4.9820127 
3.7884736e+2, 1.3743928e+2, -1541610.3, -1610085.0, -3008.7786, -0.00040461027, -0.0010491365, -1541478.3, 51618.785, 0.0, 5.0260797, 4.981362 
3.7884462e+2, 1.4242058e+2, -1497128.0, -1567839.3, -4580.3003, 0.0038101345, 0.007992689, -1496832.5, 47447.566, 0.0, 5.0255466, 4.97937 
3.7884024e+2, 1.4739946e+2, -1450786.5, -1521446.5, -4810.1294, 0.0010766018, 0.0000977433, -1450460.6, 45026.203, 0.0, 5.0249386, 4.978815 
3.788352e+2, 1.5237716e+2, -1406748.1, -1479936.3, -6143.551, -0.00016111102, -0.00061222265, -1406236.0, 40468.836, 0.0, 5.0243435, 4.9766145 
3.788296e+2, 1.5735395e+2, -1360258.6, -1433419.8, -6316.1006, 0.0003270257, -0.0017153063, -1359717.4, 38213.887, 0.0, 5.023761, 4.976071 
3.7882325e+2, 1.6232929e+2, -1316236.1, -1391962.1, -7505.761, 0.0004446443, 0.0015177337, -1315499.4, 33673.32, 0.0, 5.02315, 4.973833 
3.7881607e+2, 1.6730314e+2, -1269784.6, -1345286.5, -7657.2573, 0.0000017868751, -0.0013914369, -1269015.9, 31413.188, 0.0, 5.022504, 4.973353 
3.7880838e+2, 1.7227566e+2, -1225859.3, -1303962.4, -8619.448, -0.00024278287, 0.0009065113, -1224919.4, 26779.344, 0.0, 5.0218573, 4.9710584 
3.7880015e+2, 1.7724687e+2, -1179304.8, -1257106.9, -8751.977, -0.00027677295, -0.0009291182, -1178332.4, 24648.834, 0.0, 5.021206, 4.970622 
3.7879145e+2, 1.822167e+2, -1135339.9, -1215739.4, -9532.111, -0.00022553338, 0.0017044222, -1134225.3, 20051.684, 0.0, 5.0205455, 4.9683228 
3.7878224e+2, 1.871851e+2, -1088749.4, -1168766.0, -9640.344, -0.00011559271, -0.0011521151, -1087604.3, 17982.1, 0.0, 5.019872, 4.967917 
3.7877277e+2, 1.9215217e+2, -1044845.9, -1127561.6, -10200.648, -0.00006624611, 0.0012994973, -1043606.5, 13302.276, 0.0, 5.019197, 4.965538 
3.787629e+2, 1.9711782e+2, -998157.6, -1080420.9, -10278.967, -0.00010318913, -0.0012971312, -996892.7, 11352.691, 0.0, 5.018519, 4.9651713 
3.7875286e+2, 2.0208216e+2, -954278.5, -1039339.06, -10664.741, -0.00011965109, 0.0013473962, -952961.8, 6633.1426, 0.0, 5.0178356, 4.9627295 
3.7874258e+2, 2.07045e+2, -907541.56, -992095.94, -10718.598, -0.00011485254, -0.001274559, -906204.0, 4755.13, 0.0, 5.017144, 4.9623833 
3.787322e+2, 2.1200652e+2, -863660.0, -951075.94, -10885.645, -0.000060617193, 0.00140122, -862324.8, 11.319485, 0.0, 5.016452, 4.959892 
3.7872174e+2, 2.1696654e+2, -816836.94, -903690.44, -10915.535, 0.000006579497, -0.0015170113, -815486.1, -1758.1428, 0.0, 5.0157557, 4.9595766 
3.7871128e+2, 2.2192523e+2, -772971.7, -862808.25, -10896.634, 0.00001740405, 0.0013265586, -771668.9, -6536.246, 0.0, 5.0150604, 4.957009 
3.787008e+2, 2.2688241e+2, -726057.44, -815293.75, -10900.714, -0.00012571015, -0.0013492563, -724745.2, -8192.768, 0.0, 5.0143647, 4.9567175 
3.7869048e+2, 2.3183824e+2, -682193.56, -774550.8, -10698.262, -0.00021451863, 0.0016723159, -680970.5, -12985.066, 0.0, 5.013673, 4.9540706 
3.7868032e+2, 2.3679247e+2, -635143.25, -726847.1, -10671.99, -0.00026679118, -0.0012587641, -633917.7, -14483.693, 0.0, 5.0129857, 4.95382 
3.7867042e+2, 2.417454e+2, -591272.44, -686252.5, -10286.553, -0.0002803346, 0.002198858, -590171.1, -19275.52, 0.0, 5.012302, 4.951083 
3.7866077e+2, 2.4669667e+2, -544062.56, -638305.0, -10220.775, -0.0003073664, -0.001239283, -542966.9, -20593.76, 0.0, 5.0116234, 4.9508934 
3.7865147e+2, 2.5164655e+2, -500300.25, -598138.75, -9656.205, -0.0002919129, 0.0020617219, -499356.34, -25492.05, 0.0, 5.0109506, 4.9479723 
3.7864262e+2, 2.565948e+2, -452743.16, -549564.3, -9548.774, -0.00015752659, -0.0014248344, -451810.4, -26439.215, 0.0, 5.0102887, 4.9479737 
3.7863415e+2, 2.6154163e+2, -409203.06, -510126.63, -8817.401, -0.00002454476, 0.0018905512, -408438.5, -31546.125, 0.0, 5.009634, 4.9447556 
3.786263e+2, 2.6648682e+2, -361205.88, -460726.9, -8653.031, -0.0000401149, -0.0015678689, -360459.13, -32029.994, 0.0, 5.0089927, 4.945019 
3.786189e+2, 2.714305e+2, -317965.66, -422229.5, -7760.5786, 0.0000043465056, 0.0016987203, -317391.2, -37409.773, 0.0, 5.00836, 4.941419 
3.7861234e+2, 2.7637252e+2, -269523.94, -372013.38, -7528.5366, 0.00027261896, -0.0018632952, -268973.88, -37424.65, 0.0, 5.0077457, 4.9419394 
3.7860626e+2, 2.813131e+2, -226230.14, -333694.72, -6503.947, 0.00047857157, 0.0022513405, -225837.95, -42706.02, 0.0, 5.007141, 4.9382277 
3.7860113e+2, 2.8625205e+2, -177372.55, -282719.1, -6197.4526, 0.00043659477, -0.0027103834, -177009.22, -42279.395, 0.0, 5.006555, 4.938988 
3.7859657e+2, 2.911888e+2, -136150.72, -249536.77, -5020.679, 0.0005356601, 0.0015735313, -135928.84, -49579.34, 0.0, 5.005983, 4.9334006 
3.7859324e+2, 2.9612318e+2, -87278.97, -198806.1, -4633.6533, 0.0008314468, -0.00016742111, -87086.79, -49093.77, 0.0, 5.005437, 4.934035 
3.7859046e+2, 3.0106464e+2, -46856.465, -134698.9, -3354.2976, 0.00087826414, 0.0026447645, -46728.566, -46728.566, 0.0, 5.004901, 4.948424 
3.785889e+2, 3.0601382e+2, -46858.746, -132039.64, -2880.5757, 0.00060342776, -0.0052595697, -46761.445, -46761.445, 0.0, 5.0043864, 4.9496 
3.7858814e+2, 3.109808e+2, -8495.811, -39816.98, -1332.6698, 0.0005430053, 0.004022758, -8439.21, -8439.21, 0.0, 5.0038896, 4.983571 
3.7858903e+2, 3.159658e+2, -7582.946, -35336.453, -727.9795, 0.0007442106, -0.00038098946, -7563.8643, -7563.8643, 0.0, 5.003433, 4.9854198 
3.838796e+2, 1.22490235e+2, -1673973.4, -1737520.8, -3.3113747, -0.009193404, -0.0057065506, -1673973.4, 65623.28, 0.0, 5.028242, 4.9867496 
3.8388044e+2, 1.2747644e+2, -1632538.9, -1701953.0, -1430.5348, 0.015607744, 0.021147141, -1632509.4, 58222.582, 0.0, 5.027832, 4.982565 
3.8387567e+2, 1.3245478e+2, -1586064.4, -1655917.4, -2457.194, -0.009819244, -0.014502415, -1585978.0, 55965.633, 0.0, 5.027386, 4.98175 
3.8387397e+2, 1.3743807e+2, -1539509.3, -1609647.9, -2671.69, 0.00043946202, -0.0017288891, -1539407.6, 53699.125, 0.0, 5.0269127, 4.9811015 
3.8387063e+2, 1.4241903e+2, -1495105.0, -1567450.3, -4356.868, 0.0044819345, 0.006562104, -1494843.6, 49449.668, 0.0, 5.026354, 4.9791093 
3.838656e+2, 1.473977e+2, -1448895.8, -1521121.6, -4604.4263, 0.0014153132, -0.0008671841, -1448603.4, 46899.28, 0.0, 5.0257025, 4.978555 
3.8385996e+2, 1.5237519e+2, -1404982.9, -1479567.6, -5968.4004, -0.0000043017108, -0.0011171, -1404508.4, 42214.734, 0.0, 5.0250435, 4.9764013 
3.838537e+2, 1.5735185e+2, -1358756.1, -1433177.8, -6185.15, 0.00048666296, -0.0017619128, -1358245.5, 39706.08, 0.0, 5.0243726, 4.975859 
3.8384667e+2, 1.62327e+2, -1314853.9, -1391663.4, -7425.182, 0.0006014365, 0.0017417769, -1314142.8, 35052.16, 0.0, 5.023697, 4.9736724 
3.8383886e+2, 1.6730072e+2, -1268518.0, -1345040.3, -7586.8027, 0.00013651304, -0.0011189915, -1267773.1, 32679.738, 0.0, 5.023011, 4.9731946 
3.8383052e+2, 1.7227308e+2, -1224681.9, -1303695.1, -8560.329, -0.00010977396, 0.001123202, -1223765.1, 27958.79, 0.0, 5.0223207, 4.9709287 
3.8382158e+2, 1.7724416e+2, -1178268.3, -1256904.9, -8690.259, -0.00009694223, -0.00089167716, -1177319.3, 25688.504, 0.0, 5.021621, 4.9704943 
3.838122e+2, 1.8221386e+2, -1134413.4, -1215543.6, -9485.551, -0.00007297687, 0.001643353, -1133319.1, 20985.67, 0.0, 5.020914, 4.968216 
3.838023e+2, 1.8718213e+2, -1087960.3, -1168636.4, -9599.526, -0.0000832561, -0.0012081631, -1086833.8, 18781.588, 0.0, 5.020194, 4.9678106 
3.8379207e+2, 1.9214912e+2, -1044169.8, -1127427.4, -10172.519, -0.00008129778, 0.0012896961, -1042944.94, 13993.695, 0.0, 5.019468, 4.9654574 
3.8378152e+2, 1.971147e+2, -997646.9, -1080363.0, -10256.125, -0.00008906624, -0.0012139613, -996394.2, 11881.829, 0.0, 5.018732, 4.965092 
3.837708e+2, 2.0207897e+2, -953877.1, -1039265.6, -10648.635, -0.00008873336, 0.0014372659, -952569.2, 7056.9546, 0.0, 5.0179973, 4.96268 
3.8375977e+2, 2.0704177e+2, -907263.75, -992074.6, -10702.068, -0.00009000903, -0.0012980788, -905934.1, 5056.6816, 0.0, 5.017262, 4.962337 
3.8374868e+2, 2.1200325e+2, -863480.7, -951049.44, -10872.587, -0.00004721672, 0.0012911834, -862150.94, 217.2886, 0.0, 5.016525, 4.959868 
3.8373747e+2, 2.1696323e+2, -816788.5, -903720.9, -10903.189, -0.0000013644301, -0.0016729713, -815441.9, -1681.5784, 0.0, 5.015782, 4.959555 
3.837263e+2, 2.219219e+2, -773028.44, -862840.25, -10882.349, -0.000021143489, 0.0011611633, -771728.6, -6563.6265, 0.0, 5.0150404, 4.957008 
3.8371512e+2, 2.2687909e+2, -726244.06, -815380.8, -10887.26, -0.00020664929, -0.001467728, -724933.56, -8348.804, 0.0, 5.014298, 4.9567184 
3.837041e+2, 2.3183493e+2, -682487.56, -774644.5, -10677.395, -0.00030989558, 0.0015814861, -681266.6, -13248.904, 0.0, 5.01356, 4.9540906 
3.8369322e+2, 2.367892e+2, -635563.7, -726992.5, -10650.306, -0.00032843975, -0.0013572208, -634339.44, -14873.386, 0.0, 5.0128264, 4.9538426 
3.8368258e+2, 2.4174215e+2, -591796.4, -686399.5, -10257.153, -0.00031122338, 0.0021010018, -590697.0, -19769.629, 0.0, 5.012097, 4.951125 
3.8367224e+2, 2.4669346e+2, -544709.0, -638499.4, -10191.268, -0.00032468673, -0.0013268418, -543614.4, -21209.99, 0.0, 5.011372, 4.9509387 
3.8366222e+2, 2.516434e+2, -501049.06, -598337.5, -9612.948, -0.0003192916, 0.0019878873, -500108.3, -26213.248, 0.0, 5.0106544, 4.9480357 
3.836527e+2, 2.5659174e+2, -453604.34, -549805.06, -9503.416, -0.0002108762, -0.0014830449, -452674.5, -27273.193, 0.0, 5.00995, 4.9480405 
3.8364357e+2, 2.615386e+2, -410161.06, -510365.9, -8756.672, -0.00007227238, 0.0018317616, -409401.6, -32479.824, 0.0, 5.0092516, 4.9448414 
3.8363504e+2, 2.664839e+2, -362284.8, -461010.34, -8589.064, -0.00001140032, -0.0016592533, -361543.13, -33085.47, 0.0, 5.0085645, 4.9451084 
3.8362703e+2, 2.7142763e+2, -319145.94, -422511.3, -7674.906, 0.00007356154, 0.0015831772, -318579.2, -38570.2, 0.0, 5.007886, 4.941529 
3.836198e+2, 2.763698e+2, -270819.84, -372334.38, -7437.438, 0.00030332737, -0.001983403, -270277.8, -38702.16, 0.0, 5.0072265, 4.9420533 
3.836131e+2, 2.813105e+2, -227623.03, -334013.1, -6389.941, 0.00049421476, 0.002122167, -227240.63, -44083.445, 0.0, 5.006578, 4.9383607 
3.8360736e+2, 2.862496e+2, -178873.14, -283070.53, -6078.524, 0.00048958, -0.002850605, -178519.73, -43766.035, 0.0, 5.005949, 4.9391265 
3.8360223e+2, 2.911865e+2, -137752.45, -249899.19, -4872.049, 0.0005837564, 0.0014260261, -137541.2, -51169.223, 0.0, 5.0053334, 4.9335527 
3.8359827e+2, 2.9612103e+2, -88992.01, -199204.03, -4477.2285, 0.0007931263, -0.00031124693, -88810.43, -50796.47, 0.0, 5.004743, 4.9341917 
3.8359493e+2, 3.0106264e+2, -48660.273, -135090.61, -3181.2217, 0.000816767, 0.0025051152, -48543.34, -48543.34, 0.0, 5.0041623, 4.9485993 
3.8359287e+2, 3.0601203e+2, -48773.22, -132464.23, -2699.6199, 0.00062536943, -0.0054036495, -48686.23, -48686.23, 0.0, 5.0036044, 4.949783 
3.835916e+2, 3.109792e+2, -10489.039, -40226.715, -1125.264, 0.0005396166, 0.0038537276, -10446.5205, -10446.5205, 0.0, 5.003064, 4.9837737 
3.8359195e+2, 3.159644e+2, -9677.515, -35778.8, -505.25653, 0.00064392405, -0.00052698643, -9667.737, -9667.737, 0.0, 5.0025682, 4.985627 
3.889076e+2, 1.2248992e+2, -1674233.0, -1738283.4, -437.9665, -0.011663077, -0.009466111, -1674230.0, 65363.94, 0.0, 5.0282955, 4.986471 
3.8890836e+2, 1.2747596e+2, -1632796.1, -1702855.1, -1900.616, 0.016243337, 0.019101253, -1632744.6, 57988.15, 0.0, 5.0279155, 4.9822264 
3.8890314e+2, 1.3245432e+2, -1586184.4, -1656539.3, -2948.8699, -0.009054758, -0.013663896, -1586061.0, 55884.367, 0.0, 5.0274663, 4.9815063 
3.88901e+2, 1.374372e+2, -1539745.8, -1610317.5, -3117.354, 0.0015556271, -0.0024849062, -1539608.4, 53503.965, 0.0, 5.0269513, 4.9808617 
3.888971e+2, 1.4241783e+2, -1495414.3, -1568199.5, -4882.757, 0.005480366, 0.005148845, -1495088.1, 49214.02, 0.0, 5.026377, 4.97885 
3.8889134e+2, 1.4739627e+2, -1449157.4, -1521845.9, -5075.548, 0.0015906242, -0.0020100325, -1448804.6, 46710.04, 0.0, 5.025741, 4.9782963 
3.88885e+2, 1.5237358e+2, -1405183.3, -1480195.0, -6414.3154, -0.00018587953, -0.0018151894, -1404638.8, 42099.004, 0.0, 5.0250874, 4.976172 
3.8887808e+2, 1.5735005e+2, -1358963.0, -1433805.1, -6604.7974, 0.0005114954, -0.0018142231, -1358384.5, 39584.063, 0.0, 5.024413, 4.9756308 
3.888704e+2, 1.6232507e+2, -1314976.5, -1392103.9, -7837.9077, 0.0007445955, 0.0021023105, -1314188.1, 35025.734, 0.0, 5.0237346, 4.973508 
3.8886186e+2, 1.6729863e+2, -1268639.3, -1345472.6, -7992.6543, 0.00029692566, -0.00061610993, -1267816.6, 32656.639, 0.0, 5.023048, 4.9730334 
3.8885283e+2, 1.7227085e+2, -1224770.4, -1304036.8, -8973.132, 0.00007082418, 0.0015853113, -1223767.3, 27978.537, 0.0, 5.022352, 4.9708 
3.888432e+2, 1.7724176e+2, -1178378.8, -1257251.5, -9101.838, 0.00013342984, -0.00069122814, -1177342.0, 25689.105, 0.0, 5.021644, 4.970368 
3.888331e+2, 1.8221132e+2, -1134517.5, -1215846.5, -9909.363, 0.0001016968, 0.0016737838, -1133327.5, 21001.799, 0.0, 5.02093, 4.9681077 
3.8882247e+2, 1.8717949e+2, -1088073.8, -1168941.4, -10020.227, -0.0000958881, -0.0012301346, -1086850.6, 18790.447, 0.0, 5.020206, 4.967703 
3.8881156e+2, 1.9214639e+2, -1044259.3, -1127663.4, -10602.251, -0.00016524461, 0.0012824414, -1042932.7, 14032.733, 0.0, 5.019476, 4.965375 
3.8880026e+2, 1.9711189e+2, -997746.4, -1080601.3, -10685.055, -0.00010722885, -0.001117523, -996390.56, 11912.978, 0.0, 5.0187364, 4.9650106 
3.8878876e+2, 2.0207609e+2, -953946.3, -1039416.3, -11078.519, -0.000046830548, 0.001538182, -952533.7, 7120.676, 0.0, 5.017997, 4.9626303 
3.8877705e+2, 2.0703882e+2, -907344.7, -992223.6, -11132.981, -0.000007018659, -0.001328085, -905908.75, 5110.778, 0.0, 5.0172553, 4.9622903 
3.887652e+2, 2.1200027e+2, -863546.06, -951138.94, -11309.976, 0.00002722262, 0.0011735085, -862109.3, 288.01587, 0.0, 5.016513, 4.959844 
3.8875327e+2, 2.1696022e+2, -816865.25, -903810.9, -11342.547, -0.0000070141596, -0.0018227161, -815409.9, -1620.3337, 0.0, 5.015765, 4.959533 
3.8874134e+2, 2.219189e+2, -773089.56, -862875.25, -11321.526, -0.000096118674, 0.0010080358, -771684.0, -6489.5537, 0.0, 5.0150194, 4.957007 
3.887294e+2, 2.2687608e+2, -726311.0, -815413.5, -11328.063, -0.0003218132, -0.0015760473, -724893.4, -8279.289, 0.0, 5.0142736, 4.95672 
3.8871762e+2, 2.3183194e+2, -682539.25, -774626.4, -11112.319, -0.00042892218, 0.0014916171, -681217.25, -13170.31, 0.0, 5.013532, 4.9541106 
3.8870603e+2, 2.3678623e+2, -635623.06, -726971.56, -11085.838, -0.00038888498, -0.0014804316, -634297.0, -14801.869, 0.0, 5.0127945, 4.9538655 
3.8869467e+2, 2.417392e+2, -591841.56, -686327.44, -10686.804, -0.0003313649, 0.0019699193, -590647.9, -19691.758, 0.0, 5.012061, 4.9511676 
3.886836e+2, 2.4669057e+2, -544759.75, -638422.25, -10621.697, -0.00034603736, -0.0014232983, -543570.3, -21137.598, 0.0, 5.0113335, 4.9509845 
3.886729e+2, 2.5164056e+2, -501086.7, -598212.25, -10030.952, -0.0003636236, 0.0019243147, -500061.53, -26138.72, 0.0, 5.010612, 4.9480996 
3.8866264e+2, 2.5658897e+2, -453648.22, -549675.0, -9920.184, -0.00029216698, -0.0015312884, -452634.13, -27205.744, 0.0, 5.009904, 4.9481077 
3.886528e+2, 2.615359e+2, -410190.94, -510183.56, -9161.978, -0.0001517513, 0.001775399, -409358.4, -32410.299, 0.0, 5.0092015, 4.9449286 
3.886436e+2, 2.6648128e+2, -362321.6, -460822.84, -8993.68, 0.0000009335545, -0.0017633644, -361507.16, -33024.02, 0.0, 5.00851, 4.9451995 
3.886349e+2, 2.7142513e+2, -319169.6, -422272.13, -8061.361, 0.00013482655, 0.0014453058, -318543.13, -38509.617, 0.0, 5.0078273, 4.9416394 
3.8862702e+2, 2.7636743e+2, -270849.22, -372087.7, -7821.073, 0.0003118622, -0.0021187812, -270248.6, -38649.56, 0.0, 5.007164, 4.9421687 
3.8861966e+2, 2.813082e+2, -227641.28, -333717.3, -6754.2, 0.00047496645, 0.0019837602, -227212.95, -44033.625, 0.0, 5.006511, 4.938495 
3.886133e+2, 2.8624746e+2, -178899.2, -282766.5, -6439.984, 0.0005039444, -0.0029938126, -178501.44, -43726.973, 0.0, 5.0058775, 4.939266 
3.8860756e+2, 2.9118454e+2, -137775.55, -249560.67, -5208.35, 0.00059010886, 0.0012793387, -137533.39, -51142.094, 0.0, 5.0052567, 4.9337068 
3.88603e+2, 2.961192e+2, -89023.414, -198858.83, -4808.073, 0.0007155555, -0.00046018686, -88813.34, -50781.598, 0.0, 5.0046616, 4.9343505 
3.885991e+2, 3.0106097e+2, -48684.66, -134702.42, -3493.7537, 0.00072168326, 0.0023596298, -48542.992, -48542.992, 0.0, 5.0040755, 4.948777 
3.8859648e+2, 3.060105e+2, -48805.113, -132064.52, -3005.4182, 0.0006150953, -0.005546897, -48696.766, -48696.766, 0.0, 5.0035124, 4.949967 
3.8859463e+2, 3.109779e+2, -10515.492, -39785.78, -1397.3573, 0.000502227, 0.0036768299, -10448.935, -10448.935, 0.0, 5.002966, 4.9839787 
3.885945e+2, 3.1596333e+2, -9718.208, -35332.926, -763.4687, 0.00049585453, -0.0006924723, -9695.472, -9695.472, 0.0, 5.0024624, 4.9858375 
3.9393654e+2, 1.2248951e+2, -1671987.0, -1737760.8, -807.7936, -0.009925779, -0.010578592, -1671977.0, 67621.016, 0.0, 5.029172, 4.9862127 
3.9393675e+2, 1.2747487e+2, -1630434.0, -1702272.6, -2252.9194, 0.016258795, 0.013749125, -1630363.4, 60379.69, 0.0, 5.0288305, 4.981971 
3.9393094e+2, 1.3245307e+2, -1583740.6, -1655587.5, -3403.4983, -0.010446989, -0.01878631, -1583579.8, 58377.42, 0.0, 5.0283365, 4.981399 
3.939283e+2, 1.3743609e+2, -1537720.9, -1609570.1, -3472.3264, 0.0010240253, -0.004991734, -1537553.5, 55569.363, 0.0, 5.027683, 4.980756 
3.939238e+2, 1.4241678e+2, -1493573.8, -1567496.9, -5139.184, 0.005215905, 0.0039559905, -1493218.1, 51094.156, 0.0, 5.027039, 4.9787636 
3.9391735e+2, 1.473951e+2, -1447312.1, -1521143.0, -5199.4478, 0.0010235725, -0.0032420522, -1446947.8, 48577.723, 0.0, 5.0264053, 4.97821 
3.9391038e+2, 1.5237232e+2, -1403478.1, -1479692.1, -6485.615, -0.00071499764, -0.0029654796, -1402930.1, 43819.34, 0.0, 5.025733, 4.97603 
3.939028e+2, 1.5734868e+2, -1357391.0, -1433370.4, -6610.21, 0.0003851586, -0.0027449382, -1356820.3, 41161.44, 0.0, 5.0250154, 4.975488 
3.938944e+2, 1.6232356e+2, -1313521.4, -1391721.9, -7805.7974, 0.00078409794, 0.001304564, -1312749.9, 36478.363, 0.0, 5.0242963, 4.973368 
3.938852e+2, 1.6729698e+2, -1267294.3, -1345144.3, -7944.0776, 0.00022622106, -0.001381301, -1266491.9, 33997.145, 0.0, 5.023573, 4.972894 
3.9387542e+2, 1.7226909e+2, -1223540.1, -1303729.1, -8938.933, -0.000041985906, 0.0009538836, -1222555.8, 29206.998, 0.0, 5.0228314, 4.9706774 
3.9386505e+2, 1.772399e+2, -1177318.9, -1257024.3, -9065.166, 0.00007579142, -0.0010724564, -1176300.9, 26748.297, 0.0, 5.0220647, 4.9702463 
3.9385423e+2, 1.8220937e+2, -1133577.9, -1215621.1, -9871.313, 0.00009751023, 0.0014807637, -1132406.9, 21941.438, 0.0, 5.021298, 4.968011 
3.9384288e+2, 1.8717746e+2, -1087265.4, -1168777.5, -9972.114, -0.000056483485, -0.0013075669, -1086063.1, 19597.746, 0.0, 5.020529, 4.9676075 
3.9383116e+2, 1.9214427e+2, -1043558.56, -1127511.3, -10559.094, -0.000105805375, 0.0012376449, -1042250.9, 14735.161, 0.0, 5.019754, 4.965297 
3.9381912e+2, 1.971097e+2, -997180.75, -1080512.3, -10638.117, -0.000064932814, -0.0012319181, -995844.1, 12480.924, 0.0, 5.0189676, 4.964934 
3.9380684e+2, 2.0207383e+2, -953487.5, -1039324.94, -11033.676, -0.000019316714, 0.0013931271, -952091.9, 7584.6323, 0.0, 5.01818, 4.962577 
3.9379433e+2, 2.0703651e+2, -907031.44, -992196.5, -11091.284, 0.000006033966, -0.0014590997, -905610.7, 5431.473, 0.0, 5.0173874, 4.9622393 
3.9378175e+2, 2.1199791e+2, -863347.1, -951108.2, -11273.837, 0.00001550835, 0.0010516566, -861922.06, 498.26874, 0.0, 5.0165935, 4.9598184 
3.9376903e+2, 2.1695784e+2, -816807.25, -903841.1, -11308.067, -0.000053668336, -0.0019376787, -815362.0, -1549.2339, 0.0, 5.0157957, 4.9595094 
3.9375633e+2, 2.219165e+2, -773140.25, -862906.6, -11282.258, -0.00015612671, 0.00088527775, -771744.0, -6526.233, 0.0, 5.015002, 4.957005 
3.9374363e+2, 2.2687368e+2, -726486.8, -815497.8, -11288.893, -0.0003635982, -0.0017288937, -725077.44, -8439.9795, 0.0, 5.014211, 4.95672 
3.937311e+2, 2.3182954e+2, -682819.6, -774712.94, -11066.86, -0.00046476617, 0.0013229444, -681505.56, -13435.387, 0.0, 5.013423, 4.9541306 
3.9371872e+2, 2.3678386e+2, -636035.56, -727112.44, -11039.737, -0.00044031243, -0.0016460371, -634716.5, -15198.348, 0.0, 5.0126376, 4.9538884 
3.937066e+2, 2.4173686e+2, -592362.75, -686474.25, -10631.264, -0.00038918562, 0.0018161159, -591176.75, -20197.857, 0.0, 5.0118566, 4.9512095 
3.936948e+2, 2.4668828e+2, -545405.4, -638618.2, -10565.487, -0.00039121468, -0.0015543633, -544222.8, -21767.854, 0.0, 5.0110826, 4.9510293 
3.936833e+2, 2.5163832e+2, -501838.8, -598411.44, -9960.455, -0.00039754028, 0.0018117374, -500822.22, -26877.668, 0.0, 5.0103145, 4.9481635 
3.9367235e+2, 2.565868e+2, -454525.38, -549921.9, -9846.4375, -0.0003015346, -0.0016427118, -453519.66, -28070.2, 0.0, 5.009559, 4.9481754 
3.9366177e+2, 2.6153386e+2, -411173.1, -510429.28, -9074.088, -0.00013938635, 0.0016640313, -410350.34, -33381.895, 0.0, 5.0088096, 4.9450164 
3.9365184e+2, 2.664793e+2, -363428.94, -461114.7, -8902.941, 0.000044000397, -0.0018694726, -362624.16, -34121.605, 0.0, 5.0080705, 4.945291 
3.9364246e+2, 2.7142325e+2, -320382.84, -422566.06, -7948.483, 0.00019107987, 0.001344705, -319768.25, -39716.305, 0.0, 5.007341, 4.94175 
3.9363387e+2, 2.7636567e+2, -272182.16, -372423.53, -7704.1304, 0.0003338486, -0.0022112632, -271593.5, -39977.145, 0.0, 5.0066314, 4.9422836 
3.9362586e+2, 2.8130654e+2, -229076.89, -334050.34, -6616.3115, 0.000489808, 0.0018861649, -228661.52, -45466.086, 0.0, 5.0059314, 4.9386306 
3.9361882e+2, 2.8624597e+2, -180457.6, -283138.88, -6298.3057, 0.00057504105, -0.0031056616, -180072.72, -45283.5, 0.0, 5.005249, 4.939407 
3.9361244e+2, 2.9118317e+2, -139443.28, -249939.25, -5035.989, 0.0006620684, 0.0011539557, -139214.23, -52809.633, 0.0, 5.0045805, 4.933865 
3.9360726e+2, 2.96118e+2, -90804.57, -199271.34, -4625.737, 0.0006827106, -0.0006033348, -90607.66, -52564.203, 0.0, 5.00394, 4.934514 
3.9360273e+2, 3.0105993e+2, -50560.023, -135110.16, -3293.6062, 0.00066196936, 0.002204381, -50431.918, -50431.918, 0.0, 5.0033083, 4.94896 
3.9359954e+2, 3.0600968e+2, -50798.71, -132509.11, -2795.0242, 0.00065187924, -0.005711678, -50703.215, -50703.215, 0.0, 5.002699, 4.950156 
3.9359713e+2, 3.1097725e+2, -12596.205, -40220.504, -1160.5217, 0.00054052833, 0.003467048, -12547.536, -12547.536, 0.0, 5.0021057, 4.9841866 
3.9359647e+2, 3.1596285e+2, -11909.516, -35804.664, -510.03995, 0.00047778364, -0.0008786786, -11898.634, -11898.634, 0.0, 5.0015593, 4.98605 
3.989661e+2, 1.22489184e+2, -1672001.0, -1738393.1, -724.4364, -0.0062231934, -0.01131516, -1671993.1, 67610.16, 0.0, 5.029301, 4.985942 
3.9896557e+2, 1.2747379e+2, -1630505.3, -1702844.8, -2169.7324, 0.016037421, 0.007832166, -1630440.3, 60314.37, 0.0, 5.028921, 4.981738 
3.9895904e+2, 1.3245176e+2, -1583696.4, -1655736.0, -3571.1938, -0.012740324, -0.025524007, -1583519.8, 58450.906, 0.0, 5.02839, 4.981323 
3.9895585e+2, 1.3743511e+2, -1537721.3, -1609724.3, -3680.4565, -0.00015355185, -0.007839796, -1537533.6, 55599.766, 0.0, 5.027716, 4.9806876 
3.989508e+2, 1.4241591e+2, -1493544.6, -1567569.1, -5375.5967, 0.0045312215, 0.0030162802, -1493156.4, 51165.004, 0.0, 5.0270667, 4.9787264 
3.989437e+2, 1.473942e+2, -1447264.3, -1521203.5, -5489.467, 0.00021291459, -0.004366388, -1446859.0, 48675.402, 0.0, 5.0264387, 4.9781747 
3.9893603e+2, 1.5237132e+2, -1403539.3, -1479987.5, -6874.1826, -0.0013730414, -0.0041627223, -1402926.1, 43832.75, 0.0, 5.025768, 4.9759154 
3.989278e+2, 1.5734757e+2, -1357459.4, -1433670.9, -7014.0034, 0.00019302726, -0.003891641, -1356819.3, 41172.754, 0.0, 5.025048, 4.9753733 
3.989187e+2, 1.6232234e+2, -1313626.1, -1392080.4, -8221.854, 0.00076507503, 0.00017688649, -1312773.8, 36465.97, 0.0, 5.024325, 4.973236 
3.9890876e+2, 1.6729562e+2, -1267416.5, -1345509.5, -8359.163, 0.00006327229, -0.002528661, -1266531.8, 33970.21, 0.0, 5.0235944, 4.9727626 
3.988982e+2, 1.7226763e+2, -1223658.4, -1304067.6, -9383.114, -0.00026744255, -0.000014717376, -1222578.0, 29198.838, 0.0, 5.0228486, 4.9705563 
3.9888713e+2, 1.7723836e+2, -1177438.6, -1257361.1, -9507.441, -0.000090646485, -0.0016354114, -1176323.1, 26740.879, 0.0, 5.022081, 4.970126 
3.988755e+2, 1.8220775e+2, -1133665.3, -1215879.1, -10314.935, 0.000024620744, 0.0012157238, -1132390.8, 21973.254, 0.0, 5.021312, 4.967919 
3.9886338e+2, 1.8717577e+2, -1087361.6, -1169037.8, -10416.962, -0.0000068391905, -0.0014067525, -1086054.0, 19623.35, 0.0, 5.0205393, 4.967516 
3.9885092e+2, 1.921425e+2, -1043645.2, -1127731.0, -11018.457, -0.0000053966755, 0.0011752278, -1042225.4, 14777.921, 0.0, 5.0197597, 4.9652214 
3.9883807e+2, 1.9710782e+2, -997281.2, -1080735.8, -11096.586, -0.000009948956, -0.0014228366, -995830.94, 12512.225, 0.0, 5.018968, 4.964859 
3.9882502e+2, 2.020719e+2, -953573.06, -1039494.7, -11496.885, -0.000006516687, 0.0011612971, -952061.3, 7633.992, 0.0, 5.0181756, 4.9625225 
3.988117e+2, 2.0703453e+2, -907124.7, -992365.44, -11554.016, -0.000013459297, -0.0016244168, -905586.3, 5475.1294, 0.0, 5.0173798, 4.962187 
3.9879832e+2, 2.119959e+2, -863414.6, -951205.1, -11740.043, -0.00003620901, 0.00092856894, -861871.75, 568.20245, 0.0, 5.016582, 4.959792 
3.987848e+2, 2.1695581e+2, -816880.06, -903935.06, -11776.503, -0.00012645482, -0.0020404493, -815315.1, -1482.5155, 0.0, 5.0157814, 4.9594855 
3.9877132e+2, 2.2191446e+2, -773195.1, -862941.5, -11746.816, -0.00021956705, 0.0007739196, -771683.06, -6445.3926, 0.0, 5.014983, 4.957003 
3.9875782e+2, 2.2687162e+2, -726554.06, -815533.25, -11755.257, -0.00038549668, -0.0018981867, -725027.25, -8369.805, 0.0, 5.0141873, 4.9567204 
3.9874446e+2, 2.318275e+2, -682872.8, -774694.7, -11530.424, -0.00047556325, 0.0011242691, -681447.06, -13356.945, 0.0, 5.0133944, 4.9541516 
3.9873132e+2, 2.3678185e+2, -636094.56, -727090.94, -11504.864, -0.0004971216, -0.001826968, -634662.5, -15124.712, 0.0, 5.0126057, 4.953912 
3.9871845e+2, 2.4173488e+2, -592406.56, -686402.4, -11089.13, -0.00047439043, 0.001655187, -591116.06, -20117.854, 0.0, 5.0118213, 4.951252 
3.9870584e+2, 2.4668634e+2, -545454.44, -638541.94, -11023.797, -0.0004585158, -0.0016985079, -544166.75, -21692.898, 0.0, 5.0110445, 4.951074 
3.986936e+2, 2.5163642e+2, -501873.34, -598283.1, -10407.516, -0.0004394723, 0.0016787053, -500762.66, -26799.756, 0.0, 5.0102725, 4.948229 
3.9868188e+2, 2.56585e+2, -454568.9, -549790.06, -10291.793, -0.00029496162, -0.0017803354, -453469.25, -28002.074, 0.0, 5.0095124, 4.9482436 
3.9867055e+2, 2.615321e+2, -411202.5, -510243.0, -9508.745, -0.00010370068, 0.0015301129, -410297.84, -33312.445, 0.0, 5.0087585, 4.9451056 
3.986599e+2, 2.6647767e+2, -363462.97, -460922.22, -9337.439, 0.00008405021, -0.0019754868, -362576.44, -34057.855, 0.0, 5.0080166, 4.945384 
3.9864978e+2, 2.714217e+2, -320404.13, -422324.72, -8364.189, 0.00022846952, 0.0012617382, -319722.28, -39655.344, 0.0, 5.0072827, 4.9418616 
3.986405e+2, 2.7636424e+2, -272211.28, -372177.0, -8116.4956, 0.00034332616, -0.0022834307, -271556.56, -39926.363, 0.0, 5.006569, 4.942399 
3.9863178e+2, 2.8130525e+2, -229093.67, -333750.75, -7010.771, 0.000498896, 0.0018072741, -228626.13, -45418.027, 0.0, 5.0058646, 4.9387665 
3.986241e+2, 2.8624478e+2, -180480.69, -282830.0, -6690.752, 0.00064877066, -0.0032023683, -180045.16, -45244.67, 0.0, 5.005178, 4.9395485 
3.9861703e+2, 2.9118216e+2, -139457.61, -249582.95, -5402.046, 0.00073853973, 0.0010408596, -139193.25, -52778.824, 0.0, 5.004504, 4.9340253 
3.9861122e+2, 2.9611713e+2, -90827.836, -198905.63, -4986.544, 0.0006439046, -0.000741186, -90598.26, -52546.6, 0.0, 5.003858, 4.9346805 
3.9860603e+2, 3.0105928e+2, -50577.418, -134701.95, -3637.5164, 0.00059045065, 0.0020484293, -50420.426, -50420.426, 0.0, 5.0032206, 4.949145 
3.9860225e+2, 3.0600917e+2, -50821.97, -132089.33, -3132.825, 0.00067883154, -0.0058804196, -50701.38, -50701.38, 0.0, 5.0026064, 4.950348 
3.9859924e+2, 3.1097695e+2, -12614.397, -39763.92, -1465.397, 0.0005766872, 0.003248513, -12535.531, -12535.531, 0.0, 5.002008, 4.9843974 
3.9859802e+2, 3.159628e+2, -11940.626, -35342.934, -799.87225, 0.0004555958, -0.0010655883, -11913.318, -11913.318, 0.0, 5.001455, 4.9862657 
4.0399635e+2, 1.2249034e+2, -1669288.0, -1737782.3, 76.36473, -0.002705312, -0.010222282, -1669287.9, 70303.29, 0.0, 5.0303655, 4.9856215 
4.0399483e+2, 1.2747516e+2, -1628022.4, -1702095.9, -1321.9225, 0.014668954, 0.01317307, -1627998.9, 62742.246, 0.0, 5.029855, 4.981529 
4.0398762e+2, 1.3245276e+2, -1581487.9, -1655098.0, -2955.669, -0.015591012, -0.021694817, -1581369.5, 60591.33, 0.0, 5.0292225, 4.9811296 
4.0398386e+2, 1.3743578e+2, -1535768.9, -1609216.5, -3170.0298, -0.001059842, -0.005546142, -1535632.3, 57494.367, 0.0, 5.028466, 4.9804926 
4.0397817e+2, 1.4241628e+2, -1491774.3, -1567168.1, -4918.714, 0.0045274138, 0.0043473165, -1491454.8, 52862.734, 0.0, 5.0277615, 4.9785237 
4.0397045e+2, 1.4739433e+2, -1445561.5, -1520834.4, -5164.003, -0.000057233006, -0.003420733, -1445208.9, 50324.21, 0.0, 5.0271115, 4.9779735 
4.0396208e+2, 1.5237126e+2, -1401871.0, -1479548.4, -6711.636, -0.0017681413, -0.003440387, -1401295.4, 45464.32, 0.0, 5.0264106, 4.975754 
4.039531e+2, 1.5734734e+2, -1355913.0, -1433288.8, -6891.1313, -0.00017390554, -0.003189796, -1355304.1, 42690.51, 0.0, 5.0256495, 4.9752135 
4.039433e+2, 1.6232194e+2, -1312176.0, -1391679.8, -8130.4375, 0.00046520348, 0.0008228324, -1311353.0, 37890.72, 0.0, 5.0248804, 4.9731054 
4.039326e+2, 1.6729508e+2, -1266119.4, -1345181.1, -8267.302, -0.00013552728, -0.0019756856, -1265264.1, 35243.2, 0.0, 5.0240984, 4.972634 
4.039213e+2, 1.7226695e+2, -1222471.6, -1303750.4, -9307.718, -0.0003803048, 0.00035949078, -1221419.4, 30364.002, 0.0, 5.0233064, 4.9704466 
4.039094e+2, 1.7723756e+2, -1176368.5, -1257100.8, -9424.169, -0.00011727886, -0.0015368843, -1175283.0, 27788.867, 0.0, 5.022499, 4.970017 
4.0389702e+2, 1.8220684e+2, -1132698.9, -1215641.1, -10235.429, 0.00002557043, 0.0011329459, -1131454.5, 22918.436, 0.0, 5.0216894, 4.967822 
4.0388405e+2, 1.8717472e+2, -1086531.0, -1168868.1, -10342.072, -0.00005588219, -0.0015567899, -1085251.9, 20435.408, 0.0, 5.0208707, 4.967418 
4.0387082e+2, 1.9214138e+2, -1042921.1, -1127556.8, -10961.774, -0.00007254683, 0.0010228114, -1041524.44, 15489.685, 0.0, 5.0200434, 4.965149 
4.0385714e+2, 1.9710664e+2, -996704.7, -1080629.6, -11037.304, -0.000059359045, -0.0015104903, -995277.44, 13077.159, 0.0, 5.0192003, 4.9647875 
4.0384325e+2, 2.0207067e+2, -953111.7, -1039393.9, -11435.443, -0.000028178405, 0.0010952257, -951621.8, 8085.5386, 0.0, 5.018358, 4.962473 
4.0382913e+2, 2.0703325e+2, -906797.8, -992324.56, -11487.727, 0.000003858305, -0.0017165522, -905281.7, 5792.242, 0.0, 5.0175147, 4.962139 
4.038149e+2, 2.1199457e+2, -863194.1, -951169.8, -11673.409, -0.000029128712, 0.0008118728, -861671.5, 781.2876, 0.0, 5.016671, 4.959764 
4.0380058e+2, 2.1695445e+2, -816789.3, -903957.06, -11711.765, -0.00019122228, -0.0021875731, -815243.2, -1397.4113, 0.0, 5.0158243, 4.959459 
4.0378624e+2, 2.2191308e+2, -773215.0, -862965.2, -11681.452, -0.00029914887, 0.0006102352, -771719.5, -6468.4795, 0.0, 5.0149775, 4.9569983 
4.0377194e+2, 2.2687025e+2, -726722.6, -815621.2, -11691.991, -0.00039492373, -0.0020502524, -725210.6, -8539.861, 0.0, 5.014128, 4.9567175 
4.037578e+2, 2.3182613e+2, -683157.06, -774785.0, -11458.828, -0.00045455073, 0.0009809473, -681745.75, -13642.396, 0.0, 5.013284, 4.954171 
4.0374383e+2, 2.3678051e+2, -636507.75, -727233.94, -11432.836, -0.0005113749, -0.001961839, -635089.25, -15538.397, 0.0, 5.012449, 4.953934 
4.0373012e+2, 2.4173357e+2, -592926.6, -686547.56, -11006.983, -0.0005045019, 0.0015279476, -591649.94, -20639.031, 0.0, 5.011617, 4.9512944 
4.0371674e+2, 2.4668507e+2, -546101.4, -638737.5, -10939.701, -0.00045980906, -0.0018325262, -544827.0, -22340.854, 0.0, 5.010793, 4.95112 
4.0370372e+2, 2.5163522e+2, -502629.5, -598479.5, -10311.141, -0.00041865508, 0.0015402053, -501532.8, -27558.158, 0.0, 5.009972, 4.9482946 
4.036912e+2, 2.5658384e+2, -455463.3, -550040.3, -10191.24, -0.00026358344, -0.0019169926, -454377.6, -28899.357, 0.0, 5.009161, 4.948313 
4.036791e+2, 2.6153103e+2, -412211.8, -510499.0, -9390.952, -0.00006832981, 0.0013998235, -411322.6, -34326.906, 0.0, 5.0083566, 4.9451947 
4.036677e+2, 2.664767e+2, -364595.5, -461224.28, -9216.907, 0.00013603948, -0.0020823895, -363724.2, -35196.227, 0.0, 5.0075674, 4.945476 
4.036568e+2, 2.7142084e+2, -321641.38, -422624.28, -8222.933, 0.00028446838, 0.0011664632, -320976.16, -40900.82, 0.0, 5.006787, 4.9419746 
4.0364677e+2, 2.7636346e+2, -273577.7, -372522.13, -7969.496, 0.00035153778, -0.0023934704, -272939.88, -41302.406, 0.0, 5.006023, 4.9425163 
4.036373e+2, 2.8130463e+2, -230570.34, -334096.47, -6840.8774, 0.00048078023, 0.0016783949, -230120.27, -46906.117, 0.0, 5.005269, 4.9389043 
4.0362892e+2, 2.8624433e+2, -182081.44, -283216.16, -6516.7354, 0.0006583806, -0.0033294857, -181663.27, -46858.113, 0.0, 5.004534, 4.9396915 
4.0362117e+2, 2.9118183e+2, -141170.14, -249971.47, -5198.216, 0.00073074515, 0.0009144126, -140922.34, -54504.746, 0.0, 5.0038104, 4.9341874 
4.036146e+2, 2.9611698e+2, -92667.15, -199332.97, -4775.3203, 0.000543589, -0.0008824825, -92453.79, -54400.598, 0.0, 5.0031133, 4.934849 
4.036088e+2, 3.0105928e+2, -52519.375, -135126.13, -3409.069, 0.0004760683, 0.0019022318, -52378.926, -52378.926, 0.0, 5.0024266, 4.949333 
4.0360436e+2, 3.060094e+2, -52882.09, -132550.3, -2895.0396, 0.000668117, -0.0060105775, -52777.027, -52777.027, 0.0, 5.001766, 4.9505424 
4.0360075e+2, 3.1097737e+2, -14762.02, -40216.598, -1204.4651, 0.0005809461, 0.0030796565, -14705.153, -14705.153, 0.0, 5.0011215, 4.9846106 
4.0359896e+2, 3.1596342e+2, -14199.694, -35831.72, -521.48975, 0.00037592516, -0.001265605, -14187.13, -14187.13, 0.0, 5.0005245, 4.986484 
4.0902707e+2, 1.2249215e+2, -1669506.4, -1738728.9, -394.08868, 0.0009629416, -0.008487834, -1669504.1, 70067.984, 0.0, 5.030475, 4.9852557 
4.0902454e+2, 1.2747747e+2, -1628201.5, -1702648.4, -1706.3938, 0.012963303, 0.021872276, -1628162.4, 62555.883, 0.0, 5.0298963, 4.981326 
4.0901655e+2, 1.3245466e+2, -1581750.1, -1655775.5, -3483.3198, -0.018243596, -0.014733822, -1581586.5, 60355.582, 0.0, 5.029253, 4.9808908 
4.0901226e+2, 1.3743713e+2, -1535894.4, -1609826.8, -3690.802, -0.0016983761, -0.0016999961, -1535710.5, 57402.434, 0.0, 5.028542, 4.9802547 
4.0900597e+2, 1.4241722e+2, -1491912.9, -1567829.9, -5344.287, 0.0047128187, 0.006381166, -1491538.5, 52769.547, 0.0, 5.027841, 4.9782667 
4.0899757e+2, 1.4739496e+2, -1445805.0, -1521545.3, -5554.1143, -0.00018886616, -0.0018389017, -1445399.9, 50127.188, 0.0, 5.0271544, 4.977717 
4.0898848e+2, 1.5237164e+2, -1402057.3, -1480048.6, -7152.3696, -0.002102193, -0.0021180436, -1401406.8, 45349.656, 0.0, 5.0264335, 4.9755774 
4.089787e+2, 1.5734753e+2, -1356098.4, -1433783.5, -7313.69, -0.0005848482, -0.0019195466, -1355415.9, 42577.2, 0.0, 5.025671, 4.975039 
4.0896815e+2, 1.6232198e+2, -1312301.3, -1392047.6, -8558.6, 0.000091155416, 0.0020092987, -1311393.1, 37850.734, 0.0, 5.0249014, 4.972974 
4.0895668e+2, 1.67295e+2, -1266241.1, -1345542.0, -8696.638, -0.00033840313, -0.0009055291, -1265298.5, 35210.06, 0.0, 5.0241194, 4.972504 
4.0894458e+2, 1.722667e+2, -1222564.3, -1304044.4, -9757.388, -0.0004601705, 0.001147001, -1221412.1, 30373.896, 0.0, 5.023326, 4.9703403 
4.0893188e+2, 1.7723715e+2, -1176469.1, -1257398.8, -9877.826, -0.000107370615, -0.0012290549, -1175280.9, 27794.781, 0.0, 5.022516, 4.96991 
4.0891868e+2, 1.822063e+2, -1132800.9, -1215920.5, -10699.714, 0.000036064983, 0.0011108652, -1131445.6, 22932.46, 0.0, 5.021701, 4.967724 
4.0890494e+2, 1.8717408e+2, -1086654.6, -1169160.9, -10804.044, -0.0001484144, -0.0017230593, -1085263.3, 20430.293, 0.0, 5.0208755, 4.9673185 
4.088908e+2, 1.9214064e+2, -1043018.06, -1127774.1, -11441.052, -0.00020386718, 0.0008447738, -1041500.8, 15520.493, 0.0, 5.020044, 4.9650764 
4.088763e+2, 1.9710585e+2, -996801.0, -1080843.5, -11517.841, -0.00015123432, -0.0015605149, -995251.1, 13111.224, 0.0, 5.0192003, 4.9647164 
4.088616e+2, 2.020698e+2, -953181.25, -1039541.2, -11919.124, -0.00006897642, 0.0010828424, -951566.44, 8149.189, 0.0, 5.0183563, 4.9624257 
4.0884665e+2, 2.0703235e+2, -906876.44, -992472.6, -11974.017, 0.000020965668, -0.0017858493, -905232.94, 5849.7295, 0.0, 5.017509, 4.962093 
4.0883157e+2, 2.1199362e+2, -863261.5, -951272.75, -12165.083, -0.000014027893, 0.000701128, -861611.0, 850.93805, 0.0, 5.0166607, 4.959735 
4.0881637e+2, 2.1695347e+2, -816868.7, -904062.25, -12205.616, -0.00025935724, -0.0023447494, -815192.3, -1337.1467, 0.0, 5.015809, 4.9594316 
4.088012e+2, 2.219121e+2, -773276.6, -863011.7, -12177.543, -0.00039142623, 0.00043287294, -771653.44, -6392.7837, 0.0, 5.014958, 4.956993 
4.0878606e+2, 2.2686926e+2, -726789.44, -815665.3, -12190.592, -0.00040881024, -0.0021890802, -725147.6, -8467.236, 0.0, 5.014106, 4.956714 
4.087711e+2, 2.3182514e+2, -683202.9, -774766.8, -11949.379, -0.0004337703, 0.00086412113, -681669.1, -13556.229, 0.0, 5.013259, 4.9541907 
4.0875626e+2, 2.3677954e+2, -636560.8, -727212.75, -11924.649, -0.0005217733, -0.0020756584, -635018.44, -15458.323, 0.0, 5.012419, 4.9539566 
4.0874174e+2, 2.4173264e+2, -592964.7, -686471.3, -11492.02, -0.00052476727, 0.0014170996, -591573.0, -20553.133, 0.0, 5.0115833, 4.9513373 
4.087275e+2, 2.466842e+2, -546149.2, -638659.0, -11425.277, -0.00044693775, -0.0019597763, -544759.0, -22264.316, 0.0, 5.0107546, 4.951166 
4.0871364e+2, 2.516344e+2, -502661.66, -598344.56, -10789.633, -0.00038492947, 0.0014014934, -501460.06, -27477.41, 0.0, 5.0099297, 4.9483624 
4.0870035e+2, 2.5658306e+2, -455499.3, -549899.75, -10669.264, -0.00023734733, -0.0020496633, -454308.5, -28822.965, 0.0, 5.0091157, 4.948384 
4.0868744e+2, 2.6153034e+2, -412233.5, -510308.13, -9854.928, -0.000052101648, 0.0012753148, -411253.03, -34250.832, 0.0, 5.008308, 4.9452844 
4.0867525e+2, 2.664761e+2, -364625.0, -461029.94, -9679.189, 0.00017374374, -0.002186053, -363662.8, -35129.246, 0.0, 5.007515, 4.9455695 
4.0866357e+2, 2.7142036e+2, -321656.63, -422373.66, -8668.972, 0.00033014567, 0.0010699517, -320915.9, -40835.96, 0.0, 5.0067296, 4.9420896 
4.0865278e+2, 2.763631e+2, -273601.25, -372265.34, -8413.542, 0.0003394163, -0.0025139963, -272888.94, -41248.01, 0.0, 5.005961, 4.9426355 
4.086426e+2, 2.813044e+2, -230583.2, -333789.13, -7266.605, 0.00042962242, 0.0015346773, -230074.08, -46857.74, 0.0, 5.0052023, 4.9390435 
4.086334e+2, 2.8624424e+2, -182100.78, -282900.56, -6940.7295, 0.0006193094, -0.0034638303, -181625.11, -46819.17, 0.0, 5.0044627, 4.9398355 
4.0862495e+2, 2.911819e+2, -141178.72, -249605.08, -5597.861, 0.0006645846, 0.0007878894, -140890.48, -54473.582, 0.0, 5.0037346, 4.9343514 
4.0861773e+2, 2.961172e+2, -92683.42, -198956.72, -5169.735, 0.00039099704, -0.0010191316, -92432.53, -54381.707, 0.0, 5.0030327, 4.9350185 
4.086112e+2, 3.0105966e+2, -52527.76, -134704.22, -3782.9968, 0.0003119924, 0.0017664954, -52353.98, -52353.98, 0.0, 5.002341, 4.949523 
4.0860614e+2, 3.0601e+2, -52896.74, -132116.83, -3262.3772, 0.0006086302, -0.0061174287, -52762.617, -52762.617, 0.0, 5.001675, 4.9507384 
4.0860188e+2, 3.1097814e+2, -14773.119, -39747.88, -1540.2897, 0.0005365045, 0.0029422448, -14678.482, -14678.482, 0.0, 5.0010247, 4.984825 
4.0859947e+2, 3.1596443e+2, -14225.009, -35356.207, -841.1404, 0.00021056726, -0.0014583378, -14191.579, -14191.579, 0.0, 5.00042, 4.9867043 
4.14058e+2, 1.2249403e+2, -1666707.1, -1738027.0, -595.9259, -0.00019291295, -0.008667224, -1666702.1, 72854.66, 0.0, 5.031552, 4.9849606 
4.1405493e+2, 1.2747926e+2, -1625730.9, -1701704.0, -1780.2595, 0.013430076, 0.022016944, -1625689.3, 65012.965, 0.0, 5.0307775, 4.981208 
4.1404638e+2, 1.3245608e+2, -1579646.0, -1655205.1, -3483.4163, -0.016768908, -0.016753953, -1579485.8, 62443.336, 0.0, 5.030061, 4.980685 
4.1404134e+2, 1.3743842e+2, -1533610.5, -1609175.4, -3675.4863, -0.0010418843, -0.0029405095, -1533432.1, 59669.37, 0.0, 5.0294113, 4.9800477 
4.1403428e+2, 1.4241838e+2, -1489631.3, -1567068.3, -5350.5054, 0.0046931235, 0.0057010823, -1489263.3, 55034.563, 0.0, 5.0286846, 4.9781117 
4.1402504e+2, 1.4739601e+2, -1443891.0, -1520962.0, -5485.364, -0.0008673322, -0.0021232706, -1443502.6, 52015.098, 0.0, 5.027875, 4.9775643 
4.1401514e+2, 1.5237255e+2, -1400340.8, -1479480.0, -7037.528, -0.002831666, -0.002322152, -1399719.9, 47027.957, 0.0, 5.0270705, 4.975461 
4.1400468e+2, 1.573483e+2, -1354502.9, -1433273.3, -7155.6016, -0.0006709927, -0.0023824186, -1353858.1, 44127.26, 0.0, 5.026268, 4.974924 
4.1399333e+2, 1.6232263e+2, -1310844.9, -1391644.0, -8390.376, 0.0002677326, 0.0013700085, -1309982.9, 39254.395, 0.0, 5.0254593, 4.972843 
4.1398105e+2, 1.6729549e+2, -1264898.1, -1345196.3, -8531.366, -0.00032538397, -0.0016245422, -1264001.8, 36501.74, 0.0, 5.0246396, 4.972373 
4.1396815e+2, 1.722671e+2, -1221322.0, -1303715.1, -9619.71, -0.0005768585, 0.0005007029, -1220213.8, 31568.266, 0.0, 5.023805, 4.9702244 
4.139546e+2, 1.7723744e+2, -1175360.9, -1257138.3, -9749.498, -0.00030364146, -0.0016240067, -1174214.6, 28858.154, 0.0, 5.0229506, 4.9697933 
4.1394055e+2, 1.822065e+2, -1131801.3, -1215654.9, -10589.906, -0.00016476969, 0.0008892669, -1130484.5, 23891.51, 0.0, 5.022087, 4.9676323 
4.1392595e+2, 1.8717422e+2, -1085817.9, -1168974.3, -10688.278, -0.00025491425, -0.0018567513, -1084466.0, 21226.309, 0.0, 5.0212064, 4.9672275 
4.1391098e+2, 1.9214068e+2, -1042295.0, -1127597.5, -11327.029, -0.00024337151, 0.0007238095, -1040816.5, 16204.244, 0.0, 5.0203266, 4.965005 
4.1389564e+2, 1.9710582e+2, -996194.4, -1080722.3, -11402.718, -0.0001627609, -0.0017619192, -994683.2, 13679.354, 0.0, 5.019443, 4.9646454 
4.1388005e+2, 2.020697e+2, -952679.06, -1039432.3, -11813.016, -0.00009465795, 0.00085485436, -951099.25, 8617.185, 0.0, 5.018555, 4.9623713 
4.138642e+2, 2.0703217e+2, -906516.3, -992430.56, -11874.019, -0.00008054063, -0.001974625, -904905.44, 6178.6094, 0.0, 5.017658, 4.962039 
4.1384828e+2, 2.1199343e+2, -863016.0, -951232.75, -12072.733, -0.00012594249, 0.0005623296, -861393.6, 1070.083, 0.0, 5.01676, 4.959704 
4.138322e+2, 2.1695325e+2, -816771.1, -904087.44, -12114.404, -0.0002871401, -0.0024204792, -815121.5, -1264.2491, 0.0, 5.015856, 4.959402 
4.1381612e+2, 2.2191185e+2, -773293.1, -863039.0, -12082.725, -0.00037673215, 0.0003850925, -771694.9, -6431.9956, 0.0, 5.014954, 4.956986 
4.1380012e+2, 2.2686902e+2, -726936.9, -815748.5, -12096.088, -0.00040067593, -0.0022593527, -725318.9, -8636.188, 0.0, 5.0140553, 4.9567094 
4.1378424e+2, 2.318249e+2, -683457.8, -774847.4, -11846.016, -0.00044035687, 0.0007728463, -681947.25, -13832.1045, 0.0, 5.0131598, 4.954209 
4.137686e+2, 2.3677932e+2, -636954.25, -727350.75, -11821.125, -0.00054789026, -0.0021854138, -635433.94, -15871.775, 0.0, 5.01227, 4.953977 
4.1375318e+2, 2.4173243e+2, -593474.06, -686609.94, -11380.22, -0.0005383228, 0.0012910027, -592103.7, -21082.004, 0.0, 5.011382, 4.9513807 
4.1373813e+2, 2.4668403e+2, -546803.3, -638856.0, -11311.434, -0.0003848134, -0.0021060181, -545433.75, -22937.758, 0.0, 5.0105004, 4.9512124 
4.137234e+2, 2.516343e+2, -503432.1, -598543.94, -10661.19, -0.00029141025, 0.0012510553, -502251.72, -28268.275, 0.0, 5.0096235, 4.9484305 
4.1370922e+2, 2.5658306e+2, -456396.53, -550147.9, -10536.605, -0.00021021265, -0.0021797852, -455226.9, -29741.324, 0.0, 5.008762, 4.9484553 
4.136955e+2, 2.615304e+2, -413240.56, -510557.84, -9705.9375, -0.00007123985, 0.0011579399, -412282.0, -35280.516, 0.0, 5.0079055, 4.945376 
4.136825e+2, 2.6647624e+2, -365768.5, -461331.88, -9525.455, 0.00018440315, -0.0022932799, -364828.28, -36296.344, 0.0, 5.007061, 4.945664 
4.1367e+2, 2.7142063e+2, -322915.6, -422676.2, -8494.778, 0.00035556665, 0.0009710359, -322197.44, -42120.133, 0.0, 5.006224, 4.942206 
4.136584e+2, 2.763635e+2, -274998.4, -372617.5, -8234.762, 0.0003097632, -0.0026000252, -274308.63, -42671.547, 0.0, 5.0054026, 4.942756 
4.1364744e+2, 2.813049e+2, -232099.13, -334146.78, -7063.454, 0.0003740261, 0.0014482334, -231612.55, -48401.3, 0.0, 5.0045915, 4.9391837 
4.1363752e+2, 2.8624487e+2, -183745.77, -283301.53, -6733.324, 0.00061513676, -0.003562552, -183292.42, -48493.0, 0.0, 5.0038013, 4.939981 
4.136283e+2, 2.9118267e+2, -142936.02, -250001.94, -5361.3574, 0.0006458691, 0.0006767934, -142668.2, -56259.316, 0.0, 5.003022, 4.934519 
4.1362032e+2, 2.9611817e+2, -94568.75, -199391.56, -4924.108, 0.00022358369, -0.0011484685, -94337.945, -56296.82, 0.0, 5.002269, 4.9351926 
4.1361308e+2, 3.0106083e+2, -54521.145, -135141.9, -3517.2048, 0.0000960125, 0.0016291804, -54367.992, -54367.992, 0.0, 5.0015264, 4.949715 
4.1360733e+2, 3.0601135e+2, -55018.246, -132598.08, -2988.2446, 0.00054946606, -0.0062280064, -54903.313, -54903.313, 0.0, 5.000812, 4.950936 
4.1360238e+2, 3.109797e+2, -16990.037, -40220.863, -1247.3988, 0.0005606899, 0.0028166245, -16923.25, -16923.25, 0.0, 5.000111, 4.985042 
4.1359934e+2, 3.159662e+2, -16566.906, -35867.145, -530.0812, 0.00015775315, -0.0016236443, -16552.357, -16552.357, 0.0, 4.9994574, 4.9869285 
4.1908923e+2, 1.2249632e+2, -1666737.1, -1738557.8, -826.469, -0.003624076, -0.0077627036, -1666727.6, 72810.84, 0.0, 5.0316544, 4.9847355 
4.1908586e+2, 1.2748113e+2, -1625557.1, -1701840.9, -2024.0912, 0.01452675, 0.019811971, -1625503.5, 65182.156, 0.0, 5.0308843, 4.9811106 
4.190767e+2, 1.3245761e+2, -1579666.8, -1655688.5, -3672.198, -0.013946513, -0.021146959, -1579489.9, 62425.508, 0.0, 5.0301538, 4.980481 
4.1907087e+2, 1.374399e+2, -1533750.9, -1609719.0, -3876.0317, 0.000006155635, -0.005462568, -1533553.6, 59534.805, 0.0, 5.0294647, 4.9798427 
4.190629e+2, 1.4241984e+2, -1489727.9, -1567411.9, -5684.136, 0.004537286, 0.0044283434, -1489314.1, 54970.977, 0.0, 5.0287147, 4.9779844 
4.190528e+2, 1.473974e+2, -1443997.4, -1521303.1, -5843.4043, -0.0016336964, -0.0028369725, -1443558.3, 51946.844, 0.0, 5.0278993, 4.97744 
4.190421e+2, 1.5237385e+2, -1400407.9, -1479755.8, -7414.0015, -0.0035609924, -0.0029136045, -1399721.0, 47014.51, 0.0, 5.027098, 4.975357 
4.1903093e+2, 1.5734947e+2, -1354530.4, -1433525.9, -7562.4478, -0.00062398595, -0.003330493, -1353812.9, 44160.92, 0.0, 5.0263076, 4.974822 
4.190188e+2, 1.6232364e+2, -1310920.6, -1391991.3, -8831.552, 0.0005983445, 0.00020657913, -1309969.8, 39257.004, 0.0, 5.0254974, 4.97271 
4.1900566e+2, 1.6729636e+2, -1265024.0, -1345568.1, -8978.218, -0.00026004433, -0.0028480897, -1264035.3, 36459.094, 0.0, 5.024661, 4.9722395 
4.1899192e+2, 1.7226785e+2, -1221458.0, -1304062.5, -10090.831, -0.00071457436, -0.000541351, -1220243.1, 31530.996, 0.0, 5.0238166, 4.9701037 
4.189775e+2, 1.7723812e+2, -1175501.9, -1257489.4, -10217.306, -0.00055752526, -0.002206592, -1174247.9, 28817.965, 0.0, 5.02296, 4.969672 
4.189626e+2, 1.8220711e+2, -1131900.4, -1215915.6, -11077.48, -0.00042486048, 0.0006260424, -1130464.4, 23905.533, 0.0, 5.0220957, 4.967542 
4.189471e+2, 1.8717474e+2, -1085912.8, -1169229.8, -11179.981, -0.0003650445, -0.001966987, -1084438.6, 21248.256, 0.0, 5.021216, 4.9671383 
4.189313e+2, 1.9214115e+2, -1042370.2, -1127803.8, -11826.299, -0.00025827315, 0.000620851, -1040763.4, 16252.684, 0.0, 5.0203342, 4.9649334 
4.1891503e+2, 1.9710618e+2, -996282.56, -1080934.3, -11905.291, -0.00015645263, -0.0020136693, -994640.1, 13718.494, 0.0, 5.019446, 4.964574 
4.1889858e+2, 2.0207001e+2, -952760.8, -1039607.9, -12327.383, -0.00012710552, 0.0005645369, -951044.94, 8668.267, 0.0, 5.0185533, 4.962314 
4.1888183e+2, 2.0703244e+2, -906612.2, -992612.5, -12388.309, -0.0002330016, -0.002191664, -904863.2, 6218.139, 0.0, 5.0176516, 4.961982 
4.18865e+2, 2.1199365e+2, -863088.56, -951345.6, -12593.156, -0.0002906394, 0.0004222253, -861326.9, 1134.5942, 0.0, 5.016749, 4.9596725 
4.1884798e+2, 2.1695346e+2, -816847.3, -904197.1, -12637.11, -0.0003094048, -0.0024591144, -815055.8, -1200.6122, 0.0, 5.0158424, 4.9593725 
4.1883105e+2, 2.2191203e+2, -773347.94, -863086.9, -12603.155, -0.0003339198, 0.00039371525, -771611.56, -6350.549, 0.0, 5.014938, 4.956979 
4.1881415e+2, 2.268692e+2, -727000.25, -815795.06, -12619.014, -0.0003955452, -0.0022985344, -725241.75, -8560.847, 0.0, 5.0140347, 4.9567046 
4.187974e+2, 2.3182508e+2, -683503.3, -774833.25, -12364.197, -0.00046766648, 0.00069736, -681859.06, -13745.728, 0.0, 5.013135, 4.954227 
4.1878083e+2, 2.3677951e+2, -637009.2, -727335.2, -12340.819, -0.00058729376, -0.0022868651, -635353.44, -15793.313, 0.0, 5.0122404, 4.9539976 
4.1876453e+2, 2.4173267e+2, -593509.8, -686531.5, -11895.679, -0.0005579845, 0.0011643477, -592012.7, -20993.367, 0.0, 5.0113487, 4.951425 
4.187486e+2, 2.4668431e+2, -546843.44, -638772.56, -11828.225, -0.00031952088, -0.0022537175, -545345.94, -22852.723, 0.0, 5.010464, 4.9512596 
4.1873303e+2, 2.5163463e+2, -503454.75, -598402.5, -11166.711, -0.00019298562, 0.0011043105, -502159.13, -28179.064, 0.0, 5.009584, 4.948499 
4.1871798e+2, 2.5658345e+2, -456428.5, -550003.4, -11041.037, -0.00019938777, -0.002301324, -455143.4, -29661.914, 0.0, 5.0087175, 4.9485273 
4.187034e+2, 2.615309e+2, -413259.63, -510359.28, -10200.268, -0.00011938537, 0.0010502585, -412199.7, -35203.125, 0.0, 5.0078564, 4.945469 
4.1868955e+2, 2.6647687e+2, -365796.1, -461130.06, -10019.256, 0.00016951992, -0.0023945349, -364754.5, -36228.445, 0.0, 5.0070076, 4.9457603 
4.1867623e+2, 2.7142128e+2, -322929.28, -422418.75, -8974.082, 0.00035722225, 0.00087773683, -322126.28, -42055.902, 0.0, 5.006166, 4.942323 
4.186638e+2, 2.7636433e+2, -275019.22, -372353.88, -8713.438, 0.00025554342, -0.0026647989, -274245.34, -42616.39, 0.0, 5.0053406, 4.9428782 
4.18652e+2, 2.8130585e+2, -232109.13, -333833.53, -7522.28, 0.00029687572, 0.0013944799, -231555.88, -48354.047, 0.0, 5.0045247, 4.939325 
4.186413e+2, 2.8624597e+2, -183763.6, -282981.28, -7190.22, 0.000605345, -0.0036373902, -183245.23, -48456.625, 0.0, 5.00373, 4.940127 
4.186313e+2, 2.9118392e+2, -142940.34, -249621.61, -5795.604, 0.00062688586, 0.00058189733, -142626.4, -56229.84, 0.0, 5.0029454, 4.9346886 
4.1862255e+2, 2.961196e+2, -94582.25, -199000.17, -5354.372, 0.000030319272, -0.0012622639, -94308.41, -56281.332, 0.0, 5.0021863, 4.935369 
4.1861457e+2, 3.0106243e+2, -54531.184, -134713.02, -3925.6191, -0.0001651999, 0.0015038284, -54339.45, -54339.45, 0.0, 5.001438, 4.9499087 
4.1860813e+2, 3.0601317e+2, -55033.715, -132160.81, -3389.0056, 0.00046229683, -0.006331979, -54885.086, -54885.086, 0.0, 5.0007195, 4.951134 
4.186025e+2, 3.1098172e+2, -16997.68, -39742.32, -1618.6179, 0.0005821382, 0.0027072877, -16883.068, -16883.068, 0.0, 5.0000134, 4.985261 
4.1859877e+2, 3.1596842e+2, -16587.28, -35376.875, -886.0349, 0.00009292587, -0.0017601659, -16545.592, -16545.592, 0.0, 4.999352, 4.987155 
4.2412135e+2, 1.2250029e+2, -1664075.4, -1738112.0, -127.26797, -0.0049841264, -0.0051356237, -1664075.1, 75424.16, 0.0, 5.0327315, 4.9843545 
4.2411736e+2, 1.2748486e+2, -1622791.9, -1701035.8, -1397.3064, 0.015449901, 0.022509571, -1622766.9, 67882.53, 0.0, 5.03193, 4.9808655 
4.2410755e+2, 1.3246103e+2, -1577155.1, -1655034.8, -3102.639, -0.012461709, -0.019063236, -1577031.8, 64850.89, 0.0, 5.031121, 4.9802265 
4.2410073e+2, 1.3744321e+2, -1531615.5, -1609255.6, -3352.8132, -0.00036669185, -0.0019154171, -1531471.0, 61586.19, 0.0, 5.0303073, 4.9795876 
4.24092e+2, 1.4242293e+2, -1487755.9, -1566873.9, -5258.6143, 0.0039755153, 0.008022823, -1487407.9, 56848.1, 0.0, 5.029469, 4.9777985 
4.2408115e+2, 1.4740016e+2, -1442176.5, -1520838.5, -5465.3945, -0.00069449644, -0.0006355594, -1441798.6, 53679.945, 0.0, 5.028604, 4.9772553 
4.240697e+2, 1.5237631e+2, -1398697.5, -1479368.1, -7054.9395, -0.0022919602, -0.00170004, -1398085.1, 48626.57, 0.0, 5.0277705, 4.9751635 
4.240576e+2, 1.5735169e+2, -1352857.1, -1433155.6, -7272.493, -0.0002853058, -0.0026557439, -1352203.8, 45748.76, 0.0, 5.0269685, 4.9746294 
4.2404458e+2, 1.6232567e+2, -1309311.0, -1391552.5, -8648.646, 0.0004060355, 0.00069478195, -1308411.3, 40796.06, 0.0, 5.026116, 4.9725623 
4.2403057e+2, 1.6729827e+2, -1263642.4, -1345236.5, -8809.2295, -0.00052921707, -0.002149468, -1262702.1, 37774.035, 0.0, 5.025202, 4.9720945 
4.2401594e+2, 1.7226963e+2, -1220208.9, -1303714.8, -9920.255, -0.00090058934, 0.00014356921, -1219046.6, 32710.521, 0.0, 5.0242953, 4.9699945 
4.2400068e+2, 1.7723976e+2, -1174380.8, -1257203.4, -10037.068, -0.0004820819, -0.0017911646, -1173181.8, 29868.09, 0.0, 5.0233955, 4.9695635 
4.239849e+2, 1.8220861e+2, -1130887.9, -1215661.8, -10910.251, -0.0002713045, 0.0007849669, -1129506.3, 24848.828, 0.0, 5.02249, 4.967443 
4.239685e+2, 1.8717614e+2, -1085011.3, -1169029.6, -11020.333, -0.0003449145, -0.002041735, -1083589.9, 22083.398, 0.0, 5.021572, 4.9670396 
4.2395175e+2, 1.9214243e+2, -1041569.44, -1127609.8, -11686.2705, -0.00033094187, 0.00042599218, -1040010.44, 16992.934, 0.0, 5.0206475, 4.964854 
4.239346e+2, 1.971074e+2, -995632.56, -1080812.1, -11771.21, -0.00025826646, -0.0021654826, -994035.8, 14310.885, 0.0, 5.0197077, 4.9644947 
4.239172e+2, 2.0207115e+2, -952225.3, -1039481.8, -12204.927, -0.00023653395, 0.00047074596, -950550.3, 9151.572, 0.0, 5.018763, 4.9622607 
4.238995e+2, 2.0703354e+2, -906230.0, -992557.2, -12262.205, -0.00032229317, -0.0022205052, -904522.0, 6548.527, 0.0, 5.017808, 4.9619293 
4.2388174e+2, 2.1199471e+2, -862826.0, -951299.7, -12464.204, -0.00035684172, 0.000430139, -861103.56, 1347.4634, 0.0, 5.0168543, 4.9596405 
4.2386383e+2, 2.1695448e+2, -816716.9, -904209.56, -12507.674, -0.00034152658, -0.002455469, -814963.94, -1118.8472, 0.0, 5.015901, 4.9593425 
4.2384598e+2, 2.2191305e+2, -773329.1, -863102.9, -12471.7, -0.00034461208, 0.0003849848, -771628.75, -6377.628, 0.0, 5.0149474, 4.95697 
4.2382813e+2, 2.268702e+2, -727126.75, -815874.0, -12488.387, -0.00039316877, -0.002336478, -725402.94, -8731.827, 0.0, 5.0139923, 4.956698 
4.2381045e+2, 2.318261e+2, -683747.44, -774909.75, -12226.232, -0.0004359168, 0.00063524884, -682136.2, -14032.698, 0.0, 5.0130396, 4.9542446 
4.2379296e+2, 2.3678054e+2, -637401.44, -727473.44, -12201.191, -0.00049594144, -0.0023736309, -635777.9, -16227.782, 0.0, 5.012091, 4.954018 
4.2377576e+2, 2.4173371e+2, -594018.4, -686668.5, -11744.455, -0.00045730174, 0.0010611808, -592552.8, -21543.852, 0.0, 5.0111475, 4.951469 
4.2375892e+2, 2.4668542e+2, -547486.06, -638963.56, -11674.571, -0.0002778661, -0.002359356, -546019.6, -23537.2, 0.0, 5.0102134, 4.9513063 
4.2374244e+2, 2.516358e+2, -504212.9, -598594.6, -11000.471, -0.00017452995, 0.0010025792, -502947.72, -28979.004, 0.0, 5.0092816, 4.9485683 
4.237265e+2, 2.5658467e+2, -457335.13, -550254.5, -10871.121, -0.0001681991, -0.002394694, -456080.2, -30610.758, 0.0, 5.0083604, 4.9485993 
4.2371103e+2, 2.615322e+2, -414291.16, -510615.22, -10014.868, -0.00007291658, 0.0009562889, -413260.9, -36277.207, 0.0, 5.007444, 4.945563 
4.2369628e+2, 2.6647824e+2, -366971.56, -461441.06, -9829.526, 0.00026050088, -0.0024953166, -365959.66, -37447.38, 0.0, 5.0065413, 4.9458575 
4.236821e+2, 2.7142283e+2, -324226.25, -422734.38, -8764.067, 0.0004606299, 0.00077236345, -323452.6, -43397.027, 0.0, 5.005646, 4.9424415 
4.2366883e+2, 2.7636594e+2, -276455.34, -372720.16, -8500.169, 0.0002711056, -0.002751408, -275710.53, -44097.59, 0.0, 5.0047674, 4.9430003 
4.2365617e+2, 2.813076e+2, -233666.83, -334204.84, -7284.6636, 0.00026246833, 0.0013217758, -233141.73, -49957.195, 0.0, 5.003898, 4.9394674 
4.2364466e+2, 2.8624785e+2, -185459.81, -283400.03, -6948.161, 0.000629855, -0.0037049174, -184969.34, -50199.45, 0.0, 5.003049, 4.9402742 
4.236338e+2, 2.9118598e+2, -144759.31, -250038.6, -5526.9795, 0.00066601794, 0.00052191614, -144469.95, -58093.633, 0.0, 5.002209, 4.934859 
4.236243e+2, 2.9612184e+2, -96545.336, -199462.42, -5080.0923, -0.000014099972, -0.0013015381, -96295.19, -58290.094, 0.0, 5.001393, 4.935546 
4.2361555e+2, 3.0106485e+2, -56609.727, -135174.61, -3627.8577, -0.00023183608, 0.0014619599, -56442.563, -56442.563, 0.0, 5.0005903, 4.950106 
4.2360836e+2, 3.060158e+2, -57237.39, -132663.06, -3077.721, 0.0005108781, -0.00642459, -57112.016, -57112.016, 0.0, 4.9998236, 4.951338 
4.23602e+2, 3.1098455e+2, -19299.652, -40244.69, -1291.9845, 0.0007041952, 0.0025841743, -19220.258, -19220.258, 0.0, 4.999068, 4.9854813 
4.235976e+2, 3.159715e+2, -19025.39, -35923.34, -545.4411, 0.00011643878, -0.0018385962, -19007.803, -19007.803, 0.0, 4.998353, 4.987382 
4.2915404e+2, 1.22504994e+2, -1664475.9, -1739296.6, -646.7982, -0.0052290517, -0.0018895224, -1664470.3, 74981.06, 0.0, 5.03281, 4.9839263 
4.291494e+2, 1.2748934e+2, -1622959.1, -1701783.9, -1835.8516, 0.016231237, 0.026336774, -1622916.4, 67688.9, 0.0, 5.0320168, 4.980577 
4.2913875e+2, 1.3246521e+2, -1577302.6, -1655735.4, -3516.927, -0.0113723995, -0.015334353, -1577145.3, 64696.938, 0.0, 5.031205, 4.9799547 
4.2913094e+2, 1.3744725e+2, -1531795.3, -1609971.0, -3745.6375, -0.0010599869, 0.002989731, -1531616.3, 61402.21, 0.0, 5.0303802, 4.979316 
4.2912138e+2, 1.4242668e+2, -1487843.1, -1567405.4, -5678.5703, 0.0033369716, 0.012633106, -1487439.9, 56779.902, 0.0, 5.029543, 4.977587 
4.291099e+2, 1.4740352e+2, -1442222.6, -1521345.9, -5898.297, 0.0007173574, 0.0021254085, -1441785.3, 53660.55, 0.0, 5.0286903, 4.977046 
4.2909762e+2, 1.5237935e+2, -1398794.1, -1479932.6, -7446.74, -0.0004898545, -0.00012053068, -1398116.3, 48565.906, 0.0, 5.0278463, 4.9749403 
4.2908463e+2, 1.5735444e+2, -1353054.8, -1433767.4, -7651.6304, 0.00010161966, -0.0015430265, -1352335.8, 45590.34, 0.0, 5.027009, 4.974407 
4.2907065e+2, 1.6232823e+2, -1309456.5, -1391983.4, -9098.734, 0.000039552768, 0.0016819797, -1308465.3, 40717.824, 0.0, 5.0261407, 4.972408 
4.2905572e+2, 1.673007e+2, -1263765.5, -1345647.5, -9260.066, -0.00086473086, -0.0008976231, -1262731.4, 37721.723, 0.0, 5.025232, 4.971944 
4.290402e+2, 1.7227192e+2, -1220265.8, -1304002.1, -10367.647, -0.0010575469, 0.0013168321, -1219001.1, 32734.004, 0.0, 5.0243287, 4.969884 
4.2902407e+2, 1.772419e+2, -1174432.9, -1257483.3, -10501.202, -0.00029943843, -0.0011035652, -1173125.6, 29903.55, 0.0, 5.0234294, 4.969455 
4.2900738e+2, 1.8221062e+2, -1130947.8, -1215937.6, -11401.894, -0.0000007352513, 0.00105463, -1129444.8, 24890.838, 0.0, 5.022519, 4.967338 
4.2899007e+2, 1.8717799e+2, -1085100.5, -1169317.5, -11518.109, -0.00029144535, -0.0021004959, -1083553.5, 22101.5, 0.0, 5.0215907, 4.966935 
4.289724e+2, 1.9214419e+2, -1041653.6, -1127848.0, -12204.725, -0.00043098055, 0.00022651628, -1039958.8, 17027.402, 0.0, 5.0206575, 4.9647703 
4.2895424e+2, 1.9710907e+2, -995731.75, -1081055.5, -12289.927, -0.00039893543, -0.0022572887, -993996.8, 14333.506, 0.0, 5.019712, 4.9644117 
4.2893592e+2, 2.0207277e+2, -952296.2, -1039643.8, -12736.762, -0.00037245415, 0.0004617064, -950476.8, 9209.274, 0.0, 5.018763, 4.962208 
4.289173e+2, 2.0703511e+2, -906306.25, -992718.5, -12798.904, -0.00039063778, -0.0021747672, -904450.44, 6604.7344, 0.0, 5.017805, 4.9618773 
4.2889857e+2, 2.1199624e+2, -862885.5, -951408.6, -13004.2, -0.00039264234, 0.00049931934, -861014.75, 1421.3274, 0.0, 5.016848, 4.959608 
4.288797e+2, 2.1695597e+2, -816786.44, -904319.25, -13051.922, -0.0003837177, -0.0024274413, -814881.75, -1051.3018, 0.0, 5.0158906, 4.959312 
4.288609e+2, 2.2191451e+2, -773382.6, -863156.0, -13020.325, -0.0003818265, 0.00037923618, -771532.3, -6295.645, 0.0, 5.014932, 4.9569607 
4.288421e+2, 2.2687165e+2, -727189.6, -815927.06, -13039.936, -0.00039966288, -0.0023612317, -725313.06, -8656.312, 0.0, 5.0139728, 4.9566903 
4.2882344e+2, 2.3182756e+2, -683788.06, -774893.5, -12774.636, -0.00039093083, 0.0005925008, -682030.75, -13941.631, 0.0, 5.013016, 4.954263 
4.2880505e+2, 2.3678201e+2, -637449.25, -727454.3, -12751.692, -0.00036873049, -0.0024417918, -635677.5, -16141.944, 0.0, 5.012064, 4.954039 
4.287869e+2, 2.4173523e+2, -594047.25, -686586.06, -12287.551, -0.00032824883, 0.0009799259, -592443.44, -21449.39, 0.0, 5.011116, 4.951514 
4.287691e+2, 2.4668697e+2, -547524.4, -638879.56, -12218.936, -0.00026016377, -0.0024348642, -545918.3, -23451.322, 0.0, 5.0101776, 4.9513535 
4.2875168e+2, 2.516374e+2, -504235.5, -598452.2, -11538.827, -0.00019981043, 0.0009308801, -502842.94, -28890.19, 0.0, 5.009241, 4.948638 
4.2873484e+2, 2.5658637e+2, -457366.0, -550109.0, -11409.521, -0.00014295071, -0.002466713, -455983.0, -30530.262, 0.0, 5.008316, 4.948672 
4.2871845e+2, 2.6153398e+2, -414305.75, -510411.22, -10542.555, -0.0000040717205, 0.00087750616, -413162.84, -36196.64, 0.0, 5.0073953, 4.9456577 
4.2870283e+2, 2.6648015e+2, -366991.7, -461231.6, -10356.803, 0.00037536517, -0.0025851263, -365866.9, -37373.098, 0.0, 5.0064893, 4.9459558 
4.2868775e+2, 2.714248e+2, -324232.78, -422471.34, -9276.265, 0.0005843633, 0.0006733902, -323364.53, -43328.453, 0.0, 5.00559, 4.9425607 
4.2867357e+2, 2.7636805e+2, -276472.38, -372453.25, -9011.903, 0.00029587583, -0.00283683, -275633.53, -44041.313, 0.0, 5.004706, 4.9431233 
4.2866004e+2, 2.8130984e+2, -233672.69, -333885.53, -7776.909, 0.00022551745, 0.0012515669, -233072.77, -49910.207, 0.0, 5.003832, 4.939611 
4.286477e+2, 2.8625023e+2, -185469.89, -283072.1, -7439.2617, 0.00064572896, -0.0037576102, -184906.13, -50159.684, 0.0, 5.0029793, 4.9404225 
4.2863604e+2, 2.9118854e+2, -144753.03, -249649.56, -5998.5566, 0.00070558966, 0.0004883484, -144411.13, -58059.81, 0.0, 5.0021358, 4.9350305 
4.2862567e+2, 2.9612458e+2, -96547.914, -199063.61, -5548.056, -0.000019232422, -0.0012987439, -96248.54, -58270.207, 0.0, 5.0013137, 4.935724 
4.286161e+2, 3.0106777e+2, -56602.11, -134723.78, -4067.3987, -0.00024555734, 0.0014655628, -56390.914, -56390.914, 0.0, 5.0005054, 4.9503064 
4.2860818e+2, 3.060189e+2, -57233.22, -132199.17, -3508.9055, 0.0005825623, -0.00650008, -57069.336, -57069.336, 0.0, 4.9997344, 4.9515443 
4.286011e+2, 3.109879e+2, -19294.488, -39755.566, -1699.9004, 0.00083025167, 0.0024740559, -19154.223, -19154.223, 0.0, 4.998974, 4.9857025 
4.2859596e+2, 3.1597504e+2, -19034.98, -35427.37, -940.39056, 0.00011282219, -0.0018744593, -18981.209, -18981.209, 0.0, 4.998251, 4.9876094 
4.3418732e+2, 1.225096e+2, -1661829.4, -1738729.8, -503.5621, -0.0063624815, -0.007217708, -1661826.1, 77579.18, 0.0, 5.0338554, 4.983602 
4.3418196e+2, 1.2749399e+2, -1620152.0, -1700775.9, -1557.4769, 0.01628312, 0.023170594, -1620121.9, 70437.02, 0.0, 5.033038, 4.980411 
4.341706e+2, 1.3246967e+2, -1574703.0, -1654948.4, -3212.9778, -0.010302407, -0.018436106, -1574574.5, 67222.875, 0.0, 5.0321827, 4.979739 
4.341619e+2, 1.3745145e+2, -1529396.3, -1609290.3, -3414.2778, -0.0004023235, -0.00047515152, -1529250.6, 63725.066, 0.0, 5.031293, 4.979099 
4.341514e+2, 1.4243066e+2, -1485597.5, -1566848.6, -5331.7324, 0.0037804986, 0.00922574, -1485249.1, 58930.043, 0.0, 5.0304155, 4.97735 
4.3413907e+2, 1.4740732e+2, -1440020.6, -1520813.5, -5573.955, 0.001072262, -0.0007723116, -1439637.9, 55769.863, 0.0, 5.0295496, 4.976809 
4.3412593e+2, 1.5238303e+2, -1396707.8, -1479355.0, -7159.3413, -0.00039736155, -0.0020986146, -1396092.1, 50553.6, 0.0, 5.0286446, 4.9747496 
4.3411195e+2, 1.5735808e+2, -1351307.8, -1433352.5, -7342.6514, -0.00025643004, -0.0021238632, -1350655.9, 47234.54, 0.0, 5.027693, 4.974219 
4.3409708e+2, 1.6233175e+2, -1307867.6, -1391545.1, -8783.945, -0.00022988461, 0.0016734694, -1306955.5, 42192.914, 0.0, 5.02675, 4.9722643 
4.340813e+2, 1.6730402e+2, -1262260.3, -1345246.4, -8939.339, -0.00043289972, -0.0012614527, -1261308.3, 39111.61, 0.0, 5.0258126, 4.9718027 
4.3406484e+2, 1.7227508e+2, -1218881.3, -1303697.6, -10056.682, -0.00045040596, 0.000750615, -1217705.3, 33998.363, 0.0, 5.024876, 4.969727 
4.3404776e+2, 1.772449e+2, -1173166.1, -1257238.1, -10227.561, -0.00014903506, -0.0016868956, -1171939.9, 31059.535, 0.0, 5.0239377, 4.969298 
4.3403012e+2, 1.8221349e+2, -1129781.8, -1215664.4, -11187.395, -0.0000998239, 0.0006248562, -1128348.3, 25958.963, 0.0, 5.0229774, 4.9672155 
4.3401182e+2, 1.8718077e+2, -1084122.5, -1169130.9, -11316.388, -0.00038098733, -0.0021617566, -1082641.9, 22985.887, 0.0, 5.021984, 4.9668145 
4.3399316e+2, 1.9214688e+2, -1040800.1, -1127632.8, -12017.14, -0.0004961626, 0.00037444988, -1039167.7, 17792.1, 0.0, 5.0209894, 4.964689 
4.339741e+2, 1.9711171e+2, -995035.8, -1080910.5, -12098.812, -0.00039968302, -0.002104558, -993363.8, 14940.767, 0.0, 5.0199885, 4.964333 
4.3395478e+2, 2.0207533e+2, -951725.75, -1039514.6, -12550.266, -0.00034048647, 0.00058247667, -949966.8, 9694.253, 0.0, 5.0189877, 4.962148 
4.3393514e+2, 2.070376e+2, -905876.0, -992655.4, -12617.132, -0.00036396633, -0.0021311732, -904078.8, 6951.979, 0.0, 5.017981, 4.9618187 
4.3391547e+2, 2.1199867e+2, -862574.44, -951358.6, -12828.966, -0.0003683716, 0.00051297963, -860757.9, 1654.324, 0.0, 5.016974, 4.9595685 
4.338956e+2, 2.1695837e+2, -816627.4, -904337.06, -12881.917, -0.00034153298, -0.002385914, -814774.56, -967.5307, 0.0, 5.0159626, 4.9592733 
4.338758e+2, 2.2191688e+2, -773341.25, -863166.2, -12852.756, -0.00031774427, 0.00044605788, -771538.4, -6324.835, 0.0, 5.0149503, 4.95695 
4.33856e+2, 2.2687402e+2, -727297.75, -816000.44, -12871.79, -0.00030138783, -0.002275656, -725467.6, -8833.972, 0.0, 5.013937, 4.956682 
4.338364e+2, 2.3182993e+2, -684014.44, -774961.75, -12597.97, -0.00028871268, 0.0006724593, -682301.6, -14235.679, 0.0, 5.0129266, 4.954281 
4.33817e+2, 2.367844e+2, -637821.9, -727583.94, -12573.225, -0.00030715845, -0.0024040216, -636094.0, -16581.781, 0.0, 5.011922, 4.9540596 
4.337979e+2, 2.4173763e+2, -594542.5, -686717.5, -12098.212, -0.00028672168, 0.0009923918, -592981.0, -22010.57, 0.0, 5.010919, 4.9515576 
4.3377912e+2, 2.4668942e+2, -548172.44, -639074.75, -12027.465, -0.00018705058, -0.0024233784, -546608.0, -24165.072, 0.0, 5.009925, 4.9514003 
4.3376073e+2, 2.5163993e+2, -505007.22, -598647.7, -11335.302, -0.000091782684, 0.0009234115, -503654.6, -29726.502, 0.0, 5.0089335, 4.948708 
4.337429e+2, 2.5658897e+2, -458287.4, -550364.06, -11201.875, -0.000029961979, -0.0025208837, -456944.2, -31516.78, 0.0, 5.0079527, 4.9487453 
4.3372563e+2, 2.6153666e+2, -415350.66, -510668.5, -10316.825, 0.000094942, 0.000794842, -414246.78, -37306.684, 0.0, 5.006977, 4.9457536 
4.3370906e+2, 2.664829e+2, -368177.0, -461541.72, -10125.858, 0.00043555797, -0.0026507655, -367091.44, -38624.727, 0.0, 5.006018, 4.9460554 
4.3369302e+2, 2.7142766e+2, -325541.94, -422785.8, -9026.837, 0.0006162264, 0.0006106458, -324711.1, -44703.195, 0.0, 5.005064, 4.942682 
4.336779e+2, 2.7637103e+2, -277935.66, -372824.84, -8758.44, 0.00029967367, -0.002914076, -277134.03, -45571.156, 0.0, 5.0041213, 4.9432483 
4.3366352e+2, 2.8131297e+2, -235268.53, -334269.53, -7493.8823, 0.00021183428, 0.0011723775, -234704.5, -51572.6, 0.0, 5.0031905, 4.9397554 
4.3365029e+2, 2.8625354e+2, -187199.23, -283502.88, -7151.3364, 0.0006589904, -0.0038094386, -186671.1, -51956.766, 0.0, 5.0022864, 4.9405713 
4.3363777e+2, 2.9119197e+2, -146598.38, -250069.94, -5688.1055, 0.00071736, 0.00043968772, -146286.63, -59968.973, 0.0, 5.0013885, 4.9352045 
4.3362653e+2, 2.9612818e+2, -98540.45, -199529.9, -5231.138, -0.00008209231, -0.0013855249, -98270.21, -60327.258, 0.0, 5.0005083, 4.935905 
4.3361613e+2, 3.0107155e+2, -58714.027, -135189.22, -3720.9211, -0.0003509605, 0.0013584724, -58533.41, -58533.41, 0.0, 4.999644, 4.9505086 
4.336074e+2, 3.0602288e+2, -59477.633, -132708.42, -3150.5269, 0.0005499136, -0.0065520327, -59342.34, -59342.34, 0.0, 4.9988217, 4.951753 
4.3359953e+2, 3.109921e+2, -21646.682, -40276.094, -1334.9985, 0.00087971793, 0.00246822, -21551.5, -21551.5, 0.0, 4.998009, 4.9859247 
4.3359363e+2, 3.1597945e+2, -21532.277, -35998.582, -564.8773, 0.00012030913, -0.0019394936, -21510.254, -21510.254, 0.0, 4.9972305, 4.9878364 
4.392211e+2, 1.2251463e+2, -1662120.3, -1739553.6, -874.77734, -0.0069735968, -0.013165581, -1662110.4, 77245.1, 0.0, 5.0339046, 4.983307 
4.3921497e+2, 1.27499e+2, -1620091.5, -1701057.9, -1884.7, 0.016016828, 0.018390754, -1620047.6, 70461.35, 0.0, 5.033125, 4.9802756 
4.3920287e+2, 1.3247451e+2, -1574707.9, -1655428.3, -3605.3196, -0.009362055, -0.02313962, -1574547.1, 67201.37, 0.0, 5.032283, 4.979533 
4.391933e+2, 1.3745603e+2, -1529430.5, -1609790.5, -3832.2925, 0.0006177266, -0.0059349965, -1529248.1, 63680.645, 0.0, 5.0313835, 4.97889 
4.391819e+2, 1.4243501e+2, -1485726.3, -1567493.5, -5744.8906, 0.0045085726, 0.0039093657, -1485324.6, 58809.93, 0.0, 5.0304947, 4.977099 
4.391686e+2, 1.4741153e+2, -1440195.5, -1521479.8, -5992.5127, 0.0010593149, -0.004958256, -1439756.1, 55609.316, 0.0, 5.0296125, 4.976558 
4.3915448e+2, 1.5238716e+2, -1396813.5, -1479834.9, -7645.1953, -0.00085214677, -0.0048366394, -1396115.4, 50489.313, 0.0, 5.0286984, 4.9745655 
4.3913954e+2, 1.573622e+2, -1351413.1, -1433825.9, -7837.491, -0.00078795094, -0.003095636, -1350674.4, 47175.09, 0.0, 5.027745, 4.974037 
4.3912378e+2, 1.6233577e+2, -1307914.3, -1391910.0, -9280.857, -0.00041052402, 0.0013750555, -1306901.0, 42207.32, 0.0, 5.0268044, 4.972118 
4.3910715e+2, 1.6730788e+2, -1262285.4, -1345597.1, -9456.708, 0.00022893917, -0.0021167786, -1261225.4, 39155.98, 0.0, 5.025873, 4.9716578 
4.3908978e+2, 1.7227873e+2, -1218961.9, -1304135.9, -10584.919, 0.00035313054, -0.00033190104, -1217666.1, 34000.652, 0.0, 5.0249305, 4.969556 
4.3907169e+2, 1.772484e+2, -1173310.6, -1257711.9, -10747.092, -0.000036164434, -0.0026046988, -1171963.6, 31000.982, 0.0, 5.023971, 4.9691243 
4.3905303e+2, 1.8221687e+2, -1129898.5, -1216020.9, -11736.831, -0.0003320322, 0.000043067997, -1128327.6, 25946.332, 0.0, 5.022998, 4.9670873 
4.3903375e+2, 1.8718408e+2, -1084243.3, -1169482.9, -11858.081, -0.0005131267, -0.0021963594, -1082624.4, 22971.01, 0.0, 5.0220013, 4.9666896 
4.3901414e+2, 1.9215012e+2, -1040869.0, -1127862.4, -12563.042, -0.0005392209, 0.0006387783, -1039091.06, 17837.156, 0.0, 5.021004, 4.9646063 
4.3899405e+2, 1.9711486e+2, -995105.4, -1081130.6, -12650.226, -0.00035000194, -0.0018806313, -993283.7, 14990.009, 0.0, 5.020001, 4.964255 
4.3897375e+2, 2.020784e+2, -951783.7, -1039693.6, -13111.655, -0.00025405132, 0.0007379471, -949869.75, 9761.163, 0.0, 5.0189962, 4.9620857 
4.3895313e+2, 2.0704061e+2, -905947.3, -992839.3, -13182.98, -0.00030824076, -0.002079866, -903991.3, 7010.062, 0.0, 5.017985, 4.9617567 
4.389324e+2, 2.1200162e+2, -862634.5, -951491.75, -13401.933, -0.00033000702, 0.00052511605, -860657.2, 1726.2086, 0.0, 5.016972, 4.959526 
4.3891153e+2, 2.169613e+2, -816702.56, -904473.4, -13455.596, -0.0002798604, -0.0023207874, -814686.06, -907.46594, 0.0, 5.0159545, 4.959233 
4.3889073e+2, 2.2191979e+2, -773391.4, -863222.5, -13428.321, -0.00022957295, 0.0005574643, -771427.0, -6241.627, 0.0, 5.0149374, 4.956939 
4.3886992e+2, 2.2687691e+2, -727354.2, -816052.7, -13450.171, -0.00017569285, -0.0021354824, -725359.44, -8753.91, 0.0, 5.0139203, 4.9566746 
4.388493e+2, 2.318328e+2, -684047.44, -774942.75, -13173.28, -0.00017665574, 0.00080719916, -682176.75, -14138.962, 0.0, 5.012906, 4.9542994 
4.388289e+2, 2.367873e+2, -637863.7, -727563.8, -13151.791, -0.00028171152, -0.0023168842, -635975.1, -16491.309, 0.0, 5.0118966, 4.95408 
4.3880874e+2, 2.4174057e+2, -594565.8, -686634.4, -12672.719, -0.0002900471, 0.0010514861, -592853.4, -21911.637, 0.0, 5.01089, 4.9516025 
4.38789e+2, 2.4669242e+2, -548205.6, -638991.2, -12603.698, -0.000108754575, -0.002367165, -546488.3, -24074.582, 0.0, 5.009891, 4.9514465 
4.3876964e+2, 2.5164294e+2, -505021.2, -598498.5, -11904.922, 0.00004844604, 0.00095168396, -503528.84, -29630.477, 0.0, 5.0088954, 4.9487796 
4.3875086e+2, 2.5659207e+2, -458309.1, -550211.56, -11772.507, 0.00009652507, -0.0025558951, -456825.0, -31428.008, 0.0, 5.0079107, 4.9488196 
4.3873256e+2, 2.6153982e+2, -415356.22, -510456.3, -10875.509, 0.0001850288, 0.00072413957, -414128.38, -37219.5, 0.0, 5.006931, 4.945851 
4.3871504e+2, 2.6648617e+2, -368191.3, -461325.0, -10684.92, 0.00045413524, -0.0026922328, -366981.2, -38546.723, 0.0, 5.005967, 4.9461565 
4.3869805e+2, 2.7143106e+2, -325541.88, -422512.66, -9576.305, 0.00059084105, 0.00057832105, -324605.22, -44630.664, 0.0, 5.0050087, 4.9428043 
4.3868205e+2, 2.7637455e+2, -277940.34, -372544.66, -9310.255, 0.00027435142, -0.0029725386, -277032.78, -45504.496, 0.0, 5.0040627, 4.943375 
4.386667e+2, 2.813166e+2, -235261.7, -333941.4, -8021.786, 0.00018576425, 0.0011054961, -234613.86, -51517.85, 0.0, 5.0031276, 4.939901 
4.3865255e+2, 2.8625733e+2, -187200.92, -283170.38, -7676.5337, 0.0006460649, -0.0038437902, -186590.75, -51913.797, 0.0, 5.002219, 4.94072 
4.3863913e+2, 2.9119593e+2, -146581.5, -249667.44, -6198.9004, 0.00069256703, 0.00040149273, -146210.08, -59931.34, 0.0, 5.0013165, 4.9353805 
4.38627e+2, 2.961323e+2, -98530.72, -199115.36, -5740.2993, -0.00019063034, -0.0014937079, -98204.18, -60301.863, 0.0, 5.000431, 4.9360876 
4.3861574e+2, 3.010759e+2, -58695.387, -134726.1, -4196.4214, -0.000520793, 0.0012209971, -58464.473, -58464.473, 0.0, 4.9995613, 4.950712 
4.386062e+2, 3.0602744e+2, -59464.91, -132235.11, -3616.8313, 0.0004399862, -0.006577134, -59285.586, -59285.586, 0.0, 4.998735, 4.951962 
4.3859753e+2, 3.1099686e+2, -21635.988, -39783.39, -1782.4061, 0.0008574215, 0.0025265387, -21462.58, -21462.58, 0.0, 4.997917, 4.9861465 
4.3859085e+2, 3.1598446e+2, -21536.363, -35501.473, -1000.1432, 0.00006822072, -0.0019986655, -21465.098, -21465.098, 0.0, 4.997131, 4.988063 
4.4425568e+2, 1.2252178e+2, -1659529.3, -1739015.6, -336.50806, -0.0054352065, -0.010098946, -1659527.9, 79757.945, 0.0, 5.034931, 4.982981 
4.4424853e+2, 1.275059e+2, -1617173.1, -1699953.6, -1307.6888, 0.015033911, 0.020413388, -1617152.4, 73288.836, 0.0, 5.034175, 4.980127 
4.4423562e+2, 1.3248119e+2, -1572012.5, -1654694.8, -3180.1477, -0.010107489, -0.021409616, -1571890.4, 69792.84, 0.0, 5.033315, 4.9792733 
4.442252e+2, 1.3746245e+2, -1526923.5, -1609159.0, -3452.0562, 0.0007338297, -0.003916713, -1526778.9, 66087.6, 0.0, 5.032356, 4.978628 
4.4421288e+2, 1.4244121e+2, -1483428.0, -1566977.5, -5381.198, 0.0047566686, 0.0061842357, -1483082.9, 60991.984, 0.0, 5.0313997, 4.976833 
4.441986e+2, 1.4741749e+2, -1438116.9, -1521074.9, -5644.8022, 0.0007417487, -0.0024101057, -1437734.5, 57573.645, 0.0, 5.030445, 4.976292 
4.4418356e+2, 1.5239282e+2, -1394819.5, -1479326.6, -7348.721, -0.0011301088, -0.0027412244, -1394185.3, 52364.754, 0.0, 5.0294714, 4.9743643 
4.4416773e+2, 1.5736756e+2, -1349550.6, -1433378.9, -7556.9204, -0.0003728326, -0.0022191678, -1348874.9, 48922.535, 0.0, 5.0284734, 4.9738383 
4.44151e+2, 1.6234083e+2, -1306164.1, -1391525.1, -9001.826, 0.00022553215, 0.0014219698, -1305225.3, 43833.594, 0.0, 5.027497, 4.9719167 
4.441334e+2, 1.6731268e+2, -1260619.3, -1345257.0, -9219.999, 0.00057314266, -0.0024662856, -1259626.5, 40707.746, 0.0, 5.0265384, 4.971456 
4.44115e+2, 1.7228338e+2, -1217378.8, -1303712.1, -10411.283, 0.00042409837, -0.00060996733, -1216141.0, 35480.555, 0.0, 5.0255413, 4.9694095 
4.4409588e+2, 1.7725298e+2, -1171984.1, -1257412.5, -10556.077, -0.00025225437, -0.0022547366, -1170699.0, 32221.252, 0.0, 5.0244946, 4.9689784 
4.440762e+2, 1.8222132e+2, -1128709.6, -1215680.0, -11533.503, -0.0005727051, 0.0006020809, -1127206.1, 27024.504, 0.0, 5.023452, 4.9669895 
4.4405594e+2, 1.8718842e+2, -1083193.1, -1169201.3, -11631.463, -0.0004374618, -0.0019335116, -1081647.9, 23905.13, 0.0, 5.0224066, 4.9665956 
4.4403532e+2, 1.9215433e+2, -1039959.44, -1127645.6, -12330.89, -0.0003150876, 0.0006597062, -1038258.4, 18628.453, 0.0, 5.021361, 4.9645143 
4.440142e+2, 1.9711895e+2, -994334.8, -1080977.3, -12426.268, -0.0001774358, -0.0020363491, -992587.8, 15645.57, 0.0, 5.0203094, 4.964164 
4.4399282e+2, 2.0208243e+2, -951135.06, -1039553.2, -12903.198, -0.00012144251, 0.00056676875, -949290.5, 10300.966, 0.0, 5.0192533, 4.962015 
4.4397116e+2, 2.0704457e+2, -905457.56, -992772.25, -12979.28, -0.0001918538, -0.0020497749, -903569.0, 7393.518, 0.0, 5.0181866, 4.961687 
4.439494e+2, 2.1200556e+2, -862264.4, -951408.06, -13204.147, -0.00024281967, 0.000700576, -860349.7, 1995.3718, 0.0, 5.017117, 4.959489 
4.439275e+2, 2.169652e+2, -816499.1, -904461.56, -13251.589, -0.00022930784, -0.0020873642, -814546.1, -805.56335, 0.0, 5.01604, 4.959199 
4.4390565e+2, 2.2192366e+2, -773319.25, -863215.6, -13214.654, -0.00018104361, 0.0007916204, -771416.94, -6269.399, 0.0, 5.014965, 4.9569297 
4.438838e+2, 2.2688077e+2, -727432.1, -816110.6, -13233.724, -0.000059586397, -0.001987358, -725499.4, -8931.511, 0.0, 5.0138946, 4.9566674 
4.4386214e+2, 2.3183668e+2, -684250.5, -775006.06, -12949.252, -0.000031384352, 0.0008848592, -682439.0, -14438.921, 0.0, 5.0128255, 4.954315 
4.438407e+2, 2.3679116e+2, -638221.25, -727694.25, -12927.952, -0.00015849415, -0.0022785463, -636390.75, -16944.771, 0.0, 5.0117607, 4.9540977 
4.4381952e+2, 2.4174447e+2, -595047.25, -686760.1, -12440.219, -0.00019119859, 0.0010621077, -593389.75, -22486.146, 0.0, 5.010698, 4.9516463 
4.4379875e+2, 2.4669635e+2, -548843.06, -639181.8, -12368.126, -0.000030485975, -0.0023641945, -547180.3, -24805.143, 0.0, 5.009642, 4.951493 
4.4377834e+2, 2.5164694e+2, -505783.56, -598686.2, -11655.459, 0.00011823078, 0.00093783176, -504343.6, -30484.344, 0.0, 5.00859, 4.9488516 
4.4375855e+2, 2.5659612e+2, -459224.34, -550459.94, -11518.853, 0.00014035997, -0.002601449, -457792.5, -32435.336, 0.0, 5.0075483, 4.9488945 
4.4373924e+2, 2.61544e+2, -416403.75, -510714.6, -10604.3, 0.00021360382, 0.00066794833, -415226.13, -38357.91, 0.0, 5.0065117, 4.945947 
4.437207e+2, 2.6649043e+2, -369395.75, -461644.56, -10410.912, 0.00048785945, -0.0027072069, -368235.4, -39842.586, 0.0, 5.0054893, 4.946256 
4.4370276e+2, 2.7143544e+2, -326876.84, -422837.47, -9284.519, 0.00062109303, 0.0005809054, -325986.78, -46054.934, 0.0, 5.004473, 4.942926 
4.4368574e+2, 2.7637902e+2, -279417.34, -372920.72, -9016.905, 0.00027372866, -0.0029887191, -278555.72, -47071.35, 0.0, 5.0034733, 4.943501 
4.4366944e+2, 2.8132123e+2, -236866.13, -334324.63, -7700.429, 0.00015644514, 0.0010881212, -236261.44, -53210.65, 0.0, 5.0024824, 4.9400473 
4.4365436e+2, 2.8626212e+2, -188955.02, -283607.38, -7349.035, 0.0006132439, -0.0038269362, -188387.83, -53757.563, 0.0, 5.0015163, 4.940871 
4.4364002e+2, 2.9120088e+2, -148461.22, -250092.08, -5849.961, 0.0006798477, 0.00042226881, -148125.61, -61895.14, 0.0, 5.0005555, 4.9355593 
4.4362697e+2, 2.9613742e+2, -100561.26, -199586.23, -5385.4272, -0.00014942518, -0.0015185437, -100269.234, -62416.957, 0.0, 4.99961, 4.9362736 
4.436148e+2, 3.0108118e+2, -60854.555, -135204.67, -3808.8516, -0.00047350148, 0.0011711692, -60659.94, -60659.94, 0.0, 4.998681, 4.950918 
4.4360444e+2, 3.0603296e+2, -61770.477, -132765.9, -3217.3264, 0.00043653307, -0.0065700873, -61624.973, -61624.973, 0.0, 4.9977994, 4.9521728 
4.435949e+2, 3.1100258e+2, -24052.246, -40316.117, -1378.7251, 0.0008813673, 0.0025682016, -23936.197, -23936.197, 0.0, 4.9969263, 4.9863753 
4.4358742e+2, 3.1599042e+2, -24099.734, -36082.75, -581.6428, 0.00014266049, -0.0020863558, -24071.568, -24071.568, 0.0, 4.9960833, 4.988298 
4.492909e+2, 1.2252991e+2, -1659758.9, -1739908.8, -752.10645, -0.002581758, -0.0037275536, -1659751.8, 79455.125, 0.0, 5.035022, 4.9826436 
4.492826e+2, 1.2751357e+2, -1617225.0, -1700348.6, -1675.8744, 0.013829606, 0.023855215, -1617191.1, 73175.09, 0.0, 5.0342364, 4.9799676 
4.4926882e+2, 1.3248862e+2, -1572240.8, -1655440.5, -3674.6838, -0.011276044, -0.018135851, -1572078.8, 69531.97, 0.0, 5.033373, 4.979 
4.4925755e+2, 1.3746966e+2, -1527088.0, -1609877.8, -3919.6592, 0.0005890494, -0.00012375979, -1526902.8, 65894.27, 0.0, 5.0324354, 4.9783525 
4.492443e+2, 1.4244819e+2, -1483558.6, -1567677.0, -5826.841, 0.0048689377, 0.010246357, -1483156.9, 60851.45, 0.0, 5.0314894, 4.976559 
4.49229e+2, 1.4742418e+2, -1438251.8, -1521773.8, -6083.274, 0.000351011, 0.0016985172, -1437811.0, 57433.19, 0.0, 5.0305324, 4.976019 
4.4921297e+2, 1.523992e+2, -1394860.1, -1479844.4, -7821.3423, -0.0013426198, 0.00047119893, -1394146.4, 52342.445, 0.0, 5.029561, 4.97415 
4.4919622e+2, 1.573735e+2, -1349566.0, -1433879.0, -8048.6743, 0.000327598, -0.0009453444, -1348804.6, 48934.895, 0.0, 5.02857, 4.9736266 
4.4917855e+2, 1.6234647e+2, -1306216.5, -1392060.9, -9473.983, 0.0010844527, 0.0015472933, -1305183.4, 43820.465, 0.0, 5.0275846, 4.971698 
4.4915992e+2, 1.6731808e+2, -1260753.0, -1345834.8, -9683.852, 0.00076845015, -0.0026028715, -1259664.8, 40617.293, 0.0, 5.0265985, 4.9712358 
4.4914052e+2, 1.7228861e+2, -1217453.4, -1304081.1, -10934.323, 0.00022855452, -0.0005690955, -1216094.5, 35476.52, 0.0, 5.0255833, 4.969268 
4.4912034e+2, 1.7725812e+2, -1172078.5, -1257785.5, -11082.807, -0.00054520695, -0.0015152034, -1170668.5, 32201.967, 0.0, 5.0245285, 4.968839 
4.490996e+2, 1.8222637e+2, -1128749.3, -1215922.1, -12069.494, -0.0007739347, 0.001484128, -1127109.0, 27072.66, 0.0, 5.0234823, 4.966896 
4.4907835e+2, 1.8719332e+2, -1083219.3, -1169425.1, -12186.898, -0.0002805601, -0.0015972562, -1081529.5, 23975.525, 0.0, 5.0224395, 4.966507 
4.4905668e+2, 1.921591e+2, -1040005.44, -1127898.4, -12905.454, -0.000009929493, 0.0006021894, -1038149.7, 18690.309, 0.0, 5.0213904, 4.964417 
4.4903448e+2, 1.9712362e+2, -994406.5, -1081240.4, -13004.624, 0.000020484134, -0.002280278, -992500.7, 15687.066, 0.0, 5.0203295, 4.964068 
4.4901207e+2, 2.0208699e+2, -951199.2, -1039759.25, -13493.493, 0.0000059400886, 0.00033774128, -949188.9, 10357.857, 0.0, 5.0192647, 4.9619427 
4.4898936e+2, 2.070491e+2, -905541.75, -992984.6, -13567.614, -0.00007066343, -0.001995269, -903485.0, 7433.3623, 0.0, 5.01819, 4.9616156 
4.489665e+2, 2.1201004e+2, -862316.75, -951523.2, -13801.213, -0.00014761227, 0.00094983546, -860230.4, 2070.8906, 0.0, 5.0171146, 4.9594536 
4.4894353e+2, 2.1696965e+2, -816556.75, -904571.2, -13853.909, -0.00018575693, -0.0017864397, -814427.56, -730.53876, 0.0, 5.016034, 4.9591665 
4.4892055e+2, 2.219281e+2, -773355.2, -863261.9, -13817.417, -0.00015110623, 0.0010739729, -771279.56, -6175.3716, 0.0, 5.014956, 4.956921 
4.4889766e+2, 2.268852e+2, -727473.75, -816155.06, -13841.417, 0.00004472569, -0.0018272296, -725363.56, -8838.98, 0.0, 5.0138826, 4.9566603 
4.4887495e+2, 2.3184107e+2, -684274.9, -774991.5, -13557.135, 0.00011292882, 0.0009573051, -682292.2, -14335.31, 0.0, 5.0128093, 4.9543304 
4.4885242e+2, 2.367956e+2, -638261.1, -727683.56, -13538.006, -0.000017022787, -0.0022388846, -636256.5, -16853.887, 0.0, 5.0117383, 4.954114 
4.4883016e+2, 2.4174893e+2, -595067.56, -686676.56, -13046.366, -0.00007373376, 0.0010736034, -593245.8, -22385.879, 0.0, 5.0106697, 4.9516907 
4.4880834e+2, 2.4670085e+2, -548874.6, -639097.75, -12976.252, 0.000030653406, -0.0023643232, -547045.44, -24714.344, 0.0, 5.0096087, 4.95154 
4.487869e+2, 2.516515e+2, -505795.66, -598533.75, -12256.594, 0.00014624209, 0.00092522096, -504203.13, -30388.574, 0.0, 5.008552, 4.948924 
4.4876605e+2, 2.5660077e+2, -459243.6, -550303.56, -12123.278, 0.00013757106, -0.0026334156, -457657.2, -32345.494, 0.0, 5.0075064, 4.948971 
4.4874573e+2, 2.6154867e+2, -416407.78, -510504.34, -11199.499, 0.00020211468, 0.0006357703, -415093.16, -38271.273, 0.0, 5.006466, 4.9460435 
4.4872618e+2, 2.6649523e+2, -369403.94, -461429.66, -11007.748, 0.0005068769, -0.0026935856, -368105.53, -39760.047, 0.0, 5.0054407, 4.9463553 
4.4870722e+2, 2.7144033e+2, -326868.22, -422563.0, -9868.736, 0.0006499816, 0.0006146712, -325861.06, -45977.613, 0.0, 5.004421, 4.943048 
4.486892e+2, 2.763841e+2, -279420.22, -372642.03, -9602.894, 0.00026495103, -0.0029702664, -278441.28, -47006.508, 0.0, 5.003415, 4.9436274 
4.4867188e+2, 2.8132644e+2, -236859.11, -333992.72, -8265.276, 0.00010960612, 0.0011096038, -236160.81, -53160.96, 0.0, 5.002419, 4.940194 
4.4865584e+2, 2.8626746e+2, -188955.52, -283269.47, -7912.456, 0.00055134733, -0.0037707868, -188296.3, -53718.48, 0.0, 5.0014486, 4.9410224 
4.4864053e+2, 2.9120636e+2, -148438.92, -249677.31, -6400.726, 0.00065014017, 0.00048633237, -148035.84, -61859.418, 0.0, 5.000483, 4.9357395 
4.4862658e+2, 2.9614308e+2, -100541.37, -199156.42, -5936.1987, -0.00006349703, -0.0014874776, -100185.32, -62388.902, 0.0, 4.999534, 4.9364614 
4.486135e+2, 3.0108708e+2, -60826.688, -134731.94, -4323.6426, -0.00035661744, 0.0011806886, -60574.605, -60574.605, 0.0, 4.998601, 4.951124 
4.486022e+2, 3.0603907e+2, -61753.637, -132287.64, -3721.5447, 0.00044757043, -0.0065310206, -61557.824, -61557.824, 0.0, 4.997713, 4.9523835 
4.4859183e+2, 3.110089e+2, -24032.018, -39800.41, -1865.1449, 0.0008867087, 0.0026204279, -23814.404, -23814.404, 0.0, 4.996834, 4.986606 
4.4858348e+2, 3.1599694e+2, -24091.871, -35557.19, -1061.3755, 0.00021202501, -0.002157217, -23994.445, -23994.445, 0.0, 4.9959836, 4.988536 
4.543266e+2, 1.2253806e+2, -1656914.1, -1739338.0, -384.17084, -0.0017486427, -0.0077180723, -1656912.4, 82213.44, 0.0, 5.0361547, 4.982277 
4.5431727e+2, 1.275216e+2, -1614411.8, -1699367.0, -1268.6373, 0.01271979, 0.020494353, -1614392.9, 75893.99, 0.0, 5.0352674, 4.9797873 
4.5430267e+2, 1.3249663e+2, -1569603.4, -1654572.6, -3304.6946, -0.011592472, -0.019974116, -1569475.0, 72056.61, 0.0, 5.034352, 4.9788103 
4.5429048e+2, 1.3747743e+2, -1524471.9, -1609031.4, -3500.0671, 0.0007358797, -0.0022704669, -1524327.3, 68392.55, 0.0, 5.03341, 4.9781604 
4.5427626e+2, 1.4245571e+2, -1481105.3, -1567047.4, -5404.646, 0.005044087, 0.008015349, -1480766.8, 63166.33, 0.0, 5.0324388, 4.976309 
4.5426002e+2, 1.474315e+2, -1435942.0, -1521219.5, -5651.096, 0.00018062454, -0.0003014464, -1435569.1, 59602.043, 0.0, 5.031435, 4.9757686 
4.5424297e+2, 1.5240628e+2, -1392675.8, -1479374.3, -7411.9995, -0.0013893292, -0.001150479, -1392046.6, 54371.56, 0.0, 5.0304265, 4.9738913 
4.542253e+2, 1.5738039e+2, -1347465.6, -1433450.5, -7675.232, 0.000901325, -0.0020480822, -1346786.0, 50885.496, 0.0, 5.029408, 4.9733686 
4.542066e+2, 1.6235319e+2, -1304206.5, -1391536.4, -9138.556, 0.0015624028, 0.0011246412, -1303260.5, 45677.273, 0.0, 5.0283623, 4.9715023 
4.5418683e+2, 1.6732469e+2, -1259029.6, -1345450.6, -9332.404, 0.00037887064, -0.002153057, -1258033.4, 42183.934, 0.0, 5.02728, 4.9710407 
4.5416632e+2, 1.7229508e+2, -1215885.6, -1303650.9, -10604.475, -0.0002859874, 0.00013317533, -1214622.5, 36885.254, 0.0, 5.026186, 4.9691277 
4.541451e+2, 1.772644e+2, -1170685.9, -1257439.4, -10753.694, -0.00036828828, -0.0012565416, -1169372.8, 33435.926, 0.0, 5.0250716, 4.9687 
4.5412335e+2, 1.8223248e+2, -1127512.3, -1215660.1, -11738.614, -0.00027220865, 0.0014327992, -1125975.8, 28145.777, 0.0, 5.023974, 4.9667535 
4.5410103e+2, 1.8719926e+2, -1082094.3, -1169211.5, -11892.352, 0.00012992222, -0.0018020661, -1080500.0, 24946.629, 0.0, 5.022892, 4.9663672 
4.5407826e+2, 1.9216493e+2, -1038978.44, -1127652.6, -12657.276, 0.00025080887, 0.00047136992, -1037207.1, 19575.844, 0.0, 5.021793, 4.964313 
4.5405495e+2, 1.9712938e+2, -993564.94, -1081075.8, -12759.648, 0.00006642146, -0.0020344097, -991742.44, 16389.03, 0.0, 5.0206666, 4.9639673 
4.5403144e+2, 2.0209269e+2, -950486.75, -1039564.25, -13252.186, -0.000043840206, 0.0007710363, -948557.0, 10934.109, 0.0, 5.0195384, 4.961883 
4.540076e+2, 2.0705473e+2, -905007.1, -992868.44, -13313.825, -0.00004269013, -0.0016249514, -903034.0, 7829.31, 0.0, 5.018401, 4.961559 
4.5398363e+2, 2.1201563e+2, -861929.8, -951435.25, -13540.56, -0.00004634877, 0.0012372164, -859926.25, 2320.5117, 0.0, 5.017266, 4.959415 
4.5395955e+2, 2.1697517e+2, -816322.94, -904552.44, -13594.979, -0.000011462772, -0.0016254946, -814275.7, -632.67737, 0.0, 5.0161314, 4.9591293 
4.539355e+2, 2.2193359e+2, -773246.06, -863251.8, -13554.606, 0.0000559569, 0.0011601083, -771249.06, -6198.575, 0.0, 5.0149994, 4.9569054 
4.5391154e+2, 2.2689067e+2, -727513.5, -816210.44, -13581.029, 0.00024071707, -0.0017341725, -725480.6, -9009.549, 0.0, 5.013873, 4.9566464 
4.538877e+2, 2.3184656e+2, -684435.94, -775033.25, -13297.191, 0.000263206, 0.0010623946, -682524.6, -14621.279, 0.0, 5.012743, 4.954347 
4.5386404e+2, 2.368011e+2, -638594.94, -727799.1, -13273.845, 0.00004384643, -0.0021156983, -636661.6, -17312.791, 0.0, 5.0116096, 4.9541335 
4.538407e+2, 2.4175446e+2, -595539.6, -686792.94, -12768.193, -0.000049192244, 0.00118648, -593786.75, -22980.855, 0.0, 5.0104795, 4.951737 
4.5381778e+2, 2.4670643e+2, -549513.2, -639284.3, -12693.026, 0.00011397386, -0.0023015826, -547752.94, -25476.379, 0.0, 5.0093584, 4.9515886 
4.5379525e+2, 2.5165713e+2, -506572.2, -598731.94, -11956.856, 0.0002828169, 0.0009510066, -505046.16, -31286.635, 0.0, 5.008242, 4.9489946 
4.5377335e+2, 2.5660646e+2, -460177.78, -550566.9, -11822.864, 0.0002824648, -0.0026154583, -458656.94, -33400.973, 0.0, 5.0071387, 4.9490433 
4.5375192e+2, 2.6155445e+2, -417471.06, -510773.5, -10881.737, 0.00031619973, 0.0006515354, -416218.75, -39453.38, 0.0, 5.0060415, 4.946138 
4.5373133e+2, 2.6650113e+2, -370612.44, -461754.63, -10686.992, 0.00049766153, -0.0026654252, -369376.1, -41088.035, 0.0, 5.004962, 4.946453 
4.537113e+2, 2.7144632e+2, -328205.6, -422887.66, -9533.795, 0.00059264887, 0.00063987344, -327255.16, -47430.156, 0.0, 5.003885, 4.94317 
4.5369226e+2, 2.763902e+2, -280926.94, -373029.2, -9266.214, 0.00033295612, -0.0029667725, -280003.94, -48628.848, 0.0, 5.0028143, 4.943754 
4.5367393e+2, 2.8133267e+2, -238513.97, -334393.44, -7897.301, 0.00023986635, 0.0011062316, -237867.86, -54928.98, 0.0, 5.0017543, 4.940343 
4.5365688e+2, 2.8627384e+2, -190765.86, -283726.3, -7537.812, 0.0006025519, -0.003751886, -190158.61, -55643.26, 0.0, 5.0007243, 4.941175 
4.5364058e+2, 2.9121292e+2, -150374.94, -250119.25, -6003.735, 0.0006969698, 0.0005207088, -150014.88, -63902.535, 0.0, 4.9997, 4.9359217 
4.5362568e+2, 2.9614985e+2, -102621.12, -199640.84, -5534.8403, 0.00014011176, -0.0014418126, -102306.38, -64575.883, 0.0, 4.9986935, 4.9366508 
4.536116e+2, 3.01094e+2, -63033.32, -135217.45, -3892.909, -0.00011401492, 0.0012191014, -62823.98, -62823.98, 0.0, 4.997701, 4.951336 
4.535994e+2, 3.0604622e+2, -64126.99, -132832.22, -3276.0732, 0.00050067727, -0.006535147, -63971.13, -63971.13, 0.0, 4.9967504, 4.952601 
4.535881e+2, 3.1101626e+2, -26537.797, -40365.25, -1414.5078, 0.0009116445, 0.0026243874, -26394.58, -26394.58, 0.0, 4.9958096, 4.9868374 
4.5357892e+2, 3.1600454e+2, -26755.766, -36182.137, -607.84863, 0.00046862668, -0.0020281603, -26716.73, -26716.73, 0.0, 4.9948997, 4.98877 
4.5936286e+2, 1.2254678e+2, -1657177.1, -1740317.9, -938.0186, -0.00080270524, -0.012012261, -1657166.5, 81872.46, 0.0, 5.036249, 4.9819093 
4.593524e+2, 1.275301e+2, -1614393.3, -1699794.3, -1757.4066, 0.011707682, 0.015919063, -1614357.0, 75845.82, 0.0, 5.0353665, 4.9795995 
4.59337e+2, 1.3250513e+2, -1569580.5, -1654975.8, -3838.1755, -0.011531869, -0.022588061, -1569408.4, 72039.12, 0.0, 5.0344467, 4.9786325 
4.593239e+2, 1.374857e+2, -1524484.3, -1609457.0, -4069.0374, 0.0009241555, -0.0055982354, -1524289.9, 68347.48, 0.0, 5.0334945, 4.9779797 
4.593087e+2, 1.4246373e+2, -1481231.9, -1567685.8, -6031.5303, 0.005157819, 0.0044093984, -1480813.1, 63039.55, 0.0, 5.0325174, 4.976061 
4.592914e+2, 1.4743927e+2, -1436068.5, -1521857.1, -6277.6997, 0.00011140487, -0.0036471966, -1435611.6, 59481.453, 0.0, 5.031513, 4.9755206 
4.5927337e+2, 1.5241389e+2, -1392842.4, -1480078.6, -8030.498, -0.0013425134, -0.0038179792, -1392109.3, 54232.98, 0.0, 5.0305004, 4.9736233 
4.5925474e+2, 1.5738784e+2, -1347653.1, -1434161.4, -8259.669, 0.001352361, -0.0036255268, -1346871.6, 50726.16, 0.0, 5.0294733, 4.973102 
4.5923495e+2, 1.6236052e+2, -1304314.0, -1392029.3, -9747.258, 0.0018315502, 0.00063453184, -1303243.9, 45621.805, 0.0, 5.028416, 4.971314 
4.5921403e+2, 1.6733193e+2, -1259176.4, -1345957.8, -9931.828, -0.00015731614, -0.0015582537, -1258054.3, 42091.953, 0.0, 5.027319, 4.9708543 
4.5919243e+2, 1.7230219e+2, -1215972.0, -1304031.5, -11221.623, -0.0008279309, 0.0009590187, -1214564.5, 36873.51, 0.0, 5.026225, 4.9689837 
4.591702e+2, 1.7727129e+2, -1170724.5, -1257792.9, -11379.074, -0.000026849953, -0.0011833729, -1169261.9, 33478.926, 0.0, 5.025126, 4.968558 
4.5914736e+2, 1.8223917e+2, -1127573.0, -1216059.4, -12344.55, 0.00042336693, 0.0010984979, -1125883.1, 28172.346, 0.0, 5.024028, 4.966596 
4.591239e+2, 1.872058e+2, -1082206.6, -1169629.4, -12485.481, 0.00056396844, -0.0021269482, -1080458.4, 24924.104, 0.0, 5.0229263, 4.9662123 
4.591e+2, 1.9217137e+2, -1039063.2, -1127945.3, -13272.63, 0.00044080822, 0.0003732147, -1037123.5, 19596.596, 0.0, 5.021813, 4.964207 
4.5907557e+2, 1.9713576e+2, -993665.94, -1081363.6, -13370.91, 0.000053211566, -0.0016182958, -991672.7, 16396.582, 0.0, 5.0206785, 4.963867 
4.590509e+2, 2.0209901e+2, -950542.8, -1039732.8, -13871.216, -0.00014069756, 0.0014077439, -948435.3, 10994.196, 0.0, 5.019545, 4.9618254 
4.5902595e+2, 2.07061e+2, -905058.5, -993025.3, -13941.491, -0.000040378032, -0.0011644514, -902901.8, 7900.394, 0.0, 5.018408, 4.9615054 
4.590009e+2, 2.120218e+2, -861967.5, -951554.9, -14174.059, 0.000051626022, 0.001531354, -859778.44, 2407.7441, 0.0, 5.0172706, 4.959375 
4.5897564e+2, 2.169813e+2, -816369.3, -904674.4, -14232.262, 0.00019219216, -0.0015015306, -814132.2, -549.18567, 0.0, 5.016133, 4.95909 
4.589505e+2, 2.2193968e+2, -773278.2, -863316.25, -14190.289, 0.00030356323, 0.0011991163, -771094.7, -6103.8267, 0.0, 5.0149956, 4.9568887 
4.5892537e+2, 2.2689676e+2, -727566.4, -816280.75, -14216.98, 0.0004432022, -0.001642307, -725343.7, -8932.109, 0.0, 5.0138607, 4.956631 
4.589004e+2, 2.3185265e+2, -684464.94, -775016.0, -13938.92, 0.0003924873, 0.0012006419, -682367.8, -14523.989, 0.0, 5.0127234, 4.954365 
4.588756e+2, 2.3680721e+2, -638635.7, -727781.06, -13919.807, 0.00006437185, -0.0019451529, -636512.7, -17223.607, 0.0, 5.011585, 4.954154 
4.5885113e+2, 2.4176061e+2, -595557.7, -686703.1, -13409.537, -0.00006540566, 0.001351527, -593625.75, -22879.998, 0.0, 5.0104504, 4.951784 
4.5882708e+2, 2.467126e+2, -549534.25, -639191.2, -13338.765, 0.00019442117, -0.0021997876, -547591.9, -25375.887, 0.0, 5.0093274, 4.9516377 
4.588035e+2, 2.5166336e+2, -506575.44, -598583.75, -12594.817, 0.00044175072, 0.0010079864, -504882.5, -31184.188, 0.0, 5.0082083, 4.9490643 
4.5878047e+2, 2.5661275e+2, -460190.6, -550419.06, -12464.589, 0.0004572275, -0.00255798, -458500.34, -33306.258, 0.0, 5.007101, 4.949115 
4.5875794e+2, 2.6156086e+2, -417469.2, -510566.03, -11511.237, 0.00045155495, 0.0007089929, -416066.97, -39364.27, 0.0, 5.0059986, 4.9462323 
4.5873624e+2, 2.665076e+2, -370623.88, -461545.4, -11317.315, 0.0004574505, -0.0026089493, -369236.34, -41011.895, 0.0, 5.0049133, 4.9465513 
4.5871514e+2, 2.714529e+2, -328200.25, -422613.4, -10158.432, 0.00048316893, 0.00068513525, -327119.6, -47359.26, 0.0, 5.003831, 4.943293 
4.5869502e+2, 2.763969e+2, -280921.66, -372744.5, -9895.207, 0.00041142126, -0.0029450695, -279867.4, -48558.188, 0.0, 5.0027585, 4.943882 
4.5867565e+2, 2.8133953e+2, -238490.19, -334050.66, -8502.221, 0.0004183984, 0.0011166587, -237739.63, -54867.965, 0.0, 5.001696, 4.9404917 
4.586576e+2, 2.8628084e+2, -190748.23, -283377.53, -8141.251, 0.00067172566, -0.003725148, -190038.14, -55591.535, 0.0, 5.0006623, 4.941328 
4.5864025e+2, 2.912201e+2, -150333.94, -249691.89, -6593.032, 0.00074543565, 0.00056627434, -149898.36, -63856.4, 0.0, 4.999634, 4.9361043 
4.5862436e+2, 2.9615724e+2, -102586.22, -199199.72, -6124.1265, 0.00036631222, -0.0013691388, -102199.57, -64541.316, 0.0, 4.998622, 4.936841 
4.586093e+2, 3.011016e+2, -62987.863, -134722.3, -4451.3276, 0.00015253655, 0.0012899433, -62712.703, -62712.703, 0.0, 4.997624, 4.951549 
4.5859614e+2, 3.06054e+2, -64089.32, -132326.27, -3826.9192, 0.00053524744, -0.006532931, -63875.367, -63875.367, 0.0, 4.9966674, 4.952821 
4.585839e+2, 3.1102428e+2, -26505.133, -39846.457, -1944.3663, 0.0008992536, 0.002632013, -26227.537, -26227.537, 0.0, 4.995722, 4.987067 
4.5857385e+2, 3.1601283e+2, -26735.477, -35665.46, -1131.4601, 0.0007349295, -0.0017876067, -26594.346, -26594.346, 0.0, 4.994807, 4.9890018 
4.643997e+2, 1.2255726e+2, -1654189.5, -1739610.3, -643.00757, -0.0011570635, -0.008412431, -1654184.8, 84753.95, 0.0, 5.037416, 4.9815717 
4.6438837e+2, 1.2754035e+2, -1611270.6, -1698610.9, -1389.5502, 0.011753465, 0.018791005, -1611248.5, 78855.78, 0.0, 5.0364914, 4.979441 
4.6437213e+2, 1.325153e+2, -1566770.9, -1654186.6, -3548.8977, -0.01027924, -0.018382385, -1566627.0, 74722.44, 0.0, 5.035519, 4.9783716 
4.6435788e+2, 1.3749541e+2, -1521875.6, -1608776.0, -3846.01, 0.0005417833, -0.00336319, -1521705.8, 70838.234, 0.0, 5.034502, 4.9777164 
4.6434164e+2, 1.4247309e+2, -1478757.6, -1567028.0, -5863.7646, 0.0044817952, 0.0057359184, -1478369.8, 65392.918, 0.0, 5.033471, 4.975818 
4.6432343e+2, 1.474484e+2, -1433730.9, -1521269.3, -6112.379, 0.0005497017, -0.0020551127, -1433306.1, 61698.83, 0.0, 5.032422, 4.9752784 
4.6430436e+2, 1.524228e+2, -1390566.6, -1479373.6, -7856.712, -0.00086085714, -0.0023147077, -1389876.9, 56379.207, 0.0, 5.0313573, 4.973447 
4.6428454e+2, 1.5739653e+2, -1345552.9, -1433541.3, -8026.8467, 0.0007696713, -0.0026040429, -1344826.6, 52686.8, 0.0, 5.0302715, 4.972927 
4.6426365e+2, 1.6236898e+2, -1302380.1, -1391448.8, -9529.168, 0.0010392056, 0.0011359486, -1301372.1, 47411.14, 0.0, 5.029149, 4.971159 
4.6424162e+2, 1.6734019e+2, -1257458.0, -1345482.1, -9694.238, -0.00022091353, -0.0016010593, -1256403.0, 43662.406, 0.0, 5.027979, 4.9707003 
4.6421897e+2, 1.7231026e+2, -1214393.5, -1303635.5, -10949.452, -0.00042038105, 0.00057964545, -1213069.8, 38289.227, 0.0, 5.0268397, 4.968826 
4.6419564e+2, 1.7727919e+2, -1169189.4, -1257418.4, -11118.008, 0.00053867, -0.0016697136, -1167809.9, 34853.598, 0.0, 5.025727, 4.9684005 
4.6417165e+2, 1.8224697e+2, -1126123.0, -1215648.5, -12111.779, 0.0007781717, 0.0008058469, -1124513.4, 29466.064, 0.0, 5.0245833, 4.966474 
4.64147e+2, 1.8721351e+2, -1080998.1, -1169327.0, -12225.154, 0.00027555405, -0.0018608326, -1079337.3, 25969.936, 0.0, 5.0233974, 4.9660945 
4.641219e+2, 1.92179e+2, -1038023.44, -1127639.4, -13002.112, -0.000012085457, 0.0008475834, -1036175.1, 20470.54, 0.0, 5.0222087, 4.964127 
4.6409637e+2, 1.971433e+2, -992807.25, -1081135.8, -13082.442, 0.000045627698, -0.0013612059, -990910.3, 17085.27, 0.0, 5.0210104, 4.963791 
4.6407056e+2, 2.0210646e+2, -949839.3, -1039562.8, -13568.328, 0.00009882133, 0.0014824045, -947832.4, 11524.295, 0.0, 5.0198197, 4.9617567 
4.6404442e+2, 2.0706834e+2, -904490.94, -992917.9, -13646.405, 0.00019912269, -0.0012297551, -902432.8, 8297.361, 0.0, 5.0186353, 4.9614377 
4.640182e+2, 2.120291e+2, -861512.2, -951445.1, -13887.335, 0.00025350292, 0.0014465348, -859416.56, 2698.2583, 0.0, 5.0174475, 4.959332 
4.639918e+2, 2.1698858e+2, -816070.1, -904634.56, -13945.031, 0.00031942615, -0.0014436078, -813926.3, -414.36127, 0.0, 5.0162544, 4.959049 
4.6396545e+2, 2.2194692e+2, -773108.44, -863263.75, -13900.962, 0.000356003, 0.001348241, -771013.7, -6093.6436, 0.0, 5.015057, 4.9568796 
4.6393916e+2, 2.2690399e+2, -727585.1, -816310.1, -13917.912, 0.00042464517, -0.0014689503, -725453.1, -9112.304, 0.0, 5.013855, 4.9566245 
4.6391302e+2, 2.318599e+2, -684635.4, -775054.8, -13630.765, 0.00038470348, 0.0013627413, -682625.25, -14852.2295, 0.0, 5.012652, 4.9543853 
4.6388707e+2, 2.3681447e+2, -638978.9, -727895.6, -13607.645, 0.00020496528, -0.0018425883, -636943.0, -17724.94, 0.0, 5.0114517, 4.9541755 
4.6386144e+2, 2.4176787e+2, -596038.4, -686830.2, -13079.217, 0.00015906086, 0.0013983551, -594191.8, -23517.277, 0.0, 5.0102587, 4.9518275 
4.6383625e+2, 2.4671991e+2, -550163.06, -639382.56, -13007.477, 0.00039022326, -0.0021992642, -548305.4, -26161.021, 0.0, 5.009082, 4.951682 
4.638115e+2, 2.5167072e+2, -507330.03, -598780.1, -12252.753, 0.0005721066, 0.0009964309, -505716.84, -32090.635, 0.0, 5.007908, 4.949131 
4.637873e+2, 2.566202e+2, -461109.34, -550684.2, -12122.377, 0.00045030168, -0.0025032512, -459497.8, -34376.49, 0.0, 5.0067406, 4.9491835 
4.6376365e+2, 2.6156837e+2, -418525.63, -510827.4, -11152.359, 0.0003846755, 0.00081116694, -417197.28, -40568.113, 0.0, 5.005576, 4.946329 
4.6374083e+2, 2.6651523e+2, -371858.66, -461874.8, -10952.453, 0.0004416975, -0.0024939787, -370545.22, -42395.305, 0.0, 5.0044236, 4.9466524 
4.6371862e+2, 2.7146065e+2, -329580.9, -422951.66, -9770.563, 0.0005101272, 0.00080538815, -328569.44, -48884.715, 0.0, 5.003278, 4.943418 
4.6369746e+2, 2.7640477e+2, -282444.06, -373133.78, -9503.419, 0.0004935238, -0.0028369913, -281458.88, -50226.52, 0.0, 5.0021515, 4.944011 
4.6367696e+2, 2.813475e+2, -240142.17, -334448.7, -8081.196, 0.0004881689, 0.0012100487, -239454.7, -56661.23, 0.0, 5.0010324, 4.940641 
4.636578e+2, 2.8628898e+2, -192557.63, -283834.38, -7715.914, 0.0005757202, -0.0036414873, -191909.97, -57543.0, 0.0, 4.999939, 4.9414806 
4.6363944e+2, 2.9122838e+2, -152271.6, -250126.94, -6147.137, 0.0006228272, 0.0006387547, -151886.95, -65926.22, 0.0, 4.998849, 4.9362893 
4.6362254e+2, 2.961657e+2, -104686.016, -199682.6, -5673.486, 0.00053102156, -0.0013230834, -104348.375, -66773.17, 0.0, 4.9977727, 4.9370346 
4.6360648e+2, 3.0111027e+2, -65228.977, -135208.67, -3973.0188, 0.00042022308, 0.0013217333, -65004.133, -65004.133, 0.0, 4.99671, 4.951767 
4.6359226e+2, 3.060629e+2, -66500.29, -132871.67, -3336.595, 0.0004839247, -0.006466523, -66332.98, -66332.98, 0.0, 4.9956884, 4.953045 
4.63579e+2, 3.1103343e+2, -29050.844, -40421.62, -1444.3861, 0.0007157366, 0.0027047868, -28870.238, -28870.238, 0.0, 4.9946823, 4.9873013 
4.6356806e+2, 3.160222e+2, -29427.074, -36301.523, -624.5413, 0.0008126672, -0.0017335158, -29370.795, -29370.795, 0.0, 4.9937134, 4.9892364 
4.694371e+2, 1.225687e+2, -1654358.9, -1740453.1, -1027.068, -0.0010486844, -0.0015655175, -1654346.6, 84482.836, 0.0, 5.037522, 4.981243 
4.694249e+2, 1.2755133e+2, -1611222.3, -1698962.8, -1740.5302, 0.011945505, 0.022839341, -1611187.8, 78810.94, 0.0, 5.036587, 4.979279 
4.694078e+2, 1.3252622e+2, -1566908.1, -1654917.8, -3962.2588, -0.008722353, -0.012886431, -1566730.1, 74514.36, 0.0, 5.0356135, 4.9780855 
4.693923e+2, 1.3750581e+2, -1521994.8, -1609503.0, -4248.175, 0.00009833777, 0.00003521756, -1521789.0, 70655.37, 0.0, 5.034603, 4.9774284 
4.69375e+2, 1.4248314e+2, -1478817.3, -1567629.1, -6281.872, 0.003655503, 0.008156112, -1478375.1, 65291.527, 0.0, 5.033571, 4.9755726 
4.6935585e+2, 1.4745826e+2, -1433815.1, -1521880.8, -6531.618, 0.0010653764, 0.0006576598, -1433333.3, 61577.402, 0.0, 5.032512, 4.975033 
4.6933576e+2, 1.5243241e+2, -1390575.1, -1479757.8, -8317.364, -0.00030872, 0.00016473066, -1389806.1, 56357.55, 0.0, 5.0314326, 4.9732847 
4.693147e+2, 1.5740588e+2, -1345623.4, -1433949.0, -8517.571, -0.000041091964, -0.00095435686, -1344809.5, 52613.414, 0.0, 5.030324, 4.9727683 
4.6929264e+2, 1.6237812e+2, -1302446.8, -1391841.6, -10101.123, 0.000042001546, 0.0018985324, -1301319.6, 47375.07, 0.0, 5.0291996, 4.971006 
4.692696e+2, 1.6734907e+2, -1257466.0, -1345844.5, -10289.196, -0.000098148405, -0.0017690208, -1256284.0, 43694.83, 0.0, 5.028049, 4.970548 
4.6924585e+2, 1.7231892e+2, -1214423.8, -1304036.1, -11518.719, 0.00025088215, -0.000040130293, -1212966.9, 38307.25, 0.0, 5.0269074, 4.968662 
4.6922138e+2, 1.772877e+2, -1169294.3, -1257853.5, -11683.594, 0.0010845021, -0.002197572, -1167778.8, 34801.53, 0.0, 5.0257683, 4.968237 
4.6919623e+2, 1.8225537e+2, -1126208.5, -1215958.4, -12728.246, 0.00095051655, 0.00062718586, -1124438.3, 29459.057, 0.0, 5.0246067, 4.9663615 
4.6917033e+2, 1.8722188e+2, -1081105.6, -1169640.4, -12846.834, -0.00020841385, -0.001388926, -1079279.1, 25946.512, 0.0, 5.0234118, 4.965985 
4.6914402e+2, 1.9218728e+2, -1038085.5, -1127852.6, -13639.985, -0.0006025228, 0.0014877996, -1036058.7, 20506.066, 0.0, 5.022222, 4.9640517 
4.691173e+2, 1.9715147e+2, -992838.44, -1081326.6, -13735.362, 0.000056995916, -0.001159356, -990755.44, 17160.092, 0.0, 5.0210323, 4.963719 
4.6909037e+2, 2.0211454e+2, -949871.6, -1039756.2, -14223.191, 0.0004265313, 0.0013902851, -947674.6, 11602.821, 0.0, 5.019842, 4.9616838 
4.6906304e+2, 2.0707634e+2, -904556.1, -993126.06, -14301.768, 0.00047664897, -0.0014265849, -902304.06, 8347.861, 0.0, 5.0186453, 4.961365 
4.6903563e+2, 2.1203703e+2, -861566.5, -951581.6, -14549.159, 0.0004474458, 0.0012824012, -859273.4, 2763.7366, 0.0, 5.017448, 4.9592886 
4.69008e+2, 2.1699649e+2, -816143.75, -904775.3, -14605.977, 0.00040037543, -0.0013783391, -813798.8, -364.30374, 0.0, 5.0162473, 4.9590077 
4.6898046e+2, 2.2195484e+2, -773150.4, -863309.2, -14569.453, 0.00033262448, 0.001552308, -770854.44, -6011.644, 0.0, 5.015044, 4.9568734 
4.6895295e+2, 2.269119e+2, -727628.56, -816349.5, -14591.98, 0.00032231558, -0.0012567231, -725290.25, -9026.709, 0.0, 5.01384, 4.9566216 
4.689256e+2, 2.318678e+2, -684653.06, -775027.1, -14309.226, 0.00031929617, 0.0015404025, -682441.56, -14745.978, 0.0, 5.012635, 4.954406 
4.6889848e+2, 2.3682238e+2, -639001.3, -727867.5, -14292.139, 0.00037206893, -0.0017529789, -636759.3, -17618.78, 0.0, 5.0114326, 4.9541974 
4.6887168e+2, 2.4177581e+2, -596045.1, -686748.1, -13753.199, 0.000448776, 0.0014203377, -594005.56, -23408.926, 0.0, 5.010236, 4.9518695 
4.688453e+2, 2.467279e+2, -550185.3, -639305.94, -13684.191, 0.0006001069, -0.0022102464, -548131.5, -26065.383, 0.0, 5.009053, 4.951725 
4.6881935e+2, 2.5167876e+2, -507338.2, -598643.56, -12925.483, 0.0006608709, 0.0009878116, -505543.7, -31996.217, 0.0, 5.0078735, 4.9491973 
4.68794e+2, 2.5662833e+2, -461127.9, -550548.0, -12799.308, 0.00035398552, -0.0024230354, -459331.9, -34290.02, 0.0, 5.006702, 4.9492517 
4.6876916e+2, 2.6157656e+2, -418518.78, -510611.5, -11821.823, 0.0002251598, 0.00095462654, -417025.47, -40476.543, 0.0, 5.005533, 4.946427 
4.687452e+2, 2.6652354e+2, -371855.1, -461649.44, -11626.763, 0.0004146556, -0.0023346283, -370374.06, -42305.434, 0.0, 5.004378, 4.946755 
4.6872187e+2, 2.714691e+2, -329558.38, -422664.78, -10431.01, 0.00056409615, 0.0009784199, -328404.06, -48801.746, 0.0, 5.0032287, 4.9435434 
4.6869954e+2, 2.7641332e+2, -282424.8, -372839.63, -10167.405, 0.00054949045, -0.0026683225, -281295.56, -50146.895, 0.0, 5.0020995, 4.9441404 
4.6867797e+2, 2.8135622e+2, -240111.33, -334104.56, -8727.19, 0.00048696803, 0.0013638225, -239307.89, -56599.438, 0.0, 5.0009766, 4.9407897 
4.686577e+2, 2.8629783e+2, -192541.78, -283490.44, -8361.212, 0.00038691977, -0.0035078677, -191779.48, -57499.027, 0.0, 4.9998765, 4.9416323 
4.6863824e+2, 2.9123738e+2, -152229.31, -249692.61, -6779.9272, 0.0004046518, 0.0007510434, -151759.94, -65887.305, 0.0, 4.998781, 4.9364753 
4.6862027e+2, 2.9617488e+2, -104638.24, -199225.72, -6307.831, 0.0006406386, -0.0012607771, -104219.44, -66734.18, 0.0, 4.9977036, 4.9372296 
4.686032e+2, 3.0111966e+2, -65164.99, -134695.05, -4577.514, 0.0006540479, 0.0013645928, -64864.92, -64864.92, 0.0, 4.996637, 4.951985 
4.685879e+2, 3.060725e+2, -66449.63, -132349.69, -3935.4197, 0.00035995353, -0.0063423943, -66215.445, -66215.445, 0.0, 4.9956083, 4.953269 
4.6857363e+2, 3.1104326e+2, -29012.102, -39893.094, -2014.5927, 0.00041535, 0.0028323913, -28651.082, -28651.082, 0.0, 4.9945946, 4.987535 
4.6856174e+2, 3.1603226e+2, -29404.93, -35780.0, -1187.2732, 0.0007378254, -0.0017313338, -29190.994, -29190.994, 0.0, 4.99362, 4.9894695 
4.7447512e+2, 1.2258073e+2, -1651279.8, -1739776.6, -412.9443, -0.002257863, -0.0038576992, -1651277.9, 87432.195, 0.0, 5.0387373, 4.980871 
4.7446197e+2, 1.2756298e+2, -1608111.1, -1697901.0, -1110.3778, 0.011052012, 0.018810946, -1608097.4, 81785.99, 0.0, 5.0377345, 4.979069 
4.744441e+2, 1.3253795e+2, -1564002.8, -1654043.8, -3370.9116, -0.007597247, -0.01366064, -1563876.8, 77251.75, 0.0, 5.0367107, 4.9778404 
4.7442752e+2, 1.3751732e+2, -1519205.0, -1608695.9, -3638.104, 0.00054012256, -0.0005142428, -1519057.3, 73273.445, 0.0, 5.0356646, 4.977181 
4.7440907e+2, 1.4249441e+2, -1476154.8, -1566865.5, -5701.712, 0.0036555813, 0.007717272, -1475797.8, 67757.58, 0.0, 5.034585, 4.9753356 
4.7438887e+2, 1.474693e+2, -1431336.1, -1521210.9, -5950.255, 0.000969156, 0.0003791859, -1430944.0, 63857.57, 0.0, 5.0334663, 4.9747963 
4.743676e+2, 1.5244326e+2, -1388300.9, -1479174.0, -7802.8784, -0.0004037629, 0.00009484444, -1387635.8, 58421.066, 0.0, 5.0323143, 4.973056 
4.743454e+2, 1.5741651e+2, -1343601.9, -1433488.8, -8051.7817, -0.000059829774, -0.0008112379, -1342886.3, 54432.31, 0.0, 5.031121, 4.972541 
4.743222e+2, 1.6238852e+2, -1300537.3, -1391381.8, -9667.569, 0.00026378522, 0.0022080655, -1299519.9, 49072.773, 0.0, 5.0299473, 4.9708037 
4.7429803e+2, 1.6735929e+2, -1255589.9, -1345401.1, -9890.52, 0.00055200997, -0.0013175082, -1254513.6, 45365.16, 0.0, 5.0287857, 4.970347 
4.7427312e+2, 1.72329e+2, -1212623.6, -1303517.9, -11165.503, 0.0006871747, 0.0006066625, -1211272.1, 39903.656, 0.0, 5.027595, 4.9685106 
4.7424734e+2, 1.7729764e+2, -1167770.9, -1257464.0, -11320.865, 0.00057523255, -0.0012976823, -1166364.0, 36119.242, 0.0, 5.0263605, 4.968089 
4.74221e+2, 1.8226516e+2, -1124870.5, -1215575.0, -12383.008, 0.0002691159, 0.001486054, -1123210.4, 30591.203, 0.0, 5.025118, 4.966251 
4.7419387e+2, 1.8723154e+2, -1079957.5, -1169345.9, -12500.507, -0.00015350684, -0.0009103995, -1078242.3, 26888.945, 0.0, 5.0238576, 4.965876 
4.7416642e+2, 1.9219679e+2, -1037076.5, -1127615.8, -13279.602, -0.00018098134, 0.0016515905, -1035168.94, 21302.63, 0.0, 5.0226183, 4.963948 
4.7413853e+2, 1.9716084e+2, -991915.0, -1081131.5, -13395.124, 0.0003914261, -0.0012258749, -989947.25, 17876.504, 0.0, 5.0213995, 4.963615 
4.741103e+2, 2.021238e+2, -949038.1, -1039522.6, -13916.5205, 0.00056506565, 0.0013062119, -946946.2, 12240.47, 0.0, 5.020161, 4.9616165 
4.7408172e+2, 2.0708556e+2, -903929.6, -992984.0, -13988.74, 0.00029074991, -0.0012503673, -901783.94, 8777.567, 0.0, 5.018892, 4.961301 
4.7405303e+2, 2.1204624e+2, -861092.7, -951428.3, -14224.396, 0.00017806716, 0.0015629239, -858905.8, 3041.2588, 0.0, 5.017624, 4.9592614 
4.7402424e+2, 2.1700566e+2, -815859.0, -904705.9, -14265.54, 0.00038239226, -0.0011952587, -813624.7, -279.90765, 0.0, 5.0163565, 4.9589825 
4.7399545e+2, 2.2196397e+2, -773017.5, -863266.9, -14214.613, 0.0004420691, 0.0016317193, -770831.6, -6078.34, 0.0, 5.0150914, 4.9568677 
4.7396672e+2, 2.26921e+2, -727648.5, -816376.2, -14234.431, 0.00039447995, -0.0012853313, -725420.8, -9246.687, 0.0, 5.0138335, 4.9566164 
4.7393814e+2, 2.3187691e+2, -684800.4, -775064.75, -13948.909, 0.00038533012, 0.0014462161, -682693.94, -15087.661, 0.0, 5.0125737, 4.9544215 
4.739098e+2, 2.3683152e+2, -639302.8, -727974.4, -13932.412, 0.00049985194, -0.0018410794, -637165.2, -18114.139, 0.0, 5.0113163, 4.954214 
4.7388175e+2, 2.4178497e+2, -596480.7, -686859.6, -13381.457, 0.0005692114, 0.0013741017, -594541.06, -24034.088, 0.0, 5.010061, 4.951911 
4.7385415e+2, 2.4673711e+2, -550801.8, -639496.06, -13308.425, 0.0005765204, -0.002146161, -548847.94, -26871.963, 0.0, 5.008813, 4.951768 
4.73827e+2, 2.5168803e+2, -508099.28, -598836.0, -12533.294, 0.00057491043, 0.0011221976, -506399.94, -32943.113, 0.0, 5.0075693, 4.949267 
4.7380042e+2, 2.5663766e+2, -462059.78, -550810.4, -12401.135, 0.0003638953, -0.0022775133, -460359.56, -35409.008, 0.0, 5.006335, 4.949324 
4.737744e+2, 2.61586e+2, -419591.53, -510879.78, -11402.927, 0.0002775123, 0.0010913408, -418188.72, -41731.926, 0.0, 5.0051045, 4.9465237 
4.7374925e+2, 2.6653305e+2, -373088.1, -461980.22, -11206.835, 0.00036498756, -0.0022320764, -371697.0, -43721.4, 0.0, 5.003889, 4.946855 
4.7372472e+2, 2.714787e+2, -330929.7, -423003.5, -9988.653, 0.00045917125, 0.0010747855, -329858.53, -50350.273, 0.0, 5.00268, 4.943666 
4.7370127e+2, 2.7642307e+2, -283951.4, -373236.56, -9724.052, 0.00052915845, -0.0025400827, -282904.63, -51851.23, 0.0, 5.001492, 4.944267 
4.7367856e+2, 2.8136605e+2, -241779.78, -334503.25, -8264.303, 0.0005037282, 0.001507344, -241048.95, -58437.082, 0.0, 5.000306, 4.940942 
4.7365713e+2, 2.8630784e+2, -194397.98, -283958.47, -7892.0854, 0.0003164747, -0.0033672424, -193707.84, -59525.47, 0.0, 4.9991345, 4.941789 
4.7363654e+2, 2.9124758e+2, -154227.1, -250139.11, -6277.2964, 0.00033810426, 0.00089878053, -153818.0, -68045.1, 0.0, 4.9979725, 4.936667 
4.736175e+2, 2.9618528e+2, -106771.95, -199706.5, -5796.466, 0.0007783838, -0.001111492, -106411.81, -69028.23, 0.0, 4.996839, 4.937431 
4.735993e+2, 3.0113024e+2, -67433.945, -135187.84, -4049.5156, 0.0008521629, 0.0015148823, -67192.77, -67192.77, 0.0, 4.995712, 4.952205 
4.7358295e+2, 3.0608332e+2, -68918.48, -132919.05, -3403.9119, 0.0002839657, -0.0061736, -68737.95, -68737.95, 0.0, 4.9946084, 4.9534936 
4.7356763e+2, 3.1105432e+2, -31636.307, -40487.676, -1467.5403, 0.00022973318, 0.0029830697, -31399.336, -31399.336, 0.0, 4.9935246, 4.987775 
4.7355476e+2, 3.1604356e+2, -32190.125, -36437.35, -627.9836, 0.000842251, -0.0015598831, -32099.219, -32099.219, 0.0, 4.9924893, 4.989712 
4.7951382e+2, 1.2259351e+2, -1651496.3, -1740757.1, -1092.0227, -0.002646809, -0.0059192567, -1651482.9, 87099.6, 0.0, 5.0388513, 4.980494 
4.794996e+2, 1.2757517e+2, -1608099.8, -1698427.8, -1737.3322, 0.009946581, 0.013259238, -1608066.4, 81695.68, 0.0, 5.037851, 4.9788404 
4.7948086e+2, 1.3255028e+2, -1564036.5, -1654619.3, -4025.6194, -0.006569468, -0.01550851, -1563858.0, 77148.12, 0.0, 5.036817, 4.9776006 
4.794632e+2, 1.3752946e+2, -1519304.0, -1609307.0, -4292.9463, 0.0011049528, -0.0019181531, -1519099.8, 73110.61, 0.0, 5.035749, 4.976939 
4.7944367e+2, 1.4250633e+2, -1476286.5, -1567478.8, -6396.975, 0.0037575788, 0.006533114, -1475839.9, 67597.18, 0.0, 5.034655, 4.9751 
4.7942227e+2, 1.4748101e+2, -1431490.0, -1521834.3, -6630.71, 0.00071184477, -0.00063425343, -1431006.0, 63679.39, 0.0, 5.0335283, 4.9745607 
4.7939983e+2, 1.5245475e+2, -1388459.9, -1479822.9, -8512.635, -0.00061806577, -0.00058992027, -1387673.5, 58269.41, 0.0, 5.0323787, 4.972811 
4.793765e+2, 1.574278e+2, -1343722.4, -1434117.3, -8736.324, 0.0001506511, -0.0010647732, -1342885.8, 54321.566, 0.0, 5.0311975, 4.972296 
4.7935215e+2, 1.6239963e+2, -1300627.4, -1391924.9, -10307.231, 0.0007761669, 0.0023644797, -1299478.3, 49005.445, 0.0, 5.0300183, 4.9705906 
4.7932684e+2, 1.6737023e+2, -1255747.5, -1345974.9, -10505.825, 0.0012353525, -0.000744606, -1254540.5, 45231.375, 0.0, 5.0288334, 4.9701347 
4.7930065e+2, 1.7233978e+2, -1212737.5, -1303925.8, -11818.601, 0.0009692814, 0.0015346077, -1211230.6, 39839.8, 0.0, 5.0276265, 4.968362 
4.792736e+2, 1.773083e+2, -1167900.8, -1257868.1, -11972.32, -0.00018795568, -0.000101424004, -1166334.9, 36044.184, 0.0, 5.026384, 4.967945 
4.7924593e+2, 1.822757e+2, -1124948.8, -1215886.0, -13054.246, -0.000573355, 0.002537756, -1123111.9, 30586.832, 0.0, 5.0251446, 4.966137 
4.792177e+2, 1.8724188e+2, -1079986.6, -1169627.4, -13184.346, 0.00007389737, -0.00048798838, -1078087.8, 26942.088, 0.0, 5.0238996, 4.9657645 
4.7918904e+2, 1.9220698e+2, -1037114.44, -1127906.3, -13942.546, 0.0005003117, 0.0016674213, -1035021.56, 21350.07, 0.0, 5.022658, 4.963834 
4.791599e+2, 1.9717091e+2, -992019.5, -1081452.8, -14050.79, 0.00075207656, -0.0013304703, -989863.94, 17861.268, 0.0, 5.021416, 4.9635015 
4.791304e+2, 2.021338e+2, -949121.8, -1039727.06, -14602.416, 0.00058310956, 0.0012800121, -946826.56, 12262.4375, 0.0, 5.020162, 4.96155 
4.791005e+2, 2.0709553e+2, -904020.94, -993181.0, -14675.354, -0.000039187442, -0.0009393176, -901667.56, 8796.625, 0.0, 5.0188875, 4.9612393 
4.7907054e+2, 2.1205617e+2, -861136.5, -951516.94, -14914.102, -0.00021231234, 0.0019814123, -858739.06, 3111.0134, 0.0, 5.0176187, 4.959237 
4.790405e+2, 2.1701553e+2, -815888.5, -904782.06, -14966.513, 0.0003306233, -0.0009773868, -813436.4, -188.33276, 0.0, 5.0163546, 4.958961 
4.790105e+2, 2.2197382e+2, -773030.7, -863300.8, -14920.315, 0.00057175383, 0.0016766675, -770628.5, -5971.835, 0.0, 5.0150886, 4.956861 
4.7898048e+2, 2.2693084e+2, -727685.1, -816420.25, -14945.388, 0.0004991858, -0.0013696537, -725235.56, -9157.8125, 0.0, 5.013822, 4.95661 
4.7895065e+2, 2.3188673e+2, -684829.25, -775058.0, -14663.995, 0.00046953783, 0.0012979581, -682505.9, -14995.995, 0.0, 5.0125556, 4.9544363 
4.7892106e+2, 2.3684135e+2, -639343.2, -727971.56, -14649.628, 0.0005914189, -0.0019502438, -636984.44, -18029.91, 0.0, 5.011294, 4.954229 
4.7889176e+2, 2.4179485e+2, -596498.25, -686786.9, -14094.38, 0.00061041844, 0.0013411368, -594349.2, -23939.023, 0.0, 5.0100346, 4.9519515 
4.7886288e+2, 2.4674705e+2, -550824.44, -639421.8, -14025.666, 0.0004512509, -0.002025749, -548657.06, -26778.396, 0.0, 5.0087843, 4.9518104 
4.7883448e+2, 2.5169805e+2, -508095.9, -598684.25, -13244.782, 0.00040832532, 0.0013348769, -506199.13, -32840.24, 0.0, 5.007537, 4.949338 
4.788067e+2, 2.5664774e+2, -462066.9, -550656.56, -13119.691, 0.00039757526, -0.0020825737, -460164.78, -35312.887, 0.0, 5.0062976, 4.949398 
4.787795e+2, 2.6159614e+2, -419583.4, -510667.6, -12112.523, 0.00039105042, 0.0012508591, -418000.2, -41642.82, 0.0, 5.0050626, 4.94662 
4.787531e+2, 2.665433e+2, -373085.0, -461764.5, -11920.995, 0.00028409105, -0.0021234993, -371510.47, -43635.207, 0.0, 5.0038443, 4.9469543 
4.7872737e+2, 2.7148905e+2, -330909.7, -422728.44, -10687.4375, 0.00026880795, 0.0011714561, -329682.1, -50275.246, 0.0, 5.0026317, 4.9437876 
4.787027e+2, 2.7643353e+2, -283941.2, -372958.13, -10423.9795, 0.00045796327, -0.0023973174, -282736.8, -51786.02, 0.0, 5.0014386, 4.9443917 
4.786788e+2, 2.8137672e+2, -241749.58, -334152.47, -8955.022, 0.00050856866, 0.0016768686, -240889.72, -58381.797, 0.0, 5.000248, 4.941094 
4.7865623e+2, 2.8631863e+2, -194372.8, -283598.53, -8586.928, 0.00027366914, -0.0031941673, -193553.92, -59477.05, 0.0, 4.9990726, 4.9419465 
4.7863445e+2, 2.9125854e+2, -154169.88, -249683.39, -6948.413, 0.0003103014, 0.0010920253, -153667.03, -68001.36, 0.0, 4.9979067, 4.9368596 
4.7861433e+2, 2.9619643e+2, -106712.41, -199228.69, -6467.7627, 0.00090005965, -0.0008951624, -106262.43, -68988.09, 0.0, 4.996771, 4.937633 
4.78595e+2, 3.0114162e+2, -67369.38, -134674.25, -4706.693, 0.0010058203, 0.0017407835, -67041.83, -67041.83, 0.0, 4.995639, 4.9524236 
4.7857752e+2, 3.060949e+2, -68869.11, -132404.14, -4059.496, 0.00020049859, -0.005957741, -68610.78, -68610.78, 0.0, 4.994529, 4.953716 
4.7856113e+2, 3.1106612e+2, -31587.775, -39942.77, -2082.8984, 0.000057372898, 0.0031696851, -31097.303, -31097.303, 0.0, 4.993438, 4.988014 
4.7854725e+2, 3.160556e+2, -32153.1, -35889.625, -1236.9196, 0.0009546181, -0.0012787044, -31780.742, -31780.742, 0.0, 4.9923973, 4.989955 
4.8455334e+2, 1.22607484e+2, -1648284.0, -1739995.6, -836.67737, -0.002607864, -0.005453465, -1648276.4, 90170.15, 0.0, 5.0401087, 4.9801292 
4.8453802e+2, 1.2758882e+2, -1604840.4, -1697330.6, -1440.6388, 0.009426755, 0.0127634825, -1604817.9, 84811.66, 0.0, 5.0390577, 4.978613 
4.8451838e+2, 1.3256402e+2, -1560980.3, -1653642.3, -3793.383, -0.005584746, -0.012735336, -1560825.3, 80047.41, 0.0, 5.0379596, 4.9773674 
4.8449942e+2, 1.375427e+2, -1516497.1, -1608460.3, -4065.1729, 0.0005917365, -0.0018509949, -1516317.8, 75763.766, 0.0, 5.0368104, 4.976705 
4.844787e+2, 1.4251924e+2, -1473628.1, -1566611.0, -6186.941, 0.0028444598, 0.0054779095, -1473218.4, 70092.99, 0.0, 5.035647, 4.974909 
4.8445624e+2, 1.4749378e+2, -1429015.6, -1521060.8, -6398.558, 0.00057584024, -0.0010665641, -1428572.9, 65987.95, 0.0, 5.0344596, 4.97437 
4.8443267e+2, 1.5246736e+2, -1386093.6, -1479069.5, -8266.176, -0.00035107599, -0.0007379147, -1385364.4, 60455.45, 0.0, 5.0332665, 4.972636 
4.844081e+2, 1.5744023e+2, -1341440.8, -1433408.5, -8447.92, 0.00041254607, -0.001323285, -1340671.1, 56414.816, 0.0, 5.032058, 4.9721217 
4.8438254e+2, 1.624119e+2, -1298471.4, -1391214.3, -10006.64, 0.0007650284, 0.0020690006, -1297404.0, 50959.773, 0.0, 5.0308228, 4.970445 
4.8435593e+2, 1.6738236e+2, -1253852.9, -1345393.8, -10161.108, 0.00065953773, -0.0009720084, -1252738.6, 46914.59, 0.0, 5.0295496, 4.96999 
4.8432848e+2, 1.7235175e+2, -1211043.6, -1303408.4, -11472.3125, 0.00037400879, 0.0012526405, -1209640.0, 41313.02, 0.0, 5.0282674, 4.9682326 
4.843002e+2, 1.7732012e+2, -1166390.1, -1257434.3, -11614.73, -0.00019208352, -0.0005864247, -1164931.8, 37331.17, 0.0, 5.0269613, 4.967819 
4.842713e+2, 1.8228737e+2, -1123576.5, -1215537.5, -12673.84, -0.00024331753, 0.0019699568, -1121861.9, 31722.21, 0.0, 5.025678, 4.966004 
4.8424184e+2, 1.8725343e+2, -1078671.3, -1169305.5, -12816.586, 0.00043362955, -0.0009911931, -1076893.8, 28022.85, 0.0, 5.0244145, 4.965633 
4.842119e+2, 1.9221844e+2, -1035890.8, -1127531.4, -13605.581, 0.0006006261, 0.0014144, -1033913.5, 22345.941, 0.0, 5.023121, 4.9637456 
4.8418137e+2, 1.9718233e+2, -991068.94, -1081203.0, -13693.69, 0.00022782593, -0.0010994074, -989034.44, 18579.094, 0.0, 5.021784, 4.963416 
4.8415053e+2, 2.0214516e+2, -948351.56, -1039476.9, -14231.373, -0.00003531083, 0.0016593881, -946180.7, 12797.149, 0.0, 5.0204496, 4.961503 
4.8411942e+2, 2.0710681e+2, -903421.3, -993003.5, -14288.18, -0.000053841617, -0.00083600887, -901197.6, 9155.932, 0.0, 5.0191145, 4.961196 
4.8408818e+2, 2.1206738e+2, -860686.7, -951402.6, -14504.751, 0.000050246683, 0.0018660086, -858423.94, 3316.0298, 0.0, 5.0177917, 4.9591975 
4.8405686e+2, 2.170267e+2, -815561.0, -904727.6, -14566.296, 0.00043394824, -0.0012217512, -813241.75, -103.228645, 0.0, 5.0164857, 4.9589205 
4.840255e+2, 2.2198495e+2, -772817.1, -863232.8, -14540.099, 0.0005348572, 0.001442397, -770536.44, -5988.8276, 0.0, 5.0151663, 4.95685 
4.8399422e+2, 2.2694197e+2, -727669.7, -816440.3, -14565.193, 0.0003598383, -0.0013935047, -725341.0, -9372.313, 0.0, 5.0138297, 4.956601 
4.8396307e+2, 2.3189789e+2, -684964.6, -775075.6, -14271.024, 0.0003285141, 0.0014151625, -682758.56, -15357.834, 0.0, 5.0124955, 4.954458 
4.839322e+2, 2.3685253e+2, -639652.2, -728064.44, -14244.499, 0.0006104918, -0.001791507, -637413.9, -18568.748, 0.0, 5.0111713, 4.954253 
4.8390162e+2, 2.4180606e+2, -596952.1, -686900.3, -13668.256, 0.0007020623, 0.0015076486, -594921.0, -24620.56, 0.0, 5.0098515, 4.9519954 
4.8387146e+2, 2.4675828e+2, -551439.94, -639606.5, -13593.33, 0.00045578738, -0.0018911004, -549391.75, -27623.168, 0.0, 5.0085435, 4.951855 
4.8384178e+2, 2.5170934e+2, -508850.5, -598873.3, -12800.152, 0.0003852916, 0.0014480534, -507065.84, -33817.496, 0.0, 5.007235, 4.949408 
4.8381272e+2, 2.566591e+2, -463001.28, -550920.4, -12675.122, 0.00048268551, -0.0019687389, -461210.4, -36469.695, 0.0, 5.0059295, 4.9494705 
4.8378423e+2, 2.616076e+2, -420665.1, -510939.3, -11644.91, 0.0005030506, 0.0013742988, -419187.16, -42941.766, 0.0, 5.0046306, 4.9467173 
4.837566e+2, 2.6655483e+2, -374329.72, -462100.88, -11449.067, 0.00022596447, -0.0019654594, -372860.88, -45098.52, 0.0, 5.0033517, 4.9470544 
4.837296e+2, 2.715007e+2, -332296.06, -423062.72, -10191.855, 0.00014195289, 0.001361869, -331165.72, -51872.832, 0.0, 5.002075, 4.9439154 
4.8370376e+2, 2.764453e+2, -285507.03, -373359.44, -9919.297, 0.00051512866, -0.002195969, -284400.97, -53565.395, 0.0, 5.000815, 4.9445243 
4.8367864e+2, 2.813886e+2, -243473.4, -334569.3, -8426.525, 0.0006503359, 0.0018731399, -242700.5, -60309.15, 0.0, 4.9995565, 4.9412484 
4.8365483e+2, 2.863307e+2, -196268.98, -284079.9, -8056.449, 0.0002530747, -0.003015523, -195535.94, -61577.13, 0.0, 4.998316, 4.942105 
4.836319e+2, 2.912708e+2, -156200.88, -250138.88, -6382.189, 0.00024045094, 0.0012711877, -155769.25, -70223.27, 0.0, 4.997085, 4.9370537 
4.836106e+2, 2.9620886e+2, -108899.33, -199727.11, -5896.81, 0.001053424, -0.0006991177, -108518.09, -71365.4, 0.0, 4.995887, 4.9378366 
4.8359013e+2, 3.0115426e+2, -69704.61, -135184.23, -4133.249, 0.0012689407, 0.0019320865, -69444.734, -69444.734, 0.0, 4.994688, 4.9526486 
4.8357147e+2, 3.061078e+2, -71407.69, -132990.28, -3480.3472, 0.0002582751, -0.005820207, -71211.62, -71211.62, 0.0, 4.9935017, 4.953946 
4.8355392e+2, 3.1107923e+2, -34293.69, -40570.297, -1477.4651, -0.000019875306, 0.0032736226, -33963.297, -33963.297, 0.0, 4.9923377, 4.988255 
4.8353902e+2, 3.1606898e+2, -35026.344, -36586.51, -627.01886, 0.0009793789, -0.00096220424, -34805.586, -34805.586, 0.0, 4.9912357, 4.990196 
4.8959357e+2, 1.22622415e+2, -1648353.8, -1740852.3, -1208.6716, -0.0014820272, -0.0025194138, -1648338.0, 89963.945, 0.0, 5.0402603, 4.979775 
4.89577e+2, 1.2760326e+2, -1604819.5, -1697866.9, -1767.7825, 0.008876519, 0.013191602, -1604786.0, 84703.99, 0.0, 5.03918, 4.9783783 
4.895564e+2, 1.3257855e+2, -1561037.1, -1654238.5, -4199.7363, -0.0047017806, -0.008983681, -1560848.3, 79883.69, 0.0, 5.0380597, 4.9771237 
4.8953614e+2, 1.3755666e+2, -1516597.3, -1609078.9, -4496.38, -0.0000600699, -0.0013382349, -1516379.3, 75566.9, 0.0, 5.0368958, 4.976461 
4.8951423e+2, 1.4253286e+2, -1473660.3, -1567071.5, -6661.4, 0.0018441943, 0.004643033, -1473187.6, 69991.57, 0.0, 5.0357275, 4.974719 
4.8949063e+2, 1.4750727e+2, -1429032.5, -1521512.6, -6891.0776, 0.00050373154, -0.0011858153, -1428521.9, 65908.055, 0.0, 5.034545, 4.9741807 
4.8946592e+2, 1.5248069e+2, -1386101.8, -1479464.0, -8793.12, 0.000007057428, -0.0005952848, -1385280.8, 60409.46, 0.0, 5.033343, 4.9724708 
4.8944014e+2, 1.5745337e+2, -1341512.4, -1433832.1, -8993.176, 0.0006416551, -0.0014483791, -1340644.5, 56313.3, 0.0, 5.032112, 4.9719567 
4.8941326e+2, 1.6242486e+2, -1298541.6, -1391573.0, -10617.34, 0.00060546334, 0.001776753, -1297345.3, 50891.684, 0.0, 5.030864, 4.970309 
4.8938534e+2, 1.6739519e+2, -1253937.9, -1345757.5, -10794.953, -0.00016979028, -0.0012953406, -1252685.8, 46841.754, 0.0, 5.029585, 4.969854 
4.8935664e+2, 1.7236444e+2, -1211109.1, -1303750.3, -12147.313, -0.0003643395, 0.000759807, -1209542.8, 41285.855, 0.0, 5.028306, 4.968103 
4.8932713e+2, 1.7733264e+2, -1166412.6, -1257748.4, -12307.001, 0.000029858142, -0.0014153724, -1164783.4, 37356.566, 0.0, 5.027013, 4.9676924 
4.8929697e+2, 1.8229976e+2, -1123632.3, -1215894.6, -13345.032, 0.00036986568, 0.0010725391, -1121740.9, 31721.611, 0.0, 5.025724, 4.9658656 
4.8926622e+2, 1.872657e+2, -1078805.6, -1169697.4, -13477.979, 0.00074594765, -0.0016318666, -1076849.1, 27947.203, 0.0, 5.024432, 4.9654956 
4.892349e+2, 1.9223066e+2, -1035994.75, -1127782.0, -14313.121, 0.00046727064, 0.0011785063, -1033814.6, 22325.504, 0.0, 5.0231223, 4.963664 
4.8920298e+2, 1.971945e+2, -991176.5, -1081446.8, -14404.665, -0.00052527065, -0.00075312925, -988933.6, 18560.82, 0.0, 5.021782, 4.963338 
4.8917085e+2, 2.0215729e+2, -948403.7, -1039618.94, -14947.877, -0.00078194943, 0.0021403753, -946016.6, 12842.512, 0.0, 5.0204515, 4.9614577 
4.8913845e+2, 2.0711887e+2, -903435.4, -993118.6, -15021.895, 0.000039431558, -0.00080125575, -900986.1, 9249.268, 0.0, 5.0191274, 4.961155 
4.8910594e+2, 2.1207935e+2, -860708.1, -951530.6, -15231.838, 0.00048414958, 0.0016058214, -858221.6, 3400.7354, 0.0, 5.017804, 4.959152 
4.8907328e+2, 2.170386e+2, -815631.06, -904882.2, -15292.608, 0.00053887104, -0.001557224, -813083.5, -61.841965, 0.0, 5.016482, 4.9588733 
4.8904058e+2, 2.2199684e+2, -772872.5, -863301.25, -15287.871, 0.00040460823, 0.0011851616, -770357.9, -5926.803, 0.0, 5.015151, 4.9568377 
4.890079e+2, 2.269539e+2, -727733.06, -816507.1, -15314.087, 0.00012869906, -0.0013517186, -725165.56, -9313.489, 0.0, 5.0138106, 4.956591 
4.8897544e+2, 2.3190983e+2, -684987.7, -775045.94, -15014.4375, 0.000113912145, 0.0016503684, -682550.5, -15266.582, 0.0, 5.012475, 4.9544826 
4.8894328e+2, 2.368645e+2, -639666.2, -728025.06, -14995.622, 0.0005959923, -0.0015200565, -637190.6, -18462.639, 0.0, 5.011153, 4.9542794 
4.889114e+2, 2.4181806e+2, -596948.06, -686811.25, -14416.751, 0.00079343957, 0.0017634999, -594691.8, -24508.889, 0.0, 5.009831, 4.9520397 
4.8887992e+2, 2.4677032e+2, -551455.75, -639524.94, -14347.845, 0.0004895703, -0.0017259944, -549177.25, -27526.514, 0.0, 5.008516, 4.9519 
4.888489e+2, 2.517214e+2, -508851.6, -598729.5, -13555.703, 0.00039295357, 0.0015559956, -506851.56, -33721.555, 0.0, 5.0072017, 4.949477 
4.888186e+2, 2.5667122e+2, -463006.16, -550773.5, -13437.656, 0.0005590423, -0.0018508658, -460994.88, -36373.164, 0.0, 5.005894, 4.949542 
4.887888e+2, 2.6161984e+2, -420647.7, -510723.34, -12392.747, 0.0005868012, 0.0015204778, -418973.78, -42848.19, 0.0, 5.004592, 4.946814 
4.8875985e+2, 2.6656717e+2, -374322.94, -461883.16, -12200.656, 0.00015964848, -0.0017542264, -372654.7, -45013.16, 0.0, 5.003308, 4.947154 
4.887316e+2, 2.7151316e+2, -332265.9, -422766.7, -10934.134, 0.000026360456, 0.0016206652, -330963.6, -51792.66, 0.0, 5.002027, 4.944044 
4.887045e+2, 2.764579e+2, -285479.66, -373053.8, -10666.278, 0.0005991772, -0.001940578, -284199.25, -53486.97, 0.0, 5.0007634, 4.9446583 
4.8867816e+2, 2.8140134e+2, -243431.3, -334211.13, -9163.675, 0.0008169287, 0.0021112566, -242515.53, -60248.848, 0.0, 4.999502, 4.9414024 
4.8865306e+2, 2.863436e+2, -196232.44, -283718.03, -8798.196, 0.00021577702, -0.0028006474, -195356.4, -61523.766, 0.0, 4.998258, 4.9422617 
4.886289e+2, 2.9128385e+2, -156130.8, -249679.47, -7097.554, 0.00012793293, 0.0014792542, -155595.38, -70177.234, 0.0, 4.997024, 4.937246 
4.8860645e+2, 2.9622215e+2, -108828.984, -199247.19, -6610.6577, 0.0011874284, -0.0004788473, -108348.22, -71325.31, 0.0, 4.9958224, 4.938038 
4.8858482e+2, 3.0116773e+2, -69621.23, -134650.44, -4841.961, 0.0015434591, 0.0021411737, -69262.68, -69262.68, 0.0, 4.9946194, 4.9528728 
4.8856494e+2, 3.0612147e+2, -71331.28, -132446.47, -4192.741, 0.00034358524, -0.005681107, -71044.984, -71044.984, 0.0, 4.9934278, 4.954176 
4.8854622e+2, 3.1109315e+2, -34228.83, -40026.668, -2140.482, -0.00009804233, 0.003377678, -33524.223, -33524.223, 0.0, 4.9922585, 4.988491 
4.885302e+2, 3.1608313e+2, -34981.48, -36052.47, -1279.6318, 0.0008859566, -0.000603829, -34129.816, -34129.816, 0.0, 4.9911494, 4.9904323 
4.9463454e+2, 1.2263881e+2, -1644850.8, -1739873.4, -494.72537, -0.0011792851, -0.0026241161, -1644848.1, 93292.28, 0.0, 5.0415998, 4.9794416 
4.946166e+2, 1.276192e+2, -1601462.4, -1696731.1, -1015.30084, 0.00688894, 0.010955744, -1601451.5, 87881.14, 0.0, 5.040422, 4.978147 
4.9459502e+2, 1.3259466e+2, -1558010.3, -1653403.5, -3509.0764, -0.0047537894, -0.006887989, -1557881.3, 82692.02, 0.0, 5.039221, 4.9768353 
4.9457365e+2, 1.3757238e+2, -1513789.6, -1608357.0, -3838.5496, 0.00045351958, -0.00017485843, -1513634.1, 78157.766, 0.0, 5.037985, 4.976172 
4.9455047e+2, 1.4254828e+2, -1470914.9, -1566219.6, -6023.7124, 0.002401399, 0.0054659606, -1470535.6, 72492.3, 0.0, 5.0367613, 4.9745026 
4.9452567e+2, 1.4752252e+2, -1426417.9, -1520728.5, -6274.1055, 0.0007349944, 0.000106498104, -1426002.3, 68278.016, 0.0, 5.035536, 4.973964 
4.9449968e+2, 1.5249574e+2, -1383644.6, -1478717.1, -8248.797, -0.0000064446713, 0.0007795351, -1382934.3, 62608.414, 0.0, 5.034272, 4.972274 
4.9447262e+2, 1.5746818e+2, -1339305.4, -1433209.3, -8470.67, 0.00040916074, -0.00044047774, -1338547.4, 58265.45, 0.0, 5.0329576, 4.9717607 
4.9444446e+2, 1.6243947e+2, -1296525.8, -1391015.4, -10140.618, 0.00043969482, 0.002572942, -1295449.8, 52644.48, 0.0, 5.031638, 4.9701266 
4.9441522e+2, 1.674096e+2, -1252096.4, -1345285.0, -10347.95, 0.000018406987, -0.0005149948, -1250961.1, 48425.586, 0.0, 5.0303006, 4.9696727 
4.943852e+2, 1.7237864e+2, -1209364.5, -1303275.5, -11716.77, -0.00001169132, 0.0014248563, -1207924.8, 42764.973, 0.0, 5.0289783, 4.9679446 
4.943544e+2, 1.7734668e+2, -1164746.0, -1257306.8, -11895.212, 0.0003698414, -0.0009833244, -1163241.8, 38761.156, 0.0, 5.027658, 4.9675374 
4.9432293e+2, 1.8231365e+2, -1122070.8, -1215390.6, -12964.47, 0.0004132542, 0.0014991879, -1120303.3, 33023.484, 0.0, 5.0263095, 4.965761 
4.9429074e+2, 1.8727952e+2, -1077534.5, -1169329.5, -13072.403, 0.00013939256, -0.00094740273, -1075709.3, 28952.178, 0.0, 5.024917, 4.9653935 
4.9425805e+2, 1.9224437e+2, -1034911.7, -1127426.5, -13901.434, -0.00020545606, 0.0017888532, -1032868.0, 23137.95, 0.0, 5.0235267, 4.963597 
4.9422482e+2, 1.972081e+2, -990258.56, -1081167.0, -13982.104, -0.0005754919, -0.0006144439, -988156.6, 19204.479, 0.0, 5.022129, 4.9632726 
4.9419138e+2, 2.0217077e+2, -947626.5, -1039424.3, -14499.173, -0.00050233456, 0.0019441971, -945390.9, 13335.893, 0.0, 5.0207534, 4.961385 
4.9415764e+2, 2.0713226e+2, -902740.75, -992963.8, -14591.236, 0.00029626332, -0.0011505424, -900439.7, 9664.392, 0.0, 5.019401, 4.961082 
4.9412376e+2, 2.120927e+2, -860113.8, -951337.4, -14831.915, 0.0005351903, 0.001343672, -857762.94, 3728.7927, 0.0, 5.0180254, 4.9591174 
4.9408966e+2, 2.1705195e+2, -815283.75, -904801.56, -14880.675, 0.00015231984, -0.001409937, -812874.94, 16.13521, 0.0, 5.0166163, 4.9588404 
4.940556e+2, 2.2201018e+2, -772692.75, -863207.5, -14860.764, -0.000072606104, 0.0015148992, -770315.3, -6014.817, 0.0, 5.0152082, 4.956845 
4.940216e+2, 2.2696723e+2, -727727.06, -816488.94, -14867.263, 0.000046193807, -0.0011461367, -725303.06, -9581.652, 0.0, 5.013806, 4.9566007 
4.939878e+2, 2.3192316e+2, -685131.3, -775076.56, -14537.098, 0.00026063446, 0.0017395086, -682840.1, -15686.902, 0.0, 5.0124135, 4.9545007 
4.9395424e+2, 2.3687784e+2, -639946.25, -728120.0, -14518.443, 0.0007208923, -0.0015229636, -637617.25, -19019.916, 0.0, 5.0110435, 4.954297 
4.9392104e+2, 2.4183142e+2, -597356.06, -686906.5, -13943.606, 0.00088193995, 0.0017335385, -595235.2, -25183.037, 0.0, 5.009665, 4.9520826 
4.938882e+2, 2.4678372e+2, -552062.8, -639706.06, -13873.274, 0.0005136104, -0.0016760557, -549919.2, -28399.66, 0.0, 5.008278, 4.951945 
4.9385586e+2, 2.5173488e+2, -509612.78, -598913.2, -13061.463, 0.00035598432, 0.001685325, -507741.56, -34743.297, 0.0, 5.0068955, 4.9495506 
4.9382418e+2, 2.5668478e+2, -463929.7, -551023.0, -12936.454, 0.00050652405, -0.001631543, -462048.78, -37559.6, 0.0, 5.005528, 4.9496183 
4.937931e+2, 2.6163346e+2, -421713.72, -510976.47, -11867.134, 0.0005602457, 0.0017866688, -420162.97, -44170.74, 0.0, 5.0041633, 4.946916 
4.9376282e+2, 2.665809e+2, -375574.34, -462210.97, -11668.346, 0.0002047674, -0.0015206095, -374030.34, -46523.12, 0.0, 5.0028105, 4.9472594 
4.9373326e+2, 2.71527e+2, -333672.13, -423098.72, -10375.46, 0.00009737121, 0.0018282094, -332484.13, -53448.547, 0.0, 5.0014615, 4.9441767 
4.9370486e+2, 2.7647188e+2, -287055.72, -373449.56, -10102.231, 0.0006301069, -0.001751379, -285890.16, -55314.508, 0.0, 5.000134, 4.9447947 
4.9367723e+2, 2.8141543e+2, -245161.97, -334628.4, -8578.249, 0.00081016216, 0.0022952124, -244346.89, -62218.215, 0.0, 4.998808, 4.941558 
4.9365088e+2, 2.8635785e+2, -198135.78, -284202.22, -8210.999, 0.00016463117, -0.0025777004, -197359.44, -63666.29, 0.0, 4.997499, 4.94242 
4.9362543e+2, 2.9129827e+2, -158164.63, -250119.16, -6471.6563, 0.00007673014, 0.001728709, -157711.39, -72434.41, 0.0, 4.9961987, 4.937447 
4.9360174e+2, 2.9623678e+2, -111030.3, -199731.3, -5972.8755, 0.001245236, -0.00023235858, -110629.91, -73750.164, 0.0, 4.9949293, 4.93825 
4.9357888e+2, 3.011826e+2, -71980.31, -135157.77, -4202.6123, 0.0016725201, 0.002400508, -71701.98, -71701.98, 0.0, 4.993658, 4.953103 
4.9355778e+2, 3.0613658e+2, -73883.766, -133028.83, -3554.15, 0.00038347612, -0.0053579537, -73670.95, -73670.95, 0.0, 4.992395, 4.9544106 
4.9353787e+2, 3.1110847e+2, -36951.516, -40657.727, -1476.3342, -0.0001777203, 0.0036715146, -36435.324, -36435.324, 0.0, 4.991153, 4.988733 
4.9352065e+2, 3.1609866e+2, -37893.824, -36762.977, -604.80096, 0.0007179927, -0.00046361916, -36500.457, -36500.457, 0.0, 4.989974, 4.9906745 
4.9967623e+2, 1.2265618e+2, -1645010.4, -1740710.4, -1186.0275, -0.00007192118, -0.0014150529, -1644995.6, 92973.41, 0.0, 5.0417075, 4.9791155 
4.996568e+2, 1.2763591e+2, -1601498.9, -1697314.4, -1677.2535, 0.004735959, 0.008081713, -1601469.5, 87698.0, 0.0, 5.040529, 4.9779043 
4.9963418e+2, 1.3261156e+2, -1558109.0, -1654149.6, -4201.857, -0.0048331823, -0.005251551, -1557925.5, 82481.01, 0.0, 5.0393343, 4.976536 
4.9961168e+2, 1.3758892e+2, -1513849.5, -1609083.5, -4506.484, 0.0011669426, 0.0008436601, -1513636.6, 77992.66, 0.0, 5.0381107, 4.9758725 
4.9958727e+2, 1.4256454e+2, -1470908.3, -1566748.6, -6676.7813, 0.003154438, 0.006299893, -1470445.3, 72423.14, 0.0, 5.036874, 4.974275 
4.995612e+2, 1.4753859e+2, -1426521.6, -1521310.9, -6924.2935, 0.0009423328, 0.0014071419, -1426018.4, 68103.984, 0.0, 5.0356107, 4.973737 
4.9953386e+2, 1.5251161e+2, -1383759.5, -1479251.8, -8944.42, -0.00011852504, 0.0021873657, -1382929.0, 62457.883, 0.0, 5.034331, 4.97207 
4.995055e+2, 1.5748382e+2, -1339404.1, -1433734.6, -9145.735, 0.00013004351, 0.00064312626, -1338525.6, 58134.03, 0.0, 5.033021, 4.9715576 
4.9947602e+2, 1.6245487e+2, -1296597.8, -1391513.9, -10818.679, 0.00033186236, 0.00347613, -1295380.3, 52563.15, 0.0, 5.0317073, 4.96993 
4.994455e+2, 1.674248e+2, -1252149.1, -1345770.4, -11019.317, 0.00043697367, 0.00039997624, -1250869.6, 48368.285, 0.0, 5.030375, 4.9694777 
4.9941418e+2, 1.7239368e+2, -1209411.3, -1303693.9, -12372.943, 0.0005480662, 0.0022856905, -1207814.5, 42728.26, 0.0, 5.029041, 4.967778 
4.9938202e+2, 1.7736153e+2, -1164875.3, -1257757.4, -12543.053, 0.0006698194, -0.00026106744, -1163211.3, 38646.766, 0.0, 5.0276904, 4.967374 
4.9934912e+2, 1.8232837e+2, -1122157.6, -1215672.6, -13660.696, 0.0002736003, 0.002256642, -1120202.9, 32980.1, 0.0, 5.0263247, 4.965663 
4.9931547e+2, 1.8729416e+2, -1077627.1, -1169608.5, -13778.837, -0.00066216517, 0.000037789523, -1075607.4, 28910.969, 0.0, 5.0249295, 4.965297 
4.992814e+2, 1.9225891e+2, -1034953.5, -1127621.3, -14625.167, -0.00094970176, 0.0025780278, -1032700.1, 23163.553, 0.0, 5.0235434, 4.963527 
4.992469e+2, 1.972225e+2, -990257.44, -1081335.0, -14727.621, -0.00040427994, -0.00054470514, -987935.1, 19284.777, 0.0, 5.022159, 4.963206 
4.9921206e+2, 2.0218506e+2, -947654.1, -1039641.4, -15227.665, 0.00004353576, 0.0015901298, -945198.9, 13387.717, 0.0, 5.020781, 4.9613028 
4.9917698e+2, 2.0714645e+2, -902833.25, -993213.1, -15316.128, 0.00053241814, -0.0015274207, -900308.25, 9656.682, 0.0, 5.0194063, 4.960999 
4.9914166e+2, 2.1210685e+2, -860180.1, -951456.9, -15594.738, 0.00040980236, 0.0011772835, -857589.3, 3763.8525, 0.0, 5.0180154, 4.959086 
4.991061e+2, 2.1706615e+2, -815364.1, -904921.6, -15646.79, -0.00037959518, -0.001062247, -812709.1, 43.252365, 0.0, 5.0166, 4.9588113 
4.9907064e+2, 2.2202438e+2, -772719.8, -863212.1, -15629.054, -0.0006258542, 0.0020499995, -770096.56, -5934.8237, 0.0, 5.015192, 4.9568553 
4.990353e+2, 2.269814e+2, -727726.3, -816475.2, -15649.941, 0.000021686572, -0.00087247835, -725047.44, -9464.898, 0.0, 5.013798, 4.9566135 
4.9900013e+2, 2.3193733e+2, -685125.25, -775056.44, -15311.813, 0.0005126128, 0.0018025065, -682589.75, -15575.407, 0.0, 5.0124073, 4.954515 
4.989652e+2, 2.36892e+2, -639968.7, -728116.5, -15297.085, 0.00086045614, -0.0015773912, -637389.5, -18931.035, 0.0, 5.011028, 4.95431 
4.989306e+2, 2.4184561e+2, -597363.9, -686831.06, -14737.733, 0.0009312848, 0.0016596424, -594998.7, -25085.596, 0.0, 5.0096416, 4.952124 
4.988964e+2, 2.46798e+2, -552082.1, -639630.3, -14673.012, 0.0005089568, -0.001612697, -549688.44, -28308.383, 0.0, 5.0082493, 4.9519887 
4.9886265e+2, 2.5174922e+2, -509604.34, -598755.0, -13849.382, 0.00028581952, 0.0018689019, -507502.44, -34644.29, 0.0, 5.006863, 4.949625 
4.988296e+2, 2.5669917e+2, -463920.53, -550857.8, -13730.666, 0.0003917338, -0.0013421776, -461803.5, -37455.29, 0.0, 5.0054946, 4.9496956 
4.9879715e+2, 2.6164794e+2, -421680.75, -510742.3, -12655.919, 0.0004750905, 0.0021235412, -419917.22, -44066.887, 0.0, 5.004127, 4.9470186 
4.9876553e+2, 2.665955e+2, -375551.75, -461974.9, -12466.029, 0.0002696727, -0.0012516214, -373789.53, -46425.176, 0.0, 5.00277, 4.947365 
4.9873465e+2, 2.715417e+2, -333629.56, -422792.78, -11162.135, 0.00021400455, 0.0020450624, -332253.44, -53361.863, 0.0, 5.001416, 4.9443088 
4.9870494e+2, 2.7648672e+2, -287016.94, -373137.16, -10893.423, 0.00061014254, -0.0015547686, -285660.4, -55230.055, 0.0, 5.000086, 4.9449306 
4.9867597e+2, 2.8143045e+2, -245110.84, -334268.1, -9360.666, 0.0007039388, 0.00249517, -244138.67, -62156.69, 0.0, 4.9987564, 4.941712 
4.986483e+2, 2.86373e+2, -198092.47, -283840.13, -8998.166, 0.00008542548, -0.0023135687, -197158.39, -63613.492, 0.0, 4.9974437, 4.942576 
4.9862155e+2, 2.913136e+2, -158077.22, -249632.22, -7234.0356, 0.000027812997, 0.0020316625, -157509.16, -72382.12, 0.0, 4.9961395, 4.937649 
4.9859658e+2, 2.962523e+2, -110940.76, -199217.95, -6736.578, 0.0012356224, 0.00005998831, -110429.64, -73701.94, 0.0, 4.9948664, 4.9384637 
4.9857247e+2, 3.0119833e+2, -71886.56, -134612.28, -4964.963, 0.0016988183, 0.0027169401, -71496.0, -71496.0, 0.0, 4.993591, 4.9533315 
4.9855012e+2, 3.0615255e+2, -73795.72, -132479.94, -4322.437, 0.00036943395, -0.004917837, -73479.055, -73479.055, 0.0, 4.992325, 4.954641 
4.9852896e+2, 3.1112468e+2, -36870.973, -40105.234, -2195.7424, -0.00029879948, 0.0040871743, -35761.125, -35761.125, 0.0, 4.9910784, 4.9889703 
4.985106e+2, 3.161151e+2, -37833.566, -36216.91, -1314.292, 0.00043776692, -0.00039090408, -35482.27, -35482.27, 0.0, 4.9898915, 4.990913 
5.0471854e+2, 1.2267463e+2, -1641590.6, -1739761.5, -788.9346, -0.00029475926, -0.002196473, -1641584.3, 96204.38, 0.0, 5.0430183, 4.9787865 
5.0469786e+2, 1.2765387e+2, -1598163.0, -1696254.0, -1264.2413, 0.004007281, 0.004920758, -1598146.8, 90845.36, 0.0, 5.0417795, 4.977644 
5.0467426e+2, 1.3262962e+2, -1554875.0, -1653095.1, -3800.9727, -0.0036289599, -0.004634803, -1554728.1, 85501.62, 0.0, 5.0405407, 4.9762974 
5.0465035e+2, 1.376065e+2, -1510725.9, -1608089.9, -4076.4658, 0.0010991599, -0.00080429733, -1510555.5, 80901.13, 0.0, 5.0392823, 4.975634 
5.046246e+2, 1.425818e+2, -1467947.9, -1565770.1, -6291.4673, 0.002465069, 0.0038199457, -1467544.9, 75153.836, 0.0, 5.0379763, 4.9740677 
5.045972e+2, 1.4755572e+2, -1423876.5, -1520491.5, -6531.943, 0.00036441348, -0.0003214954, -1423436.9, 70517.336, 0.0, 5.036608, 4.9735293 
5.045686e+2, 1.5252863e+2, -1381239.3, -1478349.4, -8528.54, -0.0003214226, 0.0009650066, -1380495.9, 64724.066, 0.0, 5.035256, 4.9719276 
5.045389e+2, 1.575007e+2, -1337016.5, -1432900.3, -8693.857, 0.00048863667, -0.00037928557, -1336234.6, 60259.215, 0.0, 5.033902, 4.971415 
5.0450814e+2, 1.624716e+2, -1294372.0, -1390822.3, -10352.132, 0.00077552494, 0.0025926286, -1293273.5, 54505.59, 0.0, 5.0325465, 4.969762 
5.0447625e+2, 1.6744138e+2, -1250046.4, -1345139.5, -10533.969, 0.00048797857, -0.0003669751, -1248893.5, 50181.785, 0.0, 5.031173, 4.9693103 
5.0444347e+2, 1.7241013e+2, -1207459.0, -1303053.5, -11907.497, 0.00031618035, 0.001785442, -1205998.1, 44383.426, 0.0, 5.0297704, 4.9676485 
5.044099e+2, 1.7737788e+2, -1163215.3, -1257256.3, -12052.267, 0.00029066674, -0.00034605866, -1161695.3, 40002.473, 0.0, 5.0283203, 4.9672465 
5.043756e+2, 1.823446e+2, -1120692.6, -1215205.8, -13165.7295, -0.0000033727365, 0.002292, -1118892.9, 34130.914, 0.0, 5.026875, 4.9655623 
5.043405e+2, 1.8731028e+2, -1076332.0, -1169225.3, -13284.774, -0.00058188563, -0.00013069937, -1074469.5, 29890.676, 0.0, 5.025422, 4.965197 
5.0430506e+2, 1.922749e+2, -1033794.75, -1127319.3, -14117.199, -0.00064440287, 0.0022837806, -1031710.3, 23996.428, 0.0, 5.0239925, 4.9634204 
5.042692e+2, 1.9723837e+2, -989178.56, -1081070.9, -14242.512, -0.000037367205, -0.0008794319, -987021.7, 20042.676, 0.0, 5.022581, 4.9631 
5.0423294e+2, 2.0220086e+2, -946680.94, -1039328.1, -14770.68, 0.00016436142, 0.0014635561, -944383.06, 14048.862, 0.0, 5.0211453, 4.961241 
5.0419635e+2, 2.0716225e+2, -902132.6, -993024.25, -14839.896, 0.000029633176, -0.0011245674, -899771.06, 10039.56, 0.0, 5.0196757, 4.96094 
5.0415957e+2, 2.1212262e+2, -859656.25, -951242.9, -15112.142, -0.00022321135, 0.0017819054, -857227.1, 3971.8955, 0.0, 5.018201, 4.959075 
5.041227e+2, 2.1708186e+2, -815031.7, -904794.7, -15145.987, -0.00049408915, -0.00067538803, -812544.94, 53.462963, 0.0, 5.0167184, 4.9588017 
5.040858e+2, 2.2204007e+2, -772542.8, -863158.7, -15092.847, -0.00041555564, 0.0022088704, -770095.06, -6087.0845, 0.0, 5.0152564, 4.9568453 
5.04049e+2, 2.2699705e+2, -727652.0, -816474.0, -15124.512, 0.00028744547, -0.00094066415, -725147.25, -9717.947, 0.0, 5.0138273, 4.9566016 
5.040124e+2, 2.3195295e+2, -685163.0, -775048.9, -14800.321, 0.0006831653, 0.0016941132, -682788.75, -15927.48, 0.0, 5.0123854, 4.9545283 
5.0397605e+2, 2.3690768e+2, -640219.9, -728204.0, -14780.836, 0.000710645, -0.0014382487, -637803.1, -19497.943, 0.0, 5.01093, 4.9543247 
5.0394e+2, 2.4186133e+2, -597771.6, -686899.1, -14215.016, 0.00065899116, 0.001980362, -595559.4, -25799.879, 0.0, 5.00947, 4.9521785 
5.039044e+2, 2.4681374e+2, -552675.75, -639773.56, -14136.47, 0.0004212332, -0.0012091005, -550438.8, -29213.016, 0.0, 5.0080094, 4.952047 
5.0386924e+2, 2.5176504e+2, -510353.38, -598919.2, -13275.952, 0.00032076723, 0.0022527513, -508406.16, -35702.895, 0.0, 5.0065584, 4.9497046 
5.038348e+2, 2.567151e+2, -464828.2, -551088.94, -13149.056, 0.00047885205, -0.0011378992, -462868.34, -38675.652, 0.0, 5.005132, 4.9497766 
5.03801e+2, 2.616639e+2, -422736.47, -510991.1, -12061.484, 0.0005725341, 0.002208291, -421117.75, -45423.66, 0.0, 5.003702, 4.9471207 
5.0376797e+2, 2.6661158e+2, -376798.28, -462303.38, -11872.915, 0.00029686847, -0.0011785437, -375180.28, -47973.063, 0.0, 5.002275, 4.9474688 
5.0373566e+2, 2.7155787e+2, -335031.75, -423120.22, -10542.424, 0.00018438262, 0.0021384028, -333787.6, -55054.223, 0.0, 5.000852, 4.944442 
5.0370455e+2, 2.7650303e+2, -288592.72, -373529.25, -10267.728, 0.00054722984, -0.0013794207, -287369.1, -57098.31, 0.0, 4.9994564, 4.9450684 
5.0367427e+2, 2.814469e+2, -246845.02, -334677.7, -8714.485, 0.0006456801, 0.0027327721, -245988.73, -64167.707, 0.0, 4.9980597, 4.941871 
5.0364524e+2, 2.863896e+2, -200010.84, -284319.97, -8347.098, 0.000111376066, -0.0020551248, -199192.39, -65809.93, 0.0, 4.996678, 4.942739 
5.0361717e+2, 2.913304e+2, -160135.77, -250065.03, -6543.176, 0.00007856056, 0.0022871422, -159662.19, -74699.29, 0.0, 4.9953027, 4.9378576 
5.0359094e+2, 2.962693e+2, -113178.24, -199699.97, -6038.699, 0.0011861514, 0.00029088862, -112758.81, -76197.305, 0.0, 4.993958, 4.9386835 
5.035655e+2, 3.0121556e+2, -74291.89, -135131.9, -4268.0405, 0.0016373964, 0.0029610826, -73993.945, -73993.945, 0.0, 4.9926124, 4.9535646 
5.035418e+2, 3.0617e+2, -76387.1, -133075.81, -3627.5947, 0.0004444549, -0.00455507, -76155.91, -76155.91, 0.0, 4.9912777, 4.9548764 
5.035194e+2, 3.1114236e+2, -39630.75, -40747.555, -1483.2798, -0.00022478607, 0.0044900826, -38604.246, -38604.246, 0.0, 4.989959, 4.989214 
5.034998e+2, 3.16133e+2, -40798.004, -36942.098, -594.1928, 0.00025662463, -0.00015315699, -36852.61, -36852.61, 0.0, 4.9886966, 4.9911585 
5.0976163e+2, 1.2269408e+2, -1641574.1, -1740520.8, -1294.3036, 0.0003620905, -0.0010498731, -1641557.1, 96041.52, 0.0, 5.043186, 4.978457 
5.097396e+2, 1.2767264e+2, -1598085.5, -1696859.8, -1744.6354, 0.0035329792, 0.0021273217, -1598054.8, 90754.234, 0.0, 5.0419407, 4.9773674 
5.097149e+2, 1.3264851e+2, -1554820.3, -1653627.8, -4319.368, -0.00221293, -0.0037475307, -1554631.9, 85413.43, 0.0, 5.0406756, 4.9760585 
5.0968957e+2, 1.3762487e+2, -1510801.1, -1608686.5, -4617.115, 0.0008381031, -0.0025171689, -1510583.9, 80692.65, 0.0, 5.0393734, 4.975395 
5.096624e+2, 1.4259987e+2, -1468036.5, -1566311.0, -6919.9463, 0.0015059401, 0.0011301186, -1467551.6, 74969.92, 0.0, 5.0380487, 4.973856 
5.0963366e+2, 1.4757365e+2, -1423953.4, -1521025.6, -7169.265, -0.00024319599, -0.0022416601, -1423426.8, 70351.805, 0.0, 5.036684, 4.973318 
5.0960374e+2, 1.5254642e+2, -1381216.5, -1478673.8, -9172.495, -0.0004324389, -0.00045111237, -1380360.8, 64684.773, 0.0, 5.0353303, 4.971787 
5.095728e+2, 1.5751837e+2, -1337008.3, -1433229.5, -9364.374, 0.00094123307, -0.0016191883, -1336105.4, 60215.04, 0.0, 5.0339713, 4.9712753 
5.095406e+2, 1.6248915e+2, -1294437.1, -1391242.4, -11048.53, 0.0012487213, 0.0014955928, -1293192.1, 54414.707, 0.0, 5.032602, 4.9695983 
5.095073e+2, 1.6745876e+2, -1250175.1, -1345587.6, -11221.423, 0.00042875364, -0.0013218042, -1248873.1, 50031.45, 0.0, 5.0312057, 4.969148 
5.094731e+2, 1.724274e+2, -1207558.3, -1303401.5, -12647.271, -0.00008043561, 0.0011277528, -1205917.5, 44294.6, 0.0, 5.029794, 4.9675245 
5.0943804e+2, 1.7739506e+2, -1163295.5, -1257591.0, -12798.696, -0.00020312655, -0.0005522781, -1161589.3, 39939.793, 0.0, 5.0283494, 4.967124 
5.0940233e+2, 1.8236169e+2, -1120729.8, -1215482.9, -13924.177, -0.00026711164, 0.0021778764, -1118725.9, 34130.21, 0.0, 5.0269113, 4.9654565 
5.093659e+2, 1.8732722e+2, -1076347.0, -1169491.0, -14057.183, -0.00026968805, -0.00055202894, -1074271.8, 29921.951, 0.0, 5.0254655, 4.965091 
5.09329e+2, 1.9229174e+2, -1033844.4, -1127628.6, -14866.873, -0.00009906294, 0.001774677, -1031544.1, 23997.387, 0.0, 5.0240293, 4.963303 
5.092917e+2, 1.9725509e+2, -989291.25, -1081408.1, -14983.2, 0.00031469375, -0.0012147437, -986915.5, 19985.066, 0.0, 5.022595, 4.9629836 
5.09254e+2, 2.0221755e+2, -946755.06, -1039507.7, -15546.554, 0.00011088747, 0.0015031584, -944218.6, 14050.23, 0.0, 5.021144, 4.9611855 
5.0921583e+2, 2.0717892e+2, -902224.8, -993205.44, -15618.294, -0.0006725772, -0.00046393543, -899618.4, 10029.148, 0.0, 5.019666, 4.960887 
5.0917757e+2, 2.121393e+2, -859685.4, -951296.0, -15906.962, -0.000959084, 0.0026065318, -857001.94, 4034.0493, 0.0, 5.0181932, 4.9590654 
5.0913924e+2, 2.1709847e+2, -815021.6, -904827.06, -15961.597, -0.00046012, -0.00028020496, -812269.06, 166.50735, 0.0, 5.0167236, 4.958793 
5.09101e+2, 2.2205664e+2, -772540.9, -863219.4, -15889.296, 0.000019919862, 0.0022727172, -769837.25, -5991.78, 0.0, 5.015264, 4.956826 
5.0906277e+2, 2.2701357e+2, -727688.4, -816559.4, -15922.282, 0.0006007638, -0.0010520166, -724921.8, -9654.506, 0.0, 5.013823, 4.9565797 
5.090247e+2, 2.3196949e+2, -685183.9, -775047.9, -15619.432, 0.00077529676, 0.0016145067, -682546.44, -15846.978, 0.0, 5.01237, 4.9545407 
5.0898683e+2, 2.3692426e+2, -640261.06, -728206.75, -15601.198, 0.00044335064, -0.0011688576, -637575.44, -19432.377, 0.0, 5.0109067, 4.9543395 
5.0894934e+2, 2.4187796e+2, -597770.25, -686786.56, -15041.282, 0.00027378762, 0.0024802831, -595297.4, -25700.512, 0.0, 5.0094423, 4.9522347 
5.0891227e+2, 2.4683045e+2, -552661.94, -639645.1, -14975.257, 0.00029781656, -0.0006644489, -550155.94, -29093.547, 0.0, 5.0079846, 4.952108 
5.088757e+2, 2.517818e+2, -510320.7, -598741.06, -14101.419, 0.00037918036, 0.0027237951, -508126.25, -35587.047, 0.0, 5.006532, 4.9497833 
5.0883985e+2, 2.567319e+2, -464811.34, -550915.2, -13983.148, 0.00061712856, -0.0009359268, -462597.44, -38569.4, 0.0, 5.0051003, 4.9498568 
5.0880456e+2, 2.616808e+2, -422709.6, -510768.2, -12901.197, 0.0007076277, 0.002238468, -420858.4, -45329.715, 0.0, 5.003665, 4.94722 
5.087701e+2, 2.6662853e+2, -376775.6, -462079.34, -12720.57, 0.00027961718, -0.0011361872, -374919.1, -47878.242, 0.0, 5.002236, 4.9475694 
5.0873643e+2, 2.7157497e+2, -334981.16, -422813.22, -11373.055, 0.00007124826, 0.0022273294, -333532.4, -54966.492, 0.0, 5.0008097, 4.9445734 
5.0870395e+2, 2.7652028e+2, -288552.22, -373217.0, -11101.59, 0.00044093342, -0.0011754414, -287120.75, -57018.824, 0.0, 4.9994082, 4.9452043 
5.0867224e+2, 2.814643e+2, -246790.14, -334307.88, -9542.532, 0.00058043934, 0.0030192418, -245761.75, -64111.08, 0.0, 4.998008, 4.942029 
5.0864184e+2, 2.8640717e+2, -199956.27, -283942.38, -9183.243, 0.00015664271, -0.0017662572, -198963.88, -65753.33, 0.0, 4.996624, 4.9429007 
5.0861245e+2, 2.913481e+2, -160032.13, -249560.78, -7357.568, 0.00014398228, 0.0025547924, -159431.5, -74642.234, 0.0, 4.995247, 4.9380646 
5.085848e+2, 2.9628727e+2, -113070.47, -199170.53, -6856.0728, 0.0010840534, 0.0005293913, -112527.945, -76142.195, 0.0, 4.9938993, 4.938901 
5.0855803e+2, 3.0123374e+2, -74181.56, -134578.36, -5081.143, 0.0014978299, 0.0032092242, -73757.08, -73757.08, 0.0, 4.9925504, 4.953794 
5.0853306e+2, 3.061884e+2, -76283.27, -132522.5, -4446.318, 0.00052284286, -0.0041961884, -75933.914, -75933.914, 0.0, 4.9912133, 4.9551067 
5.0850934e+2, 3.11161e+2, -39535.074, -40191.402, -2261.1006, -0.00010564341, 0.004923162, -37578.445, -37578.445, 0.0, 4.9898896, 4.989451 
5.084884e+2, 3.161519e+2, -40725.453, -36391.29, -1366.4838, 0.000042274874, 0.0001985398, -35996.434, -35996.434, 0.0, 4.9886184, 4.9913974 
5.1480556e+2, 1.2271536e+2, -1637838.6, -1739398.8, -608.1253, 0.00029779976, 0.00032240403, -1637835.0, 99555.586, 0.0, 5.044601, 4.978134 
5.1478213e+2, 1.276935e+2, -1594510.9, -1695750.6, -1045.4038, 0.0025536567, 0.0023384292, -1594500.1, 94105.11, 0.0, 5.0432878, 4.9770765 
5.147562e+2, 1.3266951e+2, -1551482.8, -1652607.4, -3705.5723, -0.0014233068, 0.0007110068, -1551347.1, 88493.27, 0.0, 5.0419364, 4.9757833 
5.1472944e+2, 1.3764538e+2, -1507794.1, -1607832.4, -4028.6973, 0.00042816452, -0.00011875702, -1507632.3, 83444.445, 0.0, 5.040524, 4.9751205 
5.1470095e+2, 1.4262004e+2, -1465174.0, -1565397.4, -6358.406, 0.0010398744, 0.0027102488, -1464772.3, 77552.664, 0.0, 5.039122, 4.973641 
5.146709e+2, 1.4759365e+2, -1421245.1, -1520193.1, -6613.4526, 0.00039746013, -0.000106583764, -1420805.0, 72778.43, 0.0, 5.0377073, 4.9731026 
5.146396e+2, 1.525662e+2, -1378626.9, -1477836.5, -8631.414, 0.0003215342, 0.0015277072, -1377881.5, 66970.9, 0.0, 5.0363, 4.9716005 
5.1460713e+2, 1.5753786e+2, -1334598.1, -1432482.4, -8851.964, 0.0008141821, -0.0005295533, -1333804.0, 62326.1, 0.0, 5.034881, 4.97109 
5.145735e+2, 1.6250844e+2, -1292157.0, -1390431.3, -10578.5205, 0.0008235302, 0.002267024, -1291031.1, 56387.313, 0.0, 5.0334406, 4.9694705 
5.1453876e+2, 1.6747794e+2, -1248147.6, -1344900.9, -10727.873, 0.0002782097, -0.0002769466, -1246972.4, 51744.92, 0.0, 5.0319595, 4.969021 
5.145031e+2, 1.7244644e+2, -1205715.1, -1302793.6, -12153.488, -0.000026169602, 0.0020587982, -1204216.8, 45809.293, 0.0, 5.0304823, 4.9674034 
5.1446664e+2, 1.7741393e+2, -1161585.3, -1257049.0, -12300.563, 0.0000032648793, -0.00013835136, -1160025.9, 41318.63, 0.0, 5.028993, 4.9670033 
5.1442945e+2, 1.8238041e+2, -1119143.6, -1215004.5, -13424.69, 0.000011971889, 0.0022693858, -1117299.0, 35373.97, 0.0, 5.027513, 4.965336 
5.1439154e+2, 1.8734577e+2, -1074880.4, -1169073.1, -13565.825, -0.000026002397, -0.0005718067, -1072965.5, 31046.65, 0.0, 5.026027, 4.96497 
5.143532e+2, 1.923102e+2, -1032501.56, -1127170.8, -14380.578, -0.00004994476, 0.0019178641, -1030365.3, 24995.627, 0.0, 5.0245275, 4.963227 
5.1431435e+2, 1.9727352e+2, -988216.4, -1081075.6, -14465.001, -0.000021065423, -0.00059405033, -986015.25, 20705.172, 0.0, 5.0230007, 4.9629087 
5.142751e+2, 2.0223592e+2, -945859.1, -1039161.5, -15019.257, -0.00032058315, 0.0022329418, -943501.0, 14588.152, 0.0, 5.021467, 4.9611545 
5.142355e+2, 2.0719723e+2, -901528.5, -992952.25, -15071.694, -0.0008503718, -0.0000658539, -899107.94, 10360.292, 0.0, 5.01992, 4.960857 
5.1419574e+2, 2.1215753e+2, -859152.25, -951142.2, -15329.884, -0.0008786416, 0.0027159583, -856664.8, 4192.4634, 0.0, 5.018395, 4.959026 
5.141559e+2, 2.1711665e+2, -814573.9, -904720.44, -15401.9, -0.000112942565, -0.00040352988, -812015.0, 242.69191, 0.0, 5.016897, 4.9587507 
5.1411617e+2, 2.2207476e+2, -772198.44, -863098.3, -15340.419, 0.0003212267, 0.002193701, -769679.4, -6011.298, 0.0, 5.015388, 4.956812 
5.140764e+2, 2.2703174e+2, -727576.1, -816545.0, -15362.458, 0.0004164433, -0.000690151, -724998.1, -9908.255, 0.0, 5.013866, 4.9565654 
5.140369e+2, 2.3198767e+2, -685228.56, -774987.06, -15055.159, 0.00038313138, 0.002221688, -682770.7, -16248.831, 0.0, 5.0123343, 4.954579 
5.139975e+2, 2.3694246e+2, -640514.9, -728233.1, -15012.461, 0.00023437235, -0.000586585, -638016.75, -20051.771, 0.0, 5.010795, 4.9543815 
5.139585e+2, 2.418962e+2, -598196.4, -686865.94, -14420.038, 0.00023422799, 0.0029236246, -595910.25, -26491.879, 0.0, 5.009265, 4.9522877 
5.1392e+2, 2.4684869e+2, -553228.9, -639787.25, -14354.8955, 0.00041238053, -0.00052860886, -550910.4, -30026.65, 0.0, 5.0077567, 4.9521613 
5.13882e+2, 2.518001e+2, -511030.2, -598900.6, -13471.227, 0.0005348484, 0.0027020392, -509011.34, -36651.215, 0.0, 5.0062447, 4.9498568 
5.138446e+2, 2.567503e+2, -465722.1, -551160.75, -13353.928, 0.0006592149, -0.00086109305, -463683.53, -39835.258, 0.0, 5.0047393, 4.949932 
5.1380783e+2, 2.6169926e+2, -423774.47, -511003.97, -12256.14, 0.00066168746, 0.0023979542, -422085.16, -46737.066, 0.0, 5.003234, 4.947329 
5.1377195e+2, 2.666471e+2, -378010.34, -462380.63, -12064.483, 0.00019992945, -0.000912856, -376319.1, -49459.934, 0.0, 5.0017414, 4.9476824 
5.1373684e+2, 2.7159366e+2, -336370.72, -423119.47, -10686.599, -0.00001807802, 0.002456687, -335073.63, -56690.59, 0.0, 5.000247, 4.944713 
5.1370287e+2, 2.765391e+2, -290144.56, -373602.88, -10405.956, 0.00035379163, -0.0010332912, -288866.66, -58948.9, 0.0, 4.99877, 4.945348 
5.136697e+2, 2.814832e+2, -248562.34, -334729.63, -8818.175, 0.00052075606, 0.0031068213, -247669.17, -66204.01, 0.0, 4.997297, 4.94219 
5.1363796e+2, 2.8642628e+2, -201900.88, -284430.97, -8457.187, 0.00019625277, -0.001676159, -201043.14, -68019.6, 0.0, 4.9958487, 4.943064 
5.136072e+2, 2.9136738e+2, -162103.38, -249989.56, -6598.0645, 0.00018258499, 0.0026458064, -161610.78, -77010.2, 0.0, 4.994404, 4.938277 
5.135781e+2, 2.9630673e+2, -115317.12, -199646.5, -6091.8887, 0.00091019506, 0.00065532455, -114879.31, -78684.336, 0.0, 4.992986, 4.9391246 
5.1355e+2, 3.0125344e+2, -76594.48, -135089.19, -4316.7144, 0.0012665016, 0.0033835042, -76277.63, -76277.63, 0.0, 4.9915676, 4.954032 
5.135237e+2, 3.0620837e+2, -78886.836, -133111.66, -3681.1584, 0.0005577476, -0.0039369655, -78638.07, -78638.07, 0.0, 4.9901605, 4.955346 
5.134986e+2, 3.1118122e+2, -42329.17, -40857.984, -1490.8143, 0.000023543509, 0.005256761, -39931.164, -39931.164, 0.0, 4.988761, 4.9896894 
5.134763e+2, 3.161723e+2, -43751.348, -37159.484, -601.10297, -0.00011985941, 0.00048169098, -37105.117, -37105.117, 0.0, 4.9874053, 4.9916344 
5.198501e+2, 1.22737646e+2, -1637919.5, -1740198.5, -1217.6962, 0.00066964567, 0.0025993895, -1637905.0, 99267.42, 0.0, 5.044734, 4.9778085 
5.198253e+2, 1.2771529e+2, -1594611.4, -1696501.4, -1608.9286, 0.0014862547, 0.0026843338, -1594586.0, 93806.17, 0.0, 5.0434012, 4.976776 
5.197982e+2, 1.3269143e+2, -1551572.5, -1653322.1, -4323.9834, -0.000711494, 0.0052601537, -1551389.1, 88237.27, 0.0, 5.042046, 4.975497 
5.1976985e+2, 1.3766682e+2, -1507853.5, -1608530.0, -4629.979, 0.00009814965, 0.0025540863, -1507641.0, 83226.555, 0.0, 5.0406427, 4.974835 
5.197399e+2, 1.4264114e+2, -1465139.3, -1565909.3, -6961.705, 0.0007327533, 0.0046676933, -1464660.6, 77458.52, 0.0, 5.0392423, 4.9734163 
5.1970863e+2, 1.4761458e+2, -1421231.0, -1520716.9, -7225.5845, 0.0011996308, 0.0024082335, -1420708.9, 72670.18, 0.0, 5.0378203, 4.9728775 
5.196759e+2, 1.5258689e+2, -1378635.1, -1478317.1, -9254.3, 0.001143286, 0.0038751452, -1377783.3, 66866.984, 0.0, 5.036393, 4.9713993 
5.1964194e+2, 1.5755828e+2, -1334696.9, -1433005.5, -9475.836, 0.0005698321, 0.00089628436, -1333791.8, 62139.082, 0.0, 5.034943, 4.970889 
5.196068e+2, 1.6252865e+2, -1292185.4, -1390750.4, -11249.411, 0.000266715, 0.0033535399, -1290917.8, 56303.457, 0.0, 5.0334897, 4.969344 
5.195706e+2, 1.6749807e+2, -1248161.5, -1345210.8, -11407.533, 0.00016247647, 0.0010809093, -1246838.6, 51682.395, 0.0, 5.032013, 4.968896 
5.195335e+2, 1.724664e+2, -1205724.3, -1303106.6, -12853.459, 0.00015872714, 0.0032370905, -1204056.3, 45774.8, 0.0, 5.030538, 4.9672766 
5.1949555e+2, 1.774337e+2, -1161593.8, -1257361.6, -13015.897, 0.0003564853, 0.00038292512, -1159856.4, 41294.715, 0.0, 5.029049, 4.9668765 
5.1945686e+2, 1.824e+2, -1119177.4, -1215330.1, -14148.721, 0.0003814642, 0.0024444305, -1117138.6, 35342.504, 0.0, 5.0275598, 4.9652085 
5.1941746e+2, 1.8736526e+2, -1074968.3, -1169425.6, -14289.736, 0.00016095414, -0.0004024241, -1072853.8, 30967.988, 0.0, 5.0260553, 4.964843 
5.193776e+2, 1.923296e+2, -1032548.6, -1127369.5, -15138.171, -0.00015263319, 0.0023130218, -1030190.44, 24981.012, 0.0, 5.0245414, 4.963158 
5.193371e+2, 1.9729292e+2, -988288.7, -1081283.0, -15233.368, -0.0005232185, 0.00029063426, -985856.9, 20674.229, 0.0, 5.023005, 4.9628415 
5.1929635e+2, 2.0225526e+2, -945880.0, -1039260.25, -15817.073, -0.00081404386, 0.0031313226, -943273.6, 14626.513, 0.0, 5.021472, 4.961124 
5.192552e+2, 2.0721649e+2, -901517.06, -993035.3, -15895.606, -0.0008469264, 0.00026218646, -898834.8, 10444.934, 0.0, 5.0199356, 4.960827 
5.1921403e+2, 2.121767e+2, -859164.56, -951284.44, -16136.738, -0.0005609017, 0.0026622526, -856419.6, 4249.7646, 0.0, 5.018412, 4.9589744 
5.191727e+2, 2.1713576e+2, -814619.5, -904886.8, -16209.065, 0.00027991182, -0.0005919577, -811797.1, 273.55365, 0.0, 5.016905, 4.958696 
5.191314e+2, 2.2209385e+2, -772222.1, -863160.6, -16167.942, 0.00052256393, 0.0021681953, -769433.2, -5951.7026, 0.0, 5.0153837, 4.9567976 
5.190901e+2, 2.2705086e+2, -727636.2, -816621.75, -16190.487, 0.000053504213, -0.0001265713, -724782.0, -9878.933, 0.0, 5.013849, 4.9565525 
5.19049e+2, 2.3200683e+2, -685232.94, -774912.4, -15901.644, -0.0001597986, 0.0030698986, -682496.8, -16162.202, 0.0, 5.012311, 4.954621 
5.190081e+2, 2.3696165e+2, -640501.3, -728139.9, -15877.476, 0.000053921503, 0.00010375962, -637713.44, -19936.28, 0.0, 5.010776, 4.954428 
5.189676e+2, 2.4191542e+2, -598177.06, -686766.6, -15278.883, 0.00030890384, 0.0033560514, -595615.94, -26385.764, 0.0, 5.0092473, 4.952336 
5.1892763e+2, 2.4686792e+2, -553215.9, -639692.75, -15222.859, 0.00058287545, -0.0004982506, -550614.44, -29918.977, 0.0, 5.007737, 4.9522085 
5.1888806e+2, 2.5181934e+2, -511002.28, -598749.7, -14345.026, 0.00068457396, 0.002560072, -508716.7, -36545.234, 0.0, 5.006221, 4.9499254 
5.1884925e+2, 2.5676963e+2, -465712.8, -551014.06, -14234.295, 0.00063009845, -0.0007807554, -463400.22, -39741.414, 0.0, 5.0047083, 4.9500027 
5.18811e+2, 2.6171872e+2, -423734.94, -510754.94, -13132.229, 0.0005176629, 0.0026522, -421796.34, -46638.73, 0.0, 5.0031967, 4.9474382 
5.1877356e+2, 2.6666668e+2, -377976.84, -462123.66, -12951.623, 0.00007383524, -0.0005818847, -376028.47, -49361.027, 0.0, 5.0017, 4.9477963 
5.1873696e+2, 2.7161333e+2, -336315.44, -422795.38, -11570.755, -0.00011740402, 0.0027739068, -334794.06, -56603.984, 0.0, 5.0002027, 4.944852 
5.1870155e+2, 2.7655894e+2, -290086.7, -373270.47, -11300.29, 0.0002505086, -0.00088177115, -288578.9, -58855.383, 0.0, 4.9987254, 4.94549 
5.186669e+2, 2.815032e+2, -248490.73, -334355.84, -9700.24, 0.0004338592, 0.0031503243, -247408.53, -66139.016, 0.0, 4.9972506, 4.942347 
5.186337e+2, 2.864464e+2, -201834.42, -284055.4, -9345.486, 0.0002039738, -0.0016295784, -200785.56, -67959.2, 0.0, 4.9958, 4.9432235 
5.186014e+2, 2.913877e+2, -161987.9, -249478.1, -7468.5786, 0.00017821789, 0.0027028008, -161354.94, -76953.26, 0.0, 4.9943514, 4.9384856 
5.1857096e+2, 2.9632726e+2, -115206.09, -199112.3, -6966.0415, 0.0006739024, 0.0007732622, -114631.695, -78637.78, 0.0, 4.992928, 4.9393444 
5.1854146e+2, 3.012742e+2, -76481.01, -134525.16, -5184.4746, 0.00096125255, 0.0035637643, -76021.57, -76021.57, 0.0, 4.9915047, 4.954266 
5.1851374e+2, 3.0622938e+2, -78768.67, -132541.95, -4555.464, 0.0005330744, -0.0036880577, -78385.484, -78385.484, 0.0, 4.9900985, 4.9555817 
5.1848733e+2, 3.1120247e+2, -42225.914, -40320.5, -2336.3123, 0.000107755, 0.005580504, -38750.113, -38750.113, 0.0, 4.9886985, 4.9899178 
5.184637e+2, 3.1619376e+2, -43670.305, -36639.063, -1443.7474, -0.00033767472, 0.00076478, -36354.156, -36354.156, 0.0, 4.9873357, 4.991859 
5.2489555e+2, 1.2276149e+2, -1634154.9, -1738951.6, -614.8661, 0.000620823, 0.0030696872, -1634151.3, 102787.52, 0.0, 5.046136, 4.977533 
5.248692e+2, 1.2773852e+2, -1591074.9, -1695330.4, -959.9695, 0.00062788476, -0.00021123629, -1591066.0, 97098.01, 0.0, 5.0447197, 4.976519 
5.2484095e+2, 1.3271463e+2, -1548195.3, -1652204.0, -3689.1536, 0.000112429116, 0.0047783293, -1548064.5, 91333.59, 0.0, 5.043305, 4.9752545 
5.248111e+2, 1.3768966e+2, -1504616.0, -1607487.9, -3974.7134, 0.0005177568, 0.00086145406, -1504462.6, 86180.23, 0.0, 5.041857, 4.974592 
5.2477974e+2, 1.4266372e+2, -1462037.5, -1564899.8, -6320.5713, 0.0008055026, 0.0026131019, -1461650.6, 80246.55, 0.0, 5.0404024, 4.9731917 
5.247469e+2, 1.4763696e+2, -1418326.1, -1519810.6, -6588.3, 0.0010696639, 0.0008985168, -1417900.3, 75258.93, 0.0, 5.038916, 4.972652 
5.247127e+2, 1.5260911e+2, -1375907.5, -1477411.1, -8648.035, 0.0009890902, 0.0029687209, -1375176.0, 69256.11, 0.0, 5.0374103, 4.971214 
5.2467716e+2, 1.5758035e+2, -1332252.8, -1432242.1, -8859.62, 0.00050569733, 0.0005975556, -1331473.9, 64240.32, 0.0, 5.0358653, 4.9707036 
5.246406e+2, 1.625506e+2, -1289865.6, -1389915.9, -10620.251, 0.00037546066, 0.0032406652, -1288750.8, 58255.15, 0.0, 5.0343413, 4.969218 
5.2460295e+2, 1.6751984e+2, -1245983.9, -1344446.9, -10774.755, 0.000542116, 0.0007921829, -1244818.6, 53488.563, 0.0, 5.032817, 4.9687705 
5.245643e+2, 1.7248805e+2, -1203717.3, -1302469.9, -12232.41, 0.00054264796, 0.0029427488, -1202224.6, 47394.06, 0.0, 5.031293, 4.9671335 
5.2452487e+2, 1.7745522e+2, -1159744.0, -1256804.4, -12400.149, 0.00048663808, 0.0002509151, -1158184.9, 42755.465, 0.0, 5.0297513, 4.966733 
5.2448463e+2, 1.8242142e+2, -1117468.3, -1214753.6, -13552.357, 0.00035581368, 0.0026336252, -1115615.6, 36655.965, 0.0, 5.0281954, 4.965105 
5.244437e+2, 1.873866e+2, -1073503.6, -1168967.6, -13673.434, 0.00005703656, 0.00027417834, -1071583.8, 32029.291, 0.0, 5.0266075, 4.9647393 
5.2440214e+2, 1.9235086e+2, -1031257.94, -1126912.1, -14524.139, -0.00026873476, 0.0030810433, -1029101.25, 25862.256, 0.0, 5.025017, 4.963092 
5.243602e+2, 1.9731405e+2, -987204.7, -1080922.6, -14612.663, -0.0005758273, 0.0007041058, -984979.1, 21344.928, 0.0, 5.023409, 4.9627767 
5.2431786e+2, 2.0227629e+2, -944960.75, -1038987.6, -15182.354, -0.00069865014, 0.0032898935, -942570.06, 15123.984, 0.0, 5.0218205, 4.9610558 
5.242752e+2, 2.0723742e+2, -900702.1, -992818.8, -15282.662, -0.00044422134, 0.00027771876, -898232.9, 10841.828, 0.0, 5.02025, 4.9607563 
5.2423245e+2, 2.1219759e+2, -858453.75, -951039.4, -15526.003, -0.00020180583, 0.002782215, -855919.5, 4545.5024, 0.0, 5.0186744, 4.958938 
5.241896e+2, 2.1715663e+2, -814124.4, -904744.94, -15579.157, 0.00017780028, -0.00006630766, -811520.8, 345.7137, 0.0, 5.017092, 4.9586587 
5.241467e+2, 2.2211473e+2, -771884.3, -862973.94, -15539.229, 0.00018852369, 0.0028498902, -769306.4, -6029.003, 0.0, 5.0154924, 4.956813 
5.2410376e+2, 2.2707173e+2, -727539.44, -816544.7, -15535.644, -0.00023293198, 0.00041697916, -724905.6, -10206.831, 0.0, 5.013872, 4.9565687 
5.240611e+2, 2.320277e+2, -685324.94, -774903.44, -15217.268, -0.0002919333, 0.0034058734, -682810.44, -16680.121, 0.0, 5.0122643, 4.9546456 
5.2401876e+2, 2.369825e+2, -640730.4, -728195.0, -15203.33, 0.00021001828, 0.00013502083, -638163.06, -20590.004, 0.0, 5.0106816, 4.9544525 
5.239767e+2, 2.4193627e+2, -598533.56, -686834.06, -14598.046, 0.0005378726, 0.0032705902, -596182.8, -27156.813, 0.0, 5.009099, 4.9523797 
5.239351e+2, 2.4688883e+2, -553744.4, -639834.5, -14538.958, 0.000571974, -0.00041524228, -551355.3, -30864.512, 0.0, 5.007527, 4.9522543 
5.2389395e+2, 2.5184032e+2, -511679.56, -598876.7, -13658.723, 0.00050563156, 0.0027652078, -509590.13, -37623.9, 0.0, 5.0059414, 4.9500065 
5.238536e+2, 2.5679067e+2, -466602.6, -551227.9, -13534.941, 0.00041392617, -0.00050321594, -464490.53, -41037.78, 0.0, 5.004351, 4.9500875 
5.238138e+2, 2.6173985e+2, -424805.2, -510988.66, -12403.425, 0.00032909878, 0.0029304486, -423055.63, -48104.953, 0.0, 5.002763, 4.947549 
5.2377486e+2, 2.6668793e+2, -379241.06, -462436.66, -12220.838, 0.00005459973, -0.00042716847, -377483.06, -51023.504, 0.0, 5.001195, 4.94791 
5.237367e+2, 2.7163467e+2, -337742.9, -423127.47, -10816.498, -0.00004647258, 0.002828733, -336393.97, -58412.816, 0.0, 4.999629, 4.9449873 
5.2369976e+2, 2.7658036e+2, -291680.34, -373667.25, -10546.868, 0.00020732424, -0.0008689815, -290345.3, -60831.918, 0.0, 4.99809, 4.945628 
5.236637e+2, 2.8152478e+2, -250238.03, -334765.56, -8925.616, 0.0003295439, 0.0031590166, -249305.81, -68247.73, 0.0, 4.9965496, 4.9425077 
5.2362895e+2, 2.8646815e+2, -203767.16, -284535.34, -8567.4, 0.00019229895, -0.0015596378, -202868.38, -70254.99, 0.0, 4.9950285, 4.943388 
5.235953e+2, 2.914096e+2, -164063.81, -249890.17, -6662.933, 0.00018770786, 0.0028064768, -163549.63, -79362.68, 0.0, 4.993504, 4.9387054 
5.2356327e+2, 2.963494e+2, -117498.52, -199586.67, -6153.1143, 0.0005508888, 0.00088933756, -117039.86, -81262.83, 0.0, 4.991995, 4.939577 
5.235323e+2, 3.0129656e+2, -78962.04, -135043.94, -4352.824, 0.0008000757, 0.003690283, -78626.2, -78626.2, 0.0, 4.990494, 4.9545126 
5.235032e+2, 3.0625197e+2, -81410.18, -133126.89, -3717.6665, 0.00053676486, -0.0035356525, -81144.305, -81144.305, 0.0, 4.9890294, 4.95583 
5.2347535e+2, 3.112253e+2, -45038.945, -40999.09, -1506.5198, 0.00021774444, 0.005767455, -40499.152, -40499.152, 0.0, 4.9875646, 4.9901533 
5.234503e+2, 3.1621683e+2, -46697.344, -37422.188, -619.1764, -0.00027558987, 0.00086987944, -37381.035, -37381.035, 0.0, 4.986127, 4.992089 
5.2994144e+2, 1.22785985e+2, -1634121.1, -1739592.0, -1252.4849, -0.00081755786, 0.00071450986, -1634106.3, 102592.33, 0.0, 5.046285, 4.977252 
5.2991384e+2, 1.2776269e+2, -1591025.3, -1695931.5, -1595.8362, -0.000031898235, -0.003065672, -1591001.0, 96925.64, 0.0, 5.044867, 4.9762516 
5.298842e+2, 1.3273872e+2, -1548150.6, -1652764.4, -4374.7, 0.0008729586, 0.0036870283, -1547968.0, 91193.32, 0.0, 5.0434403, 4.975007 
5.298529e+2, 1.377134e+2, -1504629.3, -1608078.6, -4672.753, 0.0009828376, -0.0011993756, -1504418.6, 85990.664, 0.0, 5.0419726, 4.974344 
5.2982e+2, 1.4268719e+2, -1462083.1, -1565466.5, -7051.594, 0.00088766497, 0.00028366994, -1461604.4, 80061.88, 0.0, 5.0404983, 4.972961 
5.297857e+2, 1.4766024e+2, -1418434.8, -1520410.3, -7316.2065, 0.0007612043, -0.0009725709, -1417912.5, 75017.734, 0.0, 5.0389905, 4.97242 
5.2974993e+2, 1.5263227e+2, -1375972.3, -1477888.6, -9411.8955, 0.0006743655, 0.0017080223, -1375110.4, 69094.45, 0.0, 5.037477, 4.971027 
5.29713e+2, 1.5760338e+2, -1332303.8, -1432713.0, -9621.241, 0.00050751865, 0.00005458628, -1331390.3, 64097.996, 0.0, 5.0359364, 4.970516 
5.296749e+2, 1.6257347e+2, -1289854.3, -1390239.0, -11380.438, 0.00061988196, 0.0029055483, -1288580.3, 58201.063, 0.0, 5.0344086, 4.9690824 
5.2963567e+2, 1.6754256e+2, -1246006.5, -1344784.4, -11554.292, 0.0009741468, 0.00021160168, -1244673.0, 53410.973, 0.0, 5.032872, 4.9686356 
5.295955e+2, 1.7251062e+2, -1203786.1, -1302850.4, -13024.678, 0.00090244674, 0.0024088747, -1202102.3, 47294.66, 0.0, 5.0313363, 4.96699 
5.295544e+2, 1.7747767e+2, -1159848.4, -1257203.8, -13167.986, 0.0005244415, 0.00006260596, -1158098.8, 42621.44, 0.0, 5.029782, 4.966589 
5.2951264e+2, 1.824438e+2, -1117531.6, -1215034.4, -14343.916, 0.00022027585, 0.0028763118, -1115465.3, 36587.234, 0.0, 5.028219, 4.9650044 
5.294701e+2, 1.8740894e+2, -1073574.3, -1169251.1, -14468.372, -0.0001126832, 0.001028584, -1071434.1, 31960.25, 0.0, 5.0266285, 4.964639 
5.29427e+2, 1.9237311e+2, -1031281.8, -1127106.3, -15343.685, -0.00036918462, 0.0038710223, -1028884.9, 25860.729, 0.0, 5.025039, 4.9630213 
5.293834e+2, 1.973362e+2, -987208.6, -1081105.0, -15450.362, -0.0004929796, 0.0009724491, -984731.7, 21375.484, 0.0, 5.023438, 4.962707 
5.2933955e+2, 2.0229833e+2, -944982.0, -1039203.9, -16005.011, -0.00042610202, 0.0032770222, -942337.5, 15140.63, 0.0, 5.0218487, 4.9609747 
5.292953e+2, 2.0725937e+2, -900753.4, -993057.3, -16104.459, 0.000017980534, 0.00027436737, -898024.3, 10835.606, 0.0, 5.0202694, 4.960672 
5.29251e+2, 2.1221949e+2, -858473.5, -951147.4, -16359.202, 0.00010963825, 0.0030230386, -855670.44, 4580.3604, 0.0, 5.0186806, 4.9589043 
5.292064e+2, 2.1717855e+2, -814194.0, -904876.06, -16414.822, -0.00009174671, 0.0006922032, -811314.1, 338.12994, 0.0, 5.017081, 4.9586253 
5.2916193e+2, 2.2213666e+2, -771900.8, -862961.1, -16410.799, -0.00029706946, 0.003739441, -769033.56, -5970.5947, 0.0, 5.0154753, 4.9568315 
5.291174e+2, 2.2709364e+2, -727529.94, -816516.94, -16428.95, -0.00046981347, 0.00095355697, -724593.7, -10109.407, 0.0, 5.0138636, 4.9565887 
5.290732e+2, 2.3204958e+2, -685312.4, -774886.9, -16103.013, -0.00027898673, 0.003595748, -682505.44, -16589.658, 0.0, 5.01226, 4.9546595 
5.2902925e+2, 2.3700438e+2, -640726.9, -728187.25, -16097.203, 0.0004463897, -0.0000006347493, -637858.25, -20499.504, 0.0, 5.0106745, 4.9544644 
5.289857e+2, 2.4195816e+2, -598514.5, -686757.4, -15493.96, 0.00076723716, 0.00308152, -595873.06, -27061.473, 0.0, 5.009085, 4.952419 
5.2894247e+2, 2.469108e+2, -553756.9, -639767.0, -15440.537, 0.0004651946, -0.00025001526, -551069.0, -30793.258, 0.0, 5.0075006, 4.9522953 
5.288997e+2, 2.5186235e+2, -511661.8, -598704.1, -14578.942, 0.00019475125, 0.003141108, -509284.84, -37534.414, 0.0, 5.005908, 4.9500875 
5.288577e+2, 2.568128e+2, -466577.6, -551042.8, -14469.056, 0.00012151792, -0.00012477154, -464167.75, -40931.703, 0.0, 5.0043187, 4.950173 
5.2881634e+2, 2.6176205e+2, -424754.66, -510744.6, -13332.166, 0.00011197263, 0.0032392037, -422735.03, -48001.977, 0.0, 5.002731, 4.9476547 
5.287759e+2, 2.667102e+2, -379189.28, -462187.9, -13162.77, 0.000052446932, -0.00030944002, -377151.8, -50910.793, 0.0, 5.0011625, 4.9480176 
5.2873623e+2, 2.716571e+2, -337673.63, -422822.25, -11748.825, 0.000061996274, 0.002819832, -336082.25, -58320.688, 0.0, 4.9995937, 4.945116 
5.286977e+2, 2.766029e+2, -291626.44, -373363.2, -11486.175, 0.00016265239, -0.0008700745, -290043.0, -60750.434, 0.0, 4.9980483, 4.9457593 
5.286601e+2, 2.8154746e+2, -250168.88, -334397.94, -9857.395, 0.00019146099, 0.0031986812, -249030.64, -68194.76, 0.0, 4.996503, 4.9426637 
5.286239e+2, 2.8649098e+2, -203697.95, -284158.94, -9507.245, 0.00014018474, -0.0014353198, -202589.84, -70200.29, 0.0, 4.9949803, 4.9435477 
5.285887e+2, 2.9143265e+2, -163931.1, -249354.73, -7598.4717, 0.00016954934, 0.002973522, -163260.47, -79299.17, 0.0, 4.993454, 4.938922 
5.2855515e+2, 2.9637268e+2, -117357.445, -199019.42, -7099.541, 0.00045141648, 0.0010420176, -116744.82, -81195.67, 0.0, 4.991943, 4.9398065 
5.2852273e+2, 3.0132008e+2, -78814.77, -134448.11, -5275.1533, 0.0006710617, 0.003828285, -78319.0, -78319.0, 0.0, 4.990439, 4.954755 
5.2849215e+2, 3.0627573e+2, -81266.195, -132530.72, -4643.181, 0.0005100716, -0.003391031, -80849.05, -80849.05, 0.0, 4.988973, 4.9560733 
5.284628e+2, 3.1124926e+2, -44925.023, -40463.06, -2418.476, 0.00028792708, 0.005927002, -39403.703, -39403.703, 0.0, 4.9875064, 4.99038 
5.284364e+2, 3.16241e+2, -46608.63, -36914.38, -1533.1359, -0.00016400292, 0.0009293568, -36677.695, -36677.695, 0.0, 4.9860625, 4.992307 
5.3498846e+2, 1.22812696e+2, -1630281.1, -1738385.8, -590.8983, -0.0007526511, 0.0021054333, -1630277.9, 106159.61, 0.0, 5.047731, 4.9769416 
5.349594e+2, 1.2778907e+2, -1587369.6, -1694811.1, -953.2632, 0.0001617125, -0.001873767, -1587361.1, 100307.87, 0.0, 5.0462503, 4.9759464 
5.3492826e+2, 1.3276482e+2, -1544639.3, -1651622.0, -3799.0671, 0.0009841579, 0.004943338, -1544504.5, 94402.086, 0.0, 5.0447545, 4.974746 
5.348954e+2, 1.3773923e+2, -1501359.1, -1607061.6, -4109.1836, 0.0006796742, 0.000051212992, -1501199.6, 88957.8, 0.0, 5.0432076, 4.9740825 
5.3486097e+2, 1.4271276e+2, -1458969.5, -1564401.5, -6516.8467, 0.0004974087, 0.0015819143, -1458568.3, 82848.484, 0.0, 5.041653, 4.9727573 
5.348251e+2, 1.476856e+2, -1415571.5, -1519476.6, -6769.372, 0.000569244, 0.000426543, -1415132.4, 77550.39, 0.0, 5.040063, 4.972215 
5.3478783e+2, 1.5265739e+2, -1373245.0, -1476936.6, -8858.962, 0.0006645626, 0.0027302993, -1372493.6, 71465.73, 0.0, 5.038485, 4.970861 
5.3474927e+2, 1.5762825e+2, -1329733.0, -1431844.9, -9056.311, 0.0006660155, 0.00029754677, -1328936.0, 66308.77, 0.0, 5.0368934, 4.9703493 
5.347096e+2, 1.6259815e+2, -1287454.5, -1389443.8, -10823.238, 0.000754228, 0.002809495, -1286318.6, 60221.25, 0.0, 5.035305, 4.9689217 
5.346688e+2, 1.6756706e+2, -1243817.0, -1344092.9, -11008.951, 0.00092189887, 0.00018838835, -1242622.6, 55221.777, 0.0, 5.033697, 4.968476 
5.346271e+2, 1.7253502e+2, -1201674.5, -1301987.0, -12473.168, 0.00073176675, 0.0025571168, -1200146.9, 49011.57, 0.0, 5.0320907, 4.9669237 
5.345844e+2, 1.7750204e+2, -1157951.8, -1256450.4, -12563.876, 0.00031223983, 0.0004964326, -1156374.4, 44107.574, 0.0, 5.0304646, 4.966521 
5.3454095e+2, 1.8246806e+2, -1115844.8, -1214417.5, -13725.029, 0.00007654092, 0.0032359965, -1113969.4, 37845.6, 0.0, 5.028837, 4.964923 
5.3449684e+2, 1.8743306e+2, -1072064.6, -1168722.5, -13832.887, -0.000088618595, 0.0009472274, -1070123.9, 33034.16, 0.0, 5.0271864, 4.964557 
5.3445214e+2, 1.923971e+2, -1029931.56, -1126662.8, -14700.15, -0.00019398703, 0.003587237, -1027746.94, 26763.434, 0.0, 5.025544, 4.962937 
5.344069e+2, 1.973601e+2, -985992.5, -1080728.4, -14811.23, -0.0001840711, 0.00072584616, -983730.8, 22142.135, 0.0, 5.023897, 4.962622 
5.3436136e+2, 2.0232217e+2, -943887.8, -1038814.4, -15352.079, -0.00017171114, 0.0032370463, -941466.75, 15777.944, 0.0, 5.0222516, 4.9609213 
5.343155e+2, 2.0728318e+2, -899867.5, -992774.6, -15425.484, -0.0000076784245, 0.00062113744, -897373.4, 11253.499, 0.0, 5.0206013, 4.960615 
5.342696e+2, 2.1224329e+2, -857751.4, -950833.75, -15678.978, -0.00007929993, 0.003510136, -855181.3, 4836.7144, 0.0, 5.018934, 4.958895 
5.342234e+2, 2.172023e+2, -813733.75, -904688.1, -15711.408, -0.00032329292, 0.0010286946, -811096.25, 323.4227, 0.0, 5.0172434, 4.9586153 
5.3417724e+2, 2.2216037e+2, -771630.1, -862846.4, -15683.092, -0.00038567866, 0.0039007615, -769009.0, -6178.3525, 0.0, 5.0155687, 4.956828 
5.3413117e+2, 2.2711733e+2, -727379.06, -816462.94, -15711.847, -0.00019060685, 0.00090754486, -724689.1, -10436.825, 0.0, 5.013916, 4.9565835 
5.340853e+2, 2.3207326e+2, -685278.1, -774842.6, -15380.571, 0.000054255506, 0.0035080253, -682710.44, -17026.42, 0.0, 5.012263, 4.954674 
5.340397e+2, 2.3702806e+2, -640871.06, -728224.94, -15367.699, 0.00038075598, 0.000109932764, -638246.3, -21119.434, 0.0, 5.0106144, 4.9544787 
5.3399444e+2, 2.4198188e+2, -598815.25, -686771.3, -14762.102, 0.0004895783, 0.0033516549, -596403.75, -27824.338, 0.0, 5.0089507, 4.9524746 
5.339496e+2, 2.4693456e+2, -554303.25, -639884.6, -14691.692, 0.0002582581, 0.0001363088, -551851.4, -31808.447, 0.0, 5.0072775, 4.952355 
5.3390527e+2, 2.518862e+2, -512399.38, -598854.6, -13804.866, 0.00008934408, 0.0034742332, -510248.6, -38731.52, 0.0, 5.0056067, 4.95017 
5.338617e+2, 2.5683668e+2, -467475.34, -551260.7, -13690.946, 0.00015370017, -0.0000973426, -465294.94, -42292.746, 0.0, 5.0039587, 4.950257 
5.338187e+2, 2.6178598e+2, -425800.72, -510990.9, -12534.627, 0.0001846903, 0.0030909737, -423994.7, -49496.137, 0.0, 5.0023108, 4.9477544 
5.3377664e+2, 2.6673424e+2, -380403.25, -462505.34, -12368.768, 0.000062145205, -0.00040216866, -378580.34, -52574.69, 0.0, 5.000681, 4.948118 
5.3373533e+2, 2.7168122e+2, -339038.22, -423127.8, -10941.198, 0.000057590583, 0.0027742167, -337637.94, -60112.758, 0.0, 4.9990435, 4.94525 
5.3369534e+2, 2.7662715e+2, -293211.4, -373753.13, -10672.334, 0.00015685435, -0.0008698712, -291821.25, -62766.31, 0.0, 4.9974155, 4.9458985 
5.3365606e+2, 2.8157187e+2, -251943.97, -334812.34, -9008.067, 0.00014891001, 0.0032380032, -250976.08, -70379.22, 0.0, 4.995791, 4.9428267 
5.336183e+2, 2.8651553e+2, -205655.9, -284641.75, -8650.918, 0.00004540199, -0.0013811328, -204719.52, -72570.555, 0.0, 4.9941993, 4.943715 
5.3358155e+2, 2.9145736e+2, -166025.44, -249775.84, -6723.21, 0.000055226807, 0.0030080255, -165489.16, -81770.164, 0.0, 4.9926014, 4.939141 
5.335465e+2, 2.9639763e+2, -119637.75, -199492.39, -6230.528, 0.0003739803, 0.0010103298, -119154.55, -83849.71, 0.0, 4.991016, 4.9400363 
5.3351253e+2, 3.0134523e+2, -81267.3, -134949.69, -4390.723, 0.0005940891, 0.0037572924, -80910.55, -80910.55, 0.0, 4.989439, 4.9550033 
5.3348047e+2, 3.0630112e+2, -83913.28, -133111.22, -3758.1108, 0.00038850724, -0.003419358, -83627.87, -83627.87, 0.0, 4.9879017, 4.956323 
5.3344965e+2, 3.1127492e+2, -47770.01, -41152.703, -1554.2262, 0.00020055623, 0.0059683523, -40805.84, -40805.84, 0.0, 4.986362, 4.990616 
5.3342175e+2, 3.1626683e+2, -49666.477, -37712.09, -675.87354, -0.00008930821, 0.0009877622, -37674.0, -37674.0, 0.0, 4.984844, 4.9925356 
5.400362e+2, 1.2284055e+2, -1630228.6, -1739111.3, -1133.4423, -0.000029415794, 0.004698899, -1630216.8, 105948.31, 0.0, 5.047906, 4.97662 
5.4000556e+2, 1.278165e+2, -1587428.4, -1695587.1, -1481.5619, 0.00047596788, -0.00019322982, -1587408.1, 99992.836, 0.0, 5.0463867, 4.975627 
5.399729e+2, 1.3279192e+2, -1544690.3, -1652282.9, -4361.003, 0.0008745079, 0.0062419097, -1544513.8, 94128.21, 0.0, 5.044868, 4.9744763 
5.3993845e+2, 1.3776606e+2, -1501435.1, -1607734.8, -4660.6914, 0.00027266418, 0.0016391, -1501231.1, 88664.234, 0.0, 5.0433125, 4.973812 
5.3990245e+2, 1.4273939e+2, -1458971.6, -1564904.6, -7105.5366, 0.000109041954, 0.003317458, -1458497.1, 82659.89, 0.0, 5.0417533, 4.972546 
5.398651e+2, 1.4771202e+2, -1415579.6, -1519986.0, -7375.4297, 0.00045138993, 0.002149821, -1415061.3, 77363.81, 0.0, 5.0401616, 4.9720025 
5.3982615e+2, 1.5268354e+2, -1373212.5, -1477343.1, -9492.023, 0.0007219254, 0.0039795274, -1372354.3, 71349.49, 0.0, 5.0385795, 4.970685 
5.397861e+2, 1.5765415e+2, -1329723.1, -1432265.1, -9717.652, 0.0008271777, 0.0006817584, -1328810.4, 66181.195, 0.0, 5.03698, 4.970172 
5.3974473e+2, 1.6262382e+2, -1287477.1, -1389866.3, -11515.315, 0.0008329844, 0.0028544026, -1286198.0, 60090.555, 0.0, 5.035377, 4.968751 
5.3970236e+2, 1.6759257e+2, -1243900.3, -1344542.0, -11702.911, 0.00076116, 0.00038332143, -1242557.3, 55037.65, 0.0, 5.0337477, 4.968306 
5.39659e+2, 1.7256044e+2, -1201649.8, -1302139.8, -13202.034, 0.00045975097, 0.0029163202, -1199944.3, 48965.72, 0.0, 5.0321264, 4.966861 
5.396147e+2, 1.775274e+2, -1157952.6, -1256615.0, -13329.461, 0.000073444346, 0.0010513301, -1156183.5, 44050.242, 0.0, 5.0304914, 4.9664583 
5.395696e+2, 1.8249333e+2, -1115877.0, -1214645.3, -14531.844, -0.000040126175, 0.0035987762, -1113783.3, 37784.156, 0.0, 5.0288625, 4.9648395 
5.395238e+2, 1.8745819e+2, -1072078.9, -1168939.6, -14649.299, -0.0000057624, 0.0007197217, -1069911.8, 32999.887, 0.0, 5.0272174, 4.9644747 
5.394775e+2, 1.9242214e+2, -1029957.25, -1126909.4, -15523.733, 0.00003738623, 0.0031359287, -1027532.3, 26732.691, 0.0, 5.025576, 4.9628444 
5.394307e+2, 1.9738504e+2, -986032.06, -1080983.8, -15641.105, 0.00014319253, 0.00044736714, -983521.9, 22106.727, 0.0, 5.0239244, 4.9625287 
5.393835e+2, 2.0234707e+2, -943897.75, -1038955.94, -16193.725, 0.00003570856, 0.0032676086, -941214.75, 15786.119, 0.0, 5.0222683, 4.9608717 
5.3933597e+2, 2.0730808e+2, -899929.9, -992947.7, -16273.483, -0.00018207586, 0.001081608, -897165.0, 11218.187, 0.0, 5.0206013, 4.9605627 
5.392883e+2, 2.1226816e+2, -857768.1, -950884.75, -16568.51, -0.000396449, 0.0040518367, -854907.9, 4866.6465, 0.0, 5.018929, 4.9588866 
5.392404e+2, 2.1722715e+2, -813728.25, -904731.56, -16623.213, -0.00051342946, 0.0012397837, -810786.8, 389.53693, 0.0, 5.0172467, 4.958606 
5.391926e+2, 2.2218516e+2, -771623.3, -862900.8, -16586.672, -0.00033910296, 0.0038695077, -768702.7, -6115.1196, 0.0, 5.015575, 4.9568133 
5.391449e+2, 2.2714208e+2, -727386.6, -816531.06, -16623.203, 0.00021577434, 0.00073613593, -724387.75, -10378.032, 0.0, 5.013919, 4.956566 
5.3909737e+2, 2.3209801e+2, -685271.06, -774840.3, -16298.399, 0.0004354672, 0.0033987316, -682397.5, -16956.006, 0.0, 5.0122576, 4.954684 
5.3905004e+2, 2.3705286e+2, -640898.44, -728237.25, -16290.531, 0.00018892727, 0.00035302332, -637958.9, -21074.781, 0.0, 5.0105968, 4.954489 
5.3900313e+2, 2.4200673e+2, -598802.7, -686662.56, -15711.247, 0.000036640864, 0.0038074993, -596077.7, -27741.596, 0.0, 5.008927, 4.95253 
5.3895664e+2, 2.469595e+2, -554280.25, -639762.3, -15658.909, 0.000017157261, 0.0006097801, -551502.06, -31703.125, 0.0, 5.0072556, 4.952414 
5.389107e+2, 2.5191113e+2, -512353.1, -598682.94, -14770.266, 0.000053324624, 0.0038051326, -509895.97, -38623.543, 0.0, 5.0055857, 4.950246 
5.388655e+2, 2.5686166e+2, -467428.84, -551086.7, -14668.739, 0.00028475735, -0.00015982529, -464931.38, -42174.277, 0.0, 5.0039372, 4.950334 
5.3882086e+2, 2.6181108e+2, -425745.2, -510779.38, -13510.194, 0.00033239354, 0.002826295, -423650.3, -49397.473, 0.0, 5.0022864, 4.9478455 
5.387772e+2, 2.667594e+2, -380364.4, -462299.9, -13352.598, 0.00004473969, -0.0005219812, -378243.3, -52484.33, 0.0, 5.000651, 4.9482102 
5.3873426e+2, 2.7170652e+2, -338966.56, -422821.97, -11929.58, -0.00002114518, 0.0027651577, -337302.44, -60025.02, 0.0, 4.9990087, 4.9453793 
5.386926e+2, 2.7665257e+2, -293136.9, -373433.9, -11674.134, 0.00013821168, -0.000823361, -291474.1, -62668.305, 0.0, 4.9973793, 4.946033 
5.386517e+2, 2.8159744e+2, -251846.02, -334428.53, -9993.896, 0.00011518865, 0.0033167624, -250653.8, -70307.57, 0.0, 4.995753, 4.942985 
5.3861237e+2, 2.8654125e+2, -205558.22, -284250.66, -9645.988, -0.000099391305, -0.0013192418, -204393.1, -72496.37, 0.0, 4.99416, 4.9438763 
5.38574e+2, 2.9148328e+2, -165875.27, -249251.44, -7719.8906, -0.00013332101, 0.0030232538, -165166.5, -81701.51, 0.0, 4.99256, 4.9393497 
5.3853744e+2, 2.9642373e+2, -119483.305, -198944.22, -7236.7466, 0.00027058073, 0.00093527086, -118829.61, -83780.766, 0.0, 4.9909725, 4.9402556 
5.3850186e+2, 3.0137154e+2, -81102.12, -134358.17, -5369.2466, 0.00049120985, 0.00363223, -80566.19, -80566.19, 0.0, 4.9893923, 4.9552407 
5.384682e+2, 3.063277e+2, -83755.266, -132517.56, -4740.6084, 0.00016564628, -0.003485963, -83298.67, -83298.67, 0.0, 4.9878516, 4.9565635 
5.3843594e+2, 3.1130174e+2, -47641.86, -40616.402, -2525.847, -0.000024719759, 0.005993389, -39802.566, -39802.566, 0.0, 4.986309, 4.9908404 
5.384065e+2, 3.1629393e+2, -49558.43, -37203.293, -1652.228, -0.00013388605, 0.0010894168, -36986.156, -36986.156, 0.0, 4.9847875, 4.9927516 
5.450848e+2, 1.2287011e+2, -1626196.9, -1737736.0, -392.2338, -0.0003510786, 0.0032065033, -1626195.5, 109679.27, 0.0, 5.049402, 4.9763412 
5.450525e+2, 1.2784585e+2, -1583692.3, -1694357.9, -720.51013, 0.000118977565, -0.00085770164, -1583687.6, 103425.21, 0.0, 5.0477843, 4.975351 
5.450183e+2, 1.3282102e+2, -1541128.3, -1651039.5, -3589.891, 0.0004978287, 0.0058798976, -1541011.1, 97344.99, 0.0, 5.0461845, 4.9742475 
5.449824e+2, 1.3779494e+2, -1498084.9, -1606605.1, -3867.3794, 0.00006577472, 0.0013189983, -1497947.3, 91664.414, 0.0, 5.04456, 4.9735823 
5.449447e+2, 1.4276801e+2, -1455801.9, -1563855.6, -6326.0776, 0.000084836734, 0.002940192, -1455432.8, 85442.97, 0.0, 5.0429373, 4.972323 
5.4490566e+2, 1.477404e+2, -1412593.1, -1519038.0, -6601.2046, 0.00060376467, 0.0016142359, -1412185.4, 79960.984, 0.0, 5.0412865, 4.9717765 
5.448652e+2, 1.527117e+2, -1370386.0, -1476441.8, -8738.019, 0.00084179454, 0.0036304914, -1369670.9, 73756.48, 0.0, 5.0396423, 4.9704757 
5.4482335e+2, 1.5768212e+2, -1327096.5, -1431467.6, -8979.941, 0.0007590089, 0.0008176951, -1326329.6, 68387.68, 0.0, 5.037977, 4.9699616 
5.447804e+2, 1.6265164e+2, -1284986.0, -1389000.9, -10807.203, 0.00067910686, 0.0033432883, -1283874.9, 62141.043, 0.0, 5.036299, 4.968601 
5.447363e+2, 1.6762026e+2, -1241659.3, -1343804.4, -10977.48, 0.0006324504, 0.0011149477, -1240492.9, 56830.754, 0.0, 5.0345864, 4.9681554 
5.4469126e+2, 1.7258796e+2, -1199585.9, -1301418.6, -12477.876, 0.00040837048, 0.0035006911, -1198079.3, 50560.926, 0.0, 5.0328894, 4.966742 
5.446453e+2, 1.7755473e+2, -1156091.4, -1255994.9, -12631.397, 0.00016251278, 0.0011524291, -1154519.1, 45446.605, 0.0, 5.031186, 4.9663396 
5.4459864e+2, 1.8252055e+2, -1114124.4, -1213977.4, -13836.746, 0.00015349753, 0.0035202806, -1112242.5, 39058.152, 0.0, 5.0294995, 4.964766 
5.4455113e+2, 1.8748532e+2, -1070467.3, -1168339.9, -13941.34, 0.0002519277, 0.000765098, -1068520.1, 34125.76, 0.0, 5.0278063, 4.964402 
5.4450315e+2, 1.9244918e+2, -1028508.8, -1126395.6, -14811.2705, 0.00023873437, 0.0033373672, -1026316.8, 27683.145, 0.0, 5.02611, 4.9627695 
5.4445463e+2, 1.9741203e+2, -984772.06, -1080566.4, -14910.648, 0.00017345177, 0.0008295731, -982504.9, 22859.426, 0.0, 5.024395, 4.962452 
5.444057e+2, 2.02374e+2, -942790.9, -1038513.9, -15468.433, -0.000029478308, 0.0036248383, -940353.3, 16383.865, 0.0, 5.022666, 4.9608383 
5.4435647e+2, 2.0733494e+2, -899075.1, -992632.94, -15530.093, -0.00028064277, 0.0011824239, -896564.56, 11555.525, 0.0, 5.020913, 4.9605265 
5.4430705e+2, 2.1229494e+2, -857095.25, -950638.6, -15808.232, -0.00036721848, 0.0039577885, -854495.94, 5016.0474, 0.0, 5.0191746, 4.958858 
5.442576e+2, 2.1725385e+2, -813183.25, -904553.56, -15869.727, -0.00019216182, 0.0009951742, -810505.44, 409.051, 0.0, 5.0174494, 4.958574 
5.4420805e+2, 2.2221184e+2, -771195.8, -862723.4, -15823.78, 0.000027641712, 0.003643547, -768537.3, -6211.2354, 0.0, 5.015726, 4.956805 
5.4415864e+2, 2.2716877e+2, -727147.56, -816444.6, -15847.438, 0.00030485957, 0.0007383088, -724418.5, -10670.202, 0.0, 5.014004, 4.9565563 
5.441094e+2, 2.321247e+2, -685189.4, -774730.94, -15517.336, 0.00033523788, 0.0035430563, -682576.5, -17396.45, 0.0, 5.0122685, 4.954716 
5.4406035e+2, 2.3707958e+2, -641061.7, -728238.06, -15487.669, -0.000020324625, 0.00053298357, -638391.9, -21769.598, 0.0, 5.010521, 4.954523 
5.440117e+2, 2.4203347e+2, -599158.25, -686714.1, -14887.236, -0.00012724743, 0.0038922331, -596696.2, -28622.068, 0.0, 5.0087757, 4.95258 
5.439636e+2, 2.4698623e+2, -554793.7, -639884.4, -14836.696, 0.00013436854, 0.00042402037, -552280.9, -32744.021, 0.0, 5.0070486, 4.9524646 
5.439159e+2, 2.5193793e+2, -513008.56, -598823.56, -13934.236, 0.0002917692, 0.0035333477, -510802.7, -39792.65, 0.0, 5.005319, 4.9503155 
5.43869e+2, 2.568885e+2, -468254.88, -551299.8, -13832.216, 0.0003717274, -0.00024974623, -466011.53, -43517.477, 0.0, 5.003609, 4.950405 
5.4382277e+2, 2.61838e+2, -426723.97, -510982.94, -12661.953, 0.00028790702, 0.0028671403, -424862.34, -50873.32, 0.0, 5.0018888, 4.94795 
5.4377735e+2, 2.6678643e+2, -381557.75, -462590.72, -12490.456, -0.000037200047, -0.00040258898, -379676.16, -54181.98, 0.0, 5.000174, 4.948318 
5.437327e+2, 2.7173364e+2, -340336.2, -423126.28, -11039.252, -0.00009877434, 0.002890263, -338889.5, -61877.938, 0.0, 4.9984565, 4.945514 
5.4368937e+2, 2.7667984e+2, -294688.06, -373809.0, -10781.214, 0.00008210078, -0.0008008942, -293245.3, -64706.527, 0.0, 4.9967594, 4.9461713 
5.43647e+2, 2.816248e+2, -253567.81, -334832.44, -9068.416, 0.000050964132, 0.003239651, -252568.14, -72490.14, 0.0, 4.9950633, 4.9431415 
5.43606e+2, 2.8656876e+2, -207466.33, -284728.16, -8722.432, -0.00017986039, -0.0014799105, -206493.84, -74866.695, 0.0, 4.993401, 4.9440355 
5.43566e+2, 2.9151097e+2, -167912.22, -249642.42, -6785.156, -0.00026062896, 0.002816643, -167352.75, -84158.93, 0.0, 4.9917283, 4.9395695 
5.435277e+2, 2.964516e+2, -121711.64, -199385.33, -6298.4165, 0.000023060302, 0.00076206477, -121204.234, -86428.71, 0.0, 4.990064, 4.9404883 
5.434905e+2, 3.0139965e+2, -83524.18, -134843.23, -4410.662, 0.000108322274, 0.003471621, -83147.86, -83147.86, 0.0, 4.988404, 4.955489 
5.434553e+2, 3.0635604e+2, -86403.14, -133096.64, -3781.0337, -0.00030377164, -0.0036740615, -86098.945, -86098.945, 0.0, 4.986781, 4.9568133 
5.434215e+2, 3.113303e+2, -50499.707, -41303.508, -1581.396, -0.00042863877, 0.0058115916, -41039.164, -41039.164, 0.0, 4.98516, 4.991079 
5.433906e+2, 3.1632268e+2, -52607.465, -37989.83, -712.9513, -0.00020669529, 0.0009758748, -37955.137, -37955.137, 0.0, 4.9835725, 4.9929814 
5.501341e+2, 1.22900695e+2, -1626231.1, -1738421.1, -1099.8298, -0.00078829605, 0.0014382649, -1626220.3, 109354.14, 0.0, 5.0495296, 4.9760566 
5.501002e+2, 1.2787624e+2, -1583715.0, -1695029.9, -1428.7601, -0.00028014733, -0.0017008906, -1583696.6, 103117.7, 0.0, 5.0479136, 4.9750695 
5.500644e+2, 1.3285118e+2, -1541101.4, -1651592.3, -4319.3496, 0.00012111419, 0.005331724, -1540932.8, 97127.086, 0.0, 5.046309, 4.974008 
5.500267e+2, 1.3782485e+2, -1498083.4, -1607170.1, -4621.26, -0.00006952075, 0.00069077464, -1497887.9, 91429.8, 0.0, 5.044676, 4.973343 
5.499875e+2, 1.4279766e+2, -1455814.4, -1564419.8, -7111.4883, 0.00012497525, 0.0022165417, -1455350.8, 85233.36, 0.0, 5.0430455, 4.9720883 
5.4994684e+2, 1.477698e+2, -1412628.0, -1519617.8, -7385.569, 0.00074295833, 0.00076344324, -1412120.5, 79736.74, 0.0, 5.041388, 4.9715395 
5.4990464e+2, 1.5274091e+2, -1370428.5, -1476979.1, -9528.928, 0.00090030074, 0.003057797, -1369583.0, 73557.51, 0.0, 5.0397305, 4.970259 
5.498612e+2, 1.5771116e+2, -1327194.6, -1432036.0, -9754.244, 0.00061426545, 0.0008685878, -1326294.9, 68137.54, 0.0, 5.038047, 4.9697437 
5.4981655e+2, 1.6268054e+2, -1285011.0, -1389383.6, -11610.837, 0.00047439773, 0.0037881716, -1283735.0, 61997.72, 0.0, 5.036361, 4.968449 
5.497708e+2, 1.6764902e+2, -1241684.3, -1344192.6, -11790.251, 0.00051941205, 0.0017542853, -1240345.8, 56695.902, 0.0, 5.0346494, 4.9680004 
5.49724e+2, 1.7261656e+2, -1199596.0, -1301759.5, -13297.044, 0.0004127964, 0.00395862, -1197893.8, 50465.926, 0.0, 5.0329485, 4.966605 
5.4967636e+2, 1.7758313e+2, -1156126.5, -1256348.6, -13459.776, 0.0003186419, 0.0011013405, -1154350.4, 45336.69, 0.0, 5.0312366, 4.9662023 
5.496279e+2, 1.8254882e+2, -1114105.8, -1214168.3, -14670.232, 0.0003911193, 0.003343703, -1111999.4, 39023.996, 0.0, 5.029539, 4.9646893 
5.495788e+2, 1.8751355e+2, -1070483.8, -1168545.5, -14785.121, 0.00050362595, 0.000860431, -1068303.1, 34066.176, 0.0, 5.0278335, 4.9643264 
5.495291e+2, 1.9247738e+2, -1028546.2, -1126602.6, -15675.142, 0.00039041496, 0.0036628633, -1026101.3, 27622.645, 0.0, 5.026128, 4.9626975 
5.4947877e+2, 1.9744016e+2, -984831.7, -1080790.8, -15770.108, 0.000120771896, 0.0013179616, -982306.44, 22782.371, 0.0, 5.0244064, 4.962377 
5.4942816e+2, 2.0240204e+2, -942800.5, -1038629.7, -16365.025, -0.00014829026, 0.004006043, -940082.9, 16379.371, 0.0, 5.0226765, 4.9608006 
5.4937714e+2, 2.073629e+2, -899072.56, -992748.6, -16448.66, -0.0003302483, 0.0011659442, -896268.3, 11577.53, 0.0, 5.0209293, 4.9604864 
5.4932606e+2, 2.1232283e+2, -857088.6, -950752.0, -16724.803, -0.00022957567, 0.003712492, -854191.75, 5046.526, 0.0, 5.0191917, 4.9588184 
5.492748e+2, 2.1728171e+2, -813190.56, -904681.9, -16792.514, 0.00023963132, 0.00067089376, -810205.8, 435.54694, 0.0, 5.0174637, 4.9585304 
5.4922354e+2, 2.2223967e+2, -771183.44, -862769.6, -16754.666, 0.00043421818, 0.0034145128, -768214.6, -6161.3223, 0.0, 5.0157323, 4.956794 
5.491724e+2, 2.271966e+2, -727174.25, -816511.4, -16786.877, 0.000266158, 0.000824642, -724124.06, -10648.613, 0.0, 5.013997, 4.956544 
5.491214e+2, 2.3215257e+2, -685176.0, -774677.4, -16487.225, 0.00008170134, 0.0037829706, -682235.44, -17328.49, 0.0, 5.012255, 4.954748 
5.4907066e+2, 2.3710747e+2, -641040.8, -728178.06, -16477.795, -0.00021537748, 0.0007026353, -638028.94, -21680.168, 0.0, 5.0105095, 4.9545565 
5.490203e+2, 2.4206138e+2, -599124.0, -686632.0, -15880.543, -0.00018210929, 0.0038731531, -596331.2, -28530.855, 0.0, 5.008766, 4.95262 
5.4897046e+2, 2.4701415e+2, -554755.5, -639802.44, -15841.731, 0.0003490016, 0.000057544177, -551900.5, -32637.414, 0.0, 5.0070405, 4.952504 
5.489211e+2, 2.5196588e+2, -512953.47, -598686.7, -14940.291, 0.00058223004, 0.0031122256, -510424.5, -39688.594, 0.0, 5.005308, 4.9503756 
5.488724e+2, 2.5691655e+2, -468223.97, -551170.1, -14846.695, 0.00040715878, -0.0002908606, -465646.63, -43427.51, 0.0, 5.0035887, 4.9504666 
5.488244e+2, 2.6186615e+2, -426660.9, -510747.2, -13688.563, 0.00014787402, 0.0030700446, -424488.63, -50775.516, 0.0, 5.001862, 4.9480515 
5.487773e+2, 2.668147e+2, -381493.03, -462345.1, -13532.6455, -0.00015862097, -0.00015705652, -379288.13, -54070.965, 0.0, 5.0001464, 4.9484234 
5.48731e+2, 2.71762e+2, -340246.5, -422818.38, -12080.206, -0.00019336819, 0.0030987323, -338515.47, -61782.055, 0.0, 4.9984283, 4.9456415 
5.4868597e+2, 2.767083e+2, -294593.53, -373494.13, -11837.617, -0.000014667814, -0.00074937276, -292855.78, -64596.336, 0.0, 4.996732, 4.946301 
5.4864186e+2, 2.816534e+2, -253462.61, -334475.8, -10112.414, -0.000057063502, 0.003143508, -252219.42, -72421.97, 0.0, 4.9950333, 4.943287 
5.485992e+2, 2.8659752e+2, -207382.5, -284378.25, -9773.935, -0.00026013012, -0.0016853836, -206161.17, -74815.91, 0.0, 4.993363, 4.9441824 
5.485575e+2, 2.9153985e+2, -167765.52, -249115.67, -7842.6084, -0.00038837464, 0.0025683427, -167016.34, -84106.08, 0.0, 4.9916844, 4.9397817 
5.4851764e+2, 2.9648077e+2, -121552.56, -198822.61, -7368.962, -0.00031526666, 0.0005965953, -120856.09, -86366.414, 0.0, 4.9900193, 4.9407144 
5.484788e+2, 3.0142903e+2, -83360.51, -134254.89, -5460.321, -0.0004337395, 0.003344398, -82781.27, -82781.27, 0.0, 4.988356, 4.955727 
5.4844195e+2, 3.0638564e+2, -86249.48, -132511.23, -4837.255, -0.0009220708, -0.0038690546, -85749.09, -85749.09, 0.0, 4.986729, 4.9570518 
5.484065e+2, 3.1136018e+2, -50372.094, -40767.25, -2616.4856, -0.0009590805, 0.005574263, -40100.734, -40100.734, 0.0, 4.9851055, 4.9913044 
5.48374e+2, 3.1635278e+2, -52502.113, -37482.402, -1754.4506, -0.000388516, 0.00079903466, -37280.188, -37280.188, 0.0, 4.983514, 4.9931984 
5.5518425e+2, 1.22933574e+2, -1622235.4, -1737043.3, -429.64072, -0.00057698606, 0.0023026173, -1622233.8, 113019.14, 0.0, 5.051011, 4.9757853 
5.551487e+2, 1.2790877e+2, -1579917.0, -1693758.4, -759.18256, -0.00036799087, -0.0014435184, -1579912.0, 106583.92, 0.0, 5.0493307, 4.9747977 
5.551112e+2, 1.3288337e+2, -1537493.0, -1650407.1, -3671.7214, -0.00012444133, 0.005071523, -1537373.8, 100370.805, 0.0, 5.04766, 4.9737434 
5.5507195e+2, 1.3785672e+2, -1494679.1, -1606084.9, -3992.0913, -0.00007348871, 0.00007365531, -1494536.3, 94469.35, 0.0, 5.045958, 4.973081 
5.55031e+2, 1.4282928e+2, -1452540.3, -1563290.3, -6496.2964, 0.00008780689, 0.00160061, -1452160.5, 88114.055, 0.0, 5.0442605, 4.971877 
5.549886e+2, 1.478012e+2, -1409555.0, -1518592.8, -6756.168, 0.00042805693, 0.00041530037, -1409138.0, 82411.7, 0.0, 5.0425363, 4.9713283 
5.549447e+2, 1.5277214e+2, -1367491.0, -1475899.8, -8900.563, 0.00047922911, 0.002751795, -1366765.1, 76069.56, 0.0, 5.040807, 4.9701033 
5.548995e+2, 1.577422e+2, -1324498.4, -1431087.8, -9090.941, 0.00026351708, 0.00043442356, -1323728.5, 70399.61, 0.0, 5.0390444, 4.969584 
5.5485314e+2, 1.6271138e+2, -1282491.6, -1388490.9, -10933.67, 0.0002538071, 0.0030954, -1281375.6, 64054.523, 0.0, 5.0372915, 4.968305 
5.548056e+2, 1.6767967e+2, -1239339.8, -1343395.3, -11104.113, 0.0004966778, 0.00069505756, -1238168.0, 58572.883, 0.0, 5.0355225, 4.9678535 
5.547571e+2, 1.7264704e+2, -1197411.3, -1301003.6, -12606.597, 0.00051378476, 0.002914363, -1195899.3, 52161.277, 0.0, 5.033759, 4.966476 
5.5470777e+2, 1.7761353e+2, -1154145.5, -1255696.9, -12758.488, 0.00048524598, 0.00043191627, -1152567.0, 46822.05, 0.0, 5.031979, 4.9660716 
5.546576e+2, 1.8257912e+2, -1112244.6, -1213430.5, -13954.979, 0.0004902682, 0.0028921473, -1110355.3, 40370.99, 0.0, 5.0302105, 4.964623 
5.546067e+2, 1.8754376e+2, -1068841.5, -1167915.8, -14055.241, 0.0004375266, 0.0005026036, -1066886.3, 35186.645, 0.0, 5.02843, 4.96426 
5.5455524e+2, 1.9250752e+2, -1027053.44, -1125954.9, -14927.676, 0.0002987038, 0.003291509, -1024849.44, 28578.63, 0.0, 5.0266547, 4.9626718 
5.545032e+2, 1.9747025e+2, -983538.06, -1080247.1, -14985.565, 0.00014558095, 0.0008025722, -981269.25, 23524.217, 0.0, 5.024866, 4.962348 
5.544508e+2, 2.0243208e+2, -941708.3, -1038238.44, -15572.285, 0.000048308055, 0.0034302042, -939258.4, 16909.162, 0.0, 5.0230784, 4.9607477 
5.5439806e+2, 2.0739286e+2, -898129.1, -992438.4, -15657.959, 0.000071785296, 0.0006087989, -895597.44, 11954.432, 0.0, 5.021282, 4.9604297 
5.5434513e+2, 2.1235275e+2, -856259.6, -950420.4, -15920.572, 0.00016600336, 0.0032671257, -853640.6, 5304.2124, 0.0, 5.01949, 4.9587946 
5.5429214e+2, 2.173116e+2, -812547.0, -904442.56, -15967.447, 0.00037734892, 0.00042162574, -809851.6, 496.6043, 0.0, 5.017698, 4.9585047 
5.5423915e+2, 2.2226955e+2, -770704.75, -862533.0, -15924.379, 0.0004082349, 0.0032655564, -768021.6, -6261.353, 0.0, 5.015894, 4.956801 
5.5418617e+2, 2.2722647e+2, -726940.3, -816392.4, -15937.729, 0.00015046605, 0.00065060536, -724185.56, -11003.008, 0.0, 5.014074, 4.9565496 
5.541334e+2, 2.3218241e+2, -685126.1, -774601.4, -15619.961, 0.000076605975, 0.0035363962, -682477.7, -17863.563, 0.0, 5.012259, 4.954772 
5.540809e+2, 2.3713732e+2, -641153.1, -728178.94, -15612.839, 0.000108541986, 0.00032391032, -638436.94, -22380.824, 0.0, 5.010457, 4.9545794 
5.540288e+2, 2.4209124e+2, -599371.44, -686645.6, -14998.13, 0.00018706926, 0.00347876, -596865.94, -29358.393, 0.0, 5.0086565, 4.952664 
5.539772e+2, 2.4704404e+2, -555162.9, -639887.7, -14949.633, 0.00039727415, -0.00021214984, -552602.4, -33632.414, 0.0, 5.0068736, 4.9525485 
5.5392605e+2, 2.5199583e+2, -513519.13, -598775.94, -14042.925, 0.00046387277, 0.002994068, -511265.63, -40823.285, 0.0, 5.005072, 4.950449 
5.538756e+2, 2.569466e+2, -469027.6, -551361.56, -13935.233, 0.00029126878, -0.00020581055, -466732.97, -44808.13, 0.0, 5.003267, 4.9505424 
5.538258e+2, 2.6189625e+2, -427651.16, -510953.5, -12750.525, 0.00010061712, 0.0031803811, -425743.22, -52325.07, 0.0, 5.00146, 4.948156 
5.53777e+2, 2.6684487e+2, -382662.6, -462624.72, -12590.623, 0.00001991528, -0.0002750337, -380726.97, -55805.5, 0.0, 4.9996786, 4.9485307 
5.53729e+2, 2.7179226e+2, -341575.06, -423125.44, -11113.8545, 0.00005941576, 0.0028837593, -340087.56, -63650.74, 0.0, 4.9978957, 4.945766 
5.536822e+2, 2.767387e+2, -296089.9, -373869.84, -10875.043, 0.000044514585, -0.0008455666, -294598.0, -66636.21, 0.0, 4.996138, 4.9464273 
5.536363e+2, 2.8168392e+2, -255132.92, -334861.66, -9136.99, -0.00010896096, 0.0031204883, -254099.22, -74600.64, 0.0, 4.9943643, 4.943441 
5.5359197e+2, 2.866282e+2, -209305.33, -284864.94, -8793.156, -0.00024391217, -0.0016776236, -208295.53, -77250.54, 0.0, 4.9926, 4.9443393 
5.535486e+2, 2.915707e+2, -169858.42, -249524.9, -6834.621, -0.00032754743, 0.0026054722, -169276.33, -86668.0, 0.0, 4.990832, 4.940003 
5.53507e+2, 2.9651177e+2, -123833.375, -199279.7, -6359.9824, -0.00027116836, 0.000652698, -123301.0, -89115.414, 0.0, 4.9890914, 4.940949 
5.5346644e+2, 3.014603e+2, -85844.1, -134770.6, -4445.7656, -0.0004220616, 0.0033664594, -85443.414, -85443.414, 0.0, 4.987347, 4.9559727 
5.5342793e+2, 3.064171e+2, -88974.64, -133130.47, -3826.8225, -0.00088784774, -0.0039870837, -88645.44, -88645.44, 0.0, 4.9856334, 4.957298 
5.5339086e+2, 3.113918e+2, -53326.97, -41508.09, -1618.8737, -0.0008808878, 0.0053467755, -41290.36, -41290.36, 0.0, 4.983925, 4.991536 
5.5335677e+2, 3.1638464e+2, -55668.094, -38334.973, -773.88367, -0.00022893677, 0.00062105805, -38300.49, -38300.49, 0.0, 4.9822607, 4.99342 
5.602352e+2, 1.22967586e+2, -1622181.9, -1737692.4, -1009.0645, -0.0003019648, 0.0033864954, -1622173.0, 112747.195, 0.0, 5.0511694, 4.975498 
5.60198e+2, 1.2794241e+2, -1579875.8, -1694418.6, -1355.8553, -0.0003627465, -0.0010797075, -1579859.8, 106306.734, 0.0, 5.049485, 4.9745083 
5.601587e+2, 1.3291669e+2, -1537464.6, -1651050.5, -4288.9336, -0.00032088245, 0.0049556126, -1537302.9, 100115.54, 0.0, 5.0478044, 4.973465 
5.601178e+2, 1.3788973e+2, -1494686.1, -1606737.5, -4612.8135, -0.000075896714, -0.0002798946, -1494496.5, 94186.15, 0.0, 5.046088, 4.9728065 
5.6007516e+2, 1.4286205e+2, -1452516.3, -1563801.4, -7137.412, 0.000035017638, 0.0012836849, -1452060.4, 87893.625, 0.0, 5.0443726, 4.9716578 
5.6003094e+2, 1.4783376e+2, -1409589.0, -1519129.3, -7413.518, 0.00008852098, 0.00033813636, -1409089.5, 82141.59, 0.0, 5.0426283, 4.9711103 
5.599853e+2, 1.528045e+2, -1367476.1, -1476288.4, -9610.396, 0.000049258473, 0.00263111, -1366633.9, 75884.01, 0.0, 5.040888, 4.96994 
5.599384e+2, 1.5777437e+2, -1324497.3, -1431490.1, -9834.933, -0.000053297557, 0.00004656991, -1323600.8, 70212.19, 0.0, 5.039122, 4.9694176 
5.598902e+2, 1.6274334e+2, -1282484.6, -1388866.0, -11710.318, 0.00008243925, 0.002367217, -1281210.9, 63905.84, 0.0, 5.0373654, 4.96815 
5.598409e+2, 1.6771142e+2, -1239348.8, -1343784.1, -11902.798, 0.0005077503, -0.0004339436, -1238009.4, 58419.973, 0.0, 5.035592, 4.967696 
5.5979073e+2, 1.7267866e+2, -1197409.4, -1301335.1, -13429.815, 0.00062145875, 0.0018240045, -1195702.0, 52048.383, 0.0, 5.0338206, 4.9663415 
5.5973953e+2, 1.7764503e+2, -1154176.5, -1256047.1, -13587.945, 0.0006211419, -0.00020106473, -1152395.1, 46684.863, 0.0, 5.0320296, 4.965936 
5.5968755e+2, 1.8261057e+2, -1112226.5, -1213617.4, -14804.015, 0.00053268584, 0.0024822215, -1110109.1, 40308.82, 0.0, 5.030248, 4.9645486 
5.596348e+2, 1.8757512e+2, -1068866.0, -1168123.5, -14929.615, 0.00031905566, 0.00010710224, -1066669.0, 35096.145, 0.0, 5.0284534, 4.964185 
5.595816e+2, 1.9253881e+2, -1027029.94, -1126028.3, -15832.636, 0.00018672438, 0.0028112237, -1024559.5, 28561.361, 0.0, 5.026671, 4.9626465 
5.5952775e+2, 1.975015e+2, -983517.8, -1080327.6, -15913.553, 0.00020565696, 0.00011326756, -980969.06, 23517.6, 0.0, 5.024883, 4.9623203 
5.5947363e+2, 2.0246327e+2, -941728.6, -1038412.5, -16518.313, 0.00031079052, 0.0026970357, -938984.44, 16876.838, 0.0, 5.023096, 4.960688 
5.5941916e+2, 2.07424e+2, -898149.9, -992623.3, -16597.78, 0.0005408285, -0.000007810734, -895318.75, 11927.481, 0.0, 5.0213013, 4.9603653 
5.5936444e+2, 2.1238387e+2, -856242.0, -950501.4, -16865.607, 0.0005737674, 0.002828799, -853315.2, 5324.3955, 0.0, 5.0195045, 4.958768 
5.5930954e+2, 2.1734272e+2, -812562.94, -904543.1, -16925.797, 0.00041113372, 0.00022575035, -809547.2, 495.8477, 0.0, 5.0177016, 4.9584765 
5.5925477e+2, 2.2230066e+2, -770690.56, -862545.2, -16918.371, 0.00026306335, 0.0031612823, -767673.5, -6218.3574, 0.0, 5.015893, 4.956805 
5.591999e+2, 2.2725756e+2, -726921.75, -816406.3, -16949.629, 0.000025213163, 0.00042428184, -723818.9, -10941.451, 0.0, 5.0140753, 4.956552 
5.591454e+2, 2.3221351e+2, -685092.7, -774585.1, -16634.93, 0.00014838038, 0.0031757278, -682100.56, -17791.547, 0.0, 5.012261, 4.954785 
5.5909115e+2, 2.371684e+2, -641125.06, -728169.56, -16640.605, 0.00055823446, -0.00017400083, -638052.3, -22301.15, 0.0, 5.010458, 4.9545903 
5.590372e+2, 2.4212235e+2, -599325.25, -686568.2, -16025.705, 0.0006395931, 0.003033978, -596474.6, -29272.172, 0.0, 5.0086517, 4.952701 
5.5898374e+2, 2.4707521e+2, -555144.8, -639821.44, -15986.272, 0.00035954075, -0.00038061783, -552227.25, -33562.98, 0.0, 5.006859, 4.952586 
5.589309e+2, 2.520271e+2, -513474.84, -598625.9, -15106.401, 0.00019315253, 0.003034152, -510874.28, -40738.254, 0.0, 5.0050526, 4.950518 
5.588786e+2, 2.5697795e+2, -468972.8, -551202.5, -15013.9, 0.00011241818, -0.0000464175, -466317.25, -44699.5, 0.0, 5.00325, 4.950613 
5.5882704e+2, 2.6192763e+2, -427563.78, -510723.5, -13827.37, 0.00007256059, 0.0032784673, -425324.94, -52214.59, 0.0, 5.0014443, 4.9482512 
5.5877644e+2, 2.6687634e+2, -382576.5, -462391.56, -13683.179, 0.0002824943, -0.00049131335, -380295.88, -55682.94, 0.0, 4.999662, 4.9486275 
5.5872667e+2, 2.7182382e+2, -341481.38, -422852.0, -12201.824, 0.00040532107, 0.0025591198, -339691.03, -63563.676, 0.0, 4.9978747, 4.9458785 
5.586781e+2, 2.7677038e+2, -296016.56, -373603.75, -11973.977, 0.00013269384, -0.0009468563, -294210.66, -66559.53, 0.0, 4.9961095, 4.9465404 
5.5863047e+2, 2.8171575e+2, -255036.5, -334513.44, -10247.718, -0.00016341868, 0.003177949, -253736.44, -74549.82, 0.0, 4.9943304, 4.9435854 
5.5858433e+2, 2.8666016e+2, -209207.16, -284508.78, -9917.705, -0.00021486351, -0.0015270311, -207922.83, -77191.35, 0.0, 4.992566, 4.944487 
5.585393e+2, 2.9160285e+2, -169686.8, -248992.73, -7951.7656, -0.00021582474, 0.0028213297, -168897.34, -86604.31, 0.0, 4.990797, 4.940213 
5.5849594e+2, 2.965442e+2, -123652.234, -198716.81, -7488.9136, -0.000086222455, 0.000852173, -122912.38, -89044.28, 0.0, 4.989055, 4.9411716 
5.584536e+2, 3.0149293e+2, -85663.84, -134193.81, -5566.6133, -0.00018859321, 0.003500593, -85033.516, -85033.516, 0.0, 4.987308, 4.9562035 
5.5841345e+2, 3.0644995e+2, -88805.01, -132559.28, -4956.4414, -0.00057389913, -0.0040118904, -88250.58, -88250.58, 0.0, 4.9855905, 4.957528 
5.583747e+2, 3.1142485e+2, -53191.844, -41003.22, -2716.7878, -0.00055479846, 0.005178482, -40425.082, -40425.082, 0.0, 4.983879, 4.991747 
5.5833894e+2, 3.164179e+2, -55565.67, -37868.215, -1875.61, -0.000016005855, 0.0004948741, -37671.617, -37671.617, 0.0, 4.9822073, 4.9936204 
5.652871e+2, 1.23003855e+2, -1618041.1, -1736289.6, -186.00829, -0.00030599488, 0.0032613184, -1618040.8, 116523.46, 0.0, 5.052712, 4.9752054 
5.6524813e+2, 1.2797837e+2, -1575952.3, -1693130.0, -545.64874, -0.00023667637, -0.0011511914, -1575949.6, 109864.07, 0.0, 5.0509567, 4.974216 
5.6520706e+2, 1.3295239e+2, -1533710.3, -1649759.4, -3496.0803, -0.00041465962, 0.005248764, -1533605.0, 103463.3, 0.0, 5.0491986, 4.973214 
5.651644e+2, 1.3792522e+2, -1491164.5, -1605559.9, -3815.2615, -0.00027022275, 0.00065183296, -1491037.4, 97297.32, 0.0, 5.0474043, 4.972559 
5.651199e+2, 1.4289731e+2, -1449186.8, -1562650.8, -6344.7944, -0.00011193111, 0.0023456325, -1448833.0, 90775.34, 0.0, 5.0456085, 4.971443 
5.6507397e+2, 1.4786877e+2, -1406503.4, -1518103.9, -6616.397, 0.00002994591, 0.0011347608, -1406112.5, 84775.484, 0.0, 5.043783, 4.970896 
5.650265e+2, 1.5283924e+2, -1364570.0, -1475311.5, -8818.855, 0.00006414953, 0.00316794, -1363872.1, 78305.0, 0.0, 5.0419726, 4.9697456 
5.6497777e+2, 1.5780887e+2, -1321779.0, -1430612.6, -9055.95, 0.00007122649, 0.00034211815, -1321030.6, 72444.02, 0.0, 5.040145, 4.969222 
5.649279e+2, 1.6277766e+2, -1279907.9, -1387992.1, -10939.529, 0.0002417131, 0.0026723326, -1278811.8, 65968.63, 0.0, 5.038326, 4.967985 
5.648768e+2, 1.6774558e+2, -1236962.1, -1343009.9, -11132.294, 0.0006538574, 0.00008146701, -1235806.1, 60288.72, 0.0, 5.0364895, 4.9675293 
5.648247e+2, 1.7271267e+2, -1195149.1, -1300506.9, -12665.9, 0.0006917605, 0.002323088, -1193647.9, 53769.53, 0.0, 5.0346503, 4.966227 
5.6477165e+2, 1.7767888e+2, -1152132.3, -1255331.8, -12804.134, 0.000574737, 0.00011242607, -1150567.4, 48181.098, 0.0, 5.032788, 4.9658194 
5.647179e+2, 1.8264425e+2, -1110369.9, -1212945.5, -14019.183, 0.0005121408, 0.002566068, -1108488.4, 41599.29, 0.0, 5.0309315, 4.964454 
5.6466335e+2, 1.8760867e+2, -1067238.5, -1167565.1, -14148.737, 0.00050195825, -0.000066176515, -1065281.4, 36154.89, 0.0, 5.029059, 4.9640903 
5.646083e+2, 1.9257228e+2, -1025524.56, -1125401.3, -15037.302, 0.0004757411, 0.0025030663, -1023309.7, 29483.137, 0.0, 5.0272083, 4.962608 
5.6455266e+2, 1.9753489e+2, -982186.8, -1079795.3, -15117.517, 0.0005151349, -0.00022075564, -979899.06, 24260.203, 0.0, 5.0253625, 4.962278 
5.644967e+2, 2.0249663e+2, -940510.94, -1037856.44, -15706.155, 0.0005613395, 0.0023866827, -938039.6, 17494.596, 0.0, 5.0235205, 4.9606805 
5.644403e+2, 2.0745732e+2, -897096.6, -992158.06, -15741.549, 0.0006263311, -0.00026130694, -894557.75, 12361.688, 0.0, 5.021672, 4.9603524 
5.643838e+2, 2.1241714e+2, -855383.06, -950144.1, -16000.349, 0.00060740154, 0.002569039, -852754.3, 5558.7646, 0.0, 5.0198107, 4.958749 
5.6432706e+2, 2.1737593e+2, -811932.25, -904300.0, -16047.036, 0.0004835908, -0.00011518791, -809223.8, 493.1847, 0.0, 5.01793, 4.9584546 
5.6427044e+2, 2.2233385e+2, -770216.94, -862312.56, -16028.32, 0.0004163587, 0.0027496458, -767507.1, -6377.68, 0.0, 5.0160537, 4.9568105 
5.642138e+2, 2.2729073e+2, -726609.6, -816254.1, -16052.733, 0.00029304792, -0.000067675, -723821.75, -11269.816, 0.0, 5.0141807, 4.9565554 
5.641574e+2, 2.3224668e+2, -684921.8, -774454.56, -15718.832, 0.00039923636, 0.002709304, -682242.3, -18258.645, 0.0, 5.0123086, 4.9548073 
5.6410134e+2, 2.3720159e+2, -641133.6, -728125.25, -15711.732, 0.00060781575, -0.0005057659, -638382.9, -22957.152, 0.0, 5.0104427, 4.9546113 
5.6404555e+2, 2.4215557e+2, -599498.2, -686519.06, -15083.029, 0.00058895897, 0.0028584565, -596958.06, -30081.271, 0.0, 5.008563, 4.952757 
5.6399024e+2, 2.4710847e+2, -555560.94, -639881.44, -15024.264, 0.00031579848, -0.00038347533, -552963.9, -34625.734, 0.0, 5.0066833, 4.952643 
5.6393546e+2, 2.5206038e+2, -514073.72, -598719.7, -14119.705, 0.00021656354, 0.003021345, -511780.56, -41971.15, 0.0, 5.004803, 4.9505954 
5.638814e+2, 2.5701126e+2, -469727.88, -551364.6, -14017.405, 0.00024878338, -0.0003227883, -467388.1, -46097.254, 0.0, 5.0029445, 4.950691 
5.6382805e+2, 2.6196107e+2, -428471.7, -510916.53, -12811.915, 0.00020545209, 0.002932082, -426526.63, -53743.74, 0.0, 5.0010777, 4.948344 
5.6377566e+2, 2.6690984e+2, -383667.34, -462663.97, -12668.07, 0.00028765146, -0.00060585147, -381685.56, -57400.91, 0.0, 4.999229, 4.9487214 
5.6372404e+2, 2.718574e+2, -342741.03, -423116.94, -11170.815, 0.00034744176, 0.0026072918, -341217.38, -65419.2, 0.0, 4.997366, 4.9460073 
5.636736e+2, 2.7680412e+2, -297518.06, -373966.63, -10929.97, 0.00012628625, -0.00084677356, -295986.1, -68665.266, 0.0, 4.9955115, 4.9466724 
5.636242e+2, 2.817496e+2, -256743.28, -334909.4, -9174.573, -0.00012501056, 0.003270042, -255680.88, -76825.75, 0.0, 4.993648, 4.943741 
5.635763e+2, 2.866941e+2, -211101.05, -284980.6, -8838.882, -0.00014875694, -0.0014901793, -210058.28, -79659.625, 0.0, 4.991814, 4.9446445 
5.6352943e+2, 2.9163697e+2, -171712.83, -249380.25, -6846.7695, -0.0001793447, 0.002796777, -171113.86, -89155.19, 0.0, 4.9899716, 4.94043 
5.634843e+2, 2.965785e+2, -125874.555, -199160.86, -6386.9517, -0.00017252807, 0.0007220956, -125322.09, -91790.27, 0.0, 4.9881525, 4.9413996 
5.6344026e+2, 3.0152744e+2, -88095.8, -134699.08, -4472.9478, -0.00027750194, 0.0033369926, -87670.37, -87670.37, 0.0, 4.986322, 4.9564424 
5.633983e+2, 3.0648467e+2, -91480.27, -133168.86, -3867.7676, -0.0003693352, -0.004056178, -91124.47, -91124.47, 0.0, 4.9845166, 4.957768 
5.6335783e+2, 3.114598e+2, -56113.363, -41730.617, -1638.1293, -0.00030333415, 0.0050898325, -41546.4, -41546.4, 0.0, 4.9827127, 4.991977 
5.6332034e+2, 3.1645304e+2, -58742.418, -38723.723, -801.9879, -0.000066007866, 0.00015352789, -38691.645, -38691.645, 0.0, 4.9809523, 4.9938416 
5.703397e+2, 1.2304125e+2, -1618032.8, -1737002.8, -911.7927, -0.00035883233, 0.0029113055, -1618025.8, 116171.39, 0.0, 5.052863, 4.9749007 
5.7029897e+2, 1.2801549e+2, -1576000.8, -1693872.0, -1267.1334, -0.00006534871, -0.0012894081, -1575987.1, 109462.586, 0.0, 5.0510883, 4.973911 
5.702561e+2, 1.3298924e+2, -1533715.0, -1650375.9, -4230.225, -0.00046466445, 0.005477328, -1533561.8, 103145.125, 0.0, 5.0493217, 4.972955 
5.702116e+2, 1.3796186e+2, -1491164.9, -1606168.4, -4556.0835, -0.00045589026, 0.0014023129, -1490984.6, 96990.79, 0.0, 5.047527, 4.9723024 
5.7016534e+2, 1.4293371e+2, -1449147.4, -1563166.1, -7106.4106, -0.00023398272, 0.0031915188, -1448706.1, 90545.16, 0.0, 5.045728, 4.97122 
5.7011753e+2, 1.4790492e+2, -1406480.4, -1518627.3, -7391.389, 0.00003052621, 0.0017294828, -1405995.3, 84538.01, 0.0, 5.0438967, 4.970672 
5.700683e+2, 1.5287517e+2, -1364539.8, -1475798.0, -9597.169, 0.00015217852, 0.0035698432, -1363718.0, 78106.92, 0.0, 5.042081, 4.9695377 
5.7001776e+2, 1.5784456e+2, -1321764.9, -1431108.4, -9843.458, 0.0002663557, 0.0006075676, -1320885.8, 72238.94, 0.0, 5.0402474, 4.969013 
5.6996596e+2, 1.6281317e+2, -1279874.8, -1388397.8, -11737.687, 0.00043768517, 0.0030344455, -1278619.8, 65812.74, 0.0, 5.038417, 4.967812 
5.69913e+2, 1.6778094e+2, -1236977.3, -1343442.8, -11933.2, 0.00077971537, 0.0007303257, -1235656.1, 60092.383, 0.0, 5.036565, 4.9673553 
5.698591e+2, 1.7274787e+2, -1195120.6, -1300800.0, -13498.407, 0.0007294086, 0.0029648002, -1193423.8, 53648.7, 0.0, 5.0347147, 4.966105 
5.698042e+2, 1.7771393e+2, -1152125.5, -1255639.9, -13656.826, 0.00052223174, 0.0005003629, -1150354.1, 48050.734, 0.0, 5.0328455, 4.9656954 
5.697485e+2, 1.8267915e+2, -1110347.4, -1213209.6, -14897.389, 0.0005136681, 0.0026925288, -1108233.3, 41512.2, 0.0, 5.030987, 4.9643464 
5.6969213e+2, 1.8764345e+2, -1067217.6, -1167834.6, -15040.485, 0.0007450425, -0.00018933385, -1065017.5, 36077.848, 0.0, 5.0291142, 4.9639807 
5.696353e+2, 1.9260696e+2, -1025452.2, -1125512.5, -15934.196, 0.0008203671, 0.0022636517, -1022976.0, 29476.834, 0.0, 5.027253, 4.962557 
5.6957775e+2, 1.975695e+2, -982177.0, -1079948.9, -16037.271, 0.00083930045, -0.00044128278, -979613.7, 24206.13, 0.0, 5.0253882, 4.962221 
5.695199e+2, 2.0253122e+2, -940469.2, -1037878.0, -16652.512, 0.00077427627, 0.0022051437, -937701.0, 17493.996, 0.0, 5.0235333, 4.9606752 
5.6946164e+2, 2.074919e+2, -897083.8, -992203.56, -16705.094, 0.00060586096, -0.00040662082, -894235.4, 12344.91, 0.0, 5.021676, 4.960343 
5.6940323e+2, 2.1245171e+2, -855391.56, -950233.94, -17001.354, 0.0005471466, 0.0023751438, -852436.0, 5538.122, 0.0, 5.0198145, 4.9587245 
5.693447e+2, 2.1741045e+2, -811925.8, -904389.06, -17052.127, 0.0005605195, -0.0004633137, -808881.3, 497.0959, 0.0, 5.0179405, 4.958428 
5.6928617e+2, 2.2236834e+2, -770175.4, -862333.25, -17041.643, 0.0006276694, 0.0022965325, -767125.06, -6333.951, 0.0, 5.016066, 4.9568067 
5.692277e+2, 2.2732522e+2, -726580.4, -816286.7, -17084.88, 0.00063033844, -0.0005795408, -723436.7, -11222.901, 0.0, 5.0141897, 4.956549 
5.6916946e+2, 2.3228118e+2, -684879.94, -774429.8, -16761.426, 0.0006513484, 0.0022789664, -681845.44, -18199.988, 0.0, 5.0123115, 4.954823 
5.6911147e+2, 2.372361e+2, -641117.56, -728115.5, -16767.305, 0.0004987478, -0.00072670146, -637997.9, -22910.578, 0.0, 5.0104375, 4.954626 
5.6905377e+2, 2.4219012e+2, -599446.56, -686410.94, -16164.079, 0.0003603425, 0.002814056, -596539.4, -30001.453, 0.0, 5.008554, 4.952807 
5.689966e+2, 2.4714312e+2, -555503.06, -639769.8, -16124.844, 0.0002524537, -0.00030413267, -552522.9, -34524.277, 0.0, 5.0066767, 4.9526935 
5.6894e+2, 2.5209507e+2, -513993.1, -598558.0, -15224.249, 0.000315438, 0.0030187054, -511335.78, -41866.39, 0.0, 5.0047965, 4.950663 
5.688841e+2, 2.5704595e+2, -469650.7, -551204.1, -15137.346, 0.00046049763, -0.00070377055, -466931.66, -45981.22, 0.0, 5.002937, 4.9507594 
5.688289e+2, 2.6199582e+2, -428390.88, -510725.66, -13939.415, 0.00035261855, 0.0024905857, -426094.94, -53653.04, 0.0, 5.0010657, 4.948425 
5.687746e+2, 2.6694474e+2, -383605.44, -462481.78, -13805.839, 0.00015459624, -0.00062154833, -381258.8, -57316.125, 0.0, 4.9992104, 4.9488015 
5.687211e+2, 2.7189246e+2, -342639.78, -422821.2, -12320.733, 0.00009202147, 0.0028507968, -340789.25, -65334.152, 0.0, 4.997343, 4.946129 
5.6866896e+2, 2.7683926e+2, -297412.06, -373660.6, -12097.392, 0.000043347172, -0.0006224535, -295538.75, -68562.234, 0.0, 4.9954886, 4.9467983 
5.6861764e+2, 2.8178486e+2, -256614.28, -334550.38, -10341.243, -0.00008752955, 0.0034159059, -255265.45, -76755.92, 0.0, 4.9936256, 4.943885 
5.6856793e+2, 2.867295e+2, -210968.53, -284620.13, -10019.806, -0.00010877749, -0.001461597, -209629.73, -79578.016, 0.0, 4.991793, 4.9447885 
5.685192e+2, 2.9167253e+2, -171513.88, -248857.98, -8028.4097, -0.00022563829, 0.0027103282, -170689.31, -89079.15, 0.0, 4.9899497, 4.9406323 
5.684722e+2, 2.9661426e+2, -125680.38, -198619.61, -7578.2974, -0.00043696936, 0.00048423576, -124901.33, -91719.92, 0.0, 4.988125, 4.9416113 
5.684263e+2, 3.015634e+2, -87902.77, -134140.61, -5663.3394, -0.00057310134, 0.003080509, -87219.22, -87219.22, 0.0, 4.986291, 4.9566636 
5.683827e+2, 3.065209e+2, -91283.82, -132609.06, -5066.8496, -0.0002732954, -0.0040516034, -90671.65, -90671.65, 0.0, 4.9844866, 4.957989 
5.683404e+2, 3.1149626e+2, -55932.53, -41208.496, -2810.749, -0.0001651807, 0.0050951648, -40690.18, -40690.18, 0.0, 4.982682, 4.9921885 
5.6830114e+2, 3.1648964e+2, -58595.24, -38233.43, -1982.9988, -0.00039239047, -0.00024989454, -38042.105, -38042.105, 0.0, 4.9809127, 4.9940453 
5.753932e+2, 1.2308089e+2, -1613775.0, -1735471.3, -169.93863, -0.00048157875, 0.0021751374, -1613774.8, 120033.99, 0.0, 5.054432, 4.9746375 
5.7535064e+2, 1.2805487e+2, -1572011.6, -1692483.3, -518.7232, 0.000120919714, -0.0016224234, -1572009.4, 113054.31, 0.0, 5.0525694, 4.9736466 
5.75306e+2, 1.3302833e+2, -1529908.6, -1649004.8, -3463.1084, -0.00043588664, 0.0048425337, -1529808.0, 106515.555, 0.0, 5.0507245, 4.972727 
5.752596e+2, 1.3800064e+2, -1487566.1, -1604903.8, -3785.3406, -0.0005079354, 0.000011386967, -1487444.1, 100150.93, 0.0, 5.048861, 4.972075 
5.7521147e+2, 1.4297222e+2, -1445739.0, -1561971.1, -6345.019, -0.00024878813, 0.0015807222, -1445393.6, 93479.8, 0.0, 5.046992, 4.9710064 
5.751619e+2, 1.4794321e+2, -1403279.3, -1517532.5, -6632.4575, 0.000042722895, 0.00026147036, -1402895.5, 87262.13, 0.0, 5.0450897, 4.970462 
5.7511073e+2, 1.5291326e+2, -1361495.5, -1474719.8, -8818.462, 0.00020352122, 0.0023726348, -1360812.8, 80638.375, 0.0, 5.043207, 4.969357 
5.750583e+2, 1.578825e+2, -1318915.6, -1430130.4, -9048.28, 0.00041345845, -0.00022387765, -1318184.3, 74568.35, 0.0, 5.041309, 4.9688325 
5.750046e+2, 1.6285092e+2, -1277167.5, -1387389.4, -10932.832, 0.0005112827, 0.0023294021, -1276093.5, 67968.414, 0.0, 5.039408, 4.967677 
5.7494974e+2, 1.6781853e+2, -1234498.6, -1342562.0, -11102.72, 0.00066285895, -0.000022617927, -1233369.8, 62009.78, 0.0, 5.037482, 4.9672146 
5.748939e+2, 1.7278531e+2, -1192824.6, -1299977.4, -12659.23, 0.00069188105, 0.0022190583, -1191349.4, 55355.676, 0.0, 5.035563, 4.96598 
5.7483715e+2, 1.7775121e+2, -1150026.4, -1254920.3, -12809.48, 0.0007870006, -0.00020574895, -1148484.8, 49554.23, 0.0, 5.033628, 4.965568 
5.747796e+2, 1.8271632e+2, -1108392.0, -1212492.5, -14036.665, 0.00084845873, 0.002093732, -1106532.5, 42848.258, 0.0, 5.031706, 4.96425 
5.7472134e+2, 1.8768051e+2, -1065436.5, -1167207.6, -14163.932, 0.0010129481, -0.00059965247, -1063502.0, 37229.7, 0.0, 5.029775, 4.963883 
5.7466245e+2, 1.9264393e+2, -1023831.75, -1124887.6, -15058.374, 0.0009985217, 0.0019319361, -1021635.6, 30454.52, 0.0, 5.0278425, 4.962493 
5.746031e+2, 1.9760638e+2, -980811.2, -1079459.8, -15157.598, 0.0009226264, -0.0007728419, -978534.7, 24923.273, 0.0, 5.025893, 4.9621515 
5.7454336e+2, 2.0256804e+2, -939234.0, -1037302.4, -15755.388, 0.0008549957, 0.0018547123, -936764.94, 18068.826, 0.0, 5.023962, 4.960672 
5.744832e+2, 2.0752868e+2, -896057.56, -991738.6, -15794.397, 0.00073635345, -0.0008058244, -893517.75, 12701.665, 0.0, 5.0220356, 4.960335 
5.744229e+2, 2.1248847e+2, -854508.7, -949791.75, -16071.64, 0.0007159944, 0.0019439851, -851870.9, 5742.639, 0.0, 5.020115, 4.958737 
5.743625e+2, 2.174472e+2, -811184.8, -904021.3, -16088.224, 0.00073961593, -0.00093170116, -808475.9, 542.0746, 0.0, 5.018193, 4.958437 
5.743021e+2, 2.2240508e+2, -769606.3, -862067.8, -16065.072, 0.0007480029, 0.0018593282, -766894.56, -6463.778, 0.0, 5.016263, 4.9568067 
5.7424164e+2, 2.2736192e+2, -726202.1, -816118.56, -16099.78, 0.0006105771, -0.00092527014, -723406.3, -11552.617, 0.0, 5.014322, 4.9565454 
5.7418144e+2, 2.3231788e+2, -684654.25, -774242.5, -15764.188, 0.0005575477, 0.00201574, -681961.3, -18675.871, 0.0, 5.0123725, 4.954859 
5.7412153e+2, 2.3727283e+2, -641118.2, -728035.6, -15750.627, 0.00037449948, -0.0009414929, -638352.0, -23624.916, 0.0, 5.010419, 4.9546604 
5.7406193e+2, 2.4222687e+2, -599626.3, -686376.4, -15125.088, 0.0002582813, 0.0025707083, -597064.9, -30887.34, 0.0, 5.008466, 4.952857 
5.7400286e+2, 2.4717985e+2, -555848.9, -639813.6, -15082.093, 0.00021616265, -0.00068857364, -553221.94, -35583.746, 0.0, 5.00653, 4.952742 
5.7394433e+2, 2.5213185e+2, -514483.28, -598610.9, -14165.363, 0.00028741657, 0.0026547846, -512162.2, -43053.516, 0.0, 5.004588, 4.9507356 
5.738865e+2, 2.5708282e+2, -470328.7, -551339.6, -14071.6875, 0.0003299573, -0.00085257186, -467954.03, -47364.902, 0.0, 5.0026608, 4.9508324 
5.738294e+2, 2.6203278e+2, -429242.9, -510869.2, -12861.159, 0.00014247, 0.0025022617, -427264.44, -55184.547, 0.0, 5.000715, 4.948528 
5.7377326e+2, 2.6698175e+2, -384685.28, -462722.9, -12706.282, -0.000089239504, -0.0005115814, -382668.53, -59088.656, 0.0, 4.9987764, 4.9489064 
5.737179e+2, 2.7192956e+2, -343898.2, -423066.7, -11187.87, -0.00016898445, 0.0029734175, -342347.53, -67256.18, 0.0, 4.9968314, 4.946265 
5.7366383e+2, 2.7687648e+2, -298851.06, -373980.94, -10956.51, -0.00014383026, -0.00062084186, -297285.84, -70674.16, 0.0, 4.9949107, 4.9469357 
5.7361066e+2, 2.818222e+2, -258226.0, -334923.38, -9171.059, -0.00022822357, 0.0033522483, -257144.63, -79001.03, 0.0, 4.9929824, 4.944031 
5.735591e+2, 2.8676698e+2, -212748.86, -285066.97, -8851.419, -0.00028392047, -0.0014567171, -211681.25, -81996.56, 0.0, 4.9910884, 4.9449334 
5.735085e+2, 2.9171014e+2, -173407.03, -249167.58, -6853.019, -0.0005061326, 0.002771524, -172792.13, -91550.5, 0.0, 4.9891696, 4.9408565 
5.7345957e+2, 2.9665208e+2, -127812.77, -199000.78, -6391.191, -0.00090206275, 0.0005357688, -127243.53, -94432.79, 0.0, 4.9872518, 4.9418483 
5.7341194e+2, 3.0160144e+2, -90264.84, -134608.4, -4459.852, -0.0010507988, 0.0031257, -89820.74, -89820.74, 0.0, 4.98533, 4.956905 
5.733664e+2, 3.0655918e+2, -93827.55, -133158.38, -3855.8938, -0.00043453445, -0.0039679236, -93453.086, -93453.086, 0.0, 4.9834614, 4.9582286 
5.7332236e+2, 3.1153473e+2, -58705.08, -41889.02, -1633.8531, -0.0003075956, 0.0051138075, -41731.742, -41731.742, 0.0, 4.981576, 4.992409 
5.7328117e+2, 3.1652826e+2, -61643.01, -39053.574, -830.4344, -0.00076018256, -0.000408331, -39023.09, -39023.09, 0.0, 4.979711, 4.9942555 
5.8044744e+2, 1.2312176e+2, -1613711.0, -1736101.5, -832.39264, -0.0005732715, 0.0016670945, -1613705.4, 119702.86, 0.0, 5.0545893, 4.9743576 
5.804031e+2, 1.280955e+2, -1571935.8, -1693111.4, -1207.8086, 0.00031844238, -0.0018492176, -1571923.6, 112741.89, 0.0, 5.052731, 4.9733653 
5.803565e+2, 1.3306865e+2, -1529817.4, -1649544.9, -4171.519, -0.00038573582, 0.0043167113, -1529672.3, 106256.055, 0.0, 5.050873, 4.972481 
5.803083e+2, 1.3804063e+2, -1487539.3, -1605472.9, -4528.7207, -0.00049605913, -0.0012160769, -1487365.6, 99837.08, 0.0, 5.0489864, 4.9718304 
5.8025825e+2, 1.4301194e+2, -1445709.6, -1562504.8, -7115.441, -0.0001896004, 0.00014895642, -1445277.8, 93205.81, 0.0, 5.0471096, 4.970778 
5.8020675e+2, 1.4798273e+2, -1403238.0, -1518052.1, -7415.8687, 0.000095024225, -0.0010317812, -1402761.0, 87009.05, 0.0, 5.04521, 4.9702373 
5.801537e+2, 1.5295258e+2, -1361425.6, -1475135.8, -9607.789, 0.0002434471, 0.001320324, -1360619.6, 80445.81, 0.0, 5.043317, 4.969172 
5.8009934e+2, 1.5792166e+2, -1318898.0, -1430569.5, -9855.815, 0.0004913037, -0.00096433394, -1318034.8, 74333.75, 0.0, 5.0414004, 4.9686484 
5.800437e+2, 1.6288994e+2, -1277127.3, -1387727.5, -11773.25, 0.0005336349, 0.0016542341, -1275887.9, 67791.5, 0.0, 5.0394874, 4.9675336 
5.7998693e+2, 1.6785736e+2, -1234484.8, -1342920.0, -11968.509, 0.0005615618, -0.00081647723, -1233179.4, 61818.92, 0.0, 5.0375533, 4.9670677 
5.799292e+2, 1.7282401e+2, -1192799.5, -1300306.0, -13546.977, 0.0006880295, 0.0014130794, -1191118.8, 55206.563, 0.0, 5.0356326, 4.965844 
5.7987046e+2, 1.7778978e+2, -1149995.6, -1255248.3, -13707.097, 0.0010689447, -0.00095305697, -1148239.9, 49420.793, 0.0, 5.0336995, 4.9654317 
5.7981104e+2, 1.8275477e+2, -1108339.1, -1212735.6, -14946.864, 0.0011729437, 0.0014805218, -1106241.3, 42762.348, 0.0, 5.031769, 4.964146 
5.797508e+2, 1.8771887e+2, -1065432.6, -1167477.9, -15085.123, 0.0012271638, -0.0009883373, -1063249.4, 37106.04, 0.0, 5.029822, 4.963777 
5.7969e+2, 1.926822e+2, -1023813.06, -1125085.8, -16007.335, 0.0011044856, 0.0016355402, -1021343.2, 30371.53, 0.0, 5.0278807, 4.962416 
5.7962865e+2, 1.9764458e+2, -980808.3, -1079678.0, -16117.421, 0.00094453763, -0.0010748828, -978247.25, 24836.123, 0.0, 5.0259285, 4.9620695 
5.7956696e+2, 2.0260617e+2, -939162.06, -1037338.44, -16725.738, 0.0009001852, 0.0015164636, -936390.9, 18068.81, 0.0, 5.02399, 4.960655 
5.795049e+2, 2.0756678e+2, -896021.5, -991800.4, -16792.322, 0.0008759089, -0.0012143026, -893162.7, 12682.923, 0.0, 5.022053, 4.9603148 
5.794427e+2, 2.1252656e+2, -854457.56, -949776.1, -17092.32, 0.0008948299, 0.0015137251, -851485.3, 5754.509, 0.0, 5.020123, 4.9587474 
5.7938033e+2, 2.1748531e+2, -811160.3, -904024.44, -17123.428, 0.0008895884, -0.0013643036, -808103.5, 540.6657, 0.0, 5.018193, 4.958445 
5.793179e+2, 2.2244318e+2, -769611.6, -862121.4, -17123.941, 0.00079493277, 0.0014943494, -766543.6, -6486.625, 0.0, 5.01626, 4.956799 
5.792556e+2, 2.2740002e+2, -726207.06, -816180.6, -17162.178, 0.00046152165, -0.0011653989, -723044.56, -11564.535, 0.0, 5.0143204, 4.9565344 
5.791934e+2, 2.32356e+2, -684603.0, -774187.8, -16847.854, 0.00034744214, 0.0018493957, -681539.25, -18627.637, 0.0, 5.0123725, 4.954887 
5.7913154e+2, 2.3731098e+2, -641064.7, -727983.94, -16859.527, 0.00023128293, -0.0011162006, -637909.0, -23556.09, 0.0, 5.010421, 4.954687 
5.790701e+2, 2.4226503e+2, -599562.44, -686297.5, -16242.247, 0.00017377963, 0.0023061044, -596620.6, -30817.44, 0.0, 5.0084667, 4.9528933 
5.7900906e+2, 2.4721803e+2, -555795.4, -639744.25, -16213.405, 0.00015529037, -0.0011692898, -552772.9, -35509.027, 0.0, 5.0065284, 4.9527764 
5.789486e+2, 2.521701e+2, -514412.66, -598474.06, -15305.678, 0.00017811728, 0.0022350017, -511712.6, -42978.707, 0.0, 5.0045805, 4.9507957 
5.7888883e+2, 2.5712115e+2, -470281.2, -551212.3, -15226.992, 0.00004624477, -0.00085981295, -467511.1, -47297.598, 0.0, 5.0026455, 4.9508934 
5.7882977e+2, 2.620712e+2, -429161.97, -510645.06, -14039.736, -0.00021820453, 0.0027257977, -426810.75, -55107.383, 0.0, 5.000695, 4.9486237 
5.7877165e+2, 2.6702026e+2, -384595.66, -462490.6, -13902.283, -0.00038554906, -0.0003243927, -382188.8, -58986.39, 0.0, 4.9987593, 4.9490047 
5.7871443e+2, 2.719682e+2, -343775.28, -422758.56, -12388.452, -0.00045045366, 0.003073792, -341877.75, -67164.87, 0.0, 4.9968143, 4.9463897 
5.786584e+2, 2.769152e+2, -298731.7, -373674.28, -12178.162, -0.0004010198, -0.00067803805, -296802.4, -70570.41, 0.0, 4.9948926, 4.9470606 
5.786033e+2, 2.8186107e+2, -258114.2, -334611.16, -10389.838, -0.00047607586, 0.0032424247, -256728.16, -78965.43, 0.0, 4.9929605, 4.944159 
5.7854986e+2, 2.8680596e+2, -212660.19, -284770.2, -10078.458, -0.00058176776, -0.001414932, -211278.06, -81975.41, 0.0, 4.9910593, 4.94506 
5.7849735e+2, 2.9174933e+2, -173223.34, -248628.77, -8105.0854, -0.0009221213, 0.0029531906, -172362.0, -91504.02, 0.0, 4.989136, 4.94107 
5.784465e+2, 2.9669148e+2, -127612.71, -198425.86, -7660.9346, -0.0014836492, 0.0007713315, -126793.39, -94368.664, 0.0, 4.987219, 4.9420753 
5.78397e+2, 3.0164108e+2, -90070.12, -134044.5, -5711.772, -0.0016397176, 0.0033624296, -89340.33, -89340.33, 0.0, 4.985297, 4.95713 
5.783496e+2, 3.06599e+2, -93636.836, -132602.83, -5112.858, -0.0007680489, -0.0037987207, -92977.125, -92977.125, 0.0, 4.9834285, 4.958451 
5.783037e+2, 3.1157476e+2, -58554.438, -41426.277, -2896.8643, -0.0006576208, 0.005195827, -40949.6, -40949.6, 0.0, 4.981542, 4.9926014 
5.7826066e+2, 3.165685e+2, -61527.395, -38632.004, -2105.8423, -0.0012673726, -0.00037587353, -38439.93, -38439.93, 0.0, 4.979669, 4.9944363 
5.855027e+2, 1.2316528e+2, -1609390.4, -1734575.8, 26.092398, -0.0005673773, 0.002091578, -1609390.4, 123591.03, 0.0, 5.05619, 4.9740767 
5.854565e+2, 1.2813868e+2, -1567839.3, -1691708.9, -367.51086, 0.00042470748, -0.0016982143, -1567838.3, 116403.914, 0.0, 5.054259, 4.9730825 
5.85408e+2, 1.3311157e+2, -1525929.0, -1648193.5, -3349.5664, -0.00035592847, 0.0046614, -1525837.3, 109670.41, 0.0, 5.0523186, 4.9722247 
5.853578e+2, 1.380833e+2, -1483904.4, -1604242.6, -3720.6636, -0.00032251643, -0.00042666725, -1483789.5, 102995.195, 0.0, 5.050346, 4.971579 
5.853058e+2, 1.430544e+2, -1442231.3, -1561257.1, -6289.839, 0.0000708147, 0.0011125375, -1441899.9, 96168.195, 0.0, 5.048395, 4.970571 
5.8525234e+2, 1.4802493e+2, -1399953.1, -1516896.4, -6586.1875, 0.0002959383, -0.00007152805, -1399583.4, 89773.38, 0.0, 5.046429, 4.970034 
5.851973e+2, 1.5299457e+2, -1358314.8, -1473998.3, -8779.362, 0.00023775951, 0.002103876, -1357652.3, 83002.02, 0.0, 5.044462, 4.9690013 
5.85141e+2, 1.5796341e+2, -1316026.1, -1429551.3, -9026.462, 0.00022924873, -0.00048213702, -1315312.9, 76646.62, 0.0, 5.042465, 4.968479 
5.8508337e+2, 1.6293149e+2, -1274439.3, -1386753.9, -10933.972, 0.00042785145, 0.0019592727, -1273384.8, 69887.57, 0.0, 5.0404797, 4.9673862 
5.850247e+2, 1.6789874e+2, -1231993.0, -1342044.3, -11124.474, 0.0008896521, -0.00059031404, -1230879.8, 63713.355, 0.0, 5.0384793, 4.9669213 
5.84965e+2, 1.728652e+2, -1190436.0, -1299415.4, -12678.621, 0.0010262885, 0.0015623494, -1188980.5, 56941.098, 0.0, 5.0364976, 4.965733 
5.849043e+2, 1.7783085e+2, -1147800.0, -1254446.3, -12816.411, 0.0011259922, -0.0008744518, -1146281.4, 50976.984, 0.0, 5.034509, 4.9653187 
5.8484286e+2, 1.8279572e+2, -1106302.4, -1211946.4, -14055.282, 0.0010787277, 0.0014592453, -1104464.4, 44138.137, 0.0, 5.0325103, 4.964063 
5.847806e+2, 1.8775967e+2, -1063626.0, -1166808.3, -14171.829, 0.0011399112, -0.0011368417, -1061714.9, 38240.6, 0.0, 5.0304866, 4.963691 
5.847178e+2, 1.927229e+2, -1022173.9, -1124439.9, -15072.567, 0.001094086, 0.0014197858, -1019998.7, 31317.031, 0.0, 5.0284758, 4.962356 
5.8465445e+2, 1.976852e+2, -979360.56, -1079135.4, -15159.862, 0.0010751183, -0.001284482, -977108.0, 25577.2, 0.0, 5.0264597, 4.9620056 
5.845908e+2, 2.0264672e+2, -937874.8, -1036811.8, -15756.103, 0.0010455686, 0.0012773507, -935426.25, 18636.041, 0.0, 5.0244536, 4.9606185 
5.845268e+2, 2.0760725e+2, -894953.94, -991385.94, -15823.264, 0.0009129445, -0.001502926, -892423.94, 13024.972, 0.0, 5.022442, 4.960275 
5.844626e+2, 2.12567e+2, -853506.8, -949264.06, -16109.212, 0.00082781585, 0.0012484477, -850869.4, 5973.947, 0.0, 5.02044, 4.958775 
5.843982e+2, 2.1752574e+2, -810419.3, -903619.2, -16117.605, 0.00070749514, -0.0015614528, -807710.75, 536.97125, 0.0, 5.018439, 4.95847 
5.8433384e+2, 2.2248362e+2, -769030.1, -861748.56, -16084.727, 0.00059851434, 0.0013315709, -766319.0, -6658.5713, 0.0, 5.016442, 4.9568424 
5.842695e+2, 2.2744049e+2, -725791.7, -815895.06, -16080.177, 0.00034678986, -0.0013419848, -723008.0, -11924.698, 0.0, 5.0144463, 4.9565735 
5.8420545e+2, 2.3239645e+2, -684370.94, -774020.44, -15748.316, 0.00028905564, 0.001620008, -681685.0, -19170.129, 0.0, 5.012441, 4.9549117 
5.841416e+2, 2.373514e+2, -641003.44, -727903.3, -15759.277, 0.00018813093, -0.00145763, -638233.8, -24277.418, 0.0, 5.010431, 4.954708 
5.8407813e+2, 2.4230549e+2, -599639.5, -686205.6, -15125.51, 0.000088747394, 0.0019508995, -597072.75, -31666.209, 0.0, 5.0084133, 4.9529467 
5.8401513e+2, 2.4725851e+2, -556070.6, -639745.4, -15078.253, -0.00007123134, -0.0014575956, -553436.44, -36569.465, 0.0, 5.0064054, 4.9528284 
5.839527e+2, 2.5221062e+2, -514868.8, -598489.94, -14153.525, -0.000098885655, 0.0020431415, -512538.2, -44201.613, 0.0, 5.004381, 4.9508767 
5.83891e+2, 2.5716174e+2, -470979.7, -551337.8, -14057.535, -0.0001941571, -0.00090934697, -468591.47, -48775.918, 0.0, 5.0023594, 4.950974 
5.8382994e+2, 2.6211184e+2, -430042.7, -510789.88, -12840.496, -0.00034002756, 0.0026640496, -428049.94, -56745.16, 0.0, 5.0003324, 4.948731 
5.837699e+2, 2.6706097e+2, -385639.56, -462705.63, -12692.573, -0.0002918483, -0.00061863475, -383602.94, -60799.695, 0.0, 4.9983377, 4.949112 
5.837106e+2, 2.72009e+2, -344984.44, -423010.06, -11163.386, -0.0003378504, 0.0027120363, -343418.7, -69105.75, 0.0, 4.996327, 4.946512 
5.836527e+2, 2.7695608e+2, -300138.8, -374014.0, -10959.09, -0.00044603617, -0.0008910086, -298547.34, -72716.21, 0.0, 4.994334, 4.947182 
5.8359563e+2, 2.8190207e+2, -259707.81, -334952.56, -9152.439, -0.0005461008, 0.0031685675, -258610.56, -81249.79, 0.0, 4.99232, 4.944314 
5.835402e+2, 2.8684714e+2, -214512.45, -285219.5, -8818.268, -0.00053494296, -0.0013243913, -213429.28, -84529.984, 0.0, 4.990324, 4.945216 
5.834858e+2, 2.9179066e+2, -175234.61, -248972.06, -6819.773, -0.00079510274, 0.003107034, -174609.17, -94156.195, 0.0, 4.9883113, 4.9413013 
5.8343303e+2, 2.96733e+2, -129807.61, -198822.66, -6373.566, -0.0012588134, 0.00077284174, -129223.945, -97206.18, 0.0, 4.986322, 4.9423165 
5.8338153e+2, 3.016828e+2, -92472.664, -134536.63, -4415.3574, -0.0013142622, 0.0032996656, -92014.195, -92014.195, 0.0, 4.984325, 4.957367 
5.8333236e+2, 3.0664095e+2, -96248.77, -133193.5, -3814.8367, -0.00040486822, -0.0037376927, -95858.98, -95858.98, 0.0, 4.9823823, 4.958684 
5.832845e+2, 3.1161693e+2, -61436.473, -42199.535, -1666.858, -0.000342575, 0.0053572776, -42056.17, -42056.17, 0.0, 4.9804063, 4.9928 
5.832396e+2, 3.1661078e+2, -64679.02, -39551.49, -906.2129, -0.00063781487, -0.00011976445, -39518.85, -39518.85, 0.0, 4.978442, 4.9946203 
5.9055865e+2, 1.2321006e+2, -1609340.6, -1735250.6, -692.11633, -0.00055358774, 0.0023426856, -1609336.9, 123205.37, 0.0, 5.0563498, 4.9737816 
5.905105e+2, 1.2818313e+2, -1567829.4, -1692409.4, -1096.6991, 0.0005530956, -0.0017390915, -1567819.8, 115986.51, 0.0, 5.054406, 4.972785 
5.9046e+2, 1.3315575e+2, -1525883.8, -1648809.5, -4083.636, -0.00031384325, 0.004862042, -1525748.3, 109326.37, 0.0, 5.052462, 4.9719567 
5.904079e+2, 1.3812725e+2, -1483843.3, -1604841.5, -4456.5503, -0.00018030462, 0.0002818895, -1483679.3, 102674.79, 0.0, 5.0504923, 4.9713154 
5.9035397e+2, 1.4309812e+2, -1442144.5, -1561740.0, -7018.35, 0.00028625483, 0.0020294716, -1441734.1, 95905.64, 0.0, 5.0485272, 4.9703526 
5.9029853e+2, 1.4806844e+2, -1399934.4, -1517404.4, -7329.268, 0.00044844564, 0.0008545994, -1399478.9, 89451.7, 0.0, 5.046536, 4.96982 
5.9024143e+2, 1.5303785e+2, -1358275.9, -1474429.8, -9542.834, 0.00021320167, 0.0028817113, -1357497.1, 82733.21, 0.0, 5.044561, 4.968817 
5.9018314e+2, 1.5800647e+2, -1315976.8, -1429975.6, -9810.229, -0.000007960509, 0.000024146964, -1315138.6, 76399.01, 0.0, 5.0425663, 4.968296 
5.9012353e+2, 1.6297437e+2, -1274360.1, -1387109.6, -11730.758, 0.00034185624, 0.0023317214, -1273152.6, 69699.77, 0.0, 5.040579, 4.9672275 
5.9006286e+2, 1.6794144e+2, -1231926.5, -1342400.8, -11939.962, 0.0011941163, -0.00024011612, -1230650.8, 63524.117, 0.0, 5.038573, 4.966765 
5.9000117e+2, 1.7290775e+2, -1190357.5, -1299683.5, -13506.738, 0.0013096981, 0.0018621638, -1188713.5, 56791.21, 0.0, 5.036577, 4.9656134 
5.899384e+2, 1.7787325e+2, -1147782.6, -1254751.4, -13667.44, 0.0011065402, -0.0006342068, -1146064.0, 50778.715, 0.0, 5.0345693, 4.965196 
5.898749e+2, 1.8283801e+2, -1106266.8, -1212173.8, -14952.128, 0.00090700353, 0.0015947634, -1104196.3, 43991.742, 0.0, 5.032562, 4.9639707 
5.8981067e+2, 1.8780185e+2, -1063599.3, -1167051.1, -15089.838, 0.0010000183, -0.0011763093, -1061443.1, 38098.98, 0.0, 5.0305367, 4.963594 
5.8974594e+2, 1.9276498e+2, -1022116.06, -1124609.5, -16011.535, 0.0010516067, 0.0012879933, -1019672.94, 31230.299, 0.0, 5.0285244, 4.962285 
5.8968055e+2, 1.977272e+2, -979314.9, -1079318.3, -16118.909, 0.0011823702, -0.0014101452, -976781.0, 25492.545, 0.0, 5.0265055, 4.9619308 
5.8961487e+2, 2.0268865e+2, -937825.56, -1036947.06, -16738.125, 0.0011494666, 0.0011274847, -935075.44, 18575.783, 0.0, 5.024491, 4.9605646 
5.895488e+2, 2.0764913e+2, -894945.7, -991546.1, -16821.072, 0.00087919954, -0.0016852819, -892100.44, 12937.969, 0.0, 5.0224657, 4.960219 
5.894826e+2, 2.1260886e+2, -853433.3, -949228.5, -17131.209, 0.0006742495, 0.0010975001, -850461.9, 5971.16, 0.0, 5.020453, 4.9587913 
5.894162e+2, 2.1756761e+2, -810377.4, -903605.2, -17175.074, 0.00043110075, -0.0016409843, -807313.9, 523.40845, 0.0, 5.0184417, 4.958483 
5.893499e+2, 2.2252552e+2, -768966.8, -861658.25, -17168.63, 0.00032657385, 0.0012702805, -765889.0, -6639.2534, 0.0, 5.016439, 4.956885 
5.892836e+2, 2.2748242e+2, -725740.94, -815819.06, -17187.75, 0.00021793584, -0.0014576786, -722572.75, -11900.567, 0.0, 5.0144405, 4.9566126 
5.892175e+2, 2.324384e+2, -684357.5, -774025.75, -16879.092, 0.00023896224, 0.0014216218, -681285.44, -19181.842, 0.0, 5.012435, 4.9549227 
5.891516e+2, 2.3739333e+2, -640987.56, -727916.7, -16896.299, 0.00013671629, -0.0017811024, -637819.0, -24273.766, 0.0, 5.0104275, 4.9547153 
5.890861e+2, 2.4234745e+2, -599580.56, -686116.94, -16274.3955, -0.00002744701, 0.0016489137, -596621.1, -31625.908, 0.0, 5.008409, 4.9529896 
5.8902115e+2, 2.4730052e+2, -556026.2, -639666.94, -16248.198, -0.0003648194, -0.0016067014, -552980.6, -36525.56, 0.0, 5.006397, 4.95287 
5.8895665e+2, 2.522527e+2, -514791.7, -598329.06, -15352.77, -0.00044047635, 0.0019885877, -512059.47, -44135.363, 0.0, 5.0043707, 4.9509478 
5.8889294e+2, 2.5720388e+2, -470897.8, -551176.7, -15278.993, -0.00043294733, -0.0009373735, -468088.2, -48685.824, 0.0, 5.002351, 4.951044 
5.888299e+2, 2.6215404e+2, -429933.72, -510566.3, -14065.292, -0.00039052177, 0.0025302586, -427550.66, -56659.785, 0.0, 5.0003242, 4.9488225 
5.887679e+2, 2.6710328e+2, -385536.0, -462484.4, -13935.972, -0.00007151627, -0.0010462084, -383089.84, -60701.23, 0.0, 4.9983273, 4.949204 
5.887067e+2, 2.7205136e+2, -344878.63, -422763.3, -12422.085, -0.00010253564, 0.00223281, -342945.38, -69047.91, 0.0, 4.996313, 4.9466147 
5.8864665e+2, 2.769986e+2, -300048.66, -373779.1, -12231.894, -0.00043417755, -0.0011102633, -298072.38, -72657.695, 0.0, 4.9943156, 4.947283 
5.8858764e+2, 2.819447e+2, -259572.77, -334594.7, -10440.917, -0.00056545966, 0.0031582094, -258146.78, -81203.75, 0.0, 4.992298, 4.9444594 
5.885303e+2, 2.868899e+2, -214379.72, -284858.22, -10124.914, -0.000364509, -0.0011751702, -212954.02, -84474.14, 0.0, 4.9903007, 4.945364 
5.8847386e+2, 2.918336e+2, -175021.19, -248422.92, -8137.983, -0.0004464791, 0.0032764457, -174129.77, -94098.016, 0.0, 4.988288, 4.9415154 
5.884192e+2, 2.9677618e+2, -129582.04, -198252.58, -7707.3257, -0.00067294703, 0.0006879974, -128727.625, -97133.02, 0.0, 4.9863, 4.9425383 
5.883657e+2, 3.0172616e+2, -92263.766, -133997.83, -5735.9355, -0.0005731557, 0.0031201541, -91489.766, -91489.766, 0.0, 4.9843016, 4.9575796 
5.8831453e+2, 3.0668458e+2, -96058.164, -132673.44, -5136.5264, 0.00025340603, -0.003691981, -95351.24, -95351.24, 0.0, 4.9823546, 4.958892 
5.882647e+2, 3.116607e+2, -61302.734, -41810.934, -3013.691, 0.0002491372, 0.0056118495, -41355.613, -41355.613, 0.0, 4.980377, 4.9929643 
5.88218e+2, 3.1665474e+2, -64568.992, -39207.5, -2256.1357, 0.0004833638, 0.00030874513, -39008.36, -39008.36, 0.0, 4.9784107, 4.994769 
5.956157e+2, 1.2325731e+2, -1604913.6, -1733615.3, 163.37265, -0.0006114581, 0.0012877188, -1604913.5, 127165.164, 0.0, 5.0579767, 4.973524 
5.9556556e+2, 1.2823007e+2, -1563664.3, -1690910.6, -244.24103, 0.00072985445, -0.0029373427, -1563663.9, 119681.76, 0.0, 5.0559464, 4.972528 
5.95513e+2, 1.3320243e+2, -1521895.1, -1647320.4, -3205.0144, -0.00030866542, 0.003701357, -1521813.3, 112803.22, 0.0, 5.053925, 4.9717374 
5.9545887e+2, 1.381737e+2, -1480064.0, -1603457.3, -3569.5735, -0.00035520256, -0.0007969754, -1479960.9, 105937.305, 0.0, 5.051885, 4.9710984 
5.9540284e+2, 1.4314435e+2, -1438561.8, -1560395.3, -6123.7935, 0.00009236266, 0.0009976181, -1438254.8, 98931.27, 0.0, 5.0498405, 4.9701643 
5.953453e+2, 1.4811444e+2, -1396606.0, -1516184.8, -6423.1, 0.00023035184, -0.00014949833, -1396262.0, 92217.07, 0.0, 5.047763, 4.969634 
5.9528625e+2, 1.5308367e+2, -1355132.6, -1473259.5, -8603.497, 0.00013689432, 0.0020435022, -1354509.3, 85271.375, 0.0, 5.045716, 4.9686527 
5.9522593e+2, 1.5805212e+2, -1313021.5, -1428897.4, -8867.822, 0.00019217632, -0.0005639866, -1312346.8, 78743.0, 0.0, 5.0436573, 4.9681334 
5.951643e+2, 1.6301985e+2, -1271567.3, -1386066.9, -10773.144, 0.00046311735, 0.0019431125, -1270562.5, 71843.664, 0.0, 5.0416045, 4.967087 
5.9510154e+2, 1.6798677e+2, -1229329.4, -1341453.0, -10971.169, 0.0009795151, -0.00047798548, -1228265.9, 65464.402, 0.0, 5.0395317, 4.966626 
5.9503776e+2, 1.7295295e+2, -1187936.4, -1298756.9, -12523.694, 0.0010374463, 0.0017484627, -1186538.8, 58522.895, 0.0, 5.037462, 4.9655046 
5.94973e+2, 1.7791833e+2, -1145597.0, -1253948.8, -12671.11, 0.0010026532, -0.0006320169, -1144135.0, 52265.887, 0.0, 5.035376, 4.9650846 
5.9490746e+2, 1.8288295e+2, -1104244.0, -1211396.0, -13940.526, 0.0008898117, 0.0016406778, -1102460.0, 45287.375, 0.0, 5.033301, 4.963884 
5.948412e+2, 1.8784668e+2, -1061754.6, -1166372.6, -14060.06, 0.0010624606, -0.0011339935, -1059898.0, 39204.832, 0.0, 5.031218, 4.963503 
5.947743e+2, 1.9280969e+2, -1020413.25, -1123943.4, -14964.623, 0.0010583845, 0.0013047885, -1018293.6, 32171.395, 0.0, 5.029145, 4.962219 
5.947069e+2, 1.977718e+2, -977796.94, -1078749.8, -15055.517, 0.0010325277, -0.0014204973, -975599.44, 26236.855, 0.0, 5.0270643, 4.961862 
5.946392e+2, 2.0273317e+2, -936466.3, -1036387.75, -15672.348, 0.00093433977, 0.0011338813, -934065.8, 19148.998, 0.0, 5.0249805, 4.960526 
5.9457105e+2, 2.0769359e+2, -893814.06, -991101.75, -15732.422, 0.0006782529, -0.0016074056, -891333.25, 13269.49, 0.0, 5.022878, 4.960178 
5.9450275e+2, 2.1265325e+2, -852482.56, -948808.1, -16028.771, 0.0005259097, 0.0011555435, -849885.4, 6112.5605, 0.0, 5.0207896, 4.958778 
5.944343e+2, 2.1761195e+2, -809646.9, -903294.3, -16080.573, 0.0003486562, -0.0016748297, -806962.56, 440.1067, 0.0, 5.0187035, 4.9584675 
5.9436595e+2, 2.2256984e+2, -768350.2, -861253.1, -16055.98, 0.00023913072, 0.0011636862, -765653.56, -6838.236, 0.0, 5.016631, 4.956934 
5.942976e+2, 2.2752674e+2, -725310.25, -815510.2, -16061.904, 0.00008781641, -0.0016548297, -722535.5, -12297.735, 0.0, 5.0145698, 4.956658 
5.942295e+2, 2.3248275e+2, -684070.94, -773737.56, -15722.733, 0.000076181896, 0.0012415175, -681393.94, -19725.045, 0.0, 5.0125046, 4.9549875 
5.9416157e+2, 2.3743773e+2, -640864.44, -727713.75, -15695.369, -0.00005076136, -0.0018534805, -638115.06, -25004.904, 0.0, 5.0104413, 4.9547763 
5.9409404e+2, 2.4239185e+2, -599649.7, -686017.44, -15052.144, -0.00017001864, 0.0016632751, -597101.6, -32541.799, 0.0, 5.008359, 4.953043 
5.94027e+2, 2.4734497e+2, -556310.6, -639672.56, -15015.3545, -0.0004409209, -0.0015350282, -553688.5, -37669.063, 0.0, 5.006272, 4.9529204 
5.939605e+2, 2.5229716e+2, -515231.66, -598333.8, -14102.836, -0.00048043675, 0.0019548023, -512903.53, -45415.38, 0.0, 5.004177, 4.951029 
5.938947e+2, 2.5724837e+2, -471509.75, -551261.4, -14020.384, -0.00045333948, -0.0012783911, -469116.75, -50150.563, 0.0, 5.002096, 4.951124 
5.9382963e+2, 2.621986e+2, -430710.06, -510683.44, -12783.881, -0.00036431887, 0.002157392, -428716.25, -58262.074, 0.0, 5.000004, 4.94892 
5.937656e+2, 2.671479e+2, -386510.25, -462690.88, -12649.442, -0.000020032761, -0.0011212958, -384464.78, -62513.656, 0.0, 4.9979362, 4.949301 
5.937024e+2, 2.7209607e+2, -346027.94, -422963.25, -11122.852, -0.00008645109, 0.0023231853, -344452.13, -70993.04, 0.0, 4.995844, 4.946747 
5.936403e+2, 2.7704343e+2, -301427.9, -374079.8, -10908.751, -0.00041576682, -0.0010414007, -299825.28, -74849.9, 0.0, 4.993763, 4.947415 
5.935793e+2, 2.8198963e+2, -261143.6, -334911.88, -9088.933, -0.0004977489, 0.003161156, -260040.27, -83537.56, 0.0, 4.9916644, 4.9446197 
5.935199e+2, 2.8693497e+2, -216156.9, -285264.8, -8768.755, -0.0002500381, -0.0012973946, -215061.64, -87023.34, 0.0, 4.989592, 4.9455237 
5.9346145e+2, 2.9187882e+2, -176925.88, -248728.72, -6758.9287, -0.00026951486, 0.0030827345, -176295.19, -96706.5, 0.0, 4.987505, 4.9417415 
5.934047e+2, 2.9682156e+2, -131657.25, -198614.77, -6329.4165, -0.00034674435, 0.00048675825, -131064.19, -99914.47, 0.0, 4.9854517, 4.9427705 
5.933492e+2, 3.0177176e+2, -94536.55, -134416.69, -4363.715, -0.00024748972, 0.0029130788, -94064.65, -94064.65, 0.0, 4.9833746, 4.957823 
5.932961e+2, 3.0673036e+2, -98595.04, -133210.7, -3743.8994, 0.00024440762, -0.0038601772, -98194.74, -98194.74, 0.0, 4.9813337, 4.959133 
5.9324425e+2, 3.117067e+2, -64120.785, -42544.387, -1662.3422, 0.00010069348, 0.005487174, -42417.063, -42417.063, 0.0, 4.9792647, 4.9931674 
5.931956e+2, 3.167009e+2, -67560.3, -40047.02, -891.1688, 0.0011166122, 0.00012299347, -40018.184, -40018.184, 0.0, 4.9772425, 4.994957 
6.006734e+2, 1.2330591e+2, -1604854.5, -1734243.5, -584.4127, -0.0006051778, 0.00042494966, -1604851.9, 126750.13, 0.0, 5.0581303, 4.9732475 
6.006213e+2, 1.2827837e+2, -1563575.9, -1691522.3, -1021.5814, 0.00087549706, -0.003780742, -1563567.8, 119303.96, 0.0, 5.056108, 4.972253 
6.005666e+2, 1.3325047e+2, -1521796.5, -1647834.9, -3994.1191, -0.00032507058, 0.0028446815, -1521670.0, 112475.11, 0.0, 5.05407, 4.971503 
6.005104e+2, 1.382215e+2, -1480050.1, -1604008.6, -4386.596, -0.0005240753, -0.0017518975, -1479895.1, 105534.11, 0.0, 5.0519996, 4.970866 
6.004523e+2, 1.431919e+2, -1438527.3, -1560873.6, -6963.656, -0.00009334386, 0.000025541423, -1438132.1, 98587.086, 0.0, 5.0499477, 4.96996 
6.0039276e+2, 1.481618e+2, -1396551.3, -1516646.6, -7284.6104, 0.0000013279259, -0.0010883927, -1396111.0, 91903.32, 0.0, 5.0478754, 4.9694333 
6.003316e+2, 1.5313084e+2, -1355068.6, -1473667.3, -9459.378, 0.000038646842, 0.0012524793, -1354318.9, 84998.945, 0.0, 5.0458198, 4.968474 
6.0026926e+2, 1.5809913e+2, -1312998.9, -1429319.8, -9741.388, 0.00035863282, -0.0011336056, -1312188.6, 78439.945, 0.0, 5.0437455, 4.967958 
6.002055e+2, 1.6306672e+2, -1271535.1, -1386423.8, -11652.981, 0.0005194432, 0.0015528463, -1270365.1, 71581.43, 0.0, 5.0416822, 4.966938 
6.001407e+2, 1.680335e+2, -1229317.5, -1341821.0, -11866.768, 0.0006518939, -0.00074533396, -1228079.5, 65192.656, 0.0, 5.0396023, 4.9664774 
6.0007477e+2, 1.7299955e+2, -1187896.3, -1299043.4, -13429.803, 0.0006623551, 0.0016024368, -1186296.5, 58308.215, 0.0, 5.037528, 4.965386 
6.00008e+2, 1.7796479e+2, -1145572.3, -1254252.3, -13599.161, 0.00085005374, -0.0006568751, -1143896.4, 52048.758, 0.0, 5.035438, 4.9649615 
5.999403e+2, 1.829293e+2, -1104195.9, -1211634.4, -14883.107, 0.0008541164, 0.0016629663, -1102172.4, 45120.57, 0.0, 5.033359, 4.963785 
5.9987193e+2, 1.8789293e+2, -1061724.4, -1166628.5, -15015.871, 0.0011102852, -0.0010774207, -1059617.4, 39031.953, 0.0, 5.0312715, 4.9634004 
5.9980303e+2, 1.9285586e+2, -1020373.0, -1124140.4, -15937.464, 0.0010227883, 0.0013655298, -1017980.4, 32032.174, 0.0, 5.02919, 4.9621406 
5.9973353e+2, 1.9781788e+2, -977792.56, -1078971.5, -16041.668, 0.00079263264, -0.0013847938, -975310.1, 26074.613, 0.0, 5.0270987, 4.96178 
5.996636e+2, 2.0277917e+2, -936433.3, -1036525.94, -16694.95, 0.0006287502, 0.0011963522, -933722.1, 19041.781, 0.0, 5.0250096, 4.9604754 
5.9959346e+2, 2.0773953e+2, -893785.6, -991248.44, -16772.828, 0.00042670383, -0.0014528566, -890979.9, 13172.441, 0.0, 5.0229073, 4.9601245 
5.9952307e+2, 2.1269916e+2, -852436.1, -948907.94, -17082.998, 0.00036365425, 0.0012788171, -849500.44, 6047.615, 0.0, 5.020817, 4.9587417 
5.9945256e+2, 2.1765779e+2, -809612.25, -903403.44, -17152.33, 0.0002917043, -0.0016697265, -806573.9, 379.38672, 0.0, 5.0187273, 4.95843 
5.9938216e+2, 2.2261567e+2, -768248.75, -861170.75, -17140.734, 0.0001689606, 0.0010903169, -765187.75, -6821.693, 0.0, 5.0166454, 4.9569664 
5.993117e+2, 2.2757259e+2, -725254.1, -815458.25, -17183.193, -0.00007096919, -0.0018193943, -722091.75, -12303.393, 0.0, 5.0145698, 4.9566865 
5.992415e+2, 2.3252864e+2, -683993.3, -773597.3, -16873.064, -0.0001457787, 0.0011248984, -680921.3, -19702.266, 0.0, 5.012497, 4.9550505 
5.991716e+2, 2.3748371e+2, -640798.7, -727588.0, -16872.076, -0.00030455194, -0.0018052064, -637634.1, -24974.512, 0.0, 5.0104313, 4.9548354 
5.991019e+2, 2.4243788e+2, -599603.75, -685945.2, -16262.65, -0.00034050315, 0.0018080301, -596642.2, -32533.523, 0.0, 5.008351, 4.953083 
5.990328e+2, 2.4739103e+2, -556250.8, -639602.5, -16237.828, -0.00046465275, -0.0013690933, -553199.2, -37631.297, 0.0, 5.00627, 4.9529567 
5.989642e+2, 2.5234324e+2, -515126.1, -598179.5, -15338.198, -0.00044340538, 0.001960193, -512383.97, -45347.71, 0.0, 5.004179, 4.9510927 
5.988964e+2, 2.572945e+2, -471402.63, -551111.06, -15283.383, -0.00042387945, -0.001672079, -468572.66, -50058.645, 0.0, 5.0021, 4.951186 
5.988292e+2, 2.622448e+2, -430591.53, -510491.72, -14061.638, -0.0003407719, 0.0017714417, -428189.06, -58187.7, 0.0, 5.0000043, 4.9489975 
5.987631e+2, 2.671942e+2, -386413.1, -462512.63, -13943.02, -0.000072786985, -0.0010060811, -383938.9, -62441.637, 0.0, 4.9979305, 4.9493766 
5.9869784e+2, 2.7214253e+2, -345885.44, -422661.6, -12444.519, -0.0002001673, 0.0026752215, -343918.72, -70914.61, 0.0, 4.995834, 4.946868 
5.986337e+2, 2.7708995e+2, -301282.9, -373777.06, -12251.964, -0.00042454363, -0.00082267885, -299268.25, -74748.94, 0.0, 4.9937544, 4.9475365 
5.9857064e+2, 2.8203627e+2, -260973.84, -334554.75, -10446.751, -0.0004258552, 0.003197525, -259519.39, -83473.984, 0.0, 4.9916563, 4.94476 
5.985091e+2, 2.8698173e+2, -215987.31, -284913.7, -10147.75, -0.00020904702, -0.0015223038, -214524.36, -86944.59, 0.0, 4.9895854, 4.9456615 
5.9844863e+2, 2.9192573e+2, -176680.72, -248197.47, -8143.261, -0.0002269664, 0.0027431755, -175765.2, -96636.586, 0.0, 4.9874973, 4.9419436 
5.9838986e+2, 2.9686868e+2, -131419.55, -198077.94, -7724.1416, -0.00019931023, 0.0002641436, -130536.2, -99848.49, 0.0, 4.98544, 4.942977 
5.9833235e+2, 3.0181912e+2, -94291.6, -133840.42, -5769.7837, -0.00020302691, 0.0027230694, -93467.04, -93467.04, 0.0, 4.983359, 4.958047 
5.982771e+2, 3.0677792e+2, -98361.805, -132642.7, -5158.085, -0.00021111681, -0.004123248, -97602.51, -97602.51, 0.0, 4.981314, 4.959356 
5.982232e+2, 3.117545e+2, -63935.832, -42101.883, -3085.8618, -0.00054000854, 0.005179572, -41674.13, -41674.13, 0.0, 4.9792466, 4.9933476 
5.981726e+2, 3.167488e+2, -67393.13, -39644.055, -2310.901, 0.0013099889, -0.00038573827, -39452.926, -39452.926, 0.0, 4.977224, 4.995123 
6.0573214e+2, 1.2335731e+2, -1600382.1, -1732586.9, 316.95822, -0.00041083538, 0.0005433307, -1600381.4, 130716.77, 0.0, 5.0597754, 4.972988 
6.056779e+2, 1.2832956e+2, -1559330.6, -1689979.1, -140.56625, 0.0007860279, -0.0030223036, -1559330.5, 123039.79, 0.0, 5.0576773, 4.9719963 
6.0562116e+2, 1.3330138e+2, -1517757.5, -1646315.4, -3128.7078, -0.0004991729, 0.003520099, -1517681.4, 115965.05, 0.0, 5.055551, 4.9712844 
6.055628e+2, 1.3827209e+2, -1476291.5, -1602627.6, -3523.3262, -0.0005642029, -0.0016078678, -1476193.4, 108740.1, 0.0, 5.053386, 4.9706507 
6.055026e+2, 1.4324227e+2, -1434952.8, -1559526.4, -6065.456, -0.00008520414, 0.00006305888, -1434658.1, 101567.766, 0.0, 5.051259, 4.9697733 
6.054409e+2, 1.4821194e+2, -1393163.1, -1515384.6, -6385.601, -0.00010208352, -0.00091272435, -1392830.4, 94692.68, 0.0, 5.0491223, 4.969251 
6.053777e+2, 1.531808e+2, -1351844.8, -1472408.6, -8542.055, -0.00017328555, 0.0013793678, -1351242.5, 87585.94, 0.0, 5.046994, 4.968329 
6.053132e+2, 1.581489e+2, -1310006.0, -1428170.8, -8811.939, 0.00006195067, -0.0011703031, -1309352.5, 80788.625, 0.0, 5.044841, 4.9678164 
6.052473e+2, 1.631163e+2, -1268714.3, -1385293.4, -10691.592, 0.00018204194, 0.001404335, -1267741.8, 73718.78, 0.0, 5.0427046, 4.966828 
6.051804e+2, 1.6808292e+2, -1226708.3, -1340799.5, -10892.755, 0.00027222373, -0.0009895925, -1225677.5, 67110.06, 0.0, 5.040554, 4.9663663 
6.051123e+2, 1.7304884e+2, -1185466.8, -1298084.3, -12429.762, 0.00031491037, 0.0012945486, -1184111.1, 60010.465, 0.0, 5.038412, 4.965288 
6.050434e+2, 1.7801395e+2, -1143330.8, -1253389.8, -12581.857, 0.0005982033, -0.0010161703, -1141910.8, 53552.715, 0.0, 5.036259, 4.964863 
6.0497355e+2, 1.8297835e+2, -1102109.1, -1210791.4, -13837.456, 0.0006406895, 0.001287539, -1100375.0, 46437.27, 0.0, 5.0341153, 4.9637117 
6.0490316e+2, 1.8794185e+2, -1059826.1, -1165883.6, -13943.715, 0.00093387713, -0.0013994658, -1058023.6, 40146.14, 0.0, 5.031965, 4.9633245 
6.0483205e+2, 1.929047e+2, -1018633.9, -1123418.4, -14845.28, 0.0007984088, 0.0010875782, -1016571.25, 32962.566, 0.0, 5.029817, 4.96209 
6.0476035e+2, 1.9786662e+2, -976266.8, -1078363.9, -14919.039, 0.00047610982, -0.0016071019, -974131.4, 26775.463, 0.0, 5.0276546, 4.9617248 
6.046884e+2, 2.0282786e+2, -935061.75, -1035946.6, -15552.244, 0.0003540056, 0.0009929851, -932718.7, 19568.11, 0.0, 5.0255027, 4.960441 
6.0461605e+2, 2.0778812e+2, -892585.5, -990756.56, -15605.114, 0.00030353165, -0.0016521236, -890164.6, 13511.313, 0.0, 5.023342, 4.9600883 
6.0454357e+2, 2.127477e+2, -851383.6, -948438.94, -15887.995, 0.00030831315, 0.0010731147, -848848.94, 6223.308, 0.0, 5.0211906, 4.9587274 
6.0447097e+2, 2.1770628e+2, -808748.56, -903030.5, -15932.523, 0.0002463932, -0.001873441, -806128.94, 349.1099, 0.0, 5.019037, 4.9584126 
6.0439837e+2, 2.2266412e+2, -767562.2, -860815.9, -15911.777, 0.00009732438, 0.00092669314, -764921.94, -7030.8057, 0.0, 5.01688, 4.956978 
6.043259e+2, 2.2762102e+2, -724813.06, -815227.5, -15961.033, -0.00018611105, -0.0019316704, -722078.2, -12764.492, 0.0, 5.014721, 4.956694 
6.0425353e+2, 2.3257707e+2, -683680.5, -773276.6, -15625.88, -0.0002937216, 0.0010362536, -681033.5, -20289.209, 0.0, 5.012573, 4.9551234 
6.0418147e+2, 2.3753217e+2, -640676.06, -727364.56, -15611.302, -0.0004617964, -0.0019234918, -637950.4, -25765.824, 0.0, 5.0104423, 4.954904 
6.041098e+2, 2.4248637e+2, -599615.1, -685737.44, -14970.655, -0.00041599796, 0.0015939719, -597087.0, -33453.71, 0.0, 5.008306, 4.953171 
6.040386e+2, 2.4743956e+2, -556403.8, -639470.06, -14906.579, -0.00042960886, -0.0017386704, -553809.75, -38717.582, 0.0, 5.0061774, 4.95304 
6.039679e+2, 2.5239182e+2, -515456.34, -598165.75, -13983.35, -0.0004127869, 0.0016292059, -513156.2, -46596.043, 0.0, 5.0040317, 4.9511585 
6.0389787e+2, 2.573431e+2, -471909.13, -551184.06, -13928.602, -0.0004708575, -0.0017861753, -469533.1, -51495.56, 0.0, 5.0018916, 4.951249 
6.0382867e+2, 2.6229346e+2, -431251.25, -510540.13, -12699.61, -0.00043329655, 0.0017281369, -429266.84, -59742.434, 0.0, 4.999724, 4.9491 
6.0376036e+2, 2.672429e+2, -387310.2, -462669.75, -12560.473, -0.00025775027, -0.0011609178, -385271.8, -64252.055, 0.0, 4.9975653, 4.949478 
6.03693e+2, 2.721913e+2, -346963.38, -422822.13, -11037.48, -0.00037952478, 0.0024244247, -345390.06, -72864.19, 0.0, 4.99539, 4.9470024 
6.036268e+2, 2.7713883e+2, -302541.9, -374020.0, -10838.331, -0.00035955524, -0.0011350022, -300934.63, -76894.5, 0.0, 4.9932456, 4.947669 
6.035616e+2, 2.8208524e+2, -262394.28, -334831.9, -9015.952, -0.00031188296, 0.0028477025, -261288.98, -85723.734, 0.0, 4.991084, 4.944907 
6.03498e+2, 2.870308e+2, -217580.19, -285270.4, -8720.8125, -0.00036008234, -0.0019170729, -216474.7, -89376.03, 0.0, 4.988951, 4.945806 
6.0343534e+2, 2.9197493e+2, -178373.61, -248392.16, -6702.936, -0.0005116649, 0.0023920364, -177737.72, -99091.625, 0.0, 4.986789, 4.9421763 
6.033746e+2, 2.9691812e+2, -133340.6, -198355.58, -6267.1025, -0.0003806767, 0.00011356355, -132741.98, -102538.9, 0.0, 4.984646, 4.9432154 
6.033149e+2, 3.0186874e+2, -96440.33, -134192.88, -4322.2153, -0.000455731, 0.0025786269, -95951.81, -95951.81, 0.0, 4.982476, 4.958294 
6.0325754e+2, 3.0682772e+2, -100753.336, -133108.5, -3706.418, -0.0008447355, -0.0045155077, -100334.18, -100334.18, 0.0, 4.9803467, 4.959599 
6.032016e+2, 3.1180447e+2, -66581.875, -42785.527, -1670.8617, -0.0013370436, 0.0048034997, -42668.78, -42668.78, 0.0, 4.978204, 4.9935384 
6.03149e+2, 3.1679899e+2, -70140.11, -40405.156, -907.1063, 0.0010638918, -0.00057567004, -40377.508, -40377.508, 0.0, 4.9761524, 4.995297 
6.107917e+2, 1.2341011e+2, -1600267.6, -1733196.3, -385.92752, -0.0002375292, 0.00052598875, -1600266.5, 130314.03, 0.0, 5.0599484, 4.9727087 
6.107353e+2, 1.2838212e+2, -1559293.5, -1690618.9, -874.04755, 0.00060920353, -0.0025266064, -1559287.8, 122567.484, 0.0, 5.0578213, 4.971721 
6.106764e+2, 1.3335367e+2, -1517697.1, -1646851.5, -3886.624, -0.0006790988, 0.004022183, -1517580.3, 115553.75, 0.0, 5.0556827, 4.97105 
6.106159e+2, 1.3832411e+2, -1476235.5, -1603159.6, -4294.854, -0.000511245, -0.0014377021, -1476090.3, 108333.48, 0.0, 5.053514, 4.970419 
6.105535e+2, 1.4329405e+2, -1434874.4, -1559981.0, -6815.887, -0.000007756079, 0.00017580653, -1434504.1, 101214.36, 0.0, 5.0513797, 4.969571 
6.1048967e+2, 1.4826353e+2, -1393108.8, -1515840.3, -7152.802, -0.00022294166, -0.00070394954, -1392693.4, 94324.34, 0.0, 5.049232, 4.969054 
6.104242e+2, 1.5323217e+2, -1351779.8, -1472778.6, -9328.294, -0.0004319581, 0.001554321, -1351064.8, 87260.12, 0.0, 5.0470896, 4.968168 
6.103575e+2, 1.582001e+2, -1309980.8, -1428551.4, -9628.086, -0.00028753598, -0.0011210515, -1309204.1, 80435.305, 0.0, 5.0449204, 4.9676595 
6.102895e+2, 1.6316734e+2, -1268674.1, -1385602.5, -11520.084, -0.00017602871, 0.0013546413, -1267550.0, 73410.35, 0.0, 5.042775, 4.9666996 
6.102204e+2, 1.6813383e+2, -1226681.8, -1341115.0, -11755.469, -0.0000731661, -0.001139815, -1225486.6, 66802.07, 0.0, 5.040619, 4.9662385 
6.101502e+2, 1.7309959e+2, -1185422.0, -1298355.0, -13308.877, -0.0000038105848, 0.0010582452, -1183874.8, 59749.25, 0.0, 5.0384755, 4.965176 
6.1007917e+2, 1.7806457e+2, -1143284.4, -1253659.9, -13488.312, 0.0003149933, -0.0013388548, -1141660.0, 53307.207, 0.0, 5.0363226, 4.9647512 
6.100072e+2, 1.8302888e+2, -1102049.4, -1210999.5, -14765.419, 0.00036796913, 0.0009459588, -1100083.8, 46233.3, 0.0, 5.0341716, 4.963625 
6.0993457e+2, 1.8799227e+2, -1059806.3, -1166115.6, -14897.03, 0.0006842277, -0.0016790234, -1057758.1, 39917.207, 0.0, 5.0320077, 4.963236 
6.098613e+2, 1.9295505e+2, -1018595.0, -1123583.5, -15830.954, 0.0005244531, 0.0008426383, -1016259.8, 32780.418, 0.0, 5.029854, 4.962027 
6.0978746e+2, 1.979169e+2, -976239.0, -1078545.5, -15926.787, 0.00016935304, -0.001795965, -973816.94, 26597.008, 0.0, 5.02769, 4.961657 
6.097134e+2, 2.0287807e+2, -935009.56, -1036075.2, -16587.385, 0.00010041276, 0.0008105385, -932356.8, 19437.67, 0.0, 5.0255375, 4.960392 
6.0963887e+2, 2.0783828e+2, -892535.1, -990888.6, -16661.604, 0.00018580798, -0.0018682617, -889789.25, 13395.025, 0.0, 5.0233765, 4.9600377 
6.0956424e+2, 2.127978e+2, -851314.5, -948513.6, -16969.928, 0.00023752605, 0.00085626193, -848436.94, 6144.039, 0.0, 5.0212216, 4.9586987 
6.094895e+2, 2.1775636e+2, -808702.94, -903123.94, -17038.838, 0.00017092584, -0.0020523854, -805722.25, 264.8196, 0.0, 5.019061, 4.9583807 
6.0941476e+2, 2.2271419e+2, -767502.0, -860861.6, -17046.217, 0.0000038159474, 0.00080662087, -764486.94, -7086.5737, 0.0, 5.0169005, 4.9569645 
6.0934e+2, 2.2767107e+2, -724759.5, -815286.2, -17116.45, -0.00030217806, -0.0019768174, -721631.25, -12808.182, 0.0, 5.014741, 4.9566765 
6.0926557e+2, 2.3262714e+2, -683548.1, -773136.8, -16790.531, -0.00043426635, 0.0010017817, -680504.7, -20251.168, 0.0, 5.012588, 4.9551764 
6.0919136e+2, 2.3758227e+2, -640573.5, -727248.3, -16816.547, -0.0006057343, -0.002053491, -637425.1, -25731.75, 0.0, 5.0104494, 4.954953 
6.0911757e+2, 2.4253653e+2, -599492.1, -685539.56, -16205.579, -0.00048225673, 0.001313584, -596541.3, -33399.664, 0.0, 5.0083055, 4.9532514 
6.0904425e+2, 2.4748977e+2, -556301.94, -639293.6, -16172.15, -0.00040188368, -0.0022134995, -553261.9, -38661.93, 0.0, 5.0061717, 4.953116 
6.089714e+2, 2.524421e+2, -515399.2, -598080.2, -15272.662, -0.0004183031, 0.0012601103, -512668.28, -46600.953, 0.0, 5.0040245, 4.9512033 
6.088993e+2, 2.5739345e+2, -471851.16, -551107.56, -15225.861, -0.00057195674, -0.0017515677, -469026.78, -51482.75, 0.0, 5.0018864, 4.95129 
6.088279e+2, 2.6234388e+2, -431130.78, -510331.16, -14027.529, -0.0005891037, 0.0018420815, -428719.7, -59689.44, 0.0, 4.9997206, 4.949187 
6.087575e+2, 2.672934e+2, -387187.1, -462464.63, -13913.917, -0.00051341084, -0.0013869955, -384697.66, -64172.625, 0.0, 4.997564, 4.9495625 
6.0868794e+2, 2.7224183e+2, -346808.44, -422542.72, -12408.655, -0.0006002743, 0.0019649756, -344827.2, -72796.875, 0.0, 4.9953885, 4.947113 
6.0861963e+2, 2.7718946e+2, -302395.56, -373751.75, -12232.821, -0.0002805216, -0.0016419287, -300356.72, -76813.23, 0.0, 4.9932427, 4.947777 
6.085522e+2, 2.82136e+2, -262246.16, -334536.78, -10424.058, -0.00021612064, 0.002366174, -260773.06, -85705.58, 0.0, 4.991077, 4.945026 
6.084865e+2, 2.8708166e+2, -217454.34, -284993.63, -10147.152, -0.0006386261, -0.002349456, -215962.77, -89362.91, 0.0, 4.9889374, 4.9459214 
6.084217e+2, 2.92026e+2, -178138.72, -247846.19, -8156.4995, -0.0009847702, 0.0020699443, -177197.05, -99051.37, 0.0, 4.986772, 4.942389 
6.0835874e+2, 2.9696938e+2, -133102.36, -197797.47, -7739.208, -0.0007627231, 0.000015335292, -132189.42, -102489.13, 0.0, 4.9846287, 4.9434333 
6.08297e+2, 3.0192026e+2, -96210.98, -133642.2, -5812.6807, -0.0009135222, 0.0024639752, -95329.11, -95329.11, 0.0, 4.9824567, 4.9585123 
6.0823745e+2, 3.0687943e+2, -100541.13, -132578.66, -5209.9517, -0.0016425869, -0.004966941, -99715.19, -99715.19, 0.0, 4.9803233, 4.9598107 
6.081794e+2, 3.1185636e+2, -66454.8, -42451.754, -3148.3672, -0.0023069081, 0.0044250516, -42045.668, -42045.668, 0.0, 4.9781785, 4.9936833 
6.081248e+2, 3.1685102e+2, -70062.32, -40129.84, -2364.8071, 0.00034048283, -0.00054747093, -39944.16, -39944.16, 0.0, 4.9761167, 4.9954247 
6.158522e+2, 1.23465724e+2, -1595699.5, -1731458.6, 555.5485, -0.00024609617, -0.0005546394, -1595697.3, 134337.58, 0.0, 5.0616217, 4.972462 
6.157936e+2, 1.2843743e+2, -1555015.3, -1689018.0, 57.350952, 0.00015216134, -0.0037724706, -1555015.3, 126297.21, 0.0, 5.0593953, 4.9714813 
6.1573243e+2, 1.3340877e+2, -1513609.8, -1645253.5, -2934.7002, -0.00091812207, 0.0030922003, -1513544.4, 119049.09, 0.0, 5.057172, 4.9708533 
6.156698e+2, 1.3837901e+2, -1472381.0, -1601675.5, -3333.8828, -0.00022418502, -0.0018720538, -1472295.1, 111589.96, 0.0, 5.0549245, 4.970226 
6.1560524e+2, 1.4334875e+2, -1431202.6, -1558523.9, -5809.6685, 0.00018938194, -0.00018368692, -1430938.0, 104243.71, 0.0, 5.052714, 4.9694085 
6.1553913e+2, 1.4831801e+2, -1389666.4, -1514497.1, -6135.9478, -0.00051248417, -0.0012165465, -1389365.5, 97117.55, 0.0, 5.050489, 4.968894 
6.154714e+2, 1.532865e+2, -1348542.5, -1471503.5, -8295.299, -0.00082217477, 0.0011394824, -1347985.5, 89806.664, 0.0, 5.048269, 4.9680247 
6.154026e+2, 1.5825424e+2, -1306969.0, -1427384.1, -8586.28, -0.0005649106, -0.0013132031, -1306359.9, 82748.39, 0.0, 5.0460224, 4.9675198 
6.1533237e+2, 1.6322134e+2, -1265840.3, -1384471.9, -10440.03, -0.00031825283, 0.0012759747, -1264928.5, 75502.27, 0.0, 5.0438056, 4.966584 
6.15261e+2, 1.6818766e+2, -1224051.8, -1340082.9, -10670.714, -0.00010214125, -0.0011817773, -1223078.6, 68682.09, 0.0, 5.0415797, 4.9661255 
6.151886e+2, 1.731533e+2, -1182956.6, -1297361.8, -12189.732, -0.00008072772, 0.00097083923, -1181672.3, 61425.2, 0.0, 5.039371, 4.965083 
6.1511534e+2, 1.7811814e+2, -1141001.4, -1252755.1, -12361.337, 0.00009283194, -0.0015133647, -1139650.4, 54791.58, 0.0, 5.037156, 4.9646597 
6.150412e+2, 1.8308231e+2, -1099943.3, -1210144.6, -13623.4375, 0.00006686134, 0.0008064461, -1098284.0, 47509.027, 0.0, 5.034936, 4.9635506 
6.149664e+2, 1.8804562e+2, -1057911.0, -1165364.9, -13735.628, 0.0003701528, -0.0017037594, -1056183.0, 40969.527, 0.0, 5.032701, 4.9631615 
6.1489093e+2, 1.9300829e+2, -1016852.56, -1122849.8, -14643.632, 0.00034454733, 0.00082453253, -1014866.75, 33651.59, 0.0, 5.030482, 4.9619784 
6.1481494e+2, 1.9797005e+2, -974675.2, -1077907.5, -14715.642, 0.0002317144, -0.0018427015, -972618.44, 27274.512, 0.0, 5.028259, 4.961605 
6.147386e+2, 2.0293112e+2, -933585.56, -1035462.6, -15352.334, 0.00014573653, 0.0006874243, -931322.3, 19952.06, 0.0, 5.026049, 4.9603596 
6.1466193e+2, 2.0789127e+2, -891276.4, -990357.8, -15401.727, 0.000077215846, -0.0020846757, -888937.5, 13727.542, 0.0, 5.023832, 4.960005 
6.145851e+2, 2.128507e+2, -850207.4, -948010.1, -15695.768, 0.000102803344, 0.00067109853, -847750.2, 6312.153, 0.0, 5.0216146, 4.958686 
6.145081e+2, 2.1780923e+2, -807791.94, -902719.1, -15742.936, 0.00011182934, -0.0021077823, -805249.2, 219.71037, 0.0, 5.0193872, 4.958366 
6.144312e+2, 2.2276701e+2, -766738.56, -860467.4, -15722.168, 0.000015331605, 0.0007823116, -764171.6, -7289.0054, 0.0, 5.0171633, 4.9569755 
6.143543e+2, 2.2772385e+2, -724173.2, -814987.75, -15766.634, -0.00019995042, -0.0020395305, -721513.8, -13208.137, 0.0, 5.0149446, 4.956682 
6.142777e+2, 2.3267989e+2, -683127.75, -772861.6, -15424.011, -0.00031875697, 0.00084609503, -680550.56, -20814.191, 0.0, 5.012723, 4.9552054 
6.142013e+2, 2.3763499e+2, -640376.44, -727085.94, -15463.167, -0.00052303524, -0.0023770414, -637701.4, -26524.83, 0.0, 5.010507, 4.9549785 
6.141253e+2, 2.4258927e+2, -599428.44, -685297.7, -14841.236, -0.0004249843, 0.0009978696, -596935.75, -34311.094, 0.0, 5.0082893, 4.9533377 
6.140498e+2, 2.4754255e+2, -556451.6, -639160.6, -14800.919, -0.0004018007, -0.0023789534, -553882.75, -39800.336, 0.0, 5.006082, 4.953197 
6.1397487e+2, 2.5249493e+2, -515686.75, -597918.2, -13854.633, -0.0004604871, 0.0010908579, -513415.22, -47866.05, 0.0, 5.0038686, 4.951324 
6.139006e+2, 2.5744638e+2, -472309.25, -551035.75, -13748.508, -0.000570854, -0.0020475418, -469977.34, -52952.086, 0.0, 5.0016723, 4.951405 
6.13827e+2, 2.623968e+2, -431779.13, -510383.5, -12524.21, -0.00048812482, 0.0014475108, -429831.88, -61320.992, 0.0, 4.9994473, 4.949284 
6.137544e+2, 2.6734638e+2, -388009.63, -462603.9, -12406.597, -0.00034995528, -0.0019091169, -386000.28, -65995.05, 0.0, 4.99723, 4.9496555 
6.136826e+2, 2.7229488e+2, -347796.56, -422703.34, -10893.135, -0.0004239995, 0.0014036715, -346244.6, -74734.62, 0.0, 4.9949865, 4.947228 
6.136121e+2, 2.7724257e+2, -303589.8, -374010.28, -10717.869, -0.0000903739, -0.002093911, -301994.7, -78972.19, 0.0, 4.992768, 4.9478884 
6.135426e+2, 2.8218922e+2, -263622.72, -334786.7, -8898.593, -0.000034873337, 0.0020378819, -262526.88, -87981.266, 0.0, 4.9905205, 4.9451747 
6.1347467e+2, 2.87135e+2, -219089.36, -285359.78, -8606.122, -0.00049408816, -0.0025938977, -217989.97, -91913.086, 0.0, 4.9882884, 4.9460683 
6.1340773e+2, 2.9207948e+2, -179914.05, -248078.42, -6591.76, -0.000797936, 0.0017919234, -179282.45, -101661.13, 0.0, 4.9860363, 4.9426193 
6.133426e+2, 2.9702303e+2, -135072.56, -198104.88, -6176.1133, -0.00042714388, -0.00041636708, -134473.11, -105298.89, 0.0, 4.9838204, 4.9436665 
6.132786e+2, 3.0197406e+2, -98408.03, -134069.52, -4289.253, -0.00044874437, 0.0019184437, -97899.39, -97899.39, 0.0, 4.9815693, 4.9587336 
6.1321694e+2, 3.0693337e+2, -102987.8, -133132.08, -3706.1125, -0.0010870736, -0.0055355374, -102538.836, -102538.836, 0.0, 4.97935, 4.960024 
6.1315674e+2, 3.1191048e+2, -69193.45, -43208.098, -1680.9332, -0.0019989354, 0.003995643, -43099.813, -43099.813, 0.0, 4.9771104, 4.9938574 
6.131e+2, 3.1690526e+2, -73076.97, -41030.633, -885.70306, -0.000029779196, -0.00085278676, -41006.17, -41006.17, 0.0, 4.9749546, 4.9955854 
6.2091345e+2, 1.23522826e+2, -1595656.8, -1732073.8, -245.36362, -0.00010373887, -0.0012338744, -1595656.3, 133818.38, 0.0, 5.0617633, 4.972197 
6.208526e+2, 1.2849422e+2, -1554893.4, -1689580.3, -770.0509, -0.0003017742, -0.004742433, -1554889.0, 125866.42, 0.0, 5.05956, 4.971222 
6.207892e+2, 1.3346533e+2, -1513467.3, -1645715.0, -3779.7551, -0.0011515209, 0.0023181804, -1513359.3, 118679.36, 0.0, 5.057323, 4.970634 
6.207244e+2, 1.384354e+2, -1472314.8, -1602165.4, -4205.2383, 0.000078818295, -0.002280804, -1472178.6, 111153.41, 0.0, 5.055047, 4.970011 
6.206575e+2, 1.4340492e+2, -1431134.8, -1558934.8, -6670.235, 0.0004076149, -0.0005471537, -1430787.5, 103843.21, 0.0, 5.0528197, 4.9692287 
6.205892e+2, 1.4837398e+2, -1389628.3, -1514917.3, -7022.5186, -0.0007567473, -0.0017164432, -1389235.9, 96698.14, 0.0, 5.050583, 4.9687166 
6.205192e+2, 1.5334229e+2, -1348493.8, -1471875.8, -9191.606, -0.0011344244, 0.00069913676, -1347812.8, 89432.016, 0.0, 5.0483565, 4.967867 
6.204481e+2, 1.5830989e+2, -1306924.1, -1427752.3, -9495.948, -0.0007479925, -0.0015942157, -1306182.4, 82380.055, 0.0, 5.0461073, 4.967365 
6.2037563e+2, 1.6327684e+2, -1265777.0, -1384783.4, -11340.048, -0.00040751504, 0.0010919059, -1264706.1, 75180.35, 0.0, 5.043886, 4.9664507 
6.2030214e+2, 1.6824302e+2, -1223999.3, -1340394.3, -11595.828, -0.000145411, -0.0013123266, -1222855.3, 68362.51, 0.0, 5.041655, 4.965995 
6.2022746e+2, 1.7320852e+2, -1182902.5, -1297623.1, -13114.178, -0.0001599517, 0.00083726755, -1181422.5, 61133.316, 0.0, 5.039436, 4.9649744 
6.20152e+2, 1.7817324e+2, -1140981.6, -1253032.8, -13311.462, -0.00008711072, -0.0016767709, -1139422.0, 54479.54, 0.0, 5.037208, 4.9645514 
6.200756e+2, 1.8313731e+2, -1099896.5, -1210366.3, -14590.8955, -0.00019564047, 0.00070012844, -1098001.9, 47251.88, 0.0, 5.0349884, 4.9634614 
6.1999846e+2, 1.8810055e+2, -1057847.0, -1165583.1, -14724.763, 0.000060390415, -0.0017178488, -1055870.8, 40743.34, 0.0, 5.0327597, 4.9630704 
6.1992085e+2, 1.9306311e+2, -1016758.8, -1122998.9, -15647.709, 0.00017790018, 0.00082242716, -1014502.06, 33478.766, 0.0, 5.030539, 4.961912 
6.1984265e+2, 1.980248e+2, -974605.25, -1078073.8, -15744.887, 0.00033326863, -0.0018599727, -972262.4, 27093.822, 0.0, 5.028309, 4.9615364 
6.197641e+2, 2.0298581e+2, -933507.4, -1035582.7, -16404.7, 0.0002127081, 0.0006047296, -930935.75, 19802.547, 0.0, 5.0260925, 4.9603095 
6.196852e+2, 2.0794588e+2, -891215.3, -990486.75, -16475.863, -0.000037169306, -0.0022394422, -888552.25, 13577.363, 0.0, 5.0238695, 4.9599547 
6.1960614e+2, 2.1290529e+2, -850126.0, -948087.8, -16805.482, -0.00004420511, 0.00055433705, -847323.2, 6204.2085, 0.0, 5.0216503, 4.958655 
6.195269e+2, 2.1786377e+2, -807711.2, -902801.9, -16876.73, 0.00004349807, -0.0021036796, -804804.7, 129.54402, 0.0, 5.0194235, 4.9583325 
6.194478e+2, 2.2282153e+2, -766627.4, -860476.5, -16881.162, 0.000021803124, 0.00080051343, -763683.25, -7335.097, 0.0, 5.017198, 4.956969 
6.1936873e+2, 2.2777835e+2, -724080.4, -815021.25, -16954.883, -0.00008299552, -0.0020818817, -721022.2, -13250.761, 0.0, 5.0149755, 4.956669 
6.192899e+2, 2.3273438e+2, -683032.94, -772867.6, -16635.014, -0.00017699905, 0.00069515686, -680051.5, -20849.2, 0.0, 5.0127497, 4.955204 
6.1921126e+2, 2.3768942e+2, -640303.44, -727114.06, -16697.682, -0.00041361246, -0.0026952273, -637202.44, -26559.72, 0.0, 5.0105286, 4.954972 
6.1913306e+2, 2.4264374e+2, -599284.56, -685137.1, -16096.938, -0.00037340433, 0.00074520294, -596365.7, -34275.203, 0.0, 5.008304, 4.953399 
6.190553e+2, 2.4759711e+2, -556332.7, -639024.0, -16097.095, -0.00045288424, -0.0023931235, -553309.6, -39762.06, 0.0, 5.0060906, 4.9532537 
6.1897814e+2, 2.525496e+2, -515508.78, -597614.94, -15179.718, -0.0005492517, 0.0010248551, -512792.25, -47778.797, 0.0, 5.0038705, 4.951442 
6.1890167e+2, 2.575011e+2, -472157.38, -550759.5, -15115.757, -0.0005609568, -0.0024145572, -469350.72, -52862.113, 0.0, 5.001668, 4.9515166 
6.188259e+2, 2.624516e+2, -431681.66, -510223.94, -13932.146, -0.00031911075, 0.00092363573, -429283.53, -61310.125, 0.0, 4.9994416, 4.949355 
6.187511e+2, 2.6740125e+2, -387906.25, -462453.53, -13826.846, -0.00006165113, -0.0024845584, -385424.3, -65957.22, 0.0, 4.997229, 4.949722 
6.1867714e+2, 2.7234983e+2, -347666.34, -422500.13, -12333.409, -0.0001344818, 0.00086920406, -345686.06, -74714.914, 0.0, 4.994987, 4.947312 
6.186044e+2, 2.7729762e+2, -303467.94, -373822.56, -12173.172, 0.00009901766, -0.002464676, -301421.2, -78938.25, 0.0, 4.992768, 4.9479675 
6.185327e+2, 2.8224435e+2, -263451.16, -334469.72, -10384.8545, 0.00014419168, 0.0018197766, -261963.77, -87958.79, 0.0, 4.9905176, 4.9453006 
6.184625e+2, 2.871903e+2, -218933.81, -285056.16, -10120.088, -0.00018480116, -0.002720521, -217419.6, -91884.72, 0.0, 4.988281, 4.946192 
6.1839336e+2, 2.9213488e+2, -179671.0, -247566.27, -8117.5186, -0.0003185146, 0.0015482114, -178713.97, -101636.16, 0.0, 4.9860277, 4.9428177 
6.1832607e+2, 2.970786e+2, -134828.8, -197593.2, -7716.6475, 0.00024029668, -0.0010140873, -133893.98, -105264.93, 0.0, 4.9838123, 4.9438653 
6.182599e+2, 3.0202982e+2, -98198.96, -133627.86, -5858.0317, 0.00046731895, 0.0011549498, -97255.484, -97255.484, 0.0, 4.9815593, 4.9589095 
6.1819607e+2, 3.069893e+2, -102800.75, -132722.69, -5286.059, 0.00017314314, -0.006155504, -101894.36, -101894.36, 0.0, 4.9793363, 4.9601893 
6.1813354e+2, 3.119666e+2, -69058.07, -42899.734, -3241.3743, -0.0010399028, 0.003544418, -42504.07, -42504.07, 0.0, 4.977092, 4.9939914 
6.1807454e+2, 3.169615e+2, -73009.7, -40775.234, -2430.0383, -0.00041856716, -0.0013130041, -40593.074, -40593.074, 0.0, 4.9749155, 4.9957085 
6.2597585e+2, 1.2358301e+2, -1591061.6, -1730263.8, 724.46326, 0.00050836784, -0.0006226388, -1591057.9, 137827.16, 0.0, 5.063436, 4.9719744 
6.259126e+2, 1.2855409e+2, -1550522.5, -1687880.9, 180.88266, -0.0007399816, -0.0045611663, -1550522.3, 129646.25, 0.0, 5.0611567, 4.971003 
6.2584686e+2, 1.3352494e+2, -1509322.0, -1644088.3, -2848.744, -0.0014788022, 0.002191679, -1509261.8, 122192.68, 0.0, 5.0588346, 4.970436 
6.257798e+2, 1.3849472e+2, -1468439.4, -1600661.9, -3267.8657, 0.0002703025, -0.0027058646, -1468358.8, 114391.91, 0.0, 5.056465, 4.9698205 
6.257106e+2, 1.4346403e+2, -1427443.8, -1557432.4, -5676.5737, 0.0006443959, -0.0010396147, -1427196.4, 106854.95, 0.0, 5.054156, 4.96908 
6.2564e+2, 1.4843291e+2, -1386165.9, -1513520.8, -6023.1777, -0.0007484189, -0.0021794203, -1385881.6, 99474.65, 0.0, 5.05184, 4.968573 
6.255677e+2, 1.5340103e+2, -1345203.0, -1470498.8, -8158.536, -0.0010762308, 0.00006346393, -1344674.0, 91994.78, 0.0, 5.0495415, 4.9677544 
6.254943e+2, 1.5836845e+2, -1303837.1, -1426476.1, -8443.011, -0.00053278747, -0.0025066196, -1303258.6, 84729.43, 0.0, 5.047223, 4.967254 
6.2541956e+2, 1.6333523e+2, -1262872.9, -1383573.9, -10237.746, -0.00032452063, 0.00006597912, -1262010.6, 77302.85, 0.0, 5.0449343, 4.9663525 
6.253437e+2, 1.6830128e+2, -1221294.5, -1339279.6, -10479.353, -0.0003647155, -0.0023663803, -1220371.0, 70275.33, 0.0, 5.0426345, 4.9658995 
6.252668e+2, 1.7326668e+2, -1180376.5, -1296546.3, -11960.777, -0.00029189503, -0.00005614386, -1179157.8, 62827.613, 0.0, 5.0403438, 4.9649024 
6.25189e+2, 1.7823131e+2, -1138669.8, -1252055.4, -12144.023, 0.000056604313, -0.0023210342, -1137383.6, 55948.406, 0.0, 5.0380416, 4.964483 
6.251103e+2, 1.8319526e+2, -1097748.6, -1209448.6, -13371.017, -0.00005909976, 0.00008062702, -1096170.4, 48514.9, 0.0, 5.0357614, 4.963403 
6.25031e+2, 1.8815838e+2, -1055855.9, -1164747.9, -13482.921, 0.000023643866, -0.0024396258, -1054211.3, 41835.496, 0.0, 5.03348, 4.963011 
6.2495106e+2, 1.9312087e+2, -1014924.3, -1122212.1, -14382.178, 0.000118366945, 0.00012460326, -1013029.8, 34384.574, 0.0, 5.0311995, 4.961866 
6.2487066e+2, 1.9808246e+2, -972959.9, -1077385.0, -14458.026, 0.00035893408, -0.0024221546, -970995.1, 27795.629, 0.0, 5.0289054, 4.961488 
6.2478983e+2, 2.030434e+2, -932013.1, -1034914.7, -15089.206, 0.00028480683, 0.00018648607, -929846.1, 20327.42, 0.0, 5.026626, 4.9602847 
6.2470865e+2, 2.0800342e+2, -889901.4, -989902.7, -15130.084, 0.000113799455, -0.0025053492, -887662.3, 13903.12, 0.0, 5.02434, 4.959931 
6.2462735e+2, 2.1296276e+2, -848959.75, -947540.06, -15433.762, 0.000094792114, 0.00027290924, -846599.94, 6363.884, 0.0, 5.0220633, 4.958647 
6.245459e+2, 2.1792118e+2, -806705.5, -902336.1, -15478.514, 0.00012708832, -0.002497464, -804262.56, 108.763374, 0.0, 5.0197816, 4.9583225 
6.244645e+2, 2.2287889e+2, -765767.8, -860046.3, -15461.119, 0.000063409454, 0.0003666674, -763297.06, -7511.273, 0.0, 5.0174985, 4.9569736 
6.2438315e+2, 2.2783564e+2, -723399.6, -814687.44, -15517.863, -0.00004331459, -0.002507343, -720833.9, -13624.333, 0.0, 5.0152164, 4.9566684 
6.243021e+2, 2.3279166e+2, -682497.44, -772530.56, -15173.927, -0.00013411324, 0.0003655012, -680008.8, -21368.162, 0.0, 5.012925, 4.9552345 
6.242212e+2, 2.377467e+2, -639970.25, -726885.7, -15208.991, -0.00034431837, -0.0028691303, -637385.75, -27304.564, 0.0, 5.010636, 4.954996 
6.2414074e+2, 2.4270101e+2, -599124.7, -684934.44, -14588.911, -0.00035851524, 0.00058284064, -596712.2, -35183.188, 0.0, 5.00834, 4.953447 
6.240608e+2, 2.4765436e+2, -556396.94, -638936.6, -14601.521, -0.00056389667, -0.002674044, -553890.0, -40903.76, 0.0, 5.00605, 4.953296 
6.239813e+2, 2.5260684e+2, -515732.34, -597478.6, -13684.323, -0.0006577647, 0.00068222353, -513502.4, -49050.43, 0.0, 5.00375, 4.9515367 
6.239027e+2, 2.5755838e+2, -472611.9, -550742.0, -13640.2295, -0.00052073604, -0.002773585, -470299.03, -54372.246, 0.0, 5.001468, 4.951605 
6.2382466e+2, 2.62509e+2, -432257.9, -510148.16, -12426.398, -0.00022924505, 0.00063369505, -430323.47, -62912.57, 0.0, 4.999178, 4.949492 
6.2374765e+2, 2.674587e+2, -388633.0, -462459.94, -12270.658, -0.00007376235, -0.0026179838, -386646.94, -67743.23, 0.0, 4.996914, 4.949852 
6.236714e+2, 2.7240738e+2, -348571.47, -422597.84, -10746.467, -0.0002299871, 0.0008151454, -347042.97, -76636.016, 0.0, 4.9946117, 4.947436 
6.2359643e+2, 2.7735525e+2, -304571.3, -374019.94, -10558.165, -0.00008092316, -0.002540986, -303001.66, -81083.625, 0.0, 4.992324, 4.9480853 
6.235224e+2, 2.8230205e+2, -264745.4, -334696.94, -8768.115, 0.000080977756, 0.0016860961, -263663.1, -90223.766, 0.0, 4.9899955, 4.9454412 
6.2345004e+2, 2.8724805e+2, -220470.94, -285397.75, -8508.954, 0.00013320165, -0.0029521766, -219374.33, -94405.79, 0.0, 4.987673, 4.946328 
6.233786e+2, 2.921928e+2, -181301.03, -247717.25, -6464.513, 0.00007410497, 0.0013265742, -180677.67, -104167.484, 0.0, 4.9853435, 4.9430537 
6.23309e+2, 2.9713672e+2, -136624.25, -197812.17, -6045.5547, 0.0003093292, -0.001057039, -136032.66, -107973.195, 0.0, 4.983067, 4.944102 
6.232406e+2, 3.020881e+2, -100209.805, -134007.2, -4219.0947, 0.000527425, 0.0011802384, -99691.08, -99691.08, 0.0, 4.980748, 4.9591146 
6.2317455e+2, 3.0704775e+2, -105027.2, -133216.64, -3641.6895, 0.0006752771, -0.0061803167, -104564.34, -104564.34, 0.0, 4.9784527, 4.9603844 
6.231098e+2, 3.1202516e+2, -71575.125, -43531.723, -1653.3058, -0.0006774164, 0.0035932963, -43434.59, -43434.59, 0.0, 4.976102, 4.9941764 
6.230484e+2, 3.170202e+2, -75951.914, -41611.21, -820.17377, -0.0011822125, -0.0011489328, -41591.633, -41591.633, 0.0, 4.973776, 4.995883 
6.3103896e+2, 1.236447e+2, -1590871.4, -1730767.6, -3.6624284, 0.00085181854, -0.00036083796, -1590871.4, 137409.16, 0.0, 5.063618, 4.971726 
6.3097334e+2, 1.2861553e+2, -1550474.4, -1688444.0, -592.8252, -0.0009969042, -0.004320122, -1550471.9, 129094.67, 0.0, 5.061288, 4.970761 
6.309053e+2, 1.335861e+2, -1509243.5, -1644576.1, -3645.6482, -0.0015601424, 0.0022007532, -1509145.4, 121709.66, 0.0, 5.058962, 4.9702206 
6.3083583e+2, 1.3855562e+2, -1468297.8, -1601105.6, -4070.818, 0.0005347521, -0.0030646182, -1468173.1, 113980.65, 0.0, 5.05661, 4.969611 
6.307643e+2, 1.4352472e+2, -1427275.1, -1557783.4, -6465.2026, 0.00090284133, -0.0014390245, -1426955.6, 106500.875, 0.0, 5.0542927, 4.9689054 
6.306913e+2, 1.4849341e+2, -1386048.3, -1513883.1, -6850.018, -0.0006917375, -0.002494242, -1385682.3, 99080.98, 0.0, 5.0519557, 4.9684052 
6.306167e+2, 1.5346137e+2, -1345078.6, -1470784.3, -9001.193, -0.00092475803, -0.00039721027, -1344437.4, 91639.89, 0.0, 5.0496435, 4.9676185 
6.30541e+2, 1.5842861e+2, -1303738.1, -1426769.0, -9321.107, -0.00020006011, -0.003236456, -1303035.9, 84362.18, 0.0, 5.0473146, 4.967121 
6.3046396e+2, 1.6339526e+2, -1262766.4, -1383831.1, -11119.622, -0.00015817296, -0.0007838752, -1261753.5, 76971.42, 0.0, 5.0450215, 4.966234 
6.3038576e+2, 1.6836114e+2, -1221191.5, -1339533.1, -11397.828, -0.0005474219, -0.0032648605, -1220103.8, 69955.28, 0.0, 5.042719, 4.965784 
6.3030654e+2, 1.7332645e+2, -1180264.3, -1296750.1, -12898.605, -0.00039170228, -0.0008196097, -1178853.1, 62546.094, 0.0, 5.040421, 4.964807 
6.302265e+2, 1.7829098e+2, -1138578.3, -1252267.6, -13119.531, 0.00023479956, -0.0028767774, -1137083.9, 55662.754, 0.0, 5.038111, 4.9643893 
6.301455e+2, 1.8325485e+2, -1097640.4, -1209606.3, -14348.274, 0.00012670751, -0.00047912486, -1095830.9, 48269.92, 0.0, 5.035826, 4.9633303 
6.300639e+2, 1.8821786e+2, -1055759.5, -1164919.5, -14493.834, 0.00004687402, -0.0031089876, -1053867.9, 41595.293, 0.0, 5.0335426, 4.9629345 
6.2998164e+2, 1.9318028e+2, -1014822.4, -1122363.1, -15417.625, 0.00008826753, -0.0005312122, -1012655.6, 34176.016, 0.0, 5.0312595, 4.961798 
6.298989e+2, 1.9814181e+2, -972863.75, -1077539.8, -15515.743, 0.00036169673, -0.002953643, -970612.4, 27596.41, 0.0, 5.0289636, 4.9614196 
6.298158e+2, 2.0310271e+2, -931898.56, -1035010.5, -16168.872, 0.00032941252, -0.00018907606, -929422.6, 20169.49, 0.0, 5.02668, 4.9602394 
6.297324e+2, 2.0806266e+2, -889799.44, -989998.5, -16234.77, 0.00027316363, -0.002718685, -887234.7, 13749.739, 0.0, 5.0243883, 4.9598885 
6.296488e+2, 2.1302198e+2, -848847.2, -947598.94, -16566.65, 0.00024572175, 0.000020070433, -846142.06, 6241.1094, 0.0, 5.0221076, 4.9586186 
6.2956506e+2, 2.1798034e+2, -806604.0, -902407.56, -16636.969, 0.00021557428, -0.0029071574, -803797.06, -5.9079237, 0.0, 5.019824, 4.9582915 
6.294814e+2, 2.2293802e+2, -765659.6, -860087.44, -16648.07, 0.00008203979, -0.0000906312, -762810.5, -7604.515, 0.0, 5.017537, 4.956955 
6.2939775e+2, 2.2789474e+2, -723310.0, -814750.4, -16729.16, -0.00007392699, -0.0029489757, -720345.5, -13715.4, 0.0, 5.015251, 4.956644 
6.293143e+2, 2.3285076e+2, -682373.4, -772499.94, -16420.225, -0.00017871623, 0.000058238515, -679474.94, -21413.742, 0.0, 5.0129557, 4.9552445 
6.292312e+2, 2.3780583e+2, -639866.1, -726883.2, -16489.65, -0.00034192274, -0.0029543168, -636846.1, -27344.664, 0.0, 5.010663, 4.954998 
6.291484e+2, 2.4276014e+2, -599014.1, -684903.94, -15895.102, -0.00040393468, 0.00048001079, -596166.94, -35217.656, 0.0, 5.0083647, 4.95346 
6.2906617e+2, 2.4771346e+2, -556301.2, -638931.3, -15938.189, -0.00072805746, -0.0030021225, -553333.5, -40926.797, 0.0, 5.006073, 4.9533014 
6.2898445e+2, 2.5266597e+2, -515582.97, -597335.06, -15042.813, -0.00080297753, 0.00030309713, -512902.88, -49030.633, 0.0, 5.003769, 4.951592 
6.289035e+2, 2.576176e+2, -472485.28, -550627.56, -15032.316, -0.0005123716, -0.0030655612, -469693.25, -54346.664, 0.0, 5.001483, 4.951652 
6.288232e+2, 2.6256827e+2, -432048.2, -509815.1, -13839.948, -0.00022662384, 0.00048932945, -429658.56, -62828.758, 0.0, 4.999186, 4.949619 
6.287439e+2, 2.6751813e+2, -388456.0, -462160.2, -13726.272, -0.00025657553, -0.0025349122, -385982.7, -67661.3, 0.0, 4.996915, 4.949971 
6.286654e+2, 2.7246693e+2, -348429.47, -422355.53, -12251.753, -0.00052121136, 0.0009930851, -346451.88, -76628.45, 0.0, 4.9946084, 4.9475365 
6.2858814e+2, 2.7741486e+2, -304436.84, -373793.66, -12078.15, -0.0004483751, -0.0024630364, -302393.7, -81060.14, 0.0, 4.99232, 4.948181 
6.2851185e+2, 2.8236175e+2, -264592.5, -334441.9, -10332.854, -0.00012554762, 0.0016101813, -263096.03, -90242.04, 0.0, 4.9899945, 4.945546 
6.2843716e+2, 2.8730783e+2, -220307.22, -285151.56, -10097.779, 0.00041265346, -0.0032122934, -218771.14, -94388.625, 0.0, 4.987678, 4.946428 
6.283635e+2, 2.9225272e+2, -181013.45, -247168.7, -8043.1147, 0.00036008752, 0.0011446314, -180049.61, -104126.92, 0.0, 4.9853454, 4.9432616 
6.2829155e+2, 2.9719692e+2, -136379.52, -197286.1, -7644.699, -0.000012489717, -0.00080655597, -135434.64, -107965.06, 0.0, 4.9830546, 4.9443088 
6.282209e+2, 3.021485e+2, -100026.84, -133600.47, -5854.575, 0.000033176795, 0.0016326684, -99035.21, -99035.21, 0.0, 4.980731, 4.959282 
6.2815255e+2, 3.071083e+2, -104838.89, -132828.73, -5281.5054, 0.0006189255, -0.005827772, -103875.46, -103875.46, 0.0, 4.978441, 4.960542 
6.280855e+2, 3.1208587e+2, -71391.92, -43172.273, -3339.29, -0.0008002008, 0.003949406, -42782.51, -42782.51, 0.0, 4.9760923, 4.994326 
6.2802166e+2, 3.1708106e+2, -75823.34, -41297.164, -2519.6265, -0.0024482072, -0.0007054678, -41114.258, -41114.258, 0.0, 4.973751, 4.9960227 
6.36103e+2, 1.23709425e+2, -1586196.5, -1728899.3, 985.0712, 0.00033472065, -0.001575572, -1586189.6, 141456.19, 0.0, 5.0653176, 4.9715095 
6.36035e+2, 1.286801e+2, -1546111.3, -1686709.0, 390.61996, -0.0007321466, -0.004373739, -1546110.3, 132823.13, 0.0, 5.0628767, 4.9705567 
6.359646e+2, 1.3365045e+2, -1505058.1, -1642837.9, -2610.9497, -0.0009724353, 0.0022030205, -1505008.8, 125215.164, 0.0, 5.06047, 4.97006 
6.3589275e+2, 1.3861972e+2, -1464327.5, -1599480.6, -3021.4358, 0.0009982457, -0.0034913374, -1464260.0, 117264.9, 0.0, 5.058048, 4.9694505 
6.358188e+2, 1.4358863e+2, -1423524.6, -1556256.4, -5384.4404, 0.001200551, -0.0018042643, -1423306.5, 109523.07, 0.0, 5.0556526, 4.968752 
6.357434e+2, 1.4855716e+2, -1382537.3, -1512465.1, -5763.115, -0.000560785, -0.0026065374, -1382282.1, 101855.92, 0.0, 5.053233, 4.9682584 
6.3566643e+2, 1.5352494e+2, -1341753.9, -1469395.8, -7873.2114, -0.000578846, -0.000441165, -1341270.1, 94183.73, 0.0, 5.0508437, 4.967501 
6.3558847e+2, 1.58492e+2, -1300628.4, -1425480.4, -8179.8213, 0.00046837903, -0.003299429, -1300094.8, 86681.625, 0.0, 5.048441, 4.9670086 
6.355089e+2, 1.6345851e+2, -1259826.8, -1382582.1, -9925.498, 0.0003833885, -0.0008383506, -1259029.5, 79075.21, 0.0, 5.04608, 4.9661427 
6.354284e+2, 1.6842426e+2, -1218443.4, -1338377.5, -10193.973, -0.0003425976, -0.003312238, -1217583.1, 71857.05, 0.0, 5.043712, 4.965695 
6.3534683e+2, 1.7338943e+2, -1177689.0, -1295649.1, -11665.66, -0.00021044475, -0.00093963003, -1176546.4, 64235.277, 0.0, 5.041349, 4.9647326 
6.3526446e+2, 1.7835383e+2, -1136201.5, -1251259.9, -11872.535, 0.00048882357, -0.0031329335, -1134989.3, 57141.32, 0.0, 5.0389705, 4.9643173 
6.351811e+2, 1.8331759e+2, -1095423.3, -1208628.4, -13048.028, 0.00042839264, -0.00076266826, -1093938.8, 49546.934, 0.0, 5.03662, 4.963281 
6.3509715e+2, 1.8828052e+2, -1053721.8, -1164029.4, -13181.739, 0.00035969616, -0.0033539578, -1052168.4, 42680.664, 0.0, 5.034275, 4.9628863 
6.3501257e+2, 1.9324283e+2, -1012933.5, -1121513.4, -14076.336, 0.00033326534, -0.000805778, -1011138.3, 35080.156, 0.0, 5.0319343, 4.961765 
6.349276e+2, 1.9820426e+2, -971139.8, -1076768.3, -14141.881, 0.00051973166, -0.0032639054, -969279.25, 28317.193, 0.0, 5.0295815, 4.961388 
6.348421e+2, 2.0316507e+2, -930334.44, -1034294.25, -14764.988, 0.0003981245, -0.00053451484, -928278.06, 20702.457, 0.0, 5.0272374, 4.960218 
6.3475627e+2, 2.0812497e+2, -888405.94, -989355.2, -14802.642, 0.00032543213, -0.0031056006, -886280.1, 14093.527, 0.0, 5.0248857, 4.9598713 
6.3467044e+2, 2.130842e+2, -847606.44, -946996.25, -15103.216, 0.0003209336, -0.00037443318, -845362.06, 6410.924, 0.0, 5.0225453, 4.9586163 
6.345844e+2, 2.1804252e+2, -805527.0, -901884.9, -15147.154, 0.00037723174, -0.0032772159, -803202.0, -20.48466, 0.0, 5.0202055, 4.9582887 
6.344984e+2, 2.2300017e+2, -764727.1, -859593.56, -15132.231, 0.00015187045, -0.000431445, -762371.9, -7775.1646, 0.0, 5.01786, 4.9569697 
6.344124e+2, 2.2795685e+2, -722556.6, -814354.75, -15181.907, -0.00019428814, -0.0032715625, -720110.94, -14089.733, 0.0, 5.0155144, 4.9566526 
6.343267e+2, 2.3291281e+2, -681773.75, -772144.56, -14852.4, -0.0003835605, -0.0002817248, -679395.4, -21942.684, 0.0, 5.013159, 4.9552674 
6.342412e+2, 2.3786785e+2, -639448.25, -726627.75, -14907.413, -0.0005183247, -0.0033242798, -636969.6, -28076.168, 0.0, 5.0108056, 4.9550147 
6.3415617e+2, 2.4282213e+2, -598734.94, -684645.2, -14282.796, -0.00051838736, 0.000049672122, -596422.6, -36081.16, 0.0, 5.008445, 4.953506 
6.340715e+2, 2.4777542e+2, -556211.2, -638778.9, -14303.194, -0.00074896606, -0.003525338, -553803.6, -42004.457, 0.0, 5.00609, 4.953339 
6.339875e+2, 2.5272793e+2, -515658.03, -597194.1, -13387.678, -0.00091046107, -0.00015306902, -513516.16, -50251.5, 0.0, 5.003716, 4.9516563 
6.339042e+2, 2.5767955e+2, -472780.0, -550604.8, -13373.293, -0.000831387, -0.0033399782, -470546.1, -55807.21, 0.0, 5.0013556, 4.951709 
6.338216e+2, 2.6263028e+2, -432506.75, -509754.72, -12177.537, -0.00058001693, 0.0002644373, -430632.53, -64410.715, 0.0, 4.9989796, 4.9497237 
6.3374e+2, 2.6758018e+2, -389168.0, -462231.44, -12092.69, -0.0004915307, -0.0028158694, -387218.56, -69505.46, 0.0, 4.996621, 4.950068 
6.336592e+2, 2.7252904e+2, -349280.0, -422341.84, -10607.998, -0.00062712515, 0.0006689319, -347770.97, -78556.48, 0.0, 4.994238, 4.947696 
6.335796e+2, 2.774771e+2, -305478.88, -373876.3, -10388.905, -0.0005256847, -0.0028329862, -303935.72, -83212.086, 0.0, 4.9918833, 4.948335 
6.3350105e+2, 2.8242406e+2, -265801.6, -334621.25, -8611.261, -0.00022474483, 0.0013385128, -264740.47, -92497.33, 0.0, 4.989504, 4.9456887 
6.33424e+2, 2.8737026e+2, -221634.23, -285394.97, -8362.333, 0.00031985503, -0.0032328551, -220555.75, -96784.94, 0.0, 4.9871473, 4.9465637 
6.33348e+2, 2.9231527e+2, -182455.0, -247222.1, -6309.399, 0.00020293226, 0.0011675963, -181846.08, -106536.32, 0.0, 4.984729, 4.9435015 
6.3327366e+2, 2.9725963e+2, -138204.9, -197508.75, -5906.14, -0.00037437555, -0.0009199268, -137622.42, -110767.375, 0.0, 4.9823, 4.9445467 
6.3320065e+2, 3.0221143e+2, -102029.555, -133841.84, -4050.5608, -0.00037000806, 0.0017381863, -101521.914, -101521.914, 0.0, 4.9798994, 4.959544 
6.331301e+2, 3.0717146e+2, -106848.95, -133085.97, -3396.0251, 0.0003985652, -0.0050900676, -106416.516, -106416.516, 0.0, 4.977611, 4.960798 
6.330607e+2, 3.1214914e+2, -73637.29, -43860.957, -1585.2112, -0.00095685496, 0.0042735892, -43776.805, -43776.805, 0.0, 4.9752383, 4.99443 
6.3299453e+2, 3.171442e+2, -78252.64, -42103.215, -884.415, -0.0030936752, -0.002010019, -42081.59, -42081.59, 0.0, 4.972839, 4.996108 
6.4116776e+2, 1.2377582e+2, -1586058.9, -1729428.0, 183.39362, 0.00014096458, -0.0021919645, -1586058.6, 140936.36, 0.0, 5.0654807, 4.971263 
6.410975e+2, 1.2874629e+2, -1545929.1, -1687185.6, -448.6418, -0.00066728285, -0.0044282633, -1545927.8, 132356.84, 0.0, 5.0630474, 4.9703245 
6.410246e+2, 1.3371642e+2, -1504866.4, -1643210.1, -3448.5403, -0.000510211, 0.0021691043, -1504780.5, 124796.695, 0.0, 5.060622, 4.969871 
6.409503e+2, 1.3868545e+2, -1464207.1, -1599884.9, -3892.4663, 0.0015910178, -0.0037593988, -1464095.5, 116784.77, 0.0, 5.058174, 4.9692636 
6.4087397e+2, 1.4365417e+2, -1423377.1, -1556616.5, -6249.9326, 0.0016197969, -0.0020680067, -1423084.6, 109102.23, 0.0, 5.0557814, 4.9685793 
6.4079607e+2, 1.4862251e+2, -1382347.0, -1512792.3, -6646.883, -0.0003923954, -0.002783735, -1382009.1, 101488.016, 0.0, 5.053373, 4.968091 
6.4071673e+2, 1.5359013e+2, -1341551.3, -1469658.9, -8755.093, -0.00023528193, -0.000554618, -1340955.8, 93858.72, 0.0, 5.0509753, 4.9673595 
6.406363e+2, 1.5855707e+2, -1300465.8, -1425751.0, -9084.874, 0.0010990053, -0.0033619977, -1299810.4, 86328.03, 0.0, 5.0485554, 4.966872 
6.405544e+2, 1.6352342e+2, -1259663.6, -1382800.3, -10815.915, 0.0009203125, -0.00086152286, -1258720.9, 78747.24, 0.0, 5.046183, 4.96603 
6.404715e+2, 1.6848907e+2, -1218302.8, -1338603.9, -11113.755, -0.00006740657, -0.0033192763, -1217284.6, 71520.15, 0.0, 5.0438066, 4.9655843 
6.4038754e+2, 1.734541e+2, -1177532.3, -1295836.3, -12598.513, 0.000027183123, -0.0010175843, -1176205.4, 63942.1, 0.0, 5.0414414, 4.9646363 
6.403028e+2, 1.7841838e+2, -1136035.4, -1251438.1, -12834.491, 0.00072280434, -0.0033497121, -1134625.1, 56872.465, 0.0, 5.039065, 4.964224 
6.402171e+2, 1.8338205e+2, -1095254.6, -1208766.1, -14006.92, 0.0007055788, -0.0009632826, -1093551.8, 49302.047, 0.0, 5.0367074, 4.963205 
6.401308e+2, 1.883449e+2, -1053580.9, -1164168.8, -14176.664, 0.0006712627, -0.0034614552, -1051792.5, 42425.453, 0.0, 5.03435, 4.9628158 
6.400438e+2, 1.9330713e+2, -1012792.56, -1121621.9, -15096.8125, 0.0005789124, -0.00093410694, -1010737.1, 34850.938, 0.0, 5.032002, 4.9617085 
6.399564e+2, 1.9826849e+2, -971003.2, -1076869.1, -15194.055, 0.0006765463, -0.0034485091, -968865.7, 28101.03, 0.0, 5.0296454, 4.9613366 
6.398686e+2, 2.0322925e+2, -930193.5, -1034382.7, -15844.279, 0.00043761203, -0.0007801272, -927837.3, 20514.113, 0.0, 5.0273004, 4.9601717 
6.3978046e+2, 2.0818907e+2, -888259.3, -989429.2, -15913.482, 0.0003138771, -0.0034269125, -885815.25, 13929.903, 0.0, 5.0249476, 4.9598303 
6.3969225e+2, 2.1314828e+2, -847463.75, -947046.94, -16241.465, 0.00032909753, -0.00068522687, -844881.8, 6263.0996, 0.0, 5.0226007, 4.9585867 
6.3960385e+2, 2.1810655e+2, -805413.4, -901948.56, -16319.0, 0.00048706742, -0.0035233386, -802729.3, -175.56743, 0.0, 5.02025, 4.9582596 
6.395155e+2, 2.2306418e+2, -764604.06, -859609.94, -16342.224, 0.00017087423, -0.0006422029, -761871.56, -7902.464, 0.0, 5.0178986, 4.95696 
6.394272e+2, 2.2802083e+2, -722451.9, -814395.0, -16424.65, -0.00037350346, -0.0034838011, -719605.9, -14212.134, 0.0, 5.0155497, 4.956637 
6.393391e+2, 2.329768e+2, -681664.25, -772161.94, -16131.163, -0.00065898476, -0.00056244305, -678874.9, -22049.402, 0.0, 5.013191, 4.955261 
6.392513e+2, 2.3793177e+2, -639353.5, -726669.0, -16217.374, -0.000785069, -0.0037049812, -636438.7, -28172.111, 0.0, 5.010836, 4.955001 
6.3916385e+2, 2.4288607e+2, -598609.2, -684595.44, -15623.568, -0.000701337, -0.00039230354, -595858.44, -36143.773, 0.0, 5.008471, 4.953526 
6.390769e+2, 2.4783936e+2, -556113.3, -638766.5, -15683.545, -0.0007752431, -0.004008547, -553237.4, -42065.105, 0.0, 5.006111, 4.9533486 
6.389905e+2, 2.527919e+2, -515542.94, -597129.9, -14802.029, -0.0010586448, -0.00053521135, -512940.47, -50302.984, 0.0, 5.003734, 4.951686 
6.3890487e+2, 2.5774357e+2, -472681.4, -550573.25, -14817.0205, -0.001303129, -0.003541234, -469958.03, -55846.6, 0.0, 5.0013723, 4.9517274 
6.388199e+2, 2.6269433e+2, -432368.9, -509620.4, -13645.554, -0.0010865816, 0.000057417452, -430029.44, -64435.387, 0.0, 4.9989934, 4.9497795 
6.387359e+2, 2.6764423e+2, -389053.56, -462131.0, -13593.579, -0.0007825337, -0.0031906578, -386606.84, -69521.766, 0.0, 4.996631, 4.9501143 
6.3865274e+2, 2.7259317e+2, -349055.6, -421977.38, -12143.62, -0.0006932851, 0.00018694582, -347086.5, -78500.836, 0.0, 4.994245, 4.9478364 
6.3857085e+2, 2.7754134e+2, -305270.66, -373534.5, -11963.105, -0.000509901, -0.0033611914, -303234.84, -83141.29, 0.0, 4.9918876, 4.948469 
6.384899e+2, 2.824885e+2, -265636.72, -334354.56, -10217.012, -0.0003253173, 0.001013849, -264149.8, -92538.05, 0.0, 4.9895034, 4.9457984 
6.384105e+2, 2.8743482e+2, -221494.25, -285155.16, -9990.973, -0.000015241463, -0.0031178042, -219963.1, -96824.9, 0.0, 4.987141, 4.946667 
6.3833207e+2, 2.9237998e+2, -182200.3, -246706.78, -8014.9165, -0.00023165449, 0.0012908548, -181219.36, -106543.625, 0.0, 4.98472, 4.9437037 
6.3825536e+2, 2.9732448e+2, -137953.64, -197004.17, -7635.9023, -0.0008020247, -0.0012410119, -136982.2, -110762.695, 0.0, 4.982292, 4.9447455 
6.3818e+2, 3.0227655e+2, -101739.73, -133193.94, -5706.5044, -0.0007861749, 0.0016408052, -100736.44, -100736.44, 0.0, 4.9798813, 4.9598002 
6.381071e+2, 3.0723694e+2, -106623.91, -132474.72, -5077.016, -0.000027233482, -0.004202243, -105662.55, -105662.55, 0.0, 4.977571, 4.96105 
6.380355e+2, 3.1221467e+2, -73719.83, -43961.313, -3348.8093, -0.0012680246, 0.0045221024, -43589.117, -43589.117, 0.0, 4.975196, 4.9944267 
6.379669e+2, 3.1720945e+2, -78357.414, -42260.44, -2621.7456, -0.0036335767, -0.004161569, -42071.016, -42071.016, 0.0, 4.972798, 4.9960823 
6.4623374e+2, 1.23845644e+2, -1581391.3, -1727547.4, 1202.732, 0.00078592595, -0.0013243769, -1581381.3, 144929.67, 0.0, 5.0671782, 4.9710507 
6.461608e+2, 1.2881574e+2, -1541504.1, -1685400.5, 559.9715, -0.0013608036, -0.0047150636, -1541501.9, 136102.23, 0.0, 5.064657, 4.9701266 
6.4608544e+2, 1.3378564e+2, -1500649.6, -1641457.8, -2413.451, -0.0005937469, 0.0018120724, -1500608.3, 128290.695, 0.0, 5.062145, 4.969708 
6.460088e+2, 1.3875449e+2, -1460249.6, -1598243.4, -2840.8096, 0.0024872697, -0.0037913031, -1460191.1, 120012.625, 0.0, 5.0596056, 4.969111 
6.4592993e+2, 1.4372301e+2, -1419584.4, -1554980.6, -5128.7104, 0.0023761978, -0.0023667081, -1419390.4, 112121.84, 0.0, 5.0571404, 4.9684615 
6.458495e+2, 1.4869112e+2, -1378751.1, -1511252.6, -5514.686, -0.00012724055, -0.0035984663, -1378522.0, 104302.61, 0.0, 5.054665, 4.967977 
6.457677e+2, 1.5365857e+2, -1338155.1, -1468195.5, -7591.147, 0.000030649346, -0.0014191967, -1337713.5, 96429.89, 0.0, 5.052195, 4.9672565 
6.456849e+2, 1.5862536e+2, -1297284.6, -1424379.4, -7895.7813, 0.0014869086, -0.004074106, -1296795.9, 88672.84, 0.0, 5.0496993, 4.966778 
6.456005e+2, 1.635916e+2, -1256653.8, -1381454.3, -9556.004, 0.001386142, -0.0015504942, -1255926.4, 80873.28, 0.0, 5.047256, 4.9659634 
6.455152e+2, 1.685571e+2, -1215497.3, -1337356.9, -9831.703, 0.0004700661, -0.004055635, -1214709.1, 73428.305, 0.0, 5.0448093, 4.9655194 
6.454288e+2, 1.7352204e+2, -1174889.9, -1294648.8, -11264.305, 0.00050086045, -0.0017743753, -1173839.6, 65641.67, 0.0, 5.042384, 4.9645824 
6.4534163e+2, 1.7848621e+2, -1133564.6, -1250336.0, -11477.8125, 0.0009805684, -0.0041116187, -1132447.3, 58385.297, 0.0, 5.0399494, 4.964171 
6.452535e+2, 1.8344979e+2, -1092958.0, -1207732.5, -12600.535, 0.0009289713, -0.0015615894, -1091590.9, 50598.668, 0.0, 5.037528, 4.9631605 
6.451648e+2, 1.8841253e+2, -1051478.4, -1163223.3, -12749.731, 0.00091040356, -0.0038338457, -1050042.1, 43512.48, 0.0, 5.035103, 4.9627748 
6.4507544e+2, 1.933747e+2, -1010847.06, -1120717.4, -13626.023, 0.00079617254, -0.0012577121, -1009182.4, 35743.176, 0.0, 5.032694, 4.9616847 
6.449857e+2, 1.9833599e+2, -969220.56, -1076036.4, -13699.271, 0.0008831993, -0.0038136241, -967491.56, 28813.438, 0.0, 5.0302796, 4.961316 
6.4489543e+2, 2.0329665e+2, -928572.0, -1033628.9, -14313.401, 0.00052246096, -0.001172305, -926656.8, 21033.756, 0.0, 5.027879, 4.9601517 
6.4480495e+2, 2.082564e+2, -886778.25, -988731.6, -14354.136, 0.0002870609, -0.0038313959, -884795.9, 14289.2295, 0.0, 5.025476, 4.959816 
6.447143e+2, 2.1321554e+2, -846150.06, -946416.6, -14667.423, 0.00021591819, -0.0009863675, -844048.5, 6436.981, 0.0, 5.0230684, 4.958578 
6.446235e+2, 2.1817377e+2, -804285.25, -901400.56, -14719.568, 0.00033564508, -0.0036718159, -802103.3, -208.36113, 0.0, 5.0206523, 4.958254 
6.445328e+2, 2.2313133e+2, -763625.2, -859091.7, -14713.887, 0.0000355832, -0.00080508395, -761408.8, -8098.038, 0.0, 5.0182405, 4.9569726 
6.444421e+2, 2.2808792e+2, -721643.4, -813966.56, -14774.867, -0.0004372994, -0.0037448525, -719336.56, -14600.487, 0.0, 5.015834, 4.9566455 
6.443516e+2, 2.3304382e+2, -680997.3, -771762.9, -14456.007, -0.0007580182, -0.00089259556, -678750.56, -22582.377, 0.0, 5.013418, 4.9552865 
6.442614e+2, 2.3799878e+2, -638855.94, -726365.2, -14516.383, -0.0009864762, -0.004080239, -636510.75, -28900.943, 0.0, 5.0110073, 4.955019 
6.4417166e+2, 2.4295303e+2, -598265.56, -684316.2, -13901.987, -0.0009721626, -0.00061041466, -596075.4, -37017.297, 0.0, 5.008579, 4.953565 
6.4408225e+2, 2.4790633e+2, -555972.56, -638600.56, -13949.765, -0.0010334484, -0.0039450615, -553681.06, -43165.168, 0.0, 5.006151, 4.953379 
6.439935e+2, 2.5285885e+2, -515543.1, -596950.7, -13040.387, -0.0012762622, -0.0004415238, -513505.22, -51524.02, 0.0, 5.0037093, 4.95175 
6.439054e+2, 2.5781047e+2, -472874.34, -550505.75, -13032.02, -0.0014962052, -0.0036161288, -470745.03, -57289.664, 0.0, 5.0012846, 4.951781 
6.438181e+2, 2.6276127e+2, -432720.25, -509550.75, -11837.557, -0.0012647279, -0.000065056425, -430937.75, -65999.82, 0.0, 4.9988356, 4.9498644 
6.437317e+2, 2.677112e+2, -389630.03, -462184.16, -11774.316, -0.0009360606, -0.0032814632, -387767.1, -71338.266, 0.0, 4.9963975, 4.950189 
6.436461e+2, 2.7266017e+2, -349788.63, -422004.16, -10325.64, -0.00074785715, 0.00012577853, -348341.22, -80412.16, 0.0, 4.993938, 4.9479523 
6.4356184e+2, 2.776084e+2, -306220.97, -373672.3, -10185.997, -0.0005744798, -0.0033688212, -304716.3, -85279.72, 0.0, 4.9915056, 4.948578 
6.434785e+2, 2.825556e+2, -266744.84, -334431.75, -8442.951, -0.00046437807, 0.0010451837, -265707.63, -94753.586, 0.0, 4.989041, 4.945963 
6.433967e+2, 2.8750205e+2, -222847.25, -285352.53, -8187.446, -0.00022486545, -0.0030709999, -221792.58, -99313.16, 0.0, 4.986593, 4.9468255 
6.433158e+2, 2.9244733e+2, -183701.3, -246792.2, -6232.811, -0.0003614878, 0.0013681228, -183091.45, -109075.805, 0.0, 4.9840865, 4.943938 
6.432367e+2, 2.9739204e+2, -139696.75, -197202.8, -5861.827, -0.0007208254, -0.0011336451, -139105.31, -113547.48, 0.0, 4.9815726, 4.9449754 
6.4315885e+2, 3.023442e+2, -103843.93, -133540.05, -3951.2026, -0.0007122153, 0.0015400295, -103327.195, -103327.195, 0.0, 4.979028, 4.9600325 
6.430836e+2, 3.073047e+2, -109266.5, -133062.61, -3380.8425, -0.0002480769, -0.004705051, -108795.49, -108795.49, 0.0, 4.9765253, 4.9612784 
6.430096e+2, 3.1228277e+2, -76291.42, -44280.53, -1490.5344, -0.0011781901, 0.005121317, -44211.277, -44211.277, 0.0, 4.974127, 4.994757 
6.429388e+2, 3.1727812e+2, -80419.53, -42370.664, -411.0163, -0.0028951333, -0.00088068575, -42366.227, -42366.227, 0.0, 4.9719176, 4.996408 
6.513005e+2, 1.2391714e+2, -1581249.5, -1728040.0, 443.72006, 0.0011685434, -0.0006421699, -1581248.1, 144362.38, 0.0, 5.067334, 4.9708204 
6.512249e+2, 1.288869e+2, -1541333.9, -1685856.5, -217.88963, -0.001608499, -0.004934983, -1541333.5, 135573.31, 0.0, 5.064817, 4.969907 
6.51147e+2, 1.3385655e+2, -1500429.9, -1641838.0, -3199.5972, -0.00043182148, 0.0015527145, -1500357.6, 127846.266, 0.0, 5.06231, 4.969511 
6.5106785e+2, 1.3882522e+2, -1459996.1, -1598579.9, -3656.491, 0.0030861916, -0.0037930128, -1459899.8, 119610.84, 0.0, 5.0597754, 4.9689264 
6.509865e+2, 1.4379355e+2, -1419343.6, -1555238.3, -5937.887, 0.0028979096, -0.0024873836, -1419084.6, 111736.18, 0.0, 5.0572877, 4.968314 
6.5090364e+2, 1.4876148e+2, -1378597.9, -1511543.6, -6370.584, 0.00020615991, -0.004027161, -1378293.3, 103841.7, 0.0, 5.05478, 4.967834 
6.508193e+2, 1.5372875e+2, -1337978.0, -1468440.4, -8459.255, 0.0003579937, -0.001939567, -1337431.8, 96023.54, 0.0, 5.05231, 4.967129 
6.5073395e+2, 1.5869541e+2, -1297058.9, -1424584.5, -8787.982, 0.0017904106, -0.0045830742, -1296456.1, 88325.89, 0.0, 5.0498266, 4.966658 
6.506471e+2, 1.6366152e+2, -1256424.3, -1381605.8, -10448.697, 0.0017385266, -0.0020599882, -1255558.1, 80555.9, 0.0, 5.047374, 4.9658666 
6.505593e+2, 1.6862693e+2, -1215314.6, -1337522.8, -10769.777, 0.0009229549, -0.004586877, -1214372.8, 73080.086, 0.0, 5.044909, 4.9654274 
6.5047044e+2, 1.7359175e+2, -1174709.3, -1294785.0, -12211.386, 0.000918091, -0.0023258612, -1173480.0, 65317.65, 0.0, 5.042476, 4.9645042 
6.503808e+2, 1.7855583e+2, -1133392.0, -1250476.3, -12462.187, 0.001202442, -0.0046686437, -1132080.3, 58069.527, 0.0, 5.040038, 4.964093 
6.502903e+2, 1.8351932e+2, -1092779.8, -1207853.0, -13594.541, 0.0010934183, -0.0019921314, -1091195.5, 50312.145, 0.0, 5.037615, 4.963091 
6.501992e+2, 1.8848203e+2, -1051305.0, -1163348.5, -13776.677, 0.0010423923, -0.0041095256, -1049635.9, 43237.496, 0.0, 5.0351877, 4.9627047 
6.501074e+2, 1.934441e+2, -1010666.44, -1120794.4, -14669.17, 0.00092072267, -0.0014837164, -1008746.0, 35499.047, 0.0, 5.032771, 4.9616346 
6.500151e+2, 1.9840533e+2, -969070.6, -1076133.3, -14778.161, 0.0010373408, -0.00405522, -967068.25, 28556.883, 0.0, 5.0303473, 4.9612646 
6.499225e+2, 2.0336594e+2, -928429.1, -1033714.2, -15413.971, 0.00056648505, -0.001431956, -926218.9, 20792.37, 0.0, 5.0279408, 4.9601073 
6.4982957e+2, 2.0832562e+2, -886646.9, -988821.0, -15484.788, 0.00021086528, -0.0041027246, -884351.7, 14054.691, 0.0, 5.025533, 4.9597726 
6.497365e+2, 2.1328473e+2, -846018.3, -946496.9, -15834.855, 0.000027102356, -0.0011657001, -843581.94, 6225.2456, 0.0, 5.0231233, 4.9585395 
6.496433e+2, 2.1824291e+2, -804155.3, -901477.0, -15915.019, 0.00007781633, -0.0037254938, -801618.8, -401.76004, 0.0, 5.020705, 4.9582176 
6.495502e+2, 2.2320044e+2, -763490.25, -859131.56, -15940.635, -0.00017684096, -0.00089004997, -760903.4, -8270.063, 0.0, 5.018288, 4.956952 
6.494571e+2, 2.28157e+2, -721535.4, -814027.1, -16036.466, -0.00051268504, -0.0039262753, -718833.8, -14774.827, 0.0, 5.015873, 4.9566216 
6.493642e+2, 2.3311287e+2, -680879.06, -771777.94, -15757.719, -0.0008596144, -0.0011284744, -678224.94, -22733.537, 0.0, 5.0134525, 4.955281 
6.4927155e+2, 2.3806779e+2, -638755.06, -726405.8, -15854.19, -0.0012237249, -0.00434613, -635975.5, -29042.324, 0.0, 5.011039, 4.955006 
6.491794e+2, 2.4302207e+2, -598148.9, -684312.8, -15283.055, -0.001328983, -0.00066396495, -595518.4, -37136.992, 0.0, 5.008608, 4.953569 
6.490876e+2, 2.479754e+2, -555871.94, -638627.0, -15368.093, -0.0014215205, -0.0036476022, -553110.1, -43271.02, 0.0, 5.006179, 4.9533734 
6.489964e+2, 2.5292793e+2, -515403.97, -596876.4, -14490.739, -0.0015544632, -0.00015198046, -512903.38, -51599.016, 0.0, 5.003734, 4.951781 
6.489059e+2, 2.5787956e+2, -472761.06, -550472.4, -14519.993, -0.0016170078, -0.0035975773, -470136.7, -57358.074, 0.0, 5.0013056, 4.9517994 
6.488161e+2, 2.6283035e+2, -432574.47, -509438.72, -13365.21, -0.0013639516, -0.00008955371, -430316.8, -66055.96, 0.0, 4.9988556, 4.949911 
6.487273e+2, 2.6778033e+2, -389499.34, -462108.34, -13338.659, -0.0010863645, -0.0032059527, -387126.5, -71375.2, 0.0, 4.996417, 4.9502234 
6.486393e+2, 2.7272934e+2, -349646.38, -421882.22, -11915.4375, -0.0008457413, 0.00027932404, -347731.66, -80480.54, 0.0, 4.9939537, 4.9480042 
6.485526e+2, 2.7767763e+2, -306110.34, -373586.72, -11802.915, -0.0007233334, -0.003126336, -304105.38, -85347.08, 0.0, 4.9915147, 4.948621 
6.484669e+2, 2.826249e+2, -266532.2, -334091.03, -10098.229, -0.000670492, 0.0012489583, -265055.06, -94780.21, 0.0, 4.989045, 4.9460983 
6.4838254e+2, 2.8757143e+2, -222649.36, -285035.66, -9877.499, -0.0004192155, -0.0030380504, -221122.83, -99323.875, 0.0, 4.986595, 4.946954 
6.482993e+2, 2.9251692e+2, -183433.8, -246319.11, -8005.62, -0.0003748877, 0.0014134356, -182430.66, -109097.086, 0.0, 4.9840894, 4.9441214 
6.482177e+2, 2.9746178e+2, -139436.58, -196749.38, -7666.916, -0.00041401497, -0.00090268743, -138428.67, -113554.71, 0.0, 4.981576, 4.9451528 
6.4813733e+2, 3.024141e+2, -103664.81, -133176.95, -5759.239, -0.00043477712, 0.0013439362, -102580.73, -102580.73, 0.0, 4.9790125, 4.960186 
6.480594e+2, 3.0737466e+2, -109168.25, -132743.72, -5187.9414, -0.0004566727, -0.00590868, -108077.11, -108077.11, 0.0, 4.9764824, 4.9614277 
6.479832e+2, 3.1235322e+2, -75663.64, -43029.953, -3140.7583, -0.00092731556, 0.005920628, -42730.426, -42730.426, 0.0, 4.9741383, 4.995228 
6.4791036e+2, 3.1734952e+2, -79574.75, -41011.68, -2203.6362, -0.0015689626, 0.0049421284, -40886.164, -40886.164, 0.0, 4.9720054, 4.996886 
6.563681e+2, 1.2399202e+2, -1576521.6, -1726002.5, 1513.1018, 0.00085990713, -0.000782967, -1576506.4, 148370.47, 0.0, 5.069028, 4.970661 
6.5629005e+2, 1.2896155e+2, -1536876.0, -1683956.4, 856.9443, -0.00067093037, -0.005129873, -1536871.0, 139303.77, 0.0, 5.06642, 4.96975 
6.562096e+2, 1.3393098e+2, -1496211.1, -1640084.9, -2084.7112, 0.0003135527, 0.001302845, -1496181.0, 131293.16, 0.0, 5.063837, 4.9693456 
6.5612775e+2, 1.3889945e+2, -1455994.4, -1596908.3, -2526.5227, 0.0027115573, -0.0040591895, -1455949.0, 122834.32, 0.0, 5.0612235, 4.968775 
6.5604377e+2, 1.4386761e+2, -1415538.5, -1553589.8, -4766.7676, 0.0026825292, -0.0023500419, -1415374.1, 114721.01, 0.0, 5.058653, 4.9681973 
6.559584e+2, 1.488354e+2, -1375041.3, -1510000.5, -5183.216, 0.00075973244, -0.0034061668, -1374842.5, 106567.9, 0.0, 5.056057, 4.967727 
6.558715e+2, 1.5380253e+2, -1334586.5, -1466924.0, -7198.232, 0.00092149567, -0.0015055274, -1334196.1, 98536.26, 0.0, 5.0535197, 4.9670477 
6.5578365e+2, 1.58769e+2, -1293842.6, -1423151.4, -7505.1353, 0.0019467365, -0.004575536, -1293408.5, 90652.3, 0.0, 5.0509763, 4.96658 
6.5569425e+2, 1.6373497e+2, -1253409.0, -1380269.0, -9123.666, 0.0017941243, -0.0020808284, -1252756.1, 82638.016, 0.0, 5.0484543, 4.965791 
6.55604e+2, 1.6870026e+2, -1212505.8, -1336267.6, -9424.661, 0.0010441822, -0.0044678943, -1211792.1, 74942.164, 0.0, 5.0459146, 4.965362 
6.5551263e+2, 1.7366497e+2, -1172050.8, -1293547.3, -10800.874, 0.0011481742, -0.0021822222, -1171098.1, 66982.06, 0.0, 5.043419, 4.9644656 
6.5542054e+2, 1.7862895e+2, -1130913.4, -1249325.4, -11027.655, 0.001448653, -0.0045495555, -1129895.1, 59538.01, 0.0, 5.040919, 4.9640565 
6.5532744e+2, 1.8359233e+2, -1090450.4, -1206753.5, -12105.061, 0.0011822825, -0.0020360174, -1089203.8, 51588.277, 0.0, 5.03844, 4.9630647 
6.5523386e+2, 1.8855491e+2, -1049145.8, -1162340.0, -12262.593, 0.00086685794, -0.0043983078, -1047832.56, 44326.355, 0.0, 5.035957, 4.9626765 
6.551396e+2, 1.9351692e+2, -1008667.44, -1119841.8, -13112.858, 0.0007900464, -0.00174806, -1007141.75, 36389.62, 0.0, 5.0334806, 4.961617 
6.55045e+2, 1.9847807e+2, -967241.2, -1075259.5, -13195.313, 0.0010915563, -0.004193634, -965652.6, 29259.525, 0.0, 5.030998, 4.961249 
6.549499e+2, 2.034386e+2, -926755.9, -1032894.56, -13784.269, 0.00058578356, -0.001543589, -924994.94, 21304.02, 0.0, 5.028533, 4.9601016 
6.548545e+2, 2.0839821e+2, -885129.7, -988068.2, -13821.852, 0.00014557857, -0.004217772, -883306.1, 14388.666, 0.0, 5.02607, 4.959771 
6.54759e+2, 2.1335724e+2, -844653.8, -945815.0, -14144.168, -0.00018788727, -0.0013963016, -842713.44, 6382.8984, 0.0, 5.023607, 4.9585395 
6.546633e+2, 2.1831533e+2, -802933.4, -900856.5, -14191.823, -0.0002577342, -0.004133942, -800918.06, -411.03873, 0.0, 5.021138, 4.9582205 
6.545678e+2, 2.2327282e+2, -762433.1, -858588.3, -14192.754, -0.0004336955, -0.0012622488, -760382.0, -8458.126, 0.0, 5.0186634, 4.956956 
6.5447223e+2, 2.2822931e+2, -720653.56, -813565.94, -14264.207, -0.0005861597, -0.004147474, -718513.0, -15162.818, 0.0, 5.0161877, 4.956626 
6.5437686e+2, 2.3318516e+2, -680139.6, -771342.1, -13955.422, -0.0009772326, -0.001222223, -678052.0, -23269.045, 0.0, 5.0137086, 4.9553037 
6.542818e+2, 2.3814003e+2, -638183.4, -726059.6, -14030.817, -0.0015013634, -0.0043236767, -635997.5, -29772.283, 0.0, 5.011238, 4.9550247 
6.5418714e+2, 2.4309427e+2, -597717.94, -683990.7, -13439.075, -0.0017171327, -0.00066750176, -595672.94, -37999.098, 0.0, 5.00875, 4.9536057 
6.540929e+2, 2.4804753e+2, -555613.94, -638403.94, -13502.739, -0.0018198622, -0.0037574784, -553467.4, -44335.23, 0.0, 5.0062637, 4.953402 
6.5399927e+2, 2.5300005e+2, -515288.3, -596656.7, -12603.051, -0.0018085707, -0.0002550886, -513380.94, -52783.293, 0.0, 5.003757, 4.9518356 
6.539063e+2, 2.5795162e+2, -472845.84, -550366.7, -12618.741, -0.001690916, -0.0036532439, -470843.5, -58771.324, 0.0, 5.0012617, 4.951844 
6.538141e+2, 2.6290244e+2, -432790.0, -509314.1, -11439.679, -0.0015247941, -0.00004394784, -431116.47, -67562.07, 0.0, 4.9987507, 4.9499893 
6.537228e+2, 2.6785243e+2, -389888.94, -462085.4, -11402.042, -0.001454646, -0.003013257, -388131.0, -73086.25, 0.0, 4.996255, 4.950291 
6.536324e+2, 2.7280146e+2, -350192.6, -421843.9, -9960.756, -0.0011986733, 0.00044592496, -348833.66, -82289.21, 0.0, 4.9937205, 4.9481087 
6.535432e+2, 2.7774975e+2, -306914.94, -373681.7, -9822.142, -0.0010822616, -0.003116454, -305499.97, -87448.39, 0.0, 4.991192, 4.9487166 
6.534549e+2, 2.826971e+2, -267478.28, -334108.38, -8093.211, -0.0010475168, 0.0013461043, -266509.3, -96941.85, 0.0, 4.988646, 4.9462543 
6.533682e+2, 2.8764373e+2, -223784.72, -285147.75, -7884.9897, -0.0007441772, -0.002662428, -222787.72, -101697.3, 0.0, 4.98613, 4.9471045 
6.5328234e+2, 2.9258925e+2, -184644.75, -246380.48, -6048.367, -0.0006174415, 0.0011960495, -184057.77, -111433.125, 0.0, 4.9835835, 4.9443064 
6.5319824e+2, 2.9753408e+2, -140692.98, -196839.55, -5758.3257, -0.00057608273, -0.002363048, -140108.52, -115943.27, 0.0, 4.9810553, 4.9453325 
6.531153e+2, 3.024867e+2, -105439.16, -133282.8, -4069.9329, -0.0006516927, 0.0013579741, -104856.445, -104856.445, 0.0, 4.978264, 4.960458 
6.530346e+2, 3.0744785e+2, -112245.92, -133423.47, -3439.9133, -0.00094614946, -0.0020742493, -111701.18, -111701.18, 0.0, 4.9752645, 4.961696 
6.529564e+2, 3.1242535e+2, -78406.43, -45673.82, -930.1159, -0.0011922041, 0.002077743, -45647.414, -45647.414, 0.0, 4.9734483, 4.994539 
6.5288234e+2, 3.1741914e+2, -77712.25, -41676.547, -1491.8464, -0.0014734508, -0.016766937, -41614.89, -41614.89, 0.0, 4.9729943, 4.9961996 
6.614365e+2, 1.2406867e+2, -1576250.0, -1726375.5, 729.9892, 0.0006700024, -0.00082129665, -1576246.5, 147879.25, 0.0, 5.0692153, 4.970456 
6.61356e+2, 1.2903798e+2, -1536771.5, -1684391.6, 18.08293, 0.0001960905, -0.0050546625, -1536771.5, 138654.03, 0.0, 5.066545, 4.9695544 
6.612728e+2, 1.3400722e+2, -1496078.1, -1640477.3, -2892.9426, 0.0009861479, 0.0012997098, -1496020.3, 130706.77, 0.0, 5.063965, 4.9691634 
6.6118824e+2, 1.3897544e+2, -1455775.8, -1597236.0, -3339.729, 0.0023367133, -0.0041772663, -1455696.9, 122341.63, 0.0, 5.061375, 4.9686027 
6.611017e+2, 1.4394346e+2, -1415312.3, -1553856.5, -5588.826, 0.0023897095, -0.0022140488, -1415087.1, 114264.64, 0.0, 5.0587945, 4.96805 
6.610138e+2, 1.4891113e+2, -1374859.9, -1510266.5, -6034.1636, 0.0011129703, -0.0029474616, -1374591.5, 106077.0, 0.0, 5.0561776, 4.967591 
6.609243e+2, 1.5387811e+2, -1334398.5, -1467127.9, -8028.95, 0.0013392383, -0.0011388608, -1333914.5, 98077.26, 0.0, 5.05363, 4.9669366 
6.6083384e+2, 1.5884443e+2, -1293665.9, -1423352.0, -8373.29, 0.0020582406, -0.0044602994, -1293127.5, 90194.25, 0.0, 5.05108, 4.966473 
6.607419e+2, 1.6381027e+2, -1253222.3, -1380455.9, -10000.403, 0.0017597758, -0.0019765669, -1252441.0, 82215.31, 0.0, 5.048559, 4.965689 
6.606491e+2, 1.6877545e+2, -1212294.3, -1336421.4, -10326.246, 0.000988559, -0.0042563966, -1211441.0, 74556.56, 0.0, 5.0460234, 4.96527 
6.6055524e+2, 1.7374006e+2, -1171838.6, -1293651.1, -11705.632, 0.0012157748, -0.0019164927, -1170723.9, 66620.375, 0.0, 5.0435166, 4.964396 
6.6046065e+2, 1.7870396e+2, -1130743.3, -1249444.4, -11976.154, 0.0015827768, -0.004266666, -1129547.0, 59151.137, 0.0, 5.041001, 4.9639897 
6.6036505e+2, 1.8366726e+2, -1090277.6, -1206847.3, -13066.016, 0.0011934908, -0.0019066914, -1088831.1, 51226.785, 0.0, 5.0385175, 4.963009 
6.602689e+2, 1.8862975e+2, -1048973.1, -1162432.9, -13267.1045, 0.00063983933, -0.0045086653, -1047442.4, 43983.176, 0.0, 5.0360336, 4.9626217 
6.6017216e+2, 1.9359167e+2, -1008495.8, -1119935.5, -14142.964, 0.0005985213, -0.0018303551, -1006728.94, 36069.758, 0.0, 5.0335565, 4.9615626 
6.6007507e+2, 1.9855276e+2, -967064.2, -1075341.8, -14268.045, 0.0010439064, -0.004174519, -965215.6, 28964.46, 0.0, 5.0310736, 4.9611993 
6.599775e+2, 2.0351325e+2, -926587.4, -1032956.75, -14871.793, 0.0005225452, -0.0015080823, -924547.25, 21020.133, 0.0, 5.0285997, 4.9600635 
6.598796e+2, 2.084728e+2, -884991.4, -988139.1, -14952.506, 0.000050352897, -0.00417816, -882867.56, 14096.093, 0.0, 5.026125, 4.959736 
6.597817e+2, 2.1343178e+2, -844524.25, -945888.75, -15317.071, -0.00041290987, -0.0014974386, -842260.25, 6105.431, 0.0, 5.023658, 4.9585056 
6.596835e+2, 2.1838981e+2, -802803.75, -900927.3, -15400.148, -0.0006047616, -0.0044601006, -800443.5, -666.4753, 0.0, 5.0211883, 4.9581885 
6.5958554e+2, 2.2334725e+2, -762303.4, -858663.6, -15439.447, -0.0007218242, -0.0015361126, -759890.0, -8695.759, 0.0, 5.018714, 4.956922 
6.594875e+2, 2.2830372e+2, -720520.94, -813639.56, -15547.014, -0.000725956, -0.0042404886, -717993.8, -15372.849, 0.0, 5.0162387, 4.9565926 
6.5938973e+2, 2.3325954e+2, -680000.44, -771375.8, -15276.912, -0.0011644495, -0.0011592557, -677514.0, -23460.037, 0.0, 5.0137544, 4.9552875 
6.592921e+2, 2.382144e+2, -638074.94, -726117.9, -15391.589, -0.0018208824, -0.004115894, -635461.75, -29965.385, 0.0, 5.0112743, 4.955004 
6.5919495e+2, 2.4316862e+2, -597596.3, -684000.44, -14847.381, -0.0021271852, -0.00057179906, -595116.2, -38170.926, 0.0, 5.008782, 4.953604 
6.5909827e+2, 2.4812184e+2, -555504.9, -638441.06, -14948.566, -0.002235255, -0.0039170724, -552892.8, -44488.875, 0.0, 5.0062957, 4.953392 
6.590021e+2, 2.5307435e+2, -515153.13, -596634.25, -14090.111, -0.0020792203, -0.0003952324, -512785.4, -52915.906, 0.0, 5.003788, 4.951847 
6.589067e+2, 2.5802594e+2, -472726.06, -550375.6, -14143.783, -0.0017942258, -0.0036526956, -470230.0, -58885.996, 0.0, 5.001292, 4.951845 
6.588119e+2, 2.629768e+2, -432639.3, -509231.22, -12998.647, -0.0017610596, 0.0000736965, -430493.38, -67667.38, 0.0, 4.9987764, 4.9500246 
6.587182e+2, 2.679268e+2, -389772.25, -462044.7, -13004.056, -0.0019571695, -0.002758841, -387503.63, -73187.586, 0.0, 4.9962735, 4.950315 
6.5862525e+2, 2.7287588e+2, -350034.13, -421690.56, -11619.409, -0.001698051, 0.000643664, -348197.1, -82381.734, 0.0, 4.993735, 4.948174 
6.585335e+2, 2.778242e+2, -306772.34, -373558.88, -11520.26, -0.001570837, -0.0031668928, -304841.0, -87518.86, 0.0, 4.991205, 4.948772 
6.5844274e+2, 2.8277165e+2, -267304.84, -333873.97, -9815.361, -0.0015507685, 0.0013922338, -265887.78, -97050.64, 0.0, 4.9886513, 4.946353 
6.5835345e+2, 2.8771842e+2, -223657.02, -284954.0, -9646.685, -0.0012027777, -0.0022318512, -222174.7, -101815.93, 0.0, 4.9861226, 4.9471946 
6.582652e+2, 2.926639e+2, -184484.95, -246136.03, -7839.608, -0.0010480346, 0.00077257404, -183503.67, -111610.85, 0.0, 4.98358, 4.9444127 
6.581785e+2, 2.9760867e+2, -140508.73, -196602.53, -7582.6387, -0.0010711392, -0.004599993, -139501.81, -116067.6, 0.0, 4.9810643, 4.9454317 
6.580928e+2, 3.025617e+2, -105043.0, -132638.33, -6290.102, -0.0012730979, 0.0015886566, -103676.87, -103676.87, 0.0, 4.978288, 4.9606977 
6.580092e+2, 3.075237e+2, -111791.5, -132779.33, -5743.706, -0.001812627, 0.0042506508, -110322.46, -110322.46, 0.0, 4.9753146, 4.9619246 
6.579292e+2, 3.1249917e+2, -80269.47, -50140.316, -1353.6072, -0.0019504701, -0.005128409, -50079.625, -50079.625, 0.0, 4.9734507, 4.992914 
6.578549e+2, 3.1749675e+2, -83355.305, -54108.875, -2016.4745, 0.00010155949, 0.029548438, -53970.496, -53970.496, 0.0, 4.972848, 4.9917145 
6.66506e+2, 1.24148935e+2, -1571566.8, -1724420.1, 1765.9629, 0.0006373285, -0.0007488989, -1571546.4, 151792.92, 0.0, 5.070911, 4.9702682 
6.664227e+2, 1.2911803e+2, -1532374.6, -1682511.9, 1079.9329, 0.00065677776, -0.004542568, -1532366.9, 142274.6, 0.0, 5.068129, 4.969399 
6.663369e+2, 1.3408707e+2, -1491832.3, -1638559.3, -1719.9508, 0.0014158137, 0.0016496506, -1491812.1, 134132.56, 0.0, 5.0654726, 4.969061 
6.6624963e+2, 1.390551e+2, -1451748.0, -1595424.6, -2149.0, 0.0021024076, -0.004149995, -1451715.9, 125541.97, 0.0, 5.062809, 4.968504 
6.661604e+2, 1.4402293e+2, -1411517.8, -1552166.6, -4375.001, 0.0019357706, -0.0024950888, -1411381.8, 117191.13, 0.0, 5.06015, 4.967951 
6.660698e+2, 1.4899041e+2, -1371292.3, -1508667.9, -4789.729, 0.0008311848, -0.0035266278, -1371125.5, 108766.03, 0.0, 5.0574517, 4.967503 
6.659778e+2, 1.5395726e+2, -1331015.6, -1465575.8, -6691.9614, 0.0013177191, -0.0015479911, -1330683.6, 100532.336, 0.0, 5.0548315, 4.9668694 
6.6588473e+2, 1.5892348e+2, -1290479.4, -1421879.3, -7010.1074, 0.0021514143, -0.004541786, -1290106.5, 92440.43, 0.0, 5.0522118, 4.966416 
6.6579014e+2, 1.638892e+2, -1250202.5, -1379039.4, -8572.419, 0.0016101645, -0.0020826363, -1249634.6, 84248.04, 0.0, 5.0496283, 4.965645 
6.656948e+2, 1.6885427e+2, -1209447.1, -1335080.5, -8863.775, 0.00052949536, -0.004491303, -1208824.9, 76400.266, 0.0, 5.047032, 4.965231 
6.655983e+2, 1.7381878e+2, -1169174.8, -1292396.5, -10187.726, 0.0008749218, -0.0020845602, -1168338.1, 68234.59, 0.0, 5.0444617, 4.9643607 
6.655012e+2, 1.787826e+2, -1128270.5, -1248269.6, -10426.968, 0.0014243275, -0.004308051, -1127371.3, 60556.32, 0.0, 5.0418777, 4.963961 
6.6540307e+2, 1.837458e+2, -1087952.0, -1205714.5, -11444.948, 0.0011374449, -0.0019052989, -1086850.0, 52438.113, 0.0, 5.039338, 4.962995 
6.653044e+2, 1.887082e+2, -1046804.6, -1161374.6, -11621.454, 0.00062635366, -0.004490679, -1045637.7, 45018.855, 0.0, 5.0368, 4.96261 
6.652051e+2, 1.9367005e+2, -1006481.8, -1118960.4, -12447.329, 0.00048474997, -0.0018501079, -1005120.8, 36909.734, 0.0, 5.0342717, 4.961548 
6.651055e+2, 1.9863105e+2, -965185.25, -1074424.9, -12551.049, 0.0007374185, -0.0043040044, -963761.75, 29651.205, 0.0, 5.031741, 4.9611883 
6.6500545e+2, 2.0359144e+2, -924867.25, -1032107.6, -13109.366, 0.000267143, -0.0016548309, -923288.0, 21513.059, 0.0, 5.029211, 4.960057 
6.649051e+2, 2.0855092e+2, -883436.5, -987359.2, -13165.6875, 0.000019616464, -0.0042882035, -881794.56, 14403.605, 0.0, 5.026677, 4.959734 
6.6480464e+2, 2.1350983e+2, -843118.8, -945167.7, -13488.166, -0.00037991247, -0.0016012124, -841366.1, 6234.735, 0.0, 5.0241556, 4.9585094 
6.6470397e+2, 2.1846777e+2, -801534.5, -900265.4, -13539.905, -0.00057237037, -0.004581392, -799711.3, -698.3935, 0.0, 5.0216384, 4.958195 
6.646035e+2, 2.2342514e+2, -761173.3, -858080.7, -13552.292, -0.0008621761, -0.0016016745, -759313.75, -8882.958, 0.0, 5.0191183, 4.956924 
6.645029e+2, 2.2838154e+2, -719516.94, -813108.9, -13631.778, -0.0010976536, -0.004230225, -717571.9, -15713.626, 0.0, 5.0165977, 4.9565983 
6.6440266e+2, 2.3333731e+2, -679146.94, -770899.1, -13348.045, -0.0014580137, -0.0010955294, -677244.5, -23952.64, 0.0, 5.014057, 4.9553013 
6.643025e+2, 2.3829211e+2, -637403.9, -725725.7, -13439.254, -0.0018878703, -0.0040132822, -635404.25, -30669.195, 0.0, 5.011513, 4.9550185 
6.6420287e+2, 2.4324626e+2, -597061.1, -683615.8, -12861.374, -0.002111209, -0.0005363827, -595190.5, -39006.027, 0.0, 5.0089626, 4.9536433 
6.641036e+2, 2.4819942e+2, -555130.56, -638148.4, -12939.044, -0.0021676573, -0.0039907754, -553160.6, -45516.957, 0.0, 5.0064225, 4.953423 
6.64005e+2, 2.531519e+2, -514914.6, -596371.6, -12059.9795, -0.0020885444, -0.00036544705, -513166.6, -54057.063, 0.0, 5.0038614, 4.951892 
6.6390705e+2, 2.581035e+2, -472657.97, -550206.0, -12095.201, -0.0020396675, -0.0034475462, -470815.25, -60230.906, 0.0, 5.001308, 4.951884 
6.6380984e+2, 2.6305428e+2, -432726.03, -509060.38, -10933.929, -0.0021115404, 0.00021130922, -431190.78, -69124.125, 0.0, 4.998724, 4.9500937 
6.6371346e+2, 2.6800427e+2, -390086.0, -461998.53, -10930.384, -0.0022548072, -0.0027793858, -388461.34, -74904.234, 0.0, 4.996145, 4.9503746 
6.6361797e+2, 2.7295333e+2, -350485.1, -421617.13, -9535.451, -0.0018072015, 0.0006634136, -349229.03, -84172.73, 0.0, 4.993541, 4.948271 
6.635237e+2, 2.7790168e+2, -307414.75, -373586.22, -9434.7295, -0.0015857717, -0.0030636573, -306095.84, -89533.02, 0.0, 4.990946, 4.948862 
6.6343033e+2, 2.8284913e+2, -268163.78, -333902.53, -7734.6924, -0.0017995957, 0.001202638, -267266.0, -99188.2, 0.0, 4.988297, 4.9464836 
6.633384e+2, 2.8779587e+2, -224850.77, -285138.53, -7564.815, -0.0018735027, -0.002808811, -223916.03, -104316.54, 0.0, 4.9856496, 4.947321 
6.632477e+2, 2.9274154e+2, -185609.78, -246037.81, -5596.5864, -0.001537146, 0.0008541448, -185095.83, -113963.92, 0.0, 4.983085, 4.9446473 
6.6315866e+2, 2.9768658e+2, -141464.64, -196455.69, -5250.5547, -0.00098996, -0.003420634, -140967.8, -118297.12, 0.0, 4.9806356, 4.945654 
6.630702e+2, 3.0263942e+2, -105837.71, -132979.13, -4358.282, -0.0016477448, 0.0011250178, -105155.05, -105155.05, 0.0, 4.978026, 4.960672 
6.629836e+2, 3.0760103e+2, -112003.34, -133058.78, -4157.2246, -0.0034833578, 0.0009782243, -111212.26, -111212.26, 0.0, 4.975301, 4.9618134 
6.629019e+2, 3.1257474e+2, -87393.86, -62862.563, -936.051, -0.0004888849, -0.0027468328, -62826.9, -62826.9, 0.0, 4.9727554, 4.988535 
6.628255e+2, 3.175571e+2, -62349.09, 7062.116, 2576.6814, -0.0048092348, -0.07837371, 7157.636, 7157.636, 0.0, 4.9704175, 5.0153294 
6.7157626e+2, 1.24231055e+2, -1571409.8, -1724881.1, 984.67847, 0.00092923886, -0.00061848416, -1571403.4, 151131.14, 0.0, 5.0710645, 4.970051 
6.714902e+2, 1.2919994e+2, -1532088.4, -1682845.5, 294.19937, 0.00089578435, -0.004174765, -1532087.8, 141751.39, 0.0, 5.0683117, 4.9692097 
6.714017e+2, 1.3416877e+2, -1491594.8, -1638820.4, -2481.7498, 0.0016759387, 0.001950511, -1491552.9, 133591.16, 0.0, 5.0656176, 4.968914 
6.713116e+2, 1.3913663e+2, -1451651.6, -1595735.5, -2970.574, 0.0019341252, -0.0040056272, -1451590.5, 124868.41, 0.0, 5.062901, 4.968366 
6.7121965e+2, 1.4410427e+2, -1411402.1, -1552443.9, -5215.6934, 0.0015513211, -0.0025386205, -1411209.5, 116566.11, 0.0, 5.060243, 4.9678245 
6.711265e+2, 1.4907157e+2, -1371112.9, -1508892.6, -5650.3804, 0.00054560805, -0.003781428, -1370881.5, 108214.33, 0.0, 5.0575614, 4.9673862 
6.710317e+2, 1.5403832e+2, -1330837.3, -1465767.1, -7533.886, 0.0011840034, -0.0016877606, -1330417.9, 100003.73, 0.0, 5.0549335, 4.966767 
6.7093605e+2, 1.5900443e+2, -1290326.3, -1422057.3, -7894.594, 0.00202392, -0.0044485847, -1289854.8, 91898.64, 0.0, 5.0522995, 4.9663253 
6.708389e+2, 1.6397008e+2, -1250060.6, -1379187.0, -9463.828, 0.0013387812, -0.0020183707, -1249370.8, 83719.4, 0.0, 5.0497036, 4.96557 
6.7074084e+2, 1.6893503e+2, -1209324.3, -1335225.9, -9790.959, 0.000098779994, -0.004535017, -1208567.4, 75866.23, 0.0, 5.047098, 4.965162 
6.706418e+2, 1.7389946e+2, -1169027.3, -1292528.4, -11125.125, 0.0005094907, -0.0021127912, -1168033.0, 67749.02, 0.0, 5.0445356, 4.964293 
6.7054206e+2, 1.7886318e+2, -1128078.4, -1248365.4, -11396.719, 0.0011296028, -0.0042817374, -1127008.1, 60129.61, 0.0, 5.0419636, 4.963901 
6.704414e+2, 1.8382633e+2, -1087761.4, -1205790.4, -12422.442, 0.0009595367, -0.0018111892, -1086468.1, 52030.703, 0.0, 5.0394187, 4.9629445 
6.703403e+2, 1.8878868e+2, -1046642.6, -1161458.9, -12649.633, 0.00055583846, -0.004327022, -1045265.5, 44602.387, 0.0, 5.0368686, 4.962562 
6.702384e+2, 1.9375044e+2, -1006325.7, -1119053.1, -13490.351, 0.0003416654, -0.0017377605, -1004733.75, 36508.773, 0.0, 5.0343394, 4.9614983 
6.701362e+2, 1.9871137e+2, -965017.1, -1074508.1, -13635.061, 0.00040441658, -0.0043362775, -963344.6, 29281.04, 0.0, 5.031811, 4.961141 
6.7003363e+2, 2.036717e+2, -924695.06, -1032190.44, -14218.435, -0.000018166262, -0.001701483, -922846.2, 21168.225, 0.0, 5.0292826, 4.96001 
6.699308e+2, 2.0863111e+2, -883261.6, -987438.6, -14317.894, -0.000045010896, -0.0043015755, -881329.6, 14082.467, 0.0, 5.0267487, 4.959689 
6.6982776e+2, 2.1358998e+2, -842943.3, -945224.6, -14670.217, -0.00034821546, -0.0015712061, -840880.75, 5934.5146, 0.0, 5.0242224, 4.9584746 
6.697246e+2, 2.1854788e+2, -801378.1, -900331.4, -14762.789, -0.000503621, -0.0045080124, -799222.6, -994.8786, 0.0, 5.0216975, 4.9581614 
6.696215e+2, 2.235052e+2, -761032.44, -858171.06, -14818.007, -0.0009979004, -0.0014829888, -758822.3, -9176.247, 0.0, 5.019175, 4.956883 
6.695184e+2, 2.2846155e+2, -719376.6, -813191.0, -14935.479, -0.0015255865, -0.004090652, -717056.25, -15982.116, 0.0, 5.016652, 4.9565616 
6.6941565e+2, 2.3341729e+2, -679008.4, -770972.1, -14699.672, -0.0017744396, -0.0009363417, -676715.94, -24207.723, 0.0, 5.0141087, 4.95527 
6.693131e+2, 2.3837204e+2, -637271.56, -725799.94, -14828.79, -0.0019136196, -0.0038483336, -634853.75, -30901.879, 0.0, 5.011562, 4.954988 
6.6921085e+2, 2.4332617e+2, -596905.56, -683630.0, -14295.51, -0.0020236394, -0.00041520986, -594609.94, -39208.4, 0.0, 5.009009, 4.953635 
6.691091e+2, 2.482793e+2, -554991.5, -638188.7, -14417.53, -0.0020142116, -0.0039256113, -552563.9, -45702.883, 0.0, 5.0064664, 4.9534073 
6.6900796e+2, 2.532318e+2, -514767.63, -596383.94, -13590.263, -0.0020696765, -0.00017659242, -512564.13, -54237.293, 0.0, 5.003903, 4.9518876 
6.6890734e+2, 2.5818336e+2, -472524.4, -550237.7, -13668.503, -0.0023762858, -0.003094011, -470190.44, -60388.75, 0.0, 5.0013466, 4.9518743 
6.6880757e+2, 2.6313415e+2, -432571.72, -509022.1, -12559.845, -0.0025355741, 0.00040040855, -430561.2, -69277.04, 0.0, 4.998758, 4.9501104 
6.687086e+2, 2.680841e+2, -389962.4, -461999.63, -12600.392, -0.0025102762, -0.002881816, -387822.0, -75047.16, 0.0, 4.9961724, 4.950381 
6.686106e+2, 2.730332e+2, -350322.8, -421522.4, -11250.495, -0.0017952478, 0.0006433388, -348587.4, -84313.75, 0.0, 4.9935665, 4.9483123 
6.685137e+2, 2.7798158e+2, -307262.22, -373514.13, -11204.415, -0.0014392142, -0.0029104366, -305418.63, -89639.1, 0.0, 4.990971, 4.948896 
6.6841775e+2, 2.82929e+2, -267968.4, -333728.06, -9577.47, -0.0020010707, 0.00088244013, -266601.9, -99307.42, 0.0, 4.9883213, 4.946554 
6.6832316e+2, 2.878758e+2, -224659.9, -284968.28, -9438.576, -0.00272956, -0.0036901017, -223217.23, -104400.945, 0.0, 4.9856725, 4.9473915 
6.682299e+2, 2.9282174e+2, -185308.23, -245456.69, -7373.738, -0.0021084035, 0.0012357531, -184417.45, -114071.54, 0.0, 4.983077, 4.944876 
6.6813844e+2, 2.977672e+2, -141338.88, -196026.17, -7095.0337, -0.00068301184, -0.0013176325, -140433.38, -118552.71, 0.0, 4.9805784, 4.945851 
6.6804737e+2, 3.0271962e+2, -106132.125, -133791.17, -6353.418, -0.0019934806, -0.00019834438, -104742.53, -104742.53, 0.0, 4.978019, 4.9604015 
6.679579e+2, 3.076805e+2, -112515.06, -134822.48, -6061.65, -0.0055692256, -0.0053021456, -110974.33, -110974.33, 0.0, 4.975381, 4.961163 
6.678743e+2, 3.126516e+2, -95387.93, -81555.34, -2364.705, 0.0026041185, 0.002306044, -81162.26, -81162.26, 0.0, 4.972769, 4.981719 
6.67797e+2, 3.1765118e+2, -88023.83, -51072.195, -3328.0813, 0.011457033, 0.16854277, -50774.84, -50774.84, 0.0, 4.970173, 4.9939833 
6.7664754e+2, 1.2431692e+2, -1566740.6, -1722839.4, 2083.5837, 0.0016987415, -0.0006310148, -1566712.8, 154980.02, 0.0, 5.072739, 4.9699016 
6.7655855e+2, 1.2928557e+2, -1527657.3, -1680886.8, 1415.6959, 0.0005780367, -0.004315375, -1527644.3, 145355.56, 0.0, 5.0698977, 4.969079 
6.7646724e+2, 1.3425425e+2, -1487404.3, -1636965.6, -1307.9441, 0.0015635089, 0.0018913497, -1487392.9, 136913.75, 0.0, 5.0671177, 4.968794 
6.7637444e+2, 1.3922192e+2, -1447720.3, -1593957.6, -1768.1428, 0.0019057303, -0.0038508289, -1447698.9, 127924.23, 0.0, 5.064302, 4.9682713 
6.762797e+2, 1.4418945e+2, -1407646.0, -1550681.1, -3931.7944, 0.0013607824, -0.0022139016, -1407538.0, 119403.12, 0.0, 5.061569, 4.9677625 
6.7618376e+2, 1.4915663e+2, -1367555.4, -1507222.1, -4335.5884, 0.00037153403, -0.0033437614, -1367421.0, 110841.6, 0.0, 5.058819, 4.967329 
6.760863e+2, 1.5412323e+2, -1327493.3, -1464212.6, -6143.37, 0.00083897373, -0.0013427043, -1327217.8, 102371.875, 0.0, 5.0561213, 4.9667068 
6.759879e+2, 1.5908921e+2, -1287175.9, -1420563.0, -6474.5664, 0.001310993, -0.0042397403, -1286862.4, 94060.69, 0.0, 5.053414, 4.966282 
6.758881e+2, 1.6405474e+2, -1247084.6, -1377736.1, -7972.8115, 0.0008755662, -0.0018227797, -1246599.9, 85660.805, 0.0, 5.05075, 4.9655466 
6.7578745e+2, 1.690196e+2, -1206536.9, -1333851.3, -8257.544, 0.00008067276, -0.0043028365, -1206003.5, 77601.45, 0.0, 5.0480766, 4.965147 
6.7568576e+2, 1.7398392e+2, -1166392.0, -1291229.1, -9510.379, 0.00034676946, -0.0021064903, -1165671.6, 69282.79, 0.0, 5.0454626, 4.964279 
6.755834e+2, 1.7894752e+2, -1125581.6, -1247124.6, -9747.25, 0.00058717676, -0.0045473613, -1124804.9, 61506.332, 0.0, 5.042842, 4.9638925 
6.754802e+2, 1.839106e+2, -1085431.9, -1204641.8, -10716.63, 0.00051504147, -0.002003733, -1084476.3, 53196.945, 0.0, 5.0402417, 4.9629326 
6.753765e+2, 1.8887286e+2, -1044471.75, -1160367.6, -10914.577, 0.00032814415, -0.004369249, -1043452.9, 45590.08, 0.0, 5.037634, 4.96256 
6.752721e+2, 1.9383454e+2, -1004282.6, -1117999.8, -11682.566, 0.00023283114, -0.0018358628, -1003094.8, 37323.438, 0.0, 5.035056, 4.9615073 
6.751674e+2, 1.9879538e+2, -963100.94, -1073517.8, -11799.991, 0.00037463746, -0.0045920974, -961854.0, 29948.205, 0.0, 5.032485, 4.96115 
6.750621e+2, 2.0375563e+2, -922920.75, -1031290.06, -12330.027, -0.00006214151, -0.0020067273, -921535.56, 21656.096, 0.0, 5.029912, 4.9600105 
6.7495674e+2, 2.0871496e+2, -881610.0, -986596.4, -12402.8955, -0.000120202494, -0.0046059554, -880164.6, 14425.616, 0.0, 5.0273356, 4.9596906 
6.748512e+2, 2.1367376e+2, -841446.25, -944471.8, -12715.136, -0.00040251057, -0.0017211068, -839900.2, 6093.9277, 0.0, 5.0247593, 4.95847 
6.747455e+2, 2.186316e+2, -800021.9, -899636.2, -12784.792, -0.00048867974, -0.004454, -798407.2, -999.7735, 0.0, 5.0221844, 4.9581604 
6.746398e+2, 2.2358884e+2, -759792.56, -857499.5, -12799.257, -0.0009598316, -0.0014588061, -758143.75, -9317.229, 0.0, 5.019615, 4.956897 
6.7453426e+2, 2.2854508e+2, -718268.8, -812577.25, -12885.81, -0.0015012197, -0.0042266008, -716539.9, -16284.4, 0.0, 5.0170455, 4.956578 
6.744289e+2, 2.3350075e+2, -678038.1, -770422.94, -12630.513, -0.0016993431, -0.0011028508, -676342.44, -24652.24, 0.0, 5.0144544, 4.9552865 
6.7432374e+2, 2.3845543e+2, -636446.2, -725324.8, -12725.965, -0.0017708298, -0.003958297, -634659.94, -31525.396, 0.0, 5.011858, 4.955003 
6.7421895e+2, 2.4340951e+2, -596226.1, -683221.7, -12174.305, -0.0020030818, -0.00034386493, -594554.56, -39969.688, 0.0, 5.009254, 4.95365 
6.7411464e+2, 2.4836259e+2, -554463.8, -637853.75, -12283.432, -0.0021651941, -0.003649361, -552692.06, -46646.977, 0.0, 5.006659, 4.953421 
6.740109e+2, 2.5331503e+2, -514371.5, -596066.4, -11442.554, -0.0021575587, 0.0002838438, -512799.06, -55287.65, 0.0, 5.0040407, 4.9519205 
6.739077e+2, 2.5826654e+2, -472295.78, -550003.1, -11509.229, -0.002373552, -0.0024567258, -470627.0, -61640.254, 0.0, 5.0014267, 4.9519043 
6.738053e+2, 2.632172e+2, -432491.72, -508795.1, -10403.315, -0.002656463, 0.00043497354, -431098.72, -70628.59, 0.0, 4.998774, 4.950166 
6.7370373e+2, 2.6816702e+2, -390090.47, -461888.88, -10431.308, -0.0027903777, -0.0038212247, -388605.63, -76643.49, 0.0, 4.9961185, 4.950427 
6.736032e+2, 2.7311623e+2, -350608.97, -421462.78, -9071.231, -0.0019542235, 0.0012572288, -349466.03, -86006.24, 0.0, 4.9934535, 4.948366 
6.7350364e+2, 2.7806485e+2, -307713.6, -373538.88, -9057.436, -0.0014760641, 0.00052788935, -306490.06, -91526.63, 0.0, 4.990801, 4.9489455 
6.73405e+2, 2.8301188e+2, -268503.25, -333695.03, -7464.4365, -0.002649712, 0.00005635957, -267659.5, -101176.836, 0.0, 4.988104, 4.9466443 
6.733076e+2, 2.8795782e+2, -225318.45, -285004.53, -7355.1094, -0.004399672, -0.012589357, -224425.44, -106413.1, 0.0, 4.9854136, 4.9474745 
6.732118e+2, 2.9290494e+2, -186633.66, -245699.44, -5438.786, -0.0021820336, 0.003679046, -186137.03, -116606.29, 0.0, 4.982564, 4.944995 
6.73118e+2, 2.9785267e+2, -143805.61, -196725.64, -5307.528, 0.0024521628, 0.02387089, -143278.55, -122235.6, 0.0, 4.9796453, 4.9459877 
6.7302424e+2, 3.0280226e+2, -106611.414, -132817.64, -3567.0544, -0.0033945804, -0.005943794, -106134.56, -106134.56, 0.0, 4.97765, 4.960892 
6.7293185e+2, 3.0775702e+2, -109653.49, -133367.95, -2525.0542, -0.016812796, -0.07568137, -109387.61, -109387.61, 0.0, 4.976409, 4.9612217 
6.7284733e+2, 3.1274104e+2, -101405.31, -93401.18, 1309.583, 0.01471709, 0.08335783, -93192.36, -93192.36, 0.0, 4.972403, 4.9775476 
6.727605e+2, 3.1769744e+2, -51475.676, 54802.44, -1449.6942, -0.030536965, -0.15060909, 54822.215, 54822.215, 0.0, 4.966004, 5.035066 
6.817195e+2, 1.2440473e+2, -1566492.3, -1723184.0, 1275.1028, 0.0019257305, -0.00045673462, -1566481.9, 154350.36, 0.0, 5.072906, 4.9697165 
6.816277e+2, 1.2937312e+2, -1527506.9, -1681232.3, 593.9515, 0.001014347, -0.0045089955, -1527504.6, 144637.03, 0.0, 5.0700207, 4.968916 
6.815335e+2, 1.3434163e+2, -1487239.1, -1637262.1, -2100.7427, 0.0017478578, 0.0017912788, -1487209.6, 136240.53, 0.0, 5.067237, 4.968649 
6.8143785e+2, 1.3930915e+2, -1447513.1, -1594188.5, -2569.5737, 0.0014265726, -0.0037061772, -1447468.1, 127300.14, 0.0, 5.064425, 4.968146 
6.8134034e+2, 1.4427656e+2, -1407486.9, -1550881.6, -4728.4736, 0.0009636921, -0.0019331222, -1407331.0, 118756.34, 0.0, 5.061664, 4.9676614 
6.8124163e+2, 1.4924362e+2, -1367478.1, -1507444.3, -5174.552, 0.00041681208, -0.0029935327, -1367287.1, 110122.91, 0.0, 5.0588813, 4.9672365 
6.8114144e+2, 1.5421012e+2, -1327391.8, -1464413.8, -6959.9707, 0.00063963933, -0.0010424821, -1327039.1, 101699.234, 0.0, 5.05619, 4.9666176 
6.810403e+2, 1.5917596e+2, -1287008.9, -1420701.1, -7320.324, 0.0005508564, -0.004024135, -1286609.3, 93463.79, 0.0, 5.0534973, 4.966207 
6.809378e+2, 1.641414e+2, -1246926.4, -1377850.3, -8834.425, 0.00036295413, -0.0015810543, -1246333.0, 85078.48, 0.0, 5.050824, 4.9654846 
6.8083453e+2, 1.6910619e+2, -1206404.8, -1333956.9, -9157.888, 0.00004731241, -0.0039843596, -1205750.5, 77005.914, 0.0, 5.048137, 4.9650946 
6.8073016e+2, 1.7407043e+2, -1166238.3, -1291322.5, -10410.872, 0.00015469907, -0.0019379422, -1165377.6, 68729.1, 0.0, 5.0455303, 4.964228 
6.806252e+2, 1.7903395e+2, -1125388.8, -1247189.0, -10696.238, 0.00001631503, -0.004568402, -1124456.5, 61007.813, 0.0, 5.04292, 4.9638467 
6.805193e+2, 1.8399695e+2, -1085244.9, -1204724.3, -11691.904, 0.000050210303, -0.0019783932, -1084111.5, 52715.453, 0.0, 5.040321, 4.962881 
6.8041295e+2, 1.8895915e+2, -1044278.44, -1160427.8, -11934.155, 0.00006749615, -0.004271585, -1043064.94, 45132.45, 0.0, 5.03771, 4.962518 
6.80306e+2, 1.9392079e+2, -1004088.1, -1118044.4, -12716.363, 0.00009343381, -0.0017702506, -1002686.3, 36886.855, 0.0, 5.0351295, 4.961472 
6.801987e+2, 1.9888155e+2, -962907.75, -1073552.3, -12896.518, 0.00034765902, -0.0046324707, -961424.44, 29533.166, 0.0, 5.0325546, 4.961121 
6.8009096e+2, 2.0384175e+2, -922735.94, -1031372.4, -13451.356, -0.000104262486, -0.0021119434, -921095.1, 21252.502, 0.0, 5.029988, 4.959963 
6.7998296e+2, 2.0880102e+2, -881398.06, -986666.0, -13572.354, -0.00023081328, -0.0047426964, -879676.3, 14070.549, 0.0, 5.0274205, 4.9596434 
6.7987484e+2, 2.1375977e+2, -841242.3, -944552.06, -13920.968, -0.0005009117, -0.0017237372, -839399.3, 5751.928, 0.0, 5.024842, 4.9584208 
6.797666e+2, 2.1871753e+2, -799831.9, -899714.56, -14031.028, -0.00051266677, -0.0042831246, -797898.3, -1333.1129, 0.0, 5.0222597, 4.958116 
6.796584e+2, 2.2367473e+2, -759623.1, -857577.1, -14071.6, -0.0008991682, -0.0013301062, -757641.75, -9656.918, 0.0, 5.019681, 4.956857 
6.795502e+2, 2.2863092e+2, -718116.0, -812644.44, -14206.835, -0.0013866009, -0.0042665964, -716027.0, -16612.613, 0.0, 5.0171013, 4.956547 
6.794422e+2, 2.3358653e+2, -677879.44, -770497.7, -14013.149, -0.0015775514, -0.0011867845, -675805.7, -24956.148, 0.0, 5.014513, 4.9552517 
6.7933446e+2, 2.3854117e+2, -636269.06, -725399.0, -14151.706, -0.0016630768, -0.0039959755, -634076.06, -31781.717, 0.0, 5.0119247, 4.954965 
6.792271e+2, 2.4349523e+2, -596066.94, -683322.9, -13639.483, -0.0020611733, -0.00014858217, -593984.56, -40239.53, 0.0, 5.0093174, 4.953605 
6.791201e+2, 2.4844824e+2, -554323.56, -637962.0, -13786.871, -0.0024432982, -0.0032041841, -552109.56, -46903.773, 0.0, 5.006715, 4.9533777 
6.790138e+2, 2.5340065e+2, -514221.22, -596129.3, -12999.207, -0.002317579, 0.0008813651, -512207.7, -55535.316, 0.0, 5.0040917, 4.951895 
6.789081e+2, 2.5835216e+2, -472162.75, -550084.6, -13109.818, -0.0023031414, -0.0017031702, -470016.25, -61868.332, 0.0, 5.001473, 4.951875 
6.78803e+2, 2.6330277e+2, -432328.88, -508810.0, -12071.751, -0.0027131815, 0.00044218986, -430468.72, -70836.57, 0.0, 4.99882, 4.950161 
6.786988e+2, 2.6825243e+2, -389939.5, -461935.06, -12148.809, -0.003121886, -0.0050227675, -387944.72, -76819.33, 0.0, 4.996165, 4.950411 
6.785956e+2, 2.7320185e+2, -350480.63, -421532.56, -10819.094, -0.0022469705, 0.0022528116, -348869.72, -86248.555, 0.0, 4.993494, 4.948344 
6.7849344e+2, 2.7815083e+2, -307614.8, -373635.1, -10854.425, -0.0016719637, 0.0054377723, -305876.03, -91754.58, 0.0, 4.990833, 4.948919 
6.7839205e+2, 2.8309718e+2, -268367.97, -333689.7, -9320.1, -0.0036098217, -0.0013878776, -267064.2, -101417.3, 0.0, 4.9881315, 4.946655 
6.7829186e+2, 2.8804192e+2, -225212.53, -285053.72, -9273.235, -0.0065688295, -0.025934748, -223808.47, -106620.46, 0.0, 4.9854383, 4.9474673 
6.781935e+2, 2.929908e+2, -186538.6, -245844.52, -7560.6187, -0.0019154814, 0.008314315, -185589.9, -116900.77, 0.0, 4.9826016, 4.9449477 
6.7809725e+2, 2.9794204e+2, -143586.42, -196676.17, -7375.5723, 0.0073183635, 0.063998334, -142580.81, -122413.516, 0.0, 4.9797006, 4.946002 
6.780008e+2, 3.028869e+2, -105588.06, -130486.09, -4508.235, -0.0060890387, -0.018195804, -104796.91, -104796.91, 0.0, 4.9776225, 4.9617643 
6.7790556e+2, 3.0783176e+2, -109753.42, -132893.72, -3875.2622, -0.035298128, -0.19545978, -109121.68, -109121.68, 0.0, 4.9762373, 4.961487 
6.778211e+2, 3.1284258e+2, -104364.61, -99811.445, -3419.9465, 0.035946134, 0.24017888, -97979.64, -97979.64, 0.0, 4.972283, 4.9752917 
6.777307e+2, 3.1777656e+2, -90261.36, -35193.46, -2779.6187, 0.018261595, -0.18395875, -35053.51, -35053.51, 0.0, 4.9660797, 5.001597 
6.867924e+2, 1.24496415e+2, -1561834.9, -1721071.0, 2349.5093, 0.0011469239, -0.00015412856, -1561800.3, 158133.45, 0.0, 5.074563, 4.969599 
6.8669784e+2, 1.2946455e+2, -1523120.3, -1679189.5, 1719.3654, 0.0028783553, -0.0049465843, -1523101.4, 148144.33, 0.0, 5.0715723, 4.968829 
6.866006e+2, 1.3443291e+2, -1483052.1, -1635271.8, -879.9149, 0.0024460715, 0.0013797868, -1483047.0, 139508.48, 0.0, 5.06871, 4.9685855 
6.865019e+2, 1.3940033e+2, -1443556.8, -1592294.9, -1315.7897, -0.00009719948, -0.0038643314, -1443545.1, 130329.51, 0.0, 5.065817, 4.968093 
6.864016e+2, 1.443676e+2, -1403781.1, -1549122.8, -3409.536, 0.00010497009, -0.0021293405, -1403701.1, 121493.98, 0.0, 5.062972, 4.967606 
6.863002e+2, 1.4933452e+2, -1363994.0, -1505751.3, -3804.9683, 0.0010604481, -0.0033070277, -1363892.0, 112627.26, 0.0, 5.060105, 4.967202 
6.861972e+2, 1.543009e+2, -1324069.9, -1462758.5, -5468.957, 0.00091686554, -0.0013464465, -1323854.6, 103993.88, 0.0, 5.0573497, 4.966603 
6.860933e+2, 1.5926667e+2, -1283859.1, -1419120.9, -5797.7793, -0.00013012667, -0.0042726235, -1283611.0, 95572.97, 0.0, 5.0545974, 4.9661984 
6.85988e+2, 1.6423203e+2, -1243985.5, -1376400.6, -7255.252, -0.00015182467, -0.0017811648, -1243589.1, 86934.21, 0.0, 5.051859, 4.9654646 
6.858821e+2, 1.691967e+2, -1203642.4, -1332563.8, -7521.961, -0.000005293395, -0.0040938705, -1203204.9, 78664.44, 0.0, 5.049105, 4.96509 
6.8577504e+2, 1.7416088e+2, -1163621.0, -1289992.5, -8670.721, 0.000022455066, -0.0018644326, -1163028.9, 70191.43, 0.0, 5.046447, 4.9642277 
6.8566734e+2, 1.7912433e+2, -1122900.3, -1245907.8, -8925.254, -0.0003420347, -0.0042849123, -1122256.0, 62322.5, 0.0, 5.0437903, 4.963854 
6.855589e+2, 1.8408725e+2, -1082906.9, -1203531.8, -9867.876, -0.00021432384, -0.0018072759, -1082105.0, 53837.11, 0.0, 5.0411434, 4.9628825 
6.8544996e+2, 1.8904933e+2, -1042071.0, -1159282.1, -10073.4795, -0.00007885422, -0.0043502846, -1041211.56, 46102.066, 0.0, 5.038485, 4.9625278 
6.8534034e+2, 1.9401091e+2, -1002026.75, -1116988.1, -10785.135, 0.000021456603, -0.0017735414, -1001023.7, 37666.523, 0.0, 5.0358586, 4.961474 
6.852305e+2, 1.9897158e+2, -960964.44, -1072526.0, -10942.227, 0.0003598562, -0.0044585215, -959901.3, 30173.988, 0.0, 5.033238, 4.961136 
6.851201e+2, 2.039317e+2, -920913.56, -1030425.6, -11429.084, -0.00009802547, -0.0019452291, -919733.5, 21732.643, 0.0, 5.0306344, 4.959968 
6.8500954e+2, 2.0889089e+2, -879651.6, -985752.75, -11527.447, -0.00029631428, -0.0046841525, -878413.7, 14452.538, 0.0, 5.0280404, 4.959651 
6.8489873e+2, 2.1384953e+2, -839613.25, -943696.75, -11841.54, -0.00055446493, -0.0018070363, -838283.06, 5988.505, 0.0, 5.025422, 4.958428 
6.84788e+2, 2.1880719e+2, -798339.8, -898920.44, -11916.703, -0.00048716852, -0.004492436, -796947.2, -1260.6174, 0.0, 5.0227923, 4.9581256 
6.846771e+2, 2.2376432e+2, -758278.5, -856848.0, -11920.424, -0.0007181842, -0.0014976802, -756857.4, -9750.469, 0.0, 5.0201616, 4.9568696 
6.845663e+2, 2.2872043e+2, -716911.94, -811968.94, -12022.84, -0.001085043, -0.004326587, -715414.8, -16877.691, 0.0, 5.0175304, 4.9565654 
6.844558e+2, 2.3367597e+2, -676786.2, -769901.7, -11795.912, -0.0014642796, -0.0011122855, -675315.06, -25342.03, 0.0, 5.01491, 4.9552584 
6.843454e+2, 2.3863052e+2, -635253.06, -724833.1, -11914.031, -0.0018527067, -0.0038205222, -633695.56, -32276.795, 0.0, 5.012294, 4.9549747 
6.842354e+2, 2.4358448e+2, -595184.7, -682805.75, -11391.151, -0.0022192358, -0.000033315988, -593728.0, -40857.652, 0.0, 5.009638, 4.953621 
6.8412584e+2, 2.4853742e+2, -553605.4, -637518.3, -11504.03, -0.0024428188, -0.0031972444, -552056.8, -47724.758, 0.0, 5.0069766, 4.953395 
6.840168e+2, 2.5348973e+2, -513643.16, -595729.56, -10694.028, -0.0023544198, 0.0007813442, -512272.84, -56473.35, 0.0, 5.0043006, 4.951922 
6.8390846e+2, 2.5844115e+2, -471753.16, -549770.5, -10784.938, -0.0024788897, -0.0018940271, -470289.72, -63013.813, 0.0, 5.001624, 4.951898 
6.8380076e+2, 2.633917e+2, -432062.75, -508566.0, -9746.803, -0.0028243582, 0.0005624205, -430840.5, -72079.87, 0.0, 4.998922, 4.9501815 
6.836939e+2, 2.6834133e+2, -389790.2, -461748.34, -9830.429, -0.0030886205, -0.0043734224, -388471.4, -78217.14, 0.0, 4.996226, 4.95043 
6.8358797e+2, 2.7329057e+2, -350479.9, -421372.94, -8493.882, -0.0025712668, 0.0021058402, -349476.44, -87724.93, 0.0, 4.993495, 4.9483805 
6.8348306e+2, 2.782393e+2, -307840.13, -373592.38, -8522.694, -0.0026182246, 0.0037065598, -306753.4, -93499.41, 0.0, 4.9907556, 4.9489484 
6.8337905e+2, 2.831858e+2, -268745.2, -333697.78, -6984.11, -0.003951656, -0.0011750374, -268002.72, -103224.48, 0.0, 4.987998, 4.9466906 
6.8327624e+2, 2.8813094e+2, -225736.7, -285188.0, -6972.2905, -0.0056355596, -0.021474127, -224929.95, -108614.04, 0.0, 4.9852633, 4.9474764 
6.8317497e+2, 2.930792e+2, -186919.86, -246167.81, -5379.5063, -0.0023532573, 0.00813645, -186435.38, -118612.336, 0.0, 4.982529, 4.944843 
6.8307567e+2, 2.9802912e+2, -143404.28, -196728.89, -5301.862, 0.0039081024, 0.05273169, -142882.25, -123568.34, 0.0, 4.9798265, 4.9459066 
6.8297714e+2, 3.0297482e+2, -107942.04, -131731.4, -2989.255, -0.0060850387, -0.018923054, -107572.17, -107572.17, 0.0, 4.9768496, 4.9616284 
6.828803e+2, 3.079224e+2, -116831.6, -136036.48, -3880.3008, -0.027468579, -0.16687655, -116077.23, -116077.23, 0.0, 4.9737267, 4.961421 
6.8279076e+2, 3.1292975e+2, -106277.82, -94822.23, -2067.4316, 0.029007375, 0.22204177, -94460.53, -94460.53, 0.0, 4.970502, 4.977855 
6.826897e+2, 3.1789604e+2, -47635.203, 60734.457, 6971.714, -0.050836, 0.08002947, 61181.125, 61181.125, 0.0, 4.966587, 5.0370393 
6.9186604e+2, 1.2459006e+2, -1561552.4, -1721318.3, 1542.3234, 0.0011009723, -0.00036367477, -1561537.5, 157478.31, 0.0, 5.0747232, 4.969451 
6.917686e+2, 1.2955803e+2, -1523018.3, -1679479.0, 940.0067, 0.0039980668, -0.0050881207, -1523012.6, 147316.78, 0.0, 5.0716596, 4.968702 
6.9166845e+2, 1.3452624e+2, -1482906.8, -1635513.6, -1630.1599, 0.0028440177, 0.0012425486, -1482889.4, 138751.33, 0.0, 5.0688066, 4.96847 
6.9156665e+2, 1.3949351e+2, -1443328.3, -1592458.1, -2136.6335, -0.0010271239, -0.0039899824, -1443297.8, 129663.64, 0.0, 5.065933, 4.967994 
6.9146353e+2, 1.4446066e+2, -1403590.1, -1549284.4, -4243.844, -0.00044463435, -0.002237377, -1403466.6, 120816.44, 0.0, 5.0630713, 4.967516 
6.913594e+2, 1.4942746e+2, -1363836.1, -1505886.3, -4651.277, 0.0014490623, -0.003431185, -1363683.9, 111924.35, 0.0, 5.060183, 4.9671316 
6.9125354e+2, 1.5439376e+2, -1323922.5, -1462865.3, -6283.961, 0.0011051366, -0.0014482694, -1323638.9, 103299.484, 0.0, 5.0574174, 4.966547 
6.9114673e+2, 1.5935944e+2, -1283719.3, -1419215.0, -6673.77, -0.0005578177, -0.004327575, -1283391.4, 94883.266, 0.0, 5.054658, 4.96615 
6.9103867e+2, 1.6432472e+2, -1243821.8, -1376501.5, -8151.234, -0.00054145884, -0.0018141262, -1243322.9, 86291.92, 0.0, 5.051932, 4.9654083 
6.9093007e+2, 1.6928934e+2, -1203413.4, -1332602.5, -8436.864, -0.00017678004, -0.0040652147, -1202864.6, 78096.88, 0.0, 5.049194, 4.9650474 
6.9082034e+2, 1.7425348e+2, -1163420.5, -1290045.9, -9573.914, -0.00019254132, -0.0016732707, -1162700.6, 69612.35, 0.0, 5.0465255, 4.964185 
6.9070995e+2, 1.7921688e+2, -1122731.1, -1245958.8, -9880.418, -0.0006489563, -0.0039071334, -1121944.0, 61727.773, 0.0, 5.043854, 4.96382 
6.9059885e+2, 1.8417972e+2, -1082725.0, -1203592.1, -10845.103, -0.00044114699, -0.0015221712, -1081759.6, 53276.273, 0.0, 5.0412145, 4.962843 
6.9048727e+2, 1.8914172e+2, -1041844.75, -1159310.0, -11089.1, -0.00025037368, -0.0042828918, -1040807.06, 45601.164, 0.0, 5.038568, 4.962494 
6.90375e+2, 1.9410324e+2, -1001794.75, -1117050.9, -11815.292, -0.00013104037, -0.0016385263, -1000596.0, 37189.344, 0.0, 5.0359507, 4.961425 
6.902625e+2, 1.9906387e+2, -960698.5, -1072550.0, -12028.41, 0.00025336473, -0.0041538244, -959419.56, 29751.504, 0.0, 5.0333366, 4.9610972 
6.901495e+2, 2.0402394e+2, -920685.3, -1030474.75, -12535.064, -0.00014389852, -0.0016114627, -919272.3, 21290.023, 0.0, 5.030721, 4.9599266 
6.900363e+2, 2.0898305e+2, -879465.4, -985818.25, -12693.491, -0.00035121702, -0.0044440064, -877971.4, 13991.695, 0.0, 5.028111, 4.9596124 
6.89923e+2, 2.1394162e+2, -839429.9, -943783.94, -13047.87, -0.00062331976, -0.0017470613, -837823.1, 5545.941, 0.0, 5.0254955, 4.9583817 
6.898095e+2, 2.188992e+2, -798131.06, -898992.8, -13164.781, -0.00051828317, -0.0045897057, -796441.06, -1656.1097, 0.0, 5.022873, 4.9580812 
6.896961e+2, 2.2385626e+2, -758062.56, -856919.0, -13223.44, -0.0005828714, -0.0015442917, -756324.3, -10118.586, 0.0, 5.0202446, 4.9568253 
6.895827e+2, 2.2881234e+2, -716696.4, -812037.0, -13373.011, -0.0008296137, -0.0042327535, -714856.1, -17219.691, 0.0, 5.0176125, 4.956523 
6.8946946e+2, 2.3376784e+2, -676610.75, -770017.44, -13175.321, -0.0014283385, -0.00084729097, -674787.9, -25715.076, 0.0, 5.014983, 4.955204 
6.8935645e+2, 2.3872232e+2, -635101.25, -724947.8, -13342.853, -0.0021625732, -0.0034559397, -633161.6, -32642.36, 0.0, 5.0123553, 4.9549265 
6.8924385e+2, 2.4367623e+2, -595040.8, -682919.94, -12893.776, -0.0024177432, 0.00015950453, -593188.06, -41216.6, 0.0, 5.009695, 4.953575 
6.891316e+2, 2.4862908e+2, -553462.3, -637626.06, -13044.529, -0.0023829583, -0.0032357685, -551486.9, -48053.03, 0.0, 5.007032, 4.9533525 
6.8902e+2, 2.5358132e+2, -513501.03, -595835.4, -12286.233, -0.0024032614, 0.00055504823, -511706.75, -56804.863, 0.0, 5.004354, 4.9518814 
6.889089e+2, 2.5853264e+2, -471621.44, -549893.25, -12425.695, -0.002798265, -0.002322025, -469696.2, -63317.2, 0.0, 5.0016756, 4.9518538 
6.8879855e+2, 2.6348323e+2, -431953.63, -508724.4, -11440.771, -0.0029872437, 0.0008169613, -430284.94, -72421.23, 0.0, 4.99897, 4.950126 
6.88689e+2, 2.6843292e+2, -389695.4, -461915.47, -11567.447, -0.0029656214, -0.0029352373, -387887.88, -78530.96, 0.0, 4.9962683, 4.950374 
6.885803e+2, 2.733819e+2, -350366.56, -421477.97, -10290.162, -0.0030098506, 0.0013445086, -348907.47, -88050.76, 0.0, 4.9935327, 4.948349 
6.8847257e+2, 2.783302e+2, -307753.25, -373733.94, -10365.911, -0.003991052, -0.0011670302, -306163.03, -93799.55, 0.0, 4.990788, 4.9489064 
6.883659e+2, 2.8327727e+2, -268707.6, -333888.1, -8858.351, -0.003930745, 0.00035051792, -267525.16, -103643.14, 0.0, 4.9880176, 4.9466367 
6.8826073e+2, 2.882236e+2, -225792.48, -285513.03, -8883.596, -0.003041832, -0.0072756517, -224499.05, -109090.945, 0.0, 4.985267, 4.9473815 
6.8815637e+2, 2.9316977e+2, -187146.1, -246939.2, -7266.352, -0.003621398, 0.0035118202, -186275.73, -119340.35, 0.0, 4.982542, 4.9445844 
6.880536e+2, 2.9811546e+2, -143708.14, -197719.92, -7206.302, -0.005104928, 0.008700226, -142763.2, -124296.08, 0.0, 4.9798465, 4.945566 
6.8795323e+2, 3.0306607e+2, -109130.59, -134484.11, -5180.717, -0.003400759, -0.00738002, -108112.83, -108112.83, 0.0, 4.9768143, 4.960673 
6.878558e+2, 3.0802503e+2, -117669.734, -137610.05, -6072.0244, -0.00032892657, -0.03193961, -115966.266, -115966.266, 0.0, 4.973621, 4.960922 
6.877566e+2, 3.1300437e+2, -98453.375, -77024.04, -4297.699, -0.0071119466, 0.041975077, -76194.26, -76194.26, 0.0, 4.970511, 4.984357 
6.876637e+2, 3.179771e+2, -90099.94, -37665.902, -2384.47, 0.03252325, -0.07715006, -37557.688, -37557.688, 0.0, 4.9666104, 5.0004706 
6.969407e+2, 1.2468768e+2, -1556912.3, -1719080.1, 2573.4495, 0.001944599, -0.0015102462, -1556871.5, 161187.38, 0.0, 5.0763497, 4.969388 
6.9684005e+2, 1.2965563e+2, -1518697.0, -1677394.1, 2080.2932, 0.0036207992, -0.0047919564, -1518669.8, 150702.75, 0.0, 5.0731773, 4.9686446 
6.9673693e+2, 1.3462368e+2, -1478832.9, -1633601.5, -343.6621, 0.0027649025, 0.0013536694, -1478832.1, 141853.52, 0.0, 5.070249, 4.968395 
6.966323e+2, 1.3959074e+2, -1439441.4, -1590567.4, -843.7455, -0.0006640791, -0.004298177, -1439436.6, 132571.77, 0.0, 5.0672975, 4.9679527 
6.965261e+2, 1.4455782e+2, -1399913.4, -1547451.1, -2892.9165, -0.00038707012, -0.0024430563, -1399856.6, 123474.37, 0.0, 5.064355, 4.9674964 
6.96419e+2, 1.4952452e+2, -1360372.5, -1504127.9, -3228.0452, 0.0012068875, -0.0034195473, -1360300.0, 114357.14, 0.0, 5.0613875, 4.9671273 
6.9631034e+2, 1.5449074e+2, -1320658.3, -1461211.9, -4731.7104, 0.0011817764, -0.0014103703, -1320499.1, 105488.945, 0.0, 5.0585556, 4.966541 
6.962008e+2, 1.5945631e+2, -1280629.4, -1417612.8, -5086.0693, -0.00017491874, -0.0042919945, -1280440.8, 96884.53, 0.0, 5.0557303, 4.966161 
6.9609e+2, 1.6442153e+2, -1240888.3, -1374972.8, -6477.333, -0.00047902923, -0.0018477641, -1240576.0, 88090.19, 0.0, 5.0529513, 4.9654207 
6.9597846e+2, 1.6938604e+2, -1200613.1, -1331116.1, -6705.098, -0.00057517807, -0.004161982, -1200269.5, 79744.414, 0.0, 5.0501633, 4.965071 
6.9586605e+2, 1.7435011e+2, -1160801.3, -1288671.9, -7754.5, -0.00046677058, -0.001806931, -1160332.8, 71033.4, 0.0, 5.047439, 4.9642 
6.9575304e+2, 1.7931344e+2, -1120255.1, -1244617.0, -8015.709, -0.0006114771, -0.0040776376, -1119740.6, 62985.008, 0.0, 5.044711, 4.963852 
6.956392e+2, 1.8427621e+2, -1080369.4, -1202308.5, -8894.324, -0.0004143666, -0.0017093965, -1079724.0, 54366.293, 0.0, 5.0420313, 4.9628754 
6.9552493e+2, 1.8923816e+2, -1039591.2, -1158075.6, -9092.978, -0.00038386683, -0.0044601844, -1038897.44, 46565.746, 0.0, 5.0393505, 4.9625278 
6.9541e+2, 1.9419959e+2, -999684.0, -1115959.1, -9742.504, -0.0004684234, -0.0017988412, -998873.3, 37967.85, 0.0, 5.0367, 4.9614267 
6.9529486e+2, 1.9916013e+2, -958659.94, -1071460.8, -9932.759, -0.00025474187, -0.0043155416, -957791.94, 30436.012, 0.0, 5.0340548, 4.961115 
6.951793e+2, 2.0412011e+2, -918780.7, -1029454.8, -10388.678, -0.00032474654, -0.0017053412, -917814.0, 21806.004, 0.0, 5.031395, 4.959942 
6.950635e+2, 2.0907913e+2, -877682.2, -984830.1, -10519.351, -0.00015134263, -0.0044884267, -876659.2, 14362.292, 0.0, 5.028738, 4.95964 
6.949474e+2, 2.1403763e+2, -837752.9, -942870.1, -10807.076, -0.00054255826, -0.0018502084, -836653.3, 5774.922, 0.0, 5.0260906, 4.9584 
6.948314e+2, 2.1899512e+2, -796524.4, -898104.4, -10885.323, -0.0007146996, -0.0047378982, -795371.0, -1526.028, 0.0, 5.0234427, 4.9581037 
6.9471526e+2, 2.2395208e+2, -756584.0, -856153.4, -10924.828, -0.0008215912, -0.0016128579, -755399.44, -10132.761, 0.0, 5.0207844, 4.9568205 
6.945993e+2, 2.2890805e+2, -715296.94, -811275.94, -11046.187, -0.0010411323, -0.004165173, -714042.0, -17343.57, 0.0, 5.018118, 4.9565334 
6.944834e+2, 2.3386346e+2, -675350.4, -769331.7, -10817.499, -0.0015641378, -0.00077865657, -674121.3, -25985.477, 0.0, 5.0154433, 4.9552097 
6.9436765e+2, 2.3881784e+2, -633981.75, -724306.8, -10955.803, -0.0022354121, -0.0034786884, -632671.9, -33088.582, 0.0, 5.012762, 4.954942 
6.9425243e+2, 2.4377164e+2, -594052.6, -682336.8, -10496.497, -0.00233838, 0.0001268714, -592821.8, -41785.41, 0.0, 5.010056, 4.953592 
6.941375e+2, 2.487244e+2, -552603.25, -637103.44, -10610.937, -0.0021795481, -0.0032005187, -551291.1, -48791.53, 0.0, 5.0073476, 4.953369 
6.940232e+2, 2.5367656e+2, -512774.13, -595378.5, -9840.075, -0.0023951351, 0.00049434806, -511618.13, -57649.457, 0.0, 5.0046253, 4.951896 
6.9390935e+2, 2.5862777e+2, -471033.16, -549504.3, -9964.705, -0.0031288718, -0.0025709383, -469787.56, -64340.58, 0.0, 5.0018983, 4.951867 
6.9379634e+2, 2.6357827e+2, -431515.84, -508405.75, -8965.246, -0.003226662, 0.0010766042, -430484.34, -73552.14, 0.0, 4.9991403, 4.950139 
6.936841e+2, 2.6852795e+2, -389405.75, -461652.5, -9071.293, -0.0029902975, -0.0018033246, -388284.16, -79858.53, 0.0, 4.9963837, 4.9503927 
6.9357264e+2, 2.7347672e+2, -350208.72, -421221.25, -7781.815, -0.0033250945, 0.0009938076, -349365.94, -89438.31, 0.0, 4.9935913, 4.9483905 
6.934621e+2, 2.7842465e+2, -307777.53, -373579.25, -7842.949, -0.004736027, -0.004192398, -306855.63, -95417.9, 0.0, 4.990785, 4.9489393 
6.933527e+2, 2.8337207e+2, -269016.0, -333902.03, -6322.6504, -0.0039164084, 0.0017467875, -268405.66, -105452.78, 0.0, 4.987922, 4.94665 
6.932449e+2, 2.8831908e+2, -226388.36, -285629.44, -6303.9565, -0.0018233985, 0.0023141212, -225724.98, -111252.92, 0.0, 4.985063, 4.947406 
6.931376e+2, 2.9326394e+2, -187460.92, -246615.63, -4263.609, -0.0051098657, -0.000089723886, -187155.2, -121142.68, 0.0, 4.982379, 4.944746 
6.9303167e+2, 2.9820707e+2, -143736.8, -197355.61, -3875.3418, -0.011318995, -0.020839667, -143458.16, -125888.58, 0.0, 4.9798017, 4.945691 
6.9292897e+2, 3.0316165e+2, -110767.89, -135186.98, -1780.0988, -0.0011455684, 0.0039790003, -110638.805, -110638.805, 0.0, 4.976255, 4.96064 
6.928295e+2, 3.0812877e+2, -121646.33, -139222.48, -1490.678, 0.018238887, 0.06328159, -121520.8, -121520.8, 0.0, 4.9721937, 4.9609385 
6.9272316e+2, 3.130869e+2, -96302.04, -71094.05, -1741.9498, -0.033855908, -0.088291675, -70974.24, -70974.24, 0.0, 4.9703736, 4.9865522 
6.9262695e+2, 3.180863e+2, -69816.87, -6879.7354, -6221.1987, -0.009179371, 0.032043695, -6270.6772, -6270.6772, 0.0, 4.969779, 5.01043 
7.020161e+2, 1.247874e+2, -1556845.0, -1719445.8, 1741.0723, 0.0025059786, -0.0022637371, -1556826.4, 160254.75, 0.0, 5.076436, 4.9692383 
7.019122e+2, 1.2975529e+2, -1518194.8, -1677456.4, 1194.4318, 0.0032531552, -0.0042380923, -1518185.8, 150210.0, 0.0, 5.073393, 4.968532 
7.018061e+2, 1.3472319e+2, -1478543.9, -1633707.1, -1164.1537, 0.0027694125, 0.0016268152, -1478535.3, 141175.13, 0.0, 5.0703793, 4.9683094 
7.0169854e+2, 1.396901e+2, -1439434.4, -1590768.1, -1653.8828, -0.00014871861, -0.004495401, -1439416.3, 131618.3, 0.0, 5.0673213, 4.9678864 
7.0158935e+2, 1.4465708e+2, -1399776.1, -1547579.1, -3685.6895, -0.00020011837, -0.002567519, -1399684.3, 122673.89, 0.0, 5.064421, 4.967434 
7.0147926e+2, 1.496237e+2, -1360027.3, -1504115.3, -4048.9124, 0.0010359993, -0.003353725, -1359913.5, 113771.55, 0.0, 5.061517, 4.967082 
7.0136774e+2, 1.5458986e+2, -1320393.4, -1461239.9, -5532.1465, 0.0012239871, -0.0012772756, -1320176.4, 104840.29, 0.0, 5.0586576, 4.9664955 
7.012554e+2, 1.5955538e+2, -1280457.5, -1417650.4, -5926.8535, 0.000086758155, -0.004109956, -1280202.0, 96152.7, 0.0, 5.055792, 4.9661317 
7.011417e+2, 1.6452052e+2, -1240699.0, -1374999.9, -7315.8857, -0.00039239717, -0.0017063044, -1240301.6, 87394.53, 0.0, 5.0530186, 4.9653926 
7.010274e+2, 1.6948499e+2, -1200368.4, -1331095.8, -7583.0015, -0.0007837662, -0.004076969, -1199930.0, 79114.375, 0.0, 5.0502453, 4.9650526 
7.0091224e+2, 1.74449e+2, -1160578.1, -1288690.6, -8641.118, -0.000689268, -0.0017615197, -1159997.9, 70399.3, 0.0, 5.047519, 4.9641695 
7.007964e+2, 1.7941225e+2, -1120021.9, -1244596.6, -8944.338, -0.0006985451, -0.004083477, -1119383.0, 62374.395, 0.0, 5.044787, 4.9638376 
7.0067996e+2, 1.8437499e+2, -1080132.8, -1202306.0, -9843.485, -0.0005175034, -0.001682213, -1079344.8, 53777.57, 0.0, 5.042112, 4.9628534 
7.0056295e+2, 1.893369e+2, -1039333.44, -1158057.6, -10103.37, -0.0006024859, -0.0043511842, -1038479.8, 46015.723, 0.0, 5.039437, 4.962509 
7.0044535e+2, 1.9429827e+2, -999462.5, -1116026.9, -10763.188, -0.0008754441, -0.0016975094, -998477.0, 37397.156, 0.0, 5.0367875, 4.9613786 
7.003275e+2, 1.9925873e+2, -958421.4, -1071493.4, -11008.767, -0.00084212347, -0.004283027, -957359.56, 29902.207, 0.0, 5.0341415, 4.96108 
7.0020926e+2, 2.0421866e+2, -918566.5, -1029523.56, -11504.118, -0.00060156273, -0.0016300984, -917386.25, 21268.023, 0.0, 5.031478, 4.9598966 
7.000909e+2, 2.0917763e+2, -877461.06, -984869.25, -11692.651, -0.000064849984, -0.004364491, -876202.94, 13853.427, 0.0, 5.0288167, 4.959607 
6.9997215e+2, 2.1413606e+2, -837542.5, -942940.7, -12009.803, -0.00055792887, -0.0017452603, -836191.4, 5272.2227, 0.0, 5.026171, 4.958356 
6.998534e+2, 2.1909349e+2, -796304.75, -898168.5, -12152.6875, -0.0010068642, -0.004643056, -794874.94, -1994.1008, 0.0, 5.023525, 4.958062 
6.997347e+2, 2.240504e+2, -756404.1, -856304.8, -12248.437, -0.0011883744, -0.0014734211, -754924.3, -10621.011, 0.0, 5.020866, 4.95675 
6.9961596e+2, 2.2900629e+2, -715120.4, -811423.25, -12407.157, -0.0013883678, -0.003934566, -713547.56, -17811.63, 0.0, 5.018197, 4.9564657 
6.9949746e+2, 2.3396161e+2, -675175.9, -769444.06, -12233.272, -0.0017579016, -0.00060656527, -673614.2, -26440.166, 0.0, 5.0155134, 4.9551587 
6.993791e+2, 2.389159e+2, -633839.44, -724445.1, -12420.91, -0.002282526, -0.0034813029, -632167.56, -33545.2, 0.0, 5.012822, 4.9548874 
6.992612e+2, 2.4386965e+2, -593901.3, -682468.5, -12019.741, -0.0022482858, 0.0001505952, -592299.06, -42223.09, 0.0, 5.0101185, 4.9535384 
6.991435e+2, 2.4882235e+2, -552439.75, -637234.06, -12180.851, -0.0020219693, -0.0030137738, -550724.7, -49184.965, 0.0, 5.007415, 4.953315 
6.9902647e+2, 2.5377443e+2, -512635.3, -595548.6, -11475.321, -0.0024420265, 0.000610498, -511076.4, -58066.934, 0.0, 5.0046883, 4.9518304 
6.9890994e+2, 2.5872555e+2, -470907.66, -549670.2, -11648.984, -0.0035045603, -0.002659536, -469220.9, -64732.145, 0.0, 5.0019536, 4.9518065 
6.987941e+2, 2.6367602e+2, -431408.0, -508587.5, -10705.523, -0.0035394654, 0.0013883287, -429950.56, -73976.31, 0.0, 4.99919, 4.950076 
6.9867915e+2, 2.686257e+2, -389307.28, -461825.66, -10855.161, -0.0031458156, -0.0008273429, -387717.25, -80249.49, 0.0, 4.996427, 4.950336 
6.9856495e+2, 2.7357432e+2, -350101.2, -421332.7, -9635.825, -0.0036545973, 0.00083661603, -348820.72, -89849.42, 0.0, 4.9936256, 4.948359 
6.984516e+2, 2.78522e+2, -307709.03, -373735.7, -9758.757, -0.005229329, -0.006226728, -306296.88, -95813.28, 0.0, 4.99081, 4.948897 
6.9833946e+2, 2.834697e+2, -268967.3, -334124.03, -8304.45, -0.0040143877, 0.0030091882, -267925.53, -105929.42, 0.0, 4.98795, 4.9465823 
6.982288e+2, 2.8841722e+2, -226263.89, -285697.44, -8270.565, -0.0015312792, 0.009004067, -225134.45, -111623.76, 0.0, 4.985094, 4.9473915 
6.981186e+2, 2.9336125e+2, -187147.72, -245891.72, -6093.252, -0.0068059727, -0.0030387167, -186522.34, -121463.07, 0.0, 4.98234, 4.9450436 
6.980099e+2, 2.9830298e+2, -143661.86, -196719.88, -5966.5527, -0.015839677, -0.040495127, -142999.17, -126368.88, 0.0, 4.979673, 4.945997 
6.979043e+2, 3.0326098e+2, -110180.52, -133879.1, -4850.3823, 0.00043105488, 0.013972738, -109226.23, -109226.23, 0.0, 4.976225, 4.9611483 
6.978017e+2, 3.0823398e+2, -121446.34, -139645.92, -4270.2915, 0.029635224, 0.12704328, -120494.195, -120494.195, 0.0, 4.972324, 4.9607534 
6.976908e+2, 3.1317717e+2, -97572.27, -74953.32, -1709.0944, -0.05058724, -0.17126346, -74824.91, -74824.91, 0.0, 4.9705067, 4.9851108 
6.975976e+2, 3.1818527e+2, -77104.48, -24893.697, -452.00986, 0.0077395444, 0.062154736, -24889.783, -24889.783, 0.0, 4.9699655, 5.0037107 
7.070922e+2, 1.24891296e+2, -1552437.5, -1717492.8, 2911.5176, 0.002517507, -0.0026867096, -1552386.1, 163676.2, 0.0, 5.078023, 4.9691005 
7.0698524e+2, 1.298591e+2, -1513904.8, -1675352.0, 2375.3735, 0.0028407397, -0.0034943374, -1513869.8, 153509.44, 0.0, 5.0748963, 4.9684873 
7.068761e+2, 1.3482688e+2, -1474416.1, -1631502.9, 48.05674, 0.002869298, 0.0019035296, -1474416.1, 144278.36, 0.0, 5.0717874, 4.9683466 
7.067654e+2, 1.3979366e+2, -1435608.9, -1588722.3, -344.3966, 0.0005878475, -0.0047758203, -1435608.1, 134411.17, 0.0, 5.0686293, 4.967922 
7.0665324e+2, 1.4476058e+2, -1396187.9, -1545727.8, -2204.8357, 0.00027042092, -0.0028785863, -1396155.4, 125188.22, 0.0, 5.065665, 4.967438 
7.0654017e+2, 1.4972712e+2, -1356574.9, -1502283.5, -2532.2542, 0.0011191906, -0.0035839442, -1356530.9, 116140.71, 0.0, 5.0627055, 4.9671087 
7.064257e+2, 1.5469322e+2, -1317144.5, -1459512.6, -3937.783, 0.0012422277, -0.0014109449, -1317035.6, 106968.1, 0.0, 5.0597777, 4.966522 
7.0631045e+2, 1.5965867e+2, -1277398.9, -1415979.5, -4260.7876, 0.00007141559, -0.004124918, -1277268.0, 98074.25, 0.0, 5.05684, 4.9661756 
7.06194e+2, 1.6462377e+2, -1237801.0, -1373416.6, -5520.1704, -0.00007503865, -0.0017101433, -1237576.6, 89107.67, 0.0, 5.054015, 4.965433 
7.0607686e+2, 1.6958816e+2, -1197590.0, -1329544.0, -5735.7974, -0.00018827379, -0.0041019805, -1197341.1, 80692.05, 0.0, 5.051196, 4.965106 
7.0595884e+2, 1.7455211e+2, -1157962.5, -1287250.5, -6708.2124, -0.0006080392, -0.0018769397, -1157615.4, 71771.234, 0.0, 5.0484223, 4.9642096 
7.058403e+2, 1.7951529e+2, -1117529.1, -1243196.5, -6952.2915, -0.0011394797, -0.004234277, -1117145.6, 63601.82, 0.0, 5.0456448, 4.963887 
7.05721e+2, 1.84478e+2, -1077790.1, -1201035.8, -7758.934, -0.0009281163, -0.0015514633, -1077303.5, 54809.418, 0.0, 5.0429316, 4.962878 
7.056014e+2, 1.8943985e+2, -1037064.6, -1156783.5, -7982.955, -0.0009421945, -0.003928694, -1036534.6, 46952.22, 0.0, 5.0402236, 4.962552 
7.0548105e+2, 1.9440114e+2, -997305.6, -1114827.9, -8560.186, -0.0012906258, -0.0014012353, -996685.44, 38180.793, 0.0, 5.0375414, 4.9614124 
7.053606e+2, 1.993615e+2, -956346.75, -1070316.1, -8775.085, -0.001330934, -0.004203284, -955675.06, 30579.69, 0.0, 5.034864, 4.9611225 
7.052397e+2, 2.0432135e+2, -916627.1, -1028473.9, -9216.525, -0.001071278, -0.0015753593, -915872.75, 21775.395, 0.0, 5.032168, 4.9599113 
7.051186e+2, 2.0928022e+2, -875608.2, -983843.2, -9367.839, -0.0005990465, -0.004253363, -874803.4, 14247.819, 0.0, 5.029474, 4.9596314 
7.049972e+2, 2.1423858e+2, -835798.1, -942007.9, -9622.061, -0.001091734, -0.0014606469, -834933.44, 5525.826, 0.0, 5.0268006, 4.9583616 
7.0487577e+2, 2.191959e+2, -794617.9, -897245.6, -9744.7, -0.0015199096, -0.0041556894, -793700.8, -1823.3059, 0.0, 5.024132, 4.958076 
7.047544e+2, 2.2415271e+2, -754805.7, -855438.8, -9811.813, -0.0015791846, -0.0011016927, -753857.94, -10556.851, 0.0, 5.021446, 4.9567575 
7.04633e+2, 2.2910845e+2, -713600.1, -810565.9, -9931.829, -0.0016467056, -0.0037483578, -712593.3, -17858.28, 0.0, 5.0187445, 4.9564867 
7.0451176e+2, 2.3406367e+2, -673792.3, -768669.2, -9743.644, -0.0018976033, -0.00059879635, -672802.0, -26627.914, 0.0, 5.0160184, 4.955171 
7.0439076e+2, 2.3901784e+2, -632577.56, -723707.56, -9892.107, -0.0023528666, -0.0036378966, -631516.1, -33892.65, 0.0, 5.013281, 4.954909 
7.0427006e+2, 2.4397147e+2, -592763.25, -681855.0, -9459.068, -0.0024144358, 0.0001396184, -591770.06, -42691.95, 0.0, 5.0105476, 4.953531 
7.041497e+2, 2.4892408e+2, -551365.75, -636629.4, -9611.912, -0.0023851008, -0.0027800072, -550295.6, -49752.72, 0.0, 5.0078173, 4.953317 
7.0403e+2, 2.5387603e+2, -511705.6, -595021.6, -8911.522, -0.002676863, 0.0008539983, -510763.1, -58749.168, 0.0, 5.0050435, 4.951828 
7.0391065e+2, 2.5882703e+2, -470124.88, -549186.3, -9067.702, -0.0035045918, -0.0024749276, -469098.22, -65603.734, 0.0, 5.0022526, 4.951815 
7.0379204e+2, 2.6377735e+2, -430761.0, -508135.1, -8114.41, -0.0036625308, 0.001188783, -429919.2, -74937.87, 0.0, 4.999435, 4.9500985 
7.0367426e+2, 2.6872686e+2, -388820.97, -461452.56, -8237.219, -0.0035579705, -0.0014889772, -387898.5, -81422.33, 0.0, 4.9966154, 4.950357 
7.0355725e+2, 2.7367544e+2, -349828.44, -421064.66, -7041.3154, -0.0040211813, 0.0011562142, -349139.13, -91159.17, 0.0, 4.993741, 4.948375 
7.034411e+2, 2.786232e+2, -307632.78, -373531.25, -7172.801, -0.0052276026, -0.004536746, -306861.1, -97368.94, 0.0, 4.9908495, 4.9489245 
7.033261e+2, 2.835706e+2, -268879.84, -333811.0, -5643.0156, -0.0044330815, 0.0023154928, -268393.06, -107385.53, 0.0, 4.987974, 4.946655 
7.0321244e+2, 2.8851768e+2, -226158.9, -285343.3, -5568.036, -0.0028471071, 0.0047609825, -225639.63, -113113.74, 0.0, 4.985118, 4.9474792 
7.030994e+2, 2.934623e+2, -188490.22, -245950.48, -3664.0327, -0.007467125, -0.0013651525, -188257.52, -124188.62, 0.0, 4.9818006, 4.94523 
7.029877e+2, 2.9840505e+2, -147155.02, -197423.69, -3697.0144, -0.0149869, -0.029717883, -146884.58, -131253.63, 0.0, 4.9783006, 4.9463143 
7.028791e+2, 3.0336216e+2, -110133.055, -131775.47, -2242.0596, -0.00021545276, 0.010710716, -109903.23, -109903.23, 0.0, 4.975888, 4.962025 
7.0277333e+2, 3.0833375e+2, -116648.3, -137130.14, -1531.8549, 0.026017116, 0.103050664, -116534.36, -116534.36, 0.0, 4.97402, 4.9608984 
7.0266014e+2, 3.1327963e+2, -102382.9, -85112.76, -1779.3611, -0.048218463, -0.14609839, -84931.33, -84931.33, 0.0, 4.970372, 4.981439 
7.025655e+2, 3.182808e+2, -67600.2, 25630.236, -250.77957, 0.022245029, 0.03143539, 25630.91, 25630.91, 0.0, 4.964445, 5.024817 
7.121691e+2, 1.2499742e+2, -1552050.6, -1717623.9, 2100.0156, 0.001804948, -0.0024832, -1552024.0, 162998.03, 0.0, 5.0782003, 4.9689846 
7.12059e+2, 1.2996499e+2, -1513952.5, -1675593.8, 1650.4542, 0.0034025086, -0.003959515, -1513935.6, 152405.8, 0.0, 5.0749025, 4.9684167 
7.1194667e+2, 1.3493273e+2, -1474282.5, -1631586.5, -714.07214, 0.0030931232, 0.0017169672, -1474279.3, 143377.94, 0.0, 5.0718417, 4.9683056 
7.118328e+2, 1.3989948e+2, -1435247.0, -1588651.0, -1171.2345, 0.00060489355, -0.0045892335, -1435238.0, 133744.27, 0.0, 5.068752, 4.9679 
7.1171767e+2, 1.448663e+2, -1395937.6, -1545722.4, -2966.9094, 0.00055585295, -0.002779786, -1395878.9, 124428.54, 0.0, 5.0657525, 4.967411 
7.116016e+2, 1.4983279e+2, -1356421.5, -1502291.1, -3320.362, 0.0015742922, -0.0036001178, -1356346.0, 115290.18, 0.0, 5.062752, 4.9670973 
7.114842e+2, 1.5479885e+2, -1316912.5, -1459500.1, -4733.798, 0.0013461477, -0.001358095, -1316755.5, 106213.31, 0.0, 5.059855, 4.966503 
7.113659e+2, 1.5976425e+2, -1277039.5, -1415865.3, -5098.3896, -0.00017849903, -0.00394971, -1276852.5, 97455.24, 0.0, 5.0569525, 4.9661746 
7.1124667e+2, 1.6472931e+2, -1237524.9, -1373352.5, -6343.852, 0.000109297405, -0.0015113796, -1237229.1, 88420.91, 0.0, 5.054101, 4.965428 
7.111267e+2, 1.6969366e+2, -1197384.6, -1329488.1, -6600.861, 0.00039133817, -0.003917757, -1197055.6, 79943.695, 0.0, 5.0512514, 4.965113 
7.1100587e+2, 1.7465758e+2, -1157730.1, -1287221.0, -7581.61, -0.00062049995, -0.0017555751, -1157287.8, 71065.3, 0.0, 5.0484953, 4.9642 
7.1088445e+2, 1.7962071e+2, -1117219.5, -1243115.5, -7870.4946, -0.001721636, -0.0041083274, -1116729.4, 62984.957, 0.0, 5.0457406, 4.963885 
7.107625e+2, 1.8458341e+2, -1077543.4, -1201055.4, -8685.077, -0.0014184966, -0.0011917836, -1076935.6, 54144.58, 0.0, 5.0430202, 4.9628453 
7.1064013e+2, 1.8954521e+2, -1036828.2, -1156767.1, -8960.148, -0.0013289968, -0.0033607937, -1036162.5, 46292.12, 0.0, 5.040299, 4.9625387 
7.1051717e+2, 1.9450645e+2, -997111.75, -1114862.1, -9553.772, -0.0017624552, -0.00094180444, -996341.6, 37492.785, 0.0, 5.0376077, 4.961386 
7.103939e+2, 1.9946674e+2, -956158.44, -1070338.1, -9834.95, -0.001872846, -0.003908531, -955317.44, 29906.092, 0.0, 5.0349245, 4.961104 
7.1027035e+2, 2.0442654e+2, -916432.8, -1028571.75, -10319.007, -0.0016466021, -0.0012790401, -915491.2, 21126.387, 0.0, 5.0322466, 4.959859 
7.1014655e+2, 2.0938535e+2, -875342.6, -983888.7, -10523.672, -0.0013248691, -0.0038742681, -874331.75, 13689.571, 0.0, 5.0295725, 4.959588 
7.1002245e+2, 2.1434364e+2, -835594.5, -942147.2, -10814.894, -0.0017761233, -0.0009275387, -834507.94, 4922.164, 0.0, 5.0268903, 4.9582906 
7.0989835e+2, 2.1930088e+2, -794435.44, -897352.44, -10994.39, -0.0020928597, -0.003446708, -793274.06, -2424.9739, 0.0, 5.0242047, 4.958025 
7.097743e+2, 2.2425762e+2, -754666.56, -855612.8, -11121.53, -0.0019809376, -0.0005178758, -753455.8, -11182.314, 0.0, 5.0215125, 4.956687 
7.096502e+2, 2.2921325e+2, -713451.75, -810706.56, -11288.551, -0.0019187855, -0.0033962254, -712158.6, -18450.238, 0.0, 5.0188074, 4.9564295 
7.095263e+2, 2.3416837e+2, -673631.75, -768820.1, -11184.178, -0.0020742847, -0.0004654645, -672335.3, -27187.041, 0.0, 5.0160885, 4.955108 
7.094025e+2, 2.3912244e+2, -632408.6, -723879.2, -11377.691, -0.0024849828, -0.003625951, -631014.6, -34416.2, 0.0, 5.013358, 4.954836 
7.092791e+2, 2.44076e+2, -592612.1, -682056.75, -11000.901, -0.0026932682, 0.00031835696, -591278.94, -43225.168, 0.0, 5.010622, 4.9534483 
7.09156e+2, 2.4902852e+2, -551237.5, -636851.6, -11200.961, -0.0029287892, -0.0024221388, -549796.3, -50276.797, 0.0, 5.007885, 4.953232 
7.090335e+2, 2.5398037e+2, -511593.66, -595256.75, -10575.405, -0.0029785438, 0.0011964252, -510277.56, -59286.082, 0.0, 5.0051055, 4.9517407 
7.089114e+2, 2.5893128e+2, -470010.94, -549393.25, -10778.064, -0.0033943052, -0.0021389162, -468573.6, -66100.586, 0.0, 5.002309, 4.951741 
7.087901e+2, 2.6388147e+2, -430648.6, -508319.94, -9891.241, -0.0037567052, 0.000831274, -429408.75, -75447.64, 0.0, 4.9994855, 4.9500356 
7.086694e+2, 2.688308e+2, -388728.88, -461647.94, -10071.264, -0.004137467, -0.0027903703, -387363.47, -81906.03, 0.0, 4.996658, 4.950294 
7.0854956e+2, 2.737795e+2, -349766.6, -421334.88, -8963.587, -0.0044592614, 0.0018381894, -348661.03, -91700.77, 0.0, 4.9937835, 4.948286 
7.084306e+2, 2.7872744e+2, -307538.0, -373729.13, -9129.322, -0.005046151, -0.0009875244, -306301.94, -97831.11, 0.0, 4.9908915, 4.9488616 
7.083127e+2, 2.8367427e+2, -268746.66, -333807.16, -7618.269, -0.0051401765, 0.00014102111, -267866.53, -107874.79, 0.0, 4.9879932, 4.946672 
7.08196e+2, 2.8862047e+2, -226118.08, -285407.38, -7696.2407, -0.0051891617, -0.00604715, -225135.33, -113617.375, 0.0, 4.985108, 4.9474854 
7.0807993e+2, 2.9356676e+2, -188401.31, -246070.9, -6258.3945, -0.0074024857, 0.0044071726, -187729.95, -124684.62, 0.0, 4.9818215, 4.9452033 
7.0796514e+2, 2.985121e+2, -146721.97, -196955.05, -6108.7104, -0.010636193, 0.0021056118, -145989.78, -131406.98, 0.0, 4.9783607, 4.9464817 
7.0785344e+2, 3.0346492e+2, -108758.85, -129062.56, -3628.3206, -0.0033861133, -0.007565274, -108129.94, -108129.94, 0.0, 4.9759326, 4.96301 
7.077445e+2, 3.084294e+2, -117315.23, -138655.63, -3491.5752, 0.009788511, 0.005368489, -116758.484, -116758.484, 0.0, 4.9739714, 4.960397 
7.0763135e+2, 3.1339508e+2, -109106.734, -100786.08, -4901.434, -0.026382389, -0.011193265, -98517.375, -98517.375, 0.0, 4.9703565, 4.9757752 
7.0752716e+2, 3.183805e+2, -73749.63, 10845.452, -5552.1484, 0.0030293886, 0.068607286, 11208.295, 11208.295, 0.0, 4.964525, 5.019302 
7.172467e+2, 1.2510787e+2, -1547489.0, -1715133.1, 3127.3997, 0.0001583693, -0.0018392294, -1547430.8, 166508.95, 0.0, 5.079746, 4.969043 
7.171335e+2, 1.300751e+2, -1509765.9, -1673351.5, 2823.198, 0.005281396, -0.006341753, -1509717.3, 155544.36, 0.0, 5.0763345, 4.9684505 
7.1701795e+2, 1.3504286e+2, -1470394.6, -1629611.6, 618.3349, 0.0033738262, 0.000643603, -1470392.3, 146185.33, 0.0, 5.073196, 4.9682918 
7.169008e+2, 1.4000969e+2, -1431493.5, -1586619.8, 200.78566, -0.00063917536, -0.003913905, -1431493.3, 136409.31, 0.0, 5.070035, 4.9679413 
7.167826e+2, 1.4497645e+2, -1392382.1, -1543728.0, -1471.8584, 0.00061312475, -0.0023524952, -1392367.8, 126860.37, 0.0, 5.066956, 4.9674807 
7.166637e+2, 1.4994285e+2, -1353083.0, -1500392.4, -1737.5303, 0.0028533423, -0.0036196886, -1353062.5, 117495.03, 0.0, 5.06388, 4.9671736 
7.165432e+2, 1.5490887e+2, -1313755.6, -1457751.3, -3018.7173, 0.0017323437, -0.00135689, -1313692.4, 108198.33, 0.0, 5.060934, 4.9665556 
7.1642196e+2, 1.5987422e+2, -1273989.4, -1414116.6, -3339.5378, -0.00077363, -0.0038452048, -1273909.9, 99320.35, 0.0, 5.0579853, 4.966251 
7.1629983e+2, 1.6483925e+2, -1234652.6, -1371701.1, -4484.9673, 0.000088089866, -0.0014416055, -1234506.0, 90066.86, 0.0, 5.055077, 4.9655 
7.1617705e+2, 1.6980357e+2, -1194656.1, -1327874.6, -4658.347, 0.00096470723, -0.0038659493, -1194493.5, 81429.016, 0.0, 5.0521727, 4.9652004 
7.1605337e+2, 1.7476743e+2, -1155136.6, -1285717.4, -5509.4746, -0.00069126586, -0.0016345431, -1154904.5, 72371.91, 0.0, 5.049381, 4.9642673 
7.1592915e+2, 1.7973055e+2, -1114698.1, -1241630.4, -5752.698, -0.0023999298, -0.003908996, -1114438.0, 64200.18, 0.0, 5.0466, 4.9639606 
7.158044e+2, 1.8469316e+2, -1075186.4, -1199722.4, -6483.1606, -0.0019112363, -0.0010787164, -1074849.8, 55154.934, 0.0, 5.04384, 4.9628882 
7.156793e+2, 1.8965487e+2, -1034546.44, -1155414.8, -6709.029, -0.0016375056, -0.0033642699, -1034175.1, 47204.938, 0.0, 5.0410824, 4.9626074 
7.155535e+2, 1.9461608e+2, -994958.9, -1113612.4, -7211.001, -0.0022045972, -0.0008977529, -994522.25, 38238.12, 0.0, 5.038357, 4.9614367 
7.1542764e+2, 1.9957629e+2, -954090.9, -1069119.3, -7447.605, -0.0024899023, -0.003711425, -953610.7, 30539.387, 0.0, 5.035642, 4.96116 
7.153013e+2, 2.0453602e+2, -914456.94, -1027488.25, -7851.9526, -0.002473427, -0.00088367675, -913914.1, 21630.775, 0.0, 5.0329537, 4.959874 
7.151748e+2, 2.0949474e+2, -873372.75, -982783.75, -8030.332, -0.0024079415, -0.0032716722, -872786.5, 14163.195, 0.0, 5.030273, 4.9596157 
7.15048e+2, 2.144529e+2, -833743.7, -941157.94, -8287.404, -0.0025519112, -0.00046144394, -833108.06, 5251.6973, 0.0, 5.0275636, 4.9582925 
7.1492124e+2, 2.1941002e+2, -792676.8, -896378.3, -8426.654, -0.0024979596, -0.0031436374, -791996.5, -2216.3308, 0.0, 5.0248404, 4.9580398 
7.147945e+2, 2.2436662e+2, -752990.7, -854657.44, -8509.878, -0.002295929, -0.000241181, -752283.3, -11077.729, 0.0, 5.022117, 4.95671 
7.1466774e+2, 2.2932217e+2, -711865.75, -809822.5, -8638.518, -0.00225193, -0.0031232568, -711109.8, -18468.295, 0.0, 5.0193872, 4.9564414 
7.1454114e+2, 2.3427716e+2, -672114.6, -768015.8, -8523.518, -0.0023523818, -0.000061934865, -671363.0, -27280.39, 0.0, 5.016655, 4.955099 
7.1441454e+2, 2.392311e+2, -630932.0, -723077.5, -8693.691, -0.002711443, -0.0030199946, -630118.94, -34584.85, 0.0, 5.0139074, 4.954835 
7.142885e+2, 2.441845e+2, -591245.5, -681322.75, -8311.387, -0.0028572353, 0.0006370021, -590485.06, -43494.06, 0.0, 5.011138, 4.9534397 
7.141626e+2, 2.4913682e+2, -549978.56, -636131.2, -8477.95, -0.0030945945, -0.0025042095, -549152.2, -50693.855, 0.0, 5.008355, 4.9532394 
7.1403736e+2, 2.5408855e+2, -510484.5, -594631.7, -7852.2334, -0.002921588, 0.0011209592, -509758.03, -59826.582, 0.0, 5.0055294, 4.951737 
7.139125e+2, 2.590393e+2, -469025.0, -548807.94, -8026.438, -0.003030708, -0.0020962101, -468225.5, -66811.46, 0.0, 5.0026855, 4.951746 
7.137883e+2, 2.6398936e+2, -429817.2, -507813.47, -7146.7524, -0.003505375, 0.000533246, -429167.75, -76263.95, 0.0, 4.9998097, 4.9500365 
7.1366465e+2, 2.689385e+2, -388052.47, -461198.66, -7324.769, -0.004248979, -0.003556251, -387326.2, -82924.28, 0.0, 4.996925, 4.9503016 
7.13542e+2, 2.738872e+2, -349222.06, -420973.5, -6216.6226, -0.0045448556, 0.0021788068, -348687.44, -92782.44, 0.0, 4.9940095, 4.9482813 
7.1342015e+2, 2.7883512e+2, -307054.97, -373353.6, -6378.186, -0.004725391, 0.0008412401, -306446.94, -99031.445, 0.0, 4.991087, 4.9488764 
7.132993e+2, 2.837815e+2, -268626.06, -333492.6, -4925.6455, -0.0049024816, -0.0014338043, -268254.16, -109313.38, 0.0, 4.9880395, 4.9467306 
7.131796e+2, 2.8872716e+2, -226553.38, -285396.63, -5069.671, -0.005405124, -0.01233928, -226119.78, -115647.21, 0.0, 4.984966, 4.9475193 
7.130605e+2, 2.936744e+2, -188138.25, -245896.45, -3811.3015, -0.0069364957, 0.00901973, -187887.84, -125897.45, 0.0, 4.9819593, 4.945174 
7.1294266e+2, 2.9862115e+2, -145248.7, -196439.39, -3695.9128, -0.008751456, 0.022522252, -144983.23, -131469.58, 0.0, 4.97897, 4.94637 
7.128279e+2, 3.0356997e+2, -109882.94, -130738.625, -2505.0115, -0.0040176, -0.021371804, -109586.28, -109586.28, 0.0, 4.975808, 4.9624305 
7.127159e+2, 3.08529e+2, -121154.766, -140474.0, -4484.64, 0.0046747723, -0.057140462, -120164.49, -120164.49, 0.0, 4.9726667, 4.9602795 
7.1260077e+2, 3.1351197e+2, -108200.79, -96487.35, -1266.81, -0.015938638, 0.09118059, -96351.91, -96351.91, 0.0, 4.969983, 4.977468 
7.124902e+2, 3.1847292e+2, -57502.625, 40899.52, 3489.5925, -0.009263116, -0.10237963, 41023.113, 41023.113, 0.0, 4.965985, 5.0298676 
7.2232515e+2, 1.2522049e+2, -1547737.5, -1715339.6, 2345.1145, 0.0005637791, -0.0022300924, -1547704.8, 165131.28, 0.0, 5.0796523, 4.9690337 
7.222086e+2, 1.3018765e+2, -1509416.9, -1673276.0, 2022.6832, 0.0053181336, -0.006674802, -1509391.9, 154766.03, 0.0, 5.076449, 4.9684343 
7.220897e+2, 1.3515536e+2, -1470144.6, -1629632.5, -119.82811, 0.002905797, 0.00040467342, -1470144.5, 145330.27, 0.0, 5.073287, 4.968254 
7.219694e+2, 1.4012213e+2, -1431317.5, -1586592.3, -544.2734, -0.0010945378, -0.0038904892, -1431315.6, 135485.19, 0.0, 5.0700827, 4.967941 
7.218482e+2, 1.450889e+2, -1392158.9, -1543656.1, -2202.6345, 0.0007587041, -0.0021036423, -1392126.9, 125999.516, 0.0, 5.067016, 4.9674892 
7.217262e+2, 1.5005527e+2, -1352784.3, -1500242.4, -2509.2495, 0.0033826793, -0.003218413, -1352741.6, 116714.35, 0.0, 5.0639567, 4.9672008 
7.2160274e+2, 1.5502125e+2, -1313501.3, -1457648.3, -3755.3193, 0.001882814, -0.0010980293, -1313403.5, 107385.945, 0.0, 5.0610013, 4.9665728 
7.214784e+2, 1.5998657e+2, -1273740.6, -1413987.8, -4120.3438, -0.0009985325, -0.0036997842, -1273619.8, 98509.66, 0.0, 5.058044, 4.966282 
7.2135335e+2, 1.649516e+2, -1234374.3, -1371597.6, -5284.1284, 0.00009528768, -0.0012456379, -1234171.1, 89301.02, 0.0, 5.055155, 4.965513 
7.212277e+2, 1.699159e+2, -1194302.0, -1327699.8, -5503.3745, 0.0011675694, -0.0035606246, -1194075.3, 80746.6, 0.0, 5.0522685, 4.9652295 
7.2110116e+2, 1.7487976e+2, -1154862.9, -1285630.8, -6352.6997, -0.0009127991, -0.0012136081, -1154554.9, 71620.96, 0.0, 5.0494595, 4.9642754 
7.2097415e+2, 1.7984284e+2, -1114462.8, -1241539.0, -6661.576, -0.0029477798, -0.0034249686, -1114114.5, 63423.254, 0.0, 5.046659, 4.9639797 
7.208466e+2, 1.8480542e+2, -1074992.1, -1199726.4, -7397.378, -0.0023309337, -0.0007950038, -1074555.0, 54349.81, 0.0, 5.0439005, 4.9628744 
7.2071874e+2, 1.8976708e+2, -1034308.9, -1155355.9, -7663.0864, -0.001987167, -0.0032836006, -1033825.7, 46455.156, 0.0, 5.041148, 4.962613 
7.205903e+2, 1.9472824e+2, -994744.3, -1113634.1, -8193.297, -0.0027316373, -0.00067180546, -994182.3, 37479.043, 0.0, 5.038429, 4.961413 
7.204616e+2, 1.9968845e+2, -953853.9, -1069120.3, -8497.459, -0.003211446, -0.0032204993, -953230.8, 29820.578, 0.0, 5.0357194, 4.961142 
7.203325e+2, 2.0464812e+2, -914280.06, -1027614.3, -8922.73, -0.0033502486, -0.00023619151, -913581.9, 20864.877, 0.0, 5.0330286, 4.959814 
7.2020334e+2, 2.0960677e+2, -873190.4, -982882.0, -9167.317, -0.0034694134, -0.0024744223, -872429.5, 13422.881, 0.0, 5.030344, 4.9595675 
7.2007394e+2, 2.1456483e+2, -833594.4, -941331.8, -9483.08, -0.0032808452, 0.0001700885, -832766.06, 4497.4063, 0.0, 5.0276346, 4.958219 
7.199445e+2, 2.1952184e+2, -792512.4, -896532.5, -9663.07, -0.00289131, -0.0027295717, -791622.3, -2937.267, 0.0, 5.0249133, 4.957973 
7.19815e+2, 2.2447835e+2, -752795.5, -854793.0, -9815.829, -0.0026404166, 0.00015578576, -751859.44, -11748.287, 0.0, 5.0221996, 4.956646 
7.1968544e+2, 2.2943379e+2, -711658.5, -809973.7, -10006.5, -0.0026427899, -0.0026776576, -710650.4, -19102.537, 0.0, 5.0194774, 4.9563684 
7.1955615e+2, 2.3438871e+2, -671964.94, -768286.25, -9958.56, -0.0026736313, 0.0005723486, -670946.06, -27956.209, 0.0, 5.0167427, 4.954987 
7.194268e+2, 2.3934253e+2, -630774.06, -723304.9, -10176.185, -0.0029582223, -0.0021719614, -629668.2, -35225.645, 0.0, 5.0139894, 4.954741 
7.1929795e+2, 2.4429578e+2, -591118.06, -681579.7, -9869.556, -0.0029835182, 0.0010413956, -590053.8, -44153.0, 0.0, 5.0112114, 4.9533396 
7.191694e+2, 2.4924794e+2, -549863.9, -636377.6, -10089.265, -0.0031517632, -0.0026291634, -548702.8, -51333.277, 0.0, 5.00842, 4.9531474 
7.1904135e+2, 2.541996e+2, -510350.4, -594865.0, -9559.429, -0.0027884697, 0.0010668446, -509282.66, -60439.277, 0.0, 5.005599, 4.9516478 
7.189136e+2, 2.5915024e+2, -468879.13, -549046.1, -9789.18, -0.0026349765, -0.0020527057, -467701.06, -67374.33, 0.0, 5.00276, 4.9516535 
7.1878654e+2, 2.6410013e+2, -429703.34, -508100.06, -8983.062, -0.0031716693, 0.00031716857, -428687.2, -76869.35, 0.0, 4.999879, 4.94993 
7.186601e+2, 2.6904917e+2, -387955.1, -461475.1, -9210.831, -0.0042458703, -0.004021394, -386818.7, -83501.336, 0.0, 4.9969835, 4.950204 
7.1853447e+2, 2.739978e+2, -349148.47, -421273.0, -8170.8564, -0.00454756, 0.0023871409, -348234.4, -93413.695, 0.0, 4.99406, 4.948179 
7.184097e+2, 2.789457e+2, -306991.28, -373627.2, -8397.397, -0.0044062617, 0.0017302555, -305949.34, -99617.91, 0.0, 4.991127, 4.948788 
7.182859e+2, 2.8389177e+2, -268548.3, -333720.13, -7078.4546, -0.004229711, -0.0027002704, -267788.38, -109928.445, 0.0, 4.9880757, 4.94666 
7.1816313e+2, 2.8883713e+2, -226528.5, -285730.6, -7245.4526, -0.004525494, -0.015944518, -225654.66, -116259.43, 0.0, 4.984998, 4.947413 
7.1804106e+2, 2.9378495e+2, -188194.03, -246468.8, -5953.269, -0.006455494, 0.01256747, -187592.08, -126685.266, 0.0, 4.982, 4.94498 
7.1792024e+2, 2.9873225e+2, -145856.69, -198233.4, -5903.819, -0.00882678, 0.034357995, -145199.47, -132776.25, 0.0, 4.9789996, 4.945745 
7.178025e+2, 3.0367744e+2, -112124.39, -136251.64, -4736.5, -0.002754862, -0.03218066, -111227.87, -111227.87, 0.0, 4.9758244, 4.9604645 
7.1768755e+2, 3.086321e+2, -121375.73, -141080.42, -6529.022, 0.007529072, -0.09326185, -119408.734, -119408.734, 0.0, 4.972638, 4.9601026 
7.175686e+2, 3.1363025e+2, -97631.734, -73180.56, -2062.9675, -0.020116894, 0.1515266, -73007.73, -73007.73, 0.0, 4.9701385, 4.985918 
7.1745545e+2, 3.1859785e+2, -87596.68, -28840.018, -3116.064, -0.00394979, -0.016620288, -28675.225, -28675.225, 0.0, 4.9660044, 5.0039773 
7.2740436e+2, 1.2533742e+2, -1543358.5, -1712924.9, 3574.7627, 0.0027789976, -0.003778823, -1543283.1, 168406.89, 0.0, 5.081136, 4.969096 
7.2728413e+2, 1.3030492e+2, -1505295.5, -1670950.1, 3278.1978, 0.0027137636, -0.0045373165, -1505230.6, 157778.13, 0.0, 5.077838, 4.968516 
7.271621e+2, 1.3527241e+2, -1466288.4, -1627441.5, 1210.4606, 0.0015785384, 0.00081595994, -1466279.3, 148048.27, 0.0, 5.074586, 4.968337 
7.2703874e+2, 1.4023899e+2, -1427695.0, -1584497.3, 871.4494, -0.00026985994, -0.005234824, -1427690.1, 137965.3, 0.0, 5.0712986, 4.9680343 
7.269143e+2, 1.4520581e+2, -1388773.9, -1541736.0, -623.4379, 0.00098624, -0.002463302, -1388771.4, 128209.305, 0.0, 5.0681643, 4.96756 
7.267891e+2, 1.5017226e+2, -1349516.6, -1498280.0, -850.9405, 0.002583955, -0.0024806634, -1349511.8, 118797.84, 0.0, 5.065045, 4.9673157 
7.2666264e+2, 1.551382e+2, -1310388.1, -1455745.8, -1965.3014, 0.0017942145, -0.0009105816, -1310361.5, 109281.84, 0.0, 5.062034, 4.9666967 
7.2653544e+2, 1.6010347e+2, -1270796.4, -1412181.9, -2258.744, -0.00022334546, -0.004083223, -1270760.3, 100223.41, 0.0, 5.059024, 4.9664006 
7.264074e+2, 1.6506848e+2, -1231599.1, -1369965.9, -3294.5747, 0.00029681195, -0.0013557067, -1231520.8, 90805.99, 0.0, 5.056098, 4.965592 
7.262788e+2, 1.7003277e+2, -1191590.3, -1326048.9, -3451.3228, 0.0006332773, -0.0033108678, -1191501.8, 82175.01, 0.0, 5.0531807, 4.9653316 
7.2614944e+2, 1.7499663e+2, -1152311.1, -1284099.3, -4186.5195, -0.0012168109, -0.0007996083, -1152178.3, 72852.73, 0.0, 5.050328, 4.964358 
7.260196e+2, 1.7995967e+2, -1111980.9, -1239969.3, -4437.031, -0.0028438927, -0.0029766844, -1111827.3, 64566.094, 0.0, 5.04749, 4.9640946 
7.258892e+2, 1.8492216e+2, -1072629.4, -1198260.4, -5055.822, -0.0023799546, -0.00082894054, -1072426.3, 55334.6, 0.0, 5.044703, 4.9629683 
7.257586e+2, 1.8988374e+2, -1032012.3, -1153923.1, -5258.7036, -0.0023353898, -0.0036607585, -1031785.94, 47351.457, 0.0, 5.041929, 4.962707 
7.256273e+2, 1.948449e+2, -992583.6, -1112392.9, -5701.2114, -0.003426755, -0.00061638304, -992312.94, 38205.402, 0.0, 5.0391917, 4.9614506 
7.2549593e+2, 1.9980504e+2, -951717.25, -1067848.3, -5965.8413, -0.004146824, -0.0026319325, -951411.56, 30497.555, 0.0, 5.0364656, 4.9611993 
7.253642e+2, 2.0476463e+2, -912239.5, -1026454.06, -6310.407, -0.003959427, 0.000307667, -911891.94, 21413.63, 0.0, 5.0337577, 4.9598427 
7.2523236e+2, 2.0972316e+2, -871184.4, -981695.75, -6519.8564, -0.0038198736, -0.002023089, -870801.06, 13911.362, 0.0, 5.031053, 4.9596157 
7.251002e+2, 2.1468112e+2, -831668.7, -940226.3, -6790.488, -0.0035882026, 0.00056942273, -831245.56, 4878.8364, 0.0, 5.028327, 4.958247 
7.24968e+2, 2.19638e+2, -790626.25, -895453.9, -6914.446, -0.0032811163, -0.0023473578, -790172.1, -2625.01, 0.0, 5.025594, 4.957999 
7.2483575e+2, 2.2459438e+2, -750981.0, -853852.94, -7039.711, -0.0031088649, 0.0007382295, -750501.5, -11526.978, 0.0, 5.022878, 4.956626 
7.2470355e+2, 2.2954968e+2, -709848.0, -809010.9, -7206.774, -0.0031352811, -0.0018330773, -709327.0, -18914.252, 0.0, 5.0201507, 4.956361 
7.2457147e+2, 2.3450443e+2, -670237.3, -767389.3, -7146.579, -0.002814431, 0.0012614328, -669714.44, -27857.992, 0.0, 5.017395, 4.954966 
7.2443944e+2, 2.3945805e+2, -629106.7, -722412.25, -7330.9434, -0.0027228978, -0.0017044412, -628534.25, -35223.36, 0.0, 5.0146155, 4.954732 
7.2430784e+2, 2.4441113e+2, -589557.4, -680746.94, -7034.092, -0.0026737624, 0.001331497, -589018.0, -44247.285, 0.0, 5.011802, 4.953327 
7.241764e+2, 2.4936312e+2, -548422.5, -635586.1, -7216.9546, -0.0029087188, -0.002478339, -547829.0, -51587.98, 0.0, 5.0089664, 4.953142 
7.240455e+2, 2.543146e+2, -509008.34, -594173.6, -6701.8047, -0.0025914116, 0.0013067127, -508484.22, -60767.83, 0.0, 5.006123, 4.951618 
7.23915e+2, 2.592651e+2, -467569.5, -548345.8, -6927.169, -0.0023856182, -0.0017447163, -466979.75, -67778.4, 0.0, 5.0032673, 4.951636 
7.237851e+2, 2.642148e+2, -428536.78, -507487.06, -6151.8286, -0.0028588902, 0.0005351471, -428060.3, -77366.03, 0.0, 5.0003405, 4.949903 
7.2365564e+2, 2.6916364e+2, -386932.88, -460903.97, -6372.6045, -0.0039565894, -0.0038248682, -386387.9, -84192.3, 0.0, 4.997389, 4.9501886 
7.2352713e+2, 2.7411216e+2, -348276.8, -420705.9, -5321.2676, -0.0041857995, 0.0027395503, -347887.94, -94187.8, 0.0, 4.9944005, 4.948191 
7.2339946e+2, 2.7905992e+2, -306279.0, -373121.2, -5528.9697, -0.0037679868, 0.0020363862, -305824.75, -100612.55, 0.0, 4.9914083, 4.948806 
7.2327256e+2, 2.8400576e+2, -267938.13, -333262.1, -4277.1626, -0.004177015, -0.003206875, -267659.25, -110916.35, 0.0, 4.988321, 4.946677 
7.231467e+2, 2.8895095e+2, -225999.03, -285342.34, -4378.6104, -0.005241766, -0.016842669, -225677.7, -117397.55, 0.0, 4.9852204, 4.947417 
7.230218e+2, 2.9389897e+2, -187470.3, -246020.23, -2878.483, -0.005479816, 0.015195368, -187329.13, -127539.41, 0.0, 4.982297, 4.944974 
7.2289824e+2, 2.988464e+2, -144917.77, -197729.19, -2772.6104, -0.0056192325, 0.04006314, -144772.6, -133468.08, 0.0, 4.9793806, 4.9457245 
7.227767e+2, 3.0379003e+2, -112707.69, -136644.22, -444.70486, -0.003990289, -0.039387472, -112699.43, -112699.43, 0.0, 4.975697, 4.960346 
7.2265756e+2, 3.0874324e+2, -123211.98, -140527.14, 49.949265, 0.00054802786, -0.112050526, -123211.83, -123211.83, 0.0, 4.971766, 4.9606485 
7.225374e+2, 3.1374866e+2, -95549.29, -65463.16, -1436.7675, -0.012747596, 0.186478, -65394.7, -65394.7, 0.0, 4.969637, 4.9889216 
7.2242147e+2, 3.1870678e+2, -77076.84, -11830.664, -8413.702, 0.00406486, -0.11351481, -10763.156, -10763.156, 0.0, 4.967471, 5.0095882 
7.324839e+2, 1.2545678e+2, -1543096.3, -1712915.9, 2780.17, 0.0011915994, -0.0043585347, -1543050.8, 167469.39, 0.0, 5.0812235, 4.9690714 
7.323605e+2, 1.304244e+2, -1505444.5, -1671030.3, 2436.0903, 0.003031486, -0.0032412193, -1505408.8, 156429.34, 0.0, 5.0777597, 4.968541 
7.3223513e+2, 1.3539182e+2, -1466277.9, -1627377.6, 423.80777, 0.0013110029, 0.0013363981, -1466276.8, 146880.66, 0.0, 5.07455, 4.9683895 
7.3210853e+2, 1.4035831e+2, -1427513.3, -1584339.3, 82.234566, -0.00033844035, -0.005542777, -1427513.1, 136972.81, 0.0, 5.0713186, 4.9680915 
7.319809e+2, 1.4532517e+2, -1388581.4, -1541622.6, -1336.5569, 0.00083904865, -0.0025195107, -1388569.6, 127241.42, 0.0, 5.0682006, 4.9675946 
7.3185253e+2, 1.5029164e+2, -1349257.1, -1498059.6, -1575.7457, 0.0019950238, -0.0021461237, -1349240.4, 117899.52, 0.0, 5.0650883, 4.967384 
7.3172307e+2, 1.552576e+2, -1310146.9, -1455542.6, -2692.886, 0.0016697117, -0.00065874483, -1310097.0, 108376.34, 0.0, 5.062073, 4.9667616 
7.315929e+2, 1.6022287e+2, -1270548.4, -1411973.9, -3042.3623, 0.000262551, -0.003930206, -1270483.0, 99330.664, 0.0, 5.0590644, 4.9664674 
7.314619e+2, 1.651879e+2, -1231330.0, -1369824.1, -4045.3962, 0.00031617712, -0.0011203862, -1231212.0, 89944.66, 0.0, 5.0561624, 4.9656253 
7.3133034e+2, 1.7015217e+2, -1191244.9, -1325840.8, -4245.6807, 0.00007458785, -0.0029663073, -1191111.0, 81395.79, 0.0, 5.0532646, 4.9653788 
7.31198e+2, 1.7511605e+2, -1152051.5, -1284000.1, -4989.329, -0.0014548854, -0.00035453925, -1151863.1, 71997.98, 0.0, 5.0503964, 4.964375 
7.310654e+2, 1.8007906e+2, -1111713.3, -1239797.0, -5294.4614, -0.0026550004, -0.0025151838, -1111494.8, 63728.867, 0.0, 5.047546, 4.9641433 
7.3093224e+2, 1.8504153e+2, -1072365.0, -1198159.4, -5926.2144, -0.0024332274, -0.00064969604, -1072086.4, 54504.785, 0.0, 5.0447717, 4.962987 
7.307988e+2, 1.9000308e+2, -1031708.75, -1153811.0, -6192.118, -0.0027221362, -0.003599026, -1031395.5, 46572.402, 0.0, 5.042012, 4.962724 
7.3066473e+2, 1.9496422e+2, -992341.1, -1112448.6, -6657.6885, -0.0040969555, -0.0002155595, -991973.2, 37376.063, 0.0, 5.0392823, 4.9614067 
7.3053056e+2, 1.9992433e+2, -951436.3, -1067839.9, -6982.3706, -0.004993548, -0.0018605462, -951018.94, 29721.713, 0.0, 5.036559, 4.9611773 
7.303961e+2, 2.0488384e+2, -912032.8, -1026549.5, -7352.333, -0.004427525, 0.00097048003, -911562.7, 20575.178, 0.0, 5.0338387, 4.9597907 
7.302616e+2, 2.0984226e+2, -870986.1, -981765.0, -7624.9595, -0.0040204516, -0.0014912612, -870463.75, 13081.861, 0.0, 5.031124, 4.9595785 
7.3012674e+2, 2.1480016e+2, -831467.8, -940368.1, -7968.0913, -0.0038152563, 0.001150812, -830887.94, 4070.3643, 0.0, 5.028414, 4.958178 
7.2999173e+2, 2.1975696e+2, -790383.1, -895582.8, -8148.3237, -0.0036560541, -0.0016804994, -789755.75, -3373.9265, 0.0, 5.0256963, 4.957928 
7.2985685e+2, 2.2471325e+2, -750795.44, -854125.9, -8338.977, -0.0035674926, 0.0015714731, -750126.8, -12316.414, 0.0, 5.0229826, 4.9565053 
7.2972184e+2, 2.2966842e+2, -709665.7, -809279.3, -8556.293, -0.0035878303, -0.000775873, -708936.06, -19686.176, 0.0, 5.0202518, 4.956243 
7.295871e+2, 2.34623e+2, -670061.94, -767651.2, -8578.368, -0.0028693846, 0.0020565116, -669313.6, -28618.566, 0.0, 5.017491, 4.954854 
7.294524e+2, 2.3957646e+2, -628939.3, -722673.44, -8817.627, -0.0023748407, -0.0012449151, -628117.06, -35965.94, 0.0, 5.014707, 4.9546227 
7.293179e+2, 2.445294e+2, -589404.2, -681049.1, -8615.456, -0.0022817245, 0.0017354169, -588601.3, -44989.215, 0.0, 5.0118947, 4.953203 
7.291837e+2, 2.4948125e+2, -548256.94, -635871.8, -8848.97, -0.0026122266, -0.0020976258, -547372.1, -52288.473, 0.0, 5.0090604, 4.9530244 
7.290499e+2, 2.544326e+2, -508884.28, -594542.75, -8411.267, -0.002401202, 0.0017109388, -508066.13, -61505.727, 0.0, 5.0062127, 4.9514737 
7.289166e+2, 2.5938293e+2, -467446.5, -548681.2, -8694.611, -0.0022140944, -0.0013094507, -466526.34, -68479.49, 0.0, 5.0033493, 4.9515066 
7.287837e+2, 2.643325e+2, -428450.4, -507875.94, -8031.5513, -0.0025888667, 0.0009927881, -427646.4, -78105.164, 0.0, 5.000415, 4.949759 
7.2865134e+2, 2.6928118e+2, -386840.7, -461244.0, -8295.503, -0.0035910485, -0.0033088492, -385927.03, -84883.03, 0.0, 4.997455, 4.9500656 
7.2852e+2, 2.742296e+2, -348177.88, -420988.34, -7323.8174, -0.0037278603, 0.0030877406, -347448.5, -94898.75, 0.0, 4.9944563, 4.9480934 
7.2838926e+2, 2.791772e+2, -306213.6, -373416.0, -7595.19, -0.003075534, 0.0019280544, -305365.88, -101302.74, 0.0, 4.991451, 4.9487104 
7.282592e+2, 2.8412294e+2, -267870.56, -333564.47, -6462.2964, -0.0046334937, -0.0031601086, -267240.9, -111646.21, 0.0, 4.988364, 4.946579 
7.2813004e+2, 2.8906813e+2, -225925.48, -285627.28, -6538.5605, -0.0070164576, -0.015856251, -225217.77, -118085.6, 0.0, 4.985262, 4.947325 
7.2800267e+2, 2.9401612e+2, -187491.92, -246291.17, -4944.798, -0.004206622, 0.016584208, -187078.98, -128436.51, 0.0, 4.9822907, 4.944909 
7.278766e+2, 2.9896337e+2, -144640.56, -197117.28, -5088.717, -0.0004998696, 0.03996976, -144151.66, -133992.4, 0.0, 4.9793363, 4.9459915 
7.277505e+2, 3.039075e+2, -111246.14, -133526.28, -3339.247, -0.008165525, -0.043254357, -110756.43, -110756.43, 0.0, 4.9756956, 4.9615016 
7.276262e+2, 3.0886197e+2, -122979.65, -140503.6, -2483.3074, -0.015863407, -0.11276927, -122634.54, -122634.54, 0.0, 4.9718113, 4.960669 
7.275068e+2, 3.1386638e+2, -98256.72, -72361.24, -1541.0352, 0.0035905177, 0.1890849, -72269.86, -72269.86, 0.0, 4.9697046, 4.9864025 
7.2738725e+2, 3.188333e+2, -76963.26, -13606.738, -4337.7427, 0.0003062922, 0.0062180823, -13311.131, -13311.131, 0.0, 4.9678006, 5.0088205 
7.375638e+2, 1.2558071e+2, -1538969.3, -1710667.8, 3864.3374, -0.0038179832, -0.0043838304, -1538882.4, 170423.03, 0.0, 5.082636, 4.969111 
7.3743767e+2, 1.3054828e+2, -1501485.4, -1668670.4, 3663.8418, 0.006595348, -0.0031247425, -1501405.1, 159219.53, 0.0, 5.0790734, 4.9686685 
7.3730874e+2, 1.355158e+2, -1462517.1, -1625015.1, 1839.2535, 0.0021473083, 0.0017832458, -1462496.3, 149446.55, 0.0, 5.0757737, 4.9685645 
7.371786e+2, 1.4048237e+2, -1423977.0, -1582088.6, 1568.7097, -0.0017048718, -0.004829171, -1423961.5, 139308.77, 0.0, 5.0724683, 4.968267 
7.370479e+2, 1.4544918e+2, -1385282.0, -1539547.1, 312.6629, 0.0003018371, -0.0027021633, -1385281.4, 129314.414, 0.0, 5.0692835, 4.967746 
7.369164e+2, 1.5041558e+2, -1346109.8, -1496026.6, 159.0424, 0.0019182259, -0.0029724708, -1346109.5, 119815.58, 0.0, 5.066114, 4.9675503 
7.367839e+2, 1.5538165e+2, -1307182.9, -1453656.4, -822.81366, 0.001579679, -0.0007218864, -1307178.3, 110079.43, 0.0, 5.06305, 4.966905 
7.3665076e+2, 1.6034701e+2, -1267687.1, -1410086.8, -1082.9669, 0.00028550826, -0.0032639063, -1267678.9, 100918.375, 0.0, 5.0599966, 4.966634 
7.365167e+2, 1.6531202e+2, -1228591.0, -1368036.0, -1923.9117, 0.00020818581, -0.00083549053, -1228564.4, 91375.84, 0.0, 5.057064, 4.9657736 
7.3638225e+2, 1.7027627e+2, -1188571.6, -1324076.5, -2073.3564, -0.00021301796, -0.0031550706, -1188539.9, 82750.87, 0.0, 5.0541434, 4.965532 
7.3624706e+2, 1.7524011e+2, -1149550.5, -1282420.6, -2705.5193, -0.0013839179, -0.0006967488, -1149495.4, 73150.016, 0.0, 5.051241, 4.9644823 
7.3611164e+2, 1.802031e+2, -1109259.0, -1238175.4, -2926.8564, -0.0021723218, -0.0028209316, -1109192.5, 64815.7, 0.0, 5.0483627, 4.9642797 
7.359756e+2, 1.851656e+2, -1070014.0, -1196672.5, -3428.9321, -0.0023085764, -0.0005009831, -1069921.3, 55454.38, 0.0, 5.045573, 4.9630847 
7.3583937e+2, 1.9012713e+2, -1029377.3, -1152322.0, -3641.028, -0.0030102308, -0.0029343346, -1029269.56, 47482.816, 0.0, 5.0428057, 4.9628277 
7.357026e+2, 1.950882e+2, -990119.5, -1111132.1, -4013.1538, -0.004375613, 0.00035300927, -989986.56, 38148.188, 0.0, 5.040067, 4.961456 
7.3556566e+2, 2.000482e+2, -949201.2, -1066449.9, -4295.7065, -0.005187042, -0.0014558615, -949044.0, 30483.371, 0.0, 5.0373354, 4.9612575 
7.354285e+2, 2.050076e+2, -909882.2, -1025254.6, -4591.9985, -0.004356984, 0.001153019, -909699.7, 21225.758, 0.0, 5.0346, 4.959846 
7.352913e+2, 2.0996591e+2, -868883.56, -980504.06, -4808.0386, -0.0038446705, -0.0014259064, -868676.9, 13657.412, 0.0, 5.0318713, 4.9596305 
7.351537e+2, 2.1492374e+2, -829424.44, -939257.44, -5097.1436, -0.0037617963, 0.0017927551, -829188.44, 4559.4956, 0.0, 5.029168, 4.9581757 
7.3501605e+2, 2.1988042e+2, -788290.6, -894410.3, -5243.0254, -0.0037117272, -0.00041367483, -788032.25, -2859.5408, 0.0, 5.026461, 4.957944 
7.3487836e+2, 2.2483651e+2, -748772.56, -853079.7, -5413.7617, -0.003540545, 0.0024933112, -748492.3, -11889.162, 0.0, 5.023744, 4.956479 
7.347407e+2, 2.2979148e+2, -707642.9, -808181.9, -5596.771, -0.003433163, -0.00024036638, -707332.3, -19287.492, 0.0, 5.0210037, 4.956241 
7.346032e+2, 2.3474588e+2, -668114.1, -766635.06, -5614.776, -0.002488029, 0.00255113, -667795.2, -28303.662, 0.0, 5.018226, 4.954832 
7.3446566e+2, 2.3969916e+2, -627045.2, -721693.94, -5813.098, -0.0017988875, -0.00080547214, -626689.5, -35740.234, 0.0, 5.0154266, 4.954597 
7.3432845e+2, 2.4465188e+2, -587579.75, -680150.44, -5615.2764, -0.0016752331, 0.002216718, -587240.4, -44828.31, 0.0, 5.012601, 4.9531565 
7.341913e+2, 2.4960352e+2, -546471.44, -634978.94, -5834.551, -0.0020484487, -0.0015696255, -546088.44, -52202.742, 0.0, 5.00975, 4.952985 
7.3405474e+2, 2.5455463e+2, -507202.0, -593714.75, -5408.6934, -0.001857517, 0.0018853031, -506865.16, -61500.395, 0.0, 5.00687, 4.951427 
7.339184e+2, 2.5950474e+2, -465856.34, -547853.44, -5675.2656, -0.0016003953, -0.0014135626, -465465.4, -68611.945, 0.0, 5.003966, 4.9514794 
7.337827e+2, 2.6445413e+2, -427008.38, -507166.34, -5062.769, -0.0018130842, 0.00135726, -426689.88, -78340.66, 0.0, 5.000989, 4.949711 
7.336474e+2, 2.6940268e+2, -385487.38, -460515.22, -5296.142, -0.0026454723, -0.002615727, -385115.38, -85261.85, 0.0, 4.9979854, 4.950045 
7.3351294e+2, 2.7435073e+2, -346989.44, -420284.53, -4342.611, -0.002710175, 0.002147497, -346733.03, -95370.445, 0.0, 4.9949193, 4.9480953 
7.3337924e+2, 2.79298e+2, -305234.03, -372851.13, -4602.994, -0.0019403232, -0.00056262244, -304922.13, -102042.93, 0.0, 4.991847, 4.9486938 
7.332461e+2, 2.8424415e+2, -266936.3, -333084.66, -3520.974, -0.004120691, -0.000254692, -266749.44, -112341.984, 0.0, 4.9887576, 4.946534 
7.3311377e+2, 2.891897e+2, -224913.81, -284923.28, -3659.4685, -0.0070751663, -0.0071946303, -224691.48, -118750.234, 0.0, 4.985646, 4.9473658 
7.3298347e+2, 2.9413608e+2, -187453.06, -245564.61, -1953.5453, -0.0017565034, 0.009429783, -187387.47, -129920.33, 0.0, 4.9822383, 4.9451504 
7.328544e+2, 2.9908162e+2, -146158.56, -197144.55, -1963.6218, 0.004671506, 0.014860151, -146083.05, -137081.95, 0.0, 4.9787354, 4.946203 
7.327243e+2, 3.040304e+2, -110774.016, -132946.77, -1583.371, -0.011282778, -0.021692483, -110661.516, -110661.516, 0.0, 4.975862, 4.9616017 
7.3259574e+2, 3.0899024e+2, -119804.3, -139398.4, -2128.5269, -0.02813655, -0.03688205, -119575.74, -119575.74, 0.0, 4.9730773, 4.9604826 
7.324768e+2, 3.1397563e+2, -98864.336, -73884.11, -1203.3757, 0.026007721, 0.078224964, -73826.27, -73826.27, 0.0, 4.969803, 4.9857616 
7.323499e+2, 3.1894624e+2, -69927.41, 19912.06, -1094.8281, -0.022589743, -0.0838134, 19925.402, 19925.402, 0.0, 4.9645004, 5.0226398 
7.4264485e+2, 1.2570712e+2, -1539140.4, -1710793.8, 3078.543, -0.0032015613, -0.0039617145, -1539085.1, 168981.52, 0.0, 5.0825553, 4.969124 
7.42515e+2, 1.3067463e+2, -1501250.0, -1668437.6, 2890.765, 0.0053449916, -0.003070235, -1501200.0, 158186.89, 0.0, 5.079099, 4.968748 
7.4238276e+2, 1.356422e+2, -1462436.4, -1624766.4, 1119.1089, 0.001448989, 0.0018885318, -1462428.6, 148275.6, 0.0, 5.0757284, 4.9686837 
7.4224937e+2, 1.4060885e+2, -1424048.6, -1581914.4, 833.67645, -0.0013759499, -0.004559247, -1424044.1, 137986.52, 0.0, 5.0723696, 4.9683876 
7.421155e+2, 1.4557569e+2, -1385204.8, -1539343.3, -350.82495, 0.00030495264, -0.0026174004, -1385203.9, 128152.016, 0.0, 5.0692472, 4.967846 
7.419808e+2, 1.5054214e+2, -1345857.8, -1495714.9, -553.2048, 0.0012856863, -0.003027819, -1345855.8, 118829.23, 0.0, 5.066133, 4.967661 
7.4184513e+2, 1.5550828e+2, -1306969.5, -1453418.5, -1530.4602, 0.0012056603, -0.00043852415, -1306953.5, 109063.445, 0.0, 5.0630684, 4.966992 
7.41709e+2, 1.6047372e+2, -1267438.5, -1409788.4, -1819.8578, 0.0003173775, -0.0026194502, -1267415.3, 99940.664, 0.0, 5.0600176, 4.9667406 
7.4157196e+2, 1.6543877e+2, -1228315.5, -1367778.4, -2631.618, 0.00011043278, -0.00027348503, -1228265.9, 90432.55, 0.0, 5.057106, 4.9658566 
7.414346e+2, 1.7040303e+2, -1188229.0, -1323773.1, -2869.7898, -0.00048099275, -0.002830879, -1188168.3, 81880.49, 0.0, 5.054205, 4.965622 
7.412965e+2, 1.7536685e+2, -1149233.4, -1282238.3, -3507.7612, -0.0013105432, -0.00063413347, -1149141.0, 72262.48, 0.0, 5.051317, 4.9645243 
7.411582e+2, 1.8032983e+2, -1108875.4, -1237932.4, -3756.4734, -0.0017124078, -0.0027820827, -1108766.1, 64000.19, 0.0, 5.0484548, 4.9643354 
7.4101937e+2, 1.8529238e+2, -1069662.1, -1196566.5, -4273.9946, -0.0021768196, -0.000004048839, -1069518.4, 54615.074, 0.0, 5.0456796, 4.9630876 
7.408803e+2, 1.9025394e+2, -1028980.0, -1152162.4, -4569.2236, -0.00323461, -0.0019779098, -1028810.75, 46699.504, 0.0, 5.0429206, 4.962846 
7.407407e+2, 1.9521493e+2, -989823.6, -1111131.0, -4948.4536, -0.0044482276, 0.0010694142, -989622.06, 37271.195, 0.0, 5.0401692, 4.9614263 
7.406011e+2, 2.0017484e+2, -948901.6, -1066399.8, -5277.189, -0.005101705, -0.0010200974, -948665.1, 29621.754, 0.0, 5.0374284, 4.96125 
7.4046123e+2, 2.0513418e+2, -909587.06, -1025288.0, -5620.489, -0.004137307, 0.0015058748, -909314.7, 20370.736, 0.0, 5.0347075, 4.9598036 
7.403213e+2, 2.1009241e+2, -868555.0, -980544.56, -5895.6006, -0.0036369048, -0.0010795221, -868245.5, 12849.454, 0.0, 5.031994, 4.9595795 
7.4018097e+2, 2.1505018e+2, -829144.06, -939462.94, -6233.9785, -0.0036953806, 0.0026423438, -828792.9, 3716.5894, 0.0, 5.029302, 4.958063 
7.400406e+2, 2.2000678e+2, -787977.0, -894565.44, -6437.752, -0.0037123924, 0.0009774497, -787589.56, -3654.1753, 0.0, 5.026599, 4.9578476 
7.3990023e+2, 2.249627e+2, -748548.9, -853358.8, -6686.3267, -0.003359805, 0.0034619523, -748124.0, -12756.474, 0.0, 5.023866, 4.9563484 
7.397598e+2, 2.2991745e+2, -707436.06, -808426.5, -6918.302, -0.0030943793, 0.00025687664, -706964.3, -20153.275, 0.0, 5.02111, 4.9561296 
7.3961955e+2, 2.348717e+2, -667919.75, -766947.3, -7045.983, -0.0020285847, 0.0030954923, -667420.94, -29161.953, 0.0, 5.0183396, 4.9546947 
7.3947924e+2, 2.3982483e+2, -626844.0, -722031.3, -7299.832, -0.0012438956, -0.0002335995, -626287.44, -36569.363, 0.0, 5.0155473, 4.954448 
7.393392e+2, 2.447774e+2, -587397.25, -680542.8, -7198.7856, -0.0010649448, 0.0028211006, -586844.2, -45661.566, 0.0, 5.012723, 4.952989 
7.3919916e+2, 2.4972883e+2, -546295.8, -635376.0, -7467.6616, -0.0014389592, -0.00095391984, -545674.1, -53016.055, 0.0, 5.0098686, 4.9528174 
7.3905975e+2, 2.546797e+2, -507055.3, -594113.3, -7145.1763, -0.0012437946, 0.0020329317, -506472.78, -62333.508, 0.0, 5.006974, 4.9512653 
7.3892057e+2, 2.596296e+2, -465752.8, -548271.6, -7472.0747, -0.0008839933, -0.0016147186, -465081.7, -69451.695, 0.0, 5.0040536, 4.951319 
7.387819e+2, 2.645789e+2, -426900.6, -507588.8, -6989.3286, -0.00091282226, 0.0017805542, -426299.66, -79173.04, 0.0, 5.0010767, 4.9495497 
7.386436e+2, 2.6952732e+2, -385356.5, -460877.78, -7263.2495, -0.0015642073, -0.001864033, -384664.3, -86032.266, 0.0, 4.998071, 4.9499063 
7.3850614e+2, 2.74475e+2, -346870.72, -420641.7, -6435.8496, -0.0015297312, 0.0005317939, -346313.47, -96168.62, 0.0, 4.9949956, 4.9479637 
7.383694e+2, 2.7942193e+2, -305187.88, -373296.03, -6725.396, -0.0007239507, -0.004125189, -304530.13, -102865.29, 0.0, 4.9919076, 4.9485383 
7.3823315e+2, 2.8436872e+2, -266989.6, -333690.72, -5706.2153, -0.0031854631, 0.0045956573, -266504.94, -113318.22, 0.0, 4.9888024, 4.946329 
7.380977e+2, 2.8931493e+2, -224834.31, -285124.97, -5961.5073, -0.006190991, 0.0057524736, -224250.5, -119536.164, 0.0, 4.9856706, 4.947313 
7.379643e+2, 2.9425868e+2, -187009.14, -244947.16, -4552.127, 0.0013035521, -0.0049878396, -186653.67, -130388.125, 0.0, 4.9822636, 4.945391 
7.3783195e+2, 2.9920158e+2, -146200.17, -197673.47, -4405.686, 0.009436372, -0.028038891, -145825.81, -138000.06, 0.0, 4.9787645, 4.9460344 
7.376982e+2, 3.0415857e+2, -111759.836, -135775.73, -3436.6868, -0.014086746, 0.024917066, -111277.72, -111277.72, 0.0, 4.9759126, 4.9605923 
7.375663e+2, 3.0912694e+2, -120313.75, -141086.14, -4387.587, -0.037974503, 0.104950674, -119425.02, -119425.02, 0.0, 4.9731197, 4.95989 
7.3744696e+2, 3.1407523e+2, -97572.76, -71562.625, -2910.0605, 0.051604465, -0.15629856, -71241.016, -71241.016, 0.0, 4.9698663, 4.9866157 
7.373143e+2, 3.1907836e+2, -84458.95, -13803.455, -5065.1914, -0.007870152, 0.023927283, -13442.186, -13442.186, 0.0, 4.9644628, 5.0101852 
7.4772674e+2, 1.2583819e+2, -1535073.9, -1708319.6, 4290.5063, 0.0012940837, -0.0033865613, -1534967.8, 171814.73, 0.0, 5.083895, 4.969273 
7.4759233e+2, 1.3080564e+2, -1497451.5, -1665987.1, 4145.3604, -0.0011034389, -0.0033916826, -1497349.6, 160753.47, 0.0, 5.080326, 4.968946 
7.47457e+2, 1.3577327e+2, -1458872.3, -1622383.0, 2514.5151, -0.0005465484, 0.0011719568, -1458833.5, 150586.27, 0.0, 5.076866, 4.9689045 
7.473207e+2, 1.4074e+2, -1420696.4, -1579623.1, 2383.8225, 0.0011765269, -0.005187389, -1420660.6, 140084.69, 0.0, 5.0734344, 4.968615 
7.471834e+2, 1.45707e+2, -1382059.9, -1537199.4, 1419.3964, 0.0009802406, -0.0025446778, -1382046.9, 130022.09, 0.0, 5.0702534, 4.968055 
7.470454e+2, 1.5067358e+2, -1342852.5, -1493625.1, 1267.2323, -0.00013323818, -0.0024306024, -1342841.9, 120555.06, 0.0, 5.0670905, 4.967877 
7.4690676e+2, 1.5563974e+2, -1304141.9, -1451476.3, 423.02448, 0.0005634775, -0.00022722085, -1304140.6, 110588.35, 0.0, 5.0639806, 4.9671817 
7.467676e+2, 1.6060519e+2, -1264686.6, -1407836.1, 249.27492, 0.00060685753, -0.0026580908, -1264686.3, 101381.68, 0.0, 5.060896, 4.9669514 
7.466276e+2, 1.6557035e+2, -1225682.0, -1365952.1, -384.32248, 0.00023419462, 0.0001676201, -1225681.0, 91728.56, 0.0, 5.057961, 4.966037 
7.4648726e+2, 1.7053467e+2, -1185621.4, -1321909.9, -582.8831, -0.0005307909, -0.0020220366, -1185618.9, 83140.25, 0.0, 5.0550427, 4.9658246 
7.463463e+2, 1.7549849e+2, -1146740.8, -1280514.3, -1091.6035, -0.0010316316, -0.00024755817, -1146731.9, 73381.88, 0.0, 5.0521383, 4.964687 
7.462052e+2, 1.8046144e+2, -1106429.0, -1236271.5, -1241.55, -0.0011455613, -0.002622285, -1106417.1, 65059.63, 0.0, 5.04927, 4.9644814 
7.4606353e+2, 1.8542397e+2, -1067336.9, -1195131.1, -1632.2417, -0.0018367448, 0.00050934916, -1067316.0, 55528.418, 0.0, 5.0464916, 4.9631586 
7.459217e+2, 1.9038546e+2, -1026583.4, -1150567.8, -1889.7076, -0.0030573846, -0.0012146888, -1026554.56, 47667.59, 0.0, 5.0437326, 4.9629726 
7.457794e+2, 1.9534636e+2, -987485.8, -1109599.1, -2174.6177, -0.003775715, 0.0012832099, -987447.1, 38158.598, 0.0, 5.040972, 4.961536 
7.456371e+2, 2.0030616e+2, -946580.06, -1064881.6, -2429.8801, -0.004045907, -0.001232076, -946530.2, 30469.814, 0.0, 5.038228, 4.961358 
7.454945e+2, 2.0526548e+2, -907315.75, -1023925.56, -2692.285, -0.003422869, 0.0017905151, -907253.6, 21145.39, 0.0, 5.0355206, 4.9598536 
7.4535173e+2, 2.1022363e+2, -866254.4, -979183.7, -2915.15, -0.003330682, -0.00026947793, -866179.2, 13630.218, 0.0, 5.0328217, 4.9596243 
7.4520874e+2, 2.1518122e+2, -826881.2, -938250.7, -3194.6497, -0.0034989307, 0.003294131, -826789.6, 4436.241, 0.0, 5.0301456, 4.9580493 
7.450657e+2, 2.2013763e+2, -785640.7, -893259.7, -3374.8164, -0.0035052642, 0.0014535661, -785534.94, -2881.0974, 0.0, 5.027457, 4.957861 
7.449226e+2, 2.2509338e+2, -746271.8, -852113.4, -3612.4346, -0.002681176, 0.0039440994, -746148.6, -12061.229, 0.0, 5.0247126, 4.956347 
7.447794e+2, 2.3004794e+2, -705214.4, -807239.7, -3779.8115, -0.0020493325, 0.0007565303, -705074.5, -19542.002, 0.0, 5.0219445, 4.9561152 
7.4463636e+2, 2.3500201e+2, -665740.56, -765888.44, -3914.3816, -0.0013726914, 0.003749495, -665587.75, -28605.213, 0.0, 5.019181, 4.9546347 
7.4449325e+2, 2.399549e+2, -624642.25, -720953.44, -4152.9546, -0.0009673409, 0.00056294736, -624463.5, -36019.473, 0.0, 5.0163946, 4.954394 
7.443504e+2, 2.4490722e+2, -585231.3, -679527.1, -4070.8655, -0.00058414805, 0.0034535923, -585055.9, -45144.94, 0.0, 5.013567, 4.952917 
7.4420756e+2, 2.4985838e+2, -544153.2, -634351.2, -4319.785, -0.00071470067, -0.0005212287, -543946.8, -52557.84, 0.0, 5.010701, 4.952756 
7.440652e+2, 2.5480902e+2, -505055.6, -593176.5, -4024.5308, -0.00056046114, 0.0024352246, -504872.2, -61999.715, 0.0, 5.007762, 4.951194 
7.4392307e+2, 2.5975868e+2, -463868.22, -547365.6, -4337.833, -0.00020637686, -0.0012105627, -463643.47, -69277.836, 0.0, 5.0047956, 4.9512596 
7.437815e+2, 2.6470774e+2, -425076.88, -506714.75, -3886.2427, -0.00024635167, 0.002141952, -424892.3, -79027.78, 0.0, 5.0017977, 4.9494896 
7.436402e+2, 2.6965588e+2, -383584.5, -460017.5, -4167.6606, -0.00083945174, -0.0015246581, -383357.94, -85985.695, 0.0, 4.9987717, 4.949852 
7.4349964e+2, 2.7460337e+2, -345272.8, -419926.84, -3426.1812, -0.0010178812, 0.0012882499, -345115.9, -96228.73, 0.0, 4.995647, 4.947881 
7.4335974e+2, 2.795501e+2, -303690.47, -372535.34, -3742.184, -0.00044232816, -0.0030030897, -303487.66, -103078.29, 0.0, 4.992505, 4.948498 
7.432204e+2, 2.844966e+2, -265684.44, -332930.44, -2674.3752, -0.0022290705, 0.0049533634, -265578.25, -113644.41, 0.0, 4.989314, 4.946328 
7.430819e+2, 2.8944257e+2, -223770.61, -284451.8, -2911.7964, -0.0044119116, 0.0054788934, -223631.22, -120167.52, 0.0, 4.986091, 4.947323 
7.4294496e+2, 2.9438624e+2, -185818.84, -244164.83, -1953.6754, 0.001454064, -0.0050029224, -185753.5, -130737.57, 0.0, 4.9827204, 4.945426 
7.4280894e+2, 2.9932892e+2, -144918.98, -197180.7, -1994.9673, 0.0077756387, -0.028351812, -144842.94, -138265.19, 0.0, 4.979317, 4.9459267 
7.426726e+2, 3.0428612e+2, -111492.8, -136476.66, -565.2187, -0.012603466, 0.031594187, -111480.016, -111480.016, 0.0, 4.976239, 4.960158 
7.425383e+2, 3.0925485e+2, -120303.13, -140606.05, -1005.7314, -0.03176134, 0.12058342, -120253.44, -120253.44, 0.0, 4.9731026, 4.9600296 
7.424147e+2, 3.1419733e+2, -95452.35, -66886.555, -1356.0902, 0.05378277, -0.20967829, -66822.32, -66822.32, 0.0, 4.9699907, 4.9882245 
7.4227476e+2, 3.1921676e+2, -75713.23, 1195.2573, -3091.104, -0.034456167, 0.111482, 1319.2948, 1319.2948, 0.0, 4.9655275, 5.0152316 
7.528085e+2, 1.2597187e+2, -1535048.4, -1708058.6, 3594.8708, -0.0017418804, -0.0033358177, -1534973.8, 170498.89, 0.0, 5.083816, 4.9694147 
7.5267094e+2, 1.3093929e+2, -1497907.4, -1666034.0, 3528.718, 0.00060114916, -0.0043104696, -1497833.4, 158959.48, 0.0, 5.0800977, 4.969057 
7.5253195e+2, 1.3590701e+2, -1458903.0, -1622224.1, 1917.6952, -0.0009902711, 0.0009557475, -1458880.5, 149228.53, 0.0, 5.076789, 4.9690094 
7.523923e+2, 1.4087385e+2, -1420329.5, -1579174.4, 1681.9165, 0.00040740843, -0.0048112385, -1420311.6, 139122.13, 0.0, 5.0734725, 4.9687614 
7.5225174e+2, 1.4584096e+2, -1381948.3, -1536871.4, 771.9217, 0.00101498, -0.0020317098, -1381944.4, 128812.125, 0.0, 5.070205, 4.9682026 
7.5211054e+2, 1.5080763e+2, -1342882.0, -1493347.8, 588.4538, -0.0001885127, -0.001832699, -1342879.8, 119203.7, 0.0, 5.0669894, 4.9680333 
7.5196874e+2, 1.5577386e+2, -1303923.4, -1451135.3, -218.05164, 0.000012978918, 0.00010964952, -1303923.1, 109491.875, 0.0, 5.0639787, 4.9673123 
7.5182647e+2, 1.6073936e+2, -1264234.5, -1407351.4, -435.302, 0.00008923125, -0.0024775416, -1264233.3, 100520.19, 0.0, 5.060968, 4.9670963 
7.516836e+2, 1.6570462e+2, -1225414.3, -1365642.6, -1048.492, 0.00022591488, 0.00069426786, -1225406.4, 90687.71, 0.0, 5.0579886, 4.9661436 
7.5154036e+2, 1.7066903e+2, -1185401.4, -1321590.4, -1323.4415, -0.0001693492, -0.0011312403, -1185388.5, 82054.3, 0.0, 5.0550456, 4.9659476 
7.5139654e+2, 1.7563291e+2, -1146358.1, -1280226.8, -1840.1199, -0.0006254733, 0.0005252031, -1146332.9, 72464.11, 0.0, 5.052222, 4.964761 
7.5125253e+2, 1.8059586e+2, -1105869.6, -1235931.3, -2046.3121, -0.00071884133, -0.0019474294, -1105837.5, 64322.41, 0.0, 5.049421, 4.9645424 
7.511081e+2, 1.8555836e+2, -1066911.4, -1195012.0, -2413.5242, -0.0014654063, 0.0012168755, -1066865.9, 54662.055, 0.0, 5.0466285, 4.963151 
7.5096345e+2, 1.9051982e+2, -1026141.9, -1150345.1, -2723.8655, -0.0026856172, -0.0005442199, -1026082.2, 46824.063, 0.0, 5.043854, 4.9630084 
7.508185e+2, 1.9548067e+2, -987067.0, -1109458.9, -3051.5952, -0.0029781293, 0.0016192787, -986990.94, 37299.035, 0.0, 5.0411005, 4.961542 
7.506735e+2, 2.0044042e+2, -946139.3, -1064755.6, -3367.2493, -0.0029516155, -0.001100289, -946043.8, 29640.75, 0.0, 5.038368, 4.961355 
7.5052804e+2, 2.053997e+2, -906897.44, -1023958.06, -3682.0364, -0.002724509, 0.0023776093, -906781.75, 20302.291, 0.0, 5.035683, 4.959786 
7.5038254e+2, 2.1035779e+2, -865795.44, -979201.3, -3971.119, -0.0030285153, 0.0007581483, -865656.56, 12838.639, 0.0, 5.032998, 4.959556 
7.5023687e+2, 2.1531522e+2, -826539.4, -938451.4, -4284.359, -0.0032287438, 0.003999199, -826375.6, 3537.717, 0.0, 5.0303063, 4.957926 
7.500911e+2, 2.2027144e+2, -785317.4, -893425.1, -4530.581, -0.0031727967, 0.0018486658, -785127.8, -3784.6865, 0.0, 5.0276012, 4.957758 
7.499453e+2, 2.2522709e+2, -745984.75, -852361.25, -4878.8247, -0.001898277, 0.0045060627, -745761.5, -12983.737, 0.0, 5.024856, 4.9562163 
7.4979943e+2, 2.3018149e+2, -704951.6, -807545.56, -5093.8555, -0.0009588565, 0.001428318, -704699.3, -20475.182, 0.0, 5.022088, 4.955965 
7.496536e+2, 2.3513536e+2, -665520.2, -766313.0, -5321.105, -0.00077922875, 0.0044897483, -665240.0, -29563.787, 0.0, 5.0193276, 4.9544435 
7.4950755e+2, 2.4008806e+2, -624412.3, -721355.8, -5611.701, -0.000817313, 0.0014349085, -624088.56, -36948.617, 0.0, 5.0165405, 4.954211 
7.4936193e+2, 2.4504013e+2, -585052.44, -680006.44, -5648.2686, -0.00020581293, 0.0041570896, -584717.6, -46108.656, 0.0, 5.0137033, 4.952712 
7.4921626e+2, 2.4999107e+2, -544003.0, -634846.2, -5969.1675, -0.000040887768, -0.000045861965, -543612.5, -53523.273, 0.0, 5.0108266, 4.9525514 
7.49071e+2, 2.549415e+2, -504910.8, -593671.8, -5795.93, 0.00007398369, 0.003017236, -504533.94, -62959.277, 0.0, 5.0078826, 4.950992 
7.489259e+2, 2.5989094e+2, -463752.97, -547898.44, -6153.992, 0.00036700032, -0.0006167663, -463305.28, -70235.3, 0.0, 5.0049095, 4.9510484 
7.487813e+2, 2.6483974e+2, -424950.2, -507192.63, -5819.5933, 0.00022798982, 0.0024159825, -424540.44, -79969.23, 0.0, 5.0019026, 4.949302 
7.4863696e+2, 2.697877e+2, -383527.0, -460593.63, -6164.379, -0.00037368006, -0.0013191351, -383037.03, -86955.94, 0.0, 4.998864, 4.9496365 
7.484933e+2, 2.747351e+2, -345266.06, -420587.56, -5562.039, -0.0009522867, 0.0032625846, -344857.53, -97260.805, 0.0, 4.9957304, 4.947641 
7.483502e+2, 2.7968174e+2, -303636.88, -373021.88, -5899.5894, -0.0008077559, 0.00029630837, -303138.8, -104018.695, 0.0, 4.992574, 4.948325 
7.482078e+2, 2.846275e+2, -265573.8, -333206.75, -4951.1377, -0.0013925736, 0.0021450745, -265213.28, -114561.58, 0.0, 4.989364, 4.9462395 
7.4806625e+2, 2.895728e+2, -223833.92, -285032.78, -5296.517, -0.002353064, -0.002662108, -223378.9, -121191.19, 0.0, 4.9861217, 4.947135 
7.4792546e+2, 2.945182e+2, -186008.42, -245152.81, -4459.6157, -0.0010579539, 0.006720417, -185674.05, -131951.05, 0.0, 4.9827695, 4.9450874 
7.477857e+2, 2.9946244e+2, -145046.42, -198057.89, -4367.2827, 0.0007138384, 0.0022776574, -144689.05, -139419.69, 0.0, 4.9793715, 4.945625 
7.476475e+2, 3.0441293e+2, -111513.766, -137089.14, -2638.071, -0.0071802065, -0.0028756096, -111244.49, -111244.49, 0.0, 4.9762893, 4.95995 
7.475115e+2, 3.0937546e+2, -119390.234, -139262.89, -3533.1665, -0.012874441, 0.02576287, -118780.76, -118780.76, 0.0, 4.9731884, 4.9605117 
7.4737936e+2, 3.1434584e+2, -92871.6, -61793.285, -2679.199, 0.023123737, -0.038124792, -61564.008, -61564.008, 0.0, 4.9700866, 4.9900866 
7.4724126e+2, 3.1934482e+2, -83907.1, -19360.53, -3138.3481, -0.009552803, 0.079323165, -19208.299, -19208.299, 0.0, 4.9657564, 5.0075774 
7.578903e+2, 1.2611029e+2, -1531211.9, -1705329.8, 4606.745, -0.009293018, -0.004082627, -1531090.1, 173025.94, 0.0, 5.0850043, 4.9697185 
7.577506e+2, 1.3107775e+2, -1494361.5, -1663692.9, 4808.226, 0.009422008, -0.0058412277, -1494225.1, 161209.5, 0.0, 5.0812397, 4.969258 
7.576073e+2, 1.3604565e+2, -1455694.4, -1620137.4, 3481.7864, -0.00047479986, 0.00091812003, -1455620.6, 151129.4, 0.0, 5.077837, 4.9691734 
7.5746375e+2, 1.4101265e+2, -1417211.3, -1576946.8, 3273.2405, -0.004111535, -0.0038054097, -1417144.3, 140929.97, 0.0, 5.074453, 4.969006 
7.5732034e+2, 1.459798e+2, -1379003.6, -1534689.5, 2527.187, 0.00066002464, -0.0015766219, -1378962.6, 130433.63, 0.0, 5.0711217, 4.968464 
7.571761e+2, 1.5094656e+2, -1340060.4, -1491188.5, 2513.7825, 0.0017747289, -0.0017964483, -1340018.6, 120703.79, 0.0, 5.067858, 4.9683113 
7.570311e+2, 1.5591289e+2, -1301220.9, -1449092.6, 1917.9061, -0.00039995028, 0.000042522268, -1301196.0, 110856.79, 0.0, 5.064823, 4.967564 
7.5688565e+2, 1.608785e+2, -1261575.4, -1405308.9, 1735.6979, -0.0015843881, -0.0025724373, -1261554.4, 101835.766, 0.0, 5.0617957, 4.967357 
7.567399e+2, 1.6584383e+2, -1222912.6, -1363774.4, 1266.9121, 0.00033016736, 0.00066434185, -1222901.3, 91828.96, 0.0, 5.0587873, 4.96636 
7.565939e+2, 1.7080832e+2, -1182938.6, -1319726.0, 1116.4995, 0.0012326408, -0.0009057658, -1182929.6, 83148.91, 0.0, 5.05583, 4.966171 
7.5644714e+2, 1.7577226e+2, -1143949.6, -1278500.5, 782.7385, 0.0001980073, 0.0013862256, -1143945.0, 73486.83, 0.0, 5.0530167, 4.9649315 
7.563003e+2, 1.8073528e+2, -1103375.9, -1234114.8, 612.58215, -0.00042258532, -0.00078788114, -1103373.0, 65421.496, 0.0, 5.050237, 4.9647355 
7.5615305e+2, 1.8569767e+2, -1064492.6, -1193330.9, 358.00754, -0.00080689875, 0.0014888211, -1064491.6, 55671.633, 0.0, 5.047444, 4.9632993 
7.5600576e+2, 1.9065905e+2, -1023708.4, -1148636.1, 124.5633, -0.0016296678, -0.0009082768, -1023708.25, 47833.918, 0.0, 5.044672, 4.9631667 
7.5585794e+2, 1.9561988e+2, -984678.5, -1107892.1, -105.41899, -0.0018867375, 0.0017040289, -984678.44, 38247.496, 0.0, 5.041932, 4.9616456 
7.557102e+2, 2.005796e+2, -943711.94, -1063205.4, -345.10913, -0.0019117435, -0.0005037766, -943710.94, 30609.932, 0.0, 5.039222, 4.961445 
7.555621e+2, 2.0553878e+2, -904484.3, -1022561.56, -581.01013, -0.0020186782, 0.003129087, -904481.5, 21240.313, 0.0, 5.0365663, 4.9598093 
7.5541395e+2, 2.1049671e+2, -863258.0, -977668.56, -842.4952, -0.0025845354, 0.0015571365, -863251.8, 13882.835, 0.0, 5.0339103, 4.9596148 
7.552656e+2, 2.1545395e+2, -824028.06, -936989.1, -1100.706, -0.0024842203, 0.0043519977, -824017.4, 4536.808, 0.0, 5.0312243, 4.9579573 
7.551171e+2, 2.2040997e+2, -782804.0, -892003.25, -1306.3898, -0.0021510085, 0.0017753653, -782788.4, -2802.7217, 0.0, 5.0285287, 4.957773 
7.549686e+2, 2.2536545e+2, -743520.56, -851110.8, -1650.7948, -0.001034853, 0.0049336283, -743495.25, -12073.168, 0.0, 5.0257974, 4.956167 
7.548199e+2, 2.3031968e+2, -702432.9, -806264.9, -1820.8129, -0.00032263505, 0.0023275735, -702400.94, -19530.365, 0.0, 5.0230484, 4.9559197 
7.546713e+2, 2.3527326e+2, -662996.75, -765097.9, -2038.9058, -0.00044601486, 0.0049542966, -662956.06, -28630.658, 0.0, 5.020303, 4.954372 
7.545225e+2, 2.4022563e+2, -621877.25, -720129.1, -2294.4565, -0.00064604316, 0.0015362914, -621823.7, -36031.668, 0.0, 5.0175195, 4.954144 
7.54374e+2, 2.4517746e+2, -582606.94, -678905.5, -2374.2253, 0.00012358595, 0.004470014, -582548.44, -45284.82, 0.0, 5.014668, 4.9526086 
7.542255e+2, 2.5012812e+2, -541595.06, -633742.6, -2682.2805, 0.0004902146, 0.00040076746, -541517.06, -52770.484, 0.0, 5.011773, 4.95246 
7.5407726e+2, 2.5507826e+2, -502565.0, -592627.25, -2555.5322, 0.0005039986, 0.0033378545, -502492.53, -62257.7, 0.0, 5.008811, 4.9508905 
7.539292e+2, 2.6002735e+2, -461455.56, -546875.94, -2887.1055, 0.0006496788, -0.00053676666, -461358.1, -69624.87, 0.0, 5.0058217, 4.950948 
7.5378156e+2, 2.6497585e+2, -422753.44, -506243.6, -2596.7388, 0.000445541, 0.002462613, -422672.75, -79435.33, 0.0, 5.002785, 4.9491925 
7.5363415e+2, 2.699235e+2, -381402.72, -459646.03, -2952.6543, -0.000014975284, -0.0011405719, -381291.47, -86541.2, 0.0, 4.999714, 4.9495425 
7.5348735e+2, 2.7487066e+2, -343227.4, -419647.72, -2403.3577, -0.0006352977, 0.0034672068, -343151.9, -96883.61, 0.0, 4.996542, 4.947563 
7.533411e+2, 2.7981701e+2, -301720.5, -372118.53, -2678.1372, -0.00060590444, 0.0003424076, -301618.75, -103824.46, 0.0, 4.9933386, 4.9482574 
7.531956e+2, 2.8476238e+2, -263948.3, -332478.34, -1905.6045, -0.0006934346, 0.0009903517, -263895.38, -114565.375, 0.0, 4.990033, 4.9461546 
7.5305074e+2, 2.8970736e+2, -222366.69, -284276.6, -2298.2627, -0.001128073, -0.0047148084, -222281.48, -121411.79, 0.0, 4.9867144, 4.947095 
7.529065e+2, 2.9465312e+2, -184001.27, -244159.9, -1321.1626, -0.0021328528, 0.010718075, -183972.27, -131571.84, 0.0, 4.983556, 4.94505 
7.527633e+2, 2.9959762e+2, -142891.02, -197465.39, -1113.7479, -0.0022860174, 0.011750288, -142868.3, -138924.89, 0.0, 4.9803, 4.945386 
7.526223e+2, 3.04545e+2, -111879.32, -138282.23, -298.76596, -0.0027560492, -0.01834319, -111875.945, -111875.945, 0.0, 4.9764333, 4.959415 
7.5248355e+2, 3.0950472e+2, -121258.38, -138806.69, -1466.0265, -0.0012139531, -0.012431261, -121136.75, -121136.75, 0.0, 4.9723496, 4.9609933 
7.523449e+2, 3.1448835e+2, -89750.6, -55296.977, -2244.9604, 0.0038441373, 0.037847724, -55151.313, -55151.313, 0.0, 4.9702935, 4.9923363 
7.5220585e+2, 3.1946614e+2, -75596.89, -6913.009, -1432.9762, -0.010165122, -0.08239896, -6883.1255, -6883.1255, 0.0, 4.9672203, 5.011438 
7.629735e+2, 1.2625134e+2, -1532216.1, -1705460.6, 3898.4856, -0.004604852, -0.0036141616, -1532128.4, 170605.9, 0.0, 5.0845423, 4.969917 
7.628294e+2, 1.3121898e+2, -1493732.8, -1663022.1, 3861.1228, 0.005065018, -0.004933079, -1493644.6, 160405.92, 0.0, 5.0813427, 4.9694486 
7.626829e+2, 1.3618699e+2, -1455551.1, -1619676.1, 2713.2854, -0.0021192653, 0.0015873227, -1455506.3, 149859.05, 0.0, 5.07777, 4.969375 
7.6253617e+2, 1.4115411e+2, -1417410.8, -1576648.1, 2603.0479, -0.0033194555, -0.0033065623, -1417368.3, 139320.25, 0.0, 5.0742674, 4.969211 
7.623894e+2, 1.461214e+2, -1378847.5, -1534252.9, 1922.6582, 0.0010314389, -0.0010883174, -1378823.6, 129185.63, 0.0, 5.0710697, 4.9686503 
7.622419e+2, 1.5108827e+2, -1339617.8, -1490558.8, 1888.9462, 0.0014992101, -0.0012865871, -1339594.1, 119740.04, 0.0, 5.067894, 4.968521 
7.6209366e+2, 1.5605474e+2, -1300961.5, -1448609.0, 1350.9083, -0.0009580983, 0.00057720963, -1300949.3, 109713.836, 0.0, 5.064809, 4.9677477 
7.6194525e+2, 1.6102046e+2, -1261371.9, -1404851.0, 1093.7279, -0.0019809413, -0.0020156263, -1261363.5, 100635.72, 0.0, 5.061762, 4.9675426 
7.6179665e+2, 1.6598588e+2, -1222577.6, -1363365.4, 639.955, 0.00056260545, 0.0011102889, -1222574.6, 90763.86, 0.0, 5.058825, 4.966495 
7.6164764e+2, 1.7095046e+2, -1182427.4, -1319237.3, 460.84097, 0.0018677944, -0.0004314645, -1182425.8, 82260.35, 0.0, 5.0559287, 4.966305 
7.6149803e+2, 1.759145e+2, -1143483.3, -1278158.6, 165.13268, 0.00069529185, 0.002250943, -1143483.0, 72555.75, 0.0, 5.053127, 4.9650097 
7.613484e+2, 1.8087755e+2, -1102859.0, -1233708.5, -101.21998, -0.000046486974, 0.00024375817, -1102859.0, 64542.047, 0.0, 5.0503554, 4.9648333 
7.611984e+2, 1.8583992e+2, -1064000.9, -1193053.9, -381.46744, -0.00007959033, 0.0019789562, -1063999.8, 54770.082, 0.0, 5.0475783, 4.963347 
7.610483e+2, 1.9080125e+2, -1023165.3, -1148347.4, -675.81134, -0.0005466765, -0.0007353792, -1023161.6, 46987.258, 0.0, 5.044826, 4.9632106 
7.608978e+2, 1.957621e+2, -984136.5, -1107749.0, -948.3031, -0.00087102863, 0.0022647826, -984129.25, 37403.383, 0.0, 5.0421157, 4.961626 
7.607474e+2, 2.0072177e+2, -943126.7, -1063066.0, -1240.4503, -0.000992978, 0.00040296488, -943113.9, 29814.127, 0.0, 5.0394244, 4.9614162 
7.605966e+2, 2.0568083e+2, -904020.94, -1022627.3, -1495.216, -0.0013339901, 0.003944624, -904002.1, 20328.145, 0.0, 5.036756, 4.9597163 
7.604457e+2, 2.1063864e+2, -862798.5, -977676.4, -1823.075, -0.0020586743, 0.0022566002, -862769.56, 12974.919, 0.0, 5.0340853, 4.95955 
7.602947e+2, 2.1559575e+2, -823644.1, -937111.4, -2156.0635, -0.0016359342, 0.0047777053, -823603.2, 3561.8635, 0.0, 5.031388, 4.957859 
7.601436e+2, 2.205516e+2, -782473.25, -892210.7, -2442.2346, -0.0010797756, 0.001831035, -782418.9, -3820.9453, 0.0, 5.028685, 4.95765 
7.5999224e+2, 2.2550692e+2, -743230.94, -851492.4, -2867.8076, -0.00030259532, 0.0053970516, -743155.0, -13118.875, 0.0, 5.0259695, 4.955977 
7.5984085e+2, 2.3046097e+2, -702097.6, -806597.2, -3076.4707, 0.00005007347, 0.0032493952, -702007.1, -20520.541, 0.0, 5.0232296, 4.9557433 
7.5968933e+2, 2.354143e+2, -662775.1, -765586.1, -3407.531, -0.00026302686, 0.005438588, -662662.3, -29718.49, 0.0, 5.020462, 4.9541526 
7.5953776e+2, 2.4036637e+2, -621713.3, -720627.9, -3728.2307, -0.00050160725, 0.0016061839, -621573.0, -37159.89, 0.0, 5.0176544, 4.9539323 
7.593865e+2, 2.4531798e+2, -582502.1, -679528.75, -3957.383, 0.00035940946, 0.004805885, -582341.0, -46454.016, 0.0, 5.0147986, 4.952357 
7.59235e+2, 2.502684e+2, -541470.7, -634301.25, -4330.101, 0.00084901525, 0.0008894953, -541269.1, -53896.707, 0.0, 5.0118985, 4.9522333 
7.5908387e+2, 2.5521824e+2, -502492.28, -593294.56, -4335.493, 0.000792307, 0.0036385274, -502285.72, -63422.445, 0.0, 5.008932, 4.9506297 
7.589328e+2, 2.6016706e+2, -461414.2, -547567.4, -4708.5317, 0.00075763545, -0.0005148075, -461157.63, -70793.164, 0.0, 5.005932, 4.9506836 
7.587821e+2, 2.651153e+2, -422731.6, -506931.4, -4548.889, 0.00046710888, 0.0025218953, -422486.56, -80615.195, 0.0, 5.0028825, 4.948936 
7.5863165e+2, 2.7006269e+2, -381419.7, -460344.66, -4957.771, 0.00016963319, -0.0009766417, -381109.47, -87722.516, 0.0, 4.999795, 4.94929 
7.5848174e+2, 2.7500948e+2, -343195.0, -420209.9, -4576.24, -0.00030297032, 0.0027233472, -342924.03, -98016.42, 0.0, 4.996614, 4.947364 
7.5833225e+2, 2.7995554e+2, -301795.63, -372850.63, -4899.2207, -0.0002569846, -0.0012587747, -301459.4, -105023.13, 0.0, 4.9933953, 4.9480047 
7.581835e+2, 2.8490078e+2, -264082.1, -333344.22, -4298.386, -0.0002636956, 0.0010121474, -263816.38, -115842.7, 0.0, 4.990085, 4.945859 
7.5803536e+2, 2.8984565e+2, -222400.03, -284851.56, -4613.765, -0.0006528103, -0.003119552, -222061.02, -122546.11, 0.0, 4.9867535, 4.9469085 
7.578879e+2, 2.947909e+2, -183878.56, -244369.16, -3633.2378, -0.0023816407, 0.008300066, -183661.13, -132611.88, 0.0, 4.983588, 4.9449987 
7.577414e+2, 2.9973486e+2, -143359.25, -199013.83, -3728.784, -0.0027256117, 0.00544821, -143110.53, -140513.84, 0.0, 4.980327, 4.9448595 
7.5759697e+2, 3.046824e+2, -112945.61, -141346.61, -3192.2666, -0.00035785904, -0.01363977, -112591.23, -112591.23, 0.0, 4.9764857, 4.9583263 
7.5745434e+2, 3.0964258e+2, -120450.85, -137904.36, -4128.064, 0.0016816263, 0.0047314367, -119523.734, -119523.734, 0.0, 4.972469, 4.9613047 
7.5731194e+2, 3.1462386e+2, -86470.82, -49300.348, -2341.9194, -0.0044396906, 0.01762811, -49153.375, -49153.375, 0.0, 4.970519, 4.9944825 
7.57173e+2, 3.1961116e+2, -87333.7, -36364.66, -463.28125, 0.003952536, 0.0018485287, -36360.453, -36360.453, 0.0, 4.967583, 5.0004644 
7.680576e+2, 1.2639719e+2, -1528409.3, -1702761.1, 5595.3223, 0.005998325, -0.0023789266, -1528229.9, 173076.28, 0.0, 5.0857263, 4.9702134 
7.679076e+2, 1.3136512e+2, -1490510.1, -1660428.8, 5212.2446, -0.010087333, -0.0024875642, -1490350.4, 162269.08, 0.0, 5.08229, 4.969825 
7.6775867e+2, 1.3633321e+2, -1452386.8, -1617002.6, 4172.413, -0.0046194363, 0.0022501084, -1452281.0, 151652.08, 0.0, 5.0786805, 4.9697967 
7.6760924e+2, 1.4130045e+2, -1414469.4, -1574247.4, 4283.409, 0.0027650883, -0.003786459, -1414354.6, 140900.22, 0.0, 5.075139, 4.9695625 
7.6745874e+2, 1.4626795e+2, -1376132.9, -1532072.5, 3852.3267, 0.0018489654, -0.0010688537, -1376037.8, 130535.89, 0.0, 5.0718927, 4.9689517 
7.673077e+2, 1.5123503e+2, -1336956.3, -1488318.4, 3892.2473, -0.0014349888, -0.00073562976, -1336856.3, 121040.26, 0.0, 5.068684, 4.9688597 
7.671566e+2, 1.5620166e+2, -1298435.6, -1446483.1, 3540.696, -0.0012366972, 0.0013411981, -1298351.0, 110872.52, 0.0, 5.065568, 4.968063 
7.670053e+2, 1.6116755e+2, -1258906.5, -1402764.1, 3394.2205, -0.00024045467, -0.0011575177, -1258826.5, 101731.734, 0.0, 5.0625052, 4.9678535 
7.668536e+2, 1.6613305e+2, -1220200.0, -1361434.0, 3135.9233, 0.0010407434, 0.0016722204, -1220130.4, 91766.44, 0.0, 5.059568, 4.966753 
7.6670164e+2, 1.7109767e+2, -1180011.6, -1317288.5, 3058.048, 0.0012980506, -0.00018440402, -1179943.5, 83300.45, 0.0, 5.0566874, 4.966563 
7.665493e+2, 1.7606172e+2, -1141131.1, -1276354.5, 2933.3115, 0.00079284736, 0.002228615, -1141067.5, 73528.85, 0.0, 5.0538936, 4.9652147 
7.66397e+2, 1.8102479e+2, -1100436.8, -1231817.6, 2707.1882, 0.00074427016, 0.00019936626, -1100381.0, 65577.414, 0.0, 5.051138, 4.9650617 
7.662443e+2, 1.8598726e+2, -1061599.3, -1191283.5, 2546.8682, 0.000976872, 0.0024934153, -1061549.3, 55777.184, 0.0, 5.0483823, 4.963525 
7.660914e+2, 1.909486e+2, -1020712.5, -1146611.5, 2336.594, 0.00062452134, 0.00032614544, -1020669.2, 48036.145, 0.0, 5.045662, 4.963363 
7.659382e+2, 1.9590938e+2, -981679.4, -1106168.8, 2165.5808, 0.000007653495, 0.003398288, -981641.75, 38448.313, 0.0, 5.0429897, 4.961708 
7.6578504e+2, 2.0086895e+2, -940527.56, -1061362.9, 1927.9661, -0.00027798134, 0.0013476763, -940496.8, 30989.938, 0.0, 5.0403385, 4.9615235 
7.656316e+2, 2.058278e+2, -901429.25, -1021015.2, 1751.6729, -0.00042220845, 0.004181964, -901403.56, 21486.832, 0.0, 5.0376906, 4.9597826 
7.654781e+2, 2.1078543e+2, -860132.25, -976026.44, 1461.96, -0.0010116008, 0.0019612317, -860113.8, 14192.385, 0.0, 5.0350466, 4.9596195 
7.6532435e+2, 2.1574241e+2, -821004.7, -935595.4, 1173.3378, -0.00062527723, 0.004893915, -820992.7, 4735.1055, 0.0, 5.0323663, 4.9578753 
7.651705e+2, 2.2069809e+2, -779775.5, -890699.56, 936.3326, -0.00020943726, 0.0022579348, -779767.6, -2605.4, 0.0, 5.0296907, 4.957654 
7.650165e+2, 2.2565316e+2, -740494.56, -850116.7, 548.8277, -0.00013180499, 0.005550648, -740491.8, -11888.69, 0.0, 5.02702, 4.9559155 
7.6486224e+2, 2.3060693e+2, -699255.8, -805170.8, 372.0712, -0.00019361849, 0.0032951597, -699254.5, -19198.098, 0.0, 5.0243177, 4.955684 
7.6470804e+2, 2.3556001e+2, -660001.9, -764287.25, -4.9457326, -0.0000923309, 0.005846528, -660001.9, -28485.887, 0.0, 5.021543, 4.954056 
7.645537e+2, 2.405118e+2, -618989.8, -719360.7, -275.72412, 0.000032229844, 0.0021749951, -618989.06, -36000.97, 0.0, 5.018721, 4.953833 
7.643995e+2, 2.4546307e+2, -579837.0, -678373.4, -547.64514, 0.0004899742, 0.0052905474, -579834.0, -45368.637, 0.0, 5.01586, 4.9522257 
7.642451e+2, 2.5041312e+2, -538802.3, -633118.0, -892.74, 0.00063744636, 0.0013108427, -538793.9, -52839.57, 0.0, 5.012956, 4.9521155 
7.64091e+2, 2.5536266e+2, -499873.3, -592173.6, -950.5479, 0.00064595375, 0.0041048834, -499863.5, -62415.203, 0.0, 5.0099797, 4.9504967 
7.6393694e+2, 2.6031113e+2, -458846.94, -546475.06, -1314.0646, 0.0007679397, -0.000008810394, -458827.22, -69874.47, 0.0, 5.006962, 4.9505515 
7.637832e+2, 2.6525903e+2, -420283.84, -505892.53, -1198.0948, 0.0004148072, 0.0028945457, -420267.06, -79804.05, 0.0, 5.0038676, 4.9488077 
7.636296e+2, 2.7020606e+2, -379116.5, -459398.22, -1591.731, 0.00014562241, -0.0007362483, -379084.94, -87102.83, 0.0, 5.000734, 4.949152 
7.634765e+2, 2.7515256e+2, -340978.72, -419253.66, -1300.596, 0.000033353706, 0.003209271, -340957.13, -97451.32, 0.0, 4.99751, 4.947252 
7.6332384e+2, 2.800983e+2, -299726.88, -372002.06, -1641.7113, 0.00028239432, -0.00055815815, -299689.6, -104652.08, 0.0, 4.994247, 4.947876 
7.631717e+2, 2.8504315e+2, -262014.89, -332459.2, -1078.9319, -0.00014781184, 0.0012199015, -261998.38, -115420.02, 0.0, 4.9909277, 4.9457507 
7.630202e+2, 2.8998765e+2, -220412.22, -283985.6, -1306.3501, -0.00069564814, -0.0031837078, -220385.38, -122262.48, 0.0, 4.987564, 4.94681 
7.6286966e+2, 2.9493263e+2, -182646.0, -243874.69, -576.78455, -0.0012147538, 0.008902853, -182640.56, -132980.19, 0.0, 4.984133, 4.9448853 
7.627199e+2, 2.998763e+2, -142707.05, -198641.8, -896.5569, -0.00047747104, 0.0058168983, -142692.67, -141481.38, 0.0, 4.980637, 4.9448056 
7.625716e+2, 3.0482343e+2, -111494.336, -140732.0, 184.18266, 0.0003256347, -0.014796514, -111493.18, -111493.18, 0.0, 4.977098, 4.958235 
7.62425e+2, 3.0978328e+2, -118582.61, -137590.3, 598.9942, 0.0007495283, 0.0047571827, -118563.75, -118563.75, 0.0, 4.9733267, 4.960995 
7.6227975e+2, 3.1476316e+2, -86418.99, -50528.58, -3068.3877, -0.0060380455, 0.008179156, -50268.14, -50268.14, 0.0, 4.9708557, 4.9938445 
7.6213825e+2, 3.197524e+2, -83025.33, -21493.861, -1149.7521, 0.00037209425, 0.0007901927, -21472.387, -21472.387, 0.0, 4.9667754, 5.0061803 
7.7314055e+2, 1.2654586e+2, -1527676.4, -1702041.5, 4702.405, -0.0007890859, -0.0016808156, -1527549.8, 172300.17, 0.0, 5.085861, 4.9704056 
7.7298784e+2, 1.3151406e+2, -1492136.6, -1660677.8, 4513.671, -0.0047145616, -0.000643243, -1492015.8, 159144.97, 0.0, 5.081573, 4.9701066 
7.72835e+2, 1.3648224e+2, -1452806.0, -1616532.9, 3653.375, -0.0042370516, 0.0027247807, -1452724.6, 149748.61, 0.0, 5.0783567, 4.9701257 
7.726821e+2, 1.4144963e+2, -1414081.5, -1573507.3, 3664.7969, 0.0016081305, -0.004134944, -1413997.4, 139795.84, 0.0, 5.075122, 4.9698343 
7.725283e+2, 1.464174e+2, -1375940.4, -1531506.6, 3313.496, 0.0014036951, -0.0005391756, -1375869.9, 129239.61, 0.0, 5.07183, 4.9691863 
7.72374e+2, 1.5138471e+2, -1336816.9, -1487741.1, 3307.4893, -0.0019440997, 0.00042179791, -1336744.5, 119685.72, 0.0, 5.0685945, 4.9691114 
7.722199e+2, 1.5635149e+2, -1298265.3, -1445963.8, 2980.7026, -0.0010030409, 0.0023591067, -1298205.1, 109550.75, 0.0, 5.065507, 4.96828 
7.7206564e+2, 1.613175e+2, -1258597.9, -1402168.9, 2793.7214, 0.0007314024, -0.0002878602, -1258543.6, 100545.695, 0.0, 5.0624895, 4.9680753 
7.719109e+2, 1.6628313e+2, -1219758.6, -1360886.0, 2596.2712, 0.0011908563, 0.002403977, -1219710.9, 90715.72, 0.0, 5.0596247, 4.966924 
7.71756e+2, 1.7124784e+2, -1179425.0, -1316681.9, 2468.1855, 0.0007957081, 0.00037374723, -1179380.6, 82392.11, 0.0, 5.0567956, 4.966731 
7.7160096e+2, 1.7621195e+2, -1140632.4, -1275928.5, 2378.0627, 0.00092507707, 0.0025776443, -1140590.6, 72533.99, 0.0, 5.054002, 4.965322 
7.714459e+2, 1.8117508e+2, -1099914.9, -1231377.5, 2063.8323, 0.0014972631, 0.0005887452, -1099882.5, 64603.64, 0.0, 5.0512524, 4.965172 
7.712904e+2, 1.861376e+2, -1061065.0, -1190971.4, 1866.851, 0.0018867081, 0.0033711242, -1061038.1, 54815.438, 0.0, 5.0485306, 4.9635763 
7.711349e+2, 1.91099e+2, -1020112.8, -1146319.9, 1597.1349, 0.0015629389, 0.0015721128, -1020092.56, 47139.6, 0.0, 5.0458426, 4.963394 
7.709789e+2, 1.9605969e+2, -981114.06, -1106049.0, 1421.4984, 0.0007551852, 0.004491578, -981097.9, 37519.88, 0.0, 5.04319, 4.9616714 
7.708231e+2, 2.0101915e+2, -939919.2, -1061188.6, 1124.9783, 0.00038455438, 0.0021450382, -939908.75, 30106.725, 0.0, 5.0405455, 4.9615035 
7.706671e+2, 2.0597787e+2, -900929.5, -1021002.25, 898.4003, 0.00045337252, 0.0044981046, -900922.75, 20497.385, 0.0, 5.0378823, 4.959716 
7.705109e+2, 2.1093535e+2, -859669.5, -976053.0, 522.3604, -0.000040482977, 0.0018122888, -859667.1, 13170.046, 0.0, 5.0352283, 4.9595447 
7.7035445e+2, 2.1589221e+2, -820586.1, -935781.1, 155.23257, 0.00019802873, 0.0050680707, -820585.9, 3673.9675, 0.0, 5.0325594, 4.95774 
7.701979e+2, 2.2084774e+2, -779358.75, -890915.44, -145.30096, 0.0004037938, 0.002778901, -779358.56, -3662.843, 0.0, 5.029888, 4.9575076 
7.7004105e+2, 2.2580257e+2, -740195.4, -850533.44, -606.58746, -0.00016561557, 0.005791507, -740192.0, -13052.997, 0.0, 5.027203, 4.9557076 
7.6988417e+2, 2.3075609e+2, -699020.25, -805647.7, -858.0867, -0.00056678493, 0.003317547, -699013.3, -20418.389, 0.0, 5.024484, 4.955464 
7.6972723e+2, 2.3570895e+2, -659811.25, -764827.2, -1391.9081, -0.00000034594305, 0.0063402494, -659792.8, -29736.223, 0.0, 5.0216994, 4.953819 
7.6957005e+2, 2.4066049e+2, -618853.75, -719976.1, -1707.686, 0.00042816918, 0.0029029753, -618824.94, -37293.71, 0.0, 5.018867, 4.9535747 
7.6941293e+2, 2.4561144e+2, -579727.0, -679063.0, -2122.2856, 0.00040705423, 0.005879337, -579681.7, -46670.11, 0.0, 5.0160046, 4.951945 
7.6925564e+2, 2.505612e+2, -538715.2, -633820.25, -2522.4922, 0.0001560268, 0.0018069986, -538648.4, -54144.54, 0.0, 5.013092, 4.951835 
7.690986e+2, 2.5551042e+2, -499824.66, -592948.7, -2736.559, 0.00024456, 0.0046844357, -499744.3, -63743.656, 0.0, 5.0101085, 4.9501953 
7.6894146e+2, 2.604586e+2, -458811.47, -547225.5, -3170.314, 0.0005669913, 0.0006524064, -458697.94, -71189.8, 0.0, 5.0070786, 4.9502645 
7.687846e+2, 2.6540616e+2, -420273.34, -506682.47, -3195.5894, 0.00021050901, 0.0034005418, -420155.34, -81133.984, 0.0, 5.0039773, 4.9485106 
7.6862794e+2, 2.7035287e+2, -379139.13, -460202.8, -3659.0654, -0.0000572827, -0.00041209324, -378974.28, -88430.74, 0.0, 5.0008297, 4.948856 
7.6847166e+2, 2.7529916e+2, -341042.2, -420119.38, -3514.676, 0.00026780533, 0.0043307664, -340886.28, -98816.55, 0.0, 4.997596, 4.9469414 
7.6831573e+2, 2.8024462e+2, -299806.03, -372832.1, -3914.5984, 0.0006889614, 0.001292185, -299596.78, -105992.7, 0.0, 4.994317, 4.9475856 
7.681602e+2, 2.8518906e+2, -262052.23, -333189.34, -3469.356, -0.00053639314, 0.0014000783, -261883.44, -116734.984, 0.0, 4.9909925, 4.945501 
7.680054e+2, 2.9013315e+2, -220613.69, -285016.2, -3766.4004, -0.0013803015, -0.004199365, -220394.17, -123697.664, 0.0, 4.987612, 4.9464607 
7.6785165e+2, 2.9507816e+2, -182933.1, -245073.95, -3113.5547, 0.0008100229, 0.011802343, -182777.47, -134541.3, 0.0, 4.9841704, 4.944482 
7.676986e+2, 3.0002177e+2, -142432.83, -198533.45, -3500.344, 0.0031558853, 0.011159811, -142215.27, -142215.27, 0.0, 4.9806705, 4.9448705 
7.6754624e+2, 3.049681e+2, -110475.04, -139203.22, -2288.4712, -0.001591916, -0.021619054, -110293.88, -110293.88, 0.0, 4.9771857, 4.958789 
7.6739556e+2, 3.0992728e+2, -119807.32, -141645.52, -2050.509, -0.0073784655, -0.0092224935, -119616.45, -119616.45, 0.0, 4.973491, 4.9595046 
7.672494e+2, 3.1490725e+2, -90494.6, -61623.53, -3691.298, 0.008225745, 0.033728182, -61159.055, -61159.055, 0.0, 4.9710975, 4.989725 
7.671032e+2, 3.198928e+2, -78475.97, -11981.574, -2401.246, 0.0015329432, 0.015208056, -11894.974, -11894.974, 0.0, 4.966873, 5.009717 
7.782231e+2, 1.266994e+2, -1524891.9, -1699796.6, 5198.0845, -0.014626055, -0.0016743175, -1524737.5, 173608.03, 0.0, 5.086697, 4.9707136 
7.780694e+2, 1.3166791e+2, -1488960.4, -1658000.0, 5939.2793, 0.01439401, 0.00042440082, -1488752.0, 160901.8, 0.0, 5.0824876, 4.970525 
7.779115e+2, 1.3663623e+2, -1449903.6, -1613909.1, 5508.089, -0.0027935463, 0.0025536516, -1449718.9, 151245.6, 0.0, 5.079167, 4.970577 
7.7775437e+2, 1.4160386e+2, -1411481.4, -1571124.5, 5425.6133, -0.005993357, -0.0048259315, -1411297.3, 140984.94, 0.0, 5.0758533, 4.9702435 
7.7759796e+2, 1.4657193e+2, -1373489.8, -1529252.5, 5271.07, 0.00035148737, -0.000049748323, -1373311.6, 130283.65, 0.0, 5.0725303, 4.9695654 
7.774407e+2, 1.5153952e+2, -1334433.8, -1485523.5, 5393.791, 0.0003869004, 0.001621054, -1334241.5, 120672.01, 0.0, 5.0692754, 4.9694896 
7.772834e+2, 1.5650642e+2, -1296004.3, -1443894.6, 5287.494, -0.00016176651, 0.00300706, -1295815.5, 110422.95, 0.0, 5.066172, 4.968615 
7.77126e+2, 1.6147256e+2, -1256295.9, -1400015.9, 5246.356, 0.0008221059, -0.000064852626, -1256104.6, 101466.14, 0.0, 5.063159, 4.9684377 
7.7696836e+2, 1.6643834e+2, -1217504.6, -1358852.4, 5262.618, 0.0011200749, 0.002678642, -1217308.9, 91597.305, 0.0, 5.0603056, 4.96724 
7.7681065e+2, 1.714032e+2, -1177108.3, -1314607.6, 5195.777, 0.0006701952, 0.00079438364, -1176912.1, 83338.58, 0.0, 5.0574994, 4.9670515 
7.766529e+2, 1.763674e+2, -1138348.6, -1273996.1, 5273.4893, 0.0013790878, 0.0030150202, -1138143.9, 73457.72, 0.0, 5.054727, 4.9655843 
7.7649516e+2, 1.8133059e+2, -1097594.3, -1229503.0, 5031.717, 0.0023287816, 0.0011899285, -1097402.6, 65559.9, 0.0, 5.0520086, 4.965401 
7.7633697e+2, 1.8629314e+2, -1058735.9, -1189231.9, 4962.4653, 0.0025664868, 0.0042874487, -1058547.5, 55782.727, 0.0, 5.049325, 4.9637403 
7.761788e+2, 1.9125448e+2, -1017614.1, -1144461.5, 4769.691, 0.0021037855, 0.002418538, -1017435.06, 48274.348, 0.0, 5.0466905, 4.9635763 
7.760203e+2, 1.9621506e+2, -978558.25, -1104277.8, 4705.9175, 0.001432056, 0.004635935, -978382.3, 38713.496, 0.0, 5.0440855, 4.961802 
7.758618e+2, 2.011744e+2, -937229.5, -1059357.9, 4443.8853, 0.0012201677, 0.0018634596, -937068.0, 31426.395, 0.0, 5.041491, 4.9616337 
7.757031e+2, 2.0613302e+2, -898247.75, -1019301.1, 4291.6787, 0.0011833374, 0.0045305807, -898095.75, 21803.947, 0.0, 5.038855, 4.9597883 
7.755442e+2, 2.1109036e+2, -856896.0, -974356.3, 3966.3938, 0.00050166337, 0.0020003282, -856762.25, 14555.681, 0.0, 5.0362434, 4.959598 
7.753851e+2, 2.1604702e+2, -817766.0, -934230.75, 3647.1409, 0.00035847124, 0.0051540136, -817651.9, 5091.017, 0.0, 5.0336275, 4.95772 
7.752259e+2, 2.2100233e+2, -776397.9, -889290.25, 3374.2197, 0.00035018538, 0.0029283122, -776297.1, -2115.9949, 0.0, 5.0310044, 4.957494 
7.7506644e+2, 2.2595689e+2, -737221.25, -849014.94, 2935.7144, -0.0002759921, 0.006061137, -737144.2, -11517.484, 0.0, 5.028344, 4.955648 
7.7490675e+2, 2.3091011e+2, -695998.06, -804136.56, 2702.0242, -0.00071170623, 0.003379006, -695930.56, -18845.092, 0.0, 5.025649, 4.955394 
7.74747e+2, 2.3586266e+2, -656824.94, -763459.25, 2144.03, -0.00029045602, 0.006295601, -656781.8, -28231.365, 0.0, 5.0228763, 4.953697 
7.7458704e+2, 2.4081385e+2, -615842.25, -718601.3, 1880.09, 0.000015468651, 0.0030113668, -615807.9, -35779.438, 0.0, 5.020055, 4.9534535 
7.74427e+2, 2.457645e+2, -576708.1, -677732.44, 1425.502, -0.00020679587, 0.006144416, -576688.0, -45175.875, 0.0, 5.0172005, 4.951809 
7.742668e+2, 2.5071386e+2, -535709.0, -632526.4, 1061.7964, -0.0005274289, 0.0020440165, -535697.4, -52689.184, 0.0, 5.0142903, 4.9516873 
7.741067e+2, 2.5566268e+2, -496896.7, -591793.0, 771.427, -0.0005563587, 0.0049247826, -496890.44, -62381.418, 0.0, 5.0112967, 4.9500084 
7.739465e+2, 2.6061043e+2, -455883.72, -546012.1, 357.04675, -0.00033243556, 0.001071587, -455882.28, -69861.77, 0.0, 5.0082555, 4.9501047 
7.737866e+2, 2.6555768e+2, -417429.72, -505564.8, 248.74062, -0.00055381015, 0.0041922526, -417429.03, -79891.84, 0.0, 5.005133, 4.948329 
7.7362674e+2, 2.7050397e+2, -376370.8, -459128.6, -208.51932, -0.0006735449, 0.00043353008, -376370.28, -87307.07, 0.0, 5.001961, 4.9486732 
7.7346724e+2, 2.754498e+2, -338294.6, -418995.38, -155.86024, -0.0005837042, 0.004218962, -338294.28, -97700.11, 0.0, 4.9987044, 4.946791 
7.7330804e+2, 2.8039482e+2, -297168.22, -371819.63, -516.08344, -0.00017451451, 0.0009289146, -297164.63, -105032.0, 0.0, 4.995399, 4.9474096 
7.731493e+2, 2.8533912e+2, -259381.7, -332065.13, -139.43034, -0.00037830367, 0.003221497, -259381.44, -115703.11, 0.0, 4.992066, 4.9453716 
7.7299106e+2, 2.9028293e+2, -218062.42, -283953.1, -522.4463, -0.0005568662, -0.0016370851, -218058.28, -122829.19, 0.0, 4.9886427, 4.9463325 
7.728337e+2, 2.9522696e+2, -180961.02, -244174.78, 175.08391, -0.00010656792, 0.008306019, -180960.53, -134182.06, 0.0, 4.9849734, 4.9443974 
7.72677e+2, 3.0016994e+2, -141019.23, -198041.94, -11.919977, 0.0017211586, 0.0050231717, -141019.23, -141019.23, 0.0, 4.9813037, 4.944716 
7.7252173e+2, 3.0511755e+2, -108098.305, -138412.84, -358.70328, 0.0012359092, -0.011050273, -108094.06, -108094.06, 0.0, 4.9781895, 4.958586 
7.723677e+2, 3.1007716e+2, -117546.58, -142001.94, -397.79013, -0.0030955446, 0.010324665, -117540.11, -117540.11, 0.0, 4.9746575, 4.9588203 
7.722172e+2, 3.150511e+2, -91433.15, -64506.188, -761.31525, 0.005039895, 0.0025692421, -64484.68, -64484.68, 0.0, 4.9713287, 4.9885173 
7.7206844e+2, 3.2003674e+2, -70482.945, 12629.32, 407.6711, 0.009666195, -0.030979235, 12631.319, 12631.319, 0.0, 4.9657397, 5.0192537 
7.833073e+2, 1.2685606e+2, -1526211.4, -1699760.3, 4646.464, -0.011417837, -0.000034075703, -1526087.0, 170724.22, 0.0, 5.086049, 4.9710608 
7.8314954e+2, 1.3182439e+2, -1487884.8, -1656928.0, 5283.0654, 0.013071523, -0.0018870177, -1487719.8, 160400.39, 0.0, 5.0827003, 4.970799 
7.82988e+2, 1.3679323e+2, -1449922.9, -1613348.8, 4893.591, -0.0037282652, 0.0034793536, -1449776.5, 149649.84, 0.0, 5.0790033, 4.970859 
7.8282756e+2, 1.4176121e+2, -1411943.3, -1570660.0, 4732.7466, -0.0062782047, -0.002490734, -1411802.3, 138938.48, 0.0, 5.075511, 4.97058 
7.82668e+2, 1.4672944e+2, -1373527.4, -1528606.6, 4706.5483, 0.00069030473, 0.0012170597, -1373384.6, 128667.68, 0.0, 5.0723457, 4.969884 
7.8250754e+2, 1.5169722e+2, -1334152.3, -1484741.6, 4799.6846, 0.0008844723, 0.0023235418, -1333999.5, 119369.234, 0.0, 5.069206, 4.9697986 
7.82347e+2, 1.5666434e+2, -1295700.6, -1443204.8, 4794.303, -0.00006814396, 0.0037486178, -1295545.0, 109146.66, 0.0, 5.0661354, 4.968877 
7.821867e+2, 1.6163066e+2, -1255867.0, -1399256.1, 4777.0996, 0.00090515654, 0.00059182773, -1255708.1, 100314.016, 0.0, 5.0631638, 4.968704 
7.8202623e+2, 1.665966e+2, -1217042.4, -1358208.4, 4849.065, 0.0011725477, 0.0032216366, -1216876.1, 90479.695, 0.0, 5.060353, 4.9674473 
7.818657e+2, 1.715616e+2, -1176583.3, -1313956.0, 4673.978, 0.00075276685, 0.0014585223, -1176424.4, 82274.34, 0.0, 5.0575724, 4.96725 
7.817052e+2, 1.7652592e+2, -1137905.4, -1273525.9, 4748.736, 0.0018203658, 0.0038632394, -1137739.3, 72309.28, 0.0, 5.0548034, 4.96572 
7.8154474e+2, 1.814892e+2, -1097103.4, -1229068.5, 4449.4063, 0.002895727, 0.0020942376, -1096953.5, 64455.3, 0.0, 5.0521126, 4.9655137 
7.813839e+2, 1.8645173e+2, -1058132.4, -1188884.8, 4418.616, 0.0028782147, 0.00507255, -1057983.3, 54793.313, 0.0, 5.049499, 4.96379 
7.8122294e+2, 1.9141306e+2, -1016898.1, -1144066.1, 4175.0, 0.0022837739, 0.0029107397, -1016761.2, 47394.83, 0.0, 5.0469036, 4.9636254 
7.810619e+2, 1.9637355e+2, -977991.2, -1104091.0, 4071.1245, 0.0019333941, 0.0048274933, -977859.9, 37683.04, 0.0, 5.044276, 4.961792 
7.809009e+2, 2.0133281e+2, -936695.5, -1059215.0, 3702.9404, 0.001961783, 0.0018922953, -936583.7, 30358.416, 0.0, 5.0416737, 4.9616137 
7.807394e+2, 2.0629136e+2, -897728.7, -1019313.2, 3487.6804, 0.0017299353, 0.0047693034, -897628.75, 20719.373, 0.0, 5.039062, 4.9597034 
7.80578e+2, 2.1124856e+2, -856368.56, -974410.7, 3088.8098, 0.00080551393, 0.00235181, -856287.8, 13479.7, 0.0, 5.0364623, 4.9594946 
7.8041613e+2, 2.1620502e+2, -817378.4, -934523.06, 2709.2104, 0.00034242257, 0.005333955, -817315.75, 3878.8677, 0.0, 5.0338306, 4.957543 
7.802543e+2, 2.2116011e+2, -776060.25, -889612.7, 2365.519, 0.00020296298, 0.0031064937, -776011.0, -3375.9414, 0.0, 5.0311894, 4.957316 
7.800922e+2, 2.2611447e+2, -736973.4, -849470.1, 1832.9337, -0.00042050547, 0.006422905, -736943.56, -12860.921, 0.0, 5.0285134, 4.9554315 
7.799298e+2, 2.310674e+2, -695794.4, -804629.75, 1497.7126, -0.00097531365, 0.0034635423, -695773.8, -20229.803, 0.0, 5.0258045, 4.955171 
7.797672e+2, 2.3601964e+2, -656702.8, -764144.2, 822.53143, -0.0007645068, 0.0061755693, -656696.5, -29684.367, 0.0, 5.0230308, 4.953412 
7.7960443e+2, 2.4097055e+2, -615717.6, -719265.8, 507.8118, -0.0006076165, 0.0031178158, -615715.1, -37222.027, 0.0, 5.0202045, 4.953178 
7.7944154e+2, 2.4592088e+2, -576655.56, -678524.7, -108.15716, -0.0010373448, 0.0064904923, -576655.44, -46675.688, 0.0, 5.0173388, 4.951495 
7.792784e+2, 2.508699e+2, -535710.4, -633369.7, -541.25287, -0.0013752035, 0.0023718383, -535707.4, -54228.14, 0.0, 5.014414, 4.9513626 
7.791153e+2, 2.5581837e+2, -496928.03, -592746.75, -1000.70135, -0.0015030184, 0.0052169343, -496917.56, -63933.7, 0.0, 5.011423, 4.9496465 
7.7895206e+2, 2.6076576e+2, -455915.47, -546930.2, -1463.6361, -0.0015010801, 0.0015449818, -455891.94, -71392.77, 0.0, 5.0083733, 4.9497595 
7.7878904e+2, 2.6571268e+2, -417518.16, -506546.78, -1737.8258, -0.0015772019, 0.005209369, -417484.25, -81465.28, 0.0, 5.005234, 4.94797 
7.78626e+2, 2.7065864e+2, -376482.75, -460073.78, -2271.1099, -0.0016466245, 0.0015078387, -376421.1, -88872.45, 0.0, 5.002042, 4.948336 
7.784632e+2, 2.7560392e+2, -338418.88, -419985.1, -2370.559, -0.0021669997, 0.0034835036, -338350.03, -99265.36, 0.0, 4.9987836, 4.9464417 
7.7830064e+2, 2.805485e+2, -297317.06, -372814.28, -2768.6047, -0.0018943172, -0.00044956844, -297215.66, -106588.48, 0.0, 4.9954667, 4.9470644 
7.781389e+2, 2.854929e+2, -259603.02, -333120.5, -2542.5098, 0.00002483502, 0.0062698005, -259515.19, -117343.11, 0.0, 4.992107, 4.94502 
7.779773e+2, 2.9043654e+2, -218197.31, -284731.0, -3076.9844, 0.00077657297, 0.002953632, -218055.31, -124330.76, 0.0, 4.9886665, 4.9460874 
7.7781576e+2, 2.9537898e+2, -180876.1, -244651.4, -2592.6956, -0.004054189, -0.00096737396, -180770.86, -135482.33, 0.0, 4.98503, 4.9442477 
7.7765524e+2, 3.003211e+2, -141628.08, -200229.47, -2502.6396, -0.004688698, -0.0097855, -141521.4, -141521.4, 0.0, 4.9813805, 4.9439464 
7.774983e+2, 3.0527195e+2, -109227.92, -141990.77, -2463.0474, 0.009189487, 0.018149639, -109043.79, -109043.79, 0.0, 4.9782977, 4.9572973 
7.773416e+2, 3.1023252e+2, -116116.85, -140041.25, -3286.2756, 0.010040633, 0.05755061, -115673.66, -115673.66, 0.0, 4.9748416, 4.95949 
7.7718294e+2, 3.1519252e+2, -88323.04, -58856.883, -1776.9496, -0.022680717, -0.09960839, -58750.11, -58750.11, 0.0, 4.9715304, 4.99056 
7.7702963e+2, 3.2019517e+2, -83793.95, -17777.895, -3751.834, -0.010284218, 0.05035515, -17565.354, -17565.354, 0.0, 4.9656043, 5.0081153 
7.8839207e+2, 1.2701763e+2, -1523151.9, -1696810.9, 6366.877, -0.0021049718, 0.0013621976, -1522918.8, 172309.98, 0.0, 5.0868535, 4.97162 
7.882284e+2, 1.3198568e+2, -1485570.0, -1654767.0, 6541.632, -0.002111894, -0.006403039, -1485317.5, 161221.56, 0.0, 5.0833464, 4.9711723 
7.880646e+2, 1.369553e+2, -1447703.0, -1611231.1, 6464.4614, -0.0050319536, 0.005003385, -1447447.8, 150390.86, 0.0, 5.079627, 4.971226 
7.879013e+2, 1.419238e+2, -1409599.5, -1568158.5, 6614.737, -0.0007989726, 0.0015324296, -1409324.1, 139824.67, 0.0, 5.076111, 4.971088 
7.877381e+2, 1.4689207e+2, -1371306.4, -1526181.8, 6862.3057, 0.0019744108, 0.002361167, -1371002.9, 129457.03, 0.0, 5.072918, 4.970377 
7.875743e+2, 1.5185998e+2, -1331986.4, -1482361.3, 6990.1206, -0.0003977964, 0.0019357655, -1331662.1, 120112.45, 0.0, 5.069768, 4.970282 
7.8741086e+2, 1.5682743e+2, -1293622.5, -1440962.5, 7218.0596, -0.00050883525, 0.0039934833, -1293269.8, 109824.06, 0.0, 5.0666966, 4.9693127 
7.8724754e+2, 1.6179402e+2, -1253764.4, -1397034.3, 7374.2256, 0.0012233172, 0.0011329923, -1253385.9, 101035.54, 0.0, 5.063744, 4.9691253 
7.8708434e+2, 1.667601e+2, -1214981.0, -1356141.8, 7665.291, 0.0016939085, 0.0034588648, -1214566.0, 91187.51, 0.0, 5.060957, 4.9678035 
7.869211e+2, 1.7172526e+2, -1174468.6, -1311924.4, 7522.8477, 0.0013796125, 0.0018335662, -1174058.1, 83036.93, 0.0, 5.058211, 4.96758 
7.867578e+2, 1.7668973e+2, -1135796.1, -1271623.3, 7762.7017, 0.002442239, 0.0048887334, -1135354.0, 73090.07, 0.0, 5.055474, 4.965991 
7.865947e+2, 1.8165307e+2, -1094817.5, -1227030.3, 7590.249, 0.0031704088, 0.0029898796, -1094383.1, 65420.695, 0.0, 5.0528364, 4.965807 
7.864311e+2, 1.8661553e+2, -1055739.6, -1186902.6, 7726.044, 0.0025276905, 0.004730302, -1055286.1, 55885.566, 0.0, 5.0502896, 4.964031 
7.862677e+2, 1.915768e+2, -1014368.06, -1142101.9, 7495.3716, 0.0018370048, 0.0020306332, -1013929.75, 48621.387, 0.0, 5.0477614, 4.9638314 
7.86104e+2, 1.9653732e+2, -975453.0, -1102286.9, 7485.7773, 0.0021963245, 0.004864601, -975012.7, 38925.207, 0.0, 5.0451756, 4.9619246 
7.8594047e+2, 2.0149654e+2, -934023.5, -1057385.8, 7181.8223, 0.0025883538, 0.0025229126, -933606.8, 31730.844, 0.0, 5.0426292, 4.9617305 
7.8577644e+2, 2.064549e+2, -894965.75, -1017599.6, 7045.42, 0.0018872141, 0.0051746992, -894562.3, 22183.25, 0.0, 5.0400853, 4.959749 
7.8561234e+2, 2.1141192e+2, -853414.7, -972604.4, 6662.5283, 0.0007276882, 0.002611926, -853043.4, 15123.534, 0.0, 5.0375533, 4.9595428 
7.8544796e+2, 2.1636815e+2, -814379.4, -932837.5, 6333.6987, 0.00041305926, 0.0055799503, -814041.7, 5554.4063, 0.0, 5.0349665, 4.9575324 
7.852835e+2, 2.2132297e+2, -772926.94, -887876.6, 6031.8296, 0.00028657814, 0.0030837376, -772611.3, -1572.2593, 0.0, 5.0323744, 4.957303 
7.851186e+2, 2.2627702e+2, -733820.94, -847866.2, 5524.4136, -0.0007077487, 0.0060533797, -733553.94, -11064.401, 0.0, 5.0297313, 4.9553614 
7.8495353e+2, 2.3122965e+2, -692552.94, -802964.2, 5206.751, -0.0014115596, 0.0029969, -692307.94, -18354.066, 0.0, 5.0270505, 4.9551125 
7.847882e+2, 2.3618156e+2, -653435.6, -762599.7, 4538.3193, -0.0011148978, 0.005825425, -653247.25, -27822.25, 0.0, 5.0243096, 4.953301 
7.846226e+2, 2.4113213e+2, -612397.7, -717731.9, 4269.2197, -0.0008046275, 0.0029167014, -612224.94, -35315.48, 0.0, 5.02151, 4.9530544 
7.844568e+2, 2.460821e+2, -573417.4, -677188.75, 3602.2585, -0.0013800551, 0.006638553, -573292.5, -44892.484, 0.0, 5.0186453, 4.9513063 
7.8429073e+2, 2.510307e+2, -532460.1, -631997.7, 3221.2646, -0.001790543, 0.0028593687, -532356.0, -52452.45, 0.0, 5.0157194, 4.951189 
7.841246e+2, 2.559788e+2, -493664.13, -591412.3, 2703.5103, -0.0017587756, 0.005803602, -493589.44, -62177.246, 0.0, 5.0127387, 4.949459 
7.839584e+2, 2.609257e+2, -452674.72, -545645.7, 2271.6406, -0.0016372503, 0.002108539, -452619.25, -69687.33, 0.0, 5.0096893, 4.9495573 
7.8379226e+2, 2.6587218e+2, -414378.53, -505342.8, 1910.8572, -0.0016468839, 0.0055319313, -414338.4, -79881.81, 0.0, 5.006515, 4.94776 
7.8362596e+2, 2.7081767e+2, -373453.88, -458865.66, 1407.8381, -0.0015326487, 0.0019530882, -373430.66, -87439.91, 0.0, 5.003273, 4.9481525 
7.8345996e+2, 2.757626e+2, -335392.03, -418802.28, 1277.6885, -0.001455833, 0.0044799396, -335372.47, -97842.33, 0.0, 5.000016, 4.946254 
7.8329414e+2, 2.8070676e+2, -294374.25, -371702.72, 876.0588, -0.00091939926, 0.00041774698, -294364.3, -105287.46, 0.0, 4.9966745, 4.946865 
7.8312886e+2, 2.8565052e+2, -257024.14, -332124.06, 1004.04755, 0.00039708117, 0.005290319, -257010.72, -116382.586, 0.0, 4.993172, 4.944848 
7.829638e+2, 2.9059365e+2, -215885.17, -283834.47, 496.82843, 0.0013098925, 0.0017050882, -215881.53, -123696.32, 0.0, 4.989631, 4.945926 
7.827989e+2, 2.9553622e+2, -177841.84, -243248.03, 743.591, -0.001512292, 0.0023021363, -177833.39, -134085.7, 0.0, 4.9862156, 4.944173 
7.826349e+2, 3.00478e+2, -138823.5, -199830.97, 877.03674, -0.0018407005, -0.005461738, -138810.89, -138810.89, 0.0, 4.982658, 4.943476 
7.824739e+2, 3.054271e+2, -108778.43, -143170.19, 1041.7146, 0.0069944984, 0.014110934, -108746.91, -108746.91, 0.0, 4.9788265, 4.9565864 
7.8231347e+2, 3.103869e+2, -116151.09, -138718.34, 887.6246, 0.006425829, 0.05231922, -116116.24, -116116.24, 0.0, 4.9746637, 4.95999 
7.821526e+2, 3.1534836e+2, -85883.26, -53486.582, -1098.6937, -0.008343436, -0.10603975, -53449.367, -53449.367, 0.0, 4.971681, 4.9924073 
7.8199625e+2, 3.2035136e+2, -75479.29, -10613.915, -3199.0005, 0.016874159, 0.029636879, -10456.53, -10456.53, 0.0, 4.968013, 5.0096335 
7.934769e+2, 1.2718175e+2, -1523597.0, -1696149.3, 5604.223, 0.0053175143, 0.0021492403, -1523415.3, 170206.67, 0.0, 5.0864635, 4.972051 
7.93308e+2, 1.3215043e+2, -1486045.5, -1653965.4, 5380.532, -0.0108907875, -0.0031067992, -1485873.3, 159051.8, 0.0, 5.082913, 4.9716697 
7.9314137e+2, 1.3712023e+2, -1447828.8, -1610217.8, 5702.378, -0.005568153, 0.0058434485, -1447628.8, 148594.39, 0.0, 5.079316, 4.9717307 
7.9297507e+2, 1.4208901e+2, -1409550.0, -1567226.5, 6083.852, 0.0032332495, 0.0012457541, -1409315.5, 138214.94, 0.0, 5.0758986, 4.9715176 
7.928083e+2, 1.4705767e+2, -1371344.5, -1525384.4, 6432.9404, 0.0024470952, 0.0027763671, -1371076.4, 127761.3, 0.0, 5.072702, 4.9707603 
7.926411e+2, 1.5202591e+2, -1331889.0, -1481525.4, 6478.9824, -0.0019873346, 0.0026298354, -1331609.0, 118539.94, 0.0, 5.0696044, 4.970654 
7.924748e+2, 1.569936e+2, -1293264.9, -1440110.1, 6780.2026, -0.00090756436, 0.004352286, -1292952.5, 108513.234, 0.0, 5.066652, 4.9696317 
7.923086e+2, 1.6196042e+2, -1253258.5, -1396150.8, 6897.4214, 0.0017644644, 0.0014882983, -1252926.4, 99864.49, 0.0, 5.0637593, 4.969427 
7.921426e+2, 1.6692673e+2, -1214669.9, -1355501.9, 7242.1226, 0.0021955143, 0.0041755512, -1214298.5, 89822.41, 0.0, 5.06094, 4.9680386 
7.9197663e+2, 1.7189208e+2, -1174110.0, -1311299.9, 7035.4263, 0.001661292, 0.0027353212, -1173750.1, 81710.71, 0.0, 5.058218, 4.967799 
7.9181063e+2, 1.7685664e+2, -1135235.8, -1271036.8, 7346.595, 0.0024667678, 0.005696941, -1134839.5, 71969.38, 0.0, 5.055582, 4.96615 
7.9164475e+2, 1.8182003e+2, -1094103.3, -1226396.5, 7147.4385, 0.002898884, 0.0034687864, -1093718.3, 64449.8, 0.0, 5.053002, 4.9659567 
7.914787e+2, 1.867825e+2, -1055158.0, -1186478.4, 7269.759, 0.0021514914, 0.004693948, -1054756.9, 54778.586, 0.0, 5.0504403, 4.964117 
7.9131275e+2, 1.9174378e+2, -1013840.6, -1141782.0, 6897.6616, 0.0016104929, 0.0018669114, -1013469.8, 47444.793, 0.0, 5.047909, 4.9638844 
7.911465e+2, 1.9670431e+2, -974960.44, -1102154.4, 6854.3467, 0.0023175837, 0.005291347, -974592.1, 37709.453, 0.0, 5.0453477, 4.9619017 
7.9098046e+2, 2.0166346e+2, -933490.4, -1057268.4, 6498.978, 0.0028754123, 0.0032463337, -933150.06, 30551.893, 0.0, 5.042821, 4.961695 
7.9081386e+2, 2.0662169e+2, -894519.06, -1017695.44, 6340.697, 0.0019007765, 0.005582364, -894193.56, 20917.982, 0.0, 5.0402813, 4.959639 
7.906472e+2, 2.1157852e+2, -852974.7, -972729.1, 5872.249, 0.0006266161, 0.0028811214, -852687.44, 13847.163, 0.0, 5.0377502, 4.959424 
7.904802e+2, 2.1653455e+2, -814011.9, -933128.75, 5475.214, 0.0003975923, 0.0059363516, -813760.75, 4204.7334, 0.0, 5.035162, 4.957358 
7.903132e+2, 2.2148912e+2, -772577.2, -888189.0, 5095.1113, 0.00010780824, 0.0030902543, -772353.06, -2942.2817, 0.0, 5.032565, 4.9571247 
7.901456e+2, 2.2644287e+2, -733570.0, -848365.2, 4482.834, -0.0011506341, 0.0055835675, -733395.2, -12531.125, 0.0, 5.0299125, 4.9551244 
7.899778e+2, 2.3139523e+2, -692331.5, -803479.0, 4062.524, -0.0018224093, 0.00263339, -692183.2, -19852.3, 0.0, 5.02722, 4.9548764 
7.898097e+2, 2.363469e+2, -653279.9, -763259.7, 3244.7522, -0.0014530252, 0.0058368244, -653184.2, -29379.629, 0.0, 5.024474, 4.9530187 
7.896413e+2, 2.4129714e+2, -612318.5, -718539.94, 2892.5212, -0.0010450683, 0.0029417248, -612239.8, -36947.457, 0.0, 5.021668, 4.9527245 
7.894726e+2, 2.4624676e+2, -573320.44, -678022.5, 2059.3735, -0.0016952924, 0.0068238457, -573279.94, -46493.36, 0.0, 5.018811, 4.9509664 
7.893036e+2, 2.5119504e+2, -532409.0, -632911.8, 1635.3438, -0.002178833, 0.0034995247, -532382.44, -54088.707, 0.0, 5.015879, 4.950824 
7.891345e+2, 2.5614274e+2, -493636.6, -592328.7, 928.05975, -0.0018738137, 0.006712577, -493627.84, -63822.145, 0.0, 5.0128818, 4.9491034 
7.889653e+2, 2.6108927e+2, -452754.06, -546702.75, 413.3627, -0.0015393739, 0.0027994055, -452752.25, -71422.6, 0.0, 5.0098114, 4.9491615 
7.8879595e+2, 2.6603526e+2, -414450.34, -506424.9, -150.5136, -0.0014750883, 0.0056210873, -414450.1, -81590.93, 0.0, 5.0066385, 4.947357 
7.8862655e+2, 2.7098036e+2, -373514.8, -459881.56, -681.23145, -0.0010731284, 0.0022806206, -373509.44, -89112.15, 0.0, 5.0033865, 4.9477777 
7.8845733e+2, 2.7592504e+2, -335503.72, -419858.66, -966.3623, 0.00033498518, 0.006522302, -335492.66, -99554.36, 0.0, 5.0001097, 4.9458766 
7.8828824e+2, 2.8086883e+2, -294538.16, -372766.2, -1502.8053, 0.0012454918, 0.0024297172, -294509.3, -107020.76, 0.0, 4.996744, 4.946497 
7.881192e+2, 2.8581157e+2, -257209.8, -333265.8, -1568.6886, 0.0003328118, 0.0014303857, -257177.47, -118127.76, 0.0, 4.9932404, 4.944458 
7.879507e+2, 2.907543e+2, -216039.78, -284925.3, -1983.4121, 0.001129252, -0.0028830667, -215982.72, -125371.2, 0.0, 4.9897017, 4.945553 
7.8778315e+2, 2.9569843e+2, -178027.72, -244396.66, -1805.1333, 0.006159855, 0.016993003, -177978.66, -135820.33, 0.0, 4.986276, 4.9437857 
7.8761584e+2, 3.0064017e+2, -139117.64, -201272.98, -1849.4572, 0.007572733, 0.01351712, -139062.66, -139062.66, 0.0, 4.982726, 4.9429803 
7.8744847e+2, 3.0558252e+2, -109003.71, -144643.33, -1638.0007, -0.009241754, -0.028807417, -108928.586, -108928.586, 0.0, 4.978926, 4.956063 
7.8728366e+2, 3.105403e+2, -114894.45, -137242.86, -2092.5774, -0.01500927, -0.008899555, -114700.2, -114700.2, 0.0, 4.974856, 4.9604864 
7.8712714e+2, 3.155233e+2, -84682.11, -51715.574, -1918.927, 0.051573373, 0.05012812, -51604.254, -51604.254, 0.0, 4.9717813, 4.9930773 
7.86958e+2, 3.2051083e+2, -79940.85, -22592.172, -2371.2908, -0.021339701, 0.038250864, -22494.29, -22494.29, 0.0, 4.968236, 5.0052166 
7.985612e+2, 1.2735063e+2, -1520827.4, -1693325.1, 7244.5664, 0.009706669, 0.0032028693, -1520523.6, 171445.11, 0.0, 5.0871778, 4.9726057 
7.983879e+2, 1.3232034e+2, -1483974.8, -1650938.3, 6876.2354, -0.015309989, 0.0036082387, -1483692.0, 159569.03, 0.0, 5.0832677, 4.972469 
7.98218e+2, 1.3729005e+2, -1445498.8, -1607003.4, 7491.2295, -0.0054023876, 0.005136184, -1445152.0, 149407.95, 0.0, 5.079761, 4.972546 
7.9804856e+2, 1.4225902e+2, -1407548.8, -1564692.8, 8027.6963, 0.0057448284, -0.002478764, -1407139.6, 138725.13, 0.0, 5.076349, 4.9721036 
7.978784e+2, 1.4722835e+2, -1369516.3, -1523029.1, 8651.249, 0.0023190172, 0.0022791515, -1369030.3, 128134.79, 0.0, 5.0731263, 4.971294 
7.97708e+2, 1.5219706e+2, -1330063.5, -1479179.4, 8819.063, -0.003576737, 0.0036119376, -1329543.8, 118927.64, 0.0, 5.070034, 4.9711833 
7.975388e+2, 1.5716493e+2, -1291496.3, -1437891.1, 9382.231, -0.0009523991, 0.004066051, -1290897.4, 108889.07, 0.0, 5.067095, 4.970109 
7.9736996e+2, 1.62132e+2, -1251430.0, -1393940.8, 9572.557, 0.002751866, 0.0009832196, -1250789.9, 100319.664, 0.0, 5.064236, 4.9698863 
7.972011e+2, 1.6709864e+2, -1212857.4, -1353428.9, 10127.865, 0.002897767, 0.0050044334, -1212131.4, 90305.43, 0.0, 5.061448, 4.9684353 
7.970323e+2, 1.720642e+2, -1172122.9, -1309092.3, 10055.286, 0.0016619303, 0.0037531094, -1171388.6, 82386.375, 0.0, 5.05878, 4.968218 
7.968637e+2, 1.7702879e+2, -1133152.6, -1268901.4, 10562.928, 0.001611898, 0.005262153, -1132335.6, 72786.58, 0.0, 5.0562115, 4.9665112 
7.9669523e+2, 1.8199225e+2, -1091900.3, -1224338.8, 10416.12, 0.0019009906, 0.0025950766, -1091086.0, 65394.39, 0.0, 5.0537043, 4.966259 
7.965268e+2, 1.8695486e+2, -1052898.3, -1184562.0, 10678.632, 0.0021824124, 0.0050704093, -1052037.8, 55808.645, 0.0, 5.0512023, 4.964343 
7.9635835e+2, 1.9191618e+2, -1011406.25, -1139804.5, 10329.054, 0.0021137001, 0.0029848213, -1010580.6, 48644.57, 0.0, 5.0487394, 4.964101 
7.9618955e+2, 1.9687662e+2, -972426.06, -1100276.9, 10402.15, 0.0021023334, 0.0060723824, -971585.25, 39028.28, 0.0, 5.04625, 4.9620495 
7.960209e+2, 2.0183565e+2, -930708.9, -1055256.3, 10108.538, 0.0023301505, 0.0036231403, -929893.8, 32121.488, 0.0, 5.043808, 4.9618516 
7.958519e+2, 2.0679371e+2, -891628.7, -1015801.3, 10040.167, 0.0018504001, 0.005636905, -890822.06, 22603.826, 0.0, 5.041342, 4.959724 
7.956828e+2, 2.1175037e+2, -849900.5, -970803.2, 9602.221, 0.0007968998, 0.002738525, -849142.7, 15707.819, 0.0, 5.038886, 4.9594874 
7.955131e+2, 2.1670617e+2, -810837.8, -931313.2, 9259.482, -0.00005990165, 0.005714718, -810130.3, 6153.334, 0.0, 5.0363636, 4.9573555 
7.953435e+2, 2.2166048e+2, -769214.8, -886266.56, 8907.737, -0.00065204676, 0.0027048008, -768540.8, -809.33966, 0.0, 5.03383, 4.9571333 
7.951733e+2, 2.2661392e+2, -730149.6, -846594.2, 8326.383, -0.0013248974, 0.0050727176, -729557.25, -10369.846, 0.0, 5.0312314, 4.955062 
7.9500294e+2, 2.3156598e+2, -688843.8, -801780.7, 7931.2583, -0.0014107749, 0.0025018493, -688289.5, -17632.252, 0.0, 5.0285845, 4.954771 
7.948321e+2, 2.3651734e+2, -649759.56, -761670.6, 7087.4214, -0.001269051, 0.006574658, -649312.5, -27178.002, 0.0, 5.0258727, 4.952863 
7.9466087e+2, 2.4146718e+2, -608689.0, -716905.06, 6761.8174, -0.0011710171, 0.0038117815, -608268.1, -34641.664, 0.0, 5.023106, 4.9525704 
7.9448926e+2, 2.464163e+2, -569619.56, -676439.1, 5912.5156, -0.002097333, 0.006862276, -569293.3, -44167.906, 0.0, 5.0202866, 4.9507837 
7.943173e+2, 2.513641e+2, -528665.2, -631361.5, 5512.8857, -0.0025528006, 0.0035779548, -528370.1, -51733.15, 0.0, 5.017382, 4.9506207 
7.9414535e+2, 2.5631148e+2, -489889.97, -590806.75, 4711.685, -0.0018082317, 0.007759631, -489670.47, -61517.457, 0.0, 5.014385, 4.9488945 
7.9397297e+2, 2.6125753e+2, -449088.66, -545232.75, 4240.2085, -0.0011763735, 0.004174878, -448902.03, -69220.43, 0.0, 5.0112896, 4.9489484 
7.938004e+2, 2.66203e+2, -410768.22, -504998.4, 3606.903, -0.0010742019, 0.0064695086, -410630.38, -79414.15, 0.0, 5.008131, 4.9471273 
7.9362774e+2, 2.7114755e+2, -369818.28, -458462.28, 3116.372, -0.0008013757, 0.0030969547, -369708.84, -86949.57, 0.0, 5.004887, 4.947545 
7.9345524e+2, 2.7609178e+2, -331934.75, -418515.28, 2721.899, 0.00037935944, 0.0076990915, -331849.25, -97544.34, 0.0, 5.0015645, 4.945641 
7.932827e+2, 2.8103513e+2, -291042.25, -371403.9, 2165.519, 0.00142924, 0.0038478028, -290983.94, -105124.05, 0.0, 4.9981623, 4.9462886 
7.931104e+2, 2.8597733e+2, -253529.34, -331835.3, 2032.4509, 0.0014360973, 0.0020166137, -253476.63, -116050.45, 0.0, 4.9947233, 4.94425 
7.929383e+2, 2.909195e+2, -212491.77, -283647.56, 1605.3512, 0.0024872995, -0.0026357218, -212455.56, -123462.77, 0.0, 4.9911532, 4.9453096 
7.9276705e+2, 2.9586342e+2, -175225.05, -243362.02, 1635.6306, 0.005853176, 0.020149993, -175185.81, -134644.3, 0.0, 4.9874387, 4.9435863 
7.925961e+2, 3.0080467e+2, -137054.69, -200782.94, 1625.01, 0.0074699046, 0.016665392, -137013.28, -137013.28, 0.0, 4.9836636, 4.942687 
7.9242533e+2, 3.057449e+2, -106209.33, -143771.28, 1376.9095, -0.0059116273, -0.04212088, -106158.92, -106158.92, 0.0, 4.9801083, 4.9558077 
7.9225665e+2, 3.1070206e+2, -112244.28, -136310.14, 1112.2484, -0.0116996365, -0.022778636, -112192.99, -112192.99, 0.0, 4.97596, 4.960288 
7.920963e+2, 3.1569168e+2, -83619.83, -50203.61, -2451.0508, 0.06034696, 0.09753954, -50024.78, -50024.78, 0.0, 4.9720597, 4.993452 
7.9192156e+2, 3.20663e+2, -73204.21, -7571.7905, -1654.1927, -0.037945244, -0.09346938, -7530.125, -7530.125, 0.0, 4.9684534, 5.0105495 
8.036439e+2, 1.2752317e+2, -1520067.4, -1692157.6, 5831.699, -0.00845263, 0.004435946, -1519870.0, 170408.1, 0.0, 5.0872183, 4.9729986 
8.034698e+2, 1.3249315e+2, -1485768.3, -1650840.0, 6630.9067, 0.0048408075, 0.0043176855, -1485502.3, 156066.39, 0.0, 5.082392, 4.9729466 
8.032948e+2, 1.3746321e+2, -1445894.6, -1606173.1, 7272.1636, -0.004978381, 0.005837129, -1445565.4, 147298.31, 0.0, 5.079368, 4.97303 
8.031214e+2, 1.4243254e+2, -1407113.1, -1563453.4, 7414.4126, -0.0005322165, -0.0021274046, -1406762.3, 137402.34, 0.0, 5.0762424, 4.972586 
8.029484e+2, 1.4740227e+2, -1369389.4, -1522030.4, 8172.534, 0.0014939002, 0.0027790933, -1368953.1, 126507.516, 0.0, 5.0729413, 4.9717293 
8.0277514e+2, 1.5237135e+2, -1329994.8, -1478269.0, 8398.953, -0.0022736415, 0.0043482375, -1329520.5, 117242.836, 0.0, 5.0698423, 4.9715924 
8.0260307e+2, 1.573395e+2, -1291258.1, -1437012.8, 9065.885, -0.00039059386, 0.004605058, -1290696.4, 107379.5, 0.0, 5.0669937, 4.9704614 
8.0243134e+2, 1.6230683e+2, -1251009.6, -1393001.6, 9163.702, 0.002902801, 0.0013378516, -1250420.6, 98975.9, 0.0, 5.0642037, 4.970228 
8.022597e+2, 1.6727372e+2, -1212433.4, -1352634.8, 9804.093, 0.002658909, 0.005477726, -1211751.1, 88970.54, 0.0, 5.061453, 4.9687104 
8.0208814e+2, 1.7223944e+2, -1171600.0, -1308289.0, 9719.187, 0.0010635707, 0.0041327276, -1170912.4, 81145.52, 0.0, 5.0588264, 4.968478 
8.0191696e+2, 1.7720413e+2, -1132611.1, -1268234.5, 10235.895, 0.0009002619, 0.0050998386, -1131843.0, 71560.82, 0.0, 5.0562987, 4.9667053 
8.017461e+2, 1.821677e+2, -1091359.3, -1223743.0, 9980.463, 0.0013297437, 0.0024236268, -1090611.0, 64149.688, 0.0, 5.0538054, 4.966424 
8.015751e+2, 1.8713044e+2, -1052518.0, -1184216.3, 10286.706, 0.002249955, 0.005729021, -1051719.4, 54406.426, 0.0, 5.051285, 4.964432 
8.0140424e+2, 1.9209182e+2, -1010991.7, -1139504.8, 9885.763, 0.0023148071, 0.003991726, -1010235.7, 47268.625, 0.0, 5.048845, 4.9641647 
8.0123293e+2, 1.9705217e+2, -971902.94, -1100095.8, 9961.796, 0.0015593013, 0.0065592905, -971133.44, 37760.324, 0.0, 5.0464296, 4.962037 
8.010618e+2, 2.020111e+2, -930092.94, -1055051.5, 9584.021, 0.0015400769, 0.0037446471, -929362.1, 30934.34, 0.0, 5.0440226, 4.961833 
8.008903e+2, 2.0696902e+2, -891153.5, -1015835.5, 9450.592, 0.0016772331, 0.005734942, -890441.25, 21266.713, 0.0, 5.04154, 4.959633 
8.007188e+2, 2.1192552e+2, -849469.6, -970902.44, 8912.719, 0.00085291616, 0.0026989754, -848818.94, 14315.03, 0.0, 5.039077, 4.959379 
8.005466e+2, 2.168811e+2, -810471.7, -931594.25, 8499.561, -0.00054824667, 0.005500159, -809878.2, 4691.0654, 0.0, 5.0365605, 4.957182 
8.003744e+2, 2.2183518e+2, -768847.3, -886549.7, 8043.202, -0.0013019504, 0.002511016, -768300.2, -2281.0476, 0.0, 5.0340257, 4.9569616 
8.002016e+2, 2.2678837e+2, -729890.2, -847103.44, 7323.577, -0.001383563, 0.0049576187, -729434.4, -11956.977, 0.0, 5.0314198, 4.9548187 
8.000286e+2, 2.3174016e+2, -688628.4, -802416.94, 6833.6753, -0.0010358333, 0.0026985162, -688219.44, -19269.35, 0.0, 5.028776, 4.9544835 
7.99855e+2, 2.3669122e+2, -649521.44, -762442.7, 5863.912, -0.001153945, 0.007445498, -649217.75, -28786.955, 0.0, 5.026097, 4.952514 
7.9968095e+2, 2.4164072e+2, -608390.0, -717587.2, 5453.2417, -0.0014730598, 0.0047945986, -608118.3, -36191.742, 0.0, 5.023337, 4.9522505 
7.9950655e+2, 2.4658938e+2, -569460.7, -677345.1, 4461.7754, -0.0025903222, 0.0070205685, -569276.44, -45846.734, 0.0, 5.020494, 4.950401 
7.9933167e+2, 2.515368e+2, -528589.3, -632324.1, 3962.8237, -0.0029029131, 0.0037676247, -528438.1, -53492.746, 0.0, 5.017561, 4.9502316 
7.9915667e+2, 2.5648376e+2, -489859.13, -591876.44, 2955.7373, -0.0017173648, 0.008960944, -489773.56, -63308.324, 0.0, 5.0145583, 4.9484715 
7.9898125e+2, 2.6142943e+2, -449075.28, -546280.06, 2399.9446, -0.0008450453, 0.005871843, -449016.06, -71018.14, 0.0, 5.0114484, 4.94854 
7.988056e+2, 2.6637444e+2, -410791.56, -506119.13, 1591.573, -0.00063794554, 0.007782435, -410765.0, -81228.11, 0.0, 5.0082817, 4.9467015 
7.986296e+2, 2.7131855e+2, -369921.5, -459674.16, 1021.875, -0.0008325553, 0.0042104037, -369909.88, -88825.25, 0.0, 5.0050173, 4.9470963 
7.984537e+2, 2.7626225e+2, -332077.1, -419770.53, 427.93564, -0.0007591716, 0.008445463, -332075.0, -99439.41, 0.0, 5.0016785, 4.945188 
7.982778e+2, 2.8120518e+2, -291228.94, -372629.63, -198.63278, 0.0002903191, 0.005031848, -291228.47, -107033.58, 0.0, 4.9982467, 4.94586 
7.9810226e+2, 2.861472e+2, -253746.05, -333016.97, -480.86426, 0.0030929416, 0.005722834, -253743.14, -117981.0, 0.0, 4.99478, 4.943853 
7.9792655e+2, 2.910889e+2, -212744.9, -284945.94, -1022.87494, 0.003916789, 0.0005693434, -212730.42, -125397.305, 0.0, 4.9912133, 4.9448695 
7.977506e+2, 2.960313e+2, -175440.42, -244682.63, -1147.645, -0.0026221161, 0.012418053, -175421.4, -136524.08, 0.0, 4.987513, 4.943135 
7.9757607e+2, 3.0097198e+2, -137196.17, -202066.66, -998.95917, -0.00083731685, 0.007983025, -137180.8, -137180.8, 0.0, 4.9837623, 4.942237 
7.97405e+2, 3.059154e+2, -106210.73, -144943.69, -1022.7457, 0.018343886, -0.014055946, -106183.74, -106183.74, 0.0, 4.9802437, 4.95538 
7.972326e+2, 3.1087252e+2, -112138.45, -137857.31, -2371.3147, 0.013984214, 0.009685544, -111921.65, -111921.65, 0.0, 4.9762125, 4.9596753 
7.970559e+2, 3.158503e+2, -84515.31, -53390.438, -4255.579, -0.032653328, 0.03063388, -52819.08, -52819.08, 0.0, 4.9721766, 4.9923 
7.96892e+2, 3.2083654e+2, -78864.01, -21028.715, 82.751564, 0.0068574804, 0.010149426, -21028.596, -21028.596, 0.0, 4.9684043, 5.0057206 
8.087263e+2, 1.2770072e+2, -1519382.8, -1690380.1, 5355.1064, -0.024052516, 0.004585306, -1519215.3, 169322.45, 0.0, 5.0872283, 4.973544 
8.0855197e+2, 1.3267078e+2, -1483750.1, -1648432.1, 8420.328, 0.03206785, 0.0019843727, -1483320.8, 156508.38, 0.0, 5.082865, 4.9734807 
8.08371e+2, 1.3764153e+2, -1444487.6, -1604077.6, 9485.236, -0.00622921, 0.007123665, -1443925.9, 147191.08, 0.0, 5.079651, 4.973545 
8.081936e+2, 1.4261135e+2, -1405726.3, -1560977.3, 9325.584, -0.011051348, 0.000037149417, -1405168.1, 137244.56, 0.0, 5.0764394, 4.9732695 
8.080184e+2, 1.4758135e+2, -1367959.6, -1519628.5, 10366.144, 0.0011220945, 0.0031908236, -1367254.5, 126451.234, 0.0, 5.0731897, 4.972357 
8.0784243e+2, 1.525508e+2, -1328523.8, -1475937.3, 10863.317, 0.0012461523, 0.004349274, -1327727.5, 117277.414, 0.0, 5.0701303, 4.972178 
8.076673e+2, 1.5751936e+2, -1289827.3, -1434805.4, 11812.223, 0.00071709865, 0.005404582, -1288871.3, 107442.516, 0.0, 5.067305, 4.9709907 
8.074926e+2, 1.6248697e+2, -1249431.4, -1390699.6, 11945.847, 0.0023815054, 0.0018871926, -1248428.4, 99203.13, 0.0, 5.064566, 4.970766 
8.073182e+2, 1.6745399e+2, -1210810.3, -1350447.8, 12810.581, 0.0014630128, 0.004686562, -1209644.8, 89310.16, 0.0, 5.061871, 4.9691815 
8.0714417e+2, 1.7241992e+2, -1169848.6, -1306163.9, 12880.025, -0.000029072198, 0.0031453825, -1168642.3, 81646.64, 0.0, 5.059319, 4.968894 
8.069706e+2, 1.7738484e+2, -1130755.6, -1266202.5, 13580.789, 0.00079378823, 0.005080981, -1129407.3, 72225.11, 0.0, 5.0568676, 4.967052 
8.067973e+2, 1.823486e+2, -1089240.1, -1221498.1, 13325.661, 0.001665794, 0.002985436, -1087910.9, 65076.992, 0.0, 5.054451, 4.9668083 
8.066238e+2, 1.8731141e+2, -1050302.8, -1182078.4, 13790.206, 0.0024258855, 0.0063209836, -1048875.0, 55477.7, 0.0, 5.0520015, 4.9647455 
8.064505e+2, 1.9227281e+2, -1008564.5, -1137369.0, 13512.202, 0.0019938461, 0.0041221366, -1007162.3, 48569.133, 0.0, 5.0496593, 4.964434 
8.062768e+2, 1.9723305e+2, -969290.06, -1098050.6, 13721.548, 0.00050388405, 0.005850639, -967844.06, 39277.105, 0.0, 5.0473504, 4.962226 
8.0610335e+2, 2.0219187e+2, -927239.56, -1052969.4, 13328.434, 0.00047293195, 0.0029715013, -925842.2, 32682.113, 0.0, 5.0450444, 4.961991 
8.059294e+2, 2.0714974e+2, -888189.1, -1013885.2, 13270.263, 0.0012741456, 0.005699461, -886803.4, 23133.398, 0.0, 5.042638, 4.959714 
8.0575556e+2, 2.1210608e+2, -846251.2, -968799.5, 12786.979, 0.0007886823, 0.0028590104, -844931.2, 16433.246, 0.0, 5.0402584, 4.959476 
8.055808e+2, 2.1706142e+2, -807097.2, -929606.3, 12442.634, -0.000567083, 0.0052589355, -805846.2, 6955.889, 0.0, 5.037833, 4.9572015 
8.0540615e+2, 2.2201525e+2, -765310.8, -884577.9, 12003.627, -0.0009936903, 0.0024168994, -764114.7, 139.75098, 0.0, 5.0353746, 4.9569445 
8.0523086e+2, 2.2696817e+2, -726267.94, -845274.06, 11288.994, -0.00079415157, 0.0054328684, -725206.5, -9490.944, 0.0, 5.032832, 4.9547286 
8.0505526e+2, 2.3191957e+2, -684754.2, -800419.75, 10872.997, -0.00065407314, 0.0029505263, -683741.0, -16548.945, 0.0, 5.030268, 4.9544187 
8.0487883e+2, 2.3687014e+2, -645518.5, -760608.06, 9939.806, -0.001493595, 0.006484527, -644666.4, -25988.926, 0.0, 5.027676, 4.952358 
8.047021e+2, 2.4181919e+2, -604191.3, -715623.6, 9521.341, -0.0017625956, 0.0037472078, -603383.56, -33206.402, 0.0, 5.02498, 4.952113 
8.0452484e+2, 2.4676749e+2, -565244.06, -675496.0, 8495.955, -0.0019509207, 0.006741134, -564593.25, -42909.53, 0.0, 5.022165, 4.9502163 
8.0434716e+2, 2.517144e+2, -524392.25, -630586.0, 8040.9243, -0.0017132689, 0.003707515, -523786.8, -50582.77, 0.0, 5.019245, 4.9500065 
8.0416906e+2, 2.5666085e+2, -485651.8, -590214.4, 6989.1753, -0.0010154352, 0.008517358, -485186.7, -60456.82, 0.0, 5.0162597, 4.9482164 
8.039905e+2, 2.61606e+2, -444792.9, -544559.0, 6452.133, -0.00065621844, 0.005649849, -444377.38, -68109.53, 0.0, 5.013171, 4.948301 
8.0381167e+2, 2.665505e+2, -406425.2, -504360.8, 5571.2583, -0.000287203, 0.0077756546, -406109.28, -78298.11, 0.0, 5.0100274, 4.946472 
8.036324e+2, 2.7149406e+2, -365629.88, -458053.22, 5027.2617, -0.00021335144, 0.004091885, -365357.25, -85993.07, 0.0, 5.006757, 4.9468255 
8.0345315e+2, 2.764372e+2, -327834.16, -418219.9, 4344.3994, -0.000094605435, 0.0079655545, -327625.8, -96704.22, 0.0, 5.0034037, 4.9449053 
8.0327374e+2, 2.8137952e+2, -287074.7, -371028.0, 3712.5254, 0.00086336565, 0.004763263, -286910.84, -104424.38, 0.0, 4.9999213, 4.9456215 
8.030946e+2, 2.863212e+2, -249883.4, -331516.16, 3363.029, 0.003256213, 0.006577989, -249745.1, -115687.945, 0.0, 4.996341, 4.943633 
8.029154e+2, 2.9126233e+2, -209118.88, -283619.72, 2806.3708, 0.0041575925, 0.0012175522, -209013.31, -123379.92, 0.0, 4.9927, 4.9446254 
8.0273575e+2, 2.9620367e+2, -171544.88, -243284.55, 2541.4944, -0.0024662644, 0.008207914, -171454.95, -134246.78, 0.0, 4.989101, 4.942876 
8.025574e+2, 3.011438e+2, -133814.42, -201118.34, 2592.6106, -0.00028297337, 0.003797882, -133714.7, -133714.7, 0.0, 4.9852076, 4.941883 
8.0238295e+2, 3.0608827e+2, -104776.79, -144805.98, 1791.4879, 0.023486378, -0.0017593086, -104696.766, -104696.766, 0.0, 4.9809675, 4.9550567 
8.0220646e+2, 3.11045e+2, -111355.55, -138569.42, 1292.9519, 0.017638575, 0.02545297, -111294.26, -111294.26, 0.0, 4.9768176, 4.959091 
8.020227e+2, 3.1601414e+2, -77917.836, -50771.477, -2026.1213, -0.059388526, -0.041292682, -50621.086, -50621.086, 0.0, 4.9747233, 4.9920917 
8.01861e+2, 3.2100835e+2, -73546.45, -8753.578, 1597.138, 0.042061463, 0.008922759, -8714.233, -8714.233, 0.0, 4.9685287, 5.01005 
8.1381154e+2, 1.2788102e+2, -1521534.9, -1689968.8, 5557.635, -0.006182826, 0.0026592813, -1521351.6, 165419.11, 0.0, 5.086111, 4.9742484 
8.1363034e+2, 1.3285181e+2, -1481391.3, -1646324.4, 7401.2266, 0.014895437, 0.002431958, -1481059.8, 156995.38, 0.0, 5.083422, 4.9739394 
8.1344754e+2, 1.3782296e+2, -1444801.4, -1603314.9, 8731.935, -0.006269739, 0.00794564, -1444321.9, 145017.56, 0.0, 5.079307, 4.9739833 
8.132672e+2, 1.4279318e+2, -1406520.9, -1560204.1, 8781.777, -0.0060075303, 0.0007499079, -1406020.6, 134610.55, 0.0, 5.07588, 4.9738135 
8.130884e+2, 1.4776357e+2, -1367879.3, -1518527.4, 9917.346, 0.001125866, 0.0035942667, -1367229.1, 124691.1, 0.0, 5.072964, 4.9728446 
8.129093e+2, 1.5273342e+2, -1328020.4, -1474644.1, 10339.7, -0.00020424889, 0.0046369047, -1327294.9, 115920.79, 0.0, 5.070054, 4.97266 
8.127315e+2, 1.5770233e+2, -1289600.0, -1433781.4, 11435.588, 0.0007876906, 0.0056601097, -1288698.6, 105822.18, 0.0, 5.067171, 4.971408 
8.125541e+2, 1.6267024e+2, -1249069.3, -1389654.6, 11574.4, 0.0024985322, 0.001926756, -1248122.6, 97712.74, 0.0, 5.064488, 4.9711647 
8.1237704e+2, 1.6763751e+2, -1210118.0, -1349406.8, 12517.324, 0.00043547474, 0.0043044877, -1209002.0, 88154.02, 0.0, 5.061949, 4.969504 
8.1220037e+2, 1.7260368e+2, -1169140.8, -1305200.5, 12544.0625, -0.0010124599, 0.0029017408, -1167993.9, 80493.69, 0.0, 5.0594196, 4.9691815 
8.120244e+2, 1.7756882e+2, -1130448.9, -1265608.5, 13330.557, 0.0008742115, 0.0054450296, -1129146.6, 70682.55, 0.0, 5.0568695, 4.9672594 
8.118487e+2, 1.8253274e+2, -1088885.3, -1220869.0, 13022.2, 0.0018645038, 0.0035584029, -1087612.8, 63570.598, 0.0, 5.0544662, 4.967023 
8.116728e+2, 1.8749565e+2, -1049745.0, -1181522.8, 13488.042, 0.002027851, 0.006695566, -1048378.56, 54169.227, 0.0, 5.0521255, 4.9648833 
8.114971e+2, 1.9245706e+2, -1007924.0, -1136864.9, 13163.507, 0.0012009308, 0.0041589933, -1006593.9, 47332.336, 0.0, 5.0498295, 4.9645343 
8.11321e+2, 1.9741723e+2, -968804.9, -1097806.4, 13375.846, -0.00033044606, 0.005521437, -967432.56, 37883.297, 0.0, 5.047505, 4.9622455 
8.1114525e+2, 2.0237604e+2, -926795.0, -1052827.8, 12863.145, -0.0001412704, 0.0027014255, -925495.56, 31223.783, 0.0, 5.0452003, 4.961976 
8.1096905e+2, 2.073338e+2, -887774.44, -1013932.8, 12772.686, 0.0010161485, 0.005849396, -886494.3, 21638.654, 0.0, 5.0428185, 4.9596243 
8.1079274e+2, 2.1228999e+2, -845771.6, -968813.4, 12221.572, 0.0007004897, 0.0030935304, -844569.44, 14992.654, 0.0, 5.040458, 4.959391 
8.106156e+2, 2.172451e+2, -806673.94, -929841.6, 11769.722, -0.000541537, 0.005111321, -805559.3, 5442.483, 0.0, 5.0380487, 4.9570355 
8.1043845e+2, 2.2219871e+2, -764888.6, -884925.5, 11204.29, -0.00072584586, 0.0024393469, -763851.75, -1395.4084, 0.0, 5.0356097, 4.956732 
8.102606e+2, 2.271514e+2, -725827.56, -845770.6, 10364.507, -0.00033153148, 0.0060678064, -724938.56, -11018.448, 0.0, 5.033103, 4.9544497 
8.100824e+2, 2.3210245e+2, -684268.06, -800847.94, 9882.249, -0.0005626407, 0.0032553456, -683436.25, -18036.24, 0.0, 5.0305424, 4.9541626 
8.099034e+2, 2.3705252e+2, -645221.56, -761323.4, 8807.0, -0.0018878944, 0.005299646, -644557.25, -27667.602, 0.0, 5.0279155, 4.952022 
8.097239e+2, 2.4200119e+2, -603981.3, -716394.6, 8244.442, -0.0017871764, 0.0025643283, -603379.9, -34987.02, 0.0, 5.025189, 4.951773 
8.0954397e+2, 2.4694921e+2, -565069.4, -676410.0, 7013.9194, -0.0009971935, 0.006741809, -564629.25, -44727.113, 0.0, 5.0223794, 4.9498267 
8.0936337e+2, 2.518957e+2, -524298.44, -631681.56, 6452.912, -0.0004227638, 0.0037658098, -523912.06, -52485.234, 0.0, 5.0194573, 4.9495554 
8.091821e+2, 2.5684157e+2, -485550.13, -591302.25, 5238.2466, -0.0003328432, 0.007608537, -485291.28, -62332.74, 0.0, 5.016467, 4.947773 
8.0900043e+2, 2.6178625e+2, -444797.88, -545784.56, 4618.17, -0.00066441094, 0.0049685114, -444587.13, -70085.87, 0.0, 5.0133543, 4.947821 
8.088184e+2, 2.6673034e+2, -406429.2, -505480.44, 3515.2092, -0.000100566125, 0.0075550824, -406304.6, -80256.414, 0.0, 5.010182, 4.9460464 
8.08636e+2, 2.7167338e+2, -365817.88, -459429.38, 2861.745, 0.00051593326, 0.0035771648, -365730.47, -88124.39, 0.0, 5.006877, 4.946326 
8.084534e+2, 2.7661595e+2, -328083.7, -419642.78, 1981.9694, 0.00133502, 0.006978252, -328040.8, -98871.39, 0.0, 5.0034976, 4.944404 
8.0827045e+2, 2.8155777e+2, -287337.9, -372375.0, 1240.8623, 0.0017909437, 0.0038828687, -287319.8, -106580.5, 0.0, 4.99999, 4.9451594 
8.080875e+2, 2.86499e+2, -250141.73, -332855.0, 699.4188, 0.0018598184, 0.005655094, -250135.83, -117821.82, 0.0, 4.9964013, 4.9431825 
8.079048e+2, 2.9143965e+2, -209365.98, -284991.56, 207.29605, 0.0035293524, 0.00047389985, -209365.42, -125470.78, 0.0, 4.9927707, 4.9441586 
8.0772233e+2, 2.9638064e+2, -171801.14, -244693.92, -110.487274, 0.004873513, 0.00843066, -171800.97, -136327.31, 0.0, 4.9891686, 4.9423976 
8.075401e+2, 3.013202e+2, -134220.1, -203003.5, -402.67184, 0.0055048945, 0.003796435, -134217.73, -134217.73, 0.0, 4.9852986, 4.9412246 
8.0735856e+2, 3.062637e+2, -105093.016, -146662.0, -1168.8645, 0.002172609, -0.0041299495, -105060.17, -105060.17, 0.0, 4.9810843, 4.9543977 
8.0717856e+2, 3.1121996e+2, -110248.56, -137898.36, -1033.3878, -0.00079478766, 0.022177087, -110210.0, -110210.0, 0.0, 4.9770803, 4.95928 
8.070015e+2, 3.161917e+2, -76296.01, -50009.094, -1928.419, 0.010248395, -0.0106400605, -49868.38, -49868.38, 0.0, 4.9752, 4.9922357 
8.06824e+2, 3.211851e+2, -79823.016, -22265.393, -5964.6294, 0.01735329, 0.044940926, -21653.785, -21653.785, 0.0, 4.9682045, 5.0053363 
8.1889594e+2, 1.2806605e+2, -1519517.5, -1686586.1, 8633.389, 0.010965322, 0.00084963854, -1519072.6, 165885.03, 0.0, 5.0863757, 4.975203 
8.187071e+2, 1.3303775e+2, -1481171.0, -1644457.1, 8275.583, -0.017612172, 0.0035740838, -1480752.6, 155480.19, 0.0, 5.083207, 4.9746227 
8.185238e+2, 1.3800922e+2, -1444017.9, -1601205.6, 10185.819, -0.0026357532, 0.007900699, -1443360.6, 144153.45, 0.0, 5.079314, 4.974632 
8.1834096e+2, 1.4297989e+2, -1405442.0, -1557758.9, 10955.171, 0.006278815, 0.000262962, -1404658.1, 134143.55, 0.0, 5.075955, 4.9745407 
8.1815803e+2, 1.4795078e+2, -1366967.0, -1516258.6, 12404.113, 0.0003611481, 0.0035128936, -1365943.4, 124142.445, 0.0, 5.0730214, 4.9735146 
8.179757e+2, 1.5292108e+2, -1326980.3, -1472250.4, 12806.395, -0.004646215, 0.0045057875, -1325860.0, 115516.805, 0.0, 5.0701485, 4.9733543 
8.177955e+2, 1.5789035e+2, -1288495.9, -1431471.9, 14189.348, 0.00060840376, 0.0047431644, -1287101.3, 105576.92, 0.0, 5.0673304, 4.9720373 
8.176156e+2, 1.6285866e+2, -1247786.0, -1387304.9, 14542.446, 0.0032995772, 0.0009643281, -1246286.4, 97702.33, 0.0, 5.0647244, 4.971772 
8.1743586e+2, 1.6782631e+2, -1208725.6, -1347149.4, 15703.956, -0.00023366041, 0.0039514387, -1206966.4, 88338.76, 0.0, 5.062267, 4.970039 
8.1725675e+2, 1.727928e+2, -1167541.9, -1302883.4, 15706.983, -0.0016279875, 0.0030451461, -1165743.0, 80890.84, 0.0, 5.0598226, 4.9696975 
8.170784e+2, 1.7775819e+2, -1128737.1, -1263372.5, 16688.84, 0.0014365129, 0.005850066, -1126699.3, 71274.58, 0.0, 5.057351, 4.9677076 
8.169003e+2, 1.8272226e+2, -1086937.3, -1218628.9, 16555.707, 0.0019242037, 0.0036324007, -1084887.9, 64438.76, 0.0, 5.0550556, 4.967424 
8.1672204e+2, 1.8768519e+2, -1047585.44, -1179356.8, 17169.262, 0.000513863, 0.0060620275, -1045385.06, 55305.15, 0.0, 5.052831, 4.9652042 
8.165441e+2, 1.926467e+2, -1005461.25, -1134551.3, 16869.246, -0.00014761231, 0.0037730653, -1003293.2, 48774.207, 0.0, 5.0506434, 4.964857 
8.163659e+2, 1.9760698e+2, -966178.5, -1095600.8, 17214.271, -0.00016512373, 0.006102945, -963927.94, 39528.234, 0.0, 5.0484157, 4.9624887 
8.161879e+2, 2.0256574e+2, -923895.5, -1050536.1, 16736.9, 0.0004654442, 0.003428815, -921720.9, 33139.156, 0.0, 5.046218, 4.962201 
8.1600934e+2, 2.0752336e+2, -884672.1, -1011748.5, 16744.27, 0.00096091186, 0.005875037, -882502.9, 23772.736, 0.0, 5.0439487, 4.959763 
8.1583077e+2, 2.1247937e+2, -842410.2, -966607.8, 16264.404, 0.000581364, 0.002851857, -840315.56, 17390.83, 0.0, 5.0417, 4.9594903 
8.1565124e+2, 2.1743423e+2, -803116.7, -927762.75, 15862.143, -0.00014765805, 0.0047951587, -801129.75, 8018.2227, 0.0, 5.0393987, 4.957047 
8.1547177e+2, 2.2238755e+2, -761060.6, -882766.44, 15340.305, -0.00034291908, 0.0020071615, -759156.9, 1448.3949, 0.0, 5.037066, 4.956725 
8.1529135e+2, 2.2733988e+2, -721790.75, -843698.25, 14542.345, -0.00071606034, 0.0053199506, -720080.0, -8007.2207, 0.0, 5.03467, 4.9543653 
8.151106e+2, 2.3229054e+2, -679968.56, -798590.4, 14091.71, -0.000654728, 0.0024136791, -678317.5, -14761.38, 0.0, 5.0321918, 4.9541097 
8.1492907e+2, 2.3724023e+2, -640846.44, -759210.75, 13006.742, -0.00049447024, 0.004292841, -639434.0, -24384.951, 0.0, 5.0296235, 4.951898 
8.1474704e+2, 2.4218848e+2, -599530.5, -714349.9, 12470.214, 0.00026524038, 0.0018730792, -598191.75, -31635.355, 0.0, 5.0269456, 4.951607 
8.145641e+2, 2.4713606e+2, -560572.75, -674549.0, 11201.97, 0.0003983512, 0.0067962077, -559482.2, -41411.496, 0.0, 5.024188, 4.9495783 
8.143805e+2, 2.5208202e+2, -519551.63, -629577.3, 10644.037, 0.00026831715, 0.003849332, -518531.38, -48930.684, 0.0, 5.021329, 4.9493675 
8.1419635e+2, 2.5702727e+2, -480737.66, -589414.06, 9388.394, 0.00011427741, 0.0064166444, -479932.6, -58794.582, 0.0, 5.0184054, 4.9474893 
8.140115e+2, 2.6197135e+2, -439944.44, -543869.0, 8768.689, 0.00000789483, 0.003613897, -439209.75, -66523.48, 0.0, 5.015307, 4.947544 
8.138263e+2, 2.669149e+2, -401702.22, -503714.28, 7561.97, 0.0010223888, 0.007167897, -401144.72, -76905.97, 0.0, 5.012104, 4.945734 
8.136405e+2, 2.7185735e+2, -361195.28, -457655.3, 6872.5063, 0.0015466249, 0.0036822108, -360708.1, -84905.66, 0.0, 5.00875, 4.9460425 
8.134544e+2, 2.7679932e+2, -323554.13, -417914.75, 5957.477, 0.0016180897, 0.0065183374, -323179.5, -95807.79, 0.0, 5.0053325, 4.944129 
8.1326795e+2, 2.8174052e+2, -282899.7, -370750.84, 5223.6978, 0.0018895121, 0.0030558961, -282590.16, -103642.42, 0.0, 5.001802, 4.9448633 
8.1308144e+2, 2.8668112e+2, -245668.38, -331201.03, 4570.939, 0.0023867786, 0.0048475065, -245424.8, -114896.21, 0.0, 4.998215, 4.942901 
8.12895e+2, 2.9162124e+2, -205256.52, -283436.78, 3958.729, 0.0042511006, 0.00022523876, -205056.56, -122942.055, 0.0, 4.994438, 4.9439116 
8.127088e+2, 2.9656184e+2, -168673.44, -243502.92, 3539.3071, 0.006267857, 0.0091808615, -168506.4, -134809.23, 0.0, 4.9904604, 4.9421887 
8.1252265e+2, 3.0150068e+2, -131603.77, -202517.83, 3287.885, 0.006540433, 0.0036178916, -131451.66, -131451.66, 0.0, 4.986495, 4.9408097 
8.123366e+2, 3.0644268e+2, -100693.164, -145570.97, 2042.4424, -0.0028743676, -0.011632364, -100600.4, -100600.4, 0.0, 4.982956, 4.953916 
8.121528e+2, 3.1139883e+2, -106407.17, -135580.77, 2891.6555, -0.0030714523, 0.018966973, -106123.31, -106123.31, 0.0, 4.97847, 4.9594445 
8.1197494e+2, 3.1637144e+2, -79950.46, -49748.418, 299.21014, 0.039053857, -0.01612678, -49745.453, -49745.453, 0.0, 4.9736133, 4.9929504 
8.1178427e+2, 3.2135946e+2, -70468.71, -10667.153, -6928.9507, -0.035309825, -0.026811322, -9874.823, -9874.823, 0.0, 4.970263, 5.008573 
8.239794e+2, 1.282547e+2, -1519579.5, -1685178.6, 7520.3105, 0.01563751, 0.009028004, -1519238.6, 163872.0, 0.0, 5.085989, 4.975886 
8.237855e+2, 1.3322596e+2, -1482993.0, -1643596.9, 7010.3657, -0.026049813, 0.0010414016, -1482687.6, 151702.31, 0.0, 5.082146, 4.9754457 
8.2359976e+2, 1.381986e+2, -1444106.1, -1599594.3, 9360.215, -0.0007641941, 0.009579113, -1443544.8, 142114.39, 0.0, 5.0788903, 4.97539 
8.234139e+2, 1.4316992e+2, -1404985.0, -1556086.8, 10285.061, 0.009681445, 0.002300493, -1404288.1, 132651.66, 0.0, 5.075763, 4.97521 
8.232275e+2, 1.4814124e+2, -1367082.9, -1515013.4, 11929.537, -0.0003613327, 0.004019307, -1366127.0, 122092.95, 0.0, 5.0726757, 4.9741096 
8.230422e+2, 1.5311198e+2, -1327067.4, -1471012.8, 12369.146, -0.0063489275, 0.0045118704, -1326012.3, 113493.88, 0.0, 5.069819, 4.973939 
8.228595e+2, 1.5808168e+2, -1288255.9, -1430229.1, 13913.823, 0.00015257431, 0.0044756187, -1286905.1, 103897.75, 0.0, 5.0671573, 4.9725456 
8.22677e+2, 1.6305038e+2, -1247474.5, -1386130.4, 14281.652, 0.0032531032, 0.00070173084, -1246018.8, 96090.55, 0.0, 5.0645995, 4.972236 
8.224948e+2, 1.680184e+2, -1208689.9, -1346281.4, 15521.026, -0.00033165058, 0.0040404475, -1206960.8, 86461.516, 0.0, 5.0620904, 4.9704223 
8.223133e+2, 1.729852e+2, -1167322.9, -1301974.5, 15459.12, -0.0017286721, 0.0032323673, -1165570.9, 79177.234, 0.0, 5.05972, 4.97006 
8.2213265e+2, 1.7795081e+2, -1128196.9, -1262472.5, 16517.12, 0.0013416786, 0.005899386, -1126195.0, 69891.305, 0.0, 5.0574, 4.967993 
8.2195216e+2, 1.8291503e+2, -1086259.8, -1217780.1, 16404.379, 0.0013456225, 0.0034421575, -1084244.6, 63192.785, 0.0, 5.055177, 4.9676595 
8.217716e+2, 1.8787806e+2, -1047019.1, -1178751.3, 17043.137, -0.0006468248, 0.0055857548, -1044849.9, 53949.926, 0.0, 5.052956, 4.965356 
8.215915e+2, 1.9283967e+2, -1004912.2, -1133997.9, 16650.324, -0.0008441894, 0.003610091, -1002799.06, 47376.848, 0.0, 5.050769, 4.964993 
8.214112e+2, 1.9780003e+2, -965739.0, -1095278.4, 16971.137, 0.00027224593, 0.006602078, -963552.5, 38011.707, 0.0, 5.0485387, 4.9625483 
8.21231e+2, 2.0275877e+2, -923390.56, -1050244.4, 16400.703, 0.00095653493, 0.00388965, -921304.44, 31663.984, 0.0, 5.0463758, 4.962235 
8.210501e+2, 2.0771623e+2, -884076.1, -1011608.94, 16339.167, 0.00068971893, 0.005695093, -882016.06, 22369.422, 0.0, 5.044177, 4.9597135 
8.208692e+2, 2.126721e+2, -841775.4, -966560.75, 15764.359, 0.0003010482, 0.0025759642, -839814.7, 16002.884, 0.0, 5.041962, 4.9593945 
8.206875e+2, 2.1762677e+2, -802550.4, -927947.7, 15257.128, 0.00020803939, 0.004650805, -800720.75, 6539.935, 0.0, 5.039674, 4.956868 
8.205057e+2, 2.2257984e+2, -760483.3, -882975.75, 14636.167, 0.00006797827, 0.0017600419, -758758.75, -38.398655, 0.0, 5.0373483, 4.956537 
8.203227e+2, 2.275318e+2, -721286.8, -844147.1, 13707.603, -0.0010048888, 0.004440725, -719776.0, -9584.696, 0.0, 5.0349607, 4.9540915 
8.201396e+2, 2.3248217e+2, -679475.5, -799033.56, 13114.224, -0.00051403476, 0.0015086674, -678053.94, -16376.369, 0.0, 5.032474, 4.953843 
8.199555e+2, 2.3743154e+2, -640460.75, -759891.8, 11816.227, 0.0010787974, 0.003743352, -639302.94, -26129.873, 0.0, 5.0298986, 4.9515567 
8.197708e+2, 2.423794e+2, -599204.75, -715196.6, 11162.272, 0.002045667, 0.0016160521, -598140.4, -33456.043, 0.0, 5.027224, 4.951208 
8.19585e+2, 2.4732655e+2, -560256.8, -675556.1, 9727.185, 0.0014155156, 0.006885342, -559441.94, -43238.37, 0.0, 5.0244846, 4.949117 
8.193985e+2, 2.5227204e+2, -519248.84, -630517.94, 9083.029, 0.0005300231, 0.0039998437, -518512.25, -50773.973, 0.0, 5.0216026, 4.9489417 
8.192113e+2, 2.572167e+2, -480596.97, -590589.3, 7607.569, 0.00030054332, 0.0054500424, -480073.28, -60792.97, 0.0, 5.018645, 4.947004 
8.1902343e+2, 2.621602e+2, -439959.03, -545176.06, 6827.1475, 0.0007584487, 0.0022860535, -439517.88, -68684.04, 0.0, 5.0155, 4.947035 
8.18835e+2, 2.6710334e+2, -401831.72, -505210.53, 5427.2725, 0.0024330255, 0.006878682, -401547.6, -79155.86, 0.0, 5.012275, 4.94517 
8.1864583e+2, 2.7204528e+2, -361331.66, -459040.8, 4629.308, 0.0023242426, 0.00424098, -361112.8, -87152.375, 0.0, 5.0088906, 4.9455323 
8.184561e+2, 2.7698666e+2, -323701.9, -419297.94, 3523.061, 0.0008921556, 0.006491015, -323572.25, -98037.586, 0.0, 5.0054593, 4.9436307 
8.1826615e+2, 2.819273e+2, -283204.44, -372333.88, 2694.04, 0.0013229125, 0.0022818646, -283123.06, -106006.47, 0.0, 5.001892, 4.944313 
8.180763e+2, 2.8686735e+2, -246062.13, -332827.38, 1867.0531, 0.00398926, 0.004225067, -246021.97, -117318.43, 0.0, 4.9982653, 4.942356 
8.17886e+2, 2.91807e+2, -205496.9, -284789.66, 1116.7999, 0.004699547, 0.0004343738, -205481.17, -125187.23, 0.0, 4.9945016, 4.9434566 
8.176952e+2, 2.967473e+2, -168742.53, -244644.81, 609.302, 0.0009776679, 0.010461077, -168737.64, -136859.34, 0.0, 4.990555, 4.9417963 
8.1750536e+2, 3.0168548e+2, -131868.5, -204320.14, 704.8916, 0.0034069107, 0.0038482866, -131861.64, -131861.64, 0.0, 4.986625, 4.9401665 
8.173175e+2, 3.0662644e+2, -100851.94, -147394.56, -237.00803, 0.010662554, -0.014765118, -100850.734, -100850.734, 0.0, 4.9831324, 4.9532413 
8.171289e+2, 3.1158224e+2, -104804.734, -133609.53, -1138.4999, 0.004576118, 0.013030693, -104759.805, -104759.805, 0.0, 4.978695, 4.9601235 
8.169406e+2, 3.165584e+2, -79252.52, -48294.434, -2430.326, -0.002242834, 0.017940914, -48104.805, -48104.805, 0.0, 4.9735255, 4.9936056 
8.167561e+2, 3.2154593e+2, -73886.47, -23257.676, -1812.175, 0.007015462, 0.014427517, -23192.895, -23192.895, 0.0, 4.9710493, 5.003743 
8.290616e+2, 1.2844773e+2, -1519262.3, -1682810.1, 8452.352, 0.017556572, 0.01644082, -1518826.6, 162394.8, 0.0, 5.0857153, 4.97676 
8.2886374e+2, 1.3341875e+2, -1482276.5, -1640482.8, 8644.324, -0.0259495, -0.0018803081, -1481805.6, 150697.39, 0.0, 5.0818896, 4.9765625 
8.286749e+2, 1.3839275e+2, -1443582.3, -1596708.8, 11434.944, -0.00014925431, 0.011716405, -1442733.1, 141024.52, 0.0, 5.0786214, 4.9764266 
8.2848585e+2, 1.4336486e+2, -1404549.6, -1553509.8, 12342.188, 0.009183216, 0.004818698, -1403533.9, 131496.11, 0.0, 5.075529, 4.9761257 
8.282966e+2, 1.4833659e+2, -1366595.5, -1512544.1, 14303.732, -0.00048936694, 0.0042442125, -1365206.9, 121098.93, 0.0, 5.0725093, 4.974949 
8.2810855e+2, 1.5330787e+2, -1326383.4, -1468490.0, 14979.652, -0.0062888707, 0.004131411, -1324821.6, 112764.766, 0.0, 5.069736, 4.974757 
8.279232e+2, 1.5827812e+2, -1287489.6, -1427803.1, 16806.268, -0.000518569, 0.0042034816, -1285504.6, 103372.54, 0.0, 5.0671515, 4.973289 
8.277382e+2, 1.6324732e+2, -1246526.9, -1383739.8, 17252.234, 0.0027638648, 0.00056315935, -1244391.0, 95787.88, 0.0, 5.06469, 4.9729214 
8.2755375e+2, 1.6821572e+2, -1207594.3, -1343958.1, 18718.318, 0.0005244639, 0.004085408, -1205071.5, 86416.805, 0.0, 5.0622783, 4.9710345 
8.2736987e+2, 1.7318286e+2, -1165927.6, -1299527.9, 18802.232, -0.0012494017, 0.0029594242, -1163331.9, 79479.13, 0.0, 5.0600214, 4.9706607 
8.271868e+2, 1.781487e+2, -1126587.8, -1260087.5, 20052.213, 0.000170285, 0.004890036, -1123640.9, 70505.875, 0.0, 5.0578218, 4.9685125 
8.270042e+2, 1.8311316e+2, -1084371.1, -1215357.1, 20013.72, 0.00013076935, 0.0025481752, -1081381.5, 64113.715, 0.0, 5.0557203, 4.968137 
8.268217e+2, 1.880764e+2, -1044920.4, -1176419.9, 20799.791, -0.00068360375, 0.005296731, -1041708.8, 55146.574, 0.0, 5.0536194, 4.965746 
8.266395e+2, 1.9303814e+2, -1002527.9, -1131626.3, 20448.588, -0.0003032137, 0.0035588238, -999366.4, 48864.293, 0.0, 5.051553, 4.9653435 
8.26457e+2, 1.979985e+2, -963131.44, -1092989.3, 20896.488, 0.00096727547, 0.006357847, -959851.6, 39767.836, 0.0, 5.0494394, 4.962819 
8.262747e+2, 2.0295718e+2, -920439.9, -1047848.7, 20434.746, 0.0011985785, 0.003310073, -917242.7, 33781.36, 0.0, 5.047411, 4.9624825 
8.260915e+2, 2.0791452e+2, -880821.0, -1009291.44, 20465.232, 0.00013248019, 0.004746896, -877639.7, 24801.947, 0.0, 5.0453634, 4.959868 
8.2590854e+2, 2.1287027e+2, -838195.1, -964163.75, 19915.162, -0.00005192471, 0.0019011641, -835121.6, 18753.111, 0.0, 5.0432796, 4.9595194 
8.2572466e+2, 2.1782477e+2, -798757.9, -925661.2, 19471.168, 0.00056583586, 0.004395603, -795837.56, 9482.271, 0.0, 5.041106, 4.9569077 
8.255406e+2, 2.2277753e+2, -756381.2, -880559.7, 18921.322, 0.0010260114, 0.0011366018, -753562.1, 3220.1213, 0.0, 5.038895, 4.9565725 
8.2535535e+2, 2.2772908e+2, -716971.4, -841864.9, 18032.74, 0.00043458174, 0.002762775, -714419.9, -6163.1206, 0.0, 5.0366273, 4.9540305 
8.2516974e+2, 2.3267904e+2, -674965.5, -796796.6, 17418.895, 0.0009399333, -0.0001267567, -672523.94, -12777.18, 0.0, 5.0342383, 4.9537253 
8.2498306e+2, 2.3762803e+2, -635837.56, -757801.8, 16088.476, 0.001926924, 0.002880526, -633751.0, -22504.574, 0.0, 5.0317407, 4.951358 
8.247956e+2, 2.4257538e+2, -594245.6, -712873.3, 15525.754, 0.0019695929, 0.00048143987, -592247.3, -29484.648, 0.0, 5.0291724, 4.951046 
8.24607e+2, 2.4752188e+2, -554995.56, -673207.6, 14062.305, 0.0006256849, 0.004090928, -553345.75, -39057.93, 0.0, 5.0265584, 4.9489145 
8.2441765e+2, 2.5246683e+2, -513915.88, -628230.4, 13402.044, 0.00015797013, 0.001304002, -512365.66, -46537.992, 0.0, 5.023726, 4.948698 
8.242275e+2, 2.57411e+2, -475278.84, -588393.7, 11847.147, 0.0008769748, 0.003990449, -474051.34, -56677.168, 0.0, 5.0207753, 4.946732 
8.240365e+2, 2.62354e+2, -434661.97, -543119.8, 11047.294, 0.0012768763, 0.0014702554, -433548.16, -64614.684, 0.0, 5.017645, 4.9467134 
8.2384473e+2, 2.6729643e+2, -396446.25, -503088.8, 9578.743, 0.0017792094, 0.005813846, -395592.72, -75094.31, 0.0, 5.01444, 4.944869 
8.236521e+2, 2.7223775e+2, -355911.6, -456992.44, 8789.907, 0.0013589589, 0.0031096777, -355152.9, -83079.19, 0.0, 5.011083, 4.945201 
8.2345897e+2, 2.7717847e+2, -318271.4, -417248.72, 7548.9063, 0.00029135335, 0.005386162, -317698.97, -94045.086, 0.0, 5.0076475, 4.943311 
8.232654e+2, 2.8211844e+2, -277961.5, -370326.7, 6681.639, 0.0012166263, 0.0013243672, -277480.7, -102238.58, 0.0, 5.0040035, 4.9440165 
8.230718e+2, 2.8705794e+2, -241269.7, -331022.25, 5774.3604, 0.0038572466, 0.0036182138, -240899.72, -114064.54, 0.0, 5.000208, 4.942065 
8.2287765e+2, 2.91997e+2, -201037.1, -283185.88, 4943.808, 0.0045420676, -0.00013875903, -200740.64, -122308.54, 0.0, 4.996332, 4.9431496 
8.226829e+2, 2.969365e+2, -163922.34, -242890.61, 4025.7427, 0.0003007667, 0.009164472, -163717.64, -133694.53, 0.0, 4.992508, 4.941499 
8.2248914e+2, 3.0187413e+2, -127863.76, -203056.45, 4088.2046, 0.0034613595, 0.0027646075, -127642.14, -127642.14, 0.0, 4.9883046, 4.93982 
8.2229763e+2, 3.0681434e+2, -99317.51, -147155.31, 2914.79, 0.014216955, -0.017456874, -99140.56, -99140.56, 0.0, 4.9838967, 4.952931 
8.221046e+2, 3.1176987e+2, -102649.63, -132459.34, 1596.1775, 0.0066494984, 0.013377099, -102564.414, -102564.414, 0.0, 4.979567, 4.96009 
8.219095e+2, 3.1674507e+2, -71179.21, -43868.395, -2744.3503, -0.019857675, 0.0024591242, -43595.355, -43595.355, 0.0, 4.9764237, 4.9939 
8.21725e+2, 3.2173154e+2, -71319.586, -15338.934, 1032.011, 0.019388065, -0.022620602, -15319.915, -15319.915, 0.0, 4.970798, 5.0066147 
8.3414245e+2, 1.2864256e+2, -1519833.8, -1680937.3, 7491.007, 0.008235819, 0.008352417, -1519486.1, 159826.47, 0.0, 5.084995, 4.9777594 
8.339435e+2, 1.3361631e+2, -1482583.4, -1638709.3, 8055.025, -0.008684718, 0.009189939, -1482168.9, 148398.34, 0.0, 5.081313, 4.97746 
8.337496e+2, 1.3858977e+2, -1444155.8, -1595224.3, 11025.471, -0.0020060486, 0.009645378, -1443355.4, 138471.75, 0.0, 5.078007, 4.977236 
8.3355707e+2, 1.4356247e+2, -1404920.5, -1551924.0, 11813.106, 0.004236111, 0.0015485574, -1403977.3, 129116.27, 0.0, 5.0749846, 4.976935 
8.3336544e+2, 1.4853528e+2, -1366785.0, -1511068.4, 13949.9, -0.0006313364, 0.005012412, -1365448.6, 118910.03, 0.0, 5.072084, 4.975659 
8.3317477e+2, 1.5350719e+2, -1326354.1, -1467016.1, 14693.388, -0.0053099217, 0.0053595053, -1324835.6, 110797.26, 0.0, 5.0694118, 4.975419 
8.329868e+2, 1.5847783e+2, -1287412.5, -1426473.4, 16629.932, -0.00063089054, 0.004031517, -1285451.5, 101468.34, 0.0, 5.0668902, 4.9738684 
8.327993e+2, 1.6344748e+2, -1246279.1, -1382413.1, 17033.674, 0.0023179746, 0.00017076786, -1244180.3, 94036.89, 0.0, 5.064508, 4.973463 
8.3261263e+2, 1.6841634e+2, -1207217.1, -1342739.0, 18611.084, 0.00073086156, 0.0039767507, -1204707.8, 84814.74, 0.0, 5.062186, 4.9714937 
8.324264e+2, 1.733838e+2, -1165414.9, -1298295.8, 18715.873, -0.001347431, 0.0026532563, -1162829.1, 78012.45, 0.0, 5.0599875, 4.9710984 
8.322412e+2, 1.7834988e+2, -1126093.1, -1259071.8, 20028.514, -0.00089535874, 0.0040898556, -1123142.1, 69032.38, 0.0, 5.0578294, 4.968856 
8.320565e+2, 1.8331462e+2, -1083867.4, -1214448.1, 19945.07, -0.00048648764, 0.0020172535, -1080888.9, 62631.355, 0.0, 5.055755, 4.9684324 
8.318719e+2, 1.8827806e+2, -1044488.5, -1175740.1, 20739.256, -0.00011011404, 0.00528469, -1041289.44, 53589.043, 0.0, 5.053674, 4.965954 
8.3168775e+2, 1.932399e+2, -1001919.1, -1130935.1, 20360.838, 0.0002865846, 0.0035330418, -998782.1, 47470.695, 0.0, 5.051684, 4.96552 
8.3150315e+2, 1.9820027e+2, -962381.5, -1092430.4, 20807.043, 0.0010612806, 0.0058981627, -959133.6, 38508.21, 0.0, 5.049661, 4.962909 
8.313188e+2, 2.0315896e+2, -919645.4, -1047362.0, 20297.43, 0.0011384098, 0.0027790184, -916497.2, 32549.072, 0.0, 5.047665, 4.962536 
8.311336e+2, 2.081162e+2, -880144.2, -1009081.4, 20250.3, 0.000024927862, 0.004134056, -877038.56, 23425.65, 0.0, 5.045617, 4.9598284 
8.309485e+2, 2.1307185e+2, -837539.0, -964057.0, 19568.592, 0.000021395153, 0.0014380896, -834581.44, 17316.908, 0.0, 5.0435452, 4.95944 
8.3076245e+2, 2.1802619e+2, -798121.44, -925764.2, 18980.623, 0.00095218315, 0.004083942, -795358.75, 7986.675, 0.0, 5.0413995, 4.956745 
8.305762e+2, 2.2297867e+2, -755689.25, -880650.06, 18318.604, 0.0016298514, 0.00029416563, -753059.25, 1751.0613, 0.0, 5.0392084, 4.9564066 
8.3038867e+2, 2.2792988e+2, -716344.94, -842245.44, 17275.246, 0.0015014476, 0.0011081633, -714017.56, -7730.0137, 0.0, 5.036964, 4.9537582 
8.302007e+2, 2.328795e+2, -674346.75, -797333.56, 16499.174, 0.0018364843, -0.0014571698, -672171.75, -14390.976, 0.0, 5.0346003, 4.9533887 
8.3001137e+2, 2.3782812e+2, -635202.8, -758524.94, 15006.73, 0.0022130855, 0.0021935727, -633402.94, -24118.479, 0.0, 5.0321374, 4.9509444 
8.298212e+2, 2.42775e+2, -593673.94, -713567.25, 14364.883, 0.0013911242, -0.00078903284, -591976.8, -31171.506, 0.0, 5.029531, 4.950662 
8.296299e+2, 2.4772088e+2, -554656.9, -674115.4, 12664.901, -0.00056952966, 0.0009123027, -553328.94, -40993.11, 0.0, 5.0268445, 4.9484963 
8.2943773e+2, 2.5266534e+2, -513796.28, -629410.2, 11808.71, -0.00043126842, -0.0016350811, -512602.47, -48722.348, 0.0, 5.023966, 4.9482055 
8.292447e+2, 2.5760916e+2, -475202.6, -589671.4, 10024.461, 0.0014014347, 0.0026860929, -474331.34, -58900.74, 0.0, 5.0210056, 4.946213 
8.290505e+2, 2.6255164e+2, -434621.8, -544411.8, 9089.2295, 0.0011552077, 0.0009191187, -433874.44, -66879.3, 0.0, 5.0178556, 4.9462 
8.288552e+2, 2.6749346e+2, -396546.5, -504664.97, 7421.2876, -0.00009472069, 0.004652001, -396039.47, -77472.7, 0.0, 5.0146346, 4.9442706 
8.2865924e+2, 2.7243415e+2, -356126.0, -458605.5, 6527.7285, -0.000619399, 0.0015020035, -355711.88, -85563.414, 0.0, 5.0112295, 4.9446115 
8.284628e+2, 2.7737427e+2, -318620.78, -418972.16, 5065.1787, -0.00027361652, 0.003959205, -318365.78, -96631.72, 0.0, 5.007745, 4.942708 
8.282655e+2, 2.8231364e+2, -278333.94, -371930.8, 4009.3586, 0.00058896793, 0.00026827963, -278162.5, -104834.836, 0.0, 5.0040607, 4.943474 
8.2806796e+2, 2.872527e+2, -241609.8, -332586.25, 2899.4243, 0.001663679, 0.0032066093, -241517.48, -116591.945, 0.0, 5.0002623, 4.941541 
8.2787e+2, 2.921911e+2, -201408.89, -285059.72, 2197.4163, 0.0033295008, -0.0008329297, -201351.22, -124822.11, 0.0, 4.9964304, 4.9424973 
8.2767195e+2, 2.971298e+2, -164238.9, -244725.27, 1260.561, 0.0033984093, 0.006634994, -164219.17, -136089.88, 0.0, 4.992617, 4.9408607 
8.2747376e+2, 3.0206695e+2, -127856.58, -204259.13, 980.02673, 0.0038986783, 0.0013027579, -127844.01, -127844.01, 0.0, 4.9884343, 4.9393964 
8.272766e+2, 3.070076e+2, -99336.805, -148334.47, -34.281372, 0.0029083015, -0.009386053, -99336.78, -99336.78, 0.0, 4.984003, 4.952523 
8.2708e+2, 3.119622e+2, -102621.96, -134413.3, -1026.8994, 0.00075273454, 0.016278999, -102588.82, -102588.82, 0.0, 4.9798355, 4.959343 
8.2688516e+2, 3.1693497e+2, -70975.13, -46701.77, -4115.4844, 0.010133613, 0.0039603794, -46022.98, -46022.98, 0.0, 4.976929, 4.9927387 
8.2669175e+2, 3.219245e+2, -75431.76, -25062.68, -3340.8904, 0.012801303, 0.027671237, -24842.05, -24842.05, 0.0, 4.9707055, 5.003269 
8.392225e+2, 1.2884238e+2, -1519813.3, -1677918.6, 8682.271, 0.001521875, 0.004012817, -1519337.9, 158016.5, 0.0, 5.08445, 4.9789805 
8.3902264e+2, 1.3381872e+2, -1483316.5, -1636374.3, 9595.593, 0.013139106, 0.021951314, -1482717.3, 145866.14, 0.0, 5.0805755, 4.978548 
8.38823e+2, 1.3879122e+2, -1444422.5, -1592825.6, 13088.248, -0.006027081, 0.004624425, -1443277.0, 136575.78, 0.0, 5.0774937, 4.978227 
8.3862734e+2, 1.4376464e+2, -1404952.3, -1549301.9, 13994.822, -0.0023855828, -0.0040132347, -1403607.9, 127504.1, 0.0, 5.0745378, 4.977966 
8.384337e+2, 1.4873885e+2, -1366811.4, -1508633.1, 16411.025, -0.00018346195, 0.006027272, -1364937.1, 117426.17, 0.0, 5.071703, 4.976588 
8.382405e+2, 1.5371148e+2, -1326189.6, -1464576.4, 17347.098, -0.003548009, 0.006939024, -1324048.3, 109582.26, 0.0, 5.0691233, 4.976305 
8.3805e+2, 1.5868248e+2, -1287099.6, -1424107.9, 19567.768, -0.00016835258, 0.0033324566, -1284359.6, 100554.51, 0.0, 5.066706, 4.974673 
8.378602e+2, 1.6365264e+2, -1245632.0, -1379893.3, 20074.77, 0.0020379168, -0.0008876595, -1242694.8, 93511.76, 0.0, 5.064449, 4.9742594 
8.3767134e+2, 1.6862203e+2, -1206368.1, -1340281.1, 21877.004, 0.0003950539, 0.0033066624, -1202884.8, 84621.88, 0.0, 5.0622463, 4.9722066 
8.37483e+2, 1.7358993e+2, -1164217.5, -1295709.3, 22106.563, -0.0017036772, 0.0020154202, -1160600.4, 78220.6, 0.0, 5.0601835, 4.9717917 
8.3729565e+2, 1.7855637e+2, -1124672.5, -1256586.8, 23615.98, -0.0013844094, 0.003300589, -1120572.1, 69577.85, 0.0, 5.0581574, 4.9694505 
8.371091e+2, 1.8352143e+2, -1082146.9, -1211930.6, 23618.229, -0.00021337757, 0.0015889271, -1077982.4, 63510.2, 0.0, 5.056216, 4.968975 
8.3692265e+2, 1.8848513e+2, -1042523.2, -1173281.3, 24578.393, 0.0013131557, 0.0052240877, -1038055.8, 54793.12, 0.0, 5.054267, 4.9664125 
8.3673644e+2, 1.9344711e+2, -999519.0, -1128278.0, 24327.479, 0.0008578996, 0.0030358224, -995075.94, 49145.805, 0.0, 5.052433, 4.9659767 
8.365498e+2, 1.9840752e+2, -959642.56, -1089864.6, 24897.69, -0.00006297501, 0.0045269136, -955044.56, 40565.33, 0.0, 5.0505815, 4.96326 
8.363636e+2, 2.0336626e+2, -916596.3, -1044793.8, 24463.406, 0.0007944295, 0.0017923133, -912086.7, 34926.88, 0.0, 5.048726, 4.9628243 
8.361766e+2, 2.0832355e+2, -876830.3, -1006609.06, 24521.926, 0.0015595088, 0.0039431523, -872351.44, 26079.97, 0.0, 5.0468154, 4.960024 
8.359895e+2, 2.13279e+2, -833911.8, -961583.75, 23903.059, 0.0013429727, 0.0007409065, -829583.4, 20284.148, 0.0, 5.044888, 4.959573 
8.3580124e+2, 2.1823299e+2, -794205.06, -923397.9, 23388.846, 0.0013408549, 0.0023511907, -790101.2, 11216.83, 0.0, 5.04289, 4.956779 
8.356128e+2, 2.2318518e+2, -751370.4, -878047.25, 22787.465, 0.0014694736, -0.0016100684, -747395.9, 5389.319, 0.0, 5.040835, 4.9564633 
8.3542305e+2, 2.2813608e+2, -711792.3, -839796.5, 21784.992, 0.00096064794, -0.00072428974, -708186.3, -3921.4688, 0.0, 5.038723, 4.953707 
8.352327e+2, 2.3308535e+2, -669439.8, -794791.8, 21062.89, 0.0010910821, -0.0031438277, -665995.25, -10233.409, 0.0, 5.036504, 4.953307 
8.3504087e+2, 2.3803347e+2, -629936.06, -756046.06, 19565.041, 0.0011482124, 0.00032525588, -626970.44, -19699.84, 0.0, 5.0342107, 4.9507694 
8.348483e+2, 2.4297982e+2, -588204.4, -710952.1, 18882.02, 0.0011306639, -0.0028331527, -585365.44, -26569.238, 0.0, 5.031671, 4.9505067 
8.346542e+2, 2.4792516e+2, -549232.44, -671762.0, 17104.398, 0.00061127637, -0.0014176117, -546889.56, -36558.063, 0.0, 5.0290127, 4.9482446 
8.3445925e+2, 2.528691e+2, -508258.06, -627074.44, 16279.084, 0.000748531, -0.0032859815, -506068.03, -44186.73, 0.0, 5.0261874, 4.947931 
8.3426315e+2, 2.5781235e+2, -469493.22, -587351.06, 14417.597, 0.0014173973, 0.0017016847, -467755.13, -54316.86, 0.0, 5.0232997, 4.945906 
8.340656e+2, 2.6275408e+2, -428724.16, -541944.4, 13479.893, 0.00040863286, -0.0007786696, -427141.38, -62131.477, 0.0, 5.0202107, 4.94592 
8.3386713e+2, 2.6769516e+2, -390611.22, -502395.1, 11718.663, -0.0006607826, 0.0018937073, -389395.94, -72807.63, 0.0, 5.0170374, 4.9439116 
8.336677e+2, 2.7263513e+2, -350193.16, -456196.56, 10780.108, -0.0006228117, -0.0013638607, -349107.97, -80931.43, 0.0, 5.013601, 4.9443207 
8.334677e+2, 2.775747e+2, -313056.56, -416888.78, 9213.868, 0.0002849058, 0.0018920543, -312245.28, -92476.82, 0.0, 5.010005, 4.942358 
8.332668e+2, 2.825134e+2, -272866.1, -369852.63, 8170.845, 0.0013791074, -0.0013506198, -272182.56, -100813.77, 0.0, 5.0062766, 4.9431477 
8.330653e+2, 2.8745177e+2, -236117.36, -330542.78, 6904.336, 0.0017370165, 0.001838, -235615.19, -112642.08, 0.0, 5.002485, 4.9412084 
8.328634e+2, 2.923895e+2, -196409.98, -283299.47, 6143.6143, 0.0030252975, -0.002139976, -195977.75, -121394.28, 0.0, 4.9984803, 4.9421473 
8.326614e+2, 2.9732752e+2, -159931.34, -243198.88, 5069.324, 0.0038956748, 0.0046361103, -159623.86, -133432.77, 0.0, 4.9943933, 4.940555 
8.32459e+2, 3.02264e+2, -123819.805, -202954.84, 4538.4346, 0.0039734687, -0.000042920834, -123560.37, -123560.37, 0.0, 4.990127, 4.9390526 
8.322571e+2, 3.0720407e+2, -94750.21, -146696.48, 2833.4045, -0.0004822133, -0.010584537, -94596.125, -94596.125, 0.0, 4.9858766, 4.952225 
8.320565e+2, 3.121581e+2, -99364.914, -133756.75, 2810.3313, 0.00017229415, 0.017178183, -99136.78, -99136.78, 0.0, 4.9812994, 4.958865 
8.318592e+2, 3.1712806e+2, -70276.93, -46581.367, -520.1493, 0.023895439, -0.024962252, -46569.953, -46569.953, 0.0, 4.97736, 4.9924955 
8.316572e+2, 3.2211667e+2, -68410.38, -14867.353, -2156.7437, -0.0095143365, -0.018480886, -14780.618, -14780.618, 0.0, 4.972012, 5.0062675 
8.442998e+2, 1.2904678e+2, -1520716.3, -1676621.3, 6372.6675, -0.026675452, 0.010261401, -1520456.1, 154892.92, 0.0, 5.0837, 4.979804 
8.4410167e+2, 1.340222e+2, -1484376.0, -1634577.4, 9474.163, 0.04180544, 0.010478365, -1483780.9, 142807.81, 0.0, 5.0796504, 4.9796224 
8.438957e+2, 1.38997e+2, -1444661.6, -1590983.6, 13159.555, -0.013958247, 0.007152936, -1443487.5, 134347.86, 0.0, 5.076953, 4.979121 
8.4369713e+2, 1.4397117e+2, -1405008.4, -1547755.5, 13700.71, -0.010777075, -0.00087323756, -1403705.3, 125382.23, 0.0, 5.0741453, 4.9786897 
8.435016e+2, 1.4894557e+2, -1367066.3, -1507273.6, 16177.186, 0.0016931567, 0.0051699807, -1365223.9, 115113.1, 0.0, 5.0712748, 4.977261 
8.43306e+2, 1.5391879e+2, -1326174.3, -1462906.3, 17187.459, -0.0010508699, 0.005689931, -1324046.9, 107551.75, 0.0, 5.068753, 4.9770565 
8.43113e+2, 1.5889046e+2, -1287000.6, -1422593.3, 19562.25, -0.0004954696, 0.0028202138, -1284234.8, 98640.94, 0.0, 5.066419, 4.9753284 
8.429209e+2, 1.6386117e+2, -1245322.0, -1378338.5, 20039.064, 0.0010123806, -0.0013091506, -1242368.6, 91793.84, 0.0, 5.064251, 4.9748855 
8.427299e+2, 1.68831e+2, -1205969.6, -1338879.4, 21929.395, -0.000099022145, 0.002672816, -1202444.9, 83013.13, 0.0, 5.06213, 4.9727383 
8.425396e+2, 1.7379937e+2, -1163590.5, -1294271.1, 22138.314, -0.0017634097, 0.0015180111, -1159942.0, 76826.01, 0.0, 5.0601635, 4.972291 
8.423504e+2, 1.7876616e+2, -1123939.9, -1255301.0, 23672.521, -0.0012289373, 0.0028635706, -1119804.1, 68289.23, 0.0, 5.0582223, 4.9698553 
8.421619e+2, 1.8373154e+2, -1081353.3, -1210665.6, 23621.984, 0.000096646225, 0.0010781417, -1077173.3, 62259.844, 0.0, 5.056314, 4.969359 
8.4197354e+2, 1.8869545e+2, -1041838.94, -1172292.0, 24661.443, 0.0019701077, 0.0044966266, -1037332.5, 53454.746, 0.0, 5.0543776, 4.9666953 
8.417855e+2, 1.9365762e+2, -998734.4, -1127306.1, 24404.578, 0.0011427981, 0.002209779, -994257.94, 47900.16, 0.0, 5.0525913, 4.9662347 
8.415969e+2, 1.986181e+2, -958836.0, -1089137.8, 24902.738, -0.00044970188, 0.0034155892, -954238.9, 39306.16, 0.0, 5.0507994, 4.963408 
8.4140885e+2, 2.0357692e+2, -915824.06, -1044226.25, 24359.967, 0.0009690423, 0.0009848269, -911357.94, 33590.1, 0.0, 5.0489616, 4.9629107 
8.412201e+2, 2.0853423e+2, -876162.56, -1006299.8, 24330.727, 0.0029054498, 0.003751149, -871762.4, 24603.395, 0.0, 5.047055, 4.9600205 
8.4103096e+2, 2.1348952e+2, -833068.2, -961283.75, 23658.549, 0.0020193793, -0.000092784154, -828842.0, 18961.322, 0.0, 5.0452046, 4.9595327 
8.4084064e+2, 2.1844324e+2, -793230.8, -923310.56, 23062.91, 0.00095637137, 0.0003443092, -789262.9, 9993.508, 0.0, 5.043304, 4.9566245 
8.406501e+2, 2.2339524e+2, -750418.5, -877996.25, 22314.33, 0.00095484225, -0.0031958804, -746628.2, 4096.9624, 0.0, 5.0412436, 4.9563003 
8.4045815e+2, 2.2834592e+2, -711082.8, -840133.5, 21112.686, 0.00046484033, -0.0018599052, -707716.56, -5509.7925, 0.0, 5.03909, 4.953435 
8.402655e+2, 2.3329481e+2, -668868.2, -795248.6, 20270.55, 0.00038802065, -0.0043181237, -665696.56, -11989.245, 0.0, 5.0368304, 4.953013 
8.4007126e+2, 2.3824252e+2, -629560.2, -756855.5, 18569.361, -0.000020218762, -0.0014052319, -626906.7, -21686.146, 0.0, 5.0345106, 4.950368 
8.398762e+2, 2.4318844e+2, -587844.5, -711774.75, 17678.758, 0.00090797845, -0.004415543, -585371.94, -28621.861, 0.0, 5.031964, 4.9501047 
8.396796e+2, 2.481333e+2, -548956.1, -672883.6, 15671.039, 0.002022073, -0.002877983, -547005.2, -38715.77, 0.0, 5.0293164, 4.9477415 
8.394817e+2, 2.5307676e+2, -508025.97, -628279.44, 14735.7, 0.0017502418, -0.0040913536, -506246.6, -46402.227, 0.0, 5.026482, 4.947404 
8.392824e+2, 2.5801948e+2, -469319.66, -588682.6, 12648.653, 0.00077895087, 0.0012781615, -467994.0, -56586.47, 0.0, 5.0235815, 4.9453435 
8.3908176e+2, 2.6296052e+2, -428695.7, -543380.94, 11574.749, -0.0006504585, -0.0024794543, -427539.16, -64553.324, 0.0, 5.020444, 4.945345 
8.388802e+2, 2.6790082e+2, -390759.88, -503995.28, 9582.179, -0.0006894583, -0.0011630058, -389954.75, -75384.47, 0.0, 5.017213, 4.9433155 
8.3867735e+2, 2.728402e+2, -350451.44, -457829.56, 8415.015, -0.000031040923, -0.00416209, -349795.97, -83631.77, 0.0, 5.0137286, 4.943735 
8.384737e+2, 2.7777928e+2, -313309.2, -418526.06, 6579.319, 0.00082982675, 0.0000025886789, -312899.38, -95137.48, 0.0, 5.0101223, 4.9417777 
8.3826905e+2, 2.827174e+2, -273277.13, -371721.47, 5485.7573, 0.0022984229, -0.0025489682, -272972.38, -103604.23, 0.0, 5.006363, 4.9425015 
8.380637e+2, 2.8765512e+2, -236524.28, -332381.6, 3990.601, 0.0028701066, 0.00017575089, -236358.44, -115379.38, 0.0, 5.0025563, 4.9405847 
8.378577e+2, 2.9259226e+2, -196617.5, -284797.5, 3227.319, 0.0023365405, -0.0039188103, -196499.55, -123904.46, 0.0, 4.9985743, 4.9416337 
8.3765125e+2, 2.9752985e+2, -160074.0, -244666.44, 2139.3, 0.0002701142, 0.003872231, -160019.92, -135813.67, 0.0, 4.9945073, 4.940044 
8.3744496e+2, 3.0246565e+2, -124104.85, -205044.05, 1631.5043, 0.0028855961, -0.0013698097, -124071.98, -124071.98, 0.0, 4.99029, 4.9383016 
8.372396e+2, 3.074046e+2, -94924.07, -148708.22, 57.458946, 0.006204254, -0.01443797, -94924.01, -94924.01, 0.0, 4.986065, 4.9514875 
8.37034e+2, 3.1235847e+2, -97982.58, -132427.17, -338.99564, 0.000105059415, 0.012538372, -97979.24, -97979.24, 0.0, 4.9815354, 4.959318 
8.3683074e+2, 3.173307e+2, -69361.12, -45741.57, -2609.852, 0.007957511, -0.0012422464, -45456.633, -45456.633, 0.0, 4.977463, 4.9928555 
8.366267e+2, 3.223196e+2, -71518.23, -24755.809, -3454.6138, 0.0017175114, 0.021794707, -24501.973, -24501.973, 0.0, 4.97241, 5.002635 
8.4937763e+2, 1.2925483e+2, -1522514.4, -1674888.4, 6270.37, -0.035269126, 0.009040529, -1522256.9, 151051.0, 0.0, 5.082604, 4.9808655 
8.491789e+2, 1.3422975e+2, -1485008.6, -1631726.9, 11269.961, 0.06477873, -0.0058406745, -1484148.0, 140406.02, 0.0, 5.0788474, 4.980915 
8.489672e+2, 1.3920775e+2, -1445789.9, -1588881.6, 15202.772, -0.02321142, 0.012986062, -1444192.5, 131576.69, 0.0, 5.0761166, 4.9801693 
8.48766e+2, 1.4418258e+2, -1406092.8, -1545946.4, 15664.562, -0.018185547, 0.004484006, -1404359.6, 122655.26, 0.0, 5.073403, 4.9795895 
8.48569e+2, 1.491568e+2, -1367812.1, -1505304.6, 18532.303, 0.0046720216, 0.0025562777, -1365358.0, 112908.39, 0.0, 5.070674, 4.9781394 
8.4837097e+2, 1.5413071e+2, -1326418.6, -1460421.0, 19824.219, 0.0018195371, 0.0027950055, -1323547.4, 105974.03, 0.0, 5.068277, 4.9780474 
8.4817535e+2, 1.591033e+2, -1287078.0, -1420171.8, 22483.408, -0.001226729, 0.002276568, -1283382.5, 97406.92, 0.0, 5.0660534, 4.976238 
8.4798115e+2, 1.6407466e+2, -1245063.4, -1375829.3, 23095.152, -0.00031752422, -0.0016101225, -1241104.3, 90965.28, 0.0, 5.0640264, 4.975755 
8.477883e+2, 1.69045e+2, -1205458.1, -1336404.9, 25208.064, -0.00050254277, 0.0016996728, -1200773.0, 82586.89, 0.0, 5.062046, 4.9735217 
8.4759617e+2, 1.7401387e+2, -1162733.0, -1291723.3, 25593.385, -0.0014106951, 0.0008263168, -1157840.5, 76824.6, 0.0, 5.0602255, 4.9730296 
8.474052e+2, 1.7898113e+2, -1122763.8, -1252756.4, 27287.336, -0.00033493483, 0.002512028, -1117268.0, 68718.29, 0.0, 5.0584373, 4.970518 
8.4721476e+2, 1.8394682e+2, -1079707.4, -1207853.0, 27308.635, 0.00036650363, 0.000024887659, -1074130.5, 63192.043, 0.0, 5.056691, 4.970037 
8.470246e+2, 1.8891098e+2, -1039889.2, -1169567.6, 28543.53, 0.0013434128, 0.0023291195, -1033884.5, 54789.49, 0.0, 5.054917, 4.9672685 
8.468349e+2, 1.9387344e+2, -996420.44, -1124572.8, 28475.857, 0.0013113455, 0.0005443367, -990377.94, 49663.832, 0.0, 5.053297, 4.966736 
8.466448e+2, 1.9883417e+2, -956195.8, -1086474.6, 29077.748, 0.0009968724, 0.0026963267, -950000.4, 41425.9, 0.0, 5.0516706, 4.96381 
8.46455e+2, 2.0379303e+2, -912834.0, -1041538.75, 28581.662, 0.0020277374, 0.00010474695, -906772.3, 36056.85, 0.0, 5.049989, 4.963251 
8.462643e+2, 2.0875028e+2, -872842.06, -1003672.0, 28704.184, 0.0031334704, 0.0023675365, -866821.44, 27426.62, 0.0, 5.0482426, 4.9602704 
8.460733e+2, 2.1370547e+2, -829219.7, -958332.8, 28200.09, 0.0014151257, -0.0020929724, -823329.1, 22356.633, 0.0, 5.0465674, 4.959818 
8.4588104e+2, 2.1865897e+2, -789011.7, -920517.5, 27675.031, -0.0006528099, -0.0026154767, -783424.94, 13714.588, 0.0, 5.0448666, 4.956768 
8.456885e+2, 2.2361083e+2, -745973.2, -875347.4, 26915.69, 0.0002776162, -0.0050654537, -740596.94, 8013.421, 0.0, 5.042943, 4.956333 
8.4549457e+2, 2.2856131e+2, -706387.3, -837612.44, 25739.678, 0.0013857499, -0.0020615978, -701519.1, -1423.8972, 0.0, 5.04092, 4.9533706 
8.452998e+2, 2.335098e+2, -663792.9, -792401.94, 24994.209, 0.0017555769, -0.005187824, -659106.25, -7506.2954, 0.0, 5.0387697, 4.9530144 
8.4510326e+2, 2.3845692e+2, -624309.8, -754220.4, 23296.873, 0.0015351769, -0.0039303997, -620258.3, -17140.27, 0.0, 5.036567, 4.950248 
8.4490556e+2, 2.4340242e+2, -582291.75, -709060.56, 22431.926, 0.0018322583, -0.0063722106, -578439.5, -23787.63, 0.0, 5.0341473, 4.949959 
8.4470624e+2, 2.4834684e+2, -543136.94, -670272.0, 20377.002, 0.0019188018, -0.0035669466, -539950.75, -33754.832, 0.0, 5.0316353, 4.9475055 
8.445054e+2, 2.5328964e+2, -501830.66, -625446.5, 19520.52, 0.00079597806, -0.005486982, -498821.38, -41064.04, 0.0, 5.0289288, 4.947191 
8.443032e+2, 2.582316e+2, -462946.13, -586012.2, 17324.254, -0.0004714966, -0.0012915707, -460553.88, -51226.355, 0.0, 5.0261335, 4.9450364 
8.4409946e+2, 2.6317203e+2, -422222.7, -540587.9, 16227.307, -0.0008458985, -0.0047439653, -420038.3, -59126.89, 0.0, 5.0230174, 4.945076 
8.438946e+2, 2.6811177e+2, -384398.97, -501346.72, 14163.835, 0.00033569924, -0.0024474238, -382708.0, -70206.75, 0.0, 5.0197563, 4.943017 
8.436883e+2, 2.7305052e+2, -344099.66, -455319.78, 12935.562, 0.00094222894, -0.004543486, -342614.97, -78512.78, 0.0, 5.016294, 4.9433837 
8.434808e+2, 2.779888e+2, -306926.5, -416233.53, 10922.119, 0.0010339442, 0.000010920688, -305845.8, -90137.73, 0.0, 5.0127325, 4.941338 
8.432724e+2, 2.8292617e+2, -266861.2, -369222.4, 9819.945, 0.0023736807, -0.00270592, -265927.63, -98605.64, 0.0, 5.0089483, 4.9421535 
8.430631e+2, 2.878631e+2, -230378.13, -330072.38, 8174.4595, 0.0029490797, -0.00047133327, -229712.3, -110772.21, 0.0, 5.005046, 4.9402213 
8.42853e+2, 2.927994e+2, -190929.98, -282616.78, 7127.786, 0.0022579008, -0.00541426, -190379.17, -119815.31, 0.0, 5.0008793, 4.9413085 
8.4264237e+2, 2.9773635e+2, -154879.48, -242789.31, 5660.7886, 0.00015679773, 0.002854955, -154516.47, -132335.17, 0.0, 4.996644, 4.939694 
8.424319e+2, 3.0267146e+2, -119657.55, -203523.61, 5079.025, 0.003961842, -0.0024881111, -119351.07, -119351.07, 0.0, 4.992152, 4.9379573 
8.4222233e+2, 3.0760953e+2, -91495.484, -147876.92, 3346.7498, 0.010510086, -0.017756296, -91297.516, -91297.516, 0.0, 4.9875956, 4.9510484 
8.4201187e+2, 3.125632e+2, -94395.29, -129888.82, 2882.8857, 0.0003862363, 0.012134287, -94162.66, -94162.66, 0.0, 4.9828043, 4.9595985 
8.418031e+2, 3.1753528e+2, -67240.17, -45415.527, -1071.4648, -0.000019464918, -0.009686501, -45363.05, -45363.05, 0.0, 4.978516, 4.992419 
8.415966e+2, 3.225212e+2, -67233.5, -20033.99, -1577.5417, 0.012764652, -0.023932295, -19981.324, -19981.324, 0.0, 4.973561, 5.003699 
8.544601e+2, 1.2946641e+2, -1523276.0, -1672831.4, 5407.091, 0.012021179, 0.0058571016, -1523080.8, 148151.77, 0.0, 5.08174, 4.982005 
8.542487e+2, 1.3444246e+2, -1485251.4, -1630369.8, 11077.458, 0.017642587, -0.0050337915, -1484410.6, 138057.27, 0.0, 5.0783916, 4.981616 
8.5404015e+2, 1.3942078e+2, -1446658.5, -1587758.5, 14818.645, -0.012283368, 0.011296139, -1445119.0, 128561.4, 0.0, 5.07545, 4.9808836 
8.5383636e+2, 1.4439636e+2, -1406443.4, -1544096.0, 15224.122, -0.006889984, 0.002801606, -1404779.8, 120139.12, 0.0, 5.072814, 4.9805098 
8.536353e+2, 1.493714e+2, -1367789.3, -1503464.4, 18379.48, 0.0015300026, 0.0011805217, -1365343.5, 110818.875, 0.0, 5.0702705, 4.9789634 
8.534349e+2, 1.5434603e+2, -1326272.5, -1458581.8, 19746.467, -0.001194683, 0.0018053481, -1323388.3, 104022.086, 0.0, 5.067933, 4.978842 
8.5323757e+2, 1.5931933e+2, -1286986.6, -1418544.0, 22493.2, -0.0007982473, 0.0016872935, -1283247.1, 95424.68, 0.0, 5.0657425, 4.9769406 
8.530413e+2, 1.6429132e+2, -1244719.1, -1374124.8, 23113.691, -0.00027044656, -0.0017879748, -1240714.6, 89231.2, 0.0, 5.0638146, 4.976438 
8.5284656e+2, 1.692622e+2, -1204943.4, -1334767.9, 25252.693, -0.0012779692, 0.0016505033, -1200204.4, 81026.5, 0.0, 5.061935, 4.9741287 
8.526527e+2, 1.7423157e+2, -1162237.8, -1290087.1, 25667.521, -0.0014618179, 0.00035905765, -1157277.1, 75253.984, 0.0, 5.0601096, 4.973639 
8.524601e+2, 1.7919925e+2, -1122524.5, -1251440.1, 27461.168, 0.0005404256, 0.0015434031, -1116918.6, 66929.414, 0.0, 5.058281, 4.971035 
8.5226786e+2, 1.8416537e+2, -1079131.5, -1206467.6, 27481.645, 0.00079818687, -0.0009127073, -1073453.6, 61726.383, 0.0, 5.05667, 4.9705167 
8.52076e+2, 1.8912986e+2, -1038966.3, -1168252.0, 28708.674, 0.001102253, 0.0011713991, -1032878.1, 53649.793, 0.0, 5.0550675, 4.9676447 
8.5188466e+2, 1.9409257e+2, -995502.75, -1123416.1, 28621.53, 0.0017180712, -0.00038971988, -989390.56, 48502.426, 0.0, 5.053483, 4.967042 
8.5169303e+2, 1.9905354e+2, -955402.7, -1085573.1, 29152.04, 0.0024707746, 0.0022356855, -949172.25, 40103.15, 0.0, 5.051857, 4.964028 
8.5150146e+2, 2.0401247e+2, -911850.25, -1040637.2, 28625.621, 0.0026507091, -0.0008943178, -905774.25, 34903.348, 0.0, 5.0502567, 4.963434 
8.513089e+2, 2.0896965e+2, -871736.3, -1002992.94, 28724.576, 0.002480058, 0.00039279152, -865725.44, 26371.459, 0.0, 5.0486054, 4.9603357 
8.5111624e+2, 2.1392487e+2, -828187.25, -957688.25, 28159.555, 0.0008561641, -0.003727562, -822329.06, 21204.938, 0.0, 5.046904, 4.959885 
8.5092217e+2, 2.1887833e+2, -788305.0, -920377.6, 27396.824, -0.0011574986, -0.0042106044, -782847.4, 12140.333, 0.0, 5.0451536, 4.956688 
8.507278e+2, 2.2383006e+2, -745365.94, -875462.56, 26467.846, 0.00022636172, -0.005956856, -740187.25, 6273.358, 0.0, 5.0432363, 4.9561625 
8.505319e+2, 2.2878033e+2, -705797.5, -837965.9, 25172.758, 0.002130042, -0.0021443483, -701165.44, -3216.862, 0.0, 5.041245, 4.953105 
8.503349e+2, 2.3372847e+2, -662987.25, -792538.25, 24327.914, 0.002610927, -0.0059755566, -658569.44, -9113.094, 0.0, 5.039144, 4.9528046 
8.5013604e+2, 2.386751e+2, -623526.9, -754712.8, 22432.23, 0.0026394096, -0.0062988587, -619797.1, -18818.762, 0.0, 5.03699, 4.9499016 
8.499358e+2, 2.4362026e+2, -581548.5, -709687.56, 21395.344, 0.0021225298, -0.00787934, -578070.5, -25554.727, 0.0, 5.034575, 4.949566 
8.4973377e+2, 2.4856435e+2, -542488.5, -671194.1, 19110.836, 0.0010863267, -0.0036016984, -539710.75, -35646.78, 0.0, 5.0320673, 4.9470115 
8.495302e+2, 2.535065e+2, -501286.88, -626337.44, 18117.531, -0.0007530755, -0.0068396428, -498714.88, -43083.465, 0.0, 5.0293036, 4.946735 
8.49325e+2, 2.5844777e+2, -462748.63, -587375.7, 15648.018, -0.0018120538, -0.004217434, -460813.94, -53606.035, 0.0, 5.0264335, 4.9444613 
8.491183e+2, 2.6338774e+2, -422070.25, -541886.4, 14305.919, -0.0007869008, -0.0065025836, -420385.8, -61589.793, 0.0, 5.0232778, 4.944543 
8.4891015e+2, 2.6832703e+2, -384372.78, -502906.56, 11953.434, 0.0013037467, -0.0025846607, -383179.38, -72789.055, 0.0, 5.019997, 4.942406 
8.4870034e+2, 2.7326515e+2, -344282.9, -457208.63, 10568.675, 0.0014116241, -0.0035105064, -343302.28, -81304.25, 0.0, 5.0165005, 4.9426737 
8.4848917e+2, 2.7820277e+2, -307221.2, -418262.7, 8311.587, 0.0006735718, 0.0014069343, -306602.5, -92990.695, 0.0, 5.0129027, 4.9405994 
8.4827685e+2, 2.831394e+2, -267143.28, -370985.13, 7068.461, 0.0015582644, -0.0018779254, -266664.34, -101431.586, 0.0, 5.0090647, 4.9415336 
8.480635e+2, 2.8807557e+2, -230850.28, -332150.22, 5179.2627, 0.0014126062, -0.00037140652, -230586.17, -113728.98, 0.0, 5.0051246, 4.9395137 
8.478494e+2, 2.9301116e+2, -191277.2, -284617.66, 4108.7197, 0.0013348135, -0.005595711, -191096.7, -122608.59, 0.0, 5.0010004, 4.940609 
8.476348e+2, 2.979474e+2, -155122.66, -244735.5, 2663.1682, 0.002048077, 0.003043152, -155043.6, -134930.72, 0.0, 4.9967957, 4.939003 
8.474197e+2, 3.0288196e+2, -119511.91, -204760.72, 1986.5621, 0.0049099675, -0.0022043528, -119465.64, -119465.64, 0.0, 4.992333, 4.937509 
8.472053e+2, 3.078198e+2, -91154.6, -148873.11, 425.32703, 0.007384137, -0.01458055, -91151.47, -91151.47, 0.0, 4.987807, 4.950674 
8.469902e+2, 3.127729e+2, -93796.02, -130547.63, -229.95857, -0.0013423075, 0.011882063, -93794.58, -93794.58, 0.0, 4.983065, 4.959332 
8.467773e+2, 3.1774464e+2, -66147.984, -45110.4, -3500.5977, 0.002792635, -0.0019162333, -44543.2, -44543.2, 0.0, 4.97879, 4.9925117 
8.465661e+2, 3.2273224e+2, -68183.086, -24917.787, -3028.1592, 0.011615285, 0.013793314, -24706.873, -24706.873, 0.0, 4.9739504, 5.0019207 
8.595378e+2, 1.2968218e+2, -1526221.4, -1670961.1, 6345.1807, 0.027525596, 0.004616786, -1525943.8, 143172.55, 0.0, 5.080092, 4.9833846 
8.5931665e+2, 1.3465966e+2, -1487845.6, -1629493.4, 11994.32, -0.035802484, 0.0001242366, -1486837.1, 133500.4, 0.0, 5.0771303, 4.9824715 
8.591127e+2, 1.3963759e+2, -1448975.9, -1586576.4, 16443.588, 0.0077213165, 0.0061602867, -1447038.1, 124516.52, 0.0, 5.0742764, 4.981787 
8.58906e+2, 1.4461416e+2, -1407904.3, -1541726.5, 17150.64, 0.008788476, -0.0013429503, -1405741.1, 117042.02, 0.0, 5.0717807, 4.981739 
8.587004e+2, 1.4959048e+2, -1369109.0, -1501274.1, 20604.818, -0.0048864475, 0.00044315687, -1365971.1, 108042.984, 0.0, 5.069364, 4.980064 
8.584979e+2, 1.5456596e+2, -1327195.3, -1456387.5, 22222.457, -0.0062773614, 0.0013967108, -1323479.6, 101774.64, 0.0, 5.0672164, 4.97985 
8.5829926e+2, 1.5953991e+2, -1287553.0, -1416314.3, 25305.104, 0.0007661915, 0.0007758351, -1282758.5, 93751.055, 0.0, 5.0651975, 4.977871 
8.581011e+2, 1.6451266e+2, -1244880.8, -1371688.3, 26131.295, 0.0006731808, -0.0019842766, -1239706.9, 88069.7, 0.0, 5.0634174, 4.9773655 
8.5790443e+2, 1.6948426e+2, -1204778.3, -1332234.1, 28475.904, -0.0023665975, 0.0021947268, -1198705.6, 80349.5, 0.0, 5.061682, 4.975013 
8.5770893e+2, 1.7445417e+2, -1161523.4, -1287185.5, 28997.664, -0.0017834404, -0.00009771991, -1155154.6, 75194.88, 0.0, 5.060034, 4.9745636 
8.575148e+2, 1.7942229e+2, -1121496.9, -1248617.8, 31022.375, 0.001391407, -0.00038520506, -1114330.3, 67331.1, 0.0, 5.0583763, 4.9718504 
8.57321e+2, 1.8438898e+2, -1077726.3, -1203604.1, 31267.248, 0.0016429838, -0.0020400628, -1070387.5, 62599.94, 0.0, 5.056932, 4.9712696 
8.5712767e+2, 1.8935399e+2, -1037216.2, -1165463.6, 32665.396, 0.0015640203, 0.0011094317, -1029375.5, 54954.676, 0.0, 5.0555053, 4.968289 
8.569349e+2, 1.94317e+2, -993337.1, -1120516.3, 32668.725, 0.002409426, -0.00081366376, -985436.3, 50256.41, 0.0, 5.054095, 4.967642 
8.5674185e+2, 1.9927813e+2, -952868.94, -1082676.1, 33363.72, 0.0035390274, 0.0010638922, -944795.7, 42277.883, 0.0, 5.0526443, 4.9645443 
8.5654855e+2, 2.0423715e+2, -908736.5, -1037415.5, 33017.574, 0.0024118866, -0.0034417713, -900759.1, 37714.84, 0.0, 5.05124, 4.963976 
8.5635424e+2, 2.0919433e+2, -868272.25, -999991.44, 33236.203, 0.00041513896, -0.003724393, -860361.06, 29531.08, 0.0, 5.0497923, 4.9607115 
8.5616016e+2, 2.1414977e+2, -824469.5, -954756.4, 32773.945, 0.0010992506, -0.005467397, -816689.7, 24638.16, 0.0, 5.048231, 4.960172 
8.559647e+2, 2.1910346e+2, -784332.25, -917569.44, 32065.75, 0.0022012342, -0.0027595551, -777016.75, 15764.136, 0.0, 5.0466228, 4.95687 
8.557684e+2, 2.2405496e+2, -740941.06, -872475.75, 31267.871, 0.0024206922, -0.0053589293, -733886.56, 10370.195, 0.0, 5.044879, 4.95633 
8.5557026e+2, 2.2900477e+2, -700970.5, -834984.56, 30043.838, 0.0022103428, -0.0037042766, -694543.4, 1205.8905, 0.0, 5.0430665, 4.9531956 
8.553711e+2, 2.3395261e+2, -657580.1, -789196.94, 29385.2, 0.0010952718, -0.008255879, -651317.5, -4058.4597, 0.0, 5.0411606, 4.952938 
8.5517e+2, 2.3889893e+2, -617679.3, -751478.0, 27496.713, -0.00046551408, -0.008676452, -612248.9, -13466.099, 0.0, 5.039222, 4.9499087 
8.549675e+2, 2.4384373e+2, -575308.8, -706489.56, 26508.627, -0.0005441928, -0.009335562, -570154.56, -19830.262, 0.0, 5.0369987, 4.949476 
8.547629e+2, 2.4878743e+2, -535860.75, -668056.44, 24172.615, -0.00035181854, -0.0035186422, -531579.3, -29701.58, 0.0, 5.0346727, 4.946821 
8.5455674e+2, 2.5372902e+2, -494364.4, -622880.0, 23146.637, -0.0006686071, -0.0072851074, -490322.63, -36872.04, 0.0, 5.0319824, 4.9466286 
8.543488e+2, 2.5866956e+2, -455864.5, -584279.75, 20637.176, -0.0002569317, -0.0057322583, -452629.44, -47596.434, 0.0, 5.029157, 4.9442205 
8.541389e+2, 2.6360896e+2, -414993.0, -538833.06, 19277.031, 0.00082654617, -0.0068562636, -412061.7, -55434.105, 0.0, 5.026095, 4.9442515 
8.539273e+2, 2.6854762e+2, -377116.44, -500088.38, 16786.064, 0.0018795631, -0.001485396, -374866.28, -66637.03, 0.0, 5.0229297, 4.9419856 
8.5371387e+2, 2.7348486e+2, -336800.63, -454151.22, 15474.867, 0.0013053064, -0.0036756936, -334794.28, -74948.836, 0.0, 5.0194907, 4.9423184 
8.5349894e+2, 2.7842152e+2, -299647.88, -415199.56, 13144.29, 0.00015157099, -0.0006211714, -298171.53, -86703.75, 0.0, 5.015924, 4.9402423 
8.532827e+2, 2.8335735e+2, -259758.0, -368031.34, 11863.681, 0.0010929959, -0.004066855, -258473.31, -95377.04, 0.0, 5.0120225, 4.9411707 
8.530654e+2, 2.8829288e+2, -223863.7, -329329.6, 9799.618, 0.0017031332, -0.0011728277, -222960.88, -108233.79, 0.0, 5.0079236, 4.93918 
8.52847e+2, 2.9322773e+2, -185029.08, -282241.38, 8573.645, 0.0018795081, -0.005687292, -184278.72, -117913.41, 0.0, 5.003543, 4.9402432 
8.52628e+2, 2.9816312e+2, -149563.05, -242768.55, 6797.489, 0.0031068143, 0.0020393664, -149069.92, -131070.76, 0.0, 4.9990892, 4.9386134 
8.5240835e+2, 3.0309692e+2, -114234.83, -202487.77, 5978.693, 0.0054882052, -0.0031966444, -113831.64, -113831.64, 0.0, 4.994438, 4.9373136 
8.5218906e+2, 3.0803418e+2, -86503.13, -146986.78, 3844.7944, 0.006617717, -0.01609813, -86259.71, -86259.71, 0.0, 4.9897065, 4.950442 
8.519693e+2, 3.1298664e+2, -89740.12, -128831.04, 3227.1794, -0.0017117114, 0.010064781, -89475.484, -89475.484, 0.0, 4.98473, 4.959131 
8.5175186e+2, 3.1795672e+2, -64477.492, -47193.797, -1054.9497, 0.005001874, -0.020249652, -47129.645, -47129.645, 0.0, 4.9801307, 4.9910564 
8.5153544e+2, 3.229435e+2, -64634.758, -19987.412, -929.6408, 0.006948001, -0.020331306, -19968.063, -19968.063, 0.0, 4.9747334, 5.003215 
8.64609e+2, 1.2989889e+2, -1527016.6, -1667803.1, 6354.715, -0.009329875, -0.0046984004, -1526730.4, 140261.61, 0.0, 5.078964, 4.9850245 
8.6439174e+2, 1.348795e+2, -1488110.6, -1626881.0, 10959.896, -0.008566351, 0.00912177, -1487250.4, 130930.83, 0.0, 5.076388, 4.983731 
8.641817e+2, 1.3985702e+2, -1449483.5, -1584350.8, 15897.885, 0.0004370919, 0.0002443718, -1447634.9, 121767.76, 0.0, 5.073531, 4.9829087 
8.6397266e+2, 1.4483486e+2, -1408340.3, -1539552.3, 16679.248, 0.003537913, -0.0049346397, -1406253.3, 114366.086, 0.0, 5.0710845, 4.98282 
8.637655e+2, 1.4981256e+2, -1369531.8, -1499277.4, 20332.928, -0.0035291393, 0.0012169284, -1366420.0, 105417.03, 0.0, 5.0687275, 4.9810524 
8.63561e+2, 1.5478888e+2, -1327147.0, -1454272.4, 22122.72, -0.0062112114, 0.0020325962, -1323407.3, 99661.97, 0.0, 5.0667734, 4.9807844 
8.633603e+2, 1.5976353e+2, -1287107.1, -1414180.4, 25347.305, -0.001293119, 0.00054544566, -1282237.6, 92080.125, 0.0, 5.064943, 4.978717 
8.631605e+2, 1.64737e+2, -1244509.1, -1369663.8, 26187.592, -0.00031955662, -0.0023577767, -1239250.5, 86327.33, 0.0, 5.063155, 4.9781775 
8.629623e+2, 1.6970928e+2, -1204625.1, -1330426.9, 28664.855, -0.0017471779, 0.0016462011, -1198401.6, 78448.1, 0.0, 5.061376, 4.975768 
8.627652e+2, 1.7467985e+2, -1160969.3, -1285221.0, 29236.75, -0.0010834237, -0.0006235323, -1154433.5, 73703.84, 0.0, 5.0598793, 4.9753017 
8.625695e+2, 1.7964855e+2, -1120539.4, -1246705.1, 31272.297, 0.0018025814, -0.0011122453, -1113213.5, 66229.836, 0.0, 5.0584216, 4.9724765 
8.623743e+2, 1.8461576e+2, -1076709.0, -1201803.1, 31513.688, 0.002132089, -0.0025280633, -1069218.5, 61545.715, 0.0, 5.05703, 4.971833 
8.621796e+2, 1.8958122e+2, -1036295.1, -1163881.0, 32879.242, 0.0020456247, 0.0008831609, -1028320.5, 53781.934, 0.0, 5.0556107, 4.968774 
8.619853e+2, 1.9454457e+2, -992318.3, -1118933.0, 32878.754, 0.0029233436, -0.0016568104, -984289.6, 49171.883, 0.0, 5.054244, 4.968108 
8.617909e+2, 1.9950594e+2, -951849.5, -1081348.5, 33607.38, 0.004096257, -0.00079709815, -943647.25, 41192.63, 0.0, 5.0528445, 4.964901 
8.6159605e+2, 2.0446521e+2, -907645.6, -1036087.25, 33223.31, 0.0023373305, -0.0054236064, -899560.8, 36676.43, 0.0, 5.0514765, 4.964316 
8.614003e+2, 2.0942257e+2, -867267.9, -999071.25, 33278.926, -0.00036462472, -0.005919671, -859341.94, 28311.113, 0.0, 5.050071, 4.960894 
8.6120474e+2, 2.1437824e+2, -823561.4, -954097.6, 32681.979, 0.0018208033, -0.005913369, -815836.06, 23251.654, 0.0, 5.048517, 4.960263 
8.6100787e+2, 2.1933211e+2, -783518.06, -917184.3, 31865.865, 0.004972249, -0.0011776848, -776310.0, 14230.348, 0.0, 5.0469165, 4.956865 
8.6080956e+2, 2.2428341e+2, -739751.3, -871874.2, 31065.26, 0.0033939502, -0.0051526125, -732811.6, 9206.267, 0.0, 5.045295, 4.956347 
8.6060935e+2, 2.292329e+2, -699578.9, -834602.3, 29726.81, 0.0011233952, -0.0057243956, -693324.0, 189.22003, 0.0, 5.043608, 4.9530888 
8.604081e+2, 2.341806e+2, -656358.5, -788913.2, 28943.078, -0.00075639464, -0.009701648, -650314.44, -5290.955, 0.0, 5.0416436, 4.952824 
8.602049e+2, 2.391268e+2, -616851.3, -751725.8, 26736.408, -0.0032449581, -0.009219897, -611744.6, -15196.685, 0.0, 5.0396214, 4.949654 
8.6000013e+2, 2.4407132e+2, -574774.75, -707072.7, 25582.89, -0.0028865645, -0.009365732, -570000.06, -21906.887, 0.0, 5.0373287, 4.949137 
8.5979325e+2, 2.490146e+2, -535575.2, -669038.8, 23006.762, -0.0014045659, -0.0030492342, -531720.56, -32068.824, 0.0, 5.034956, 4.946376 
8.595845e+2, 2.5395572e+2, -494016.3, -623664.25, 21715.518, 0.00021731002, -0.0068570795, -490475.75, -39247.242, 0.0, 5.0322504, 4.9462605 
8.593737e+2, 2.588957e+2, -455652.5, -585563.4, 18985.17, 0.0019331774, -0.00630863, -452934.88, -50119.008, 0.0, 5.029448, 4.9436755 
8.5916066e+2, 2.6383454e+2, -414868.97, -540337.9, 17446.412, 0.002040612, -0.006206626, -412488.22, -58071.543, 0.0, 5.026385, 4.9436307 
8.589456e+2, 2.6877266e+2, -377108.4, -501866.25, 14687.335, 0.0016304539, 0.0006783819, -375402.63, -69377.34, 0.0, 5.0232067, 4.9412766 
8.587287e+2, 2.7370906e+2, -336840.38, -455808.9, 13179.806, 0.0005075262, -0.003717221, -335397.75, -77748.664, 0.0, 5.019712, 4.941678 
8.5851e+2, 2.786447e+2, -299921.3, -417061.06, 10573.113, -0.0012859121, -0.0037741154, -298974.63, -89695.36, 0.0, 5.016067, 4.9395757 
8.582899e+2, 2.8357992e+2, -260205.06, -369986.94, 8987.941, -0.000072034934, -0.0067482647, -259474.08, -98560.17, 0.0, 5.012097, 4.940504 
8.580685e+2, 2.88515e+2, -224405.88, -331465.38, 6629.7983, 0.002080237, -0.0014476604, -223996.88, -111447.17, 0.0, 5.0079765, 4.938466 
8.578458e+2, 2.9344925e+2, -185322.25, -284167.25, 5428.6714, 0.0023502144, -0.005276397, -185025.0, -120830.555, 0.0, 5.003665, 4.939574 
8.576221e+2, 2.9838368e+2, -149727.2, -244713.13, 3642.1748, 0.0013858756, 0.00012357521, -149587.75, -133750.56, 0.0, 4.9992614, 4.9379225 
8.573978e+2, 3.0331677e+2, -114218.234, -204073.7, 2843.4517, 0.0036931133, -0.005729826, -114128.34, -114128.34, 0.0, 4.9946246, 4.936742 
8.57174e+2, 3.0825368e+2, -86234.57, -148223.45, 760.1276, 0.0061409534, -0.015894094, -86225.25, -86225.25, 0.0, 4.989926, 4.9499817 
8.5694915e+2, 3.132053e+2, -89219.695, -129783.05, 61.165398, -0.004482176, 0.0059119826, -89219.6, -89219.6, 0.0, 4.984999, 4.958762 
8.567268e+2, 3.18176e+2, -62458.496, -45183.11, -3638.3228, 0.002172553, -0.00765173, -44448.125, -44448.125, 0.0, 4.980454, 4.99178 
8.565058e+2, 3.231635e+2, -66047.336, -24810.354, -3194.3645, 0.0075553544, 0.01631194, -24564.375, -24564.375, 0.0, 4.974872, 5.001601 
8.6968184e+2, 1.3011982e+2, -1529413.9, -1664596.0, 8672.419, -0.012223809, -0.0060565826, -1528859.8, 135966.33, 0.0, 5.077259, 4.986886 
8.6946625e+2, 1.3510267e+2, -1491631.0, -1624788.8, 12081.846, 0.029032324, 0.015983174, -1490543.6, 125448.625, 0.0, 5.074441, 4.985327 
8.692483e+2, 1.4008021e+2, -1451890.5, -1582104.3, 17460.346, -0.016326098, -0.0059239366, -1449589.9, 117623.75, 0.0, 5.0720797, 4.984308 
8.6903757e+2, 1.4505951e+2, -1410398.6, -1537279.3, 18441.727, -0.006201155, -0.007713823, -1407772.6, 110643.94, 0.0, 5.0697975, 4.9841437 
8.688299e+2, 1.5003869e+2, -1371340.4, -1497039.8, 22479.89, 0.0018128117, 0.0026702322, -1367441.1, 102179.18, 0.0, 5.0675855, 4.982286 
8.6862326e+2, 1.5501595e+2, -1328458.8, -1451812.4, 24575.086, -0.004430362, 0.002970984, -1323743.1, 97100.586, 0.0, 5.065819, 4.9819994 
8.6842036e+2, 1.5999144e+2, -1288088.9, -1411713.0, 28013.557, -0.0053924792, 0.0005317177, -1282037.3, 90047.15, 0.0, 5.0641556, 4.979845 
8.6821914e+2, 1.6496572e+2, -1245031.8, -1367009.4, 28961.1, -0.0017556892, -0.0030109934, -1238504.9, 84831.46, 0.0, 5.0625443, 4.979283 
8.680197e+2, 1.6993871e+2, -1204752.1, -1327701.4, 31736.62, 0.0004528197, 0.00017137906, -1197043.4, 77557.15, 0.0, 5.0609436, 4.976806 
8.6782116e+2, 1.7491014e+2, -1160597.4, -1282286.8, 32555.316, 0.0004086961, -0.0013194687, -1152435.4, 73444.48, 0.0, 5.0596395, 4.976318 
8.676241e+2, 1.7987964e+2, -1119870.6, -1243888.0, 34813.293, 0.0018294173, -0.0008724414, -1110766.4, 66411.63, 0.0, 5.058355, 4.9733677 
8.674276e+2, 1.8484738e+2, -1075618.0, -1198902.3, 35185.59, 0.0021917133, -0.0026273876, -1066282.9, 62211.13, 0.0, 5.0571437, 4.9726677 
8.672316e+2, 1.8981327e+2, -1034738.4, -1160811.6, 36735.25, 0.0024147874, -0.00018367272, -1024815.44, 55012.594, 0.0, 5.055911, 4.9695764 
8.670361e+2, 1.9477704e+2, -990192.2, -1115500.9, 36912.76, 0.003336815, -0.0040067243, -980127.06, 51055.05, 0.0, 5.054734, 4.968948 
8.668403e+2, 1.9973877e+2, -949389.3, -1078089.0, 37846.28, 0.004311997, -0.0043139854, -939085.0, 43470.96, 0.0, 5.0535245, 4.9655933 
8.666443e+2, 2.0469859e+2, -904804.75, -1032785.0, 37653.3, 0.0033263897, -0.006793448, -894548.56, 39399.652, 0.0, 5.0523334, 4.9649405 
8.664474e+2, 2.0965645e+2, -864120.6, -995916.2, 37830.742, 0.001955391, -0.004855946, -854033.7, 31326.25, 0.0, 5.051105, 4.9613876 
8.662503e+2, 2.1461219e+2, -820011.0, -950913.75, 37338.64, 0.0034966515, -0.0053176205, -810109.5, 26685.893, 0.0, 5.0497355, 4.960683 
8.660517e+2, 2.1956596e+2, -779453.9, -913794.06, 36711.355, 0.0053143585, -0.001897664, -770076.3, 18173.645, 0.0, 5.048328, 4.9572706 
8.6585164e+2, 2.2451718e+2, -734923.2, -867909.0, 36189.582, 0.0013204935, -0.008077264, -725712.75, 14013.52, 0.0, 5.0469437, 4.9568486 
8.656496e+2, 2.2946656e+2, -694174.75, -830779.94, 34910.492, -0.003188915, -0.010356836, -685770.2, 5450.066, 0.0, 5.0455456, 4.9534163 
8.654469e+2, 2.3441447e+2, -650755.9, -785428.6, 34162.86, -0.0015155738, -0.010337136, -642585.4, 144.69873, 0.0, 5.0437484, 4.952959 
8.6524194e+2, 2.3936082e+2, -610970.25, -748352.25, 31912.023, 0.00035844266, -0.005001366, -603919.4, -9663.683, 0.0, 5.04187, 4.9496903 
8.65035e+2, 2.4430487e+2, -568524.4, -703450.7, 30863.576, 0.0012964997, -0.0066528097, -561799.7, -15993.334, 0.0, 5.0397034, 4.9492054 
8.648256e+2, 2.4924742e+2, -529058.8, -665495.25, 28280.252, 0.0022897355, -0.0034076616, -523429.2, -26057.266, 0.0, 5.037459, 4.946368 
8.646141e+2, 2.5418815e+2, -486933.16, -619812.94, 27174.533, 0.0031245938, -0.0069460296, -481590.66, -32638.951, 0.0, 5.034953, 4.946274 
8.6440027e+2, 2.5912768e+2, -448202.0, -581923.5, 24395.4, 0.0030893688, -0.005786395, -443890.47, -43348.152, 0.0, 5.032346, 4.9435315 
8.641841e+2, 2.6406586e+2, -407082.84, -536683.7, 22970.646, 0.0021039334, -0.006009848, -403131.94, -50981.938, 0.0, 5.029434, 4.9434347 
8.6396575e+2, 2.6900318e+2, -369072.28, -498365.34, 20142.264, 0.0011646673, 0.00019515169, -366007.03, -62240.074, 0.0, 5.026388, 4.9409738 
8.637453e+2, 2.7393883e+2, -328642.75, -451823.53, 18594.47, 0.000987564, -0.00476964, -325897.06, -70500.25, 0.0, 5.0228796, 4.9415545 
8.6352295e+2, 2.788738e+2, -292173.97, -413799.13, 15993.436, 0.00082488015, -0.004779408, -290106.03, -83073.45, 0.0, 5.019166, 4.93924 
8.632988e+2, 2.8380832e+2, -252757.9, -367002.03, 14307.161, 0.0025443544, -0.0062362677, -250993.44, -92318.24, 0.0, 5.015119, 4.940111 
8.630731e+2, 2.8874257e+2, -217225.33, -328723.38, 11764.69, 0.004749076, -0.000040803196, -215997.5, -105676.73, 0.0, 5.010914, 4.938037 
8.6284584e+2, 2.9367587e+2, -178452.02, -281185.3, 10428.928, 0.0040894523, -0.004923134, -177404.03, -115429.93, 0.0, 5.006414, 4.9393163 
8.626174e+2, 2.9860938e+2, -143379.78, -242246.2, 8218.389, 0.0011770126, -0.0011545713, -142701.27, -129076.59, 0.0, 5.0018544, 4.937562 
8.623884e+2, 3.035417e+2, -108258.625, -201506.34, 7231.7813, 0.0035813616, -0.007180396, -107701.1, -107701.1, 0.0, 4.997016, 4.9365096 
8.621598e+2, 3.0847773e+2, -81338.51, -146758.4, 4534.6016, 0.0077660955, -0.018557943, -81025.68, -81025.68, 0.0, 4.9920454, 4.9494824 
8.6192983e+2, 3.1342885e+2, -84919.15, -127835.445, 3813.6165, -0.004786808, 0.005484127, -84582.9, -84582.9, 0.0, 4.9867535, 4.958592 
8.617024e+2, 3.1839895e+2, -61008.953, -46897.863, -595.4999, 0.0031278308, -0.014032221, -46872.777, -46872.777, 0.0, 4.981639, 4.990507 
8.6147565e+2, 3.2338345e+2, -62995.12, -21765.992, -812.76495, 0.004056666, -0.02821315, -21749.975, -21749.975, 0.0, 4.9758177, 5.002058 
8.747558e+2, 1.3034411e+2, -1531133.0, -1663045.8, 6252.6177, 0.008757881, -0.0038348704, -1530837.4, 131787.98, 0.0, 5.0760837, 4.988005 
8.745339e+2, 1.3532723e+2, -1493044.5, -1622146.3, 12243.959, 0.013855611, 0.007785443, -1491893.5, 121897.16, 0.0, 5.0731816, 4.986843 
8.743162e+2, 1.4030702e+2, -1452133.9, -1579520.3, 17419.023, -0.011056232, -0.0047300896, -1449794.9, 115194.625, 0.0, 5.071382, 4.9855266 
8.7410295e+2, 1.4528733e+2, -1410501.4, -1534805.4, 18137.188, -0.004089808, -0.006662204, -1407909.0, 108273.77, 0.0, 5.069194, 4.98528 
8.738927e+2, 1.5026733e+2, -1371634.5, -1494739.1, 22406.648, -0.0013681882, 0.0017786752, -1367683.0, 99696.2, 0.0, 5.066947, 4.983377 
8.736845e+2, 1.552456e+2, -1328543.8, -1449367.5, 24687.063, -0.0060483706, 0.0020589232, -1323694.3, 94898.51, 0.0, 5.065249, 4.983105 
8.734803e+2, 1.6022211e+2, -1288140.9, -1409444.1, 28134.313, -0.004891765, 0.000028660219, -1281933.3, 87890.37, 0.0, 5.0636506, 4.980855 
8.732776e+2, 1.651973e+2, -1244868.0, -1364639.1, 29077.594, -0.0007677426, -0.0033429388, -1238181.9, 82884.44, 0.0, 5.0621204, 4.9802876 
8.7307674e+2, 1.7017116e+2, -1204516.5, -1325552.9, 32025.643, 0.0014810541, -0.00032788262, -1196565.1, 75757.05, 0.0, 5.060608, 4.977691 
8.728768e+2, 1.7514339e+2, -1160077.0, -1280114.9, 32883.547, 0.00038417734, -0.001276859, -1151659.1, 71934.56, 0.0, 5.059431, 4.9771514 
8.726785e+2, 1.8011361e+2, -1119132.5, -1241770.4, 35105.49, 0.0010359251, -0.00054738094, -1109794.5, 65090.258, 0.0, 5.058265, 4.9741235 
8.724809e+2, 1.8508196e+2, -1074732.4, -1196743.1, 35530.953, 0.0023627882, -0.0030885825, -1065139.6, 61055.0, 0.0, 5.057115, 4.97341 
8.722839e+2, 1.9004837e+2, -1033801.94, -1158800.1, 37133.78, 0.0033958214, -0.00169292, -1023602.7, 53920.59, 0.0, 5.0559373, 4.970244 
8.720872e+2, 1.9501266e+2, -989094.44, -1113428.4, 37265.844, 0.0040327115, -0.005844657, -978780.56, 50090.87, 0.0, 5.054821, 4.9696097 
8.718902e+2, 1.9997491e+2, -948317.9, -1076348.5, 38112.72, 0.0047428184, -0.0063999314, -937831.2, 42408.496, 0.0, 5.0536685, 4.9661145 
8.716931e+2, 2.0493528e+2, -903658.4, -1031183.25, 37882.684, 0.0044534346, -0.0071684676, -893253.8, 38373.41, 0.0, 5.05254, 4.9653883 
8.7149495e+2, 2.0989366e+2, -862953.1, -994538.56, 37925.074, 0.004153688, -0.0035612837, -852805.1, 30229.746, 0.0, 5.0513654, 4.961734 
8.7129635e+2, 2.1484952e+2, -818608.4, -949496.6, 37485.79, 0.004362767, -0.0053574406, -808632.9, 25836.682, 0.0, 5.050095, 4.960999 
8.7109613e+2, 2.1980332e+2, -777837.44, -912443.4, 36865.777, 0.0044753775, -0.003727022, -768402.06, 17522.08, 0.0, 5.0487905, 4.9575243 
8.7089455e+2, 2.247547e+2, -733443.3, -866573.06, 36269.098, -0.00039010556, -0.010253935, -724203.6, 13193.67, 0.0, 5.0473466, 4.957126 
8.706909e+2, 2.2970417e+2, -693163.44, -830144.44, 34641.72, -0.0058496147, -0.012905468, -684901.1, 3987.5688, 0.0, 5.0458694, 4.9534936 
8.7048656e+2, 2.3465236e+2, -650062.2, -785349.3, 33665.496, -0.0012145689, -0.009328347, -642147.75, -1749.4497, 0.0, 5.0440426, 4.952857 
8.7027997e+2, 2.3959886e+2, -610381.4, -748564.7, 31217.035, 0.004539658, -0.00029714382, -603656.44, -11731.127, 0.0, 5.042163, 4.949498 
8.700708e+2, 2.4454248e+2, -567599.6, -703394.2, 30120.805, 0.0054076887, -0.004022852, -561218.4, -17738.436, 0.0, 5.04009, 4.9490657 
8.698589e+2, 2.494844e+2, -527974.75, -665671.5, 27375.094, 0.0053514973, -0.004300426, -522732.0, -27681.258, 0.0, 5.037945, 4.946112 
8.6964476e+2, 2.544249e+2, -485811.53, -620005.75, 26087.111, 0.004403793, -0.0069838865, -480918.66, -34286.45, 0.0, 5.035456, 4.946005 
8.69428e+2, 2.593642e+2, -447280.28, -582692.3, 22885.697, 0.0027923617, -0.0042345813, -443517.0, -45292.367, 0.0, 5.0328526, 4.9430666 
8.6920875e+2, 2.6430175e+2, -406455.44, -537647.06, 21281.656, 0.0015089742, -0.00573859, -403089.5, -53250.91, 0.0, 5.0298424, 4.9429455 
8.689872e+2, 2.6923838e+2, -368907.8, -499834.28, 18126.951, 0.00045502096, -0.0006825383, -366444.44, -64981.973, 0.0, 5.026673, 4.940374 
8.687633e+2, 2.741736e+2, -328465.44, -452952.03, 16186.88, 0.0015290072, -0.00492861, -326395.1, -73299.234, 0.0, 5.0230923, 4.941111 
8.6853737e+2, 2.7910814e+2, -292363.03, -415635.13, 13223.859, 0.0040320987, -0.003446218, -290960.4, -86225.69, 0.0, 5.0193357, 4.9385767 
8.6830914e+2, 2.8404203e+2, -253143.31, -369159.72, 11278.813, 0.0062978095, -0.003274331, -252056.98, -95671.95, 0.0, 5.015256, 4.9393487 
8.680791e+2, 2.8897545e+2, -217804.53, -331232.06, 8502.29, 0.007324705, 0.002806154, -217170.75, -109129.63, 0.0, 5.011015, 4.9371758 
8.6784714e+2, 2.939079e+2, -178612.94, -282936.66, 7224.813, 0.004936554, -0.0031809756, -178114.97, -118413.78, 0.0, 5.006557, 4.938704 
8.676139e+2, 2.988406e+2, -143394.58, -244096.31, 4986.715, -0.00012414195, -0.000926006, -143148.25, -131790.84, 0.0, 5.0020695, 4.9368854 
8.673802e+2, 3.0377218e+2, -108251.85, -203409.39, 3977.6008, 0.003781016, -0.0070363753, -108085.875, -108085.875, 0.0, 4.997249, 4.9358044 
8.6714685e+2, 3.0870774e+2, -81104.59, -148356.0, 1268.3114, 0.00935329, -0.015683455, -81080.68, -81080.68, 0.0, 4.992309, 4.9488773 
8.669114e+2, 3.1365865e+2, -84451.625, -128755.125, 400.11115, -0.0040195016, 0.011227664, -84448.016, -84448.016, 0.0, 4.9869823, 4.958266 
8.666789e+2, 3.1862858e+2, -58651.95, -43933.285, -3904.6912, 0.004434418, -0.0004006108, -42961.566, -42961.566, 0.0, 4.981928, 4.991599 
8.664471e+2, 3.236131e+2, -63269.395, -25259.879, -3123.8726, 0.0059897252, 0.00063072884, -25004.85, -25004.85, 0.0, 4.9761806, 5.0008583 
8.7982494e+2, 1.3057104e+2, -1536383.9, -1662419.8, 5174.15, 0.0050477074, -0.0075689903, -1536171.9, 124227.56, 0.0, 5.073653, 4.9893584 
8.795989e+2, 1.3555503e+2, -1496304.4, -1619778.4, 13665.158, -0.007814658, -0.001873523, -1494810.1, 116747.6, 0.0, 5.071284, 4.988514 
8.793832e+2, 1.4053749e+2, -1456049.0, -1578067.8, 18698.092, 0.0011500651, -0.0012924698, -1453248.0, 109481.73, 0.0, 5.0694127, 4.986916 
8.791672e+2, 1.4551876e+2, -1413696.3, -1533126.3, 19427.111, 0.0009635393, -0.0049268184, -1410615.5, 103298.46, 0.0, 5.0675135, 4.9865994 
8.789539e+2, 1.5049951e+2, -1374012.4, -1492601.6, 24258.09, -0.0076169726, -0.000068888156, -1369242.1, 95861.43, 0.0, 5.065559, 4.9847016 
8.7874454e+2, 1.5547895e+2, -1330364.3, -1446858.4, 26916.322, -0.00838063, 0.0005249905, -1324445.9, 91859.76, 0.0, 5.064043, 4.984463 
8.785396e+2, 1.6045663e+2, -1289628.8, -1406934.0, 30536.51, -0.0016784905, -0.00056616473, -1282155.8, 85369.04, 0.0, 5.062613, 4.9821243 
8.783354e+2, 1.6543294e+2, -1245713.6, -1361780.0, 31626.832, 0.0015099905, -0.003367278, -1237655.1, 81101.6, 0.0, 5.061309, 4.9815636 
8.78133e+2, 1.704078e+2, -1204966.1, -1322784.3, 34901.508, 0.0015079696, -0.000185939, -1195403.4, 74599.305, 0.0, 5.06001, 4.978829 
8.7793195e+2, 1.753809e+2, -1160089.0, -1277233.5, 36067.285, -0.00070345774, -0.00089595525, -1149875.0, 71390.984, 0.0, 5.059018, 4.9782376 
8.7773263e+2, 1.8035194e+2, -1118736.4, -1238722.3, 38467.383, -0.00033913658, -0.00045399077, -1107463.0, 65086.387, 0.0, 5.058018, 4.9751825 
8.775343e+2, 1.8532097e+2, -1073742.8, -1193261.4, 39029.707, 0.0028271847, -0.0043734615, -1062126.4, 61725.047, 0.0, 5.057057, 4.974528 
8.7733626e+2, 1.9028805e+2, -1032491.06, -1155460.6, 40881.605, 0.0053611477, -0.0042200475, -1020140.3, 55032.285, 0.0, 5.0560603, 4.9712315 
8.7713844e+2, 1.9525312e+2, -987373.3, -1109921.6, 41202.797, 0.0052711605, -0.0074403426, -974808.5, 51704.656, 0.0, 5.0551033, 4.970578 
8.7694037e+2, 2.002161e+2, -946290.56, -1072974.5, 42278.348, 0.005316169, -0.006974603, -933477.0, 44397.55, 0.0, 5.054132, 4.966949 
8.7674224e+2, 2.0517704e+2, -901152.06, -1027667.44, 42269.125, 0.005685772, -0.0070750015, -888329.44, 40928.57, 0.0, 5.0532026, 4.966181 
8.765431e+2, 2.1013582e+2, -859859.25, -990746.94, 42482.32, 0.0055120643, -0.003677715, -847279.7, 33382.754, 0.0, 5.052247, 4.96252 
8.763431e+2, 2.1509188e+2, -814845.7, -945179.94, 42300.027, 0.0036876819, -0.008534761, -802320.8, 29772.344, 0.0, 5.0511847, 4.961872 
8.761415e+2, 2.200459e+2, -773602.2, -908270.6, 41863.523, 0.002071795, -0.009355759, -761649.25, 21894.514, 0.0, 5.050131, 4.9582367 
8.7593883e+2, 2.2499801e+2, -728889.0, -862498.3, 41475.832, 0.0010566681, -0.011083266, -717060.94, 17949.81, 0.0, 5.04887, 4.9577193 
8.757341e+2, 2.2994813e+2, -688352.56, -826343.25, 39870.426, -0.00031108534, -0.008570514, -677661.0, 8836.817, 0.0, 5.0475755, 4.953909 
8.7552786e+2, 2.3489621e+2, -644819.4, -781521.56, 39035.063, 0.0025373215, -0.0056104586, -634458.25, 3553.094, 0.0, 5.0459538, 4.9531903 
8.7531906e+2, 2.3984234e+2, -604400.0, -744223.7, 36728.242, 0.005633264, 0.0011932245, -595339.5, -5795.7676, 0.0, 5.044302, 4.9499135 
8.751077e+2, 2.4478568e+2, -560542.9, -698278.6, 36023.727, 0.003962486, -0.0062273787, -551690.1, -10592.779, 0.0, 5.042567, 4.9496064 
8.748934e+2, 2.497273e+2, -520245.47, -660855.5, 33380.957, 0.00083966303, -0.009460672, -512723.22, -20055.986, 0.0, 5.040775, 4.9463925 
8.746768e+2, 2.5466782e+2, -477811.1, -615710.1, 32104.332, -0.00033523975, -0.007855848, -470703.25, -26452.934, 0.0, 5.038526, 4.946 
8.7445754e+2, 2.5960708e+2, -438712.9, -578289.2, 28743.79, -0.00017721223, 0.00011293728, -433025.28, -37179.242, 0.0, 5.036149, 4.9430037 
8.742355e+2, 2.645439e+2, -397634.16, -532957.44, 27181.676, 0.001319301, -0.004183029, -392378.44, -44911.64, 0.0, 5.0332055, 4.9429545 
8.740108e+2, 2.6947957e+2, -360257.5, -495618.84, 24001.111, 0.0024966372, -0.0028853612, -356127.8, -57029.36, 0.0, 5.030036, 4.9402328 
8.737833e+2, 2.744144e+2, -319834.78, -448911.16, 22027.758, 0.003426824, -0.0039544725, -316179.13, -65442.383, 0.0, 5.0264835, 4.9409065 
8.735533e+2, 2.793485e+2, -283659.13, -411844.22, 18902.57, 0.0046970327, 0.0010078667, -280929.8, -78548.27, 0.0, 5.0228057, 4.9382505 
8.733208e+2, 2.8428128e+2, -244151.72, -365014.3, 17030.508, 0.0058639273, -0.0014230026, -241797.83, -87755.82, 0.0, 5.0187874, 4.939125 
8.730862e+2, 2.892135e+2, -208781.52, -327321.9, 14240.445, 0.005810802, 0.001098691, -207094.8, -101385.92, 0.0, 5.014608, 4.9368424 
8.7284964e+2, 2.9414532e+2, -170157.4, -279138.25, 12697.527, 0.0034068231, -0.0031718516, -168697.56, -111322.55, 0.0, 5.009908, 4.9384527 
8.726117e+2, 2.990774e+2, -136158.55, -241007.69, 9949.747, -0.00021622592, 0.001275153, -135222.7, -126185.305, 0.0, 5.004999, 4.9365764 
8.7237316e+2, 3.040082e+2, -101908.66, -200758.5, 8835.364, 0.0053628706, -0.0048773536, -101125.14, -101125.14, 0.0, 4.9998655, 4.9354787 
8.7213475e+2, 3.0894285e+2, -75894.64, -146388.19, 5622.859, 0.012530213, -0.014798152, -75448.95, -75448.95, 0.0, 4.994518, 4.9485054 
8.7189394e+2, 3.1389326e+2, -80039.11, -126460.68, 4678.9497, -0.0013274533, 0.013449293, -79572.2, -79572.2, 0.0, 4.9887753, 4.9581714 
8.716557e+2, 3.1886172e+2, -57954.754, -47837.58, -656.1336, 0.0067680296, -0.010291683, -47795.203, -47795.203, 0.0, 4.983254, 4.9894643 
8.7141824e+2, 3.2384548e+2, -60202.65, -21692.75, 48.74016, 0.0044281627, -0.025212293, -21692.69, -21692.69, 0.0, 4.9770727, 5.001559 
8.8489103e+2, 1.308007e+2, -1536733.4, -1658515.1, 5886.136, -0.013851017, -0.004972552, -1536449.6, 121698.27, 0.0, 5.072591, 4.9912066 
8.8466483e+2, 1.3578549e+2, -1496772.3, -1616974.6, 13050.041, -0.009654459, -0.005036685, -1495371.8, 113925.95, 0.0, 5.0704217, 4.989891 
8.844475e+2, 1.4076948e+2, -1457275.8, -1575522.8, 18275.986, 0.0014338562, -0.0022884414, -1454515.5, 105939.555, 0.0, 5.068286, 4.9883275 
8.8422966e+2, 1.4575218e+2, -1414098.5, -1529975.3, 19217.855, 0.00080725685, -0.005768959, -1410994.4, 100631.19, 0.0, 5.0666313, 4.988097 
8.840146e+2, 1.507342e+2, -1374005.8, -1489593.5, 24322.389, -0.009247565, -0.0014595292, -1369096.3, 93706.49, 0.0, 5.0649076, 4.986035 
8.83804e+2, 1.5571487e+2, -1330548.3, -1444099.1, 27042.338, -0.008448867, -0.00058657204, -1324437.0, 89556.055, 0.0, 5.0633664, 4.9857235 
8.8359797e+2, 1.6069373e+2, -1290049.0, -1404535.0, 30768.914, 0.00009162293, -0.0010284728, -1282303.6, 82896.92, 0.0, 5.06192, 4.9832654 
8.8339245e+2, 1.6567115e+2, -1245541.8, -1359168.1, 31862.775, 0.0019328733, -0.0028521374, -1237216.9, 79205.195, 0.0, 5.060841, 4.9826703 
8.8318884e+2, 1.7064705e+2, -1204257.1, -1320048.5, 35207.67, 0.00019930638, 0.0005632817, -1194392.3, 73266.016, 0.0, 5.059767, 4.9798684 
8.829869e+2, 1.7562099e+2, -1159187.5, -1274460.1, 36434.9, -0.0018712773, -0.0011335254, -1148636.9, 70275.945, 0.0, 5.0588574, 4.9792514 
8.827867e+2, 1.8059285e+2, -1117806.1, -1236039.0, 38840.35, -0.00064966606, -0.0016273994, -1106188.4, 63999.453, 0.0, 5.0578966, 4.9761467 
8.8258755e+2, 1.8556276e+2, -1072803.8, -1190586.1, 39391.29, 0.0044188527, -0.005527986, -1060844.0, 60636.9, 0.0, 5.056948, 4.9754834 
8.8238865e+2, 1.9053067e+2, -1031585.2, -1153022.3, 41213.53, 0.008151305, -0.0055521317, -1018919.2, 53874.504, 0.0, 5.0559907, 4.972086 
8.8218975e+2, 1.9549654e+2, -986053.7, -1107325.8, 41535.246, 0.006002021, -0.008167251, -973192.06, 50934.254, 0.0, 5.055186, 4.9714193 
8.819906e+2, 2.0046031e+2, -944778.4, -1070555.1, 42575.3, 0.004489155, -0.0071012704, -931722.0, 43758.24, 0.0, 5.054339, 4.9676733 
8.817917e+2, 2.0542188e+2, -899634.56, -1025259.8, 42596.016, 0.0063049304, -0.0073034763, -886553.56, 40304.5, 0.0, 5.0534167, 4.9669 
8.8159156e+2, 2.1038121e+2, -858350.9, -988479.7, 42794.676, 0.0066773463, -0.004659504, -845538.75, 32718.824, 0.0, 5.0524826, 4.963185 
8.8139033e+2, 2.1533775e+2, -813153.06, -942739.6, 42534.277, 0.003211094, -0.010861688, -800439.4, 29242.72, 0.0, 5.051468, 4.962579 
8.8118744e+2, 2.2029226e+2, -772079.2, -906371.6, 41883.65, 0.00048197157, -0.012536652, -760087.2, 21039.621, 0.0, 5.050442, 4.95875 
8.809838e+2, 2.2524516e+2, -727602.4, -860970.7, 41343.055, 0.0026270787, -0.009951598, -715826.2, 16761.504, 0.0, 5.049153, 4.9581175 
8.80778e+2, 2.3019594e+2, -687263.44, -825337.5, 39581.57, 0.0048575085, -0.0033241413, -676721.5, 7349.012, 0.0, 5.0478706, 4.954124 
8.805698e+2, 2.3514396e+2, -643289.5, -780372.06, 38810.867, 0.005073987, -0.0022188025, -633064.06, 2521.9478, 0.0, 5.0464163, 4.9533825 
8.8035893e+2, 2.4008988e+2, -602463.06, -742914.1, 36494.91, 0.0046041827, 0.0012625288, -593546.3, -6424.8047, 0.0, 5.0449004, 4.950109 
8.801455e+2, 2.4503317e+2, -558714.9, -696780.6, 35666.26, 0.00060981204, -0.008502944, -550045.6, -11373.974, 0.0, 5.0430756, 4.94991 
8.7992907e+2, 2.499748e+2, -519123.28, -660608.2, 32559.902, -0.0045058564, -0.012846244, -511989.9, -21751.813, 0.0, 5.041199, 4.946306 
8.797102e+2, 2.549155e+2, -477256.97, -616258.4, 31050.531, -0.004843539, -0.006629955, -470636.16, -28813.969, 0.0, 5.0388465, 4.945684 
8.7948847e+2, 2.5985476e+2, -438498.6, -579181.4, 27348.28, -0.0031287847, 0.005416134, -433369.22, -39947.918, 0.0, 5.036367, 4.9426217 
8.792637e+2, 2.647909e+2, -397360.47, -533611.6, 25453.018, 0.0007935598, -0.0023222927, -392760.88, -47713.5, 0.0, 5.0333953, 4.942673 
8.7903583e+2, 2.697258e+2, -360103.97, -496828.06, 21951.434, 0.004401392, -0.0048126173, -356666.03, -59981.043, 0.0, 5.0302563, 4.93976 
8.788045e+2, 2.746604e+2, -319764.06, -450479.75, 19661.615, 0.0037516542, -0.0016483682, -316870.72, -68543.44, 0.0, 5.026735, 4.9402895 
8.785704e+2, 2.7959424e+2, -283784.25, -413790.88, 16226.888, 0.0018357335, 0.007586249, -281789.5, -81812.36, 0.0, 5.023027, 4.9375196 
8.783337e+2, 2.84526e+2, -244272.52, -366589.06, 14043.944, 0.001356051, 0.0008889227, -242680.75, -91034.54, 0.0, 5.01892, 4.9385705 
8.780946e+2, 2.8945702e+2, -209319.39, -329526.97, 10963.76, -0.00039268026, -0.0021663064, -208327.61, -105005.39, 0.0, 5.0146627, 4.936107 
8.778535e+2, 2.943884e+2, -170380.86, -281031.75, 9221.599, -0.0013266683, -0.0037098464, -169617.61, -114624.33, 0.0, 5.0100374, 4.937796 
8.776108e+2, 2.9932037e+2, -136399.55, -243437.64, 6440.7876, -0.0028219484, 0.0076383376, -136013.39, -129354.67, 0.0, 5.005217, 4.9356966 
8.773674e+2, 3.042504e+2, -101734.48, -202171.58, 5492.7593, 0.005209974, 0.0005584574, -101434.984, -101434.984, 0.0, 5.0000815, 4.934958 
8.771237e+2, 3.09184e+2, -75258.87, -147267.2, 2113.0547, 0.013172333, -0.013390603, -75196.914, -75196.914, 0.0, 4.994821, 4.948145 
8.7687707e+2, 3.1413376e+2, -79269.195, -127258.984, 1126.7411, -0.0019852133, 0.012015639, -79242.75, -79242.75, 0.0, 4.9890976, 4.95785 
8.7663287e+2, 3.191012e+2, -55108.598, -44506.977, -3817.2585, 0.0049228454, -0.012782305, -43275.555, -43275.555, 0.0, 4.9836464, 4.9906583 
8.763899e+2, 3.2408622e+2, -60448.633, -24393.877, -2773.0857, 0.005076954, 0.00025373537, -24181.838, -24181.838, 0.0, 4.9772735, 5.000717 
8.8995725e+2, 1.3103266e+2, -1541658.9, -1656446.4, 7301.1426, -0.009058856, -0.0059139854, -1541196.4, 114676.984, 0.0, 5.069982, 4.993137 
8.8972926e+2, 1.3601898e+2, -1502181.8, -1615828.5, 13935.878, -0.006609553, -0.0058244835, -1500497.8, 106510.31, 0.0, 5.0678124, 4.991504 
8.8950956e+2, 1.4100423e+2, -1461048.6, -1573379.5, 19502.426, -0.0014646089, -0.0045197094, -1457759.0, 100394.2, 0.0, 5.0662174, 4.990007 
8.892904e+2, 1.4598861e+2, -1417291.3, -1527401.0, 20561.275, -0.00039971425, -0.007033492, -1413577.1, 95730.57, 0.0, 5.064739, 4.9898314 
8.8907415e+2, 1.5097216e+2, -1377007.6, -1487329.5, 25877.025, -0.008584886, -0.0023074835, -1371239.5, 89230.586, 0.0, 5.0631895, 4.987571 
8.888623e+2, 1.5595412e+2, -1332779.4, -1441557.3, 28750.078, -0.007511026, -0.0012630603, -1325648.1, 85999.32, 0.0, 5.061947, 4.987205 
8.8865507e+2, 1.609343e+2, -1291771.1, -1401985.4, 32811.78, 0.0010632927, -0.0011434729, -1282742.4, 80100.17, 0.0, 5.0607457, 4.9846244 
8.884485e+2, 1.6591296e+2, -1246813.8, -1356476.4, 34224.79, 0.0015612791, -0.001832332, -1237009.0, 77043.54, 0.0, 5.05985, 4.9839864 
8.882439e+2, 1.7088994e+2, -1205114.3, -1317172.9, 37845.918, -0.001627176, 0.0016328312, -1193530.0, 71748.28, 0.0, 5.05894, 4.9811635 
8.8804126e+2, 1.7586479e+2, -1159532.3, -1271226.5, 39264.035, -0.0028917785, -0.0019316885, -1147111.1, 69411.98, 0.0, 5.0581985, 4.980585 
8.8784045e+2, 1.808376e+2, -1117784.1, -1232770.5, 41838.965, 0.00010338599, -0.0038394805, -1104172.0, 63615.996, 0.0, 5.057412, 4.9774036 
8.876406e+2, 1.8580863e+2, -1072313.9, -1187119.4, 42562.434, 0.007334029, -0.0065270946, -1058255.9, 60814.55, 0.0, 5.056648, 4.97672 
8.8744104e+2, 1.9077757e+2, -1030734.3, -1149522.0, 44701.223, 0.011389735, -0.0056608003, -1015792.25, 54581.004, 0.0, 5.055859, 4.9732513 
8.8724107e+2, 1.9574434e+2, -984706.06, -1103592.9, 45298.39, 0.0057275603, -0.008286579, -969413.5, 52284.06, 0.0, 5.055241, 4.9725785 
8.87041e+2, 2.0070894e+2, -942878.7, -1066548.6, 46480.105, 0.0019760635, -0.0076570427, -927357.56, 45685.863, 0.0, 5.054596, 4.968836 
8.868415e+2, 2.0567119e+2, -897282.7, -1020924.3, 46818.973, 0.0066168937, -0.009956101, -881554.6, 42859.082, 0.0, 5.05383, 4.968101 
8.8664067e+2, 2.1063124e+2, -855630.4, -984146.2, 47273.184, 0.008846895, -0.008699173, -840114.6, 35690.77, 0.0, 5.053082, 4.9642973 
8.8643837e+2, 2.1558882e+2, -809910.5, -938189.2, 47282.75, 0.0041806945, -0.011956718, -794366.0, 32853.887, 0.0, 5.0522804, 4.963666 
8.862345e+2, 2.2054425e+2, -768530.8, -902067.25, 46804.41, 0.001151034, -0.010761988, -753759.8, 24896.389, 0.0, 5.051466, 4.959649 
8.860297e+2, 2.2549777e+2, -723522.44, -856569.25, 46432.887, 0.00410447, -0.0066575925, -708920.2, 21194.105, 0.0, 5.050416, 4.95894 
8.8582265e+2, 2.3044895e+2, -682313.3, -820238.1, 44959.38, 0.006163143, -0.00028720545, -668952.25, 12643.136, 0.0, 5.049393, 4.955071 
8.856127e+2, 2.3539698e+2, -637285.6, -774571.0, 44632.195, 0.0024325072, -0.0052584396, -624051.25, 9055.872, 0.0, 5.0482917, 4.954414 
8.8540006e+2, 2.4034299e+2, -595653.56, -737238.6, 42523.992, -0.0015662286, -0.0058114235, -583863.56, 774.50195, 0.0, 5.047172, 4.950918 
8.8518524e+2, 2.452872e+2, -551640.44, -691458.94, 41770.57, -0.0016942384, -0.008445373, -540112.06, -3931.6765, 0.0, 5.0455565, 4.950502 
8.8496727e+2, 2.5022954e+2, -511836.4, -655727.1, 38607.945, -0.0018632436, -0.005599106, -502131.88, -14389.769, 0.0, 5.0438614, 4.94667 
8.8474625e+2, 2.551698e+2, -469626.5, -611326.3, 37287.97, 0.000027021832, -0.0020602555, -460413.28, -21080.422, 0.0, 5.041668, 4.9459977 
8.8452184e+2, 2.6010838e+2, -430513.9, -574185.1, 33648.867, 0.0017111397, 0.0058492534, -423023.6, -32083.566, 0.0, 5.0393143, 4.942914 
8.842939e+2, 2.6504424e+2, -388802.28, -528130.06, 32038.043, 0.003959473, -0.0026003695, -381788.3, -39222.688, 0.0, 5.03652, 4.943059 
8.840627e+2, 2.6997882e+2, -351270.47, -491962.5, 28593.172, 0.0059960736, -0.0053252014, -345681.44, -51477.492, 0.0, 5.033619, 4.93983 
8.838276e+2, 2.7491271e+2, -310550.44, -445795.63, 26391.55, 0.003966579, -0.0025201065, -305582.88, -59728.656, 0.0, 5.030312, 4.9402094 
8.835896e+2, 2.798457e+2, -274072.9, -409005.38, 22895.434, 0.0010207496, 0.005594285, -270293.84, -72779.93, 0.0, 5.0268, 4.9373913 
8.833488e+2, 2.8477687e+2, -234662.38, -361368.0, 20724.238, 0.0022472413, -0.0008540069, -231358.81, -82171.81, 0.0, 5.022591, 4.93864 
8.831054e+2, 2.897072e+2, -200504.08, -325404.2, 17719.342, 0.0026792174, -0.0031902331, -198038.92, -97171.12, 0.0, 5.0181756, 4.9358654 
8.8285947e+2, 2.9463777e+2, -162363.36, -277328.66, 15475.777, 0.0025365453, -0.0044718436, -160316.58, -107766.6, 0.0, 5.013279, 4.937529 
8.826117e+2, 2.9956886e+2, -129435.69, -240515.75, 12276.872, 0.0014677502, 0.0087387515, -128094.99, -123868.79, 0.0, 5.008127, 4.935309 
8.823627e+2, 3.0449814e+2, -94635.51, -197977.98, 11243.644, 0.006941776, 0.0010971519, -93426.35, -93426.35, 0.0, 5.0028086, 4.9351006 
8.8211334e+2, 3.0943096e+2, -69614.92, -145187.52, 7348.392, 0.012385097, -0.014446691, -68907.02, -68907.02, 0.0, 4.997271, 4.947672 
8.818611e+2, 3.143799e+2, -73187.33, -123777.78, 6174.445, -0.0017276597, 0.009561464, -72444.66, -72444.66, 0.0, 4.9914823, 4.9579024 
8.816108e+2, 3.1934658e+2, -52011.2, -46132.24, 66.421104, 0.005027358, -0.018891172, -46131.49, -46131.49, 0.0, 4.985655, 4.9890203 
8.813618e+2, 3.2433045e+2, -56815.523, -22784.146, 77.27115, 0.0038570354, -0.019831281, -22783.973, -22783.973, 0.0, 4.978843, 5.0003743 
8.95025e+2, 1.3126627e+2, -1543524.5, -1653801.1, 4356.364, 0.029326353, -0.011801774, -1543352.6, 110230.03, 0.0, 5.0685186, 4.9947543 
8.94792e+2, 1.3625513e+2, -1503537.6, -1612609.6, 14526.709, -0.00039082146, -0.0031297347, -1501636.0, 103056.914, 0.0, 5.0664725, 4.9932485 
8.945704e+2, 1.4124143e+2, -1461305.0, -1570135.3, 19748.05, -0.004964071, -0.0069786045, -1457832.4, 97995.695, 0.0, 5.0653844, 4.9915104 
8.943501e+2, 1.4622734e+2, -1417694.5, -1524297.0, 20528.922, 0.00004438104, -0.0076725883, -1413877.9, 93089.63, 0.0, 5.0638776, 4.9912996 
8.941326e+2, 1.512123e+2, -1377761.8, -1484583.9, 26087.518, -0.0070882584, -0.0019734353, -1371731.3, 86384.78, 0.0, 5.062264, 4.9889436 
8.939195e+2, 1.5619554e+2, -1332919.3, -1438549.1, 29047.914, -0.008068844, -0.0010572661, -1325458.1, 83823.3, 0.0, 5.061244, 4.9885616 
8.9371145e+2, 1.6117695e+2, -1291419.1, -1398873.8, 33083.734, 0.00032754842, -0.0011341583, -1282050.0, 78414.56, 0.0, 5.060251, 4.9859123 
8.9350396e+2, 1.6615675e+2, -1246343.0, -1353312.1, 34505.684, 0.0013079775, -0.0023606415, -1236178.1, 75484.875, 0.0, 5.0594015, 4.9852705 
8.932986e+2, 1.7113489e+2, -1204662.5, -1314075.5, 38228.46, -0.0019966098, 0.00048229273, -1192629.1, 70248.15, 0.0, 5.0585084, 4.9824142 
8.930954e+2, 1.7611095e+2, -1159137.4, -1268170.8, 39652.215, -0.0016550393, -0.0026828335, -1146242.1, 67867.945, 0.0, 5.0577545, 4.981828 
8.92894e+2, 1.810849e+2, -1117442.9, -1229935.8, 42208.332, 0.002681974, -0.004437587, -1103367.3, 61996.293, 0.0, 5.0569954, 4.9785576 
8.9269334e+2, 1.8605702e+2, -1071373.9, -1184015.8, 42941.008, 0.008280152, -0.0068313247, -1056871.3, 59764.29, 0.0, 5.0564446, 4.9778676 
8.92493e+2, 1.9102705e+2, -1029376.75, -1146338.5, 45086.016, 0.0106793875, -0.005998555, -1014014.8, 53913.22, 0.0, 5.0558314, 4.9743457 
8.922924e+2, 1.9599478e+2, -983314.9, -1100385.1, 45717.58, 0.0049845, -0.008918934, -967577.1, 51665.31, 0.0, 5.0552263, 4.9736786 
8.920917e+2, 2.0096035e+2, -941435.94, -1063345.9, 46821.98, 0.001829299, -0.008814449, -925528.6, 45050.066, 0.0, 5.0546055, 4.9699244 
8.918915e+2, 2.0592357e+2, -895663.5, -1017619.9, 47102.293, 0.007603723, -0.0116961235, -879590.0, 42349.066, 0.0, 5.0539007, 4.969199 
8.9168996e+2, 2.1088459e+2, -853951.75, -981019.25, 47462.24, 0.010368685, -0.010837725, -838181.0, 35140.0, 0.0, 5.053218, 4.965308 
8.914867e+2, 2.1584328e+2, -808123.8, -935196.06, 47475.645, 0.00449688, -0.01175238, -792345.5, 32379.453, 0.0, 5.052496, 4.9645953 
8.912819e+2, 2.2079974e+2, -766780.5, -899431.75, 46819.816, 0.0015655272, -0.0084481565, -751920.0, 24232.154, 0.0, 5.051737, 4.9604297 
8.9107615e+2, 2.25754e+2, -721764.9, -854112.25, 46581.65, 0.0050316206, -0.0038649403, -707013.9, 20591.44, 0.0, 5.050729, 4.9596434 
8.908677e+2, 2.3070571e+2, -680314.2, -817452.5, 45085.99, 0.0061847405, 0.0012339199, -666819.5, 12262.839, 0.0, 5.049737, 4.9558816 
8.9065635e+2, 2.356541e+2, -635420.1, -771757.25, 44705.12, -0.00074661704, -0.008239454, -622068.75, 8518.236, 0.0, 5.048574, 4.9552665 
8.904422e+2, 2.4060054e+2, -594321.75, -735435.8, 42220.816, -0.006816436, -0.011030778, -582654.2, -543.58374, 0.0, 5.04741, 4.9514437 
8.902261e+2, 2.4554586e+2, -550653.0, -690404.1, 41228.332, -0.0026025022, -0.0055408543, -539396.75, -5752.475, 0.0, 5.0457873, 4.9507723 
8.9000666e+2, 2.5048897e+2, -511061.1, -655182.2, 37776.082, 0.00193152, 0.0036678475, -501759.75, -16558.303, 0.0, 5.0440774, 4.946779 
8.8978344e+2, 2.554288e+2, -468803.78, -610826.9, 36384.0, 0.0043112594, 0.0020154817, -460025.4, -23227.273, 0.0, 5.041913, 4.946078 
8.8955647e+2, 2.6036683e+2, -429379.56, -573691.5, 32467.871, 0.006048058, 0.004706703, -422411.28, -34000.53, 0.0, 5.0396748, 4.942956 
8.8932544e+2, 2.653029e+2, -387329.66, -527408.25, 30565.344, 0.00612152, -0.0021644349, -380950.72, -40919.17, 0.0, 5.036987, 4.9431324 
8.8909084e+2, 2.7023742e+2, -350322.34, -492583.7, 26630.379, 0.0056700506, -0.0037784884, -345500.72, -53832.96, 0.0, 5.034089, 4.939444 
8.8885236e+2, 2.751706e+2, -309979.66, -446759.25, 24168.818, 0.0031059962, -0.0034548931, -305834.66, -62508.69, 0.0, 5.030664, 4.9397607 
8.886105e+2, 2.801028e+2, -273895.13, -410323.94, 20185.33, -0.00021122194, 0.0019766195, -270971.28, -75977.26, 0.0, 5.0270205, 4.936891 
8.883656e+2, 2.8503373e+2, -234469.05, -362379.13, 17494.2, 0.0035791723, -0.0030411591, -232119.53, -85452.05, 0.0, 5.0227523, 4.9382715 
8.881181e+2, 2.89964e+2, -201061.94, -327669.7, 14105.742, 0.008472769, -0.001173685, -199509.42, -101161.77, 0.0, 5.018231, 4.935105 
8.8786745e+2, 2.9489362e+2, -162789.19, -279845.16, 11776.729, 0.009963156, -0.0035686514, -161616.11, -111574.16, 0.0, 5.01343, 4.9366417 
8.8761425e+2, 2.998234e+2, -129299.97, -242372.88, 8702.17, 0.007551571, 0.0052535865, -128634.164, -126899.805, 0.0, 5.0083942, 4.934615 
8.873593e+2, 3.0475208e+2, -94108.086, -198872.22, 7667.8535, 0.0063287057, -0.0036600025, -93549.836, -93549.836, 0.0, 5.003072, 4.9347477 
8.871036e+2, 3.0968454e+2, -68740.79, -145985.75, 3960.7207, 0.0037362927, -0.01783481, -68538.234, -68538.234, 0.0, 4.9976587, 4.947298 
8.8684607e+2, 3.1463292e+2, -72633.125, -125223.19, 2523.0085, -0.0054209847, 0.005855696, -72512.36, -72512.36, 0.0, 4.991836, 4.9573336 
8.8659e+2, 3.1959933e+2, -49603.77, -44345.605, -3813.6558, 0.0048069647, -0.013365356, -42342.62, -42342.62, 0.0, 4.98616, 4.9896092 
8.8633317e+2, 3.2458422e+2, -57298.953, -26524.574, -2924.2898, -0.01040583, 0.019437132, -26249.162, -26249.162, 0.0, 4.9791365, 4.999097 
9.0008426e+2, 1.3150302e+2, -1549602.3, -1652565.3, 3216.7095, 0.009681082, -0.010324588, -1549501.9, 101759.68, 0.0, 5.065559, 4.9965863 
8.998525e+2, 1.3649367e+2, -1508218.1, -1610719.4, 15621.835, 0.005522332, -0.000894832, -1505890.1, 96464.27, 0.0, 5.064011, 4.9950514 
8.9962924e+2, 1.4148112e+2, -1466406.0, -1569029.0, 20332.53, -0.009220626, -0.008937207, -1462524.4, 90954.09, 0.0, 5.0629196, 4.993045 
8.994082e+2, 1.4646865e+2, -1421745.9, -1522464.0, 21114.809, 0.0027258988, -0.00768515, -1417498.5, 87103.56, 0.0, 5.061737, 4.992915 
8.991894e+2, 1.5145518e+2, -1381064.0, -1482502.3, 27201.664, -0.0054365247, -0.0009700996, -1374230.0, 81505.664, 0.0, 5.0604243, 4.9904895 
8.9897525e+2, 1.5643974e+2, -1335655.9, -1436295.6, 30476.932, -0.009519849, -0.00032671282, -1327146.0, 79742.375, 0.0, 5.0596275, 4.9900565 
8.9876646e+2, 1.6142243e+2, -1293661.6, -1396369.4, 34693.547, -0.00045204334, -0.0010907019, -1283040.9, 75018.24, 0.0, 5.058819, 4.987396 
8.985585e+2, 1.6640344e+2, -1247974.5, -1350395.4, 36362.05, 0.0016239946, -0.0036059897, -1236378.0, 72866.83, 0.0, 5.0581675, 4.9867945 
8.983525e+2, 1.7138283e+2, -1205871.0, -1311018.5, 40324.992, -0.001578055, -0.001560179, -1192186.9, 68259.234, 0.0, 5.0574517, 4.983895 
8.981489e+2, 1.7636034e+2, -1159852.4, -1264828.8, 41910.78, 0.0011098775, -0.0031957026, -1145172.8, 66492.34, 0.0, 5.05687, 4.9833217 
8.97947e+2, 1.8133566e+2, -1117814.3, -1226569.4, 44800.848, 0.00639195, -0.0040982543, -1101735.9, 61169.535, 0.0, 5.056273, 4.9799786 
8.9774543e+2, 1.8630892e+2, -1071318.8, -1180432.4, 45789.957, 0.0071743526, -0.0070835887, -1054649.4, 59517.004, 0.0, 5.0558805, 4.979286 
8.9754426e+2, 1.9128007e+2, -1028878.56, -1142447.3, 48172.695, 0.0063294307, -0.0072871586, -1011197.6, 54250.15, 0.0, 5.055423, 4.975794 
8.973435e+2, 1.962489e+2, -982386.4, -1096210.8, 49089.414, 0.004971496, -0.011476477, -964140.3, 52610.523, 0.0, 5.0549703, 4.9751525 
8.9714265e+2, 2.0121562e+2, -940213.9, -1059076.1, 50434.17, 0.005291299, -0.011945539, -921698.44, 46376.895, 0.0, 5.0544815, 4.9713674 
8.9694166e+2, 2.061802e+2, -893961.06, -1012923.75, 50990.582, 0.009091707, -0.012990713, -875096.56, 44325.918, 0.0, 5.053931, 4.9707127 
8.9673924e+2, 2.1114251e+2, -851917.5, -976398.7, 51710.734, 0.009743722, -0.010772859, -833239.06, 37553.17, 0.0, 5.0534472, 4.966695 
8.965354e+2, 2.1610235e+2, -805460.8, -930195.44, 51996.277, 0.0039082444, -0.011018875, -786629.0, 35557.348, 0.0, 5.052954, 4.966005 
8.963299e+2, 2.2105984e+2, -763398.2, -893937.1, 51522.773, 0.0012564609, -0.007977805, -745513.0, 28091.266, 0.0, 5.052438, 4.9618936 
8.961232e+2, 2.2601491e+2, -717782.56, -848209.1, 51712.195, 0.0045716013, -0.006532145, -699767.75, 25280.777, 0.0, 5.051646, 4.961148 
8.959138e+2, 2.3096749e+2, -675651.56, -811318.56, 50552.32, 0.005073578, -0.003224794, -658886.44, 17629.164, 0.0, 5.0509415, 4.957331 
8.9570135e+2, 2.3591723e+2, -630211.44, -765457.06, 50568.684, -0.0013445073, -0.008993876, -613394.75, 14611.242, 0.0, 5.050026, 4.956657 
8.95486e+2, 2.408648e+2, -588926.44, -729795.56, 48229.254, -0.006116319, -0.008273742, -573996.56, 5522.0586, 0.0, 5.0491037, 4.952489 
8.9526844e+2, 2.458107e+2, -544644.9, -684810.44, 47555.344, -0.0016435183, -0.0014664932, -530033.5, 1017.8154, 0.0, 5.047782, 4.9516726 
8.9504707e+2, 2.5075406e+2, -503958.66, -648742.0, 44241.01, 0.0017957714, 0.006540803, -491510.34, -8901.608, 0.0, 5.04639, 4.947834 
8.948216e+2, 2.556938e+2, -460599.4, -603676.56, 43477.797, 0.00209394, -0.0017141532, -448423.66, -14222.29, 0.0, 5.044611, 4.94721 
8.9459217e+2, 2.6063174e+2, -420462.6, -567087.9, 39799.496, 0.002240721, -0.0035510168, -410356.16, -24545.367, 0.0, 5.042809, 4.9437056 
8.943586e+2, 2.6556835e+2, -377662.38, -521111.8, 38046.098, 0.0020409622, -0.004062994, -368196.3, -30768.453, 0.0, 5.040548, 4.9435935 
8.94121e+2, 2.7050304e+2, -339730.6, -486175.66, 33805.055, 0.0016351134, -0.0010590714, -332303.75, -43239.504, 0.0, 5.0380287, 4.939784 
8.938793e+2, 2.754355e+2, -299553.4, -440700.13, 31526.592, 0.0027672194, -0.004481484, -292831.72, -52102.746, 0.0, 5.034615, 4.9399714 
8.936338e+2, 2.8036687e+2, -263691.06, -404590.56, 27466.611, 0.0028792392, -0.0017291418, -258526.13, -66122.04, 0.0, 5.030912, 4.937024 
8.933843e+2, 2.8529763e+2, -224699.06, -357322.16, 24484.066, 0.0049032024, -0.0019410389, -220323.33, -76242.195, 0.0, 5.02658, 4.9382024 
8.931319e+2, 2.902275e+2, -191167.83, -322263.5, 20988.719, 0.008850145, 0.003183993, -187889.47, -92122.81, 0.0, 5.0220532, 4.935152 
8.928762e+2, 2.951559e+2, -153564.77, -274829.44, 18648.176, 0.0108014345, -0.004076751, -150761.81, -103290.66, 0.0, 5.0170407, 4.9366484 
8.9261776e+2, 3.0008444e+2, -120446.375, -237639.56, 15663.368, 0.00804826, -0.00007333251, -118389.016, -118389.016, 0.0, 5.011907, 4.934548 
8.9235705e+2, 3.0501285e+2, -85685.06, -193792.98, 14063.418, 0.00524597, -0.0048136064, -83885.55, -83885.55, 0.0, 5.0063324, 4.934909 
8.9209545e+2, 3.099453e+2, -62503.977, -143157.33, 9468.28, 0.0017354401, -0.012506129, -61407.36, -61407.36, 0.0, 5.0003366, 4.946942 
8.9183223e+2, 3.148927e+2, -66571.64, -121852.57, 7967.8667, -0.0056668725, 0.007963266, -65446.11, -65446.11, 0.0, 4.994312, 4.957243 
8.915704e+2, 3.1985816e+2, -47223.023, -48431.59, 1565.6061, 0.008732294, -0.014937686, -46149.13, -46149.13, 0.0, 4.9884095, 4.9869184 
8.9130694e+2, 3.2484123e+2, -52257.105, -24477.799, 671.0019, -0.008216327, 0.001203778, -24461.6, -24461.6, 0.0, 4.9813676, 4.998562 
9.0513414e+2, 1.3174155e+2, -1549696.9, -1648063.4, 3939.316, -0.08446601, -0.015008254, -1549539.4, 99383.734, 0.0, 5.064504, 4.9986196 
9.049128e+2, 1.3673356e+2, -1509485.8, -1608940.4, 15771.356, 0.022762364, -0.0026362287, -1507044.6, 92957.88, 0.0, 5.0630364, 4.9961314 
9.0468526e+2, 1.4172213e+2, -1467627.0, -1566282.8, 20280.918, -0.024226174, -0.0109737655, -1463620.5, 87495.555, 0.0, 5.0617747, 4.9945264 
9.0446466e+2, 1.4671135e+2, -1422153.6, -1519027.5, 21148.328, 0.002576323, -0.008317035, -1417738.0, 84485.266, 0.0, 5.0608077, 4.994528 
9.0424556e+2, 1.516994e+2, -1381081.3, -1479038.4, 27406.898, 0.000117636126, -0.0013475615, -1373934.6, 79407.38, 0.0, 5.059675, 4.992021 
9.0403026e+2, 1.5668531e+2, -1335568.5, -1432674.8, 30784.26, -0.008895755, -0.0020102535, -1326631.9, 77849.28, 0.0, 5.058896, 4.9916334 
9.038207e+2, 1.6166939e+2, -1293714.8, -1393020.9, 35075.99, -0.001283203, -0.0033052943, -1282575.1, 73062.516, 0.0, 5.0580955, 4.9888716 
9.0361226e+2, 1.6665192e+2, -1247730.3, -1346867.4, 36760.406, 0.0021316716, -0.0046980176, -1235586.8, 71221.6, 0.0, 5.0575438, 4.9882855 
9.034058e+2, 1.7163275e+2, -1205496.9, -1307644.0, 40679.36, -0.0010142965, -0.0021818085, -1191276.4, 66719.36, 0.0, 5.056929, 4.9852824 
9.032016e+2, 1.7661159e+2, -1159171.0, -1261301.4, 42205.867, 0.0016104422, -0.003440458, -1143986.8, 65215.574, 0.0, 5.0564547, 4.9847126 
9.0299934e+2, 1.8158826e+2, -1116797.9, -1222874.8, 45112.223, 0.006993122, -0.0044829147, -1100207.4, 60222.496, 0.0, 5.0559735, 4.981374 
9.027972e+2, 1.8656279e+2, -1069837.3, -1176411.9, 46176.29, 0.0063678366, -0.00831438, -1052613.6, 59063.97, 0.0, 5.0557246, 4.980729 
9.025956e+2, 1.9153526e+2, -1027218.1, -1138387.1, 48443.875, 0.004769914, -0.009069166, -1009070.4, 53875.066, 0.0, 5.055342, 4.977216 
9.0239465e+2, 1.965055e+2, -980931.44, -1092202.4, 49320.813, 0.0059971777, -0.01290593, -962217.44, 52017.43, 0.0, 5.054816, 4.9765935 
9.021934e+2, 2.0147362e+2, -938761.9, -1055151.4, 50629.11, 0.007982009, -0.013137346, -919820.75, 45725.08, 0.0, 5.0543504, 4.9727697 
9.0199167e+2, 2.0643964e+2, -891928.0, -1008713.7, 51146.02, 0.009101409, -0.013213542, -872695.8, 44183.285, 0.0, 5.0540023, 4.972125 
9.017886e+2, 2.1140336e+2, -849691.1, -972227.6, 51815.766, 0.008033817, -0.010581393, -830718.0, 37517.465, 0.0, 5.053612, 4.9680543 
9.015842e+2, 2.163645e+2, -803528.7, -926182.94, 52244.45, 0.003548264, -0.010588081, -784292.2, 35324.97, 0.0, 5.053027, 4.9673557 
9.0137815e+2, 2.2132324e+2, -761552.8, -889900.1, 51662.84, 0.0017113195, -0.008172201, -743341.3, 27681.867, 0.0, 5.052467, 4.963276 
9.0117055e+2, 2.2627942e+2, -715685.6, -843940.6, 51808.883, 0.004067974, -0.00916309, -697372.25, 25083.414, 0.0, 5.0517473, 4.9625816 
9.009602e+2, 2.3123322e+2, -673665.1, -807553.5, 50563.047, 0.0037114946, -0.0064864005, -656715.7, 17194.113, 0.0, 5.0510964, 4.9585676 
9.007469e+2, 2.3618458e+2, -628120.4, -761756.8, 50406.84, -0.002000438, -0.0075038215, -611239.6, 14144.376, 0.0, 5.050237, 4.9578505 
9.005305e+2, 2.4113342e+2, -587157.1, -727055.25, 47856.832, -0.00552203, -0.003815264, -572352.7, 4532.3804, 0.0, 5.0493507, 4.9533367 
9.0031147e+2, 2.4607989e+2, -542945.06, -682244.7, 47337.75, -0.0014283397, 0.0013695066, -528381.1, 34.68774, 0.0, 5.048039, 4.9524565 
9.0008837e+2, 2.5102374e+2, -501951.9, -645951.6, 43786.1, 0.0005431648, 0.007179512, -489683.16, -9713.142, 0.0, 5.046722, 4.9486732 
8.998608e+2, 2.5596395e+2, -458398.25, -600629.0, 42850.0, -0.0015030621, -0.0052831364, -446486.4, -14933.799, 0.0, 5.044981, 4.9481225 
8.996291e+2, 2.609022e+2, -419065.22, -565960.3, 38728.18, -0.0030033083, -0.010121459, -409480.16, -26325.094, 0.0, 5.0431676, 4.9439673 
8.993931e+2, 2.658395e+2, -376782.8, -520794.03, 36808.746, -0.0034096045, -0.0044888365, -367920.1, -33151.676, 0.0, 5.040828, 4.943606 
8.991527e+2, 2.7077457e+2, -338923.5, -486113.16, 31834.201, -0.0036355297, 0.0029881655, -332333.44, -45929.47, 0.0, 5.038293, 4.9397326 
8.9890784e+2, 2.7570644e+2, -298867.13, -441030.78, 29188.861, 0.001594435, -0.0052779657, -293107.44, -55034.645, 0.0, 5.0348945, 4.9397793 
8.986588e+2, 2.8063735e+2, -263322.34, -405547.53, 24600.02, 0.0059252125, -0.0041917865, -259187.61, -69436.125, 0.0, 5.0311427, 4.9366465 
8.9840436e+2, 2.8556824e+2, -224748.8, -359076.4, 21149.148, 0.0037875331, 0.0022703013, -221497.67, -80066.8, 0.0, 5.026765, 4.9375644 
8.9814675e+2, 2.9049784e+2, -191243.39, -323648.25, 17435.016, 0.001586528, 0.010741534, -188986.05, -95864.32, 0.0, 5.0221415, 4.934701 
8.9788586e+2, 2.9542512e+2, -153030.4, -275339.9, 14847.649, 0.0026335292, -0.0048412653, -151253.78, -106421.18, 0.0, 5.0172234, 4.936469 
8.9762205e+2, 3.0035263e+2, -120429.87, -239517.13, 11972.75, -0.0012484193, -0.006642463, -119238.08, -119238.08, 0.0, 5.012134, 4.933854 
8.973562e+2, 3.0528164e+2, -85491.68, -195427.61, 10146.1455, 0.00017629427, 0.0011844303, -84563.12, -84563.12, 0.0, 5.006593, 4.9342875 
8.97089e+2, 3.1021398e+2, -61902.66, -144633.42, 5602.7046, 0.00059290393, 0.0013591097, -61524.957, -61524.957, 0.0, 5.0007353, 4.946324 
8.9681935e+2, 3.151601e+2, -65913.85, -122701.16, 4269.8228, -0.009642601, 0.015093454, -65594.59, -65594.59, 0.0, 4.9946117, 4.956903 
8.965522e+2, 3.2012382e+2, -44287.805, -45199.656, -2643.788, 0.013475417, -0.017656408, -42060.918, -42060.918, 0.0, 4.9888577, 4.988046 
8.962814e+2, 3.2510707e+2, -53045.684, -28433.69, -3037.4148, -0.01162566, 0.023656216, -28064.377, -28064.377, 0.0, 4.9815245, 4.997297 
9.102012e+2, 1.319819e+2, -1556999.9, -1647593.5, 3836.2813, 0.017420553, -0.01443008, -1556837.8, 89729.2, 0.0, 5.061142, 5.000403 
9.099704e+2, 1.3697505e+2, -1516672.4, -1609603.0, 15267.739, 0.03522447, -0.0038084013, -1514228.3, 83407.08, 0.0, 5.059984, 4.997375 
9.097393e+2, 1.4196493e+2, -1472996.8, -1564924.4, 20269.127, -0.037729993, -0.01257643, -1468726.0, 80010.09, 0.0, 5.0591087, 4.996257 
9.095191e+2, 1.4695594e+2, -1426526.9, -1517300.0, 21381.176, 0.001349781, -0.008568413, -1421742.9, 78083.16, 0.0, 5.058508, 4.9962034 
9.093001e+2, 1.5194553e+2, -1384759.9, -1476980.9, 27964.373, 0.0068493523, -0.0017742672, -1376942.8, 73986.44, 0.0, 5.057628, 4.9936786 
9.0908384e+2, 1.569329e+2, -1338505.5, -1430024.0, 31547.252, -0.0070750723, -0.0039889766, -1328684.6, 73368.76, 0.0, 5.0570617, 4.993386 
9.088735e+2, 1.619186e+2, -1296268.1, -1390412.0, 36036.098, -0.0022258097, -0.0055167996, -1284058.0, 69135.89, 0.0, 5.056455, 4.99051 
9.0866476e+2, 1.6690281e+2, -1249721.9, -1343949.8, 37982.984, 0.0028469646, -0.0050205416, -1236317.8, 68030.24, 0.0, 5.0560994, 4.9899316 
9.084579e+2, 1.7188518e+2, -1207242.0, -1304881.3, 42156.953, -0.00009004541, -0.001780768, -1191559.3, 63961.406, 0.0, 5.055646, 4.986791 
9.0825325e+2, 1.7686538e+2, -1160384.8, -1258112.5, 43860.637, 0.0008832725, -0.0033941618, -1143587.1, 63127.895, 0.0, 5.0553284, 4.9862895 
9.080506e+2, 1.8184343e+2, -1117534.8, -1219248.6, 47144.914, 0.0056784027, -0.005321825, -1099044.3, 58884.887, 0.0, 5.0549774, 4.9830384 
9.0784854e+2, 1.8681934e+2, -1070243.4, -1172459.9, 48514.613, 0.00646958, -0.010543782, -1050883.8, 58278.0, 0.0, 5.0548253, 4.982455 
9.0764666e+2, 1.9179337e+2, -1027384.8, -1134334.6, 50866.793, 0.00587562, -0.011466841, -1007055.94, 53357.95, 0.0, 5.054554, 4.978916 
9.074453e+2, 1.9676536e+2, -980689.25, -1087764.8, 52000.76, 0.0076991087, -0.012924112, -959592.06, 52094.957, 0.0, 5.054156, 4.978364 
9.0724367e+2, 2.0173512e+2, -938237.94, -1050594.9, 53735.26, 0.0091275675, -0.012269293, -916676.44, 46306.445, 0.0, 5.0538306, 4.97451 
9.070413e+2, 2.0670253e+2, -890922.56, -1003800.94, 54592.703, 0.007394347, -0.01352857, -868839.5, 45463.49, 0.0, 5.0536485, 4.9739113 
9.068378e+2, 2.1166769e+2, -848068.44, -966616.4, 55444.35, 0.005316273, -0.011976017, -826179.1, 39465.715, 0.0, 5.05342, 4.9700007 
9.0663326e+2, 2.1663049e+2, -801506.7, -920148.5, 56231.258, 0.003928718, -0.012488999, -779090.7, 37919.01, 0.0, 5.052961, 4.9693837 
9.064268e+2, 2.2159088e+2, -759098.5, -883650.56, 56018.684, 0.0032458263, -0.010313122, -737610.6, 30788.299, 0.0, 5.052589, 4.965279 
9.062182e+2, 2.2654872e+2, -712614.56, -837398.8, 56610.523, 0.00277696, -0.010725779, -690759.8, 29054.527, 0.0, 5.052115, 4.9645715 
9.0600693e+2, 2.315042e+2, -670125.56, -801129.8, 55727.973, 0.00032547646, -0.0068711005, -649626.94, 21625.652, 0.0, 5.051728, 4.960386 
9.057929e+2, 2.3645723e+2, -623878.0, -755069.75, 56036.34, -0.0049818805, -0.004618189, -603201.7, 19511.443, 0.0, 5.0511584, 4.9596295 
9.055757e+2, 2.4140747e+2, -581899.3, -719563.25, 53822.402, -0.007492164, -0.00045613048, -563354.56, 10847.2705, 0.0, 5.050586, 4.9552474 
9.053556e+2, 2.4635465e+2, -536802.1, -674145.4, 53959.375, -0.0017548719, -0.0027700907, -518138.72, 7584.289, 0.0, 5.049603, 4.9544177 
9.051312e+2, 2.512994e+2, -495077.66, -638022.4, 50918.773, 0.001341553, -0.00076355005, -478794.56, -1528.5144, 0.0, 5.0487037, 4.950374 
9.0490204e+2, 2.562413e+2, -450573.63, -592576.6, 50449.145, -0.00029422293, -0.0065829107, -434475.6, -5644.319, 0.0, 5.047403, 4.949675 
9.0466857e+2, 2.6118067e+2, -410472.53, -558514.8, 46548.715, -0.0010560314, -0.0072996058, -397052.75, -16629.89, 0.0, 5.046055, 4.945105 
9.044303e+2, 2.6611802e+2, -367620.0, -513647.66, 45153.777, 0.00022257496, -0.004559922, -354785.8, -22747.133, 0.0, 5.0440655, 4.9444757 
9.041873e+2, 2.7105305e+2, -328836.4, -478576.34, 40066.254, 0.00045375232, 0.0013375985, -318789.84, -35113.547, 0.0, 5.0418577, 4.940601 
9.0393895e+2, 2.7598503e+2, -287992.72, -433509.94, 37569.824, 0.0043849754, -0.0062715206, -278865.38, -43523.72, 0.0, 5.0388374, 4.940484 
9.036859e+2, 2.8091565e+2, -252043.63, -398610.34, 32868.57, 0.008038777, -0.005968792, -245010.16, -57988.105, 0.0, 5.035371, 4.9370246 
9.034268e+2, 2.8584582e+2, -213548.39, -352443.1, 29378.72, 0.0050839176, -0.00060498464, -207589.88, -68880.12, 0.0, 5.031023, 4.937836 
9.0316415e+2, 2.9077482e+2, -180054.84, -317024.66, 25864.31, 0.0017066853, 0.0077633373, -175333.58, -84925.58, 0.0, 5.026398, 4.9349694 
9.0289795e+2, 2.9570168e+2, -143233.89, -268959.66, 22691.295, 0.0037187177, -0.0065302253, -139263.88, -97142.62, 0.0, 5.0209165, 4.9368873 
9.026288e+2, 3.0062884e+2, -112373.03, -234642.86, 19621.01, 0.0022455389, -0.0059011304, -109301.55, -109301.55, 0.0, 5.01535, 4.933915 
9.0235704e+2, 3.055574e+2, -78196.13, -190972.53, 17614.238, 0.0023836072, 0.003099905, -75509.04, -75509.04, 0.0, 5.009558, 4.9343085 
9.0208405e+2, 3.1048894e+2, -55498.453, -141785.94, 12970.375, 0.004778965, 0.006051132, -53590.97, -53590.97, 0.0, 5.0035734, 4.945867 
9.0180814e+2, 3.1543365e+2, -57576.707, -118183.21, 11122.014, -0.008909243, 0.013734581, -55600.15, -55600.15, 0.0, 4.997975, 4.9568253 
9.015345e+2, 3.2039744e+2, -40060.117, -49481.61, 4214.268, 0.01154824, -0.01285761, -38450.168, -38450.168, 0.0, 4.992023, 4.9848924 
9.0125805e+2, 3.2537648e+2, -45129.832, -24833.156, 1288.1886, -0.0021498261, -0.013464737, -24751.725, -24751.725, 0.0, 4.984717, 4.9969473 
9.152534e+2, 1.3222133e+2, -1557870.6, -1643935.6, 4862.3076, -0.0090522645, -0.008427449, -1557596.8, 86623.0, 0.0, 5.059916, 5.0022435 
9.1502297e+2, 1.3721642e+2, -1517267.1, -1604227.1, 14924.1455, 0.019517843, -0.0033446653, -1514777.1, 80491.78, 0.0, 5.058543, 4.999879 
9.147943e+2, 1.4220828e+2, -1473346.4, -1560650.4, 20300.07, -0.024651546, -0.014524541, -1468857.0, 77492.89, 0.0, 5.0580297, 4.998217 
9.1457254e+2, 1.4720114e+2, -1426796.8, -1513294.4, 21313.295, 0.0032598346, -0.009864253, -1421830.3, 75591.41, 0.0, 5.0575237, 4.99803 
9.1435224e+2, 1.5219249e+2, -1385200.0, -1473164.1, 28205.434, 0.001718305, -0.0029833275, -1376932.9, 71575.05, 0.0, 5.0566263, 4.995444 
9.14136e+2, 1.5718165e+2, -1338760.0, -1426152.0, 31862.576, -0.0077941995, -0.004207062, -1328376.8, 71238.23, 0.0, 5.0561366, 4.9951353 
9.139256e+2, 1.6216905e+2, -1296284.1, -1386668.4, 36351.973, 0.00066290627, -0.0051453314, -1283478.1, 67260.78, 0.0, 5.0556717, 4.992147 
9.137165e+2, 1.6715483e+2, -1249412.6, -1340085.9, 38239.484, 0.004313847, -0.004634958, -1235439.3, 66438.62, 0.0, 5.0554338, 4.9915566 
9.135092e+2, 1.7213869e+2, -1206623.8, -1300854.4, 42406.04, -0.0005566618, -0.0025323755, -1190350.4, 62685.48, 0.0, 5.0550914, 4.9884176 
9.133044e+2, 1.7712028e+2, -1159287.5, -1253732.3, 44235.313, 0.00032439322, -0.006074298, -1141805.0, 62410.586, 0.0, 5.0549183, 4.9879723 
9.1310155e+2, 1.8209992e+2, -1116343.5, -1214885.1, 47499.473, 0.0057264166, -0.008389105, -1097175.9, 58237.59, 0.0, 5.0546165, 4.984696 
9.128993e+2, 1.8707766e+2, -1069310.3, -1168102.0, 48718.047, 0.006952739, -0.011724275, -1049327.5, 57301.23, 0.0, 5.05435, 4.984168 
9.126972e+2, 1.9205345e+2, -1026420.56, -1130004.6, 50935.832, 0.006248123, -0.011493225, -1005570.5, 52293.516, 0.0, 5.054102, 4.9806085 
9.1249555e+2, 1.9702718e+2, -978919.25, -1083011.1, 51937.105, 0.008106113, -0.012296659, -957438.06, 51683.24, 0.0, 5.053975, 4.980082 
9.1229355e+2, 2.0199864e+2, -935922.06, -1045342.3, 53713.336, 0.009371057, -0.011988867, -913962.0, 46438.695, 0.0, 5.053796, 4.976337 
9.1209084e+2, 2.0696773e+2, -888800.7, -998591.8, 54761.727, 0.0062362845, -0.014435572, -866156.75, 45546.723, 0.0, 5.053546, 4.975757 
9.11887e+2, 2.1193466e+2, -845998.94, -961279.8, 55522.66, 0.0039755236, -0.013441986, -823606.94, 39420.63, 0.0, 5.0532746, 4.9719095 
9.116821e+2, 2.1689935e+2, -799264.3, -914663.5, 56189.953, 0.004360428, -0.013760294, -776424.75, 37949.156, 0.0, 5.052866, 4.971327 
9.114752e+2, 2.2186166e+2, -756708.94, -878233.94, 55938.586, 0.004026425, -0.01118512, -734880.9, 30863.293, 0.0, 5.0525784, 4.967163 
9.1126585e+2, 2.2682145e+2, -709900.25, -831805.9, 56443.98, 0.0008150668, -0.010598303, -687779.75, 29360.219, 0.0, 5.0522146, 4.966471 
9.110539e+2, 2.3177877e+2, -667658.75, -795991.1, 55586.582, -0.0028886814, -0.006014761, -646929.94, 21630.426, 0.0, 5.051812, 4.9621363 
9.108394e+2, 2.3673366e+2, -621803.8, -750112.2, 55927.957, -0.006633021, -0.002278503, -600848.1, 19157.188, 0.0, 5.051111, 4.961379 
9.1062146e+2, 2.4168563e+2, -579734.9, -714269.0, 53525.387, -0.008033906, 0.0014429447, -561037.9, 10439.992, 0.0, 5.050508, 4.9571304 
9.104004e+2, 2.4663417e+2, -534464.5, -668798.7, 53741.816, -0.0019402816, -0.005839711, -515610.66, 7371.8813, 0.0, 5.0496016, 4.95629 
9.1017485e+2, 2.5158024e+2, -492969.1, -633895.0, 50418.504, 0.0018455994, -0.006811472, -476788.78, -2278.449, 0.0, 5.0488286, 4.9517684 
9.099445e+2, 2.565241e+2, -448138.13, -588503.5, 49839.535, 0.001558612, -0.0062432154, -432241.84, -6185.0425, 0.0, 5.0476847, 4.950987 
9.0970933e+2, 2.6146492e+2, -408312.88, -555589.8, 45391.59, 0.0014995737, -0.0029100992, -395446.88, -17811.72, 0.0, 5.046411, 4.9459987 
9.0946925e+2, 2.664025e+2, -365874.25, -511493.6, 44059.977, 0.004961723, -0.0049320604, -353580.88, -24330.338, 0.0, 5.044395, 4.945111 
9.092237e+2, 2.7133784e+2, -327238.34, -477052.84, 38313.34, 0.0057842345, -0.00084566465, -318008.75, -37122.16, 0.0, 5.0421996, 4.941029 
9.089717e+2, 2.7627054e+2, -286574.97, -432426.4, 35472.043, 0.0061559714, -0.0051568565, -278405.5, -45862.48, 0.0, 5.0391774, 4.9407587 
9.087146e+2, 2.812011e+2, -251351.72, -399223.75, 30019.08, 0.006776779, -0.004996927, -245490.0, -61267.727, 0.0, 5.0356708, 4.936746 
9.08451e+2, 2.861304e+2, -212972.27, -352922.47, 26198.295, 0.005145124, -0.0053031193, -208228.8, -72310.02, 0.0, 5.0312257, 4.9376526 
9.0818346e+2, 2.9105884e+2, -180240.53, -318223.63, 22000.758, 0.002019721, -0.00016323823, -176817.53, -89194.875, 0.0, 5.0263853, 4.9346247 
9.0791214e+2, 2.9598612e+2, -143233.31, -270426.94, 18633.92, 0.008087179, -0.007808557, -140559.64, -101226.4, 0.0, 5.0210238, 4.9364014 
9.076377e+2, 3.0091333e+2, -111882.71, -235228.38, 15558.858, 0.009079079, -0.0017383222, -109950.38, -109950.38, 0.0, 5.0155463, 4.933691 
9.0735966e+2, 3.0584073e+2, -78087.66, -192499.31, 13513.265, 0.006219739, -0.0010373063, -76513.26, -76513.26, 0.0, 5.009761, 4.9337554 
9.070803e+2, 3.1077057e+2, -55025.094, -142642.36, 9244.07, 0.0060390476, -0.0067753983, -54060.418, -54060.418, 0.0, 5.0038195, 4.945519 
9.067986e+2, 3.1571475e+2, -56916.8, -119011.625, 8024.1206, -0.010019382, 0.0032701162, -55896.656, -55896.656, 0.0, 4.998257, 4.956518 
9.0651745e+2, 3.2067868e+2, -35278.35, -42114.758, -237.24643, -0.001691794, -0.019110514, -35270.13, -35270.13, 0.0, 4.9924674, 4.9875793 
9.062343e+2, 3.2565778e+2, -46877.83, -33582.46, -178.85446, -0.018664975, 0.011318876, -33580.055, -33580.055, 0.0, 4.9854155, 4.9936557 
9.203057e+2, 1.3246027e+2, -1565449.3, -1642615.0, 5387.7456, -0.00937827, -0.01766217, -1565074.9, 76802.71, 0.0, 5.05622, 5.0044913 
9.2007244e+2, 1.3745886e+2, -1522611.8, -1601149.9, 15275.819, -0.001312499, -0.0025159311, -1519745.3, 73146.734, 0.0, 5.055483, 5.002396 
9.198478e+2, 1.4245273e+2, -1478456.4, -1558850.5, 20280.5, -0.005875355, -0.015796198, -1473630.1, 70323.016, 0.0, 5.055349, 5.000124 
9.1962415e+2, 1.4744754e+2, -1431118.9, -1510873.4, 21141.105, 0.00813391, -0.01072994, -1425861.4, 69144.24, 0.0, 5.055061, 5.0000367 
9.19402e+2, 1.5244082e+2, -1389038.5, -1470807.5, 28222.176, -0.0077593606, -0.0034282021, -1380243.8, 65829.46, 0.0, 5.054403, 4.9973073 
9.1918635e+2, 1.574319e+2, -1341955.4, -1423623.1, 31955.232, -0.0094413245, -0.003229022, -1330938.0, 66223.94, 0.0, 5.0541663, 4.996936 
9.189765e+2, 1.6242103e+2, -1299084.3, -1384192.8, 36674.477, 0.0060726614, -0.003700107, -1285461.3, 62807.97, 0.0, 5.0538955, 4.993831 
9.187669e+2, 1.6740839e+2, -1251714.6, -1337296.0, 38767.656, 0.0061678123, -0.0038215697, -1236764.8, 62628.71, 0.0, 5.0538177, 4.993268 
9.185592e+2, 1.7239374e+2, -1208471.1, -1297594.3, 43154.984, -0.002219736, -0.0036485458, -1190999.8, 59536.043, 0.0, 5.053587, 4.990232 
9.183544e+2, 1.7737682e+2, -1160831.0, -1250214.8, 45160.414, 0.00007096538, -0.010058707, -1141986.9, 59712.305, 0.0, 5.0535045, 4.98983 
9.1815156e+2, 1.8235824e+2, -1117709.1, -1211384.8, 48524.164, 0.0070069334, -0.012358439, -1097105.3, 55774.06, 0.0, 5.0532985, 4.9865003 
9.17949e+2, 1.8733802e+2, -1070381.0, -1164344.1, 50116.938, 0.0077927834, -0.011845231, -1048667.8, 55407.71, 0.0, 5.0531316, 4.9860106 
9.177467e+2, 1.9231571e+2, -1027236.5, -1126002.6, 52629.223, 0.0060290364, -0.010178312, -1004449.5, 50844.2, 0.0, 5.0529747, 4.9824853 
9.1754496e+2, 1.9729106e+2, -979439.06, -1078636.9, 53978.887, 0.007567408, -0.012349814, -955732.0, 50804.195, 0.0, 5.052925, 4.982045 
9.1734284e+2, 2.0226434e+2, -935804.3, -1039838.56, 55977.074, 0.008906948, -0.013448386, -911406.7, 46390.656, 0.0, 5.052837, 4.9786353 
9.171399e+2, 2.0723546e+2, -888336.9, -992668.4, 57350.492, 0.005677717, -0.016988166, -862976.2, 46101.707, 0.0, 5.052685, 4.978149 
9.169358e+2, 2.1220453e+2, -845491.94, -955508.06, 58343.07, 0.003520564, -0.015866041, -820313.94, 40066.53, 0.0, 5.052505, 4.974191 
9.167306e+2, 2.1717146e+2, -798333.75, -908516.3, 59382.105, 0.0043182555, -0.014111973, -772423.25, 39282.97, 0.0, 5.052236, 4.97367 
9.165233e+2, 2.2213602e+2, -755222.7, -871528.9, 59568.395, 0.0032756417, -0.010410248, -730128.1, 32927.23, 0.0, 5.0521183, 4.969612 
9.1631347e+2, 2.2709799e+2, -707864.2, -824684.94, 60559.844, -0.0016058754, -0.00954715, -682136.2, 32293.428, 0.0, 5.0519495, 4.9689713 
9.1610116e+2, 2.3205744e+2, -665059.75, -788230.8, 59959.18, -0.004494121, -0.006149378, -640692.5, 25136.92, 0.0, 5.051707, 4.9647694 
9.158864e+2, 2.3701428e+2, -618942.4, -741970.94, 60949.26, -0.0030306042, -0.0054952176, -593860.94, 23394.291, 0.0, 5.0510917, 4.964098 
9.1566783e+2, 2.4196836e+2, -576306.7, -705600.75, 59297.17, -0.0025213438, -0.003765135, -553230.3, 15475.675, 0.0, 5.0507035, 4.9599166 
9.1544557e+2, 2.4691944e+2, -530107.56, -659446.8, 60109.64, -0.00078561145, -0.009177987, -506486.0, 13697.025, 0.0, 5.050139, 4.959156 
9.15219e+2, 2.518678e+2, -488011.7, -625222.06, 57755.426, 0.00047716676, -0.007984196, -466937.66, 4750.2495, 0.0, 5.049817, 4.9541855 
9.149877e+2, 2.5681356e+2, -441961.75, -579299.44, 57987.73, 0.0009479978, -0.005637472, -420752.97, 2466.9858, 0.0, 5.049178, 4.9533477 
9.1475135e+2, 2.6175597e+2, -400496.7, -545649.94, 54014.23, 0.0013086875, -0.0024199216, -382602.88, -7818.172, 0.0, 5.0485687, 4.9482965 
9.145095e+2, 2.6669466e+2, -356240.13, -500618.2, 53553.1, 0.005316271, -0.008920487, -338544.84, -12157.913, 0.0, 5.0472603, 4.947413 
9.1426164e+2, 2.7163076e+2, -316428.22, -467117.34, 48384.67, 0.006826881, -0.0076694195, -302230.16, -24216.6, 0.0, 5.0458174, 4.942662 
9.1400665e+2, 2.765645e+2, -274277.25, -422213.25, 46010.074, 0.005695319, -0.007578166, -261135.02, -31473.826, 0.0, 5.0434437, 4.942211 
9.1374564e+2, 2.8149557e+2, -238427.63, -389703.75, 40218.934, 0.005722675, -0.004531967, -228399.61, -47063.363, 0.0, 5.0403147, 4.937808 
9.134776e+2, 2.864245e+2, -201056.42, -344527.75, 36373.145, 0.007501939, -0.0075499834, -192361.92, -59326.844, 0.0, 5.035635, 4.9384284 
9.1320497e+2, 2.913524e+2, -169738.92, -310620.9, 31982.846, 0.0077724606, -0.004446411, -162818.19, -78074.95, 0.0, 5.030308, 4.9353147 
9.1292715e+2, 2.9627952e+2, -134833.67, -264141.16, 28444.953, 0.00848555, -0.008899249, -128852.99, -92397.47, 0.0, 5.024271, 4.936905 
9.1264695e+2, 3.0120617e+2, -102843.71, -229269.23, 25988.494, 0.007492134, -0.001344594, -97709.89, -97709.89, 0.0, 5.019178, 4.933896 
9.123634e+2, 3.0613235e+2, -67931.79, -186272.25, 22553.162, 0.006625654, -0.004890249, -63779.344, -63779.344, 0.0, 5.0137744, 4.9339223 
9.120773e+2, 3.1106138e+2, -48941.37, -139086.36, 18422.258, 0.0058383895, -0.008958015, -45321.883, -45321.883, 0.0, 5.0065136, 4.945294 
9.1178983e+2, 3.1600556e+2, -50190.863, -114165.84, 17916.281, -0.01285414, 0.005479708, -45515.12, -45515.12, 0.0, 5.001047, 4.956644 
9.115048e+2, 3.2096756e+2, -24696.521, -44918.57, 7989.8994, 0.005440278, -0.021028802, -21920.682, -21920.682, 0.0, 4.9984565, 4.9835777 
9.1121686e+2, 3.259413e+2, -35682.48, -30909.234, 4531.1807, -0.0007908873, -0.03161626, -28174.572, -28174.572, 0.0, 4.99038, 4.992145 
9.253553e+2, 1.3270204e+2, -1567403.4, -1638184.9, 1583.379, -0.008180909, -0.0259804, -1567368.0, 72139.375, 0.0, 5.054393, 5.006859 
9.2511934e+2, 1.3770288e+2, -1523720.4, -1598681.5, 16405.967, -0.031289186, -0.0011922644, -1520287.0, 70214.17, 0.0, 5.0544558, 5.0037246 
9.2489976e+2, 1.4269789e+2, -1479838.8, -1555323.4, 20804.715, 0.016173603, -0.017785208, -1474484.4, 67066.92, 0.0, 5.053984, 5.001967 
9.2467403e+2, 1.4769481e+2, -1431941.3, -1506820.0, 21771.22, 0.011324521, -0.010464535, -1426071.4, 66510.77, 0.0, 5.0538325, 5.001995 
9.244505e+2, 1.5268984e+2, -1389457.1, -1467051.5, 28892.115, -0.016780088, -0.0031680004, -1379881.0, 63750.664, 0.0, 5.053427, 4.9990444 
9.242357e+2, 1.5768233e+2, -1342100.5, -1419845.3, 32445.549, -0.00871849, -0.0054246453, -1330339.1, 64367.645, 0.0, 5.053309, 4.9986253 
9.240263e+2, 1.6267301e+2, -1298926.5, -1380083.6, 37143.46, 0.011395283, -0.0072425264, -1284493.6, 61304.934, 0.0, 5.053109, 4.9955964 
9.238162e+2, 1.6766216e+2, -1251208.9, -1332884.5, 39181.953, 0.0056841425, -0.006846971, -1235452.0, 61452.496, 0.0, 5.053124, 4.995095 
9.2360824e+2, 1.7264937e+2, -1207830.6, -1293189.6, 43468.18, -0.0047897226, -0.0057943705, -1189592.0, 58436.58, 0.0, 5.052958, 4.9920263 
9.2340374e+2, 1.7763439e+2, -1160017.4, -1245604.5, 45334.836, 0.0013308333, -0.010634717, -1140468.9, 58704.375, 0.0, 5.0529075, 4.991685 
9.2320096e+2, 1.826177e+2, -1116605.8, -1206576.3, 48537.184, 0.00917942, -0.0124472715, -1095413.0, 54922.35, 0.0, 5.0527906, 4.9883842 
9.2299813e+2, 1.8759935e+2, -1068749.9, -1159226.0, 50049.883, 0.007267925, -0.011984031, -1046523.3, 54991.02, 0.0, 5.0527964, 4.9879255 
9.227956e+2, 1.9257894e+2, -1025063.0, -1120267.9, 52588.918, 0.0044925422, -0.011031736, -1001731.75, 50982.297, 0.0, 5.052757, 4.9845605 
9.225939e+2, 1.9755624e+2, -977099.6, -1072776.3, 54055.547, 0.006923293, -0.014239954, -952754.06, 51182.73, 0.0, 5.0527616, 4.984145 
9.2239165e+2, 2.025317e+2, -933325.56, -1033545.56, 55827.313, 0.0087865135, -0.01524756, -908417.56, 46758.887, 0.0, 5.0526576, 4.98089 
9.2218846e+2, 2.0750517e+2, -885967.25, -986337.1, 57065.27, 0.0054083164, -0.017520018, -860158.94, 46274.754, 0.0, 5.0524564, 4.9804435 
9.2198414e+2, 2.124766e+2, -842984.9, -949134.1, 57909.59, 0.0032422303, -0.015815563, -817507.4, 40206.14, 0.0, 5.0523367, 4.976475 
9.217786e+2, 2.1744585e+2, -795294.25, -901727.9, 59040.88, 0.0036315832, -0.013888645, -769026.1, 39990.85, 0.0, 5.0522194, 4.976038 
9.21571e+2, 2.224128e+2, -752135.4, -864457.0, 59246.83, 0.0021183016, -0.010329898, -726661.5, 33681.363, 0.0, 5.052064, 4.9721026 
9.2136097e+2, 2.2737724e+2, -705207.2, -817674.9, 60312.797, -0.0028404344, -0.009653828, -678979.7, 32713.09, 0.0, 5.051729, 4.9715204 
9.211483e+2, 2.323392e+2, -662162.3, -780750.5, 59522.93, -0.0046404367, -0.0070385793, -637439.94, 25627.77, 0.0, 5.0515075, 4.967475 
9.209333e+2, 2.3729855e+2, -615536.3, -734244.6, 60501.203, 0.000064820815, -0.00801591, -590136.06, 24332.84, 0.0, 5.0510745, 4.9668136 
9.2071426e+2, 2.4225523e+2, -572548.8, -697605.6, 58814.094, 0.0013611846, -0.0076470706, -549234.94, 16658.19, 0.0, 5.0508013, 4.9626727 
9.204909e+2, 2.472092e+2, -525909.44, -651266.5, 59666.086, -0.0006457466, -0.011139983, -502051.03, 15288.506, 0.0, 5.050403, 4.9619136 
9.2026347e+2, 2.5216043e+2, -484141.6, -617904.6, 57183.176, -0.0013237877, -0.0076577896, -463028.5, 5788.814, 0.0, 5.0501046, 4.9566364 
9.200316e+2, 2.5710872e+2, -438618.8, -572508.8, 57574.094, 0.00039304138, -0.004090435, -417266.53, 3062.4539, 0.0, 5.0493474, 4.9556704 
9.1979414e+2, 2.6205328e+2, -397392.88, -539291.56, 53251.848, 0.00016339749, -0.0015256264, -379631.63, -7757.954, 0.0, 5.0487103, 4.9504814 
9.195507e+2, 2.6699373e+2, -353030.1, -494364.2, 52742.11, 0.0032534075, -0.011427198, -335518.0, -12063.426, 0.0, 5.047468, 4.949542 
9.19301e+2, 2.7193117e+2, -314159.34, -463519.5, 47017.42, 0.004733988, -0.013061398, -300591.2, -25524.615, 0.0, 5.0460663, 4.9438643 
9.190435e+2, 2.7686638e+2, -272494.97, -419383.8, 44486.836, 0.0046829903, -0.009477854, -260072.27, -33369.44, 0.0, 5.043619, 4.9431767 
9.187788e+2, 2.8179836e+2, -237264.0, -388546.47, 37125.55, 0.0036148278, -0.00320002, -228644.31, -50274.863, 0.0, 5.040455, 4.938237 
9.1850615e+2, 2.867273e+2, -200546.98, -344656.22, 32744.307, 0.010263589, -0.008819588, -193455.81, -63389.336, 0.0, 5.035716, 4.9384365 
9.1822785e+2, 2.9165488e+2, -169490.33, -310771.34, 27604.31, 0.010374617, -0.0071845795, -164288.38, -82512.945, 0.0, 5.0302725, 4.93536 
9.179426e+2, 2.96582e+2, -134173.39, -264158.4, 23993.672, -0.0015999863, -0.011103109, -129885.87, -96398.52, 0.0, 5.024391, 4.9369383 
9.176567e+2, 3.0150804e+2, -103608.63, -231919.64, 22828.977, -0.008672519, -0.0055403365, -99667.945, -99667.945, 0.0, 5.0192986, 4.9329195 
9.1736823e+2, 3.0643347e+2, -68248.055, -187312.94, 18139.88, -0.0014211078, -0.00851684, -65545.73, -65545.73, 0.0, 5.013777, 4.933586 
9.1707444e+2, 3.1136242e+2, -48621.625, -138574.22, 13474.232, -0.0034474516, -0.008558721, -46646.645, -46646.645, 0.0, 5.0064354, 4.9455814 
9.167812e+2, 3.1630853e+2, -50154.42, -114645.49, 16960.467, -0.028028982, 0.02410242, -45966.02, -45966.02, 0.0, 5.001113, 4.956495 
9.1649723e+2, 3.2126746e+2, -24434.22, -47577.83, 8129.906, 0.024515104, -0.014138449, -21863.818, -21863.818, 0.0, 4.9990487, 4.9824133 
9.162006e+2, 3.262389e+2, -34650.2, -30619.732, -4331.225, 0.019558784, -0.0055533256, -27857.867, -27857.867, 0.0, 4.9904833, 4.992518 
9.304038e+2, 1.329466e+2, -1575296.3, -1639627.6, 1863.3505, 0.012647816, -0.011544553, -1575242.4, 61867.94, 0.0, 5.05116, 5.0079575 
9.301654e+2, 1.3794748e+2, -1531025.6, -1599474.6, 15258.282, -0.046751775, 0.00013412184, -1527778.4, 60326.402, 0.0, 5.051321, 5.0049973 
9.2994916e+2, 1.4294367e+2, -1485586.3, -1554013.4, 19638.09, 0.036079682, -0.019896446, -1480350.9, 58792.52, 0.0, 5.0510836, 5.003833 
9.297211e+2, 1.4794284e+2, -1436515.1, -1505071.8, 20768.457, 0.00813159, -0.009239641, -1430714.4, 59436.758, 0.0, 5.0513506, 5.0038104 
9.294973e+2, 1.5293962e+2, -1393506.1, -1465534.3, 28170.209, -0.02344832, -0.0020052071, -1383797.4, 57385.766, 0.0, 5.0512247, 5.0006495 
9.2928374e+2, 1.5793335e+2, -1345529.5, -1417958.3, 31808.01, -0.005023536, -0.007942215, -1333544.0, 58701.684, 0.0, 5.0513067, 5.0002527 
9.2907447e+2, 1.6292557e+2, -1301669.5, -1377480.6, 36630.09, 0.015582765, -0.011543896, -1286862.8, 56458.914, 0.0, 5.051259, 4.99739 
9.288638e+2, 1.6791663e+2, -1253635.5, -1330038.6, 38796.438, 0.0036143842, -0.010470304, -1237389.6, 57018.305, 0.0, 5.051368, 4.996924 
9.2865586e+2, 1.7290586e+2, -1210131.8, -1290353.9, 43198.11, -0.006832582, -0.0073372433, -1191293.9, 54218.438, 0.0, 5.051263, 4.993821 
9.2845196e+2, 1.7789301e+2, -1162143.9, -1242604.5, 45295.105, 0.0041384175, -0.0087631205, -1141792.6, 54844.68, 0.0, 5.0512652, 4.99351 
9.282491e+2, 1.8287821e+2, -1118395.4, -1203069.1, 48768.805, 0.011710387, -0.0105182845, -1096150.5, 51631.727, 0.0, 5.051206, 4.9903545 
9.2804587e+2, 1.8786156e+2, -1070352.3, -1155451.3, 50494.54, 0.0058115735, -0.012634348, -1046870.25, 52075.3, 0.0, 5.051252, 4.9899654 
9.278434e+2, 1.928431e+2, -1026203.94, -1115559.8, 53277.2, 0.0022769058, -0.013590931, -1001350.75, 48774.684, 0.0, 5.0512486, 4.9868965 
9.2764187e+2, 1.9782259e+2, -978111.5, -1067822.8, 55062.93, 0.006464582, -0.017491268, -951946.3, 49378.074, 0.0, 5.0512967, 4.986534 
9.2743963e+2, 2.0280051e+2, -934307.1, -1028537.5, 56955.066, 0.009106002, -0.016677417, -907505.4, 45034.805, 0.0, 5.0512443, 4.9832497 
9.2723626e+2, 2.0777665e+2, -886743.9, -981042.6, 58378.113, 0.005872876, -0.01488148, -858852.8, 44920.918, 0.0, 5.0511007, 4.982868 
9.270317e+2, 2.1275054e+2, -843229.3, -942745.8, 59592.918, 0.0029388021, -0.012993278, -815352.5, 39677.68, 0.0, 5.051031, 4.979244 
9.26826e+2, 2.1772209e+2, -795215.1, -895008.75, 61134.516, 0.0018819949, -0.014405843, -766199.9, 40110.504, 0.0, 5.0510073, 4.978883 
9.266182e+2, 2.2269164e+2, -751691.75, -856985.75, 61494.293, 0.0012129551, -0.012515774, -723386.6, 34223.5, 0.0, 5.0508904, 4.9751825 
9.26408e+2, 2.2765905e+2, -704704.06, -809739.2, 63095.113, -0.0009233663, -0.011414678, -675129.7, 33801.2, 0.0, 5.0505342, 4.97476 
9.2619497e+2, 2.3262401e+2, -661385.6, -772221.9, 62816.62, -0.0030479247, -0.009114594, -633035.6, 27239.895, 0.0, 5.05037, 4.97088 
9.2597914e+2, 2.3758651e+2, -614281.2, -725138.6, 64473.688, -0.002283974, -0.009750986, -584685.25, 26959.389, 0.0, 5.050075, 4.970354 
9.2575955e+2, 2.4254654e+2, -570832.9, -688155.2, 63593.418, -0.0016092481, -0.008036006, -542976.7, 20059.885, 0.0, 5.0499954, 4.9662256 
9.255362e+2, 2.4750404e+2, -523703.84, -641235.9, 65128.65, -0.0010991258, -0.008321387, -494747.66, 19703.553, 0.0, 5.0497475, 4.9655995 
9.253085e+2, 2.5245848e+2, -481053.4, -606665.06, 63404.977, 0.0011193601, -0.0053117904, -454613.72, 11285.232, 0.0, 5.049697, 4.960604 
9.2507637e+2, 2.5740975e+2, -435030.0, -560466.75, 65126.68, 0.007777949, -0.0058751404, -407332.25, 10048.632, 0.0, 5.0491385, 4.9597936 
9.248381e+2, 2.6235753e+2, -392649.3, -526360.8, 62243.402, 0.008409962, -0.0051338356, -368159.9, 732.7123, 0.0, 5.0489874, 4.954651 
9.2459303e+2, 2.673016e+2, -346631.0, -480641.7, 63608.418, 0.0045711948, -0.012186028, -321247.25, -810.9293, 0.0, 5.0484467, 4.9536557 
9.243415e+2, 2.7224213e+2, -306299.47, -450089.22, 59176.188, 0.0038271607, -0.011261438, -285077.78, -13059.672, 0.0, 5.047863, 4.9474583 
9.240823e+2, 2.7717978e+2, -262136.7, -404932.7, 58773.188, 0.008277908, -0.006344647, -241057.89, -17424.793, 0.0, 5.0465136, 4.9465895 
9.2381465e+2, 2.8211337e+2, -224420.44, -375517.22, 51653.625, 0.009437939, -0.00017391605, -208450.2, -33164.742, 0.0, 5.0447536, 4.9405293 
9.2353714e+2, 2.8704265e+2, -185154.81, -331763.94, 48024.473, 0.011690102, -0.007863713, -170824.28, -43847.113, 0.0, 5.0412226, 4.9401464 
9.2325294e+2, 2.9196966e+2, -154368.48, -301577.7, 41888.656, 0.009266088, -0.0073724436, -143283.67, -64592.668, 0.0, 5.036261, 4.9356174 
9.229605e+2, 2.9689524e+2, -122849.62, -257093.84, 35508.1, -0.0038132367, -0.011957451, -114036.21, -83616.445, 0.0, 5.0288744, 4.937194 
9.22669e+2, 3.018209e+2, -95094.125, -223038.94, 35083.797, -0.009886166, -0.0033398478, -86105.3, -86105.3, 0.0, 5.0224743, 4.934207 
9.223749e+2, 3.0674607e+2, -61399.67, -181956.81, 31258.314, -0.0017417261, -0.0050789723, -53776.93, -53776.93, 0.0, 5.017166, 4.9333706 
9.2207646e+2, 3.1167024e+2, -35553.742, -140699.73, 24040.918, 0.0038627048, -0.01494903, -30317.693, -30317.693, 0.0, 5.0137234, 4.941161 
9.217802e+2, 3.166131e+2, -25222.473, -107941.336, 21391.363, -0.017799694, 0.024269765, -20018.045, -20018.045, 0.0, 5.0114574, 4.9543176 
9.2148983e+2, 3.2157168e+2, -15797.391, -44195.707, 11083.115, 0.028473925, -0.0073113763, -11984.011, -11984.011, 0.0, 5.002319, 4.982216 
9.211828e+2, 3.2654133e+2, -18563.068, -23367.281, -1627.9937, 0.0055902796, -0.009946017, -18063.37, -18063.37, 0.0, 4.9965053, 4.99245 
9.354466e+2, 1.3318701e+2, -1574683.1, -1634371.9, 4605.013, -0.011177426, -0.01247908, -1574329.9, 60424.92, 0.0, 5.0502896, 5.0101457 
9.352123e+2, 1.3818991e+2, -1532644.4, -1594810.3, 15030.528, -0.030596055, -0.0055192825, -1529201.0, 56525.996, 0.0, 5.0496073, 5.0073857 
9.349936e+2, 1.4318867e+2, -1486364.0, -1549718.3, 19805.96, 0.025654007, -0.022178205, -1480681.9, 56058.1, 0.0, 5.0498247, 5.0058827 
9.347666e+2, 1.4818989e+2, -1437175.6, -1500999.8, 20905.459, 0.0043383045, -0.010426524, -1430937.8, 56791.34, 0.0, 5.050193, 5.005739 
9.345438e+2, 1.5318851e+2, -1394041.0, -1461562.4, 28433.027, -0.02071492, -0.00334782, -1383663.0, 55079.945, 0.0, 5.050152, 5.002502 
9.3433046e+2, 1.5818405e+2, -1345545.8, -1413861.8, 32164.809, -0.0032220664, -0.009222658, -1332785.3, 57001.887, 0.0, 5.050445, 5.002047 
9.341212e+2, 1.631781e+2, -1301217.3, -1373029.5, 36893.383, 0.015733987, -0.012480482, -1285641.6, 55203.375, 0.0, 5.0505323, 4.9992414 
9.339107e+2, 1.6817106e+2, -1252997.8, -1325419.5, 38891.383, 0.0034291276, -0.010929803, -1236069.5, 55843.55, 0.0, 5.050686, 4.998819 
9.337029e+2, 1.7316218e+2, -1209280.6, -1285445.9, 43213.902, -0.006864232, -0.008381018, -1189763.5, 53236.016, 0.0, 5.050618, 4.9958005 
9.334991e+2, 1.7815123e+2, -1161002.0, -1237432.3, 45199.813, 0.0048277867, -0.010390831, -1140027.5, 54078.63, 0.0, 5.050696, 4.9955487 
9.332963e+2, 1.831385e+2, -1116838.8, -1197406.5, 48678.164, 0.012138889, -0.012325286, -1093937.5, 51293.168, 0.0, 5.050722, 4.9925246 
9.330931e+2, 1.8812405e+2, -1068458.8, -1149468.6, 50443.203, 0.005226068, -0.01442956, -1044270.9, 52101.5, 0.0, 5.050855, 4.992209 
9.328905e+2, 1.9310796e+2, -1024109.5, -1109228.6, 53124.395, 0.0013932153, -0.014510769, -998599.1, 48929.97, 0.0, 5.050874, 4.9892516 
9.32689e+2, 1.9808999e+2, -975950.44, -1061369.6, 54545.08, 0.00593892, -0.01693646, -949383.25, 49320.33, 0.0, 5.050919, 4.9889436 
9.3248683e+2, 2.0307039e+2, -931878.1, -1021759.6, 56387.508, 0.008898678, -0.015712196, -904713.25, 45182.24, 0.0, 5.0509253, 4.9857464 
9.322834e+2, 2.0804907e+2, -883876.75, -973962.1, 57869.207, 0.005908411, -0.013736871, -855586.75, 45518.54, 0.0, 5.050917, 4.985418 
9.320786e+2, 2.1302563e+2, -839885.0, -934726.06, 59145.984, 0.002657194, -0.012195475, -811496.9, 40838.742, 0.0, 5.050872, 4.9821134 
9.318727e+2, 2.1799996e+2, -791958.4, -886840.7, 60753.316, 0.0006428168, -0.014651747, -762317.56, 41269.965, 0.0, 5.050791, 4.9818373 
9.316648e+2, 2.2297253e+2, -748127.75, -848222.0, 60876.715, 0.0008692324, -0.013070123, -719367.0, 35490.434, 0.0, 5.0506997, 4.978335 
9.314544e+2, 2.2794315e+2, -700783.5, -800585.44, 62458.13, 0.00069171394, -0.0115272505, -670739.94, 35406.72, 0.0, 5.0504313, 4.9780173 
9.31241e+2, 2.3291144e+2, -657065.25, -762420.9, 62127.168, -0.0018951201, -0.009922366, -628289.1, 29169.053, 0.0, 5.0503216, 4.9743423 
9.3102455e+2, 2.3787744e+2, -609692.0, -714915.5, 63727.92, -0.0043988177, -0.011033575, -579664.5, 29127.47, 0.0, 5.05008, 4.9739494 
9.3080455e+2, 2.428413e+2, -566249.4, -677665.4, 62680.27, -0.004041747, -0.0072506214, -538099.2, 22047.838, 0.0, 5.049956, 4.9699416 
9.305811e+2, 2.4780288e+2, -519494.25, -630744.25, 64513.88, 0.00004958069, -0.0043071937, -489936.03, 21588.404, 0.0, 5.0495443, 4.9694 
9.303533e+2, 2.527613e+2, -476486.94, -595088.56, 62640.066, 0.004181115, -0.0015702934, -449530.2, 13404.198, 0.0, 5.049459, 4.964805 
9.3012065e+2, 2.5771648e+2, -430030.3, -548517.56, 64418.656, 0.012265526, -0.0048308787, -401754.97, 12622.028, 0.0, 5.049023, 4.9640856 
9.298818e+2, 2.6266834e+2, -387276.4, -514015.7, 61573.98, 0.013489737, -0.0070900116, -362288.44, 3558.7688, 0.0, 5.0489793, 4.959024 
9.2963576e+2, 2.6761702e+2, -340874.56, -468130.47, 62884.2, 0.006484434, -0.012132998, -315043.38, 2300.6687, 0.0, 5.0485907, 4.9580326 
9.2938274e+2, 2.725621e+2, -301251.44, -439340.53, 57915.625, 0.0024037943, -0.0070216917, -280177.34, -11294.542, 0.0, 5.0480256, 4.9512153 
9.291223e+2, 2.7750352e+2, -257735.6, -395109.28, 57641.242, 0.010826983, -0.00050859037, -236754.17, -16290.367, 0.0, 5.046569, 4.9500804 
9.288522e+2, 2.8243947e+2, -221820.67, -370748.97, 49305.355, 0.011314177, 0.0040383944, -206976.78, -34883.777, 0.0, 5.0448985, 4.942207 
9.285702e+2, 2.8737e+2, -183291.34, -329226.47, 45307.867, 0.007608464, -0.003594806, -170369.05, -46598.168, 0.0, 5.041436, 4.9410205 
9.282803e+2, 2.922966e+2, -156020.92, -308162.03, 37323.332, 0.0023148593, -0.0037963644, -147358.02, -71867.76, 0.0, 5.036507, 4.933306 
9.2798096e+2, 2.9721937e+2, -123631.43, -262121.9, 29977.996, -0.0042623198, -0.012247602, -117420.836, -90170.85, 0.0, 5.029174, 4.935422 
9.2768294e+2, 3.0214477e+2, -93986.19, -218789.3, 30082.559, -0.010400519, 0.0012653604, -87113.55, -87113.55, 0.0, 5.0222607, 4.9357314 
9.2738247e+2, 3.070702e+2, -66175.97, -190751.38, 27818.313, -0.007359301, 0.00009998221, -60246.254, -60246.254, 0.0, 5.0168757, 4.930224 
9.270822e+2, 3.1198493e+2, -48993.55, -169852.19, 23336.338, 0.0113439495, -0.031488027, -44644.117, -44644.117, 0.0, 5.013429, 4.93072 
9.267857e+2, 3.1692004e+2, -27386.645, -110783.95, 19264.28, 0.01062209, -0.003563788, -23151.758, -23151.758, 0.0, 5.011047, 4.953434 
9.2647815e+2, 3.2188445e+2, -12383.702, -32770.934, 3897.9468, -0.007016091, -0.010711114, -11663.85, -11663.85, 0.0, 5.00104, 4.987316 
9.261706e+2, 3.2685357e+2, -19604.473, -47111.492, 11975.387, -0.019148411, 0.007834594, -15121.511, -15121.511, 0.0, 5.000533, 4.982052 
9.404896e+2, 1.3342604e+2, -1582475.5, -1632975.5, 2905.2104, -0.00813183, -0.02007354, -1582309.0, 50103.72, 0.0, 5.046435, 5.01253 
9.4025594e+2, 1.384318e+2, -1538145.9, -1592058.8, 13630.246, -0.022231396, -0.010851396, -1534895.9, 48458.293, 0.0, 5.0464864, 5.0098596 
9.4003564e+2, 1.4343339e+2, -1491343.1, -1548157.4, 18295.387, 0.011857603, -0.022224423, -1485961.5, 48378.02, 0.0, 5.04716, 5.0077486 
9.398107e+2, 1.4843647e+2, -1441211.5, -1498879.9, 19273.533, 0.006609162, -0.011304168, -1435363.1, 49948.383, 0.0, 5.047822, 5.007651 
9.3958837e+2, 1.5343702e+2, -1397546.5, -1459387.4, 26868.813, -0.017181087, -0.0047275997, -1387503.4, 48803.254, 0.0, 5.047997, 5.0043297 
9.393751e+2, 1.5843455e+2, -1348771.5, -1411777.6, 30648.104, -0.0040162723, -0.009357308, -1336322.9, 51007.332, 0.0, 5.0484333, 5.0037727 
9.3916625e+2, 1.6343054e+2, -1304224.5, -1370824.9, 35389.938, 0.01542415, -0.0114799235, -1288931.0, 49438.47, 0.0, 5.0485787, 5.000983 
9.389562e+2, 1.6842537e+2, -1255860.5, -1323016.8, 37425.668, 0.0048242616, -0.009749631, -1239157.8, 50262.35, 0.0, 5.048753, 5.0006204 
9.387484e+2, 1.7341822e+2, -1211704.3, -1282458.8, 41936.47, -0.0063611865, -0.009143571, -1192216.0, 48273.656, 0.0, 5.0487585, 4.9977703 
9.3854463e+2, 1.7840908e+2, -1163246.4, -1234234.6, 44105.39, 0.004207368, -0.013592613, -1142126.8, 49452.027, 0.0, 5.0488853, 4.997564 
9.3834203e+2, 1.8339849e+2, -1118860.9, -1193683.4, 47777.375, 0.011885694, -0.015549415, -1095590.4, 47091.492, 0.0, 5.0489173, 4.994711 
9.38139e+2, 1.8838641e+2, -1070490.5, -1145596.4, 49652.02, 0.005778909, -0.016251214, -1045789.56, 48009.676, 0.0, 5.049036, 4.994445 
9.3793654e+2, 1.9337288e+2, -1026000.5, -1105002.6, 52467.164, 0.0015253543, -0.013619268, -999827.06, 45104.914, 0.0, 5.049068, 4.9915905 
9.37735e+2, 1.9835764e+2, -977620.25, -1056798.9, 54034.87, 0.0054076957, -0.012694866, -950223.9, 45858.29, 0.0, 5.049144, 4.991386 
9.375327e+2, 2.0334049e+2, -933246.4, -1016349.0, 56121.35, 0.008017779, -0.0128454175, -904968.5, 42282.31, 0.0, 5.04913, 4.988476 
9.373293e+2, 2.0832151e+2, -885116.06, -968205.2, 57818.086, 0.0050426824, -0.014900662, -855464.56, 42972.754, 0.0, 5.049128, 4.988258 
9.3712443e+2, 2.1330106e+2, -840720.44, -927918.06, 59361.266, 0.002145799, -0.0133802695, -810667.25, 38970.43, 0.0, 5.0490813, 4.985307 
9.3691844e+2, 2.1827884e+2, -792810.0, -879816.94, 61162.69, 0.0006121824, -0.013055399, -761257.3, 39597.52, 0.0, 5.0489774, 4.9851103 
9.3671024e+2, 2.2325473e+2, -748949.2, -840570.9, 61547.617, 0.0008951032, -0.011082595, -718034.94, 34057.336, 0.0, 5.048814, 4.981846 
9.364996e+2, 2.282287e+2, -701624.94, -792713.6, 63478.66, 0.0004922113, -0.010142072, -669042.25, 34307.164, 0.0, 5.0485153, 4.9816194 
9.36286e+2, 2.3320058e+2, -657506.25, -753408.06, 63494.223, -0.0011312134, -0.009339513, -625890.75, 28734.902, 0.0, 5.0483837, 4.9783463 
9.3606913e+2, 2.3817036e+2, -610368.94, -705643.44, 65702.945, -0.0034318839, -0.011195127, -576850.9, 29070.84, 0.0, 5.0480413, 4.978083 
9.3584895e+2, 2.431383e+2, -567000.25, -667291.4, 65050.523, -0.00042603834, -0.0073572183, -535010.9, 22226.7, 0.0, 5.0477223, 4.9745383 
9.356253e+2, 2.4810427e+2, -520818.25, -619867.06, 67582.9, 0.007517217, -0.0040829503, -486556.53, 22017.535, 0.0, 5.047014, 4.9742765 
9.353965e+2, 2.5306746e+2, -477385.7, -582080.9, 66761.7, 0.007974931, -0.0025016682, -444895.8, 15040.26, 0.0, 5.0467925, 4.970458 
9.351625e+2, 2.58028e+2, -430784.7, -534800.56, 69938.695, 0.0071245623, -0.005065551, -395636.2, 15687.169, 0.0, 5.046355, 4.9699836 
9.3492305e+2, 2.629856e+2, -387779.53, -498697.66, 68741.52, 0.007346912, -0.0051462427, -354914.75, 7823.578, 0.0, 5.046225, 4.9654717 
9.3467706e+2, 2.6794046e+2, -341272.72, -451386.5, 72181.336, 0.005912564, -0.0072798543, -305547.4, 8631.426, 0.0, 5.0458064, 4.9649186 
9.3442357e+2, 2.7289158e+2, -299924.13, -419934.56, 69467.3, 0.0064811963, -0.003174465, -268134.28, -2474.6597, 0.0, 5.0458107, 4.9586883 
9.341618e+2, 2.7783853e+2, -254640.16, -373642.84, 73073.93, 0.014958702, -0.002993115, -219906.64, -2722.8179, 0.0, 5.045056, 4.9578753 
9.338889e+2, 2.8278023e+2, -216505.63, -348181.16, 69540.54, 0.008236095, -0.0010224913, -186580.67, -17824.963, 0.0, 5.0445585, 4.949704 
9.336039e+2, 2.8771666e+2, -172346.58, -303186.63, 71620.78, -0.00026268762, -0.003152786, -140764.97, -20388.941, 0.0, 5.043481, 4.9485245 
9.333092e+2, 2.9264688e+2, -146162.27, -288913.56, 66786.08, -0.0009053055, 0.004786975, -119788.94, -47729.043, 0.0, 5.039635, 4.937772 
9.3300235e+2, 2.9757053e+2, -118584.74, -249204.61, 66447.85, -0.0019922114, 0.0022602773, -90724.38, -66912.91, 0.0, 5.0317726, 4.937633 
9.3270487e+2, 3.0248773e+2, -73969.35, -230745.3, 66697.7, 0.0047923103, 0.015231211, -49433.773, -49433.773, 0.0, 5.036518, 4.923887 
9.324052e+2, 3.073984e+2, -6992.596, -196926.31, 38801.57, -0.0009479548, 0.023578476, 628.3906, 628.3906, 0.0, 5.045512, 4.915441 
9.3209296e+2, 3.1230646e+2, -8716.618, -160008.84, 22033.578, -0.0011022608, 0.011638338, -5573.0557, -5573.0557, 0.0, 5.0288157, 4.9282074 
9.317874e+2, 3.1723824e+2, -27050.16, -111516.71, 22865.258, 0.0076177265, 0.02650188, -21257.719, -21257.719, 0.0, 5.0113397, 4.9530973 
9.314736e+2, 3.2220003e+2, 16047.853, -26453.018, -258.64496, 0.001487191, 0.0075313332, 16049.427, 16049.427, 0.0, 5.0126796, 4.9847426 
9.311688e+2, 3.2716325e+2, -9728.794, -57752.324, 16610.22, 0.008008193, -0.008011338, -4543.568, -4543.568, 0.0, 5.0072412, 4.9751687 
9.455312e+2, 1.3366681e+2, -1585633.6, -1630372.9, 3227.5898, 0.010491139, -0.0101747, -1585402.0, 44651.305, 0.0, 5.0444984, 5.014332 
9.452959e+2, 1.3867298e+2, -1538676.1, -1588074.9, 14406.568, -0.031545635, -0.015387867, -1534781.6, 46208.594, 0.0, 5.0454216, 5.0117025 
9.450783e+2, 1.4367744e+2, -1493571.4, -1545171.8, 18800.281, 0.023528242, -0.015597641, -1487448.1, 44499.28, 0.0, 5.0455523, 5.009522 
9.4485295e+2, 1.4868164e+2, -1442057.3, -1494795.6, 19896.336, 0.005817331, -0.012456671, -1435393.1, 47515.613, 0.0, 5.046596, 5.009615 
9.446308e+2, 1.5368377e+2, -1397291.8, -1454793.9, 27255.39, -0.023962362, -0.009437755, -1386426.1, 47461.598, 0.0, 5.0471478, 5.006291 
9.444188e+2, 1.5868343e+2, -1348818.5, -1407546.9, 30767.322, -0.0040119765, -0.0113690635, -1335651.6, 49237.84, 0.0, 5.0475225, 5.005644 
9.442106e+2, 1.6368145e+2, -1304308.6, -1366227.5, 35304.69, 0.018898444, -0.012730272, -1288311.6, 47597.258, 0.0, 5.04757, 5.0030274 
9.4400054e+2, 1.6867825e+2, -1255602.6, -1318082.8, 37484.906, 0.006628311, -0.012091397, -1238046.6, 48893.875, 0.0, 5.0478296, 5.0027413 
9.4379276e+2, 1.7367324e+2, -1210721.6, -1277049.6, 41969.43, -0.006702755, -0.011498468, -1190394.6, 47594.574, 0.0, 5.0480547, 4.999957 
9.4358915e+2, 1.7866638e+2, -1161633.5, -1228564.4, 44014.742, 0.0031326057, -0.014861467, -1139806.8, 49249.367, 0.0, 5.0484066, 4.999741 
9.4338685e+2, 1.836581e+2, -1116899.1, -1187481.4, 47518.867, 0.011261938, -0.016281249, -1092999.9, 47137.086, 0.0, 5.0484858, 4.9970503 
9.4318396e+2, 1.8864842e+2, -1068526.0, -1139348.8, 49151.996, 0.0056543658, -0.016421065, -1043357.8, 47873.293, 0.0, 5.0485954, 4.996813 
9.429815e+2, 1.9363743e+2, -1023671.6, -1098166.4, 51986.81, 0.0010016288, -0.01316676, -996965.94, 45374.133, 0.0, 5.0486703, 4.994147 
9.4278e+2, 1.9862486e+2, -974996.0, -1049633.3, 53533.582, 0.0044708177, -0.011436384, -947057.25, 46407.996, 0.0, 5.048812, 4.9940305 
9.425778e+2, 2.0361052e+2, -930080.06, -1008275.9, 55669.445, 0.006971332, -0.011755344, -901150.5, 43455.965, 0.0, 5.0488563, 4.991412 
9.423743e+2, 2.0859447e+2, -881692.6, -959860.06, 57236.863, 0.0040763495, -0.014410536, -851468.4, 44295.566, 0.0, 5.0489182, 4.991267 
9.4216937e+2, 2.1357723e+2, -837034.75, -918879.56, 58668.73, 0.0017152309, -0.012127061, -806426.3, 40506.414, 0.0, 5.0488524, 4.988571 
9.419633e+2, 2.1855849e+2, -789230.4, -870700.06, 60269.99, 0.0007403756, -0.010180185, -757220.44, 40895.51, 0.0, 5.0486875, 4.9884434 
9.417548e+2, 2.2353783e+2, -744784.56, -830525.44, 60577.555, 0.0012011513, -0.008871558, -713442.4, 35877.0, 0.0, 5.048605, 4.9854703 
9.4154376e+2, 2.2851539e+2, -696898.5, -782094.7, 62578.668, 0.00017070801, -0.009226236, -663795.3, 36745.707, 0.0, 5.048444, 4.985398 
9.4132984e+2, 2.3349127e+2, -652390.25, -741834.3, 62543.047, -0.0010281671, -0.007992523, -620224.75, 31553.105, 0.0, 5.048305, 4.982473 
9.4111276e+2, 2.3846535e+2, -605211.75, -693784.94, 64543.51, -0.0021330453, -0.0088349935, -571222.1, 31809.652, 0.0, 5.0479264, 4.9823422 
9.408922e+2, 2.434378e+2, -560991.9, -653818.56, 63617.844, 0.0033440462, -0.0054928767, -528656.06, 25648.719, 0.0, 5.0476756, 4.9793415 
9.40668e+2, 2.4840854e+2, -514375.03, -605791.8, 66194.11, 0.012742006, -0.0029121658, -479641.4, 25954.318, 0.0, 5.047059, 4.979268 
9.404382e+2, 2.5337717e+2, -469856.03, -565435.06, 65315.293, 0.009179618, -0.0023339905, -436713.94, 20189.13, 0.0, 5.0468283, 4.976372 
9.4020283e+2, 2.5834385e+2, -422933.06, -517325.88, 68300.78, 0.000030951043, -0.0051343604, -387108.4, 21119.115, 0.0, 5.046378, 4.9762135 
9.3996274e+2, 2.6330858e+2, -379689.34, -479141.88, 67070.77, 0.00027822872, -0.00090241537, -345921.97, 13652.076, 0.0, 5.0459538, 4.972599 
9.397168e+2, 2.682713e+2, -334111.84, -431663.28, 70639.516, 0.004529443, 0.002554394, -297044.6, 13897.842, 0.0, 5.045084, 4.9723353 
9.394627e+2, 2.7323014e+2, -290822.78, -396374.53, 67674.73, 0.0072559533, 0.0033687714, -257778.14, 4569.906, 0.0, 5.0452743, 4.967367 
9.3919986e+2, 2.7818495e+2, -243550.11, -348695.9, 71794.7, 0.013891032, -0.005014985, -207137.67, 6654.5796, 0.0, 5.0451903, 4.966774 
9.389249e+2, 2.8313577e+2, -204928.81, -321757.97, 67649.58, -0.0009585674, -0.00481925, -173963.7, -8690.54, 0.0, 5.044513, 4.9592834 
9.3863827e+2, 2.8808224e+2, -163321.47, -278652.94, 70307.04, -0.011692102, -0.0025080482, -130056.37, -13261.002, 0.0, 5.042655, 4.957795 
9.383392e+2, 2.930201e+2, -137983.53, -272407.97, 60445.05, -0.007824524, 0.012319298, -114801.69, -46397.64, 0.0, 5.039774, 4.9438057 
9.380249e+2, 2.9794925e+2, -115882.25, -246605.84, 64758.332, -0.0045554815, 0.021326832, -89234.234, -69134.39, 0.0, 5.032373, 4.938387 
9.377337e+2, 3.02851e+2, -117828.47, -310795.4, 85287.59, 0.010710839, 0.0130030215, -85536.81, -85536.81, 0.0, 5.034082, 4.8955626 
9.374414e+2, 3.077308e+2, -49192.633, -266200.9, 44191.508, 0.0068830955, 0.0043617478, -40538.598, -40538.598, 0.0, 5.041088, 4.8918853 
9.371107e+2, 3.126298e+2, -6456.396, -156771.4, 5821.062, -0.006105253, -0.012668499, -6231.308, -6231.308, 0.0, 5.0280557, 4.930292 
9.3678707e+2, 3.175633e+2, -33705.32, -141580.78, 21019.7, -0.017513912, 0.05149928, -29754.307, -29754.307, 0.0, 5.013342, 4.9418 
9.3648684e+2, 3.2250336e+2, 18223.453, -54094.297, -1563.947, 0.060947053, -0.048711892, 18257.26, 18257.26, 0.0, 5.0186844, 4.972206 
9.3616503e+2, 3.2747048e+2, -5776.09, -50843.84, 3349.5422, -0.0100361025, 0.020900855, -5528.504, -5528.504, 0.0, 5.0074043, 4.977715 
9.5056677e+2, 1.3390563e+2, -1592477.1, -1629677.0, 2395.1257, -0.0046638963, -0.010583834, -1592323.5, 35389.29, 0.0, 5.041244, 5.01618 
9.503344e+2, 1.3891335e+2, -1544002.0, -1587594.9, 11823.949, -0.03404139, -0.018146712, -1541001.4, 37633.09, 0.0, 5.0428405, 5.013169 
9.5011914e+2, 1.4392056e+2, -1497651.5, -1543632.5, 16399.393, 0.038524624, -0.0073976386, -1492401.9, 37162.957, 0.0, 5.043257, 5.0112233 
9.498927e+2, 1.489257e+2, -1446180.9, -1493322.3, 17821.408, -0.0007554069, -0.014220198, -1440202.0, 40314.84, 0.0, 5.0442834, 5.0113087 
9.496713e+2, 1.5392938e+2, -1401043.0, -1453188.3, 24893.805, -0.031812243, -0.0141803585, -1391067.3, 40412.55, 0.0, 5.0449457, 5.0079846 
9.494609e+2, 1.5893121e+2, -1352071.6, -1405807.3, 28266.977, -0.0010244568, -0.012807418, -1339940.8, 42519.227, 0.0, 5.0455008, 5.0072956 
9.492532e+2, 1.6393113e+2, -1306844.0, -1363597.6, 32728.588, 0.023232762, -0.014070969, -1291903.3, 41557.113, 0.0, 5.0456557, 5.004938 
9.490431e+2, 1.6892985e+2, -1258037.5, -1315276.4, 35061.695, 0.0076268534, -0.015403585, -1241397.8, 43075.58, 0.0, 5.0459275, 5.0047054 
9.488356e+2, 1.7392705e+2, -1213156.0, -1274222.5, 39670.793, -0.007325965, -0.013762891, -1193628.8, 41871.71, 0.0, 5.046145, 5.0019355 
9.4863236e+2, 1.7892255e+2, -1164196.1, -1225785.9, 41754.74, 0.0022415924, -0.014642655, -1143108.6, 43435.668, 0.0, 5.0464587, 5.001716 
9.484302e+2, 1.8391652e+2, -1119241.0, -1184137.4, 45242.902, 0.010685419, -0.015214689, -1096013.3, 41590.48, 0.0, 5.046527, 4.99922 
9.4822747e+2, 1.8890926e+2, -1070728.3, -1135609.4, 46970.637, 0.0052326843, -0.014968964, -1046084.4, 42591.324, 0.0, 5.046626, 4.9991217 
9.480251e+2, 1.939007e+2, -1025626.0, -1093716.3, 50027.11, 0.00025357737, -0.012352799, -999158.5, 40603.0, 0.0, 5.0466757, 4.9967065 
9.478237e+2, 1.9889073e+2, -976948.6, -1044942.1, 51635.496, 0.0034202174, -0.011540241, -949123.0, 41738.883, 0.0, 5.0467815, 4.996677 
9.4762146e+2, 2.0387943e+2, -931682.56, -1002650.6, 53859.836, 0.00594589, -0.010459209, -902668.5, 39304.36, 0.0, 5.046796, 4.9943857 
9.4741803e+2, 2.0886675e+2, -883327.56, -954126.75, 55453.242, 0.0030780542, -0.010387429, -852938.1, 40158.418, 0.0, 5.046831, 4.994285 
9.4721293e+2, 2.1385278e+2, -838612.3, -912636.94, 56929.023, 0.0008485952, -0.0075194533, -807721.56, 36512.93, 0.0, 5.0467, 4.991788 
9.470067e+2, 2.1883737e+2, -790769.4, -864029.3, 58648.094, 0.00046268813, -0.0059452336, -758252.0, 37135.105, 0.0, 5.046482, 4.991834 
9.4679797e+2, 2.2382018e+2, -745996.06, -822505.5, 59212.516, 0.001351285, -0.0068215486, -713755.75, 32799.605, 0.0, 5.046304, 4.9893675 
9.465867e+2, 2.2880144e+2, -698422.9, -774119.6, 61348.19, 0.0003854571, -0.009738051, -664187.25, 33551.08, 0.0, 5.046022, 4.989339 
9.463724e+2, 2.3378167e+2, -654056.4, -732914.3, 61428.203, -0.00035536694, -0.006584961, -620491.75, 28441.281, 0.0, 5.045659, 4.9868426 
9.4615483e+2, 2.3876055e+2, -607455.1, -684823.1, 63536.97, -0.00007923262, -0.0033726834, -571752.3, 28389.145, 0.0, 5.045032, 4.9868355 
9.4593346e+2, 2.4373777e+2, -563352.06, -643414.06, 62831.633, 0.0040398585, 0.000106780906, -528882.75, 22485.617, 0.0, 5.0444713, 4.984473 
9.4570816e+2, 2.487136e+2, -517317.38, -595015.4, 65684.72, 0.010181803, 0.0017745482, -479853.0, 22756.99, 0.0, 5.043544, 4.984671 
9.4547755e+2, 2.536879e+2, -472974.25, -552214.1, 65110.367, 0.007025557, 0.00095293485, -436376.72, 17484.277, 0.0, 5.0427747, 4.9828796 
9.452412e+2, 2.586609e+2, -427963.47, -504042.34, 68366.98, -0.0018764354, -0.0023270394, -387765.8, 17356.72, 0.0, 5.0415187, 4.98308 
9.4500023e+2, 2.6363313e+2, -385653.3, -461754.25, 67379.805, 0.0044686957, 0.00016490628, -346322.4, 10073.257, 0.0, 5.03994, 4.981415 
9.4475335e+2, 2.6860425e+2, -343784.03, -414911.03, 72183.91, 0.017966436, 0.0021600951, -298878.4, 8802.829, 0.0, 5.0376115, 4.981542 
9.4449663e+2, 2.7357346e+2, -300081.22, -373318.03, 72356.21, 0.00383496, 0.0073844246, -255605.06, 3381.1992, 0.0, 5.0368743, 4.9791894 
9.4423157e+2, 2.7854058e+2, -253317.5, -322902.56, 79191.6, -0.009565193, 0.006791474, -201612.45, 8699.186, 0.0, 5.036263, 4.9797263 
9.4395757e+2, 2.8350595e+2, -217752.02, -284548.13, 78004.81, 0.019789929, 0.008443432, -166296.2, -4645.902, 0.0, 5.0323653, 4.9775834 
9.43667e+2, 2.8847024e+2, -192530.56, -244574.89, 91431.35, 0.024983307, 0.018928656, -123490.4, -10492.27, 0.0, 5.024627, 4.9771533 
9.433609e+2, 2.934237e+2, -156171.61, -220267.38, 96641.99, -0.009944811, 0.007562139, -86402.305, -21935.813, 0.0, 5.0244317, 4.968193 
9.430399e+2, 2.983701e+2, -120726.65, -158960.31, 104577.63, -0.0053293672, -0.008890092, -33532.92, -17541.523, 0.0, 5.017808, 4.974586 
9.5559925e+2, 1.3414069e+2, -1593616.1, -1624985.4, 3771.623, -0.031517994, -0.015421321, -1593169.1, 32240.787, 0.0, 5.039762, 5.018462 
9.553731e+2, 1.3915133e+2, -1546349.5, -1583890.5, 12180.86, -0.017303562, -0.014828719, -1542743.6, 33559.37, 0.0, 5.041045, 5.0152698 
9.551549e+2, 1.4415978e+2, -1497004.5, -1538364.0, 16580.74, 0.015571699, -0.013343002, -1491178.1, 36042.504, 0.0, 5.042452, 5.013376 
9.549316e+2, 1.4916755e+2, -1447019.8, -1489275.4, 17874.016, -0.00007527175, -0.013929633, -1440473.4, 37672.29, 0.0, 5.043069, 5.013253 
9.547123e+2, 1.5417339e+2, -1402363.4, -1449301.9, 25091.826, -0.019941319, -0.012307111, -1391475.6, 37611.813, 0.0, 5.0435386, 5.0099735 
9.5450175e+2, 1.5917692e+2, -1352290.4, -1401314.1, 28542.313, 0.00046417647, -0.014280527, -1339179.3, 40871.99, 0.0, 5.0444603, 5.0093164 
9.5429385e+2, 1.6417877e+2, -1306305.3, -1358722.8, 32734.723, 0.01850659, -0.016217364, -1290580.0, 40452.836, 0.0, 5.044865, 5.006977 
9.540844e+2, 1.6917971e+2, -1257248.1, -1310238.6, 34779.79, 0.005513221, -0.015949838, -1240021.1, 42003.02, 0.0, 5.0452137, 5.0067673 
9.538775e+2, 1.7417912e+2, -1211947.5, -1268576.9, 39273.848, -0.0072602537, -0.013756673, -1191845.8, 41184.2, 0.0, 5.0454926, 5.004179 
9.5367455e+2, 1.7917693e+2, -1162788.9, -1219938.4, 41296.195, 0.0019074924, -0.014651755, -1141145.1, 42906.44, 0.0, 5.045856, 5.0040097 
9.534726e+2, 1.8417339e+2, -1117452.3, -1177640.0, 44619.656, 0.010386788, -0.014364144, -1093726.5, 41361.055, 0.0, 5.045957, 5.0017247 
9.5326996e+2, 1.891688e+2, -1068744.4, -1128943.3, 46466.063, 0.0054402105, -0.012747746, -1043480.75, 42653.49, 0.0, 5.046104, 5.001674 
9.530676e+2, 1.941629e+2, -1023129.44, -1086148.3, 49560.44, -0.0007009484, -0.011113647, -995910.0, 41284.082, 0.0, 5.046192, 4.999559 
9.5286626e+2, 1.9915566e+2, -974298.4, -1037285.5, 51039.563, 0.0011453056, -0.011621272, -945817.94, 42449.203, 0.0, 5.046356, 4.9995427 
9.526641e+2, 2.041475e+2, -928620.4, -994191.2, 53236.66, 0.0045398143, -0.009176374, -898883.56, 40463.76, 0.0, 5.046388, 4.997533 
9.5246077e+2, 2.0913824e+2, -880233.06, -945556.4, 54663.418, 0.00301561, -0.0069533903, -849216.8, 41221.11, 0.0, 5.046413, 4.997492 
9.5225555e+2, 2.1412762e+2, -834839.25, -903015.1, 56094.168, 0.0005306712, -0.0043743583, -803287.7, 38256.016, 0.0, 5.0463724, 4.995326 
9.52049e+2, 2.1911566e+2, -786598.5, -854208.75, 57686.08, -0.00024044163, -0.0036422124, -753542.06, 39120.734, 0.0, 5.0462904, 4.995389 
9.518401e+2, 2.2410223e+2, -740969.6, -811273.44, 58248.33, 0.0012831197, -0.005085015, -708088.25, 35704.934, 0.0, 5.046212, 4.993381 
9.5162857e+2, 2.2908756e+2, -693248.25, -762752.5, 60048.277, 0.0009702967, -0.008436827, -658620.94, 36314.223, 0.0, 5.045974, 4.993394 
9.514137e+2, 2.3407221e+2, -648300.5, -720286.44, 59829.746, 0.0014172185, -0.0041766567, -614471.6, 31615.844, 0.0, 5.045622, 4.991347 
9.511955e+2, 2.3905589e+2, -601522.56, -671783.5, 61852.34, 0.00228725, 0.0009438852, -565520.3, 31729.94, 0.0, 5.0449996, 4.9914966 
9.509731e+2, 2.4403813e+2, -556154.6, -628153.25, 60970.934, 0.003396844, 0.0038182847, -521348.53, 27079.182, 0.0, 5.0445623, 4.989887 
9.5074636e+2, 2.4901938e+2, -509636.6, -579398.5, 63713.348, 0.005311422, 0.0049014566, -471880.97, 27734.266, 0.0, 5.043785, 4.990166 
9.5051473e+2, 2.539999e+2, -464115.5, -533631.94, 62716.473, 0.003830163, 0.004537049, -427169.56, 23636.227, 0.0, 5.0429463, 4.989491 
9.5027727e+2, 2.5897983e+2, -418967.75, -484463.78, 65397.95, -0.002463301, 0.0023136267, -378576.72, 23423.475, 0.0, 5.0415525, 4.990139 
9.5003474e+2, 2.6396006e+2, -374256.0, -436739.0, 63290.742, 0.009307888, 0.003014946, -334915.97, 18278.02, 0.0, 5.0399547, 4.9904737 
9.497861e+2, 2.6894006e+2, -331471.03, -388326.25, 67833.6, 0.029550148, 0.00030520986, -286349.16, 18041.967, 0.0, 5.037738, 4.991142 
9.495258e+2, 2.7392146e+2, -284232.5, -337162.53, 67728.65, -0.007412463, 0.010703455, -237981.86, 17597.52, 0.0, 5.0366516, 4.9924717 
9.4925797e+2, 2.7890348e+2, -238069.83, -285087.7, 73748.195, -0.04028946, 0.02072532, -184174.19, 22587.514, 0.0, 5.035408, 4.993964 
9.489854e+2, 2.838882e+2, -190823.66, -222238.4, 67795.664, 0.057012808, 0.024603996, -136939.55, 20970.275, 0.0, 5.0318813, 5.00069 
9.486864e+2, 2.8887814e+2, -164537.98, -183803.55, 84489.375, 0.057038568, 0.057528745, -89134.04, 19873.127, 0.0, 5.025029, 4.999318 
9.4837105e+2, 2.9385734e+2, -111206.78, -127060.26, 87631.53, -0.060068388, -0.0006354101, -31144.213, 29103.03, 0.0, 5.025158, 5.0027103 
9.480409e+2, 2.988406e+2, -39396.35, 11051.5, 38995.137, -0.04343038, -0.023139253, 32269.66, 43616.0, 0.0, 5.0176187, 5.0393157 
9.606343e+2, 1.343748e+2, -1598336.6, -1623642.5, 846.9598, -0.0099870805, -0.010621991, -1598308.3, 24807.879, 0.0, 5.0372663, 5.0201926 
9.6040946e+2, 1.3938756e+2, -1550589.0, -1581397.3, 10673.997, -0.00091932976, -0.01112369, -1547252.3, 26735.89, 0.0, 5.0385222, 5.0173917 
9.6018785e+2, 1.4439684e+2, -1500654.0, -1536498.9, 13789.241, -0.018850992, -0.023283966, -1495963.3, 28933.96, 0.0, 5.0402493, 5.0151634 
9.599694e+2, 1.4940771e+2, -1450020.9, -1487467.5, 14742.988, 0.0073873703, -0.011483159, -1444913.1, 30877.98, 0.0, 5.041145, 5.014891 
9.59752e+2, 1.544157e+2, -1404829.6, -1446871.6, 22177.188, -0.0016218404, -0.0073740724, -1395293.9, 31417.951, 0.0, 5.041682, 5.011799 
9.595405e+2, 1.5942065e+2, -1355056.4, -1399165.0, 25290.926, -0.0015928852, -0.015582276, -1343554.4, 34107.434, 0.0, 5.0425124, 5.0110984 
9.5933247e+2, 1.6442437e+2, -1309103.6, -1356941.6, 29178.637, 0.010216182, -0.018223237, -1295293.3, 33332.348, 0.0, 5.0429544, 5.0086327 
9.5912415e+2, 1.6942748e+2, -1259920.4, -1308348.4, 31359.184, 0.004193939, -0.01468323, -1244514.8, 35080.94, 0.0, 5.043343, 5.0084395 
9.58918e+2, 1.7442897e+2, -1214219.6, -1265713.6, 35914.473, -0.0056767445, -0.0122066215, -1195776.6, 34805.195, 0.0, 5.043602, 5.0061913 
9.587152e+2, 1.794289e+2, -1165207.1, -1217006.4, 37747.504, 0.001592194, -0.014038833, -1145328.4, 36254.797, 0.0, 5.043886, 5.00608 
9.585134e+2, 1.8442784e+2, -1119687.0, -1174216.9, 40972.113, 0.009924284, -0.012393261, -1097737.1, 34858.688, 0.0, 5.0439625, 5.003971 
9.583111e+2, 1.8942593e+2, -1070858.8, -1125231.6, 42817.793, 0.0063673067, -0.008889332, -1047325.7, 36291.363, 0.0, 5.044092, 5.0040283 
9.581087e+2, 1.9442268e+2, -1024826.8, -1081530.5, 45862.02, -0.0016058178, -0.007857136, -999260.6, 35389.56, 0.0, 5.044167, 5.002231 
9.5790714e+2, 1.9941828e+2, -976049.94, -1032590.5, 47322.684, -0.0022507554, -0.00943439, -949196.3, 36498.324, 0.0, 5.0442986, 5.0022626 
9.577052e+2, 2.044132e+2, -930150.8, -988873.3, 49460.71, 0.002953006, -0.0061688265, -901993.0, 34752.324, 0.0, 5.044295, 5.0004926 
9.5750207e+2, 2.0940724e+2, -881851.9, -940177.5, 50915.484, 0.003873571, -0.0026611818, -852338.8, 35466.055, 0.0, 5.04427, 5.0004983 
9.572966e+2, 2.1439984e+2, -836047.8, -896363.25, 52379.234, 0.00064378435, -0.0019660064, -805764.9, 33113.465, 0.0, 5.0441575, 4.998805 
9.5708984e+2, 2.1939135e+2, -788104.94, -847730.7, 54038.367, -0.0012326576, -0.0034731706, -756201.1, 33761.313, 0.0, 5.0439854, 4.998841 
9.5688075e+2, 2.2438191e+2, -742311.06, -803814.75, 54619.88, 0.0012630085, -0.003295393, -710381.1, 30672.145, 0.0, 5.0437875, 4.9972253 
9.56669e+2, 2.2937158e+2, -694934.56, -755437.7, 56275.03, 0.0021034705, -0.0037044939, -661295.3, 30857.7, 0.0, 5.0434327, 4.997239 
9.564537e+2, 2.3436031e+2, -650076.7, -711966.0, 55705.785, 0.004879518, -0.0009823138, -617297.7, 25968.873, 0.0, 5.0428443, 4.9956546 
9.562348e+2, 2.3934823e+2, -603932.6, -663513.3, 57718.41, 0.007073871, 0.001424542, -568770.06, 25618.658, 0.0, 5.0419474, 4.995917 
9.5601094e+2, 2.4433514e+2, -558071.75, -617744.9, 56643.445, 0.002155827, -0.0000089819705, -523887.22, 21629.404, 0.0, 5.041296, 4.9951773 
9.557825e+2, 2.4932158e+2, -512311.44, -569245.94, 58973.063, -0.0033177778, -0.0024083725, -475294.28, 21354.506, 0.0, 5.0402174, 4.9955072 
9.555501e+2, 2.5430834e+2, -467654.78, -522307.44, 56962.566, 0.002471051, 0.0014490569, -431803.1, 15978.078, 0.0, 5.0387115, 4.9955745 
9.553117e+2, 2.5929537e+2, -424802.2, -474349.47, 58918.0, 0.0071738902, 0.007080555, -385661.3, 13249.892, 0.0, 5.0364833, 4.9961767 
9.55066e+2, 2.6428303e+2, -380312.97, -424036.25, 54884.477, 0.012313256, 0.013104018, -343096.38, 6936.167, 0.0, 5.0341673, 4.9978127 
9.5481336e+2, 2.6927102e+2, -339575.84, -376229.25, 57694.08, 0.019209445, 0.012788786, -297367.66, 3783.3877, 0.0, 5.031072, 4.998679 
9.545512e+2, 2.7426034e+2, -295196.1, -321259.28, 54071.563, -0.005103675, 0.008075515, -252607.94, -339.07672, 0.0, 5.0276947, 5.0025024 
9.542814e+2, 2.792532e+2, -257129.2, -270300.56, 55721.6, -0.022683084, 0.01417417, -207605.45, -4253.9834, 0.0, 5.0228243, 5.0052605 
9.540014e+2, 2.8425533e+2, -198423.14, -192408.42, 42889.26, 0.042552277, 0.037614692, -152421.22, 1884.4384, 0.0, 5.0209417, 5.0171137 
9.536953e+2, 2.8926325e+2, -163580.83, -162390.89, 50196.805, 0.009720785, 0.079836726, -112785.53, -7576.584, 0.0, 5.0188227, 5.0108385 
9.533839e+2, 2.9426095e+2, -112948.88, -110358.07, 34692.43, -0.01563948, 0.0074878763, -76936.875, -20585.525, 0.0, 5.0167136, 5.014075 
9.5305264e+2, 2.992647e+2, 39609.637, 87295.36, -57095.695, 0.03618822, -0.0018235346, 125326.56, 132512.27, 0.0, 5.031922, 5.066132 
9.6566856e+2, 1.3460754e+2, -1600152.5, -1621044.8, 813.81696, 0.019540852, -0.009669251, -1600120.8, 20715.43, 0.0, 5.035955, 5.021684 
9.6544015e+2, 1.3962106e+2, -1551234.9, -1578588.1, 12143.636, -0.02663106, -0.014876233, -1546621.8, 25075.65, 0.0, 5.0376973, 5.018712 
9.652269e+2, 1.446322e+2, -1504689.8, -1534388.0, 14098.371, 0.027157482, -0.024244675, -1499063.0, 23526.004, 0.0, 5.038034, 5.0169377 
9.6500415e+2, 1.4964497e+2, -1450978.3, -1483353.8, 15746.029, -0.003512505, -0.0132596325, -1444583.3, 28882.59, 0.0, 5.0398655, 5.016893 
9.6478635e+2, 1.546547e+2, -1404147.6, -1442752.9, 22787.467, -0.02822726, -0.009322743, -1393586.3, 30783.197, 0.0, 5.04113, 5.0134587 
9.64579e+2, 1.5966147e+2, -1355371.3, -1395547.0, 25027.795, 0.005427284, -0.015671277, -1343366.9, 31934.783, 0.0, 5.041616, 5.0127587 
9.643721e+2, 1.6466711e+2, -1308937.8, -1352040.0, 28709.355, 0.022773705, -0.018540598, -1294590.8, 31655.566, 0.0, 5.0419827, 5.010774 
9.641626e+2, 1.6967238e+2, -1258747.6, -1302914.8, 31123.45, -0.00077552313, -0.015499389, -1242669.0, 34526.2, 0.0, 5.04271, 5.0106077 
9.639567e+2, 1.7467614e+2, -1212784.6, -1259959.6, 35409.242, -0.011991212, -0.012188984, -1193825.9, 34333.9, 0.0, 5.0430107, 5.0084558 
9.63755e+2, 1.7967845e+2, -1164213.6, -1211478.0, 37131.227, 0.0040549594, -0.013038091, -1143832.0, 35306.477, 0.0, 5.0431423, 5.0083475 
9.635534e+2, 1.8467973e+2, -1118196.1, -1167788.9, 40453.586, 0.012629017, -0.01233025, -1095544.0, 34584.414, 0.0, 5.043253, 5.006538 
9.633509e+2, 1.8968035e+2, -1068921.5, -1118480.1, 42246.82, 0.004780962, -0.009711531, -1044723.1, 36401.656, 0.0, 5.0435233, 5.006643 
9.631485e+2, 1.9468005e+2, -1022293.4, -1073813.6, 45192.81, -0.0049512857, -0.0071257073, -996034.5, 36094.426, 0.0, 5.0436735, 5.005147 
9.6294713e+2, 1.9967876e+2, -973412.56, -1024842.0, 46677.344, -0.00484962, -0.006987841, -945835.44, 37307.117, 0.0, 5.0438414, 5.0051837 
9.6274537e+2, 2.046768e+2, -927063.4, -980322.0, 48649.01, 0.0024244837, -0.0035268445, -898232.4, 35931.477, 0.0, 5.0438643, 5.0036926 
9.6254236e+2, 2.0967409e+2, -878523.7, -931398.0, 49977.918, 0.0047021206, 0.00006377408, -848421.4, 36771.2, 0.0, 5.0438943, 5.003766 
9.623366e+2, 2.1467003e+2, -831926.8, -886266.94, 51368.953, 0.00025825694, -0.0013543675, -800985.06, 35247.05, 0.0, 5.043868, 5.0025043 
9.621296e+2, 2.196651e+2, -783838.56, -837552.25, 52903.793, -0.0023758428, -0.004836246, -751364.94, 35914.723, 0.0, 5.043748, 5.002561 
9.619202e+2, 2.2465973e+2, -737373.44, -792514.75, 53305.05, 0.001307568, -0.0030902294, -704931.0, 33400.035, 0.0, 5.043622, 5.001319 
9.617082e+2, 2.2965379e+2, -689957.06, -744351.25, 54853.3, 0.0030311937, -0.0006357687, -655928.6, 33459.805, 0.0, 5.043336, 5.0012403 
9.614922e+2, 2.3464671e+2, -643761.0, -699117.94, 54025.58, 0.0065003694, 0.00081592146, -610736.4, 29725.025, 0.0, 5.0429883, 5.000186 
9.612724e+2, 2.3963898e+2, -597007.94, -650306.8, 55951.492, 0.009108533, 0.0004435782, -561683.5, 29857.61, 0.0, 5.042293, 5.000508 
9.6104723e+2, 2.446307e+2, -550085.5, -602458.56, 54556.57, 0.0007461301, -0.0029184844, -515756.28, 26862.799, 0.0, 5.041696, 5.000507 
9.6081716e+2, 2.4962236e+2, -504656.8, -554273.75, 56462.625, -0.009162888, -0.006948476, -467792.84, 25904.38, 0.0, 5.0405364, 5.0007854 
9.605834e+2, 2.5461507e+2, -459242.88, -505543.47, 53466.313, 0.0033030102, -0.00061231654, -424130.13, 20644.428, 0.0, 5.0389934, 5.0015407 
9.603434e+2, 2.5960863e+2, -416343.25, -457703.56, 55456.4, 0.015459842, 0.009003363, -377836.6, 18008.385, 0.0, 5.036811, 5.0021048 
9.600939e+2, 2.646034e+2, -368755.2, -404084.88, 50866.258, 0.009704634, 0.022109907, -332573.75, 14322.135, 0.0, 5.0352182, 5.0046697 
9.598366e+2, 2.6959875e+2, -326332.9, -355208.34, 53896.547, 0.000110222725, 0.025657877, -284973.8, 12968.478, 0.0, 5.032667, 5.0057178 
9.5957273e+2, 2.7459434e+2, -281633.6, -296844.53, 48385.18, 0.0023477748, 0.0035441169, -240259.8, 8748.567, 0.0, 5.028681, 5.011111 
9.5929927e+2, 2.7959594e+2, -243620.64, -243441.16, 49902.48, 0.0018076467, 0.006452517, -193628.34, 6382.163, 0.0, 5.023304, 5.0150394 
9.590077e+2, 2.84612e+2, -180758.88, -160728.58, 37274.56, -0.018580781, 0.05170356, -132147.14, 18648.47, 0.0, 5.022226, 5.02853 
9.586988e+2, 2.8962845e+2, -153623.73, -148900.58, 43708.28, -0.06324484, 0.08895321, -107490.125, -5892.0884, 0.0, 5.0200553, 5.015439 
9.584005e+2, 2.9463276e+2, -115022.305, -114858.04, 35865.24, 0.10338914, -0.044216663, -79074.84, -26277.773, 0.0, 5.0168557, 5.011588 
9.5806605e+2, 2.9964885e+2, 37817.734, 86872.664, 9716.981, -0.01671386, 0.14538407, 88727.32, 92175.44, 0.0, 5.033274, 5.0630746 
9.706942e+2, 1.3483877e+2, -1602378.3, -1619626.8, -348.05832, -0.019184662, -0.010011305, -1602371.3, 16199.285, 0.0, 5.03462, 5.022835 
9.7046703e+2, 1.3985258e+2, -1555834.0, -1580347.6, 8559.137, -0.07473533, -0.020012537, -1553141.3, 16285.19, 0.0, 5.0358987, 5.019067 
9.70268e+2, 1.4486568e+2, -1507394.6, -1532859.5, 10881.132, 0.11597135, -0.020457631, -1503378.5, 16921.262, 0.0, 5.0363, 5.018405 
9.7003627e+2, 1.4987972e+2, -1452186.6, -1480399.4, 12977.291, -0.024386836, -0.01707044, -1447125.3, 24039.906, 0.0, 5.0384746, 5.0186763 
9.6981716e+2, 1.5489103e+2, -1406330.5, -1441993.4, 18953.947, -0.07891147, -0.01379552, -1398138.6, 23914.77, 0.0, 5.03973, 5.014518 
9.696167e+2, 1.5989947e+2, -1358176.0, -1395382.6, 20758.873, 0.020143846, -0.015156644, -1348904.4, 24064.57, 0.0, 5.0400467, 5.0137076 
9.6941143e+2, 1.649068e+2, -1310731.9, -1349372.1, 24477.031, 0.048524365, -0.018015942, -1298868.8, 25028.24, 0.0, 5.040299, 5.0126514 
9.691992e+2, 1.69914e+2, -1260953.3, -1300611.9, 26825.135, -0.010203765, -0.017206773, -1247424.0, 27402.715, 0.0, 5.040913, 5.012414 
9.6899337e+2, 1.7491996e+2, -1214830.3, -1257540.5, 30605.814, -0.025054427, -0.012370721, -1198865.8, 26904.693, 0.0, 5.0412426, 5.0102925 
9.6879363e+2, 1.7992462e+2, -1166130.5, -1208889.6, 32214.14, 0.009448265, -0.011105585, -1148846.9, 27880.271, 0.0, 5.0413923, 5.010235 
9.685923e+2, 1.8492807e+2, -1119543.1, -1164014.4, 35543.234, 0.018783864, -0.012265226, -1099853.3, 27842.227, 0.0, 5.0415025, 5.008836 
9.68389e+2, 1.8993108e+2, -1070415.0, -1114827.5, 37206.3, 0.00069574395, -0.01171163, -1049292.0, 29376.113, 0.0, 5.0417366, 5.0089135 
9.681866e+2, 1.9493362e+2, -1023637.94, -1069619.8, 39979.207, -0.010682537, -0.007029329, -1000510.3, 29133.744, 0.0, 5.0418353, 5.0076294 
9.6798587e+2, 1.9993544e+2, -974856.25, -1020642.2, 41222.727, -0.006229196, -0.004083921, -950596.25, 30031.287, 0.0, 5.0419383, 5.007704 
9.677842e+2, 2.0493643e+2, -928174.8, -975382.2, 43022.348, 0.0031898955, -0.0004661441, -902706.56, 28914.625, 0.0, 5.0419307, 5.0064955 
9.675811e+2, 2.0993684e+2, -879606.06, -926167.2, 44291.54, 0.004530579, 0.002551973, -852849.4, 29770.646, 0.0, 5.041907, 5.006697 
9.673751e+2, 2.1493606e+2, -832613.4, -879953.3, 45514.063, -0.0013776341, -0.00077016815, -804982.3, 28642.99, 0.0, 5.0418134, 5.0058575 
9.6716785e+2, 2.1993469e+2, -784843.75, -831602.25, 46980.457, -0.0038296706, -0.005455948, -755746.8, 28889.281, 0.0, 5.041628, 5.0058193 
9.669584e+2, 2.2493319e+2, -738149.94, -785688.06, 47094.402, 0.0011424316, -0.002897114, -709166.25, 26484.303, 0.0, 5.041419, 5.004928 
9.66746e+2, 2.2993132e+2, -690871.25, -737419.2, 48589.688, 0.003137125, 0.00032672653, -660269.1, 26400.055, 0.0, 5.0410542, 5.004925 
9.665291e+2, 2.3492828e+2, -644090.4, -690810.94, 47389.688, 0.0040463638, -0.000752049, -614616.1, 23084.729, 0.0, 5.040674, 5.004384 
9.663084e+2, 2.3992497e+2, -597480.7, -642329.1, 49130.34, 0.0050619687, -0.0027236247, -565899.0, 22836.326, 0.0, 5.039975, 5.0046 
9.6608293e+2, 2.4492194e+2, -550552.2, -593935.56, 46795.645, 0.0040230076, 0.00019513749, -520665.2, 19098.877, 0.0, 5.039222, 5.004893 
9.658524e+2, 2.4991904e+2, -505499.97, -546226.7, 47978.137, 0.0013872263, 0.0026270226, -473742.63, 17049.076, 0.0, 5.037953, 5.00507 
9.6561575e+2, 2.5491604e+2, -459545.78, -496183.1, 43588.0, 0.006472784, 0.0014884571, -430583.5, 11243.473, 0.0, 5.0363164, 5.0063815 
9.6537274e+2, 2.5991404e+2, -416464.9, -448350.0, 44695.25, 0.0105983345, 0.001917693, -384954.0, 7898.084, 0.0, 5.034146, 5.0069857 
9.651215e+2, 2.649146e+2, -365770.3, -392350.22, 38769.426, 0.004507246, 0.01385486, -338076.25, 5765.851, 0.0, 5.033346, 5.0101743 
9.6486217e+2, 2.6991633e+2, -322110.1, -345502.84, 38902.473, -0.0037175443, 0.021026513, -293183.72, 1640.6996, 0.0, 5.0316024, 5.010214 
9.6459365e+2, 2.7491778e+2, -276959.8, -289608.03, 28011.32, -0.0017388841, 0.008395672, -254567.58, -8727.729, 0.0, 5.028018, 5.014676 
9.643151e+2, 2.7992544e+2, -235073.53, -234449.47, 25363.928, -0.0001483784, 0.021694437, -209395.66, -12609.7295, 0.0, 5.02371, 5.0189757 
9.640238e+2, 2.8494552e+2, -160633.9, -150950.75, 9205.164, -0.017131876, 0.05111914, -145391.56, 2130.7385, 0.0, 5.0274353, 5.030951 
9.6371776e+2, 2.899646e+2, -121919.01, -145031.69, 3680.1677, -0.04489752, 0.08050235, -121347.17, -23044.46, 0.0, 5.0311847, 5.0132756 
9.63415e+2, 2.9496944e+2, -57450.566, -113719.56, -16713.535, 0.073040985, -0.045981307, -52860.574, -3331.0583, 0.0, 5.0406, 5.0028663 
9.6307844e+2, 2.9998565e+2, 50149.906, 125620.03, -6736.907, -0.11833179, 0.10736009, 126216.69, 126333.81, 0.0, 5.030394, 5.079397 
9.757254e+2, 1.350664e+2, -1601861.5, -1616245.6, 3657.9678, -0.0026969835, -0.007087778, -1600984.8, 15355.087, 0.0, 5.034214, 5.024123 
9.7549754e+2, 1.4008112e+2, -1559900.5, -1580091.8, 6018.173, -0.07204069, -0.018140435, -1558242.8, 8944.588, 0.0, 5.0340457, 5.020052 
9.752984e+2, 1.4509568e+2, -1508768.0, -1529443.0, 11728.072, 0.11061589, -0.017641883, -1503471.9, 14574.103, 0.0, 5.0349927, 5.020181 
9.7506976e+2, 1.5011126e+2, -1452040.8, -1477027.5, 13572.376, -0.026014723, -0.01646008, -1446087.0, 22808.576, 0.0, 5.037847, 5.0201154 
9.748527e+2, 1.5512395e+2, -1406830.5, -1439415.0, 17959.695, -0.07458548, -0.013209717, -1398874.3, 20896.432, 0.0, 5.0389533, 5.0157714 
9.7465205e+2, 1.6013372e+2, -1357910.6, -1391994.9, 19857.387, 0.018404111, -0.014865353, -1348785.0, 21889.193, 0.0, 5.039447, 5.0151505 
9.744469e+2, 1.651429e+2, -1309367.5, -1343939.5, 23769.252, 0.044695035, -0.017520472, -1297263.3, 24320.754, 0.0, 5.0397515, 5.0147753 
9.742354e+2, 1.7015229e+2, -1260983.5, -1296126.5, 26108.09, -0.010849572, -0.016021755, -1247084.5, 25407.848, 0.0, 5.039939, 5.014422 
9.7403e+2, 1.7516032e+2, -1214555.1, -1252475.9, 29841.207, -0.02588162, -0.011929801, -1198160.3, 25255.373, 0.0, 5.0402784, 5.0124965 
9.738306e+2, 1.8016715e+2, -1164814.1, -1203538.8, 31448.705, 0.007301998, -0.011226798, -1147245.1, 27105.824, 0.0, 5.0408344, 5.0123506 
9.7362953e+2, 1.8517311e+2, -1117379.0, -1157450.1, 34585.12, 0.017024878, -0.0109633375, -1097445.1, 27849.719, 0.0, 5.0410643, 5.0113206 
9.7342646e+2, 1.901788e+2, -1068644.6, -1108518.4, 36266.48, -0.00069119537, -0.008588235, -1047196.3, 29044.965, 0.0, 5.041192, 5.011363 
9.732243e+2, 1.9518389e+2, -1021655.9, -1062533.1, 38900.88, -0.011415628, -0.004991095, -998151.2, 29041.666, 0.0, 5.0412183, 5.010393 
9.730238e+2, 2.0018838e+2, -972882.56, -1013573.3, 40051.457, -0.0050824163, -0.0031419932, -948305.2, 29844.93, 0.0, 5.0413184, 5.010473 
9.728221e+2, 2.051923e+2, -925307.8, -966977.75, 41902.684, 0.0038359242, -0.0007370744, -899346.06, 29768.383, 0.0, 5.0414414, 5.009678 
9.726188e+2, 2.1019588e+2, -876331.94, -917506.44, 43298.44, 0.003790153, 0.0012967539, -848975.56, 31105.887, 0.0, 5.041559, 5.009912 
9.7241277e+2, 2.1519862e+2, -828606.3, -870263.1, 44216.027, -0.0019895372, -0.00088838785, -800558.56, 30493.39, 0.0, 5.0415783, 5.009397 
9.7220546e+2, 2.2020102e+2, -780552.6, -821786.25, 45549.145, -0.0030792998, -0.0040044654, -751171.7, 30854.23, 0.0, 5.041491, 5.0093737 
9.719956e+2, 2.2520328e+2, -733289.44, -774873.06, 45425.867, 0.0020695797, -0.0014524711, -704123.2, 28881.303, 0.0, 5.04132, 5.00884 
9.7178274e+2, 2.302053e+2, -685898.3, -726413.0, 46878.375, 0.0038862205, 0.0005543443, -655087.6, 28898.018, 0.0, 5.0409646, 5.0089164 
9.71565e+2, 2.3520628e+2, -638195.06, -678289.0, 45407.34, 0.002710556, -0.0032624207, -608606.25, 26369.205, 0.0, 5.0406895, 5.0088806 
9.713435e+2, 2.4020743e+2, -591665.7, -630393.06, 47357.3, 0.0026776644, -0.005748779, -559866.25, 26098.053, 0.0, 5.0400853, 5.008862 
9.7111744e+2, 2.4520938e+2, -544058.2, -581244.0, 44669.69, 0.006940335, 0.0027086455, -514266.38, 22680.736, 0.0, 5.039469, 5.00939 
9.708859e+2, 2.5021148e+2, -498681.4, -533553.6, 45623.56, 0.008119773, 0.009700312, -467275.66, 20652.95, 0.0, 5.0383625, 5.0095024 
9.7064656e+2, 2.5521252e+2, -451128.6, -482214.84, 40752.43, 0.006421928, 0.0029300652, -423055.78, 15867.311, 0.0, 5.0371842, 5.0111017 
9.704006e+2, 2.6021466e+2, -407212.22, -433979.03, 42430.59, 0.0025544162, -0.003000102, -376104.38, 13800.585, 0.0, 5.0353084, 5.0117545 
9.701479e+2, 2.6521978e+2, -358026.56, -378871.22, 36371.758, -0.0013768761, 0.005711964, -330613.34, 10234.155, 0.0, 5.033969, 5.0149045 
9.698866e+2, 2.7022603e+2, -316762.44, -335273.2, 35327.51, -0.008174868, 0.011941718, -289498.03, 2286.024, 0.0, 5.0318136, 5.013936 
9.69613e+2, 2.7523172e+2, -270856.22, -282613.53, 24182.4, -0.012608443, 0.015081324, -251848.2, -9086.762, 0.0, 5.0292406, 5.016793 
9.693307e+2, 2.8024206e+2, -226987.4, -227326.81, 24069.592, -0.008307542, 0.037909728, -203086.92, -9405.101, 0.0, 5.02579, 5.020804 
9.6904474e+2, 2.8525937e+2, -162940.78, -155742.98, 12035.218, 0.0055138525, 0.03585052, -146780.1, -2332.4885, 0.0, 5.0273423, 5.0292397 
9.6874243e+2, 2.902754e+2, -134781.6, -163746.3, 3964.3865, -0.016414609, 0.06726074, -134248.8, -38980.74, 0.0, 5.029233, 5.0071325 
9.684285e+2, 2.9527134e+2, -80795.46, -143889.13, -10683.487, -0.0813048, -0.021113386, -79035.55, -32475.328, 0.0, 5.036679, 4.9931803 
9.681066e+2, 3.00276e+2, 35011.793, 85028.65, -9412.952, -0.068547614, 0.11544169, 86741.47, 86741.47, 0.0, 5.031867, 5.06306 
9.8075444e+2, 1.352889e+2, -1603590.8, -1613920.0, 5451.971, -0.0005072787, -0.012871106, -1601245.5, 12913.764, 0.0, 5.032897, 5.025554 
9.805314e+2, 1.4030662e+2, -1558980.6, -1576412.0, 1456.9628, -0.01786318, -0.011946678, -1558859.6, 6119.0767, 0.0, 5.033516, 5.0216064 
9.803206e+2, 1.453223e+2, -1507696.4, -1525962.5, 9098.635, 0.033499558, -0.017858207, -1503937.6, 11887.985, 0.0, 5.034539, 5.0216703 
9.8010284e+2, 1.5033954e+2, -1454055.9, -1476801.6, 9974.716, -0.021499963, -0.013981325, -1450301.4, 16356.686, 0.0, 5.0366697, 5.0208797 
9.79891e+2, 1.5535346e+2, -1409008.8, -1438826.3, 13263.57, -0.028957296, -0.009587989, -1403962.8, 13558.873, 0.0, 5.0375576, 5.016799 
9.796853e+2, 1.6036427e+2, -1359538.1, -1390492.5, 15253.003, 0.008414927, -0.014446446, -1353285.3, 15130.28, 0.0, 5.038106, 5.0164666 
9.7947913e+2, 1.6537532e+2, -1310242.4, -1341400.4, 18663.697, 0.01928984, -0.016581768, -1301510.1, 17797.305, 0.0, 5.038504, 5.0164127 
9.7927105e+2, 1.7038675e+2, -1262214.5, -1294369.6, 20696.625, -0.003923337, -0.012631533, -1252084.4, 18111.39, 0.0, 5.038681, 5.015802 
9.7906655e+2, 1.753965e+2, -1215412.6, -1249696.4, 24279.18, -0.014356987, -0.009844592, -1202833.8, 18268.115, 0.0, 5.038942, 5.014272 
9.788658e+2, 1.8040521e+2, -1165930.6, -1201198.0, 25545.318, 0.00017129764, -0.010771659, -1152523.9, 19494.488, 0.0, 5.0394464, 5.0140114 
9.786649e+2, 1.8541361e+2, -1118153.5, -1154539.4, 28157.434, 0.008674839, -0.006917375, -1102823.0, 20115.729, 0.0, 5.039674, 5.0131984 
9.7846293e+2, 1.9042186e+2, -1069500.4, -1105674.9, 29580.344, 0.0010974504, -0.0012534708, -1052915.6, 20944.91, 0.0, 5.0397735, 5.0132337 
9.782611e+2, 1.9542915e+2, -1021996.94, -1058674.0, 31885.693, -0.0064346734, 0.00024123059, -1003552.3, 21238.693, 0.0, 5.039801, 5.012629 
9.7806036e+2, 2.0043606e+2, -973216.2, -1009583.94, 32830.914, -0.0026264726, -0.00046413246, -953869.8, 21855.25, 0.0, 5.0398746, 5.012767 
9.7785866e+2, 2.0544262e+2, -925209.8, -961758.2, 34481.83, 0.003741293, -0.00097610115, -904459.1, 22201.838, 0.0, 5.039927, 5.0124397 
9.7765535e+2, 2.104492e+2, -876576.1, -912771.44, 35527.105, 0.003548545, -0.00038166065, -854802.75, 22793.777, 0.0, 5.0399756, 5.012545 
9.774494e+2, 2.1545549e+2, -828596.5, -864880.8, 36079.348, 0.00012895835, 0.0009872633, -806354.8, 22179.352, 0.0, 5.0399504, 5.0122967 
9.772421e+2, 2.2046159e+2, -780701.94, -816439.8, 37269.88, 0.0006642095, 0.0014542331, -757238.75, 22234.959, 0.0, 5.0397887, 5.0123 
9.770319e+2, 2.2546728e+2, -733018.9, -768519.7, 36767.402, 0.0055482425, 0.0021969937, -709941.4, 20478.355, 0.0, 5.0395627, 5.01217 
9.7681856e+2, 2.3047294e+2, -685473.1, -719655.44, 38156.914, 0.0072234743, 0.0016221877, -660754.5, 20610.734, 0.0, 5.0391865, 5.0124083 
9.7660035e+2, 2.3547797e+2, -637131.25, -670489.25, 36233.813, 0.006389147, -0.0041005514, -613921.94, 18390.5, 0.0, 5.038953, 5.012751 
9.763782e+2, 2.4048342e+2, -590624.06, -622971.8, 38067.402, 0.0055171996, -0.007238438, -565437.06, 17820.236, 0.0, 5.0384088, 5.0125794 
9.7615075e+2, 2.4548963e+2, -542217.4, -573313.8, 34720.85, 0.004913717, 0.0014051021, -519722.4, 14480.051, 0.0, 5.03801, 5.013221 
9.7591794e+2, 2.5049618e+2, -495870.94, -525315.3, 35273.8, 0.0033046256, 0.008489968, -472370.3, 12772.969, 0.0, 5.0372577, 5.0133104 
9.756778e+2, 2.5550178e+2, -446304.9, -473290.16, 29565.006, 0.006691712, 0.0029720364, -427299.22, 8788.911, 0.0, 5.0367875, 5.0149035 
9.7543067e+2, 2.6050845e+2, -400637.56, -425287.38, 30532.533, 0.006221544, -0.001459753, -380036.2, 6986.192, 0.0, 5.035706, 5.0151606 
9.7517514e+2, 2.655168e+2, -350954.0, -371778.34, 23069.398, -0.0074092867, 0.0022588188, -336055.9, 1885.1166, 0.0, 5.0348115, 5.017597 
9.7491145e+2, 2.7052686e+2, -306678.63, -326225.34, 20491.484, -0.018166073, 0.010490586, -293749.16, -4905.0894, 0.0, 5.0335445, 5.0170207 
9.74638e+2, 2.755385e+2, -252314.64, -272080.47, 10019.394, -0.0058733555, 0.03571832, -248124.17, -8381.197, 0.0, 5.0344644, 5.0190215 
9.7435534e+2, 2.8055045e+2, -200723.13, -219463.5, 10335.99, 0.004327719, 0.047119558, -196142.22, -5505.3774, 0.0, 5.034963, 5.020417 
9.7406536e+2, 2.855579e+2, -143880.78, -164053.34, -2488.6433, -0.011988884, -0.013292005, -143578.3, -2032.4847, 0.0, 5.03661, 5.0227976 
9.7376454e+2, 2.9057077e+2, -106412.3, -143819.63, -9953.547, -0.03943351, 0.0073158043, -103928.695, -11514.123, 0.0, 5.037257, 5.0118084 
9.734552e+2, 2.95592e+2, -51769.15, -112527.79, -3289.4377, -0.054902747, 0.1852161, -51591.58, -8281.381, 0.0, 5.0430226, 5.002985 
9.731555e+2, 3.0056995e+2, 41719.58, 29379.568, -3618.809, 0.12145798, -0.021044489, 42702.527, 42702.527, 0.0, 5.0453873, 5.037 
9.857794e+2, 1.3550578e+2, -1610715.8, -1613692.1, 5007.468, -0.019499239, -0.021562988, -1606980.0, 5052.577, 0.0, 5.029681, 5.0272202 
9.8556334e+2, 1.4052707e+2, -1557895.9, -1570773.4, 1324.8857, 0.016837582, -0.008885896, -1557761.0, 5060.1636, 0.0, 5.0328116, 5.023846 
9.853446e+2, 1.4554343e+2, -1505725.3, -1523068.6, 8228.533, -0.03015061, -0.024001164, -1502442.5, 11218.814, 0.0, 5.034799, 5.022528 
9.851358e+2, 1.5056223e+2, -1456644.0, -1475828.3, 8339.851, -0.007252361, -0.0126718795, -1453525.4, 10952.141, 0.0, 5.0352926, 5.0218883 
9.8492664e+2, 1.5557788e+2, -1410326.6, -1434506.8, 11918.13, 0.003530503, -0.009022229, -1405439.9, 9882.606, 0.0, 5.036043, 5.019002 
9.847176e+2, 1.6059051e+2, -1359754.9, -1386336.9, 14618.493, -0.0021561913, -0.018148907, -1353288.6, 12908.892, 0.0, 5.037114, 5.0183654 
9.845114e+2, 1.6560335e+2, -1310533.6, -1338102.6, 17700.582, 0.0027021223, -0.019322613, -1301883.3, 15189.171, 0.0, 5.0376544, 5.0179543 
9.8430586e+2, 1.7061654e+2, -1262252.1, -1291156.5, 19607.725, 0.0015672237, -0.012628472, -1252346.0, 15598.029, 0.0, 5.0379725, 5.017243 
9.8410195e+2, 1.7562792e+2, -1214440.6, -1245031.0, 23168.975, -0.0070009674, -0.0114099225, -1201973.5, 16860.063, 0.0, 5.0383677, 5.016161 
9.8390055e+2, 1.8063836e+2, -1165361.3, -1196682.6, 24508.664, -0.0030627572, -0.01464718, -1151937.0, 17795.674, 0.0, 5.0387316, 5.015916 
9.8369986e+2, 1.8564874e+2, -1117274.5, -1149236.9, 27096.707, 0.004174609, -0.01189263, -1101797.4, 18836.031, 0.0, 5.038941, 5.0153823 
9.8349845e+2, 1.9065922e+2, -1068264.9, -1100336.4, 28559.11, 0.00086648384, -0.0059995865, -1051547.5, 19985.654, 0.0, 5.039189, 5.015368 
9.8329693e+2, 1.95669e+2, -1019910.44, -1052187.9, 30807.121, -0.005356245, -0.0036584805, -1001270.8, 21169.113, 0.0, 5.0393496, 5.015109 
9.830961e+2, 2.0067847e+2, -970979.06, -1002879.3, 31885.732, -0.0030885863, -0.0040244246, -951276.6, 22072.197, 0.0, 5.0394583, 5.01531 
9.8289406e+2, 2.0568772e+2, -922485.75, -954009.8, 33268.563, 0.00007954994, -0.005575435, -901434.2, 22823.82, 0.0, 5.0394983, 5.0153713 
9.826907e+2, 2.1069728e+2, -873944.1, -905209.7, 34185.51, -0.0011752101, -0.0049292985, -851986.56, 23177.637, 0.0, 5.039545, 5.0154233 
9.824848e+2, 2.1570703e+2, -825505.0, -856220.9, 34721.39, -0.0025595883, -0.000107230255, -802896.6, 23172.566, 0.0, 5.0394983, 5.0155864 
9.822774e+2, 2.2071671e+2, -777525.06, -807591.06, 36082.574, -0.0005886013, 0.0023676138, -753469.2, 23505.658, 0.0, 5.0393496, 5.015659 
9.8206675e+2, 2.2572568e+2, -728835.4, -758111.2, 35572.8, 0.003669885, -0.0011290374, -705006.5, 22881.178, 0.0, 5.0392537, 5.0160394 
9.81853e+2, 2.3073505e+2, -680986.06, -709051.9, 37164.54, 0.005381234, -0.0037579983, -655293.3, 23502.55, 0.0, 5.038985, 5.0163145 
9.816345e+2, 2.3574461e+2, -631879.56, -658921.56, 34968.043, 0.006317311, -0.004826279, -607909.5, 21789.223, 0.0, 5.038894, 5.01696 
9.8141176e+2, 2.4075451e+2, -585396.2, -611733.56, 36705.266, 0.006168854, -0.0051991264, -559568.8, 21031.404, 0.0, 5.038411, 5.016654 
9.8118335e+2, 2.4576458e+2, -537074.5, -561898.3, 33269.902, 0.0030794027, 0.000119277836, -513976.7, 17532.992, 0.0, 5.0379353, 5.0174155 
9.8094946e+2, 2.507753e+2, -490784.63, -513674.1, 34372.88, 0.00052552065, 0.0060520684, -466001.25, 16409.328, 0.0, 5.03714, 5.0176163 
9.807087e+2, 2.5578532e+2, -440410.0, -462043.94, 28815.117, 0.00697276, 0.0032791565, -420448.44, 12858.914, 0.0, 5.0371094, 5.018902 
9.804605e+2, 2.607959e+2, -394604.78, -414861.22, 29837.695, 0.007046859, -0.0007928752, -373223.2, 10978.267, 0.0, 5.0362706, 5.0187583 
9.8020273e+2, 2.6580665e+2, -346919.6, -364426.9, 22290.998, -0.013178102, -0.0030724253, -331725.06, 3380.0579, 0.0, 5.0350876, 5.020218 
9.7993726e+2, 2.7081987e+2, -302430.1, -317597.28, 20586.62, -0.02625614, 0.010527483, -288074.7, -2094.73, 0.0, 5.0336633, 5.0202074 
9.7966504e+2, 2.758363e+2, -248865.3, -265222.84, 10863.754, -0.0015822517, 0.052267324, -243445.78, -6636.3184, 0.0, 5.0346384, 5.0215178 
9.793829e+2, 2.8084782e+2, -203686.45, -225220.7, 10963.402, 0.008890077, 0.04750508, -199087.14, -11387.895, 0.0, 5.034785, 5.0183644 
9.7908825e+2, 2.8584266e+2, -153769.84, -181727.33, 1325.8921, -0.060732245, -0.097887464, -153707.1, -14917.609, 0.0, 5.0357957, 5.016451 
9.7878957e+2, 2.908569e+2, -103694.44, -129323.66, -6961.01, -0.07339494, -0.017991753, -101925.836, -12275.609, 0.0, 5.0357566, 5.0178657 
9.784901e+2, 2.9591018e+2, -23318.984, -53063.996, 3218.0388, -0.029871004, 0.21270953, -22974.816, 17040.563, 0.0, 5.0446386, 5.024546 
9.7818667e+2, 3.0086967e+2, -7086.303, -84237.35, 4031.9963, 0.034290444, -0.16160625, -6876.159, -6876.159, 0.0, 5.045616, 4.9933496 
9.9080664e+2, 1.3572207e+2, -1609094.9, -1610710.6, 1285.0663, 0.0018603051, -0.0067724753, -1608384.8, 1527.1172, 0.0, 5.029633, 5.02829 
9.905914e+2, 1.4074399e+2, -1554017.0, -1565019.8, 6.357576, 0.016714735, -0.011259571, -1554017.0, 6680.257, 0.0, 5.0331635, 5.0256743 
9.9037105e+2, 1.4576128e+2, -1505847.3, -1523115.6, 4921.6875, -0.065113164, -0.028596858, -1504543.0, 6985.5283, 0.0, 5.0345545, 5.022737 
9.901687e+2, 1.5078117e+2, -1457024.6, -1474948.8, 4780.6826, 0.018501034, -0.010910418, -1455829.3, 6504.077, 0.0, 5.0347295, 5.022564 
9.899593e+2, 1.5579826e+2, -1408680.9, -1429621.3, 8111.626, 0.01651751, -0.010344997, -1405906.4, 7256.5415, 0.0, 5.035521, 5.0210366 
9.8974854e+2, 1.6081272e+2, -1358882.4, -1383233.0, 9935.475, -0.017255472, -0.02259993, -1355343.0, 8675.978, 0.0, 5.036585, 5.019815 
9.8954374e+2, 1.6582699e+2, -1310829.3, -1337532.1, 12087.396, -0.003724191, -0.021616757, -1306170.5, 8709.631, 0.0, 5.037096, 5.0185733 
9.8933965e+2, 1.7084146e+2, -1262103.3, -1289879.3, 13546.3, 0.0059526237, -0.012635764, -1256590.8, 9148.721, 0.0, 5.0374355, 5.018106 
9.89136e+2, 1.758542e+2, -1213695.5, -1242780.5, 16614.432, -0.0063193594, -0.012030784, -1206158.1, 10457.099, 0.0, 5.0378456, 5.0173836 
9.8893464e+2, 1.80866e+2, -1164940.0, -1194818.1, 17422.412, -0.004502842, -0.017565891, -1156928.8, 10571.8, 0.0, 5.0381336, 5.01705 
9.8873425e+2, 1.8587776e+2, -1116459.6, -1146248.1, 19176.277, 0.0042144265, -0.018763563, -1107072.9, 11314.294, 0.0, 5.038258, 5.016954 
9.88533e+2, 1.9089004e+2, -1067774.0, -1097882.3, 20319.455, -0.00056039303, -0.0143333385, -1057539.6, 11729.267, 0.0, 5.038446, 5.016799 
9.883315e+2, 1.959021e+2, -1019031.75, -1048898.0, 21903.113, -0.007926375, -0.009416279, -1007455.56, 12697.512, 0.0, 5.0385613, 5.01687 
9.8813075e+2, 2.0091394e+2, -970460.06, -999975.5, 22628.191, -0.004989125, -0.008376486, -958202.5, 12836.596, 0.0, 5.038569, 5.016992 
9.879284e+2, 2.0592569e+2, -921374.94, -949803.56, 23579.334, -0.0042950897, -0.009794727, -908056.9, 13867.91, 0.0, 5.0385523, 5.017564 
9.8772454e+2, 2.1093814e+2, -873160.94, -901251.7, 24240.379, -0.009460928, -0.0075765303, -859190.8, 13612.835, 0.0, 5.0384884, 5.0175886 
9.8751867e+2, 2.1595117e+2, -824290.2, -850957.25, 24286.299, -0.009057354, -0.00044930133, -809918.0, 13759.7295, 0.0, 5.0383263, 5.0182905 
9.8731124e+2, 2.2096422e+2, -776317.3, -801896.4, 25418.42, -0.0053055673, 0.001951452, -760652.2, 13897.935, 0.0, 5.0380673, 5.01858 
9.871e+2, 2.259762e+2, -727069.0, -751133.5, 24677.71, -0.0038495131, -0.009417146, -711646.44, 13782.644, 0.0, 5.037927, 5.019467 
9.868858e+2, 2.3098937e+2, -679542.06, -702841.7, 26213.41, -0.0037593583, -0.0136512825, -662506.3, 13791.704, 0.0, 5.0376577, 5.019483 
9.8666734e+2, 2.3600432e+2, -629917.4, -651990.44, 23708.236, 0.0016896944, 0.00013826799, -614802.7, 12350.869, 0.0, 5.037626, 5.020395 
9.864447e+2, 2.4101938e+2, -582792.06, -603910.4, 25324.518, 0.006898072, 0.009337907, -565913.5, 12095.101, 0.0, 5.03726, 5.0203595 
9.8621607e+2, 2.4603301e+2, -533455.5, -553039.56, 21818.832, 0.010200978, 0.0049971594, -519332.2, 9547.157, 0.0, 5.0370183, 5.021423 
9.859817e+2, 2.5104767e+2, -486082.63, -504183.53, 23607.867, 0.009387729, 0.0030612636, -469849.84, 9887.666, 0.0, 5.03659, 5.0217037 
9.857399e+2, 2.5606284e+2, -433722.34, -451924.22, 18392.074, 0.006173627, 0.004590421, -422302.66, 8278.783, 0.0, 5.037315, 5.0229235 
9.854907e+2, 2.6107803e+2, -386332.2, -405242.03, 19008.982, 0.001405885, 0.0021374377, -374556.53, 6873.225, 0.0, 5.0373087, 5.022241 
9.852328e+2, 2.660916e+2, -337574.5, -356411.38, 11666.366, -0.004314478, -0.008469671, -331999.25, 309.0292, 0.0, 5.0369244, 5.0228004 
9.849667e+2, 2.711069e+2, -289983.8, -308049.88, 11585.477, -0.012729617, -0.0073459265, -284326.06, -1161.3135, 0.0, 5.036598, 5.0229263 
9.846924e+2, 2.761232e+2, -234258.2, -257707.3, 3234.354, -0.016230121, 0.0089325905, -233820.27, 176.40663, 0.0, 5.0390277, 5.022894 
9.8440987e+2, 2.8113797e+2, -185288.1, -213462.56, 2581.9604, -0.01690467, 0.014679475, -185053.44, -201.24193, 0.0, 5.040146, 5.0208693 
9.841195e+2, 2.861465e+2, -142484.55, -176100.2, -783.4818, -0.028489865, -0.0030623663, -142466.3, -6667.119, 0.0, 5.039226, 5.017481 
9.8382276e+2, 2.9116026e+2, -88474.555, -113958.3, -2272.8054, -0.028202903, 0.032907285, -88273.44, -1609.095, 0.0, 5.039018, 5.0226755 
9.8352164e+2, 2.9618496e+2, -26454.137, -61227.984, -15102.805, -0.02992636, 0.08390576, -20810.65, 16509.793, 0.0, 5.0443563, 5.0221663 
9.832117e+2, 3.011867e+2, -15061.253, -95220.31, -21923.123, -0.09538986, 0.054827094, -9457.174, -9457.174, 0.0, 5.044151, 4.990592 
9.958311e+2, 1.359363e+2, -1610191.5, -1609873.4, 1719.0327, -0.0040962207, -0.0010289131, -1608306.1, -494.78015, 0.0, 5.029014, 5.0288954 
9.9562013e+2, 1.4095908e+2, -1553440.6, -1562665.9, 1653.7128, 0.017161453, -0.0038342953, -1553153.1, 5433.764, 0.0, 5.032895, 5.026614 
9.9540126e+2, 1.4597823e+2, -1506208.3, -1521775.0, 3952.3948, -0.062001158, -0.01201413, -1505262.3, 4138.023, 0.0, 5.034062, 5.0234494 
9.951999e+2, 1.5099835e+2, -1458288.4, -1474030.4, 4365.0513, 0.030544132, 0.000057832054, -1457159.0, 3044.5906, 0.0, 5.033978, 5.0232472 
9.9499017e+2, 1.5601608e+2, -1409852.0, -1428328.5, 7534.485, 0.016898112, 0.00006824022, -1407169.1, 3859.5947, 0.0, 5.0346975, 5.0219045 
9.9478e+2, 1.6103175e+2, -1360193.3, -1382026.4, 8211.128, -0.021359539, -0.009279159, -1357449.9, 4424.21, 0.0, 5.0357146, 5.0206695 
9.945764e+2, 1.660467e+2, -1311493.0, -1336232.8, 10199.552, -0.0034893106, -0.01097999, -1307830.3, 4897.551, 0.0, 5.036504, 5.019323 
9.943731e+2, 1.7106165e+2, -1261692.6, -1287824.8, 11708.854, 0.0077578514, -0.0060638944, -1257213.9, 6368.1304, 0.0, 5.037161, 5.0189605 
9.9416995e+2, 1.7607576e+2, -1213277.6, -1240096.4, 14234.097, -0.0036287599, -0.0026106362, -1207131.4, 7313.9707, 0.0, 5.0374384, 5.018514 
9.93969e+2, 1.8108922e+2, -1164997.1, -1192340.1, 15083.108, -0.00033704002, -0.003642898, -1158311.6, 7003.735, 0.0, 5.0375733, 5.0181856 
9.937688e+2, 1.8610245e+2, -1115728.5, -1142843.6, 16590.139, 0.0078540305, -0.0039819297, -1107860.9, 8327.283, 0.0, 5.0378428, 5.0183635 
9.9356765e+2, 1.9111608e+2, -1066638.9, -1093953.3, 17546.328, 0.0017463214, -0.001833649, -1058061.1, 8995.36, 0.0, 5.038085, 5.0183716 
9.933661e+2, 1.9612968e+2, -1017464.94, -1043481.4, 19179.701, -0.006162828, -0.0014956093, -1007298.3, 10625.406, 0.0, 5.038085, 5.019018 
9.9316555e+2, 2.0114361e+2, -969220.1, -994949.6, 20148.24, -0.0019197614, -0.001803325, -958179.8, 10608.527, 0.0, 5.0380363, 5.0190253 
9.929636e+2, 2.0615825e+2, -919463.7, -943224.75, 21070.563, 0.0031424698, 0.00097265467, -907155.06, 12491.165, 0.0, 5.0379977, 5.020157 
9.9275976e+2, 2.1117343e+2, -871361.56, -894694.94, 21920.291, -0.00064464175, 0.003651266, -858196.6, 12301.913, 0.0, 5.037908, 5.0201893 
9.925534e+2, 2.1618846e+2, -821413.9, -842773.0, 21941.504, -0.0029209512, 0.0013919285, -807690.94, 13661.416, 0.0, 5.037899, 5.0214047 
9.923455e+2, 2.2120433e+2, -773011.06, -793340.25, 23099.664, -0.00069080025, -0.0003492125, -757938.5, 14258.071, 0.0, 5.037758, 5.0217786 
9.921339e+2, 2.2622049e+2, -723028.1, -741007.06, 21982.254, 0.00016617819, -0.0061492366, -708268.3, 14765.931, 0.0, 5.0376225, 5.023243 
9.919193e+2, 2.3123775e+2, -675958.5, -693105.75, 23648.766, -0.0003764661, -0.007952167, -659377.2, 14485.671, 0.0, 5.0372396, 5.023184 
9.9170035e+2, 2.3625655e+2, -626472.75, -641511.0, 21258.52, 0.0056150076, 0.004221893, -611442.75, 13239.702, 0.0, 5.036992, 5.024484 
9.914774e+2, 2.4127586e+2, -579085.06, -592766.94, 23321.07, 0.011420308, 0.012932639, -561622.3, 13874.818, 0.0, 5.0366297, 5.024698 
9.9124813e+2, 2.4629366e+2, -527683.8, -540251.1, 19587.459, 0.012833095, 0.0043380577, -513396.8, 12927.544, 0.0, 5.0370073, 5.0260925 
9.910132e+2, 2.5131267e+2, -480062.38, -491373.97, 21544.326, 0.011997687, -0.00096440205, -463443.84, 13693.272, 0.0, 5.036694, 5.026355 
9.907709e+2, 2.563328e+2, -430510.97, -440640.84, 16216.143, 0.005072905, 0.0027103412, -418587.2, 9345.249, 0.0, 5.0364428, 5.0274744 
9.905213e+2, 2.6135325e+2, -384589.06, -395132.1, 16747.777, -0.0003635299, 0.00672979, -372302.75, 6426.753, 0.0, 5.036011, 5.0265546 
9.9026394e+2, 2.6637122e+2, -333656.34, -346748.4, 10144.83, 0.006923225, -0.00061676657, -328128.94, 1434.7152, 0.0, 5.03675, 5.0264573 
9.899976e+2, 2.7138883e+2, -285799.88, -298898.44, 11716.22, 0.00028007157, -0.012053101, -278926.7, 1471.4124, 0.0, 5.036659, 5.02631 
9.897214e+2, 2.7640402e+2, -235554.38, -253651.42, 5009.5054, -0.035055425, -0.03507394, -234260.23, -3013.163, 0.0, 5.03764, 5.025021 
9.894389e+2, 2.814239e+2, -186111.27, -204812.92, 2595.7153, -0.043560185, -0.00364615, -185757.67, -3707.941, 0.0, 5.038086, 5.02497 
9.891549e+2, 2.86451e+2, -138962.73, -163820.69, -1072.5413, 0.024503876, 0.10600461, -138916.55, -6132.725, 0.0, 5.038574, 5.0222425 
9.88858e+2, 2.91464e+2, -96648.43, -128963.59, -1597.202, 0.01665676, 0.12567426, -96569.68, -12903.018, 0.0, 5.0384207, 5.017251 
9.885513e+2, 2.964324e+2, -43327.375, -88549.12, 194.9604, -0.06222982, -0.33322412, -43326.535, -8331.59, 0.0, 5.0422444, 5.0126696 
9.8826385e+2, 3.0148554e+2, 35194.797, 13509.761, 10893.605, 0.07050684, 0.114347994, 39722.082, 39722.082, 0.0, 5.0459123, 5.0300813 
1.00085445e+3, 1.3614598e+2, -1606555.0, -1606621.1, -938.675, -0.01706985, -0.025099406, -1605648.8, 106.08634, 0.0, 5.0298367, 5.029672 
1.0006485e+3, 1.4116938e+2, -1554327.9, -1563424.8, 1076.7207, 0.019592803, -0.023558721, -1554202.3, 2321.4854, 0.0, 5.0325794, 5.02656 
1.0004323e+3, 1.4619029e+2, -1504961.1, -1520124.8, 1635.7211, -0.048829764, -0.019477565, -1504786.6, 2533.2979, 0.0, 5.03415, 5.0240355 
1.0002285e+3, 1.512097e+2, -1457119.6, -1473440.1, 1928.9187, 0.019221203, -0.0207523, -1456894.8, 1235.9977, 0.0, 5.034249, 5.023413 
1.00001976e+3, 1.5622756e+2, -1408566.6, -1428507.6, 5004.901, 0.0072893426, -0.019621525, -1407380.9, 1575.5717, 0.0, 5.0351567, 5.0217423 
9.998116e+2, 1.612444e+2, -1359117.6, -1381896.6, 4996.8784, -0.021595327, -0.018361393, -1358069.8, 1721.819, 0.0, 5.036017, 5.0206695 
9.996085e+2, 1.6625968e+2, -1309516.5, -1334992.3, 6068.646, -0.007924924, -0.020539572, -1308144.8, 2496.4146, 0.0, 5.0369506, 5.0196347 
9.9940556e+2, 1.7127438e+2, -1260165.9, -1287689.3, 6537.756, -0.00028429017, -0.021273114, -1258691.9, 2805.6887, 0.0, 5.037573, 5.0189466 
9.992033e+2, 1.7628942e+2, -1211411.6, -1239175.5, 8046.7886, -0.0043764757, -0.013541805, -1209248.0, 3105.3892, 0.0, 5.0377765, 5.018847 
9.990025e+2, 1.813044e+2, -1163567.5, -1191879.5, 8292.527, 0.00039194454, -0.00614003, -1161317.5, 1892.3885, 0.0, 5.0377536, 5.018489 
9.988019e+2, 1.8631892e+2, -1113670.0, -1141463.6, 9438.56, 0.0019244816, -0.0017575731, -1110767.8, 3302.9287, 0.0, 5.038062, 5.0190144 
9.98601e+2, 1.9133334e+2, -1064658.0, -1092320.8, 9866.467, -0.0030400353, -0.0023354434, -1061499.6, 3431.754, 0.0, 5.0381804, 5.019194 
9.983998e+2, 1.9634803e+2, -1014725.5, -1039668.7, 10372.947, -0.0079187155, -0.008292816, -1010975.5, 4811.0225, 0.0, 5.0380273, 5.0206857 
9.981991e+2, 2.0136416e+2, -967075.7, -991671.75, 10792.807, -0.002734599, -0.0060564815, -963011.4, 3616.6812, 0.0, 5.037803, 5.020582 
9.9799776e+2, 2.0638196e+2, -917059.8, -939102.6, 11153.228, 0.009095563, 0.0061644777, -912401.1, 5054.3677, 0.0, 5.0376606, 5.0220675 
9.9779433e+2, 2.1139944e+2, -869214.25, -890481.75, 11534.199, 0.011765361, 0.0068551763, -864160.0, 4125.0815, 0.0, 5.0374184, 5.022218 
9.9758714e+2, 2.1641554e+2, -818666.7, -837163.9, 11096.885, 0.0030737729, -0.013028305, -813469.6, 5656.3306, 0.0, 5.037356, 5.0239763 
9.973785e+2, 2.2143412e+2, -770958.3, -788441.2, 12114.162, 0.00022692175, -0.019449187, -764761.06, 5182.3853, 0.0, 5.037062, 5.024161 
9.971671e+2, 2.2645618e+2, -720439.9, -734240.6, 10493.627, 0.0073802117, -0.00011853467, -714781.1, 5946.6763, 0.0, 5.036749, 5.0264087 
9.9695224e+2, 2.314783e+2, -673992.2, -686621.06, 11948.936, 0.010369179, 0.008391719, -666791.9, 4719.162, 0.0, 5.0361524, 5.0263543 
9.9673223e+2, 2.3649868e+2, -623688.44, -632649.7, 9577.225, 0.012162039, -0.0069884593, -617595.56, 4715.22, 0.0, 5.0357523, 5.0286303 
9.965077e+2, 2.4152099e+2, -576597.4, -584420.4, 12283.462, 0.007916725, -0.014459755, -567617.7, 5475.1636, 0.0, 5.035346, 5.0287113 
9.9627686e+2, 2.4654445e+2, -524021.84, -530747.8, 9116.421, -0.007730862, -0.014736948, -517667.9, 6196.9253, 0.0, 5.0359793, 5.030473 
9.9604124e+2, 2.5156876e+2, -475641.66, -481244.13, 10846.364, -0.013977549, -0.017275445, -467240.63, 7387.77, 0.0, 5.0359316, 5.030835 
9.9579996e+2, 2.565924e+2, -426743.88, -431059.06, 5963.0303, 0.00016706598, -0.02746357, -422560.1, 2837.6677, 0.0, 5.035545, 5.0318074 
9.955512e+2, 2.6161966e+2, -378757.34, -381929.0, 8291.563, 0.007396059, -0.008104161, -371901.3, 4229.246, 0.0, 5.035387, 5.0320606 
9.9529433e+2, 2.6665083e+2, -324930.06, -332972.9, 3699.889, 0.009522707, 0.058230326, -323486.97, 3338.2485, 0.0, 5.0374317, 5.0316 
9.9502856e+2, 2.716757e+2, -275176.63, -284669.78, 5400.49, 0.00562997, 0.06442904, -272733.28, 4849.6924, 0.0, 5.038161, 5.0312533 
9.9475265e+2, 2.7668938e+2, -229710.19, -243844.48, 730.1421, -0.020434732, -0.01866032, -229672.58, -1220.4642, 0.0, 5.0378976, 5.0288477 
9.9446917e+2, 2.8170878e+2, -181027.67, -193997.36, 254.44994, -0.036803834, -0.03632242, -181022.69, -1761.2853, 0.0, 5.0378714, 5.0294056 
9.941824e+2, 2.867365e+2, -129730.555, -153531.0, -2779.9214, -0.009322438, 0.050605636, -129410.164, 573.6141, 0.0, 5.0405617, 5.025473 
9.938841e+2, 2.9175112e+2, -83550.836, -111489.734, -2207.5566, -0.031447805, 0.03555521, -83377.484, -2532.2764, 0.0, 5.040831, 5.0230227 
9.9357563e+2, 2.9673806e+2, -48554.45, -82602.35, 676.37714, -0.12213784, -0.23066564, -48541.02, -16538.611, 0.0, 5.038691, 5.0167303 
9.932888e+2, 3.017946e+2, 36123.08, 38935.406, -10029.079, -0.015538799, 0.1766955, 47656.42, 47656.42, 0.0, 5.0418696, 5.0422487 
1.0058822e+3, 1.363588e+2, -1604308.6, -1607055.8, -618.5518, 0.0015902799, -0.01324814, -1604175.8, -508.94247, 0.0, 5.030878, 5.0289927 
1.0056742e+3, 1.4138135e+2, -1554423.3, -1564734.3, 1724.1237, -0.0049195634, -0.013774894, -1554142.5, 303.83612, 0.0, 5.03278, 5.0260105 
1.00546405e+3, 1.4640082e+2, -1503411.5, -1518379.3, -118.66146, -0.025460174, -0.024859462, -1503410.6, 1846.2119, 0.0, 5.034355, 5.0245466 
1.0052567e+3, 1.5142229e+2, -1455900.9, -1473394.0, 470.74356, 0.005081316, -0.011889577, -1455888.3, 158.17297, 0.0, 5.0346403, 5.023281 
1.0050483e+3, 1.5643996e+2, -1408421.9, -1430408.1, 3947.4893, -0.010831585, -0.008922987, -1407734.6, -863.36304, 0.0, 5.035467, 5.020986 
1.0048451e+3, 1.6145453e+2, -1357044.5, -1383795.9, 2319.3242, -0.0054078405, -0.02174266, -1356844.9, 883.1147, 0.0, 5.037119, 5.01956 
1.0046434e+3, 1.6646992e+2, -1306950.0, -1334703.0, 2179.752, 0.013984563, -0.020505238, -1306779.9, 1799.5686, 0.0, 5.0377674, 5.019422 
1.0044382e+3, 1.7148605e+2, -1259798.1, -1288602.5, 2837.1462, -0.00456711, -0.009256662, -1259521.4, -98.076, 0.0, 5.0376353, 5.0186925 
1.00423545e+3, 1.7650051e+2, -1210870.1, -1239587.9, 4057.6462, -0.014357593, -0.010098988, -1210307.8, -23.963139, 0.0, 5.037813, 5.018777 
1.0040358e+3, 1.8151426e+2, -1161168.8, -1190536.9, 3781.8994, -0.0008775256, -0.019456817, -1160689.5, 460.03873, 0.0, 5.038206, 5.0188513 
1.0038352e+3, 1.865294e+2, -1110868.4, -1138441.9, 4931.729, -0.0002928314, -0.021228665, -1110012.8, 1985.1715, 0.0, 5.038317, 5.020071 
1.0036335e+3, 1.9154572e+2, -1063526.8, -1091439.9, 5000.3784, -0.01397924, -0.013478177, -1062658.0, 180.13097, 0.0, 5.0381136, 5.019676 
1.003434e+3, 1.965631e+2, -1014244.0, -1038969.8, 4837.502, 0.00091117114, -0.00048943155, -1013331.25, 342.0761, 0.0, 5.0376787, 5.021255 
1.0032336e+3, 2.0158008e+2, -966376.6, -989501.6, 4660.377, 0.010838121, -0.0035560196, -965472.75, -962.9914, 0.0, 5.0372033, 5.0218043 
1.0030293e+3, 2.065973e+2, -916512.9, -935325.0, 4873.5503, -0.0041951854, -0.017892603, -915325.25, 14.733747, 0.0, 5.0366354, 5.0240655 
1.0028237e+3, 2.1161759e+2, -868705.56, -886754.0, 5875.2847, -0.019421842, -0.014152131, -866961.5, -821.80096, 0.0, 5.036359, 5.0242333 
1.00261755e+3, 2.1664037e+2, -815559.75, -829960.5, 5457.6577, -0.019347567, 0.002286657, -813725.1, 3188.1628, 0.0, 5.036721, 5.0270624 
1.0024096e+3, 2.2166325e+2, -768717.75, -783646.56, 6218.535, -0.01337774, 0.008407431, -766466.8, 1223.6658, 0.0, 5.036515, 5.0263753 
1.0021985e+3, 2.2668524e+2, -718705.7, -728358.3, 3669.8608, 0.004648771, -0.0013837257, -717468.94, 1015.264, 0.0, 5.03573, 5.0292563 
1.0019831e+3, 2.3170997e+2, -671334.4, -678652.06, 4889.2, 0.009321465, -0.0030009698, -668886.56, 357.242, 0.0, 5.035099, 5.02999 
1.0017623e+3, 2.367355e+2, -618071.94, -621604.6, 2950.4502, 0.006101629, -0.011908705, -616399.56, 3585.1963, 0.0, 5.0354257, 5.0330563 
1.0015376e+3, 2.4176344e+2, -571187.75, -573546.1, 5934.29, 0.0053903908, -0.012134758, -566316.6, 4389.9795, 0.0, 5.0349627, 5.0331173 
1.00130826e+3, 2.4679254e+2, -521270.7, -519640.6, 3147.1418, 0.006845424, -0.007143994, -517204.7, 4219.594, 0.0, 5.03435, 5.0355425 
1.0010729e+3, 2.518251e+2, -474618.22, -472791.72, 4771.6323, 0.0064373952, 0.021487733, -468846.72, 3265.6492, 0.0, 5.0340667, 5.035052 
1.0008312e+3, 2.5685734e+2, -420423.97, -419374.47, -254.27122, 0.020601723, 0.049209177, -419316.13, 3493.5188, 0.0, 5.035494, 5.036384 
1.0005812e+3, 2.618843e+2, -372187.25, -367198.94, 3045.3696, 0.01875079, 0.007655976, -365756.72, 7790.0327, 0.0, 5.0348835, 5.037949 
1.0003216e+3, 2.6690504e+2, -326669.72, -321716.06, 90.06637, -0.009911013, -0.09424818, -321714.44, 2615.5962, 0.0, 5.0339127, 5.0375137 
1.0000546e+3, 2.719443e+2, -277627.4, -272937.28, 2540.9731, -0.02975475, -0.008977152, -271824.63, 3116.2822, 0.0, 5.034359, 5.0374155 
9.997806e+2, 2.7698314e+2, -222882.92, -229454.4, 1671.7914, -0.036137965, 0.10126101, -222482.06, 3086.4211, 0.0, 5.0379977, 5.034211 
9.995002e+2, 2.8200057e+2, -171565.94, -182139.97, 2173.3438, -0.020542221, 0.016124714, -171136.66, 5270.3467, 0.0, 5.03976, 5.033029 
9.992135e+2, 2.8700808e+2, -123441.07, -146161.75, 672.15424, -0.002524201, -0.12787648, -123421.2, 3917.8706, 0.0, 5.0419745, 5.02762 
9.9892014e+2, 2.9204765e+2, -73190.01, -91824.44, -9191.312, 0.01810988, 0.06351537, -69419.414, 8524.443, 0.0, 5.041791, 5.029906 
9.986128e+2, 2.9708317e+2, -41271.57, -68985.14, -5476.335, -0.0036313955, 0.22249486, -40228.664, -11649.215, 0.0, 5.0394506, 5.02151 
9.9830407e+2, 3.0205998e+2, -18733.996, -54077.785, 4270.796, -0.046206772, -0.12110565, -18225.254, -18225.254, 0.0, 5.034493, 5.010637 
