coord_x,coord_y,stress_xx,stress_yy,tau_xy,velocity_x,velocity_y,stress_1,eps,damage,lx,ly
5.0e+0, 1.2499334e+2, -1719946.3, -1724224.6, 0.00004005009, 0.00000000022099336, 0.000017597795, -1719946.3, -4880.9653, 0.0, 10.0, 9.994328 
5.0e+0, 1.349876e+2, -1622565.8, -1627434.9, 0.000040182957, 0.0000000002145635, -0.00006840361, -1622565.8, -5444.1777, 0.0, 10.0, 9.993545 
5.0e+0, 1.4497513e+2, -1534464.4, -1548146.3, 0.00003847008, 0.00000000021096604, 0.00007091608, -1534464.4, -15220.686, 0.0, 10.0, 9.981865 
5.0e+0, 1.5495701e+2, -1436736.6, -1450821.9, 0.000028700064, 0.00000000021019948, -0.000056981535, -1436736.6, -15315.503, 0.0, 10.0, 9.981333 
5.0e+0, 1.6493228e+2, -1348685.8, -1371952.4, 0.000027205075, 0.0000000002092144, 0.000047341247, -1348685.8, -25021.996, 0.0, 10.0, 9.969248 
5.0e+0, 1.7490156e+2, -1250727.6, -1274310.1, 0.000024450708, 0.00000000020800615, -0.00007383239, -1250727.6, -24762.977, 0.0, 10.0, 9.968835 
5.0e+0, 1.8486421e+2, -1162646.8, -1195720.1, 0.000023372511, 0.00000000020678126, 0.00006614317, -1162646.8, -34316.03, 0.0, 10.0, 9.956395 
5.0e+0, 1.9482064e+2, -1064497.0, -1097833.0, 0.000012437184, 0.00000000020553881, -0.00005765796, -1064497.0, -33739.363, 0.0, 10.0, 9.956052 
5.0e+0, 2.0477042e+2, -976333.0, -1019435.0, 0.00001135247, 0.00000000020456353, 0.000068076726, -976333.0, -43083.11, 0.0, 10.0, 9.943291 
5.0e+0, 2.1471375e+2, -878046.0, -921409.9, 0.000009289801, 0.00000000020387753, -0.00012682882, -878046.0, -42240.695, 0.0, 10.0, 9.942949 
5.0e+0, 2.2465037e+2, -789759.9, -843144.9, 0.00000947121, 0.00000000020253862, 0.00012087836, -789759.9, -51333.586, 0.0, 10.0, 9.929908 
5.0e+0, 2.3458035e+2, -691326.4, -744966.44, -0.00000017594996, 0.00000000020046044, -0.00008881921, -691326.4, -50213.82, 0.0, 10.0, 9.929577 
5.0e+0, 2.4450338e+2, -603002.3, -667018.8, -0.0000005845066, 0.00000000020014593, 0.00007470807, -603002.3, -59135.418, 0.0, 10.0, 9.916136 
5.0e+0, 2.5441962e+2, -504249.63, -568343.3, -0.0000032408477, 0.00000000020193873, -0.000106737534, -504249.63, -57562.08, 0.0, 10.0, 9.916036 
5.0e+0, 2.643288e+2, -416014.22, -490987.88, -0.00000088387054, 0.00000000020139096, 0.00014059343, -416014.22, -66436.55, 0.0, 10.0, 9.901964 
5.0e+0, 2.742313e+2, -316729.0, -391374.78, -0.00000869202, 0.00000000019785926, -0.00020344478, -316729.0, -64195.996, 0.0, 10.0, 9.902385 
5.0e+0, 2.841256e+2, -230255.75, -318081.25, -0.000008706347, 0.00000000019636082, 0.00022904525, -230255.75, -74686.77, 0.0, 10.0, 9.885439 
5.0e+0, 2.940121e+2, -130549.61, -217765.02, -0.000013646383, 0.00000000019765871, -0.00025334352, -130549.61, -71868.21, 0.0, 10.0, 9.886217 
5.0e+0, 3.0392656e+2, -40805.59, -84750.16, -0.000009056985, 0.00000000019886422, 0.00017313575, -40805.59, -40805.59, 0.0, 10.0, 9.942173 
5.0e+0, 3.138706e+2, -39727.58, -82511.21, -0.000010393364, 0.00000000019990634, -0.000055142922, -39727.58, -39727.58, 0.0, 10.0, 9.943685 
1.5e+1, 1.2499334e+2, -1719946.3, -1724224.6, -0.00005438386, 0.0000000006629801, 0.00001759781, -1719946.3, -4880.9653, 0.0, 10.0, 9.994328 
1.5e+1, 1.349876e+2, -1622565.8, -1627434.9, -0.000054273907, 0.00000000064369055, -0.00006840361, -1622565.8, -5444.1777, 0.0, 10.0, 9.993545 
1.5e+1, 1.4497513e+2, -1534464.4, -1548146.3, -0.00005020119, 0.0000000006328981, 0.00007091609, -1534464.4, -15220.686, 0.0, 10.0, 9.981865 
1.5e+1, 1.5495701e+2, -1436736.6, -1450821.9, -0.00005996264, 0.0000000006305984, -0.00005698152, -1436736.6, -15315.503, 0.0, 10.0, 9.981333 
1.5e+1, 1.6493228e+2, -1348685.8, -1371952.4, -0.00005213818, 0.00000000062764316, 0.00004734126, -1348685.8, -25021.996, 0.0, 10.0, 9.969248 
1.5e+1, 1.7490156e+2, -1250727.6, -1274310.1, -0.000054844084, 0.00000000062401845, -0.000073832394, -1250727.6, -24762.977, 0.0, 10.0, 9.968835 
1.5e+1, 1.8486421e+2, -1162646.8, -1195720.1, -0.00004479199, 0.0000000006203438, 0.00006614316, -1162646.8, -34316.03, 0.0, 10.0, 9.956395 
1.5e+1, 1.9482064e+2, -1064497.0, -1097833.0, -0.00005559918, 0.0000000006166164, -0.000057657948, -1064497.0, -33739.363, 0.0, 10.0, 9.956052 
1.5e+1, 2.0477042e+2, -976333.0, -1019435.0, -0.000045527297, 0.0000000006136906, 0.00006807674, -976333.0, -43083.11, 0.0, 10.0, 9.943291 
1.5e+1, 2.1471375e+2, -878046.0, -921409.9, -0.000047360303, 0.0000000006116326, -0.00012682883, -878046.0, -42240.695, 0.0, 10.0, 9.942949 
1.5e+1, 2.2465037e+2, -789759.9, -843144.9, -0.000035463545, 0.00000000060761585, 0.00012087835, -789759.9, -51333.586, 0.0, 10.0, 9.929908 
1.5e+1, 2.3458035e+2, -691326.4, -744966.44, -0.00004472828, 0.0000000006013813, -0.00008881921, -691326.4, -50213.82, 0.0, 10.0, 9.929577 
1.5e+1, 2.4450338e+2, -603002.3, -667018.8, -0.00003263452, 0.00000000060043776, 0.00007470808, -603002.3, -59135.418, 0.0, 10.0, 9.916136 
1.5e+1, 2.5441962e+2, -504249.63, -568343.3, -0.00003469093, 0.0000000006058162, -0.000106737534, -504249.63, -57562.08, 0.0, 10.0, 9.916036 
1.5e+1, 2.643288e+2, -416014.22, -490987.88, -0.000017057457, 0.0000000006041729, 0.00014059343, -416014.22, -66436.55, 0.0, 10.0, 9.901964 
1.5e+1, 2.742313e+2, -316729.0, -391374.78, -0.000023842353, 0.00000000059357774, -0.00020344478, -316729.0, -64195.996, 0.0, 10.0, 9.902385 
1.5e+1, 2.841256e+2, -230255.75, -318081.25, -0.000009502246, 0.00000000058908245, 0.00022904525, -230255.75, -74686.77, 0.0, 10.0, 9.885439 
1.5e+1, 2.940121e+2, -130549.61, -217765.02, -0.000013149932, 0.0000000005929761, -0.00025334352, -130549.61, -71868.21, 0.0, 10.0, 9.886217 
1.5e+1, 3.0392656e+2, -40805.59, -84750.16, 0.000008803643, 0.00000000059659266, 0.00017313575, -40805.59, -40805.59, 0.0, 10.0, 9.942173 
1.5e+1, 3.138706e+2, -39727.58, -82511.21, 0.000009504608, 0.000000000599719, -0.00005514294, -39727.58, -39727.58, 0.0, 10.0, 9.943685 
2.5e+1, 1.2499334e+2, -1719946.3, -1724224.6, 0.000047039444, 0.0000000010981559, 0.000017597815, -1719946.3, -4880.965, 0.0, 10.0, 9.994328 
2.5e+1, 1.349876e+2, -1622565.8, -1627434.9, 0.000028945806, 0.0000000010735909, -0.00006840361, -1622565.8, -5444.1777, 0.0, 10.0, 9.993545 
2.5e+1, 1.4497513e+2, -1534464.4, -1548146.3, 0.00002616517, 0.0000000010589126, 0.000070916096, -1534464.4, -15220.685, 0.0, 10.0, 9.981865 
2.5e+1, 1.5495701e+2, -1436736.6, -1450821.9, 0.0000032421563, 0.0000000010540895, -0.00005698151, -1436736.6, -15315.503, 0.0, 10.0, 9.981333 
2.5e+1, 1.6493228e+2, -1348685.8, -1371952.4, 0.0000068038016, 0.0000000010479126, 0.000047341266, -1348685.8, -25021.996, 0.0, 10.0, 9.969248 
2.5e+1, 1.7490156e+2, -1250727.6, -1274310.1, -0.000009628575, 0.0000000010403532, -0.000073832394, -1250727.6, -24762.975, 0.0, 10.0, 9.968835 
2.5e+1, 1.8486421e+2, -1162646.8, -1195720.1, -0.0000023318025, 0.000000001033803, 0.00006614316, -1162646.8, -34316.027, 0.0, 10.0, 9.956395 
2.5e+1, 1.9482064e+2, -1064497.0, -1097833.0, -0.000026007501, 0.000000001028308, -0.00005765794, -1064497.0, -33739.363, 0.0, 10.0, 9.956052 
2.5e+1, 2.0477042e+2, -976333.0, -1019435.0, -0.000017713577, 0.0000000010233019, 0.00006807675, -976333.0, -43083.11, 0.0, 10.0, 9.943291 
2.5e+1, 2.1471375e+2, -878046.0, -921409.9, -0.000032852684, 0.0000000010188247, -0.00012682883, -878046.0, -42240.69, 0.0, 10.0, 9.942949 
2.5e+1, 2.2465037e+2, -789759.9, -843144.9, -0.000021445085, 0.0000000010132518, 0.00012087835, -789759.9, -51333.586, 0.0, 10.0, 9.929908 
2.5e+1, 2.3458035e+2, -691326.4, -744966.44, -0.00004175143, 0.0000000010064378, -0.00008881921, -691326.4, -50213.82, 0.0, 10.0, 9.929577 
2.5e+1, 2.4450338e+2, -603002.3, -667018.8, -0.00002895846, 0.0000000010035901, 0.00007470808, -603002.3, -59135.418, 0.0, 10.0, 9.916136 
2.5e+1, 2.5441962e+2, -504249.63, -568343.3, -0.000044111453, 0.0000000010054805, -0.00010673753, -504249.63, -57562.08, 0.0, 10.0, 9.916036 
2.5e+1, 2.643288e+2, -416014.22, -490987.88, -0.000024487701, 0.0000000010025991, 0.00014059343, -416014.22, -66436.55, 0.0, 10.0, 9.901964 
2.5e+1, 2.742313e+2, -316729.0, -391374.78, -0.000040788687, 0.0000000009936327, -0.00020344478, -316729.0, -64195.996, 0.0, 10.0, 9.902385 
2.5e+1, 2.841256e+2, -230255.75, -318081.25, -0.00002278826, 0.0000000009891878, 0.00022904525, -230255.75, -74686.77, 0.0, 10.0, 9.885439 
2.5e+1, 2.940121e+2, -130549.61, -217765.02, -0.000037094145, 0.0000000009909583, -0.00025334352, -130549.61, -71868.21, 0.0, 10.0, 9.886217 
2.5e+1, 3.0392656e+2, -40805.59, -84750.16, -0.000010225972, 0.0000000009940626, 0.00017313575, -40805.59, -40805.59, 0.0, 10.0, 9.942173 
2.5e+1, 3.138706e+2, -39727.58, -82511.21, -0.000018538502, 0.0000000009990885, -0.000055142948, -39727.58, -39727.58, 0.0, 10.0, 9.943685 
3.5e+1, 1.2499334e+2, -1719946.3, -1724224.6, -0.000051324954, 0.0000000015265207, 0.000017597813, -1719946.3, -4880.965, 0.0, 10.0, 9.994328 
3.5e+1, 1.349876e+2, -1622565.8, -1627434.9, -0.000069442285, 0.0000000015042644, -0.0000684036, -1622565.8, -5444.1777, 0.0, 10.0, 9.993545 
3.5e+1, 1.4497513e+2, -1534464.4, -1548146.3, -0.00006109646, 0.0000000014890096, 0.000070916125, -1534464.4, -15220.686, 0.0, 10.0, 9.981865 
3.5e+1, 1.5495701e+2, -1436736.6, -1450822.0, -0.00008400272, 0.0000000014806727, -0.000056981502, -1436736.6, -15315.503, 0.0, 10.0, 9.981333 
3.5e+1, 1.6493228e+2, -1348685.8, -1371952.4, -0.00007201934, 0.0000000014700228, 0.00004734127, -1348685.8, -25021.996, 0.0, 10.0, 9.969248 
3.5e+1, 1.7490156e+2, -1250727.6, -1274310.1, -0.00008840796, 0.0000000014570106, -0.00007383239, -1250727.6, -24762.975, 0.0, 10.0, 9.968835 
3.5e+1, 1.8486421e+2, -1162646.8, -1195720.1, -0.00007154242, 0.0000000014471591, 0.00006614317, -1162646.8, -34316.027, 0.0, 10.0, 9.956395 
3.5e+1, 1.9482064e+2, -1064497.0, -1097833.0, -0.00009510806, 0.0000000014406136, -0.000057657937, -1064497.0, -33739.363, 0.0, 10.0, 9.956052 
3.5e+1, 2.0477042e+2, -976333.0, -1019435.0, -0.00007548069, 0.0000000014333974, 0.000068076755, -976333.0, -43083.11, 0.0, 10.0, 9.943291 
3.5e+1, 2.1471375e+2, -878046.0, -921409.9, -0.00009038648, 0.0000000014254538, -0.00012682882, -878046.0, -42240.69, 0.0, 10.0, 9.942949 
3.5e+1, 2.2465037e+2, -789759.9, -843144.9, -0.00006690456, 0.0000000014194463, 0.00012087836, -789759.9, -51333.586, 0.0, 10.0, 9.929908 
3.5e+1, 2.3458035e+2, -691326.4, -744966.44, -0.00008681671, 0.0000000014156301, -0.00008881921, -691326.4, -50213.82, 0.0, 10.0, 9.929577 
3.5e+1, 2.4450338e+2, -603002.3, -667018.8, -0.00006040082, 0.0000000014096029, 0.00007470808, -603002.3, -59135.418, 0.0, 10.0, 9.916136 
3.5e+1, 2.5441962e+2, -504249.63, -568343.3, -0.000074900054, 0.0000000014009317, -0.00010673752, -504249.63, -57562.08, 0.0, 10.0, 9.916036 
3.5e+1, 2.643288e+2, -416014.22, -490987.88, -0.000042067088, 0.0000000013966697, 0.00014059345, -416014.22, -66436.55, 0.0, 10.0, 9.901964 
3.5e+1, 2.742313e+2, -316729.0, -391374.78, -0.000057483427, 0.000000001398024, -0.00020344478, -316729.0, -64195.996, 0.0, 10.0, 9.902385 
3.5e+1, 2.841256e+2, -230255.75, -318081.25, -0.000024253282, 0.0000000013966769, 0.00022904524, -230255.75, -74686.77, 0.0, 10.0, 9.885439 
3.5e+1, 2.940121e+2, -130549.61, -217765.02, -0.000037187965, 0.0000000013916053, -0.00025334352, -130549.61, -71868.21, 0.0, 10.0, 9.886217 
3.5e+1, 3.0392656e+2, -40805.59, -84750.16, 0.000004582464, 0.0000000013912741, 0.00017313575, -40805.59, -40805.59, 0.0, 10.0, 9.942173 
3.5e+1, 3.138706e+2, -39727.58, -82511.21, -0.000001981758, 0.0000000013980147, -0.00005514295, -39727.58, -39727.58, 0.0, 10.0, 9.943685 
4.5e+1, 1.2499334e+2, -1719946.3, -1724224.6, 0.00006828636, 0.0000000019561721, 0.000017597811, -1719946.3, -4880.9644, 0.0, 10.0, 9.994328 
4.5e+1, 1.349876e+2, -1622565.8, -1627434.9, 0.000018182802, 0.0000000019331545, -0.00006840359, -1622565.8, -5444.1772, 0.0, 10.0, 9.993545 
4.5e+1, 1.4497513e+2, -1534464.4, -1548146.3, 0.00001801789, 0.0000000019167536, 0.000070916154, -1534464.4, -15220.685, 0.0, 10.0, 9.981865 
4.5e+1, 1.5495701e+2, -1436736.6, -1450821.9, -0.000012565652, 0.000000001906851, -0.000056981502, -1436736.6, -15315.503, 0.0, 10.0, 9.981333 
4.5e+1, 1.6493228e+2, -1348685.8, -1371952.4, -0.0000064984365, 0.000000001893504, 0.000047341266, -1348685.8, -25021.996, 0.0, 10.0, 9.969248 
4.5e+1, 1.7490156e+2, -1250727.6, -1274310.1, -0.000047278685, 0.0000000018766406, -0.000073832365, -1250727.6, -24762.975, 0.0, 10.0, 9.968835 
4.5e+1, 1.8486421e+2, -1162646.8, -1195720.1, -0.000034073026, 0.0000000018636523, 0.00006614319, -1162646.8, -34316.027, 0.0, 10.0, 9.956395 
4.5e+1, 1.9482064e+2, -1064497.0, -1097833.0, -0.00005955883, 0.000000001854718, -0.000057657937, -1064497.0, -33739.363, 0.0, 10.0, 9.956052 
4.5e+1, 2.0477042e+2, -976333.0, -1019435.0, -0.00004063211, 0.0000000018449277, 0.00006807675, -976333.0, -43083.11, 0.0, 10.0, 9.943291 
4.5e+1, 2.1471375e+2, -878046.0, -921409.9, -0.000078505676, 0.0000000018342089, -0.0001268288, -878046.0, -42240.69, 0.0, 10.0, 9.942949 
4.5e+1, 2.2465037e+2, -789759.9, -843144.9, -0.00005732469, 0.0000000018270702, 0.00012087837, -789759.9, -51333.586, 0.0, 10.0, 9.929908 
4.5e+1, 2.3458035e+2, -691326.4, -744966.44, -0.000081312275, 0.000000001823983, -0.0000888192, -691326.4, -50213.82, 0.0, 10.0, 9.929577 
4.5e+1, 2.4450338e+2, -603002.3, -667018.8, -0.000051434297, 0.0000000018157411, 0.00007470808, -603002.3, -59135.418, 0.0, 10.0, 9.916136 
4.5e+1, 2.5441962e+2, -504249.63, -568343.3, -0.000083869825, 0.0000000018013363, -0.00010673751, -504249.63, -57562.08, 0.0, 10.0, 9.916036 
4.5e+1, 2.643288e+2, -416014.22, -490987.88, -0.000052725463, 0.000000001796026, 0.00014059345, -416014.22, -66436.55, 0.0, 10.0, 9.901964 
4.5e+1, 2.742313e+2, -316729.0, -391374.78, -0.0000748184, 0.0000000018023024, -0.00020344478, -316729.0, -64195.996, 0.0, 10.0, 9.902385 
4.5e+1, 2.841256e+2, -230255.75, -318081.25, -0.000034567252, 0.0000000018023982, 0.00022904524, -230255.75, -74686.77, 0.0, 10.0, 9.885439 
4.5e+1, 2.940121e+2, -130549.6, -217765.02, -0.000058363636, 0.0000000017939804, -0.00025334352, -130549.6, -71868.21, 0.0, 10.0, 9.886217 
4.5e+1, 3.0392656e+2, -40805.59, -84750.16, -0.000016368358, 0.0000000017902503, 0.00017313575, -40805.59, -40805.59, 0.0, 10.0, 9.942173 
4.5e+1, 3.138706e+2, -39727.58, -82511.21, -0.000041688952, 0.0000000017935595, -0.00005514294, -39727.58, -39727.58, 0.0, 10.0, 9.943685 
5.5e+1, 1.2499334e+2, -1719946.3, -1724224.6, -0.000033614877, 0.0000000023871103, 0.000017597813, -1719946.3, -4880.965, 0.0, 10.0, 9.994328 
5.5e+1, 1.349876e+2, -1622565.8, -1627434.9, -0.00008374317, 0.0000000023602613, -0.00006840358, -1622565.8, -5444.1772, 0.0, 10.0, 9.993545 
5.5e+1, 1.4497513e+2, -1534464.4, -1548146.3, -0.00007307759, 0.0000000023421447, 0.00007091618, -1534464.4, -15220.685, 0.0, 10.0, 9.981865 
5.5e+1, 1.5495701e+2, -1436736.6, -1450822.0, -0.00010364472, 0.0000000023326236, -0.000056981506, -1436736.6, -15315.503, 0.0, 10.0, 9.981333 
5.5e+1, 1.6493228e+2, -1348685.8, -1371952.4, -0.00008660335, 0.0000000023183566, 0.000047341262, -1348685.8, -25021.996, 0.0, 10.0, 9.969248 
5.5e+1, 1.7490156e+2, -1250727.6, -1274310.1, -0.00012732642, 0.0000000022992428, -0.00007383233, -1250727.6, -24762.975, 0.0, 10.0, 9.968835 
5.5e+1, 1.8486421e+2, -1162646.8, -1195720.1, -0.00010455004, 0.000000002283283, 0.00006614323, -1162646.8, -34316.027, 0.0, 10.0, 9.956395 
5.5e+1, 1.9482064e+2, -1064497.0, -1097833.0, -0.00012992574, 0.0000000022706212, -0.000057657944, -1064497.0, -33739.363, 0.0, 10.0, 9.956052 
5.5e+1, 2.0477042e+2, -976333.0, -1019435.0, -0.00009987273, 0.0000000022578925, 0.00006807673, -976333.0, -43083.11, 0.0, 10.0, 9.943291 
5.5e+1, 2.1471375e+2, -878046.0, -921409.9, -0.00013751729, 0.00000000224509, -0.00012682879, -878046.0, -42240.69, 0.0, 10.0, 9.942949 
5.5e+1, 2.2465037e+2, -789759.9, -843144.9, -0.00010447906, 0.000000002236123, 0.000120878394, -789759.9, -51333.586, 0.0, 10.0, 9.929908 
5.5e+1, 2.3458035e+2, -691326.4, -744966.44, -0.00012807957, 0.0000000022314968, -0.0000888192, -691326.4, -50213.82, 0.0, 10.0, 9.929577 
5.5e+1, 2.4450338e+2, -603002.3, -667018.8, -0.00008334118, 0.0000000022220048, 0.00007470807, -603002.3, -59135.418, 0.0, 10.0, 9.916136 
5.5e+1, 2.5441962e+2, -504249.63, -568343.3, -0.0001150635, 0.0000000022066944, -0.00010673751, -504249.63, -57562.08, 0.0, 10.0, 9.916036 
5.5e+1, 2.643288e+2, -416014.22, -490987.88, -0.000073120355, 0.0000000022006679, 0.00014059346, -416014.22, -66436.55, 0.0, 10.0, 9.901964 
5.5e+1, 2.742313e+2, -316729.0, -391374.78, -0.000094490264, 0.000000002206468, -0.00020344477, -316729.0, -64195.996, 0.0, 10.0, 9.902385 
5.5e+1, 2.841256e+2, -230255.75, -318081.25, -0.00003635451, 0.0000000022063522, 0.00022904525, -230255.75, -74686.77, 0.0, 10.0, 9.885439 
5.5e+1, 2.940121e+2, -130549.6, -217765.02, -0.0000585405, 0.0000000021980837, -0.00025334352, -130549.6, -71868.21, 0.0, 10.0, 9.886217 
5.5e+1, 3.0392656e+2, -40805.59, -84750.16, -0.0000002523043, 0.0000000021909912, 0.00017313575, -40805.59, -40805.59, 0.0, 10.0, 9.942173 
5.5e+1, 3.138706e+2, -39727.58, -82511.21, -0.00002366136, 0.0000000021857232, -0.00005514291, -39727.58, -39727.58, 0.0, 10.0, 9.943685 
6.5e+1, 1.2499334e+2, -1719946.3, -1724224.6, 0.00005548229, 0.0000000028332765, 0.000017597858, -1719946.3, -4880.964, 0.0, 10.0, 9.994328 
6.5e+1, 1.349876e+2, -1622565.8, -1627434.9, 0.0000035761539, 0.000000002793251, -0.00006840358, -1622565.8, -5444.177, 0.0, 10.0, 9.993545 
6.5e+1, 1.4497513e+2, -1534464.4, -1548146.3, 0.000012760436, 0.0000000027683051, 0.0000709162, -1534464.4, -15220.684, 0.0, 10.0, 9.981865 
6.5e+1, 1.5495701e+2, -1436736.6, -1450821.9, -0.000037568516, 0.0000000027583127, -0.000056981487, -1436736.6, -15315.502, 0.0, 10.0, 9.981333 
6.5e+1, 1.6493228e+2, -1348685.8, -1371952.4, -0.000025011095, 0.0000000027435634, 0.000047341284, -1348685.8, -25021.996, 0.0, 10.0, 9.969248 
6.5e+1, 1.7490156e+2, -1250727.6, -1274310.1, -0.000076846954, 0.0000000027239566, -0.000073832314, -1250727.6, -24762.975, 0.0, 10.0, 9.968835 
6.5e+1, 1.8486421e+2, -1162646.8, -1195720.1, -0.000057000914, 0.000000002705784, 0.000066143235, -1162646.8, -34316.027, 0.0, 10.0, 9.956395 
6.5e+1, 1.9482064e+2, -1064497.0, -1097833.0, -0.00009980014, 0.0000000026891105, -0.000057657926, -1064497.0, -33739.363, 0.0, 10.0, 9.956052 
6.5e+1, 2.0477042e+2, -976333.0, -1019435.0, -0.00007154961, 0.0000000026737785, 0.000068076755, -976333.0, -43083.11, 0.0, 10.0, 9.943291 
6.5e+1, 2.1471375e+2, -878046.0, -921409.9, -0.00011725924, 0.0000000026598983, -0.00012682877, -878046.0, -42240.69, 0.0, 10.0, 9.942949 
6.5e+1, 2.2465037e+2, -789759.9, -843144.9, -0.000084602296, 0.0000000026480163, 0.0001208784, -789759.9, -51333.586, 0.0, 10.0, 9.929908 
6.5e+1, 2.3458035e+2, -691326.4, -744966.44, -0.00012551244, 0.0000000026383935, -0.000088819186, -691326.4, -50213.82, 0.0, 10.0, 9.929577 
6.5e+1, 2.4450338e+2, -603002.3, -667018.8, -0.000080188154, 0.0000000026288103, 0.000074708085, -603002.3, -59135.418, 0.0, 10.0, 9.916136 
6.5e+1, 2.5441962e+2, -504249.63, -568343.3, -0.00011788736, 0.0000000026192695, -0.00010673751, -504249.63, -57562.08, 0.0, 10.0, 9.916036 
6.5e+1, 2.643288e+2, -416014.22, -490987.88, -0.00007314459, 0.0000000026124272, 0.00014059346, -416014.22, -66436.55, 0.0, 10.0, 9.901964 
6.5e+1, 2.742313e+2, -316729.0, -391374.78, -0.000110901055, 0.0000000026090161, -0.00020344477, -316729.0, -64195.996, 0.0, 10.0, 9.902385 
6.5e+1, 2.841256e+2, -230255.73, -318081.25, -0.000051865256, 0.0000000026052416, 0.00022904525, -230255.73, -74686.766, 0.0, 10.0, 9.885439 
6.5e+1, 2.940121e+2, -130549.6, -217765.02, -0.00008433752, 0.000000002600952, -0.00025334352, -130549.6, -71868.21, 0.0, 10.0, 9.886217 
6.5e+1, 3.0392656e+2, -40805.59, -84750.16, -0.000019303057, 0.0000000025949662, 0.00017313575, -40805.59, -40805.59, 0.0, 10.0, 9.942173 
6.5e+1, 3.138706e+2, -39727.58, -82511.21, -0.000050853236, 0.000000002586471, -0.00005514291, -39727.58, -39727.58, 0.0, 10.0, 9.943685 
7.5e+1, 1.2499334e+2, -1719946.3, -1724224.6, -0.000046615616, 0.000000003294671, 0.00001759795, -1719946.3, -4880.964, 0.0, 10.0, 9.994328 
7.5e+1, 1.349876e+2, -1622565.8, -1627434.9, -0.00009854661, 0.0000000032321237, -0.00006840359, -1622565.8, -5444.177, 0.0, 10.0, 9.993545 
7.5e+1, 1.4497513e+2, -1534464.4, -1548146.3, -0.00008251809, 0.0000000031952352, 0.0000709162, -1534464.4, -15220.685, 0.0, 10.0, 9.981865 
7.5e+1, 1.5495701e+2, -1436736.6, -1450821.9, -0.0001328369, 0.0000000031839178, -0.000056981444, -1436736.6, -15315.502, 0.0, 10.0, 9.981333 
7.5e+1, 1.6493228e+2, -1348685.8, -1371952.4, -0.00010988295, 0.0000000031691245, 0.000047341324, -1348685.8, -25021.996, 0.0, 10.0, 9.969248 
7.5e+1, 1.7490156e+2, -1250727.6, -1274310.1, -0.00016166468, 0.0000000031507819, -0.00007383232, -1250727.6, -24762.975, 0.0, 10.0, 9.968835 
7.5e+1, 1.8486421e+2, -1162646.8, -1195720.1, -0.00012929324, 0.000000003131156, 0.00006614323, -1162646.8, -34316.027, 0.0, 10.0, 9.956395 
7.5e+1, 1.9482064e+2, -1064497.0, -1097833.0, -0.00017194818, 0.0000000031101857, -0.000057657886, -1064497.0, -33739.363, 0.0, 10.0, 9.956052 
7.5e+1, 2.0477042e+2, -976333.0, -1019435.0, -0.00013267645, 0.0000000030925855, 0.00006807679, -976333.0, -43083.11, 0.0, 10.0, 9.943291 
7.5e+1, 2.1471375e+2, -878046.0, -921409.9, -0.00017815921, 0.0000000030786338, -0.00012682879, -878046.0, -42240.69, 0.0, 10.0, 9.942949 
7.5e+1, 2.2465037e+2, -789759.9, -843144.9, -0.000133097, 0.0000000030627494, 0.00012087839, -789759.9, -51333.586, 0.0, 10.0, 9.929908 
7.5e+1, 2.3458035e+2, -691326.4, -744966.44, -0.00017360217, 0.0000000030446734, -0.000088819164, -691326.4, -50213.82, 0.0, 10.0, 9.929577 
7.5e+1, 2.4450338e+2, -603002.3, -667018.8, -0.00011688042, 0.0000000030361578, 0.000074708114, -603002.3, -59135.418, 0.0, 10.0, 9.916136 
7.5e+1, 2.5441962e+2, -504249.63, -568343.3, -0.00015403282, 0.0000000030390614, -0.00010673751, -504249.63, -57562.08, 0.0, 10.0, 9.916036 
7.5e+1, 2.643288e+2, -416014.22, -490987.88, -0.000092010465, 0.0000000030313034, 0.00014059345, -416014.22, -66436.55, 0.0, 10.0, 9.901964 
7.5e+1, 2.742313e+2, -316729.0, -391374.78, -0.00012860943, 0.0000000030099467, -0.00020344475, -316729.0, -64195.996, 0.0, 10.0, 9.902385 
7.5e+1, 2.841256e+2, -230255.73, -318081.25, -0.00005566689, 0.0000000029990668, 0.00022904527, -230255.73, -74686.77, 0.0, 10.0, 9.885439 
7.5e+1, 2.940121e+2, -130549.6, -217765.02, -0.00008688721, 0.0000000030025853, -0.0002533435, -130549.6, -71868.21, 0.0, 10.0, 9.886217 
7.5e+1, 3.0392656e+2, -40805.59, -84750.16, -0.0000031471548, 0.0000000030021754, 0.00017313575, -40805.59, -40805.59, 0.0, 10.0, 9.942173 
7.5e+1, 3.138706e+2, -39727.58, -82511.21, -0.000032502594, 0.0000000029958032, -0.00005514293, -39727.58, -39727.58, 0.0, 10.0, 9.943685 
8.5e+1, 1.2499334e+2, -1719946.3, -1724224.6, 0.0000368034, 0.000000003755369, 0.000017598015, -1719946.3, -4880.9634, 0.0, 10.0, 9.994328 
8.5e+1, 1.349876e+2, -1622565.8, -1627434.9, -0.000012817697, 0.0000000036802954, -0.000068403584, -1622565.8, -5444.176, 0.0, 10.0, 9.993545 
8.5e+1, 1.4497513e+2, -1534464.4, -1548146.3, 0.00000075549605, 0.000000003634722, 0.00007091623, -1534464.4, -15220.684, 0.0, 10.0, 9.981865 
8.5e+1, 1.5495701e+2, -1436736.6, -1450821.9, -0.000071930546, 0.0000000036185563, -0.0000569814, -1436736.6, -15315.501, 0.0, 10.0, 9.981333 
8.5e+1, 1.6493228e+2, -1348685.8, -1371952.4, -0.00005044109, 0.000000003599648, 0.000047341357, -1348685.8, -25021.994, 0.0, 10.0, 9.969248 
8.5e+1, 1.7490156e+2, -1250727.6, -1274310.1, -0.00010092037, 0.0000000035779386, -0.00007383232, -1250727.6, -24762.975, 0.0, 10.0, 9.968835 
8.5e+1, 1.8486421e+2, -1162646.8, -1195720.1, -0.00007047183, 0.0000000035561438, 0.00006614323, -1162646.8, -34316.027, 0.0, 10.0, 9.956395 
8.5e+1, 1.9482064e+2, -1064497.0, -1097833.0, -0.00014316896, 0.0000000035342573, -0.000057657853, -1064497.0, -33739.36, 0.0, 10.0, 9.956052 
8.5e+1, 2.0477042e+2, -976333.0, -1019435.0, -0.00010796003, 0.0000000035150982, 0.00006807683, -976333.0, -43083.105, 0.0, 10.0, 9.943291 
8.5e+1, 2.1471375e+2, -878046.0, -921409.9, -0.00015348518, 0.000000003498891, -0.00012682877, -878046.0, -42240.69, 0.0, 10.0, 9.942949 
8.5e+1, 2.2465037e+2, -789759.9, -843144.9, -0.000105580075, 0.0000000034807588, 0.00012087839, -789759.9, -51333.586, 0.0, 10.0, 9.929908 
8.5e+1, 2.3458035e+2, -691326.4, -744966.44, -0.00016701424, 0.0000000034604444, -0.00008881915, -691326.4, -50213.82, 0.0, 10.0, 9.929577 
8.5e+1, 2.4450338e+2, -603002.3, -667018.8, -0.000114068476, 0.0000000034505259, 0.000074708136, -603002.3, -59135.418, 0.0, 10.0, 9.916136 
8.5e+1, 2.5441962e+2, -504249.63, -568343.3, -0.00015860901, 0.0000000034530245, -0.000106737505, -504249.63, -57562.074, 0.0, 10.0, 9.916036 
8.5e+1, 2.643288e+2, -416014.22, -490987.88, -0.0000894081, 0.0000000034435097, 0.00014059345, -416014.22, -66436.55, 0.0, 10.0, 9.901964 
8.5e+1, 2.742313e+2, -316729.0, -391374.78, -0.00013979895, 0.0000000034186738, -0.00020344475, -316729.0, -64195.996, 0.0, 10.0, 9.902385 
8.5e+1, 2.841256e+2, -230255.73, -318081.25, -0.00006809528, 0.0000000034057377, 0.00022904528, -230255.73, -74686.766, 0.0, 10.0, 9.885439 
8.5e+1, 2.940121e+2, -130549.6, -217765.02, -0.000110067725, 0.0000000034091556, -0.0002533435, -130549.6, -71868.21, 0.0, 10.0, 9.886217 
8.5e+1, 3.0392656e+2, -40805.59, -84750.16, -0.0000148731415, 0.0000000034119245, 0.00017313576, -40805.59, -40805.59, 0.0, 10.0, 9.942173 
8.5e+1, 3.138706e+2, -39727.58, -82511.21, -0.000039441744, 0.00000000341358, -0.00005514296, -39727.58, -39727.58, 0.0, 10.0, 9.943685 
9.5e+1, 1.2499334e+2, -1719946.3, -1724224.6, -0.00006570002, 0.0000000042153703, 0.000017598055, -1719946.3, -4880.9634, 0.0, 10.0, 9.994328 
9.5e+1, 1.349876e+2, -1622565.8, -1627434.9, -0.000115345974, 0.000000004137766, -0.00006840357, -1622565.8, -5444.1763, 0.0, 10.0, 9.993545 
9.5e+1, 1.4497513e+2, -1534464.4, -1548146.3, -0.0000944009, 0.0000000040867665, 0.00007091628, -1534464.4, -15220.684, 0.0, 10.0, 9.981865 
9.5e+1, 1.5495701e+2, -1436736.6, -1450822.0, -0.00016707595, 0.0000000040622283, -0.000056981356, -1436736.6, -15315.501, 0.0, 10.0, 9.981333 
9.5e+1, 1.6493228e+2, -1348685.8, -1371952.4, -0.00013821566, 0.0000000040351336, 0.000047341382, -1348685.8, -25021.994, 0.0, 10.0, 9.969248 
9.5e+1, 1.7490156e+2, -1250727.6, -1274310.1, -0.00018865675, 0.0000000040054267, -0.00007383232, -1250727.6, -24762.975, 0.0, 10.0, 9.968835 
9.5e+1, 1.8486421e+2, -1162646.8, -1195720.1, -0.00014708986, 0.0000000039807473, 0.000066143235, -1162646.8, -34316.027, 0.0, 10.0, 9.956395 
9.5e+1, 1.9482064e+2, -1064497.0, -1097833.0, -0.00021965898, 0.000000003961326, -0.000057657824, -1064497.0, -33739.36, 0.0, 10.0, 9.956052 
9.5e+1, 2.0477042e+2, -976333.0, -1019435.0, -0.00017237956, 0.000000003941317, 0.000068076864, -976333.0, -43083.105, 0.0, 10.0, 9.943291 
9.5e+1, 2.1471375e+2, -878046.0, -921409.9, -0.00021765617, 0.000000003920669, -0.00012682876, -878046.0, -42240.69, 0.0, 10.0, 9.942949 
9.5e+1, 2.2465037e+2, -789759.9, -843144.9, -0.00015660182, 0.0000000039020445, 0.000120878394, -789759.9, -51333.586, 0.0, 10.0, 9.929908 
9.5e+1, 2.3458035e+2, -691326.4, -744966.44, -0.00021760668, 0.0000000038857064, -0.000088819135, -691326.4, -50213.82, 0.0, 10.0, 9.929577 
9.5e+1, 2.4450338e+2, -603002.3, -667018.8, -0.00015336787, 0.0000000038719143, 0.00007470814, -603002.3, -59135.418, 0.0, 10.0, 9.916136 
9.5e+1, 2.5441962e+2, -504249.63, -568343.3, -0.00019736664, 0.0000000038611585, -0.00010673748, -504249.63, -57562.074, 0.0, 10.0, 9.916036 
9.5e+1, 2.643288e+2, -416014.22, -490987.88, -0.00010917674, 0.0000000038490464, 0.00014059346, -416014.22, -66436.55, 0.0, 10.0, 9.901964 
9.5e+1, 2.742313e+2, -316729.0, -391374.78, -0.0001582955, 0.000000003835197, -0.00020344475, -316729.0, -64195.996, 0.0, 10.0, 9.902385 
9.5e+1, 2.841256e+2, -230255.73, -318081.25, -0.00007558427, 0.0000000038252543, 0.00022904528, -230255.73, -74686.766, 0.0, 10.0, 9.885439 
9.5e+1, 2.940121e+2, -130549.6, -217765.02, -0.00011656605, 0.000000003820663, -0.0002533435, -130549.6, -71868.21, 0.0, 10.0, 9.886217 
9.5e+1, 3.0392656e+2, -40805.59, -84750.16, -0.00000578821, 0.0000000038242134, 0.00017313576, -40805.59, -40805.59, 0.0, 10.0, 9.942173 
9.5e+1, 3.138706e+2, -39727.58, -82511.21, -0.000028528677, 0.0000000038398014, -0.000055142988, -39727.58, -39727.58, 0.0, 10.0, 9.943685 
1.05e+2, 1.2499334e+2, -1719946.3, -1724224.6, 0.000079379744, 0.0000000046624185, 0.000017598046, -1719946.3, -4880.9624, 0.0, 10.0, 9.994328 
1.05e+2, 1.349876e+2, -1622565.8, -1627434.9, -0.00001834196, 0.000000004588675, -0.00006840353, -1622565.8, -5444.175, 0.0, 10.0, 9.993545 
1.05e+2, 1.4497513e+2, -1534464.4, -1548146.3, -0.000011483337, 0.0000000045381574, 0.00007091636, -1534464.4, -15220.683, 0.0, 10.0, 9.981865 
1.05e+2, 1.5495701e+2, -1436736.6, -1450821.9, -0.000085967695, 0.0000000045106807, -0.000056981346, -1436736.6, -15315.5, 0.0, 10.0, 9.981333 
1.05e+2, 1.6493228e+2, -1348685.8, -1371952.4, -0.00006149455, 0.0000000044779056, 0.000047341386, -1348685.8, -25021.994, 0.0, 10.0, 9.969248 
1.05e+2, 1.7490156e+2, -1250727.6, -1274310.1, -0.00013966215, 0.0000000044397193, -0.00007383227, -1250727.6, -24762.973, 0.0, 10.0, 9.968835 
1.05e+2, 1.8486421e+2, -1162646.8, -1195720.1, -0.00010228011, 0.000000004410969, 0.00006614328, -1162646.8, -34316.027, 0.0, 10.0, 9.956395 
1.05e+2, 1.9482064e+2, -1064497.0, -1097833.0, -0.0001727526, 0.000000004392089, -0.00005765782, -1064497.0, -33739.36, 0.0, 10.0, 9.956052 
1.05e+2, 2.0477042e+2, -976333.0, -1019435.0, -0.00012564224, 0.0000000043703565, 0.00006807686, -976333.0, -43083.105, 0.0, 10.0, 9.943291 
1.05e+2, 2.1471375e+2, -878046.0, -921409.9, -0.00019929784, 0.000000004345531, -0.00012682873, -878046.0, -42240.69, 0.0, 10.0, 9.942949 
1.05e+2, 2.2465037e+2, -789759.9, -843144.9, -0.0001408181, 0.0000000043266204, 0.00012087843, -789759.9, -51333.586, 0.0, 10.0, 9.929908 
1.05e+2, 2.3458035e+2, -691326.4, -744966.44, -0.0002024049, 0.0000000043144044, -0.000088819135, -691326.4, -50213.82, 0.0, 10.0, 9.929577 
1.05e+2, 2.4450338e+2, -603002.3, -667018.8, -0.0001347579, 0.000000004296569, 0.00007470814, -603002.3, -59135.418, 0.0, 10.0, 9.916136 
1.05e+2, 2.5441962e+2, -504249.63, -568343.3, -0.00020226912, 0.0000000042720107, -0.00010673746, -504249.63, -57562.074, 0.0, 10.0, 9.916036 
1.05e+2, 2.643288e+2, -416014.22, -490987.88, -0.00011628496, 0.0000000042583514, 0.00014059349, -416014.22, -66436.55, 0.0, 10.0, 9.901964 
1.05e+2, 2.742313e+2, -316729.0, -391374.78, -0.00016741382, 0.000000004258574, -0.00020344475, -316729.0, -64195.996, 0.0, 10.0, 9.902385 
1.05e+2, 2.841256e+2, -230255.73, -318081.25, -0.00007541544, 0.000000004253457, 0.00022904527, -230255.73, -74686.766, 0.0, 10.0, 9.885439 
1.05e+2, 2.940121e+2, -130549.6, -217765.02, -0.00012718844, 0.000000004240964, -0.0002533435, -130549.6, -71868.21, 0.0, 10.0, 9.886217 
1.05e+2, 3.0392656e+2, -40805.59, -84750.16, -0.000017494596, 0.00000000423946, 0.00017313576, -40805.59, -40805.59, 0.0, 10.0, 9.942173 
1.05e+2, 3.138706e+2, -39727.58, -82511.21, -0.000061287465, 0.0000000042543378, -0.000055142977, -39727.58, -39727.58, 0.0, 10.0, 9.943685 
1.15e+2, 1.2499334e+2, -1719946.3, -1724224.6, -0.00003442519, 0.0000000050965143, 0.000017597986, -1719946.3, -4880.9624, 0.0, 10.0, 9.994328 
1.15e+2, 1.349876e+2, -1622565.8, -1627434.9, -0.00013217473, 0.000000005033022, -0.00006840349, -1622565.8, -5444.1753, 0.0, 10.0, 9.993545 
1.15e+2, 1.4497513e+2, -1534464.4, -1548146.3, -0.0001116325, 0.0000000049888955, 0.00007091647, -1534464.4, -15220.683, 0.0, 10.0, 9.981865 
1.15e+2, 1.5495701e+2, -1436736.6, -1450822.0, -0.00018609586, 0.0000000049639133, -0.00005698136, -1436736.6, -15315.501, 0.0, 10.0, 9.981333 
1.15e+2, 1.6493228e+2, -1348685.8, -1371952.4, -0.00014926787, 0.0000000049279643, 0.00004734136, -1348685.8, -25021.994, 0.0, 10.0, 9.969248 
1.15e+2, 1.7490156e+2, -1250727.6, -1274310.1, -0.00022737097, 0.0000000048808158, -0.00007383219, -1250727.6, -24762.973, 0.0, 10.0, 9.968835 
1.15e+2, 1.8486421e+2, -1162646.8, -1195720.1, -0.00018361064, 0.0000000048468083, 0.000066143366, -1162646.8, -34316.027, 0.0, 10.0, 9.956395 
1.15e+2, 1.9482064e+2, -1064497.0, -1097833.0, -0.00025401, 0.000000004826547, -0.000057657842, -1064497.0, -33739.36, 0.0, 10.0, 9.956052 
1.15e+2, 2.0477042e+2, -976333.0, -1019435.0, -0.00019453287, 0.000000004802217, 0.00006807682, -976333.0, -43083.105, 0.0, 10.0, 9.943291 
1.15e+2, 2.1471375e+2, -878046.0, -921409.9, -0.00026793385, 0.0000000047734754, -0.00012682869, -878046.0, -42240.69, 0.0, 10.0, 9.942949 
1.15e+2, 2.2465037e+2, -789759.9, -843144.9, -0.00019675674, 0.0000000047544875, 0.000120878496, -789759.9, -51333.586, 0.0, 10.0, 9.929908 
1.15e+2, 2.3458035e+2, -691326.4, -744966.44, -0.00025792903, 0.0000000047465387, -0.000088819135, -691326.4, -50213.82, 0.0, 10.0, 9.929577 
1.15e+2, 2.4450338e+2, -603002.3, -667018.8, -0.00017196697, 0.0000000047244892, 0.00007470813, -603002.3, -59135.418, 0.0, 10.0, 9.916136 
1.15e+2, 2.5441962e+2, -504249.63, -568343.3, -0.00023859902, 0.0000000046855813, -0.00010673744, -504249.63, -57562.074, 0.0, 10.0, 9.916036 
1.15e+2, 2.643288e+2, -416014.22, -490987.88, -0.00014646104, 0.0000000046714255, 0.00014059352, -416014.22, -66436.55, 0.0, 10.0, 9.901964 
1.15e+2, 2.742313e+2, -316729.0, -391374.78, -0.0001971784, 0.0000000046888053, -0.00020344474, -316729.0, -64195.996, 0.0, 10.0, 9.902385 
1.15e+2, 2.841256e+2, -230255.73, -318081.25, -0.00008413055, 0.000000004690346, 0.00022904527, -230255.73, -74686.766, 0.0, 10.0, 9.885439 
1.15e+2, 2.940121e+2, -130549.6, -217765.02, -0.00013400812, 0.0000000046700595, -0.00025334352, -130549.6, -71868.21, 0.0, 10.0, 9.886217 
1.15e+2, 3.0392656e+2, -40805.59, -84750.16, -0.000009242376, 0.0000000046576636, 0.00017313575, -40805.59, -40805.59, 0.0, 10.0, 9.942173 
1.15e+2, 3.138706e+2, -39727.58, -82511.21, -0.00005126722, 0.0000000046571884, -0.000055142926, -39727.58, -39727.58, 0.0, 10.0, 9.943685 
1.25e+2, 1.2499334e+2, -1719946.3, -1724224.6, 0.00009685219, 0.0000000055515583, 0.00001759802, -1719946.3, -4880.961, 0.0, 10.0, 9.994328 
1.25e+2, 1.349876e+2, -1622565.8, -1627434.9, -0.000023212591, 0.0000000054785536, -0.000068403475, -1622565.8, -5444.174, 0.0, 10.0, 9.993545 
1.25e+2, 1.4497513e+2, -1534464.4, -1548146.3, -0.000008991599, 0.0000000054315397, 0.000070916525, -1534464.4, -15220.682, 0.0, 10.0, 9.981865 
1.25e+2, 1.5495701e+2, -1436736.6, -1450821.9, -0.00009626075, 0.000000005410326, -0.000056981342, -1436736.6, -15315.499, 0.0, 10.0, 9.981333 
1.25e+2, 1.6493228e+2, -1348685.8, -1371952.4, -0.00006702992, 0.0000000053769043, 0.000047341375, -1348685.8, -25021.992, 0.0, 10.0, 9.969248 
1.25e+2, 1.7490156e+2, -1250727.6, -1274310.1, -0.00017583197, 0.000000005331015, -0.00007383214, -1250727.6, -24762.973, 0.0, 10.0, 9.968835 
1.25e+2, 1.8486421e+2, -1162646.8, -1195720.1, -0.00013714083, 0.000000005294021, 0.000066143424, -1162646.8, -34316.027, 0.0, 10.0, 9.956395 
1.25e+2, 1.9482064e+2, -1064497.0, -1097833.0, -0.00020595737, 0.000000005266331, -0.000057657828, -1064497.0, -33739.36, 0.0, 10.0, 9.956052 
1.25e+2, 2.0477042e+2, -976333.0, -1019435.0, -0.00014475398, 0.000000005238055, 0.00006807683, -976333.0, -43083.105, 0.0, 10.0, 9.943291 
1.25e+2, 2.1471375e+2, -878046.0, -921409.9, -0.00024075485, 0.0000000052091407, -0.00012682866, -878046.0, -42240.69, 0.0, 10.0, 9.942949 
1.25e+2, 2.2465037e+2, -789759.9, -843144.9, -0.00017354064, 0.000000005187282, 0.000120878525, -789759.9, -51333.586, 0.0, 10.0, 9.929908 
1.25e+2, 2.3458035e+2, -691326.4, -744966.44, -0.0002450303, 0.0000000051734075, -0.00008881911, -691326.4, -50213.816, 0.0, 10.0, 9.929577 
1.25e+2, 2.4450338e+2, -603002.3, -667018.8, -0.00015362988, 0.0000000051513136, 0.000074708136, -603002.3, -59135.414, 0.0, 10.0, 9.916136 
1.25e+2, 2.5441962e+2, -504249.63, -568343.3, -0.0002296719, 0.000000005119389, -0.00010673743, -504249.63, -57562.074, 0.0, 10.0, 9.916036 
1.25e+2, 2.643288e+2, -416014.22, -490987.88, -0.00014024605, 0.00000000510547, 0.00014059353, -416014.22, -66436.55, 0.0, 10.0, 9.901964 
1.25e+2, 2.742313e+2, -316729.0, -391374.78, -0.0002065882, 0.0000000051144826, -0.00020344472, -316729.0, -64195.992, 0.0, 10.0, 9.902385 
1.25e+2, 2.841256e+2, -230255.73, -318081.25, -0.00008858381, 0.0000000051127182, 0.00022904527, -230255.73, -74686.766, 0.0, 10.0, 9.885439 
1.25e+2, 2.940121e+2, -130549.6, -217765.02, -0.00015046322, 0.0000000050960955, -0.00025334352, -130549.6, -71868.2, 0.0, 10.0, 9.886217 
1.25e+2, 3.0392656e+2, -40805.586, -84750.16, -0.000027406353, 0.000000005080749, 0.00017313576, -40805.586, -40805.586, 0.0, 10.0, 9.942173 
1.25e+2, 3.138706e+2, -39727.58, -82511.21, -0.00009538202, 0.0000000050674447, -0.000055142893, -39727.58, -39727.58, 0.0, 10.0, 9.943684 
1.35e+2, 1.2499334e+2, -1719946.3, -1724224.6, -0.000022563383, 0.0000000060275513, 0.000017598148, -1719946.3, -4880.9614, 0.0, 10.0, 9.994328 
1.35e+2, 1.349876e+2, -1622565.8, -1627434.9, -0.00014265763, 0.0000000059252705, -0.00006840349, -1622565.8, -5444.1743, 0.0, 10.0, 9.993545 
1.35e+2, 1.4497513e+2, -1534464.4, -1548146.3, -0.00012056845, 0.0000000058660903, 0.00007091653, -1534464.4, -15220.682, 0.0, 10.0, 9.981865 
1.35e+2, 1.5495701e+2, -1436736.6, -1450821.9, -0.00020782585, 0.000000005849919, -0.000056981295, -1436736.6, -15315.499, 0.0, 10.0, 9.981333 
1.35e+2, 1.6493228e+2, -1348685.8, -1371952.4, -0.00016362367, 0.000000005824725, 0.000047341426, -1348685.8, -25021.992, 0.0, 10.0, 9.969248 
1.35e+2, 1.7490156e+2, -1250727.6, -1274310.1, -0.00027234733, 0.0000000057903176, -0.00007383211, -1250727.6, -24762.973, 0.0, 10.0, 9.968835 
1.35e+2, 1.8486421e+2, -1162646.8, -1195720.1, -0.0002207597, 0.000000005752608, 0.000066143446, -1162646.8, -34316.027, 0.0, 10.0, 9.956395 
1.35e+2, 1.9482064e+2, -1064497.0, -1097833.0, -0.0002894277, 0.0000000057114398, -0.000057657777, -1064497.0, -33739.36, 0.0, 10.0, 9.956052 
1.35e+2, 2.0477042e+2, -976333.0, -1019435.0, -0.00021740087, 0.0000000056778697, 0.00006807688, -976333.0, -43083.105, 0.0, 10.0, 9.943291 
1.35e+2, 2.1471375e+2, -878046.0, -921409.9, -0.00031317899, 0.000000005652526, -0.00012682866, -878046.0, -42240.69, 0.0, 10.0, 9.942949 
1.35e+2, 2.2465037e+2, -789759.9, -843144.9, -0.00023269212, 0.0000000056250045, 0.000120878525, -789759.9, -51333.586, 0.0, 10.0, 9.929908 
1.35e+2, 2.3458035e+2, -691326.4, -744966.44, -0.00030374847, 0.000000005595011, -0.00008881907, -691326.4, -50213.816, 0.0, 10.0, 9.929577 
1.35e+2, 2.4450338e+2, -603002.3, -667018.8, -0.00019917768, 0.000000005577042, 0.00007470818, -603002.3, -59135.414, 0.0, 10.0, 9.916136 
1.35e+2, 2.5441962e+2, -504249.63, -568343.3, -0.0002745878, 0.000000005573434, -0.00010673744, -504249.63, -57562.074, 0.0, 10.0, 9.916036 
1.35e+2, 2.643288e+2, -416014.22, -490987.88, -0.00017126625, 0.000000005560484, 0.00014059352, -416014.22, -66436.55, 0.0, 10.0, 9.901964 
1.35e+2, 2.742313e+2, -316729.0, -391374.78, -0.00023667792, 0.000000005535605, -0.00020344471, -316729.0, -64195.992, 0.0, 10.0, 9.902385 
1.35e+2, 2.841256e+2, -230255.73, -318081.25, -0.000099379555, 0.000000005520574, 0.00022904531, -230255.73, -74686.766, 0.0, 10.0, 9.885439 
1.35e+2, 2.940121e+2, -130549.6, -217765.02, -0.00015952176, 0.000000005519072, -0.0002533435, -130549.6, -71868.2, 0.0, 10.0, 9.886217 
1.35e+2, 3.0392656e+2, -40805.59, -84750.16, -0.000016241893, 0.0000000055087175, 0.00017313576, -40805.59, -40805.59, 0.0, 10.0, 9.942173 
1.35e+2, 3.138706e+2, -39727.58, -82511.21, -0.00008184488, 0.000000005485106, -0.00005514289, -39727.58, -39727.58, 0.0, 10.0, 9.943684 
1.45e+2, 1.2499334e+2, -1719946.3, -1724224.6, 0.000037142832, 0.0000000065207764, 0.000017598306, -1719946.3, -4880.96, 0.0, 10.0, 9.994328 
1.45e+2, 1.349876e+2, -1622565.8, -1627434.9, -0.00004652324, 0.0000000063976975, -0.0000684035, -1622565.8, -5444.1724, 0.0, 10.0, 9.993545 
1.45e+2, 1.4497513e+2, -1534464.4, -1548146.3, -0.000017659211, 0.0000000063252013, 0.00007091656, -1534464.4, -15220.68, 0.0, 10.0, 9.981865 
1.45e+2, 1.5495701e+2, -1436736.6, -1450821.9, -0.00014066063, 0.000000006303232, -0.000056981215, -1436736.6, -15315.498, 0.0, 10.0, 9.981333 
1.45e+2, 1.6493228e+2, -1348685.8, -1371952.4, -0.000096257805, 0.0000000062771117, 0.0000473415, -1348685.8, -25021.992, 0.0, 10.0, 9.969248 
1.45e+2, 1.7490156e+2, -1250727.6, -1274310.1, -0.00018883147, 0.000000006246753, -0.00007383212, -1250727.6, -24762.97, 0.0, 10.0, 9.968835 
1.45e+2, 1.8486421e+2, -1162646.8, -1195720.1, -0.00013690999, 0.000000006208656, 0.00006614343, -1162646.8, -34316.023, 0.0, 10.0, 9.956395 
1.45e+2, 1.9482064e+2, -1064497.0, -1097833.0, -0.00025466006, 0.000000006162457, -0.00005765771, -1064497.0, -33739.36, 0.0, 10.0, 9.956052 
1.45e+2, 2.0477042e+2, -976333.0, -1019435.0, -0.00018995364, 0.000000006126125, 0.00006807695, -976333.0, -43083.105, 0.0, 10.0, 9.943291 
1.45e+2, 2.1471375e+2, -878046.0, -921409.9, -0.00027177483, 0.000000006100476, -0.00012682864, -878046.0, -42240.688, 0.0, 10.0, 9.942949 
1.45e+2, 2.2465037e+2, -789759.9, -843144.9, -0.00018450069, 0.0000000060693948, 0.00012087852, -789759.9, -51333.582, 0.0, 10.0, 9.929908 
1.45e+2, 2.3458035e+2, -691326.4, -744966.44, -0.00028575986, 0.0000000060321557, -0.00008881904, -691326.4, -50213.816, 0.0, 10.0, 9.929577 
1.45e+2, 2.4450338e+2, -603002.3, -667018.8, -0.00018808643, 0.0000000060151093, 0.000074708216, -603002.3, -59135.414, 0.0, 10.0, 9.916136 
1.45e+2, 2.5441962e+2, -504249.63, -568343.3, -0.0002640267, 0.000000006022185, -0.00010673743, -504249.63, -57562.074, 0.0, 10.0, 9.916036 
1.45e+2, 2.643288e+2, -416014.22, -490987.88, -0.00014998915, 0.000000006007158, 0.00014059352, -416014.22, -66436.55, 0.0, 10.0, 9.901964 
1.45e+2, 2.742313e+2, -316729.0, -391374.78, -0.00023828013, 0.0000000059639387, -0.0002034447, -316729.0, -64195.992, 0.0, 10.0, 9.902385 
1.45e+2, 2.841256e+2, -230255.73, -318081.25, -0.00010837187, 0.000000005941093, 0.00022904533, -230255.73, -74686.766, 0.0, 10.0, 9.885439 
1.45e+2, 2.940121e+2, -130549.6, -217765.02, -0.00018075881, 0.0000000059462537, -0.00025334346, -130549.6, -71868.2, 0.0, 10.0, 9.886217 
1.45e+2, 3.0392656e+2, -40805.586, -84750.16, -0.000020641797, 0.0000000059434884, 0.00017313578, -40805.586, -40805.586, 0.0, 10.0, 9.942173 
1.45e+2, 3.138706e+2, -39727.574, -82511.21, -0.00006929095, 0.0000000059287038, -0.00005514293, -39727.574, -39727.574, 0.0, 10.0, 9.943684 
1.55e+2, 1.2499334e+2, -1719946.3, -1724224.6, -0.00007925217, 0.000000007031234, 0.000017598491, -1719946.3, -4880.96, 0.0, 10.0, 9.994328 
1.55e+2, 1.349876e+2, -1622565.8, -1627434.9, -0.00016294669, 0.000000006895835, -0.00006840349, -1622565.8, -5444.173, 0.0, 10.0, 9.993545 
1.55e+2, 1.4497513e+2, -1534464.4, -1548146.3, -0.00013036886, 0.000000006808873, 0.000070916605, -1534464.4, -15220.681, 0.0, 10.0, 9.981865 
1.55e+2, 1.5495701e+2, -1436736.6, -1450821.9, -0.00025336503, 0.0000000067702652, -0.000056981098, -1436736.6, -15315.498, 0.0, 10.0, 9.981333 
1.55e+2, 1.6493228e+2, -1348685.8, -1371952.4, -0.00020408156, 0.000000006734065, 0.000047341586, -1348685.8, -25021.992, 0.0, 10.0, 9.969248 
1.55e+2, 1.7490156e+2, -1250727.6, -1274310.1, -0.0002966301, 0.0000000067003216, -0.000073832154, -1250727.6, -24762.97, 0.0, 10.0, 9.968835 
1.55e+2, 1.8486421e+2, -1162646.8, -1195720.1, -0.0002262025, 0.000000006662164, 0.000066143395, -1162646.8, -34316.023, 0.0, 10.0, 9.956395 
1.55e+2, 1.9482064e+2, -1064497.0, -1097833.0, -0.000343739, 0.000000006619383, -0.000057657628, -1064497.0, -33739.36, 0.0, 10.0, 9.956052 
1.55e+2, 2.0477042e+2, -976333.0, -1019435.0, -0.00026691222, 0.0000000065828205, 0.00006807705, -976333.0, -43083.105, 0.0, 10.0, 9.943291 
1.55e+2, 2.1471375e+2, -878046.0, -921409.9, -0.0003484839, 0.000000006552991, -0.00012682863, -878046.0, -42240.688, 0.0, 10.0, 9.942949 
1.55e+2, 2.2465037e+2, -789759.9, -843144.9, -0.00024737633, 0.000000006520452, 0.0001208785, -789759.9, -51333.582, 0.0, 10.0, 9.929908 
1.55e+2, 2.3458035e+2, -691326.4, -744966.44, -0.00034818388, 0.00000000648484, -0.00008881902, -691326.4, -50213.816, 0.0, 10.0, 9.929577 
1.55e+2, 2.4450338e+2, -603002.3, -667018.8, -0.00024349529, 0.0000000064655143, 0.00007470826, -603002.3, -59135.414, 0.0, 10.0, 9.916136 
1.55e+2, 2.5441962e+2, -504249.63, -568343.3, -0.00031909952, 0.000000006465641, -0.00010673741, -504249.63, -57562.074, 0.0, 10.0, 9.916036 
1.55e+2, 2.643288e+2, -416014.22, -490987.88, -0.00017534735, 0.0000000064454913, 0.00014059352, -416014.22, -66436.55, 0.0, 10.0, 9.901964 
1.55e+2, 2.742313e+2, -316729.0, -391374.78, -0.00026164728, 0.0000000063994836, -0.0002034447, -316729.0, -64195.992, 0.0, 10.0, 9.902385 
1.55e+2, 2.841256e+2, -230255.73, -318081.25, -0.00012644424, 0.0000000063742744, 0.00022904534, -230255.73, -74686.766, 0.0, 10.0, 9.885439 
1.55e+2, 2.940121e+2, -130549.6, -217765.02, -0.00019835547, 0.0000000063776415, -0.00025334343, -130549.6, -71868.2, 0.0, 10.0, 9.886217 
1.55e+2, 3.0392656e+2, -40805.586, -84750.16, -0.000021112633, 0.000000006385062, 0.00017313579, -40805.586, -40805.586, 0.0, 10.0, 9.942173 
1.55e+2, 3.138706e+2, -39727.574, -82511.21, -0.0000677528, 0.000000006398237, -0.000055143017, -39727.574, -39727.574, 0.0, 10.0, 9.943684 
1.65e+2, 1.2499334e+2, -1719946.3, -1724224.6, 0.000065480985, 0.000000007521187, 0.00001759854, -1719946.3, -4880.958, 0.0, 10.0, 9.994328 
1.65e+2, 1.349876e+2, -1622565.8, -1627434.9, -0.00006126714, 0.0000000073933055, -0.000068403446, -1622565.8, -5444.171, 0.0, 10.0, 9.993545 
1.65e+2, 1.4497513e+2, -1534464.4, -1548146.3, -0.00003971203, 0.000000007306003, 0.000070916714, -1534464.4, -15220.679, 0.0, 10.0, 9.981865 
1.65e+2, 1.5495701e+2, -1436736.6, -1450821.9, -0.00016533778, 0.00000000725914, -0.000056981047, -1436736.6, -15315.496, 0.0, 10.0, 9.981333 
1.65e+2, 1.6493228e+2, -1348685.8, -1371952.4, -0.00011573529, 0.0000000072098394, 0.00004734162, -1348685.8, -25021.99, 0.0, 10.0, 9.969248 
1.65e+2, 1.7490156e+2, -1250727.6, -1274310.1, -0.00022166043, 0.000000007158049, -0.00007383211, -1250727.6, -24762.969, 0.0, 10.0, 9.968835 
1.65e+2, 1.8486421e+2, -1162646.8, -1195720.1, -0.00015261826, 0.000000007115234, 0.00006614344, -1162646.8, -34316.023, 0.0, 10.0, 9.956395 
1.65e+2, 1.9482064e+2, -1064497.0, -1097833.0, -0.00028208713, 0.000000007081807, -0.0000576576, -1064497.0, -33739.355, 0.0, 10.0, 9.956052 
1.65e+2, 2.0477042e+2, -976333.0, -1019435.0, -0.00020853734, 0.00000000704678, 0.00006807708, -976333.0, -43083.1, 0.0, 10.0, 9.943291 
1.65e+2, 2.1471375e+2, -878046.0, -921409.9, -0.00031324304, 0.0000000070100166, -0.00012682859, -878046.0, -42240.688, 0.0, 10.0, 9.942949 
1.65e+2, 2.2465037e+2, -789759.9, -843144.9, -0.00021206072, 0.000000006977656, 0.00012087854, -789759.9, -51333.582, 0.0, 10.0, 9.929908 
1.65e+2, 2.3458035e+2, -691326.4, -744966.44, -0.00031525956, 0.0000000069502737, -0.000088819004, -691326.4, -50213.816, 0.0, 10.0, 9.929577 
1.65e+2, 2.4450338e+2, -603002.3, -667018.8, -0.00021102245, 0.0000000069245805, 0.00007470827, -603002.3, -59135.414, 0.0, 10.0, 9.916136 
1.65e+2, 2.5441962e+2, -504249.63, -568343.3, -0.00031574143, 0.0000000069008936, -0.000106737374, -504249.63, -57562.07, 0.0, 10.0, 9.916036 
1.65e+2, 2.643288e+2, -416014.22, -490987.88, -0.0001710613, 0.000000006877276, 0.00014059356, -416014.22, -66436.55, 0.0, 10.0, 9.901964 
1.65e+2, 2.742313e+2, -316729.0, -391374.78, -0.00025580428, 0.0000000068537345, -0.00020344468, -316729.0, -64195.992, 0.0, 10.0, 9.902385 
1.65e+2, 2.841256e+2, -230255.73, -318081.25, -0.00011166646, 0.0000000068369412, 0.00022904534, -230255.73, -74686.766, 0.0, 10.0, 9.885439 
1.65e+2, 2.940121e+2, -130549.6, -217765.02, -0.00019190118, 0.0000000068293766, -0.00025334343, -130549.6, -71868.2, 0.0, 10.0, 9.886217 
1.65e+2, 3.0392656e+2, -40805.586, -84750.16, -0.000009301912, 0.0000000068331474, 0.00017313579, -40805.586, -40805.586, 0.0, 10.0, 9.942173 
1.65e+2, 3.138706e+2, -39727.574, -82511.21, -0.000065847555, 0.0000000068536603, -0.00005514304, -39727.574, -39727.574, 0.0, 10.0, 9.943684 
1.75e+2, 1.2499334e+2, -1719946.3, -1724224.6, -0.00006809673, 0.0000000079906375, 0.000017598451, -1719946.3, -4880.9585, 0.0, 10.0, 9.994328 
1.75e+2, 1.349876e+2, -1622565.8, -1627434.9, -0.0001948776, 0.000000007890108, -0.00006840336, -1622565.8, -5444.1714, 0.0, 10.0, 9.993545 
1.75e+2, 1.4497513e+2, -1534464.4, -1548146.3, -0.00015418336, 0.000000007816591, 0.0000709169, -1534464.4, -15220.679, 0.0, 10.0, 9.981865 
1.75e+2, 1.5495703e+2, -1436736.6, -1450821.9, -0.0002797794, 0.000000007769856, -0.000056981055, -1436736.6, -15315.497, 0.0, 10.0, 9.981333 
1.75e+2, 1.6493228e+2, -1348685.8, -1371952.4, -0.00021940214, 0.000000007704436, 0.000047341586, -1348685.8, -25021.99, 0.0, 10.0, 9.969248 
1.75e+2, 1.7490156e+2, -1250727.6, -1274310.1, -0.0003252711, 0.000000007619935, -0.000073831994, -1250727.6, -24762.969, 0.0, 10.0, 9.968835 
1.75e+2, 1.8486421e+2, -1162646.8, -1195720.1, -0.00025284215, 0.0000000075678654, 0.00006614356, -1162646.8, -34316.023, 0.0, 10.0, 9.956395 
1.75e+2, 1.9482064e+2, -1064497.0, -1097833.0, -0.00038227253, 0.00000000754973, -0.00005765762, -1064497.0, -33739.355, 0.0, 10.0, 9.956052 
1.75e+2, 2.0477042e+2, -976333.0, -1019435.0, -0.00029312287, 0.000000007518004, 0.00006807703, -976333.0, -43083.1, 0.0, 10.0, 9.943291 
1.75e+2, 2.1471375e+2, -878046.0, -921409.9, -0.00039750725, 0.000000007471553, -0.00012682851, -878046.0, -42240.688, 0.0, 10.0, 9.942949 
1.75e+2, 2.2465037e+2, -789759.9, -843144.9, -0.00028300635, 0.0000000074410043, 0.000120878634, -789759.9, -51333.582, 0.0, 10.0, 9.929908 
1.75e+2, 2.3458035e+2, -691326.4, -744966.44, -0.00038577043, 0.000000007428456, -0.000088819, -691326.4, -50213.816, 0.0, 10.0, 9.929577 
1.75e+2, 2.4450338e+2, -603002.3, -667018.8, -0.00025973548, 0.000000007392307, 0.00007470825, -603002.3, -59135.414, 0.0, 10.0, 9.916136 
1.75e+2, 2.5441962e+2, -504249.63, -568343.3, -0.00036340806, 0.0000000073279427, -0.00010673733, -504249.63, -57562.07, 0.0, 10.0, 9.916036 
1.75e+2, 2.643288e+2, -416014.22, -490987.88, -0.00021374157, 0.0000000073025124, 0.00014059362, -416014.22, -66436.55, 0.0, 10.0, 9.901964 
1.75e+2, 2.742313e+2, -316729.0, -391374.78, -0.00029815148, 0.0000000073266904, -0.00020344467, -316729.0, -64195.992, 0.0, 10.0, 9.902385 
1.75e+2, 2.841256e+2, -230255.73, -318081.25, -0.00013425897, 0.0000000073290933, 0.00022904531, -230255.73, -74686.766, 0.0, 10.0, 9.885439 
1.75e+2, 2.940121e+2, -130549.6, -217765.02, -0.00021271518, 0.0000000073014594, -0.00025334346, -130549.6, -71868.2, 0.0, 10.0, 9.886217 
1.75e+2, 3.0392656e+2, -40805.586, -84750.16, -0.000015260855, 0.000000007287744, 0.00017313576, -40805.586, -40805.586, 0.0, 10.0, 9.942173 
1.75e+2, 3.138706e+2, -39727.574, -82511.21, -0.00007006421, 0.0000000072949735, -0.000055142988, -39727.574, -39727.574, 0.0, 10.0, 9.943684 
1.85e+2, 1.2499334e+2, -1719946.3, -1724224.6, 0.00014497033, 0.000000008481189, 0.000017598433, -1719946.3, -4880.9565, 0.0, 10.0, 9.994328 
1.85e+2, 1.349876e+2, -1622565.8, -1627434.9, -0.000048930622, 0.000000008371192, -0.00006840332, -1622565.8, -5444.1694, 0.0, 10.0, 9.993545 
1.85e+2, 1.4497513e+2, -1534464.4, -1548146.3, -0.000025209549, 0.000000008298157, 0.00007091703, -1534464.4, -15220.677, 0.0, 10.0, 9.981865 
1.85e+2, 1.5495703e+2, -1436736.6, -1450821.9, -0.00014995484, 0.000000008261923, -0.00005698105, -1436736.6, -15315.495, 0.0, 10.0, 9.981333 
1.85e+2, 1.6493228e+2, -1348685.8, -1371952.4, -0.0001017939, 0.000000008198632, 0.000047341586, -1348685.8, -25021.988, 0.0, 10.0, 9.969248 
1.85e+2, 1.7490156e+2, -1250727.6, -1274310.1, -0.0002683609, 0.000000008107711, -0.000073831885, -1250727.6, -24762.967, 0.0, 10.0, 9.968835 
1.85e+2, 1.8486421e+2, -1162646.8, -1195720.1, -0.00020593347, 0.000000008049422, 0.00006614368, -1162646.8, -34316.02, 0.0, 10.0, 9.956395 
1.85e+2, 1.9482064e+2, -1064497.0, -1097833.0, -0.00030347524, 0.000000008025272, -0.000057657617, -1064497.0, -33739.355, 0.0, 10.0, 9.956052 
1.85e+2, 2.0477042e+2, -976333.0, -1019435.0, -0.00020383672, 0.0000000079899065, 0.00006807702, -976333.0, -43083.1, 0.0, 10.0, 9.943291 
1.85e+2, 2.1471375e+2, -878046.0, -921409.9, -0.0003510567, 0.000000007942385, -0.00012682847, -878046.0, -42240.688, 0.0, 10.0, 9.942949 
1.85e+2, 2.2465037e+2, -789759.9, -843144.9, -0.00024876365, 0.000000007909447, 0.0001208787, -789759.9, -51333.582, 0.0, 10.0, 9.929908 
1.85e+2, 2.3458035e+2, -691326.4, -744966.44, -0.00035852945, 0.000000007893015, -0.00008881897, -691326.4, -50213.813, 0.0, 10.0, 9.929577 
1.85e+2, 2.4450338e+2, -603002.3, -667018.8, -0.00022196409, 0.000000007855182, 0.00007470827, -603002.3, -59135.41, 0.0, 10.0, 9.916136 
1.85e+2, 2.5441962e+2, -504249.63, -568343.3, -0.00033743525, 0.000000007791762, -0.00010673731, -504249.63, -57562.07, 0.0, 10.0, 9.916036 
1.85e+2, 2.643288e+2, -416014.22, -490987.88, -0.00019528509, 0.000000007768335, 0.00014059365, -416014.22, -66436.54, 0.0, 10.0, 9.901964 
1.85e+2, 2.742313e+2, -316729.0, -391374.78, -0.00029074488, 0.000000007795859, -0.00020344465, -316729.0, -64195.99, 0.0, 10.0, 9.902385 
1.85e+2, 2.841256e+2, -230255.73, -318081.25, -0.000115958625, 0.000000007799043, 0.00022904533, -230255.73, -74686.766, 0.0, 10.0, 9.885439 
1.85e+2, 2.940121e+2, -130549.6, -217765.0, -0.00020879282, 0.000000007768675, -0.00025334346, -130549.6, -71868.2, 0.0, 10.0, 9.886217 
1.85e+2, 3.0392656e+2, -40805.586, -84750.16, -0.000024139963, 0.000000007746165, 0.00017313576, -40805.586, -40805.586, 0.0, 10.0, 9.942173 
1.85e+2, 3.138706e+2, -39727.574, -82511.21, -0.00012955505, 0.000000007735643, -0.000055142922, -39727.574, -39727.574, 0.0, 10.0, 9.943684 
1.95e+2, 1.2499334e+2, -1719946.3, -1724224.6, -0.0000010511819, 0.000000008992842, 0.000017598482, -1719946.3, -4880.957, 0.0, 10.0, 9.994328 
1.95e+2, 1.349876e+2, -1622565.8, -1627434.9, -0.00019498853, 0.000000008836555, -0.000068403315, -1622565.8, -5444.17, 0.0, 10.0, 9.993545 
1.95e+2, 1.4497513e+2, -1534464.4, -1548146.3, -0.00015898174, 0.000000008750699, 0.0000709171, -1534464.4, -15220.677, 0.0, 10.0, 9.981865 
1.95e+2, 1.5495703e+2, -1436736.6, -1450821.9, -0.0002837081, 0.0000000087353405, -0.000056981036, -1436736.6, -15315.495, 0.0, 10.0, 9.981333 
1.95e+2, 1.6493228e+2, -1348685.8, -1371952.4, -0.00021263205, 0.000000008692427, 0.000047341608, -1348685.8, -25021.988, 0.0, 10.0, 9.969248 
1.95e+2, 1.7490156e+2, -1250727.6, -1274310.1, -0.00037907876, 0.000000008621377, -0.00007383178, -1250727.6, -24762.969, 0.0, 10.0, 9.968835 
1.95e+2, 1.8486421e+2, -1162646.8, -1195720.1, -0.00030961778, 0.0000000085599, 0.00006614379, -1162646.8, -34316.023, 0.0, 10.0, 9.956395 
1.95e+2, 1.9482064e+2, -1064497.0, -1097833.0, -0.0004070789, 0.000000008508435, -0.00005765758, -1064497.0, -33739.355, 0.0, 10.0, 9.956052 
1.95e+2, 2.0477042e+2, -976333.0, -1019435.0, -0.00029474957, 0.0000000084624885, 0.000068077024, -976333.0, -43083.1, 0.0, 10.0, 9.943291 
1.95e+2, 2.1471375e+2, -878046.0, -921409.9, -0.00044170828, 0.000000008422514, -0.00012682845, -878046.0, -42240.688, 0.0, 10.0, 9.942949 
1.95e+2, 2.2465037e+2, -789759.9, -843144.9, -0.00032490998, 0.000000008382984, 0.000120878736, -789759.9, -51333.582, 0.0, 10.0, 9.929908 
1.95e+2, 2.3458035e+2, -691326.4, -744966.44, -0.00043420223, 0.00000000834395, -0.0000888189, -691326.4, -50213.813, 0.0, 10.0, 9.929577 
1.95e+2, 2.4450338e+2, -603002.3, -667018.8, -0.00027915646, 0.000000008313204, 0.00007470832, -603002.3, -59135.41, 0.0, 10.0, 9.916136 
1.95e+2, 2.5441962e+2, -504249.63, -568343.3, -0.0003937407, 0.000000008292352, -0.00010673731, -504249.63, -57562.07, 0.0, 10.0, 9.916036 
1.95e+2, 2.643288e+2, -416014.22, -490987.88, -0.00024772855, 0.000000008274745, 0.00014059362, -416014.22, -66436.54, 0.0, 10.0, 9.901964 
1.95e+2, 2.742313e+2, -316729.0, -391374.78, -0.00034293078, 0.0000000082612415, -0.00020344464, -316729.0, -64195.992, 0.0, 10.0, 9.902385 
1.95e+2, 2.841256e+2, -230255.73, -318081.25, -0.0001393616, 0.000000008246791, 0.00022904536, -230255.73, -74686.766, 0.0, 10.0, 9.885439 
1.95e+2, 2.940121e+2, -130549.6, -217765.02, -0.00022960383, 0.000000008231021, -0.00025334346, -130549.6, -71868.2, 0.0, 10.0, 9.886217 
1.95e+2, 3.0392656e+2, -40805.586, -84750.16, -0.000022739836, 0.000000008208409, 0.00017313579, -40805.586, -40805.586, 0.0, 10.0, 9.942173 
1.95e+2, 3.138706e+2, -39727.574, -82511.21, -0.00012554917, 0.000000008175669, -0.00005514285, -39727.574, -39727.574, 0.0, 10.0, 9.943684 
2.05e+2, 1.2499334e+2, -1719946.3, -1724224.6, 0.00008890745, 0.0000000095270405, 0.000017598666, -1719946.3, -4880.9546, 0.0, 10.0, 9.994328 
2.05e+2, 1.349876e+2, -1622565.8, -1627434.9, -0.00005657296, 0.000000009336163, -0.00006840333, -1622565.8, -5444.1675, 0.0, 10.0, 9.993545 
2.05e+2, 1.4497513e+2, -1534464.4, -1548146.3, -0.000015023336, 0.0000000092322345, 0.00007091714, -1534464.4, -15220.675, 0.0, 10.0, 9.981865 
2.05e+2, 1.5495703e+2, -1436736.6, -1450821.9, -0.0001876567, 0.000000009215438, -0.000056980938, -1436736.6, -15315.493, 0.0, 10.0, 9.981333 
2.05e+2, 1.6493228e+2, -1348685.8, -1371952.4, -0.00011968853, 0.00000000918259, 0.0000473417, -1348685.8, -25021.986, 0.0, 10.0, 9.969248 
2.05e+2, 1.7490156e+2, -1250727.6, -1274310.1, -0.00027082843, 0.000000009133352, -0.00007383177, -1250727.6, -24762.967, 0.0, 10.0, 9.968835 
2.05e+2, 1.8486421e+2, -1162646.8, -1195720.1, -0.00020004138, 0.000000009072882, 0.000066143795, -1162646.8, -34316.02, 0.0, 10.0, 9.956395 
2.05e+2, 1.9482064e+2, -1064497.0, -1097833.0, -0.00035272617, 0.000000009000654, -0.00005765749, -1064497.0, -33739.35, 0.0, 10.0, 9.956052 
2.05e+2, 2.0477042e+2, -976333.0, -1019435.0, -0.00024881985, 0.000000008946233, 0.00006807712, -976333.0, -43083.098, 0.0, 10.0, 9.943291 
2.05e+2, 2.1471375e+2, -878046.0, -921409.9, -0.00037703334, 0.000000008911091, -0.00012682842, -878046.0, -42240.684, 0.0, 10.0, 9.942949 
2.05e+2, 2.2465037e+2, -789759.9, -843144.9, -0.000252135, 0.00000000886753, 0.00012087874, -789759.9, -51333.58, 0.0, 10.0, 9.929908 
2.05e+2, 2.3458035e+2, -691326.4, -744966.44, -0.00039529716, 0.000000008814423, -0.00008881886, -691326.4, -50213.813, 0.0, 10.0, 9.929577 
2.05e+2, 2.4450338e+2, -603002.3, -667018.8, -0.0002460203, 0.000000008788449, 0.00007470837, -603002.3, -59135.41, 0.0, 10.0, 9.916136 
2.05e+2, 2.5441962e+2, -504249.63, -568343.3, -0.00035519584, 0.000000008794889, -0.0001067373, -504249.63, -57562.07, 0.0, 10.0, 9.916036 
2.05e+2, 2.643288e+2, -416014.22, -490987.88, -0.0001992836, 0.000000008776504, 0.00014059362, -416014.22, -66436.54, 0.0, 10.0, 9.901964 
2.05e+2, 2.742313e+2, -316729.0, -391374.78, -0.000329024, 0.000000008726443, -0.00020344461, -316729.0, -64195.99, 0.0, 10.0, 9.902385 
2.05e+2, 2.841256e+2, -230255.73, -318081.25, -0.00013942408, 0.000000008695988, 0.00022904538, -230255.73, -74686.76, 0.0, 10.0, 9.885439 
2.05e+2, 2.940121e+2, -130549.59, -217765.0, -0.00024896528, 0.000000008692504, -0.0002533434, -130549.59, -71868.2, 0.0, 10.0, 9.886217 
2.05e+2, 3.0392656e+2, -40805.582, -84750.16, -0.000028311257, 0.000000008680515, 0.00017313582, -40805.582, -40805.582, 0.0, 10.0, 9.942173 
2.05e+2, 3.138706e+2, -39727.57, -82511.21, -0.00011278465, 0.000000008655669, -0.00005514288, -39727.57, -39727.57, 0.0, 10.0, 9.943684 
2.15e+2, 1.2499334e+2, -1719946.3, -1724224.6, -0.000048997215, 0.000000010083783, 0.00001759898, -1719946.3, -4880.955, 0.0, 10.0, 9.994328 
2.15e+2, 1.349876e+2, -1622565.8, -1627434.9, -0.00019451154, 0.000000009870015, -0.00006840336, -1622565.8, -5444.168, 0.0, 10.0, 9.993545 
2.15e+2, 1.4497513e+2, -1534464.4, -1548146.3, -0.00015640273, 0.000000009742764, 0.000070917165, -1534464.4, -15220.675, 0.0, 10.0, 9.981865 
2.15e+2, 1.5495703e+2, -1436736.6, -1450821.9, -0.0003290421, 0.000000009702217, -0.00005698075, -1436736.6, -15315.493, 0.0, 10.0, 9.981333 
2.15e+2, 1.6493228e+2, -1348685.8, -1371952.4, -0.00025783863, 0.000000009669121, 0.000047341855, -1348685.8, -25021.986, 0.0, 10.0, 9.969248 
2.15e+2, 1.7490156e+2, -1250727.6, -1274310.1, -0.00040896208, 0.0000000096436334, -0.00007383184, -1250727.6, -24762.967, 0.0, 10.0, 9.968835 
2.15e+2, 1.8486421e+2, -1162646.8, -1195720.1, -0.00030511696, 0.0000000095883665, 0.000066143715, -1162646.8, -34316.02, 0.0, 10.0, 9.956395 
2.15e+2, 1.9482064e+2, -1064497.0, -1097833.0, -0.00045741972, 0.000000009501931, -0.00005765735, -1064497.0, -33739.35, 0.0, 10.0, 9.956052 
2.15e+2, 2.0477042e+2, -976333.0, -1019435.0, -0.0003437995, 0.000000009441139, 0.000068077294, -976333.0, -43083.098, 0.0, 10.0, 9.943291 
2.15e+2, 2.1471375e+2, -878046.0, -921409.9, -0.00047181325, 0.000000009408119, -0.00012682841, -878046.0, -42240.684, 0.0, 10.0, 9.942949 
2.15e+2, 2.2465037e+2, -789759.9, -843144.9, -0.00033355525, 0.000000009363084, 0.00012087871, -789759.9, -51333.58, 0.0, 10.0, 9.929908 
2.15e+2, 2.3458035e+2, -691326.4, -744966.44, -0.0004762814, 0.000000009304433, -0.00008881883, -691326.4, -50213.813, 0.0, 10.0, 9.929577 
2.15e+2, 2.4450338e+2, -603002.3, -667018.8, -0.00032462497, 0.000000009280916, 0.00007470841, -603002.3, -59135.41, 0.0, 10.0, 9.916136 
2.15e+2, 2.5441962e+2, -504249.63, -568343.3, -0.0004336874, 0.000000009299373, -0.00010673728, -504249.63, -57562.07, 0.0, 10.0, 9.916036 
2.15e+2, 2.643288e+2, -416014.22, -490987.88, -0.00023626903, 0.000000009273611, 0.00014059363, -416014.22, -66436.54, 0.0, 10.0, 9.901964 
2.15e+2, 2.742313e+2, -316729.0, -391374.78, -0.00036322806, 0.000000009191465, -0.0002034446, -316729.0, -64195.99, 0.0, 10.0, 9.902385 
2.15e+2, 2.841256e+2, -230255.73, -318081.25, -0.00017137978, 0.000000009146633, 0.00022904543, -230255.73, -74686.766, 0.0, 10.0, 9.885439 
2.15e+2, 2.940121e+2, -130549.59, -217765.02, -0.00028072004, 0.000000009153121, -0.00025334334, -130549.59, -71868.2, 0.0, 10.0, 9.886217 
2.15e+2, 3.0392656e+2, -40805.582, -84750.16, -0.000043056574, 0.000000009162482, 0.00017313585, -40805.582, -40805.582, 0.0, 10.0, 9.942173 
2.15e+2, 3.138706e+2, -39727.57, -82511.21, -0.00012553499, 0.000000009175642, -0.000055143006, -39727.57, -39727.57, 0.0, 10.0, 9.943684 
2.25e+2, 1.2499334e+2, -1719946.3, -1724224.6, 0.000064837564, 0.000000010613394, 0.000017599154, -1719946.3, -4880.952, 0.0, 10.0, 9.994328 
2.25e+2, 1.349876e+2, -1622565.8, -1627434.9, -0.00009017903, 0.00000001042586, -0.000068403315, -1622565.8, -5444.165, 0.0, 10.0, 9.993545 
2.25e+2, 1.4497513e+2, -1534464.4, -1548146.3, -0.000050289997, 0.000000010301878, 0.00007091729, -1534464.4, -15220.673, 0.0, 10.0, 9.981865 
2.25e+2, 1.5495703e+2, -1436736.6, -1450821.9, -0.00023560511, 0.0000000102415, -0.00005698063, -1436736.6, -15315.491, 0.0, 10.0, 9.981333 
2.25e+2, 1.6493228e+2, -1348685.8, -1371952.4, -0.00015487082, 0.0000000101868665, 0.00004734194, -1348685.8, -25021.984, 0.0, 10.0, 9.969248 
2.25e+2, 1.7490156e+2, -1250727.6, -1274310.1, -0.00028617805, 0.0000000101380975, -0.00007383183, -1250727.6, -24762.963, 0.0, 10.0, 9.968835 
2.25e+2, 1.8486421e+2, -1162646.8, -1195720.1, -0.00017516942, 0.0000000100802655, 0.00006614372, -1162646.8, -34316.016, 0.0, 10.0, 9.956395 
2.25e+2, 1.9482064e+2, -1064497.0, -1097833.0, -0.0003750274, 0.000000010012943, -0.000057657282, -1064497.0, -33739.35, 0.0, 10.0, 9.956052 
2.25e+2, 2.0477042e+2, -976333.0, -1019435.0, -0.0002769885, 0.0000000099577715, 0.00006807739, -976333.0, -43083.098, 0.0, 10.0, 9.943291 
2.25e+2, 2.1471375e+2, -878046.0, -921409.9, -0.00041560733, 0.0000000099157536, -0.00012682835, -878046.0, -42240.684, 0.0, 10.0, 9.942949 
2.25e+2, 2.2465037e+2, -789759.9, -843144.9, -0.00026747122, 0.000000009870011, 0.00012087874, -789759.9, -51333.58, 0.0, 10.0, 9.929908 
2.25e+2, 2.3458035e+2, -691326.4, -744966.44, -0.00040728896, 0.000000009820038, -0.00008881882, -691326.4, -50213.81, 0.0, 10.0, 9.929577 
2.25e+2, 2.4450338e+2, -603002.3, -667018.8, -0.00026108717, 0.000000009788115, 0.000074708434, -603002.3, -59135.406, 0.0, 10.0, 9.916136 
2.25e+2, 2.5441962e+2, -504249.63, -568343.3, -0.00041334116, 0.00000000977775, -0.000106737236, -504249.63, -57562.066, 0.0, 10.0, 9.916036 
2.25e+2, 2.643288e+2, -416014.22, -490987.88, -0.00021439535, 0.000000009745539, 0.00014059368, -416014.22, -66436.54, 0.0, 10.0, 9.901964 
2.25e+2, 2.742313e+2, -316729.0, -391374.78, -0.00033859952, 0.000000009685461, -0.00020344458, -316729.0, -64195.99, 0.0, 10.0, 9.902385 
2.25e+2, 2.841256e+2, -230255.73, -318081.25, -0.00013954236, 0.000000009650636, 0.00022904544, -230255.73, -74686.76, 0.0, 10.0, 9.885439 
2.25e+2, 2.940121e+2, -130549.59, -217765.0, -0.00025275053, 0.000000009650489, -0.0002533433, -130549.59, -71868.2, 0.0, 10.0, 9.886217 
2.25e+2, 3.0392656e+2, -40805.582, -84750.16, 0.0000012229037, 0.00000000965973, 0.00017313585, -40805.582, -40805.582, 0.0, 10.0, 9.942173 
2.25e+2, 3.138706e+2, -39727.57, -82511.21, -0.00007049155, 0.000000009682588, -0.000055143068, -39727.57, -39727.57, 0.0, 10.0, 9.943684 
2.35e+2, 1.2499334e+2, -1719946.3, -1724224.6, -0.00010242353, 0.000000011115872, 0.00001759918, -1719946.3, -4880.9526, 0.0, 10.0, 9.994328 
2.35e+2, 1.349876e+2, -1622565.8, -1627434.9, -0.00025748115, 0.0000000110036975, -0.000068403206, -1622565.8, -5444.1655, 0.0, 10.0, 9.993545 
2.35e+2, 1.4497513e+2, -1534464.4, -1548146.3, -0.00018955453, 0.000000010909576, 0.000070917515, -1534464.4, -15220.673, 0.0, 10.0, 9.981865 
2.35e+2, 1.5495703e+2, -1436736.6, -1450821.9, -0.00037482582, 0.000000010833288, -0.000056980578, -1436736.6, -15315.491, 0.0, 10.0, 9.981333 
2.35e+2, 1.6493228e+2, -1348685.8, -1371952.4, -0.0002860731, 0.000000010735827, 0.00004734195, -1348685.8, -25021.984, 0.0, 10.0, 9.969248 
2.35e+2, 1.7490156e+2, -1250727.6, -1274310.1, -0.00041733866, 0.000000010616743, -0.000073831725, -1250727.6, -24762.965, 0.0, 10.0, 9.968835 
2.35e+2, 1.8486421e+2, -1162646.8, -1195720.1, -0.00029990217, 0.00000001054858, 0.000066143824, -1162646.8, -34316.02, 0.0, 10.0, 9.956395 
2.35e+2, 1.9482064e+2, -1064497.0, -1097833.0, -0.00049968646, 0.000000010533693, -0.000057657275, -1064497.0, -33739.35, 0.0, 10.0, 9.956052 
2.35e+2, 2.0477042e+2, -976333.0, -1019435.0, -0.00038322993, 0.000000010496129, 0.00006807738, -976333.0, -43083.098, 0.0, 10.0, 9.943291 
2.35e+2, 2.1471375e+2, -878046.0, -921409.9, -0.0005214693, 0.000000010433997, -0.00012682825, -878046.0, -42240.684, 0.0, 10.0, 9.942949 
2.35e+2, 2.2465037e+2, -789759.9, -843144.9, -0.00035844184, 0.000000010388309, 0.00012087884, -789759.9, -51333.58, 0.0, 10.0, 9.929908 
2.35e+2, 2.3458035e+2, -691326.4, -744966.44, -0.0004977735, 0.00000001036124, -0.00008881882, -691326.4, -50213.813, 0.0, 10.0, 9.929577 
2.35e+2, 2.4450338e+2, -603002.3, -667018.8, -0.00032844476, 0.00000001031005, 0.00007470842, -603002.3, -59135.406, 0.0, 10.0, 9.916136 
2.35e+2, 2.5441962e+2, -504249.63, -568343.3, -0.00047958866, 0.000000010230021, -0.000106737156, -504249.63, -57562.066, 0.0, 10.0, 9.916036 
2.35e+2, 2.643288e+2, -416014.22, -490987.88, -0.00027130218, 0.000000010192285, 0.00014059378, -416014.22, -66436.54, 0.0, 10.0, 9.901964 
2.35e+2, 2.742313e+2, -316729.0, -391374.78, -0.00039488156, 0.000000010208431, -0.00020344455, -316729.0, -64195.99, 0.0, 10.0, 9.902385 
2.35e+2, 2.841256e+2, -230255.73, -318081.25, -0.00018157932, 0.000000010207996, 0.00022904541, -230255.73, -74686.76, 0.0, 10.0, 9.885439 
2.35e+2, 2.940121e+2, -130549.59, -217765.02, -0.00029350573, 0.000000010184608, -0.00025334337, -130549.59, -71868.2, 0.0, 10.0, 9.886217 
2.35e+2, 3.0392656e+2, -40805.582, -84750.16, -0.000024179899, 0.000000010172258, 0.0001731358, -40805.582, -40805.582, 0.0, 10.0, 9.942173 
2.35e+2, 3.138706e+2, -39727.57, -82511.21, -0.00009409406, 0.000000010176509, -0.000055143068, -39727.57, -39727.57, 0.0, 10.0, 9.943684 
2.45e+2, 1.2499334e+2, -1719946.3, -1724224.6, 0.00014191408, 0.000000011674801, 0.000017599195, -1719946.3, -4880.9497, 0.0, 10.0, 9.994328 
2.45e+2, 1.349876e+2, -1622565.8, -1627434.9, -0.000095098294, 0.000000011556162, -0.00006840312, -1622565.8, -5444.1626, 0.0, 10.0, 9.993545 
2.45e+2, 1.4497513e+2, -1534464.4, -1548146.3, -0.000032898664, 0.000000011463312, 0.0000709177, -1534464.4, -15220.671, 0.0, 10.0, 9.981865 
2.45e+2, 1.5495703e+2, -1436736.6, -1450821.9, -0.0002024025, 0.000000011396093, -0.000056980574, -1436736.6, -15315.488, 0.0, 10.0, 9.981333 
2.45e+2, 1.6493228e+2, -1348685.8, -1371952.4, -0.00012529123, 0.0000000112908145, 0.00004734194, -1348685.8, -25021.982, 0.0, 10.0, 9.969248 
2.45e+2, 1.7490156e+2, -1250727.6, -1274310.1, -0.0003396606, 0.000000011146669, -0.000073831565, -1250727.6, -24762.96, 0.0, 10.0, 9.968835 
2.45e+2, 1.8486421e+2, -1162646.8, -1195720.1, -0.00023829254, 0.000000011070091, 0.00006614399, -1162646.8, -34316.016, 0.0, 10.0, 9.956395 
2.45e+2, 1.9482064e+2, -1064497.0, -1097833.0, -0.00038270914, 0.000000011064207, -0.000057657267, -1064497.0, -33739.348, 0.0, 10.0, 9.956052 
2.45e+2, 2.0477042e+2, -976333.0, -1019435.0, -0.00024282024, 0.00000001102667, 0.00006807735, -976333.0, -43083.094, 0.0, 10.0, 9.943291 
2.45e+2, 2.1471375e+2, -878046.0, -921409.9, -0.00043329402, 0.000000010954839, -0.0001268282, -878046.0, -42240.68, 0.0, 10.0, 9.942949 
2.45e+2, 2.2465037e+2, -789759.9, -843144.9, -0.000292312, 0.000000010905945, 0.00012087892, -789759.9, -51333.574, 0.0, 10.0, 9.929908 
2.45e+2, 2.3458035e+2, -691326.4, -744966.44, -0.0004543857, 0.000000010883021, -0.00008881876, -691326.4, -50213.81, 0.0, 10.0, 9.929577 
2.45e+2, 2.4450338e+2, -603002.3, -667018.8, -0.00027616977, 0.000000010828138, 0.00007470847, -603002.3, -59135.406, 0.0, 10.0, 9.916136 
2.45e+2, 2.5441962e+2, -504249.63, -568343.3, -0.0004320395, 0.000000010735046, -0.00010673712, -504249.63, -57562.066, 0.0, 10.0, 9.916036 
2.45e+2, 2.643288e+2, -416014.22, -490987.88, -0.00022782561, 0.000000010699182, 0.00014059381, -416014.22, -66436.54, 0.0, 10.0, 9.901964 
2.45e+2, 2.742313e+2, -316729.0, -391374.78, -0.00035548423, 0.000000010736228, -0.00020344454, -316729.0, -64195.984, 0.0, 10.0, 9.902385 
2.45e+2, 2.841256e+2, -230255.73, -318081.25, -0.00012649529, 0.000000010743926, 0.00022904541, -230255.73, -74686.76, 0.0, 10.0, 9.885439 
2.45e+2, 2.940121e+2, -130549.59, -217765.0, -0.00025389553, 0.000000010711113, -0.0002533434, -130549.59, -71868.195, 0.0, 10.0, 9.886217 
2.45e+2, 3.0392656e+2, -40805.58, -84750.16, -0.0000037876562, 0.000000010684839, 0.0001731358, -40805.58, -40805.58, 0.0, 10.0, 9.942173 
2.45e+2, 3.138706e+2, -39727.566, -82511.21, -0.00014229656, 0.000000010668655, -0.000055142995, -39727.566, -39727.566, 0.0, 10.0, 9.943684 
2.55e+2, 1.2499334e+2, -1719946.3, -1724224.6, -0.0000446157, 0.000000012290181, 0.000017599197, -1719946.3, -4880.95, 0.0, 10.0, 9.994328 
2.55e+2, 1.349876e+2, -1622565.8, -1627434.9, -0.00028167458, 0.000000012083254, -0.00006840307, -1622565.8, -5444.1636, 0.0, 10.0, 9.993545 
2.55e+2, 1.4497513e+2, -1534464.4, -1548146.3, -0.00019377399, 0.000000011963085, 0.00007091785, -1534464.4, -15220.671, 0.0, 10.0, 9.981865 
2.55e+2, 1.5495703e+2, -1436736.6, -1450821.9, -0.00036323763, 0.000000011929915, -0.000056980625, -1436736.6, -15315.489, 0.0, 10.0, 9.981333 
2.55e+2, 1.6493228e+2, -1348685.8, -1371952.4, -0.00025252614, 0.000000011851828, 0.00004734191, -1348685.8, -25021.982, 0.0, 10.0, 9.969248 
2.55e+2, 1.7490156e+2, -1250727.6, -1274310.1, -0.00046671877, 0.0000000117278764, -0.000073831354, -1250727.6, -24762.963, 0.0, 10.0, 9.968835 
2.55e+2, 1.8486421e+2, -1162646.8, -1195720.1, -0.0003737195, 0.0000000116448, 0.000066144225, -1162646.8, -34316.016, 0.0, 10.0, 9.956395 
2.55e+2, 1.9482064e+2, -1064497.0, -1097833.0, -0.0005182338, 0.000000011604487, -0.000057657253, -1064497.0, -33739.348, 0.0, 10.0, 9.956052 
2.55e+2, 2.0477042e+2, -976333.0, -1019435.0, -0.00035834743, 0.000000011549393, 0.00006807729, -976333.0, -43083.094, 0.0, 10.0, 9.943291 
2.55e+2, 2.1471375e+2, -878046.0, -921409.9, -0.0005484091, 0.00000001147828, -0.0001268282, -878046.0, -42240.68, 0.0, 10.0, 9.942949 
2.55e+2, 2.2465037e+2, -789759.9, -843144.9, -0.00038953536, 0.000000011422917, 0.00012087898, -789759.9, -51333.574, 0.0, 10.0, 9.929908 
2.55e+2, 2.3458035e+2, -691326.4, -744966.44, -0.00055102486, 0.000000011385381, -0.00008881863, -691326.4, -50213.81, 0.0, 10.0, 9.929577 
2.55e+2, 2.4450338e+2, -603002.3, -667018.8, -0.00034814765, 0.00000001134238, 0.00007470857, -603002.3, -59135.406, 0.0, 10.0, 9.916136 
2.55e+2, 2.5441962e+2, -504249.63, -568343.3, -0.0005028336, 0.000000011292825, -0.00010673712, -504249.63, -57562.066, 0.0, 10.0, 9.916036 
2.55e+2, 2.643288e+2, -416014.22, -490987.88, -0.00030656497, 0.000000011266226, 0.00014059377, -416014.22, -66436.54, 0.0, 10.0, 9.901964 
2.55e+2, 2.742313e+2, -316729.0, -391374.78, -0.0004347579, 0.000000011268849, -0.00020344452, -316729.0, -64195.984, 0.0, 10.0, 9.902385 
2.55e+2, 2.841256e+2, -230255.73, -318081.25, -0.00016963884, 0.000000011258424, 0.00022904544, -230255.73, -74686.76, 0.0, 10.0, 9.885439 
2.55e+2, 2.940121e+2, -130549.59, -217765.02, -0.00029378544, 0.000000011230003, -0.0002533434, -130549.59, -71868.195, 0.0, 10.0, 9.886217 
2.55e+2, 3.0392656e+2, -40805.58, -84750.16, -0.000017457767, 0.000000011197471, 0.00017313582, -40805.58, -40805.58, 0.0, 10.0, 9.942173 
2.55e+2, 3.138706e+2, -39727.566, -82511.21, -0.00015289072, 0.0000000111590275, -0.00005514285, -39727.566, -39727.566, 0.0, 10.0, 9.943684 
2.65e+2, 1.2499334e+2, -1719946.3, -1724224.6, 0.00015226234, 0.00000001291463, 0.000017599306, -1719946.3, -4880.9473, 0.0, 10.0, 9.994328 
2.65e+2, 1.349876e+2, -1622565.8, -1627434.9, -0.000071949646, 0.00000001263022, -0.00006840307, -1622565.8, -5444.16, 0.0, 10.0, 9.993545 
2.65e+2, 1.4497513e+2, -1534464.4, -1548146.3, 0.000005026921, 0.000000012476315, 0.000070917966, -1534464.4, -15220.668, 0.0, 10.0, 9.981865 
2.65e+2, 1.5495703e+2, -1436736.6, -1450821.9, -0.0002108127, 0.0000000124534525, -0.000056980545, -1436736.6, -15315.486, 0.0, 10.0, 9.981333 
2.65e+2, 1.6493228e+2, -1348685.6, -1371952.4, -0.00011350012, 0.000000012403009, 0.000047341982, -1348685.6, -25021.979, 0.0, 10.0, 9.969248 
2.65e+2, 1.7490156e+2, -1250727.6, -1274310.1, -0.00034240208, 0.000000012324406, -0.00007383127, -1250727.6, -24762.959, 0.0, 10.0, 9.968835 
2.65e+2, 1.8486421e+2, -1162646.8, -1195720.1, -0.00024863522, 0.00000001224038, 0.00006614431, -1162646.8, -34316.01, 0.0, 10.0, 9.956395 
2.65e+2, 1.9482064e+2, -1064497.0, -1097833.0, -0.000421284, 0.000000012150672, -0.00005765718, -1064497.0, -33739.348, 0.0, 10.0, 9.956052 
2.65e+2, 2.0477042e+2, -976333.0, -1019435.0, -0.00026158895, 0.00000001207532, 0.000068077345, -976333.0, -43083.094, 0.0, 10.0, 9.943291 
2.65e+2, 2.1471375e+2, -878046.0, -921409.9, -0.00044925264, 0.000000012015511, -0.00012682815, -878046.0, -42240.676, 0.0, 10.0, 9.942949 
2.65e+2, 2.2465037e+2, -789759.9, -843144.9, -0.00029113915, 0.000000011960463, 0.000120879035, -789759.9, -51333.57, 0.0, 10.0, 9.929908 
2.65e+2, 2.3458035e+2, -691326.4, -744966.44, -0.000486484, 0.000000011910788, -0.000088818575, -691326.4, -50213.805, 0.0, 10.0, 9.929577 
2.65e+2, 2.4450338e+2, -603002.3, -667018.8, -0.00028190977, 0.000000011876338, 0.00007470862, -603002.3, -59135.402, 0.0, 10.0, 9.916136 
2.65e+2, 2.5441962e+2, -504249.63, -568343.3, -0.00042323463, 0.00000001186006, -0.00010673711, -504249.63, -57562.063, 0.0, 10.0, 9.916036 
2.65e+2, 2.643288e+2, -416014.22, -490987.88, -0.00022078524, 0.000000011834688, 0.00014059377, -416014.22, -66436.53, 0.0, 10.0, 9.901964 
2.65e+2, 2.742313e+2, -316729.0, -391374.78, -0.00039481116, 0.000000011797693, -0.00020344449, -316729.0, -64195.98, 0.0, 10.0, 9.902385 
2.65e+2, 2.841256e+2, -230255.73, -318081.25, -0.00014836174, 0.0000000117666215, 0.00022904549, -230255.73, -74686.76, 0.0, 10.0, 9.885439 
2.65e+2, 2.940121e+2, -130549.59, -217765.0, -0.00030150707, 0.000000011743701, -0.00025334334, -130549.59, -71868.195, 0.0, 10.0, 9.886217 
2.65e+2, 3.0392656e+2, -40805.58, -84750.16, -0.000024445135, 0.000000011718505, 0.00017313586, -40805.58, -40805.58, 0.0, 10.0, 9.942173 
2.65e+2, 3.138706e+2, -39727.566, -82511.21, -0.00015765776, 0.000000011689878, -0.000055142827, -39727.566, -39727.566, 0.0, 10.0, 9.943684 
2.75e+2, 1.2499334e+2, -1719946.3, -1724224.6, -0.000007025476, 0.0000000135481475, 0.00001759952, -1719946.3, -4880.9478, 0.0, 10.0, 9.994328 
2.75e+2, 1.349876e+2, -1622565.8, -1627434.9, -0.00023127635, 0.000000013197061, -0.00006840312, -1622565.8, -5444.1606, 0.0, 10.0, 9.993545 
2.75e+2, 1.4497513e+2, -1534464.4, -1548146.3, -0.00017026723, 0.000000013003003, 0.000070918046, -1534464.4, -15220.668, 0.0, 10.0, 9.981865 
2.75e+2, 1.5495703e+2, -1436736.6, -1450821.9, -0.00038613265, 0.000000012966707, -0.00005698033, -1436736.6, -15315.486, 0.0, 10.0, 9.981333 
2.75e+2, 1.6493228e+2, -1348685.8, -1371952.4, -0.00028908972, 0.000000012944359, 0.000047342157, -1348685.8, -25021.98, 0.0, 10.0, 9.969248 
2.75e+2, 1.7490156e+2, -1250727.6, -1274310.1, -0.00051799376, 0.00000001293626, -0.0000738313, -1250727.6, -24762.959, 0.0, 10.0, 9.968835 
2.75e+2, 1.8486421e+2, -1162646.8, -1195720.1, -0.00037275246, 0.000000012856833, 0.000066144254, -1162646.8, -34316.01, 0.0, 10.0, 9.956395 
2.75e+2, 1.9482064e+2, -1064497.0, -1097833.0, -0.00054480595, 0.00000001270276, -0.000057657053, -1064497.0, -33739.348, 0.0, 10.0, 9.956052 
2.75e+2, 2.0477042e+2, -976333.0, -1019435.0, -0.00037907646, 0.00000001260445, 0.00006807753, -976333.0, -43083.094, 0.0, 10.0, 9.943291 
2.75e+2, 2.1471375e+2, -878046.0, -921409.9, -0.0005666165, 0.000000012566533, -0.00012682805, -878046.0, -42240.68, 0.0, 10.0, 9.942949 
2.75e+2, 2.2465037e+2, -789759.9, -843144.9, -0.00039911692, 0.000000012518582, 0.00012087908, -789759.9, -51333.574, 0.0, 10.0, 9.929908 
2.75e+2, 2.3458035e+2, -691326.4, -744966.44, -0.0005941559, 0.000000012459243, -0.000088818575, -691326.4, -50213.805, 0.0, 10.0, 9.929577 
2.75e+2, 2.4450338e+2, -603002.3, -667018.8, -0.00038583198, 0.000000012430013, 0.00007470861, -603002.3, -59135.402, 0.0, 10.0, 9.916136 
2.75e+2, 2.5441962e+2, -504249.63, -568343.3, -0.0005269781, 0.000000012436749, -0.00010673709, -504249.63, -57562.063, 0.0, 10.0, 9.916036 
2.75e+2, 2.643288e+2, -416014.22, -490987.88, -0.0002779995, 0.000000012404568, 0.00014059381, -416014.22, -66436.53, 0.0, 10.0, 9.901964 
2.75e+2, 2.742313e+2, -316729.0, -391374.78, -0.00044890752, 0.00000001232276, -0.00020344445, -316729.0, -64195.984, 0.0, 10.0, 9.902385 
2.75e+2, 2.841256e+2, -230255.73, -318081.25, -0.000195796, 0.000000012268514, 0.00022904554, -230255.73, -74686.76, 0.0, 10.0, 9.885439 
2.75e+2, 2.940121e+2, -130549.59, -217765.02, -0.00034834302, 0.000000012252208, -0.00025334326, -130549.59, -71868.195, 0.0, 10.0, 9.886217 
2.75e+2, 3.0392656e+2, -40805.58, -84750.16, -0.0000587089, 0.000000012247939, 0.00017313592, -40805.58, -40805.58, 0.0, 10.0, 9.942173 
2.75e+2, 3.138706e+2, -39727.566, -82511.21, -0.00019044788, 0.000000012261208, -0.000055142922, -39727.566, -39727.566, 0.0, 10.0, 9.943684 
2.85e+2, 1.2499334e+2, -1719946.3, -1724224.6, 0.0001663194, 0.000000014096046, 0.000017599712, -1719946.3, -4880.9443, 0.0, 10.0, 9.994328 
2.85e+2, 1.349876e+2, -1622565.8, -1627434.9, -0.00007604087, 0.000000013801999, -0.0000684031, -1622565.8, -5444.157, 0.0, 10.0, 9.993545 
2.85e+2, 1.4497513e+2, -1534464.4, -1548146.3, -0.000029288209, 0.000000013626238, 0.00007091819, -1534464.4, -15220.665, 0.0, 10.0, 9.981865 
2.85e+2, 1.5495703e+2, -1436736.6, -1450821.9, -0.0002721012, 0.00000001356929, -0.000056980145, -1436736.6, -15315.483, 0.0, 10.0, 9.981333 
2.85e+2, 1.6493228e+2, -1348685.6, -1371952.4, -0.00015685729, 0.000000013523164, 0.00004734229, -1348685.6, -25021.977, 0.0, 10.0, 9.969248 
2.85e+2, 1.7490156e+2, -1250727.6, -1274310.1, -0.00033474326, 0.000000013488091, -0.00007383132, -1250727.6, -24762.957, 0.0, 10.0, 9.968835 
2.85e+2, 1.8486421e+2, -1162646.8, -1195720.1, -0.00017030169, 0.000000013406117, 0.00006614423, -1162646.8, -34316.01, 0.0, 10.0, 9.956395 
2.85e+2, 1.9482064e+2, -1064497.0, -1097833.0, -0.00042730197, 0.000000013275057, -0.000057656944, -1064497.0, -33739.344, 0.0, 10.0, 9.956052 
2.85e+2, 2.0477042e+2, -976333.0, -1019435.0, -0.0003013261, 0.000000013188733, 0.00006807769, -976333.0, -43083.09, 0.0, 10.0, 9.943291 
2.85e+2, 2.1471375e+2, -878045.94, -921409.9, -0.0005028459, 0.000000013150856, -0.00012682793, -878045.94, -42240.676, 0.0, 10.0, 9.942949 
2.85e+2, 2.2465037e+2, -789759.9, -843144.9, -0.00030629575, 0.000000013099563, 0.00012087913, -789759.9, -51333.57, 0.0, 10.0, 9.929908 
2.85e+2, 2.3458035e+2, -691326.4, -744966.44, -0.00045714044, 0.0000000130330555, -0.00008881859, -691326.4, -50213.805, 0.0, 10.0, 9.929577 
2.85e+2, 2.4450338e+2, -603002.3, -667018.8, -0.00024952786, 0.000000012991718, 0.00007470859, -603002.3, -59135.402, 0.0, 10.0, 9.916136 
2.85e+2, 2.5441962e+2, -504249.63, -568343.3, -0.00047285925, 0.000000012980454, -0.00010673703, -504249.63, -57562.06, 0.0, 10.0, 9.916036 
2.85e+2, 2.643288e+2, -416014.22, -490987.88, -0.00024191396, 0.000000012943189, 0.0001405939, -416014.22, -66436.53, 0.0, 10.0, 9.901964 
2.85e+2, 2.742313e+2, -316729.0, -391374.78, -0.00041331016, 0.000000012872749, -0.00020344439, -316729.0, -64195.98, 0.0, 10.0, 9.902385 
2.85e+2, 2.841256e+2, -230255.72, -318081.25, -0.00014678892, 0.000000012827056, 0.00022904557, -230255.72, -74686.75, 0.0, 10.0, 9.885439 
2.85e+2, 2.940121e+2, -130549.586, -217765.0, -0.00029086493, 0.000000012815369, -0.00025334323, -130549.586, -71868.195, 0.0, 10.0, 9.886217 
2.85e+2, 3.0392656e+2, -40805.574, -84750.16, 0.000023369128, 0.0000000128130635, 0.00017313591, -40805.574, -40805.574, 0.0, 10.0, 9.942173 
2.85e+2, 3.138706e+2, -39727.563, -82511.21, -0.000090903246, 0.000000012824387, -0.000055143006, -39727.563, -39727.563, 0.0, 10.0, 9.943684 
2.95e+2, 1.2499334e+2, -1719946.3, -1724224.6, -0.000044378885, 0.000000014558327, 0.000017599888, -1719946.3, -4880.945, 0.0, 10.0, 9.994328 
2.95e+2, 1.349876e+2, -1622565.8, -1627434.9, -0.00028679083, 0.0000000144450345, -0.00006840302, -1622565.8, -5444.158, 0.0, 10.0, 9.993545 
2.95e+2, 1.4497513e+2, -1534464.4, -1548146.3, -0.00020905126, 0.0000000143460195, 0.00007091841, -1534464.4, -15220.666, 0.0, 10.0, 9.981865 
2.95e+2, 1.5495703e+2, -1436736.6, -1450821.9, -0.0004518157, 0.000000014261201, -0.000056979978, -1436736.6, -15315.483, 0.0, 10.0, 9.981333 
2.95e+2, 1.6493228e+2, -1348685.6, -1371952.4, -0.0003243989, 0.000000014139422, 0.000047342386, -1348685.6, -25021.977, 0.0, 10.0, 9.969248 
2.95e+2, 1.7490156e+2, -1250727.6, -1274310.1, -0.0005022213, 0.000000013979898, -0.00007383131, -1250727.6, -24762.957, 0.0, 10.0, 9.968835 
2.95e+2, 1.8486421e+2, -1162646.8, -1195720.1, -0.00032145533, 0.000000013888232, 0.00006614423, -1162646.8, -34316.01, 0.0, 10.0, 9.956395 
2.95e+2, 1.9482064e+2, -1064497.0, -1097833.0, -0.0005782674, 0.000000013867561, -0.000057656856, -1064497.0, -33739.344, 0.0, 10.0, 9.956052 
2.95e+2, 2.0477042e+2, -976333.0, -1019435.0, -0.00043649366, 0.000000013828167, 0.00006807781, -976333.0, -43083.09, 0.0, 10.0, 9.943291 
2.95e+2, 2.1471375e+2, -878045.94, -921409.9, -0.0006376882, 0.000000013768482, -0.00012682781, -878045.94, -42240.676, 0.0, 10.0, 9.942949 
2.95e+2, 2.2465037e+2, -789759.9, -843144.9, -0.0004192638, 0.000000013703405, 0.0001208792, -789759.9, -51333.57, 0.0, 10.0, 9.929908 
2.95e+2, 2.3458035e+2, -691326.4, -744966.44, -0.0005693941, 0.000000013632223, -0.00008881862, -691326.4, -50213.805, 0.0, 10.0, 9.929577 
2.95e+2, 2.4450338e+2, -603002.3, -667018.8, -0.0003405409, 0.000000013561454, 0.000074708565, -603002.3, -59135.402, 0.0, 10.0, 9.916136 
2.95e+2, 2.5441962e+2, -504249.63, -568343.3, -0.00056285306, 0.000000013491173, -0.00010673693, -504249.63, -57562.06, 0.0, 10.0, 9.916036 
2.95e+2, 2.643288e+2, -416014.22, -490987.88, -0.00032009723, 0.000000013450551, 0.00014059403, -416014.22, -66436.53, 0.0, 10.0, 9.901964 
2.95e+2, 2.742313e+2, -316729.0, -391374.78, -0.00049070327, 0.000000013447662, -0.00020344435, -316729.0, -64195.98, 0.0, 10.0, 9.902385 
2.95e+2, 2.841256e+2, -230255.72, -318081.25, -0.00020839689, 0.000000013442245, 0.00022904557, -230255.72, -74686.75, 0.0, 10.0, 9.885439 
2.95e+2, 2.940121e+2, -130549.586, -217765.02, -0.00035105273, 0.0000000134331835, -0.00025334329, -130549.586, -71868.195, 0.0, 10.0, 9.886217 
2.95e+2, 3.0392656e+2, -40805.574, -84750.16, -0.000019261468, 0.000000013413881, 0.00017313585, -40805.574, -40805.574, 0.0, 10.0, 9.942173 
2.95e+2, 3.138706e+2, -39727.563, -82511.21, -0.00013147517, 0.000000013379415, -0.000055143086, -39727.563, -39727.563, 0.0, 10.0, 9.943684 
3.05e+2, 1.2499334e+2, -1719946.3, -1724224.6, 0.00010262046, 0.000000015175948, 0.000017600141, -1719946.3, -4880.941, 0.0, 10.0, 9.994328 
3.05e+2, 1.349876e+2, -1622565.8, -1627434.9, -0.00013523617, 0.000000015090801, -0.00006840294, -1622565.8, -5444.1543, 0.0, 10.0, 9.993545 
3.05e+2, 1.4497513e+2, -1534464.4, -1548146.3, -0.000012889979, 0.000000015000888, 0.00007091858, -1534464.4, -15220.662, 0.0, 10.0, 9.981865 
3.05e+2, 1.5495703e+2, -1436736.6, -1450821.9, -0.0002504184, 0.000000014906027, -0.000056979916, -1436736.6, -15315.48, 0.0, 10.0, 9.981333 
3.05e+2, 1.6493228e+2, -1348685.6, -1371952.4, -0.00012069001, 0.000000014756918, 0.000047342433, -1348685.6, -25021.973, 0.0, 10.0, 9.969248 
3.05e+2, 1.7490156e+2, -1250727.6, -1274310.1, -0.0003629097, 0.000000014552415, -0.00007383119, -1250727.6, -24762.953, 0.0, 10.0, 9.968835 
3.05e+2, 1.8486421e+2, -1162646.8, -1195720.1, -0.00020895804, 0.000000014458645, 0.00006614438, -1162646.8, -34316.008, 0.0, 10.0, 9.956395 
3.05e+2, 1.9482064e+2, -1064497.0, -1097833.0, -0.0004394579, 0.000000014480735, -0.000057656758, -1064497.0, -33739.34, 0.0, 10.0, 9.956052 
3.05e+2, 2.0477042e+2, -976333.0, -1019435.0, -0.00026193968, 0.00000001444905, 0.000068077854, -976333.0, -43083.086, 0.0, 10.0, 9.943291 
3.05e+2, 2.1471375e+2, -878045.94, -921409.9, -0.00047169754, 0.0000000143591095, -0.00012682783, -878045.94, -42240.67, 0.0, 10.0, 9.942949 
3.05e+2, 2.2465037e+2, -789759.9, -843144.9, -0.00027420322, 0.000000014282197, 0.00012087921, -789759.9, -51333.566, 0.0, 10.0, 9.929908 
3.05e+2, 2.3458035e+2, -691326.4, -744966.44, -0.0005109321, 0.0000000142200465, -0.00008881849, -691326.4, -50213.8, 0.0, 10.0, 9.929577 
3.05e+2, 2.4450338e+2, -603002.3, -667018.8, -0.00029570347, 0.000000014151916, 0.00007470872, -603002.3, -59135.4, 0.0, 10.0, 9.916136 
3.05e+2, 2.5441962e+2, -504249.63, -568343.3, -0.0004870154, 0.0000000140766145, -0.00010673688, -504249.63, -57562.06, 0.0, 10.0, 9.916036 
3.05e+2, 2.643288e+2, -416014.22, -490987.88, -0.00022232026, 0.000000014032891, 0.00014059403, -416014.22, -66436.53, 0.0, 10.0, 9.901964 
3.05e+2, 2.742313e+2, -316728.97, -391374.78, -0.00039838275, 0.000000014029359, -0.00020344435, -316728.97, -64195.977, 0.0, 10.0, 9.902385 
3.05e+2, 2.841256e+2, -230255.72, -318081.25, -0.00011305737, 0.000000014027499, 0.00022904557, -230255.72, -74686.75, 0.0, 10.0, 9.885439 
3.05e+2, 2.940121e+2, -130549.586, -217765.0, -0.000281867, 0.000000014027731, -0.00025334326, -130549.586, -71868.19, 0.0, 10.0, 9.886217 
3.05e+2, 3.0392656e+2, -40805.57, -84750.16, 0.000038949252, 0.000000014013409, 0.00017313585, -40805.57, -40805.57, 0.0, 10.0, 9.942173 
3.05e+2, 3.138706e+2, -39727.563, -82511.21, -0.000117821844, 0.0000000139774645, -0.000055143086, -39727.563, -39727.563, 0.0, 10.0, 9.943684 
3.15e+2, 1.2499334e+2, -1719946.3, -1724224.6, -0.00014205642, 0.00000001594891, 0.000017600472, -1719946.3, -4880.942, 0.0, 10.0, 9.994328 
3.15e+2, 1.349876e+2, -1622565.8, -1627434.9, -0.00037997385, 0.000000015739296, -0.00006840286, -1622565.8, -5444.1553, 0.0, 10.0, 9.993545 
3.15e+2, 1.4497513e+2, -1534464.4, -1548146.3, -0.00021086812, 0.000000015590839, 0.0000709187, -1534464.4, -15220.663, 0.0, 10.0, 9.981865 
3.15e+2, 1.5495703e+2, -1436736.6, -1450821.9, -0.00044832288, 0.000000015503764, -0.000056979956, -1436736.6, -15315.48, 0.0, 10.0, 9.981333 
3.15e+2, 1.6493228e+2, -1348685.6, -1371952.4, -0.00026932833, 0.000000015375655, 0.00004734243, -1348685.6, -25021.975, 0.0, 10.0, 9.969248 
3.15e+2, 1.7490156e+2, -1250727.6, -1274310.1, -0.00051128864, 0.000000015205641, -0.000073830946, -1250727.6, -24762.953, 0.0, 10.0, 9.968835 
3.15e+2, 1.8486421e+2, -1162646.8, -1195720.1, -0.00038833698, 0.000000015117354, 0.000066144654, -1162646.8, -34316.008, 0.0, 10.0, 9.956395 
3.15e+2, 1.9482064e+2, -1064497.0, -1097833.0, -0.00061919674, 0.000000015114576, -0.000057656656, -1064497.0, -33739.34, 0.0, 10.0, 9.956052 
3.15e+2, 2.0477042e+2, -976333.0, -1019435.0, -0.00040630464, 0.000000015051382, 0.00006807782, -976333.0, -43083.086, 0.0, 10.0, 9.943291 
3.15e+2, 2.1471375e+2, -878045.94, -921409.9, -0.0006153329, 0.000000014922737, -0.00012682799, -878045.94, -42240.67, 0.0, 10.0, 9.942949 
3.15e+2, 2.2465037e+2, -789759.9, -843144.9, -0.00039147772, 0.00000001483594, 0.00012087916, -789759.9, -51333.566, 0.0, 10.0, 9.929908 
3.15e+2, 2.3458035e+2, -691326.4, -744966.44, -0.0006273455, 0.000000014796525, -0.000088818204, -691326.4, -50213.8, 0.0, 10.0, 9.929577 
3.15e+2, 2.4450338e+2, -603002.3, -667018.8, -0.00039347922, 0.000000014763104, 0.00007470904, -603002.3, -59135.4, 0.0, 10.0, 9.916136 
3.15e+2, 2.5441962e+2, -504249.63, -568343.3, -0.00058389705, 0.000000014736782, -0.00010673688, -504249.63, -57562.06, 0.0, 10.0, 9.916036 
3.15e+2, 2.643288e+2, -416014.22, -490987.88, -0.00031676138, 0.000000014690212, 0.00014059388, -416014.22, -66436.53, 0.0, 10.0, 9.901964 
3.15e+2, 2.742313e+2, -316728.97, -391374.78, -0.0004926622, 0.000000014617843, -0.00020344439, -316728.97, -64195.977, 0.0, 10.0, 9.902385 
3.15e+2, 2.841256e+2, -230255.72, -318081.25, -0.0001879617, 0.000000014582819, 0.00022904559, -230255.72, -74686.75, 0.0, 10.0, 9.885439 
3.15e+2, 2.940121e+2, -130549.586, -217765.02, -0.00035502773, 0.000000014599011, -0.0002533432, -130549.586, -71868.19, 0.0, 10.0, 9.886217 
3.15e+2, 3.0392656e+2, -40805.574, -84750.16, 0.00000050984715, 0.00000001461165, 0.00017313592, -40805.574, -40805.574, 0.0, 10.0, 9.942173 
3.15e+2, 3.138706e+2, -39727.563, -82511.21, -0.00015218767, 0.000000014618537, -0.00005514301, -39727.563, -39727.563, 0.0, 10.0, 9.943684 
3.25e+2, 1.2499334e+2, -1719946.3, -1724224.6, 0.000117819654, 0.000000016742845, 0.000017600583, -1719946.3, -4880.938, 0.0, 10.0, 9.994328 
3.25e+2, 1.349876e+2, -1622565.8, -1627434.9, -0.00012976132, 0.000000016386108, -0.000068402805, -1622565.8, -5444.151, 0.0, 10.0, 9.993545 
3.25e+2, 1.4497513e+2, -1534464.4, -1548146.3, 0.00003406582, 0.000000016168418, 0.0000709189, -1534464.4, -15220.658, 0.0, 10.0, 9.981865 
3.25e+2, 1.5495703e+2, -1436736.6, -1450821.9, -0.00023183155, 0.000000016090473, -0.000056979894, -1436736.6, -15315.477, 0.0, 10.0, 9.981333 
3.25e+2, 1.6493228e+2, -1348685.6, -1371952.4, -0.000078502046, 0.000000016004778, 0.000047342484, -1348685.6, -25021.97, 0.0, 10.0, 9.969248 
3.25e+2, 1.7490156e+2, -1250727.6, -1274310.1, -0.00037411496, 0.000000015911171, -0.000073830764, -1250727.6, -24762.951, 0.0, 10.0, 9.968835 
3.25e+2, 1.8486421e+2, -1162646.8, -1195720.1, -0.00024704705, 0.000000015820024, 0.000066144836, -1162646.8, -34316.004, 0.0, 10.0, 9.956395 
3.25e+2, 1.9482064e+2, -1064497.0, -1097833.0, -0.0004573291, 0.000000015731441, -0.00005765661, -1064497.0, -33739.336, 0.0, 10.0, 9.956052 
3.25e+2, 2.0477042e+2, -976333.0, -1019435.0, -0.00022072047, 0.000000015628927, 0.00006807782, -976333.0, -43083.082, 0.0, 10.0, 9.943291 
3.25e+2, 2.1471375e+2, -878045.94, -921409.9, -0.00044953928, 0.00000001551132, -0.00012682793, -878045.94, -42240.668, 0.0, 10.0, 9.942949 
3.25e+2, 2.2465037e+2, -789759.9, -843144.9, -0.00025383037, 0.00000001543837, 0.000120879246, -789759.9, -51333.563, 0.0, 10.0, 9.929908 
3.25e+2, 2.3458035e+2, -691326.3, -744966.44, -0.0005481318, 0.000000015415964, -0.000088818095, -691326.3, -50213.797, 0.0, 10.0, 9.929577 
3.25e+2, 2.4450338e+2, -603002.3, -667018.8, -0.0003102518, 0.000000015392253, 0.000074709125, -603002.3, -59135.395, 0.0, 10.0, 9.916136 
3.25e+2, 2.5441962e+2, -504249.63, -568343.3, -0.00046487013, 0.00000001536692, -0.00010673686, -504249.63, -57562.055, 0.0, 10.0, 9.916036 
3.25e+2, 2.643288e+2, -416014.22, -490987.88, -0.00017361813, 0.000000015318564, 0.00014059387, -416014.22, -66436.52, 0.0, 10.0, 9.901964 
3.25e+2, 2.742313e+2, -316728.97, -391374.78, -0.00039589527, 0.000000015240898, -0.00020344439, -316728.97, -64195.973, 0.0, 10.0, 9.902385 
3.25e+2, 2.841256e+2, -230255.72, -318081.25, -0.00012939723, 0.000000015192537, 0.00022904562, -230255.72, -74686.75, 0.0, 10.0, 9.885439 
3.25e+2, 2.940121e+2, -130549.586, -217765.0, -0.0003471224, 0.000000015184405, -0.00025334317, -130549.586, -71868.19, 0.0, 10.0, 9.886217 
3.25e+2, 3.0392656e+2, -40805.57, -84750.16, -0.000008948441, 0.00000001519757, 0.000173136, -40805.57, -40805.57, 0.0, 10.0, 9.942173 
3.25e+2, 3.138706e+2, -39727.56, -82511.21, -0.00016563914, 0.00000001524198, -0.00005514295, -39727.56, -39727.56, 0.0, 10.0, 9.943684 
3.35e+2, 1.2499334e+2, -1719946.3, -1724224.6, -0.00006165911, 0.000000017557754, 0.000017600474, -1719946.3, -4880.9385, 0.0, 10.0, 9.994328 
3.35e+2, 1.349876e+2, -1622565.8, -1627434.9, -0.00030928233, 0.000000017031239, -0.000068402784, -1622565.8, -5444.152, 0.0, 10.0, 9.993545 
3.35e+2, 1.4497513e+2, -1534464.4, -1548146.3, -0.000166778, 0.000000016733619, 0.00007091919, -1534464.4, -15220.659, 0.0, 10.0, 9.981865 
3.35e+2, 1.5495703e+2, -1436736.6, -1450821.9, -0.0004327097, 0.000000016666151, -0.00005697973, -1436736.6, -15315.478, 0.0, 10.0, 9.981333 
3.35e+2, 1.6493228e+2, -1348685.6, -1371952.4, -0.00029992554, 0.000000016644293, 0.000047342597, -1348685.6, -25021.97, 0.0, 10.0, 9.969248 
3.35e+2, 1.7490156e+2, -1250727.6, -1274310.1, -0.00059564755, 0.000000016669008, -0.00007383063, -1250727.6, -24762.951, 0.0, 10.0, 9.968835 
3.35e+2, 1.8486421e+2, -1162646.8, -1195720.1, -0.00039569568, 0.000000016566656, 0.00006614492, -1162646.8, -34316.004, 0.0, 10.0, 9.956395 
3.35e+2, 1.9482064e+2, -1064497.0, -1097833.0, -0.0006051347, 0.000000016331326, -0.000057656616, -1064497.0, -33739.34, 0.0, 10.0, 9.956052 
3.35e+2, 2.0477042e+2, -976333.0, -1019435.0, -0.000359863, 0.000000016181687, 0.00006807786, -976333.0, -43083.086, 0.0, 10.0, 9.943291 
3.35e+2, 2.1471375e+2, -878045.94, -921409.9, -0.000588504, 0.000000016124856, -0.00012682767, -878045.94, -42240.668, 0.0, 10.0, 9.942949 
3.35e+2, 2.2465037e+2, -789759.9, -843144.9, -0.0004003588, 0.000000016089487, 0.00012087948, -789759.9, -51333.563, 0.0, 10.0, 9.929908 
3.35e+2, 2.3458035e+2, -691326.3, -744966.44, -0.0006949091, 0.000000016078365, -0.00008881817, -691326.3, -50213.797, 0.0, 10.0, 9.929577 
3.35e+2, 2.4450338e+2, -603002.3, -667018.8, -0.0004363905, 0.000000016039365, 0.00007470898, -603002.3, -59135.395, 0.0, 10.0, 9.916136 
3.35e+2, 2.5441962e+2, -504249.63, -568343.3, -0.0005900187, 0.000000015967034, -0.000106736814, -504249.63, -57562.055, 0.0, 10.0, 9.916036 
3.35e+2, 2.643288e+2, -416014.22, -490987.88, -0.00025126274, 0.000000015917951, 0.000140594, -416014.22, -66436.52, 0.0, 10.0, 9.901964 
3.35e+2, 2.742313e+2, -316728.97, -391374.78, -0.00047035687, 0.000000015898523, -0.00020344432, -316728.97, -64195.977, 0.0, 10.0, 9.902385 
3.35e+2, 2.841256e+2, -230255.72, -318081.25, -0.00020141633, 0.000000015856653, 0.00022904566, -230255.72, -74686.75, 0.0, 10.0, 9.885439 
3.35e+2, 2.940121e+2, -130549.586, -217765.02, -0.00041892382, 0.000000015783915, -0.0002533431, -130549.586, -71868.19, 0.0, 10.0, 9.886217 
3.35e+2, 3.0392656e+2, -40805.57, -84750.16, -0.00008259452, 0.000000015771167, 0.00017313604, -40805.57, -40805.57, 0.0, 10.0, 9.942173 
3.35e+2, 3.138706e+2, -39727.56, -82511.21, -0.00023950452, 0.000000015847792, -0.00005514292, -39727.56, -39727.56, 0.0, 10.0, 9.943684 
3.45e+2, 1.2499334e+2, -1719946.3, -1724224.6, 0.00041259095, 0.000000018141165, 0.0000176004, -1719946.3, -4880.934, 0.0, 10.0, 9.994328 
3.45e+2, 1.349876e+2, -1622565.8, -1627434.9, -0.000010785521, 0.00000001767674, -0.000068402784, -1622565.8, -5444.1475, 0.0, 10.0, 9.993545 
3.45e+2, 1.4497513e+2, -1534464.4, -1548146.3, 0.000032978067, 0.00000001742001, 0.000070919465, -1534464.4, -15220.655, 0.0, 10.0, 9.981865 
3.45e+2, 1.5495703e+2, -1436736.6, -1450821.9, -0.00025471428, 0.000000017372132, -0.000056979527, -1436736.6, -15315.474, 0.0, 10.0, 9.981333 
3.45e+2, 1.6493228e+2, -1348685.6, -1371952.4, -0.00010663309, 0.000000017335397, 0.00004734272, -1348685.6, -25021.967, 0.0, 10.0, 9.969248 
3.45e+2, 1.7490156e+2, -1250727.6, -1274310.1, -0.00036395056, 0.000000017310045, -0.000073830604, -1250727.6, -24762.947, 0.0, 10.0, 9.968835 
3.45e+2, 1.8486421e+2, -1162646.8, -1195720.1, -0.00013041586, 0.00000001718755, 0.00006614494, -1162646.8, -34316.0, 0.0, 10.0, 9.956395 
3.45e+2, 1.9482064e+2, -1064497.0, -1097833.0, -0.00041317928, 0.000000016963389, -0.000057656554, -1064497.0, -33739.336, 0.0, 10.0, 9.956052 
3.45e+2, 2.0477042e+2, -976333.0, -1019435.0, -0.00024231839, 0.000000016839994, 0.00006807801, -976333.0, -43083.082, 0.0, 10.0, 9.943291 
3.45e+2, 2.1471375e+2, -878045.94, -921409.9, -0.0005554899, 0.00000001682573, -0.0001268274, -878045.94, -42240.664, 0.0, 10.0, 9.942949 
3.45e+2, 2.2465037e+2, -789759.9, -843144.9, -0.0003154671, 0.000000016788531, 0.00012087967, -789759.9, -51333.563, 0.0, 10.0, 9.929908 
3.45e+2, 2.3458035e+2, -691326.3, -744966.44, -0.00044416112, 0.000000016725316, -0.000088818284, -691326.3, -50213.793, 0.0, 10.0, 9.929577 
3.45e+2, 2.4450338e+2, -603002.25, -667018.8, -0.00015603442, 0.000000016650455, 0.00007470881, -603002.25, -59135.39, 0.0, 10.0, 9.916136 
3.45e+2, 2.5441962e+2, -504249.63, -568343.3, -0.00048894144, 0.000000016561698, -0.00010673673, -504249.63, -57562.05, 0.0, 10.0, 9.916036 
3.45e+2, 2.643288e+2, -416014.2, -490987.88, -0.00023348277, 0.000000016528476, 0.0001405942, -416014.2, -66436.52, 0.0, 10.0, 9.901964 
3.45e+2, 2.742313e+2, -316728.97, -391374.78, -0.0004408789, 0.000000016565949, -0.00020344422, -316728.97, -64195.973, 0.0, 10.0, 9.902385 
3.45e+2, 2.841256e+2, -230255.72, -318081.25, -0.00011759256, 0.00000001654808, 0.00022904569, -230255.72, -74686.74, 0.0, 10.0, 9.885439 
3.45e+2, 2.940121e+2, -130549.58, -217765.0, -0.00029875617, 0.00000001645413, -0.00025334314, -130549.58, -71868.19, 0.0, 10.0, 9.886217 
3.45e+2, 3.0392656e+2, -40805.566, -84750.16, 0.000039986793, 0.000000016399044, 0.00017313601, -40805.566, -40805.566, 0.0, 10.0, 9.942173 
3.45e+2, 3.138706e+2, -39727.555, -82511.21, -0.00017603641, 0.000000016402398, -0.000055142886, -39727.555, -39727.555, 0.0, 10.0, 9.943684 
3.55e+2, 1.2499334e+2, -1719946.3, -1724224.6, 0.00015858635, 0.000000018493077, 0.00001760036, -1719946.3, -4880.935, 0.0, 10.0, 9.994328 
3.55e+2, 1.349876e+2, -1622565.8, -1627434.9, -0.00026485205, 0.000000018322616, -0.000068402805, -1622565.8, -5444.1484, 0.0, 10.0, 9.993545 
3.55e+2, 1.4497513e+2, -1534464.4, -1548146.3, -0.00020116473, 0.000000018227592, 0.00007091973, -1534464.4, -15220.655, 0.0, 10.0, 9.981865 
3.55e+2, 1.5495703e+2, -1436736.6, -1450821.9, -0.0004888261, 0.000000018208418, -0.000056979283, -1436736.6, -15315.475, 0.0, 10.0, 9.981333 
3.55e+2, 1.6493228e+2, -1348685.6, -1371952.4, -0.00030737362, 0.000000018078095, 0.000047342855, -1348685.6, -25021.967, 0.0, 10.0, 9.969248 
3.55e+2, 1.7490156e+2, -1250727.6, -1274310.1, -0.00056451577, 0.000000017834283, -0.000073830655, -1250727.6, -24762.947, 0.0, 10.0, 9.968835 
3.55e+2, 1.8486421e+2, -1162646.8, -1195720.1, -0.00030597986, 0.000000017682707, 0.00006614487, -1162646.8, -34316.0, 0.0, 10.0, 9.956395 
3.55e+2, 1.9482064e+2, -1064497.0, -1097833.0, -0.0005884547, 0.000000017627633, -0.000057656416, -1064497.0, -33739.336, 0.0, 10.0, 9.956052 
3.55e+2, 2.0477042e+2, -976333.0, -1019435.0, -0.00041857816, 0.00000001760385, 0.00006807826, -976333.0, -43083.082, 0.0, 10.0, 9.943291 
3.55e+2, 2.1471375e+2, -878045.94, -921409.9, -0.00073177123, 0.000000017613944, -0.00012682713, -878045.94, -42240.668, 0.0, 10.0, 9.942949 
3.55e+2, 2.2465037e+2, -789759.9, -843144.9, -0.00044632136, 0.000000017535498, 0.000120879806, -789759.9, -51333.563, 0.0, 10.0, 9.929908 
3.55e+2, 2.3458035e+2, -691326.3, -744966.44, -0.00057353073, 0.000000017356816, -0.00008881845, -691326.3, -50213.793, 0.0, 10.0, 9.929577 
3.55e+2, 2.4450338e+2, -603002.25, -667018.8, -0.00026512262, 0.000000017225522, 0.00007470863, -603002.25, -59135.39, 0.0, 10.0, 9.916136 
3.55e+2, 2.5441962e+2, -504249.63, -568343.3, -0.0005970567, 0.000000017150915, -0.000106736596, -504249.63, -57562.05, 0.0, 10.0, 9.916036 
3.55e+2, 2.643288e+2, -416014.22, -490987.88, -0.00036363638, 0.000000017150139, 0.00014059445, -416014.22, -66436.52, 0.0, 10.0, 9.901964 
3.55e+2, 2.742313e+2, -316728.97, -391374.78, -0.00057251216, 0.000000017243178, -0.00020344408, -316728.97, -64195.973, 0.0, 10.0, 9.902385 
3.55e+2, 2.841256e+2, -230255.72, -318081.25, -0.00018509006, 0.00000001726682, 0.00022904569, -230255.72, -74686.74, 0.0, 10.0, 9.885439 
3.55e+2, 2.940121e+2, -130549.58, -217765.02, -0.0003604772, 0.000000017195056, -0.00025334326, -130549.58, -71868.19, 0.0, 10.0, 9.886217 
3.55e+2, 3.0392656e+2, -40805.566, -84750.16, -0.0000020097104, 0.000000017081197, 0.00017313588, -40805.566, -40805.566, 0.0, 10.0, 9.942173 
3.55e+2, 3.138706e+2, -39727.555, -82511.21, -0.00021572027, 0.000000016905792, -0.000055142857, -39727.555, -39727.555, 0.0, 10.0, 9.943684 
3.65e+2, 1.2499334e+2, -1719946.3, -1724224.6, 0.00017764332, 0.00000001910042, 0.000017600878, -1719946.3, -4880.93, 0.0, 10.0, 9.994328 
3.65e+2, 1.349876e+2, -1622565.8, -1627434.9, -0.00008317303, 0.000000019045679, -0.00006840278, -1622565.8, -5444.1436, 0.0, 10.0, 9.993545 
3.65e+2, 1.4497513e+2, -1534464.4, -1548146.3, 0.000078550656, 0.000000018990734, 0.000070919836, -1534464.4, -15220.651, 0.0, 10.0, 9.981865 
3.65e+2, 1.5495703e+2, -1436736.6, -1450821.9, -0.0002589132, 0.000000018935557, -0.00005697914, -1436736.6, -15315.47, 0.0, 10.0, 9.981333 
3.65e+2, 1.6493228e+2, -1348685.6, -1371952.4, -0.00005010512, 0.00000001876164, 0.00004734298, -1348685.6, -25021.963, 0.0, 10.0, 9.969248 
3.65e+2, 1.7490156e+2, -1250727.6, -1274310.1, -0.00031794194, 0.000000018466473, -0.00007383061, -1250727.6, -24762.943, 0.0, 10.0, 9.968835 
3.65e+2, 1.8486421e+2, -1162646.6, -1195720.1, -0.000105261686, 0.000000018329803, 0.00006614496, -1162646.6, -34315.996, 0.0, 10.0, 9.956395 
3.65e+2, 1.9482064e+2, -1064497.0, -1097833.0, -0.000449494, 0.000000018358971, -0.000057656198, -1064497.0, -33739.332, 0.0, 10.0, 9.956052 
3.65e+2, 2.0477042e+2, -976333.0, -1019435.0, -0.00024582408, 0.000000018347848, 0.000068078436, -976333.0, -43083.08, 0.0, 10.0, 9.943291 
3.65e+2, 2.1471375e+2, -878045.94, -921409.9, -0.00047126235, 0.000000018293065, -0.0001268272, -878045.94, -42240.664, 0.0, 10.0, 9.942949 
3.65e+2, 2.2465037e+2, -789759.8, -843144.9, -0.00017757357, 0.000000018184105, 0.000120879726, -789759.8, -51333.56, 0.0, 10.0, 9.929908 
3.65e+2, 2.3458035e+2, -691326.3, -744966.44, -0.00048429024, 0.000000018013832, -0.00008881827, -691326.3, -50213.79, 0.0, 10.0, 9.929577 
3.65e+2, 2.4450338e+2, -603002.25, -667018.8, -0.00022894374, 0.000000017910711, 0.00007470886, -603002.25, -59135.387, 0.0, 10.0, 9.916136 
3.65e+2, 2.5441962e+2, -504249.63, -568343.3, -0.0004702905, 0.00000001788785, -0.00010673655, -504249.63, -57562.047, 0.0, 10.0, 9.916036 
3.65e+2, 2.643288e+2, -416014.2, -490987.88, -0.00018622007, 0.000000017871097, 0.0001405944, -416014.2, -66436.516, 0.0, 10.0, 9.901964 
3.65e+2, 2.742313e+2, -316728.97, -391374.78, -0.00042558403, 0.000000017861911, -0.00020344408, -316728.97, -64195.97, 0.0, 10.0, 9.902385 
3.65e+2, 2.841256e+2, -230255.72, -318081.25, -0.000053284737, 0.00000001785624, 0.00022904572, -230255.72, -74686.74, 0.0, 10.0, 9.885439 
3.65e+2, 2.940121e+2, -130549.58, -217765.0, -0.0002829026, 0.000000017855333, -0.0002533432, -130549.58, -71868.18, 0.0, 10.0, 9.886217 
3.65e+2, 3.0392656e+2, -40805.563, -84750.16, 0.00007741346, 0.000000017785, 0.00017313592, -40805.563, -40805.563, 0.0, 10.0, 9.942173 
3.65e+2, 3.138706e+2, -39727.55, -82511.21, -0.00012483548, 0.000000017611596, -0.00005514293, -39727.55, -39727.55, 0.0, 10.0, 9.943684 
3.75e+2, 1.2499334e+2, -1719946.3, -1724224.6, -0.00014071412, 0.000000019963194, 0.000017601955, -1719946.3, -4880.9307, 0.0, 10.0, 9.994328 
3.75e+2, 1.349876e+2, -1622565.8, -1627434.9, -0.0004016093, 0.000000019845924, -0.0000684027, -1622565.8, -5444.1445, 0.0, 10.0, 9.993545 
3.75e+2, 1.4497513e+2, -1534464.4, -1548146.3, -0.00017968685, 0.00000001970944, 0.00007091978, -1534464.4, -15220.652, 0.0, 10.0, 9.981865 
3.75e+2, 1.5495703e+2, -1436736.6, -1450821.9, -0.0005170559, 0.000000019553553, -0.000056979105, -1436736.6, -15315.471, 0.0, 10.0, 9.981333 
3.75e+2, 1.6493228e+2, -1348685.6, -1371952.4, -0.00022773867, 0.00000001938603, 0.00004734309, -1348685.6, -25021.963, 0.0, 10.0, 9.969248 
3.75e+2, 1.7490156e+2, -1250727.6, -1274310.1, -0.0004951513, 0.000000019206617, -0.00007383045, -1250727.6, -24762.943, 0.0, 10.0, 9.968835 
3.75e+2, 1.8486421e+2, -1162646.6, -1195720.1, -0.00032980004, 0.00000001912884, 0.00006614518, -1162646.6, -34315.996, 0.0, 10.0, 9.956395 
3.75e+2, 1.9482064e+2, -1064497.0, -1097833.0, -0.00067458156, 0.000000019157408, -0.000057655896, -1064497.0, -33739.332, 0.0, 10.0, 9.956052 
3.75e+2, 2.0477042e+2, -976333.0, -1019435.0, -0.0004235727, 0.000000019071987, 0.00006807853, -976333.0, -43083.08, 0.0, 10.0, 9.943291 
3.75e+2, 2.1471375e+2, -878045.94, -921409.9, -0.0006480345, 0.000000018863092, -0.00012682762, -878045.94, -42240.664, 0.0, 10.0, 9.942949 
3.75e+2, 2.2465037e+2, -789759.8, -843144.9, -0.00030870264, 0.000000018734347, 0.00012087942, -789759.8, -51333.56, 0.0, 10.0, 9.929908 
3.75e+2, 2.3458035e+2, -691326.3, -744966.44, -0.00061392755, 0.000000018696358, -0.000088817746, -691326.3, -50213.793, 0.0, 10.0, 9.929577 
3.75e+2, 2.4450338e+2, -603002.25, -667018.8, -0.00037082226, 0.000000018706023, 0.00007470952, -603002.25, -59135.39, 0.0, 10.0, 9.916136 
3.75e+2, 2.5441962e+2, -504249.63, -568343.3, -0.00061275915, 0.000000018772502, -0.00010673659, -504249.63, -57562.047, 0.0, 10.0, 9.916036 
3.75e+2, 2.643288e+2, -416014.2, -490987.88, -0.00028104812, 0.000000018691345, 0.00014059407, -416014.2, -66436.52, 0.0, 10.0, 9.901964 
3.75e+2, 2.742313e+2, -316728.97, -391374.78, -0.00051722024, 0.00000001842215, -0.00020344422, -316728.97, -64195.97, 0.0, 10.0, 9.902385 
3.75e+2, 2.841256e+2, -230255.72, -318081.25, -0.00015672698, 0.000000018316333, 0.00022904579, -230255.72, -74686.74, 0.0, 10.0, 9.885439 
3.75e+2, 2.940121e+2, -130549.58, -217765.02, -0.00038741113, 0.000000018434962, -0.00025334297, -130549.58, -71868.18, 0.0, 10.0, 9.886217 
3.75e+2, 3.0392656e+2, -40805.563, -84750.16, 0.00002140236, 0.000000018510454, 0.00017313611, -40805.563, -40805.563, 0.0, 10.0, 9.942173 
3.75e+2, 3.138706e+2, -39727.55, -82511.21, -0.00017515609, 0.000000018519804, -0.000055143104, -39727.55, -39727.55, 0.0, 10.0, 9.943684 
3.85e+2, 1.2499334e+2, -1719946.3, -1724224.6, -0.000039183007, 0.000000020935918, 0.000017602328, -1719946.3, -4880.9263, 0.0, 10.0, 9.994328 
3.85e+2, 1.349876e+2, -1622565.8, -1627434.9, -0.00024668706, 0.000000020660126, -0.00006840251, -1622565.8, -5444.1396, 0.0, 10.0, 9.993545 
3.85e+2, 1.4497513e+2, -1534464.4, -1548146.3, 0.00005966531, 0.00000002041815, 0.000070920076, -1534464.4, -15220.647, 0.0, 10.0, 9.981865 
3.85e+2, 1.5495703e+2, -1436736.6, -1450821.9, -0.00024854537, 0.00000002021006, -0.000056979086, -1436736.6, -15315.466, 0.0, 10.0, 9.981333 
3.85e+2, 1.6493228e+2, -1348685.6, -1371952.4, 0.00001397297, 0.000000020077042, 0.000047343103, -1348685.6, -25021.959, 0.0, 10.0, 9.969248 
3.85e+2, 1.7490156e+2, -1250727.6, -1274310.1, -0.00034759467, 0.00000002002068, -0.000073830146, -1250727.6, -24762.94, 0.0, 10.0, 9.968835 
3.85e+2, 1.8486421e+2, -1162646.6, -1195720.1, -0.00016313206, 0.000000019961227, 0.00006614548, -1162646.6, -34315.992, 0.0, 10.0, 9.956395 
3.85e+2, 1.9482064e+2, -1064497.0, -1097833.0, -0.0004231007, 0.000000019898525, -0.00005765589, -1064497.0, -33739.33, 0.0, 10.0, 9.956052 
3.85e+2, 2.0477042e+2, -976333.0, -1019435.0, -0.00010593083, 0.000000019744398, 0.000068078436, -976333.0, -43083.074, 0.0, 10.0, 9.943291 
3.85e+2, 2.1471375e+2, -878045.94, -921409.9, -0.0003781369, 0.000000019491244, -0.00012682761, -878045.94, -42240.656, 0.0, 10.0, 9.942949 
3.85e+2, 2.2465037e+2, -789759.8, -843144.9, -0.00012505271, 0.000000019391607, 0.00012087954, -789759.8, -51333.555, 0.0, 10.0, 9.929908 
3.85e+2, 2.3458035e+2, -691326.3, -744966.44, -0.00053673453, 0.000000019465764, -0.00008881754, -691326.3, -50213.785, 0.0, 10.0, 9.929577 
3.85e+2, 2.4450338e+2, -603002.25, -667018.8, -0.0002869727, 0.000000019501108, 0.00007470969, -603002.25, -59135.387, 0.0, 10.0, 9.916136 
3.85e+2, 2.5441962e+2, -504249.6, -568343.3, -0.00045796097, 0.000000019489901, -0.000106736574, -504249.6, -57562.043, 0.0, 10.0, 9.916036 
3.85e+2, 2.643288e+2, -416014.2, -490987.88, -0.000060721413, 0.000000019373099, 0.00014059401, -416014.2, -66436.516, 0.0, 10.0, 9.901964 
3.85e+2, 2.742313e+2, -316728.97, -391374.78, -0.0003517654, 0.000000019122002, -0.00020344419, -316728.97, -64195.965, 0.0, 10.0, 9.902385 
3.85e+2, 2.841256e+2, -230255.7, -318081.25, -0.00006843569, 0.000000019016255, 0.00022904585, -230255.7, -74686.734, 0.0, 10.0, 9.885439 
3.85e+2, 2.940121e+2, -130549.57, -217765.0, -0.0003447205, 0.000000019110024, -0.00025334288, -130549.57, -71868.18, 0.0, 10.0, 9.886217 
3.85e+2, 3.0392656e+2, -40805.56, -84750.16, 0.000074174124, 0.000000019212477, 0.00017313614, -40805.56, -40805.56, 0.0, 10.0, 9.942173 
3.85e+2, 3.138706e+2, -39727.547, -82511.21, -0.00006690964, 0.000000019325942, -0.00005514317, -39727.547, -39727.547, 0.0, 10.0, 9.943684 
3.95e+2, 1.2499334e+2, -1719946.3, -1724224.6, -0.0002728141, 0.000000022018591, 0.000017601998, -1719946.3, -4880.927, 0.0, 10.0, 9.994328 
3.95e+2, 1.349876e+2, -1622565.8, -1627434.9, -0.0004803705, 0.000000021488285, -0.000068402194, -1622565.8, -5444.14, 0.0, 10.0, 9.993545 
3.95e+2, 1.4497513e+2, -1534464.4, -1548146.3, -0.00015000466, 0.000000021116868, 0.00007092074, -1534464.4, -15220.648, 0.0, 10.0, 9.981865 
3.95e+2, 1.5495703e+2, -1436736.6, -1450821.9, -0.000458178, 0.000000020905071, -0.000056979094, -1436736.6, -15315.467, 0.0, 10.0, 9.981333 
3.95e+2, 1.6493228e+2, -1348685.6, -1371952.4, -0.0002683966, 0.000000020834676, 0.00004734302, -1348685.6, -25021.959, 0.0, 10.0, 9.969248 
3.95e+2, 1.7490156e+2, -1250727.6, -1274310.1, -0.0006303491, 0.000000020908665, -0.0000738297, -1250727.6, -24762.94, 0.0, 10.0, 9.968835 
3.95e+2, 1.8486421e+2, -1162646.6, -1195720.1, -0.00034820565, 0.00000002082696, 0.00006614587, -1162646.6, -34315.992, 0.0, 10.0, 9.956395 
3.95e+2, 1.9482064e+2, -1064497.0, -1097833.0, -0.00060704426, 0.000000020582325, -0.000057656176, -1064497.0, -33739.33, 0.0, 10.0, 9.956052 
3.95e+2, 2.0477042e+2, -976333.0, -1019435.0, -0.00024858073, 0.000000020365084, 0.00006807815, -976333.0, -43083.074, 0.0, 10.0, 9.943291 
3.95e+2, 2.1471375e+2, -878045.94, -921409.9, -0.00051993533, 0.000000020177517, -0.00012682716, -878045.94, -42240.66, 0.0, 10.0, 9.942949 
3.95e+2, 2.2465037e+2, -789759.8, -843144.9, -0.00033585448, 0.000000020155882, 0.000120880075, -789759.8, -51333.555, 0.0, 10.0, 9.929908 
3.95e+2, 2.3458035e+2, -691326.3, -744966.44, -0.00074979535, 0.000000020322044, -0.00008881766, -691326.3, -50213.79, 0.0, 10.0, 9.929577 
3.95e+2, 2.4450338e+2, -603002.25, -667018.8, -0.0004232331, 0.000000020295962, 0.000074709395, -603002.25, -59135.387, 0.0, 10.0, 9.916136 
3.95e+2, 2.5441962e+2, -504249.6, -568343.3, -0.00059053267, 0.000000020040044, -0.00010673651, -504249.6, -57562.043, 0.0, 10.0, 9.916036 
3.95e+2, 2.643288e+2, -416014.2, -490987.88, -0.00013838259, 0.000000019916355, 0.00014059426, -416014.2, -66436.516, 0.0, 10.0, 9.901964 
3.95e+2, 2.742313e+2, -316728.97, -391374.78, -0.0004257472, 0.000000019961465, -0.00020344401, -316728.97, -64195.965, 0.0, 10.0, 9.902385 
3.95e+2, 2.841256e+2, -230255.7, -318081.25, -0.00018226213, 0.000000019956003, 0.00022904592, -230255.7, -74686.734, 0.0, 10.0, 9.885439 
3.95e+2, 2.940121e+2, -130549.57, -217765.02, -0.0004621399, 0.000000019880517, -0.00025334297, -130549.57, -71868.18, 0.0, 10.0, 9.886217 
3.95e+2, 3.0392656e+2, -40805.56, -84750.16, -0.000060309376, 0.000000019891074, 0.00017313602, -40805.56, -40805.56, 0.0, 10.0, 9.942173 
3.95e+2, 3.138706e+2, -39727.547, -82511.21, -0.00020339951, 0.000000020030008, -0.000055143126, -39727.547, -39727.547, 0.0, 10.0, 9.943684 
4.05e+2, 1.2499334e+2, -1719946.1, -1724224.6, 0.0006124472, 0.000000022807974, 0.00001760159, -1719946.1, -4880.9214, 0.0, 10.0, 9.994328 
4.05e+2, 1.349876e+2, -1622565.8, -1627434.9, -0.000036669975, 0.000000022206898, -0.00006840216, -1622565.8, -5444.135, 0.0, 10.0, 9.993545 
4.05e+2, 1.4497513e+2, -1534464.3, -1548146.3, 0.000104640196, 0.000000021861867, 0.00007092121, -1534464.3, -15220.643, 0.0, 10.0, 9.981865 
4.05e+2, 1.5495703e+2, -1436736.6, -1450821.9, -0.00016289823, 0.000000021774184, -0.000056978944, -1436736.6, -15315.461, 0.0, 10.0, 9.981333 
4.05e+2, 1.6493228e+2, -1348685.6, -1371952.4, 0.000027290758, 0.00000002170867, 0.000047343063, -1348685.6, -25021.955, 0.0, 10.0, 9.969248 
4.05e+2, 1.7490156e+2, -1250727.6, -1274310.1, -0.00038188312, 0.0000000216658, -0.00007382954, -1250727.6, -24762.936, 0.0, 10.0, 9.968835 
4.05e+2, 1.8486421e+2, -1162646.6, -1195720.1, -0.00006402479, 0.000000021519085, 0.000066146014, -1162646.6, -34315.99, 0.0, 10.0, 9.956395 
4.05e+2, 1.9482064e+2, -1064496.9, -1097833.0, -0.00031163782, 0.00000002126369, -0.000057656194, -1064496.9, -33739.32, 0.0, 10.0, 9.956052 
4.05e+2, 2.0477042e+2, -976332.94, -1019435.0, -0.000034171324, 0.000000021106988, 0.00006807821, -976332.94, -43083.07, 0.0, 10.0, 9.943291 
4.05e+2, 2.1471375e+2, -878045.94, -921409.9, -0.00051354175, 0.000000021057168, -0.00012682677, -878045.94, -42240.656, 0.0, 10.0, 9.942949 
4.05e+2, 2.2465037e+2, -789759.8, -843144.9, -0.00028843677, 0.000000021034456, 0.00012088041, -789759.8, -51333.55, 0.0, 10.0, 9.929908 
4.05e+2, 2.3458035e+2, -691326.3, -744966.44, -0.00039455658, 0.00000002104237, -0.000088817826, -691326.3, -50213.78, 0.0, 10.0, 9.929577 
4.05e+2, 2.4450338e+2, -603002.25, -667018.8, 0.000024044326, 0.000000020927304, 0.000074709125, -603002.25, -59135.38, 0.0, 10.0, 9.916136 
4.05e+2, 2.5441962e+2, -504249.6, -568343.3, -0.00042292516, 0.000000020665295, -0.000106736414, -504249.6, -57562.04, 0.0, 10.0, 9.916036 
4.05e+2, 2.643288e+2, -416014.2, -490987.88, -0.00014285084, 0.000000020611969, 0.00014059452, -416014.2, -66436.51, 0.0, 10.0, 9.901964 
4.05e+2, 2.742313e+2, -316728.97, -391374.78, -0.00040530082, 0.000000020824553, -0.00020344385, -316728.97, -64195.96, 0.0, 10.0, 9.902385 
4.05e+2, 2.841256e+2, -230255.7, -318081.25, -0.000045112596, 0.000000020878062, 0.00022904595, -230255.7, -74686.734, 0.0, 10.0, 9.885439 
4.05e+2, 2.940121e+2, -130549.57, -217765.0, -0.000218035, 0.000000020712623, -0.0002533431, -130549.57, -71868.17, 0.0, 10.0, 9.886217 
4.05e+2, 3.0392656e+2, -40805.555, -84750.16, 0.00015718213, 0.000000020615067, 0.0001731359, -40805.555, -40805.555, 0.0, 10.0, 9.942173 
4.05e+2, 3.138706e+2, -39727.543, -82511.21, -0.00021022002, 0.000000020620355, -0.000055142948, -39727.543, -39727.543, 0.0, 10.0, 9.943684 
4.15e+2, 1.2499334e+2, -1719946.1, -1724224.6, 0.0003211372, 0.000000023304064, 0.0000176011, -1719946.1, -4880.923, 0.0, 10.0, 9.994328 
4.15e+2, 1.349876e+2, -1622565.8, -1627434.9, -0.0003280498, 0.000000022815968, -0.0000684024, -1622565.8, -5444.136, 0.0, 10.0, 9.993545 
4.15e+2, 1.4497513e+2, -1534464.3, -1548146.3, -0.00018853252, 0.000000022653149, 0.000070921495, -1534464.3, -15220.644, 0.0, 10.0, 9.981865 
4.15e+2, 1.5495703e+2, -1436736.6, -1450821.9, -0.00045607463, 0.000000022817394, -0.000056978646, -1436736.6, -15315.462, 0.0, 10.0, 9.981333 
4.15e+2, 1.6493228e+2, -1348685.6, -1371952.4, -0.00018929302, 0.000000022699025, 0.000047343226, -1348685.6, -25021.955, 0.0, 10.0, 9.969248 
4.15e+2, 1.7490156e+2, -1250727.6, -1274310.1, -0.0005980638, 0.000000022292086, -0.000073829666, -1250727.6, -24762.936, 0.0, 10.0, 9.968835 
4.15e+2, 1.8486421e+2, -1162646.6, -1195720.1, -0.00027080928, 0.0000000220376, 0.00006614591, -1162646.6, -34315.99, 0.0, 10.0, 9.956395 
4.15e+2, 1.9482064e+2, -1064496.9, -1097833.0, -0.0005183147, 0.000000021942624, -0.00005765594, -1064496.9, -33739.324, 0.0, 10.0, 9.956052 
4.15e+2, 2.0477042e+2, -976332.94, -1019435.0, -0.00025770534, 0.000000021970111, 0.00006807862, -976332.94, -43083.07, 0.0, 10.0, 9.943291 
4.15e+2, 2.1471375e+2, -878045.94, -921409.9, -0.00073742535, 0.000000022130202, -0.00012682642, -878045.94, -42240.656, 0.0, 10.0, 9.942949 
4.15e+2, 2.2465037e+2, -789759.8, -843144.9, -0.00042898423, 0.000000022027326, 0.000120880555, -789759.8, -51333.55, 0.0, 10.0, 9.929908 
4.15e+2, 2.3458035e+2, -691326.3, -744966.44, -0.0005323796, 0.000000021626738, -0.000088818044, -691326.3, -50213.785, 0.0, 10.0, 9.929577 
4.15e+2, 2.4450338e+2, -603002.25, -667018.8, -0.0000882462, 0.000000021395131, 0.00007470887, -603002.25, -59135.383, 0.0, 10.0, 9.916136 
4.15e+2, 2.5441962e+2, -504249.6, -568343.3, -0.0005339905, 0.000000021365652, -0.0001067363, -504249.6, -57562.04, 0.0, 10.0, 9.916036 
4.15e+2, 2.643288e+2, -416014.2, -490987.88, -0.00036054553, 0.000000021459941, 0.00014059478, -416014.2, -66436.516, 0.0, 10.0, 9.901964 
4.15e+2, 2.742313e+2, -316728.97, -391374.78, -0.000630147, 0.000000021711259, -0.0002034437, -316728.97, -64195.96, 0.0, 10.0, 9.902385 
4.15e+2, 2.841256e+2, -230255.7, -318081.25, -0.00011548191, 0.00000002178243, 0.00022904594, -230255.7, -74686.734, 0.0, 10.0, 9.885439 
4.15e+2, 2.940121e+2, -130549.57, -217765.02, -0.00027448792, 0.000000021606343, -0.0002533433, -130549.57, -71868.17, 0.0, 10.0, 9.886217 
4.15e+2, 3.0392656e+2, -40805.555, -84750.16, 0.00013257514, 0.000000021384457, 0.00017313575, -40805.555, -40805.555, 0.0, 10.0, 9.942173 
4.15e+2, 3.138706e+2, -39727.543, -82511.21, -0.00023109168, 0.000000021096989, -0.00005514264, -39727.543, -39727.543, 0.0, 10.0, 9.943684 
4.25e+2, 1.2499334e+2, -1719946.1, -1724224.6, 0.00034768973, 0.000000024017858, 0.00001760181, -1719946.1, -4880.917, 0.0, 10.0, 9.994327 
4.25e+2, 1.349876e+2, -1622565.8, -1627434.9, 0.00007619144, 0.000000023611463, -0.00006840268, -1622565.8, -5444.1304, 0.0, 10.0, 9.993545 
4.25e+2, 1.4497513e+2, -1534464.3, -1548146.3, 0.00028511963, 0.0000000234801, 0.000070921385, -1534464.3, -15220.638, 0.0, 10.0, 9.981865 
4.25e+2, 1.5495703e+2, -1436736.6, -1450821.9, -0.00022085977, 0.000000023625224, -0.00005697825, -1436736.6, -15315.456, 0.0, 10.0, 9.981333 
4.25e+2, 1.6493228e+2, -1348685.6, -1371952.4, 0.00008909697, 0.000000023485606, 0.000047343605, -1348685.6, -25021.951, 0.0, 10.0, 9.969248 
4.25e+2, 1.7490156e+2, -1250727.6, -1274310.1, -0.00018750654, 0.000000023055245, -0.00007382985, -1250727.6, -24762.93, 0.0, 10.0, 9.968835 
4.25e+2, 1.8486421e+2, -1162646.6, -1195720.1, 0.00007589353, 0.000000022813957, 0.00006614575, -1162646.6, -34315.984, 0.0, 10.0, 9.956395 
4.25e+2, 1.9482064e+2, -1064496.9, -1097833.0, -0.0004254611, 0.000000022770498, -0.00005765547, -1064496.9, -33739.316, 0.0, 10.0, 9.956052 
4.25e+2, 2.0477042e+2, -976332.94, -1019435.0, -0.00016307755, 0.000000022813637, 0.000068079105, -976332.94, -43083.066, 0.0, 10.0, 9.943291 
4.25e+2, 2.1471375e+2, -878045.94, -921409.9, -0.00036084882, 0.000000022950536, -0.00012682659, -878045.94, -42240.65, 0.0, 10.0, 9.942949 
4.25e+2, 2.2465037e+2, -789759.8, -843144.9, 0.000038943996, 0.00000002280226, 0.000120880264, -789759.8, -51333.543, 0.0, 10.0, 9.929908 
4.25e+2, 2.3458035e+2, -691326.3, -744966.44, -0.00040194465, 0.000000022331148, -0.00008881783, -691326.3, -50213.777, 0.0, 10.0, 9.929577 
4.25e+2, 2.4450338e+2, -603002.25, -667018.8, -0.00009232015, 0.00000002215322, 0.00007470923, -603002.25, -59135.375, 0.0, 10.0, 9.916136 
4.25e+2, 2.5441962e+2, -504249.6, -568343.3, -0.0003346894, 0.000000022325805, -0.000106736225, -504249.6, -57562.035, 0.0, 10.0, 9.916036 
4.25e+2, 2.643288e+2, -416014.2, -490987.88, -0.00004779985, 0.000000022413731, 0.0001405947, -416014.2, -66436.51, 0.0, 10.0, 9.901964 
4.25e+2, 2.742313e+2, -316728.97, -391374.78, -0.0003795002, 0.00000002239308, -0.00020344384, -316728.97, -64195.957, 0.0, 10.0, 9.902385 
4.25e+2, 2.841256e+2, -230255.7, -318081.25, 0.00005715357, 0.0000000223571, 0.00022904592, -230255.7, -74686.73, 0.0, 10.0, 9.885439 
4.25e+2, 2.940121e+2, -130549.56, -217765.0, -0.0003072563, 0.000000022300648, -0.00025334308, -130549.56, -71868.17, 0.0, 10.0, 9.886217 
4.25e+2, 3.0392656e+2, -40805.55, -84750.16, 0.000050548886, 0.00000002218822, 0.00017313602, -40805.55, -40805.55, 0.0, 10.0, 9.942173 
4.25e+2, 3.138706e+2, -39727.54, -82511.21, -0.00019783969, 0.00000002199297, -0.00005514272, -39727.54, -39727.54, 0.0, 10.0, 9.943684 
4.35e+2, 1.2499334e+2, -1719946.1, -1724224.6, 0.000016424507, 0.000000024949355, 0.000017603712, -1719946.1, -4880.9175, 0.0, 10.0, 9.994327 
4.35e+2, 1.349876e+2, -1622565.8, -1627434.9, -0.00025515418, 0.000000024593382, -0.00006840301, -1622565.8, -5444.1313, 0.0, 10.0, 9.993545 
4.35e+2, 1.4497513e+2, -1534464.3, -1548146.3, -0.000050968254, 0.00000002434272, 0.000070920876, -1534464.3, -15220.639, 0.0, 10.0, 9.981865 
4.35e+2, 1.5495703e+2, -1436736.6, -1450821.9, -0.0005569562, 0.000000024197671, -0.00005697776, -1436736.6, -15315.458, 0.0, 10.0, 9.981333 
4.35e+2, 1.6493228e+2, -1348685.6, -1371952.4, -0.00012855593, 0.000000024068413, 0.00004734419, -1348685.6, -25021.951, 0.0, 10.0, 9.969248 
4.35e+2, 1.7490156e+2, -1250727.6, -1274310.1, -0.0004045353, 0.000000023955275, -0.00007383009, -1250727.6, -24762.932, 0.0, 10.0, 9.968835 
4.35e+2, 1.8486421e+2, -1162646.6, -1195720.1, -0.00016830185, 0.000000023848152, 0.000066145534, -1162646.6, -34315.984, 0.0, 10.0, 9.956395 
4.35e+2, 1.9482064e+2, -1064496.9, -1097833.0, -0.00066997256, 0.000000023747312, -0.000057654775, -1064496.9, -33739.32, 0.0, 10.0, 9.956052 
4.35e+2, 2.0477042e+2, -976332.94, -1019435.0, -0.00039494075, 0.000000023637567, 0.000068079666, -976332.94, -43083.066, 0.0, 10.0, 9.943291 
4.35e+2, 2.1471375e+2, -878045.94, -921409.9, -0.0005924525, 0.000000023518167, -0.00012682728, -878045.94, -42240.652, 0.0, 10.0, 9.942949 
4.35e+2, 2.2465037e+2, -789759.8, -843144.9, -0.000077092576, 0.000000023359254, 0.00012087955, -789759.8, -51333.547, 0.0, 10.0, 9.929908 
4.35e+2, 2.3458035e+2, -691326.3, -744966.44, -0.000514202, 0.000000023155602, -0.00008881719, -691326.3, -50213.777, 0.0, 10.0, 9.929577 
4.35e+2, 2.4450338e+2, -603002.25, -667018.8, -0.0003154242, 0.000000023201574, 0.00007471018, -603002.25, -59135.375, 0.0, 10.0, 9.916136 
4.35e+2, 2.5441962e+2, -504249.6, -568343.3, -0.00056312256, 0.000000023545757, -0.000106736195, -504249.6, -57562.035, 0.0, 10.0, 9.916036 
4.35e+2, 2.643288e+2, -416014.2, -490987.88, -0.000120068755, 0.00000002347334, 0.00014059423, -416014.2, -66436.51, 0.0, 10.0, 9.901964 
4.35e+2, 2.742313e+2, -316728.97, -391374.78, -0.00044130147, 0.000000022870015, -0.00020344422, -316728.97, -64195.957, 0.0, 10.0, 9.902385 
4.35e+2, 2.841256e+2, -230255.7, -318081.25, -0.00006641162, 0.000000022602068, 0.00022904588, -230255.7, -74686.73, 0.0, 10.0, 9.885439 
4.35e+2, 2.940121e+2, -130549.56, -217765.02, -0.0004363893, 0.000000022795534, -0.00025334238, -130549.56, -71868.17, 0.0, 10.0, 9.886217 
4.35e+2, 3.0392656e+2, -40805.55, -84750.16, -0.000049220183, 0.000000023026352, 0.0001731367, -40805.55, -40805.55, 0.0, 10.0, 9.942173 
4.35e+2, 3.138706e+2, -39727.54, -82511.21, -0.0002941646, 0.000000023308296, -0.000055143184, -39727.54, -39727.54, 0.0, 10.0, 9.943684 
4.45e+2, 1.2499334e+2, -1719946.1, -1724224.6, -0.000052020976, 0.000000025907623, 0.000017604347, -1719946.1, -4880.9116, 0.0, 10.0, 9.994327 
4.45e+2, 1.349876e+2, -1622565.8, -1627434.9, -0.00020984278, 0.000000025614215, -0.00006840277, -1622565.8, -5444.1255, 0.0, 10.0, 9.993545 
4.45e+2, 1.4497513e+2, -1534464.3, -1548146.3, 0.00014729133, 0.000000025292174, 0.00007092126, -1534464.3, -15220.633, 0.0, 10.0, 9.981865 
4.45e+2, 1.5495703e+2, -1436736.6, -1450821.9, -0.00030004155, 0.00000002494081, -0.000056977606, -1436736.6, -15315.451, 0.0, 10.0, 9.981333 
4.45e+2, 1.6493228e+2, -1348685.6, -1371952.4, 0.00011451409, 0.000000024792755, 0.000047344303, -1348685.6, -25021.945, 0.0, 10.0, 9.969248 
4.45e+2, 1.7490156e+2, -1250727.6, -1274310.1, -0.00020454111, 0.000000024852291, -0.000073829826, -1250727.6, -24762.926, 0.0, 10.0, 9.968835 
4.45e+2, 1.8486421e+2, -1162646.6, -1195720.1, 0.00010735404, 0.000000024818778, 0.00006614577, -1162646.6, -34315.98, 0.0, 10.0, 9.956395 
4.45e+2, 1.9482064e+2, -1064496.9, -1097833.0, -0.00030057537, 0.000000024687887, -0.00005765478, -1064496.9, -33739.313, 0.0, 10.0, 9.956052 
4.45e+2, 2.0477042e+2, -976332.94, -1019435.0, 0.000025472978, 0.000000024471467, 0.00006807961, -976332.94, -43083.06, 0.0, 10.0, 9.943291 
4.45e+2, 2.1471375e+2, -878045.94, -921409.9, -0.00028205945, 0.00000002416242, -0.00012682719, -878045.94, -42240.645, 0.0, 10.0, 9.942949 
4.45e+2, 2.2465037e+2, -789759.8, -843144.9, 0.00013877371, 0.000000024049774, 0.0001208797, -789759.8, -51333.54, 0.0, 10.0, 9.929908 
4.45e+2, 2.3458035e+2, -691326.3, -744966.44, -0.00032928557, 0.000000024159451, -0.000088817076, -691326.3, -50213.773, 0.0, 10.0, 9.929577 
4.45e+2, 2.4450338e+2, -603002.25, -667018.8, -0.00014493188, 0.000000024259322, 0.0000747103, -603002.25, -59135.37, 0.0, 10.0, 9.916136 
4.45e+2, 2.5441962e+2, -504249.6, -568343.3, -0.00045028492, 0.000000024347244, -0.00010673606, -504249.6, -57562.03, 0.0, 10.0, 9.916036 
4.45e+2, 2.643288e+2, -416014.2, -490987.88, 0.00007546035, 0.000000024162775, 0.00014059435, -416014.2, -66436.5, 0.0, 10.0, 9.901964 
4.45e+2, 2.742313e+2, -316728.97, -391374.78, -0.00022193143, 0.00000002363165, -0.0002034442, -316728.97, -64195.95, 0.0, 10.0, 9.902385 
4.45e+2, 2.841256e+2, -230255.7, -318081.25, 0.00007089771, 0.000000023406585, 0.0002290459, -230255.7, -74686.73, 0.0, 10.0, 9.885439 
4.45e+2, 2.940121e+2, -130549.56, -217765.0, -0.00033053145, 0.000000023601947, -0.0002533423, -130549.56, -71868.164, 0.0, 10.0, 9.886217 
4.45e+2, 3.0392656e+2, -40805.547, -84750.16, 0.00009113216, 0.000000023870966, 0.00017313674, -40805.547, -40805.547, 0.0, 10.0, 9.942173 
4.45e+2, 3.138706e+2, -39727.535, -82511.21, -0.000013139748, 0.000000024245345, -0.000055143395, -39727.535, -39727.535, 0.0, 10.0, 9.943684 
4.55e+2, 1.2499334e+2, -1719946.1, -1724224.6, -0.00038005397, 0.000000026892666, 0.00001760371, -1719946.1, -4880.9126, 0.0, 10.0, 9.994327 
4.55e+2, 1.349876e+2, -1622565.8, -1627434.9, -0.0005379458, 0.000000026673959, -0.00006840196, -1622565.8, -5444.126, 0.0, 10.0, 9.993545 
4.55e+2, 1.4497513e+2, -1534464.3, -1548146.3, -0.000044644705, 0.000000026328465, 0.00007092255, -1534464.3, -15220.635, 0.0, 10.0, 9.981865 
4.55e+2, 1.5495703e+2, -1436736.6, -1450821.9, -0.00049176306, 0.000000025854641, -0.00005697779, -1436736.6, -15315.453, 0.0, 10.0, 9.981333 
4.55e+2, 1.6493228e+2, -1348685.6, -1371952.4, -0.00024257647, 0.000000025658633, 0.00004734394, -1348685.6, -25021.945, 0.0, 10.0, 9.969248 
4.55e+2, 1.7490156e+2, -1250727.6, -1274310.1, -0.00056250603, 0.000000025746292, -0.00007382905, -1250727.6, -24762.926, 0.0, 10.0, 9.968835 
4.55e+2, 1.8486421e+2, -1162646.6, -1195720.1, -0.00012147549, 0.000000025725832, 0.00006614645, -1162646.6, -34315.98, 0.0, 10.0, 9.956395 
4.55e+2, 1.9482064e+2, -1064496.9, -1097833.0, -0.000527911, 0.000000025592222, -0.000057655474, -1064496.9, -33739.313, 0.0, 10.0, 9.956052 
4.55e+2, 2.0477042e+2, -976332.94, -1019435.0, -0.000105920735, 0.00000002531534, 0.00006807893, -976332.94, -43083.06, 0.0, 10.0, 9.943291 
4.55e+2, 2.1471375e+2, -878045.94, -921409.9, -0.0004114733, 0.000000024883292, -0.00012682634, -878045.94, -42240.645, 0.0, 10.0, 9.942949 
4.55e+2, 2.2465037e+2, -789759.8, -843144.9, -0.0001510633, 0.000000024873817, 0.0001208807, -789759.8, -51333.54, 0.0, 10.0, 9.929908 
4.55e+2, 2.3458035e+2, -691326.3, -744966.44, -0.00062437274, 0.000000025342693, -0.000088817476, -691326.3, -50213.773, 0.0, 10.0, 9.929577 
4.55e+2, 2.4450338e+2, -603002.25, -667018.8, -0.00027339172, 0.000000025326461, 0.00007470957, -603002.25, -59135.37, 0.0, 10.0, 9.916136 
4.55e+2, 2.5441962e+2, -504249.6, -568343.3, -0.0005707396, 0.000000024730264, -0.00010673582, -504249.6, -57562.03, 0.0, 10.0, 9.916036 
4.55e+2, 2.643288e+2, -416014.2, -490987.88, 0.000014236118, 0.000000024482036, 0.00014059502, -416014.2, -66436.5, 0.0, 10.0, 9.901964 
4.55e+2, 2.742313e+2, -316728.97, -391374.78, -0.00027918658, 0.000000024677982, -0.00020344378, -316728.97, -64195.953, 0.0, 10.0, 9.902385 
4.55e+2, 2.841256e+2, -230255.7, -318081.25, -0.00008986306, 0.000000024770653, 0.00022904592, -230255.7, -74686.73, 0.0, 10.0, 9.885439 
4.55e+2, 2.940121e+2, -130549.56, -217765.02, -0.0005006216, 0.000000024719881, -0.00025334282, -130549.56, -71868.164, 0.0, 10.0, 9.886217 
4.55e+2, 3.0392656e+2, -40805.547, -84750.16, -0.00011899963, 0.000000024722057, 0.00017313613, -40805.547, -40805.547, 0.0, 10.0, 9.942173 
4.55e+2, 3.138706e+2, -39727.535, -82511.21, -0.00022797566, 0.000000024804118, -0.00005514335, -39727.535, -39727.535, 0.0, 10.0, 9.943684 
4.65e+2, 1.2499334e+2, -1719946.1, -1724224.6, 0.00081364514, 0.000000027763464, 0.000017602995, -1719946.1, -4880.9053, 0.0, 10.0, 9.994327 
4.65e+2, 1.349876e+2, -1622565.8, -1627434.9, -0.000102844824, 0.00000002744904, -0.00006840165, -1622565.8, -5444.119, 0.0, 10.0, 9.993545 
4.65e+2, 1.4497513e+2, -1534464.3, -1548146.3, 0.00020567379, 0.000000027180596, 0.000070923394, -1534464.3, -15220.628, 0.0, 10.0, 9.981865 
4.65e+2, 1.5495703e+2, -1436736.6, -1450821.9, -0.0000014109424, 0.00000002695752, -0.000056977922, -1436736.6, -15315.447, 0.0, 10.0, 9.981333 
4.65e+2, 1.6493228e+2, -1348685.6, -1371952.4, 0.00024642522, 0.000000026766712, 0.000047343667, -1348685.6, -25021.94, 0.0, 10.0, 9.969248 
4.65e+2, 1.7490156e+2, -1250727.6, -1274310.1, -0.00033220428, 0.000000026608848, -0.000073828596, -1250727.6, -24762.92, 0.0, 10.0, 9.968835 
4.65e+2, 1.8486421e+2, -1162646.6, -1195720.1, 0.00010418805, 0.000000026484058, 0.000066146946, -1162646.6, -34315.973, 0.0, 10.0, 9.956395 
4.65e+2, 1.9482064e+2, -1064496.9, -1097833.0, -0.00011576228, 0.000000026393856, -0.00005765563, -1064496.9, -33739.31, 0.0, 10.0, 9.956052 
4.65e+2, 2.0477042e+2, -976332.94, -1019435.0, 0.00028782047, 0.00000002620709, 0.00006807874, -976332.94, -43083.055, 0.0, 10.0, 9.943291 
4.65e+2, 2.1471375e+2, -878045.94, -921409.9, -0.00036954292, 0.000000025915725, -0.00012682591, -878045.94, -42240.64, 0.0, 10.0, 9.942949 
4.65e+2, 2.2465037e+2, -789759.8, -843144.9, -0.00015950161, 0.000000025898077, 0.0001208812, -789759.8, -51333.535, 0.0, 10.0, 9.929908 
4.65e+2, 2.3458035e+2, -691326.3, -744966.44, -0.0002567654, 0.000000026190277, -0.00008881752, -691326.3, -50213.77, 0.0, 10.0, 9.929577 
4.65e+2, 2.4450338e+2, -603002.25, -667018.8, 0.00029608991, 0.000000026049424, 0.00007470932, -603002.25, -59135.367, 0.0, 10.0, 9.916136 
4.65e+2, 2.5441962e+2, -504249.6, -568343.3, -0.0002912141, 0.000000025390953, -0.000106735846, -504249.6, -57562.023, 0.0, 10.0, 9.916036 
4.65e+2, 2.643288e+2, -416014.2, -490987.88, 0.000018495855, 0.000000025248834, 0.00014059518, -416014.2, -66436.5, 0.0, 10.0, 9.901964 
4.65e+2, 2.742313e+2, -316728.94, -391374.78, -0.0002977903, 0.000000025765038, -0.00020344344, -316728.94, -64195.945, 0.0, 10.0, 9.902385 
4.65e+2, 2.841256e+2, -230255.69, -318081.25, 0.000096262134, 0.000000025988134, 0.0002290461, -230255.69, -74686.72, 0.0, 10.0, 9.885439 
4.65e+2, 2.940121e+2, -130549.555, -217765.0, -0.000013125937, 0.000000025807019, -0.00025334326, -130549.555, -71868.16, 0.0, 10.0, 9.886217 
4.65e+2, 3.0392656e+2, -40805.543, -84750.16, 0.00037133624, 0.000000025584853, 0.00017313566, -40805.543, -40805.543, 0.0, 10.0, 9.942173 
4.65e+2, 3.138706e+2, -39727.53, -82511.21, -0.00024462648, 0.000000025305546, -0.00005514302, -39727.53, -39727.53, 0.0, 10.0, 9.943684 
4.75e+2, 1.2499334e+2, -1719946.1, -1724224.6, 0.0004262093, 0.000000028520018, 0.000017602202, -1719946.1, -4880.9077, 0.0, 10.0, 9.994327 
4.75e+2, 1.349876e+2, -1622565.8, -1627434.9, -0.00049037335, 0.000000027939459, -0.00006840182, -1622565.8, -5444.1216, 0.0, 10.0, 9.993545 
4.75e+2, 1.4497513e+2, -1534464.3, -1548146.3, -0.00016751068, 0.000000027848566, 0.000070923816, -1534464.3, -15220.628, 0.0, 10.0, 9.981865 
4.75e+2, 1.5495703e+2, -1436736.6, -1450821.9, -0.00037457404, 0.000000028249449, -0.000056978, -1436736.6, -15315.447, 0.0, 10.0, 9.981333 
4.75e+2, 1.6493228e+2, -1348685.6, -1371952.4, 0.00004529449, 0.000000028116991, 0.00004734349, -1348685.6, -25021.941, 0.0, 10.0, 9.969248 
4.75e+2, 1.7490156e+2, -1250727.6, -1274310.1, -0.00053242885, 0.000000027439961, -0.00007382848, -1250727.6, -24762.922, 0.0, 10.0, 9.968835 
4.75e+2, 1.8486421e+2, -1162646.6, -1195720.1, -0.00015349069, 0.000000027093455, 0.00006614726, -1162646.6, -34315.977, 0.0, 10.0, 9.956395 
4.75e+2, 1.9482064e+2, -1064496.9, -1097833.0, -0.00037410817, 0.000000027092788, -0.00005765524, -1064496.9, -33739.31, 0.0, 10.0, 9.956052 
4.75e+2, 2.0477042e+2, -976332.94, -1019435.0, 0.00003822149, 0.000000027146715, 0.00006807903, -976332.94, -43083.055, 0.0, 10.0, 9.943291 
4.75e+2, 2.1471375e+2, -878045.94, -921409.9, -0.0006189629, 0.000000027259716, -0.00012682591, -878045.94, -42240.64, 0.0, 10.0, 9.942949 
4.75e+2, 2.2465037e+2, -789759.8, -843144.9, -0.00032856964, 0.000000027122553, 0.0001208812, -789759.8, -51333.535, 0.0, 10.0, 9.929908 
4.75e+2, 2.3458035e+2, -691326.3, -744966.44, -0.00042320718, 0.0000000267022, -0.00008881721, -691326.3, -50213.77, 0.0, 10.0, 9.929577 
4.75e+2, 2.4450338e+2, -603002.25, -667018.8, 0.00022117619, 0.00000002642821, 0.00007470957, -603002.25, -59135.367, 0.0, 10.0, 9.916136 
4.75e+2, 2.5441962e+2, -504249.6, -568343.3, -0.000361731, 0.000000026329316, -0.000106736145, -504249.6, -57562.027, 0.0, 10.0, 9.916036 
4.75e+2, 2.643288e+2, -416014.2, -490987.88, -0.00031646315, 0.00000002646317, 0.00014059483, -416014.2, -66436.5, 0.0, 10.0, 9.901964 
4.75e+2, 2.742313e+2, -316728.94, -391374.78, -0.0006504819, 0.000000026892819, -0.00020344323, -316728.94, -64195.95, 0.0, 10.0, 9.902385 
4.75e+2, 2.841256e+2, -230255.69, -318081.25, 0.000025371404, 0.000000027059029, 0.0002290464, -230255.69, -74686.72, 0.0, 10.0, 9.885439 
4.75e+2, 2.940121e+2, -130549.555, -217765.0, -0.000058627793, 0.000000026863358, -0.00025334358, -130549.555, -71868.164, 0.0, 10.0, 9.886217 
4.75e+2, 3.0392656e+2, -40805.543, -84750.16, 0.0004488839, 0.000000026459356, 0.00017313535, -40805.543, -40805.543, 0.0, 10.0, 9.942173 
4.75e+2, 3.138706e+2, -39727.53, -82511.21, -0.00015263648, 0.000000025749635, -0.000055142405, -39727.53, -39727.53, 0.0, 10.0, 9.943684 
4.85e+2, 1.2499334e+2, -1719946.1, -1724224.6, 0.00040380168, 0.000000029504939, 0.000017603126, -1719946.1, -4880.901, 0.0, 10.0, 9.994327 
4.85e+2, 1.349876e+2, -1622565.6, -1627434.9, 0.00015167169, 0.000000028834641, -0.000068402274, -1622565.6, -5444.1143, 0.0, 10.0, 9.993545 
4.85e+2, 1.4497514e+2, -1534464.3, -1548146.3, 0.00055980904, 0.00000002870618, 0.000070923554, -1534464.3, -15220.621, 0.0, 10.0, 9.981865 
4.85e+2, 1.5495703e+2, -1436736.6, -1450821.9, -0.00006429052, 0.000000029121841, -0.000056977642, -1436736.6, -15315.44, 0.0, 10.0, 9.981333 
4.85e+2, 1.6493228e+2, -1348685.6, -1371952.4, 0.00039127943, 0.00000002903288, 0.000047343892, -1348685.6, -25021.936, 0.0, 10.0, 9.969248 
4.85e+2, 1.7490156e+2, -1250727.6, -1274310.1, -0.000021963802, 0.000000028428673, -0.00007382861, -1250727.6, -24762.914, 0.0, 10.0, 9.968835 
4.85e+2, 1.8486421e+2, -1162646.6, -1195720.1, 0.0002547425, 0.000000028077576, 0.000066147186, -1162646.6, -34315.97, 0.0, 10.0, 9.956395 
4.85e+2, 1.9482064e+2, -1064496.9, -1097833.0, -0.00032537646, 0.00000002799131, -0.000057654626, -1064496.9, -33739.3, 0.0, 10.0, 9.956052 
4.85e+2, 2.0477042e+2, -976332.94, -1019435.0, 0.00012153436, 0.000000028056377, 0.000068079564, -976332.94, -43083.05, 0.0, 10.0, 9.943291 
4.85e+2, 2.1471375e+2, -878045.94, -921409.9, -0.000029353907, 0.000000028285296, -0.00012682627, -878045.94, -42240.637, 0.0, 10.0, 9.942949 
4.85e+2, 2.2465037e+2, -789759.8, -843144.9, 0.0003615151, 0.000000028092627, 0.00012088078, -789759.8, -51333.527, 0.0, 10.0, 9.929908 
4.85e+2, 2.3458035e+2, -691326.3, -744966.44, -0.00039668026, 0.000000027422683, -0.00008881673, -691326.3, -50213.76, 0.0, 10.0, 9.929577 
4.85e+2, 2.4450338e+2, -603002.25, -667018.8, 0.00005561227, 0.00000002722259, 0.000074710195, -603002.25, -59135.36, 0.0, 10.0, 9.916136 
4.85e+2, 2.5441962e+2, -504249.6, -568343.3, 0.000028752265, 0.000000027584194, -0.000106736254, -504249.6, -57562.02, 0.0, 10.0, 9.916036 
4.85e+2, 2.643288e+2, -416014.16, -490987.88, 0.00031265104, 0.000000027759407, 0.00014059439, -416014.16, -66436.49, 0.0, 10.0, 9.901964 
4.85e+2, 2.742313e+2, -316728.94, -391374.78, -0.0002726519, 0.000000027696084, -0.00020344344, -316728.94, -64195.94, 0.0, 10.0, 9.902385 
4.85e+2, 2.841256e+2, -230255.69, -318081.25, 0.00014605094, 0.000000027619855, 0.00022904649, -230255.69, -74686.71, 0.0, 10.0, 9.885439 
4.85e+2, 2.940121e+2, -130549.55, -217765.0, -0.0003784903, 0.00000002752708, -0.000253343, -130549.55, -71868.16, 0.0, 10.0, 9.886217 
4.85e+2, 3.0392656e+2, -40805.535, -84750.16, 0.000057508896, 0.000000027337844, 0.00017313591, -40805.535, -40805.535, 0.0, 10.0, 9.942173 
4.85e+2, 3.138706e+2, -39727.527, -82511.21, -0.00017758255, 0.000000027005731, -0.00005514258, -39727.527, -39727.527, 0.0, 10.0, 9.943684 
4.95e+2, 1.2499334e+2, -1719946.1, -1724224.6, 0.00007970436, 0.00000003071823, 0.000017605766, -1719946.1, -4880.902, 0.0, 10.0, 9.994327 
4.95e+2, 1.349876e+2, -1622565.6, -1627434.9, -0.00017250108, 0.00000003013459, -0.00006840299, -1622565.6, -5444.115, 0.0, 10.0, 9.993545 
4.95e+2, 1.4497514e+2, -1534464.3, -1548146.3, 0.00013483169, 0.000000029753439, 0.00007092261, -1534464.3, -15220.622, 0.0, 10.0, 9.981865 
4.95e+2, 1.5495703e+2, -1436736.6, -1450821.9, -0.0004894297, 0.000000029574696, -0.000056976853, -1436736.6, -15315.441, 0.0, 10.0, 9.981333 
4.95e+2, 1.6493228e+2, -1348685.6, -1371952.4, 0.0001226686, 0.000000029514378, 0.00004734488, -1348685.6, -25021.936, 0.0, 10.0, 9.969248 
4.95e+2, 1.7490156e+2, -1250727.6, -1274310.1, -0.00028974994, 0.000000029574984, -0.000073829, -1250727.6, -24762.916, 0.0, 10.0, 9.968835 
4.95e+2, 1.8486421e+2, -1162646.6, -1195720.1, 0.000019750007, 0.000000029436418, 0.000066146735, -1162646.6, -34315.97, 0.0, 10.0, 9.956395 
4.95e+2, 1.9482064e+2, -1064496.9, -1097833.0, -0.0005599914, 0.000000029089419, -0.00005765379, -1064496.9, -33739.305, 0.0, 10.0, 9.956052 
4.95e+2, 2.0477042e+2, -976332.94, -1019435.0, -0.00016597318, 0.000000028936071, 0.00006808034, -976332.94, -43083.05, 0.0, 10.0, 9.943291 
4.95e+2, 2.1471375e+2, -878045.94, -921409.9, -0.00031795626, 0.000000028992462, -0.00012682701, -878045.94, -42240.637, 0.0, 10.0, 9.942949 
4.95e+2, 2.2465037e+2, -789759.8, -843144.9, 0.000276207, 0.000000028808293, 0.00012087993, -789759.8, -51333.53, 0.0, 10.0, 9.929908 
4.95e+2, 2.3458035e+2, -691326.3, -744966.44, -0.0004753393, 0.000000028351726, -0.00008881609, -691326.3, -50213.766, 0.0, 10.0, 9.929577 
4.95e+2, 2.4450338e+2, -603002.25, -667018.8, -0.0002799091, 0.000000028432561, 0.00007471122, -603002.25, -59135.36, 0.0, 10.0, 9.916136 
4.95e+2, 2.5441962e+2, -504249.6, -568343.3, -0.00031911558, 0.000000029155592, -0.00010673618, -504249.6, -57562.02, 0.0, 10.0, 9.916036 
4.95e+2, 2.643288e+2, -416014.2, -490987.88, 0.0002957728, 0.000000029137544, 0.00014059387, -416014.2, -66436.49, 0.0, 10.0, 9.901964 
4.95e+2, 2.742313e+2, -316728.94, -391374.78, -0.0002673413, 0.000000028174833, -0.00020344414, -316728.94, -64195.94, 0.0, 10.0, 9.902385 
4.95e+2, 2.841256e+2, -230255.69, -318081.25, 0.000025084651, 0.00000002767061, 0.00022904637, -230255.69, -74686.71, 0.0, 10.0, 9.885439 
4.95e+2, 2.940121e+2, -130549.55, -217765.0, -0.00051083707, 0.000000027798183, -0.00025334154, -130549.55, -71868.16, 0.0, 10.0, 9.886217 
4.95e+2, 3.0392656e+2, -40805.535, -84750.16, -0.00010694253, 0.00000002822032, 0.00017313735, -40805.535, -40805.535, 0.0, 10.0, 9.942173 
4.95e+2, 3.138706e+2, -39727.527, -82511.21, -0.00034580566, 0.00000002907383, -0.00005514354, -39727.527, -39727.527, 0.0, 10.0, 9.943684 
5.05e+2, 1.2499334e+2, -1719946.1, -1724224.6, 0.000010212572, 0.000000031827966, 0.000017606517, -1719946.1, -4880.8945, 0.0, 10.0, 9.994327 
5.05e+2, 1.349876e+2, -1622565.6, -1627434.9, -0.00019237294, 0.000000031448913, -0.00006840272, -1622565.6, -5444.1084, 0.0, 10.0, 9.993545 
5.05e+2, 1.4497514e+2, -1534464.3, -1548146.3, 0.00027756143, 0.000000030973602, 0.00007092315, -1534464.3, -15220.616, 0.0, 10.0, 9.981865 
5.05e+2, 1.5495703e+2, -1436736.6, -1450821.9, -0.00026267994, 0.00000003039975, -0.00005697653, -1436736.6, -15315.435, 0.0, 10.0, 9.981333 
5.05e+2, 1.6493228e+2, -1348685.6, -1371952.4, 0.00034197918, 0.000000030259915, 0.000047345104, -1348685.6, -25021.928, 0.0, 10.0, 9.969248 
5.05e+2, 1.7490156e+2, -1250727.6, -1274310.1, -0.000013525418, 0.000000030563243, -0.000073828756, -1250727.6, -24762.908, 0.0, 10.0, 9.968835 
5.05e+2, 1.8486421e+2, -1162646.6, -1195720.1, 0.00047005148, 0.000000030558567, 0.000066146844, -1162646.6, -34315.965, 0.0, 10.0, 9.956395 
5.05e+2, 1.9482064e+2, -1064496.9, -1097833.0, -0.000018724464, 0.000000030231572, -0.000057653964, -1064496.9, -33739.297, 0.0, 10.0, 9.956052 
5.05e+2, 2.0477042e+2, -976332.94, -1019435.0, 0.00031163738, 0.000000029960006, 0.000068080306, -976332.94, -43083.043, 0.0, 10.0, 9.943291 
5.05e+2, 2.1471375e+2, -878045.94, -921409.9, -0.00018566272, 0.000000029748497, -0.00012682648, -878045.94, -42240.63, 0.0, 10.0, 9.942949 
5.05e+2, 2.2465037e+2, -789759.8, -843144.9, 0.00041220905, 0.000000029625342, 0.00012088038, -789759.8, -51333.523, 0.0, 10.0, 9.929908 
5.05e+2, 2.3458035e+2, -691326.3, -744966.44, 0.000082421735, 0.000000029602148, -0.0000888165, -691326.3, -50213.758, 0.0, 10.0, 9.929577 
5.05e+2, 2.4450338e+2, -603002.25, -667018.8, 0.000224906, 0.000000029721258, 0.00007471076, -603002.25, -59135.355, 0.0, 10.0, 9.916136 
5.05e+2, 2.5441962e+2, -504249.56, -568343.3, -0.00040614794, 0.00000003001024, -0.00010673567, -504249.56, -57562.016, 0.0, 10.0, 9.916036 
5.05e+2, 2.643288e+2, -416014.16, -490987.88, 0.00020399985, 0.00000002983245, 0.0001405946, -416014.16, -66436.484, 0.0, 10.0, 9.901964 
5.05e+2, 2.742313e+2, -316728.94, -391374.78, -0.000049191534, 0.000000029060189, -0.00020344413, -316728.94, -64195.934, 0.0, 10.0, 9.902385 
5.05e+2, 2.841256e+2, -230255.67, -318081.25, 0.00029101747, 0.000000028659676, 0.0002290461, -230255.67, -74686.71, 0.0, 10.0, 9.885439 
5.05e+2, 2.940121e+2, -130549.55, -217765.0, -0.00023477523, 0.00000002877061, -0.00025334154, -130549.55, -71868.15, 0.0, 10.0, 9.886217 
5.05e+2, 3.0392656e+2, -40805.53, -84750.16, 0.00017518364, 0.000000029238981, 0.00017313736, -40805.53, -40805.53, 0.0, 10.0, 9.942173 
5.05e+2, 3.138706e+2, -39727.52, -82511.21, 0.00011016268, 0.0000000302331, -0.00005514386, -39727.52, -39727.52, 0.0, 10.0, 9.943684 
5.15e+2, 1.2499334e+2, -1719946.1, -1724224.6, -0.00040932145, 0.000000032834148, 0.000017605378, -1719946.1, -4880.8955, 0.0, 10.0, 9.994327 
5.15e+2, 1.349876e+2, -1622565.6, -1627434.9, -0.0006119902, 0.000000032777617, -0.00006840147, -1622565.6, -5444.1094, 0.0, 10.0, 9.993545 
5.15e+2, 1.4497514e+2, -1534464.3, -1548146.3, 0.00014883053, 0.000000032366668, 0.00007092517, -1534464.3, -15220.618, 0.0, 10.0, 9.981865 
5.15e+2, 1.5495703e+2, -1436736.6, -1450821.9, -0.0003909521, 0.000000031596993, -0.00005697667, -1436736.6, -15315.436, 0.0, 10.0, 9.981333 
5.15e+2, 1.6493228e+2, -1348685.6, -1371952.4, -0.000101724596, 0.000000031269487, 0.000047344558, -1348685.6, -25021.928, 0.0, 10.0, 9.969248 
5.15e+2, 1.7490156e+2, -1250727.6, -1274310.1, -0.0004588967, 0.00000003139345, -0.0000738279, -1250727.6, -24762.91, 0.0, 10.0, 9.968835 
5.15e+2, 1.8486421e+2, -1162646.6, -1195720.1, 0.00019042155, 0.00000003144402, 0.00006614751, -1162646.6, -34315.965, 0.0, 10.0, 9.956395 
5.15e+2, 1.9482064e+2, -1064496.9, -1097833.0, -0.0002964372, 0.00000003141777, -0.000057655147, -1064496.9, -33739.297, 0.0, 10.0, 9.956052 
5.15e+2, 2.0477042e+2, -976332.94, -1019435.0, 0.00019446838, 0.000000031128184, 0.00006807945, -976332.94, -43083.043, 0.0, 10.0, 9.943291 
5.15e+2, 2.1471375e+2, -878045.94, -921409.9, -0.00029951817, 0.0000000305534, -0.00012682464, -878045.94, -42240.63, 0.0, 10.0, 9.942949 
5.15e+2, 2.2465037e+2, -789759.8, -843144.9, 0.00007373277, 0.000000030543777, 0.00012088213, -789759.8, -51333.523, 0.0, 10.0, 9.929908 
5.15e+2, 2.3458035e+2, -691326.3, -744966.44, -0.00026340524, 0.000000031173947, -0.00008881798, -691326.3, -50213.758, 0.0, 10.0, 9.929577 
5.15e+2, 2.4450338e+2, -603002.25, -667018.8, 0.000103431565, 0.00000003108868, 0.00007470884, -603002.25, -59135.355, 0.0, 10.0, 9.916136 
5.15e+2, 2.5441962e+2, -504249.56, -568343.3, -0.0005168436, 0.000000030148147, -0.00010673473, -504249.56, -57562.016, 0.0, 10.0, 9.916036 
5.15e+2, 2.643288e+2, -416014.16, -490987.88, 0.00015586925, 0.000000029844127, 0.00014059659, -416014.16, -66436.484, 0.0, 10.0, 9.901964 
5.15e+2, 2.742313e+2, -316728.94, -391374.78, -0.00009312906, 0.000000030352144, -0.0002034434, -316728.94, -64195.934, 0.0, 10.0, 9.902385 
5.15e+2, 2.841256e+2, -230255.69, -318081.25, 0.00010232517, 0.000000030587046, 0.00022904565, -230255.69, -74686.71, 0.0, 10.0, 9.885439 
5.15e+2, 2.940121e+2, -130549.55, -217765.02, -0.0004365136, 0.000000030444358, -0.00025334302, -130549.55, -71868.15, 0.0, 10.0, 9.886217 
5.15e+2, 3.0392656e+2, -40805.53, -84750.16, -0.00014503808, 0.000000030393828, 0.00017313598, -40805.53, -40805.53, 0.0, 10.0, 9.942173 
5.15e+2, 3.138706e+2, -39727.52, -82511.21, -0.00022397196, 0.000000030483537, -0.000055143537, -39727.52, -39727.52, 0.0, 10.0, 9.943684 
5.25e+2, 1.2499334e+2, -1719946.1, -1724224.6, 0.0010141213, 0.00000003390443, 0.000017604549, -1719946.1, -4880.8867, 0.0, 10.0, 9.994327 
5.25e+2, 1.349876e+2, -1622565.6, -1627434.9, -0.00017564415, 0.000000033606586, -0.00006840108, -1622565.6, -5444.101, 0.0, 10.0, 9.993545 
5.25e+2, 1.4497514e+2, -1534464.3, -1548146.3, 0.0003824177, 0.000000033305184, 0.00007092627, -1534464.3, -15220.609, 0.0, 10.0, 9.981865 
5.25e+2, 1.5495703e+2, -1436736.6, -1450821.9, 0.00020904145, 0.000000032997782, -0.00005697676, -1436736.6, -15315.429, 0.0, 10.0, 9.981333 
5.25e+2, 1.6493228e+2, -1348685.6, -1371952.4, 0.00052442384, 0.000000032697034, 0.000047344238, -1348685.6, -25021.922, 0.0, 10.0, 9.969248 
5.25e+2, 1.7490156e+2, -1250727.6, -1274310.1, -0.00016138602, 0.000000032403086, -0.00007382747, -1250727.6, -24762.902, 0.0, 10.0, 9.968835 
5.25e+2, 1.8486421e+2, -1162646.6, -1195720.1, 0.00044663102, 0.000000032286003, 0.00006614802, -1162646.6, -34315.957, 0.0, 10.0, 9.956395 
5.25e+2, 1.9482064e+2, -1064496.9, -1097833.0, 0.00016568201, 0.000000032353974, -0.000057655237, -1064496.9, -33739.29, 0.0, 10.0, 9.956052 
5.25e+2, 2.0477042e+2, -976332.94, -1019435.0, 0.00067857315, 0.000000032173187, 0.000068079295, -976332.94, -43083.035, 0.0, 10.0, 9.943291 
5.25e+2, 2.1471375e+2, -878045.94, -921409.9, -0.00015345265, 0.000000031722966, -0.00012682428, -878045.94, -42240.62, 0.0, 10.0, 9.942949 
5.25e+2, 2.2465037e+2, -789759.8, -843144.9, 0.00011165754, 0.000000031722756, 0.00012088258, -789759.8, -51333.516, 0.0, 10.0, 9.929908 
5.25e+2, 2.3458035e+2, -691326.3, -744966.44, 0.00007057117, 0.000000032232023, -0.00008881795, -691326.3, -50213.75, 0.0, 10.0, 9.929577 
5.25e+2, 2.4450338e+2, -603002.25, -667018.8, 0.0007084328, 0.000000032000575, 0.00007470869, -603002.25, -59135.348, 0.0, 10.0, 9.916136 
5.25e+2, 2.5441962e+2, -504249.56, -568343.3, -0.00014663266, 0.000000030883797, -0.00010673476, -504249.56, -57562.008, 0.0, 10.0, 9.916036 
5.25e+2, 2.643288e+2, -416014.16, -490987.88, 0.00017032729, 0.0000000306727, 0.00014059675, -416014.16, -66436.48, 0.0, 10.0, 9.901964 
5.25e+2, 2.742313e+2, -316728.94, -391374.78, -0.000116193354, 0.000000031616274, -0.00020344295, -316728.94, -64195.93, 0.0, 10.0, 9.902385 
5.25e+2, 2.841256e+2, -230255.67, -318081.25, 0.00039486302, 0.000000032082244, 0.00022904584, -230255.67, -74686.7, 0.0, 10.0, 9.885439 
5.25e+2, 2.940121e+2, -130549.54, -217765.0, 0.00034127047, 0.000000031889225, -0.00025334384, -130549.54, -71868.14, 0.0, 10.0, 9.886217 
5.25e+2, 3.0392656e+2, -40805.523, -84750.16, 0.0006114832, 0.00000003149876, 0.00017313517, -40805.523, -40805.523, 0.0, 10.0, 9.942173 
5.25e+2, 3.138706e+2, -39727.51, -82511.21, -0.0004081536, 0.00000003082135, -0.00005514284, -39727.51, -39727.51, 0.0, 10.0, 9.943684 
5.35e+2, 1.2499334e+2, -1719946.1, -1724224.6, 0.0006010029, 0.000000035038813, 0.000017604027, -1719946.1, -4880.8896, 0.0, 10.0, 9.994327 
5.35e+2, 1.349876e+2, -1622565.6, -1627434.9, -0.00058886, 0.000000033935827, -0.00006840156, -1622565.6, -5444.104, 0.0, 10.0, 9.993545 
5.35e+2, 1.4497514e+2, -1534464.3, -1548146.3, -0.000103542865, 0.00000003378916, 0.000070926435, -1534464.3, -15220.61, 0.0, 10.0, 9.981865 
5.35e+2, 1.5495703e+2, -1436736.6, -1450821.9, -0.00027703698, 0.00000003460211, -0.000056976798, -1436736.6, -15315.43, 0.0, 10.0, 9.981333 
5.35e+2, 1.6493228e+2, -1348685.6, -1371952.4, 0.00035605932, 0.000000034542563, 0.000047344143, -1348685.6, -25021.924, 0.0, 10.0, 9.969248 
5.35e+2, 1.7490156e+2, -1250727.6, -1274310.1, -0.00032807665, 0.000000033592148, -0.00007382747, -1250727.6, -24762.904, 0.0, 10.0, 9.968835 
5.35e+2, 1.8486421e+2, -1162646.6, -1195720.1, 0.0001646893, 0.000000033084515, 0.00006614839, -1162646.6, -34315.957, 0.0, 10.0, 9.956395 
5.35e+2, 1.9482064e+2, -1064496.9, -1097833.0, -0.000117597134, 0.000000033040187, -0.000057654237, -1064496.9, -33739.29, 0.0, 10.0, 9.956052 
5.35e+2, 2.0477042e+2, -976332.94, -1019435.0, 0.00038664808, 0.00000003309502, 0.00006807984, -976332.94, -43083.04, 0.0, 10.0, 9.943291 
5.35e+2, 2.1471375e+2, -878045.94, -921409.9, -0.00044555828, 0.000000033257184, -0.00012682537, -878045.94, -42240.625, 0.0, 10.0, 9.942949 
5.35e+2, 2.2465037e+2, -789759.8, -843144.9, -0.00009200894, 0.000000033162287, 0.00012088171, -789759.8, -51333.516, 0.0, 10.0, 9.929908 
5.35e+2, 2.3458035e+2, -691326.3, -744966.44, -0.00013020528, 0.000000032776374, -0.000088816436, -691326.3, -50213.75, 0.0, 10.0, 9.929577 
5.35e+2, 2.4450338e+2, -603002.25, -667018.8, 0.0007197028, 0.000000032456942, 0.00007471031, -603002.25, -59135.35, 0.0, 10.0, 9.916136 
5.35e+2, 2.5441962e+2, -504249.56, -568343.3, -0.00012517384, 0.00000003221719, -0.00010673576, -504249.56, -57562.008, 0.0, 10.0, 9.916036 
5.35e+2, 2.643288e+2, -416014.16, -490987.88, -0.0002878369, 0.000000032318166, 0.00014059509, -416014.16, -66436.48, 0.0, 10.0, 9.901964 
5.35e+2, 2.742313e+2, -316728.94, -391374.78, -0.0006065174, 0.000000032852572, -0.00020344279, -316728.94, -64195.93, 0.0, 10.0, 9.902385 
5.35e+2, 2.841256e+2, -230255.67, -318081.25, 0.00030550364, 0.000000033145273, 0.00022904664, -230255.67, -74686.7, 0.0, 10.0, 9.885439 
5.35e+2, 2.940121e+2, -130549.54, -217765.0, 0.00028803753, 0.000000033105213, -0.000253344, -130549.54, -71868.14, 0.0, 10.0, 9.886217 
5.35e+2, 3.0392656e+2, -40805.527, -84750.164, 0.00085837545, 0.000000032553782, 0.0001731349, -40805.527, -40805.527, 0.0, 10.0, 9.942173 
5.35e+2, 3.138706e+2, -39727.51, -82511.21, -0.00012603018, 0.00000003124654, -0.00005514176, -39727.51, -39727.51, 0.0, 10.0, 9.943684 
5.45e+2, 1.2499334e+2, -1719946.1, -1724224.6, 0.0004954282, 0.000000036198895, 0.000017605333, -1719946.1, -4880.882, 0.0, 10.0, 9.994327 
5.45e+2, 1.349876e+2, -1622565.6, -1627434.9, 0.00036763246, 0.00000003501614, -0.000068402434, -1622565.6, -5444.095, 0.0, 10.0, 9.993545 
5.45e+2, 1.4497514e+2, -1534464.3, -1548146.3, 0.000924901, 0.00000003481493, 0.0000709258, -1534464.3, -15220.601, 0.0, 10.0, 9.981865 
5.45e+2, 1.5495703e+2, -1436736.6, -1450821.9, 0.00005322647, 0.000000035598372, -0.000056976274, -1436736.6, -15315.421, 0.0, 10.0, 9.981333 
5.45e+2, 1.6493228e+2, -1348685.6, -1371952.4, 0.0006963958, 0.000000035603676, 0.00004734482, -1348685.6, -25021.916, 0.0, 10.0, 9.969248 
5.45e+2, 1.7490156e+2, -1250727.6, -1274310.1, 0.00021988117, 0.000000034814462, -0.00007382767, -1250727.6, -24762.896, 0.0, 10.0, 9.968835 
5.45e+2, 1.8486421e+2, -1162646.6, -1195720.1, 0.00058853003, 0.000000034303422, 0.00006614826, -1162646.6, -34315.95, 0.0, 10.0, 9.956395 
5.45e+2, 1.9482064e+2, -1064496.9, -1097833.0, -0.00013227873, 0.000000034083435, -0.00005765329, -1064496.9, -33739.28, 0.0, 10.0, 9.956052 
5.45e+2, 2.0477042e+2, -976332.94, -1019435.0, 0.00048075424, 0.000000034144186, 0.00006808055, -976332.94, -43083.03, 0.0, 10.0, 9.943291 
5.45e+2, 2.1471375e+2, -878045.9, -921409.9, 0.00048788628, 0.000000034508925, -0.00012682629, -878045.9, -42240.617, 0.0, 10.0, 9.942949 
5.45e+2, 2.2465037e+2, -789759.8, -843144.9, 0.0009085502, 0.000000034316912, 0.00012088085, -789759.8, -51333.508, 0.0, 10.0, 9.929908 
5.45e+2, 2.3458035e+2, -691326.3, -744966.44, -0.00037709283, 0.000000033494572, -0.00008881536, -691326.3, -50213.742, 0.0, 10.0, 9.929577 
5.45e+2, 2.4450338e+2, -603002.25, -667018.8, 0.0002130935, 0.000000033293254, 0.00007471163, -603002.25, -59135.344, 0.0, 10.0, 9.916136 
5.45e+2, 2.5441962e+2, -504249.56, -568343.3, 0.00055007485, 0.00000003383436, -0.00010673623, -504249.56, -57562.004, 0.0, 10.0, 9.916036 
5.45e+2, 2.643288e+2, -416014.16, -490987.88, 0.0008192991, 0.000000034033338, 0.00014059395, -416014.16, -66436.48, 0.0, 10.0, 9.901964 
5.45e+2, 2.742313e+2, -316728.94, -391374.78, -0.00011241504, 0.000000033795153, -0.00020344315, -316728.94, -64195.92, 0.0, 10.0, 9.902385 
5.45e+2, 2.841256e+2, -230255.67, -318081.25, 0.00023815107, 0.000000033670933, 0.00022904701, -230255.67, -74686.695, 0.0, 10.0, 9.885439 
5.45e+2, 2.940121e+2, -130549.53, -217765.0, -0.00050178485, 0.00000003370472, -0.00025334297, -130549.53, -71868.13, 0.0, 10.0, 9.886217 
5.45e+2, 3.0392656e+2, -40805.516, -84750.16, 0.000045965742, 0.000000033497553, 0.00017313585, -40805.516, -40805.516, 0.0, 10.0, 9.942173 
5.45e+2, 3.138706e+2, -39727.508, -82511.21, -0.00013859177, 0.00000003293142, -0.000055142173, -39727.508, -39727.508, 0.0, 10.0, 9.943684 
5.55e+2, 1.2499334e+2, -1719946.1, -1724224.6, 0.00015619771, 0.00000003738467, 0.000017608467, -1719946.1, -4880.8823, 0.0, 10.0, 9.994327 
5.55e+2, 1.349876e+2, -1622565.6, -1627434.9, 0.000028327611, 0.00000003684752, -0.00006840371, -1622565.6, -5444.096, 0.0, 10.0, 9.993545 
5.55e+2, 1.4497514e+2, -1534464.3, -1548146.3, 0.0004240461, 0.000000036382502, 0.00007092437, -1534464.3, -15220.604, 0.0, 10.0, 9.981865 
5.55e+2, 1.5495703e+2, -1436736.6, -1450821.9, -0.00044788836, 0.00000003598658, -0.000056975194, -1436736.6, -15315.423, 0.0, 10.0, 9.981333 
5.55e+2, 1.6493228e+2, -1348685.6, -1371952.4, 0.00039680194, 0.000000035880387, 0.00004734626, -1348685.6, -25021.918, 0.0, 10.0, 9.969248 
5.55e+2, 1.7490156e+2, -1250727.6, -1274310.1, -0.000078651494, 0.00000003607003, -0.000073828065, -1250727.6, -24762.896, 0.0, 10.0, 9.968835 
5.55e+2, 1.8486421e+2, -1162646.6, -1195720.1, 0.00037008125, 0.000000035942723, 0.00006614765, -1162646.6, -34315.95, 0.0, 10.0, 9.956395 
5.55e+2, 1.9482064e+2, -1064496.9, -1097833.0, -0.0003498034, 0.00000003548372, -0.000057652403, -1064496.9, -33739.285, 0.0, 10.0, 9.956052 
5.55e+2, 2.0477042e+2, -976332.94, -1019435.0, 0.0001381444, 0.000000035320678, 0.00006808145, -976332.94, -43083.03, 0.0, 10.0, 9.943291 
5.55e+2, 2.1471375e+2, -878045.94, -921409.9, 0.00014268939, 0.00000003547819, -0.000126827, -878045.94, -42240.617, 0.0, 10.0, 9.942949 
5.55e+2, 2.2465037e+2, -789759.8, -843144.9, 0.00088380073, 0.000000035186634, 0.00012087998, -789759.8, -51333.51, 0.0, 10.0, 9.929908 
5.55e+2, 2.3458035e+2, -691326.3, -744966.44, -0.00039136043, 0.00000003438662, -0.00008881473, -691326.3, -50213.746, 0.0, 10.0, 9.929577 
5.55e+2, 2.4450338e+2, -603002.25, -667018.8, -0.00024394941, 0.000000034509508, 0.00007471263, -603002.25, -59135.344, 0.0, 10.0, 9.916136 
5.55e+2, 2.5441962e+2, -504249.56, -568343.3, 0.00007175073, 0.000000035735308, -0.00010673618, -504249.56, -57562.004, 0.0, 10.0, 9.916036 
5.55e+2, 2.643288e+2, -416014.16, -490987.88, 0.0008841722, 0.000000035818214, 0.00014059336, -416014.16, -66436.48, 0.0, 10.0, 9.901964 
5.55e+2, 2.742313e+2, -316728.94, -391374.78, -0.000011125215, 0.00000003444402, -0.00020344403, -316728.94, -64195.92, 0.0, 10.0, 9.902385 
5.55e+2, 2.841256e+2, -230255.67, -318081.25, 0.0001460329, 0.000000033659227, 0.00022904699, -230255.67, -74686.695, 0.0, 10.0, 9.885439 
5.55e+2, 2.940121e+2, -130549.53, -217765.0, -0.0006113315, 0.000000033687748, -0.00025334064, -130549.53, -71868.13, 0.0, 10.0, 9.886217 
5.55e+2, 3.0392656e+2, -40805.52, -84750.16, -0.00019509062, 0.00000003433007, 0.00017313796, -40805.52, -40805.52, 0.0, 10.0, 9.942173 
5.55e+2, 3.138706e+2, -39727.508, -82511.21, -0.00039508851, 0.00000003587599, -0.00005514407, -39727.508, -39727.508, 0.0, 10.0, 9.943684 
5.65e+2, 1.2499334e+2, -1719946.1, -1724224.6, 0.00025825828, 0.000000038576196, 0.000017609102, -1719946.1, -4880.8735, 0.0, 10.0, 9.994327 
5.65e+2, 1.349876e+2, -1622565.6, -1627434.9, -0.0000562123, 0.000000038485446, -0.000068403395, -1622565.6, -5444.0884, 0.0, 10.0, 9.993545 
5.65e+2, 1.4497514e+2, -1534464.3, -1548146.3, 0.0005252869, 0.000000037925922, 0.00007092515, -1534464.3, -15220.597, 0.0, 10.0, 9.981865 
5.65e+2, 1.5495703e+2, -1436736.6, -1450821.9, -0.00014823047, 0.000000036890636, -0.000056974844, -1436736.6, -15315.414, 0.0, 10.0, 9.981333 
5.65e+2, 1.6493228e+2, -1348685.6, -1371952.4, 0.0006829841, 0.000000036626204, 0.000047346435, -1348685.6, -25021.906, 0.0, 10.0, 9.969248 
5.65e+2, 1.7490156e+2, -1250727.6, -1274310.1, 0.00028028825, 0.00000003714886, -0.00007382782, -1250727.6, -24762.889, 0.0, 10.0, 9.968835 
5.65e+2, 1.8486421e+2, -1162646.6, -1195720.1, 0.00094742724, 0.0000000372639, 0.00006614772, -1162646.6, -34315.94, 0.0, 10.0, 9.956395 
5.65e+2, 1.9482064e+2, -1064496.9, -1097833.0, 0.00035624387, 0.00000003695238, -0.0000576528, -1064496.9, -33739.277, 0.0, 10.0, 9.956052 
5.65e+2, 2.0477042e+2, -976332.94, -1019435.0, 0.0006659538, 0.000000036634873, 0.00006808139, -976332.94, -43083.023, 0.0, 10.0, 9.943291 
5.65e+2, 2.1471375e+2, -878045.9, -921409.9, -0.000091318085, 0.000000036310922, -0.00012682586, -878045.9, -42240.605, 0.0, 10.0, 9.942949 
5.65e+2, 2.2465037e+2, -789759.8, -843144.9, 0.000765794, 0.000000036056893, 0.000120880875, -789759.8, -51333.504, 0.0, 10.0, 9.929908 
5.65e+2, 2.3458035e+2, -691326.25, -744966.44, 0.0006759027, 0.00000003588197, -0.00008881572, -691326.25, -50213.74, 0.0, 10.0, 9.929577 
5.65e+2, 2.4450338e+2, -603002.25, -667018.8, 0.0007617189, 0.00000003608201, 0.000074711505, -603002.25, -59135.336, 0.0, 10.0, 9.916136 
5.65e+2, 2.5441962e+2, -504249.56, -568343.3, -0.0002886978, 0.00000003672986, -0.000106735366, -504249.56, -57561.992, 0.0, 10.0, 9.916036 
5.65e+2, 2.643288e+2, -416014.16, -490987.88, 0.00039176052, 0.000000036601172, 0.00014059468, -416014.16, -66436.47, 0.0, 10.0, 9.901964 
5.65e+2, 2.742313e+2, -316728.9, -391374.78, 0.00017844165, 0.000000035483158, -0.000203444, -316728.9, -64195.914, 0.0, 10.0, 9.902385 
5.65e+2, 2.841256e+2, -230255.66, -318081.25, 0.0005865576, 0.000000034838624, 0.00022904645, -230255.66, -74686.69, 0.0, 10.0, 9.885439 
5.65e+2, 2.940121e+2, -130549.52, -217765.0, -0.000015089222, 0.000000034846575, -0.0002533407, -130549.52, -71868.125, 0.0, 10.0, 9.886217 
5.65e+2, 3.0392656e+2, -40805.51, -84750.16, 0.0003983899, 0.00000003556719, 0.00017313795, -40805.51, -40805.51, 0.0, 10.0, 9.942173 
5.65e+2, 3.138706e+2, -39727.5, -82511.21, 0.00036045245, 0.000000037339547, -0.000055144756, -39727.5, -39727.5, 0.0, 10.0, 9.943684 
5.75e+2, 1.2499334e+2, -1719946.1, -1724224.6, -0.0002887107, 0.00000003977347, 0.000017607234, -1719946.1, -4880.8745, 0.0, 10.0, 9.994327 
5.75e+2, 1.349876e+2, -1622565.6, -1627434.9, -0.00060328416, 0.00000003992992, -0.000068401496, -1622565.6, -5444.0894, 0.0, 10.0, 9.993545 
5.75e+2, 1.4497514e+2, -1534464.3, -1548146.3, 0.00049980026, 0.00000003944519, 0.00007092813, -1534464.3, -15220.598, 0.0, 10.0, 9.981865 
5.75e+2, 1.5495703e+2, -1436736.6, -1450821.9, -0.00017289436, 0.000000038310546, -0.000056975226, -1436736.6, -15315.416, 0.0, 10.0, 9.981333 
5.75e+2, 1.6493228e+2, -1348685.6, -1371952.4, 0.00015375645, 0.000000037841133, 0.000047345336, -1348685.6, -25021.908, 0.0, 10.0, 9.969248 
5.75e+2, 1.7490156e+2, -1250727.6, -1274310.1, -0.0002516069, 0.000000038050956, -0.00007382692, -1250727.6, -24762.889, 0.0, 10.0, 9.968835 
5.75e+2, 1.8486421e+2, -1162646.6, -1195720.1, 0.00056864327, 0.000000038266958, 0.00006614845, -1162646.6, -34315.945, 0.0, 10.0, 9.956395 
5.75e+2, 1.9482064e+2, -1064496.9, -1097833.0, -0.000020770287, 0.00000003848941, -0.00005765448, -1064496.9, -33739.277, 0.0, 10.0, 9.956052 
5.75e+2, 2.0477042e+2, -976332.94, -1019435.0, 0.0006535114, 0.000000038086768, 0.00006808037, -976332.94, -43083.023, 0.0, 10.0, 9.943291 
5.75e+2, 2.1471375e+2, -878045.9, -921409.9, -0.00009623345, 0.000000037007126, -0.00012682287, -878045.9, -42240.61, 0.0, 10.0, 9.942949 
5.75e+2, 2.2465037e+2, -789759.8, -843144.9, 0.00037377945, 0.000000036927688, 0.00012088353, -789759.8, -51333.504, 0.0, 10.0, 9.929908 
5.75e+2, 2.3458035e+2, -691326.25, -744966.44, 0.0002712214, 0.00000003798062, -0.00008881831, -691326.25, -50213.74, 0.0, 10.0, 9.929577 
5.75e+2, 2.4450338e+2, -603002.25, -667018.8, 0.00061471894, 0.000000038010768, 0.00007470825, -603002.25, -59135.336, 0.0, 10.0, 9.916136 
5.75e+2, 2.5441962e+2, -504249.56, -568343.3, -0.00042331757, 0.000000036818015, -0.00010673379, -504249.56, -57561.996, 0.0, 10.0, 9.916036 
5.75e+2, 2.643288e+2, -416014.16, -490987.88, 0.0004026964, 0.000000036382207, 0.00014059794, -416014.16, -66436.47, 0.0, 10.0, 9.901964 
5.75e+2, 2.742313e+2, -316728.9, -391374.78, 0.00019913561, 0.000000036912564, -0.00020344308, -316728.9, -64195.914, 0.0, 10.0, 9.902385 
5.75e+2, 2.841256e+2, -230255.66, -318081.25, 0.00038586496, 0.000000037209126, 0.00022904541, -230255.66, -74686.69, 0.0, 10.0, 9.885439 
5.75e+2, 2.940121e+2, -130549.52, -217765.02, -0.00023573224, 0.00000003718119, -0.0002533431, -130549.52, -71868.13, 0.0, 10.0, 9.886217 
5.75e+2, 3.0392656e+2, -40805.51, -84750.16, -0.000030363453, 0.000000037208906, 0.00017313576, -40805.51, -40805.51, 0.0, 10.0, 9.942173 
5.75e+2, 3.138706e+2, -39727.5, -82511.21, -0.00009273522, 0.000000037322103, -0.000055144228, -39727.5, -39727.5, 0.0, 10.0, 9.943684 
5.85e+2, 1.2499334e+2, -1719946.1, -1724224.6, 0.0011349521, 0.00000004107778, 0.000017606346, -1719946.1, -4880.8647, 0.0, 10.0, 9.994327 
5.85e+2, 1.349876e+2, -1622565.6, -1627434.9, -0.00032415637, 0.000000040736488, -0.0000684008, -1622565.6, -5444.0786, 0.0, 10.0, 9.993545 
5.85e+2, 1.4497514e+2, -1534464.3, -1548146.3, 0.000607695, 0.00000004039369, 0.00007092967, -1534464.3, -15220.587, 0.0, 10.0, 9.981865 
5.85e+2, 1.5495703e+2, -1436736.6, -1450821.9, 0.0004987323, 0.000000040044036, -0.000056975434, -1436736.6, -15315.407, 0.0, 10.0, 9.981333 
5.85e+2, 1.6493228e+2, -1348685.6, -1371952.4, 0.0009139691, 0.000000039692825, 0.00004734477, -1348685.6, -25021.9, 0.0, 10.0, 9.969248 
5.85e+2, 1.7490156e+2, -1250727.6, -1274310.1, 0.000115274765, 0.00000003934002, -0.00007382643, -1250727.6, -24762.88, 0.0, 10.0, 9.968835 
5.85e+2, 1.8486421e+2, -1162646.6, -1195720.1, 0.00087008823, 0.000000039246128, 0.00006614912, -1162646.6, -34315.934, 0.0, 10.0, 9.956395 
5.85e+2, 1.9482064e+2, -1064496.9, -1097833.0, 0.00046786282, 0.00000003942314, -0.00005765455, -1064496.9, -33739.27, 0.0, 10.0, 9.956052 
5.85e+2, 2.0477042e+2, -976332.94, -1019435.0, 0.0012469048, 0.000000039142726, 0.00006808014, -976332.94, -43083.016, 0.0, 10.0, 9.943291 
5.85e+2, 2.1471375e+2, -878045.9, -921409.9, 0.0002943222, 0.000000038366874, -0.00012682265, -878045.9, -42240.6, 0.0, 10.0, 9.942949 
5.85e+2, 2.2465037e+2, -789759.75, -843144.9, 0.0005094978, 0.0000000384199, 0.00012088391, -789759.75, -51333.496, 0.0, 10.0, 9.929908 
5.85e+2, 2.3458035e+2, -691326.25, -744966.44, 0.00039622668, 0.00000003941132, -0.00008881813, -691326.25, -50213.73, 0.0, 10.0, 9.929577 
5.85e+2, 2.4450338e+2, -603002.2, -667018.8, 0.0011063558, 0.000000039209723, 0.00007470829, -603002.2, -59135.33, 0.0, 10.0, 9.916136 
5.85e+2, 2.5441962e+2, -504249.53, -568343.3, 0.000120381024, 0.000000037582087, -0.00010673387, -504249.53, -57561.984, 0.0, 10.0, 9.916036 
5.85e+2, 2.643288e+2, -416014.13, -490987.88, 0.00061134016, 0.00000003718643, 0.00014059799, -416014.13, -66436.46, 0.0, 10.0, 9.901964 
5.85e+2, 2.742313e+2, -316728.9, -391374.78, 0.00025736453, 0.000000038361964, -0.00020344264, -316728.9, -64195.906, 0.0, 10.0, 9.902385 
5.85e+2, 2.841256e+2, -230255.66, -318081.25, 0.0006940415, 0.000000039045258, 0.00022904559, -230255.66, -74686.68, 0.0, 10.0, 9.885439 
5.85e+2, 2.940121e+2, -130549.516, -217765.0, 0.0005745161, 0.0000000390476, -0.00025334413, -130549.516, -71868.125, 0.0, 10.0, 9.886217 
5.85e+2, 3.0392656e+2, -40805.504, -84750.16, 0.00071004557, 0.00000003862519, 0.00017313483, -40805.504, -40805.504, 0.0, 10.0, 9.942173 
5.85e+2, 3.138706e+2, -39727.49, -82511.21, -0.00059381005, 0.00000003757852, -0.00005514321, -39727.49, -39727.49, 0.0, 10.0, 9.943684 
5.95e+2, 1.2499334e+2, -1719946.1, -1724224.6, 0.0007676762, 0.000000042489116, 0.000017606437, -1719946.1, -4880.8687, 0.0, 10.0, 9.994327 
5.95e+2, 1.349876e+2, -1622565.6, -1627434.9, -0.00069151586, 0.000000040905153, -0.00006840131, -1622565.6, -5444.0825, 0.0, 10.0, 9.993545 
5.95e+2, 1.4497514e+2, -1534464.3, -1548146.3, -0.000037891205, 0.000000040771415, 0.00007092977, -1534464.3, -15220.588, 0.0, 10.0, 9.981865 
5.95e+2, 1.5495703e+2, -1436736.6, -1450821.9, -0.0001472996, 0.000000042091102, -0.000056975467, -1436736.6, -15315.408, 0.0, 10.0, 9.981333 
5.95e+2, 1.6493228e+2, -1348685.6, -1371952.4, 0.0007633031, 0.000000042181274, 0.000047344733, -1348685.6, -25021.902, 0.0, 10.0, 9.969248 
5.95e+2, 1.7490156e+2, -1250727.6, -1274310.1, -0.000032781554, 0.000000041016058, -0.00007382635, -1250727.6, -24762.883, 0.0, 10.0, 9.968835 
5.95e+2, 1.8486421e+2, -1162646.6, -1195720.1, 0.00065543386, 0.000000040201414, 0.000066149725, -1162646.6, -34315.938, 0.0, 10.0, 9.956395 
5.95e+2, 1.9482064e+2, -1064496.9, -1097833.0, 0.00025243306, 0.000000039753566, -0.000057653, -1064496.9, -33739.27, 0.0, 10.0, 9.956052 
5.95e+2, 2.0477042e+2, -976332.94, -1019435.0, 0.0008746249, 0.000000039802753, 0.00006808069, -976332.94, -43083.016, 0.0, 10.0, 9.943291 
5.95e+2, 2.1471375e+2, -878045.9, -921409.9, -0.00008120011, 0.000000040390166, -0.0001268252, -878045.9, -42240.6, 0.0, 10.0, 9.942949 
5.95e+2, 2.2465037e+2, -789759.75, -843144.9, 0.0002323684, 0.000000040533525, 0.000120882, -789759.75, -51333.496, 0.0, 10.0, 9.929908 
5.95e+2, 2.3458035e+2, -691326.25, -744966.44, 0.00012231176, 0.000000040174065, -0.000088815155, -691326.25, -50213.73, 0.0, 10.0, 9.929577 
5.95e+2, 2.4450338e+2, -603002.2, -667018.8, 0.0012799616, 0.00000003967888, 0.00007471161, -603002.2, -59135.332, 0.0, 10.0, 9.916136 
5.95e+2, 2.5441962e+2, -504249.56, -568343.3, 0.00031549233, 0.000000039022073, -0.00010673561, -504249.56, -57561.99, 0.0, 10.0, 9.916036 
5.95e+2, 2.643288e+2, -416014.13, -490987.88, 0.000063105304, 0.000000039013837, 0.00014059478, -416014.13, -66436.46, 0.0, 10.0, 9.901964 
5.95e+2, 2.742313e+2, -316728.9, -391374.78, -0.0003407116, 0.000000039831352, -0.00020344269, -316728.9, -64195.91, 0.0, 10.0, 9.902385 
5.95e+2, 2.841256e+2, -230255.66, -318081.25, 0.0005512116, 0.000000040347018, 0.00022904697, -230255.66, -74686.68, 0.0, 10.0, 9.885439 
5.95e+2, 2.940121e+2, -130549.516, -217765.0, 0.0004727044, 0.000000040445798, -0.00025334372, -130549.516, -71868.125, 0.0, 10.0, 9.886217 
5.95e+2, 3.0392656e+2, -40805.504, -84750.164, 0.0011291926, 0.000000039816037, 0.00017313514, -40805.504, -40805.504, 0.0, 10.0, 9.942173 
5.95e+2, 3.138706e+2, -39727.492, -82511.21, -0.00011350504, 0.000000038108798, -0.000055141703, -39727.492, -39727.492, 0.0, 10.0, 9.943684 
6.05e+2, 1.2499334e+2, -1719946.1, -1724224.6, 0.00057270064, 0.000000043748408, 0.000017608092, -1719946.1, -4880.8584, 0.0, 10.0, 9.994327 
6.05e+2, 1.349876e+2, -1622565.6, -1627434.9, 0.00053875154, 0.000000042252207, -0.00006840246, -1622565.6, -5444.0728, 0.0, 10.0, 9.993545 
6.05e+2, 1.4497514e+2, -1534464.3, -1548146.3, 0.0012424745, 0.00000004210963, 0.00007092891, -1534464.3, -15220.578, 0.0, 10.0, 9.981865 
6.05e+2, 1.5495703e+2, -1436736.5, -1450821.9, 0.00016674215, 0.000000043322608, -0.000056974914, -1436736.5, -15315.397, 0.0, 10.0, 9.981333 
6.05e+2, 1.6493228e+2, -1348685.6, -1371952.4, 0.0010668294, 0.00000004342399, 0.000047345562, -1348685.6, -25021.893, 0.0, 10.0, 9.969248 
6.05e+2, 1.7490156e+2, -1250727.6, -1274310.1, 0.00043985227, 0.000000042390383, -0.0000738264, -1250727.6, -24762.873, 0.0, 10.0, 9.968835 
6.05e+2, 1.8486421e+2, -1162646.6, -1195720.1, 0.0010213311, 0.000000041568416, 0.00006614976, -1162646.6, -34315.926, 0.0, 10.0, 9.956395 
6.05e+2, 1.9482064e+2, -1064496.9, -1097833.0, 0.000243433, 0.000000040967866, -0.000057651883, -1064496.9, -33739.258, 0.0, 10.0, 9.956052 
6.05e+2, 2.0477042e+2, -976332.9, -1019435.0, 0.0009800108, 0.000000041110965, 0.000068081405, -976332.9, -43083.008, 0.0, 10.0, 9.943291 
6.05e+2, 2.1471375e+2, -878045.9, -921409.9, 0.0010824883, 0.000000042059398, -0.0001268265, -878045.9, -42240.594, 0.0, 10.0, 9.942949 
6.05e+2, 2.2465037e+2, -789759.75, -843144.9, 0.0015297342, 0.000000042006455, 0.00012088084, -789759.75, -51333.49, 0.0, 10.0, 9.929908 
6.05e+2, 2.3458035e+2, -691326.25, -744966.44, -0.00026121238, 0.00000004081974, -0.00008881371, -691326.25, -50213.72, 0.0, 10.0, 9.929577 
6.05e+2, 2.4450338e+2, -603002.2, -667018.8, 0.0005263072, 0.000000040395157, 0.000074713396, -603002.2, -59135.32, 0.0, 10.0, 9.916136 
6.05e+2, 2.5441962e+2, -504249.53, -568343.3, 0.0010795062, 0.000000040882075, -0.0001067362, -504249.53, -57561.98, 0.0, 10.0, 9.916036 
6.05e+2, 2.643288e+2, -416014.13, -490987.88, 0.0013007971, 0.00000004114813, 0.00014059331, -416014.13, -66436.45, 0.0, 10.0, 9.901964 
6.05e+2, 2.742313e+2, -316728.9, -391374.78, 0.00012987095, 0.000000041130956, -0.0002034431, -316728.9, -64195.9, 0.0, 10.0, 9.902385 
6.05e+2, 2.841256e+2, -230255.64, -318081.25, 0.0003760697, 0.000000041099515, 0.00022904748, -230255.64, -74686.67, 0.0, 10.0, 9.885439 
6.05e+2, 2.940121e+2, -130549.51, -217765.0, -0.000612096, 0.000000041049887, -0.00025334247, -130549.51, -71868.11, 0.0, 10.0, 9.886217 
6.05e+2, 3.0392656e+2, -40805.492, -84750.16, 0.00003754208, 0.000000040744148, 0.00017313623, -40805.492, -40805.492, 0.0, 10.0, 9.942173 
6.05e+2, 3.138706e+2, -39727.484, -82511.21, -0.00014314012, 0.000000040058612, -0.00005514203, -39727.484, -39727.484, 0.0, 10.0, 9.943684 
6.15e+2, 1.2499334e+2, -1719946.1, -1724224.6, 0.000117846066, 0.000000044855653, 0.00001761131, -1719946.1, -4880.859, 0.0, 10.0, 9.994327 
6.15e+2, 1.349876e+2, -1622565.6, -1627434.9, 0.00008379941, 0.000000044777654, -0.00006840427, -1622565.6, -5444.0728, 0.0, 10.0, 9.993545 
6.15e+2, 1.4497514e+2, -1534464.3, -1548146.3, 0.00068834575, 0.000000044408328, 0.000070927104, -1534464.3, -15220.581, 0.0, 10.0, 9.981865 
6.15e+2, 1.5495703e+2, -1436736.5, -1450821.9, -0.00038755056, 0.00000004373856, -0.000056973782, -1436736.5, -15315.4, 0.0, 10.0, 9.981333 
6.15e+2, 1.6493228e+2, -1348685.6, -1371952.4, 0.0008050994, 0.000000043420975, 0.000047347254, -1348685.6, -25021.895, 0.0, 10.0, 9.969248 
6.15e+2, 1.7490156e+2, -1250727.6, -1274310.1, 0.00017966222, 0.000000043462993, -0.000073826566, -1250727.6, -24762.875, 0.0, 10.0, 9.968835 
6.15e+2, 1.8486421e+2, -1162646.6, -1195720.1, 0.0008059435, 0.000000043347136, 0.00006614923, -1162646.6, -34315.93, 0.0, 10.0, 9.956395 
6.15e+2, 1.9482064e+2, -1064496.9, -1097833.0, 0.000028559562, 0.000000043066034, -0.0000576512, -1064496.9, -33739.26, 0.0, 10.0, 9.956052 
6.15e+2, 2.0477042e+2, -976332.9, -1019435.0, 0.0005204771, 0.00000004306736, 0.00006808227, -976332.9, -43083.008, 0.0, 10.0, 9.943291 
6.15e+2, 2.1471375e+2, -878045.9, -921409.9, 0.0006178959, 0.00000004337457, -0.00012682659, -878045.9, -42240.594, 0.0, 10.0, 9.942949 
6.15e+2, 2.2465037e+2, -789759.75, -843144.9, 0.0016822481, 0.00000004283869, 0.00012088042, -789759.75, -51333.492, 0.0, 10.0, 9.929908 
6.15e+2, 2.3458035e+2, -691326.25, -744966.44, -0.000088510984, 0.000000041348347, -0.00008881378, -691326.25, -50213.723, 0.0, 10.0, 9.929577 
6.15e+2, 2.4450338e+2, -603002.2, -667018.8, -0.000027148819, 0.000000041358547, 0.00007471365, -603002.2, -59135.32, 0.0, 10.0, 9.916136 
6.15e+2, 2.5441962e+2, -504249.53, -568343.3, 0.00049115054, 0.000000043162085, -0.00010673564, -504249.53, -57561.98, 0.0, 10.0, 9.916036 
6.15e+2, 2.643288e+2, -416014.13, -490987.88, 0.0013539878, 0.000000043589313, 0.00014059359, -416014.13, -66436.45, 0.0, 10.0, 9.901964 
6.15e+2, 2.742313e+2, -316728.9, -391374.78, 0.00022607266, 0.00000004226078, -0.00020344385, -316728.9, -64195.902, 0.0, 10.0, 9.902385 
6.15e+2, 2.841256e+2, -230255.64, -318081.25, 0.00039363847, 0.000000041302748, 0.00022904715, -230255.64, -74686.67, 0.0, 10.0, 9.885439 
6.15e+2, 2.940121e+2, -130549.51, -217765.0, -0.00060161226, 0.000000040859867, -0.0002533404, -130549.51, -71868.11, 0.0, 10.0, 9.886217 
6.15e+2, 3.0392656e+2, -40805.496, -84750.16, -0.00025862735, 0.000000041409525, 0.00017313812, -40805.496, -40805.496, 0.0, 10.0, 9.942173 
6.15e+2, 3.138706e+2, -39727.484, -82511.21, -0.00047530927, 0.00000004342796, -0.0000551442, -39727.484, -39727.484, 0.0, 10.0, 9.943684 
6.25e+2, 1.2499334e+2, -1719946.1, -1724224.6, 0.00056295074, 0.000000046375295, 0.000017611681, -1719946.1, -4880.8486, 0.0, 10.0, 9.994327 
6.25e+2, 1.349876e+2, -1622565.6, -1627434.9, 0.000060758535, 0.000000046775742, -0.000068403984, -1622565.6, -5444.064, 0.0, 10.0, 9.993545 
6.25e+2, 1.4497514e+2, -1534464.3, -1548146.3, 0.0008725068, 0.000000046208406, 0.00007092811, -1534464.3, -15220.572, 0.0, 10.0, 9.981865 
6.25e+2, 1.5495703e+2, -1436736.5, -1450821.9, 0.00007276981, 0.00000004465903, -0.000056973466, -1436736.5, -15315.389, 0.0, 10.0, 9.981333 
6.25e+2, 1.6493228e+2, -1348685.6, -1371952.4, 0.0012418757, 0.00000004413685, 0.000047347316, -1348685.6, -25021.88, 0.0, 10.0, 9.969248 
6.25e+2, 1.7490156e+2, -1250727.5, -1274310.1, 0.00070482696, 0.000000044663494, -0.00007382631, -1250727.5, -24762.863, 0.0, 10.0, 9.968835 
6.25e+2, 1.8486421e+2, -1162646.6, -1195720.1, 0.0014838091, 0.000000044987306, 0.00006614927, -1162646.6, -34315.918, 0.0, 10.0, 9.956395 
6.25e+2, 1.9482064e+2, -1064496.9, -1097833.0, 0.0008043829, 0.00000004509886, -0.00005765181, -1064496.9, -33739.254, 0.0, 10.0, 9.956052 
6.25e+2, 2.0477042e+2, -976332.9, -1019435.0, 0.0010525328, 0.000000044820208, 0.000068082205, -976332.9, -43083.0, 0.0, 10.0, 9.943291 
6.25e+2, 2.1471375e+2, -878045.9, -921409.9, -0.000043674452, 0.000000044118977, -0.0001268248, -878045.9, -42240.582, 0.0, 10.0, 9.942949 
6.25e+2, 2.2465037e+2, -789759.75, -843144.9, 0.0012270974, 0.000000043525414, 0.000120881836, -789759.75, -51333.48, 0.0, 10.0, 9.929908 
6.25e+2, 2.3458035e+2, -691326.25, -744966.44, 0.001409473, 0.00000004305384, -0.00008881526, -691326.25, -50213.715, 0.0, 10.0, 9.929577 
6.25e+2, 2.4450338e+2, -603002.2, -667018.75, 0.0014080455, 0.000000043353367, 0.00007471186, -603002.2, -59135.31, 0.0, 10.0, 9.916136 
6.25e+2, 2.5441962e+2, -504249.53, -568343.3, -0.00008469472, 0.000000044573817, -0.000106734675, -504249.53, -57561.97, 0.0, 10.0, 9.916036 
6.25e+2, 2.643288e+2, -416014.13, -490987.88, 0.00055953703, 0.00000004468719, 0.00014059538, -416014.13, -66436.445, 0.0, 10.0, 9.901964 
6.25e+2, 2.742313e+2, -316728.9, -391374.78, 0.00038087636, 0.00000004338948, -0.0002034437, -316728.9, -64195.89, 0.0, 10.0, 9.902385 
6.25e+2, 2.841256e+2, -230255.64, -318081.25, 0.0010465478, 0.000000042508713, 0.00022904648, -230255.64, -74686.664, 0.0, 10.0, 9.885439 
6.25e+2, 2.940121e+2, -130549.5, -217765.0, 0.00044895333, 0.000000042205, -0.00025334075, -130549.5, -71868.1, 0.0, 10.0, 9.886217 
6.25e+2, 3.0392656e+2, -40805.484, -84750.16, 0.00073238544, 0.000000042890324, 0.00017313781, -40805.484, -40805.484, 0.0, 10.0, 9.942173 
6.25e+2, 3.138706e+2, -39727.477, -82511.21, 0.0003955459, 0.00000004503853, -0.000055144967, -39727.477, -39727.477, 0.0, 10.0, 9.943684 
6.35e+2, 1.2499334e+2, -1719946.1, -1724224.6, -0.000048261583, 0.000000048307328, 0.000017609203, -1719946.1, -4880.8506, 0.0, 10.0, 9.994327 
6.35e+2, 1.349876e+2, -1622565.6, -1627434.9, -0.00055055914, 0.000000048246473, -0.00006840161, -1622565.6, -5444.0654, 0.0, 10.0, 9.993545 
6.35e+2, 1.4497514e+2, -1534464.3, -1548146.3, 0.0009683646, 0.000000047509868, 0.00007093192, -1534464.3, -15220.574, 0.0, 10.0, 9.981865 
6.35e+2, 1.5495703e+2, -1436736.5, -1450821.9, 0.00016974186, 0.000000046084022, -0.00005697397, -1436736.5, -15315.392, 0.0, 10.0, 9.981333 
6.35e+2, 1.6493228e+2, -1348685.6, -1371952.4, 0.000628201, 0.000000045571614, 0.000047345744, -1348685.6, -25021.883, 0.0, 10.0, 9.969248 
6.35e+2, 1.7490156e+2, -1250727.5, -1274310.1, 0.000087394445, 0.00000004599188, -0.000073825635, -1250727.5, -24762.865, 0.0, 10.0, 9.968835 
6.35e+2, 1.8486421e+2, -1162646.6, -1195720.1, 0.00093546725, 0.00000004648894, 0.00006614986, -1162646.6, -34315.92, 0.0, 10.0, 9.956395 
6.35e+2, 1.9482064e+2, -1064496.9, -1097833.0, 0.0002568359, 0.000000047066347, -0.000057653728, -1064496.9, -33739.254, 0.0, 10.0, 9.956052 
6.35e+2, 2.0477042e+2, -976332.9, -1019435.0, 0.0013063297, 0.00000004636951, 0.00006808121, -976332.9, -43083.0, 0.0, 10.0, 9.943291 
6.35e+2, 2.1471375e+2, -878045.9, -921409.9, 0.00022667022, 0.000000044292616, -0.00012682115, -878045.9, -42240.586, 0.0, 10.0, 9.942949 
6.35e+2, 2.2465037e+2, -789759.75, -843144.9, 0.0007389823, 0.000000044066642, 0.00012088508, -789759.75, -51333.48, 0.0, 10.0, 9.929908 
6.35e+2, 2.3458035e+2, -691326.25, -744966.44, 0.00089654146, 0.000000045936222, -0.00008881814, -691326.25, -50213.715, 0.0, 10.0, 9.929577 
6.35e+2, 2.4450338e+2, -603002.2, -667018.8, 0.0011735387, 0.00000004637962, 0.00007470801, -603002.2, -59135.313, 0.0, 10.0, 9.916136 
6.35e+2, 2.5441962e+2, -504249.53, -568343.3, -0.00030582468, 0.000000045117265, -0.00010673331, -504249.53, -57561.973, 0.0, 10.0, 9.916036 
6.35e+2, 2.643288e+2, -416014.13, -490987.88, 0.00070609886, 0.00000004444176, 0.00014059868, -416014.13, -66436.445, 0.0, 10.0, 9.901964 
6.35e+2, 2.742313e+2, -316728.9, -391374.78, 0.0005520907, 0.00000004451707, -0.00020344266, -316728.9, -64195.89, 0.0, 10.0, 9.902385 
6.35e+2, 2.841256e+2, -230255.64, -318081.25, 0.0008725336, 0.00000004471741, 0.00022904547, -230255.64, -74686.664, 0.0, 10.0, 9.885439 
6.35e+2, 2.940121e+2, -130549.5, -217765.0, 0.00024383162, 0.00000004508528, -0.00025334346, -130549.5, -71868.1, 0.0, 10.0, 9.886217 
6.35e+2, 3.0392656e+2, -40805.484, -84750.16, 0.0003219349, 0.000000045186546, 0.0001731353, -40805.484, -40805.484, 0.0, 10.0, 9.942173 
6.35e+2, 3.138706e+2, -39727.477, -82511.21, -0.000039010614, 0.000000044890328, -0.000055144334, -39727.477, -39727.477, 0.0, 10.0, 9.943684 
6.45e+2, 1.2499334e+2, -1719946.1, -1724224.6, 0.001176188, 0.000000049996583, 0.000017608501, -1719946.1, -4880.839, 0.0, 10.0, 9.994327 
6.45e+2, 1.349876e+2, -1622565.6, -1627434.9, -0.00052627374, 0.00000004909407, -0.00006840068, -1622565.6, -5444.0522, 0.0, 10.0, 9.993545 
6.45e+2, 1.4497514e+2, -1534464.3, -1548146.3, 0.0008376828, 0.000000048474735, 0.00007093387, -1534464.3, -15220.561, 0.0, 10.0, 9.981865 
6.45e+2, 1.5495703e+2, -1436736.5, -1450821.9, 0.0007549986, 0.000000048130104, -0.000056974055, -1436736.5, -15315.382, 0.0, 10.0, 9.981333 
6.45e+2, 1.6493228e+2, -1348685.6, -1371952.4, 0.0013497978, 0.000000047897903, 0.00004734513, -1348685.6, -25021.875, 0.0, 10.0, 9.969248 
6.45e+2, 1.7490156e+2, -1250727.5, -1274310.1, 0.000491537, 0.00000004778051, -0.00007382524, -1250727.5, -24762.855, 0.0, 10.0, 9.968835 
6.45e+2, 1.8486421e+2, -1162646.6, -1195720.1, 0.0013394299, 0.000000047751318, 0.00006615049, -1162646.6, -34315.91, 0.0, 10.0, 9.956395 
6.45e+2, 1.9482064e+2, -1064496.9, -1097833.0, 0.00073762255, 0.000000047814396, -0.000057653695, -1064496.9, -33739.242, 0.0, 10.0, 9.956052 
6.45e+2, 2.0477042e+2, -976332.9, -1019435.0, 0.0020109292, 0.000000047237247, 0.00006808104, -976332.9, -43082.99, 0.0, 10.0, 9.943291 
6.45e+2, 2.1471375e+2, -878045.9, -921409.9, 0.0009914733, 0.000000045966676, -0.0001268211, -878045.9, -42240.574, 0.0, 10.0, 9.942949 
6.45e+2, 2.2465037e+2, -789759.75, -843144.9, 0.0010212745, 0.000000046129646, 0.0001208853, -789759.75, -51333.47, 0.0, 10.0, 9.929908 
6.45e+2, 2.3458035e+2, -691326.25, -744966.44, 0.00070886133, 0.000000047915503, -0.000088817804, -691326.25, -50213.703, 0.0, 10.0, 9.929577 
6.45e+2, 2.4450338e+2, -603002.2, -667018.8, 0.0014954738, 0.000000047944802, 0.0000747082, -603002.2, -59135.305, 0.0, 10.0, 9.916136 
6.45e+2, 2.5441962e+2, -504249.53, -568343.3, 0.0005727316, 0.000000045874224, -0.00010673358, -504249.53, -57561.96, 0.0, 10.0, 9.916036 
6.45e+2, 2.643288e+2, -416014.1, -490987.88, 0.0013345698, 0.000000045125486, 0.00014059845, -416014.1, -66436.43, 0.0, 10.0, 9.901964 
6.45e+2, 2.742313e+2, -316728.88, -391374.75, 0.0006274846, 0.000000046063864, -0.00020344222, -316728.88, -64195.88, 0.0, 10.0, 9.902385 
6.45e+2, 2.841256e+2, -230255.63, -318081.25, 0.00083104224, 0.000000046816098, 0.00022904585, -230255.63, -74686.66, 0.0, 10.0, 9.885439 
6.45e+2, 2.940121e+2, -130549.49, -217765.0, 0.0005578264, 0.000000047305708, -0.00025334416, -130549.49, -71868.09, 0.0, 10.0, 9.886217 
6.45e+2, 3.0392656e+2, -40805.477, -84750.16, 0.0007161956, 0.00000004697141, 0.00017313455, -40805.477, -40805.477, 0.0, 10.0, 9.942173 
6.45e+2, 3.138706e+2, -39727.46, -82511.21, -0.0005207369, 0.000000045416304, -0.000055143602, -39727.46, -39727.46, 0.0, 10.0, 9.943684 
6.55e+2, 1.2499334e+2, -1719946.1, -1724224.6, 0.00093170285, 0.000000051443056, 0.000017609571, -1719946.1, -4880.8433, 0.0, 10.0, 9.994327 
6.55e+2, 1.349876e+2, -1622565.6, -1627434.9, -0.0007708052, 0.000000049318537, -0.00006840118, -1622565.6, -5444.0566, 0.0, 10.0, 9.993545 
6.55e+2, 1.4497514e+2, -1534464.3, -1548146.3, 0.000067320936, 0.00000004910301, 0.000070933966, -1534464.3, -15220.562, 0.0, 10.0, 9.981865 
6.55e+2, 1.5495703e+2, -1436736.5, -1450821.9, -0.000016205018, 0.000000050797272, -0.000056973717, -1436736.5, -15315.382, 0.0, 10.0, 9.981333 
6.55e+2, 1.6493228e+2, -1348685.6, -1371952.4, 0.0011462963, 0.000000051115713, 0.00004734548, -1348685.6, -25021.877, 0.0, 10.0, 9.969248 
6.55e+2, 1.7490156e+2, -1250727.5, -1274310.1, 0.0002910241, 0.00000005002939, -0.000073825126, -1250727.5, -24762.857, 0.0, 10.0, 9.968835 
6.55e+2, 1.8486421e+2, -1162646.6, -1195720.1, 0.0013169367, 0.000000048774453, 0.00006615114, -1162646.6, -34315.91, 0.0, 10.0, 9.956395 
6.55e+2, 1.9482064e+2, -1064496.9, -1097833.0, 0.0007171846, 0.000000047343008, -0.00005765172, -1064496.9, -33739.242, 0.0, 10.0, 9.956052 
6.55e+2, 2.0477042e+2, -976332.9, -1019435.0, 0.0014995986, 0.000000047423416, 0.00006808169, -976332.9, -43082.992, 0.0, 10.0, 9.943291 
6.55e+2, 2.1471375e+2, -878045.9, -921409.9, 0.0004700002, 0.00000004914115, -0.00012682466, -878045.9, -42240.58, 0.0, 10.0, 9.942949 
6.55e+2, 2.2465037e+2, -789759.75, -843144.9, 0.00065966905, 0.00000004971443, 0.00012088248, -789759.75, -51333.47, 0.0, 10.0, 9.929908 
6.55e+2, 2.3458035e+2, -691326.25, -744966.44, 0.0003524802, 0.00000004899168, -0.00008881425, -691326.25, -50213.707, 0.0, 10.0, 9.929577 
6.55e+2, 2.4450338e+2, -603002.2, -667018.8, 0.0018965745, 0.000000048048925, 0.00007471242, -603002.2, -59135.305, 0.0, 10.0, 9.916136 
6.55e+2, 2.5441962e+2, -504249.53, -568343.3, 0.0010102344, 0.000000046844686, -0.0001067355, -504249.53, -57561.96, 0.0, 10.0, 9.916036 
6.55e+2, 2.643288e+2, -416014.1, -490987.88, 0.0007694883, 0.00000004673837, 0.00014059468, -416014.1, -66436.43, 0.0, 10.0, 9.901964 
6.55e+2, 2.742313e+2, -316728.88, -391374.78, -0.0000048177167, 0.000000048029865, -0.00020344238, -316728.88, -64195.883, 0.0, 10.0, 9.902385 
6.55e+2, 2.841256e+2, -230255.63, -318081.25, 0.0006300636, 0.000000048804782, 0.00022904761, -230255.63, -74686.66, 0.0, 10.0, 9.885439 
6.55e+2, 2.940121e+2, -130549.49, -217765.0, 0.0003957119, 0.00000004886629, -0.00025334282, -130549.49, -71868.09, 0.0, 10.0, 9.886217 
6.55e+2, 3.0392656e+2, -40805.477, -84750.164, 0.0012399339, 0.000000048244914, 0.00017313556, -40805.477, -40805.477, 0.0, 10.0, 9.942173 
6.55e+2, 3.138706e+2, -39727.465, -82511.21, 0.000083520434, 0.000000046616456, -0.000055142773, -39727.465, -39727.465, 0.0, 10.0, 9.943684 
6.65e+2, 1.2499334e+2, -1719946.1, -1724224.6, 0.00073104625, 0.00000005274346, 0.000017611539, -1719946.1, -4880.8306, 0.0, 10.0, 9.994327 
6.65e+2, 1.349876e+2, -1622565.6, -1627434.9, 0.0007487444, 0.00000005098815, -0.00006840269, -1622565.6, -5444.0454, 0.0, 10.0, 9.993545 
6.65e+2, 1.4497514e+2, -1534464.3, -1548146.3, 0.0015836986, 0.000000050898983, 0.000070932874, -1534464.3, -15220.55, 0.0, 10.0, 9.981865 
6.65e+2, 1.5495703e+2, -1436736.5, -1450821.9, 0.00030439714, 0.000000052474203, -0.000056973127, -1436736.5, -15315.37, 0.0, 10.0, 9.981333 
6.65e+2, 1.6493228e+2, -1348685.6, -1371952.4, 0.0014097417, 0.00000005267845, 0.000047346486, -1348685.6, -25021.865, 0.0, 10.0, 9.969248 
6.65e+2, 1.7490156e+2, -1250727.5, -1274310.1, 0.0006259655, 0.00000005148287, -0.00007382498, -1250727.5, -24762.846, 0.0, 10.0, 9.968835 
6.65e+2, 1.8486421e+2, -1162646.6, -1195720.1, 0.0016211388, 0.00000005018924, 0.00006615133, -1162646.6, -34315.9, 0.0, 10.0, 9.956395 
6.65e+2, 1.9482064e+2, -1064496.9, -1097833.0, 0.0007446524, 0.000000048792927, -0.000057650497, -1064496.9, -33739.23, 0.0, 10.0, 9.956052 
6.65e+2, 2.0477042e+2, -976332.9, -1019435.0, 0.0014582982, 0.00000004913094, 0.00006808239, -976332.9, -43082.98, 0.0, 10.0, 9.943291 
6.65e+2, 2.1471375e+2, -878045.9, -921409.9, 0.0015596758, 0.00000005134722, -0.00012682615, -878045.9, -42240.566, 0.0, 10.0, 9.942949 
6.65e+2, 2.2465037e+2, -789759.75, -843144.9, 0.0021614681, 0.000000051590856, 0.00012088113, -789759.75, -51333.46, 0.0, 10.0, 9.929908 
6.65e+2, 2.3458035e+2, -691326.25, -744966.44, 0.0001362988, 0.000000049600914, -0.000088812834, -691326.25, -50213.69, 0.0, 10.0, 9.929577 
6.65e+2, 2.4450338e+2, -603002.2, -667018.8, 0.0011203137, 0.00000004862021, 0.00007471437, -603002.2, -59135.29, 0.0, 10.0, 9.916136 
6.65e+2, 2.5441962e+2, -504249.5, -568343.3, 0.0013786642, 0.000000048847294, -0.00010673569, -504249.5, -57561.953, 0.0, 10.0, 9.916036 
6.65e+2, 2.643288e+2, -416014.1, -490987.88, 0.0014763824, 0.00000004923086, 0.00014059355, -416014.1, -66436.42, 0.0, 10.0, 9.901964 
6.65e+2, 2.742313e+2, -316728.88, -391374.78, 0.0004443955, 0.00000004981069, -0.00020344288, -316728.88, -64195.87, 0.0, 10.0, 9.902385 
6.65e+2, 2.841256e+2, -230255.61, -318081.25, 0.00081906945, 0.000000049993993, 0.00022904779, -230255.61, -74686.64, 0.0, 10.0, 9.885439 
6.65e+2, 2.940121e+2, -130549.48, -217765.0, -0.000338185, 0.000000049633776, -0.00025334198, -130549.48, -71868.086, 0.0, 10.0, 9.886217 
6.65e+2, 3.0392656e+2, -40805.465, -84750.16, 0.00037225528, 0.000000049275894, 0.00017313643, -40805.465, -40805.465, 0.0, 10.0, 9.942173 
6.65e+2, 3.138706e+2, -39727.457, -82511.21, 0.000053564174, 0.000000048926708, -0.000055142835, -39727.457, -39727.457, 0.0, 10.0, 9.943684 
6.75e+2, 1.2499334e+2, -1719946.1, -1724224.6, 0.00014851475, 0.000000053897782, 0.000017614402, -1719946.1, -4880.831, 0.0, 10.0, 9.994327 
6.75e+2, 1.349876e+2, -1622565.6, -1627434.9, 0.00016608846, 0.000000054102898, -0.0000684052, -1622565.6, -5444.046, 0.0, 10.0, 9.993545 
6.75e+2, 1.4497514e+2, -1534464.3, -1548146.3, 0.0009736082, 0.000000053862653, 0.0000709306, -1534464.3, -15220.554, 0.0, 10.0, 9.981865 
6.75e+2, 1.5495703e+2, -1436736.5, -1450821.9, -0.0003057476, 0.0000000531609, -0.000056972294, -1436736.5, -15315.374, 0.0, 10.0, 9.981333 
6.75e+2, 1.6493228e+2, -1348685.6, -1371952.4, 0.0012555466, 0.000000052586117, 0.000047348156, -1348685.6, -25021.867, 0.0, 10.0, 9.969248 
6.75e+2, 1.7490156e+2, -1250727.5, -1274310.1, 0.0004741697, 0.000000052140955, -0.00007382481, -1250727.5, -24762.848, 0.0, 10.0, 9.968835 
6.75e+2, 1.8486421e+2, -1162646.6, -1195720.1, 0.0014280034, 0.000000051995677, 0.000066151086, -1162646.6, -34315.902, 0.0, 10.0, 9.956395 
6.75e+2, 1.9482064e+2, -1064496.9, -1097833.0, 0.0005510318, 0.00000005216415, -0.00005765003, -1064496.9, -33739.234, 0.0, 10.0, 9.956052 
6.75e+2, 2.0477042e+2, -976332.9, -1019435.0, 0.0008115677, 0.00000005235981, 0.00006808314, -976332.9, -43082.98, 0.0, 10.0, 9.943291 
6.75e+2, 2.1471375e+2, -878045.9, -921409.9, 0.00090357853, 0.00000005258489, -0.00012682557, -878045.9, -42240.566, 0.0, 10.0, 9.942949 
6.75e+2, 2.2465037e+2, -789759.75, -843144.9, 0.0025767803, 0.000000051758924, 0.00012088124, -789759.75, -51333.465, 0.0, 10.0, 9.929908 
6.75e+2, 2.3458035e+2, -691326.25, -744966.44, 0.00058666145, 0.000000049743207, -0.00008881354, -691326.25, -50213.695, 0.0, 10.0, 9.929577 
6.75e+2, 2.4450338e+2, -603002.2, -667018.8, 0.00054416433, 0.00000004965866, 0.000074714066, -603002.2, -59135.29, 0.0, 10.0, 9.916136 
6.75e+2, 2.5441962e+2, -504249.5, -568343.3, 0.00075318135, 0.000000051882047, -0.00010673417, -504249.5, -57561.953, 0.0, 10.0, 9.916036 
6.75e+2, 2.643288e+2, -416014.1, -490987.88, 0.0014462849, 0.00000005260295, 0.00014059508, -416014.1, -66436.42, 0.0, 10.0, 9.901964 
6.75e+2, 2.742313e+2, -316728.88, -391374.78, 0.00045421475, 0.000000051406335, -0.00020344369, -316728.88, -64195.875, 0.0, 10.0, 9.902385 
6.75e+2, 2.841256e+2, -230255.61, -318081.25, 0.000958631, 0.00000005038374, 0.00022904635, -230255.61, -74686.65, 0.0, 10.0, 9.885439 
6.75e+2, 2.940121e+2, -130549.48, -217765.0, -0.00018693015, 0.000000049608165, -0.00025334166, -130549.48, -71868.086, 0.0, 10.0, 9.886217 
6.75e+2, 3.0392656e+2, -40805.465, -84750.16, 0.000011381749, 0.00000005006435, 0.00017313716, -40805.465, -40805.465, 0.0, 10.0, 9.942173 
6.75e+2, 3.138706e+2, -39727.457, -82511.21, -0.00036742832, 0.00000005234705, -0.000055143784, -39727.457, -39727.457, 0.0, 10.0, 9.943684 
6.85e+2, 1.2499334e+2, -1719946.1, -1724224.6, 0.0010962548, 0.0000000556974, 0.00001761444, -1719946.1, -4880.8193, 0.0, 10.0, 9.994327 
6.85e+2, 1.349876e+2, -1622565.6, -1627434.9, 0.0003292878, 0.00000005650334, -0.000068405185, -1622565.6, -5444.0347, 0.0, 10.0, 9.993545 
6.85e+2, 1.4497514e+2, -1534464.3, -1548146.3, 0.0013374068, 0.000000055996363, 0.00007093164, -1534464.3, -15220.543, 0.0, 10.0, 9.981865 
6.85e+2, 1.5495703e+2, -1436736.5, -1450821.9, 0.0003777076, 0.000000054153592, -0.000056972058, -1436736.5, -15315.359, 0.0, 10.0, 9.981333 
6.85e+2, 1.6493228e+2, -1348685.5, -1371952.4, 0.0019097383, 0.00000005327776, 0.00004734816, -1348685.5, -25021.852, 0.0, 10.0, 9.969248 
6.85e+2, 1.7490156e+2, -1250727.5, -1274310.1, 0.0010992592, 0.000000053389186, -0.00007382444, -1250727.5, -24762.834, 0.0, 10.0, 9.968835 
6.85e+2, 1.8486421e+2, -1162646.6, -1195720.1, 0.00201492, 0.00000005396898, 0.00006615118, -1162646.6, -34315.89, 0.0, 10.0, 9.956395 
6.85e+2, 1.9482064e+2, -1064496.9, -1097833.0, 0.0013615573, 0.000000055038853, -0.00005765087, -1064496.9, -33739.227, 0.0, 10.0, 9.956052 
6.85e+2, 2.0477042e+2, -976332.9, -1019435.0, 0.001557551, 0.00000005479352, 0.0000680829, -976332.9, -43082.97, 0.0, 10.0, 9.943291 
6.85e+2, 2.1471375e+2, -878045.8, -921409.9, 0.00013468509, 0.00000005312377, -0.00012682356, -878045.8, -42240.55, 0.0, 10.0, 9.942949 
6.85e+2, 2.2465037e+2, -789759.75, -843144.9, 0.0018251641, 0.00000005203275, 0.000120883014, -789759.75, -51333.45, 0.0, 10.0, 9.929908 
6.85e+2, 2.3458035e+2, -691326.25, -744966.44, 0.0019360785, 0.000000051597283, -0.00008881483, -691326.25, -50213.684, 0.0, 10.0, 9.929577 
6.85e+2, 2.4450338e+2, -603002.2, -667018.75, 0.0019246694, 0.00000005217539, 0.00007471221, -603002.2, -59135.28, 0.0, 10.0, 9.916136 
6.85e+2, 2.5441962e+2, -504249.5, -568343.3, 0.00040099252, 0.000000053963475, -0.00010673359, -504249.5, -57561.94, 0.0, 10.0, 9.916036 
6.85e+2, 2.643288e+2, -416014.1, -490987.88, 0.0010117064, 0.0000000542599, 0.0001405965, -416014.1, -66436.414, 0.0, 10.0, 9.901964 
6.85e+2, 2.742313e+2, -316728.88, -391374.75, 0.00063276285, 0.00000005265517, -0.00020344344, -316728.88, -64195.86, 0.0, 10.0, 9.902385 
6.85e+2, 2.841256e+2, -230255.61, -318081.25, 0.0015152888, 0.000000051567607, 0.00022904591, -230255.61, -74686.63, 0.0, 10.0, 9.885439 
6.85e+2, 2.940121e+2, -130549.47, -217765.0, 0.00091356004, 0.00000005119654, -0.0002533421, -130549.47, -71868.07, 0.0, 10.0, 9.886217 
6.85e+2, 3.0392656e+2, -40805.453, -84750.16, 0.00091143575, 0.000000051842495, 0.00017313674, -40805.453, -40805.453, 0.0, 10.0, 9.942173 
6.85e+2, 3.138706e+2, -39727.445, -82511.21, -0.0000736588, 0.00000005399172, -0.0000551441, -39727.445, -39727.445, 0.0, 10.0, 9.943684 
6.95e+2, 1.2499334e+2, -1719946.1, -1724224.6, 0.0004056739, 0.000000058142305, 0.000017611654, -1719946.1, -4880.822, 0.0, 10.0, 9.994327 
6.95e+2, 1.349876e+2, -1622565.6, -1627434.9, -0.00036140752, 0.00000005818947, -0.00006840263, -1622565.6, -5444.037, 0.0, 10.0, 9.993545 
6.95e+2, 1.4497514e+2, -1534464.3, -1548146.3, 0.0015426271, 0.000000057300113, 0.000070936, -1534464.3, -15220.545, 0.0, 10.0, 9.981865 
6.95e+2, 1.5495703e+2, -1436736.5, -1450821.9, 0.000584337, 0.00000005545229, -0.00005697242, -1436736.5, -15315.362, 0.0, 10.0, 9.981333 
6.95e+2, 1.6493228e+2, -1348685.5, -1371952.4, 0.0013025282, 0.000000054753375, 0.000047346504, -1348685.5, -25021.854, 0.0, 10.0, 9.969248 
6.95e+2, 1.7490156e+2, -1250727.5, -1274310.1, 0.00048774356, 0.00000005522756, -0.00007382388, -1250727.5, -24762.836, 0.0, 10.0, 9.968835 
6.95e+2, 1.8486421e+2, -1162646.6, -1195720.1, 0.0011723281, 0.000000056109144, 0.000066151624, -1162646.6, -34315.89, 0.0, 10.0, 9.956395 
6.95e+2, 1.9482064e+2, -1064496.9, -1097833.0, 0.00051628094, 0.00000005741704, -0.000057653007, -1064496.9, -33739.227, 0.0, 10.0, 9.956052 
6.95e+2, 2.0477042e+2, -976332.9, -1019435.0, 0.0022600542, 0.000000056432075, 0.000068081674, -976332.9, -43082.973, 0.0, 10.0, 9.943291 
6.95e+2, 2.1471375e+2, -878045.8, -921409.9, 0.0008691528, 0.000000052963856, -0.0001268201, -878045.8, -42240.555, 0.0, 10.0, 9.942949 
6.95e+2, 2.2465037e+2, -789759.75, -843144.9, 0.0011765129, 0.000000052412332, 0.000120886456, -789759.75, -51333.45, 0.0, 10.0, 9.929908 
6.95e+2, 2.3458035e+2, -691326.25, -744966.44, 0.0012421742, 0.000000055163138, -0.000088816705, -691326.25, -50213.684, 0.0, 10.0, 9.929577 
6.95e+2, 2.4450338e+2, -603002.2, -667018.8, 0.0015748059, 0.000000056170403, 0.00007470882, -603002.2, -59135.285, 0.0, 10.0, 9.916136 
6.95e+2, 2.5441962e+2, -504249.5, -568343.3, 0.000067659275, 0.000000055091586, -0.000106733954, -504249.5, -57561.945, 0.0, 10.0, 9.916036 
6.95e+2, 2.643288e+2, -416014.1, -490987.88, 0.001347206, 0.000000054201717, 0.00014059784, -416014.1, -66436.414, 0.0, 10.0, 9.901964 
6.95e+2, 2.742313e+2, -316728.88, -391374.78, 0.0010131068, 0.000000053557194, -0.00020344212, -316728.88, -64195.863, 0.0, 10.0, 9.902385 
6.95e+2, 2.841256e+2, -230255.61, -318081.25, 0.0013813915, 0.00000005354559, 0.00022904645, -230255.61, -74686.63, 0.0, 10.0, 9.885439 
6.95e+2, 2.940121e+2, -130549.47, -217765.0, 0.00073332904, 0.000000054398903, -0.00025334334, -130549.47, -71868.08, 0.0, 10.0, 9.886217 
6.95e+2, 3.0392656e+2, -40805.457, -84750.164, 0.00066458626, 0.000000054610332, 0.00017313518, -40805.457, -40805.457, 0.0, 10.0, 9.942173 
6.95e+2, 3.138706e+2, -39727.445, -82511.21, -0.0003283261, 0.00000005386071, -0.000055143773, -39727.445, -39727.445, 0.0, 10.0, 9.943684 
7.05e+2, 1.2499334e+2, -1719946.0, -1724224.6, 0.0009880322, 0.000000060395536, 0.000017611625, -1719946.0, -4880.8086, 0.0, 10.0, 9.994327 
7.05e+2, 1.349876e+2, -1622565.6, -1627434.9, -0.0007639655, 0.000000059157465, -0.00006840157, -1622565.6, -5444.0215, 0.0, 10.0, 9.993545 
7.05e+2, 1.4497514e+2, -1534464.1, -1548146.3, 0.0010994546, 0.000000058241696, 0.00007093825, -1534464.1, -15220.529, 0.0, 10.0, 9.981865 
7.05e+2, 1.5495703e+2, -1436736.5, -1450821.9, 0.0008161137, 0.000000057632704, -0.00005697202, -1436736.5, -15315.351, 0.0, 10.0, 9.981333 
7.05e+2, 1.6493228e+2, -1348685.5, -1371952.4, 0.0017070256, 0.000000057478825, 0.000047346144, -1348685.5, -25021.844, 0.0, 10.0, 9.969248 
7.05e+2, 1.7490156e+2, -1250727.5, -1274310.1, 0.0009894368, 0.00000005778968, -0.00007382389, -1250727.5, -24762.826, 0.0, 10.0, 9.968835 
7.05e+2, 1.8486421e+2, -1162646.5, -1195720.1, 0.0018261969, 0.000000057902263, 0.00006615182, -1162646.5, -34315.88, 0.0, 10.0, 9.956395 
7.05e+2, 1.9482064e+2, -1064496.9, -1097833.0, 0.0008949806, 0.000000057807352, -0.000057652753, -1064496.9, -33739.21, 0.0, 10.0, 9.956052 
7.05e+2, 2.0477042e+2, -976332.9, -1019435.0, 0.002870703, 0.000000056913745, 0.00006808191, -976332.9, -43082.957, 0.0, 10.0, 9.943291 
7.05e+2, 2.1471375e+2, -878045.8, -921409.9, 0.0017381479, 0.000000055155105, -0.00012681997, -878045.8, -42240.543, 0.0, 10.0, 9.942949 
7.05e+2, 2.2465037e+2, -789759.7, -843144.9, 0.0015046386, 0.00000005532932, 0.00012088655, -789759.7, -51333.438, 0.0, 10.0, 9.929908 
7.05e+2, 2.3458035e+2, -691326.2, -744966.44, 0.0011255378, 0.00000005769166, -0.00008881657, -691326.2, -50213.67, 0.0, 10.0, 9.929577 
7.05e+2, 2.4450338e+2, -603002.1, -667018.8, 0.0020921081, 0.00000005799902, 0.0000747088, -603002.1, -59135.273, 0.0, 10.0, 9.916136 
7.05e+2, 2.5441962e+2, -504249.5, -568343.3, 0.0011778118, 0.00000005584946, -0.00010673436, -504249.5, -57561.93, 0.0, 10.0, 9.916036 
7.05e+2, 2.643288e+2, -416014.06, -490987.88, 0.0021329138, 0.000000054835507, 0.00014059752, -416014.06, -66436.4, 0.0, 10.0, 9.901964 
7.05e+2, 2.742313e+2, -316728.84, -391374.75, 0.0008558536, 0.00000005527249, -0.00020344174, -316728.84, -64195.848, 0.0, 10.0, 9.902385 
7.05e+2, 2.841256e+2, -230255.6, -318081.25, 0.00068969966, 0.00000005591366, 0.0002290471, -230255.6, -74686.625, 0.0, 10.0, 9.885439 
7.05e+2, 2.940121e+2, -130549.45, -217765.0, 0.00014919697, 0.00000005682745, -0.00025334305, -130549.45, -71868.06, 0.0, 10.0, 9.886217 
7.05e+2, 3.0392656e+2, -40805.445, -84750.16, 0.00053421967, 0.000000056674605, 0.00017313514, -40805.445, -40805.445, 0.0, 10.0, 9.942173 
7.05e+2, 3.138706e+2, -39727.43, -82511.21, -0.00018449448, 0.00000005493558, -0.000055144155, -39727.43, -39727.43, 0.0, 10.0, 9.943684 
7.15e+2, 1.2499334e+2, -1719946.1, -1724224.6, 0.00087092095, 0.0000000624571, 0.000017614355, -1719946.1, -4880.8135, 0.0, 10.0, 9.994327 
7.15e+2, 1.349876e+2, -1622565.6, -1627434.9, -0.00088107766, 0.00000005940733, -0.000068402, -1622565.6, -5444.026, 0.0, 10.0, 9.993545 
7.15e+2, 1.4497514e+2, -1534464.3, -1548146.3, 0.00032294504, 0.000000058821108, 0.000070938375, -1534464.3, -15220.53, 0.0, 10.0, 9.981865 
7.15e+2, 1.5495703e+2, -1436736.5, -1450821.9, 0.000038546048, 0.00000006069484, -0.00005697086, -1436736.5, -15315.352, 0.0, 10.0, 9.981333 
7.15e+2, 1.6493228e+2, -1348685.5, -1371952.4, 0.0013055251, 0.00000006145411, 0.000047347083, -1348685.5, -25021.846, 0.0, 10.0, 9.969248 
7.15e+2, 1.7490156e+2, -1250727.5, -1274310.1, 0.00058990903, 0.00000006107554, -0.00007382447, -1250727.5, -24762.828, 0.0, 10.0, 9.968835 
7.15e+2, 1.8486421e+2, -1162646.5, -1195720.1, 0.002127928, 0.00000005934833, 0.00006615178, -1162646.5, -34315.88, 0.0, 10.0, 9.956395 
7.15e+2, 1.9482064e+2, -1064496.9, -1097833.0, 0.001204823, 0.0000000562098, -0.0000576501, -1064496.9, -33739.21, 0.0, 10.0, 9.956052 
7.15e+2, 2.0477042e+2, -976332.9, -1019435.0, 0.002140159, 0.00000005623853, 0.00006808361, -976332.9, -43082.96, 0.0, 10.0, 9.943291 
7.15e+2, 2.1471375e+2, -878045.8, -921409.9, 0.0009861109, 0.00000005969751, -0.00012682317, -878045.8, -42240.547, 0.0, 10.0, 9.942949 
7.15e+2, 2.2465037e+2, -789759.7, -843144.9, 0.00118248, 0.00000006078372, 0.00012088329, -789759.7, -51333.44, 0.0, 10.0, 9.929908 
7.15e+2, 2.3458035e+2, -691326.2, -744966.44, 0.0008174354, 0.000000059182852, -0.00008881442, -691326.2, -50213.676, 0.0, 10.0, 9.929577 
7.15e+2, 2.4450338e+2, -603002.2, -667018.8, 0.0026610685, 0.000000057661246, 0.00007471216, -603002.2, -59135.273, 0.0, 10.0, 9.916136 
7.15e+2, 2.5441962e+2, -504249.5, -568343.3, 0.0017889213, 0.000000056237088, -0.00010673481, -504249.5, -57561.93, 0.0, 10.0, 9.916036 
7.15e+2, 2.643288e+2, -416014.06, -490987.88, 0.0016026554, 0.00000005616127, 0.00014059556, -416014.06, -66436.4, 0.0, 10.0, 9.901964 
7.15e+2, 2.742313e+2, -316728.84, -391374.78, 0.00024907186, 0.00000005780106, -0.00020344228, -316728.84, -64195.85, 0.0, 10.0, 9.902385 
7.15e+2, 2.841256e+2, -230255.6, -318081.25, 0.0005128126, 0.000000058671812, 0.00022904784, -230255.6, -74686.625, 0.0, 10.0, 9.885439 
7.15e+2, 2.940121e+2, -130549.46, -217765.0, 0.0000110480605, 0.000000058482183, -0.00025334122, -130549.46, -71868.06, 0.0, 10.0, 9.886217 
7.15e+2, 3.0392656e+2, -40805.445, -84750.164, 0.0010309858, 0.000000058035315, 0.0001731366, -40805.445, -40805.445, 0.0, 10.0, 9.942173 
7.15e+2, 3.138706e+2, -39727.434, -82511.21, 0.00038681543, 0.000000057216326, -0.00005514524, -39727.434, -39727.434, 0.0, 10.0, 9.943684 
7.25e+2, 1.2499334e+2, -1719946.0, -1724224.6, 0.0008638028, 0.00000006387745, 0.000017616212, -1719946.0, -4880.798, 0.0, 10.0, 9.994327 
7.25e+2, 1.349876e+2, -1622565.6, -1627434.9, 0.0008041192, 0.000000061317024, -0.00006840337, -1622565.6, -5444.012, 0.0, 10.0, 9.993545 
7.25e+2, 1.4497514e+2, -1534464.1, -1548146.3, 0.0019018324, 0.00000006105128, 0.000070937574, -1534464.1, -15220.518, 0.0, 10.0, 9.981865 
7.25e+2, 1.5495703e+2, -1436736.5, -1450821.9, 0.0005987016, 0.00000006307406, -0.000056970617, -1436736.5, -15315.338, 0.0, 10.0, 9.981333 
7.25e+2, 1.6493228e+2, -1348685.5, -1371952.4, 0.0017863594, 0.000000063588104, 0.000047347723, -1348685.5, -25021.832, 0.0, 10.0, 9.969248 
7.25e+2, 1.7490156e+2, -1250727.5, -1274310.1, 0.0007935176, 0.000000062561696, -0.00007382409, -1250727.5, -24762.813, 0.0, 10.0, 9.968835 
7.25e+2, 1.8486421e+2, -1162646.5, -1195720.1, 0.0023841523, 0.00000006069897, 0.00006615241, -1162646.5, -34315.863, 0.0, 10.0, 9.956395 
7.25e+2, 1.9482064e+2, -1064496.8, -1097833.0, 0.0012291198, 0.000000057960996, -0.000057648685, -1064496.8, -33739.2, 0.0, 10.0, 9.956052 
7.25e+2, 2.0477042e+2, -976332.8, -1019435.0, 0.0017670689, 0.00000005840129, 0.00006808431, -976332.8, -43082.945, 0.0, 10.0, 9.943291 
7.25e+2, 2.1471375e+2, -878045.8, -921409.9, 0.0018913265, 0.00000006228374, -0.00012682482, -878045.8, -42240.535, 0.0, 10.0, 9.942949 
7.25e+2, 2.2465037e+2, -789759.7, -843144.9, 0.002854605, 0.000000062981464, 0.00012088172, -789759.7, -51333.426, 0.0, 10.0, 9.929908 
7.25e+2, 2.3458035e+2, -691326.2, -744966.44, 0.00072342425, 0.00000006007305, -0.0000888132, -691326.2, -50213.656, 0.0, 10.0, 9.929577 
7.25e+2, 2.4450338e+2, -603002.1, -667018.75, 0.001706841, 0.000000058455548, 0.00007471428, -603002.1, -59135.258, 0.0, 10.0, 9.916136 
7.25e+2, 2.5441962e+2, -504249.47, -568343.3, 0.0012776575, 0.000000058383712, -0.00010673407, -504249.47, -57561.918, 0.0, 10.0, 9.916036 
7.25e+2, 2.643288e+2, -416014.06, -490987.88, 0.0014202514, 0.00000005884195, 0.00014059528, -416014.06, -66436.39, 0.0, 10.0, 9.901964 
7.25e+2, 2.742313e+2, -316728.84, -391374.75, 0.0010164091, 0.000000059971065, -0.00020344312, -316728.84, -64195.84, 0.0, 10.0, 9.902385 
7.25e+2, 2.841256e+2, -230255.58, -318081.25, 0.0017640227, 0.00000006032912, 0.000229047, -230255.58, -74686.61, 0.0, 10.0, 9.885439 
7.25e+2, 2.940121e+2, -130549.445, -217765.0, 0.00035648205, 0.00000005962889, -0.00025334134, -130549.445, -71868.05, 0.0, 10.0, 9.886217 
7.25e+2, 3.0392656e+2, -40805.43, -84750.16, 0.00086047826, 0.000000059375562, 0.00017313693, -40805.43, -40805.43, 0.0, 10.0, 9.942173 
7.25e+2, 3.138706e+2, -39727.42, -82511.21, 0.00021741279, 0.00000005979554, -0.000055144952, -39727.42, -39727.42, 0.0, 10.0, 9.943684 
7.35e+2, 1.2499334e+2, -1719946.0, -1724224.6, 0.0003425958, 0.0000000646566, 0.0000176172, -1719946.0, -4880.7983, 0.0, 10.0, 9.994327 
7.35e+2, 1.349876e+2, -1622565.6, -1627434.9, 0.00028280274, 0.000000064886535, -0.00006840571, -1622565.6, -5444.013, 0.0, 10.0, 9.993545 
7.35e+2, 1.4497514e+2, -1534464.1, -1548146.3, 0.0011313909, 0.000000064932216, 0.000070935836, -1534464.1, -15220.5205, 0.0, 10.0, 9.981865 
7.35e+2, 1.5495703e+2, -1436736.5, -1450821.9, -0.00017215167, 0.00000006477038, -0.000056971297, -1436736.5, -15315.342, 0.0, 10.0, 9.981333 
7.35e+2, 1.6493228e+2, -1348685.5, -1371952.4, 0.0017829787, 0.000000063880826, 0.00004734807, -1348685.5, -25021.836, 0.0, 10.0, 9.969248 
7.35e+2, 1.7490156e+2, -1250727.5, -1274310.1, 0.00079417543, 0.00000006224816, -0.00007382275, -1250727.5, -24762.814, 0.0, 10.0, 9.968835 
7.35e+2, 1.8486421e+2, -1162646.5, -1195720.1, 0.0023042636, 0.000000061954175, 0.00006615371, -1162646.5, -34315.867, 0.0, 10.0, 9.956395 
7.35e+2, 1.9482064e+2, -1064496.8, -1097833.0, 0.0011482905, 0.00000006306094, -0.000057648504, -1064496.8, -33739.203, 0.0, 10.0, 9.956052 
7.35e+2, 2.0477042e+2, -976332.8, -1019435.0, 0.0009328225, 0.000000063402034, 0.00006808401, -976332.8, -43082.945, 0.0, 10.0, 9.943291 
7.35e+2, 2.1471375e+2, -878045.8, -921409.9, 0.0010415066, 0.00000006291379, -0.0001268249, -878045.8, -42240.535, 0.0, 10.0, 9.942949 
7.35e+2, 2.2465037e+2, -789759.7, -843144.9, 0.00340373, 0.000000061922556, 0.00012088183, -789759.7, -51333.43, 0.0, 10.0, 9.929908 
7.35e+2, 2.3458035e+2, -691326.2, -744966.44, 0.0013183159, 0.00000006036227, -0.0000888129, -691326.2, -50213.664, 0.0, 10.0, 9.929577 
7.35e+2, 2.4450338e+2, -603002.1, -667018.8, 0.0012603642, 0.000000060381915, 0.00007471516, -603002.1, -59135.258, 0.0, 10.0, 9.916136 
7.35e+2, 2.5441962e+2, -504249.47, -568343.3, 0.0007811343, 0.000000062289324, -0.00010673213, -504249.47, -57561.918, 0.0, 10.0, 9.916036 
7.35e+2, 2.643288e+2, -416014.06, -490987.88, 0.0013650012, 0.00000006287755, 0.00014059669, -416014.06, -66436.39, 0.0, 10.0, 9.901964 
7.35e+2, 2.742313e+2, -316728.84, -391374.78, 0.0009907441, 0.000000061782515, -0.00020344423, -316728.84, -64195.84, 0.0, 10.0, 9.902385 
7.35e+2, 2.841256e+2, -230255.58, -318081.25, 0.001927562, 0.0000000608856, 0.00022904456, -230255.58, -74686.61, 0.0, 10.0, 9.885439 
7.35e+2, 2.940121e+2, -130549.445, -217765.0, 0.0005370764, 0.000000060267574, -0.0002533434, -130549.445, -71868.055, 0.0, 10.0, 9.886217 
7.35e+2, 3.0392656e+2, -40805.434, -84750.16, 0.0004964327, 0.00000006069534, 0.00017313607, -40805.434, -40805.434, 0.0, 10.0, 9.942173 
7.35e+2, 3.138706e+2, -39727.42, -82511.21, -0.000210564, 0.00000006267322, -0.000055143286, -39727.42, -39727.42, 0.0, 10.0, 9.943684 
7.45e+2, 1.2499334e+2, -1719946.0, -1724224.6, 0.0020440093, 0.00000006631136, 0.000017616792, -1719946.0, -4880.783, 0.0, 10.0, 9.994327 
7.45e+2, 1.349876e+2, -1622565.5, -1627434.9, 0.00073595135, 0.000000067857854, -0.000068406094, -1622565.5, -5444.0005, 0.0, 10.0, 9.993545 
7.45e+2, 1.4497514e+2, -1534464.1, -1548146.3, 0.0017388338, 0.00000006777669, 0.00007093683, -1534464.1, -15220.509, 0.0, 10.0, 9.981865 
7.45e+2, 1.5495703e+2, -1436736.5, -1450821.9, 0.00073326845, 0.00000006603392, -0.0000569712, -1436736.5, -15315.324, 0.0, 10.0, 9.981333 
7.45e+2, 1.6493228e+2, -1348685.5, -1371952.4, 0.0026638594, 0.00000006454402, 0.00004734811, -1348685.5, -25021.816, 0.0, 10.0, 9.969248 
7.45e+2, 1.7490156e+2, -1250727.5, -1274310.1, 0.0012463559, 0.00000006331222, -0.00007382192, -1250727.5, -24762.797, 0.0, 10.0, 9.968835 
7.45e+2, 1.8486421e+2, -1162646.5, -1195720.1, 0.0024014497, 0.00000006407779, 0.000066154156, -1162646.5, -34315.85, 0.0, 10.0, 9.956395 
7.45e+2, 1.9482064e+2, -1064496.8, -1097833.0, 0.0021093758, 0.00000006693342, -0.000057649682, -1064496.8, -33739.19, 0.0, 10.0, 9.956052 
7.45e+2, 2.0477042e+2, -976332.8, -1019435.0, 0.0023773543, 0.00000006682622, 0.000068083216, -976332.8, -43082.938, 0.0, 10.0, 9.943291 
7.45e+2, 2.1471375e+2, -878045.8, -921409.9, 0.0006099658, 0.00000006351006, -0.00012682313, -878045.8, -42240.516, 0.0, 10.0, 9.942949 
7.45e+2, 2.2465037e+2, -789759.7, -843144.9, 0.002469649, 0.00000006189223, 0.0001208838, -789759.7, -51333.41, 0.0, 10.0, 9.929908 
7.45e+2, 2.3458035e+2, -691326.2, -744966.44, 0.002081337, 0.00000006219792, -0.00008881341, -691326.2, -50213.65, 0.0, 10.0, 9.929577 
7.45e+2, 2.4450338e+2, -603002.1, -667018.75, 0.0023051393, 0.00000006317678, 0.000074713746, -603002.1, -59135.246, 0.0, 10.0, 9.916136 
7.45e+2, 2.5441962e+2, -504249.47, -568343.3, 0.0012046944, 0.00000006495766, -0.00010673254, -504249.47, -57561.906, 0.0, 10.0, 9.916036 
7.45e+2, 2.643288e+2, -416014.06, -490987.88, 0.0018208947, 0.000000065187294, 0.00014059701, -416014.06, -66436.375, 0.0, 10.0, 9.901964 
7.45e+2, 2.742313e+2, -316728.8, -391374.75, 0.0008221981, 0.000000063440936, -0.00020344355, -316728.8, -64195.824, 0.0, 10.0, 9.902385 
7.45e+2, 2.841256e+2, -230255.56, -318081.25, 0.0015944064, 0.000000062357955, 0.00022904506, -230255.56, -74686.59, 0.0, 10.0, 9.885439 
7.45e+2, 2.940121e+2, -130549.43, -217765.0, 0.00104709, 0.000000062191916, -0.00025334387, -130549.43, -71868.04, 0.0, 10.0, 9.886217 
7.45e+2, 3.0392656e+2, -40805.418, -84750.16, 0.0008978443, 0.00000006267633, 0.00017313546, -40805.418, -40805.418, 0.0, 10.0, 9.942173 
7.45e+2, 3.138706e+2, -39727.406, -82511.21, -0.0008030525, 0.000000064118105, -0.000055142777, -39727.406, -39727.406, 0.0, 10.0, 9.943684 
7.55e+2, 1.2499334e+2, -1719946.0, -1724224.6, 0.0008927043, 0.00000006884172, 0.000017614988, -1719946.0, -4880.7866, 0.0, 10.0, 9.994327 
7.55e+2, 1.349876e+2, -1622565.5, -1627434.9, -0.00041557924, 0.00000007023098, -0.00006840453, -1622565.5, -5444.004, 0.0, 10.0, 9.993545 
7.55e+2, 1.4497514e+2, -1534464.1, -1548146.3, 0.0020982812, 0.00000006958471, 0.00007094055, -1534464.1, -15220.512, 0.0, 10.0, 9.981865 
7.55e+2, 1.5495703e+2, -1436736.5, -1450821.9, 0.0010950924, 0.00000006686467, -0.00005697032, -1436736.5, -15315.327, 0.0, 10.0, 9.981333 
7.55e+2, 1.6493228e+2, -1348685.5, -1371952.4, 0.0023274655, 0.00000006557768, 0.000047347843, -1348685.5, -25021.82, 0.0, 10.0, 9.969248 
7.55e+2, 1.7490156e+2, -1250727.5, -1274310.1, 0.00090626325, 0.00000006575386, -0.00007382159, -1250727.5, -24762.8, 0.0, 10.0, 9.968835 
7.55e+2, 1.8486421e+2, -1162646.5, -1195720.1, 0.0010180458, 0.00000006706981, 0.00006615375, -1162646.5, -34315.855, 0.0, 10.0, 9.956395 
7.55e+2, 1.9482064e+2, -1064496.8, -1097833.0, 0.0007138762, 0.00000006957844, -0.000057652218, -1064496.8, -33739.19, 0.0, 10.0, 9.956052 
7.55e+2, 2.0477042e+2, -976332.8, -1019435.0, 0.0036058042, 0.00000006867384, 0.000068081936, -976332.8, -43082.94, 0.0, 10.0, 9.943291 
7.55e+2, 2.1471375e+2, -878045.8, -921409.9, 0.001892607, 0.00000006407254, -0.00012681949, -878045.8, -42240.52, 0.0, 10.0, 9.942949 
7.55e+2, 2.2465037e+2, -789759.7, -843144.9, 0.001769186, 0.000000062890464, 0.000120887635, -789759.7, -51333.414, 0.0, 10.0, 9.929908 
7.55e+2, 2.3458035e+2, -691326.2, -744966.44, 0.0013159912, 0.00000006558002, -0.00008881472, -691326.2, -50213.65, 0.0, 10.0, 9.929577 
7.55e+2, 2.4450338e+2, -603002.1, -667018.8, 0.001824873, 0.00000006684012, 0.00007471006, -603002.1, -59135.246, 0.0, 10.0, 9.916136 
7.55e+2, 2.5441962e+2, -504249.47, -568343.3, 0.0007381251, 0.000000066388715, -0.00010673531, -504249.47, -57561.91, 0.0, 10.0, 9.916036 
7.55e+2, 2.643288e+2, -416014.06, -490987.88, 0.0022412708, 0.0000000657712, 0.00014059622, -416014.06, -66436.38, 0.0, 10.0, 9.901964 
7.55e+2, 2.742313e+2, -316728.8, -391374.78, 0.0013020446, 0.00000006494632, -0.00020344103, -316728.8, -64195.824, 0.0, 10.0, 9.902385 
7.55e+2, 2.841256e+2, -230255.56, -318081.25, 0.0016118746, 0.00000006474619, 0.00022904851, -230255.56, -74686.6, 0.0, 10.0, 9.885439 
7.55e+2, 2.940121e+2, -130549.43, -217765.0, 0.0010229014, 0.0000000654019, -0.00025334273, -130549.43, -71868.04, 0.0, 10.0, 9.886217 
7.55e+2, 3.0392656e+2, -40805.42, -84750.164, 0.0009725138, 0.00000006531852, 0.0001731351, -40805.42, -40805.42, 0.0, 10.0, 9.942173 
7.55e+2, 3.138706e+2, -39727.41, -82511.22, -0.0007167676, 0.00000006413019, -0.00005514342, -39727.41, -39727.41, 0.0, 10.0, 9.943684 
7.65e+2, 1.2499334e+2, -1719946.0, -1724224.6, 0.00020918561, 0.00000007237117, 0.000017616285, -1719946.0, -4880.774, 0.0, 10.0, 9.994327 
7.65e+2, 1.349876e+2, -1622565.5, -1627434.9, -0.0009939673, 0.000000071350534, -0.00006840379, -1622565.5, -5443.985, 0.0, 10.0, 9.993545 
7.65e+2, 1.4497514e+2, -1534464.1, -1548146.3, 0.0017447849, 0.00000007014242, 0.00007094262, -1534464.1, -15220.491, 0.0, 10.0, 9.981865 
7.65e+2, 1.5495703e+2, -1436736.5, -1450821.9, 0.0006053972, 0.000000068718094, -0.000056968907, -1436736.5, -15315.312, 0.0, 10.0, 9.981333 
7.65e+2, 1.6493228e+2, -1348685.5, -1371952.4, 0.0019798377, 0.000000068539414, 0.000047348265, -1348685.5, -25021.807, 0.0, 10.0, 9.969248 
7.65e+2, 1.7490156e+2, -1250727.5, -1274310.1, 0.0019262868, 0.000000069632655, -0.000073822506, -1250727.5, -24762.791, 0.0, 10.0, 9.968835 
7.65e+2, 1.8486421e+2, -1162646.5, -1195720.1, 0.0024469486, 0.00000006999009, 0.00006615291, -1162646.5, -34315.84, 0.0, 10.0, 9.956395 
7.65e+2, 1.9482064e+2, -1064496.8, -1097833.0, 0.0007338863, 0.00000006957757, -0.0000576515, -1064496.8, -33739.17, 0.0, 10.0, 9.956052 
7.65e+2, 2.0477042e+2, -976332.8, -1019435.0, 0.0034255362, 0.000000068520265, 0.00006808317, -976332.8, -43082.918, 0.0, 10.0, 9.943291 
7.65e+2, 2.1471375e+2, -878045.8, -921409.9, 0.0021450855, 0.00000006676469, -0.00012681885, -878045.8, -42240.508, 0.0, 10.0, 9.942949 
7.65e+2, 2.2465037e+2, -789759.7, -843144.9, 0.0018752977, 0.00000006673578, 0.00012088775, -789759.7, -51333.402, 0.0, 10.0, 9.929908 
7.65e+2, 2.3458035e+2, -691326.2, -744966.44, 0.0017565162, 0.00000006866152, -0.00008881503, -691326.2, -50213.637, 0.0, 10.0, 9.929577 
7.65e+2, 2.4450338e+2, -603002.1, -667018.75, 0.002915284, 0.00000006896721, 0.00007470955, -603002.1, -59135.234, 0.0, 10.0, 9.916136 
7.65e+2, 2.5441962e+2, -504249.44, -568343.3, 0.0016806507, 0.00000006733572, -0.00010673575, -504249.44, -57561.89, 0.0, 10.0, 9.916036 
7.65e+2, 2.643288e+2, -416014.03, -490987.88, 0.002628827, 0.00000006654851, 0.00014059604, -416014.03, -66436.36, 0.0, 10.0, 9.901964 
7.65e+2, 2.742313e+2, -316728.8, -391374.75, 0.0008861147, 0.00000006684025, -0.00020344071, -316728.8, -64195.81, 0.0, 10.0, 9.902385 
7.65e+2, 2.841256e+2, -230255.55, -318081.25, 0.00059523666, 0.00000006727323, 0.00022904934, -230255.55, -74686.586, 0.0, 10.0, 9.885439 
7.65e+2, 2.940121e+2, -130549.414, -217765.0, -0.0002758114, 0.00000006789441, -0.00025334142, -130549.414, -71868.02, 0.0, 10.0, 9.886217 
7.65e+2, 3.0392656e+2, -40805.406, -84750.16, 0.00042680235, 0.00000006760522, 0.00017313578, -40805.406, -40805.406, 0.0, 10.0, 9.942173 
7.65e+2, 3.138706e+2, -39727.395, -82511.21, 0.00032689667, 0.00000006596284, -0.00005514505, -39727.395, -39727.395, 0.0, 10.0, 9.943684 
7.75e+2, 1.2499334e+2, -1719946.0, -1724224.6, 0.00054680137, 0.0000000768997, 0.000017620683, -1719946.0, -4880.7773, 0.0, 10.0, 9.994327 
7.75e+2, 1.349876e+2, -1622565.5, -1627434.9, -0.0006562182, 0.00000007121652, -0.000068403875, -1622565.5, -5443.9883, 0.0, 10.0, 9.993545 
7.75e+2, 1.4497514e+2, -1534464.1, -1548146.3, 0.0010524582, 0.00000006944984, 0.00007094303, -1534464.1, -15220.494, 0.0, 10.0, 9.981865 
7.75e+2, 1.5495703e+2, -1436736.5, -1450821.9, -0.00008857996, 0.00000007159418, -0.000056966957, -1436736.5, -15315.314, 0.0, 10.0, 9.981333 
7.75e+2, 1.6493228e+2, -1348685.5, -1371952.4, 0.0010524238, 0.000000073429206, 0.00004734937, -1348685.5, -25021.809, 0.0, 10.0, 9.969248 
7.75e+2, 1.7490156e+2, -1250727.5, -1274310.1, 0.0009976217, 0.00000007494859, -0.00007382466, -1250727.5, -24762.791, 0.0, 10.0, 9.968835 
7.75e+2, 1.8486421e+2, -1162646.5, -1195720.1, 0.0033478073, 0.00000007283863, 0.000066151646, -1162646.5, -34315.844, 0.0, 10.0, 9.956395 
7.75e+2, 1.9482064e+2, -1064496.8, -1097833.0, 0.0016559178, 0.00000006693079, -0.000057647532, -1064496.8, -33739.176, 0.0, 10.0, 9.956052 
7.75e+2, 2.0477042e+2, -976332.8, -1019435.0, 0.0023865919, 0.00000006636549, 0.00006808693, -976332.8, -43082.92, 0.0, 10.0, 9.943291 
7.75e+2, 2.1471375e+2, -878045.8, -921409.9, 0.0010656321, 0.00000007158651, -0.0001268212, -878045.8, -42240.51, 0.0, 10.0, 9.942949 
7.75e+2, 2.2465037e+2, -789759.7, -843144.9, 0.0017013943, 0.00000007342816, 0.00012088416, -789759.7, -51333.402, 0.0, 10.0, 9.929908 
7.75e+2, 2.3458035e+2, -691326.2, -744966.44, 0.0016122287, 0.000000071442436, -0.00008881435, -691326.2, -50213.637, 0.0, 10.0, 9.929577 
7.75e+2, 2.4450338e+2, -603002.1, -667018.8, 0.0035548625, 0.00000006955804, 0.0000747122, -603002.1, -59135.234, 0.0, 10.0, 9.916136 
7.75e+2, 2.5441962e+2, -504249.44, -568343.3, 0.0023579004, 0.00000006779867, -0.00010673387, -504249.44, -57561.89, 0.0, 10.0, 9.916036 
7.75e+2, 2.643288e+2, -416014.03, -490987.88, 0.0022006386, 0.000000067519224, 0.00014059647, -416014.03, -66436.37, 0.0, 10.0, 9.901964 
7.75e+2, 2.742313e+2, -316728.8, -391374.78, 0.00038381558, 0.000000069122706, -0.00020344257, -316728.8, -64195.813, 0.0, 10.0, 9.902385 
7.75e+2, 2.841256e+2, -230255.55, -318081.25, 0.0005180113, 0.00000006993906, 0.00022904754, -230255.55, -74686.586, 0.0, 10.0, 9.885439 
7.75e+2, 2.940121e+2, -130549.414, -217765.0, -0.00031472844, 0.00000006966945, -0.0002533399, -130549.414, -71868.02, 0.0, 10.0, 9.886217 
7.75e+2, 3.0392656e+2, -40805.406, -84750.16, 0.00084246794, 0.00000006953644, 0.00017313752, -40805.406, -40805.406, 0.0, 10.0, 9.942173 
7.75e+2, 3.138706e+2, -39727.395, -82511.21, 0.0007959415, 0.00000006961604, -0.00005514767, -39727.395, -39727.395, 0.0, 10.0, 9.943684 
7.85e+2, 1.2499334e+2, -1719946.0, -1724224.6, 0.0014524464, 0.00000007826189, 0.00001762134, -1719946.0, -4880.758, 0.0, 10.0, 9.994327 
7.85e+2, 1.349876e+2, -1622565.5, -1627434.9, 0.00050671335, 0.00000007339821, -0.00006840394, -1622565.5, -5443.9717, 0.0, 10.0, 9.993545 
7.85e+2, 1.4497514e+2, -1534464.1, -1548146.3, 0.0018018745, 0.00000007233385, 0.0000709438, -1534464.1, -15220.4795, 0.0, 10.0, 9.981865 
7.85e+2, 1.5495703e+2, -1436736.5, -1450821.9, 0.0012666568, 0.000000075060605, -0.000056967947, -1436736.5, -15315.301, 0.0, 10.0, 9.981333 
7.85e+2, 1.6493228e+2, -1348685.5, -1371952.4, 0.00237437, 0.00000007638514, 0.000047348498, -1348685.5, -25021.793, 0.0, 10.0, 9.969248 
7.85e+2, 1.7490156e+2, -1250727.5, -1274310.1, 0.0005737322, 0.00000007627806, -0.00007382351, -1250727.5, -24762.771, 0.0, 10.0, 9.968835 
7.85e+2, 1.8486421e+2, -1162646.5, -1195720.1, 0.0030207413, 0.000000073912226, 0.00006615358, -1162646.5, -34315.824, 0.0, 10.0, 9.956395 
7.85e+2, 1.9482064e+2, -1064496.8, -1097833.0, 0.0018091801, 0.000000069182654, -0.000057646095, -1064496.8, -33739.16, 0.0, 10.0, 9.956052 
7.85e+2, 2.0477042e+2, -976332.8, -1019435.0, 0.0021445036, 0.00000006920377, 0.00006808707, -976332.8, -43082.906, 0.0, 10.0, 9.943291 
7.85e+2, 2.1471375e+2, -878045.75, -921409.9, 0.002338161, 0.00000007437009, -0.00012682323, -878045.75, -42240.492, 0.0, 10.0, 9.942949 
7.85e+2, 2.2465037e+2, -789759.7, -843144.9, 0.0036747088, 0.000000075779866, 0.00012088239, -789759.7, -51333.387, 0.0, 10.0, 9.929908 
7.85e+2, 2.3458035e+2, -691326.1, -744966.44, 0.0010257451, 0.00000007293558, -0.00008881315, -691326.1, -50213.617, 0.0, 10.0, 9.929577 
7.85e+2, 2.4450338e+2, -603002.1, -667018.75, 0.0018307283, 0.00000007101544, 0.00007471466, -603002.1, -59135.22, 0.0, 10.0, 9.916136 
7.85e+2, 2.5441962e+2, -504249.44, -568343.3, 0.001072536, 0.000000070203605, -0.00010673221, -504249.44, -57561.875, 0.0, 10.0, 9.916036 
7.85e+2, 2.643288e+2, -416014.03, -490987.88, 0.0015844408, 0.00000007027981, 0.00014059695, -416014.03, -66436.35, 0.0, 10.0, 9.901964 
7.85e+2, 2.742313e+2, -316728.8, -391374.75, 0.0017016884, 0.00000007148341, -0.00020344375, -316728.8, -64195.797, 0.0, 10.0, 9.902385 
7.85e+2, 2.841256e+2, -230255.53, -318081.25, 0.0028475223, 0.00000007192081, 0.00022904565, -230255.53, -74686.57, 0.0, 10.0, 9.885439 
7.85e+2, 2.940121e+2, -130549.4, -217765.0, 0.0011731936, 0.00000007130436, -0.00025334122, -130549.4, -71868.01, 0.0, 10.0, 9.886217 
7.85e+2, 3.0392656e+2, -40805.387, -84750.16, 0.0013632528, 0.000000071393394, 0.00017313707, -40805.387, -40805.387, 0.0, 10.0, 9.942173 
7.85e+2, 3.138706e+2, -39727.38, -82511.21, 0.00018492094, 0.000000072539294, -0.00005514687, -39727.38, -39727.38, 0.0, 10.0, 9.943684 
7.95e+2, 1.2499334e+2, -1719946.0, -1724224.6, 0.0011066356, 0.00000007645776, 0.000017618255, -1719946.0, -4880.7607, 0.0, 10.0, 9.994327 
7.95e+2, 1.349876e+2, -1622565.5, -1627434.9, 0.00016082813, 0.0000000778956, -0.00006840398, -1622565.5, -5443.9746, 0.0, 10.0, 9.993545 
7.95e+2, 1.4497514e+2, -1534464.1, -1548146.3, 0.00079004216, 0.00000007879444, 0.00007094491, -1534464.1, -15220.481, 0.0, 10.0, 9.981865 
7.95e+2, 1.5495703e+2, -1436736.5, -1450821.9, 0.00025374198, 0.00000007911738, -0.000056971872, -1436736.5, -15315.303, 0.0, 10.0, 9.981333 
7.95e+2, 1.6493228e+2, -1348685.5, -1371952.4, 0.002633053, 0.000000077407236, 0.000047345642, -1348685.5, -25021.797, 0.0, 10.0, 9.969248 
7.95e+2, 1.7490156e+2, -1250727.5, -1274310.1, 0.00083910854, 0.000000073621095, -0.00007381906, -1250727.5, -24762.775, 0.0, 10.0, 9.968835 
7.95e+2, 1.8486421e+2, -1162646.5, -1195720.1, 0.002982653, 0.00000007321088, 0.000066158726, -1162646.5, -34315.83, 0.0, 10.0, 9.956395 
7.95e+2, 1.9482064e+2, -1064496.8, -1097833.0, 0.0017675679, 0.000000076333166, -0.00005764719, -1064496.8, -33739.16, 0.0, 10.0, 9.956052 
7.95e+2, 2.0477042e+2, -976332.8, -1019435.0, 0.0013014368, 0.0000000770351, 0.000068083595, -976332.8, -43082.906, 0.0, 10.0, 9.943291 
7.95e+2, 2.1471375e+2, -878045.75, -921409.9, 0.0014785229, 0.00000007511544, -0.0001268249, -878045.75, -42240.492, 0.0, 10.0, 9.942949 
7.95e+2, 2.2465037e+2, -789759.7, -843144.9, 0.0040911012, 0.00000007379089, 0.000120882454, -789759.7, -51333.39, 0.0, 10.0, 9.929908 
7.95e+2, 2.3458035e+2, -691326.2, -744966.44, 0.0014838837, 0.000000073140946, -0.00008881142, -691326.2, -50213.625, 0.0, 10.0, 9.929577 
7.95e+2, 2.4450338e+2, -603002.1, -667018.8, 0.0016727879, 0.000000073339415, 0.00007471691, -603002.1, -59135.22, 0.0, 10.0, 9.916136 
7.95e+2, 2.5441962e+2, -504249.44, -568343.3, 0.0008849886, 0.000000074550506, -0.000106730775, -504249.44, -57561.88, 0.0, 10.0, 9.916036 
7.95e+2, 2.643288e+2, -416014.03, -490987.88, 0.0016297277, 0.000000074830254, 0.00014059748, -416014.03, -66436.35, 0.0, 10.0, 9.901964 
7.95e+2, 2.742313e+2, -316728.8, -391374.75, 0.001762587, 0.000000073922365, -0.00020344426, -316728.8, -64195.797, 0.0, 10.0, 9.902385 
7.95e+2, 2.841256e+2, -230255.55, -318081.25, 0.002944382, 0.00000007321846, 0.00022904365, -230255.55, -74686.57, 0.0, 10.0, 9.885439 
7.95e+2, 2.940121e+2, -130549.41, -217765.0, 0.0012733053, 0.000000072799146, -0.00025334532, -130549.41, -71868.01, 0.0, 10.0, 9.886217 
7.95e+2, 3.0392656e+2, -40805.39, -84750.16, 0.0010513654, 0.00000007317608, 0.00017313447, -40805.39, -40805.39, 0.0, 10.0, 9.942173 
7.95e+2, 3.138706e+2, -39727.383, -82511.21, -0.00017531913, 0.000000074732576, -0.000055142653, -39727.383, -39727.383, 0.0, 10.0, 9.943684 
8.05e+2, 1.2499334e+2, -1719946.0, -1724224.6, 0.0029616025, 0.00000007761173, 0.000017618377, -1719946.0, -4880.7393, 0.0, 10.0, 9.994327 
8.05e+2, 1.349876e+2, -1622565.5, -1627434.9, 0.0013394315, 0.0000000816094, -0.00006840569, -1622565.5, -5443.961, 0.0, 10.0, 9.993545 
8.05e+2, 1.4497514e+2, -1534464.1, -1548146.3, 0.0022058038, 0.0000000827269, 0.00007094484, -1534464.1, -15220.467, 0.0, 10.0, 9.981865 
8.05e+2, 1.5495703e+2, -1436736.4, -1450821.9, 0.0008110701, 0.00000008091075, -0.00005697123, -1436736.4, -15315.282, 0.0, 10.0, 9.981333 
8.05e+2, 1.6493228e+2, -1348685.5, -1371952.4, 0.003156256, 0.00000007816931, 0.00004734669, -1348685.5, -25021.775, 0.0, 10.0, 9.969248 
8.05e+2, 1.7490156e+2, -1250727.5, -1274310.1, 0.0012958985, 0.000000074482884, -0.00007381793, -1250727.5, -24762.754, 0.0, 10.0, 9.968834 
8.05e+2, 1.8486421e+2, -1162646.5, -1195720.1, 0.0027768356, 0.00000007536481, 0.00006615898, -1162646.5, -34315.81, 0.0, 10.0, 9.956395 
8.05e+2, 1.9482064e+2, -1064496.8, -1097833.0, 0.0028434566, 0.00000008102706, -0.000057648816, -1064496.8, -33739.152, 0.0, 10.0, 9.956052 
8.05e+2, 2.0477042e+2, -976332.8, -1019435.0, 0.0033164332, 0.000000081490306, 0.000068082445, -976332.8, -43082.895, 0.0, 10.0, 9.943291 
8.05e+2, 2.1471375e+2, -878045.75, -921409.9, 0.0010236794, 0.00000007632252, -0.00012682301, -878045.75, -42240.473, 0.0, 10.0, 9.942949 
8.05e+2, 2.2465037e+2, -789759.6, -843144.9, 0.0028721746, 0.00000007395281, 0.00012088472, -789759.6, -51333.367, 0.0, 10.0, 9.929908 
8.05e+2, 2.3458035e+2, -691326.1, -744966.44, 0.002394927, 0.000000074752364, -0.00008881177, -691326.1, -50213.605, 0.0, 10.0, 9.929577 
8.05e+2, 2.4450338e+2, -603002.06, -667018.75, 0.003180814, 0.00000007594668, 0.00007471532, -603002.06, -59135.203, 0.0, 10.0, 9.916136 
8.05e+2, 2.5441962e+2, -504249.4, -568343.3, 0.001994923, 0.000000077609094, -0.00010673199, -504249.4, -57561.863, 0.0, 10.0, 9.916036 
8.05e+2, 2.643288e+2, -416014.0, -490987.88, 0.0023771038, 0.00000007784641, 0.0001405972, -416014.0, -66436.336, 0.0, 10.0, 9.901964 
8.05e+2, 2.742313e+2, -316728.78, -391374.75, 0.0006701023, 0.000000076269075, -0.00020344288, -316728.78, -64195.78, 0.0, 10.0, 9.902385 
8.05e+2, 2.841256e+2, -230255.52, -318081.25, 0.0012407493, 0.00000007530353, 0.00022904522, -230255.52, -74686.555, 0.0, 10.0, 9.885439 
8.05e+2, 2.940121e+2, -130549.38, -217765.0, 0.00093939615, 0.0000000751836, -0.00025334558, -130549.38, -71867.99, 0.0, 10.0, 9.886217 
8.05e+2, 3.0392656e+2, -40805.37, -84750.16, 0.0010327144, 0.00000007539017, 0.00017313374, -40805.37, -40805.37, 0.0, 10.0, 9.942173 
8.05e+2, 3.138706e+2, -39727.36, -82511.21, -0.0011823594, 0.000000076073995, -0.000055141754, -39727.36, -39727.36, 0.0, 10.0, 9.943684 
8.15e+2, 1.2499334e+2, -1719946.0, -1724224.6, 0.0008576629, 0.000000081723805, 0.000017621705, -1719946.0, -4880.7437, 0.0, 10.0, 9.994327 
8.15e+2, 1.349876e+2, -1622565.5, -1627434.9, -0.00076497695, 0.00000008453961, -0.00006840905, -1622565.5, -5443.965, 0.0, 10.0, 9.993545 
8.15e+2, 1.4497514e+2, -1534464.1, -1548146.3, 0.0027680134, 0.00000008413123, 0.000070943606, -1534464.1, -15220.471, 0.0, 10.0, 9.981865 
8.15e+2, 1.5495703e+2, -1436736.4, -1450821.9, 0.0013774786, 0.00000008044075, -0.00005696601, -1436736.4, -15315.286, 0.0, 10.0, 9.981333 
8.15e+2, 1.6493228e+2, -1348685.5, -1371952.4, 0.0033182101, 0.000000078671356, 0.000047351637, -1348685.5, -25021.781, 0.0, 10.0, 9.969248 
8.15e+2, 1.7490156e+2, -1250727.5, -1274310.1, 0.0014557004, 0.00000007886342, -0.00007382012, -1250727.5, -24762.76, 0.0, 10.0, 9.968834 
8.15e+2, 1.8486421e+2, -1162646.5, -1195720.1, 0.00071736483, 0.00000008037402, 0.000066154345, -1162646.5, -34315.81, 0.0, 10.0, 9.956395 
8.15e+2, 1.9482064e+2, -1064496.8, -1097833.0, 0.0007582641, 0.00000008326437, -0.000057650977, -1064496.8, -33739.152, 0.0, 10.0, 9.956052 
8.15e+2, 2.0477042e+2, -976332.8, -1019435.0, 0.004948727, 0.00000008256941, 0.00006808362, -976332.8, -43082.9, 0.0, 10.0, 9.943291 
8.15e+2, 2.1471375e+2, -878045.75, -921409.9, 0.002732751, 0.000000077991345, -0.00012681758, -878045.75, -42240.477, 0.0, 10.0, 9.942949 
8.15e+2, 2.2465037e+2, -789759.6, -843144.9, 0.0024325482, 0.0000000762656, 0.00012088919, -789759.6, -51333.37, 0.0, 10.0, 9.929908 
8.15e+2, 2.3458035e+2, -691326.1, -744966.44, 0.0018849986, 0.00000007776984, -0.00008881418, -691326.1, -50213.605, 0.0, 10.0, 9.929577 
8.15e+2, 2.4450338e+2, -603002.06, -667018.8, 0.0024779667, 0.00000007883723, 0.00007470988, -603002.06, -59135.203, 0.0, 10.0, 9.916136 
8.15e+2, 2.5441962e+2, -504249.4, -568343.3, 0.0012828031, 0.00000007937937, -0.000106735846, -504249.4, -57561.867, 0.0, 10.0, 9.916036 
8.15e+2, 2.643288e+2, -416014.0, -490987.88, 0.0027854948, 0.000000079328274, 0.00014059614, -416014.0, -66436.336, 0.0, 10.0, 9.901964 
8.15e+2, 2.742313e+2, -316728.78, -391374.78, 0.0011536264, 0.000000078523534, -0.00020343962, -316728.78, -64195.785, 0.0, 10.0, 9.902385 
8.15e+2, 2.841256e+2, -230255.52, -318081.25, 0.0015008636, 0.00000007817602, 0.00022905032, -230255.52, -74686.555, 0.0, 10.0, 9.885439 
8.15e+2, 2.940121e+2, -130549.38, -217765.0, 0.0011793907, 0.0000000784577, -0.00025334203, -130549.38, -71867.99, 0.0, 10.0, 9.886217 
8.15e+2, 3.0392656e+2, -40805.375, -84750.164, 0.0014464037, 0.00000007803565, 0.0001731349, -40805.375, -40805.375, 0.0, 10.0, 9.942173 
8.15e+2, 3.138706e+2, -39727.363, -82511.22, -0.00074826, 0.00000007656354, -0.00005514417, -39727.363, -39727.363, 0.0, 10.0, 9.943684 
8.25e+2, 1.2499334e+2, -1719946.0, -1724224.6, -0.0010222996, 0.00000008747438, 0.000017624181, -1719946.0, -4880.7344, 0.0, 10.0, 9.994327 
8.25e+2, 1.349876e+2, -1622565.5, -1627434.9, -0.0011187802, 0.00000008578477, -0.00006840893, -1622565.5, -5443.9404, 0.0, 10.0, 9.993545 
8.25e+2, 1.4497514e+2, -1534464.1, -1548146.3, 0.0028448286, 0.00000008384599, 0.00007094522, -1534464.1, -15220.444, 0.0, 10.0, 9.981865 
8.25e+2, 1.5495703e+2, -1436736.4, -1450821.9, 0.0002301909, 0.00000008161589, -0.00005696365, -1436736.4, -15315.265, 0.0, 10.0, 9.981333 
8.25e+2, 1.6493228e+2, -1348685.5, -1371952.4, 0.00220406, 0.000000081804274, 0.00004735287, -1348685.5, -25021.762, 0.0, 10.0, 9.969248 
8.25e+2, 1.7490156e+2, -1250727.5, -1274310.1, 0.0031352364, 0.000000084462165, -0.00007382192, -1250727.5, -24762.748, 0.0, 10.0, 9.968834 
8.25e+2, 1.8486421e+2, -1162646.5, -1195720.1, 0.003102307, 0.00000008487554, 0.000066152534, -1162646.5, -34315.797, 0.0, 10.0, 9.956395 
8.25e+2, 1.9482064e+2, -1064496.8, -1097833.0, 0.00022385565, 0.00000008294022, -0.000057649646, -1064496.8, -33739.12, 0.0, 10.0, 9.956052 
8.25e+2, 2.0477042e+2, -976332.75, -1019435.0, 0.003526686, 0.0000000816013, 0.00006808593, -976332.75, -43082.87, 0.0, 10.0, 9.943291 
8.25e+2, 2.1471375e+2, -878045.75, -921409.9, 0.0022927285, 0.00000008090846, -0.00012681664, -878045.75, -42240.46, 0.0, 10.0, 9.942949 
8.25e+2, 2.2465037e+2, -789759.6, -843144.9, 0.0022963844, 0.000000080891354, 0.0001208893, -789759.6, -51333.36, 0.0, 10.0, 9.929908 
8.25e+2, 2.3458035e+2, -691326.1, -744966.44, 0.0020533644, 0.00000008163881, -0.00008881429, -691326.1, -50213.59, 0.0, 10.0, 9.929577 
8.25e+2, 2.4450338e+2, -603002.06, -667018.75, 0.003137959, 0.000000081615, 0.00007470963, -603002.06, -59135.188, 0.0, 10.0, 9.916136 
8.25e+2, 2.5441962e+2, -504249.4, -568343.3, 0.0018459738, 0.00000008066909, -0.00010673616, -504249.4, -57561.844, 0.0, 10.0, 9.916036 
8.25e+2, 2.643288e+2, -416014.0, -490987.88, 0.0031113322, 0.00000008027962, 0.00014059582, -416014.0, -66436.31, 0.0, 10.0, 9.901964 
8.25e+2, 2.742313e+2, -316728.75, -391374.75, 0.0012167289, 0.00000008060042, -0.0002034399, -316728.75, -64195.766, 0.0, 10.0, 9.902385 
8.25e+2, 2.841256e+2, -230255.5, -318081.22, 0.00097141304, 0.000000080865675, 0.00022905078, -230255.5, -74686.54, 0.0, 10.0, 9.885439 
8.25e+2, 2.940121e+2, -130549.37, -217765.0, -0.0006035142, 0.00000008105156, -0.0002533399, -130549.37, -71867.98, 0.0, 10.0, 9.886217 
8.25e+2, 3.0392656e+2, -40805.36, -84750.16, 0.00024718395, 0.000000080625014, 0.00017313645, -40805.36, -40805.36, 0.0, 10.0, 9.942173 
8.25e+2, 3.138706e+2, -39727.348, -82511.21, 0.00069565413, 0.00000007929027, -0.000055146553, -39727.348, -39727.348, 0.0, 10.0, 9.943684 
8.35e+2, 1.2499334e+2, -1719946.0, -1724224.6, 0.00041018883, 0.00000009486345, 0.000017625802, -1719946.0, -4880.7354, 0.0, 10.0, 9.994327 
8.35e+2, 1.349876e+2, -1622565.5, -1627434.9, 0.00031413243, 0.00000008534489, -0.00006840534, -1622565.5, -5443.9414, 0.0, 10.0, 9.993545 
8.35e+2, 1.4497514e+2, -1534464.1, -1548146.3, 0.0021583047, 0.00000008187117, 0.000070949696, -1534464.1, -15220.45, 0.0, 10.0, 9.981865 
8.35e+2, 1.5495703e+2, -1436736.4, -1450821.9, -0.00045971465, 0.00000008443616, -0.00005696415, -1436736.4, -15315.271, 0.0, 10.0, 9.981333 
8.35e+2, 1.6493228e+2, -1348685.5, -1371952.4, 0.00046233353, 0.000000087568054, 0.00004735039, -1348685.5, -25021.762, 0.0, 10.0, 9.969248 
8.35e+2, 1.7490156e+2, -1250727.4, -1274310.1, 0.001387929, 0.00000009127911, -0.00007382333, -1250727.4, -24762.748, 0.0, 10.0, 9.968834 
8.35e+2, 1.8486421e+2, -1162646.5, -1195720.1, 0.004965496, 0.00000008886936, 0.00006615354, -1162646.5, -34315.805, 0.0, 10.0, 9.956395 
8.35e+2, 1.9482064e+2, -1064496.8, -1097833.0, 0.0021288386, 0.00000008005462, -0.00005764482, -1064496.8, -33739.13, 0.0, 10.0, 9.956052 
8.35e+2, 2.0477042e+2, -976332.75, -1019435.0, 0.0020539311, 0.000000078586005, 0.00006808938, -976332.75, -43082.875, 0.0, 10.0, 9.943291 
8.35e+2, 2.1471375e+2, -878045.75, -921409.9, 0.0007501983, 0.00000008507386, -0.00012682019, -878045.75, -42240.465, 0.0, 10.0, 9.942949 
8.35e+2, 2.2465037e+2, -789759.6, -843144.9, 0.0021734969, 0.00000008783006, 0.00012088506, -789759.6, -51333.36, 0.0, 10.0, 9.929908 
8.35e+2, 2.3458035e+2, -691326.1, -744966.44, 0.0019769107, 0.00000008635928, -0.00008881209, -691326.1, -50213.594, 0.0, 10.0, 9.929577 
8.35e+2, 2.4450338e+2, -603002.06, -667018.8, 0.003994584, 0.000000084279975, 0.00007471455, -603002.06, -59135.19, 0.0, 10.0, 9.916136 
8.35e+2, 2.5441962e+2, -504249.4, -568343.3, 0.0027474414, 0.00000008147827, -0.00010673293, -504249.4, -57561.848, 0.0, 10.0, 9.916036 
8.35e+2, 2.643288e+2, -416014.0, -490987.88, 0.002771843, 0.000000080700445, 0.00014059622, -416014.0, -66436.32, 0.0, 10.0, 9.901964 
8.35e+2, 2.742313e+2, -316728.78, -391374.78, 0.00079404697, 0.00000008249973, -0.00020344369, -316728.78, -64195.77, 0.0, 10.0, 9.902385 
8.35e+2, 2.841256e+2, -230255.5, -318081.25, 0.0009524806, 0.000000083372484, 0.00022904659, -230255.5, -74686.54, 0.0, 10.0, 9.885439 
8.35e+2, 2.940121e+2, -130549.37, -217765.0, -0.0005860534, 0.000000082965165, -0.0002533392, -130549.37, -71867.98, 0.0, 10.0, 9.886217 
8.35e+2, 3.0392656e+2, -40805.36, -84750.16, 0.00060724834, 0.00000008315828, 0.00017313837, -40805.36, -40805.36, 0.0, 10.0, 9.942173 
8.35e+2, 3.138706e+2, -39727.348, -82511.21, 0.0010959595, 0.00000008425417, -0.000055148907, -39727.348, -39727.348, 0.0, 10.0, 9.943684 
8.45e+2, 1.2499334e+2, -1719946.0, -1724224.6, 0.0029546665, 0.000000095667176, 0.000017624423, -1719946.0, -4880.708, 0.0, 10.0, 9.994327 
8.45e+2, 1.349876e+2, -1622565.5, -1627434.9, -0.00030063794, 0.000000087999524, -0.00006840272, -1622565.5, -5443.923, 0.0, 10.0, 9.993545 
8.45e+2, 1.4497514e+2, -1534464.1, -1548146.3, 0.0007131107, 0.00000008585259, 0.00007095348, -1534464.1, -15220.435, 0.0, 10.0, 9.981865 
8.45e+2, 1.5495703e+2, -1436736.4, -1450821.9, 0.002203145, 0.0000000892147, -0.00005696695, -1436736.4, -15315.257, 0.0, 10.0, 9.981333 
8.45e+2, 1.6493228e+2, -1348685.4, -1371952.4, 0.0032897985, 0.00000009127652, 0.00004734711, -1348685.4, -25021.744, 0.0, 10.0, 9.969248 
8.45e+2, 1.7490156e+2, -1250727.4, -1274310.1, -0.00041451154, 0.000000092010886, -0.00007382086, -1250727.4, -24762.72, 0.0, 10.0, 9.968834 
8.45e+2, 1.8486421e+2, -1162646.5, -1195720.1, 0.0031753692, 0.00000008940188, 0.000066157496, -1162646.5, -34315.777, 0.0, 10.0, 9.956395 
8.45e+2, 1.9482064e+2, -1064496.8, -1097833.0, 0.002781395, 0.000000083294175, -0.000057643836, -1064496.8, -33739.113, 0.0, 10.0, 9.956052 
8.45e+2, 2.0477042e+2, -976332.75, -1019435.0, 0.0029036254, 0.000000082686576, 0.00006808831, -976332.75, -43082.86, 0.0, 10.0, 9.943291 
8.45e+2, 2.1471375e+2, -878045.75, -921409.9, 0.0027636646, 0.00000008803593, -0.00012682233, -878045.75, -42240.445, 0.0, 10.0, 9.942949 
8.45e+2, 2.2465037e+2, -789759.6, -843144.9, 0.0044632987, 0.00000009003137, 0.00012088346, -789759.6, -51333.336, 0.0, 10.0, 9.929908 
8.45e+2, 2.3458035e+2, -691326.1, -744966.44, 0.0013039156, 0.00000008822816, -0.000088811335, -691326.1, -50213.57, 0.0, 10.0, 9.929577 
8.45e+2, 2.4450338e+2, -603002.06, -667018.75, 0.0020743432, 0.000000086376744, 0.00007471664, -603002.06, -59135.168, 0.0, 10.0, 9.916136 
8.45e+2, 2.5441962e+2, -504249.38, -568343.3, 0.0010697497, 0.00000008447174, -0.00010673076, -504249.38, -57561.83, 0.0, 10.0, 9.916036 
8.45e+2, 2.643288e+2, -416013.97, -490987.88, 0.0017473724, 0.000000083918266, 0.00014059746, -416013.97, -66436.305, 0.0, 10.0, 9.901964 
8.45e+2, 2.742313e+2, -316728.75, -391374.75, 0.0019121842, 0.00000008508471, -0.00020344467, -316728.75, -64195.75, 0.0, 10.0, 9.902385 
8.45e+2, 2.841256e+2, -230255.48, -318081.22, 0.0034207907, 0.000000085554746, 0.00022904431, -230255.48, -74686.516, 0.0, 10.0, 9.885439 
8.45e+2, 2.940121e+2, -130549.35, -217765.0, 0.0017860183, 0.000000085063604, -0.00025334157, -130549.35, -71867.96, 0.0, 10.0, 9.886217 
8.45e+2, 3.0392656e+2, -40805.336, -84750.15, 0.0018027816, 0.00000008551565, 0.00017313714, -40805.336, -40805.336, 0.0, 10.0, 9.942173 
8.45e+2, 3.138706e+2, -39727.33, -82511.2, -0.00030676354, 0.000000087376364, -0.000055147266, -39727.33, -39727.33, 0.0, 10.0, 9.943684 
8.55e+2, 1.2499334e+2, -1719946.0, -1724224.6, 0.0023343381, 0.000000089885575, 0.000017620045, -1719946.0, -4880.7163, 0.0, 10.0, 9.994327 
8.55e+2, 1.349876e+2, -1622565.5, -1627434.9, -0.000921124, 0.00000009374866, -0.00006840108, -1622565.5, -5443.931, 0.0, 10.0, 9.993545 
8.55e+2, 1.4497514e+2, -1534464.1, -1548146.3, -0.000363996, 0.00000009579023, 0.000070956565, -1534464.1, -15220.433, 0.0, 10.0, 9.981865 
8.55e+2, 1.5495703e+2, -1436736.4, -1450821.9, 0.0011252722, 0.000000095951506, -0.000056972058, -1436736.4, -15315.254, 0.0, 10.0, 9.981333 
8.55e+2, 1.6493228e+2, -1348685.5, -1371952.4, 0.003996055, 0.00000009292969, 0.00004734302, -1348685.5, -25021.754, 0.0, 10.0, 9.969248 
8.55e+2, 1.7490156e+2, -1250727.4, -1274310.1, 0.00030113803, 0.000000086657515, -0.00007381452, -1250727.4, -24762.729, 0.0, 10.0, 9.968834 
8.55e+2, 1.8486421e+2, -1162646.5, -1195720.1, 0.0026868456, 0.000000086473094, 0.0000661644, -1162646.5, -34315.78, 0.0, 10.0, 9.956395 
8.55e+2, 1.9482064e+2, -1064496.8, -1097833.0, 0.0022789128, 0.00000009265886, -0.00005764669, -1064496.8, -33739.113, 0.0, 10.0, 9.956052 
8.55e+2, 2.0477042e+2, -976332.75, -1019435.0, 0.0024910674, 0.00000009390298, 0.000068082714, -976332.75, -43082.86, 0.0, 10.0, 9.943291 
8.55e+2, 2.1471375e+2, -878045.75, -921409.9, 0.0023529415, 0.00000008979468, -0.00012682307, -878045.75, -42240.445, 0.0, 10.0, 9.942949 
8.55e+2, 2.2465037e+2, -789759.6, -843144.9, 0.004706388, 0.000000087495295, 0.0001208845, -789759.6, -51333.344, 0.0, 10.0, 9.929908 
8.55e+2, 2.3458035e+2, -691326.1, -744966.44, 0.0015683953, 0.00000008724547, -0.000088812005, -691326.1, -50213.58, 0.0, 10.0, 9.929577 
8.55e+2, 2.4450338e+2, -603002.06, -667018.75, 0.0019801809, 0.00000008790533, 0.000074715885, -603002.06, -59135.17, 0.0, 10.0, 9.916136 
8.55e+2, 2.5441962e+2, -504249.38, -568343.3, 0.00095835305, 0.00000008964949, -0.00010672966, -504249.38, -57561.832, 0.0, 10.0, 9.916036 
8.55e+2, 2.643288e+2, -416013.97, -490987.88, 0.0020236964, 0.00000008993307, 0.00014059951, -416013.97, -66436.305, 0.0, 10.0, 9.901964 
8.55e+2, 2.742313e+2, -316728.75, -391374.75, 0.0022145072, 0.00000008835534, -0.00020344283, -316728.75, -64195.75, 0.0, 10.0, 9.902385 
8.55e+2, 2.841256e+2, -230255.48, -318081.25, 0.0035810305, 0.00000008741244, 0.00022904392, -230255.48, -74686.52, 0.0, 10.0, 9.885439 
8.55e+2, 2.940121e+2, -130549.35, -217765.0, 0.0019334736, 0.000000087346876, -0.00025334698, -130549.35, -71867.96, 0.0, 10.0, 9.886217 
8.55e+2, 3.0392656e+2, -40805.344, -84750.164, 0.0015313168, 0.00000008769714, 0.00017313276, -40805.344, -40805.344, 0.0, 10.0, 9.942173 
8.55e+2, 3.138706e+2, -39727.332, -82511.21, -0.00062738423, 0.000000088656854, -0.000055141634, -39727.332, -39727.332, 0.0, 10.0, 9.943684 
8.65e+2, 1.2499334e+2, -1719945.9, -1724224.6, 0.002553078, 0.00000009079704, 0.000017622722, -1719945.9, -4880.6895, 0.0, 10.0, 9.994327 
8.65e+2, 1.349876e+2, -1622565.5, -1627434.9, 0.0022967185, 0.00000009807397, -0.00006840564, -1622565.5, -5443.9146, 0.0, 10.0, 9.993545 
8.65e+2, 1.4497514e+2, -1534464.1, -1548146.3, 0.0034751887, 0.000000100635766, 0.00007095371, -1534464.1, -15220.415, 0.0, 10.0, 9.981865 
8.65e+2, 1.5495703e+2, -1436736.4, -1450821.9, 0.00012279363, 0.000000098403326, -0.000056969315, -1436736.4, -15315.2295, 0.0, 10.0, 9.981333 
8.65e+2, 1.6493228e+2, -1348685.4, -1371952.4, 0.0028433995, 0.00000009418409, 0.000047346773, -1348685.4, -25021.729, 0.0, 10.0, 9.969248 
8.65e+2, 1.7490156e+2, -1250727.4, -1274310.1, 0.0021350891, 0.000000087935895, -0.000073814444, -1250727.4, -24762.705, 0.0, 10.0, 9.968834 
8.65e+2, 1.8486421e+2, -1162646.4, -1195720.1, 0.003819343, 0.00000008894003, 0.000066162735, -1162646.4, -34315.758, 0.0, 10.0, 9.956395 
8.65e+2, 1.9482064e+2, -1064496.8, -1097833.0, 0.0028747967, 0.00000009753302, -0.00005764806, -1064496.8, -33739.098, 0.0, 10.0, 9.956052 
8.65e+2, 2.0477042e+2, -976332.75, -1019435.0, 0.0036228215, 0.00000009871105, 0.00006808266, -976332.75, -43082.844, 0.0, 10.0, 9.943291 
8.65e+2, 2.1471375e+2, -878045.7, -921409.9, 0.0009861903, 0.0000000918579, -0.00012682065, -878045.7, -42240.42, 0.0, 10.0, 9.942949 
8.65e+2, 2.2465037e+2, -789759.56, -843144.9, 0.0028766668, 0.00000008848634, 0.00012088684, -789759.56, -51333.316, 0.0, 10.0, 9.929908 
8.65e+2, 2.3458035e+2, -691326.06, -744966.44, 0.0029696513, 0.00000008905867, -0.00008881257, -691326.06, -50213.555, 0.0, 10.0, 9.929577 
8.65e+2, 2.4450338e+2, -603002.0, -667018.75, 0.0043326956, 0.00000009047284, 0.00007471392, -603002.0, -59135.15, 0.0, 10.0, 9.916136 
8.65e+2, 2.5441962e+2, -504249.38, -568343.3, 0.0023797497, 0.00000009288824, -0.000106731204, -504249.38, -57561.813, 0.0, 10.0, 9.916036 
8.65e+2, 2.643288e+2, -416013.97, -490987.88, 0.0026389402, 0.00000009332717, 0.00014059914, -416013.97, -66436.28, 0.0, 10.0, 9.901964 
8.65e+2, 2.742313e+2, -316728.72, -391374.75, 0.00044990692, 0.00000009124854, -0.00020344112, -316728.72, -64195.727, 0.0, 10.0, 9.902385 
8.65e+2, 2.841256e+2, -230255.47, -318081.22, 0.0007947009, 0.00000009013527, 0.00022904614, -230255.47, -74686.5, 0.0, 10.0, 9.885439 
8.65e+2, 2.940121e+2, -130549.33, -217765.0, 0.0004633978, 0.00000009035481, -0.00025334643, -130549.33, -71867.94, 0.0, 10.0, 9.886217 
8.65e+2, 3.0392656e+2, -40805.32, -84750.16, 0.0009881963, 0.00000009036762, 0.00017313242, -40805.32, -40805.32, 0.0, 10.0, 9.942173 
8.65e+2, 3.138706e+2, -39727.305, -82511.21, -0.0010270098, 0.00000009006176, -0.000055141674, -39727.305, -39727.305, 0.0, 10.0, 9.943684 
8.75e+2, 1.2499334e+2, -1719945.9, -1724224.6, -0.0003128285, 0.000000098401536, 0.000017632456, -1719945.9, -4880.691, 0.0, 10.0, 9.994327 
8.75e+2, 1.349876e+2, -1622565.5, -1627434.9, -0.0005698667, 0.000000100975456, -0.00006841642, -1622565.5, -5443.9155, 0.0, 10.0, 9.993545 
8.75e+2, 1.4497514e+2, -1534464.1, -1548146.3, 0.004097965, 0.000000100389215, 0.000070944916, -1534464.1, -15220.423, 0.0, 10.0, 9.981865 
8.75e+2, 1.5495703e+2, -1436736.4, -1450821.9, 0.0007510655, 0.00000009657017, -0.00005695872, -1436736.4, -15315.238, 0.0, 10.0, 9.981333 
8.75e+2, 1.6493228e+2, -1348685.4, -1371952.4, 0.0033466313, 0.00000009503971, 0.000047358364, -1348685.4, -25021.73, 0.0, 10.0, 9.969248 
8.75e+2, 1.7490156e+2, -1250727.4, -1274310.1, 0.0026376357, 0.00000009584599, -0.00007382063, -1250727.4, -24762.707, 0.0, 10.0, 9.968834 
8.75e+2, 1.8486421e+2, -1162646.4, -1195720.1, 0.0015615402, 0.00000009680265, 0.00006615251, -1162646.4, -34315.758, 0.0, 10.0, 9.956395 
8.75e+2, 1.9482064e+2, -1064496.8, -1097833.0, 0.0005849987, 0.00000009791666, -0.00005764795, -1064496.8, -33739.1, 0.0, 10.0, 9.956052 
8.75e+2, 2.0477042e+2, -976332.75, -1019435.0, 0.0052792286, 0.00000009711079, 0.00006808817, -976332.75, -43082.85, 0.0, 10.0, 9.943291 
8.75e+2, 2.1471375e+2, -878045.7, -921409.9, 0.0027240997, 0.000000094225584, -0.00012681511, -878045.7, -42240.43, 0.0, 10.0, 9.942949 
8.75e+2, 2.2465037e+2, -789759.56, -843144.9, 0.0026999374, 0.00000009300449, 0.00012089048, -789759.56, -51333.32, 0.0, 10.0, 9.929908 
8.75e+2, 2.3458035e+2, -691326.06, -744966.44, 0.0027302732, 0.000000093667765, -0.00008881303, -691326.06, -50213.555, 0.0, 10.0, 9.929577 
8.75e+2, 2.4450338e+2, -603002.06, -667018.75, 0.0036251273, 0.00000009407928, 0.000074710755, -603002.06, -59135.152, 0.0, 10.0, 9.916136 
8.75e+2, 2.5441962e+2, -504249.38, -568343.3, 0.0016496826, 0.00000009418802, -0.0001067354, -504249.38, -57561.816, 0.0, 10.0, 9.916036 
8.75e+2, 2.643288e+2, -416013.97, -490987.88, 0.0030666783, 0.000000094100606, 0.00014059631, -416013.97, -66436.29, 0.0, 10.0, 9.901964 
8.75e+2, 2.742313e+2, -316728.72, -391374.75, 0.0009552834, 0.00000009376429, -0.0002034395, -316728.72, -64195.734, 0.0, 10.0, 9.902385 
8.75e+2, 2.841256e+2, -230255.47, -318081.25, 0.0011125075, 0.00000009372324, 0.000229051, -230255.47, -74686.5, 0.0, 10.0, 9.885439 
8.75e+2, 2.940121e+2, -130549.336, -217765.0, 0.0007643187, 0.00000009408741, -0.00025333994, -130549.336, -71867.945, 0.0, 10.0, 9.886217 
8.75e+2, 3.0392656e+2, -40805.324, -84750.164, 0.0018256401, 0.000000093527106, 0.0001731361, -40805.324, -40805.324, 0.0, 10.0, 9.942173 
8.75e+2, 3.138706e+2, -39727.31, -82511.22, -0.00012655057, 0.00000009159107, -0.000055147382, -39727.31, -39727.31, 0.0, 10.0, 9.943684 
8.85e+2, 1.2499334e+2, -1719945.9, -1724224.6, -0.00083448045, 0.00000010619964, 0.000017633702, -1719945.9, -4880.684, 0.0, 10.0, 9.994327 
8.85e+2, 1.349876e+2, -1622565.4, -1627434.9, -0.0013986081, 0.0000001024924, -0.00006841571, -1622565.4, -5443.8857, 0.0, 10.0, 9.993545 
8.85e+2, 1.4497514e+2, -1534464.0, -1548146.3, 0.003500861, 0.000000099561, 0.00007094743, -1534464.0, -15220.391, 0.0, 10.0, 9.981864 
8.85e+2, 1.5495703e+2, -1436736.4, -1450821.9, 0.00064904033, 0.000000097354, -0.00005695732, -1436736.4, -15315.212, 0.0, 10.0, 9.981333 
8.85e+2, 1.6493228e+2, -1348685.4, -1371952.4, 0.0031135182, 0.00000009838342, 0.00004735862, -1348685.4, -25021.707, 0.0, 10.0, 9.969248 
8.85e+2, 1.7490156e+2, -1250727.4, -1274310.1, 0.0033328172, 0.00000010271758, -0.00007382156, -1250727.4, -24762.695, 0.0, 10.0, 9.968834 
8.85e+2, 1.8486421e+2, -1162646.4, -1195720.1, 0.0028803549, 0.000000102539865, 0.00006615199, -1162646.4, -34315.746, 0.0, 10.0, 9.956395 
8.85e+2, 1.9482064e+2, -1064496.6, -1097833.0, -0.000046082532, 0.00000009764086, -0.000057646404, -1064496.6, -33739.07, 0.0, 10.0, 9.956052 
8.85e+2, 2.0477042e+2, -976332.7, -1019435.0, 0.003951306, 0.00000009588294, 0.00006809001, -976332.7, -43082.816, 0.0, 10.0, 9.943291 
8.85e+2, 2.1471375e+2, -878045.7, -921409.9, 0.0028369762, 0.00000009752721, -0.00012681489, -878045.7, -42240.41, 0.0, 10.0, 9.942949 
8.85e+2, 2.2465037e+2, -789759.56, -843144.9, 0.0029135623, 0.00000009832572, 0.00012089039, -789759.56, -51333.305, 0.0, 10.0, 9.929908 
8.85e+2, 2.3458035e+2, -691326.06, -744966.44, 0.0013177106, 0.00000009816552, -0.00008881193, -691326.06, -50213.535, 0.0, 10.0, 9.929577 
8.85e+2, 2.4450338e+2, -603002.0, -667018.75, 0.002222925, 0.00000009736196, 0.00007471196, -603002.0, -59135.133, 0.0, 10.0, 9.916136 
8.85e+2, 2.5441962e+2, -504249.34, -568343.3, 0.0016310248, 0.0000000957909, -0.000106735366, -504249.34, -57561.79, 0.0, 10.0, 9.916036 
8.85e+2, 2.643288e+2, -416013.94, -490987.88, 0.003708393, 0.00000009538655, 0.00014059556, -416013.94, -66436.26, 0.0, 10.0, 9.901964 
8.85e+2, 2.742313e+2, -316728.72, -391374.75, 0.0018925926, 0.00000009646868, -0.00020344056, -316728.72, -64195.71, 0.0, 10.0, 9.902385 
8.85e+2, 2.841256e+2, -230255.45, -318081.22, 0.0016992984, 0.000000097004616, 0.00022905067, -230255.45, -74686.484, 0.0, 10.0, 9.885439 
8.85e+2, 2.940121e+2, -130549.31, -217765.0, -0.0006645342, 0.00000009678612, -0.00025333813, -130549.31, -71867.92, 0.0, 10.0, 9.886217 
8.85e+2, 3.0392656e+2, -40805.3, -84750.16, 0.00038731663, 0.000000096243255, 0.00017313774, -40805.3, -40805.3, 0.0, 10.0, 9.942173 
8.85e+2, 3.138706e+2, -39727.293, -82511.21, 0.0009481665, 0.00000009522605, -0.000055149292, -39727.293, -39727.293, 0.0, 10.0, 9.943684 
8.95e+2, 1.2499334e+2, -1719945.9, -1724224.6, 0.0016351274, 0.00000011419135, 0.000017626462, -1719945.9, -4880.686, 0.0, 10.0, 9.994327 
8.95e+2, 1.349876e+2, -1622565.4, -1627434.9, 0.001071681, 0.00000010262481, -0.00006840354, -1622565.4, -5443.8877, 0.0, 10.0, 9.993545 
8.95e+2, 1.4497514e+2, -1534464.0, -1548146.3, 0.002763358, 0.00000009815112, 0.000070961265, -1534464.0, -15220.398, 0.0, 10.0, 9.981864 
8.95e+2, 1.5495703e+2, -1436736.4, -1450821.9, -0.0000935772, 0.00000010075481, -0.00005696511, -1436736.4, -15315.219, 0.0, 10.0, 9.981333 
8.95e+2, 1.6493228e+2, -1348685.4, -1371952.4, 0.0008098459, 0.00000010421519, 0.000047347534, -1348685.4, -25021.707, 0.0, 10.0, 9.969248 
8.95e+2, 1.7490156e+2, -1250727.4, -1274310.1, 0.0010208666, 0.000000108550644, -0.00007381722, -1250727.4, -24762.695, 0.0, 10.0, 9.968834 
8.95e+2, 1.8486421e+2, -1162646.4, -1195720.1, 0.0055297622, 0.00000010615168, 0.00006616118, -1162646.4, -34315.754, 0.0, 10.0, 9.956395 
8.95e+2, 1.9482064e+2, -1064496.6, -1097833.0, 0.0026607586, 0.000000096705605, -0.000057643425, -1064496.6, -33739.074, 0.0, 10.0, 9.956052 
8.95e+2, 2.0477042e+2, -976332.7, -1019435.0, 0.0019782046, 0.0000000950275, 0.00006808818, -976332.7, -43082.816, 0.0, 10.0, 9.943291 
8.95e+2, 2.1471375e+2, -878045.7, -921409.9, 0.0007671961, 0.00000010176279, -0.00012682001, -878045.7, -42240.41, 0.0, 10.0, 9.942949 
8.95e+2, 2.2465037e+2, -789759.56, -843144.9, 0.0029439875, 0.00000010445003, 0.000120886565, -789759.56, -51333.31, 0.0, 10.0, 9.929908 
8.95e+2, 2.3458035e+2, -691326.06, -744966.44, 0.0014168362, 0.000000102551944, -0.000088809276, -691326.06, -50213.54, 0.0, 10.0, 9.929577 
8.95e+2, 2.4450338e+2, -603002.0, -667018.75, 0.003349525, 0.000000100320875, 0.00007471755, -603002.0, -59135.137, 0.0, 10.0, 9.916136 
8.95e+2, 2.5441962e+2, -504249.34, -568343.3, 0.0028070032, 0.00000009769691, -0.0001067311, -504249.34, -57561.79, 0.0, 10.0, 9.916036 
8.95e+2, 2.643288e+2, -416013.94, -490987.88, 0.0032317024, 0.00000009718501, 0.00014059685, -416013.94, -66436.266, 0.0, 10.0, 9.901964 
8.95e+2, 2.742313e+2, -316728.72, -391374.78, 0.0013051085, 0.000000099361706, -0.0002034443, -316728.72, -64195.715, 0.0, 10.0, 9.902385 
8.95e+2, 2.841256e+2, -230255.45, -318081.25, 0.0019592966, 0.00000009997941, 0.00022904514, -230255.45, -74686.484, 0.0, 10.0, 9.885439 
8.95e+2, 2.940121e+2, -130549.31, -217765.0, -0.00032815192, 0.00000009845093, -0.00025334102, -130549.31, -71867.92, 0.0, 10.0, 9.886217 
8.95e+2, 3.0392656e+2, -40805.3, -84750.16, 0.0005505512, 0.000000098516075, 0.00017313735, -40805.3, -40805.3, 0.0, 10.0, 9.942173 
8.95e+2, 3.138706e+2, -39727.29, -82511.21, 0.0010911031, 0.000000100966695, -0.000055147408, -39727.29, -39727.29, 0.0, 10.0, 9.943684 
9.05e+2, 1.2499334e+2, -1719945.9, -1724224.6, 0.0036792664, 0.00000011466406, 0.000017625305, -1719945.9, -4880.65, 0.0, 10.0, 9.994327 
9.05e+2, 1.349876e+2, -1622565.4, -1627434.9, -0.0010625154, 0.00000010595809, -0.00006839921, -1622565.4, -5443.8667, 0.0, 10.0, 9.993545 
9.05e+2, 1.4497514e+2, -1534464.0, -1548146.3, -0.0002751574, 0.00000010322744, 0.000070966846, -1534464.0, -15220.38, 0.0, 10.0, 9.981864 
9.05e+2, 1.5495703e+2, -1436736.4, -1450821.9, 0.0023753524, 0.000000106447324, -0.000056968027, -1436736.4, -15315.201, 0.0, 10.0, 9.981333 
9.05e+2, 1.6493228e+2, -1348685.4, -1371952.4, 0.0037849934, 0.00000010832355, 0.000047343572, -1348685.4, -25021.688, 0.0, 10.0, 9.969248 
9.05e+2, 1.7490156e+2, -1250727.4, -1274310.1, -0.0010448574, 0.00000010882802, -0.00007381462, -1250727.4, -24762.662, 0.0, 10.0, 9.968834 
9.05e+2, 1.8486421e+2, -1162646.4, -1195720.1, 0.0036137842, 0.00000010661123, 0.000066165354, -1162646.4, -34315.72, 0.0, 10.0, 9.956395 
9.05e+2, 1.9482064e+2, -1064496.6, -1097833.0, 0.0037372739, 0.000000101546725, -0.000057642897, -1064496.6, -33739.06, 0.0, 10.0, 9.956052 
9.05e+2, 2.0477042e+2, -976332.7, -1019435.0, 0.003325587, 0.000000100775964, 0.000068086825, -976332.7, -43082.805, 0.0, 10.0, 9.943291 
9.05e+2, 2.1471375e+2, -878045.7, -921409.9, 0.0022639844, 0.00000010465561, -0.00012682134, -878045.7, -42240.387, 0.0, 10.0, 9.942949 
9.05e+2, 2.2465037e+2, -789759.56, -843144.9, 0.004884064, 0.000000106030775, 0.00012088555, -789759.56, -51333.277, 0.0, 10.0, 9.929908 
9.05e+2, 2.3458035e+2, -691326.06, -744966.44, 0.002462866, 0.00000010456923, -0.00008880969, -691326.06, -50213.51, 0.0, 10.0, 9.929577 
9.05e+2, 2.4450338e+2, -603002.0, -667018.75, 0.0034390953, 0.00000010315735, 0.000074718046, -603002.0, -59135.11, 0.0, 10.0, 9.916136 
9.05e+2, 2.5441962e+2, -504249.3, -568343.3, 0.0013066729, 0.00000010180775, -0.000106729334, -504249.3, -57561.77, 0.0, 10.0, 9.916036 
9.05e+2, 2.643288e+2, -416013.9, -490987.88, 0.0013881449, 0.000000101336894, 0.00014059858, -416013.9, -66436.24, 0.0, 10.0, 9.901964 
9.05e+2, 2.742313e+2, -316728.7, -391374.75, 0.0011817997, 0.00000010198405, -0.0002034443, -316728.7, -64195.688, 0.0, 10.0, 9.902385 
9.05e+2, 2.841256e+2, -230255.42, -318081.22, 0.00339097, 0.000000102017005, 0.00022904364, -230255.42, -74686.46, 0.0, 10.0, 9.885439 
9.05e+2, 2.940121e+2, -130549.29, -217765.0, 0.002202665, 0.00000010120401, -0.0002533437, -130549.29, -71867.9, 0.0, 10.0, 9.886217 
9.05e+2, 3.0392656e+2, -40805.277, -84750.15, 0.0019585565, 0.000000101631024, 0.00017313569, -40805.277, -40805.277, 0.0, 10.0, 9.942173 
9.05e+2, 3.138706e+2, -39727.266, -82511.2, -0.0015764959, 0.00000010390651, -0.000055144872, -39727.266, -39727.266, 0.0, 10.0, 9.943684 
9.15e+2, 1.2499334e+2, -1719945.9, -1724224.6, 0.0026210004, 0.00000010761779, 0.00001763023, -1719945.9, -4880.6616, 0.0, 10.0, 9.994327 
9.15e+2, 1.349876e+2, -1622565.4, -1627434.9, -0.0021210727, 0.00000011249221, -0.00006840274, -1622565.4, -5443.8784, 0.0, 10.0, 9.993545 
9.15e+2, 1.4497514e+2, -1534464.0, -1548146.3, -0.0012121231, 0.000000114789934, 0.000070964175, -1534464.0, -15220.374, 0.0, 10.0, 9.981864 
9.15e+2, 1.5495703e+2, -1436736.4, -1450821.9, 0.0014385208, 0.00000011443152, -0.000056966066, -1436736.4, -15315.195, 0.0, 10.0, 9.981333 
9.15e+2, 1.6493228e+2, -1348685.4, -1371952.4, 0.004813716, 0.000000110708505, 0.000047346733, -1348685.4, -25021.7, 0.0, 10.0, 9.969248 
9.15e+2, 1.7490156e+2, -1250727.4, -1274310.1, -0.0000057890206, 0.00000010354973, -0.00007381375, -1250727.4, -24762.674, 0.0, 10.0, 9.968834 
9.15e+2, 1.8486421e+2, -1162646.4, -1195720.1, 0.0022575029, 0.00000010391853, 0.00006616451, -1162646.4, -34315.72, 0.0, 10.0, 9.956395 
9.15e+2, 1.9482064e+2, -1064496.6, -1097833.0, 0.002353231, 0.00000011216419, -0.000057644822, -1064496.6, -33739.06, 0.0, 10.0, 9.956052 
9.15e+2, 2.0477042e+2, -976332.7, -1019435.0, 0.0038858051, 0.0000001131283, 0.00006808595, -976332.7, -43082.81, 0.0, 10.0, 9.943291 
9.15e+2, 2.1471375e+2, -878045.7, -921409.9, 0.0028643366, 0.00000010620568, -0.00012681886, -878045.7, -42240.39, 0.0, 10.0, 9.942949 
9.15e+2, 2.2465037e+2, -789759.56, -843144.9, 0.0049332185, 0.00000010306797, 0.00012088733, -789759.56, -51333.285, 0.0, 10.0, 9.929908 
9.15e+2, 2.3458035e+2, -691326.06, -744966.44, 0.0024939862, 0.0000001042174, -0.00008881318, -691326.06, -50213.52, 0.0, 10.0, 9.929577 
9.15e+2, 2.4450338e+2, -603002.0, -667018.75, 0.0029896249, 0.00000010587137, 0.00007471345, -603002.0, -59135.113, 0.0, 10.0, 9.916136 
9.15e+2, 2.5441962e+2, -504249.3, -568343.3, 0.00083410955, 0.000000108123395, -0.000106730055, -504249.3, -57561.773, 0.0, 10.0, 9.916036 
9.15e+2, 2.643288e+2, -416013.9, -490987.88, 0.0021677576, 0.00000010784218, 0.00014060074, -416013.9, -66436.24, 0.0, 10.0, 9.901964 
9.15e+2, 2.742313e+2, -316728.7, -391374.75, 0.002045374, 0.000000104335726, -0.00020344059, -316728.7, -64195.69, 0.0, 10.0, 9.902385 
9.15e+2, 2.841256e+2, -230255.42, -318081.25, 0.003579693, 0.00000010311739, 0.00022904616, -230255.42, -74686.46, 0.0, 10.0, 9.885439 
9.15e+2, 2.940121e+2, -130549.3, -217765.0, 0.0023306045, 0.000000105045345, -0.00025334614, -130549.3, -71867.9, 0.0, 10.0, 9.886217 
9.15e+2, 3.0392656e+2, -40805.285, -84750.164, 0.0020500608, 0.00000010558809, 0.00017313274, -40805.285, -40805.285, 0.0, 10.0, 9.942173 
9.15e+2, 3.138706e+2, -39727.273, -82511.22, -0.0014892331, 0.00000010404549, -0.000055141685, -39727.273, -39727.273, 0.0, 10.0, 9.943684 
9.25e+2, 1.2499335e+2, -1719945.9, -1724224.6, 0.0014849411, 0.000000108706196, 0.000017634551, -1719945.9, -4880.6313, 0.0, 10.0, 9.994327 
9.25e+2, 1.349876e+2, -1622565.4, -1627434.9, 0.0030610547, 0.00000011737364, -0.00006840943, -1622565.4, -5443.8564, 0.0, 10.0, 9.993545 
9.25e+2, 1.4497514e+2, -1534464.0, -1548146.3, 0.004838691, 0.00000012040786, 0.000070959366, -1534464.0, -15220.354, 0.0, 10.0, 9.981864 
9.25e+2, 1.5495703e+2, -1436736.3, -1450821.9, -0.0008708085, 0.000000117707785, -0.000056961617, -1436736.3, -15315.168, 0.0, 10.0, 9.981333 
9.25e+2, 1.6493228e+2, -1348685.4, -1371952.4, 0.0021073567, 0.000000112937315, 0.00004735239, -1348685.4, -25021.67, 0.0, 10.0, 9.969248 
9.25e+2, 1.7490156e+2, -1250727.4, -1274310.1, 0.0032491551, 0.00000010605249, -0.0000738151, -1250727.4, -24762.648, 0.0, 10.0, 9.968834 
9.25e+2, 1.8486421e+2, -1162646.4, -1195720.1, 0.0048884503, 0.000000107063435, 0.00006616113, -1162646.4, -34315.695, 0.0, 10.0, 9.956395 
9.25e+2, 1.9482064e+2, -1064496.6, -1097833.0, 0.0018573104, 0.00000011633655, -0.000057645055, -1064496.6, -33739.035, 0.0, 10.0, 9.956052 
9.25e+2, 2.0477042e+2, -976332.7, -1019435.0, 0.0034680574, 0.00000011729625, 0.00006808764, -976332.7, -43082.78, 0.0, 10.0, 9.943291 
9.25e+2, 2.1471375e+2, -878045.6, -921409.9, 0.0012738586, 0.00000010925163, -0.0001268166, -878045.6, -42240.363, 0.0, 10.0, 9.942949 
9.25e+2, 2.2465037e+2, -789759.5, -843144.9, 0.0026697544, 0.00000010566445, 0.00012088915, -789759.5, -51333.258, 0.0, 10.0, 9.929908 
9.25e+2, 2.3458035e+2, -691326.0, -744966.44, 0.0021640887, 0.00000010712611, -0.00008881296, -691326.0, -50213.492, 0.0, 10.0, 9.929576 
9.25e+2, 2.4450338e+2, -603001.94, -667018.75, 0.0038976197, 0.00000010891767, 0.00007471258, -603001.94, -59135.09, 0.0, 10.0, 9.916136 
9.25e+2, 2.5441962e+2, -504249.3, -568343.3, 0.0023360841, 0.00000011109783, -0.0001067314, -504249.3, -57561.75, 0.0, 10.0, 9.916036 
9.25e+2, 2.643288e+2, -416013.88, -490987.88, 0.0035184042, 0.00000011091729, 0.00014060001, -416013.88, -66436.22, 0.0, 10.0, 9.901964 
9.25e+2, 2.742313e+2, -316728.66, -391374.75, 0.0006492764, 0.00000010773158, -0.0002034393, -316728.66, -64195.664, 0.0, 10.0, 9.902385 
9.25e+2, 2.841256e+2, -230255.4, -318081.22, 0.00031217345, 0.00000010665708, 0.00022904844, -230255.4, -74686.44, 0.0, 10.0, 9.885439 
9.25e+2, 2.940121e+2, -130549.266, -217765.0, -0.0007653549, 0.000000108485786, -0.00025334427, -130549.266, -71867.875, 0.0, 10.0, 9.886217 
9.25e+2, 3.0392656e+2, -40805.26, -84750.16, 0.00069644384, 0.00000010868857, 0.00017313323, -40805.26, -40805.26, 0.0, 10.0, 9.942173 
9.25e+2, 3.138706e+2, -39727.246, -82511.21, 0.00032885655, 0.000000106451076, -0.000055143937, -39727.246, -39727.246, 0.0, 10.0, 9.943684 
9.35e+2, 1.2499335e+2, -1719945.9, -1724224.6, -0.0015146139, 0.000000117929254, 0.000017638271, -1719945.9, -4880.6284, 0.0, 10.0, 9.994327 
9.35e+2, 1.349876e+2, -1622565.4, -1627434.9, 0.00006075387, 0.00000012060238, -0.00006841929, -1622565.4, -5443.8535, 0.0, 10.0, 9.993545 
9.35e+2, 1.4497514e+2, -1534464.0, -1548146.3, 0.005404141, 0.00000012008127, 0.000070952425, -1534464.0, -15220.367, 0.0, 10.0, 9.981864 
9.35e+2, 1.5495703e+2, -1436736.4, -1450821.9, -0.0002997463, 0.000000116276134, -0.000056954686, -1436736.4, -15315.182, 0.0, 10.0, 9.981333 
9.35e+2, 1.6493228e+2, -1348685.4, -1371952.4, 0.0025060824, 0.00000011500999, 0.000047360543, -1348685.4, -25021.668, 0.0, 10.0, 9.969248 
9.35e+2, 1.7490156e+2, -1250727.4, -1274310.1, 0.0036469328, 0.00000011633626, -0.00007381865, -1250727.4, -24762.646, 0.0, 10.0, 9.968834 
9.35e+2, 1.8486421e+2, -1162646.4, -1195720.1, 0.0033451512, 0.00000011604591, 0.000066155204, -1162646.4, -34315.703, 0.0, 10.0, 9.956395 
9.35e+2, 1.9482064e+2, -1064496.6, -1097833.0, 0.00029150015, 0.00000011406384, -0.000057643596, -1064496.6, -33739.043, 0.0, 10.0, 9.956052 
9.35e+2, 2.0477042e+2, -976332.7, -1019435.0, 0.0045146346, 0.000000113279846, 0.00006809188, -976332.7, -43082.79, 0.0, 10.0, 9.943291 
9.35e+2, 2.1471375e+2, -878045.6, -921409.9, 0.0023743853, 0.00000011379344, -0.00012681456, -878045.6, -42240.367, 0.0, 10.0, 9.942949 
9.35e+2, 2.2465037e+2, -789759.5, -843144.9, 0.002443655, 0.0000001138202, 0.000120891, -789759.5, -51333.258, 0.0, 10.0, 9.929908 
9.35e+2, 2.3458035e+2, -691326.0, -744966.44, 0.0018945738, 0.00000011329535, -0.000088809014, -691326.0, -50213.492, 0.0, 10.0, 9.929576 
9.35e+2, 2.4450338e+2, -603002.0, -667018.75, 0.0038937628, 0.00000011229623, 0.000074715455, -603002.0, -59135.094, 0.0, 10.0, 9.916136 
9.35e+2, 2.5441962e+2, -504249.3, -568343.3, 0.0023449967, 0.00000011073109, -0.00010673337, -504249.3, -57561.754, 0.0, 10.0, 9.916036 
9.35e+2, 2.643288e+2, -416013.9, -490987.88, 0.0037522535, 0.00000011056224, 0.0001405964, -416013.9, -66436.23, 0.0, 10.0, 9.901964 
9.35e+2, 2.742313e+2, -316728.66, -391374.75, 0.00089822523, 0.00000011217163, -0.00020344042, -316728.66, -64195.67, 0.0, 10.0, 9.902385 
9.35e+2, 2.841256e+2, -230255.4, -318081.25, 0.00058697304, 0.00000011263608, 0.00022905048, -230255.4, -74686.445, 0.0, 10.0, 9.885439 
9.35e+2, 2.940121e+2, -130549.27, -217765.0, -0.0004882058, 0.000000111525324, -0.00025333813, -130549.27, -71867.88, 0.0, 10.0, 9.886217 
9.35e+2, 3.0392656e+2, -40805.26, -84750.164, 0.0016478797, 0.00000011093244, 0.00017313714, -40805.26, -40805.26, 0.0, 10.0, 9.942173 
9.35e+2, 3.138706e+2, -39727.246, -82511.21, 0.0013594906, 0.000000111123235, -0.000055151624, -39727.246, -39727.246, 0.0, 10.0, 9.943684 
9.45e+2, 1.2499335e+2, -1719945.9, -1724224.6, 0.0016180574, 0.00000012682725, 0.00001763658, -1719945.9, -4880.617, 0.0, 10.0, 9.994327 
9.45e+2, 1.349876e+2, -1622565.4, -1627434.9, -0.0019792765, 0.00000012238893, -0.0000684171, -1622565.4, -5443.819, 0.0, 10.0, 9.993545 
9.45e+2, 1.4497514e+2, -1534464.0, -1548146.3, 0.0031562045, 0.00000011933925, 0.0000709567, -1534464.0, -15220.329, 0.0, 10.0, 9.981864 
9.45e+2, 1.5495703e+2, -1436736.3, -1450821.9, 0.0021787647, 0.00000011761363, -0.00005695584, -1436736.3, -15315.15, 0.0, 10.0, 9.981333 
9.45e+2, 1.6493228e+2, -1348685.4, -1371952.4, 0.0047622295, 0.000000118895905, 0.0000473585, -1348685.4, -25021.64, 0.0, 10.0, 9.969248 
9.45e+2, 1.7490156e+2, -1250727.3, -1274310.1, 0.0018497903, 0.0000001232496, -0.000073816955, -1250727.3, -24762.627, 0.0, 10.0, 9.968834 
9.45e+2, 1.8486421e+2, -1162646.4, -1195720.1, 0.0016346202, 0.00000012192734, 0.00006615787, -1162646.4, -34315.684, 0.0, 10.0, 9.956395 
9.45e+2, 1.9482064e+2, -1064496.6, -1097833.0, 0.0004900477, 0.000000114665625, -0.00005764286, -1064496.6, -33739.008, 0.0, 10.0, 9.956052 
9.45e+2, 2.0477042e+2, -976332.6, -1019435.0, 0.004921047, 0.00000011319483, 0.00006809159, -976332.6, -43082.75, 0.0, 10.0, 9.943291 
9.45e+2, 2.1471375e+2, -878045.6, -921409.9, 0.0031906895, 0.00000011799614, -0.00012681488, -878045.6, -42240.344, 0.0, 10.0, 9.942949 
9.45e+2, 2.2465037e+2, -789759.5, -843144.9, 0.0034600971, 0.00000011956558, 0.00012089107, -789759.5, -51333.24, 0.0, 10.0, 9.929908 
9.45e+2, 2.3458035e+2, -691326.0, -744966.44, 0.0011843308, 0.000000117474386, -0.00008880808, -691326.0, -50213.47, 0.0, 10.0, 9.929576 
9.45e+2, 2.4450338e+2, -603001.94, -667018.75, 0.0023405869, 0.00000011532571, 0.000074716736, -603001.94, -59135.066, 0.0, 10.0, 9.916136 
9.45e+2, 2.5441962e+2, -504249.28, -568343.3, 0.0009119147, 0.00000011311217, -0.000106732376, -504249.28, -57561.723, 0.0, 10.0, 9.916036 
9.45e+2, 2.643288e+2, -416013.88, -490987.88, 0.002863389, 0.000000113092796, 0.00014059657, -416013.88, -66436.195, 0.0, 10.0, 9.901964 
9.45e+2, 2.742313e+2, -316728.66, -391374.75, 0.0020516908, 0.0000001158658, -0.00020344174, -316728.66, -64195.645, 0.0, 10.0, 9.902385 
9.45e+2, 2.841256e+2, -230255.38, -318081.22, 0.0029971923, 0.00000011661819, 0.00022904886, -230255.38, -74686.414, 0.0, 10.0, 9.885439 
9.45e+2, 2.940121e+2, -130549.24, -217765.0, 0.0005622317, 0.00000011459223, -0.0002533384, -130549.24, -71867.85, 0.0, 10.0, 9.886217 
9.45e+2, 3.0392656e+2, -40805.234, -84750.15, 0.0012649471, 0.00000011388056, 0.0001731377, -40805.234, -40805.234, 0.0, 10.0, 9.942173 
9.45e+2, 3.138706e+2, -39727.223, -82511.2, -0.00017236765, 0.00000011514601, -0.000055151017, -39727.223, -39727.223, 0.0, 10.0, 9.943684 
9.55e+2, 1.2499335e+2, -1719945.9, -1724224.6, 0.004167315, 0.00000013540019, 0.000017629478, -1719945.9, -4880.6265, 0.0, 10.0, 9.994327 
9.55e+2, 1.349876e+2, -1622565.4, -1627434.9, 0.00057063694, 0.0000001227333, -0.00006840287, -1622565.4, -5443.828, 0.0, 10.0, 9.993545 
9.55e+2, 1.4497514e+2, -1534464.0, -1548146.3, 0.0022229326, 0.00000011818182, 0.000070972186, -1534464.0, -15220.332, 0.0, 10.0, 9.981864 
9.55e+2, 1.5495703e+2, -1436736.3, -1450821.9, 0.0012399274, 0.00000012172026, -0.000056965077, -1436736.3, -15315.153, 0.0, 10.0, 9.981333 
9.55e+2, 1.6493228e+2, -1348685.4, -1371952.4, 0.0027583444, 0.00000012459506, 0.000047346264, -1348685.4, -25021.646, 0.0, 10.0, 9.969248 
9.55e+2, 1.7490156e+2, -1250727.4, -1274310.1, -0.00015975848, 0.00000012679253, -0.000073810006, -1250727.4, -24762.635, 0.0, 10.0, 9.968834 
9.55e+2, 1.8486421e+2, -1162646.4, -1195720.1, 0.0040449216, 0.00000012470777, 0.00006616912, -1162646.4, -34315.688, 0.0, 10.0, 9.956395 
9.55e+2, 1.9482064e+2, -1064496.6, -1097833.0, 0.0029515047, 0.00000011814189, -0.00005764285, -1064496.6, -33739.008, 0.0, 10.0, 9.956052 
9.55e+2, 2.0477042e+2, -976332.6, -1019435.0, 0.0027983545, 0.000000117041196, 0.00006808678, -976332.6, -43082.754, 0.0, 10.0, 9.943291 
9.55e+2, 2.1471375e+2, -878045.6, -921409.9, 0.0009732896, 0.00000012185971, -0.00012681757, -878045.6, -42240.348, 0.0, 10.0, 9.942949 
9.55e+2, 2.2465037e+2, -789759.5, -843144.9, 0.004148689, 0.00000012290063, 0.00012088935, -789759.5, -51333.246, 0.0, 10.0, 9.929908 
9.55e+2, 2.3458035e+2, -691326.0, -744966.44, 0.0019679875, 0.00000011966323, -0.00008881016, -691326.0, -50213.477, 0.0, 10.0, 9.929576 
9.55e+2, 2.4450338e+2, -603001.94, -667018.75, 0.0029853235, 0.00000011800612, 0.000074716416, -603001.94, -59135.07, 0.0, 10.0, 9.916136 
9.55e+2, 2.5441962e+2, -504249.28, -568343.3, 0.0015499785, 0.00000011824109, -0.00010672841, -504249.28, -57561.727, 0.0, 10.0, 9.916036 
9.55e+2, 2.643288e+2, -416013.88, -490987.88, 0.0024186336, 0.00000011850895, 0.00014060055, -416013.88, -66436.195, 0.0, 10.0, 9.901964 
9.55e+2, 2.742313e+2, -316728.66, -391374.75, 0.0015343474, 0.00000011881411, -0.00020344324, -316728.66, -64195.65, 0.0, 10.0, 9.902385 
9.55e+2, 2.841256e+2, -230255.39, -318081.25, 0.0037505596, 0.00000011860341, 0.0002290436, -230255.39, -74686.42, 0.0, 10.0, 9.885438 
9.55e+2, 2.940121e+2, -130549.25, -217765.0, 0.001430126, 0.0000001176865, -0.00025334512, -130549.25, -71867.86, 0.0, 10.0, 9.886217 
9.55e+2, 3.0392656e+2, -40805.24, -84750.16, 0.0012069569, 0.00000011753292, 0.00017313489, -40805.24, -40805.24, 0.0, 10.0, 9.942173 
9.55e+2, 3.138706e+2, -39727.227, -82511.21, -0.0003390156, 0.000000118519395, -0.000055142114, -39727.227, -39727.227, 0.0, 10.0, 9.943684 
9.65e+2, 1.2499335e+2, -1719945.9, -1724224.6, 0.001387615, 0.00000013678144, 0.000017632568, -1719945.9, -4880.5864, 0.0, 10.0, 9.994327 
9.65e+2, 1.349876e+2, -1622565.4, -1627434.9, -0.00084666675, 0.00000012697821, -0.000068399735, -1622565.4, -5443.8027, 0.0, 10.0, 9.993545 
9.65e+2, 1.4497514e+2, -1534464.0, -1548146.3, 0.0003401775, 0.00000012382672, 0.00007097626, -1534464.0, -15220.308, 0.0, 10.0, 9.981864 
9.65e+2, 1.5495703e+2, -1436736.3, -1450821.9, 0.00038694756, 0.00000012728995, -0.000056964906, -1436736.3, -15315.129, 0.0, 10.0, 9.981333 
9.65e+2, 1.6493228e+2, -1348685.3, -1371952.4, 0.002769116, 0.00000012862235, 0.000047345256, -1348685.3, -25021.621, 0.0, 10.0, 9.969248 
9.65e+2, 1.7490156e+2, -1250727.3, -1274310.1, 0.00008768514, 0.00000012777913, -0.00007380941, -1250727.3, -24762.598, 0.0, 10.0, 9.968834 
9.65e+2, 1.8486421e+2, -1162646.4, -1195720.1, 0.0051414217, 0.00000012637726, 0.00006617037, -1162646.4, -34315.65, 0.0, 10.0, 9.956395 
9.65e+2, 1.9482064e+2, -1064496.6, -1097833.0, 0.0036124643, 0.00000012439065, -0.00005764197, -1064496.6, -33738.992, 0.0, 10.0, 9.956052 
9.65e+2, 2.0477042e+2, -976332.6, -1019435.0, 0.0026610994, 0.00000012364936, 0.00006808712, -976332.6, -43082.74, 0.0, 10.0, 9.943291 
9.65e+2, 2.1471375e+2, -878045.56, -921409.9, 0.0010437921, 0.00000012425674, -0.00012681792, -878045.56, -42240.316, 0.0, 10.0, 9.942949 
9.65e+2, 2.2465037e+2, -789759.5, -843144.9, 0.0048961644, 0.00000012397977, 0.000120888864, -789759.5, -51333.207, 0.0, 10.0, 9.929908 
9.65e+2, 2.3458035e+2, -691326.0, -744966.44, 0.0030130786, 0.00000012270117, -0.00008881012, -691326.0, -50213.445, 0.0, 10.0, 9.929576 
9.65e+2, 2.4450338e+2, -603001.94, -667018.75, 0.0040257876, 0.00000012237051, 0.00007471659, -603001.94, -59135.043, 0.0, 10.0, 9.916136 
9.65e+2, 2.5441962e+2, -504249.25, -568343.3, 0.0020632423, 0.00000012317318, -0.000106728556, -504249.25, -57561.703, 0.0, 10.0, 9.916036 
9.65e+2, 2.643288e+2, -416013.84, -490987.88, 0.0022811487, 0.00000012293955, 0.0001406006, -416013.84, -66436.17, 0.0, 10.0, 9.901964 
9.65e+2, 2.742313e+2, -316728.63, -391374.75, 0.00022350978, 0.00000012138435, -0.0002034423, -316728.63, -64195.617, 0.0, 10.0, 9.902385 
9.65e+2, 2.841256e+2, -230255.36, -318081.22, 0.002194717, 0.00000012073968, 0.00022904447, -230255.36, -74686.39, 0.0, 10.0, 9.885438 
9.65e+2, 2.940121e+2, -130549.22, -217765.0, 0.000969248, 0.00000012134716, -0.0002533456, -130549.22, -71867.83, 0.0, 10.0, 9.886217 
9.65e+2, 3.0392656e+2, -40805.21, -84750.16, 0.0009171675, 0.00000012162194, 0.00017313425, -40805.21, -40805.21, 0.0, 10.0, 9.942173 
9.65e+2, 3.138706e+2, -39727.195, -82511.2, -0.0020912178, 0.00000012139138, -0.00005514103, -39727.195, -39727.195, 0.0, 10.0, 9.943684 
9.75e+2, 1.2499335e+2, -1719945.9, -1724224.6, 0.00047708512, 0.00000013097105, 0.000017645852, -1719945.9, -4880.5923, 0.0, 10.0, 9.994327 
9.75e+2, 1.349876e+2, -1622565.4, -1627434.9, -0.001757495, 0.00000013512364, -0.000068407695, -1622565.4, -5443.8086, 0.0, 10.0, 9.993545 
9.75e+2, 1.4497514e+2, -1534464.0, -1548146.3, -0.00040721073, 0.00000013627391, 0.00007096893, -1534464.0, -15220.309, 0.0, 10.0, 9.981864 
9.75e+2, 1.5495703e+2, -1436736.3, -1450821.9, -0.00036024782, 0.0000001343227, -0.000056955327, -1436736.3, -15315.129, 0.0, 10.0, 9.981333 
9.75e+2, 1.6493228e+2, -1348685.3, -1371952.4, 0.003535663, 0.00000013097775, 0.00004735548, -1348685.3, -25021.629, 0.0, 10.0, 9.969248 
9.75e+2, 1.7490156e+2, -1250727.3, -1274310.1, 0.0008621843, 0.00000012620943, -0.00007381515, -1250727.3, -24762.604, 0.0, 10.0, 9.968834 
9.75e+2, 1.8486421e+2, -1162646.4, -1195720.1, 0.0033848484, 0.00000012693583, 0.0000661616, -1162646.4, -34315.652, 0.0, 10.0, 9.956395 
9.75e+2, 1.9482064e+2, -1064496.6, -1097833.0, 0.0018265498, 0.0000001334119, -0.000057640224, -1064496.6, -33738.996, 0.0, 10.0, 9.956052 
9.75e+2, 2.0477042e+2, -976332.6, -1019435.0, 0.0041139196, 0.00000013301928, 0.00006809264, -976332.6, -43082.742, 0.0, 10.0, 9.943291 
9.75e+2, 2.1471375e+2, -878045.6, -921409.9, 0.0025634833, 0.00000012518721, -0.00012681595, -878045.6, -42240.32, 0.0, 10.0, 9.942949 
9.75e+2, 2.2465037e+2, -789759.5, -843144.9, 0.0043593915, 0.00000012280304, 0.0001208896, -789759.5, -51333.21, 0.0, 10.0, 9.929908 
9.75e+2, 2.3458035e+2, -691326.0, -744966.44, 0.0024090216, 0.00000012658819, -0.00008880798, -691326.0, -50213.45, 0.0, 10.0, 9.929576 
9.75e+2, 2.4450338e+2, -603001.94, -667018.75, 0.0037205287, 0.00000012841888, 0.00007471725, -603001.94, -59135.047, 0.0, 10.0, 9.916136 
9.75e+2, 2.5441962e+2, -504249.25, -568343.3, 0.0017723438, 0.00000012790844, -0.00010673281, -504249.25, -57561.707, 0.0, 10.0, 9.916036 
9.75e+2, 2.643288e+2, -416013.84, -490987.88, 0.0034095747, 0.0000001263846, 0.00014059678, -416013.84, -66436.18, 0.0, 10.0, 9.901964 
9.75e+2, 2.742313e+2, -316728.63, -391374.75, 0.0014471115, 0.00000012357653, -0.00020343889, -316728.63, -64195.62, 0.0, 10.0, 9.902385 
9.75e+2, 2.841256e+2, -230255.36, -318081.25, 0.0021184785, 0.000000123027, 0.0002290515, -230255.36, -74686.39, 0.0, 10.0, 9.885438 
9.75e+2, 2.940121e+2, -130549.23, -217765.0, 0.00077591394, 0.00000012557418, -0.00025333988, -130549.23, -71867.836, 0.0, 10.0, 9.886217 
9.75e+2, 3.0392656e+2, -40805.215, -84750.164, 0.0018568367, 0.00000012614761, 0.0001731358, -40805.215, -40805.215, 0.0, 10.0, 9.942173 
9.75e+2, 3.138706e+2, -39727.203, -82511.22, -0.0010184912, 0.00000012376196, -0.00005514777, -39727.203, -39727.203, 0.0, 10.0, 9.943684 
9.85e+2, 1.2499335e+2, -1719945.8, -1724224.6, 0.0030597118, 0.00000013228669, 0.000017647044, -1719945.8, -4880.5557, 0.0, 10.0, 9.994327 
9.85e+2, 1.349876e+2, -1622565.4, -1627434.9, 0.0022093263, 0.00000014069082, -0.00006841213, -1622565.4, -5443.7813, 0.0, 10.0, 9.993545 
9.85e+2, 1.4497514e+2, -1534463.9, -1548146.3, 0.0041177007, 0.00000014281244, 0.00007096687, -1534463.9, -15220.284, 0.0, 10.0, 9.981864 
9.85e+2, 1.5495703e+2, -1436736.3, -1450821.9, -0.0001796754, 0.00000013852933, -0.00005695267, -1436736.3, -15315.099, 0.0, 10.0, 9.981333 
9.85e+2, 1.6493228e+2, -1348685.3, -1371952.4, 0.002961991, 0.00000013427193, 0.000047358644, -1348685.3, -25021.596, 0.0, 10.0, 9.969248 
9.85e+2, 1.7490156e+2, -1250727.3, -1274310.1, 0.0026271858, 0.00000013004048, -0.00007381577, -1250727.3, -24762.576, 0.0, 10.0, 9.968834 
9.85e+2, 1.8486421e+2, -1162646.3, -1195720.1, 0.0041411044, 0.00000013082663, 0.00006616008, -1162646.3, -34315.625, 0.0, 10.0, 9.956395 
9.85e+2, 1.9482064e+2, -1064496.5, -1097832.9, 0.0008666018, 0.00000013686319, -0.000057639645, -1064496.5, -33738.96, 0.0, 10.0, 9.956052 
9.85e+2, 2.0477042e+2, -976332.56, -1019435.0, 0.0039493544, 0.0000001365516, 0.000068094334, -976332.56, -43082.707, 0.0, 10.0, 9.943291 
9.85e+2, 2.1471375e+2, -878045.56, -921409.9, 0.002024698, 0.00000012936432, -0.0001268142, -878045.56, -42240.293, 0.0, 10.0, 9.942949 
9.85e+2, 2.2465037e+2, -789759.44, -843144.9, 0.002472244, 0.00000012715272, 0.000120890894, -789759.44, -51333.188, 0.0, 10.0, 9.929908 
9.85e+2, 2.3458035e+2, -691325.94, -744966.44, 0.0006275148, 0.00000013057574, -0.00008880775, -691325.94, -50213.42, 0.0, 10.0, 9.929576 
9.85e+2, 2.4450338e+2, -603001.9, -667018.75, 0.0027598208, 0.0000001319258, 0.00007471724, -603001.9, -59135.016, 0.0, 10.0, 9.916136 
9.85e+2, 2.5441962e+2, -504249.22, -568343.3, 0.0011651644, 0.00000013079375, -0.00010673212, -504249.22, -57561.67, 0.0, 10.0, 9.916036 
9.85e+2, 2.643288e+2, -416013.8, -490987.88, 0.0031060993, 0.00000012945058, 0.00014059767, -416013.8, -66436.14, 0.0, 10.0, 9.901964 
9.85e+2, 2.742313e+2, -316728.6, -391374.75, 0.000804544, 0.00000012784452, -0.00020343847, -316728.6, -64195.594, 0.0, 10.0, 9.902385 
9.85e+2, 2.841256e+2, -230255.33, -318081.22, 0.0008308901, 0.00000012754808, 0.00022905196, -230255.33, -74686.37, 0.0, 10.0, 9.885438 
9.85e+2, 2.940121e+2, -130549.195, -217765.0, -0.0010098715, 0.00000012904495, -0.00025333875, -130549.195, -71867.805, 0.0, 10.0, 9.886217 
9.85e+2, 3.0392656e+2, -40805.188, -84750.16, 0.0013394498, 0.00000012935757, 0.00017313623, -40805.188, -40805.188, 0.0, 10.0, 9.942173 
9.85e+2, 3.138706e+2, -39727.176, -82511.21, 0.001532102, 0.00000012789535, -0.000055150176, -39727.176, -39727.176, 0.0, 10.0, 9.943684 
9.95e+2, 1.2499335e+2, -1719945.8, -1724224.6, -0.000051150175, 0.00000014072832, 0.000017636145, -1719945.8, -4880.5586, 0.0, 10.0, 9.994327 
9.95e+2, 1.349876e+2, -1622565.4, -1627434.9, -0.00090234296, 0.00000014367977, -0.00006841305, -1622565.4, -5443.784, 0.0, 10.0, 9.993545 
9.95e+2, 1.4497514e+2, -1534463.9, -1548146.3, 0.004873046, 0.00000014344234, 0.000070970076, -1534463.9, -15220.295, 0.0, 10.0, 9.981864 
9.95e+2, 1.5495703e+2, -1436736.3, -1450821.9, 0.00058174814, 0.00000013990982, -0.00005695694, -1436736.3, -15315.109, 0.0, 10.0, 9.981333 
9.95e+2, 1.6493228e+2, -1348685.3, -1371952.4, 0.0027915312, 0.00000013850486, 0.000047354755, -1348685.3, -25021.598, 0.0, 10.0, 9.969248 
9.95e+2, 1.7490156e+2, -1250727.3, -1274310.1, 0.0024517584, 0.00000013927225, -0.00007381126, -1250727.3, -24762.576, 0.0, 10.0, 9.968834 
9.95e+2, 1.8486421e+2, -1162646.3, -1195720.1, 0.0037372895, 0.00000013804966, 0.0000661658, -1162646.3, -34315.633, 0.0, 10.0, 9.956395 
9.95e+2, 1.9482064e+2, -1064496.5, -1097833.0, 0.0004601078, 0.00000013474458, -0.00005764023, -1064496.5, -33738.97, 0.0, 10.0, 9.956052 
9.95e+2, 2.0477042e+2, -976332.56, -1019435.0, 0.0040634787, 0.00000013424635, 0.00006809223, -976332.56, -43082.71, 0.0, 10.0, 9.943291 
9.95e+2, 2.1471375e+2, -878045.56, -921409.9, 0.0021495598, 0.00000013678803, -0.00012681264, -878045.56, -42240.297, 0.0, 10.0, 9.942949 
9.95e+2, 2.2465037e+2, -789759.44, -843144.9, 0.0022675232, 0.00000013702876, 0.00012089275, -789759.44, -51333.19, 0.0, 10.0, 9.929908 
9.95e+2, 2.3458035e+2, -691325.94, -744966.44, 0.00041199708, 0.00000013466381, -0.000088809415, -691325.94, -50213.426, 0.0, 10.0, 9.929576 
9.95e+2, 2.4450338e+2, -603001.9, -667018.75, 0.0034401736, 0.00000013289133, 0.00007471654, -603001.9, -59135.02, 0.0, 10.0, 9.916136 
9.95e+2, 2.5441962e+2, -504249.22, -568343.3, 0.0018885729, 0.00000013182914, -0.00010672649, -504249.22, -57561.676, 0.0, 10.0, 9.916036 
9.95e+2, 2.643288e+2, -416013.8, -490987.88, 0.0029723183, 0.0000001321375, 0.00014060327, -416013.8, -66436.15, 0.0, 10.0, 9.901964 
9.95e+2, 2.742313e+2, -316728.6, -391374.75, 0.0006133103, 0.00000013418833, -0.000203441, -316728.6, -64195.598, 0.0, 10.0, 9.902385 
9.95e+2, 2.841256e+2, -230255.33, -318081.25, 0.0014773855, 0.00000013430291, 0.00022904584, -230255.33, -74686.37, 0.0, 10.0, 9.885438 
9.95e+2, 2.940121e+2, -130549.195, -217765.0, -0.00028786703, 0.00000013175945, -0.00025334218, -130549.195, -71867.805, 0.0, 10.0, 9.886217 
9.95e+2, 3.0392656e+2, -40805.188, -84750.16, 0.0015428228, 0.00000013125184, 0.0001731355, -40805.188, -40805.188, 0.0, 10.0, 9.942173 
9.95e+2, 3.138706e+2, -39727.176, -82511.21, 0.0016746314, 0.00000013379149, -0.000055148248, -39727.176, -39727.176, 0.0, 10.0, 9.943684 
1.005e+3, 1.2499335e+2, -1719945.8, -1724224.6, 0.002199242, 0.00000014966255, 0.000017635539, -1719945.8, -4880.5396, 0.0, 10.0, 9.994327 
1.005e+3, 1.349876e+2, -1622565.3, -1627434.9, -0.0017271127, 0.00000014568442, -0.00006841201, -1622565.3, -5443.7437, 0.0, 10.0, 9.993545 
1.005e+3, 1.4497514e+2, -1534463.9, -1548146.3, 0.004068188, 0.00000014351045, 0.00007097286, -1534463.9, -15220.249, 0.0, 10.0, 9.981864 
1.005e+3, 1.5495703e+2, -1436736.3, -1450821.9, 0.0026986452, 0.00000014306266, -0.000056957928, -1436736.3, -15315.073, 0.0, 10.0, 9.981333 
1.005e+3, 1.6493228e+2, -1348685.3, -1371952.4, 0.0046176948, 0.00000014361109, 0.00004735371, -1348685.3, -25021.566, 0.0, 10.0, 9.969248 
1.005e+3, 1.7490156e+2, -1250727.3, -1274310.1, 0.0006623869, 0.00000014517683, -0.000073808566, -1250727.3, -24762.549, 0.0, 10.0, 9.968834 
1.005e+3, 1.8486421e+2, -1162646.3, -1195720.1, 0.001990661, 0.00000014303612, 0.00006616892, -1162646.3, -34315.6, 0.0, 10.0, 9.956395 
1.005e+3, 1.9482064e+2, -1064496.5, -1097832.9, 0.0012532638, 0.0000001370168, -0.000057640158, -1064496.5, -33738.934, 0.0, 10.0, 9.956052 
1.005e+3, 2.0477042e+2, -976332.56, -1019435.0, 0.0049929367, 0.00000013655048, 0.00006809117, -976332.56, -43082.676, 0.0, 10.0, 9.943291 
1.005e+3, 2.1471375e+2, -878045.56, -921409.9, 0.00254147, 0.00000014209844, -0.00012681277, -878045.56, -42240.27, 0.0, 10.0, 9.942949 
1.005e+3, 2.2465037e+2, -789759.44, -843144.9, 0.003729003, 0.00000014282679, 0.00012089305, -789759.44, -51333.164, 0.0, 10.0, 9.929908 
1.005e+3, 2.3458035e+2, -691325.94, -744966.44, 0.0021609466, 0.00000013809743, -0.00008880927, -691325.94, -50213.39, 0.0, 10.0, 9.929576 
1.005e+3, 2.4450338e+2, -603001.9, -667018.75, 0.0041698515, 0.00000013557852, 0.000074716736, -603001.9, -59134.99, 0.0, 10.0, 9.916136 
1.005e+3, 2.5441962e+2, -504249.2, -568343.3, 0.0009876818, 0.0000001357055, -0.00010672598, -504249.2, -57561.65, 0.0, 10.0, 9.916036 
1.005e+3, 2.643288e+2, -416013.78, -490987.88, 0.0019436674, 0.00000013657991, 0.0001406035, -416013.78, -66436.12, 0.0, 10.0, 9.901964 
1.005e+3, 2.742313e+2, -316728.56, -391374.75, 0.001493221, 0.00000013839919, -0.00020344178, -316728.56, -64195.566, 0.0, 10.0, 9.902385 
1.005e+3, 2.841256e+2, -230255.3, -318081.22, 0.0038096628, 0.0000001383636, 0.00022904451, -230255.3, -74686.336, 0.0, 10.0, 9.885438 
1.005e+3, 2.940121e+2, -130549.164, -217765.0, 0.0015401401, 0.0000001357852, -0.0002533434, -130549.164, -71867.77, 0.0, 10.0, 9.886217 
1.005e+3, 3.0392656e+2, -40805.156, -84750.15, 0.0011688861, 0.0000001351113, 0.00017313535, -40805.156, -40805.156, 0.0, 10.0, 9.942173 
1.005e+3, 3.138706e+2, -39727.14, -82511.2, -0.0028139267, 0.00000013728886, -0.000055145938, -39727.14, -39727.14, 0.0, 10.0, 9.943684 
1.015e+3, 1.2499335e+2, -1719945.8, -1724224.6, 0.0042418507, 0.00000015908942, 0.000017645229, -1719945.8, -4880.55, 0.0, 10.0, 9.994327 
1.015e+3, 1.349876e+2, -1622565.3, -1627434.9, 0.00031590206, 0.00000014670482, -0.00006840901, -1622565.3, -5443.7534, 0.0, 10.0, 9.993545 
1.015e+3, 1.4497514e+2, -1534463.9, -1548146.3, 0.0024652737, 0.00000014301678, 0.000070975235, -1534463.9, -15220.253, 0.0, 10.0, 9.981864 
1.015e+3, 1.5495703e+2, -1436736.3, -1450821.9, 0.0010898941, 0.00000014798785, -0.000056955632, -1436736.3, -15315.077, 0.0, 10.0, 9.981333 
1.015e+3, 1.6493228e+2, -1348685.3, -1371952.4, 0.0039654667, 0.0000001495906, 0.00004735551, -1348685.3, -25021.576, 0.0, 10.0, 9.969248 
1.015e+3, 1.7490156e+2, -1250727.3, -1274310.1, 0.000015163098, 0.00000014775424, -0.00007380769, -1250727.3, -24762.557, 0.0, 10.0, 9.968834 
1.015e+3, 1.8486421e+2, -1162646.3, -1195720.1, 0.0028964933, 0.00000014578605, 0.00006616943, -1162646.3, -34315.605, 0.0, 10.0, 9.956395 
1.015e+3, 1.9482064e+2, -1064496.5, -1097833.0, 0.0021770454, 0.0000001436798, -0.000057639427, -1064496.5, -33738.934, 0.0, 10.0, 9.956052 
1.015e+3, 2.0477042e+2, -976332.56, -1019435.0, 0.0035233262, 0.000000143464, 0.000068091154, -976332.56, -43082.684, 0.0, 10.0, 9.94329 
1.015e+3, 2.1471375e+2, -878045.56, -921409.9, 0.0010223986, 0.00000014529556, -0.00012681457, -878045.56, -42240.273, 0.0, 10.0, 9.942949 
1.015e+3, 2.2465037e+2, -789759.44, -843144.9, 0.004993418, 0.00000014454686, 0.0001208918, -789759.44, -51333.168, 0.0, 10.0, 9.929908 
1.015e+3, 2.3458035e+2, -691325.94, -744966.44, 0.0035164154, 0.00000014087664, -0.00008880731, -691325.94, -50213.395, 0.0, 10.0, 9.929576 
1.015e+3, 2.4450338e+2, -603001.9, -667018.75, 0.0037816274, 0.00000013998735, 0.000074717835, -603001.9, -59134.992, 0.0, 10.0, 9.916136 
1.015e+3, 2.5441962e+2, -504249.22, -568343.3, 0.00051566784, 0.00000014242283, -0.0001067306, -504249.22, -57561.656, 0.0, 10.0, 9.916036 
1.015e+3, 2.643288e+2, -416013.78, -490987.88, 0.0022064878, 0.00000014277781, 0.00014059836, -416013.78, -66436.125, 0.0, 10.0, 9.901964 
1.015e+3, 2.742313e+2, -316728.56, -391374.75, 0.0018053175, 0.00000014047711, -0.00020344082, -316728.56, -64195.57, 0.0, 10.0, 9.902385 
1.015e+3, 2.841256e+2, -230255.31, -318081.25, 0.0044268495, 0.0000001397302, 0.00022904798, -230255.31, -74686.34, 0.0, 10.0, 9.885438 
1.015e+3, 2.940121e+2, -130549.17, -217765.0, 0.0021848483, 0.00000014112216, -0.00025334238, -130549.17, -71867.78, 0.0, 10.0, 9.886217 
1.015e+3, 3.0392656e+2, -40805.164, -84750.164, 0.0019155168, 0.00000014093597, 0.00017313578, -40805.164, -40805.164, 0.0, 10.0, 9.942173 
1.015e+3, 3.138706e+2, -39727.15, -82511.22, -0.0020552818, 0.00000013838749, -0.000055143235, -39727.15, -39727.15, 0.0, 10.0, 9.943684 
1.025e+3, 1.2499335e+2, -1719945.8, -1724224.6, 0.0000052427904, 0.00000016235363, 0.00001765016, -1719945.8, -4880.508, 0.0, 10.0, 9.994327 
1.025e+3, 1.349876e+2, -1622565.3, -1627434.9, -0.0004889028, 0.00000015210941, -0.0000684072, -1622565.3, -5443.7227, 0.0, 10.0, 9.993545 
1.025e+3, 1.4497514e+2, -1534463.9, -1548146.3, 0.0010207426, 0.00000014884095, 0.00007097798, -1534463.9, -15220.225, 0.0, 10.0, 9.981864 
1.025e+3, 1.5495703e+2, -1436736.1, -1450821.9, -0.0017331127, 0.0000001524978, -0.000056953304, -1436736.1, -15315.044, 0.0, 10.0, 9.981333 
1.025e+3, 1.6493228e+2, -1348685.3, -1371952.4, 0.002346069, 0.00000015325755, 0.00004735674, -1348685.3, -25021.54, 0.0, 10.0, 9.969248 
1.025e+3, 1.7490156e+2, -1250727.3, -1274310.1, 0.0014330532, 0.0000001510592, -0.000073808245, -1250727.3, -24762.52, 0.0, 10.0, 9.968834 
1.025e+3, 1.8486421e+2, -1162646.3, -1195720.1, 0.0052855536, 0.00000014995605, 0.00006616884, -1162646.3, -34315.57, 0.0, 10.0, 9.956395 
1.025e+3, 1.9482064e+2, -1064496.5, -1097832.9, 0.0022066003, 0.00000014999881, -0.00005763822, -1064496.5, -33738.906, 0.0, 10.0, 9.956052 
1.025e+3, 2.0477042e+2, -976332.56, -1019435.0, 0.0023092718, 0.00000014926928, 0.00006809265, -976332.56, -43082.652, 0.0, 10.0, 9.94329 
1.025e+3, 2.1471375e+2, -878045.5, -921409.9, 0.0003746541, 0.00000014770316, -0.00012681443, -878045.5, -42240.234, 0.0, 10.0, 9.942949 
1.025e+3, 2.2465037e+2, -789759.4, -843144.8, 0.0042568897, 0.00000014656082, 0.0001208921, -789759.4, -51333.125, 0.0, 10.0, 9.929908 
1.025e+3, 2.3458035e+2, -691325.9, -744966.44, 0.0010301728, 0.00000014589834, -0.00008880512, -691325.9, -50213.363, 0.0, 10.0, 9.929576 
1.025e+3, 2.4450338e+2, -603001.8, -667018.75, 0.001748093, 0.00000014597735, 0.00007471966, -603001.8, -59134.965, 0.0, 10.0, 9.916136 
1.025e+3, 2.5441962e+2, -504249.16, -568343.3, 0.0019000911, 0.00000014694149, -0.00010673183, -504249.16, -57561.62, 0.0, 10.0, 9.916036 
1.025e+3, 2.643288e+2, -416013.75, -490987.88, 0.0040535755, 0.00000014642511, 0.00014059676, -416013.75, -66436.086, 0.0, 10.0, 9.901964 
1.025e+3, 2.742313e+2, -316728.53, -391374.75, -0.00043123367, 0.00000014402234, -0.00020343935, -316728.53, -64195.535, 0.0, 10.0, 9.902385 
1.025e+3, 2.841256e+2, -230255.27, -318081.22, 0.00010405297, 0.00000014338455, 0.00022905081, -230255.27, -74686.305, 0.0, 10.0, 9.885438 
1.025e+3, 2.940121e+2, -130549.14, -217765.0, -0.001453941, 0.00000014517097, -0.00025334055, -130549.14, -71867.75, 0.0, 10.0, 9.886217 
1.025e+3, 3.0392656e+2, -40805.13, -84750.16, 0.00054698414, 0.0000001451895, 0.00017313614, -40805.13, -40805.13, 0.0, 10.0, 9.942173 
1.025e+3, 3.138706e+2, -39727.117, -82511.21, 0.0005330371, 0.00000014256119, -0.000055145007, -39727.117, -39727.117, 0.0, 10.0, 9.943684 
1.035e+3, 1.2499335e+2, -1719945.8, -1724224.6, -0.00052614015, 0.0000001594552, 0.000017650334, -1719945.8, -4880.51, 0.0, 10.0, 9.994327 
1.035e+3, 1.349876e+2, -1622565.3, -1627434.9, -0.0010205345, 0.00000016189817, -0.00006840657, -1622565.3, -5443.7246, 0.0, 10.0, 9.993545 
1.035e+3, 1.4497514e+2, -1534463.9, -1548146.3, 0.00078304025, 0.00000016098296, 0.000070981114, -1534463.9, -15220.232, 0.0, 10.0, 9.981864 
1.035e+3, 1.5495703e+2, -1436736.1, -1450821.9, -0.0019704169, 0.00000015659255, -0.000056950936, -1436736.1, -15315.051, 0.0, 10.0, 9.981333 
1.035e+3, 1.6493228e+2, -1348685.3, -1371952.4, 0.001958754, 0.00000015461191, 0.00004735741, -1348685.3, -25021.541, 0.0, 10.0, 9.969248 
1.035e+3, 1.7490156e+2, -1250727.3, -1274310.1, 0.0010448969, 0.00000015509171, -0.000073810224, -1250727.3, -24762.523, 0.0, 10.0, 9.968834 
1.035e+3, 1.8486421e+2, -1162646.3, -1195720.1, 0.0044775154, 0.0000001555461, 0.00006616715, -1162646.3, -34315.58, 0.0, 10.0, 9.956395 
1.035e+3, 1.9482064e+2, -1064496.5, -1097833.0, 0.0013936643, 0.00000015597384, -0.000057636535, -1064496.5, -33738.914, 0.0, 10.0, 9.956052 
1.035e+3, 2.0477042e+2, -976332.56, -1019435.0, 0.0033202437, 0.0000001539663, 0.00006809565, -976332.56, -43082.66, 0.0, 10.0, 9.94329 
1.035e+3, 2.1471375e+2, -878045.5, -921409.9, 0.0014232739, 0.00000014932125, -0.00012681233, -878045.5, -42240.24, 0.0, 10.0, 9.942949 
1.035e+3, 2.2465037e+2, -789759.4, -843144.9, 0.0033913278, 0.00000014886871, 0.00012089397, -789759.4, -51333.133, 0.0, 10.0, 9.929908 
1.035e+3, 2.3458035e+2, -691325.9, -744966.44, 0.000101982034, 0.00000015316255, -0.00008880269, -691325.9, -50213.37, 0.0, 10.0, 9.929576 
1.035e+3, 2.4450338e+2, -603001.8, -667018.75, 0.002289198, 0.0000001535485, 0.000074722215, -603001.8, -59134.965, 0.0, 10.0, 9.916136 
1.035e+3, 2.5441962e+2, -504249.16, -568343.3, 0.0025117972, 0.0000001492615, -0.00010672967, -504249.16, -57561.62, 0.0, 10.0, 9.916036 
1.035e+3, 2.643288e+2, -416013.78, -490987.88, 0.0046101143, 0.00000014752185, 0.00014059871, -416013.78, -66436.09, 0.0, 10.0, 9.901964 
1.035e+3, 2.742313e+2, -316728.53, -391374.78, 0.00012163112, 0.00000014903488, -0.00020343738, -316728.53, -64195.543, 0.0, 10.0, 9.902385 
1.035e+3, 2.841256e+2, -230255.28, -318081.25, 0.00040045843, 0.00000014932665, 0.000229053, -230255.28, -74686.31, 0.0, 10.0, 9.885438 
1.035e+3, 2.940121e+2, -130549.14, -217765.0, -0.0011806195, 0.00000014793164, -0.0002533379, -130549.14, -71867.75, 0.0, 10.0, 9.886217 
1.035e+3, 3.0392656e+2, -40805.133, -84750.16, 0.0011775892, 0.00000014787194, 0.00017313645, -40805.133, -40805.133, 0.0, 10.0, 9.942173 
1.035e+3, 3.138706e+2, -39727.117, -82511.21, 0.0012056299, 0.00000014980998, -0.000055151246, -39727.117, -39727.117, 0.0, 10.0, 9.943684 
1.045e+3, 1.2499335e+2, -1719945.8, -1724224.6, 0.0052055293, 0.00000016182145, 0.000017648714, -1719945.8, -4880.4673, 0.0, 10.0, 9.994327 
1.045e+3, 1.349876e+2, -1622565.3, -1627434.9, 0.0005293564, 0.00000016778908, -0.00006840678, -1622565.3, -5443.69, 0.0, 10.0, 9.993545 
1.045e+3, 1.4497514e+2, -1534463.9, -1548146.3, 0.002506333, 0.00000016786348, 0.00007098308, -1534463.9, -15220.199, 0.0, 10.0, 9.981864 
1.045e+3, 1.5495703e+2, -1436736.1, -1450821.9, 0.0013305452, 0.0000001619098, -0.00005695118, -1436736.1, -15315.015, 0.0, 10.0, 9.981333 
1.045e+3, 1.6493228e+2, -1348685.1, -1371952.4, 0.004332747, 0.00000015906754, 0.00004735683, -1348685.1, -25021.506, 0.0, 10.0, 9.969248 
1.045e+3, 1.7490156e+2, -1250727.1, -1274310.1, 0.00074521604, 0.00000015940205, -0.00007380923, -1250727.1, -24762.486, 0.0, 10.0, 9.968834 
1.045e+3, 1.8486421e+2, -1162646.3, -1195720.1, 0.0030897893, 0.00000015983267, 0.00006616866, -1162646.3, -34315.543, 0.0, 10.0, 9.956395 
1.045e+3, 1.9482064e+2, -1064496.5, -1097832.9, 0.00086174416, 0.00000016036373, -0.000057635632, -1064496.5, -33738.875, 0.0, 10.0, 9.956052 
1.045e+3, 2.0477042e+2, -976332.5, -1019435.0, 0.004062853, 0.00000015846844, 0.0000680965, -976332.5, -43082.62, 0.0, 10.0, 9.94329 
1.045e+3, 2.1471375e+2, -878045.5, -921409.8, 0.0016019258, 0.00000015394524, -0.00012681093, -878045.5, -42240.203, 0.0, 10.0, 9.942949 
1.045e+3, 2.2465037e+2, -789759.4, -843144.9, 0.002966593, 0.00000015350959, 0.00012089455, -789759.4, -51333.1, 0.0, 10.0, 9.929908 
1.045e+3, 2.3458035e+2, -691325.9, -744966.44, 0.0017156103, 0.00000015770154, -0.00008880452, -691325.9, -50213.336, 0.0, 10.0, 9.929576 
1.045e+3, 2.4450338e+2, -603001.8, -667018.75, 0.0041119177, 0.00000015789801, 0.00007472095, -603001.8, -59134.93, 0.0, 10.0, 9.916136 
1.045e+3, 2.5441962e+2, -504249.13, -568343.25, -0.00055635435, 0.00000015331706, -0.00010672684, -504249.13, -57561.586, 0.0, 10.0, 9.916036 
1.045e+3, 2.643288e+2, -416013.72, -490987.88, 0.00042008449, 0.00000015160876, 0.00014060212, -416013.72, -66436.06, 0.0, 10.0, 9.901964 
1.045e+3, 2.742313e+2, -316728.5, -391374.75, 0.00059535034, 0.00000015356743, -0.00020343787, -316728.5, -64195.508, 0.0, 10.0, 9.902385 
1.045e+3, 2.841256e+2, -230255.25, -318081.22, 0.0033907252, 0.00000015400893, 0.00022905067, -230255.25, -74686.28, 0.0, 10.0, 9.885438 
1.045e+3, 2.940121e+2, -130549.11, -217764.98, 0.0010078206, 0.00000015235675, -0.0002533392, -130549.11, -71867.72, 0.0, 10.0, 9.886217 
1.045e+3, 3.0392656e+2, -40805.098, -84750.15, 0.0016076469, 0.00000015215015, 0.00017313636, -40805.098, -40805.098, 0.0, 10.0, 9.942173 
1.045e+3, 3.138706e+2, -39727.082, -82511.2, -0.0019744488, 0.00000015410883, -0.000055149838, -39727.082, -39727.082, 0.0, 10.0, 9.943684 
1.055e+3, 1.2499335e+2, -1719945.8, -1724224.6, 0.002826902, 0.00000016945236, 0.000017645301, -1719945.8, -4880.479, 0.0, 10.0, 9.994327 
1.055e+3, 1.349876e+2, -1622565.3, -1627434.9, -0.0018499903, 0.00000016978217, -0.00006840784, -1622565.3, -5443.7017, 0.0, 10.0, 9.993545 
1.055e+3, 1.4497514e+2, -1534463.9, -1548146.3, 0.00280075, 0.00000016948253, 0.000070983886, -1534463.9, -15220.202, 0.0, 10.0, 9.981864 
1.055e+3, 1.5495703e+2, -1436736.1, -1450821.9, 0.0016291313, 0.00000016844955, -0.000056954035, -1436736.1, -15315.019, 0.0, 10.0, 9.981333 
1.055e+3, 1.6493228e+2, -1348685.3, -1371952.4, 0.0039596404, 0.00000016662437, 0.000047354995, -1348685.3, -25021.516, 0.0, 10.0, 9.969248 
1.055e+3, 1.7490156e+2, -1250727.1, -1274310.1, 0.00036851395, 0.00000016399022, -0.00007380526, -1250727.1, -24762.496, 0.0, 10.0, 9.968834 
1.055e+3, 1.8486421e+2, -1162646.3, -1195720.1, 0.002857533, 0.00000016281572, 0.00006617335, -1162646.3, -34315.547, 0.0, 10.0, 9.956395 
1.055e+3, 1.9482064e+2, -1064496.5, -1097833.0, 0.00063112506, 0.0000001631685, -0.00005763552, -1064496.5, -33738.883, 0.0, 10.0, 9.956052 
1.055e+3, 2.0477042e+2, -976332.5, -1019435.0, 0.0042267162, 0.00000016277566, 0.0000680952, -976332.5, -43082.625, 0.0, 10.0, 9.94329 
1.055e+3, 2.1471375e+2, -878045.5, -921409.9, 0.0017739153, 0.0000001615751, -0.00012681022, -878045.5, -42240.21, 0.0, 10.0, 9.942949 
1.055e+3, 2.2465037e+2, -789759.4, -843144.9, 0.0025224236, 0.00000016048347, 0.00012089381, -789759.4, -51333.1, 0.0, 10.0, 9.929908 
1.055e+3, 2.3458035e+2, -691325.9, -744966.44, 0.0012512648, 0.00000015951534, -0.00008881059, -691325.9, -50213.34, 0.0, 10.0, 9.929576 
1.055e+3, 2.4450338e+2, -603001.8, -667018.75, 0.0048277243, 0.00000015902596, 0.00007471587, -603001.8, -59134.938, 0.0, 10.0, 9.916136 
1.055e+3, 2.5441962e+2, -504249.16, -568343.3, 0.0002161773, 0.00000015910814, -0.00010672333, -504249.16, -57561.594, 0.0, 10.0, 9.916036 
1.055e+3, 2.643288e+2, -416013.72, -490987.88, 0.00047073912, 0.00000015868584, 0.000140607, -416013.72, -66436.06, 0.0, 10.0, 9.901964 
1.055e+3, 2.742313e+2, -316728.5, -391374.75, 0.0005976112, 0.00000015762001, -0.00020344082, -316728.5, -64195.508, 0.0, 10.0, 9.902385 
1.055e+3, 2.841256e+2, -230255.25, -318081.25, 0.0039090714, 0.00000015743139, 0.00022904383, -230255.25, -74686.28, 0.0, 10.0, 9.885438 
1.055e+3, 2.940121e+2, -130549.11, -217765.0, 0.0015726965, 0.00000015844624, -0.00025334448, -130549.11, -71867.72, 0.0, 10.0, 9.886217 
1.055e+3, 3.0392656e+2, -40805.105, -84750.164, 0.002250407, 0.00000015802412, 0.00017313588, -40805.105, -40805.105, 0.0, 10.0, 9.942172 
1.055e+3, 3.138706e+2, -39727.09, -82511.22, -0.0013224964, 0.00000015545778, -0.000055140783, -39727.09, -39727.09, 0.0, 10.0, 9.943684 
1.065e+3, 1.2499335e+2, -1719945.6, -1724224.6, 0.00043215998, 0.00000017647174, 0.000017648199, -1719945.6, -4880.445, 0.0, 10.000001, 9.994327 
1.065e+3, 1.349876e+2, -1622565.3, -1627434.9, -0.000730553, 0.00000017353135, -0.000068409354, -1622565.3, -5443.6577, 0.0, 10.000001, 9.993545 
1.065e+3, 1.4497514e+2, -1534463.8, -1548146.3, 0.004885479, 0.00000017256012, 0.00007098368, -1534463.8, -15220.157, 0.0, 10.000001, 9.981864 
1.065e+3, 1.5495703e+2, -1436736.1, -1450821.9, 0.00051833846, 0.00000017346838, -0.00005695198, -1436736.1, -15314.9795, 0.0, 10.000001, 9.981333 
1.065e+3, 1.6493228e+2, -1348685.1, -1371952.4, 0.0024276762, 0.00000017239267, 0.00004735759, -1348685.1, -25021.479, 0.0, 10.000001, 9.969248 
1.065e+3, 1.7490156e+2, -1250727.1, -1274310.1, 0.0004905802, 0.00000016929114, -0.00007380388, -1250727.1, -24762.457, 0.0, 10.000001, 9.968834 
1.065e+3, 1.8486421e+2, -1162646.1, -1195720.1, 0.0033635576, 0.00000016737356, 0.000066174056, -1162646.1, -34315.508, 0.0, 10.000001, 9.956395 
1.065e+3, 1.9482064e+2, -1064496.4, -1097832.9, 0.0006915397, 0.00000016669469, -0.00005763493, -1064496.4, -33738.84, 0.0, 10.000001, 9.956052 
1.065e+3, 2.0477042e+2, -976332.44, -1019435.0, 0.004167554, 0.00000016697427, 0.00006809561, -976332.44, -43082.59, 0.0, 10.000001, 9.94329 
1.065e+3, 2.1471375e+2, -878045.44, -921409.9, 0.002040245, 0.00000016829166, -0.00012681008, -878045.44, -42240.176, 0.0, 10.000001, 9.942949 
1.065e+3, 2.2465037e+2, -789759.3, -843144.8, 0.0029780376, 0.00000016699246, 0.000120894445, -789759.3, -51333.07, 0.0, 10.000001, 9.929908 
1.065e+3, 2.3458035e+2, -691325.8, -744966.44, -0.00013193706, 0.00000016273106, -0.00008880863, -691325.8, -50213.297, 0.0, 10.000001, 9.929576 
1.065e+3, 2.4450338e+2, -603001.75, -667018.75, 0.003455051, 0.00000016161978, 0.000074717245, -603001.75, -59134.895, 0.0, 10.000001, 9.916136 
1.065e+3, 2.5441962e+2, -504249.13, -568343.3, 0.0026062268, 0.00000016427416, -0.00010672485, -504249.13, -57561.56, 0.0, 10.000001, 9.916036 
1.065e+3, 2.643288e+2, -416013.7, -490987.88, 0.00396706, 0.0000001647701, 0.00014060493, -416013.7, -66436.03, 0.0, 10.000001, 9.901964 
1.065e+3, 2.742313e+2, -316728.47, -391374.75, 0.00029512285, 0.00000016251015, -0.00020344049, -316728.47, -64195.473, 0.0, 10.000001, 9.902385 
1.065e+3, 2.841256e+2, -230255.2, -318081.22, 0.0013172036, 0.0000001616108, 0.0002290454, -230255.2, -74686.24, 0.0, 10.000001, 9.885438 
1.065e+3, 2.940121e+2, -130549.08, -217764.98, -0.0011061565, 0.0000001625864, -0.0002533433, -130549.08, -71867.68, 0.0, 10.000001, 9.886217 
1.065e+3, 3.0392656e+2, -40805.066, -84750.16, 0.00069731387, 0.00000016230686, 0.00017313621, -40805.066, -40805.066, 0.0, 10.000001, 9.942172 
1.065e+3, 3.138706e+2, -39727.055, -82511.21, -0.00055685214, 0.00000016014698, -0.000055141914, -39727.055, -39727.055, 0.0, 10.000001, 9.943684 
1.075e+3, 1.2499335e+2, -1719945.6, -1724224.6, 0.00032443047, 0.00000018287959, 0.000017657407, -1719945.6, -4880.4487, 0.0, 10.000001, 9.994327 
1.075e+3, 1.349876e+2, -1622565.3, -1627434.9, -0.0008385444, 0.00000017903659, -0.000068411304, -1622565.3, -5443.6616, 0.0, 10.000001, 9.993545 
1.075e+3, 1.4497514e+2, -1534463.8, -1548146.3, 0.0036759921, 0.00000017709621, 0.000070982474, -1534463.8, -15220.168, 0.0, 10.000001, 9.981864 
1.075e+3, 1.5495703e+2, -1436736.1, -1450821.9, -0.0006929577, 0.00000017696628, -0.000056945024, -1436736.1, -15314.99, 0.0, 10.000001, 9.981333 
1.075e+3, 1.6493228e+2, -1348685.1, -1371952.4, 0.0026521375, 0.00000017637242, 0.00004736461, -1348685.1, -25021.482, 0.0, 10.000001, 9.969248 
1.075e+3, 1.7490156e+2, -1250727.1, -1274310.1, 0.00072256936, 0.00000017530479, -0.00007380507, -1250727.1, -24762.46, 0.0, 10.000001, 9.968834 
1.075e+3, 1.8486421e+2, -1162646.1, -1195720.1, 0.0029568765, 0.00000017350611, 0.00006617078, -1162646.1, -34315.51, 0.0, 10.000001, 9.956395 
1.075e+3, 1.9482064e+2, -1064496.4, -1097833.0, 0.00027742505, 0.0000001709423, -0.000057633868, -1064496.4, -33738.848, 0.0, 10.000001, 9.956052 
1.075e+3, 2.0477042e+2, -976332.5, -1019435.0, 0.0032661392, 0.00000017106426, 0.00006809771, -976332.5, -43082.594, 0.0, 10.000001, 9.94329 
1.075e+3, 2.1471375e+2, -878045.44, -921409.9, 0.0011287405, 0.00000017409492, -0.0001268105, -878045.44, -42240.184, 0.0, 10.000001, 9.942949 
1.075e+3, 2.2465037e+2, -789759.3, -843144.9, 0.0044623995, 0.00000017303661, 0.000120896446, -789759.3, -51333.074, 0.0, 10.000001, 9.929908 
1.075e+3, 2.3458035e+2, -691325.8, -744966.44, 0.0014307963, 0.00000016734872, -0.000088798624, -691325.8, -50213.305, 0.0, 10.000001, 9.929576 
1.075e+3, 2.4450338e+2, -603001.75, -667018.75, 0.002449639, 0.00000016567945, 0.00007472507, -603001.75, -59134.9, 0.0, 10.000001, 9.916136 
1.075e+3, 2.5441962e+2, -504249.13, -568343.3, 0.0014773941, 0.00000016881509, -0.00010673139, -504249.13, -57561.563, 0.0, 10.000001, 9.916036 
1.075e+3, 2.643288e+2, -416013.72, -490987.88, 0.004869946, 0.00000016986156, 0.00014059589, -416013.72, -66436.03, 0.0, 10.000001, 9.901964 
1.075e+3, 2.742313e+2, -316728.47, -391374.75, 0.0013342426, 0.00000016823783, -0.00020343685, -316728.47, -64195.48, 0.0, 10.000001, 9.902385 
1.075e+3, 2.841256e+2, -230255.22, -318081.25, 0.0018122303, 0.00000016654715, 0.00022905538, -230255.22, -74686.25, 0.0, 10.000001, 9.885438 
1.075e+3, 2.940121e+2, -130549.08, -217765.0, -0.0006601319, 0.00000016477726, -0.00025333572, -130549.08, -71867.69, 0.0, 10.000001, 9.886217 
1.075e+3, 3.0392656e+2, -40805.07, -84750.164, 0.0014851015, 0.00000016499837, 0.00017313733, -40805.07, -40805.07, 0.0, 10.000001, 9.942172 
1.075e+3, 3.138706e+2, -39727.06, -82511.21, 0.0002711058, 0.0000001681764, -0.000055153236, -39727.06, -39727.06, 0.0, 10.000001, 9.943684 
1.085e+3, 1.2499335e+2, -1719945.6, -1724224.6, 0.0027810107, 0.00000018994709, 0.00001765903, -1719945.6, -4880.408, 0.0, 10.000001, 9.994327 
1.085e+3, 1.349876e+2, -1622565.1, -1627434.9, -0.0008731109, 0.0000001839477, -0.00006840963, -1622565.1, -5443.6196, 0.0, 10.000001, 9.993545 
1.085e+3, 1.4497514e+2, -1534463.8, -1548146.3, 0.0023831655, 0.00000018111902, 0.00007098538, -1534463.8, -15220.126, 0.0, 10.000001, 9.981864 
1.085e+3, 1.5495703e+2, -1436736.1, -1450821.9, -0.00017383281, 0.00000018137501, -0.000056943976, -1436736.1, -15314.946, 0.0, 10.000001, 9.981333 
1.085e+3, 1.6493228e+2, -1348685.1, -1371952.4, 0.003973839, 0.000000181353, 0.00004736492, -1348685.1, -25021.438, 0.0, 10.000001, 9.969248 
1.085e+3, 1.7490156e+2, -1250727.1, -1274310.1, 0.0012371223, 0.00000018104714, -0.00007380435, -1250727.1, -24762.424, 0.0, 10.000001, 9.968834 
1.085e+3, 1.8486421e+2, -1162646.1, -1195720.1, 0.0037162083, 0.00000017947949, 0.00006617156, -1162646.1, -34315.477, 0.0, 10.000001, 9.956395 
1.085e+3, 1.9482064e+2, -1064496.4, -1097832.9, 0.0011284378, 0.00000017659136, -0.000057633406, -1064496.4, -33738.81, 0.0, 10.000001, 9.956052 
1.085e+3, 2.0477042e+2, -976332.44, -1019435.0, 0.002897211, 0.00000017587065, 0.000068098314, -976332.44, -43082.55, 0.0, 10.000001, 9.94329 
1.085e+3, 2.1471375e+2, -878045.44, -921409.8, -0.0005794536, 0.00000017749733, -0.00012680926, -878045.44, -42240.137, 0.0, 10.000001, 9.942949 
1.085e+3, 2.2465037e+2, -789759.3, -843144.8, 0.0034168123, 0.0000001769475, 0.00012089783, -789759.3, -51333.035, 0.0, 10.000001, 9.929908 
1.085e+3, 2.3458035e+2, -691325.8, -744966.44, 0.0011493857, 0.00000017393303, -0.00008879764, -691325.8, -50213.27, 0.0, 10.000001, 9.929576 
1.085e+3, 2.4450338e+2, -603001.75, -667018.75, 0.0012662372, 0.00000017248827, 0.00007472593, -603001.75, -59134.863, 0.0, 10.000001, 9.916136 
1.085e+3, 2.5441962e+2, -504249.06, -568343.25, -0.0014750229, 0.00000017292095, -0.00010673031, -504249.06, -57561.52, 0.0, 10.000001, 9.916036 
1.085e+3, 2.643288e+2, -416013.66, -490987.88, 0.0018613371, 0.00000017318649, 0.00014059713, -416013.66, -66435.99, 0.0, 10.000001, 9.901964 
1.085e+3, 2.742313e+2, -316728.44, -391374.75, -0.00047185083, 0.00000017323474, -0.00020343556, -316728.44, -64195.44, 0.0, 10.000001, 9.902385 
1.085e+3, 2.841256e+2, -230255.17, -318081.22, 0.0012673559, 0.00000017221359, 0.00022905627, -230255.17, -74686.21, 0.0, 10.000001, 9.885438 
1.085e+3, 2.940121e+2, -130549.04, -217764.98, -0.00040979922, 0.00000016972983, -0.00025333583, -130549.04, -71867.65, 0.0, 10.000001, 9.886217 
1.085e+3, 3.0392656e+2, -40805.03, -84750.15, 0.0016392147, 0.0000001696507, 0.000173137, -40805.03, -40805.03, 0.0, 10.000001, 9.942172 
1.085e+3, 3.138706e+2, -39727.02, -82511.2, -0.00048155998, 0.00000017315526, -0.000055152716, -39727.02, -39727.02, 0.0, 10.000001, 9.943684 
1.095e+3, 1.2499335e+2, -1719945.6, -1724224.6, 0.0030272775, 0.00000019767425, 0.000017653068, -1719945.6, -4880.418, 0.0, 10.000001, 9.994327 
1.095e+3, 1.349876e+2, -1622565.1, -1627434.9, -0.0006270015, 0.00000018826468, -0.00006840435, -1622565.1, -5443.6294, 0.0, 10.000001, 9.993545 
1.095e+3, 1.4497514e+2, -1534463.8, -1548146.3, 0.0019118963, 0.00000018462853, 0.0000709924, -1534463.8, -15220.133, 0.0, 10.000001, 9.981864 
1.095e+3, 1.5495703e+2, -1436736.1, -1450821.9, -0.00064630405, 0.00000018669455, -0.000056948847, -1436736.1, -15314.952, 0.0, 10.000001, 9.981333 
1.095e+3, 1.6493228e+2, -1348685.1, -1371952.4, 0.0026276193, 0.00000018733442, 0.000047358513, -1348685.1, -25021.445, 0.0, 10.000001, 9.969248 
1.095e+3, 1.7490156e+2, -1250727.1, -1274310.1, -0.00011376285, 0.00000018651816, -0.000073801726, -1250727.1, -24762.43, 0.0, 10.000001, 9.968834 
1.095e+3, 1.8486421e+2, -1162646.1, -1195720.1, 0.0042346935, 0.00000018529367, 0.000066176384, -1162646.1, -34315.484, 0.0, 10.000001, 9.956395 
1.095e+3, 1.9482064e+2, -1064496.4, -1097832.9, 0.0016685374, 0.00000018364184, -0.00005763355, -1064496.4, -33738.813, 0.0, 10.000001, 9.956052 
1.095e+3, 2.0477042e+2, -976332.44, -1019435.0, 0.0026657835, 0.00000018139345, 0.000068097404, -976332.44, -43082.56, 0.0, 10.000001, 9.94329 
1.095e+3, 2.1471375e+2, -878045.44, -921409.9, -0.0008268399, 0.00000017849887, -0.0001268064, -878045.44, -42240.145, 0.0, 10.000001, 9.942949 
1.095e+3, 2.2465037e+2, -789759.3, -843144.9, 0.0028315666, 0.00000017872513, 0.000120898585, -789759.3, -51333.04, 0.0, 10.000001, 9.929908 
1.095e+3, 2.3458035e+2, -691325.8, -744966.44, 0.00055307563, 0.000000182484, -0.000088805675, -691325.8, -50213.273, 0.0, 10.000001, 9.929576 
1.095e+3, 2.4450338e+2, -603001.75, -667018.75, 0.0022297055, 0.00000018204618, 0.00007471986, -603001.75, -59134.87, 0.0, 10.000001, 9.916136 
1.095e+3, 2.5441962e+2, -504249.06, -568343.3, -0.0004366035, 0.00000017659171, -0.00010672159, -504249.06, -57561.523, 0.0, 10.000001, 9.916036 
1.095e+3, 2.643288e+2, -416013.66, -490987.88, 0.0017009752, 0.00000017474488, 0.00014060862, -416013.66, -66436.0, 0.0, 10.000001, 9.901964 
1.095e+3, 2.742313e+2, -316728.44, -391374.75, -0.00071257417, 0.00000017750084, -0.00020343663, -316728.44, -64195.445, 0.0, 10.000001, 9.902385 
1.095e+3, 2.841256e+2, -230255.19, -318081.22, 0.0020885258, 0.00000017861008, 0.00022904809, -230255.19, -74686.22, 0.0, 10.000001, 9.885438 
1.095e+3, 2.940121e+2, -130549.05, -217765.0, 0.0005070705, 0.00000017744411, -0.0002533436, -130549.05, -71867.66, 0.0, 10.000001, 9.886217 
1.095e+3, 3.0392656e+2, -40805.035, -84750.16, 0.0018130189, 0.00000017626384, 0.00017313518, -40805.035, -40805.035, 0.0, 10.000001, 9.942172 
1.095e+3, 3.138706e+2, -39727.027, -82511.21, -0.00039494984, 0.00000017508357, -0.000055140357, -39727.027, -39727.027, 0.0, 10.000001, 9.943684 
1.105e+3, 1.2499335e+2, -1719945.6, -1724224.6, 0.0022220819, 0.00000020180973, 0.00001765517, -1719945.6, -4880.371, 0.0, 10.000001, 9.994327 
1.105e+3, 1.349876e+2, -1622565.1, -1627434.9, -0.0008000727, 0.00000019453978, -0.00006840148, -1622565.1, -5443.5845, 0.0, 10.000001, 9.993545 
1.105e+3, 1.4497514e+2, -1534463.8, -1548146.3, 0.0015126213, 0.00000019161698, 0.000070995906, -1534463.8, -15220.089, 0.0, 10.000001, 9.981864 
1.105e+3, 1.5495703e+2, -1436736.0, -1450821.9, -0.00032254786, 0.00000019296029, -0.000056948524, -1436736.0, -15314.912, 0.0, 10.000001, 9.981333 
1.105e+3, 1.6493228e+2, -1348685.1, -1371952.4, 0.0032139763, 0.00000019275438, 0.00004735819, -1348685.1, -25021.404, 0.0, 10.000001, 9.969248 
1.105e+3, 1.7490156e+2, -1250727.0, -1274310.1, -0.0005408181, 0.00000019096665, -0.00007380011, -1250727.0, -24762.383, 0.0, 10.000001, 9.968834 
1.105e+3, 1.8486421e+2, -1162646.1, -1195720.0, 0.003364399, 0.00000019006929, 0.000066178734, -1162646.1, -34315.434, 0.0, 10.000001, 9.956395 
1.105e+3, 1.9482064e+2, -1064496.4, -1097832.9, 0.0006777252, 0.00000019010349, -0.000057631718, -1064496.4, -33738.773, 0.0, 10.000001, 9.956052 
1.105e+3, 2.0477042e+2, -976332.4, -1019435.0, 0.003025428, 0.00000018788114, 0.00006809847, -976332.4, -43082.52, 0.0, 10.000001, 9.94329 
1.105e+3, 2.1471375e+2, -878045.4, -921409.8, 0.0010982107, 0.00000018321468, -0.00012680636, -878045.4, -42240.1, 0.0, 10.000001, 9.942949 
1.105e+3, 2.2465037e+2, -789759.25, -843144.8, 0.0043622525, 0.00000018295444, 0.000120898105, -789759.25, -51332.992, 0.0, 10.000001, 9.929908 
1.105e+3, 2.3458035e+2, -691325.75, -744966.44, 0.001505602, 0.0000001876824, -0.00008880606, -691325.75, -50213.23, 0.0, 10.000001, 9.929576 
1.105e+3, 2.4450338e+2, -603001.7, -667018.75, 0.0039901747, 0.00000018773284, 0.00007471986, -603001.7, -59134.83, 0.0, 10.000001, 9.916136 
1.105e+3, 2.5441962e+2, -504249.03, -568343.25, 0.0007787001, 0.00000018219073, -0.00010672083, -504249.03, -57561.484, 0.0, 10.000001, 9.916036 
1.105e+3, 2.643288e+2, -416013.63, -490987.88, 0.0021788145, 0.00000017999439, 0.00014060923, -416013.63, -66435.95, 0.0, 10.000001, 9.901964 
1.105e+3, 2.742313e+2, -316728.4, -391374.75, 0.00020960446, 0.00000018206894, -0.00020343727, -316728.4, -64195.402, 0.0, 10.000001, 9.902385 
1.105e+3, 2.841256e+2, -230255.14, -318081.22, 0.0029375756, 0.0000001832596, 0.00022904716, -230255.14, -74686.17, 0.0, 10.000001, 9.885438 
1.105e+3, 2.940121e+2, -130549.01, -217764.98, -0.00014108972, 0.00000018322058, -0.00025334346, -130549.01, -71867.62, 0.0, 10.000001, 9.886217 
1.105e+3, 3.0392656e+2, -40805.0, -84750.15, 0.00022754462, 0.00000018201273, 0.00017313607, -40805.0, -40805.0, 0.0, 10.000001, 9.942172 
1.105e+3, 3.138706e+2, -39726.98, -82511.2, -0.003542349, 0.00000017908118, -0.00005513923, -39726.98, -39726.98, 0.0, 10.000001, 9.943684 
1.115e+3, 1.2499335e+2, -1719945.6, -1724224.6, 0.0019879094, 0.00000020235356, 0.000017665334, -1719945.6, -4880.379, 0.0, 10.000001, 9.994327 
1.115e+3, 1.349876e+2, -1622565.1, -1627434.9, -0.0010346464, 0.00000020277301, -0.00006840103, -1622565.1, -5443.5923, 0.0, 10.000001, 9.993545 
1.115e+3, 1.4497514e+2, -1534463.8, -1548146.3, 0.00018582203, 0.00000020208432, 0.0000709959, -1534463.8, -15220.094, 0.0, 10.000001, 9.981864 
1.115e+3, 1.5495703e+2, -1436736.0, -1450821.9, -0.0016511555, 0.0000002001722, -0.000056943005, -1436736.0, -15314.917, 0.0, 10.000001, 9.981333 
1.115e+3, 1.6493228e+2, -1348685.1, -1371952.4, 0.0035494072, 0.0000001976129, 0.00004736394, -1348685.1, -25021.414, 0.0, 10.000001, 9.969248 
1.115e+3, 1.7490156e+2, -1250727.1, -1274310.1, -0.00019664959, 0.00000019439257, -0.000073799514, -1250727.1, -24762.393, 0.0, 10.000001, 9.968834 
1.115e+3, 1.8486421e+2, -1162646.1, -1195720.1, 0.002112755, 0.00000019380633, 0.00006617861, -1162646.1, -34315.44, 0.0, 10.000001, 9.956395 
1.115e+3, 1.9482064e+2, -1064496.4, -1097832.9, -0.00059243425, 0.0000001959763, -0.000057627913, -1064496.4, -33738.78, 0.0, 10.000001, 9.956052 
1.115e+3, 2.0477042e+2, -976332.4, -1019435.0, 0.0038684492, 0.00000019533373, 0.00006810151, -976332.4, -43082.527, 0.0, 10.000001, 9.94329 
1.115e+3, 2.1471375e+2, -878045.4, -921409.9, 0.0019848554, 0.00000019164474, -0.00012680919, -878045.4, -42240.105, 0.0, 10.000001, 9.942949 
1.115e+3, 2.2465037e+2, -789759.25, -843144.9, 0.0036502115, 0.00000018963537, 0.00012089639, -789759.25, -51333.0, 0.0, 10.000001, 9.929908 
1.115e+3, 2.3458035e+2, -691325.75, -744966.44, 0.0007412417, 0.00000018952825, -0.000088798806, -691325.75, -50213.24, 0.0, 10.000001, 9.929576 
1.115e+3, 2.4450338e+2, -603001.7, -667018.75, 0.004428136, 0.00000018954826, 0.00007472595, -603001.7, -59134.836, 0.0, 10.000001, 9.916136 
1.115e+3, 2.5441962e+2, -504249.03, -568343.3, 0.0012744424, 0.00000018971797, -0.00010672803, -504249.03, -57561.492, 0.0, 10.000001, 9.916036 
1.115e+3, 2.643288e+2, -416013.63, -490987.88, 0.002655762, 0.00000018893498, 0.00014059899, -416013.63, -66435.96, 0.0, 10.000001, 9.901964 
1.115e+3, 2.742313e+2, -316728.4, -391374.75, 0.00068528927, 0.00000018693902, -0.0002034375, -316728.4, -64195.406, 0.0, 10.000001, 9.902385 
1.115e+3, 2.841256e+2, -230255.14, -318081.25, 0.0029205089, 0.00000018616215, 0.00022905348, -230255.14, -74686.18, 0.0, 10.000001, 9.885438 
1.115e+3, 2.940121e+2, -130549.016, -217765.0, -0.00020253814, 0.00000018705924, -0.0002533354, -130549.016, -71867.625, 0.0, 10.000001, 9.886217 
1.115e+3, 3.0392656e+2, -40805.008, -84750.164, 0.0021357918, 0.00000018689738, 0.00017313965, -40805.008, -40805.008, 0.0, 10.000001, 9.942172 
1.115e+3, 3.138706e+2, -39726.99, -82511.22, -0.0014028136, 0.00000018514811, -0.00005514933, -39726.99, -39726.99, 0.0, 10.000001, 9.943684 
1.125e+3, 1.2499335e+2, -1719945.5, -1724224.6, 0.0037541385, 0.00000020530095, 0.000017666676, -1719945.5, -4880.3213, 0.0, 10.000001, 9.994327 
1.125e+3, 1.349876e+2, -1622565.1, -1627434.9, 0.00047139963, 0.00000021060534, -0.000068402514, -1622565.1, -5443.552, 0.0, 10.000001, 9.993545 
1.125e+3, 1.4497514e+2, -1534463.6, -1548146.3, 0.0027794011, 0.00000021076409, 0.000070995804, -1534463.6, -15220.056, 0.0, 10.000001, 9.981864 
1.125e+3, 1.5495703e+2, -1436736.0, -1450821.9, -0.0011533475, 0.00000020563627, -0.000056940444, -1436736.0, -15314.868, 0.0, 10.000001, 9.981333 
1.125e+3, 1.6493228e+2, -1348685.0, -1371952.3, 0.0032484457, 0.00000020218832, 0.000047366644, -1348685.0, -25021.363, 0.0, 10.000001, 9.969248 
1.125e+3, 1.7490156e+2, -1250727.0, -1274310.1, 0.0008864604, 0.00000020045533, -0.00007379925, -1250727.0, -24762.348, 0.0, 10.000001, 9.968834 
1.125e+3, 1.8486421e+2, -1162646.0, -1195720.0, 0.0032252895, 0.00000019995663, 0.00006617816, -1162646.0, -34315.4, 0.0, 10.000001, 9.956395 
1.125e+3, 1.9482064e+2, -1064496.4, -1097832.9, -0.0003596894, 0.00000020074937, -0.000057627272, -1064496.4, -33738.73, 0.0, 10.000001, 9.956052 
1.125e+3, 2.0477042e+2, -976332.4, -1019435.0, 0.0036620172, 0.00000020032898, 0.00006810296, -976332.4, -43082.477, 0.0, 10.000001, 9.94329 
1.125e+3, 2.1471375e+2, -878045.3, -921409.8, 0.00022992906, 0.00000019859453, -0.0001268072, -878045.3, -42240.066, 0.0, 10.000001, 9.942949 
1.125e+3, 2.2465037e+2, -789759.25, -843144.8, 0.0008034485, 0.00000019655602, 0.00012089846, -789759.25, -51332.96, 0.0, 10.000001, 9.929908 
1.125e+3, 2.3458035e+2, -691325.7, -744966.44, -0.0023401093, 0.0000001941737, -0.00008879713, -691325.7, -50213.19, 0.0, 10.000001, 9.929576 
1.125e+3, 2.4450338e+2, -603001.7, -667018.75, 0.0019991382, 0.00000019369996, 0.00007472709, -603001.7, -59134.79, 0.0, 10.000001, 9.916136 
1.125e+3, 2.5441962e+2, -504249.0, -568343.25, 0.00042827925, 0.00000019550615, -0.000106727566, -504249.0, -57561.45, 0.0, 10.000001, 9.916036 
1.125e+3, 2.643288e+2, -416013.6, -490987.88, 0.0024193325, 0.00000019535196, 0.00014059932, -416013.6, -66435.92, 0.0, 10.000001, 9.901964 
1.125e+3, 2.742313e+2, -316728.38, -391374.75, -0.001317498, 0.0000001926974, -0.00020343659, -316728.38, -64195.367, 0.0, 10.000001, 9.902385 
1.125e+3, 2.841256e+2, -230255.11, -318081.22, -0.000020491583, 0.0000001912504, 0.00022905481, -230255.11, -74686.14, 0.0, 10.000001, 9.885438 
1.125e+3, 2.940121e+2, -130548.97, -217764.98, -0.002487585, 0.00000019146759, -0.00025333388, -130548.97, -71867.57, 0.0, 10.000001, 9.886217 
1.125e+3, 3.0392656e+2, -40804.96, -84750.15, 0.0021699013, 0.00000019165863, 0.00017314014, -40804.96, -40804.96, 0.0, 10.000001, 9.942172 
1.125e+3, 3.138706e+2, -39726.953, -82511.21, 0.0023607945, 0.00000019179564, -0.00005515169, -39726.953, -39726.953, 0.0, 10.000001, 9.943684 
1.135e+3, 1.2499335e+2, -1719945.5, -1724224.6, -0.0005149843, 0.00000021065186, 0.000017659198, -1719945.5, -4880.3296, 0.0, 10.000001, 9.994327 
1.135e+3, 1.349876e+2, -1622565.1, -1627434.9, -0.0037990704, 0.00000021803679, -0.00006840593, -1622565.1, -5443.5605, 0.0, 10.000001, 9.993545 
1.135e+3, 1.4497514e+2, -1534463.8, -1548146.3, 0.004112654, 0.00000021765631, 0.00007099561, -1534463.8, -15220.065, 0.0, 10.000001, 9.981864 
1.135e+3, 1.5495703e+2, -1436736.0, -1450821.9, 0.00018871539, 0.0000002093525, -0.000056940837, -1436736.0, -15314.877, 0.0, 10.000001, 9.981333 
1.135e+3, 1.6493228e+2, -1348685.0, -1371952.4, 0.002081344, 0.0000002064806, 0.00004736629, -1348685.0, -25021.37, 0.0, 10.000001, 9.969248 
1.135e+3, 1.7490156e+2, -1250727.0, -1274310.1, -0.0002939348, 0.00000020915488, -0.00007379931, -1250727.0, -24762.354, 0.0, 10.000001, 9.968834 
1.135e+3, 1.8486421e+2, -1162646.1, -1195720.1, 0.0031276608, 0.00000020852018, 0.00006617739, -1162646.1, -34315.406, 0.0, 10.000001, 9.956395 
1.135e+3, 1.9482064e+2, -1064496.4, -1097832.9, -0.00044481337, 0.0000002044227, -0.000057629804, -1064496.4, -33738.742, 0.0, 10.000001, 9.956052 
1.135e+3, 2.0477042e+2, -976332.4, -1019435.0, 0.002996818, 0.00000020286693, 0.00006810284, -976332.4, -43082.484, 0.0, 10.000001, 9.94329 
1.135e+3, 2.1471375e+2, -878045.3, -921409.9, -0.00044727058, 0.0000002040641, -0.0001268004, -878045.3, -42240.074, 0.0, 10.000001, 9.942949 
1.135e+3, 2.2465037e+2, -789759.25, -843144.9, 0.0014318285, 0.00000020371635, 0.00012090434, -789759.25, -51332.97, 0.0, 10.000001, 9.929908 
1.135e+3, 2.3458035e+2, -691325.75, -744966.44, -0.0016690309, 0.00000020161873, -0.00008880105, -691325.75, -50213.2, 0.0, 10.000001, 9.929576 
1.135e+3, 2.4450338e+2, -603001.7, -667018.75, 0.0015992799, 0.00000020018791, 0.000074723284, -603001.7, -59134.793, 0.0, 10.000001, 9.916136 
1.135e+3, 2.5441962e+2, -504249.0, -568343.3, -0.000023062117, 0.00000019955527, -0.00010671944, -504249.0, -57561.453, 0.0, 10.000001, 9.916036 
1.135e+3, 2.643288e+2, -416013.6, -490987.88, 0.0030199853, 0.00000019924536, 0.00014061025, -416013.6, -66435.93, 0.0, 10.000001, 9.901964 
1.135e+3, 2.742313e+2, -316728.38, -391374.75, -0.00064630806, 0.00000019934407, -0.00020343454, -316728.38, -64195.375, 0.0, 10.000001, 9.902385 
1.135e+3, 2.841256e+2, -230255.11, -318081.25, 0.0008145087, 0.00000019852432, 0.00022905115, -230255.11, -74686.14, 0.0, 10.000001, 9.885438 
1.135e+3, 2.940121e+2, -130548.97, -217765.0, -0.0016378155, 0.00000019644561, -0.0002533389, -130548.97, -71867.58, 0.0, 10.000001, 9.886217 
1.135e+3, 3.0392656e+2, -40804.96, -84750.16, 0.001860399, 0.00000019629645, 0.00017313755, -40804.96, -40804.96, 0.0, 10.000001, 9.942172 
1.135e+3, 3.138706e+2, -39726.953, -82511.21, 0.0019152284, 0.00000019902379, -0.000055146313, -39726.953, -39726.953, 0.0, 10.000001, 9.943684 
1.145e+3, 1.2499335e+2, -1719945.5, -1724224.6, 0.002112472, 0.00000022176029, 0.000017659779, -1719945.5, -4880.2944, 0.0, 10.000001, 9.994327 
1.145e+3, 1.349876e+2, -1622565.0, -1627434.8, -0.0015737956, 0.00000022134569, -0.00006840573, -1622565.0, -5443.4995, 0.0, 10.000001, 9.993545 
1.145e+3, 1.4497514e+2, -1534463.6, -1548146.3, 0.006737328, 0.00000021938607, 0.00007099653, -1534463.6, -15220.002, 0.0, 10.000001, 9.981864 
1.145e+3, 1.5495703e+2, -1436736.0, -1450821.9, 0.0023973007, 0.00000021576173, -0.00005694016, -1436736.0, -15314.829, 0.0, 10.000001, 9.981333 
1.145e+3, 1.6493228e+2, -1348685.0, -1371952.3, 0.0032945536, 0.00000021458023, 0.000047367248, -1348685.0, -25021.324, 0.0, 10.000001, 9.969248 
1.145e+3, 1.7490156e+2, -1250727.0, -1274310.1, -0.00027876787, 0.00000021589298, -0.00007379754, -1250727.0, -24762.305, 0.0, 10.000001, 9.968834 
1.145e+3, 1.8486421e+2, -1162646.0, -1195720.0, 0.0033753354, 0.0000002142378, 0.00006617911, -1162646.0, -34315.36, 0.0, 10.000001, 9.956395 
1.145e+3, 1.9482064e+2, -1064496.3, -1097832.9, 0.00028025624, 0.00000020947667, -0.00005762903, -1064496.3, -33738.69, 0.0, 10.000001, 9.956052 
1.145e+3, 2.0477042e+2, -976332.3, -1019435.0, 0.0034911244, 0.00000020810481, 0.00006810316, -976332.3, -43082.438, 0.0, 10.000001, 9.94329 
1.145e+3, 2.1471375e+2, -878045.3, -921409.8, 0.00036661423, 0.00000021040375, -0.0001268, -878045.3, -42240.023, 0.0, 10.000001, 9.942949 
1.145e+3, 2.2465037e+2, -789759.2, -843144.8, 0.0039335927, 0.00000021029427, 0.00012090451, -789759.2, -51332.918, 0.0, 10.000001, 9.929908 
1.145e+3, 2.3458035e+2, -691325.7, -744966.4, 0.0017060915, 0.00000020745712, -0.00008880146, -691325.7, -50213.152, 0.0, 10.000001, 9.929576 
1.145e+3, 2.4450338e+2, -603001.6, -667018.75, 0.0033726157, 0.00000020568189, 0.000074723146, -603001.6, -59134.746, 0.0, 10.000001, 9.916136 
1.145e+3, 2.5441962e+2, -504248.97, -568343.25, -0.0016184478, 0.0000002051778, -0.00010671826, -504248.97, -57561.406, 0.0, 10.000001, 9.916036 
1.145e+3, 2.643288e+2, -416013.56, -490987.88, 0.0011812892, 0.00000020498558, 0.00014061172, -416013.56, -66435.875, 0.0, 10.000001, 9.901964 
1.145e+3, 2.742313e+2, -316728.3, -391374.75, -0.000005816313, 0.00000020518699, -0.00020343409, -316728.3, -64195.33, 0.0, 10.000001, 9.902385 
1.145e+3, 2.841256e+2, -230255.06, -318081.22, 0.0028583, 0.00000020441985, 0.00022905064, -230255.06, -74686.1, 0.0, 10.000001, 9.885438 
1.145e+3, 2.940121e+2, -130548.93, -217764.98, 0.000009925154, 0.00000020232527, -0.0002533403, -130548.93, -71867.54, 0.0, 10.000001, 9.886217 
1.145e+3, 3.0392656e+2, -40804.918, -84750.14, 0.00081913924, 0.00000020200797, 0.00017313706, -40804.918, -40804.918, 0.0, 10.000001, 9.942172 
1.145e+3, 3.138706e+2, -39726.902, -82511.195, -0.0047143083, 0.00000020434193, -0.0000551432, -39726.902, -39726.902, 0.0, 10.000001, 9.943684 
1.155e+3, 1.2499335e+2, -1719945.5, -1724224.6, 0.003770397, 0.0000002386262, 0.000017668417, -1719945.5, -4880.304, 0.0, 10.000001, 9.994327 
1.155e+3, 1.349876e+2, -1622565.0, -1627434.9, 0.000084059306, 0.00000022053207, -0.00006840191, -1622565.0, -5443.5093, 0.0, 10.000001, 9.993545 
1.155e+3, 1.4497514e+2, -1534463.6, -1548146.3, 0.004394312, 0.00000021595342, 0.000070998576, -1534463.6, -15220.013, 0.0, 10.000001, 9.981864 
1.155e+3, 1.5495703e+2, -1436736.0, -1450821.9, 0.000047889374, 0.0000002248639, -0.000056938414, -1436736.0, -15314.84, 0.0, 10.000001, 9.981333 
1.155e+3, 1.6493228e+2, -1348685.0, -1371952.4, 0.0030578617, 0.00000022648712, 0.000047369507, -1348685.0, -25021.334, 0.0, 10.000001, 9.969248 
1.155e+3, 1.7490156e+2, -1250727.0, -1274310.1, -0.0005043573, 0.00000022066968, -0.00007379394, -1250727.0, -24762.314, 0.0, 10.000001, 9.968834 
1.155e+3, 1.8486421e+2, -1162646.0, -1195720.1, 0.003296095, 0.00000021710953, 0.000066183326, -1162646.0, -34315.363, 0.0, 10.000001, 9.956395 
1.155e+3, 1.9482064e+2, -1064496.3, -1097832.9, 0.00020268274, 0.00000021591124, -0.00005762495, -1064496.3, -33738.7, 0.0, 10.000001, 9.956052 
1.155e+3, 2.0477042e+2, -976332.3, -1019435.0, 0.0027181676, 0.00000021604258, 0.000068103924, -976332.3, -43082.445, 0.0, 10.000001, 9.94329 
1.155e+3, 2.1471375e+2, -878045.3, -921409.9, -0.00042072823, 0.00000021761352, -0.00012680599, -878045.3, -42240.03, 0.0, 10.000001, 9.942949 
1.155e+3, 2.2465037e+2, -789759.2, -843144.8, 0.004069256, 0.00000021628978, 0.00012089897, -789759.2, -51332.926, 0.0, 10.000001, 9.929908 
1.155e+3, 2.3458035e+2, -691325.7, -744966.44, 0.0018719293, 0.00000021168887, -0.00008879839, -691325.7, -50213.156, 0.0, 10.000001, 9.929576 
1.155e+3, 2.4450338e+2, -603001.6, -667018.75, 0.0035223884, 0.0000002101819, 0.00007472668, -603001.6, -59134.758, 0.0, 10.000001, 9.916136 
1.155e+3, 2.5441962e+2, -504248.97, -568343.3, -0.0014694484, 0.00000021237373, -0.00010672402, -504248.97, -57561.414, 0.0, 10.000001, 9.916036 
1.155e+3, 2.643288e+2, -416013.56, -490987.88, 0.0014103607, 0.0000002125726, 0.00014060375, -416013.56, -66435.88, 0.0, 10.000001, 9.901964 
1.155e+3, 2.742313e+2, -316728.3, -391374.75, 0.00022860274, 0.00000021022618, -0.00020343524, -316728.3, -64195.33, 0.0, 10.000001, 9.902385 
1.155e+3, 2.841256e+2, -230255.08, -318081.22, 0.0032368756, 0.00000020893697, 0.00022905326, -230255.08, -74686.1, 0.0, 10.000001, 9.885438 
1.155e+3, 2.940121e+2, -130548.94, -217765.0, 0.00040149494, 0.00000020910653, -0.0002533381, -130548.94, -71867.54, 0.0, 10.000001, 9.886217 
1.155e+3, 3.0392656e+2, -40804.93, -84750.164, 0.001994736, 0.0000002087932, 0.00017313867, -40804.93, -40804.93, 0.0, 10.000001, 9.942172 
1.155e+3, 3.138706e+2, -39726.914, -82511.22, -0.003446625, 0.00000020775012, -0.000055142344, -39726.914, -39726.914, 0.0, 10.000001, 9.943684 
1.165e+3, 1.2499335e+2, -1719945.5, -1724224.6, 0.0009965374, 0.00000024567606, 0.000017672855, -1719945.5, -4880.2466, 0.0, 10.000001, 9.994327 
1.165e+3, 1.349876e+2, -1622565.0, -1627434.8, -0.0025552113, 0.00000022715561, -0.0000683973, -1622565.0, -5443.459, 0.0, 10.000001, 9.993545 
1.165e+3, 1.4497514e+2, -1534463.6, -1548146.3, 0.0000298788, 0.00000022234912, 0.00007100269, -1534463.6, -15219.963, 0.0, 10.000001, 9.981864 
1.165e+3, 1.5495703e+2, -1436735.9, -1450821.9, -0.002622557, 0.00000023123195, -0.00005693653, -1436735.9, -15314.786, 0.0, 10.000001, 9.981333 
1.165e+3, 1.6493228e+2, -1348685.0, -1371952.3, 0.002375073, 0.00000023268791, 0.000047370708, -1348685.0, -25021.28, 0.0, 10.000001, 9.969248 
1.165e+3, 1.7490156e+2, -1250726.9, -1274310.1, -0.0013859144, 0.00000022656062, -0.000073791845, -1250726.9, -24762.262, 0.0, 10.000001, 9.968834 
1.165e+3, 1.8486421e+2, -1162646.0, -1195720.0, 0.0025926002, 0.00000022343025, 0.00006618557, -1162646.0, -34315.313, 0.0, 10.000001, 9.956395 
1.165e+3, 1.9482064e+2, -1064496.3, -1097832.9, -0.0004243671, 0.0000002234357, -0.000057623372, -1064496.3, -33738.65, 0.0, 10.000001, 9.956052 
1.165e+3, 2.0477042e+2, -976332.25, -1019435.0, 0.001812571, 0.00000022327235, 0.000068105066, -976332.25, -43082.395, 0.0, 10.000001, 9.94329 
1.165e+3, 2.1471375e+2, -878045.25, -921409.8, -0.0013421342, 0.00000022292572, -0.00012680504, -878045.25, -42239.98, 0.0, 10.000001, 9.942949 
1.165e+3, 2.2465037e+2, -789759.1, -843144.8, 0.0028451874, 0.00000022134066, 0.00012090041, -789759.1, -51332.875, 0.0, 10.000001, 9.929908 
1.165e+3, 2.3458035e+2, -691325.6, -744966.4, -0.001699011, 0.00000021835379, -0.000088795685, -691325.6, -50213.105, 0.0, 10.000001, 9.929576 
1.165e+3, 2.4450338e+2, -603001.56, -667018.75, 0.00037789872, 0.00000021726167, 0.000074728836, -603001.56, -59134.707, 0.0, 10.000001, 9.916136 
1.165e+3, 2.5441962e+2, -504248.9, -568343.25, -0.000085395586, 0.00000021843402, -0.00010672457, -504248.9, -57561.367, 0.0, 10.000001, 9.916036 
1.165e+3, 2.643288e+2, -416013.5, -490987.84, 0.0040160106, 0.00000021818293, 0.00014060253, -416013.5, -66435.836, 0.0, 10.000001, 9.901964 
1.165e+3, 2.742313e+2, -316728.28, -391374.75, -0.0011580834, 0.00000021611474, -0.00020343455, -316728.28, -64195.28, 0.0, 10.000001, 9.902385 
1.165e+3, 2.841256e+2, -230255.02, -318081.22, -0.00014381469, 0.00000021508026, 0.00022905509, -230255.02, -74686.055, 0.0, 10.000001, 9.885438 
1.165e+3, 2.940121e+2, -130548.88, -217764.98, -0.0026336468, 0.00000021546896, -0.00025333615, -130548.88, -71867.49, 0.0, 10.000001, 9.886217 
1.165e+3, 3.0392656e+2, -40804.883, -84750.16, 0.0016044669, 0.00000021496068, 0.0001731393, -40804.883, -40804.883, 0.0, 10.000001, 9.942172 
1.165e+3, 3.138706e+2, -39726.87, -82511.21, 0.0016676651, 0.0000002131083, -0.000055145112, -39726.87, -39726.87, 0.0, 10.000001, 9.943684 
1.175e+3, 1.2499335e+2, -1719945.5, -1724224.6, 0.0010645207, 0.00000024291, 0.000017673095, -1719945.5, -4880.256, 0.0, 10.000001, 9.994327 
1.175e+3, 1.349876e+2, -1622565.0, -1627434.9, -0.0024877123, 0.0000002412162, -0.00006839187, -1622565.0, -5443.4683, 0.0, 10.000001, 9.993545 
1.175e+3, 1.4497514e+2, -1534463.6, -1548146.3, -0.0011648531, 0.00000023857305, 0.00007100887, -1534463.6, -15219.97, 0.0, 10.000001, 9.981864 
1.175e+3, 1.5495703e+2, -1436735.9, -1450821.9, -0.0038193655, 0.00000023486591, -0.000056934514, -1436735.9, -15314.793, 0.0, 10.000001, 9.981333 
1.175e+3, 1.6493228e+2, -1348685.0, -1371952.4, 0.0015279704, 0.00000023318266, 0.00004737085, -1348685.0, -25021.287, 0.0, 10.000001, 9.969248 
1.175e+3, 1.7490156e+2, -1250726.9, -1274310.1, -0.002231205, 0.00000023356581, -0.00007379124, -1250726.9, -24762.27, 0.0, 10.000001, 9.968834 
1.175e+3, 1.8486421e+2, -1162646.0, -1195720.1, 0.0020972677, 0.00000023319991, 0.00006618582, -1162646.0, -34315.32, 0.0, 10.000001, 9.956395 
1.175e+3, 1.9482064e+2, -1064496.3, -1097832.9, -0.0009156773, 0.00000023205003, -0.0000576243, -1064496.3, -33738.656, 0.0, 10.000001, 9.956052 
1.175e+3, 2.0477042e+2, -976332.25, -1019435.0, 0.0013934803, 0.00000022979414, 0.00006810659, -976332.25, -43082.402, 0.0, 10.000001, 9.94329 
1.175e+3, 2.1471375e+2, -878045.25, -921409.9, -0.0017597543, 0.00000022634036, -0.00012679714, -878045.25, -42239.99, 0.0, 10.000001, 9.942949 
1.175e+3, 2.2465037e+2, -789759.1, -843144.9, 0.0031372528, 0.00000022544694, 0.00012090884, -789759.1, -51332.883, 0.0, 10.000001, 9.929908 
1.175e+3, 2.3458035e+2, -691325.6, -744966.44, -0.0013837356, 0.00000022745184, -0.000088793364, -691325.6, -50213.117, 0.0, 10.000001, 9.929576 
1.175e+3, 2.4450338e+2, -603001.56, -667018.75, 0.00003280514, 0.00000022692116, 0.00007472962, -603001.56, -59134.707, 0.0, 10.000001, 9.916136 
1.175e+3, 2.5441962e+2, -504248.9, -568343.25, -0.000462262, 0.00000022335865, -0.00010671988, -504248.9, -57561.367, 0.0, 10.000001, 9.916036 
1.175e+3, 2.643288e+2, -416013.5, -490987.88, 0.0044203377, 0.0000002218166, 0.00014060807, -416013.5, -66435.84, 0.0, 10.000001, 9.901964 
1.175e+3, 2.742313e+2, -316728.28, -391374.75, -0.00070138363, 0.00000022285269, -0.00020343205, -316728.28, -64195.293, 0.0, 10.000001, 9.902385 
1.175e+3, 2.841256e+2, -230255.03, -318081.22, 0.00059908594, 0.00000022284972, 0.00022905612, -230255.03, -74686.06, 0.0, 10.000001, 9.885438 
1.175e+3, 2.940121e+2, -130548.89, -217765.0, -0.0018649654, 0.00000022141256, -0.00025333447, -130548.89, -71867.5, 0.0, 10.000001, 9.886217 
1.175e+3, 3.0392656e+2, -40804.883, -84750.16, 0.001980433, 0.00000022051042, 0.00017313895, -40804.883, -40804.883, 0.0, 10.000001, 9.942172 
1.175e+3, 3.138706e+2, -39726.87, -82511.21, 0.0019975458, 0.00000022041645, -0.0000551515, -39726.87, -39726.87, 0.0, 10.000001, 9.943684 
1.185e+3, 1.2499335e+2, -1719945.4, -1724224.6, 0.0053818002, 0.0000002467004, 0.000017674283, -1719945.4, -4880.1904, 0.0, 10.000001, 9.994327 
1.185e+3, 1.349876e+2, -1622564.9, -1627434.8, 0.0011763759, 0.00000025009405, -0.00006839053, -1622564.9, -5443.4155, 0.0, 10.000001, 9.993545 
1.185e+3, 1.4497514e+2, -1534463.5, -1548146.3, 0.0024331666, 0.00000024862135, 0.00007101022, -1534463.5, -15219.92, 0.0, 10.000001, 9.981864 
1.185e+3, 1.5495703e+2, -1436735.9, -1450821.9, -0.0011627112, 0.0000002421447, -0.000056933157, -1436735.9, -15314.738, 0.0, 10.000001, 9.981333 
1.185e+3, 1.6493228e+2, -1348684.9, -1371952.3, 0.003786794, 0.000000239116, 0.00004737186, -1348684.9, -25021.232, 0.0, 10.000001, 9.969248 
1.185e+3, 1.7490156e+2, -1250726.9, -1274310.1, 0.0002608221, 0.00000023960757, -0.00007379094, -1250726.9, -24762.215, 0.0, 10.000001, 9.968834 
1.185e+3, 1.8486421e+2, -1162645.9, -1195720.0, 0.004024658, 0.0000002398524, 0.000066186134, -1162645.9, -34315.266, 0.0, 10.000001, 9.956395 
1.185e+3, 1.9482064e+2, -1064496.3, -1097832.9, -0.00004680297, 0.00000023983878, -0.000057623216, -1064496.3, -33738.605, 0.0, 10.000001, 9.956052 
1.185e+3, 2.0477042e+2, -976332.25, -1019435.0, 0.0025577194, 0.00000023716251, 0.000068108144, -976332.25, -43082.35, 0.0, 10.000001, 9.94329 
1.185e+3, 2.1471375e+2, -878045.2, -921409.8, -0.0015826137, 0.0000002316024, -0.00012679542, -878045.2, -42239.93, 0.0, 10.000001, 9.942949 
1.185e+3, 2.2465037e+2, -789759.06, -843144.8, 0.002622972, 0.00000023068827, 0.0001209098, -789759.06, -51332.824, 0.0, 10.000001, 9.929908 
1.185e+3, 2.3458035e+2, -691325.6, -744966.44, 0.00074575853, 0.00000023503387, -0.00008879419, -691325.6, -50213.07, 0.0, 10.000001, 9.929576 
1.185e+3, 2.4450338e+2, -603001.56, -667018.75, 0.0027867933, 0.00000023490875, 0.000074729214, -603001.56, -59134.664, 0.0, 10.000001, 9.916136 
1.185e+3, 2.5441962e+2, -504248.88, -568343.25, -0.0031801478, 0.00000022943779, -0.00010671723, -504248.88, -57561.316, 0.0, 10.000001, 9.916036 
1.185e+3, 2.643288e+2, -416013.47, -490987.84, -0.000329868, 0.0000002271697, 0.0001406112, -416013.47, -66435.79, 0.0, 10.000001, 9.901964 
1.185e+3, 2.742313e+2, -316728.25, -391374.75, -0.0013356756, 0.00000022899002, -0.00020343174, -316728.25, -64195.24, 0.0, 10.000001, 9.902385 
1.185e+3, 2.841256e+2, -230254.98, -318081.22, 0.0023161706, 0.00000022954276, 0.00022905521, -230254.98, -74686.01, 0.0, 10.000001, 9.885438 
1.185e+3, 2.940121e+2, -130548.84, -217764.98, -0.0012656851, 0.00000022834156, -0.00025333435, -130548.84, -71867.45, 0.0, 10.000001, 9.886217 
1.185e+3, 3.0392656e+2, -40804.836, -84750.14, 0.00058174744, 0.00000022722594, 0.00017314016, -40804.836, -40804.836, 0.0, 10.000001, 9.942172 
1.185e+3, 3.138706e+2, -39726.816, -82511.195, -0.0041968, 0.00000022625416, -0.00005514911, -39726.816, -39726.816, 0.0, 10.000001, 9.943684 
1.195e+3, 1.2499335e+2, -1719945.4, -1724224.6, 0.002483842, 0.00000025704722, 0.000017676419, -1719945.4, -4880.201, 0.0, 10.000001, 9.994327 
1.195e+3, 1.349876e+2, -1622565.0, -1627434.9, -0.0017228667, 0.00000025378915, -0.00006839328, -1622565.0, -5443.4263, 0.0, 10.000001, 9.993545 
1.195e+3, 1.4497514e+2, -1534463.5, -1548146.3, 0.0022368208, 0.00000025249403, 0.000071006725, -1534463.5, -15219.93, 0.0, 10.000001, 9.981864 
1.195e+3, 1.5495703e+2, -1436735.9, -1450821.9, -0.0013548268, 0.0000002530683, -0.00005693245, -1436735.9, -15314.748, 0.0, 10.000001, 9.981333 
1.195e+3, 1.6493228e+2, -1348684.9, -1371952.4, 0.0031572974, 0.00000025048783, 0.000047373753, -1348684.9, -25021.24, 0.0, 10.000001, 9.969248 
1.195e+3, 1.7490156e+2, -1250726.9, -1274310.1, -0.0003710182, 0.00000024468596, -0.000073790936, -1250726.9, -24762.223, 0.0, 10.000001, 9.968834 
1.195e+3, 1.8486421e+2, -1162645.9, -1195720.1, 0.0026909148, 0.00000024338775, 0.000066186505, -1162645.9, -34315.277, 0.0, 10.000001, 9.956395 
1.195e+3, 1.9482064e+2, -1064496.3, -1097832.9, -0.0013886897, 0.000000246802, -0.000057620124, -1064496.3, -33738.613, 0.0, 10.000001, 9.956052 
1.195e+3, 2.0477042e+2, -976332.25, -1019435.0, 0.0038008224, 0.00000024537744, 0.00006810975, -976332.25, -43082.36, 0.0, 10.000001, 9.94329 
1.195e+3, 2.1471375e+2, -878045.2, -921409.8, -0.00028613032, 0.00000023871178, -0.00012679987, -878045.2, -42239.938, 0.0, 10.000001, 9.942949 
1.195e+3, 2.2465037e+2, -789759.06, -843144.8, 0.00038508137, 0.00000023706464, 0.00012090331, -789759.06, -51332.832, 0.0, 10.000001, 9.929908 
1.195e+3, 2.3458035e+2, -691325.6, -744966.44, -0.0016077907, 0.0000002410999, -0.00008879817, -691325.6, -50213.074, 0.0, 10.000001, 9.929576 
1.195e+3, 2.4450338e+2, -603001.56, -667018.75, 0.0044475887, 0.00000024122443, 0.00007472761, -603001.56, -59134.676, 0.0, 10.000001, 9.916136 
1.195e+3, 2.5441962e+2, -504248.88, -568343.3, -0.0013264514, 0.00000023667143, -0.00010671659, -504248.88, -57561.33, 0.0, 10.000001, 9.916036 
1.195e+3, 2.643288e+2, -416013.47, -490987.88, -0.0007223053, 0.00000023424225, 0.00014061193, -416013.47, -66435.79, 0.0, 10.000001, 9.901964 
1.195e+3, 2.742313e+2, -316728.25, -391374.75, -0.001878742, 0.0000002345267, -0.00020343365, -316728.25, -64195.242, 0.0, 10.000001, 9.902385 
1.195e+3, 2.841256e+2, -230254.98, -318081.22, 0.0023184896, 0.0000002351594, 0.00022905236, -230254.98, -74686.016, 0.0, 10.000001, 9.885438 
1.195e+3, 2.940121e+2, -130548.85, -217765.0, -0.0012142359, 0.00000023625596, -0.00025333583, -130548.85, -71867.46, 0.0, 10.000001, 9.886217 
1.195e+3, 3.0392656e+2, -40804.844, -84750.164, 0.0023473108, 0.00000023510724, 0.00017314292, -40804.844, -40804.844, 0.0, 10.000001, 9.942172 
1.195e+3, 3.138706e+2, -39726.83, -82511.21, -0.0022299753, 0.00000023062144, -0.00005513794, -39726.83, -39726.83, 0.0, 10.000001, 9.943684 
1.205e+3, 1.2499335e+2, -1719945.4, -1724224.6, 0.0024048472, 0.0000002641977, 0.000017677728, -1719945.4, -4880.1436, 0.0, 10.000001, 9.994327 
1.205e+3, 1.349876e+2, -1622564.9, -1627434.8, -0.0017475005, 0.00000026137738, -0.000068392466, -1622564.9, -5443.364, 0.0, 10.000001, 9.993545 
1.205e+3, 1.4497514e+2, -1534463.5, -1548146.3, 0.0035013047, 0.00000026005597, 0.000071007235, -1534463.5, -15219.866, 0.0, 10.000001, 9.981864 
1.205e+3, 1.5495703e+2, -1436735.8, -1450821.9, -0.00085018843, 0.00000026013893, -0.000056930574, -1436735.8, -15314.689, 0.0, 10.000001, 9.981333 
1.205e+3, 1.6493228e+2, -1348684.9, -1371952.3, 0.003124475, 0.0000002577344, 0.00004737618, -1348684.9, -25021.186, 0.0, 10.000001, 9.969248 
1.205e+3, 1.7490156e+2, -1250726.9, -1274310.1, -0.0010540346, 0.0000002527898, -0.0000737888, -1250726.9, -24762.166, 0.0, 10.000001, 9.968834 
1.205e+3, 1.8486421e+2, -1162645.9, -1195720.0, 0.0014654979, 0.00000025077395, 0.00006618839, -1162645.9, -34315.22, 0.0, 10.000001, 9.956395 
1.205e+3, 1.9482064e+2, -1064496.1, -1097832.9, -0.002437388, 0.00000025182257, -0.00005761846, -1064496.1, -33738.55, 0.0, 10.000001, 9.956052 
1.205e+3, 2.0477042e+2, -976332.2, -1019434.94, 0.0041432534, 0.00000025103577, 0.000068111, -976332.2, -43082.3, 0.0, 10.000001, 9.94329 
1.205e+3, 2.1471375e+2, -878045.2, -921409.8, 0.001564991, 0.00000024826076, -0.00012679923, -878045.2, -42239.89, 0.0, 10.000001, 9.942949 
1.205e+3, 2.2465037e+2, -789759.06, -843144.8, 0.0014966286, 0.0000002464665, 0.00012090406, -789759.06, -51332.78, 0.0, 10.000001, 9.929908 
1.205e+3, 2.3458035e+2, -691325.56, -744966.4, -0.0037742667, 0.00000024578304, -0.0000887965, -691325.56, -50213.008, 0.0, 10.000001, 9.929576 
1.205e+3, 2.4450338e+2, -603001.5, -667018.75, 0.0027171492, 0.00000024512192, 0.00007472904, -603001.5, -59134.61, 0.0, 10.000001, 9.916136 
1.205e+3, 2.5441962e+2, -504248.8, -568343.25, 0.0013116808, 0.000000244486, -0.00010671679, -504248.8, -57561.277, 0.0, 10.000001, 9.916036 
1.205e+3, 2.643288e+2, -416013.4, -490987.84, 0.0029514332, 0.00000024327048, 0.00014061132, -416013.4, -66435.74, 0.0, 10.000001, 9.901964 
1.205e+3, 2.742313e+2, -316728.2, -391374.75, -0.0020342863, 0.00000024131708, -0.00020343311, -316728.2, -64195.188, 0.0, 10.000001, 9.902385 
1.205e+3, 2.841256e+2, -230254.92, -318081.22, 0.000108738685, 0.000000240711, 0.00022905348, -230254.92, -74685.96, 0.0, 10.000001, 9.885438 
1.205e+3, 2.940121e+2, -130548.8, -217764.98, -0.0032387052, 0.00000024195205, -0.00025333493, -130548.8, -71867.4, 0.0, 10.000001, 9.886217 
1.205e+3, 3.0392656e+2, -40804.79, -84750.15, 0.0020029156, 0.00000024142105, 0.00017314323, -40804.79, -40804.79, 0.0, 10.000001, 9.942172 
1.205e+3, 3.138706e+2, -39726.78, -82511.2, 0.00060428825, 0.00000023824288, -0.000055138727, -39726.78, -39726.78, 0.0, 10.000001, 9.943684 
1.215e+3, 1.2499335e+2, -1719945.4, -1724224.6, 0.0006048869, 0.00000026815187, 0.00001767821, -1719945.4, -4880.155, 0.0, 10.000001, 9.994327 
1.215e+3, 1.349876e+2, -1622564.9, -1627434.9, -0.0035485765, 0.00000027285876, -0.00006838809, -1622564.9, -5443.3745, 0.0, 10.000001, 9.993545 
1.215e+3, 1.4497514e+2, -1534463.5, -1548146.3, 0.0022693186, 0.00000027130713, 0.00007101174, -1534463.5, -15219.878, 0.0, 10.000001, 9.981864 
1.215e+3, 1.5495703e+2, -1436735.9, -1450821.9, -0.0020813157, 0.00000026335664, -0.00005692752, -1436735.9, -15314.7, 0.0, 10.000001, 9.981333 
1.215e+3, 1.6493228e+2, -1348684.9, -1371952.4, 0.002666515, 0.00000026085576, 0.000047379144, -1348684.9, -25021.195, 0.0, 10.000001, 9.969248 
1.215e+3, 1.7490156e+2, -1250726.9, -1274310.1, -0.0015079279, 0.00000026391905, -0.000073784526, -1250726.9, -24762.176, 0.0, 10.000001, 9.968834 
1.215e+3, 1.8486421e+2, -1162645.9, -1195720.0, 0.0011207964, 0.00000026201096, 0.00006619179, -1162645.9, -34315.227, 0.0, 10.000001, 9.956395 
1.215e+3, 1.9482064e+2, -1064496.1, -1097832.9, -0.0027808414, 0.0000002549005, -0.000057618236, -1064496.1, -33738.563, 0.0, 10.000001, 9.956052 
1.215e+3, 2.0477042e+2, -976332.2, -1019435.0, 0.002373313, 0.0000002541375, 0.0000681119, -976332.2, -43082.305, 0.0, 10.000001, 9.94329 
1.215e+3, 2.1471375e+2, -878045.2, -921409.8, -0.00023443275, 0.00000026024927, -0.0001267935, -878045.2, -42239.9, 0.0, 10.000001, 9.942949 
1.215e+3, 2.2465037e+2, -789759.06, -843144.9, 0.0032225482, 0.0000002588938, 0.00012091205, -789759.06, -51332.793, 0.0, 10.000001, 9.929908 
1.215e+3, 2.3458035e+2, -691325.56, -744966.44, -0.0019330274, 0.00000024908329, -0.000088789166, -691325.56, -50213.02, 0.0, 10.000001, 9.929576 
1.215e+3, 2.4450338e+2, -603001.5, -667018.75, 0.0010363896, 0.00000024660122, 0.00007473351, -603001.5, -59134.613, 0.0, 10.000001, 9.916136 
1.215e+3, 2.5441962e+2, -504248.8, -568343.25, -0.0005383733, 0.00000025288145, -0.00010671783, -504248.8, -57561.28, 0.0, 10.000001, 9.916036 
1.215e+3, 2.643288e+2, -416013.44, -490987.88, 0.0038876208, 0.00000025425436, 0.00014060937, -416013.44, -66435.76, 0.0, 10.000001, 9.901964 
1.215e+3, 2.742313e+2, -316728.2, -391374.75, -0.00091132184, 0.00000024936116, -0.00020343013, -316728.2, -64195.2, 0.0, 10.000001, 9.902385 
1.215e+3, 2.841256e+2, -230254.94, -318081.22, 0.00091233576, 0.0000002461975, 0.00022905854, -230254.94, -74685.97, 0.0, 10.000001, 9.885438 
1.215e+3, 2.940121e+2, -130548.8, -217765.0, -0.0024639133, 0.00000024542985, -0.00025333173, -130548.8, -71867.41, 0.0, 10.000001, 9.886217 
1.215e+3, 3.0392656e+2, -40804.793, -84750.16, 0.0016121257, 0.0000002461674, 0.00017314107, -40804.793, -40804.793, 0.0, 10.000001, 9.942172 
1.215e+3, 3.138706e+2, -39726.785, -82511.21, 0.00007666953, 0.00000024911844, -0.000055151468, -39726.785, -39726.785, 0.0, 10.000001, 9.943684 
1.225e+3, 1.2499335e+2, -1719945.3, -1724224.6, 0.0038344667, 0.00000027772666, 0.000017679911, -1719945.3, -4880.0913, 0.0, 10.000001, 9.994327 
1.225e+3, 1.349876e+2, -1622564.9, -1627434.8, -0.00060472166, 0.00000028019087, -0.00006838671, -1622564.9, -5443.312, 0.0, 10.000001, 9.993545 
1.225e+3, 1.4497514e+2, -1534463.4, -1548146.3, 0.0057606106, 0.00000027759944, 0.000071012146, -1534463.4, -15219.814, 0.0, 10.000001, 9.981864 
1.225e+3, 1.5495703e+2, -1436735.8, -1450821.9, 0.0003035491, 0.00000026982164, -0.000056925754, -1436735.8, -15314.633, 0.0, 10.000001, 9.981333 
1.225e+3, 1.6493228e+2, -1348684.8, -1371952.3, 0.003832282, 0.00000026793964, 0.000047381334, -1348684.8, -25021.127, 0.0, 10.000001, 9.969248 
1.225e+3, 1.7490156e+2, -1250726.8, -1274310.1, -0.00030543795, 0.00000027207736, -0.000073782874, -1250726.8, -24762.115, 0.0, 10.000001, 9.968834 
1.225e+3, 1.8486421e+2, -1162645.9, -1195720.0, 0.0034691333, 0.0000002702824, 0.000066193, -1162645.9, -34315.168, 0.0, 10.000001, 9.956395 
1.225e+3, 1.9482064e+2, -1064496.1, -1097832.9, -0.00050937076, 0.00000026227912, -0.000057617344, -1064496.1, -33738.504, 0.0, 10.000001, 9.956052 
1.225e+3, 2.0477042e+2, -976332.1, -1019434.94, 0.0020978553, 0.00000026098743, 0.00006811312, -976332.1, -43082.246, 0.0, 10.000001, 9.94329 
1.225e+3, 2.1471375e+2, -878045.1, -921409.8, -0.0035910902, 0.00000026696492, -0.00012679124, -878045.1, -42239.832, 0.0, 10.000001, 9.942949 
1.225e+3, 2.2465037e+2, -789759.0, -843144.8, 0.0013075445, 0.00000026599534, 0.000120914345, -789759.0, -51332.73, 0.0, 10.000001, 9.929907 
1.225e+3, 2.3458035e+2, -691325.5, -744966.4, -0.00072877493, 0.00000025715926, -0.00008878796, -691325.5, -50212.97, 0.0, 10.000001, 9.929576 
1.225e+3, 2.4450338e+2, -603001.44, -667018.75, 0.0012060853, 0.0000002546399, 0.0000747344, -603001.44, -59134.563, 0.0, 10.000001, 9.916136 
1.225e+3, 2.5441962e+2, -504248.78, -568343.25, -0.0040976168, 0.0000002596738, -0.00010671634, -504248.78, -57561.22, 0.0, 10.000001, 9.916036 
1.225e+3, 2.643288e+2, -416013.38, -490987.84, 0.0004122718, 0.00000026062855, 0.00014061094, -416013.38, -66435.695, 0.0, 10.000001, 9.901964 
1.225e+3, 2.742313e+2, -316728.13, -391374.75, -0.0018053105, 0.0000002563739, -0.00020342911, -316728.13, -64195.14, 0.0, 10.000001, 9.902385 
1.225e+3, 2.841256e+2, -230254.88, -318081.22, 0.001495427, 0.00000025365063, 0.00022905908, -230254.88, -74685.914, 0.0, 10.000001, 9.885438 
1.225e+3, 2.940121e+2, -130548.75, -217764.98, -0.0016862301, 0.00000025304715, -0.0002533315, -130548.75, -71867.35, 0.0, 10.000001, 9.886217 
1.225e+3, 3.0392656e+2, -40804.742, -84750.14, 0.0015831201, 0.00000025352367, 0.00017314112, -40804.742, -40804.742, 0.0, 10.000001, 9.942172 
1.225e+3, 3.138706e+2, -39726.727, -82511.195, -0.0021362323, 0.000000255585, -0.000055151377, -39726.727, -39726.727, 0.0, 10.000001, 9.943684 
1.235e+3, 1.2499335e+2, -1719945.3, -1724224.6, 0.001863066, 0.000000292922, 0.000017682833, -1719945.3, -4880.103, 0.0, 10.000001, 9.994327 
1.235e+3, 1.349876e+2, -1622564.9, -1627434.9, -0.0025772888, 0.00000028337382, -0.000068388326, -1622564.9, -5443.3237, 0.0, 10.000001, 9.993545 
1.235e+3, 1.4497514e+2, -1534463.5, -1548146.3, 0.005683334, 0.00000027893287, 0.00007100844, -1534463.5, -15219.828, 0.0, 10.000001, 9.981864 
1.235e+3, 1.5495703e+2, -1436735.8, -1450821.9, 0.00022927255, 0.00000027953394, -0.000056925266, -1436735.8, -15314.6455, 0.0, 10.000001, 9.981333 
1.235e+3, 1.6493228e+2, -1348684.8, -1371952.3, 0.001615231, 0.000000278986, 0.00004738275, -1348684.8, -25021.137, 0.0, 10.000001, 9.969248 
1.235e+3, 1.7490156e+2, -1250726.8, -1274310.1, -0.0025338116, 0.0000002772648, -0.000073783856, -1250726.8, -24762.125, 0.0, 10.000001, 9.968834 
1.235e+3, 1.8486421e+2, -1162645.9, -1195720.0, 0.0034578238, 0.0000002755883, 0.00006619203, -1162645.9, -34315.18, 0.0, 10.000001, 9.956395 
1.235e+3, 1.9482064e+2, -1064496.1, -1097832.9, -0.0004950076, 0.00000027395836, -0.00005761579, -1064496.1, -33738.51, 0.0, 10.000001, 9.956052 
1.235e+3, 2.0477042e+2, -976332.1, -1019435.0, 0.0014643004, 0.00000027158552, 0.000068114656, -976332.1, -43082.258, 0.0, 10.000001, 9.94329 
1.235e+3, 2.1471375e+2, -878045.1, -921409.9, -0.0042380183, 0.00000026840777, -0.00012679248, -878045.1, -42239.844, 0.0, 10.000001, 9.942949 
1.235e+3, 2.2465037e+2, -789759.0, -843144.8, 0.00041202197, 0.0000002677711, 0.00012091093, -789759.0, -51332.734, 0.0, 10.000001, 9.929907 
1.235e+3, 2.3458035e+2, -691325.5, -744966.44, -0.0016324595, 0.00000027001084, -0.00008879288, -691325.5, -50212.973, 0.0, 10.000001, 9.929576 
1.235e+3, 2.4450338e+2, -603001.44, -667018.75, 0.0017545477, 0.0000002692379, 0.00007473171, -603001.44, -59134.574, 0.0, 10.000001, 9.916136 
1.235e+3, 2.5441962e+2, -504248.78, -568343.3, -0.0034794095, 0.0000002648631, -0.000106712316, -504248.78, -57561.23, 0.0, 10.000001, 9.916036 
1.235e+3, 2.643288e+2, -416013.38, -490987.88, 0.00035932806, 0.0000002623931, 0.00014061606, -416013.38, -66435.695, 0.0, 10.000001, 9.901964 
1.235e+3, 2.742313e+2, -316728.16, -391374.75, -0.0019033009, 0.00000026235534, -0.00020343007, -316728.16, -64195.15, 0.0, 10.000001, 9.902385 
1.235e+3, 2.841256e+2, -230254.89, -318081.22, 0.0015868894, 0.00000026307032, 0.00022905512, -230254.89, -74685.92, 0.0, 10.000001, 9.885438 
1.235e+3, 2.940121e+2, -130548.76, -217765.0, -0.0015777402, 0.00000026480393, -0.0002533343, -130548.76, -71867.36, 0.0, 10.000001, 9.886217 
1.235e+3, 3.0392656e+2, -40804.75, -84750.16, 0.0027791285, 0.00000026348982, 0.00017314334, -40804.75, -40804.75, 0.0, 10.000001, 9.942172 
1.235e+3, 3.138706e+2, -39726.734, -82511.21, -0.0008125588, 0.00000025764257, -0.000055138455, -39726.734, -39726.734, 0.0, 10.000001, 9.943684 
1.245e+3, 1.2499335e+2, -1719945.3, -1724224.6, 0.00057722774, 0.00000030361005, 0.000017685978, -1719945.3, -4880.0435, 0.0, 10.000001, 9.994327 
1.245e+3, 1.349876e+2, -1622564.8, -1627434.8, -0.0043107187, 0.00000028968256, -0.0000683826, -1622564.8, -5443.2485, 0.0, 10.000001, 9.993545 
1.245e+3, 1.4497514e+2, -1534463.4, -1548146.3, 0.0030070175, 0.00000028467457, 0.00007101229, -1534463.4, -15219.752, 0.0, 10.000001, 9.981864 
1.245e+3, 1.5495703e+2, -1436735.8, -1450821.9, -0.0008018559, 0.00000028854734, -0.0000569231, -1436735.8, -15314.584, 0.0, 10.000001, 9.981333 
1.245e+3, 1.6493228e+2, -1348684.8, -1371952.3, 0.0016177967, 0.00000028846657, 0.000047384307, -1348684.8, -25021.078, 0.0, 10.000001, 9.969248 
1.245e+3, 1.7490156e+2, -1250726.8, -1274310.1, -0.0030629209, 0.00000028434889, -0.000073781805, -1250726.8, -24762.059, 0.0, 10.000001, 9.968834 
1.245e+3, 1.8486421e+2, -1162645.8, -1195720.0, 0.0029155642, 0.00000028233947, 0.00006619436, -1162645.8, -34315.11, 0.0, 10.000001, 9.956395 
1.245e+3, 1.9482064e+2, -1064496.0, -1097832.9, -0.0015991208, 0.00000028253595, -0.000057613383, -1064496.0, -33738.45, 0.0, 10.000001, 9.956052 
1.245e+3, 2.0477042e+2, -976332.06, -1019434.94, 0.001700103, 0.0000002804031, 0.00006811634, -976332.06, -43082.195, 0.0, 10.000001, 9.94329 
1.245e+3, 2.1471375e+2, -878045.06, -921409.8, -0.0005703234, 0.00000027574703, -0.0001267924, -878045.06, -42239.785, 0.0, 10.000001, 9.942949 
1.245e+3, 2.2465037e+2, -789758.94, -843144.8, 0.0043262434, 0.00000027470819, 0.00012091076, -789758.94, -51332.676, 0.0, 10.000001, 9.929907 
1.245e+3, 2.3458035e+2, -691325.44, -744966.4, -0.0016011581, 0.00000027776457, -0.0000887918, -691325.44, -50212.906, 0.0, 10.000001, 9.929576 
1.245e+3, 2.4450338e+2, -603001.4, -667018.75, 0.001275499, 0.00000027723917, 0.00007473311, -603001.4, -59134.508, 0.0, 10.000001, 9.916136 
1.245e+3, 2.5441962e+2, -504248.72, -568343.25, -0.0013391643, 0.00000027243092, -0.000106711734, -504248.72, -57561.17, 0.0, 10.000001, 9.916036 
1.245e+3, 2.643288e+2, -416013.3, -490987.84, 0.00294963, 0.00000026983847, 0.00014061634, -416013.3, -66435.64, 0.0, 10.000001, 9.901964 
1.245e+3, 2.742313e+2, -316728.1, -391374.75, -0.0016253903, 0.0000002700758, -0.00020342944, -316728.1, -64195.086, 0.0, 10.000001, 9.902385 
1.245e+3, 2.841256e+2, -230254.83, -318081.22, 0.00068521954, 0.00000027078198, 0.00022905583, -230254.83, -74685.86, 0.0, 10.000001, 9.885438 
1.245e+3, 2.940121e+2, -130548.695, -217764.98, -0.0031790677, 0.00000027211635, -0.00025333386, -130548.695, -71867.3, 0.0, 10.000001, 9.886217 
1.245e+3, 3.0392656e+2, -40804.688, -84750.14, 0.000977919, 0.00000027068037, 0.00017314385, -40804.688, -40804.688, 0.0, 10.000001, 9.942172 
1.245e+3, 3.138706e+2, -39726.676, -82511.195, -0.002230045, 0.00000026512672, -0.00005513738, -39726.676, -39726.676, 0.0, 10.000001, 9.943684 
1.255e+3, 1.2499335e+2, -1719945.3, -1724224.6, 0.0022768923, 0.00000030979078, 0.000017689346, -1719945.3, -4880.056, 0.0, 10.000001, 9.994327 
1.255e+3, 1.349876e+2, -1622564.8, -1627434.9, -0.0026115277, 0.00000029911706, -0.00006836953, -1622564.8, -5443.261, 0.0, 10.000001, 9.993545 
1.255e+3, 1.4497514e+2, -1534463.4, -1548146.3, -0.00026075714, 0.00000029482442, 0.00007102369, -1534463.4, -15219.763, 0.0, 10.000001, 9.981864 
1.255e+3, 1.5495703e+2, -1436735.8, -1450821.9, -0.004077498, 0.0000002968619, -0.000056919256, -1436735.8, -15314.594, 0.0, 10.000001, 9.981333 
1.255e+3, 1.6493228e+2, -1348684.8, -1371952.3, 0.0014088958, 0.0000002963814, 0.00004738601, -1348684.8, -25021.09, 0.0, 10.000001, 9.969248 
1.255e+3, 1.7490156e+2, -1250726.8, -1274310.1, -0.0032556318, 0.0000002933296, -0.000073776726, -1250726.8, -24762.068, 0.0, 10.000001, 9.968834 
1.255e+3, 1.8486421e+2, -1162645.8, -1195720.0, 0.0015789304, 0.0000002905359, 0.0000662, -1162645.8, -34315.12, 0.0, 10.000001, 9.956395 
1.255e+3, 1.9482064e+2, -1064496.0, -1097832.9, -0.0029489868, 0.00000028801193, -0.000057610127, -1064496.0, -33738.457, 0.0, 10.000001, 9.956052 
1.255e+3, 2.0477042e+2, -976332.06, -1019435.0, 0.0009774562, 0.0000002874402, 0.000068118155, -976332.06, -43082.203, 0.0, 10.000001, 9.94329 
1.255e+3, 2.1471375e+2, -878045.06, -921409.8, -0.0012800153, 0.0000002889826, -0.000126791, -878045.06, -42239.79, 0.0, 10.000001, 9.942949 
1.255e+3, 2.2465037e+2, -789758.94, -843144.8, 0.0043305, 0.0000002868065, 0.00012091382, -789758.94, -51332.688, 0.0, 10.000001, 9.929907 
1.255e+3, 2.3458035e+2, -691325.44, -744966.44, -0.0015735566, 0.00000028042047, -0.00008878472, -691325.44, -50212.92, 0.0, 10.000001, 9.929576 
1.255e+3, 2.4450338e+2, -603001.4, -667018.75, 0.0007101045, 0.00000027864382, 0.00007473858, -603001.4, -59134.516, 0.0, 10.000001, 9.916136 
1.255e+3, 2.5441962e+2, -504248.72, -568343.25, -0.0019331098, 0.00000028237721, -0.000106714586, -504248.72, -57561.176, 0.0, 10.000001, 9.916036 
1.255e+3, 2.643288e+2, -416013.3, -490987.88, 0.0030235026, 0.00000028296463, 0.00014061178, -416013.3, -66435.65, 0.0, 10.000001, 9.901964 
1.255e+3, 2.742313e+2, -316728.1, -391374.75, -0.0015068102, 0.00000027953524, -0.00020342723, -316728.1, -64195.098, 0.0, 10.000001, 9.902385 
1.255e+3, 2.841256e+2, -230254.84, -318081.22, 0.0015724257, 0.00000027678558, 0.00022906123, -230254.84, -74685.87, 0.0, 10.000001, 9.885438 
1.255e+3, 2.940121e+2, -130548.7, -217765.0, -0.0022226728, 0.00000027498453, -0.0002533302, -130548.7, -71867.305, 0.0, 10.000001, 9.886217 
1.255e+3, 3.0392656e+2, -40804.695, -84750.16, 0.00096852396, 0.0000002750954, 0.00017314262, -40804.695, -40804.695, 0.0, 10.000001, 9.942172 
1.255e+3, 3.138706e+2, -39726.684, -82511.21, -0.0023528463, 0.00000027803733, -0.00005514816, -39726.684, -39726.684, 0.0, 10.000001, 9.943684 
1.265e+3, 1.2499335e+2, -1719945.1, -1724224.6, 0.005162334, 0.00000031550397, 0.000017692371, -1719945.1, -4879.9688, 0.0, 10.000001, 9.994327 
1.265e+3, 1.349876e+2, -1622564.8, -1627434.8, -0.000112546586, 0.0000003091165, -0.00006836599, -1622564.8, -5443.1987, 0.0, 10.000001, 9.993545 
1.265e+3, 1.4497514e+2, -1534463.4, -1548146.3, 0.0011773701, 0.0000003059308, 0.00007102487, -1534463.4, -15219.703, 0.0, 10.000001, 9.981864 
1.265e+3, 1.5495703e+2, -1436735.6, -1450821.9, -0.003265317, 0.00000030587998, -0.000056916844, -1436735.6, -15314.521, 0.0, 10.000001, 9.981333 
1.265e+3, 1.6493228e+2, -1348684.6, -1371952.3, 0.0027059068, 0.00000030427, 0.000047388647, -1348684.6, -25021.016, 0.0, 10.000001, 9.969248 
1.265e+3, 1.7490156e+2, -1250726.6, -1274310.1, -0.0018765256, 0.0000003010678, -0.00007377489, -1250726.6, -24762.002, 0.0, 10.000001, 9.968834 
1.265e+3, 1.8486421e+2, -1162645.8, -1195720.0, 0.0029338922, 0.00000029869813, 0.0000662013, -1162645.8, -34315.055, 0.0, 10.000001, 9.956395 
1.265e+3, 1.9482064e+2, -1064496.0, -1097832.9, -0.0012295583, 0.0000002971994, -0.000057609097, -1064496.0, -33738.39, 0.0, 10.000001, 9.956052 
1.265e+3, 2.0477042e+2, -976332.0, -1019434.94, 0.0016071722, 0.0000002964271, 0.000068119676, -976332.0, -43082.137, 0.0, 10.000001, 9.94329 
1.265e+3, 2.1471375e+2, -878045.0, -921409.8, -0.0048796996, 0.00000029644136, -0.00012678816, -878045.0, -42239.723, 0.0, 10.000001, 9.942949 
1.265e+3, 2.2465037e+2, -789758.9, -843144.8, -0.000047925332, 0.00000029407607, 0.00012091666, -789758.9, -51332.62, 0.0, 10.000001, 9.929907 
1.265e+3, 2.3458035e+2, -691325.4, -744966.4, -0.0024709203, 0.0000002890168, -0.00008878336, -691325.4, -50212.86, 0.0, 10.000001, 9.929576 
1.265e+3, 2.4450338e+2, -603001.3, -667018.75, 0.0010396034, 0.000000287493, 0.00007473939, -603001.3, -59134.453, 0.0, 10.000001, 9.916136 
1.265e+3, 2.5441962e+2, -504248.66, -568343.25, -0.004064158, 0.00000029019483, -0.000106713196, -504248.66, -57561.11, 0.0, 10.000001, 9.916036 
1.265e+3, 2.643288e+2, -416013.25, -490987.84, 0.00005441201, 0.00000029035107, 0.00014061332, -416013.25, -66435.586, 0.0, 10.000001, 9.901964 
1.265e+3, 2.742313e+2, -316728.03, -391374.75, -0.0033439216, 0.00000028725762, -0.00020342613, -316728.03, -64195.03, 0.0, 10.000001, 9.902385 
1.265e+3, 2.841256e+2, -230254.78, -318081.22, 0.0011289304, 0.0000002848741, 0.00022906218, -230254.78, -74685.805, 0.0, 10.000001, 9.885438 
1.265e+3, 2.940121e+2, -130548.64, -217764.98, -0.0021563603, 0.00000028347694, -0.000253329, -130548.64, -71867.24, 0.0, 10.000001, 9.886217 
1.265e+3, 3.0392656e+2, -40804.637, -84750.14, 0.0014484014, 0.00000028337948, 0.00017314336, -40804.637, -40804.637, 0.0, 10.000001, 9.942172 
1.265e+3, 3.138706e+2, -39726.62, -82511.195, -0.0015551602, 0.00000028520364, -0.000055148845, -39726.62, -39726.62, 0.0, 10.000001, 9.943684 
1.275e+3, 1.2499335e+2, -1719945.1, -1724224.6, 0.0011540349, 0.00000032074965, 0.000017695053, -1719945.1, -4879.9824, 0.0, 10.000001, 9.994327 
1.275e+3, 1.349876e+2, -1622564.8, -1627434.9, -0.004122691, 0.0000003196809, -0.00006837197, -1622564.8, -5443.212, 0.0, 10.000001, 9.993545 
1.275e+3, 1.4497514e+2, -1534463.4, -1548146.3, 0.0010068675, 0.00000031799365, 0.000071015835, -1534463.4, -15219.715, 0.0, 10.000001, 9.981864 
1.275e+3, 1.5495703e+2, -1436735.6, -1450821.9, -0.0034297241, 0.00000031560154, -0.000056915866, -1436735.6, -15314.532, 0.0, 10.000001, 9.981333 
1.275e+3, 1.6493228e+2, -1348684.6, -1371952.3, 0.0009884442, 0.00000031213247, 0.00004739222, -1348684.6, -25021.025, 0.0, 10.000001, 9.969248 
1.275e+3, 1.7490156e+2, -1250726.6, -1274310.1, -0.0036021709, 0.0000003075634, -0.000073776304, -1250726.6, -24762.012, 0.0, 10.000001, 9.968834 
1.275e+3, 1.8486421e+2, -1162645.8, -1195720.0, 0.0018535072, 0.00000030682614, 0.00006619825, -1162645.8, -34315.066, 0.0, 10.000001, 9.956395 
1.275e+3, 1.9482064e+2, -1064496.0, -1097832.9, -0.002302444, 0.0000003100983, -0.00005761029, -1064496.0, -33738.402, 0.0, 10.000001, 9.956052 
1.275e+3, 2.0477042e+2, -976332.0, -1019435.0, 0.0014052611, 0.00000030736373, 0.000068120906, -976332.0, -43082.15, 0.0, 10.000001, 9.94329 
1.275e+3, 2.1471375e+2, -878045.0, -921409.8, -0.0050636027, 0.00000029812338, -0.00012678388, -878045.0, -42239.734, 0.0, 10.000001, 9.942949 
1.275e+3, 2.2465037e+2, -789758.9, -843144.8, -0.0012367142, 0.0000002965169, 0.00012091928, -789758.9, -51332.625, 0.0, 10.000001, 9.929907 
1.275e+3, 2.3458035e+2, -691325.4, -744966.44, -0.0036925885, 0.00000030355355, -0.000088787725, -691325.4, -50212.863, 0.0, 10.000001, 9.929576 
1.275e+3, 2.4450338e+2, -603001.3, -667018.75, 0.0013192607, 0.0000003037866, 0.00007473556, -603001.3, -59134.465, 0.0, 10.000001, 9.916136 
1.275e+3, 2.5441962e+2, -504248.66, -568343.25, -0.0037124127, 0.0000002958838, -0.00010670755, -504248.66, -57561.12, 0.0, 10.000001, 9.916036 
1.275e+3, 2.643288e+2, -416013.25, -490987.88, -0.00012367053, 0.00000029199788, 0.00014062092, -416013.25, -66435.59, 0.0, 10.000001, 9.901964 
1.275e+3, 2.742313e+2, -316728.03, -391374.75, -0.0035576057, 0.0000002932429, -0.00020342614, -316728.03, -64195.04, 0.0, 10.000001, 9.902385 
1.275e+3, 2.841256e+2, -230254.78, -318081.22, 0.0012422127, 0.00000029504744, 0.00022905867, -230254.78, -74685.81, 0.0, 10.000001, 9.885438 
1.275e+3, 2.940121e+2, -130548.65, -217765.0, -0.0020137336, 0.00000029759357, -0.0002533303, -130548.65, -71867.25, 0.0, 10.000001, 9.886217 
1.275e+3, 3.0392656e+2, -40804.645, -84750.16, 0.0025763866, 0.00000029553257, 0.0001731461, -40804.645, -40804.645, 0.0, 10.000001, 9.942172 
1.275e+3, 3.138706e+2, -39726.63, -82511.21, -0.00031158354, 0.00000028662572, -0.000055139433, -39726.63, -39726.63, 0.0, 10.000001, 9.943684 
1.285e+3, 1.2499335e+2, -1719945.1, -1724224.6, 0.0036862106, 0.0000003298383, 0.000017696055, -1719945.1, -4879.912, 0.0, 10.000001, 9.994327 
1.285e+3, 1.349876e+2, -1622564.6, -1627434.8, -0.0011405632, 0.00000032868672, -0.00006836971, -1622564.6, -5443.1304, 0.0, 10.000001, 9.993545 
1.285e+3, 1.4497514e+2, -1534463.3, -1548146.1, 0.0047839293, 0.00000032706993, 0.00007101552, -1534463.3, -15219.633, 0.0, 10.000001, 9.981864 
1.285e+3, 1.5495703e+2, -1436735.6, -1450821.9, -0.0009152789, 0.00000032490684, -0.000056914134, -1436735.6, -15314.463, 0.0, 10.000001, 9.981333 
1.285e+3, 1.6493228e+2, -1348684.6, -1371952.3, 0.0032402175, 0.00000032140582, 0.000047394602, -1348684.6, -25020.957, 0.0, 10.000001, 9.969248 
1.285e+3, 1.7490156e+2, -1250726.6, -1274310.1, -0.0016543366, 0.00000031653838, -0.000073774696, -1250726.6, -24761.938, 0.0, 10.000001, 9.968834 
1.285e+3, 1.8486421e+2, -1162645.6, -1195720.0, 0.0024828785, 0.0000003154721, 0.0000661998, -1162645.6, -34314.99, 0.0, 10.000001, 9.956395 
1.285e+3, 1.9482064e+2, -1064495.9, -1097832.9, -0.0030654876, 0.00000031838317, -0.000057608042, -1064495.9, -33738.33, 0.0, 10.000001, 9.956052 
1.285e+3, 2.0477042e+2, -976331.94, -1019434.94, 0.0028410985, 0.00000031575104, 0.00006812283, -976331.94, -43082.08, 0.0, 10.000001, 9.94329 
1.285e+3, 2.1471375e+2, -878044.94, -921409.8, 0.00016263088, 0.00000030711502, -0.00012678342, -878044.94, -42239.668, 0.0, 10.000001, 9.942949 
1.285e+3, 2.2465037e+2, -789758.8, -843144.8, 0.0035527758, 0.00000030552502, 0.000120919365, -789758.8, -51332.555, 0.0, 10.000001, 9.929907 
1.285e+3, 2.3458035e+2, -691325.3, -744966.4, -0.0026745468, 0.00000031191271, -0.00008878683, -691325.3, -50212.793, 0.0, 10.000001, 9.929576 
1.285e+3, 2.4450338e+2, -603001.25, -667018.75, 0.0019229732, 0.00000031188108, 0.000074736905, -603001.25, -59134.395, 0.0, 10.000001, 9.916136 
1.285e+3, 2.5441962e+2, -504248.6, -568343.25, -0.0019999086, 0.0000003041731, -0.00010670618, -504248.6, -57561.055, 0.0, 10.000001, 9.916036 
1.285e+3, 2.643288e+2, -416013.2, -490987.84, 0.0013654788, 0.0000003004366, 0.0001406221, -416013.2, -66435.52, 0.0, 10.000001, 9.901964 
1.285e+3, 2.742313e+2, -316727.97, -391374.72, -0.0029728052, 0.00000030177196, -0.00020342544, -316727.97, -64194.973, 0.0, 10.000001, 9.902385 
1.285e+3, 2.841256e+2, -230254.72, -318081.22, 0.0012567376, 0.00000030350486, 0.00022905915, -230254.72, -74685.75, 0.0, 10.000001, 9.885438 
1.285e+3, 2.940121e+2, -130548.586, -217764.98, -0.0034707645, 0.00000030575785, -0.0002533297, -130548.586, -71867.19, 0.0, 10.000001, 9.886216 
1.285e+3, 3.0392656e+2, -40804.58, -84750.14, 0.00014355115, 0.00000030367463, 0.00017314713, -40804.58, -40804.58, 0.0, 10.000001, 9.942172 
1.285e+3, 3.138706e+2, -39726.563, -82511.195, -0.0040542963, 0.00000029514942, -0.000055137505, -39726.563, -39726.563, 0.0, 10.000001, 9.943684 
1.295e+3, 1.2499335e+2, -1719945.1, -1724224.6, 0.002372481, 0.00000034276982, 0.000017695378, -1719945.1, -4879.9253, 0.0, 10.000001, 9.994327 
1.295e+3, 1.349876e+2, -1622564.6, -1627434.8, -0.0024556592, 0.00000033613398, -0.00006835921, -1622564.6, -5443.143, 0.0, 10.000001, 9.993545 
1.295e+3, 1.4497514e+2, -1534463.3, -1548146.3, 0.0020003426, 0.00000033315962, 0.00007102394, -1534463.3, -15219.647, 0.0, 10.000001, 9.981864 
1.295e+3, 1.5495703e+2, -1436735.6, -1450821.9, -0.0037012189, 0.0000003337959, -0.000056911646, -1436735.6, -15314.477, 0.0, 10.000001, 9.981333 
1.295e+3, 1.6493228e+2, -1348684.6, -1371952.3, 0.003047766, 0.00000033209005, 0.000047395795, -1348684.6, -25020.97, 0.0, 10.000001, 9.969248 
1.295e+3, 1.7490156e+2, -1250726.6, -1274310.1, -0.0018330656, 0.00000032799264, -0.00007377006, -1250726.6, -24761.95, 0.0, 10.000001, 9.968834 
1.295e+3, 1.8486421e+2, -1162645.6, -1195720.0, 0.00067742803, 0.00000032463598, 0.00006620596, -1162645.6, -34315.004, 0.0, 10.000001, 9.956395 
1.295e+3, 1.9482064e+2, -1064495.9, -1097832.9, -0.004889724, 0.00000032205403, -0.000057602352, -1064495.9, -33738.344, 0.0, 10.000001, 9.956052 
1.295e+3, 2.0477042e+2, -976331.94, -1019435.0, 0.0023691212, 0.00000032158897, 0.000068125424, -976331.94, -43082.086, 0.0, 10.000001, 9.94329 
1.295e+3, 2.1471375e+2, -878044.94, -921409.8, -0.00028136835, 0.0000003234161, -0.00012678673, -878044.94, -42239.67, 0.0, 10.000001, 9.942949 
1.295e+3, 2.2465037e+2, -789758.8, -843144.8, 0.0027160342, 0.00000032110032, 0.00012091692, -789758.8, -51332.57, 0.0, 10.000001, 9.929907 
1.295e+3, 2.3458035e+2, -691325.3, -744966.44, -0.0035241456, 0.0000003140944, -0.00008878068, -691325.3, -50212.81, 0.0, 10.000001, 9.929576 
1.295e+3, 2.4450338e+2, -603001.25, -667018.75, 0.0018679817, 0.00000031177643, 0.00007474343, -603001.25, -59134.402, 0.0, 10.000001, 9.916136 
1.295e+3, 2.5441962e+2, -504248.63, -568343.25, -0.0020167534, 0.00000031506275, -0.000106709085, -504248.63, -57561.063, 0.0, 10.000001, 9.916036 
1.295e+3, 2.643288e+2, -416013.2, -490987.88, 0.0010038594, 0.0000003156671, 0.00014061684, -416013.2, -66435.53, 0.0, 10.000001, 9.901964 
1.295e+3, 2.742313e+2, -316727.97, -391374.75, -0.00335763, 0.0000003128448, -0.000203424, -316727.97, -64194.98, 0.0, 10.000001, 9.902385 
1.295e+3, 2.841256e+2, -230254.73, -318081.25, 0.0017035659, 0.00000031024635, 0.00022906365, -230254.73, -74685.76, 0.0, 10.000001, 9.885438 
1.295e+3, 2.940121e+2, -130548.59, -217765.0, -0.0029491598, 0.0000003079699, -0.0002533272, -130548.59, -71867.195, 0.0, 10.000001, 9.886216 
1.295e+3, 3.0392656e+2, -40804.586, -84750.16, 0.0005909947, 0.00000030780564, 0.00017314647, -40804.586, -40804.586, 0.0, 10.000001, 9.942172 
1.295e+3, 3.138706e+2, -39726.574, -82511.21, -0.0036156639, 0.00000031077462, -0.000055143057, -39726.574, -39726.574, 0.0, 10.000001, 9.943684 
1.305e+3, 1.2499335e+2, -1719945.0, -1724224.6, 0.0052255685, 0.00000035301883, 0.000017697432, -1719945.0, -4879.841, 0.0, 10.000001, 9.994327 
1.305e+3, 1.349876e+2, -1622564.6, -1627434.8, -0.0010947378, 0.0000003460836, -0.00006835537, -1622564.6, -5443.0674, 0.0, 10.000001, 9.993545 
1.305e+3, 1.4497514e+2, -1534463.1, -1548146.1, 0.0032865882, 0.00000034240637, 0.00007102431, -1534463.1, -15219.571, 0.0, 10.000001, 9.981864 
1.305e+3, 1.5495703e+2, -1436735.5, -1450821.9, -0.0022764532, 0.00000034193877, -0.000056909434, -1436735.5, -15314.392, 0.0, 10.000001, 9.981333 
1.305e+3, 1.6493228e+2, -1348684.5, -1371952.3, 0.0044026333, 0.00000034053684, 0.00004739876, -1348684.5, -25020.885, 0.0, 10.000001, 9.969248 
1.305e+3, 1.7490156e+2, -1250726.5, -1274310.1, -0.0013013139, 0.00000033818094, -0.000073767456, -1250726.5, -24761.877, 0.0, 10.000001, 9.968834 
1.305e+3, 1.8486421e+2, -1162645.6, -1195720.0, 0.0017432845, 0.00000033484568, 0.00006620798, -1162645.6, -34314.93, 0.0, 10.000001, 9.956395 
1.305e+3, 1.9482064e+2, -1064495.9, -1097832.9, -0.002682032, 0.0000003304852, -0.000057601166, -1064495.9, -33738.266, 0.0, 10.000001, 9.956052 
1.305e+3, 2.0477042e+2, -976331.9, -1019434.94, 0.0029738285, 0.00000032977863, 0.000068126756, -976331.9, -43082.008, 0.0, 10.000001, 9.94329 
1.305e+3, 2.1471375e+2, -878044.9, -921409.8, -0.004036026, 0.00000033302905, -0.0001267842, -878044.9, -42239.6, 0.0, 10.000001, 9.942949 
1.305e+3, 2.2465037e+2, -789758.75, -843144.8, -0.0012691827, 0.00000033086505, 0.00012091977, -789758.75, -51332.496, 0.0, 10.000001, 9.929907 
1.305e+3, 2.3458035e+2, -691325.25, -744966.4, -0.004717467, 0.00000032257086, -0.00008877851, -691325.25, -50212.73, 0.0, 10.000001, 9.929576 
1.305e+3, 2.4450338e+2, -603001.2, -667018.75, 0.0015242397, 0.00000031996623, 0.000074744916, -603001.2, -59134.33, 0.0, 10.000001, 9.916136 
1.305e+3, 2.5441962e+2, -504248.53, -568343.25, -0.0032518026, 0.0000003241639, -0.00010670828, -504248.53, -57560.992, 0.0, 10.000001, 9.916036 
1.305e+3, 2.643288e+2, -416013.13, -490987.84, -0.0003022363, 0.00000032501984, 0.00014061757, -416013.13, -66435.46, 0.0, 10.000001, 9.901964 
1.305e+3, 2.742313e+2, -316727.9, -391374.72, -0.0048697004, 0.00000032160662, -0.00020342259, -316727.9, -64194.91, 0.0, 10.000001, 9.902384 
1.305e+3, 2.841256e+2, -230254.66, -318081.22, 0.0008775142, 0.00000031870735, 0.00022906523, -230254.66, -74685.69, 0.0, 10.000001, 9.885438 
1.305e+3, 2.940121e+2, -130548.52, -217764.98, -0.0024765686, 0.00000031653107, -0.0002533261, -130548.52, -71867.125, 0.0, 10.000001, 9.886216 
1.305e+3, 3.0392656e+2, -40804.52, -84750.14, 0.0023326285, 0.00000031655864, 0.00017314681, -40804.52, -40804.52, 0.0, 10.000001, 9.942172 
1.305e+3, 3.138706e+2, -39726.508, -82511.195, -0.0007468921, 0.00000031985155, -0.000055143726, -39726.508, -39726.508, 0.0, 10.000001, 9.943684 
1.315e+3, 1.2499335e+2, -1719945.0, -1724224.6, 0.0019461574, 0.00000036058532, 0.000017702216, -1719945.0, -4879.857, 0.0, 10.000001, 9.994327 
1.315e+3, 1.349876e+2, -1622564.6, -1627434.9, -0.004375955, 0.0000003585355, -0.00006835822, -1622564.6, -5443.0835, 0.0, 10.000001, 9.993545 
1.315e+3, 1.4497514e+2, -1534463.3, -1548146.3, 0.0026699873, 0.00000035481017, 0.00007101662, -1534463.3, -15219.586, 0.0, 10.000001, 9.981864 
1.315e+3, 1.5495703e+2, -1436735.5, -1450821.9, -0.0028888825, 0.0000003493355, -0.000056907495, -1436735.5, -15314.406, 0.0, 10.000001, 9.981333 
1.315e+3, 1.6493228e+2, -1348684.5, -1371952.3, 0.0017187578, 0.00000034674625, 0.0000474035, -1348684.5, -25020.898, 0.0, 10.000001, 9.969248 
1.315e+3, 1.7490156e+2, -1250726.5, -1274310.1, -0.0039960733, 0.00000034710325, -0.000073766874, -1250726.5, -24761.89, 0.0, 10.000001, 9.968834 
1.315e+3, 1.8486421e+2, -1162645.6, -1195720.0, 0.0014680771, 0.0000003461012, 0.000066205845, -1162645.6, -34314.94, 0.0, 10.000001, 9.956395 
1.315e+3, 1.9482064e+2, -1064495.9, -1097832.9, -0.0029291408, 0.00000034367653, -0.00005760449, -1064495.9, -33738.273, 0.0, 10.000001, 9.956052 
1.315e+3, 2.0477042e+2, -976331.9, -1019435.0, 0.0011495046, 0.00000034031996, 0.000068126814, -976331.9, -43082.023, 0.0, 10.000001, 9.94329 
1.315e+3, 2.1471375e+2, -878044.9, -921409.8, -0.0058928365, 0.00000033595396, -0.0001267758, -878044.9, -42239.617, 0.0, 10.000001, 9.942949 
1.315e+3, 2.2465037e+2, -789758.75, -843144.8, -0.0011356195, 0.00000033481928, 0.00012092792, -789758.75, -51332.508, 0.0, 10.000001, 9.929907 
1.315e+3, 2.3458035e+2, -691325.25, -744966.4, -0.004518744, 0.00000033734196, -0.000088780325, -691325.25, -50212.74, 0.0, 10.000001, 9.929576 
1.315e+3, 2.4450338e+2, -603001.2, -667018.75, 0.00041023857, 0.0000003364503, 0.00007474136, -603001.2, -59134.336, 0.0, 10.000001, 9.916136 
1.315e+3, 2.5441962e+2, -504248.56, -568343.25, -0.004428953, 0.0000003314766, -0.000106703745, -504248.56, -57561.0, 0.0, 10.000001, 9.916036 
1.315e+3, 2.643288e+2, -416013.16, -490987.88, -0.00006926401, 0.00000032849485, 0.00014062431, -416013.16, -66435.48, 0.0, 10.000001, 9.901964 
1.315e+3, 2.742313e+2, -316727.9, -391374.75, -0.0045422856, 0.0000003280574, -0.0002034212, -316727.9, -64194.92, 0.0, 10.000001, 9.902384 
1.315e+3, 2.841256e+2, -230254.66, -318081.22, 0.0009598542, 0.00000032888784, 0.00022906391, -230254.66, -74685.695, 0.0, 10.000001, 9.885438 
1.315e+3, 2.940121e+2, -130548.53, -217765.0, -0.002416549, 0.00000033144127, -0.00025332652, -130548.53, -71867.13, 0.0, 10.000001, 9.886216 
1.315e+3, 3.0392656e+2, -40804.527, -84750.16, 0.0025963553, 0.0000003299335, 0.00017314813, -40804.527, -40804.527, 0.0, 10.000001, 9.942172 
1.315e+3, 3.138706e+2, -39726.516, -82511.21, -0.00045947515, 0.00000032238017, -0.000055139513, -39726.516, -39726.516, 0.0, 10.000001, 9.943684 
1.325e+3, 1.2499335e+2, -1719945.0, -1724224.6, 0.003104575, 0.00000037193632, 0.000017704837, -1719945.0, -4879.7793, 0.0, 10.000001, 9.994327 
1.325e+3, 1.349876e+2, -1622564.5, -1627434.8, -0.0019750039, 0.00000036792383, -0.00006835233, -1622564.5, -5442.992, 0.0, 10.000001, 9.993545 
1.325e+3, 1.4497514e+2, -1534463.1, -1548146.1, 0.005055044, 0.00000036375545, 0.00007101829, -1534463.1, -15219.494, 0.0, 10.000001, 9.981864 
1.325e+3, 1.5495703e+2, -1436735.4, -1450821.9, -0.0013198667, 0.0000003593725, -0.000056904726, -1436735.4, -15314.326, 0.0, 10.000001, 9.981333 
1.325e+3, 1.6493228e+2, -1348684.5, -1371952.3, 0.0032723073, 0.00000035695393, 0.000047406334, -1348684.5, -25020.82, 0.0, 10.000001, 9.969248 
1.325e+3, 1.7490156e+2, -1250726.5, -1274310.1, -0.0019890366, 0.00000035654116, -0.00007376504, -1250726.5, -24761.805, 0.0, 10.000001, 9.968834 
1.325e+3, 1.8486421e+2, -1162645.5, -1195720.0, 0.0033332019, 0.00000035551273, 0.00006620764, -1162645.5, -34314.855, 0.0, 10.000001, 9.956395 
1.325e+3, 1.9482064e+2, -1064495.8, -1097832.9, -0.0029535345, 0.00000035383954, -0.00005760172, -1064495.8, -33738.2, 0.0, 10.000001, 9.956052 
1.325e+3, 2.0477042e+2, -976331.8, -1019434.94, 0.0021124578, 0.00000035029186, 0.000068129375, -976331.8, -43081.945, 0.0, 10.000001, 9.94329 
1.325e+3, 2.1471375e+2, -878044.8, -921409.8, -0.0013645337, 0.0000003447138, -0.00012677474, -878044.8, -42239.53, 0.0, 10.000001, 9.942949 
1.325e+3, 2.2465037e+2, -789758.7, -843144.8, 0.0040071122, 0.0000003435774, 0.000120928424, -789758.7, -51332.42, 0.0, 10.000001, 9.929907 
1.325e+3, 2.3458035e+2, -691325.2, -744966.4, -0.00235209, 0.0000003474686, -0.00008877933, -691325.2, -50212.664, 0.0, 10.000001, 9.929576 
1.325e+3, 2.4450338e+2, -603001.1, -667018.75, 0.0014239554, 0.00000034677123, 0.00007474272, -603001.1, -59134.266, 0.0, 10.000001, 9.916136 
1.325e+3, 2.5441962e+2, -504248.47, -568343.25, -0.0032932423, 0.00000034058772, -0.00010670219, -504248.47, -57560.92, 0.0, 10.000001, 9.916036 
1.325e+3, 2.643288e+2, -416013.06, -490987.84, 0.0014004286, 0.00000033719544, 0.00014062565, -416013.06, -66435.39, 0.0, 10.000001, 9.901964 
1.325e+3, 2.742313e+2, -316727.84, -391374.72, -0.0031326471, 0.00000033736825, -0.00020342057, -316727.84, -64194.844, 0.0, 10.000001, 9.902384 
1.325e+3, 2.841256e+2, -230254.6, -318081.22, 0.00160269, 0.00000033844634, 0.00022906416, -230254.6, -74685.62, 0.0, 10.000001, 9.885438 
1.325e+3, 2.940121e+2, -130548.46, -217764.98, -0.0036235258, 0.00000034074637, -0.00025332617, -130548.46, -71867.06, 0.0, 10.000001, 9.886216 
1.325e+3, 3.0392656e+2, -40804.453, -84750.13, 0.00017094771, 0.00000033910428, 0.0001731489, -40804.453, -40804.453, 0.0, 10.000001, 9.942172 
1.325e+3, 3.138706e+2, -39726.438, -82511.19, -0.0046270634, 0.00000033159765, -0.000055137843, -39726.438, -39726.438, 0.0, 10.000001, 9.943684 
1.335e+3, 1.2499335e+2, -1719945.0, -1724224.6, 0.002959822, 0.00000038707176, 0.000017705297, -1719945.0, -4879.793, 0.0, 10.000001, 9.994327 
1.335e+3, 1.3498761e+2, -1622564.5, -1627434.8, -0.0021210955, 0.00000037424869, -0.00006833774, -1622564.5, -5443.006, 0.0, 10.000001, 9.993545 
1.335e+3, 1.4497514e+2, -1534463.1, -1548146.3, 0.0017564361, 0.0000003692422, 0.0000710293, -1534463.1, -15219.511, 0.0, 10.000001, 9.981864 
1.335e+3, 1.5495703e+2, -1436735.5, -1450821.9, -0.0046235244, 0.00000037204973, -0.000056901124, -1436735.5, -15314.342, 0.0, 10.000001, 9.981333 
1.335e+3, 1.6493228e+2, -1348684.5, -1371952.3, 0.0023710954, 0.00000037115984, 0.00004740726, -1348684.5, -25020.834, 0.0, 10.000001, 9.969248 
1.335e+3, 1.7490156e+2, -1250726.5, -1274310.1, -0.0028774426, 0.00000036649465, -0.000073761956, -1250726.5, -24761.816, 0.0, 10.000001, 9.968834 
1.335e+3, 1.8486421e+2, -1162645.5, -1195720.0, 0.0011116691, 0.0000003630803, 0.00006621337, -1162645.5, -34314.87, 0.0, 10.000001, 9.956395 
1.335e+3, 1.9482064e+2, -1064495.8, -1097832.9, -0.0051903594, 0.0000003609742, -0.00005759285, -1064495.8, -33738.21, 0.0, 10.000001, 9.956052 
1.335e+3, 2.0477042e+2, -976331.8, -1019434.94, 0.0019805336, 0.00000035969427, 0.00006813443, -976331.8, -43081.957, 0.0, 10.000001, 9.94329 
1.335e+3, 2.1471375e+2, -878044.8, -921409.8, -0.0014528632, 0.00000035930856, -0.00012678101, -878044.8, -42239.543, 0.0, 10.000001, 9.942949 
1.335e+3, 2.2465037e+2, -789758.7, -843144.8, 0.0021328419, 0.00000035713938, 0.00012092127, -789758.7, -51332.438, 0.0, 10.000001, 9.929907 
1.335e+3, 2.3458035e+2, -691325.2, -744966.44, -0.0042847097, 0.0000003529509, -0.00008877552, -691325.2, -50212.68, 0.0, 10.000001, 9.929576 
1.335e+3, 2.4450338e+2, -603001.1, -667018.75, 0.0016447536, 0.00000035092907, 0.00007474899, -603001.1, -59134.277, 0.0, 10.000001, 9.916136 
1.335e+3, 2.5441962e+2, -504248.47, -568343.25, -0.002968976, 0.00000035149716, -0.00010670361, -504248.47, -57560.934, 0.0, 10.000001, 9.916036 
1.335e+3, 2.643288e+2, -416013.06, -490987.88, 0.0009264376, 0.00000035112154, 0.00014062163, -416013.06, -66435.41, 0.0, 10.000001, 9.901964 
1.335e+3, 2.742313e+2, -316727.84, -391374.75, -0.0036603175, 0.00000034953905, -0.0002034207, -316727.84, -64194.855, 0.0, 10.000001, 9.902384 
1.335e+3, 2.841256e+2, -230254.61, -318081.22, 0.0014357681, 0.00000034738284, 0.00022906599, -230254.61, -74685.63, 0.0, 10.000001, 9.885438 
1.335e+3, 2.940121e+2, -130548.47, -217765.0, -0.003758188, 0.00000034444645, -0.00025332507, -130548.47, -71867.07, 0.0, 10.000001, 9.886216 
1.335e+3, 3.0392656e+2, -40804.465, -84750.16, 0.001029994, 0.000000344071, 0.00017314912, -40804.465, -40804.465, 0.0, 10.000001, 9.942172 
1.335e+3, 3.138706e+2, -39726.45, -82511.21, -0.0036516883, 0.00000034750374, -0.00005513872, -39726.45, -39726.45, 0.0, 10.000001, 9.943684 
1.345e+3, 1.2499335e+2, -1719944.9, -1724224.5, 0.005571732, 0.0000003964537, 0.000017708213, -1719944.9, -4879.694, 0.0, 10.000001, 9.994327 
1.345e+3, 1.3498761e+2, -1622564.4, -1627434.8, -0.0020726172, 0.0000003853629, -0.00006833146, -1622564.4, -5442.921, 0.0, 10.000001, 9.993545 
1.345e+3, 1.4497514e+2, -1534463.0, -1548146.1, 0.0004971028, 0.00000038079548, 0.00007103049, -1534463.0, -15219.428, 0.0, 10.000001, 9.981864 
1.345e+3, 1.5495703e+2, -1436735.4, -1450821.9, -0.0043884516, 0.00000038274786, -0.000056898338, -1436735.4, -15314.252, 0.0, 10.000001, 9.981333 
1.345e+3, 1.6493228e+2, -1348684.4, -1371952.3, 0.0037182856, 0.00000038142718, 0.00004741063, -1348684.4, -25020.744, 0.0, 10.000001, 9.969248 
1.345e+3, 1.7490156e+2, -1250726.4, -1274310.1, -0.002686701, 0.0000003767643, -0.00007375903, -1250726.4, -24761.732, 0.0, 10.000001, 9.968834 
1.345e+3, 1.8486421e+2, -1162645.4, -1195720.0, 0.0012083494, 0.00000037321084, 0.0000662158, -1162645.4, -34314.785, 0.0, 10.000001, 9.956395 
1.345e+3, 1.9482064e+2, -1064495.8, -1097832.9, -0.0039027852, 0.0000003708178, -0.000057590973, -1064495.8, -33738.125, 0.0, 10.000001, 9.956052 
1.345e+3, 2.0477042e+2, -976331.75, -1019434.94, 0.002683703, 0.0000003697038, 0.00006813635, -976331.75, -43081.867, 0.0, 10.000001, 9.94329 
1.345e+3, 2.1471375e+2, -878044.75, -921409.8, -0.0043476843, 0.00000036997434, -0.00012677844, -878044.75, -42239.46, 0.0, 10.000001, 9.942949 
1.345e+3, 2.2465037e+2, -789758.6, -843144.8, -0.001466002, 0.0000003676887, 0.000120923934, -789758.6, -51332.36, 0.0, 10.000001, 9.929907 
1.345e+3, 2.3458035e+2, -691325.1, -744966.4, -0.0056957877, 0.00000036250887, -0.00008877345, -691325.1, -50212.594, 0.0, 10.000001, 9.929576 
1.345e+3, 2.4450338e+2, -603001.06, -667018.75, 0.0014207568, 0.00000036027475, 0.00007475057, -603001.06, -59134.188, 0.0, 10.000001, 9.916136 
1.345e+3, 2.5441962e+2, -504248.4, -568343.25, -0.0037489012, 0.000000361562, -0.000106702406, -504248.4, -57560.855, 0.0, 10.000001, 9.916036 
1.345e+3, 2.643288e+2, -416013.0, -490987.84, 0.00007964071, 0.00000036153116, 0.00014062275, -416013.0, -66435.33, 0.0, 10.000001, 9.901964 
1.345e+3, 2.742313e+2, -316727.78, -391374.72, -0.004881319, 0.00000035981492, -0.00020341926, -316727.78, -64194.777, 0.0, 10.000001, 9.902384 
1.345e+3, 2.841256e+2, -230254.52, -318081.22, 0.00079433934, 0.00000035723767, 0.0002290674, -230254.52, -74685.55, 0.0, 10.000001, 9.885438 
1.345e+3, 2.940121e+2, -130548.39, -217764.98, -0.002980611, 0.0000003534897, -0.00025332416, -130548.39, -71866.99, 0.0, 10.000001, 9.886216 
1.345e+3, 3.0392656e+2, -40804.387, -84750.14, 0.0032757209, 0.00000035315963, 0.00017314943, -40804.387, -40804.387, 0.0, 10.000001, 9.942172 
1.345e+3, 3.138706e+2, -39726.375, -82511.19, -0.00036601236, 0.00000035791342, -0.000055139186, -39726.375, -39726.375, 0.0, 10.000001, 9.943684 
1.355e+3, 1.2499335e+2, -1719944.9, -1724224.6, 0.0022942275, 0.00000040008211, 0.000017713586, -1719944.9, -4879.714, 0.0, 10.000001, 9.994327 
1.355e+3, 1.3498761e+2, -1622564.4, -1627434.8, -0.005352385, 0.00000040126648, -0.00006833349, -1622564.4, -5442.94, 0.0, 10.000001, 9.993545 
1.355e+3, 1.4497514e+2, -1534463.0, -1548146.3, -0.0011683251, 0.00000039841518, 0.00007102185, -1534463.0, -15219.44, 0.0, 10.000001, 9.981864 
1.355e+3, 1.5495703e+2, -1436735.4, -1450821.9, -0.0060513685, 0.00000039146693, -0.000056896366, -1436735.4, -15314.265, 0.0, 10.000001, 9.981333 
1.355e+3, 1.6493228e+2, -1348684.4, -1371952.3, 0.0014987764, 0.000000387756, 0.00004741645, -1348684.4, -25020.76, 0.0, 10.000001, 9.969248 
1.355e+3, 1.7490156e+2, -1250726.4, -1274310.1, -0.004908921, 0.00000038735004, -0.000073756266, -1250726.4, -24761.748, 0.0, 10.000001, 9.968834 
1.355e+3, 1.8486421e+2, -1162645.5, -1195720.0, 0.00014897136, 0.00000038590431, 0.00006621493, -1162645.5, -34314.8, 0.0, 10.000001, 9.956395 
1.355e+3, 1.9482064e+2, -1064495.8, -1097832.9, -0.004948442, 0.00000038337024, -0.00005759608, -1064495.8, -33738.137, 0.0, 10.000001, 9.956052 
1.355e+3, 2.0477042e+2, -976331.75, -1019434.94, 0.00057186285, 0.0000003803204, 0.000068135116, -976331.75, -43081.883, 0.0, 10.000001, 9.94329 
1.355e+3, 2.1471375e+2, -878044.75, -921409.8, -0.0064812773, 0.0000003767112, -0.000126767, -878044.75, -42239.477, 0.0, 10.000001, 9.942949 
1.355e+3, 2.2465037e+2, -789758.6, -843144.8, -0.001415521, 0.0000003752253, 0.000120936405, -789758.6, -51332.37, 0.0, 10.000001, 9.929907 
1.355e+3, 2.3458035e+2, -691325.1, -744966.4, -0.0055737635, 0.00000037614248, -0.00008877311, -691325.1, -50212.6, 0.0, 10.000001, 9.929576 
1.355e+3, 2.4450338e+2, -603001.06, -667018.75, -0.0001000022, 0.0000003748082, 0.00007474746, -603001.06, -59134.2, 0.0, 10.000001, 9.916136 
1.355e+3, 2.5441962e+2, -504248.4, -568343.25, -0.0053485935, 0.0000003707822, -0.00010669859, -504248.4, -57560.867, 0.0, 10.000001, 9.916036 
1.355e+3, 2.643288e+2, -416013.0, -490987.88, 0.00014116643, 0.00000036842437, 0.00014062902, -416013.0, -66435.336, 0.0, 10.000001, 9.901964 
1.355e+3, 2.742313e+2, -316727.78, -391374.75, -0.0047085583, 0.00000036819577, -0.00020341626, -316727.78, -64194.785, 0.0, 10.000001, 9.902384 
1.355e+3, 2.841256e+2, -230254.53, -318081.22, 0.0010582628, 0.00000036801077, 0.00022906839, -230254.53, -74685.56, 0.0, 10.000001, 9.885438 
1.355e+3, 2.940121e+2, -130548.4, -217765.0, -0.002708826, 0.00000036787594, -0.00025332347, -130548.4, -71867.0, 0.0, 10.000001, 9.886216 
1.355e+3, 3.0392656e+2, -40804.395, -84750.16, 0.0030286112, 0.00000036637013, 0.0001731498, -40804.395, -40804.395, 0.0, 10.000001, 9.942172 
1.355e+3, 3.138706e+2, -39726.387, -82511.21, -0.00067446905, 0.00000036282657, -0.00005513924, -39726.387, -39726.387, 0.0, 10.000001, 9.943684 
1.365e+3, 1.2499335e+2, -1719944.8, -1724224.5, 0.005004911, 0.0000004102142, 0.000017715327, -1719944.8, -4879.6177, 0.0, 10.000001, 9.994327 
1.365e+3, 1.3498761e+2, -1622564.4, -1627434.8, 0.00006999207, 0.00000041314425, -0.00006832893, -1622564.4, -5442.844, 0.0, 10.000001, 9.993545 
1.365e+3, 1.4497514e+2, -1534463.0, -1548146.1, 0.0054329727, 0.00000041049998, 0.00007102081, -1534463.0, -15219.346, 0.0, 10.000001, 9.981864 
1.365e+3, 1.5495703e+2, -1436735.3, -1450821.9, -0.002356117, 0.00000040221846, -0.000056893805, -1436735.3, -15314.174, 0.0, 10.000001, 9.981333 
1.365e+3, 1.6493228e+2, -1348684.4, -1371952.3, 0.0040835845, 0.00000039810925, 0.000047420082, -1348684.4, -25020.668, 0.0, 10.000001, 9.969248 
1.365e+3, 1.7490156e+2, -1250726.3, -1274310.1, -0.0017524885, 0.00000039825926, -0.00007375414, -1250726.3, -24761.654, 0.0, 10.000001, 9.968834 
1.365e+3, 1.8486421e+2, -1162645.4, -1195720.0, 0.003010596, 0.0000003969538, 0.000066216635, -1162645.4, -34314.707, 0.0, 10.000001, 9.956395 
1.365e+3, 1.9482064e+2, -1064495.6, -1097832.9, -0.0036752955, 0.00000039412532, -0.000057593646, -1064495.6, -33738.05, 0.0, 10.000001, 9.956052 
1.365e+3, 2.0477042e+2, -976331.7, -1019434.94, 0.0025882984, 0.0000003908889, 0.00006813748, -976331.7, -43081.797, 0.0, 10.000001, 9.94329 
1.365e+3, 2.1471375e+2, -878044.6, -921409.8, -0.0020868818, 0.00000038721015, -0.00012676558, -878044.6, -42239.387, 0.0, 10.000001, 9.942949 
1.365e+3, 2.2465037e+2, -789758.56, -843144.8, 0.003295595, 0.00000038580296, 0.00012093746, -789758.56, -51332.277, 0.0, 10.000001, 9.929907 
1.365e+3, 2.3458035e+2, -691325.06, -744966.4, -0.003300971, 0.00000038696643, -0.00008877177, -691325.06, -50212.52, 0.0, 10.000001, 9.929576 
1.365e+3, 2.4450338e+2, -603001.0, -667018.75, 0.0012325493, 0.00000038551605, 0.000074749034, -603001.0, -59134.12, 0.0, 10.000001, 9.916136 
1.365e+3, 2.5441962e+2, -504248.3, -568343.25, -0.0041443864, 0.00000038094083, -0.00010669685, -504248.3, -57560.78, 0.0, 10.000001, 9.916036 
1.365e+3, 2.643288e+2, -416012.9, -490987.84, 0.001380538, 0.00000037853562, 0.00014063067, -416012.9, -66435.25, 0.0, 10.000001, 9.901964 
1.365e+3, 2.742313e+2, -316727.7, -391374.72, -0.003764962, 0.0000003788994, -0.00020341507, -316727.7, -64194.703, 0.0, 10.000001, 9.902384 
1.365e+3, 2.841256e+2, -230254.45, -318081.22, 0.0013166516, 0.00000037882702, 0.00022906932, -230254.45, -74685.48, 0.0, 10.000001, 9.885438 
1.365e+3, 2.940121e+2, -130548.32, -217764.98, -0.0044363523, 0.0000003781456, -0.00025332248, -130548.32, -71866.92, 0.0, 10.000001, 9.886216 
1.365e+3, 3.0392656e+2, -40804.316, -84750.13, 0.0000041645717, 0.00000037640552, 0.00017315095, -40804.316, -40804.316, 0.0, 10.000001, 9.942172 
1.365e+3, 3.138706e+2, -39726.3, -82511.19, -0.0048815412, 0.00000037309738, -0.000055137774, -39726.3, -39726.3, 0.0, 10.000001, 9.943684 
1.375e+3, 1.2499335e+2, -1719944.8, -1724224.6, 0.0018216483, 0.00000042684977, 0.000017713437, -1719944.8, -4879.6313, 0.0, 10.000001, 9.994327 
1.375e+3, 1.3498761e+2, -1622564.4, -1627434.8, -0.0031160633, 0.00000042099637, -0.000068317786, -1622564.4, -5442.8574, 0.0, 10.000001, 9.993545 
1.375e+3, 1.4497514e+2, -1534463.0, -1548146.3, 0.0031222221, 0.00000041704996, 0.000071027374, -1534463.0, -15219.365, 0.0, 10.000001, 9.981864 
1.375e+3, 1.5495703e+2, -1436735.3, -1450821.9, -0.0046651694, 0.00000041500235, -0.000056890654, -1436735.3, -15314.192, 0.0, 10.000001, 9.981333 
1.375e+3, 1.6493228e+2, -1348684.4, -1371952.3, 0.0024642127, 0.00000041248686, 0.00004742153, -1348684.4, -25020.684, 0.0, 10.000001, 9.969248 
1.375e+3, 1.7490156e+2, -1250726.4, -1274310.1, -0.0033678066, 0.00000040949186, -0.000073752664, -1250726.4, -24761.67, 0.0, 10.000001, 9.968834 
1.375e+3, 1.8486421e+2, -1162645.4, -1195720.0, 0.00058750954, 0.00000040635925, 0.00006622091, -1162645.4, -34314.723, 0.0, 10.000001, 9.956395 
1.375e+3, 1.9482064e+2, -1064495.6, -1097832.9, -0.006107427, 0.00000040308302, -0.00005758367, -1064495.6, -33738.066, 0.0, 10.000001, 9.956052 
1.375e+3, 2.0477042e+2, -976331.7, -1019434.94, 0.0020783818, 0.0000004014093, 0.00006814343, -976331.7, -43081.81, 0.0, 10.000001, 9.94329 
1.375e+3, 2.1471375e+2, -878044.6, -921409.8, -0.002556752, 0.00000040147108, -0.00012677418, -878044.6, -42239.4, 0.0, 10.000001, 9.942949 
1.375e+3, 2.2465037e+2, -789758.56, -843144.8, 0.0010163438, 0.00000039942157, 0.00012092709, -789758.56, -51332.293, 0.0, 10.000001, 9.929907 
1.375e+3, 2.3458035e+2, -691325.06, -744966.4, -0.0056391405, 0.0000003949808, -0.00008876944, -691325.06, -50212.535, 0.0, 10.000001, 9.929576 
1.375e+3, 2.4450338e+2, -603001.0, -667018.75, 0.0014463285, 0.00000039239825, 0.000074755284, -603001.0, -59134.133, 0.0, 10.000001, 9.916136 
1.375e+3, 2.5441962e+2, -504248.34, -568343.25, -0.0038079347, 0.00000039203775, -0.000106697174, -504248.34, -57560.793, 0.0, 10.000001, 9.916036 
1.375e+3, 2.643288e+2, -416012.94, -490987.84, 0.00055630563, 0.0000003918648, 0.00014062767, -416012.94, -66435.26, 0.0, 10.000001, 9.901964 
1.375e+3, 2.742313e+2, -316727.72, -391374.75, -0.0046671745, 0.0000003919257, -0.00020341572, -316727.72, -64194.71, 0.0, 10.000001, 9.902384 
1.375e+3, 2.841256e+2, -230254.47, -318081.22, 0.0010089003, 0.00000038968645, 0.00022907021, -230254.47, -74685.49, 0.0, 10.000001, 9.885438 
1.375e+3, 2.940121e+2, -130548.336, -217765.0, -0.004690998, 0.00000038429866, -0.0002533212, -130548.336, -71866.93, 0.0, 10.000001, 9.886216 
1.375e+3, 3.0392656e+2, -40804.33, -84750.16, 0.0010147234, 0.00000038326584, 0.00017315289, -40804.33, -40804.33, 0.0, 10.000001, 9.942172 
1.375e+3, 3.138706e+2, -39726.313, -82511.21, -0.0037230847, 0.00000038872568, -0.000055134777, -39726.313, -39726.313, 0.0, 10.000001, 9.943684 
1.385e+3, 1.2499335e+2, -1719944.8, -1724224.5, 0.005420754, 0.00000043954805, 0.000017715205, -1719944.8, -4879.529, 0.0, 10.000001, 9.994327 
1.385e+3, 1.3498761e+2, -1622564.3, -1627434.8, -0.0036306148, 0.00000043249014, -0.00006831137, -1622564.3, -5442.7583, 0.0, 10.000001, 9.993545 
1.385e+3, 1.4497514e+2, -1534462.9, -1548146.1, 0.003057755, 0.0000004279193, 0.00007102743, -1534462.9, -15219.267, 0.0, 10.000001, 9.981864 
1.385e+3, 1.5495703e+2, -1436735.1, -1450821.9, -0.0028546085, 0.0000004258388, -0.0000568878, -1436735.1, -15314.091, 0.0, 10.000001, 9.981333 
1.385e+3, 1.6493228e+2, -1348684.3, -1371952.3, 0.004078823, 0.00000042371383, 0.000047425387, -1348684.3, -25020.584, 0.0, 10.000001, 9.969248 
1.385e+3, 1.7490156e+2, -1250726.3, -1274310.1, -0.0031380139, 0.00000042154136, -0.00007374965, -1250726.3, -24761.576, 0.0, 10.000001, 9.968834 
1.385e+3, 1.8486422e+2, -1162645.3, -1195720.0, 0.0012452974, 0.00000041820533, 0.00006622334, -1162645.3, -34314.63, 0.0, 10.000001, 9.956394 
1.385e+3, 1.9482064e+2, -1064495.5, -1097832.9, -0.004668075, 0.00000041365178, -0.000057581565, -1064495.5, -33737.97, 0.0, 10.000001, 9.956052 
1.385e+3, 2.0477042e+2, -976331.56, -1019434.94, 0.0026956971, 0.0000004119972, 0.00006814554, -976331.56, -43081.71, 0.0, 10.000001, 9.94329 
1.385e+3, 2.1471375e+2, -878044.56, -921409.8, -0.0044607664, 0.00000041348287, -0.0001267717, -878044.56, -42239.31, 0.0, 10.000001, 9.942949 
1.385e+3, 2.2465037e+2, -789758.44, -843144.8, -0.001003794, 0.0000004114471, 0.00012092964, -789758.44, -51332.207, 0.0, 10.000001, 9.929907 
1.385e+3, 2.3458035e+2, -691324.94, -744966.4, -0.006300307, 0.00000040542412, -0.00008876716, -691324.94, -50212.438, 0.0, 10.000001, 9.929576 
1.385e+3, 2.4450338e+2, -603000.9, -667018.75, 0.0014698796, 0.00000040245735, 0.000074757154, -603000.9, -59134.035, 0.0, 10.000001, 9.916136 
1.385e+3, 2.5441962e+2, -504248.25, -568343.25, -0.0043029357, 0.00000040314552, -0.00010669586, -504248.25, -57560.703, 0.0, 10.000001, 9.916036 
1.385e+3, 2.643288e+2, -416012.84, -490987.84, 0.000053723295, 0.0000004034955, 0.00014062885, -416012.84, -66435.18, 0.0, 10.000001, 9.901964 
1.385e+3, 2.742313e+2, -316727.63, -391374.72, -0.0053486186, 0.0000004034067, -0.00020341414, -316727.63, -64194.625, 0.0, 10.000001, 9.902384 
1.385e+3, 2.841256e+2, -230254.38, -318081.22, 0.0012108858, 0.00000040068517, 0.0002290718, -230254.38, -74685.4, 0.0, 10.000001, 9.885438 
1.385e+3, 2.940121e+2, -130548.24, -217764.98, -0.0031886995, 0.00000039436284, -0.00025332015, -130548.24, -71866.84, 0.0, 10.000001, 9.886216 
1.385e+3, 3.0392656e+2, -40804.24, -84750.13, 0.0034192833, 0.0000003934137, 0.00017315346, -40804.24, -40804.24, 0.0, 10.000001, 9.942172 
1.385e+3, 3.138706e+2, -39726.23, -82511.19, -0.001141338, 0.00000040047263, -0.000055134504, -39726.23, -39726.23, 0.0, 10.000001, 9.943684 
1.395e+3, 1.2499335e+2, -1719944.8, -1724224.6, 0.0015347867, 0.00000044830912, 0.00001772064, -1719944.8, -4879.5522, 0.0, 10.000001, 9.994327 
1.395e+3, 1.3498761e+2, -1622564.3, -1627434.8, -0.007519962, 0.00000044762547, -0.00006830968, -1622564.3, -5442.7813, 0.0, 10.000001, 9.993545 
1.395e+3, 1.4497514e+2, -1534462.9, -1548146.1, 0.0014454883, 0.00000044310795, 0.000071020986, -1534462.9, -15219.281, 0.0, 10.000001, 9.981864 
1.395e+3, 1.5495703e+2, -1436735.3, -1450821.9, -0.0044624824, 0.00000043472787, -0.000056885234, -1436735.3, -15314.106, 0.0, 10.000001, 9.981333 
1.395e+3, 1.6493228e+2, -1348684.3, -1371952.3, 0.0008449079, 0.00000043179023, 0.00004743165, -1348684.3, -25020.602, 0.0, 10.000001, 9.969248 
1.395e+3, 1.7490156e+2, -1250726.3, -1274310.1, -0.006379968, 0.00000043440767, -0.000073745105, -1250726.3, -24761.594, 0.0, 10.000001, 9.968834 
1.395e+3, 1.8486422e+2, -1162645.3, -1195720.0, 0.00031667313, 0.00000043249193, 0.00006622391, -1162645.3, -34314.645, 0.0, 10.000001, 9.956394 
1.395e+3, 1.9482064e+2, -1064495.5, -1097832.9, -0.005569271, 0.00000042583144, -0.000057587335, -1064495.5, -33737.98, 0.0, 10.000001, 9.956052 
1.395e+3, 2.0477042e+2, -976331.56, -1019434.94, -0.00017217542, 0.0000004226525, 0.00006814382, -976331.56, -43081.73, 0.0, 10.000001, 9.94329 
1.395e+3, 2.1471375e+2, -878044.56, -921409.8, -0.00736895, 0.00000042324538, -0.00012675815, -878044.56, -42239.324, 0.0, 10.000001, 9.942949 
1.395e+3, 2.2465037e+2, -789758.5, -843144.8, -0.0009050091, 0.0000004218795, 0.00012094509, -789758.5, -51332.22, 0.0, 10.000001, 9.929907 
1.395e+3, 2.3458035e+2, -691325.0, -744966.4, -0.0061029233, 0.00000041829634, -0.00008876495, -691325.0, -50212.45, 0.0, 10.000001, 9.929576 
1.395e+3, 2.4450338e+2, -603000.94, -667018.75, -0.0005003827, 0.00000041569325, 0.000074754644, -603000.94, -59134.05, 0.0, 10.000001, 9.916136 
1.395e+3, 2.5441962e+2, -504248.25, -568343.25, -0.0063773217, 0.0000004142641, -0.0001066929, -504248.25, -57560.715, 0.0, 10.000001, 9.916036 
1.395e+3, 2.643288e+2, -416012.84, -490987.84, -0.000103037615, 0.0000004134276, 0.0001406342, -416012.84, -66435.19, 0.0, 10.000001, 9.901964 
1.395e+3, 2.742313e+2, -316727.63, -391374.75, -0.005376997, 0.0000004133422, -0.00020341031, -316727.63, -64194.637, 0.0, 10.000001, 9.902384 
1.395e+3, 2.841256e+2, -230254.39, -318081.22, 0.0015293565, 0.00000041182298, 0.0002290741, -230254.39, -74685.414, 0.0, 10.000001, 9.885438 
1.395e+3, 2.940121e+2, -130548.25, -217765.0, -0.0028394547, 0.00000040833797, -0.00025331936, -130548.25, -71866.85, 0.0, 10.000001, 9.886216 
1.395e+3, 3.0392656e+2, -40804.25, -84750.16, 0.002712624, 0.00000040684904, 0.00017315269, -40804.25, -40804.25, 0.0, 10.000001, 9.942172 
1.395e+3, 3.138706e+2, -39726.242, -82511.21, -0.001972663, 0.0000004083382, -0.000055136952, -39726.242, -39726.242, 0.0, 10.000001, 9.943684 
1.405e+3, 1.2499335e+2, -1719944.6, -1724224.5, 0.0035230056, 0.00000046161588, 0.00001772342, -1719944.6, -4879.4478, 0.0, 10.000001, 9.994327 
1.405e+3, 1.3498761e+2, -1622564.1, -1627434.8, -0.0019318309, 0.0000004593842, -0.00006830228, -1622564.1, -5442.672, 0.0, 10.000001, 9.993545 
1.405e+3, 1.4497514e+2, -1534462.8, -1548146.1, 0.0084269745, 0.0000004544383, 0.00007102092, -1534462.8, -15219.174, 0.0, 10.000001, 9.981864 
1.405e+3, 1.5495703e+2, -1436735.1, -1450821.9, -0.00043289128, 0.00000044676324, -0.00005688197, -1436735.1, -15314.004, 0.0, 10.000001, 9.981333 
1.405e+3, 1.6493228e+2, -1348684.1, -1371952.3, 0.003197957, 0.00000044405465, 0.00004743575, -1348684.1, -25020.498, 0.0, 10.000001, 9.969248 
1.405e+3, 1.7490156e+2, -1250726.1, -1274310.1, -0.0032042146, 0.00000044641448, -0.00007374271, -1250726.1, -24761.488, 0.0, 10.000001, 9.968834 
1.405e+3, 1.8486422e+2, -1162645.1, -1195720.0, 0.0044164294, 0.0000004444552, 0.0000662258, -1162645.1, -34314.543, 0.0, 10.000001, 9.956394 
1.405e+3, 1.9482064e+2, -1064495.5, -1097832.9, -0.0028646272, 0.00000043797576, -0.000057584686, -1064495.5, -33737.887, 0.0, 10.000001, 9.956052 
1.405e+3, 2.0477042e+2, -976331.5, -1019434.94, 0.0021514532, 0.00000043458013, 0.000068146495, -976331.5, -43081.633, 0.0, 10.000001, 9.94329 
1.405e+3, 2.1471375e+2, -878044.5, -921409.8, -0.0037696387, 0.000000434525, -0.00012675622, -878044.5, -42239.223, 0.0, 10.000001, 9.942949 
1.405e+3, 2.2465037e+2, -789758.4, -843144.8, 0.003368079, 0.0000004331884, 0.00012094671, -789758.4, -51332.113, 0.0, 10.000001, 9.929907 
1.405e+3, 2.3458035e+2, -691324.9, -744966.4, -0.0036112617, 0.00000043040197, -0.000088763154, -691324.9, -50212.36, 0.0, 10.000001, 9.929576 
1.405e+3, 2.4450338e+2, -603000.8, -667018.75, 0.0009451512, 0.0000004278706, 0.000074756485, -603000.8, -59133.96, 0.0, 10.000001, 9.916136 
1.405e+3, 2.5441962e+2, -504248.16, -568343.25, -0.004978148, 0.00000042564687, -0.00010669121, -504248.16, -57560.62, 0.0, 10.000001, 9.916036 
1.405e+3, 2.643288e+2, -416012.75, -490987.8, 0.0016180248, 0.00000042456023, 0.00014063575, -416012.75, -66435.086, 0.0, 10.000001, 9.901964 
1.405e+3, 2.742313e+2, -316727.53, -391374.72, -0.0044082245, 0.0000004249196, -0.00020340896, -316727.53, -64194.543, 0.0, 10.000001, 9.902384 
1.405e+3, 2.841256e+2, -230254.3, -318081.22, 0.0015251882, 0.00000042359778, 0.00022907535, -230254.3, -74685.32, 0.0, 10.000001, 9.885438 
1.405e+3, 2.940121e+2, -130548.164, -217764.98, -0.0046508983, 0.00000041996813, -0.0002533181, -130548.164, -71866.766, 0.0, 10.000001, 9.886216 
1.405e+3, 3.0392656e+2, -40804.164, -84750.13, -0.00009695682, 0.0000004183375, 0.00017315388, -40804.164, -40804.164, 0.0, 10.000001, 9.942172 
1.405e+3, 3.138706e+2, -39726.15, -82511.18, -0.005132995, 0.00000041969201, -0.00005513593, -39726.15, -39726.15, 0.0, 10.000001, 9.943684 
1.415e+3, 1.2499335e+2, -1719944.6, -1724224.6, 0.0008000428, 0.00000047946816, 0.000017723552, -1719944.6, -4879.463, 0.0, 10.000001, 9.994327 
1.415e+3, 1.3498761e+2, -1622564.1, -1627434.8, -0.0046582893, 0.00000046776637, -0.00006828917, -1622564.1, -5442.687, 0.0, 10.000001, 9.993545 
1.415e+3, 1.4497514e+2, -1534462.8, -1548146.3, 0.0054952297, 0.00000046191028, 0.000071027236, -1534462.8, -15219.195, 0.0, 10.000001, 9.981864 
1.415e+3, 1.5495703e+2, -1436735.1, -1450821.9, -0.0033637197, 0.00000046194475, -0.000056878, -1436735.1, -15314.025, 0.0, 10.000001, 9.981333 
1.415e+3, 1.6493228e+2, -1348684.1, -1371952.3, 0.0006853772, 0.00000046050698, 0.000047437687, -1348684.1, -25020.516, 0.0, 10.000001, 9.969248 
1.415e+3, 1.7490156e+2, -1250726.1, -1274310.1, -0.0057138717, 0.00000045756167, -0.00007374248, -1250726.1, -24761.504, 0.0, 10.000001, 9.968834 
1.415e+3, 1.8486422e+2, -1162645.3, -1195720.0, 0.0019443871, 0.00000045409496, 0.000066229004, -1162645.3, -34314.56, 0.0, 10.000001, 9.956394 
1.415e+3, 1.9482064e+2, -1064495.5, -1097832.9, -0.0053355196, 0.0000004500846, -0.000057573623, -1064495.5, -33737.902, 0.0, 10.000001, 9.956052 
1.415e+3, 2.0477042e+2, -976331.5, -1019434.94, 0.0011024127, 0.00000044777997, 0.00006815359, -976331.5, -43081.65, 0.0, 10.000001, 9.94329 
1.415e+3, 2.1471375e+2, -878044.5, -921409.8, -0.004788652, 0.00000044732147, -0.00012676591, -878044.5, -42239.234, 0.0, 10.000001, 9.942948 
1.415e+3, 2.2465037e+2, -789758.4, -843144.8, 0.0009929746, 0.0000004453737, 0.000120934485, -789758.4, -51332.133, 0.0, 10.000001, 9.929907 
1.415e+3, 2.3458035e+2, -691324.9, -744966.4, -0.0060305335, 0.00000044174087, -0.00008876177, -691324.9, -50212.375, 0.0, 10.000001, 9.929576 
1.415e+3, 2.4450338e+2, -603000.8, -667018.75, 0.00059793284, 0.00000043898922, 0.00007476266, -603000.8, -59133.973, 0.0, 10.000001, 9.916136 
1.415e+3, 2.5441962e+2, -504248.2, -568343.25, -0.005225962, 0.0000004372937, -0.000106690764, -504248.2, -57560.633, 0.0, 10.000001, 9.916036 
1.415e+3, 2.643288e+2, -416012.78, -490987.84, 0.00083144096, 0.00000043689315, 0.00014063348, -416012.78, -66435.1, 0.0, 10.000001, 9.901964 
1.415e+3, 2.742313e+2, -316727.56, -391374.75, -0.005231219, 0.00000043813878, -0.00020341006, -316727.56, -64194.555, 0.0, 10.000001, 9.902384 
1.415e+3, 2.841256e+2, -230254.31, -318081.22, 0.00087206735, 0.00000043600951, 0.00022907555, -230254.31, -74685.336, 0.0, 10.000001, 9.885438 
1.415e+3, 2.940121e+2, -130548.18, -217765.0, -0.0052892747, 0.00000042925328, -0.00025331636, -130548.18, -71866.77, 0.0, 10.000001, 9.886216 
1.415e+3, 3.0392656e+2, -40804.176, -84750.16, 0.0007580366, 0.000000427879, 0.00017315705, -40804.176, -40804.176, 0.0, 10.000001, 9.942172 
1.415e+3, 3.138706e+2, -39726.16, -82511.21, -0.0041035214, 0.00000043453403, -0.000055131437, -39726.16, -39726.16, 0.0, 10.000001, 9.943684 
1.425e+3, 1.2499335e+2, -1719944.5, -1724224.5, 0.0051298346, 0.00000049306476, 0.000017726376, -1719944.5, -4879.349, 0.0, 10.000002, 9.994327 
1.425e+3, 1.3498761e+2, -1622564.0, -1627434.8, -0.005197675, 0.0000004798559, -0.00006828025, -1622564.0, -5442.5737, 0.0, 10.000002, 9.993544 
1.425e+3, 1.4497514e+2, -1534462.6, -1548146.1, 0.0034251353, 0.00000047405715, 0.00007102773, -1534462.6, -15219.084, 0.0, 10.000002, 9.981864 
1.425e+3, 1.5495703e+2, -1436735.0, -1450821.9, -0.0025219051, 0.00000047572595, -0.00005687466, -1436735.0, -15313.917, 0.0, 10.000002, 9.981332 
1.425e+3, 1.6493228e+2, -1348684.0, -1371952.3, 0.0030235748, 0.00000047431456, 0.00004744195, -1348684.0, -25020.408, 0.0, 10.000001, 9.969248 
1.425e+3, 1.7490156e+2, -1250726.0, -1274310.1, -0.00483143, 0.0000004697546, -0.00007373927, -1250726.0, -24761.398, 0.0, 10.000001, 9.968834 
1.425e+3, 1.8486422e+2, -1162645.1, -1195720.0, 0.0025792636, 0.0000004659146, 0.000066231674, -1162645.1, -34314.453, 0.0, 10.000001, 9.956394 
1.425e+3, 1.9482064e+2, -1064495.4, -1097832.9, -0.004354529, 0.00000046283037, -0.000057570967, -1064495.4, -33737.793, 0.0, 10.000001, 9.956052 
1.425e+3, 2.0477042e+2, -976331.4, -1019434.94, 0.0019105398, 0.00000046073677, 0.00006815616, -976331.4, -43081.54, 0.0, 10.000001, 9.94329 
1.425e+3, 2.1471375e+2, -878044.4, -921409.8, -0.005369765, 0.00000045971495, -0.00012676352, -878044.4, -42239.137, 0.0, 10.000001, 9.942948 
1.425e+3, 2.2465037e+2, -789758.3, -843144.8, 0.00052270223, 0.00000045751932, 0.00012093672, -789758.3, -51332.03, 0.0, 10.000001, 9.929907 
1.425e+3, 2.3458035e+2, -691324.8, -744966.4, -0.0056977677, 0.00000045399548, -0.00008875966, -691324.8, -50212.27, 0.0, 10.000001, 9.929576 
1.425e+3, 2.4450338e+2, -603000.75, -667018.7, 0.0011146965, 0.00000045121726, 0.000074764575, -603000.75, -59133.867, 0.0, 10.000001, 9.916136 
1.425e+3, 2.5441962e+2, -504248.1, -568343.25, -0.0056585367, 0.00000044933196, -0.00010668913, -504248.1, -57560.535, 0.0, 10.000001, 9.916036 
1.425e+3, 2.643288e+2, -416012.7, -490987.8, 0.00057584746, 0.00000044900628, 0.00014063499, -416012.7, -66435.01, 0.0, 10.000001, 9.901964 
1.425e+3, 2.742313e+2, -316727.47, -391374.72, -0.005188931, 0.00000045066412, -0.00020340846, -316727.47, -64194.457, 0.0, 10.000001, 9.902384 
1.425e+3, 2.841256e+2, -230254.2, -318081.22, 0.0017117999, 0.00000044841656, 0.00022907702, -230254.2, -74685.234, 0.0, 10.000001, 9.885438 
1.425e+3, 2.940121e+2, -130548.08, -217764.97, -0.0033479831, 0.0000004408144, -0.00025331535, -130548.08, -71866.67, 0.0, 10.000001, 9.886216 
1.425e+3, 3.0392656e+2, -40804.08, -84750.13, 0.0035022849, 0.00000043943064, 0.00017315776, -40804.08, -40804.08, 0.0, 10.000001, 9.942172 
1.425e+3, 3.138706e+2, -39726.066, -82511.18, -0.0019861031, 0.00000044732437, -0.000055130822, -39726.066, -39726.066, 0.0, 10.000001, 9.943684 
1.435e+3, 1.24993354e+2, -1719944.5, -1724224.6, 0.002353441, 0.0000005024063, 0.000017731894, -1719944.5, -4879.3755, 0.0, 10.000002, 9.994327 
1.435e+3, 1.3498761e+2, -1622564.1, -1627434.8, -0.007977619, 0.0000004956529, -0.000068275534, -1622564.1, -5442.5996, 0.0, 10.000002, 9.993544 
1.435e+3, 1.4497514e+2, -1534462.6, -1548146.1, -0.00023159564, 0.0000004908787, 0.00007102241, -1534462.6, -15219.1, 0.0, 10.000002, 9.981864 
1.435e+3, 1.5495703e+2, -1436735.0, -1450821.9, -0.006178984, 0.0000004881067, -0.00005687194, -1436735.0, -15313.933, 0.0, 10.000002, 9.981332 
1.435e+3, 1.6493228e+2, -1348684.0, -1371952.3, 0.00041948372, 0.00000048547724, 0.00004744854, -1348684.0, -25020.428, 0.0, 10.000001, 9.969248 
1.435e+3, 1.7490156e+2, -1250726.0, -1274310.1, -0.00742876, 0.0000004829932, -0.00007373308, -1250726.0, -24761.418, 0.0, 10.000001, 9.968834 
1.435e+3, 1.8486422e+2, -1162645.1, -1195720.0, 0.000594637, 0.000000479914, 0.000066233806, -1162645.1, -34314.47, 0.0, 10.000001, 9.956394 
1.435e+3, 1.9482064e+2, -1064495.4, -1097832.9, -0.0063314424, 0.00000047621282, -0.000057576715, -1064495.4, -33737.81, 0.0, 10.000001, 9.956052 
1.435e+3, 2.0477042e+2, -976331.44, -1019434.94, -0.0008655649, 0.00000047345017, 0.00006815419, -976331.44, -43081.56, 0.0, 10.000001, 9.94329 
1.435e+3, 2.1471375e+2, -878044.4, -921409.8, -0.008161793, 0.00000047170525, -0.00012674906, -878044.4, -42239.152, 0.0, 10.000001, 9.942948 
1.435e+3, 2.2465037e+2, -789758.3, -843144.8, 0.000049514452, 0.00000046962506, 0.0001209534, -789758.3, -51332.047, 0.0, 10.000001, 9.929907 
1.435e+3, 2.3458035e+2, -691324.8, -744966.4, -0.0060947547, 0.0000004671656, -0.00008875683, -691324.8, -50212.28, 0.0, 10.000001, 9.929576 
1.435e+3, 2.4450338e+2, -603000.75, -667018.75, -0.0009833011, 0.0000004645546, 0.000074762225, -603000.75, -59133.88, 0.0, 10.000001, 9.916136 
1.435e+3, 2.5441962e+2, -504248.1, -568343.25, -0.007838343, 0.00000046176163, -0.0001066863, -504248.1, -57560.547, 0.0, 10.000001, 9.916036 
1.435e+3, 2.643288e+2, -416012.7, -490987.84, 0.00013536081, 0.00000046089943, 0.0001406403, -416012.7, -66435.02, 0.0, 10.000001, 9.901964 
1.435e+3, 2.742313e+2, -316727.47, -391374.75, -0.0055133584, 0.0000004624954, -0.00020340417, -316727.47, -64194.47, 0.0, 10.000001, 9.902384 
1.435e+3, 2.841256e+2, -230254.22, -318081.22, 0.0015896169, 0.0000004608187, 0.00022907971, -230254.22, -74685.24, 0.0, 10.000001, 9.885438 
1.435e+3, 2.940121e+2, -130548.09, -217765.0, -0.0034526247, 0.0000004546514, -0.00025331505, -130548.09, -71866.69, 0.0, 10.000001, 9.886216 
1.435e+3, 3.0392656e+2, -40804.09, -84750.16, 0.0028221481, 0.00000045299237, 0.00017315602, -40804.09, -40804.09, 0.0, 10.000001, 9.942172 
1.435e+3, 3.138706e+2, -39726.082, -82511.21, -0.0027347233, 0.00000045806303, -0.000055134078, -39726.082, -39726.082, 0.0, 10.000001, 9.943684 
1.445e+3, 1.24993354e+2, -1719944.4, -1724224.5, 0.005463976, 0.0000005152112, 0.000017734306, -1719944.4, -4879.2544, 0.0, 10.000002, 9.994327 
1.445e+3, 1.3498761e+2, -1622564.0, -1627434.8, -0.0001966728, 0.0000005096146, -0.000068267625, -1622564.0, -5442.4824, 0.0, 10.000002, 9.993544 
1.445e+3, 1.4497514e+2, -1534462.6, -1548146.1, 0.007541787, 0.00000050521925, 0.00007102088, -1534462.6, -15218.983, 0.0, 10.000002, 9.981864 
1.445e+3, 1.5495703e+2, -1436734.9, -1450821.9, -0.0021452706, 0.0000005020411, -0.00005686875, -1436734.9, -15313.818, 0.0, 10.000002, 9.981332 
1.445e+3, 1.6493228e+2, -1348684.0, -1371952.3, 0.004033101, 0.0000004989431, 0.000047453243, -1348684.0, -25020.313, 0.0, 10.000002, 9.969248 
1.445e+3, 1.7490156e+2, -1250725.9, -1274310.1, -0.0032974551, 0.0000004959309, -0.000073730145, -1250725.9, -24761.303, 0.0, 10.000002, 9.968834 
1.445e+3, 1.8486422e+2, -1162645.0, -1195720.0, 0.004596229, 0.0000004929143, 0.00006623607, -1162645.0, -34314.355, 0.0, 10.000002, 9.956394 
1.445e+3, 1.9482066e+2, -1064495.3, -1097832.9, -0.0030657286, 0.0000004898938, -0.000057573987, -1064495.3, -33737.703, 0.0, 10.000002, 9.956052 
1.445e+3, 2.0477042e+2, -976331.3, -1019434.94, 0.0025280959, 0.0000004870573, 0.00006815696, -976331.3, -43081.45, 0.0, 10.000002, 9.94329 
1.445e+3, 2.1471375e+2, -878044.3, -921409.8, -0.004664424, 0.0000004844212, -0.00012674673, -878044.3, -42239.04, 0.0, 10.000002, 9.942948 
1.445e+3, 2.2465037e+2, -789758.2, -843144.75, 0.0036395558, 0.00000048218175, 0.00012095548, -789758.2, -51331.934, 0.0, 10.000002, 9.929907 
1.445e+3, 2.3458035e+2, -691324.7, -744966.4, -0.0037987216, 0.000000480391, -0.0000887548, -691324.7, -50212.18, 0.0, 10.000002, 9.929576 
1.445e+3, 2.4450338e+2, -603000.6, -667018.7, 0.00073731766, 0.0000004778234, 0.00007476415, -603000.6, -59133.777, 0.0, 10.000002, 9.916136 
1.445e+3, 2.5441962e+2, -504248.0, -568343.25, -0.0057629407, 0.00000047432553, -0.000106684536, -504248.0, -57560.44, 0.0, 10.000002, 9.916036 
1.445e+3, 2.643288e+2, -416012.6, -490987.8, 0.0025603992, 0.00000047332315, 0.00014064189, -416012.6, -66434.914, 0.0, 10.000002, 9.901964 
1.445e+3, 2.742313e+2, -316727.38, -391374.72, -0.0043044095, 0.00000047549847, -0.00020340277, -316727.38, -64194.363, 0.0, 10.000002, 9.902384 
1.445e+3, 2.841256e+2, -230254.11, -318081.2, 0.0015209301, 0.0000004739554, 0.00022908098, -230254.11, -74685.14, 0.0, 10.000002, 9.885438 
1.445e+3, 2.940121e+2, -130547.99, -217764.97, -0.0052630883, 0.00000046730815, -0.00025331386, -130547.99, -71866.586, 0.0, 10.000002, 9.886216 
1.445e+3, 3.0392656e+2, -40803.992, -84750.13, 0.00051713386, 0.00000046549067, 0.00017315711, -40803.992, -40803.992, 0.0, 10.000002, 9.942172 
1.445e+3, 3.138706e+2, -39725.977, -82511.18, -0.0047985935, 0.0000004708853, -0.000055133158, -39725.977, -39725.977, 0.0, 10.000002, 9.943684 
1.455e+3, 1.24993354e+2, -1719944.4, -1724224.5, 0.0018567294, 0.0000005314784, 0.000017733653, -1719944.4, -4879.27, 0.0, 10.000002, 9.994327 
1.455e+3, 1.3498761e+2, -1622564.0, -1627434.8, -0.0038077764, 0.0000005217408, -0.000068256515, -1622564.0, -5442.498, 0.0, 10.000002, 9.993544 
1.455e+3, 1.4497514e+2, -1534462.6, -1548146.1, 0.0037708369, 0.0000005170786, 0.00007102313, -1534462.6, -15219.008, 0.0, 10.000002, 9.981864 
1.455e+3, 1.5495703e+2, -1436734.9, -1450821.9, -0.005915295, 0.000000517529, -0.000056865087, -1436734.9, -15313.842, 0.0, 10.000002, 9.981332 
1.455e+3, 1.6493228e+2, -1348684.0, -1371952.3, 0.0016145647, 0.0000005147121, 0.000047456062, -1348684.0, -25020.33, 0.0, 10.000002, 9.969248 
1.455e+3, 1.7490156e+2, -1250726.0, -1274310.1, -0.0057078926, 0.0000005085676, -0.000073730465, -1250726.0, -24761.32, 0.0, 10.000002, 9.968834 
1.455e+3, 1.8486422e+2, -1162645.0, -1195720.0, 0.0014773047, 0.0000005049152, 0.00006623846, -1162645.0, -34314.375, 0.0, 10.000002, 9.956394 
1.455e+3, 1.9482066e+2, -1064495.3, -1097832.9, -0.0061918325, 0.00000050387297, -0.000057562782, -1064495.3, -33737.72, 0.0, 10.000002, 9.956052 
1.455e+3, 2.0477042e+2, -976331.3, -1019434.94, 0.0011035495, 0.00000050155813, 0.000068164445, -976331.3, -43081.465, 0.0, 10.000002, 9.94329 
1.455e+3, 2.1471375e+2, -878044.3, -921409.8, -0.0060533974, 0.0000004978627, -0.00012675652, -878044.3, -42239.055, 0.0, 10.000002, 9.942948 
1.455e+3, 2.2465037e+2, -789758.2, -843144.8, 0.001222687, 0.00000049518906, 0.000120942954, -789758.2, -51331.95, 0.0, 10.000002, 9.929907 
1.455e+3, 2.3458035e+2, -691324.7, -744966.4, -0.0062492685, 0.0000004936717, -0.00008875357, -691324.7, -50212.195, 0.0, 10.000002, 9.929576 
1.455e+3, 2.4450338e+2, -603000.7, -667018.75, -0.000070990965, 0.00000049102357, 0.00007477036, -603000.7, -59133.793, 0.0, 10.000002, 9.916135 
1.455e+3, 2.5441962e+2, -504248.0, -568343.25, -0.006492637, 0.0000004870237, -0.00010668384, -504248.0, -57560.453, 0.0, 10.000002, 9.916036 
1.455e+3, 2.643288e+2, -416012.6, -490987.84, 0.0014792405, 0.0000004862775, 0.00014063975, -416012.6, -66434.93, 0.0, 10.000002, 9.901964 
1.455e+3, 2.742313e+2, -316727.38, -391374.75, -0.005409542, 0.00000048967325, -0.00020340428, -316727.38, -64194.38, 0.0, 10.000002, 9.902384 
1.455e+3, 2.841256e+2, -230254.13, -318081.22, 0.0005966272, 0.00000048782647, 0.0002290808, -230254.13, -74685.16, 0.0, 10.000002, 9.885438 
1.455e+3, 2.940121e+2, -130548.01, -217765.0, -0.006171848, 0.0000004787846, -0.00025331177, -130548.01, -71866.6, 0.0, 10.000002, 9.886216 
1.455e+3, 3.0392656e+2, -40804.004, -84750.16, 0.001095305, 0.00000047692555, 0.00017316105, -40804.004, -40804.004, 0.0, 10.000002, 9.942172 
1.455e+3, 3.138706e+2, -39725.99, -82511.21, -0.004046709, 0.0000004857911, -0.000055128065, -39725.99, -39725.99, 0.0, 10.000002, 9.943684 
1.465e+3, 1.24993354e+2, -1719944.3, -1724224.5, 0.0074309446, 0.0000005464497, 0.000017735354, -1719944.3, -4879.143, 0.0, 10.000002, 9.994327 
1.465e+3, 1.3498761e+2, -1622563.9, -1627434.8, -0.0038703028, 0.0000005358271, -0.000068247704, -1622563.9, -5442.3745, 0.0, 10.000002, 9.993544 
1.465e+3, 1.4497514e+2, -1534462.5, -1548146.1, 0.0027059785, 0.00000053093703, 0.000071021495, -1534462.5, -15218.886, 0.0, 10.000002, 9.981864 
1.465e+3, 1.5495703e+2, -1436734.8, -1450821.9, -0.0041782255, 0.0000005318238, -0.000056861812, -1436734.8, -15313.718, 0.0, 10.000002, 9.981332 
1.465e+3, 1.6493228e+2, -1348683.9, -1371952.3, 0.0047385083, 0.0000005290328, 0.000047460962, -1348683.9, -25020.209, 0.0, 10.000002, 9.969248 
1.465e+3, 1.7490156e+2, -1250725.9, -1274310.0, -0.004052649, 0.00000052249584, -0.000073727286, -1250725.9, -24761.201, 0.0, 10.000002, 9.968834 
1.465e+3, 1.8486422e+2, -1162644.9, -1195720.0, 0.0023928685, 0.0000005186745, 0.000066240915, -1162644.9, -34314.258, 0.0, 10.000002, 9.956394 
1.465e+3, 1.9482066e+2, -1064495.1, -1097832.9, -0.0054760096, 0.0000005176968, -0.00005756, -1064495.1, -33737.6, 0.0, 10.000002, 9.956052 
1.465e+3, 2.0477042e+2, -976331.2, -1019434.94, 0.0020987138, 0.0000005153978, 0.00006816734, -976331.2, -43081.348, 0.0, 10.000002, 9.94329 
1.465e+3, 2.1471375e+2, -878044.2, -921409.75, -0.005744032, 0.00000051166467, -0.00012675376, -878044.2, -42238.94, 0.0, 10.000002, 9.942948 
1.465e+3, 2.2465037e+2, -789758.06, -843144.75, 0.0015264864, 0.0000005089396, 0.00012094555, -789758.06, -51331.84, 0.0, 10.000002, 9.929907 
1.465e+3, 2.3458035e+2, -691324.56, -744966.4, -0.0055388673, 0.00000050735315, -0.00008875121, -691324.56, -50212.08, 0.0, 10.000002, 9.929576 
1.465e+3, 2.4450338e+2, -603000.56, -667018.7, 0.00083637366, 0.0000005045799, 0.00007477247, -603000.56, -59133.676, 0.0, 10.000002, 9.916135 
1.465e+3, 2.5441962e+2, -504247.88, -568343.25, -0.006700284, 0.00000050038824, -0.000106682026, -504247.88, -57560.344, 0.0, 10.000002, 9.916036 
1.465e+3, 2.643288e+2, -416012.5, -490987.8, 0.0013319677, 0.00000049975847, 0.00014064135, -416012.5, -66434.82, 0.0, 10.000002, 9.901964 
1.465e+3, 2.742313e+2, -316727.28, -391374.72, -0.0048022433, 0.00000050366305, -0.00020340279, -316727.28, -64194.27, 0.0, 10.000002, 9.902384 
1.465e+3, 2.841256e+2, -230254.02, -318081.2, 0.0022381048, 0.0000005016436, 0.00022908211, -230254.02, -74685.05, 0.0, 10.000002, 9.885438 
1.465e+3, 2.940121e+2, -130547.9, -217764.97, -0.003704695, 0.00000049149435, -0.00025331072, -130547.9, -71866.49, 0.0, 10.000002, 9.886216 
1.465e+3, 3.0392656e+2, -40803.895, -84750.125, 0.0041223075, 0.0000004895481, 0.00017316187, -40803.895, -40803.895, 0.0, 10.000002, 9.942172 
1.465e+3, 3.138706e+2, -39725.887, -82511.18, -0.002286584, 0.0000004998495, -0.00005512734, -39725.887, -39725.887, 0.0, 10.000002, 9.943684 
1.475e+3, 1.24993354e+2, -1719944.4, -1724224.5, 0.0030295758, 0.0000005601243, 0.000017739492, -1719944.4, -4879.172, 0.0, 10.000002, 9.994327 
1.475e+3, 1.3498761e+2, -1622563.9, -1627434.8, -0.008275421, 0.00000055187326, -0.00006824119, -1622563.9, -5442.4033, 0.0, 10.000002, 9.993544 
1.475e+3, 1.4497514e+2, -1534462.5, -1548146.1, -0.00068471313, 0.0000005467943, 0.00007101597, -1534462.5, -15218.904, 0.0, 10.000002, 9.981864 
1.475e+3, 1.5495703e+2, -1436734.8, -1450821.9, -0.0075656744, 0.0000005449249, -0.000056858928, -1436734.8, -15313.736, 0.0, 10.000002, 9.981332 
1.475e+3, 1.6493228e+2, -1348683.9, -1371952.3, 0.0013668683, 0.0000005419043, 0.00004746795, -1348683.9, -25020.23, 0.0, 10.000002, 9.969248 
1.475e+3, 1.7490156e+2, -1250725.9, -1274310.1, -0.0074221916, 0.0000005377154, -0.00007372062, -1250725.9, -24761.223, 0.0, 10.000002, 9.968834 
1.475e+3, 1.8486422e+2, -1162644.9, -1195720.0, -0.00006614461, 0.00000053419205, 0.00006624343, -1162644.9, -34314.273, 0.0, 10.000002, 9.956394 
1.475e+3, 1.9482066e+2, -1064495.1, -1097832.9, -0.007924074, 0.00000053136483, -0.000057565634, -1064495.1, -33737.617, 0.0, 10.000002, 9.956052 
1.475e+3, 2.0477042e+2, -976331.2, -1019434.94, -0.0006271997, 0.0000005285758, 0.000068165646, -976331.2, -43081.363, 0.0, 10.000002, 9.94329 
1.475e+3, 2.1471375e+2, -878044.2, -921409.8, -0.0084760925, 0.00000052582703, -0.00012673842, -878044.2, -42238.96, 0.0, 10.000002, 9.942948 
1.475e+3, 2.2465037e+2, -789758.1, -843144.8, 0.00016918997, 0.00000052343347, 0.00012096326, -789758.1, -51331.855, 0.0, 10.000002, 9.929907 
1.475e+3, 2.3458035e+2, -691324.6, -744966.4, -0.006851294, 0.00000052143525, -0.00008874771, -691324.6, -50212.094, 0.0, 10.000002, 9.929576 
1.475e+3, 2.4450338e+2, -603000.56, -667018.75, -0.0011382042, 0.0000005184919, 0.000074770476, -603000.56, -59133.695, 0.0, 10.000002, 9.916135 
1.475e+3, 2.5441962e+2, -504247.9, -568343.25, -0.008707266, 0.0000005144189, -0.00010667908, -504247.9, -57560.36, 0.0, 10.000002, 9.916036 
1.475e+3, 2.643288e+2, -416012.5, -490987.84, 0.00042867678, 0.0000005137661, 0.0001406467, -416012.5, -66434.836, 0.0, 10.000002, 9.901964 
1.475e+3, 2.742313e+2, -316727.28, -391374.75, -0.005632128, 0.00000051746775, -0.00020339829, -316727.28, -64194.285, 0.0, 10.000002, 9.902384 
1.475e+3, 2.841256e+2, -230254.03, -318081.22, 0.0017568825, 0.0000005154067, 0.00022908491, -230254.03, -74685.06, 0.0, 10.000002, 9.885438 
1.475e+3, 2.940121e+2, -130547.91, -217765.0, -0.0041550966, 0.0000005054373, -0.00025331075, -130547.91, -71866.5, 0.0, 10.000002, 9.886216 
1.475e+3, 3.0392656e+2, -40803.91, -84750.16, 0.0035072828, 0.00000050335836, 0.00017315958, -40803.91, -40803.91, 0.0, 10.000002, 9.942172 
1.475e+3, 3.138706e+2, -39725.902, -82511.21, -0.0029216812, 0.00000051306046, -0.00005513099, -39725.902, -39725.902, 0.0, 10.000002, 9.943684 
1.485e+3, 1.24993354e+2, -1719944.1, -1724224.5, 0.006049954, 0.00000057569326, 0.000017741351, -1719944.1, -4879.0386, 0.0, 10.000002, 9.994327 
1.485e+3, 1.3498761e+2, -1622563.8, -1627434.8, -0.0005179586, 0.00000056705056, -0.000068230765, -1622563.8, -5442.2715, 0.0, 10.000002, 9.993544 
1.485e+3, 1.4497514e+2, -1534462.4, -1548146.1, 0.008636879, 0.00000056153607, 0.00007101353, -1534462.4, -15218.773, 0.0, 10.000002, 9.981864 
1.485e+3, 1.5495703e+2, -1436734.6, -1450821.8, -0.0023011835, 0.0000005592035, -0.000056855322, -1436734.6, -15313.606, 0.0, 10.000002, 9.981332 
1.485e+3, 1.6493228e+2, -1348683.8, -1371952.3, 0.0048192027, 0.00000055631, 0.000047473462, -1348683.8, -25020.102, 0.0, 10.000002, 9.969248 
1.485e+3, 1.7490156e+2, -1250725.8, -1274310.0, -0.0033763992, 0.0000005528489, -0.00007371744, -1250725.8, -24761.096, 0.0, 10.000002, 9.968834 
1.485e+3, 1.8486422e+2, -1162644.8, -1195720.0, 0.0046947347, 0.0000005492503, 0.000066245724, -1162644.8, -34314.15, 0.0, 10.000002, 9.956394 
1.485e+3, 1.9482066e+2, -1064495.0, -1097832.9, -0.0038575693, 0.0000005455011, -0.000057562695, -1064495.0, -33737.496, 0.0, 10.000002, 9.956052 
1.485e+3, 2.0477042e+2, -976331.06, -1019434.9, 0.0032117062, 0.00000054249847, 0.000068168716, -976331.06, -43081.242, 0.0, 10.000002, 9.94329 
1.485e+3, 2.1471375e+2, -878044.06, -921409.75, -0.004996703, 0.0000005403025, -0.00012673579, -878044.06, -42238.836, 0.0, 10.000002, 9.942948 
1.485e+3, 2.2465037e+2, -789758.0, -843144.75, 0.0034212882, 0.00000053812215, 0.000120965655, -789758.0, -51331.73, 0.0, 10.000002, 9.929907 
1.485e+3, 2.3458035e+2, -691324.5, -744966.4, -0.004715745, 0.0000005359524, -0.00008874536, -691324.5, -50211.977, 0.0, 10.000002, 9.929576 
1.485e+3, 2.4450338e+2, -603000.44, -667018.7, 0.0008527403, 0.0000005328541, 0.00007477269, -603000.44, -59133.58, 0.0, 10.000002, 9.916135 
1.485e+3, 2.5441962e+2, -504247.78, -568343.25, -0.0062968126, 0.00000052864533, -0.00010667712, -504247.78, -57560.242, 0.0, 10.000002, 9.916036 
1.485e+3, 2.643288e+2, -416012.38, -490987.8, 0.0029102145, 0.0000005280036, 0.00014064847, -416012.38, -66434.71, 0.0, 10.000002, 9.901964 
1.485e+3, 2.742313e+2, -316727.16, -391374.72, -0.0047869617, 0.00000053190337, -0.00020339662, -316727.16, -64194.168, 0.0, 10.000002, 9.902384 
1.485e+3, 2.841256e+2, -230253.92, -318081.2, 0.0013220962, 0.00000052974724, 0.00022908648, -230253.92, -74684.945, 0.0, 10.000002, 9.885438 
1.485e+3, 2.940121e+2, -130547.8, -217764.97, -0.006136425, 0.0000005192802, -0.0002533093, -130547.8, -71866.39, 0.0, 10.000002, 9.886216 
1.485e+3, 3.0392656e+2, -40803.797, -84750.125, 0.0012485693, 0.00000051709526, 0.00017316078, -40803.797, -40803.797, 0.0, 10.000002, 9.942172 
1.485e+3, 3.138706e+2, -39725.785, -82511.18, -0.004421885, 0.00000052727626, -0.000055130266, -39725.785, -39725.785, 0.0, 10.000002, 9.943684 
1.495e+3, 1.24993354e+2, -1719944.3, -1724224.5, 0.0012530024, 0.0000005931604, 0.00001774162, -1719944.3, -4879.0566, 0.0, 10.000002, 9.994327 
1.495e+3, 1.3498761e+2, -1622563.8, -1627434.8, -0.0053187404, 0.00000058136027, -0.000068216425, -1622563.8, -5442.2896, 0.0, 10.000002, 9.993544 
1.495e+3, 1.4497514e+2, -1534462.4, -1548146.1, 0.0051595103, 0.0000005751614, 0.00007101418, -1534462.4, -15218.802, 0.0, 10.000002, 9.981864 
1.495e+3, 1.5495703e+2, -1436734.8, -1450821.9, -0.005772993, 0.0000005746595, -0.00005685099, -1436734.8, -15313.634, 0.0, 10.000002, 9.981332 
1.495e+3, 1.6493228e+2, -1348683.8, -1371952.3, 0.0011926867, 0.0000005722497, 0.000047477497, -1348683.8, -25020.121, 0.0, 10.000002, 9.969248 
1.495e+3, 1.7490156e+2, -1250725.8, -1274310.1, -0.007000053, 0.0000005678942, -0.00007371776, -1250725.8, -24761.115, 0.0, 10.000002, 9.968834 
1.495e+3, 1.8486422e+2, -1162644.8, -1195720.0, 0.0016373124, 0.0000005638475, 0.0000662478, -1162644.8, -34314.17, 0.0, 10.000002, 9.956394 
1.495e+3, 1.9482066e+2, -1064495.1, -1097832.9, -0.006908661, 0.00000056010543, -0.00005755118, -1064495.1, -33737.516, 0.0, 10.000002, 9.956052 
1.495e+3, 2.0477042e+2, -976331.1, -1019434.94, 0.0010345336, 0.00000055716583, 0.000068176545, -976331.1, -43081.26, 0.0, 10.000002, 9.94329 
1.495e+3, 2.1471375e+2, -878044.1, -921409.8, -0.0071575567, 0.00000055509076, -0.00012674584, -878044.1, -42238.855, 0.0, 10.000002, 9.942948 
1.495e+3, 2.2465037e+2, -789758.0, -843144.8, 0.00085182436, 0.0000005530053, 0.000120952725, -789758.0, -51331.75, 0.0, 10.000002, 9.929907 
1.495e+3, 2.3458035e+2, -691324.5, -744966.4, -0.007299073, 0.0000005509044, -0.00008874415, -691324.5, -50211.996, 0.0, 10.000002, 9.929576 
1.495e+3, 2.4450338e+2, -603000.44, -667018.75, -0.00051304343, 0.00000054766633, 0.000074779105, -603000.44, -59133.594, 0.0, 10.000002, 9.916135 
1.495e+3, 2.5441962e+2, -504247.8, -568343.25, -0.007604212, 0.00000054306736, -0.00010667616, -504247.8, -57560.258, 0.0, 10.000002, 9.916036 
1.495e+3, 2.643288e+2, -416012.4, -490987.84, 0.0016333637, 0.00000054247096, 0.00014064666, -416012.4, -66434.73, 0.0, 10.000002, 9.901964 
1.495e+3, 2.742313e+2, -316727.2, -391374.75, -0.0060621602, 0.00000054697, -0.00020339777, -316727.2, -64194.184, 0.0, 10.000002, 9.902384 
1.495e+3, 2.841256e+2, -230253.94, -318081.22, 0.00040292143, 0.0000005446651, 0.00022908681, -230253.94, -74684.96, 0.0, 10.000002, 9.885438 
1.495e+3, 2.940121e+2, -130547.81, -217765.0, -0.0070239427, 0.000000533023, -0.00025330635, -130547.81, -71866.41, 0.0, 10.000002, 9.886216 
1.495e+3, 3.0392656e+2, -40803.813, -84750.16, 0.0012291804, 0.0000005307588, 0.00017316545, -40803.813, -40803.813, 0.0, 10.000002, 9.942172 
1.495e+3, 3.138706e+2, -39725.8, -82511.21, -0.0043398, 0.00000054249665, -0.000055125172, -39725.8, -39725.8, 0.0, 10.000002, 9.943684 
1.5050001e+3, 1.24993354e+2, -1719944.0, -1724224.5, 0.0073207915, 0.0000006098353, 0.000017743416, -1719944.0, -4878.917, 0.0, 10.000002, 9.994327 
1.5050001e+3, 1.3498761e+2, -1622563.6, -1627434.8, -0.005312466, 0.00000059672027, -0.00006820306, -1622563.6, -5442.1494, 0.0, 10.000002, 9.993544 
1.5050001e+3, 1.4497514e+2, -1534462.3, -1548146.1, 0.004477227, 0.00000059018913, 0.00007101118, -1534462.3, -15218.662, 0.0, 10.000002, 9.981864 
1.505e+3, 1.5495703e+2, -1436734.6, -1450821.8, -0.0034406811, 0.0000005903521, -0.000056847024, -1436734.6, -15313.499, 0.0, 10.000002, 9.981332 
1.505e+3, 1.6493228e+2, -1348683.6, -1371952.3, 0.0045687794, 0.00000058808365, 0.000047483714, -1348683.6, -25019.986, 0.0, 10.000002, 9.969248 
1.505e+3, 1.7490156e+2, -1250725.6, -1274310.0, -0.005026382, 0.0000005833382, -0.000073714065, -1250725.6, -24760.982, 0.0, 10.000002, 9.968834 
1.505e+3, 1.8486422e+2, -1162644.6, -1195720.0, 0.003205314, 0.00000057907937, 0.00006625045, -1162644.6, -34314.035, 0.0, 10.000002, 9.956394 
1.505e+3, 1.9482066e+2, -1064494.9, -1097832.9, -0.0058026644, 0.00000057530383, -0.000057548, -1064494.9, -33737.383, 0.0, 10.000002, 9.956052 
1.505e+3, 2.0477042e+2, -976331.0, -1019434.9, 0.0023290657, 0.0000005723431, 0.000068179725, -976331.0, -43081.133, 0.0, 10.000002, 9.94329 
1.505e+3, 2.1471375e+2, -878044.0, -921409.75, -0.0061354004, 0.0000005702594, -0.00012674322, -878044.0, -42238.727, 0.0, 10.000002, 9.942948 
1.505e+3, 2.2465037e+2, -789757.9, -843144.75, 0.0020064723, 0.0000005681759, 0.00012095506, -789757.9, -51331.625, 0.0, 10.000002, 9.929907 
1.505e+3, 2.3458035e+2, -691324.4, -744966.4, -0.0059446134, 0.0000005660904, -0.00008874177, -691324.4, -50211.867, 0.0, 10.000002, 9.929576 
1.505e+3, 2.4450338e+2, -603000.3, -667018.7, 0.00095046137, 0.00000056277383, 0.000074781405, -603000.3, -59133.465, 0.0, 10.000002, 9.916135 
1.505e+3, 2.5441962e+2, -504247.7, -568343.25, -0.0076124216, 0.00000055798347, -0.00010667408, -504247.7, -57560.133, 0.0, 10.000002, 9.916036 
1.505e+3, 2.643288e+2, -416012.28, -490987.8, 0.0014998948, 0.0000005573707, 0.0001406486, -416012.28, -66434.61, 0.0, 10.000002, 9.901964 
1.505e+3, 2.742313e+2, -316727.06, -391374.72, -0.005304568, 0.00000056207574, -0.00020339584, -316727.06, -64194.063, 0.0, 10.000002, 9.902384 
1.505e+3, 2.841256e+2, -230253.81, -318081.2, 0.0023681587, 0.000000559705, 0.00022908859, -230253.81, -74684.836, 0.0, 10.000002, 9.885438 
1.505e+3, 2.940121e+2, -130547.69, -217764.97, -0.004301813, 0.0000005476239, -0.00025330487, -130547.69, -71866.28, 0.0, 10.000002, 9.886216 
1.505e+3, 3.0392656e+2, -40803.69, -84750.125, 0.0042769383, 0.0000005453116, 0.00017316664, -40803.69, -40803.69, 0.0, 10.000002, 9.942172 
1.505e+3, 3.138706e+2, -39725.684, -82511.17, -0.0028817186, 0.0000005575849, -0.000055124292, -39725.684, -39725.684, 0.0, 10.000002, 9.943684 
1.5150002e+3, 1.24993354e+2, -1719944.1, -1724224.5, 0.0027599165, 0.000000625708, 0.000017747358, -1719944.1, -4878.9497, 0.0, 10.000002, 9.994327 
1.5150002e+3, 1.3498761e+2, -1622563.6, -1627434.8, -0.009874748, 0.0000006131277, -0.00006819068, -1622563.6, -5442.181, 0.0, 10.000002, 9.993544 
1.5150002e+3, 1.4497514e+2, -1534462.3, -1548146.1, 0.0002355, 0.00000060661796, 0.00007100453, -1534462.3, -15218.683, 0.0, 10.000002, 9.981864 
1.5150002e+3, 1.5495703e+2, -1436734.6, -1450821.9, -0.007682793, 0.0000006062769, -0.000056843426, -1436734.6, -15313.52, 0.0, 10.000002, 9.981332 
1.5150002e+3, 1.6493228e+2, -1348683.6, -1371952.3, 0.000889529, 0.0000006038072, 0.000047492103, -1348683.6, -25020.012, 0.0, 10.000002, 9.969248 
1.5150002e+3, 1.7490156e+2, -1250725.6, -1274310.1, -0.00870312, 0.00000059918085, -0.00007370636, -1250725.6, -24761.006, 0.0, 10.000002, 9.968834 
1.5150002e+3, 1.8486422e+2, -1162644.6, -1195720.0, 0.00003285115, 0.0000005949458, 0.0000662537, -1162644.6, -34314.06, 0.0, 10.000002, 9.956394 
1.5150002e+3, 1.9482066e+2, -1064495.0, -1097832.9, -0.008969402, 0.0000005910956, -0.00005755316, -1064495.0, -33737.406, 0.0, 10.000002, 9.956051 
1.5150002e+3, 2.0477042e+2, -976331.0, -1019434.94, -0.0005932617, 0.0000005880295, 0.00006817825, -976331.0, -43081.152, 0.0, 10.000002, 9.94329 
1.5150002e+3, 2.1471375e+2, -878044.0, -921409.8, -0.009052834, 0.0000005858081, -0.00012672793, -878044.0, -42238.75, 0.0, 10.000002, 9.942948 
1.5150002e+3, 2.2465037e+2, -789757.9, -843144.8, -0.00013568555, 0.0000005836338, 0.00012097266, -789757.9, -51331.645, 0.0, 10.000002, 9.929907 
1.5150002e+3, 2.3458035e+2, -691324.4, -744966.4, -0.008061498, 0.0000005815102, -0.000088738234, -691324.4, -50211.887, 0.0, 10.000002, 9.929576 
1.515e+3, 2.4450338e+2, -603000.4, -667018.75, -0.0010272148, 0.0000005781764, 0.00007477957, -603000.4, -59133.484, 0.0, 10.000002, 9.916135 
1.515e+3, 2.5441962e+2, -504247.7, -568343.25, -0.009583494, 0.00000057339366, -0.000106670894, -504247.7, -57560.152, 0.0, 10.000002, 9.916036 
1.515e+3, 2.643288e+2, -416012.28, -490987.84, 0.00016530917, 0.00000057270273, 0.0001406543, -416012.28, -66434.625, 0.0, 10.000002, 9.901964 
1.515e+3, 2.742313e+2, -316727.1, -391374.75, -0.0065965466, 0.00000057722065, -0.00020339087, -316727.1, -64194.08, 0.0, 10.000002, 9.902384 
1.515e+3, 2.841256e+2, -230253.83, -318081.22, 0.0014986438, 0.00000057486693, 0.0002290918, -230253.83, -74684.85, 0.0, 10.000002, 9.885438 
1.515e+3, 2.940121e+2, -130547.7, -217765.0, -0.0051333406, 0.00000056308284, -0.00025330484, -130547.7, -71866.3, 0.0, 10.000002, 9.886216 
1.515e+3, 3.0392656e+2, -40803.71, -84750.16, 0.0037918794, 0.00000056075345, 0.00017316436, -40803.71, -40803.71, 0.0, 10.000002, 9.942172 
1.515e+3, 3.138706e+2, -39725.7, -82511.21, -0.0033261855, 0.0000005725409, -0.00005512763, -39725.7, -39725.7, 0.0, 10.000002, 9.943684 
1.5250002e+3, 1.24993354e+2, -1719943.9, -1724224.5, 0.0065836282, 0.0000006414322, 0.000017749886, -1719943.9, -4878.8022, 0.0, 10.000002, 9.994327 
1.5250002e+3, 1.3498761e+2, -1622563.5, -1627434.8, -0.0009299271, 0.00000063015847, -0.00006817759, -1622563.5, -5442.0337, 0.0, 10.000002, 9.993544 
1.5250002e+3, 1.4497514e+2, -1534462.1, -1548146.1, 0.009623179, 0.0000006238863, 0.000071001734, -1534462.1, -15218.536, 0.0, 10.000002, 9.981864 
1.5250002e+3, 1.5495703e+2, -1436734.4, -1450821.8, -0.002290655, 0.00000062268924, -0.00005683932, -1436734.4, -15313.376, 0.0, 10.000002, 9.981332 
1.5250002e+3, 1.6493228e+2, -1348683.5, -1371952.3, 0.005407284, 0.0000006198457, 0.000047498415, -1348683.5, -25019.87, 0.0, 10.000002, 9.969247 
1.5250002e+3, 1.7490156e+2, -1250725.5, -1274310.0, -0.0038263677, 0.0000006153393, -0.0000737026, -1250725.5, -24760.863, 0.0, 10.000002, 9.968834 
1.5250002e+3, 1.8486422e+2, -1162644.5, -1195720.0, 0.0051746834, 0.0000006111932, 0.000066256434, -1162644.5, -34313.918, 0.0, 10.000002, 9.956394 
1.5250002e+3, 1.9482066e+2, -1064494.9, -1097832.9, -0.0042381273, 0.00000060740524, -0.000057549834, -1064494.9, -33737.266, 0.0, 10.000002, 9.956051 
1.5250002e+3, 2.0477042e+2, -976330.9, -1019434.9, 0.003981551, 0.00000060426095, 0.000068181595, -976330.9, -43081.016, 0.0, 10.000002, 9.94329 
1.5250002e+3, 2.1471375e+2, -878043.9, -921409.75, -0.0051986054, 0.0000006018112, -0.00012672516, -878043.9, -42238.613, 0.0, 10.000002, 9.942948 
1.5250002e+3, 2.2465037e+2, -789757.75, -843144.75, 0.0035571891, 0.00000059945825, 0.000120975135, -789757.75, -51331.508, 0.0, 10.000002, 9.929907 
1.5250002e+3, 2.3458035e+2, -691324.25, -744966.3, -0.005479189, 0.0000005972103, -0.000088735724, -691324.25, -50211.75, 0.0, 10.000002, 9.929576 
1.5250002e+3, 2.4450338e+2, -603000.2, -667018.7, 0.0014382376, 0.0000005938704, 0.00007478199, -603000.2, -59133.35, 0.0, 10.000002, 9.916135 
1.5250002e+3, 2.5441962e+2, -504247.56, -568343.25, -0.0064859535, 0.0000005892235, -0.00010666873, -504247.56, -57560.02, 0.0, 10.000002, 9.916036 
1.5250002e+3, 2.643288e+2, -416012.16, -490987.8, 0.0033878486, 0.00000058847155, 0.00014065628, -416012.16, -66434.49, 0.0, 10.000002, 9.901964 
1.5250002e+3, 2.742313e+2, -316726.94, -391374.7, -0.005170534, 0.00000059267796, -0.00020338893, -316726.94, -64193.95, 0.0, 10.000002, 9.902384 
1.5250002e+3, 2.841256e+2, -230253.7, -318081.2, 0.0016667031, 0.0000005903487, 0.0002290936, -230253.7, -74684.73, 0.0, 10.000002, 9.885438 
1.5250002e+3, 2.940121e+2, -130547.58, -217764.97, -0.0065971348, 0.00000057904987, -0.00025330333, -130547.58, -71866.17, 0.0, 10.000002, 9.886216 
1.5250002e+3, 3.0392656e+2, -40803.582, -84750.125, 0.0019519638, 0.0000005767367, 0.00017316555, -40803.582, -40803.582, 0.0, 10.000002, 9.942172 
1.5250002e+3, 3.138706e+2, -39725.574, -82511.17, -0.004427185, 0.0000005878397, -0.000055126777, -39725.574, -39725.574, 0.0, 10.000002, 9.943684 
1.535e+3, 1.24993354e+2, -1719944.0, -1724224.5, 0.002233647, 0.0000006569972, 0.000017749977, -1719944.0, -4878.823, 0.0, 10.000002, 9.994327 
1.535e+3, 1.3498761e+2, -1622563.5, -1627434.8, -0.005274935, 0.0000006478095, -0.000068163776, -1622563.5, -5442.054, 0.0, 10.000002, 9.993544 
1.535e+3, 1.4497514e+2, -1534462.1, -1548146.1, 0.0046512103, 0.0000006419929, 0.0000710028, -1534462.1, -15218.566, 0.0, 10.000002, 9.981864 
1.535e+3, 1.5495703e+2, -1436734.5, -1450821.9, -0.007264503, 0.0000006395849, -0.000056834702, -1436734.5, -15313.406, 0.0, 10.000002, 9.981332 
1.535e+3, 1.6493228e+2, -1348683.5, -1371952.3, 0.0017566741, 0.00000063619456, 0.000047502646, -1348683.5, -25019.893, 0.0, 10.000002, 9.969247 
1.535e+3, 1.7490156e+2, -1250725.5, -1274310.1, -0.0074729393, 0.0000006318135, -0.00007370279, -1250725.5, -24760.887, 0.0, 10.000002, 9.968834 
1.535e+3, 1.8486422e+2, -1162644.5, -1195720.0, 0.0015386973, 0.00000062782146, 0.00006625867, -1162644.5, -34313.94, 0.0, 10.000002, 9.956394 
1.535e+3, 1.9482066e+2, -1064494.9, -1097832.9, -0.0078736255, 0.00000062423203, -0.000057538025, -1064494.9, -33737.29, 0.0, 10.000002, 9.956051 
1.535e+3, 2.0477042e+2, -976330.9, -1019434.94, 0.000875564, 0.0000006210368, 0.000068189765, -976330.9, -43081.035, 0.0, 10.000002, 9.94329 
1.535e+3, 2.1471375e+2, -878043.9, -921409.8, -0.008292017, 0.0000006182686, -0.00012673493, -878043.9, -42238.633, 0.0, 10.000002, 9.942948 
1.535e+3, 2.2465037e+2, -789757.75, -843144.8, 0.0011705749, 0.0000006156491, 0.00012096248, -789757.75, -51331.527, 0.0, 10.000002, 9.929907 
1.535e+3, 2.3458035e+2, -691324.25, -744966.4, -0.007842295, 0.0000006131906, -0.00008873424, -691324.25, -50211.773, 0.0, 10.000002, 9.929576 
1.535e+3, 2.4450338e+2, -603000.25, -667018.75, -0.0006511979, 0.00000060985576, 0.00007478865, -603000.25, -59133.37, 0.0, 10.000002, 9.916135 
1.535e+3, 2.5441962e+2, -504247.6, -568343.25, -0.008562206, 0.00000060547285, -0.00010666761, -504247.6, -57560.04, 0.0, 10.000002, 9.916035 
1.535e+3, 2.643288e+2, -416012.2, -490987.84, 0.0018092408, 0.000000604677, 0.00014065456, -416012.2, -66434.51, 0.0, 10.000002, 9.901964 
1.535e+3, 2.742313e+2, -316726.97, -391374.75, -0.0067154593, 0.00000060844775, -0.00020339004, -316726.97, -64193.965, 0.0, 10.000002, 9.902384 
1.535e+3, 2.841256e+2, -230253.72, -318081.22, 0.0007124159, 0.00000060615025, 0.00022909396, -230253.72, -74684.74, 0.0, 10.000002, 9.885438 
1.535e+3, 2.940121e+2, -130547.59, -217765.0, -0.007497913, 0.00000059552497, -0.00025330033, -130547.59, -71866.19, 0.0, 10.000002, 9.886216 
1.535e+3, 3.0392656e+2, -40803.598, -84750.16, 0.0013578834, 0.0000005932612, 0.00017317025, -40803.598, -40803.598, 0.0, 10.000002, 9.942172 
1.535e+3, 3.138706e+2, -39725.59, -82511.21, -0.0049849823, 0.0000006034812, -0.00005512173, -39725.59, -39725.59, 0.0, 10.000002, 9.943684 
1.5450001e+3, 1.24993354e+2, -1719943.8, -1724224.5, 0.008835305, 0.0000006744161, 0.000017752838, -1719943.8, -4878.6665, 0.0, 10.000002, 9.994327 
1.5450001e+3, 1.3498761e+2, -1622563.4, -1627434.8, -0.0044540665, 0.00000066490935, -0.00006815384, -1622563.4, -5441.901, 0.0, 10.000002, 9.993544 
1.5450001e+3, 1.4497514e+2, -1534462.0, -1548146.1, 0.0039732405, 0.0000006592242, 0.000071001195, -1534462.0, -15218.415, 0.0, 10.000002, 9.981864 
1.5450001e+3, 1.5495703e+2, -1436734.3, -1450821.8, -0.004815751, 0.00000065737817, -0.000056830686, -1436734.3, -15313.254, 0.0, 10.000002, 9.981332 
1.5450001e+3, 1.6493228e+2, -1348683.4, -1371952.3, 0.0059308186, 0.0000006537784, 0.00004750842, -1348683.4, -25019.74, 0.0, 10.000002, 9.969247 
1.5450001e+3, 1.7490156e+2, -1250725.4, -1274310.0, -0.0047494443, 0.00000064839764, -0.00007369923, -1250725.4, -24760.738, 0.0, 10.000002, 9.968834 
1.5450001e+3, 1.8486422e+2, -1162644.4, -1195720.0, 0.0036483645, 0.0000006443117, 0.00006626138, -1162644.4, -34313.793, 0.0, 10.000002, 9.956394 
1.5450001e+3, 1.9482066e+2, -1064494.6, -1097832.9, -0.006138015, 0.0000006415842, -0.000057534722, -1064494.6, -33737.145, 0.0, 10.000002, 9.956051 
1.5450001e+3, 2.0477042e+2, -976330.75, -1019434.9, 0.0027643421, 0.00000063847324, 0.00006819319, -976330.75, -43080.89, 0.0, 10.000002, 9.94329 
1.5450001e+3, 2.1471375e+2, -878043.75, -921409.75, -0.0068831923, 0.00000063494684, -0.00012673189, -878043.75, -42238.49, 0.0, 10.000002, 9.942948 
1.5450001e+3, 2.2465037e+2, -789757.6, -843144.75, 0.0028347797, 0.00000063201475, 0.00012096528, -789757.6, -51331.387, 0.0, 10.000002, 9.929907 
1.5450001e+3, 2.3458035e+2, -691324.1, -744966.3, -0.0059660105, 0.0000006297486, -0.000088731525, -691324.1, -50211.633, 0.0, 10.000002, 9.929576 
1.5450001e+3, 2.4450338e+2, -603000.06, -667018.7, 0.0013210264, 0.0000006265015, 0.000074791154, -603000.06, -59133.23, 0.0, 10.000002, 9.916135 
1.5450001e+3, 2.5441962e+2, -504247.44, -568343.2, -0.008036864, 0.00000062208176, -0.00010666546, -504247.44, -57559.9, 0.0, 10.000002, 9.916035 
1.5450001e+3, 2.643288e+2, -416012.03, -490987.8, 0.002210831, 0.0000006211564, 0.00014065647, -416012.03, -66434.375, 0.0, 10.000002, 9.901964 
1.5450001e+3, 2.742313e+2, -316726.84, -391374.7, -0.0054891333, 0.0000006246797, -0.00020338825, -316726.84, -64193.83, 0.0, 10.000002, 9.902384 
1.5450001e+3, 2.841256e+2, -230253.58, -318081.2, 0.003222928, 0.00000062244175, 0.00022909563, -230253.58, -74684.61, 0.0, 10.000002, 9.885438 
1.5450001e+3, 2.940121e+2, -130547.46, -217764.97, -0.0043001557, 0.00000061229645, -0.00025329881, -130547.46, -71866.055, 0.0, 10.000002, 9.886216 
1.5450001e+3, 3.0392656e+2, -40803.465, -84750.12, 0.004756325, 0.00000061008376, 0.0001731715, -40803.465, -40803.465, 0.0, 10.000002, 9.942172 
1.5450001e+3, 3.138706e+2, -39725.457, -82511.17, -0.0032361927, 0.0000006197147, -0.00005512098, -39725.457, -39725.457, 0.0, 10.000002, 9.943684 
1.5550001e+3, 1.24993354e+2, -1719943.9, -1724224.5, 0.0037976387, 0.0000006936928, 0.000017757842, -1719943.9, -4878.701, 0.0, 10.000002, 9.994326 
1.5550001e+3, 1.3498761e+2, -1622563.4, -1627434.8, -0.009489632, 0.00000068145926, -0.000068147776, -1622563.4, -5441.935, 0.0, 10.000002, 9.993544 
1.5550001e+3, 1.4497514e+2, -1534462.0, -1548146.1, -0.0007418344, 0.0000006755793, 0.00007099691, -1534462.0, -15218.438, 0.0, 10.000002, 9.981864 
1.5550001e+3, 1.5495703e+2, -1436734.4, -1450821.9, -0.009531786, 0.00000067606896, -0.00005682726, -1436734.4, -15313.276, 0.0, 10.000002, 9.981332 
1.5550001e+3, 1.6493228e+2, -1348683.4, -1371952.3, 0.001573537, 0.0000006725969, 0.000047515743, -1348683.4, -25019.768, 0.0, 10.000002, 9.969247 
1.5550001e+3, 1.7490156e+2, -1250725.4, -1274310.1, -0.009106685, 0.0000006650894, -0.00007369193, -1250725.4, -24760.766, 0.0, 10.000002, 9.968834 
1.5550001e+3, 1.8486422e+2, -1162644.4, -1195720.0, -0.00012355835, 0.0000006606621, 0.00006626456, -1162644.4, -34313.816, 0.0, 10.000002, 9.956394 
1.5550001e+3, 1.9482066e+2, -1064494.8, -1097832.9, -0.009903519, 0.0000006594616, -0.000057539924, -1064494.8, -33737.168, 0.0, 10.000002, 9.956051 
1.5550001e+3, 2.0477042e+2, -976330.75, -1019434.94, -0.00038765278, 0.0000006565703, 0.00006819187, -976330.75, -43080.914, 0.0, 10.000002, 9.94329 
1.5550001e+3, 2.1471375e+2, -878043.75, -921409.8, -0.010021977, 0.0000006518458, -0.00012671606, -878043.75, -42238.51, 0.0, 10.000002, 9.942948 
1.5550001e+3, 2.2465037e+2, -789757.6, -843144.8, -0.0001854826, 0.00000064855465, 0.00012098352, -789757.6, -51331.406, 0.0, 10.000002, 9.929907 
1.5550001e+3, 2.3458035e+2, -691324.2, -744966.4, -0.008982422, 0.0000006468843, -0.0000887276, -691324.2, -50211.652, 0.0, 10.000002, 9.929576 
1.5550001e+3, 2.4450338e+2, -603000.1, -667018.75, -0.0006722987, 0.00000064380765, 0.000074789496, -603000.1, -59133.254, 0.0, 10.000002, 9.916135 
1.5550001e+3, 2.5441962e+2, -504247.47, -568343.25, -0.009980461, 0.00000063905014, -0.00010666227, -504247.47, -57559.918, 0.0, 10.000002, 9.916035 
1.5550001e+3, 2.643288e+2, -416012.06, -490987.84, 0.00046400906, 0.00000063790964, 0.00014066201, -416012.06, -66434.39, 0.0, 10.000002, 9.901964 
1.5550001e+3, 2.742313e+2, -316726.84, -391374.72, -0.0072223092, 0.000000641374, -0.00020338353, -316726.84, -64193.848, 0.0, 10.000002, 9.902384 
1.5550001e+3, 2.841256e+2, -230253.61, -318081.22, 0.001973776, 0.000000639223, 0.00022909863, -230253.61, -74684.625, 0.0, 10.000002, 9.885438 
1.5550001e+3, 2.940121e+2, -130547.48, -217765.0, -0.005505236, 0.0000006293642, -0.00025329873, -130547.48, -71866.07, 0.0, 10.000002, 9.886216 
1.5550001e+3, 3.0392656e+2, -40803.484, -84750.16, 0.004367112, 0.0000006272044, 0.0001731693, -40803.484, -40803.484, 0.0, 10.000002, 9.942172 
1.5550001e+3, 3.138706e+2, -39725.477, -82511.21, -0.0035290155, 0.00000063653994, -0.00005512453, -39725.477, -39725.477, 0.0, 10.000002, 9.943684 
1.5650001e+3, 1.24993354e+2, -1719943.6, -1724224.5, 0.007838776, 0.00000071202413, 0.000017760896, -1719943.6, -4878.5356, 0.0, 10.000002, 9.994326 
1.5650001e+3, 1.3498761e+2, -1622563.3, -1627434.8, -0.00084760773, 0.0000006998327, -0.00006813918, -1622563.3, -5441.7734, 0.0, 10.000002, 9.993544 
1.5650001e+3, 1.4497514e+2, -1534461.9, -1548146.1, 0.009205322, 0.00000069374465, 0.00007099717, -1534461.9, -15218.278, 0.0, 10.000002, 9.981864 
1.5650001e+3, 1.5495703e+2, -1436734.1, -1450821.8, -0.0033558179, 0.0000006937654, -0.000056823203, -1436734.1, -15313.116, 0.0, 10.000002, 9.981332 
1.5650001e+3, 1.6493228e+2, -1348683.3, -1371952.3, 0.006070178, 0.0000006902719, 0.00004752104, -1348683.3, -25019.607, 0.0, 10.000002, 9.969247 
1.5650001e+3, 1.7490156e+2, -1250725.3, -1274310.0, -0.0041163918, 0.0000006831968, -0.00007368801, -1250725.3, -24760.61, 0.0, 10.000002, 9.968834 
1.5650001e+3, 1.8486422e+2, -1162644.3, -1195720.0, 0.005795527, 0.00000067875055, 0.00006626784, -1162644.3, -34313.664, 0.0, 10.000002, 9.956394 
1.5650001e+3, 1.9482066e+2, -1064494.5, -1097832.9, -0.0046799798, 0.00000067705747, -0.0000575365, -1064494.5, -33737.01, 0.0, 10.000002, 9.956051 
1.5650001e+3, 2.0477043e+2, -976330.56, -1019434.9, 0.004475831, 0.00000067400555, 0.00006819532, -976330.56, -43080.76, 0.0, 10.000002, 9.94329 
1.5650001e+3, 2.1471375e+2, -878043.6, -921409.75, -0.005432576, 0.00000066947985, -0.00012671271, -878043.6, -42238.363, 0.0, 10.000002, 9.942948 
1.5650001e+3, 2.2465037e+2, -789757.5, -843144.75, 0.0043745334, 0.0000006662033, 0.00012098663, -789757.5, -51331.258, 0.0, 10.000002, 9.929907 
1.5650001e+3, 2.3458035e+2, -691324.0, -744966.3, -0.0058209896, 0.00000066434154, -0.000088724824, -691324.0, -50211.5, 0.0, 10.000002, 9.929576 
1.5650001e+3, 2.4450338e+2, -602999.94, -667018.7, 0.0022859895, 0.0000006612544, 0.000074791984, -602999.94, -59133.1, 0.0, 10.000002, 9.916135 
1.5650001e+3, 2.5441962e+2, -504247.3, -568343.2, -0.006691054, 0.00000065670196, -0.000106660016, -504247.3, -57559.773, 0.0, 10.000002, 9.916035 
1.5650001e+3, 2.643288e+2, -416011.9, -490987.78, 0.0036790883, 0.0000006554142, 0.00014066404, -416011.9, -66434.25, 0.0, 10.000002, 9.901963 
1.5650001e+3, 2.742313e+2, -316726.72, -391374.7, -0.005799642, 0.0000006582825, -0.00020338176, -316726.72, -64193.703, 0.0, 10.000002, 9.902384 
1.5650001e+3, 2.841256e+2, -230253.45, -318081.2, 0.0022712434, 0.00000065619065, 0.00022910014, -230253.45, -74684.484, 0.0, 10.000002, 9.885438 
1.5650001e+3, 2.940121e+2, -130547.336, -217764.95, -0.0068613235, 0.0000006472902, -0.0002532975, -130547.336, -71865.92, 0.0, 10.000002, 9.886216 
1.5650001e+3, 3.0392656e+2, -40803.344, -84750.12, 0.0024555614, 0.00000064516047, 0.00017317031, -40803.344, -40803.344, 0.0, 10.000002, 9.942172 
1.5650001e+3, 3.138706e+2, -39725.336, -82511.17, -0.004831119, 0.00000065314015, -0.00005512368, -39725.336, -39725.336, 0.0, 10.000002, 9.943684 
1.5750001e+3, 1.24993354e+2, -1719943.6, -1724224.5, 0.0019162754, 0.00000072940935, 0.000017761926, -1719943.6, -4878.56, 0.0, 10.000002, 9.994326 
1.5750001e+3, 1.3498761e+2, -1622563.3, -1627434.8, -0.0067689167, 0.00000072002956, -0.00006812806, -1622563.3, -5441.7974, 0.0, 10.000002, 9.993544 
1.5750001e+3, 1.4497514e+2, -1534461.9, -1548146.1, 0.004635675, 0.00000071372, 0.000071001974, -1534461.9, -15218.311, 0.0, 10.000002, 9.981864 
1.5750001e+3, 1.5495703e+2, -1436734.3, -1450821.9, -0.0079242075, 0.000000710467, -0.000056818517, -1436734.3, -15313.148, 0.0, 10.000002, 9.981332 
1.5750001e+3, 1.6493228e+2, -1348683.3, -1371952.3, 0.0010659506, 0.00000070680267, 0.000047524314, -1348683.3, -25019.635, 0.0, 10.000002, 9.969247 
1.5750001e+3, 1.7490156e+2, -1250725.3, -1274310.1, -0.0091238255, 0.00000070271983, -0.00007368747, -1250725.3, -24760.635, 0.0, 10.000002, 9.968834 
1.5750001e+3, 1.8486422e+2, -1162644.3, -1195720.0, 0.0021995862, 0.00000069857697, 0.000066271234, -1162644.3, -34313.688, 0.0, 10.000002, 9.956394 
1.5750001e+3, 1.9482066e+2, -1064494.6, -1097832.9, -0.00826043, 0.0000006943715, -0.00005752445, -1064494.6, -33737.04, 0.0, 10.000002, 9.956051 
1.5750001e+3, 2.0477043e+2, -976330.6, -1019434.94, 0.00051870826, 0.00000069077845, 0.000068203524, -976330.6, -43080.785, 0.0, 10.000002, 9.94329 
1.5750001e+3, 2.1471375e+2, -878043.6, -921409.8, -0.009397937, 0.0000006878489, -0.00012672189, -878043.6, -42238.387, 0.0, 10.000002, 9.942948 
1.5750001e+3, 2.2465037e+2, -789757.5, -843144.8, 0.0018191298, 0.0000006849608, 0.00012097462, -789757.5, -51331.28, 0.0, 10.000002, 9.929907 
1.5750001e+3, 2.3458035e+2, -691324.0, -744966.4, -0.00833014, 0.0000006821202, -0.000088723216, -691324.0, -50211.523, 0.0, 10.000002, 9.929576 
1.5750001e+3, 2.4450338e+2, -603000.0, -667018.75, -0.0004141366, 0.0000006788414, 0.0000747986, -603000.0, -59133.125, 0.0, 10.000002, 9.916135 
1.5750001e+3, 2.5441962e+2, -504247.34, -568343.25, -0.009400164, 0.00000067503714, -0.00010665868, -504247.34, -57559.793, 0.0, 10.000002, 9.916035 
1.5750001e+3, 2.643288e+2, -416011.94, -490987.84, 0.0018504225, 0.00000067366994, 0.00014066255, -416011.94, -66434.266, 0.0, 10.000002, 9.901963 
1.5750001e+3, 2.742313e+2, -316726.72, -391374.75, -0.007568937, 0.0000006754052, -0.0002033829, -316726.72, -64193.723, 0.0, 10.000002, 9.902384 
1.5750001e+3, 2.841256e+2, -230253.48, -318081.22, 0.0013160895, 0.0000006733447, 0.0002291002, -230253.48, -74684.5, 0.0, 10.000002, 9.885438 
1.5750001e+3, 2.940121e+2, -130547.36, -217765.0, -0.007742459, 0.0000006660745, -0.0002532951, -130547.36, -71865.945, 0.0, 10.000002, 9.886216 
1.5750001e+3, 3.0392656e+2, -40803.36, -84750.16, 0.0011951794, 0.0000006639521, 0.00017317451, -40803.36, -40803.36, 0.0, 10.000002, 9.942172 
1.5750001e+3, 3.138706e+2, -39725.355, -82511.21, -0.0061353073, 0.00000066951526, -0.00005511844, -39725.355, -39725.355, 0.0, 10.000002, 9.943684 
1.5850002e+3, 1.24993354e+2, -1719943.5, -1724224.5, 0.009037699, 0.0000007496525, 0.000017766526, -1719943.5, -4878.3843, 0.0, 10.000002, 9.994326 
1.5850002e+3, 1.3498761e+2, -1622563.0, -1627434.8, -0.005522248, 0.0000007389761, -0.00006812014, -1622563.0, -5441.627, 0.0, 10.000002, 9.993544 
1.5850002e+3, 1.4497514e+2, -1534461.6, -1548146.1, 0.0059269294, 0.00000073203023, 0.000071003364, -1534461.6, -15218.142, 0.0, 10.000002, 9.981863 
1.5850002e+3, 1.5495703e+2, -1436734.0, -1450821.8, -0.0039387965, 0.0000007288025, -0.000056814144, -1436734.0, -15312.981, 0.0, 10.000002, 9.981332 
1.5850002e+3, 1.6493228e+2, -1348683.1, -1371952.1, 0.005449991, 0.0000007254391, 0.000047529586, -1348683.1, -25019.469, 0.0, 10.000002, 9.969247 
1.5850002e+3, 1.7490156e+2, -1250725.1, -1274310.0, -0.0062516443, 0.00000072193535, -0.000073683426, -1250725.1, -24760.469, 0.0, 10.000002, 9.968834 
1.5850002e+3, 1.8486422e+2, -1162644.1, -1195720.0, 0.0050752894, 0.0000007176379, 0.00006627472, -1162644.1, -34313.523, 0.0, 10.000002, 9.956394 
1.5850002e+3, 1.9482066e+2, -1064494.4, -1097832.9, -0.0056698327, 0.0000007125096, -0.000057520836, -1064494.4, -33736.88, 0.0, 10.000002, 9.956051 
1.5850002e+3, 2.0477043e+2, -976330.44, -1019434.9, 0.0029749025, 0.0000007088173, 0.000068207, -976330.44, -43080.625, 0.0, 10.000002, 9.94329 
1.5850002e+3, 2.1471375e+2, -878043.44, -921409.75, -0.007999024, 0.0000007066808, -0.00012671883, -878043.44, -42238.223, 0.0, 10.000002, 9.942948 
1.5850002e+3, 2.2465037e+2, -789757.4, -843144.75, 0.0031329498, 0.0000007038735, 0.000120977405, -789757.4, -51331.12, 0.0, 10.000002, 9.929907 
1.5850002e+3, 2.3458035e+2, -691323.9, -744966.3, -0.0065502333, 0.00000070030717, -0.00008872052, -691323.9, -50211.37, 0.0, 10.000002, 9.929576 
1.5850002e+3, 2.445034e+2, -602999.8, -667018.7, 0.0019109626, 0.000000696883, 0.00007480113, -602999.8, -59132.973, 0.0, 10.000002, 9.916135 
1.5850002e+3, 2.5441962e+2, -504247.2, -568343.2, -0.008515883, 0.000000693628, -0.00010665641, -504247.2, -57559.637, 0.0, 10.000002, 9.916035 
1.5850002e+3, 2.643288e+2, -416011.78, -490987.78, 0.0023248056, 0.0000006923145, 0.0001406646, -416011.78, -66434.11, 0.0, 10.000002, 9.901963 
1.5850002e+3, 2.742313e+2, -316726.56, -391374.7, -0.0065578534, 0.0000006934719, -0.00020338102, -316726.56, -64193.57, 0.0, 10.000002, 9.902384 
1.5850002e+3, 2.841256e+2, -230253.33, -318081.2, 0.0036993476, 0.00000069123547, 0.00022910193, -230253.33, -74684.35, 0.0, 10.000002, 9.885438 
1.5850002e+3, 2.940121e+2, -130547.21, -217764.95, -0.0045192735, 0.00000068434224, -0.0002532935, -130547.21, -71865.8, 0.0, 10.000002, 9.886216 
1.5850002e+3, 3.0392656e+2, -40803.215, -84750.12, 0.0047338544, 0.0000006822885, 0.00017317594, -40803.215, -40803.215, 0.0, 10.000002, 9.942172 
1.5850002e+3, 3.138706e+2, -39725.203, -82511.164, -0.003992055, 0.00000068745817, -0.000055117333, -39725.203, -39725.203, 0.0, 10.000002, 9.943683 
1.5950002e+3, 1.24993354e+2, -1719943.5, -1724224.5, 0.0022241743, 0.0000007727524, 0.000017774659, -1719943.5, -4878.423, 0.0, 10.000002, 9.994326 
1.5950002e+3, 1.3498761e+2, -1622563.1, -1627434.8, -0.012334066, 0.000000756672, -0.00006811543, -1622563.1, -5441.664, 0.0, 10.000002, 9.993544 
1.5950002e+3, 1.4497514e+2, -1534461.8, -1548146.1, 0.0010456678, 0.00000074867523, 0.000071001334, -1534461.8, -15218.168, 0.0, 10.000002, 9.981863 
1.5950002e+3, 1.5495703e+2, -1436734.0, -1450821.9, -0.008818099, 0.0000007487717, -0.000056810084, -1436734.0, -15313.008, 0.0, 10.000002, 9.981332 
1.5950002e+3, 1.6493228e+2, -1348683.1, -1371952.3, 0.0005301649, 0.00000074618134, 0.00004753686, -1348683.1, -25019.498, 0.0, 10.000002, 9.969247 
1.5950002e+3, 1.7490156e+2, -1250725.1, -1274310.0, -0.011172863, 0.00000074084306, -0.000073675874, -1250725.1, -24760.498, 0.0, 10.000002, 9.968833 
1.5950002e+3, 1.8486422e+2, -1162644.1, -1195720.0, 0.0005465707, 0.000000735933, 0.000066278306, -1162644.1, -34313.55, 0.0, 10.000002, 9.956394 
1.5950002e+3, 1.9482066e+2, -1064494.4, -1097832.9, -0.010194705, 0.0000007314714, -0.000057525656, -1064494.4, -33736.902, 0.0, 10.000002, 9.956051 
1.5950002e+3, 2.0477043e+2, -976330.5, -1019434.94, -0.00014233314, 0.00000072812196, 0.00006820575, -976330.5, -43080.652, 0.0, 10.000002, 9.94329 
1.5950002e+3, 2.1471375e+2, -878043.5, -921409.8, -0.011087789, 0.00000072597544, -0.00012670355, -878043.5, -42238.25, 0.0, 10.000002, 9.942948 
1.5950002e+3, 2.2465037e+2, -789757.4, -843144.75, -0.00085515715, 0.00000072294125, 0.000120994984, -789757.4, -51331.145, 0.0, 10.000002, 9.929907 
1.5950002e+3, 2.3458035e+2, -691323.9, -744966.4, -0.010568092, 0.00000071890236, -0.00008871673, -691323.9, -50211.395, 0.0, 10.000002, 9.929576 
1.5950002e+3, 2.445034e+2, -602999.9, -667018.75, 0.0000019506106, 0.0000007153791, 0.00007479957, -602999.9, -59132.996, 0.0, 10.000002, 9.916135 
1.5950002e+3, 2.5441962e+2, -504247.2, -568343.25, -0.010323502, 0.00000071247456, -0.000106653184, -504247.2, -57559.66, 0.0, 10.000002, 9.916035 
1.5950002e+3, 2.643288e+2, -416011.8, -490987.84, 0.0000099715735, 0.0000007113478, 0.0001406702, -416011.8, -66434.13, 0.0, 10.000002, 9.901963 
1.5950002e+3, 2.742313e+2, -316726.6, -391374.72, -0.008906153, 0.00000071248263, -0.00020337611, -316726.6, -64193.59, 0.0, 10.000002, 9.902384 
1.5950002e+3, 2.841256e+2, -230253.34, -318081.22, 0.0019940787, 0.00000070986283, 0.00022910534, -230253.34, -74684.37, 0.0, 10.000002, 9.885438 
1.5950002e+3, 2.940121e+2, -130547.23, -217765.0, -0.006166022, 0.00000070209325, -0.00025329264, -130547.23, -71865.82, 0.0, 10.000002, 9.886216 
1.5950002e+3, 3.0392656e+2, -40803.234, -84750.16, 0.0044511887, 0.0000007001695, 0.00017317457, -40803.234, -40803.234, 0.0, 10.000002, 9.942172 
1.5950002e+3, 3.138706e+2, -39725.223, -82511.21, -0.0041137342, 0.0000007069687, -0.00005512037, -39725.223, -39725.223, 0.0, 10.000002, 9.943683 
1.605e+3, 1.24993354e+2, -1719943.4, -1724224.5, 0.007931369, 0.00000079203994, 0.000017780047, -1719943.4, -4878.2417, 0.0, 10.000003, 9.994326 
1.605e+3, 1.3498761e+2, -1622562.9, -1627434.8, -0.0024514578, 0.00000077790116, -0.00006810686, -1622562.9, -5441.482, 0.0, 10.000003, 9.993544 
1.605e+3, 1.4497514e+2, -1534461.5, -1548146.1, 0.012151483, 0.0000007698174, 0.00007100536, -1534461.5, -15217.986, 0.0, 10.000003, 9.981863 
1.605e+3, 1.5495703e+2, -1436733.9, -1450821.8, -0.0017821798, 0.0000007677775, -0.000056805125, -1436733.9, -15312.832, 0.0, 10.000003, 9.981332 
1.605e+3, 1.6493228e+2, -1348682.9, -1371952.1, 0.006315385, 0.0000007648688, 0.000047541944, -1348682.9, -25019.324, 0.0, 10.000002, 9.969247 
1.605e+3, 1.7490156e+2, -1250724.9, -1274310.0, -0.0050095986, 0.000000761068, -0.0000736715, -1250724.9, -24760.324, 0.0, 10.000002, 9.968833 
1.605e+3, 1.8486422e+2, -1162644.0, -1195719.9, 0.006720333, 0.000000756377, 0.00006628228, -1162644.0, -34313.38, 0.0, 10.000002, 9.956394 
1.605e+3, 1.9482066e+2, -1064494.3, -1097832.8, -0.0052174954, 0.00000075075434, -0.000057521753, -1064494.3, -33736.73, 0.0, 10.000002, 9.956051 
1.605e+3, 2.0477043e+2, -976330.3, -1019434.9, 0.0051345937, 0.0000007471095, 0.000068209454, -976330.3, -43080.48, 0.0, 10.000002, 9.94329 
1.605e+3, 2.1471375e+2, -878043.3, -921409.75, -0.0054232306, 0.00000074560484, -0.00012670018, -878043.3, -42238.082, 0.0, 10.000002, 9.942948 
1.605e+3, 2.246504e+2, -789757.2, -843144.75, 0.0045911823, 0.0000007426803, 0.000120998106, -789757.2, -51330.98, 0.0, 10.000002, 9.929907 
1.605e+3, 2.3458035e+2, -691323.75, -744966.3, -0.0069789183, 0.00000073814834, -0.000088713794, -691323.75, -50211.223, 0.0, 10.000002, 9.929576 
1.605e+3, 2.445034e+2, -602999.7, -667018.7, 0.0034160714, 0.00000073450826, 0.00007480228, -602999.7, -59132.824, 0.0, 10.000002, 9.916135 
1.605e+3, 2.5441962e+2, -504247.03, -568343.2, -0.006581051, 0.00000073193775, -0.00010665078, -504247.03, -57559.5, 0.0, 10.000002, 9.916035 
1.605e+3, 2.643288e+2, -416011.63, -490987.78, 0.0036386636, 0.00000073073863, 0.00014067242, -416011.63, -66433.98, 0.0, 10.000002, 9.901963 
1.605e+3, 2.742313e+2, -316726.44, -391374.7, -0.006738095, 0.0000007312821, -0.00020337394, -316726.44, -64193.43, 0.0, 10.000002, 9.902384 
1.605e+3, 2.841256e+2, -230253.19, -318081.2, 0.0031619847, 0.0000007286439, 0.00022910729, -230253.19, -74684.21, 0.0, 10.000002, 9.885438 
1.605e+3, 2.940121e+2, -130547.06, -217764.95, -0.0069713388, 0.0000007216426, -0.00025329113, -130547.06, -71865.66, 0.0, 10.000002, 9.886216 
1.605e+3, 3.0392656e+2, -40803.08, -84750.11, 0.0029442848, 0.00000071972056, 0.00017317568, -40803.08, -40803.08, 0.0, 10.000002, 9.942172 
1.605e+3, 3.138706e+2, -39725.07, -82511.17, -0.005522477, 0.0000007253762, -0.000055119563, -39725.07, -39725.07, 0.0, 10.000002, 9.943683 
1.615e+3, 1.24993354e+2, -1719943.4, -1724224.5, 0.0015470864, 0.00000080751585, 0.000017782691, -1719943.4, -4878.2705, 0.0, 10.000003, 9.994326 
1.615e+3, 1.3498761e+2, -1622562.9, -1627434.8, -0.008834394, 0.0000008026636, -0.00006809444, -1622562.9, -5441.5103, 0.0, 10.000003, 9.993544 
1.615e+3, 1.4497514e+2, -1534461.5, -1548146.1, 0.0060720593, 0.0000007954565, 0.000071015435, -1534461.5, -15218.022, 0.0, 10.000003, 9.981863 
1.615e+3, 1.5495703e+2, -1436733.9, -1450821.9, -0.007862357, 0.00000078581985, -0.000056799265, -1436733.9, -15312.867, 0.0, 10.000003, 9.981332 
1.615e+3, 1.6493228e+2, -1348682.9, -1371952.3, 0.0014649518, 0.00000078150134, 0.000047544832, -1348682.9, -25019.354, 0.0, 10.000002, 9.969247 
1.615e+3, 1.7490156e+2, -1250725.0, -1274310.0, -0.009854281, 0.0000007826101, -0.00007367031, -1250725.0, -24760.352, 0.0, 10.000002, 9.968833 
1.615e+3, 1.8486422e+2, -1162644.0, -1195720.0, 0.0022383034, 0.00000077896976, 0.00006628665, -1162644.0, -34313.406, 0.0, 10.000002, 9.956394 
1.615e+3, 1.9482066e+2, -1064494.3, -1097832.9, -0.009696075, 0.0000007703582, -0.000057509125, -1064494.3, -33736.758, 0.0, 10.000002, 9.956051 
1.615e+3, 2.0477043e+2, -976330.3, -1019434.9, 0.0006926923, 0.0000007657796, 0.00006821813, -976330.3, -43080.504, 0.0, 10.000002, 9.94329 
1.615e+3, 2.1471375e+2, -878043.3, -921409.75, -0.009865036, 0.0000007655689, -0.00012670872, -878043.3, -42238.11, 0.0, 10.000002, 9.942948 
1.615e+3, 2.246504e+2, -789757.25, -843144.75, 0.0019217064, 0.0000007630906, 0.000120986755, -789757.25, -51331.008, 0.0, 10.000002, 9.929907 
1.615e+3, 2.3458035e+2, -691323.75, -744966.4, -0.009590622, 0.00000075804496, -0.000088711684, -691323.75, -50211.25, 0.0, 10.000002, 9.929576 
1.615e+3, 2.445034e+2, -602999.7, -667018.7, 0.00008366845, 0.00000075427033, 0.00007480926, -602999.7, -59132.848, 0.0, 10.000002, 9.916135 
1.615e+3, 2.5441962e+2, -504247.06, -568343.25, -0.009947939, 0.00000075201746, -0.000106649204, -504247.06, -57559.523, 0.0, 10.000002, 9.916035 
1.615e+3, 2.643288e+2, -416011.66, -490987.84, 0.0014877568, 0.0000007504867, 0.00014067124, -416011.66, -66434.0, 0.0, 10.000002, 9.901963 
1.615e+3, 2.742313e+2, -316726.47, -391374.72, -0.00880732, 0.00000074987014, -0.00020337451, -316726.47, -64193.453, 0.0, 10.000002, 9.902384 
1.615e+3, 2.841256e+2, -230253.2, -318081.22, 0.0018643489, 0.0000007475786, 0.00022910778, -230253.2, -74684.234, 0.0, 10.000002, 9.885438 
1.615e+3, 2.940121e+2, -130547.086, -217765.0, -0.008198972, 0.0000007429903, -0.00025328898, -130547.086, -71865.68, 0.0, 10.000002, 9.886216 
1.615e+3, 3.0392656e+2, -40803.098, -84750.16, 0.0013427017, 0.0000007409415, 0.00017317926, -40803.098, -40803.098, 0.0, 10.000002, 9.942172 
1.615e+3, 3.138706e+2, -39725.094, -82511.21, -0.0071672206, 0.0000007426807, -0.000055114913, -39725.094, -39725.094, 0.0, 10.000002, 9.943683 
1.6250001e+3, 1.24993354e+2, -1719943.1, -1724224.4, 0.009669814, 0.00000082796447, 0.000017788254, -1719943.1, -4878.081, 0.0, 10.000003, 9.994326 
1.6250001e+3, 1.3498761e+2, -1622562.8, -1627434.6, -0.0054911883, 0.00000082414766, -0.00006808806, -1622562.8, -5441.3184, 0.0, 10.000003, 9.993544 
1.6250001e+3, 1.4497514e+2, -1534461.4, -1548146.1, 0.007608795, 0.00000081727137, 0.000071019145, -1534461.4, -15217.832, 0.0, 10.000003, 9.981863 
1.6250001e+3, 1.5495703e+2, -1436733.8, -1450821.8, -0.0041567516, 0.00000080724413, -0.00005679429, -1436733.8, -15312.681, 0.0, 10.000003, 9.981332 
1.6250001e+3, 1.6493228e+2, -1348682.8, -1371952.1, 0.0071579465, 0.0000008024762, 0.00004754991, -1348682.8, -25019.168, 0.0, 10.000003, 9.969247 
1.6250001e+3, 1.7490156e+2, -1250724.8, -1274310.0, -0.005881617, 0.0000008030763, -0.000073666306, -1250724.8, -24760.168, 0.0, 10.000003, 9.968833 
1.6250001e+3, 1.8486422e+2, -1162643.8, -1195719.9, 0.005200702, 0.00000079928543, 0.000066290275, -1162643.8, -34313.223, 0.0, 10.000003, 9.956394 
1.6250001e+3, 1.9482066e+2, -1064494.1, -1097832.8, -0.006461881, 0.0000007908975, -0.00005750514, -1064494.1, -33736.582, 0.0, 10.000003, 9.956051 
1.6250001e+3, 2.0477043e+2, -976330.1, -1019434.9, 0.004357376, 0.00000078646013, 0.00006822197, -976330.1, -43080.33, 0.0, 10.000003, 9.943289 
1.6250001e+3, 2.1471375e+2, -878043.1, -921409.75, -0.008363758, 0.00000078630194, -0.00012670553, -878043.1, -42237.926, 0.0, 10.000003, 9.942948 
1.6250001e+3, 2.246504e+2, -789757.06, -843144.75, 0.0027156633, 0.000000783618, 0.00012098961, -789757.06, -51330.824, 0.0, 10.000003, 9.929907 
1.6250001e+3, 2.3458035e+2, -691323.56, -744966.3, -0.007802452, 0.0000007780741, -0.000088708744, -691323.56, -50211.08, 0.0, 10.000003, 9.929575 
1.6250001e+3, 2.445034e+2, -602999.5, -667018.7, 0.0029239152, 0.00000077421686, 0.000074812095, -602999.5, -59132.68, 0.0, 10.000003, 9.916135 
1.6250001e+3, 2.5441962e+2, -504246.88, -568343.2, -0.008333786, 0.00000077237706, -0.0001066467, -504246.88, -57559.348, 0.0, 10.000003, 9.916035 
1.6250001e+3, 2.643288e+2, -416011.5, -490987.78, 0.0026673928, 0.00000077090147, 0.00014067348, -416011.5, -66433.82, 0.0, 10.000003, 9.901963 
1.6250001e+3, 2.742313e+2, -316726.28, -391374.7, -0.0075028893, 0.00000076988334, -0.00020337247, -316726.28, -64193.28, 0.0, 10.000003, 9.902384 
1.6250001e+3, 2.841256e+2, -230253.05, -318081.2, 0.004225188, 0.0000007674333, 0.0002291097, -230253.05, -74684.06, 0.0, 10.000003, 9.885438 
1.6250001e+3, 2.940121e+2, -130546.92, -217764.95, -0.0049315942, 0.00000076302143, -0.00025328714, -130546.92, -71865.516, 0.0, 10.000002, 9.886216 
1.6250001e+3, 3.0392656e+2, -40802.934, -84750.11, 0.005487857, 0.0000007610444, 0.00017318087, -40802.934, -40802.934, 0.0, 10.000002, 9.942172 
1.6250001e+3, 3.138706e+2, -39724.92, -82511.164, -0.0038686409, 0.00000076269765, -0.00005511379, -39724.92, -39724.92, 0.0, 10.000002, 9.943683 
1.6350001e+3, 1.2499336e+2, -1719943.3, -1724224.5, 0.0039987094, 0.00000085338553, 0.000017796727, -1719943.3, -4878.121, 0.0, 10.000003, 9.994326 
1.6350001e+3, 1.3498761e+2, -1622562.8, -1627434.8, -0.01116103, 0.00000084235353, -0.00006808772, -1622562.8, -5441.358, 0.0, 10.000003, 9.993544 
1.6350001e+3, 1.4497516e+2, -1534461.4, -1548146.1, 0.00062216155, 0.000000835262, 0.00007101649, -1534461.4, -15217.863, 0.0, 10.000003, 9.981863 
1.6350001e+3, 1.5495703e+2, -1436733.8, -1450821.8, -0.011146362, 0.0000008320502, -0.0000567902, -1436733.8, -15312.712, 0.0, 10.000003, 9.981332 
1.6350001e+3, 1.6493228e+2, -1348682.8, -1371952.3, 0.0023785557, 0.00000082779314, 0.00004755718, -1348682.8, -25019.201, 0.0, 10.000003, 9.969247 
1.6350001e+3, 1.7490156e+2, -1250724.8, -1274310.0, -0.010649902, 0.00000082246675, -0.00007365951, -1250724.8, -24760.2, 0.0, 10.000003, 9.968833 
1.6350001e+3, 1.8486422e+2, -1162643.9, -1195720.0, -0.00049160194, 0.0000008173238, 0.00006629315, -1162643.9, -34313.254, 0.0, 10.000003, 9.956394 
1.6350001e+3, 1.9482066e+2, -1064494.1, -1097832.9, -0.012165592, 0.00000081237215, -0.000057509806, -1064494.1, -33736.61, 0.0, 10.000003, 9.956051 
1.6350001e+3, 2.0477043e+2, -976330.2, -1019434.9, 0.0012515809, 0.000000809151, 0.000068221, -976330.2, -43080.36, 0.0, 10.000003, 9.943289 
1.6350001e+3, 2.1471375e+2, -878043.2, -921409.75, -0.011416223, 0.0000008078038, -0.00012669066, -878043.2, -42237.957, 0.0, 10.000003, 9.942948 
1.6350001e+3, 2.246504e+2, -789757.06, -843144.75, -0.0021519074, 0.00000080426247, 0.00012100668, -789757.06, -51330.85, 0.0, 10.000003, 9.929907 
1.6350001e+3, 2.3458035e+2, -691323.6, -744966.4, -0.012729755, 0.00000079823565, -0.00008870497, -691323.6, -50211.105, 0.0, 10.000003, 9.929575 
1.6350001e+3, 2.445034e+2, -602999.56, -667018.7, 0.00086780795, 0.0000007943477, 0.00007481079, -602999.56, -59132.707, 0.0, 10.000003, 9.916135 
1.6350001e+3, 2.5441962e+2, -504246.9, -568343.25, -0.010252084, 0.00000079301645, -0.000106643274, -504246.9, -57559.375, 0.0, 10.000003, 9.916035 
1.6350001e+3, 2.643288e+2, -416011.5, -490987.8, -0.000019176721, 0.0000007919828, 0.00014067913, -416011.5, -66433.84, 0.0, 10.000003, 9.901963 
1.6350001e+3, 2.742313e+2, -316726.3, -391374.72, -0.010240877, 0.0000007913217, -0.0002033678, -316726.3, -64193.305, 0.0, 10.000003, 9.902384 
1.6350001e+3, 2.841256e+2, -230253.06, -318081.22, 0.001953688, 0.0000007882079, 0.00022911304, -230253.06, -74684.086, 0.0, 10.000003, 9.885437 
1.6350001e+3, 2.940121e+2, -130546.945, -217765.0, -0.007160668, 0.00000078173593, -0.00025328557, -130546.945, -71865.53, 0.0, 10.000002, 9.886216 
1.6350001e+3, 3.0392656e+2, -40802.957, -84750.16, 0.005248579, 0.0000007800294, 0.00017318054, -40802.957, -40802.957, 0.0, 10.000002, 9.942172 
1.6350001e+3, 3.138706e+2, -39724.945, -82511.21, -0.003873694, 0.00000078542706, -0.000055116187, -39724.945, -39724.945, 0.0, 10.000002, 9.943683 
1.6450001e+3, 1.2499336e+2, -1719943.0, -1724224.4, 0.01035347, 0.0000008754738, 0.000017801756, -1719943.0, -4877.9175, 0.0, 10.000003, 9.994326 
1.6450001e+3, 1.3498761e+2, -1622562.5, -1627434.6, -0.0017168844, 0.00000086444885, -0.00006808234, -1622562.5, -5441.159, 0.0, 10.000003, 9.993544 
1.6450001e+3, 1.4497516e+2, -1534461.1, -1548146.0, 0.009708262, 0.0000008575009, 0.0000710212, -1534461.1, -15217.666, 0.0, 10.000003, 9.981863 
1.6450001e+3, 1.5495703e+2, -1436733.5, -1450821.8, -0.0048118713, 0.0000008545568, -0.000056785386, -1436733.5, -15312.513, 0.0, 10.000003, 9.981332 
1.6450001e+3, 1.6493228e+2, -1348682.6, -1371952.1, 0.008735461, 0.0000008499586, 0.000047562087, -1348682.6, -25019.004, 0.0, 10.000003, 9.969247 
1.6450001e+3, 1.7490156e+2, -1250724.6, -1274310.0, -0.0039559323, 0.0000008436697, -0.00007365451, -1250724.6, -24760.01, 0.0, 10.000003, 9.968833 
1.6450001e+3, 1.8486422e+2, -1162643.6, -1195719.9, 0.0060381377, 0.0000008385615, 0.00006629777, -1162643.6, -34313.063, 0.0, 10.000003, 9.956394 
1.6450001e+3, 1.9482066e+2, -1064493.9, -1097832.8, -0.0072894203, 0.0000008346891, -0.000057506066, -1064493.9, -33736.418, 0.0, 10.000003, 9.956051 
1.6450001e+3, 2.0477043e+2, -976330.0, -1019434.8, 0.0067974194, 0.0000008312813, 0.0000682245, -976330.0, -43080.168, 0.0, 10.000003, 9.943289 
1.6450001e+3, 2.1471375e+2, -878043.0, -921409.75, -0.004356905, 0.0000008283758, -0.00012668672, -878043.0, -42237.777, 0.0, 10.000003, 9.942948 
1.6450001e+3, 2.246504e+2, -789756.9, -843144.7, 0.0050591747, 0.00000082471234, 0.00012101063, -789756.9, -51330.67, 0.0, 10.000003, 9.929907 
1.6450001e+3, 2.3458035e+2, -691323.44, -744966.3, -0.007979337, 0.000000820189, -0.00008870152, -691323.44, -50210.914, 0.0, 10.000003, 9.929575 
1.6450001e+3, 2.445034e+2, -602999.4, -667018.6, 0.004875281, 0.0000008166158, 0.00007481374, -602999.4, -59132.52, 0.0, 10.000003, 9.916135 
1.6450001e+3, 2.5441962e+2, -504246.72, -568343.2, -0.006395755, 0.0000008141775, -0.00010664084, -504246.72, -57559.195, 0.0, 10.000003, 9.916035 
1.6450001e+3, 2.643288e+2, -416011.34, -490987.78, 0.003902306, 0.0000008125257, 0.00014068135, -416011.34, -66433.67, 0.0, 10.000003, 9.901963 
1.6450001e+3, 2.742313e+2, -316726.13, -391374.7, -0.007306672, 0.00000081187227, -0.00020336542, -316726.13, -64193.13, 0.0, 10.000003, 9.902384 
1.6450001e+3, 2.841256e+2, -230252.88, -318081.16, 0.0038458332, 0.00000080917374, 0.00022911523, -230252.88, -74683.91, 0.0, 10.000003, 9.885437 
1.6450001e+3, 2.940121e+2, -130546.766, -217764.95, -0.007456164, 0.0000008036721, -0.00025328403, -130546.766, -71865.35, 0.0, 10.000003, 9.886216 
1.6450001e+3, 3.0392656e+2, -40802.78, -84750.11, 0.004097297, 0.0000008018459, 0.00017318157, -40802.78, -40802.78, 0.0, 10.000003, 9.942172 
1.6450001e+3, 3.138706e+2, -39724.777, -82511.164, -0.0057495427, 0.00000080550114, -0.000055115426, -39724.777, -39724.777, 0.0, 10.000003, 9.943683 
1.6550002e+3, 1.2499336e+2, -1719943.0, -1724224.5, 0.003664234, 0.0000008942293, 0.00001780334, -1719943.0, -4877.951, 0.0, 10.000003, 9.994326 
1.6550002e+3, 1.3498761e+2, -1622562.6, -1627434.8, -0.008405551, 0.0000008904334, -0.00006807193, -1622562.6, -5441.1924, 0.0, 10.000003, 9.993544 
1.6550002e+3, 1.4497516e+2, -1534461.3, -1548146.1, 0.0031887572, 0.0000008839879, 0.00007103327, -1534461.3, -15217.704, 0.0, 10.000003, 9.981863 
1.6550002e+3, 1.5495704e+2, -1436733.5, -1450821.8, -0.011331457, 0.0000008747641, -0.000056779856, -1436733.5, -15312.55, 0.0, 10.000003, 9.981332 
1.6550002e+3, 1.6493228e+2, -1348682.6, -1371952.3, 0.0024463139, 0.0000008689727, 0.00004756463, -1348682.6, -25019.037, 0.0, 10.000003, 9.969247 
1.6550002e+3, 1.7490156e+2, -1250724.6, -1274310.0, -0.010244397, 0.0000008666849, -0.00007365132, -1250724.6, -24760.043, 0.0, 10.000003, 9.968833 
1.6550002e+3, 1.8486422e+2, -1162643.6, -1195720.0, 0.0015672201, 0.00000086299843, 0.000066304114, -1162643.6, -34313.098, 0.0, 10.000003, 9.956394 
1.6550002e+3, 1.9482066e+2, -1064494.0, -1097832.9, -0.011739642, 0.0000008578481, -0.000057493926, -1064494.0, -33736.45, 0.0, 10.000003, 9.956051 
1.6550002e+3, 2.0477043e+2, -976330.0, -1019434.9, 0.0013296676, 0.00000085285075, 0.000068232475, -976330.0, -43080.195, 0.0, 10.000003, 9.943289 
1.6550002e+3, 2.1471375e+2, -878043.0, -921409.75, -0.009846167, 0.0000008480177, -0.00012669369, -878043.0, -42237.8, 0.0, 10.000003, 9.942948 
1.6550002e+3, 2.246504e+2, -789756.94, -843144.75, 0.002357804, 0.0000008449675, 0.000121001474, -789756.94, -51330.703, 0.0, 10.000003, 9.929907 
1.6550002e+3, 2.3458035e+2, -691323.44, -744966.4, -0.010589852, 0.00000084393395, -0.000088698405, -691323.44, -50210.945, 0.0, 10.000003, 9.929575 
1.6550002e+3, 2.445034e+2, -602999.4, -667018.7, 0.0007342582, 0.00000084102084, 0.00007482093, -602999.4, -59132.543, 0.0, 10.000003, 9.916135 
1.6550002e+3, 2.5441962e+2, -504246.75, -568343.25, -0.010610441, 0.0000008358601, -0.000106639374, -504246.75, -57559.223, 0.0, 10.000003, 9.916035 
1.6550002e+3, 2.643288e+2, -416011.34, -490987.8, 0.0016540572, 0.0000008325301, 0.00014068016, -416011.34, -66433.695, 0.0, 10.000003, 9.901963 
1.6550002e+3, 2.742313e+2, -316726.16, -391374.72, -0.009422995, 0.00000083153486, -0.00020336531, -316726.16, -64193.152, 0.0, 10.000003, 9.902384 
1.6550002e+3, 2.841256e+2, -230252.9, -318081.22, 0.0022184094, 0.00000083033063, 0.0002291163, -230252.9, -74683.93, 0.0, 10.000003, 9.885437 
1.6550002e+3, 2.940121e+2, -130546.79, -217765.0, -0.009039163, 0.0000008288297, -0.0002532825, -130546.79, -71865.38, 0.0, 10.000003, 9.886216 
1.6550002e+3, 3.0392656e+2, -40802.805, -84750.16, 0.0021521393, 0.00000082649393, 0.000173184, -40802.805, -40802.805, 0.0, 10.000003, 9.942171 
1.6550002e+3, 3.138706e+2, -39724.8, -82511.21, -0.007736667, 0.0000008229199, -0.00005511151, -39724.8, -39724.8, 0.0, 10.000003, 9.943683 
1.6650002e+3, 1.2499336e+2, -1719942.8, -1724224.4, 0.01171238, 0.00000091936175, 0.000017809698, -1719942.8, -4877.737, 0.0, 10.000003, 9.994326 
1.6650002e+3, 1.3498761e+2, -1622562.4, -1627434.6, -0.004319703, 0.0000009127694, -0.00006806786, -1622562.4, -5440.982, 0.0, 10.000003, 9.993544 
1.6650002e+3, 1.4497516e+2, -1534461.0, -1548146.0, 0.0064513534, 0.0000009056099, 0.0000710382, -1534461.0, -15217.495, 0.0, 10.000003, 9.981863 
1.6650002e+3, 1.5495704e+2, -1436733.4, -1450821.8, -0.006315245, 0.00000089775347, -0.00005677469, -1436733.4, -15312.345, 0.0, 10.000003, 9.981332 
1.6650002e+3, 1.6493228e+2, -1348682.4, -1371952.1, 0.008276222, 0.00000089240217, 0.0000475696, -1348682.4, -25018.832, 0.0, 10.000003, 9.969247 
1.6650002e+3, 1.7490157e+2, -1250724.4, -1274310.0, -0.0060315765, 0.00000088960843, -0.00007364699, -1250724.4, -24759.836, 0.0, 10.000003, 9.968833 
1.6650002e+3, 1.8486422e+2, -1162643.5, -1195719.9, 0.006086551, 0.00000088563604, 0.00006630827, -1162643.5, -34312.895, 0.0, 10.000003, 9.956394 
1.6650002e+3, 1.9482066e+2, -1064493.8, -1097832.8, -0.006695001, 0.00000088042964, -0.00005748948, -1064493.8, -33736.254, 0.0, 10.000003, 9.956051 
1.6650002e+3, 2.0477043e+2, -976329.8, -1019434.8, 0.005548111, 0.0000008754309, 0.00006823659, -976329.8, -43080.0, 0.0, 10.000003, 9.943289 
1.6650002e+3, 2.1471375e+2, -878042.8, -921409.7, -0.008998823, 0.0000008706555, -0.00012669056, -878042.8, -42237.6, 0.0, 10.000003, 9.942948 
1.6650002e+3, 2.246504e+2, -789756.7, -843144.7, 0.0029176376, 0.00000086745183, 0.00012100414, -789756.7, -51330.5, 0.0, 10.000003, 9.929907 
1.6650002e+3, 2.3458035e+2, -691323.25, -744966.3, -0.008478598, 0.00000086602626, -0.00008869559, -691323.25, -50210.758, 0.0, 10.000003, 9.929575 
1.6650002e+3, 2.445034e+2, -602999.2, -667018.6, 0.003768672, 0.00000086310547, 0.00007482381, -602999.2, -59132.36, 0.0, 10.000003, 9.916135 
1.6650002e+3, 2.5441962e+2, -504246.56, -568343.2, -0.008576107, 0.0000008583965, -0.00010663651, -504246.56, -57559.027, 0.0, 10.000003, 9.916035 
1.6650002e+3, 2.643288e+2, -416011.16, -490987.78, 0.0035527183, 0.0000008550336, 0.0001406828, -416011.16, -66433.5, 0.0, 10.000003, 9.901963 
1.6650002e+3, 2.742313e+2, -316725.97, -391374.66, -0.00799616, 0.0000008533875, -0.00020336319, -316725.97, -64192.965, 0.0, 10.000003, 9.902384 
1.6650002e+3, 2.841256e+2, -230252.72, -318081.16, 0.004436342, 0.00000085202373, 0.00022911814, -230252.72, -74683.74, 0.0, 10.000003, 9.885437 
1.6650002e+3, 2.940121e+2, -130546.61, -217764.95, -0.005766257, 0.00000085103824, -0.00025328062, -130546.61, -71865.195, 0.0, 10.000003, 9.886216 
1.6650002e+3, 3.0392656e+2, -40802.62, -84750.11, 0.0064941254, 0.00000084887466, 0.0001731858, -40802.62, -40802.62, 0.0, 10.000003, 9.942171 
1.6650002e+3, 3.138706e+2, -39724.613, -82511.16, -0.0034910252, 0.00000084495747, -0.00005510991, -39724.613, -39724.613, 0.0, 10.000003, 9.943683 
1.6750002e+3, 1.2499336e+2, -1719942.9, -1724224.5, 0.004287565, 0.0000009508708, 0.000017820827, -1719942.9, -4877.78, 0.0, 10.000003, 9.994326 
1.6750002e+3, 1.3498761e+2, -1622562.4, -1627434.8, -0.011744603, 0.0000009314569, -0.00006807011, -1622562.4, -5441.024, 0.0, 10.000003, 9.993544 
1.6750002e+3, 1.4497516e+2, -1534461.0, -1548146.1, -0.000602613, 0.000000922367, 0.00007103599, -1534461.0, -15217.53, 0.0, 10.000003, 9.981863 
1.6750002e+3, 1.5495704e+2, -1436733.4, -1450821.8, -0.013368737, 0.00000092352474, -0.00005676989, -1436733.4, -15312.378, 0.0, 10.000003, 9.981332 
1.6750002e+3, 1.649323e+2, -1348682.4, -1371952.3, 0.0023920839, 0.000000920247, 0.000047576992, -1348682.4, -25018.87, 0.0, 10.000003, 9.969247 
1.6750002e+3, 1.7490157e+2, -1250724.5, -1274310.0, -0.011909844, 0.00000091244027, -0.00007364152, -1250724.5, -24759.873, 0.0, 10.000003, 9.968833 
1.6750002e+3, 1.8486422e+2, -1162643.5, -1195720.0, 0.00011104642, 0.0000009064744, 0.00006631022, -1162643.5, -34312.926, 0.0, 10.000003, 9.956394 
1.6750002e+3, 1.9482066e+2, -1064493.8, -1097832.9, -0.01267202, 0.0000009024337, -0.000057492733, -1064493.8, -33736.285, 0.0, 10.000003, 9.956051 
1.6750002e+3, 2.0477043e+2, -976329.8, -1019434.9, 0.0015929203, 0.0000008990216, 0.00006823686, -976329.8, -43080.035, 0.0, 10.000003, 9.943289 
1.6750002e+3, 2.1471375e+2, -878042.9, -921409.75, -0.012912573, 0.00000089628907, -0.00012667733, -878042.9, -42237.637, 0.0, 10.000003, 9.942948 
1.6750002e+3, 2.246504e+2, -789756.75, -843144.75, -0.00221846, 0.00000089216536, 0.000121018624, -789756.75, -51330.527, 0.0, 10.000003, 9.929907 
1.6750002e+3, 2.3458035e+2, -691323.25, -744966.4, -0.013654865, 0.0000008864659, -0.00008869308, -691323.25, -50210.785, 0.0, 10.000003, 9.929575 
1.6750002e+3, 2.445034e+2, -602999.25, -667018.7, 0.0012036711, 0.0000008828697, 0.00007482239, -602999.25, -59132.387, 0.0, 10.000003, 9.916135 
1.6750002e+3, 2.5441962e+2, -504246.6, -568343.25, -0.011015726, 0.00000088178666, -0.00010663224, -504246.6, -57559.055, 0.0, 10.000003, 9.916035 
1.6750002e+3, 2.643288e+2, -416011.2, -490987.8, 0.00045373625, 0.00000088003617, 0.00014068926, -416011.2, -66433.53, 0.0, 10.000003, 9.901963 
1.6750002e+3, 2.742313e+2, -316726.0, -391374.72, -0.011139332, 0.0000008774302, -0.00020335904, -316726.0, -64192.992, 0.0, 10.000003, 9.902384 
1.6750002e+3, 2.841256e+2, -230252.75, -318081.22, 0.0021135043, 0.00000087425315, 0.00022912076, -230252.75, -74683.77, 0.0, 10.000003, 9.885437 
1.6750002e+3, 2.940121e+2, -130546.63, -217765.0, -0.008014991, 0.0000008702977, -0.00025327844, -130546.63, -71865.22, 0.0, 10.000003, 9.886216 
1.6750002e+3, 3.0392656e+2, -40802.645, -84750.16, 0.0058111884, 0.00000086898825, 0.00017318697, -40802.645, -40802.645, 0.0, 10.000003, 9.942171 
1.6750002e+3, 3.138706e+2, -39724.637, -82511.21, -0.0039898306, 0.0000008716137, -0.00005511062, -39724.637, -39724.637, 0.0, 10.000003, 9.943683 
1.685e+3, 1.2499336e+2, -1719942.6, -1724224.4, 0.012575798, 0.000000975916, 0.000017828728, -1719942.6, -4877.5503, 0.0, 10.000003, 9.994326 
1.685e+3, 1.3498761e+2, -1622562.1, -1627434.6, -0.0017324046, 0.0000009558023, -0.00006806423, -1622562.1, -5440.8057, 0.0, 10.000003, 9.993544 
1.685e+3, 1.4497516e+2, -1534460.8, -1548146.0, 0.010821155, 0.00000094633396, 0.00007104426, -1534460.8, -15217.313, 0.0, 10.000003, 9.981863 
1.685e+3, 1.5495704e+2, -1436733.1, -1450821.8, -0.0048873117, 0.00000094742313, -0.00005676408, -1436733.1, -15312.159, 0.0, 10.000003, 9.981332 
1.685e+3, 1.649323e+2, -1348682.3, -1371952.1, 0.009671879, 0.0000009441661, 0.00004758179, -1348682.3, -25018.65, 0.0, 10.000003, 9.969247 
1.685e+3, 1.7490157e+2, -1250724.3, -1274310.0, -0.0044506206, 0.00000093647145, -0.000073636234, -1250724.3, -24759.66, 0.0, 10.000003, 9.968833 
1.685e+3, 1.8486422e+2, -1162643.3, -1195719.9, 0.007518705, 0.0000009305351, 0.000066315326, -1162643.3, -34312.715, 0.0, 10.000003, 9.956394 
1.685e+3, 1.9482066e+2, -1064493.6, -1097832.8, -0.0075323926, 0.0000009264375, -0.00005748848, -1064493.6, -33736.07, 0.0, 10.000003, 9.956051 
1.685e+3, 2.0477043e+2, -976329.6, -1019434.8, 0.0073134997, 0.0000009227517, 0.000068240915, -976329.6, -43079.82, 0.0, 10.000003, 9.943289 
1.685e+3, 2.1471377e+2, -878042.6, -921409.7, -0.004587429, 0.00000091951136, -0.00012667276, -878042.6, -42237.434, 0.0, 10.000003, 9.942948 
1.685e+3, 2.246504e+2, -789756.56, -843144.7, 0.006826837, 0.0000009154014, 0.000121023084, -789756.56, -51330.33, 0.0, 10.000003, 9.929906 
1.685e+3, 2.3458035e+2, -691323.06, -744966.3, -0.007861626, 0.0000009103063, -0.00008868946, -691323.06, -50210.574, 0.0, 10.000003, 9.929575 
1.685e+3, 2.445034e+2, -602999.0, -667018.6, 0.00570004, 0.0000009067398, 0.0000748254, -602999.0, -59132.18, 0.0, 10.000003, 9.916135 
1.685e+3, 2.5441962e+2, -504246.38, -568343.2, -0.006843408, 0.0000009049994, -0.00010662956, -504246.38, -57558.855, 0.0, 10.000003, 9.916035 
1.685e+3, 2.643288e+2, -416011.0, -490987.75, 0.004722106, 0.0000009028905, 0.00014069173, -416011.0, -66433.336, 0.0, 10.000003, 9.901963 
1.685e+3, 2.742313e+2, -316725.78, -391374.66, -0.007591056, 0.0000009003081, -0.00020335658, -316725.78, -64192.793, 0.0, 10.000003, 9.902384 
1.685e+3, 2.841256e+2, -230252.55, -318081.16, 0.0050003515, 0.00000089746527, 0.00022912298, -230252.55, -74683.57, 0.0, 10.000003, 9.885437 
1.685e+3, 2.940121e+2, -130546.43, -217764.94, -0.0074532735, 0.00000089426715, -0.0002532768, -130546.43, -71865.02, 0.0, 10.000003, 9.886216 
1.685e+3, 3.0392656e+2, -40802.45, -84750.1, 0.004921943, 0.00000089285874, 0.00017318789, -40802.45, -40802.45, 0.0, 10.000003, 9.942171 
1.685e+3, 3.138706e+2, -39724.445, -82511.16, -0.006451902, 0.0000008941105, -0.000055110657, -39724.445, -39724.445, 0.0, 10.000003, 9.943683 
1.6950001e+3, 1.2499336e+2, -1719942.6, -1724224.5, 0.002766594, 0.0000009944977, 0.000017833403, -1719942.6, -4877.59, 0.0, 10.000003, 9.994326 
1.6950001e+3, 1.3498761e+2, -1622562.3, -1627434.8, -0.011542544, 0.0000009858054, -0.00006805021, -1622562.3, -5440.844, 0.0, 10.000003, 9.993544 
1.6950001e+3, 1.4497516e+2, -1534460.9, -1548146.1, 0.0045823967, 0.0000009775105, 0.00007106302, -1534460.9, -15217.3545, 0.0, 10.000003, 9.981863 
1.6950001e+3, 1.5495704e+2, -1436733.3, -1450821.8, -0.011120444, 0.0000009694488, -0.000056757264, -1436733.3, -15312.2, 0.0, 10.000003, 9.981332 
1.6950001e+3, 1.649323e+2, -1348682.3, -1371952.1, 0.0026020978, 0.0000009641598, 0.000047584002, -1348682.3, -25018.688, 0.0, 10.000003, 9.969247 
1.6950001e+3, 1.7490157e+2, -1250724.3, -1274310.0, -0.011525062, 0.000000961702, -0.00007363114, -1250724.3, -24759.697, 0.0, 10.000003, 9.968833 
1.6950001e+3, 1.8486422e+2, -1162643.3, -1195720.0, 0.002414001, 0.0000009578181, 0.00006632359, -1162643.3, -34312.754, 0.0, 10.000003, 9.956394 
1.6950001e+3, 1.9482066e+2, -1064493.6, -1097832.9, -0.0126145175, 0.0000009524409, -0.00005747673, -1064493.6, -33736.105, 0.0, 10.000003, 9.956051 
1.6950001e+3, 2.0477043e+2, -976329.6, -1019434.9, 0.0012029255, 0.00000094662136, 0.00006824876, -976329.6, -43079.85, 0.0, 10.000003, 9.943289 
1.6950001e+3, 2.1471377e+2, -878042.7, -921409.75, -0.0107195005, 0.00000094032237, -0.00012667682, -878042.7, -42237.46, 0.0, 10.000003, 9.942948 
1.6950001e+3, 2.246504e+2, -789756.56, -843144.75, 0.0036019585, 0.00000093716005, 0.00012101752, -789756.56, -51330.363, 0.0, 10.000003, 9.929906 
1.6950001e+3, 2.3458035e+2, -691323.06, -744966.4, -0.010991564, 0.0000009375473, -0.000088684734, -691323.06, -50210.61, 0.0, 10.000003, 9.929575 
1.6950001e+3, 2.445034e+2, -602999.06, -667018.7, 0.0012177818, 0.0000009347155, 0.00007483284, -602999.06, -59132.207, 0.0, 10.000003, 9.916135 
1.6950001e+3, 2.5441962e+2, -504246.4, -568343.25, -0.011390742, 0.0000009280347, -0.00010662848, -504246.4, -57558.887, 0.0, 10.000003, 9.916035 
1.6950001e+3, 2.643288e+2, -416011.03, -490987.8, 0.0020460924, 0.00000092359664, 0.00014069023, -416011.03, -66433.36, 0.0, 10.000003, 9.901963 
1.6950001e+3, 2.742313e+2, -316725.8, -391374.72, -0.010141568, 0.00000092202123, -0.00020335581, -316725.8, -64192.82, 0.0, 10.000003, 9.902384 
1.6950001e+3, 2.841256e+2, -230252.58, -318081.22, 0.0031664046, 0.00000092166005, 0.00022912475, -230252.58, -74683.6, 0.0, 10.000003, 9.885437 
1.6950001e+3, 2.940121e+2, -130546.46, -217765.0, -0.0092225, 0.0000009229464, -0.00025327574, -130546.46, -71865.05, 0.0, 10.000003, 9.886216 
1.6950001e+3, 3.0392656e+2, -40802.477, -84750.16, 0.0029089893, 0.00000092048595, 0.00017318853, -40802.477, -40802.477, 0.0, 10.000003, 9.942171 
1.6950001e+3, 3.138706e+2, -39724.473, -82511.21, -0.00849322, 0.0000009124479, -0.00005511001, -39724.473, -39724.473, 0.0, 10.000003, 9.943683 
1.7050001e+3, 1.2499336e+2, -1719942.4, -1724224.4, 0.012254677, 0.0000010187767, 0.000017841101, -1719942.4, -4877.364, 0.0, 10.000003, 9.994326 
1.7050001e+3, 1.3498761e+2, -1622562.0, -1627434.6, -0.0043923943, 0.0000010119729, -0.00006804601, -1622562.0, -5440.606, 0.0, 10.000003, 9.993544 
1.7050001e+3, 1.4497516e+2, -1534460.6, -1548146.0, 0.01134964, 0.0000010041546, 0.0000710715, -1534460.6, -15217.116, 0.0, 10.000003, 9.981863 
1.7050001e+3, 1.5495704e+2, -1436733.0, -1450821.8, -0.004297481, 0.0000009951366, -0.000056751498, -1436733.0, -15311.974, 0.0, 10.000003, 9.981332 
1.7050001e+3, 1.649323e+2, -1348682.0, -1371952.1, 0.0097642075, 0.0000009893633, 0.000047588495, -1348682.0, -25018.463, 0.0, 10.000003, 9.969247 
1.7050001e+3, 1.7490157e+2, -1250724.0, -1274310.0, -0.005998094, 0.0000009869034, -0.00007362644, -1250724.0, -24759.467, 0.0, 10.000003, 9.968833 
1.7050001e+3, 1.8486422e+2, -1162643.1, -1195719.9, 0.0079034865, 0.0000009828009, 0.00006632853, -1162643.1, -34312.523, 0.0, 10.000003, 9.956394 
1.7050001e+3, 1.9482066e+2, -1064493.4, -1097832.8, -0.0061134677, 0.000000976979, -0.000057471523, -1064493.4, -33735.89, 0.0, 10.000003, 9.956051 
1.7050001e+3, 2.0477043e+2, -976329.44, -1019434.8, 0.0069930474, 0.0000009713581, 0.00006825337, -976329.44, -43079.637, 0.0, 10.000003, 9.943289 
1.7050001e+3, 2.1471377e+2, -878042.44, -921409.7, -0.009616503, 0.0000009659543, -0.00012667375, -878042.44, -42237.24, 0.0, 10.000003, 9.942948 
1.7050001e+3, 2.246504e+2, -789756.4, -843144.7, 0.0037687495, 0.0000009625726, 0.000121020035, -789756.4, -51330.14, 0.0, 10.000003, 9.929906 
1.7050001e+3, 2.3458035e+2, -691322.9, -744966.25, -0.00881647, 0.0000009614785, -0.00008868167, -691322.9, -50210.4, 0.0, 10.000003, 9.929575 
1.7050001e+3, 2.445034e+2, -602998.8, -667018.6, 0.0047691283, 0.0000009583811, 0.00007483608, -602998.8, -59132.0, 0.0, 10.000003, 9.916135 
1.7050001e+3, 2.5441962e+2, -504246.2, -568343.2, -0.0089549655, 0.0000009528881, -0.00010662548, -504246.2, -57558.67, 0.0, 10.000003, 9.916035 
1.7050001e+3, 2.643288e+2, -416010.8, -490987.75, 0.0040183645, 0.00000094881756, 0.00014069278, -416010.8, -66433.15, 0.0, 10.000003, 9.901963 
1.7050001e+3, 2.742313e+2, -316725.6, -391374.66, -0.009073162, 0.0000009465622, -0.00020335402, -316725.6, -64192.61, 0.0, 10.000003, 9.902384 
1.7050001e+3, 2.841256e+2, -230252.36, -318081.16, 0.004973134, 0.00000094583015, 0.00022912613, -230252.36, -74683.39, 0.0, 10.000003, 9.885437 
1.7050001e+3, 2.940121e+2, -130546.25, -217764.94, -0.0065027582, 0.00000094717393, -0.0002532743, -130546.25, -71864.84, 0.0, 10.000003, 9.886215 
1.7050001e+3, 3.0392656e+2, -40802.273, -84750.1, 0.0067652063, 0.0000009447953, 0.00017319011, -40802.273, -40802.273, 0.0, 10.000003, 9.942171 
1.7050001e+3, 3.138706e+2, -39724.266, -82511.16, -0.004058266, 0.00000093687174, -0.000055108063, -39724.266, -39724.266, 0.0, 10.000003, 9.943683 
1.7150001e+3, 1.2499336e+2, -1719942.5, -1724224.5, 0.0055170124, 0.0000010487529, 0.000017851818, -1719942.5, -4877.409, 0.0, 10.000003, 9.994326 
1.7150001e+3, 1.3498761e+2, -1622562.0, -1627434.8, -0.011130464, 0.0000010343051, -0.00006805161, -1622562.0, -5440.6504, 0.0, 10.000003, 9.993544 
1.7150001e+3, 1.4497516e+2, -1534460.6, -1548146.1, 0.0025020887, 0.0000010262664, 0.00007106971, -1534460.6, -15217.158, 0.0, 10.000003, 9.981863 
1.7150001e+3, 1.5495704e+2, -1436733.0, -1450821.8, -0.013148433, 0.0000010244864, -0.000056746794, -1436733.0, -15312.015, 0.0, 10.000003, 9.981332 
1.7150001e+3, 1.649323e+2, -1348682.0, -1371952.1, 0.0039291503, 0.0000010197766, 0.00004759527, -1348682.0, -25018.504, 0.0, 10.000003, 9.969247 
1.7150001e+3, 1.7490157e+2, -1250724.0, -1274310.0, -0.011817386, 0.0000010120756, -0.00007362213, -1250724.0, -24759.508, 0.0, 10.000003, 9.968833 
1.7150001e+3, 1.8486422e+2, -1162643.1, -1195719.9, 0.0006781873, 0.0000010054838, 0.00006633015, -1162643.1, -34312.563, 0.0, 10.000003, 9.956394 
1.7150001e+3, 1.9482066e+2, -1064493.4, -1097832.9, -0.013355255, 0.0000010000518, -0.000057472855, -1064493.4, -33735.926, 0.0, 10.000003, 9.956051 
1.7150001e+3, 2.0477043e+2, -976329.44, -1019434.9, 0.002762253, 0.0000009969617, 0.00006825475, -976329.44, -43079.676, 0.0, 10.000003, 9.943289 
1.7150001e+3, 2.1471377e+2, -878042.5, -921409.75, -0.013785264, 0.0000009964069, -0.00012666352, -878042.5, -42237.277, 0.0, 10.000003, 9.942948 
1.7150001e+3, 2.246504e+2, -789756.4, -843144.75, -0.0020635277, 0.0000009916388, 0.00012103065, -789756.4, -51330.17, 0.0, 10.000003, 9.929906 
1.7150001e+3, 2.3458035e+2, -691322.9, -744966.3, -0.014703353, 0.0000009820999, -0.000088680266, -691322.9, -50210.43, 0.0, 10.000003, 9.929575 
1.7150001e+3, 2.445034e+2, -602998.9, -667018.7, 0.0018291816, 0.0000009777366, 0.00007483515, -602998.9, -59132.03, 0.0, 10.000003, 9.916135 
1.7150001e+3, 2.5441962e+2, -504246.22, -568343.25, -0.0117533505, 0.0000009795594, -0.00010662054, -504246.22, -57558.703, 0.0, 10.000003, 9.916035 
1.7150001e+3, 2.643288e+2, -416010.84, -490987.8, 0.0005160547, 0.0000009785532, 0.00014069935, -416010.84, -66433.18, 0.0, 10.000003, 9.901963 
1.7150001e+3, 2.742313e+2, -316725.63, -391374.72, -0.0126227, 0.0000009739307, -0.00020335118, -316725.63, -64192.64, 0.0, 10.000003, 9.902383 
1.7150001e+3, 2.841256e+2, -230252.39, -318081.22, 0.0025463821, 0.0000009699756, 0.00022912711, -230252.39, -74683.42, 0.0, 10.000003, 9.885437 
1.7150001e+3, 2.940121e+2, -130546.28, -217765.0, -0.008828253, 0.00000096695, -0.00025327256, -130546.28, -71864.87, 0.0, 10.000003, 9.886215 
1.7150001e+3, 3.0392656e+2, -40802.3, -84750.16, 0.005652128, 0.0000009657869, 0.00017319262, -40802.3, -40802.3, 0.0, 10.000003, 9.942171 
1.7150001e+3, 3.138706e+2, -39724.293, -82511.21, -0.005028936, 0.0000009673817, -0.00005510481, -39724.293, -39724.293, 0.0, 10.000003, 9.943683 
1.7250001e+3, 1.2499336e+2, -1719942.1, -1724224.4, 0.013434936, 0.0000010759512, 0.000017859256, -1719942.1, -4877.157, 0.0, 10.000004, 9.994326 
1.7250001e+3, 1.3498762e+2, -1622561.8, -1627434.6, -0.0030588028, 0.0000010604545, -0.00006804981, -1622561.8, -5440.41, 0.0, 10.000004, 9.993544 
1.7250001e+3, 1.4497516e+2, -1534460.4, -1548146.0, 0.010355998, 0.0000010525519, 0.00007107758, -1534460.4, -15216.919, 0.0, 10.000004, 9.981863 
1.7250001e+3, 1.5495704e+2, -1436732.8, -1450821.8, -0.006170037, 0.0000010520887, -0.000056741374, -1436732.8, -15311.768, 0.0, 10.000003, 9.981332 
1.7250001e+3, 1.649323e+2, -1348681.8, -1371952.1, 0.011088367, 0.0000010470845, 0.0000476, -1348681.8, -25018.258, 0.0, 10.000003, 9.969247 
1.7250001e+3, 1.7490157e+2, -1250723.9, -1274309.9, -0.004697501, 0.0000010374437, -0.0000736163, -1250723.9, -24759.275, 0.0, 10.000003, 9.968833 
1.7250001e+3, 1.8486422e+2, -1162642.9, -1195719.9, 0.007588113, 0.000001030806, 0.00006633567, -1162642.9, -34312.332, 0.0, 10.000003, 9.956394 
1.7250001e+3, 1.9482066e+2, -1064493.1, -1097832.8, -0.008897834, 0.0000010273097, -0.000057469126, -1064493.1, -33735.688, 0.0, 10.000003, 9.956051 
1.7250001e+3, 2.0477043e+2, -976329.25, -1019434.8, 0.008492019, 0.0000010241522, 0.00006825827, -976329.25, -43079.438, 0.0, 10.000003, 9.943289 
1.7250001e+3, 2.1471377e+2, -878042.25, -921409.7, -0.0045100055, 0.0000010213606, -0.00012665852, -878042.25, -42237.05, 0.0, 10.000003, 9.942948 
1.7250001e+3, 2.246504e+2, -789756.1, -843144.7, 0.00776909, 0.0000010163303, 0.00012103594, -789756.1, -51329.945, 0.0, 10.000003, 9.929906 
1.7250001e+3, 2.3458035e+2, -691322.7, -744966.25, -0.0086932415, 0.0000010087656, -0.00008867605, -691322.7, -50210.2, 0.0, 10.000003, 9.929575 
1.7250001e+3, 2.445034e+2, -602998.6, -667018.6, 0.006730012, 0.00000100477, 0.00007483843, -602998.6, -59131.8, 0.0, 10.000003, 9.916135 
1.7250001e+3, 2.5441962e+2, -504246.0, -568343.2, -0.0071448092, 0.0000010050395, -0.00010661804, -504246.0, -57558.48, 0.0, 10.000003, 9.916035 
1.7250001e+3, 2.643288e+2, -416010.63, -490987.75, 0.00528476, 0.0000010034728, 0.00014070165, -416010.63, -66432.96, 0.0, 10.000003, 9.901963 
1.7250001e+3, 2.742313e+2, -316725.4, -391374.66, -0.00840968, 0.0000009995581, -0.00020334835, -316725.4, -64192.418, 0.0, 10.000003, 9.902383 
1.7250001e+3, 2.841256e+2, -230252.17, -318081.16, 0.0060679736, 0.0000009959831, 0.00022912995, -230252.17, -74683.195, 0.0, 10.000003, 9.885437 
1.7250001e+3, 2.940121e+2, -130546.06, -217764.94, -0.0076801595, 0.000000992883, -0.00025327044, -130546.06, -71864.65, 0.0, 10.000003, 9.886215 
1.7250001e+3, 3.0392656e+2, -40802.082, -84750.09, 0.0054064537, 0.0000009914047, 0.00017319384, -40802.082, -40802.082, 0.0, 10.000003, 9.942171 
1.7250001e+3, 3.138706e+2, -39724.08, -82511.15, -0.007314143, 0.0000009923315, -0.00005510478, -39724.08, -39724.08, 0.0, 10.000003, 9.943683 
1.7350002e+3, 1.2499336e+2, -1719942.3, -1724224.4, 0.0042289956, 0.0000011003716, 0.00001786341, -1719942.3, -4877.2026, 0.0, 10.000004, 9.994326 
1.7350002e+3, 1.3498762e+2, -1622561.8, -1627434.6, -0.01226573, 0.0000010904208, -0.000068040616, -1622561.8, -5440.4546, 0.0, 10.000004, 9.993543 
1.7350002e+3, 1.4497516e+2, -1534460.4, -1548146.0, 0.0034696087, 0.0000010830106, 0.000071095106, -1534460.4, -15216.963, 0.0, 10.000004, 9.981863 
1.7350002e+3, 1.5495704e+2, -1436732.8, -1450821.8, -0.013052832, 0.0000010779435, -0.000056735236, -1436732.8, -15311.811, 0.0, 10.000003, 9.981331 
1.7350002e+3, 1.649323e+2, -1348681.9, -1371952.1, 0.0024111483, 0.0000010712871, 0.000047602683, -1348681.9, -25018.299, 0.0, 10.000003, 9.969247 
1.7350002e+3, 1.7490157e+2, -1250723.9, -1274310.0, -0.013384344, 0.0000010630076, -0.00007360894, -1250723.9, -24759.314, 0.0, 10.000003, 9.968833 
1.7350002e+3, 1.8486422e+2, -1162642.9, -1195719.9, 0.0022684778, 0.0000010587672, 0.0000663451, -1162642.9, -34312.37, 0.0, 10.000003, 9.956393 
1.7350002e+3, 1.9482066e+2, -1064493.3, -1097832.8, -0.014178626, 0.0000010587523, -0.00005746033, -1064493.3, -33735.727, 0.0, 10.000003, 9.956051 
1.7350002e+3, 2.0477043e+2, -976329.25, -1019434.9, 0.0018727862, 0.0000010529294, 0.000068263915, -976329.25, -43079.473, 0.0, 10.000003, 9.943289 
1.7350002e+3, 2.1471377e+2, -878042.25, -921409.75, -0.011157101, 0.0000010408154, -0.00012665874, -878042.25, -42237.086, 0.0, 10.000003, 9.942948 
1.7350002e+3, 2.246504e+2, -789756.2, -843144.75, 0.0036663325, 0.0000010366473, 0.00012103591, -789756.2, -51329.984, 0.0, 10.000003, 9.929906 
1.7350002e+3, 2.3458035e+2, -691322.7, -744966.3, -0.012712821, 0.0000010414751, -0.00008866903, -691322.7, -50210.24, 0.0, 10.000003, 9.929575 
1.7350002e+3, 2.445034e+2, -602998.7, -667018.7, 0.0019936583, 0.000001039481, 0.0000748459, -602998.7, -59131.836, 0.0, 10.000003, 9.916135 
1.7350002e+3, 2.5441962e+2, -504246.03, -568343.25, -0.011915701, 0.0000010293282, -0.00010661799, -504246.03, -57558.516, 0.0, 10.000003, 9.916035 
1.7350002e+3, 2.643288e+2, -416010.63, -490987.8, 0.0023981233, 0.0000010235766, 0.00014069967, -416010.63, -66432.99, 0.0, 10.000003, 9.901963 
1.7350002e+3, 2.742313e+2, -316725.44, -391374.72, -0.011170028, 0.0000010234443, -0.00020334551, -316725.44, -64192.45, 0.0, 10.000003, 9.902383 
1.7350002e+3, 2.841256e+2, -230252.2, -318081.22, 0.003494775, 0.0000010238523, 0.00022913466, -230252.2, -74683.234, 0.0, 10.000003, 9.885437 
1.7350002e+3, 2.940121e+2, -130546.09, -217765.0, -0.010236452, 0.0000010249726, -0.00025326794, -130546.09, -71864.68, 0.0, 10.000003, 9.886215 
1.7350002e+3, 3.0392656e+2, -40802.113, -84750.16, 0.0035457935, 0.0000010216485, 0.00017319375, -40802.113, -40802.113, 0.0, 10.000003, 9.942171 
1.7350002e+3, 3.138706e+2, -39724.11, -82511.21, -0.009093145, 0.0000010117212, -0.000055107972, -39724.11, -39724.11, 0.0, 10.000003, 9.943683 
1.7450002e+3, 1.2499337e+2, -1719942.0, -1724224.4, 0.0132884085, 0.0000011297226, 0.000017871225, -1719942.0, -4876.9453, 0.0, 10.000004, 9.994326 
1.7450002e+3, 1.3498762e+2, -1622561.5, -1627434.6, -0.0047315876, 0.0000011182462, -0.00006803934, -1622561.5, -5440.1924, 0.0, 10.000004, 9.993543 
1.7450002e+3, 1.4497516e+2, -1534460.1, -1548146.0, 0.010512155, 0.0000011100811, 0.0000711043, -1534460.1, -15216.702, 0.0, 10.000004, 9.981863 
1.7450002e+3, 1.5495704e+2, -1436732.5, -1450821.6, -0.006039521, 0.0000011050239, -0.00005672929, -1436732.5, -15311.5625, 0.0, 10.000004, 9.981331 
1.7450002e+3, 1.649323e+2, -1348681.6, -1371952.1, 0.009378539, 0.0000010986383, 0.000047607125, -1348681.6, -25018.053, 0.0, 10.000004, 9.969247 
1.7450002e+3, 1.7490157e+2, -1250723.6, -1274309.9, -0.0074958294, 0.0000010908965, -0.00007360423, -1250723.6, -24759.063, 0.0, 10.000004, 9.968833 
1.7450002e+3, 1.8486422e+2, -1162642.6, -1195719.9, 0.009576299, 0.0000010866405, 0.00006635015, -1162642.6, -34312.12, 0.0, 10.000004, 9.956393 
1.7450002e+3, 1.9482066e+2, -1064493.0, -1097832.8, -0.006205093, 0.0000010860313, -0.000057454876, -1064493.0, -33735.484, 0.0, 10.000004, 9.956051 
1.7450002e+3, 2.0477043e+2, -976329.0, -1019434.75, 0.0074793845, 0.000001080016, 0.00006826882, -976329.0, -43079.23, 0.0, 10.000004, 9.943289 
1.7450002e+3, 2.1471377e+2, -878042.0, -921409.7, -0.010715093, 0.0000010681454, -0.00012665539, -878042.0, -42236.844, 0.0, 10.000004, 9.942947 
1.7450002e+3, 2.246504e+2, -789755.94, -843144.7, 0.004614975, 0.0000010639561, 0.00012103852, -789755.94, -51329.742, 0.0, 10.000004, 9.929906 
1.7450002e+3, 2.3458035e+2, -691322.44, -744966.25, -0.009000631, 0.0000010684631, -0.00008866621, -691322.44, -50210.0, 0.0, 10.000004, 9.929575 
1.7450002e+3, 2.445034e+2, -602998.44, -667018.6, 0.0060997126, 0.0000010663939, 0.000074849006, -602998.44, -59131.6, 0.0, 10.000004, 9.916135 
1.7450002e+3, 2.5441962e+2, -504245.78, -568343.1, -0.009612356, 0.0000010564601, -0.00010661452, -504245.78, -57558.277, 0.0, 10.000004, 9.916035 
1.7450002e+3, 2.643288e+2, -416010.4, -490987.75, 0.0049925614, 0.000001050698, 0.00014070289, -416010.4, -66432.76, 0.0, 10.000003, 9.901963 
1.7450002e+3, 2.742313e+2, -316725.22, -391374.66, -0.009110094, 0.0000010502627, -0.0002033433, -316725.22, -64192.22, 0.0, 10.000003, 9.902383 
1.7450002e+3, 2.841256e+2, -230251.97, -318081.16, 0.0058751423, 0.0000010505455, 0.00022913635, -230251.97, -74683.0, 0.0, 10.000003, 9.885437 
1.7450002e+3, 2.940121e+2, -130545.86, -217764.94, -0.007204736, 0.0000010517854, -0.0002532661, -130545.86, -71864.45, 0.0, 10.000003, 9.886215 
1.7450002e+3, 3.0392656e+2, -40801.887, -84750.09, 0.0076558925, 0.0000010484505, 0.0001731958, -40801.887, -40801.887, 0.0, 10.000003, 9.942171 
1.7450002e+3, 3.138706e+2, -39723.883, -82511.15, -0.004488455, 0.0000010383174, -0.000055105564, -39723.883, -39723.883, 0.0, 10.000003, 9.943683 
1.755e+3, 1.2499337e+2, -1719942.0, -1724224.4, 0.005480592, 0.0000011640038, 0.0000178827, -1719942.0, -4876.9946, 0.0, 10.000004, 9.994326 
1.755e+3, 1.3498762e+2, -1622561.6, -1627434.6, -0.0125402175, 0.0000011439306, -0.00006804601, -1622561.6, -5440.2407, 0.0, 10.000004, 9.993543 
1.755e+3, 1.4497516e+2, -1534460.3, -1548146.0, 0.0008913703, 0.0000011337637, 0.00007110517, -1534460.3, -15216.747, 0.0, 10.000004, 9.981863 
1.755e+3, 1.5495704e+2, -1436732.5, -1450821.8, -0.015663318, 0.0000011333296, -0.00005672353, -1436732.5, -15311.606, 0.0, 10.000004, 9.981331 
1.755e+3, 1.649323e+2, -1348681.6, -1371952.1, 0.0024856252, 0.0000011291382, 0.00004761332, -1348681.6, -25018.098, 0.0, 10.000004, 9.969247 
1.755e+3, 1.7490157e+2, -1250723.6, -1274310.0, -0.014374469, 0.0000011211102, -0.00007360215, -1250723.6, -24759.105, 0.0, 10.000004, 9.968833 
1.755e+3, 1.8486422e+2, -1162642.8, -1195719.9, 0.0025791707, 0.0000011144259, 0.000066350825, -1162642.8, -34312.16, 0.0, 10.000004, 9.956393 
1.755e+3, 1.9482066e+2, -1064493.0, -1097832.8, -0.013203758, 0.0000011091465, -0.00005745277, -1064493.0, -33735.523, 0.0, 10.000004, 9.956051 
1.755e+3, 2.0477043e+2, -976329.06, -1019434.9, 0.001292919, 0.0000011054121, 0.00006827299, -976329.06, -43079.273, 0.0, 10.000004, 9.943289 
1.755e+3, 2.1471377e+2, -878042.06, -921409.75, -0.016884858, 0.0000011033501, -0.00012664849, -878042.06, -42236.887, 0.0, 10.000004, 9.942947 
1.755e+3, 2.246504e+2, -789755.94, -843144.75, -0.00015910118, 0.0000010982565, 0.00012104378, -789755.94, -51329.777, 0.0, 10.000004, 9.929906 
1.755e+3, 2.3458035e+2, -691322.5, -744966.3, -0.013729228, 0.0000010897298, -0.00008866758, -691322.5, -50210.03, 0.0, 10.000004, 9.929575 
1.755e+3, 2.445034e+2, -602998.44, -667018.7, 0.0015120929, 0.0000010855092, 0.00007484775, -602998.44, -59131.637, 0.0, 10.000004, 9.916135 
1.755e+3, 2.5441962e+2, -504245.8, -568343.2, -0.014193247, 0.0000010864348, -0.00010660762, -504245.8, -57558.316, 0.0, 10.000004, 9.916035 
1.755e+3, 2.643288e+2, -416010.44, -490987.8, 0.0016463023, 0.0000010848365, 0.00014071135, -416010.44, -66432.79, 0.0, 10.000003, 9.901963 
1.755e+3, 2.742313e+2, -316725.25, -391374.72, -0.012373639, 0.0000010800131, -0.00020334173, -316725.25, -64192.25, 0.0, 10.000003, 9.902383 
1.755e+3, 2.841256e+2, -230252.0, -318081.22, 0.0032489072, 0.0000010760629, 0.000229135, -230252.0, -74683.03, 0.0, 10.000003, 9.885437 
1.755e+3, 2.940121e+2, -130545.89, -217765.0, -0.009773583, 0.0000010733214, -0.00025326497, -130545.89, -71864.484, 0.0, 10.000003, 9.886215 
1.755e+3, 3.0392656e+2, -40801.914, -84750.16, 0.005598487, 0.0000010718109, 0.00017320001, -40801.914, -40801.914, 0.0, 10.000003, 9.942171 
1.755e+3, 3.138706e+2, -39723.91, -82511.21, -0.006485889, 0.0000010721194, -0.00005509756, -39723.91, -39723.91, 0.0, 10.000003, 9.943683 
1.7650001e+3, 1.2499337e+2, -1719941.8, -1724224.4, 0.0150160305, 0.000001195783, 0.000017893944, -1719941.8, -4876.7065, 0.0, 10.000004, 9.994326 
1.7650001e+3, 1.3498762e+2, -1622561.3, -1627434.6, -0.0037951763, 0.0000011725822, -0.00006804298, -1622561.3, -5439.978, 0.0, 10.000004, 9.993543 
1.7650001e+3, 1.4497516e+2, -1534459.9, -1548146.0, 0.011170747, 0.0000011614051, 0.000071117036, -1534459.9, -15216.488, 0.0, 10.000004, 9.981863 
1.7650001e+3, 1.5495704e+2, -1436732.3, -1450821.6, -0.006463452, 0.000001162081, -0.000056716806, -1436732.3, -15311.337, 0.0, 10.000004, 9.981331 
1.7650001e+3, 1.649323e+2, -1348681.4, -1371952.0, 0.010974432, 0.0000011585394, 0.000047618, -1348681.4, -25017.828, 0.0, 10.000004, 9.969247 
1.7650001e+3, 1.7490157e+2, -1250723.4, -1274309.9, -0.0069129504, 0.0000011506913, -0.000073596355, -1250723.4, -24758.846, 0.0, 10.000004, 9.968833 
1.7650001e+3, 1.8486422e+2, -1162642.4, -1195719.9, 0.009669961, 0.0000011434735, 0.000066356595, -1162642.4, -34311.902, 0.0, 10.000004, 9.956393 
1.7650001e+3, 1.9482066e+2, -1064492.8, -1097832.8, -0.008037873, 0.000001136914, -0.000057448215, -1064492.8, -33735.266, 0.0, 10.000004, 9.956051 
1.7650001e+3, 2.0477043e+2, -976328.8, -1019434.75, 0.007711018, 0.0000011332286, 0.00006827741, -976328.8, -43079.016, 0.0, 10.000004, 9.943289 
1.7650001e+3, 2.1471377e+2, -878041.8, -921409.6, -0.0070047826, 0.000001132655, -0.00012664302, -878041.8, -42236.63, 0.0, 10.000004, 9.942947 
1.7650001e+3, 2.246504e+2, -789755.7, -843144.6, 0.010473991, 0.0000011276452, 0.00012104921, -789755.7, -51329.523, 0.0, 10.000004, 9.929906 
1.7650001e+3, 2.3458035e+2, -691322.25, -744966.25, -0.0077238097, 0.000001117612, -0.00008866339, -691322.25, -50209.78, 0.0, 10.000004, 9.929575 
1.7650001e+3, 2.445034e+2, -602998.2, -667018.6, 0.0060810717, 0.0000011130238, 0.00007485118, -602998.2, -59131.387, 0.0, 10.000004, 9.916134 
1.7650001e+3, 2.5441962e+2, -504245.56, -568343.1, -0.008646489, 0.0000011149441, -0.00010660433, -504245.56, -57558.066, 0.0, 10.000004, 9.916035 
1.7650001e+3, 2.643288e+2, -416010.2, -490987.72, 0.008027798, 0.0000011136412, 0.00014071439, -416010.2, -66432.54, 0.0, 10.000004, 9.901963 
1.7650001e+3, 2.742313e+2, -316725.0, -391374.63, -0.0076078055, 0.0000011082205, -0.00020333908, -316725.0, -64192.004, 0.0, 10.000004, 9.902383 
1.7650001e+3, 2.841256e+2, -230251.75, -318081.13, 0.0068382057, 0.0000011038444, 0.00022913748, -230251.75, -74682.79, 0.0, 10.000004, 9.885437 
1.7650001e+3, 2.940121e+2, -130545.65, -217764.92, -0.0077746734, 0.0000011009163, -0.00025326232, -130545.65, -71864.24, 0.0, 10.000004, 9.886215 
1.7650001e+3, 3.0392656e+2, -40801.676, -84750.09, 0.0069301273, 0.0000010996351, 0.00017320187, -40801.676, -40801.676, 0.0, 10.000004, 9.942171 
1.7650001e+3, 3.138706e+2, -39723.67, -82511.15, -0.0069249086, 0.0000011007887, -0.000055097884, -39723.67, -39723.67, 0.0, 10.000004, 9.943683 
1.7750001e+3, 1.2499337e+2, -1719941.8, -1724224.4, 0.0015362441, 0.0000012250606, 0.000017904958, -1719941.8, -4876.7583, 0.0, 10.000004, 9.994326 
1.7750001e+3, 1.3498762e+2, -1622561.4, -1627434.6, -0.017277107, 0.0000012042009, -0.00006803027, -1622561.4, -5440.029, 0.0, 10.000004, 9.993543 
1.7750001e+3, 1.4497516e+2, -1534460.0, -1548146.0, 0.004356656, 0.0000011930051, 0.000071139904, -1534460.0, -15216.536, 0.0, 10.000004, 9.981863 
1.7750001e+3, 1.5495704e+2, -1436732.4, -1450821.8, -0.013267156, 0.0000011912778, -0.000056709116, -1436732.4, -15311.383, 0.0, 10.000004, 9.981331 
1.7750001e+3, 1.649323e+2, -1348681.4, -1371952.1, 0.0020518175, 0.0000011868417, 0.000047621157, -1348681.4, -25017.873, 0.0, 10.000004, 9.969247 
1.7750001e+3, 1.7490157e+2, -1250723.4, -1274310.0, -0.015846873, 0.0000011796398, -0.000073586845, -1250723.4, -24758.89, 0.0, 10.000004, 9.968833 
1.7750001e+3, 1.8486422e+2, -1162642.5, -1195719.9, 0.0029862088, 0.0000011737832, 0.000066367465, -1162642.5, -34311.945, 0.0, 10.000004, 9.956393 
1.7750001e+3, 1.9482066e+2, -1064492.8, -1097832.8, -0.014695702, 0.0000011693334, -0.00005744121, -1064492.8, -33735.31, 0.0, 10.000004, 9.956051 
1.7750001e+3, 2.0477043e+2, -976328.8, -1019434.8, 0.0013926828, 0.0000011634653, 0.0000682821, -976328.8, -43079.055, 0.0, 10.000004, 9.943289 
1.7750001e+3, 2.1471377e+2, -878041.8, -921409.75, -0.013316301, 0.0000011560605, -0.00012663899, -878041.8, -42236.664, 0.0, 10.000004, 9.942947 
1.7750001e+3, 2.246504e+2, -789755.75, -843144.75, 0.004889317, 0.0000011521228, 0.00012105483, -789755.75, -51329.566, 0.0, 10.000004, 9.929906 
1.7750001e+3, 2.3458035e+2, -691322.3, -744966.3, -0.013284763, 0.0000011521095, -0.000088653665, -691322.3, -50209.824, 0.0, 10.000004, 9.929575 
1.7750001e+3, 2.445034e+2, -602998.25, -667018.7, 0.0016775866, 0.0000011489375, 0.00007485931, -602998.25, -59131.426, 0.0, 10.000004, 9.916134 
1.7750001e+3, 2.5441965e+2, -504245.63, -568343.2, -0.012994469, 0.000001141988, -0.000106604646, -504245.63, -57558.1, 0.0, 10.000004, 9.916035 
1.7750001e+3, 2.643288e+2, -416010.22, -490987.8, 0.004469166, 0.0000011371126, 0.00014071201, -416010.22, -66432.58, 0.0, 10.000004, 9.901963 
1.7750001e+3, 2.742313e+2, -316725.03, -391374.72, -0.011113578, 0.0000011348848, -0.00020333535, -316725.03, -64192.043, 0.0, 10.000004, 9.902383 
1.7750001e+3, 2.841256e+2, -230251.78, -318081.22, 0.0036203363, 0.00000113389, 0.00022914381, -230251.78, -74682.82, 0.0, 10.000004, 9.885437 
1.7750001e+3, 2.940121e+2, -130545.68, -217764.98, -0.010966678, 0.0000011345696, -0.00025325816, -130545.68, -71864.27, 0.0, 10.000004, 9.886215 
1.7750001e+3, 3.0392656e+2, -40801.71, -84750.16, 0.005460524, 0.0000011319232, 0.0001732014, -40801.71, -40801.71, 0.0, 10.000004, 9.942171 
1.7750001e+3, 3.138706e+2, -39723.703, -82511.21, -0.008192437, 0.0000011243255, -0.000055106542, -39723.703, -39723.703, 0.0, 10.000004, 9.943683 
1.7850001e+3, 1.2499337e+2, -1719941.5, -1724224.3, 0.014441358, 0.000001252676, 0.000017915261, -1719941.5, -4876.4854, 0.0, 10.000004, 9.994326 
1.7850001e+3, 1.3498762e+2, -1622561.0, -1627434.5, -0.0046849344, 0.0000012375339, -0.00006802682, -1622561.0, -5439.7344, 0.0, 10.000004, 9.993543 
1.7850001e+3, 1.4497516e+2, -1534459.6, -1548145.9, 0.017401947, 0.0000012271058, 0.000071154274, -1534459.6, -15216.24, 0.0, 10.000004, 9.981863 
1.7850001e+3, 1.5495704e+2, -1436732.0, -1450821.6, -0.0029139528, 0.0000012211557, -0.000056702494, -1436732.0, -15311.106, 0.0, 10.000004, 9.981331 
1.7850001e+3, 1.649323e+2, -1348681.1, -1371952.0, 0.011708621, 0.0000012157037, 0.000047625068, -1348681.1, -25017.602, 0.0, 10.000004, 9.969247 
1.7850001e+3, 1.7490157e+2, -1250723.1, -1274309.9, -0.006944302, 0.0000012107604, -0.00007358049, -1250723.1, -24758.611, 0.0, 10.000004, 9.968833 
1.7850001e+3, 1.8486422e+2, -1162642.1, -1195719.8, 0.011770026, 0.0000012051208, 0.00006637452, -1162642.1, -34311.668, 0.0, 10.000004, 9.956393 
1.7850001e+3, 1.9482066e+2, -1064492.5, -1097832.8, -0.006068207, 0.0000011987519, -0.00005743525, -1064492.5, -33735.04, 0.0, 10.000004, 9.95605 
1.7850001e+3, 2.0477043e+2, -976328.56, -1019434.75, 0.009097541, 0.000001192574, 0.00006828679, -976328.56, -43078.785, 0.0, 10.000004, 9.943289 
1.7850001e+3, 2.1471377e+2, -878041.56, -921409.6, -0.010554068, 0.0000011866028, -0.00012663574, -878041.56, -42236.4, 0.0, 10.000004, 9.942947 
1.7850001e+3, 2.246504e+2, -789755.5, -843144.6, 0.006685306, 0.0000011828089, 0.000121057725, -789755.5, -51329.3, 0.0, 10.000004, 9.929906 
1.7850001e+3, 2.3458035e+2, -691322.0, -744966.25, -0.008791014, 0.0000011814788, -0.000088649846, -691322.0, -50209.56, 0.0, 10.000004, 9.929575 
1.7850001e+3, 2.445034e+2, -602998.0, -667018.56, 0.007285924, 0.0000011779608, 0.0000748632, -602998.0, -59131.16, 0.0, 10.000004, 9.916134 
1.7850001e+3, 2.5441965e+2, -504245.34, -568343.1, -0.010460551, 0.0000011718263, -0.000106601685, -504245.34, -57557.84, 0.0, 10.000004, 9.916035 
1.7850001e+3, 2.643288e+2, -416009.97, -490987.72, 0.006329733, 0.00000116713, 0.00014071443, -416009.97, -66432.32, 0.0, 10.000004, 9.901963 
1.7850001e+3, 2.742313e+2, -316724.78, -391374.63, -0.008750196, 0.0000011642691, -0.00020333298, -316724.78, -64191.785, 0.0, 10.000004, 9.902383 
1.7850001e+3, 2.841256e+2, -230251.53, -318081.13, 0.0067794295, 0.0000011630137, 0.00022914594, -230251.53, -74682.56, 0.0, 10.000004, 9.885437 
1.7850001e+3, 2.940121e+2, -130545.42, -217764.92, -0.008161623, 0.0000011639461, -0.0002532566, -130545.42, -71864.016, 0.0, 10.000004, 9.886215 
1.7850001e+3, 3.0392656e+2, -40801.453, -84750.086, 0.00875747, 0.0000011614676, 0.00017320279, -40801.453, -40801.453, 0.0, 10.000004, 9.942171 
1.7850001e+3, 3.138706e+2, -39723.453, -82511.15, -0.0054241396, 0.0000011539073, -0.00005510468, -39723.453, -39723.453, 0.0, 10.000004, 9.943683 
1.7950001e+3, 1.2499337e+2, -1719941.5, -1724224.4, 0.0062008314, 0.0000012786296, 0.000017924855, -1719941.5, -4876.5386, 0.0, 10.000004, 9.994325 
1.7950001e+3, 1.3498762e+2, -1622561.1, -1627434.6, -0.012926562, 0.0000012725812, -0.000068032634, -1622561.1, -5439.786, 0.0, 10.000004, 9.993543 
1.7950001e+3, 1.4497516e+2, -1534459.8, -1548146.0, 0.0062946766, 0.0000012637071, 0.00007116014, -1534459.8, -15216.294, 0.0, 10.000004, 9.981863 
1.7950001e+3, 1.5495704e+2, -1436732.1, -1450821.8, -0.014025859, 0.0000012517147, -0.000056696943, -1436732.1, -15311.16, 0.0, 10.000004, 9.981331 
1.7950001e+3, 1.649323e+2, -1348681.1, -1371952.1, 0.004713706, 0.0000012451255, 0.000047629735, -1348681.1, -25017.65, 0.0, 10.000004, 9.969246 
1.7950001e+3, 1.7490157e+2, -1250723.1, -1274310.0, -0.013917624, 0.0000012440531, -0.00007357729, -1250723.1, -24758.66, 0.0, 10.000004, 9.968833 
1.7950001e+3, 1.8486422e+2, -1162642.3, -1195719.9, 0.003162085, 0.0000012374865, 0.00006637779, -1162642.3, -34311.715, 0.0, 10.000004, 9.956393 
1.7950001e+3, 1.9482066e+2, -1064492.5, -1097832.8, -0.014695213, 0.0000012251696, -0.000057430327, -1064492.5, -33735.082, 0.0, 10.000004, 9.95605 
1.7950001e+3, 2.0477043e+2, -976328.56, -1019434.8, 0.003145776, 0.0000012205549, 0.00006829149, -976328.56, -43078.836, 0.0, 10.000004, 9.943289 
1.7950001e+3, 2.1471377e+2, -878041.6, -921409.7, -0.016450668, 0.0000012242816, -0.00012663331, -878041.6, -42236.445, 0.0, 10.000004, 9.942947 
1.7950001e+3, 2.246504e+2, -789755.5, -843144.7, 0.0008618001, 0.0000012197032, 0.0001210579, -789755.5, -51329.34, 0.0, 10.000004, 9.929906 
1.7950001e+3, 2.3458035e+2, -691322.06, -744966.3, -0.014612289, 0.0000012057202, -0.00008865195, -691322.06, -50209.598, 0.0, 10.000004, 9.929575 
1.7950001e+3, 2.445034e+2, -602998.0, -667018.7, 0.0023947845, 0.0000012000941, 0.00007486286, -602998.0, -59131.203, 0.0, 10.000004, 9.916134 
1.7950001e+3, 2.5441965e+2, -504245.38, -568343.2, -0.015307056, 0.0000012044588, -0.00010659545, -504245.38, -57557.883, 0.0, 10.000004, 9.916035 
1.7950001e+3, 2.643288e+2, -416010.0, -490987.78, 0.0024308749, 0.000001203693, 0.00014072165, -416010.0, -66432.36, 0.0, 10.000004, 9.901963 
1.7950001e+3, 2.742313e+2, -316724.8, -391374.7, -0.012585652, 0.0000011963733, -0.00020333192, -316724.8, -64191.82, 0.0, 10.000004, 9.902383 
1.7950001e+3, 2.841256e+2, -230251.56, -318081.2, 0.0040322905, 0.0000011912155, 0.00022914384, -230251.56, -74682.6, 0.0, 10.000004, 9.885437 
1.7950001e+3, 2.940121e+2, -130545.46, -217764.98, -0.010810818, 0.0000011890456, -0.0002532577, -130545.46, -71864.055, 0.0, 10.000004, 9.886215 
1.7950001e+3, 3.0392656e+2, -40801.49, -84750.16, 0.0065172976, 0.0000011882684, 0.00017320603, -40801.49, -40801.49, 0.0, 10.000004, 9.942171 
1.7950001e+3, 3.138706e+2, -39723.49, -82511.22, -0.0076164445, 0.0000011895337, -0.000055092296, -39723.49, -39723.49, 0.0, 10.000004, 9.943683 
1.8050002e+3, 1.2499337e+2, -1719941.3, -1724224.3, 0.015641093, 0.0000013108263, 0.000017934037, -1719941.3, -4876.233, 0.0, 10.000004, 9.994325 
1.8050002e+3, 1.3498762e+2, -1622560.8, -1627434.5, -0.0055289133, 0.0000013043856, -0.00006803466, -1622560.8, -5439.4907, 0.0, 10.000004, 9.993543 
1.8050002e+3, 1.4497516e+2, -1534459.4, -1548145.9, 0.012261492, 0.0000012959582, 0.000071171184, -1534459.4, -15216.0, 0.0, 10.000004, 9.981863 
1.8050002e+3, 1.5495704e+2, -1436731.8, -1450821.6, -0.007083568, 0.0000012852473, -0.000056690325, -1436731.8, -15310.858, 0.0, 10.000004, 9.981331 
1.8050002e+3, 1.649323e+2, -1348680.9, -1371952.0, 0.013466224, 0.0000012781326, 0.00004763468, -1348680.9, -25017.352, 0.0, 10.000004, 9.969246 
1.8050002e+3, 1.7490157e+2, -1250722.9, -1274309.9, -0.0063774013, 0.0000012746897, -0.00007357122, -1250722.9, -24758.373, 0.0, 10.000004, 9.968833 
1.8050002e+3, 1.8486422e+2, -1162641.9, -1195719.8, 0.009616952, 0.0000012679021, 0.000066383735, -1162641.9, -34311.43, 0.0, 10.000004, 9.956393 
1.8050002e+3, 1.9482066e+2, -1064492.3, -1097832.6, -0.009668564, 0.0000012576136, -0.000057425837, -1064492.3, -33734.797, 0.0, 10.000004, 9.95605 
1.8050002e+3, 2.0477043e+2, -976328.3, -1019434.75, 0.010523242, 0.0000012532755, 0.000068295965, -976328.3, -43078.547, 0.0, 10.000004, 9.943289 
1.8050002e+3, 2.1471377e+2, -878041.3, -921409.6, -0.0068564056, 0.0000012553817, -0.00012662727, -878041.3, -42236.16, 0.0, 10.000004, 9.942947 
1.8050002e+3, 2.246504e+2, -789755.25, -843144.6, 0.009315962, 0.0000012502206, 0.00012106388, -789755.25, -51329.06, 0.0, 10.000004, 9.929906 
1.8050002e+3, 2.3458037e+2, -691321.75, -744966.2, -0.009996755, 0.0000012368305, -0.00008864783, -691321.75, -50209.32, 0.0, 10.000004, 9.929575 
1.8050002e+3, 2.445034e+2, -602997.75, -667018.56, 0.007972967, 0.0000012314016, 0.00007486612, -602997.75, -59130.93, 0.0, 10.000004, 9.916134 
1.8050002e+3, 2.5441965e+2, -504245.1, -568343.1, -0.008162425, 0.00000123549, -0.000106591855, -504245.1, -57557.605, 0.0, 10.000004, 9.916034 
1.8050002e+3, 2.643288e+2, -416009.72, -490987.72, 0.009041872, 0.0000012346262, 0.00014072524, -416009.72, -66432.08, 0.0, 10.000004, 9.901963 
1.8050002e+3, 2.742313e+2, -316724.53, -391374.63, -0.008701972, 0.0000012274365, -0.00020332875, -316724.53, -64191.547, 0.0, 10.000004, 9.902383 
1.8050002e+3, 2.841256e+2, -230251.3, -318081.13, 0.007087715, 0.0000012222514, 0.00022914646, -230251.3, -74682.336, 0.0, 10.000004, 9.885437 
1.8050002e+3, 2.940121e+2, -130545.195, -217764.9, -0.009079538, 0.0000012198383, -0.00025325586, -130545.195, -71863.79, 0.0, 10.000004, 9.886215 
1.8050002e+3, 3.0392656e+2, -40801.227, -84750.086, 0.008454707, 0.0000012189328, 0.00017320715, -40801.227, -40801.227, 0.0, 10.000004, 9.942171 
1.8050002e+3, 3.138706e+2, -39723.22, -82511.14, -0.0057946015, 0.0000012202427, -0.000055091772, -39723.22, -39723.22, 0.0, 10.000004, 9.943683 
1.8150002e+3, 1.2499337e+2, -1719941.3, -1724224.4, 0.005293497, 0.0000013492657, 0.000017942808, -1719941.3, -4876.291, 0.0, 10.000004, 9.994325 
1.8150002e+3, 1.3498762e+2, -1622560.9, -1627434.6, -0.015878048, 0.0000013329472, -0.0000680329, -1622560.9, -5439.548, 0.0, 10.000004, 9.993543 
1.8150002e+3, 1.4497516e+2, -1534459.5, -1548146.0, 0.0029213387, 0.0000013238596, 0.000071187394, -1534459.5, -15216.052, 0.0, 10.000004, 9.981863 
1.8150002e+3, 1.5495704e+2, -1436731.9, -1450821.8, -0.016422238, 0.0000013217533, -0.000056682642, -1436731.9, -15310.91, 0.0, 10.000004, 9.981331 
1.8150002e+3, 1.649323e+2, -1348680.9, -1371952.1, 0.0037706683, 0.0000013147246, 0.000047639896, -1348680.9, -25017.402, 0.0, 10.000004, 9.969246 
1.8150002e+3, 1.7490157e+2, -1250722.9, -1274310.0, -0.016074961, 0.0000013026702, -0.00007356226, -1250722.9, -24758.424, 0.0, 10.000004, 9.968833 
1.8150002e+3, 1.8486422e+2, -1162642.0, -1195719.9, 0.001957021, 0.0000012963677, 0.000066392364, -1162642.0, -34311.477, 0.0, 10.000004, 9.956393 
1.8150002e+3, 1.9482066e+2, -1064492.3, -1097832.8, -0.017305033, 0.0000012960832, -0.000057421777, -1064492.3, -33734.844, 0.0, 10.000004, 9.95605 
1.8150002e+3, 2.0477043e+2, -976328.3, -1019434.8, 0.0042504803, 0.0000012907356, 0.00006830022, -976328.3, -43078.59, 0.0, 10.000004, 9.943289 
1.8150002e+3, 2.1471377e+2, -878041.4, -921409.7, -0.013101159, 0.0000012799034, -0.00012661767, -878041.4, -42236.203, 0.0, 10.000004, 9.942947 
1.8150002e+3, 2.246504e+2, -789755.25, -843144.7, 0.001905042, 0.0000012743615, 0.00012107566, -789755.25, -51329.1, 0.0, 10.000004, 9.929906 
1.8150002e+3, 2.3458037e+2, -691321.8, -744966.3, -0.01744591, 0.000001274809, -0.000088637484, -691321.8, -50209.367, 0.0, 10.000004, 9.929575 
1.8150002e+3, 2.445034e+2, -602997.75, -667018.6, 0.004308193, 0.000001271883, 0.00007487298, -602997.75, -59130.97, 0.0, 10.000004, 9.916134 
1.8150002e+3, 2.5441965e+2, -504245.13, -568343.2, -0.011645509, 0.0000012649199, -0.00010659091, -504245.13, -57557.645, 0.0, 10.000004, 9.916034 
1.8150002e+3, 2.643288e+2, -416009.75, -490987.78, 0.0042297468, 0.0000012599297, 0.00014072521, -416009.75, -66432.12, 0.0, 10.000004, 9.901963 
1.8150002e+3, 2.742313e+2, -316724.56, -391374.7, -0.013603288, 0.0000012574586, -0.00020332343, -316724.56, -64191.59, 0.0, 10.000004, 9.902383 
1.8150002e+3, 2.841256e+2, -230251.33, -318081.2, 0.0037589977, 0.0000012561215, 0.00022915375, -230251.33, -74682.375, 0.0, 10.000004, 9.885437 
1.8150002e+3, 2.940121e+2, -130545.23, -217764.98, -0.012266706, 0.0000012563236, -0.00025325114, -130545.23, -71863.83, 0.0, 10.000004, 9.886215 
1.8150002e+3, 3.0392656e+2, -40801.258, -84750.16, 0.0072823633, 0.0000012534604, 0.00017320615, -40801.258, -40801.258, 0.0, 10.000004, 9.942171 
1.8150002e+3, 3.138706e+2, -39723.254, -82511.21, -0.0067306277, 0.0000012460345, -0.00005510311, -39723.254, -39723.254, 0.0, 10.000004, 9.943683 
1.825e+3, 1.2499337e+2, -1719940.9, -1724224.3, 0.0173255, 0.0000013849135, 0.000017954068, -1719940.9, -4875.974, 0.0, 10.000005, 9.994325 
1.825e+3, 1.3498762e+2, -1622560.5, -1627434.5, -0.0038905817, 0.0000013661405, -0.00006803383, -1622560.5, -5439.231, 0.0, 10.000005, 9.993543 
1.825e+3, 1.4497516e+2, -1534459.1, -1548145.9, 0.01419193, 0.0000013562346, 0.00007120094, -1534459.1, -15215.736, 0.0, 10.000005, 9.981862 
1.825e+3, 1.5495704e+2, -1436731.5, -1450821.6, -0.0065760813, 0.0000013549471, -0.000056675064, -1436731.5, -15310.604, 0.0, 10.000005, 9.981331 
1.825e+3, 1.649323e+2, -1348680.6, -1371952.0, 0.013641992, 0.000001348057, 0.00004764499, -1348680.6, -25017.1, 0.0, 10.000005, 9.969246 
1.825e+3, 1.7490157e+2, -1250722.6, -1274309.9, -0.0065377085, 0.0000013354464, -0.0000735561, -1250722.6, -24758.117, 0.0, 10.000005, 9.968832 
1.825e+3, 1.8486424e+2, -1162641.6, -1195719.8, 0.012484157, 0.000001329569, 0.00006639903, -1162641.6, -34311.17, 0.0, 10.000004, 9.956393 
1.825e+3, 1.9482066e+2, -1064492.0, -1097832.6, -0.008063645, 0.0000013307363, -0.00005741522, -1064492.0, -33734.54, 0.0, 10.000004, 9.95605 
1.825e+3, 2.0477043e+2, -976328.0, -1019434.7, 0.011455302, 0.0000013245515, 0.00006830594, -976328.0, -43078.29, 0.0, 10.000004, 9.943289 
1.825e+3, 2.1471377e+2, -878041.06, -921409.6, -0.008499976, 0.0000013104029, -0.00012661357, -878041.06, -42235.914, 0.0, 10.000004, 9.942947 
1.825e+3, 2.246504e+2, -789755.0, -843144.6, 0.007974489, 0.0000013050311, 0.000121079305, -789755.0, -51328.816, 0.0, 10.000004, 9.929906 
1.825e+3, 2.3458037e+2, -691321.5, -744966.2, -0.00995746, 0.0000013095957, -0.00008863296, -691321.5, -50209.066, 0.0, 10.000004, 9.929575 
1.825e+3, 2.445034e+2, -602997.5, -667018.56, 0.010543165, 0.0000013072123, 0.00007487736, -602997.5, -59130.668, 0.0, 10.000004, 9.916134 
1.825e+3, 2.5441965e+2, -504244.84, -568343.1, -0.009720506, 0.000001296518, -0.00010658789, -504244.84, -57557.36, 0.0, 10.000004, 9.916034 
1.825e+3, 2.643288e+2, -416009.47, -490987.72, 0.005988012, 0.0000012903016, 0.00014072748, -416009.47, -66431.84, 0.0, 10.000004, 9.901962 
1.825e+3, 2.742313e+2, -316724.28, -391374.63, -0.010072925, 0.0000012898025, -0.00020332118, -316724.28, -64191.305, 0.0, 10.000004, 9.902383 
1.825e+3, 2.841256e+2, -230251.05, -318081.13, 0.008558262, 0.0000012895146, 0.00022915612, -230251.05, -74682.086, 0.0, 10.000004, 9.885437 
1.825e+3, 2.940121e+2, -130544.94, -217764.9, -0.0088183815, 0.000001289488, -0.00025324852, -130544.94, -71863.54, 0.0, 10.000004, 9.886215 
1.825e+3, 3.0392656e+2, -40800.977, -84750.08, 0.009298079, 0.0000012860169, 0.00017320826, -40800.977, -40800.977, 0.0, 10.000004, 9.942171 
1.825e+3, 3.138706e+2, -39722.98, -82511.14, -0.0075409934, 0.0000012774323, -0.000055102624, -39722.98, -39722.98, 0.0, 10.000004, 9.943683 
1.835e+3, 1.2499338e+2, -1719941.0, -1724224.4, 0.007268681, 0.0000014177699, 0.000017967815, -1719941.0, -4876.033, 0.0, 10.000005, 9.994325 
1.835e+3, 1.3498762e+2, -1622560.5, -1627434.6, -0.013949001, 0.0000014039651, -0.00006803744, -1622560.5, -5439.2886, 0.0, 10.000005, 9.993543 
1.835e+3, 1.4497516e+2, -1534459.1, -1548146.0, 0.0030557464, 0.0000013930832, 0.00007121182, -1534459.1, -15215.793, 0.0, 10.000005, 9.981862 
1.835e+3, 1.5495704e+2, -1436731.5, -1450821.6, -0.01771406, 0.000001384829, -0.000056667588, -1436731.5, -15310.658, 0.0, 10.000005, 9.981331 
1.835e+3, 1.649323e+2, -1348680.6, -1371952.1, 0.0045951814, 0.0000013781299, 0.00004764996, -1348680.6, -25017.152, 0.0, 10.000005, 9.969246 
1.835e+3, 1.7490157e+2, -1250722.6, -1274310.0, -0.015573615, 0.0000013730183, -0.000073552714, -1250722.6, -24758.17, 0.0, 10.000005, 9.968832 
1.835e+3, 1.8486424e+2, -1162641.8, -1195719.9, 0.0049220608, 0.000001367506, 0.00006640373, -1162641.8, -34311.223, 0.0, 10.000004, 9.956393 
1.835e+3, 1.9482066e+2, -1064492.0, -1097832.8, -0.015608797, 0.0000013615731, -0.000057406167, -1064492.0, -33734.59, 0.0, 10.000004, 9.95605 
1.835e+3, 2.0477043e+2, -976328.06, -1019434.8, 0.002247339, 0.0000013547234, 0.00006831313, -976328.06, -43078.34, 0.0, 10.000004, 9.943289 
1.835e+3, 2.1471377e+2, -878041.1, -921409.7, -0.017742407, 0.0000013468799, -0.00012661499, -878041.1, -42235.965, 0.0, 10.000004, 9.942947 
1.835e+3, 2.246504e+2, -789755.0, -843144.7, 0.004276192, 0.0000013422289, 0.000121074816, -789755.0, -51328.86, 0.0, 10.000004, 9.929906 
1.835e+3, 2.3458037e+2, -691321.56, -744966.3, -0.013474557, 0.0000013411908, -0.00008863426, -691321.56, -50209.11, 0.0, 10.000004, 9.929575 
1.835e+3, 2.445034e+2, -602997.5, -667018.6, 0.0031177623, 0.0000013373898, 0.00007487926, -602997.5, -59130.715, 0.0, 10.000004, 9.916134 
1.835e+3, 2.5441965e+2, -504244.9, -568343.2, -0.017333785, 0.000001330284, -0.00010658279, -504244.9, -57557.406, 0.0, 10.000004, 9.916034 
1.835e+3, 2.643288e+2, -416009.5, -490987.78, 0.0026995996, 0.0000013257416, 0.00014073204, -416009.5, -66431.88, 0.0, 10.000004, 9.901962 
1.835e+3, 2.742313e+2, -316724.3, -391374.7, -0.013071582, 0.0000013244681, -0.00020332196, -316724.3, -64191.34, 0.0, 10.000004, 9.902383 
1.835e+3, 2.841256e+2, -230251.08, -318081.2, 0.0057269614, 0.0000013224306, 0.00022915356, -230251.08, -74682.125, 0.0, 10.000004, 9.885437 
1.835e+3, 2.940121e+2, -130544.98, -217764.98, -0.011634746, 0.0000013193314, -0.000253248, -130544.98, -71863.58, 0.0, 10.000004, 9.886215 
1.835e+3, 3.0392656e+2, -40801.016, -84750.164, 0.0057845437, 0.0000013166025, 0.0001732135, -40801.016, -40801.016, 0.0, 10.000004, 9.942171 
1.835e+3, 3.138706e+2, -39723.02, -82511.23, -0.011136536, 0.0000013144355, -0.000055090306, -39723.02, -39723.02, 0.0, 10.000004, 9.943682 
1.8450001e+3, 1.2499338e+2, -1719940.6, -1724224.3, 0.017212162, 0.0000014563843, 0.000017979986, -1719940.6, -4875.6895, 0.0, 10.000005, 9.994325 
1.8450001e+3, 1.3498762e+2, -1622560.3, -1627434.5, -0.0053507807, 0.0000014378942, -0.00006803713, -1622560.3, -5438.964, 0.0, 10.000005, 9.993543 
1.8450001e+3, 1.4497516e+2, -1534458.9, -1548145.9, 0.012558196, 0.0000014257917, 0.00007122793, -1534458.9, -15215.472, 0.0, 10.000005, 9.981862 
1.8450001e+3, 1.5495704e+2, -1436731.3, -1450821.6, -0.008602335, 0.0000014197944, -0.000056660443, -1436731.3, -15310.332, 0.0, 10.000005, 9.981331 
1.8450001e+3, 1.649323e+2, -1348680.3, -1371952.0, 0.01347664, 0.000001414171, 0.00004765364, -1348680.3, -25016.826, 0.0, 10.000005, 9.969246 
1.8450001e+3, 1.7490157e+2, -1250722.4, -1274309.9, -0.008631061, 0.0000014089295, -0.00007354688, -1250722.4, -24757.848, 0.0, 10.000005, 9.968832 
1.8450001e+3, 1.8486424e+2, -1162641.4, -1195719.8, 0.012142123, 0.000001402318, 0.00006641018, -1162641.4, -34310.906, 0.0, 10.000005, 9.956393 
1.8450001e+3, 1.9482066e+2, -1064491.8, -1097832.6, -0.008247598, 0.0000013942722, -0.000057400703, -1064491.8, -33734.277, 0.0, 10.000005, 9.95605 
1.8450001e+3, 2.0477043e+2, -976327.75, -1019434.7, 0.009748455, 0.0000013879736, 0.00006831829, -976327.75, -43078.027, 0.0, 10.000005, 9.943289 
1.8450001e+3, 2.1471377e+2, -878040.8, -921409.56, -0.010852959, 0.0000013835669, -0.00012660938, -878040.8, -42235.645, 0.0, 10.000005, 9.942947 
1.8450001e+3, 2.246504e+2, -789754.7, -843144.56, 0.011371021, 0.0000013788091, 0.00012107972, -789754.7, -51328.543, 0.0, 10.000005, 9.929906 
1.8450001e+3, 2.3458037e+2, -691321.25, -744966.2, -0.009743597, 0.0000013736521, -0.000088631365, -691321.25, -50208.81, 0.0, 10.000005, 9.929574 
1.8450001e+3, 2.445034e+2, -602997.2, -667018.56, 0.0064507676, 0.0000013690084, 0.00007488218, -602997.2, -59130.42, 0.0, 10.000005, 9.916134 
1.8450001e+3, 2.5441965e+2, -504244.6, -568343.1, -0.010370027, 0.000001364977, -0.00010657743, -504244.6, -57557.098, 0.0, 10.000005, 9.916034 
1.8450001e+3, 2.643288e+2, -416009.2, -490987.7, 0.011528125, 0.0000013614979, 0.00014073745, -416009.2, -66431.57, 0.0, 10.000005, 9.901962 
1.8450001e+3, 2.742313e+2, -316724.0, -391374.6, -0.00906509, 0.0000013587187, -0.00020331952, -316724.0, -64191.04, 0.0, 10.000005, 9.902383 
1.8450001e+3, 2.841256e+2, -230250.78, -318081.1, 0.0075656306, 0.0000013556548, 0.0002291548, -230250.78, -74681.83, 0.0, 10.000005, 9.885437 
1.8450001e+3, 2.940121e+2, -130544.69, -217764.9, -0.009391115, 0.0000013521969, -0.00025324553, -130544.69, -71863.28, 0.0, 10.000005, 9.886215 
1.8450001e+3, 3.0392656e+2, -40800.727, -84750.08, 0.00979885, 0.0000013498417, 0.00017321647, -40800.727, -40800.727, 0.0, 10.000005, 9.942171 
1.8450001e+3, 3.138706e+2, -39722.72, -82511.14, -0.0045792186, 0.0000013491295, -0.00005508797, -39722.72, -39722.72, 0.0, 10.000005, 9.943682 
1.8550001e+3, 1.2499338e+2, -1719940.6, -1724224.4, 0.003130608, 0.0000015007563, 0.000017990582, -1719940.6, -4875.7524, 0.0, 10.000005, 9.994325 
1.8550001e+3, 1.3498762e+2, -1622560.3, -1627434.6, -0.019434934, 0.0000014679277, -0.000068032896, -1622560.3, -5439.0254, 0.0, 10.000005, 9.993543 
1.8550001e+3, 1.4497517e+2, -1534458.9, -1548146.0, 0.0030115373, 0.0000014543605, 0.00007124929, -1534458.9, -15215.529, 0.0, 10.000005, 9.981862 
1.8550001e+3, 1.5495704e+2, -1436731.3, -1450821.6, -0.018141937, 0.000001459843, -0.000056653622, -1436731.3, -15310.389, 0.0, 10.000005, 9.981331 
1.8550001e+3, 1.649323e+2, -1348680.4, -1371952.1, 0.0036161218, 0.0000014561803, 0.000047656034, -1348680.4, -25016.883, 0.0, 10.000005, 9.969246 
1.8550001e+3, 1.7490157e+2, -1250722.4, -1274309.9, -0.01849339, 0.0000014431798, -0.000073538584, -1250722.4, -24757.904, 0.0, 10.000005, 9.968832 
1.8550001e+3, 1.8486424e+2, -1162641.4, -1195719.9, 0.0031493255, 0.0000014340054, 0.0000664184, -1162641.4, -34310.96, 0.0, 10.000005, 9.956393 
1.8550001e+3, 1.9482066e+2, -1064491.8, -1097832.8, -0.01723047, 0.0000014288332, -0.00005739883, -1064491.8, -33734.332, 0.0, 10.000005, 9.95605 
1.8550001e+3, 2.0477043e+2, -976327.8, -1019434.8, 0.0030904864, 0.000001424302, 0.000068321424, -976327.8, -43078.082, 0.0, 10.000005, 9.943288 
1.8550001e+3, 2.1471377e+2, -878040.8, -921409.7, -0.017463055, 0.000001420464, -0.00012659676, -878040.8, -42235.69, 0.0, 10.000005, 9.942947 
1.8550001e+3, 2.246504e+2, -789754.75, -843144.7, 0.003430405, 0.0000014147716, 0.00012109401, -789754.75, -51328.594, 0.0, 10.000005, 9.929906 
1.8550001e+3, 2.3458037e+2, -691321.3, -744966.3, -0.01772785, 0.0000014069797, -0.00008862428, -691321.3, -50208.86, 0.0, 10.000005, 9.929574 
1.8550001e+3, 2.445034e+2, -602997.25, -667018.6, 0.001958531, 0.0000014020677, 0.00007488611, -602997.25, -59130.46, 0.0, 10.000005, 9.916134 
1.8550001e+3, 2.5441965e+2, -504244.63, -568343.2, -0.01469468, 0.0000014005972, -0.00010657181, -504244.63, -57557.14, 0.0, 10.000005, 9.916034 
1.8550001e+3, 2.643288e+2, -416009.25, -490987.78, 0.0067961663, 0.0000013975706, 0.00014074374, -416009.25, -66431.62, 0.0, 10.000005, 9.901962 
1.8550001e+3, 2.742313e+2, -316724.06, -391374.7, -0.013824451, 0.0000013925544, -0.00020331384, -316724.06, -64191.086, 0.0, 10.000005, 9.902383 
1.8550001e+3, 2.841256e+2, -230250.83, -318081.2, 0.0037080827, 0.000001389187, 0.00022915985, -230250.83, -74681.87, 0.0, 10.000005, 9.885436 
1.8550001e+3, 2.940121e+2, -130544.73, -217764.98, -0.013167606, 0.0000013880843, -0.00025324107, -130544.73, -71863.33, 0.0, 10.000005, 9.886215 
1.8550001e+3, 3.0392656e+2, -40800.76, -84750.16, 0.007948258, 0.0000013857344, 0.0001732172, -40800.76, -40800.76, 0.0, 10.000005, 9.942171 
1.8550001e+3, 3.138706e+2, -39722.754, -82511.21, -0.006204026, 0.0000013815147, -0.000055095607, -39722.754, -39722.754, 0.0, 10.000005, 9.943682 
1.8650001e+3, 1.2499338e+2, -1719940.3, -1724224.3, 0.020214917, 0.0000015354075, 0.000018003951, -1719940.3, -4875.405, 0.0, 10.000005, 9.994325 
1.8650001e+3, 1.3498762e+2, -1622559.9, -1627434.5, -0.0041411873, 0.0000015064821, -0.00006803134, -1622559.9, -5438.6753, 0.0, 10.000005, 9.993543 
1.8650001e+3, 1.4497517e+2, -1534458.5, -1548145.9, 0.01938125, 0.0000014936983, 0.00007126811, -1534458.5, -15215.18, 0.0, 10.000005, 9.981862 
1.8650001e+3, 1.5495706e+2, -1436730.9, -1450821.5, -0.0048292186, 0.000001496817, -0.000056646248, -1436730.9, -15310.045, 0.0, 10.000005, 9.981331 
1.8650001e+3, 1.649323e+2, -1348680.0, -1371952.0, 0.015285804, 0.0000014922424, 0.00004765988, -1348680.0, -25016.543, 0.0, 10.000005, 9.969246 
1.8650001e+3, 1.7490157e+2, -1250722.0, -1274309.9, -0.007397078, 0.0000014798125, -0.00007353018, -1250722.0, -24757.568, 0.0, 10.000005, 9.968832 
1.8650001e+3, 1.8486424e+2, -1162641.1, -1195719.8, 0.01393407, 0.0000014705674, 0.00006642756, -1162641.1, -34310.625, 0.0, 10.000005, 9.956393 
1.8650001e+3, 1.9482067e+2, -1064491.4, -1097832.6, -0.008384887, 0.0000014646539, -0.000057392866, -1064491.4, -33733.996, 0.0, 10.000005, 9.95605 
1.8650001e+3, 2.0477043e+2, -976327.44, -1019434.7, 0.012379478, 0.000001460049, 0.000068326095, -976327.44, -43077.75, 0.0, 10.000005, 9.943288 
1.8650001e+3, 2.1471377e+2, -878040.5, -921409.56, -0.009259774, 0.0000014568603, -0.00012659129, -878040.5, -42235.37, 0.0, 10.000005, 9.942947 
1.8650001e+3, 2.246504e+2, -789754.44, -843144.56, 0.011449156, 0.0000014511536, 0.00012110006, -789754.44, -51328.27, 0.0, 10.000005, 9.929906 
1.8650001e+3, 2.3458037e+2, -691320.94, -744966.2, -0.0083878655, 0.0000014425956, -0.000088617846, -691320.94, -50208.535, 0.0, 10.000005, 9.929574 
1.8650001e+3, 2.445034e+2, -602996.94, -667018.5, 0.011505444, 0.0000014373879, 0.00007489133, -602996.94, -59130.137, 0.0, 10.000005, 9.916134 
1.8650001e+3, 2.5441965e+2, -504244.3, -568343.06, -0.011223917, 0.0000014361842, -0.00010656969, -504244.3, -57556.82, 0.0, 10.000005, 9.916034 
1.8650001e+3, 2.6432884e+2, -416008.94, -490987.7, 0.008365473, 0.0000014332832, 0.0001407451, -416008.94, -66431.305, 0.0, 10.000005, 9.901962 
1.8650001e+3, 2.742313e+2, -316723.75, -391374.6, -0.009228739, 0.0000014282112, -0.00020331022, -316723.75, -64190.773, 0.0, 10.000005, 9.902383 
1.8650001e+3, 2.841256e+2, -230250.5, -318081.1, 0.010546564, 0.0000014247438, 0.00022916416, -230250.5, -74681.555, 0.0, 10.000005, 9.885436 
1.8650001e+3, 2.940121e+2, -130544.41, -217764.89, -0.008074907, 0.0000014234815, -0.00025323822, -130544.41, -71863.01, 0.0, 10.000005, 9.886215 
1.8650001e+3, 3.0392656e+2, -40800.45, -84750.07, 0.010445776, 0.0000014210988, 0.00017321829, -40800.45, -40800.45, 0.0, 10.000005, 9.94217 
1.8650001e+3, 3.138706e+2, -39722.445, -82511.125, -0.010147565, 0.0000014170348, -0.00005509665, -39722.445, -39722.445, 0.0, 10.000005, 9.943682 
1.8750001e+3, 1.2499338e+2, -1719940.4, -1724224.3, 0.0070512276, 0.0000015603384, 0.000018020102, -1719940.4, -4875.4727, 0.0, 10.000005, 9.994325 
1.8750001e+3, 1.3498762e+2, -1622560.0, -1627434.6, -0.017307278, 0.0000015535566, -0.00006803247, -1622560.0, -5438.7417, 0.0, 10.000005, 9.993543 
1.8750001e+3, 1.4497517e+2, -1534458.6, -1548145.9, 0.008552259, 0.0000015438044, 0.000071284376, -1534458.6, -15215.245, 0.0, 10.000005, 9.981862 
1.8750001e+3, 1.5495706e+2, -1436731.0, -1450821.6, -0.015654601, 0.0000015307169, -0.000056638313, -1436731.0, -15310.109, 0.0, 10.000005, 9.981331 
1.8750001e+3, 1.649323e+2, -1348680.0, -1371952.0, 0.0050554927, 0.0000015223578, 0.00004766518, -1348680.0, -25016.604, 0.0, 10.000005, 9.969246 
1.8750001e+3, 1.7490157e+2, -1250722.1, -1274309.9, -0.017624361, 0.000001518827, -0.000073521674, -1250722.1, -24757.627, 0.0, 10.000005, 9.968832 
1.8750001e+3, 1.8486424e+2, -1162641.1, -1195719.9, 0.004604944, 0.0000015120038, 0.00006643767, -1162641.1, -34310.68, 0.0, 10.000005, 9.956393 
1.8750001e+3, 1.9482067e+2, -1064491.5, -1097832.8, -0.01770376, 0.000001501734, -0.000057382815, -1064491.5, -33734.055, 0.0, 10.000005, 9.95605 
1.8750001e+3, 2.0477043e+2, -976327.5, -1019434.75, 0.004645814, 0.0000014952144, 0.000068332316, -976327.5, -43077.805, 0.0, 10.000005, 9.943288 
1.8750001e+3, 2.1471377e+2, -878040.56, -921409.7, -0.016960846, 0.000001492756, -0.00012659299, -878040.56, -42235.42, 0.0, 10.000005, 9.942947 
1.8750001e+3, 2.246504e+2, -789754.44, -843144.7, 0.0045823916, 0.0000014879549, 0.00012109789, -789754.44, -51328.32, 0.0, 10.000005, 9.929906 
1.8750001e+3, 2.3458037e+2, -691321.0, -744966.25, -0.015227525, 0.0000014804997, -0.000088612076, -691321.0, -50208.582, 0.0, 10.000005, 9.929574 
1.8750001e+3, 2.445034e+2, -602997.0, -667018.6, 0.005681803, 0.0000014749688, 0.000074897835, -602997.0, -59130.19, 0.0, 10.000005, 9.916134 
1.8750001e+3, 2.5441965e+2, -504244.34, -568343.2, -0.016998824, 0.0000014717384, -0.000106571075, -504244.34, -57556.87, 0.0, 10.000005, 9.916034 
1.8750001e+3, 2.6432884e+2, -416008.97, -490987.78, 0.0034501085, 0.0000014686357, 0.00014074157, -416008.97, -66431.34, 0.0, 10.000005, 9.901962 
1.8750001e+3, 2.742313e+2, -316723.78, -391374.7, -0.014086711, 0.000001465689, -0.00020330863, -316723.78, -64190.816, 0.0, 10.000005, 9.902383 
1.8750001e+3, 2.841256e+2, -230250.55, -318081.2, 0.0072617163, 0.0000014623253, 0.00022916774, -230250.55, -74681.6, 0.0, 10.000005, 9.885436 
1.8750001e+3, 2.940121e+2, -130544.445, -217764.98, -0.0112182135, 0.0000014583887, -0.000253237, -130544.445, -71863.055, 0.0, 10.000005, 9.886215 
1.8750001e+3, 3.0392656e+2, -40800.496, -84750.17, 0.007897253, 0.0000014559347, 0.00017321977, -40800.496, -40800.496, 0.0, 10.000005, 9.94217 
1.8750001e+3, 3.138706e+2, -39722.496, -82511.23, -0.012626405, 0.0000014556897, -0.0000550911, -39722.496, -39722.496, 0.0, 10.000005, 9.943682 
1.8850003e+3, 1.2499338e+2, -1719940.0, -1724224.3, 0.016992457, 0.0000015968603, 0.000018032315, -1719940.0, -4875.1157, 0.0, 10.000005, 9.994325 
1.8850003e+3, 1.3498762e+2, -1622559.6, -1627434.5, -0.007523464, 0.0000015942181, -0.000068037356, -1622559.6, -5438.369, 0.0, 10.000005, 9.993543 
1.8850002e+3, 1.4497517e+2, -1534458.3, -1548145.8, 0.017069163, 0.0000015850471, 0.000071299175, -1534458.3, -15214.871, 0.0, 10.000005, 9.981862 
1.8850002e+3, 1.5495706e+2, -1436730.6, -1450821.5, -0.0070842127, 0.0000015689528, -0.000056630142, -1436730.6, -15309.75, 0.0, 10.000005, 9.981331 
1.8850002e+3, 1.649323e+2, -1348679.6, -1371951.9, 0.015602741, 0.0000015593776, 0.00004767056, -1348679.6, -25016.25, 0.0, 10.000005, 9.969246 
1.8850002e+3, 1.7490157e+2, -1250721.8, -1274309.8, -0.00786773, 0.000001556459, -0.00007351517, -1250721.8, -24757.273, 0.0, 10.000005, 9.968832 
1.8850002e+3, 1.8486424e+2, -1162640.8, -1195719.8, 0.013957006, 0.0000015503496, 0.00006644462, -1162640.8, -34310.33, 0.0, 10.000005, 9.956393 
1.8850002e+3, 1.9482067e+2, -1064491.1, -1097832.6, -0.009723838, 0.0000015408998, -0.000057376146, -1064491.1, -33733.703, 0.0, 10.000005, 9.95605 
1.8850002e+3, 2.0477043e+2, -976327.1, -1019434.7, 0.012859796, 0.000001533932, 0.00006833823, -976327.1, -43077.457, 0.0, 10.000005, 9.943288 
1.8850002e+3, 2.1471377e+2, -878040.2, -921409.56, -0.010072261, 0.0000015296521, -0.00012658835, -878040.2, -42235.08, 0.0, 10.000005, 9.942947 
1.8850002e+3, 2.246504e+2, -789754.1, -843144.56, 0.009959377, 0.0000015244586, 0.00012110172, -789754.1, -51327.977, 0.0, 10.000005, 9.929905 
1.8850002e+3, 2.3458037e+2, -691320.6, -744966.2, -0.01281355, 0.0000015182294, -0.00008860853, -691320.6, -50208.242, 0.0, 10.000005, 9.929574 
1.8850002e+3, 2.445034e+2, -602996.6, -667018.5, 0.009484917, 0.0000015131276, 0.00007490159, -602996.6, -59129.855, 0.0, 10.000005, 9.916134 
1.8850002e+3, 2.5441965e+2, -504244.0, -568343.06, -0.009959384, 0.0000015093725, -0.00010656652, -504244.0, -57556.54, 0.0, 10.000005, 9.916034 
1.8850002e+3, 2.6432884e+2, -416008.63, -490987.66, 0.011029656, 0.0000015058478, 0.00014074586, -416008.63, -66431.01, 0.0, 10.000005, 9.901962 
1.8850002e+3, 2.742313e+2, -316723.44, -391374.6, -0.010961246, 0.0000015026118, -0.00020330594, -316723.44, -64190.48, 0.0, 10.000005, 9.902383 
1.8850002e+3, 2.841256e+2, -230250.22, -318081.1, 0.008420222, 0.000001499119, 0.00022916934, -230250.22, -74681.266, 0.0, 10.000005, 9.885436 
1.8850002e+3, 2.940121e+2, -130544.12, -217764.89, -0.011368339, 0.0000014952719, -0.00025323575, -130544.12, -71862.73, 0.0, 10.000005, 9.886215 
1.8850002e+3, 3.0392656e+2, -40800.17, -84750.08, 0.010364934, 0.000001492959, 0.00017322153, -40800.17, -40800.17, 0.0, 10.000005, 9.94217 
1.8850002e+3, 3.138706e+2, -39722.168, -82511.13, -0.0049173413, 0.0000014929294, -0.00005508742, -39722.168, -39722.168, 0.0, 10.000005, 9.943682 
1.8950002e+3, 1.24993384e+2, -1719940.0, -1724224.3, 0.0078507075, 0.000001644972, 0.000018040593, -1719940.0, -4875.1846, 0.0, 10.000005, 9.994325 
1.8950002e+3, 1.3498764e+2, -1622559.6, -1627434.5, -0.016666792, 0.0000016284671, -0.000068046014, -1622559.6, -5438.4365, 0.0, 10.000005, 9.993543 
1.8950002e+3, 1.4497517e+2, -1534458.3, -1548145.9, 0.0030637586, 0.0000016174274, 0.000071312505, -1534458.3, -15214.937, 0.0, 10.000005, 9.981862 
1.8950002e+3, 1.5495706e+2, -1436730.6, -1450821.6, -0.021097386, 0.0000016115246, -0.00005662173, -1436730.6, -15309.814, 0.0, 10.000005, 9.981331 
1.8950002e+3, 1.6493231e+2, -1348679.8, -1371952.0, 0.005588142, 0.0000016033011, 0.000047676014, -1348679.8, -25016.31, 0.0, 10.000005, 9.969246 
1.8950002e+3, 1.7490159e+2, -1250721.8, -1274309.9, -0.017861387, 0.0000015927085, -0.00007351067, -1250721.8, -24757.334, 0.0, 10.000005, 9.968832 
1.8950002e+3, 1.8486424e+2, -1162640.9, -1195719.8, 0.004330571, 0.000001585605, 0.000066448396, -1162640.9, -34310.387, 0.0, 10.000005, 9.956393 
1.8950002e+3, 1.9482067e+2, -1064491.1, -1097832.8, -0.019346153, 0.0000015821512, -0.000057372858, -1064491.1, -33733.76, 0.0, 10.000005, 9.95605 
1.8950002e+3, 2.0477043e+2, -976327.2, -1019434.75, 0.0047745104, 0.0000015762017, 0.00006834385, -976327.2, -43077.51, 0.0, 10.000005, 9.943288 
1.8950002e+3, 2.1471377e+2, -878040.25, -921409.6, -0.018125944, 0.0000015675483, -0.00012657735, -878040.25, -42235.133, 0.0, 10.000005, 9.942947 
1.8950002e+3, 2.246504e+2, -789754.1, -843144.6, 0.002214639, 0.0000015606648, 0.00012111158, -789754.1, -51328.03, 0.0, 10.000005, 9.929905 
1.8950002e+3, 2.3458037e+2, -691320.7, -744966.25, -0.020548332, 0.0000015557847, -0.000088607194, -691320.7, -50208.297, 0.0, 10.000005, 9.929574 
1.8950002e+3, 2.445034e+2, -602996.7, -667018.6, 0.0038344453, 0.0000015518641, 0.0000749026, -602996.7, -59129.902, 0.0, 10.000005, 9.916134 
1.8950002e+3, 2.5441965e+2, -504244.06, -568343.2, -0.015509929, 0.0000015490865, -0.00010655603, -504244.06, -57556.586, 0.0, 10.000005, 9.916034 
1.8950002e+3, 2.6432884e+2, -416008.7, -490987.75, 0.0060300687, 0.0000015449193, 0.000140758, -416008.7, -66431.06, 0.0, 10.000005, 9.901962 
1.8950002e+3, 2.742313e+2, -316723.5, -391374.7, -0.01592404, 0.0000015389795, -0.00020330216, -316723.5, -64190.53, 0.0, 10.000005, 9.902383 
1.8950002e+3, 2.841256e+2, -230250.27, -318081.2, 0.004327372, 0.000001535125, 0.00022916896, -230250.27, -74681.31, 0.0, 10.000005, 9.885436 
1.8950002e+3, 2.940121e+2, -130544.164, -217764.98, -0.015383028, 0.0000015341312, -0.00025323455, -130544.164, -71862.77, 0.0, 10.000005, 9.886215 
1.8950002e+3, 3.0392656e+2, -40800.21, -84750.16, 0.008645131, 0.0000015321716, 0.0001732236, -40800.21, -40800.21, 0.0, 10.000005, 9.94217 
1.8950002e+3, 3.138706e+2, -39722.207, -82511.22, -0.006368082, 0.0000015287541, -0.00005508562, -39722.207, -39722.207, 0.0, 10.000005, 9.943682 
1.9050002e+3, 1.24993384e+2, -1719939.6, -1724224.1, 0.021452082, 0.0000016908916, 0.000018054772, -1719939.6, -4874.7813, 0.0, 10.000006, 9.994325 
1.9050002e+3, 1.3498764e+2, -1622559.3, -1627434.4, -0.004742727, 0.000001666533, -0.00006804897, -1622559.3, -5438.064, 0.0, 10.000006, 9.993542 
1.9050002e+3, 1.4497517e+2, -1534457.9, -1548145.8, 0.0146188615, 0.0000016537749, 0.00007133073, -1534457.9, -15214.57, 0.0, 10.000006, 9.981862 
1.9050002e+3, 1.5495706e+2, -1436730.3, -1450821.5, -0.009512301, 0.0000016523186, -0.000056612513, -1436730.3, -15309.434, 0.0, 10.000006, 9.981331 
1.9050002e+3, 1.6493231e+2, -1348679.4, -1371951.9, 0.017216813, 0.0000016452755, 0.00004768137, -1348679.4, -25015.93, 0.0, 10.000006, 9.969246 
1.9050002e+3, 1.7490159e+2, -1250721.4, -1274309.8, -0.008451077, 0.0000016325281, -0.000073503914, -1250721.4, -24756.963, 0.0, 10.000006, 9.968832 
1.9050002e+3, 1.8486424e+2, -1162640.5, -1195719.6, 0.014160319, 0.0000016248797, 0.000066455344, -1162640.5, -34310.02, 0.0, 10.000006, 9.956393 
1.9050002e+3, 1.9482067e+2, -1064490.8, -1097832.6, -0.010171778, 0.0000016225655, -0.00005736699, -1064490.8, -33733.395, 0.0, 10.000006, 9.95605 
1.9050002e+3, 2.0477043e+2, -976326.8, -1019434.6, 0.013854323, 0.0000016162583, 0.00006834982, -976326.8, -43077.145, 0.0, 10.000006, 9.943288 
1.9050002e+3, 2.1471377e+2, -878039.9, -921409.56, -0.009102385, 0.0000016056252, -0.00012657, -878039.9, -42234.773, 0.0, 10.000005, 9.942947 
1.9050002e+3, 2.246504e+2, -789753.8, -843144.56, 0.013027075, 0.0000015988353, 0.000121118755, -789753.8, -51327.676, 0.0, 10.000005, 9.929905 
1.9050002e+3, 2.3458037e+2, -691320.3, -744966.1, -0.010049756, 0.0000015963959, -0.00008860197, -691320.3, -50207.938, 0.0, 10.000005, 9.929574 
1.9050002e+3, 2.445034e+2, -602996.3, -667018.5, 0.012851389, 0.0000015926623, 0.000074906835, -602996.3, -59129.543, 0.0, 10.000005, 9.916134 
1.9050002e+3, 2.5441965e+2, -504243.7, -568343.06, -0.010773746, 0.0000015873769, -0.00010655165, -504243.7, -57556.23, 0.0, 10.000005, 9.916034 
1.9050002e+3, 2.6432884e+2, -416008.3, -490987.66, 0.010350082, 0.000001582344, 0.00014076215, -416008.3, -66430.71, 0.0, 10.000005, 9.901962 
1.9050002e+3, 2.742313e+2, -316723.13, -391374.6, -0.010077956, 0.0000015776346, -0.00020329874, -316723.13, -64190.184, 0.0, 10.000005, 9.902382 
1.905e+3, 2.841256e+2, -230249.9, -318081.1, 0.011675345, 0.0000015746617, 0.00022917232, -230249.9, -74680.97, 0.0, 10.000005, 9.885436 
1.905e+3, 2.940121e+2, -130543.81, -217764.88, -0.009250234, 0.0000015740621, -0.00025323036, -130543.81, -71862.42, 0.0, 10.000005, 9.886214 
1.905e+3, 3.0392656e+2, -40799.863, -84750.06, 0.011982495, 0.0000015715593, 0.00017322636, -40799.863, -40799.863, 0.0, 10.000005, 9.94217 
1.905e+3, 3.138706e+2, -39721.87, -82511.125, -0.009134846, 0.0000015662114, -0.000055087705, -39721.87, -39721.87, 0.0, 10.000005, 9.943682 
1.9150002e+3, 1.24993384e+2, -1719939.8, -1724224.3, 0.005389874, 0.0000017346191, 0.000018074852, -1719939.8, -4874.854, 0.0, 10.000006, 9.994325 
1.9150002e+3, 1.3498764e+2, -1622559.3, -1627434.5, -0.020808088, 0.0000017084154, -0.000068046225, -1622559.3, -5438.1357, 0.0, 10.000006, 9.993542 
1.9150002e+3, 1.4497517e+2, -1534457.9, -1548145.9, 0.004223902, 0.0000016940892, 0.00007135387, -1534457.9, -15214.637, 0.0, 10.000006, 9.981862 
1.9150002e+3, 1.5495706e+2, -1436730.4, -1450821.6, -0.019898444, 0.000001691335, -0.00005660249, -1436730.4, -15309.499, 0.0, 10.000006, 9.98133 
1.9150002e+3, 1.6493231e+2, -1348679.4, -1371952.0, 0.004979205, 0.0000016853006, 0.000047686623, -1348679.4, -25015.996, 0.0, 10.000006, 9.969246 
1.9150002e+3, 1.7490159e+2, -1250721.4, -1274309.9, -0.020698575, 0.0000016759176, -0.000073494906, -1250721.4, -24757.03, 0.0, 10.000006, 9.968832 
1.9150002e+3, 1.8486424e+2, -1162640.5, -1195719.8, 0.005226063, 0.0000016681735, 0.00006646546, -1162640.5, -34310.082, 0.0, 10.000006, 9.956392 
1.9150002e+3, 1.9482067e+2, -1064490.9, -1097832.8, -0.019067826, 0.0000016621428, -0.000057358546, -1064490.9, -33733.453, 0.0, 10.000006, 9.95605 
1.9150002e+3, 2.0477045e+2, -976326.9, -1019434.75, 0.0039039806, 0.0000016541018, 0.00006835614, -976326.9, -43077.203, 0.0, 10.000006, 9.943288 
1.9150002e+3, 2.1471377e+2, -878039.94, -921409.6, -0.019074712, 0.0000016438826, -0.00012656629, -878039.94, -42234.832, 0.0, 10.000005, 9.942947 
1.9150002e+3, 2.246504e+2, -789753.9, -843144.6, 0.0066502667, 0.0000016389698, 0.000121123245, -789753.9, -51327.734, 0.0, 10.000005, 9.929905 
1.9150002e+3, 2.3458037e+2, -691320.4, -744966.25, -0.016309112, 0.0000016400631, -0.00008859285, -691320.4, -50207.992, 0.0, 10.000005, 9.929574 
1.9150002e+3, 2.445034e+2, -602996.4, -667018.6, 0.005792735, 0.0000016355222, 0.000074914286, -602996.4, -59129.598, 0.0, 10.000005, 9.916134 
1.9150002e+3, 2.5441965e+2, -504243.75, -568343.2, -0.017870978, 0.0000016242437, -0.00010655338, -504243.75, -57556.285, 0.0, 10.000005, 9.916034 
1.9150002e+3, 2.6432884e+2, -416008.38, -490987.75, 0.005388891, 0.0000016181219, 0.00014075829, -416008.38, -66430.766, 0.0, 10.000005, 9.901962 
1.9150002e+3, 2.742313e+2, -316723.2, -391374.66, -0.014896183, 0.0000016185769, -0.0002032957, -316723.2, -64190.234, 0.0, 10.000005, 9.902382 
1.9150002e+3, 2.841256e+2, -230249.95, -318081.2, 0.008352769, 0.0000016177287, 0.00022917941, -230249.95, -74681.016, 0.0, 10.000005, 9.885436 
1.9150002e+3, 2.940121e+2, -130543.86, -217764.97, -0.012438255, 0.0000016150649, -0.00025322317, -130543.86, -71862.47, 0.0, 10.000005, 9.886214 
1.9150002e+3, 3.0392656e+2, -40799.914, -84750.164, 0.007668632, 0.0000016111225, 0.00017322981, -40799.914, -40799.914, 0.0, 10.000005, 9.94217 
1.9150002e+3, 3.138706e+2, -39721.92, -82511.23, -0.013581119, 0.0000016053012, -0.000055093667, -39721.92, -39721.92, 0.0, 10.000005, 9.943682 
1.9250003e+3, 1.24993384e+2, -1719939.3, -1724224.1, 0.022560684, 0.0000017766794, 0.000018088835, -1719939.3, -4874.4526, 0.0, 10.000006, 9.994325 
1.9250003e+3, 1.3498764e+2, -1622558.9, -1627434.4, -0.005835933, 0.0000017515758, -0.00006804584, -1622558.9, -5437.7275, 0.0, 10.000006, 9.993542 
1.9250003e+3, 1.4497517e+2, -1534457.5, -1548145.8, 0.019760948, 0.0000017371163, 0.00007137671, -1534457.5, -15214.229, 0.0, 10.000006, 9.981862 
1.9250003e+3, 1.5495706e+2, -1436729.9, -1450821.5, -0.0071696592, 0.0000017329801, -0.000056595178, -1436729.9, -15309.106, 0.0, 10.000006, 9.98133 
1.9250003e+3, 1.6493231e+2, -1348679.0, -1371951.9, 0.016903568, 0.0000017269348, 0.000047689147, -1348679.0, -25015.61, 0.0, 10.000006, 9.969246 
1.9250003e+3, 1.7490159e+2, -1250721.0, -1274309.8, -0.009330434, 0.000001718941, -0.0000734862, -1250721.0, -24756.635, 0.0, 10.000006, 9.968832 
1.9250003e+3, 1.8486424e+2, -1162640.1, -1195719.6, 0.016893549, 0.0000017106095, 0.00006647598, -1162640.1, -34309.69, 0.0, 10.000006, 9.956392 
1.9250003e+3, 1.9482067e+2, -1064490.4, -1097832.6, -0.00833441, 0.0000017019231, -0.000057350786, -1064490.4, -33733.074, 0.0, 10.000006, 9.95605 
1.9250003e+3, 2.0477045e+2, -976326.5, -1019434.6, 0.013575007, 0.0000016940237, 0.00006836203, -976326.5, -43076.83, 0.0, 10.000006, 9.943288 
1.9250003e+3, 2.1471377e+2, -878039.56, -921409.5, -0.012894624, 0.0000016869759, -0.00012656131, -878039.56, -42234.45, 0.0, 10.000006, 9.942946 
1.9250003e+3, 2.246504e+2, -789753.44, -843144.5, 0.012505157, 0.0000016822493, 0.000121127625, -789753.44, -51327.348, 0.0, 10.000006, 9.929905 
1.9250003e+3, 2.3458037e+2, -691320.0, -744966.1, -0.011306815, 0.0000016801489, -0.000088588706, -691320.0, -50207.617, 0.0, 10.000006, 9.929574 
1.9250003e+3, 2.445034e+2, -602996.0, -667018.5, 0.010726326, 0.0000016746237, 0.00007491847, -602996.0, -59129.227, 0.0, 10.000006, 9.916134 
1.9250003e+3, 2.5441965e+2, -504243.38, -568343.06, -0.012633965, 0.0000016650038, -0.000106548825, -504243.38, -57555.918, 0.0, 10.000006, 9.916034 
1.9250003e+3, 2.6432884e+2, -416008.0, -490987.66, 0.01122365, 0.0000016597908, 0.00014076241, -416008.0, -66430.39, 0.0, 10.000006, 9.901962 
1.9250003e+3, 2.742313e+2, -316722.8, -391374.56, -0.01200856, 0.0000016601942, -0.00020329304, -316722.8, -64189.863, 0.0, 10.000006, 9.902382 
1.9250003e+3, 2.841256e+2, -230249.6, -318081.06, 0.010686233, 0.000001658758, 0.00022918101, -230249.6, -74680.65, 0.0, 10.000006, 9.885436 
1.9250003e+3, 2.940121e+2, -130543.5, -217764.88, -0.009715632, 0.0000016547765, -0.00025322204, -130543.5, -71862.11, 0.0, 10.000006, 9.886214 
1.9250003e+3, 3.0392656e+2, -40799.555, -84750.07, 0.01180011, 0.0000016507817, 0.00017323151, -40799.555, -40799.555, 0.0, 10.000006, 9.94217 
1.9250003e+3, 3.138706e+2, -39721.55, -82511.125, -0.008514622, 0.0000016467935, -0.00005508982, -39721.55, -39721.55, 0.0, 10.000006, 9.943682 
1.9350003e+3, 1.24993384e+2, -1719939.4, -1724224.3, 0.008450314, 0.0000018170723, 0.000018096725, -1719939.4, -4874.5317, 0.0, 10.000006, 9.994325 
1.9350003e+3, 1.3498764e+2, -1622559.0, -1627434.5, -0.019949077, 0.0000017960142, -0.000068047804, -1622559.0, -5437.805, 0.0, 10.000006, 9.993542 
1.9350003e+3, 1.4497517e+2, -1534457.6, -1548145.9, 0.0059861518, 0.0000017828564, 0.000071399256, -1534457.6, -15214.302, 0.0, 10.000006, 9.981862 
1.9350003e+3, 1.5495706e+2, -1436730.0, -1450821.6, -0.020944072, 0.0000017772536, -0.000056590572, -1436730.0, -15309.179, 0.0, 10.000006, 9.98133 
1.9350003e+3, 1.6493231e+2, -1348679.0, -1371952.0, 0.0066597112, 0.0000017701778, 0.000047688947, -1348679.0, -25015.68, 0.0, 10.000006, 9.969246 
1.9350003e+3, 1.7490159e+2, -1250721.1, -1274309.9, -0.01955581, 0.0000017615985, -0.00007347779, -1250721.1, -24756.703, 0.0, 10.000006, 9.968832 
1.9350003e+3, 1.8486424e+2, -1162640.1, -1195719.8, 0.0053427746, 0.000001752188, 0.0000664869, -1162640.1, -34309.754, 0.0, 10.000006, 9.956392 
1.9350003e+3, 1.9482067e+2, -1064490.5, -1097832.6, -0.019900713, 0.0000017419063, -0.000057343706, -1064490.5, -33733.137, 0.0, 10.000006, 9.95605 
1.9350003e+3, 2.0477045e+2, -976326.56, -1019434.75, 0.005191378, 0.0000017360237, 0.00006836748, -976326.56, -43076.89, 0.0, 10.000006, 9.943288 
1.9350003e+3, 2.1471377e+2, -878039.56, -921409.6, -0.021212647, 0.0000017349047, -0.00012655507, -878039.56, -42234.51, 0.0, 10.000006, 9.942946 
1.9350003e+3, 2.246504e+2, -789753.5, -843144.6, 0.0044622608, 0.0000017286736, 0.000121131896, -789753.5, -51327.41, 0.0, 10.000006, 9.929905 
1.9350003e+3, 2.3458037e+2, -691320.06, -744966.25, -0.01934094, 0.0000017166535, -0.00008858953, -691320.06, -50207.676, 0.0, 10.000006, 9.929574 
1.9350003e+3, 2.445034e+2, -602996.06, -667018.6, 0.004022339, 0.0000017099673, 0.00007491939, -602996.06, -59129.285, 0.0, 10.000006, 9.916133 
1.9350003e+3, 2.5441965e+2, -504243.44, -568343.1, -0.019274214, 0.0000017096568, -0.00010653799, -504243.44, -57555.973, 0.0, 10.000006, 9.916034 
1.9350003e+3, 2.6432884e+2, -416008.03, -490987.75, 0.005942122, 0.0000017073501, 0.00014077449, -416008.03, -66430.445, 0.0, 10.000006, 9.901962 
1.9350003e+3, 2.742313e+2, -316722.88, -391374.66, -0.017199231, 0.0000017024865, -0.00020329078, -316722.88, -64189.918, 0.0, 10.000006, 9.902382 
1.9350003e+3, 2.841256e+2, -230249.64, -318081.16, 0.0061485996, 0.0000016977498, 0.00022917712, -230249.64, -74680.7, 0.0, 10.000006, 9.885436 
1.9350003e+3, 2.9401213e+2, -130543.55, -217764.97, -0.014194715, 0.0000016931972, -0.000253227, -130543.55, -71862.16, 0.0, 10.000006, 9.886214 
1.9350003e+3, 3.0392656e+2, -40799.605, -84750.17, 0.010387213, 0.0000016905371, 0.00017323147, -40799.605, -40799.605, 0.0, 10.000006, 9.94217 
1.9350003e+3, 3.138706e+2, -39721.598, -82511.23, -0.009567841, 0.0000016906881, -0.00005507615, -39721.598, -39721.598, 0.0, 10.000006, 9.943682 
1.9450003e+3, 1.24993384e+2, -1719938.9, -1724224.1, 0.021030257, 0.0000018604761, 0.000018113155, -1719938.9, -4874.1064, 0.0, 10.000006, 9.994324 
1.9450003e+3, 1.3498764e+2, -1622558.5, -1627434.4, -0.00620015, 0.0000018409784, -0.00006805273, -1622558.5, -5437.384, 0.0, 10.000006, 9.993542 
1.9450003e+3, 1.4497517e+2, -1534457.1, -1548145.8, 0.020338872, 0.0000018283741, 0.00007141866, -1534457.1, -15213.882, 0.0, 10.000006, 9.981862 
1.9450003e+3, 1.5495706e+2, -1436729.5, -1450821.5, -0.008889465, 0.0000018223046, -0.00005658069, -1436729.5, -15308.756, 0.0, 10.000006, 9.98133 
1.9450003e+3, 1.6493231e+2, -1348678.6, -1371951.9, 0.018705998, 0.0000018143731, 0.00004769475, -1348678.6, -25015.26, 0.0, 10.000006, 9.969246 
1.9450003e+3, 1.7490159e+2, -1250720.6, -1274309.8, -0.008516143, 0.000001804541, -0.000073470495, -1250720.6, -24756.297, 0.0, 10.000006, 9.968832 
1.9450003e+3, 1.8486424e+2, -1162639.8, -1195719.6, 0.015629888, 0.0000017949702, 0.00006649466, -1162639.8, -34309.35, 0.0, 10.000006, 9.956392 
1.9450003e+3, 1.9482067e+2, -1064490.1, -1097832.5, -0.011778982, 0.0000017856718, -0.000057336598, -1064490.1, -33732.73, 0.0, 10.000006, 9.95605 
1.9450003e+3, 2.0477045e+2, -976326.1, -1019434.6, 0.015026016, 0.000001780228, 0.000068373956, -976326.1, -43076.484, 0.0, 10.000006, 9.943288 
1.9450003e+3, 2.1471377e+2, -878039.2, -921409.5, -0.010144263, 0.000001778958, -0.00012654923, -878039.2, -42234.11, 0.0, 10.000006, 9.942946 
1.9450003e+3, 2.246504e+2, -789753.1, -843144.5, 0.014689312, 0.0000017718633, 0.00012113794, -789753.1, -51327.01, 0.0, 10.000006, 9.929905 
1.9450003e+3, 2.3458037e+2, -691319.7, -744966.1, -0.012064675, 0.0000017581729, -0.00008858235, -691319.7, -50207.285, 0.0, 10.000006, 9.929574 
1.9450003e+3, 2.445034e+2, -602995.6, -667018.5, 0.012190111, 0.0000017516642, 0.00007492591, -602995.6, -59128.895, 0.0, 10.000006, 9.916133 
1.9450003e+3, 2.5441965e+2, -504243.03, -568343.0, -0.011061991, 0.0000017537394, -0.000106534295, -504243.03, -57555.58, 0.0, 10.000006, 9.916034 
1.9450003e+3, 2.6432884e+2, -416007.66, -490987.63, 0.01397066, 0.0000017517272, 0.00014077724, -416007.66, -66430.06, 0.0, 10.000006, 9.901962 
1.9450003e+3, 2.742313e+2, -316722.47, -391374.56, -0.010804852, 0.0000017444911, -0.00020328657, -316722.47, -64189.535, 0.0, 10.000006, 9.902382 
1.9450003e+3, 2.841256e+2, -230249.25, -318081.06, 0.0115028, 0.0000017388401, 0.00022918191, -230249.25, -74680.31, 0.0, 10.000006, 9.885436 
1.9450003e+3, 2.9401213e+2, -130543.16, -217764.86, -0.011957262, 0.0000017353811, -0.00025322285, -130543.16, -71861.77, 0.0, 10.000006, 9.886214 
1.9450003e+3, 3.0392656e+2, -40799.223, -84750.06, 0.012125894, 0.0000017332488, 0.0001732342, -40799.223, -40799.223, 0.0, 10.000006, 9.94217 
1.9450003e+3, 3.138706e+2, -39721.227, -82511.125, -0.008503412, 0.0000017330694, -0.00005507588, -39721.227, -39721.227, 0.0, 10.000006, 9.943682 
1.9550003e+3, 1.2499339e+2, -1719939.0, -1724224.3, 0.0063386657, 0.0000019068907, 0.00001813813, -1719939.0, -4874.1836, 0.0, 10.000006, 9.994324 
1.9550003e+3, 1.3498764e+2, -1622558.6, -1627434.5, -0.020894693, 0.000001886468, -0.00006806061, -1622558.6, -5437.4595, 0.0, 10.000006, 9.993542 
1.9550003e+3, 1.4497517e+2, -1534457.3, -1548145.9, 0.0075032264, 0.0000018736695, 0.00007143492, -1534457.3, -15213.961, 0.0, 10.000006, 9.981862 
1.9550003e+3, 1.5495706e+2, -1436729.6, -1450821.6, -0.021722257, 0.0000018681328, -0.00005656554, -1436729.6, -15308.834, 0.0, 10.000006, 9.98133 
1.9550003e+3, 1.6493231e+2, -1348678.6, -1371952.0, 0.0055415626, 0.0000018595206, 0.00004770656, -1348678.6, -25015.332, 0.0, 10.000006, 9.969245 
1.9550003e+3, 1.7490159e+2, -1250720.8, -1274309.9, -0.02168251, 0.0000018477683, -0.000073464296, -1250720.8, -24756.367, 0.0, 10.000006, 9.968832 
1.9550003e+3, 1.8486424e+2, -1162639.8, -1195719.8, 0.005338595, 0.0000018389562, 0.00006649923, -1162639.8, -34309.42, 0.0, 10.000006, 9.956392 
1.9550003e+3, 1.9482067e+2, -1064490.1, -1097832.6, -0.022037156, 0.0000018332194, -0.00005732946, -1064490.1, -33732.8, 0.0, 10.000006, 9.956049 
1.9550003e+3, 2.0477045e+2, -976326.2, -1019434.7, 0.006042279, 0.0000018266364, 0.00006838144, -976326.2, -43076.55, 0.0, 10.000006, 9.943288 
1.9550003e+3, 2.1471377e+2, -878039.25, -921409.6, -0.019101905, 0.0000018191361, -0.00012654379, -878039.25, -42234.17, 0.0, 10.000006, 9.942946 
1.9550003e+3, 2.246504e+2, -789753.2, -843144.6, 0.0051710918, 0.0000018118183, 0.00012114574, -789753.2, -51327.08, 0.0, 10.000006, 9.929905 
1.9550003e+3, 2.3458037e+2, -691319.75, -744966.25, -0.021601379, 0.0000018047065, -0.00008856717, -691319.75, -50207.35, 0.0, 10.000006, 9.929574 
1.9550003e+3, 2.445034e+2, -602995.7, -667018.56, 0.0063068415, 0.000001799714, 0.00007493802, -602995.7, -59128.953, 0.0, 10.000006, 9.916133 
1.9550003e+3, 2.5441965e+2, -504243.06, -568343.1, -0.01677001, 0.0000017972518, -0.000106537744, -504243.06, -57555.637, 0.0, 10.000006, 9.916034 
1.9550003e+3, 2.6432884e+2, -416007.72, -490987.75, 0.008005688, 0.0000017929221, 0.00014077067, -416007.72, -66430.12, 0.0, 10.000006, 9.901962 
1.9550003e+3, 2.742313e+2, -316722.53, -391374.66, -0.016787227, 0.0000017862081, -0.00020328042, -316722.53, -64189.594, 0.0, 10.000006, 9.902382 
1.9550003e+3, 2.841256e+2, -230249.3, -318081.16, 0.0073700286, 0.0000017820289, 0.00022919534, -230249.3, -74680.375, 0.0, 10.000006, 9.885436 
1.9550003e+3, 2.9401213e+2, -130543.21, -217764.97, -0.015923634, 0.0000017813279, -0.00025320967, -130543.21, -71861.83, 0.0, 10.000006, 9.886214 
1.9550003e+3, 3.0392656e+2, -40799.273, -84750.164, 0.008779284, 0.0000017789168, 0.00017323972, -40799.273, -40799.273, 0.0, 10.000006, 9.94217 
1.9550003e+3, 3.138706e+2, -39721.277, -82511.23, -0.011777607, 0.0000017739375, -0.000055089007, -39721.277, -39721.277, 0.0, 10.000006, 9.943682 
1.9650002e+3, 1.2499339e+2, -1719938.5, -1724224.0, 0.02437942, 0.000001953256, 0.000018154575, -1719938.5, -4873.739, 0.0, 10.000007, 9.994324 
1.9650002e+3, 1.3498764e+2, -1622558.1, -1627434.4, -0.007574803, 0.0000019342413, -0.00006806561, -1622558.1, -5437.013, 0.0, 10.000007, 9.993542 
1.9650002e+3, 1.4497517e+2, -1534456.8, -1548145.6, 0.019690352, 0.0000019211911, 0.000071456205, -1534456.8, -15213.516, 0.0, 10.000007, 9.981861 
1.9650002e+3, 1.5495706e+2, -1436729.1, -1450821.4, -0.008202335, 0.0000019137249, -0.000056555484, -1436729.1, -15308.398, 0.0, 10.000007, 9.98133 
1.9650002e+3, 1.6493231e+2, -1348678.3, -1371951.9, 0.01955086, 0.0000019044295, 0.000047712412, -1348678.3, -25014.898, 0.0, 10.000007, 9.969245 
1.9650002e+3, 1.7490159e+2, -1250720.3, -1274309.8, -0.010027203, 0.0000018932667, -0.00007345548, -1250720.3, -24755.934, 0.0, 10.000007, 9.968832 
1.9650002e+3, 1.8486424e+2, -1162639.4, -1195719.6, 0.017431816, 0.0000018852422, 0.00006650838, -1162639.4, -34308.992, 0.0, 10.000007, 9.956392 
1.9650002e+3, 1.9482067e+2, -1064489.8, -1097832.5, -0.010916263, 0.0000018805001, -0.00005732276, -1064489.8, -33732.375, 0.0, 10.000006, 9.956049 
1.9650002e+3, 2.0477045e+2, -976325.75, -1019434.56, 0.016265634, 0.0000018726713, 0.00006838754, -976325.75, -43076.13, 0.0, 10.000006, 9.943288 
1.9650002e+3, 2.1471378e+2, -878038.8, -921409.5, -0.01171864, 0.0000018614983, -0.0001265363, -878038.8, -42233.758, 0.0, 10.000006, 9.942946 
1.9650002e+3, 2.2465041e+2, -789752.75, -843144.5, 0.013037344, 0.0000018544973, 0.00012115286, -789752.75, -51326.664, 0.0, 10.000006, 9.929905 
1.9650002e+3, 2.3458037e+2, -691319.3, -744966.06, -0.012303857, 0.000001852219, -0.00008856246, -691319.3, -50206.93, 0.0, 10.000006, 9.929574 
1.9650002e+3, 2.445034e+2, -602995.25, -667018.44, 0.015183251, 0.0000018477949, 0.000074941694, -602995.25, -59128.535, 0.0, 10.000006, 9.916133 
1.9650002e+3, 2.5441965e+2, -504242.66, -568343.0, -0.013607879, 0.0000018408012, -0.000106533465, -504242.66, -57555.23, 0.0, 10.000006, 9.916033 
1.9650002e+3, 2.6432884e+2, -416007.28, -490987.63, 0.010158918, 0.000001834906, 0.00014077495, -416007.28, -66429.71, 0.0, 10.000006, 9.901962 
1.9650002e+3, 2.742313e+2, -316722.13, -391374.53, -0.012476845, 0.0000018304128, -0.00020327691, -316722.13, -64189.188, 0.0, 10.000006, 9.902382 
1.9650002e+3, 2.841256e+2, -230248.89, -318081.06, 0.0139323715, 0.00000182744, 0.00022919838, -230248.89, -74679.97, 0.0, 10.000006, 9.885436 
1.9650002e+3, 2.9401213e+2, -130542.805, -217764.86, -0.009965095, 0.0000018265396, -0.0002532067, -130542.805, -71861.43, 0.0, 10.000006, 9.886214 
1.9650002e+3, 3.0392656e+2, -40798.875, -84750.055, 0.013826114, 0.0000018237153, 0.00017324183, -40798.875, -40798.875, 0.0, 10.000006, 9.94217 
1.9650002e+3, 3.138706e+2, -39720.88, -82511.12, -0.009667707, 0.0000018180177, -0.000055088993, -39720.88, -39720.88, 0.0, 10.000006, 9.943682 
1.9750002e+3, 1.2499339e+2, -1719938.6, -1724224.3, 0.010504079, 0.000001999572, 0.000018162498, -1719938.6, -4873.8276, 0.0, 10.000007, 9.994324 
1.9750002e+3, 1.3498764e+2, -1622558.3, -1627434.5, -0.021452827, 0.000001984298, -0.00006806773, -1622558.3, -5437.1, 0.0, 10.000007, 9.993542 
1.9750002e+3, 1.4497519e+2, -1534456.9, -1548145.8, 0.0049825544, 0.0000019709387, 0.0000714825, -1534456.9, -15213.593, 0.0, 10.000007, 9.981861 
1.9750002e+3, 1.5495706e+2, -1436729.3, -1450821.5, -0.022911632, 0.0000019590807, -0.00005655052, -1436729.3, -15308.474, 0.0, 10.000007, 9.98133 
1.9750002e+3, 1.6493231e+2, -1348678.3, -1371952.0, 0.007009127, 0.0000019491, 0.000047712307, -1348678.3, -25014.977, 0.0, 10.000007, 9.969245 
1.9750002e+3, 1.7490159e+2, -1250720.4, -1274309.9, -0.022557646, 0.000001941036, -0.000073444025, -1250720.4, -24756.01, 0.0, 10.000007, 9.968831 
1.9750002e+3, 1.8486424e+2, -1162639.4, -1195719.8, 0.0061751814, 0.0000019338281, 0.000066522094, -1162639.4, -34309.063, 0.0, 10.000007, 9.956392 
1.9750002e+3, 1.9482067e+2, -1064489.8, -1097832.6, -0.022158343, 0.0000019275144, -0.000057316498, -1064489.8, -33732.445, 0.0, 10.000006, 9.956049 
1.9750002e+3, 2.0477045e+2, -976325.8, -1019434.7, 0.00562831, 0.0000019183328, 0.000068392255, -976325.8, -43076.2, 0.0, 10.000006, 9.943288 
1.9750002e+3, 2.1471378e+2, -878038.9, -921409.6, -0.022343675, 0.0000019060445, -0.00012652673, -878038.9, -42233.83, 0.0, 10.000006, 9.942946 
1.9750002e+3, 2.2465041e+2, -789752.8, -843144.56, 0.0055927997, 0.0000018999003, 0.000121159275, -789752.8, -51326.727, 0.0, 10.000006, 9.929905 
1.9750002e+3, 2.3458037e+2, -691319.4, -744966.2, -0.019644633, 0.0000019007107, -0.00008856822, -691319.4, -50206.992, 0.0, 10.000006, 9.929574 
1.9750002e+3, 2.445034e+2, -602995.3, -667018.56, 0.007003473, 0.0000018959066, 0.000074936936, -602995.3, -59128.6, 0.0, 10.000006, 9.916133 
1.9750002e+3, 2.5441965e+2, -504242.72, -568343.1, -0.021828096, 0.0000018843878, -0.00010652146, -504242.72, -57555.297, 0.0, 10.000006, 9.916033 
1.9750002e+3, 2.6432884e+2, -416007.34, -490987.72, 0.0047994913, 0.0000018776788, 0.00014079007, -416007.34, -66429.77, 0.0, 10.000006, 9.901961 
1.9750002e+3, 2.742313e+2, -316722.2, -391374.66, -0.017644845, 0.000001877105, -0.00020327605, -316722.2, -64189.242, 0.0, 10.000006, 9.902382 
1.9750002e+3, 2.841256e+2, -230248.95, -318081.16, 0.009540389, 0.0000018750733, 0.000229191, -230248.95, -74680.02, 0.0, 10.000006, 9.885436 
1.9750002e+3, 2.9401213e+2, -130542.86, -217764.97, -0.014287415, 0.0000018710163, -0.00025321395, -130542.86, -71861.484, 0.0, 10.000006, 9.886214 
1.9750002e+3, 3.0392656e+2, -40798.93, -84750.17, 0.010593856, 0.0000018676441, 0.0001732405, -40798.93, -40798.93, 0.0, 10.000006, 9.94217 
1.9750002e+3, 3.138706e+2, -39720.934, -82511.234, -0.012772277, 0.0000018653102, -0.00005507584, -39720.934, -39720.934, 0.0, 10.000006, 9.943681 
1.9850002e+3, 1.2499339e+2, -1719938.1, -1724224.0, 0.023620104, 0.0000020518103, 0.000018176239, -1719938.1, -4873.3486, 0.0, 10.000007, 9.994324 
1.9850002e+3, 1.3498764e+2, -1622557.8, -1627434.3, -0.0071159755, 0.0000020310451, -0.00006807106, -1622557.8, -5436.637, 0.0, 10.000007, 9.993542 
1.9850002e+3, 1.4497519e+2, -1534456.4, -1548145.6, 0.019537082, 0.0000020163793, 0.00007150773, -1534456.4, -15213.134, 0.0, 10.000007, 9.981861 
1.9850002e+3, 1.5495706e+2, -1436728.8, -1450821.4, -0.011053789, 0.0000020074167, -0.00005654218, -1436728.8, -15308.016, 0.0, 10.000007, 9.98133 
1.9850002e+3, 1.6493231e+2, -1348677.9, -1371951.8, 0.019454515, 0.0000019985762, 0.00004771509, -1348677.9, -25014.521, 0.0, 10.000007, 9.969245 
1.9850002e+3, 1.7490159e+2, -1250719.9, -1274309.6, -0.010312464, 0.0000019898607, -0.000073435236, -1250719.9, -24755.559, 0.0, 10.000007, 9.968831 
1.9850002e+3, 1.8486424e+2, -1162639.0, -1195719.6, 0.018889198, 0.0000019815886, 0.000066532775, -1162639.0, -34308.613, 0.0, 10.000007, 9.956392 
1.9850002e+3, 1.9482067e+2, -1064489.3, -1097832.5, -0.010896096, 0.0000019737788, -0.000057308236, -1064489.3, -33732.0, 0.0, 10.000007, 9.956049 
1.9850002e+3, 2.0477045e+2, -976325.4, -1019434.56, 0.016256422, 0.0000019648671, 0.000068399204, -976325.4, -43075.754, 0.0, 10.000007, 9.943288 
1.9850002e+3, 2.1471378e+2, -878038.44, -921409.44, -0.012903429, 0.0000019547608, -0.0001265199, -878038.44, -42233.387, 0.0, 10.000007, 9.942946 
1.9850002e+3, 2.2465041e+2, -789752.4, -843144.44, 0.01521414, 0.0000019485742, 0.00012116524, -789752.4, -51326.29, 0.0, 10.000007, 9.929905 
1.9850002e+3, 2.3458037e+2, -691318.94, -744966.06, -0.014050938, 0.0000019468232, -0.00008856398, -691318.94, -50206.56, 0.0, 10.000007, 9.929574 
1.9850002e+3, 2.445034e+2, -602994.9, -667018.44, 0.012520079, 0.0000019413285, 0.00007494135, -602994.9, -59128.17, 0.0, 10.000007, 9.916133 
1.9850002e+3, 2.5441965e+2, -504242.28, -568343.0, -0.012148959, 0.0000019313563, -0.00010651458, -504242.28, -57554.863, 0.0, 10.000007, 9.916033 
1.9850002e+3, 2.6432884e+2, -416006.9, -490987.6, 0.015676899, 0.0000019252445, 0.00014079681, -416006.9, -66429.336, 0.0, 10.000007, 9.901961 
1.9850002e+3, 2.742313e+2, -316721.75, -391374.53, -0.013306887, 0.0000019240545, -0.00020327281, -316721.75, -64188.816, 0.0, 10.000007, 9.902382 
1.9850002e+3, 2.841256e+2, -230248.53, -318081.03, 0.011241437, 0.000001921668, 0.00022919214, -230248.53, -74679.6, 0.0, 10.000007, 9.885436 
1.9850002e+3, 2.9401213e+2, -130542.44, -217764.84, -0.012886503, 0.0000019176198, -0.00025321302, -130542.44, -71861.06, 0.0, 10.000007, 9.886214 
1.9850002e+3, 3.0392656e+2, -40798.516, -84750.055, 0.013417908, 0.0000019139566, 0.00017324215, -40798.516, -40798.516, 0.0, 10.000007, 9.94217 
1.9850002e+3, 3.138706e+2, -39720.516, -82511.12, -0.009107458, 0.0000019108838, -0.000055072098, -39720.516, -39720.516, 0.0, 10.000007, 9.943681 
1.9950002e+3, 1.2499339e+2, -1719938.1, -1724224.1, 0.0063794535, 0.0000021099702, 0.000018195798, -1719938.1, -4873.435, 0.0, 10.000007, 9.994324 
1.9950002e+3, 1.3498764e+2, -1622557.8, -1627434.5, -0.02436024, 0.0000020744833, -0.0000680756, -1622557.8, -5436.7227, 0.0, 10.000007, 9.993542 
1.9950002e+3, 1.4497519e+2, -1534456.4, -1548145.8, 0.0048842328, 0.000002057513, 0.0000715319, -1534456.4, -15213.218, 0.0, 10.000007, 9.981861 
1.9950002e+3, 1.5495706e+2, -1436728.9, -1450821.5, -0.025702724, 0.0000020587324, -0.00005653046, -1436728.9, -15308.098, 0.0, 10.000007, 9.98133 
1.9950002e+3, 1.6493231e+2, -1348677.9, -1371951.9, 0.0066304905, 0.0000020528578, 0.00004772075, -1348677.9, -25014.602, 0.0, 10.000007, 9.969245 
1.9950002e+3, 1.7490159e+2, -1250720.0, -1274309.8, -0.023127105, 0.0000020397406, -0.0000734291, -1250720.0, -24755.637, 0.0, 10.000007, 9.968831 
1.9950002e+3, 1.8486425e+2, -1162639.0, -1195719.8, 0.0072659682, 0.0000020285238, 0.00006654042, -1162639.0, -34308.69, 0.0, 10.000007, 9.956392 
1.9950002e+3, 1.9482067e+2, -1064489.4, -1097832.6, -0.022505712, 0.0000020192936, -0.000057297973, -1064489.4, -33732.074, 0.0, 10.000007, 9.956049 
1.9950002e+3, 2.0477045e+2, -976325.44, -1019434.7, 0.005341824, 0.0000020122739, 0.00006840839, -976325.44, -43075.83, 0.0, 10.000007, 9.943287 
1.9950002e+3, 2.1471378e+2, -878038.5, -921409.56, -0.023803875, 0.0000020076468, -0.00012651576, -878038.5, -42233.457, 0.0, 10.000007, 9.942946 
1.9950002e+3, 2.2465041e+2, -789752.44, -843144.56, 0.0065314188, 0.0000020005184, 0.000121170764, -789752.44, -51326.36, 0.0, 10.000007, 9.929905 
1.9950002e+3, 2.3458037e+2, -691319.0, -744966.2, -0.022661326, 0.0000019905567, -0.000088549765, -691319.0, -50206.63, 0.0, 10.000007, 9.929573 
1.9950002e+3, 2.445034e+2, -602994.94, -667018.56, 0.005233104, 0.0000019840609, 0.00007495492, -602994.94, -59128.234, 0.0, 10.000007, 9.916133 
1.9950002e+3, 2.5441965e+2, -504242.34, -568343.1, -0.019372668, 0.0000019817066, -0.000106512816, -504242.34, -57554.926, 0.0, 10.000007, 9.916033 
1.9950002e+3, 2.6432884e+2, -416006.97, -490987.72, 0.009075487, 0.000001977603, 0.00014079516, -416006.97, -66429.41, 0.0, 10.000007, 9.901961 
1.9950002e+3, 2.742313e+2, -316721.8, -391374.66, -0.019866753, 0.0000019712613, -0.00020326716, -316721.8, -64188.887, 0.0, 10.000007, 9.902382 
1.9950002e+3, 2.841256e+2, -230248.58, -318081.16, 0.0066586267, 0.000001967224, 0.0002292018, -230248.58, -74679.664, 0.0, 10.000007, 9.885436 
1.9950002e+3, 2.9401213e+2, -130542.49, -217764.95, -0.01729152, 0.0000019663498, -0.0002532039, -130542.49, -71861.125, 0.0, 10.000007, 9.886214 
1.9950002e+3, 3.0392656e+2, -40798.566, -84750.17, 0.01083147, 0.0000019626527, 0.00017324678, -40798.566, -40798.566, 0.0, 10.000007, 9.94217 
1.9950002e+3, 3.138706e+2, -39720.566, -82511.23, -0.0114808045, 0.000001954739, -0.00005507776, -39720.566, -39720.566, 0.0, 10.000007, 9.943681 
2.0050003e+3, 1.249934e+2, -1719937.6, -1724224.0, 0.027878739, 0.0000021607157, 0.000018218101, -1719937.6, -4872.942, 0.0, 10.000007, 9.994324 
2.0050003e+3, 1.3498765e+2, -1622557.3, -1627434.3, -0.0061969114, 0.0000021258434, -0.00006807988, -1622557.3, -5436.2354, 0.0, 10.000007, 9.993542 
2.0050003e+3, 1.4497519e+2, -1534455.9, -1548145.6, 0.023659948, 0.0000021088404, 0.00007155636, -1534455.9, -15212.732, 0.0, 10.000007, 9.981861 
2.0050003e+3, 1.5495707e+2, -1436728.4, -1450821.4, -0.008907283, 0.0000021093676, -0.000056518915, -1436728.4, -15307.613, 0.0, 10.000007, 9.98133 
2.0050003e+3, 1.6493231e+2, -1348677.4, -1371951.8, 0.02203755, 0.0000021032197, 0.00004772684, -1348677.4, -25014.12, 0.0, 10.000007, 9.969245 
2.0050003e+3, 1.7490159e+2, -1250719.5, -1274309.6, -0.011197886, 0.0000020902567, -0.000073420844, -1250719.5, -24755.16, 0.0, 10.000007, 9.968831 
2.0050003e+3, 1.8486425e+2, -1162638.5, -1195719.5, 0.018141037, 0.0000020784587, 0.00006654968, -1162638.5, -34308.22, 0.0, 10.000007, 9.956392 
2.0050003e+3, 1.9482067e+2, -1064488.9, -1097832.5, -0.012098632, 0.0000020678785, -0.000057288966, -1064488.9, -33731.61, 0.0, 10.000007, 9.956049 
2.0050003e+3, 2.0477045e+2, -976324.94, -1019434.5, 0.017254509, 0.0000020611888, 0.000068416084, -976324.94, -43075.363, 0.0, 10.000007, 9.943287 
2.0050003e+3, 2.1471378e+2, -878038.0, -921409.44, -0.012864426, 0.0000020587117, -0.00012651057, -878038.0, -42232.992, 0.0, 10.000007, 9.942946 
2.0050003e+3, 2.2465041e+2, -789751.94, -843144.44, 0.017312536, 0.0000020513341, 0.00012117647, -789751.94, -51325.895, 0.0, 10.000007, 9.929905 
2.0050003e+3, 2.3458037e+2, -691318.5, -744966.06, -0.01239813, 0.0000020384075, -0.000088540204, -691318.5, -50206.176, 0.0, 10.000007, 9.929573 
2.0050003e+3, 2.445034e+2, -602994.5, -667018.44, 0.015056831, 0.0000020312618, 0.000074963624, -602994.5, -59127.78, 0.0, 10.000007, 9.916133 
2.0050003e+3, 2.5441965e+2, -504241.88, -568343.0, -0.014540446, 0.0000020310254, -0.00010651063, -504241.88, -57554.473, 0.0, 10.000007, 9.916033 
2.0050003e+3, 2.6432884e+2, -416006.53, -490987.6, 0.013395562, 0.0000020276789, 0.0001407956, -416006.53, -66428.96, 0.0, 10.000007, 9.901961 
2.0050003e+3, 2.742313e+2, -316721.34, -391374.53, -0.012563431, 0.0000020203559, -0.00020326235, -316721.34, -64188.438, 0.0, 10.000007, 9.902382 
2.0050003e+3, 2.841256e+2, -230248.13, -318081.03, 0.015833829, 0.0000020155344, 0.00022920888, -230248.13, -74679.21, 0.0, 10.000007, 9.885435 
2.0050003e+3, 2.9401213e+2, -130542.05, -217764.83, -0.011209541, 0.0000020141533, -0.0002531975, -130542.05, -71860.68, 0.0, 10.000007, 9.886214 
2.0050003e+3, 3.0392656e+2, -40798.13, -84750.05, 0.014570711, 0.0000020106577, 0.00017325078, -40798.13, -40798.13, 0.0, 10.000007, 9.942169 
2.0050003e+3, 3.138706e+2, -39720.133, -82511.11, -0.012094066, 0.0000020039947, -0.000055078715, -39720.133, -39720.133, 0.0, 10.000007, 9.943681 
2.0150003e+3, 1.249934e+2, -1719937.8, -1724224.1, 0.009579989, 0.0000022040474, 0.000018243154, -1719937.8, -4873.037, 0.0, 10.000007, 9.994324 
2.0150003e+3, 1.3498765e+2, -1622557.4, -1627434.4, -0.024499388, 0.0000021851247, -0.0000680839, -1622557.4, -5436.329, 0.0, 10.000007, 9.993542 
2.0150003e+3, 1.4497519e+2, -1534456.0, -1548145.8, 0.009161494, 0.0000021703606, 0.00007158112, -1534456.0, -15212.821, 0.0, 10.000007, 9.981861 
2.0150003e+3, 1.5495707e+2, -1436728.4, -1450821.5, -0.023399953, 0.0000021593228, -0.000056507546, -1436728.4, -15307.701, 0.0, 10.000007, 9.98133 
2.0150003e+3, 1.6493231e+2, -1348677.5, -1371951.9, 0.008255334, 0.0000021496624, 0.00004773336, -1348677.5, -25014.207, 0.0, 10.000007, 9.969245 
2.0150003e+3, 1.7490159e+2, -1250719.5, -1274309.8, -0.024976479, 0.0000021414087, -0.00007341045, -1250719.5, -24755.246, 0.0, 10.000007, 9.968831 
2.0150003e+3, 1.8486425e+2, -1162638.6, -1195719.6, 0.004980173, 0.0000021313936, 0.00006656054, -1162638.6, -34308.297, 0.0, 10.000007, 9.956392 
2.0150003e+3, 1.9482067e+2, -1064489.0, -1097832.6, -0.025252627, 0.000002119533, -0.000057281217, -1064489.0, -33731.688, 0.0, 10.000007, 9.956049 
2.0150003e+3, 2.0477045e+2, -976325.0, -1019434.6, 0.0077786245, 0.0000021116116, 0.00006842226, -976325.0, -43075.44, 0.0, 10.000007, 9.943287 
2.0150003e+3, 2.1471378e+2, -878038.06, -921409.56, -0.0222646, 0.0000021079557, -0.00012650428, -878038.06, -42233.066, 0.0, 10.000007, 9.942946 
2.0150003e+3, 2.2465041e+2, -789752.0, -843144.56, 0.006857829, 0.000002101022, 0.00012118234, -789752.0, -51325.97, 0.0, 10.000007, 9.929904 
2.0150003e+3, 2.3458037e+2, -691318.56, -744966.2, -0.022887554, 0.0000020903753, -0.00008853529, -691318.56, -50206.246, 0.0, 10.000007, 9.929573 
2.0150003e+3, 2.4450341e+2, -602994.56, -667018.56, 0.0074865352, 0.0000020829305, 0.00007496745, -602994.56, -59127.855, 0.0, 10.000007, 9.916133 
2.0150003e+3, 2.5441965e+2, -504241.97, -568343.1, -0.02197072, 0.0000020793127, -0.00010650804, -504241.97, -57554.543, 0.0, 10.000007, 9.916033 
2.0150003e+3, 2.6432884e+2, -416006.6, -490987.72, 0.0074095964, 0.0000020754724, 0.00014079815, -416006.6, -66429.02, 0.0, 10.000007, 9.901961 
2.0150003e+3, 2.742313e+2, -316721.4, -391374.63, -0.01845291, 0.000002071338, -0.00020325836, -316721.4, -64188.5, 0.0, 10.000007, 9.902382 
2.0150003e+3, 2.841256e+2, -230248.19, -318081.16, 0.0109436475, 0.0000020665984, 0.00022921337, -230248.19, -74679.28, 0.0, 10.000007, 9.885435 
2.0150003e+3, 2.9401213e+2, -130542.11, -217764.95, -0.016009971, 0.00000206103, -0.0002531938, -130542.11, -71860.74, 0.0, 10.000007, 9.886214 
2.0150003e+3, 3.0392656e+2, -40798.19, -84750.18, 0.010990949, 0.0000020579716, 0.00017325416, -40798.19, -40798.19, 0.0, 10.000007, 9.942169 
2.0150003e+3, 3.138706e+2, -39720.195, -82511.24, -0.015530779, 0.0000020586508, -0.00005507497, -39720.195, -39720.195, 0.0, 10.000007, 9.943681 
2.0250003e+3, 1.249934e+2, -1719937.3, -1724224.0, 0.02493178, 0.0000022541178, 0.000018258412, -1719937.3, -4872.533, 0.0, 10.000008, 9.994324 
2.0250003e+3, 1.3498765e+2, -1622556.9, -1627434.3, -0.00878088, 0.0000022407714, -0.000068089685, -1622556.9, -5435.8096, 0.0, 10.000008, 9.993541 
2.0250003e+3, 1.4497519e+2, -1534455.5, -1548145.5, 0.024350403, 0.0000022270897, 0.00007160785, -1534455.5, -15212.301, 0.0, 10.000008, 9.981861 
2.0250003e+3, 1.5495707e+2, -1436727.9, -1450821.3, -0.010821383, 0.000002212604, -0.000056497956, -1436727.9, -15307.193, 0.0, 10.000008, 9.98133 
2.0250003e+3, 1.6493233e+2, -1348677.0, -1371951.8, 0.021798117, 0.0000022008496, 0.000047737616, -1348677.0, -25013.705, 0.0, 10.000008, 9.969245 
2.0250003e+3, 1.7490159e+2, -1250719.0, -1274309.6, -0.009923255, 0.0000021918847, -0.00007339945, -1250719.0, -24754.75, 0.0, 10.000008, 9.968831 
2.0250003e+3, 1.8486425e+2, -1162638.1, -1195719.5, 0.020518227, 0.0000021830785, 0.0000665725, -1162638.1, -34307.805, 0.0, 10.000008, 9.956392 
2.0250003e+3, 1.9482069e+2, -1064488.5, -1097832.4, -0.013617055, 0.0000021744368, -0.000057274305, -1064488.5, -33731.19, 0.0, 10.000008, 9.956049 
2.0250003e+3, 2.0477045e+2, -976324.5, -1019434.5, 0.018377518, 0.0000021657738, 0.000068428184, -976324.5, -43074.95, 0.0, 10.000008, 9.943287 
2.0250003e+3, 2.1471378e+2, -878037.56, -921409.4, -0.013942888, 0.000002157087, -0.00012649494, -878037.56, -42232.586, 0.0, 10.000008, 9.942946 
2.0250003e+3, 2.2465041e+2, -789751.5, -843144.4, 0.014621713, 0.0000021495168, 0.00012119095, -789751.5, -51325.492, 0.0, 10.000007, 9.929904 
2.0250003e+3, 2.3458037e+2, -691318.06, -744966.0, -0.015479589, 0.0000021432095, -0.00008853214, -691318.06, -50205.766, 0.0, 10.000007, 9.929573 
2.0250003e+3, 2.4450341e+2, -602994.06, -667018.4, 0.01593254, 0.0000021368403, 0.00007496981, -602994.06, -59127.375, 0.0, 10.000007, 9.916133 
2.0250003e+3, 2.5441965e+2, -504241.47, -568342.94, -0.014405562, 0.0000021303947, -0.000106500906, -504241.47, -57554.07, 0.0, 10.000007, 9.916033 
2.0250003e+3, 2.6432884e+2, -416006.1, -490987.56, 0.014804294, 0.000002125182, 0.00014080598, -416006.1, -66428.555, 0.0, 10.000007, 9.901961 
2.0250003e+3, 2.742313e+2, -316720.94, -391374.5, -0.01464263, 0.0000021215362, -0.00020325501, -316720.94, -64188.03, 0.0, 10.000007, 9.902382 
2.0250003e+3, 2.841256e+2, -230247.72, -318081.0, 0.01345177, 0.0000021172555, 0.0002292141, -230247.72, -74678.81, 0.0, 10.000007, 9.885435 
2.0250003e+3, 2.9401213e+2, -130541.64, -217764.83, -0.01379421, 0.0000021120968, -0.00025319305, -130541.64, -71860.28, 0.0, 10.000007, 9.886214 
2.0250003e+3, 3.0392656e+2, -40797.73, -84750.05, 0.015487809, 0.0000021090875, 0.00017325567, -40797.73, -40797.73, 0.0, 10.000007, 9.942169 
2.0250003e+3, 3.138706e+2, -39719.734, -82511.11, -0.008294468, 0.0000021092803, -0.00005507155, -39719.734, -39719.734, 0.0, 10.000007, 9.943681 
2.0350002e+3, 1.249934e+2, -1719937.3, -1724224.1, 0.010629093, 0.0000023109264, 0.00001826388, -1719937.3, -4872.6284, 0.0, 10.000008, 9.994324 
2.0350002e+3, 1.3498765e+2, -1622556.9, -1627434.4, -0.023086471, 0.0000022927843, -0.00006809724, -1622556.9, -5435.9033, 0.0, 10.000008, 9.993541 
2.0350002e+3, 1.4497519e+2, -1534455.5, -1548145.8, 0.0072710454, 0.0000022790286, 0.00007163655, -1534455.5, -15212.396, 0.0, 10.000008, 9.981861 
2.0350002e+3, 1.5495707e+2, -1436728.0, -1450821.5, -0.027905207, 0.0000022692109, -0.000056490146, -1436728.0, -15307.287, 0.0, 10.000008, 9.981329 
2.0350002e+3, 1.6493233e+2, -1348677.0, -1371951.9, 0.0069577396, 0.0000022567813, 0.000047739617, -1348677.0, -25013.791, 0.0, 10.000008, 9.969245 
2.0350002e+3, 1.749016e+2, -1250719.1, -1274309.8, -0.02475212, 0.0000022416848, -0.00007338788, -1250719.1, -24754.834, 0.0, 10.000008, 9.968831 
2.0350002e+3, 1.8486425e+2, -1162638.1, -1195719.6, 0.008189054, 0.0000022335144, 0.00006658557, -1162638.1, -34307.89, 0.0, 10.000008, 9.956391 
2.0350002e+3, 1.9482069e+2, -1064488.5, -1097832.6, -0.025917461, 0.0000022325894, -0.000057268233, -1064488.5, -33731.277, 0.0, 10.000008, 9.956049 
2.0350002e+3, 2.0477045e+2, -976324.6, -1019434.6, 0.006518242, 0.0000022236748, 0.00006843386, -976324.6, -43075.03, 0.0, 10.000008, 9.943287 
2.0350002e+3, 2.1471378e+2, -878037.7, -921409.56, -0.02579329, 0.0000022061058, -0.00012648253, -878037.7, -42232.664, 0.0, 10.000008, 9.942946 
2.0350002e+3, 2.2465041e+2, -789751.56, -843144.56, 0.0054405243, 0.0000021968194, 0.000121202276, -789751.56, -51325.566, 0.0, 10.000007, 9.929904 
2.0350002e+3, 2.3458037e+2, -691318.1, -744966.2, -0.024573756, 0.00000219691, -0.000088530745, -691318.1, -50205.84, 0.0, 10.000007, 9.929573 
2.0350002e+3, 2.4450341e+2, -602994.1, -667018.5, 0.0071940296, 0.000002192991, 0.000074970696, -602994.1, -59127.45, 0.0, 10.000007, 9.916133 
2.0350002e+3, 2.5441965e+2, -504241.53, -568343.1, -0.023127265, 0.0000021842714, -0.00010648923, -504241.53, -57554.145, 0.0, 10.000007, 9.916033 
2.0350002e+3, 2.6432884e+2, -416006.2, -490987.72, 0.008555624, 0.0000021768071, 0.00014081912, -416006.2, -66428.625, 0.0, 10.000007, 9.901961 
2.0350002e+3, 2.742313e+2, -316721.0, -391374.63, -0.020725792, 0.0000021709502, -0.00020325232, -316721.0, -64188.1, 0.0, 10.000007, 9.902381 
2.0350002e+3, 2.841256e+2, -230247.78, -318081.13, 0.008330628, 0.0000021675057, 0.00022921107, -230247.78, -74678.88, 0.0, 10.000007, 9.885435 
2.0350002e+3, 2.9401213e+2, -130541.7, -217764.95, -0.018829001, 0.0000021673534, -0.0002531953, -130541.7, -71860.34, 0.0, 10.000007, 9.886213 
2.0350002e+3, 3.0392656e+2, -40797.79, -84750.17, 0.012326723, 0.0000021640049, 0.00017325532, -40797.79, -40797.79, 0.0, 10.000007, 9.942169 
2.0350002e+3, 3.138706e+2, -39719.79, -82511.234, -0.011236076, 0.000002155884, -0.000055068445, -39719.79, -39719.79, 0.0, 10.000007, 9.943681 
2.0450002e+3, 1.24993406e+2, -1719936.8, -1724223.9, 0.028691417, 0.0000023721343, 0.00001828393, -1719936.8, -4872.0713, 0.0, 10.000008, 9.994324 
2.0450002e+3, 1.3498765e+2, -1622556.4, -1627434.3, -0.009412261, 0.000002345403, -0.00006810593, -1622556.4, -5435.3716, 0.0, 10.000008, 9.993541 
2.0450002e+3, 1.4497519e+2, -1534455.0, -1548145.5, 0.020640774, 0.0000023296175, 0.000071661925, -1534455.0, -15211.871, 0.0, 10.000008, 9.981861 
2.0450002e+3, 1.5495707e+2, -1436727.4, -1450821.3, -0.011786379, 0.0000023243615, -0.000056477424, -1436727.4, -15306.759, 0.0, 10.000008, 9.981329 
2.0450002e+3, 1.6493233e+2, -1348676.5, -1371951.6, 0.02353796, 0.0000023138489, 0.00004774655, -1348676.5, -25013.264, 0.0, 10.000008, 9.969245 
2.0450002e+3, 1.749016e+2, -1250718.6, -1274309.6, -0.013021541, 0.0000022979696, -0.000073379706, -1250718.6, -24754.313, 0.0, 10.000008, 9.968831 
2.0450002e+3, 1.8486425e+2, -1162637.6, -1195719.5, 0.020558136, 0.0000022883607, 0.00006659463, -1162637.6, -34307.37, 0.0, 10.000008, 9.956391 
2.0450002e+3, 1.9482069e+2, -1064488.0, -1097832.4, -0.012927048, 0.000002285312, -0.000057258643, -1064488.0, -33730.758, 0.0, 10.000008, 9.956049 
2.0450002e+3, 2.0477045e+2, -976324.06, -1019434.44, 0.019359266, 0.0000022763522, 0.000068443005, -976324.06, -43074.516, 0.0, 10.000008, 9.943287 
2.0450002e+3, 2.1471378e+2, -878037.1, -921409.4, -0.013850752, 0.00000226099, -0.00012647487, -878037.1, -42232.156, 0.0, 10.000008, 9.9429455 
2.0450002e+3, 2.2465041e+2, -789751.06, -843144.4, 0.018419549, 0.0000022521328, 0.0001212094, -789751.06, -51325.063, 0.0, 10.000008, 9.929904 
2.0450002e+3, 2.3458037e+2, -691317.6, -744966.0, -0.014556937, 0.0000022506401, -0.00008852307, -691317.6, -50205.34, 0.0, 10.000008, 9.929573 
2.0450002e+3, 2.4450341e+2, -602993.6, -667018.4, 0.016168209, 0.0000022460292, 0.00007497776, -602993.6, -59126.95, 0.0, 10.000008, 9.916133 
2.0450002e+3, 2.5441965e+2, -504241.03, -568342.94, -0.015454001, 0.0000022376844, -0.00010648419, -504241.03, -57553.645, 0.0, 10.000008, 9.916033 
2.0450002e+3, 2.6432884e+2, -416005.66, -490987.56, 0.01612731, 0.0000022302554, 0.00014082328, -416005.66, -66428.125, 0.0, 10.000008, 9.901961 
2.0450002e+3, 2.742313e+2, -316720.5, -391374.5, -0.014314289, 0.0000022239988, -0.00020324757, -316720.5, -64187.61, 0.0, 10.000008, 9.902381 
2.0450002e+3, 2.841256e+2, -230247.3, -318081.0, 0.015428635, 0.0000022206239, 0.00022921604, -230247.3, -74678.39, 0.0, 10.000008, 9.885435 
2.0450002e+3, 2.9401213e+2, -130541.21, -217764.81, -0.0129335895, 0.0000022211857, -0.0002531906, -130541.21, -71859.85, 0.0, 10.000008, 9.886213 
2.0450002e+3, 3.0392656e+2, -40797.305, -84750.04, 0.016347514, 0.0000022175275, 0.00017325842, -40797.305, -40797.305, 0.0, 10.000008, 9.942169 
2.0450002e+3, 3.138706e+2, -39719.31, -82511.1, -0.01314096, 0.0000022075712, -0.000055068896, -39719.31, -39719.31, 0.0, 10.000008, 9.943681 
2.0550002e+3, 1.24993406e+2, -1719936.8, -1724224.0, 0.0089958515, 0.0000024377412, 0.000018318571, -1719936.8, -4872.1777, 0.0, 10.000008, 9.994323 
2.0550002e+3, 1.3498765e+2, -1622556.5, -1627434.4, -0.029111847, 0.0000023986272, -0.00006811577, -1622556.5, -5435.4756, 0.0, 10.000008, 9.993541 
2.0550002e+3, 1.4497519e+2, -1534455.0, -1548145.6, 0.004639652, 0.0000023788568, 0.00007168398, -1534455.0, -15211.962, 0.0, 10.000008, 9.981861 
2.0550002e+3, 1.5495707e+2, -1436727.5, -1450821.4, -0.027782023, 0.0000023780558, -0.00005645979, -1436727.5, -15306.848, 0.0, 10.000008, 9.981329 
2.0550002e+3, 1.6493233e+2, -1348676.6, -1371951.9, 0.008090941, 0.0000023720522, 0.000047758425, -1348676.6, -25013.36, 0.0, 10.000008, 9.969245 
2.0550002e+3, 1.749016e+2, -1250718.6, -1274309.8, -0.028465869, 0.0000023607379, -0.00007337494, -1250718.6, -24754.406, 0.0, 10.000008, 9.968831 
2.0550002e+3, 1.8486425e+2, -1162637.8, -1195719.6, 0.008164367, 0.0000023476173, 0.00006659969, -1162637.8, -34307.457, 0.0, 10.000008, 9.956391 
2.0550002e+3, 1.9482069e+2, -1064488.1, -1097832.5, -0.02528578, 0.0000023326047, -0.000057245536, -1064488.1, -33730.844, 0.0, 10.000008, 9.956049 
2.0550002e+3, 2.0477045e+2, -976324.1, -1019434.6, 0.0063799764, 0.0000023238067, 0.00006845562, -976324.1, -43074.598, 0.0, 10.000008, 9.943287 
2.0550002e+3, 2.1471378e+2, -878037.2, -921409.5, -0.026843118, 0.0000023217387, -0.00012647199, -878037.2, -42232.24, 0.0, 10.000008, 9.9429455 
2.0550002e+3, 2.2465041e+2, -789751.1, -843144.5, 0.008527877, 0.0000023154564, 0.0001212123, -789751.1, -51325.145, 0.0, 10.000008, 9.929904 
2.0550002e+3, 2.3458038e+2, -691317.7, -744966.1, -0.02434749, 0.0000023044006, -0.00008850911, -691317.7, -50205.418, 0.0, 10.000008, 9.929573 
2.0550002e+3, 2.4450341e+2, -602993.7, -667018.5, 0.008407678, 0.000002295956, 0.00007499099, -602993.7, -59127.027, 0.0, 10.000008, 9.916132 
2.0550002e+3, 2.5441965e+2, -504241.1, -568343.06, -0.023117244, 0.0000022906343, -0.000106485786, -504241.1, -57553.72, 0.0, 10.000008, 9.916033 
2.0550002e+3, 2.6432884e+2, -416005.75, -490987.7, 0.008309485, 0.0000022855263, 0.00014081846, -416005.75, -66428.2, 0.0, 10.000008, 9.901961 
2.0550002e+3, 2.742313e+2, -316720.56, -391374.63, -0.0221428, 0.0000022806812, -0.0002032408, -316720.56, -64187.684, 0.0, 10.000008, 9.902381 
2.0550002e+3, 2.841256e+2, -230247.36, -318081.13, 0.010513646, 0.0000022766098, 0.00022922899, -230247.36, -74678.46, 0.0, 10.000008, 9.885435 
2.0550002e+3, 2.9401213e+2, -130541.27, -217764.94, -0.017586462, 0.0000022735937, -0.000253179, -130541.27, -71859.92, 0.0, 10.000008, 9.886213 
2.0550002e+3, 3.0392656e+2, -40797.375, -84750.18, 0.012852559, 0.0000022696554, 0.00017326495, -40797.375, -40797.375, 0.0, 10.000008, 9.942169 
2.0550002e+3, 3.138706e+2, -39719.38, -82511.24, -0.01650028, 0.000002264342, -0.000055072906, -39719.38, -39719.38, 0.0, 10.000008, 9.943681 
2.0650002e+3, 1.24993406e+2, -1719936.3, -1724223.9, 0.031256482, 0.0000024958517, 0.000018341108, -1719936.3, -4871.606, 0.0, 10.000009, 9.994323 
2.0650002e+3, 1.3498765e+2, -1622555.9, -1627434.1, -0.0069718836, 0.0000024581866, -0.00006811885, -1622555.9, -5434.9116, 0.0, 10.000009, 9.993541 
2.0650002e+3, 1.4497519e+2, -1534454.5, -1548145.5, 0.027305733, 0.0000024378517, 0.000071715534, -1534454.5, -15211.398, 0.0, 10.000009, 9.981861 
2.0650002e+3, 1.5495707e+2, -1436726.9, -1450821.3, -0.0112550985, 0.0000024344502, -0.000056449553, -1436726.9, -15306.293, 0.0, 10.000009, 9.981329 
2.0650002e+3, 1.6493233e+2, -1348676.0, -1371951.6, 0.023416597, 0.0000024283354, 0.0000477618, -1348676.0, -25012.81, 0.0, 10.000009, 9.969244 
2.0650002e+3, 1.749016e+2, -1250718.1, -1274309.5, -0.013544027, 0.0000024194517, -0.00007336365, -1250718.1, -24753.852, 0.0, 10.000008, 9.968831 
2.0650002e+3, 1.8486425e+2, -1162637.1, -1195719.4, 0.022139862, 0.0000024060323, 0.000066613284, -1162637.1, -34306.906, 0.0, 10.000008, 9.956391 
2.0650002e+3, 1.9482069e+2, -1064487.5, -1097832.4, -0.013556306, 0.0000023878652, -0.000057235517, -1064487.5, -33730.313, 0.0, 10.000008, 9.956048 
2.0650002e+3, 2.0477046e+2, -976323.6, -1019434.44, 0.018904578, 0.0000023788175, 0.000068462985, -976323.6, -43074.07, 0.0, 10.000008, 9.943287 
2.0650002e+3, 2.1471378e+2, -878036.7, -921409.4, -0.01596121, 0.0000023796456, -0.00012646627, -878036.7, -42231.703, 0.0, 10.000008, 9.9429455 
2.0650002e+3, 2.2465041e+2, -789750.6, -843144.4, 0.018591803, 0.000002373631, 0.00012121804, -789750.6, -51324.605, 0.0, 10.000008, 9.929904 
2.0650002e+3, 2.3458038e+2, -691317.2, -744966.0, -0.01668726, 0.0000023598666, -0.00008850144, -691317.2, -50204.887, 0.0, 10.000008, 9.929573 
2.0650002e+3, 2.4450341e+2, -602993.2, -667018.4, 0.01618584, 0.00000235035, 0.00007499869, -602993.2, -59126.5, 0.0, 10.000008, 9.916132 
2.0650002e+3, 2.5441965e+2, -504240.6, -568342.94, -0.015890129, 0.0000023459145, -0.00010648035, -504240.6, -57553.203, 0.0, 10.000008, 9.916033 
2.0650002e+3, 2.6432884e+2, -416005.22, -490987.53, 0.01627534, 0.0000023416046, 0.00014082277, -416005.22, -66427.69, 0.0, 10.000008, 9.901961 
2.0650002e+3, 2.742313e+2, -316720.06, -391374.47, -0.015288591, 0.0000023374407, -0.0002032362, -316720.06, -64187.164, 0.0, 10.000008, 9.902381 
2.0650002e+3, 2.841256e+2, -230246.83, -318080.97, 0.0169396, 0.0000023328946, 0.00022923335, -230246.83, -74677.945, 0.0, 10.000008, 9.885435 
2.0650002e+3, 2.9401213e+2, -130540.76, -217764.8, -0.014401681, 0.0000023278233, -0.00025317556, -130540.76, -71859.41, 0.0, 10.000008, 9.886213 
2.0650002e+3, 3.0392656e+2, -40796.867, -84750.04, 0.016211744, 0.0000023237556, 0.00017326792, -40796.867, -40796.867, 0.0, 10.000008, 9.942169 
2.0650002e+3, 3.138706e+2, -39718.87, -82511.11, -0.011637738, 0.000002321187, -0.00005506967, -39718.87, -39718.87, 0.0, 10.000008, 9.943681 
2.0750003e+3, 1.24993406e+2, -1719936.3, -1724224.0, 0.010349942, 0.0000025464672, 0.000018351553, -1719936.3, -4871.714, 0.0, 10.000009, 9.994323 
2.0750003e+3, 1.3498765e+2, -1622556.0, -1627434.4, -0.027882785, 0.0000025240806, -0.00006811517, -1622556.0, -5435.017, 0.0, 10.000009, 9.993541 
2.0750003e+3, 1.449752e+2, -1534454.6, -1548145.6, 0.009802711, 0.0000025066006, 0.000071756585, -1534454.6, -15211.504, 0.0, 10.000009, 9.98186 
2.0750003e+3, 1.5495707e+2, -1436727.0, -1450821.4, -0.028753022, 0.0000024935443, -0.000056446712, -1436727.0, -15306.396, 0.0, 10.000009, 9.981329 
2.0750003e+3, 1.6493233e+2, -1348676.1, -1371951.8, 0.009445985, 0.0000024826986, 0.000047756686, -1348676.1, -25012.908, 0.0, 10.000009, 9.969244 
2.0750003e+3, 1.749016e+2, -1250718.1, -1274309.8, -0.027496245, 0.000002474111, -0.00007334583, -1250718.1, -24753.95, 0.0, 10.000008, 9.968831 
2.0750003e+3, 1.8486425e+2, -1162637.3, -1195719.6, 0.0057237726, 0.000002463606, 0.00006663541, -1162637.3, -34307.0, 0.0, 10.000008, 9.956391 
2.0750003e+3, 1.9482069e+2, -1064487.6, -1097832.5, -0.030001227, 0.000002451093, -0.000057228586, -1064487.6, -33730.402, 0.0, 10.000008, 9.956048 
2.0750003e+3, 2.0477046e+2, -976323.7, -1019434.56, 0.008515136, 0.000002441384, 0.000068465095, -976323.7, -43074.16, 0.0, 10.000008, 9.943287 
2.0750003e+3, 2.1471378e+2, -878036.75, -921409.5, -0.02622593, 0.0000024347112, -0.00012645774, -878036.75, -42231.79, 0.0, 10.000008, 9.9429455 
2.0750003e+3, 2.2465041e+2, -789750.7, -843144.5, 0.007574203, 0.0000024266576, 0.00012122661, -789750.7, -51324.69, 0.0, 10.000008, 9.929904 
2.0750003e+3, 2.3458038e+2, -691317.25, -744966.1, -0.02772969, 0.0000024170383, -0.000088500055, -691317.25, -50204.973, 0.0, 10.000008, 9.929573 
2.0750003e+3, 2.4450341e+2, -602993.25, -667018.5, 0.0064946837, 0.0000024092114, 0.00007500085, -602993.25, -59126.582, 0.0, 10.000008, 9.916132 
2.0750003e+3, 2.5441965e+2, -504240.66, -568343.06, -0.025516737, 0.0000024035253, -0.00010646789, -504240.66, -57553.28, 0.0, 10.000008, 9.916032 
2.0750003e+3, 2.6432884e+2, -416005.28, -490987.7, 0.009968749, 0.0000023984903, 0.00014083617, -416005.28, -66427.766, 0.0, 10.000008, 9.901961 
2.0750003e+3, 2.742313e+2, -316720.13, -391374.63, -0.021372972, 0.0000023942769, -0.00020323381, -316720.13, -64187.242, 0.0, 10.000008, 9.902381 
2.0750003e+3, 2.841256e+2, -230246.9, -318081.13, 0.011263612, 0.0000023894786, 0.00022922915, -230246.9, -74678.016, 0.0, 10.000008, 9.885435 
2.0750003e+3, 2.9401213e+2, -130540.83, -217764.94, -0.02004118, 0.0000023838743, -0.0002531803, -130540.83, -71859.484, 0.0, 10.000008, 9.886213 
2.0750003e+3, 3.0392656e+2, -40796.934, -84750.18, 0.012917936, 0.000002379828, 0.00017326734, -40796.934, -40796.934, 0.0, 10.000008, 9.942169 
2.0750003e+3, 3.138706e+2, -39718.938, -82511.24, -0.0146566015, 0.0000023781058, -0.000055059194, -39718.938, -39718.938, 0.0, 10.000008, 9.943681 
2.0850003e+3, 1.2499341e+2, -1719935.8, -1724223.9, 0.028663684, 0.0000026033833, 0.000018368954, -1719935.8, -4871.1323, 0.0, 10.000009, 9.994323 
2.0850003e+3, 1.3498765e+2, -1622555.4, -1627434.1, -0.00944821, 0.0000025863794, -0.000068122594, -1622555.4, -5434.4204, 0.0, 10.000009, 9.993541 
2.0850003e+3, 1.449752e+2, -1534454.0, -1548145.4, 0.027934471, 0.000002570746, 0.00007178827, -1534454.0, -15210.907, 0.0, 10.000009, 9.98186 
2.0850003e+3, 1.5495707e+2, -1436726.4, -1450821.1, -0.013329975, 0.000002555968, -0.00005643511, -1436726.4, -15305.806, 0.0, 10.000009, 9.981329 
2.0850003e+3, 1.6493233e+2, -1348675.5, -1371951.6, 0.025734141, 0.0000025423565, 0.000047761427, -1348675.5, -25012.322, 0.0, 10.000009, 9.969244 
2.0850003e+3, 1.749016e+2, -1250717.6, -1274309.5, -0.010992027, 0.0000025299362, -0.00007333444, -1250717.6, -24753.383, 0.0, 10.000009, 9.96883 
2.0850003e+3, 1.8486425e+2, -1162636.6, -1195719.4, 0.022242725, 0.0000025206587, 0.00006664804, -1162636.6, -34306.438, 0.0, 10.000009, 9.956391 
2.0850003e+3, 1.9482069e+2, -1064487.0, -1097832.4, -0.016498428, 0.0000025146678, -0.000057220357, -1064487.0, -33729.83, 0.0, 10.000009, 9.956048 
2.0850003e+3, 2.0477046e+2, -976323.1, -1019434.4, 0.02146362, 0.0000025050724, 0.000068472604, -976323.1, -43073.586, 0.0, 10.000009, 9.943287 
2.0850003e+3, 2.1471378e+2, -878036.2, -921409.3, -0.016422274, 0.0000024915719, -0.00012644698, -878036.2, -42231.23, 0.0, 10.000009, 9.9429455 
2.0850003e+3, 2.2465041e+2, -789750.1, -843144.3, 0.017487204, 0.0000024815338, 0.000121237, -789750.1, -51324.14, 0.0, 10.000009, 9.929904 
2.0850003e+3, 2.3458038e+2, -691316.7, -744965.94, -0.016289342, 0.0000024754147, -0.00008849416, -691316.7, -50204.42, 0.0, 10.000009, 9.929573 
2.0850003e+3, 2.4450341e+2, -602992.7, -667018.3, 0.018724713, 0.0000024692918, 0.00007500532, -602992.7, -59126.03, 0.0, 10.000009, 9.916132 
2.0850003e+3, 2.5441965e+2, -504240.1, -568342.9, -0.016973523, 0.0000024631588, -0.000106461135, -504240.1, -57552.73, 0.0, 10.000009, 9.916032 
2.0850003e+3, 2.6432884e+2, -416004.72, -490987.53, 0.01747621, 0.0000024571993, 0.00014084297, -416004.72, -66427.22, 0.0, 10.000009, 9.90196 
2.0850003e+3, 2.742313e+2, -316719.6, -391374.47, -0.016797017, 0.0000024514584, -0.00020322978, -316719.6, -64186.7, 0.0, 10.000009, 9.902381 
2.0850003e+3, 2.841256e+2, -230246.36, -318080.97, 0.015396231, 0.0000024464855, 0.00022923174, -230246.36, -74677.484, 0.0, 10.000009, 9.885435 
2.0850003e+3, 2.9401213e+2, -130540.29, -217764.78, -0.015392068, 0.00000244256, -0.0002531773, -130540.29, -71858.945, 0.0, 10.000009, 9.886213 
2.0850003e+3, 3.0392656e+2, -40796.4, -84750.03, 0.01844888, 0.0000024385172, 0.00017327018, -40796.4, -40796.4, 0.0, 10.000009, 9.942169 
2.0850003e+3, 3.138706e+2, -39718.406, -82511.1, -0.011281507, 0.0000024342955, -0.00005505739, -39718.406, -39718.406, 0.0, 10.000009, 9.94368 
2.0950003e+3, 1.2499341e+2, -1719935.8, -1724224.0, 0.011737927, 0.0000026665996, 0.000018393317, -1719935.8, -4871.2407, 0.0, 10.000009, 9.994323 
2.0950003e+3, 1.3498767e+2, -1622555.4, -1627434.3, -0.026377482, 0.0000026450834, -0.000068141104, -1622555.4, -5434.527, 0.0, 10.000009, 9.993541 
2.0950003e+3, 1.449752e+2, -1534454.0, -1548145.6, 0.009402914, 0.0000026302876, 0.000071810595, -1534454.0, -15211.02, 0.0, 10.000009, 9.98186 
2.0950003e+3, 1.5495709e+2, -1436726.5, -1450821.4, -0.031864103, 0.0000026217206, -0.00005641475, -1436726.5, -15305.916, 0.0, 10.000009, 9.981329 
2.0950003e+3, 1.6493233e+2, -1348675.6, -1371951.8, 0.0077888514, 0.000002607308, 0.00004777602, -1348675.6, -25012.422, 0.0, 10.000009, 9.969244 
2.0950003e+3, 1.749016e+2, -1250717.6, -1274309.6, -0.02893466, 0.0000025869272, -0.0000733295, -1250717.6, -24753.479, 0.0, 10.000009, 9.96883 
2.0950003e+3, 1.8486425e+2, -1162636.8, -1195719.6, 0.009387007, 0.0000025771906, 0.00006665118, -1162636.8, -34306.54, 0.0, 10.000009, 9.956391 
2.0950003e+3, 1.9482069e+2, -1064487.1, -1097832.5, -0.029295478, 0.0000025785903, -0.00005721083, -1064487.1, -33729.926, 0.0, 10.000009, 9.956048 
2.0950003e+3, 2.0477046e+2, -976323.2, -1019434.56, 0.007590817, 0.0000025698828, 0.00006848551, -976323.2, -43073.68, 0.0, 10.000009, 9.943287 
2.0950003e+3, 2.1471378e+2, -878036.25, -921409.5, -0.030317543, 0.0000025502277, -0.00012643397, -878036.25, -42231.324, 0.0, 10.000009, 9.9429455 
2.0950003e+3, 2.2465041e+2, -789750.2, -843144.5, 0.006453295, 0.0000025382597, 0.00012124922, -789750.2, -51324.227, 0.0, 10.000009, 9.929904 
2.0950003e+3, 2.3458038e+2, -691316.75, -744966.1, -0.027230073, 0.0000025349955, -0.00008848376, -691316.75, -50204.508, 0.0, 10.000009, 9.929573 
2.0950003e+3, 2.4450341e+2, -602992.75, -667018.5, 0.00969105, 0.0000025305915, 0.00007501212, -602992.75, -59126.117, 0.0, 10.000009, 9.916132 
2.0950003e+3, 2.5441965e+2, -504240.16, -568343.06, -0.025915857, 0.000002524815, -0.0001064601, -504240.16, -57552.816, 0.0, 10.000009, 9.916032 
2.0950003e+3, 2.6432884e+2, -416004.8, -490987.7, 0.0099954335, 0.0000025177314, 0.00014084319, -416004.8, -66427.3, 0.0, 10.000009, 9.90196 
2.0950003e+3, 2.742313e+2, -316719.66, -391374.63, -0.024180114, 0.0000025089857, -0.0002032241, -316719.66, -64186.78, 0.0, 10.000009, 9.902381 
2.0950003e+3, 2.841256e+2, -230246.44, -318081.13, 0.0098700775, 0.000002503915, 0.00022924114, -230246.44, -74677.555, 0.0, 10.000009, 9.885435 
2.0950003e+3, 2.9401213e+2, -130540.36, -217764.94, -0.02075133, 0.0000025038798, -0.00025316657, -130540.36, -71859.02, 0.0, 10.000009, 9.886213 
2.0950003e+3, 3.0392656e+2, -40796.47, -84750.18, 0.014121998, 0.0000024998235, 0.00017327642, -40796.47, -40796.47, 0.0, 10.000009, 9.942169 
2.0950003e+3, 3.138706e+2, -39718.48, -82511.25, -0.015487674, 0.000002489756, -0.000055064254, -39718.48, -39718.48, 0.0, 10.000009, 9.94368 
2.1050003e+3, 1.2499341e+2, -1719935.1, -1724223.8, 0.033904925, 0.0000027356732, 0.000018420313, -1719935.1, -4870.603, 0.0, 10.00001, 9.994323 
2.1050003e+3, 1.3498767e+2, -1622554.8, -1627434.1, -0.011912885, 0.000002705945, -0.000068153575, -1622554.8, -5433.911, 0.0, 10.00001, 9.993541 
2.1050003e+3, 1.449752e+2, -1534453.4, -1548145.4, 0.023422485, 0.000002688877, 0.00007183786, -1534453.4, -15210.408, 0.0, 10.00001, 9.98186 
2.1050003e+3, 1.5495709e+2, -1436725.9, -1450821.1, -0.012548159, 0.000002684004, -0.00005639877, -1436725.9, -15305.306, 0.0, 10.000009, 9.981329 
2.1050003e+3, 1.6493233e+2, -1348675.0, -1371951.5, 0.027253585, 0.0000026719783, 0.0000477858, -1348675.0, -25011.816, 0.0, 10.000009, 9.969244 
2.1050003e+3, 1.749016e+2, -1250717.0, -1274309.5, -0.016235642, 0.00000265265, -0.000073320705, -1250717.0, -24752.875, 0.0, 10.000009, 9.96883 
2.1050003e+3, 1.8486425e+2, -1162636.1, -1195719.4, 0.022945669, 0.0000026408782, 0.00006666024, -1162636.1, -34305.934, 0.0, 10.000009, 9.956391 
2.1050003e+3, 1.9482069e+2, -1064486.5, -1097832.3, -0.015210164, 0.000002637011, -0.0000572002, -1064486.5, -33729.332, 0.0, 10.000009, 9.956048 
2.1050003e+3, 2.0477046e+2, -976322.56, -1019434.4, 0.021809328, 0.0000026278803, 0.00006849611, -976322.56, -43073.09, 0.0, 10.000009, 9.943286 
2.1050003e+3, 2.1471378e+2, -878035.7, -921409.3, -0.01600883, 0.0000026130474, -0.00012642512, -878035.7, -42230.74, 0.0, 10.000009, 9.9429455 
2.1050003e+3, 2.2465041e+2, -789749.56, -843144.3, 0.021062844, 0.0000026027212, 0.000121257246, -789749.56, -51323.64, 0.0, 10.000009, 9.929904 
2.1050003e+3, 2.3458038e+2, -691316.2, -744965.94, -0.017791247, 0.0000025974966, -0.000088475506, -691316.2, -50203.926, 0.0, 10.000009, 9.929572 
2.1050003e+3, 2.4450341e+2, -602992.2, -667018.3, 0.017987149, 0.0000025915829, 0.00007501924, -602992.2, -59125.543, 0.0, 10.000009, 9.916132 
2.1050003e+3, 2.5441965e+2, -504239.6, -568342.9, -0.01861565, 0.0000025848387, -0.000106455715, -504239.6, -57552.242, 0.0, 10.000009, 9.916032 
2.1050003e+3, 2.6432884e+2, -416004.22, -490987.5, 0.017744856, 0.0000025775098, 0.000140847, -416004.22, -66426.73, 0.0, 10.000009, 9.90196 
2.1050003e+3, 2.742313e+2, -316719.1, -391374.44, -0.016291784, 0.0000025694362, -0.00020321811, -316719.1, -64186.215, 0.0, 10.000009, 9.902381 
2.1050003e+3, 2.841256e+2, -230245.86, -318080.94, 0.018760497, 0.0000025646261, 0.00022924821, -230245.86, -74676.99, 0.0, 10.000009, 9.885434 
2.1050003e+3, 2.9401213e+2, -130539.8, -217764.77, -0.014604438, 0.0000025642832, -0.00025315993, -130539.8, -71858.46, 0.0, 10.000009, 9.886213 
2.1050003e+3, 3.0392656e+2, -40795.914, -84750.03, 0.018603442, 0.0000025603424, 0.00017328073, -40795.914, -40795.914, 0.0, 10.000009, 9.942168 
2.1050003e+3, 3.138706e+2, -39717.918, -82511.09, -0.014709955, 0.0000025510235, -0.000055065095, -39717.918, -39717.918, 0.0, 10.000009, 9.94368 
2.1150002e+3, 1.2499341e+2, -1719935.3, -1724224.0, 0.012430735, 0.0000028106037, 0.000018449946, -1719935.3, -4870.7305, 0.0, 10.00001, 9.994323 
2.1150002e+3, 1.3498767e+2, -1622554.9, -1627434.3, -0.03339124, 0.0000027689634, -0.00006816002, -1622554.9, -5434.036, 0.0, 10.00001, 9.993541 
2.1150002e+3, 1.449752e+2, -1534453.5, -1548145.5, 0.004970414, 0.0000027465144, 0.00007187005, -1534453.5, -15210.509, 0.0, 10.00001, 9.98186 
2.1150002e+3, 1.5495709e+2, -1436725.9, -1450821.3, -0.030996034, 0.0000027428184, -0.00005638718, -1436725.9, -15305.405, 0.0, 10.000009, 9.981329 
2.1150002e+3, 1.6493234e+2, -1348675.0, -1371951.8, 0.009672176, 0.0000027363672, 0.00004779078, -1348675.0, -25011.93, 0.0, 10.000009, 9.969244 
2.1150002e+3, 1.749016e+2, -1250717.1, -1274309.6, -0.033812605, 0.000002727104, -0.000073308045, -1250717.1, -24752.986, 0.0, 10.000009, 9.96883 
2.1150002e+3, 1.8486427e+2, -1162636.3, -1195719.5, 0.008324423, 0.0000027117205, 0.00006667523, -1162636.3, -34306.035, 0.0, 10.000009, 9.956391 
2.1150002e+3, 1.9482069e+2, -1064486.6, -1097832.5, -0.029797627, 0.0000026899313, -0.000057188467, -1064486.6, -33729.43, 0.0, 10.000009, 9.956048 
2.1150002e+3, 2.0477046e+2, -976322.7, -1019434.5, 0.007832392, 0.0000026790663, 0.000068504414, -976322.7, -43073.188, 0.0, 10.000009, 9.943286 
2.1150002e+3, 2.147138e+2, -878035.75, -921409.44, -0.029973485, 0.000002680031, -0.00012642042, -878035.75, -42230.832, 0.0, 10.000009, 9.9429455 
2.1150002e+3, 2.2465041e+2, -789749.7, -843144.44, 0.009523812, 0.0000026749176, 0.00012126109, -789749.7, -51323.74, 0.0, 10.000009, 9.929904 
2.1150002e+3, 2.3458038e+2, -691316.25, -744966.06, -0.029251259, 0.000002662918, -0.0000884694, -691316.25, -50204.02, 0.0, 10.000009, 9.929572 
2.1150002e+3, 2.4450341e+2, -602992.25, -667018.44, 0.00896803, 0.0000026522662, 0.000075026706, -602992.25, -59125.633, 0.0, 10.000009, 9.916132 
2.1150002e+3, 2.5441965e+2, -504239.66, -568343.06, -0.027517792, 0.0000026432301, -0.000106447966, -504239.66, -57552.33, 0.0, 10.000009, 9.916032 
2.1150002e+3, 2.6432884e+2, -416004.3, -490987.66, 0.009352884, 0.0000026365342, 0.0001408544, -416004.3, -66426.81, 0.0, 10.000009, 9.90196 
2.1150002e+3, 2.742313e+2, -316719.16, -391374.6, -0.024649983, 0.0000026328098, -0.00020321179, -316719.16, -64186.297, 0.0, 10.000009, 9.902381 
2.1150002e+3, 2.841256e+2, -230245.94, -318081.1, 0.012830034, 0.000002628618, 0.00022925295, -230245.94, -74677.07, 0.0, 10.000009, 9.885434 
2.1150002e+3, 2.9401213e+2, -130539.87, -217764.92, -0.020316597, 0.0000026237703, -0.00025315737, -130539.87, -71858.54, 0.0, 10.000009, 9.886213 
2.1150002e+3, 3.0392656e+2, -40795.992, -84750.19, 0.015419876, 0.0000026200742, 0.00017328309, -40795.992, -40795.992, 0.0, 10.000009, 9.942168 
2.1150002e+3, 3.138706e+2, -39717.996, -82511.26, -0.017596984, 0.0000026180971, -0.00005505991, -39717.996, -39717.996, 0.0, 10.000009, 9.94368 
2.1250002e+3, 1.2499342e+2, -1719934.5, -1724223.8, 0.032996885, 0.000002877629, 0.000018470973, -1719934.5, -4870.0684, 0.0, 10.00001, 9.994323 
2.1250002e+3, 1.3498767e+2, -1622554.3, -1627434.0, -0.008263796, 0.0000028368588, -0.00006816329, -1622554.3, -5433.3867, 0.0, 10.00001, 9.99354 
2.1250002e+3, 1.449752e+2, -1534452.9, -1548145.4, 0.030892042, 0.0000028134887, 0.00007190866, -1534452.9, -15209.864, 0.0, 10.00001, 9.98186 
2.1250002e+3, 1.5495709e+2, -1436725.3, -1450821.1, -0.015077577, 0.0000028070574, -0.000056378358, -1436725.3, -15304.769, 0.0, 10.00001, 9.981329 
2.1250002e+3, 1.6493234e+2, -1348674.4, -1371951.5, 0.02494953, 0.0000028003076, 0.000047791473, -1348674.4, -25011.297, 0.0, 10.00001, 9.969244 
2.1250002e+3, 1.749016e+2, -1250716.5, -1274309.4, -0.015064088, 0.0000027932338, -0.00007329336, -1250716.5, -24752.348, 0.0, 10.00001, 9.96883 
2.1250002e+3, 1.8486427e+2, -1162635.5, -1195719.4, 0.026587995, 0.0000027780986, 0.00006669353, -1162635.5, -34305.4, 0.0, 10.00001, 9.956391 
2.1250002e+3, 1.9482069e+2, -1064486.0, -1097832.3, -0.0164807, 0.000002754526, -0.000057177407, -1064486.0, -33728.813, 0.0, 10.00001, 9.956048 
2.1250002e+3, 2.0477046e+2, -976322.06, -1019434.3, 0.02077363, 0.0000027430858, 0.00006851139, -976322.06, -43072.574, 0.0, 10.00001, 9.943286 
2.1250002e+3, 2.147138e+2, -878035.1, -921409.25, -0.019225236, 0.0000027447845, -0.00012641412, -878035.1, -42230.215, 0.0, 10.00001, 9.9429455 
2.1250002e+3, 2.2465043e+2, -789749.06, -843144.25, 0.020126507, 0.0000027395727, 0.000121267556, -789749.06, -51323.12, 0.0, 10.00001, 9.929903 
2.1250002e+3, 2.3458038e+2, -691315.6, -744965.9, -0.019859232, 0.0000027265319, -0.00008846185, -691315.6, -50203.406, 0.0, 10.00001, 9.929572 
2.1250002e+3, 2.4450341e+2, -602991.6, -667018.25, 0.018959034, 0.0000027153487, 0.000075035336, -602991.6, -59125.023, 0.0, 10.00001, 9.916132 
2.1250002e+3, 2.5441965e+2, -504239.06, -568342.9, -0.017992249, 0.0000027063913, -0.00010643826, -504239.06, -57551.73, 0.0, 10.00001, 9.916032 
2.1250002e+3, 2.6432884e+2, -416003.72, -490987.47, 0.019284336, 0.0000027000622, 0.00014086279, -416003.72, -66426.22, 0.0, 10.00001, 9.90196 
2.1250002e+3, 2.7423134e+2, -316718.56, -391374.4, -0.017923959, 0.0000026970697, -0.0002032078, -316718.56, -64185.7, 0.0, 10.00001, 9.902381 
2.1250002e+3, 2.841256e+2, -230245.34, -318080.94, 0.018165253, 0.0000026927542, 0.00022925413, -230245.34, -74676.48, 0.0, 10.00001, 9.885434 
2.1250002e+3, 2.9401213e+2, -130539.27, -217764.75, -0.01790747, 0.0000026866098, -0.00025315688, -130539.27, -71857.945, 0.0, 10.000009, 9.886213 
2.1250002e+3, 3.0392656e+2, -40795.402, -84750.03, 0.01877263, 0.0000026824803, 0.00017328474, -40795.402, -40795.402, 0.0, 10.000009, 9.942168 
2.1250002e+3, 3.138706e+2, -39717.414, -82511.09, -0.011927968, 0.0000026813627, -0.00005505449, -39717.414, -39717.414, 0.0, 10.000009, 9.94368 
2.1350005e+3, 1.2499342e+2, -1719934.6, -1724223.9, 0.009247484, 0.0000029367504, 0.000018483406, -1719934.6, -4870.186, 0.0, 10.00001, 9.994323 
2.1350002e+3, 1.3498767e+2, -1622554.3, -1627434.3, -0.032018337, 0.0000029096307, -0.00006816338, -1622554.3, -5433.5024, 0.0, 10.00001, 9.99354 
2.1350002e+3, 1.449752e+2, -1534452.9, -1548145.5, 0.010873054, 0.0000028897987, 0.000071953684, -1534452.9, -15209.989, 0.0, 10.00001, 9.98186 
2.1350002e+3, 1.5495709e+2, -1436725.4, -1450821.3, -0.03509089, 0.00000287672, -0.000056372304, -1436725.4, -15304.892, 0.0, 10.00001, 9.981328 
2.1350002e+3, 1.6493234e+2, -1348674.5, -1371951.8, 0.009339695, 0.0000028637994, 0.000047787875, -1348674.5, -25011.404, 0.0, 10.00001, 9.969244 
2.1350002e+3, 1.7490162e+2, -1250716.6, -1274309.6, -0.030651173, 0.0000028510412, -0.000073276664, -1250716.6, -24752.453, 0.0, 10.00001, 9.96883 
2.1350002e+3, 1.8486427e+2, -1162635.6, -1195719.5, 0.008193954, 0.0000028400132, 0.00006671513, -1162635.6, -34305.508, 0.0, 10.00001, 9.95639 
2.1350002e+3, 1.9482069e+2, -1064486.0, -1097832.5, -0.03490745, 0.0000028307934, -0.000057167024, -1064486.0, -33728.92, 0.0, 10.00001, 9.956048 
2.1350002e+3, 2.0477046e+2, -976322.1, -1019434.5, 0.008162426, 0.0000028199374, 0.00006851704, -976322.1, -43072.676, 0.0, 10.00001, 9.943286 
2.1350002e+3, 2.147138e+2, -878035.2, -921409.44, -0.031716798, 0.0000028073084, -0.00012640617, -878035.2, -42230.316, 0.0, 10.00001, 9.9429455 
2.1350002e+3, 2.2465043e+2, -789749.1, -843144.44, 0.008384134, 0.0000027966876, 0.00012127665, -789749.1, -51323.223, 0.0, 10.00001, 9.929903 
2.1350002e+3, 2.3458038e+2, -691315.75, -744966.06, -0.03157736, 0.0000027883389, -0.000088452856, -691315.75, -50203.504, 0.0, 10.00001, 9.929572 
2.1350002e+3, 2.4450341e+2, -602991.7, -667018.44, 0.007752098, 0.0000027808305, 0.00007504513, -602991.7, -59125.113, 0.0, 10.00001, 9.916132 
2.1350002e+3, 2.5441965e+2, -504239.16, -568343.0, -0.029175095, 0.000002774322, -0.000106426596, -504239.16, -57551.82, 0.0, 10.00001, 9.916032 
2.1350002e+3, 2.6432884e+2, -416003.78, -490987.66, 0.011837991, 0.000002768093, 0.00014087213, -416003.78, -66426.305, 0.0, 10.00001, 9.90196 
2.1350002e+3, 2.7423134e+2, -316718.63, -391374.6, -0.025120197, 0.0000027622161, -0.00020320615, -316718.63, -64185.79, 0.0, 10.00001, 9.90238 
2.1350002e+3, 2.841256e+2, -230245.42, -318081.1, 0.012152417, 0.0000027570347, 0.00022925173, -230245.42, -74676.56, 0.0, 10.00001, 9.885434 
2.1350002e+3, 2.9401213e+2, -130539.36, -217764.92, -0.02381401, 0.0000027528015, -0.00025315836, -130539.36, -71858.03, 0.0, 10.000009, 9.886212 
2.1350002e+3, 3.0392656e+2, -40795.48, -84750.19, 0.01438073, 0.000002747561, 0.00017328569, -40795.48, -40795.48, 0.0, 10.000009, 9.942168 
2.1350002e+3, 3.138706e+2, -39717.49, -82511.25, -0.016142692, 0.0000027408214, -0.000055048833, -39717.49, -39717.49, 0.0, 10.000009, 9.94368 
2.1450005e+3, 1.2499342e+2, -1719934.0, -1724223.6, 0.03596385, 0.0000030020367, 0.00001850652, -1719934.0, -4869.513, 0.0, 10.0000105, 9.994322 
2.1450005e+3, 1.3498767e+2, -1622553.6, -1627434.0, -0.011193043, 0.0000029800312, -0.000068174275, -1622553.6, -5432.8164, 0.0, 10.0000105, 9.99354 
2.1450005e+3, 1.449752e+2, -1534452.3, -1548145.3, 0.030787935, 0.0000029621765, 0.00007198895, -1534452.3, -15209.303, 0.0, 10.0000105, 9.98186 
2.1450005e+3, 1.5495709e+2, -1436724.6, -1450821.0, -0.014307581, 0.000002947907, -0.000056356366, -1436724.6, -15304.211, 0.0, 10.00001, 9.981328 
2.1450005e+3, 1.6493234e+2, -1348673.8, -1371951.5, 0.030528154, 0.0000029320424, 0.000047795504, -1348673.8, -25010.73, 0.0, 10.00001, 9.969244 
2.1450002e+3, 1.7490162e+2, -1250715.9, -1274309.4, -0.014844964, 0.0000029145497, -0.00007326608, -1250715.9, -24751.8, 0.0, 10.00001, 9.96883 
2.1450002e+3, 1.8486427e+2, -1162635.0, -1195719.3, 0.023222972, 0.0000029047285, 0.00006672661, -1162635.0, -34304.86, 0.0, 10.00001, 9.95639 
2.1450002e+3, 1.948207e+2, -1064485.4, -1097832.3, -0.01865272, 0.0000029029322, -0.00005715682, -1064485.4, -33728.258, 0.0, 10.00001, 9.956048 
2.1450002e+3, 2.0477046e+2, -976321.44, -1019434.25, 0.025379818, 0.0000028926158, 0.00006852742, -976321.44, -43072.016, 0.0, 10.00001, 9.943286 
2.1450002e+3, 2.147138e+2, -878034.56, -921409.2, -0.019110307, 0.0000028730703, -0.00012639404, -878034.56, -42229.668, 0.0, 10.00001, 9.942945 
2.1450002e+3, 2.2465043e+2, -789748.5, -843144.25, 0.020609614, 0.0000028598063, 0.00012128826, -789748.5, -51322.582, 0.0, 10.00001, 9.929903 
2.1450002e+3, 2.3458038e+2, -691315.06, -744965.9, -0.01852483, 0.0000028536535, -0.000088444365, -691315.06, -50202.87, 0.0, 10.00001, 9.929572 
2.1450002e+3, 2.4450341e+2, -602991.06, -667018.25, 0.021001805, 0.0000028478678, 0.000075051255, -602991.06, -59124.484, 0.0, 10.00001, 9.916132 
2.1450002e+3, 2.5441965e+2, -504238.5, -568342.8, -0.020428818, 0.0000028425104, -0.00010642193, -504238.5, -57551.188, 0.0, 10.00001, 9.916032 
2.1450002e+3, 2.6432884e+2, -416003.16, -490987.47, 0.01942718, 0.000002836069, 0.00014087658, -416003.16, -66425.67, 0.0, 10.00001, 9.90196 
2.1450002e+3, 2.7423134e+2, -316718.0, -391374.4, -0.01952189, 0.0000028282443, -0.0002032003, -316718.0, -64185.164, 0.0, 10.00001, 9.90238 
2.1450002e+3, 2.841256e+2, -230244.8, -318080.9, 0.018700672, 0.0000028224179, 0.00022925826, -230244.8, -74675.945, 0.0, 10.00001, 9.885434 
2.1450002e+3, 2.9401213e+2, -130538.734, -217764.75, -0.016154017, 0.0000028193294, -0.00025315213, -130538.734, -71857.414, 0.0, 10.00001, 9.886212 
2.1450002e+3, 3.0392656e+2, -40794.867, -84750.016, 0.021346906, 0.000002813775, 0.0001732902, -40794.867, -40794.867, 0.0, 10.00001, 9.942168 
2.1450002e+3, 3.138706e+2, -39716.875, -82511.086, -0.015959261, 0.0000028045392, -0.00005504816, -39716.875, -39716.875, 0.0, 10.00001, 9.94368 
2.1550004e+3, 1.2499343e+2, -1719934.0, -1724223.9, 0.015807712, 0.0000030734866, 0.000018540326, -1719934.0, -4869.646, 0.0, 10.0000105, 9.994322 
2.1550004e+3, 1.3498767e+2, -1622553.8, -1627434.1, -0.03135314, 0.0000030480608, -0.00006819595, -1622553.8, -5432.947, 0.0, 10.0000105, 9.99354 
2.1550004e+3, 1.4497522e+2, -1534452.4, -1548145.5, 0.009938639, 0.0000030306228, 0.00007201446, -1534452.4, -15209.427, 0.0, 10.0000105, 9.98186 
2.1550004e+3, 1.5495709e+2, -1436724.8, -1450821.3, -0.035158224, 0.0000030206184, -0.000056330548, -1436724.8, -15304.332, 0.0, 10.00001, 9.981328 
2.1550004e+3, 1.6493234e+2, -1348673.9, -1371951.6, 0.010353328, 0.000003005036, 0.000047814352, -1348673.9, -25010.852, 0.0, 10.00001, 9.969243 
2.1550004e+3, 1.7490162e+2, -1250716.0, -1274309.6, -0.03501658, 0.000002983759, -0.00007326162, -1250716.0, -24751.92, 0.0, 10.00001, 9.96883 
2.1550004e+3, 1.8486427e+2, -1162635.1, -1195719.5, 0.0084884055, 0.0000029722446, 0.00006672795, -1162635.1, -34304.973, 0.0, 10.00001, 9.95639 
2.1550004e+3, 1.948207e+2, -1064485.5, -1097832.4, -0.033324815, 0.0000029709433, -0.000057146797, -1064485.5, -33728.367, 0.0, 10.00001, 9.956047 
2.1550004e+3, 2.0477046e+2, -976321.56, -1019434.44, 0.009867107, 0.0000029611217, 0.00006854255, -976321.56, -43072.13, 0.0, 10.00001, 9.943286 
2.1550004e+3, 2.147138e+2, -878034.6, -921409.4, -0.034640603, 0.0000029420698, -0.00012637768, -878034.6, -42229.78, 0.0, 10.00001, 9.942945 
2.1550004e+3, 2.2465043e+2, -789748.56, -843144.4, 0.007671451, 0.0000029289276, 0.00012130239, -789748.56, -51322.68, 0.0, 10.00001, 9.929903 
2.1550004e+3, 2.3458038e+2, -691315.2, -744966.06, -0.031378746, 0.000002922476, -0.00008843638, -691315.2, -50202.97, 0.0, 10.00001, 9.929572 
2.1550003e+3, 2.4450341e+2, -602991.2, -667018.44, 0.011231844, 0.0000029164605, 0.00007505371, -602991.2, -59124.586, 0.0, 10.00001, 9.916131 
2.1550003e+3, 2.5441965e+2, -504238.6, -568343.0, -0.030050898, 0.0000029109572, -0.00010642427, -504238.6, -57551.285, 0.0, 10.00001, 9.916032 
2.1550003e+3, 2.6432884e+2, -416003.25, -490987.63, 0.010693802, 0.0000029039895, 0.00014087617, -416003.25, -66425.77, 0.0, 10.00001, 9.90196 
2.1550003e+3, 2.7423134e+2, -316718.1, -391374.6, -0.02819609, 0.0000028951547, -0.00020319024, -316718.1, -64185.258, 0.0, 10.00001, 9.90238 
2.1550003e+3, 2.841256e+2, -230244.88, -318081.1, 0.012321964, 0.0000028889033, 0.00022927375, -230244.88, -74676.03, 0.0, 10.00001, 9.885434 
2.1550003e+3, 2.9401213e+2, -130538.81, -217764.9, -0.022326447, 0.0000028861934, -0.00025313816, -130538.81, -71857.5, 0.0, 10.00001, 9.886212 
2.1550003e+3, 3.0392656e+2, -40794.953, -84750.195, 0.01705494, 0.0000028811216, 0.00017329828, -40794.953, -40794.953, 0.0, 10.00001, 9.942168 
2.1550003e+3, 3.138706e+2, -39716.965, -82511.266, -0.02003082, 0.0000028725162, -0.000055052464, -39716.965, -39716.965, 0.0, 10.00001, 9.94368 
2.1650004e+3, 1.2499343e+2, -1719933.3, -1724223.6, 0.03683294, 0.0000031512795, 0.000018570345, -1719933.3, -4868.917, 0.0, 10.0000105, 9.994322 
2.1650004e+3, 1.3498768e+2, -1622553.0, -1627433.9, -0.0127207935, 0.0000031178727, -0.00006820938, -1622553.0, -5432.2354, 0.0, 10.0000105, 9.99354 
2.1650004e+3, 1.4497522e+2, -1534451.6, -1548145.3, 0.028662398, 0.0000030979963, 0.00007204794, -1534451.6, -15208.719, 0.0, 10.0000105, 9.981859 
2.1650004e+3, 1.5495709e+2, -1436724.0, -1450821.0, -0.015975317, 0.0000030911176, -0.000056313664, -1436724.0, -15303.627, 0.0, 10.0000105, 9.981328 
2.1650004e+3, 1.6493234e+2, -1348673.1, -1371951.4, 0.029694889, 0.000003078405, 0.00004782373, -1348673.1, -25010.152, 0.0, 10.0000105, 9.969243 
2.1650004e+3, 1.7490162e+2, -1250715.3, -1274309.4, -0.01762923, 0.0000030597366, -0.00007325047, -1250715.3, -24751.223, 0.0, 10.0000105, 9.968829 
2.1650004e+3, 1.8486427e+2, -1162634.4, -1195719.3, 0.027120361, 0.0000030456758, 0.00006673986, -1162634.4, -34304.277, 0.0, 10.0000105, 9.95639 
2.1650004e+3, 1.948207e+2, -1064484.8, -1097832.1, -0.019117171, 0.0000030364333, -0.000057135174, -1064484.8, -33727.684, 0.0, 10.0000105, 9.956047 
2.1650004e+3, 2.0477046e+2, -976320.9, -1019434.25, 0.023081835, 0.0000030258354, 0.00006855365, -976320.9, -43071.45, 0.0, 10.0000105, 9.943286 
2.1650004e+3, 2.147138e+2, -878033.94, -921409.2, -0.019437077, 0.0000030137678, -0.00012636735, -878033.94, -42229.105, 0.0, 10.0000105, 9.942945 
2.1650004e+3, 2.2465043e+2, -789747.9, -843144.2, 0.023424696, 0.0000030032134, 0.00012131172, -789747.9, -51322.008, 0.0, 10.0000105, 9.929903 
2.1650004e+3, 2.3458038e+2, -691314.5, -744965.8, -0.022001911, 0.0000029943703, -0.00008842829, -691314.5, -50202.297, 0.0, 10.0000105, 9.929572 
2.1650004e+3, 2.4450341e+2, -602990.5, -667018.25, 0.019891093, 0.000002986245, 0.00007506062, -602990.5, -59123.918, 0.0, 10.0000105, 9.916131 
2.1650004e+3, 2.5441965e+2, -504237.9, -568342.8, -0.020966243, 0.0000029789728, -0.000106418454, -504237.9, -57550.625, 0.0, 10.0000105, 9.916031 
2.1650004e+3, 2.6432884e+2, -416002.56, -490987.44, 0.020855945, 0.0000029714327, 0.0001408818, -416002.56, -66425.12, 0.0, 10.0000105, 9.90196 
2.1650004e+3, 2.7423134e+2, -316717.44, -391374.38, -0.019143445, 0.000002963547, -0.00020318363, -316717.44, -64184.605, 0.0, 10.0000105, 9.90238 
2.1650004e+3, 2.8412563e+2, -230244.22, -318080.9, 0.020811224, 0.000002957636, 0.00022928086, -230244.22, -74675.375, 0.0, 10.0000105, 9.885434 
2.1650004e+3, 2.9401213e+2, -130538.16, -217764.72, -0.018596152, 0.0000029544256, -0.00025313118, -130538.16, -71856.85, 0.0, 10.0000105, 9.886212 
2.1650004e+3, 3.0392656e+2, -40794.31, -84750.02, 0.020621952, 0.0000029499388, 0.0001733033, -40794.31, -40794.31, 0.0, 10.00001, 9.942168 
2.1650004e+3, 3.138706e+2, -39716.32, -82511.09, -0.014841252, 0.0000029435366, -0.00005505207, -39716.32, -39716.32, 0.0, 10.00001, 9.94368 
2.1750005e+3, 1.2499343e+2, -1719933.4, -1724223.9, 0.013112969, 0.0000032354149, 0.000018596593, -1719933.4, -4869.056, 0.0, 10.0000105, 9.994322 
2.1750005e+3, 1.3498768e+2, -1622553.1, -1627434.1, -0.03644542, 0.0000031894665, -0.00006821456, -1622553.1, -5432.372, 0.0, 10.0000105, 9.99354 
2.1750005e+3, 1.4497522e+2, -1534451.8, -1548145.4, 0.0075758584, 0.0000031642978, 0.000072089366, -1534451.8, -15208.843, 0.0, 10.0000105, 9.981859 
2.1750005e+3, 1.549571e+2, -1436724.1, -1450821.1, -0.037058227, 0.000003159405, -0.000056305707, -1436724.1, -15303.749, 0.0, 10.0000105, 9.981328 
2.1750005e+3, 1.6493234e+2, -1348673.3, -1371951.6, 0.009539959, 0.0000031521492, 0.000047823632, -1348673.3, -25010.28, 0.0, 10.0000105, 9.969243 
2.1750005e+3, 1.7490162e+2, -1250715.4, -1274309.5, -0.037779562, 0.0000031424822, -0.00007323263, -1250715.4, -24751.346, 0.0, 10.0000105, 9.968829 
2.1750005e+3, 1.8486427e+2, -1162634.5, -1195719.4, 0.010220164, 0.0000031250213, 0.000066762346, -1162634.5, -34304.395, 0.0, 10.0000105, 9.95639 
2.1750005e+3, 1.948207e+2, -1064484.9, -1097832.4, -0.035980172, 0.0000030994026, -0.000057121946, -1064484.9, -33727.8, 0.0, 10.0000105, 9.956047 
2.1750005e+3, 2.0477048e+2, -976320.94, -1019434.44, 0.007684776, 0.000003086758, 0.00006856073, -976320.94, -43071.56, 0.0, 10.0000105, 9.943286 
2.1750005e+3, 2.147138e+2, -878034.06, -921409.4, -0.034804333, 0.0000030881636, -0.00012636305, -878034.06, -42229.21, 0.0, 10.0000105, 9.942945 
2.1750005e+3, 2.2465043e+2, -789748.0, -843144.4, 0.010351637, 0.0000030826625, 0.00012131626, -789748.0, -51322.12, 0.0, 10.0000105, 9.929903 
2.1750005e+3, 2.3458038e+2, -691314.56, -744966.0, -0.03500024, 0.0000030693368, -0.00008842011, -691314.56, -50202.41, 0.0, 10.0000105, 9.929572 
2.1750005e+3, 2.4450341e+2, -602990.56, -667018.4, 0.009032625, 0.0000030572212, 0.000075071985, -602990.56, -59124.02, 0.0, 10.0000105, 9.916131 
2.1750005e+3, 2.5441965e+2, -504238.0, -568343.0, -0.031722374, 0.0000030465571, -0.0001064045, -504238.0, -57550.727, 0.0, 10.0000105, 9.916031 
2.1750005e+3, 2.6432884e+2, -416002.66, -490987.63, 0.0119678555, 0.0000030383987, 0.00014089348, -416002.66, -66425.21, 0.0, 10.0000105, 9.901959 
2.1750005e+3, 2.7423134e+2, -316717.53, -391374.56, -0.027906744, 0.000003033422, -0.00020318046, -316717.53, -64184.7, 0.0, 10.0000105, 9.90238 
2.1750005e+3, 2.8412563e+2, -230244.31, -318081.06, 0.014079486, 0.000003028616, 0.00022927961, -230244.31, -74675.48, 0.0, 10.0000105, 9.885434 
2.1750005e+3, 2.9401213e+2, -130538.25, -217764.9, -0.025145296, 0.000003024026, -0.0002531312, -130538.25, -71856.945, 0.0, 10.0000105, 9.886212 
2.1750005e+3, 3.0392656e+2, -40794.395, -84750.195, 0.016873116, 0.000003020226, 0.00017330526, -40794.395, -40794.395, 0.0, 10.00001, 9.942168 
2.1750005e+3, 3.138706e+2, -39716.402, -82511.266, -0.018261833, 0.0000030176006, -0.000055046978, -39716.402, -39716.402, 0.0, 10.00001, 9.943679 
2.1850005e+3, 1.24993436e+2, -1719932.6, -1724223.5, 0.037447512, 0.0000033108904, 0.000018620247, -1719932.6, -4868.2954, 0.0, 10.000011, 9.994322 
2.1850005e+3, 1.3498768e+2, -1622552.4, -1627433.9, -0.011538748, 0.0000032665234, -0.000068220295, -1622552.4, -5431.625, 0.0, 10.000011, 9.99354 
2.1850005e+3, 1.4497522e+2, -1534450.9, -1548145.1, 0.03302034, 0.0000032410012, 0.000072133174, -1534450.9, -15208.103, 0.0, 10.000011, 9.981859 
2.1850005e+3, 1.549571e+2, -1436723.4, -1450820.9, -0.017570475, 0.000003233794, -0.00005629603, -1436723.4, -15303.019, 0.0, 10.000011, 9.981328 
2.1850005e+3, 1.6493234e+2, -1348672.5, -1371951.4, 0.02876598, 0.0000032254234, 0.000047824135, -1348672.5, -25009.549, 0.0, 10.000011, 9.969243 
2.1850005e+3, 1.7490162e+2, -1250714.6, -1274309.3, -0.018373996, 0.000003215867, -0.00007321582, -1250714.6, -24750.611, 0.0, 10.0000105, 9.968829 
2.1850005e+3, 1.8486427e+2, -1162633.8, -1195719.1, 0.029346203, 0.0000031990494, 0.00006678339, -1162633.8, -34303.668, 0.0, 10.0000105, 9.95639 
2.1850005e+3, 1.948207e+2, -1064484.1, -1097832.1, -0.019522654, 0.0000031746306, -0.000057109326, -1064484.1, -33727.09, 0.0, 10.0000105, 9.956047 
2.1850005e+3, 2.0477048e+2, -976320.2, -1019434.2, 0.024065675, 0.0000031616046, 0.00006856858, -976320.2, -43070.848, 0.0, 10.0000105, 9.943285 
2.1850005e+3, 2.147138e+2, -878033.3, -921409.1, -0.022460138, 0.0000031609165, -0.00012635603, -878033.3, -42228.5, 0.0, 10.0000105, 9.942945 
2.1850005e+3, 2.2465043e+2, -789747.25, -843144.2, 0.022613132, 0.0000031545974, 0.00012132379, -789747.25, -51321.414, 0.0, 10.0000105, 9.929903 
2.1850005e+3, 2.3458038e+2, -691313.9, -744965.8, -0.022231197, 0.0000031418983, -0.000088410576, -691313.9, -50201.707, 0.0, 10.0000105, 9.929571 
2.1850005e+3, 2.4450342e+2, -602989.9, -667018.2, 0.022217173, 0.000003129932, 0.00007508301, -602989.9, -59123.32, 0.0, 10.0000105, 9.916131 
2.1850005e+3, 2.5441965e+2, -504237.3, -568342.75, -0.022124035, 0.0000031188458, -0.000106392574, -504237.3, -57550.035, 0.0, 10.0000105, 9.916031 
2.1850005e+3, 2.6432884e+2, -416001.97, -490987.4, 0.021139722, 0.0000031106085, 0.00014090326, -416001.97, -66424.52, 0.0, 10.0000105, 9.901959 
2.1850005e+3, 2.7423134e+2, -316716.8, -391374.38, -0.020848809, 0.000003105992, -0.00020317666, -316716.8, -64184.016, 0.0, 10.0000105, 9.90238 
2.1850005e+3, 2.8412563e+2, -230243.63, -318080.88, 0.021047661, 0.0000031012594, 0.00022927992, -230243.63, -74674.79, 0.0, 10.0000105, 9.885434 
2.1850005e+3, 2.9401213e+2, -130537.56, -217764.7, -0.019620443, 0.0000030963479, -0.00025313097, -130537.56, -71856.266, 0.0, 10.0000105, 9.886212 
2.1850005e+3, 3.0392656e+2, -40793.72, -84750.01, 0.022615857, 0.0000030919973, 0.00017330679, -40793.72, -40793.72, 0.0, 10.0000105, 9.942168 
2.1850005e+3, 3.138706e+2, -39715.734, -82511.08, -0.014035224, 0.0000030884853, -0.000055042172, -39715.734, -39715.734, 0.0, 10.0000105, 9.943679 
2.1950005e+3, 1.24993436e+2, -1719932.8, -1724223.8, 0.011256984, 0.0000033777078, 0.000018641322, -1719932.8, -4868.4346, 0.0, 10.000011, 9.994322 
2.1950005e+3, 1.3498768e+2, -1622552.4, -1627434.1, -0.037734836, 0.000003349043, -0.00006822657, -1622552.4, -5431.762, 0.0, 10.000011, 9.993539 
2.1950005e+3, 1.4497522e+2, -1534451.0, -1548145.4, 0.010403004, 0.0000033281053, 0.00007217934, -1534451.0, -15208.242, 0.0, 10.000011, 9.981859 
2.1950005e+3, 1.549571e+2, -1436723.5, -1450821.1, -0.040182494, 0.000003314283, -0.00005628463, -1436723.5, -15303.154, 0.0, 10.000011, 9.981328 
2.1950005e+3, 1.6493236e+2, -1348672.6, -1371951.6, 0.010383083, 0.0000032982277, 0.00004782523, -1348672.6, -25009.676, 0.0, 10.000011, 9.969243 
2.1950005e+3, 1.7490162e+2, -1250714.8, -1274309.5, -0.0367352, 0.0000032798932, -0.00007320005, -1250714.8, -24750.736, 0.0, 10.0000105, 9.968829 
2.1950005e+3, 1.8486428e+2, -1162633.9, -1195719.4, 0.009435196, 0.0000032677608, 0.000066802975, -1162633.9, -34303.793, 0.0, 10.0000105, 9.95639 
2.1950005e+3, 1.948207e+2, -1064484.3, -1097832.4, -0.039451845, 0.0000032621156, -0.00005709731, -1064484.3, -33727.21, 0.0, 10.0000105, 9.956047 
2.1950005e+3, 2.0477048e+2, -976320.3, -1019434.4, 0.0090734735, 0.0000032503735, 0.0000685772, -976320.3, -43070.97, 0.0, 10.0000105, 9.943285 
2.1950005e+3, 2.147138e+2, -878033.44, -921409.3, -0.037350938, 0.0000032320268, -0.00012634628, -878033.44, -42228.617, 0.0, 10.0000105, 9.942945 
2.1950005e+3, 2.2465043e+2, -789747.4, -843144.4, 0.009069488, 0.0000032190192, 0.00012133431, -789747.4, -51321.527, 0.0, 10.0000105, 9.929903 
2.1950005e+3, 2.345804e+2, -691313.94, -744966.0, -0.035731174, 0.0000032120552, -0.000088399705, -691313.94, -50201.816, 0.0, 10.0000105, 9.929571 
2.1950005e+3, 2.4450342e+2, -602990.0, -667018.4, 0.010123367, 0.0000032043772, 0.0000750937, -602990.0, -59123.43, 0.0, 10.0000105, 9.916131 
2.1950005e+3, 2.5441965e+2, -504237.4, -568343.0, -0.03415073, 0.0000031958377, -0.0001063827, -504237.4, -57550.14, 0.0, 10.0000105, 9.916031 
2.1950005e+3, 2.6432884e+2, -416002.06, -490987.6, 0.012411803, 0.0000031880618, 0.00014091116, -416002.06, -66424.625, 0.0, 10.0000105, 9.901959 
2.1950005e+3, 2.7423134e+2, -316716.9, -391374.56, -0.029356092, 0.000003181257, -0.00020317224, -316716.9, -64184.117, 0.0, 10.0000105, 9.90238 
2.1950005e+3, 2.8412563e+2, -230243.72, -318081.06, 0.014226019, 0.0000031755656, 0.00022928177, -230243.72, -74674.89, 0.0, 10.0000105, 9.885433 
2.1950005e+3, 2.9401213e+2, -130537.66, -217764.9, -0.026290609, 0.000003171391, -0.0002531305, -130537.66, -71856.36, 0.0, 10.0000105, 9.886212 
2.1950005e+3, 3.0392656e+2, -40793.81, -84750.195, 0.01715979, 0.0000031652528, 0.00017330785, -40793.81, -40793.81, 0.0, 10.0000105, 9.942167 
2.1950005e+3, 3.138706e+2, -39715.824, -82511.266, -0.019349491, 0.000003156191, -0.000055037657, -39715.824, -39715.824, 0.0, 10.0000105, 9.943679 
2.2050005e+3, 1.24993436e+2, -1719931.9, -1724223.5, 0.042656235, 0.000003453685, 0.000018669238, -1719931.9, -4867.6514, 0.0, 10.000011, 9.994322 
2.2050005e+3, 1.3498768e+2, -1622551.6, -1627433.9, -0.012766442, 0.0000034290026, -0.000068240304, -1622551.6, -5430.975, 0.0, 10.000011, 9.993539 
2.2050005e+3, 1.4497522e+2, -1534450.3, -1548145.1, 0.034446552, 0.0000034093255, 0.00007221971, -1534450.3, -15207.454, 0.0, 10.000011, 9.981859 
2.2050005e+3, 1.549571e+2, -1436722.8, -1450820.9, -0.016364262, 0.0000033940103, -0.000056265973, -1436722.8, -15302.374, 0.0, 10.000011, 9.981327 
2.2050005e+3, 1.6493236e+2, -1348671.9, -1371951.4, 0.03426502, 0.0000033755086, 0.00004783437, -1348671.9, -25008.904, 0.0, 10.000011, 9.969243 
2.2050005e+3, 1.7490162e+2, -1250714.0, -1274309.3, -0.019102477, 0.0000033537542, -0.000073187955, -1250714.0, -24749.982, 0.0, 10.000011, 9.968829 
2.2050005e+3, 1.8486428e+2, -1162633.1, -1195719.1, 0.025821153, 0.0000033426836, 0.00006681573, -1162633.1, -34303.043, 0.0, 10.000011, 9.95639 
2.2050005e+3, 1.948207e+2, -1064483.5, -1097832.1, -0.021289399, 0.0000033427896, -0.000057086272, -1064483.5, -33726.453, 0.0, 10.000011, 9.956047 
2.2050005e+3, 2.0477048e+2, -976319.56, -1019434.1, 0.0288042, 0.0000033314057, 0.000068588604, -976319.56, -43070.215, 0.0, 10.000011, 9.943285 
2.2050005e+3, 2.147138e+2, -878032.7, -921409.1, -0.02240001, 0.0000033075753, -0.00012633223, -878032.7, -42227.875, 0.0, 10.000011, 9.942945 
2.2050005e+3, 2.2465043e+2, -789746.6, -843144.1, 0.023036662, 0.0000032921182, 0.000121347686, -789746.6, -51320.79, 0.0, 10.000011, 9.929902 
2.2050005e+3, 2.345804e+2, -691313.25, -744965.75, -0.023055974, 0.000003286141, -0.00008839071, -691313.25, -50201.086, 0.0, 10.000011, 9.929571 
2.2050005e+3, 2.4450342e+2, -602989.25, -667018.1, 0.023097314, 0.000003279762, 0.00007509955, -602989.25, -59122.703, 0.0, 10.000011, 9.916131 
2.2050005e+3, 2.5441965e+2, -504236.66, -568342.75, -0.023381814, 0.0000032728908, -0.00010637848, -504236.66, -57549.414, 0.0, 10.000011, 9.916031 
2.2050005e+3, 2.6432884e+2, -416001.3, -490987.38, 0.022604348, 0.0000032654195, 0.00014091596, -416001.3, -66423.91, 0.0, 10.000011, 9.901959 
2.2050005e+3, 2.7423134e+2, -316716.2, -391374.34, -0.022541795, 0.0000032571827, -0.000203164, -316716.2, -64183.4, 0.0, 10.000011, 9.90238 
2.2050005e+3, 2.8412563e+2, -230243.0, -318080.84, 0.021458218, 0.000003250708, 0.00022929114, -230243.0, -74674.18, 0.0, 10.000011, 9.885433 
2.2050005e+3, 2.9401213e+2, -130536.94, -217764.69, -0.01869831, 0.000003246645, -0.00025312311, -130536.94, -71855.65, 0.0, 10.000011, 9.886212 
2.2050005e+3, 3.0392656e+2, -40793.105, -84750.0, 0.023940146, 0.0000032398848, 0.00017331277, -40793.105, -40793.105, 0.0, 10.000011, 9.942167 
2.2050005e+3, 3.138706e+2, -39715.113, -82511.07, -0.019412981, 0.0000032291043, -0.00005503588, -39715.113, -39715.113, 0.0, 10.000011, 9.943679 
2.2150005e+3, 1.2499344e+2, -1719932.0, -1724223.8, 0.017893944, 0.00000353882, 0.000018704011, -1719932.0, -4867.807, 0.0, 10.000011, 9.994321 
2.2150005e+3, 1.3498768e+2, -1622551.8, -1627434.0, -0.037533425, 0.000003506403, -0.000068261514, -1622551.8, -5431.128, 0.0, 10.000011, 9.993539 
2.2150005e+3, 1.4497523e+2, -1534450.4, -1548145.3, 0.010717708, 0.0000034846628, 0.00007225427, -1534450.4, -15207.595, 0.0, 10.000011, 9.981859 
2.2150005e+3, 1.549571e+2, -1436722.9, -1450821.1, -0.040092006, 0.0000034729753, -0.00005624006, -1436722.9, -15302.512, 0.0, 10.000011, 9.981327 
2.2150005e+3, 1.6493236e+2, -1348672.0, -1371951.5, 0.012647576, 0.0000034572652, 0.00004785156, -1348672.0, -25009.047, 0.0, 10.000011, 9.969243 
2.2150005e+3, 1.7490163e+2, -1250714.1, -1274309.5, -0.04070906, 0.0000034374484, -0.00007317956, -1250714.1, -24750.121, 0.0, 10.000011, 9.968829 
2.2150005e+3, 1.8486428e+2, -1162633.1, -1195719.4, 0.0077868444, 0.0000034238167, 0.00006682166, -1162633.1, -34303.164, 0.0, 10.000011, 9.956389 
2.2150005e+3, 1.948207e+2, -1064483.5, -1097832.3, -0.039283074, 0.0000034166542, -0.000057076213, -1064483.5, -33726.574, 0.0, 10.000011, 9.956047 
2.2150005e+3, 2.0477048e+2, -976319.7, -1019434.4, 0.011629766, 0.0000034047023, 0.00006860279, -976319.7, -43070.344, 0.0, 10.000011, 9.943285 
2.2150005e+3, 2.147138e+2, -878032.75, -921409.3, -0.039557762, 0.0000033875615, -0.00012631393, -878032.75, -42228.004, 0.0, 10.000011, 9.942944 
2.2150005e+3, 2.2465043e+2, -789746.7, -843144.3, 0.008836183, 0.0000033738932, 0.000121363904, -789746.7, -51320.906, 0.0, 10.000011, 9.929902 
2.2150005e+3, 2.345804e+2, -691313.3, -744966.0, -0.03716035, 0.0000033641552, -0.000088383604, -691313.3, -50201.2, 0.0, 10.000011, 9.929571 
2.2150005e+3, 2.4450342e+2, -602989.3, -667018.4, 0.011625298, 0.0000033560866, 0.00007510058, -602989.3, -59122.816, 0.0, 10.000011, 9.916131 
2.2150005e+3, 2.5441965e+2, -504236.78, -568342.94, -0.03472773, 0.0000033500055, -0.00010637992, -504236.78, -57549.523, 0.0, 10.000011, 9.916031 
2.2150005e+3, 2.6432884e+2, -416001.44, -490987.6, 0.012367301, 0.000003342682, 0.00014091769, -416001.44, -66424.016, 0.0, 10.000011, 9.901959 
2.2150005e+3, 2.7423134e+2, -316716.3, -391374.56, -0.03270498, 0.0000033337699, -0.00020315195, -316716.3, -64183.508, 0.0, 10.000011, 9.902379 
2.2150005e+3, 2.8412563e+2, -230243.1, -318081.06, 0.014294489, 0.0000033266865, 0.00022930806, -230243.1, -74674.28, 0.0, 10.000011, 9.885433 
2.2150005e+3, 2.9401213e+2, -130537.03, -217764.89, -0.025592469, 0.0000033221102, -0.00025310882, -130537.03, -71855.75, 0.0, 10.000011, 9.886211 
2.2150005e+3, 3.0392656e+2, -40793.203, -84750.21, 0.020043747, 0.0000033158935, 0.00017332153, -40793.203, -40793.203, 0.0, 10.000011, 9.942167 
2.2150005e+3, 3.138706e+2, -39715.215, -82511.28, -0.022957763, 0.000003307225, -0.000055036846, -39715.215, -39715.215, 0.0, 10.000011, 9.943679 
2.2250006e+3, 1.2499344e+2, -1719931.3, -1724223.4, 0.039688475, 0.0000036269275, 0.000018736237, -1719931.3, -4866.98, 0.0, 10.000012, 9.994321 
2.2250006e+3, 1.349877e+2, -1622550.9, -1627433.8, -0.013665905, 0.0000035860512, -0.00006827616, -1622550.9, -5430.3076, 0.0, 10.000012, 9.993539 
2.2250006e+3, 1.4497523e+2, -1534449.5, -1548145.0, 0.03485927, 0.0000035615922, 0.000072295225, -1534449.5, -15206.775, 0.0, 10.000012, 9.981859 
2.2250006e+3, 1.549571e+2, -1436722.0, -1450820.8, -0.020218706, 0.0000035529458, -0.00005622207, -1436722.0, -15301.697, 0.0, 10.000012, 9.981327 
2.2250006e+3, 1.6493236e+2, -1348671.1, -1371951.3, 0.032641567, 0.0000035403416, 0.000047860125, -1348671.1, -25008.238, 0.0, 10.000012, 9.969242 
2.2250006e+3, 1.7490163e+2, -1250713.3, -1274309.3, -0.018936861, 0.0000035236978, -0.00007316658, -1250713.3, -24749.324, 0.0, 10.000012, 9.968829 
2.2250006e+3, 1.8486428e+2, -1162632.4, -1195719.1, 0.031040061, 0.0000035073313, 0.0000668364, -1162632.4, -34302.375, 0.0, 10.000012, 9.956389 
2.2250006e+3, 1.9482073e+2, -1064482.8, -1097832.0, -0.023994204, 0.0000034912516, -0.00005706247, -1064482.8, -33725.79, 0.0, 10.000012, 9.956047 
2.2250006e+3, 2.0477048e+2, -976318.9, -1019434.1, 0.024825554, 0.0000034784737, 0.000068615474, -976318.9, -43069.56, 0.0, 10.000012, 9.943285 
2.2250006e+3, 2.1471381e+2, -878032.0, -921409.06, -0.023664463, 0.00000346927, -0.00012630237, -878032.0, -42227.223, 0.0, 10.000011, 9.942944 
2.2250006e+3, 2.2465043e+2, -789745.94, -843144.06, 0.026213761, 0.00000345832, 0.00012137444, -789745.94, -51320.13, 0.0, 10.000011, 9.929902 
2.2250006e+3, 2.345804e+2, -691312.56, -744965.75, -0.025728898, 0.0000034453897, -0.000088374, -691312.56, -50200.43, 0.0, 10.000011, 9.929571 
2.2250006e+3, 2.4450342e+2, -602988.56, -667018.1, 0.022316974, 0.000003434956, 0.000075109245, -602988.56, -59122.05, 0.0, 10.000011, 9.91613 
2.2250006e+3, 2.5441965e+2, -504236.0, -568342.75, -0.024280578, 0.0000034275038, -0.00010637222, -504236.0, -57548.766, 0.0, 10.000011, 9.916031 
2.2250006e+3, 2.6432884e+2, -416000.66, -490987.38, 0.023748074, 0.0000034197194, 0.00014092455, -416000.66, -66423.26, 0.0, 10.000011, 9.901959 
2.2250006e+3, 2.7423134e+2, -316715.53, -391374.3, -0.022781888, 0.0000034115017, -0.0002031458, -316715.53, -64182.754, 0.0, 10.000011, 9.902379 
2.2250006e+3, 2.8412563e+2, -230242.33, -318080.84, 0.023213666, 0.0000034046222, 0.00022931444, -230242.33, -74673.52, 0.0, 10.000011, 9.885433 
2.2250006e+3, 2.9401213e+2, -130536.28, -217764.67, -0.022707544, 0.0000033995725, -0.000253101, -130536.28, -71855.0, 0.0, 10.000011, 9.886211 
2.2250006e+3, 3.0392656e+2, -40792.465, -84750.01, 0.023198178, 0.000003394036, 0.00017332807, -40792.465, -40792.465, 0.0, 10.000011, 9.942167 
2.2250006e+3, 3.138706e+2, -39714.48, -82511.08, -0.016113428, 0.0000033877657, -0.00005503576, -39714.48, -39714.48, 0.0, 10.000011, 9.943679 
2.2350004e+3, 1.2499345e+2, -1719931.4, -1724223.6, 0.014132804, 0.000003718007, 0.000018765932, -1719931.4, -4867.1323, 0.0, 10.000012, 9.994321 
2.2350004e+3, 1.349877e+2, -1622551.0, -1627434.0, -0.039226767, 0.0000036679469, -0.00006828426, -1622551.0, -5430.457, 0.0, 10.000012, 9.993539 
2.2350004e+3, 1.4497523e+2, -1534449.6, -1548145.3, 0.010758567, 0.0000036401138, 0.000072342584, -1534449.6, -15206.928, 0.0, 10.000012, 9.981858 
2.2350004e+3, 1.5495712e+2, -1436722.1, -1450821.0, -0.044317406, 0.000003633921, -0.000056211993, -1436722.1, -15301.847, 0.0, 10.000012, 9.981327 
2.2350004e+3, 1.6493236e+2, -1348671.3, -1371951.5, 0.009041929, 0.0000036247377, 0.00004786007, -1348671.3, -25008.377, 0.0, 10.000012, 9.969242 
2.2350004e+3, 1.7490163e+2, -1250713.4, -1274309.4, -0.04253451, 0.000003612502, -0.00007314902, -1250713.4, -24749.46, 0.0, 10.000012, 9.968828 
2.2350004e+3, 1.8486428e+2, -1162632.5, -1195719.3, 0.01263236, 0.000003593227, 0.00006685997, -1162632.5, -34302.516, 0.0, 10.000012, 9.956389 
2.2350004e+3, 1.9482073e+2, -1064482.9, -1097832.3, -0.04234217, 0.0000035665823, -0.00005704504, -1064482.9, -33725.93, 0.0, 10.000012, 9.956046 
2.2350004e+3, 2.0477048e+2, -976318.94, -1019434.3, 0.007084902, 0.0000035527203, 0.00006862666, -976318.94, -43069.684, 0.0, 10.000012, 9.943285 
2.2350004e+3, 2.1471381e+2, -878032.06, -921409.25, -0.041393213, 0.0000035527007, -0.00012629756, -878032.06, -42227.348, 0.0, 10.000011, 9.942944 
2.2350004e+3, 2.2465044e+2, -789746.06, -843144.3, 0.011130079, 0.000003545398, 0.00012137928, -789746.06, -51320.258, 0.0, 10.000011, 9.929902 
2.2350004e+3, 2.345804e+2, -691312.6, -744965.94, -0.04072642, 0.0000035298442, -0.000088361885, -691312.6, -50200.56, 0.0, 10.000011, 9.929571 
2.2350004e+3, 2.4450342e+2, -602988.7, -667018.3, 0.01000249, 0.00000351637, 0.00007512555, -602988.7, -59122.168, 0.0, 10.000011, 9.91613 
2.2350004e+3, 2.5441965e+2, -504236.1, -568342.94, -0.0364668, 0.000003505386, -0.000106355394, -504236.1, -57548.88, 0.0, 10.000011, 9.916031 
2.2350004e+3, 2.6432884e+2, -416000.78, -490987.56, 0.0139905475, 0.000003496532, 0.00014093652, -416000.78, -66423.375, 0.0, 10.000011, 9.901959 
2.2350004e+3, 2.7423134e+2, -316715.63, -391374.53, -0.032377057, 0.0000034903785, -0.00020314551, -316715.63, -64182.867, 0.0, 10.000011, 9.902379 
2.2350004e+3, 2.8412563e+2, -230242.44, -318081.03, 0.015585253, 0.0000034845148, 0.00022931029, -230242.44, -74673.63, 0.0, 10.000011, 9.885433 
2.2350004e+3, 2.9401213e+2, -130536.38, -217764.88, -0.03015921, 0.0000034790319, -0.0002530996, -130536.38, -71855.11, 0.0, 10.000011, 9.886211 
2.2350004e+3, 3.0392656e+2, -40792.56, -84750.2, 0.018211566, 0.0000034743123, 0.00017333234, -40792.56, -40792.56, 0.0, 10.000011, 9.942167 
2.2350004e+3, 3.138706e+2, -39714.574, -82511.28, -0.020811366, 0.0000034707268, -0.000055032633, -39714.574, -39714.574, 0.0, 10.000011, 9.943679 
2.2450005e+3, 1.2499345e+2, -1719930.4, -1724223.4, 0.044983383, 0.0000038022026, 0.000018794293, -1719930.4, -4866.256, 0.0, 10.000013, 9.994321 
2.2450005e+3, 1.349877e+2, -1622550.1, -1627433.8, -0.015375471, 0.0000037553853, -0.00006829323, -1622550.1, -5429.6, 0.0, 10.000013, 9.993539 
2.2450005e+3, 1.4497523e+2, -1534448.8, -1548145.0, 0.03452189, 0.0000037281302, 0.00007239198, -1534448.8, -15206.079, 0.0, 10.000013, 9.981858 
2.2450005e+3, 1.5495712e+2, -1436721.3, -1450820.8, -0.019326504, 0.0000037198172, -0.00005619964, -1436721.3, -15301.006, 0.0, 10.000012, 9.981327 
2.2450005e+3, 1.6493236e+2, -1348670.4, -1371951.3, 0.034130763, 0.000003708505, 0.00004786179, -1348670.4, -25007.537, 0.0, 10.000012, 9.969242 
2.2450005e+3, 1.7490163e+2, -1250712.5, -1274309.1, -0.023235342, 0.000003694132, -0.00007313096, -1250712.5, -24748.615, 0.0, 10.000012, 9.968828 
2.2450005e+3, 1.8486428e+2, -1162631.6, -1195719.0, 0.031658627, 0.0000036757824, 0.00006688234, -1162631.6, -34301.676, 0.0, 10.000012, 9.956389 
2.2450005e+3, 1.9482073e+2, -1064482.0, -1097832.0, -0.022275737, 0.0000036532688, -0.000057030953, -1064482.0, -33725.11, 0.0, 10.000012, 9.956046 
2.2450005e+3, 2.0477048e+2, -976318.1, -1019434.06, 0.02806698, 0.0000036392278, 0.00006863621, -976318.1, -43068.87, 0.0, 10.000012, 9.943285 
2.2450005e+3, 2.1471381e+2, -878031.25, -921409.0, -0.026134463, 0.0000036343615, -0.00012628846, -878031.25, -42226.53, 0.0, 10.000012, 9.942944 
2.2450005e+3, 2.2465044e+2, -789745.2, -843144.06, 0.025600698, 0.000003625687, 0.00012138853, -789745.2, -51319.445, 0.0, 10.000012, 9.929902 
2.2450005e+3, 2.345804e+2, -691311.8, -744965.7, -0.025499925, 0.0000036126962, -0.000088351764, -691311.8, -50199.75, 0.0, 10.000012, 9.929571 
2.2450005e+3, 2.4450342e+2, -602987.9, -667018.06, 0.025381047, 0.000003600123, 0.00007513689, -602987.9, -59121.367, 0.0, 10.000012, 9.91613 
2.2450005e+3, 2.5441968e+2, -504235.28, -568342.7, -0.026771395, 0.0000035880498, -0.000106342406, -504235.28, -57548.086, 0.0, 10.000012, 9.91603 
2.2450005e+3, 2.6432884e+2, -415999.97, -490987.34, 0.02304476, 0.0000035784626, 0.00014094776, -415999.97, -66422.586, 0.0, 10.000012, 9.901958 
2.2450005e+3, 2.7423134e+2, -316714.84, -391374.3, -0.024372533, 0.0000035720343, -0.00020314034, -316714.84, -64182.08, 0.0, 10.000012, 9.902379 
2.2450005e+3, 2.8412563e+2, -230241.64, -318080.8, 0.024660818, 0.000003566256, 0.00022931171, -230241.64, -74672.85, 0.0, 10.000012, 9.885433 
2.2450005e+3, 2.9401213e+2, -130535.59, -217764.66, -0.02109268, 0.0000035613496, -0.0002530987, -130535.59, -71854.33, 0.0, 10.000012, 9.886211 
2.2450005e+3, 3.0392656e+2, -40791.785, -84749.99, 0.026839264, 0.0000035563025, 0.00017333413, -40791.785, -40791.785, 0.0, 10.000012, 9.942167 
2.2450005e+3, 3.138706e+2, -39713.805, -82511.06, -0.017297445, 0.0000035510438, -0.000055027856, -39713.805, -39713.805, 0.0, 10.000012, 9.943678 
2.2550005e+3, 1.2499345e+2, -1719930.5, -1724223.6, 0.015631877, 0.0000038795156, 0.000018821343, -1719930.5, -4866.4253, 0.0, 10.000013, 9.994321 
2.2550005e+3, 1.349877e+2, -1622550.3, -1627434.0, -0.04473276, 0.0000038483654, -0.00006830308, -1622550.3, -5429.7666, 0.0, 10.000013, 9.993539 
2.2550005e+3, 1.4497523e+2, -1534448.9, -1548145.3, 0.009114466, 0.00000382564, 0.00007244342, -1534448.9, -15206.2295, 0.0, 10.000013, 9.981858 
2.2550005e+3, 1.5495712e+2, -1436721.4, -1450821.0, -0.044728428, 0.000003810633, -0.000056185003, -1436721.4, -15301.153, 0.0, 10.000012, 9.981327 
2.2550005e+3, 1.6493237e+2, -1348670.5, -1371951.5, 0.012693563, 0.0000037916436, 0.000047865287, -1348670.5, -25007.691, 0.0, 10.000012, 9.969242 
2.2550005e+3, 1.7490163e+2, -1250712.6, -1274309.4, -0.04465212, 0.000003768589, -0.000073112395, -1250712.6, -24748.766, 0.0, 10.000012, 9.968828 
2.2550005e+3, 1.8486428e+2, -1162631.8, -1195719.3, 0.009258365, 0.0000037549992, 0.00006690352, -1162631.8, -34301.82, 0.0, 10.000012, 9.956389 
2.2550005e+3, 1.9482073e+2, -1064482.1, -1097832.3, -0.04468788, 0.0000037513091, -0.000057020206, -1064482.1, -33725.246, 0.0, 10.000012, 9.956046 
2.2550005e+3, 2.0477048e+2, -976318.25, -1019434.3, 0.011171356, 0.0000037379941, 0.000068644134, -976318.25, -43069.008, 0.0, 10.000012, 9.943284 
2.2550005e+3, 2.1471381e+2, -878031.4, -921409.25, -0.04291678, 0.0000037142527, -0.00012627512, -878031.4, -42226.664, 0.0, 10.000012, 9.942944 
2.2550005e+3, 2.2465044e+2, -789745.3, -843144.25, 0.009940613, 0.000003699188, 0.00012140218, -789745.3, -51319.574, 0.0, 10.000012, 9.929902 
2.2550005e+3, 2.345804e+2, -691311.94, -744965.94, -0.0411238, 0.0000036939464, -0.00008834363, -691311.94, -50199.88, 0.0, 10.000012, 9.92957 
2.2550005e+3, 2.4450342e+2, -602987.94, -667018.3, 0.011734597, 0.000003686214, 0.00007514328, -602987.94, -59121.496, 0.0, 10.000012, 9.91613 
2.2550005e+3, 2.5441968e+2, -504235.4, -568342.94, -0.040323306, 0.000003675494, -0.00010633327, -504235.4, -57548.21, 0.0, 10.000012, 9.91603 
2.2550005e+3, 2.6432884e+2, -416000.06, -490987.56, 0.013274316, 0.0000036655108, 0.00014095823, -416000.06, -66422.7, 0.0, 10.000012, 9.901958 
2.2550005e+3, 2.7423134e+2, -316714.94, -391374.53, -0.033890136, 0.000003656469, -0.0002031303, -316714.94, -64182.19, 0.0, 10.000012, 9.902379 
2.2550005e+3, 2.8412563e+2, -230241.75, -318081.03, 0.01678603, 0.000003649846, 0.00022931871, -230241.75, -74672.96, 0.0, 10.000012, 9.885433 
2.2550005e+3, 2.9401213e+2, -130535.7, -217764.88, -0.028819969, 0.0000036465253, -0.0002530983, -130535.7, -71854.44, 0.0, 10.000012, 9.886211 
2.2550005e+3, 3.0392656e+2, -40791.89, -84750.21, 0.020641005, 0.000003640007, 0.00017333344, -40791.89, -40791.89, 0.0, 10.000012, 9.942167 
2.2550005e+3, 3.138706e+2, -39713.91, -82511.28, -0.02331691, 0.0000036287174, -0.000055021435, -39713.91, -39713.91, 0.0, 10.000012, 9.943678 
2.2650005e+3, 1.2499346e+2, -1719929.6, -1724223.3, 0.047019415, 0.000003967767, 0.00001885451, -1719929.6, -4865.5186, 0.0, 10.000013, 9.994321 
2.2650005e+3, 1.349877e+2, -1622549.4, -1627433.6, -0.013801491, 0.000003938789, -0.00006832067, -1622549.4, -5428.8647, 0.0, 10.000013, 9.993538 
2.2650005e+3, 1.4497524e+2, -1534448.0, -1548144.9, 0.039943654, 0.000003916413, 0.000072489034, -1534448.0, -15205.327, 0.0, 10.000013, 9.981858 
2.2650005e+3, 1.5495712e+2, -1436720.5, -1450820.6, -0.020596867, 0.0000038999037, -0.000056163783, -1436720.5, -15300.261, 0.0, 10.000013, 9.981327 
2.2650005e+3, 1.6493237e+2, -1348669.6, -1371951.1, 0.03663851, 0.0000038793987, 0.000047875918, -1348669.6, -25006.81, 0.0, 10.000013, 9.969242 
2.2650005e+3, 1.7490163e+2, -1250711.8, -1274309.1, -0.022062065, 0.0000038548146, -0.000073098236, -1250711.8, -24747.898, 0.0, 10.000013, 9.968828 
2.2650005e+3, 1.8486428e+2, -1162630.9, -1195719.0, 0.030732889, 0.0000038417597, 0.000066918365, -1162630.9, -34300.95, 0.0, 10.000013, 9.956389 
2.2650005e+3, 1.9482073e+2, -1064481.3, -1097832.0, -0.025448287, 0.0000038407657, -0.000057007645, -1064481.3, -33724.38, 0.0, 10.000013, 9.956046 
2.2650005e+3, 2.0477049e+2, -976317.4, -1019434.0, 0.031146575, 0.0000038274593, 0.000068656635, -976317.4, -43068.145, 0.0, 10.000013, 9.943284 
2.2650005e+3, 2.1471381e+2, -878030.5, -921409.0, -0.026823737, 0.0000038008159, -0.00012626027, -878030.5, -42225.816, 0.0, 10.000013, 9.942944 
2.2650005e+3, 2.2465044e+2, -789744.44, -843144.0, 0.025406573, 0.0000037840996, 0.00012141656, -789744.44, -51318.73, 0.0, 10.000013, 9.929902 
2.2650005e+3, 2.345804e+2, -691311.06, -744965.7, -0.027601091, 0.0000037786226, -0.00008833289, -691311.06, -50199.035, 0.0, 10.000013, 9.92957 
2.2650005e+3, 2.4450342e+2, -602987.1, -667018.06, 0.025993215, 0.0000037713926, 0.00007515082, -602987.1, -59120.656, 0.0, 10.000013, 9.91613 
2.2650005e+3, 2.5441968e+2, -504234.56, -568342.7, -0.027097963, 0.0000037620537, -0.000106328414, -504234.56, -57547.375, 0.0, 10.000013, 9.91603 
2.2650005e+3, 2.6432884e+2, -415999.22, -490987.3, 0.026145918, 0.0000037525328, 0.00014096357, -415999.22, -66421.87, 0.0, 10.000013, 9.901958 
2.2650005e+3, 2.7423134e+2, -316714.13, -391374.28, -0.025898354, 0.000003742782, -0.00020312045, -316714.13, -64181.37, 0.0, 10.000013, 9.902379 
2.2650005e+3, 2.8412563e+2, -230240.92, -318080.78, 0.023987457, 0.000003735638, 0.00022932987, -230240.92, -74672.15, 0.0, 10.000013, 9.885432 
2.2650005e+3, 2.9401213e+2, -130534.88, -217764.64, -0.022752637, 0.0000037320597, -0.0002530902, -130534.88, -71853.625, 0.0, 10.000013, 9.886211 
2.2650005e+3, 3.0392656e+2, -40791.08, -84749.99, 0.026758056, 0.0000037247717, 0.0001733385, -40791.08, -40791.08, 0.0, 10.000012, 9.942166 
2.2650005e+3, 3.138706e+2, -39713.09, -82511.06, -0.021281928, 0.0000037119505, -0.00005501927, -39713.09, -39713.09, 0.0, 10.000012, 9.943678 
2.2750005e+3, 1.2499346e+2, -1719929.8, -1724223.5, 0.017261367, 0.0000040669543, 0.000018893814, -1719929.8, -4865.691, 0.0, 10.000013, 9.994321 
2.2750005e+3, 1.3498771e+2, -1622549.5, -1627433.9, -0.04356531, 0.000004026657, -0.00006834598, -1622549.5, -5429.034, 0.0, 10.000013, 9.993538 
2.2750005e+3, 1.4497524e+2, -1534448.1, -1548145.1, 0.012892341, 0.0000040004516, 0.00007252882, -1534448.1, -15205.494, 0.0, 10.000013, 9.981858 
2.2750005e+3, 1.5495712e+2, -1436720.6, -1450820.9, -0.047644485, 0.0000039876304, -0.000056135985, -1436720.6, -15300.425, 0.0, 10.000013, 9.981326 
2.2750005e+3, 1.6493237e+2, -1348669.8, -1371951.4, 0.013166724, 0.0000039717693, 0.000047893685, -1348669.8, -25006.969, 0.0, 10.000013, 9.969242 
2.2750005e+3, 1.7490166e+2, -1250711.9, -1274309.4, -0.045515493, 0.0000039528063, -0.00007308849, -1250711.9, -24748.05, 0.0, 10.000013, 9.968828 
2.2750005e+3, 1.848643e+2, -1162631.0, -1195719.3, 0.009412292, 0.0000039360634, 0.00006692688, -1162631.0, -34301.098, 0.0, 10.000013, 9.956388 
2.2750005e+3, 1.9482073e+2, -1064481.4, -1097832.1, -0.046744935, 0.0000039216407, -0.000056993267, -1064481.4, -33724.52, 0.0, 10.000013, 9.956046 
2.2750005e+3, 2.0477049e+2, -976317.5, -1019434.25, 0.011736088, 0.000003907626, 0.000068673704, -976317.5, -43068.293, 0.0, 10.000013, 9.943284 
2.2750005e+3, 2.1471381e+2, -878030.6, -921409.25, -0.046195593, 0.00000389405, -0.00012624396, -878030.6, -42225.96, 0.0, 10.000013, 9.942944 
2.2750005e+3, 2.2465044e+2, -789744.56, -843144.25, 0.0095917005, 0.00000388042, 0.00012143166, -789744.56, -51318.863, 0.0, 10.000013, 9.929901 
2.2750005e+3, 2.345804e+2, -691311.2, -744965.9, -0.043300435, 0.000003866725, -0.000088319546, -691311.2, -50199.164, 0.0, 10.000013, 9.92957 
2.2750005e+3, 2.4450342e+2, -602987.25, -667018.3, 0.0128767155, 0.0000038556586, 0.00007515951, -602987.25, -59120.79, 0.0, 10.000013, 9.91613 
2.2750005e+3, 2.5441968e+2, -504234.7, -568342.9, -0.040090773, 0.0000038477287, -0.00010632784, -504234.7, -57547.504, 0.0, 10.000013, 9.91603 
2.2750005e+3, 2.6432884e+2, -415999.34, -490987.53, 0.01423221, 0.0000038395287, 0.00014096376, -415999.34, -66421.99, 0.0, 10.000013, 9.901958 
2.2750005e+3, 2.7423134e+2, -316714.22, -391374.5, -0.037740283, 0.000003830973, -0.0002031108, -316714.22, -64181.496, 0.0, 10.000013, 9.902379 
2.2750005e+3, 2.8412563e+2, -230241.03, -318081.0, 0.015802952, 0.0000038236326, 0.0002293452, -230241.03, -74672.266, 0.0, 10.000013, 9.885432 
2.2750005e+3, 2.9401213e+2, -130534.984, -217764.86, -0.030608412, 0.000003817953, -0.00025307442, -130534.984, -71853.74, 0.0, 10.000013, 9.886211 
2.2750005e+3, 3.0392656e+2, -40791.19, -84750.23, 0.022935305, 0.0000038105966, 0.00017334934, -40791.19, -40791.19, 0.0, 10.000012, 9.942166 
2.2750005e+3, 3.138706e+2, -39713.203, -82511.3, -0.02463163, 0.000003800743, -0.00005502136, -39713.203, -39713.203, 0.0, 10.000012, 9.943678 
2.2850005e+3, 1.24993466e+2, -1719928.8, -1724223.3, 0.04559438, 0.000004166103, 0.000018928178, -1719928.8, -4864.752, 0.0, 10.000014, 9.99432 
2.2850005e+3, 1.3498771e+2, -1622548.5, -1627433.6, -0.015887577, 0.0000041175995, -0.00006836211, -1622548.5, -5428.0894, 0.0, 10.000014, 9.993538 
2.2850005e+3, 1.4497524e+2, -1534447.1, -1548144.8, 0.04025573, 0.000004088655, 0.00007257827, -1534447.1, -15204.552, 0.0, 10.000014, 9.981858 
2.2850005e+3, 1.5495712e+2, -1436719.6, -1450820.6, -0.023267152, 0.000004078576, -0.00005611744, -1436719.6, -15299.488, 0.0, 10.000014, 9.981326 
2.2850005e+3, 1.6493237e+2, -1348668.8, -1371951.1, 0.037480578, 0.0000040654886, 0.00004790081, -1348668.8, -25006.037, 0.0, 10.000014, 9.969242 
2.2850005e+3, 1.7490166e+2, -1250711.0, -1274309.0, -0.022583127, 0.0000040493323, -0.00007307288, -1250711.0, -24747.14, 0.0, 10.000014, 9.968828 
2.2850005e+3, 1.848643e+2, -1162630.0, -1195718.9, 0.033435628, 0.00000403011, 0.0000669456, -1162630.0, -34300.19, 0.0, 10.000014, 9.956388 
2.2850005e+3, 1.9482073e+2, -1064480.5, -1097831.9, -0.028581277, 0.000004007677, -0.00005697708, -1064480.5, -33723.617, 0.0, 10.000014, 9.956046 
2.2850005e+3, 2.0477049e+2, -976316.56, -1019433.94, 0.028482072, 0.0000039930464, 0.000068687725, -976316.56, -43067.387, 0.0, 10.000014, 9.943284 
2.2850005e+3, 2.1471381e+2, -878029.7, -921408.94, -0.027472338, 0.0000039868646, -0.0001262317, -878029.7, -42225.066, 0.0, 10.000013, 9.942943 
2.2850005e+3, 2.2465044e+2, -789743.7, -843143.94, 0.029542191, 0.000003975299, 0.00012144323, -789743.7, -51317.977, 0.0, 10.000013, 9.929901 
2.2850005e+3, 2.345804e+2, -691310.3, -744965.6, -0.030810203, 0.0000039576335, -0.000088307446, -691310.3, -50198.285, 0.0, 10.000013, 9.92957 
2.2850005e+3, 2.4450342e+2, -602986.3, -667018.0, 0.024221754, 0.000003944292, 0.00007517109, -602986.3, -59119.91, 0.0, 10.000013, 9.91613 
2.2850005e+3, 2.5441968e+2, -504233.78, -568342.6, -0.028376486, 0.0000039361194, -0.00010631803, -504233.78, -57546.633, 0.0, 10.000013, 9.91603 
2.2850005e+3, 2.6432884e+2, -415998.47, -490987.28, 0.027109712, 0.0000039280517, 0.00014097162, -415998.47, -66421.125, 0.0, 10.000013, 9.901958 
2.2850005e+3, 2.7423134e+2, -316713.34, -391374.25, -0.026575284, 0.000003920101, -0.00020310513, -316713.34, -64180.633, 0.0, 10.000013, 9.902378 
2.2850005e+3, 2.8412563e+2, -230240.16, -318080.75, 0.026367763, 0.000003912573, 0.00022935074, -230240.16, -74671.4, 0.0, 10.000013, 9.885432 
2.2850005e+3, 2.9401213e+2, -130534.12, -217764.61, -0.026341045, 0.0000039056195, -0.00025306625, -130534.12, -71852.88, 0.0, 10.000013, 9.88621 
2.2850005e+3, 3.0392656e+2, -40790.34, -84749.984, 0.026837036, 0.0000038987005, 0.00017335686, -40790.34, -40790.34, 0.0, 10.000013, 9.942166 
2.2850005e+3, 3.138706e+2, -39712.363, -82511.07, -0.0185523, 0.0000038918347, -0.000055019416, -39712.363, -39712.363, 0.0, 10.000013, 9.943678 
2.2950006e+3, 1.24993466e+2, -1719928.9, -1724223.5, 0.017899178, 0.000004265213, 0.000018957622, -1719928.9, -4864.9272, 0.0, 10.000014, 9.99432 
2.2950006e+3, 1.3498771e+2, -1622548.6, -1627433.9, -0.04358836, 0.000004211616, -0.00006836906, -1622548.6, -5428.2617, 0.0, 10.000014, 9.993538 
2.2950006e+3, 1.4497524e+2, -1534447.3, -1548145.1, 0.012596497, 0.000004181023, 0.00007263737, -1534447.3, -15204.727, 0.0, 10.000014, 9.981857 
2.2950006e+3, 1.5495715e+2, -1436719.8, -1450820.9, -0.050926544, 0.000004172739, -0.000056108143, -1436719.8, -15299.66, 0.0, 10.000014, 9.981326 
2.2950006e+3, 1.6493237e+2, -1348668.9, -1371951.4, 0.010280858, 0.000004160556, 0.000047897298, -1348668.9, -25006.2, 0.0, 10.000014, 9.969241 
2.2950006e+3, 1.7490166e+2, -1250711.1, -1274309.3, -0.04978126, 0.0000041443927, -0.0000730514, -1250711.1, -24747.299, 0.0, 10.000014, 9.968828 
2.2950006e+3, 1.848643e+2, -1162630.1, -1195719.1, 0.013256174, 0.0000041239, 0.00006697452, -1162630.1, -34300.355, 0.0, 10.000014, 9.956388 
2.2950006e+3, 1.9482075e+2, -1064480.6, -1097832.1, -0.04867991, 0.0000040988734, -0.000056959074, -1064480.6, -33723.773, 0.0, 10.000014, 9.956045 
2.2950006e+3, 2.0477049e+2, -976316.7, -1019434.2, 0.0077453335, 0.000004083721, 0.00006869871, -976316.7, -43067.53, 0.0, 10.000014, 9.943284 
2.2950006e+3, 2.1471381e+2, -878029.8, -921409.2, -0.048223075, 0.0000040792593, -0.0001262235, -878029.8, -42225.207, 0.0, 10.000013, 9.942943 
2.2950006e+3, 2.2465044e+2, -789743.8, -843144.2, 0.012505944, 0.000004068737, 0.00012145127, -789743.8, -51318.125, 0.0, 10.000013, 9.929901 
2.2950006e+3, 2.3458041e+2, -691310.44, -744965.9, -0.047725264, 0.0000040513473, -0.0000882966, -691310.44, -50198.434, 0.0, 10.000013, 9.92957 
2.2950006e+3, 2.4450344e+2, -602986.44, -667018.25, 0.010343433, 0.0000040372925, 0.000075185555, -602986.44, -59120.043, 0.0, 10.000013, 9.916129 
2.2950006e+3, 2.5441968e+2, -504233.9, -568342.9, -0.042109806, 0.000004027225, -0.00010629899, -504233.9, -57546.76, 0.0, 10.000013, 9.91603 
2.2950006e+3, 2.6432884e+2, -415998.6, -490987.53, 0.015817545, 0.0000040181008, 0.00014098715, -415998.6, -66421.26, 0.0, 10.000013, 9.901958 
2.2950006e+3, 2.7423134e+2, -316713.47, -391374.5, -0.03770431, 0.000004010165, -0.00020310341, -316713.47, -64180.76, 0.0, 10.000013, 9.902378 
2.2950006e+3, 2.8412563e+2, -230240.27, -318081.0, 0.017905349, 0.0000040024593, 0.0002293465, -230240.27, -74671.52, 0.0, 10.000013, 9.885432 
2.2950006e+3, 2.9401213e+2, -130534.234, -217764.86, -0.034563683, 0.0000039950587, -0.00025306566, -130534.234, -71853.01, 0.0, 10.000013, 9.88621 
2.2950006e+3, 3.0392656e+2, -40790.453, -84750.22, 0.020444194, 0.0000039890833, 0.00017336108, -40790.453, -40790.453, 0.0, 10.000013, 9.942166 
2.2950006e+3, 3.138706e+2, -39712.473, -82511.3, -0.024731265, 0.000003985226, -0.00005501344, -39712.473, -39712.473, 0.0, 10.000013, 9.943678 
2.3050004e+3, 1.2499347e+2, -1719927.9, -1724223.1, 0.052294243, 0.00000436002, 0.000018992032, -1719927.9, -4863.918, 0.0, 10.000015, 9.99432 
2.3050004e+3, 1.3498771e+2, -1622547.6, -1627433.5, -0.018439727, 0.0000043106247, -0.00006838166, -1622547.6, -5427.2813, 0.0, 10.000015, 9.993538 
2.3050004e+3, 1.4497524e+2, -1534446.3, -1548144.8, 0.03752671, 0.00000428107, 0.00007269345, -1534446.3, -15203.753, 0.0, 10.000015, 9.981857 
2.3050004e+3, 1.5495715e+2, -1436718.8, -1450820.5, -0.022484135, 0.000004270622, -0.000056091834, -1436718.8, -15298.693, 0.0, 10.000015, 9.981326 
2.3050004e+3, 1.6493237e+2, -1348667.9, -1371951.0, 0.039313626, 0.0000042557313, 0.00004790099, -1348667.9, -25005.236, 0.0, 10.000015, 9.969241 
2.3050004e+3, 1.7490166e+2, -1250710.1, -1274309.0, -0.027591666, 0.000004236306, -0.000073032585, -1250710.1, -24746.328, 0.0, 10.000014, 9.968827 
2.3050004e+3, 1.848643e+2, -1162629.3, -1195718.9, 0.035355292, 0.0000042171073, 0.000066997316, -1162629.3, -34299.39, 0.0, 10.000014, 9.956388 
2.3050004e+3, 1.9482075e+2, -1064479.6, -1097831.9, -0.02569142, 0.000004198142, -0.00005694395, -1064479.6, -33722.84, 0.0, 10.000014, 9.956045 
2.3050004e+3, 2.0477049e+2, -976315.75, -1019433.9, 0.0314389, 0.0000041826465, 0.000068710346, -976315.75, -43066.6, 0.0, 10.000014, 9.943284 
2.3050004e+3, 2.1471383e+2, -878028.9, -921408.9, -0.031485606, 0.000004170907, -0.00012621083, -878028.9, -42224.27, 0.0, 10.000014, 9.942943 
2.3050004e+3, 2.2465044e+2, -789742.9, -843143.9, 0.028696919, 0.0000041586113, 0.00012146341, -789742.9, -51317.19, 0.0, 10.000014, 9.929901 
2.3050004e+3, 2.3458041e+2, -691309.5, -744965.56, -0.02881203, 0.000004145683, -0.00008828677, -691309.5, -50197.504, 0.0, 10.000014, 9.92957 
2.3050004e+3, 2.4450344e+2, -602985.5, -667017.94, 0.029553654, 0.0000041333733, 0.00007519541, -602985.5, -59119.12, 0.0, 10.000014, 9.916129 
2.3050004e+3, 2.5441968e+2, -504233.0, -568342.56, -0.031263188, 0.0000041218022, -0.00010628631, -504233.0, -57545.855, 0.0, 10.000014, 9.916029 
2.3050004e+3, 2.6432887e+2, -415997.7, -490987.25, 0.025414616, 0.000004111198, 0.00014099939, -415997.7, -66420.36, 0.0, 10.000014, 9.901958 
2.3050004e+3, 2.7423134e+2, -316712.56, -391374.22, -0.028815215, 0.0000041018193, -0.00020309578, -316712.56, -64179.855, 0.0, 10.000014, 9.902378 
2.3050004e+3, 2.8412563e+2, -230239.36, -318080.75, 0.02837857, 0.000004094094, 0.00022935093, -230239.36, -74670.625, 0.0, 10.000014, 9.885432 
2.3050004e+3, 2.9401213e+2, -130533.336, -217764.6, -0.023383262, 0.000004088622, -0.00025306246, -130533.336, -71852.11, 0.0, 10.000014, 9.88621 
2.3050004e+3, 3.0392656e+2, -40789.563, -84749.97, 0.030799983, 0.0000040826994, 0.00017336442, -40789.563, -40789.563, 0.0, 10.000014, 9.942166 
2.3050004e+3, 3.138706e+2, -39711.586, -82511.055, -0.021707315, 0.000004076092, -0.00005500792, -39711.586, -39711.586, 0.0, 10.000014, 9.943677 
2.3150004e+3, 1.2499347e+2, -1719928.0, -1724223.4, 0.018799892, 0.000004450525, 0.00001903143, -1719928.0, -4864.116, 0.0, 10.000015, 9.99432 
2.3150004e+3, 1.3498771e+2, -1622547.8, -1627433.8, -0.051940273, 0.0000044146236, -0.000068399924, -1622547.8, -5427.476, 0.0, 10.000015, 9.993537 
2.3150004e+3, 1.4497526e+2, -1534446.4, -1548145.0, 0.0090954155, 0.0000043887944, 0.00007274651, -1534446.4, -15203.922, 0.0, 10.000015, 9.981857 
2.3150004e+3, 1.5495715e+2, -1436718.9, -1450820.8, -0.0509086, 0.000004372224, -0.000056068515, -1436718.9, -15298.858, 0.0, 10.000015, 9.981326 
2.3150004e+3, 1.6493239e+2, -1348668.1, -1371951.3, 0.014573761, 0.0000043510154, 0.00004791188, -1348668.1, -25005.414, 0.0, 10.000015, 9.969241 
2.3150004e+3, 1.7490166e+2, -1250710.3, -1274309.3, -0.05231245, 0.000004325073, -0.00007301644, -1250710.3, -24746.504, 0.0, 10.000014, 9.968827 
2.3150004e+3, 1.848643e+2, -1162629.4, -1195719.1, 0.009392053, 0.000004309732, 0.00006701399, -1162629.4, -34299.55, 0.0, 10.000014, 9.956388 
2.3150004e+3, 1.9482075e+2, -1064479.8, -1097832.1, -0.051669847, 0.00000430548, -0.00005693171, -1064479.8, -33722.996, 0.0, 10.000014, 9.956045 
2.3150004e+3, 2.0477049e+2, -976315.9, -1019434.2, 0.0131318, 0.0000042898223, 0.00006872262, -976315.9, -43066.76, 0.0, 10.000014, 9.943283 
2.3150004e+3, 2.1471383e+2, -878029.0, -921409.1, -0.049634922, 0.0000042618085, -0.00012619367, -878029.0, -42224.43, 0.0, 10.000014, 9.942943 
2.3150004e+3, 2.2465044e+2, -789743.0, -843144.1, 0.0105422195, 0.000004244924, 0.00012147966, -789743.0, -51317.336, 0.0, 10.000014, 9.929901 
2.3150004e+3, 2.3458041e+2, -691309.6, -744965.8, -0.046967596, 0.0000042406396, -0.00008827797, -691309.6, -50197.65, 0.0, 10.000014, 9.929569 
2.3150004e+3, 2.4450344e+2, -602985.6, -667018.25, 0.01358598, 0.0000042325346, 0.000075200645, -602985.6, -59119.273, 0.0, 10.000014, 9.916129 
2.3150004e+3, 2.5441968e+2, -504233.13, -568342.9, -0.047126215, 0.0000042198512, -0.000106279986, -504233.13, -57546.0, 0.0, 10.000014, 9.916029 
2.3150004e+3, 2.6432887e+2, -415997.78, -490987.5, 0.014861588, 0.0000042073425, 0.00014100835, -415997.78, -66420.49, 0.0, 10.000014, 9.9019575 
2.3150004e+3, 2.7423134e+2, -316712.7, -391374.47, -0.039013095, 0.0000041950634, -0.00020308222, -316712.7, -64179.99, 0.0, 10.000014, 9.902378 
2.3150004e+3, 2.8412563e+2, -230239.48, -318081.0, 0.019190205, 0.0000041874773, 0.00022936404, -230239.48, -74670.75, 0.0, 10.000014, 9.885432 
2.3150004e+3, 2.9401213e+2, -130533.45, -217764.84, -0.03248137, 0.0000041863086, -0.0002530567, -130533.45, -71852.234, 0.0, 10.000014, 9.88621 
2.3150004e+3, 3.0392656e+2, -40789.688, -84750.23, 0.024117975, 0.000004179548, 0.00017336683, -40789.688, -40789.688, 0.0, 10.000014, 9.942166 
2.3150004e+3, 3.138706e+2, -39711.71, -82511.31, -0.028106244, 0.000004164432, -0.000055002853, -39711.71, -39711.71, 0.0, 10.000014, 9.943677 
2.3250005e+3, 1.2499349e+2, -1719927.0, -1724223.0, 0.051145807, 0.0000045516435, 0.000019069681, -1719927.0, -4863.0757, 0.0, 10.000016, 9.99432 
2.3250005e+3, 1.3498773e+2, -1622546.8, -1627433.5, -0.015846897, 0.0000045166353, -0.00006842162, -1622546.8, -5426.4414, 0.0, 10.000016, 9.993537 
2.3250005e+3, 1.4497526e+2, -1534445.4, -1548144.6, 0.045712247, 0.0000044906874, 0.000072798706, -1534445.4, -15202.89, 0.0, 10.000015, 9.981857 
2.3250005e+3, 1.5495715e+2, -1436717.9, -1450820.5, -0.025720697, 0.0000044729572, -0.000056044784, -1436717.9, -15297.84, 0.0, 10.000015, 9.981326 
2.3250005e+3, 1.6493239e+2, -1348667.0, -1371951.0, 0.039272603, 0.0000044511535, 0.000047923368, -1348667.0, -25004.406, 0.0, 10.000015, 9.969241 
2.3250005e+3, 1.7490166e+2, -1250709.3, -1274308.9, -0.025093103, 0.000004425193, -0.00007300062, -1250709.3, -24745.508, 0.0, 10.000015, 9.968827 
2.3250005e+3, 1.848643e+2, -1162628.3, -1195718.8, 0.03592487, 0.0000044092812, 0.00006703119, -1162628.3, -34298.555, 0.0, 10.000015, 9.956388 
2.3250005e+3, 1.9482075e+2, -1064478.8, -1097831.8, -0.031132706, 0.000004403882, -0.0000569162, -1064478.8, -33721.992, 0.0, 10.000015, 9.956045 
2.3250005e+3, 2.0477049e+2, -976314.9, -1019433.9, 0.03382151, 0.0000043881473, 0.00006873741, -976314.9, -43065.77, 0.0, 10.000015, 9.943283 
2.3250005e+3, 2.1471383e+2, -878028.0, -921408.8, -0.031203365, 0.0000043612176, -0.00012617855, -878028.0, -42223.457, 0.0, 10.000015, 9.942943 
2.3250005e+3, 2.2465046e+2, -789742.0, -843143.8, 0.028242918, 0.0000043440705, 0.00012149435, -789742.0, -51316.37, 0.0, 10.000015, 9.929901 
2.3250005e+3, 2.3458041e+2, -691308.6, -744965.5, -0.033126988, 0.0000043379982, -0.00008826456, -691308.6, -50196.684, 0.0, 10.000015, 9.929569 
2.3250005e+3, 2.4450344e+2, -602984.7, -667017.94, 0.028428413, 0.0000043289506, 0.00007521165, -602984.7, -59118.313, 0.0, 10.000015, 9.916129 
2.3250005e+3, 2.5441968e+2, -504232.16, -568342.56, -0.031970914, 0.000004316335, -0.00010627273, -504232.16, -57545.04, 0.0, 10.000015, 9.916029 
2.3250005e+3, 2.6432887e+2, -415996.8, -490987.22, 0.030262128, 0.000004304255, 0.00014101501, -415996.8, -66419.53, 0.0, 10.000015, 9.9019575 
2.3250005e+3, 2.7423134e+2, -316711.72, -391374.2, -0.029471451, 0.000004292862, -0.00020307215, -316711.72, -64179.043, 0.0, 10.000015, 9.902378 
2.3250005e+3, 2.8412563e+2, -230238.53, -318080.72, 0.026650297, 0.000004285365, 0.00022937519, -230238.53, -74669.82, 0.0, 10.000015, 9.885431 
2.3250005e+3, 2.9401213e+2, -130532.516, -217764.56, -0.028063385, 0.000004283192, -0.0002530477, -130532.516, -71851.305, 0.0, 10.000015, 9.88621 
2.3250005e+3, 3.0392656e+2, -40788.758, -84749.98, 0.029990844, 0.000004275573, 0.00017337267, -40788.758, -40788.758, 0.0, 10.000015, 9.942165 
2.3250005e+3, 3.138706e+2, -39710.773, -82511.055, -0.021608919, 0.000004259825, -0.00005500161, -39710.773, -39710.773, 0.0, 10.000015, 9.943677 
2.3350008e+3, 1.2499349e+2, -1719927.1, -1724223.4, 0.017066129, 0.0000046633722, 0.000019106814, -1719927.1, -4863.267, 0.0, 10.000016, 9.994319 
2.3350008e+3, 1.3498773e+2, -1622546.9, -1627433.8, -0.049933437, 0.000004616661, -0.00006844675, -1622546.9, -5426.6294, 0.0, 10.000016, 9.993537 
2.3350008e+3, 1.4497526e+2, -1534445.5, -1548144.9, 0.014917985, 0.00000458675, 0.00007285004, -1534445.5, -15203.086, 0.0, 10.000015, 9.981857 
2.3350008e+3, 1.5495715e+2, -1436718.0, -1450820.8, -0.0565102, 0.000004572822, -0.000056020635, -1436718.0, -15298.032, 0.0, 10.000015, 9.981325 
2.3350005e+3, 1.6493239e+2, -1348667.1, -1371951.3, 0.012673092, 0.000004556145, 0.000047935446, -1348667.1, -25004.58, 0.0, 10.000015, 9.969241 
2.3350005e+3, 1.7490168e+2, -1250709.4, -1274309.1, -0.051671527, 0.000004536663, -0.00007298515, -1250709.4, -24745.68, 0.0, 10.000015, 9.968827 
2.3350005e+3, 1.8486431e+2, -1162628.5, -1195719.1, 0.012263472, 0.0000045157544, 0.00006704892, -1162628.5, -34298.73, 0.0, 10.000015, 9.9563875 
2.3350005e+3, 1.9482075e+2, -1064478.9, -1097832.0, -0.054760925, 0.000004493349, -0.000056897425, -1064478.9, -33722.164, 0.0, 10.000015, 9.956045 
2.3350005e+3, 2.047705e+2, -976315.0, -1019434.1, 0.011114422, 0.000004477624, 0.000068754714, -976315.0, -43065.938, 0.0, 10.000015, 9.943283 
2.3350005e+3, 2.1471383e+2, -878028.2, -921409.1, -0.05389193, 0.0000044691324, -0.00012616545, -878028.2, -42223.62, 0.0, 10.000015, 9.942943 
2.3350005e+3, 2.2465046e+2, -789742.1, -843144.1, 0.010085561, 0.0000044560475, 0.000121507495, -789742.1, -51316.523, 0.0, 10.000015, 9.9299 
2.3350005e+3, 2.3458041e+2, -691308.75, -744965.8, -0.051137127, 0.000004437758, -0.000088246554, -691308.75, -50196.836, 0.0, 10.000015, 9.929569 
2.3350005e+3, 2.4450344e+2, -602984.8, -667018.2, 0.014203134, 0.000004422622, 0.000075228396, -602984.8, -59118.46, 0.0, 10.000015, 9.916129 
2.3350005e+3, 2.5441968e+2, -504232.28, -568342.8, -0.046014886, 0.0000044112544, -0.000106264546, -504232.28, -57545.184, 0.0, 10.000015, 9.916029 
2.3350005e+3, 2.6432887e+2, -415996.97, -490987.47, 0.016347433, 0.000004401936, 0.00014101937, -415996.97, -66419.68, 0.0, 10.000015, 9.9019575 
2.3350005e+3, 2.7423134e+2, -316711.88, -391374.47, -0.043378066, 0.000004395214, -0.00020306556, -316711.88, -64179.188, 0.0, 10.000015, 9.902377 
2.3350005e+3, 2.8412563e+2, -230238.66, -318080.97, 0.017211862, 0.0000043877553, 0.00022938436, -230238.66, -74669.95, 0.0, 10.000015, 9.885431 
2.3350005e+3, 2.9401213e+2, -130532.64, -217764.83, -0.037100114, 0.0000043792725, -0.0002530355, -130532.64, -71851.44, 0.0, 10.000015, 9.88621 
2.3350005e+3, 3.0392656e+2, -40788.883, -84750.234, 0.025443178, 0.000004370774, 0.00017338192, -40788.883, -40788.883, 0.0, 10.000015, 9.942165 
2.3350005e+3, 3.138706e+2, -39710.9, -82511.31, -0.025630403, 0.0000043622695, -0.000055004184, -39710.9, -39710.9, 0.0, 10.000015, 9.943677 
2.3450008e+3, 1.24993496e+2, -1719926.0, -1724223.0, 0.054699957, 0.000004774552, 0.000019143235, -1719926.0, -4862.1914, 0.0, 10.000016, 9.994319 
2.3450008e+3, 1.3498773e+2, -1622545.8, -1627433.4, -0.01894347, 0.0000047200806, -0.00006846468, -1622545.8, -5425.547, 0.0, 10.000016, 9.993537 
2.3450008e+3, 1.4497526e+2, -1534444.4, -1548144.5, 0.044838686, 0.0000046876758, 0.00007290904, -1534444.4, -15202.005, 0.0, 10.000016, 9.981857 
2.3450008e+3, 1.5495716e+2, -1436716.9, -1450820.4, -0.025289793, 0.0000046765294, -0.00005600241, -1436716.9, -15296.96, 0.0, 10.000016, 9.981325 
2.3450008e+3, 1.6493239e+2, -1348666.1, -1371950.9, 0.04376558, 0.0000046618425, 0.000047940557, -1348666.1, -25003.516, 0.0, 10.000016, 9.96924 
2.3450008e+3, 1.7490168e+2, -1250708.3, -1274308.9, -0.02855073, 0.000004643543, -0.00007296491, -1250708.3, -24744.633, 0.0, 10.000016, 9.968827 
2.3450008e+3, 1.8486431e+2, -1162627.4, -1195718.8, 0.03557126, 0.0000046208424, 0.000067073466, -1162627.4, -34297.69, 0.0, 10.000016, 9.9563875 
2.3450008e+3, 1.9482075e+2, -1064477.9, -1097831.8, -0.03248429, 0.0000045935326, -0.00005687991, -1064477.9, -33721.13, 0.0, 10.000016, 9.956044 
2.3450008e+3, 2.047705e+2, -976313.94, -1019433.8, 0.03321206, 0.0000045775337, 0.00006876842, -976313.94, -43064.902, 0.0, 10.000016, 9.943283 
2.3450008e+3, 2.1471383e+2, -878027.1, -921408.75, -0.03191105, 0.000004573782, -0.00012615204, -878027.1, -42222.594, 0.0, 10.000016, 9.942942 
2.3450005e+3, 2.2465046e+2, -789741.06, -843143.8, 0.033212926, 0.00000456131, 0.000121520716, -789741.06, -51315.508, 0.0, 10.000016, 9.9299 
2.3450005e+3, 2.3458041e+2, -691307.75, -744965.5, -0.035911612, 0.00000453896, -0.000088233384, -691307.75, -50195.824, 0.0, 10.000016, 9.929569 
2.3450005e+3, 2.4450344e+2, -602983.8, -667017.9, 0.027527409, 0.000004522348, 0.00007524136, -602983.8, -59117.453, 0.0, 10.000016, 9.916129 
2.3450005e+3, 2.5441968e+2, -504231.25, -568342.5, -0.033524353, 0.000004512596, -0.00010625197, -504231.25, -57544.188, 0.0, 10.000016, 9.916029 
2.3450005e+3, 2.6432887e+2, -415995.97, -490987.2, 0.029702425, 0.000004504067, 0.00014102989, -415995.97, -66418.69, 0.0, 10.000016, 9.9019575 
2.3450005e+3, 2.7423134e+2, -316710.88, -391374.2, -0.030692209, 0.000004497074, -0.00020305919, -316710.88, -64178.2, 0.0, 10.000016, 9.902377 
2.3450005e+3, 2.8412563e+2, -230237.67, -318080.7, 0.031244075, 0.0000044887797, 0.00022938904, -230237.67, -74668.96, 0.0, 10.000015, 9.885431 
2.3450005e+3, 2.9401213e+2, -130531.65, -217764.55, -0.028279942, 0.0000044786943, -0.00025302914, -130531.65, -71850.45, 0.0, 10.000015, 9.8862095 
2.3450005e+3, 3.0392656e+2, -40787.906, -84749.96, 0.031956784, 0.000004470178, 0.00017338865, -40787.906, -40787.906, 0.0, 10.000015, 9.942165 
2.3450005e+3, 3.138706e+2, -39709.934, -82511.05, -0.02316084, 0.0000044640155, -0.000054999135, -39709.934, -39709.934, 0.0, 10.000015, 9.943677 
2.3550007e+3, 1.24993496e+2, -1719926.1, -1724223.3, 0.023159958, 0.0000048851825, 0.000019178975, -1719926.1, -4862.4, 0.0, 10.000016, 9.994319 
2.3550007e+3, 1.3498773e+2, -1622545.9, -1627433.6, -0.050489392, 0.000004826894, -0.000068475405, -1622545.9, -5425.752, 0.0, 10.000016, 9.993537 
2.3550007e+3, 1.4497526e+2, -1534444.5, -1548144.9, 0.012961376, 0.000004793464, 0.00007297569, -1534444.5, -15202.2, 0.0, 10.000016, 9.981856 
2.3550007e+3, 1.5495716e+2, -1436717.1, -1450820.6, -0.057168227, 0.0000047840786, -0.000055990105, -1436717.1, -15297.15, 0.0, 10.000016, 9.981325 
2.3550007e+3, 1.6493239e+2, -1348666.3, -1371951.1, 0.013738051, 0.000004768246, 0.00004793869, -1348666.3, -25003.709, 0.0, 10.000016, 9.96924 
2.3550007e+3, 1.7490168e+2, -1250708.4, -1274309.1, -0.05856916, 0.000004745834, -0.0000729399, -1250708.4, -24744.822, 0.0, 10.000016, 9.968826 
2.3550007e+3, 1.8486431e+2, -1162627.5, -1195719.0, 0.012008574, 0.000004724546, 0.000067104826, -1162627.5, -34297.87, 0.0, 10.000016, 9.9563875 
2.3550007e+3, 1.9482076e+2, -1064478.0, -1097832.0, -0.055973016, 0.0000047044314, -0.000056863664, -1064478.0, -33721.305, 0.0, 10.000016, 9.956044 
2.3550007e+3, 2.047705e+2, -976314.1, -1019434.06, 0.00946387, 0.0000046878745, 0.000068778536, -976314.1, -43065.07, 0.0, 10.000016, 9.943283 
2.3550007e+3, 2.1471383e+2, -878027.25, -921409.06, -0.05566557, 0.0000046751684, -0.00012613833, -878027.25, -42222.758, 0.0, 10.000016, 9.942942 
2.3550007e+3, 2.2465046e+2, -789741.25, -843144.06, 0.014680735, 0.0000046598607, 0.000121534016, -789741.25, -51315.68, 0.0, 10.000016, 9.9299 
2.3550007e+3, 2.3458041e+2, -691307.9, -744965.75, -0.054273315, 0.0000046416035, -0.00008822506, -691307.9, -50195.992, 0.0, 10.000016, 9.929569 
2.3550007e+3, 2.4450344e+2, -602983.94, -667018.2, 0.011087477, 0.0000046281266, 0.00007525053, -602983.94, -59117.605, 0.0, 10.000016, 9.916128 
2.3550007e+3, 2.5441968e+2, -504231.4, -568342.8, -0.049872946, 0.0000046203595, -0.00010623501, -504231.4, -57544.336, 0.0, 10.000016, 9.916029 
2.3550007e+3, 2.6432887e+2, -415996.1, -490987.47, 0.016562486, 0.000004610647, 0.00014104659, -415996.1, -66418.836, 0.0, 10.000016, 9.9019575 
2.3550007e+3, 2.7423134e+2, -316711.0, -391374.44, -0.043617856, 0.0000045984425, -0.00020305303, -316711.0, -64178.344, 0.0, 10.000016, 9.902377 
2.3550007e+3, 2.8412563e+2, -230237.8, -318080.97, 0.021972619, 0.0000045884394, 0.00022938925, -230237.8, -74669.11, 0.0, 10.000015, 9.885431 
2.3550007e+3, 2.9401213e+2, -130531.78, -217764.83, -0.037222728, 0.000004581457, -0.0002530286, -130531.78, -71850.59, 0.0, 10.000015, 9.8862095 
2.3550007e+3, 3.0392656e+2, -40788.04, -84750.234, 0.024454396, 0.000004573783, 0.00017339284, -40788.04, -40788.04, 0.0, 10.000015, 9.942165 
2.3550007e+3, 3.138706e+2, -39710.066, -82511.32, -0.03049504, 0.0000045650645, -0.000054986464, -39710.066, -39710.066, 0.0, 10.000015, 9.943677 
2.3650007e+3, 1.249935e+2, -1719925.0, -1724222.9, 0.057364594, 0.0000049930986, 0.000019222185, -1719925.0, -4861.247, 0.0, 10.000017, 9.994319 
2.3650007e+3, 1.3498774e+2, -1622544.8, -1627433.3, -0.020329237, 0.0000049391256, -0.00006849389, -1622544.8, -5424.63, 0.0, 10.000017, 9.993537 
2.3650007e+3, 1.4497527e+2, -1534443.4, -1548144.5, 0.043306433, 0.000004906361, 0.00007303768, -1534443.4, -15201.084, 0.0, 10.000017, 9.981856 
2.3650007e+3, 1.5495716e+2, -1436715.9, -1450820.3, -0.028335065, 0.0000048939446, -0.000055967732, -1436715.9, -15296.038, 0.0, 10.000017, 9.981325 
2.3650007e+3, 1.649324e+2, -1348665.1, -1371950.8, 0.04351999, 0.0000048753977, 0.000047946414, -1348665.1, -25002.602, 0.0, 10.000017, 9.96924 
2.3650007e+3, 1.7490168e+2, -1250707.3, -1274308.8, -0.03043418, 0.000004850594, -0.00007292131, -1250707.3, -24743.715, 0.0, 10.000017, 9.968826 
2.3650007e+3, 1.8486431e+2, -1162626.4, -1195718.6, 0.040606927, 0.0000048310562, 0.00006712662, -1162626.4, -34296.77, 0.0, 10.000017, 9.9563875 
2.3650007e+3, 1.9482076e+2, -1064476.9, -1097831.6, -0.030794133, 0.0000048170255, -0.000056846693, -1064476.9, -33720.234, 0.0, 10.000017, 9.956044 
2.3650007e+3, 2.047705e+2, -976313.0, -1019433.75, 0.03428201, 0.00000479955, 0.00006879351, -976313.0, -43064.004, 0.0, 10.000017, 9.943283 
2.3650007e+3, 2.1471383e+2, -878026.1, -921408.7, -0.03782125, 0.0000047783424, -0.00012612231, -878026.1, -42221.684, 0.0, 10.000017, 9.942942 
2.3650007e+3, 2.2465046e+2, -789740.1, -843143.75, 0.032069933, 0.0000047612803, 0.00012154927, -789740.1, -51314.605, 0.0, 10.000017, 9.9299 
2.3650007e+3, 2.3458041e+2, -691306.8, -744965.44, -0.033633903, 0.0000047489084, -0.00008821267, -691306.8, -50194.934, 0.0, 10.000017, 9.929569 
2.3650007e+3, 2.4450344e+2, -602982.9, -667017.8, 0.033042453, 0.0000047376125, 0.00007526113, -602982.9, -59116.56, 0.0, 10.000016, 9.916128 
2.3650007e+3, 2.5441968e+2, -504230.34, -568342.5, -0.035033688, 0.000004727593, -0.000106224914, -504230.34, -57543.297, 0.0, 10.000016, 9.916028 
2.3650007e+3, 2.6432887e+2, -415995.03, -490987.16, 0.030096533, 0.0000047158014, 0.00014105657, -415995.03, -66417.805, 0.0, 10.000016, 9.901957 
2.3650007e+3, 2.7423134e+2, -316709.94, -391374.13, -0.034272365, 0.0000047017475, -0.00020304264, -316709.94, -64177.31, 0.0, 10.000016, 9.902377 
2.3650007e+3, 2.8412563e+2, -230236.75, -318080.66, 0.030809758, 0.000004691808, 0.00022939919, -230236.75, -74668.07, 0.0, 10.000016, 9.885431 
2.3650007e+3, 2.9401213e+2, -130530.74, -217764.53, -0.028221836, 0.0000046875043, -0.00025302026, -130530.74, -71849.57, 0.0, 10.000016, 9.8862095 
2.3650007e+3, 3.0392656e+2, -40787.023, -84749.96, 0.034075063, 0.000004680068, 0.00017339922, -40787.023, -40787.023, 0.0, 10.000016, 9.942165 
2.3650007e+3, 3.138706e+2, -39709.047, -82511.05, -0.02518702, 0.0000046679365, -0.000054982436, -39709.047, -39709.047, 0.0, 10.000016, 9.943676 
2.3750007e+3, 1.249935e+2, -1719925.1, -1724223.3, 0.019569863, 0.000005098302, 0.000019272898, -1719925.1, -4861.467, 0.0, 10.000017, 9.994319 
2.3750007e+3, 1.3498774e+2, -1622545.0, -1627433.6, -0.05813108, 0.000005056775, -0.00006852013, -1622545.0, -5424.8457, 0.0, 10.000017, 9.993536 
2.3750007e+3, 1.4497527e+2, -1534443.5, -1548144.8, 0.011489794, 0.000005026366, 0.00007309501, -1534443.5, -15201.284, 0.0, 10.000017, 9.981856 
2.3750007e+3, 1.5495716e+2, -1436716.1, -1450820.6, -0.0601434, 0.0000050061276, -0.0000559353, -1436716.1, -15296.234, 0.0, 10.000017, 9.981325 
2.3750007e+3, 1.649324e+2, -1348665.3, -1371951.1, 0.014651923, 0.0000049832975, 0.000047963724, -1348665.3, -25002.8, 0.0, 10.000017, 9.96924 
2.3750007e+3, 1.7490168e+2, -1250707.5, -1274309.1, -0.059287347, 0.0000049578234, -0.00007290914, -1250707.5, -24743.908, 0.0, 10.000017, 9.968826 
2.3750007e+3, 1.8486431e+2, -1162626.6, -1195719.0, 0.011020735, 0.0000049403734, 0.00006713884, -1162626.6, -34296.957, 0.0, 10.000017, 9.9563875 
2.3750007e+3, 1.9482076e+2, -1064477.0, -1097832.0, -0.060389753, 0.000004931315, -0.000056828998, -1064477.0, -33720.418, 0.0, 10.000017, 9.956044 
2.3750007e+3, 2.047705e+2, -976313.2, -1019434.0, 0.014351041, 0.0000049125606, 0.00006881334, -976313.2, -43064.19, 0.0, 10.000017, 9.943282 
2.3750007e+3, 2.1471384e+2, -878026.3, -921409.0, -0.057553347, 0.0000048833035, -0.00012610396, -878026.3, -42221.863, 0.0, 10.000017, 9.942942 
2.3750007e+3, 2.2465046e+2, -789740.3, -843144.06, 0.010534559, 0.000004865568, 0.00012156647, -789740.3, -51314.77, 0.0, 10.000017, 9.9299 
2.3750007e+3, 2.3458041e+2, -691306.94, -744965.75, -0.055229146, 0.0000048608745, -0.00008819623, -691306.94, -50195.098, 0.0, 10.000017, 9.929568 
2.3750007e+3, 2.4450344e+2, -602983.0, -667018.1, 0.015052099, 0.000004850805, 0.00007527315, -602983.0, -59116.727, 0.0, 10.000016, 9.916128 
2.3750007e+3, 2.5441968e+2, -504230.5, -568342.75, -0.05285153, 0.0000048342977, -0.00010622169, -504230.5, -57543.46, 0.0, 10.000016, 9.916028 
2.3750007e+3, 2.6432887e+2, -415995.2, -490987.44, 0.018388947, 0.0000048195307, 0.00014105986, -415995.2, -66417.96, 0.0, 10.000016, 9.901957 
2.3750007e+3, 2.7423134e+2, -316710.1, -391374.44, -0.045571107, 0.000004806989, -0.00020302802, -316710.1, -64177.46, 0.0, 10.000016, 9.902377 
2.3750007e+3, 2.8412563e+2, -230236.89, -318080.94, 0.019914946, 0.0000047988847, 0.00022941885, -230236.89, -74668.22, 0.0, 10.000016, 9.88543 
2.3750007e+3, 2.9401213e+2, -130530.88, -217764.8, -0.03908117, 0.0000047968365, -0.00025300423, -130530.88, -71849.71, 0.0, 10.000016, 9.8862095 
2.3750007e+3, 3.0392656e+2, -40787.16, -84750.25, 0.027161548, 0.0000047890317, 0.0001734078, -40787.16, -40787.16, 0.0, 10.000016, 9.942164 
2.3750007e+3, 3.138706e+2, -39709.188, -82511.336, -0.031637885, 0.0000047726317, -0.000054987042, -39709.188, -39709.188, 0.0, 10.000016, 9.943676 
2.3850007e+3, 1.2499351e+2, -1719923.9, -1724222.8, 0.058550775, 0.0000052134696, 0.00001931362, -1719923.9, -4860.2764, 0.0, 10.000018, 9.994318 
2.3850007e+3, 1.3498774e+2, -1622543.8, -1627433.3, -0.020120699, 0.0000051716775, -0.00006854329, -1622543.8, -5423.6616, 0.0, 10.000018, 9.993536 
2.3850007e+3, 1.4497527e+2, -1534442.4, -1548144.4, 0.05005626, 0.000005140854, 0.00007315847, -1534442.4, -15200.1045, 0.0, 10.000018, 9.981856 
2.3850007e+3, 1.5495718e+2, -1436714.9, -1450820.3, -0.029404439, 0.000005120025, -0.000055910932, -1436714.9, -15295.071, 0.0, 10.000018, 9.981324 
2.3850007e+3, 1.649324e+2, -1348664.1, -1371950.8, 0.044505037, 0.0000050974572, 0.000047972968, -1348664.1, -25001.648, 0.0, 10.000018, 9.96924 
2.3850007e+3, 1.749017e+2, -1250706.3, -1274308.8, -0.02998817, 0.0000050731155, -0.000072890514, -1250706.3, -24742.771, 0.0, 10.000018, 9.968826 
2.3850007e+3, 1.8486433e+2, -1162625.4, -1195718.6, 0.039827008, 0.0000050538383, 0.00006716069, -1162625.4, -34295.82, 0.0, 10.000018, 9.956387 
2.3850007e+3, 1.9482076e+2, -1064475.9, -1097831.6, -0.037272375, 0.0000050398558, -0.000056810386, -1064475.9, -33719.266, 0.0, 10.000018, 9.956044 
2.3850007e+3, 2.047705e+2, -976312.0, -1019433.6, 0.037965864, 0.0000050209796, 0.00006883016, -976312.0, -43063.047, 0.0, 10.000018, 9.943282 
2.3850007e+3, 2.1471384e+2, -878025.2, -921408.7, -0.035484683, 0.000004996802, -0.00012608737, -878025.2, -42220.754, 0.0, 10.000018, 9.942942 
2.3850007e+3, 2.2465046e+2, -789739.2, -843143.7, 0.03165276, 0.00000498028, 0.000121582074, -789739.2, -51313.67, 0.0, 10.000017, 9.929899 
2.3850007e+3, 2.3458043e+2, -691305.8, -744965.4, -0.039201476, 0.000004972423, -0.00008818246, -691305.8, -50193.996, 0.0, 10.000017, 9.929568 
2.3850007e+3, 2.4450345e+2, -602981.9, -667017.8, 0.0314887, 0.0000049600726, 0.000075285774, -602981.9, -59115.625, 0.0, 10.000017, 9.916128 
2.3850007e+3, 2.5441968e+2, -504229.38, -568342.44, -0.03836766, 0.0000049423425, -0.0001062094, -504229.38, -57542.36, 0.0, 10.000017, 9.916028 
2.3850007e+3, 2.6432887e+2, -415994.06, -490987.1, 0.033254612, 0.0000049278606, 0.00014107127, -415994.06, -66416.86, 0.0, 10.000017, 9.901957 
2.3850007e+3, 2.7423134e+2, -316709.0, -391374.13, -0.033590686, 0.0000049175196, -0.00020301816, -316709.0, -64176.387, 0.0, 10.000017, 9.902376 
2.3850007e+3, 2.8412563e+2, -230235.81, -318080.63, 0.031084493, 0.0000049098785, 0.00022942755, -230235.81, -74667.15, 0.0, 10.000017, 9.88543 
2.3850007e+3, 2.9401213e+2, -130529.805, -217764.5, -0.03248772, 0.000004905907, -0.0002529961, -130529.805, -71848.64, 0.0, 10.000017, 9.8862095 
2.3850007e+3, 3.0392656e+2, -40786.098, -84749.95, 0.03481642, 0.000004897539, 0.00017341388, -40786.098, -40786.098, 0.0, 10.000017, 9.942164 
2.3850007e+3, 3.138706e+2, -39708.125, -82511.04, -0.022530971, 0.0000048826164, -0.000054985132, -39708.125, -39708.125, 0.0, 10.000017, 9.943676 
2.3950008e+3, 1.2499351e+2, -1719924.1, -1724223.1, 0.02033626, 0.0000053385984, 0.000019344396, -1719924.1, -4860.5005, 0.0, 10.000018, 9.994318 
2.3950008e+3, 1.3498774e+2, -1622543.9, -1627433.5, -0.05834267, 0.0000052838336, -0.000068563364, -1622543.9, -5423.8813, 0.0, 10.000018, 9.993536 
2.3950008e+3, 1.4497527e+2, -1534442.5, -1548144.8, 0.015403357, 0.0000052498267, 0.00007322807, -1534442.5, -15200.324, 0.0, 10.000018, 9.981856 
2.3950008e+3, 1.5495718e+2, -1436715.0, -1450820.5, -0.06405233, 0.0000052356377, -0.000055894638, -1436715.0, -15295.286, 0.0, 10.000018, 9.981324 
2.3950008e+3, 1.649324e+2, -1348664.3, -1371951.0, 0.013346139, 0.0000052178757, 0.00004797415, -1348664.3, -25001.85, 0.0, 10.000018, 9.969239 
2.3950008e+3, 1.749017e+2, -1250706.5, -1274309.0, -0.061129954, 0.000005196469, -0.000072865434, -1250706.5, -24742.969, 0.0, 10.000018, 9.968826 
2.3950008e+3, 1.8486433e+2, -1162625.6, -1195718.9, 0.014314805, 0.000005171451, 0.00006719216, -1162625.6, -34296.02, 0.0, 10.000018, 9.956387 
2.3950008e+3, 1.9482076e+2, -1064476.0, -1097831.9, -0.062720016, 0.00000514265, -0.000056790857, -1064476.0, -33719.465, 0.0, 10.000018, 9.956043 
2.3950008e+3, 2.0477052e+2, -976312.2, -1019434.0, 0.011122499, 0.000005124809, 0.000068843976, -976312.2, -43063.234, 0.0, 10.000018, 9.943282 
2.3950008e+3, 2.1471384e+2, -878025.3, -921409.0, -0.062357575, 0.000005118836, -0.00012607253, -878025.3, -42220.938, 0.0, 10.000018, 9.942941 
2.3950008e+3, 2.2465047e+2, -789739.3, -843144.0, 0.011026856, 0.0000051054144, 0.000121596095, -789739.3, -51313.848, 0.0, 10.000017, 9.929899 
2.3950008e+3, 2.3458043e+2, -691306.0, -744965.7, -0.05962416, 0.000005083555, -0.00008817134, -691306.0, -50194.17, 0.0, 10.000017, 9.929568 
2.3950008e+3, 2.4450345e+2, -602982.06, -667018.1, 0.015677013, 0.0000050654166, 0.000075298994, -602982.06, -59115.8, 0.0, 10.000017, 9.916128 
2.3950008e+3, 2.5441968e+2, -504229.53, -568342.75, -0.05395851, 0.000005051728, -0.00010618807, -504229.53, -57542.527, 0.0, 10.000017, 9.916028 
2.3950008e+3, 2.6432887e+2, -415994.22, -490987.4, 0.017256629, 0.0000050407903, 0.00014109082, -415994.22, -66417.02, 0.0, 10.000017, 9.901957 
2.3950008e+3, 2.7423134e+2, -316709.16, -391374.4, -0.04961668, 0.0000050333383, -0.00020301307, -316709.16, -64176.547, 0.0, 10.000017, 9.902376 
2.3950008e+3, 2.8412563e+2, -230235.95, -318080.9, 0.02050489, 0.0000050247886, 0.00022942529, -230235.95, -74667.305, 0.0, 10.000017, 9.88543 
2.3950008e+3, 2.9401213e+2, -130529.945, -217764.8, -0.04257754, 0.0000050147164, -0.00025299593, -130529.945, -71848.8, 0.0, 10.000017, 9.886209 
2.3950008e+3, 3.0392656e+2, -40786.24, -84750.24, 0.028186586, 0.0000050055896, 0.00017341747, -40786.24, -40786.24, 0.0, 10.000017, 9.942164 
2.3950008e+3, 3.138706e+2, -39708.26, -82511.33, -0.028755918, 0.0000049978894, -0.000054976706, -39708.26, -39708.26, 0.0, 10.000017, 9.943676 
2.4050008e+3, 1.2499352e+2, -1719922.9, -1724222.6, 0.06305363, 0.000005462147, 0.000019386662, -1719922.9, -4859.2637, 0.0, 10.000019, 9.994318 
2.4050008e+3, 1.3498776e+2, -1622542.6, -1627433.1, -0.021422734, 0.0000054009483, -0.00006858592, -1622542.6, -5422.6436, 0.0, 10.000019, 9.993536 
2.4050008e+3, 1.4497529e+2, -1534441.3, -1548144.3, 0.051122867, 0.000005365532, 0.00007329511, -1534441.3, -15199.089, 0.0, 10.000019, 9.981855 
2.4050008e+3, 1.5495718e+2, -1436713.8, -1450820.1, -0.02856314, 0.000005354963, -0.00005587443, -1436713.8, -15294.065, 0.0, 10.000019, 9.981324 
2.4050008e+3, 1.6493241e+2, -1348663.0, -1371950.6, 0.048759814, 0.000005337792, 0.00004797993, -1348663.0, -25000.637, 0.0, 10.000019, 9.969239 
2.4050008e+3, 1.749017e+2, -1250705.3, -1274308.6, -0.034865674, 0.0000053138842, -0.00007284098, -1250705.3, -24741.764, 0.0, 10.000019, 9.968825 
2.4050008e+3, 1.8486433e+2, -1162624.4, -1195718.5, 0.04042361, 0.000005287663, 0.00006722112, -1162624.4, -34294.824, 0.0, 10.000019, 9.956387 
2.4050008e+3, 1.9482076e+2, -1064474.9, -1097831.5, -0.036286738, 0.0000052590167, -0.00005677221, -1064474.9, -33718.285, 0.0, 10.000019, 9.956043 
2.4050008e+3, 2.0477052e+2, -976310.94, -1019433.56, 0.037492294, 0.0000052417176, 0.00006885771, -976310.94, -43062.063, 0.0, 10.000019, 9.943282 
2.4050008e+3, 2.1471384e+2, -878024.1, -921408.56, -0.03786795, 0.000005236705, -0.00012605783, -878024.1, -42219.766, 0.0, 10.000018, 9.942941 
2.4050008e+3, 2.2465047e+2, -789738.1, -843143.6, 0.037187982, 0.0000052220184, 0.00012161117, -789738.1, -51312.684, 0.0, 10.000018, 9.929899 
2.4050008e+3, 2.3458043e+2, -691304.8, -744965.3, -0.040598426, 0.000005196374, -0.00008815656, -691304.8, -50193.008, 0.0, 10.000018, 9.929568 
2.4050008e+3, 2.4450345e+2, -602980.9, -667017.75, 0.032656778, 0.000005177785, 0.00007531337, -602980.9, -59114.645, 0.0, 10.000018, 9.916127 
2.4050008e+3, 2.5441968e+2, -504228.38, -568342.4, -0.038740788, 0.0000051676325, -0.000106174244, -504228.38, -57541.39, 0.0, 10.000018, 9.916027 
2.4050008e+3, 2.6432887e+2, -415993.06, -490987.06, 0.03296648, 0.000005157898, 0.00014110272, -415993.06, -66415.9, 0.0, 10.000018, 9.901957 
2.4050008e+3, 2.7423134e+2, -316708.0, -391374.06, -0.035327982, 0.0000051486722, -0.00020300483, -316708.0, -64175.414, 0.0, 10.000018, 9.902376 
2.4050008e+3, 2.8412563e+2, -230234.81, -318080.6, 0.036615003, 0.000005138825, 0.00022943116, -230234.81, -74666.18, 0.0, 10.000018, 9.88543 
2.4050008e+3, 2.9401213e+2, -130528.81, -217764.47, -0.030463183, 0.0000051281204, -0.00025299066, -130528.81, -71847.67, 0.0, 10.000018, 9.886209 
2.4050008e+3, 3.0392656e+2, -40785.12, -84749.94, 0.03685153, 0.0000051185516, 0.00017342334, -40785.12, -40785.12, 0.0, 10.000018, 9.942164 
2.4050008e+3, 3.138706e+2, -39707.152, -82511.02, -0.029294, 0.0000051106863, -0.00005496852, -39707.152, -39707.152, 0.0, 10.000018, 9.943675 
2.4150008e+3, 1.24993525e+2, -1719923.0, -1724223.0, 0.026174815, 0.000005584116, 0.000019440455, -1719923.0, -4859.5034, 0.0, 10.000019, 9.994318 
2.4150008e+3, 1.3498776e+2, -1622542.9, -1627433.5, -0.05830831, 0.0000055230207, -0.000068610956, -1622542.9, -5422.879, 0.0, 10.000019, 9.993535 
2.4150008e+3, 1.4497529e+2, -1534441.4, -1548144.6, 0.013993103, 0.0000054879692, 0.0000733596, -1534441.4, -15199.311, 0.0, 10.000019, 9.981855 
2.4150008e+3, 1.5495718e+2, -1436714.0, -1450820.5, -0.065694295, 0.000005478001, -0.0000558503, -1436714.0, -15294.282, 0.0, 10.000019, 9.981324 
2.4150008e+3, 1.6493241e+2, -1348663.3, -1371951.0, 0.01696589, 0.0000054572074, 0.000047990306, -1348663.3, -25000.861, 0.0, 10.000019, 9.969239 
2.4150008e+3, 1.749017e+2, -1250705.4, -1274309.0, -0.06663206, 0.0000054253637, -0.00007281715, -1250705.4, -24741.982, 0.0, 10.000019, 9.968825 
2.4150008e+3, 1.8486433e+2, -1162624.5, -1195718.9, 0.0115710385, 0.0000054024754, 0.00006724759, -1162624.5, -34295.027, 0.0, 10.000019, 9.956387 
2.4150008e+3, 1.9482078e+2, -1064475.0, -1097831.9, -0.06510664, 0.000005388952, -0.00005675444, -1064475.0, -33718.484, 0.0, 10.000019, 9.956043 
2.4150008e+3, 2.0477052e+2, -976311.1, -1019433.94, 0.011200432, 0.0000053717017, 0.000068871384, -976311.1, -43062.258, 0.0, 10.000019, 9.943281 
2.4150008e+3, 2.1471384e+2, -878024.3, -921408.94, -0.06410876, 0.000005350412, -0.00012604326, -878024.3, -42219.957, 0.0, 10.000018, 9.942941 
2.4150008e+3, 2.2465047e+2, -789738.3, -843143.94, 0.016671969, 0.0000053300955, 0.0001216273, -789738.3, -51312.88, 0.0, 10.000018, 9.929899 
2.4150008e+3, 2.3458043e+2, -691305.0, -744965.7, -0.060927752, 0.0000053108793, -0.000088138106, -691305.0, -50193.2, 0.0, 10.000018, 9.929567 
2.4150008e+3, 2.4450345e+2, -602981.0, -667018.06, 0.01314327, 0.000005297177, 0.00007532889, -602981.0, -59114.82, 0.0, 10.000018, 9.916127 
2.4150008e+3, 2.5441968e+2, -504228.53, -568342.7, -0.058215972, 0.000005290055, -0.00010616793, -504228.53, -57541.566, 0.0, 10.000018, 9.916027 
2.4150008e+3, 2.6432887e+2, -415993.22, -490987.38, 0.018189004, 0.0000052791843, 0.00014110698, -415993.22, -66416.07, 0.0, 10.000018, 9.901956 
2.4150008e+3, 2.7423134e+2, -316708.16, -391374.38, -0.049791787, 0.0000052635232, -0.00020299345, -316708.16, -64175.582, 0.0, 10.000018, 9.902376 
2.4150008e+3, 2.8412563e+2, -230234.97, -318080.9, 0.025666047, 0.0000052519886, 0.00022944514, -230234.97, -74666.34, 0.0, 10.000018, 9.88543 
2.4150008e+3, 2.9401213e+2, -130528.97, -217764.78, -0.041096166, 0.0000052461187, -0.00025298027, -130528.97, -71847.836, 0.0, 10.000018, 9.886209 
2.4150008e+3, 3.0392656e+2, -40785.277, -84750.26, 0.02928718, 0.000005236424, 0.00017343147, -40785.277, -40785.277, 0.0, 10.000018, 9.942164 
2.4150008e+3, 3.138706e+2, -39707.31, -82511.35, -0.03649879, 0.000005221008, -0.00005496057, -39707.31, -39707.31, 0.0, 10.000018, 9.943675 
2.4250007e+3, 1.24993525e+2, -1719921.6, -1724222.6, 0.06443768, 0.000005707428, 0.00001949081, -1719921.6, -4858.1924, 0.0, 10.00002, 9.994317 
2.4250007e+3, 1.3498776e+2, -1622541.5, -1627433.0, -0.022068491, 0.0000056503054, -0.00006863644, -1622541.5, -5421.5967, 0.0, 10.00002, 9.993535 
2.4250007e+3, 1.4497529e+2, -1534440.1, -1548144.1, 0.050178017, 0.000005614805, 0.00007342854, -1534440.1, -15198.033, 0.0, 10.00002, 9.981855 
2.4250007e+3, 1.5495719e+2, -1436712.6, -1450820.0, -0.0347602, 0.0000055999108, -0.000055822795, -1436712.6, -15293.003, 0.0, 10.00002, 9.981323 
2.4250007e+3, 1.6493241e+2, -1348661.9, -1371950.5, 0.049096394, 0.0000055770547, 0.000048001137, -1348661.9, -24999.588, 0.0, 10.00002, 9.969239 
2.4250007e+3, 1.7490171e+2, -1250704.1, -1274308.5, -0.033571094, 0.000005546072, -0.0000727977, -1250704.1, -24740.725, 0.0, 10.00002, 9.968825 
2.4250007e+3, 1.8486433e+2, -1162623.3, -1195718.4, 0.044839893, 0.0000055252253, 0.00006726995, -1162623.3, -34293.777, 0.0, 10.00002, 9.956387 
2.4250007e+3, 1.9482078e+2, -1064473.8, -1097831.4, -0.03751781, 0.000005514981, -0.000056735113, -1064473.8, -33717.254, 0.0, 10.00002, 9.956043 
2.4250007e+3, 2.0477052e+2, -976309.9, -1019433.5, 0.03841188, 0.0000054959096, 0.00006888949, -976309.9, -43061.03, 0.0, 10.000019, 9.943281 
2.4250007e+3, 2.1471384e+2, -878023.06, -921408.5, -0.04389392, 0.000005467275, -0.00012602443, -878023.06, -42218.723, 0.0, 10.000019, 9.942941 
2.4250007e+3, 2.2465047e+2, -789737.06, -843143.56, 0.03558386, 0.0000054458696, 0.00012164569, -789737.06, -51311.65, 0.0, 10.000019, 9.929898 
2.4250007e+3, 2.3458043e+2, -691303.75, -744965.3, -0.041122727, 0.000005432647, -0.000088121495, -691303.75, -50191.996, 0.0, 10.000019, 9.929567 
2.4250007e+3, 2.4450345e+2, -602979.8, -667017.7, 0.03485446, 0.000005420722, 0.00007534241, -602979.8, -59113.625, 0.0, 10.000019, 9.916127 
2.4250007e+3, 2.5441968e+2, -504227.3, -568342.3, -0.03977329, 0.0000054103352, -0.000106159096, -504227.3, -57540.375, 0.0, 10.000019, 9.916027 
2.4250007e+3, 2.6432887e+2, -415992.03, -490987.03, 0.036083665, 0.0000053973986, 0.00014111516, -415992.03, -66414.88, 0.0, 10.000019, 9.901956 
2.4250007e+3, 2.7423134e+2, -316706.97, -391374.03, -0.040225085, 0.0000053812087, -0.00020298084, -316706.97, -64174.4, 0.0, 10.000019, 9.902376 
2.4250007e+3, 2.8412563e+2, -230233.77, -318080.56, 0.032562897, 0.0000053698864, 0.00022945975, -230233.77, -74665.16, 0.0, 10.000019, 9.885429 
2.4250007e+3, 2.9401213e+2, -130527.78, -217764.44, -0.03492262, 0.0000053652357, -0.0002529671, -130527.78, -71846.66, 0.0, 10.000019, 9.886209 
2.4250007e+3, 3.0392656e+2, -40784.113, -84749.945, 0.03823175, 0.000005355576, 0.00017344079, -40784.113, -40784.113, 0.0, 10.000019, 9.942163 
2.4250007e+3, 3.138706e+2, -39706.15, -82511.04, -0.026570516, 0.0000053384283, -0.00005495874, -39706.15, -39706.15, 0.0, 10.000019, 9.943675 
2.4350007e+3, 1.2499353e+2, -1719921.9, -1724223.0, 0.0219786, 0.0000058320834, 0.000019537769, -1719921.9, -4858.4385, 0.0, 10.00002, 9.994317 
2.4350007e+3, 1.3498777e+2, -1622541.6, -1627433.4, -0.06453569, 0.000005782802, -0.000068662346, -1622541.6, -5421.8384, 0.0, 10.00002, 9.993535 
2.4350007e+3, 1.449753e+2, -1534440.3, -1548144.5, 0.014774059, 0.0000057460393, 0.00007350192, -1534440.3, -15198.27, 0.0, 10.00002, 9.981855 
2.4350007e+3, 1.5495719e+2, -1436712.9, -1450820.4, -0.070153944, 0.0000057206935, -0.000055791897, -1436712.9, -15293.233, 0.0, 10.00002, 9.981323 
2.4350007e+3, 1.6493241e+2, -1348662.1, -1371950.9, 0.014864268, 0.000005697334, 0.000048012425, -1348662.1, -24999.81, 0.0, 10.00002, 9.969238 
2.4350007e+3, 1.7490171e+2, -1250704.3, -1274308.9, -0.06779809, 0.0000056760055, -0.00007278264, -1250704.3, -24740.943, 0.0, 10.00002, 9.968825 
2.4350007e+3, 1.8486434e+2, -1162623.4, -1195718.8, 0.01243418, 0.0000056559115, 0.00006728823, -1162623.4, -34293.992, 0.0, 10.00002, 9.956386 
2.4350007e+3, 1.9482078e+2, -1064473.9, -1097831.8, -0.06990353, 0.000005637105, -0.000056714223, -1064473.9, -33717.465, 0.0, 10.00002, 9.956043 
2.4350007e+3, 2.0477052e+2, -976310.06, -1019433.9, 0.015233563, 0.0000056143426, 0.00006891201, -976310.06, -43061.242, 0.0, 10.000019, 9.943281 
2.4350007e+3, 2.1471386e+2, -878023.25, -921408.9, -0.06688292, 0.0000055872943, -0.00012600132, -878023.25, -42218.93, 0.0, 10.000019, 9.94294 
2.4350007e+3, 2.2465047e+2, -789737.25, -843143.9, 0.010835399, 0.000005569339, 0.00012166634, -789737.25, -51311.844, 0.0, 10.000019, 9.929898 
2.4350007e+3, 2.3458043e+2, -691303.94, -744965.6, -0.06592963, 0.0000055616742, -0.000088106724, -691303.94, -50192.184, 0.0, 10.000019, 9.929567 
2.4350007e+3, 2.4450345e+2, -602980.0, -667018.0, 0.015012891, 0.00000554842, 0.00007535391, -602980.0, -59113.813, 0.0, 10.000019, 9.916127 
2.4350007e+3, 2.5441968e+2, -504227.47, -568342.7, -0.059377577, 0.0000055284745, -0.00010614774, -504227.47, -57540.555, 0.0, 10.000019, 9.916027 
2.4350007e+3, 2.6432887e+2, -415992.2, -490987.38, 0.021926485, 0.0000055125424, 0.00014112722, -415992.2, -66415.06, 0.0, 10.000019, 9.901956 
2.4350007e+3, 2.7423137e+2, -316707.13, -391374.38, -0.054017592, 0.0000055017294, -0.00020296696, -316707.13, -64174.58, 0.0, 10.000019, 9.902375 
2.4350007e+3, 2.8412563e+2, -230233.92, -318080.88, 0.0206227, 0.0000054925185, 0.00022947499, -230233.92, -74665.33, 0.0, 10.000019, 9.885429 
2.4350007e+3, 2.9401213e+2, -130527.94, -217764.77, -0.046697132, 0.000005485471, -0.00025295108, -130527.94, -71846.82, 0.0, 10.000019, 9.886208 
2.4350007e+3, 3.0392656e+2, -40784.27, -84750.266, 0.029937586, 0.000005476007, 0.00017345129, -40784.27, -40784.27, 0.0, 10.000019, 9.942163 
2.4350007e+3, 3.138706e+2, -39706.305, -82511.36, -0.03445711, 0.0000054629463, -0.00005496302, -39706.305, -39706.305, 0.0, 10.000019, 9.943675 
2.4450007e+3, 1.2499353e+2, -1719920.5, -1724222.5, 0.06659368, 0.0000059639847, 0.0000195829, -1719920.5, -4857.082, 0.0, 10.000021, 9.994317 
2.4450007e+3, 1.3498777e+2, -1622540.3, -1627432.9, -0.025402479, 0.000005911779, -0.00006868614, -1622540.3, -5420.4834, 0.0, 10.000021, 9.993535 
2.4450007e+3, 1.449753e+2, -1534438.9, -1548144.0, 0.054563534, 0.000005873859, 0.00007357882, -1534438.9, -15196.919, 0.0, 10.000021, 9.981854 
2.4450007e+3, 1.5495719e+2, -1436711.5, -1450819.9, -0.033043418, 0.000005849105, -0.000055766828, -1436711.5, -15291.905, 0.0, 10.000021, 9.981323 
2.4450007e+3, 1.6493243e+2, -1348660.8, -1371950.5, 0.0508779, 0.0000058268083, 0.000048018795, -1348660.8, -24998.496, 0.0, 10.000021, 9.969238 
2.4450007e+3, 1.7490171e+2, -1250703.0, -1274308.5, -0.036020447, 0.0000058070227, -0.000072761126, -1250703.0, -24739.643, 0.0, 10.000021, 9.968824 
2.4450007e+3, 1.8486434e+2, -1162622.1, -1195718.4, 0.0444227, 0.0000057845173, 0.000067315035, -1162622.1, -34292.69, 0.0, 10.000021, 9.956386 
2.4450007e+3, 1.9482078e+2, -1064472.5, -1097831.4, -0.043207508, 0.000005759161, -0.000056692446, -1064472.5, -33716.152, 0.0, 10.000021, 9.956042 
2.4450007e+3, 2.0477054e+2, -976308.75, -1019433.44, 0.04212105, 0.0000057358993, 0.00006893109, -976308.75, -43059.938, 0.0, 10.00002, 9.943281 
2.4450007e+3, 2.1471386e+2, -878021.94, -921408.44, -0.041454777, 0.0000057149045, -0.0001259824, -878021.94, -42217.66, 0.0, 10.00002, 9.94294 
2.4450007e+3, 2.2465047e+2, -789735.94, -843143.5, 0.03643531, 0.0000056989056, 0.00012168312, -789735.94, -51310.586, 0.0, 10.00002, 9.929898 
2.4450007e+3, 2.3458044e+2, -691302.6, -744965.2, -0.043475345, 0.0000056885583, -0.00008809431, -691302.6, -50190.926, 0.0, 10.00002, 9.929567 
2.4450007e+3, 2.4450345e+2, -602978.7, -667017.6, 0.037249483, 0.000005672972, 0.00007536614, -602978.7, -59112.555, 0.0, 10.00002, 9.916126 
2.4450007e+3, 2.544197e+2, -504226.2, -568342.3, -0.045279242, 0.000005651117, -0.00010613067, -504226.2, -57539.297, 0.0, 10.00002, 9.916027 
2.4450007e+3, 2.6432887e+2, -415990.94, -490987.0, 0.03532763, 0.000005634733, 0.00014114381, -415990.94, -66413.81, 0.0, 10.00002, 9.901956 
2.4450007e+3, 2.7423137e+2, -316705.88, -391374.03, -0.03822645, 0.0000056253193, -0.00020295766, -316705.88, -64173.344, 0.0, 10.00002, 9.902375 
2.4450007e+3, 2.8412563e+2, -230232.69, -318080.53, 0.03835091, 0.000005616628, 0.00022948081, -230232.69, -74664.1, 0.0, 10.00002, 9.885429 
2.4450007e+3, 2.9401213e+2, -130526.7, -217764.4, -0.03526271, 0.0000056088875, -0.00025294354, -130526.7, -71845.6, 0.0, 10.00002, 9.886208 
2.4450007e+3, 3.0392656e+2, -40783.055, -84749.93, 0.039507713, 0.0000055994947, 0.00017345874, -40783.055, -40783.055, 0.0, 10.00002, 9.942163 
2.4450007e+3, 3.138706e+2, -39705.09, -82511.02, -0.028449936, 0.00000558765, -0.000054958415, -39705.09, -39705.09, 0.0, 10.00002, 9.943675 
2.4550007e+3, 1.2499354e+2, -1719920.6, -1724222.9, 0.025038548, 0.0000061031305, 0.000019626252, -1719920.6, -4857.3433, 0.0, 10.000021, 9.994317 
2.4550007e+3, 1.3498777e+2, -1622540.5, -1627433.4, -0.066965275, 0.000006037238, -0.00006870782, -1622540.5, -5420.7397, 0.0, 10.000021, 9.993534 
2.4550007e+3, 1.449753e+2, -1534439.1, -1548144.4, 0.015073397, 0.0000059982667, 0.000073659234, -1534439.1, -15197.163, 0.0, 10.000021, 9.981854 
2.4550007e+3, 1.5495719e+2, -1436711.6, -1450820.3, -0.07253129, 0.0000059851445, -0.00005574758, -1436711.6, -15292.145, 0.0, 10.000021, 9.981323 
2.4550007e+3, 1.6493243e+2, -1348660.9, -1371950.9, 0.014608354, 0.000005965475, 0.00004802025, -1348660.9, -24998.729, 0.0, 10.000021, 9.969238 
2.4550007e+3, 1.7490171e+2, -1250703.1, -1274308.9, -0.07227437, 0.0000059391236, -0.00007273316, -1250703.1, -24739.871, 0.0, 10.000021, 9.968824 
2.4550007e+3, 1.8486434e+2, -1162622.3, -1195718.8, 0.016022846, 0.000005911044, 0.00006735037, -1162622.3, -34292.92, 0.0, 10.000021, 9.956386 
2.4550007e+3, 1.9482079e+2, -1064472.8, -1097831.8, -0.07151726, 0.00000588115, -0.00005666979, -1064472.8, -33716.38, 0.0, 10.000021, 9.956042 
2.4550007e+3, 2.0477054e+2, -976308.9, -1019433.8, 0.011749686, 0.0000058605797, 0.000068946734, -976308.9, -43060.152, 0.0, 10.00002, 9.943281 
2.4550007e+3, 2.1471386e+2, -878022.1, -921408.8, -0.071869574, 0.0000058501037, -0.00012596766, -878022.1, -42217.87, 0.0, 10.00002, 9.94294 
2.4550007e+3, 2.2465049e+2, -789736.1, -843143.8, 0.012508332, 0.0000058345686, 0.000121696045, -789736.1, -51310.785, 0.0, 10.00002, 9.929898 
2.4550007e+3, 2.3458044e+2, -691302.8, -744965.56, -0.06719161, 0.0000058133, -0.00008808427, -691302.8, -50191.125, 0.0, 10.00002, 9.929567 
2.4550007e+3, 2.4450345e+2, -602978.9, -667018.0, 0.019046422, 0.000005794379, 0.000075379096, -602978.9, -59112.758, 0.0, 10.00002, 9.916126 
2.4550007e+3, 2.544197e+2, -504226.38, -568342.6, -0.063217916, 0.000005778263, -0.000106107895, -504226.38, -57539.496, 0.0, 10.00002, 9.916026 
2.4550007e+3, 2.6432887e+2, -415991.1, -490987.34, 0.017857963, 0.000005763968, 0.0001411649, -415991.1, -66414.0, 0.0, 10.00002, 9.901955 
2.4550007e+3, 2.7423137e+2, -316706.03, -391374.34, -0.055665925, 0.0000057519783, -0.00020295291, -316706.03, -64173.523, 0.0, 10.00002, 9.902375 
2.4550007e+3, 2.8412563e+2, -230232.86, -318080.88, 0.025711775, 0.0000057422153, 0.0002294772, -230232.86, -74664.28, 0.0, 10.00002, 9.885429 
2.4550007e+3, 2.9401213e+2, -130526.875, -217764.75, -0.04747027, 0.000005735485, -0.00025294448, -130526.875, -71845.78, 0.0, 10.00002, 9.886208 
2.4550007e+3, 3.0392656e+2, -40783.22, -84750.266, 0.03167668, 0.000005726038, 0.00017346311, -40783.22, -40783.22, 0.0, 10.00002, 9.942163 
2.4550007e+3, 3.138706e+2, -39705.25, -82511.36, -0.03576845, 0.00000571254, -0.00005494492, -39705.25, -39705.25, 0.0, 10.00002, 9.943674 
2.465001e+3, 1.2499355e+2, -1719919.3, -1724222.4, 0.07138568, 0.0000062381155, 0.000019675512, -1719919.3, -4855.9155, 0.0, 10.000022, 9.994316 
2.465001e+3, 1.3498779e+2, -1622539.0, -1627432.9, -0.024038706, 0.000006170817, -0.000068736095, -1622539.0, -5419.3315, 0.0, 10.000022, 9.993534 
2.465001e+3, 1.449753e+2, -1534437.6, -1548143.9, 0.057166558, 0.000006132559, 0.00007373551, -1534437.6, -15195.762, 0.0, 10.000022, 9.981854 
2.465001e+3, 1.549572e+2, -1436710.3, -1450819.8, -0.034265965, 0.000006122253, -0.00005572349, -1436710.3, -15290.758, 0.0, 10.000022, 9.981322 
2.4650007e+3, 1.6493243e+2, -1348659.5, -1371950.4, 0.05286084, 0.0000061010433, 0.00004802777, -1348659.5, -24997.35, 0.0, 10.000022, 9.969238 
2.4650007e+3, 1.7490172e+2, -1250701.8, -1274308.4, -0.041362118, 0.0000060687044, -0.000072705836, -1250701.8, -24738.488, 0.0, 10.000022, 9.968824 
2.4650007e+3, 1.8486434e+2, -1162620.9, -1195718.3, 0.046715405, 0.0000060396574, 0.00006738233, -1162620.9, -34291.547, 0.0, 10.000022, 9.956386 
2.4650007e+3, 1.9482079e+2, -1064471.4, -1097831.3, -0.041489135, 0.000006014049, -0.000056649063, -1064471.4, -33715.035, 0.0, 10.000022, 9.956042 
2.4650007e+3, 2.0477054e+2, -976307.56, -1019433.4, 0.04196532, 0.000005995175, 0.00006896203, -976307.56, -43058.816, 0.0, 10.000022, 9.94328 
2.4650007e+3, 2.1471386e+2, -878020.75, -921408.4, -0.044177767, 0.0000059835897, -0.0001259515, -878020.75, -42216.535, 0.0, 10.000021, 9.94294 
2.4650007e+3, 2.2465049e+2, -789734.75, -843143.44, 0.040650066, 0.000005965449, 0.00012171334, -789734.75, -51309.453, 0.0, 10.000021, 9.929898 
2.4650007e+3, 2.3458044e+2, -691301.44, -744965.1, -0.04859636, 0.0000059398817, -0.00008806554, -691301.44, -50189.793, 0.0, 10.000021, 9.929566 
2.4650007e+3, 2.4450347e+2, -602977.56, -667017.56, 0.03635937, 0.000005920721, 0.00007539695, -602977.56, -59111.438, 0.0, 10.000021, 9.916126 
2.4650007e+3, 2.544197e+2, -504225.06, -568342.25, -0.043628063, 0.000005909216, -0.00010609365, -504225.06, -57538.2, 0.0, 10.000021, 9.916026 
2.4650007e+3, 2.6432887e+2, -415989.78, -490986.94, 0.03895835, 0.00000589659, 0.0001411768, -415989.78, -66412.7, 0.0, 10.000021, 9.901955 
2.4650007e+3, 2.7423137e+2, -316704.72, -391373.97, -0.041126054, 0.0000058825162, -0.00020294177, -316704.72, -64172.234, 0.0, 10.000021, 9.902375 
2.4650007e+3, 2.8412563e+2, -230231.56, -318080.5, 0.039508462, 0.0000058711844, 0.00022948672, -230231.56, -74662.99, 0.0, 10.000021, 9.885428 
2.4650007e+3, 2.9401216e+2, -130525.58, -217764.38, -0.03598377, 0.0000058636074, -0.0002529378, -130525.58, -71844.5, 0.0, 10.000021, 9.886208 
2.4650007e+3, 3.0392656e+2, -40781.94, -84749.914, 0.042780552, 0.000005853511, 0.00017346875, -40781.94, -40781.94, 0.0, 10.000021, 9.9421625 
2.4650007e+3, 3.138706e+2, -39703.98, -82511.016, -0.03041026, 0.00000583965, -0.000054937573, -39703.98, -39703.98, 0.0, 10.000021, 9.943674 
2.4750009e+3, 1.24993555e+2, -1719919.4, -1724222.8, 0.026464926, 0.0000063689417, 0.000019730738, -1719919.4, -4856.1865, 0.0, 10.000022, 9.994316 
2.4750009e+3, 1.3498779e+2, -1622539.3, -1627433.3, -0.068967916, 0.0000063125135, -0.00006877095, -1622539.3, -5419.598, 0.0, 10.000022, 9.993534 
2.4750009e+3, 1.4497532e+2, -1534437.9, -1548144.4, 0.015367284, 0.000006276733, 0.000073807656, -1534437.9, -15196.017, 0.0, 10.000022, 9.981854 
2.4750009e+3, 1.549572e+2, -1436710.5, -1450820.3, -0.07606167, 0.000006260431, -0.000055694552, -1436710.5, -15291.008, 0.0, 10.000022, 9.981322 
2.4750009e+3, 1.6493243e+2, -1348659.8, -1371950.8, 0.018622661, 0.0000062335153, 0.000048041347, -1348659.8, -24997.602, 0.0, 10.000022, 9.969237 
2.4750009e+3, 1.7490172e+2, -1250701.9, -1274308.8, -0.075561315, 0.0000061957667, -0.00007267915, -1250701.9, -24738.736, 0.0, 10.000022, 9.968824 
2.4750009e+3, 1.8486437e+2, -1162621.0, -1195718.6, 0.012147793, 0.0000061703577, 0.000067410925, -1162621.0, -34291.777, 0.0, 10.000022, 9.956385 
2.4750009e+3, 1.9482079e+2, -1064471.6, -1097831.6, -0.07606218, 0.0000061578553, -0.000056630273, -1064471.6, -33715.26, 0.0, 10.000022, 9.956042 
2.4750009e+3, 2.0477054e+2, -976307.75, -1019433.75, 0.012711438, 0.000006139682, 0.00006897698, -976307.75, -43059.04, 0.0, 10.000022, 9.94328 
2.4750008e+3, 2.1471386e+2, -878020.94, -921408.75, -0.0733233, 0.0000061153632, -0.00012593392, -878020.94, -42216.754, 0.0, 10.000021, 9.942939 
2.4750008e+3, 2.2465049e+2, -789734.94, -843143.8, 0.017490013, 0.000006091549, 0.00012173501, -789734.94, -51309.68, 0.0, 10.000021, 9.929897 
2.4750008e+3, 2.3458044e+2, -691301.6, -744965.5, -0.07156117, 0.0000060683033, -0.00008803814, -691301.6, -50190.01, 0.0, 10.000021, 9.929566 
2.4750008e+3, 2.4450347e+2, -602977.7, -667017.94, 0.013793468, 0.000006051997, 0.00007541971, -602977.7, -59111.637, 0.0, 10.000021, 9.916126 
2.4750008e+3, 2.544197e+2, -504225.25, -568342.6, -0.06617614, 0.000006043974, -0.00010608792, -504225.25, -57538.395, 0.0, 10.000021, 9.916026 
2.4750008e+3, 2.6432887e+2, -415989.97, -490987.3, 0.022280654, 0.000006032599, 0.00014117951, -415989.97, -66412.91, 0.0, 10.000021, 9.901955 
2.4750008e+3, 2.7423137e+2, -316704.9, -391374.34, -0.057411425, 0.0000060169327, -0.0002029242, -316704.9, -64172.426, 0.0, 10.000021, 9.902374 
2.4750008e+3, 2.8412563e+2, -230231.73, -318080.84, 0.026856577, 0.000006003535, 0.00022950936, -230231.73, -74663.18, 0.0, 10.000021, 9.885428 
2.4750008e+3, 2.9401216e+2, -130525.75, -217764.73, -0.048309237, 0.0000059932545, -0.00025292355, -130525.75, -71844.68, 0.0, 10.000021, 9.886208 
2.4750008e+3, 3.039266e+2, -40782.117, -84750.28, 0.03400026, 0.0000059819135, 0.00017347567, -40782.117, -40782.117, 0.0, 10.000021, 9.9421625 
2.4750008e+3, 3.138706e+2, -39704.156, -82511.375, -0.0387755, 0.00000596898, -0.000054936365, -39704.156, -39704.156, 0.0, 10.000021, 9.943674 
2.485001e+3, 1.24993555e+2, -1719917.9, -1724222.3, 0.075078174, 0.000006511711, 0.000019786256, -1719917.9, -4854.7036, 0.0, 10.000023, 9.994316 
2.485001e+3, 1.3498779e+2, -1622537.8, -1627432.8, -0.024138473, 0.000006454383, -0.00006880531, -1622537.8, -5418.129, 0.0, 10.000023, 9.993534 
2.485001e+3, 1.4497532e+2, -1534436.4, -1548143.8, 0.059612498, 0.0000064164396, 0.00007388388, -1534436.4, -15194.549, 0.0, 10.000023, 9.9818535 
2.485001e+3, 1.549572e+2, -1436709.0, -1450819.6, -0.038869295, 0.000006396673, -0.00005566348, -1436709.0, -15289.541, 0.0, 10.000023, 9.981322 
2.485001e+3, 1.6493244e+2, -1348658.3, -1371950.3, 0.056551885, 0.0000063693665, 0.00004805424, -1348658.3, -24996.146, 0.0, 10.000023, 9.969237 
2.485001e+3, 1.7490172e+2, -1250700.5, -1274308.3, -0.038133588, 0.000006334364, -0.000072656876, -1250700.5, -24737.309, 0.0, 10.000023, 9.968823 
2.485001e+3, 1.8486437e+2, -1162619.6, -1195718.1, 0.048859973, 0.0000063104303, 0.000067436136, -1162619.6, -34290.363, 0.0, 10.000023, 9.956385 
2.485001e+3, 1.9482079e+2, -1064470.1, -1097831.1, -0.04458988, 0.000006298072, -0.000056608867, -1064470.1, -33713.85, 0.0, 10.000023, 9.956041 
2.485001e+3, 2.0477054e+2, -976306.3, -1019433.25, 0.04380322, 0.000006277589, 0.0000689972, -976306.3, -43057.633, 0.0, 10.000023, 9.94328 
2.485001e+3, 2.1471387e+2, -878019.5, -921408.3, -0.050729774, 0.0000062483027, -0.00012591205, -878019.5, -42215.348, 0.0, 10.000023, 9.942939 
2.485001e+3, 2.2465049e+2, -789733.5, -843143.4, 0.039838117, 0.000006224075, 0.00012175627, -789733.5, -51308.28, 0.0, 10.000022, 9.929897 
2.485001e+3, 2.3458044e+2, -691300.25, -744965.1, -0.04678461, 0.0000062055724, -0.00008802005, -691300.25, -50188.637, 0.0, 10.000022, 9.929566 
2.485001e+3, 2.4450347e+2, -602976.3, -667017.5, 0.039433632, 0.000006190286, 0.000075434415, -602976.3, -59110.27, 0.0, 10.000022, 9.916125 
2.485001e+3, 2.544197e+2, -504223.84, -568342.2, -0.04771574, 0.0000061788314, -0.00010607686, -504223.84, -57537.03, 0.0, 10.000022, 9.916026 
2.485001e+3, 2.6432887e+2, -415988.6, -490986.9, 0.039507467, 0.000006165874, 0.00014119006, -415988.6, -66411.55, 0.0, 10.000022, 9.901955 
2.485001e+3, 2.7423137e+2, -316703.56, -391373.94, -0.045560498, 0.0000061509904, -0.00020291017, -316703.56, -64171.08, 0.0, 10.000022, 9.902374 
2.485001e+3, 2.841257e+2, -230230.38, -318080.44, 0.03824184, 0.000006138005, 0.00022952471, -230230.38, -74661.836, 0.0, 10.000022, 9.885428 
2.485001e+3, 2.9401216e+2, -130524.4, -217764.34, -0.03892951, 0.00000612762, -0.00025290984, -130524.4, -71843.336, 0.0, 10.000022, 9.886207 
2.485001e+3, 3.039266e+2, -40780.79, -84749.914, 0.04372093, 0.0000061155984, 0.00017348622, -40780.79, -40780.79, 0.0, 10.000022, 9.9421625 
2.485001e+3, 3.138706e+2, -39702.83, -82511.016, -0.032582026, 0.0000061011356, -0.00005493116, -39702.83, -39702.83, 0.0, 10.000022, 9.943674 
2.495001e+3, 1.2499356e+2, -1719918.1, -1724222.6, 0.028188843, 0.0000066664197, 0.000019842131, -1719918.1, -4854.986, 0.0, 10.000023, 9.994316 
2.495001e+3, 1.349878e+2, -1622538.0, -1627433.1, -0.07103639, 0.0000065964255, -0.00006883918, -1622538.0, -5418.4063, 0.0, 10.000023, 9.993533 
2.495001e+3, 1.4497532e+2, -1534436.5, -1548144.3, 0.018847423, 0.0000065516815, 0.00007396418, -1534436.5, -15194.822, 0.0, 10.000023, 9.9818535 
2.495001e+3, 1.5495722e+2, -1436709.1, -1450820.1, -0.07962561, 0.000006530981, -0.000055630266, -1436709.1, -15289.808, 0.0, 10.000023, 9.981322 
2.495001e+3, 1.6493244e+2, -1348658.4, -1371950.6, 0.017015284, 0.000006508596, 0.00004806645, -1348658.4, -24996.402, 0.0, 10.000023, 9.969237 
2.495001e+3, 1.7490172e+2, -1250700.6, -1274308.6, -0.077664934, 0.0000064844944, -0.00007263902, -1250700.6, -24737.56, 0.0, 10.000023, 9.968823 
2.495001e+3, 1.8486437e+2, -1162619.8, -1195718.5, 0.013583338, 0.000006459873, 0.00006745796, -1162619.8, -34290.605, 0.0, 10.000023, 9.956385 
2.495001e+3, 1.9482079e+2, -1064470.4, -1097831.6, -0.079818666, 0.0000064347014, -0.000056584853, -1064470.4, -33714.094, 0.0, 10.000023, 9.956041 
2.495001e+3, 2.0477055e+2, -976306.5, -1019433.7, 0.015930789, 0.0000064088986, 0.00006902268, -976306.5, -43057.875, 0.0, 10.000023, 9.943279 
2.495001e+3, 2.1471387e+2, -878019.7, -921408.7, -0.07845108, 0.000006382408, -0.00012588587, -878019.7, -42215.582, 0.0, 10.000023, 9.942939 
2.495001e+3, 2.2465049e+2, -789733.7, -843143.75, 0.012383834, 0.0000063630264, 0.000121777135, -789733.7, -51308.5, 0.0, 10.000022, 9.929897 
2.495001e+3, 2.3458044e+2, -691300.44, -744965.5, -0.07423153, 0.0000063516864, -0.00008801127, -691300.44, -50188.85, 0.0, 10.000022, 9.929566 
2.495001e+3, 2.4450347e+2, -602976.5, -667017.9, 0.017166108, 0.0000063355865, 0.00007544105, -602976.5, -59110.49, 0.0, 10.000022, 9.916125 
2.495001e+3, 2.544197e+2, -504224.03, -568342.56, -0.069735534, 0.0000063137877, -0.00010606048, -504224.03, -57537.242, 0.0, 10.000022, 9.916025 
2.495001e+3, 2.643289e+2, -415988.78, -490987.28, 0.022182921, 0.0000062964173, 0.00014120844, -415988.78, -66411.76, 0.0, 10.000022, 9.901954 
2.495001e+3, 2.7423137e+2, -316703.75, -391374.3, -0.06257122, 0.00000628469, -0.0002028997, -316703.75, -64171.285, 0.0, 10.000022, 9.902374 
2.495001e+3, 2.841257e+2, -230230.55, -318080.8, 0.02508001, 0.000006274595, 0.00022953276, -230230.55, -74662.02, 0.0, 10.000022, 9.885428 
2.495001e+3, 2.9401216e+2, -130524.57, -217764.7, -0.051746085, 0.0000062667023, -0.0002528967, -130524.57, -71843.52, 0.0, 10.000022, 9.886207 
2.495001e+3, 3.039266e+2, -40780.97, -84750.29, 0.034453966, 0.000006254565, 0.00017350042, -40780.97, -40780.97, 0.0, 10.000022, 9.9421625 
2.495001e+3, 3.138706e+2, -39703.01, -82511.4, -0.04143318, 0.0000062361164, -0.000054921948, -39703.01, -39703.01, 0.0, 10.000022, 9.943673 
2.5050008e+3, 1.2499357e+2, -1719916.5, -1724222.1, 0.07210099, 0.000006816682, 0.000019896583, -1719916.5, -4853.445, 0.0, 10.000025, 9.994315 
2.5050008e+3, 1.349878e+2, -1622536.4, -1627432.6, -0.030852556, 0.0000067418055, -0.00006886408, -1622536.4, -5416.86, 0.0, 10.000025, 9.993533 
2.5050008e+3, 1.4497533e+2, -1534435.0, -1548143.6, 0.059421197, 0.000006694902, 0.0000740553, -1534435.0, -15193.28, 0.0, 10.000024, 9.9818535 
2.5050008e+3, 1.5495722e+2, -1436707.6, -1450819.6, -0.04000079, 0.0000066747484, -0.0000556022, -1436707.6, -15288.292, 0.0, 10.000024, 9.981321 
2.5050008e+3, 1.6493244e+2, -1348656.9, -1371950.1, 0.05679206, 0.0000066538255, 0.00004807207, -1348656.9, -24994.9, 0.0, 10.000024, 9.969237 
2.5050008e+3, 1.7490174e+2, -1250699.1, -1274308.1, -0.042339478, 0.000006632121, -0.000072614355, -1250699.1, -24736.07, 0.0, 10.000024, 9.968823 
2.5050008e+3, 1.8486437e+2, -1162618.3, -1195718.0, 0.049972218, 0.0000066055827, 0.000067489425, -1162618.3, -34289.12, 0.0, 10.000024, 9.956385 
2.5050008e+3, 1.948208e+2, -1064468.8, -1097831.1, -0.04988753, 0.0000065739805, -0.000056559402, -1064468.8, -33712.6, 0.0, 10.000024, 9.956041 
2.5050008e+3, 2.0477055e+2, -976305.0, -1019433.2, 0.04606629, 0.0000065469617, 0.000069044334, -976305.0, -43056.395, 0.0, 10.000024, 9.943279 
2.5050008e+3, 2.1471387e+2, -878018.2, -921408.25, -0.048036557, 0.000006524904, -0.00012586563, -878018.2, -42214.13, 0.0, 10.000024, 9.942939 
2.5050008e+3, 2.246505e+2, -789732.25, -843143.25, 0.042811327, 0.000006507441, 0.00012179544, -789732.25, -51307.06, 0.0, 10.000024, 9.929896 
2.5050008e+3, 2.3458046e+2, -691298.94, -744965.0, -0.05066929, 0.0000064951723, -0.00008799554, -691298.94, -50187.418, 0.0, 10.000024, 9.929565 
2.5050008e+3, 2.4450347e+2, -602975.06, -667017.44, 0.040929925, 0.000006477498, 0.000075456366, -602975.06, -59109.055, 0.0, 10.000023, 9.916125 
2.5050008e+3, 2.544197e+2, -504222.6, -568342.1, -0.049759455, 0.0000064533574, -0.000106043, -504222.6, -57535.813, 0.0, 10.000023, 9.916025 
2.5050008e+3, 2.643289e+2, -415987.34, -490986.84, 0.042542182, 0.000006434703, 0.00014122443, -415987.34, -66410.33, 0.0, 10.000023, 9.901954 
2.5050008e+3, 2.7423137e+2, -316702.3, -391373.9, -0.04380189, 0.000006423041, -0.00020288982, -316702.3, -64169.87, 0.0, 10.000023, 9.902374 
2.5050008e+3, 2.841257e+2, -230229.13, -318080.4, 0.04337276, 0.0000064132437, 0.00022954056, -230229.13, -74660.62, 0.0, 10.000023, 9.885427 
2.5050008e+3, 2.9401216e+2, -130523.164, -217764.31, -0.041219648, 0.000006405959, -0.00025288542, -130523.164, -71842.13, 0.0, 10.000023, 9.886207 
2.5050008e+3, 3.039266e+2, -40779.586, -84749.914, 0.044193033, 0.000006394437, 0.00017351084, -40779.586, -40779.586, 0.0, 10.000023, 9.942162 
2.5050008e+3, 3.138706e+2, -39701.625, -82511.016, -0.03193775, 0.000006376612, -0.000054918837, -39701.625, -39701.625, 0.0, 10.000023, 9.943673 
2.515001e+3, 1.2499357e+2, -1719916.8, -1724222.6, 0.02769872, 0.0000069624994, 0.00001994968, -1719916.8, -4853.7383, 0.0, 10.000025, 9.994315 
2.515001e+3, 1.349878e+2, -1622536.6, -1627433.0, -0.075263314, 0.000006890522, -0.00006888002, -1622536.6, -5417.1484, 0.0, 10.000025, 9.993533 
2.515001e+3, 1.4497533e+2, -1534435.3, -1548144.1, 0.013969544, 0.0000068460995, 0.000074157266, -1534435.3, -15193.558, 0.0, 10.000024, 9.9818535 
2.515001e+3, 1.5495722e+2, -1436707.9, -1450820.0, -0.085455015, 0.0000068279724, -0.000055579272, -1436707.9, -15288.563, 0.0, 10.000024, 9.981321 
2.515001e+3, 1.6493246e+2, -1348657.1, -1371950.6, 0.015417244, 0.0000068050535, 0.000048071106, -1348657.1, -24995.168, 0.0, 10.000024, 9.969236 
2.515001e+3, 1.7490174e+2, -1250699.4, -1274308.6, -0.083694495, 0.0000067772453, -0.00007258288, -1250699.4, -24736.334, 0.0, 10.000024, 9.968823 
2.515001e+3, 1.8486439e+2, -1162618.5, -1195718.5, 0.017079366, 0.0000067475617, 0.00006753054, -1162618.5, -34289.383, 0.0, 10.000024, 9.956384 
2.515001e+3, 1.948208e+2, -1064469.0, -1097831.5, -0.0826834, 0.000006715909, -0.000056532517, -1064469.0, -33712.86, 0.0, 10.000024, 9.956041 
2.515001e+3, 2.0477055e+2, -976305.2, -1019433.6, 0.012610242, 0.0000066917773, 0.00006906215, -976305.2, -43056.637, 0.0, 10.000024, 9.943279 
2.515001e+3, 2.1471387e+2, -878018.44, -921408.6, -0.08150758, 0.000006675788, -0.00012585128, -878018.44, -42214.367, 0.0, 10.000024, 9.942938 
2.515001e+3, 2.246505e+2, -789732.44, -843143.7, 0.015091248, 0.000006657317, 0.000121811194, -789732.44, -51307.293, 0.0, 10.000024, 9.929896 
2.515001e+3, 2.3458046e+2, -691299.2, -744965.44, -0.07820262, 0.0000066360312, -0.00008797286, -691299.2, -50187.65, 0.0, 10.000024, 9.929565 
2.515001e+3, 2.4450347e+2, -602975.25, -667017.9, 0.019652894, 0.000006616023, 0.000075480355, -602975.25, -59109.28, 0.0, 10.000023, 9.916125 
2.515001e+3, 2.544197e+2, -504222.78, -568342.56, -0.07073709, 0.0000065975382, -0.00010602443, -504222.78, -57536.035, 0.0, 10.000023, 9.916025 
2.515001e+3, 2.643289e+2, -415987.53, -490987.25, 0.023551969, 0.00000658073, 0.00014123805, -415987.53, -66410.55, 0.0, 10.000023, 9.901954 
2.515001e+3, 2.7423137e+2, -316702.5, -391374.28, -0.06266003, 0.0000065660442, -0.00020288056, -316702.5, -64170.08, 0.0, 10.000023, 9.902373 
2.515001e+3, 2.841257e+2, -230229.33, -318080.8, 0.02840142, 0.0000065539516, 0.00022954808, -230229.33, -74660.83, 0.0, 10.000023, 9.885427 
2.515001e+3, 2.9401216e+2, -130523.36, -217764.7, -0.05584176, 0.0000065453905, -0.00025287605, -130523.36, -71842.336, 0.0, 10.000023, 9.886206 
2.515001e+3, 3.039266e+2, -40779.77, -84750.29, 0.03522796, 0.0000065352156, 0.00017351746, -40779.77, -40779.77, 0.0, 10.000023, 9.942162 
2.515001e+3, 3.138706e+2, -39701.81, -82511.4, -0.04024037, 0.000006522622, -0.000054921817, -39701.81, -39701.81, 0.0, 10.000023, 9.943673 
2.525001e+3, 1.2499358e+2, -1719915.0, -1724222.0, 0.08469272, 0.0000071081527, 0.000020003417, -1719915.0, -4852.09, 0.0, 10.000026, 9.994315 
2.525001e+3, 1.3498782e+2, -1622535.0, -1627432.5, -0.027346753, 0.0000070442543, -0.00006891276, -1622535.0, -5415.5537, 0.0, 10.000026, 9.993532 
2.525001e+3, 1.4497533e+2, -1534433.5, -1548143.5, 0.061419092, 0.0000070030965, 0.0000742467, -1534433.5, -15191.976, 0.0, 10.000026, 9.981853 
2.525001e+3, 1.5495723e+2, -1436706.3, -1450819.5, -0.039960597, 0.0000069833577, -0.000055552457, -1436706.3, -15286.983, 0.0, 10.000026, 9.981321 
2.525001e+3, 1.6493246e+2, -1348655.5, -1371950.0, 0.06046425, 0.000006956491, 0.000048077538, -1348655.5, -24993.594, 0.0, 10.000025, 9.969236 
2.525001e+3, 1.7490174e+2, -1250697.8, -1274308.0, -0.04736833, 0.000006922349, -0.00007255368, -1250697.8, -24734.758, 0.0, 10.000025, 9.9688225 
2.525001e+3, 1.8486439e+2, -1162616.9, -1195717.9, 0.052989755, 0.000006892243, 0.00006756548, -1162616.9, -34287.816, 0.0, 10.000025, 9.956384 
2.525001e+3, 1.948208e+2, -1064467.5, -1097831.0, -0.04771031, 0.000006866355, -0.00005650966, -1064467.5, -33711.324, 0.0, 10.000025, 9.95604 
2.525001e+3, 2.0477055e+2, -976303.6, -1019433.1, 0.047423974, 0.0000068440154, 0.00006907996, -976303.6, -43055.113, 0.0, 10.000025, 9.943279 
2.525001e+3, 2.1471387e+2, -878016.9, -921408.1, -0.052684464, 0.0000068255154, -0.0001258309, -878016.9, -42212.848, 0.0, 10.000025, 9.942938 
2.525001e+3, 2.246505e+2, -789730.9, -843143.2, 0.043415736, 0.000006804309, 0.00012183199, -789730.9, -51305.773, 0.0, 10.000025, 9.929896 
2.525001e+3, 2.3458046e+2, -691297.6, -744964.94, -0.055306908, 0.0000067800347, -0.00008795408, -691297.6, -50186.133, 0.0, 10.000025, 9.929565 
2.525001e+3, 2.4450348e+2, -602973.75, -667017.4, 0.042032845, 0.0000067598903, 0.00007549831, -602973.75, -59107.777, 0.0, 10.000025, 9.916124 
2.525001e+3, 2.544197e+2, -504221.28, -568342.06, -0.05262724, 0.0000067446786, -0.00010600587, -504221.28, -57534.55, 0.0, 10.000025, 9.916025 
2.525001e+3, 2.643289e+2, -415986.03, -490986.8, 0.041492935, 0.000006729004, 0.00014125543, -415986.03, -66409.07, 0.0, 10.000025, 9.901954 
2.525001e+3, 2.7423137e+2, -316701.0, -391373.84, -0.04808332, 0.000006712722, -0.00020286662, -316701.0, -64168.61, 0.0, 10.000024, 9.902373 
2.525001e+3, 2.841257e+2, -230227.84, -318080.38, 0.044505004, 0.0000066994285, 0.00022955846, -230227.84, -74659.36, 0.0, 10.000024, 9.885427 
2.525001e+3, 2.9401216e+2, -130521.88, -217764.28, -0.040502995, 0.0000066902207, -0.00025286936, -130521.88, -71840.875, 0.0, 10.000024, 9.886206 
2.525001e+3, 3.039266e+2, -40778.316, -84749.89, 0.050692573, 0.00000667952, 0.00017352315, -40778.316, -40778.316, 0.0, 10.000024, 9.942162 
2.525001e+3, 3.138706e+2, -39700.363, -82511.0, -0.032730922, 0.0000066665766, -0.000054913162, -39700.363, -39700.363, 0.0, 10.000024, 9.943672 
2.535001e+3, 1.24993585e+2, -1719915.3, -1724222.5, 0.029139977, 0.0000072536427, 0.000020057869, -1719915.3, -4852.4067, 0.0, 10.000026, 9.994315 
2.535001e+3, 1.3498782e+2, -1622535.3, -1627433.0, -0.08290926, 0.000007203001, -0.00006896232, -1622535.3, -5415.865, 0.0, 10.000026, 9.993532 
2.535001e+3, 1.4497536e+2, -1534433.8, -1548144.0, 0.016602147, 0.000007165892, 0.00007432361, -1534433.8, -15192.26, 0.0, 10.000026, 9.981853 
2.535001e+3, 1.5495723e+2, -1436706.4, -1450819.9, -0.08476308, 0.0000071409045, -0.00005552176, -1436706.4, -15287.263, 0.0, 10.000026, 9.981321 
2.535001e+3, 1.6493246e+2, -1348655.8, -1371950.5, 0.020903423, 0.0000071081377, 0.000048091355, -1348655.8, -24993.883, 0.0, 10.000025, 9.969236 
2.535001e+3, 1.7490175e+2, -1250698.0, -1274308.5, -0.08690231, 0.000007067432, -0.00007252677, -1250698.0, -24735.041, 0.0, 10.000025, 9.9688225 
2.535001e+3, 1.8486439e+2, -1162617.1, -1195718.4, 0.01372056, 0.0000070396272, 0.00006759424, -1162617.1, -34288.082, 0.0, 10.000025, 9.956384 
2.535001e+3, 1.948208e+2, -1064467.6, -1097831.4, -0.08697795, 0.000007025316, -0.000056490826, -1064467.6, -33711.586, 0.0, 10.000025, 9.95604 
2.535001e+3, 2.0477057e+2, -976303.9, -1019433.5, 0.01498104, 0.0000070036735, 0.000069097754, -976303.9, -43055.37, 0.0, 10.000025, 9.943278 
2.535001e+3, 2.1471389e+2, -878017.06, -921408.56, -0.084987916, 0.0000069740877, -0.0001258045, -878017.06, -42213.098, 0.0, 10.000025, 9.942938 
2.535001e+3, 2.246505e+2, -789731.1, -843143.6, 0.015744438, 0.0000069484186, 0.000121857825, -789731.1, -51306.023, 0.0, 10.000025, 9.929896 
2.535001e+3, 2.3458046e+2, -691297.9, -744965.4, -0.08282774, 0.000006927181, -0.000087939196, -691297.9, -50186.38, 0.0, 10.000025, 9.929564 
2.535001e+3, 2.4450348e+2, -602973.94, -667017.8, 0.017150871, 0.0000069090993, 0.00007551024, -602973.94, -59108.01, 0.0, 10.000025, 9.916124 
2.535001e+3, 2.544197e+2, -504221.5, -568342.5, -0.07738369, 0.000006894777, -0.00010598733, -504221.5, -57534.78, 0.0, 10.000025, 9.916024 
2.535001e+3, 2.643289e+2, -415986.25, -490987.22, 0.022394108, 0.000006879525, 0.00014127656, -415986.25, -66409.29, 0.0, 10.000025, 9.901953 
2.535001e+3, 2.7423137e+2, -316701.22, -391374.25, -0.06680448, 0.0000068630734, -0.00020284804, -316701.22, -64168.83, 0.0, 10.000024, 9.902373 
2.535001e+3, 2.841257e+2, -230228.03, -318080.78, 0.029856225, 0.0000068496734, 0.00022957168, -230228.03, -74659.57, 0.0, 10.000024, 9.885427 
2.535001e+3, 2.9401216e+2, -130522.08, -217764.69, -0.054786228, 0.0000068404483, -0.00025286537, -130522.08, -71841.08, 0.0, 10.000024, 9.886206 
2.535001e+3, 3.039266e+2, -40778.51, -84750.305, 0.039811168, 0.0000068273507, 0.00017352788, -40778.51, -40778.51, 0.0, 10.000024, 9.942161 
2.535001e+3, 3.138706e+2, -39700.563, -82511.414, -0.043214403, 0.0000068084782, -0.00005489288, -39700.563, -39700.563, 0.0, 10.000024, 9.943672 
2.545001e+3, 1.2499359e+2, -1719913.6, -1724221.9, 0.08229135, 0.0000074180957, 0.000020121, -1719913.6, -4850.7334, 0.0, 10.000027, 9.994314 
2.545001e+3, 1.3498782e+2, -1622533.5, -1627432.4, -0.027245507, 0.000007359694, -0.000069008034, -1622533.5, -5414.1787, 0.0, 10.000027, 9.993532 
2.545001e+3, 1.4497536e+2, -1534432.0, -1548143.4, 0.073133156, 0.0000073194255, 0.00007440643, -1534432.0, -15190.572, 0.0, 10.000027, 9.981853 
2.545001e+3, 1.5495723e+2, -1436704.8, -1450819.3, -0.04285983, 0.0000072958724, -0.000055486133, -1436704.8, -15285.598, 0.0, 10.000027, 9.98132 
2.545001e+3, 1.6493247e+2, -1348654.0, -1371949.9, 0.061600145, 0.00000726423, 0.00004810782, -1348654.0, -24992.234, 0.0, 10.000027, 9.969236 
2.545001e+3, 1.7490175e+2, -1250696.3, -1274308.0, -0.044980038, 0.0000072243315, -0.000072500814, -1250696.3, -24733.414, 0.0, 10.000027, 9.9688225 
2.545001e+3, 1.848644e+2, -1162615.5, -1195717.9, 0.054798998, 0.0000071961995, 0.00006762312, -1162615.5, -34286.46, 0.0, 10.000026, 9.956383 
2.545001e+3, 1.9482082e+2, -1064466.0, -1097830.9, -0.052667387, 0.0000071803724, -0.000056465902, -1064466.0, -33709.973, 0.0, 10.000026, 9.95604 
2.545001e+3, 2.0477057e+2, -976302.2, -1019433.0, 0.049862593, 0.000007157697, 0.00006912051, -976302.2, -43053.766, 0.0, 10.000026, 9.943278 
2.545001e+3, 2.1471389e+2, -878015.44, -921408.06, -0.05550762, 0.000007127601, -0.00012578198, -878015.44, -42211.504, 0.0, 10.000026, 9.942938 
2.545001e+3, 2.246505e+2, -789729.5, -843143.1, 0.045780897, 0.000007101373, 0.00012187976, -789729.5, -51304.438, 0.0, 10.000026, 9.929895 
2.545001e+3, 2.3458046e+2, -691296.25, -744964.9, -0.054796185, 0.000007079521, -0.00008791823, -691296.25, -50184.805, 0.0, 10.000026, 9.929564 
2.545001e+3, 2.4450348e+2, -602972.4, -667017.3, 0.045279633, 0.0000070611195, 0.00007552812, -602972.4, -59106.45, 0.0, 10.000026, 9.916124 
2.545001e+3, 2.544197e+2, -504219.9, -568342.0, -0.053198755, 0.0000070468295, -0.000105975065, -504219.9, -57533.227, 0.0, 10.000026, 9.916024 
2.545001e+3, 2.643289e+2, -415984.66, -490986.75, 0.04659121, 0.000007031616, 0.00014128735, -415984.66, -66407.74, 0.0, 10.000026, 9.901953 
2.545001e+3, 2.7423137e+2, -316699.66, -391373.8, -0.049969114, 0.00000701521, -0.00020283344, -316699.66, -64167.293, 0.0, 10.000026, 9.902373 
2.545001e+3, 2.841257e+2, -230226.48, -318080.3, 0.044470575, 0.00000700151, 0.00022958775, -230226.48, -74658.04, 0.0, 10.000026, 9.8854265 
2.545001e+3, 2.9401216e+2, -130520.54, -217764.23, -0.044974558, 0.0000069915104, -0.000252851, -130520.54, -71839.555, 0.0, 10.000026, 9.886206 
2.545001e+3, 3.039266e+2, -40777.0, -84749.89, 0.048566744, 0.00000697745, 0.00017353956, -40777.0, -40777.0, 0.0, 10.000026, 9.942161 
2.545001e+3, 3.138706e+2, -39699.047, -82511.0, -0.039111286, 0.0000069573402, -0.00005488531, -39699.047, -39699.047, 0.0, 10.000026, 9.943672 
2.555001e+3, 1.249936e+2, -1719913.9, -1724222.4, 0.031165997, 0.000007601504, 0.000020192892, -1719913.9, -4851.0474, 0.0, 10.000027, 9.994314 
2.555001e+3, 1.3498785e+2, -1622533.8, -1627432.9, -0.07838079, 0.000007514335, -0.00006904992, -1622533.8, -5414.4873, 0.0, 10.000027, 9.993532 
2.555001e+3, 1.4497538e+2, -1534432.3, -1548143.9, 0.024560815, 0.0000074637023, 0.00007449517, -1534432.3, -15190.893, 0.0, 10.000027, 9.981852 
2.555001e+3, 1.5495725e+2, -1436705.0, -1450819.8, -0.09142852, 0.000007448264, -0.000055445576, -1436705.0, -15285.911, 0.0, 10.000027, 9.98132 
2.555001e+3, 1.6493247e+2, -1348654.3, -1371950.4, 0.018603427, 0.0000074247664, 0.00004812693, -1348654.3, -24992.523, 0.0, 10.000027, 9.969235 
2.555001e+3, 1.7490175e+2, -1250696.5, -1274308.4, -0.08794922, 0.0000073930446, -0.00007247583, -1250696.5, -24733.697, 0.0, 10.000027, 9.968822 
2.555001e+3, 1.848644e+2, -1162615.8, -1195718.3, 0.014876313, 0.0000073619567, 0.00006765211, -1162615.8, -34286.742, 0.0, 10.000026, 9.956383 
2.555001e+3, 1.9482082e+2, -1064466.3, -1097831.4, -0.092556156, 0.0000073315264, -0.000056434885, -1064466.3, -33710.25, 0.0, 10.000026, 9.956039 
2.555001e+3, 2.0477057e+2, -976302.44, -1019433.44, 0.016311364, 0.0000073060883, 0.00006914823, -976302.44, -43054.04, 0.0, 10.000026, 9.943278 
2.555001e+3, 2.1471389e+2, -878015.7, -921408.5, -0.088929296, 0.0000072860535, -0.00012576334, -878015.7, -42211.77, 0.0, 10.000026, 9.942937 
2.555001e+3, 2.2465052e+2, -789729.75, -843143.56, 0.016426932, 0.0000072631688, 0.0001218978, -789729.75, -51304.69, 0.0, 10.000026, 9.929895 
2.555001e+3, 2.3458047e+2, -691296.44, -744965.3, -0.08401871, 0.000007237052, -0.00008789119, -691296.44, -50185.055, 0.0, 10.000026, 9.929564 
2.555001e+3, 2.4450348e+2, -602972.56, -667017.75, 0.019375995, 0.00000721595, 0.00007555195, -602972.56, -59106.695, 0.0, 10.000026, 9.916123 
2.555001e+3, 2.544197e+2, -504220.13, -568342.44, -0.0789441, 0.0000072008365, -0.00010596906, -504220.13, -57533.47, 0.0, 10.000026, 9.916024 
2.555001e+3, 2.643289e+2, -415984.88, -490987.2, 0.026326846, 0.000007185278, 0.0001412878, -415984.88, -66407.984, 0.0, 10.000026, 9.901953 
2.555001e+3, 2.7423137e+2, -316699.88, -391374.25, -0.069867395, 0.0000071691315, -0.00020282288, -316699.88, -64167.523, 0.0, 10.000026, 9.902372 
2.555001e+3, 2.841257e+2, -230226.69, -318080.75, 0.029160285, 0.000007154937, 0.00022960665, -230226.69, -74658.266, 0.0, 10.000026, 9.8854265 
2.555001e+3, 2.9401216e+2, -130520.74, -217764.66, -0.05987305, 0.0000071434083, -0.0002528263, -130520.74, -71839.77, 0.0, 10.000026, 9.886205 
2.555001e+3, 3.039266e+2, -40777.207, -84750.32, 0.038976323, 0.000007129819, 0.00017355816, -40777.207, -40777.207, 0.0, 10.000026, 9.942161 
2.555001e+3, 3.138706e+2, -39699.254, -82511.44, -0.048079412, 0.000007113161, -0.000054890446, -39699.254, -39699.254, 0.0, 10.000026, 9.943672 
2.5650012e+3, 1.2499361e+2, -1719912.0, -1724221.8, 0.08320277, 0.000007773434, 0.000020254189, -1719912.0, -4849.293, 0.0, 10.000029, 9.994314 
2.5650012e+3, 1.3498785e+2, -1622531.9, -1627432.3, -0.03669899, 0.000007677561, -0.000069077694, -1622531.9, -5412.7314, 0.0, 10.000028, 9.993531 
2.5650012e+3, 1.4497538e+2, -1534430.5, -1548143.3, 0.064241104, 0.0000076229135, 0.00007460175, -1534430.5, -15189.141, 0.0, 10.000028, 9.981852 
2.5650012e+3, 1.5495725e+2, -1436703.1, -1450819.3, -0.047057003, 0.0000076081405, -0.00005541509, -1436703.1, -15284.173, 0.0, 10.000028, 9.98132 
2.565001e+3, 1.6493247e+2, -1348652.5, -1371949.8, 0.06530469, 0.0000075869193, 0.000048131405, -1348652.5, -24990.799, 0.0, 10.000028, 9.969235 
2.565001e+3, 1.7490175e+2, -1250694.8, -1274307.9, -0.04953694, 0.000007559119, -0.0000724462, -1250694.8, -24732.002, 0.0, 10.000028, 9.968822 
2.565001e+3, 1.848644e+2, -1162614.0, -1195717.8, 0.054465897, 0.0000075271087, 0.00006768942, -1162614.0, -34285.06, 0.0, 10.000028, 9.956383 
2.565001e+3, 1.9482082e+2, -1064464.5, -1097830.8, -0.057001077, 0.000007490688, -0.000056408153, -1064464.5, -33708.56, 0.0, 10.000028, 9.956039 
2.565001e+3, 2.0477057e+2, -976300.7, -1019432.9, 0.050703127, 0.000007462936, 0.000069170506, -976300.7, -43052.35, 0.0, 10.000028, 9.943277 
2.565001e+3, 2.1471389e+2, -878014.0, -921408.0, -0.05834029, 0.0000074445697, -0.00012573886, -878014.0, -42210.11, 0.0, 10.000027, 9.942937 
2.565001e+3, 2.2465052e+2, -789728.06, -843143.06, 0.047546037, 0.0000074233376, 0.0001219216, -789728.06, -51303.047, 0.0, 10.000027, 9.929895 
2.565001e+3, 2.3458047e+2, -691294.8, -744964.8, -0.059496574, 0.000007398854, -0.00008787135, -691294.8, -50183.418, 0.0, 10.000027, 9.929564 
2.565001e+3, 2.4450348e+2, -602970.9, -667017.25, 0.043107957, 0.0000073771103, 0.00007556995, -602970.9, -59105.063, 0.0, 10.000027, 9.916123 
2.565001e+3, 2.544197e+2, -504218.47, -568341.94, -0.05806391, 0.0000073586366, -0.00010595038, -504218.47, -57531.84, 0.0, 10.000027, 9.916023 
2.565001e+3, 2.643289e+2, -415983.25, -490986.7, 0.048625425, 0.000007341284, 0.00014130489, -415983.25, -66406.37, 0.0, 10.000027, 9.901952 
2.565001e+3, 2.7423137e+2, -316698.25, -391373.78, -0.05123653, 0.000007325344, -0.0002028103, -316698.25, -64165.918, 0.0, 10.000027, 9.902372 
2.565001e+3, 2.841257e+2, -230225.08, -318080.28, 0.0478232, 0.000007311328, 0.00022961765, -230225.08, -74656.664, 0.0, 10.000027, 9.8854265 
2.565001e+3, 2.9401216e+2, -130519.13, -217764.19, -0.04695718, 0.000007299931, -0.00025281278, -130519.13, -71838.18, 0.0, 10.000027, 9.886205 
2.565001e+3, 3.039266e+2, -40775.625, -84749.88, 0.05263424, 0.000007286789, 0.00017356964, -40775.625, -40775.625, 0.0, 10.000027, 9.942161 
2.565001e+3, 3.138706e+2, -39697.684, -82511.0, -0.032809854, 0.0000072710445, -0.000054887754, -39697.684, -39697.684, 0.0, 10.000027, 9.943671 
2.575001e+3, 1.2499361e+2, -1719912.3, -1724222.3, 0.033873994, 0.000007933893, 0.000020304991, -1719912.3, -4849.6333, 0.0, 10.000029, 9.994313 
2.575001e+3, 1.3498786e+2, -1622532.1, -1627432.8, -0.086036555, 0.000007849371, -0.00006909135, -1622532.1, -5413.0664, 0.0, 10.000028, 9.993531 
2.575001e+3, 1.4497538e+2, -1534430.8, -1548143.8, 0.013659753, 0.000007797054, 0.000074726166, -1534430.8, -15189.452, 0.0, 10.000028, 9.981852 
2.575001e+3, 1.5495725e+2, -1436703.4, -1450819.6, -0.09764162, 0.000007775499, -0.000055394674, -1436703.4, -15284.479, 0.0, 10.000028, 9.981319 
2.575001e+3, 1.6493249e+2, -1348652.8, -1371950.3, 0.016839366, 0.000007750688, 0.000048121245, -1348652.8, -24991.107, 0.0, 10.000028, 9.969235 
2.575001e+3, 1.7490177e+2, -1250695.0, -1274308.4, -0.09799271, 0.000007722556, -0.000072411945, -1250695.0, -24732.307, 0.0, 10.000028, 9.968822 
2.575001e+3, 1.848644e+2, -1162614.3, -1195718.3, 0.017449178, 0.000007691657, 0.00006773506, -1162614.3, -34285.35, 0.0, 10.000028, 9.956382 
2.575001e+3, 1.9482084e+2, -1064464.8, -1097831.3, -0.093886994, 0.000007657854, -0.000056385703, -1064464.8, -33708.848, 0.0, 10.000028, 9.956039 
2.575001e+3, 2.0477058e+2, -976300.94, -1019433.4, 0.012779074, 0.0000076282377, 0.000069187365, -976300.94, -43052.633, 0.0, 10.000028, 9.943277 
2.575001e+3, 2.147139e+2, -878014.25, -921408.44, -0.09628721, 0.0000076031506, -0.00012570854, -878014.25, -42210.383, 0.0, 10.000027, 9.942937 
2.575001e+3, 2.2465052e+2, -789728.25, -843143.5, 0.01671575, 0.000007581881, 0.00012195115, -789728.25, -51303.316, 0.0, 10.000027, 9.929894 
2.575001e+3, 2.3458047e+2, -691295.0, -744965.25, -0.09009534, 0.0000075649264, -0.0000878587, -691295.0, -50183.684, 0.0, 10.000027, 9.9295635 
2.575001e+3, 2.445035e+2, -602971.1, -667017.7, 0.017499533, 0.0000075445973, 0.000075582124, -602971.1, -59105.316, 0.0, 10.000027, 9.916123 
2.575001e+3, 2.5441974e+2, -504218.7, -568342.44, -0.08343467, 0.0000075202283, -0.00010591902, -504218.7, -57532.09, 0.0, 10.000027, 9.916023 
2.575001e+3, 2.643289e+2, -415983.47, -490987.16, 0.027272688, 0.0000074996346, 0.00014133859, -415983.47, -66406.62, 0.0, 10.000027, 9.901952 
2.575001e+3, 2.7423137e+2, -316698.47, -391374.22, -0.07232099, 0.000007483847, -0.00020279574, -316698.47, -64166.16, 0.0, 10.000027, 9.902372 
2.575001e+3, 2.841257e+2, -230225.28, -318080.72, 0.031778354, 0.0000074706827, 0.00022962078, -230225.28, -74656.9, 0.0, 10.000027, 9.885426 
2.575001e+3, 2.9401216e+2, -130519.35, -217764.64, -0.06254935, 0.000007461078, -0.00025281045, -130519.35, -71838.41, 0.0, 10.000027, 9.886205 
2.575001e+3, 3.039266e+2, -40775.832, -84750.31, 0.040255506, 0.0000074483582, 0.00017357401, -40775.832, -40775.832, 0.0, 10.000027, 9.94216 
2.575001e+3, 3.138706e+2, -39697.89, -82511.43, -0.044813763, 0.0000074309924, -0.000054877244, -39697.89, -39697.89, 0.0, 10.000027, 9.943671 
2.5850013e+3, 1.24993615e+2, -1719910.4, -1724221.6, 0.09406125, 0.0000080967475, 0.000020369554, -1719910.4, -4847.758, 0.0, 10.00003, 9.994313 
2.5850013e+3, 1.3498786e+2, -1622530.3, -1627432.1, -0.031193756, 0.000008022921, -0.00006912773, -1622530.3, -5411.2476, 0.0, 10.00003, 9.993531 
2.5850013e+3, 1.449754e+2, -1534428.9, -1548143.1, 0.06782844, 0.000007974844, 0.000074830416, -1534428.9, -15187.647, 0.0, 10.00003, 9.981851 
2.5850013e+3, 1.5495726e+2, -1436701.6, -1450819.0, -0.047704525, 0.000007951, -0.00005536352, -1436701.6, -15282.687, 0.0, 10.00003, 9.981319 
2.5850013e+3, 1.6493249e+2, -1348650.9, -1371949.6, 0.06700167, 0.000007921236, 0.0000481273, -1348650.9, -24989.324, 0.0, 10.000029, 9.969234 
2.5850013e+3, 1.7490177e+2, -1250693.3, -1274307.8, -0.05357172, 0.00000788543, -0.000072381954, -1250693.3, -24730.512, 0.0, 10.000029, 9.968821 
2.5850013e+3, 1.8486442e+2, -1162612.4, -1195717.6, 0.06165114, 0.0000078545045, 0.00006777233, -1162612.4, -34283.566, 0.0, 10.000029, 9.956382 
2.5850013e+3, 1.9482084e+2, -1064463.0, -1097830.8, -0.054670244, 0.000007828678, -0.000056358625, -1064463.0, -33707.1, 0.0, 10.000029, 9.956038 
2.5850013e+3, 2.0477058e+2, -976299.2, -1019432.8, 0.05242003, 0.000007800068, 0.00006920949, -976299.2, -43050.902, 0.0, 10.000029, 9.943277 
2.5850013e+3, 2.147139e+2, -878012.44, -921407.9, -0.06150209, 0.000007768439, -0.00012568569, -878012.44, -42208.645, 0.0, 10.000029, 9.942936 
2.5850013e+3, 2.2465052e+2, -789726.5, -843142.94, 0.050633967, 0.000007744844, 0.00012197287, -789726.5, -51301.58, 0.0, 10.000029, 9.929894 
2.5850013e+3, 2.3458047e+2, -691293.3, -744964.75, -0.05895535, 0.000007730339, -0.00008784019, -691293.3, -50181.97, 0.0, 10.000029, 9.9295635 
2.5850013e+3, 2.445035e+2, -602969.4, -667017.2, 0.049672563, 0.0000077107425, 0.00007560018, -602969.4, -59103.617, 0.0, 10.000029, 9.916123 
2.5850013e+3, 2.5441974e+2, -504216.97, -568341.9, -0.061506875, 0.000007685049, -0.00010589811, -504216.97, -57530.395, 0.0, 10.000028, 9.916023 
2.5850013e+3, 2.643289e+2, -415981.75, -490986.66, 0.046204258, 0.000007663398, 0.000141359, -415981.75, -66404.92, 0.0, 10.000028, 9.901952 
2.5850013e+3, 2.7423137e+2, -316696.75, -391373.72, -0.05468798, 0.000007646898, -0.00020278008, -316696.75, -64164.48, 0.0, 10.000028, 9.902371 
2.5850013e+3, 2.841257e+2, -230223.6, -318080.22, 0.051523056, 0.000007634008, 0.00022963263, -230223.6, -74655.23, 0.0, 10.000028, 9.885426 
2.5850013e+3, 2.9401216e+2, -130517.68, -217764.16, -0.045990057, 0.0000076260317, -0.00025280114, -130517.68, -71836.75, 0.0, 10.000028, 9.886204 
2.5850013e+3, 3.039266e+2, -40774.188, -84749.87, 0.054692954, 0.0000076127517, 0.00017358278, -40774.188, -40774.188, 0.0, 10.000028, 9.94216 
2.5850013e+3, 3.138706e+2, -39696.234, -82510.98, -0.042948525, 0.000007591566, -0.000054866105, -39696.234, -39696.234, 0.0, 10.000028, 9.943671 
2.5950012e+3, 1.2499362e+2, -1719910.6, -1724222.1, 0.032999333, 0.000008261998, 0.000020447973, -1719910.6, -4848.114, 0.0, 10.00003, 9.994313 
2.5950012e+3, 1.3498786e+2, -1622530.6, -1627432.6, -0.09226657, 0.000008198212, -0.00006918681, -1622530.6, -5411.597, 0.0, 10.00003, 9.99353 
2.5950012e+3, 1.449754e+2, -1534429.1, -1548143.6, 0.015749376, 0.000008156285, 0.00007491452, -1534429.1, -15187.972, 0.0, 10.00003, 9.981851 
2.5950012e+3, 1.5495726e+2, -1436701.9, -1450819.5, -0.09977221, 0.00000813464, -0.000055321634, -1436701.9, -15283.004, 0.0, 10.00003, 9.981319 
2.5950012e+3, 1.6493249e+2, -1348651.1, -1371950.3, 0.022787636, 0.000008098559, 0.00004814956, -1348651.1, -24989.648, 0.0, 10.000029, 9.969234 
2.5950012e+3, 1.7490178e+2, -1250693.5, -1274308.3, -0.09774566, 0.000008047743, -0.000072356226, -1250693.5, -24730.83, 0.0, 10.000029, 9.968821 
2.5950012e+3, 1.8486442e+2, -1162612.6, -1195718.1, 0.01600148, 0.000008015655, 0.000067801215, -1162612.6, -34283.87, 0.0, 10.000029, 9.956382 
2.5950012e+3, 1.9482084e+2, -1064463.3, -1097831.1, -0.10033861, 0.000008003156, -0.000056326917, -1064463.3, -33707.402, 0.0, 10.000029, 9.956038 
2.5950012e+3, 2.0477058e+2, -976299.44, -1019433.3, 0.018253146, 0.000007978422, 0.00006923689, -976299.44, -43051.195, 0.0, 10.000029, 9.943277 
2.5950012e+3, 2.147139e+2, -878012.7, -921408.4, -0.09543305, 0.000007940433, -0.00012567031, -878012.7, -42208.93, 0.0, 10.000029, 9.942936 
2.5950012e+3, 2.2465053e+2, -789726.75, -843143.44, 0.015470701, 0.0000079122265, 0.000121986785, -789726.75, -51301.855, 0.0, 10.000029, 9.929894 
2.5950012e+3, 2.3458047e+2, -691293.5, -744965.2, -0.094160855, 0.000007895093, -0.000087815795, -691293.5, -50182.242, 0.0, 10.000029, 9.9295635 
2.5950012e+3, 2.445035e+2, -602969.6, -667017.7, 0.023988636, 0.0000078755465, 0.000075624135, -602969.6, -59103.895, 0.0, 10.000029, 9.916122 
2.5950012e+3, 2.5441974e+2, -504217.22, -568342.4, -0.086734094, 0.000007853098, -0.00010588765, -504217.22, -57530.664, 0.0, 10.000028, 9.916022 
2.5950012e+3, 2.643289e+2, -415981.97, -490987.1, 0.023949131, 0.000007832573, 0.00014136614, -415981.97, -66405.18, 0.0, 10.000028, 9.901952 
2.5950012e+3, 2.742314e+2, -316697.0, -391374.2, -0.07674609, 0.000007814494, -0.00020276333, -316697.0, -64164.727, 0.0, 10.000028, 9.902371 
2.5950012e+3, 2.841257e+2, -230223.83, -318080.7, 0.033146642, 0.000007801305, 0.00022965319, -230223.83, -74655.47, 0.0, 10.000028, 9.885426 
2.5950012e+3, 2.9401216e+2, -130517.9, -217764.63, -0.06403638, 0.000007794791, -0.00025278478, -130517.9, -71836.99, 0.0, 10.000028, 9.886204 
2.5950012e+3, 3.039266e+2, -40774.418, -84750.34, 0.044824068, 0.000007779969, 0.00017359598, -40774.418, -40774.418, 0.0, 10.000028, 9.94216 
2.5950012e+3, 3.138706e+2, -39696.465, -82511.46, -0.05185834, 0.0000077527675, -0.00005485434, -39696.465, -39696.465, 0.0, 10.000028, 9.94367 
2.6050013e+3, 1.2499363e+2, -1719908.6, -1724221.4, 0.09511249, 0.000008440808, 0.000020516807, -1719908.6, -4846.1924, 0.0, 10.0000305, 9.994312 
2.6050013e+3, 1.3498788e+2, -1622528.6, -1627432.0, -0.030941023, 0.00000837776, -0.000069240916, -1622528.6, -5409.6895, 0.0, 10.0000305, 9.99353 
2.6050013e+3, 1.4497541e+2, -1534427.1, -1548143.0, 0.079018734, 0.000008334557, 0.00007500962, -1534427.1, -15186.068, 0.0, 10.0000305, 9.981851 
2.6050013e+3, 1.5495728e+2, -1436699.9, -1450818.9, -0.050832212, 0.000008309568, -0.000055282682, -1436699.9, -15281.112, 0.0, 10.0000305, 9.981318 
2.6050013e+3, 1.649325e+2, -1348649.3, -1371949.5, 0.06975399, 0.0000082731185, 0.000048166745, -1348649.3, -24987.771, 0.0, 10.0000305, 9.969234 
2.6050013e+3, 1.7490178e+2, -1250691.6, -1274307.6, -0.052801754, 0.000008224969, -0.00007232566, -1250691.6, -24728.98, 0.0, 10.0000305, 9.968821 
2.6050013e+3, 1.8486442e+2, -1162610.8, -1195717.5, 0.058916613, 0.000008191779, 0.00006783589, -1162610.8, -34282.027, 0.0, 10.0000305, 9.956381 
2.6050013e+3, 1.9482085e+2, -1064461.4, -1097830.6, -0.063396834, 0.000008174232, -0.000056297813, -1064461.4, -33705.56, 0.0, 10.00003, 9.956038 
2.6050013e+3, 2.047706e+2, -976297.56, -1019432.7, 0.05728751, 0.000008149699, 0.000069262496, -976297.56, -43049.363, 0.0, 10.00003, 9.943276 
2.6050013e+3, 2.147139e+2, -878010.9, -921407.8, -0.060684312, 0.000008117594, -0.00012564595, -878010.9, -42207.133, 0.0, 10.00003, 9.942936 
2.6050013e+3, 2.2465053e+2, -789724.94, -843142.9, 0.04862714, 0.00000808877, 0.00012201104, -789724.94, -51300.07, 0.0, 10.00003, 9.9298935 
2.6050013e+3, 2.3458049e+2, -691291.7, -744964.6, -0.06944938, 0.000008063657, -0.00008779032, -691291.7, -50180.44, 0.0, 10.00003, 9.929563 
2.6050013e+3, 2.445035e+2, -602967.8, -667017.1, 0.049481746, 0.0000080419495, 0.00007564713, -602967.8, -59102.098, 0.0, 10.00003, 9.916122 
2.6050013e+3, 2.5441974e+2, -504215.44, -568341.9, -0.05911898, 0.000008024298, -0.000105871564, -504215.44, -57528.9, 0.0, 10.00003, 9.916022 
2.6050013e+3, 2.643289e+2, -415980.22, -490986.6, 0.053472213, 0.000008006001, 0.00014137934, -415980.22, -66403.42, 0.0, 10.00003, 9.901951 
2.6050013e+3, 2.742314e+2, -316695.22, -391373.66, -0.057341695, 0.000007986862, -0.0002027479, -316695.22, -64162.984, 0.0, 10.00003, 9.902371 
2.6050013e+3, 2.841257e+2, -230222.06, -318080.2, 0.049188074, 0.000007972011, 0.00022966957, -230222.06, -74653.73, 0.0, 10.00003, 9.885425 
2.6050013e+3, 2.9401216e+2, -130516.14, -217764.11, -0.053030793, 0.000007963024, -0.0002527692, -130516.14, -71835.25, 0.0, 10.00003, 9.886204 
2.6050013e+3, 3.039266e+2, -40772.688, -84749.87, 0.05828001, 0.000007947701, 0.00017360818, -40772.688, -40772.688, 0.0, 10.00003, 9.942159 
2.6050013e+3, 3.138706e+2, -39694.754, -82510.99, -0.0361034, 0.000007922937, -0.000054849395, -39694.754, -39694.754, 0.0, 10.00003, 9.94367 
2.6150012e+3, 1.2499364e+2, -1719908.9, -1724222.0, 0.032578897, 0.000008633173, 0.000020576177, -1719908.9, -4846.553, 0.0, 10.0000305, 9.994312 
2.6150012e+3, 1.3498788e+2, -1622528.9, -1627432.5, -0.09348665, 0.000008561567, -0.00006929004, -1622528.9, -5410.044, 0.0, 10.0000305, 9.99353 
2.6150012e+3, 1.4497541e+2, -1534427.5, -1548143.5, 0.025899565, 0.000008509662, 0.00007511573, -1534427.5, -15186.429, 0.0, 10.0000305, 9.98185 
2.6150012e+3, 1.5495728e+2, -1436700.1, -1450819.5, -0.10393764, 0.000008475791, -0.000055246663, -1436700.1, -15281.465, 0.0, 10.0000305, 9.981318 
2.6150012e+3, 1.649325e+2, -1348649.5, -1371950.1, 0.020932958, 0.000008444916, 0.000048178856, -1348649.5, -24988.104, 0.0, 10.0000305, 9.9692335 
2.6150012e+3, 1.7490178e+2, -1250691.9, -1274308.1, -0.10160231, 0.000008417103, -0.00007229028, -1250691.9, -24729.305, 0.0, 10.0000305, 9.96882 
2.6150012e+3, 1.8486443e+2, -1162611.0, -1195718.0, 0.015049712, 0.000008382869, 0.00006787636, -1162611.0, -34282.35, 0.0, 10.0000305, 9.956381 
2.6150012e+3, 1.9482085e+2, -1064461.6, -1097831.1, -0.1072081, 0.000008341908, -0.00005627131, -1064461.6, -33705.875, 0.0, 10.00003, 9.9560375 
2.6150012e+3, 2.047706e+2, -976297.8, -1019433.2, 0.016255097, 0.000008313902, 0.0000692863, -976297.8, -43049.664, 0.0, 10.00003, 9.943276 
2.6150012e+3, 2.1471392e+2, -878011.1, -921408.3, -0.101661414, 0.000008299923, -0.00012561263, -878011.1, -42207.43, 0.0, 10.00003, 9.942935 
2.6150012e+3, 2.2465053e+2, -789725.2, -843143.4, 0.018104935, 0.000008274475, 0.00012204565, -789725.2, -51300.367, 0.0, 10.00003, 9.9298935 
2.6150012e+3, 2.3458049e+2, -691291.94, -744965.1, -0.09963079, 0.000008236032, -0.00008776377, -691291.94, -50180.734, 0.0, 10.00003, 9.929563 
2.6150012e+3, 2.445035e+2, -602968.06, -667017.6, 0.018681286, 0.000008209953, 0.000075669144, -602968.06, -59102.37, 0.0, 10.00003, 9.916122 
2.6150012e+3, 2.5441974e+2, -504215.66, -568342.3, -0.089951515, 0.000008198648, -0.00010584986, -504215.66, -57529.164, 0.0, 10.00003, 9.916022 
2.6150012e+3, 2.643289e+2, -415980.44, -490987.1, 0.030222235, 0.000008183679, 0.00014139859, -415980.44, -66403.695, 0.0, 10.00003, 9.901951 
2.6150012e+3, 2.742314e+2, -316695.47, -391374.16, -0.08008448, 0.000008164002, -0.0002027338, -316695.47, -64163.25, 0.0, 10.00003, 9.90237 
2.6150012e+3, 2.841257e+2, -230222.3, -318080.66, 0.032531824, 0.000008146127, 0.0002296818, -230222.3, -74653.98, 0.0, 10.00003, 9.885425 
2.6150012e+3, 2.9401216e+2, -130516.375, -217764.6, -0.06914052, 0.000008130731, -0.00025275437, -130516.375, -71835.49, 0.0, 10.00003, 9.886203 
2.6150012e+3, 3.039266e+2, -40772.914, -84750.34, 0.044612642, 0.000008115949, 0.00017361935, -40772.914, -40772.914, 0.0, 10.00003, 9.942159 
2.6150012e+3, 3.138706e+2, -39694.98, -82511.47, -0.049486373, 0.000008102071, -0.000054851273, -39694.98, -39694.98, 0.0, 10.00003, 9.94367 
2.625001e+3, 1.24993645e+2, -1719906.9, -1724221.3, 0.09648683, 0.00000882975, 0.000020643758, -1719906.9, -4844.5703, 0.0, 10.000032, 9.994312 
2.625001e+3, 1.3498789e+2, -1622526.9, -1627431.9, -0.03902491, 0.000008743406, -0.0000693305, -1622526.9, -5408.042, 0.0, 10.000032, 9.993529 
2.625001e+3, 1.4497542e+2, -1534425.4, -1548142.8, 0.08041241, 0.000008685634, 0.00007523121, -1534425.4, -15184.426, 0.0, 10.000032, 9.98185 
2.625001e+3, 1.5495728e+2, -1436698.1, -1450818.8, -0.049521744, 0.000008654781, -0.000055212102, -1436698.1, -15279.484, 0.0, 10.000032, 9.981318 
2.625001e+3, 1.649325e+2, -1348647.5, -1371949.4, 0.07459966, 0.000008627193, 0.00004818571, -1348647.5, -24986.14, 0.0, 10.000031, 9.9692335 
2.625001e+3, 1.749018e+2, -1250689.9, -1274307.5, -0.056307618, 0.000008602945, -0.000072256764, -1250689.9, -24727.375, 0.0, 10.000031, 9.96882 
2.625001e+3, 1.8486443e+2, -1162609.0, -1195717.4, 0.06259951, 0.000008568172, 0.000067917186, -1162609.0, -34280.43, 0.0, 10.000031, 9.956381 
2.625001e+3, 1.9482085e+2, -1064459.6, -1097830.5, -0.06298848, 0.000008522379, -0.000056243414, -1064459.6, -33703.96, 0.0, 10.000031, 9.9560375 
2.625001e+3, 2.047706e+2, -976295.9, -1019432.56, 0.057183575, 0.00000849181, 0.00006930977, -976295.9, -43047.758, 0.0, 10.000031, 9.943276 
2.625001e+3, 2.1471392e+2, -878009.2, -921407.7, -0.069297925, 0.000008477724, -0.00012558438, -878009.2, -42205.53, 0.0, 10.000031, 9.942935 
2.625001e+3, 2.2465053e+2, -789723.25, -843142.75, 0.053643163, 0.000008453126, 0.00012207338, -789723.25, -51298.48, 0.0, 10.000031, 9.9298935 
2.625001e+3, 2.3458049e+2, -691290.06, -744964.56, -0.064627394, 0.000008416616, -0.000087742534, -691290.06, -50178.875, 0.0, 10.000031, 9.929563 
2.625001e+3, 2.4450351e+2, -602966.2, -667017.0, 0.051234122, 0.000008390608, 0.000075687654, -602966.2, -59100.523, 0.0, 10.0000305, 9.9161215 
2.625001e+3, 2.5441974e+2, -504213.78, -568341.75, -0.06821994, 0.000008377152, -0.000105829575, -504213.78, -57527.32, 0.0, 10.0000305, 9.916021 
2.625001e+3, 2.6432893e+2, -415978.6, -490986.53, 0.052054547, 0.000008360598, 0.00014141806, -415978.6, -66401.85, 0.0, 10.0000305, 9.90195 
2.625001e+3, 2.742314e+2, -316693.63, -391373.63, -0.058407728, 0.000008340066, -0.00020271847, -316693.63, -64161.42, 0.0, 10.0000305, 9.90237 
2.625001e+3, 2.841257e+2, -230220.45, -318080.13, 0.056788236, 0.000008322025, 0.00022969474, -230220.45, -74652.16, 0.0, 10.0000305, 9.885425 
2.625001e+3, 2.9401216e+2, -130514.55, -217764.08, -0.050626524, 0.000008307401, -0.00025274148, -130514.55, -71833.69, 0.0, 10.0000305, 9.886203 
2.625001e+3, 3.039266e+2, -40771.12, -84749.84, 0.059071783, 0.000008292669, 0.00017363144, -40771.12, -40771.12, 0.0, 10.0000305, 9.942159 
2.625001e+3, 3.138706e+2, -39693.184, -82510.97, -0.04514276, 0.000008277761, -0.000054841155, -39693.184, -39693.184, 0.0, 10.0000305, 9.943669 
2.6350012e+3, 1.2499365e+2, -1719907.1, -1724221.9, 0.04004503, 0.000009030538, 0.000020719672, -1719907.1, -4844.9565, 0.0, 10.000032, 9.994311 
2.6350012e+3, 1.3498789e+2, -1622527.1, -1627432.4, -0.09547668, 0.000008923281, -0.00006936229, -1622527.1, -5408.4214, 0.0, 10.000032, 9.993529 
2.6350012e+3, 1.4497542e+2, -1534425.8, -1548143.4, 0.023725908, 0.000008862473, 0.000075356074, -1534425.8, -15184.788, 0.0, 10.000032, 9.98185 
2.6350012e+3, 1.549573e+2, -1436698.4, -1450819.3, -0.10620972, 0.000008846531, -0.000055178993, -1436698.4, -15279.84, 0.0, 10.000032, 9.9813175 
2.6350012e+3, 1.6493252e+2, -1348647.8, -1371950.0, 0.020023406, 0.000008819946, 0.00004818731, -1348647.8, -24986.494, 0.0, 10.000031, 9.9692335 
2.6350012e+3, 1.749018e+2, -1250690.1, -1274308.0, -0.11087438, 0.000008782499, -0.000072225135, -1250690.1, -24727.72, 0.0, 10.000031, 9.96882 
2.6350012e+3, 1.8486445e+2, -1162609.4, -1195717.9, 0.019079458, 0.000008747693, 0.00006795837, -1162609.4, -34280.76, 0.0, 10.000031, 9.95638 
2.6350012e+3, 1.9482087e+2, -1064459.9, -1097831.0, -0.10638291, 0.000008715641, -0.000056214132, -1064459.9, -33704.285, 0.0, 10.000031, 9.9560375 
2.6350012e+3, 2.047706e+2, -976296.1, -1019433.1, 0.015824849, 0.000008683417, 0.00006933289, -976296.1, -43048.082, 0.0, 10.000031, 9.943275 
2.6350012e+3, 2.1471392e+2, -878009.44, -921408.25, -0.11061578, 0.000008651001, -0.00012556122, -878009.44, -42205.85, 0.0, 10.000031, 9.942935 
2.6350012e+3, 2.2465055e+2, -789723.5, -843143.25, 0.01775973, 0.000008624728, 0.00012209426, -789723.5, -51298.78, 0.0, 10.000031, 9.929893 
2.6350012e+3, 2.3458049e+2, -691290.3, -744965.06, -0.100335434, 0.000008605404, -0.00008772661, -691290.3, -50179.17, 0.0, 10.000031, 9.929562 
2.6350012e+3, 2.4450351e+2, -602966.44, -667017.56, 0.02172416, 0.000008583909, 0.00007570266, -602966.44, -59100.82, 0.0, 10.0000305, 9.9161215 
2.6350012e+3, 2.5441974e+2, -504214.06, -568342.3, -0.09743336, 0.000008559808, -0.000105810694, -504214.06, -57527.61, 0.0, 10.0000305, 9.916021 
2.6350012e+3, 2.6432893e+2, -415978.84, -490987.03, 0.027988624, 0.000008536762, 0.00014143776, -415978.84, -66402.13, 0.0, 10.0000305, 9.90195 
2.6350012e+3, 2.742314e+2, -316693.88, -391374.13, -0.08213104, 0.000008515058, -0.00020270186, -316693.88, -64161.69, 0.0, 10.0000305, 9.90237 
2.6350012e+3, 2.841257e+2, -230220.7, -318080.63, 0.037726406, 0.0000084997055, 0.00022970838, -230220.7, -74652.42, 0.0, 10.0000305, 9.885424 
2.6350012e+3, 2.9401216e+2, -130514.8, -217764.58, -0.06926995, 0.00000849303, -0.0002527305, -130514.8, -71833.95, 0.0, 10.0000305, 9.886203 
2.6350012e+3, 3.039266e+2, -40771.367, -84750.36, 0.046601366, 0.0000084778585, 0.00017364445, -40771.367, -40771.367, 0.0, 10.0000305, 9.942158 
2.6350012e+3, 3.1387064e+2, -39693.43, -82511.484, -0.056889962, 0.000008450007, -0.000054819055, -39693.43, -39693.43, 0.0, 10.0000305, 9.943669 
2.6450014e+3, 1.2499366e+2, -1719905.0, -1724221.1, 0.09946258, 0.000009219884, 0.000020796208, -1719905.0, -4842.844, 0.0, 10.000034, 9.994311 
2.6450014e+3, 1.349879e+2, -1622525.0, -1627431.6, -0.0420612, 0.000009115042, -0.00006940058, -1622525.0, -5406.3447, 0.0, 10.000033, 9.993528 
2.6450014e+3, 1.4497542e+2, -1534423.6, -1548142.6, 0.07454409, 0.000009056235, 0.00007547987, -1534423.6, -15182.724, 0.0, 10.000033, 9.981849 
2.6450014e+3, 1.549573e+2, -1436696.4, -1450818.6, -0.05684772, 0.000009041837, -0.000055141187, -1436696.4, -15277.8, 0.0, 10.000033, 9.9813175 
2.645001e+3, 1.6493252e+2, -1348645.8, -1371949.3, 0.072519995, 0.000009012541, 0.000048194273, -1348645.8, -24984.467, 0.0, 10.000033, 9.969233 
2.645001e+3, 1.749018e+2, -1250688.0, -1274307.4, -0.06265328, 0.000008968042, -0.000072192684, -1250688.0, -24725.688, 0.0, 10.000033, 9.968819 
2.645001e+3, 1.8486445e+2, -1162607.3, -1195717.3, 0.06780095, 0.000008932531, 0.00006799956, -1162607.3, -34278.74, 0.0, 10.000033, 9.95638 
2.645001e+3, 1.9482087e+2, -1064457.9, -1097830.4, -0.06560118, 0.000008906419, -0.00005618174, -1064457.9, -33702.293, 0.0, 10.000032, 9.956037 
2.645001e+3, 2.0477061e+2, -976294.1, -1019432.5, 0.057496704, 0.000008874425, 0.00006935999, -976294.1, -43046.105, 0.0, 10.000032, 9.943275 
2.645001e+3, 2.1471393e+2, -878007.44, -921407.56, -0.06994109, 0.000008836056, -0.0001255356, -878007.44, -42203.88, 0.0, 10.000032, 9.942934 
2.645001e+3, 2.2465055e+2, -789721.5, -843142.6, 0.05739604, 0.000008808423, 0.00012211865, -789721.5, -51296.816, 0.0, 10.000032, 9.929893 
2.645001e+3, 2.345805e+2, -691288.3, -744964.44, -0.07058717, 0.0000087929375, -0.00008770311, -691288.3, -50177.223, 0.0, 10.000032, 9.929562 
2.645001e+3, 2.4450351e+2, -602964.5, -667016.94, 0.05247527, 0.000008771989, 0.00007572473, -602964.5, -59098.883, 0.0, 10.000032, 9.916121 
2.645001e+3, 2.5441974e+2, -504212.1, -568341.7, -0.0676489, 0.000008744498, -0.00010579065, -504212.1, -57525.684, 0.0, 10.000032, 9.916021 
2.645001e+3, 2.6432893e+2, -415976.88, -490986.47, 0.0575833, 0.000008719626, 0.00014145656, -415976.88, -66400.21, 0.0, 10.000032, 9.90195 
2.645001e+3, 2.742314e+2, -316691.94, -391373.56, -0.062910035, 0.000008698096, -0.0002026833, -316691.94, -64159.785, 0.0, 10.000032, 9.9023695 
2.645001e+3, 2.841257e+2, -230218.78, -318080.06, 0.054171126, 0.000008683204, 0.0002297258, -230218.78, -74650.52, 0.0, 10.000032, 9.885424 
2.645001e+3, 2.9401216e+2, -130512.88, -217764.03, -0.05610694, 0.00000867737, -0.00025271554, -130512.88, -71832.055, 0.0, 10.000032, 9.886202 
2.645001e+3, 3.039266e+2, -40769.49, -84749.84, 0.06221062, 0.000008661907, 0.000173656, -40769.49, -40769.49, 0.0, 10.000032, 9.942158 
2.645001e+3, 3.1387064e+2, -39691.56, -82510.98, -0.042471588, 0.000008632079, -0.000054812408, -39691.56, -39691.56, 0.0, 10.000032, 9.943669 
2.6550016e+3, 1.2499367e+2, -1719905.4, -1724221.8, 0.036590528, 0.000009397794, 0.0000208735, -1719905.4, -4843.247, 0.0, 10.000034, 9.99431 
2.6550016e+3, 1.349879e+2, -1622525.3, -1627432.3, -0.10494442, 0.000009318685, -0.00006944536, -1622525.3, -5406.7407, 0.0, 10.000033, 9.993528 
2.6550016e+3, 1.4497544e+2, -1534423.9, -1548143.1, 0.013677206, 0.000009266913, 0.000075602606, -1534423.9, -15183.093, 0.0, 10.000033, 9.981849 
2.6550016e+3, 1.5495731e+2, -1436696.6, -1450819.1, -0.11771408, 0.000009240697, -0.000055098684, -1436696.6, -15278.161, 0.0, 10.000033, 9.9813175 
2.6550016e+3, 1.6493253e+2, -1348646.0, -1371949.9, 0.021038532, 0.000009204981, 0.00004820659, -1348646.0, -24984.832, 0.0, 10.000033, 9.969233 
2.6550016e+3, 1.7490181e+2, -1250688.4, -1274307.9, -0.114087336, 0.000009159571, -0.00007215941, -1250688.4, -24726.047, 0.0, 10.000033, 9.968819 
2.6550016e+3, 1.8486445e+2, -1162607.5, -1195717.8, 0.01807491, 0.000009122687, 0.00006804076, -1162607.5, -34279.086, 0.0, 10.000033, 9.95638 
2.6550016e+3, 1.9482087e+2, -1064458.1, -1097830.9, -0.115309164, 0.000009094714, -0.000056146237, -1064458.1, -33702.637, 0.0, 10.000032, 9.956037 
2.6550016e+3, 2.0477061e+2, -976294.4, -1019433.0, 0.016509958, 0.0000090648355, 0.00006939108, -976294.4, -43046.434, 0.0, 10.000032, 9.9432745 
2.6550013e+3, 2.1471393e+2, -878007.7, -921408.1, -0.110750124, 0.000009032887, -0.00012550755, -878007.7, -42204.2, 0.0, 10.000032, 9.942934 
2.6550013e+3, 2.2465055e+2, -789721.8, -843143.2, 0.019232826, 0.000009004206, 0.00012214658, -789721.8, -51297.137, 0.0, 10.000032, 9.929893 
2.6550013e+3, 2.345805e+2, -691288.6, -744965.0, -0.10866523, 0.0000089792175, -0.000087672066, -691288.6, -50177.54, 0.0, 10.000032, 9.929561 
2.6550013e+3, 2.4450351e+2, -602964.75, -667017.5, 0.021970162, 0.000008954852, 0.00007575387, -602964.75, -59099.184, 0.0, 10.000032, 9.916121 
2.6550013e+3, 2.5441974e+2, -504212.34, -568342.25, -0.09779276, 0.000008931222, -0.00010576943, -504212.34, -57525.98, 0.0, 10.000032, 9.91602 
2.6550013e+3, 2.6432893e+2, -415977.16, -490987.0, 0.032444604, 0.000008909188, 0.00014147449, -415977.16, -66400.516, 0.0, 10.000032, 9.901949 
2.6550013e+3, 2.742314e+2, -316692.2, -391374.1, -0.08771433, 0.000008889179, -0.00020266273, -316692.2, -64160.074, 0.0, 10.000032, 9.9023695 
2.6550013e+3, 2.8412572e+2, -230219.03, -318080.6, 0.034425084, 0.000008872519, 0.00022974696, -230219.03, -74650.8, 0.0, 10.000032, 9.885424 
2.6550013e+3, 2.9401216e+2, -130513.13, -217764.55, -0.075399466, 0.000008860424, -0.00025269654, -130513.13, -71832.33, 0.0, 10.000032, 9.886202 
2.6550013e+3, 3.039266e+2, -40769.74, -84750.37, 0.04821077, 0.000008844816, 0.00017366606, -40769.74, -40769.74, 0.0, 10.000032, 9.942157 
2.6550013e+3, 3.1387064e+2, -39691.813, -82511.5, -0.05585239, 0.00000882397, -0.0000548212, -39691.813, -39691.813, 0.0, 10.000032, 9.943668 
2.6650015e+3, 1.24993674e+2, -1719903.0, -1724220.9, 0.11149634, 0.000009593062, 0.0000209504, -1719903.0, -4841.0405, 0.0, 10.000035, 9.99431 
2.6650015e+3, 1.3498792e+2, -1622523.1, -1627431.5, -0.033819202, 0.000009521362, -0.00006950333, -1622523.1, -5404.584, 0.0, 10.000035, 9.993528 
2.6650015e+3, 1.4497544e+2, -1534421.6, -1548142.4, 0.084812865, 0.000009471109, 0.000075715514, -1534421.6, -15180.947, 0.0, 10.000035, 9.981849 
2.6650015e+3, 1.5495731e+2, -1436694.4, -1450818.4, -0.05851098, 0.000009440446, -0.000055059158, -1436694.4, -15276.018, 0.0, 10.000035, 9.981317 
2.6650015e+3, 1.6493253e+2, -1348643.8, -1371949.1, 0.07842102, 0.0000094020315, 0.000048219896, -1348643.8, -24982.701, 0.0, 10.000035, 9.969232 
2.6650015e+3, 1.7490181e+2, -1250686.1, -1274307.3, -0.06264738, 0.000009355707, -0.00007212414, -1250686.1, -24723.94, 0.0, 10.000034, 9.968819 
2.6650015e+3, 1.8486446e+2, -1162605.4, -1195717.1, 0.06764487, 0.000009318026, 0.00006808257, -1162605.4, -34276.992, 0.0, 10.000034, 9.956379 
2.6650015e+3, 1.9482088e+2, -1064456.0, -1097830.3, -0.07047592, 0.000009289379, -0.000056114048, -1064456.0, -33700.55, 0.0, 10.000034, 9.956037 
2.6650015e+3, 2.0477061e+2, -976292.25, -1019432.3, 0.061861914, 0.000009259808, 0.00006941843, -976292.25, -43044.36, 0.0, 10.000034, 9.9432745 
2.6650015e+3, 2.1471393e+2, -878005.6, -921407.44, -0.07429718, 0.000009229233, -0.00012547984, -878005.6, -42202.15, 0.0, 10.000034, 9.942933 
2.6650015e+3, 2.2465055e+2, -789719.7, -843142.56, 0.054588336, 0.000009199674, 0.00012217354, -789719.7, -51295.098, 0.0, 10.000034, 9.929892 
2.6650015e+3, 2.345805e+2, -691286.5, -744964.4, -0.07531774, 0.00000917126, -0.000087647095, -691286.5, -50175.504, 0.0, 10.000034, 9.929561 
2.6650015e+3, 2.4450353e+2, -602962.7, -667016.9, 0.056177527, 0.00000914534, 0.00007577774, -602962.7, -59097.16, 0.0, 10.000034, 9.916121 
2.6650015e+3, 2.5441974e+2, -504210.3, -568341.6, -0.07418167, 0.000009122393, -0.0001057456, -504210.3, -57523.965, 0.0, 10.000033, 9.91602 
2.6650015e+3, 2.6432893e+2, -415975.13, -490986.4, 0.05477484, 0.000009101112, 0.00014149587, -415975.13, -66398.51, 0.0, 10.000033, 9.901949 
2.6650015e+3, 2.742314e+2, -316690.2, -391373.5, -0.0646532, 0.000009081935, -0.00020264687, -316690.2, -64158.09, 0.0, 10.000033, 9.9023695 
2.6650015e+3, 2.8412572e+2, -230217.03, -318080.0, 0.06078874, 0.000009065167, 0.00022976007, -230217.03, -74648.82, 0.0, 10.000033, 9.885423 
2.6650015e+3, 2.940122e+2, -130511.15, -217763.97, -0.055812553, 0.000009051677, -0.00025268242, -130511.15, -71830.36, 0.0, 10.000033, 9.886202 
2.6650015e+3, 3.039266e+2, -40767.78, -84749.83, 0.06555152, 0.000009034927, 0.00017367912, -40767.78, -40767.78, 0.0, 10.000033, 9.942157 
2.6650015e+3, 3.1387064e+2, -39689.85, -82510.96, -0.04611112, 0.000009013324, -0.00005481235, -39689.85, -39689.85, 0.0, 10.000033, 9.943668 
2.6750013e+3, 1.2499368e+2, -1719903.4, -1724221.5, 0.038866505, 0.000009805678, 0.000021027055, -1719903.4, -4841.456, 0.0, 10.000035, 9.99431 
2.6750013e+3, 1.3498792e+2, -1622523.4, -1627432.1, -0.10646237, 0.000009723071, -0.00006957449, -1622523.4, -5404.9917, 0.0, 10.000035, 9.993527 
2.6750013e+3, 1.4497545e+2, -1534422.0, -1548143.0, 0.02525105, 0.000009668825, 0.00007581861, -1534422.0, -15181.347, 0.0, 10.000035, 9.981848 
2.6750013e+3, 1.5495732e+2, -1436694.8, -1450819.0, -0.11805436, 0.000009641084, -0.000055022603, -1436694.8, -15276.409, 0.0, 10.000035, 9.981317 
2.6750013e+3, 1.6493255e+2, -1348644.1, -1371949.8, 0.023306096, 0.00000960369, 0.000048234186, -1348644.1, -24983.082, 0.0, 10.000035, 9.969232 
2.6750013e+3, 1.7490183e+2, -1250686.5, -1274307.9, -0.117741115, 0.000009556448, -0.00007208687, -1250686.5, -24724.313, 0.0, 10.000034, 9.968818 
2.6750013e+3, 1.8486446e+2, -1162605.6, -1195717.6, 0.017386649, 0.000009518548, 0.00006812497, -1162605.6, -34277.355, 0.0, 10.000034, 9.956379 
2.6750013e+3, 1.9482088e+2, -1064456.4, -1097830.8, -0.12068005, 0.000009490411, -0.000056085173, -1064456.4, -33700.906, 0.0, 10.000034, 9.956036 
2.6750013e+3, 2.0477062e+2, -976292.56, -1019432.94, 0.017159862, 0.000009459343, 0.00006944206, -976292.56, -43044.707, 0.0, 10.000034, 9.9432745 
2.6750013e+3, 2.1471395e+2, -878005.9, -921408.06, -0.11888736, 0.000009425097, -0.00012545247, -878005.9, -42202.492, 0.0, 10.000034, 9.942933 
2.6750013e+3, 2.2465056e+2, -789720.0, -843143.1, 0.016401324, 0.000009394831, 0.00012219955, -789720.0, -51295.426, 0.0, 10.000034, 9.929892 
2.6750013e+3, 2.345805e+2, -691286.8, -744964.94, -0.11329793, 0.000009369063, -0.00008762821, -691286.8, -50175.83, 0.0, 10.000034, 9.929561 
2.6750013e+3, 2.4450353e+2, -602962.94, -667017.44, 0.02426557, 0.00000934345, 0.00007579633, -602962.94, -59097.484, 0.0, 10.000034, 9.91612 
2.6750013e+3, 2.5441977e+2, -504210.6, -568342.2, -0.105803266, 0.00000931801, -0.00010571915, -504210.6, -57524.285, 0.0, 10.000033, 9.91602 
2.6750013e+3, 2.6432893e+2, -415975.4, -490986.94, 0.027172318, 0.000009295394, 0.00014152072, -415975.4, -66398.81, 0.0, 10.000033, 9.901949 
2.6750013e+3, 2.742314e+2, -316690.44, -391374.06, -0.09198914, 0.000009276364, -0.00020263567, -316690.44, -64158.383, 0.0, 10.000033, 9.902369 
2.6750013e+3, 2.8412572e+2, -230217.3, -318080.56, 0.04030076, 0.000009261148, 0.00022976514, -230217.3, -74649.11, 0.0, 10.000033, 9.885423 
2.6750013e+3, 2.940122e+2, -130511.414, -217764.53, -0.07568569, 0.000009251127, -0.00025267317, -130511.414, -71830.64, 0.0, 10.000033, 9.886201 
2.6750013e+3, 3.039266e+2, -40768.05, -84750.38, 0.05210327, 0.000009232235, 0.00017369514, -40768.05, -40768.05, 0.0, 10.000033, 9.942157 
2.6750013e+3, 3.1387064e+2, -39690.12, -82511.516, -0.0588073, 0.000009200143, -0.000054785854, -39690.12, -39690.12, 0.0, 10.000033, 9.943667 
2.6850015e+3, 1.2499369e+2, -1719901.0, -1724220.8, 0.108559445, 0.000010022457, 0.000021104424, -1719901.0, -4839.2036, 0.0, 10.000037, 9.994309 
2.6850015e+3, 1.3498794e+2, -1622521.0, -1627431.4, -0.042885844, 0.000009928877, -0.00006962843, -1622521.0, -5402.7183, 0.0, 10.000037, 9.993527 
2.6850015e+3, 1.4497545e+2, -1534419.6, -1548142.3, 0.08975242, 0.000009870038, 0.00007594434, -1534419.6, -15179.074, 0.0, 10.000037, 9.981848 
2.6850015e+3, 1.5495732e+2, -1436692.4, -1450818.3, -0.059503116, 0.000009844082, -0.000054982356, -1436692.4, -15274.17, 0.0, 10.000036, 9.981316 
2.6850015e+3, 1.6493255e+2, -1348641.9, -1371949.0, 0.08185761, 0.00000980838, 0.00004824474, -1348641.9, -24980.863, 0.0, 10.000036, 9.969232 
2.6850015e+3, 1.7490183e+2, -1250684.3, -1274307.1, -0.06589521, 0.0000097627335, -0.00007204901, -1250684.3, -24722.113, 0.0, 10.000036, 9.968818 
2.6850015e+3, 1.8486446e+2, -1162603.4, -1195716.9, 0.06857765, 0.000009724307, 0.000068170026, -1162603.4, -34275.168, 0.0, 10.000036, 9.956379 
2.6850015e+3, 1.9482088e+2, -1064454.1, -1097830.1, -0.07441003, 0.000009693428, -0.00005605401, -1064454.1, -33698.74, 0.0, 10.000036, 9.956036 
2.6850015e+3, 2.0477062e+2, -976290.4, -1019432.25, 0.06514334, 0.0000096611675, 0.00006946776, -976290.4, -43042.55, 0.0, 10.000036, 9.943274 
2.6850015e+3, 2.1471395e+2, -878003.7, -921407.4, -0.07475974, 0.000009627408, -0.00012542313, -878003.7, -42200.348, 0.0, 10.000036, 9.942933 
2.6850015e+3, 2.2465056e+2, -789717.8, -843142.44, 0.060634058, 0.000009596284, 0.00012222958, -789717.8, -51293.293, 0.0, 10.000035, 9.929892 
2.6850015e+3, 2.3458052e+2, -691284.6, -744964.25, -0.07920886, 0.000009568138, -0.00008760084, -691284.6, -50173.703, 0.0, 10.000035, 9.92956 
2.6850015e+3, 2.4450353e+2, -602960.8, -667016.75, 0.057302095, 0.000009542298, 0.00007582007, -602960.8, -59095.367, 0.0, 10.000035, 9.91612 
2.6850015e+3, 2.5441977e+2, -504208.47, -568341.56, -0.07244304, 0.000009519202, -0.00010570018, -504208.47, -57522.195, 0.0, 10.000035, 9.916019 
2.6850015e+3, 2.6432893e+2, -415973.28, -490986.3, 0.0619782, 0.000009496923, 0.00014153785, -415973.28, -66396.734, 0.0, 10.000035, 9.901948 
2.6850015e+3, 2.742314e+2, -316688.34, -391373.44, -0.068302356, 0.00000947567, -0.00020261669, -316688.34, -64156.313, 0.0, 10.000035, 9.902369 
2.6850015e+3, 2.8412572e+2, -230215.2, -318079.94, 0.06124621, 0.000009458913, 0.00022978398, -230215.2, -74647.04, 0.0, 10.000035, 9.885423 
2.6850015e+3, 2.940122e+2, -130509.336, -217763.92, -0.060312867, 0.000009448299, -0.0002526572, -130509.336, -71828.586, 0.0, 10.000035, 9.886201 
2.6850015e+3, 3.039266e+2, -40766.004, -84749.82, 0.0666409, 0.000009429372, 0.00017370861, -40766.004, -40766.004, 0.0, 10.000035, 9.942156 
2.6850015e+3, 3.1387064e+2, -39688.082, -82510.96, -0.049469452, 0.000009398064, -0.000054774297, -39688.082, -39688.082, 0.0, 10.000035, 9.943667 
2.6950014e+3, 1.249937e+2, -1719901.4, -1724221.4, 0.042787094, 0.000010243398, 0.000021182672, -1719901.4, -4839.6367, 0.0, 10.000037, 9.994309 
2.6950014e+3, 1.3498794e+2, -1622521.4, -1627432.0, -0.10867045, 0.000010138778, -0.00006966517, -1622521.4, -5403.1436, 0.0, 10.000037, 9.993526 
2.6950014e+3, 1.4497547e+2, -1534420.0, -1548142.9, 0.024230953, 0.000010074748, 0.000076092714, -1534420.0, -15179.49, 0.0, 10.000037, 9.981847 
2.6950014e+3, 1.5495734e+2, -1436692.8, -1450818.9, -0.12502556, 0.000010049443, -0.000054938417, -1436692.8, -15274.577, 0.0, 10.000036, 9.981316 
2.6950014e+3, 1.6493255e+2, -1348642.1, -1371949.6, 0.024042407, 0.0000100161005, 0.000048251557, -1348642.1, -24981.262, 0.0, 10.000036, 9.969231 
2.6950014e+3, 1.7490183e+2, -1250684.5, -1274307.8, -0.1236719, 0.000009974559, -0.000072010545, -1250684.5, -24722.506, 0.0, 10.000036, 9.968817 
2.6950014e+3, 1.8486448e+2, -1162603.8, -1195717.5, 0.015899358, 0.000009935305, 0.00006821771, -1162603.8, -34275.543, 0.0, 10.000036, 9.956378 
2.6950014e+3, 1.948209e+2, -1064454.4, -1097830.8, -0.12703165, 0.00000989843, -0.000056020555, -1064454.4, -33699.105, 0.0, 10.000036, 9.956035 
2.6950014e+3, 2.0477062e+2, -976290.7, -1019432.8, 0.01896441, 0.000009865282, 0.000069495516, -976290.7, -43042.91, 0.0, 10.000036, 9.943274 
2.6950014e+3, 2.1471395e+2, -878004.0, -921407.94, -0.12080838, 0.000009836162, -0.0001253918, -878004.0, -42200.7, 0.0, 10.000036, 9.942932 
2.6950014e+3, 2.2465056e+2, -789718.1, -843143.06, 0.021892434, 0.000009804031, 0.00012226363, -789718.1, -51293.645, 0.0, 10.000035, 9.929891 
2.6950014e+3, 2.3458052e+2, -691284.94, -744964.9, -0.117712736, 0.000009768486, -0.000087565, -691284.94, -50174.047, 0.0, 10.000035, 9.92956 
2.6950014e+3, 2.4450353e+2, -602961.1, -667017.4, 0.02145276, 0.000009741886, 0.000075848955, -602961.1, -59095.695, 0.0, 10.000035, 9.91612 
2.6950014e+3, 2.5441977e+2, -504208.75, -568342.1, -0.10816764, 0.000009725966, -0.00010568868, -504208.75, -57522.51, 0.0, 10.000035, 9.916019 
2.6950014e+3, 2.6432893e+2, -415973.6, -490986.9, 0.03475115, 0.0000097056945, 0.00014154722, -415973.6, -66397.055, 0.0, 10.000035, 9.901948 
2.6950014e+3, 2.742314e+2, -316688.66, -391374.03, -0.09496185, 0.00000967985, -0.00020258996, -316688.66, -64156.625, 0.0, 10.000035, 9.902368 
2.6950014e+3, 2.8412572e+2, -230215.48, -318080.53, 0.040488098, 0.0000096584645, 0.0002298166, -230215.48, -74647.34, 0.0, 10.000035, 9.885422 
2.6950014e+3, 2.940122e+2, -130509.61, -217764.5, -0.08054127, 0.000009643196, -0.0002526345, -130509.61, -71828.875, 0.0, 10.000035, 9.8862 
2.6950014e+3, 3.039266e+2, -40766.28, -84750.4, 0.051049326, 0.000009626338, 0.00017371956, -40766.28, -40766.28, 0.0, 10.000035, 9.942156 
2.6950014e+3, 3.1387064e+2, -39688.363, -82511.54, -0.064518854, 0.0000096070835, -0.00005477766, -39688.363, -39688.363, 0.0, 10.000035, 9.943667 
2.7050015e+3, 1.2499371e+2, -1719898.9, -1724220.5, 0.11661713, 0.000010461028, 0.00002126617, -1719898.9, -4837.2476, 0.0, 10.000039, 9.994308 
2.7050015e+3, 1.3498795e+2, -1622519.0, -1627431.3, -0.044701643, 0.000010354418, -0.000069714595, -1622519.0, -5400.792, 0.0, 10.000039, 9.993526 
2.7050015e+3, 1.4497547e+2, -1534417.5, -1548142.0, 0.08606348, 0.000010288849, 0.000076230805, -1534417.5, -15177.146, 0.0, 10.000038, 9.981847 
2.7050015e+3, 1.5495734e+2, -1436690.4, -1450818.1, -0.06533114, 0.000010262413, -0.000054895667, -1436690.4, -15272.241, 0.0, 10.000038, 9.981315 
2.7050015e+3, 1.6493258e+2, -1348639.8, -1371948.8, 0.08540861, 0.000010228998, 0.000048259582, -1348639.8, -24978.943, 0.0, 10.000038, 9.969231 
2.7050015e+3, 1.7490184e+2, -1250682.3, -1274307.0, -0.06758491, 0.0000101884625, -0.00007197532, -1250682.3, -24720.217, 0.0, 10.000038, 9.968817 
2.7050015e+3, 1.8486448e+2, -1162601.4, -1195716.8, 0.07354006, 0.0000101485975, 0.00006826209, -1162601.4, -34273.266, 0.0, 10.000038, 9.956378 
2.7050015e+3, 1.948209e+2, -1064452.1, -1097830.0, -0.07701456, 0.000010109422, -0.000055985933, -1064452.1, -33696.836, 0.0, 10.000038, 9.956035 
2.7050015e+3, 2.0477064e+2, -976288.4, -1019432.06, 0.06568356, 0.000010074233, 0.00006952622, -976288.4, -43040.652, 0.0, 10.000037, 9.943273 
2.7050015e+3, 2.1471396e+2, -878001.75, -921407.25, -0.08444262, 0.000010043354, -0.0001253587, -878001.75, -42198.457, 0.0, 10.000037, 9.942932 
2.7050015e+3, 2.2465058e+2, -789715.8, -843142.3, 0.058526658, 0.000010012057, 0.00012229504, -789715.8, -51291.414, 0.0, 10.000037, 9.929891 
2.7050015e+3, 2.3458052e+2, -691282.7, -744964.2, -0.080947794, 0.000009980276, -0.00008753995, -691282.7, -50171.848, 0.0, 10.000037, 9.92956 
2.7050015e+3, 2.4450354e+2, -602958.9, -667016.7, 0.059638575, 0.000009953483, 0.00007587109, -602958.9, -59093.508, 0.0, 10.000037, 9.916119 
2.7050015e+3, 2.5441977e+2, -504206.53, -568341.44, -0.08062557, 0.000009932636, -0.00010566537, -504206.53, -57520.324, 0.0, 10.000037, 9.9160185 
2.7050015e+3, 2.6432893e+2, -415971.38, -490986.25, 0.060384378, 0.000009909966, 0.00014157033, -415971.38, -66394.87, 0.0, 10.000037, 9.901947 
2.7050015e+3, 2.742314e+2, -316686.44, -391373.4, -0.074216105, 0.0000098849505, -0.00020256882, -316686.44, -64154.46, 0.0, 10.000037, 9.902368 
2.7050015e+3, 2.8412572e+2, -230213.31, -318079.88, 0.062458396, 0.000009864388, 0.00022983595, -230213.31, -74645.19, 0.0, 10.000037, 9.885422 
2.7050015e+3, 2.940122e+2, -130507.445, -217763.88, -0.061936304, 0.00000984992, -0.00025261668, -130507.445, -71826.734, 0.0, 10.000037, 9.8862 
2.7050015e+3, 3.039266e+2, -40764.156, -84749.81, 0.07084011, 0.000009832927, 0.00017373388, -40764.156, -40764.156, 0.0, 10.000037, 9.942155 
2.7050015e+3, 3.1387064e+2, -39686.234, -82510.95, -0.0490796, 0.000009812145, -0.000054769735, -39686.234, -39686.234, 0.0, 10.000036, 9.943666 
2.7150017e+3, 1.2499372e+2, -1719899.3, -1724221.3, 0.04425499, 0.0000106753505, 0.000021355101, -1719899.3, -4837.707, 0.0, 10.000039, 9.994308 
2.7150017e+3, 1.3498795e+2, -1622519.4, -1627431.9, -0.11707607, 0.000010575796, -0.000069776695, -1622519.4, -5401.243, 0.0, 10.000039, 9.993526 
2.7150017e+3, 1.4497548e+2, -1534417.9, -1548142.8, 0.020602355, 0.000010512336, 0.00007635863, -1534417.9, -15177.571, 0.0, 10.000038, 9.981847 
2.7150017e+3, 1.5495735e+2, -1436690.6, -1450818.8, -0.13078405, 0.000010482992, -0.000054854107, -1436690.6, -15272.657, 0.0, 10.000038, 9.981315 
2.7150017e+3, 1.6493258e+2, -1348640.1, -1371949.5, 0.022427792, 0.000010447071, 0.000048268812, -1348640.1, -24979.357, 0.0, 10.000038, 9.96923 
2.7150014e+3, 1.7490184e+2, -1250682.5, -1274307.6, -0.13055512, 0.000010404443, -0.00007194332, -1250682.5, -24720.623, 0.0, 10.000038, 9.968817 
2.7150014e+3, 1.8486449e+2, -1162601.8, -1195717.4, 0.020986225, 0.000010364186, 0.00006830316, -1162601.8, -34273.664, 0.0, 10.000038, 9.956377 
2.7150014e+3, 1.948209e+2, -1064452.4, -1097830.6, -0.12945043, 0.000010326401, -0.00005595014, -1064452.4, -33697.227, 0.0, 10.000038, 9.956035 
2.7150014e+3, 2.0477064e+2, -976288.7, -1019432.75, 0.017783329, 0.00001028802, 0.000069559865, -976288.7, -43041.04, 0.0, 10.000037, 9.943273 
2.7150014e+3, 2.1471396e+2, -878002.06, -921407.9, -0.13225016, 0.00001024899, -0.0001253238, -878002.06, -42198.836, 0.0, 10.000037, 9.942931 
2.7150014e+3, 2.2465058e+2, -789716.1, -843142.94, 0.01471423, 0.000010220364, 0.0001223238, -789716.1, -51291.77, 0.0, 10.000037, 9.92989 
2.7150014e+3, 2.3458053e+2, -691283.0, -744964.8, -0.12463281, 0.000010203506, -0.000087525674, -691283.0, -50172.195, 0.0, 10.000037, 9.929559 
2.7150014e+3, 2.4450354e+2, -602959.2, -667017.3, 0.025745459, 0.000010177082, 0.00007588647, -602959.2, -59093.855, 0.0, 10.000037, 9.916119 
2.7150014e+3, 2.5441977e+2, -504206.84, -568342.06, -0.114050426, 0.000010139214, -0.00010563025, -504206.84, -57520.664, 0.0, 10.000037, 9.9160185 
2.7150014e+3, 2.6432893e+2, -415971.66, -490986.88, 0.031266745, 0.000010109741, 0.00014160718, -415971.66, -66395.2, 0.0, 10.000037, 9.901947 
2.7150014e+3, 2.7423143e+2, -316686.75, -391374.0, -0.103046775, 0.000010090969, -0.00020255326, -316686.75, -64154.79, 0.0, 10.000037, 9.902368 
2.7150014e+3, 2.8412572e+2, -230213.6, -318080.47, 0.039259702, 0.000010076681, 0.00022984204, -230213.6, -74645.5, 0.0, 10.000037, 9.885421 
2.7150014e+3, 2.940122e+2, -130507.734, -217764.47, -0.08463075, 0.000010068468, -0.00025260376, -130507.734, -71827.04, 0.0, 10.000037, 9.8862 
2.7150014e+3, 3.0392662e+2, -40764.44, -84750.41, 0.05541081, 0.000010049136, 0.00017375154, -40764.44, -40764.44, 0.0, 10.000037, 9.942155 
2.7150014e+3, 3.1387064e+2, -39686.523, -82511.555, -0.06365885, 0.000010013254, -0.00005475053, -39686.523, -39686.523, 0.0, 10.000036, 9.943666 
2.7250016e+3, 1.2499373e+2, -1719896.8, -1724220.4, 0.119983286, 0.000010896212, 0.000021442753, -1719896.8, -4835.222, 0.0, 10.000041, 9.9943075 
2.7250016e+3, 1.3498797e+2, -1622516.8, -1627431.0, -0.044294577, 0.000010800717, -0.00006983579, -1622516.8, -5398.7813, 0.0, 10.000041, 9.9935255 
2.7250016e+3, 1.449755e+2, -1534415.4, -1548141.9, 0.09355681, 0.000010738897, 0.00007649508, -1534415.4, -15175.121, 0.0, 10.00004, 9.981846 
2.7250016e+3, 1.5495735e+2, -1436688.1, -1450817.9, -0.06628614, 0.0000107087135, -0.000054811248, -1436688.1, -15270.241, 0.0, 10.00004, 9.981315 
2.7250016e+3, 1.649326e+2, -1348637.6, -1371948.6, 0.08606288, 0.000010670115, 0.000048278984, -1348637.6, -24976.957, 0.0, 10.00004, 9.96923 
2.7250016e+3, 1.7490186e+2, -1250680.1, -1274306.8, -0.074515186, 0.000010622934, -0.00007190362, -1250680.1, -24718.22, 0.0, 10.00004, 9.968816 
2.7250016e+3, 1.8486449e+2, -1162599.3, -1195716.6, 0.075784415, 0.000010581219, 0.00006835283, -1162599.3, -34271.27, 0.0, 10.00004, 9.956377 
2.7250016e+3, 1.9482091e+2, -1064450.0, -1097829.8, -0.08247764, 0.000010545215, -0.000055910987, -1064450.0, -33694.863, 0.0, 10.000039, 9.956034 
2.7250016e+3, 2.0477065e+2, -976286.25, -1019431.94, 0.06773627, 0.0000105077515, 0.00006959158, -976286.25, -43038.69, 0.0, 10.000039, 9.943273 
2.7250016e+3, 2.1471396e+2, -877999.7, -921407.1, -0.080752045, 0.000010468701, -0.00012529618, -877999.7, -42196.508, 0.0, 10.000039, 9.942931 
2.7250016e+3, 2.2465058e+2, -789713.75, -843142.2, 0.06611534, 0.00001043881, 0.00012234983, -789713.75, -51289.453, 0.0, 10.000039, 9.92989 
2.7250016e+3, 2.3458053e+2, -691280.6, -744964.06, -0.08642337, 0.000010419281, -0.00008749843, -691280.6, -50169.887, 0.0, 10.000039, 9.929559 
2.7250016e+3, 2.4450354e+2, -602956.8, -667016.56, 0.06274037, 0.000010391744, 0.00007591432, -602956.8, -59091.56, 0.0, 10.000039, 9.916118 
2.7250016e+3, 2.5441977e+2, -504204.53, -568341.4, -0.08220456, 0.000010354624, -0.00010560251, -504204.53, -57518.387, 0.0, 10.000039, 9.9160185 
2.7250016e+3, 2.6432896e+2, -415969.38, -490986.2, 0.064025655, 0.000010325303, 0.00014163132, -415969.38, -66392.94, 0.0, 10.000039, 9.901947 
2.7250016e+3, 2.7423143e+2, -316684.47, -391373.34, -0.072653785, 0.000010305921, -0.0002025371, -316684.47, -64152.535, 0.0, 10.000039, 9.902367 
2.7250016e+3, 2.8412572e+2, -230211.33, -318079.8, 0.06964977, 0.000010291036, 0.00022985465, -230211.33, -74643.25, 0.0, 10.000038, 9.885421 
2.7250016e+3, 2.940122e+2, -130505.48, -217763.81, -0.06433607, 0.00001028225, -0.0002525886, -130505.48, -71824.805, 0.0, 10.000038, 9.886199 
2.7250016e+3, 3.0392662e+2, -40762.22, -84749.8, 0.07288755, 0.000010262555, 0.00017376666, -40762.22, -40762.22, 0.0, 10.000038, 9.942155 
2.7250016e+3, 3.1387064e+2, -39684.305, -82510.945, -0.053740844, 0.000010226629, -0.000054739427, -39684.305, -39684.305, 0.0, 10.000038, 9.9436655 
2.7350017e+3, 1.24993734e+2, -1719897.1, -1724221.0, 0.044360347, 0.000011123611, 0.00002152933, -1719897.1, -4835.6924, 0.0, 10.000041, 9.9943075 
2.7350017e+3, 1.3498798e+2, -1622517.1, -1627431.8, -0.11993169, 0.000011029181, -0.000069891874, -1622517.1, -5399.243, 0.0, 10.000041, 9.9935255 
2.7350017e+3, 1.449755e+2, -1534415.8, -1548142.5, 0.022090975, 0.000010968531, 0.00007664017, -1534415.8, -15175.568, 0.0, 10.00004, 9.981846 
2.7350017e+3, 1.5495737e+2, -1436688.5, -1450818.5, -0.1377481, 0.000010939576, -0.00005476709, -1436688.5, -15270.679, 0.0, 10.00004, 9.981314 
2.7350017e+3, 1.649326e+2, -1348638.0, -1371949.3, 0.025900973, 0.0000108981285, 0.00004829009, -1348638.0, -24977.39, 0.0, 10.00004, 9.969229 
2.7350017e+3, 1.7490186e+2, -1250680.4, -1274307.5, -0.13462022, 0.000010843934, -0.000071856215, -1250680.4, -24718.646, 0.0, 10.00004, 9.968816 
2.7350017e+3, 1.848645e+2, -1162599.6, -1195717.3, 0.017749658, 0.000010799697, 0.00006841109, -1162599.6, -34271.688, 0.0, 10.00004, 9.956376 
2.7350017e+3, 1.9482091e+2, -1064450.4, -1097830.5, -0.14048997, 0.000010765864, -0.00005586848, -1064450.4, -33695.273, 0.0, 10.000039, 9.956034 
2.7350017e+3, 2.0477065e+2, -976286.6, -1019432.6, 0.017504668, 0.000010733422, 0.00006962137, -976286.6, -43039.08, 0.0, 10.000039, 9.943272 
2.7350017e+3, 2.1471398e+2, -878000.0, -921407.75, -0.13082677, 0.000010702479, -0.00012527582, -878000.0, -42196.883, 0.0, 10.000039, 9.942931 
2.7350017e+3, 2.2465059e+2, -789714.1, -843142.9, 0.022353623, 0.000010667392, 0.00012237311, -789714.1, -51289.836, 0.0, 10.000039, 9.929889 
2.7350017e+3, 2.3458053e+2, -691281.0, -744964.75, -0.1299802, 0.000010627608, -0.00008745823, -691281.0, -50170.26, 0.0, 10.000039, 9.929558 
2.7350017e+3, 2.4450354e+2, -602957.2, -667017.25, 0.026173592, 0.000010597473, 0.000075954646, -602957.2, -59091.92, 0.0, 10.000039, 9.916118 
2.7350017e+3, 2.5441977e+2, -504204.84, -568342.0, -0.11843764, 0.0000105788595, -0.00010558215, -504204.84, -57518.742, 0.0, 10.000039, 9.916018 
2.7350017e+3, 2.6432896e+2, -415969.7, -490986.8, 0.03352973, 0.000010556642, 0.0001416428, -415969.7, -66393.28, 0.0, 10.000039, 9.901946 
2.7350017e+3, 2.7423143e+2, -316684.78, -391373.94, -0.102768324, 0.000010529802, -0.00020252037, -316684.78, -64152.867, 0.0, 10.000039, 9.902367 
2.7350017e+3, 2.8412572e+2, -230211.63, -318080.44, 0.045564782, 0.000010507455, 0.00022987375, -230211.63, -74643.586, 0.0, 10.000038, 9.885421 
2.7350017e+3, 2.940122e+2, -130505.78, -217764.44, -0.087879784, 0.000010491267, -0.00025257116, -130505.78, -71825.13, 0.0, 10.000038, 9.886199 
2.7350017e+3, 3.0392662e+2, -40762.523, -84750.43, 0.056764044, 0.000010473188, 0.00017377923, -40762.523, -40762.523, 0.0, 10.000038, 9.942154 
2.7350017e+3, 3.1387064e+2, -39684.61, -82511.58, -0.06899596, 0.000010452264, -0.00005473642, -39684.61, -39684.61, 0.0, 10.000038, 9.9436655 
2.7450016e+3, 1.2499375e+2, -1719894.4, -1724220.1, 0.12834567, 0.000011357377, 0.000021618042, -1719894.4, -4833.1006, 0.0, 10.000043, 9.994307 
2.7450016e+3, 1.3498798e+2, -1622514.5, -1627430.9, -0.04529989, 0.00001126374, -0.000069958274, -1622514.5, -5396.69, 0.0, 10.000042, 9.993525 
2.7450016e+3, 1.4497551e+2, -1534413.1, -1548141.6, 0.09656691, 0.000011201549, 0.00007677982, -1534413.1, -15173.022, 0.0, 10.000042, 9.981845 
2.7450016e+3, 1.5495737e+2, -1436685.9, -1450817.6, -0.0716471, 0.000011168663, -0.00005472095, -1436685.9, -15268.135, 0.0, 10.000042, 9.981314 
2.7450016e+3, 1.6493261e+2, -1348635.4, -1371948.5, 0.091755964, 0.00001112581, 0.000048303595, -1348635.4, -24974.863, 0.0, 10.000042, 9.969229 
2.7450016e+3, 1.7490187e+2, -1250677.9, -1274306.6, -0.07625615, 0.000011072787, -0.00007181315, -1250677.9, -24716.154, 0.0, 10.000042, 9.968815 
2.7450016e+3, 1.848645e+2, -1162597.1, -1195716.5, 0.075557046, 0.000011028866, 0.000068460955, -1162597.1, -34269.21, 0.0, 10.000042, 9.956376 
2.7450016e+3, 1.9482093e+2, -1064447.8, -1097829.6, -0.08494916, 0.000010994457, -0.00005583567, -1064447.8, -33692.813, 0.0, 10.000041, 9.956033 
2.7450016e+3, 2.0477065e+2, -976284.1, -1019431.8, 0.0721391, 0.0000109615285, 0.000069649, -976284.1, -43036.63, 0.0, 10.000041, 9.943272 
2.7450016e+3, 2.1471398e+2, -877997.5, -921407.0, -0.091630235, 0.000010930199, -0.0001252405, -877997.5, -42194.457, 0.0, 10.000041, 9.94293 
2.7450016e+3, 2.2465059e+2, -789711.6, -843142.1, 0.06022632, 0.00001089327, 0.00012241004, -789711.6, -51287.418, 0.0, 10.000041, 9.929889 
2.7450016e+3, 2.3458053e+2, -691278.5, -744963.94, -0.09390441, 0.000010849994, -0.000087426575, -691278.5, -50167.85, 0.0, 10.000041, 9.929558 
2.7450016e+3, 2.4450356e+2, -602954.75, -667016.5, 0.06338402, 0.000010819362, 0.000075981254, -602954.75, -59089.52, 0.0, 10.000041, 9.916117 
2.7450016e+3, 2.5441977e+2, -504202.44, -568341.3, -0.08613482, 0.000010803828, -0.00010556032, -504202.44, -57516.37, 0.0, 10.000041, 9.916018 
2.7450016e+3, 2.6432896e+2, -415967.28, -490986.1, 0.06642474, 0.000010782774, 0.00014166324, -415967.28, -66390.92, 0.0, 10.00004, 9.901946 
2.7450016e+3, 2.7423143e+2, -316682.4, -391373.25, -0.08004373, 0.000010754646, -0.000202497, -316682.4, -64150.523, 0.0, 10.00004, 9.902366 
2.7450016e+3, 2.8412572e+2, -230209.27, -318079.75, 0.067639835, 0.0000107306105, 0.00022989669, -230209.27, -74641.24, 0.0, 10.00004, 9.88542 
2.7450016e+3, 2.940122e+2, -130503.42, -217763.77, -0.06756515, 0.000010712197, -0.00025255326, -130503.42, -71822.8, 0.0, 10.00004, 9.886198 
2.7450016e+3, 3.0392662e+2, -40760.2, -84749.79, 0.079130135, 0.000010693349, 0.00017379275, -40760.2, -40760.2, 0.0, 10.00004, 9.942154 
2.7450016e+3, 3.1387064e+2, -39682.297, -82510.945, -0.051589955, 0.000010673825, -0.000054726243, -39682.297, -39682.297, 0.0, 10.00004, 9.943665 
2.7550018e+3, 1.2499376e+2, -1719894.8, -1724220.9, 0.04609475, 0.000011597508, 0.000021709118, -1719894.8, -4833.5967, 0.0, 10.000043, 9.994307 
2.7550018e+3, 1.34988e+2, -1622514.9, -1627431.6, -0.12756532, 0.00001150439, -0.00007003498, -1622514.9, -5397.177, 0.0, 10.000042, 9.993525 
2.7550018e+3, 1.4497551e+2, -1534413.5, -1548142.4, 0.026887046, 0.000011437951, 0.00007691403, -1534413.5, -15173.492, 0.0, 10.000042, 9.981845 
2.7550018e+3, 1.5495738e+2, -1436686.3, -1450818.4, -0.1413101, 0.000011395978, -0.00005467283, -1436686.3, -15268.595, 0.0, 10.000042, 9.981313 
2.7550018e+3, 1.6493261e+2, -1348635.8, -1371949.1, 0.025608474, 0.00001135316, 0.0000483195, -1348635.8, -24975.316, 0.0, 10.000042, 9.969229 
2.7550018e+3, 1.7490187e+2, -1250678.3, -1274307.4, -0.14238691, 0.0000113094875, -0.00007177441, -1250678.3, -24716.6, 0.0, 10.000042, 9.968815 
2.7550018e+3, 1.8486452e+2, -1162597.5, -1195717.1, 0.015629737, 0.000011268722, 0.00006850241, -1162597.5, -34269.633, 0.0, 10.000042, 9.956376 
2.7550018e+3, 1.9482093e+2, -1064448.1, -1097830.4, -0.14480789, 0.000011230988, -0.000055812547, -1064448.1, -33693.227, 0.0, 10.000041, 9.956033 
2.7550018e+3, 2.0477067e+2, -976284.44, -1019432.5, 0.019493304, 0.000011192071, 0.00006967448, -976284.44, -43037.05, 0.0, 10.000041, 9.943271 
2.7550018e+3, 2.1471398e+2, -877997.9, -921407.7, -0.14412864, 0.0000111518675, -0.00012519026, -877997.9, -42194.867, 0.0, 10.000041, 9.94293 
2.7550018e+3, 2.2465059e+2, -789712.0, -843142.75, 0.01682354, 0.000011116446, 0.00012246058, -789712.0, -51287.813, 0.0, 10.000041, 9.929889 
2.7550018e+3, 2.3458055e+2, -691278.9, -744964.6, -0.13701235, 0.000011086431, -0.00008740346, -691278.9, -50168.234, 0.0, 10.000041, 9.929557 
2.7550018e+3, 2.4450356e+2, -602955.06, -667017.1, 0.022022497, 0.000011057401, 0.000075994154, -602955.06, -59089.895, 0.0, 10.000041, 9.916117 
2.7550018e+3, 2.544198e+2, -504202.75, -568341.94, -0.1274152, 0.000011029532, -0.00010553702, -504202.75, -57516.74, 0.0, 10.000041, 9.916017 
2.7550018e+3, 2.6432896e+2, -415967.63, -490986.75, 0.035350155, 0.000011003702, 0.00014169264, -415967.63, -66391.29, 0.0, 10.00004, 9.901945 
2.7550018e+3, 2.7423143e+2, -316682.72, -391373.9, -0.110436946, 0.000010980453, -0.00020246701, -316682.72, -64150.88, 0.0, 10.00004, 9.902366 
2.7550018e+3, 2.8412572e+2, -230209.58, -318080.4, 0.04393079, 0.0000109605, 0.00022992346, -230209.58, -74641.58, 0.0, 10.00004, 9.88542 
2.7550018e+3, 2.940122e+2, -130503.734, -217764.4, -0.0906753, 0.000010945033, -0.00025253493, -130503.734, -71823.125, 0.0, 10.00004, 9.886198 
2.7550018e+3, 3.0392662e+2, -40760.51, -84750.44, 0.06096157, 0.000010923035, 0.0001738072, -40760.51, -40760.51, 0.0, 10.00004, 9.942153 
2.7550018e+3, 3.1387064e+2, -39682.61, -82511.59, -0.06918167, 0.000010891317, -0.000054708893, -39682.61, -39682.61, 0.0, 10.00004, 9.943665 
2.7650017e+3, 1.24993764e+2, -1719892.0, -1724219.9, 0.12609284, 0.000011848251, 0.00002180291, -1719892.0, -4830.9263, 0.0, 10.000045, 9.994307 
2.7650017e+3, 1.34988e+2, -1622512.1, -1627430.6, -0.052072622, 0.000011742755, -0.000070097405, -1622512.1, -5394.4897, 0.0, 10.000045, 9.993524 
2.7650017e+3, 1.4497553e+2, -1534410.8, -1548141.4, 0.10235427, 0.00001167179, 0.00007706698, -1534410.8, -15170.808, 0.0, 10.000044, 9.981844 
2.7650017e+3, 1.5495738e+2, -1436683.6, -1450817.5, -0.073674455, 0.000011633146, -0.000054624077, -1436683.6, -15265.951, 0.0, 10.000044, 9.981313 
2.7650017e+3, 1.6493262e+2, -1348633.1, -1371948.3, 0.09307273, 0.000011593106, 0.000048329777, -1348633.1, -24972.7, 0.0, 10.000044, 9.969228 
2.7650017e+3, 1.7490189e+2, -1250675.6, -1274306.5, -0.07850155, 0.000011551647, -0.00007173548, -1250675.6, -24714.008, 0.0, 10.000044, 9.968814 
2.7650017e+3, 1.8486452e+2, -1162594.8, -1195716.3, 0.08040347, 0.000011509218, 0.000068551526, -1162594.8, -34267.05, 0.0, 10.000044, 9.956375 
2.7650017e+3, 1.9482094e+2, -1064445.5, -1097829.5, -0.09167851, 0.000011465761, -0.000055772616, -1064445.5, -33690.656, 0.0, 10.000043, 9.956032 
2.7650017e+3, 2.0477067e+2, -976281.8, -1019431.7, 0.07211914, 0.000011424252, 0.00006970951, -976281.8, -43034.49, 0.0, 10.000043, 9.943271 
2.7650017e+3, 2.1471399e+2, -877995.25, -921406.9, -0.0933447, 0.000011384845, -0.0001251555, -877995.25, -42192.324, 0.0, 10.000043, 9.942929 
2.7650017e+3, 2.246506e+2, -789709.4, -843141.94, 0.06992231, 0.000011351007, 0.0001224931, -789709.4, -51285.28, 0.0, 10.000043, 9.929888 
2.7650017e+3, 2.3458055e+2, -691276.3, -744963.9, -0.09155632, 0.000011323465, -0.00008737544, -691276.3, -50165.742, 0.0, 10.000043, 9.929557 
2.7650017e+3, 2.4450356e+2, -602952.5, -667016.4, 0.06620739, 0.000011293568, 0.00007601955, -602952.5, -59087.418, 0.0, 10.000043, 9.916117 
2.7650017e+3, 2.544198e+2, -504200.22, -568341.2, -0.091330215, 0.000011260845, -0.00010551204, -504200.22, -57514.254, 0.0, 10.000043, 9.916017 
2.7650017e+3, 2.6432896e+2, -415965.1, -490986.03, 0.07064954, 0.000011232986, 0.00014171663, -415965.1, -66388.81, 0.0, 10.000042, 9.901945 
2.7650017e+3, 2.7423143e+2, -316680.22, -391373.2, -0.08201135, 0.000011211314, -0.00020244475, -316680.22, -64148.426, 0.0, 10.000042, 9.902365 
2.7650017e+3, 2.8412572e+2, -230207.1, -318079.7, 0.071467504, 0.000011192098, 0.00022994431, -230207.1, -74639.13, 0.0, 10.000042, 9.885419 
2.7650017e+3, 2.940122e+2, -130501.28, -217763.7, -0.071877286, 0.000011176204, -0.000252515, -130501.28, -71820.7, 0.0, 10.000042, 9.886197 
2.7650017e+3, 3.0392662e+2, -40758.105, -84749.78, 0.07702758, 0.000011153671, 0.0001738246, -40758.105, -40758.105, 0.0, 10.000042, 9.942153 
2.7650017e+3, 3.1387064e+2, -39680.2, -82510.94, -0.060677532, 0.00001112127, -0.000054696346, -39680.2, -39680.2, 0.0, 10.000042, 9.943664 
2.7750018e+3, 1.2499378e+2, -1719892.4, -1724220.8, 0.050066806, 0.000012109601, 0.000021899668, -1719892.4, -4831.437, 0.0, 10.000045, 9.994306 
2.7750018e+3, 1.3498801e+2, -1622512.5, -1627431.4, -0.12811364, 0.000011978839, -0.00007014555, -1622512.5, -5394.9917, 0.0, 10.000045, 9.993524 
2.7750018e+3, 1.4497553e+2, -1534411.1, -1548142.1, 0.025329143, 0.000011903071, 0.00007723864, -1534411.1, -15171.3, 0.0, 10.000044, 9.981844 
2.7750018e+3, 1.549574e+2, -1436684.0, -1450818.3, -0.15070195, 0.000011880163, -0.000054574688, -1436684.0, -15266.434, 0.0, 10.000044, 9.981312 
2.7750018e+3, 1.6493262e+2, -1348633.5, -1371949.0, 0.023034358, 0.00001184564, 0.000048334434, -1348633.5, -24973.164, 0.0, 10.000044, 9.969228 
2.7750018e+3, 1.7490189e+2, -1250676.0, -1274307.1, -0.14850652, 0.000011799265, -0.00007169633, -1250676.0, -24714.465, 0.0, 10.000044, 9.968814 
2.7750018e+3, 1.8486452e+2, -1162595.1, -1195717.0, 0.020495167, 0.000011750355, 0.000068608286, -1162595.1, -34267.504, 0.0, 10.000044, 9.956375 
2.7750018e+3, 1.9482094e+2, -1064445.9, -1097830.3, -0.1514722, 0.000011698781, -0.000055715893, -1064445.9, -33691.1, 0.0, 10.000043, 9.956032 
2.7750018e+3, 2.0477068e+2, -976282.2, -1019432.4, 0.017668081, 0.000011658072, 0.000069754075, -976282.2, -43034.918, 0.0, 10.000043, 9.94327 
2.7750018e+3, 2.1471399e+2, -877995.6, -921407.56, -0.14768787, 0.000011629125, -0.00012513621, -877995.6, -42192.742, 0.0, 10.000043, 9.942929 
2.7750018e+3, 2.246506e+2, -789709.75, -843142.7, 0.020051885, 0.000011596945, 0.00012250761, -789709.75, -51285.69, 0.0, 10.000043, 9.929888 
2.7750018e+3, 2.3458055e+2, -691276.7, -744964.56, -0.14128329, 0.000011561096, -0.0000873425, -691276.7, -50166.145, 0.0, 10.000043, 9.929556 
2.7750018e+3, 2.4450357e+2, -602952.9, -667017.06, 0.027952269, 0.000011527866, 0.000076057426, -602952.9, -59087.813, 0.0, 10.000043, 9.916116 
2.7750018e+3, 2.544198e+2, -504200.56, -568341.9, -0.12903675, 0.000011497765, -0.000105485364, -504200.56, -57514.64, 0.0, 10.000043, 9.916016 
2.7750018e+3, 2.6432896e+2, -415965.44, -490986.72, 0.03664414, 0.000011470622, 0.00014173523, -415965.44, -66389.195, 0.0, 10.000042, 9.901944 
2.7750018e+3, 2.7423143e+2, -316680.56, -391373.88, -0.115770936, 0.000011447227, -0.00020243021, -316680.56, -64148.797, 0.0, 10.000042, 9.902365 
2.7750018e+3, 2.8412575e+2, -230207.44, -318080.38, 0.04523949, 0.000011425406, 0.00022995929, -230207.44, -74639.49, 0.0, 10.000042, 9.885419 
2.7750018e+3, 2.940122e+2, -130501.61, -217764.38, -0.09743, 0.000011405712, -0.00025249348, -130501.61, -71821.055, 0.0, 10.000042, 9.886197 
2.7750018e+3, 3.0392662e+2, -40758.434, -84750.46, 0.059826825, 0.000011385258, 0.000173845, -40758.434, -40758.434, 0.0, 10.000042, 9.942152 
2.7750018e+3, 3.1387064e+2, -39680.527, -82511.62, -0.07690094, 0.000011363676, -0.000054688597, -39680.527, -39680.527, 0.0, 10.000042, 9.943664 
2.785002e+3, 1.24993786e+2, -1719889.5, -1724219.6, 0.13672136, 0.0000123571745, 0.000021996739, -1719889.5, -4828.604, 0.0, 10.000047, 9.994306 
2.785002e+3, 1.3498802e+2, -1622509.6, -1627430.4, -0.054540463, 0.000012230598, -0.0000702083, -1622509.6, -5392.2173, 0.0, 10.000047, 9.993523 
2.785002e+3, 1.4497554e+2, -1534408.3, -1548141.1, 0.09706396, 0.000012156292, 0.00007739965, -1534408.3, -15168.54, 0.0, 10.000046, 9.981843 
2.785002e+3, 1.5495741e+2, -1436681.1, -1450817.3, -0.07875159, 0.000012132061, -0.00005452908, -1436681.1, -15263.687, 0.0, 10.000046, 9.981312 
2.785002e+3, 1.6493264e+2, -1348630.6, -1371948.1, 0.09587715, 0.000012094702, 0.000048340804, -1348630.6, -24970.434, 0.0, 10.000046, 9.969227 
2.785002e+3, 1.749019e+2, -1250673.1, -1274306.3, -0.088141814, 0.0000120439445, -0.0000716514, -1250673.1, -24711.75, 0.0, 10.000046, 9.968813 
2.785002e+3, 1.8486454e+2, -1162592.4, -1195716.1, 0.08137159, 0.000011993913, 0.0000686656, -1162592.4, -34264.805, 0.0, 10.000046, 9.956374 
2.785002e+3, 1.9482096e+2, -1064443.1, -1097829.4, -0.095567085, 0.000011944629, -0.000055673612, -1064443.1, -33688.42, 0.0, 10.000045, 9.956031 
2.785002e+3, 2.0477068e+2, -976279.5, -1019431.5, 0.07258135, 0.000011904453, 0.00006978801, -976279.5, -43032.254, 0.0, 10.000045, 9.94327 
2.785002e+3, 2.14714e+2, -877992.94, -921406.7, -0.10018256, 0.000011874135, -0.00012510335, -877992.94, -42190.11, 0.0, 10.000045, 9.942928 
2.785002e+3, 2.246506e+2, -789707.06, -843141.8, 0.066703655, 0.00001184046, 0.0001225398, -789707.06, -51283.07, 0.0, 10.000045, 9.929887 
2.785002e+3, 2.3458056e+2, -691274.0, -744963.75, -0.10367708, 0.000011802971, -0.00008731048, -691274.0, -50163.527, 0.0, 10.000045, 9.929556 
2.7850017e+3, 2.4450357e+2, -602950.25, -667016.25, 0.06602595, 0.00001176916, 0.00007608895, -602950.25, -59085.207, 0.0, 10.000045, 9.916116 
2.7850017e+3, 2.544198e+2, -504197.97, -568341.06, -0.09721153, 0.000011739738, -0.0001054547, -504197.97, -57512.066, 0.0, 10.000045, 9.916016 
2.7850017e+3, 2.6432896e+2, -415962.84, -490985.94, 0.06949292, 0.000011712285, 0.00014176228, -415962.84, -66386.63, 0.0, 10.000044, 9.901944 
2.7850017e+3, 2.7423143e+2, -316677.97, -391373.13, -0.08635227, 0.000011687318, -0.00020241029, -316677.97, -64146.246, 0.0, 10.000044, 9.902364 
2.7850017e+3, 2.8412575e+2, -230204.86, -318079.6, 0.07660922, 0.000011664507, 0.00022997601, -230204.86, -74636.945, 0.0, 10.000044, 9.885418 
2.7850017e+3, 2.940122e+2, -130499.05, -217763.64, -0.07264922, 0.0000116446245, -0.00025247457, -130499.05, -71818.516, 0.0, 10.000044, 9.886197 
2.7850017e+3, 3.0392662e+2, -40755.914, -84749.766, 0.08489002, 0.000011624273, 0.00017386238, -40755.914, -40755.914, 0.0, 10.000044, 9.942152 
2.7850017e+3, 3.1387064e+2, -39678.023, -82510.94, -0.056308147, 0.000011603217, -0.000054678276, -39678.023, -39678.023, 0.0, 10.000044, 9.943663 
2.795002e+3, 1.2499379e+2, -1719890.0, -1724220.5, 0.049499508, 0.000012590987, 0.000022094402, -1719890.0, -4829.1494, 0.0, 10.000047, 9.994305 
2.795002e+3, 1.3498802e+2, -1622510.1, -1627431.3, -0.14177753, 0.000012498023, -0.00007028565, -1622510.1, -5392.753, 0.0, 10.000047, 9.993523 
2.795002e+3, 1.4497556e+2, -1534408.6, -1548142.0, 0.01937123, 0.000012431439, 0.00007755, -1534408.6, -15169.035, 0.0, 10.000046, 9.981843 
2.795002e+3, 1.5495741e+2, -1436681.5, -1450818.0, -0.15643342, 0.000012388839, -0.000054487246, -1436681.5, -15264.171, 0.0, 10.000046, 9.981311 
2.795002e+3, 1.6493265e+2, -1348631.0, -1371948.9, 0.02446175, 0.000012340296, 0.000048348895, -1348631.0, -24970.93, 0.0, 10.000046, 9.969227 
2.795002e+3, 1.749019e+2, -1250673.5, -1274307.0, -0.15952608, 0.000012285691, -0.000071600654, -1250673.5, -24712.238, 0.0, 10.000046, 9.968813 
2.795002e+3, 1.8486454e+2, -1162592.8, -1195716.9, 0.018063866, 0.000012239892, 0.00006872348, -1162592.8, -34265.27, 0.0, 10.000046, 9.956374 
2.795002e+3, 1.9482096e+2, -1064443.5, -1097830.1, -0.1587837, 0.000012203296, -0.000055645763, -1064443.5, -33688.883, 0.0, 10.000045, 9.956031 
2.795002e+3, 2.047707e+2, -976279.9, -1019432.25, 0.0139500545, 0.000012163385, 0.000069811336, -976279.9, -43032.703, 0.0, 10.000045, 9.943269 
2.795002e+3, 2.14714e+2, -877993.3, -921407.44, -0.15872206, 0.000012119877, -0.00012505693, -877993.3, -42190.547, 0.0, 10.000045, 9.942928 
2.795002e+3, 2.2465062e+2, -789707.44, -843142.56, 0.018148981, 0.000012081554, 0.00012258968, -789707.44, -51283.504, 0.0, 10.000045, 9.929887 
2.795002e+3, 2.3458056e+2, -691274.4, -744964.44, -0.15190758, 0.00001204909, -0.00008727937, -691274.4, -50163.95, 0.0, 10.000045, 9.929555 
2.795002e+3, 2.4450357e+2, -602950.56, -667017.0, 0.022985775, 0.0000120174445, 0.00007611414, -602950.56, -59085.617, 0.0, 10.000045, 9.916115 
2.795002e+3, 2.544198e+2, -504198.3, -568341.8, -0.14000553, 0.000011986761, -0.00010542006, -504198.3, -57512.465, 0.0, 10.000045, 9.916015 
2.795002e+3, 2.6432896e+2, -415963.2, -490986.66, 0.03547526, 0.000011957974, 0.00014179775, -415963.2, -66387.02, 0.0, 10.000044, 9.901943 
2.795002e+3, 2.7423143e+2, -316678.34, -391373.84, -0.11978509, 0.0000119315855, -0.000202385, -316678.34, -64146.625, 0.0, 10.000044, 9.902364 
2.795002e+3, 2.8412575e+2, -230205.2, -318080.3, 0.049647577, 0.000011909398, 0.00022999449, -230205.2, -74637.32, 0.0, 10.000044, 9.885418 
2.795002e+3, 2.940122e+2, -130499.38, -217764.34, -0.0990311, 0.000011892936, -0.00025245827, -130499.38, -71818.88, 0.0, 10.000044, 9.886196 
2.795002e+3, 3.0392662e+2, -40756.254, -84750.47, 0.064667165, 0.000011870711, 0.00017387678, -40756.254, -40756.254, 0.0, 10.000044, 9.942151 
2.795002e+3, 3.1387064e+2, -39678.363, -82511.64, -0.07581219, 0.000011839896, -0.000054665383, -39678.363, -39678.363, 0.0, 10.000044, 9.943663 
2.805002e+3, 1.24993816e+2, -1719886.9, -1724219.5, 0.14190814, 0.0000128493, 0.00002219567, -1719886.9, -4826.215, 0.0, 10.000049, 9.994304 
2.805002e+3, 1.3498804e+2, -1622507.1, -1627430.3, -0.050307248, 0.00001276024, -0.00007036532, -1622507.1, -5389.8545, 0.0, 10.000049, 9.993522 
2.805002e+3, 1.4497556e+2, -1534405.6, -1548140.9, 0.11324755, 0.000012694121, 0.00007770585, -1534405.6, -15166.148, 0.0, 10.000049, 9.981842 
2.805002e+3, 1.5495743e+2, -1436678.6, -1450817.0, -0.07976195, 0.00001264848, -0.00005443479, -1436678.6, -15261.307, 0.0, 10.000048, 9.981311 
2.805002e+3, 1.6493265e+2, -1348628.1, -1371947.9, 0.09826478, 0.000012596806, 0.00004836411, -1348628.1, -24968.084, 0.0, 10.000048, 9.969226 
2.805002e+3, 1.7490192e+2, -1250670.6, -1274306.1, -0.08987137, 0.000012538976, -0.00007155511, -1250670.6, -24709.402, 0.0, 10.000048, 9.968812 
2.805002e+3, 1.8486455e+2, -1162589.9, -1195715.9, 0.086515725, 0.000012493406, 0.000068777, -1162589.9, -34262.453, 0.0, 10.000048, 9.956373 
2.805002e+3, 1.9482097e+2, -1064440.6, -1097829.1, -0.097759195, 0.000012460648, -0.000055607692, -1064440.6, -33686.105, 0.0, 10.000048, 9.95603 
2.805002e+3, 2.047707e+2, -976277.0, -1019431.3, 0.07688006, 0.00001242083, 0.00006984409, -976277.0, -43029.94, 0.0, 10.000047, 9.943269 
2.805002e+3, 2.14714e+2, -877990.5, -921406.56, -0.10438943, 0.000012373359, -0.0001250185, -877990.5, -42187.785, 0.0, 10.000047, 9.942927 
2.805002e+3, 2.2465062e+2, -789704.6, -843141.7, 0.07197665, 0.000012332506, 0.00012262781, -789704.6, -51280.754, 0.0, 10.000047, 9.929886 
2.805002e+3, 2.3458058e+2, -691271.56, -744963.6, -0.10359624, 0.00001229914, -0.00008724833, -691271.56, -50161.23, 0.0, 10.000047, 9.929555 
2.805002e+3, 2.4450359e+2, -602947.8, -667016.1, 0.070945635, 0.00001226737, 0.00007614129, -602947.8, -59082.91, 0.0, 10.000047, 9.916115 
2.805002e+3, 2.544198e+2, -504195.6, -568341.0, -0.10103184, 0.000012237492, -0.000105392995, -504195.6, -57509.777, 0.0, 10.000047, 9.916015 
2.805002e+3, 2.6432896e+2, -415960.47, -490985.84, 0.07341712, 0.000012209018, 0.00014182436, -415960.47, -66384.34, 0.0, 10.000047, 9.901943 
2.805002e+3, 2.7423143e+2, -316675.63, -391373.03, -0.091056794, 0.000012182314, -0.00020235934, -316675.63, -64143.965, 0.0, 10.000047, 9.902363 
2.805002e+3, 2.8412575e+2, -230202.52, -318079.53, 0.07689924, 0.000012159453, 0.00023001793, -230202.52, -74634.67, 0.0, 10.000046, 9.885417 
2.805002e+3, 2.9401222e+2, -130496.73, -217763.58, -0.078063555, 0.000012141829, -0.0002524387, -130496.73, -71816.25, 0.0, 10.000046, 9.886196 
2.805002e+3, 3.0392662e+2, -40753.633, -84749.75, 0.08443361, 0.000012118463, 0.00017389302, -40753.633, -40753.633, 0.0, 10.000046, 9.942151 
2.805002e+3, 3.1387064e+2, -39675.74, -82510.92, -0.065616086, 0.0000120865425, -0.000054651573, -39675.74, -39675.74, 0.0, 10.000046, 9.943662 
2.815002e+3, 1.2499382e+2, -1719887.4, -1724220.3, 0.048856884, 0.0000131320985, 0.000022300845, -1719887.4, -4826.767, 0.0, 10.000049, 9.994304 
2.815002e+3, 1.3498805e+2, -1622507.5, -1627431.0, -0.14337745, 0.000013017255, -0.00007044733, -1622507.5, -5390.3965, 0.0, 10.000049, 9.993522 
2.815002e+3, 1.4497557e+2, -1534406.1, -1548141.8, 0.032736003, 0.00001294435, 0.00007786718, -1534406.1, -15166.6875, 0.0, 10.000049, 9.981842 
2.815002e+3, 1.5495743e+2, -1436679.0, -1450817.9, -0.16025531, 0.000012910985, -0.000054371718, -1436679.0, -15261.834, 0.0, 10.000048, 9.98131 
2.815002e+3, 1.6493267e+2, -1348628.5, -1371948.6, 0.026622506, 0.000012864226, 0.000048386442, -1348628.5, -24968.594, 0.0, 10.000048, 9.969226 
2.815002e+3, 1.7490192e+2, -1250671.0, -1274306.9, -0.1614694, 0.000012803796, -0.000071514725, -1250671.0, -24709.902, 0.0, 10.000048, 9.968812 
2.815002e+3, 1.8486457e+2, -1162590.3, -1195716.8, 0.015351368, 0.000012754449, 0.00006882618, -1162590.3, -34262.938, 0.0, 10.000048, 9.956373 
2.815002e+3, 1.9482097e+2, -1064441.1, -1097830.0, -0.16892113, 0.000012716687, -0.00005555941, -1064441.1, -33686.582, 0.0, 10.000048, 9.95603 
2.815002e+3, 2.047707e+2, -976277.44, -1019432.1, 0.020534657, 0.00001267679, 0.00006988627, -976277.44, -43030.41, 0.0, 10.000047, 9.943268 
2.815002e+3, 2.1471402e+2, -877990.9, -921407.3, -0.16043186, 0.000012634577, -0.00012498807, -877990.9, -42188.246, 0.0, 10.000047, 9.942927 
2.815002e+3, 2.2465064e+2, -789705.0, -843142.44, 0.019108217, 0.000012593313, 0.00012265418, -789705.0, -51281.2, 0.0, 10.000047, 9.929886 
2.815002e+3, 2.3458058e+2, -691272.0, -744964.4, -0.15636352, 0.000012553118, -0.00008721736, -691272.0, -50161.664, 0.0, 10.000047, 9.929554 
2.815002e+3, 2.4450359e+2, -602948.2, -667016.94, 0.026491681, 0.000012518937, 0.00007617039, -602948.2, -59083.344, 0.0, 10.000047, 9.916114 
2.815002e+3, 2.544198e+2, -504195.97, -568341.75, -0.14508915, 0.000012491931, -0.000105373496, -504195.97, -57510.2, 0.0, 10.000047, 9.916014 
2.815002e+3, 2.64329e+2, -415960.84, -490986.6, 0.037098587, 0.000012465416, 0.0001418421, -415960.84, -66384.75, 0.0, 10.000047, 9.901942 
2.815002e+3, 2.7423146e+2, -316676.0, -391373.78, -0.12686023, 0.000012439501, -0.00020233335, -316676.0, -64144.367, 0.0, 10.000047, 9.902363 
2.815002e+3, 2.8412575e+2, -230202.88, -318080.28, 0.048369937, 0.000012414669, 0.00023004635, -230202.88, -74635.06, 0.0, 10.000046, 9.885417 
2.815002e+3, 2.9401222e+2, -130497.08, -217764.31, -0.10594097, 0.000012391306, -0.0002524159, -130497.08, -71816.625, 0.0, 10.000046, 9.886195 
2.815002e+3, 3.0392662e+2, -40753.992, -84750.49, 0.06562341, 0.000012367531, 0.00017391109, -40753.992, -40753.992, 0.0, 10.000046, 9.94215 
2.815002e+3, 3.1387064e+2, -39676.098, -82511.664, -0.08336542, 0.000012343152, -0.000054636846, -39676.098, -39676.098, 0.0, 10.000046, 9.943662 
2.825002e+3, 1.2499384e+2, -1719884.3, -1724219.3, 0.14248486, 0.00001341419, 0.000022406084, -1719884.3, -4823.7476, 0.0, 10.000051, 9.994303 
2.825002e+3, 1.3498805e+2, -1622504.4, -1627430.0, -0.06236934, 0.000013283641, -0.00007052235, -1622504.4, -5387.3594, 0.0, 10.000051, 9.993521 
2.825002e+3, 1.4497559e+2, -1534403.0, -1548140.6, 0.11145331, 0.000013204698, 0.00007803834, -1534403.0, -15163.652, 0.0, 10.000051, 9.981841 
2.825002e+3, 1.5495744e+2, -1436675.9, -1450816.8, -0.08685091, 0.000013174969, -0.000054317155, -1436675.9, -15258.834, 0.0, 10.000051, 9.98131 
2.825002e+3, 1.6493267e+2, -1348625.5, -1371947.6, 0.10151734, 0.000013132352, 0.000048398804, -1348625.5, -24965.623, 0.0, 10.000051, 9.969225 
2.825002e+3, 1.7490193e+2, -1250668.0, -1274305.9, -0.09349591, 0.000013076584, -0.000071468574, -1250668.0, -24706.982, 0.0, 10.00005, 9.968811 
2.825002e+3, 1.8486457e+2, -1162587.3, -1195715.8, 0.08366866, 0.000013024638, 0.00006888309, -1162587.3, -34260.027, 0.0, 10.00005, 9.956372 
2.825002e+3, 1.9482099e+2, -1064438.1, -1097829.0, -0.109504335, 0.0000129766795, -0.000055515877, -1064438.1, -33683.656, 0.0, 10.00005, 9.956029 
2.825002e+3, 2.0477071e+2, -976274.44, -1019431.2, 0.07796995, 0.000012934322, 0.00006992366, -976274.44, -43027.5, 0.0, 10.00005, 9.943268 
2.825002e+3, 2.1471402e+2, -877987.94, -921406.44, -0.112082355, 0.000012898021, -0.00012494897, -877987.94, -42185.387, 0.0, 10.00005, 9.942926 
2.825002e+3, 2.2465064e+2, -789702.1, -843141.56, 0.06826791, 0.000012858776, 0.00012269289, -789702.1, -51278.36, 0.0, 10.000049, 9.929885 
2.825002e+3, 2.3458058e+2, -691269.06, -744963.44, -0.113767855, 0.000012816187, -0.00008718138, -691269.06, -50158.832, 0.0, 10.000049, 9.929554 
2.825002e+3, 2.4450359e+2, -602945.3, -667016.0, 0.06984122, 0.000012779718, 0.00007620241, -602945.3, -59080.516, 0.0, 10.000049, 9.916114 
2.825002e+3, 2.5441983e+2, -504193.1, -568340.9, -0.106608234, 0.000012750554, -0.00010534692, -504193.1, -57507.395, 0.0, 10.000049, 9.916014 
2.825002e+3, 2.64329e+2, -415958.0, -490985.75, 0.076815546, 0.000012723422, 0.00014186588, -415958.0, -66381.96, 0.0, 10.000049, 9.901942 
2.825002e+3, 2.7423146e+2, -316673.2, -391372.97, -0.095684856, 0.00001269885, -0.00020230903, -316673.2, -64141.598, 0.0, 10.000049, 9.902362 
2.825002e+3, 2.8412575e+2, -230200.08, -318079.44, 0.07967606, 0.000012674059, 0.00023007023, -230200.08, -74632.3, 0.0, 10.000049, 9.885416 
2.825002e+3, 2.9401222e+2, -130494.3, -217763.5, -0.080756925, 0.00001264894, -0.0002523938, -130494.3, -71813.875, 0.0, 10.000049, 9.886195 
2.825002e+3, 3.0392662e+2, -40751.258, -84749.74, 0.091671444, 0.0000126245195, 0.00017392957, -40751.258, -40751.258, 0.0, 10.000049, 9.94215 
2.825002e+3, 3.1387064e+2, -39673.38, -82510.92, -0.06173861, 0.0000126011555, -0.000054624692, -39673.38, -39673.38, 0.0, 10.000048, 9.943661 
2.8350022e+3, 1.24993846e+2, -1719884.6, -1724220.1, 0.05613809, 0.000013695581, 0.000022511715, -1719884.6, -4824.333, 0.0, 10.000051, 9.994303 
2.8350022e+3, 1.3498807e+2, -1622504.9, -1627430.9, -0.14873184, 0.000013559394, -0.0000705904, -1622504.9, -5387.935, 0.0, 10.000051, 9.99352 
2.8350022e+3, 1.4497559e+2, -1534403.4, -1548141.5, 0.025177298, 0.000013475161, 0.00007821932, -1534403.4, -15164.207, 0.0, 10.000051, 9.981841 
2.8350022e+3, 1.5495746e+2, -1436676.4, -1450817.6, -0.17312746, 0.000013440434, -0.0000542711, -1436676.4, -15259.377, 0.0, 10.000051, 9.981309 
2.8350022e+3, 1.6493268e+2, -1348625.9, -1371948.5, 0.020917036, 0.000013401187, 0.000048401198, -1348625.9, -24966.152, 0.0, 10.000051, 9.969224 
2.8350022e+3, 1.7490195e+2, -1250668.5, -1274306.8, -0.17406976, 0.000013357337, -0.000071416645, -1250668.5, -24707.502, 0.0, 10.00005, 9.968811 
2.8350022e+3, 1.8486458e+2, -1162587.8, -1195716.5, 0.01856087, 0.000013303967, 0.000068947724, -1162587.8, -34260.54, 0.0, 10.00005, 9.956371 
2.8350022e+3, 1.9482099e+2, -1064438.5, -1097829.8, -0.17443587, 0.000013240627, -0.000055477096, -1064438.5, -33684.156, 0.0, 10.00005, 9.956029 
2.8350022e+3, 2.0477071e+2, -976274.9, -1019432.0, 0.011856994, 0.000013193424, 0.000069956266, -976274.9, -43027.99, 0.0, 10.00005, 9.943267 
2.8350022e+3, 2.1471404e+2, -877988.4, -921407.25, -0.17822151, 0.000013163693, -0.00012490126, -877988.4, -42185.867, 0.0, 10.00005, 9.942926 
2.835002e+3, 2.2465064e+2, -789702.5, -843142.3, 0.01625023, 0.000013128894, 0.00012274392, -789702.5, -51278.824, 0.0, 10.000049, 9.929885 
2.835002e+3, 2.3458059e+2, -691269.5, -744964.25, -0.16532773, 0.0000130883445, -0.00008714041, -691269.5, -50159.285, 0.0, 10.000049, 9.929553 
2.835002e+3, 2.445036e+2, -602945.75, -667016.8, 0.02316362, 0.00001304971, 0.00007623732, -602945.75, -59080.96, 0.0, 10.000049, 9.916113 
2.835002e+3, 2.5441983e+2, -504193.5, -568341.7, -0.15305468, 0.000013013359, -0.00010531327, -504193.5, -57507.83, 0.0, 10.000049, 9.916013 
2.835002e+3, 2.64329e+2, -415958.4, -490986.53, 0.038421784, 0.000012983035, 0.00014189567, -415958.4, -66382.39, 0.0, 10.000049, 9.901941 
2.835002e+3, 2.7423146e+2, -316673.56, -391373.75, -0.13354221, 0.000012960362, -0.00020228639, -316673.56, -64142.02, 0.0, 10.000049, 9.902362 
2.835002e+3, 2.8412575e+2, -230200.45, -318080.22, 0.05062393, 0.0000129376185, 0.0002300896, -230200.45, -74632.695, 0.0, 10.000049, 9.885416 
2.835002e+3, 2.9401222e+2, -130494.664, -217764.27, -0.109020375, 0.00001291473, -0.0002523724, -130494.664, -71814.266, 0.0, 10.000049, 9.886194 
2.835002e+3, 3.0392662e+2, -40751.625, -84750.51, 0.06960092, 0.000012889426, 0.00017394846, -40751.625, -40751.625, 0.0, 10.000049, 9.942149 
2.835002e+3, 3.1387064e+2, -39673.746, -82511.69, -0.08308687, 0.000012860555, -0.000054615106, -39673.746, -39673.746, 0.0, 10.000048, 9.943661 
2.845002e+3, 1.2499386e+2, -1719881.4, -1724219.0, 0.15177803, 0.000013973499, 0.000022619985, -1719881.4, -4821.14, 0.0, 10.000053, 9.994302 
2.845002e+3, 1.3498808e+2, -1622501.6, -1627429.8, -0.0608218, 0.000013840987, -0.00007066072, -1622501.6, -5384.792, 0.0, 10.000053, 9.99352 
2.845002e+3, 1.449756e+2, -1534400.1, -1548140.4, 0.11182081, 0.000013757585, 0.00007840401, -1534400.1, -15161.078, 0.0, 10.000052, 9.98184 
2.845002e+3, 1.5495746e+2, -1436673.1, -1450816.6, -0.08854607, 0.00001372077, -0.00005422182, -1436673.1, -15256.2705, 0.0, 10.000052, 9.981309 
2.845002e+3, 1.649327e+2, -1348622.8, -1371947.4, 0.1053238, 0.0000136784265, 0.00004840481, -1348622.8, -24963.064, 0.0, 10.000052, 9.969224 
2.845002e+3, 1.7490195e+2, -1250665.4, -1274305.8, -0.103235096, 0.000013630455, -0.00007136702, -1250665.4, -24704.424, 0.0, 10.000052, 9.96881 
2.845002e+3, 1.8486458e+2, -1162584.6, -1195715.5, 0.09037269, 0.000013577216, 0.00006901231, -1162584.6, -34257.477, 0.0, 10.0000515, 9.956371 
2.845002e+3, 1.94821e+2, -1064435.4, -1097828.8, -0.10915358, 0.000013518453, -0.00005543002, -1064435.4, -33681.145, 0.0, 10.0000515, 9.956028 
2.845002e+3, 2.0477074e+2, -976271.8, -1019431.0, 0.07697346, 0.000013470511, 0.00006999347, -976271.8, -43024.992, 0.0, 10.0000515, 9.943267 
2.845002e+3, 2.1471404e+2, -877985.3, -921406.25, -0.117194325, 0.000013434282, -0.00012486563, -877985.3, -42182.867, 0.0, 10.0000515, 9.942925 
2.845002e+3, 2.2465065e+2, -789699.5, -843141.4, 0.078267545, 0.000013397554, 0.0001227787, -789699.5, -51275.836, 0.0, 10.0000515, 9.929884 
2.845002e+3, 2.3458059e+2, -691266.5, -744963.3, -0.11566966, 0.000013360248, -0.00008710562, -691266.5, -50156.34, 0.0, 10.0000515, 9.929553 
2.845002e+3, 2.445036e+2, -602942.75, -667015.9, 0.07057823, 0.0000133225685, 0.00007627145, -602942.75, -59078.035, 0.0, 10.000051, 9.916112 
2.845002e+3, 2.5441983e+2, -504190.53, -568340.75, -0.11390193, 0.000013284432, -0.000105280626, -504190.53, -57504.91, 0.0, 10.000051, 9.916013 
2.845002e+3, 2.64329e+2, -415955.44, -490985.66, 0.07799341, 0.000013252374, 0.00014192497, -415955.44, -66379.484, 0.0, 10.000051, 9.901941 
2.845002e+3, 2.7423146e+2, -316670.66, -391372.9, -0.099313214, 0.000013228041, -0.00020226279, -316670.66, -64139.13, 0.0, 10.000051, 9.902361 
2.845002e+3, 2.8412575e+2, -230197.53, -318079.38, 0.08481118, 0.00001320458, 0.00023011026, -230197.53, -74629.81, 0.0, 10.000051, 9.885415 
2.845002e+3, 2.9401222e+2, -130491.78, -217763.44, -0.085207745, 0.0000131822635, -0.00025235084, -130491.78, -71811.414, 0.0, 10.000051, 9.886193 
2.845002e+3, 3.0392662e+2, -40748.785, -84749.73, 0.09036706, 0.000013156923, 0.00017396871, -40748.785, -40748.785, 0.0, 10.000051, 9.942149 
2.845002e+3, 3.1387067e+2, -39670.902, -82510.914, -0.072024316, 0.0000131271, -0.000054599397, -39670.902, -39670.902, 0.0, 10.000051, 9.94366 
2.8550023e+3, 1.2499387e+2, -1719881.9, -1724219.9, 0.05647174, 0.00001424795, 0.00002273127, -1719881.9, -4821.7485, 0.0, 10.000053, 9.994302 
2.8550023e+3, 1.349881e+2, -1622502.1, -1627430.6, -0.15614589, 0.000014128417, -0.000070733295, -1622502.1, -5385.39, 0.0, 10.000053, 9.993519 
2.8550023e+3, 1.4497562e+2, -1534400.6, -1548141.3, 0.022898559, 0.000014051962, 0.00007859242, -1534400.6, -15161.643, 0.0, 10.000052, 9.98184 
2.8550023e+3, 1.5495747e+2, -1436673.6, -1450817.4, -0.17746176, 0.000014015966, -0.00005416932, -1436673.6, -15256.823, 0.0, 10.000052, 9.981308 
2.8550023e+3, 1.649327e+2, -1348623.3, -1371948.4, 0.025133178, 0.000013964067, 0.000048409638, -1348623.3, -24963.627, 0.0, 10.000052, 9.969223 
2.8550023e+3, 1.7490196e+2, -1250665.8, -1274306.6, -0.18338142, 0.000013895949, -0.000071319715, -1250665.8, -24704.977, 0.0, 10.000052, 9.968809 
2.8550023e+3, 1.848646e+2, -1162585.0, -1195716.4, 0.016436664, 0.000013844392, 0.000069076865, -1162585.0, -34258.008, 0.0, 10.0000515, 9.95637 
2.8550023e+3, 1.94821e+2, -1064435.9, -1097829.6, -0.18302096, 0.000013810149, -0.00005537465, -1064435.9, -33681.664, 0.0, 10.0000515, 9.956028 
2.8550023e+3, 2.0477074e+2, -976272.2, -1019431.8, 0.014232719, 0.000013765568, 0.00007003527, -976272.2, -43025.496, 0.0, 10.0000515, 9.943266 
2.8550023e+3, 2.1471405e+2, -877985.7, -921407.06, -0.17970921, 0.000013709784, -0.00012484213, -877985.7, -42183.36, 0.0, 10.0000515, 9.942925 
2.8550023e+3, 2.2465065e+2, -789699.9, -843142.25, 0.019296646, 0.000013664758, 0.00012279722, -789699.9, -51276.33, 0.0, 10.0000515, 9.929883 
2.8550023e+3, 2.3458059e+2, -691266.9, -744964.2, -0.17452697, 0.000013631901, -0.000087077, -691266.9, -50156.82, 0.0, 10.0000515, 9.929552 
2.8550023e+3, 2.445036e+2, -602943.1, -667016.75, 0.0234876, 0.000013598293, 0.000076304794, -602943.1, -59078.496, 0.0, 10.000051, 9.916112 
2.8550023e+3, 2.5441983e+2, -504190.94, -568341.56, -0.16043173, 0.000013563766, -0.00010524896, -504190.94, -57505.367, 0.0, 10.000051, 9.916012 
2.8550023e+3, 2.64329e+2, -415955.84, -490986.47, 0.03862541, 0.000013531434, 0.0001419538, -415955.84, -66379.93, 0.0, 10.000051, 9.90194 
2.8550023e+3, 2.7423146e+2, -316671.03, -391373.7, -0.13820519, 0.0000135018845, -0.00020223823, -316671.03, -64139.563, 0.0, 10.000051, 9.902361 
2.8550023e+3, 2.8412575e+2, -230197.92, -318080.16, 0.052641045, 0.0000134749425, 0.00023013224, -230197.92, -74630.24, 0.0, 10.000051, 9.885415 
2.8550023e+3, 2.9401222e+2, -130492.164, -217764.23, -0.11677575, 0.000013451541, -0.00025232916, -130492.164, -71811.83, 0.0, 10.000051, 9.886193 
2.8550023e+3, 3.0392665e+2, -40749.17, -84750.53, 0.06940952, 0.000013427009, 0.00017399034, -40749.17, -40749.17, 0.0, 10.000051, 9.942148 
2.8550023e+3, 3.1387067e+2, -39671.293, -82511.72, -0.09174037, 0.000013400787, -0.00005457757, -39671.293, -39671.293, 0.0, 10.000051, 9.94366 
2.8650025e+3, 1.2499388e+2, -1719878.4, -1724218.6, 0.15873739, 0.000014535048, 0.000022847153, -1719878.4, -4818.423, 0.0, 10.000055, 9.994301 
2.8650022e+3, 1.349881e+2, -1622498.8, -1627429.5, -0.06236493, 0.000014421255, -0.00007082485, -1622498.8, -5382.1187, 0.0, 10.000055, 9.993519 
2.8650022e+3, 1.4497563e+2, -1534397.3, -1548140.1, 0.11614658, 0.0000143464595, 0.0000787691, -1534397.3, -15158.385, 0.0, 10.000055, 9.981839 
2.8650022e+3, 1.5495749e+2, -1436670.3, -1450816.3, -0.098560564, 0.000014307962, -0.000054108234, -1436670.3, -15253.584, 0.0, 10.000055, 9.981307 
2.8650022e+3, 1.6493271e+2, -1348619.9, -1371947.3, 0.10437894, 0.000014252171, 0.000048427366, -1348619.9, -24960.41, 0.0, 10.000054, 9.969223 
2.8650022e+3, 1.7490198e+2, -1250662.5, -1274305.5, -0.10719095, 0.000014178744, -0.00007127155, -1250662.5, -24701.777, 0.0, 10.000054, 9.968809 
2.8650022e+3, 1.848646e+2, -1162581.8, -1195715.3, 0.09070025, 0.000014126577, 0.000069134294, -1162581.8, -34254.82, 0.0, 10.000054, 9.95637 
2.8650022e+3, 1.9482102e+2, -1064432.6, -1097828.6, -0.1195226, 0.00001409664, -0.000055330147, -1064432.6, -33678.51, 0.0, 10.000054, 9.956027 
2.8650022e+3, 2.0477076e+2, -976269.0, -1019430.8, 0.07855649, 0.000014052891, 0.00007007539, -976269.0, -43022.363, 0.0, 10.000054, 9.943266 
2.8650022e+3, 2.1471405e+2, -877982.56, -921406.06, -0.12669809, 0.000013994174, -0.00012479715, -877982.56, -42180.254, 0.0, 10.000053, 9.9429245 
2.8650022e+3, 2.2465067e+2, -789696.75, -843141.25, 0.07118123, 0.000013946568, 0.00012284028, -789696.75, -51273.24, 0.0, 10.000053, 9.929883 
2.8650022e+3, 2.345806e+2, -691263.75, -744963.2, -0.125248, 0.000013911532, -0.000087043554, -691263.75, -50153.734, 0.0, 10.000053, 9.929552 
2.8650022e+3, 2.4450362e+2, -602940.0, -667015.75, 0.07478425, 0.000013877346, 0.00007633413, -602940.0, -59075.426, 0.0, 10.000053, 9.916111 
2.8650022e+3, 2.5441983e+2, -504187.84, -568340.7, -0.11986743, 0.000013844154, -0.00010521716, -504187.84, -57502.33, 0.0, 10.000053, 9.916012 
2.8650022e+3, 2.64329e+2, -415952.78, -490985.56, 0.07877214, 0.000013812113, 0.0001419854, -415952.78, -66376.914, 0.0, 10.000053, 9.90194 
2.8650022e+3, 2.7423146e+2, -316668.0, -391372.8, -0.10651253, 0.000013781523, -0.00020221029, -316668.0, -64136.56, 0.0, 10.000052, 9.90236 
2.8650022e+3, 2.8412578e+2, -230194.89, -318079.28, 0.08449302, 0.000013753234, 0.00023015717, -230194.89, -74627.24, 0.0, 10.000052, 9.885414 
2.8650022e+3, 2.9401222e+2, -130489.15, -217763.38, -0.08877092, 0.000013728072, -0.00025230643, -130489.15, -71808.84, 0.0, 10.000052, 9.886192 
2.8650022e+3, 3.0392665e+2, -40746.207, -84749.72, 0.100142606, 0.000013703167, 0.0001740086, -40746.207, -40746.207, 0.0, 10.000052, 9.942147 
2.8650022e+3, 3.1387067e+2, -39668.344, -82510.914, -0.066414, 0.000013678632, -0.000054567157, -39668.344, -39668.344, 0.0, 10.000052, 9.943659 
2.8750023e+3, 1.249939e+2, -1719878.9, -1724219.6, 0.05367869, 0.000014834782, 0.000022967995, -1719878.9, -4819.056, 0.0, 10.000055, 9.9943 
2.8750023e+3, 1.3498811e+2, -1622499.3, -1627430.5, -0.16744217, 0.000014719499, -0.00007093537, -1622499.3, -5382.7407, 0.0, 10.000055, 9.993518 
2.8750023e+3, 1.4497563e+2, -1534397.8, -1548141.0, 0.02557201, 0.000014641078, 0.00007893406, -1534397.8, -15158.986, 0.0, 10.000055, 9.981838 
2.8750023e+3, 1.5495749e+2, -1436670.8, -1450817.3, -0.18911582, 0.000014596762, -0.000054038574, -1436670.8, -15254.174, 0.0, 10.000055, 9.981307 
2.8750023e+3, 1.6493273e+2, -1348620.4, -1371948.1, 0.022608949, 0.00001454274, 0.00004845798, -1348620.4, -24960.984, 0.0, 10.000054, 9.969222 
2.8750023e+3, 1.7490198e+2, -1250663.0, -1274306.4, -0.18891695, 0.000014478826, -0.00007122252, -1250663.0, -24702.342, 0.0, 10.000054, 9.968808 
2.8750023e+3, 1.8486461e+2, -1162582.3, -1195716.3, 0.011892762, 0.00001442376, 0.00006918459, -1162582.3, -34255.375, 0.0, 10.000054, 9.956369 
2.8750023e+3, 1.9482102e+2, -1064433.1, -1097829.5, -0.19829927, 0.000014377935, -0.00005529649, -1064433.1, -33679.055, 0.0, 10.000054, 9.956026 
2.8750023e+3, 2.0477076e+2, -976269.44, -1019431.7, 0.011968197, 0.00001433249, 0.000070113834, -976269.44, -43022.895, 0.0, 10.000054, 9.943265 
2.8750023e+3, 2.1471407e+2, -877983.0, -921406.94, -0.19303925, 0.000014287448, -0.0001247307, -877983.0, -42180.777, 0.0, 10.000053, 9.942924 
2.8750023e+3, 2.2465067e+2, -789697.2, -843142.06, 0.013362456, 0.000014242977, 0.00012290786, -789697.2, -51273.74, 0.0, 10.000053, 9.929882 
2.8750023e+3, 2.345806e+2, -691264.2, -744964.06, -0.18279254, 0.000014199138, -0.00008700527, -691264.2, -50154.227, 0.0, 10.000053, 9.929551 
2.8750023e+3, 2.4450362e+2, -602940.44, -667016.6, 0.022133198, 0.0000141597275, 0.000076359465, -602940.44, -59075.914, 0.0, 10.000053, 9.916111 
2.8750023e+3, 2.5441983e+2, -504188.28, -568341.5, -0.17228699, 0.000014125597, -0.000105185216, -504188.28, -57502.81, 0.0, 10.000053, 9.916011 
2.8750023e+3, 2.6432902e+2, -415953.22, -490986.4, 0.03834825, 0.000014094414, 0.00014201974, -415953.22, -66377.38, 0.0, 10.000053, 9.901939 
2.8750023e+3, 2.7423146e+2, -316668.4, -391373.66, -0.14613682, 0.000014066954, -0.00020217896, -316668.4, -64137.01, 0.0, 10.000052, 9.90236 
2.8750023e+3, 2.8412578e+2, -230195.3, -318080.1, 0.05228286, 0.00001403945, 0.00023018502, -230195.3, -74627.68, 0.0, 10.000052, 9.885413 
2.8750023e+3, 2.9401222e+2, -130489.55, -217764.19, -0.12031802, 0.000014011855, -0.00025228265, -130489.55, -71809.266, 0.0, 10.000052, 9.886192 
2.8750023e+3, 3.0392665e+2, -40746.605, -84750.55, 0.07519572, 0.000013985393, 0.00017402352, -40746.605, -40746.605, 0.0, 10.000052, 9.942147 
2.8750023e+3, 3.1387067e+2, -39668.742, -82511.75, -0.09059074, 0.000013960634, -0.000054568158, -39668.742, -39668.742, 0.0, 10.000052, 9.943659 
2.8850025e+3, 1.24993905e+2, -1719875.4, -1724218.4, 0.16226345, 0.000015148937, 0.000023081471, -1719875.4, -4815.6377, 0.0, 10.000058, 9.9943 
2.8850025e+3, 1.3498813e+2, -1622495.6, -1627429.3, -0.06465281, 0.000015016403, -0.00007102432, -1622495.6, -5379.309, 0.0, 10.000058, 9.993517 
2.8850025e+3, 1.4497565e+2, -1534394.3, -1548139.9, 0.1276976, 0.000014932097, 0.000079124235, -1534394.3, -15155.561, 0.0, 10.000058, 9.981838 
2.8850025e+3, 1.549575e+2, -1436667.3, -1450816.0, -0.09975109, 0.000014893282, -0.000053980773, -1436667.3, -15250.788, 0.0, 10.000057, 9.981306 
2.8850025e+3, 1.6493273e+2, -1348616.9, -1371947.0, 0.10955537, 0.000014843253, 0.00004846967, -1348616.9, -24957.629, 0.0, 10.000057, 9.969222 
2.8850025e+3, 1.7490199e+2, -1250659.5, -1274305.3, -0.111417525, 0.00001478179, -0.000071168826, -1250659.5, -24699.03, 0.0, 10.000057, 9.968808 
2.8850025e+3, 1.8486463e+2, -1162578.9, -1195715.1, 0.08965483, 0.000014723496, 0.00006925047, -1162578.9, -34252.082, 0.0, 10.000057, 9.956369 
2.8850025e+3, 1.9482103e+2, -1064429.8, -1097828.4, -0.12744813, 0.000014668495, -0.00005524968, -1064429.8, -33675.758, 0.0, 10.000056, 9.956026 
2.8850025e+3, 2.0477077e+2, -976266.06, -1019430.6, 0.08254141, 0.000014621264, 0.00007015218, -976266.06, -43019.613, 0.0, 10.000056, 9.943264 
2.8850025e+3, 2.1471407e+2, -877979.7, -921405.94, -0.1313699, 0.000014582436, -0.00012468935, -877979.7, -42177.535, 0.0, 10.000056, 9.942924 
2.8850025e+3, 2.2465068e+2, -789693.9, -843141.06, 0.075213864, 0.000014539887, 0.00012294996, -789693.9, -51270.52, 0.0, 10.000056, 9.929882 
2.8850025e+3, 2.3458062e+2, -691260.94, -744963.06, -0.13226828, 0.000014493107, -0.000086965, -691260.94, -50151.035, 0.0, 10.000056, 9.929551 
2.8850025e+3, 2.4450362e+2, -602937.25, -667015.6, 0.07145381, 0.000014450564, 0.000076396274, -602937.25, -59072.74, 0.0, 10.000055, 9.91611 
2.8850022e+3, 2.5441986e+2, -504185.03, -568340.56, -0.12834945, 0.0000144130745, -0.0001051538, -504185.03, -57499.637, 0.0, 10.000055, 9.91601 
2.8850022e+3, 2.6432902e+2, -415950.0, -490985.47, 0.08373211, 0.0000143816005, 0.00014204755, -415950.0, -66374.22, 0.0, 10.000055, 9.901938 
2.8850022e+3, 2.742315e+2, -316665.25, -391372.72, -0.10938523, 0.000014357755, -0.00020215244, -316665.25, -64133.887, 0.0, 10.000055, 9.902359 
2.8850022e+3, 2.8412578e+2, -230192.14, -318079.2, 0.08857552, 0.000014331209, 0.00023020987, -230192.14, -74624.57, 0.0, 10.000055, 9.885413 
2.8850022e+3, 2.9401222e+2, -130486.42, -217763.28, -0.0944723, 0.000014300916, -0.00025225992, -130486.42, -71806.17, 0.0, 10.000055, 9.886191 
2.8850022e+3, 3.0392665e+2, -40743.523, -84749.7, 0.098157436, 0.000014272278, 0.0001740436, -40743.523, -40743.523, 0.0, 10.000055, 9.942146 
2.8850022e+3, 3.1387067e+2, -39665.656, -82510.9, -0.07616924, 0.000014246154, -0.000054551474, -39665.656, -39665.656, 0.0, 10.000055, 9.943658 
2.8950024e+3, 1.2499392e+2, -1719875.9, -1724219.4, 0.06325061, 0.000015477504, 0.000023188419, -1719875.9, -4816.2896, 0.0, 10.000058, 9.994299 
2.8950024e+3, 1.3498814e+2, -1622496.3, -1627430.3, -0.16368243, 0.000015311976, -0.00007109172, -1622496.3, -5379.9497, 0.0, 10.000058, 9.993517 
2.8950024e+3, 1.4497566e+2, -1534394.8, -1548140.9, 0.030463167, 0.000015219521, 0.000079339596, -1534394.8, -15156.196, 0.0, 10.000058, 9.981837 
2.8950024e+3, 1.5495752e+2, -1436667.8, -1450817.0, -0.19698113, 0.000015197519, -0.00005393483, -1436667.8, -15251.411, 0.0, 10.000057, 9.981306 
2.8950024e+3, 1.6493274e+2, -1348617.4, -1371947.9, 0.020172523, 0.000015153702, 0.00004846245, -1348617.4, -24958.229, 0.0, 10.000057, 9.969221 
2.8950024e+3, 1.7490199e+2, -1250660.0, -1274306.3, -0.2007613, 0.000015087632, -0.00007111045, -1250660.0, -24699.62, 0.0, 10.000057, 9.968807 
2.8950024e+3, 1.8486463e+2, -1162579.3, -1195716.0, 0.013695554, 0.000015025783, 0.000069331894, -1162579.3, -34252.656, 0.0, 10.000057, 9.956368 
2.8950024e+3, 1.9482103e+2, -1064430.1, -1097829.4, -0.2032568, 0.0000149683165, -0.00005518973, -1064430.1, -33676.324, 0.0, 10.000056, 9.956025 
2.8950024e+3, 2.0477079e+2, -976266.56, -1019431.5, 0.009244512, 0.000014919208, 0.000070190414, -976266.56, -43020.168, 0.0, 10.000056, 9.943264 
2.8950024e+3, 2.1471408e+2, -877980.1, -921406.8, -0.20461985, 0.0000148791405, -0.00012467307, -877980.1, -42178.08, 0.0, 10.000056, 9.942923 
2.8950024e+3, 2.2465068e+2, -789694.4, -843141.94, 0.013701044, 0.0000148373, 0.0001229666, -789694.4, -51271.047, 0.0, 10.000056, 9.929881 
2.8950024e+3, 2.3458062e+2, -691261.4, -744963.94, -0.1934023, 0.000014793437, -0.00008692276, -691261.4, -50151.55, 0.0, 10.000056, 9.92955 
2.8950024e+3, 2.4450363e+2, -602937.7, -667016.5, 0.020383704, 0.000014749851, 0.00007644454, -602937.7, -59073.24, 0.0, 10.000055, 9.91611 
2.8950024e+3, 2.5441986e+2, -504185.47, -568341.44, -0.17894012, 0.000014706585, -0.00010512291, -504185.47, -57500.125, 0.0, 10.000055, 9.91601 
2.8950024e+3, 2.6432902e+2, -415950.44, -490986.34, 0.03802514, 0.000014673675, 0.00014206885, -415950.44, -66374.7, 0.0, 10.000055, 9.901938 
2.8950024e+3, 2.742315e+2, -316665.7, -391373.6, -0.15476929, 0.000014653927, -0.00020213076, -316665.7, -64134.36, 0.0, 10.000055, 9.902358 
2.8950024e+3, 2.8412578e+2, -230192.56, -318080.06, 0.054494258, 0.000014628508, 0.00023023173, -230192.56, -74625.03, 0.0, 10.000055, 9.885412 
2.8950024e+3, 2.9401222e+2, -130486.836, -217764.14, -0.1275394, 0.000014595254, -0.0002522382, -130486.836, -71806.62, 0.0, 10.000055, 9.886191 
2.8950024e+3, 3.0392665e+2, -40743.94, -84750.57, 0.07500717, 0.000014563823, 0.00017406886, -40743.94, -40743.94, 0.0, 10.000055, 9.942146 
2.8950024e+3, 3.1387067e+2, -39666.074, -82511.766, -0.09816061, 0.000014535193, -0.000054517128, -39666.074, -39666.074, 0.0, 10.000055, 9.943657 
2.9050025e+3, 1.24993935e+2, -1719872.1, -1724218.1, 0.17023708, 0.000015792144, 0.0000233119, -1719872.1, -4812.694, 0.0, 10.000061, 9.994299 
2.9050025e+3, 1.3498816e+2, -1622492.5, -1627429.0, -0.07522846, 0.00001562456, -0.00007117146, -1622492.5, -5376.392, 0.0, 10.000061, 9.993516 
2.9050025e+3, 1.4497568e+2, -1534391.0, -1548139.6, 0.11431783, 0.000015530819, 0.00007954567, -1534391.0, -15152.648, 0.0, 10.00006, 9.981836 
2.9050025e+3, 1.5495753e+2, -1436664.1, -1450815.8, -0.10920941, 0.000015508256, -0.000053878262, -1436664.1, -15247.8955, 0.0, 10.00006, 9.981305 
2.9050025e+3, 1.6493276e+2, -1348613.8, -1371946.8, 0.11265869, 0.000015462823, 0.000048468017, -1348613.8, -24954.74, 0.0, 10.00006, 9.96922 
2.9050025e+3, 1.74902e+2, -1250656.5, -1274305.0, -0.12295771, 0.000015394062, -0.00007105521, -1250656.5, -24696.15, 0.0, 10.000059, 9.968806 
2.9050025e+3, 1.8486464e+2, -1162575.8, -1195714.9, 0.0905309, 0.00001533255, 0.00006940273, -1162575.8, -34249.203, 0.0, 10.000059, 9.9563675 
2.9050025e+3, 1.9482104e+2, -1064426.6, -1097828.3, -0.13434112, 0.000015278587, -0.000055138946, -1064426.6, -33672.914, 0.0, 10.000059, 9.956025 
2.9050025e+3, 2.0477079e+2, -976263.06, -1019430.44, 0.07821998, 0.000015227778, 0.00007023106, -976263.06, -43016.78, 0.0, 10.000059, 9.943263 
2.9050025e+3, 2.1471408e+2, -877976.7, -921405.75, -0.14204425, 0.000015180377, -0.00012463181, -877976.7, -42174.7, 0.0, 10.000059, 9.942923 
2.9050025e+3, 2.246507e+2, -789690.94, -843140.9, 0.07721838, 0.000015136403, 0.00012300754, -789690.94, -51267.68, 0.0, 10.000058, 9.92988 
2.9050025e+3, 2.3458064e+2, -691257.94, -744962.9, -0.14042577, 0.000015096296, -0.000086883185, -691257.94, -50148.215, 0.0, 10.000058, 9.929549 
2.9050025e+3, 2.4450363e+2, -602934.3, -667015.5, 0.07327375, 0.000015054149, 0.000076481614, -602934.3, -59069.92, 0.0, 10.000058, 9.916109 
2.9050025e+3, 2.5441986e+2, -504182.13, -568340.44, -0.13458522, 0.000015009548, -0.000105089704, -504182.13, -57496.84, 0.0, 10.000058, 9.916009 
2.9050025e+3, 2.6432902e+2, -415947.13, -490985.34, 0.081094354, 0.000014974767, 0.00014209923, -415947.13, -66371.44, 0.0, 10.000058, 9.9019375 
2.9050025e+3, 2.742315e+2, -316662.38, -391372.63, -0.12054858, 0.00001495247, -0.00020210189, -316662.38, -64131.1, 0.0, 10.000058, 9.902358 
2.9050025e+3, 2.8412578e+2, -230189.27, -318079.1, 0.09049216, 0.000014925927, 0.00023025897, -230189.27, -74621.77, 0.0, 10.000057, 9.885412 
2.9050025e+3, 2.9401225e+2, -130483.57, -217763.2, -0.09808864, 0.000014893496, -0.0002522128, -130483.57, -71803.38, 0.0, 10.000057, 9.88619 
2.9050025e+3, 3.0392665e+2, -40740.73, -84749.69, 0.103935, 0.000014861866, 0.00017409185, -40740.73, -40740.73, 0.0, 10.000057, 9.942145 
2.9050025e+3, 3.1387067e+2, -39662.88, -82510.9, -0.080196925, 0.000014831497, -0.0000544975, -39662.88, -39662.88, 0.0, 10.000057, 9.943657 
2.9150027e+3, 1.2499395e+2, -1719872.8, -1724219.1, 0.06547393, 0.000016092861, 0.000023452967, -1719872.8, -4813.394, 0.0, 10.000061, 9.994298 
2.9150027e+3, 1.3498816e+2, -1622493.1, -1627430.0, -0.18000558, 0.00001595414, -0.000071263545, -1622493.1, -5377.08, 0.0, 10.000061, 9.993515 
2.9150027e+3, 1.4497569e+2, -1534391.6, -1548140.5, 0.012369385, 0.000015865971, 0.00007974246, -1534391.6, -15153.28, 0.0, 10.00006, 9.981836 
2.9150027e+3, 1.5495753e+2, -1436664.6, -1450816.8, -0.21116036, 0.000015825488, -0.00005381109, -1436664.6, -15248.515, 0.0, 10.00006, 9.981304 
2.9150027e+3, 1.6493277e+2, -1348614.4, -1371947.8, 0.022036128, 0.000015770616, 0.000048486352, -1348614.4, -24955.379, 0.0, 10.00006, 9.96922 
2.9150024e+3, 1.7490202e+2, -1250657.0, -1274306.0, -0.21352339, 0.000015701082, -0.0000710031, -1250657.0, -24696.775, 0.0, 10.000059, 9.968806 
2.9150024e+3, 1.8486466e+2, -1162576.3, -1195715.9, 0.0067966757, 0.000015643802, 0.000069463, -1162576.3, -34249.8, 0.0, 10.000059, 9.9563675 
2.9150024e+3, 1.9482106e+2, -1064427.1, -1097829.1, -0.21800168, 0.000015599298, -0.000055097324, -1064427.1, -33673.5, 0.0, 10.000059, 9.956024 
2.9150024e+3, 2.047708e+2, -976263.56, -1019431.4, 0.0060747103, 0.000015546966, 0.0000702741, -976263.56, -43017.35, 0.0, 10.000059, 9.943263 
2.9150024e+3, 2.147141e+2, -877977.1, -921406.7, -0.21395701, 0.000015486145, -0.00012456559, -877977.1, -42175.258, 0.0, 10.000059, 9.942922 
2.9150024e+3, 2.246507e+2, -789691.4, -843141.8, 0.0118912915, 0.0000154372, 0.00012307278, -789691.4, -51268.234, 0.0, 10.000058, 9.92988 
2.9150024e+3, 2.3458064e+2, -691258.44, -744963.8, -0.20554061, 0.000015401685, -0.000086846274, -691258.44, -50148.758, 0.0, 10.000058, 9.929549 
2.9150024e+3, 2.4450365e+2, -602934.75, -667016.44, 0.017329799, 0.000015363457, 0.00007650749, -602934.75, -59070.445, 0.0, 10.000058, 9.916108 
2.9150024e+3, 2.5441986e+2, -504182.6, -568341.3, -0.19009346, 0.000015321959, -0.00010505419, -504182.6, -57497.35, 0.0, 10.000058, 9.916009 
2.9150024e+3, 2.6432902e+2, -415947.56, -490986.28, 0.03590077, 0.000015284872, 0.00014213867, -415947.56, -66371.94, 0.0, 10.000058, 9.9019375 
2.9150024e+3, 2.742315e+2, -316662.8, -391373.53, -0.16505505, 0.0000152533885, -0.00020206586, -316662.8, -64131.594, 0.0, 10.000058, 9.902357 
2.9150024e+3, 2.8412578e+2, -230189.7, -318080.0, 0.05481457, 0.000015223468, 0.00023029157, -230189.7, -74622.25, 0.0, 10.000057, 9.885411 
2.9150024e+3, 2.9401225e+2, -130484.0, -217764.1, -0.1329757, 0.000015195643, -0.00025218367, -130484.0, -71803.85, 0.0, 10.000057, 9.886189 
2.9150024e+3, 3.0392665e+2, -40741.168, -84750.6, 0.07800054, 0.000015166402, 0.00017411256, -40741.168, -40741.168, 0.0, 10.000057, 9.942144 
2.9150024e+3, 3.1387067e+2, -39663.316, -82511.81, -0.10508339, 0.000015135059, -0.00005449258, -39663.316, -39663.316, 0.0, 10.000057, 9.943656 
2.9250026e+3, 1.24993965e+2, -1719868.9, -1724217.9, 0.17732677, 0.000016408077, 0.00002358321, -1719868.9, -4809.629, 0.0, 10.000064, 9.994297 
2.9250026e+3, 1.3498817e+2, -1622489.3, -1627428.8, -0.06477653, 0.000016286216, -0.000071363815, -1622489.3, -5373.394, 0.0, 10.000063, 9.993515 
2.9250026e+3, 1.4497569e+2, -1534387.8, -1548139.3, 0.12981519, 0.000016200338, 0.00007994388, -1534387.8, -15149.614, 0.0, 10.000063, 9.981835 
2.9250026e+3, 1.5495755e+2, -1436660.9, -1450815.5, -0.11645846, 0.000016147409, -0.000053745593, -1436660.9, -15244.854, 0.0, 10.000063, 9.981304 
2.9250026e+3, 1.6493277e+2, -1348610.6, -1371946.5, 0.11298245, 0.000016086971, 0.000048501704, -1348610.6, -24951.736, 0.0, 10.000063, 9.969219 
2.9250026e+3, 1.7490204e+2, -1250653.3, -1274304.9, -0.12428833, 0.000016018896, -0.00007095023, -1250653.3, -24693.166, 0.0, 10.000062, 9.968805 
2.9250026e+3, 1.8486466e+2, -1162572.6, -1195714.6, 0.09571734, 0.000015962516, 0.000069527945, -1162572.6, -34246.21, 0.0, 10.000062, 9.956367 
2.9250026e+3, 1.9482106e+2, -1064423.5, -1097828.0, -0.1426428, 0.00001591834, -0.00005504696, -1064423.5, -33669.94, 0.0, 10.000062, 9.956023 
2.9250026e+3, 2.047708e+2, -976259.94, -1019430.2, 0.08153312, 0.00001586474, 0.000070319176, -976259.94, -43013.813, 0.0, 10.000062, 9.943262 
2.9250026e+3, 2.147141e+2, -877973.56, -921405.56, -0.15051977, 0.000015800928, -0.00012451573, -877973.56, -42171.742, 0.0, 10.000061, 9.942921 
2.9250026e+3, 2.2465071e+2, -789687.8, -843140.75, 0.07195183, 0.000015750626, 0.00012312032, -789687.8, -51264.74, 0.0, 10.000061, 9.929879 
2.9250026e+3, 2.3458065e+2, -691254.9, -744962.75, -0.15043525, 0.000015715603, -0.00008680907, -691254.9, -50145.293, 0.0, 10.000061, 9.929548 
2.9250026e+3, 2.4450365e+2, -602931.25, -667015.4, 0.07603337, 0.000015677098, 0.00007654076, -602931.25, -59067.0, 0.0, 10.000061, 9.916108 
2.9250026e+3, 2.5441986e+2, -504179.1, -568340.3, -0.14234734, 0.000015634401, -0.00010501717, -504179.1, -57493.92, 0.0, 10.000061, 9.916008 
2.9250026e+3, 2.6432902e+2, -415944.1, -490985.25, 0.08282307, 0.000015595799, 0.00014217485, -415944.1, -66368.52, 0.0, 10.00006, 9.901937 
2.9250026e+3, 2.742315e+2, -316659.38, -391372.53, -0.1268002, 0.000015562402, -0.00020203636, -316659.38, -64128.2, 0.0, 10.00006, 9.902356 
2.9250026e+3, 2.8412578e+2, -230186.28, -318079.0, 0.091410995, 0.000015531825, 0.00023031783, -230186.28, -74618.87, 0.0, 10.00006, 9.88541 
2.9250026e+3, 2.9401225e+2, -130480.61, -217763.13, -0.106993556, 0.000015505064, -0.00025215585, -130480.61, -71800.49, 0.0, 10.00006, 9.886189 
2.9250026e+3, 3.0392665e+2, -40737.836, -84749.69, 0.10591068, 0.000015476131, 0.000174136, -40737.836, -40737.836, 0.0, 10.00006, 9.942144 
2.9250026e+3, 3.1387067e+2, -39659.984, -82510.9, -0.079055, 0.000015443959, -0.000054482254, -39659.984, -39659.984, 0.0, 10.00006, 9.943655 
2.9350027e+3, 1.2499398e+2, -1719869.4, -1724218.9, 0.057368815, 0.00001673777, 0.0000237021, -1719869.4, -4810.327, 0.0, 10.000064, 9.994297 
2.9350027e+3, 1.3498819e+2, -1622489.9, -1627429.8, -0.18475416, 0.000016620786, -0.000071472256, -1622489.9, -5374.08, 0.0, 10.000063, 9.993514 
2.9350027e+3, 1.449757e+2, -1534388.4, -1548140.3, 0.029741187, 0.00001653392, 0.000080149926, -1534388.4, -15150.303, 0.0, 10.000063, 9.981835 
2.9350027e+3, 1.5495756e+2, -1436661.4, -1450816.5, -0.21650451, 0.000016474014, -0.000053681768, -1436661.4, -15245.528, 0.0, 10.000063, 9.981303 
2.9350027e+3, 1.6493279e+2, -1348611.1, -1371947.5, 0.017954716, 0.000016411881, 0.000048514077, -1348611.1, -24952.383, 0.0, 10.000063, 9.969218 
2.9350027e+3, 1.7490204e+2, -1250653.8, -1274305.9, -0.21929863, 0.000016347494, -0.00007089659, -1250653.8, -24693.8, 0.0, 10.000062, 9.968804 
2.9350027e+3, 1.8486467e+2, -1162573.1, -1195715.6, 0.0074708695, 0.000016288695, 0.000069597554, -1162573.1, -34246.84, 0.0, 10.000062, 9.956366 
2.9350027e+3, 1.9482107e+2, -1064424.0, -1097829.0, -0.23081383, 0.000016235717, -0.000054987857, -1064424.0, -33670.563, 0.0, 10.000062, 9.956023 
2.9350027e+3, 2.0477082e+2, -976260.44, -1019431.2, 0.0072409934, 0.000016181106, 0.00007036627, -976260.44, -43014.414, 0.0, 10.000062, 9.943261 
2.9350027e+3, 2.1471411e+2, -877974.06, -921406.5, -0.22452787, 0.00001612472, -0.00012448223, -877974.06, -42172.33, 0.0, 10.000061, 9.942921 
2.9350027e+3, 2.2465071e+2, -789688.3, -843141.7, 0.0017844905, 0.000016076674, 0.00012315018, -789688.3, -51265.305, 0.0, 10.000061, 9.929879 
2.9350027e+3, 2.3458065e+2, -691255.4, -744963.7, -0.22048138, 0.000016038048, -0.00008677158, -691255.4, -50145.848, 0.0, 10.000061, 9.929547 
2.9350027e+3, 2.4450366e+2, -602931.7, -667016.3, 0.01942105, 0.000015995072, 0.00007658143, -602931.7, -59067.55, 0.0, 10.000061, 9.916107 
2.9350027e+3, 2.544199e+2, -504179.6, -568341.25, -0.19831903, 0.000015946876, -0.00010497865, -504179.6, -57494.46, 0.0, 10.000061, 9.916007 
2.9350027e+3, 2.6432905e+2, -415944.56, -490986.2, 0.03539631, 0.000015907552, 0.00014220778, -415944.56, -66369.05, 0.0, 10.00006, 9.901936 
2.9350027e+3, 2.742315e+2, -316659.84, -391373.5, -0.17365752, 0.00001587951, -0.0002020134, -316659.84, -64128.715, 0.0, 10.00006, 9.902356 
2.9350027e+3, 2.8412578e+2, -230186.73, -318079.94, 0.052172318, 0.000015850994, 0.00023033778, -230186.73, -74619.37, 0.0, 10.00006, 9.88541 
2.9350027e+3, 2.9401225e+2, -130481.055, -217764.06, -0.14554965, 0.000015821757, -0.0002521294, -130481.055, -71800.98, 0.0, 10.00006, 9.8861885 
2.9350027e+3, 3.0392665e+2, -40738.28, -84750.62, 0.07957629, 0.00001579105, 0.0001741622, -40738.28, -40738.28, 0.0, 10.00006, 9.942143 
2.9350027e+3, 3.1387067e+2, -39660.434, -82511.83, -0.10396098, 0.000015758193, -0.000054466538, -39660.434, -39660.434, 0.0, 10.00006, 9.943655 
2.945003e+3, 1.2499399e+2, -1719865.4, -1724217.5, 0.1843146, 0.000017083732, 0.00002382655, -1719865.4, -4806.463, 0.0, 10.000067, 9.994296 
2.9450026e+3, 1.349882e+2, -1622485.8, -1627428.5, -0.08280022, 0.000016953241, -0.00007157649, -1622485.8, -5370.207, 0.0, 10.000066, 9.993513 
2.9450026e+3, 1.4497572e+2, -1534384.4, -1548138.9, 0.13130082, 0.000016862341, 0.00008036772, -1534384.4, -15146.435, 0.0, 10.000066, 9.981834 
2.9450026e+3, 1.5495758e+2, -1436657.5, -1450815.1, -0.11631776, 0.000016807855, -0.000053618918, -1436657.5, -15241.714, 0.0, 10.000066, 9.981302 
2.9450026e+3, 1.649328e+2, -1348607.3, -1371946.3, 0.116992556, 0.000016747854, 0.000048523834, -1348607.3, -24948.605, 0.0, 10.000065, 9.969218 
2.9450026e+3, 1.7490205e+2, -1250649.9, -1274304.6, -0.1375684, 0.000016682243, -0.0000708359, -1250649.9, -24690.057, 0.0, 10.000065, 9.968804 
2.9450026e+3, 1.8486468e+2, -1162569.3, -1195714.4, 0.08742254, 0.00001661916, 0.000069672984, -1162569.3, -34243.11, 0.0, 10.000065, 9.956366 
2.9450026e+3, 1.9482109e+2, -1064420.3, -1097827.8, -0.15605602, 0.00001655871, -0.000054935572, -1064420.3, -33666.84, 0.0, 10.000065, 9.956022 
2.9450026e+3, 2.0477083e+2, -976256.7, -1019430.0, 0.08390026, 0.000016504699, 0.00007040846, -976256.7, -43010.72, 0.0, 10.000064, 9.943261 
2.9450026e+3, 2.1471412e+2, -877970.3, -921405.4, -0.1560449, 0.000016457654, -0.00012443602, -877970.3, -42168.69, 0.0, 10.000064, 9.94292 
2.9450026e+3, 2.2465073e+2, -789684.6, -843140.56, 0.07152404, 0.000016409635, 0.00012319628, -789684.6, -51261.688, 0.0, 10.000064, 9.929878 
2.9450026e+3, 2.3458067e+2, -691251.7, -744962.56, -0.16196528, 0.00001636049, -0.0000867303, -691251.7, -50142.227, 0.0, 10.000064, 9.929547 
2.9450026e+3, 2.4450366e+2, -602928.06, -667015.2, 0.07589383, 0.000016313592, 0.0000766196, -602928.06, -59063.945, 0.0, 10.000064, 9.916106 
2.9450026e+3, 2.544199e+2, -504175.97, -568340.2, -0.15221365, 0.00001626937, -0.00010494155, -504175.97, -57490.895, 0.0, 10.000063, 9.916007 
2.9450026e+3, 2.6432905e+2, -415940.97, -490985.13, 0.08293933, 0.000016231897, 0.00014224245, -415940.97, -66365.5, 0.0, 10.000063, 9.901936 
2.9450026e+3, 2.742315e+2, -316656.28, -391372.44, -0.13185857, 0.00001620299, -0.00020198287, -316656.28, -64125.195, 0.0, 10.000063, 9.902355 
2.9450026e+3, 2.841258e+2, -230183.19, -318078.9, 0.09684533, 0.00001617315, 0.00023036398, -230183.19, -74615.85, 0.0, 10.000063, 9.885409 
2.9450026e+3, 2.9401225e+2, -130477.52, -217763.05, -0.1071952, 0.000016141974, -0.0002521078, -130477.52, -71797.484, 0.0, 10.000063, 9.886188 
2.9450026e+3, 3.0392665e+2, -40734.8, -84749.66, 0.116066456, 0.00001611037, 0.00017418158, -40734.8, -40734.8, 0.0, 10.000063, 9.9421425 
2.9450026e+3, 3.1387067e+2, -39656.97, -82510.88, -0.08334187, 0.000016078166, -0.000054445845, -39656.97, -39656.97, 0.0, 10.000063, 9.943654 
2.9550028e+3, 1.24994e+2, -1719866.0, -1724218.6, 0.06976275, 0.000017445953, 0.00002395737, -1719866.0, -4807.225, 0.0, 10.000067, 9.994295 
2.9550028e+3, 1.3498822e+2, -1622486.4, -1627429.6, -0.19736263, 0.000017283584, -0.000071676535, -1622486.4, -5370.9556, 0.0, 10.000066, 9.993513 
2.9550028e+3, 1.4497574e+2, -1534384.9, -1548140.0, 0.02159992, 0.000017185612, 0.00008059725, -1534384.9, -15147.132, 0.0, 10.000066, 9.981833 
2.9550028e+3, 1.5495759e+2, -1436658.0, -1450816.3, -0.22601938, 0.000017148928, -0.000053557043, -1436658.0, -15242.397, 0.0, 10.000066, 9.981302 
2.9550028e+3, 1.6493282e+2, -1348607.8, -1371947.3, 0.017576277, 0.000017094882, 0.00004853098, -1348607.8, -24949.295, 0.0, 10.000065, 9.969217 
2.9550028e+3, 1.7490207e+2, -1250650.5, -1274305.6, -0.23693542, 0.000017023134, -0.00007076817, -1250650.5, -24690.734, 0.0, 10.000065, 9.968803 
2.9550028e+3, 1.8486468e+2, -1162569.8, -1195715.4, -0.0001827847, 0.000016953913, 0.00006975422, -1162569.8, -34243.754, 0.0, 10.000065, 9.956365 
2.9550028e+3, 1.9482109e+2, -1064420.8, -1097828.8, -0.24353106, 0.000016887318, -0.00005489009, -1064420.8, -33667.473, 0.0, 10.000065, 9.956021 
2.9550028e+3, 2.0477083e+2, -976257.2, -1019431.0, -0.0009274043, 0.000016835516, 0.000070445734, -976257.2, -43011.34, 0.0, 10.000064, 9.94326 
2.9550028e+3, 2.1471412e+2, -877970.9, -921406.4, -0.24082205, 0.000016799722, -0.00012437713, -877970.9, -42169.3, 0.0, 10.000064, 9.942919 
2.9550028e+3, 2.2465073e+2, -789685.1, -843141.56, 0.0043918793, 0.0000167495, 0.00012325858, -789685.1, -51262.28, 0.0, 10.000064, 9.929877 
2.9550028e+3, 2.3458067e+2, -691252.2, -744963.56, -0.22852573, 0.000016682929, -0.00008668524, -691252.2, -50142.813, 0.0, 10.000064, 9.929546 
2.9550028e+3, 2.4450366e+2, -602928.56, -667016.2, 0.013604285, 0.000016632663, 0.00007665527, -602928.56, -59064.52, 0.0, 10.000064, 9.916106 
2.9550028e+3, 2.544199e+2, -504176.47, -568341.2, -0.2143006, 0.00001660188, -0.00010490586, -504176.47, -57491.457, 0.0, 10.000063, 9.916006 
2.9550028e+3, 2.6432905e+2, -415941.47, -490986.13, 0.03233651, 0.000016568833, 0.00014227889, -415941.47, -66366.05, 0.0, 10.000063, 9.901935 
2.9550028e+3, 2.7423152e+2, -316656.75, -391373.4, -0.1816979, 0.000016532842, -0.00020194477, -316656.75, -64125.723, 0.0, 10.000063, 9.902354 
2.9550028e+3, 2.841258e+2, -230183.66, -318079.88, 0.057956804, 0.000016498294, 0.00023039641, -230183.66, -74616.37, 0.0, 10.000063, 9.885408 
2.9550028e+3, 2.9401225e+2, -130477.984, -217764.0, -0.14510159, 0.00001646572, -0.00025209106, -130477.984, -71797.984, 0.0, 10.000063, 9.886188 
2.9550028e+3, 3.0392665e+2, -40735.277, -84750.65, 0.08608635, 0.000016434093, 0.00017419417, -40735.277, -40735.277, 0.0, 10.000063, 9.9421425 
2.9550028e+3, 3.1387067e+2, -39657.45, -82511.875, -0.11239504, 0.00001640388, -0.000054420187, -39657.45, -39657.45, 0.0, 10.000063, 9.943653 
2.965003e+3, 1.2499402e+2, -1719861.8, -1724217.3, 0.18318272, 0.000017804383, 0.000024102656, -1719861.8, -4803.181, 0.0, 10.00007, 9.994294 
2.965003e+3, 1.3498823e+2, -1622482.3, -1627428.1, -0.07950188, 0.000017628678, -0.00007178717, -1622482.3, -5366.937, 0.0, 10.000069, 9.993512 
2.965003e+3, 1.4497575e+2, -1534380.8, -1548138.6, 0.13653159, 0.000017526481, 0.00008082295, -1534380.8, -15143.124, 0.0, 10.000069, 9.9818325 
2.965003e+3, 1.549576e+2, -1436653.9, -1450814.9, -0.12946908, 0.000017494676, -0.00005348689, -1436653.9, -15238.425, 0.0, 10.000069, 9.981301 
2.965003e+3, 1.6493282e+2, -1348603.8, -1371946.0, 0.113890395, 0.000017441434, 0.000048544513, -1348603.8, -24945.354, 0.0, 10.000068, 9.969216 
2.965003e+3, 1.7490208e+2, -1250646.5, -1274304.4, -0.14454487, 0.000017366328, -0.00007071021, -1250646.5, -24686.826, 0.0, 10.000068, 9.968802 
2.965003e+3, 1.848647e+2, -1162565.8, -1195714.1, 0.095363975, 0.000017296139, 0.00006982712, -1162565.8, -34239.867, 0.0, 10.000068, 9.956364 
2.965003e+3, 1.948211e+2, -1064416.8, -1097827.5, -0.16052859, 0.000017231076, -0.00005483313, -1064416.8, -33663.625, 0.0, 10.000068, 9.956021 
2.965003e+3, 2.0477085e+2, -976253.25, -1019429.75, 0.07663882, 0.000017177561, 0.000070493494, -976253.25, -43007.516, 0.0, 10.000067, 9.943259 
2.965003e+3, 2.1471414e+2, -877966.94, -921405.1, -0.17389703, 0.00001713654, -0.00012433126, -877966.94, -42165.49, 0.0, 10.000067, 9.942919 
2.965003e+3, 2.2465074e+2, -789681.25, -843140.3, 0.07474202, 0.00001708459, 0.00012330493, -789681.25, -51258.49, 0.0, 10.000067, 9.929877 
2.965003e+3, 2.345807e+2, -691248.4, -744962.4, -0.16948113, 0.000017020264, -0.00008663569, -691248.4, -50139.06, 0.0, 10.000067, 9.929545 
2.9650027e+3, 2.4450368e+2, -602924.75, -667015.06, 0.07097025, 0.000016970438, 0.00007670095, -602924.75, -59060.79, 0.0, 10.000067, 9.916105 
2.9650027e+3, 2.544199e+2, -504172.7, -568340.06, -0.16107962, 0.000016937933, -0.00010487251, -504172.7, -57487.75, 0.0, 10.000066, 9.916005 
2.9650027e+3, 2.6432905e+2, -415937.72, -490985.0, 0.08762838, 0.000016903265, 0.00014230746, -415937.72, -66362.35, 0.0, 10.000066, 9.901934 
2.9650027e+3, 2.7423152e+2, -316653.03, -391372.34, -0.1424301, 0.000016865783, -0.00020191136, -316653.03, -64122.055, 0.0, 10.000066, 9.902354 
2.9650027e+3, 2.841258e+2, -230179.95, -318078.78, 0.09376949, 0.000016830523, 0.00023043102, -230179.95, -74612.71, 0.0, 10.000066, 9.885408 
2.9650027e+3, 2.9401225e+2, -130474.31, -217762.95, -0.11854356, 0.0000167983, -0.0002520603, -130474.31, -71794.35, 0.0, 10.000066, 9.886187 
2.9650027e+3, 3.0392668e+2, -40731.668, -84749.66, 0.113246575, 0.000016766124, 0.00017421924, -40731.668, -40731.668, 0.0, 10.000066, 9.942142 
2.9650027e+3, 3.1387067e+2, -39653.836, -82510.89, -0.09027725, 0.000016734013, -0.000054403426, -39653.836, -39653.836, 0.0, 10.000066, 9.943653 
2.9750028e+3, 1.2499404e+2, -1719862.4, -1724218.4, 0.066331066, 0.000018159028, 0.00002426321, -1719862.4, -4803.939, 0.0, 10.00007, 9.994294 
2.9750028e+3, 1.3498825e+2, -1622482.9, -1627429.3, -0.19637313, 0.000017988506, -0.000071908384, -1622482.9, -5367.681, 0.0, 10.000069, 9.993511 
2.9750028e+3, 1.4497577e+2, -1534381.4, -1548139.8, 0.021746235, 0.000017884935, 0.00008104483, -1534381.4, -15143.868, 0.0, 10.000069, 9.9818325 
2.9750028e+3, 1.5495762e+2, -1436654.5, -1450816.0, -0.24425347, 0.000017845097, -0.000053408465, -1436654.5, -15239.154, 0.0, 10.000069, 9.9813 
2.9750028e+3, 1.6493283e+2, -1348604.3, -1371947.0, 0.009926081, 0.000017787512, 0.00004856443, -1348604.3, -24946.057, 0.0, 10.000068, 9.969215 
2.9750028e+3, 1.7490208e+2, -1250647.0, -1274305.4, -0.24845947, 0.000017711824, -0.000070662, -1250647.0, -24687.516, 0.0, 10.000068, 9.968802 
2.9750028e+3, 1.8486471e+2, -1162566.4, -1195715.3, 0.001514673, 0.000017645836, 0.00006989169, -1162566.4, -34240.547, 0.0, 10.000068, 9.956364 
2.9750028e+3, 1.9482112e+2, -1064417.4, -1097828.6, -0.2542672, 0.000017589975, -0.000054764703, -1064417.4, -33664.293, 0.0, 10.000068, 9.95602 
2.9750028e+3, 2.0477086e+2, -976253.8, -1019430.9, -0.007958267, 0.000017530827, 0.00007055172, -976253.8, -43008.164, 0.0, 10.000067, 9.943258 
2.9750028e+3, 2.1471414e+2, -877967.5, -921406.25, -0.25831, 0.000017468112, -0.00012429843, -877967.5, -42166.125, 0.0, 10.000067, 9.942918 
2.9750028e+3, 2.2465074e+2, -789681.75, -843141.4, 0.0012542838, 0.000017414915, 0.00012333534, -789681.75, -51259.11, 0.0, 10.000067, 9.929876 
2.9750028e+3, 2.345807e+2, -691248.9, -744963.44, -0.24261639, 0.000017372482, -0.000086581655, -691248.9, -50139.668, 0.0, 10.000067, 9.929545 
2.9750028e+3, 2.4450368e+2, -602925.25, -667016.06, 0.0064168163, 0.0000173269, 0.00007675662, -602925.25, -59061.375, 0.0, 10.000067, 9.916104 
2.9750028e+3, 2.544199e+2, -504173.2, -568341.06, -0.22522661, 0.00001727753, -0.00010484149, -504173.2, -57488.32, 0.0, 10.000066, 9.916004 
2.9750028e+3, 2.6432905e+2, -415938.22, -490986.06, 0.0352457, 0.0000172352, 0.00014232818, -415938.22, -66362.93, 0.0, 10.000066, 9.901934 
2.9750028e+3, 2.7423152e+2, -316653.53, -391373.38, -0.19402756, 0.000017201814, -0.00020188262, -316653.53, -64122.617, 0.0, 10.000066, 9.902353 
2.9750028e+3, 2.841258e+2, -230180.45, -318079.78, 0.05177118, 0.000017169832, 0.00023046779, -230180.45, -74613.24, 0.0, 10.000066, 9.885407 
2.9750028e+3, 2.9401225e+2, -130474.8, -217763.95, -0.15968226, 0.000017139713, -0.00025201554, -130474.8, -71794.875, 0.0, 10.000066, 9.886186 
2.9750028e+3, 3.0392668e+2, -40732.156, -84750.67, 0.08382727, 0.000017106462, 0.00017425681, -40732.156, -40732.156, 0.0, 10.000066, 9.942141 
2.9750028e+3, 3.1387067e+2, -39654.33, -82511.914, -0.11832539, 0.000017068567, -0.000054395558, -39654.33, -39654.33, 0.0, 10.000066, 9.943652 
2.9850033e+3, 1.24994054e+2, -1719858.0, -1724216.8, 0.19822796, 0.000018517565, 0.0000244047, -1719858.0, -4799.705, 0.0, 10.0000725, 9.994293 
2.9850033e+3, 1.3498826e+2, -1622478.5, -1627427.9, -0.0878907, 0.000018354305, -0.00007201859, -1622478.5, -5363.511, 0.0, 10.0000725, 9.99351 
2.9850033e+3, 1.4497578e+2, -1534377.1, -1548138.3, 0.12610899, 0.000018250668, 0.00008128966, -1534377.1, -15139.72, 0.0, 10.000072, 9.981832 
2.985003e+3, 1.5495762e+2, -1436650.3, -1450814.5, -0.13965076, 0.000018203338, -0.000053340893, -1436650.3, -15235.024, 0.0, 10.000072, 9.981299 
2.985003e+3, 1.6493285e+2, -1348600.0, -1371945.6, 0.116668515, 0.000018142146, 0.00004856994, -1348600.0, -24941.951, 0.0, 10.000072, 9.969215 
2.985003e+3, 1.749021e+2, -1250642.9, -1274304.0, -0.15665193, 0.000018066814, -0.00007060089, -1250642.9, -24683.45, 0.0, 10.000071, 9.9688015 
2.985003e+3, 1.8486473e+2, -1162562.3, -1195713.9, 0.0909029, 0.000018001852, 0.0000699707, -1162562.3, -34236.504, 0.0, 10.000071, 9.956363 
2.985003e+3, 1.9482112e+2, -1064413.3, -1097827.3, -0.17506106, 0.000017947723, -0.000054707292, -1064413.3, -33660.29, 0.0, 10.000071, 9.956019 
2.985003e+3, 2.0477086e+2, -976249.75, -1019429.56, 0.07399728, 0.000017885734, 0.00007059976, -976249.75, -43004.176, 0.0, 10.000071, 9.943258 
2.985003e+3, 2.1471415e+2, -877963.44, -921404.94, -0.18463358, 0.000017815226, -0.00012424652, -877963.44, -42162.156, 0.0, 10.00007, 9.942917 
2.985003e+3, 2.2465076e+2, -789677.75, -843140.1, 0.07315367, 0.000017760885, 0.00012338527, -789677.75, -51255.164, 0.0, 10.00007, 9.929875 
2.985003e+3, 2.3458071e+2, -691244.94, -744962.25, -0.18062489, 0.000017724831, -0.00008654039, -691244.94, -50135.77, 0.0, 10.00007, 9.929544 
2.985003e+3, 2.4450369e+2, -602921.3, -667014.9, 0.069363214, 0.000017679982, 0.00007679522, -602921.3, -59057.496, 0.0, 10.00007, 9.916104 
2.985003e+3, 2.5441992e+2, -504169.25, -568339.9, -0.17612855, 0.0000176246, -0.00010479839, -504169.25, -57484.457, 0.0, 10.000069, 9.916004 
2.985003e+3, 2.6432908e+2, -415934.3, -490984.88, 0.083823256, 0.000017579157, 0.00014236927, -415934.3, -66359.08, 0.0, 10.000069, 9.901933 
2.985003e+3, 2.7423152e+2, -316649.7, -391372.25, -0.14990932, 0.000017546377, -0.00020185187, -316649.7, -64118.805, 0.0, 10.000069, 9.902352 
2.985003e+3, 2.841258e+2, -230176.6, -318078.7, 0.09926162, 0.000017514652, 0.0002304942, -230176.6, -74609.445, 0.0, 10.000069, 9.8854065 
2.985003e+3, 2.9401228e+2, -130470.98, -217762.84, -0.12288448, 0.000017484297, -0.0002519852, -130470.98, -71791.09, 0.0, 10.000069, 9.886186 
2.985003e+3, 3.0392668e+2, -40728.395, -84749.64, 0.11950795, 0.00001745041, 0.00017428538, -40728.395, -40728.395, 0.0, 10.000069, 9.942141 
2.985003e+3, 3.138707e+2, -39650.586, -82510.89, -0.0912396, 0.000017411288, -0.000054377208, -39650.586, -39650.586, 0.0, 10.000069, 9.943651 
2.9950032e+3, 1.2499407e+2, -1719858.6, -1724218.0, 0.070252955, 0.000018879997, 0.000024527983, -1719858.6, -4800.5234, 0.0, 10.0000725, 9.994292 
2.9950032e+3, 1.3498828e+2, -1622479.3, -1627429.1, -0.21588132, 0.000018726068, -0.000072117815, -1622479.3, -5364.3154, 0.0, 10.0000725, 9.99351 
2.9950032e+3, 1.449758e+2, -1534377.6, -1548139.4, 0.010061659, 0.000018623678, 0.000081557424, -1534377.6, -15140.47, 0.0, 10.000072, 9.981831 
2.9950032e+3, 1.5495764e+2, -1436650.9, -1450815.6, -0.2556875, 0.000018569393, -0.00005328416, -1436650.9, -15235.76, 0.0, 10.000072, 9.981299 
2.9950032e+3, 1.6493286e+2, -1348600.6, -1371946.8, 0.007649961, 0.000018505329, 0.00004856106, -1348600.6, -24942.693, 0.0, 10.000072, 9.969214 
2.9950032e+3, 1.7490211e+2, -1250643.5, -1274305.3, -0.2656394, 0.00001843129, -0.000070526876, -1250643.5, -24684.176, 0.0, 10.000071, 9.968801 
2.9950032e+3, 1.8486473e+2, -1162562.8, -1195715.0, -0.008540677, 0.000018364188, 0.000070064125, -1162562.8, -34237.21, 0.0, 10.000071, 9.956362 
2.9950032e+3, 1.9482113e+2, -1064413.9, -1097828.4, -0.2743999, 0.000018304325, -0.000054660883, -1064413.9, -33660.98, 0.0, 10.000071, 9.956018 
2.995003e+3, 2.0477088e+2, -976250.3, -1019430.6, -0.010960873, 0.000018242283, 0.00007063762, -976250.3, -43004.848, 0.0, 10.000071, 9.943257 
2.995003e+3, 2.1471417e+2, -877964.0, -921406.06, -0.2693019, 0.00001817787, -0.00012417555, -877964.0, -42162.813, 0.0, 10.00007, 9.942916 
2.995003e+3, 2.2465077e+2, -789678.3, -843141.25, -0.008224808, 0.00001812249, 0.00012345465, -789678.3, -51255.813, 0.0, 10.00007, 9.929874 
2.995003e+3, 2.3458071e+2, -691245.5, -744963.3, -0.26189956, 0.000018077317, -0.0000865119, -691245.5, -50136.402, 0.0, 10.00007, 9.9295435 
2.995003e+3, 2.4450369e+2, -602921.9, -667015.94, 0.0049058073, 0.000018029696, 0.00007681676, -602921.9, -59058.117, 0.0, 10.00007, 9.916103 
2.995003e+3, 2.5441992e+2, -504169.78, -568340.94, -0.23978437, 0.000017979131, -0.00010474322, -504169.78, -57485.063, 0.0, 10.000069, 9.916003 
2.995003e+3, 2.6432908e+2, -415934.84, -490985.97, 0.027435789, 0.00001793513, 0.0001424307, -415934.84, -66359.67, 0.0, 10.000069, 9.901932 
2.995003e+3, 2.7423152e+2, -316650.2, -391373.3, -0.20581461, 0.000017899469, -0.0002018191, -316650.2, -64119.38, 0.0, 10.000069, 9.902352 
2.995003e+3, 2.841258e+2, -230177.11, -318079.72, 0.055545345, 0.000017864984, 0.0002305103, -230177.11, -74610.0, 0.0, 10.000069, 9.8854065 
2.995003e+3, 2.9401228e+2, -130471.484, -217763.89, -0.16550785, 0.000017832052, -0.0002519693, -130471.484, -71791.64, 0.0, 10.000069, 9.886185 
2.995003e+3, 3.0392668e+2, -40728.902, -84750.695, 0.08640791, 0.000017797964, 0.00017430498, -40728.902, -40728.902, 0.0, 10.000069, 9.94214 
2.995003e+3, 3.138707e+2, -39651.094, -82511.945, -0.12322784, 0.000017762175, -0.000054348395, -39651.094, -39651.094, 0.0, 10.000069, 9.94365 
3.005003e+3, 1.24994084e+2, -1719854.1, -1724216.5, 0.20307414, 0.000019251, 0.00002467675, -1719854.1, -4796.1133, 0.0, 10.000075, 9.994291 
3.005003e+3, 1.349883e+2, -1622474.8, -1627427.5, -0.088391274, 0.000019103107, -0.00007224181, -1622474.8, -5359.968, 0.0, 10.000075, 9.993509 
3.005003e+3, 1.4497581e+2, -1534373.1, -1548137.9, 0.14112307, 0.000019001742, 0.000081805985, -1534373.1, -15136.139, 0.0, 10.000075, 9.98183 
3.005003e+3, 1.5495765e+2, -1436646.4, -1450814.1, -0.14234, 0.000018943376, -0.000053212654, -1436646.4, -15231.467, 0.0, 10.000074, 9.981298 
3.005003e+3, 1.6493288e+2, -1348596.3, -1371945.4, 0.11645329, 0.000018876703, 0.000048570368, -1348596.3, -24938.438, 0.0, 10.000074, 9.9692135 
3.005003e+3, 1.7490213e+2, -1250639.1, -1274303.8, -0.16618235, 0.000018801562, -0.00007046244, -1250639.1, -24679.947, 0.0, 10.000074, 9.9688 
3.005003e+3, 1.8486474e+2, -1162558.5, -1195713.5, 0.090356275, 0.000018731935, 0.00007014538, -1162558.5, -34232.996, 0.0, 10.000073, 9.956361 
3.005003e+3, 1.9482115e+2, -1064409.5, -1097827.0, -0.18559092, 0.000018668059, -0.00005460292, -1064409.5, -33656.797, 0.0, 10.000073, 9.956018 
3.005003e+3, 2.047709e+2, -976246.06, -1019429.3, 0.07873975, 0.000018606317, 0.00007068592, -976246.06, -43000.695, 0.0, 10.000073, 9.943256 
3.005003e+3, 2.1471417e+2, -877959.8, -921404.7, -0.19373229, 0.000018546874, -0.00012412215, -877959.8, -42158.707, 0.0, 10.000073, 9.942916 
3.005003e+3, 2.2465077e+2, -789674.1, -843139.94, 0.06466438, 0.000018490407, 0.00012350726, -789674.1, -51251.727, 0.0, 10.0000725, 9.929874 
3.005003e+3, 2.3458073e+2, -691241.3, -744962.06, -0.19517511, 0.000018437295, -0.000086466745, -691241.3, -50132.33, 0.0, 10.0000725, 9.929543 
3.005003e+3, 2.445037e+2, -602917.75, -667014.7, 0.07561703, 0.000018386843, 0.00007685766, -602917.75, -59054.063, 0.0, 10.0000725, 9.916102 
3.005003e+3, 2.5441992e+2, -504165.72, -568339.75, -0.1819317, 0.000018339557, -0.00010470277, -504165.72, -57481.05, 0.0, 10.0000725, 9.916002 
3.005003e+3, 2.6432908e+2, -415930.78, -490984.75, 0.08265334, 0.000018295994, 0.00014246933, -415930.78, -66355.68, 0.0, 10.000072, 9.901931 
3.005003e+3, 2.7423155e+2, -316646.16, -391372.13, -0.16132751, 0.000018257146, -0.00020178402, -316646.16, -64115.406, 0.0, 10.000072, 9.902351 
3.005003e+3, 2.841258e+2, -230173.11, -318078.56, 0.10022108, 0.000018221428, 0.00023054244, -230173.11, -74606.05, 0.0, 10.000072, 9.885406 
3.005003e+3, 2.9401228e+2, -130467.516, -217762.77, -0.13044265, 0.000018189952, -0.00025193917, -130467.516, -71787.71, 0.0, 10.000072, 9.886184 
3.005003e+3, 3.0392668e+2, -40725.0, -84749.625, 0.12100308, 0.000018154913, 0.00017433135, -40725.0, -40725.0, 0.0, 10.000072, 9.942139 
3.005003e+3, 3.138707e+2, -39647.184, -82510.875, -0.10116271, 0.000018114572, -0.000054328284, -39647.184, -39647.184, 0.0, 10.000072, 9.94365 
3.0150035e+3, 1.249941e+2, -1719854.8, -1724217.8, 0.06445254, 0.000019630566, 0.00002485191, -1719854.8, -4796.951, 0.0, 10.000075, 9.99429 
3.0150032e+3, 1.3498831e+2, -1622475.4, -1627428.8, -0.22703254, 0.000019485418, -0.000072390554, -1622475.4, -5360.7905, 0.0, 10.000075, 9.993508 
3.0150032e+3, 1.4497583e+2, -1534373.9, -1548139.0, 0.019541461, 0.000019384857, 0.00008203539, -1534373.9, -15136.935, 0.0, 10.000075, 9.98183 
3.0150032e+3, 1.5495767e+2, -1436647.0, -1450815.4, -0.2639026, 0.00001932528, -0.00005312639, -1436647.0, -15232.248, 0.0, 10.000074, 9.9812975 
3.0150032e+3, 1.6493289e+2, -1348596.9, -1371946.5, 0.00494288, 0.000019256264, 0.000048597845, -1348596.9, -24939.205, 0.0, 10.000074, 9.969213 
3.0150032e+3, 1.7490214e+2, -1250639.8, -1274305.0, -0.27764547, 0.000019177627, -0.000070407565, -1250639.8, -24680.701, 0.0, 10.000074, 9.9688 
3.0150032e+3, 1.8486476e+2, -1162559.1, -1195714.8, -0.013212874, 0.000019105093, 0.00007021448, -1162559.1, -34233.727, 0.0, 10.000073, 9.956361 
3.0150032e+3, 1.9482116e+2, -1064410.1, -1097828.3, -0.2890757, 0.00001903892, -0.000054533404, -1064410.1, -33657.516, 0.0, 10.000073, 9.9560175 
3.0150032e+3, 2.047709e+2, -976246.6, -1019430.44, -0.013863156, 0.000018977831, 0.00007074465, -976246.6, -43001.402, 0.0, 10.000073, 9.943255 
3.0150032e+3, 2.1471418e+2, -877960.4, -921405.9, -0.286115, 0.000018922237, -0.00012408632, -877960.4, -42159.402, 0.0, 10.000073, 9.942915 
3.0150032e+3, 2.2465079e+2, -789674.7, -843141.06, -0.015887367, 0.000018864639, 0.00012354311, -789674.7, -51252.39, 0.0, 10.0000725, 9.929873 
3.0150032e+3, 2.3458073e+2, -691241.9, -744963.2, -0.2753485, 0.000018804763, -0.000086404936, -691241.9, -50132.98, 0.0, 10.0000725, 9.929543 
3.0150032e+3, 2.4450372e+2, -602918.3, -667015.9, 0.0051011257, 0.00001875142, 0.000076917895, -602918.3, -59054.71, 0.0, 10.0000725, 9.916101 
3.0150032e+3, 2.5441992e+2, -504166.28, -568340.9, -0.25198647, 0.00001870587, -0.000104677005, -504166.28, -57481.684, 0.0, 10.0000725, 9.916001 
3.0150032e+3, 2.6432908e+2, -415931.34, -490985.88, 0.024505615, 0.000018661749, 0.00014248521, -415931.34, -66356.29, 0.0, 10.000072, 9.901931 
3.0150032e+3, 2.7423155e+2, -316646.72, -391373.25, -0.21868397, 0.000018619408, -0.00020174665, -316646.72, -64116.008, 0.0, 10.000072, 9.90235 
3.0150032e+3, 2.8412583e+2, -230173.64, -318079.66, 0.052452683, 0.000018583982, 0.00023059064, -230173.64, -74606.63, 0.0, 10.000072, 9.885405 
3.0150032e+3, 2.9401228e+2, -130468.04, -217763.84, -0.17735255, 0.000018557994, -0.0002518949, -130468.04, -71788.28, 0.0, 10.000072, 9.886183 
3.0150032e+3, 3.0392668e+2, -40725.53, -84750.73, 0.089145504, 0.00001852125, 0.00017436448, -40725.53, -40725.53, 0.0, 10.000072, 9.942138 
3.0150032e+3, 3.138707e+2, -39647.72, -82511.984, -0.13125753, 0.000018468481, -0.000054316864, -39647.72, -39647.72, 0.0, 10.000072, 9.943649 
3.0250034e+3, 1.2499413e+2, -1719850.0, -1724216.1, 0.20560268, 0.000020027705, 0.000025008949, -1719850.0, -4792.4077, 0.0, 10.000079, 9.99429 
3.0250034e+3, 1.3498832e+2, -1622470.6, -1627427.3, -0.097472265, 0.000019872668, -0.000072527815, -1622470.6, -5356.2505, 0.0, 10.000078, 9.993507 
3.0250034e+3, 1.4497584e+2, -1534369.1, -1548137.5, 0.14778529, 0.000019767855, 0.000082288716, -1534369.1, -15132.406, 0.0, 10.000078, 9.981829 
3.0250034e+3, 1.5495768e+2, -1436642.4, -1450813.9, -0.15052788, 0.00001970962, -0.00005304958, -1436642.4, -15227.77, 0.0, 10.000078, 9.981297 
3.0250034e+3, 1.649329e+2, -1348592.4, -1371945.0, 0.11734635, 0.000019641755, 0.000048610727, -1348592.4, -24934.764, 0.0, 10.000077, 9.969213 
3.0250034e+3, 1.7490216e+2, -1250635.3, -1274303.5, -0.17494413, 0.000019564073, -0.00007034358, -1250635.3, -24676.305, 0.0, 10.000077, 9.968799 
3.025003e+3, 1.8486477e+2, -1162554.6, -1195713.3, 0.088251635, 0.000019488565, 0.00007029595, -1162554.6, -34229.355, 0.0, 10.000077, 9.95636 
3.025003e+3, 1.9482116e+2, -1064405.6, -1097826.8, -0.20183186, 0.000019415309, -0.000054469645, -1064405.6, -33653.168, 0.0, 10.000076, 9.956017 
3.025003e+3, 2.0477091e+2, -976242.2, -1019429.06, 0.071865395, 0.000019353474, 0.00007079797, -976242.2, -42997.08, 0.0, 10.000076, 9.943255 
3.025003e+3, 2.147142e+2, -877956.0, -921404.5, -0.20643942, 0.000019304, -0.00012403558, -877956.0, -42155.117, 0.0, 10.000076, 9.942914 
3.025003e+3, 2.246508e+2, -789670.4, -843139.7, 0.06565531, 0.00001924584, 0.00012359385, -789670.4, -51248.137, 0.0, 10.000076, 9.9298725 
3.025003e+3, 2.3458074e+2, -691237.56, -744961.8, -0.21321915, 0.000019177838, -0.00008635128, -691237.56, -50128.75, 0.0, 10.000075, 9.929542 
3.025003e+3, 2.4450372e+2, -602914.0, -667014.56, 0.06409525, 0.000019121446, 0.000076968914, -602914.0, -59050.5, 0.0, 10.000075, 9.916101 
3.025003e+3, 2.5441995e+2, -504162.03, -568339.56, -0.19575724, 0.000019078918, -0.000104635226, -504162.03, -57477.504, 0.0, 10.000075, 9.916001 
3.025003e+3, 2.6432908e+2, -415927.13, -490984.63, 0.08499078, 0.000019036032, 0.00014252185, -415927.13, -66352.14, 0.0, 10.000075, 9.90193 
3.025003e+3, 2.7423155e+2, -316642.53, -391372.03, -0.17159925, 0.000018992638, -0.0002017099, -316642.53, -64111.887, 0.0, 10.000075, 9.902349 
3.025003e+3, 2.8412583e+2, -230169.47, -318078.44, 0.099107295, 0.000018954981, 0.00023062577, -230169.47, -74602.516, 0.0, 10.000074, 9.885404 
3.025003e+3, 2.9401228e+2, -130463.91, -217762.66, -0.13946034, 0.000018925157, -0.00025186376, -130463.91, -71784.19, 0.0, 10.000074, 9.886183 
3.025003e+3, 3.0392668e+2, -40721.46, -84749.61, 0.12950099, 0.000018887344, 0.00017439095, -40721.46, -40721.46, 0.0, 10.000074, 9.942137 
3.025003e+3, 3.138707e+2, -39643.68, -82510.88, -0.09563678, 0.000018837623, -0.000054296055, -39643.68, -39643.68, 0.0, 10.000074, 9.943648 
3.0350035e+3, 1.24994144e+2, -1719850.8, -1724217.4, 0.07020829, 0.000020442394, 0.000025148885, -1719850.8, -4793.2793, 0.0, 10.000079, 9.994289 
3.0350035e+3, 1.3498834e+2, -1622471.4, -1627428.5, -0.23288698, 0.000020264859, -0.00007265361, -1622471.4, -5357.107, 0.0, 10.000078, 9.993506 
3.0350035e+3, 1.4497586e+2, -1534369.9, -1548138.8, 0.017977202, 0.000020150737, 0.00008256594, -1534369.9, -15133.243, 0.0, 10.000078, 9.981828 
3.0350035e+3, 1.549577e+2, -1436643.1, -1450815.1, -0.2803304, 0.000020096397, -0.00005298221, -1436643.1, -15228.589, 0.0, 10.000078, 9.981297 
3.0350035e+3, 1.6493292e+2, -1348593.0, -1371946.3, -0.0008431861, 0.000020033174, 0.000048609047, -1348593.0, -24935.559, 0.0, 10.000077, 9.969212 
3.0350035e+3, 1.7490217e+2, -1250635.9, -1274304.8, -0.29308048, 0.000019960893, -0.00007027051, -1250635.9, -24677.084, 0.0, 10.000077, 9.968798 
3.0350035e+3, 1.8486479e+2, -1162555.3, -1195714.5, -0.017303087, 0.000019882347, 0.00007038977, -1162555.3, -34230.125, 0.0, 10.000077, 9.956359 
3.0350035e+3, 1.9482118e+2, -1064406.3, -1097828.0, -0.30724558, 0.000019797226, -0.000054411626, -1064406.3, -33653.918, 0.0, 10.000076, 9.956016 
3.0350035e+3, 2.0477092e+2, -976242.8, -1019430.25, -0.027499212, 0.00001973325, 0.00007084588, -976242.8, -42997.8, 0.0, 10.000076, 9.943254 
3.0350035e+3, 2.147142e+2, -877956.6, -921405.7, -0.30568656, 0.000019692157, -0.00012396993, -877956.6, -42155.83, 0.0, 10.000076, 9.942913 
3.0350035e+3, 2.246508e+2, -789670.94, -843140.94, -0.017330514, 0.000019634002, 0.00012365947, -789670.94, -51248.848, 0.0, 10.000076, 9.929872 
3.0350035e+3, 2.3458076e+2, -691238.2, -744963.06, -0.29567698, 0.000019556515, -0.00008630578, -691238.2, -50129.445, 0.0, 10.000075, 9.929541 
3.0350035e+3, 2.4450374e+2, -602914.56, -667015.7, -0.010463439, 0.000019496918, 0.00007701074, -602914.56, -59051.16, 0.0, 10.000075, 9.9161005 
3.0350035e+3, 2.5441995e+2, -504162.6, -568340.75, -0.26994562, 0.000019458692, -0.00010457744, -504162.6, -57478.15, 0.0, 10.000075, 9.916 
3.0350032e+3, 2.643291e+2, -415927.7, -490985.78, 0.022716617, 0.000019418832, 0.00014257923, -415927.7, -66352.78, 0.0, 10.000075, 9.901929 
3.0350032e+3, 2.7423155e+2, -316643.1, -391373.2, -0.23307948, 0.000019376826, -0.00020167381, -316643.1, -64112.516, 0.0, 10.000075, 9.902349 
3.0350032e+3, 2.8412583e+2, -230170.03, -318079.6, 0.051177494, 0.000019334419, 0.00023064783, -230170.03, -74603.125, 0.0, 10.000074, 9.885404 
3.0350032e+3, 2.9401228e+2, -130464.445, -217763.78, -0.18617608, 0.00001929145, -0.00025184575, -130464.445, -71784.77, 0.0, 10.000074, 9.886182 
3.0350032e+3, 3.0392668e+2, -40722.004, -84750.74, 0.09100122, 0.000019253199, 0.00017441077, -40722.004, -40722.004, 0.0, 10.000074, 9.942137 
3.0350032e+3, 3.138707e+2, -39644.223, -82512.016, -0.13318132, 0.000019221983, -0.00005426587, -39644.223, -39644.223, 0.0, 10.000074, 9.943647 
3.0450037e+3, 1.2499416e+2, -1719845.9, -1724215.8, 0.21455137, 0.000020855327, 0.000025309617, -1719845.9, -4788.536, 0.0, 10.000082, 9.994288 
3.0450034e+3, 1.3498835e+2, -1622466.5, -1627426.9, -0.10308476, 0.000020665888, -0.00007277984, -1622466.5, -5352.3936, 0.0, 10.000082, 9.993506 
3.0450034e+3, 1.4497587e+2, -1534365.0, -1548137.1, 0.142683, 0.00002054756, 0.00008284714, -1534365.0, -15128.542, 0.0, 10.000082, 9.981827 
3.0450034e+3, 1.5495771e+2, -1436638.3, -1450813.5, -0.16105288, 0.000020496678, -0.000052909825, -1436638.3, -15223.928, 0.0, 10.000081, 9.981296 
3.0450034e+3, 1.6493294e+2, -1348588.3, -1371944.6, 0.1194043, 0.000020432455, 0.000048611928, -1348588.3, -24930.932, 0.0, 10.000081, 9.969211 
3.0450034e+3, 1.7490219e+2, -1250631.1, -1274303.3, -0.18933114, 0.000020354622, -0.000070194845, -1250631.1, -24672.502, 0.0, 10.000081, 9.968797 
3.0450034e+3, 1.848648e+2, -1162550.5, -1195713.0, 0.087153725, 0.000020276342, 0.00007048516, -1162550.5, -34225.57, 0.0, 10.00008, 9.956358 
3.0450034e+3, 1.948212e+2, -1064401.6, -1097826.5, -0.20901015, 0.00002019757, -0.000054352033, -1064401.6, -33649.414, 0.0, 10.00008, 9.956015 
3.0450034e+3, 2.0477094e+2, -976238.25, -1019428.75, 0.06985656, 0.000020130978, 0.00007089292, -976238.25, -42993.316, 0.0, 10.00008, 9.9432535 
3.0450034e+3, 2.1471421e+2, -877952.0, -921404.25, -0.22495668, 0.00002007756, -0.00012391027, -877952.0, -42151.36, 0.0, 10.000079, 9.942912 
3.0450034e+3, 2.2465082e+2, -789666.44, -843139.5, 0.06552792, 0.000020016872, 0.00012371998, -789666.44, -51244.402, 0.0, 10.000079, 9.929871 
3.0450034e+3, 2.3458076e+2, -691233.7, -744961.7, -0.21612008, 0.000019947942, -0.0000862578, -691233.7, -50125.05, 0.0, 10.000079, 9.92954 
3.0450034e+3, 2.4450374e+2, -602910.1, -667014.3, 0.06848551, 0.000019890082, 0.00007705256, -602910.1, -59046.793, 0.0, 10.000079, 9.9161 
3.0450034e+3, 2.5441998e+2, -504158.2, -568339.44, -0.2103794, 0.000019845435, -0.00010453417, -504158.2, -57473.813, 0.0, 10.000078, 9.915999 
3.0450034e+3, 2.643291e+2, -415923.3, -490984.47, 0.08099507, 0.000019801966, 0.00014262155, -415923.3, -66348.47, 0.0, 10.000078, 9.901928 
3.0450034e+3, 2.7423155e+2, -316638.75, -391371.9, -0.18097499, 0.000019759946, -0.00020163556, -316638.75, -64108.223, 0.0, 10.000078, 9.9023485 
3.0450034e+3, 2.8412583e+2, -230165.69, -318078.3, 0.106333464, 0.000019717834, 0.00023068214, -230165.69, -74598.84, 0.0, 10.000078, 9.885403 
3.0450034e+3, 2.9401228e+2, -130460.16, -217762.55, -0.14236882, 0.000019675575, -0.0002518152, -130460.16, -71780.53, 0.0, 10.000078, 9.886181 
3.0450034e+3, 3.0392668e+2, -40717.79, -84749.586, 0.12994206, 0.000019635556, 0.00017443838, -40717.79, -40717.79, 0.0, 10.000078, 9.942136 
3.0450034e+3, 3.138707e+2, -39640.0, -82510.86, -0.11361992, 0.000019598901, -0.000054240012, -39640.0, -39640.0, 0.0, 10.000078, 9.943646 
3.0550036e+3, 1.2499418e+2, -1719846.5, -1724217.1, 0.076285124, 0.000021266513, 0.000025492178, -1719846.5, -4789.448, 0.0, 10.000082, 9.9942875 
3.0550036e+3, 1.3498838e+2, -1622467.3, -1627428.3, -0.24137121, 0.000021075752, -0.00007290651, -1622467.3, -5353.29, 0.0, 10.000082, 9.9935055 
3.0550036e+3, 1.4497589e+2, -1534365.6, -1548138.4, 0.0074371095, 0.000020958309, 0.000083132305, -1534365.6, -15129.398, 0.0, 10.000082, 9.981826 
3.0550036e+3, 1.5495773e+2, -1436639.0, -1450814.8, -0.296298, 0.000020910451, -0.000052832434, -1436639.0, -15224.767, 0.0, 10.000081, 9.981295 
3.0550036e+3, 1.6493295e+2, -1348588.9, -1371946.0, -0.0048062894, 0.000020839592, 0.000048619368, -1348588.9, -24931.771, 0.0, 10.000081, 9.96921 
3.0550036e+3, 1.7490219e+2, -1250631.8, -1274304.5, -0.31348908, 0.000020745276, -0.000070116585, -1250631.8, -24673.324, 0.0, 10.000081, 9.968796 
3.0550033e+3, 1.8486482e+2, -1162551.3, -1195714.3, -0.026085662, 0.000020670559, 0.00007058214, -1162551.3, -34226.36, 0.0, 10.00008, 9.956357 
3.0550033e+3, 1.9482121e+2, -1064402.4, -1097827.8, -0.32213062, 0.000020616324, -0.00005429087, -1064402.4, -33650.188, 0.0, 10.00008, 9.956015 
3.0550033e+3, 2.0477094e+2, -976238.9, -1019430.0, -0.029338602, 0.000020546639, 0.00007093908, -976238.9, -42994.082, 0.0, 10.00008, 9.943253 
3.0550033e+3, 2.1471423e+2, -877952.7, -921405.5, -0.32387057, 0.000020460213, -0.00012385657, -877952.7, -42152.11, 0.0, 10.000079, 9.942912 
3.0550033e+3, 2.2465083e+2, -789667.06, -843140.75, -0.024920585, 0.000020394464, 0.00012377536, -789667.06, -51245.125, 0.0, 10.000079, 9.929871 
3.0550033e+3, 2.3458077e+2, -691234.3, -744962.9, -0.30629918, 0.000020352107, -0.00008620736, -691234.3, -50125.758, 0.0, 10.000079, 9.929539 
3.0550033e+3, 2.4450375e+2, -602910.75, -667015.56, -0.009566135, 0.000020300919, 0.00007709437, -602910.75, -59047.496, 0.0, 10.000079, 9.916099 
3.0550033e+3, 2.5441998e+2, -504158.78, -568340.6, -0.28785282, 0.000020239142, -0.000104505394, -504158.78, -57474.5, 0.0, 10.000078, 9.915998 
3.0550033e+3, 2.643291e+2, -415923.9, -490985.7, 0.016744828, 0.000020185433, 0.0001426488, -415923.9, -66349.125, 0.0, 10.000078, 9.901927 
3.0550033e+3, 2.742316e+2, -316639.34, -391373.1, -0.24434853, 0.000020141999, -0.00020159513, -316639.34, -64108.87, 0.0, 10.000078, 9.902348 
3.0550033e+3, 2.8412583e+2, -230166.27, -318079.5, 0.053288862, 0.00002010523, 0.00023072872, -230166.27, -74599.48, 0.0, 10.000078, 9.885402 
3.0550033e+3, 2.940123e+2, -130460.73, -217763.73, -0.19448888, 0.00002007751, -0.0002517721, -130460.73, -71781.15, 0.0, 10.000078, 9.88618 
3.0550033e+3, 3.039267e+2, -40718.37, -84750.8, 0.09335092, 0.000020034402, 0.00017447375, -40718.37, -40718.37, 0.0, 10.000078, 9.942135 
3.0550033e+3, 3.138707e+2, -39640.582, -82512.08, -0.14839157, 0.000019968395, -0.000054218475, -39640.582, -39640.582, 0.0, 10.000078, 9.943646 
3.0650038e+3, 1.24994196e+2, -1719841.4, -1724215.3, 0.22352736, 0.000021681659, 0.000025662766, -1719841.4, -4784.482, 0.0, 10.000086, 9.994287 
3.0650038e+3, 1.349884e+2, -1622462.1, -1627426.5, -0.10837217, 0.00002149592, -0.0000730439, -1622462.1, -5348.394, 0.0, 10.000086, 9.993505 
3.0650038e+3, 1.449759e+2, -1534360.6, -1548136.6, 0.13524675, 0.000021378777, 0.0000834219, -1534360.6, -15124.5205, 0.0, 10.000085, 9.981825 
3.0650038e+3, 1.5495774e+2, -1436634.0, -1450813.1, -0.17771412, 0.000021326387, -0.000052751257, -1436634.0, -15219.932, 0.0, 10.000085, 9.981294 
3.0650038e+3, 1.6493297e+2, -1348584.0, -1371944.4, 0.117314935, 0.000021252403, 0.000048627167, -1348584.0, -24926.98, 0.0, 10.000085, 9.969209 
3.0650038e+3, 1.749022e+2, -1250626.9, -1274302.9, -0.20121878, 0.000021156397, -0.00007004424, -1250626.9, -24668.566, 0.0, 10.000084, 9.968795 
3.0650038e+3, 1.8486482e+2, -1162546.3, -1195712.6, 0.084019996, 0.000021079955, 0.00007067406, -1162546.3, -34221.613, 0.0, 10.000084, 9.956356 
3.0650038e+3, 1.9482122e+2, -1064397.5, -1097826.1, -0.22671893, 0.000021023954, -0.000054226446, -1064397.5, -33645.484, 0.0, 10.000084, 9.956014 
3.0650038e+3, 2.0477095e+2, -976234.06, -1019428.5, 0.068094775, 0.000020952439, 0.00007099404, -976234.06, -42989.418, 0.0, 10.000083, 9.943252 
3.0650038e+3, 2.1471424e+2, -877947.94, -921404.0, -0.23703483, 0.00002086411, -0.00012379153, -877947.94, -42147.48, 0.0, 10.000083, 9.942911 
3.0650038e+3, 2.2465083e+2, -789662.3, -843139.25, 0.057962798, 0.000020797968, 0.00012383914, -789662.3, -51240.52, 0.0, 10.000083, 9.92987 
3.0650038e+3, 2.3458077e+2, -691229.6, -744961.44, -0.23784372, 0.000020756928, -0.0000861577, -691229.6, -50121.19, 0.0, 10.000083, 9.929539 
3.0650038e+3, 2.4450375e+2, -602906.1, -667014.1, 0.06275824, 0.00002070413, 0.0000771379, -602906.1, -59042.953, 0.0, 10.000082, 9.916098 
3.0650035e+3, 2.5441998e+2, -504154.2, -568339.25, -0.220228, 0.000020637248, -0.00010445844, -504154.2, -57469.98, 0.0, 10.000082, 9.9159975 
3.0650035e+3, 2.643291e+2, -415919.34, -490984.34, 0.08494239, 0.000020581076, 0.00014269543, -415919.34, -66344.63, 0.0, 10.000082, 9.901927 
3.0650035e+3, 2.742316e+2, -316634.8, -391371.78, -0.19453353, 0.00002053855, -0.00020155363, -316634.8, -64104.414, 0.0, 10.000082, 9.902347 
3.0650035e+3, 2.8412586e+2, -230161.77, -318078.2, 0.100227945, 0.000020501944, 0.00023076628, -230161.77, -74595.03, 0.0, 10.000081, 9.885401 
3.0650035e+3, 2.940123e+2, -130456.26, -217762.44, -0.15606435, 0.000020473355, -0.0002517369, -130456.26, -71776.73, 0.0, 10.000081, 9.886179 
3.0650035e+3, 3.039267e+2, -40713.98, -84749.59, 0.13833156, 0.000020429212, 0.00017450358, -40713.98, -40713.98, 0.0, 10.000081, 9.942134 
3.0650035e+3, 3.138707e+2, -39636.223, -82510.89, -0.10240911, 0.000020361938, -0.000054198543, -39636.223, -39636.223, 0.0, 10.000081, 9.9436455 
3.075004e+3, 1.2499422e+2, -1719842.1, -1724216.8, 0.07325888, 0.000022100769, 0.000025822603, -1719842.1, -4785.4346, 0.0, 10.000086, 9.994286 
3.0750036e+3, 1.3498841e+2, -1622462.9, -1627427.9, -0.25866136, 0.000021926386, -0.00007319201, -1622462.9, -5349.33, 0.0, 10.000086, 9.993504 
3.0750036e+3, 1.4497593e+2, -1534361.3, -1548138.0, -0.006191105, 0.000021808957, 0.000083715924, -1534361.3, -15125.404, 0.0, 10.000085, 9.981825 
3.0750036e+3, 1.5495779e+2, -1436634.6, -1450814.4, -0.31914648, 0.00002174449, -0.000052666288, -1436634.6, -15220.797, 0.0, 10.000085, 9.981293 
3.0750036e+3, 1.6493298e+2, -1348584.6, -1371945.8, -0.010124627, 0.000021670881, 0.000048635327, -1348584.6, -24927.848, 0.0, 10.000085, 9.969208 
3.0750036e+3, 1.7490222e+2, -1250627.6, -1274304.3, -0.32859132, 0.000021587966, -0.00006997779, -1250627.6, -24669.418, 0.0, 10.000084, 9.968794 
3.0750036e+3, 1.8486483e+2, -1162547.0, -1195714.0, -0.035129394, 0.000021504517, 0.00007076095, -1162547.0, -34222.44, 0.0, 10.000084, 9.956356 
3.0750036e+3, 1.9482124e+2, -1064398.1, -1097827.5, -0.34577978, 0.000021420485, -0.000054158765, -1064398.1, -33646.297, 0.0, 10.000084, 9.956013 
3.0750036e+3, 2.0477097e+2, -976234.75, -1019429.8, -0.03602597, 0.000021348396, 0.0000710578, -976234.75, -42990.21, 0.0, 10.000083, 9.943251 
3.0750036e+3, 2.1471424e+2, -877948.56, -921405.3, -0.34085447, 0.000021289228, -0.00012371514, -877948.56, -42148.258, 0.0, 10.000083, 9.94291 
3.0750036e+3, 2.2465084e+2, -789663.0, -843140.56, -0.037814684, 0.000021227359, 0.0001239113, -789663.0, -51241.277, 0.0, 10.000083, 9.929869 
3.0750036e+3, 2.3458079e+2, -691230.25, -744962.7, -0.3333638, 0.000021162412, -0.00008610883, -691230.25, -50121.93, 0.0, 10.000083, 9.929538 
3.0750036e+3, 2.4450377e+2, -602906.75, -667015.44, -0.017090918, 0.000021099735, 0.000077183126, -602906.75, -59043.67, 0.0, 10.000082, 9.916097 
3.0750036e+3, 2.5441998e+2, -504154.8, -568340.5, -0.29933563, 0.000021039754, -0.00010439335, -504154.8, -57470.684, 0.0, 10.000082, 9.9159975 
3.0750036e+3, 2.6432914e+2, -415919.97, -490985.6, 0.0157902, 0.000020988884, 0.00014276139, -415919.97, -66345.336, 0.0, 10.000082, 9.901926 
3.0750036e+3, 2.742316e+2, -316635.44, -391373.03, -0.26302147, 0.000020949583, -0.00020151102, -316635.44, -64105.1, 0.0, 10.000082, 9.902346 
3.0750036e+3, 2.8412586e+2, -230162.36, -318079.4, 0.04516277, 0.000020907972, 0.00023079485, -230162.36, -74595.69, 0.0, 10.000081, 9.8854 
3.0750036e+3, 2.940123e+2, -130456.84, -217763.66, -0.20992896, 0.000020863123, -0.0002517095, -130456.84, -71777.37, 0.0, 10.000081, 9.886179 
3.0750036e+3, 3.039267e+2, -40714.563, -84750.805, 0.09580333, 0.00002082, 0.00017452787, -40714.563, -40714.563, 0.0, 10.000081, 9.942133 
3.0750036e+3, 3.1387073e+2, -39636.805, -82512.1, -0.14361897, 0.000020779506, -0.00005418021, -39636.805, -39636.805, 0.0, 10.000081, 9.943645 
3.0850038e+3, 1.2499423e+2, -1719836.9, -1724214.9, 0.23871581, 0.000022537093, 0.000026004089, -1719836.9, -4780.273, 0.0, 10.00009, 9.994285 
3.0850038e+3, 1.3498843e+2, -1622457.6, -1627426.1, -0.10150651, 0.000022360195, -0.00007335447, -1622457.6, -5344.242, 0.0, 10.00009, 9.993503 
3.0850038e+3, 1.4497595e+2, -1534356.1, -1548136.3, 0.15120195, 0.000022240745, 0.00008399907, -1534356.1, -15120.337, 0.0, 10.000089, 9.981824 
3.0850038e+3, 1.549578e+2, -1436629.5, -1450812.6, -0.18222073, 0.000022174683, -0.0000525794, -1436629.5, -15215.759, 0.0, 10.000089, 9.981292 
3.0850038e+3, 1.64933e+2, -1348579.5, -1371944.0, 0.121892005, 0.000022099308, 0.000048650872, -1348579.5, -24922.85, 0.0, 10.000089, 9.969207 
3.0850038e+3, 1.7490223e+2, -1250622.5, -1274302.6, -0.20882952, 0.000022014454, -0.000069906, -1250622.5, -24664.477, 0.0, 10.000088, 9.968794 
3.0850038e+3, 1.8486485e+2, -1162541.9, -1195712.4, 0.08460164, 0.00002192771, 0.000070852075, -1162541.9, -34217.523, 0.0, 10.000088, 9.956355 
3.0850038e+3, 1.9482125e+2, -1064393.1, -1097825.9, -0.2389345, 0.000021838967, -0.000054086937, -1064393.1, -33641.4, 0.0, 10.000087, 9.956012 
3.0850038e+3, 2.0477098e+2, -976229.75, -1019428.25, 0.06891374, 0.000021766324, 0.00007111853, -976229.75, -42985.348, 0.0, 10.000087, 9.943251 
3.0850038e+3, 2.1471426e+2, -877943.7, -921403.75, -0.24875627, 0.0000217111, -0.00012365662, -877943.7, -42143.457, 0.0, 10.000087, 9.942909 
3.0850038e+3, 2.2465086e+2, -789658.06, -843139.0, 0.055853464, 0.000021648239, 0.00012396798, -789658.06, -51236.5, 0.0, 10.000087, 9.929868 
3.0850038e+3, 2.345808e+2, -691225.44, -744961.2, -0.24811643, 0.000021576709, -0.000086053595, -691225.44, -50117.176, 0.0, 10.000086, 9.929537 
3.0850038e+3, 2.4450378e+2, -602901.94, -667013.94, 0.067551486, 0.000021510954, 0.000077236764, -602901.94, -59038.945, 0.0, 10.000086, 9.916097 
3.0850038e+3, 2.5442e+2, -504150.03, -568339.06, -0.23703182, 0.00002145209, -0.00010434151, -504150.03, -57465.996, 0.0, 10.000086, 9.915997 
3.0850038e+3, 2.6432914e+2, -415915.22, -490984.2, 0.07521141, 0.000021401287, 0.00014280896, -415915.22, -66340.67, 0.0, 10.000086, 9.901925 
3.0850038e+3, 2.742316e+2, -316630.75, -391371.66, -0.20374873, 0.000021360705, -0.00020147087, -316630.75, -64100.47, 0.0, 10.000085, 9.902345 
3.0850038e+3, 2.8412586e+2, -230157.69, -318078.03, 0.11172218, 0.000021318054, 0.00023082989, -230157.69, -74591.07, 0.0, 10.000085, 9.885399 
3.0850038e+3, 2.940123e+2, -130452.22, -217762.33, -0.15690897, 0.000021272499, -0.0002516764, -130452.22, -71772.79, 0.0, 10.000085, 9.886178 
3.0850038e+3, 3.039267e+2, -40710.01, -84749.56, 0.14228265, 0.00002122827, 0.00017455895, -40710.01, -40710.01, 0.0, 10.000085, 9.942132 
3.0850038e+3, 3.1387073e+2, -39632.25, -82510.86, -0.121730976, 0.000021186075, -0.000054151456, -39632.25, -39632.25, 0.0, 10.000085, 9.943644 
3.095004e+3, 1.24994256e+2, -1719837.6, -1724216.4, 0.07569568, 0.00002299061, 0.000026208416, -1719837.6, -4781.253, 0.0, 10.00009, 9.994284 
3.095004e+3, 1.3498844e+2, -1622458.4, -1627427.6, -0.26455024, 0.000022797349, -0.00007353128, -1622458.4, -5345.205, 0.0, 10.00009, 9.993502 
3.095004e+3, 1.4497596e+2, -1534356.9, -1548137.6, 0.007137037, 0.000022674147, 0.000084271356, -1534356.9, -15121.274, 0.0, 10.000089, 9.981823 
3.095004e+3, 1.5495782e+2, -1436630.3, -1450814.1, -0.32626253, 0.000022616956, -0.000052490588, -1436630.3, -15216.678, 0.0, 10.000089, 9.981291 
3.095004e+3, 1.6493301e+2, -1348580.3, -1371945.4, -0.014341714, 0.000022537675, 0.000048673795, -1348580.3, -24923.75, 0.0, 10.000089, 9.969206 
3.095004e+3, 1.7490225e+2, -1250623.3, -1274304.0, -0.34502783, 0.000022435874, -0.000069828864, -1250623.3, -24665.361, 0.0, 10.000088, 9.968793 
3.095004e+3, 1.8486486e+2, -1162542.6, -1195713.8, -0.03577222, 0.000022349544, 0.00007094745, -1162542.6, -34218.383, 0.0, 10.000088, 9.956354 
3.095004e+3, 1.9482127e+2, -1064393.9, -1097827.3, -0.35913318, 0.000022279377, -0.00005401097, -1064393.9, -33642.242, 0.0, 10.000087, 9.956011 
3.095004e+3, 2.04771e+2, -976230.5, -1019429.56, -0.04505664, 0.000022206195, 0.00007117624, -976230.5, -42986.17, 0.0, 10.000087, 9.94325 
3.095004e+3, 2.1471427e+2, -877944.4, -921405.1, -0.36260337, 0.000022129738, -0.00012361592, -877944.4, -42144.266, 0.0, 10.000087, 9.942908 
3.095004e+3, 2.2465086e+2, -789658.75, -843140.3, -0.04176898, 0.000022060627, 0.00012400921, -789658.75, -51237.277, 0.0, 10.000087, 9.929867 
3.095004e+3, 2.345808e+2, -691226.06, -744962.5, -0.34522069, 0.000021999811, -0.000085992, -691226.06, -50117.94, 0.0, 10.000086, 9.929536 
3.095004e+3, 2.4450378e+2, -602902.6, -667015.3, -0.01680942, 0.000021937773, 0.000077298784, -602902.6, -59039.71, 0.0, 10.000086, 9.916096 
3.095004e+3, 2.5442e+2, -504150.72, -568340.44, -0.32078215, 0.00002187425, -0.00010430289, -504150.72, -57466.746, 0.0, 10.000086, 9.915996 
3.0950037e+3, 2.6432914e+2, -415915.84, -490985.47, 0.0014939652, 0.000021818287, 0.00014283818, -415915.84, -66341.375, 0.0, 10.000086, 9.901924 
3.0950037e+3, 2.742316e+2, -316631.34, -391372.94, -0.2768074, 0.000021771924, -0.00020143318, -316631.34, -64101.16, 0.0, 10.000085, 9.902344 
3.0950037e+3, 2.8412586e+2, -230158.31, -318079.3, 0.052237865, 0.000021732192, 0.0002308714, -230158.31, -74591.76, 0.0, 10.000085, 9.885399 
3.0950037e+3, 2.940123e+2, -130452.83, -217763.6, -0.2151775, 0.000021701464, -0.00025163748, -130452.83, -71773.45, 0.0, 10.000085, 9.886177 
3.0950037e+3, 3.039267e+2, -40710.64, -84750.875, 0.10060784, 0.000021654007, 0.00017459679, -40710.64, -40710.64, 0.0, 10.000085, 9.942131 
3.0950037e+3, 3.1387073e+2, -39632.887, -82512.18, -0.16146106, 0.000021581669, -0.000054112294, -39632.887, -39632.887, 0.0, 10.000085, 9.943643 
3.105004e+3, 1.2499428e+2, -1719832.1, -1724214.4, 0.23585221, 0.000023445453, 0.000026390566, -1719832.1, -4775.929, 0.0, 10.000093, 9.994283 
3.105004e+3, 1.3498849e+2, -1622452.9, -1627425.8, -0.116462894, 0.000023247072, -0.00007368965, -1622452.9, -5339.8896, 0.0, 10.000093, 9.993501 
3.105004e+3, 1.4497599e+2, -1534351.4, -1548135.8, 0.15501554, 0.000023119768, 0.00008458013, -1534351.4, -15115.98, 0.0, 10.0000925, 9.981822 
3.1050038e+3, 1.5495783e+2, -1436624.8, -1450812.3, -0.19208054, 0.000023059436, -0.000052397994, -1436624.8, -15211.449, 0.0, 10.0000925, 9.98129 
3.1050038e+3, 1.6493303e+2, -1348574.9, -1371943.6, 0.1197295, 0.000022977805, 0.000048687576, -1348574.9, -24918.557, 0.0, 10.0000925, 9.969206 
3.1050038e+3, 1.7490229e+2, -1250617.9, -1274302.3, -0.22313942, 0.000022874461, -0.00006975359, -1250617.9, -24660.197, 0.0, 10.000092, 9.968792 
3.1050038e+3, 1.8486488e+2, -1162537.4, -1195712.0, 0.08433498, 0.000022787646, 0.00007104431, -1162537.4, -34213.254, 0.0, 10.000092, 9.956353 
3.1050038e+3, 1.9482127e+2, -1064388.6, -1097825.6, -0.2527228, 0.000022718094, -0.000053934284, -1064388.6, -33637.188, 0.0, 10.000091, 9.95601 
3.1050038e+3, 2.0477101e+2, -976225.3, -1019427.94, 0.06381155, 0.000022643868, 0.00007124047, -976225.3, -42981.15, 0.0, 10.000091, 9.943249 
3.1050038e+3, 2.1471429e+2, -877939.25, -921403.5, -0.26029265, 0.000022564569, -0.00012355576, -877939.25, -42139.26, 0.0, 10.000091, 9.942907 
3.1050038e+3, 2.2465087e+2, -789653.7, -843138.75, 0.060782526, 0.000022490865, 0.00012406903, -789653.7, -51232.297, 0.0, 10.00009, 9.929866 
3.1050038e+3, 2.3458081e+2, -691221.0, -744961.0, -0.26686704, 0.000022423472, -0.00008592826, -691221.0, -50112.99, 0.0, 10.00009, 9.929535 
3.1050038e+3, 2.445038e+2, -602897.56, -667013.75, 0.059219915, 0.000022361617, 0.00007735853, -602897.56, -59034.793, 0.0, 10.00009, 9.916095 
3.1050038e+3, 2.5442e+2, -504145.75, -568338.94, -0.2405013, 0.000022306349, -0.0001042566, -504145.75, -57461.89, 0.0, 10.00009, 9.915995 
3.1050038e+3, 2.6432914e+2, -415910.94, -490984.03, 0.0878694, 0.000022251426, 0.00014287836, -415910.94, -66336.555, 0.0, 10.000089, 9.901923 
3.1050038e+3, 2.7423164e+2, -316626.47, -391371.5, -0.21724506, 0.000022196902, -0.00020138978, -316626.47, -64096.35, 0.0, 10.000089, 9.902344 
3.1050038e+3, 2.8412586e+2, -230153.44, -318077.9, 0.103843555, 0.000022151742, 0.00023091616, -230153.44, -74586.945, 0.0, 10.000089, 9.885398 
3.1050038e+3, 2.940123e+2, -130447.99, -217762.2, -0.17330875, 0.000022119366, -0.00025159397, -130447.99, -71768.67, 0.0, 10.000089, 9.886176 
3.1050038e+3, 3.039267e+2, -40705.9, -84749.57, 0.1476613, 0.00002207361, 0.00017463336, -40705.9, -40705.9, 0.0, 10.000089, 9.94213 
3.1050038e+3, 3.1387073e+2, -39628.19, -82510.91, -0.11133343, 0.000022007907, -0.000054091128, -39628.19, -39628.19, 0.0, 10.000089, 9.943642 
3.115004e+3, 1.2499429e+2, -1719832.9, -1724216.0, 0.0756528, 0.00002390163, 0.000026552232, -1719832.9, -4776.945, 0.0, 10.000093, 9.994282 
3.115004e+3, 1.349885e+2, -1622453.6, -1627427.3, -0.27668634, 0.000023709359, -0.000073829615, -1622453.6, -5340.888, 0.0, 10.000093, 9.9935 
3.115004e+3, 1.4497602e+2, -1534352.1, -1548137.3, -0.00019984761, 0.000023577597, 0.00008492535, -1534352.1, -15116.958, 0.0, 10.0000925, 9.981821 
3.115004e+3, 1.5495785e+2, -1436625.6, -1450813.8, -0.34729236, 0.00002350213, -0.00005230163, -1436625.6, -15212.406, 0.0, 10.0000925, 9.981289 
3.115004e+3, 1.6493304e+2, -1348575.6, -1371945.1, -0.018845268, 0.000023419703, 0.000048692225, -1348575.6, -24919.492, 0.0, 10.0000925, 9.969205 
3.115004e+3, 1.749023e+2, -1250618.6, -1274303.8, -0.36163116, 0.000023330194, -0.000069680165, -1250618.6, -24661.115, 0.0, 10.000092, 9.968791 
3.115004e+3, 1.848649e+2, -1162538.1, -1195713.4, -0.048739716, 0.000023241995, 0.00007114268, -1162538.1, -34214.15, 0.0, 10.000092, 9.956352 
3.115004e+3, 1.9482128e+2, -1064389.4, -1097827.0, -0.3857426, 0.000023155124, -0.000053856886, -1064389.4, -33638.066, 0.0, 10.000091, 9.956009 
3.115004e+3, 2.0477101e+2, -976226.0, -1019429.3, -0.05076198, 0.000023079352, 0.00007131121, -976226.0, -42981.992, 0.0, 10.000091, 9.943248 
3.115004e+3, 2.147143e+2, -877939.94, -921404.9, -0.37450013, 0.000023015578, -0.00012347617, -877939.94, -42140.09, 0.0, 10.000091, 9.942906 
3.115004e+3, 2.2465089e+2, -789654.4, -843140.2, -0.03987967, 0.000022938935, 0.00012414744, -789654.4, -51233.133, 0.0, 10.00009, 9.929865 
3.115004e+3, 2.3458083e+2, -691221.75, -744962.4, -0.36708722, 0.0000228477, -0.00008586238, -691221.75, -50113.81, 0.0, 10.00009, 9.929534 
3.115004e+3, 2.445038e+2, -602898.25, -667015.1, -0.035874803, 0.000022782498, 0.000077415985, -602898.25, -59035.56, 0.0, 10.00009, 9.916094 
3.115004e+3, 2.5442004e+2, -504146.4, -568340.25, -0.33536476, 0.000022748382, -0.00010420265, -504146.4, -57462.637, 0.0, 10.00009, 9.915994 
3.115004e+3, 2.6432917e+2, -415911.63, -490985.4, 0.014366685, 0.00002270069, 0.00014292946, -415911.63, -66337.32, 0.0, 10.000089, 9.901922 
3.115004e+3, 2.7423164e+2, -316627.16, -391372.9, -0.28931904, 0.000022635626, -0.00020134066, -316627.16, -64097.1, 0.0, 10.000089, 9.902343 
3.115004e+3, 2.841259e+2, -230154.1, -318079.22, 0.042871777, 0.000022576702, 0.00023096419, -230154.1, -74587.66, 0.0, 10.000089, 9.885397 
3.115004e+3, 2.9401234e+2, -130448.625, -217763.52, -0.23329002, 0.00002252623, -0.00025154583, -130448.625, -71769.36, 0.0, 10.000089, 9.886175 
3.115004e+3, 3.0392674e+2, -40706.527, -84750.88, 0.09508039, 0.000022487096, 0.00017466865, -40706.527, -40706.527, 0.0, 10.000089, 9.94213 
3.115004e+3, 3.1387073e+2, -39628.82, -82512.22, -0.16305818, 0.000022464756, -0.000054087934, -39628.82, -39628.82, 0.0, 10.000089, 9.943641 
3.1250042e+3, 1.24994315e+2, -1719827.1, -1724214.0, 0.2580291, 0.0000243694, 0.000026732805, -1719827.1, -4771.356, 0.0, 10.000098, 9.994281 
3.1250042e+3, 1.3498852e+2, -1622448.0, -1627425.3, -0.117486715, 0.000024170342, -0.00007398627, -1622448.0, -5335.3843, 0.0, 10.000097, 9.993499 
3.1250042e+3, 1.4497603e+2, -1534346.5, -1548135.3, 0.15512562, 0.000024035724, 0.00008525405, -1534346.5, -15111.479, 0.0, 10.000097, 9.98182 
3.1250042e+3, 1.5495786e+2, -1436619.9, -1450811.9, -0.20225802, 0.000023961287, -0.00005221397, -1436619.9, -15206.948, 0.0, 10.000096, 9.981288 
3.1250042e+3, 1.6493306e+2, -1348570.1, -1371943.3, 0.12485481, 0.000023878923, 0.00004869686, -1348570.1, -24914.076, 0.0, 10.000096, 9.969204 
3.1250042e+3, 1.7490232e+2, -1250613.3, -1274301.9, -0.22970241, 0.000023788494, -0.00006959712, -1250613.3, -24655.785, 0.0, 10.000095, 9.96879 
3.1250042e+3, 1.8486491e+2, -1162532.6, -1195711.6, 0.08603964, 0.000023697936, 0.00007124864, -1162532.6, -34208.855, 0.0, 10.000095, 9.956351 
3.1250042e+3, 1.948213e+2, -1064384.0, -1097825.3, -0.26363152, 0.000023607192, -0.000053786058, -1064384.0, -33632.78, 0.0, 10.000095, 9.956008 
3.1250042e+3, 2.0477103e+2, -976220.6, -1019427.6, 0.066468544, 0.000023527036, 0.000071371025, -976220.6, -42976.73, 0.0, 10.000094, 9.943247 
3.1250042e+3, 2.147143e+2, -877934.56, -921403.2, -0.28254676, 0.000023458335, -0.00012340122, -877934.56, -42134.875, 0.0, 10.000094, 9.942905 
3.1250042e+3, 2.246509e+2, -789649.1, -843138.5, 0.052596778, 0.00002338339, 0.00012422226, -789649.1, -51227.96, 0.0, 10.000094, 9.929864 
3.1250042e+3, 2.3458084e+2, -691216.5, -744960.8, -0.26945594, 0.000023301358, -0.000085804975, -691216.5, -50108.707, 0.0, 10.000093, 9.929533 
3.1250042e+3, 2.4450381e+2, -602893.06, -667013.5, 0.06438461, 0.000023234305, 0.000077467055, -602893.06, -59030.48, 0.0, 10.000093, 9.916093 
3.1250042e+3, 2.5442004e+2, -504141.25, -568338.7, -0.26587433, 0.00002318513, -0.00010414466, -504141.25, -57457.56, 0.0, 10.000093, 9.915993 
3.1250042e+3, 2.6432917e+2, -415906.5, -490983.88, 0.0808204, 0.00002313249, 0.00014298593, -415906.5, -66332.26, 0.0, 10.0000925, 9.901921 
3.1250042e+3, 2.7423164e+2, -316622.06, -391371.4, -0.2215487, 0.000023075376, -0.00020129653, -316622.06, -64092.098, 0.0, 10.0000925, 9.902342 
3.1250042e+3, 2.841259e+2, -230149.05, -318077.75, 0.11715466, 0.000023020215, 0.00023100282, -230149.05, -74582.68, 0.0, 10.0000925, 9.885396 
3.125004e+3, 2.9401234e+2, -130443.65, -217762.1, -0.17347649, 0.000022967719, -0.00025150328, -130443.65, -71764.44, 0.0, 10.0000925, 9.886174 
3.125004e+3, 3.0392674e+2, -40701.625, -84749.53, 0.14787233, 0.000022923665, 0.00017471047, -40701.625, -40701.625, 0.0, 10.0000925, 9.942129 
3.125004e+3, 3.1387073e+2, -39623.9, -82510.87, -0.13245618, 0.000022892156, -0.000054053726, -39623.9, -39623.9, 0.0, 10.0000925, 9.94364 
3.1350043e+3, 1.2499434e+2, -1719828.0, -1724215.5, 0.08295883, 0.00002484874, 0.000026933936, -1719828.0, -4772.4346, 0.0, 10.000098, 9.99428 
3.1350043e+3, 1.3498855e+2, -1622448.9, -1627426.9, -0.29258054, 0.000024630031, -0.0000741596, -1622448.9, -5336.444, 0.0, 10.000097, 9.993498 
3.1350043e+3, 1.4497605e+2, -1534347.3, -1548136.9, -0.00067861093, 0.000024494157, 0.000085566266, -1534347.3, -15112.486, 0.0, 10.000097, 9.981819 
3.1350043e+3, 1.5495789e+2, -1436620.8, -1450813.4, -0.35803542, 0.000024436886, -0.000052135, -1436620.8, -15207.936, 0.0, 10.000096, 9.981287 
3.1350043e+3, 1.6493309e+2, -1348570.9, -1371944.8, -0.029477255, 0.000024355444, 0.00004870148, -1348570.9, -24915.043, 0.0, 10.000096, 9.969203 
3.135004e+3, 1.7490233e+2, -1250614.0, -1274303.4, -0.38403833, 0.000024249366, -0.000069504466, -1250614.0, -24656.736, 0.0, 10.000095, 9.968789 
3.135004e+3, 1.8486492e+2, -1162533.5, -1195713.1, -0.04471911, 0.000024155474, 0.00007136222, -1162533.5, -34209.79, 0.0, 10.000095, 9.95635 
3.135004e+3, 1.9482131e+2, -1064384.8, -1097826.8, -0.39412513, 0.000024074277, -0.000053721786, -1064384.8, -33633.695, 0.0, 10.000095, 9.956007 
3.135004e+3, 2.0477104e+2, -976221.4, -1019429.1, -0.05558764, 0.000023986915, 0.00007141994, -976221.4, -42977.633, 0.0, 10.000094, 9.943246 
3.135004e+3, 2.1471432e+2, -877935.4, -921404.7, -0.4044302, 0.00002389286, -0.00012333089, -877935.4, -42135.76, 0.0, 10.000094, 9.942904 
3.135004e+3, 2.2465092e+2, -789649.8, -843139.94, -0.060152866, 0.000023824246, 0.00012429353, -789649.8, -51228.793, 0.0, 10.000094, 9.929863 
3.135004e+3, 2.3458084e+2, -691217.25, -744962.2, -0.38192362, 0.000023784405, -0.000085756015, -691217.25, -50109.52, 0.0, 10.000093, 9.929532 
3.135004e+3, 2.4450383e+2, -602893.8, -667015.0, -0.025661549, 0.000023716995, 0.00007751176, -602893.8, -59031.313, 0.0, 10.000093, 9.916092 
3.135004e+3, 2.5442004e+2, -504141.97, -568340.1, -0.35484618, 0.000023616612, -0.00010408263, -504141.97, -57458.37, 0.0, 10.000093, 9.915992 
3.135004e+3, 2.6432917e+2, -415907.16, -490985.28, -0.0015067656, 0.000023546867, 0.00014304773, -415907.16, -66333.02, 0.0, 10.0000925, 9.90192 
3.135004e+3, 2.7423164e+2, -316622.75, -391372.78, -0.30344215, 0.000023516159, -0.00020125734, -316622.75, -64092.848, 0.0, 10.0000925, 9.902341 
3.135004e+3, 2.841259e+2, -230149.72, -318079.16, 0.04878779, 0.00002348226, 0.00023103211, -230149.72, -74583.42, 0.0, 10.0000925, 9.885395 
3.135004e+3, 2.9401234e+2, -130444.31, -217763.47, -0.2406338, 0.000023443787, -0.00025146638, -130444.31, -71765.16, 0.0, 10.0000925, 9.886173 
3.135004e+3, 3.0392674e+2, -40702.297, -84750.93, 0.09955555, 0.000023383287, 0.0001747588, -40702.297, -40702.297, 0.0, 10.0000925, 9.942128 
3.135004e+3, 3.1387073e+2, -39624.574, -82512.266, -0.17856982, 0.000023290168, -0.00005398855, -39624.574, -39624.574, 0.0, 10.0000925, 9.943639 
3.1450045e+3, 1.2499436e+2, -1719822.0, -1724213.5, 0.2517208, 0.000025332936, 0.00002713606, -1719822.0, -4766.668, 0.0, 10.000102, 9.994279 
3.1450045e+3, 1.3498856e+2, -1622442.9, -1627424.9, -0.13337377, 0.000025105908, -0.00007431736, -1622442.9, -5330.687, 0.0, 10.000101, 9.993497 
3.1450045e+3, 1.4497608e+2, -1534341.4, -1548134.8, 0.15866241, 0.000024968711, 0.00008590954, -1534341.4, -15106.742, 0.0, 10.000101, 9.981818 
3.1450045e+3, 1.549579e+2, -1436614.9, -1450811.4, -0.20444308, 0.000024917063, -0.00005204969, -1436614.9, -15202.304, 0.0, 10.000101, 9.981286 
3.1450045e+3, 1.649331e+2, -1348565.1, -1371942.9, 0.12515561, 0.00002483462, 0.000048701626, -1348565.1, -24909.477, 0.0, 10.0001, 9.969202 
3.1450045e+3, 1.7490235e+2, -1250608.3, -1274301.5, -0.25241092, 0.000024720784, -0.00006941296, -1250608.3, -24651.17, 0.0, 10.0001, 9.968788 
3.1450045e+3, 1.8486494e+2, -1162527.8, -1195711.3, 0.08562811, 0.000024622741, 0.00007148316, -1162527.8, -34204.23, 0.0, 10.000099, 9.956349 
3.1450045e+3, 1.9482133e+2, -1064379.1, -1097824.9, -0.27482352, 0.000024541174, -0.000053636188, -1064379.1, -33628.207, 0.0, 10.000099, 9.956006 
3.1450045e+3, 2.0477106e+2, -976215.8, -1019427.3, 0.0698244, 0.000024454152, 0.00007148513, -976215.8, -42972.2, 0.0, 10.000098, 9.943245 
3.1450045e+3, 2.1471433e+2, -877929.8, -921402.94, -0.27662706, 0.000024361212, -0.00012326993, -877929.8, -42130.38, 0.0, 10.000098, 9.9429035 
3.1450045e+3, 2.2465092e+2, -789644.3, -843138.2, 0.06770983, 0.000024290184, 0.00012435508, -789644.3, -51223.43, 0.0, 10.000098, 9.929862 
3.1450042e+3, 2.3458086e+2, -691211.75, -744960.5, -0.2879828, 0.000024243931, -0.0000856884, -691211.75, -50104.168, 0.0, 10.000097, 9.929531 
3.1450042e+3, 2.4450384e+2, -602888.4, -667013.3, 0.06558269, 0.00002417359, 0.00007757802, -602888.4, -59025.99, 0.0, 10.000097, 9.916091 
3.1450042e+3, 2.5442004e+2, -504136.63, -568338.56, -0.2626657, 0.000024074434, -0.000104026585, -504136.63, -57453.117, 0.0, 10.000097, 9.915991 
3.1450042e+3, 2.6432917e+2, -415901.88, -490983.7, 0.09267231, 0.00002400471, 0.00014309831, -415901.88, -66327.805, 0.0, 10.000097, 9.901919 
3.1450042e+3, 2.7423167e+2, -316617.47, -391371.25, -0.2300002, 0.000023972478, -0.00020120613, -316617.47, -64087.66, 0.0, 10.000096, 9.90234 
3.1450042e+3, 2.841259e+2, -230144.48, -318077.63, 0.119109474, 0.000023937035, 0.00023108041, -230144.48, -74578.25, 0.0, 10.000096, 9.885394 
3.1450042e+3, 2.9401234e+2, -130439.09, -217761.97, -0.18337499, 0.000023896993, -0.00025142587, -130439.09, -71760.01, 0.0, 10.000096, 9.886172 
3.1450042e+3, 3.0392674e+2, -40697.17, -84749.53, 0.15727542, 0.000023832477, 0.00017479525, -40697.17, -40697.17, 0.0, 10.000096, 9.942127 
3.1450042e+3, 3.1387073e+2, -39619.484, -82510.89, -0.13076417, 0.000023731716, -0.00005395054, -39619.484, -39619.484, 0.0, 10.000096, 9.943638 
3.1550047e+3, 1.2499438e+2, -1719822.9, -1724215.1, 0.07949856, 0.00002582198, 0.000027341697, -1719822.9, -4767.7773, 0.0, 10.000102, 9.994278 
3.1550047e+3, 1.3498858e+2, -1622443.8, -1627426.5, -0.3056146, 0.000025597958, -0.00007445955, -1622443.8, -5331.7773, 0.0, 10.000101, 9.993496 
3.1550047e+3, 1.449761e+2, -1534342.1, -1548136.4, -0.018684521, 0.00002545937, 0.00008628383, -1534342.1, -15107.772, 0.0, 10.000101, 9.981817 
3.1550044e+3, 1.5495792e+2, -1436615.8, -1450812.9, -0.3818088, 0.000025401816, -0.00005195805, -1436615.8, -15203.3125, 0.0, 10.000101, 9.981285 
3.1550044e+3, 1.6493312e+2, -1348566.0, -1371944.5, -0.024442011, 0.000025316454, 0.000048697304, -1348566.0, -24910.502, 0.0, 10.0001, 9.969201 
3.1550044e+3, 1.7490236e+2, -1250609.1, -1274303.1, -0.40187043, 0.000025202742, -0.00006932261, -1250609.1, -24652.178, 0.0, 10.0001, 9.968787 
3.1550044e+3, 1.8486497e+2, -1162528.5, -1195712.8, -0.05672711, 0.000025099733, 0.000071611474, -1162528.5, -34205.195, 0.0, 10.000099, 9.956348 
3.1550044e+3, 1.9482134e+2, -1064379.9, -1097826.5, -0.41710535, 0.000025007888, -0.000053529293, -1064379.9, -33629.15, 0.0, 10.000099, 9.956005 
3.1550044e+3, 2.0477107e+2, -976216.56, -1019428.8, -0.06036711, 0.000024928748, 0.000071566545, -976216.56, -42973.105, 0.0, 10.000098, 9.943244 
3.1550044e+3, 2.1471435e+2, -877930.56, -921404.44, -0.4065824, 0.000024863344, -0.00012321836, -877930.56, -42131.27, 0.0, 10.000098, 9.942903 
3.1550044e+3, 2.2465093e+2, -789645.1, -843139.75, -0.0426418, 0.00002478117, 0.00012440694, -789645.1, -51224.336, 0.0, 10.000098, 9.929861 
3.1550044e+3, 2.3458087e+2, -691212.56, -744962.0, -0.39769408, 0.000024679986, -0.00008560214, -691212.56, -50105.055, 0.0, 10.000097, 9.92953 
3.1550044e+3, 2.4450384e+2, -602889.1, -667014.8, -0.035659984, 0.000024604144, 0.00007766581, -602889.1, -59026.83, 0.0, 10.000097, 9.91609 
3.1550044e+3, 2.5442007e+2, -504137.34, -568340.0, -0.36351377, 0.00002455856, -0.00010397651, -504137.34, -57453.934, 0.0, 10.000097, 9.91599 
3.1550044e+3, 2.643292e+2, -415902.6, -490985.16, 0.006709966, 0.000024505953, 0.0001431377, -415902.6, -66328.62, 0.0, 10.000097, 9.901918 
3.1550044e+3, 2.7423167e+2, -316618.2, -391372.72, -0.31497422, 0.000024444316, -0.0002011429, -316618.2, -64088.457, 0.0, 10.000096, 9.902339 
3.1550044e+3, 2.8412592e+2, -230145.17, -318079.06, 0.050327446, 0.000024384559, 0.00023114769, -230145.17, -74579.016, 0.0, 10.000096, 9.885393 
3.1550044e+3, 2.9401234e+2, -130439.79, -217763.39, -0.2507038, 0.000024327384, -0.0002513818, -130439.79, -71760.76, 0.0, 10.000096, 9.886171 
3.1550044e+3, 3.0392674e+2, -40697.867, -84750.98, 0.10116031, 0.000024271265, 0.00017481983, -40697.867, -40697.867, 0.0, 10.000096, 9.942126 
3.1550044e+3, 3.1387076e+2, -39620.184, -82512.336, -0.18557169, 0.000024216737, -0.000053939642, -39620.184, -39620.184, 0.0, 10.000096, 9.943637 
3.1650046e+3, 1.24994405e+2, -1719816.6, -1724213.0, 0.2728092, 0.000026324253, 0.000027567525, -1719816.6, -4761.726, 0.0, 10.000107, 9.994277 
3.1650046e+3, 1.349886e+2, -1622437.6, -1627424.5, -0.12195582, 0.000026103062, -0.00007465479, -1622437.6, -5325.874, 0.0, 10.000106, 9.993495 
3.1650046e+3, 1.4497611e+2, -1534336.1, -1548134.3, 0.16346185, 0.00002596079, 0.00008661899, -1534336.1, -15101.896, 0.0, 10.000106, 9.981816 
3.1650046e+3, 1.5495795e+2, -1436609.6, -1450810.9, -0.22344135, 0.00002589289, -0.00005184633, -1436609.6, -15197.415, 0.0, 10.000105, 9.981284 
3.1650046e+3, 1.6493313e+2, -1348559.9, -1371942.5, 0.1354233, 0.000025802558, 0.00004872357, -1348559.9, -24904.643, 0.0, 10.000105, 9.969199 
3.1650046e+3, 1.7490238e+2, -1250603.1, -1274301.1, -0.24733768, 0.000025689355, -0.000069240865, -1250603.1, -24646.402, 0.0, 10.000104, 9.968786 
3.1650046e+3, 1.8486498e+2, -1162522.6, -1195710.9, 0.0984355, 0.000025587475, 0.00007171249, -1162522.6, -34199.46, 0.0, 10.000104, 9.956347 
3.1650046e+3, 1.9482139e+2, -1064374.0, -1097824.6, -0.2785844, 0.000025497411, -0.000053446904, -1064374.0, -33623.47, 0.0, 10.000103, 9.956004 
3.1650043e+3, 2.0477109e+2, -976210.75, -1019426.94, 0.07112511, 0.000025416359, 0.000071642426, -976210.75, -42967.45, 0.0, 10.000103, 9.943243 
3.1650043e+3, 2.1471438e+2, -877924.8, -921402.6, -0.30485323, 0.000025345049, -0.00012313585, -877924.8, -42125.64, 0.0, 10.000103, 9.942902 
3.1650043e+3, 2.2465095e+2, -789639.4, -843137.94, 0.060611773, 0.000025258458, 0.00012448819, -789639.4, -51218.74, 0.0, 10.000102, 9.92986 
3.1650043e+3, 2.3458089e+2, -691206.9, -744960.3, -0.2902705, 0.000025154543, -0.000085531094, -691206.9, -50099.516, 0.0, 10.000102, 9.929529 
3.1650043e+3, 2.4450386e+2, -602883.5, -667013.06, 0.07501743, 0.00002507911, 0.00007772819, -602883.5, -59021.324, 0.0, 10.000102, 9.916089 
3.1650043e+3, 2.5442007e+2, -504131.78, -568338.3, -0.27437705, 0.000025037696, -0.00010392101, -504131.78, -57448.473, 0.0, 10.000101, 9.915989 
3.1650043e+3, 2.643292e+2, -415897.06, -490983.53, 0.0937431, 0.000024983623, 0.00014319172, -415897.06, -66323.19, 0.0, 10.000101, 9.901917 
3.1650043e+3, 2.7423167e+2, -316612.72, -391371.13, -0.24243994, 0.00002491334, -0.00020108353, -316612.72, -64083.05, 0.0, 10.000101, 9.902338 
3.1650043e+3, 2.8412592e+2, -230139.7, -318077.44, 0.12439429, 0.00002484892, 0.00023120725, -230139.7, -74573.625, 0.0, 10.000101, 9.885392 
3.1650043e+3, 2.9401237e+2, -130434.38, -217761.84, -0.18102211, 0.000024792558, -0.00025132913, -130434.38, -71755.42, 0.0, 10.0001, 9.88617 
3.1650043e+3, 3.0392674e+2, -40692.574, -84749.53, 0.1755044, 0.000024738083, 0.00017485941, -40692.574, -40692.574, 0.0, 10.0001, 9.942125 
3.1650043e+3, 3.1387076e+2, -39614.906, -82510.9, -0.121269196, 0.00002468638, -0.00005392229, -39614.906, -39614.906, 0.0, 10.0001, 9.943636 
3.175005e+3, 1.2499443e+2, -1719817.5, -1724214.6, 0.07148229, 0.000026839749, 0.000027815731, -1719817.5, -4762.8677, 0.0, 10.000107, 9.994276 
3.1750047e+3, 1.3498862e+2, -1622438.5, -1627426.1, -0.3233072, 0.000026621212, -0.00007490298, -1622438.5, -5326.995, 0.0, 10.000106, 9.993494 
3.1750047e+3, 1.4497614e+2, -1534337.0, -1548135.9, -0.00406254, 0.000026472957, 0.00008691509, -1534337.0, -15102.988, 0.0, 10.000106, 9.981815 
3.1750047e+3, 1.5495797e+2, -1436610.5, -1450812.5, -0.39092746, 0.000026390288, -0.000051714578, -1436610.5, -15198.486, 0.0, 10.000105, 9.981283 
3.1750047e+3, 1.6493316e+2, -1348560.8, -1371944.1, -0.02891406, 0.000026292933, 0.00004878037, -1348560.8, -24905.69, 0.0, 10.000105, 9.969198 
3.1750047e+3, 1.7490241e+2, -1250604.0, -1274302.8, -0.41166535, 0.000026180625, -0.00006916772, -1250604.0, -24647.432, 0.0, 10.000104, 9.968785 
3.1750047e+3, 1.8486501e+2, -1162523.5, -1195712.5, -0.051334668, 0.000026085956, 0.000071786264, -1162523.5, -34200.465, 0.0, 10.000104, 9.9563465 
3.1750047e+3, 1.948214e+2, -1064374.9, -1097826.1, -0.4281973, 0.000026009711, -0.000053388976, -1064374.9, -33624.457, 0.0, 10.000103, 9.956003 
3.1750047e+3, 2.047711e+2, -976211.6, -1019428.56, -0.05971916, 0.000025916977, 0.00007171278, -976211.6, -42968.43, 0.0, 10.000103, 9.943242 
3.1750047e+3, 2.147144e+2, -877925.6, -921404.2, -0.4353119, 0.000025806377, -0.00012302249, -877925.6, -42126.598, 0.0, 10.000103, 9.942901 
3.1750047e+3, 2.2465096e+2, -789640.1, -843139.5, -0.059016712, 0.000025722082, 0.00012459875, -789640.1, -51219.645, 0.0, 10.000102, 9.929859 
3.1750047e+3, 2.345809e+2, -691207.6, -744961.8, -0.40956038, 0.000025667541, -0.000085475214, -691207.6, -50100.402, 0.0, 10.000102, 9.929528 
3.1750047e+3, 2.4450387e+2, -602884.25, -667014.6, -0.03136328, 0.000025598429, 0.00007776518, -602884.25, -59022.207, 0.0, 10.000102, 9.916088 
3.1750047e+3, 2.544201e+2, -504132.53, -568339.9, -0.3801441, 0.000025511861, -0.00010386009, -504132.53, -57449.34, 0.0, 10.000101, 9.915988 
3.1750047e+3, 2.643292e+2, -415897.8, -490985.06, 0.0062981, 0.00002543777, 0.00014326033, -415897.8, -66324.04, 0.0, 10.000101, 9.9019165 
3.1750047e+3, 2.742317e+2, -316613.47, -391372.63, -0.32866555, 0.000025379568, -0.000201028, -316613.47, -64083.883, 0.0, 10.000101, 9.902337 
3.1750044e+3, 2.8412592e+2, -230140.42, -318078.9, 0.046636354, 0.000025330099, 0.00023125915, -230140.42, -74574.41, 0.0, 10.000101, 9.885391 
3.1750044e+3, 2.9401237e+2, -130435.086, -217763.3, -0.25803208, 0.00002529247, -0.00025126786, -130435.086, -71756.19, 0.0, 10.0001, 9.886169 
3.1750044e+3, 3.0392677e+2, -40693.29, -84751.016, 0.115583025, 0.000025232895, 0.00017491395, -40693.29, -40693.29, 0.0, 10.0001, 9.942123 
3.1750044e+3, 3.1387076e+2, -39615.62, -82512.39, -0.17919354, 0.00002514068, -0.000053898486, -39615.62, -39615.62, 0.0, 10.0001, 9.943635 
3.185005e+3, 1.24994464e+2, -1719811.0, -1724212.5, 0.27928483, 0.000027364005, 0.000028015838, -1719811.0, -4756.6772, 0.0, 10.000111, 9.994275 
3.185005e+3, 1.3498865e+2, -1622432.1, -1627424.0, -0.1302203, 0.000027136635, -0.00007508705, -1622432.1, -5320.7744, 0.0, 10.000111, 9.993493 
3.185005e+3, 1.4497615e+2, -1534330.5, -1548133.8, 0.18879528, 0.000026982934, 0.00008729722, -1534330.5, -15096.796, 0.0, 10.00011, 9.981814 
3.185005e+3, 1.5495798e+2, -1436604.3, -1450810.4, -0.21953902, 0.000026898137, -0.000051605406, -1436604.3, -15192.404, 0.0, 10.00011, 9.981282 
3.185005e+3, 1.6493317e+2, -1348554.5, -1371942.0, 0.13969815, 0.000026801363, 0.000048792775, -1348554.5, -24899.654, 0.0, 10.000109, 9.969197 
3.185005e+3, 1.7490242e+2, -1250597.8, -1274300.8, -0.25253743, 0.000026692396, -0.000069072135, -1250597.8, -24641.432, 0.0, 10.000109, 9.968783 
3.1850046e+3, 1.8486503e+2, -1162517.4, -1195710.5, 0.108648784, 0.000026594416, 0.00007190871, -1162517.4, -34194.5, 0.0, 10.000108, 9.956346 
3.1850046e+3, 1.9482142e+2, -1064368.8, -1097824.3, -0.28696576, 0.000026507905, -0.000053298616, -1064368.8, -33618.53, 0.0, 10.000108, 9.956002 
3.1850046e+3, 2.0477112e+2, -976205.56, -1019426.6, 0.088376485, 0.000026411495, 0.000071787705, -976205.56, -42962.535, 0.0, 10.000108, 9.943241 
3.1850046e+3, 2.1471441e+2, -877919.6, -921402.3, -0.28689826, 0.000026304353, -0.00012294493, -877919.6, -42120.766, 0.0, 10.000107, 9.9429 
3.1850046e+3, 2.2465098e+2, -789634.2, -843137.6, 0.08931793, 0.000026221382, 0.00012467518, -789634.2, -51213.85, 0.0, 10.000107, 9.929858 
3.1850046e+3, 2.345809e+2, -691201.75, -744960.0, -0.2903885, 0.000026165748, -0.00008540415, -691201.75, -50094.652, 0.0, 10.000106, 9.929527 
3.1850046e+3, 2.4450389e+2, -602878.44, -667012.8, 0.0822735, 0.000026092912, 0.00007783379, -602878.44, -59016.48, 0.0, 10.000106, 9.916087 
3.1850046e+3, 2.544201e+2, -504126.72, -568338.1, -0.27581456, 0.000025999485, -0.000103790444, -504126.72, -57443.64, 0.0, 10.000106, 9.915987 
3.1850046e+3, 2.6432922e+2, -415892.06, -490983.34, 0.11454731, 0.000025922964, 0.00014332394, -415892.06, -66318.375, 0.0, 10.000106, 9.901916 
3.1850046e+3, 2.742317e+2, -316607.78, -391370.97, -0.23189066, 0.000025867976, -0.00020097944, -316607.78, -64078.28, 0.0, 10.000105, 9.902336 
3.1850046e+3, 2.8412592e+2, -230134.77, -318077.28, 0.13799836, 0.000025818315, 0.00023130233, -230134.77, -74568.83, 0.0, 10.000105, 9.88539 
3.1850046e+3, 2.9401237e+2, -130429.47, -217761.67, -0.19178168, 0.000025775813, -0.00025121678, -130429.47, -71750.64, 0.0, 10.000105, 9.8861685 
3.1850046e+3, 3.0392677e+2, -40687.77, -84749.49, 0.17272587, 0.00002571438, 0.00017496549, -40687.77, -40687.77, 0.0, 10.000105, 9.942122 
3.1850046e+3, 3.1387076e+2, -39610.15, -82510.9, -0.13344106, 0.000025624824, -0.000053857602, -39610.15, -39610.15, 0.0, 10.000104, 9.943634 
3.1950048e+3, 1.2499449e+2, -1719812.0, -1724214.3, 0.09056983, 0.000027897013, 0.000028170614, -1719812.0, -4757.8623, 0.0, 10.000111, 9.994274 
3.1950048e+3, 1.3498867e+2, -1622433.0, -1627425.8, -0.31897166, 0.00002764935, -0.00007520714, -1622433.0, -5321.9404, 0.0, 10.000111, 9.993491 
3.1950048e+3, 1.4497618e+2, -1534331.5, -1548135.5, 0.0002559398, 0.000027490742, 0.00008776524, -1534331.5, -15097.947, 0.0, 10.00011, 9.981813 
3.1950048e+3, 1.5495801e+2, -1436605.1, -1450812.1, -0.40807286, 0.00002741643, -0.000051518775, -1436605.1, -15193.531, 0.0, 10.00011, 9.981281 
3.1950048e+3, 1.6493319e+2, -1348555.4, -1371943.6, -0.027981391, 0.000027327816, 0.000048760874, -1348555.4, -24900.73, 0.0, 10.000109, 9.969196 
3.1950048e+3, 1.7490244e+2, -1250598.6, -1274302.4, -0.42012772, 0.000027224638, -0.000068954156, -1250598.6, -24642.49, 0.0, 10.000109, 9.968782 
3.1950048e+3, 1.8486504e+2, -1162518.1, -1195712.1, -0.04510394, 0.000027112852, 0.00007207974, -1162518.1, -34195.56, 0.0, 10.000108, 9.956345 
3.1950048e+3, 1.9482143e+2, -1064369.6, -1097825.9, -0.44056144, 0.000026992031, -0.000053175892, -1064369.6, -33619.563, 0.0, 10.000108, 9.956001 
3.1950048e+3, 2.0477113e+2, -976206.4, -1019428.25, -0.052004825, 0.000026899934, 0.00007186721, -976206.4, -42963.52, 0.0, 10.000108, 9.94324 
3.1950048e+3, 2.1471442e+2, -877920.44, -921403.94, -0.42702472, 0.000026838921, -0.00012290312, -877920.44, -42121.73, 0.0, 10.000107, 9.942899 
3.1950048e+3, 2.24651e+2, -789635.06, -843139.25, -0.03550127, 0.000026756301, 0.00012471755, -789635.06, -51214.824, 0.0, 10.000107, 9.929857 
3.1950048e+3, 2.3458092e+2, -691202.56, -744961.6, -0.4147105, 0.000026649199, -0.00008531793, -691202.56, -50095.605, 0.0, 10.000106, 9.929526 
3.1950048e+3, 2.4450389e+2, -602879.2, -667014.44, -0.025903895, 0.000026562619, 0.00007793396, -602879.2, -59017.395, 0.0, 10.000106, 9.916086 
3.1950048e+3, 2.544201e+2, -504127.5, -568339.7, -0.38323048, 0.000026500555, -0.0001037121, -504127.5, -57444.535, 0.0, 10.000106, 9.915986 
3.1950048e+3, 2.6432922e+2, -415892.84, -490984.94, 0.01759131, 0.00002643916, 0.00014338254, -415892.84, -66319.26, 0.0, 10.000106, 9.901915 
3.1950048e+3, 2.742317e+2, -316608.53, -391372.56, -0.32815346, 0.000026378533, -0.00020093785, -316608.53, -64079.14, 0.0, 10.000105, 9.902334 
3.1950048e+3, 2.8412595e+2, -230135.53, -318078.84, 0.057647504, 0.00002631357, 0.00023133682, -230135.53, -74569.67, 0.0, 10.000105, 9.885389 
3.1950048e+3, 2.9401237e+2, -130430.22, -217763.23, -0.2707073, 0.000026242633, -0.0002511759, -130430.22, -71751.45, 0.0, 10.000105, 9.886168 
3.1950048e+3, 3.0392677e+2, -40688.51, -84751.04, 0.10311608, 0.000026182573, 0.00017501404, -40688.51, -40688.51, 0.0, 10.000105, 9.9421215 
3.1950048e+3, 3.1387076e+2, -39610.89, -82512.44, -0.2019742, 0.000026138765, -0.000053799668, -39610.89, -39610.89, 0.0, 10.000104, 9.943633 
3.2050052e+3, 1.2499451e+2, -1719805.3, -1724211.9, 0.31295812, 0.000028428267, 0.000028389592, -1719805.3, -4751.3286, 0.0, 10.000115, 9.994273 
3.2050052e+3, 1.349887e+2, -1622426.4, -1627423.5, -0.13569276, 0.00002817597, -0.00007539156, -1622426.4, -5315.5356, 0.0, 10.000115, 9.99349 
3.2050052e+3, 1.449762e+2, -1534324.9, -1548133.3, 0.1810189, 0.00002801709, 0.00008816341, -1534324.9, -15091.5625, 0.0, 10.000114, 9.981812 
3.2050052e+3, 1.5495802e+2, -1436598.5, -1450809.9, -0.21656936, 0.000027946819, -0.00005142429, -1436598.5, -15187.18, 0.0, 10.000114, 9.98128 
3.2050052e+3, 1.6493323e+2, -1348548.9, -1371941.5, 0.16862692, 0.000027856848, 0.000048758273, -1348548.9, -24894.443, 0.0, 10.0001135, 9.969195 
3.205005e+3, 1.7490245e+2, -1250592.3, -1274300.3, -0.25842145, 0.000027746799, -0.00006884287, -1250592.3, -24636.28, 0.0, 10.0001135, 9.968781 
3.205005e+3, 1.8486507e+2, -1162511.9, -1195710.0, 0.11709538, 0.000027631297, 0.00007222316, -1162511.9, -34189.37, 0.0, 10.000113, 9.956343 
3.205005e+3, 1.9482145e+2, -1064363.3, -1097823.9, -0.27921247, 0.000027510056, -0.0000530859, -1064363.3, -33613.418, 0.0, 10.000113, 9.956 
3.205005e+3, 2.0477116e+2, -976200.1, -1019426.25, 0.10626996, 0.000027417165, 0.000071938026, -976200.1, -42957.41, 0.0, 10.000112, 9.943238 
3.205005e+3, 2.1471444e+2, -877914.25, -921401.94, -0.300563, 0.000027354954, -0.00012281437, -877914.25, -42115.668, 0.0, 10.000112, 9.942898 
3.205005e+3, 2.2465101e+2, -789628.9, -843137.3, 0.08937995, 0.000027269623, 0.0001248088, -789628.9, -51208.797, 0.0, 10.000112, 9.929856 
3.205005e+3, 2.3458093e+2, -691196.44, -744959.75, -0.29084986, 0.000027158096, -0.00008524172, -691196.44, -50089.625, 0.0, 10.000111, 9.929525 
3.205005e+3, 2.445039e+2, -602873.1, -667012.56, 0.10311286, 0.000027069256, 0.00007800342, -602873.1, -59011.45, 0.0, 10.000111, 9.916085 
3.205005e+3, 2.5442013e+2, -504121.5, -568337.9, -0.2768075, 0.000027007518, -0.00010363949, -504121.5, -57438.637, 0.0, 10.000111, 9.915985 
3.205005e+3, 2.6432922e+2, -415886.88, -490983.16, 0.11784527, 0.00002694525, 0.00014345277, -415886.88, -66313.38, 0.0, 10.00011, 9.901914 
3.205005e+3, 2.742317e+2, -316602.63, -391370.8, -0.23810999, 0.00002688222, -0.00020087708, -316602.63, -64073.313, 0.0, 10.00011, 9.902333 
3.205005e+3, 2.8412595e+2, -230129.64, -318077.13, 0.15324774, 0.000026815682, 0.00023139046, -230129.64, -74563.87, 0.0, 10.00011, 9.885388 
3.205005e+3, 2.940124e+2, -130424.39, -217761.56, -0.18350746, 0.000026744312, -0.00025112613, -130424.39, -71745.695, 0.0, 10.000109, 9.886167 
3.205005e+3, 3.0392677e+2, -40682.777, -84749.47, 0.18355107, 0.000026678686, 0.00017506526, -40682.777, -40682.777, 0.0, 10.000109, 9.942121 
3.205005e+3, 3.1387076e+2, -39605.156, -82510.88, -0.14877297, 0.000026621688, -0.00005373909, -39605.156, -39605.156, 0.0, 10.000109, 9.943632 
3.215005e+3, 1.2499454e+2, -1719806.3, -1724213.9, 0.09996999, 0.000028957782, 0.000028675111, -1719806.3, -4752.6157, 0.0, 10.000115, 9.994271 
3.215005e+3, 1.3498873e+2, -1622427.4, -1627425.4, -0.34868577, 0.000028716475, -0.00007564018, -1622427.4, -5316.8, 0.0, 10.000115, 9.993489 
3.215005e+3, 1.4497623e+2, -1534325.8, -1548134.9, -0.010332221, 0.00002856195, 0.00008849188, -1534325.8, -15092.698, 0.0, 10.000114, 9.981811 
3.215005e+3, 1.5495805e+2, -1436599.5, -1450811.6, -0.40791118, 0.000028489289, -0.00005132196, -1436599.5, -15188.294, 0.0, 10.000114, 9.981279 
3.215005e+3, 1.6493325e+2, -1348549.9, -1371943.4, -0.011385927, 0.000028388462, 0.00004878492, -1348549.9, -24895.607, 0.0, 10.0001135, 9.969194 
3.215005e+3, 1.7490248e+2, -1250593.1, -1274302.1, -0.43837392, 0.000028258914, -0.000068738256, -1250593.1, -24637.422, 0.0, 10.0001135, 9.9687805 
3.215005e+3, 1.8486509e+2, -1162512.8, -1195711.8, -0.04046735, 0.000028149767, 0.00007233903, -1162512.8, -34190.438, 0.0, 10.000113, 9.956342 
3.215005e+3, 1.9482146e+2, -1064364.1, -1097825.5, -0.4365363, 0.000028061926, -0.000053028572, -1064364.1, -33614.46, 0.0, 10.000113, 9.955999 
3.215005e+3, 2.0477118e+2, -976201.0, -1019427.94, -0.040127195, 0.000027963144, 0.000072000184, -976201.0, -42958.473, 0.0, 10.000112, 9.943237 
3.215005e+3, 2.1471445e+2, -877915.1, -921403.7, -0.44673643, 0.000027852499, -0.00012267876, -877915.1, -42116.71, 0.0, 10.000112, 9.942897 
3.215005e+3, 2.2465104e+2, -789629.7, -843139.0, -0.041090798, 0.000027761402, 0.0001249488, -789629.7, -51209.78, 0.0, 10.000112, 9.929855 
3.2150048e+3, 2.3458095e+2, -691197.3, -744961.4, -0.42082474, 0.000027692402, -0.00008517552, -691197.3, -50090.586, 0.0, 10.000111, 9.929524 
3.2150048e+3, 2.4450392e+2, -602874.0, -667014.25, -0.011108315, 0.000027612761, 0.00007804222, -602874.0, -59012.414, 0.0, 10.000111, 9.916083 
3.2150048e+3, 2.5442013e+2, -504122.34, -568339.56, -0.39027908, 0.000027520375, -0.00010357261, -504122.34, -57439.58, 0.0, 10.000111, 9.915984 
3.2150048e+3, 2.6432925e+2, -415887.66, -490984.78, 0.016214434, 0.000027441267, 0.00014353458, -415887.66, -66314.29, 0.0, 10.00011, 9.901913 
3.2150048e+3, 2.7423173e+2, -316603.4, -391372.44, -0.33896354, 0.000027379061, -0.00020079719, -316603.4, -64074.2, 0.0, 10.00011, 9.902332 
3.2150048e+3, 2.8412595e+2, -230130.42, -318078.72, 0.06717732, 0.000027324651, 0.00023146323, -230130.42, -74564.73, 0.0, 10.00011, 9.885387 
3.2150048e+3, 2.940124e+2, -130425.16, -217763.16, -0.26825842, 0.000027280796, -0.00025106748, -130425.16, -71746.54, 0.0, 10.000109, 9.886166 
3.2150048e+3, 3.0392677e+2, -40683.57, -84751.12, 0.11431762, 0.00002720268, 0.00017511916, -40683.57, -40683.57, 0.0, 10.000109, 9.94212 
3.2150048e+3, 3.138708e+2, -39605.953, -82512.53, -0.21619168, 0.000027073664, -0.00005367589, -39605.953, -39605.953, 0.0, 10.000109, 9.943631 
3.2250053e+3, 1.2499456e+2, -1719799.3, -1724211.4, 0.29793355, 0.000029516717, 0.000028945537, -1719799.3, -4745.9067, 0.0, 10.00012, 9.99427 
3.2250053e+3, 1.3498874e+2, -1622420.5, -1627423.1, -0.12509212, 0.000029268806, -0.00007585653, -1622420.5, -5310.1387, 0.0, 10.00012, 9.993488 
3.2250053e+3, 1.4497624e+2, -1534318.9, -1548132.5, 0.22300465, 0.000029108849, 0.00008887887, -1534318.9, -15086.062, 0.0, 10.000119, 9.98181 
3.2250053e+3, 1.5495807e+2, -1436592.6, -1450809.3, -0.21852493, 0.000029031866, -0.000051194085, -1436592.6, -15181.735, 0.0, 10.000119, 9.981278 
3.2250053e+3, 1.6493326e+2, -1348543.1, -1371941.1, 0.17720601, 0.000028926688, 0.00004881533, -1348543.1, -24889.105, 0.0, 10.000118, 9.969193 
3.2250053e+3, 1.749025e+2, -1250586.5, -1274299.9, -0.24373305, 0.00002879276, -0.000068640205, -1250586.5, -24630.945, 0.0, 10.000118, 9.96878 
3.2250053e+3, 1.848651e+2, -1162506.0, -1195709.6, 0.15764251, 0.000028684106, 0.00007246283, -1162506.0, -34183.992, 0.0, 10.000117, 9.956341 
3.2250053e+3, 1.9482148e+2, -1064357.6, -1097823.4, -0.27076718, 0.000028601855, -0.000052922893, -1064357.6, -33608.1, 0.0, 10.000117, 9.955997 
3.2250053e+3, 2.0477119e+2, -976194.5, -1019425.9, 0.12820855, 0.000028500635, 0.000072094175, -976194.5, -42952.156, 0.0, 10.000116, 9.943236 
3.2250053e+3, 2.1471447e+2, -877908.7, -921401.7, -0.27472302, 0.00002837886, -0.00012258948, -877908.7, -42110.426, 0.0, 10.000116, 9.942896 
3.2250053e+3, 2.2465105e+2, -789623.3, -843137.0, 0.13427068, 0.00002828456, 0.00012503589, -789623.3, -51203.523, 0.0, 10.000115, 9.929854 
3.2250053e+3, 2.3458096e+2, -691190.94, -744959.44, -0.2742691, 0.000028221335, -0.00008508772, -691190.94, -50084.37, 0.0, 10.000115, 9.9295225 
3.2250053e+3, 2.4450393e+2, -602867.7, -667012.3, 0.1309665, 0.00002814202, 0.000078123056, -602867.7, -59006.234, 0.0, 10.000115, 9.916082 
3.2250053e+3, 2.5442013e+2, -504116.1, -568337.7, -0.25545958, 0.000028043436, -0.00010350789, -504116.1, -57433.453, 0.0, 10.000114, 9.915982 
3.2250053e+3, 2.6432925e+2, -415881.47, -490982.94, 0.14938106, 0.000027960003, 0.00014359603, -415881.47, -66308.195, 0.0, 10.000114, 9.901912 
3.2250053e+3, 2.7423173e+2, -316597.25, -391370.66, -0.23204577, 0.000027895858, -0.00020072264, -316597.25, -64068.14, 0.0, 10.000114, 9.902331 
3.2250053e+3, 2.8412595e+2, -230124.3, -318076.94, 0.16449855, 0.000027840879, 0.00023154006, -230124.3, -74558.69, 0.0, 10.000114, 9.8853855 
3.2250053e+3, 2.940124e+2, -130419.086, -217761.4, -0.18860379, 0.000027798314, -0.00025100328, -130419.086, -71740.54, 0.0, 10.0001135, 9.886165 
3.2250053e+3, 3.039268e+2, -40677.613, -84749.49, 0.19376066, 0.00002771687, 0.00017516768, -40677.613, -40677.613, 0.0, 10.0001135, 9.942119 
3.2250053e+3, 3.138708e+2, -39600.023, -82510.93, -0.1413434, 0.000027577653, -0.00005364749, -39600.023, -39600.023, 0.0, 10.0001135, 9.943629 
3.2350054e+3, 1.2499459e+2, -1719800.3, -1724213.3, 0.07966974, 0.000030105033, 0.000029203735, -1719800.3, -4747.1445, 0.0, 10.00012, 9.994269 
3.2350054e+3, 1.3498877e+2, -1622421.5, -1627424.9, -0.3433985, 0.000029832952, -0.00007604067, -1622421.5, -5311.356, 0.0, 10.00012, 9.993487 
3.2350054e+3, 1.4497627e+2, -1534319.9, -1548134.4, 0.018641537, 0.000029657795, 0.000089324276, -1534319.9, -15087.309, 0.0, 10.000119, 9.981809 
3.2350054e+3, 1.549581e+2, -1436593.6, -1450811.1, -0.42286444, 0.000029574565, -0.000051040723, -1436593.6, -15182.957, 0.0, 10.000119, 9.9812765 
3.2350054e+3, 1.649333e+2, -1348544.1, -1371942.9, -0.0032489046, 0.000029471528, 0.000048849495, -1348544.1, -24890.266, 0.0, 10.000118, 9.9691925 
3.2350054e+3, 1.7490253e+2, -1250587.4, -1274301.8, -0.4240779, 0.000029348303, -0.0000685487, -1250587.4, -24632.084, 0.0, 10.000118, 9.968779 
3.2350054e+3, 1.8486512e+2, -1162507.0, -1195711.4, -0.01429328, 0.000029234296, 0.00007259454, -1162507.0, -34185.137, 0.0, 10.000117, 9.95634 
3.2350054e+3, 1.948215e+2, -1064358.6, -1097825.3, -0.44261056, 0.00002912988, -0.00005276895, -1064358.6, -33609.223, 0.0, 10.000117, 9.9559965 
3.2350054e+3, 2.047712e+2, -976195.4, -1019427.6, -0.020406844, 0.000029029668, 0.00007221994, -976195.4, -42953.22, 0.0, 10.000116, 9.943235 
3.2350054e+3, 2.1471448e+2, -877909.56, -921403.4, -0.42288223, 0.000028933986, -0.00012254647, -877909.56, -42111.47, 0.0, 10.000116, 9.942894 
3.235005e+3, 2.2465107e+2, -789624.2, -843138.75, -0.0006255522, 0.000028839047, 0.00012507019, -789624.2, -51204.574, 0.0, 10.000115, 9.929853 
3.235005e+3, 2.3458098e+2, -691191.8, -744961.2, -0.40873748, 0.00002874492, -0.000084978376, -691191.8, -50085.402, 0.0, 10.000115, 9.929522 
3.235005e+3, 2.4450395e+2, -602868.5, -667014.06, 0.009495782, 0.000028657074, 0.00007824584, -602868.5, -59007.227, 0.0, 10.000115, 9.916081 
3.235005e+3, 2.5442016e+2, -504116.94, -568339.4, -0.37631935, 0.000028576698, -0.000103445316, -504116.94, -57434.42, 0.0, 10.000114, 9.915981 
3.235005e+3, 2.6432925e+2, -415882.3, -490984.7, 0.04473445, 0.000028501423, 0.00014363717, -415882.3, -66309.164, 0.0, 10.000114, 9.90191 
3.235005e+3, 2.7423173e+2, -316598.1, -391372.38, -0.33561638, 0.000028432585, -0.0002006534, -316598.1, -64069.086, 0.0, 10.000114, 9.90233 
3.235005e+3, 2.8412598e+2, -230125.11, -318078.63, 0.072956085, 0.000028364364, 0.00023162096, -230125.11, -74559.586, 0.0, 10.000114, 9.885385 
3.235005e+3, 2.940124e+2, -130419.89, -217763.08, -0.27906972, 0.000028296916, -0.00025093346, -130419.89, -71741.42, 0.0, 10.0001135, 9.886164 
3.235005e+3, 3.039268e+2, -40678.418, -84751.17, 0.11844362, 0.000028221288, 0.00017521085, -40678.418, -40678.418, 0.0, 10.0001135, 9.942118 
3.235005e+3, 3.138708e+2, -39600.83, -82512.61, -0.21489304, 0.000028133565, -0.000053653832, -39600.83, -39600.83, 0.0, 10.0001135, 9.943628 
3.2450056e+3, 1.2499461e+2, -1719793.0, -1724210.8, 0.33601674, 0.000030691717, 0.00002944413, -1719793.0, -4740.1733, 0.0, 10.000126, 9.994268 
3.2450056e+3, 1.349888e+2, -1622414.4, -1627422.5, -0.1383365, 0.000030402252, -0.00007624381, -1622414.4, -5304.466, 0.0, 10.000125, 9.993485 
3.2450056e+3, 1.449763e+2, -1534312.8, -1548132.0, 0.22039829, 0.00003021814, 0.000089760884, -1534312.8, -15080.454, 0.0, 10.000125, 9.981808 
3.2450056e+3, 1.5495811e+2, -1436586.6, -1450808.8, -0.21435593, 0.00003013434, -0.00005091318, -1436586.6, -15176.144, 0.0, 10.000124, 9.981276 
3.2450053e+3, 1.6493331e+2, -1348537.1, -1371940.5, 0.2153507, 0.00003003111, 0.000048867172, -1348537.1, -24883.5, 0.0, 10.000123, 9.969191 
3.2450053e+3, 1.7490254e+2, -1250580.5, -1274299.4, -0.23228417, 0.000029908084, -0.00006843742, -1250580.5, -24625.404, 0.0, 10.000123, 9.968777 
3.2450053e+3, 1.8486515e+2, -1162500.1, -1195709.1, 0.17922047, 0.000029788995, 0.00007273569, -1162500.1, -34178.496, 0.0, 10.000122, 9.956339 
3.2450053e+3, 1.9482152e+2, -1064351.8, -1097823.0, -0.25196952, 0.000029673962, -0.000052664673, -1064351.8, -33602.605, 0.0, 10.000122, 9.955996 
3.2450053e+3, 2.0477122e+2, -976188.6, -1019425.44, 0.17000733, 0.00002957306, 0.000072308765, -976188.6, -42946.625, 0.0, 10.000121, 9.943234 
3.2450053e+3, 2.147145e+2, -877902.9, -921401.25, -0.26680455, 0.00002948744, -0.00012244988, -877902.9, -42104.945, 0.0, 10.000121, 9.942893 
3.2450053e+3, 2.2465108e+2, -789617.56, -843136.7, 0.15246792, 0.000029391997, 0.00012516684, -789617.56, -51198.094, 0.0, 10.000121, 9.929852 
3.2450053e+3, 2.34581e+2, -691185.25, -744959.2, -0.2599504, 0.00002928541, -0.0000848903, -691185.25, -50078.96, 0.0, 10.00012, 9.929521 
3.2450053e+3, 2.4450396e+2, -602862.0, -667012.06, 0.15967484, 0.000029193232, 0.00007832942, -602862.0, -59000.81, 0.0, 10.00012, 9.91608 
3.2450053e+3, 2.5442016e+2, -504110.44, -568337.44, -0.24600294, 0.000029118244, -0.00010336133, -504110.44, -57428.047, 0.0, 10.00012, 9.91598 
3.2450053e+3, 2.6432928e+2, -415875.88, -490982.78, 0.1738983, 0.000029043798, 0.00014371744, -415875.88, -66302.83, 0.0, 10.000119, 9.901909 
3.2450053e+3, 2.7423176e+2, -316591.72, -391370.53, -0.21916081, 0.000028969967, -0.00020058214, -316591.72, -64062.8, 0.0, 10.000119, 9.902329 
3.2450053e+3, 2.8412598e+2, -230118.73, -318076.75, 0.19140923, 0.000028896719, 0.00023168644, -230118.73, -74553.31, 0.0, 10.000119, 9.885384 
3.2450053e+3, 2.9401243e+2, -130413.58, -217761.25, -0.16612343, 0.00002882422, -0.00025086934, -130413.58, -71735.19, 0.0, 10.000118, 9.886162 
3.2450053e+3, 3.039268e+2, -40672.23, -84749.47, 0.23035727, 0.000028751445, 0.00017526768, -40672.23, -40672.23, 0.0, 10.000118, 9.942116 
3.2450053e+3, 3.138708e+2, -39594.707, -82510.94, -0.11559328, 0.000028678305, -0.000053613043, -39594.707, -39594.707, 0.0, 10.000118, 9.943627 
3.2550055e+3, 1.2499464e+2, -1719794.1, -1724212.8, 0.10513661, 0.00003127678, 0.000029669807, -1719794.1, -4741.5425, 0.0, 10.000126, 9.994267 
3.2550055e+3, 1.3498881e+2, -1622415.4, -1627424.5, -0.36923376, 0.000030976706, -0.00007646591, -1622415.4, -5305.8115, 0.0, 10.000125, 9.9934845 
3.2550055e+3, 1.4497633e+2, -1534313.8, -1548133.9, 0.011806888, 0.000030789874, 0.000090188725, -1534313.8, -15081.696, 0.0, 10.000125, 9.981806 
3.2550055e+3, 1.5495814e+2, -1436587.6, -1450810.6, -0.42293102, 0.00003071117, -0.00005081139, -1436587.6, -15177.361, 0.0, 10.000124, 9.981275 
3.2550055e+3, 1.6493334e+2, -1348538.1, -1371942.5, 0.02096454, 0.000030605417, 0.000048868398, -1348538.1, -24884.73, 0.0, 10.000123, 9.96919 
3.2550055e+3, 1.7490256e+2, -1250581.5, -1274301.4, -0.4266039, 0.000030472107, -0.00006830639, -1250581.5, -24626.613, 0.0, 10.000123, 9.968776 
3.2550055e+3, 1.8486516e+2, -1162501.1, -1195711.0, 0.008635528, 0.000030348205, 0.00007288624, -1162501.1, -34179.66, 0.0, 10.000122, 9.956338 
3.2550055e+3, 1.9482154e+2, -1064352.8, -1097824.9, -0.42229664, 0.000030234081, -0.000052609943, -1064352.8, -33603.742, 0.0, 10.000122, 9.955995 
3.2550055e+3, 2.0477124e+2, -976189.56, -1019427.3, 0.010682474, 0.0000301308, 0.000072360745, -976189.56, -42947.77, 0.0, 10.000121, 9.9432335 
3.2550055e+3, 2.1471453e+2, -877903.8, -921403.1, -0.42590404, 0.000030039237, -0.00012229987, -877903.8, -42106.066, 0.0, 10.000121, 9.942892 
3.2550055e+3, 2.246511e+2, -789618.5, -843138.5, 0.01401532, 0.000029943427, 0.00012532575, -789618.5, -51199.164, 0.0, 10.000121, 9.929851 
3.2550055e+3, 2.3458101e+2, -691186.1, -744960.94, -0.39774758, 0.00002984278, -0.00008482345, -691186.1, -50080.008, 0.0, 10.00012, 9.92952 
3.2550055e+3, 2.4450399e+2, -602862.9, -667013.9, 0.034065377, 0.000029750465, 0.00007837389, -602862.9, -59001.844, 0.0, 10.00012, 9.9160795 
3.2550055e+3, 2.544202e+2, -504111.3, -568339.25, -0.3710389, 0.000029668072, -0.00010325597, -504111.3, -57429.06, 0.0, 10.00012, 9.915979 
3.2550055e+3, 2.6432928e+2, -415876.75, -490984.56, 0.06398612, 0.000029587141, 0.00014383673, -415876.75, -66303.83, 0.0, 10.000119, 9.901908 
3.2550055e+3, 2.7423176e+2, -316592.6, -391372.28, -0.32806936, 0.000029508015, -0.00020050885, -316592.6, -64063.773, 0.0, 10.000119, 9.902328 
3.2550055e+3, 2.8412598e+2, -230119.56, -318078.44, 0.09436328, 0.000029437935, 0.00023173654, -230119.56, -74554.234, 0.0, 10.000119, 9.885383 
3.2550055e+3, 2.9401243e+2, -130414.39, -217762.94, -0.2621225, 0.000029380184, -0.00025081096, -130414.39, -71736.086, 0.0, 10.000118, 9.886161 
3.2550055e+3, 3.039268e+2, -40673.063, -84751.195, 0.14058107, 0.000029307303, 0.00017533814, -40673.063, -40673.063, 0.0, 10.000118, 9.942115 
3.2550055e+3, 3.138708e+2, -39595.54, -82512.67, -0.20465901, 0.000029211906, -0.000053525215, -39595.54, -39595.54, 0.0, 10.000118, 9.943626 
3.265006e+3, 1.2499467e+2, -1719786.5, -1724210.1, 0.35531613, 0.000031861073, 0.0000299203, -1719786.5, -4734.3, 0.0, 10.000131, 9.994266 
3.265006e+3, 1.3498884e+2, -1622408.0, -1627422.0, -0.115695566, 0.000031563457, -0.00007668104, -1622408.0, -5298.644, 0.0, 10.000131, 9.993484 
3.265006e+3, 1.4497635e+2, -1534306.4, -1548131.4, 0.27189413, 0.000031376334, 0.000090639885, -1534306.4, -15074.562, 0.0, 10.00013, 9.981805 
3.265006e+3, 1.5495817e+2, -1436580.3, -1450808.1, -0.1941978, 0.000031294454, -0.00005068636, -1436580.3, -15170.323, 0.0, 10.000129, 9.981274 
3.2650056e+3, 1.6493337e+2, -1348530.9, -1371940.0, 0.25236547, 0.00003118452, 0.000048882328, -1348530.9, -24877.752, 0.0, 10.000129, 9.969189 
3.2650056e+3, 1.7490259e+2, -1250574.4, -1274299.0, -0.20476924, 0.000031046016, -0.00006818395, -1250574.4, -24619.664, 0.0, 10.000128, 9.968775 
3.2650056e+3, 1.8486519e+2, -1162494.0, -1195708.6, 0.23294882, 0.000030919447, 0.00007304357, -1162494.0, -34172.742, 0.0, 10.000128, 9.956336 
3.2650056e+3, 1.9482157e+2, -1064345.6, -1097822.6, -0.22153816, 0.000030805302, -0.000052494765, -1064345.6, -33596.9, 0.0, 10.000127, 9.955994 
3.2650056e+3, 2.0477127e+2, -976182.56, -1019425.06, 0.2184104, 0.000030699426, 0.00007245667, -976182.56, -42940.965, 0.0, 10.000127, 9.943232 
3.2650056e+3, 2.1471454e+2, -877896.9, -921400.94, -0.21600981, 0.00003060248, -0.00012219837, -877896.9, -42099.28, 0.0, 10.000126, 9.942891 
3.2650056e+3, 2.2465111e+2, -789611.56, -843136.3, 0.22746256, 0.000030505636, 0.00012542853, -789611.56, -51192.414, 0.0, 10.000126, 9.92985 
3.2650056e+3, 2.3458102e+2, -691179.3, -744958.9, -0.2140804, 0.000030408868, -0.00008472428, -691179.3, -50073.316, 0.0, 10.000126, 9.929519 
3.2650056e+3, 2.44504e+2, -602856.06, -667011.75, 0.21025145, 0.000030315226, 0.00007846968, -602856.06, -58995.184, 0.0, 10.000125, 9.916078 
3.2650056e+3, 2.544202e+2, -504104.56, -568337.2, -0.21065114, 0.000030225288, -0.00010316325, -504104.56, -57422.43, 0.0, 10.000125, 9.915978 
3.2650056e+3, 2.643293e+2, -415870.03, -490982.6, 0.22243252, 0.000030141446, 0.00014392131, -415870.03, -66297.234, 0.0, 10.000124, 9.901907 
3.2650056e+3, 2.7423176e+2, -316585.94, -391370.34, -0.18152986, 0.000030065316, -0.00020043888, -316585.94, -64057.234, 0.0, 10.000124, 9.902327 
3.2650056e+3, 2.84126e+2, -230112.95, -318076.53, 0.23195374, 0.00002999691, 0.00023180168, -230112.95, -74547.72, 0.0, 10.000124, 9.885382 
3.2650056e+3, 2.9401243e+2, -130407.85, -217761.06, -0.15787584, 0.000029938998, -0.00025073724, -130407.85, -71729.63, 0.0, 10.000124, 9.88616 
3.2650056e+3, 3.0392683e+2, -40666.625, -84749.44, 0.22034119, 0.000029860756, 0.00017541513, -40666.625, -40666.625, 0.0, 10.000123, 9.942114 
3.2650056e+3, 3.138708e+2, -39589.094, -82510.92, -0.15628345, 0.000029752297, -0.00005345293, -39589.094, -39589.094, 0.0, 10.000123, 9.943625 
3.2750058e+3, 1.249947e+2, -1719787.6, -1724212.1, 0.113399364, 0.000032444594, 0.00003019907, -1719787.6, -4735.6733, 0.0, 10.000131, 9.994265 
3.2750058e+3, 1.3498887e+2, -1622409.0, -1627424.0, -0.35764536, 0.00003216249, -0.000076889206, -1622409.0, -5299.9946, 0.0, 10.000131, 9.993482 
3.2750058e+3, 1.4497638e+2, -1534307.4, -1548133.4, 0.046500836, 0.00003197751, 0.000091114314, -1534307.4, -15075.888, 0.0, 10.00013, 9.981804 
3.2750058e+3, 1.5495819e+2, -1436581.4, -1450810.1, -0.41956648, 0.00003188419, -0.00005053813, -1436581.4, -15171.622, 0.0, 10.000129, 9.981272 
3.2750058e+3, 1.6493338e+2, -1348531.9, -1371942.0, 0.057377957, 0.000031768424, 0.00004890893, -1348531.9, -24879.014, 0.0, 10.000129, 9.969188 
3.2750058e+3, 1.749026e+2, -1250575.4, -1274300.9, -0.3996177, 0.000031629806, -0.00006807006, -1250575.4, -24620.904, 0.0, 10.000128, 9.968774 
3.2750058e+3, 1.848652e+2, -1162495.0, -1195710.6, 0.050431203, 0.000031502706, 0.00007320767, -1162495.0, -34173.965, 0.0, 10.000128, 9.956335 
3.2750058e+3, 1.9482158e+2, -1064346.6, -1097824.5, -0.4039205, 0.000031387615, -0.000052319276, -1064346.6, -33598.098, 0.0, 10.000127, 9.955992 
3.2750058e+3, 2.0477128e+2, -976183.56, -1019426.94, 0.060076833, 0.000031278927, 0.00007259646, -976183.56, -42942.117, 0.0, 10.000127, 9.943231 
3.2750058e+3, 2.1471456e+2, -877897.8, -921402.8, -0.3738682, 0.000031177162, -0.00012214525, -877897.8, -42100.41, 0.0, 10.000126, 9.942889 
3.2750055e+3, 2.2465113e+2, -789612.5, -843138.25, 0.080665685, 0.000031078613, 0.00012547532, -789612.5, -51193.55, 0.0, 10.000126, 9.929849 
3.2750055e+3, 2.3458104e+2, -691180.25, -744960.75, -0.36051962, 0.00003098367, -0.000084592866, -691180.25, -50074.434, 0.0, 10.000126, 9.929517 
3.2750055e+3, 2.4450402e+2, -602857.0, -667013.6, 0.08306891, 0.000030887517, 0.00007861669, -602857.0, -58996.26, 0.0, 10.000125, 9.916077 
3.2750055e+3, 2.5442022e+2, -504105.47, -568339.06, -0.33692363, 0.000030789895, -0.00010308314, -504105.47, -57423.484, 0.0, 10.000125, 9.915977 
3.2750055e+3, 2.643293e+2, -415870.94, -490984.44, 0.105265856, 0.000030706702, 0.00014397122, -415870.94, -66298.266, 0.0, 10.000124, 9.901905 
3.2750055e+3, 2.742318e+2, -316586.84, -391372.2, -0.29810116, 0.00003064184, -0.00020037223, -316586.84, -64058.242, 0.0, 10.000124, 9.902326 
3.2750055e+3, 2.84126e+2, -230113.84, -318078.38, 0.1275726, 0.000030573618, 0.00023188182, -230113.84, -74548.71, 0.0, 10.000124, 9.88538 
3.2750055e+3, 2.9401243e+2, -130408.73, -217762.89, -0.2611673, 0.000030500672, -0.00025064824, -130408.73, -71730.6, 0.0, 10.000124, 9.886159 
3.2750055e+3, 3.0392683e+2, -40667.516, -84751.29, 0.13343737, 0.000030411822, 0.00017549864, -40667.516, -40667.516, 0.0, 10.000123, 9.942113 
3.2750055e+3, 3.1387082e+2, -39589.99, -82512.77, -0.24127242, 0.000030299478, -0.00005339617, -39589.99, -39589.99, 0.0, 10.000123, 9.943624 
3.285006e+3, 1.2499473e+2, -1719779.9, -1724209.5, 0.38013485, 0.000033050295, 0.00003047617, -1719779.9, -4728.1987, 0.0, 10.000136, 9.994264 
3.285006e+3, 1.349889e+2, -1622401.4, -1627421.4, -0.119866155, 0.000032772612, -0.00007712434, -1622401.4, -5292.6025, 0.0, 10.000135, 9.993481 
3.285006e+3, 1.449764e+2, -1534299.8, -1548130.6, 0.29210383, 0.000032583608, 0.00009157361, -1534299.8, -15068.51, 0.0, 10.000135, 9.981803 
3.285006e+3, 1.5495822e+2, -1436573.8, -1450807.6, -0.1748387, 0.00003247766, -0.00005040801, -1436573.8, -15164.278, 0.0, 10.000134, 9.981271 
3.285006e+3, 1.6493341e+2, -1348524.4, -1371939.5, 0.31307912, 0.000032358475, 0.000048927923, -1348524.4, -24871.738, 0.0, 10.0001335, 9.969186 
3.285006e+3, 1.7490263e+2, -1250568.0, -1274298.5, -0.16914816, 0.000032225835, -0.000067939545, -1250568.0, -24613.73, 0.0, 10.0001335, 9.968772 
3.285006e+3, 1.8486524e+2, -1162487.6, -1195708.1, 0.28610072, 0.000032100015, 0.00007337161, -1162487.6, -34166.824, 0.0, 10.000133, 9.956334 
3.285006e+3, 1.948216e+2, -1064339.3, -1097822.1, -0.17774498, 0.0000319813, -0.000052203657, -1064339.3, -33590.98, 0.0, 10.000133, 9.955991 
3.285006e+3, 2.047713e+2, -976176.25, -1019424.6, 0.28475043, 0.00003186877, 0.000072696945, -976176.25, -42935.023, 0.0, 10.000132, 9.94323 
3.285006e+3, 2.1471457e+2, -877890.56, -921400.5, -0.18348183, 0.000031762924, -0.00012202396, -877890.56, -42093.375, 0.0, 10.000132, 9.942888 
3.285006e+3, 2.2465114e+2, -789605.4, -843136.0, 0.26641652, 0.000031662614, 0.0001255957, -789605.4, -51186.555, 0.0, 10.000131, 9.929847 
3.285006e+3, 2.3458105e+2, -691173.1, -744958.56, -0.1769345, 0.00003156853, -0.000084497966, -691173.1, -50067.47, 0.0, 10.000131, 9.929516 
3.285006e+3, 2.4450403e+2, -602849.94, -667011.5, 0.27370787, 0.000031472093, 0.00007870226, -602849.94, -58989.33, 0.0, 10.000131, 9.916076 
3.285006e+3, 2.5442022e+2, -504098.47, -568336.94, -0.16635619, 0.00003137282, -0.0001029876, -504098.47, -57416.6, 0.0, 10.00013, 9.915976 
3.285006e+3, 2.6432934e+2, -415863.97, -490982.34, 0.26578796, 0.000031287454, 0.00014406907, -415863.97, -66291.414, 0.0, 10.00013, 9.901904 
3.285006e+3, 2.742318e+2, -316579.9, -391370.16, -0.15868092, 0.00003121976, -0.00020028188, -316579.9, -64051.43, 0.0, 10.00013, 9.902325 
3.285006e+3, 2.84126e+2, -230106.95, -318076.34, 0.26465815, 0.000031148913, 0.00023196507, -230106.95, -74541.914, 0.0, 10.000129, 9.885379 
3.285006e+3, 2.9401246e+2, -130401.875, -217760.92, -0.13205855, 0.00003107363, -0.00025057155, -130401.875, -71723.836, 0.0, 10.000129, 9.886158 
3.285006e+3, 3.0392683e+2, -40660.785, -84749.45, 0.26160395, 0.000030979856, 0.00017556993, -40660.785, -40660.785, 0.0, 10.000129, 9.942111 
3.285006e+3, 3.1387082e+2, -39583.313, -82510.97, -0.120854996, 0.000030858748, -0.00005332855, -39583.313, -39583.313, 0.0, 10.000128, 9.943623 
3.2950065e+3, 1.2499477e+2, -1719781.0, -1724211.6, 0.12561947, 0.000033678138, 0.000030756088, -1719781.0, -4729.6523, 0.0, 10.000136, 9.994262 
3.2950062e+3, 1.3498893e+2, -1622402.5, -1627423.5, -0.37439564, 0.000033393804, -0.00007738641, -1622402.5, -5294.0317, 0.0, 10.000135, 9.99348 
3.2950062e+3, 1.4497644e+2, -1534300.9, -1548132.6, 0.06451066, 0.000033194632, 0.00009201782, -1534300.9, -15069.85, 0.0, 10.000135, 9.981801 
3.2950062e+3, 1.5495825e+2, -1436574.8, -1450809.5, -0.40240905, 0.000033074866, -0.000050295956, -1436574.8, -15165.592, 0.0, 10.000134, 9.98127 
3.2950062e+3, 1.6493344e+2, -1348525.5, -1371941.5, 0.10087569, 0.00003295467, 0.000048939324, -1348525.5, -24873.068, 0.0, 10.0001335, 9.969185 
3.2950062e+3, 1.7490266e+2, -1250569.0, -1274300.5, -0.38127825, 0.000032834076, -0.00006779245, -1250569.0, -24615.035, 0.0, 10.0001335, 9.968771 
3.2950062e+3, 1.8486525e+2, -1162488.6, -1195710.1, 0.10539957, 0.00003271135, 0.00007353537, -1162488.6, -34168.08, 0.0, 10.000133, 9.956332 
3.2950062e+3, 1.9482163e+2, -1064340.4, -1097824.1, -0.35809872, 0.00003258635, -0.000052147767, -1064340.4, -33592.207, 0.0, 10.000133, 9.95599 
3.2950062e+3, 2.0477132e+2, -976177.25, -1019426.6, 0.1187558, 0.00003246895, 0.00007275822, -976177.25, -42936.254, 0.0, 10.000132, 9.943228 
3.2950062e+3, 2.147146e+2, -877891.6, -921402.5, -0.34918725, 0.000032359763, -0.000121834644, -877891.6, -42094.582, 0.0, 10.000132, 9.942887 
3.2950062e+3, 2.2465117e+2, -789606.3, -843137.94, 0.1179384, 0.000032257627, 0.00012578952, -789606.3, -51187.71, 0.0, 10.000131, 9.929846 
3.295006e+3, 2.3458107e+2, -691174.06, -744960.5, -0.32486558, 0.00003216344, -0.00008443949, -691174.06, -50068.598, 0.0, 10.000131, 9.929515 
3.295006e+3, 2.4450405e+2, -602850.9, -667013.44, 0.1407409, 0.000032068943, 0.00007872652, -602850.9, -58990.457, 0.0, 10.000131, 9.916075 
3.295006e+3, 2.5442022e+2, -504099.4, -568338.9, -0.29862005, 0.00003197404, -0.00010287666, -504099.4, -57417.707, 0.0, 10.00013, 9.915975 
3.295006e+3, 2.6432934e+2, -415864.94, -490984.28, 0.14525002, 0.000031883686, 0.00014421475, -415864.94, -66292.49, 0.0, 10.00013, 9.901903 
3.295006e+3, 2.7423182e+2, -316580.84, -391372.06, -0.27844992, 0.00003179908, -0.00020016784, -316580.84, -64052.484, 0.0, 10.00013, 9.902323 
3.295006e+3, 2.8412604e+2, -230107.86, -318078.22, 0.15919599, 0.000031722808, 0.00023205143, -230107.86, -74542.94, 0.0, 10.000129, 9.885378 
3.295006e+3, 2.9401246e+2, -130402.77, -217762.78, -0.23624621, 0.00003165786, -0.00025050712, -130402.77, -71724.83, 0.0, 10.000129, 9.886156 
3.295006e+3, 3.0392683e+2, -40661.69, -84751.34, 0.16228692, 0.000031564832, 0.00017562904, -40661.69, -40661.69, 0.0, 10.000129, 9.94211 
3.295006e+3, 3.1387082e+2, -39584.223, -82512.87, -0.21962053, 0.0000314301, -0.0000532501, -39584.223, -39584.223, 0.0, 10.000128, 9.943622 
3.3050063e+3, 1.249948e+2, -1719773.0, -1724208.9, 0.38846236, 0.00003432226, 0.000031058513, -1719773.0, -4721.9106, 0.0, 10.000142, 9.994261 
3.3050063e+3, 1.3498896e+2, -1622394.6, -1627420.8, -0.10923629, 0.00003401135, -0.00007762778, -1622394.6, -5286.3794, 0.0, 10.000141, 9.993478 
3.3050063e+3, 1.4497647e+2, -1534292.9, -1548130.0, 0.34756148, 0.00003380733, 0.00009250577, -1534292.9, -15062.232, 0.0, 10.000141, 9.9818 
3.3050063e+3, 1.5495828e+2, -1436567.0, -1450806.9, -0.14570144, 0.00003370447, -0.000050138748, -1436567.0, -15158.046, 0.0, 10.00014, 9.981269 
3.3050063e+3, 1.6493346e+2, -1348517.8, -1371939.0, 0.36400408, 0.000033583245, 0.00004897618, -1348517.8, -24865.572, 0.0, 10.000139, 9.969184 
3.3050063e+3, 1.7490268e+2, -1250561.3, -1274298.0, -0.12468808, 0.000033443328, -0.000067661116, -1250561.3, -24607.557, 0.0, 10.000139, 9.96877 
3.305006e+3, 1.8486528e+2, -1162481.0, -1195707.6, 0.3742226, 0.000033315686, 0.000073697855, -1162481.0, -34160.62, 0.0, 10.000138, 9.956331 
3.305006e+3, 1.9482164e+2, -1064332.8, -1097821.6, -0.108908355, 0.00003320083, -0.000052020405, -1064332.8, -33584.83, 0.0, 10.000138, 9.955988 
3.305006e+3, 2.0477134e+2, -976169.75, -1019424.2, 0.3747191, 0.000033086926, 0.00007287134, -976169.75, -42928.93, 0.0, 10.000137, 9.943227 
3.305006e+3, 2.1471462e+2, -877884.1, -921400.1, -0.09923334, 0.00003297402, -0.00012171315, -877884.1, -42087.293, 0.0, 10.000137, 9.942886 
3.305006e+3, 2.2465119e+2, -789598.9, -843135.56, 0.37307107, 0.000032867367, 0.00012591213, -789598.9, -51180.43, 0.0, 10.000136, 9.929845 
3.305006e+3, 2.3458108e+2, -691166.7, -744958.2, -0.0916617, 0.00003276776, -0.00008432398, -691166.7, -50061.348, 0.0, 10.000136, 9.929513 
3.305006e+3, 2.4450406e+2, -602843.5, -667011.2, 0.3657813, 0.00003267233, 0.000078833385, -602843.5, -58983.246, 0.0, 10.000135, 9.916073 
3.305006e+3, 2.5442025e+2, -504092.13, -568336.7, -0.094059944, 0.000032581862, -0.00010278029, -504092.13, -57410.547, 0.0, 10.000135, 9.915973 
3.305006e+3, 2.6432934e+2, -415857.66, -490982.13, 0.3426654, 0.00003248951, 0.00014430749, -415857.66, -66285.36, 0.0, 10.000135, 9.901902 
3.305006e+3, 2.7423182e+2, -316573.63, -391369.97, -0.10450862, 0.000032394717, -0.00020007003, -316573.63, -64045.38, 0.0, 10.000134, 9.902322 
3.305006e+3, 2.8412604e+2, -230100.66, -318076.13, 0.32046407, 0.000032314645, 0.0002321476, -230100.66, -74535.836, 0.0, 10.000134, 9.885377 
3.305006e+3, 2.9401246e+2, -130395.65, -217760.72, -0.093641065, 0.000032254688, -0.00025042178, -130395.65, -71717.8, 0.0, 10.000134, 9.886155 
3.305006e+3, 3.0392686e+2, -40654.71, -84749.44, 0.28691155, 0.00003216103, 0.00017569875, -40654.71, -40654.71, 0.0, 10.0001335, 9.942109 
3.305006e+3, 3.1387082e+2, -39577.266, -82510.98, -0.12379617, 0.000032017237, -0.000053203024, -39577.266, -39577.266, 0.0, 10.0001335, 9.94362 
3.3150065e+3, 1.2499483e+2, -1719774.1, -1724211.0, 0.120056234, 0.00003498265, 0.000031388066, -1719774.1, -4723.3726, 0.0, 10.000142, 9.994259 
3.3150065e+3, 1.34989e+2, -1622395.8, -1627422.9, -0.37767583, 0.000034625285, -0.00007784853, -1622395.8, -5287.817, 0.0, 10.000141, 9.993477 
3.3150065e+3, 1.449765e+2, -1534294.0, -1548132.1, 0.10955597, 0.000034421715, 0.000093037364, -1534294.0, -15063.646, 0.0, 10.000141, 9.981799 
3.3150065e+3, 1.5495831e+2, -1436568.1, -1450809.0, -0.38367125, 0.000034366396, -0.000049936487, -1436568.1, -15159.432, 0.0, 10.00014, 9.981267 
3.3150065e+3, 1.6493349e+2, -1348518.8, -1371941.0, 0.1544935, 0.000034244138, 0.000049038423, -1348518.8, -24866.93, 0.0, 10.000139, 9.969182 
3.3150065e+3, 1.749027e+2, -1250562.4, -1274300.0, -0.33406004, 0.000034053603, -0.00006754552, -1250562.4, -24608.889, 0.0, 10.000139, 9.968768 
3.3150065e+3, 1.848653e+2, -1162482.0, -1195709.6, 0.18190652, 0.000033913053, 0.00007385906, -1162482.0, -34161.93, 0.0, 10.000138, 9.95633 
3.3150065e+3, 1.9482167e+2, -1064333.8, -1097823.6, -0.30104515, 0.000033824737, -0.000051821746, -1064333.8, -33586.11, 0.0, 10.000138, 9.955987 
3.3150065e+3, 2.0477138e+2, -976170.75, -1019426.25, 0.2064637, 0.000033722667, 0.00007303617, -976170.75, -42930.184, 0.0, 10.000137, 9.943226 
3.3150065e+3, 2.1471463e+2, -877885.1, -921402.2, -0.26701128, 0.000033605676, -0.0001216593, -877885.1, -42088.527, 0.0, 10.000137, 9.942884 
3.3150065e+3, 2.246512e+2, -789599.9, -843137.6, 0.22420236, 0.000033491815, 0.00012596374, -789599.9, -51181.64, 0.0, 10.000136, 9.929843 
3.3150065e+3, 2.3458111e+2, -691167.7, -744960.2, -0.23993593, 0.00003338148, -0.00008415157, -691167.7, -50062.535, 0.0, 10.000136, 9.929512 
3.3150065e+3, 2.4450408e+2, -602844.56, -667013.2, 0.22796986, 0.00003328226, 0.00007902264, -602844.56, -58984.426, 0.0, 10.000135, 9.916072 
3.3150062e+3, 2.5442025e+2, -504093.13, -568338.7, -0.23137414, 0.00003319628, -0.000102698454, -504093.13, -57411.7, 0.0, 10.000135, 9.915972 
3.3150062e+3, 2.6432937e+2, -415858.66, -490984.16, 0.22255984, 0.00003310492, 0.00014434739, -415858.66, -66286.49, 0.0, 10.000135, 9.9019 
3.3150062e+3, 2.7423182e+2, -316574.6, -391371.97, -0.2234745, 0.00003300664, -0.00019998841, -316574.6, -64046.49, 0.0, 10.000134, 9.902321 
3.3150062e+3, 2.8412604e+2, -230101.61, -318078.06, 0.20451769, 0.000032924403, 0.00023225359, -230101.61, -74536.9, 0.0, 10.000134, 9.885375 
3.3150062e+3, 2.940125e+2, -130396.58, -217762.66, -0.20933302, 0.000032864107, -0.00025031558, -130396.58, -71718.836, 0.0, 10.000134, 9.886154 
3.3150062e+3, 3.0392686e+2, -40655.67, -84751.44, 0.18284814, 0.00003276844, 0.00017577902, -40655.67, -40655.67, 0.0, 10.0001335, 9.942107 
3.3150062e+3, 3.1387085e+2, -39578.23, -82512.99, -0.22650215, 0.00003262014, -0.000053187247, -39578.23, -39578.23, 0.0, 10.0001335, 9.943619 
3.3250067e+3, 1.2499487e+2, -1719765.8, -1724208.1, 0.43133393, 0.000035633264, 0.000031688265, -1719765.8, -4715.394, 0.0, 10.000148, 9.994258 
3.3250067e+3, 1.3498902e+2, -1622387.5, -1627420.1, -0.09643812, 0.00003527079, -0.00007808664, -1622387.5, -5279.8936, 0.0, 10.000147, 9.993475 
3.3250067e+3, 1.4497653e+2, -1534285.9, -1548129.3, 0.39834377, 0.000035064128, 0.000093562856, -1534285.9, -15055.756, 0.0, 10.000147, 9.981797 
3.3250067e+3, 1.5495834e+2, -1436560.0, -1450806.3, -0.10720468, 0.000035007623, -0.00004977714, -1436560.0, -15151.616, 0.0, 10.000146, 9.981266 
3.3250067e+3, 1.6493352e+2, -1348510.8, -1371938.4, 0.45033714, 0.000034886685, 0.000049067476, -1348510.8, -24859.164, 0.0, 10.000145, 9.969181 
3.3250067e+3, 1.7490274e+2, -1250554.4, -1274297.4, -0.051934145, 0.000034700035, -0.0000674059, -1250554.4, -24601.178, 0.0, 10.000145, 9.968767 
3.3250067e+3, 1.8486533e+2, -1162474.1, -1195707.1, 0.46895483, 0.000034554698, 0.000074040705, -1162474.1, -34154.25, 0.0, 10.000144, 9.956328 
3.3250067e+3, 1.948217e+2, -1064325.9, -1097821.1, -0.035135344, 0.000034452507, -0.000051669842, -1064325.9, -33578.445, 0.0, 10.000144, 9.955986 
3.3250064e+3, 2.047714e+2, -976162.94, -1019423.7, 0.47334707, 0.000034348068, 0.000073164345, -976162.94, -42922.54, 0.0, 10.000143, 9.943224 
3.3250064e+3, 2.1471466e+2, -877877.4, -921399.7, -0.01707269, 0.000034241173, -0.00012154832, -877877.4, -42080.934, 0.0, 10.000143, 9.9428835 
3.3250064e+3, 2.2465122e+2, -789592.1, -843135.2, 0.47295013, 0.000034129607, 0.00012607414, -789592.1, -51174.098, 0.0, 10.000142, 9.929842 
3.3250064e+3, 2.3458113e+2, -691160.0, -744957.8, -0.02324593, 0.00003401273, -0.00008402294, -691160.0, -50055.016, 0.0, 10.000142, 9.929511 
3.3250064e+3, 2.445041e+2, -602836.9, -667010.9, 0.43516716, 0.000033907767, 0.00007915547, -602836.9, -58976.914, 0.0, 10.000141, 9.91607 
3.3250064e+3, 2.5442028e+2, -504085.47, -568336.4, -0.029448032, 0.000033817, -0.00010257818, -504085.47, -57404.22, 0.0, 10.000141, 9.915971 
3.3250064e+3, 2.6432937e+2, -415851.06, -490981.9, 0.42805347, 0.000033726494, 0.00014445087, -415851.06, -66279.06, 0.0, 10.000141, 9.901899 
3.3250064e+3, 2.7423185e+2, -316567.1, -391369.78, -0.0336378, 0.00003363625, -0.00019990707, -316567.1, -64039.12, 0.0, 10.00014, 9.902319 
3.3250064e+3, 2.8412607e+2, -230094.13, -318075.88, 0.383741, 0.000033553824, 0.0002323302, -230094.13, -74529.54, 0.0, 10.00014, 9.885374 
3.3250064e+3, 2.940125e+2, -130389.14, -217760.52, -0.0538201, 0.000033482047, -0.00025021983, -130389.14, -71711.5, 0.0, 10.00014, 9.886152 
3.3250064e+3, 3.0392686e+2, -40648.36, -84749.43, 0.32215714, 0.000033379976, 0.00017587548, -40648.36, -40648.36, 0.0, 10.000139, 9.942106 
3.3250064e+3, 3.1387085e+2, -39570.977, -82511.016, -0.09467597, 0.000033232922, -0.000053117623, -39570.977, -39570.977, 0.0, 10.000139, 9.943617 
3.3350068e+3, 1.249949e+2, -1719767.0, -1724210.4, 0.15735179, 0.000036274138, 0.000031964657, -1719767.0, -4716.9395, 0.0, 10.000148, 9.994257 
3.3350068e+3, 1.3498905e+2, -1622388.6, -1627422.4, -0.37044603, 0.000035947807, -0.00007834209, -1622388.6, -5281.414, 0.0, 10.000147, 9.993474 
3.3350068e+3, 1.4497656e+2, -1534287.0, -1548131.4, 0.14901759, 0.00003573451, 0.000094082265, -1534287.0, -15057.211, 0.0, 10.000147, 9.981796 
3.3350068e+3, 1.5495835e+2, -1436561.1, -1450808.4, -0.35649762, 0.00003562821, -0.000049660586, -1436561.1, -15153.042, 0.0, 10.000146, 9.981264 
3.3350065e+3, 1.6493355e+2, -1348511.9, -1371940.5, 0.23515515, 0.000035510955, 0.00004906342, -1348511.9, -24860.564, 0.0, 10.000145, 9.969179 
3.3350065e+3, 1.7490277e+2, -1250555.5, -1274299.5, -0.26696402, 0.00003538256, -0.000067242305, -1250555.5, -24602.555, 0.0, 10.000145, 9.968766 
3.3350065e+3, 1.8486536e+2, -1162475.3, -1195709.3, 0.27941698, 0.000035240522, 0.00007424274, -1162475.3, -34155.617, 0.0, 10.000144, 9.956327 
3.3350065e+3, 1.9482172e+2, -1064327.0, -1097823.3, -0.22438598, 0.000035084147, -0.00005156457, -1064327.0, -33579.785, 0.0, 10.000144, 9.955984 
3.3350065e+3, 2.0477143e+2, -976164.0, -1019425.8, 0.2988124, 0.00003496318, 0.00007325597, -976164.0, -42923.844, 0.0, 10.000143, 9.943223 
3.3350065e+3, 2.1471468e+2, -877878.44, -921401.75, -0.19132128, 0.00003488052, -0.000121380355, -877878.44, -42082.215, 0.0, 10.000143, 9.942882 
3.3350065e+3, 2.2465125e+2, -789593.25, -843137.4, 0.32444072, 0.00003478072, 0.0001262432, -789593.25, -51175.383, 0.0, 10.000142, 9.92984 
3.3350065e+3, 2.3458114e+2, -691161.06, -744959.94, -0.17091757, 0.000034661487, -0.000083937986, -691161.06, -50056.277, 0.0, 10.000142, 9.929509 
3.3350065e+3, 2.4450411e+2, -602837.9, -667012.94, 0.2971108, 0.00003454883, 0.00007923202, -602837.9, -58978.113, 0.0, 10.000141, 9.916069 
3.3350065e+3, 2.544203e+2, -504086.5, -568338.44, -0.16707425, 0.00003444402, -0.00010241955, -504086.5, -57405.39, 0.0, 10.000141, 9.915969 
3.3350065e+3, 2.643294e+2, -415852.1, -490984.0, 0.2993716, 0.000034354238, 0.00014461778, -415852.1, -66280.234, 0.0, 10.000141, 9.901897 
3.3350062e+3, 2.7423185e+2, -316568.13, -391371.88, -0.16173175, 0.000034283526, -0.00019982601, -316568.13, -64040.27, 0.0, 10.00014, 9.902318 
3.3350062e+3, 2.8412607e+2, -230095.13, -318077.94, 0.26897925, 0.00003420288, 0.00023237754, -230095.13, -74530.66, 0.0, 10.00014, 9.885372 
3.3350062e+3, 2.940125e+2, -130390.125, -217762.55, -0.16740328, 0.00003410851, -0.00025013447, -130390.125, -71712.586, 0.0, 10.00014, 9.886151 
3.3350062e+3, 3.039269e+2, -40649.34, -84751.47, 0.20583558, 0.000033995653, 0.00017598813, -40649.34, -40649.34, 0.0, 10.000139, 9.942104 
3.3350062e+3, 3.1387085e+2, -39571.957, -82513.055, -0.21134932, 0.000033855566, -0.000052994274, -39571.957, -39571.957, 0.0, 10.000139, 9.943616 
3.345007e+3, 1.2499493e+2, -1719758.4, -1724207.4, 0.4755105, 0.000036937505, 0.000032269814, -1719758.4, -4708.694, 0.0, 10.000154, 9.994255 
3.3450067e+3, 1.3498908e+2, -1622380.3, -1627419.5, -0.06660354, 0.000036616526, -0.0000785811, -1622380.3, -5273.2686, 0.0, 10.000154, 9.993473 
3.3450067e+3, 1.4497659e+2, -1534278.5, -1548128.5, 0.4771061, 0.000036399742, 0.00009463855, -1534278.5, -15049.063, 0.0, 10.000153, 9.981794 
3.3450067e+3, 1.549584e+2, -1436552.6, -1450805.5, -0.03579127, 0.00003628091, -0.00004951437, -1436552.6, -15144.912, 0.0, 10.000152, 9.981263 
3.3450067e+3, 1.6493358e+2, -1348503.5, -1371937.6, 0.56376135, 0.000036161877, 0.000049079208, -1348503.5, -24852.5, 0.0, 10.000152, 9.969178 
3.3450067e+3, 1.7490278e+2, -1250547.3, -1274296.8, 0.029761204, 0.00003604269, -0.000067071385, -1250547.3, -24594.578, 0.0, 10.000151, 9.968764 
3.3450067e+3, 1.8486537e+2, -1162467.0, -1195706.5, 0.58928, 0.00003590521, 0.000074454045, -1162467.0, -34147.68, 0.0, 10.00015, 9.956326 
3.3450067e+3, 1.9482175e+2, -1064318.9, -1097820.6, 0.08002031, 0.000035748533, -0.00005143292, -1064318.9, -33571.887, 0.0, 10.00015, 9.955983 
3.3450067e+3, 2.0477144e+2, -976155.9, -1019423.2, 0.6128917, 0.000035619676, 0.000073367664, -976155.9, -42915.945, 0.0, 10.000149, 9.943221 
3.3450067e+3, 2.147147e+2, -877870.25, -921399.2, 0.10134353, 0.00003552092, -0.000121223966, -877870.25, -42074.297, 0.0, 10.000149, 9.942881 
3.3450067e+3, 2.2465126e+2, -789585.1, -843134.8, 0.61860716, 0.00003542022, 0.0001264002, -789585.1, -51167.5, 0.0, 10.000148, 9.929839 
3.3450067e+3, 2.3458116e+2, -691153.06, -744957.5, 0.122911826, 0.00003531728, -0.000083830295, -691153.06, -50048.484, 0.0, 10.000148, 9.929508 
3.3450067e+3, 2.4450412e+2, -602829.94, -667010.5, 0.59205246, 0.00003520857, 0.00007932424, -602829.94, -58970.36, 0.0, 10.000148, 9.916068 
3.3450067e+3, 2.544203e+2, -504078.56, -568336.06, 0.08398867, 0.00003509295, -0.00010230233, -504078.56, -57397.637, 0.0, 10.000147, 9.915968 
3.3450067e+3, 2.643294e+2, -415844.2, -490981.63, 0.5240744, 0.000034996512, 0.00014474316, -415844.2, -66272.48, 0.0, 10.000147, 9.901896 
3.3450067e+3, 2.7423188e+2, -316560.25, -391369.56, 0.047335412, 0.000034924447, -0.00019971399, -316560.25, -64032.547, 0.0, 10.000146, 9.902316 
3.3450067e+3, 2.841261e+2, -230087.31, -318075.66, 0.4662773, 0.00003484559, 0.0002324775, -230087.31, -74522.96, 0.0, 10.000146, 9.885371 
3.3450067e+3, 2.9401252e+2, -130382.39, -217760.34, 0.00031803767, 0.000034757268, -0.00025004472, -130382.39, -71704.96, 0.0, 10.000146, 9.886149 
3.3450067e+3, 3.039269e+2, -40641.734, -84749.4, 0.33854017, 0.00003463924, 0.00017607445, -40641.734, -40641.734, 0.0, 10.000145, 9.942103 
3.3450067e+3, 3.1387085e+2, -39564.332, -82510.984, -0.12357697, 0.000034477285, -0.000052901374, -39564.332, -39564.332, 0.0, 10.000145, 9.943614 
3.3550072e+3, 1.2499497e+2, -1719759.6, -1724209.8, 0.1856698, 0.00003762331, 0.000032608095, -1719759.6, -4710.288, 0.0, 10.000154, 9.994254 
3.3550072e+3, 1.3498914e+2, -1622381.5, -1627421.9, -0.35646734, 0.000037276986, -0.0000788037, -1622381.5, -5274.8364, 0.0, 10.000154, 9.993471 
3.3550072e+3, 1.4497663e+2, -1534279.6, -1548130.6, 0.23024896, 0.000037059854, 0.00009523163, -1534279.6, -15050.551, 0.0, 10.000153, 9.981793 
3.3550072e+3, 1.5495844e+2, -1436553.9, -1450807.6, -0.28260046, 0.000036965648, -0.000049338556, -1436553.9, -15146.37, 0.0, 10.000152, 9.981262 
3.3550072e+3, 1.649336e+2, -1348504.8, -1371940.0, 0.3351905, 0.000036839403, 0.00004911479, -1348504.8, -24853.986, 0.0, 10.000152, 9.969176 
3.3550072e+3, 1.7490281e+2, -1250548.4, -1274299.0, -0.19872203, 0.000036680507, -0.00006689315, -1250548.4, -24596.037, 0.0, 10.000151, 9.968763 
3.355007e+3, 1.848654e+2, -1162468.1, -1195708.8, 0.39751154, 0.000036548838, 0.00007467462, -1162468.1, -34149.07, 0.0, 10.00015, 9.956325 
3.355007e+3, 1.9482176e+2, -1064320.0, -1097822.8, -0.11134563, 0.000036445595, -0.000051274954, -1064320.0, -33573.254, 0.0, 10.00015, 9.955981 
3.355007e+3, 2.0477147e+2, -976157.0, -1019425.4, 0.4506871, 0.00003631747, 0.000073499374, -976157.0, -42917.31, 0.0, 10.000149, 9.94322 
3.355007e+3, 2.1471472e+2, -877871.4, -921401.4, -0.06028214, 0.000036162393, -0.000121079116, -877871.4, -42075.633, 0.0, 10.000149, 9.942879 
3.355007e+3, 2.2465129e+2, -789586.25, -843136.94, 0.45587105, 0.000036048157, 0.00012654517, -789586.25, -51168.8, 0.0, 10.000148, 9.929838 
3.355007e+3, 2.3458119e+2, -691154.1, -744959.6, -0.039874453, 0.00003598011, -0.00008369992, -691154.1, -50049.758, 0.0, 10.000148, 9.929506 
3.355007e+3, 2.4450415e+2, -602831.06, -667012.75, 0.46112734, 0.00003588696, 0.00007943212, -602831.06, -58971.66, 0.0, 10.000148, 9.916066 
3.355007e+3, 2.5442034e+2, -504079.66, -568338.25, -0.045411844, 0.000035763762, -0.00010222639, -504079.66, -57398.906, 0.0, 10.000147, 9.915966 
3.355007e+3, 2.6432943e+2, -415845.25, -490983.78, 0.39526838, 0.0000356533, 0.00014482714, -415845.25, -66273.695, 0.0, 10.000147, 9.901895 
3.355007e+3, 2.7423188e+2, -316561.3, -391371.7, -0.08146195, 0.00003555906, -0.00019957112, -316561.3, -64033.734, 0.0, 10.000146, 9.902315 
3.355007e+3, 2.841261e+2, -230088.36, -318077.8, 0.34229773, 0.00003548199, 0.00023262991, -230088.36, -74524.14, 0.0, 10.000146, 9.885369 
3.355007e+3, 2.9401252e+2, -130383.43, -217762.5, -0.12322851, 0.00003542829, -0.00024995054, -130383.43, -71706.12, 0.0, 10.000146, 9.886148 
3.355007e+3, 3.039269e+2, -40642.793, -84751.6, 0.22654797, 0.000035310688, 0.00017613453, -40642.793, -40642.793, 0.0, 10.000145, 9.9421015 
3.3550066e+3, 3.1387088e+2, -39565.395, -82513.195, -0.23422527, 0.00003509811, -0.000052838845, -39565.395, -39565.395, 0.0, 10.000145, 9.943613 
3.3650073e+3, 1.24995e+2, -1719750.9, -1724206.6, 0.5156171, 0.000038304326, 0.00003296946, -1719750.9, -4701.8003, 0.0, 10.00016, 9.994252 
3.3650073e+3, 1.3498917e+2, -1622372.6, -1627418.9, -0.040660106, 0.00003796245, -0.00007908953, -1622372.6, -5266.412, 0.0, 10.000159, 9.993469 
3.3650073e+3, 1.4497666e+2, -1534271.0, -1548127.6, 0.56876713, 0.000037746664, 0.000095778116, -1534271.0, -15042.145, 0.0, 10.000158, 9.981792 
3.365007e+3, 1.5495847e+2, -1436545.3, -1450804.8, 0.03494495, 0.000037650534, -0.00004914801, -1436545.3, -15138.058, 0.0, 10.000158, 9.98126 
3.365007e+3, 1.6493364e+2, -1348496.1, -1371937.1, 0.67331016, 0.000037516933, 0.000049173093, -1348496.1, -24845.732, 0.0, 10.000157, 9.969175 
3.365007e+3, 1.7490284e+2, -1250539.9, -1274296.3, 0.13434325, 0.000037345144, -0.00006673868, -1250539.9, -24587.76, 0.0, 10.000156, 9.968761 
3.365007e+3, 1.8486543e+2, -1162459.6, -1195705.9, 0.74418133, 0.00003721091, 0.00007486242, -1162459.6, -34140.777, 0.0, 10.000156, 9.956324 
3.365007e+3, 1.9482179e+2, -1064311.5, -1097820.0, 0.2106109, 0.000037115915, -0.000051119616, -1064311.5, -33565.016, 0.0, 10.000155, 9.95598 
3.365007e+3, 2.0477149e+2, -976148.56, -1019422.75, 0.7733271, 0.000036993966, 0.00007364037, -976148.56, -42909.15, 0.0, 10.000155, 9.943219 
3.365007e+3, 2.1471475e+2, -877863.06, -921398.75, 0.2325898, 0.000036842826, -0.00012093284, -877863.06, -42067.547, 0.0, 10.0001545, 9.942878 
3.365007e+3, 2.246513e+2, -789577.9, -843134.3, 0.7398675, 0.000036723395, 0.00012669398, -789577.9, -51160.69, 0.0, 10.0001545, 9.929836 
3.365007e+3, 2.345812e+2, -691145.75, -744957.0, 0.22518203, 0.000036639827, -0.00008355173, -691145.75, -50041.59, 0.0, 10.000154, 9.929505 
3.3650067e+3, 2.4450417e+2, -602822.75, -667010.2, 0.72940385, 0.000036545265, 0.000079566715, -602822.75, -58963.51, 0.0, 10.000154, 9.916065 
3.3650067e+3, 2.5442034e+2, -504071.44, -568335.8, 0.22022688, 0.00003643751, -0.00010212087, -504071.44, -57390.85, 0.0, 10.000154, 9.915965 
3.3650067e+3, 2.6432943e+2, -415837.1, -490981.38, 0.6520113, 0.000036330275, 0.00014492737, -415837.1, -66265.68, 0.0, 10.000153, 9.901894 
3.3650067e+3, 2.742319e+2, -316553.16, -391369.3, 0.13262716, 0.000036223693, -0.00019944584, -316553.16, -64025.723, 0.0, 10.000153, 9.902313 
3.3650067e+3, 2.841261e+2, -230080.17, -318075.4, 0.5348733, 0.000036140827, 0.00023275918, -230080.17, -74516.09, 0.0, 10.000153, 9.885368 
3.3650067e+3, 2.9401255e+2, -130375.29, -217760.13, 0.07059501, 0.00003609037, -0.00024984623, -130375.29, -71698.09, 0.0, 10.000152, 9.886147 
3.3650067e+3, 3.0392691e+2, -40634.816, -84749.43, 0.41442516, 0.000035975783, 0.00017621602, -40634.816, -40634.816, 0.0, 10.000152, 9.942101 
3.3650067e+3, 3.1387088e+2, -39557.5, -82511.08, -0.05942326, 0.0000357658, -0.00005277677, -39557.5, -39557.5, 0.0, 10.000152, 9.943611 
3.3750075e+3, 1.2499504e+2, -1719752.1, -1724209.0, 0.21863016, 0.000038980586, 0.000033363038, -1719752.1, -4703.444, 0.0, 10.00016, 9.994251 
3.3750072e+3, 1.349892e+2, -1622374.0, -1627421.3, -0.33765075, 0.000038672868, -0.00007943841, -1622374.0, -5268.028, 0.0, 10.000159, 9.993468 
3.3750072e+3, 1.449767e+2, -1534272.1, -1548129.9, 0.30668995, 0.00003846012, 0.00009627815, -1534272.1, -15043.694, 0.0, 10.000158, 9.981791 
3.3750072e+3, 1.549585e+2, -1436546.4, -1450807.0, -0.22710396, 0.000038335587, -0.00004894277, -1436546.4, -15139.577, 0.0, 10.000158, 9.981259 
3.3750072e+3, 1.6493367e+2, -1348497.4, -1371939.4, 0.45789593, 0.000038194492, 0.00004925406, -1348497.4, -24847.244, 0.0, 10.000157, 9.969173 
3.3750072e+3, 1.7490287e+2, -1250541.0, -1274298.5, -0.080838464, 0.000038036545, -0.000066607885, -1250541.0, -24589.244, 0.0, 10.000156, 9.9687605 
3.3750072e+3, 1.8486546e+2, -1162460.8, -1195708.1, 0.5466174, 0.000037891397, 0.00007501754, -1162460.8, -34142.24, 0.0, 10.000156, 9.956322 
3.3750072e+3, 1.9482182e+2, -1064312.6, -1097822.3, 0.013228564, 0.00003775959, -0.000050966883, -1064312.6, -33566.45, 0.0, 10.000155, 9.955978 
3.3750072e+3, 2.0477152e+2, -976149.75, -1019425.06, 0.60075086, 0.00003764925, 0.00007379063, -976149.75, -42910.59, 0.0, 10.000155, 9.943217 
3.3750072e+3, 2.1471477e+2, -877864.25, -921401.06, 0.06052936, 0.000037562124, -0.00012078513, -877864.25, -42068.96, 0.0, 10.0001545, 9.942876 
3.3750072e+3, 2.2465134e+2, -789579.06, -843136.56, 0.5992523, 0.00003744582, 0.00012684659, -789579.06, -51162.047, 0.0, 10.0001545, 9.929835 
3.3750072e+3, 2.3458123e+2, -691146.9, -744959.2, 0.08555498, 0.000037296468, -0.00008338578, -691146.9, -50042.914, 0.0, 10.000154, 9.929503 
3.3750072e+3, 2.4450418e+2, -602823.9, -667012.44, 0.5863809, 0.00003718357, 0.00007972797, -602823.9, -58964.832, 0.0, 10.000154, 9.916063 
3.3750072e+3, 2.5442037e+2, -504072.53, -568338.06, 0.07702444, 0.00003711421, -0.00010198587, -504072.53, -57392.14, 0.0, 10.000154, 9.915963 
3.3750072e+3, 2.6432946e+2, -415838.22, -490983.72, 0.52996105, 0.00003702741, 0.00014504381, -415838.22, -66266.984, 0.0, 10.000153, 9.901892 
3.3750072e+3, 2.742319e+2, -316554.28, -391371.63, 0.011987755, 0.000036918285, -0.00019933812, -316554.28, -64027.004, 0.0, 10.000153, 9.902312 
3.3750072e+3, 2.8412613e+2, -230081.23, -318077.6, 0.4134427, 0.000036822068, 0.00023286538, -230081.23, -74517.29, 0.0, 10.000153, 9.885366 
3.3750072e+3, 2.9401255e+2, -130376.32, -217762.27, -0.05094825, 0.00003674356, -0.00024973173, -130376.32, -71699.25, 0.0, 10.000152, 9.886146 
3.3750072e+3, 3.0392691e+2, -40635.9, -84751.69, 0.28566888, 0.000036634567, 0.00017631888, -40635.9, -40635.9, 0.0, 10.000152, 9.942099 
3.3750072e+3, 3.1387088e+2, -39558.59, -82513.34, -0.18904658, 0.000036480247, -0.000052715146, -39558.59, -39558.59, 0.0, 10.000152, 9.94361 
3.3850077e+3, 1.2499508e+2, -1719743.0, -1724205.9, 0.545481, 0.000039712773, 0.0000337287, -1719743.0, -4694.723, 0.0, 10.000167, 9.994249 
3.3850077e+3, 1.3498925e+2, -1622365.0, -1627418.1, -0.0004975379, 0.00003936862, -0.000079719364, -1622365.0, -5259.3857, 0.0, 10.000166, 9.993466 
3.3850077e+3, 1.4497674e+2, -1534263.3, -1548126.9, 0.6789595, 0.000039143088, 0.000096871074, -1534263.3, -15035.086, 0.0, 10.000165, 9.98179 
3.3850077e+3, 1.5495853e+2, -1436537.5, -1450804.0, 0.116315015, 0.00003902942, -0.000048745584, -1436537.5, -15130.975, 0.0, 10.000164, 9.981257 
3.3850077e+3, 1.649337e+2, -1348488.5, -1371936.4, 0.82269, 0.000038892696, 0.000049304042, -1348488.5, -24838.664, 0.0, 10.000164, 9.9691725 
3.3850074e+3, 1.749029e+2, -1250532.3, -1274295.6, 0.27711415, 0.000038732498, -0.00006645135, -1250532.3, -24580.748, 0.0, 10.000163, 9.968759 
3.3850074e+3, 1.8486549e+2, -1162452.0, -1195705.3, 0.91967654, 0.000038581453, 0.00007522055, -1162452.0, -34133.777, 0.0, 10.000162, 9.956321 
3.3850074e+3, 1.9482185e+2, -1064303.9, -1097819.4, 0.36066958, 0.000038439935, -0.000050780287, -1064303.9, -33557.965, 0.0, 10.000162, 9.955977 
3.3850074e+3, 2.0477155e+2, -976141.0, -1019422.2, 0.9598253, 0.000038329934, 0.00007395024, -976141.0, -42902.086, 0.0, 10.000161, 9.943215 
3.3850074e+3, 2.147148e+2, -877855.5, -921398.25, 0.43050817, 0.00003825402, -0.00012066392, -877855.5, -42060.484, 0.0, 10.000161, 9.942875 
3.3850074e+3, 2.2465135e+2, -789570.4, -843133.9, 0.98298955, 0.000038140726, 0.00012696158, -789570.4, -51153.62, 0.0, 10.000161, 9.929833 
3.3850074e+3, 2.3458125e+2, -691138.25, -744956.56, 0.4203295, 0.000037985086, -0.000083240586, -691138.25, -50034.527, 0.0, 10.00016, 9.9295025 
3.3850074e+3, 2.4450421e+2, -602815.25, -667009.8, 0.8894616, 0.00003786893, 0.000079886384, -602815.25, -58956.426, 0.0, 10.00016, 9.916061 
3.3850074e+3, 2.5442037e+2, -504063.94, -568335.44, 0.35803062, 0.000037799928, -0.000101834536, -504063.94, -57383.71, 0.0, 10.000159, 9.915962 
3.3850074e+3, 2.643295e+2, -415829.66, -490981.2, 0.8094635, 0.00003771617, 0.0001451736, -415829.66, -66258.58, 0.0, 10.000159, 9.901891 
3.3850074e+3, 2.7423194e+2, -316545.75, -391369.16, 0.28687143, 0.000037613492, -0.00019924818, -316545.75, -64018.645, 0.0, 10.000159, 9.90231 
3.385007e+3, 2.8412613e+2, -230072.73, -318075.13, 0.6638635, 0.00003751893, 0.00023294914, -230072.73, -74508.93, 0.0, 10.000158, 9.8853655 
3.385007e+3, 2.9401255e+2, -130367.875, -217759.84, 0.14286298, 0.000037435515, -0.00024960798, -130367.875, -71690.93, 0.0, 10.000158, 9.886144 
3.385007e+3, 3.0392691e+2, -40627.574, -84749.414, 0.42577228, 0.000037324717, 0.00017644756, -40627.574, -40627.574, 0.0, 10.000158, 9.942097 
3.385007e+3, 3.138709e+2, -39550.25, -82511.08, -0.07948465, 0.000037173257, -0.000052634023, -39550.25, -39550.25, 0.0, 10.000157, 9.943608 
3.3950078e+3, 1.2499512e+2, -1719744.3, -1724208.1, 0.23826338, 0.00004050075, 0.000034074517, -1719744.3, -4696.358, 0.0, 10.000167, 9.994248 
3.3950078e+3, 1.3498928e+2, -1622366.3, -1627420.5, -0.30777425, 0.000040049774, -0.000079932586, -1622366.3, -5260.995, 0.0, 10.000166, 9.993465 
3.3950078e+3, 1.4497676e+2, -1534264.5, -1548129.3, 0.42256477, 0.00003979569, 0.00009755664, -1534264.5, -15036.718, 0.0, 10.000165, 9.981788 
3.3950076e+3, 1.5495856e+2, -1436538.8, -1450806.4, -0.13999468, 0.000039732025, -0.000048556423, -1436538.8, -15132.574, 0.0, 10.000164, 9.9812565 
3.3950076e+3, 1.6493373e+2, -1348489.8, -1371938.8, 0.5959353, 0.000039611503, 0.000049323135, -1348489.8, -24840.205, 0.0, 10.000164, 9.969171 
3.3950076e+3, 1.7490295e+2, -1250533.5, -1274297.9, 0.050483674, 0.000039433005, -0.00006626913, -1250533.5, -24582.262, 0.0, 10.000163, 9.968758 
3.3950076e+3, 1.8486552e+2, -1162453.3, -1195707.6, 0.73536724, 0.000039281076, 0.000075471326, -1162453.3, -34135.31, 0.0, 10.000162, 9.956319 
3.3950076e+3, 1.9482188e+2, -1064305.1, -1097821.8, 0.17683806, 0.00003915687, -0.00005055993, -1064305.1, -33559.465, 0.0, 10.000162, 9.955976 
3.3950076e+3, 2.0477158e+2, -976142.2, -1019424.5, 0.7887228, 0.000039035967, 0.00007411918, -976142.2, -42903.52, 0.0, 10.000161, 9.943214 
3.3950076e+3, 2.1471481e+2, -877856.7, -921400.56, 0.25963193, 0.00003891862, -0.000120569115, -877856.7, -42061.887, 0.0, 10.000161, 9.942873 
3.3950076e+3, 2.2465138e+2, -789571.6, -843136.3, 0.84104556, 0.000038808208, 0.00012703908, -789571.6, -51155.086, 0.0, 10.000161, 9.9298315 
3.3950076e+3, 2.3458126e+2, -691139.5, -744959.0, 0.27933127, 0.000038705617, -0.000083116094, -691139.5, -50035.965, 0.0, 10.00016, 9.929501 
3.3950073e+3, 2.4450423e+2, -602816.44, -667012.2, 0.7607394, 0.000038601233, 0.000080041966, -602816.44, -58957.805, 0.0, 10.00016, 9.91606 
3.3950073e+3, 2.544204e+2, -504065.1, -568337.75, 0.2298696, 0.00003849467, -0.000101666934, -504065.1, -57385.055, 0.0, 10.000159, 9.91596 
3.3950073e+3, 2.643295e+2, -415830.8, -490983.53, 0.6845278, 0.00003839661, 0.00014531672, -415830.8, -66259.914, 0.0, 10.000159, 9.901889 
3.3950073e+3, 2.7423194e+2, -316546.9, -391371.5, 0.16213156, 0.000038309332, -0.000199176, -316546.9, -64019.945, 0.0, 10.000159, 9.902309 
3.3950073e+3, 2.8412616e+2, -230073.89, -318077.5, 0.5422985, 0.0000382314, 0.00023301052, -230073.89, -74510.234, 0.0, 10.000158, 9.885364 
3.3950073e+3, 2.9401258e+2, -130369.016, -217762.2, 0.021573227, 0.000038166152, -0.00024947495, -130369.016, -71692.2, 0.0, 10.000158, 9.886143 
3.3950073e+3, 3.0392694e+2, -40628.715, -84751.79, 0.30258968, 0.000038046168, 0.000176602, -40628.715, -40628.715, 0.0, 10.000158, 9.942096 
3.3950073e+3, 3.138709e+2, -39551.395, -82513.46, -0.20290726, 0.00003784491, -0.000052533454, -39551.395, -39551.395, 0.0, 10.000157, 9.943606 
3.405008e+3, 1.24995165e+2, -1719735.0, -1724205.0, 0.63980675, 0.00004123408, 0.000034388995, -1719735.0, -4687.432, 0.0, 10.000173, 9.9942465 
3.4050077e+3, 1.349893e+2, -1622356.9, -1627417.3, 0.02712835, 0.000040762894, -0.000080194, -1622356.9, -5252.071, 0.0, 10.000173, 9.9934635 
3.4050077e+3, 1.4497681e+2, -1534255.1, -1548126.0, 0.77354413, 0.000040498573, 0.00009821767, -1534255.1, -15027.782, 0.0, 10.000172, 9.981786 
3.4050077e+3, 1.549586e+2, -1436529.5, -1450803.3, 0.2283238, 0.00004043454, -0.000048382895, -1436529.5, -15123.731, 0.0, 10.000171, 9.981255 
3.4050077e+3, 1.6493376e+2, -1348480.6, -1371935.6, 0.9978388, 0.000040317478, 0.000049338338, -1348480.6, -24831.424, 0.0, 10.00017, 9.96917 
3.4050077e+3, 1.7490298e+2, -1250524.4, -1274294.9, 0.4162702, 0.000040146348, -0.000066076136, -1250524.4, -24573.479, 0.0, 10.00017, 9.968756 
3.4050077e+3, 1.8486555e+2, -1162444.1, -1195704.8, 1.1168853, 0.00003999791, 0.000075713455, -1162444.1, -34126.543, 0.0, 10.000169, 9.956317 
3.4050077e+3, 1.9482191e+2, -1064296.1, -1097818.9, 0.553172, 0.00003987313, -0.000050403283, -1064296.1, -33550.754, 0.0, 10.000169, 9.955975 
3.4050074e+3, 2.047716e+2, -976133.2, -1019421.56, 1.1686876, 0.000039744114, 0.000074254865, -976133.2, -42894.79, 0.0, 10.000168, 9.9432125 
3.4050074e+3, 2.1471484e+2, -877847.6, -921397.6, 0.59643507, 0.00003961049, -0.00012038451, -877847.6, -42053.098, 0.0, 10.000168, 9.942872 
3.4050074e+3, 2.246514e+2, -789562.56, -843133.5, 1.1765339, 0.000039502676, 0.00012722562, -789562.56, -51146.31, 0.0, 10.000167, 9.929831 
3.4050074e+3, 2.3458129e+2, -691130.5, -744956.25, 0.6205417, 0.00003942404, -0.00008298084, -691130.5, -50027.22, 0.0, 10.000167, 9.929499 
3.4050074e+3, 2.4450424e+2, -602807.5, -667009.44, 1.1042054, 0.000039327795, 0.00008015975, -602807.5, -58949.066, 0.0, 10.000167, 9.916059 
3.4050074e+3, 2.5442043e+2, -504056.16, -568335.06, 0.5383885, 0.000039210456, -0.00010152619, -504056.16, -57376.332, 0.0, 10.000166, 9.915958 
3.4050074e+3, 2.6432952e+2, -415821.88, -490980.88, 0.96955055, 0.000039107417, 0.00014546335, -415821.88, -66251.18, 0.0, 10.000166, 9.901887 
3.4050074e+3, 2.7423197e+2, -316538.0, -391368.88, 0.42110685, 0.00003902258, -0.00019904535, -316538.0, -64011.2, 0.0, 10.000166, 9.9023075 
3.4050074e+3, 2.8412616e+2, -230064.98, -318074.9, 0.7818116, 0.000038949005, 0.00023313095, -230064.98, -74501.48, 0.0, 10.000165, 9.885363 
3.4050074e+3, 2.9401258e+2, -130360.14, -217759.67, 0.24892756, 0.00003889071, -0.00024935682, -130360.14, -71683.46, 0.0, 10.000165, 9.886141 
3.4050074e+3, 3.0392694e+2, -40619.973, -84749.4, 0.50096244, 0.000038772134, 0.0001767088, -40619.973, -40619.973, 0.0, 10.000165, 9.942094 
3.4050074e+3, 3.138709e+2, -39542.695, -82511.09, -0.027974507, 0.000038564016, -0.000052451574, -39542.695, -39542.695, 0.0, 10.000164, 9.943605 
3.4150082e+3, 1.249952e+2, -1719736.4, -1724207.6, 0.34049827, 0.00004191295, 0.000034680572, -1719736.4, -4689.239, 0.0, 10.000173, 9.994245 
3.4150082e+3, 1.3498935e+2, -1622358.3, -1627419.9, -0.27216733, 0.000041507905, -0.00008050346, -1622358.3, -5253.8486, 0.0, 10.000173, 9.993463 
3.4150082e+3, 1.4497684e+2, -1534256.4, -1548128.4, 0.502429, 0.000041251606, 0.00009885425, -1534256.4, -15029.391, 0.0, 10.000172, 9.981785 
3.4150082e+3, 1.5495864e+2, -1436530.8, -1450805.5, -0.042781144, 0.000041136977, -0.000048224938, -1436530.8, -15125.308, 0.0, 10.000171, 9.981253 
3.4150082e+3, 1.6493379e+2, -1348481.9, -1371938.1, 0.7798082, 0.000041010673, 0.00004934967, -1348481.9, -24833.06, 0.0, 10.00017, 9.969168 
3.4150082e+3, 1.7490302e+2, -1250525.6, -1274297.4, 0.19850399, 0.00004087251, -0.000065872395, -1250525.6, -24575.088, 0.0, 10.00017, 9.968754 
3.415008e+3, 1.8486558e+2, -1162445.4, -1195707.1, 0.9281194, 0.00004073193, 0.00007594698, -1162445.4, -34128.1, 0.0, 10.000169, 9.956316 
3.415008e+3, 1.9482194e+2, -1064297.4, -1097821.3, 0.364722, 0.000040588748, -0.000050310147, -1064297.4, -33552.28, 0.0, 10.000169, 9.955973 
3.415008e+3, 2.0477162e+2, -976134.44, -1019424.06, 1.0196717, 0.000040454393, 0.00007435741, -976134.44, -42896.324, 0.0, 10.000168, 9.943212 
3.415008e+3, 2.1471487e+2, -877848.9, -921400.06, 0.448203, 0.00004032957, -0.000120110366, -877848.9, -42054.605, 0.0, 10.000168, 9.94287 
3.415008e+3, 2.2465143e+2, -789563.8, -843135.94, 1.0359122, 0.000040224073, 0.00012752085, -789563.8, -51147.777, 0.0, 10.000167, 9.929829 
3.415008e+3, 2.3458134e+2, -691131.75, -744958.6, 0.48015615, 0.000040140396, -0.000082834864, -691131.75, -50028.66, 0.0, 10.000167, 9.929498 
3.415008e+3, 2.4450427e+2, -602808.7, -667011.94, 0.98031783, 0.000040048664, 0.00008023986, -602808.7, -58950.52, 0.0, 10.000167, 9.916058 
3.415008e+3, 2.5442043e+2, -504057.38, -568337.56, 0.41527358, 0.000039947252, -0.0001014122, -504057.38, -57377.758, 0.0, 10.000166, 9.915957 
3.415008e+3, 2.6432952e+2, -415823.1, -490983.3, 0.857078, 0.000039848528, 0.00014561348, -415823.1, -66252.57, 0.0, 10.000166, 9.901886 
3.415008e+3, 2.7423197e+2, -316539.2, -391371.3, 0.3093161, 0.000039753206, -0.0001988564, -316539.2, -64012.563, 0.0, 10.000166, 9.902306 
3.4150076e+3, 2.841262e+2, -230066.17, -318077.34, 0.66617924, 0.000039671762, 0.00023331025, -230066.17, -74502.81, 0.0, 10.000165, 9.885361 
3.4150076e+3, 2.940126e+2, -130361.305, -217762.08, 0.13293375, 0.00003960924, -0.00024925347, -130361.305, -71684.766, 0.0, 10.000165, 9.886139 
3.4150076e+3, 3.0392694e+2, -40621.152, -84751.85, 0.36879176, 0.00003950262, 0.00017676807, -40621.152, -40621.152, 0.0, 10.000165, 9.942092 
3.4150076e+3, 3.1387094e+2, -39543.88, -82513.56, -0.16208272, 0.000039330458, -0.000052388332, -39543.88, -39543.88, 0.0, 10.000164, 9.9436035 
3.4250084e+3, 1.2499525e+2, -1719726.6, -1724204.3, 0.69469506, 0.000042617412, 0.000035076322, -1719726.6, -4679.9575, 0.0, 10.00018, 9.994244 
3.4250084e+3, 1.349894e+2, -1622348.9, -1627416.6, 0.11212386, 0.000042251664, -0.00008083761, -1622348.9, -5244.768, 0.0, 10.000179, 9.993461 
3.4250084e+3, 1.4497688e+2, -1534247.0, -1548125.1, 0.9380685, 0.000042004358, 0.00009946167, -1534247.0, -15020.318, 0.0, 10.000178, 9.981783 
3.4250084e+3, 1.5495867e+2, -1436521.3, -1450802.3, 0.35097358, 0.00004186806, -0.000048041107, -1436521.3, -15116.198, 0.0, 10.000177, 9.981252 
3.425008e+3, 1.6493383e+2, -1348472.5, -1371935.0, 1.1955584, 0.00004172999, 0.000049392176, -1348472.5, -24823.982, 0.0, 10.000176, 9.969167 
3.425008e+3, 1.7490305e+2, -1250516.3, -1274294.3, 0.6067697, 0.000041590167, -0.00006568298, -1250516.3, -24566.041, 0.0, 10.000176, 9.968753 
3.425008e+3, 1.8486561e+2, -1162436.0, -1195704.0, 1.3594286, 0.000041452815, 0.000076176446, -1162436.0, -34119.03, 0.0, 10.000175, 9.956314 
3.425008e+3, 1.9482197e+2, -1064287.9, -1097818.1, 0.77730995, 0.000041317977, -0.000050152426, -1064287.9, -33543.195, 0.0, 10.000175, 9.955971 
3.425008e+3, 2.0477165e+2, -976125.06, -1019421.06, 1.4452293, 0.000041187643, 0.000074496915, -976125.06, -42887.266, 0.0, 10.0001745, 9.94321 
3.425008e+3, 2.147149e+2, -877839.56, -921397.1, 0.844167, 0.000041062158, -0.00011993113, -877839.56, -42045.56, 0.0, 10.0001745, 9.942868 
3.425008e+3, 2.2465146e+2, -789554.5, -843133.0, 1.4187356, 0.000040958537, 0.00012770762, -789554.5, -51138.7, 0.0, 10.0001745, 9.929827 
3.425008e+3, 2.3458135e+2, -691122.44, -744955.75, 0.8484085, 0.000040879608, -0.000082677005, -691122.44, -50019.582, 0.0, 10.000174, 9.929496 
3.4250078e+3, 2.4450429e+2, -602799.44, -667009.1, 1.3562132, 0.000040789193, 0.000080378246, -602799.44, -58941.45, 0.0, 10.000174, 9.916056 
3.4250078e+3, 2.5442046e+2, -504048.06, -568334.75, 0.7701634, 0.000040685, -0.00010128196, -504048.06, -57368.63, 0.0, 10.000174, 9.915956 
3.4250078e+3, 2.6432955e+2, -415813.75, -490980.56, 1.1828151, 0.00004058812, 0.00014574514, -415813.75, -66243.42, 0.0, 10.000173, 9.901884 
3.4250078e+3, 2.74232e+2, -316529.88, -391368.6, 0.5957326, 0.000040500512, -0.00019871113, -316529.88, -64003.445, 0.0, 10.000173, 9.902304 
3.4250078e+3, 2.841262e+2, -230056.88, -318074.63, 0.9204095, 0.00004042549, 0.00023344794, -230056.88, -74493.69, 0.0, 10.000173, 9.885359 
3.4250078e+3, 2.940126e+2, -130352.055, -217759.4, 0.366753, 0.00004036758, -0.00024915242, -130352.055, -71675.66, 0.0, 10.000172, 9.886138 
3.4250078e+3, 3.0392697e+2, -40612.023, -84749.375, 0.5589118, 0.000040257535, 0.0001768604, -40612.023, -40612.023, 0.0, 10.000172, 9.942091 
3.4250078e+3, 3.1387094e+2, -39534.668, -82511.055, -0.024630561, 0.000040070023, -0.000052263007, -39534.668, -39534.668, 0.0, 10.000172, 9.943602 
3.4350085e+3, 1.24995284e+2, -1719728.0, -1724206.8, 0.35696372, 0.00004334741, 0.00003558643, -1719728.0, -4681.7134, 0.0, 10.00018, 9.994242 
3.4350085e+3, 1.3498943e+2, -1622350.1, -1627419.1, -0.22561511, 0.0000429942, -0.00008119636, -1622350.1, -5246.495, 0.0, 10.000179, 9.993459 
3.4350082e+3, 1.4497691e+2, -1534248.3, -1548127.6, 0.6832722, 0.000042756856, 0.00010004006, -1534248.3, -15022.04, 0.0, 10.000178, 9.981782 
3.4350082e+3, 1.5495871e+2, -1436522.6, -1450804.8, 0.09629409, 0.00004262773, -0.000047831476, -1436522.6, -15117.886, 0.0, 10.000177, 9.98125 
3.4350082e+3, 1.6493388e+2, -1348473.8, -1371937.5, 0.9788606, 0.00004247537, 0.000049465765, -1348473.8, -24825.654, 0.0, 10.000177, 9.969165 
3.4350082e+3, 1.7490308e+2, -1250517.6, -1274296.8, 0.39025232, 0.000042299373, -0.00006550784, -1250517.6, -24567.682, 0.0, 10.000176, 9.968751 
3.4350082e+3, 1.8486565e+2, -1162437.4, -1195706.5, 1.1835006, 0.000042160635, 0.000076401884, -1162437.4, -34120.65, 0.0, 10.000175, 9.956313 
3.4350082e+3, 1.9482201e+2, -1064289.3, -1097820.6, 0.6018199, 0.0000420608, -0.000049930317, -1064289.3, -33544.777, 0.0, 10.000175, 9.95597 
3.4350082e+3, 2.0477168e+2, -976126.4, -1019423.6, 1.3023175, 0.000041943815, 0.000074673255, -976126.4, -42888.88, 0.0, 10.0001745, 9.943208 
3.435008e+3, 2.1471493e+2, -877840.9, -921399.7, 0.70193964, 0.000041808238, -0.00011984648, -877840.9, -42047.14, 0.0, 10.0001745, 9.942867 
3.435008e+3, 2.2465147e+2, -789555.75, -843135.44, 1.2860352, 0.00004170606, 0.00012778632, -789555.75, -51140.215, 0.0, 10.0001745, 9.929826 
3.435008e+3, 2.3458138e+2, -691123.6, -744958.2, 0.71596605, 0.00004164163, -0.00008250728, -691123.6, -50021.066, 0.0, 10.000174, 9.929495 
3.435008e+3, 2.4450432e+2, -602800.7, -667011.7, 1.2562164, 0.000041549345, 0.000080574755, -602800.7, -58942.96, 0.0, 10.000174, 9.916054 
3.435008e+3, 2.544205e+2, -504049.3, -568337.3, 0.6717124, 0.000041423733, -0.000101135505, -504049.3, -57370.11, 0.0, 10.000174, 9.915954 
3.435008e+3, 2.6432958e+2, -415815.03, -490983.16, 1.0722327, 0.000041326217, 0.00014585843, -415815.03, -66244.9, 0.0, 10.000173, 9.901882 
3.435008e+3, 2.7423203e+2, -316531.16, -391371.2, 0.48432502, 0.000041264477, -0.00019860938, -316531.16, -64004.895, 0.0, 10.000173, 9.902303 
3.435008e+3, 2.8412622e+2, -230058.11, -318077.13, 0.8082281, 0.000041210118, 0.00023354415, -230058.11, -74495.07, 0.0, 10.000173, 9.885357 
3.435008e+3, 2.9401264e+2, -130353.26, -217761.89, 0.25446257, 0.000041165637, -0.0002490536, -130353.26, -71677.01, 0.0, 10.000172, 9.886136 
3.435008e+3, 3.0392697e+2, -40613.297, -84752.02, 0.4485237, 0.000041036827, 0.0001769857, -40613.297, -40613.297, 0.0, 10.000172, 9.942089 
3.435008e+3, 3.1387094e+2, -39535.953, -82513.73, -0.13482165, 0.000040782827, -0.000052075793, -39535.953, -39535.953, 0.0, 10.000172, 9.9436 
3.4450084e+3, 1.2499533e+2, -1719718.3, -1724203.3, 0.67630905, 0.00004412087, 0.00003599898, -1719718.3, -4672.4478, 0.0, 10.000187, 9.99424 
3.4450084e+3, 1.3498947e+2, -1622340.4, -1627415.8, 0.091815144, 0.00004374228, -0.000081522594, -1622340.4, -5237.127, 0.0, 10.000186, 9.993458 
3.4450084e+3, 1.4497696e+2, -1534238.5, -1548124.3, 1.0626402, 0.000043497963, 0.00010070432, -1534238.5, -15012.664, 0.0, 10.000185, 9.98178 
3.4450084e+3, 1.5495874e+2, -1436512.9, -1450801.5, 0.47414216, 0.000043380183, -0.000047623107, -1436512.9, -15108.58, 0.0, 10.000184, 9.981249 
3.4450084e+3, 1.6493392e+2, -1348464.1, -1371934.3, 1.403648, 0.000043229997, 0.000049509938, -1348464.1, -24816.367, 0.0, 10.000184, 9.969163 
3.4450084e+3, 1.7490311e+2, -1250507.9, -1274293.5, 0.8006882, 0.000043046803, -0.00006533008, -1250507.9, -24558.338, 0.0, 10.000183, 9.968749 
3.4450084e+3, 1.848657e+2, -1162427.6, -1195703.3, 1.6085553, 0.000042903113, 0.000076634766, -1162427.6, -34111.27, 0.0, 10.000183, 9.956311 
3.4450084e+3, 1.9482204e+2, -1064279.5, -1097817.5, 0.9969327, 0.000042800682, -0.00004972443, -1064279.5, -33535.387, 0.0, 10.000182, 9.955968 
3.4450084e+3, 2.0477171e+2, -976116.7, -1019420.5, 1.7175863, 0.00004269577, 0.00007484852, -976116.7, -42879.492, 0.0, 10.000182, 9.943207 
3.4450084e+3, 2.1471496e+2, -877831.25, -921396.6, 1.13625, 0.00004258815, -0.00011970575, -877831.25, -42037.8, 0.0, 10.000181, 9.942865 
3.4450084e+3, 2.246515e+2, -789546.1, -843132.44, 1.7344009, 0.000042486667, 0.00012792365, -789546.1, -51130.855, 0.0, 10.000181, 9.929824 
3.4450084e+3, 2.345814e+2, -691113.9, -744955.2, 1.1021012, 0.00004239208, -0.0000823381, -691113.9, -50011.563, 0.0, 10.000181, 9.929493 
3.4450084e+3, 2.4450433e+2, -602790.9, -667008.6, 1.6106126, 0.000042295822, 0.00008075247, -602790.9, -58933.402, 0.0, 10.000181, 9.916052 
3.4450084e+3, 2.5442052e+2, -504039.6, -568334.3, 1.0137345, 0.000042197535, -0.00010097713, -504039.6, -57360.617, 0.0, 10.00018, 9.915953 
3.4450084e+3, 2.6432958e+2, -415805.38, -490980.3, 1.4024888, 0.000042114403, 0.0001459982, -415805.38, -66235.44, 0.0, 10.00018, 9.90188 
3.4450084e+3, 2.7423203e+2, -316521.47, -391368.34, 0.7995392, 0.000042050517, -0.00019848719, -316521.47, -63995.4, 0.0, 10.00018, 9.902301 
3.4450084e+3, 2.8412625e+2, -230048.36, -318074.28, 1.0982528, 0.000041992527, 0.00023366274, -230048.36, -74485.49, 0.0, 10.00018, 9.885356 
3.4450084e+3, 2.9401264e+2, -130343.47, -217759.06, 0.49605608, 0.000041942472, -0.00024891953, -130343.47, -71667.37, 0.0, 10.000179, 9.886134 
3.445008e+3, 3.03927e+2, -40603.64, -84749.414, 0.6290062, 0.000041811494, 0.00017711682, -40603.64, -40603.64, 0.0, 10.000179, 9.942087 
3.445008e+3, 3.1387097e+2, -39526.344, -82511.16, 0.0092399465, 0.000041560408, -0.000051975218, -39526.344, -39526.344, 0.0, 10.000179, 9.943598 
3.455009e+3, 1.2499537e+2, -1719719.6, -1724205.8, 0.37128863, 0.00004493767, 0.000036326877, -1719719.6, -4674.2227, 0.0, 10.000187, 9.994239 
3.455009e+3, 1.3498951e+2, -1622341.8, -1627418.3, -0.21326146, 0.000044495904, -0.00008181642, -1622341.8, -5238.875, 0.0, 10.000186, 9.993456 
3.455009e+3, 1.44977e+2, -1534239.9, -1548126.8, 0.7992457, 0.000044227745, 0.000101454185, -1534239.9, -15014.407, 0.0, 10.000185, 9.981778 
3.455009e+3, 1.5495878e+2, -1436514.3, -1450804.0, 0.21079473, 0.00004412548, -0.00004741598, -1436514.3, -15110.288, 0.0, 10.000184, 9.981247 
3.455009e+3, 1.6493395e+2, -1348465.5, -1371936.9, 1.2092513, 0.00004399386, 0.000049524802, -1348465.5, -24818.086, 0.0, 10.000184, 9.969162 
3.4550086e+3, 1.7490315e+2, -1250509.3, -1274296.0, 0.60662466, 0.00004383235, -0.0000651497, -1250509.3, -24560.027, 0.0, 10.000183, 9.968748 
3.4550086e+3, 1.8486573e+2, -1162429.0, -1195705.9, 1.4448075, 0.000043680167, 0.00007687506, -1162429.0, -34112.965, 0.0, 10.000183, 9.956309 
3.4550086e+3, 1.9482207e+2, -1064280.9, -1097820.0, 0.833532, 0.00004353766, -0.000049534705, -1064280.9, -33537.047, 0.0, 10.000182, 9.955966 
3.4550086e+3, 2.0477174e+2, -976118.0, -1019423.06, 1.5729367, 0.000043443557, 0.00007502271, -976118.0, -42881.082, 0.0, 10.000182, 9.943205 
3.4550086e+3, 2.1471499e+2, -877832.5, -921399.1, 0.9919202, 0.000043401815, -0.00011950912, -877832.5, -42039.36, 0.0, 10.000181, 9.942863 
3.4550086e+3, 2.2465153e+2, -789547.5, -843135.2, 1.6452506, 0.000043300275, 0.00012811946, -789547.5, -51132.51, 0.0, 10.000181, 9.929822 
3.4550086e+3, 2.3458143e+2, -691115.25, -744957.9, 1.0147743, 0.00004313103, -0.00008216945, -691115.25, -50013.188, 0.0, 10.000181, 9.929491 
3.4550086e+3, 2.4450436e+2, -602792.2, -667011.25, 1.5054731, 0.000043028704, 0.00008091146, -602792.2, -58934.953, 0.0, 10.000181, 9.916051 
3.4550086e+3, 2.5442052e+2, -504040.9, -568336.94, 0.9076982, 0.000043006323, -0.00010080687, -504040.9, -57362.133, 0.0, 10.00018, 9.915951 
3.4550083e+3, 2.643296e+2, -415806.7, -490982.97, 1.3099293, 0.000042952543, 0.0001461644, -415806.7, -66236.96, 0.0, 10.00018, 9.901879 
3.4550083e+3, 2.7423206e+2, -316522.78, -391371.0, 0.7078506, 0.000042858588, -0.00019834463, -316522.78, -63996.883, 0.0, 10.00018, 9.902299 
3.4550083e+3, 2.8412625e+2, -230049.67, -318077.0, 1.0125521, 0.00004277276, 0.0002338036, -230049.67, -74486.98, 0.0, 10.00018, 9.885354 
3.4550083e+3, 2.9401267e+2, -130344.76, -217761.73, 0.4108821, 0.000042698186, -0.00024875024, -130344.76, -71668.82, 0.0, 10.000179, 9.886132 
3.4550083e+3, 3.03927e+2, -40604.98, -84752.2, 0.5128318, 0.00004258159, 0.00017725375, -40604.98, -40604.98, 0.0, 10.000179, 9.942085 
3.4550083e+3, 3.1387097e+2, -39527.69, -82513.96, -0.110570334, 0.00004240259, -0.000051960997, -39527.69, -39527.69, 0.0, 10.000179, 9.943596 
3.465009e+3, 1.24995425e+2, -1719709.6, -1724202.4, 0.83590645, 0.00004570499, 0.000036601054, -1719709.6, -4664.63, 0.0, 10.000194, 9.994237 
3.465009e+3, 1.3498956e+2, -1622331.8, -1627414.9, 0.18351828, 0.000045251738, -0.000082160324, -1622331.8, -5229.36, 0.0, 10.000193, 9.993454 
3.465009e+3, 1.4497705e+2, -1534229.9, -1548123.3, 1.2179126, 0.000044980196, 0.0001021857, -1534229.9, -15004.832, 0.0, 10.000192, 9.981777 
3.465009e+3, 1.5495883e+2, -1436504.1, -1450800.5, 0.6184131, 0.000044882498, -0.000047227582, -1436504.1, -15100.63, 0.0, 10.000192, 9.981245 
3.4650087e+3, 1.64934e+2, -1348455.5, -1371933.5, 1.6562041, 0.000044761655, 0.00004953266, -1348455.5, -24808.447, 0.0, 10.000191, 9.96916 
3.4650087e+3, 1.7490318e+2, -1250499.3, -1274292.8, 1.033116, 0.000044617274, -0.00006495221, -1250499.3, -24550.441, 0.0, 10.000191, 9.968746 
3.4650087e+3, 1.8486576e+2, -1162419.0, -1195702.6, 1.9050345, 0.00004447318, 0.0000771222, -1162419.0, -34103.375, 0.0, 10.00019, 9.956307 
3.4650087e+3, 1.948221e+2, -1064270.9, -1097816.8, 1.2964628, 0.00004432931, -0.00004938439, -1064270.9, -33527.414, 0.0, 10.00019, 9.955965 
3.4650087e+3, 2.0477177e+2, -976108.0, -1019419.8, 2.0330045, 0.00004422643, 0.000075161566, -976108.0, -42871.38, 0.0, 10.000189, 9.943203 
3.4650087e+3, 2.1471503e+2, -877822.4, -921395.9, 1.3782054, 0.00004416789, -0.00011928928, -877822.4, -42029.52, 0.0, 10.000189, 9.9428625 
3.4650087e+3, 2.2465156e+2, -789537.3, -843132.0, 2.0364368, 0.00004407342, 0.00012834254, -789537.3, -51122.637, 0.0, 10.000189, 9.92982 
3.4650087e+3, 2.3458146e+2, -691105.2, -744954.75, 1.4370549, 0.000043938242, -0.00008203112, -691105.2, -50003.4, 0.0, 10.000189, 9.929489 
3.4650084e+3, 2.4450439e+2, -602782.2, -667008.25, 1.9264526, 0.00004385111, 0.000081023005, -602782.2, -58925.184, 0.0, 10.000188, 9.916049 
3.4650084e+3, 2.5442055e+2, -504030.8, -568333.9, 1.2790731, 0.000043821346, -0.00010065281, -504030.8, -57352.27, 0.0, 10.000188, 9.915949 
3.4650084e+3, 2.6432964e+2, -415796.5, -490979.94, 1.6495047, 0.000043757984, 0.00014633285, -415796.5, -66227.01, 0.0, 10.000188, 9.901877 
3.4650084e+3, 2.742321e+2, -316512.53, -391367.97, 1.009425, 0.0000436517, -0.00019819768, -316512.53, -63986.85, 0.0, 10.000188, 9.902297 
3.4650084e+3, 2.8412628e+2, -230039.42, -318074.0, 1.2765721, 0.0000435665, 0.00023393687, -230039.42, -74476.91, 0.0, 10.000188, 9.885352 
3.4650084e+3, 2.9401267e+2, -130334.586, -217758.81, 0.6584888, 0.000043510296, -0.00024861976, -130334.586, -71658.805, 0.0, 10.000187, 9.88613 
3.4650084e+3, 3.0392703e+2, -40594.957, -84749.47, 0.7250318, 0.00004341206, 0.0001773549, -40594.957, -40594.957, 0.0, 10.000187, 9.942083 
3.4650084e+3, 3.13871e+2, -39517.63, -82511.21, 0.10085393, 0.00004325124, -0.00005192867, -39517.63, -39517.63, 0.0, 10.000187, 9.943594 
3.4750092e+3, 1.2499547e+2, -1719711.1, -1724205.1, 0.5217389, 0.00004642302, 0.00003683459, -1719711.1, -4666.5815, 0.0, 10.000194, 9.994235 
3.4750092e+3, 1.349896e+2, -1622333.3, -1627417.6, -0.13062829, 0.000046009798, -0.00008255413, -1622333.3, -5231.281, 0.0, 10.000193, 9.993453 
3.475009e+3, 1.4497708e+2, -1534231.3, -1548125.9, 0.98189765, 0.000045755256, 0.000102898965, -1534231.3, -15006.617, 0.0, 10.000192, 9.981775 
3.475009e+3, 1.5495886e+2, -1436505.5, -1450803.0, 0.3824987, 0.000045651217, -0.000047057838, -1436505.5, -15102.379, 0.0, 10.000192, 9.981244 
3.475009e+3, 1.6493402e+2, -1348456.9, -1371936.1, 1.458785, 0.0000455334, 0.00004953354, -1348456.9, -24810.23, 0.0, 10.000191, 9.969158 
3.475009e+3, 1.7490323e+2, -1250500.6, -1274295.4, 0.8358761, 0.0000454016, -0.00006473766, -1250500.6, -24552.191, 0.0, 10.000191, 9.968744 
3.475009e+3, 1.848658e+2, -1162420.4, -1195705.3, 1.7609555, 0.00004528213, 0.00007737615, -1162420.4, -34105.082, 0.0, 10.00019, 9.956306 
3.475009e+3, 1.9482215e+2, -1064272.3, -1097819.4, 1.1529638, 0.000045175475, -0.000049273338, -1064272.3, -33529.086, 0.0, 10.00019, 9.955963 
3.475009e+3, 2.0477182e+2, -976109.44, -1019422.6, 1.9310015, 0.000045044304, 0.00007526522, -976109.44, -42873.14, 0.0, 10.000189, 9.943201 
3.475009e+3, 2.1471506e+2, -877823.8, -921398.7, 1.2770576, 0.000044886576, -0.00011904633, -877823.8, -42031.246, 0.0, 10.000189, 9.942861 
3.475009e+3, 2.2465159e+2, -789538.6, -843134.6, 1.9382796, 0.000044806267, 0.00012859277, -789538.6, -51124.25, 0.0, 10.000189, 9.929819 
3.475009e+3, 2.3458149e+2, -691106.5, -744957.4, 1.3389497, 0.000044813518, -0.000081923, -691106.5, -50004.973, 0.0, 10.000189, 9.929487 
3.475009e+3, 2.445044e+2, -602783.56, -667011.06, 1.8531196, 0.00004476276, 0.00008108728, -602783.56, -58926.84, 0.0, 10.000188, 9.916047 
3.475009e+3, 2.5442058e+2, -504032.2, -568336.7, 1.2069148, 0.000044642617, -0.00010051489, -504032.2, -57353.895, 0.0, 10.000188, 9.915947 
3.475009e+3, 2.6432967e+2, -415797.9, -490982.78, 1.5877249, 0.000044530872, 0.00014650359, -415797.9, -66228.62, 0.0, 10.000188, 9.9018755 
3.475009e+3, 2.742321e+2, -316513.9, -391370.78, 0.9483204, 0.000044429933, -0.00019804639, -316513.9, -63988.426, 0.0, 10.000188, 9.902295 
3.475009e+3, 2.8412628e+2, -230040.77, -318076.75, 1.1897671, 0.000044373734, 0.00023406255, -230040.77, -74478.43, 0.0, 10.000188, 9.88535 
3.475009e+3, 2.940127e+2, -130335.91, -217761.55, 0.569344, 0.00004437864, -0.00024852794, -130335.91, -71660.29, 0.0, 10.000187, 9.886128 
3.475009e+3, 3.0392703e+2, -40596.297, -84752.26, 0.62002385, 0.000044302742, 0.00017742036, -40596.297, -40596.297, 0.0, 10.000187, 9.942081 
3.475009e+3, 3.13871e+2, -39518.97, -82514.01, -0.0060831215, 0.00004410638, -0.000051878284, -39518.97, -39518.97, 0.0, 10.000187, 9.943592 
3.4850097e+3, 1.24995515e+2, -1719700.9, -1724201.6, 0.84550905, 0.000047163234, 0.000037274905, -1719700.9, -4656.847, 0.0, 10.000201, 9.994233 
3.4850094e+3, 1.3498963e+2, -1622323.0, -1627414.1, 0.21957506, 0.00004677734, -0.00008294363, -1622323.0, -5221.472, 0.0, 10.0002, 9.993451 
3.4850094e+3, 1.4497712e+2, -1534220.9, -1548122.3, 1.4032974, 0.000046541918, 0.000103573366, -1534220.9, -14996.719, 0.0, 10.000199, 9.981773 
3.4850094e+3, 1.549589e+2, -1436495.3, -1450799.5, 0.788982, 0.00004644854, -0.000046875215, -1436495.3, -15092.524, 0.0, 10.000198, 9.981242 
3.4850094e+3, 1.6493407e+2, -1348446.6, -1371932.8, 1.9037137, 0.000046331712, 0.000049551756, -1348446.6, -24800.406, 0.0, 10.000198, 9.969156 
3.4850094e+3, 1.7490326e+2, -1250490.4, -1274292.0, 1.2620347, 0.00004619105, -0.00006454961, -1250490.4, -24542.287, 0.0, 10.000197, 9.968742 
3.4850094e+3, 1.8486583e+2, -1162410.0, -1195701.8, 2.2153966, 0.000046078385, 0.00007762649, -1162410.0, -34095.082, 0.0, 10.000197, 9.956305 
3.4850094e+3, 1.9482218e+2, -1064261.8, -1097815.9, 1.5791966, 0.00004599492, -0.000049073184, -1064261.8, -33519.027, 0.0, 10.000197, 9.955961 
3.485009e+3, 2.0477185e+2, -976099.06, -1019419.3, 2.385386, 0.00004587052, 0.00007542703, -976099.06, -42863.098, 0.0, 10.000196, 9.943199 
3.485009e+3, 2.147151e+2, -877813.4, -921395.4, 1.73866, 0.000045701803, -0.00011891, -877813.4, -42021.168, 0.0, 10.000196, 9.942859 
3.485009e+3, 2.2465162e+2, -789528.2, -843131.25, 2.3875008, 0.000045623252, 0.00012873788, -789528.2, -51114.08, 0.0, 10.000196, 9.929817 
3.485009e+3, 2.3458152e+2, -691096.0, -744954.0, 1.7364588, 0.000045646688, -0.00008173033, -691096.0, -49994.734, 0.0, 10.000196, 9.929486 
3.485009e+3, 2.4450444e+2, -602773.06, -667007.9, 2.2435303, 0.000045602563, 0.00008127919, -602773.06, -58916.586, 0.0, 10.000196, 9.916045 
3.485009e+3, 2.544206e+2, -504021.63, -568333.5, 1.5835615, 0.00004547763, -0.000100381425, -504021.63, -57343.563, 0.0, 10.0001955, 9.915945 
3.485009e+3, 2.6432967e+2, -415787.28, -490979.63, 1.948579, 0.000045366956, 0.00014660977, -415787.28, -66218.234, 0.0, 10.0001955, 9.901874 
3.485009e+3, 2.7423212e+2, -316503.3, -391367.7, 1.2860978, 0.000045274566, -0.0001979277, -316503.3, -63978.04, 0.0, 10.0001955, 9.902293 
3.485009e+3, 2.841263e+2, -230030.13, -318073.63, 1.4833513, 0.000045226076, 0.00023418035, -230030.13, -74467.98, 0.0, 10.0001955, 9.885348 
3.485009e+3, 2.940127e+2, -130325.22, -217758.44, 0.8294711, 0.000045237502, -0.0002484296, -130325.22, -71649.77, 0.0, 10.0001955, 9.8861265 
3.485009e+3, 3.0392706e+2, -40585.72, -84749.37, 0.8039871, 0.000045164776, 0.00017751915, -40585.72, -40585.72, 0.0, 10.0001955, 9.94208 
3.4850088e+3, 3.1387103e+2, -39508.34, -82511.11, 0.09249461, 0.000044966615, -0.000051749408, -39508.34, -39508.34, 0.0, 10.000195, 9.94359 
3.4950095e+3, 1.2499556e+2, -1719702.4, -1724204.3, 0.5575763, 0.00004792557, 0.000037938593, -1719702.4, -4658.756, 0.0, 10.000201, 9.994232 
3.4950095e+3, 1.3498968e+2, -1622324.5, -1627416.9, -0.06829091, 0.000047554364, -0.00008332885, -1622324.5, -5223.3496, 0.0, 10.0002, 9.993449 
3.4950095e+3, 1.4497717e+2, -1534222.3, -1548124.9, 1.165334, 0.000047340167, 0.00010420906, -1534222.3, -14998.554, 0.0, 10.000199, 9.981772 
3.4950095e+3, 1.5495895e+2, -1436496.6, -1450802.1, 0.5510827, 0.000047274378, -0.00004667975, -1436496.6, -15094.324, 0.0, 10.000198, 9.98124 
3.4950095e+3, 1.6493411e+2, -1348448.1, -1371935.5, 1.7351682, 0.000047156525, 0.00004958724, -1348448.1, -24802.246, 0.0, 10.000198, 9.969154 
3.4950095e+3, 1.749033e+2, -1250491.8, -1274294.6, 1.0938218, 0.00004698563, -0.00006438798, -1250491.8, -24544.094, 0.0, 10.000197, 9.968741 
3.4950092e+3, 1.8486586e+2, -1162411.4, -1195704.5, 2.095251, 0.000046862016, 0.00007787326, -1162411.4, -34096.863, 0.0, 10.000197, 9.956303 
3.4950092e+3, 1.948222e+2, -1064263.3, -1097818.6, 1.4595689, 0.000046787773, -0.000048784248, -1064263.3, -33520.777, 0.0, 10.000197, 9.955959 
3.4950092e+3, 2.0477188e+2, -976100.5, -1019422.1, 2.3016012, 0.000046705092, 0.00007564679, -976100.5, -42864.86, 0.0, 10.000196, 9.943198 
3.4950092e+3, 2.1471512e+2, -877814.8, -921398.2, 1.6556191, 0.00004661326, -0.000118879914, -877814.8, -42022.9, 0.0, 10.000196, 9.942857 
3.4950092e+3, 2.2465166e+2, -789529.6, -843134.1, 2.3157122, 0.0000465241, 0.00012877827, -789529.6, -51115.805, 0.0, 10.000196, 9.929815 
3.4950092e+3, 2.3458154e+2, -691097.4, -744956.8, 1.6649706, 0.000046437934, -0.00008145342, -691097.4, -49996.43, 0.0, 10.000196, 9.929484 
3.4950092e+3, 2.4450447e+2, -602774.5, -667010.75, 2.2008715, 0.000046370806, 0.00008159831, -602774.5, -58918.29, 0.0, 10.000196, 9.916043 
3.4950092e+3, 2.5442064e+2, -504023.03, -568336.4, 1.5422896, 0.000046326375, -0.00010025239, -504023.03, -57345.23, 0.0, 10.0001955, 9.915943 
3.4950092e+3, 2.643297e+2, -415788.72, -490982.53, 1.9001263, 0.000046266046, 0.00014665164, -415788.72, -66219.89, 0.0, 10.0001955, 9.901872 
3.4950092e+3, 2.7423215e+2, -316504.75, -391370.56, 1.2371241, 0.0000461854, -0.00019784151, -316504.75, -63979.664, 0.0, 10.0001955, 9.902291 
3.495009e+3, 2.8412634e+2, -230031.52, -318076.53, 1.4225484, 0.000046123398, 0.00023429026, -230031.52, -74469.57, 0.0, 10.0001955, 9.885346 
3.495009e+3, 2.9401273e+2, -130326.6, -217761.3, 0.76755756, 0.000046086945, -0.0002483247, -130326.6, -71651.33, 0.0, 10.0001955, 9.886125 
3.495009e+3, 3.0392706e+2, -40587.203, -84752.46, 0.7173817, 0.000045998295, 0.00017765113, -40587.203, -40587.203, 0.0, 10.0001955, 9.942078 
3.495009e+3, 3.1387103e+2, -39509.836, -82514.23, 0.002965407, 0.000045831977, -0.000051542323, -39509.836, -39509.836, 0.0, 10.000195, 9.943588 
3.5050097e+3, 1.2499561e+2, -1719692.0, -1724200.6, 0.8224623, 0.000048731814, 0.000038479604, -1719692.0, -4648.891, 0.0, 10.000208, 9.99423 
3.5050097e+3, 1.3498975e+2, -1622314.1, -1627413.1, 0.24552564, 0.00004836248, -0.00008374443, -1622314.1, -5213.4873, 0.0, 10.000207, 9.993447 
3.5050097e+3, 1.4497721e+2, -1534211.9, -1548121.3, 1.5724638, 0.000048155107, 0.00010488665, -1534211.9, -14988.642, 0.0, 10.000207, 9.9817705 
3.5050097e+3, 1.54959e+2, -1436486.1, -1450798.4, 0.95431507, 0.000048100916, -0.000046455636, -1436486.1, -15084.244, 0.0, 10.000206, 9.981239 
3.5050097e+3, 1.6493414e+2, -1348437.5, -1371931.9, 2.1913068, 0.00004798193, 0.000049631028, -1348437.5, -24792.1, 0.0, 10.000206, 9.969153 
3.5050094e+3, 1.7490335e+2, -1250481.1, -1274291.1, 1.5302919, 0.000047796904, -0.000064245636, -1250481.1, -24533.838, 0.0, 10.000205, 9.9687395 
3.5050094e+3, 1.848659e+2, -1162400.8, -1195701.0, 2.5482624, 0.00004766979, 0.00007808152, -1162400.8, -34086.53, 0.0, 10.000205, 9.956301 
3.5050094e+3, 1.9482225e+2, -1064252.5, -1097815.1, 1.8816897, 0.00004760315, -0.000048544294, -1064252.5, -33510.4, 0.0, 10.000205, 9.955958 
3.5050094e+3, 2.047719e+2, -976089.7, -1019418.56, 2.7453523, 0.000047548896, 0.00007585336, -976089.7, -42854.43, 0.0, 10.000205, 9.943196 
3.5050094e+3, 2.1471515e+2, -877804.06, -921394.7, 2.109381, 0.000047508012, -0.00011877716, -877804.06, -42012.457, 0.0, 10.000204, 9.942855 
3.5050094e+3, 2.246517e+2, -789518.9, -843130.8, 2.7758732, 0.000047420916, 0.00012886962, -789518.9, -51105.36, 0.0, 10.000204, 9.929813 
3.5050094e+3, 2.3458157e+2, -691086.5, -744953.5, 2.0551739, 0.000047281483, -0.00008126887, -691086.5, -49985.79, 0.0, 10.000204, 9.929482 
3.5050094e+3, 2.445045e+2, -602763.44, -667007.3, 2.5628357, 0.00004719678, 0.00008180195, -602763.44, -58907.48, 0.0, 10.000204, 9.916041 
3.5050094e+3, 2.5442067e+2, -504011.97, -568332.94, 1.9073312, 0.000047177444, -0.00010011823, -504011.97, -57334.402, 0.0, 10.000204, 9.915941 
3.5050094e+3, 2.6432973e+2, -415777.7, -490979.28, 2.2409017, 0.00004714396, 0.00014675246, -415777.7, -66209.09, 0.0, 10.000204, 9.90187 
3.5050094e+3, 2.7423215e+2, -316493.72, -391367.34, 1.531694, 0.00004709229, -0.00019772784, -316493.72, -63968.85, 0.0, 10.000204, 9.902289 
3.5050094e+3, 2.8412634e+2, -230020.42, -318073.28, 1.6703799, 0.00004703815, 0.00023441711, -230020.42, -74458.67, 0.0, 10.000204, 9.8853445 
3.5050094e+3, 2.9401276e+2, -130315.4, -217758.06, 0.9612663, 0.00004698067, -0.0002481845, -130315.4, -71640.3, 0.0, 10.000204, 9.886123 
3.5050094e+3, 3.039271e+2, -40576.047, -84749.46, 0.83905375, 0.000046872672, 0.00017778584, -40576.047, -40576.047, 0.0, 10.000204, 9.942075 
3.5050094e+3, 3.1387103e+2, -39498.508, -82511.164, 0.08735776, 0.000046689787, -0.000051441224, -39498.508, -39498.508, 0.0, 10.000204, 9.943586 
3.51501e+3, 1.2499566e+2, -1719693.4, -1724203.0, 0.5436199, 0.00004958183, 0.00003891728, -1719693.4, -4650.698, 0.0, 10.000208, 9.994228 
3.51501e+3, 1.349898e+2, -1622315.5, -1627415.6, -0.03340326, 0.00004920159, -0.00008419027, -1622315.5, -5215.2676, 0.0, 10.000207, 9.993446 
3.51501e+3, 1.4497727e+2, -1534213.4, -1548123.9, 1.3822988, 0.000048986705, 0.00010560601, -1534213.4, -14990.502, 0.0, 10.000207, 9.981769 
3.51501e+3, 1.5495905e+2, -1436487.5, -1450801.0, 0.7642241, 0.000048928185, -0.00004620297, -1436487.5, -15086.069, 0.0, 10.000206, 9.981237 
3.51501e+3, 1.6493419e+2, -1348439.0, -1371934.8, 2.0586414, 0.00004880795, 0.00004968308, -1348439.0, -24794.0, 0.0, 10.000206, 9.9691515 
3.51501e+3, 1.7490338e+2, -1250482.6, -1274293.9, 1.3979502, 0.000048624843, -0.00006412248, -1250482.6, -24535.705, 0.0, 10.000205, 9.968738 
3.51501e+3, 1.8486595e+2, -1162402.3, -1195703.9, 2.4492424, 0.000048501643, 0.00007825142, -1162402.3, -34088.395, 0.0, 10.000205, 9.956299 
3.51501e+3, 1.9482228e+2, -1064253.9, -1097818.0, 1.7830104, 0.000048441, -0.000048353133, -1064253.9, -33512.227, 0.0, 10.000205, 9.955956 
3.51501e+3, 2.0477195e+2, -976091.1, -1019421.3, 2.6750982, 0.00004840193, 0.00007604679, -976091.1, -42856.188, 0.0, 10.000205, 9.943194 
3.51501e+3, 2.1471518e+2, -877805.44, -921397.4, 2.0396547, 0.00004838617, -0.000118601994, -877805.44, -42014.176, 0.0, 10.000204, 9.942853 
3.51501e+3, 2.2465172e+2, -789520.44, -843133.9, 2.761562, 0.000048313752, 0.00012901181, -789520.44, -51107.242, 0.0, 10.000204, 9.9298115 
3.51501e+3, 2.345816e+2, -691088.0, -744956.56, 2.042706, 0.000048177186, -0.00008117634, -691088.0, -49987.637, 0.0, 10.000204, 9.929481 
3.5150096e+3, 2.4450453e+2, -602764.9, -667010.2, 2.537918, 0.000048080314, 0.000081890554, -602764.9, -58909.195, 0.0, 10.000204, 9.916039 
3.5150096e+3, 2.544207e+2, -504013.38, -568335.8, 1.8817443, 0.000048030863, -0.00009997894, -504013.38, -57336.074, 0.0, 10.000204, 9.915939 
3.5150096e+3, 2.6432976e+2, -415779.22, -490982.34, 2.2087815, 0.000048000813, 0.00014691203, -415779.22, -66210.85, 0.0, 10.000204, 9.901868 
3.5150096e+3, 2.7423218e+2, -316495.22, -391370.44, 1.4991174, 0.00004799529, -0.00019758679, -316495.22, -63970.574, 0.0, 10.000204, 9.9022875 
3.5150096e+3, 2.8412637e+2, -230021.92, -318076.4, 1.652643, 0.000047970312, 0.00023456081, -230021.92, -74460.375, 0.0, 10.000204, 9.885343 
3.5150096e+3, 2.9401276e+2, -130316.88, -217761.14, 0.9448485, 0.00004791855, -0.000248009, -130316.88, -71641.96, 0.0, 10.000204, 9.886121 
3.5150096e+3, 3.039271e+2, -40577.594, -84752.69, 0.800318, 0.000047787802, 0.00017792327, -40577.594, -40577.594, 0.0, 10.000204, 9.942073 
3.5150096e+3, 3.1387106e+2, -39500.066, -82514.414, 0.046018496, 0.000047540118, -0.000051445724, -39500.066, -39500.066, 0.0, 10.000204, 9.9435835 
3.5250103e+3, 1.24995716e+2, -1719682.9, -1724199.4, 1.0492836, 0.000050399485, 0.00003916158, -1719682.9, -4640.694, 0.0, 10.000216, 9.994227 
3.5250103e+3, 1.3498984e+2, -1622304.8, -1627411.9, 0.37455526, 0.000050001163, -0.00008466761, -1622304.8, -5205.0854, 0.0, 10.000215, 9.993444 
3.5250103e+3, 1.4497733e+2, -1534202.6, -1548120.1, 1.7939593, 0.000049778915, 0.00010638783, -1534202.6, -14980.2295, 0.0, 10.000215, 9.981767 
3.52501e+3, 1.549591e+2, -1436476.8, -1450797.4, 1.1233395, 0.00004972358, -0.000045932324, -1436476.8, -15075.71, 0.0, 10.000214, 9.9812355 
3.52501e+3, 1.6493423e+2, -1348428.1, -1371931.0, 2.4626455, 0.000049630507, 0.000049738257, -1348428.1, -24783.564, 0.0, 10.000214, 9.96915 
3.52501e+3, 1.7490342e+2, -1250471.8, -1274290.3, 1.8343148, 0.000049499024, -0.00006398086, -1250471.8, -24525.217, 0.0, 10.000214, 9.968736 
3.52501e+3, 1.8486598e+2, -1162391.3, -1195700.3, 2.9266686, 0.000049391194, 0.00007842249, -1162391.3, -34077.902, 0.0, 10.000213, 9.956297 
3.52501e+3, 1.9482233e+2, -1064242.9, -1097814.4, 2.2208605, 0.000049308022, -0.000048212292, -1064242.9, -33501.6, 0.0, 10.000213, 9.955955 
3.52501e+3, 2.0477198e+2, -976079.94, -1019417.7, 3.099773, 0.000049252394, 0.00007620506, -976079.94, -42845.367, 0.0, 10.000213, 9.9431925 
3.52501e+3, 2.1471523e+2, -877794.06, -921393.7, 2.4074955, 0.000049226564, -0.00011837468, -877794.06, -42003.184, 0.0, 10.000213, 9.942851 
3.52501e+3, 2.2465175e+2, -789509.1, -843130.4, 3.1511688, 0.00004917235, 0.0001292173, -789509.1, -51096.24, 0.0, 10.000213, 9.92981 
3.5250098e+3, 2.3458163e+2, -691076.75, -744953.06, 2.471846, 0.000049085982, -0.0000810955, -691076.75, -49976.65, 0.0, 10.000213, 9.929479 
3.5250098e+3, 2.4450456e+2, -602753.56, -667006.7, 2.956764, 0.000049013415, 0.00008194373, -602753.56, -58898.15, 0.0, 10.000213, 9.916038 
3.5250098e+3, 2.5442073e+2, -504001.94, -568332.3, 2.2233362, 0.000048957332, -0.00009983753, -504001.94, -57324.914, 0.0, 10.000213, 9.915937 
3.5250098e+3, 2.6432976e+2, -415767.7, -490978.94, 2.5021427, 0.00004891038, 0.00014708034, -415767.7, -66199.586, 0.0, 10.000213, 9.901866 
3.5250098e+3, 2.742322e+2, -316483.53, -391366.97, 1.7682396, 0.000048874972, -0.00019746988, -316483.53, -63959.1, 0.0, 10.000213, 9.902286 
3.5250098e+3, 2.841264e+2, -230010.11, -318072.94, 1.8907186, 0.00004884746, 0.00023465646, -230010.11, -74448.766, 0.0, 10.000213, 9.885341 
3.5250098e+3, 2.9401278e+2, -130305.086, -217757.72, 1.1618248, 0.000048830672, -0.00024789295, -130305.086, -71630.36, 0.0, 10.000213, 9.886119 
3.5250098e+3, 3.0392712e+2, -40565.965, -84749.49, 0.9820942, 0.000048738406, 0.00017799772, -40565.965, -40565.965, 0.0, 10.000213, 9.942071 
3.5250098e+3, 3.1387106e+2, -39488.43, -82511.234, 0.23760088, 0.00004853405, -0.000051505154, -39488.43, -39488.43, 0.0, 10.000213, 9.943582 
3.5350105e+3, 1.2499577e+2, -1719684.4, -1724202.3, 0.8216489, 0.00005118493, 0.00003923184, -1719684.4, -4642.7446, 0.0, 10.000216, 9.9942255 
3.5350105e+3, 1.3498989e+2, -1622306.4, -1627414.8, 0.14694054, 0.0000507614, -0.00008517631, -1622306.4, -5207.107, 0.0, 10.000215, 9.993443 
3.5350105e+3, 1.4497738e+2, -1534204.1, -1548123.0, 1.6327655, 0.000050531933, 0.0001072319, -1534204.1, -14982.226, 0.0, 10.000215, 9.981766 
3.5350102e+3, 1.5495914e+2, -1436478.3, -1450800.1, 0.9622088, 0.000050487277, -0.000045643763, -1436478.3, -15077.666, 0.0, 10.000214, 9.981234 
3.5350102e+3, 1.6493428e+2, -1348429.5, -1371933.8, 2.3528948, 0.000050449657, 0.00004979655, -1348429.5, -24785.408, 0.0, 10.000214, 9.969148 
3.5350102e+3, 1.7490347e+2, -1250473.1, -1274292.9, 1.7247835, 0.000050419305, -0.000063820815, -1250473.1, -24527.027, 0.0, 10.000214, 9.968734 
3.5350102e+3, 1.8486603e+2, -1162392.9, -1195703.4, 2.8694613, 0.000050338258, 0.00007859474, -1162392.9, -34079.867, 0.0, 10.000213, 9.956295 
3.5350102e+3, 1.9482236e+2, -1064244.5, -1097817.4, 2.1642551, 0.000050204126, -0.00004812158, -1064244.5, -33503.53, 0.0, 10.000213, 9.955953 
3.5350102e+3, 2.0477204e+2, -976081.44, -1019420.7, 3.082739, 0.00005010034, 0.0000763283, -976081.44, -42847.254, 0.0, 10.000213, 9.943191 
3.53501e+3, 2.1471526e+2, -877795.6, -921396.7, 2.391223, 0.00005002938, -0.00011809541, -877795.6, -42005.035, 0.0, 10.000213, 9.942849 
3.53501e+3, 2.246518e+2, -789510.56, -843133.3, 3.1461086, 0.00004999689, 0.00012948585, -789510.56, -51098.06, 0.0, 10.000213, 9.929808 
3.53501e+3, 2.3458166e+2, -691078.2, -744956.0, 2.4671159, 0.00005000786, -0.0000810263, -691078.2, -49978.43, 0.0, 10.000213, 9.929477 
3.53501e+3, 2.4450457e+2, -602755.1, -667009.9, 2.9699998, 0.000049995935, 0.00008196161, -602755.1, -58900.02, 0.0, 10.000213, 9.916036 
3.53501e+3, 2.5442076e+2, -504003.5, -568335.5, 2.2374213, 0.000049956612, -0.00009969401, -504003.5, -57326.75, 0.0, 10.000213, 9.9159355 
3.53501e+3, 2.643298e+2, -415769.28, -490982.16, 2.532872, 0.000049872506, 0.00014725735, -415769.28, -66201.4, 0.0, 10.000213, 9.901863 
3.53501e+3, 2.7423224e+2, -316485.06, -391370.16, 1.8000636, 0.000049731465, -0.00019737704, -316485.06, -63960.88, 0.0, 10.000213, 9.902284 
3.53501e+3, 2.841264e+2, -230011.66, -318076.1, 1.8892343, 0.000049669863, 0.00023470426, -230011.66, -74450.516, 0.0, 10.000213, 9.885339 
3.53501e+3, 2.940128e+2, -130306.61, -217760.88, 1.1573023, 0.000049717168, -0.00024783614, -130306.61, -71632.06, 0.0, 10.000213, 9.886117 
3.53501e+3, 3.0392712e+2, -40567.496, -84752.69, 0.94803345, 0.00004972439, 0.00017800943, -40567.496, -40567.496, 0.0, 10.000213, 9.942068 
3.53501e+3, 3.138711e+2, -39489.965, -82514.44, 0.20001282, 0.000049671085, -0.00005161929, -39489.965, -39489.965, 0.0, 10.000213, 9.94358 
3.5450107e+3, 1.2499581e+2, -1719673.4, -1724198.4, 1.1910417, 0.000051852992, 0.00003953239, -1719673.4, -4632.325, 0.0, 10.000223, 9.994224 
3.5450107e+3, 1.3498993e+2, -1622295.4, -1627411.0, 0.50604916, 0.000051541047, -0.00008564566, -1622295.4, -5196.6445, 0.0, 10.000222, 9.993441 
3.5450104e+3, 1.4497742e+2, -1534193.1, -1548119.3, 2.04361, 0.000051366518, 0.00010800755, -1534193.1, -14971.717, 0.0, 10.000222, 9.981764 
3.5450104e+3, 1.5495919e+2, -1436467.3, -1450796.5, 1.3484238, 0.000051319654, -0.000045510933, -1436467.3, -15067.095, 0.0, 10.000221, 9.981232 
3.5450104e+3, 1.6493432e+2, -1348418.4, -1371929.9, 2.76167, 0.000051283372, 0.000049743354, -1348418.4, -24774.688, 0.0, 10.000221, 9.969146 
3.5450104e+3, 1.7490351e+2, -1250461.9, -1274289.0, 2.0936027, 0.00005125798, -0.00006359377, -1250461.9, -24516.236, 0.0, 10.000221, 9.968733 
3.5450104e+3, 1.8486607e+2, -1162381.6, -1195699.6, 3.2876441, 0.000051195493, 0.00007887752, -1162381.6, -34069.063, 0.0, 10.000221, 9.956293 
3.5450104e+3, 1.948224e+2, -1064233.1, -1097813.8, 2.5890408, 0.00005109415, -0.000048017886, -1064233.1, -33492.54, 0.0, 10.000221, 9.955951 
3.5450104e+3, 2.0477207e+2, -976069.94, -1019417.0, 3.5233397, 0.000050996045, 0.000076387514, -976069.94, -42836.133, 0.0, 10.000221, 9.943189 
3.5450104e+3, 2.1471529e+2, -877784.0, -921392.94, 2.783392, 0.000050901424, -0.00011793494, -877784.0, -41993.766, 0.0, 10.000221, 9.942847 
3.5450104e+3, 2.2465183e+2, -789498.9, -843129.56, 3.4955873, 0.000050873452, 0.00012967261, -789498.9, -51086.656, 0.0, 10.000221, 9.929806 
3.5450104e+3, 2.345817e+2, -691066.44, -744952.3, 2.7779207, 0.00005092083, -0.00008089814, -691066.44, -49966.973, 0.0, 10.000221, 9.929474 
3.5450104e+3, 2.445046e+2, -602743.4, -667006.3, 3.2845886, 0.00005093032, 0.00008206668, -602743.4, -58888.54, 0.0, 10.000221, 9.916034 
3.5450104e+3, 2.544208e+2, -503991.63, -568331.94, 2.539505, 0.000050894483, -0.00009956957, -503991.63, -57315.117, 0.0, 10.000221, 9.915934 
3.5450104e+3, 2.6432982e+2, -415757.25, -490978.56, 2.8309007, 0.000050816645, 0.00014736972, -415757.25, -66189.63, 0.0, 10.000222, 9.901861 
3.5450104e+3, 2.7423224e+2, -316472.94, -391366.56, 2.07613, 0.000050685456, -0.00019731685, -316472.94, -63948.992, 0.0, 10.000222, 9.902282 
3.5450104e+3, 2.8412643e+2, -229999.44, -318072.53, 2.0987203, 0.00005062618, 0.00023474057, -229999.44, -74438.51, 0.0, 10.000222, 9.885336 
3.5450104e+3, 2.940128e+2, -130294.32, -217757.31, 1.3182529, 0.00005066549, -0.00024778483, -130294.32, -71619.96, 0.0, 10.000222, 9.886115 
3.5450104e+3, 3.0392715e+2, -40555.25, -84749.28, 1.0208184, 0.00005069057, 0.00017808369, -40555.25, -40555.25, 0.0, 10.000222, 9.942066 
3.5450104e+3, 3.138711e+2, -39477.59, -82510.984, 0.19754636, 0.00005069358, -0.000051510597, -39477.59, -39477.59, 0.0, 10.000222, 9.943577 
3.555011e+3, 1.24995865e+2, -1719675.0, -1724201.4, 0.9830797, 0.000052404193, 0.00004008937, -1719675.0, -4634.418, 0.0, 10.000223, 9.994222 
3.555011e+3, 1.3498999e+2, -1622297.0, -1627414.0, 0.29815128, 0.000052340067, -0.00008607584, -1622297.0, -5198.705, 0.0, 10.000222, 9.993439 
3.555011e+3, 1.4497747e+2, -1534194.8, -1548122.3, 1.9052833, 0.00005228237, 0.00010871511, -1534194.8, -14973.783, 0.0, 10.000222, 9.981762 
3.555011e+3, 1.5495923e+2, -1436468.8, -1450799.4, 1.2103173, 0.000052220472, -0.00004553319, -1436468.8, -15069.118, 0.0, 10.000221, 9.98123 
3.555011e+3, 1.6493437e+2, -1348419.9, -1371932.8, 2.6796205, 0.00005213164, 0.00004957914, -1348419.9, -24776.63, 0.0, 10.000221, 9.969145 
3.555011e+3, 1.7490357e+2, -1250463.4, -1274291.9, 2.011701, 0.00005201542, -0.00006329998, -1250463.4, -24518.148, 0.0, 10.000221, 9.968731 
3.555011e+3, 1.848661e+2, -1162383.3, -1195702.6, 3.2852695, 0.000051963314, 0.0000792704, -1162383.3, -34071.027, 0.0, 10.000221, 9.956291 
3.555011e+3, 1.9482243e+2, -1064234.6, -1097816.6, 2.5875728, 0.000051978157, -0.000047901252, -1064234.6, -33494.47, 0.0, 10.000221, 9.955949 
3.5550106e+3, 2.047721e+2, -976071.6, -1019420.2, 3.5527847, 0.000051939354, 0.000076382974, -976071.56, -42838.133, 0.0, 10.000221, 9.943187 
3.5550106e+3, 2.1471533e+2, -877785.56, -921396.1, 2.8134954, 0.000051842464, -0.000117892785, -877785.56, -41995.73, 0.0, 10.000221, 9.942845 
3.5550106e+3, 2.2465186e+2, -789500.44, -843132.7, 3.5157483, 0.00005180188, 0.0001297779, -789500.44, -51088.563, 0.0, 10.000221, 9.929804 
3.5550106e+3, 2.3458172e+2, -691068.0, -744955.4, 2.7976885, 0.000051824973, -0.000080711245, -691068.0, -49968.844, 0.0, 10.000221, 9.929472 
3.5550106e+3, 2.4450465e+2, -602745.0, -667009.56, 3.3471627, 0.000051816805, 0.00008225858, -602745.0, -58890.445, 0.0, 10.000221, 9.916031 
3.5550106e+3, 2.544208e+2, -503993.22, -568335.1, 2.6040933, 0.000051771236, -0.000099464145, -503993.22, -57316.99, 0.0, 10.000221, 9.915932 
3.5550106e+3, 2.6432985e+2, -415758.88, -490981.84, 2.904956, 0.000051742918, 0.0001474177, -415758.88, -66191.5, 0.0, 10.000222, 9.901859 
3.5550106e+3, 2.7423227e+2, -316474.56, -391369.8, 2.1508088, 0.000051736602, -0.00019728918, -316474.56, -63950.816, 0.0, 10.000222, 9.902279 
3.5550106e+3, 2.8412646e+2, -230001.08, -318075.88, 2.1367533, 0.00005171592, 0.00023476544, -230001.08, -74440.34, 0.0, 10.000222, 9.885334 
3.5550106e+3, 2.9401284e+2, -130295.93, -217760.66, 1.3529394, 0.000051675437, -0.00024773902, -130295.93, -71621.76, 0.0, 10.000222, 9.886112 
3.5550106e+3, 3.0392718e+2, -40556.91, -84752.74, 1.0232433, 0.000051637075, 0.00017822023, -40556.91, -40556.91, 0.0, 10.000222, 9.942064 
3.5550103e+3, 3.1387112e+2, -39479.258, -82514.46, 0.1960544, 0.000051602034, -0.000051179966, -39479.258, -39479.258, 0.0, 10.000222, 9.943575 
3.5650113e+3, 1.2499592e+2, -1719664.0, -1724197.5, 1.0544162, 0.00005313658, 0.000040637162, -1719664.0, -4623.91, 0.0, 10.000231, 9.99422 
3.565011e+3, 1.3499004e+2, -1622286.0, -1627410.1, 0.39981294, 0.000053174237, -0.00008639189, -1622286.0, -5188.301, 0.0, 10.00023, 9.993437 
3.565011e+3, 1.4497751e+2, -1534183.8, -1548118.4, 2.1816342, 0.000053168125, 0.0001095524, -1534183.8, -14963.264, 0.0, 10.00023, 9.98176 
3.565011e+3, 1.5495928e+2, -1436457.6, -1450795.5, 1.5963229, 0.00005310717, -0.00004558597, -1436457.6, -15058.4, 0.0, 10.00023, 9.981229 
3.565011e+3, 1.6493441e+2, -1348408.6, -1371929.1, 3.1385024, 0.000052984407, 0.000049327762, -1348408.6, -24765.822, 0.0, 10.00023, 9.969142 
3.565011e+3, 1.749036e+2, -1250451.8, -1274288.0, 2.3451166, 0.000052798685, -0.00006304431, -1250451.8, -24506.963, 0.0, 10.00023, 9.968729 
3.565011e+3, 1.8486615e+2, -1162371.4, -1195698.6, 3.5865011, 0.00005274855, 0.00007966341, -1162371.4, -34059.598, 0.0, 10.00023, 9.956289 
3.5650107e+3, 1.9482248e+2, -1064222.9, -1097812.8, 2.8878717, 0.000052840107, -0.000047757523, -1064222.9, -33483.063, 0.0, 10.00023, 9.955947 
3.5650107e+3, 2.0477214e+2, -976059.9, -1019416.44, 3.9021666, 0.000052860774, 0.0000764239, -976059.9, -42826.79, 0.0, 10.00023, 9.943185 
3.5650107e+3, 2.1471536e+2, -877773.9, -921392.44, 3.1851134, 0.000052804688, -0.000117796095, -877773.9, -41984.348, 0.0, 10.00023, 9.942843 
3.5650107e+3, 2.2465189e+2, -789488.56, -843129.0, 3.8996043, 0.000052763073, 0.0001298961, -789488.56, -51077.027, 0.0, 10.00023, 9.929801 
3.5650107e+3, 2.3458175e+2, -691055.75, -744951.56, 3.1151161, 0.000052737832, -0.00008061034, -691055.75, -49956.926, 0.0, 10.000231, 9.92947 
3.5650107e+3, 2.4450468e+2, -602732.5, -667005.75, 3.622528, 0.000052701893, 0.000082353436, -602732.5, -58878.293, 0.0, 10.000231, 9.916029 
3.5650107e+3, 2.5442082e+2, -503980.66, -568331.3, 2.838933, 0.00005265314, -0.000099361874, -503980.66, -57304.71, 0.0, 10.000231, 9.915929 
3.5650107e+3, 2.6432988e+2, -415746.3, -490978.06, 3.0924335, 0.000052673797, 0.0001475216, -415746.3, -66179.19, 0.0, 10.000231, 9.901857 
3.5650107e+3, 2.742323e+2, -316462.13, -391366.13, 2.322063, 0.000052782747, -0.00019719104, -316462.13, -63938.62, 0.0, 10.000232, 9.902277 
3.5650107e+3, 2.8412646e+2, -229988.61, -318072.34, 2.2987285, 0.000052809886, 0.00023482731, -229988.61, -74428.1, 0.0, 10.000232, 9.885332 
3.5650107e+3, 2.9401284e+2, -130283.125, -217756.97, 1.4651138, 0.000052724663, -0.00024775515, -130283.125, -71609.14, 0.0, 10.000232, 9.88611 
3.5650104e+3, 3.0392718e+2, -40543.95, -84749.29, 1.0258394, 0.000052613766, 0.00017824094, -40543.945, -40543.945, 0.0, 10.000233, 9.942061 
3.5650104e+3, 3.1387112e+2, -39465.81, -82510.805, 0.056462485, 0.000052465835, -0.000050951672, -39465.81, -39465.81, 0.0, 10.000233, 9.943572 
3.5750115e+3, 1.2499598e+2, -1719665.5, -1724200.3, 0.8325513, 0.000054049393, 0.000041201976, -1719665.5, -4625.94, 0.0, 10.000231, 9.994218 
3.5750112e+3, 1.3499008e+2, -1622287.5, -1627413.0, 0.17796339, 0.00005404343, -0.00008659433, -1622287.5, -5190.301, 0.0, 10.00023, 9.993436 
3.5750112e+3, 1.4497757e+2, -1534185.0, -1548120.9, 2.0984602, 0.000054023945, 0.00011051887, -1534185.0, -14965.093, 0.0, 10.00023, 9.981758 
3.5750112e+3, 1.5495932e+2, -1436458.9, -1450798.0, 1.5132784, 0.000053979846, -0.000045669127, -1436458.9, -15060.192, 0.0, 10.00023, 9.981227 
3.5750112e+3, 1.6493446e+2, -1348410.4, -1371932.5, 3.1564198, 0.000053841697, 0.000048989605, -1348410.4, -24768.053, 0.0, 10.00023, 9.96914 
3.5750112e+3, 1.7490365e+2, -1250453.5, -1274291.4, 2.3635676, 0.000053607702, -0.000062826606, -1250453.5, -24509.158, 0.0, 10.00023, 9.968726 
3.5750112e+3, 1.8486619e+2, -1162372.9, -1195701.8, 3.5896914, 0.000053551183, 0.00008005655, -1162372.9, -34061.58, 0.0, 10.00023, 9.956287 
3.575011e+3, 1.9482252e+2, -1064224.4, -1097815.8, 2.8908732, 0.00005368014, -0.000047586826, -1064224.4, -33485.0, 0.0, 10.00023, 9.955945 
3.575011e+3, 2.0477219e+2, -976061.44, -1019419.56, 3.9515967, 0.00005376044, 0.00007651008, -976061.44, -42828.754, 0.0, 10.00023, 9.943183 
3.575011e+3, 2.1471539e+2, -877775.44, -921395.5, 3.235386, 0.00005378804, -0.000117645104, -877775.44, -41986.273, 0.0, 10.00023, 9.942842 
3.575011e+3, 2.2465193e+2, -789490.25, -843132.44, 4.0228367, 0.00005375694, 0.00013002718, -789490.25, -51079.08, 0.0, 10.00023, 9.929799 
3.575011e+3, 2.3458178e+2, -691057.44, -744954.94, 3.240764, 0.00005365942, -0.000080595055, -691057.44, -49958.938, 0.0, 10.000231, 9.929468 
3.575011e+3, 2.445047e+2, -602734.2, -667009.1, 3.7311893, 0.000053585638, 0.00008235166, -602734.2, -58880.29, 0.0, 10.000231, 9.916027 
3.575011e+3, 2.5442085e+2, -503982.34, -568334.7, 2.9467483, 0.000053540232, -0.00009926274, -503982.34, -57306.668, 0.0, 10.000231, 9.915927 
3.575011e+3, 2.6432994e+2, -415747.94, -490981.4, 3.154621, 0.000053609314, 0.00014768119, -415747.94, -66181.09, 0.0, 10.000231, 9.9018545 
3.575011e+3, 2.7423233e+2, -316463.75, -391369.47, 2.3811135, 0.000053823955, -0.00019702272, -316463.75, -63940.48, 0.0, 10.000232, 9.902275 
3.575011e+3, 2.841265e+2, -229990.33, -318075.88, 2.4358058, 0.00005390811, 0.00023492605, -229990.33, -74430.03, 0.0, 10.000232, 9.885329 
3.5750106e+3, 2.9401287e+2, -130284.83, -217760.52, 1.6092341, 0.000053813048, -0.0002478329, -130284.83, -71611.04, 0.0, 10.000232, 9.886107 
3.5750106e+3, 3.039272e+2, -40545.85, -84753.26, 1.1571329, 0.000053620577, 0.00017814628, -40545.85, -40545.85, 0.0, 10.000233, 9.942059 
3.5750106e+3, 3.1387115e+2, -39467.742, -82514.82, 0.18628946, 0.000053285235, -0.000050825303, -39467.742, -39467.742, 0.0, 10.000233, 9.943569 
3.5850117e+3, 1.2499604e+2, -1719655.1, -1724196.8, 1.0861528, 0.000055181943, 0.000041610812, -1719655.1, -4616.101, 0.0, 10.000238, 9.994217 
3.5850114e+3, 1.3499014e+2, -1622276.5, -1627409.1, 0.4081107, 0.000054891927, -0.00008717337, -1622276.5, -5179.72, 0.0, 10.000238, 9.993434 
3.5850114e+3, 1.4497761e+2, -1534173.4, -1548116.6, 2.3720427, 0.000054742923, 0.00011126581, -1534173.4, -14953.901, 0.0, 10.000238, 9.981757 
3.5850114e+3, 1.5495938e+2, -1436447.0, -1450793.5, 1.7351745, 0.00005472447, -0.000045492827, -1436447.0, -15048.767, 0.0, 10.000237, 9.981225 
3.5850114e+3, 1.6493452e+2, -1348398.9, -1371928.8, 3.4262798, 0.000054670058, 0.000048960224, -1348398.9, -24756.928, 0.0, 10.000237, 9.969138 
3.5850114e+3, 1.7490369e+2, -1250442.0, -1274287.9, 2.6547778, 0.000054579054, -0.000062689134, -1250442.0, -24498.12, 0.0, 10.000237, 9.968724 
3.5850114e+3, 1.8486623e+2, -1162361.1, -1195697.8, 3.9201267, 0.000054548687, 0.0000802203, -1162361.1, -34050.254, 0.0, 10.000238, 9.956285 
3.5850114e+3, 1.9482255e+2, -1064212.3, -1097811.8, 3.2065668, 0.00005458165, -0.000047543854, -1064212.3, -33473.34, 0.0, 10.000238, 9.955943 
3.5850114e+3, 2.0477222e+2, -976049.25, -1019415.6, 4.254503, 0.0000546127, 0.00007655215, -976049.25, -42816.91, 0.0, 10.000238, 9.94318 
3.5850114e+3, 2.1471544e+2, -877762.94, -921391.5, 3.4381711, 0.000054641652, -0.00011747418, -877762.94, -41974.137, 0.0, 10.000239, 9.94284 
3.5850114e+3, 2.2465196e+2, -789477.6, -843128.44, 4.2206993, 0.00005464622, 0.00013021257, -789477.6, -51066.8, 0.0, 10.000239, 9.929797 
3.5850114e+3, 2.3458181e+2, -691044.9, -744951.0, 3.4709272, 0.000054623175, -0.00008052464, -691044.9, -49946.695, 0.0, 10.000239, 9.929466 
3.5850114e+3, 2.4450473e+2, -602721.7, -667005.44, 3.9645033, 0.00005460358, 0.00008236209, -602721.7, -58868.074, 0.0, 10.00024, 9.916025 
3.5850114e+3, 2.5442088e+2, -503969.75, -568330.94, 3.1481583, 0.000054588123, -0.00009924653, -503969.75, -57294.344, 0.0, 10.00024, 9.915925 
3.5850114e+3, 2.6432997e+2, -415735.1, -490977.63, 3.3023531, 0.00005463322, 0.0001477324, -415735.1, -66168.5, 0.0, 10.000241, 9.901853 
3.5850114e+3, 2.7423236e+2, -316450.4, -391365.47, 2.4451265, 0.000054755317, -0.00019689948, -316450.4, -63927.395, 0.0, 10.000241, 9.902272 
3.5850114e+3, 2.8412652e+2, -229976.73, -318071.84, 2.4790773, 0.000054820273, 0.00023504854, -229976.73, -74416.65, 0.0, 10.000242, 9.885327 
3.585011e+3, 2.940129e+2, -130271.234, -217756.52, 1.6655121, 0.000054806675, -0.00024781085, -130271.234, -71597.63, 0.0, 10.000242, 9.886106 
3.585011e+3, 3.039272e+2, -40532.52, -84749.77, 1.2264884, 0.000054692933, 0.00017808279, -40532.52, -40532.52, 0.0, 10.000242, 9.942056 
3.585011e+3, 3.1387115e+2, -39454.32, -82511.336, 0.28935632, 0.000054431286, -0.00005095124, -39454.32, -39454.32, 0.0, 10.000243, 9.943567 
3.5950118e+3, 1.2499609e+2, -1719656.6, -1724199.6, 1.0465652, 0.000056533238, 0.000041902356, -1719656.6, -4618.193, 0.0, 10.000238, 9.994215 
3.5950118e+3, 1.3499019e+2, -1622278.0, -1627412.0, 0.36857352, 0.000055719847, -0.00008812734, -1622278.0, -5181.779, 0.0, 10.000238, 9.993432 
3.5950118e+3, 1.4497767e+2, -1534174.8, -1548119.4, 2.3544776, 0.00005532573, 0.00011179424, -1534174.8, -14955.854, 0.0, 10.000238, 9.981755 
3.5950118e+3, 1.5495943e+2, -1436448.4, -1450796.3, 1.7174213, 0.00005534168, -0.000045058234, -1436448.4, -15050.685, 0.0, 10.000237, 9.981223 
3.5950118e+3, 1.6493456e+2, -1348400.5, -1371932.1, 3.4339588, 0.00005546966, 0.000049238217, -1348400.5, -24759.123, 0.0, 10.000237, 9.969136 
3.5950118e+3, 1.7490374e+2, -1250443.8, -1274291.1, 2.6627026, 0.000055712044, -0.00006263154, -1250443.8, -24500.275, 0.0, 10.000237, 9.968722 
3.5950115e+3, 1.848663e+2, -1162362.8, -1195700.9, 4.0134864, 0.000055740235, 0.000080155696, -1162362.8, -34052.266, 0.0, 10.000238, 9.956284 
3.5950115e+3, 1.948226e+2, -1064213.9, -1097814.8, 3.3008428, 0.000055544413, -0.000047628022, -1064213.9, -33475.316, 0.0, 10.000238, 9.955941 
3.5950115e+3, 2.0477226e+2, -976051.0, -1019419.2, 4.3881235, 0.000055417822, 0.00007655031, -976051.0, -42819.09, 0.0, 10.000238, 9.943178 
3.5950115e+3, 2.1471547e+2, -877764.7, -921395.0, 3.5725358, 0.000055366152, -0.000117283416, -877764.7, -41976.277, 0.0, 10.000239, 9.942838 
3.5950115e+3, 2.2465199e+2, -789479.3, -843131.7, 4.350027, 0.00005543144, 0.00013045203, -789479.3, -51068.797, 0.0, 10.000239, 9.929795 
3.5950115e+3, 2.3458184e+2, -691046.5, -744954.25, 3.6000717, 0.000055628956, -0.00008039933, -691046.5, -49948.645, 0.0, 10.000239, 9.929463 
3.5950115e+3, 2.4450476e+2, -602723.44, -667008.94, 4.11128, 0.000055755183, 0.00008238466, -602723.44, -58870.133, 0.0, 10.00024, 9.916022 
3.5950115e+3, 2.544209e+2, -503971.47, -568334.44, 3.2957523, 0.00005579615, -0.00009931289, -503971.47, -57296.363, 0.0, 10.00024, 9.915922 
3.5950115e+3, 2.6432997e+2, -415736.9, -490981.28, 3.49717, 0.00005574516, 0.00014767569, -415736.9, -66170.56, 0.0, 10.000241, 9.90185 
3.5950115e+3, 2.7423236e+2, -316452.22, -391369.13, 2.6430528, 0.00005557737, -0.00019682116, -316452.22, -63929.41, 0.0, 10.000241, 9.90227 
3.5950115e+3, 2.8412655e+2, -229978.45, -318075.34, 2.6461427, 0.00005554726, 0.00023519469, -229978.45, -74418.57, 0.0, 10.000242, 9.8853245 
3.5950112e+3, 2.940129e+2, -130272.914, -217760.0, 1.8297865, 0.000055706016, -0.0002476894, -130272.914, -71599.5, 0.0, 10.000242, 9.886104 
3.5950112e+3, 3.0392724e+2, -40534.363, -84753.61, 1.3863587, 0.00005583061, 0.00017805034, -40534.363, -40534.363, 0.0, 10.000242, 9.942054 
3.5950112e+3, 3.1387118e+2, -39456.188, -82515.22, 0.44871944, 0.000055902623, -0.000051328385, -39456.188, -39456.188, 0.0, 10.000243, 9.943564 
3.6050123e+3, 1.2499614e+2, -1719645.3, -1724195.6, 1.4103206, 0.000057357604, 0.000042169206, -1719645.3, -4607.3555, 0.0, 10.000246, 9.994213 
3.605012e+3, 1.3499025e+2, -1622266.5, -1627408.0, 0.7331254, 0.00005658957, -0.00008905882, -1622266.5, -5170.802, 0.0, 10.000246, 9.99343 
3.605012e+3, 1.4497772e+2, -1534163.3, -1548115.5, 2.6570992, 0.00005622304, 0.00011235712, -1534163.3, -14944.817, 0.0, 10.000246, 9.981753 
3.605012e+3, 1.5495947e+2, -1436436.6, -1450792.4, 1.8286529, 0.000056248577, -0.000044671575, -1436436.6, -15039.419, 0.0, 10.000246, 9.981221 
3.605012e+3, 1.649346e+2, -1348388.6, -1371928.0, 3.515722, 0.0000563906, 0.000049433256, -1348388.6, -24747.63, 0.0, 10.000246, 9.969134 
3.605012e+3, 1.7490378e+2, -1250431.6, -1274287.0, 2.8409336, 0.00005665158, -0.000062643594, -1250431.6, -24488.611, 0.0, 10.000247, 9.96872 
3.6050117e+3, 1.8486634e+2, -1162350.5, -1195696.8, 4.325927, 0.00005667726, 0.000080084035, -1162350.5, -34040.37, 0.0, 10.000247, 9.956282 
3.6050117e+3, 1.9482265e+2, -1064201.3, -1097810.5, 3.5636272, 0.00005645685, -0.00004760516, -1064201.3, -33463.055, 0.0, 10.000247, 9.955939 
3.6050117e+3, 2.047723e+2, -976038.4, -1019415.3, 4.6024203, 0.00005633757, 0.000076640565, -976038.4, -42806.83, 0.0, 10.000248, 9.943176 
3.6050117e+3, 2.1471551e+2, -877752.0, -921391.1, 3.7292511, 0.000056327728, -0.00011715512, -877752.0, -41963.94, 0.0, 10.000248, 9.942835 
3.6050117e+3, 2.2465202e+2, -789466.4, -843127.56, 4.463484, 0.000056427296, 0.00013057223, -789466.4, -51056.207, 0.0, 10.000249, 9.929793 
3.6050117e+3, 2.3458189e+2, -691033.5, -744950.1, 3.6914296, 0.00005665054, -0.00008033939, -691033.5, -49935.953, 0.0, 10.000249, 9.9294615 
3.6050117e+3, 2.445048e+2, -602710.4, -667005.0, 4.2227206, 0.000056779492, 0.00008239977, -602710.4, -58857.367, 0.0, 10.00025, 9.91602 
3.6050117e+3, 2.5442094e+2, -503958.1, -568330.44, 3.3790357, 0.000056795736, -0.000099324134, -503958.1, -57283.273, 0.0, 10.000251, 9.91592 
3.6050117e+3, 2.6433e+2, -415723.38, -490977.34, 3.566464, 0.000056733265, 0.00014767513, -415723.38, -66157.3, 0.0, 10.000251, 9.901848 
3.6050117e+3, 2.742324e+2, -316438.56, -391365.2, 2.6635811, 0.000056570894, -0.00019676397, -316438.56, -63916.01, 0.0, 10.000252, 9.902267 
3.6050117e+3, 2.8412655e+2, -229964.6, -318071.22, 2.593676, 0.00005657058, 0.00023527902, -229964.6, -74404.92, 0.0, 10.000253, 9.885323 
3.6050114e+3, 2.9401293e+2, -130258.98, -217755.84, 1.7539393, 0.000056792407, -0.00024762008, -130258.98, -71585.74, 0.0, 10.000253, 9.886101 
3.6050114e+3, 3.0392724e+2, -40520.582, -84749.86, 1.2979023, 0.000057005556, 0.00017802356, -40520.582, -40520.582, 0.0, 10.000254, 9.942051 
3.6050114e+3, 3.1387118e+2, -39442.266, -82511.43, 0.36063057, 0.00005720357, -0.000051571133, -39442.266, -39442.266, 0.0, 10.000254, 9.943562 
3.6150125e+3, 1.249962e+2, -1719646.9, -1724198.5, 1.4133446, 0.00005765759, 0.000042448188, -1719646.9, -4609.454, 0.0, 10.000246, 9.994211 
3.6150122e+3, 1.3499029e+2, -1622268.0, -1627410.9, 0.73619443, 0.000057500958, -0.00008996793, -1622268.0, -5172.87, 0.0, 10.000246, 9.993428 
3.6150122e+3, 1.4497776e+2, -1534165.1, -1548119.0, 2.702716, 0.000057433426, 0.00011295432, -1534165.1, -14947.211, 0.0, 10.000246, 9.9817505 
3.6150122e+3, 1.5495951e+2, -1436438.5, -1450795.9, 1.8744433, 0.000057443853, -0.00004433264, -1436438.5, -15041.766, 0.0, 10.000246, 9.981219 
3.6150122e+3, 1.6493465e+2, -1348390.1, -1371930.9, 3.5750904, 0.000057432357, 0.000049545706, -1348390.1, -24749.615, 0.0, 10.000246, 9.969132 
3.6150122e+3, 1.7490382e+2, -1250433.1, -1274289.9, 2.9002628, 0.00005739861, -0.00006272498, -1250433.1, -24490.557, 0.0, 10.000247, 9.968719 
3.615012e+3, 1.8486637e+2, -1162352.1, -1195700.0, 4.5183177, 0.000057360998, 0.000080005346, -1162352.1, -34042.496, 0.0, 10.000247, 9.95628 
3.615012e+3, 1.948227e+2, -1064202.9, -1097813.8, 3.7573855, 0.000057319256, -0.00004747578, -1064202.9, -33465.145, 0.0, 10.000247, 9.955936 
3.615012e+3, 2.0477234e+2, -976040.3, -1019419.06, 4.767801, 0.00005737147, 0.00007682248, -976040.3, -42809.133, 0.0, 10.000248, 9.943173 
3.615012e+3, 2.1471554e+2, -877753.9, -921394.9, 3.8941557, 0.00005752535, -0.000117089, -877753.9, -41966.203, 0.0, 10.000248, 9.942833 
3.615012e+3, 2.2465207e+2, -789468.06, -843130.94, 4.6289134, 0.000057632875, 0.00013057374, -789468.06, -51058.246, 0.0, 10.000249, 9.9297905 
3.615012e+3, 2.3458192e+2, -691035.2, -744953.44, 3.8568044, 0.000057687907, -0.000080344515, -691035.2, -49937.945, 0.0, 10.000249, 9.92946 
3.615012e+3, 2.4450482e+2, -602712.2, -667008.6, 4.46239, 0.00005767715, 0.00008240745, -602712.2, -58859.484, 0.0, 10.00025, 9.916018 
3.615012e+3, 2.5442097e+2, -503959.9, -568334.06, 3.6221812, 0.00005758789, -0.00009928052, -503959.9, -57285.35, 0.0, 10.000251, 9.915917 
3.615012e+3, 2.6433003e+2, -415725.28, -490981.22, 3.8136044, 0.000057598154, 0.00014773045, -415725.28, -66159.45, 0.0, 10.000251, 9.901845 
3.615012e+3, 2.7423242e+2, -316440.47, -391369.06, 2.9110034, 0.00005773517, -0.00019672781, -316440.47, -63918.12, 0.0, 10.000252, 9.902266 
3.615012e+3, 2.8412658e+2, -229966.36, -318074.84, 2.8030667, 0.000057888945, 0.00023530179, -229966.36, -74406.88, 0.0, 10.000253, 9.88532 
3.615012e+3, 2.9401296e+2, -130260.695, -217759.42, 1.9598733, 0.000058065056, -0.00024760264, -130260.695, -71587.65, 0.0, 10.000253, 9.886099 
3.6150116e+3, 3.0392727e+2, -40522.43, -84753.7, 1.5004317, 0.00005821767, 0.00017800243, -40522.43, -40522.43, 0.0, 10.000254, 9.942048 
3.6150116e+3, 3.138712e+2, -39444.125, -82515.31, 0.56271493, 0.000058334965, -0.000051680112, -39444.125, -39444.125, 0.0, 10.000254, 9.943559 
3.6250126e+3, 1.2499625e+2, -1719634.6, -1724194.1, 1.3768926, 0.000058170303, 0.000042785632, -1719634.6, -4597.8467, 0.0, 10.000255, 9.994209 
3.6250123e+3, 1.3499035e+2, -1622256.3, -1627406.8, 0.68179417, 0.000058363537, -0.00009053736, -1622256.3, -5161.5957, 0.0, 10.000255, 9.993426 
3.6250123e+3, 1.4497782e+2, -1534153.6, -1548115.3, 2.787026, 0.000058490266, 0.00011379215, -1534153.6, -14936.226, 0.0, 10.000255, 9.981749 
3.6250123e+3, 1.5495957e+2, -1436426.9, -1450792.1, 2.0522394, 0.00005853846, -0.000044280987, -1436426.9, -15030.595, 0.0, 10.000255, 9.981217 
3.6250123e+3, 1.649347e+2, -1348377.8, -1371926.6, 3.8550436, 0.000058432586, 0.00004926538, -1348377.8, -24737.766, 0.0, 10.000256, 9.9691305 
3.6250123e+3, 1.7490387e+2, -1250419.9, -1274285.3, 3.0882597, 0.000058169673, -0.00006287373, -1250419.9, -24477.813, 0.0, 10.000256, 9.968717 
3.6250123e+3, 1.8486641e+2, -1162338.9, -1195695.8, 4.591841, 0.00005814071, 0.00008007095, -1162338.9, -34029.66, 0.0, 10.000257, 9.956278 
3.6250123e+3, 1.9482273e+2, -1064189.9, -1097809.6, 3.7076662, 0.000058356265, -0.00004710933, -1064189.9, -33452.598, 0.0, 10.000257, 9.955935 
3.6250123e+3, 2.0477238e+2, -976027.44, -1019415.06, 4.7150793, 0.000058534908, 0.00007710664, -976027.44, -42796.684, 0.0, 10.0002575, 9.9431715 
3.6250123e+3, 2.1471559e+2, -877740.94, -921390.9, 3.9234045, 0.00005867357, -0.000117301715, -877740.94, -41953.61, 0.0, 10.0002575, 9.94283 
3.6250123e+3, 2.246521e+2, -789454.75, -843126.7, 4.7178693, 0.000058706442, 0.00013026631, -789454.75, -51045.27, 0.0, 10.000258, 9.929789 
3.6250123e+3, 2.3458196e+2, -691021.4, -744949.0, 3.8803623, 0.000058619647, -0.00008029159, -691021.4, -49924.438, 0.0, 10.000259, 9.929458 
3.6250123e+3, 2.4450485e+2, -602698.25, -667004.4, 4.4350166, 0.000058592515, 0.00008258922, -602698.25, -58845.797, 0.0, 10.00026, 9.916016 
3.6250123e+3, 2.54421e+2, -503945.88, -568329.9, 3.5202217, 0.00005863671, -0.000099246754, -503945.88, -57271.598, 0.0, 10.000261, 9.9159155 
3.6250123e+3, 2.6433006e+2, -415711.3, -490977.13, 3.652912, 0.000058727743, 0.00014766691, -415711.3, -66145.72, 0.0, 10.000261, 9.901843 
3.6250123e+3, 2.7423245e+2, -316426.63, -391365.1, 2.7533853, 0.000058878177, -0.00019682349, -316426.63, -63904.496, 0.0, 10.000262, 9.902263 
3.6250123e+3, 2.841266e+2, -229952.34, -318070.7, 2.644416, 0.00005903338, 0.00023523823, -229952.34, -74393.07, 0.0, 10.000263, 9.885318 
3.6250123e+3, 2.9401296e+2, -130246.38, -217755.16, 1.7658415, 0.00005919485, -0.00024754644, -130246.38, -71573.5, 0.0, 10.000263, 9.886096 
3.6250123e+3, 3.0392727e+2, -40507.973, -84749.7, 1.2879745, 0.000059392583, 0.0001780469, -40507.973, -40507.973, 0.0, 10.000264, 9.942045 
3.625012e+3, 3.138712e+2, -39429.137, -82511.08, 0.30560073, 0.000059643804, -0.00005184332, -39429.137, -39429.137, 0.0, 10.000265, 9.943557 
3.6350128e+3, 1.24996305e+2, -1719636.3, -1724197.1, 1.3140646, 0.00005889473, 0.000043230524, -1719636.3, -4599.9883, 0.0, 10.000255, 9.994207 
3.6350128e+3, 1.3499041e+2, -1622257.9, -1627409.6, 0.6188919, 0.000059177586, -0.00009076884, -1622257.9, -5163.707, 0.0, 10.000255, 9.993424 
3.6350128e+3, 1.4497787e+2, -1534155.3, -1548118.5, 2.8838434, 0.00005939435, 0.00011486942, -1534155.3, -14938.41, 0.0, 10.000255, 9.981747 
3.6350128e+3, 1.5495962e+2, -1436428.5, -1450795.3, 2.1493807, 0.000059532915, -0.00004451522, -1436428.5, -15032.731, 0.0, 10.000255, 9.9812155 
3.6350128e+3, 1.6493475e+2, -1348379.5, -1371930.0, 4.1390133, 0.000059391532, 0.000048594204, -1348379.5, -24739.951, 0.0, 10.000256, 9.969129 
3.6350128e+3, 1.7490391e+2, -1250421.6, -1274288.5, 3.3730218, 0.00005896472, -0.000063089516, -1250421.6, -24479.96, 0.0, 10.000256, 9.968715 
3.6350128e+3, 1.8486646e+2, -1162340.9, -1195699.5, 4.730146, 0.000059016023, 0.000080280166, -1162340.9, -34032.05, 0.0, 10.000257, 9.956275 
3.6350125e+3, 1.9482277e+2, -1064191.9, -1097813.4, 3.844263, 0.000059567094, -0.000046506968, -1064191.9, -33454.945, 0.0, 10.000257, 9.955933 
3.6350125e+3, 2.0477241e+2, -976029.2, -1019418.5, 4.924973, 0.00005982729, 0.000077492536, -976029.2, -42798.816, 0.0, 10.0002575, 9.94317 
3.6350125e+3, 2.1471561e+2, -877742.6, -921394.25, 4.1349397, 0.000059772665, -0.00011779195, -877742.6, -41955.69, 0.0, 10.0002575, 9.942828 
3.6350125e+3, 2.2465213e+2, -789456.56, -843130.3, 5.024837, 0.00005964868, 0.00012965142, -789456.56, -51047.434, 0.0, 10.000258, 9.929786 
3.6350125e+3, 2.3458199e+2, -691023.1, -744952.6, 4.1900525, 0.00005944633, -0.00008018089, -691023.1, -49926.563, 0.0, 10.000259, 9.929455 
3.6350125e+3, 2.4450488e+2, -602700.2, -667008.4, 4.711828, 0.000059525577, 0.00008294423, -602700.2, -58848.063, 0.0, 10.00026, 9.916013 
3.6350125e+3, 2.5442103e+2, -503947.84, -568333.8, 3.7957268, 0.00005994104, -0.000099222816, -503947.84, -57273.816, 0.0, 10.000261, 9.915913 
3.6350125e+3, 2.643301e+2, -415713.22, -490981.0, 3.8903785, 0.000060120834, 0.00014748507, -415713.22, -66147.86, 0.0, 10.000261, 9.90184 
3.6350125e+3, 2.7423245e+2, -316428.47, -391368.9, 2.9882677, 0.000060000064, -0.00019705042, -316428.47, -63906.586, 0.0, 10.000262, 9.90226 
3.6350125e+3, 2.841266e+2, -229954.16, -318074.44, 2.943517, 0.000060004768, 0.00023508874, -229954.16, -74395.08, 0.0, 10.000263, 9.885315 
3.6350125e+3, 2.94013e+2, -130248.164, -217758.88, 2.070447, 0.00006018252, -0.00024745168, -130248.164, -71575.46, 0.0, 10.000263, 9.886094 
3.6350125e+3, 3.039273e+2, -40509.902, -84753.72, 1.6299754, 0.00006053054, 0.00017815664, -40509.902, -40509.902, 0.0, 10.000264, 9.942043 
3.6350125e+3, 3.138712e+2, -39431.086, -82515.14, 0.6520471, 0.000061129336, -0.00005206052, -39431.086, -39431.086, 0.0, 10.000265, 9.943554 
3.6450133e+3, 1.2499637e+2, -1719625.5, -1724193.6, 1.2852732, 0.000059892915, 0.00004353044, -1719625.5, -4589.7173, 0.0, 10.000262, 9.994205 
3.645013e+3, 1.3499047e+2, -1622246.0, -1627405.6, 0.49107048, 0.00006002025, -0.00009132274, -1622246.0, -5152.3896, 0.0, 10.000262, 9.9934225 
3.645013e+3, 1.4497794e+2, -1534142.5, -1548113.9, 2.8479428, 0.000060151295, 0.00011573687, -1534142.5, -14926.18, 0.0, 10.000263, 9.981745 
3.645013e+3, 1.5495966e+2, -1436415.3, -1450790.4, 2.1892557, 0.00006027422, -0.00004459639, -1436415.3, -15019.935, 0.0, 10.000264, 9.981214 
3.645013e+3, 1.649348e+2, -1348366.4, -1371925.6, 4.2391825, 0.00006024892, 0.000048215832, -1348366.4, -24727.32, 0.0, 10.000264, 9.969126 
3.645013e+3, 1.7490396e+2, -1250408.9, -1274284.4, 3.3541214, 0.000060072565, -0.0000631004, -1250408.9, -24467.666, 0.0, 10.000265, 9.968713 
3.645013e+3, 1.848665e+2, -1162328.3, -1195695.8, 4.5768857, 0.000060227718, 0.000080472964, -1162328.3, -34019.867, 0.0, 10.000266, 9.956273 
3.645013e+3, 1.9482282e+2, -1064178.8, -1097809.5, 3.647376, 0.00006072937, -0.0000462818, -1064178.8, -33442.293, 0.0, 10.000266, 9.95593 
3.6450127e+3, 2.0477246e+2, -976015.25, -1019413.6, 4.8543873, 0.000060884413, 0.000077499055, -976015.25, -42785.25, 0.0, 10.000267, 9.943167 
3.6450127e+3, 2.1471566e+2, -877728.06, -921389.1, 4.17126, 0.000060664337, -0.00011827567, -877728.06, -41941.45, 0.0, 10.000268, 9.942826 
3.6450127e+3, 2.2465216e+2, -789442.25, -843126.1, 4.95943, 0.00006053973, 0.00012923668, -789442.25, -51033.46, 0.0, 10.000269, 9.929784 
3.6450127e+3, 2.3458202e+2, -691009.1, -744948.6, 3.8135836, 0.00006052321, -0.000079894075, -691009.1, -49912.836, 0.0, 10.00027, 9.929452 
3.6450127e+3, 2.4450491e+2, -602686.1, -667003.9, 4.2125645, 0.000060753442, 0.00008338027, -602686.1, -58834.254, 0.0, 10.000271, 9.916011 
3.6450127e+3, 2.5442106e+2, -503934.06, -568329.5, 3.4982708, 0.000061278115, -0.000099297555, -503934.06, -57260.313, 0.0, 10.000271, 9.915911 
3.6450127e+3, 2.643301e+2, -415699.34, -490977.0, 3.8214428, 0.000061415405, 0.0001470981, -415699.34, -66134.22, 0.0, 10.000272, 9.901837 
3.6450127e+3, 2.7423248e+2, -316413.56, -391364.44, 2.8971815, 0.00006105926, -0.00019749554, -316413.56, -63891.88, 0.0, 10.000274, 9.902258 
3.6450127e+3, 2.8412664e+2, -229938.72, -318069.97, 2.682757, 0.000060947372, 0.00023480615, -229938.72, -74379.82, 0.0, 10.000275, 9.885312 
3.6450127e+3, 2.94013e+2, -130232.67, -217754.44, 1.5697343, 0.00006117189, -0.00024727106, -130232.67, -71560.125, 0.0, 10.000276, 9.886091 
3.6450127e+3, 3.039273e+2, -40494.543, -84749.34, 0.99893445, 0.00006164358, 0.00017849976, -40494.543, -40494.543, 0.0, 10.000277, 9.94204 
3.6450127e+3, 3.1387123e+2, -39415.99, -82510.88, 0.047445904, 0.00006247864, -0.000052004063, -39415.99, -39415.99, 0.0, 10.000277, 9.943551 
3.6550134e+3, 1.2499642e+2, -1719627.3, -1724197.0, 1.4763159, 0.000061163446, 0.000043740903, -1719627.3, -4592.0835, 0.0, 10.000262, 9.994204 
3.6550134e+3, 1.3499051e+2, -1622247.9, -1627409.1, 0.68238944, 0.000060891427, -0.000092197464, -1622247.9, -5154.7183, 0.0, 10.000262, 9.993421 
3.655013e+3, 1.4497799e+2, -1534144.0, -1548116.6, 3.088599, 0.000060761908, 0.00011639556, -1534144.0, -14928.185, 0.0, 10.000263, 9.981743 
3.655013e+3, 1.5495972e+2, -1436416.8, -1450793.1, 2.429621, 0.000060763727, -0.00004452527, -1436416.8, -15021.901, 0.0, 10.000264, 9.981212 
3.655013e+3, 1.6493484e+2, -1348368.4, -1371929.4, 4.455985, 0.000061005336, 0.00004812877, -1348368.4, -24729.77, 0.0, 10.000264, 9.969124 
3.655013e+3, 1.74904e+2, -1250410.9, -1274288.1, 3.5709102, 0.00006149167, -0.000062907435, -1250410.9, -24470.072, 0.0, 10.000265, 9.96871 
3.655013e+3, 1.8486655e+2, -1162330.3, -1195699.8, 4.836738, 0.00006177413, 0.00008064942, -1162330.3, -34022.344, 0.0, 10.000266, 9.95627 
3.655013e+3, 1.9482285e+2, -1064180.9, -1097813.4, 3.907761, 0.00006184338, -0.000046431964, -1064180.9, -33444.72, 0.0, 10.000266, 9.955927 
3.655013e+3, 2.0477249e+2, -976016.8, -1019416.6, 5.2399583, 0.00006170751, 0.000077128076, -976016.8, -42787.152, 0.0, 10.000267, 9.943165 
3.6550128e+3, 2.147157e+2, -877729.56, -921392.06, 4.5590806, 0.0000613497, -0.00011875289, -877729.56, -41943.31, 0.0, 10.000268, 9.942824 
3.6550128e+3, 2.246522e+2, -789444.7, -843131.0, 5.229949, 0.000061379935, 0.00012902106, -789444.7, -51036.234, 0.0, 10.000269, 9.92978 
3.6550128e+3, 2.3458205e+2, -691011.56, -744953.5, 4.080439, 0.00006184911, -0.000079432066, -691011.56, -49915.58, 0.0, 10.00027, 9.929449 
3.6550128e+3, 2.4450494e+2, -602687.7, -667007.1, 4.423633, 0.00006227469, 0.00008389686, -602687.7, -58836.13, 0.0, 10.000271, 9.916008 
3.6550128e+3, 2.544211e+2, -503935.63, -568332.6, 3.706571, 0.00006264779, -0.00009947051, -503935.63, -57262.105, 0.0, 10.000271, 9.915909 
3.6550128e+3, 2.6433012e+2, -415701.28, -490980.94, 4.324659, 0.00006261199, 0.00014650704, -415701.28, -66136.38, 0.0, 10.000272, 9.901835 
3.6550128e+3, 2.742325e+2, -316415.5, -391368.4, 3.4201274, 0.00006205616, -0.00019815774, -316415.5, -63894.02, 0.0, 10.000274, 9.902255 
3.6550128e+3, 2.8412664e+2, -229940.95, -318074.6, 3.0409346, 0.00006186144, 0.00023439112, -229940.95, -74382.234, 0.0, 10.000275, 9.885309 
3.6550128e+3, 2.9401302e+2, -130234.91, -217759.08, 1.9130377, 0.000062163046, -0.0002470051, -130234.91, -71562.51, 0.0, 10.000276, 9.886087 
3.6550128e+3, 3.0392733e+2, -40496.47, -84753.36, 1.2828524, 0.00006273191, 0.00017907504, -40496.47, -40496.47, 0.0, 10.000277, 9.942038 
3.6550128e+3, 3.1387123e+2, -39417.88, -82514.83, 0.32425347, 0.00006369242, -0.000051675324, -39417.88, -39417.88, 0.0, 10.000277, 9.943548 
3.6650136e+3, 1.24996476e+2, -1719615.5, -1724192.9, 1.3848556, 0.00006204045, 0.00004418959, -1719615.5, -4580.894, 0.0, 10.000271, 9.994202 
3.6650136e+3, 1.3499056e+2, -1622235.6, -1627404.8, 0.7341138, 0.00006179069, -0.00009327021, -1622235.6, -5143.087, 0.0, 10.000271, 9.993419 
3.6650133e+3, 1.4497805e+2, -1534131.6, -1548112.5, 3.1193523, 0.000061682986, 0.0001168176, -1534131.6, -14916.305, 0.0, 10.000272, 9.981741 
3.6650133e+3, 1.5495978e+2, -1436404.0, -1450788.9, 2.1879723, 0.00006170619, -0.000044354118, -1436404.0, -15009.634, 0.0, 10.000273, 9.98121 
3.6650133e+3, 1.6493489e+2, -1348355.4, -1371925.3, 4.09157, 0.00006203446, 0.00004816423, -1348355.4, -24717.217, 0.0, 10.000274, 9.969122 
3.6650133e+3, 1.7490405e+2, -1250397.4, -1274283.8, 3.2790508, 0.000062674044, -0.000062889914, -1250397.4, -24457.111, 0.0, 10.000275, 9.968708 
3.6650133e+3, 1.8486659e+2, -1162316.5, -1195695.4, 4.677915, 0.00006288421, 0.00008052359, -1162316.5, -34008.94, 0.0, 10.000276, 9.956268 
3.6650133e+3, 1.9482289e+2, -1064166.3, -1097808.8, 3.774749, 0.000062645384, -0.000046832345, -1064166.3, -33430.563, 0.0, 10.000277, 9.955925 
3.6650133e+3, 2.0477253e+2, -976001.94, -1019411.5, 4.9773035, 0.00006253174, 0.00007680746, -976001.9, -42772.633, 0.0, 10.0002775, 9.943163 
3.6650133e+3, 2.1471573e+2, -877715.2, -921387.25, 4.0518727, 0.00006255358, -0.00011861027, -877715.2, -41929.3, 0.0, 10.000278, 9.9428215 
3.6650133e+3, 2.2465223e+2, -789431.1, -843127.44, 4.6067867, 0.00006277052, 0.000129183, -789431.1, -51022.977, 0.0, 10.000279, 9.929777 
3.6650133e+3, 2.3458208e+2, -690997.8, -744949.94, 3.5642493, 0.000063208034, -0.00007975313, -690997.8, -49902.137, 0.0, 10.00028, 9.929446 
3.6650133e+3, 2.4450497e+2, -602672.75, -667002.06, 3.9697244, 0.00006343342, 0.00008347201, -602672.75, -58821.457, 0.0, 10.000281, 9.916006 
3.6650133e+3, 2.544211e+2, -503919.66, -568327.06, 3.1705132, 0.00006340535, -0.000099545956, -503919.66, -57246.406, 0.0, 10.000282, 9.915906 
3.6650133e+3, 2.6433015e+2, -415685.53, -490976.03, 3.7993753, 0.00006340877, 0.00014653726, -415685.53, -66120.85, 0.0, 10.000283, 9.901833 
3.6650133e+3, 2.742325e+2, -316400.75, -391364.1, 2.8933225, 0.00006345283, -0.00019833293, -316400.75, -63879.457, 0.0, 10.000284, 9.902252 
3.6650133e+3, 2.8412667e+2, -229926.78, -318071.13, 2.5201738, 0.000063507825, 0.00023411121, -229926.78, -74368.234, 0.0, 10.000285, 9.885306 
3.6650133e+3, 2.9401302e+2, -130220.08, -217755.39, 1.3517809, 0.00006357754, -0.00024725051, -130220.08, -71547.81, 0.0, 10.000287, 9.886085 
3.6650133e+3, 3.0392733e+2, -40480.477, -84748.836, 0.6981386, 0.00006377998, 0.00017897341, -40480.477, -40480.477, 0.0, 10.000289, 9.942035 
3.6650133e+3, 3.1387123e+2, -39400.23, -82509.47, -0.38047764, 0.00006417902, -0.00005147235, -39400.23, -39400.23, 0.0, 10.000291, 9.943545 
3.6750138e+3, 1.2499653e+2, -1719617.0, -1724195.6, 1.68881, 0.00006252609, 0.000044938, -1719617.0, -4582.9224, 0.0, 10.000271, 9.9942 
3.6750138e+3, 1.3499062e+2, -1622237.1, -1627407.6, 1.0381919, 0.00006271794, -0.00009453996, -1622237.1, -5145.082, 0.0, 10.000271, 9.993417 
3.6750138e+3, 1.4497809e+2, -1534133.8, -1548116.5, 3.4608946, 0.00006291293, 0.00011700428, -1534133.8, -14918.918, 0.0, 10.000272, 9.981739 
3.6750138e+3, 1.5495983e+2, -1436406.0, -1450792.9, 2.5296223, 0.00006309926, -0.000044083485, -1436406.0, -15012.196, 0.0, 10.000273, 9.981207 
3.6750138e+3, 1.6493493e+2, -1348357.3, -1371928.8, 4.4174967, 0.00006333488, 0.000048321508, -1348357.3, -24719.49, 0.0, 10.000274, 9.969119 
3.6750138e+3, 1.749041e+2, -1250399.3, -1274287.3, 3.6048307, 0.00006362096, -0.000063046944, -1250399.3, -24459.34, 0.0, 10.000275, 9.968705 
3.6750138e+3, 1.8486662e+2, -1162318.5, -1195699.3, 5.1304026, 0.000063560314, 0.00008009706, -1162318.5, -34011.344, 0.0, 10.000276, 9.956265 
3.6750138e+3, 1.9482294e+2, -1064168.3, -1097812.5, 4.228464, 0.0000631371, -0.000047481622, -1064168.3, -33432.918, 0.0, 10.000277, 9.955922 
3.6750138e+3, 2.0477256e+2, -976003.94, -1019415.5, 5.2579975, 0.00006335716, 0.000076536955, -976003.94, -42775.027, 0.0, 10.0002775, 9.94316 
3.6750138e+3, 2.1471576e+2, -877717.25, -921391.25, 4.328916, 0.00006427332, -0.00011785109, -877717.25, -41931.656, 0.0, 10.000278, 9.94282 
3.6750138e+3, 2.2465226e+2, -789433.4, -843131.9, 4.931556, 0.00006470865, 0.0001297204, -789433.4, -51025.527, 0.0, 10.000279, 9.929774 
3.6750138e+3, 2.3458211e+2, -691000.06, -744954.4, 3.891105, 0.00006459986, -0.000080853235, -691000.06, -49904.625, 0.0, 10.00028, 9.929443 
3.6750135e+3, 2.44505e+2, -602674.5, -667005.6, 4.439385, 0.00006423157, 0.0000821106, -602674.5, -58823.453, 0.0, 10.000281, 9.916004 
3.6750135e+3, 2.5442111e+2, -503921.38, -568330.56, 3.6462808, 0.00006355407, -0.00009952441, -503921.38, -57248.348, 0.0, 10.000282, 9.915904 
3.6750135e+3, 2.6433018e+2, -415687.47, -490980.0, 4.107496, 0.000063807965, 0.00014718554, -415687.47, -66123.02, 0.0, 10.000283, 9.90183 
3.6750135e+3, 2.7423254e+2, -316402.7, -391368.06, 3.1904213, 0.000065247266, -0.00019802367, -316402.7, -63881.586, 0.0, 10.000284, 9.902249 
3.6750135e+3, 2.841267e+2, -229929.1, -318075.9, 3.0431015, 0.000065882756, 0.00023396572, -229929.1, -74370.7, 0.0, 10.000285, 9.8853035 
3.6750135e+3, 2.9401305e+2, -130222.4, -217760.2, 1.8955413, 0.00006541322, -0.00024800465, -130222.4, -71550.25, 0.0, 10.000287, 9.886082 
3.6750135e+3, 3.0392733e+2, -40482.62, -84753.31, 1.3838773, 0.00006478809, 0.00017819832, -40482.62, -40482.62, 0.0, 10.000289, 9.942032 
3.6750135e+3, 3.1387126e+2, -39402.36, -82513.91, 0.32174185, 0.00006394232, -0.000051394545, -39402.36, -39402.36, 0.0, 10.000291, 9.9435425 
3.6850142e+3, 1.2499658e+2, -1719605.1, -1724191.3, 1.2263423, 0.00006331268, 0.00004521837, -1719605.1, -4571.509, 0.0, 10.000278, 9.994198 
3.6850142e+3, 1.3499066e+2, -1622224.8, -1627402.9, 0.599436, 0.00006374875, -0.00009538666, -1622224.8, -5133.147, 0.0, 10.000279, 9.993415 
3.6850142e+3, 1.4497814e+2, -1534121.4, -1548112.8, 3.1116095, 0.000064051485, 0.00011758986, -1534121.4, -14906.974, 0.0, 10.000281, 9.981736 
3.6850142e+3, 1.5495987e+2, -1436392.9, -1450788.8, 2.2141478, 0.00006420846, -0.00004436746, -1436392.9, -14999.505, 0.0, 10.000282, 9.981205 
3.685014e+3, 1.6493498e+2, -1348343.3, -1371924.0, 4.0692134, 0.00006436105, 0.000047811285, -1348343.3, -24705.914, 0.0, 10.000284, 9.969117 
3.685014e+3, 1.7490414e+2, -1250384.5, -1274282.1, 3.193462, 0.00006450931, -0.000063126994, -1250384.5, -24445.057, 0.0, 10.000285, 9.968703 
3.685014e+3, 1.8486667e+2, -1162303.9, -1195694.6, 4.6237125, 0.00006446561, 0.00007999364, -1162303.9, -33997.105, 0.0, 10.000286, 9.956263 
3.685014e+3, 1.9482297e+2, -1064153.9, -1097808.1, 3.5610864, 0.000064221145, -0.000048082617, -1064153.9, -33418.89, 0.0, 10.000288, 9.955919 
3.685014e+3, 2.0477259e+2, -975989.7, -1019411.25, 4.3134656, 0.0000645764, 0.00007616308, -975989.7, -42761.086, 0.0, 10.000289, 9.943158 
3.685014e+3, 2.147158e+2, -877702.94, -921387.0, 3.2848272, 0.00006558062, -0.00011721361, -877702.94, -41917.688, 0.0, 10.000289, 9.942817 
3.685014e+3, 2.246523e+2, -789418.5, -843127.0, 4.14964, 0.00006595867, 0.00013012091, -789418.5, -51010.918, 0.0, 10.00029, 9.929772 
3.685014e+3, 2.3458214e+2, -690984.4, -744949.1, 3.4984953, 0.00006562824, -0.00008210192, -690984.4, -49889.242, 0.0, 10.000292, 9.9294405 
3.685014e+3, 2.4450502e+2, -602659.0, -667001.1, 4.0384, 0.00006515878, 0.00008065175, -602659.0, -58808.168, 0.0, 10.000293, 9.916001 
3.685014e+3, 2.5442114e+2, -503906.1, -568326.25, 2.7058415, 0.00006452407, -0.00009947422, -503906.1, -57233.277, 0.0, 10.000295, 9.915901 
3.685014e+3, 2.6433018e+2, -415672.06, -490975.16, 2.7278595, 0.00006492706, 0.00014794273, -415672.06, -66107.81, 0.0, 10.000295, 9.901827 
3.685014e+3, 2.7423254e+2, -316387.63, -391363.4, 1.9162028, 0.00006665035, -0.00019758358, -316387.63, -63866.68, 0.0, 10.000296, 9.902247 
3.6850137e+3, 2.841267e+2, -229914.06, -318071.53, 2.3399875, 0.000067376226, 0.00023382744, -229914.06, -74355.805, 0.0, 10.000297, 9.885301 
3.6850137e+3, 2.9401305e+2, -130206.734, -217755.6, 1.6162598, 0.000066731634, -0.000249074, -130206.734, -71534.695, 0.0, 10.0002985, 9.886079 
3.6850137e+3, 3.0392736e+2, -40466.69, -84749.08, 1.4493089, 0.000065932065, 0.00017695827, -40466.69, -40466.69, 0.0, 10.000301, 9.942029 
3.6850137e+3, 3.1387126e+2, -39385.723, -82509.39, 0.2986115, 0.00006491534, -0.00005167318, -39385.723, -39385.723, 0.0, 10.000303, 9.94354 
3.6950144e+3, 1.2499663e+2, -1719606.5, -1724193.9, 1.6643604, 0.00006439855, 0.000045116667, -1719606.5, -4573.4536, 0.0, 10.000278, 9.994197 
3.6950144e+3, 1.3499072e+2, -1622226.1, -1627405.6, 1.0371017, 0.00006488259, -0.00009581271, -1622226.1, -5135.071, 0.0, 10.000279, 9.993414 
3.6950144e+3, 1.4497818e+2, -1534123.4, -1548116.6, 3.6367135, 0.00006509921, 0.0001185721, -1534123.4, -14909.495, 0.0, 10.000281, 9.981734 
3.6950144e+3, 1.5495992e+2, -1436394.9, -1450792.5, 2.7395175, 0.00006503541, -0.000045203033, -1436394.9, -15001.965, 0.0, 10.000282, 9.981202 
3.6950144e+3, 1.6493502e+2, -1348345.1, -1371927.8, 4.576303, 0.00006511451, 0.00004663721, -1348345.1, -24708.297, 0.0, 10.000284, 9.969114 
3.695014e+3, 1.749042e+2, -1250386.5, -1274285.9, 3.700121, 0.00006533949, -0.000063130494, -1250386.5, -24447.404, 0.0, 10.000285, 9.968701 
3.695014e+3, 1.848667e+2, -1162306.1, -1195699.3, 5.03932, 0.00006559894, 0.00008021154, -1162306.1, -33999.836, 0.0, 10.000286, 9.95626 
3.695014e+3, 1.94823e+2, -1064156.3, -1097812.6, 3.9759765, 0.000065894346, -0.000048635648, -1064156.3, -33421.566, 0.0, 10.000288, 9.955916 
3.695014e+3, 2.0477262e+2, -975991.9, -1019415.6, 4.612737, 0.00006618735, 0.000075686316, -975991.9, -42763.652, 0.0, 10.000289, 9.943155 
3.695014e+3, 2.1471582e+2, -877705.1, -921391.4, 3.581454, 0.00006647777, -0.00011669725, -877705.1, -41920.2, 0.0, 10.000289, 9.942814 
3.695014e+3, 2.2465234e+2, -789419.94, -843129.94, 4.6708913, 0.00006652439, 0.0001303852, -789419.94, -51012.668, 0.0, 10.00029, 9.92977 
3.695014e+3, 2.3458216e+2, -690985.8, -744952.0, 4.027078, 0.00006629526, -0.000083498366, -690985.8, -49890.926, 0.0, 10.000292, 9.92944 
3.695014e+3, 2.4450505e+2, -602661.75, -667006.7, 4.485311, 0.00006621447, 0.00007909599, -602661.75, -58811.156, 0.0, 10.000293, 9.9159975 
3.695014e+3, 2.5442114e+2, -503908.88, -568331.9, 3.1489801, 0.000066311, -0.000099395606, -503908.88, -57236.26, 0.0, 10.000295, 9.915897 
3.695014e+3, 2.643302e+2, -415673.88, -490978.84, 2.9729125, 0.00006676224, 0.00014880818, -415673.88, -66109.79, 0.0, 10.000295, 9.901825 
3.695014e+3, 2.7423257e+2, -316389.34, -391366.9, 2.1478832, 0.00006766425, -0.00019701343, -316389.34, -63868.535, 0.0, 10.000296, 9.902245 
3.695014e+3, 2.841267e+2, -229915.66, -318074.84, 3.02865, 0.000067993045, 0.0002336963, -229915.66, -74357.52, 0.0, 10.000297, 9.885299 
3.695014e+3, 2.9401305e+2, -130208.305, -217758.86, 2.346074, 0.00006753564, -0.0002504568, -130208.305, -71536.37, 0.0, 10.0002985, 9.886077 
3.695014e+3, 3.0392736e+2, -40468.94, -84753.77, 2.3258214, 0.00006721128, 0.00017525582, -40468.94, -40468.94, 0.0, 10.000301, 9.942025 
3.695014e+3, 3.1387126e+2, -39388.055, -82514.25, 1.1921881, 0.00006709163, -0.000052306346, -39388.055, -39388.055, 0.0, 10.000303, 9.943536 
3.7050146e+3, 1.2499669e+2, -1719594.6, -1724189.9, 1.3877639, 0.00006520456, 0.00004452741, -1719594.6, -4562.107, 0.0, 10.000287, 9.994195 
3.7050146e+3, 1.3499077e+2, -1622213.0, -1627401.0, 0.45217785, 0.00006576484, -0.00009655382, -1622213.0, -5122.428, 0.0, 10.000289, 9.993412 
3.7050146e+3, 1.4497823e+2, -1534109.5, -1548111.9, 2.932332, 0.00006605618, 0.00011947855, -1534109.5, -14896.116, 0.0, 10.000291, 9.981731 
3.7050146e+3, 1.5495996e+2, -1436380.6, -1450787.6, 2.1233878, 0.00006606566, -0.00004580452, -1436380.6, -14988.084, 0.0, 10.000293, 9.9812 
3.7050146e+3, 1.6493505e+2, -1348330.9, -1371923.3, 3.8314269, 0.00006620013, 0.00004576452, -1348330.9, -24694.367, 0.0, 10.000295, 9.969112 
3.7050146e+3, 1.7490423e+2, -1250371.9, -1274281.4, 2.7064161, 0.00006646225, -0.00006301277, -1250371.9, -24433.24, 0.0, 10.000296, 9.9686985 
3.7050146e+3, 1.8486674e+2, -1162291.4, -1195694.5, 3.9022927, 0.00006680613, 0.00008037185, -1162291.4, -33985.438, 0.0, 10.000298, 9.956257 
3.7050143e+3, 1.9482304e+2, -1064141.4, -1097808.0, 3.0439095, 0.0000672354, -0.00004942361, -1064141.4, -33407.113, 0.0, 10.0002985, 9.9559145 
3.7050143e+3, 2.0477267e+2, -975977.0, -1019411.44, 3.6776106, 0.00006737031, 0.0000748017, -975977.0, -42749.063, 0.0, 10.000299, 9.943151 
3.7050143e+3, 2.1471585e+2, -877689.3, -921386.75, 2.4364505, 0.0000671867, -0.000116756964, -877689.3, -41904.66, 0.0, 10.000301, 9.942811 
3.7050143e+3, 2.2465235e+2, -789403.1, -843123.5, 3.4087274, 0.00006721946, 0.0001305139, -789403.1, -50996.117, 0.0, 10.000302, 9.929769 
3.7050143e+3, 2.3458219e+2, -690970.0, -744946.06, 2.77008, 0.000067497014, -0.0000839015, -690970.0, -49875.33, 0.0, 10.000303, 9.929438 
3.7050143e+3, 2.4450506e+2, -602647.8, -667003.6, 3.27155, 0.00006776655, 0.00007842514, -602647.8, -58797.434, 0.0, 10.000304, 9.915994 
3.7050143e+3, 2.5442117e+2, -503895.28, -568329.1, 2.032096, 0.00006802626, -0.00010001822, -503895.28, -57222.84, 0.0, 10.000305, 9.915894 
3.7050143e+3, 2.643302e+2, -415658.78, -490974.16, 1.9265671, 0.00006819109, 0.00014838841, -415658.78, -66094.836, 0.0, 10.000306, 9.901822 
3.7050143e+3, 2.7423257e+2, -316372.3, -391361.25, 1.0106757, 0.00006823527, -0.00019703445, -316372.3, -63851.633, 0.0, 10.000308, 9.902243 
3.7050143e+3, 2.8412673e+2, -229897.73, -318068.47, 1.9569504, 0.00006832161, 0.00023367508, -229897.73, -74339.7, 0.0, 10.00031, 9.885296 
3.7050143e+3, 2.9401305e+2, -130191.36, -217753.0, 1.3005162, 0.0000684662, -0.0002510249, -130191.36, -71519.5, 0.0, 10.000311, 9.886074 
3.7050143e+3, 3.0392736e+2, -40453.992, -84750.24, 1.378827, 0.00006882457, 0.00017456009, -40453.992, -40453.992, 0.0, 10.000313, 9.942022 
3.7050143e+3, 3.1387126e+2, -39374.383, -82511.49, 0.1546212, 0.00006949931, -0.000052502353, -39374.383, -39374.383, 0.0, 10.000315, 9.943533 
3.715015e+3, 1.2499674e+2, -1719596.9, -1724193.9, 2.1404555, 0.00006573234, 0.000043549946, -1719596.9, -4564.7383, 0.0, 10.000287, 9.994192 
3.7150148e+3, 1.3499081e+2, -1622215.1, -1627405.0, 1.2046467, 0.000066397035, -0.00009760824, -1622215.1, -5125.022, 0.0, 10.000289, 9.993409 
3.7150148e+3, 1.4497828e+2, -1534111.4, -1548115.4, 3.5855386, 0.00006692299, 0.0001203096, -1534111.4, -14898.401, 0.0, 10.000291, 9.9817295 
3.7150148e+3, 1.5496e+2, -1436382.4, -1450791.0, 2.775947, 0.0000672981, -0.000046173285, -1436382.4, -14990.318, 0.0, 10.000293, 9.981198 
3.7150148e+3, 1.649351e+2, -1348333.4, -1371928.0, 4.407003, 0.00006761608, 0.00004519145, -1348333.4, -24697.268, 0.0, 10.000295, 9.96911 
3.7150148e+3, 1.7490427e+2, -1250374.4, -1274286.1, 3.2817314, 0.000067876, -0.00006277463, -1250374.4, -24436.092, 0.0, 10.000296, 9.968696 
3.7150148e+3, 1.8486677e+2, -1162293.4, -1195698.3, 4.3427773, 0.000068086825, 0.00008047482, -1162293.4, -33987.688, 0.0, 10.000298, 9.956255 
3.7150148e+3, 1.9482307e+2, -1064143.3, -1097811.6, 3.483003, 0.000068246256, -0.000050445185, -1064143.3, -33409.305, 0.0, 10.0002985, 9.955912 
3.7150148e+3, 2.047727e+2, -975979.7, -1019416.7, 4.218895, 0.00006812778, 0.00007351152, -975979.7, -42752.02, 0.0, 10.000299, 9.943149 
3.7150148e+3, 2.1471588e+2, -877692.0, -921392.0, 2.9796932, 0.0000677086, -0.00011738952, -877692.0, -41907.566, 0.0, 10.000301, 9.942807 
3.7150148e+3, 2.2465238e+2, -789404.6, -843126.44, 3.720292, 0.00006804325, 0.0001305077, -789404.6, -50997.83, 0.0, 10.000302, 9.929767 
3.7150148e+3, 2.345822e+2, -690971.44, -744948.94, 3.0737703, 0.00006923057, -0.00008331699, -690971.44, -49876.973, 0.0, 10.000303, 9.929436 
3.7150148e+3, 2.4450508e+2, -602650.4, -667008.75, 3.6579602, 0.0000698123, 0.000078634104, -602650.4, -58800.203, 0.0, 10.000304, 9.915991 
3.7150148e+3, 2.544212e+2, -503897.88, -568334.4, 2.4233673, 0.00006967029, -0.000101338155, -503897.88, -57225.582, 0.0, 10.000305, 9.915891 
3.7150148e+3, 2.6433024e+2, -415660.75, -490978.16, 2.6394165, 0.00006921596, 0.00014669063, -415660.75, -66096.914, 0.0, 10.000306, 9.90182 
3.7150148e+3, 2.742326e+2, -316374.2, -391365.16, 1.7444816, 0.00006836601, -0.00019764331, -316374.2, -63853.63, 0.0, 10.000308, 9.90224 
3.7150148e+3, 2.8412673e+2, -229899.33, -318071.75, 2.4753165, 0.0000683637, 0.00023376312, -229899.33, -74341.375, 0.0, 10.00031, 9.885294 
3.7150148e+3, 2.9401308e+2, -130192.91, -217756.2, 1.7992301, 0.00006952269, -0.0002507829, -130192.91, -71521.1, 0.0, 10.000311, 9.886072 
3.7150148e+3, 3.0392736e+2, -40456.418, -84755.29, 1.956697, 0.000070770126, 0.00017486532, -40456.418, -40456.418, 0.0, 10.000313, 9.9420185 
3.7150148e+3, 3.1387126e+2, -39376.91, -82516.76, 0.7421061, 0.00007213707, -0.000052263746, -39376.91, -39376.91, 0.0, 10.000315, 9.943529 
3.7250155e+3, 1.2499678e+2, -1719583.8, -1724190.1, 1.9390779, 0.00006605775, 0.00004233629, -1719583.8, -4552.1016, 0.0, 10.000297, 9.994189 
3.7250155e+3, 1.3499086e+2, -1622201.4, -1627400.9, 0.78586936, 0.00006720274, -0.00009915761, -1622201.4, -5111.691, 0.0, 10.000299, 9.993406 
3.7250152e+3, 1.4497831e+2, -1534096.9, -1548110.6, 2.759143, 0.000067942216, 0.00012062113, -1534096.9, -14884.32, 0.0, 10.000301, 9.981727 
3.7250152e+3, 1.5496004e+2, -1436367.4, -1450786.1, 1.5849161, 0.00006826292, -0.00004683068, -1436367.4, -14975.677, 0.0, 10.000303, 9.981195 
3.7250152e+3, 1.6493514e+2, -1348318.3, -1371923.5, 2.9137688, 0.00006863261, 0.00004440307, -1348318.3, -24682.572, 0.0, 10.000305, 9.969106 
3.7250152e+3, 1.749043e+2, -1250359.4, -1274281.6, 1.8524963, 0.0000690525, -0.00006283917, -1250359.4, -24421.426, 0.0, 10.000307, 9.968693 
3.7250152e+3, 1.848668e+2, -1162277.5, -1195692.5, 2.922653, 0.000069341695, 0.00008042855, -1162277.5, -33972.14, 0.0, 10.000308, 9.956253 
3.7250152e+3, 1.948231e+2, -1064126.8, -1097805.6, 2.1347194, 0.00006949421, -0.00005121075, -1064126.8, -33393.125, 0.0, 10.00031, 9.95591 
3.7250152e+3, 2.0477273e+2, -975964.06, -1019412.6, 2.8320487, 0.00006928953, 0.00007243475, -975964.06, -42736.68, 0.0, 10.000312, 9.943145 
3.7250152e+3, 2.147159e+2, -877676.9, -921388.25, 1.4957268, 0.00006869834, -0.000118335905, -877676.9, -41892.664, 0.0, 10.000313, 9.942804 
3.7250152e+3, 2.246524e+2, -789388.9, -843120.94, 1.8372271, 0.00006902287, 0.00013014615, -789388.9, -50982.305, 0.0, 10.000314, 9.929765 
3.7250152e+3, 2.3458222e+2, -690956.06, -744943.6, 0.9356784, 0.00007038316, -0.000082579885, -690956.06, -49861.824, 0.0, 10.000314, 9.929433 
3.7250152e+3, 2.4450509e+2, -602635.2, -667004.1, 1.8859427, 0.00007107714, 0.00007915202, -602635.2, -58785.188, 0.0, 10.000315, 9.915988 
3.7250152e+3, 2.544212e+2, -503881.88, -568329.4, 1.2676673, 0.00007097473, -0.00010261303, -503881.88, -57209.715, 0.0, 10.000317, 9.915888 
3.7250152e+3, 2.6433024e+2, -415644.72, -490973.63, 1.8371474, 0.00007042764, 0.00014485215, -415644.72, -66080.99, 0.0, 10.000319, 9.901816 
3.7250152e+3, 2.742326e+2, -316358.6, -391360.88, 0.59353137, 0.00006931676, -0.00019847834, -316358.6, -63838.09, 0.0, 10.00032, 9.902237 
3.725015e+3, 2.8412673e+2, -229883.52, -318066.75, 0.8390325, 0.000069283335, 0.00023374624, -229883.52, -74325.62, 0.0, 10.000321, 9.885291 
3.7250152e+3, 2.9401308e+2, -130177.14, -217751.22, -0.066461824, 0.000070726375, -0.0002502424, -130177.14, -71505.375, 0.0, 10.000323, 9.88607 
3.7250152e+3, 3.0392736e+2, -40440.938, -84751.36, 0.2830462, 0.00007224733, 0.00017526805, -40440.938, -40440.938, 0.0, 10.000325, 9.942016 
3.7250152e+3, 3.1387126e+2, -39360.45, -82512.45, -0.6825854, 0.00007386907, -0.00005302835, -39360.45, -39360.45, 0.0, 10.000327, 9.943525 
3.7350157e+3, 1.2499683e+2, -1719586.4, -1724195.0, 2.8612442, 0.000066182045, 0.000040999188, -1719586.4, -4555.2085, 0.0, 10.000297, 9.994186 
3.7350157e+3, 1.3499089e+2, -1622204.0, -1627405.9, 1.7083255, 0.00006818099, -0.000101198995, -1622204.0, -5114.7437, 0.0, 10.000299, 9.993403 
3.7350157e+3, 1.4497836e+2, -1534099.5, -1548115.8, 3.553513, 0.000069113, 0.00012041622, -1534099.5, -14887.383, 0.0, 10.000301, 9.981724 
3.7350157e+3, 1.5496008e+2, -1436370.0, -1450791.1, 2.380132, 0.00006896177, -0.000047775095, -1436370.0, -14978.673, 0.0, 10.000303, 9.981193 
3.7350154e+3, 1.6493519e+2, -1348320.6, -1371928.0, 3.4956458, 0.00006925217, 0.000043400538, -1348320.6, -24685.277, 0.0, 10.000305, 9.969104 
3.7350154e+3, 1.7490433e+2, -1250361.8, -1274286.1, 2.43247, 0.000069993206, -0.000063204665, -1250361.8, -24424.074, 0.0, 10.000307, 9.96869 
3.7350154e+3, 1.8486683e+2, -1162279.3, -1195695.9, 3.5275288, 0.00007057096, 0.000080233905, -1162279.3, -33974.18, 0.0, 10.000308, 9.95625 
3.7350154e+3, 1.9482312e+2, -1064128.5, -1097809.0, 2.74009, 0.00007097798, -0.00005172189, -1064128.5, -33395.12, 0.0, 10.00031, 9.955908 
3.7350154e+3, 2.0477274e+2, -975966.94, -1019418.2, 3.2859142, 0.00007085327, 0.00007157003, -975966.94, -42739.79, 0.0, 10.000312, 9.943142 
3.7350154e+3, 2.1471593e+2, -877679.7, -921393.9, 1.9471843, 0.000070153255, -0.000119594326, -877679.7, -41895.723, 0.0, 10.000313, 9.9428005 
3.7350154e+3, 2.2465241e+2, -789390.9, -843124.9, 2.0674226, 0.00007015744, 0.00012943127, -789390.9, -50984.453, 0.0, 10.000314, 9.929762 
3.7350154e+3, 2.3458225e+2, -690958.0, -744947.44, 1.1581686, 0.000070958245, -0.000081691214, -690958.0, -49863.906, 0.0, 10.000314, 9.929431 
3.7350154e+3, 2.445051e+2, -602636.6, -667006.94, 2.4883077, 0.00007156575, 0.000079976955, -602636.6, -58786.75, 0.0, 10.000316, 9.915986 
3.7350154e+3, 2.544212e+2, -503883.25, -568332.2, 1.8882763, 0.0000719417, -0.00010384313, -503883.25, -57211.21, 0.0, 10.000317, 9.915886 
3.7350154e+3, 2.6433024e+2, -415647.28, -490978.8, 2.4907553, 0.000071825176, 0.0001428738, -415647.28, -66083.63, 0.0, 10.000319, 9.9018135 
3.7350154e+3, 2.742326e+2, -316361.2, -391366.2, 1.2498084, 0.00007108277, -0.00019953825, -316361.2, -63840.746, 0.0, 10.00032, 9.902233 
3.7350154e+3, 2.8412673e+2, -229885.55, -318070.9, 1.3529427, 0.0000710754, 0.00023362493, -229885.55, -74327.664, 0.0, 10.000321, 9.885289 
3.7350154e+3, 2.9401308e+2, -130179.086, -217755.27, 0.43433812, 0.00007207641, -0.00024940522, -130179.086, -71507.32, 0.0, 10.000323, 9.886067 
3.7350154e+3, 3.0392736e+2, -40443.02, -84755.7, 1.1061702, 0.00007325899, 0.00017576761, -40443.02, -40443.02, 0.0, 10.000325, 9.942013 
3.7350154e+3, 3.1387123e+2, -39362.55, -82516.836, 0.17902797, 0.000074700794, -0.00005479033, -39362.55, -39362.55, 0.0, 10.000327, 9.943522 
3.745016e+3, 1.2499687e+2, -1719573.6, -1724191.5, 0.60626376, 0.00006643208, 0.00004173972, -1719573.6, -4542.8643, 0.0, 10.000306, 9.994184 
3.745016e+3, 1.3499093e+2, -1622190.6, -1627402.0, -0.42797992, 0.00006913613, -0.00010118298, -1622190.6, -5101.7383, 0.0, 10.000309, 9.993401 
3.745016e+3, 1.449784e+2, -1534084.6, -1548110.4, 1.7292632, 0.00007052422, 0.000121461715, -1534084.6, -14872.862, 0.0, 10.000312, 9.981722 
3.745016e+3, 1.5496011e+2, -1436353.8, -1450785.3, 1.1761644, 0.00007057909, -0.000049015824, -1436353.8, -14962.84, 0.0, 10.000315, 9.98119 
3.745016e+3, 1.6493522e+2, -1348304.5, -1371923.6, 2.0614088, 0.000070674505, 0.000041549127, -1348304.5, -24669.398, 0.0, 10.000318, 9.9691 
3.745016e+3, 1.7490436e+2, -1250344.8, -1274281.4, 0.43779454, 0.000070811475, -0.000063957836, -1250344.8, -24407.318, 0.0, 10.0003195, 9.968686 
3.745016e+3, 1.8486686e+2, -1162261.4, -1195688.9, 1.0017861, 0.00007133786, 0.00008025567, -1162261.4, -33956.555, 0.0, 10.00032, 9.956248 
3.7450156e+3, 1.9482315e+2, -1064112.5, -1097803.0, 0.32772633, 0.00007227123, -0.00005126317, -1064112.5, -33379.32, 0.0, 10.000321, 9.955906 
3.7450156e+3, 2.0477277e+2, -975952.5, -1019414.25, 1.2347652, 0.00007248663, 0.000071378534, -975952.5, -42725.594, 0.0, 10.000322, 9.943138 
3.7450156e+3, 2.1471594e+2, -877665.06, -921389.8, 0.3349652, 0.0000719252, -0.000121612335, -877665.06, -41881.234, 0.0, 10.000323, 9.942798 
3.7450156e+3, 2.2465242e+2, -789375.2, -843120.25, 0.46286508, 0.000071531795, 0.00012747422, -789375.2, -50968.95, 0.0, 10.000325, 9.929759 
3.7450156e+3, 2.3458225e+2, -690940.75, -744942.06, -0.7875584, 0.000071328686, -0.000081452155, -690940.75, -49846.79, 0.0, 10.000327, 9.929428 
3.7450156e+3, 2.4450512e+2, -602618.6, -667000.0, 0.30994606, 0.000071755916, 0.00008088669, -602618.6, -58768.832, 0.0, 10.000328, 9.915984 
3.7450156e+3, 2.5442123e+2, -503867.25, -568326.2, -0.2671845, 0.00007293532, -0.00010408572, -503867.25, -57195.28, 0.0, 10.000328, 9.915884 
3.7450156e+3, 2.6433024e+2, -415633.34, -490975.3, 0.7418263, 0.00007340689, 0.00014185475, -415633.34, -66069.75, 0.0, 10.000329, 9.901811 
3.7450156e+3, 2.742326e+2, -316347.38, -391362.9, -0.17118606, 0.000072976414, -0.00020085147, -316347.38, -63826.965, 0.0, 10.000331, 9.90223 
3.7450156e+3, 2.8412673e+2, -229871.03, -318067.13, 0.061171878, 0.00007288885, 0.00023264474, -229871.03, -74313.14, 0.0, 10.000333, 9.885285 
3.7450156e+3, 2.9401308e+2, -130163.14, -217750.8, -1.0436537, 0.000073274576, -0.00024919672, -130163.14, -71491.34, 0.0, 10.000336, 9.886065 
3.7450156e+3, 3.0392736e+2, -40425.92, -84750.15, -0.11594581, 0.0000741013, 0.0001760147, -40425.92, -40425.92, 0.0, 10.000338, 9.94201 
3.7450156e+3, 3.1387123e+2, -39345.277, -82511.13, -0.57140464, 0.00007557745, -0.000056219607, -39345.277, -39345.277, 0.0, 10.00034, 9.943521 
3.755016e+3, 1.24996915e+2, -1719576.0, -1724196.0, 1.6901191, 0.000066807115, 0.000044680877, -1719576.0, -4545.6387, 0.0, 10.000306, 9.994181 
3.755016e+3, 1.3499098e+2, -1622193.0, -1627406.5, 0.6560584, 0.00007006833, -0.00009912252, -1622193.0, -5104.4575, 0.0, 10.000309, 9.993398 
3.755016e+3, 1.4497843e+2, -1534085.9, -1548112.8, 2.8418608, 0.00007217443, 0.0001237498, -1534085.9, -14874.46, 0.0, 10.000312, 9.98172 
3.755016e+3, 1.5496014e+2, -1436355.0, -1450787.6, 2.2892892, 0.00007310929, -0.000050551025, -1436355.0, -14964.392, 0.0, 10.000315, 9.981189 
3.755016e+3, 1.6493523e+2, -1348308.0, -1371930.5, 2.8639057, 0.000072894756, 0.000038854087, -1348308.0, -24673.27, 0.0, 10.000318, 9.969095 
3.755016e+3, 1.7490438e+2, -1250348.3, -1274288.1, 1.2394551, 0.00007150819, -0.00006509643, -1250348.3, -24411.121, 0.0, 10.0003195, 9.968681 
3.755016e+3, 1.8486688e+2, -1162262.9, -1195691.8, 1.189784, 0.00007164536, 0.00008049232, -1162262.9, -33958.285, 0.0, 10.00032, 9.956246 
3.755016e+3, 1.9482316e+2, -1064114.0, -1097805.9, 0.5078835, 0.00007337517, -0.00004984068, -1064114.0, -33381.0, 0.0, 10.000321, 9.955904 
3.755016e+3, 2.0477279e+2, -975954.5, -1019418.06, 1.7606792, 0.00007418921, 0.00007185604, -975954.5, -42727.73, 0.0, 10.000322, 9.943136 
3.755016e+3, 2.1471596e+2, -877667.0, -921393.6, 0.8694991, 0.00007401227, -0.0001243853, -877667.0, -41883.32, 0.0, 10.000323, 9.942795 
3.755016e+3, 2.2465244e+2, -789377.9, -843125.44, 1.0978479, 0.00007314455, 0.00012428263, -789377.9, -50971.69, 0.0, 10.000325, 9.929755 
3.755016e+3, 2.3458226e+2, -690943.4, -744947.3, -0.14957689, 0.00007149592, -0.000081858794, -690943.4, -49849.5, 0.0, 10.000327, 9.929424 
3.755016e+3, 2.4450512e+2, -602620.0, -667002.8, 0.4650135, 0.00007164963, 0.00008188061, -602620.0, -58770.313, 0.0, 10.000328, 9.915982 
3.755016e+3, 2.5442123e+2, -503868.6, -568328.9, -0.13542435, 0.00007395547, -0.00010334699, -503868.6, -57196.67, 0.0, 10.000328, 9.915882 
3.755016e+3, 2.6433027e+2, -415635.3, -490979.34, 1.364815, 0.000075171636, 0.00014178899, -415635.3, -66071.766, 0.0, 10.000329, 9.901808 
3.755016e+3, 2.742326e+2, -316349.38, -391367.0, 0.48501188, 0.000074996926, -0.00020241649, -316349.38, -63828.96, 0.0, 10.000331, 9.902227 
3.755016e+3, 2.8412673e+2, -229873.34, -318071.9, 0.93179846, 0.000074723604, 0.00023081088, -229873.34, -74315.42, 0.0, 10.000333, 9.8852825 
3.755016e+3, 2.9401305e+2, -130165.45, -217755.58, -0.1538345, 0.00007432194, -0.0002496131, -130165.45, -71493.59, 0.0, 10.000336, 9.886062 
3.755016e+3, 3.0392733e+2, -40427.28, -84752.984, 0.7778055, 0.0000747754, 0.0001760108, -40427.28, -40427.28, 0.0, 10.000338, 9.942008 
3.755016e+3, 3.1387123e+2, -39346.527, -82513.74, 0.32235432, 0.00007649882, -0.000057318208, -39346.527, -39346.527, 0.0, 10.00034, 9.943519 
3.7650165e+3, 1.24996945e+2, -1719566.1, -1724193.8, -1.0176014, 0.00006953209, 0.000045503297, -1719566.1, -4536.123, 0.0, 10.000314, 9.994178 
3.7650165e+3, 1.3499099e+2, -1622178.5, -1627401.9, -2.019724, 0.00007114854, -0.00010102462, -1622178.5, -5090.2065, 0.0, 10.0003195, 9.993395 
3.7650165e+3, 1.4497846e+2, -1534068.0, -1548104.6, -0.29644436, 0.000072750685, 0.00012335028, -1534068.0, -14856.849, 0.0, 10.000323, 9.981719 
3.7650165e+3, 1.5496017e+2, -1436337.9, -1450779.8, -0.59140706, 0.00007432821, -0.00005026557, -1436337.9, -14947.476, 0.0, 10.000326, 9.981187 
3.7650165e+3, 1.6493526e+2, -1348293.1, -1371926.9, 0.15257926, 0.00007456678, 0.000038402715, -1348293.1, -24658.564, 0.0, 10.000329, 9.969091 
3.7650165e+3, 1.749044e+2, -1250332.8, -1274284.4, -1.0385991, 0.00007344004, -0.00006773447, -1250332.8, -24395.828, 0.0, 10.000331, 9.968678 
3.7650165e+3, 1.8486689e+2, -1162245.8, -1195685.9, -1.7308909, 0.00007324156, 0.00007834502, -1162245.8, -33941.313, 0.0, 10.000333, 9.956244 
3.7650165e+3, 1.9482318e+2, -1064096.0, -1097799.5, -2.9938235, 0.00007401326, -0.000048698676, -1064096.0, -33363.188, 0.0, 10.000334, 9.955901 
3.7650165e+3, 2.047728e+2, -975936.0, -1019409.94, -1.5952486, 0.00007473407, 0.00007325206, -975936.0, -42709.375, 0.0, 10.000335, 9.943135 
3.7650165e+3, 2.1471596e+2, -877650.6, -921386.56, -1.5242512, 0.000075399716, -0.00012601961, -877650.6, -41867.047, 0.0, 10.000335, 9.942794 
3.7650165e+3, 2.2465245e+2, -789364.44, -843122.7, -0.5308422, 0.00007491005, 0.00012180489, -789364.44, -50958.4, 0.0, 10.000336, 9.929752 
3.7650165e+3, 2.3458226e+2, -690930.2, -744944.75, -1.9168973, 0.00007311376, -0.00008270542, -690930.2, -49836.39, 0.0, 10.000338, 9.92942 
3.7650165e+3, 2.4450514e+2, -602604.9, -666997.44, -1.6860294, 0.00007288994, 0.000081971346, -602604.9, -58755.17, 0.0, 10.000339, 9.91598 
3.7650165e+3, 2.5442123e+2, -503851.47, -568322.5, -2.4273627, 0.000074544376, -0.00010314955, -503851.47, -57179.59, 0.0, 10.00034, 9.91588 
3.7650165e+3, 2.6433027e+2, -415617.94, -490973.4, -0.7633031, 0.00007570502, 0.00014173824, -415617.94, -66054.38, 0.0, 10.000342, 9.901805 
3.7650165e+3, 2.742326e+2, -316333.06, -391361.66, -1.4135677, 0.000076233286, -0.0002031648, -316333.06, -63812.613, 0.0, 10.000343, 9.9022255 
3.7650165e+3, 2.8412673e+2, -229858.3, -318068.1, -0.57042336, 0.00007632148, 0.00022977407, -229858.3, -74300.31, 0.0, 10.000344, 9.88528 
3.7650165e+3, 2.9401305e+2, -130150.77, -217752.1, -1.6755145, 0.00007581076, -0.00025037682, -130150.77, -71478.82, 0.0, 10.000347, 9.886058 
3.7650165e+3, 3.0392733e+2, -40411.652, -84747.97, -0.67598283, 0.00007597969, 0.00017553223, -40411.652, -40411.652, 0.0, 10.000349, 9.942006 
3.7650165e+3, 3.138712e+2, -39329.477, -82507.91, -1.4036926, 0.00007716253, -0.000057499004, -39329.477, -39329.477, 0.0, 10.000353, 9.943517 
3.775017e+3, 1.2499697e+2, -1719568.4, -1724198.1, 1.1815298, 0.00007459172, 0.000044381817, -1719568.4, -4538.6836, 0.0, 10.000314, 9.994175 
3.775017e+3, 1.3499103e+2, -1622180.8, -1627406.1, 0.17973004, 0.00007237594, -0.00010686404, -1622180.8, -5092.688, 0.0, 10.0003195, 9.993392 
3.775017e+3, 1.4497848e+2, -1534068.6, -1548105.9, 0.680992, 0.00007226005, 0.00012028025, -1534068.6, -14857.711, 0.0, 10.000323, 9.981718 
3.775017e+3, 1.5496019e+2, -1436338.5, -1450781.0, 0.38030446, 0.000074244286, -0.00004817141, -1436338.5, -14948.355, 0.0, 10.000326, 9.981187 
3.775017e+3, 1.6493528e+2, -1348295.8, -1371931.9, 1.0992755, 0.00007569407, 0.000040180395, -1348295.8, -24661.402, 0.0, 10.000329, 9.969089 
3.775017e+3, 1.7490442e+2, -1250335.4, -1274289.4, -0.08956921, 0.00007659913, -0.000071862385, -1250335.4, -24398.586, 0.0, 10.000331, 9.968675 
3.775017e+3, 1.8486692e+2, -1162248.5, -1195691.1, -1.3204274, 0.00007611827, 0.00007382902, -1162248.5, -33944.16, 0.0, 10.000333, 9.956241 
3.775017e+3, 1.9482319e+2, -1064098.8, -1097804.8, -2.5896914, 0.000074188654, -0.000047835583, -1064098.8, -33365.996, 0.0, 10.000334, 9.955898 
3.7750167e+3, 2.0477282e+2, -975935.94, -1019409.9, -1.5497528, 0.0000741288, 0.00007556046, -975935.94, -42709.453, 0.0, 10.000335, 9.943135 
3.7750167e+3, 2.1471597e+2, -877650.5, -921386.44, -1.486456, 0.000076092074, -0.00012652263, -877650.5, -41867.066, 0.0, 10.000335, 9.942794 
3.7750167e+3, 2.2465245e+2, -789367.3, -843128.3, 0.0654695, 0.00007682732, 0.00012003643, -789367.3, -50961.332, 0.0, 10.000336, 9.929749 
3.7750167e+3, 2.3458226e+2, -690933.1, -744950.56, -1.3014859, 0.00007617292, -0.00008398928, -690933.1, -49839.344, 0.0, 10.000338, 9.929418 
3.7750167e+3, 2.4450514e+2, -602606.5, -667000.8, -1.0620477, 0.00007546824, 0.00008116458, -602606.5, -58756.84, 0.0, 10.000339, 9.915978 
3.7750167e+3, 2.5442123e+2, -503853.1, -568325.75, -1.8031988, 0.000074704956, -0.00010349004, -503853.1, -57181.164, 0.0, 10.00034, 9.915878 
3.7750167e+3, 2.6433024e+2, -415619.53, -490976.63, -0.33346322, 0.00007501509, 0.00014170232, -415619.53, -66055.94, 0.0, 10.000342, 9.901803 
3.7750167e+3, 2.742326e+2, -316334.66, -391364.88, -0.9972025, 0.000076690616, -0.0002031017, -316334.66, -63814.13, 0.0, 10.000343, 9.902223 
3.7750167e+3, 2.8412673e+2, -229860.66, -318072.97, 0.22469918, 0.00007768405, 0.00022952913, -229860.66, -74302.586, 0.0, 10.000344, 9.885276 
3.7750167e+3, 2.9401305e+2, -130153.17, -217757.08, -0.8455907, 0.00007773823, -0.0002514857, -130153.17, -71481.1, 0.0, 10.000347, 9.886055 
3.7750167e+3, 3.0392733e+2, -40413.52, -84751.86, 0.5252154, 0.00007771079, 0.00017458192, -40413.52, -40413.52, 0.0, 10.000349, 9.942003 
3.775017e+3, 3.138712e+2, -39331.28, -82511.67, -0.15923226, 0.00007757034, -0.000056768065, -39331.28, -39331.28, 0.0, 10.000353, 9.943514 
3.785017e+3, 1.24997005e+2, -1719557.8, -1724195.3, 3.188554, 0.000078001, 0.000044405864, -1719557.8, -4528.2974, 0.0, 10.000321, 9.994173 
3.785017e+3, 1.3499105e+2, -1622165.6, -1627401.0, 2.2996695, 0.000074966316, -0.00011329148, -1622165.6, -5077.8135, 0.0, 10.00033, 9.99339 
3.785017e+3, 1.449785e+2, -1534050.8, -1548101.1, 0.3356949, 0.00007327247, 0.000116086936, -1534050.8, -14840.018, 0.0, 10.000337, 9.981714 
3.785017e+3, 1.549602e+2, -1436316.8, -1450774.3, -2.4563694, 0.00007291621, -0.000046391142, -1436316.8, -14926.798, 0.0, 10.000341, 9.981182 
3.785017e+3, 1.6493529e+2, -1348272.6, -1371921.3, -3.4900856, 0.000074355696, 0.000042705822, -1348272.6, -24638.494, 0.0, 10.000343, 9.969088 
3.785017e+3, 1.7490442e+2, -1250318.4, -1274281.9, -3.2428837, 0.000077626835, -0.00007392348, -1250318.4, -24381.69, 0.0, 10.000342, 9.968674 
3.785017e+3, 1.8486694e+2, -1162235.9, -1195688.6, -3.539944, 0.00007814893, 0.00007044677, -1162235.9, -33931.734, 0.0, 10.000342, 9.956238 
3.785017e+3, 1.9482319e+2, -1064085.4, -1097802.0, -4.9286885, 0.00007579748, -0.00004912597, -1064085.4, -33352.79, 0.0, 10.000344, 9.955894 
3.785017e+3, 2.0477282e+2, -975919.0, -1019401.5, -4.354826, 0.00007528706, 0.00007536904, -975919.0, -42692.563, 0.0, 10.000345, 9.943134 
3.785017e+3, 2.1471597e+2, -877632.2, -921377.3, -4.5355263, 0.00007676886, -0.00012668969, -877632.2, -41848.766, 0.0, 10.000347, 9.942794 
3.785017e+3, 2.2465245e+2, -789351.1, -843123.44, -2.6419382, 0.00007758287, 0.00011950388, -789351.1, -50945.133, 0.0, 10.000348, 9.929746 
3.785017e+3, 2.3458226e+2, -690918.56, -744946.6, -3.4266846, 0.00007764081, -0.00008532779, -690918.56, -49824.727, 0.0, 10.000348, 9.929414 
3.785017e+3, 2.4450512e+2, -602591.94, -666996.06, -2.678749, 0.000077108, 0.000079862766, -602591.94, -58742.207, 0.0, 10.00035, 9.915976 
3.785017e+3, 2.5442123e+2, -503837.9, -568320.75, -3.5310729, 0.00007587078, -0.000103748906, -503837.9, -57165.945, 0.0, 10.000352, 9.915876 
3.785017e+3, 2.6433024e+2, -415603.9, -490971.7, -2.4423802, 0.00007592866, 0.00014196585, -415603.9, -66040.24, 0.0, 10.000354, 9.901801 
3.785017e+3, 2.7423257e+2, -316318.34, -391359.66, -3.4111488, 0.0000776354, -0.00020298018, -316318.34, -63797.734, 0.0, 10.000355, 9.902221 
3.785017e+3, 2.841267e+2, -229844.2, -318067.94, -1.9240069, 0.00007869382, 0.00022924782, -229844.2, -74286.02, 0.0, 10.000357, 9.885274 
3.785017e+3, 2.9401302e+2, -130137.055, -217752.28, -2.536178, 0.000078857855, -0.00025252363, -130137.055, -71464.83, 0.0, 10.000359, 9.886052 
3.785017e+3, 3.039273e+2, -40397.805, -84747.31, -0.56874084, 0.00007887892, 0.00017340432, -40397.805, -40397.805, 0.0, 10.000361, 9.942 
3.785017e+3, 3.1387118e+2, -39315.863, -82507.266, -1.3377631, 0.00007869542, -0.000057166086, -39315.863, -39315.863, 0.0, 10.000364, 9.943511 
3.7950176e+3, 1.2499703e+2, -1719559.8, -1724199.0, 6.4206824, 0.00007977087, 0.000045738652, -1719559.8, -4530.5396, 0.0, 10.000321, 9.99417 
3.7950176e+3, 1.3499106e+2, -1622167.8, -1627404.8, 5.532689, 0.00007891052, -0.00012030234, -1622167.8, -5080.012, 0.0, 10.00033, 9.993387 
3.7950176e+3, 1.4497851e+2, -1534057.1, -1548113.0, 2.2333758, 0.000075778, 0.00011077839, -1534057.1, -14846.478, 0.0, 10.000337, 9.981707 
3.7950176e+3, 1.5496022e+2, -1436323.0, -1450786.1, -0.55647033, 0.00007035274, -0.000044922905, -1436323.0, -14933.148, 0.0, 10.000341, 9.981175 
3.7950173e+3, 1.649353e+2, -1348272.1, -1371920.3, -3.9487028, 0.00007056856, 0.000045973593, -1348272.1, -24638.063, 0.0, 10.000343, 9.969088 
3.7950173e+3, 1.7490444e+2, -1250317.9, -1274280.9, -3.712588, 0.0000765375, -0.00007393164, -1250317.9, -24381.229, 0.0, 10.000342, 9.968675 
3.7950173e+3, 1.8486694e+2, -1162238.9, -1195694.4, -2.9479258, 0.00007933914, 0.000068190726, -1162238.9, -33934.758, 0.0, 10.000342, 9.956234 
3.7950173e+3, 1.9482319e+2, -1064088.4, -1097807.8, -4.3225265, 0.00007883015, -0.000052555493, -1064088.4, -33355.76, 0.0, 10.000344, 9.955891 
3.7950173e+3, 2.0477282e+2, -975919.5, -1019402.44, -3.951222, 0.00007819713, 0.000072694376, -975919.5, -42693.03, 0.0, 10.000345, 9.943134 
3.7950173e+3, 2.1471597e+2, -877632.6, -921378.1, -4.1363244, 0.000077430326, -0.00012652323, -877632.6, -41849.2, 0.0, 10.000347, 9.942793 
3.7950173e+3, 2.2465245e+2, -789352.8, -843126.8, -2.3851001, 0.00007718459, 0.00012019882, -789352.8, -50946.86, 0.0, 10.000348, 9.929744 
3.7950173e+3, 2.3458226e+2, -690920.25, -744950.06, -3.1741939, 0.00007752813, -0.000086720655, -690920.25, -49826.434, 0.0, 10.000348, 9.929412 
3.7950173e+3, 2.4450512e+2, -602593.8, -666999.8, -1.9214282, 0.00007781551, 0.00007806917, -602593.8, -58743.996, 0.0, 10.00035, 9.915974 
3.7950173e+3, 2.544212e+2, -503839.75, -568324.44, -2.7501783, 0.000078035184, -0.000103926715, -503839.75, -57167.707, 0.0, 10.000352, 9.915874 
3.7950173e+3, 2.6433024e+2, -415606.06, -490976.06, -1.8181268, 0.0000784351, 0.00014252675, -415606.06, -66042.29, 0.0, 10.000354, 9.901798 
3.7950173e+3, 2.7423257e+2, -316320.5, -391364.03, -2.796781, 0.00007906446, -0.00020280077, -316320.5, -63799.742, 0.0, 10.000355, 9.902218 
3.7950173e+3, 2.841267e+2, -229845.84, -318071.3, -1.162865, 0.000079353245, 0.00022893018, -229845.84, -74287.5, 0.0, 10.000357, 9.885271 
3.7950173e+3, 2.9401302e+2, -130138.625, -217755.56, -1.7622113, 0.00007917513, -0.00025349116, -130138.625, -71466.21, 0.0, 10.000359, 9.88605 
3.7950173e+3, 3.0392727e+2, -40399.805, -84751.48, 0.5586848, 0.000079487894, 0.00017200095, -40399.805, -40399.805, 0.0, 10.000361, 9.941998 
3.7950173e+3, 3.1387115e+2, -39317.914, -82511.54, -0.16814165, 0.00008053299, -0.000058685604, -39317.914, -39317.914, 0.0, 10.000364, 9.943508 
3.8050178e+3, 1.2499705e+2, -1719525.9, -1724182.9, -2.3511128, 0.000081975624, 0.000059019996, -1719525.9, -4496.779, 0.0, 10.000343, 9.994168 
3.8050178e+3, 1.3499108e+2, -1622146.6, -1627395.6, -2.8353493, 0.000080873986, -0.00011707439, -1622146.6, -5059.0576, 0.0, 10.000344, 9.993385 
3.8050178e+3, 1.4497854e+2, -1534047.0, -1548112.8, -5.249058, 0.00007723847, 0.000112692476, -1534047.0, -14836.458, 0.0, 10.000345, 9.981702 
3.8050178e+3, 1.5496023e+2, -1436317.6, -1450788.4, -5.7988663, 0.00007104744, -0.00004036077, -1436317.6, -14927.828, 0.0, 10.000347, 9.981171 
3.8050178e+3, 1.649353e+2, -1348261.8, -1371913.5, -9.038437, 0.00007097599, 0.000050856765, -1348261.8, -24627.738, 0.0, 10.00035, 9.9690895 
3.8050178e+3, 1.7490444e+2, -1250302.1, -1274271.3, -8.432145, 0.00007714569, -0.00007110044, -1250302.1, -24365.496, 0.0, 10.000352, 9.968676 
3.8050178e+3, 1.8486694e+2, -1162223.5, -1195688.6, -6.6049147, 0.000080442136, 0.00006861204, -1162223.5, -33919.438, 0.0, 10.000354, 9.956232 
3.8050178e+3, 1.9482319e+2, -1064074.4, -1097802.8, -6.7330976, 0.00008073533, -0.000054918335, -1064074.4, -33341.652, 0.0, 10.000355, 9.955889 
3.8050178e+3, 2.0477282e+2, -975904.56, -1019395.56, -5.7263446, 0.00008010519, 0.00007002456, -975904.56, -42678.027, 0.0, 10.000356, 9.943133 
3.8050178e+3, 2.1471597e+2, -877616.7, -921370.8, -6.0398993, 0.00007847641, -0.0001268199, -877616.7, -41833.234, 0.0, 10.000358, 9.942793 
3.8050178e+3, 2.2465245e+2, -789336.7, -843120.9, -4.366721, 0.00007772718, 0.00012032847, -789336.7, -50930.69, 0.0, 10.00036, 9.929741 
3.8050178e+3, 2.3458226e+2, -690902.7, -744943.5, -4.9959517, 0.00007797297, -0.000088367575, -690902.7, -49808.8, 0.0, 10.0003605, 9.92941 
3.8050178e+3, 2.445051e+2, -602576.94, -666994.56, -3.7168434, 0.00007850135, 0.00007634476, -602576.94, -58727.035, 0.0, 10.000362, 9.915971 
3.8050178e+3, 2.544212e+2, -503824.88, -568320.25, -4.8734474, 0.00007936597, -0.000103698185, -503824.88, -57152.723, 0.0, 10.000363, 9.915871 
3.8050178e+3, 2.643302e+2, -415591.75, -490971.72, -3.853, 0.00008005923, 0.000143318, -415591.75, -66027.83, 0.0, 10.000364, 9.901795 
3.8050178e+3, 2.7423254e+2, -316305.66, -391359.47, -4.481886, 0.00008053384, -0.00020321982, -316305.66, -63784.754, 0.0, 10.000366, 9.902215 
3.8050178e+3, 2.8412667e+2, -229830.5, -318066.53, -2.5934672, 0.00008063413, 0.00022790158, -229830.5, -74271.945, 0.0, 10.000368, 9.885269 
3.8050178e+3, 2.94013e+2, -130122.76, -217750.56, -3.385355, 0.00008022341, -0.0002542993, -130122.76, -71450.13, 0.0, 10.000371, 9.886047 
3.8050178e+3, 3.0392724e+2, -40384.023, -84746.44, -0.8060498, 0.00008046412, 0.0001712646, -40384.023, -40384.023, 0.0, 10.000373, 9.941996 
3.8050178e+3, 3.1387112e+2, -39303.027, -82506.93, -1.0735039, 0.000081675964, -0.000059578266, -39303.027, -39303.027, 0.0, 10.000376, 9.943506 
3.815018e+3, 1.24997064e+2, -1719526.9, -1724185.0, -2.04565, 0.00008461275, 0.00008433068, -1719526.9, -4497.933, 0.0, 10.000343, 9.994167 
3.815018e+3, 1.3499108e+2, -1622147.8, -1627397.8, -2.5259433, 0.00008087071, -0.00010368088, -1622147.8, -5060.1587, 0.0, 10.000344, 9.993384 
3.815018e+3, 1.4497854e+2, -1534048.3, -1548115.1, -4.4349523, 0.00007766096, 0.000121777346, -1534048.3, -14837.666, 0.0, 10.000345, 9.981701 
3.815018e+3, 1.5496023e+2, -1436318.9, -1450790.8, -4.991909, 0.000074977215, -0.00003272683, -1436318.9, -14928.989, 0.0, 10.000347, 9.981169 
3.815018e+3, 1.649353e+2, -1348260.4, -1371910.9, -8.188854, 0.00007554848, 0.00005734393, -1348260.4, -24626.309, 0.0, 10.00035, 9.96909 
3.815018e+3, 1.7490444e+2, -1250300.8, -1274268.6, -7.5854945, 0.000079439684, -0.00006545007, -1250300.8, -24364.104, 0.0, 10.000352, 9.9686775 
3.815018e+3, 1.8486694e+2, -1162223.9, -1195689.3, -6.2671413, 0.00008145873, 0.00007169172, -1162223.9, -33919.703, 0.0, 10.000354, 9.956231 
3.815018e+3, 1.9482319e+2, -1064074.6, -1097803.4, -6.40193, 0.00008152093, -0.000056221965, -1064074.6, -33341.902, 0.0, 10.000355, 9.955889 
3.815018e+3, 2.047728e+2, -975905.25, -1019396.94, -5.0797367, 0.00008101819, 0.000067359615, -975905.25, -42678.66, 0.0, 10.000356, 9.943132 
3.815018e+3, 2.1471597e+2, -877617.4, -921372.2, -5.386653, 0.00007990445, -0.0001275765, -877617.4, -41833.87, 0.0, 10.000358, 9.942792 
3.815018e+3, 2.2465244e+2, -789338.1, -843123.7, -3.7290244, 0.000079204154, 0.000119896686, -789338.1, -50932.03, 0.0, 10.00036, 9.92974 
3.815018e+3, 2.3458225e+2, -690904.1, -744946.4, -4.358182, 0.00007897161, -0.00009026683, -690904.1, -49810.12, 0.0, 10.0003605, 9.929408 
3.815018e+3, 2.4450509e+2, -602579.44, -666999.5, -3.3905864, 0.00007916584, 0.00007468898, -602579.44, -58729.4, 0.0, 10.000362, 9.915968 
3.815018e+3, 2.5442117e+2, -503827.38, -568325.3, -4.5624723, 0.000079868965, -0.00010306628, -503827.38, -57155.08, 0.0, 10.000363, 9.915868 
3.815018e+3, 2.643302e+2, -415593.3, -490974.9, -3.1219747, 0.00008080717, 0.00014433784, -415593.3, -66029.22, 0.0, 10.000364, 9.9017935 
3.815018e+3, 2.7423254e+2, -316307.16, -391362.5, -3.7228653, 0.000082043276, -0.0002042332, -316307.16, -63786.027, 0.0, 10.000366, 9.902213 
3.815018e+3, 2.8412664e+2, -229832.44, -318070.56, -1.6778638, 0.000082532184, 0.00022616693, -229832.44, -74273.67, 0.0, 10.000368, 9.885266 
3.815018e+3, 2.9401296e+2, -130124.73, -217754.64, -2.4557934, 0.00008199772, -0.00025494923, -130124.73, -71451.85, 0.0, 10.000371, 9.8860445 
3.815018e+3, 3.039272e+2, -40385.324, -84749.16, 0.126141, 0.00008180514, 0.00017119052, -40385.324, -40385.324, 0.0, 10.000373, 9.941994 
3.8150182e+3, 3.138711e+2, -39304.254, -82509.484, -0.14166841, 0.000082129176, -0.00005984842, -39304.254, -39304.254, 0.0, 10.000376, 9.943504 
3.8250184e+3, 1.2499708e+2, -1719505.0, -1724171.5, 5.555208, 0.000086352295, 0.000088945926, -1719505.0, -4476.0146, 0.0, 10.000356, 9.994169 
3.8250184e+3, 1.349911e+2, -1622124.6, -1627383.8, 7.130585, 0.0000823285, -0.000106431864, -1622124.6, -5037.1177, 0.0, 10.000358, 9.993385 
3.8250184e+3, 1.4497854e+2, -1534033.4, -1548115.5, 4.1445756, 0.00007943009, 0.00011860641, -1534033.4, -14822.905, 0.0, 10.000359, 9.981693 
3.8250184e+3, 1.5496022e+2, -1436307.1, -1450792.8, -0.69867367, 0.00007765407, -0.000033999397, -1436307.1, -14917.1455, 0.0, 10.000359, 9.981162 
3.8250184e+3, 1.649353e+2, -1348245.1, -1371903.6, -6.6082544, 0.00007828451, 0.000057722504, -1348245.1, -24610.885, 0.0, 10.00036, 9.96909 
3.8250184e+3, 1.7490444e+2, -1250286.1, -1274261.9, -7.7424016, 0.000081369566, -0.00006367267, -1250286.1, -24349.486, 0.0, 10.000361, 9.968677 
3.8250184e+3, 1.8486692e+2, -1162209.4, -1195682.9, -7.810374, 0.000082835286, 0.00007258762, -1162209.4, -33905.137, 0.0, 10.000363, 9.95623 
3.8250184e+3, 1.9482318e+2, -1064058.9, -1097796.4, -8.428073, 0.00008260838, -0.000058591075, -1064058.9, -33326.043, 0.0, 10.000365, 9.955887 
3.8250184e+3, 2.0477279e+2, -975888.7, -1019389.25, -7.169701, 0.00008203019, 0.00006456851, -975888.7, -42662.0, 0.0, 10.000366, 9.943131 
3.8250184e+3, 2.1471596e+2, -877601.0, -921364.6, -7.3649015, 0.0000810721, -0.00012771344, -877601.0, -41817.44, 0.0, 10.000368, 9.942791 
3.8250184e+3, 2.2465242e+2, -789322.5, -843117.3, -5.5294075, 0.000080457954, 0.00012035026, -789322.5, -50916.332, 0.0, 10.00037, 9.929738 
3.8250184e+3, 2.3458223e+2, -690888.9, -744940.2, -5.8294597, 0.000080232836, -0.000091557835, -690888.9, -49794.73, 0.0, 10.000371, 9.929406 
3.8250184e+3, 2.4450508e+2, -602565.06, -666996.25, -4.8447285, 0.0000802663, 0.00007317891, -602565.06, -58714.934, 0.0, 10.000373, 9.915964 
3.8250184e+3, 2.5442117e+2, -503811.44, -568321.4, -6.210528, 0.00008060794, -0.00010297195, -503811.44, -57138.953, 0.0, 10.000375, 9.915864 
3.8250184e+3, 2.6433018e+2, -415575.88, -490968.7, -4.837943, 0.00008155034, 0.00014507546, -415575.88, -66011.59, 0.0, 10.000377, 9.901792 
3.8250184e+3, 2.742325e+2, -316290.9, -391356.8, -5.4945745, 0.00008325622, -0.00020407903, -316290.9, -63769.563, 0.0, 10.000378, 9.902211 
3.8250184e+3, 2.841266e+2, -229817.66, -318066.38, -3.2983897, 0.000084071864, 0.00022566195, -229817.66, -74258.64, 0.0, 10.00038, 9.885263 
3.8250184e+3, 2.9401293e+2, -130110.67, -217750.94, -4.118565, 0.00008366633, -0.0002562112, -130110.67, -71437.516, 0.0, 10.000381, 9.886042 
3.8250184e+3, 3.0392718e+2, -40370.844, -84744.71, -1.463005, 0.00008321804, 0.00017006097, -40370.844, -40370.844, 0.0, 10.000384, 9.941992 
3.8250184e+3, 3.1387106e+2, -39288.36, -82504.29, -2.0759242, 0.00008271733, -0.000059524285, -39288.36, -39288.36, 0.0, 10.000388, 9.943502 
3.835019e+3, 1.2499708e+2, -1719501.3, -1724164.6, 6.1344905, 0.00008720062, 0.000073156305, -1719501.3, -4472.373, 0.0, 10.000356, 9.994173 
3.835019e+3, 1.349911e+2, -1622121.0, -1627377.0, 7.7037554, 0.00008523687, -0.00012520788, -1622121.0, -5033.618, 0.0, 10.000358, 9.99339 
3.835019e+3, 1.4497854e+2, -1534044.4, -1548136.1, 4.23044, 0.000082536295, 0.00010327066, -1534044.4, -14833.939, 0.0, 10.000359, 9.981681 
3.835019e+3, 1.5496022e+2, -1436317.9, -1450813.3, -0.6057284, 0.00007908726, -0.000044113123, -1436317.9, -14927.935, 0.0, 10.000359, 9.98115 
3.835019e+3, 1.6493529e+2, -1348247.6, -1371908.4, -5.941958, 0.000079197445, 0.000052036867, -1348247.6, -24613.291, 0.0, 10.00036, 9.969087 
3.835019e+3, 1.7490442e+2, -1250288.6, -1274266.5, -7.0687747, 0.00008293794, -0.000065740125, -1250288.6, -24351.83, 0.0, 10.000361, 9.968674 
3.835019e+3, 1.8486692e+2, -1162210.8, -1195685.5, -7.1465044, 0.00008456914, 0.00007131556, -1162210.8, -33906.387, 0.0, 10.000363, 9.956229 
3.835019e+3, 1.9482316e+2, -1064060.1, -1097798.9, -7.764516, 0.00008399555, -0.00006201816, -1064060.1, -33327.24, 0.0, 10.000365, 9.955886 
3.835019e+3, 2.0477277e+2, -975889.2, -1019390.2, -6.5412865, 0.00008314056, 0.000061651896, -975889.2, -42662.35, 0.0, 10.000366, 9.943131 
3.835019e+3, 2.1471594e+2, -877601.5, -921365.56, -6.7391734, 0.00008198135, -0.00012723535, -877601.5, -41817.785, 0.0, 10.000368, 9.94279 
3.835019e+3, 2.2465242e+2, -789323.25, -843118.8, -4.945503, 0.00008149023, 0.00012168275, -789323.25, -50916.95, 0.0, 10.00037, 9.929737 
3.835019e+3, 2.3458222e+2, -690889.6, -744941.7, -5.2473173, 0.00008175472, -0.00009224504, -690889.6, -49795.33, 0.0, 10.000371, 9.929405 
3.835019e+3, 2.4450506e+2, -602567.94, -667001.94, -4.0941243, 0.00008179955, 0.000071813476, -602567.94, -58717.582, 0.0, 10.000373, 9.91596 
3.835019e+3, 2.5442114e+2, -503814.3, -568327.2, -5.451924, 0.00008158132, -0.000103411345, -503814.3, -57141.63, 0.0, 10.000375, 9.91586 
3.835019e+3, 2.6433015e+2, -415577.56, -490972.13, -4.3528666, 0.00008228895, 0.00014553285, -415577.56, -66013.05, 0.0, 10.000377, 9.901789 
3.835019e+3, 2.7423248e+2, -316292.5, -391360.1, -5.028384, 0.000084174935, -0.00020276586, -316292.5, -63770.91, 0.0, 10.000378, 9.902209 
3.835019e+3, 2.8412658e+2, -229819.73, -318070.66, -2.5473742, 0.00008525579, 0.00022637767, -229819.73, -74260.44, 0.0, 10.00038, 9.885261 
3.835019e+3, 2.940129e+2, -130112.75, -217755.27, -3.3402393, 0.00008523001, -0.00025808084, -130112.75, -71439.28, 0.0, 10.000381, 9.886039 
3.8350192e+3, 3.0392715e+2, -40372.785, -84748.76, -0.22309317, 0.000084702304, 0.00016788351, -40372.785, -40372.785, 0.0, 10.000384, 9.941989 
3.8350192e+3, 3.1387103e+2, -39290.29, -82508.305, -0.78255326, 0.00008343957, -0.00005861041, -39290.29, -39290.29, 0.0, 10.000388, 9.9435 
3.8450193e+3, 1.24997094e+2, -1719476.1, -1724151.4, -1.098269, 0.000087396686, 0.00008255387, -1719476.1, -4447.295, 0.0, 10.000371, 9.994173 
3.8450193e+3, 1.349911e+2, -1622098.4, -1627365.1, -2.8058453, 0.00008731558, -0.00012586384, -1622098.4, -5011.0503, 0.0, 10.000372, 9.99339 
3.8450193e+3, 1.4497854e+2, -1534029.4, -1548136.8, -6.2123446, 0.00008516932, 0.00010149729, -1534029.4, -14819.078, 0.0, 10.000372, 9.981673 
3.8450193e+3, 1.5496022e+2, -1436303.6, -1450814.4, -7.0122876, 0.0000809402, -0.00004245571, -1436303.6, -14913.615, 0.0, 10.000372, 9.981142 
3.8450193e+3, 1.6493529e+2, -1348227.4, -1371897.5, -8.533406, 0.00008069481, 0.000055353434, -1348227.4, -24593.012, 0.0, 10.000372, 9.969088 
3.8450193e+3, 1.7490442e+2, -1250268.8, -1274255.9, -7.250655, 0.000084512736, -0.00006257167, -1250268.8, -24331.979, 0.0, 10.000374, 9.968674 
3.8450193e+3, 1.8486689e+2, -1162192.6, -1195678.0, -6.062896, 0.00008603737, 0.000072228795, -1162192.6, -33888.21, 0.0, 10.000376, 9.956227 
3.8450193e+3, 1.9482315e+2, -1064041.9, -1097791.4, -6.7470436, 0.000085164866, -0.00006556268, -1064041.9, -33308.79, 0.0, 10.000378, 9.955884 
3.8450193e+3, 2.0477276e+2, -975871.3, -1019383.25, -6.2209973, 0.000084204825, 0.000057309073, -975871.3, -42644.316, 0.0, 10.00038, 9.94313 
3.8450193e+3, 2.1471593e+2, -877584.44, -921359.06, -7.459317, 0.00008315034, -0.00012841706, -877584.44, -41800.598, 0.0, 10.0003805, 9.942788 
3.8450193e+3, 2.2465241e+2, -789305.8, -843111.4, -6.2067714, 0.00008257029, 0.00012181742, -789305.8, -50899.387, 0.0, 10.000381, 9.929736 
3.8450193e+3, 2.345822e+2, -690871.7, -744934.0, -6.737395, 0.000082526734, -0.000092881935, -690871.7, -49777.21, 0.0, 10.000383, 9.929404 
3.8450193e+3, 2.4450505e+2, -602552.1, -666998.25, -5.78306, 0.000082607985, 0.000071138675, -602552.1, -58701.625, 0.0, 10.000385, 9.9159565 
3.8450193e+3, 2.5442111e+2, -503799.94, -568324.4, -7.177011, 0.00008283758, -0.00010324597, -503799.94, -57127.01, 0.0, 10.000386, 9.915856 
3.8450193e+3, 2.6433012e+2, -415562.72, -490967.72, -6.288821, 0.00008370328, 0.00014631984, -415562.72, -65997.92, 0.0, 10.000388, 9.901787 
3.8450193e+3, 2.7423245e+2, -316276.97, -391355.3, -7.278264, 0.00008537783, -0.00020163727, -316276.97, -63755.1, 0.0, 10.00039, 9.902206 
3.8450193e+3, 2.8412655e+2, -229803.23, -318064.5, -4.387492, 0.0000863501, 0.00022681705, -229803.23, -74243.625, 0.0, 10.000392, 9.885259 
3.8450193e+3, 2.9401287e+2, -130096.19, -217749.06, -4.256406, 0.0000863581, -0.0002597396, -130096.19, -71422.38, 0.0, 10.000394, 9.886037 
3.8450193e+3, 3.0392712e+2, -40357.945, -84744.9, -0.4586715, 0.00008597663, 0.00016562003, -40357.945, -40357.945, 0.0, 10.000396, 9.941986 
3.8450193e+3, 3.13871e+2, -39277.33, -82505.52, -1.276911, 0.000085025626, -0.000059248094, -39277.33, -39277.33, 0.0, 10.000398, 9.943497 
3.8550195e+3, 1.2499712e+2, -1719480.0, -1724158.6, -1.0493217, 0.00008694543, 0.000117097756, -1719480.0, -4451.3223, 0.0, 10.000372, 9.994168 
3.8550195e+3, 1.3499111e+2, -1622102.3, -1627372.4, -2.7531636, 0.00008857098, -0.0001085388, -1622102.3, -5014.9214, 0.0, 10.000372, 9.993385 
3.8550195e+3, 1.4497854e+2, -1534031.3, -1548140.1, -6.2258735, 0.00008733278, 0.00011318168, -1534031.3, -14820.796, 0.0, 10.000372, 9.981671 
3.8550195e+3, 1.5496022e+2, -1436305.4, -1450817.8, -7.030634, 0.000083209765, -0.000029116933, -1436305.4, -14915.293, 0.0, 10.000372, 9.98114 
3.8550195e+3, 1.6493529e+2, -1348224.5, -1371892.1, -7.933352, 0.00008277226, 0.00006760417, -1348224.5, -24590.08, 0.0, 10.000372, 9.96909 
3.8550195e+3, 1.749044e+2, -1250266.0, -1274250.4, -6.65372, 0.00008609401, -0.000054206725, -1250266.0, -24329.09, 0.0, 10.000374, 9.9686775 
3.8550195e+3, 1.8486689e+2, -1162194.0, -1195680.8, -5.3233004, 0.00008724209, 0.00007531108, -1162194.0, -33889.59, 0.0, 10.000376, 9.956225 
3.8550195e+3, 1.9482313e+2, -1064043.4, -1097794.3, -6.0055294, 0.000086118045, -0.00006922345, -1064043.3, -33310.14, 0.0, 10.000378, 9.955882 
3.8550195e+3, 2.0477274e+2, -975873.94, -1019388.44, -5.773252, 0.00008522339, 0.000051551, -975873.94, -42646.8, 0.0, 10.00038, 9.943126 
3.8550195e+3, 2.1471591e+2, -877587.06, -921364.25, -7.0154777, 0.00008457717, -0.00013124607, -877587.06, -41803.06, 0.0, 10.0003805, 9.942785 
3.8550195e+3, 2.2465238e+2, -789307.1, -843113.9, -5.476358, 0.00008369785, 0.00012076316, -789307.1, -50900.47, 0.0, 10.000381, 9.929734 
3.8550195e+3, 2.3458217e+2, -690872.9, -744936.44, -5.998503, 0.00008255466, -0.00009346904, -690872.9, -49778.223, 0.0, 10.000383, 9.929403 
3.8550195e+3, 2.4450502e+2, -602555.06, -667004.06, -5.31373, 0.00008269717, 0.00007114921, -602555.06, -58704.31, 0.0, 10.000385, 9.915953 
3.8550195e+3, 2.544211e+2, -503802.9, -568330.4, -6.7208004, 0.00008437459, -0.00010248046, -503802.9, -57129.695, 0.0, 10.000386, 9.915853 
3.8550195e+3, 2.643301e+2, -415565.0, -490972.34, -5.6583676, 0.000085788204, 0.00014743388, -415565.0, -65999.89, 0.0, 10.000388, 9.901783 
3.8550195e+3, 2.7423242e+2, -316279.2, -391359.8, -6.635891, 0.00008686283, -0.00020069208, -316279.2, -63756.977, 0.0, 10.00039, 9.902204 
3.8550198e+3, 2.8412652e+2, -229803.75, -318065.6, -3.5931408, 0.00008735556, 0.000226982, -229803.75, -74243.8, 0.0, 10.000392, 9.885259 
3.8550198e+3, 2.9401284e+2, -130096.555, -217749.83, -3.4495053, 0.00008705407, -0.0002611891, -130096.555, -71422.39, 0.0, 10.000394, 9.886037 
3.8550198e+3, 3.039271e+2, -40360.203, -84749.59, 0.36982483, 0.0000870427, 0.00016327135, -40360.203, -40360.203, 0.0, 10.000396, 9.941982 
3.8550198e+3, 3.1387094e+2, -39279.805, -82510.68, -0.4444747, 0.000087468856, -0.000061425584, -39279.805, -39279.805, 0.0, 10.000398, 9.943493 
3.86502e+3, 1.24997124e+2, -1719451.9, -1724146.1, 3.6644092, 0.0000869087, 0.0001235423, -1719451.9, -4423.2227, 0.0, 10.00039, 9.994166 
3.86502e+3, 1.3499111e+2, -1622080.6, -1627363.4, 3.695626, 0.0000886796, -0.00011141089, -1622080.6, -4993.318, 0.0, 10.000386, 9.993383 
3.86502e+3, 1.4497854e+2, -1534015.3, -1548137.8, 0.66281414, 0.00008815373, 0.00010918894, -1534015.3, -14804.758, 0.0, 10.000384, 9.981666 
3.86502e+3, 1.549602e+2, -1436288.9, -1450815.1, -2.547014, 0.000085313244, -0.000030161793, -1436288.9, -14898.6455, 0.0, 10.000384, 9.981134 
3.86502e+3, 1.6493528e+2, -1348204.0, -1371882.3, -5.6694994, 0.00008548552, 0.00006861292, -1348204.0, -24569.367, 0.0, 10.000385, 9.9690895 
3.86502e+3, 1.749044e+2, -1250245.5, -1274240.6, -7.548857, 0.00008873107, -0.000052057407, -1250245.4, -24308.482, 0.0, 10.000387, 9.968677 
3.86502e+3, 1.8486688e+2, -1162174.3, -1195672.4, -7.625104, 0.00008924334, 0.00007650321, -1162174.3, -33869.703, 0.0, 10.000389, 9.9562235 
3.86502e+3, 1.9482312e+2, -1064023.5, -1097785.9, -8.191948, 0.00008689851, -0.00007118124, -1064023.5, -33290.2, 0.0, 10.000391, 9.95588 
3.86502e+3, 2.0477273e+2, -975854.56, -1019380.6, -7.7617564, 0.00008544137, 0.000048738497, -975854.56, -42627.266, 0.0, 10.000393, 9.943124 
3.86502e+3, 2.147159e+2, -877568.3, -921356.8, -7.937221, 0.00008494495, -0.00013242997, -877568.3, -41784.11, 0.0, 10.000393, 9.942783 
3.86502e+3, 2.2465236e+2, -789289.1, -843107.1, -5.7484384, 0.00008443673, 0.00012043108, -789289.1, -50882.277, 0.0, 10.000395, 9.929732 
3.86502e+3, 2.3458216e+2, -690855.6, -744930.06, -6.6626587, 0.00008391464, -0.000093828865, -690855.6, -49760.734, 0.0, 10.000396, 9.9294 
3.86502e+3, 2.4450499e+2, -602539.56, -667000.75, -6.429079, 0.00008431879, 0.000070976675, -602539.56, -58688.54, 0.0, 10.000398, 9.915949 
3.86502e+3, 2.5442106e+2, -503787.34, -568327.2, -7.9596205, 0.00008582856, -0.00010220797, -503787.34, -57113.867, 0.0, 10.000399, 9.915849 
3.86502e+3, 2.6433006e+2, -415548.84, -490967.56, -6.8337994, 0.00008706575, 0.0001477003, -415548.84, -65983.414, 0.0, 10.000401, 9.90178 
3.86502e+3, 2.742324e+2, -316263.75, -391355.34, -7.665367, 0.000087953806, -0.00020100627, -316263.75, -63741.2, 0.0, 10.0004015, 9.902201 
3.86502e+3, 2.841265e+2, -229787.9, -318059.34, -4.596028, 0.00008840209, 0.00022656757, -229787.9, -74227.58, 0.0, 10.000402, 9.885257 
3.86502e+3, 2.9401278e+2, -130081.03, -217743.67, -5.0199685, 0.000088250585, -0.0002610439, -130081.03, -71406.49, 0.0, 10.000404, 9.886036 
3.86502e+3, 3.0392703e+2, -40345.94, -84745.38, -1.2043583, 0.00008847266, 0.00016311862, -40345.94, -40345.94, 0.0, 10.000406, 9.94198 
3.8650203e+3, 3.138709e+2, -39265.914, -82506.8, -1.2923652, 0.000089254165, -0.00006315484, -39265.914, -39265.914, 0.0, 10.000409, 9.94349 
3.8750204e+3, 1.2499712e+2, -1719451.8, -1724146.0, 2.2085757, 0.00008728348, 0.00010223068, -1719451.8, -4423.12, 0.0, 10.00039, 9.994166 
3.8750204e+3, 1.349911e+2, -1622080.5, -1627363.3, 2.2376363, 0.00008765053, -0.00013431972, -1622080.5, -4993.2866, 0.0, 10.000386, 9.993383 
3.8750204e+3, 1.4497851e+2, -1534022.4, -1548151.5, 0.76929337, 0.000087642664, 0.00008964385, -1534022.4, -14812.022, 0.0, 10.000384, 9.981658 
3.87502e+3, 1.5496019e+2, -1436296.0, -1450828.6, -2.4343863, 0.00008725189, -0.00004547663, -1436296.0, -14905.699, 0.0, 10.000384, 9.981126 
3.87502e+3, 1.6493526e+2, -1348208.1, -1371890.1, -5.0706167, 0.000088829576, 0.000058468086, -1348208.1, -24573.344, 0.0, 10.000385, 9.969085 
3.87502e+3, 1.7490439e+2, -1250249.5, -1274248.5, -6.943613, 0.00009241566, -0.000056075274, -1250249.5, -24312.402, 0.0, 10.000387, 9.968672 
3.87502e+3, 1.8486686e+2, -1162175.5, -1195674.9, -6.8418446, 0.00009203496, 0.00007581952, -1162175.5, -33870.805, 0.0, 10.000389, 9.956223 
3.87502e+3, 1.948231e+2, -1064024.8, -1097788.4, -7.40849, 0.00008750775, -0.00007144981, -1064024.8, -33291.242, 0.0, 10.000391, 9.955879 
3.87502e+3, 2.0477271e+2, -975854.94, -1019381.44, -7.4247446, 0.00008486517, 0.00004884822, -975854.94, -42627.484, 0.0, 10.000393, 9.943124 
3.87502e+3, 2.1471587e+2, -877568.7, -921357.6, -7.611602, 0.00008426205, -0.00013198162, -877568.7, -41784.305, 0.0, 10.000394, 9.942782 
3.87502e+3, 2.2465234e+2, -789291.1, -843111.1, -5.1714444, 0.00008479, 0.00012081568, -789291.1, -50884.074, 0.0, 10.000395, 9.929729 
3.87502e+3, 2.3458213e+2, -690857.6, -744934.1, -6.0780077, 0.00008659627, -0.00009396315, -690857.6, -49762.535, 0.0, 10.000396, 9.929399 
3.8750204e+3, 2.4450497e+2, -602542.7, -667007.1, -5.928107, 0.000087460925, 0.00007062248, -602542.7, -58691.438, 0.0, 10.000398, 9.915945 
3.8750204e+3, 2.5442103e+2, -503790.53, -568333.6, -7.4614186, 0.00008720028, -0.00010242471, -503790.53, -57116.734, 0.0, 10.000399, 9.915844 
3.8750204e+3, 2.6433003e+2, -415550.84, -490971.7, -6.367342, 0.00008754237, 0.00014712567, -415550.84, -65985.086, 0.0, 10.000401, 9.901778 
3.8750204e+3, 2.7423236e+2, -316265.7, -391359.28, -7.2012444, 0.000088653884, -0.0002025699, -316265.7, -63742.742, 0.0, 10.0004015, 9.902198 
3.8750204e+3, 2.8412646e+2, -229789.44, -318062.53, -3.890777, 0.00008948935, 0.00022557835, -229789.44, -74228.71, 0.0, 10.000402, 9.885255 
3.8750204e+3, 2.9401276e+2, -130082.516, -217746.75, -4.294387, 0.00008994373, -0.00025931676, -130082.51, -71407.57, 0.0, 10.000404, 9.886033 
3.8750204e+3, 3.03927e+2, -40347.09, -84747.78, -0.44757968, 0.000090263704, 0.00016514435, -40347.09, -40347.09, 0.0, 10.000406, 9.941978 
3.8750204e+3, 3.1387085e+2, -39267.027, -82509.12, -0.5312944, 0.00009038683, -0.00006443932, -39267.027, -39267.027, 0.0, 10.000409, 9.943489 
3.8850206e+3, 1.24997124e+2, -1719439.4, -1724140.9, -2.682675, 0.00008669007, 0.00010127923, -1719439.4, -4410.696, 0.0, 10.000399, 9.994165 
3.8850206e+3, 1.349911e+2, -1622062.1, -1627355.1, -3.781141, 0.00008809915, -0.0001416751, -1622062.1, -4974.8765, 0.0, 10.000399, 9.9933815 
3.8850206e+3, 1.4497851e+2, -1534002.3, -1548147.4, -3.3486261, 0.00008898159, 0.00008234331, -1534002.3, -14791.783, 0.0, 10.0004, 9.981652 
3.8850206e+3, 1.5496017e+2, -1436270.8, -1450822.0, -4.5123954, 0.00008932915, -0.000050104154, -1436270.8, -14880.355, 0.0, 10.000403, 9.98112 
3.8850206e+3, 1.6493525e+2, -1348179.9, -1371878.0, -5.847262, 0.000090459784, 0.000055976725, -1348179.9, -24544.975, 0.0, 10.000404, 9.969083 
3.8850206e+3, 1.7490438e+2, -1250226.1, -1274238.9, -5.7813034, 0.00009239, -0.00005697974, -1250226.1, -24288.873, 0.0, 10.000403, 9.968669 
3.8850206e+3, 1.8486685e+2, -1162155.9, -1195667.6, -4.6268425, 0.00009178003, 0.00007507043, -1162155.9, -33851.035, 0.0, 10.000402, 9.95622 
3.8850206e+3, 1.9482309e+2, -1064007.4, -1097782.4, -6.0526366, 0.000088514666, -0.000073539886, -1064007.4, -33273.688, 0.0, 10.000403, 9.955876 
3.8850206e+3, 2.0477268e+2, -975836.75, -1019374.3, -6.8766475, 0.00008622544, 0.000046808185, -975836.75, -42609.043, 0.0, 10.000405, 9.943121 
3.8850206e+3, 2.1471585e+2, -877547.44, -921349.0, -8.199613, 0.00008499255, -0.00013246672, -877547.44, -41762.816, 0.0, 10.000408, 9.9427805 
3.8850206e+3, 2.2465232e+2, -789270.8, -843104.1, -7.0806694, 0.0000856081, 0.000121150966, -789270.8, -50863.555, 0.0, 10.000409, 9.929727 
3.8850206e+3, 2.345821e+2, -690841.3, -744929.3, -8.284744, 0.00008831379, -0.00009363891, -690841.3, -49745.934, 0.0, 10.000408, 9.929395 
3.8850206e+3, 2.4450494e+2, -602528.5, -667003.8, -7.5655317, 0.00008951026, 0.000070940136, -602528.5, -58676.918, 0.0, 10.000408, 9.915941 
3.8850206e+3, 2.54421e+2, -503775.72, -568330.06, -8.469857, 0.00008890303, -0.000102107355, -503775.72, -57101.6, 0.0, 10.00041, 9.915841 
3.8850206e+3, 2.6433e+2, -415534.7, -490966.75, -7.0350814, 0.00008887999, 0.00014714584, -415534.7, -65968.56, 0.0, 10.000412, 9.901775 
3.8850206e+3, 2.742323e+2, -316248.34, -391353.75, -7.9405746, 0.00008960435, -0.00020322479, -316248.34, -63725.01, 0.0, 10.000414, 9.902196 
3.885021e+3, 2.841264e+2, -229772.3, -318057.38, -5.0608, 0.00009034515, 0.00022494976, -229772.3, -74211.16, 0.0, 10.000416, 9.885252 
3.885021e+3, 2.940127e+2, -130067.12, -217742.53, -6.146936, 0.00009110506, -0.00025895776, -130067.12, -71391.734, 0.0, 10.000417, 9.88603 
3.885021e+3, 3.0392694e+2, -40331.934, -84741.98, -2.4004147, 0.00009154949, 0.00016565374, -40331.934, -40331.934, 0.0, 10.000418, 9.9419775 
3.885021e+3, 3.1387082e+2, -39252.277, -82503.305, -2.1841612, 0.00009152455, -0.000065031076, -39252.277, -39252.277, 0.0, 10.00042, 9.943487 
3.8950214e+3, 1.2499714e+2, -1719441.9, -1724145.6, -2.709964, 0.00008513597, 0.000120675424, -1719441.9, -4413.2974, 0.0, 10.000399, 9.994162 
3.8950214e+3, 1.349911e+2, -1622064.6, -1627359.8, -3.8128028, 0.00009001333, -0.00013360514, -1622064.6, -4977.363, 0.0, 10.000399, 9.993379 
3.8950214e+3, 1.449785e+2, -1534004.8, -1548152.4, -2.0201662, 0.000092155635, 0.000087186425, -1534004.8, -14794.355, 0.0, 10.0004, 9.981648 
3.8950214e+3, 1.5496017e+2, -1436273.4, -1450826.9, -3.1825628, 0.000091544265, -0.000044131888, -1436273.4, -14882.889, 0.0, 10.000403, 9.981117 
3.8950214e+3, 1.6493525e+2, -1348179.6, -1371877.8, -6.3606133, 0.00009039048, 0.00006107649, -1348179.6, -24544.746, 0.0, 10.000404, 9.969083 
3.8950214e+3, 1.7490436e+2, -1250225.9, -1274238.6, -6.303733, 0.000088684494, -0.000054795844, -1250225.9, -24288.617, 0.0, 10.000403, 9.968669 
3.8950214e+3, 1.8486683e+2, -1162159.0, -1195673.6, -4.3746157, 0.000088503344, 0.00007425692, -1162159.0, -33853.984, 0.0, 10.000402, 9.956216 
3.8950214e+3, 1.9482307e+2, -1064010.4, -1097788.4, -5.7933483, 0.00008991592, -0.000077436256, -1064010.4, -33276.574, 0.0, 10.000403, 9.955873 
3.8950214e+3, 2.0477267e+2, -975839.5, -1019379.8, -5.801712, 0.000089506386, 0.000042636097, -975839.5, -42611.63, 0.0, 10.000405, 9.943118 
3.8950214e+3, 2.1471582e+2, -877550.2, -921354.44, -7.106008, 0.000087125176, -0.00013387775, -877550.2, -41765.35, 0.0, 10.000408, 9.942777 
3.8950214e+3, 2.2465228e+2, -789273.44, -843109.4, -7.3933496, 0.000086887536, 0.00012143712, -789273.44, -50865.934, 0.0, 10.000409, 9.929724 
3.8950214e+3, 2.3458208e+2, -690843.9, -744934.5, -8.643721, 0.000089075074, -0.00009286012, -690843.9, -49748.24, 0.0, 10.000408, 9.929392 
3.8950214e+3, 2.4450491e+2, -602530.5, -667007.9, -6.945016, 0.00009047559, 0.00007192401, -602530.5, -58678.605, 0.0, 10.000408, 9.915939 
3.8950214e+3, 2.5442097e+2, -503777.7, -568334.06, -7.8035107, 0.00009093409, -0.000101260266, -503777.7, -57103.215, 0.0, 10.00041, 9.915838 
3.8950214e+3, 2.6432997e+2, -415536.78, -490971.0, -6.2646303, 0.00009107168, 0.00014775601, -415536.78, -65970.28, 0.0, 10.000412, 9.9017725 
3.8950214e+3, 2.7423227e+2, -316250.4, -391358.0, -7.1625137, 0.00009080333, -0.0002029783, -316250.4, -63726.688, 0.0, 10.000414, 9.902193 
3.8950214e+3, 2.8412637e+2, -229775.03, -318063.03, -4.71595, 0.00009097156, 0.00022467886, -229775.03, -74213.46, 0.0, 10.000416, 9.885248 
3.8950214e+3, 2.9401267e+2, -130069.875, -217748.25, -5.839344, 0.00009173901, -0.00025995582, -130069.875, -71394.016, 0.0, 10.000417, 9.886026 
3.8950214e+3, 3.0392691e+2, -40332.73, -84743.65, -1.8055227, 0.00009233418, 0.00016465902, -40332.73, -40332.73, 0.0, 10.000418, 9.941976 
3.8950214e+3, 3.1387076e+2, -39252.848, -82504.516, -1.5573146, 0.00009266727, -0.000064935935, -39252.848, -39252.848, 0.0, 10.00042, 9.943486 
3.9050215e+3, 1.2499715e+2, -1719418.8, -1724139.9, 0.33123618, 0.0000876397, 0.00012606234, -1719418.8, -4390.3423, 0.0, 10.000416, 9.994156 
3.9050215e+3, 1.349911e+2, -1622040.6, -1627353.8, -2.9170532, 0.000091267284, -0.00013464729, -1622040.6, -4953.407, 0.0, 10.000416, 9.993373 
3.9050215e+3, 1.449785e+2, -1533982.3, -1548144.3, -1.990238, 0.00009270888, 0.00008682214, -1533982.3, -14771.76, 0.0, 10.000416, 9.981646 
3.9050215e+3, 1.5496017e+2, -1436258.6, -1450823.0, -3.4005725, 0.00009194848, -0.000040300954, -1436258.6, -14868.062, 0.0, 10.000415, 9.981113 
3.9050215e+3, 1.6493523e+2, -1348162.5, -1371868.5, -6.841756, 0.00009023825, 0.000064902415, -1348162.5, -24527.465, 0.0, 10.000415, 9.969083 
3.9050215e+3, 1.7490435e+2, -1250202.1, -1274225.9, -6.792794, 0.000087560366, -0.000055260945, -1250202.1, -24264.684, 0.0, 10.000418, 9.968669 
3.9050215e+3, 1.8486682e+2, -1162136.3, -1195667.4, -5.383705, 0.000087759094, 0.00007183127, -1162136.3, -33831.164, 0.0, 10.00042, 9.956211 
3.9050215e+3, 1.9482304e+2, -1063988.6, -1097782.8, -7.6413107, 0.00009096454, -0.00007938661, -1063988.6, -33254.527, 0.0, 10.00042, 9.955868 
3.9050215e+3, 2.0477262e+2, -975818.06, -1019371.44, -7.2525835, 0.00009157555, 0.000041767966, -975818.06, -42589.91, 0.0, 10.000421, 9.943115 
3.9050215e+3, 2.1471581e+2, -877533.0, -921348.2, -7.614226, 0.00008937913, -0.00013300778, -877533.0, -41747.9, 0.0, 10.000421, 9.942775 
3.9050215e+3, 2.2465225e+2, -789257.94, -843105.6, -8.0064745, 0.000088772234, 0.00012246027, -789257.94, -50850.152, 0.0, 10.000422, 9.92972 
3.9050218e+3, 2.3458204e+2, -690824.94, -744929.1, -9.529231, 0.00008996423, -0.000093476796, -690824.94, -49728.977, 0.0, 10.0004225, 9.929388 
3.9050218e+3, 2.4450487e+2, -602510.56, -667001.56, -7.959629, 0.00009105721, 0.00007110349, -602510.56, -58658.316, 0.0, 10.000423, 9.9159355 
3.9050218e+3, 2.5442094e+2, -503760.4, -568329.1, -9.3260975, 0.00009203007, -0.000100568475, -503760.4, -57085.55, 0.0, 10.000423, 9.915835 
3.9050218e+3, 2.6432988e+2, -415520.94, -490965.9, -7.702242, 0.00009263591, 0.0001489778, -415520.94, -65954.03, 0.0, 10.000424, 9.90177 
3.9050218e+3, 2.7423224e+2, -316235.9, -391353.56, -8.289327, 0.000092775284, -0.00020248034, -316235.9, -63711.746, 0.0, 10.000425, 9.90219 
3.9050218e+3, 2.841263e+2, -229760.77, -318059.0, -5.398753, 0.00009283311, 0.00022412713, -229760.77, -74198.74, 0.0, 10.000426, 9.885245 
3.9050218e+3, 2.940126e+2, -130054.03, -217743.53, -5.6704736, 0.00009278157, -0.00026199745, -130054.03, -71377.68, 0.0, 10.000428, 9.886024 
3.9050218e+3, 3.0392686e+2, -40315.504, -84737.484, -1.3380296, 0.00009275542, 0.00016267112, -40315.504, -40315.504, 0.0, 10.00043, 9.941974 
3.9050218e+3, 3.138707e+2, -39235.496, -82498.19, -1.8541912, 0.00009276767, -0.000064574226, -39235.496, -39235.496, 0.0, 10.000432, 9.943485 
3.915022e+3, 1.2499715e+2, -1719426.3, -1724153.9, 0.5330368, 0.000094166826, 0.00011770722, -1719426.3, -4397.853, 0.0, 10.000416, 9.994147 
3.915022e+3, 1.3499108e+2, -1622048.1, -1627367.6, -2.7113829, 0.00009186695, -0.00014472392, -1622048.1, -4960.737, 0.0, 10.000416, 9.993364 
3.915022e+3, 1.4497848e+2, -1533985.5, -1548150.4, -2.4681578, 0.000090663605, 0.00008129454, -1533985.5, -14774.826, 0.0, 10.000416, 9.981642 
3.915022e+3, 1.5496016e+2, -1436261.8, -1450829.0, -3.8793733, 0.00009055672, -0.00003859322, -1436261.8, -14871.093, 0.0, 10.000415, 9.98111 
3.915022e+3, 1.6493522e+2, -1348162.4, -1371868.3, -5.757831, 0.00009000343, 0.000067465255, -1348162.4, -24527.201, 0.0, 10.000415, 9.969083 
3.915022e+3, 1.7490433e+2, -1250202.0, -1274225.6, -5.702909, 0.000088995876, -0.00005835264, -1250201.9, -24264.383, 0.0, 10.000418, 9.96867 
3.915022e+3, 1.848668e+2, -1162141.1, -1195676.9, -5.2721887, 0.00008952614, 0.00006780701, -1162141.1, -33835.86, 0.0, 10.00042, 9.956205 
3.915022e+3, 1.9482303e+2, -1063993.5, -1097792.1, -7.540279, 0.00009166379, -0.00007940781, -1063993.5, -33259.176, 0.0, 10.00042, 9.955861 
3.915022e+3, 2.047726e+2, -975818.94, -1019373.2, -7.184549, 0.00009244332, 0.00004417549, -975818.94, -42590.57, 0.0, 10.000421, 9.943114 
3.915022e+3, 2.1471578e+2, -877533.8, -921349.8, -7.5482364, 0.00009175329, -0.00012987609, -877533.8, -41748.477, 0.0, 10.000421, 9.942774 
3.915022e+3, 2.2465223e+2, -789261.06, -843111.75, -7.499988, 0.000091257, 0.00012421439, -789261.06, -50852.98, 0.0, 10.000422, 9.929716 
3.915022e+3, 2.34582e+2, -690828.06, -744935.3, -9.007537, 0.0000909804, -0.00009547703, -690828.06, -49731.77, 0.0, 10.0004225, 9.929384 
3.915022e+3, 2.4450484e+2, -602513.56, -667007.7, -7.90987, 0.00009125868, 0.00006849383, -602513.56, -58660.98, 0.0, 10.000423, 9.915932 
3.915022e+3, 2.544209e+2, -503763.4, -568335.2, -9.299369, 0.000092199036, -0.00010003079, -503763.4, -57088.15, 0.0, 10.000423, 9.915831 
3.915022e+3, 2.6432985e+2, -415522.53, -490969.16, -7.275185, 0.000093578026, 0.00015080585, -415522.53, -65955.21, 0.0, 10.000424, 9.901768 
3.9150223e+3, 2.7423218e+2, -316237.4, -391356.63, -7.834974, 0.000095513606, -0.00020173314, -316237.4, -63712.8, 0.0, 10.000425, 9.902188 
3.9150223e+3, 2.8412628e+2, -229761.94, -318061.44, -4.680892, 0.000095919284, 0.0002232969, -229761.94, -74199.445, 0.0, 10.000426, 9.885244 
3.9150223e+3, 2.9401255e+2, -130055.16, -217745.89, -4.9295826, 0.000094229355, -0.00026507353, -130055.16, -71378.31, 0.0, 10.000428, 9.886023 
3.9150223e+3, 3.039268e+2, -40317.445, -84741.54, -0.68667394, 0.00009281646, 0.00015969873, -40317.445, -40317.445, 0.0, 10.00043, 9.941971 
3.9150223e+3, 3.1387067e+2, -39237.535, -82502.45, -1.21392, 0.000091834736, -0.00006394828, -39237.535, -39237.535, 0.0, 10.000432, 9.943481 
3.9250225e+3, 1.24997154e+2, -1719403.8, -1724149.1, -0.54700184, 0.00009840956, 0.00011527865, -1719403.8, -4375.3843, 0.0, 10.000433, 9.994142 
3.9250225e+3, 1.3499108e+2, -1622025.0, -1627362.6, -2.1005063, 0.00009191767, -0.00015120278, -1622025.0, -4937.594, 0.0, 10.000434, 9.993358 
3.9250225e+3, 1.4497848e+2, -1533961.0, -1548141.8, -2.0633862, 0.000089240806, 0.00007718762, -1533961.0, -14750.284, 0.0, 10.000433, 9.981638 
3.9250225e+3, 1.5496014e+2, -1436239.5, -1450821.8, -3.5587072, 0.000090392154, -0.00003730154, -1436239.5, -14848.757, 0.0, 10.00043, 9.981106 
3.9250225e+3, 1.6493522e+2, -1348138.5, -1371856.9, -4.015631, 0.00009108855, 0.000069911854, -1348138.5, -24503.244, 0.0, 10.000431, 9.969082 
3.9250225e+3, 1.7490433e+2, -1250177.5, -1274214.0, -4.8421893, 0.00009132193, -0.00005908219, -1250177.5, -24239.777, 0.0, 10.000434, 9.968669 
3.9250225e+3, 1.8486677e+2, -1162120.6, -1195672.6, -5.9209456, 0.000091484755, 0.00006595973, -1162120.6, -33815.15, 0.0, 10.000436, 9.9562 
3.9250225e+3, 1.94823e+2, -1063973.9, -1097788.6, -7.9635143, 0.00009157378, -0.000080221485, -1063973.9, -33239.383, 0.0, 10.000436, 9.955856 
3.9250225e+3, 2.0477258e+2, -975797.8, -1019364.56, -7.9610524, 0.00009239793, 0.00004493566, -975797.8, -42569.188, 0.0, 10.000435, 9.943112 
3.9250225e+3, 2.1471575e+2, -877514.7, -921342.2, -8.971397, 0.00009401765, -0.00012695848, -877514.7, -41729.1, 0.0, 10.000434, 9.942772 
3.9250225e+3, 2.246522e+2, -789243.94, -843107.0, -8.324714, 0.0000942698, 0.00012612576, -789243.94, -50835.58, 0.0, 10.000434, 9.929712 
3.9250225e+3, 2.3458198e+2, -690810.3, -744930.4, -9.425284, 0.00009297487, -0.00009815086, -690810.3, -49713.684, 0.0, 10.000436, 9.92938 
3.9250225e+3, 2.445048e+2, -602496.06, -667003.6, -8.782371, 0.000092433045, 0.00006524926, -602496.06, -58643.047, 0.0, 10.000437, 9.915928 
3.9250225e+3, 2.5442085e+2, -503746.06, -568331.3, -10.392665, 0.00009279176, -0.00009904985, -503746.06, -57070.395, 0.0, 10.000437, 9.915827 
3.9250225e+3, 2.6432982e+2, -415504.25, -490962.2, -8.165455, 0.000094258256, 0.00015331816, -415504.25, -65936.51, 0.0, 10.000437, 9.901766 
3.9250225e+3, 2.7423215e+2, -316220.75, -391350.3, -8.47874, 0.00009713198, -0.00020112825, -316220.75, -63695.715, 0.0, 10.000437, 9.902186 
3.9250225e+3, 2.8412622e+2, -229746.14, -318055.84, -4.7652497, 0.00009775181, 0.00022234234, -229746.14, -74183.16, 0.0, 10.000438, 9.885242 
3.9250228e+3, 2.9401252e+2, -130038.625, -217740.02, -5.2712746, 0.00009528145, -0.0002670955, -130038.625, -71361.27, 0.0, 10.000441, 9.886021 
3.9250228e+3, 3.0392674e+2, -40301.184, -84737.15, -1.4294026, 0.000093294744, 0.00015807756, -40301.184, -40301.184, 0.0, 10.000443, 9.941968 
3.9250228e+3, 3.138706e+2, -39220.832, -82498.0, -2.2358444, 0.00009205544, -0.00006299336, -39220.832, -39220.832, 0.0, 10.000445, 9.943479 
3.935023e+3, 1.24997154e+2, -1719407.3, -1724155.9, -0.17712647, 0.000100387886, 0.00011886508, -1719407.3, -4379.026, 0.0, 10.000433, 9.994138 
3.935023e+3, 1.3499108e+2, -1622028.5, -1627369.3, -1.730876, 0.000091424474, -0.00015411561, -1622028.5, -4941.1196, 0.0, 10.000434, 9.993354 
3.935023e+3, 1.4497846e+2, -1533964.4, -1548148.1, -3.0367258, 0.000088435256, 0.00007448887, -1533964.4, -14753.594, 0.0, 10.000433, 9.981634 
3.935023e+3, 1.5496014e+2, -1436242.8, -1450828.0, -4.5357203, 0.00009144413, -0.000036422054, -1436242.8, -14851.991, 0.0, 10.00043, 9.981102 
3.935023e+3, 1.649352e+2, -1348140.3, -1371860.4, -2.756585, 0.00009348206, 0.000072243405, -1348140.3, -24504.953, 0.0, 10.000431, 9.96908 
3.935023e+3, 1.7490432e+2, -1250179.3, -1274217.5, -3.5723639, 0.00009453076, -0.00005747048, -1250179.3, -24241.459, 0.0, 10.000434, 9.968666 
3.935023e+3, 1.8486676e+2, -1162125.0, -1195681.1, -6.0096345, 0.00009363336, 0.000066270266, -1162125.0, -33819.37, 0.0, 10.000436, 9.956194 
3.935023e+3, 1.9482298e+2, -1063978.3, -1097797.0, -8.067467, 0.00009070157, -0.00008182044, -1063978.3, -33243.5, 0.0, 10.000436, 9.955851 
3.935023e+3, 2.0477255e+2, -975800.06, -1019368.94, -8.366779, 0.000091447524, 0.000044063156, -975800.06, -42571.13, 0.0, 10.000435, 9.9431095 
3.935023e+3, 2.1471573e+2, -877516.8, -921346.44, -9.383456, 0.00009617322, -0.00012425316, -877516.8, -41730.973, 0.0, 10.000434, 9.942769 
3.935023e+3, 2.2465217e+2, -789246.25, -843111.75, -7.6503134, 0.00009780603, 0.00012819283, -789246.25, -50837.633, 0.0, 10.000434, 9.929709 
3.935023e+3, 2.3458192e+2, -690812.7, -744935.06, -8.713895, 0.000095939125, -0.00010149241, -690812.7, -49715.668, 0.0, 10.000436, 9.929378 
3.935023e+3, 2.4450475e+2, -602499.44, -667010.4, -8.742601, 0.00009457186, 0.000061375365, -602499.44, -58646.03, 0.0, 10.000437, 9.915923 
3.935023e+3, 2.5442082e+2, -503749.44, -568338.1, -10.385982, 0.00009380464, -0.00009762961, -503749.44, -57073.363, 0.0, 10.000437, 9.915822 
3.935023e+3, 2.6432976e+2, -415505.47, -490964.63, -8.132482, 0.00009467903, 0.00015650872, -415505.47, -65937.266, 0.0, 10.000437, 9.901764 
3.935023e+3, 2.742321e+2, -316221.8, -391352.47, -8.4446335, 0.00009764036, -0.00020066428, -316221.78, -63696.277, 0.0, 10.000437, 9.902185 
3.935023e+3, 2.8412616e+2, -229747.81, -318059.3, -3.8830514, 0.00009834176, 0.00022126459, -229747.81, -74184.336, 0.0, 10.000438, 9.88524 
3.935023e+3, 2.9401246e+2, -130040.336, -217743.58, -4.312656, 0.00009594143, -0.00026807268, -130040.336, -71362.48, 0.0, 10.000441, 9.886018 
3.9350232e+3, 3.039267e+2, -40303.637, -84742.26, -0.63049144, 0.000094186675, 0.00015779547, -40303.637, -40303.637, 0.0, 10.000443, 9.941965 
3.9350232e+3, 3.1387055e+2, -39223.38, -82503.29, -1.4545786, 0.0000934196, -0.00006171248, -39223.38, -39223.38, 0.0, 10.000445, 9.943475 
3.9450234e+3, 1.2499716e+2, -1719387.1, -1724150.1, 1.4331052, 0.00010118804, 0.0001193966, -1719387.1, -4358.901, 0.0, 10.000447, 9.994133 
3.945023e+3, 1.3499108e+2, -1622007.8, -1627363.4, -0.3423415, 0.00009216101, -0.00015963838, -1622007.8, -4920.393, 0.0, 10.000449, 9.993349 
3.945023e+3, 1.4497846e+2, -1533941.9, -1548142.1, -3.1171927, 0.00008953135, 0.0000701959, -1533941.9, -14731.097, 0.0, 10.00045, 9.981628 
3.945023e+3, 1.5496013e+2, -1436216.3, -1450820.0, -5.5081434, 0.00009332513, -0.00003534504, -1436216.3, -14825.37, 0.0, 10.00045, 9.981097 
3.945023e+3, 1.6493519e+2, -1348112.3, -1371848.4, -3.1846569, 0.00009563383, 0.000074789205, -1348112.3, -24476.752, 0.0, 10.00045, 9.969077 
3.945023e+3, 1.749043e+2, -1250156.8, -1274208.5, -4.1659946, 0.00009642897, -0.000057438163, -1250156.8, -24218.88, 0.0, 10.000449, 9.968664 
3.945023e+3, 1.8486674e+2, -1162107.6, -1195678.3, -7.350187, 0.000095109404, 0.000065010034, -1162107.6, -33801.86, 0.0, 10.000449, 9.956188 
3.945023e+3, 1.9482295e+2, -1063960.6, -1097794.1, -9.411447, 0.00009157914, -0.00008309757, -1063960.6, -33225.656, 0.0, 10.000449, 9.955845 
3.9450234e+3, 2.0477252e+2, -975779.56, -1019361.7, -9.912433, 0.00009222293, 0.000044387452, -975779.56, -42550.355, 0.0, 10.000449, 9.943107 
3.9450234e+3, 2.147157e+2, -877494.8, -921338.44, -11.030967, 0.00009738354, -0.000120577475, -877494.8, -41708.664, 0.0, 10.000449, 9.942766 
3.9450234e+3, 2.2465214e+2, -789224.8, -843103.2, -8.616964, 0.00009964094, 0.00013120596, -789224.8, -50815.875, 0.0, 10.000449, 9.929708 
3.9450234e+3, 2.3458189e+2, -690795.44, -744928.7, -8.950754, 0.00009861302, -0.00010368345, -690795.44, -49698.055, 0.0, 10.000448, 9.929376 
3.9450234e+3, 2.445047e+2, -602485.7, -667009.0, -8.71499, 0.000097308235, 0.00005789904, -602485.7, -58631.9, 0.0, 10.000448, 9.915918 
3.9450234e+3, 2.5442076e+2, -503733.9, -568336.06, -10.741154, 0.00009567631, -0.00009770797, -503733.9, -57057.406, 0.0, 10.000449, 9.915817 
3.9450234e+3, 2.6432973e+2, -415485.94, -490957.16, -8.847615, 0.00009558664, 0.00015796005, -415485.94, -65917.28, 0.0, 10.000451, 9.901762 
3.9450234e+3, 2.7423203e+2, -316200.63, -391344.0, -9.457792, 0.00009745965, -0.00020007165, -316200.63, -63674.63, 0.0, 10.000452, 9.902184 
3.9450234e+3, 2.8412613e+2, -229727.53, -318051.9, -4.7910237, 0.00009797, 0.00022111963, -229727.53, -74163.555, 0.0, 10.000453, 9.885238 
3.9450234e+3, 2.940124e+2, -130023.47, -217737.95, -5.1684694, 0.00009660668, -0.00026877827, -130023.47, -71345.08, 0.0, 10.000453, 9.886016 
3.9450234e+3, 3.0392665e+2, -40289.945, -84738.82, -1.2283405, 0.0000957393, 0.0001571474, -40289.945, -40289.945, 0.0, 10.000454, 9.941962 
3.9450237e+3, 3.138705e+2, -39211.46, -82500.78, -1.5364767, 0.00009562551, -0.000061386636, -39211.46, -39211.46, 0.0, 10.000455, 9.943472 
3.9550236e+3, 1.2499717e+2, -1719391.1, -1724157.8, 1.9403306, 0.00010082089, 0.00011706066, -1719391.1, -4363.048, 0.0, 10.000447, 9.994128 
3.9550236e+3, 1.3499106e+2, -1622011.9, -1627370.9, 0.16654915, 0.00009411611, -0.00016774682, -1622011.9, -4924.4097, 0.0, 10.000449, 9.993345 
3.9550236e+3, 1.4497845e+2, -1533947.3, -1548152.4, -3.0991678, 0.00009251162, 0.00006432337, -1533947.3, -14736.407, 0.0, 10.00045, 9.981623 
3.9550236e+3, 1.5496013e+2, -1436221.6, -1450830.1, -5.4875283, 0.00009602768, -0.00003407247, -1436221.6, -14830.591, 0.0, 10.00045, 9.981091 
3.9550236e+3, 1.6493519e+2, -1348114.4, -1371852.6, -3.2283378, 0.00009754629, 0.000077547134, -1348114.4, -24478.824, 0.0, 10.00045, 9.969074 
3.9550236e+3, 1.7490429e+2, -1250159.0, -1274212.6, -4.2119884, 0.000097028635, -0.0000589709, -1250159.0, -24220.879, 0.0, 10.000449, 9.968661 
3.9550236e+3, 1.8486671e+2, -1162112.0, -1195686.8, -7.361265, 0.00009591903, 0.00006219333, -1162112.0, -33806.02, 0.0, 10.000449, 9.956183 
3.9550236e+3, 1.9482292e+2, -1063965.0, -1097802.6, -9.420267, 0.00009419052, -0.00008405604, -1063965.0, -33229.734, 0.0, 10.000449, 9.95584 
3.9550236e+3, 2.0477249e+2, -975782.0, -1019366.44, -9.926608, 0.000094708514, 0.000045897363, -975782.0, -42552.484, 0.0, 10.000449, 9.943104 
3.9550236e+3, 2.1471567e+2, -877497.2, -921343.1, -11.046298, 0.00009765749, -0.000115940464, -877497.2, -41710.715, 0.0, 10.000449, 9.942763 
3.9550236e+3, 2.2465211e+2, -789225.75, -843105.06, -8.911533, 0.00009979026, 0.00013515644, -789225.75, -50816.477, 0.0, 10.000449, 9.929706 
3.9550236e+3, 2.3458184e+2, -690796.3, -744930.44, -9.25582, 0.00010099919, -0.00010473436, -690796.3, -49698.574, 0.0, 10.000448, 9.929375 
3.955024e+3, 2.4450468e+2, -602489.75, -667017.2, -8.254294, 0.000100636615, 0.000054816843, -602489.75, -58635.555, 0.0, 10.000448, 9.915913 
3.955024e+3, 2.5442073e+2, -503738.06, -568344.44, -10.241032, 0.0000983989, -0.000099271194, -503738.06, -57061.11, 0.0, 10.000449, 9.915812 
3.955024e+3, 2.6432967e+2, -415487.75, -490960.8, -8.393887, 0.00009697677, 0.00015768797, -415487.75, -65918.586, 0.0, 10.000451, 9.90176 
3.955024e+3, 2.74232e+2, -316202.25, -391347.34, -9.007996, 0.00009659643, -0.00019935168, -316202.25, -63675.746, 0.0, 10.000452, 9.902182 
3.955024e+3, 2.8412607e+2, -229729.2, -318055.34, -4.644929, 0.00009664556, 0.00022189875, -229729.2, -74164.71, 0.0, 10.000453, 9.885235 
3.955024e+3, 2.9401234e+2, -130025.125, -217741.4, -5.050365, 0.00009727724, -0.0002692148, -130025.125, -71346.195, 0.0, 10.000453, 9.886014 
3.955024e+3, 3.039266e+2, -40291.523, -84742.12, -0.91539216, 0.00009794648, 0.00015613671, -40291.523, -40291.523, 0.0, 10.000454, 9.941959 
3.9550242e+3, 3.1387043e+2, -39213.04, -82504.07, -1.2018749, 0.00009866526, -0.000062006824, -39213.035, -39213.035, 0.0, 10.000455, 9.94347 
3.965024e+3, 1.2499717e+2, -1719371.5, -1724151.8, 0.1847659, 0.000101394646, 0.000116504314, -1719371.5, -4343.437, 0.0, 10.000462, 9.994124 
3.965024e+3, 1.3499106e+2, -1621989.6, -1627363.6, -1.0003946, 0.00009720771, -0.0001683049, -1621989.6, -4902.1763, 0.0, 10.000464, 9.9933405 
3.965024e+3, 1.4497845e+2, -1533923.4, -1548144.9, -3.8841062, 0.00009579801, 0.0000654293, -1533923.3, -14712.381, 0.0, 10.000467, 9.981618 
3.965024e+3, 1.5496011e+2, -1436195.5, -1450821.6, -4.987343, 0.0000971747, -0.000032562588, -1436195.5, -14804.473, 0.0, 10.000468, 9.981086 
3.965024e+3, 1.6493517e+2, -1348089.3, -1371843.8, -3.4472525, 0.000097841184, 0.00007887509, -1348089.3, -24453.553, 0.0, 10.000467, 9.96907 
3.965024e+3, 1.7490426e+2, -1250139.1, -1274206.6, -5.321411, 0.000097784214, -0.00005842648, -1250139.1, -24200.799, 0.0, 10.000464, 9.9686575 
3.965024e+3, 1.848667e+2, -1162094.8, -1195682.8, -7.791367, 0.000097512566, 0.00006225813, -1162094.8, -33788.52, 0.0, 10.000463, 9.956179 
3.965024e+3, 1.948229e+2, -1063946.8, -1097798.1, -9.078822, 0.000097016404, -0.00008415405, -1063946.8, -33211.285, 0.0, 10.0004635, 9.955835 
3.965024e+3, 2.0477246e+2, -975762.25, -1019360.44, -9.409162, 0.0000975539, 0.0000462652, -975762.25, -42532.465, 0.0, 10.0004635, 9.9431 
3.965024e+3, 2.1471563e+2, -877476.56, -921336.6, -10.973378, 0.000099209996, -0.00011442792, -877476.56, -41689.805, 0.0, 10.000464, 9.9427595 
3.965024e+3, 2.2465207e+2, -789203.9, -843096.2, -9.860088, 0.00010073145, 0.00013634998, -789203.9, -50794.26, 0.0, 10.000464, 9.929704 
3.965024e+3, 2.3458181e+2, -690775.3, -744922.06, -10.852748, 0.000102100494, -0.00010551691, -690775.3, -49677.215, 0.0, 10.000463, 9.929373 
3.965024e+3, 2.4450463e+2, -602471.1, -667012.2, -8.9207, 0.00010193524, 0.00005326795, -602471.1, -58616.535, 0.0, 10.000463, 9.915909 
3.965024e+3, 2.5442067e+2, -503720.47, -568340.2, -9.727505, 0.00009993845, -0.000100140496, -503720.47, -57043.066, 0.0, 10.0004635, 9.915808 
3.9650244e+3, 2.6432964e+2, -415469.8, -490954.94, -7.3460054, 0.0000984361, 0.00015722073, -415469.8, -65900.18, 0.0, 10.000464, 9.901757 
3.9650244e+3, 2.7423194e+2, -316184.63, -391341.53, -8.258633, 0.000097566946, -0.00019977432, -316184.6, -63657.61, 0.0, 10.000465, 9.902179 
3.9650244e+3, 2.84126e+2, -229712.13, -318049.97, -4.5519896, 0.00009742421, 0.00022127859, -229712.13, -74147.11, 0.0, 10.000465, 9.885233 
3.9650244e+3, 2.940123e+2, -130008.84, -217736.47, -5.2874265, 0.00009827212, -0.00027036192, -130008.84, -71329.36, 0.0, 10.000465, 9.886011 
3.9650244e+3, 3.0392653e+2, -40276.402, -84738.06, -1.3876855, 0.000099237965, 0.00015558807, -40276.402, -40276.402, 0.0, 10.000465, 9.9419565 
3.9650244e+3, 3.1387037e+2, -39198.977, -82500.56, -2.1943562, 0.00010036874, -0.000060283204, -39198.977, -39198.977, 0.0, 10.000465, 9.943467 
3.9750245e+3, 1.2499717e+2, -1719374.3, -1724156.8, 1.3277605, 0.00010289997, 0.00011786552, -1719374.3, -4346.111, 0.0, 10.000462, 9.994122 
3.9750245e+3, 1.3499106e+2, -1621992.3, -1627368.6, 0.13624243, 0.00010142513, -0.00016138477, -1621992.3, -4904.857, 0.0, 10.000464, 9.993338 
3.9750245e+3, 1.4497845e+2, -1533925.8, -1548149.6, -3.3573864, 0.00009938789, 0.00007344712, -1533925.8, -14714.835, 0.0, 10.000467, 9.981615 
3.9750245e+3, 1.5496011e+2, -1436198.0, -1450826.3, -4.459453, 0.00009678118, -0.00003081755, -1436198.0, -14806.837, 0.0, 10.000468, 9.981083 
3.9750245e+3, 1.6493516e+2, -1348093.4, -1371851.8, -4.7093263, 0.00009653401, 0.00007878683, -1348093.4, -24457.574, 0.0, 10.000467, 9.969066 
3.9750245e+3, 1.7490424e+2, -1250143.1, -1274214.5, -6.5925136, 0.00009869419, -0.000055824647, -1250143.1, -24204.738, 0.0, 10.000464, 9.968653 
3.9750245e+3, 1.8486668e+2, -1162097.5, -1195688.0, -7.5811257, 0.00009988248, 0.000065177104, -1162097.5, -33791.066, 0.0, 10.000463, 9.956176 
3.9750245e+3, 1.9482288e+2, -1063949.5, -1097803.5, -8.850261, 0.000100054815, -0.000083399515, -1063949.5, -33213.742, 0.0, 10.0004635, 9.9558325 
3.9750245e+3, 2.0477244e+2, -975765.56, -1019366.94, -9.190601, 0.00010075579, 0.000045502125, -975765.56, -42535.496, 0.0, 10.0004635, 9.943096 
3.9750245e+3, 2.1471559e+2, -877479.9, -921343.1, -10.753118, 0.00010202906, -0.00011601001, -877479.9, -41692.76, 0.0, 10.000464, 9.942756 
3.9750245e+3, 2.2465204e+2, -789206.1, -843100.6, -10.334833, 0.00010245716, 0.00013481271, -789206.1, -50796.12, 0.0, 10.000464, 9.929701 
3.9750245e+3, 2.3458177e+2, -690777.5, -744926.4, -11.350043, 0.00010192931, -0.00010603396, -690777.44, -49678.99, 0.0, 10.000463, 9.92937 
3.9750245e+3, 2.4450457e+2, -602473.06, -667016.06, -8.668653, 0.00010122355, 0.00005323755, -602473.06, -58618.027, 0.0, 10.000463, 9.915907 
3.9750245e+3, 2.5442064e+2, -503722.34, -568343.94, -9.440885, 0.000100306315, -0.00010032232, -503722.34, -57044.496, 0.0, 10.0004635, 9.915806 
3.9750245e+3, 2.6432958e+2, -415472.03, -490959.44, -6.966917, 0.00009996404, 0.00015656043, -415472.03, -65901.93, 0.0, 10.000464, 9.901754 
3.9750248e+3, 2.7423188e+2, -316186.8, -391346.06, -7.87238, 0.00010035372, -0.0002013286, -316186.8, -63659.316, 0.0, 10.000465, 9.902176 
3.9750248e+3, 2.8412595e+2, -229714.38, -318054.6, -4.5743046, 0.000100285855, 0.00021927254, -229714.38, -74148.82, 0.0, 10.000465, 9.885229 
3.9750248e+3, 2.9401225e+2, -130011.06, -217741.1, -5.347136, 0.00009958833, -0.00027221284, -130011.06, -71331.016, 0.0, 10.000465, 9.886008 
3.9750248e+3, 3.0392644e+2, -40278.94, -84743.36, -1.3340998, 0.00009962262, 0.00015549705, -40278.94, -40278.94, 0.0, 10.000465, 9.941953 
3.9750248e+3, 3.138703e+2, -39201.555, -82505.945, -2.1286726, 0.00010074882, -0.00005623847, -39201.555, -39201.555, 0.0, 10.000465, 9.943463 
3.9850253e+3, 1.2499717e+2, -1719339.4, -1724145.8, 1.8059212, 0.000100139245, 0.00011317746, -1719339.4, -4311.284, 0.0, 10.000486, 9.994115 
3.9850253e+3, 1.3499106e+2, -1621967.6, -1627363.3, -2.0067093, 0.00010376198, -0.00015591466, -1621967.6, -4880.165, 0.0, 10.0004835, 9.993331 
3.9850253e+3, 1.4497845e+2, -1533902.9, -1548139.8, -6.070738, 0.0001038723, 0.00008129086, -1533902.9, -14691.859, 0.0, 10.000483, 9.981613 
3.9850253e+3, 1.549601e+2, -1436176.5, -1450817.3, -6.4759407, 0.00010044912, -0.00003115178, -1436176.5, -14785.258, 0.0, 10.000483, 9.981081 
3.9850253e+3, 1.6493514e+2, -1348073.5, -1371847.1, -7.610736, 0.00009928355, 0.00007568076, -1348073.5, -24437.467, 0.0, 10.000483, 9.969061 
3.9850253e+3, 1.7490423e+2, -1250119.6, -1274208.1, -9.573229, 0.000100421195, -0.00005619311, -1250119.6, -24181.045, 0.0, 10.000482, 9.968647 
3.9850253e+3, 1.8486665e+2, -1162071.5, -1195677.5, -9.586308, 0.00010130162, 0.00006619045, -1162071.5, -33764.83, 0.0, 10.000481, 9.956173 
3.9850253e+3, 1.9482285e+2, -1063926.3, -1097794.4, -10.253888, 0.00010191311, -0.000082422564, -1063926.3, -33190.25, 0.0, 10.00048, 9.95583 
3.9850253e+3, 2.0477241e+2, -975745.56, -1019360.25, -9.949285, 0.000102818645, 0.000046356643, -975745.56, -42515.203, 0.0, 10.000479, 9.943093 
3.9850253e+3, 2.1471556e+2, -877462.7, -921337.94, -10.763169, 0.00010404255, -0.000115372226, -877462.7, -41675.234, 0.0, 10.000477, 9.942753 
3.9850253e+3, 2.2465199e+2, -789188.56, -843094.8, -9.911172, 0.00010396942, 0.00013491669, -789188.56, -50778.195, 0.0, 10.000477, 9.929698 
3.9850253e+3, 2.3458174e+2, -690756.75, -744919.0, -10.886726, 0.000102429236, -0.00010682374, -690756.75, -49657.88, 0.0, 10.000478, 9.929367 
3.9850253e+3, 2.4450453e+2, -602451.75, -667008.94, -8.27203, 0.00010164007, 0.00005233826, -602451.75, -58596.305, 0.0, 10.000478, 9.915903 
3.9850253e+3, 2.5442058e+2, -503702.84, -568337.8, -9.589901, 0.00010174894, -0.00010039454, -503702.84, -57024.543, 0.0, 10.000478, 9.915802 
3.9850253e+3, 2.6432952e+2, -415453.47, -490953.06, -7.1020784, 0.00010182159, 0.00015666896, -415453.47, -65882.914, 0.0, 10.000478, 9.9017515 
3.9850253e+3, 2.7423185e+2, -316169.44, -391340.28, -7.6232276, 0.00010184602, -0.00020186484, -316169.4, -63641.426, 0.0, 10.000478, 9.902173 
3.9850253e+3, 2.8412592e+2, -229697.9, -318050.22, -4.388613, 0.000101487196, 0.00021845897, -229697.9, -74131.83, 0.0, 10.000478, 9.885226 
3.9850253e+3, 2.940122e+2, -129993.95, -217736.53, -5.398468, 0.00010060399, -0.000272797, -129993.95, -71313.34, 0.0, 10.000479, 9.886004 
3.9850253e+3, 3.0392638e+2, -40262.21, -84739.98, -1.7168986, 0.00010064018, 0.00015564352, -40262.21, -40262.21, 0.0, 10.000479, 9.941949 
3.9850253e+3, 3.1387025e+2, -39185.13, -82502.82, -2.995947, 0.00010204593, -0.00005462205, -39185.13, -39185.13, 0.0, 10.000479, 9.9434595 
3.9950258e+3, 1.2499716e+2, -1719348.1, -1724162.3, 0.591927, 0.00009315502, 0.00010264158, -1719348.1, -4320.0205, 0.0, 10.000486, 9.994104 
3.9950258e+3, 1.3499106e+2, -1621976.3, -1627379.5, -3.21771, 0.000104236926, -0.00015187993, -1621976.3, -4888.789, 0.0, 10.0004835, 9.993321 
3.9950258e+3, 1.4497843e+2, -1533903.8, -1548141.5, -5.870508, 0.00010924229, 0.000088961926, -1533903.8, -14692.662, 0.0, 10.000483, 9.981612 
3.9950258e+3, 1.5496008e+2, -1436177.4, -1450818.9, -6.264306, 0.0001081384, -0.000033544726, -1436177.4, -14785.994, 0.0, 10.000483, 9.98108 
3.9950258e+3, 1.649351e+2, -1348077.8, -1371855.3, -7.9983826, 0.000106049774, 0.00006958665, -1348077.8, -24441.576, 0.0, 10.000483, 9.969056 
3.9950258e+3, 1.749042e+2, -1250124.0, -1274216.4, -9.959368, 0.00010295745, -0.00005950288, -1250124.0, -24185.064, 0.0, 10.000482, 9.968642 
3.9950258e+3, 1.8486662e+2, -1162073.0, -1195680.4, -9.986553, 0.00010177967, 0.000065316555, -1162073.0, -33766.035, 0.0, 10.000481, 9.956171 
3.9950258e+3, 1.9482282e+2, -1063927.8, -1097797.1, -10.653722, 0.00010260311, -0.000081225735, -1063927.8, -33191.402, 0.0, 10.00048, 9.955828 
3.9950258e+3, 2.0477238e+2, -975747.3, -1019363.7, -10.379523, 0.000103753744, 0.000048812544, -975747.3, -42516.65, 0.0, 10.000479, 9.94309 
3.9950258e+3, 2.1471553e+2, -877464.4, -921341.4, -11.196361, 0.00010525832, -0.00011253661, -877464.4, -41676.645, 0.0, 10.000477, 9.94275 
3.9950258e+3, 2.2465196e+2, -789190.7, -843099.0, -9.624967, 0.00010527024, 0.00013664576, -789190.7, -50779.953, 0.0, 10.000477, 9.929696 
3.9950258e+3, 2.345817e+2, -690758.8, -744923.2, -10.579634, 0.00010359375, -0.00010788326, -690758.8, -49659.582, 0.0, 10.000478, 9.929364 
3.9950258e+3, 2.445045e+2, -602454.7, -667014.9, -8.383799, 0.000103173836, 0.000050578918, -602454.7, -58598.855, 0.0, 10.000478, 9.915899 
3.9950258e+3, 2.5442052e+2, -503705.8, -568343.8, -9.719935, 0.00010425583, -0.00010035832, -503705.8, -57027.07, 0.0, 10.000478, 9.915798 
3.9950258e+3, 2.643295e+2, -415455.06, -490956.3, -7.002779, 0.00010400559, 0.00015753848, -415455.06, -65884.03, 0.0, 10.000478, 9.90175 
3.9950258e+3, 2.742318e+2, -316170.9, -391343.3, -7.509864, 0.000102056794, -0.00020139312, -316170.9, -63642.41, 0.0, 10.000478, 9.902171 
3.9950258e+3, 2.8412586e+2, -229700.48, -318055.56, -4.2455807, 0.00010104475, 0.00021882617, -229700.48, -74133.89, 0.0, 10.000479, 9.885222 
3.9950258e+3, 2.9401213e+2, -129996.59, -217742.02, -5.252821, 0.00010132217, -0.00027212698, -129996.59, -71315.43, 0.0, 10.000479, 9.886001 
3.9950258e+3, 3.0392632e+2, -40265.605, -84747.05, -1.6958003, 0.00010228447, 0.00015602514, -40265.605, -40265.605, 0.0, 10.000479, 9.941944 
3.9950258e+3, 3.138702e+2, -39188.62, -82510.086, -2.986653, 0.000104251, -0.000055409808, -39188.62, -39188.62, 0.0, 10.000479, 9.943454 
4.0050262e+3, 1.2499715e+2, -1719317.6, -1724155.9, -11.080466, 0.000091855145, 0.00009747686, -1719317.5, -4289.299, 0.0, 10.00051, 9.994096 
4.0050262e+3, 1.3499105e+2, -1621951.1, -1627376.3, -13.866054, 0.00010441166, -0.0001520943, -1621951.1, -4863.3613, 0.0, 10.000504, 9.993312 
4.0050262e+3, 1.4497842e+2, -1533873.1, -1548120.6, -12.764589, 0.000111415204, 0.00009021413, -1533873.1, -14661.782, 0.0, 10.0005, 9.981616 
4.0050262e+3, 1.5496005e+2, -1436152.3, -1450801.1, -9.4124, 0.0001128359, -0.000036802092, -1436152.3, -14760.66, 0.0, 10.000497, 9.981084 
4.0050262e+3, 1.6493508e+2, -1348060.0, -1371849.3, -8.10385, 0.0001109768, 0.00006494327, -1348060.0, -24423.58, 0.0, 10.000495, 9.969053 
4.0050262e+3, 1.7490417e+2, -1250104.0, -1274209.1, -8.322325, 0.00010577318, -0.00006234956, -1250104.0, -24164.896, 0.0, 10.000496, 9.968639 
4.0050262e+3, 1.848666e+2, -1162050.9, -1195670.5, -7.625153, 0.00010320996, 0.00006483551, -1162050.9, -33743.65, 0.0, 10.000495, 9.95617 
4.0050262e+3, 1.948228e+2, -1063905.6, -1097787.5, -8.07315, 0.00010340663, -0.00007874688, -1063905.6, -33169.1, 0.0, 10.000494, 9.955826 
4.0050262e+3, 2.0477235e+2, -975726.25, -1019356.6, -8.004337, 0.00010436322, 0.00005143147, -975726.25, -42495.332, 0.0, 10.000494, 9.943088 
4.0050262e+3, 2.147155e+2, -877442.3, -921333.94, -9.719496, 0.00010614185, -0.00011282994, -877442.3, -41654.28, 0.0, 10.000493, 9.942747 
4.0050262e+3, 2.2465193e+2, -789168.9, -843092.56, -8.592717, 0.00010645287, 0.00013502904, -789168.9, -50757.824, 0.0, 10.000493, 9.929691 
4.0050262e+3, 2.3458165e+2, -690737.75, -744917.2, -10.561021, 0.00010510353, -0.00010902594, -690737.75, -49638.145, 0.0, 10.000494, 9.92936 
4.0050262e+3, 2.4450445e+2, -602433.9, -667007.9, -9.117425, 0.00010472435, 0.00005001817, -602433.9, -58577.6, 0.0, 10.000493, 9.915896 
4.0050262e+3, 2.544205e+2, -503686.3, -568337.5, -9.798408, 0.00010550512, -0.000100210265, -503686.3, -57007.133, 0.0, 10.000492, 9.915795 
4.0050262e+3, 2.6432943e+2, -415436.13, -490949.9, -6.5507236, 0.000105203464, 0.0001579418, -415436.13, -65864.63, 0.0, 10.000491, 9.901747 
4.0050262e+3, 2.7423173e+2, -316152.22, -391337.03, -7.515749, 0.00010352188, -0.00020131283, -316152.22, -63623.23, 0.0, 10.000492, 9.902168 
4.0050262e+3, 2.841258e+2, -229682.9, -318051.0, -4.5695305, 0.00010264162, 0.00021890686, -229682.9, -74115.79, 0.0, 10.000492, 9.885219 
4.0050262e+3, 2.9401204e+2, -129979.734, -217737.97, -5.623068, 0.000102864, -0.00027160053, -129979.734, -71298.016, 0.0, 10.000492, 9.885997 
4.0050262e+3, 3.0392626e+2, -40249.41, -84743.08, -1.7918595, 0.00010365566, 0.00015655148, -40249.41, -40249.41, 0.0, 10.000491, 9.94194 
4.0050262e+3, 3.1387013e+2, -39173.27, -82506.49, -1.9666568, 0.00010528172, -0.000055549444, -39173.27, -39173.27, 0.0, 10.000491, 9.943451 
4.0150267e+3, 1.24997124e+2, -1719324.0, -1724167.9, -13.449475, 0.00009618144, 0.000097782, -1719324.0, -4295.4688, 0.0, 10.00051, 9.994088 
4.0150267e+3, 1.3499099e+2, -1621957.5, -1627388.1, -16.240583, 0.000104289575, -0.00015651551, -1621957.4, -4869.295, 0.0, 10.000504, 9.993305 
4.0150267e+3, 1.4497837e+2, -1533865.5, -1548106.4, -13.767682, 0.000110423745, 0.0000851125, -1533865.5, -14653.789, 0.0, 10.0005, 9.981625 
4.0150267e+3, 1.5496004e+2, -1436144.8, -1450786.9, -10.422708, 0.000114571885, -0.000040915435, -1436144.8, -14752.887, 0.0, 10.000497, 9.981093 
4.0150267e+3, 1.6493505e+2, -1348060.4, -1371850.0, -7.9421806, 0.00011408307, 0.00006173578, -1348060.4, -24423.816, 0.0, 10.000495, 9.969052 
4.0150267e+3, 1.7490414e+2, -1250104.5, -1274210.0, -8.162788, 0.000108865424, -0.000064737644, -1250104.5, -24165.154, 0.0, 10.000496, 9.968638 
4.0150267e+3, 1.8486659e+2, -1162051.8, -1195672.5, -8.013705, 0.000105582774, 0.000064743756, -1162051.8, -33744.42, 0.0, 10.000495, 9.956168 
4.0150267e+3, 1.9482279e+2, -1063906.6, -1097789.4, -8.471991, 0.00010432252, -0.00007499855, -1063906.6, -33169.88, 0.0, 10.000494, 9.955825 
4.0150267e+3, 2.0477234e+2, -975729.8, -1019363.7, -8.168916, 0.000104650455, 0.000054212356, -975729.8, -42498.71, 0.0, 10.000494, 9.943083 
4.0150267e+3, 2.1471547e+2, -877445.94, -921341.06, -9.877487, 0.00010669669, -0.000116219795, -877445.94, -41657.58, 0.0, 10.000493, 9.942742 
4.0150267e+3, 2.2465189e+2, -789173.06, -843100.9, -8.44138, 0.000107518674, 0.00013010092, -789173.06, -50761.68, 0.0, 10.000493, 9.929687 
4.0150267e+3, 2.3458162e+2, -690741.94, -744925.56, -10.39733, 0.00010695518, -0.00011025119, -690741.94, -49641.95, 0.0, 10.000494, 9.929355 
4.0150267e+3, 2.445044e+2, -602435.6, -667011.44, -9.531271, 0.00010629157, 0.000050643466, -602435.6, -58578.938, 0.0, 10.000493, 9.9158945 
4.0150267e+3, 2.5442046e+2, -503687.9, -568340.8, -10.240128, 0.0001055098, -0.000099951474, -503687.9, -57008.305, 0.0, 10.000492, 9.915793 
4.0150267e+3, 2.643294e+2, -415438.53, -490954.78, -6.5038905, 0.000105425366, 0.00015788386, -415438.5, -65866.555, 0.0, 10.000491, 9.901744 
4.015027e+3, 2.742317e+2, -316154.63, -391342.0, -7.437554, 0.000106228414, -0.00020161984, -316154.63, -63625.145, 0.0, 10.000492, 9.902165 
4.015027e+3, 2.8412575e+2, -229685.63, -318056.63, -4.558584, 0.00010625689, 0.0002187039, -229685.63, -74117.984, 0.0, 10.000492, 9.885216 
4.015027e+3, 2.9401198e+2, -129982.45, -217743.63, -5.6188297, 0.000105221094, -0.00027121636, -129982.45, -71300.17, 0.0, 10.000492, 9.885993 
4.015027e+3, 3.039262e+2, -40250.9, -84746.195, -1.9875269, 0.00010475665, 0.00015722097, -40250.9, -40250.9, 0.0, 10.000491, 9.941938 
4.015027e+3, 3.1387004e+2, -39174.617, -82509.31, -2.1875312, 0.00010515026, -0.00005504726, -39174.617, -39174.617, 0.0, 10.000491, 9.943449 
4.0250272e+3, 1.2499712e+2, -1719305.0, -1724169.6, 2.3804526, 0.00010254006, 0.00008901019, -1719305.0, -4276.5293, 0.0, 10.000527, 9.994079 
4.0250272e+3, 1.3499098e+2, -1621935.6, -1627388.3, -2.5508475, 0.00010497012, -0.00015633345, -1621935.6, -4847.329, 0.0, 10.000523, 9.993295 
4.0250272e+3, 1.4497837e+2, -1533829.4, -1548082.1, -1.7111787, 0.00010902552, 0.00008847581, -1533829.4, -14617.558, 0.0, 10.00052, 9.981628 
4.0250272e+3, 1.5496002e+2, -1436108.3, -1450762.5, -1.7594166, 0.00011471185, -0.00004246428, -1436108.3, -14716.3, 0.0, 10.000517, 9.981097 
4.0250272e+3, 1.6493505e+2, -1348033.1, -1371840.9, -1.8113987, 0.00011498086, 0.00005737226, -1348033.1, -24396.42, 0.0, 10.000515, 9.969048 
4.0250272e+3, 1.7490412e+2, -1250081.3, -1274203.1, -5.01799, 0.00010972512, -0.00006977834, -1250081.3, -24141.736, 0.0, 10.000513, 9.968635 
4.0250272e+3, 1.8486656e+2, -1162029.4, -1195664.5, -7.18432, 0.00010663634, 0.00006204597, -1162029.4, -33721.773, 0.0, 10.000511, 9.956165 
4.0250272e+3, 1.9482277e+2, -1063883.8, -1097781.3, -9.207969, 0.00010581241, -0.00007219642, -1063883.8, -33146.89, 0.0, 10.00051, 9.955822 
4.0250272e+3, 2.0477231e+2, -975706.75, -1019356.06, -9.106101, 0.000106158295, 0.000058252266, -975706.75, -42475.37, 0.0, 10.00051, 9.943079 
4.0250272e+3, 2.1471544e+2, -877421.9, -921333.0, -10.184005, 0.000107769716, -0.000115555, -877421.8, -41633.21, 0.0, 10.00051, 9.942739 
4.0250272e+3, 2.2465186e+2, -789150.5, -843094.25, -8.242086, 0.00010857078, 0.00012948926, -789150.5, -50738.777, 0.0, 10.00051, 9.929682 
4.0250272e+3, 2.3458157e+2, -690722.94, -744920.75, -9.332752, 0.00010845468, -0.00010976432, -690722.94, -49622.54, 0.0, 10.000508, 9.929351 
4.0250272e+3, 2.4450436e+2, -602415.8, -667004.06, -7.881226, 0.000107850385, 0.000051427407, -602415.8, -58558.758, 0.0, 10.000507, 9.915892 
4.0250272e+3, 2.544204e+2, -503665.66, -568332.1, -8.635656, 0.00010666406, -0.00009982997, -503665.66, -56985.637, 0.0, 10.000508, 9.9157915 
4.0250272e+3, 2.6432934e+2, -415416.97, -490948.4, -5.1728024, 0.00010657103, 0.00015745423, -415416.97, -65844.555, 0.0, 10.000507, 9.90174 
4.0250275e+3, 2.7423164e+2, -316135.03, -391336.78, -6.6283326, 0.0001078703, -0.00020245765, -316135.03, -63605.055, 0.0, 10.000506, 9.902162 
4.0250275e+3, 2.841257e+2, -229667.7, -318052.47, -4.1593213, 0.00010810824, 0.00021794286, -229667.7, -74099.53, 0.0, 10.000505, 9.885211 
4.0250275e+3, 2.9401192e+2, -129965.79, -217740.16, -5.4915605, 0.00010688716, -0.00027123763, -129965.79, -71282.94, 0.0, 10.000505, 9.885989 
4.0250275e+3, 3.0392614e+2, -40234.254, -84741.445, -2.3613222, 0.0001061991, 0.00015795034, -40234.254, -40234.254, 0.0, 10.0005045, 9.941936 
4.0250275e+3, 3.1386998e+2, -39157.89, -82504.37, -3.24242, 0.000106315936, -0.000053557498, -39157.89, -39157.89, 0.0, 10.000504, 9.943446 
4.0350276e+3, 1.24997124e+2, -1719316.4, -1724190.9, 0.6583634, 0.00011090902, 0.0000712525, -1719316.4, -4288.0815, 0.0, 10.000527, 9.994065 
4.0350276e+3, 1.3499099e+2, -1621946.9, -1627409.4, -4.261956, 0.0001064448, -0.00015159491, -1621946.8, -4858.697, 0.0, 10.000523, 9.993281 
4.0350276e+3, 1.4497837e+2, -1533829.5, -1548082.4, -2.5934985, 0.00010722502, 0.0001002151, -1533829.5, -14617.737, 0.0, 10.00052, 9.981628 
4.0350276e+3, 1.5496002e+2, -1436108.3, -1450762.8, -2.6425428, 0.000113272916, -0.000041474897, -1436108.3, -14716.428, 0.0, 10.000517, 9.981097 
4.0350276e+3, 1.6493504e+2, -1348040.1, -1371854.3, -2.5833669, 0.00011369386, 0.00005186566, -1348040.1, -24403.43, 0.0, 10.000515, 9.96904 
4.0350276e+3, 1.7490411e+2, -1250088.1, -1274216.6, -5.7867, 0.00010837609, -0.00007744334, -1250088.1, -24148.58, 0.0, 10.000513, 9.968626 
4.0350276e+3, 1.8486655e+2, -1162033.8, -1195673.0, -7.468422, 0.00010638467, 0.0000567696, -1162033.8, -33725.938, 0.0, 10.000511, 9.95616 
4.0350276e+3, 1.9482274e+2, -1063888.1, -1097789.8, -9.484208, 0.00010787022, -0.00007033092, -1063888.1, -33150.97, 0.0, 10.00051, 9.955816 
4.0350276e+3, 2.047723e+2, -975709.06, -1019360.7, -8.98843, 0.00010887388, 0.000063537336, -975709.06, -42477.492, 0.0, 10.00051, 9.943076 
4.0350276e+3, 2.1471542e+2, -877424.1, -921337.5, -10.061813, 0.000109355664, -0.00011087899, -877424.1, -41635.242, 0.0, 10.00051, 9.942736 
4.0350276e+3, 2.2465183e+2, -789152.94, -843099.06, -8.896077, 0.0001096095, 0.00013314816, -789152.94, -50740.91, 0.0, 10.00051, 9.929679 
4.0350276e+3, 2.3458154e+2, -690725.3, -744925.56, -10.015869, 0.00010960574, -0.00010758315, -690725.3, -49624.6, 0.0, 10.000508, 9.929347 
4.0350276e+3, 2.4450433e+2, -602417.56, -667007.6, -7.7368765, 0.000109400804, 0.00005236879, -602417.56, -58560.152, 0.0, 10.000507, 9.91589 
4.0350276e+3, 2.5442037e+2, -503667.38, -568335.6, -8.450856, 0.000108955835, -0.000099844, -503667.38, -56986.96, 0.0, 10.000508, 9.915789 
4.035028e+3, 2.643293e+2, -415420.3, -490955.25, -5.509705, 0.00010863088, 0.00015665706, -415420.3, -65847.484, 0.0, 10.000507, 9.901735 
4.035028e+3, 2.742316e+2, -316138.44, -391343.8, -6.998206, 0.00010845907, -0.00020382051, -316138.44, -63608.0, 0.0, 10.000506, 9.902157 
4.035028e+3, 2.8412563e+2, -229670.98, -318059.25, -4.45486, 0.00010821457, 0.0002166297, -229670.98, -74102.29, 0.0, 10.000505, 9.885207 
4.035028e+3, 2.9401186e+2, -129969.02, -217746.88, -5.780515, 0.000107869666, -0.00027165996, -129969.02, -71285.6, 0.0, 10.000505, 9.885984 
4.035028e+3, 3.0392608e+2, -40236.92, -84747.016, -2.5857368, 0.000107979424, 0.00015873897, -40236.92, -40236.92, 0.0, 10.0005045, 9.941932 
4.035028e+3, 3.1386992e+2, -39160.496, -82509.82, -3.4589536, 0.000108764805, -0.000051091123, -39160.496, -39160.496, 0.0, 10.000504, 9.943442 
4.0450284e+3, 1.2499713e+2, -1719298.0, -1724190.1, -3.4702985, 0.000114290524, 0.00006451431, -1719298.0, -4269.7715, 0.0, 10.000543, 9.994058 
4.0450284e+3, 1.3499102e+2, -1621921.9, -1627405.4, -4.5577507, 0.00010845985, -0.00014612163, -1621921.9, -4833.9185, 0.0, 10.000543, 9.993274 
4.0450284e+3, 1.4497839e+2, -1533795.4, -1548065.5, -1.2159796, 0.0001081836, 0.000109357854, -1533795.4, -14583.763, 0.0, 10.000541, 9.981627 
4.045028e+3, 1.5496004e+2, -1436074.3, -1450745.9, -1.9390274, 0.00011348648, -0.000039294693, -1436074.3, -14682.428, 0.0, 10.000539, 9.981096 
4.045028e+3, 1.6493504e+2, -1348011.4, -1371847.5, -1.7023239, 0.00011344013, 0.000049913775, -1348011.4, -24374.738, 0.0, 10.000537, 9.969032 
4.045028e+3, 1.7490411e+2, -1250059.9, -1274210.1, -3.9731188, 0.00010793801, -0.000080641104, -1250059.9, -24120.248, 0.0, 10.000534, 9.968618 
4.045028e+3, 1.8486653e+2, -1162004.5, -1195662.8, -4.558338, 0.000106725995, 0.000055194465, -1162004.5, -33696.637, 0.0, 10.000532, 9.956156 
4.045028e+3, 1.9482273e+2, -1063861.8, -1097780.9, -5.7267237, 0.00010999843, -0.000067284884, -1063861.8, -33124.42, 0.0, 10.000529, 9.955812 
4.045028e+3, 2.0477228e+2, -975685.1, -1019353.6, -4.8557973, 0.00011131512, 0.00006731618, -975685.1, -42453.375, 0.0, 10.000528, 9.943071 
4.045028e+3, 2.1471539e+2, -877401.8, -921331.3, -7.1851993, 0.00011051491, -0.00011057557, -877401.8, -41612.652, 0.0, 10.000527, 9.942731 
4.045028e+3, 2.246518e+2, -789131.7, -843094.0, -7.9344106, 0.000110434536, 0.00013233625, -789131.7, -50719.332, 0.0, 10.000526, 9.929674 
4.045028e+3, 2.3458152e+2, -690703.94, -744920.5, -10.523725, 0.00011116927, -0.000106839485, -690703.94, -49602.85, 0.0, 10.0005245, 9.929342 
4.045028e+3, 2.445043e+2, -602394.44, -666998.4, -8.280601, 0.0001113643, 0.00005374244, -602394.44, -58536.62, 0.0, 10.000524, 9.915888 
4.0450284e+3, 2.5442034e+2, -503645.5, -568326.9, -8.73111, 0.000110913934, -0.000098948316, -503645.5, -56964.688, 0.0, 10.000524, 9.915787 
4.0450284e+3, 2.6432925e+2, -415400.38, -490949.34, -5.701033, 0.00011027956, 0.00015692452, -415400.38, -65827.12, 0.0, 10.000523, 9.9017315 
4.0450284e+3, 2.7423152e+2, -316118.6, -391338.16, -6.481412, 0.0001094124, -0.00020437065, -316118.6, -63587.688, 0.0, 10.000522, 9.902153 
4.0450284e+3, 2.8412557e+2, -229651.92, -318054.88, -3.5131705, 0.000109056964, 0.00021594079, -229651.92, -74082.72, 0.0, 10.000521, 9.885202 
4.0450284e+3, 2.9401183e+2, -129950.66, -217742.97, -4.835816, 0.00010940261, -0.00027155777, -129950.66, -71266.695, 0.0, 10.00052, 9.885981 
4.0450284e+3, 3.0392602e+2, -40218.24, -84742.04, -1.4060037, 0.00010979558, 0.00015933602, -40218.24, -40218.24, 0.0, 10.000519, 9.941928 
4.0450284e+3, 3.1386983e+2, -39141.176, -82504.414, -2.1240358, 0.000110251785, -0.000050447652, -39141.176, -39141.176, 0.0, 10.000519, 9.943439 
4.055029e+3, 1.24997154e+2, -1719300.4, -1724194.8, -3.646442, 0.00011273941, 0.000068693684, -1719300.4, -4272.404, 0.0, 10.000543, 9.994055 
4.055029e+3, 1.3499103e+2, -1621924.4, -1627410.0, -4.7405844, 0.000111009555, -0.00013992233, -1621924.4, -4836.4927, 0.0, 10.000543, 9.993271 
4.055029e+3, 1.449784e+2, -1533797.0, -1548068.5, -2.054384, 0.00011187102, 0.000115932664, -1533797.0, -14585.4795, 0.0, 10.000541, 9.981626 
4.055029e+3, 1.5496004e+2, -1436075.8, -1450749.0, -2.7795584, 0.000115334304, -0.000035936995, -1436075.8, -14684.117, 0.0, 10.000539, 9.981094 
4.055029e+3, 1.6493504e+2, -1348016.4, -1371857.1, -2.547032, 0.00011420824, 0.000051477284, -1348016.4, -24379.783, 0.0, 10.000537, 9.969027 
4.055029e+3, 1.749041e+2, -1250064.9, -1274219.6, -4.8182044, 0.00010840112, -0.000079420584, -1250064.9, -24125.176, 0.0, 10.000534, 9.968613 
4.055029e+3, 1.8486653e+2, -1162007.1, -1195667.6, -5.4841866, 0.00010765407, 0.000057280362, -1162007.1, -33699.117, 0.0, 10.000532, 9.956152 
4.055029e+3, 1.9482273e+2, -1063864.1, -1097785.8, -6.6538363, 0.00011219645, -0.00006307055, -1063864.1, -33126.836, 0.0, 10.000529, 9.95581 
4.055029e+3, 2.0477226e+2, -975690.1, -1019363.3, -5.114018, 0.00011348511, 0.00006960623, -975690.1, -42458.195, 0.0, 10.000528, 9.943066 
4.055029e+3, 2.1471536e+2, -877406.75, -921341.06, -7.428453, 0.00011125217, -0.000114595954, -877406.75, -41617.36, 0.0, 10.000527, 9.942725 
4.055029e+3, 2.2465177e+2, -789137.06, -843104.75, -8.539583, 0.000111048226, 0.00012710308, -789137.06, -50724.434, 0.0, 10.000526, 9.929667 
4.055029e+3, 2.3458149e+2, -690709.25, -744931.2, -11.136695, 0.000113140864, -0.00010751769, -690709.25, -49607.85, 0.0, 10.0005245, 9.929336 
4.055029e+3, 2.4450426e+2, -602395.9, -667001.3, -8.419555, 0.0001137365, 0.000055543194, -602395.9, -58537.68, 0.0, 10.000524, 9.915886 
4.055029e+3, 2.5442028e+2, -503646.75, -568329.44, -8.847934, 0.00011254216, -0.00009715326, -503646.75, -56965.54, 0.0, 10.000524, 9.915785 
4.055029e+3, 2.6432922e+2, -415402.34, -490953.4, -6.0262103, 0.00011152165, 0.00015824473, -415402.34, -65828.68, 0.0, 10.000523, 9.90173 
4.055029e+3, 2.7423146e+2, -316120.6, -391342.25, -6.823305, 0.00011072636, -0.00020411698, -316120.6, -63589.234, 0.0, 10.000522, 9.90215 
4.055029e+3, 2.841255e+2, -229655.08, -318061.4, -3.9387941, 0.00011062738, 0.00021586937, -229655.08, -74085.39, 0.0, 10.000521, 9.885199 
4.055029e+3, 2.9401177e+2, -129953.88, -217749.67, -5.2692404, 0.00011147995, -0.0002709368, -129953.88, -71269.4, 0.0, 10.00052, 9.885976 
4.055029e+3, 3.0392596e+2, -40220.68, -84747.15, -1.5142189, 0.00011164729, 0.00015974382, -40220.68, -40220.68, 0.0, 10.000519, 9.941925 
4.0550292e+3, 3.1386977e+2, -39143.54, -82509.35, -2.19353, 0.00011078783, -0.00005160642, -39143.54, -39143.54, 0.0, 10.000519, 9.943436 
4.0650293e+3, 1.2499717e+2, -1719272.3, -1724186.8, 1.2133204, 0.00011403737, 0.00006742106, -1719272.3, -4244.4624, 0.0, 10.000564, 9.994048 
4.0650293e+3, 1.3499106e+2, -1621896.4, -1627402.1, -2.247799, 0.0001135034, -0.00013748964, -1621896.4, -4808.7046, 0.0, 10.000563, 9.993265 
4.0650293e+3, 1.4497842e+2, -1533767.5, -1548055.9, -1.9448539, 0.000114308634, 0.00011940658, -1533767.5, -14556.072, 0.0, 10.000561, 9.981623 
4.0650293e+3, 1.5496005e+2, -1436048.9, -1450737.8, -3.2247653, 0.00011645746, -0.000035912948, -1436048.8, -14657.196, 0.0, 10.000557, 9.9810915 
4.0650293e+3, 1.6493505e+2, -1347993.8, -1371852.4, -3.1020417, 0.000115265844, 0.000050644714, -1347993.8, -24357.17, 0.0, 10.000554, 9.96902 
4.0650293e+3, 1.749041e+2, -1250042.5, -1274215.1, -5.5602007, 0.00011066687, -0.000078464735, -1250042.5, -24102.74, 0.0, 10.000552, 9.968606 
4.0650293e+3, 1.8486652e+2, -1161982.0, -1195658.5, -6.3533316, 0.000110142995, 0.00005971896, -1161982.0, -33673.926, 0.0, 10.000549, 9.956149 
4.0650293e+3, 1.9482271e+2, -1063838.3, -1097776.1, -7.677814, 0.00011387876, -0.000059468854, -1063838.3, -33100.81, 0.0, 10.000548, 9.955806 
4.0650293e+3, 2.0477225e+2, -975666.06, -1019357.44, -5.565307, 0.00011508796, 0.00007221106, -975666.06, -42434.04, 0.0, 10.000546, 9.94306 
4.0650293e+3, 2.1471535e+2, -877383.7, -921335.8, -7.4626107, 0.00011356259, -0.00011532545, -877383.7, -41594.11, 0.0, 10.0005455, 9.942719 
4.0650293e+3, 2.2465174e+2, -789114.06, -843098.8, -7.9532123, 0.00011316732, 0.00012581056, -789114.06, -50701.105, 0.0, 10.000544, 9.929662 
4.0650293e+3, 2.3458146e+2, -690686.2, -744925.3, -9.165173, 0.00011405139, -0.00010623765, -690686.2, -49584.473, 0.0, 10.000543, 9.92933 
4.0650293e+3, 2.4450423e+2, -602371.4, -666991.25, -5.539351, 0.00011448513, 0.000057481928, -602371.4, -58512.84, 0.0, 10.000541, 9.915884 
4.0650293e+3, 2.5442025e+2, -503624.25, -568320.3, -6.1317286, 0.00011437969, -0.000096844255, -503624.25, -56942.676, 0.0, 10.000539, 9.915783 
4.0650293e+3, 2.643292e+2, -415381.97, -490947.66, -3.6598866, 0.00011378725, 0.00015751997, -415381.97, -65807.91, 0.0, 10.000538, 9.901726 
4.0650293e+3, 2.7423143e+2, -316099.16, -391336.22, -5.4380574, 0.00011257622, -0.00020511249, -316099.16, -63567.375, 0.0, 10.000538, 9.902146 
4.0650293e+3, 2.8412548e+2, -229633.7, -318056.1, -3.497232, 0.00011211444, 0.00021522761, -229633.7, -74063.55, 0.0, 10.000537, 9.885194 
4.0650293e+3, 2.940117e+2, -129933.336, -217744.9, -5.002028, 0.0001126806, -0.0002703736, -129933.336, -71248.336, 0.0, 10.000536, 9.885971 
4.0650296e+3, 3.039259e+2, -40200.777, -84741.17, -1.1613629, 0.00011274197, 0.00016087484, -40200.777, -40200.777, 0.0, 10.000534, 9.941921 
4.0650296e+3, 3.138697e+2, -39126.074, -82504.37, -1.6452472, 0.000112044014, -0.000050862, -39126.074, -39126.074, 0.0, 10.000532, 9.943433 
4.07503e+3, 1.2499719e+2, -1719280.3, -1724201.6, 1.0117269, 0.00011815122, 0.000060830604, -1719280.3, -4252.6523, 0.0, 10.000564, 9.99404 
4.0750298e+3, 1.3499108e+2, -1621904.4, -1627416.9, -2.4424899, 0.000115942144, -0.00013878004, -1621904.4, -4816.7505, 0.0, 10.000563, 9.993256 
4.0750298e+3, 1.4497843e+2, -1533770.4, -1548061.4, -3.32915, 0.00011551103, 0.00011981448, -1533770.4, -14559.06, 0.0, 10.000561, 9.98162 
4.0750298e+3, 1.5496005e+2, -1436051.6, -1450743.1, -4.610355, 0.00011686415, -0.000039184328, -1436051.6, -14660.096, 0.0, 10.000557, 9.981088 
4.0750298e+3, 1.6493505e+2, -1347999.1, -1371862.8, -3.9644952, 0.00011660936, 0.000047443675, -1347999.1, -24362.598, 0.0, 10.000554, 9.969013 
4.0750298e+3, 1.749041e+2, -1250047.9, -1274225.5, -6.4216065, 0.00011471455, -0.0000777708, -1250047.9, -24108.064, 0.0, 10.000552, 9.9686 
4.0750298e+3, 1.8486652e+2, -1161984.9, -1195664.0, -7.047267, 0.00011417486, 0.00006250588, -1161984.9, -33676.73, 0.0, 10.000549, 9.956145 
4.0750298e+3, 1.9482271e+2, -1063841.1, -1097781.6, -8.371093, 0.00011505129, -0.00005647309, -1063841.1, -33103.523, 0.0, 10.000548, 9.955802 
4.0750298e+3, 2.0477223e+2, -975670.2, -1019365.5, -6.0089192, 0.00011613028, 0.00007512678, -975670.2, -42438.008, 0.0, 10.000546, 9.943054 
4.0750298e+3, 2.1471533e+2, -877387.8, -921343.94, -7.9012027, 0.00011742832, -0.00011280206, -877387.8, -41598.01, 0.0, 10.0005455, 9.942714 
4.0750298e+3, 2.2465172e+2, -789116.6, -843104.0, -8.531319, 0.00011677482, 0.0001284135, -789116.6, -50703.473, 0.0, 10.000544, 9.929659 
4.0750298e+3, 2.3458143e+2, -690688.75, -744930.4, -9.749241, 0.00011391322, -0.00010302143, -690688.75, -49586.723, 0.0, 10.000543, 9.929327 
4.0750298e+3, 2.445042e+2, -602373.0, -666994.56, -6.152409, 0.000113628914, 0.00005955762, -602373.0, -58514.19, 0.0, 10.000541, 9.915881 
4.0750298e+3, 2.5442022e+2, -503625.8, -568323.56, -6.7473397, 0.00011642414, -0.000098003744, -503625.8, -56943.934, 0.0, 10.000539, 9.915781 
4.0750298e+3, 2.6432914e+2, -415385.78, -490955.47, -3.7186537, 0.00011706463, 0.0001547741, -415385.78, -65811.37, 0.0, 10.000538, 9.90172 
4.0750298e+3, 2.742314e+2, -316103.1, -391344.28, -5.4580164, 0.00011495596, -0.00020734276, -316103.1, -63570.88, 0.0, 10.000538, 9.902141 
4.0750298e+3, 2.8412542e+2, -229637.28, -318063.5, -4.053386, 0.000113519316, 0.00021402205, -229637.28, -74066.65, 0.0, 10.000537, 9.885189 
4.07503e+3, 2.9401165e+2, -129936.836, -217752.17, -5.6059313, 0.000113014925, -0.00026986748, -129936.836, -71251.32, 0.0, 10.000536, 9.885966 
4.07503e+3, 3.0392587e+2, -40202.934, -84745.69, -1.8775082, 0.00011308852, 0.00016272068, -40202.934, -40202.934, 0.0, 10.000534, 9.941918 
4.07503e+3, 3.1386968e+2, -39128.074, -82508.58, -2.3758852, 0.000114011906, -0.000048236394, -39128.074, -39128.074, 0.0, 10.000532, 9.94343 
4.0850306e+3, 1.2499722e+2, -1719246.5, -1724190.8, 1.5119884, 0.00012059026, 0.000057333353, -1719246.5, -4219.206, 0.0, 10.000587, 9.994033 
4.0850306e+3, 1.349911e+2, -1621876.9, -1627409.5, 0.22762218, 0.000119144526, -0.00013653892, -1621876.9, -4789.4985, 0.0, 10.000584, 9.993249 
4.0850306e+3, 1.4497845e+2, -1533743.0, -1548050.8, 0.10497906, 0.000118368866, 0.00012363117, -1533743.0, -14531.823, 0.0, 10.00058, 9.981616 
4.0850306e+3, 1.5496007e+2, -1436023.3, -1450732.0, -1.1559886, 0.00011826427, -0.000039560342, -1436023.3, -14631.804, 0.0, 10.000577, 9.981085 
4.0850303e+3, 1.6493505e+2, -1347974.0, -1371857.9, -0.5080727, 0.00011809563, 0.000045917775, -1347974.0, -24337.582, 0.0, 10.000574, 9.969007 
4.0850303e+3, 1.749041e+2, -1250024.0, -1274221.4, -3.5017605, 0.000117861615, -0.00007734256, -1250024.0, -24084.285, 0.0, 10.00057, 9.968593 
4.0850303e+3, 1.8486652e+2, -1161958.6, -1195655.1, -4.1564784, 0.000117605065, 0.00006415011, -1161958.6, -33650.438, 0.0, 10.000568, 9.956141 
4.0850303e+3, 1.948227e+2, -1063813.6, -1097772.1, -5.929501, 0.00011732433, -0.000054384614, -1063813.6, -33076.066, 0.0, 10.000567, 9.955798 
4.0850303e+3, 2.0477222e+2, -975645.06, -1019358.56, -4.203828, 0.00011794349, 0.000076910095, -975645.06, -42412.78, 0.0, 10.000566, 9.943049 
4.0850303e+3, 2.1471532e+2, -877366.8, -921339.2, -6.1627984, 0.00011953646, -0.00011213449, -877366.8, -41576.848, 0.0, 10.000562, 9.942709 
4.0850303e+3, 2.246517e+2, -789095.6, -843097.8, -6.4173145, 0.00011880441, 0.00012906986, -789095.6, -50682.254, 0.0, 10.00056, 9.929655 
4.0850303e+3, 2.345814e+2, -690665.3, -744923.0, -8.115855, 0.00011544136, -0.000101126665, -690665.3, -49563.08, 0.0, 10.00056, 9.929323 
4.0850303e+3, 2.4450417e+2, -602347.1, -666984.7, -5.222385, 0.00011516452, 0.00006104028, -602347.1, -58488.04, 0.0, 10.000559, 9.915878 
4.0850303e+3, 2.544202e+2, -503599.38, -568313.3, -6.258981, 0.00011857533, -0.00009890524, -503599.38, -56917.16, 0.0, 10.000558, 9.915778 
4.0850303e+3, 2.643291e+2, -415361.63, -490948.6, -3.102497, 0.0001191435, 0.00015302828, -415361.63, -65786.85, 0.0, 10.000556, 9.901715 
4.0850306e+3, 2.7423134e+2, -316081.8, -391339.06, -4.345733, 0.00011608566, -0.00020796953, -316081.8, -63549.227, 0.0, 10.000554, 9.902137 
4.0850306e+3, 2.841254e+2, -229617.42, -318058.88, -2.7410254, 0.00011420894, 0.00021434618, -229617.42, -74046.35, 0.0, 10.000553, 9.885184 
4.0850306e+3, 2.9401162e+2, -129916.77, -217747.52, -4.079396, 0.00011396521, -0.0002688316, -129916.77, -71230.78, 0.0, 10.000551, 9.8859625 
4.0850306e+3, 3.039258e+2, -40181.98, -84739.516, -0.49786773, 0.000114477494, 0.00016384992, -40181.98, -40181.98, 0.0, 10.00055, 9.941915 
4.0850306e+3, 3.1386963e+2, -39106.543, -82501.984, -1.4294112, 0.00011609728, -0.00004793012, -39106.543, -39106.543, 0.0, 10.000548, 9.943426 
4.095031e+3, 1.2499725e+2, -1719249.4, -1724196.3, -0.099792264, 0.000121374476, 0.00005696933, -1719249.4, -4222.4395, 0.0, 10.000587, 9.994029 
4.095031e+3, 1.3499112e+2, -1621879.8, -1627415.0, -1.3866631, 0.00012310143, -0.00013080785, -1621879.8, -4792.713, 0.0, 10.000584, 9.993246 
4.095031e+3, 1.4497848e+2, -1533745.8, -1548056.1, -1.0174286, 0.00012286232, 0.0001308165, -1533745.8, -14534.934, 0.0, 10.00058, 9.981613 
4.095031e+3, 1.549601e+2, -1436026.0, -1450737.4, -2.2795725, 0.00012064588, -0.00003707494, -1436026.0, -14634.823, 0.0, 10.000577, 9.981081 
4.095031e+3, 1.6493507e+2, -1347980.6, -1371870.5, -1.6595815, 0.00011972284, 0.000046047786, -1347980.6, -24344.336, 0.0, 10.000574, 9.968999 
4.095031e+3, 1.7490411e+2, -1250030.6, -1274234.0, -4.6524887, 0.00012011871, -0.00007717637, -1250030.6, -24090.89, 0.0, 10.00057, 9.968585 
4.095031e+3, 1.8486652e+2, -1161962.5, -1195662.6, -4.5599627, 0.0001204408, 0.00006466564, -1161962.5, -33654.313, 0.0, 10.000568, 9.956137 
4.095031e+3, 1.948227e+2, -1063817.5, -1097779.6, -6.322184, 0.000120685036, -0.000053192394, -1063817.5, -33079.836, 0.0, 10.000567, 9.955793 
4.095031e+3, 2.0477222e+2, -975649.3, -1019366.94, -5.595884, 0.00012051867, 0.000077574696, -975649.3, -42416.957, 0.0, 10.000566, 9.943044 
4.095031e+3, 2.147153e+2, -877371.0, -921347.5, -7.575234, 0.000119907825, -0.00011330037, -877371.0, -41580.902, 0.0, 10.000562, 9.942703 
4.095031e+3, 2.2465168e+2, -789099.2, -843105.0, -6.430415, 0.00011927468, 0.00012780301, -789099.2, -50685.645, 0.0, 10.00056, 9.92965 
4.095031e+3, 2.3458138e+2, -690668.9, -744930.06, -8.084413, 0.000118616044, -0.000100537545, -690668.9, -49566.38, 0.0, 10.00056, 9.929318 
4.095031e+3, 2.4450414e+2, -602349.7, -666989.75, -5.6380396, 0.00011906373, 0.000061936895, -602349.7, -58490.3, 0.0, 10.000559, 9.915875 
4.095031e+3, 2.5442016e+2, -503601.8, -568318.3, -6.694742, 0.0001208323, -0.00009955202, -503601.8, -56919.31, 0.0, 10.000558, 9.915775 
4.095031e+3, 2.6432908e+2, -415364.6, -490954.7, -3.7852325, 0.000120038385, 0.00015227046, -415364.6, -65789.5, 0.0, 10.000556, 9.901711 
4.095031e+3, 2.742313e+2, -316084.8, -391345.2, -5.0465436, 0.00011598035, -0.00020701186, -316084.8, -63551.836, 0.0, 10.000555, 9.902132 
4.095031e+3, 2.8412533e+2, -229620.5, -318065.25, -3.2808907, 0.00011419183, 0.00021618199, -229620.5, -74049.03, 0.0, 10.000553, 9.8851795 
4.095031e+3, 2.9401156e+2, -129919.82, -217753.88, -4.605881, 0.00011552415, -0.000267272, -129919.82, -71233.38, 0.0, 10.000551, 9.885958 
4.095031e+3, 3.0392575e+2, -40184.797, -84745.414, -1.0924752, 0.00011689657, 0.0001642714, -40184.797, -40184.797, 0.0, 10.00055, 9.941911 
4.095031e+3, 3.1386957e+2, -39109.34, -82507.84, -2.0315912, 0.00011829894, -0.000049915234, -39109.34, -39109.34, 0.0, 10.000548, 9.943422 
4.1050318e+3, 1.2499728e+2, -1719219.0, -1724185.3, 1.4458642, 0.0001228951, 0.0000554691, -1719219.0, -4192.3145, 0.0, 10.000608, 9.994025 
4.1050318e+3, 1.3499117e+2, -1621851.4, -1627405.1, -0.7088693, 0.00012594427, -0.00012876997, -1621851.4, -4764.6973, 0.0, 10.000604, 9.993241 
4.1050318e+3, 1.4497851e+2, -1533717.5, -1548045.9, -0.2034511, 0.00012603035, 0.00013366736, -1533717.5, -14506.975, 0.0, 10.0006, 9.981608 
4.1050318e+3, 1.5496011e+2, -1435996.5, -1450726.6, -2.106972, 0.0001231374, -0.00003749944, -1435996.5, -14605.607, 0.0, 10.000597, 9.981077 
4.1050318e+3, 1.6493508e+2, -1347953.6, -1371865.1, -1.9268117, 0.000122066864, 0.000044838394, -1347953.6, -24317.54, 0.0, 10.000595, 9.968991 
4.1050318e+3, 1.7490412e+2, -1250004.1, -1274228.9, -4.684353, 0.00012285466, -0.000076629614, -1250004.1, -24064.547, 0.0, 10.000591, 9.968577 
4.1050318e+3, 1.8486652e+2, -1161934.3, -1195652.4, -3.60132, 0.0001230918, 0.000066244844, -1161934.3, -33626.195, 0.0, 10.000588, 9.956133 
4.1050312e+3, 1.948227e+2, -1063791.8, -1097770.5, -4.643036, 0.00012275248, -0.000051337094, -1063791.8, -33054.098, 0.0, 10.000586, 9.95579 
4.1050312e+3, 2.0477222e+2, -975624.75, -1019360.3, -3.9254837, 0.00012213702, 0.00007855161, -975624.75, -42392.336, 0.0, 10.000584, 9.943039 
4.1050312e+3, 2.1471529e+2, -877343.8, -921339.6, -5.904414, 0.000121222554, -0.00011445062, -877343.8, -41553.582, 0.0, 10.000582, 9.9426985 
4.1050312e+3, 2.2465166e+2, -789071.25, -843096.5, -4.0546627, 0.000120980825, 0.00012637445, -789071.25, -50657.492, 0.0, 10.00058, 9.929645 
4.1050312e+3, 2.3458137e+2, -690642.7, -744922.56, -6.040644, 0.00012149978, -0.00010015246, -690642.7, -49540.02, 0.0, 10.000579, 9.929314 
4.1050312e+3, 2.4450412e+2, -602323.7, -666979.9, -4.0748653, 0.00012162246, 0.00006280203, -602323.7, -58464.066, 0.0, 10.000578, 9.915873 
4.1050312e+3, 2.5442013e+2, -503577.78, -568309.4, -4.7467575, 0.00012127099, -0.00009980139, -503577.78, -56895.027, 0.0, 10.000575, 9.915772 
4.1050318e+3, 2.6432905e+2, -415342.88, -490949.06, -1.7672263, 0.00012001242, 0.0001518379, -415342.88, -65767.47, 0.0, 10.000573, 9.901708 
4.1050318e+3, 2.7423128e+2, -316062.7, -391339.56, -3.5165453, 0.00011760031, -0.00020643907, -316062.7, -63529.395, 0.0, 10.000571, 9.902127 
4.1050318e+3, 2.841253e+2, -229598.0, -318059.6, -2.0562286, 0.000116676296, 0.00021721167, -229598.0, -74026.16, 0.0, 10.00057, 9.885175 
4.1050318e+3, 2.9401153e+2, -129897.05, -217748.14, -3.7713609, 0.00011779379, -0.00026654152, -129897.05, -71210.17, 0.0, 10.000569, 9.885953 
4.1050318e+3, 3.0392572e+2, -40161.92, -84738.75, -0.7339909, 0.00011874938, 0.00016466729, -40161.92, -40161.92, 0.0, 10.000567, 9.941907 
4.1050318e+3, 3.138695e+2, -39087.684, -82501.66, -1.5972432, 0.00011944493, -0.00004989908, -39087.684, -39087.684, 0.0, 10.000566, 9.9434185 
4.1150323e+3, 1.2499733e+2, -1719223.9, -1724194.5, -0.62990296, 0.00012514272, 0.000052934305, -1719223.9, -4197.643, 0.0, 10.000608, 9.9940195 
4.1150323e+3, 1.349912e+2, -1621856.3, -1627414.4, -2.7828918, 0.00012768686, -0.00013037903, -1621856.3, -4769.909, 0.0, 10.000604, 9.993236 
4.1150323e+3, 1.4497855e+2, -1533721.9, -1548054.0, -1.0028282, 0.00012788929, 0.00013223704, -1533721.9, -14511.518, 0.0, 10.0006, 9.981604 
4.1150323e+3, 1.5496014e+2, -1436000.8, -1450734.8, -2.9054422, 0.00012573734, -0.000040797982, -1436000.8, -14610.054, 0.0, 10.000597, 9.981072 
4.1150323e+3, 1.649351e+2, -1347959.8, -1371876.8, -3.163675, 0.0001251188, 0.000042306223, -1347959.8, -24323.781, 0.0, 10.000595, 9.968984 
4.1150323e+3, 1.7490412e+2, -1250010.1, -1274240.5, -5.921172, 0.00012606363, -0.000075707154, -1250010.1, -24070.664, 0.0, 10.000591, 9.96857 
4.1150323e+3, 1.8486653e+2, -1161936.6, -1195656.9, -4.5462465, 0.00012556039, 0.00006887444, -1161936.6, -33628.58, 0.0, 10.000588, 9.95613 
4.1150323e+3, 1.9482271e+2, -1063794.0, -1097775.0, -5.585862, 0.00012354253, -0.00004882677, -1063794.0, -33056.395, 0.0, 10.000586, 9.955787 
4.1150323e+3, 2.0477222e+2, -975628.94, -1019368.56, -4.6586585, 0.0001228103, 0.000079837206, -975628.94, -42396.527, 0.0, 10.000584, 9.943033 
4.1150323e+3, 2.1471529e+2, -877347.94, -921347.94, -6.63433, 0.00012346926, -0.000115585266, -877347.94, -41557.695, 0.0, 10.000582, 9.942693 
4.1150323e+3, 2.2465163e+2, -789075.56, -843105.06, -4.452779, 0.00012390791, 0.00012478628, -789075.56, -50661.68, 0.0, 10.00058, 9.92964 
4.1150323e+3, 2.3458135e+2, -690646.94, -744931.1, -6.4266005, 0.00012409636, -0.00009996881, -690646.94, -49544.113, 0.0, 10.000579, 9.929308 
4.1150323e+3, 2.445041e+2, -602325.44, -666983.44, -4.9648266, 0.00012285737, 0.000063636166, -602325.44, -58465.63, 0.0, 10.000578, 9.91587 
4.1150323e+3, 2.544201e+2, -503579.4, -568312.7, -5.6624713, 0.00011991389, -0.00009965797, -503579.4, -56896.426, 0.0, 10.000575, 9.915771 
4.1150323e+3, 2.6432902e+2, -415346.7, -490956.88, -2.3422391, 0.00011907698, 0.00015172693, -415346.7, -65771.03, 0.0, 10.000573, 9.901702 
4.1150323e+3, 2.7423126e+2, -316066.63, -391347.63, -4.0694556, 0.000120924306, -0.00020624623, -316066.63, -63533.004, 0.0, 10.000571, 9.9021225 
4.1150323e+3, 2.8412527e+2, -229601.88, -318067.6, -2.4854202, 0.000121631565, 0.00021744522, -229601.88, -74029.65, 0.0, 10.00057, 9.88517 
4.1150323e+3, 2.940115e+2, -129900.86, -217756.08, -4.18898, 0.00012076562, -0.00026662997, -129900.86, -71213.555, 0.0, 10.000569, 9.885948 
4.1150323e+3, 3.0392566e+2, -40164.633, -84744.44, -1.6148788, 0.00012004322, 0.00016503785, -40164.633, -40164.633, 0.0, 10.000567, 9.941903 
4.1150323e+3, 3.1386948e+2, -39090.27, -82507.086, -2.5323348, 0.000119548386, -0.00004790644, -39090.27, -39090.27, 0.0, 10.000566, 9.943415 
4.1250327e+3, 1.2499737e+2, -1719194.5, -1724184.8, 0.0032306476, 0.00012775873, 0.00005313212, -1719194.5, -4168.679, 0.0, 10.000629, 9.994014 
4.1250327e+3, 1.3499123e+2, -1621824.1, -1627403.1, -1.7027056, 0.0001291751, -0.00012900122, -1621824.1, -4738.1436, 0.0, 10.000626, 9.993231 
4.1250327e+3, 1.4497858e+2, -1533690.0, -1548043.4, 0.77599806, 0.00012928751, 0.00013343983, -1533690.0, -14479.991, 0.0, 10.000622, 9.981598 
4.1250327e+3, 1.5496016e+2, -1435971.9, -1450725.6, -1.4043541, 0.00012808855, -0.00004223985, -1435971.9, -14581.359, 0.0, 10.000618, 9.981067 
4.1250327e+3, 1.6493514e+2, -1347933.1, -1371870.1, -1.5857822, 0.00012751548, 0.000041153748, -1347933.1, -24297.324, 0.0, 10.000615, 9.968977 
4.1250327e+3, 1.7490414e+2, -1249983.5, -1274234.0, -3.7157664, 0.00012758012, -0.00007357682, -1249983.5, -24044.158, 0.0, 10.000611, 9.968563 
4.1250327e+3, 1.8486655e+2, -1161907.4, -1195645.6, -1.9142439, 0.00012700554, 0.00007196553, -1161907.4, -33599.465, 0.0, 10.000608, 9.956126 
4.1250327e+3, 1.9482271e+2, -1063764.8, -1097763.8, -3.3506231, 0.00012576181, -0.00004720201, -1063764.8, -33027.25, 0.0, 10.000607, 9.955784 
4.1250327e+3, 2.0477222e+2, -975601.25, -1019360.9, -2.4901712, 0.00012516005, 0.00007983922, -975601.25, -42368.855, 0.0, 10.000605, 9.9430275 
4.1250327e+3, 2.1471527e+2, -877319.5, -921340.0, -4.817173, 0.0001252527, -0.00011737452, -877319.5, -41529.22, 0.0, 10.000603, 9.942687 
4.1250327e+3, 2.2465163e+2, -789047.6, -843096.6, -2.7930777, 0.00012522504, 0.00012337368, -789047.6, -50633.652, 0.0, 10.000601, 9.929634 
4.1250327e+3, 2.3458134e+2, -690622.3, -744924.4, -4.382917, 0.00012506056, -0.00009855213, -690622.3, -49519.31, 0.0, 10.000598, 9.929303 
4.1250327e+3, 2.4450408e+2, -602300.1, -666974.0, -2.8393993, 0.00012383916, 0.00006580307, -602300.1, -58440.14, 0.0, 10.000596, 9.915867 
4.1250327e+3, 2.544201e+2, -503552.34, -568302.4, -4.0307074, 0.0001213554, -0.000099225894, -503552.34, -56869.16, 0.0, 10.000594, 9.915768 
4.1250327e+3, 2.64329e+2, -415321.16, -490950.4, -1.0897084, 0.00012093998, 0.00015118756, -415321.16, -65745.24, 0.0, 10.000593, 9.901696 
4.1250327e+3, 2.7423123e+2, -316042.3, -391342.03, -3.0789328, 0.0001231591, -0.00020678, -316042.3, -63508.387, 0.0, 10.00059, 9.902117 
4.1250327e+3, 2.8412524e+2, -229578.38, -318061.9, -1.5083996, 0.00012390711, 0.00021736149, -229578.38, -74005.79, 0.0, 10.000588, 9.885165 
4.1250327e+3, 2.9401144e+2, -129878.73, -217751.1, -3.0939586, 0.00012262905, -0.00026565997, -129878.73, -71191.03, 0.0, 10.0005865, 9.885942 
4.1250327e+3, 3.0392563e+2, -40142.258, -84737.78, -0.68680453, 0.00012162256, 0.00016646061, -40142.258, -40142.258, 0.0, 10.000585, 9.941899 
4.1250327e+3, 3.1386942e+2, -39067.246, -82499.93, -1.5403236, 0.00012103811, -0.000046929385, -39067.246, -39067.246, 0.0, 10.000583, 9.943411 
4.1350338e+3, 1.2499742e+2, -1719198.5, -1724192.0, -1.3828697, 0.00013073772, 0.00005616812, -1719198.5, -4173.0566, 0.0, 10.000629, 9.99401 
4.1350338e+3, 1.3499127e+2, -1621828.0, -1627410.5, -3.0913057, 0.00013041233, -0.00012467512, -1621828.0, -4742.443, 0.0, 10.000626, 9.993226 
4.1350332e+3, 1.4497863e+2, -1533694.9, -1548052.6, -0.6662245, 0.00013023133, 0.00013724192, -1533694.9, -14485.275, 0.0, 10.000622, 9.981592 
4.1350332e+3, 1.5496019e+2, -1435976.6, -1450734.9, -2.8454874, 0.00013019396, -0.000041848543, -1435976.6, -14586.514, 0.0, 10.000618, 9.981061 
4.1350332e+3, 1.6493516e+2, -1347937.8, -1371879.1, -2.7907605, 0.00012926481, 0.00004136361, -1347937.8, -24302.26, 0.0, 10.000615, 9.968971 
4.1350332e+3, 1.7490417e+2, -1249988.1, -1274243.0, -4.920296, 0.00012742575, -0.000070253656, -1249988.1, -24048.994, 0.0, 10.000611, 9.968557 
4.1350332e+3, 1.8486656e+2, -1161910.6, -1195651.8, -2.827573, 0.00012744035, 0.00007551262, -1161910.6, -33602.785, 0.0, 10.000608, 9.956122 
4.1350332e+3, 1.9482273e+2, -1063767.9, -1097769.8, -4.26261, 0.00012939198, -0.000046451245, -1063767.9, -33030.473, 0.0, 10.000607, 9.95578 
4.1350332e+3, 2.0477222e+2, -975606.2, -1019370.6, -3.0038333, 0.00012916478, 0.00007857427, -975606.2, -42373.86, 0.0, 10.000605, 9.943022 
4.1350332e+3, 2.1471527e+2, -877324.44, -921349.75, -5.322088, 0.00012657903, -0.00011980989, -877324.44, -41534.133, 0.0, 10.000603, 9.94268 
4.1350332e+3, 2.2465162e+2, -789051.2, -843103.7, -3.9352264, 0.000124953, 0.00012213453, -789051.2, -50637.145, 0.0, 10.000601, 9.92963 
4.1350332e+3, 2.3458132e+2, -690625.75, -744931.3, -5.5458894, 0.00012441329, -0.00009591796, -690625.75, -49522.688, 0.0, 10.000598, 9.929298 
4.1350332e+3, 2.4450408e+2, -602302.8, -666979.44, -3.3295672, 0.00012457099, 0.000069285896, -602302.8, -58442.707, 0.0, 10.000596, 9.915864 
4.1350332e+3, 2.5442007e+2, -503554.97, -568307.7, -4.489864, 0.00012555988, -0.00009850879, -503554.97, -56871.613, 0.0, 10.000594, 9.915764 
4.1350332e+3, 2.64329e+2, -415325.53, -490959.3, -1.8675277, 0.00012556587, 0.00015022527, -415325.53, -65749.39, 0.0, 10.000593, 9.9016905 
4.1350332e+3, 2.742312e+2, -316046.75, -391351.16, -3.8780737, 0.00012431896, -0.00020803096, -316046.75, -63512.535, 0.0, 10.00059, 9.902111 
4.1350332e+3, 2.841252e+2, -229582.08, -318069.6, -2.2589762, 0.00012353747, 0.00021696466, -229582.08, -74009.164, 0.0, 10.000588, 9.8851595 
4.1350332e+3, 2.940114e+2, -129882.33, -217758.6, -3.8395746, 0.00012339845, -0.00026364496, -129882.33, -71194.26, 0.0, 10.0005865, 9.885938 
4.1350332e+3, 3.0392557e+2, -40144.785, -84743.09, -1.47588, 0.00012348384, 0.00016892215, -40144.785, -40144.785, 0.0, 10.000585, 9.9418955 
4.1350332e+3, 3.138694e+2, -39069.65, -82504.99, -2.3353608, 0.00012389646, -0.00004695472, -39069.65, -39069.65, 0.0, 10.000583, 9.943408 
4.1450343e+3, 1.24997474e+2, -1719168.8, -1724182.6, 1.9669912, 0.00013314806, 0.000057569912, -1719168.8, -4143.863, 0.0, 10.000651, 9.994004 
4.1450343e+3, 1.3499133e+2, -1621796.9, -1627400.3, -0.5199303, 0.00013201046, -0.0001232169, -1621796.9, -4711.7505, 0.0, 10.0006485, 9.99322 
4.1450343e+3, 1.4497867e+2, -1533663.3, -1548042.1, 1.3384494, 0.00013155113, 0.00013842831, -1533663.3, -14454.059, 0.0, 10.000645, 9.981587 
4.1450343e+3, 1.5496023e+2, -1435945.9, -1450724.9, -0.5551924, 0.00013177132, -0.00004221361, -1435945.9, -14556.121, 0.0, 10.00064, 9.981055 
4.1450343e+3, 1.6493519e+2, -1347907.6, -1371870.1, -0.065139264, 0.00013086534, 0.00004094038, -1347907.6, -24272.422, 0.0, 10.000637, 9.968966 
4.1450343e+3, 1.7490421e+2, -1249957.5, -1274233.8, -2.4397326, 0.00012881024, -0.00006921115, -1249957.5, -24018.572, 0.0, 10.000634, 9.968552 
4.1450337e+3, 1.8486658e+2, -1161878.6, -1195640.5, -0.54804504, 0.00012900775, 0.00007651248, -1161878.6, -33571.008, 0.0, 10.000631, 9.956118 
4.1450337e+3, 1.9482274e+2, -1063736.0, -1097758.6, -2.6010501, 0.00013155941, -0.000047070498, -1063736.0, -32998.727, 0.0, 10.000629, 9.955775 
4.1450337e+3, 2.0477223e+2, -975576.56, -1019362.3, -1.475637, 0.0001311234, 0.00007721198, -975576.56, -42344.305, 0.0, 10.000627, 9.943016 
4.1450337e+3, 2.1471527e+2, -877297.25, -921342.75, -3.6559374, 0.00012745334, -0.00012096677, -877297.25, -41506.934, 0.0, 10.000624, 9.942675 
4.1450337e+3, 2.2465162e+2, -789023.94, -843095.06, -2.5385814, 0.00012559257, 0.00012211023, -789023.94, -50609.88, 0.0, 10.000621, 9.9296255 
4.1450337e+3, 2.3458132e+2, -690598.4, -744922.6, -4.182749, 0.00012577957, -0.000093760915, -690598.4, -49495.242, 0.0, 10.000618, 9.929294 
4.1450337e+3, 2.4450406e+2, -602274.9, -666970.0, -1.473531, 0.00012651528, 0.00007150308, -602274.9, -58414.65, 0.0, 10.000616, 9.915859 
4.1450337e+3, 2.5442004e+2, -503526.78, -568298.1, -3.009166, 0.00012790362, -0.00009876537, -503526.78, -56843.293, 0.0, 10.000615, 9.91576 
4.1450337e+3, 2.6432896e+2, -415299.56, -490953.13, -1.2209487, 0.00012783756, 0.00014921225, -415299.56, -65723.234, 0.0, 10.000613, 9.901685 
4.1450337e+3, 2.7423117e+2, -316023.0, -391346.28, -3.296641, 0.00012591892, -0.00020760919, -316023.0, -63488.547, 0.0, 10.000609, 9.902104 
4.1450337e+3, 2.8412518e+2, -229558.83, -318063.66, -1.3632522, 0.00012497534, 0.0002184766, -229558.83, -73985.61, 0.0, 10.000607, 9.885155 
4.1450337e+3, 2.9401138e+2, -129859.445, -217752.8, -2.7394598, 0.00012537454, -0.0002615247, -129859.445, -71171.03, 0.0, 10.000605, 9.885933 
4.1450343e+3, 3.0392554e+2, -40121.23, -84736.04, -0.259901, 0.00012568221, 0.0001702832, -40121.23, -40121.23, 0.0, 10.000603, 9.941892 
4.1450343e+3, 3.1386933e+2, -39044.85, -82497.22, -1.3572402, 0.00012584131, -0.000048379046, -39044.85, -39044.85, 0.0, 10.000601, 9.943404 
4.1550347e+3, 1.2499753e+2, -1719174.5, -1724193.3, 0.94070655, 0.00013499659, 0.000057332065, -1719174.5, -4150.155, 0.0, 10.000651, 9.993998 
4.1550347e+3, 1.3499138e+2, -1621802.5, -1627411.0, -1.5433439, 0.00013396468, -0.00012458756, -1621802.5, -4717.906, 0.0, 10.0006485, 9.993214 
4.1550347e+3, 1.4497872e+2, -1533667.5, -1548050.3, -0.2803706, 0.00013324158, 0.00013703376, -1533667.5, -14458.76, 0.0, 10.000645, 9.981583 
4.1550347e+3, 1.5496026e+2, -1435950.1, -1450732.9, -2.1752782, 0.00013282722, -0.000043324384, -1435950.1, -14560.727, 0.0, 10.000641, 9.9810505 
4.1550347e+3, 1.6493523e+2, -1347912.9, -1371880.3, -1.1162045, 0.00013231851, 0.00003989328, -1347912.9, -24277.996, 0.0, 10.000637, 9.968959 
4.1550347e+3, 1.7490423e+2, -1249962.6, -1274243.8, -3.4867496, 0.00013171302, -0.000070418646, -1249962.6, -24024.016, 0.0, 10.000634, 9.968546 
4.1550347e+3, 1.8486659e+2, -1161883.1, -1195649.3, -1.4444962, 0.00013169272, 0.00007499924, -1161883.1, -33575.72, 0.0, 10.000631, 9.956113 
4.1550347e+3, 1.9482276e+2, -1063740.4, -1097767.4, -3.4930823, 0.00013228365, -0.000049041522, -1063740.4, -33003.336, 0.0, 10.000629, 9.95577 
4.1550347e+3, 2.0477223e+2, -975581.25, -1019371.5, -2.525101, 0.00013106313, 0.000075753676, -975581.25, -42349.12, 0.0, 10.000627, 9.943009 
4.1550347e+3, 2.1471529e+2, -877301.9, -921351.94, -4.708644, 0.0001278817, -0.00012086207, -877301.9, -41511.645, 0.0, 10.000624, 9.942669 
4.1550347e+3, 2.2465162e+2, -789027.5, -843102.2, -3.633396, 0.00012713176, 0.00012328474, -789027.5, -50613.48, 0.0, 10.000621, 9.929621 
4.1550347e+3, 2.3458132e+2, -690601.9, -744929.6, -5.2802424, 0.00012913276, -0.0000920746, -690601.9, -49498.71, 0.0, 10.000618, 9.92929 
4.1550347e+3, 2.4450406e+2, -602278.3, -666977.0, -1.8764054, 0.0001296561, 0.000072471485, -602278.3, -58418.04, 0.0, 10.000616, 9.915855 
4.1550347e+3, 2.5442004e+2, -503530.22, -568305.1, -3.3792229, 0.00012841166, -0.00009998258, -503530.22, -56846.6, 0.0, 10.000615, 9.915755 
4.1550347e+3, 2.6432893e+2, -415304.03, -490962.25, -2.4673493, 0.00012778651, 0.00014814928, -415304.03, -65727.53, 0.0, 10.000613, 9.901679 
4.1550347e+3, 2.7423114e+2, -316027.47, -391355.5, -4.5999603, 0.00012795324, -0.00020553691, -316027.47, -63492.797, 0.0, 10.000609, 9.902099 
4.1550347e+3, 2.8412515e+2, -229562.2, -318070.7, -2.2260213, 0.00012819677, 0.00022187193, -229562.2, -73988.71, 0.0, 10.000607, 9.88515 
4.1550347e+3, 2.9401135e+2, -129862.68, -217759.56, -3.5642526, 0.0001285414, -0.00025930046, -129862.68, -71173.945, 0.0, 10.000605, 9.885928 
4.1550347e+3, 3.039255e+2, -40124.14, -84742.15, -0.78430134, 0.00012821339, 0.0001705585, -40124.14, -40124.14, 0.0, 10.000603, 9.941888 
4.1550347e+3, 3.138693e+2, -39047.74, -82503.266, -1.8471088, 0.00012688519, -0.00005118361, -39047.74, -39047.74, 0.0, 10.000601, 9.943399 
4.1650358e+3, 1.24997586e+2, -1719141.9, -1724182.5, 0.13507952, 0.00013697006, 0.00005712537, -1719141.9, -4118.203, 0.0, 10.000674, 9.993992 
4.1650358e+3, 1.3499142e+2, -1621771.5, -1627401.0, -1.6925455, 0.00013566822, -0.00012351811, -1621771.5, -4687.368, 0.0, 10.00067, 9.993208 
4.1650352e+3, 1.4497876e+2, -1533636.5, -1548039.8, -0.54849756, 0.00013473452, 0.00013811531, -1533636.5, -14428.216, 0.0, 10.000667, 9.981577 
4.1650352e+3, 1.549603e+2, -1435918.6, -1450722.4, -2.5974479, 0.00013416886, -0.000044218024, -1435918.6, -14529.698, 0.0, 10.000663, 9.981046 
4.1650352e+3, 1.6493526e+2, -1347881.3, -1371870.4, -0.8405269, 0.0001339236, 0.00003907083, -1347881.3, -24246.754, 0.0, 10.00066, 9.968953 
4.1650352e+3, 1.7490427e+2, -1249930.0, -1274233.5, -2.9351642, 0.00013400488, -0.00006908271, -1249930.0, -23991.742, 0.0, 10.000658, 9.968539 
4.1650352e+3, 1.8486662e+2, -1161850.3, -1195637.4, -0.70728654, 0.00013370944, 0.00007671214, -1161850.3, -33543.17, 0.0, 10.000654, 9.956108 
4.1650352e+3, 1.9482277e+2, -1063710.6, -1097757.1, -1.9968718, 0.00013301965, -0.000048813854, -1063710.6, -32973.746, 0.0, 10.00065, 9.955765 
4.1650352e+3, 2.0477225e+2, -975554.1, -1019364.3, -0.45624208, 0.00013163895, 0.00007541167, -975554.1, -42322.184, 0.0, 10.000647, 9.943004 
4.1650352e+3, 2.1471529e+2, -877275.0, -921344.94, -2.655569, 0.00012951011, -0.00012078265, -877275.0, -41484.832, 0.0, 10.000644, 9.942663 
4.1650352e+3, 2.2465163e+2, -788998.8, -843093.44, -1.4824618, 0.00012934892, 0.00012401427, -788998.8, -50584.816, 0.0, 10.000642, 9.929616 
4.1650352e+3, 2.3458132e+2, -690570.56, -744919.6, -3.5249653, 0.00013141333, -0.00009043625, -690570.56, -49467.42, 0.0, 10.000641, 9.929284 
4.1650352e+3, 2.4450405e+2, -602247.94, -666967.2, -0.7032689, 0.00013178824, 0.00007396419, -602247.94, -58387.62, 0.0, 10.000638, 9.915851 
4.1650352e+3, 2.5442004e+2, -503505.44, -568298.2, -2.399965, 0.00013014302, -0.000099894765, -503505.44, -56821.72, 0.0, 10.000634, 9.9157505 
4.1650352e+3, 2.6432893e+2, -415281.38, -490957.06, -1.1980368, 0.00012939674, 0.00014793106, -415281.38, -65704.71, 0.0, 10.00063, 9.901673 
4.1650352e+3, 2.7423114e+2, -316001.78, -391348.88, -2.7940214, 0.00012979872, -0.00020465984, -316001.78, -63466.89, 0.0, 10.000629, 9.902093 
4.1650352e+3, 2.8412512e+2, -229534.69, -318063.03, -0.28087896, 0.00013028529, 0.00022319838, -229534.69, -73960.95, 0.0, 10.0006275, 9.885145 
4.1650352e+3, 2.9401132e+2, -129835.52, -217752.16, -2.1217518, 0.00013088186, -0.00025841524, -129835.52, -71146.484, 0.0, 10.000626, 9.885923 
4.1650352e+3, 3.0392548e+2, -40098.06, -84734.65, 0.2165234, 0.00013049682, 0.00017091059, -40098.06, -40098.06, 0.0, 10.000623, 9.941883 
4.1650352e+3, 3.1386924e+2, -39024.38, -82497.0, -1.135759, 0.00012865257, -0.00005149247, -39024.38, -39024.38, 0.0, 10.000619, 9.943396 
4.1750363e+3, 1.2499765e+2, -1719146.1, -1724190.4, -1.1766812, 0.00013906616, 0.00005695192, -1719146.1, -4122.9673, 0.0, 10.000674, 9.993987 
4.1750363e+3, 1.3499148e+2, -1621775.6, -1627408.9, -3.005772, 0.00013712433, -0.000120042816, -1621775.6, -4692.0703, 0.0, 10.00067, 9.993203 
4.1750363e+3, 1.449788e+2, -1533641.1, -1548048.5, -2.0192242, 0.00013603266, 0.000141638, -1533641.1, -14433.323, 0.0, 10.000667, 9.981571 
4.1750363e+3, 1.5496036e+2, -1435923.3, -1450731.0, -4.0698905, 0.00013579203, -0.000044897948, -1435923.3, -14534.661, 0.0, 10.000663, 9.98104 
4.1750363e+3, 1.649353e+2, -1347885.9, -1371879.3, -1.6070397, 0.00013567807, 0.000038469687, -1347885.9, -24251.746, 0.0, 10.00066, 9.968947 
4.1750363e+3, 1.749043e+2, -1249934.6, -1274242.4, -3.6957748, 0.0001356941, -0.000065238935, -1249934.6, -23996.664, 0.0, 10.000658, 9.968534 
4.1750357e+3, 1.8486665e+2, -1161853.1, -1195643.0, -2.2722769, 0.00013506721, 0.00008160641, -1161853.1, -33546.344, 0.0, 10.000655, 9.956104 
4.1750357e+3, 1.948228e+2, -1063713.4, -1097762.6, -3.57553, 0.00013376732, -0.00004641775, -1063713.4, -32976.81, 0.0, 10.00065, 9.955762 
4.1750357e+3, 2.0477228e+2, -975558.8, -1019373.56, -1.5288793, 0.00013284202, 0.000076170916, -975558.8, -42327.09, 0.0, 10.000647, 9.942998 
4.1750357e+3, 2.147153e+2, -877279.6, -921354.2, -3.7196884, 0.00013232189, -0.00012072786, -877279.6, -41489.645, 0.0, 10.000644, 9.9426565 
4.1750357e+3, 2.2465163e+2, -789003.2, -843102.2, -1.9289501, 0.00013223474, 0.00012430515, -789003.2, -50589.293, 0.0, 10.000642, 9.92961 
4.1750357e+3, 2.3458132e+2, -690574.94, -744928.3, -3.9490812, 0.00013263655, -0.000088845074, -690574.94, -49471.805, 0.0, 10.000641, 9.929278 
4.1750357e+3, 2.4450405e+2, -602251.8, -666975.0, -2.3793497, 0.00013292608, 0.00007597406, -602251.8, -58391.477, 0.0, 10.000638, 9.915845 
4.1750357e+3, 2.5442004e+2, -503509.22, -568305.9, -4.1356874, 0.00013308073, -0.000098519915, -503509.22, -56825.434, 0.0, 10.000634, 9.915746 
4.1750357e+3, 2.643289e+2, -415284.84, -490964.22, -1.7649693, 0.00013264507, 0.00014854598, -415284.84, -65708.09, 0.0, 10.00063, 9.901669 
4.1750357e+3, 2.742311e+2, -316005.22, -391355.97, -3.285499, 0.0001314582, -0.00020496118, -316005.22, -63470.164, 0.0, 10.000629, 9.902088 
4.1750357e+3, 2.841251e+2, -229538.89, -318071.72, -1.13268, 0.0001312569, 0.00022248484, -229538.89, -73964.93, 0.0, 10.0006275, 9.885139 
4.1750357e+3, 2.940113e+2, -129839.734, -217760.94, -3.0025976, 0.00013240775, -0.00025885046, -129839.734, -71150.42, 0.0, 10.000626, 9.885918 
4.1750357e+3, 3.0392545e+2, -40101.555, -84741.97, -0.9561447, 0.00013253622, 0.00017133831, -40101.555, -40101.555, 0.0, 10.000623, 9.941878 
4.1750357e+3, 3.138692e+2, -39027.79, -82504.164, -2.3405209, 0.00013113343, -0.000049340222, -39027.79, -39027.79, 0.0, 10.000619, 9.943391 
4.1850367e+3, 1.2499772e+2, -1719113.8, -1724179.1, 2.6526015, 0.00014071524, 0.000058148882, -1719113.8, -4091.2224, 0.0, 10.000697, 9.993981 
4.1850367e+3, 1.3499154e+2, -1621744.3, -1627398.4, 0.4520342, 0.00013880056, -0.00011893987, -1621744.3, -4661.3555, 0.0, 10.000692, 9.993198 
4.1850367e+3, 1.4497887e+2, -1533610.0, -1548039.1, 1.172412, 0.00013788196, 0.00014260187, -1533610.0, -14402.839, 0.0, 10.0006895, 9.981565 
4.1850367e+3, 1.5496041e+2, -1435890.4, -1450720.8, -1.4233853, 0.00013796048, -0.00004467833, -1435890.4, -14502.334, 0.0, 10.000687, 9.981034 
4.1850367e+3, 1.6493535e+2, -1347852.8, -1371867.4, 1.1508889, 0.00013770662, 0.000039094557, -1347852.8, -24219.025, 0.0, 10.000683, 9.968943 
4.1850367e+3, 1.7490435e+2, -1249905.1, -1274232.4, -0.3094822, 0.0001371151, -0.00006303651, -1249905.1, -23967.488, 0.0, 10.000679, 9.96853 
4.1850367e+3, 1.848667e+2, -1161824.9, -1195634.1, 0.66633284, 0.00013638157, 0.00008351611, -1161824.9, -33518.36, 0.0, 10.000675, 9.9560995 
4.1850367e+3, 1.9482283e+2, -1063683.3, -1097753.0, -1.9217664, 0.00013549825, -0.000046756166, -1063683.3, -32946.902, 0.0, 10.000672, 9.955756 
4.1850367e+3, 2.047723e+2, -975528.44, -1019365.56, -0.4243641, 0.00013505729, 0.00007507202, -975528.44, -42296.902, 0.0, 10.0006695, 9.942991 
4.1850367e+3, 2.1471532e+2, -877248.5, -921345.9, -3.1652484, 0.00013509484, -0.000120977274, -877248.5, -41458.652, 0.0, 10.000668, 9.94265 
4.1850367e+3, 2.2465166e+2, -788972.56, -843092.2, -1.4798431, 0.00013479362, 0.00012513908, -788972.56, -50558.8, 0.0, 10.000665, 9.9296055 
4.1850367e+3, 2.3458134e+2, -690549.44, -744920.9, -2.9010174, 0.00013410795, -0.00008666329, -690549.44, -49446.363, 0.0, 10.00066, 9.929274 
4.1850367e+3, 2.4450406e+2, -602226.9, -666967.94, -1.0031036, 0.00013432105, 0.00007804367, -602226.9, -58366.54, 0.0, 10.000657, 9.91584 
4.185036e+3, 2.5442e+2, -503479.47, -568296.5, -2.6397324, 0.00013560735, -0.000098306075, -503479.47, -56795.645, 0.0, 10.000656, 9.915741 
4.185036e+3, 2.643289e+2, -415254.4, -490955.6, -0.33843976, 0.00013545144, 0.00014810574, -415254.4, -65677.56, 0.0, 10.000653, 9.901663 
4.185036e+3, 2.742311e+2, -315977.94, -391349.06, -2.6918876, 0.0001334573, -0.000204522, -315977.9, -63442.73, 0.0, 10.00065, 9.902082 
4.1850367e+3, 2.841251e+2, -229513.03, -318064.3, -0.773128, 0.00013279571, 0.00022343773, -229513.03, -73938.88, 0.0, 10.000648, 9.885135 
4.1850367e+3, 2.9401127e+2, -129815.02, -217754.08, -1.724521, 0.00013396627, -0.00025789166, -129815.02, -71125.48, 0.0, 10.000644, 9.885913 
4.1850367e+3, 3.0392542e+2, -40076.316, -84734.24, 1.2517127, 0.00013425821, 0.00017167265, -40076.316, -40076.316, 0.0, 10.000642, 9.9418745 
4.1850367e+3, 3.1386918e+2, -39000.06, -82495.14, 0.58532655, 0.00013322801, -0.000050561295, -39000.06, -39000.06, 0.0, 10.00064, 9.943387 
4.1950375e+3, 1.24997795e+2, -1719118.8, -1724188.6, 1.1131365, 0.00014192327, 0.0000606199, -1719118.8, -4097.021, 0.0, 10.000697, 9.993976 
4.1950375e+3, 1.3499162e+2, -1621749.3, -1627407.8, -1.0884417, 0.0001406936, -0.00012017394, -1621749.3, -4667.0117, 0.0, 10.000692, 9.993192 
4.1950375e+3, 1.4497893e+2, -1533615.9, -1548050.1, 0.14719416, 0.00014027422, 0.00014104407, -1533615.9, -14409.268, 0.0, 10.0006895, 9.981559 
4.1950375e+3, 1.5496047e+2, -1435896.1, -1450731.8, -2.4443047, 0.00014066607, -0.000043571545, -1435896.1, -14508.647, 0.0, 10.000687, 9.981027 
4.1950372e+3, 1.649354e+2, -1347856.0, -1371873.6, -0.43214026, 0.00014000482, 0.00004092845, -1347856.0, -24222.768, 0.0, 10.000683, 9.968939 
4.1950372e+3, 1.7490439e+2, -1249908.3, -1274238.5, -1.8989111, 0.00013827112, -0.00006245124, -1249908.3, -23971.133, 0.0, 10.000679, 9.968526 
4.1950372e+3, 1.8486673e+2, -1161830.4, -1195645.0, -0.43719277, 0.00013765272, 0.000082484505, -1161830.4, -33524.34, 0.0, 10.000675, 9.956093 
4.1950372e+3, 1.9482286e+2, -1063688.8, -1097763.8, -3.017971, 0.00013819835, -0.000049789774, -1063688.8, -32952.754, 0.0, 10.000672, 9.9557495 
4.1950372e+3, 2.0477232e+2, -975534.3, -1019377.1, -1.2655327, 0.00013827036, 0.000072141505, -975534.3, -42303.047, 0.0, 10.0006695, 9.942984 
4.1950372e+3, 2.1471535e+2, -877254.4, -921357.44, -3.9967585, 0.00013783, -0.00012152661, -877254.4, -41464.68, 0.0, 10.000668, 9.942643 
4.1950372e+3, 2.2465168e+2, -788975.8, -843098.6, -3.107132, 0.0001370304, 0.00012650815, -788975.8, -50562.156, 0.0, 10.000665, 9.929601 
4.1950372e+3, 2.3458134e+2, -690552.5, -744927.1, -4.5558114, 0.00013582369, -0.00008389936, -690552.5, -49449.555, 0.0, 10.00066, 9.92927 
4.1950372e+3, 2.4450406e+2, -602230.44, -666975.1, -1.5480138, 0.00013596915, 0.000080172285, -602230.44, -58370.15, 0.0, 10.000657, 9.915835 
4.1950372e+3, 2.5442e+2, -503483.0, -568303.75, -3.1339629, 0.00013772922, -0.00009923634, -503483.0, -56799.176, 0.0, 10.000656, 9.915736 
4.1950372e+3, 2.643289e+2, -415259.5, -490965.94, -1.5330222, 0.00013782276, 0.00014662564, -415259.5, -65682.555, 0.0, 10.000653, 9.901656 
4.1950372e+3, 2.7423108e+2, -315983.03, -391359.56, -3.9283395, 0.00013579143, -0.00020335309, -315983.03, -63447.703, 0.0, 10.00065, 9.902076 
4.1950372e+3, 2.8412506e+2, -229515.7, -318069.88, -1.9303063, 0.00013489363, 0.00022603288, -229515.7, -73941.375, 0.0, 10.000648, 9.885131 
4.1950372e+3, 2.9401127e+2, -129817.44, -217759.16, -2.8779256, 0.00013555697, -0.00025555879, -129817.44, -71127.69, 0.0, 10.000645, 9.885909 
4.1950372e+3, 3.039254e+2, -40078.43, -84738.73, 0.6172254, 0.0001356674, 0.00017191534, -40078.43, -40078.43, 0.0, 10.000642, 9.941872 
4.1950372e+3, 3.1386915e+2, -39002.15, -82499.57, 0.0060187397, 0.00013494225, -0.000055106757, -39002.15, -39002.15, 0.0, 10.00064, 9.943383 
4.205038e+3, 1.2499787e+2, -1719085.4, -1724178.3, 0.8712458, 0.00014397968, 0.000060144364, -1719085.4, -4064.3862, 0.0, 10.000721, 9.993969 
4.205038e+3, 1.3499169e+2, -1621716.1, -1627397.5, -1.7789282, 0.00014287017, -0.000120649725, -1621716.1, -4634.546, 0.0, 10.000716, 9.993186 
4.205038e+3, 1.4497899e+2, -1533582.8, -1548039.0, 0.087213986, 0.00014239157, 0.00014109882, -1533582.8, -14376.81, 0.0, 10.000712, 9.981553 
4.205038e+3, 1.5496053e+2, -1435864.6, -1450721.5, -1.5274779, 0.00014254275, -0.00004284201, -1435864.6, -14477.619, 0.0, 10.00071, 9.981022 
4.205038e+3, 1.6493544e+2, -1347824.8, -1371863.3, 0.13110344, 0.00014192051, 0.000041783693, -1347824.8, -24191.97, 0.0, 10.000706, 9.968934 
4.205038e+3, 1.7490444e+2, -1249876.6, -1274228.1, -2.3557959, 0.00014051131, -0.00006202914, -1249876.6, -23939.97, 0.0, 10.000702, 9.96852 
4.205038e+3, 1.8486677e+2, -1161799.3, -1195636.1, -0.7106939, 0.00014012915, 0.00008253217, -1161799.3, -33493.594, 0.0, 10.000698, 9.956086 
4.205038e+3, 1.9482289e+2, -1063657.3, -1097754.8, -2.8580046, 0.00014081823, -0.000050055485, -1063657.3, -32921.594, 0.0, 10.000696, 9.955743 
4.2050377e+3, 2.0477235e+2, -975503.8, -1019368.1, -0.5048204, 0.00014064393, 0.0000723136, -975503.8, -42272.824, 0.0, 10.000692, 9.942978 
4.2050377e+3, 2.1471536e+2, -877227.2, -921350.25, -2.0489976, 0.00013953538, -0.000120103534, -877227.2, -41437.746, 0.0, 10.000689, 9.942637 
4.2050377e+3, 2.246517e+2, -788948.0, -843089.75, -0.7389512, 0.00013892664, 0.00012847561, -788948.0, -50534.49, 0.0, 10.000685, 9.929596 
4.2050377e+3, 2.3458135e+2, -690521.5, -744916.7, -2.62046, 0.00013888268, -0.000082186285, -690521.5, -49418.703, 0.0, 10.000683, 9.929265 
4.2050377e+3, 2.4450408e+2, -602199.8, -666966.2, 0.21907881, 0.00013899295, 0.000081107035, -602199.8, -58339.605, 0.0, 10.00068, 9.91583 
4.2050377e+3, 2.5442e+2, -503455.25, -568296.3, -2.0904636, 0.00013928633, -0.00009970474, -503455.25, -56771.438, 0.0, 10.000677, 9.91573 
4.2050377e+3, 2.643289e+2, -415232.47, -490958.34, -0.566562, 0.00013889758, 0.00014603253, -415232.47, -65655.5, 0.0, 10.000674, 9.901651 
4.2050377e+3, 2.7423108e+2, -315955.1, -391351.56, -1.6312789, 0.00013763995, -0.00020244226, -315955.1, -63419.695, 0.0, 10.000671, 9.902071 
4.2050377e+3, 2.8412506e+2, -229486.44, -318060.7, 0.8696708, 0.00013715445, 0.00022754057, -229486.44, -73912.0, 0.0, 10.0006695, 9.885126 
4.2050377e+3, 2.9401124e+2, -129787.28, -217749.56, -0.95282555, 0.0001377296, -0.00025470345, -129787.28, -71097.36, 0.0, 10.000667, 9.885905 
4.2050377e+3, 3.0392537e+2, -40049.38, -84730.53, 1.4176226, 0.00013759443, 0.00017180566, -40049.38, -40049.38, 0.0, 10.000664, 9.941866 
4.2050377e+3, 3.1386912e+2, -38975.465, -82492.62, -0.9082994, 0.00013639443, -0.00005663349, -38975.465, -38975.465, 0.0, 10.000661, 9.943378 
4.215039e+3, 1.2499794e+2, -1719091.5, -1724189.6, -0.6718017, 0.00014687027, 0.00005666253, -1719091.5, -4071.2087, 0.0, 10.000721, 9.993962 
4.215039e+3, 1.3499177e+2, -1621722.1, -1627408.9, -3.3186018, 0.00014532554, -0.00012038, -1621722.1, -4641.2495, 0.0, 10.000716, 9.993178 
4.215039e+3, 1.4497906e+2, -1533586.4, -1548046.0, -1.2327214, 0.0001442375, 0.00014274109, -1533586.4, -14381.066, 0.0, 10.000712, 9.981548 
4.2150387e+3, 1.5496059e+2, -1435868.1, -1450728.4, -2.8511093, 0.00014360185, -0.000042484677, -1435868.1, -14481.785, 0.0, 10.00071, 9.981017 
4.2150387e+3, 1.649355e+2, -1347830.1, -1371873.8, -1.3330023, 0.00014345862, 0.00004167448, -1347830.1, -24197.986, 0.0, 10.000706, 9.968927 
4.2150387e+3, 1.7490448e+2, -1249882.1, -1274238.5, -3.8187788, 0.00014381947, -0.00006176802, -1249882.0, -23945.857, 0.0, 10.000702, 9.9685135 
4.2150387e+3, 1.8486682e+2, -1161804.0, -1195645.3, -1.6735209, 0.00014379284, 0.0000836427, -1161804.0, -33498.695, 0.0, 10.000698, 9.95608 
4.2150387e+3, 1.9482294e+2, -1063661.9, -1097763.8, -3.8156946, 0.00014335933, -0.000047594527, -1063661.9, -32926.594, 0.0, 10.000696, 9.955737 
4.2150387e+3, 2.0477238e+2, -975507.25, -1019374.9, -2.1046815, 0.0001421905, 0.000075542375, -975507.25, -42276.566, 0.0, 10.000692, 9.942974 
4.2150387e+3, 2.1471539e+2, -877230.56, -921356.9, -3.6656213, 0.00014022605, -0.00011673698, -877230.56, -41441.375, 0.0, 10.000689, 9.942633 
4.2150387e+3, 2.2465172e+2, -788952.0, -843097.75, -1.6102504, 0.00014048722, 0.0001310331, -788952.0, -50538.727, 0.0, 10.000685, 9.929591 
4.2150387e+3, 2.3458137e+2, -690525.5, -744924.7, -3.4685247, 0.00014326553, -0.00008150814, -690525.5, -49422.85, 0.0, 10.000683, 9.92926 
4.2150387e+3, 2.4450408e+2, -602204.8, -666976.3, -0.9335801, 0.00014337267, 0.00008086566, -602204.8, -58344.742, 0.0, 10.00068, 9.915824 
4.2150387e+3, 2.5442004e+2, -503460.28, -568306.5, -3.2547896, 0.00014028717, -0.00009971833, -503460.28, -56776.5, 0.0, 10.000677, 9.915724 
4.2150387e+3, 2.643289e+2, -415235.13, -490963.8, -1.5534705, 0.000138695, 0.00014631315, -415235.13, -65658.14, 0.0, 10.000674, 9.901648 
4.2150387e+3, 2.7423108e+2, -315957.56, -391356.66, -2.610456, 0.00013901023, -0.00020178515, -315957.56, -63422.12, 0.0, 10.000671, 9.902067 
4.2150387e+3, 2.8412506e+2, -229490.47, -318069.03, -0.03003623, 0.0001395762, 0.00022797767, -229490.47, -73915.94, 0.0, 10.0006695, 9.885121 
4.2150387e+3, 2.940112e+2, -129791.38, -217758.14, -1.8435687, 0.00014047613, -0.0002553033, -129791.38, -71101.33, 0.0, 10.000667, 9.8859 
4.2150387e+3, 3.0392534e+2, -40054.58, -84741.42, 0.27399483, 0.00014003205, 0.00017134885, -40054.58, -40054.58, 0.0, 10.000664, 9.941859 
4.2150387e+3, 3.138691e+2, -38980.793, -82503.78, -2.074554, 0.00013758855, -0.000055187, -38980.793, -38980.793, 0.0, 10.000661, 9.943371 
4.2250395e+3, 1.24998026e+2, -1719057.3, -1724178.0, 2.1093562, 0.00014901081, 0.000056546578, -1719057.3, -4037.747, 0.0, 10.000745, 9.993957 
4.2250395e+3, 1.3499184e+2, -1621688.3, -1627397.5, 0.38517752, 0.00014753397, -0.00011850433, -1621688.3, -4608.0815, 0.0, 10.000741, 9.993173 
4.2250395e+3, 1.4497912e+2, -1533553.3, -1548035.0, 2.4883983, 0.00014643896, 0.00014490621, -1533553.3, -14348.62, 0.0, 10.000736, 9.981543 
4.2250395e+3, 1.5496065e+2, -1435836.4, -1450718.3, -0.24418344, 0.0001457215, -0.000042079246, -1435836.4, -14450.63, 0.0, 10.000732, 9.981011 
4.2250395e+3, 1.6493556e+2, -1347798.4, -1371863.9, 1.1525855, 0.00014573729, 0.000041747873, -1347798.4, -24166.818, 0.0, 10.000729, 9.968922 
4.2250395e+3, 1.7490454e+2, -1249848.8, -1274228.0, -0.87671536, 0.00014650171, -0.000060568775, -1249848.8, -23913.094, 0.0, 10.000726, 9.968508 
4.2250395e+3, 1.8486686e+2, -1161771.1, -1195635.0, 1.4210998, 0.00014636847, 0.000085079824, -1161771.1, -33466.375, 0.0, 10.000722, 9.956075 
4.2250392e+3, 1.9482298e+2, -1063631.9, -1097755.1, -0.87020946, 0.00014529497, -0.000046847286, -1063631.9, -32896.973, 0.0, 10.000718, 9.955731 
4.2250392e+3, 2.0477241e+2, -975477.7, -1019366.06, 0.14483666, 0.00014410615, 0.000075991244, -975477.7, -42247.367, 0.0, 10.000714, 9.942968 
4.2250392e+3, 2.1471542e+2, -877199.8, -921347.5, -2.383308, 0.00014279241, -0.000116161704, -877199.8, -41410.92, 0.0, 10.0007105, 9.942627 
4.2250392e+3, 2.2465174e+2, -788920.56, -843088.2, -0.37583235, 0.00014318313, 0.0001317126, -788920.56, -50507.563, 0.0, 10.000709, 9.929585 
4.2250392e+3, 2.345814e+2, -690494.0, -744915.2, -2.5476198, 0.00014550125, -0.00008074929, -690494.0, -49391.57, 0.0, 10.000706, 9.929255 
4.2250392e+3, 2.445041e+2, -602173.75, -666967.1, -0.27893558, 0.00014533984, 0.00008140699, -602173.75, -58313.793, 0.0, 10.000703, 9.915818 
4.2250392e+3, 2.5442004e+2, -503430.13, -568297.9, -1.8796061, 0.0001422152, -0.000099748744, -503430.13, -56746.438, 0.0, 10.0007, 9.915718 
4.2250392e+3, 2.643289e+2, -415205.06, -490954.38, -0.011813405, 0.00014058678, 0.00014622998, -415205.06, -65628.125, 0.0, 10.000696, 9.901643 
4.2250392e+3, 2.7423108e+2, -315927.97, -391347.5, -2.1594431, 0.00014086884, -0.00020125933, -315927.97, -63392.527, 0.0, 10.000693, 9.902062 
4.2250392e+3, 2.8412503e+2, -229461.34, -318060.56, 0.09508101, 0.00014132429, 0.00022881773, -229461.34, -73886.74, 0.0, 10.000691, 9.885116 
4.2250392e+3, 2.940112e+2, -129762.234, -217749.77, -1.3132343, 0.0001420078, -0.00025455546, -129762.234, -71072.055, 0.0, 10.000689, 9.885894 
4.2250392e+3, 3.0392534e+2, -40025.26, -84732.875, 1.5820231, 0.00014162688, 0.00017193677, -40025.26, -40025.26, 0.0, 10.000687, 9.941854 
4.2250392e+3, 3.1386906e+2, -38950.906, -82494.94, 1.1297917, 0.00013966269, -0.000054855547, -38950.906, -38950.906, 0.0, 10.000684, 9.943366 
4.2350405e+3, 1.24998115e+2, -1719061.1, -1724185.4, 0.52199286, 0.00015041111, 0.000059395774, -1719061.1, -4042.5889, 0.0, 10.000745, 9.993952 
4.2350405e+3, 1.3499193e+2, -1621692.1, -1627404.9, -1.2056304, 0.00014949872, -0.000115047944, -1621692.1, -4612.8374, 0.0, 10.000741, 9.993168 
4.2350405e+3, 1.4497922e+2, -1533559.4, -1548046.6, 0.87291116, 0.0001489913, 0.00014758561, -1533559.4, -14355.545, 0.0, 10.000736, 9.981536 
4.23504e+3, 1.5496072e+2, -1435842.4, -1450729.8, -1.8578392, 0.00014888532, -0.000041625623, -1435842.4, -14457.389, 0.0, 10.000732, 9.981004 
4.23504e+3, 1.6493562e+2, -1347802.9, -1371872.5, 0.0886684, 0.00014874425, 0.000042001626, -1347802.9, -24171.924, 0.0, 10.000729, 9.968916 
4.23504e+3, 1.749046e+2, -1249853.3, -1274236.6, -1.9384454, 0.00014856772, -0.00005844519, -1249853.3, -23918.113, 0.0, 10.000726, 9.968502 
4.23504e+3, 1.8486694e+2, -1161776.1, -1195644.8, -0.16970484, 0.00014787281, 0.00008683933, -1161776.1, -33471.918, 0.0, 10.000722, 9.956068 
4.23504e+3, 1.9482303e+2, -1063636.8, -1097764.8, -2.4677222, 0.00014663435, -0.00004778678, -1063636.8, -32902.38, 0.0, 10.000718, 9.955726 
4.23504e+3, 2.0477246e+2, -975483.1, -1019376.7, -1.1511778, 0.00014638524, 0.000073703304, -975483.1, -42253.168, 0.0, 10.000714, 9.942962 
4.23504e+3, 2.1471545e+2, -877205.1, -921358.1, -3.6699514, 0.00014720601, -0.0001183349, -877205.1, -41416.594, 0.0, 10.000711, 9.94262 
4.23504e+3, 2.2465177e+2, -788925.3, -843097.6, -1.176498, 0.00014699728, 0.00013054261, -788925.3, -50512.555, 0.0, 10.000709, 9.92958 
4.23504e+3, 2.3458141e+2, -690498.7, -744924.5, -3.3308008, 0.00014562297, -0.000079911275, -690498.7, -49396.45, 0.0, 10.000706, 9.929249 
4.2350397e+3, 2.4450411e+2, -602177.4, -666974.44, -1.6090479, 0.00014493163, 0.000082718914, -602177.4, -58317.59, 0.0, 10.000704, 9.915813 
4.2350397e+3, 2.5442004e+2, -503433.66, -568305.06, -3.2385182, 0.00014505662, -0.0000997953, -503433.66, -56750.08, 0.0, 10.0007, 9.915713 
4.2350397e+3, 2.643289e+2, -415209.66, -490963.8, -1.0916561, 0.0001445412, 0.00014578903, -415209.66, -65632.77, 0.0, 10.000696, 9.901637 
4.2350397e+3, 2.7423108e+2, -315932.6, -391357.0, -3.218145, 0.00014320857, -0.000200863, -315932.6, -63397.133, 0.0, 10.000693, 9.902057 
4.2350397e+3, 2.8412503e+2, -229464.83, -318067.8, -0.7521759, 0.00014240928, 0.00023005412, -229464.83, -73890.18, 0.0, 10.000691, 9.885111 
4.2350397e+3, 2.940112e+2, -129765.586, -217756.78, -2.143676, 0.00014234349, -0.000252481, -129765.586, -71075.31, 0.0, 10.000689, 9.885889 
4.2350397e+3, 3.039253e+2, -40027.145, -84736.875, 0.5717703, 0.00014239209, 0.00017355355, -40027.145, -40027.145, 0.0, 10.000687, 9.941851 
4.2350397e+3, 3.1386906e+2, -38952.62, -82498.59, 0.09099002, 0.00014260384, -0.0000556208, -38952.62, -38952.62, 0.0, 10.000684, 9.943363 
4.245041e+3, 1.24998204e+2, -1719027.0, -1724173.8, 1.6546457, 0.0001523337, 0.000060138584, -1719027.0, -4009.297, 0.0, 10.000769, 9.993946 
4.245041e+3, 1.34992e+2, -1621657.5, -1627393.0, -0.93162346, 0.0001517357, -0.00011509986, -1621657.5, -4579.048, 0.0, 10.000765, 9.993162 
4.245041e+3, 1.449793e+2, -1533524.9, -1548036.0, 0.96749175, 0.00015149658, 0.00014763942, -1533524.9, -14321.76, 0.0, 10.000761, 9.981529 
4.245041e+3, 1.549608e+2, -1435806.9, -1450718.8, -1.3433121, 0.00015161165, -0.000040827726, -1435806.9, -14422.585, 0.0, 10.000758, 9.980997 
4.245041e+3, 1.649357e+2, -1347767.3, -1371860.3, 0.856185, 0.000151307, 0.000042954256, -1347767.3, -24136.982, 0.0, 10.000754, 9.96891 
4.245041e+3, 1.7490466e+2, -1249820.3, -1274225.9, -1.3218019, 0.0001505734, -0.00005793362, -1249820.3, -23885.832, 0.0, 10.00075, 9.968496 
4.2450404e+3, 1.8486698e+2, -1161745.0, -1195636.0, 0.12773727, 0.00014969363, 0.000087080705, -1161745.0, -33441.29, 0.0, 10.000746, 9.956061 
4.2450404e+3, 1.9482307e+2, -1063605.0, -1097755.8, -2.4238403, 0.00014865946, -0.000047636862, -1063605.0, -32871.004, 0.0, 10.000742, 9.955719 
4.2450404e+3, 2.047725e+2, -975449.7, -1019366.2, -0.49060774, 0.00014873696, 0.00007392416, -975449.7, -42220.125, 0.0, 10.000739, 9.942956 
4.2450404e+3, 2.147155e+2, -877170.25, -921346.94, -2.265996, 0.00015001667, -0.00011786572, -877170.25, -41382.082, 0.0, 10.000736, 9.942615 
4.2450404e+3, 2.246518e+2, -788891.06, -843086.5, 0.6965094, 0.00014955028, 0.00013112543, -788891.06, -50478.65, 0.0, 10.000733, 9.929574 
4.2450404e+3, 2.3458144e+2, -690468.06, -744915.3, -1.0498846, 0.00014710752, -0.00007936707, -690468.06, -49366.094, 0.0, 10.000729, 9.929243 
4.2450404e+3, 2.4450414e+2, -602147.8, -666966.0, 0.71512944, 0.00014613452, 0.0000830186, -602147.8, -58288.25, 0.0, 10.000726, 9.915808 
4.2450404e+3, 2.5442007e+2, -503402.16, -568295.7, -1.5943424, 0.00014691817, -0.00009998537, -503402.16, -56718.71, 0.0, 10.000723, 9.915708 
4.2450404e+3, 2.643289e+2, -415177.06, -490953.84, 0.4312133, 0.00014671474, 0.00014567393, -415177.06, -65600.266, 0.0, 10.000721, 9.901631 
4.2450404e+3, 2.7423108e+2, -315900.28, -391347.28, -1.1347225, 0.00014525063, -0.00020018338, -315900.28, -63364.87, 0.0, 10.000718, 9.902051 
4.2450404e+3, 2.8412503e+2, -229433.3, -318058.47, 1.464162, 0.0001443165, 0.00023130627, -229433.3, -73858.64, 0.0, 10.000715, 9.885105 
4.2450404e+3, 2.940112e+2, -129735.79, -217748.36, -0.501918, 0.00014411336, -0.00025096376, -129735.79, -71045.45, 0.0, 10.000711, 9.885884 
4.2450404e+3, 3.039253e+2, -39998.25, -84728.734, 1.0806463, 0.00014415687, 0.00017448796, -39998.25, -39998.25, 0.0, 10.000709, 9.941846 
4.2450404e+3, 3.1386903e+2, -38923.31, -82490.22, -1.4142158, 0.00014456, -0.00005652533, -38923.31, -38923.31, 0.0, 10.000707, 9.943358 
4.255042e+3, 1.2499831e+2, -1719032.9, -1724184.9, 0.21182722, 0.00015476954, 0.000058828755, -1719032.9, -4016.1604, 0.0, 10.000769, 9.993939 
4.255042e+3, 1.349921e+2, -1621663.4, -1627404.1, -2.3733125, 0.00015424103, -0.000118603595, -1621663.4, -4585.758, 0.0, 10.000765, 9.9931555 
4.255042e+3, 1.4497937e+2, -1533530.0, -1548045.9, -0.37294313, 0.00015395472, 0.00014511059, -1533530.0, -14327.7295, 0.0, 10.000762, 9.981523 
4.2550415e+3, 1.5496087e+2, -1435812.0, -1450728.5, -2.6813126, 0.0001539066, -0.000039690654, -1435812.0, -14428.465, 0.0, 10.000758, 9.980991 
4.2550415e+3, 1.6493577e+2, -1347772.1, -1371869.5, -0.80313605, 0.00015343183, 0.000044594846, -1347772.1, -24142.49, 0.0, 10.000754, 9.9689045 
4.2550415e+3, 1.7490472e+2, -1249825.0, -1274235.0, -2.984296, 0.00015251938, -0.000059008777, -1249825.0, -23891.2, 0.0, 10.00075, 9.968491 
4.2550415e+3, 1.8486704e+2, -1161750.5, -1195646.8, -1.2592617, 0.0001518258, 0.00008582754, -1161750.5, -33447.383, 0.0, 10.000746, 9.956055 
4.2550415e+3, 1.9482312e+2, -1063610.4, -1097766.5, -3.8052871, 0.0001513593, -0.00004641559, -1063610.4, -32876.98, 0.0, 10.000742, 9.955712 
4.2550415e+3, 2.0477255e+2, -975453.56, -1019373.9, -1.3917471, 0.0001511603, 0.00007661341, -975453.56, -42224.477, 0.0, 10.000739, 9.942951 
4.2550415e+3, 2.1471554e+2, -877174.06, -921354.5, -3.1594281, 0.00015125045, -0.00011479598, -877174.06, -41386.32, 0.0, 10.000736, 9.94261 
4.2550415e+3, 2.2465184e+2, -788894.94, -843094.25, -0.9172978, 0.00015086262, 0.00013343368, -788894.94, -50482.88, 0.0, 10.000733, 9.929569 
4.2550415e+3, 2.3458147e+2, -690471.9, -744923.0, -2.6893213, 0.00014993337, -0.000079111436, -690471.9, -49370.203, 0.0, 10.000729, 9.929238 
4.255041e+3, 2.4450415e+2, -602152.7, -666975.9, -0.14492075, 0.00014892293, 0.00008232257, -602152.7, -58293.39, 0.0, 10.000726, 9.915801 
4.255041e+3, 2.5442007e+2, -503407.06, -568305.7, -2.4151978, 0.00014781575, -0.00010031675, -503407.06, -56723.793, 0.0, 10.000724, 9.915701 
4.255041e+3, 2.6432893e+2, -415180.72, -490961.34, -0.6447349, 0.0001471361, 0.00014587937, -415180.72, -65604.04, 0.0, 10.000721, 9.901627 
4.255041e+3, 2.7423108e+2, -315903.8, -391354.56, -2.23044, 0.00014700019, -0.00019922463, -315903.8, -63368.473, 0.0, 10.000718, 9.902046 
4.255041e+3, 2.8412503e+2, -229437.72, -318067.66, 0.23888527, 0.00014703328, 0.00023257457, -229437.72, -73863.1, 0.0, 10.000715, 9.885099 
4.255041e+3, 2.940112e+2, -129740.234, -217757.66, -1.737313, 0.00014729498, -0.0002499943, -129740.234, -71049.87, 0.0, 10.000711, 9.885878 
4.255041e+3, 3.039253e+2, -40003.64, -84740.03, 0.12860611, 0.00014690563, 0.0001747509, -40003.64, -40003.64, 0.0, 10.000709, 9.941838 
4.255041e+3, 3.1386903e+2, -38928.824, -82501.766, -2.3276114, 0.00014554721, -0.000057568064, -38928.824, -38928.824, 0.0, 10.000707, 9.94335 
4.2650428e+3, 1.24998406e+2, -1718995.1, -1724172.4, 1.8231279, 0.00015723926, 0.00005870353, -1718995.1, -3979.3577, 0.0, 10.000796, 9.993933 
4.2650425e+3, 1.3499218e+2, -1621626.8, -1627392.4, -0.655499, 0.00015669291, -0.00011804374, -1621626.8, -4550.045, 0.0, 10.000792, 9.993149 
4.2650425e+3, 1.4497946e+2, -1533493.8, -1548032.9, 1.6839927, 0.00015621497, 0.00014608439, -1533493.8, -14292.256, 0.0, 10.000787, 9.981518 
4.2650425e+3, 1.5496096e+2, -1435777.4, -1450716.5, -0.13599928, 0.00015580031, -0.000038940052, -1435777.4, -14394.636, 0.0, 10.000783, 9.980986 
4.2650425e+3, 1.6493584e+2, -1347738.6, -1371859.5, 1.7343439, 0.00015519692, 0.000045118006, -1347738.6, -24109.766, 0.0, 10.000778, 9.968898 
4.2650425e+3, 1.7490478e+2, -1249790.6, -1274224.5, -0.9826617, 0.00015439863, -0.000058712405, -1249790.6, -23857.396, 0.0, 10.000774, 9.968484 
4.2650425e+3, 1.848671e+2, -1161715.0, -1195635.3, 0.9266526, 0.00015396524, 0.000086222964, -1161715.0, -33412.49, 0.0, 10.0007715, 9.956049 
4.265042e+3, 1.9482318e+2, -1063574.6, -1097755.0, -1.076209, 0.00015391129, -0.000045580302, -1063574.6, -32841.785, 0.0, 10.000768, 9.955706 
4.265042e+3, 2.0477259e+2, -975418.6, -1019362.3, 1.4600966, 0.0001535005, 0.00007745793, -975418.6, -42190.06, 0.0, 10.000764, 9.9429455 
4.265042e+3, 2.1471559e+2, -877142.06, -921344.56, -0.86489683, 0.0001527032, -0.00011440687, -877142.06, -41354.74, 0.0, 10.00076, 9.942604 
4.265042e+3, 2.2465187e+2, -788863.06, -843084.56, 0.8048968, 0.00015221794, 0.00013368737, -788863.06, -50451.383, 0.0, 10.000757, 9.9295635 
4.265042e+3, 2.345815e+2, -690436.94, -744911.9, -1.573867, 0.00015208517, -0.00007863078, -690436.94, -49335.582, 0.0, 10.000754, 9.929233 
4.265042e+3, 2.4450418e+2, -602117.7, -666965.06, 0.84168744, 0.00015130814, 0.00008262189, -602117.7, -58258.652, 0.0, 10.0007515, 9.915795 
4.265042e+3, 2.544201e+2, -503375.3, -568296.6, -1.0404538, 0.00014976115, -0.00010068617, -503375.3, -56692.258, 0.0, 10.000748, 9.915695 
4.265042e+3, 2.6432893e+2, -415150.2, -490952.63, 0.87734103, 0.00014884342, 0.0001454607, -415150.2, -65573.65, 0.0, 10.000744, 9.901621 
4.265042e+3, 2.742311e+2, -315872.47, -391345.53, -1.3797872, 0.00014872776, -0.00019890253, -315872.47, -63337.254, 0.0, 10.000742, 9.9020405 
4.265042e+3, 2.8412503e+2, -229405.77, -318058.47, 0.6585333, 0.00014893655, 0.00023329048, -229405.77, -73831.19, 0.0, 10.000739, 9.885094 
4.265042e+3, 2.940112e+2, -129707.87, -217748.38, -1.0222422, 0.00014958544, -0.00024936313, -129707.87, -71017.49, 0.0, 10.000736, 9.885872 
4.265042e+3, 3.039253e+2, -39972.184, -84731.6, 1.5332235, 0.00014930232, 0.00017543155, -39972.184, -39972.184, 0.0, 10.000733, 9.941833 
4.265042e+3, 3.13869e+2, -38899.203, -82494.266, 0.38449606, 0.00014763074, -0.00005663421, -38899.203, -38899.203, 0.0, 10.00073, 9.943344 
4.2750433e+3, 1.2499851e+2, -1719000.9, -1724183.1, 0.15623814, 0.00015974148, 0.000059652455, -1719000.9, -3986.0671, 0.0, 10.000796, 9.993926 
4.2750433e+3, 1.349923e+2, -1621632.4, -1627403.0, -2.3200145, 0.00015909204, -0.00011348796, -1621632.4, -4556.649, 0.0, 10.000792, 9.993142 
4.2750433e+3, 1.4497955e+2, -1533497.8, -1548040.6, -0.014610748, 0.00015828005, 0.00015050065, -1533497.8, -14297.257, 0.0, 10.000787, 9.981513 
4.2750433e+3, 1.5496105e+2, -1435781.4, -1450724.3, -1.839459, 0.00015729816, -0.000038571074, -1435781.4, -14399.509, 0.0, 10.000783, 9.980981 
4.275043e+3, 1.6493593e+2, -1347744.6, -1371870.9, 0.3477361, 0.00015660764, 0.00004454152, -1347744.6, -24116.531, 0.0, 10.000778, 9.968891 
4.275043e+3, 1.7490487e+2, -1249796.5, -1274235.9, -2.363766, 0.00015621271, -0.00005706701, -1249796.5, -23864.047, 0.0, 10.000774, 9.968477 
4.275043e+3, 1.8486717e+2, -1161719.4, -1195643.8, -0.3562494, 0.00015611232, 0.0000882402, -1161719.4, -33417.547, 0.0, 10.0007715, 9.956043 
4.275043e+3, 1.9482324e+2, -1063579.0, -1097763.4, -2.360705, 0.00015631839, -0.00004512366, -1063579.0, -32846.71, 0.0, 10.000768, 9.955701 
4.275043e+3, 2.0477267e+2, -975423.7, -1019372.25, -0.10053507, 0.00015575907, 0.00007648894, -975423.7, -42195.637, 0.0, 10.000764, 9.942939 
4.275043e+3, 2.1471563e+2, -877147.06, -921354.44, -2.4295595, 0.00015437129, -0.00011665394, -877147.06, -41360.19, 0.0, 10.00076, 9.942597 
4.275043e+3, 2.2465192e+2, -788868.2, -843094.75, -0.048844956, 0.00015361559, 0.0001319203, -788868.2, -50456.902, 0.0, 10.000757, 9.929557 
4.275043e+3, 2.3458154e+2, -690442.0, -744922.0, -2.4011798, 0.00015357464, -0.00007792905, -690442.0, -49341.008, 0.0, 10.000754, 9.929226 
4.2750424e+3, 2.4450421e+2, -602121.94, -666973.6, -0.71365356, 0.00015329754, 0.000083900006, -602121.94, -58263.184, 0.0, 10.0007515, 9.91579 
4.2750424e+3, 2.5442013e+2, -503379.44, -568305.0, -2.6340148, 0.00015273737, -0.000101092715, -503379.44, -56696.617, 0.0, 10.000748, 9.915689 
4.2750424e+3, 2.6432896e+2, -415155.03, -490962.6, -0.021863092, 0.00015181562, 0.00014442857, -415155.03, -65578.69, 0.0, 10.000744, 9.901614 
4.2750424e+3, 2.742311e+2, -315877.34, -391355.53, -2.2297883, 0.00015043403, -0.00019920677, -315877.34, -63342.227, 0.0, 10.000742, 9.902034 
4.2750424e+3, 2.8412506e+2, -229409.73, -318066.75, -0.4001845, 0.00015004011, 0.0002334627, -229409.73, -73835.234, 0.0, 10.000739, 9.885088 
4.2750424e+3, 2.940112e+2, -129711.72, -217756.44, -2.1010666, 0.00015099994, -0.00024906502, -129711.72, -71021.36, 0.0, 10.000736, 9.885867 
4.2750424e+3, 3.0392528e+2, -39975.313, -84738.195, 0.17168161, 0.00015135322, 0.00017652308, -39975.313, -39975.313, 0.0, 10.000733, 9.941828 
4.2750424e+3, 3.13869e+2, -38902.242, -82500.69, -1.0145719, 0.0001507928, -0.000053755128, -38902.242, -38902.242, 0.0, 10.00073, 9.94334 
4.2850444e+3, 1.2499862e+2, -1718963.6, -1724169.8, 1.8324176, 0.00016202815, 0.000060438328, -1718963.6, -3949.9736, 0.0, 10.000822, 9.99392 
4.2850444e+3, 1.349924e+2, -1621595.9, -1627390.1, -0.009443929, 0.0001610649, -0.00011188073, -1621595.9, -4521.1494, 0.0, 10.000817, 9.993136 
4.285044e+3, 1.4497966e+2, -1533461.8, -1548029.1, 2.1224575, 0.00016018783, 0.00015198906, -1533461.8, -14262.222, 0.0, 10.000813, 9.981506 
4.285044e+3, 1.5496114e+2, -1435744.5, -1450712.4, -1.0189565, 0.00015939181, -0.000038587204, -1435744.5, -14363.452, 0.0, 10.000809, 9.980974 
4.285044e+3, 1.64936e+2, -1347707.4, -1371858.5, 0.972975, 0.00015877097, 0.000044274246, -1347707.4, -24080.037, 0.0, 10.000805, 9.968884 
4.285044e+3, 1.7490494e+2, -1249760.1, -1274224.0, -0.9791336, 0.00015832676, -0.000056304252, -1249760.1, -23828.467, 0.0, 10.000801, 9.968471 
4.285044e+3, 1.8486725e+2, -1161683.9, -1195632.6, 1.210645, 0.00015808966, 0.00008920937, -1161683.9, -33382.746, 0.0, 10.000797, 9.9560375 
4.285044e+3, 1.9482332e+2, -1063544.0, -1097752.6, -1.5289894, 0.00015806775, -0.000044808057, -1063544.0, -32812.387, 0.0, 10.000793, 9.955694 
4.2850435e+3, 2.0477273e+2, -975388.2, -1019360.8, 0.3808529, 0.00015755594, 0.00007657248, -975388.2, -42160.742, 0.0, 10.00079, 9.942933 
4.2850435e+3, 2.1471569e+2, -877110.7, -921342.6, -1.6741997, 0.0001565136, -0.000116345116, -877110.7, -41324.37, 0.0, 10.000787, 9.942592 
4.2850435e+3, 2.2465196e+2, -788832.5, -843083.0, 1.4247811, 0.0001557866, 0.00013227019, -788832.5, -50421.707, 0.0, 10.000783, 9.929551 
4.2850435e+3, 2.3458157e+2, -690409.44, -744911.94, -0.19066867, 0.000155416, -0.000077746394, -690409.44, -49308.895, 0.0, 10.000778, 9.92922 
4.2850435e+3, 2.4450426e+2, -602090.44, -666965.2, 1.5267764, 0.0001551712, 0.000083959196, -602090.44, -58232.043, 0.0, 10.000775, 9.915783 
4.2850435e+3, 2.5442016e+2, -503345.06, -568295.25, -1.219304, 0.00015507585, -0.00010110409, -503345.06, -56662.527, 0.0, 10.000773, 9.915683 
4.2850435e+3, 2.64329e+2, -415119.72, -490951.72, 1.1859983, 0.00015434602, 0.00014459674, -415119.72, -65543.61, 0.0, 10.000771, 9.901608 
4.2850435e+3, 2.7423114e+2, -315844.88, -391346.13, -0.46438563, 0.00015280806, -0.00019854045, -315844.88, -63309.93, 0.0, 10.000767, 9.902028 
4.2850435e+3, 2.8412506e+2, -229379.11, -318058.22, 1.6077393, 0.00015223157, 0.00023430101, -229379.11, -73804.71, 0.0, 10.000763, 9.885082 
4.2850435e+3, 2.940112e+2, -129681.82, -217748.38, -0.4059669, 0.00015297454, -0.00024850262, -129681.82, -70991.51, 0.0, 10.000759, 9.885861 
4.2850435e+3, 3.0392528e+2, -39944.977, -84730.08, 1.3016672, 0.00015336194, 0.00017679337, -39944.977, -39944.977, 0.0, 10.000757, 9.941822 
4.2850435e+3, 3.13869e+2, -38869.195, -82491.26, -0.9882576, 0.00015320876, -0.000053796557, -38869.195, -38869.195, 0.0, 10.000755, 9.943334 
4.2950454e+3, 1.2499873e+2, -1718967.9, -1724177.8, 0.061307933, 0.00016410042, 0.000060575927, -1718967.9, -3955.2898, 0.0, 10.000822, 9.993916 
4.2950448e+3, 1.3499251e+2, -1621600.0, -1627398.0, -1.7859722, 0.00016261834, -0.000113172, -1621600.0, -4526.3613, 0.0, 10.000817, 9.993132 
4.2950448e+3, 1.4497975e+2, -1533468.9, -1548042.5, 0.6861573, 0.00016194259, 0.00015060036, -1533468.9, -14270.26, 0.0, 10.000813, 9.981498 
4.2950448e+3, 1.5496123e+2, -1435751.5, -1450725.6, -2.4483025, 0.00016207201, -0.00003898109, -1435751.5, -14371.335, 0.0, 10.000809, 9.980967 
4.2950448e+3, 1.649361e+2, -1347711.6, -1371866.8, -0.58811325, 0.00016167348, 0.000044310756, -1347711.6, -24085.191, 0.0, 10.000805, 9.96888 
4.2950448e+3, 1.7490503e+2, -1249764.4, -1274232.3, -2.5440135, 0.0001607357, -0.000056408626, -1249764.4, -23833.51, 0.0, 10.000801, 9.968466 
4.2950445e+3, 1.8486731e+2, -1161689.9, -1195644.3, -0.15909733, 0.00015990029, 0.000089148794, -1161689.9, -33389.426, 0.0, 10.000797, 9.95603 
4.2950445e+3, 1.9482338e+2, -1063549.9, -1097764.1, -2.8930516, 0.00015917076, -0.000044631288, -1063549.9, -32818.94, 0.0, 10.000793, 9.955687 
4.2950445e+3, 2.0477279e+2, -975392.7, -1019369.7, -0.91806304, 0.00015889925, 0.00007769021, -975392.7, -42165.832, 0.0, 10.00079, 9.942927 
4.2950445e+3, 2.1471575e+2, -877115.1, -921351.4, -2.972119, 0.00015912268, -0.00011352421, -877115.1, -41329.34, 0.0, 10.000787, 9.942586 
4.2950445e+3, 2.2465202e+2, -788836.1, -843090.25, -0.1296041, 0.00015871832, 0.00013470103, -788836.1, -50425.84, 0.0, 10.000783, 9.929546 
4.2950445e+3, 2.3458162e+2, -690413.0, -744919.06, -1.759101, 0.00015760322, -0.00007807337, -690413.0, -49312.89, 0.0, 10.000779, 9.929215 
4.2950445e+3, 2.4450429e+2, -602096.2, -666976.8, 0.6711079, 0.00015693104, 0.00008282084, -602096.2, -58238.164, 0.0, 10.000775, 9.915775 
4.2950445e+3, 2.544202e+2, -503350.84, -568307.0, -2.0357218, 0.00015678805, -0.00010072705, -503350.84, -56668.625, 0.0, 10.000773, 9.915675 
4.2950445e+3, 2.6432902e+2, -415123.7, -490959.78, -0.30181634, 0.00015644294, 0.00014594456, -415123.7, -65547.805, 0.0, 10.000771, 9.901603 
4.295044e+3, 2.7423114e+2, -315848.63, -391353.9, -1.9991232, 0.00015583898, -0.00019691986, -315848.63, -63313.9, 0.0, 10.000767, 9.902023 
4.295044e+3, 2.841251e+2, -229383.55, -318067.47, 0.359473, 0.00015549261, 0.00023579459, -229383.55, -73809.31, 0.0, 10.000763, 9.8850765 
4.295044e+3, 2.940112e+2, -129686.26, -217757.67, -1.628614, 0.00015549977, -0.00024767994, -129686.26, -70996.04, 0.0, 10.000759, 9.885855 
4.295044e+3, 3.0392528e+2, -39950.035, -84740.695, 0.5620226, 0.00015532934, 0.00017625646, -39950.035, -39950.035, 0.0, 10.000757, 9.941814 
4.295044e+3, 3.13869e+2, -38874.34, -82502.05, -1.6694058, 0.00015489198, -0.00005670955, -38874.34, -38874.34, 0.0, 10.000755, 9.943327 
4.305046e+3, 1.24998845e+2, -1718930.4, -1724165.0, 1.9836661, 0.00016621452, 0.00006170599, -1718930.4, -3918.9192, 0.0, 10.000849, 9.993909 
4.305046e+3, 1.3499261e+2, -1621561.4, -1627384.9, -0.99325085, 0.00016482988, -0.000113427464, -1621561.4, -4488.7983, 0.0, 10.000844, 9.993125 
4.305046e+3, 1.4497986e+2, -1533430.4, -1548029.9, 1.5997012, 0.000164181, 0.0001502013, -1533430.4, -14232.79, 0.0, 10.00084, 9.981491 
4.305046e+3, 1.5496132e+2, -1435714.0, -1450713.6, -0.3423504, 0.00016426573, -0.000038338887, -1435714.0, -14334.82, 0.0, 10.000836, 9.98096 
4.3050453e+3, 1.6493618e+2, -1347674.3, -1371854.4, 1.7186683, 0.0001638315, 0.00004509175, -1347674.3, -24048.676, 0.0, 10.000832, 9.968873 
4.3050453e+3, 1.749051e+2, -1249726.9, -1274219.9, -1.0618669, 0.00016286792, -0.000056406378, -1249726.9, -23796.848, 0.0, 10.000828, 9.968459 
4.3050453e+3, 1.848674e+2, -1161652.9, -1195632.4, 1.2859737, 0.00016197318, 0.000089163295, -1161652.9, -33353.258, 0.0, 10.000824, 9.956023 
4.3050453e+3, 1.9482346e+2, -1063514.0, -1097753.0, -0.79048353, 0.00016114928, -0.000043777345, -1063514.0, -32783.78, 0.0, 10.00082, 9.95568 
4.3050453e+3, 2.0477284e+2, -975357.0, -1019358.0, 1.60126, 0.0001608869, 0.000078808036, -975357.0, -42130.824, 0.0, 10.000815, 9.942922 
4.3050453e+3, 2.1471581e+2, -877079.94, -921340.0, -0.58460045, 0.00016123148, -0.00011276438, -877079.94, -41294.77, 0.0, 10.000813, 9.94258 
4.305045e+3, 2.2465207e+2, -788801.06, -843079.75, 1.5264579, 0.0001610108, 0.00013507523, -788801.06, -50391.28, 0.0, 10.000809, 9.92954 
4.305045e+3, 2.3458168e+2, -690376.56, -744908.0, -1.4722749, 0.00016015003, -0.000078115634, -690376.56, -49276.918, 0.0, 10.000806, 9.929209 
4.305045e+3, 2.4450433e+2, -602060.56, -666965.94, 0.7891293, 0.00015937215, 0.00008283748, -602060.56, -58202.93, 0.0, 10.000802, 9.91577 
4.305045e+3, 2.5442022e+2, -503319.03, -568298.2, -0.843646, 0.00015869358, -0.00010008353, -503319.03, -56637.16, 0.0, 10.000797, 9.915669 
4.305045e+3, 2.6432905e+2, -415092.56, -490950.84, 1.3579328, 0.00015841174, 0.00014680548, -415092.56, -65516.99, 0.0, 10.000793, 9.901597 
4.305045e+3, 2.7423117e+2, -315815.25, -391343.88, -0.7826437, 0.00015863408, -0.0001963636, -315815.25, -63280.74, 0.0, 10.000792, 9.902018 
4.305045e+3, 2.841251e+2, -229348.98, -318057.63, 1.3552755, 0.00015860399, 0.00023616831, -229348.98, -73774.92, 0.0, 10.000789, 9.88507 
4.305045e+3, 2.940112e+2, -129651.21, -217747.75, -0.7500855, 0.00015822572, -0.0002473193, -129651.21, -70961.11, 0.0, 10.000786, 9.885848 
4.305045e+3, 3.039253e+2, -39916.457, -84732.11, 1.5221889, 0.00015759128, 0.00017652329, -39916.457, -39916.457, 0.0, 10.000783, 9.941808 
4.305045e+3, 3.13869e+2, -38843.797, -82495.0, -0.37989613, 0.00015657989, -0.00005665776, -38843.797, -38843.797, 0.0, 10.000779, 9.94332 
4.315047e+3, 1.2499898e+2, -1718937.1, -1724177.9, 0.5198341, 0.00016836976, 0.00006392825, -1718937.1, -3926.955, 0.0, 10.000849, 9.993901 
4.315047e+3, 1.3499273e+2, -1621568.1, -1627397.6, -2.4531388, 0.00016768865, -0.00011266652, -1621568.1, -4496.6694, 0.0, 10.000845, 9.993117 
4.315047e+3, 1.4497997e+2, -1533434.6, -1548038.1, -0.020555789, 0.00016689366, 0.00015077328, -1533434.6, -14238.191, 0.0, 10.00084, 9.981486 
4.3150464e+3, 1.5496142e+2, -1435718.3, -1450721.9, -1.9672337, 0.00016598089, -0.00003667777, -1435718.3, -14340.135, 0.0, 10.000836, 9.980954 
4.3150464e+3, 1.6493627e+2, -1347680.4, -1371866.1, 0.21742114, 0.00016525801, 0.00004660537, -1347680.4, -24055.76, 0.0, 10.000832, 9.968865 
4.3150464e+3, 1.749052e+2, -1249733.0, -1274231.6, -2.5594814, 0.00016472852, -0.00005629921, -1249733.0, -23803.781, 0.0, 10.000828, 9.968452 
4.3150464e+3, 1.8486747e+2, -1161657.5, -1195641.3, -0.2903439, 0.00016430406, 0.00008925125, -1161657.5, -33358.617, 0.0, 10.000824, 9.9560175 
4.3150464e+3, 1.9482353e+2, -1063518.5, -1097761.8, -2.369833, 0.00016398817, -0.000042258074, -1063518.5, -32789.027, 0.0, 10.00082, 9.955675 
4.3150458e+3, 2.0477292e+2, -975361.75, -1019367.3, 0.21539384, 0.00016350778, 0.00007992643, -975361.75, -42136.266, 0.0, 10.000816, 9.942915 
4.3150458e+3, 2.1471587e+2, -877084.6, -921349.3, -1.9683881, 0.000162849, -0.00011402859, -877084.6, -41300.086, 0.0, 10.000813, 9.9425745 
4.3150458e+3, 2.2465213e+2, -788807.44, -843092.44, 0.3398816, 0.00016267563, 0.00013342944, -788807.44, -50398.223, 0.0, 10.000809, 9.929532 
4.3150458e+3, 2.3458172e+2, -690382.94, -744920.75, -2.6452389, 0.00016305082, -0.00007787874, -690382.94, -49283.77, 0.0, 10.000806, 9.929201 
4.3150458e+3, 2.4450438e+2, -602064.3, -666973.6, -0.91258, 0.00016248327, 0.00008398813, -602064.3, -58207.156, 0.0, 10.000802, 9.915765 
4.3150458e+3, 2.5442025e+2, -503322.66, -568305.56, -2.5761588, 0.00016078913, -0.000099177974, -503322.66, -56641.164, 0.0, 10.000797, 9.915665 
4.3150458e+3, 2.6432908e+2, -415097.2, -490960.3, 0.3932055, 0.00016025458, 0.00014718859, -415097.2, -65521.93, 0.0, 10.000793, 9.901591 
4.3150458e+3, 2.742312e+2, -315819.88, -391353.4, -1.6955559, 0.00016119787, -0.00019685287, -315819.88, -63285.63, 0.0, 10.000792, 9.902011 
4.3150458e+3, 2.8412512e+2, -229353.73, -318067.44, 0.32758048, 0.00016156893, 0.00023544165, -229353.73, -73779.85, 0.0, 10.000789, 9.885063 
4.3150458e+3, 2.9401124e+2, -129655.9, -217757.55, -1.7866728, 0.00016114963, -0.00024741268, -129655.9, -70965.93, 0.0, 10.000786, 9.885842 
4.3150458e+3, 3.039253e+2, -39920.996, -84741.64, 0.10480409, 0.00016014316, 0.00017757974, -39920.996, -39920.996, 0.0, 10.000783, 9.941801 
4.3150458e+3, 3.13869e+2, -38848.316, -82504.5, -1.8417273, 0.00015827242, -0.00005369287, -38848.316, -38848.316, 0.0, 10.000779, 9.943314 
4.3250477e+3, 1.249991e+2, -1718897.1, -1724164.5, 2.0260594, 0.00017075917, 0.00006437982, -1718897.1, -3888.184, 0.0, 10.000876, 9.993895 
4.3250477e+3, 1.3499284e+2, -1621528.9, -1627384.6, -0.21040685, 0.00017001273, -0.00011140405, -1621528.9, -4458.595, 0.0, 10.000873, 9.993111 
4.3250474e+3, 1.4498009e+2, -1533395.8, -1548025.0, 1.9487123, 0.00016915014, 0.00015193994, -1533395.8, -14200.379, 0.0, 10.000868, 9.98148 
4.3250474e+3, 1.5496153e+2, -1435680.1, -1450709.1, -0.97753793, 0.00016816799, -0.000036516638, -1435680.1, -14303.035, 0.0, 10.000863, 9.9809475 
4.3250474e+3, 1.649364e+2, -1347642.9, -1371854.1, 1.1631997, 0.00016740893, 0.000046617453, -1347642.9, -24019.275, 0.0, 10.000859, 9.968859 
4.3250474e+3, 1.7490529e+2, -1249695.9, -1274219.9, -1.0548064, 0.00016687733, -0.000055562003, -1249695.9, -23767.643, 0.0, 10.0008545, 9.968446 
4.3250468e+3, 1.8486758e+2, -1161620.1, -1195629.1, 1.2526798, 0.00016658653, 0.00009024784, -1161620.1, -33322.156, 0.0, 10.000851, 9.956012 
4.3250468e+3, 1.9482361e+2, -1063481.0, -1097749.6, -1.3488096, 0.00016654634, -0.000041487896, -1063481.0, -32752.248, 0.0, 10.000847, 9.955668 
4.3250468e+3, 2.04773e+2, -975324.44, -1019355.7, 0.85305184, 0.00016610126, 0.00008035277, -975324.44, -42099.7, 0.0, 10.000843, 9.942909 
4.3250468e+3, 2.1471594e+2, -877047.75, -921338.0, -1.8069905, 0.00016521775, -0.000114072674, -877047.75, -41263.895, 0.0, 10.000839, 9.942568 
4.3250468e+3, 2.2465219e+2, -788771.4, -843081.25, 0.97343516, 0.00016484676, 0.00013355933, -788771.4, -50362.77, 0.0, 10.000835, 9.929525 
4.3250468e+3, 2.3458178e+2, -690348.8, -744910.56, -0.50260776, 0.00016505514, -0.00007684562, -690348.8, -49250.164, 0.0, 10.000832, 9.929194 
4.3250468e+3, 2.4450442e+2, -602030.3, -666963.9, 1.4768741, 0.0001646857, 0.000085222426, -602030.3, -58173.605, 0.0, 10.000828, 9.915758 
4.3250462e+3, 2.544203e+2, -503286.4, -568294.8, -1.3994288, 0.00016362531, -0.00009858123, -503286.4, -56605.348, 0.0, 10.000825, 9.915658 
4.3250462e+3, 2.643291e+2, -415060.44, -490949.22, 1.1624521, 0.00016326766, 0.00014745235, -415060.44, -65485.535, 0.0, 10.000821, 9.901585 
4.3250462e+3, 2.7423123e+2, -315785.06, -391343.38, -0.9271439, 0.00016380554, -0.00019653249, -315785.06, -63251.113, 0.0, 10.000818, 9.902004 
4.3250462e+3, 2.8412515e+2, -229320.16, -318057.9, 1.2381997, 0.00016384304, 0.00023575641, -229320.16, -73746.51, 0.0, 10.000814, 9.885057 
4.3250462e+3, 2.9401127e+2, -129623.06, -217748.44, -0.58742946, 0.00016319114, -0.00024719065, -129623.06, -70933.266, 0.0, 10.000812, 9.885836 
4.3250462e+3, 3.039253e+2, -39888.117, -84732.88, 1.4034213, 0.0001622369, 0.00017789344, -39888.117, -39888.117, 0.0, 10.000809, 9.941795 
4.3250462e+3, 3.13869e+2, -38813.28, -82494.734, -0.5139561, 0.00016084062, -0.000053012714, -38813.28, -38813.28, 0.0, 10.000806, 9.943307 
4.3350488e+3, 1.2499923e+2, -1718902.3, -1724174.1, 0.43652987, 0.00017337922, 0.00006309508, -1718902.3, -3894.5605, 0.0, 10.000876, 9.993888 
4.3350482e+3, 1.3499299e+2, -1621533.9, -1627394.3, -1.8016611, 0.00017181276, -0.0001096483, -1621533.9, -4464.887, 0.0, 10.000873, 9.993105 
4.3350482e+3, 1.4498019e+2, -1533402.4, -1548037.5, 0.19016828, 0.00017095922, 0.00015369077, -1533402.4, -14208.109, 0.0, 10.000868, 9.981472 
4.3350482e+3, 1.5496165e+2, -1435686.6, -1450721.6, -2.734168, 0.00017081872, -0.000037828107, -1435686.6, -14310.586, 0.0, 10.000863, 9.98094 
4.3350482e+3, 1.6493648e+2, -1347647.8, -1371863.5, -0.38099685, 0.00017027126, 0.000045155186, -1347647.8, -24025.158, 0.0, 10.000859, 9.968853 
4.335048e+3, 1.7490539e+2, -1249700.8, -1274229.3, -2.5996158, 0.00016930929, -0.00005420632, -1249700.8, -23773.428, 0.0, 10.0008545, 9.968439 
4.335048e+3, 1.8486767e+2, -1161625.8, -1195640.1, -0.21464513, 0.00016882183, 0.00009213652, -1161625.8, -33328.715, 0.0, 10.000851, 9.956004 
4.335048e+3, 1.948237e+2, -1063486.5, -1097760.5, -2.8150496, 0.00016882931, -0.00004145296, -1063486.5, -32758.664, 0.0, 10.000847, 9.955662 
4.335048e+3, 2.0477307e+2, -975330.2, -1019367.0, -0.58161026, 0.0001686683, 0.000080099606, -975330.2, -42106.195, 0.0, 10.000843, 9.942902 
4.335048e+3, 2.14716e+2, -877053.44, -921349.25, -3.2383094, 0.00016832452, -0.000112919566, -877053.44, -41270.26, 0.0, 10.000839, 9.942561 
4.335048e+3, 2.2465225e+2, -788774.75, -843088.0, -0.6214808, 0.00016751538, 0.00013543208, -788774.75, -50366.777, 0.0, 10.000835, 9.929522 
4.3350473e+3, 2.3458184e+2, -690352.06, -744917.2, -2.1102948, 0.00016617944, -0.00007503008, -690352.06, -49254.016, 0.0, 10.000832, 9.929191 
4.3350473e+3, 2.4450448e+2, -602036.3, -666975.94, 0.3193399, 0.0001659962, 0.00008653976, -602036.3, -58180.133, 0.0, 10.000828, 9.9157505 
4.3350473e+3, 2.5442034e+2, -503292.47, -568307.06, -2.5312295, 0.00016718925, -0.000098287645, -503292.47, -56611.836, 0.0, 10.000825, 9.91565 
4.3350473e+3, 2.6432914e+2, -415065.22, -490959.06, -0.17768194, 0.00016743036, 0.00014759853, -415065.22, -65490.703, 0.0, 10.000821, 9.901578 
4.3350473e+3, 2.7423126e+2, -315789.72, -391353.0, -2.2800198, 0.00016645677, -0.00019541726, -315789.72, -63256.086, 0.0, 10.000818, 9.9019985 
4.3350473e+3, 2.8412515e+2, -229324.38, -318066.7, 0.04679579, 0.00016543912, 0.00023709376, -229324.38, -73750.99, 0.0, 10.000814, 9.885052 
4.3350473e+3, 2.9401127e+2, -129627.195, -217757.1, -1.7666326, 0.00016436644, -0.00024665875, -129627.195, -70937.586, 0.0, 10.000812, 9.88583 
4.3350473e+3, 3.0392534e+2, -39892.527, -84742.164, 0.4788391, 0.00016388106, 0.00017747807, -39892.527, -39892.527, 0.0, 10.000809, 9.941789 
4.3350473e+3, 3.13869e+2, -38817.734, -82504.1, -1.409287, 0.00016426924, -0.000054575736, -38817.734, -38817.734, 0.0, 10.000806, 9.9433 
4.3450493e+3, 1.2499937e+2, -1718861.5, -1724159.8, 2.2931778, 0.0001756779, 0.00006365665, -1718861.5, -3855.1545, 0.0, 10.000905, 9.993882 
4.3450493e+3, 1.349931e+2, -1621494.4, -1627380.6, -0.31171983, 0.00017398407, -0.000109342356, -1621494.4, -4426.623, 0.0, 10.0009, 9.993098 
4.3450493e+3, 1.4498031e+2, -1533363.6, -1548025.3, 1.75124, 0.00017319476, 0.00015398837, -1533363.6, -14170.656, 0.0, 10.0008955, 9.981464 
4.3450493e+3, 1.5496176e+2, -1435647.3, -1450709.1, -0.79331845, 0.00017331107, -0.000037289912, -1435647.3, -14272.353, 0.0, 10.000892, 9.980933 
4.345049e+3, 1.6493659e+2, -1347607.8, -1371849.8, 1.6137713, 0.00017289782, 0.000045686123, -1347607.8, -23986.14, 0.0, 10.000888, 9.968847 
4.345049e+3, 1.749055e+2, -1249661.5, -1274216.1, -0.9560021, 0.00017194518, -0.000053934793, -1249661.5, -23735.2, 0.0, 10.000883, 9.968433 
4.345049e+3, 1.8486775e+2, -1161587.6, -1195628.3, 1.4002376, 0.00017139495, 0.00009235577, -1161587.6, -33291.426, 0.0, 10.000879, 9.955997 
4.345049e+3, 1.9482379e+2, -1063448.6, -1097748.9, -1.2032058, 0.00017126447, -0.000041069077, -1063448.6, -32721.59, 0.0, 10.0008745, 9.955654 
4.345049e+3, 2.0477314e+2, -975292.5, -1019355.06, 1.2353181, 0.00017105024, 0.00008076431, -975292.5, -42069.246, 0.0, 10.000871, 9.942895 
4.3450484e+3, 2.1471608e+2, -877016.7, -921337.94, -0.90131456, 0.00017074493, -0.00011184805, -877016.7, -41234.19, 0.0, 10.000867, 9.942554 
4.3450484e+3, 2.2465234e+2, -788738.0, -843076.6, 1.2746532, 0.00016995573, 0.00013633542, -788738.0, -50330.695, 0.0, 10.000862, 9.929515 
4.3450484e+3, 2.345819e+2, -690314.7, -744905.56, -1.814196, 0.00016861879, -0.00007494495, -690314.7, -49217.28, 0.0, 10.000859, 9.929184 
4.3450484e+3, 2.4450453e+2, -601999.3, -666965.25, 0.40772274, 0.00016846445, 0.00008644289, -601999.3, -58143.684, 0.0, 10.000855, 9.915743 
4.3450484e+3, 2.544204e+2, -503256.16, -568296.9, -1.6428255, 0.0001697222, -0.00009780619, -503256.16, -56575.996, 0.0, 10.000852, 9.915643 
4.3450484e+3, 2.6432917e+2, -415028.66, -490947.75, 1.0989623, 0.00016989221, 0.00014841593, -415028.66, -65454.55, 0.0, 10.000849, 9.901572 
4.3450484e+3, 2.7423128e+2, -315753.44, -391341.88, -0.764286, 0.00016867454, -0.00019457392, -315753.44, -63220.15, 0.0, 10.000845, 9.901992 
4.3450484e+3, 2.8412518e+2, -229288.5, -318056.34, 1.6865909, 0.00016759115, 0.0002378753, -229288.5, -73715.41, 0.0, 10.000842, 9.885045 
4.3450484e+3, 2.940113e+2, -129591.36, -217746.92, -0.6508995, 0.00016669757, -0.0002460576, -129591.36, -70901.984, 0.0, 10.000838, 9.885823 
4.3450484e+3, 3.0392534e+2, -39857.336, -84732.62, 1.3033433, 0.00016630872, 0.00017769744, -39857.332, -39857.332, 0.0, 10.000835, 9.941782 
4.3450484e+3, 3.13869e+2, -38783.2, -82494.9, -0.8184022, 0.00016666851, -0.00005503552, -38783.2, -38783.2, 0.0, 10.000833, 9.943294 
4.3550503e+3, 1.2499951e+2, -1718867.5, -1724171.0, 0.47030255, 0.00017766164, 0.00006602876, -1718867.5, -3862.5007, 0.0, 10.000905, 9.993875 
4.3550503e+3, 1.3499324e+2, -1621500.3, -1627391.8, -2.135255, 0.00017651972, -0.00011045875, -1621500.3, -4433.8066, 0.0, 10.0009, 9.993092 
4.3550503e+3, 1.4498046e+2, -1533369.4, -1548036.1, 0.20771241, 0.00017584895, 0.00015286074, -1533369.4, -14177.574, 0.0, 10.0008955, 9.981458 
4.3550503e+3, 1.5496188e+2, -1435652.9, -1450720.0, -2.3367507, 0.00017564857, -0.00003493702, -1435652.9, -14279.17, 0.0, 10.000892, 9.9809265 
4.3550497e+3, 1.649367e+2, -1347613.4, -1371860.6, -0.084652945, 0.00017529362, 0.0000481724, -1347613.4, -23992.924, 0.0, 10.000888, 9.96884 
4.3550497e+3, 1.749056e+2, -1249667.1, -1274226.9, -2.6560268, 0.00017478151, -0.000054726475, -1249667.1, -23741.82, 0.0, 10.000883, 9.968427 
4.3550497e+3, 1.8486786e+2, -1161593.3, -1195639.3, -0.08830939, 0.00017429983, 0.000090937574, -1161593.3, -33298.05, 0.0, 10.000879, 9.955991 
4.3550497e+3, 1.9482388e+2, -1063454.3, -1097759.9, -2.6882603, 0.00017384936, -0.000040342842, -1063454.3, -32728.098, 0.0, 10.0008745, 9.955647 
4.3550494e+3, 2.0477323e+2, -975297.1, -1019364.3, -0.3803534, 0.000173251, 0.00008232956, -975297.1, -42074.754, 0.0, 10.000871, 9.942889 
4.3550494e+3, 2.1471617e+2, -877021.25, -921347.0, -2.5227365, 0.00017249225, -0.00011085586, -877021.25, -41239.563, 0.0, 10.000867, 9.942549 
4.3550494e+3, 2.246524e+2, -788744.56, -843089.7, -0.14223854, 0.0001721725, 0.00013628828, -788744.56, -50337.957, 0.0, 10.000862, 9.929506 
4.3550494e+3, 2.3458198e+2, -690321.25, -744918.7, -3.2196987, 0.00017234888, -0.000076558004, -690321.25, -49224.426, 0.0, 10.000859, 9.929175 
4.3550494e+3, 2.4450459e+2, -602003.94, -666974.6, -0.838356, 0.00017206915, 0.000084957785, -602003.94, -58148.832, 0.0, 10.000855, 9.915737 
4.3550494e+3, 2.5442046e+2, -503260.63, -568306.0, -2.8830638, 0.00017124403, -0.00009714038, -503260.63, -56580.96, 0.0, 10.000852, 9.915637 
4.3550494e+3, 2.6432922e+2, -415032.9, -490956.47, -0.27354026, 0.0001706856, 0.00014989228, -415032.9, -65459.24, 0.0, 10.000849, 9.9015665 
4.3550488e+3, 2.7423134e+2, -315757.6, -391350.5, -2.1475697, 0.00017046744, -0.00019399708, -315757.6, -63224.703, 0.0, 10.000845, 9.901986 
4.3550488e+3, 2.8412524e+2, -229293.64, -318067.03, 0.5369743, 0.00017028912, 0.00023811166, -229293.64, -73720.87, 0.0, 10.000842, 9.885038 
4.3550488e+3, 2.9401132e+2, -129596.516, -217757.72, -1.7771753, 0.00017016336, -0.00024538857, -129596.516, -70907.4, 0.0, 10.000838, 9.885817 
4.3550488e+3, 3.0392537e+2, -39862.27, -84742.984, 0.23862901, 0.00016950564, 0.00017853954, -39862.27, -39862.27, 0.0, 10.000835, 9.941775 
4.3550488e+3, 3.1386903e+2, -38788.117, -82505.23, -1.8759167, 0.00016805803, -0.00005441282, -38788.117, -38788.117, 0.0, 10.0008335, 9.943287 
4.3650514e+3, 1.2499966e+2, -1718826.3, -1724157.1, 2.0862286, 0.00017974741, 0.00006670587, -1718826.3, -3822.6191, 0.0, 10.000935, 9.993868 
4.3650514e+3, 1.3499337e+2, -1621458.6, -1627377.9, -0.7111501, 0.0001791497, -0.00011007634, -1621458.6, -4393.4873, 0.0, 10.00093, 9.993084 
4.3650514e+3, 1.4498058e+2, -1533327.8, -1548022.0, 1.6015097, 0.00017857242, 0.00015318819, -1533327.8, -14137.2705, 0.0, 10.000925, 9.981451 
4.3650508e+3, 1.54962e+2, -1435612.6, -1450706.5, -1.0005915, 0.00017801291, -0.000034423712, -1435612.6, -14240.059, 0.0, 10.00092, 9.980919 
4.3650508e+3, 1.6493683e+2, -1347573.6, -1371848.0, 1.183411, 0.00017762688, 0.0000486738, -1347573.6, -23954.309, 0.0, 10.0009165, 9.968833 
4.3650508e+3, 1.7490572e+2, -1249626.9, -1274214.0, -1.5872258, 0.00017741816, -0.000054438435, -1249626.9, -23702.656, 0.0, 10.000912, 9.968419 
4.3650508e+3, 1.8486795e+2, -1161553.0, -1195626.0, 0.9798956, 0.00017696555, 0.000091334456, -1161553.0, -33258.848, 0.0, 10.000908, 9.955984 
4.3650502e+3, 1.9482398e+2, -1063415.4, -1097747.5, -1.4132715, 0.00017625756, -0.000039500086, -1063415.4, -32690.16, 0.0, 10.000903, 9.955641 
4.3650502e+3, 2.0477334e+2, -975258.6, -1019352.1, 0.7944578, 0.00017557025, 0.0000830344, -975258.6, -42037.113, 0.0, 10.000899, 9.942883 
4.3650502e+3, 2.1471624e+2, -876982.2, -921334.7, -1.9965374, 0.00017490501, -0.00011092026, -876982.2, -41201.297, 0.0, 10.0008955, 9.942541 
4.3650502e+3, 2.2465247e+2, -788705.6, -843078.1, 0.5917554, 0.00017469724, 0.00013611147, -788705.6, -50299.742, 0.0, 10.000892, 9.9295 
4.3650502e+3, 2.3458204e+2, -690282.44, -744907.3, -1.576439, 0.00017500641, -0.000076104014, -690282.44, -49186.27, 0.0, 10.000888, 9.929168 
4.3650502e+3, 2.4450466e+2, -601965.2, -666962.5, 1.1151499, 0.0001745964, 0.00008582365, -601965.2, -58110.727, 0.0, 10.000884, 9.91573 
4.36505e+3, 2.544205e+2, -503223.5, -568294.75, -1.3024789, 0.00017332683, -0.000096124444, -503223.5, -56544.37, 0.0, 10.00088, 9.91563 
4.36505e+3, 2.6432928e+2, -414996.2, -490945.34, 1.0478004, 0.00017260892, 0.00015062299, -414996.2, -65422.992, 0.0, 10.000876, 9.90156 
4.36505e+3, 2.7423137e+2, -315720.22, -391339.13, -1.2674645, 0.00017259459, -0.00019410478, -315720.22, -63187.727, 0.0, 10.000873, 9.90198 
4.36505e+3, 2.8412527e+2, -229256.19, -318056.06, 1.4510696, 0.0001725891, 0.0002376981, -229256.19, -73683.76, 0.0, 10.00087, 9.885032 
4.36505e+3, 2.9401135e+2, -129559.43, -217747.1, -0.44145605, 0.00017259199, -0.0002453767, -129559.43, -70870.59, 0.0, 10.000867, 9.88581 
4.36505e+3, 3.039254e+2, -39825.91, -84733.27, 1.8573424, 0.00017195266, 0.00017897708, -39825.906, -39825.906, 0.0, 10.000864, 9.941768 
4.36505e+3, 3.1386903e+2, -38751.766, -82495.57, -0.28428632, 0.00017036007, -0.000053556094, -38751.766, -38751.766, 0.0, 10.000861, 9.94328 
4.3750522e+3, 1.249998e+2, -1718832.6, -1724169.1, 0.40063444, 0.00018193375, 0.00006572185, -1718832.6, -3830.4653, 0.0, 10.000935, 9.99386 
4.3750522e+3, 1.3499351e+2, -1621465.0, -1627389.9, -2.3950248, 0.0001818728, -0.000108224885, -1621465.0, -4401.2124, 0.0, 10.00093, 9.993076 
4.3750522e+3, 1.4498071e+2, -1533333.6, -1548033.0, -0.18379977, 0.00018136426, 0.00015494152, -1533333.6, -14144.415, 0.0, 10.000925, 9.981444 
4.375052e+3, 1.5496212e+2, -1435618.4, -1450717.5, -2.788224, 0.00018040385, -0.000035713474, -1435618.4, -14247.044, 0.0, 10.00092, 9.980912 
4.375052e+3, 1.6493693e+2, -1347579.6, -1371859.8, -0.34835526, 0.00017989922, 0.000047229893, -1347579.6, -23961.564, 0.0, 10.0009165, 9.968825 
4.375052e+3, 1.7490582e+2, -1249632.9, -1274225.8, -3.115433, 0.00017985962, -0.00005309211, -1249632.9, -23709.795, 0.0, 10.000913, 9.968411 
4.375052e+3, 1.8486805e+2, -1161558.3, -1195636.3, -0.7677568, 0.00017939735, 0.000093510316, -1161558.3, -33265.12, 0.0, 10.000908, 9.955977 
4.3750513e+3, 1.9482408e+2, -1063420.5, -1097757.6, -3.1659565, 0.00017849292, -0.00003854293, -1063420.5, -32696.287, 0.0, 10.000903, 9.955634 
4.3750513e+3, 2.0477343e+2, -975264.6, -1019364.0, -0.6394579, 0.00017800604, 0.000082895865, -975264.6, -42044.01, 0.0, 10.000899, 9.942875 
4.3750513e+3, 2.1471635e+2, -876988.1, -921346.5, -3.4229846, 0.00017797067, -0.00011202091, -876988.1, -41208.06, 0.0, 10.0008955, 9.942534 
4.3750513e+3, 2.2465256e+2, -788710.4, -843087.7, -0.7891691, 0.0001775244, 0.00013580725, -788710.4, -50305.273, 0.0, 10.000892, 9.929493 
4.3750513e+3, 2.3458211e+2, -690287.06, -744916.75, -2.9575791, 0.0001766129, -0.000073622985, -690287.06, -49191.668, 0.0, 10.000888, 9.929162 
4.3750507e+3, 2.4450472e+2, -601970.44, -666973.1, -0.466452, 0.00017606776, 0.00008899512, -601970.44, -58116.64, 0.0, 10.000884, 9.915724 
4.3750507e+3, 2.5442055e+2, -503228.7, -568305.3, -2.893448, 0.00017596004, -0.0000947651, -503228.7, -56550.152, 0.0, 10.00088, 9.915624 
4.3750507e+3, 2.643293e+2, -415001.28, -490955.8, -0.13806789, 0.00017564047, 0.0001506225, -415001.28, -65428.6, 0.0, 10.000876, 9.901553 
4.3750507e+3, 2.742314e+2, -315725.25, -391349.53, -2.4268909, 0.00017505, -0.0001948838, -315725.25, -63193.2, 0.0, 10.000874, 9.901974 
4.3750507e+3, 2.841253e+2, -229260.66, -318065.38, 0.28720394, 0.00017449936, 0.00023664723, -229260.66, -73688.6, 0.0, 10.00087, 9.885025 
4.3750507e+3, 2.9401138e+2, -129563.8, -217756.27, -1.6070821, 0.00017400408, -0.00024600892, -129563.8, -70875.28, 0.0, 10.000867, 9.885804 
4.3750507e+3, 3.0392542e+2, -39830.83, -84743.61, 0.79124075, 0.00017366484, 0.00017901824, -39830.83, -39830.83, 0.0, 10.000864, 9.941761 
4.3750507e+3, 3.1386906e+2, -38756.758, -82506.055, -1.3364768, 0.00017355742, -0.00005246979, -38756.758, -38756.758, 0.0, 10.000861, 9.943273 
4.3850532e+3, 1.24999955e+2, -1718789.3, -1724154.1, 2.2446277, 0.00018466156, 0.000066164735, -1718789.3, -3788.6458, 0.0, 10.000965, 9.993854 
4.3850532e+3, 1.3499367e+2, -1621422.5, -1627375.4, -0.2675106, 0.00018417518, -0.00010748843, -1621422.5, -4360.189, 0.0, 10.00096, 9.99307 
4.3850526e+3, 1.4498085e+2, -1533291.8, -1548019.5, 1.9072183, 0.00018361908, 0.00015569112, -1533291.8, -14103.906, 0.0, 10.000956, 9.981437 
4.3850526e+3, 1.5496227e+2, -1435576.1, -1450703.9, -1.1614069, 0.0001829904, -0.000035232304, -1435576.1, -14206.092, 0.0, 10.000951, 9.980905 
4.3850526e+3, 1.6493708e+2, -1347537.3, -1371845.3, 1.3179911, 0.00018251831, 0.000047674177, -1347537.3, -23920.352, 0.0, 10.000946, 9.968819 
4.3850526e+3, 1.7490594e+2, -1249591.8, -1274212.0, -1.0104346, 0.00018220641, -0.000052448573, -1249591.8, -23669.877, 0.0, 10.000941, 9.968405 
4.3850523e+3, 1.8486819e+2, -1161517.8, -1195623.4, 1.3477964, 0.00018169795, 0.000094162875, -1161517.8, -33225.703, 0.0, 10.000937, 9.955971 
4.3850523e+3, 1.9482417e+2, -1063379.3, -1097744.4, -1.5653436, 0.00018098358, -0.000038080005, -1063379.3, -32656.092, 0.0, 10.000934, 9.955627 
4.3850523e+3, 2.0477352e+2, -975223.5, -1019351.25, 0.9183863, 0.00018058572, 0.000083198414, -975223.5, -42003.875, 0.0, 10.000929, 9.942867 
4.3850523e+3, 2.1471642e+2, -876947.8, -921334.3, -1.7037609, 0.00018053003, -0.0001118469, -876947.8, -41168.625, 0.0, 10.000925, 9.942527 
4.3850523e+3, 2.2465263e+2, -788670.44, -843074.9, 0.8423192, 0.0001799232, 0.00013604968, -788670.44, -50266.113, 0.0, 10.000921, 9.929486 
4.3850517e+3, 2.3458219e+2, -690248.4, -744904.6, -1.671453, 0.00017869259, -0.00007308928, -690248.4, -49153.723, 0.0, 10.0009165, 9.929155 
4.3850517e+3, 2.445048e+2, -601932.06, -666961.7, 0.75553405, 0.00017813724, 0.00008954284, -601932.06, -58078.926, 0.0, 10.000913, 9.915717 
4.3850517e+3, 2.5442064e+2, -503188.97, -568293.4, -1.6690348, 0.0001783883, -0.00009453445, -503188.97, -56511.043, 0.0, 10.00091, 9.915617 
4.3850517e+3, 2.6432937e+2, -414961.38, -490944.0, 1.1267694, 0.0001781905, 0.00015075709, -414961.38, -65389.21, 0.0, 10.000906, 9.9015465 
4.3850517e+3, 2.7423146e+2, -315686.44, -391338.4, -1.3343757, 0.00017741935, -0.00019456321, -315686.44, -63154.85, 0.0, 10.000902, 9.901966 
4.3850517e+3, 2.8412533e+2, -229222.39, -318054.0, 1.1606303, 0.00017676, 0.00023696457, -229222.39, -73650.74, 0.0, 10.000899, 9.885019 
4.3850517e+3, 2.940114e+2, -129526.484, -217745.39, -1.0480033, 0.00017625584, -0.00024595522, -129526.484, -70838.3, 0.0, 10.0008955, 9.8857975 
4.3850517e+3, 3.0392542e+2, -39794.332, -84733.34, 1.50298, 0.00017590233, 0.00017903376, -39794.332, -39794.332, 0.0, 10.000892, 9.941754 
4.3850517e+3, 3.138691e+2, -38720.125, -82495.73, -0.21843494, 0.00017577183, -0.000052154952, -38720.125, -38720.125, 0.0, 10.00089, 9.943266 
4.3950543e+3, 1.2500012e+2, -1718795.0, -1724165.0, 0.40891165, 0.00018792013, 0.00006800488, -1718795.0, -3795.9421, 0.0, 10.000965, 9.993847 
4.3950543e+3, 1.3499382e+2, -1621428.1, -1627386.1, -2.1059341, 0.00018606598, -0.000107843414, -1621428.1, -4367.341, 0.0, 10.00096, 9.993063 
4.3950537e+3, 1.44981e+2, -1533298.6, -1548032.6, 0.25531912, 0.00018534844, 0.00015545834, -1533298.6, -14112.183, 0.0, 10.000956, 9.981428 
4.3950537e+3, 1.549624e+2, -1435582.9, -1450716.9, -2.8100095, 0.00018576917, -0.000033016564, -1435582.9, -14214.228, 0.0, 10.000951, 9.980897 
4.3950537e+3, 1.649372e+2, -1347542.4, -1371855.1, -0.48393634, 0.00018547759, 0.00004996771, -1347542.4, -23926.748, 0.0, 10.000947, 9.968813 
4.3950537e+3, 1.7490606e+2, -1249596.9, -1274221.9, -2.8175864, 0.00018446082, -0.000052493007, -1249596.9, -23676.13, 0.0, 10.000942, 9.968399 
4.395053e+3, 1.8486829e+2, -1161524.0, -1195635.6, -0.18880829, 0.00018387043, 0.00009332386, -1161524.0, -33233.14, 0.0, 10.000937, 9.955962 
4.395053e+3, 1.9482428e+2, -1063385.5, -1097756.8, -3.096459, 0.00018372493, -0.000038101145, -1063385.5, -32663.4, 0.0, 10.000934, 9.95562 
4.395053e+3, 2.0477362e+2, -975229.2, -1019362.5, -0.6446149, 0.0001833069, 0.00008393304, -975229.2, -42010.55, 0.0, 10.000929, 9.942861 
4.395053e+3, 2.1471652e+2, -876953.44, -921345.44, -3.2675405, 0.00018259388, -0.00011042369, -876953.44, -41175.156, 0.0, 10.000925, 9.942519 
4.3950528e+3, 2.2465272e+2, -788675.9, -843085.75, -0.80350935, 0.00018190278, 0.00013682806, -788675.9, -50272.41, 0.0, 10.000921, 9.92948 
4.3950528e+3, 2.3458226e+2, -690253.75, -744915.44, -3.3203177, 0.00018123623, -0.00007446351, -690253.75, -49159.86, 0.0, 10.0009165, 9.929149 
4.3950528e+3, 2.4450487e+2, -601937.3, -666972.4, -0.46445078, 0.00018079313, 0.00008751978, -601937.3, -58084.895, 0.0, 10.000913, 9.9157095 
4.3950528e+3, 2.544207e+2, -503194.2, -568303.94, -2.8693082, 0.00018061638, -0.00009540957, -503194.2, -56516.89, 0.0, 10.00091, 9.91561 
4.3950528e+3, 2.6432943e+2, -414966.8, -490955.16, -0.24469732, 0.00018026942, 0.00015102423, -414966.8, -65395.23, 0.0, 10.000906, 9.901539 
4.3950528e+3, 2.7423152e+2, -315691.8, -391349.53, -2.7146611, 0.00017970496, -0.00019316503, -315691.8, -63160.746, 0.0, 10.000902, 9.901959 
4.3950528e+3, 2.841254e+2, -229227.45, -318064.53, -0.19478232, 0.00017936439, 0.00023862252, -229227.45, -73656.234, 0.0, 10.000899, 9.885012 
4.3950522e+3, 2.9401144e+2, -129531.44, -217755.78, -2.4020138, 0.00017933077, -0.00024522963, -129531.44, -70843.625, 0.0, 10.0008955, 9.88579 
4.3950522e+3, 3.0392545e+2, -39798.652, -84742.445, 0.4561784, 0.00017865497, 0.000179024, -39798.652, -39798.652, 0.0, 10.000893, 9.941749 
4.3950522e+3, 3.138691e+2, -38724.383, -82504.695, -1.2335352, 0.0001770235, -0.00005259581, -38724.383, -38724.383, 0.0, 10.00089, 9.94326 
4.405055e+3, 1.2500028e+2, -1718750.6, -1724149.8, 1.9806995, 0.00019048108, 0.000068713256, -1718750.6, -3753.138, 0.0, 10.000997, 9.993839 
4.405055e+3, 1.3499397e+2, -1621383.9, -1627371.1, -1.0894251, 0.00018862958, -0.00010778904, -1621383.9, -4324.605, 0.0, 10.000992, 9.993055 
4.4050547e+3, 1.4498115e+2, -1533254.6, -1548017.8, 1.400104, 0.00018784801, 0.00015558465, -1533254.6, -14069.671, 0.0, 10.000987, 9.9814205 
4.4050547e+3, 1.5496254e+2, -1435539.5, -1450702.5, -1.1241443, 0.00018813778, -0.00003208952, -1435539.5, -14172.258, 0.0, 10.000982, 9.980889 
4.4050547e+3, 1.6493733e+2, -1347499.1, -1371840.9, 0.99521756, 0.00018784757, 0.000050907493, -1347499.1, -23884.84, 0.0, 10.0009775, 9.968805 
4.4050547e+3, 1.749062e+2, -1249553.5, -1274207.6, -2.1926417, 0.00018696696, -0.000052343483, -1249553.5, -23634.025, 0.0, 10.000973, 9.968391 
4.4050542e+3, 1.8486841e+2, -1161480.9, -1195621.5, 0.37524313, 0.00018641933, 0.000093224335, -1161480.9, -33191.145, 0.0, 10.000969, 9.9559555 
4.4050542e+3, 1.948244e+2, -1063343.3, -1097743.1, -2.0945702, 0.00018621904, -0.000037884256, -1063343.3, -32622.164, 0.0, 10.000964, 9.955612 
4.4050542e+3, 2.0477372e+2, -975187.6, -1019349.3, 0.5480037, 0.00018568487, 0.00008439676, -975187.6, -41969.957, 0.0, 10.000959, 9.942853 
4.4050542e+3, 2.1471661e+2, -876912.56, -921332.75, -2.1128347, 0.00018478936, -0.000109788394, -876912.56, -41135.246, 0.0, 10.000956, 9.9425125 
4.405054e+3, 2.2465281e+2, -788635.0, -843073.06, 0.3705101, 0.00018416734, 0.00013737027, -788635.0, -50232.434, 0.0, 10.000951, 9.929472 
4.405054e+3, 2.3458235e+2, -690212.3, -744902.6, -2.2505684, 0.00018385437, -0.000074313604, -690212.3, -49119.207, 0.0, 10.000947, 9.929141 
4.405054e+3, 2.4450494e+2, -601896.25, -666959.9, 0.62728214, 0.00018345234, 0.00008751214, -601896.25, -58044.56, 0.0, 10.000943, 9.915703 
4.405054e+3, 2.5442076e+2, -503154.75, -568292.44, -1.9529788, 0.00018294336, -0.00009529405, -503154.75, -56478.137, 0.0, 10.000939, 9.915603 
4.405054e+3, 2.643295e+2, -414927.84, -490943.4, 0.82432675, 0.00018248102, 0.0001512924, -414927.84, -65356.867, 0.0, 10.000936, 9.901532 
4.405054e+3, 2.742316e+2, -315652.72, -391337.78, -1.1660545, 0.00018207791, -0.00019270722, -315652.72, -63122.188, 0.0, 10.000932, 9.901953 
4.4050533e+3, 2.8412542e+2, -229188.39, -318053.38, 1.6070625, 0.0001818366, 0.00023925447, -229188.39, -73617.66, 0.0, 10.000929, 9.885005 
4.4050533e+3, 2.940115e+2, -129492.18, -217744.69, -0.7709287, 0.00018181598, -0.00024444496, -129492.18, -70804.766, 0.0, 10.000925, 9.885783 
4.4050533e+3, 3.039255e+2, -39760.02, -84731.96, 1.7173717, 0.00018117277, 0.00017964501, -39760.02, -39760.02, 0.0, 10.000922, 9.941741 
4.4050533e+3, 3.1386912e+2, -38686.75, -82494.72, -0.8809448, 0.0001796038, -0.00005260779, -38686.75, -38686.75, 0.0, 10.000918, 9.943253 
4.415056e+3, 1.2500045e+2, -1718757.6, -1724163.0, 0.16513951, 0.00019236005, 0.00006831459, -1718757.6, -3761.7944, 0.0, 10.000997, 9.993831 
4.415056e+3, 1.3499412e+2, -1621390.9, -1627384.3, -2.9021952, 0.00019185216, -0.00010733436, -1621390.9, -4333.1016, 0.0, 10.000992, 9.993048 
4.4150558e+3, 1.449813e+2, -1533260.3, -1548028.5, -0.33624637, 0.0001911018, 0.00015606196, -1533260.3, -14076.786, 0.0, 10.000987, 9.981414 
4.4150558e+3, 1.5496269e+2, -1435545.1, -1450713.3, -2.863905, 0.0001901055, -0.000032423326, -1435545.1, -14179.242, 0.0, 10.000982, 9.980883 
4.4150558e+3, 1.6493747e+2, -1347506.1, -1371854.4, -0.7245411, 0.00018964139, 0.000050522834, -1347506.1, -23893.184, 0.0, 10.0009775, 9.968797 
4.4150558e+3, 1.7490633e+2, -1249560.5, -1274221.0, -3.9082863, 0.00018972011, -0.000052004394, -1249560.5, -23642.213, 0.0, 10.000973, 9.968383 
4.4150552e+3, 1.8486853e+2, -1161486.3, -1195632.0, -1.2941546, 0.00018933721, 0.000093848124, -1161486.3, -33197.72, 0.0, 10.000969, 9.955949 
4.4150552e+3, 1.948245e+2, -1063348.5, -1097753.5, -3.7664838, 0.00018847163, -0.000037434274, -1063348.5, -32628.6, 0.0, 10.000964, 9.9556055 
4.4150552e+3, 2.0477383e+2, -975193.3, -1019360.6, -1.142765, 0.00018772736, 0.00008459552, -975193.3, -41976.754, 0.0, 10.000959, 9.942846 
4.4150552e+3, 2.1471672e+2, -876918.25, -921344.06, -3.8040345, 0.00018711416, -0.00010992447, -876918.25, -41141.906, 0.0, 10.000956, 9.942505 
4.4150546e+3, 2.246529e+2, -788640.6, -843084.4, -1.0777419, 0.00018671135, 0.00013768124, -788640.6, -50239.004, 0.0, 10.000951, 9.929465 
4.4150546e+3, 2.3458242e+2, -690217.9, -744913.9, -3.6910365, 0.00018654607, -0.00007267135, -690217.9, -49125.65, 0.0, 10.000947, 9.929134 
4.4150546e+3, 2.4450502e+2, -601901.9, -666971.25, -0.9231657, 0.00018611547, 0.00008947783, -601901.9, -58050.98, 0.0, 10.000943, 9.915695 
4.4150546e+3, 2.5442085e+2, -503160.3, -568303.75, -3.5081284, 0.00018536762, -0.00009420872, -503160.3, -56484.41, 0.0, 10.000939, 9.915595 
4.4150546e+3, 2.6432955e+2, -414932.4, -490952.8, -0.48706472, 0.00018482284, 0.0001515615, -414932.4, -65362.07, 0.0, 10.000936, 9.901526 
4.4150543e+3, 2.7423164e+2, -315657.2, -391347.0, -2.465529, 0.00018453682, -0.00019316994, -315657.2, -63127.21, 0.0, 10.000932, 9.901946 
4.4150543e+3, 2.8412548e+2, -229193.69, -318064.38, 0.36068344, 0.00018417995, 0.0002388822, -229193.69, -73623.45, 0.0, 10.000929, 9.884997 
4.4150543e+3, 2.9401153e+2, -129497.48, -217755.78, -2.0106254, 0.00018372438, -0.000243602, -129497.48, -70810.5, 0.0, 10.000925, 9.885776 
4.4150543e+3, 3.0392554e+2, -39765.934, -84744.375, 0.45260894, 0.00018346125, 0.00018088393, -39765.934, -39765.934, 0.0, 10.000922, 9.941732 
4.4150543e+3, 3.1386915e+2, -38692.74, -82507.3, -2.1452796, 0.00018348546, -0.000052200125, -38692.74, -38692.74, 0.0, 10.000918, 9.943244 
4.4250572e+3, 1.2500061e+2, -1718712.3, -1724147.5, 1.8485516, 0.00019488923, 0.00006885778, -1718712.3, -3718.155, 0.0, 10.001028, 9.993823 
4.4250572e+3, 1.349943e+2, -1621344.9, -1627368.5, -0.7854323, 0.00019445621, -0.000106487874, -1621344.9, -4288.733, 0.0, 10.001024, 9.99304 
4.4250566e+3, 1.4498146e+2, -1533214.5, -1548013.0, 1.5440296, 0.00019369258, 0.0001568201, -1533214.5, -14032.518, 0.0, 10.0010195, 9.981406 
4.4250566e+3, 1.5496284e+2, -1435500.4, -1450698.4, -1.6388006, 0.0001925943, -0.00003214664, -1435500.4, -14136.026, 0.0, 10.001014, 9.980875 
4.4250566e+3, 1.649376e+2, -1347461.9, -1371839.8, 0.6793907, 0.00019209673, 0.000050838917, -1347461.9, -23850.336, 0.0, 10.001009, 9.968789 
4.4250566e+3, 1.7490645e+2, -1249516.1, -1274206.6, -1.8128068, 0.00019221185, -0.000051118233, -1249516.1, -23599.242, 0.0, 10.001005, 9.968375 
4.4250563e+3, 1.8486865e+2, -1161442.3, -1195617.6, 0.81964165, 0.00019179069, 0.00009480162, -1161442.3, -33154.918, 0.0, 10.001, 9.955941 
4.4250563e+3, 1.9482464e+2, -1063305.4, -1097739.6, -2.209452, 0.00019080886, -0.000036938523, -1063305.4, -32586.648, 0.0, 10.000996, 9.955598 
4.4250563e+3, 2.0477395e+2, -975150.6, -1019347.0, 0.19700475, 0.00019011235, 0.00008487025, -975150.6, -41935.117, 0.0, 10.000991, 9.942839 
4.4250563e+3, 2.147168e+2, -876875.56, -921330.56, -2.501495, 0.0001897243, -0.00010961472, -876875.56, -41100.29, 0.0, 10.000986, 9.942498 
4.4250557e+3, 2.24653e+2, -788598.4, -843071.25, 0.3633025, 0.00018936623, 0.00013800936, -788598.4, -50197.66, 0.0, 10.000982, 9.929458 
4.4250557e+3, 2.3458251e+2, -690176.3, -744901.2, -2.2783458, 0.0001890416, -0.00007234377, -690176.3, -49084.95, 0.0, 10.000978, 9.929127 
4.4250557e+3, 2.4450509e+2, -601860.7, -666958.9, 0.46642652, 0.00018858518, 0.00008994455, -601860.7, -58010.594, 0.0, 10.000974, 9.915688 
4.4250557e+3, 2.544209e+2, -503119.28, -568291.56, -2.0508204, 0.00018797109, -0.0000934361, -503119.28, -56444.12, 0.0, 10.00097, 9.915588 
4.4250557e+3, 2.643296e+2, -414891.72, -490940.75, 0.8002805, 0.00018746796, 0.00015219195, -414891.72, -65322.047, 0.0, 10.000966, 9.901519 
4.425055e+3, 2.742317e+2, -315617.38, -391335.5, -2.0147977, 0.00018710605, -0.00019325198, -315617.38, -63088.02, 0.0, 10.000962, 9.901939 
4.425055e+3, 2.8412554e+2, -229154.31, -318052.94, 0.5785026, 0.00018667935, 0.00023851743, -229154.31, -73584.6, 0.0, 10.000958, 9.884991 
4.425055e+3, 2.940116e+2, -129458.36, -217744.58, -1.4920813, 0.00018616271, -0.00024365881, -129458.36, -70771.84, 0.0, 10.000956, 9.885769 
4.425055e+3, 3.0392557e+2, -39727.156, -84734.18, 1.5113796, 0.00018599462, 0.0001813161, -39727.156, -39727.156, 0.0, 10.000952, 9.941725 
4.425055e+3, 3.1386918e+2, -38652.67, -82496.56, -0.4509406, 0.00018634557, -0.000051015635, -38652.67, -38652.67, 0.0, 10.00095, 9.943236 
4.4350582e+3, 1.250008e+2, -1718718.3, -1724158.9, 0.2449067, 0.00019805453, 0.00007032163, -1718718.3, -3725.8884, 0.0, 10.001028, 9.993816 
4.4350582e+3, 1.3499446e+2, -1621350.8, -1627379.8, -2.3917775, 0.00019645617, -0.00010525775, -1621350.8, -4296.341, 0.0, 10.001024, 9.993032 
4.4350582e+3, 1.4498161e+2, -1533221.6, -1548026.5, -0.40607014, 0.00019563579, 0.00015785344, -1533221.6, -14041.224, 0.0, 10.0010195, 9.981399 
4.4350576e+3, 1.54963e+2, -1435507.5, -1450711.9, -3.5870078, 0.00019559325, -0.00003127313, -1435507.5, -14144.558, 0.0, 10.001014, 9.980866 
4.4350576e+3, 1.6493776e+2, -1347467.4, -1371850.4, -0.9704093, 0.00019519943, 0.000051840078, -1347467.4, -23857.23, 0.0, 10.001009, 9.968782 
4.4350576e+3, 1.749066e+2, -1249521.5, -1274217.1, -3.4647102, 0.00019444851, -0.00004969648, -1249521.5, -23606.016, 0.0, 10.001005, 9.968369 
4.435057e+3, 1.8486878e+2, -1161448.8, -1195630.4, -1.0219623, 0.00019379065, 0.00009607825, -1161448.8, -33162.78, 0.0, 10.001, 9.955934 
4.435057e+3, 1.9482476e+2, -1063311.9, -1097752.4, -4.051428, 0.00019322943, -0.000036397898, -1063311.9, -32594.357, 0.0, 10.000996, 9.95559 
4.435057e+3, 2.0477407e+2, -975156.44, -1019358.5, -1.4640617, 0.00019283284, 0.00008521923, -975156.44, -41942.086, 0.0, 10.000991, 9.942831 
4.435057e+3, 2.1471694e+2, -876881.3, -921342.0, -4.1601963, 0.00019261414, -0.00010886862, -876881.3, -41107.11, 0.0, 10.000986, 9.942491 
4.4350567e+3, 2.2465311e+2, -788604.06, -843082.7, -1.2027322, 0.0001921301, 0.0001383545, -788604.06, -50204.375, 0.0, 10.000982, 9.92945 
4.4350567e+3, 2.3458262e+2, -690181.94, -744912.56, -3.8414655, 0.00019134574, -0.000073302195, -690181.94, -49091.516, 0.0, 10.000978, 9.929119 
4.4350567e+3, 2.4450518e+2, -601866.2, -666970.0, -1.0766269, 0.0001908662, 0.00008894497, -601866.2, -58016.938, 0.0, 10.000974, 9.915681 
4.4350567e+3, 2.54421e+2, -503124.72, -568302.6, -3.593121, 0.00019075046, -0.00009296904, -503124.72, -56450.324, 0.0, 10.00097, 9.915581 
4.4350567e+3, 2.643297e+2, -414897.84, -490953.3, -0.6745173, 0.00019041038, 0.00015317621, -414897.84, -65328.883, 0.0, 10.000966, 9.90151 
4.4350561e+3, 2.742318e+2, -315623.47, -391348.1, -3.482728, 0.00018978376, -0.00019296173, -315623.47, -63094.74, 0.0, 10.000962, 9.901931 
4.4350561e+3, 2.841256e+2, -229159.2, -318063.16, -0.6844585, 0.0001893319, 0.00023815964, -229159.2, -73590.04, 0.0, 10.000958, 9.884984 
4.4350561e+3, 2.9401162e+2, -129463.086, -217754.5, -2.7392743, 0.00018911996, -0.00024459622, -129463.086, -70777.05, 0.0, 10.000956, 9.885762 
4.4350561e+3, 3.0392563e+2, -39731.965, -84744.305, 0.56038636, 0.00018876804, 0.00018095897, -39731.965, -39731.965, 0.0, 10.000953, 9.941718 
4.4350561e+3, 3.138692e+2, -38657.508, -82506.73, -1.3679867, 0.00018820685, -0.000049070582, -38657.508, -38657.508, 0.0, 10.00095, 9.94323 
4.445059e+3, 1.2500098e+2, -1718670.1, -1724141.9, 2.2017424, 0.00020085838, 0.000071171366, -1718670.1, -3679.518, 0.0, 10.001062, 9.993809 
4.445059e+3, 1.3499464e+2, -1621304.5, -1627364.0, -0.9543815, 0.00019895996, -0.00010513189, -1621304.5, -4251.783, 0.0, 10.001057, 9.993025 
4.445059e+3, 1.4498179e+2, -1533176.0, -1548011.5, 0.9317366, 0.00019812386, 0.00015794902, -1533176.0, -13997.248, 0.0, 10.001052, 9.98139 
4.4450587e+3, 1.5496315e+2, -1435460.9, -1450696.5, -1.9180825, 0.00019835093, -0.000030511866, -1435460.9, -14099.598, 0.0, 10.001047, 9.980859 
4.4450587e+3, 1.6493791e+2, -1347420.6, -1371834.4, 0.5698821, 0.00019794899, 0.000052632662, -1347420.6, -23812.006, 0.0, 10.001042, 9.968775 
4.4450587e+3, 1.7490675e+2, -1249476.4, -1274202.0, -2.5490365, 0.00019690699, -0.00004951873, -1249476.4, -23562.258, 0.0, 10.001038, 9.968362 
4.445058e+3, 1.8486893e+2, -1161404.5, -1195616.3, -0.27135015, 0.00019620502, 0.00009614184, -1161404.5, -33119.813, 0.0, 10.001033, 9.955925 
4.445058e+3, 1.9482489e+2, -1063267.4, -1097738.3, -3.0334039, 0.0001958576, -0.000035925616, -1063267.4, -32551.14, 0.0, 10.001028, 9.955583 
4.445058e+3, 2.0477419e+2, -975111.94, -1019344.44, -0.30522186, 0.00019555553, 0.000085795844, -975111.94, -41898.754, 0.0, 10.001023, 9.942823 
4.445058e+3, 2.1471705e+2, -876837.2, -921328.2, -3.244462, 0.00019530233, -0.000108516746, -876837.2, -41064.09, 0.0, 10.001019, 9.942483 
4.4450575e+3, 2.2465321e+2, -788560.5, -843069.0, -0.4520615, 0.00019476643, 0.00013864053, -788560.5, -50161.848, 0.0, 10.001015, 9.929443 
4.4450575e+3, 2.3458272e+2, -690139.7, -744899.6, -3.1428018, 0.00019391056, -0.0000729023, -690139.7, -49050.203, 0.0, 10.001009, 9.9291115 
4.4450575e+3, 2.4450529e+2, -601824.4, -666957.3, -0.23285083, 0.00019343896, 0.00008931386, -601824.4, -57976.01, 0.0, 10.001005, 9.915673 
4.4450575e+3, 2.5442106e+2, -503082.78, -568289.94, -2.7960374, 0.00019342602, -0.000092804155, -503082.78, -56409.184, 0.0, 10.001001, 9.915573 
4.4450575e+3, 2.6432976e+2, -414856.25, -490941.44, 0.27667555, 0.00019315718, 0.00015341805, -414856.25, -65288.004, 0.0, 10.000998, 9.901503 
4.4450572e+3, 2.7423185e+2, -315582.25, -391336.53, -2.1428127, 0.00019256142, -0.00019228515, -315582.25, -63054.156, 0.0, 10.000994, 9.901923 
4.4450572e+3, 2.841257e+2, -229117.88, -318051.1, 0.8808742, 0.00019212867, 0.00023887808, -229117.88, -73549.3, 0.0, 10.00099, 9.884976 
4.4450572e+3, 2.9401168e+2, -129422.13, -217742.7, -1.6499149, 0.00019191997, -0.00024437523, -129422.13, -70736.61, 0.0, 10.000986, 9.885755 
4.4450572e+3, 3.0392566e+2, -39692.098, -84733.08, 1.3776761, 0.00019143007, 0.0001809581, -39692.098, -39692.098, 0.0, 10.000983, 9.94171 
4.4450572e+3, 3.1386927e+2, -38619.184, -82496.24, -0.7501176, 0.0001905215, -0.000048878694, -38619.184, -38619.184, 0.0, 10.000979, 9.943222 
4.4550607e+3, 1.2500116e+2, -1718677.4, -1724155.5, 0.21154252, 0.00020331005, 0.000071421586, -1718677.4, -3688.5518, 0.0, 10.001062, 9.9938 
4.45506e+3, 1.349948e+2, -1621311.6, -1627377.5, -2.943428, 0.0002019565, -0.000106085055, -1621311.6, -4260.637, 0.0, 10.001057, 9.993016 
4.45506e+3, 1.4498195e+2, -1533182.4, -1548023.6, -0.7436463, 0.00020114469, 0.00015712826, -1533182.4, -14005.254, 0.0, 10.001052, 9.981382 
4.45506e+3, 1.5496331e+2, -1435467.3, -1450708.6, -3.5941803, 0.0002008736, -0.000029859808, -1435467.3, -14107.477, 0.0, 10.001047, 9.980851 
4.4550595e+3, 1.6493806e+2, -1347427.5, -1371847.6, -1.3883989, 0.0002003543, 0.000053221815, -1347427.5, -23820.37, 0.0, 10.001042, 9.968767 
4.4550595e+3, 1.749069e+2, -1249483.1, -1274215.1, -4.5076156, 0.00019958284, -0.00005055688, -1249483.1, -23570.445, 0.0, 10.001038, 9.968353 
4.4550595e+3, 1.8486907e+2, -1161410.5, -1195628.0, -2.0108688, 0.00019902484, 0.000095019706, -1161410.5, -33127.15, 0.0, 10.001033, 9.955918 
4.4550592e+3, 1.9482501e+2, -1063273.4, -1097749.9, -4.7718143, 0.00019868926, -0.000035519948, -1063273.4, -32558.338, 0.0, 10.001028, 9.955575 
4.4550592e+3, 2.047743e+2, -975118.25, -1019356.94, -1.9981102, 0.00019828102, 0.00008659517, -975118.25, -41906.297, 0.0, 10.001023, 9.942816 
4.4550592e+3, 2.1471716e+2, -876843.5, -921340.6, -4.935637, 0.00019779413, -0.00010855021, -876843.5, -41071.484, 0.0, 10.001019, 9.942474 
4.4550586e+3, 2.2465332e+2, -788566.4, -843080.7, -2.2675183, 0.0001972787, 0.00013886874, -788566.4, -50168.74, 0.0, 10.001015, 9.929436 
4.4550586e+3, 2.3458283e+2, -690145.44, -744911.25, -4.9621263, 0.00019673073, -0.00007117458, -690145.44, -49056.94, 0.0, 10.00101, 9.929105 
4.4550586e+3, 2.4450538e+2, -601830.0, -666968.7, -1.6925594, 0.0001962974, 0.000091020454, -601830.0, -57982.53, 0.0, 10.001005, 9.915666 
4.4550586e+3, 2.5442114e+2, -503088.3, -568301.25, -4.240661, 0.00019600065, -0.00009293478, -503088.3, -56415.543, 0.0, 10.001001, 9.915566 
4.4550586e+3, 2.6432985e+2, -414861.66, -490952.53, -1.218221, 0.0001957133, 0.0001529341, -414861.66, -65294.176, 0.0, 10.000998, 9.901496 
4.455058e+3, 2.742319e+2, -315587.56, -391347.56, -3.6410537, 0.00019543733, -0.00019123056, -315587.56, -63060.188, 0.0, 10.000994, 9.901916 
4.455058e+3, 2.8412575e+2, -229123.6, -318062.97, -0.42440408, 0.00019506698, 0.00024064913, -229123.6, -73555.64, 0.0, 10.00099, 9.884969 
4.455058e+3, 2.9401174e+2, -129427.805, -217754.6, -2.936751, 0.00019456692, -0.00024302151, -129427.805, -70742.82, 0.0, 10.000986, 9.885747 
4.455058e+3, 3.0392572e+2, -39697.35, -84744.14, 0.06490043, 0.00019398383, 0.00018130551, -39697.35, -39697.35, 0.0, 10.000983, 9.941704 
4.455058e+3, 3.138693e+2, -38624.4, -82507.23, -2.067734, 0.00019327969, -0.000050401046, -38624.4, -38624.4, 0.0, 10.000979, 9.943215 
4.4650614e+3, 1.2500136e+2, -1718629.0, -1724139.1, 1.769393, 0.00020592024, 0.00007192647, -1718629.0, -3642.0208, 0.0, 10.001096, 9.993792 
4.465061e+3, 1.34995e+2, -1621262.6, -1627360.9, -1.2687753, 0.00020486132, -0.000105727704, -1621262.6, -4213.3823, 0.0, 10.001092, 9.993009 
4.465061e+3, 1.4498213e+2, -1533133.4, -1548006.8, 0.9221652, 0.00020404655, 0.00015748052, -1533133.4, -13958.074, 0.0, 10.001086, 9.981375 
4.465061e+3, 1.5496348e+2, -1435420.1, -1450692.8, -2.1323702, 0.00020347373, -0.00002936973, -1435420.1, -14061.988, 0.0, 10.001081, 9.980844 
4.4650605e+3, 1.6493821e+2, -1347381.3, -1371832.6, 0.011273679, 0.00020290511, 0.0000537721, -1347381.3, -23775.691, 0.0, 10.001076, 9.968759 
4.4650605e+3, 1.7490703e+2, -1249436.6, -1274200.1, -2.9748707, 0.00020234149, -0.000050025512, -1249436.6, -23525.363, 0.0, 10.001071, 9.968345 
4.4650605e+3, 1.848692e+2, -1161363.8, -1195612.5, -0.4225547, 0.00020186852, 0.00009549569, -1161363.8, -33081.79, 0.0, 10.001066, 9.955911 
4.46506e+3, 1.9482514e+2, -1063227.3, -1097735.0, -3.4206657, 0.00020148965, -0.00003513732, -1063227.3, -32513.604, 0.0, 10.001061, 9.955567 
4.46506e+3, 2.0477442e+2, -975073.1, -1019342.7, -0.7192346, 0.00020096838, 0.00008702016, -975073.1, -41862.42, 0.0, 10.001057, 9.942808 
4.46506e+3, 2.1471727e+2, -876799.5, -921327.1, -3.5539336, 0.00020029304, -0.00010793618, -876799.5, -41028.65, 0.0, 10.001051, 9.942467 
4.46506e+3, 2.2465342e+2, -788522.3, -843066.8, -0.7357478, 0.00019984451, 0.00013953724, -788522.3, -50125.78, 0.0, 10.001047, 9.929428 
4.4650596e+3, 2.3458292e+2, -690100.8, -744897.2, -3.4163551, 0.00019965213, -0.000070603746, -690100.8, -49013.31, 0.0, 10.001042, 9.929097 
4.4650596e+3, 2.4450547e+2, -601785.94, -666955.44, -0.19931234, 0.00019925862, 0.000091496426, -601785.94, -57939.402, 0.0, 10.001038, 9.915658 
4.4650596e+3, 2.5442126e+2, -503045.7, -568288.9, -3.1378329, 0.00019862453, -0.0000925502, -503045.7, -56373.8, 0.0, 10.001034, 9.915558 
4.4650596e+3, 2.6432994e+2, -414819.28, -490939.8, -0.19848351, 0.00019823248, 0.00015321962, -414819.28, -65252.594, 0.0, 10.001029, 9.901488 
4.4650596e+3, 2.74232e+2, -315545.0, -391334.8, -2.6413949, 0.00019814857, -0.0001910537, -315545.0, -63018.348, 0.0, 10.001025, 9.901908 
4.465059e+3, 2.841258e+2, -229081.38, -318050.9, 0.72345924, 0.00019784442, 0.00024089694, -229081.38, -73514.086, 0.0, 10.001021, 9.884961 
4.465059e+3, 2.940118e+2, -129386.33, -217743.03, -1.6198484, 0.00019723686, -0.00024245703, -129386.33, -70701.93, 0.0, 10.001019, 9.885739 
4.465059e+3, 3.0392575e+2, -39656.44, -84733.21, 1.4194342, 0.00019665899, 0.00018186982, -39656.44, -39656.44, 0.0, 10.001015, 9.941695 
4.465059e+3, 3.1386933e+2, -38582.83, -82495.99, -1.0426282, 0.00019612905, -0.000050309452, -38582.83, -38582.83, 0.0, 10.001012, 9.943207 
4.4750625e+3, 1.2500155e+2, -1718635.9, -1724152.3, -0.0061049806, 0.00020868565, 0.00007267993, -1718635.9, -3650.858, 0.0, 10.001097, 9.993784 
4.4750625e+3, 1.3499519e+2, -1621269.5, -1627373.9, -3.0446012, 0.00020767751, -0.000104090774, -1621269.5, -4222.0786, 0.0, 10.001092, 9.993 
4.475062e+3, 1.4498231e+2, -1533140.3, -1548019.8, -1.1081387, 0.00020683315, 0.0001589781, -1533140.3, -13966.651, 0.0, 10.001086, 9.981367 
4.475062e+3, 1.5496366e+2, -1435426.9, -1450705.6, -4.1639843, 0.00020614997, -0.000029037863, -1435426.9, -14070.394, 0.0, 10.001081, 9.980835 
4.475062e+3, 1.6493839e+2, -1347387.9, -1371845.3, -1.810155, 0.00020559842, 0.000054284512, -1347387.9, -23783.828, 0.0, 10.001076, 9.968751 
4.4750616e+3, 1.749072e+2, -1249443.1, -1274212.8, -4.7957134, 0.0002051817, -0.000047961257, -1249443.1, -23533.361, 0.0, 10.001071, 9.968337 
4.4750616e+3, 1.8486935e+2, -1161370.3, -1195625.3, -2.2690692, 0.00020473624, 0.000097532495, -1161370.3, -33089.74, 0.0, 10.001066, 9.955902 
4.4750616e+3, 1.9482529e+2, -1063233.8, -1097747.6, -5.2681203, 0.0002042602, -0.000034777127, -1063233.8, -32521.39, 0.0, 10.001061, 9.95556 
4.475061e+3, 2.0477457e+2, -975079.25, -1019354.8, -2.6230967, 0.0002036191, 0.000087079665, -975079.25, -41869.83, 0.0, 10.001057, 9.9428005 
4.475061e+3, 2.147174e+2, -876805.5, -921339.1, -5.4598866, 0.00020279942, -0.000106689564, -876805.5, -41035.902, 0.0, 10.001051, 9.942459 
4.475061e+3, 2.2465354e+2, -788528.1, -843078.44, -2.359502, 0.00020246315, 0.000140636, -788528.1, -50132.72, 0.0, 10.001047, 9.92942 
4.4750604e+3, 2.3458302e+2, -690106.5, -744908.7, -5.0328093, 0.00020267314, -0.00007116256, -690106.5, -49020.09, 0.0, 10.001042, 9.92909 
4.4750604e+3, 2.4450557e+2, -601792.25, -666968.4, -1.9441183, 0.00020232095, 0.00009077074, -601792.25, -57946.746, 0.0, 10.001038, 9.915649 
4.4750604e+3, 2.5442135e+2, -503052.0, -568301.75, -4.8861427, 0.00020129704, -0.000091662165, -503052.0, -56381.023, 0.0, 10.001034, 9.91555 
4.4750604e+3, 2.6433003e+2, -414824.78, -490951.13, -1.612232, 0.00020071601, 0.00015425685, -414824.78, -65258.93, 0.0, 10.001029, 9.901481 
4.4750604e+3, 2.7423206e+2, -315550.4, -391345.97, -4.0352182, 0.00020069961, -0.00019173427, -315550.4, -63024.48, 0.0, 10.001025, 9.901901 
4.47506e+3, 2.8412586e+2, -229086.8, -318062.2, -0.6846538, 0.00020046535, 0.00023965677, -229086.8, -73520.18, 0.0, 10.001022, 9.8849535 
4.47506e+3, 2.9401186e+2, -129391.68, -217754.27, -3.0282748, 0.00019992975, -0.00024266334, -129391.68, -70707.89, 0.0, 10.001019, 9.885732 
4.47506e+3, 3.039258e+2, -39662.24, -84745.4, 0.253424, 0.00019945325, 0.00018264628, -39662.24, -39662.24, 0.0, 10.001015, 9.941688 
4.47506e+3, 3.138694e+2, -38588.69, -82508.32, -2.1786127, 0.00019906825, -0.000048641006, -38588.69, -38588.69, 0.0, 10.001012, 9.943199 
4.4850636e+3, 1.2500176e+2, -1718584.8, -1724134.4, 2.2602925, 0.00021153063, 0.00007338158, -1718584.8, -3601.731, 0.0, 10.001132, 9.993775 
4.4850636e+3, 1.3499539e+2, -1621220.1, -1627357.1, -0.89584494, 0.00021038835, -0.00010353044, -1621220.1, -4174.6704, 0.0, 10.001126, 9.992992 
4.4850636e+3, 1.449825e+2, -1533091.6, -1548003.6, 0.89542973, 0.000209545, 0.00015946692, -1533091.6, -13919.879, 0.0, 10.0011215, 9.981359 
4.485063e+3, 1.5496384e+2, -1435377.8, -1450689.4, -2.3860462, 0.00020899835, -0.00002855076, -1435377.8, -14023.051, 0.0, 10.001116, 9.980826 
4.485063e+3, 1.6493855e+2, -1347338.6, -1371828.6, -0.14151645, 0.00020850061, 0.000054752345, -1347338.6, -23736.266, 0.0, 10.001111, 9.968742 
4.4850624e+3, 1.7490734e+2, -1249394.8, -1274196.8, -3.2158744, 0.00020805353, -0.00004753041, -1249394.8, -23486.66, 0.0, 10.001106, 9.968329 
4.4850624e+3, 1.8486951e+2, -1161322.9, -1195610.0, -0.801735, 0.00020753109, 0.00009794772, -1161322.9, -33043.88, 0.0, 10.001101, 9.955894 
4.4850624e+3, 1.9482544e+2, -1063187.1, -1097732.9, -3.9422567, 0.00020692938, -0.00003435536, -1063187.1, -32476.22, 0.0, 10.001096, 9.955551 
4.485062e+3, 2.0477471e+2, -975032.75, -1019340.0, -1.4028878, 0.00020631407, 0.000087548484, -975032.75, -41824.656, 0.0, 10.00109, 9.942792 
4.485062e+3, 2.1471752e+2, -876758.94, -921324.4, -4.4182134, 0.00020568391, -0.000106129795, -876758.94, -40990.58, 0.0, 10.001085, 9.9424515 
4.485062e+3, 2.2465368e+2, -788481.9, -843063.94, -1.4118072, 0.00020534352, 0.00014104044, -788481.9, -50087.652, 0.0, 10.0010805, 9.929413 
4.485062e+3, 2.3458314e+2, -690061.25, -744894.8, -4.4169536, 0.0002053304, -0.00007119198, -690061.25, -48975.95, 0.0, 10.001076, 9.929082 
4.4850615e+3, 2.4450567e+2, -601747.5, -666954.75, -1.3334624, 0.00020493331, 0.000090796544, -601747.5, -57902.98, 0.0, 10.001071, 9.915642 
4.4850615e+3, 2.5442144e+2, -503007.25, -568288.4, -3.8694124, 0.00020407733, -0.00009099716, -503007.25, -56337.23, 0.0, 10.001067, 9.915542 
4.4850615e+3, 2.6433012e+2, -414780.5, -490938.1, -0.33952755, 0.00020349829, 0.00015500403, -414780.5, -65215.527, 0.0, 10.001062, 9.901473 
4.4850615e+3, 2.7423215e+2, -315507.22, -391333.6, -3.174335, 0.00020327234, -0.00019161477, -315507.22, -62982.098, 0.0, 10.001059, 9.901893 
4.4850615e+3, 2.8412595e+2, -229043.75, -318049.34, 0.11034422, 0.0002029829, 0.00023949258, -229043.75, -73477.83, 0.0, 10.001055, 9.884947 
4.4850612e+3, 2.9401192e+2, -129348.58, -217741.45, -2.0946538, 0.00020260428, -0.00024263732, -129348.58, -70665.42, 0.0, 10.001051, 9.885725 
4.4850612e+3, 3.0392587e+2, -39620.027, -84733.89, 1.5060658, 0.00020220177, 0.00018288831, -39620.027, -39620.027, 0.0, 10.001047, 9.941679 
4.4850612e+3, 3.1386945e+2, -38546.93, -82497.11, -0.64885986, 0.00020176565, -0.00004814882, -38546.93, -38546.93, 0.0, 10.001044, 9.943191 
4.495065e+3, 1.2500197e+2, -1718592.0, -1724148.0, 0.12103084, 0.00021445415, 0.00007403299, -1718592.0, -3610.9553, 0.0, 10.001132, 9.993768 
4.4950643e+3, 1.349956e+2, -1621227.3, -1627370.6, -3.0361843, 0.00021299697, -0.000104019884, -1621227.3, -4183.7153, 0.0, 10.001126, 9.992984 
4.4950643e+3, 1.4498268e+2, -1533099.0, -1548017.6, -0.9629779, 0.00021218444, 0.00015897214, -1533099.0, -13929.04, 0.0, 10.0011215, 9.98135 
4.495064e+3, 1.54964e+2, -1435385.0, -1450703.3, -4.2431145, 0.00021201544, -0.00002791191, -1435385.0, -14032.058, 0.0, 10.001116, 9.980818 
4.495064e+3, 1.6493873e+2, -1347345.4, -1371841.6, -2.1249406, 0.00021160745, 0.000055176853, -1347345.4, -23744.691, 0.0, 10.001111, 9.968735 
4.495064e+3, 1.7490752e+2, -1249401.5, -1274209.6, -5.2012343, 0.0002109569, -0.000048692957, -1249401.5, -23494.914, 0.0, 10.001106, 9.968321 
4.4950634e+3, 1.8486966e+2, -1161329.6, -1195623.3, -2.774999, 0.00021025547, 0.0000967811, -1161329.6, -33052.195, 0.0, 10.001101, 9.955886 
4.4950634e+3, 1.9482557e+2, -1063193.9, -1097746.1, -5.9142594, 0.00020950029, -0.000033873293, -1063193.9, -32484.385, 0.0, 10.001096, 9.955543 
4.4950634e+3, 2.0477484e+2, -975039.25, -1019352.8, -3.2291057, 0.0002090529, 0.0000884168, -975039.25, -41832.516, 0.0, 10.00109, 9.942784 
4.495063e+3, 2.1471767e+2, -876765.3, -921337.1, -6.2419333, 0.00020893815, -0.00010624012, -876765.3, -40998.27, 0.0, 10.001085, 9.942443 
4.495063e+3, 2.246538e+2, -788488.3, -843076.94, -3.2111628, 0.00020847998, 0.00014076741, -788488.3, -50095.332, 0.0, 10.0010805, 9.929404 
4.495063e+3, 2.3458326e+2, -690067.7, -744907.75, -6.214143, 0.00020763327, -0.000070704875, -690067.7, -48983.48, 0.0, 10.001076, 9.929073 
4.495063e+3, 2.4450578e+2, -601753.1, -666966.1, -3.0312889, 0.00020710712, 0.00009155559, -601753.1, -57909.63, 0.0, 10.001071, 9.915634 
4.4950625e+3, 2.5442153e+2, -503012.75, -568299.56, -5.5648866, 0.00020696352, -0.00009054966, -503012.75, -56343.7, 0.0, 10.001067, 9.915535 
4.4950625e+3, 2.643302e+2, -414786.75, -490950.9, -1.9530938, 0.00020657286, 0.00015546844, -414786.75, -65222.66, 0.0, 10.001062, 9.901464 
4.4950625e+3, 2.742322e+2, -315513.44, -391346.44, -4.7807727, 0.00020586682, -0.00019071421, -315513.44, -62989.125, 0.0, 10.001059, 9.901885 
4.4950625e+3, 2.84126e+2, -229049.0, -318060.28, -1.2471939, 0.00020540007, 0.00024037862, -229049.0, -73483.82, 0.0, 10.001055, 9.884939 
4.4950625e+3, 2.9401198e+2, -129353.68, -217752.17, -3.4324338, 0.00020526157, -0.00024238451, -129353.68, -70671.195, 0.0, 10.001051, 9.885717 
4.495062e+3, 3.0392593e+2, -39625.36, -84745.125, 0.25441465, 0.00020490638, 0.00018260877, -39625.36, -39625.36, 0.0, 10.001047, 9.941671 
4.495062e+3, 3.1386948e+2, -38552.293, -82508.414, -1.8918661, 0.00020422749, -0.00004880454, -38552.293, -38552.293, 0.0, 10.001044, 9.943183 
4.505066e+3, 1.2500218e+2, -1718540.8, -1724130.6, 1.7115798, 0.00021717844, 0.00007465104, -1718540.8, -3561.827, 0.0, 10.001168, 9.993758 
4.505066e+3, 1.3499579e+2, -1621175.1, -1627353.0, -1.6886019, 0.0002159281, -0.00010393937, -1621175.1, -4133.6157, 0.0, 10.0011635, 9.992975 
4.5050654e+3, 1.4498287e+2, -1533046.9, -1547999.9, 0.341244, 0.0002151716, 0.00015903967, -1533046.9, -13878.884, 0.0, 10.001158, 9.981341 
4.5050654e+3, 1.5496421e+2, -1435334.3, -1450686.4, -2.8191264, 0.00021490725, -0.000027331303, -1435334.3, -13983.213, 0.0, 10.001152, 9.980809 
4.505065e+3, 1.649389e+2, -1347295.5, -1371825.3, -0.78166586, 0.00021443589, 0.000055804336, -1347295.5, -23696.629, 0.0, 10.001147, 9.968726 
4.505065e+3, 1.7490768e+2, -1249352.3, -1274193.8, -4.10727, 0.0002137545, -0.000048493315, -1249352.3, -23447.305, 0.0, 10.001142, 9.968312 
4.505065e+3, 1.8486983e+2, -1161280.5, -1195607.1, -1.6931078, 0.00021306807, 0.0000969076, -1161280.5, -33004.633, 0.0, 10.001136, 9.955877 
4.5050645e+3, 1.9482572e+2, -1063145.0, -1097730.3, -4.682823, 0.00021237576, -0.000033449553, -1063145.0, -32437.094, 0.0, 10.001131, 9.955534 
4.5050645e+3, 2.0477498e+2, -974991.0, -1019337.5, -1.8518205, 0.00021193926, 0.00008892904, -974991.0, -41785.656, 0.0, 10.001125, 9.942776 
4.5050645e+3, 2.147178e+2, -876717.75, -921322.3, -4.963414, 0.00021177917, -0.000105865125, -876717.75, -40951.977, 0.0, 10.001121, 9.942434 
4.505064e+3, 2.2465391e+2, -788441.2, -843062.2, -1.8901513, 0.00021123493, 0.00014116462, -788441.2, -50049.457, 0.0, 10.001116, 9.929396 
4.505064e+3, 2.3458338e+2, -690021.44, -744893.56, -4.699519, 0.00021025605, -0.000070105096, -690021.44, -48938.38, 0.0, 10.00111, 9.929065 
4.505064e+3, 2.445059e+2, -601707.1, -666952.0, -1.3981693, 0.00020969886, 0.000092101014, -601707.1, -57864.727, 0.0, 10.001105, 9.915627 
4.505064e+3, 2.5442165e+2, -502966.88, -568285.56, -4.326977, 0.00020964499, -0.0000903654, -502966.88, -56298.836, 0.0, 10.0011015, 9.915526 
4.5050636e+3, 2.643303e+2, -414741.25, -490937.5, -0.7909049, 0.00020929874, 0.00015566948, -414741.25, -65178.11, 0.0, 10.001097, 9.901457 
4.5050636e+3, 2.742323e+2, -315468.4, -391333.44, -3.3862793, 0.00020857916, -0.00019001495, -315468.4, -62944.97, 0.0, 10.001092, 9.901876 
4.5050636e+3, 2.841261e+2, -229004.22, -318047.06, 0.30015367, 0.00020810062, 0.00024114005, -229004.22, -73439.836, 0.0, 10.001088, 9.884932 
4.5050636e+3, 2.9401204e+2, -129309.8, -217739.47, -2.3079002, 0.00020795295, -0.00024215986, -129309.8, -70628.016, 0.0, 10.001084, 9.88571 
4.5050636e+3, 3.03926e+2, -39582.504, -84733.41, 1.144672, 0.00020756412, 0.00018255241, -39582.504, -39582.504, 0.0, 10.0010805, 9.941664 
4.505063e+3, 3.1386954e+2, -38509.383, -82496.71, -1.2797599, 0.00020681533, -0.000048756214, -38509.383, -38509.383, 0.0, 10.001078, 9.943175 
4.515067e+3, 1.250024e+2, -1718548.5, -1724145.3, -0.15432444, 0.00021970921, 0.00007523676, -1718548.5, -3571.6875, 0.0, 10.001168, 9.99375 
4.515067e+3, 1.3499598e+2, -1621182.9, -1627367.5, -3.5540147, 0.0002191745, -0.00010330342, -1621182.9, -4143.307, 0.0, 10.0011635, 9.992966 
4.515067e+3, 1.4498308e+2, -1533053.9, -1548013.4, -1.7762728, 0.00021849856, 0.00015965517, -1533053.9, -13887.862, 0.0, 10.001158, 9.981333 
4.5150664e+3, 1.5496439e+2, -1435341.3, -1450699.8, -4.937426, 0.00021767766, -0.000026807314, -1435341.3, -13992.027, 0.0, 10.001152, 9.980802 
4.5150664e+3, 1.6493909e+2, -1347302.9, -1371839.4, -2.8278372, 0.00021699362, 0.000056629877, -1347302.9, -23705.682, 0.0, 10.001147, 9.968718 
4.5150658e+3, 1.7490785e+2, -1249359.4, -1274207.6, -6.15235, 0.00021644971, -0.00004696586, -1249359.4, -23456.193, 0.0, 10.001142, 9.968304 
4.5150658e+3, 1.8486999e+2, -1161287.0, -1195619.9, -3.681679, 0.00021596745, 0.00009829458, -1161287.0, -33012.715, 0.0, 10.001136, 9.95587 
4.5150658e+3, 1.948259e+2, -1063151.4, -1097742.9, -6.673139, 0.00021554889, -0.000033082517, -1063151.4, -32445.01, 0.0, 10.001131, 9.955526 
4.5150656e+3, 2.0477512e+2, -974997.7, -1019350.75, -3.7703848, 0.00021497012, 0.00008909441, -974997.7, -41793.793, 0.0, 10.001125, 9.942767 
4.5150656e+3, 2.1471794e+2, -876724.3, -921335.5, -6.88025, 0.00021421802, -0.00010501682, -876724.3, -40959.96, 0.0, 10.001121, 9.942427 
4.5150656e+3, 2.2465405e+2, -788447.3, -843074.44, -3.8365622, 0.00021361861, 0.00014221546, -788447.3, -50056.84, 0.0, 10.001116, 9.929388 
4.515065e+3, 2.345835e+2, -690027.44, -744905.7, -6.648894, 0.00021319147, -0.000069395, -690027.4, -48945.59, 0.0, 10.00111, 9.929057 
4.515065e+3, 2.4450602e+2, -601713.44, -666964.9, -3.0742898, 0.0002126988, 0.00009243858, -601713.44, -57872.215, 0.0, 10.001105, 9.915618 
4.515065e+3, 2.5442174e+2, -502973.16, -568298.44, -5.9897647, 0.00021212747, -0.000090437745, -502973.16, -56306.18, 0.0, 10.0011015, 9.915519 
4.515065e+3, 2.6433042e+2, -414747.1, -490949.56, -2.4508939, 0.00021168528, 0.00015561367, -414747.1, -65184.93, 0.0, 10.001097, 9.901448 
4.5150644e+3, 2.742324e+2, -315474.16, -391345.38, -5.0465446, 0.00021140724, -0.00018951173, -315474.16, -62951.613, 0.0, 10.001093, 9.901869 
4.5150644e+3, 2.8412616e+2, -229010.22, -318059.53, -1.218914, 0.00021107827, 0.00024178033, -229010.22, -73446.64, 0.0, 10.001088, 9.884923 
4.5150644e+3, 2.9401216e+2, -129315.73, -217751.92, -3.8135157, 0.00021067816, -0.00024196244, -129315.73, -70634.68, 0.0, 10.001084, 9.885701 
4.5150644e+3, 3.0392605e+2, -39588.41, -84745.85, -0.09893479, 0.00021017675, 0.00018271379, -39588.41, -39588.41, 0.0, 10.0010805, 9.941655 
4.5150644e+3, 3.138696e+2, -38515.3, -82509.17, -2.4914303, 0.0002095268, -0.000048021295, -38515.3, -38515.3, 0.0, 10.001078, 9.943167 
4.5250684e+3, 1.2500262e+2, -1718494.0, -1724126.5, 2.0153344, 0.00022279946, 0.000075875985, -1718494.0, -3519.3625, 0.0, 10.001206, 9.99374 
4.5250678e+3, 1.349962e+2, -1621129.9, -1627349.8, -1.3895491, 0.00022201578, -0.00010260651, -1621129.9, -4092.4863, 0.0, 10.001201, 9.992957 
4.5250678e+3, 1.4498328e+2, -1533001.5, -1547995.4, 0.23404801, 0.00022126191, 0.00016032608, -1533001.5, -13837.373, 0.0, 10.001195, 9.981324 
4.5250678e+3, 1.5496458e+2, -1435289.0, -1450682.0, -3.0674894, 0.00022053445, -0.000026246618, -1435289.0, -13941.685, 0.0, 10.001189, 9.980793 
4.5250675e+3, 1.6493927e+2, -1347251.0, -1371822.1, -0.95199496, 0.0002199126, 0.000057210837, -1347251.0, -23655.72, 0.0, 10.001184, 9.968709 
4.5250675e+3, 1.7490804e+2, -1249308.1, -1274191.0, -4.196794, 0.00021939918, -0.000046231664, -1249308.1, -23406.74, 0.0, 10.001179, 9.968295 
4.525067e+3, 1.8487017e+2, -1161236.3, -1195603.3, -1.815076, 0.00021890299, 0.000098943216, -1161236.3, -32963.563, 0.0, 10.001173, 9.955861 
4.525067e+3, 1.9482605e+2, -1063101.3, -1097726.8, -5.196691, 0.00021842417, -0.000032768818, -1063101.3, -32396.4, 0.0, 10.001167, 9.955518 
4.525067e+3, 2.0477529e+2, -974948.06, -1019334.9, -2.4455125, 0.00021778586, 0.00008937066, -974948.06, -41745.72, 0.0, 10.001162, 9.942759 
4.5250663e+3, 2.1471807e+2, -876675.7, -921320.25, -5.5437365, 0.000216975, -0.00010445638, -876675.7, -40912.715, 0.0, 10.001157, 9.942418 
4.5250663e+3, 2.2465418e+2, -788398.94, -843059.25, -2.5642405, 0.00021639255, 0.00014278435, -788398.94, -50009.805, 0.0, 10.001151, 9.92938 
4.5250663e+3, 2.3458363e+2, -689979.06, -744890.7, -5.711473, 0.00021606806, -0.00006912943, -689979.06, -48898.48, 0.0, 10.001146, 9.929049 
4.525066e+3, 2.4450614e+2, -601665.7, -666950.4, -2.1857765, 0.00021555104, 0.00009257493, -601665.7, -57825.586, 0.0, 10.001142, 9.91561 
4.525066e+3, 2.5442186e+2, -502926.63, -568284.7, -5.0880113, 0.00021480376, -0.00009022258, -502926.63, -56260.715, 0.0, 10.001136, 9.91551 
4.525066e+3, 2.643305e+2, -414700.94, -490935.7, -1.4468564, 0.00021430272, 0.00015585743, -414700.94, -65139.777, 0.0, 10.001131, 9.901441 
4.525066e+3, 2.7423248e+2, -315428.16, -391331.66, -4.126984, 0.0002141151, -0.0001893037, -315428.16, -62906.535, 0.0, 10.001127, 9.90186 
4.5250654e+3, 2.8412625e+2, -228964.52, -318046.28, -0.19820754, 0.00021382899, 0.00024203351, -228964.52, -73401.78, 0.0, 10.001122, 9.884915 
4.5250654e+3, 2.9401222e+2, -129270.5, -217739.06, -2.6882555, 0.00021340593, -0.00024155328, -129270.5, -70590.22, 0.0, 10.001119, 9.885694 
4.5250654e+3, 3.0392614e+2, -39544.113, -84733.63, 1.3166049, 0.00021289337, 0.00018319892, -39544.113, -39544.113, 0.0, 10.001115, 9.941647 
4.5250654e+3, 3.1386966e+2, -38471.805, -82497.34, -0.87277323, 0.00021225042, -0.000047579746, -38471.805, -38471.805, 0.0, 10.001111, 9.943158 
4.5350695e+3, 1.2500285e+2, -1718501.8, -1724141.1, -0.15903133, 0.00022643522, 0.00007656753, -1718501.8, -3529.3428, 0.0, 10.001206, 9.9937315 
4.5350695e+3, 1.3499643e+2, -1621137.6, -1627364.4, -3.564275, 0.00022446332, -0.00010184986, -1621137.6, -4102.289, 0.0, 10.001201, 9.992948 
4.535069e+3, 1.4498349e+2, -1533008.8, -1548009.4, -1.8748733, 0.00022347723, 0.00016105126, -1533008.8, -13846.765, 0.0, 10.001195, 9.981316 
4.535069e+3, 1.5496479e+2, -1435296.3, -1450696.0, -5.1769843, 0.00022347619, -0.000025649962, -1435296.3, -13950.908, 0.0, 10.00119, 9.980783 
4.535069e+3, 1.6493946e+2, -1347258.1, -1371835.9, -3.0770128, 0.00022318422, 0.000057553865, -1347258.1, -23664.69, 0.0, 10.001184, 9.9687 
4.5350683e+3, 1.7490822e+2, -1249315.1, -1274204.6, -6.323255, 0.00022259701, -0.00004626951, -1249315.1, -23415.54, 0.0, 10.001179, 9.9682865 
4.5350683e+3, 1.8487033e+2, -1161243.5, -1195617.5, -3.895288, 0.00022187449, 0.000098873265, -1161243.5, -32972.57, 0.0, 10.001173, 9.955852 
4.535068e+3, 1.9482622e+2, -1063108.5, -1097740.9, -7.274801, 0.00022101014, -0.000032506894, -1063108.5, -32405.24, 0.0, 10.001167, 9.955509 
4.535068e+3, 2.0477544e+2, -974954.75, -1019348.1, -4.51911, 0.00022039287, 0.000089754976, -974954.75, -41753.926, 0.0, 10.001162, 9.94275 
4.535068e+3, 2.1471824e+2, -876682.25, -921333.3, -7.6177473, 0.00022004254, -0.000104176084, -876682.25, -40920.746, 0.0, 10.001157, 9.9424095 
4.5350674e+3, 2.2465433e+2, -788405.7, -843072.8, -4.452581, 0.00021954736, 0.00014288399, -788405.7, -50017.93, 0.0, 10.001151, 9.929371 
4.5350674e+3, 2.3458375e+2, -689985.75, -744904.1, -7.5935087, 0.00021888812, -0.00006929696, -689985.75, -48906.445, 0.0, 10.001146, 9.92904 
4.5350674e+3, 2.4450625e+2, -601672.0, -666963.3, -4.089259, 0.00021826023, 0.000092515176, -601672.0, -57833.15, 0.0, 10.001142, 9.915602 
4.5350668e+3, 2.5442198e+2, -502932.9, -568297.5, -6.992538, 0.00021766957, -0.00008972712, -502932.88, -56268.105, 0.0, 10.001136, 9.915502 
4.5350668e+3, 2.643306e+2, -414706.97, -490948.06, -3.0953798, 0.00021714573, 0.00015639327, -414706.97, -65146.832, 0.0, 10.001131, 9.901432 
4.5350668e+3, 2.742326e+2, -315434.1, -391343.94, -5.7599015, 0.00021670648, -0.0001893832, -315434.1, -62913.418, 0.0, 10.001127, 9.901853 
4.5350668e+3, 2.8412634e+2, -228970.34, -318058.47, -1.7598301, 0.0002163593, 0.00024190954, -228970.34, -73408.49, 0.0, 10.001122, 9.884907 
4.5350668e+3, 2.940123e+2, -129276.25, -217751.14, -4.2431746, 0.00021613699, -0.00024093773, -129276.25, -70596.77, 0.0, 10.001119, 9.885685 
4.5350665e+3, 3.039262e+2, -39549.69, -84745.39, -0.118234366, 0.00021571208, 0.00018399974, -39549.69, -39549.69, 0.0, 10.001115, 9.941639 
4.5350665e+3, 3.138697e+2, -38477.375, -82509.086, -2.296378, 0.00021498646, -0.000047423648, -38477.375, -38477.375, 0.0, 10.001111, 9.9431505 
4.5450708e+3, 1.2500307e+2, -1718446.4, -1724122.1, 1.7060348, 0.00022932589, 0.000077098564, -1718446.4, -3476.184, 0.0, 10.0012455, 9.993722 
4.5450702e+3, 1.3499664e+2, -1621082.5, -1627345.6, -1.8329396, 0.00022741129, -0.00010124935, -1621082.5, -4049.4617, 0.0, 10.00124, 9.992939 
4.5450702e+3, 1.4498371e+2, -1532954.0, -1547990.6, -0.2412382, 0.00022646238, 0.00016161863, -1532954.0, -13794.079, 0.0, 10.001234, 9.981306 
4.54507e+3, 1.54965e+2, -1435242.1, -1450677.8, -3.6896636, 0.00022647831, -0.00002521883, -1435242.1, -13898.826, 0.0, 10.001228, 9.980775 
4.54507e+3, 1.6493967e+2, -1347204.6, -1371818.0, -1.7802709, 0.00022616616, 0.00005790458, -1347204.6, -23613.084, 0.0, 10.001223, 9.968691 
4.54507e+3, 1.7490841e+2, -1249262.3, -1274187.3, -5.267568, 0.00022552093, -0.000045942306, -1249262.3, -23364.455, 0.0, 10.001217, 9.968277 
4.5450693e+3, 1.8487051e+2, -1161191.1, -1195600.4, -2.866632, 0.00022476785, 0.000099185774, -1161191.1, -32922.01, 0.0, 10.00121, 9.955843 
4.5450693e+3, 1.9482638e+2, -1063057.3, -1097724.4, -6.0489383, 0.00022390153, -0.000032199892, -1063057.3, -32355.645, 0.0, 10.0012045, 9.9555 
4.5450687e+3, 2.047756e+2, -974903.9, -1019331.75, -3.1317089, 0.00022328657, 0.0000901192, -974903.9, -41704.652, 0.0, 10.001199, 9.942741 
4.5450687e+3, 2.1471839e+2, -876631.6, -921317.25, -6.333584, 0.00022294314, -0.00010368686, -876631.6, -40871.63, 0.0, 10.001193, 9.942401 
4.5450687e+3, 2.2465447e+2, -788355.7, -843057.3, -3.1191978, 0.000222435, 0.00014333965, -788355.7, -49969.367, 0.0, 10.001188, 9.929362 
4.5450684e+3, 2.345839e+2, -689936.8, -744889.3, -6.241912, 0.0002217403, -0.00006905402, -689936.75, -48858.824, 0.0, 10.001183, 9.929031 
4.5450684e+3, 2.4450637e+2, -601623.5, -666948.44, -2.669409, 0.00022111511, 0.00009279639, -601623.5, -57785.84, 0.0, 10.001177, 9.915593 
4.5450684e+3, 2.544221e+2, -502884.63, -568282.94, -5.597302, 0.00022057269, -0.00008910802, -502884.63, -56221.02, 0.0, 10.001172, 9.915493 
4.5450684e+3, 2.6433071e+2, -414659.25, -490933.9, -1.6463691, 0.00022002593, 0.00015704907, -414659.25, -65100.215, 0.0, 10.001167, 9.901424 
4.5450678e+3, 2.742327e+2, -315387.4, -391330.44, -4.551107, 0.00021947314, -0.00018907434, -315387.4, -62867.74, 0.0, 10.001163, 9.901844 
4.5450678e+3, 2.8412643e+2, -228924.1, -318044.8, -0.5554945, 0.00021908301, 0.00024211542, -228924.1, -73363.164, 0.0, 10.001158, 9.884899 
4.5450678e+3, 2.940124e+2, -129230.57, -217737.88, -3.0087306, 0.00021891469, -0.00024049936, -129230.57, -70551.93, 0.0, 10.001154, 9.885677 
4.5450678e+3, 3.039263e+2, -39504.91, -84733.305, 1.1067494, 0.00021852135, 0.00018442784, -39504.91, -39504.91, 0.0, 10.001149, 9.94163 
4.5450678e+3, 3.138698e+2, -38432.336, -82496.945, -1.5079808, 0.00021779319, -0.000047369016, -38432.336, -38432.336, 0.0, 10.001146, 9.943142 
4.555072e+3, 1.2500332e+2, -1718454.4, -1724137.4, -0.49723446, 0.00023149287, 0.00007747374, -1718454.4, -3486.5671, 0.0, 10.0012455, 9.993712 
4.555072e+3, 1.3499689e+2, -1621090.5, -1627360.9, -4.036207, 0.000230847, -0.00010080058, -1621090.5, -4059.6587, 0.0, 10.00124, 9.992929 
4.5550713e+3, 1.4498393e+2, -1532961.6, -1548005.3, -2.4421358, 0.00023019718, 0.00016203262, -1532961.6, -13803.887, 0.0, 10.001234, 9.9812975 
4.5550713e+3, 1.5496519e+2, -1435249.8, -1450692.4, -5.8906045, 0.00022953995, -0.000024948487, -1435249.8, -13908.46, 0.0, 10.001228, 9.980766 
4.5550713e+3, 1.6493987e+2, -1347212.3, -1371832.8, -3.977743, 0.0002288671, 0.000058262947, -1347212.3, -23622.666, 0.0, 10.001223, 9.968682 
4.5550707e+3, 1.749086e+2, -1249269.8, -1274201.9, -7.463959, 0.00022817924, -0.000045259992, -1249269.8, -23373.865, 0.0, 10.001217, 9.968268 
4.5550707e+3, 1.8487069e+2, -1161198.0, -1195613.8, -5.124158, 0.00022758603, 0.000099870354, -1161198.0, -32930.676, 0.0, 10.001211, 9.955834 
4.5550704e+3, 1.9482657e+2, -1063064.0, -1097737.8, -8.309427, 0.00022709089, -0.00003184878, -1063064.0, -32364.133, 0.0, 10.0012045, 9.955492 
4.5550704e+3, 2.0477577e+2, -974910.75, -1019345.4, -5.198166, 0.00022645995, 0.000090464215, -974910.75, -41713.15, 0.0, 10.001199, 9.942733 
4.5550704e+3, 2.1471854e+2, -876638.44, -921330.75, -8.396344, 0.00022568213, -0.00010299417, -876638.44, -40879.97, 0.0, 10.001194, 9.942392 
4.5550698e+3, 2.2465461e+2, -788362.44, -843070.8, -5.1865854, 0.0002250635, 0.00014414194, -788362.44, -49977.56, 0.0, 10.001188, 9.929354 
4.5550698e+3, 2.3458403e+2, -689943.44, -744902.75, -8.310122, 0.00022462447, -0.000068411246, -689943.44, -48866.84, 0.0, 10.001183, 9.929023 
4.5550698e+3, 2.4450651e+2, -601629.9, -666961.5, -4.591431, 0.00022411247, 0.00009340985, -601629.9, -57793.535, 0.0, 10.001178, 9.915585 
4.5550692e+3, 2.5442222e+2, -502890.97, -568295.9, -7.5125575, 0.00022351294, -0.00008836832, -502890.97, -56228.543, 0.0, 10.001172, 9.915484 
4.5550692e+3, 2.6433083e+2, -414665.75, -490947.25, -3.4747071, 0.00022294318, 0.00015782185, -414665.75, -65107.82, 0.0, 10.001167, 9.901415 
4.5550692e+3, 2.7423277e+2, -315393.8, -391343.72, -6.373494, 0.0002224112, -0.00018838726, -315393.8, -62875.184, 0.0, 10.001163, 9.901835 
4.555069e+3, 2.8412652e+2, -228929.92, -318056.97, -2.2053683, 0.00022199564, 0.0002426426, -228929.92, -73369.94, 0.0, 10.001158, 9.884891 
4.555069e+3, 2.940125e+2, -129236.266, -217749.86, -4.644661, 0.0002217384, -0.0002402332, -129236.266, -70558.5, 0.0, 10.001154, 9.88567 
4.555069e+3, 3.0392635e+2, -39511.254, -84746.664, -0.26259357, 0.0002213221, 0.00018449328, -39511.254, -39511.254, 0.0, 10.001149, 9.941622 
4.555069e+3, 3.1386986e+2, -38438.77, -82510.484, -2.8442652, 0.00022066955, -0.0000474133, -38438.77, -38438.77, 0.0, 10.001146, 9.943132 
4.5650733e+3, 1.2500356e+2, -1718397.1, -1724117.8, 1.7214732, 0.00023444551, 0.00007812315, -1718397.1, -3431.672, 0.0, 10.0012865, 9.993703 
4.5650733e+3, 1.3499711e+2, -1621033.4, -1627341.4, -1.9018478, 0.00023395936, -0.00010016468, -1621033.4, -4004.8274, 0.0, 10.001281, 9.99292 
4.5650727e+3, 1.4498416e+2, -1532904.8, -1547985.8, -0.47879544, 0.00023334494, 0.00016263878, -1532904.8, -13749.234, 0.0, 10.001274, 9.981288 
4.5650727e+3, 1.5496543e+2, -1435193.9, -1450673.5, -3.9936454, 0.00023259822, -0.000024388542, -1435193.9, -13854.771, 0.0, 10.001268, 9.980757 
4.5650724e+3, 1.6494007e+2, -1347157.3, -1371814.4, -2.0503213, 0.0002318351, 0.000058851223, -1347157.3, -23569.764, 0.0, 10.001262, 9.968673 
4.5650724e+3, 1.749088e+2, -1249215.9, -1274184.1, -5.4280467, 0.00023105623, -0.000044567398, -1249215.9, -23321.934, 0.0, 10.001255, 9.968259 
4.5650718e+3, 1.8487088e+2, -1161144.6, -1195596.4, -3.1387255, 0.00023049797, 0.00010057791, -1161144.6, -32879.06, 0.0, 10.001249, 9.955826 
4.5650718e+3, 1.9482675e+2, -1063010.6, -1097720.5, -6.6809583, 0.00023016926, -0.000031219573, -1063010.6, -32312.494, 0.0, 10.001244, 9.9554825 
4.5650712e+3, 2.0477594e+2, -974857.9, -1019328.25, -3.754108, 0.00022955562, 0.00009096497, -974857.9, -41661.926, 0.0, 10.001238, 9.942724 
4.5650712e+3, 2.147187e+2, -876587.0, -921314.5, -7.014635, 0.00022863397, -0.00010267598, -876587.0, -40830.145, 0.0, 10.001231, 9.942384 
4.5650712e+3, 2.2465476e+2, -788311.94, -843055.25, -3.7488565, 0.00022794752, 0.00014445085, -788311.94, -49928.535, 0.0, 10.001225, 9.929345 
4.565071e+3, 2.3458418e+2, -689893.2, -744887.44, -6.996165, 0.00022752659, -0.000067915826, -689893.2, -48818.016, 0.0, 10.00122, 9.929014 
4.565071e+3, 2.4450664e+2, -601579.9, -666946.0, -3.2910779, 0.00022704156, 0.00009390399, -601579.9, -57744.844, 0.0, 10.001214, 9.915576 
4.565071e+3, 2.5442234e+2, -502841.8, -568281.0, -6.267466, 0.00022647942, -0.0000880997, -502841.8, -56180.633, 0.0, 10.001209, 9.915476 
4.5650703e+3, 2.6433095e+2, -414617.34, -490933.13, -2.1167338, 0.00022591739, 0.00015808849, -414617.34, -65060.58, 0.0, 10.001204, 9.901406 
4.5650703e+3, 2.7423292e+2, -315345.88, -391329.97, -5.010615, 0.00022535541, -0.00018783782, -315345.88, -62828.31, 0.0, 10.001199, 9.901827 
4.5650703e+3, 2.8412664e+2, -228882.02, -318042.88, -0.7754415, 0.0002249264, 0.00024319583, -228882.02, -73323.04, 0.0, 10.001194, 9.884883 
4.5650703e+3, 2.9401258e+2, -129188.87, -217736.1, -3.4477844, 0.00022467853, -0.00024005925, -129188.87, -70512.01, 0.0, 10.001189, 9.885661 
4.5650697e+3, 3.0392644e+2, -39465.195, -84734.28, 1.041678, 0.00022421298, 0.00018464275, -39465.195, -39465.195, 0.0, 10.001185, 9.941612 
4.5650697e+3, 3.1386992e+2, -38393.625, -82498.61, -1.2870936, 0.00022342404, -0.000046757803, -38393.625, -38393.625, 0.0, 10.001181, 9.943124 
4.5750746e+3, 1.2500381e+2, -1718405.3, -1724133.4, -0.44694567, 0.0002381623, 0.00007903924, -1718405.3, -3442.3499, 0.0, 10.0012865, 9.993693 
4.5750743e+3, 1.3499735e+2, -1621041.5, -1627356.9, -4.0707936, 0.0002367585, -0.00009934663, -1621041.5, -4015.3271, 0.0, 10.001281, 9.99291 
4.5750743e+3, 1.449844e+2, -1532912.6, -1548000.8, -2.8576534, 0.00023592327, 0.00016343202, -1532912.6, -13759.303, 0.0, 10.001274, 9.981278 
4.5750737e+3, 1.5496564e+2, -1435201.6, -1450688.4, -6.3727713, 0.00023565422, -0.00002354692, -1435201.6, -13864.659, 0.0, 10.001268, 9.980747 
4.5750737e+3, 1.649403e+2, -1347164.6, -1371828.6, -4.4323463, 0.00023506356, 0.00005966323, -1347164.6, -23579.207, 0.0, 10.001262, 9.968664 
4.575073e+3, 1.7490901e+2, -1249223.1, -1274198.4, -7.812022, 0.00023414654, -0.000043864267, -1249223.1, -23331.203, 0.0, 10.001256, 9.96825 
4.575073e+3, 1.8487108e+2, -1161152.3, -1195611.3, -5.348716, 0.00023350188, 0.00010130833, -1161152.3, -32888.59, 0.0, 10.001249, 9.955816 
4.5750728e+3, 1.9482693e+2, -1063018.1, -1097735.4, -8.88742, 0.00023314069, -0.000030319823, -1063018.1, -32321.854, 0.0, 10.001244, 9.955473 
4.5750728e+3, 2.0477612e+2, -974864.9, -1019342.1, -6.1062274, 0.00023257673, 0.00009161722, -974864.9, -41670.656, 0.0, 10.001238, 9.942716 
4.5750728e+3, 2.1471888e+2, -876593.94, -921328.3, -9.371227, 0.00023179351, -0.00010272161, -876593.94, -40838.684, 0.0, 10.001231, 9.942374 
4.5750722e+3, 2.2465494e+2, -788318.9, -843069.25, -5.8248167, 0.00023108064, 0.00014428039, -788318.9, -49937.055, 0.0, 10.001225, 9.929336 
4.5750722e+3, 2.3458433e+2, -689900.06, -744901.3, -9.062412, 0.00023044705, -0.0000675635, -689900.06, -48826.375, 0.0, 10.00122, 9.929005 
4.5750716e+3, 2.4450679e+2, -601586.4, -666959.3, -5.354012, 0.00022990516, 0.000094282186, -601586.4, -57752.742, 0.0, 10.001214, 9.915567 
4.5750716e+3, 2.5442246e+2, -502848.22, -568294.1, -8.332162, 0.00022947218, -0.00008828906, -502848.22, -56188.344, 0.0, 10.001209, 9.915467 
4.5750716e+3, 2.6433107e+2, -414623.8, -490946.47, -3.9935553, 0.0002289477, 0.0001578631, -414623.8, -65068.26, 0.0, 10.001204, 9.901398 
4.5750716e+3, 2.7423304e+2, -315352.28, -391343.25, -6.874325, 0.00022830634, -0.00018742199, -315352.28, -62835.836, 0.0, 10.001199, 9.901818 
4.5750713e+3, 2.8412673e+2, -228888.28, -318055.94, -2.4859533, 0.00022787563, 0.00024377463, -228888.28, -73330.33, 0.0, 10.001194, 9.884874 
4.5750713e+3, 2.9401267e+2, -129195.03, -217749.06, -5.1444464, 0.00022773277, -0.00023997492, -129195.03, -70519.12, 0.0, 10.001189, 9.885653 
4.5750713e+3, 3.0392656e+2, -39471.188, -84746.92, -0.5337695, 0.00022719234, 0.00018487405, -39471.188, -39471.188, 0.0, 10.001185, 9.941604 
4.5750713e+3, 3.1387e+2, -38399.605, -82511.234, -2.8489668, 0.0002260606, -0.000045421144, -38399.605, -38399.605, 0.0, 10.001182, 9.943115 
4.5850757e+3, 1.2500407e+2, -1718344.9, -1724112.4, 1.8458204, 0.0002415276, 0.00007957674, -1718344.9, -3384.4246, 0.0, 10.001328, 9.993684 
4.5850757e+3, 1.349976e+2, -1620983.1, -1627337.1, -1.9356017, 0.00023983767, -0.00009871417, -1620983.1, -3959.3425, 0.0, 10.001322, 9.9929 
4.585075e+3, 1.4498462e+2, -1532855.0, -1547981.0, -0.8484079, 0.00023890268, 0.00016408917, -1532855.0, -13703.99, 0.0, 10.001315, 9.98127 
4.585075e+3, 1.5496586e+2, -1435144.4, -1450669.0, -4.4420495, 0.0002387206, -0.000022935745, -1435144.4, -13809.668, 0.0, 10.001309, 9.980738 
4.5850748e+3, 1.649405e+2, -1347107.8, -1371809.6, -2.7042058, 0.00023820058, 0.000060176462, -1347107.8, -23524.498, 0.0, 10.001303, 9.968655 
4.5850748e+3, 1.749092e+2, -1249166.9, -1274179.8, -6.3879743, 0.00023733759, -0.000043501794, -1249166.9, -23276.98, 0.0, 10.001296, 9.968241 
4.5850742e+3, 1.8487127e+2, -1161096.8, -1195593.0, -3.90912, 0.00023662388, 0.00010168298, -1161096.8, -32835.055, 0.0, 10.001289, 9.955807 
4.5850742e+3, 1.9482712e+2, -1062964.0, -1097718.0, -7.2642794, 0.00023606521, -0.000029763056, -1062964.0, -32269.633, 0.0, 10.001283, 9.955463 
4.5850742e+3, 2.047763e+2, -974811.4, -1019325.1, -4.46395, 0.00023551066, 0.00009220016, -974811.4, -41618.938, 0.0, 10.001277, 9.942706 
4.5850736e+3, 2.1471904e+2, -876540.4, -921311.44, -7.9750056, 0.00023496035, -0.00010228101, -876540.4, -40786.8, 0.0, 10.00127, 9.942366 
4.5850736e+3, 2.2465509e+2, -788265.75, -843052.44, -4.4417014, 0.00023427642, 0.00014470059, -788265.75, -49885.504, 0.0, 10.001265, 9.929327 
4.5850733e+3, 2.3458448e+2, -689848.5, -744885.44, -7.617546, 0.00023344123, -0.00006702581, -689848.5, -48776.3, 0.0, 10.001258, 9.928996 
4.5850733e+3, 2.4450693e+2, -601535.7, -666944.06, -3.841652, 0.00023283658, 0.00009479849, -601535.7, -57703.496, 0.0, 10.001252, 9.915559 
4.5850733e+3, 2.544226e+2, -502797.84, -568279.2, -7.1069283, 0.00023250667, -0.00008795999, -502797.84, -56139.277, 0.0, 10.001246, 9.915459 
4.5850727e+3, 2.6433122e+2, -414573.66, -490931.4, -2.7891023, 0.00023201332, 0.00015811148, -414573.66, -65019.344, 0.0, 10.001242, 9.901389 
4.5850727e+3, 2.7423316e+2, -315303.0, -391328.75, -5.6143503, 0.0002313112, -0.00018711838, -315303.0, -62787.703, 0.0, 10.001236, 9.901809 
4.5850727e+3, 2.8412685e+2, -228839.72, -318041.84, -1.0415027, 0.00023080985, 0.00024414223, -228839.72, -73282.84, 0.0, 10.001231, 9.884866 
4.5850727e+3, 2.9401276e+2, -129147.4, -217735.55, -3.6885285, 0.00023058322, -0.0002395322, -129147.4, -70472.48, 0.0, 10.001226, 9.885644 
4.5850724e+3, 3.0392665e+2, -39424.492, -84734.09, 1.0352107, 0.0002300294, 0.00018531055, -39424.492, -39424.492, 0.0, 10.001222, 9.941595 
4.5850724e+3, 3.1387013e+2, -38352.98, -82498.445, -1.3607318, 0.00022898891, -0.00004511145, -38352.98, -38352.98, 0.0, 10.001217, 9.943107 
4.595077e+3, 1.2500434e+2, -1718353.5, -1724128.6, -0.7264463, 0.000244553, 0.000079747195, -1718353.5, -3395.5864, 0.0, 10.001328, 9.993673 
4.595077e+3, 1.3499784e+2, -1620991.6, -1627353.4, -4.5069613, 0.00024318964, -0.00009826159, -1620991.6, -3970.304, 0.0, 10.001322, 9.99289 
4.5950767e+3, 1.4498486e+2, -1532862.9, -1547996.3, -3.250907, 0.00024227225, 0.00016461441, -1532862.9, -13714.33, 0.0, 10.001315, 9.98126 
4.595076e+3, 1.549661e+2, -1435152.3, -1450684.3, -6.8453617, 0.00024179797, -0.000022547938, -1435152.3, -13819.829, 0.0, 10.001309, 9.980728 
4.595076e+3, 1.6494073e+2, -1347115.8, -1371825.1, -5.149795, 0.00024124983, 0.000060399892, -1347115.8, -23534.713, 0.0, 10.001303, 9.968645 
4.595076e+3, 1.7490943e+2, -1249174.9, -1274195.1, -8.83306, 0.00024062749, -0.000043470078, -1249174.9, -23287.006, 0.0, 10.001296, 9.968231 
4.5950755e+3, 1.848715e+2, -1161104.0, -1195607.1, -6.3811646, 0.0002398615, 0.000101712176, -1161104.0, -32844.277, 0.0, 10.001289, 9.955798 
4.5950755e+3, 1.9482732e+2, -1062971.1, -1097732.0, -9.738781, 0.00023894498, -0.000029538995, -1062971.1, -32278.682, 0.0, 10.001283, 9.955455 
4.5950752e+3, 2.047765e+2, -974818.9, -1019340.0, -6.732771, 0.00023836074, 0.000092716255, -974818.9, -41628.266, 0.0, 10.001277, 9.942697 
4.5950752e+3, 2.1471922e+2, -876547.75, -921326.25, -10.237923, 0.00023813528, -0.00010136794, -876547.75, -40795.957, 0.0, 10.00127, 9.942356 
4.5950747e+3, 2.2465526e+2, -788272.6, -843066.2, -6.818054, 0.00023753404, 0.00014569465, -788272.6, -49894.016, 0.0, 10.001265, 9.929318 
4.5950747e+3, 2.3458464e+2, -689855.25, -744899.1, -9.999496, 0.0002365078, -0.00006630772, -689855.25, -48784.617, 0.0, 10.001258, 9.9289875 
4.5950747e+3, 2.4450707e+2, -601542.8, -666958.44, -5.912636, 0.00023583462, 0.00009544935, -601542.8, -57712.035, 0.0, 10.001252, 9.915549 
4.5950744e+3, 2.5442275e+2, -502804.84, -568293.5, -9.161674, 0.0002355826, -0.00008712703, -502804.84, -56147.66, 0.0, 10.001246, 9.915449 
4.5950744e+3, 2.6433134e+2, -414580.1, -490944.66, -4.801698, 0.00023511416, 0.00015882029, -414580.1, -65027.05, 0.0, 10.001242, 9.901381 
4.5950744e+3, 2.7423328e+2, -315309.28, -391341.84, -7.6261983, 0.00023436929, -0.00018692364, -315309.28, -62795.203, 0.0, 10.001236, 9.9018 
4.5950738e+3, 2.84127e+2, -228845.95, -318054.88, -2.9156308, 0.00023373026, 0.0002443048, -228845.95, -73290.195, 0.0, 10.001231, 9.884857 
4.5950738e+3, 2.9401287e+2, -129153.555, -217748.5, -5.5501513, 0.00023323637, -0.00023874086, -129153.55, -70479.664, 0.0, 10.001226, 9.885635 
4.5950738e+3, 3.0392674e+2, -39430.645, -84747.09, -0.568228, 0.0002327289, 0.00018594674, -39430.645, -39430.645, 0.0, 10.001222, 9.9415865 
4.5950738e+3, 3.1387022e+2, -38359.15, -82511.46, -2.936366, 0.00023220158, -0.000045799672, -38359.15, -38359.15, 0.0, 10.001217, 9.943098 
4.6050787e+3, 1.250046e+2, -1718292.5, -1724107.5, 1.5106574, 0.00024767607, 0.000080189726, -1718292.5, -3337.211, 0.0, 10.001371, 9.993664 
4.605078e+3, 1.3499811e+2, -1620930.6, -1627332.4, -2.2442036, 0.0002465061, -0.00009751393, -1620930.6, -3911.8706, 0.0, 10.001365, 9.99288 
4.605078e+3, 1.4498512e+2, -1532802.4, -1547975.4, -1.0466337, 0.00024561578, 0.00016536565, -1532802.4, -13656.202, 0.0, 10.001358, 9.98125 
4.6050775e+3, 1.5496634e+2, -1435093.1, -1450664.1, -4.8215346, 0.00024500187, -0.000022095515, -1435093.1, -13762.979, 0.0, 10.001351, 9.980719 
4.6050775e+3, 1.6494097e+2, -1347057.6, -1371805.8, -3.1678476, 0.0002443857, 0.00006084154, -1347057.6, -23478.754, 0.0, 10.001345, 9.968635 
4.6050772e+3, 1.7490965e+2, -1249117.5, -1274176.4, -6.807984, 0.00024376829, -0.000042746087, -1249117.5, -23231.816, 0.0, 10.001337, 9.968222 
4.6050772e+3, 1.8487169e+2, -1161047.1, -1195588.4, -4.492292, 0.00024302356, 0.00010244645, -1161047.1, -32789.47, 0.0, 10.00133, 9.955789 
4.6050766e+3, 1.9482751e+2, -1062915.0, -1097713.8, -8.168661, 0.00024214527, -0.000029078232, -1062915.0, -32224.521, 0.0, 10.001324, 9.955445 
4.6050766e+3, 2.0477667e+2, -974763.5, -1019322.1, -5.0755997, 0.00024148806, 0.000093137496, -974763.5, -41574.777, 0.0, 10.001317, 9.942687 
4.6050763e+3, 2.147194e+2, -876493.6, -921309.1, -8.377925, 0.00024106962, -0.00010073343, -876493.6, -40743.6, 0.0, 10.00131, 9.942347 
4.6050763e+3, 2.2465543e+2, -788219.06, -843049.5, -4.944647, 0.00024048329, 0.00014633393, -788219.06, -49842.137, 0.0, 10.001304, 9.929309 
4.6050763e+3, 2.3458481e+2, -689801.7, -744882.56, -8.41268, 0.0002397068, -0.00006589933, -689801.7, -48732.668, 0.0, 10.001298, 9.928978 
4.6050757e+3, 2.4450724e+2, -601489.7, -666942.1, -4.248943, 0.00023906612, 0.00009587919, -601489.7, -57660.465, 0.0, 10.001291, 9.91554 
4.6050757e+3, 2.544229e+2, -502753.1, -568278.06, -7.333762, 0.00023858722, -0.00008637459, -502753.1, -56097.33, 0.0, 10.001286, 9.915441 
4.6050757e+3, 2.643315e+2, -414529.13, -490929.56, -2.8694248, 0.00023802073, 0.00015957943, -414529.13, -64977.42, 0.0, 10.00128, 9.901371 
4.605075e+3, 2.742334e+2, -315258.88, -391327.16, -5.983332, 0.00023734214, -0.00018656005, -315258.88, -62746.023, 0.0, 10.001274, 9.901792 
4.605075e+3, 2.841271e+2, -228795.75, -318040.0, -1.3179909, 0.00023674795, 0.0002445675, -228795.75, -73241.14, 0.0, 10.001269, 9.884848 
4.605075e+3, 2.94013e+2, -129104.016, -217734.08, -3.9529984, 0.00023626881, -0.00023817437, -129104.016, -70431.21, 0.0, 10.001264, 9.885627 
4.6050748e+3, 3.0392683e+2, -39382.555, -84734.22, 1.0686774, 0.00023571981, 0.00018649468, -39382.555, -39382.555, 0.0, 10.001259, 9.941577 
4.6050748e+3, 3.138703e+2, -38311.742, -82499.01, -1.6402087, 0.00023506775, -0.00004575217, -38311.742, -38311.742, 0.0, 10.001254, 9.943089 
4.61508e+3, 1.2500487e+2, -1718301.0, -1724123.8, -0.9909499, 0.0002508948, 0.00008089632, -1718301.0, -3348.4192, 0.0, 10.001372, 9.993653 
4.6150795e+3, 1.3499838e+2, -1620939.1, -1627348.5, -4.7468295, 0.00024978924, -0.00009647974, -1620939.0, -3922.8936, 0.0, 10.001366, 9.99287 
4.6150795e+3, 1.4498536e+2, -1532810.8, -1547991.5, -3.6973948, 0.0002489353, 0.00016633641, -1532810.8, -13667.073, 0.0, 10.001358, 9.98124 
4.6150792e+3, 1.5496658e+2, -1435101.4, -1450680.1, -7.4725084, 0.00024832948, -0.00002158019, -1435101.4, -13773.653, 0.0, 10.001351, 9.980709 
4.6150786e+3, 1.6494119e+2, -1347065.5, -1371821.1, -5.743786, 0.0002476065, 0.00006149515, -1347065.5, -23488.979, 0.0, 10.001345, 9.968625 
4.6150786e+3, 1.7490987e+2, -1249125.4, -1274191.6, -9.383919, 0.00024676538, -0.000041350046, -1249125.4, -23241.861, 0.0, 10.001337, 9.968211 
4.6150783e+3, 1.8487191e+2, -1161055.0, -1195603.9, -7.0689187, 0.00024611328, 0.00010386516, -1161055.0, -32799.492, 0.0, 10.00133, 9.955779 
4.6150783e+3, 1.9482774e+2, -1062922.9, -1097729.3, -10.744859, 0.00024565752, -0.000028387714, -1062922.9, -32234.352, 0.0, 10.001324, 9.955436 
4.6150783e+3, 2.0477687e+2, -974770.6, -1019336.2, -7.563817, 0.00024488536, 0.000093466835, -974770.6, -41583.79, 0.0, 10.001317, 9.942678 
4.6150777e+3, 2.147196e+2, -876500.6, -921323.06, -10.867462, 0.00024377128, -0.00010036874, -876500.6, -40752.43, 0.0, 10.00131, 9.942338 
4.6150777e+3, 2.2465561e+2, -788226.44, -843064.44, -7.2636557, 0.00024313413, 0.00014662942, -788226.44, -49851.31, 0.0, 10.001304, 9.929299 
4.615077e+3, 2.3458497e+2, -689809.06, -744897.44, -10.725197, 0.00024303536, -0.00006579128, -689809.06, -48741.668, 0.0, 10.001298, 9.928968 
4.615077e+3, 2.445074e+2, -601496.5, -666956.0, -6.5642905, 0.00024252519, 0.00009609469, -601496.5, -57668.816, 0.0, 10.001292, 9.915531 
4.6150768e+3, 2.5442305e+2, -502759.75, -568291.75, -9.650189, 0.0002415235, -0.00008569986, -502759.75, -56105.49, 0.0, 10.001286, 9.915431 
4.6150768e+3, 2.643316e+2, -414536.06, -490943.88, -4.9593825, 0.00024073954, 0.00016038794, -414536.06, -64985.758, 0.0, 10.00128, 9.901362 
4.6150768e+3, 2.7423352e+2, -315265.75, -391341.44, -8.057972, 0.0002402331, -0.00018603227, -315265.75, -62754.19, 0.0, 10.001274, 9.901782 
4.6150768e+3, 2.8412724e+2, -228802.05, -318053.2, -3.2912045, 0.000239861, 0.0002449275, -228802.05, -73248.64, 0.0, 10.001269, 9.884839 
4.6150762e+3, 2.9401308e+2, -129110.18, -217747.06, -5.9180603, 0.0002396704, -0.00023782584, -129110.18, -70438.49, 0.0, 10.001264, 9.885618 
4.6150762e+3, 3.0392694e+2, -39389.32, -84748.5, -0.6891598, 0.00023899447, 0.00018695729, -39389.32, -39389.32, 0.0, 10.001259, 9.941567 
4.6150762e+3, 3.138704e+2, -38318.594, -82513.46, -3.371883, 0.00023759827, -0.000044990215, -38318.594, -38318.594, 0.0, 10.001254, 9.943079 
4.6250814e+3, 1.2500516e+2, -1718237.0, -1724101.4, 1.7571594, 0.00025434926, 0.000081734666, -1718237.0, -3287.2693, 0.0, 10.001417, 9.993644 
4.625081e+3, 1.3499866e+2, -1620876.6, -1627327.0, -2.213458, 0.00025306962, -0.00009579618, -1620876.6, -3863.1174, 0.0, 10.00141, 9.99286 
4.6250805e+3, 1.4498565e+2, -1532749.1, -1547970.4, -1.3633989, 0.00025217354, 0.00016695815, -1532749.1, -13608.07, 0.0, 10.001402, 9.98123 
4.6250805e+3, 1.5496685e+2, -1435040.5, -1450659.6, -5.220588, 0.00025165765, -0.000020927342, -1435040.5, -13715.296, 0.0, 10.001394, 9.980699 
4.62508e+3, 1.6494143e+2, -1347005.3, -1371800.6, -3.5365307, 0.00025091865, 0.00006214918, -1347005.3, -23431.086, 0.0, 10.001388, 9.968616 
4.62508e+3, 1.7491011e+2, -1249066.3, -1274172.0, -7.259264, 0.00024995368, -0.000040725157, -1249066.3, -23185.014, 0.0, 10.00138, 9.968202 
4.6250796e+3, 1.8487214e+2, -1160996.6, -1195584.8, -4.897466, 0.00024927227, 0.00010455354, -1160996.6, -32743.332, 0.0, 10.001372, 9.955769 
4.6250796e+3, 1.9482794e+2, -1062865.0, -1097710.5, -8.558889, 0.0002488859, -0.000027539338, -1062865.0, -32178.635, 0.0, 10.001366, 9.955426 
4.625079e+3, 2.0477709e+2, -974713.3, -1019317.7, -5.5435777, 0.00024812482, 0.00009420458, -974713.3, -41528.5, 0.0, 10.001359, 9.942669 
4.625079e+3, 2.1471979e+2, -876444.44, -921305.25, -9.273125, 0.00024695892, -0.000100033874, -876444.44, -40698.14, 0.0, 10.001351, 9.942328 
4.6250787e+3, 2.2465579e+2, -788171.1, -843047.1, -5.646738, 0.00024624937, 0.0001469164, -788171.1, -49797.785, 0.0, 10.001345, 9.92929 
4.6250787e+3, 2.3458517e+2, -689754.6, -744880.75, -9.012661, 0.00024605502, -0.00006515121, -689754.6, -48688.926, 0.0, 10.001338, 9.928959 
4.6250787e+3, 2.4450755e+2, -601442.44, -666939.2, -4.8304462, 0.00024552378, 0.00009677454, -601442.44, -57616.387, 0.0, 10.001332, 9.915522 
4.625078e+3, 2.544232e+2, -502706.3, -568275.4, -8.060583, 0.00024458984, -0.00008535424, -502706.3, -56053.566, 0.0, 10.001326, 9.915422 
4.625078e+3, 2.6433176e+2, -414483.47, -490928.4, -3.2511725, 0.00024381324, 0.00016065576, -414483.47, -64934.58, 0.0, 10.001319, 9.901353 
4.6250775e+3, 2.7423367e+2, -315214.03, -391326.56, -6.340077, 0.0002432372, -0.00018551541, -315214.03, -62703.844, 0.0, 10.001313, 9.9017725 
4.6250775e+3, 2.8412735e+2, -228750.6, -318037.94, -1.4803667, 0.00024284347, 0.0002454829, -228750.6, -73198.445, 0.0, 10.0013075, 9.88483 
4.6250775e+3, 2.940132e+2, -129059.27, -217732.19, -4.236816, 0.00024269718, -0.00023752141, -129059.27, -70388.75, 0.0, 10.001303, 9.88561 
4.6250775e+3, 3.0392703e+2, -39339.88, -84735.17, 1.0915077, 0.00024200621, 0.00018728286, -39339.88, -39339.88, 0.0, 10.001297, 9.941558 
4.6250772e+3, 3.138705e+2, -38270.1, -82500.67, -1.3493264, 0.00024050634, -0.000044236676, -38270.1, -38270.1, 0.0, 10.001292, 9.943069 
4.6350825e+3, 1.2500545e+2, -1718246.0, -1724118.4, -1.0125164, 0.0002580332, 0.00008270105, -1718246.0, -3299.11, 0.0, 10.001417, 9.993633 
4.6350825e+3, 1.3499893e+2, -1620885.5, -1627344.0, -4.983181, 0.00025634834, -0.000095451906, -1620885.5, -3874.75, 0.0, 10.00141, 9.992849 
4.635082e+3, 1.449859e+2, -1532757.6, -1547986.9, -4.112185, 0.00025533407, 0.0001672422, -1532757.6, -13619.237, 0.0, 10.001402, 9.98122 
4.635082e+3, 1.549671e+2, -1435049.0, -1450676.0, -7.9691553, 0.00025498748, -0.000020140811, -1435049.0, -13726.273, 0.0, 10.001395, 9.980688 
4.6350816e+3, 1.6494168e+2, -1347013.4, -1371816.4, -6.3068066, 0.00025432033, 0.00006280395, -1347013.4, -23441.61, 0.0, 10.001388, 9.968606 
4.6350816e+3, 1.7491034e+2, -1249074.3, -1274187.5, -10.031034, 0.00025332827, -0.00004084725, -1249074.3, -23195.342, 0.0, 10.00138, 9.968192 
4.635081e+3, 1.8487236e+2, -1161004.5, -1195600.3, -7.5296564, 0.00025249942, 0.00010453458, -1161004.5, -32753.432, 0.0, 10.001373, 9.955759 
4.635081e+3, 1.9482815e+2, -1062872.9, -1097725.9, -11.189365, 0.00025184007, -0.00002653738, -1062872.9, -32188.555, 0.0, 10.001366, 9.955416 
4.6350807e+3, 2.0477729e+2, -974721.3, -1019333.5, -8.220233, 0.00025121236, 0.000095338626, -974721.3, -41538.52, 0.0, 10.001359, 9.942658 
4.6350807e+3, 2.1471998e+2, -876452.3, -921321.0, -11.949389, 0.00025061864, -0.00009972777, -876452.3, -40707.957, 0.0, 10.001351, 9.942318 
4.63508e+3, 2.2465599e+2, -788178.4, -843061.7, -8.101577, 0.00024981567, 0.00014719526, -788178.4, -49806.887, 0.0, 10.001345, 9.92928 
4.63508e+3, 2.3458533e+2, -689761.75, -744895.2, -11.461304, 0.0002487761, -0.00006399497, -689761.75, -48697.844, 0.0, 10.001338, 9.928949 
4.6350795e+3, 2.4450773e+2, -601449.5, -666953.56, -7.2224746, 0.00024807692, 0.00009790497, -601449.5, -57625.113, 0.0, 10.001332, 9.915512 
4.6350795e+3, 2.5442338e+2, -502713.28, -568289.7, -10.451729, 0.0002477833, -0.00008532752, -502713.28, -56062.1, 0.0, 10.001326, 9.915413 
4.6350795e+3, 2.643319e+2, -414490.4, -490942.75, -5.487995, 0.000247232, 0.00016039953, -414490.4, -64943.016, 0.0, 10.00132, 9.901343 
4.6350792e+3, 2.742338e+2, -315220.9, -391340.84, -8.566449, 0.0002463519, -0.00018500877, -315220.9, -62712.105, 0.0, 10.001313, 9.901763 
4.6350792e+3, 2.8412747e+2, -228757.14, -318051.63, -3.5280182, 0.0002457002, 0.00024622813, -228757.14, -73206.29, 0.0, 10.0013075, 9.884822 
4.6350792e+3, 2.9401332e+2, -129065.7, -217745.72, -6.26935, 0.00024536136, -0.00023725955, -129065.7, -70396.39, 0.0, 10.001303, 9.8856 
4.6350786e+3, 3.0392715e+2, -39346.28, -84748.7, -0.8807255, 0.00024476385, 0.00018747577, -39346.28, -39346.28, 0.0, 10.001297, 9.941549 
4.6350786e+3, 3.138706e+2, -38276.51, -82514.22, -3.3156626, 0.00024378141, -0.00004349078, -38276.51, -38276.51, 0.0, 10.001292, 9.94306 
4.6450838e+3, 1.2500575e+2, -1718180.3, -1724095.6, 1.5668484, 0.0002615371, 0.00008333914, -1718180.3, -3236.271, 0.0, 10.001463, 9.993622 
4.6450838e+3, 1.3499922e+2, -1620820.9, -1627322.0, -2.505097, 0.00025977948, -0.00009472723, -1620820.9, -3812.8992, 0.0, 10.001455, 9.992839 
4.6450835e+3, 1.4498618e+2, -1532693.8, -1547964.8, -1.6872103, 0.0002587053, 0.00016800735, -1532693.8, -13557.974, 0.0, 10.001448, 9.98121 
4.6450835e+3, 1.5496737e+2, -1434986.3, -1450654.6, -5.5829144, 0.00025831154, -0.000019381461, -1434986.3, -13666.117, 0.0, 10.001439, 9.980678 
4.645083e+3, 1.6494194e+2, -1346951.5, -1371795.5, -4.0254993, 0.0002576483, 0.00006348832, -1346951.5, -23382.242, 0.0, 10.001431, 9.9685955 
4.6450827e+3, 1.749106e+2, -1249013.3, -1274167.4, -7.9670053, 0.00025671205, -0.00004030822, -1249013.3, -23136.805, 0.0, 10.001424, 9.968182 
4.6450827e+3, 1.848726e+2, -1160944.3, -1195580.1, -5.4764752, 0.00025581755, 0.00010502073, -1160944.3, -32695.52, 0.0, 10.001416, 9.9557495 
4.645082e+3, 1.9482839e+2, -1062813.9, -1097706.6, -9.144546, 0.00025496577, -0.00002600763, -1062813.9, -32131.852, 0.0, 10.001409, 9.955406 
4.645082e+3, 2.0477751e+2, -974663.2, -1019314.94, -6.0164905, 0.0002543225, 0.00009594973, -974663.2, -41482.492, 0.0, 10.001401, 9.942649 
4.6450815e+3, 2.1472019e+2, -876394.3, -921302.7, -9.620129, 0.00025390435, -0.00009899463, -876394.3, -40651.984, 0.0, 10.001394, 9.942308 
4.6450815e+3, 2.246562e+2, -788120.8, -843043.4, -5.7046604, 0.00025310187, 0.00014797748, -788120.8, -49751.23, 0.0, 10.001387, 9.929271 
4.6450812e+3, 2.3458552e+2, -689705.7, -744877.75, -9.201937, 0.00025186496, -0.00006324598, -689705.7, -48643.594, 0.0, 10.00138, 9.92894 
4.6450812e+3, 2.4450791e+2, -601394.4, -666936.9, -4.9500856, 0.0002510945, 0.0000985686, -601394.4, -57571.74, 0.0, 10.001373, 9.915503 
4.6450812e+3, 2.5442353e+2, -502658.53, -568273.3, -8.43371, 0.00025088023, -0.00008481145, -502658.53, -56008.992, 0.0, 10.001367, 9.915403 
4.6450806e+3, 2.6433206e+2, -414436.0, -490926.4, -3.527655, 0.00025036282, 0.000160867, -414436.0, -64890.145, 0.0, 10.00136, 9.901334 
4.6450806e+3, 2.7423394e+2, -315167.44, -391325.1, -6.6118174, 0.00024945845, -0.0001844639, -315167.44, -62660.082, 0.0, 10.001354, 9.901753 
4.6450806e+3, 2.8412762e+2, -228704.47, -318036.16, -1.4866972, 0.00024874063, 0.00024681466, -228704.47, -73154.984, 0.0, 10.001348, 9.884812 
4.64508e+3, 2.940135e+2, -129014.33, -217731.03, -4.353562, 0.00024827867, -0.00023668101, -129014.33, -70346.28, 0.0, 10.001342, 9.885591 
4.64508e+3, 3.0392727e+2, -39296.16, -84735.02, 1.0176084, 0.00024766807, 0.0001879823, -39296.16, -39296.16, 0.0, 10.001336, 9.94154 
4.64508e+3, 3.138707e+2, -38226.4, -82500.57, -1.5740657, 0.00024683648, -0.00004315042, -38226.4, -38226.4, 0.0, 10.00133, 9.94305 
4.6550855e+3, 1.2500605e+2, -1718189.5, -1724113.1, -1.3743236, 0.000264868, 0.00008366009, -1718189.5, -3248.4717, 0.0, 10.001463, 9.993611 
4.6550855e+3, 1.3499951e+2, -1620830.0, -1627339.4, -5.4454355, 0.00026335937, -0.00009363408, -1620830.0, -3824.8965, 0.0, 10.001455, 9.992827 
4.655085e+3, 1.4498647e+2, -1532702.4, -1547981.3, -4.637168, 0.00026228157, 0.00016923837, -1532702.4, -13569.36, 0.0, 10.001448, 9.981199 
4.655085e+3, 1.5496764e+2, -1434994.8, -1450671.1, -8.533783, 0.00026163112, -0.000018648045, -1434994.8, -13677.305, 0.0, 10.001439, 9.980668 
4.6550846e+3, 1.649422e+2, -1346960.0, -1371812.1, -6.9359574, 0.00026090597, 0.000064201784, -1346960.0, -23393.37, 0.0, 10.001431, 9.968585 
4.655084e+3, 1.7491084e+2, -1249021.8, -1274183.9, -10.876594, 0.00026010594, -0.000039128863, -1249021.8, -23147.734, 0.0, 10.001424, 9.968171 
4.655084e+3, 1.8487285e+2, -1160952.1, -1195595.6, -8.339111, 0.00025922485, 0.00010599611, -1160952.1, -32705.758, 0.0, 10.001416, 9.955739 
4.6550834e+3, 1.9482861e+2, -1062821.8, -1097722.0, -12.008715, 0.00025825846, -0.0000259348, -1062821.8, -32141.893, 0.0, 10.001409, 9.955397 
4.6550834e+3, 2.0477773e+2, -974670.9, -1019330.25, -8.654506, 0.00025745554, 0.00009605493, -974670.9, -41492.36, 0.0, 10.001401, 9.942639 
4.655083e+3, 2.147204e+2, -876401.94, -921317.94, -12.253949, 0.000256829, -0.00009784741, -876401.94, -40661.676, 0.0, 10.001394, 9.942298 
4.655083e+3, 2.2465639e+2, -788128.4, -843058.5, -8.445894, 0.00025611793, 0.00014924767, -788128.4, -49760.742, 0.0, 10.001388, 9.929261 
4.6550825e+3, 2.345857e+2, -689713.1, -744892.75, -11.947756, 0.00025531097, -0.00006289096, -689713.1, -48652.902, 0.0, 10.00138, 9.92893 
4.6550825e+3, 2.4450809e+2, -601401.94, -666952.3, -7.3652124, 0.00025456285, 0.00009878054, -601401.94, -57581.086, 0.0, 10.001373, 9.915493 
4.655082e+3, 2.544237e+2, -502666.0, -568288.6, -10.831665, 0.00025388465, -0.000083820974, -502666.0, -56018.164, 0.0, 10.001367, 9.915393 
4.655082e+3, 2.6433223e+2, -414443.0, -490940.88, -5.9131923, 0.00025321575, 0.00016203582, -414443.0, -64898.742, 0.0, 10.00136, 9.901324 
4.655082e+3, 2.742341e+2, -315174.3, -391339.4, -8.998457, 0.00025255815, -0.00018388164, -315174.3, -62668.465, 0.0, 10.001354, 9.901745 
4.6550816e+3, 2.8412774e+2, -228711.25, -318050.34, -3.7798955, 0.00025195998, 0.00024724784, -228711.25, -73163.164, 0.0, 10.001348, 9.884803 
4.6550816e+3, 2.9401362e+2, -129021.0, -217745.11, -6.6379642, 0.00025144208, -0.00023579526, -129021.0, -70354.27, 0.0, 10.001342, 9.885582 
4.6550816e+3, 3.039274e+2, -39302.87, -84749.22, -0.9710946, 0.00025071515, 0.000188793, -39302.87, -39302.87, 0.0, 10.001336, 9.94153 
4.655081e+3, 3.1387082e+2, -38233.133, -82514.8, -3.5301623, 0.00024967937, -0.0000432028, -38233.133, -38233.133, 0.0, 10.00133, 9.943041 
4.665087e+3, 1.2500636e+2, -1718121.8, -1724089.4, 1.601648, 0.00026836482, 0.00008449821, -1718121.8, -3183.7793, 0.0, 10.001511, 9.993601 
4.665087e+3, 1.3499981e+2, -1620763.4, -1627316.4, -2.4643617, 0.00026686175, -0.00009264161, -1620763.4, -3761.275, 0.0, 10.001502, 9.992817 
4.6650866e+3, 1.4498675e+2, -1532636.6, -1547958.6, -1.7437207, 0.00026575619, 0.000170173, -1532636.6, -13506.504, 0.0, 10.001493, 9.981189 
4.6650866e+3, 1.5496792e+2, -1434930.3, -1450649.3, -5.8113317, 0.0002650444, -0.00001798396, -1434930.3, -13615.57, 0.0, 10.001486, 9.980658 
4.665086e+3, 1.6494247e+2, -1346896.4, -1371790.8, -4.1979084, 0.0002642722, 0.00006487428, -1346896.4, -23332.402, 0.0, 10.001477, 9.968575 
4.6650854e+3, 1.749111e+2, -1248959.1, -1274163.1, -8.100955, 0.0002634397, -0.000038164224, -1248959.1, -23087.637, 0.0, 10.001469, 9.968161 
4.6650854e+3, 1.8487309e+2, -1160890.3, -1195575.1, -5.6178126, 0.00026256885, 0.00010695971, -1160890.3, -32646.242, 0.0, 10.001461, 9.9557295 
4.665085e+3, 1.9482885e+2, -1062760.6, -1097702.1, -9.566476, 0.0002616572, -0.00002527798, -1062760.6, -32083.21, 0.0, 10.001452, 9.955386 
4.665085e+3, 2.0477796e+2, -974610.75, -1019310.6, -6.230651, 0.0002607696, 0.000096618525, -974610.75, -41434.49, 0.0, 10.001445, 9.942629 
4.6650845e+3, 2.1472062e+2, -876343.4, -921299.25, -9.896597, 0.0002599078, -0.00009714633, -876343.4, -40605.285, 0.0, 10.001437, 9.942288 
4.6650845e+3, 2.246566e+2, -788070.5, -843040.44, -6.080829, 0.00025919222, 0.00014990848, -788070.5, -49704.96, 0.0, 10.00143, 9.929251 
4.665084e+3, 2.3458591e+2, -689655.06, -744874.8, -9.7529545, 0.0002586413, -0.000062471314, -689655.06, -48596.785, 0.0, 10.001423, 9.92892 
4.665084e+3, 2.4450828e+2, -601344.3, -666934.5, -5.078657, 0.00025792277, 0.00009923319, -601344.3, -57525.27, 0.0, 10.001416, 9.9154825 
4.6650836e+3, 2.544239e+2, -502609.94, -568271.8, -8.394112, 0.00025700385, -0.000083008206, -502609.94, -55963.848, 0.0, 10.001409, 9.915383 
4.6650836e+3, 2.6433238e+2, -414387.94, -490924.6, -3.363275, 0.0002562317, 0.00016291755, -414387.94, -64845.35, 0.0, 10.001402, 9.901315 
4.665083e+3, 2.742343e+2, -315119.88, -391323.6, -6.6979303, 0.00025564615, -0.0001833017, -315119.88, -62615.59, 0.0, 10.001395, 9.901734 
4.665083e+3, 2.841279e+2, -228656.95, -318034.25, -1.5005714, 0.00025511978, 0.00024774362, -228656.95, -73110.34, 0.0, 10.001389, 9.884793 
4.665083e+3, 2.9401377e+2, -128967.22, -217729.4, -4.327826, 0.00025467243, -0.00023508443, -128967.22, -70301.875, 0.0, 10.001383, 9.885572 
4.665083e+3, 3.0392754e+2, -39250.785, -84735.22, 1.344737, 0.00025388366, 0.0001895172, -39250.785, -39250.785, 0.0, 10.001376, 9.94152 
4.6650824e+3, 3.1387094e+2, -38182.5, -82501.586, -1.4780275, 0.00025258958, -0.000042766907, -38182.5, -38182.5, 0.0, 10.00137, 9.94303 
4.6750888e+3, 1.2500669e+2, -1718131.0, -1724106.9, -1.5276997, 0.0002720232, 0.00008583648, -1718131.0, -3196.1133, 0.0, 10.001511, 9.993589 
4.6750885e+3, 1.3500012e+2, -1620772.5, -1627333.8, -5.5954432, 0.00027029045, -0.00009174591, -1620772.5, -3773.4016, 0.0, 10.001502, 9.992806 
4.675088e+3, 1.4498706e+2, -1532645.6, -1547975.9, -4.9018025, 0.0002691337, 0.00017082176, -1532645.6, -13518.418, 0.0, 10.001494, 9.981178 
4.675088e+3, 1.549682e+2, -1434939.1, -1450666.4, -8.969616, 0.0002685494, -0.0000173864, -1434939.1, -13627.279, 0.0, 10.001486, 9.980646 
4.6750873e+3, 1.6494276e+2, -1346904.9, -1371807.1, -7.2574887, 0.00026774453, 0.00006550763, -1346904.9, -23343.584, 0.0, 10.001477, 9.968564 
4.675087e+3, 1.7491138e+2, -1248967.5, -1274179.5, -11.160126, 0.0002667165, -0.000037406597, -1248967.5, -23098.623, 0.0, 10.001469, 9.96815 
4.675087e+3, 1.8487336e+2, -1160898.6, -1195591.8, -8.625089, 0.00026585287, 0.000107912565, -1160898.6, -32657.223, 0.0, 10.001461, 9.955719 
4.6750864e+3, 1.948291e+2, -1062769.0, -1097718.6, -12.572209, 0.00026515973, -0.000024055933, -1062769.0, -32093.99, 0.0, 10.001453, 9.955376 
4.6750864e+3, 2.047782e+2, -974618.56, -1019326.25, -9.167144, 0.00026425987, 0.00009762578, -974618.56, -41444.637, 0.0, 10.001445, 9.942619 
4.6750858e+3, 2.1472086e+2, -876351.1, -921314.75, -12.833652, 0.00026313664, -0.0000968764, -876351.1, -40615.227, 0.0, 10.001437, 9.942278 
4.6750858e+3, 2.2465682e+2, -788078.4, -843056.25, -8.692879, 0.00026232377, 0.00014998026, -788078.4, -49714.926, 0.0, 10.00143, 9.929241 
4.6750855e+3, 2.3458612e+2, -689662.8, -744890.5, -12.354225, 0.0002618609, -0.00006198879, -689662.8, -48606.57, 0.0, 10.001423, 9.92891 
4.6750855e+3, 2.4450849e+2, -601351.56, -666949.4, -7.7897387, 0.000261179, 0.00009991906, -601351.56, -57534.473, 0.0, 10.001416, 9.915473 
4.675085e+3, 2.5442407e+2, -502617.13, -568286.5, -11.112371, 0.00026023513, -0.000082366874, -502617.13, -55972.84, 0.0, 10.001409, 9.915374 
4.675085e+3, 2.643326e+2, -414395.38, -490939.97, -5.8395667, 0.00025940628, 0.00016352204, -414395.38, -64854.516, 0.0, 10.001402, 9.901304 
4.6750844e+3, 2.7423444e+2, -315127.25, -391338.94, -9.158124, 0.0002587238, -0.0001827236, -315127.25, -62624.582, 0.0, 10.001395, 9.901725 
4.6750844e+3, 2.8412804e+2, -228663.7, -318048.44, -3.8501105, 0.00025822298, 0.00024830035, -228663.7, -73118.625, 0.0, 10.001389, 9.884784 
4.6750844e+3, 2.940139e+2, -128973.84, -217743.38, -6.668717, 0.00025796876, -0.00023454241, -128973.84, -70309.93, 0.0, 10.001383, 9.885563 
4.675084e+3, 3.0392766e+2, -39257.957, -84750.38, -0.9748821, 0.00025717073, 0.00019015819, -39257.957, -39257.957, 0.0, 10.001376, 9.941509 
4.675084e+3, 3.1387106e+2, -38189.75, -82516.914, -3.7944365, 0.0002555657, -0.000041858035, -38189.75, -38189.75, 0.0, 10.00137, 9.94302 
4.6850902e+3, 1.2500702e+2, -1718060.8, -1724082.1, 1.7719599, 0.0002757807, 0.000086944885, -1718060.8, -3129.1272, 0.0, 10.00156, 9.993579 
4.68509e+3, 1.3500044e+2, -1620703.9, -1627310.1, -2.582159, 0.00027384626, -0.00009099748, -1620703.9, -3707.8452, 0.0, 10.001551, 9.992795 
4.6850893e+3, 1.4498736e+2, -1532578.0, -1547952.5, -2.0596256, 0.0002726038, 0.00017147584, -1532578.0, -13453.793, 0.0, 10.001542, 9.981167 
4.6850893e+3, 1.549685e+2, -1434872.9, -1450644.0, -6.2156544, 0.00027204977, -0.00001656089, -1434872.9, -13563.828, 0.0, 10.001533, 9.980636 
4.685089e+3, 1.6494304e+2, -1346839.4, -1371784.8, -4.4763417, 0.00027121557, 0.00006634713, -1346839.4, -23280.87, 0.0, 10.001524, 9.968554 
4.6850884e+3, 1.7491165e+2, -1248903.4, -1274158.0, -8.423248, 0.00027009772, -0.000036713067, -1248903.4, -23037.223, 0.0, 10.001515, 9.968141 
4.6850884e+3, 1.8487361e+2, -1160835.6, -1195570.9, -5.7295294, 0.00026919, 0.00010863168, -1160835.6, -32596.742, 0.0, 10.001507, 9.9557085 
4.6850878e+3, 1.9482936e+2, -1062706.8, -1097698.4, -9.598491, 0.00026850056, -0.000023132425, -1062706.8, -32034.166, 0.0, 10.001498, 9.955365 
4.6850878e+3, 2.0477845e+2, -974556.75, -1019306.25, -6.1745152, 0.0002676417, 0.0000985401, -974556.75, -41385.188, 0.0, 10.00149, 9.942609 
4.6850875e+3, 2.1472108e+2, -876289.9, -921295.2, -10.098316, 0.00026659973, -0.00009620188, -876289.9, -40556.266, 0.0, 10.001482, 9.942268 
4.6850875e+3, 2.2465703e+2, -788018.06, -843037.2, -5.8822293, 0.00026573078, 0.00015062295, -788018.06, -49656.777, 0.0, 10.001474, 9.929231 
4.685087e+3, 2.3458633e+2, -689604.1, -744872.44, -9.528938, 0.00026505685, -0.00006114303, -689604.1, -48549.973, 0.0, 10.001467, 9.9289 
4.685087e+3, 2.4450868e+2, -601293.6, -666931.56, -4.999939, 0.0002643279, 0.00010074948, -601293.6, -57478.516, 0.0, 10.001459, 9.915463 
4.6850863e+3, 2.5442427e+2, -502559.38, -568269.0, -8.580178, 0.00026353265, -0.000081812395, -502559.38, -55916.996, 0.0, 10.0014515, 9.915363 
4.6850863e+3, 2.6433277e+2, -414338.25, -490923.1, -3.3093913, 0.00026274356, 0.00016401752, -414338.25, -64799.164, 0.0, 10.001445, 9.901294 
4.685086e+3, 2.7423462e+2, -315071.13, -391322.72, -6.657992, 0.00026196206, -0.00018201087, -315071.13, -62570.15, 0.0, 10.001438, 9.901714 
4.685086e+3, 2.8412825e+2, -228608.05, -318031.9, -1.3209033, 0.0002613911, 0.00024904552, -228608.05, -73064.555, 0.0, 10.0014305, 9.884774 
4.685086e+3, 2.9401404e+2, -128919.17, -217727.47, -4.3038464, 0.00026110688, -0.00023401881, -128919.17, -70256.76, 0.0, 10.001424, 9.885553 
4.6850854e+3, 3.0392784e+2, -39204.887, -84736.22, 1.3260456, 0.00026031065, 0.00019065118, -39204.887, -39204.887, 0.0, 10.001417, 9.9415 
4.6850854e+3, 3.138712e+2, -38137.043, -82503.016, -1.4315894, 0.00025875418, -0.000041109553, -38137.043, -38137.043, 0.0, 10.001411, 9.94301 
4.6950918e+3, 1.2500736e+2, -1718070.6, -1724100.9, -1.6304474, 0.00027963528, 0.000087832115, -1718070.6, -3142.2822, 0.0, 10.00156, 9.9935665 
4.6950912e+3, 1.3500078e+2, -1620713.6, -1627328.8, -5.983205, 0.00027752604, -0.00009039069, -1620713.6, -3720.7798, 0.0, 10.001551, 9.992784 
4.6950912e+3, 1.4498767e+2, -1532587.1, -1547970.3, -5.4290423, 0.00027616444, 0.00017213552, -1532587.1, -13466.054, 0.0, 10.001542, 9.981156 
4.695091e+3, 1.5496881e+2, -1434881.9, -1450661.5, -9.58474, 0.0002755469, -0.000015514792, -1434881.9, -13575.883, 0.0, 10.001533, 9.980624 
4.6950904e+3, 1.6494332e+2, -1346847.9, -1371801.4, -7.7843733, 0.00027468667, 0.000067386165, -1346847.9, -23292.295, 0.0, 10.001524, 9.968543 
4.6950904e+3, 1.7491193e+2, -1248911.9, -1274174.5, -11.732722, 0.00027358092, -0.000036081026, -1248911.9, -23048.441, 0.0, 10.001515, 9.96813 
4.6950898e+3, 1.8487388e+2, -1160843.9, -1195587.3, -8.835204, 0.00027257964, 0.00010912551, -1160843.9, -32607.693, 0.0, 10.001507, 9.955698 
4.6950895e+3, 1.9482961e+2, -1062714.9, -1097714.6, -12.703226, 0.00027168635, -0.000022496655, -1062714.9, -32044.922, 0.0, 10.001498, 9.955355 
4.6950895e+3, 2.0477869e+2, -974565.1, -1019322.9, -9.172643, 0.00027092, 0.0000993653, -974565.1, -41396.02, 0.0, 10.001491, 9.942598 
4.695089e+3, 2.1472132e+2, -876298.2, -921311.75, -13.093259, 0.00027029042, -0.000095136, -876298.2, -40566.9, 0.0, 10.001482, 9.942257 
4.695089e+3, 2.2465727e+2, -788025.9, -843053.0, -8.809271, 0.0002694052, 0.00015181767, -788025.9, -49666.883, 0.0, 10.001474, 9.92922 
4.6950883e+3, 2.3458655e+2, -689611.9, -744888.2, -12.454973, 0.00026823094, -0.0000599457, -689611.9, -48559.87, 0.0, 10.001467, 9.928889 
4.6950883e+3, 2.4450889e+2, -601301.44, -666947.44, -7.6961412, 0.0002673741, 0.00010172017, -601301.44, -57488.348, 0.0, 10.001459, 9.915453 
4.695088e+3, 2.5442448e+2, -502567.06, -568284.8, -11.266794, 0.0002668953, -0.00008134145, -502567.06, -55926.633, 0.0, 10.0014515, 9.915353 
4.695088e+3, 2.6433295e+2, -414345.78, -490938.7, -5.9427423, 0.00026623922, 0.00016440797, -414345.78, -64808.55, 0.0, 10.001445, 9.901284 
4.6950874e+3, 2.742348e+2, -315078.56, -391338.2, -9.287977, 0.00026535665, -0.00018116753, -315078.56, -62579.336, 0.0, 10.001438, 9.901704 
4.6950874e+3, 2.841284e+2, -228615.1, -318046.72, -3.8474467, 0.00026462306, 0.00024997338, -228615.1, -73073.266, 0.0, 10.0014305, 9.884765 
4.6950868e+3, 2.9401422e+2, -128926.1, -217742.11, -6.822192, 0.00026409308, -0.00023351266, -128926.1, -70265.25, 0.0, 10.001424, 9.885544 
4.6950868e+3, 3.03928e+2, -39211.984, -84751.25, -1.0766784, 0.00026330922, 0.00019100145, -39211.984, -39211.984, 0.0, 10.001418, 9.941489 
4.6950868e+3, 3.1387132e+2, -38144.176, -82518.11, -3.822409, 0.0002621491, -0.000040515617, -38144.176, -38144.176, 0.0, 10.001411, 9.943 
4.7050932e+3, 1.250077e+2, -1717998.0, -1724075.4, 1.7346308, 0.0002834095, 0.00008870322, -1717998.0, -3073.142, 0.0, 10.001611, 9.993555 
4.705093e+3, 1.3500111e+2, -1620642.9, -1627304.4, -2.566458, 0.00028120732, -0.000089412744, -1620642.9, -3653.393, 0.0, 10.001601, 9.992772 
4.705093e+3, 1.44988e+2, -1532517.6, -1547946.0, -1.9074507, 0.0002797532, 0.00017318092, -1532517.6, -13399.708, 0.0, 10.001591, 9.981145 
4.7050923e+3, 1.5496911e+2, -1434813.9, -1450638.3, -6.0910125, 0.0002790434, -0.000014441463, -1434813.9, -13510.879, 0.0, 10.001581, 9.980614 
4.7050917e+3, 1.6494364e+2, -1346780.8, -1371778.5, -4.2994757, 0.00027816897, 0.000068422494, -1346780.8, -23228.123, 0.0, 10.001572, 9.968533 
4.7050917e+3, 1.7491221e+2, -1248845.8, -1274152.4, -8.476085, 0.0002771284, -0.000035147663, -1248845.8, -22985.26, 0.0, 10.001562, 9.968119 
4.7050914e+3, 1.8487418e+2, -1160778.8, -1195565.5, -5.583389, 0.00027610664, 0.00010994338, -1160778.8, -32545.328, 0.0, 10.001554, 9.9556875 
4.7050908e+3, 1.948299e+2, -1062651.1, -1097693.8, -9.620329, 0.00027510364, -0.000021807324, -1062651.1, -31983.736, 0.0, 10.001545, 9.955344 
4.7050908e+3, 2.0477894e+2, -974502.2, -1019302.56, -5.9530506, 0.00027428044, 0.00010009567, -974502.2, -41335.633, 0.0, 10.001536, 9.942588 
4.7050902e+3, 2.1472158e+2, -876236.0, -921292.0, -9.785687, 0.0002736511, -0.00009418158, -876236.0, -40507.168, 0.0, 10.001528, 9.942246 
4.7050902e+3, 2.246575e+2, -787964.25, -843033.5, -5.4395266, 0.0002727925, 0.00015283204, -787964.25, -49607.566, 0.0, 10.001519, 9.92921 
4.70509e+3, 2.3458678e+2, -689550.9, -744869.2, -9.244987, 0.0002716746, -0.00005905665, -689550.9, -48501.12, 0.0, 10.001512, 9.928879 
4.70509e+3, 2.4450912e+2, -601241.25, -666929.2, -4.443063, 0.000270814, 0.000102520025, -601241.25, -57430.305, 0.0, 10.001504, 9.915442 
4.7050893e+3, 2.5442466e+2, -502507.8, -568267.2, -8.191385, 0.00027025983, -0.00008058761, -502507.8, -55869.406, 0.0, 10.001496, 9.915342 
4.7050893e+3, 2.6433316e+2, -414287.06, -490921.2, -2.9135292, 0.00026956192, 0.00016515514, -414287.06, -64751.773, 0.0, 10.001489, 9.901274 
4.7050887e+3, 2.7423498e+2, -315020.66, -391321.25, -6.3093686, 0.00026868025, -0.0001803771, -315020.66, -62523.25, 0.0, 10.001481, 9.901694 
4.7050887e+3, 2.8412858e+2, -228557.72, -318029.8, -0.8652567, 0.00026792593, 0.00025078212, -228557.72, -73017.61, 0.0, 10.001474, 9.884755 
4.7050884e+3, 2.9401436e+2, -128869.71, -217725.83, -3.983675, 0.00026734534, -0.00023272006, -128869.71, -70210.49, 0.0, 10.001467, 9.885533 
4.7050884e+3, 3.0392814e+2, -39157.258, -84736.57, 1.6235232, 0.00026651754, 0.00019173852, -39157.258, -39157.258, 0.0, 10.00146, 9.941479 
4.7050884e+3, 3.138715e+2, -38090.28, -82503.91, -1.3415089, 0.00026532382, -0.00003989177, -38090.28, -38090.28, 0.0, 10.001453, 9.942989 
4.715095e+3, 1.2500806e+2, -1718007.8, -1724093.9, -2.0079885, 0.00028710774, 0.000089559384, -1718007.8, -3086.3472, 0.0, 10.001611, 9.993544 
4.715095e+3, 1.3500145e+2, -1620652.5, -1627322.8, -6.309583, 0.00028489143, -0.00008807631, -1620652.5, -3666.3833, 0.0, 10.001601, 9.992761 
4.7150943e+3, 1.4498834e+2, -1532526.9, -1547963.9, -5.5286927, 0.0002833704, 0.0001745989, -1532526.9, -13412.206, 0.0, 10.001591, 9.981133 
4.7150937e+3, 1.5496945e+2, -1434823.0, -1450656.0, -9.713515, 0.00028254066, -0.0000133411995, -1434823.0, -13523.165, 0.0, 10.001581, 9.980602 
4.7150937e+3, 1.6494395e+2, -1346789.9, -1371796.1, -7.780634, 0.0002816634, 0.00006945694, -1346789.9, -23240.223, 0.0, 10.001572, 9.968521 
4.7150934e+3, 1.7491253e+2, -1248854.8, -1274169.9, -11.956243, 0.0002807391, -0.000033922974, -1248854.8, -22997.148, 0.0, 10.001562, 9.968108 
4.7150928e+3, 1.8487446e+2, -1160787.4, -1195582.5, -8.9084215, 0.00027976744, 0.000111074405, -1160787.4, -32556.81, 0.0, 10.001554, 9.955677 
4.7150928e+3, 1.9483016e+2, -1062659.6, -1097710.6, -12.94446, 0.00027874555, -0.000021065858, -1062659.6, -31995.008, 0.0, 10.001545, 9.955334 
4.7150922e+3, 2.0477922e+2, -974510.4, -1019318.9, -9.048978, 0.00027772132, 0.00010073502, -974510.4, -41346.438, 0.0, 10.001536, 9.942577 
4.715092e+3, 2.1472183e+2, -876244.06, -921308.2, -12.879333, 0.00027669442, -0.00009333408, -876244.06, -40517.77, 0.0, 10.001528, 9.942237 
4.715092e+3, 2.2465776e+2, -787972.4, -843050.0, -8.448635, 0.0002759039, 0.00015367303, -787972.4, -49618.14, 0.0, 10.00152, 9.929199 
4.7150913e+3, 2.3458701e+2, -689558.94, -744885.5, -12.252213, 0.00027537966, -0.00005846457, -689558.94, -48511.492, 0.0, 10.001512, 9.928868 
4.7150913e+3, 2.4450934e+2, -601249.4, -666945.8, -7.279409, 0.0002746351, 0.00010315552, -601249.4, -57440.652, 0.0, 10.001504, 9.915432 
4.7150907e+3, 2.5442487e+2, -502515.84, -568283.7, -11.019425, 0.0002736273, -0.000079560086, -502515.84, -55879.55, 0.0, 10.001496, 9.915332 
4.7150907e+3, 2.6433334e+2, -414294.72, -490937.0, -5.664094, 0.00027271875, 0.00016624722, -414294.72, -64761.42, 0.0, 10.001489, 9.901263 
4.7150904e+3, 2.7423516e+2, -315028.2, -391336.94, -9.056828, 0.0002719365, -0.00017963725, -315028.2, -62532.67, 0.0, 10.001482, 9.901684 
4.7150904e+3, 2.8412876e+2, -228565.03, -318045.16, -3.5591063, 0.00027129843, 0.00025147645, -228565.03, -73026.73, 0.0, 10.001474, 9.884745 
4.7150898e+3, 2.9401454e+2, -128876.914, -217741.06, -6.6724706, 0.00027085567, -0.00023165025, -128876.914, -70219.39, 0.0, 10.001468, 9.885524 
4.7150898e+3, 3.039283e+2, -39164.754, -84752.45, -0.9741177, 0.00026992956, 0.00019284962, -39164.754, -39164.754, 0.0, 10.00146, 9.941468 
4.7150898e+3, 3.1387165e+2, -38097.83, -82519.89, -3.9296076, 0.00026828697, -0.000039238643, -38097.83, -38097.83, 0.0, 10.001453, 9.942978 
4.7250968e+3, 1.2500842e+2, -1717933.6, -1724067.6, 2.0449839, 0.0002908488, 0.00009083169, -1717933.6, -3015.8152, 0.0, 10.001663, 9.993532 
4.7250962e+3, 1.3500181e+2, -1620579.9, -1627297.5, -2.3963623, 0.00028854902, -0.00008710736, -1620579.9, -3597.288, 0.0, 10.001652, 9.992748 
4.7250956e+3, 1.4498867e+2, -1532455.5, -1547939.0, -1.6484034, 0.00028699829, 0.00017549474, -1532455.5, -13344.198, 0.0, 10.001641, 9.981123 
4.7250956e+3, 1.5496977e+2, -1434753.1, -1450632.1, -6.033185, 0.00028619252, -0.000012288371, -1434753.1, -13456.596, 0.0, 10.001631, 9.980591 
4.7250953e+3, 1.6494428e+2, -1346721.0, -1371772.6, -3.9946685, 0.00028529554, 0.000070569135, -1346721.0, -23174.545, 0.0, 10.001621, 9.968511 
4.7250947e+3, 1.7491283e+2, -1248787.0, -1274147.3, -8.166969, 0.00028430708, -0.00003285046, -1248787.0, -22932.508, 0.0, 10.001611, 9.968097 
4.725094e+3, 1.8487476e+2, -1160720.6, -1195560.4, -4.988431, 0.00028330326, 0.00011210867, -1160720.6, -32492.947, 0.0, 10.001601, 9.955666 
4.725094e+3, 1.9483046e+2, -1062593.9, -1097689.1, -9.136939, 0.0002822825, -0.000020068423, -1062593.9, -31932.064, 0.0, 10.001593, 9.955322 
4.7250938e+3, 2.0477949e+2, -974445.44, -1019297.8, -5.1991725, 0.0002812231, 0.00010170721, -974445.44, -41284.24, 0.0, 10.001583, 9.942567 
4.7250938e+3, 2.147221e+2, -876180.25, -921287.9, -9.299738, 0.00028012175, -0.00009237462, -876180.25, -40456.586, 0.0, 10.0015745, 9.942225 
4.7250932e+3, 2.24658e+2, -787909.25, -843030.1, -4.8794537, 0.0002793203, 0.00015456096, -787909.25, -49557.504, 0.0, 10.001566, 9.929189 
4.7250926e+3, 2.3458727e+2, -689496.2, -744866.06, -8.806355, 0.0002788568, -0.000057714547, -689496.2, -48451.105, 0.0, 10.001558, 9.928858 
4.7250926e+3, 2.4450956e+2, -601187.25, -666926.9, -3.8154905, 0.00027811513, 0.00010391545, -601187.25, -57380.797, 0.0, 10.00155, 9.915421 
4.7250924e+3, 2.544251e+2, -502454.8, -568265.5, -7.5651445, 0.0002770411, -0.00007861406, -502454.8, -55820.715, 0.0, 10.001542, 9.915321 
4.7250924e+3, 2.6433355e+2, -414234.44, -490919.2, -2.1937976, 0.000276095, 0.00016720474, -414234.44, -64703.234, 0.0, 10.001534, 9.901253 
4.7250918e+3, 2.7423537e+2, -314968.66, -391319.66, -5.8397155, 0.0002753117, -0.0001788904, -314968.66, -62475.14, 0.0, 10.001527, 9.901672 
4.7250918e+3, 2.8412893e+2, -228505.78, -318027.6, -0.42389476, 0.00027467776, 0.00025216304, -228505.78, -72969.35, 0.0, 10.001519, 9.884734 
4.7250915e+3, 2.9401475e+2, -128818.414, -217723.97, -3.5404081, 0.00027424598, -0.00023081747, -128818.414, -70162.67, 0.0, 10.001512, 9.885513 
4.7250915e+3, 3.0392846e+2, -39108.066, -84737.37, 2.0611277, 0.00027325537, 0.00019370996, -39108.066, -39108.066, 0.0, 10.001504, 9.941457 
4.7250915e+3, 3.138718e+2, -38042.1, -82505.38, -1.0536739, 0.00027143635, -0.000038528284, -38042.1, -38042.1, 0.0, 10.001496, 9.942967 
4.7350982e+3, 1.250088e+2, -1717943.6, -1724086.8, -1.9642481, 0.00029463254, 0.00009250531, -1717943.6, -3029.5427, 0.0, 10.001663, 9.993521 
4.7350976e+3, 1.3500218e+2, -1620589.9, -1627316.5, -6.4066386, 0.00029218252, -0.0000864915, -1620589.9, -3610.7844, 0.0, 10.001652, 9.992737 
4.7350976e+3, 1.4498903e+2, -1532465.1, -1547957.6, -5.541774, 0.00029063792, 0.00017588862, -1532465.1, -13357.33, 0.0, 10.001641, 9.981111 
4.7350973e+3, 1.5497012e+2, -1434762.6, -1450650.8, -9.926691, 0.00028999467, -0.0000112804955, -1434762.6, -13469.512, 0.0, 10.001631, 9.980579 
4.7350967e+3, 1.649446e+2, -1346730.0, -1371790.3, -7.6555896, 0.00028906154, 0.00007175686, -1346730.0, -23186.818, 0.0, 10.001621, 9.968499 
4.735096e+3, 1.7491315e+2, -1248796.0, -1274164.6, -11.827656, 0.0002878352, -0.000031923846, -1248796.0, -22944.57, 0.0, 10.001612, 9.968085 
4.735096e+3, 1.8487506e+2, -1160729.5, -1195577.9, -8.470305, 0.00028672, 0.00011305049, -1160729.5, -32504.855, 0.0, 10.001602, 9.955654 
4.7350958e+3, 1.9483075e+2, -1062602.6, -1097706.5, -12.617855, 0.0002857197, -0.000018823528, -1062602.6, -31943.756, 0.0, 10.001593, 9.955312 
4.7350952e+3, 2.0477979e+2, -974454.2, -1019315.25, -8.478652, 0.00028478485, 0.00010300086, -974454.2, -41295.79, 0.0, 10.001583, 9.942555 
4.7350952e+3, 2.1472238e+2, -876188.94, -921305.2, -12.576498, 0.0002839204, -0.00009130667, -876188.9, -40467.918, 0.0, 10.0015745, 9.942215 
4.7350946e+3, 2.2465828e+2, -787917.6, -843047.1, -7.889384, 0.00028303178, 0.00015549471, -787917.6, -49568.504, 0.0, 10.001566, 9.929177 
4.7350946e+3, 2.345875e+2, -689504.5, -744882.94, -11.809655, 0.00028211545, -0.000056811652, -689504.44, -48461.9, 0.0, 10.001558, 9.928846 
4.7350943e+3, 2.4450982e+2, -601195.4, -666943.56, -6.83373, 0.0002812676, 0.000104795974, -601195.4, -57391.332, 0.0, 10.001551, 9.91541 
4.7350937e+3, 2.5442535e+2, -502462.88, -568282.06, -10.585344, 0.00028050086, -0.00007774596, -502462.88, -55831.03, 0.0, 10.001542, 9.91531 
4.7350937e+3, 2.643338e+2, -414242.56, -490936.0, -5.0543537, 0.00027968397, 0.00016803316, -414242.56, -64713.504, 0.0, 10.001534, 9.901241 
4.735093e+3, 2.742356e+2, -314976.7, -391336.38, -8.690359, 0.00027880285, -0.00017813627, -314976.7, -62485.207, 0.0, 10.001527, 9.901662 
4.735093e+3, 2.8412914e+2, -228513.13, -318043.03, -3.227127, 0.0002780649, 0.00025284264, -228513.13, -72978.65, 0.0, 10.001519, 9.884725 
4.735093e+3, 2.9401493e+2, -128825.61, -217739.22, -6.3414617, 0.0002775217, -0.00023021273, -128825.61, -70171.72, 0.0, 10.001512, 9.885503 
4.7350928e+3, 3.0392864e+2, -39115.82, -84753.81, -0.75563216, 0.00027649922, 0.00019432904, -39115.82, -39115.82, 0.0, 10.001504, 9.941445 
4.7350928e+3, 3.1387198e+2, -38049.934, -82521.99, -3.8728755, 0.0002747666, -0.000037762115, -38049.934, -38049.934, 0.0, 10.001497, 9.942956 
4.7451e+3, 1.250092e+2, -1717867.3, -1724059.8, 2.5258532, 0.00029843944, 0.000093718656, -1717867.3, -2956.9949, 0.0, 10.001717, 9.993508 
4.7450995e+3, 1.3500255e+2, -1620515.4, -1627290.8, -2.112569, 0.0002959238, -0.000085307845, -1620515.4, -3539.944, 0.0, 10.001705, 9.992724 
4.7450992e+3, 1.449894e+2, -1532391.9, -1547932.3, -1.2214442, 0.0002943542, 0.00017705091, -1532391.9, -13287.645, 0.0, 10.001694, 9.981099 
4.7450987e+3, 1.5497047e+2, -1434691.0, -1450626.4, -5.6834583, 0.00029372636, -0.000010131356, -1434691.0, -13401.283, 0.0, 10.001682, 9.980568 
4.7450987e+3, 1.6494495e+2, -1346659.5, -1371766.1, -3.2751803, 0.00029274475, 0.00007290825, -1346659.5, -23119.586, 0.0, 10.001671, 9.968488 
4.745098e+3, 1.7491348e+2, -1248727.1, -1274141.6, -7.5603614, 0.00029140495, -0.0000307545, -1248727.1, -22878.938, 0.0, 10.00166, 9.968075 
4.7450978e+3, 1.8487538e+2, -1160661.6, -1195555.5, -3.971293, 0.00029025922, 0.000114187846, -1160661.6, -32440.123, 0.0, 10.001651, 9.955644 
4.7450972e+3, 1.9483107e+2, -1062535.3, -1097684.6, -8.244954, 0.00028931475, -0.00001777018, -1062535.3, -31879.338, 0.0, 10.001641, 9.9553 
4.7450972e+3, 2.0478007e+2, -974387.2, -1019293.75, -4.040762, 0.0002884178, 0.000104038656, -974387.2, -41231.69, 0.0, 10.001632, 9.942544 
4.7450966e+3, 2.1472266e+2, -876122.4, -921284.2, -8.304617, 0.00028757192, -0.00009021062, -876122.4, -40404.2, 0.0, 10.001623, 9.9422035 
4.7450963e+3, 2.2465855e+2, -787851.9, -843026.56, -3.6537673, 0.0002866193, 0.00015660685, -787851.9, -49505.434, 0.0, 10.001615, 9.929167 
4.7450963e+3, 2.3458779e+2, -689440.2, -744863.25, -7.806813, 0.0002855457, -0.000055730954, -689440.2, -48400.188, 0.0, 10.001606, 9.928836 
4.7450957e+3, 2.4451007e+2, -601131.8, -666924.2, -2.9013057, 0.0002846614, 0.00010580196, -601131.8, -57330.223, 0.0, 10.001597, 9.915399 
4.7450957e+3, 2.544256e+2, -502399.66, -568263.06, -6.823853, 0.00028400213, -0.000076866214, -502399.66, -55770.17, 0.0, 10.00159, 9.915299 
4.745095e+3, 2.6433402e+2, -414179.94, -490917.56, -1.3392189, 0.00028321636, 0.0001688756, -414179.94, -64653.133, 0.0, 10.001581, 9.901231 
4.745095e+3, 2.742358e+2, -314915.03, -391318.6, -5.087553, 0.0002822689, -0.00017721804, -314915.03, -62425.71, 0.0, 10.001574, 9.90165 
4.7450948e+3, 2.8412935e+2, -228451.88, -318024.88, 0.26399562, 0.00028147397, 0.0002537472, -228451.88, -72919.42, 0.0, 10.001566, 9.884714 
4.7450948e+3, 2.940151e+2, -128765.34, -217721.66, -3.1055021, 0.0002808869, -0.00022944483, -128765.34, -70113.375, 0.0, 10.001557, 9.885492 
4.7450942e+3, 3.0392882e+2, -39057.336, -84738.27, 2.22216, 0.00027984107, 0.00019502077, -39057.336, -39057.336, 0.0, 10.00155, 9.941435 
4.7450942e+3, 3.1387213e+2, -37991.977, -82506.81, -1.0162325, 0.00027811568, -0.000037055222, -37991.977, -37991.977, 0.0, 10.001542, 9.942945 
4.7551015e+3, 1.250096e+2, -1717877.8, -1724079.8, -1.8120861, 0.00030227023, 0.0000944905, -1717877.8, -2971.4055, 0.0, 10.001717, 9.993496 
4.7551012e+3, 1.3500294e+2, -1620525.8, -1627310.6, -6.4471235, 0.0002997703, -0.000083577295, -1620525.6, -3554.1194, 0.0, 10.001705, 9.992712 
4.7551012e+3, 1.4498977e+2, -1532401.8, -1547951.3, -5.382407, 0.00029814563, 0.00017895292, -1532401.8, -13301.171, 0.0, 10.001694, 9.981088 
4.7551006e+3, 1.5497084e+2, -1434700.8, -1450645.3, -9.842223, 0.0002973918, -0.000008845652, -1434700.8, -13414.578, 0.0, 10.001682, 9.980556 
4.7551e+3, 1.649453e+2, -1346668.8, -1371784.1, -7.2408113, 0.00029634972, 0.00007402547, -1346668.8, -23132.305, 0.0, 10.001672, 9.968477 
4.7550997e+3, 1.7491384e+2, -1248736.3, -1274159.5, -11.530903, 0.00029501613, -0.000029350813, -1248736.3, -22891.436, 0.0, 10.00166, 9.968063 
4.755099e+3, 1.8487571e+2, -1160670.8, -1195573.5, -7.4637055, 0.00029391763, 0.00011551411, -1160670.8, -32452.49, 0.0, 10.001651, 9.955632 
4.755099e+3, 1.9483139e+2, -1062544.3, -1097702.5, -11.735919, 0.00029306312, -0.000016900405, -1062544.3, -31891.486, 0.0, 10.001641, 9.955289 
4.7550985e+3, 2.047804e+2, -974396.25, -1019311.9, -7.3471174, 0.0002921207, 0.000104831044, -974396.25, -41243.78, 0.0, 10.001633, 9.942533 
4.7550982e+3, 2.1472296e+2, -876131.4, -921302.2, -11.608564, 0.00029108327, -0.00008908669, -876131.4, -40416.07, 0.0, 10.001623, 9.942191 
4.7550982e+3, 2.2465883e+2, -787860.8, -843044.5, -6.9300456, 0.00029008888, 0.00015789153, -787860.8, -49517.105, 0.0, 10.001615, 9.929154 
4.7550976e+3, 2.3458806e+2, -689448.94, -744881.06, -11.083121, 0.00028914254, -0.00005447832, -689448.94, -48411.625, 0.0, 10.001606, 9.928823 
4.7550976e+3, 2.4451032e+2, -601140.3, -666941.56, -5.9293804, 0.00028828878, 0.000106929445, -601140.3, -57341.277, 0.0, 10.001597, 9.915387 
4.755097e+3, 2.5442585e+2, -502408.03, -568280.3, -9.842222, 0.00028754477, -0.00007597462, -502408.03, -55781.0, 0.0, 10.00159, 9.915288 
4.7550967e+3, 2.6433426e+2, -414188.28, -490934.8, -4.346295, 0.00028669558, 0.00016973219, -414188.28, -64663.797, 0.0, 10.001581, 9.901219 
4.7550967e+3, 2.7423602e+2, -314923.25, -391335.75, -8.094318, 0.00028571216, -0.00017614104, -314923.25, -62436.156, 0.0, 10.001574, 9.901639 
4.755096e+3, 2.841296e+2, -228459.67, -318041.28, -2.7059724, 0.0002849054, 0.00025486908, -228459.67, -72929.34, 0.0, 10.001566, 9.884703 
4.755096e+3, 2.9401532e+2, -128773.01, -217737.9, -6.072729, 0.00028433945, -0.00022851923, -128773.01, -70123.055, 0.0, 10.001557, 9.885482 
4.7550958e+3, 3.0392903e+2, -39065.32, -84755.234, -0.70950466, 0.00028327858, 0.00019578298, -39065.32, -39065.32, 0.0, 10.00155, 9.941422 
4.7550958e+3, 3.138723e+2, -38000.016, -82523.875, -3.9454732, 0.00028148422, -0.000036404872, -38000.01, -38000.01, 0.0, 10.001542, 9.942933 
4.7651035e+3, 1.2501001e+2, -1717801.0, -1724052.5, 3.111095, 0.00030611487, 0.00009560792, -1717801.0, -2898.6458, 0.0, 10.00177, 9.993484 
4.7651032e+3, 1.3500334e+2, -1620450.1, -1627284.3, -1.2742546, 0.00030360007, -0.00008208396, -1620450.1, -3482.5405, 0.0, 10.001758, 9.992701 
4.7651026e+3, 1.4499018e+2, -1532327.0, -1547925.0, 0.19301042, 0.00030193987, 0.00018061526, -1532327.0, -13230.276, 0.0, 10.001746, 9.981075 
4.765102e+3, 1.5497123e+2, -1434627.3, -1450619.8, -4.1114845, 0.0003011296, -0.000007221559, -1434627.3, -13344.782, 0.0, 10.001735, 9.980544 
4.7651017e+3, 1.6494566e+2, -1346596.5, -1371760.3, -1.4348695, 0.00030007388, 0.000075513686, -1346596.5, -23063.645, 0.0, 10.001723, 9.968465 
4.7651017e+3, 1.7491418e+2, -1248664.6, -1274136.0, -6.327229, 0.00029877012, -0.000028097425, -1248664.6, -22823.207, 0.0, 10.001713, 9.968051 
4.765101e+3, 1.8487607e+2, -1160599.6, -1195550.3, -2.341325, 0.00029766487, 0.00011664524, -1160599.6, -32384.74, 0.0, 10.001702, 9.95562 
4.7651005e+3, 1.9483171e+2, -1062474.4, -1097680.1, -7.0094156, 0.0002967655, -0.00001577438, -1062474.4, -31824.828, 0.0, 10.001692, 9.9552765 
4.7651002e+3, 2.047807e+2, -974327.3, -1019289.94, -2.691924, 0.00029576433, 0.00010592953, -974327.3, -41177.934, 0.0, 10.001682, 9.94252 
4.7651002e+3, 2.1472326e+2, -876063.5, -921281.0, -7.1177144, 0.00029465312, -0.000088039895, -876063.5, -40351.215, 0.0, 10.001674, 9.94218 
4.7650996e+3, 2.2465913e+2, -787793.5, -843023.7, -2.4499032, 0.00029366263, 0.00015895441, -787793.5, -49452.715, 0.0, 10.001664, 9.929143 
4.765099e+3, 2.3458834e+2, -689382.0, -744860.6, -6.738041, 0.00029280782, -0.000053322867, -689382.0, -48347.445, 0.0, 10.001656, 9.928812 
4.765099e+3, 2.445106e+2, -601073.9, -666921.44, -1.6131063, 0.00029195088, 0.00010806998, -601073.9, -57277.508, 0.0, 10.001647, 9.915376 
4.7650987e+3, 2.544261e+2, -502342.8, -568260.94, -5.773847, 0.00029109075, -0.00007497711, -502342.8, -55718.31, 0.0, 10.001638, 9.915276 
4.7650987e+3, 2.643345e+2, -414123.78, -490915.78, -0.37524068, 0.00029017776, 0.00017065497, -414123.78, -64601.73, 0.0, 10.00163, 9.901208 
4.765098e+3, 2.7423626e+2, -314859.5, -391317.25, -4.2131133, 0.0002891972, -0.00017520589, -314859.5, -62374.715, 0.0, 10.001622, 9.901628 
4.765098e+3, 2.841298e+2, -228396.22, -318022.56, 1.1277151, 0.00028839777, 0.00025582593, -228396.22, -72868.086, 0.0, 10.001614, 9.884692 
4.7650978e+3, 2.9401553e+2, -128710.38, -217719.72, -2.332016, 0.00028784494, -0.00022752846, -128710.38, -70062.52, 0.0, 10.001605, 9.885471 
4.7650978e+3, 3.0392924e+2, -39004.543, -84739.11, 2.8082337, 0.0002867556, 0.00019676314, -39004.543, -39004.543, 0.0, 10.001597, 9.941411 
4.7650972e+3, 3.1387252e+2, -37940.086, -82508.27, -0.6655381, 0.0002848711, -0.000035501016, -37940.086, -37940.086, 0.0, 10.001589, 9.942921 
4.775105e+3, 1.2501043e+2, -1717810.9, -1724071.4, -1.4361008, 0.00030997445, 0.000097057986, -1717810.9, -2912.7295, 0.0, 10.00177, 9.993472 
4.775105e+3, 1.3500376e+2, -1620460.0, -1627303.0, -5.8212047, 0.0003074154, -0.00008081743, -1620460.0, -3496.388, 0.0, 10.001759, 9.992689 
4.7751045e+3, 1.4499056e+2, -1532336.5, -1547943.3, -4.168058, 0.00030573833, 0.00018204868, -1532336.5, -13243.693, 0.0, 10.001746, 9.981065 
4.775104e+3, 1.5497161e+2, -1434636.6, -1450637.9, -8.474029, 0.00030493844, -0.000005271017, -1434636.6, -13357.974, 0.0, 10.001735, 9.980533 
4.7751036e+3, 1.6494605e+2, -1346607.1, -1371780.8, -5.4501653, 0.000303914, 0.000077359575, -1346607.1, -23077.943, 0.0, 10.001723, 9.9684515 
4.775103e+3, 1.7491455e+2, -1248675.0, -1274156.5, -10.3412075, 0.00030266284, -0.000026987462, -1248675.0, -22837.252, 0.0, 10.001713, 9.968038 
4.7751024e+3, 1.8487641e+2, -1160609.6, -1195570.0, -6.0329347, 0.00030149904, 0.00011758979, -1160609.6, -32398.188, 0.0, 10.001702, 9.955607 
4.7751024e+3, 1.9483206e+2, -1062484.3, -1097699.6, -10.698627, 0.00030042522, -0.000014401201, -1062484.3, -31838.035, 0.0, 10.001693, 9.955264 
4.775102e+3, 2.0478104e+2, -974336.75, -1019308.75, -6.1761103, 0.00029935248, 0.00010732302, -974336.75, -41190.58, 0.0, 10.001683, 9.942509 
4.7751015e+3, 2.1472359e+2, -876072.8, -921299.7, -10.600426, 0.0002982806, -0.0000870665, -876072.8, -40363.617, 0.0, 10.001674, 9.942167 
4.7751015e+3, 2.2465944e+2, -787802.7, -843042.2, -5.7191563, 0.00029733792, 0.00015980485, -787802.7, -49464.848, 0.0, 10.001664, 9.9291315 
4.775101e+3, 2.3458862e+2, -689391.06, -744879.0, -10.001736, 0.00029654047, -0.000052260053, -689391.06, -48359.348, 0.0, 10.001656, 9.928801 
4.7751006e+3, 2.4451087e+2, -601082.9, -666939.8, -4.837509, 0.00029564791, 0.00010922385, -601082.9, -57289.246, 0.0, 10.001647, 9.915364 
4.7751006e+3, 2.5442636e+2, -502351.7, -568279.25, -8.99703, 0.0002946414, -0.00007387701, -502351.7, -55729.81, 0.0, 10.001638, 9.915264 
4.7751e+3, 2.6433477e+2, -414132.28, -490933.44, -3.4813113, 0.00029366414, 0.00017164211, -414132.28, -64612.758, 0.0, 10.00163, 9.901196 
4.7750998e+3, 2.742365e+2, -314867.88, -391334.78, -7.3135, 0.00029272382, -0.00017440654, -314867.88, -62385.496, 0.0, 10.001622, 9.901616 
4.7750998e+3, 2.8413004e+2, -228404.19, -318039.3, -1.9660232, 0.00029195016, 0.00025662474, -228404.19, -72878.34, 0.0, 10.001614, 9.884681 
4.7750992e+3, 2.9401577e+2, -128718.21, -217736.31, -5.4258265, 0.00029140274, -0.0002264742, -128718.21, -70072.53, 0.0, 10.001605, 9.88546 
4.7750992e+3, 3.0392945e+2, -39012.926, -84756.92, -0.31472036, 0.00029027194, 0.00019795378, -39012.926, -39012.926, 0.0, 10.001597, 9.941399 
4.7750992e+3, 3.1387272e+2, -37948.547, -82526.25, -3.7923827, 0.0002882769, -0.000034352557, -37948.547, -37948.547, 0.0, 10.001589, 9.942908 
4.785107e+3, 1.2501088e+2, -1717733.6, -1724043.5, 3.4399846, 0.00031397416, 0.000098350814, -1717733.6, -2839.7317, 0.0, 10.001824, 9.993461 
4.7851065e+3, 1.3500418e+2, -1620383.4, -1627275.8, -0.9940231, 0.00031131174, -0.00007948804, -1620383.4, -3423.9539, 0.0, 10.001812, 9.992677 
4.785106e+3, 1.4499098e+2, -1532260.3, -1547916.3, 0.784965, 0.00030959563, 0.00018336704, -1532260.3, -13171.477, 0.0, 10.0018, 9.981052 
4.7851056e+3, 1.5497202e+2, -1434560.6, -1450611.3, -3.7095838, 0.0003088208, -0.0000040114173, -1434560.6, -13286.007, 0.0, 10.001788, 9.980521 
4.7851056e+3, 1.6494644e+2, -1346532.8, -1371756.8, -0.48553956, 0.00030779548, 0.00007861453, -1346532.8, -23007.428, 0.0, 10.001777, 9.968439 
4.785105e+3, 1.7491493e+2, -1248601.4, -1274133.1, -5.448743, 0.0003065171, -0.000025682208, -1248601.4, -22767.268, 0.0, 10.001766, 9.968025 
4.7851044e+3, 1.8487678e+2, -1160536.5, -1195546.5, -0.9654999, 0.0003052979, 0.00011890432, -1160536.5, -32328.553, 0.0, 10.001756, 9.955595 
4.785104e+3, 1.9483241e+2, -1062412.1, -1097677.0, -5.770568, 0.00030413942, -0.000013120051, -1062412.1, -31769.428, 0.0, 10.001745, 9.955252 
4.7851035e+3, 2.0478137e+2, -974265.4, -1019286.3, -1.2030925, 0.00030306267, 0.00010856373, -974265.4, -41122.547, 0.0, 10.001735, 9.942496 
4.7851035e+3, 2.1472391e+2, -876002.3, -921277.8, -5.9218426, 0.0003020738, -0.00008587396, -876002.3, -40296.324, 0.0, 10.001725, 9.942155 
4.785103e+3, 2.2465974e+2, -787732.8, -843020.5, -1.0670272, 0.00030112558, 0.00016092164, -787732.8, -49398.05, 0.0, 10.001716, 9.929119 
4.7851026e+3, 2.3458892e+2, -689322.2, -744858.06, -5.515385, 0.00030022263, -0.000051250106, -689322.2, -48293.465, 0.0, 10.001707, 9.928788 
4.7851026e+3, 2.4451117e+2, -601014.75, -666919.4, -0.40298918, 0.00029927673, 0.00011023035, -601014.75, -57224.0, 0.0, 10.001698, 9.915352 
4.785102e+3, 2.5442666e+2, -502284.34, -568259.4, -4.673425, 0.000298279, -0.000072750874, -502284.34, -55665.207, 0.0, 10.001689, 9.915252 
4.7851014e+3, 2.6433504e+2, -414065.53, -490913.8, 0.7847362, 0.00029729336, 0.00017276265, -414065.53, -64548.594, 0.0, 10.00168, 9.901184 
4.7851014e+3, 2.7423677e+2, -314802.0, -391315.75, -3.3007429, 0.0002963228, -0.00017345078, -314802.0, -62322.117, 0.0, 10.001672, 9.901605 
4.785101e+3, 2.8413028e+2, -228338.6, -318019.84, 1.8793346, 0.00029552355, 0.00025750266, -228338.6, -72815.125, 0.0, 10.001663, 9.884669 
4.785101e+3, 2.94016e+2, -128653.484, -217717.4, -1.6961749, 0.0002949569, -0.00022555476, -128653.484, -70010.08, 0.0, 10.001655, 9.885448 
4.7851005e+3, 3.0392966e+2, -38950.086, -84740.28, 3.2096436, 0.000293797, 0.0001989001, -38950.086, -38950.086, 0.0, 10.001646, 9.941386 
4.7851005e+3, 3.1387293e+2, -37886.234, -82510.01, -0.37978387, 0.0002917582, -0.000033401728, -37886.234, -37886.234, 0.0, 10.001637, 9.942897 
4.795109e+3, 1.2501132e+2, -1717743.6, -1724062.6, -1.1732965, 0.00031810973, 0.000099493926, -1717743.6, -2854.1587, 0.0, 10.001824, 9.993448 
4.7951084e+3, 1.3500462e+2, -1620393.3, -1627294.8, -5.6072645, 0.00031528735, -0.000078097364, -1620393.3, -3438.1436, 0.0, 10.001812, 9.992665 
4.7951078e+3, 1.4499141e+2, -1532270.1, -1547935.4, -3.5681584, 0.00031351094, 0.00018457588, -1532270.1, -13185.549, 0.0, 10.0018, 9.981041 
4.7951075e+3, 1.5497243e+2, -1434570.4, -1450630.3, -8.06314, 0.00031277534, -0.0000034138839, -1434570.4, -13299.841, 0.0, 10.001788, 9.980509 
4.795107e+3, 1.6494684e+2, -1346543.5, -1371777.8, -4.5644183, 0.00031171824, 0.00007930341, -1346543.5, -23022.107, 0.0, 10.001777, 9.968426 
4.7951064e+3, 1.7491531e+2, -1248612.0, -1274153.9, -9.526839, 0.00031033604, -0.0000241886, -1248612.0, -22781.701, 0.0, 10.001766, 9.968012 
4.7951064e+3, 1.8487717e+2, -1160546.8, -1195566.8, -4.8432784, 0.0003090646, 0.000120574805, -1160546.8, -32342.531, 0.0, 10.001756, 9.955582 
4.795106e+3, 1.9483277e+2, -1062422.3, -1097697.1, -9.647443, 0.0003079075, -0.000011926292, -1062422.3, -31783.148, 0.0, 10.001745, 9.955239 
4.7951055e+3, 2.0478173e+2, -974275.44, -1019306.3, -4.8061547, 0.00030689163, 0.000109658744, -974275.44, -41136.023, 0.0, 10.001735, 9.942483 
4.795105e+3, 2.1472424e+2, -876012.25, -921297.75, -9.519284, 0.0003060278, -0.00008447015, -876012.25, -40309.55, 0.0, 10.001725, 9.9421425 
4.7951046e+3, 2.2466008e+2, -787742.3, -843039.75, -4.4950314, 0.0003050227, 0.00016229489, -787742.25, -49410.74, 0.0, 10.001717, 9.929107 
4.7951046e+3, 2.3458925e+2, -689331.56, -744877.1, -8.940236, 0.0003038578, -0.000050290157, -689331.56, -48305.902, 0.0, 10.001707, 9.928776 
4.795104e+3, 2.4451147e+2, -601024.0, -666938.25, -3.7244067, 0.00030284148, 0.00011109613, -601024.0, -57236.15, 0.0, 10.0016985, 9.915339 
4.7951034e+3, 2.5442693e+2, -502293.44, -568278.06, -7.9903445, 0.00030200163, -0.00007159891, -502293.4, -55677.113, 0.0, 10.001689, 9.915239 
4.7951034e+3, 2.643353e+2, -414074.5, -490932.47, -2.4518363, 0.00030106137, 0.00017401214, -414074.5, -64560.29, 0.0, 10.00168, 9.901172 
4.795103e+3, 2.7423704e+2, -314810.88, -391334.3, -6.533028, 0.00029999277, -0.00017234407, -314810.88, -62333.57, 0.0, 10.001672, 9.901592 
4.795103e+3, 2.841305e+2, -228346.77, -318037.13, -1.3484675, 0.00029911855, 0.00025845724, -228346.77, -72825.78, 0.0, 10.001663, 9.884658 
4.7951025e+3, 2.9401624e+2, -128661.51, -217734.45, -4.9254127, 0.00029850903, -0.00022476421, -128661.51, -70020.46, 0.0, 10.001655, 9.885437 
4.7951025e+3, 3.0392987e+2, -38958.65, -84758.51, -0.027481949, 0.0002973318, 0.0001996123, -38958.65, -38958.65, 0.0, 10.001646, 9.941375 
4.7951022e+3, 3.1387314e+2, -37894.875, -82528.39, -3.6195934, 0.00029531345, -0.000032640128, -37894.875, -37894.875, 0.0, 10.001637, 9.9428835 
4.8051107e+3, 1.250118e+2, -1717664.0, -1724033.8, 3.443495, 0.00032212894, 0.0001008678, -1717664.0, -2779.1492, 0.0, 10.00188, 9.993437 
4.8051104e+3, 1.3500509e+2, -1620314.3, -1627266.4, -1.0578791, 0.00031934233, -0.00007676808, -1620314.3, -3363.5837, 0.0, 10.001867, 9.992653 
4.8051098e+3, 1.4499184e+2, -1532191.8, -1547907.6, 1.154481, 0.00031754436, 0.00018586744, -1532191.8, -13111.529, 0.0, 10.001855, 9.981029 
4.8051095e+3, 1.5497285e+2, -1434492.9, -1450603.1, -3.445211, 0.00031672968, -0.0000021534672, -1434492.9, -13226.436, 0.0, 10.001843, 9.980497 
4.805109e+3, 1.6494727e+2, -1346467.6, -1371753.1, 0.23538801, 0.00031560732, 0.000080544836, -1346467.6, -22950.29, 0.0, 10.001832, 9.968412 
4.8051083e+3, 1.7491573e+2, -1248537.0, -1274129.9, -4.8101707, 0.000314174, -0.000022953604, -1248537.0, -22710.625, 0.0, 10.001821, 9.9679985 
4.805108e+3, 1.8487754e+2, -1160472.1, -1195543.0, 0.008682776, 0.0003129225, 0.00012180836, -1160472.1, -32271.777, 0.0, 10.00181, 9.955568 
4.8051074e+3, 1.9483314e+2, -1062348.3, -1097673.9, -4.9600325, 0.00031185927, -0.000010689119, -1062348.3, -31712.818, 0.0, 10.0018, 9.955226 
4.8051074e+3, 2.0478208e+2, -974201.9, -1019283.25, 0.028978284, 0.00031084113, 0.00011089529, -974201.9, -41066.004, 0.0, 10.001789, 9.942471 
4.8051068e+3, 2.147246e+2, -875939.56, -921275.3, -4.707756, 0.0003098713, -0.00008323875, -875939.56, -40240.34, 0.0, 10.001779, 9.942129 
4.8051065e+3, 2.2466041e+2, -787670.44, -843017.7, 0.3553367, 0.00030879918, 0.00016349475, -787670.44, -49342.176, 0.0, 10.001769, 9.929093 
4.805106e+3, 2.3458956e+2, -689260.75, -744855.8, -4.3496027, 0.00030761107, -0.000049151597, -689260.75, -48238.242, 0.0, 10.00176, 9.928762 
4.805106e+3, 2.4451178e+2, -600953.6, -666917.0, 0.84929866, 0.00030658982, 0.000112200636, -600953.6, -57168.855, 0.0, 10.00175, 9.915327 
4.8051053e+3, 2.5442722e+2, -502223.75, -568257.3, -3.502805, 0.00030576673, -0.000070495975, -502223.75, -55610.36, 0.0, 10.001741, 9.915227 
4.805105e+3, 2.643356e+2, -414005.5, -490912.3, 1.9898154, 0.00030481143, 0.00017510992, -414005.5, -64494.11, 0.0, 10.001733, 9.901159 
4.805105e+3, 2.742373e+2, -314742.8, -391314.8, -2.2424302, 0.00030368732, -0.00017125606, -314742.8, -62268.18, 0.0, 10.001723, 9.90158 
4.8051044e+3, 2.841308e+2, -228278.89, -318017.03, 2.791107, 0.00030278397, 0.00025952552, -228278.89, -72760.47, 0.0, 10.001715, 9.884646 
4.8051044e+3, 2.9401648e+2, -128594.46, -217714.9, -1.0161629, 0.0003021815, -0.00022372942, -128594.46, -69955.86, 0.0, 10.001706, 9.885426 
4.805104e+3, 3.039301e+2, -38893.496, -84741.28, 3.5588002, 0.00030098495, 0.0002005764, -38893.496, -38893.496, 0.0, 10.001697, 9.941361 
4.805104e+3, 3.1387335e+2, -37830.293, -82511.58, -0.28641227, 0.00029890795, -0.00003180123, -37830.293, -37830.293, 0.0, 10.001688, 9.942871 
4.8151127e+3, 1.2501226e+2, -1717674.3, -1724053.1, -1.2021713, 0.00032603845, 0.00010246348, -1717674.3, -2793.9666, 0.0, 10.00188, 9.993424 
4.8151124e+3, 1.3500553e+2, -1620324.3, -1627285.6, -5.702996, 0.00032347508, -0.00007549673, -1620324.3, -3378.1538, 0.0, 10.001867, 9.992641 
4.8151118e+3, 1.449923e+2, -1532201.9, -1547927.3, -3.271356, 0.00032169253, 0.0001872392, -1532201.9, -13126.0625, 0.0, 10.001855, 9.981016 
4.8151115e+3, 1.549733e+2, -1434502.9, -1450622.6, -7.8719993, 0.00032068547, -0.0000002570791, -1434502.9, -13240.734, 0.0, 10.001843, 9.980485 
4.815111e+3, 1.6494769e+2, -1346478.5, -1371774.4, -3.9550877, 0.00031946588, 0.000082316474, -1346478.5, -22965.377, 0.0, 10.001832, 9.968399 
4.8151103e+3, 1.7491613e+2, -1248547.8, -1274151.1, -9.000651, 0.0003180318, -0.00002196556, -1248547.8, -22725.45, 0.0, 10.001821, 9.967985 
4.81511e+3, 1.8487795e+2, -1160482.8, -1195564.0, -3.907067, 0.00031686944, 0.00012262413, -1160482.8, -32286.32, 0.0, 10.00181, 9.955555 
4.8151094e+3, 1.9483355e+2, -1062358.8, -1097694.6, -8.872918, 0.00031598881, -0.000009409494, -1062358.8, -31727.107, 0.0, 10.0018, 9.955213 
4.8151088e+3, 2.0478247e+2, -974211.94, -1019303.4, -3.7033176, 0.0003149078, 0.00011226829, -974211.94, -41079.754, 0.0, 10.001789, 9.942457 
4.8151085e+3, 2.1472496e+2, -875949.56, -921295.3, -8.438254, 0.0003136106, -0.000082171755, -875949.56, -40253.83, 0.0, 10.00178, 9.942117 
4.8151085e+3, 2.2466077e+2, -787680.44, -843038.0, -3.2323985, 0.0003124616, 0.00016452932, -787680.44, -49355.598, 0.0, 10.001769, 9.929081 
4.815108e+3, 2.345899e+2, -689270.6, -744876.0, -7.932098, 0.00031147926, -0.000047840902, -689270.6, -48251.414, 0.0, 10.00176, 9.92875 
4.8151073e+3, 2.445121e+2, -600963.0, -666936.25, -2.5437162, 0.0003105158, 0.00011353486, -600963.0, -57181.39, 0.0, 10.001751, 9.915315 
4.8151073e+3, 2.5442752e+2, -502233.0, -568276.44, -6.889429, 0.00030957418, -0.000069439266, -502233.0, -55622.633, 0.0, 10.001741, 9.915215 
4.815107e+3, 2.643359e+2, -414014.78, -490931.56, -1.3745198, 0.0003085459, 0.000176063, -414014.78, -64506.28, 0.0, 10.001733, 9.901147 
4.8151064e+3, 2.7423757e+2, -314751.97, -391333.94, -5.6058254, 0.00030740703, -0.00017018519, -314751.94, -62280.11, 0.0, 10.001723, 9.9015665 
4.8151064e+3, 2.8413108e+2, -228287.48, -318035.2, -0.5601107, 0.00030651852, 0.0002607037, -228287.48, -72771.73, 0.0, 10.001715, 9.884634 
4.815106e+3, 2.9401675e+2, -128602.9, -217732.84, -4.366625, 0.00030597099, -0.00022245945, -128602.9, -69966.84, 0.0, 10.001706, 9.885414 
4.815106e+3, 3.0393037e+2, -38902.504, -84760.46, 0.20251186, 0.00030475314, 0.00020178295, -38902.504, -38902.504, 0.0, 10.001697, 9.941348 
4.8151055e+3, 3.138736e+2, -37839.383, -82530.92, -3.6447837, 0.0003025416, -0.000030887506, -37839.383, -37839.383, 0.0, 10.001688, 9.942858 
4.8251143e+3, 1.2501276e+2, -1717593.0, -1724023.6, 3.5963075, 0.00033003572, 0.00010391802, -1717593.0, -2717.525, 0.0, 10.001936, 9.993413 
4.8251137e+3, 1.3500603e+2, -1620243.4, -1627256.4, -0.93065673, 0.00032749376, -0.00007407248, -1620243.4, -3301.914, 0.0, 10.001924, 9.992629 
4.8251134e+3, 1.4499278e+2, -1532121.8, -1547898.9, 1.600664, 0.0003257164, 0.0001886155, -1532121.8, -13050.433, 0.0, 10.001911, 9.981004 
4.8251128e+3, 1.5497376e+2, -1434423.4, -1450594.9, -3.1436882, 0.00032469802, 0.0000010534408, -1434423.4, -13165.753, 0.0, 10.0019, 9.980473 
4.8251128e+3, 1.6494812e+2, -1346400.6, -1371749.1, 0.8934937, 0.00032347845, 0.00008358124, -1346400.6, -22891.885, 0.0, 10.001888, 9.968386 
4.8251122e+3, 1.7491657e+2, -1248470.6, -1274126.4, -4.298865, 0.00032205597, -0.000020726258, -1248470.6, -22652.514, 0.0, 10.001877, 9.967972 
4.825112e+3, 1.8487836e+2, -1160406.1, -1195539.5, 0.96800977, 0.00032087197, 0.00012386963, -1160406.1, -32213.742, 0.0, 10.001865, 9.955542 
4.8251113e+3, 1.9483393e+2, -1062283.0, -1097670.9, -4.046816, 0.00031993506, -0.000008124822, -1062283.0, -31655.262, 0.0, 10.001855, 9.955199 
4.8251107e+3, 2.0478286e+2, -974136.75, -1019279.8, 1.1979632, 0.00031881675, 0.00011352026, -974136.75, -41008.355, 0.0, 10.001844, 9.942444 
4.8251104e+3, 2.1472533e+2, -875875.25, -921272.4, -3.747522, 0.00031750268, -0.00008103001, -875875.25, -40183.145, 0.0, 10.001834, 9.942103 
4.8251098e+3, 2.2466111e+2, -787606.6, -843015.4, 1.54454, 0.00031635704, 0.0001656659, -787606.6, -49285.29, 0.0, 10.001824, 9.929068 
4.8251098e+3, 2.3459026e+2, -689197.4, -744853.8, -3.141749, 0.0003154008, -0.00004659102, -689197.4, -48181.56, 0.0, 10.001814, 9.928737 
4.8251092e+3, 2.4451244e+2, -600890.3, -666914.4, 2.2692986, 0.00031441124, 0.00011478148, -600890.3, -57111.965, 0.0, 10.001804, 9.915301 
4.825109e+3, 2.5442785e+2, -502161.38, -568255.3, -2.3615594, 0.00031338117, -0.00006833481, -502161.38, -55554.15, 0.0, 10.001796, 9.915202 
4.825109e+3, 2.643362e+2, -413943.84, -490910.84, 3.0386996, 0.00031231457, 0.00017709787, -413943.84, -64438.348, 0.0, 10.001786, 9.901134 
4.8251083e+3, 2.7423787e+2, -314681.66, -391313.75, -1.3031365, 0.00031120112, -0.0001691274, -314681.66, -62212.68, 0.0, 10.001777, 9.901554 
4.825108e+3, 2.8413135e+2, -228217.2, -318014.38, 3.6662276, 0.00031032474, 0.00026178692, -228217.2, -72704.195, 0.0, 10.001768, 9.884622 
4.825108e+3, 2.9401702e+2, -128533.32, -217712.53, -0.2233648, 0.0003097709, -0.00022134805, -128533.32, -69899.91, 0.0, 10.001759, 9.885402 
4.8251075e+3, 3.0393064e+2, -38834.9, -84742.695, 4.11098, 0.00030852543, 0.00020289351, -38834.9, -38834.9, 0.0, 10.001749, 9.941336 
4.8251075e+3, 3.1387383e+2, -37772.348, -82513.6, 0.05150058, 0.00030625504, -0.000029820409, -37772.348, -37772.348, 0.0, 10.00174, 9.942844 
4.8351163e+3, 1.2501326e+2, -1717603.1, -1724043.1, -1.0239742, 0.00033411846, 0.00010523865, -1717603.1, -2732.6296, 0.0, 10.001936, 9.993401 
4.8351157e+3, 1.3500652e+2, -1620253.5, -1627275.8, -5.5517354, 0.00033140514, -0.000072500974, -1620253.5, -3316.7817, 0.0, 10.001924, 9.992618 
4.8351154e+3, 1.4499326e+2, -1532132.1, -1547919.1, -2.9092836, 0.00032962317, 0.00018999704, -1532132.1, -13065.527, 0.0, 10.001912, 9.980991 
4.8351148e+3, 1.549742e+2, -1434433.8, -1450615.0, -7.653197, 0.00032876662, 0.000001804452, -1434433.8, -13180.593, 0.0, 10.0019, 9.98046 
4.8351142e+3, 1.6494858e+2, -1346411.9, -1371771.0, -3.3631592, 0.00032764013, 0.00008436208, -1346411.9, -22907.514, 0.0, 10.001888, 9.968371 
4.835114e+3, 1.7491701e+2, -1248481.8, -1274148.1, -8.553845, 0.00032624116, -0.00001924559, -1248481.8, -22667.885, 0.0, 10.001877, 9.9679575 
4.835114e+3, 1.8487878e+2, -1160416.9, -1195560.8, -3.0559247, 0.00032492945, 0.00012552719, -1160416.9, -32228.617, 0.0, 10.001865, 9.955528 
4.8351133e+3, 1.9483435e+2, -1062293.6, -1097691.9, -8.06949, 0.0003237075, -0.000006834377, -1062293.6, -31669.871, 0.0, 10.001855, 9.955186 
4.8351127e+3, 2.0478325e+2, -974147.3, -1019300.8, -2.640437, 0.00032257638, 0.000114657356, -974147.3, -41022.758, 0.0, 10.001844, 9.9424305 
4.8351124e+3, 2.1472572e+2, -875885.6, -921293.3, -7.5826616, 0.0003215428, -0.00007981591, -875885.6, -40197.28, 0.0, 10.001834, 9.94209 
4.8351118e+3, 2.246615e+2, -787616.6, -843035.56, -2.08674, 0.00032047727, 0.00016690089, -787616.6, -49298.902, 0.0, 10.001824, 9.929054 
4.8351112e+3, 2.345906e+2, -689207.25, -744873.94, -6.768311, 0.00031937522, -0.00004539845, -689207.25, -48194.91, 0.0, 10.001815, 9.928723 
4.8351112e+3, 2.4451278e+2, -600900.25, -666934.75, -1.2879668, 0.00031827905, 0.000115945186, -600900.25, -57125.26, 0.0, 10.001805, 9.915288 
4.835111e+3, 2.5442818e+2, -502171.2, -568275.56, -5.9155836, 0.00031718935, -0.00006718379, -502171.2, -55567.19, 0.0, 10.001796, 9.915189 
4.8351103e+3, 2.6433653e+2, -413953.34, -490930.6, -0.3884487, 0.00031611763, 0.00017821183, -413953.34, -64450.94, 0.0, 10.001786, 9.901121 
4.8351103e+3, 2.742382e+2, -314691.0, -391333.34, -4.72363, 0.00031506814, -0.00016808137, -314691.0, -62225.008, 0.0, 10.001777, 9.901541 
4.83511e+3, 2.8413165e+2, -228225.94, -318032.84, 0.22847597, 0.00031420134, 0.0002627799, -228225.94, -72715.79, 0.0, 10.001768, 9.88461 
4.8351094e+3, 2.9401731e+2, -128541.89, -217730.78, -3.6639943, 0.0003135824, -0.00022038778, -128541.89, -69911.22, 0.0, 10.001759, 9.885389 
4.8351094e+3, 3.039309e+2, -38844.25, -84762.625, 0.6378142, 0.00031230322, 0.0002039129, -38844.25, -38844.25, 0.0, 10.00175, 9.941321 
4.8351088e+3, 3.138741e+2, -37781.8, -82533.75, -3.4259958, 0.00031004654, -0.000028605491, -37781.8, -37781.8, 0.0, 10.00174, 9.942831 
4.8451182e+3, 1.2501378e+2, -1717519.8, -1724012.5, 3.6780393, 0.00033822202, 0.00010670258, -1717519.8, -2654.244, 0.0, 10.001994, 9.993388 
4.8451176e+3, 1.3500702e+2, -1620170.9, -1627245.9, -0.9875671, 0.0003354219, -0.000071214585, -1620170.9, -3239.14, 0.0, 10.001982, 9.992605 
4.8451173e+3, 1.4499374e+2, -1532050.4, -1547890.3, 1.7484384, 0.00033362184, 0.00019118655, -1532050.4, -12988.614, 0.0, 10.001969, 9.980979 
4.8451167e+3, 1.549747e+2, -1434352.5, -1450586.6, -3.0235617, 0.00033281566, 0.0000029772793, -1434352.5, -13104.038, 0.0, 10.001957, 9.980448 
4.845116e+3, 1.6494903e+2, -1346332.1, -1371745.0, 1.4910029, 0.0003317133, 0.0000855961, -1346332.1, -22832.3, 0.0, 10.0019455, 9.968358 
4.8451158e+3, 1.7491744e+2, -1248402.8, -1274122.8, -3.6993668, 0.00033031183, -0.000017871174, -1248402.8, -22593.287, 0.0, 10.001934, 9.967944 
4.8451152e+3, 1.8487923e+2, -1160338.5, -1195535.6, 1.9637433, 0.00032896583, 0.00012693179, -1160338.5, -32154.457, 0.0, 10.001923, 9.955515 
4.8451146e+3, 1.9483478e+2, -1062216.0, -1097667.4, -3.2025135, 0.00032767648, -0.0000055143664, -1062216.0, -31596.412, 0.0, 10.001911, 9.955172 
4.8451146e+3, 2.0478366e+2, -974070.2, -1019276.75, 2.3469844, 0.00032653773, 0.000115928844, -974070.2, -40949.676, 0.0, 10.001901, 9.942417 
4.8451144e+3, 2.1472612e+2, -875809.06, -921269.7, -2.678651, 0.00032556104, -0.00007855405, -875809.06, -40124.605, 0.0, 10.00189, 9.942077 
4.8451138e+3, 2.2466189e+2, -787540.44, -843012.06, 2.855663, 0.00032449453, 0.00016812158, -787540.44, -49226.49, 0.0, 10.001881, 9.929041 
4.8451132e+3, 2.3459099e+2, -689131.94, -744851.06, -2.0343556, 0.0003233262, -0.000044254488, -689131.94, -48123.23, 0.0, 10.00187, 9.92871 
4.845113e+3, 2.4451314e+2, -600825.6, -666912.4, 3.4197066, 0.00032220365, 0.00011707673, -600825.6, -57054.098, 0.0, 10.001861, 9.915275 
4.845113e+3, 2.5442854e+2, -502097.2, -568253.75, -1.2695127, 0.00032113492, -0.00006598815, -502097.2, -55496.54, 0.0, 10.001851, 9.915175 
4.8451123e+3, 2.6433685e+2, -413879.88, -490909.13, 4.242972, 0.00032005366, 0.00017941477, -413879.88, -64380.69, 0.0, 10.001842, 9.901108 
4.8451117e+3, 2.742385e+2, -314618.44, -391312.5, -0.3064559, 0.00031895575, -0.00016694334, -314618.44, -62155.523, 0.0, 10.001832, 9.901527 
4.8451117e+3, 2.8413194e+2, -228153.47, -318011.34, 4.470274, 0.00031805626, 0.00026386578, -228153.47, -72646.27, 0.0, 10.001822, 9.884598 
4.8451114e+3, 2.9401758e+2, -128470.12, -217709.77, 0.39189136, 0.0003174262, -0.00021933655, -128470.12, -69842.27, 0.0, 10.001813, 9.885377 
4.8451108e+3, 3.0393118e+2, -38774.383, -84744.266, 4.43577, 0.00031613983, 0.00020493583, -38774.383, -38774.383, 0.0, 10.001804, 9.941308 
4.8451108e+3, 3.1387436e+2, -37712.195, -82515.68, 0.23428017, 0.00031388173, -0.000027601054, -37712.195, -37712.195, 0.0, 10.001795, 9.942817 
4.8551205e+3, 1.250143e+2, -1717530.3, -1724032.6, -1.0386134, 0.0003423473, 0.00010830416, -1717530.3, -2669.9038, 0.0, 10.001994, 9.993376 
4.8551196e+3, 1.3500752e+2, -1620181.3, -1627265.9, -5.703808, 0.00033954106, -0.00007019957, -1620181.3, -3254.5454, 0.0, 10.001982, 9.992593 
4.8551193e+3, 1.4499424e+2, -1532060.9, -1547910.5, -2.7679482, 0.00033771005, 0.00019219362, -1532060.9, -13003.99, 0.0, 10.001969, 9.980967 
4.8551187e+3, 1.5497519e+2, -1434362.9, -1450606.8, -7.540201, 0.00033684788, 0.0000045539373, -1434362.9, -13119.171, 0.0, 10.001957, 9.980434 
4.855118e+3, 1.6494952e+2, -1346343.4, -1371766.9, -2.8413122, 0.00033570375, 0.00008726387, -1346343.4, -22848.16, 0.0, 10.0019455, 9.968344 
4.8551178e+3, 1.749179e+2, -1248413.8, -1274144.5, -8.032093, 0.00033427496, -0.000016597349, -1248413.8, -22608.879, 0.0, 10.001934, 9.96793 
4.8551172e+3, 1.8487968e+2, -1160349.5, -1195557.4, -2.161534, 0.0003329839, 0.00012809563, -1160349.5, -32169.88, 0.0, 10.001923, 9.955501 
4.8551166e+3, 1.948352e+2, -1062227.0, -1097689.1, -7.32605, 0.00033183506, -0.000004165193, -1062227.0, -31611.566, 0.0, 10.001912, 9.955158 
4.8551166e+3, 2.0478407e+2, -974080.9, -1019298.1, -1.5214989, 0.0003306937, 0.000117329684, -974080.9, -40964.477, 0.0, 10.001901, 9.942404 
4.8551163e+3, 2.1472652e+2, -875819.6, -921290.94, -6.5429635, 0.0003295602, -0.00007724555, -875819.6, -40139.137, 0.0, 10.001891, 9.942062 
4.8551157e+3, 2.2466226e+2, -787550.9, -843033.2, -0.88623214, 0.00032841516, 0.00016932955, -787550.9, -49240.742, 0.0, 10.001881, 9.929028 
4.855115e+3, 2.3459135e+2, -689142.25, -744872.06, -5.7732697, 0.00032725665, -0.000043156193, -689142.25, -48137.22, 0.0, 10.00187, 9.928697 
4.8551148e+3, 2.445135e+2, -600835.7, -666933.06, -0.19547226, 0.00032618426, 0.00011817829, -600835.7, -57067.73, 0.0, 10.001861, 9.915261 
4.8551142e+3, 2.544289e+2, -502107.1, -568274.25, -4.8796544, 0.00032521377, -0.00006474892, -502107.1, -55509.902, 0.0, 10.001851, 9.915162 
4.8551142e+3, 2.6433718e+2, -413889.75, -490929.7, 0.697959, 0.00032411868, 0.00018070372, -413889.75, -64393.895, 0.0, 10.001842, 9.901094 
4.8551136e+3, 2.7423882e+2, -314628.2, -391332.94, -3.8479376, 0.0003228648, -0.00016571645, -314628.2, -62168.46, 0.0, 10.001832, 9.901514 
4.8551133e+3, 2.8413227e+2, -228162.55, -318030.56, 0.9492665, 0.00032189215, 0.00026504128, -228162.55, -72658.4, 0.0, 10.001822, 9.884584 
4.8551133e+3, 2.9401788e+2, -128479.016, -217728.73, -3.1284244, 0.00032130262, -0.00021819751, -128479.016, -69854.09, 0.0, 10.001814, 9.885365 
4.8551127e+3, 3.0393144e+2, -38783.97, -84764.72, 0.9238427, 0.00032003442, 0.00020596289, -38783.97, -38783.97, 0.0, 10.001804, 9.941294 
4.8551124e+3, 3.1387463e+2, -37721.875, -82536.336, -3.278618, 0.00031776042, -0.000026797365, -37721.875, -37721.875, 0.0, 10.001795, 9.942802 
4.8651224e+3, 1.2501484e+2, -1717445.1, -1724001.5, 3.8833253, 0.0003464805, 0.00010977938, -1717445.1, -2589.9866, 0.0, 10.002053, 9.993363 
4.865122e+3, 1.3500805e+2, -1620096.8, -1627235.3, -0.8233699, 0.00034370171, -0.000068785, -1620096.8, -3175.1372, 0.0, 10.002041, 9.992579 
4.865121e+3, 1.4499477e+2, -1531977.1, -1547880.8, 2.2481585, 0.00034185406, 0.00019358807, -1531977.1, -12925.281, 0.0, 10.002028, 9.980953 
4.8651206e+3, 1.549757e+2, -1434279.9, -1450577.6, -2.6054716, 0.00034093094, 0.0000059685954, -1434279.9, -13041.153, 0.0, 10.002016, 9.980422 
4.86512e+3, 1.6495001e+2, -1346262.0, -1371740.3, 2.2044744, 0.000339752, 0.00008866108, -1346262.0, -22771.629, 0.0, 10.002004, 9.96833 
4.8651198e+3, 1.7491838e+2, -1248333.1, -1274118.4, -3.1446152, 0.00033831495, -0.000015255759, -1248333.1, -22532.813, 0.0, 10.001992, 9.9679165 
4.8651192e+3, 1.8488012e+2, -1160269.1, -1195531.6, 2.8528738, 0.0003370567, 0.00012940366, -1160269.1, -32094.049, 0.0, 10.001981, 9.955487 
4.8651186e+3, 1.9483565e+2, -1062147.0, -1097663.8, -2.401189, 0.0003359833, -0.000002867795, -1062147.0, -31536.01, 0.0, 10.00197, 9.955144 
4.8651183e+3, 2.0478451e+2, -974001.4, -1019273.1, 3.5091062, 0.00033483122, 0.000118623575, -974001.4, -40889.223, 0.0, 10.001959, 9.9423895 
4.8651183e+3, 2.1472694e+2, -875741.06, -921266.56, -1.6361299, 0.00033359425, -0.00007594754, -875741.06, -40064.668, 0.0, 10.001948, 9.942049 
4.8651177e+3, 2.2466268e+2, -787472.94, -843009.3, 4.065217, 0.00033240332, 0.00017059979, -787472.94, -49166.76, 0.0, 10.001938, 9.929014 
4.865117e+3, 2.3459175e+2, -689064.94, -744848.7, -0.9574275, 0.00033126367, -0.000041949676, -689064.94, -48063.746, 0.0, 10.001928, 9.928682 
4.8651168e+3, 2.4451388e+2, -600758.75, -666909.9, 4.631054, 0.00033020417, 0.00011935673, -600758.75, -56994.496, 0.0, 10.001918, 9.915248 
4.8651162e+3, 2.5442925e+2, -502030.8, -568251.6, -0.18108588, 0.00032923932, -0.00006355616, -502030.8, -55437.168, 0.0, 10.001908, 9.915148 
4.8651162e+3, 2.643375e+2, -413814.06, -490907.63, 5.342675, 0.00032813355, 0.00018189645, -413814.06, -64321.61, 0.0, 10.001899, 9.90108 
4.8651156e+3, 2.7423915e+2, -314553.2, -391311.44, 0.66348815, 0.00032684824, -0.00016454201, -314553.2, -62096.754, 0.0, 10.001889, 9.901501 
4.8651153e+3, 2.8413257e+2, -228087.5, -318008.3, 5.362096, 0.00032585723, 0.000266214, -228087.5, -72586.516, 0.0, 10.00188, 9.884572 
4.8651147e+3, 2.9401818e+2, -128404.63, -217706.97, 1.1213207, 0.00032526712, -0.00021700413, -128404.63, -69782.75, 0.0, 10.00187, 9.885351 
4.8651147e+3, 3.0393177e+2, -38711.613, -84745.74, 4.8855143, 0.0003239791, 0.00020709413, -38711.613, -38711.613, 0.0, 10.001861, 9.941279 
4.8651144e+3, 3.138749e+2, -37649.953, -82517.75, 0.4119665, 0.00032165676, -0.00002585063, -37649.953, -37649.953, 0.0, 10.001851, 9.942788 
4.8751244e+3, 1.250154e+2, -1717455.6, -1724021.8, -0.87391907, 0.0003506231, 0.00011113525, -1717455.6, -2605.979, 0.0, 10.002053, 9.993351 
4.875124e+3, 1.3500859e+2, -1620107.1, -1627255.4, -5.580508, 0.0003479039, -0.00006698849, -1620107.1, -3190.8816, 0.0, 10.002041, 9.992567 
4.8751235e+3, 1.4499529e+2, -1531987.8, -1547901.4, -2.3555017, 0.0003460532, 0.0001953528, -1531987.8, -12941.081, 0.0, 10.002028, 9.980941 
4.875123e+3, 1.5497619e+2, -1434290.4, -1450598.1, -7.2099714, 0.0003450644, 0.0000072297125, -1434290.4, -13056.695, 0.0, 10.002016, 9.980409 
4.875122e+3, 1.649505e+2, -1346273.6, -1371762.8, -2.1683044, 0.0003438573, 0.00008980125, -1346273.6, -22788.063, 0.0, 10.002005, 9.968316 
4.8751217e+3, 1.7491888e+2, -1248344.5, -1274140.8, -7.516769, 0.00034243017, -0.000013848561, -1248344.5, -22548.975, 0.0, 10.001992, 9.967902 
4.875121e+3, 1.848806e+2, -1160280.4, -1195553.9, -1.2667087, 0.00034118356, 0.00013085011, -1160280.4, -32109.895, 0.0, 10.001981, 9.955473 
4.8751205e+3, 1.9483611e+2, -1062158.1, -1097685.9, -6.51898, 0.00034012352, -0.0000016188745, -1062158.1, -31551.578, 0.0, 10.00197, 9.95513 
4.8751202e+3, 2.0478496e+2, -974012.3, -1019295.0, -0.47710735, 0.00033895308, 0.00011981636, -974012.3, -40904.508, 0.0, 10.00196, 9.942375 
4.8751202e+3, 2.1472737e+2, -875751.9, -921288.3, -5.6203756, 0.00033766354, -0.00007465862, -875751.9, -40079.676, 0.0, 10.001948, 9.942035 
4.8751196e+3, 2.2466308e+2, -787483.6, -843030.94, 0.26762304, 0.00033645777, 0.00017193034, -787483.6, -49181.51, 0.0, 10.001939, 9.929 
4.875119e+3, 2.3459215e+2, -689075.5, -744870.2, -4.749677, 0.00033534574, -0.000040638886, -689075.5, -48078.223, 0.0, 10.001928, 9.928669 
4.8751187e+3, 2.4451427e+2, -600769.06, -666931.06, 0.9642849, 0.0003342635, 0.00012060949, -600769.06, -57008.598, 0.0, 10.001919, 9.915234 
4.875118e+3, 2.5442964e+2, -502040.97, -568272.6, -3.8436875, 0.0003332159, -0.000062406914, -502040.97, -55450.996, 0.0, 10.001908, 9.915134 
4.8751175e+3, 2.643379e+2, -413824.2, -490928.72, 1.7287945, 0.0003321024, 0.00018299812, -413824.2, -64335.27, 0.0, 10.001899, 9.901067 
4.8751175e+3, 2.742395e+2, -314563.2, -391332.44, -2.94797, 0.0003309047, -0.00016341681, -314563.2, -62110.14, 0.0, 10.001889, 9.901486 
4.8751172e+3, 2.841329e+2, -228096.86, -318028.13, 1.7724017, 0.0003299476, 0.00026738484, -228096.86, -72599.14, 0.0, 10.00188, 9.884559 
4.8751166e+3, 2.9401854e+2, -128413.81, -217726.55, -2.466949, 0.00032931767, -0.00021575791, -128413.81, -69795.06, 0.0, 10.00187, 9.885339 
4.8751166e+3, 3.0393207e+2, -38721.66, -84767.195, 1.295941, 0.0003279735, 0.00020832579, -38721.66, -38721.66, 0.0, 10.001861, 9.941265 
4.8751163e+3, 3.1387523e+2, -37660.117, -82539.445, -3.178979, 0.00032557175, -0.000024766405, -37660.117, -37660.117, 0.0, 10.001851, 9.942774 
4.8851264e+3, 1.2501596e+2, -1717368.6, -1723989.8, 4.158964, 0.00035486292, 0.00011253688, -1717368.6, -2524.4949, 0.0, 10.002114, 9.993339 
4.885126e+3, 1.3500915e+2, -1620020.8, -1627224.0, -0.60989094, 0.00035208362, -0.00006550356, -1620020.8, -3109.9443, 0.0, 10.002101, 9.992555 
4.8851255e+3, 1.4499584e+2, -1531902.3, -1547871.0, 2.708519, 0.00035022467, 0.00019681819, -1531902.3, -12860.838, 0.0, 10.002089, 9.980927 
4.885125e+3, 1.5497673e+2, -1434205.4, -1450568.3, -2.2779524, 0.00034927917, 0.000008572598, -1434205.4, -12976.857, 0.0, 10.002076, 9.980396 
4.8851246e+3, 1.6495103e+2, -1346190.1, -1371735.4, 2.895004, 0.00034808496, 0.00009111583, -1346190.1, -22709.604, 0.0, 10.002064, 9.968302 
4.885124e+3, 1.7491937e+2, -1248261.6, -1274113.9, -2.5390232, 0.00034664004, -0.000012466677, -1248261.6, -22471.01, 0.0, 10.002052, 9.967888 
4.8851237e+3, 1.8488109e+2, -1160198.1, -1195527.4, 3.863671, 0.00034534803, 0.00013224213, -1160198.1, -32032.316, 0.0, 10.002041, 9.955459 
4.885123e+3, 1.9483657e+2, -1062076.5, -1097660.0, -1.5119059, 0.00034421388, -0.00000027617787, -1062076.5, -31474.623, 0.0, 10.002029, 9.955115 
4.8851225e+3, 2.0478542e+2, -973931.2, -1019269.5, 4.60279, 0.00034303192, 0.0001211235, -973931.2, -40827.83, 0.0, 10.002019, 9.942362 
4.8851222e+3, 2.1472782e+2, -875671.1, -921263.25, -0.65100425, 0.0003417982, -0.00007337222, -875671.1, -40003.31, 0.0, 10.002008, 9.94202 
4.8851216e+3, 2.2466351e+2, -787403.3, -843006.25, 5.308623, 0.00034061229, 0.000173215, -787403.3, -49105.39, 0.0, 10.001998, 9.928986 
4.885121e+3, 2.3459257e+2, -688995.8, -744846.06, 0.18428177, 0.00033947968, -0.000039334584, -688995.8, -48002.617, 0.0, 10.001987, 9.928655 
4.8851207e+3, 2.4451467e+2, -600689.94, -666907.3, 5.8738008, 0.0003383625, 0.000121888865, -600689.94, -56933.383, 0.0, 10.001977, 9.91522 
4.88512e+3, 2.5443e+2, -501962.63, -568249.5, 0.85575485, 0.00033726296, -0.00006120553, -501962.63, -55376.41, 0.0, 10.001967, 9.91512 
4.8851195e+3, 2.6433825e+2, -413746.3, -490906.0, 6.353292, 0.00033613978, 0.00018415938, -413746.3, -64261.035, 0.0, 10.001958, 9.901052 
4.8851195e+3, 2.7423987e+2, -314485.8, -391310.16, 1.5375364, 0.000334986, -0.00016224748, -314485.8, -62036.254, 0.0, 10.001948, 9.901473 
4.8851192e+3, 2.8413326e+2, -228019.27, -318005.06, 6.1603665, 0.00033404384, 0.00026855402, -228019.27, -72524.91, 0.0, 10.001938, 9.884545 
4.8851186e+3, 2.9401886e+2, -128336.805, -217703.9, 1.8088009, 0.00033338903, -0.00021460056, -128336.805, -69721.28, 0.0, 10.001928, 9.885325 
4.8851186e+3, 3.0393237e+2, -38646.797, -84747.664, 5.3290677, 0.0003320105, 0.00020945139, -38646.797, -38646.797, 0.0, 10.001919, 9.94125 
4.8851183e+3, 3.1387553e+2, -37585.637, -82520.32, 0.64939684, 0.00032956086, -0.000023701401, -37585.637, -37585.637, 0.0, 10.001909, 9.942759 
4.8951283e+3, 1.2501654e+2, -1717379.4, -1724010.3, -0.64771515, 0.0003591972, 0.00011398303, -1717379.4, -2540.8728, 0.0, 10.002114, 9.993325 
4.895128e+3, 1.3500972e+2, -1620031.4, -1627244.4, -5.4167504, 0.00035624392, -0.00006431421, -1620031.4, -3126.0674, 0.0, 10.002101, 9.992542 
4.8951274e+3, 1.4499639e+2, -1531913.1, -1547892.3, -1.9138333, 0.00035437182, 0.00019799969, -1531913.1, -12877.171, 0.0, 10.002089, 9.980914 
4.8951268e+3, 1.5497726e+2, -1434216.3, -1450589.3, -6.899606, 0.00035357336, 0.000009994343, -1434216.3, -12992.931, 0.0, 10.002076, 9.980383 
4.8951265e+3, 1.6495155e+2, -1346201.8, -1371758.3, -1.5206162, 0.00035243115, 0.00009259741, -1346201.8, -22726.46, 0.0, 10.002065, 9.9682865 
4.895126e+3, 1.7491989e+2, -1248273.3, -1274136.8, -6.9543767, 0.00035094205, -0.0000111079535, -1248273.3, -22487.586, 0.0, 10.002052, 9.967874 
4.8951256e+3, 1.848816e+2, -1160209.5, -1195550.1, -0.33262834, 0.00034955033, 0.0001335833, -1160209.5, -32048.656, 0.0, 10.002041, 9.955444 
4.895125e+3, 1.9483706e+2, -1062087.9, -1097682.6, -5.7066517, 0.00034825873, 0.000001156834, -1062087.9, -31490.682, 0.0, 10.002029, 9.955101 
4.8951244e+3, 2.0478588e+2, -973942.4, -1019291.8, 0.6137116, 0.00034707176, 0.00012254053, -973942.4, -40843.566, 0.0, 10.002019, 9.942348 
4.895124e+3, 2.1472827e+2, -875682.2, -921285.5, -4.6371374, 0.00034599716, -0.00007208728, -875682.2, -40018.766, 0.0, 10.002008, 9.942006 
4.8951235e+3, 2.2466396e+2, -787414.2, -843028.4, 1.4595838, 0.00034486424, 0.00017445687, -787414.2, -49120.582, 0.0, 10.001998, 9.928971 
4.895123e+3, 2.3459299e+2, -689006.56, -744868.0, -3.6613479, 0.00034366504, -0.000038035516, -689006.56, -48017.527, 0.0, 10.001987, 9.92864 
4.8951226e+3, 2.4451509e+2, -600700.6, -666929.3, 2.1250458, 0.00034250133, 0.00012319454, -600700.6, -56948.11, 0.0, 10.001978, 9.915206 
4.895122e+3, 2.544304e+2, -501973.2, -568271.4, -2.8889747, 0.00034137923, -0.000059953538, -501973.2, -55390.86, 0.0, 10.001967, 9.915106 
4.8951215e+3, 2.6433864e+2, -413756.72, -490927.66, 2.727217, 0.00034024447, 0.00018537832, -413756.72, -64275.17, 0.0, 10.001958, 9.901038 
4.8951215e+3, 2.7424023e+2, -314496.06, -391331.7, -2.0819027, 0.00033909295, -0.0001610352, -314496.06, -62050.105, 0.0, 10.001948, 9.901459 
4.8951212e+3, 2.841336e+2, -228028.83, -318025.3, 2.5280437, 0.00033814766, 0.00026972243, -228028.83, -72537.93, 0.0, 10.001939, 9.884532 
4.8951206e+3, 2.940192e+2, -128346.17, -217723.92, -1.8263141, 0.00033748228, -0.00021352715, -128346.17, -69733.984, 0.0, 10.001929, 9.885312 
4.8951203e+3, 3.039327e+2, -38657.18, -84769.85, 1.6786088, 0.00033609016, 0.00021047662, -38657.18, -38657.18, 0.0, 10.001919, 9.941236 
4.8951203e+3, 3.1387582e+2, -37596.152, -82542.78, -3.0036118, 0.00033362274, -0.00002265392, -37596.152, -37596.152, 0.0, 10.001909, 9.942743 
4.905131e+3, 1.2501714e+2, -1717290.4, -1723977.4, 4.3017774, 0.00036351877, 0.0001153948, -1717290.4, -2457.6404, 0.0, 10.002176, 9.993313 
4.9051303e+3, 1.350103e+2, -1619943.1, -1627212.1, -0.5554477, 0.00036051704, -0.000063014486, -1619943.1, -3043.4753, 0.0, 10.002163, 9.992529 
4.9051294e+3, 1.4499694e+2, -1531825.8, -1547861.1, 3.1259785, 0.00035862997, 0.00019931741, -1531825.8, -12795.319, 0.0, 10.002151, 9.980901 
4.9051288e+3, 1.5497783e+2, -1434129.4, -1450558.8, -1.8713882, 0.00035784973, 0.00001145954, -1434129.4, -12911.518, 0.0, 10.002137, 9.98037 
4.9051285e+3, 1.6495208e+2, -1346116.5, -1371730.3, 3.6755426, 0.00035670886, 0.00009407872, -1346116.5, -22646.463, 0.0, 10.002126, 9.968272 
4.905128e+3, 1.7492041e+2, -1248188.5, -1274109.1, -1.8675076, 0.00035520396, -0.000009743493, -1248188.5, -22408.0, 0.0, 10.002113, 9.967858 
4.9051276e+3, 1.8488209e+2, -1160125.3, -1195523.1, 4.874621, 0.00035379472, 0.0001349178, -1160125.3, -31969.385, 0.0, 10.002102, 9.95543 
4.905127e+3, 1.9483756e+2, -1062004.3, -1097656.1, -0.61597806, 0.0003524837, 0.0000025516297, -1062004.3, -31411.879, 0.0, 10.00209, 9.955087 
4.9051264e+3, 2.0478636e+2, -973859.1, -1019265.6, 5.8062196, 0.00035128352, 0.0001239298, -973859.1, -40765.027, 0.0, 10.00208, 9.942332 
4.905126e+3, 2.1472873e+2, -875599.5, -921259.8, 0.4082583, 0.00035020232, -0.00007077438, -875599.5, -39940.633, 0.0, 10.002069, 9.941992 
4.9051255e+3, 2.2466442e+2, -787331.9, -843003.0, 6.5194798, 0.0003490588, 0.00017572951, -787331.9, -49042.68, 0.0, 10.002059, 9.928957 
4.905125e+3, 2.3459344e+2, -688924.8, -744843.2, 1.2572384, 0.00034784438, -0.000036762427, -688924.8, -47940.016, 0.0, 10.0020485, 9.928626 
4.9051246e+3, 2.4451551e+2, -600619.25, -666904.9, 7.038658, 0.00034668786, 0.0001244672, -600619.25, -56870.848, 0.0, 10.002038, 9.915191 
4.905124e+3, 2.5443083e+2, -501892.25, -568247.44, 1.9119986, 0.0003455995, -0.00005868239, -501892.25, -55313.934, 0.0, 10.002028, 9.9150915 
4.9051234e+3, 2.6433906e+2, -413676.2, -490904.1, 7.500992, 0.00034445865, 0.00018663645, -413676.2, -64198.51, 0.0, 10.002018, 9.901024 
4.9051234e+3, 2.7424064e+2, -314416.25, -391308.7, 2.5223339, 0.00034325055, -0.00015980461, -314416.25, -61974.01, 0.0, 10.002008, 9.9014435 
4.905123e+3, 2.8413397e+2, -227948.92, -318001.56, 6.9757376, 0.0003422708, 0.0002709184, -227948.9, -72461.586, 0.0, 10.001999, 9.884518 
4.9051225e+3, 2.9401952e+2, -128266.78, -217700.58, 2.4092004, 0.00034160115, -0.0002123757, -128266.78, -69658.03, 0.0, 10.001989, 9.885298 
4.905122e+3, 3.0393305e+2, -38579.85, -84749.68, 5.6328483, 0.0003402154, 0.0002115826, -38579.85, -38579.85, 0.0, 10.00198, 9.94122 
4.905122e+3, 3.1387612e+2, -37518.953, -82522.89, 0.776705, 0.00033776995, -0.000021594053, -37518.953, -37518.953, 0.0, 10.001969, 9.942728 
4.9151328e+3, 1.2501773e+2, -1717301.3, -1723998.4, -0.57170546, 0.0003678304, 0.00011677494, -1717301.3, -2474.464, 0.0, 10.002176, 9.9932995 
4.9151322e+3, 1.350109e+2, -1619953.9, -1627232.9, -5.428347, 0.0003648994, -0.0000616089, -1619953.9, -3060.0383, 0.0, 10.002163, 9.9925165 
4.915132e+3, 1.4499752e+2, -1531836.8, -1547882.3, -1.5175419, 0.00036299563, 0.00020076556, -1531836.8, -12811.911, 0.0, 10.002151, 9.980887 
4.9151313e+3, 1.549784e+2, -1434140.1, -1450579.8, -6.515486, 0.00036211126, 0.000012967028, -1434140.1, -12927.852, 0.0, 10.002138, 9.980356 
4.9151307e+3, 1.6495264e+2, -1346128.5, -1371753.5, -0.7629427, 0.0003609235, 0.000095560776, -1346128.5, -22663.795, 0.0, 10.002126, 9.968258 
4.9151298e+3, 1.7492095e+2, -1248200.3, -1274132.4, -6.3061147, 0.00035942983, -0.000008372583, -1248200.3, -22425.047, 0.0, 10.002114, 9.967844 
4.9151295e+3, 1.8488261e+2, -1160137.0, -1195546.3, 0.64015484, 0.00035808122, 0.00013624695, -1160137.0, -31986.205, 0.0, 10.002102, 9.955415 
4.915129e+3, 1.9483808e+2, -1062015.8, -1097679.1, -4.84883, 0.00035688217, 0.0000039110464, -1062015.8, -31428.408, 0.0, 10.002091, 9.955072 
4.9151284e+3, 2.0478685e+2, -973870.56, -1019288.6, 1.7926267, 0.00035566092, 0.00012529363, -973870.56, -40781.3, 0.0, 10.00208, 9.942318 
4.915128e+3, 2.1472922e+2, -875610.8, -921282.6, -3.6017773, 0.00035441545, -0.00006943393, -875610.8, -39956.62, 0.0, 10.002069, 9.9419775 
4.9151275e+3, 2.2466487e+2, -787343.0, -843025.7, 2.6511035, 0.00035320077, 0.00017703236, -787343.0, -49058.38, 0.0, 10.002059, 9.928942 
4.915127e+3, 2.3459388e+2, -688935.8, -744865.7, -2.6077323, 0.0003520201, -0.000035513163, -688935.8, -47955.43, 0.0, 10.0020485, 9.928611 
4.9151266e+3, 2.4451594e+2, -600630.2, -666927.4, 3.2843833, 0.00035092188, 0.00012570937, -600630.2, -56886.016, 0.0, 10.002038, 9.915176 
4.915126e+3, 2.5443125e+2, -501903.03, -568269.75, -1.8379021, 0.00034992088, -0.000057392077, -501903.03, -55328.813, 0.0, 10.002028, 9.915076 
4.915126e+3, 2.6433945e+2, -413686.9, -490926.44, 3.8152916, 0.00034877926, 0.00018793279, -413686.9, -64213.18, 0.0, 10.002019, 9.901009 
4.9151254e+3, 2.74241e+2, -314426.8, -391330.9, -1.1603799, 0.00034745852, -0.00015855566, -314426.8, -61988.387, 0.0, 10.002008, 9.901429 
4.915125e+3, 2.8413433e+2, -227958.84, -318022.63, 3.3145661, 0.00034641437, 0.00027214148, -227958.84, -72475.19, 0.0, 10.001999, 9.884504 
4.9151245e+3, 2.940199e+2, -128276.53, -217721.4, -1.250624, 0.00034574652, -0.00021114906, -128276.53, -69671.31, 0.0, 10.001989, 9.885284 
4.9151245e+3, 3.0393338e+2, -38590.535, -84772.54, 1.9874611, 0.00034438615, 0.00021276635, -38590.535, -38590.535, 0.0, 10.00198, 9.941204 
4.915124e+3, 3.1387645e+2, -37529.766, -82546.01, -2.8687065, 0.0003420006, -0.000020521578, -37529.766, -37529.766, 0.0, 10.00197, 9.942712 
4.9251354e+3, 1.2501836e+2, -1717210.5, -1723964.8, 4.544665, 0.00037217877, 0.000118218595, -1717210.5, -2389.7666, 0.0, 10.002239, 9.993286 
4.9251348e+3, 1.350115e+2, -1619863.6, -1627199.9, -0.34460765, 0.0003692928, -0.000060069677, -1619863.6, -2975.7039, 0.0, 10.002226, 9.992503 
4.925134e+3, 1.4499812e+2, -1531747.3, -1547850.3, 3.7199483, 0.00036738213, 0.00020230592, -1531747.3, -12728.241, 0.0, 10.0022135, 9.980874 
4.9251333e+3, 1.5497898e+2, -1434051.4, -1450548.4, -1.388367, 0.0003664388, 0.000014414133, -1434051.4, -12844.743, 0.0, 10.0022, 9.980343 
4.9251327e+3, 1.649532e+2, -1346041.4, -1371725.0, 4.484702, 0.00036522216, 0.00009695842, -1346041.4, -22582.291, 0.0, 10.002189, 9.968243 
4.9251324e+3, 1.749215e+2, -1248113.8, -1274104.4, -1.2006027, 0.00036373016, -0.0000069799607, -1248113.8, -22343.928, 0.0, 10.002176, 9.967829 
4.9251318e+3, 1.8488315e+2, -1160050.8, -1195518.5, 5.8726482, 0.00036240523, 0.00013763148, -1160050.8, -31905.213, 0.0, 10.002165, 9.9554 
4.9251312e+3, 1.948386e+2, -1061929.9, -1097651.8, 0.27940145, 0.0003612527, 0.000005284256, -1061929.9, -31347.602, 0.0, 10.002153, 9.955057 
4.925131e+3, 2.0478737e+2, -973785.0, -1019261.7, 7.009927, 0.0003600241, 0.00012666035, -973785.0, -40700.7, 0.0, 10.002143, 9.942303 
4.92513e+3, 2.1472971e+2, -875525.9, -921256.25, 1.4938929, 0.0003587134, -0.000068068526, -875525.9, -39876.516, 0.0, 10.002131, 9.941962 
4.9251294e+3, 2.2466534e+2, -787258.56, -842999.7, 7.788018, 0.00035747094, 0.00017836643, -787258.56, -48978.555, 0.0, 10.002121, 9.928927 
4.9251294e+3, 2.3459435e+2, -688851.8, -744840.2, 2.3756783, 0.00035630463, -0.000034244207, -688851.8, -47875.965, 0.0, 10.0021105, 9.9285965 
4.9251288e+3, 2.4451639e+2, -600546.5, -666902.2, 8.259625, 0.00035520876, 0.00012696358, -600546.5, -56806.72, 0.0, 10.002101, 9.915161 
4.9251285e+3, 2.5443166e+2, -501819.8, -568245.06, 2.9994793, 0.00035419586, -0.00005609274, -501819.8, -55249.81, 0.0, 10.00209, 9.915062 
4.925128e+3, 2.6433986e+2, -413604.1, -490902.22, 8.574089, 0.0003530473, 0.00018922408, -413604.06, -64134.41, 0.0, 10.002081, 9.900994 
4.9251273e+3, 2.7424142e+2, -314344.5, -391307.2, 3.420353, 0.00035172602, -0.00015733985, -314344.5, -61909.984, 0.0, 10.002071, 9.901414 
4.925127e+3, 2.8413475e+2, -227876.25, -317998.03, 7.7875333, 0.00035067752, 0.00027332566, -227876.25, -72396.37, 0.0, 10.002061, 9.88449 
4.9251264e+3, 2.9402027e+2, -128194.414, -217697.23, 3.0992124, 0.0003500001, -0.0002099366, -128194.414, -69592.836, 0.0, 10.002051, 9.88527 
4.9251264e+3, 3.0393374e+2, -38510.6, -84751.7, 6.084774, 0.0003486252, 0.00021395915, -38510.6, -38510.6, 0.0, 10.002042, 9.941189 
4.9251258e+3, 3.138768e+2, -37450.082, -82525.53, 0.9805646, 0.00034621806, -0.00001941932, -37450.082, -37450.082, 0.0, 10.002032, 9.942696 
4.9351373e+3, 1.2501898e+2, -1717221.4, -1723985.8, -0.3296495, 0.0003765642, 0.000119723496, -1717221.4, -2406.9084, 0.0, 10.002239, 9.993274 
4.9351367e+3, 1.3501212e+2, -1619874.5, -1627220.8, -5.2189093, 0.0003736989, -0.00005840263, -1619874.5, -2992.5876, 0.0, 10.002226, 9.99249 
4.935136e+3, 1.4499871e+2, -1531758.4, -1547871.9, -0.97524416, 0.00037179058, 0.00020393482, -1531758.4, -12745.326, 0.0, 10.0022135, 9.980861 
4.9351358e+3, 1.5497956e+2, -1434062.4, -1450569.9, -6.084028, 0.0003708311, 0.000015804932, -1434062.4, -12861.56, 0.0, 10.002201, 9.9803295 
4.9351346e+3, 1.6495378e+2, -1346053.6, -1371748.9, 0.030638466, 0.0003696027, 0.00009827695, -1346053.6, -22600.168, 0.0, 10.002189, 9.968227 
4.9351344e+3, 1.7492206e+2, -1248125.9, -1274128.1, -5.6538687, 0.00036810336, -0.00000556573, -1248125.9, -22361.514, 0.0, 10.002176, 9.9678135 
4.9351338e+3, 1.848837e+2, -1160062.8, -1195542.1, 1.6716892, 0.00036676702, 0.00013906954, -1160062.8, -31922.49, 0.0, 10.002165, 9.955385 
4.9351332e+3, 1.9483912e+2, -1061941.6, -1097675.3, -3.919836, 0.00036559883, 0.0000066715256, -1061941.6, -31364.586, 0.0, 10.002154, 9.955042 
4.935133e+3, 2.0478787e+2, -973796.75, -1019285.1, 2.9551377, 0.00036437603, 0.00012803076, -973796.75, -40717.46, 0.0, 10.002143, 9.942288 
4.9351323e+3, 2.147302e+2, -875537.44, -921279.56, -2.5588312, 0.0003630942, -0.000066678425, -875537.44, -39892.977, 0.0, 10.002132, 9.941947 
4.935132e+3, 2.2466584e+2, -787270.0, -843023.0, 3.9092288, 0.00036186512, 0.00017973114, -787270.0, -48994.793, 0.0, 10.002122, 9.928912 
4.9351314e+3, 2.3459482e+2, -688863.2, -744863.4, -1.4984779, 0.00036069474, -0.000032955584, -688863.2, -47891.906, 0.0, 10.002111, 9.928581 
4.9351308e+3, 2.4451685e+2, -600557.7, -666925.25, 4.512803, 0.00035954808, 0.00012823018, -600557.7, -56822.375, 0.0, 10.002101, 9.915147 
4.9351305e+3, 2.544321e+2, -501830.88, -568267.94, -0.74261165, 0.00035842884, -0.000054783904, -501830.88, -55265.17, 0.0, 10.002091, 9.915047 
4.93513e+3, 2.643403e+2, -413615.13, -490925.28, 4.881041, 0.00035726756, 0.00019051145, -413615.13, -64149.625, 0.0, 10.002081, 9.900979 
4.9351293e+3, 2.7424183e+2, -314355.38, -391330.13, -0.27048594, 0.00035605233, -0.00015615473, -314355.38, -61924.902, 0.0, 10.002071, 9.901399 
4.935129e+3, 2.8413513e+2, -227886.4, -318019.6, 4.1155148, 0.00035505663, 0.0002744737, -227886.4, -72410.4, 0.0, 10.002062, 9.884476 
4.935129e+3, 2.9402065e+2, -128204.37, -217718.53, -0.5723765, 0.00035435884, -0.0002087367, -128204.37, -69606.52, 0.0, 10.002052, 9.885256 
4.9351284e+3, 3.0393413e+2, -38521.7, -84775.46, 2.4160268, 0.0003529315, 0.00021516146, -38521.7, -38521.7, 0.0, 10.002042, 9.941173 
4.9351278e+3, 3.1387717e+2, -37461.332, -82549.61, -2.6890478, 0.0003504252, -0.000018287916, -37461.332, -37461.332, 0.0, 10.002032, 9.942679 
4.9451396e+3, 1.2501964e+2, -1717128.8, -1723951.4, 4.8168855, 0.00038102263, 0.00012119996, -1717128.8, -2320.483, 0.0, 10.002303, 9.99326 
4.9451393e+3, 1.3501275e+2, -1619782.4, -1627186.9, -0.1423689, 0.00037810186, -0.000056897617, -1619782.4, -2906.6638, 0.0, 10.00229, 9.992476 
4.9451387e+3, 1.4499934e+2, -1531667.1, -1547839.3, 4.238969, 0.00037618505, 0.00020542898, -1531667.1, -12660.121, 0.0, 10.002277, 9.980847 
4.9451378e+3, 1.5498017e+2, -1433971.6, -1450537.8, -0.9744224, 0.0003752635, 0.000017248718, -1433971.6, -12776.646, 0.0, 10.002265, 9.980315 
4.9451372e+3, 1.6495438e+2, -1345964.4, -1371719.5, 5.3000355, 0.0003740483, 0.0000996996, -1345964.4, -22516.707, 0.0, 10.002253, 9.968212 
4.9451366e+3, 1.7492265e+2, -1248037.1, -1274099.3, -0.47165474, 0.00037253727, -0.000004134433, -1248037.1, -22278.39, 0.0, 10.00224, 9.967799 
4.9451363e+3, 1.8488427e+2, -1159974.4, -1195513.6, 7.0022655, 0.0003711707, 0.00014048938, -1159974.4, -31839.611, 0.0, 10.002229, 9.95537 
4.945135e+3, 1.9483966e+2, -1061853.9, -1097647.3, 1.2758042, 0.00036995293, 0.000008058992, -1061853.9, -31282.162, 0.0, 10.002217, 9.955027 
4.9451348e+3, 2.047884e+2, -973709.3, -1019257.6, 8.225177, 0.000368732, 0.00012940473, -973709.3, -40635.21, 0.0, 10.002207, 9.942273 
4.9451342e+3, 2.1473071e+2, -875450.25, -921252.4, 2.5798979, 0.00036750728, -0.00006529765, -875450.25, -39810.844, 0.0, 10.002196, 9.941932 
4.945134e+3, 2.2466634e+2, -787183.1, -842996.25, 9.084623, 0.00036629854, 0.00018109384, -787183.1, -48912.75, 0.0, 10.002186, 9.928897 
4.9451333e+3, 2.3459528e+2, -688776.7, -744837.06, 3.5395098, 0.0003651071, -0.000031638956, -688776.7, -47810.168, 0.0, 10.002175, 9.928566 
4.9451327e+3, 2.4451731e+2, -600471.6, -666899.3, 9.529259, 0.00036393086, 0.00012951849, -600471.6, -56740.85, 0.0, 10.002165, 9.915132 
4.9451324e+3, 2.5443256e+2, -501745.34, -568242.56, 4.103864, 0.00036277203, -0.000053502834, -501745.34, -55184.082, 0.0, 10.002155, 9.915031 
4.9451318e+3, 2.6434073e+2, -413530.0, -490900.44, 9.66373, 0.0003616017, 0.00019177397, -413530.0, -64068.79, 0.0, 10.002145, 9.900964 
4.9451318e+3, 2.7424225e+2, -314270.6, -391305.7, 4.351681, 0.00036041613, -0.00015492507, -314270.6, -61844.246, 0.0, 10.002135, 9.901383 
4.9451312e+3, 2.8413552e+2, -227801.17, -317994.16, 8.598054, 0.00035943618, 0.00027568018, -227801.17, -72329.15, 0.0, 10.002126, 9.884461 
4.945131e+3, 2.9402107e+2, -128119.555, -217693.48, 3.7315302, 0.00035873498, -0.00020754029, -128119.555, -69525.56, 0.0, 10.002116, 9.8852415 
4.9451303e+3, 3.039345e+2, -38439.16, -84754.016, 6.4409165, 0.00035728645, 0.00021632673, -38439.16, -38439.16, 0.0, 10.002107, 9.941155 
4.9451298e+3, 3.1387752e+2, -37378.984, -82528.516, 1.1244372, 0.0003547331, -0.000017184371, -37378.984, -37378.984, 0.0, 10.002096, 9.942663 
4.955142e+3, 1.250203e+2, -1717139.8, -1723972.6, -0.089799814, 0.0003855525, 0.00012265056, -1717139.8, -2338.0313, 0.0, 10.002303, 9.993247 
4.9551415e+3, 1.350134e+2, -1619793.4, -1627208.1, -5.0489407, 0.00038250422, -0.000055545024, -1619793.4, -2923.9487, 0.0, 10.002291, 9.992464 
4.9551407e+3, 1.4499997e+2, -1531678.5, -1547861.4, -0.44140473, 0.00038056856, 0.00020679661, -1531678.5, -12677.681, 0.0, 10.002277, 9.980833 
4.95514e+3, 1.549808e+2, -1433982.9, -1450559.6, -5.6544886, 0.00037973616, 0.000018743724, -1433982.9, -12793.936, 0.0, 10.002265, 9.980302 
4.9551398e+3, 1.6495498e+2, -1345976.9, -1371743.9, 0.84564865, 0.0003785579, 0.00010122191, -1345976.9, -22535.014, 0.0, 10.002253, 9.968197 
4.9551386e+3, 1.7492321e+2, -1248049.4, -1274123.4, -4.9257407, 0.00037703104, -0.0000026859584, -1248049.4, -22296.4, 0.0, 10.002241, 9.967783 
4.9551383e+3, 1.8488485e+2, -1159986.5, -1195537.9, 2.770824, 0.00037561634, 0.00014189296, -1159986.5, -31857.41, 0.0, 10.00223, 9.955355 
4.9551377e+3, 1.9484022e+2, -1061866.0, -1097671.4, -2.9540794, 0.00037431688, 0.00000944765, -1061866.0, -31299.658, 0.0, 10.002218, 9.955011 
4.955137e+3, 2.0478895e+2, -973721.25, -1019281.6, 4.221917, 0.00037309408, 0.00013078305, -973721.25, -40652.47, 0.0, 10.002207, 9.942257 
4.9551368e+3, 2.1473125e+2, -875462.06, -921276.25, -1.4197545, 0.00037195336, -0.00006392475, -875462.06, -39827.805, 0.0, 10.002196, 9.941916 
4.9551362e+3, 2.2466685e+2, -787194.9, -843020.1, 5.2142687, 0.00037077154, 0.0001824556, -787194.9, -48929.492, 0.0, 10.002186, 9.928882 
4.955136e+3, 2.3459579e+2, -688788.3, -744860.8, -0.3277615, 0.00036954283, -0.000030294777, -688788.3, -47826.605, 0.0, 10.002175, 9.928551 
4.9551353e+3, 2.4451779e+2, -600483.1, -666923.06, 5.758081, 0.00036835723, 0.00013082837, -600483.1, -56757.063, 0.0, 10.002166, 9.915115 
4.9551347e+3, 2.5443304e+2, -501756.72, -568266.2, 0.33619106, 0.00036722218, -0.000052247196, -501756.72, -55199.99, 0.0, 10.002155, 9.915016 
4.9551344e+3, 2.6434118e+2, -413541.34, -490924.16, 6.009309, 0.00036604627, 0.0001930138, -413541.34, -64084.51, 0.0, 10.002146, 9.900948 
4.9551338e+3, 2.7424267e+2, -314281.78, -391329.25, 0.7035002, 0.00036481785, -0.00015365223, -314281.78, -61859.67, 0.0, 10.002136, 9.901368 
4.9551332e+3, 2.8413597e+2, -227811.63, -318016.4, 4.935165, 0.0003638185, 0.00027694312, -227811.63, -72343.7, 0.0, 10.002126, 9.884446 
4.955133e+3, 2.9402146e+2, -128129.81, -217715.45, 0.066012986, 0.0003631299, -0.00020634635, -128129.81, -69539.766, 0.0, 10.002116, 9.885227 
4.9551323e+3, 3.0393487e+2, -38450.617, -84778.56, 2.7690666, 0.00036168995, 0.00021745765, -38450.617, -38450.617, 0.0, 10.002107, 9.941139 
4.9551323e+3, 3.138779e+2, -37390.594, -82553.38, -2.5492449, 0.00035913914, -0.00001610647, -37390.594, -37390.594, 0.0, 10.002097, 9.942646 
4.9651444e+3, 1.2502097e+2, -1717045.3, -1723937.4, 4.977521, 0.0003900495, 0.00012415728, -1717045.3, -2250.0212, 0.0, 10.002369, 9.993234 
4.9651435e+3, 1.3501406e+2, -1619699.3, -1627173.4, -0.042033464, 0.00038699099, -0.000054122385, -1619699.3, -2836.3254, 0.0, 10.002356, 9.992451 
4.9651432e+3, 1.4500062e+2, -1531585.3, -1547827.9, 4.770634, 0.00038504487, 0.00020822193, -1531585.3, -12590.739, 0.0, 10.002343, 9.98082 
4.9651426e+3, 1.5498142e+2, -1433890.0, -1450526.6, -0.4814641, 0.00038420162, 0.00002025785, -1433890.0, -12707.313, 0.0, 10.002331, 9.980288 
4.9651417e+3, 1.649556e+2, -1345885.6, -1371713.8, 6.185709, 0.0003830206, 0.000102738704, -1345885.6, -22449.902, 0.0, 10.002318, 9.968182 
4.965141e+3, 1.7492382e+2, -1247958.6, -1274093.8, 0.28192636, 0.00038149927, -0.0000012534791, -1247958.6, -22211.545, 0.0, 10.002306, 9.967768 
4.9651405e+3, 1.8488543e+2, -1159896.1, -1195508.6, 8.09969, 0.0003800939, 0.00014329197, -1159896.1, -31772.68, 0.0, 10.002295, 9.9553385 
4.9651402e+3, 1.9484079e+2, -1061775.9, -1097642.6, 2.2422235, 0.00037880763, 0.000010865873, -1061775.9, -31215.115, 0.0, 10.002284, 9.954996 
4.965139e+3, 2.047895e+2, -973631.44, -1019253.25, 9.518185, 0.00037757782, 0.00013218628, -973631.44, -40568.05, 0.0, 10.002273, 9.942242 
4.9651387e+3, 2.1473178e+2, -875372.7, -921248.4, 3.7469137, 0.00037640834, -0.00006257327, -875372.7, -39743.707, 0.0, 10.002262, 9.941901 
4.965138e+3, 2.2466737e+2, -787105.8, -842992.7, 10.407054, 0.0003752159, 0.00018378807, -787105.8, -48845.566, 0.0, 10.002252, 9.928865 
4.9651378e+3, 2.345963e+2, -688699.6, -744833.8, 4.717192, 0.00037399688, -0.000028944458, -688699.6, -47742.88, 0.0, 10.002241, 9.9285345 
4.9651372e+3, 2.4451828e+2, -600394.6, -666896.44, 10.778627, 0.00037283107, 0.00013216597, -600394.6, -56673.387, 0.0, 10.002232, 9.9151 
4.9651366e+3, 2.544335e+2, -501668.5, -568239.94, 5.20512, 0.00037172768, -0.000050958697, -501668.5, -55116.438, 0.0, 10.002221, 9.915 
4.9651363e+3, 2.6434165e+2, -413453.47, -490898.44, 10.822932, 0.0003705492, 0.00019427126, -413453.47, -64001.137, 0.0, 10.002212, 9.900932 
4.9651358e+3, 2.7424315e+2, -314194.44, -391304.06, 5.3450484, 0.00036927493, -0.00015240276, -314194.44, -61776.664, 0.0, 10.002202, 9.901352 
4.9651358e+3, 2.8413638e+2, -227723.9, -317990.28, 9.431094, 0.00036825144, 0.00027817918, -227723.9, -72260.17, 0.0, 10.0021925, 9.884431 
4.9651352e+3, 2.9402187e+2, -128042.414, -217689.67, 4.3776455, 0.00036756843, -0.00020513135, -128042.414, -69456.414, 0.0, 10.002183, 9.885212 
4.965135e+3, 3.0393526e+2, -38365.41, -84756.42, 6.800059, 0.00036614735, 0.00021863579, -38365.406, -38365.406, 0.0, 10.002173, 9.941122 
4.9651343e+3, 3.1387827e+2, -37305.402, -82531.516, 1.2779357, 0.00036363487, -0.0000149876505, -37305.402, -37305.402, 0.0, 10.002163, 9.942629 
4.975147e+3, 1.2502165e+2, -1717056.5, -1723959.0, 0.07068197, 0.00039451793, 0.00012571804, -1717056.5, -2267.953, 0.0, 10.002369, 9.99322 
4.975146e+3, 1.3501473e+2, -1619710.4, -1627194.8, -4.9489226, 0.00039155994, -0.000052632517, -1619710.4, -2853.9897, 0.0, 10.002356, 9.992436 
4.9751455e+3, 1.4500128e+2, -1531596.8, -1547850.1, 0.103347726, 0.00038961132, 0.00020970279, -1531596.8, -12608.624, 0.0, 10.002343, 9.980805 
4.9751446e+3, 1.5498206e+2, -1433901.4, -1450548.8, -5.149341, 0.00038866265, 0.000021791071, -1433901.4, -12724.926, 0.0, 10.002331, 9.980274 
4.975144e+3, 1.6495623e+2, -1345898.4, -1371738.6, 1.7514296, 0.00038744137, 0.00010425131, -1345898.4, -22468.736, 0.0, 10.002318, 9.968166 
4.9751437e+3, 1.7492443e+2, -1247971.1, -1274118.5, -4.152049, 0.00038594572, 0.00000016488539, -1247971.1, -22230.076, 0.0, 10.002307, 9.967752 
4.975143e+3, 1.8488602e+2, -1159908.5, -1195533.4, 3.905809, 0.00038460403, 0.00014468766, -1159908.5, -31790.996, 0.0, 10.0022955, 9.955323 
4.9751422e+3, 1.9484137e+2, -1061788.1, -1097667.1, -1.949728, 0.00038342085, 0.000012313071, -1061788.1, -31233.121, 0.0, 10.002284, 9.95498 
4.9751416e+3, 2.0479007e+2, -973643.6, -1019277.8, 5.5209165, 0.0003821791, 0.00013361407, -973643.6, -40585.813, 0.0, 10.002273, 9.942226 
4.975141e+3, 2.1473233e+2, -875384.75, -921272.75, -0.24793404, 0.00038087417, -0.00006124107, -875384.75, -39761.156, 0.0, 10.002262, 9.941885 
4.9751407e+3, 2.246679e+2, -787117.8, -843017.2, 6.5709815, 0.00037963552, 0.00018509383, -787117.8, -48862.83, 0.0, 10.002252, 9.92885 
4.97514e+3, 2.3459682e+2, -688711.5, -744858.1, 0.8851485, 0.00037847072, -0.000027587359, -688711.5, -47759.832, 0.0, 10.002242, 9.928519 
4.9751398e+3, 2.4451879e+2, -600406.44, -666920.8, 7.061052, 0.0003773523, 0.00013353076, -600406.44, -56690.11, 0.0, 10.002232, 9.915084 
4.9751392e+3, 2.54434e+2, -501680.16, -568264.1, 1.4917587, 0.00037628808, -0.00004963811, -501680.16, -55132.85, 0.0, 10.002222, 9.914985 
4.9751386e+3, 2.643421e+2, -413465.1, -490922.84, 7.168039, 0.00037511, 0.00019554635, -413465.1, -64017.4, 0.0, 10.002212, 9.900916 
4.9751383e+3, 2.742436e+2, -314205.94, -391328.3, 1.6925958, 0.00037378696, -0.00015117455, -314205.94, -61792.613, 0.0, 10.002202, 9.901336 
4.9751377e+3, 2.8413683e+2, -227734.69, -318013.25, 5.802304, 0.00037273485, 0.00027939075, -227734.69, -72275.26, 0.0, 10.0021925, 9.884416 
4.975137e+3, 2.9402232e+2, -128052.99, -217712.36, 0.75007105, 0.00037205077, -0.00020389553, -128052.99, -69471.14, 0.0, 10.002183, 9.885197 
4.9751368e+3, 3.039357e+2, -38377.207, -84781.73, 3.1721628, 0.00037065826, 0.00021985962, -38377.207, -38377.207, 0.0, 10.002173, 9.941105 
4.9751362e+3, 3.1387866e+2, -37317.355, -82557.16, -2.3517666, 0.00036821823, -0.000013829171, -37317.355, -37317.355, 0.0, 10.002164, 9.942611 
4.985149e+3, 1.2502235e+2, -1716960.1, -1723923.0, 5.2489676, 0.0003990403, 0.00012722606, -1716960.1, -2178.4277, 0.0, 10.002436, 9.993207 
4.9851483e+3, 1.3501541e+2, -1619614.4, -1627159.3, 0.15411703, 0.00039611358, -0.000051081133, -1619614.4, -2764.7014, 0.0, 10.002422, 9.992423 
4.985148e+3, 1.4500195e+2, -1531501.5, -1547815.9, 5.3732376, 0.00039416717, 0.00021123924, -1531501.5, -12519.929, 0.0, 10.00241, 9.980791 
4.985147e+3, 1.5498272e+2, -1433806.5, -1450515.0, 0.023106307, 0.00039319147, 0.000023254273, -1433806.5, -12636.527, 0.0, 10.002398, 9.98026 
4.9851465e+3, 1.6495687e+2, -1345805.3, -1371708.0, 7.0796475, 0.00039195982, 0.00010568626, -1345805.3, -22381.92, 0.0, 10.002385, 9.96815 
4.985146e+3, 1.7492506e+2, -1247878.4, -1274088.3, 1.0416031, 0.00039047067, 0.0000016172221, -1247878.4, -22143.408, 0.0, 10.002374, 9.967736 
4.985145e+3, 1.8488663e+2, -1159815.9, -1195503.5, 9.244308, 0.00038914528, 0.00014613605, -1159815.9, -31704.336, 0.0, 10.002362, 9.955307 
4.9851444e+3, 1.9484197e+2, -1061695.9, -1097637.6, 3.284843, 0.00038798846, 0.000013735383, -1061695.9, -31146.596, 0.0, 10.002351, 9.954965 
4.985144e+3, 2.0479065e+2, -973551.56, -1019248.7, 10.831252, 0.00038674872, 0.0001350153, -973551.56, -40499.39, 0.0, 10.00234, 9.94221 
4.9851435e+3, 2.147329e+2, -875293.06, -921244.1, 4.9004936, 0.0003854196, -0.000059855523, -875293.06, -39674.938, 0.0, 10.00233, 9.941869 
4.985143e+3, 2.2466846e+2, -787026.4, -842988.94, 11.7494755, 0.0003841751, 0.00018645507, -787026.4, -48776.707, 0.0, 10.002319, 9.928834 
4.9851426e+3, 2.3459736e+2, -688620.4, -744830.3, 5.9247093, 0.000383025, -0.000026260106, -688620.4, -47673.9, 0.0, 10.002309, 9.928503 
4.9851415e+3, 2.4451931e+2, -600315.5, -666893.44, 12.094048, 0.00038191295, 0.00013484206, -600315.5, -56604.234, 0.0, 10.002299, 9.915068 
4.9851412e+3, 2.544345e+2, -501589.53, -568237.1, 6.367238, 0.00038084522, -0.000048321395, -501589.53, -55047.113, 0.0, 10.00229, 9.9149685 
4.9851406e+3, 2.6434258e+2, -413374.78, -490896.44, 11.950813, 0.0003796696, 0.00019684012, -413374.75, -63931.777, 0.0, 10.00228, 9.9009 
4.9851403e+3, 2.7424404e+2, -314115.9, -391302.34, 6.2886033, 0.00037835658, -0.0001499396, -314115.9, -61707.152, 0.0, 10.002271, 9.9013195 
4.9851403e+3, 2.8413728e+2, -227644.14, -317986.22, 10.273238, 0.0003773107, 0.00028059905, -227644.14, -72189.11, 0.0, 10.002261, 9.8844 
4.9851397e+3, 2.9402274e+2, -127962.75, -217685.67, 5.071197, 0.00037662766, -0.00020267015, -127962.75, -69385.15, 0.0, 10.002252, 9.885181 
4.985139e+3, 3.039361e+2, -38289.273, -84758.914, 7.2192855, 0.00037523257, 0.00022106533, -38289.27, -38289.27, 0.0, 10.002242, 9.941087 
4.9851388e+3, 3.1387907e+2, -37229.426, -82534.63, 1.4449208, 0.00037278482, -0.000012697087, -37229.426, -37229.426, 0.0, 10.002233, 9.942594 
4.9951515e+3, 1.2502307e+2, -1716971.5, -1723945.0, 0.37670326, 0.00040361602, 0.00012868545, -1716971.5, -2196.7805, 0.0, 10.002436, 9.993194 
4.995151e+3, 1.3501611e+2, -1619625.6, -1627181.0, -4.7171445, 0.00040065532, -0.000049470633, -1619625.6, -2782.7852, 0.0, 10.002422, 9.99241 
4.9951503e+3, 1.4500263e+2, -1531513.1, -1547838.5, 0.7260964, 0.00039871558, 0.00021282914, -1531513.1, -12538.275, 0.0, 10.00241, 9.980777 
4.9951494e+3, 1.5498339e+2, -1433818.0, -1450537.5, -4.6239595, 0.00039778682, 0.000024652392, -1433818.0, -12654.594, 0.0, 10.002398, 9.980246 
4.9951488e+3, 1.6495752e+2, -1345818.3, -1371733.4, 2.6958141, 0.00039657293, 0.000107048945, -1345818.3, -22401.281, 0.0, 10.002385, 9.968134 
4.995148e+3, 1.749257e+2, -1247891.1, -1274113.5, -3.342305, 0.00039507222, 0.0000031026696, -1247891.1, -22162.46, 0.0, 10.002374, 9.96772 
4.9951476e+3, 1.8488726e+2, -1159828.6, -1195528.6, 5.1037426, 0.00039371836, 0.00014763525, -1159828.6, -31723.104, 0.0, 10.002362, 9.955291 
4.995147e+3, 1.9484258e+2, -1061708.4, -1097662.6, -0.8550323, 0.00039251547, 0.000015135211, -1061708.4, -31165.049, 0.0, 10.002352, 9.954948 
4.9951464e+3, 2.0479125e+2, -973564.06, -1019273.94, 6.8698277, 0.000391291, 0.0001363925, -973564.06, -40517.715, 0.0, 10.00234, 9.942194 
4.995146e+3, 2.1473348e+2, -875305.44, -921269.2, 0.9416525, 0.0003900429, -0.000058418544, -875305.44, -39692.945, 0.0, 10.00233, 9.941853 
4.995145e+3, 2.2466901e+2, -787038.7, -843014.0, 7.954396, 0.0003888306, 0.00018786971, -787038.7, -48794.473, 0.0, 10.002319, 9.928818 
4.9951446e+3, 2.3459789e+2, -688632.5, -744855.25, 2.1332598, 0.00038765787, -0.000024960105, -688632.5, -47691.344, 0.0, 10.00231, 9.928487 
4.995144e+3, 2.4451983e+2, -600327.6, -666918.44, 8.431225, 0.00038651345, 0.00013610376, -600327.6, -56621.48, 0.0, 10.002299, 9.915051 
4.9951434e+3, 2.54435e+2, -501601.47, -568262.0, 2.7090812, 0.00038540186, -0.000047007372, -501601.47, -55064.043, 0.0, 10.00229, 9.914952 
4.995143e+3, 2.6434308e+2, -413386.75, -490921.56, 8.348684, 0.00038423066, 0.00019815247, -413386.75, -63948.598, 0.0, 10.00228, 9.900883 
4.9951425e+3, 2.7424452e+2, -314127.75, -391327.34, 2.689031, 0.00038298324, -0.00014869738, -314127.75, -61723.652, 0.0, 10.002271, 9.901303 
4.9951422e+3, 2.8413773e+2, -227655.19, -318009.75, 6.688611, 0.00038197666, 0.00028180517, -227655.19, -72204.66, 0.0, 10.002261, 9.884385 
4.9951416e+3, 2.9402316e+2, -127973.586, -217708.92, 1.4864355, 0.0003812967, -0.00020145376, -127973.586, -69400.33, 0.0, 10.002252, 9.885166 
4.995141e+3, 3.039365e+2, -38301.484, -84785.13, 3.6393614, 0.0003798695, 0.0002222548, -38301.484, -38301.484, 0.0, 10.002242, 9.94107 
4.995141e+3, 3.138795e+2, -37241.816, -82561.22, -2.135899, 0.00037733815, -0.0000115892035, -37241.816, -37241.816, 0.0, 10.002233, 9.942575 
5.005154e+3, 1.2502378e+2, -1716873.3, -1723908.1, 5.4617777, 0.00040822133, 0.00013019971, -1716873.3, -2105.6572, 0.0, 10.002503, 9.993179 
5.0051534e+3, 1.3501681e+2, -1619527.8, -1627144.6, 0.32883787, 0.00040523766, -0.00004796708, -1619527.8, -2691.8762, 0.0, 10.002491, 9.992396 
5.005153e+3, 1.4500333e+2, -1531416.0, -1547803.5, 5.9570117, 0.0004033044, 0.00021431378, -1531416.0, -12447.945, 0.0, 10.002478, 9.9807625 
5.0051516e+3, 1.5498407e+2, -1433721.1, -1450502.9, 0.4970202, 0.0004024111, 0.000026109665, -1433721.1, -12564.352, 0.0, 10.002466, 9.980231 
5.0051516e+3, 1.649582e+2, -1345722.9, -1371702.0, 7.992166, 0.0004012113, 0.000108503584, -1345722.9, -22312.537, 0.0, 10.002454, 9.968118 
5.0051504e+3, 1.7492636e+2, -1247796.1, -1274082.5, 1.8636721, 0.0003997031, 0.00000457988, -1247796.1, -22073.867, 0.0, 10.002442, 9.967704 
5.00515e+3, 1.848879e+2, -1159733.9, -1195498.0, 10.45075, 0.0003983321, 0.00014909958, -1159733.9, -31634.572, 0.0, 10.002431, 9.955275 
5.005149e+3, 1.948432e+2, -1061613.9, -1097632.4, 4.3326297, 0.0003971021, 0.000016549817, -1061613.9, -31076.678, 0.0, 10.00242, 9.954932 
5.0051486e+3, 2.0479184e+2, -973469.9, -1019244.2, 12.137779, 0.00039588887, 0.00013778049, -973469.8, -40429.375, 0.0, 10.002409, 9.942178 
5.005148e+3, 2.1473405e+2, -875211.4, -921239.75, 6.0934277, 0.00039469334, -0.00005703231, -875211.4, -39604.617, 0.0, 10.002399, 9.941836 
5.0051475e+3, 2.2466959e+2, -786944.75, -842985.0, 13.142251, 0.000393503, 0.00018924524, -786944.75, -48706.117, 0.0, 10.002389, 9.928802 
5.005147e+3, 2.3459844e+2, -688538.75, -744826.6, 7.1519823, 0.0003923177, -0.000023605335, -688538.75, -47603.055, 0.0, 10.002379, 9.928471 
5.005146e+3, 2.4452037e+2, -600234.1, -666890.25, 13.41306, 0.000391162, 0.0001374298, -600234.1, -56533.234, 0.0, 10.002369, 9.915035 
5.005146e+3, 2.544355e+2, -501508.34, -568234.25, 7.5233665, 0.0003900406, -0.000045719527, -501508.34, -54976.0, 0.0, 10.002359, 9.914935 
5.0051457e+3, 2.643436e+2, -413293.9, -490894.44, 13.097261, 0.00038887555, 0.00019941256, -413293.9, -63860.668, 0.0, 10.00235, 9.9008665 
5.005145e+3, 2.74245e+2, -314035.1, -391300.6, 7.2742343, 0.0003876545, -0.00014745172, -314035.1, -61635.758, 0.0, 10.002341, 9.901286 
5.0051445e+3, 2.841382e+2, -227561.86, -317981.88, 11.132693, 0.00038666336, 0.00028304622, -227561.86, -72115.94, 0.0, 10.002332, 9.884369 
5.005144e+3, 2.9402363e+2, -127880.46, -217681.33, 5.7401934, 0.00038598393, -0.0002002043, -127880.46, -69311.664, 0.0, 10.002322, 9.88515 
5.005143e+3, 3.03937e+2, -38210.75, -84761.65, 7.597213, 0.00038455, 0.00022345489, -38210.746, -38210.746, 0.0, 10.002313, 9.9410515 
5.005143e+3, 3.138799e+2, -37151.105, -82538.055, 1.5935628, 0.00038200145, -0.000010523287, -37151.105, -37151.105, 0.0, 10.002303, 9.942556 
5.015157e+3, 1.2502453e+2, -1716884.8, -1723930.3, 0.6316289, 0.00041285704, 0.00013176662, -1716884.8, -2124.346, 0.0, 10.002503, 9.993166 
5.0151557e+3, 1.3501754e+2, -1619539.0, -1627166.6, -4.500881, 0.00040986086, -0.000046563167, -1619539.0, -2710.2903, 0.0, 10.002491, 9.992382 
5.015155e+3, 1.4500405e+2, -1531427.9, -1547826.6, 1.3791084, 0.0004079339, 0.00021570045, -1531427.9, -12466.776, 0.0, 10.002479, 9.980748 
5.0151545e+3, 1.5498477e+2, -1433732.9, -1450525.9, -4.0805326, 0.00040706532, 0.000027623779, -1433732.9, -12582.898, 0.0, 10.002466, 9.980217 
5.015154e+3, 1.6495886e+2, -1345736.0, -1371727.8, 3.6577804, 0.00040587608, 0.000110045934, -1345736.0, -22332.332, 0.0, 10.002454, 9.9681015 
5.0151527e+3, 1.7492701e+2, -1247809.1, -1274108.1, -2.4712458, 0.00040436423, 0.0000060503967, -1247809.1, -22093.344, 0.0, 10.002442, 9.967688 
5.015152e+3, 1.8488854e+2, -1159746.9, -1195523.8, 6.357327, 0.00040298686, 0.0001505321, -1159746.9, -31653.908, 0.0, 10.002431, 9.955258 
5.015152e+3, 1.9484383e+2, -1061626.8, -1097658.1, 0.24022762, 0.00040174756, 0.000017979373, -1061626.8, -31095.69, 0.0, 10.00242, 9.954916 
5.015151e+3, 2.0479247e+2, -973482.6, -1019269.9, 8.261068, 0.0004005419, 0.00013917967, -973482.6, -40448.164, 0.0, 10.00241, 9.942161 
5.0151503e+3, 2.1473466e+2, -875224.0, -921265.3, 2.2192168, 0.00039937205, -0.00005569294, -875224.0, -39623.082, 0.0, 10.002399, 9.94182 
5.01515e+3, 2.2467017e+2, -786957.4, -843010.8, 9.419379, 0.00039819392, 0.0001905849, -786957.4, -48724.44, 0.0, 10.002389, 9.928784 
5.015149e+3, 2.3459901e+2, -688551.25, -744852.25, 3.4327428, 0.00039700576, -0.000022197868, -688551.25, -47621.06, 0.0, 10.002379, 9.928453 
5.015149e+3, 2.4452092e+2, -600246.56, -666915.94, 9.790731, 0.00039585866, 0.00013881753, -600246.56, -56551.02, 0.0, 10.00237, 9.915018 
5.0151485e+3, 2.5443605e+2, -501520.6, -568259.8, 3.9041438, 0.0003947596, -0.000044455475, -501520.6, -54993.46, 0.0, 10.00236, 9.914919 
5.015148e+3, 2.6434413e+2, -413306.2, -490920.22, 9.580951, 0.0003936023, 0.00020062423, -413306.2, -63878.0, 0.0, 10.002351, 9.900849 
5.0151473e+3, 2.742455e+2, -314047.22, -391326.22, 3.7632146, 0.00039237054, -0.00014620188, -314047.22, -61652.76, 0.0, 10.002341, 9.901269 
5.015147e+3, 2.841387e+2, -227573.23, -318006.13, 7.621817, 0.00039137245, 0.00028432117, -227573.23, -72132.02, 0.0, 10.002332, 9.884353 
5.015147e+3, 2.940241e+2, -127891.62, -217705.31, 2.2279994, 0.00039069116, -0.00019892272, -127891.62, -69327.375, 0.0, 10.002322, 9.885134 
5.015146e+3, 3.039374e+2, -38223.344, -84788.71, 4.06702, 0.00038927444, 0.00022466586, -38223.344, -38223.344, 0.0, 10.002314, 9.941032 
5.0151455e+3, 3.1388035e+2, -37163.883, -82565.5, -1.9401156, 0.0003867715, -0.000009496218, -37163.883, -37163.883, 0.0, 10.002304, 9.942538 
5.025159e+3, 1.2502527e+2, -1716784.6, -1723892.6, 5.6961207, 0.00041751022, 0.0001332567, -1716784.6, -2031.6267, 0.0, 10.002573, 9.993152 
5.025158e+3, 1.3501827e+2, -1619439.3, -1627129.4, 0.4728331, 0.00041453508, -0.000045080415, -1619439.3, -2617.6802, 0.0, 10.00256, 9.992369 
5.025158e+3, 1.4500478e+2, -1531328.6, -1547790.8, 6.5550246, 0.00041261374, 0.00021717911, -1531328.6, -12374.724, 0.0, 10.002547, 9.980734 
5.025157e+3, 1.5498547e+2, -1433633.9, -1450490.4, 1.0414604, 0.0004117352, 0.000029101324, -1433633.9, -12490.935, 0.0, 10.002536, 9.980203 
5.025156e+3, 1.6495956e+2, -1345638.9, -1371695.6, 8.952352, 0.0004105461, 0.0001115173, -1345638.8, -22241.879, 0.0, 10.002523, 9.968085 
5.0251555e+3, 1.749277e+2, -1247712.1, -1274076.3, 2.681232, 0.00040904476, 0.0000075105972, -1247712.1, -22002.92, 0.0, 10.002513, 9.967671 
5.025155e+3, 1.8488921e+2, -1159649.9, -1195492.5, 11.642834, 0.00040768625, 0.0001519698, -1159649.9, -31563.459, 0.0, 10.0025015, 9.955242 
5.0251544e+3, 1.9484448e+2, -1061530.0, -1097627.1, 5.3937283, 0.00040647446, 0.000019382811, -1061530.0, -31005.223, 0.0, 10.002491, 9.954899 
5.025154e+3, 2.047931e+2, -973385.94, -1019239.3, 13.497753, 0.00040527162, 0.00014055865, -973385.94, -40357.64, 0.0, 10.0024805, 9.942144 
5.0251526e+3, 2.1473527e+2, -875127.5, -921235.1, 7.2969103, 0.00040407808, -0.000054327866, -875127.5, -39532.617, 0.0, 10.00247, 9.941803 
5.0251526e+3, 2.2467077e+2, -786861.06, -842981.06, 14.521827, 0.00040289864, 0.00019194432, -786861.06, -48633.984, 0.0, 10.0024605, 9.928767 
5.025152e+3, 2.3459959e+2, -688455.2, -744822.9, 8.397702, 0.00040173435, -0.000020834854, -688455.2, -47530.645, 0.0, 10.002451, 9.928436 
5.0251514e+3, 2.4452147e+2, -600150.56, -666887.0, 14.732527, 0.0004006087, 0.00014015651, -600150.56, -56460.54, 0.0, 10.002441, 9.915001 
5.025151e+3, 2.544366e+2, -501424.75, -568231.2, 8.676191, 0.00039952813, -0.000043173375, -501424.75, -54902.926, 0.0, 10.002432, 9.914902 
5.02515e+3, 2.6434463e+2, -413210.53, -490892.22, 14.282548, 0.00039837632, 0.0002018733, -413210.5, -63787.47, 0.0, 10.002422, 9.900832 
5.02515e+3, 2.74246e+2, -313951.8, -391298.66, 8.2819, 0.00039713355, -0.0001449555, -313951.8, -61562.336, 0.0, 10.002414, 9.901252 
5.0251496e+3, 2.841392e+2, -227477.2, -317977.44, 11.993597, 0.00039613288, 0.00028555663, -227477.2, -72040.8, 0.0, 10.002404, 9.884336 
5.025149e+3, 2.9402456e+2, -127795.734, -217676.9, 6.4194617, 0.00039546043, -0.00019770986, -127795.734, -69236.14, 0.0, 10.002396, 9.885118 
5.0251484e+3, 3.0393785e+2, -38129.805, -84764.516, 7.967689, 0.00039406514, 0.00022583938, -38129.805, -38129.805, 0.0, 10.002386, 9.941014 
5.025148e+3, 3.1388077e+2, -37070.16, -82541.53, 1.7381079, 0.00039160223, -0.000008385802, -37070.16, -37070.16, 0.0, 10.002377, 9.942519 
5.0351614e+3, 1.2502605e+2, -1716796.3, -1723915.1, 0.9331066, 0.00042218246, 0.00013467578, -1716796.3, -2050.7686, 0.0, 10.002573, 9.993138 
5.0351614e+3, 1.3501903e+2, -1619450.8, -1627151.8, -4.2890997, 0.00041925997, -0.000043522476, -1619450.8, -2636.5422, 0.0, 10.002561, 9.992354 
5.03516e+3, 1.4500551e+2, -1531340.6, -1547814.1, 2.048049, 0.00041734363, 0.00021874526, -1531340.6, -12393.91, 0.0, 10.002548, 9.98072 
5.0351596e+3, 1.549862e+2, -1433645.8, -1450513.6, -3.4660053, 0.00041642252, 0.00003054555, -1433645.8, -12509.83, 0.0, 10.002536, 9.980187 
5.0351584e+3, 1.6496027e+2, -1345652.3, -1371722.0, 4.696678, 0.00041522385, 0.00011292301, -1345652.3, -22262.215, 0.0, 10.002524, 9.968068 
5.0351584e+3, 1.749284e+2, -1247725.4, -1274102.5, -1.5747516, 0.00041374628, 0.000008962148, -1247725.4, -22022.93, 0.0, 10.002513, 9.967655 
5.035157e+3, 1.8488988e+2, -1159663.1, -1195518.9, 7.640995, 0.0004124304, 0.0001534134, -1159663.1, -31583.3, 0.0, 10.0025015, 9.955225 
5.0351566e+3, 1.9484514e+2, -1061543.0, -1097653.3, 1.3930752, 0.0004112808, 0.00002076271, -1061543.0, -31024.734, 0.0, 10.002491, 9.954883 
5.035156e+3, 2.0479374e+2, -973399.06, -1019265.7, 9.696344, 0.00041007632, 0.00014191968, -973399.0, -40376.98, 0.0, 10.0024805, 9.942127 
5.0351554e+3, 2.1473588e+2, -875140.44, -921261.3, 3.4978807, 0.0004088126, -0.000052937587, -875140.44, -39551.625, 0.0, 10.002471, 9.941787 
5.035155e+3, 2.2467138e+2, -786874.0, -843007.4, 10.879559, 0.0004076192, 0.00019332327, -786874.0, -48652.805, 0.0, 10.0024605, 9.928751 
5.035154e+3, 2.3460017e+2, -688467.94, -744849.06, 4.75884, 0.000406504, -0.000019512758, -688467.94, -47549.125, 0.0, 10.002451, 9.928419 
5.0351536e+3, 2.4452205e+2, -600163.3, -666913.4, 11.215999, 0.00040541185, 0.00014145052, -600163.3, -56478.863, 0.0, 10.002441, 9.914984 
5.035153e+3, 2.5443715e+2, -501437.3, -568257.44, 5.163874, 0.00040434624, -0.0000418733, -501437.3, -54920.914, 0.0, 10.002432, 9.914885 
5.035153e+3, 2.643452e+2, -413223.16, -490918.72, 10.83945, 0.00040319774, 0.00020315856, -413223.16, -63805.344, 0.0, 10.002423, 9.900815 
5.0351524e+3, 2.742465e+2, -313964.28, -391325.03, 4.8418083, 0.00040194372, -0.00014371143, -313964.28, -61579.875, 0.0, 10.002414, 9.901235 
5.035151e+3, 2.841397e+2, -227488.89, -318002.4, 8.571616, 0.0004009446, 0.00028675576, -227488.89, -72057.39, 0.0, 10.002404, 9.88432 
5.0351506e+3, 2.9402506e+2, -127807.195, -217701.58, 2.9979331, 0.00040029114, -0.00019656094, -127807.195, -69252.35, 0.0, 10.002396, 9.885101 
5.0351506e+3, 3.0393836e+2, -38142.766, -84792.39, 4.540037, 0.00039892123, 0.00022697849, -38142.766, -38142.766, 0.0, 10.002386, 9.940995 
5.0351506e+3, 3.1388122e+2, -37083.31, -82569.81, -1.6922963, 0.00039649312, -0.0000071959057, -37083.31, -37083.31, 0.0, 10.0023775, 9.9425 
5.045164e+3, 1.2502682e+2, -1716694.4, -1723876.8, 5.9239087, 0.00042689394, 0.00013615082, -1716694.4, -1956.4669, 0.0, 10.002644, 9.993124 
5.0451636e+3, 1.350198e+2, -1619349.0, -1627113.8, 0.6523809, 0.00042398568, -0.000042012518, -1619349.0, -2542.2563, 0.0, 10.002631, 9.99234 
5.0451624e+3, 1.4500625e+2, -1531239.5, -1547777.5, 7.185044, 0.00042208028, 0.00022024981, -1531239.5, -12300.12, 0.0, 10.002619, 9.980704 
5.045162e+3, 1.5498693e+2, -1433544.8, -1450477.3, 1.5596715, 0.0004211665, 0.00003200432, -1433544.8, -12416.048, 0.0, 10.002606, 9.980173 
5.045161e+3, 1.6496098e+2, -1345552.9, -1371689.1, 9.886913, 0.0004199793, 0.00011435283, -1345552.9, -22169.951, 0.0, 10.002595, 9.968052 
5.0451607e+3, 1.749291e+2, -1247626.1, -1274070.0, 3.4883516, 0.0004185174, 0.000010380178, -1247626.1, -21930.574, 0.0, 10.002584, 9.967638 
5.0451595e+3, 1.8489057e+2, -1159564.0, -1195486.8, 12.844591, 0.0004172124, 0.00015482504, -1159564.0, -31490.842, 0.0, 10.002574, 9.955208 
5.0451595e+3, 1.948458e+2, -1061444.0, -1097621.5, 6.464419, 0.00041606862, 0.000022173519, -1061444.0, -30932.232, 0.0, 10.002563, 9.954865 
5.045159e+3, 2.0479438e+2, -973300.06, -1019234.4, 14.848688, 0.00041487458, 0.00014331621, -973300.06, -40284.41, 0.0, 10.002553, 9.94211 
5.0451577e+3, 2.1473652e+2, -875041.6, -921230.4, 8.504695, 0.00041362623, -0.000051569747, -875041.6, -39459.023, 0.0, 10.002543, 9.94177 
5.045157e+3, 2.2467197e+2, -786775.25, -842976.9, 15.913923, 0.0004124426, 0.00019466232, -786775.25, -48560.105, 0.0, 10.002534, 9.928733 
5.0451565e+3, 2.3460078e+2, -688369.3, -744818.9, 9.632886, 0.00041133098, -0.000018202612, -688369.3, -47456.375, 0.0, 10.002524, 9.928402 
5.0451565e+3, 2.4452263e+2, -600064.75, -666883.7, 16.068354, 0.0004102466, 0.00014274463, -600064.75, -56386.02, 0.0, 10.002515, 9.914967 
5.045156e+3, 2.544377e+2, -501338.88, -568228.06, 9.845065, 0.0004091937, -0.00004058003, -501338.88, -54828.008, 0.0, 10.002506, 9.914866 
5.045155e+3, 2.643457e+2, -413124.84, -490889.97, 15.428219, 0.00040805872, 0.0002044286, -413124.84, -63712.39, 0.0, 10.002497, 9.900797 
5.0451547e+3, 2.7424708e+2, -313866.13, -391296.63, 9.242459, 0.00040681913, -0.0001424929, -313866.13, -61486.895, 0.0, 10.002488, 9.9012165 
5.045154e+3, 2.841402e+2, -227389.95, -317972.8, 12.836589, 0.00040583263, 0.00028794605, -227389.95, -71963.47, 0.0, 10.00248, 9.884303 
5.0451535e+3, 2.9402554e+2, -127708.36, -217672.23, 7.0957885, 0.0004051892, -0.00019536738, -127708.36, -69158.36, 0.0, 10.00247, 9.885084 
5.0451535e+3, 3.039388e+2, -38046.355, -84767.49, 8.351476, 0.00040383067, 0.00022814295, -38046.355, -38046.355, 0.0, 10.002461, 9.940975 
5.045153e+3, 3.138817e+2, -36986.66, -82545.13, 1.8574942, 0.00040141618, -0.0000061078313, -36986.66, -36986.66, 0.0, 10.002453, 9.94248 
5.055167e+3, 1.2502761e+2, -1716706.1, -1723899.5, 1.2512004, 0.0004316449, 0.00013767935, -1716706.1, -1975.9622, 0.0, 10.002644, 9.99311 
5.055166e+3, 1.3502057e+2, -1619360.6, -1627136.3, -4.0194077, 0.00042871496, -0.0000405465, -1619360.6, -2561.466, 0.0, 10.002631, 9.992326 
5.055165e+3, 1.4500701e+2, -1531251.8, -1547801.4, 2.7687101, 0.00042682607, 0.00022169767, -1531251.8, -12319.787, 0.0, 10.002619, 9.980689 
5.0551647e+3, 1.549877e+2, -1433556.9, -1450501.0, -2.856913, 0.0004259665, 0.0000334778, -1433556.9, -12435.417, 0.0, 10.002607, 9.980158 
5.055164e+3, 1.6496171e+2, -1345566.6, -1371716.1, 5.741005, 0.0004248105, 0.00011580631, -1345566.6, -22190.787, 0.0, 10.002596, 9.968035 
5.055163e+3, 1.7492981e+2, -1247639.6, -1274096.8, -0.6577292, 0.00042335675, 0.0000117677655, -1247639.6, -21951.078, 0.0, 10.002584, 9.967621 
5.0551623e+3, 1.8489125e+2, -1159577.5, -1195513.8, 8.941546, 0.0004220328, 0.00015620774, -1159577.5, -31511.184, 0.0, 10.002574, 9.955191 
5.055162e+3, 1.9484648e+2, -1061457.4, -1097648.4, 2.5622582, 0.00042084194, 0.000023614379, -1061457.4, -30952.238, 0.0, 10.002563, 9.954848 
5.055161e+3, 2.0479505e+2, -973313.44, -1019261.3, 11.145494, 0.0004196697, 0.00014474707, -973313.44, -40304.266, 0.0, 10.002553, 9.942093 
5.0551605e+3, 2.1473716e+2, -875054.8, -921257.2, 4.8037524, 0.0004185171, -0.000050222006, -875054.8, -39478.535, 0.0, 10.002543, 9.9417515 
5.05516e+3, 2.246726e+2, -786788.44, -843003.9, 12.377659, 0.0004173657, 0.00019596487, -786788.44, -48579.457, 0.0, 10.002534, 9.928716 
5.0551593e+3, 2.346014e+2, -688382.3, -744845.7, 6.1000853, 0.0004162148, -0.000016902739, -688382.3, -47475.383, 0.0, 10.002524, 9.928385 
5.055159e+3, 2.4452323e+2, -600077.8, -666910.75, 12.663737, 0.00041511402, 0.00014403975, -600077.8, -56404.883, 0.0, 10.002515, 9.914948 
5.055158e+3, 2.5443828e+2, -501351.78, -568255.0, 6.445126, 0.0004140718, -0.00003929224, -501351.78, -54846.527, 0.0, 10.002506, 9.914849 
5.0551575e+3, 2.6434627e+2, -413137.8, -490917.25, 12.093518, 0.00041295987, 0.0002056852, -413137.8, -63730.816, 0.0, 10.002498, 9.900779 
5.055157e+3, 2.7424762e+2, -313878.9, -391323.75, 5.910632, 0.00041175899, -0.00014129757, -313878.9, -61504.973, 0.0, 10.002488, 9.901198 
5.055157e+3, 2.841407e+2, -227401.92, -317998.4, 9.523296, 0.00041079547, 0.0002891289, -227401.92, -71980.55, 0.0, 10.00248, 9.884286 
5.0551564e+3, 2.9402608e+2, -127720.1, -217697.55, 3.7823188, 0.00041015365, -0.00019413087, -127720.1, -69175.04, 0.0, 10.002471, 9.885067 
5.055156e+3, 3.039393e+2, -38059.746, -84796.33, 5.04229, 0.0004087934, 0.00022933213, -38059.746, -38059.746, 0.0, 10.002462, 9.940956 
5.055155e+3, 3.1388214e+2, -37000.258, -82574.414, -1.452477, 0.00040637265, -0.000005114929, -37000.258, -37000.258, 0.0, 10.002453, 9.94246 
5.0651693e+3, 1.2502842e+2, -1716602.4, -1723860.3, 6.145138, 0.00043640521, 0.00013916375, -1716602.4, -1880.0992, 0.0, 10.002715, 9.993095 
5.065169e+3, 1.3502136e+2, -1619256.9, -1627097.4, 0.80719733, 0.00043349847, -0.000039095612, -1619256.9, -2465.485, 0.0, 10.002703, 9.992312 
5.065168e+3, 1.450078e+2, -1531148.6, -1547764.0, 7.7903633, 0.000431631, 0.00022313301, -1531148.6, -12224.257, 0.0, 10.002691, 9.980675 
5.0651675e+3, 1.5498845e+2, -1433453.8, -1450463.9, 2.0637076, 0.00043079085, 0.000034915185, -1433453.8, -12339.734, 0.0, 10.00268, 9.980143 
5.0651664e+3, 1.6496247e+2, -1345465.1, -1371682.5, 10.831196, 0.00042965024, 0.000117236865, -1345465.1, -22096.586, 0.0, 10.002668, 9.968018 
5.065166e+3, 1.7493053e+2, -1247538.3, -1274063.5, 4.3096485, 0.0004282079, 0.000013182701, -1247538.3, -21856.79, 0.0, 10.002658, 9.967604 
5.065165e+3, 1.8489197e+2, -1159476.1, -1195480.9, 14.0468445, 0.00042688963, 0.00015760488, -1159476.1, -31416.773, 0.0, 10.002647, 9.9551735 
5.0651646e+3, 1.9484717e+2, -1061356.0, -1097615.8, 7.524393, 0.00042569853, 0.000024991461, -1061356.0, -30857.695, 0.0, 10.002637, 9.954831 
5.0651634e+3, 2.0479572e+2, -973212.2, -1019229.3, 16.180693, 0.0004245423, 0.0001461054, -973212.2, -40209.58, 0.0, 10.002627, 9.942075 
5.0651634e+3, 2.1473782e+2, -874953.56, -921225.44, 9.684905, 0.00042342307, -0.00004888098, -874953.56, -39383.707, 0.0, 10.002618, 9.941734 
5.065163e+3, 2.2467324e+2, -786687.2, -842972.6, 17.281776, 0.00042229198, 0.0001972866, -786687.2, -48484.46, 0.0, 10.002608, 9.928698 
5.0651616e+3, 2.34602e+2, -688281.1, -744814.75, 10.833319, 0.00042114672, -0.000015602485, -688281.1, -47380.246, 0.0, 10.0026, 9.928367 
5.065161e+3, 2.4452384e+2, -599976.6, -666880.25, 17.365114, 0.00042005227, 0.00014531364, -599976.6, -56309.617, 0.0, 10.00259, 9.914931 
5.0651604e+3, 2.5443888e+2, -501250.75, -568224.8, 10.988202, 0.00041901722, -0.0000380505, -501250.75, -54751.23, 0.0, 10.002582, 9.914831 
5.0651604e+3, 2.6434684e+2, -413036.9, -490887.75, 16.57326, 0.000417921, 0.00020690047, -413036.9, -63635.457, 0.0, 10.002573, 9.900761 
5.06516e+3, 2.7424818e+2, -313778.0, -391294.56, 10.212927, 0.00041674665, -0.00014010146, -313778.0, -61409.445, 0.0, 10.002564, 9.90118 
5.065159e+3, 2.8414127e+2, -227300.13, -317967.97, 13.674666, 0.00041579915, 0.00029032247, -227300.13, -71883.945, 0.0, 10.002556, 9.884269 
5.0651586e+3, 2.9402658e+2, -127618.28, -217667.31, 7.72374, 0.0004151589, -0.00019291755, -127618.28, -69078.26, 0.0, 10.002548, 9.88505 
5.065158e+3, 3.0393982e+2, -37960.383, -84770.68, 8.6903, 0.0004138126, 0.00023049663, -37960.383, -37960.383, 0.0, 10.00254, 9.940936 
5.065158e+3, 3.1388262e+2, -36900.66, -82549.0, 1.9824883, 0.00041142444, -0.0000040998507, -36900.66, -36900.66, 0.0, 10.002531, 9.94244 
5.075172e+3, 1.2502924e+2, -1716614.3, -1723883.3, 1.5951091, 0.00044117714, 0.0001406079, -1716614.3, -1899.9803, 0.0, 10.002715, 9.993081 
5.0751716e+3, 1.3502218e+2, -1619268.6, -1627120.3, -3.7422543, 0.00043833558, -0.00003765782, -1619268.6, -2485.077, 0.0, 10.002704, 9.992298 
5.075171e+3, 1.4500858e+2, -1531161.0, -1547788.3, 3.5037332, 0.0004364942, 0.0002245577, -1531161.0, -12244.377, 0.0, 10.002691, 9.9806595 
5.07517e+3, 1.5498921e+2, -1433466.0, -1450488.0, -2.2224708, 0.000435641, 0.00003631978, -1433466.0, -12359.549, 0.0, 10.00268, 9.980127 
5.075169e+3, 1.6496323e+2, -1345479.0, -1371709.9, 6.794817, 0.000434501, 0.00011864696, -1345479.0, -22117.908, 0.0, 10.002669, 9.968 
5.0751686e+3, 1.7493127e+2, -1247552.0, -1274090.8, 0.27257517, 0.00043307306, 0.000014624297, -1247552.0, -21877.77, 0.0, 10.002658, 9.9675865 
5.075168e+3, 1.8489268e+2, -1159490.0, -1195508.4, 10.265072, 0.00043178364, 0.00015901659, -1159490.0, -31437.635, 0.0, 10.002647, 9.955156 
5.075167e+3, 1.9484787e+2, -1061369.6, -1097643.1, 3.7435951, 0.00043063622, 0.000026309719, -1061369.6, -30878.209, 0.0, 10.002638, 9.954813 
5.075166e+3, 2.047964e+2, -973225.8, -1019256.94, 12.603649, 0.00042949052, 0.00014739673, -973225.8, -40229.957, 0.0, 10.002627, 9.942058 
5.0751656e+3, 2.1473849e+2, -874967.06, -921252.9, 6.110121, 0.00042834625, -0.000047545265, -874967.06, -39403.74, 0.0, 10.002618, 9.941716 
5.075165e+3, 2.246739e+2, -786700.75, -843000.3, 13.875163, 0.00042722438, 0.00019862731, -786700.75, -48504.36, 0.0, 10.002609, 9.92868 
5.0751644e+3, 2.3460265e+2, -688294.44, -744842.25, 7.430663, 0.00042612688, -0.000014300965, -688294.44, -47399.793, 0.0, 10.0026, 9.9283495 
5.075164e+3, 2.4452445e+2, -599990.0, -666907.94, 14.066275, 0.0004250601, 0.0001465685, -599990.0, -56328.98, 0.0, 10.002591, 9.914913 
5.075163e+3, 2.5443947e+2, -501263.94, -568252.4, 7.692382, 0.00042402896, -0.000036851106, -501263.94, -54770.242, 0.0, 10.002583, 9.914813 
5.0751626e+3, 2.643474e+2, -413050.2, -490915.7, 13.381378, 0.0004229416, 0.00020807784, -413050.2, -63654.4, 0.0, 10.002574, 9.900743 
5.075162e+3, 2.7424872e+2, -313791.13, -391322.38, 7.026303, 0.00042178243, -0.00013890372, -313791.13, -61428.035, 0.0, 10.002565, 9.901162 
5.0751615e+3, 2.8414178e+2, -227312.47, -317994.38, 10.50267, 0.00042084442, 0.000291527, -227312.47, -71901.586, 0.0, 10.002557, 9.884252 
5.075161e+3, 2.940271e+2, -127630.38, -217693.42, 4.552107, 0.00042020576, -0.00019172524, -127630.38, -69095.484, 0.0, 10.002548, 9.885033 
5.075161e+3, 3.039403e+2, -37974.13, -84800.31, 5.504222, 0.0004188882, 0.0002316387, -37974.13, -37974.13, 0.0, 10.00254, 9.940916 
5.07516e+3, 3.138831e+2, -36914.61, -82579.07, -1.2073835, 0.0004165691, -0.000003063121, -36914.61, -36914.61, 0.0, 10.002531, 9.942419 
5.085175e+3, 1.2503007e+2, -1716508.6, -1723843.4, 6.3418016, 0.00044598657, 0.00014200738, -1716508.6, -1802.4387, 0.0, 10.002789, 9.993067 
5.0851744e+3, 1.3502298e+2, -1619162.9, -1627080.5, 0.909724, 0.00044318676, -0.00003622769, -1619162.9, -2387.3599, 0.0, 10.002776, 9.992283 
5.085173e+3, 1.4500938e+2, -1531055.9, -1547750.1, 8.359167, 0.0004413673, 0.00022598999, -1531055.9, -12147.059, 0.0, 10.002765, 9.980644 
5.0851727e+3, 1.5499e+2, -1433360.8, -1450450.1, 2.5671568, 0.00044051607, 0.000037725662, -1433360.8, -12262.039, 0.0, 10.002754, 9.980112 
5.085172e+3, 1.6496399e+2, -1345375.5, -1371675.8, 11.75207, 0.00043938737, 0.000120039134, -1345375.5, -22021.895, 0.0, 10.002743, 9.967982 
5.0851715e+3, 1.7493202e+2, -1247448.4, -1274056.8, 5.0788975, 0.00043798017, 0.000016015712, -1247448.4, -21781.5, 0.0, 10.002732, 9.967568 
5.08517e+3, 1.8489341e+2, -1159386.4, -1195474.9, 15.192754, 0.00043671942, 0.00016038356, -1159386.4, -31341.143, 0.0, 10.002723, 9.955138 
5.0851697e+3, 1.9484858e+2, -1061266.0, -1097609.9, 8.526058, 0.0004356089, 0.000027627673, -1061266.0, -30781.523, 0.0, 10.002713, 9.954796 
5.085169e+3, 2.047971e+2, -973122.1, -1019224.1, 17.463156, 0.0004344771, 0.00014869525, -973122.1, -40133.08, 0.0, 10.002704, 9.9420395 
5.0851685e+3, 2.1473919e+2, -874863.3, -921220.3, 10.811339, 0.0004333221, -0.000046234436, -874863.3, -39306.633, 0.0, 10.002694, 9.941699 
5.085167e+3, 2.2467457e+2, -786597.0, -842968.2, 18.595802, 0.00043221173, 0.00019992884, -786597.0, -48407.063, 0.0, 10.002686, 9.928662 
5.085167e+3, 2.3460329e+2, -688190.75, -744810.5, 12.0034685, 0.00043115058, -0.000013033017, -688190.75, -47302.387, 0.0, 10.002677, 9.928331 
5.0851667e+3, 2.4452507e+2, -599886.3, -666876.7, 18.61126, 0.00043010883, 0.00014780654, -599886.3, -56231.395, 0.0, 10.002668, 9.914894 
5.085166e+3, 2.5444007e+2, -501160.16, -568221.4, 12.046173, 0.00042908927, -0.000035638688, -501160.16, -54672.406, 0.0, 10.00266, 9.914795 
5.0851655e+3, 2.6434803e+2, -412946.44, -490885.34, 17.656586, 0.00042801446, 0.00020926962, -412946.44, -63556.402, 0.0, 10.002651, 9.900723 
5.0851643e+3, 2.7424926e+2, -313687.44, -391292.38, 11.115414, 0.00042686905, -0.00013772617, -313687.44, -61329.906, 0.0, 10.002644, 9.901143 
5.0851643e+3, 2.8414235e+2, -227207.84, -317963.1, 14.463072, 0.000425946, 0.00029268072, -227207.84, -71802.36, 0.0, 10.002636, 9.884233 
5.085164e+3, 2.9402763e+2, -127525.72, -217662.33, 8.3586, 0.00042532381, -0.00019060868, -127525.71, -68996.03, 0.0, 10.002627, 9.885015 
5.085163e+3, 3.0394083e+2, -37871.895, -84773.96, 9.042654, 0.00042403286, 0.0002327253, -37871.895, -37871.895, 0.0, 10.00262, 9.940895 
5.0851625e+3, 3.138836e+2, -36811.867, -82552.836, 2.0694094, 0.00042175542, -0.0000019947595, -36811.867, -36811.867, 0.0, 10.002611, 9.942398 
5.095178e+3, 1.250309e+2, -1716520.8, -1723866.8, 1.9291004, 0.00045083396, 0.00014336625, -1716520.8, -1822.7655, 0.0, 10.002789, 9.9930525 
5.095177e+3, 1.350238e+2, -1619174.9, -1627103.9, -3.5011497, 0.00044805408, -0.00003480375, -1619174.9, -2407.3892, 0.0, 10.002777, 9.992269 
5.095176e+3, 1.4501019e+2, -1531068.4, -1547774.6, 4.2141676, 0.00044625273, 0.0002274303, -1531068.4, -12167.538, 0.0, 10.002766, 9.980628 
5.0951755e+3, 1.5499079e+2, -1433373.1, -1450474.5, -1.5787492, 0.0004454175, 0.000039133756, -1433373.1, -12282.209, 0.0, 10.002754, 9.980097 
5.095175e+3, 1.6496477e+2, -1345389.8, -1371703.8, 7.865522, 0.0004443101, 0.000121415556, -1345389.8, -22043.756, 0.0, 10.002744, 9.967965 
5.095174e+3, 1.7493278e+2, -1247462.4, -1274084.6, 1.1923561, 0.00044292962, 0.000017361148, -1247462.4, -21803.012, 0.0, 10.002733, 9.967551 
5.095173e+3, 1.8489416e+2, -1159400.4, -1195503.0, 11.548986, 0.00044169746, 0.0001617096, -1159400.4, -31362.514, 0.0, 10.002723, 9.95512 
5.0951725e+3, 1.9484931e+2, -1061279.9, -1097637.8, 4.882715, 0.00044061738, 0.000028946306, -1061279.9, -30802.54, 0.0, 10.002713, 9.954778 
5.095172e+3, 2.047978e+2, -973136.1, -1019252.4, 14.034315, 0.0004395027, 0.00015000148, -973136.1, -40153.984, 0.0, 10.002704, 9.942021 
5.095171e+3, 2.1473987e+2, -874877.1, -921248.44, 7.3852234, 0.00043835054, -0.00004494601, -874877.1, -39327.184, 0.0, 10.002695, 9.941681 
5.09517e+3, 2.2467524e+2, -786610.8, -842996.5, 15.312458, 0.00043725377, 0.00020119452, -786610.8, -48427.45, 0.0, 10.002686, 9.928643 
5.09517e+3, 2.3460394e+2, -688204.4, -744838.6, 8.722664, 0.00043621828, -0.000011795618, -688204.4, -47322.414, 0.0, 10.002677, 9.928312 
5.095169e+3, 2.445257e+2, -599900.0, -666905.2, 15.471096, 0.0004351991, 0.00014902969, -599900.0, -56251.316, 0.0, 10.002668, 9.914876 
5.0951684e+3, 2.544407e+2, -501173.7, -568249.7, 8.911282, 0.0004341984, -0.000034413217, -501173.7, -54691.97, 0.0, 10.002661, 9.914776 
5.095168e+3, 2.643486e+2, -412960.06, -490914.06, 14.605519, 0.00043313962, 0.00021047573, -412960.06, -63575.875, 0.0, 10.002652, 9.900704 
5.095168e+3, 2.7424985e+2, -313700.88, -391320.9, 8.068288, 0.00043200672, -0.00013656678, -313700.88, -61349.01, 0.0, 10.002644, 9.901124 
5.095167e+3, 2.841429e+2, -227220.45, -317990.1, 11.444265, 0.00043110378, 0.00029378763, -227220.45, -71820.43, 0.0, 10.002636, 9.884215 
5.0951666e+3, 2.9402816e+2, -127538.06, -217689.03, 5.340521, 0.000430512, -0.00018956233, -127538.06, -69013.68, 0.0, 10.002628, 9.884997 
5.095166e+3, 3.0394134e+2, -37886.066, -84804.55, 6.045865, 0.00042924567, 0.00023376071, -37886.066, -37886.066, 0.0, 10.00262, 9.940874 
5.0951654e+3, 3.1388408e+2, -36826.26, -82583.9, -0.926342, 0.00042698442, -0.0000008960481, -36826.26, -36826.26, 0.0, 10.002612, 9.942377 
5.105181e+3, 1.2503175e+2, -1716413.3, -1723826.1, 6.512915, 0.00045569672, 0.00014477457, -1716413.3, -1723.6779, 0.0, 10.002862, 9.993037 
5.1051795e+3, 1.3502464e+2, -1619067.1, -1627063.3, 1.0499815, 0.0004529505, -0.000033414544, -1619067.1, -2307.9229, 0.0, 10.0028515, 9.992254 
5.105179e+3, 1.4501102e+2, -1530961.3, -1547735.8, 8.951347, 0.00045117535, 0.00022880617, -1530961.3, -12068.408, 0.0, 10.00284, 9.980613 
5.1051784e+3, 1.5499161e+2, -1433265.9, -1450435.8, 3.0118327, 0.00045035864, 0.00004050171, -1433265.9, -12182.77, 0.0, 10.00283, 9.980082 
5.105177e+3, 1.6496556e+2, -1345284.0, -1371668.8, 12.604762, 0.0004492769, 0.00012276787, -1345284.0, -21945.768, 0.0, 10.002819, 9.967947 
5.1051766e+3, 1.7493357e+2, -1247356.5, -1274049.9, 5.8175125, 0.00044792946, 0.000018690202, -1247356.5, -21704.697, 0.0, 10.00281, 9.967533 
5.105176e+3, 1.8489492e+2, -1159294.5, -1195468.8, 16.295294, 0.00044671586, 0.00016302412, -1159294.4, -31263.938, 0.0, 10.0028, 9.955102 
5.1051754e+3, 1.9485006e+2, -1061173.8, -1097603.8, 9.458691, 0.00044563934, 0.000030255267, -1061173.8, -30703.646, 0.0, 10.00279, 9.95476 
5.105174e+3, 2.0479852e+2, -973029.94, -1019218.75, 18.66787, 0.0004445502, 0.00015129254, -973029.94, -40054.848, 0.0, 10.002782, 9.942003 
5.1051736e+3, 2.1474057e+2, -874771.0, -921215.1, 11.87507, 0.0004434472, -0.00004368605, -874771.0, -39227.887, 0.0, 10.002772, 9.941662 
5.1051736e+3, 2.2467592e+2, -786504.6, -842963.7, 19.820496, 0.00044237103, 0.00020242474, -786504.56, -48327.926, 0.0, 10.002764, 9.928625 
5.1051724e+3, 2.346046e+2, -688098.06, -744806.06, 13.044042, 0.00044132408, -0.000010593596, -688098.06, -47222.566, 0.0, 10.002756, 9.928294 
5.105172e+3, 2.4452636e+2, -599793.56, -666873.06, 19.762999, 0.0004403157, 0.0001502197, -599793.56, -56151.19, 0.0, 10.002748, 9.914857 
5.105171e+3, 2.5444132e+2, -501067.25, -568217.94, 13.045068, 0.00043935212, -0.00003321607, -501067.25, -54591.637, 0.0, 10.00274, 9.914757 
5.1051706e+3, 2.6434922e+2, -412853.63, -490882.9, 18.673485, 0.00043832432, 0.00021164784, -412853.63, -63475.37, 0.0, 10.002732, 9.900685 
5.10517e+3, 2.7425045e+2, -313594.4, -391290.1, 11.950062, 0.00043721462, -0.00013546027, -313594.4, -61248.285, 0.0, 10.002725, 9.901105 
5.1051694e+3, 2.8414348e+2, -227112.94, -317957.94, 15.19292, 0.00043632605, 0.0002948642, -227112.94, -71718.48, 0.0, 10.002717, 9.884197 
5.105169e+3, 2.9402873e+2, -127430.37, -217656.98, 8.883467, 0.00043573667, -0.00018846741, -127430.37, -68911.37, 0.0, 10.002709, 9.884979 
5.105168e+3, 3.039419e+2, -37780.855, -84777.43, 9.327348, 0.00043449661, 0.00023482613, -37780.85, -37780.85, 0.0, 10.002702, 9.940853 
5.105168e+3, 3.1388462e+2, -36720.566, -82556.94, 2.1371849, 0.00043229712, 0.000000069806596, -36720.566, -36720.566, 0.0, 10.002694, 9.942355 
5.1151836e+3, 1.2503262e+2, -1716425.4, -1723849.6, 2.2871108, 0.0004605768, 0.00014622984, -1716425.4, -1744.2922, 0.0, 10.002863, 9.993023 
5.1151824e+3, 1.350255e+2, -1619079.1, -1627086.6, -3.1756248, 0.00045787724, -0.000032056716, -1619079.1, -2328.238, 0.0, 10.0028515, 9.992239 
5.115182e+3, 1.4501186e+2, -1530974.1, -1547760.9, 4.9746537, 0.0004561359, 0.00023012298, -1530974.1, -12089.426, 0.0, 10.00284, 9.9805975 
5.115181e+3, 1.5499242e+2, -1433278.5, -1450460.6, -0.96426547, 0.00045534, 0.000041833107, -1433278.5, -12203.468, 0.0, 10.00283, 9.980065 
5.11518e+3, 1.6496637e+2, -1345298.5, -1371697.3, 8.886969, 0.00045428806, 0.00012409854, -1345298.5, -21968.074, 0.0, 10.00282, 9.967929 
5.1151794e+3, 1.7493434e+2, -1247370.9, -1274078.3, 2.0983312, 0.00045297953, 0.000020004922, -1247370.9, -21726.648, 0.0, 10.00281, 9.967515 
5.115179e+3, 1.848957e+2, -1159308.9, -1195497.5, 12.819188, 0.00045177518, 0.00016432884, -1159308.9, -31285.863, 0.0, 10.0028, 9.955084 
5.115178e+3, 1.948508e+2, -1061188.0, -1097632.4, 5.9839625, 0.00045067718, 0.000031556046, -1061188.0, -30725.21, 0.0, 10.002791, 9.954741 
5.115177e+3, 2.0479925e+2, -973044.2, -1019247.6, 15.373027, 0.00044962156, 0.00015257025, -973044.2, -40076.24, 0.0, 10.002782, 9.941984 
5.115177e+3, 2.1474127e+2, -874785.06, -921243.75, 8.5814905, 0.00044861095, -0.000042451815, -874785.06, -39248.91, 0.0, 10.002773, 9.941644 
5.115176e+3, 2.2467661e+2, -786518.75, -842992.75, 16.71298, 0.00044756188, 0.0002036227, -786518.75, -48348.867, 0.0, 10.002765, 9.928606 
5.115175e+3, 2.3460527e+2, -688112.06, -744834.94, 9.940882, 0.0004464689, -0.000009423838, -688112.06, -47243.137, 0.0, 10.002756, 9.928275 
5.1151747e+3, 2.44527e+2, -599807.6, -666902.2, 16.77702, 0.00044546038, 0.00015137951, -599807.6, -56171.598, 0.0, 10.0027485, 9.914838 
5.115174e+3, 2.5444195e+2, -501081.06, -568246.9, 10.062833, 0.00044455103, -0.00003204462, -501081.06, -54611.67, 0.0, 10.002741, 9.914738 
5.1151735e+3, 2.6434982e+2, -412867.6, -490912.38, 15.785054, 0.00044356825, 0.00021278893, -412867.6, -63495.36, 0.0, 10.002732, 9.900666 
5.115173e+3, 2.7425104e+2, -313608.2, -391319.4, 9.066423, 0.00044249173, -0.00013440245, -313608.2, -61267.9, 0.0, 10.002725, 9.901086 
5.115172e+3, 2.8414404e+2, -227125.89, -317985.72, 12.362377, 0.0004416122, 0.00029591314, -227125.89, -71737.086, 0.0, 10.002717, 9.884179 
5.1151717e+3, 2.9402927e+2, -127443.07, -217684.48, 6.056204, 0.00044099902, -0.00018732635, -127443.07, -68929.54, 0.0, 10.00271, 9.88496 
5.1151717e+3, 3.039424e+2, -37795.39, -84808.84, 6.5199776, 0.00043978685, 0.00023592029, -37795.39, -37795.39, 0.0, 10.002703, 9.940831 
5.1151705e+3, 3.1388512e+2, -36735.324, -82588.836, -0.6694538, 0.00043769187, 0.00000091190503, -36735.324, -36735.324, 0.0, 10.002695, 9.942334 
5.1251864e+3, 1.250335e+2, -1716316.0, -1723808.1, 6.711287, 0.00046545613, 0.0001475674, -1716316.0, -1643.4728, 0.0, 10.002938, 9.993008 
5.125185e+3, 1.3502635e+2, -1618969.5, -1627045.3, 1.1211243, 0.00046283615, -0.000030712305, -1618969.5, -2227.0085, 0.0, 10.002927, 9.992225 
5.1251847e+3, 1.4501269e+2, -1530864.9, -1547721.1, 9.449266, 0.00046114513, 0.00023145416, -1530864.9, -11988.478, 0.0, 10.002916, 9.980581 
5.125184e+3, 1.5499325e+2, -1433169.0, -1450421.1, 3.4407575, 0.0004603702, 0.000043130894, -1433169.0, -12102.031, 0.0, 10.002907, 9.98005 
5.125183e+3, 1.6496718e+2, -1345190.5, -1371661.6, 13.425044, 0.00045933685, 0.00012538048, -1345190.5, -21868.068, 0.0, 10.002897, 9.967911 
5.125182e+3, 1.7493513e+2, -1247262.6, -1274042.8, 6.445023, 0.00045804447, 0.000021288843, -1247262.6, -21626.248, 0.0, 10.002888, 9.967497 
5.1251817e+3, 1.8489645e+2, -1159200.5, -1195462.5, 17.263824, 0.0004568656, 0.0001656003, -1159200.5, -31185.146, 0.0, 10.002878, 9.955066 
5.1251805e+3, 1.9485156e+2, -1061079.6, -1097597.6, 10.309677, 0.00045580266, 0.000032800115, -1061079.6, -30624.178, 0.0, 10.00287, 9.954722 
5.12518e+3, 2.0480001e+2, -972935.6, -1019213.3, 19.755299, 0.00045476816, 0.00015379209, -972935.6, -39974.895, 0.0, 10.002861, 9.941966 
5.125179e+3, 2.14742e+2, -874676.25, -921209.6, 12.771583, 0.00045376364, -0.000041246683, -874676.25, -39147.164, 0.0, 10.002853, 9.941625 
5.1251787e+3, 2.2467731e+2, -786409.9, -842959.1, 20.906963, 0.00045273683, 0.00020480463, -786409.9, -48246.82, 0.0, 10.002845, 9.928587 
5.125178e+3, 2.3460595e+2, -688003.1, -744801.6, 13.976149, 0.0004516841, -0.000008272342, -688003.1, -47140.875, 0.0, 10.002837, 9.928256 
5.1251775e+3, 2.4452767e+2, -599698.56, -666869.4, 20.782984, 0.0004507029, 0.00015250684, -599698.56, -56069.08, 0.0, 10.00283, 9.914819 
5.125177e+3, 2.544426e+2, -500971.97, -568214.3, 13.883685, 0.00044980555, -0.00003093408, -500971.97, -54508.875, 0.0, 10.002822, 9.914719 
5.1251763e+3, 2.6435047e+2, -412758.44, -490880.44, 19.54484, 0.00044884146, 0.00021387864, -412758.44, -63392.31, 0.0, 10.002815, 9.900646 
5.125176e+3, 2.7425164e+2, -313498.88, -391287.72, 12.650966, 0.00044779218, -0.0001333386, -313498.88, -61164.508, 0.0, 10.002808, 9.901066 
5.1251745e+3, 2.841446e+2, -227015.48, -317952.7, 15.839727, 0.00044693684, 0.00029696204, -227015.48, -71632.4, 0.0, 10.002801, 9.88416 
5.1251745e+3, 2.9402983e+2, -127332.47, -217651.6, 9.351326, 0.0004463437, -0.00018627792, -127332.47, -68824.48, 0.0, 10.002793, 9.884942 
5.125174e+3, 3.0394295e+2, -37687.273, -84780.98, 9.579745, 0.00044516538, 0.00023692811, -37687.27, -37687.27, 0.0, 10.002787, 9.94081 
5.1251733e+3, 3.1388566e+2, -36626.594, -82561.06, 2.1651855, 0.00044312488, 0.0000018207346, -36626.594, -36626.594, 0.0, 10.00278, 9.942311 
5.135189e+3, 1.2503439e+2, -1716328.5, -1723832.3, 2.6787455, 0.00047033798, 0.00014879655, -1716328.5, -1664.5864, 0.0, 10.002938, 9.992993 
5.1351887e+3, 1.3502723e+2, -1618981.8, -1627069.3, -2.909922, 0.00046782827, -0.000029379547, -1618981.8, -2247.8132, 0.0, 10.002928, 9.992209 
5.1351875e+3, 1.4501356e+2, -1530877.9, -1547746.6, 5.6855655, 0.0004662029, 0.0002327995, -1530877.9, -12009.842, 0.0, 10.002917, 9.980565 
5.135187e+3, 1.549941e+2, -1433181.8, -1450446.4, -0.32377052, 0.0004654493, 0.000044398326, -1433181.8, -12123.072, 0.0, 10.002907, 9.980034 
5.1351863e+3, 1.64968e+2, -1345205.4, -1371690.9, 9.89108, 0.00046442403, 0.00012661799, -1345205.4, -21890.984, 0.0, 10.002897, 9.967893 
5.135185e+3, 1.7493594e+2, -1247277.3, -1274071.9, 2.91133, 0.0004631266, 0.000022544851, -1247277.3, -21648.795, 0.0, 10.002888, 9.967479 
5.1351845e+3, 1.8489724e+2, -1159215.3, -1195491.8, 13.95718, 0.00046198838, 0.00016684154, -1159215.3, -31207.502, 0.0, 10.002879, 9.955047 
5.1351833e+3, 1.9485232e+2, -1061094.0, -1097626.8, 7.002509, 0.00046101326, 0.000033992186, -1061094.0, -30646.162, 0.0, 10.002871, 9.954703 
5.1351833e+3, 2.0480075e+2, -972950.25, -1019242.94, 16.653551, 0.00045998828, 0.00015496269, -972950.25, -39996.86, 0.0, 10.002862, 9.941947 
5.135182e+3, 2.1474272e+2, -874690.7, -921239.06, 9.67237, 0.00045890958, -0.000040067924, -874690.7, -39168.754, 0.0, 10.002853, 9.941606 
5.1351815e+3, 2.2467802e+2, -786424.3, -842988.9, 17.95225, 0.0004579005, 0.00020597236, -786424.3, -48268.25, 0.0, 10.002846, 9.928568 
5.135181e+3, 2.3460664e+2, -688017.4, -744831.1, 11.024218, 0.00045696853, -0.0000071371346, -688017.4, -47161.926, 0.0, 10.002837, 9.928237 
5.1351804e+3, 2.4452834e+2, -599712.94, -666899.25, 17.967274, 0.00045604026, 0.00015360457, -599712.94, -56090.008, 0.0, 10.00283, 9.914799 
5.13518e+3, 2.5444326e+2, -500986.13, -568244.0, 11.072868, 0.00045511554, -0.000029879682, -500986.13, -54529.42, 0.0, 10.002823, 9.9147 
5.135179e+3, 2.6435107e+2, -412772.72, -490910.6, 16.850946, 0.0004541457, 0.00021492106, -412772.72, -63412.785, 0.0, 10.002815, 9.900626 
5.135178e+3, 2.7425227e+2, -313512.97, -391317.72, 9.962999, 0.0004531181, -0.00013226844, -313512.97, -61184.6, 0.0, 10.002809, 9.901046 
5.135178e+3, 2.8414524e+2, -227028.75, -317981.22, 13.205967, 0.00045230117, 0.00029801152, -227028.75, -71651.48, 0.0, 10.002801, 9.884141 
5.1351774e+3, 2.9403043e+2, -127345.484, -217679.8, 6.721525, 0.00045176898, -0.00018531538, -127345.484, -68843.12, 0.0, 10.002794, 9.884923 
5.135177e+3, 3.039435e+2, -37702.184, -84813.234, 6.9936476, 0.00045063018, 0.00023785594, -37702.184, -37702.184, 0.0, 10.002788, 9.940788 
5.135176e+3, 3.1388617e+2, -36641.734, -82593.82, -0.41791856, 0.00044859757, 0.000002792511, -36641.734, -36641.734, 0.0, 10.002781, 9.942289 
5.145192e+3, 1.2503529e+2, -1716217.1, -1723790.0, 6.8264475, 0.00047529838, 0.0001500733, -1716217.1, -1562.0736, 0.0, 10.003015, 9.992978 
5.1451916e+3, 1.3502812e+2, -1618870.0, -1627027.0, 1.1687492, 0.000472843, -0.00002812579, -1618870.0, -2144.6577, 0.0, 10.003005, 9.992194 
5.1451904e+3, 1.4501442e+2, -1530766.4, -1547706.1, 9.916461, 0.00047125877, 0.00023405027, -1530766.4, -11906.892, 0.0, 10.002995, 9.980549 
5.14519e+3, 1.5499495e+2, -1433070.0, -1450406.0, 3.7563443, 0.0004705329, 0.0000456656, -1433070.0, -12019.659, 0.0, 10.002986, 9.980018 
5.145189e+3, 1.6496883e+2, -1345095.3, -1371654.5, 14.101823, 0.00046953955, 0.000127867, -1345095.3, -21789.006, 0.0, 10.002976, 9.967874 
5.145188e+3, 1.7493676e+2, -1247166.8, -1274035.5, 7.020202, 0.00046827833, 0.00002374081, -1247166.8, -21546.264, 0.0, 10.002968, 9.96746 
5.1451874e+3, 1.8489803e+2, -1159104.5, -1195456.0, 18.14302, 0.0004671664, 0.0001680113, -1159104.5, -31104.555, 0.0, 10.002959, 9.955028 
5.145187e+3, 1.948531e+2, -1060983.0, -1097591.0, 10.972983, 0.00046620722, 0.0000351634, -1060983.0, -30542.762, 0.0, 10.002951, 9.954685 
5.145186e+3, 2.048015e+2, -972839.1, -1019207.8, 20.64817, 0.0004652069, 0.00015612316, -972839.06, -39893.117, 0.0, 10.002943, 9.941927 
5.145185e+3, 2.1474347e+2, -874579.4, -921204.2, 13.51773, 0.00046416218, -0.000038931226, -874579.4, -39064.69, 0.0, 10.002935, 9.9415865 
5.1451844e+3, 2.2467874e+2, -786312.94, -842954.44, 21.797384, 0.00046318345, 0.00020708401, -786312.9, -48163.875, 0.0, 10.002928, 9.928548 
5.145184e+3, 2.3460734e+2, -687905.8, -744797.0, 14.69074, 0.00046227773, -0.0000060519355, -687905.8, -47057.215, 0.0, 10.00292, 9.928217 
5.145183e+3, 2.4452901e+2, -599601.25, -666865.56, 21.610653, 0.00046137147, 0.00015466766, -599601.25, -55984.965, 0.0, 10.002913, 9.91478 
5.1451826e+3, 2.544439e+2, -500874.28, -568210.56, 14.545684, 0.00046046366, -0.000028833625, -500874.28, -54424.047, 0.0, 10.002906, 9.91468 
5.1451814e+3, 2.6435173e+2, -412660.8, -490877.84, 20.272573, 0.00045951683, 0.00021594657, -412660.8, -63307.145, 0.0, 10.002899, 9.900606 
5.1451814e+3, 2.7425286e+2, -313400.94, -391285.25, 13.189629, 0.0004585199, -0.00013126779, -313400.94, -61078.65, 0.0, 10.0028925, 9.901026 
5.145181e+3, 2.8414583e+2, -226915.56, -317947.34, 16.340122, 0.0004577265, 0.00029898368, -226915.56, -71544.164, 0.0, 10.002887, 9.884122 
5.14518e+3, 2.94031e+2, -127232.01, -217646.0, 9.704861, 0.00045720796, -0.00018437709, -127232.01, -68735.33, 0.0, 10.00288, 9.884904 
5.1451796e+3, 3.0394408e+2, -37591.203, -84784.664, 9.791121, 0.00045611302, 0.00023876666, -37591.203, -37591.203, 0.0, 10.002873, 9.940765 
5.145179e+3, 3.1388673e+2, -36529.95, -82565.28, 2.1332462, 0.00045416885, 0.0000036859772, -36529.95, -36529.95, 0.0, 10.002868, 9.942266 
5.1551956e+3, 1.250362e+2, -1716229.8, -1723814.4, 3.0431752, 0.0004803348, 0.00015139491, -1716229.8, -1583.5377, 0.0, 10.0030155, 9.992963 
5.1551944e+3, 1.35029e+2, -1618882.4, -1627051.3, -2.6133149, 0.0004778821, -0.00002694451, -1618882.4, -2165.807, 0.0, 10.003005, 9.992179 
5.155194e+3, 1.450153e+2, -1530779.6, -1547732.1, 6.3597803, 0.0004763163, 0.00023521413, -1530779.6, -11928.775, 0.0, 10.0029955, 9.980533 
5.1551926e+3, 1.549958e+2, -1433083.1, -1450431.9, 0.19984473, 0.00047562414, 0.000046933405, -1433083.1, -12041.208, 0.0, 10.002986, 9.980001 
5.155192e+3, 1.6496968e+2, -1345110.3, -1371684.3, 10.791764, 0.00047468487, 0.00012912732, -1345110.3, -21812.307, 0.0, 10.002977, 9.9678545 
5.155191e+3, 1.7493758e+2, -1247181.6, -1274065.1, 3.7084515, 0.00047349828, 0.000024881781, -1247181.6, -21569.191, 0.0, 10.002968, 9.967441 
5.15519e+3, 1.8489885e+2, -1159119.5, -1195486.3, 15.037982, 0.00047239926, 0.00016911548, -1159119.5, -31127.535, 0.0, 10.002959, 9.9550085 
5.1551896e+3, 1.948539e+2, -1060998.0, -1097621.1, 7.8687024, 0.00047138927, 0.000036315883, -1060998.0, -30565.36, 0.0, 10.002952, 9.954665 
5.155189e+3, 2.0480227e+2, -972854.0, -1019238.06, 17.721735, 0.00047042777, 0.0001572748, -972854.0, -39915.547, 0.0, 10.002943, 9.941908 
5.155188e+3, 2.1474421e+2, -874594.1, -921234.25, 10.592537, 0.0004695177, -0.00003783298, -874594.1, -39086.734, 0.0, 10.002935, 9.941566 
5.155187e+3, 2.2467946e+2, -786327.7, -842984.9, 19.023758, 0.000468581, 0.00020814419, -786327.7, -48185.816, 0.0, 10.002928, 9.928529 
5.1551867e+3, 2.3460807e+2, -687920.44, -744827.25, 11.920255, 0.00046761378, -0.0000050126614, -687920.44, -47078.77, 0.0, 10.002921, 9.928198 
5.155186e+3, 2.4452971e+2, -599615.9, -666896.1, 18.98123, 0.0004667008, 0.00015569908, -599615.9, -56006.37, 0.0, 10.002913, 9.91476 
5.1551855e+3, 2.5444457e+2, -500888.75, -568241.0, 11.921192, 0.00046585116, -0.000027794713, -500888.75, -54445.063, 0.0, 10.002907, 9.9146595 
5.155185e+3, 2.6435238e+2, -412675.44, -490908.78, 17.768032, 0.00046495412, 0.00021695693, -412675.44, -63328.13, 0.0, 10.0029, 9.900586 
5.155184e+3, 2.7425352e+2, -313415.4, -391316.03, 10.691835, 0.00046399634, -0.00013033138, -313415.4, -61099.24, 0.0, 10.002893, 9.901006 
5.1551837e+3, 2.8414643e+2, -226929.1, -317976.47, 13.926138, 0.0004632126, 0.00029988424, -226929.1, -71563.65, 0.0, 10.002887, 9.884102 
5.155183e+3, 2.940316e+2, -127245.27, -217674.8, 7.2963977, 0.00046266368, -0.00018346078, -127245.27, -68754.36, 0.0, 10.002881, 9.884884 
5.1551825e+3, 3.0394465e+2, -37606.527, -84817.85, 7.474319, 0.00046161658, 0.00023966203, -37606.527, -37606.527, 0.0, 10.002874, 9.9407425 
5.155182e+3, 3.1388727e+2, -36545.523, -82599.0, -0.17339697, 0.0004598362, 0.0000045068323, -36545.523, -36545.523, 0.0, 10.002869, 9.942244 
5.1651984e+3, 1.250371e+2, -1716116.5, -1723771.4, 6.9167323, 0.00048533888, 0.00015256567, -1716116.5, -1479.3112, 0.0, 10.003093, 9.992948 
5.165198e+3, 1.3502991e+2, -1618768.6, -1627008.3, 1.1714233, 0.00048297085, -0.000025713598, -1618768.6, -2060.854, 0.0, 10.003084, 9.992164 
5.1651967e+3, 1.450162e+2, -1530666.1, -1547690.9, 10.294436, 0.0004814508, 0.0002364334, -1530666.1, -11823.934, 0.0, 10.003075, 9.980516 
5.165196e+3, 1.5499668e+2, -1432969.0, -1450390.6, 4.030937, 0.0004807656, 0.000048069716, -1432969.0, -11935.6, 0.0, 10.003066, 9.979984 
5.165195e+3, 1.6497053e+2, -1344997.6, -1371647.0, 14.700128, 0.00047985555, 0.00013024146, -1344997.6, -21708.05, 0.0, 10.0030575, 9.967835 
5.165194e+3, 1.7493841e+2, -1247068.8, -1274028.0, 7.4090447, 0.00047872058, 0.000026035043, -1247068.8, -21464.398, 0.0, 10.00305, 9.967422 
5.165193e+3, 1.8489966e+2, -1159006.4, -1195449.8, 18.78803, 0.00047766176, 0.00017025537, -1159006.4, -31022.336, 0.0, 10.003041, 9.954989 
5.1651925e+3, 1.9485469e+2, -1060884.4, -1097584.6, 11.477515, 0.00047668008, 0.00003738827, -1060884.4, -30459.63, 0.0, 10.003034, 9.954646 
5.165192e+3, 2.0480303e+2, -972740.3, -1019202.1, 21.334885, 0.00047574917, 0.00015832209, -972740.25, -39809.418, 0.0, 10.003027, 9.941888 
5.1651907e+3, 2.1474497e+2, -874480.25, -921198.56, 14.011443, 0.0004748721, -0.00003676542, -874480.25, -38980.27, 0.0, 10.003019, 9.941547 
5.1651907e+3, 2.246802e+2, -786213.7, -842949.7, 22.432497, 0.00047396007, 0.00020919285, -786213.7, -48079.004, 0.0, 10.003013, 9.928509 
5.1651895e+3, 2.3460878e+2, -687806.25, -744792.25, 15.156277, 0.00047300808, -0.00000402673, -687806.25, -46971.566, 0.0, 10.003005, 9.928178 
5.165189e+3, 2.445304e+2, -599501.5, -666861.6, 22.189423, 0.00047211393, 0.00015665674, -599501.5, -55898.8, 0.0, 10.002999, 9.914739 
5.1651883e+3, 2.5444525e+2, -500774.22, -568206.75, 14.947603, 0.00047128738, -0.000026824588, -500774.22, -54337.152, 0.0, 10.002993, 9.914639 
5.165188e+3, 2.6435304e+2, -412560.84, -490875.25, 20.754425, 0.00047041874, 0.00021790521, -412560.84, -63219.938, 0.0, 10.002986, 9.900565 
5.165187e+3, 2.7425414e+2, -313300.66, -391282.78, 13.516031, 0.00046949607, -0.00012944813, -313300.66, -60990.71, 0.0, 10.00298, 9.900985 
5.1651865e+3, 2.8414705e+2, -226813.14, -317941.75, 16.68788, 0.00046874039, 0.00030074944, -226813.14, -71453.7, 0.0, 10.0029745, 9.884083 
5.165186e+3, 2.940322e+2, -127128.945, -217640.16, 9.852439, 0.0004682099, -0.00018255005, -127128.945, -68643.85, 0.0, 10.002969, 9.884865 
5.1651853e+3, 3.039452e+2, -37492.727, -84788.52, 9.881628, 0.00046721083, 0.00024054474, -37492.723, -37492.723, 0.0, 10.002963, 9.94072 
5.165185e+3, 3.138878e+2, -36430.977, -82569.734, 2.079849, 0.00046552226, 0.0000052535534, -36430.977, -36430.977, 0.0, 10.002957, 9.942221 
5.175202e+3, 1.2503804e+2, -1716129.3, -1723796.1, 3.4039648, 0.0004903164, 0.00015359758, -1716129.3, -1501.1504, 0.0, 10.003094, 9.992932 
5.1752007e+3, 1.3503082e+2, -1618781.1, -1627032.9, -2.3408155, 0.00048810904, -0.000024436104, -1618781.1, -2082.374, 0.0, 10.003084, 9.992148 
5.1751995e+3, 1.4501709e+2, -1530679.6, -1547717.4, 7.017367, 0.00048666014, 0.00023770453, -1530679.6, -11846.212, 0.0, 10.003076, 9.980499 
5.175199e+3, 1.5499756e+2, -1432982.3, -1450416.9, 0.75331867, 0.0004859572, 0.00004908491, -1432982.3, -11957.534, 0.0, 10.003066, 9.979968 
5.1751983e+3, 1.649714e+2, -1345013.1, -1371677.6, 11.609288, 0.00048505334, 0.00013122092, -1345013.1, -21731.963, 0.0, 10.003058, 9.967816 
5.175197e+3, 1.7493926e+2, -1247084.0, -1274058.4, 4.317445, 0.0004839488, 0.000027200254, -1247084.0, -21487.92, 0.0, 10.00305, 9.967402 
5.1751965e+3, 1.8490048e+2, -1159021.8, -1195480.5, 15.905084, 0.00048295548, 0.00017142887, -1159021.8, -31045.758, 0.0, 10.003042, 9.954969 
5.175196e+3, 1.948555e+2, -1060899.6, -1097615.3, 8.594203, 0.0004820756, 0.000038386952, -1060899.6, -30482.664, 0.0, 10.003035, 9.954626 
5.175195e+3, 2.0480384e+2, -972755.56, -1019233.1, 18.586868, 0.00048116763, 0.00015927322, -972755.56, -39832.387, 0.0, 10.003027, 9.941868 
5.175194e+3, 2.1474575e+2, -874495.3, -921229.44, 11.264469, 0.0004802293, -0.00003572583, -874495.3, -39002.844, 0.0, 10.003019, 9.941527 
5.1751935e+3, 2.2468096e+2, -786228.8, -842980.8, 19.854393, 0.0004793258, 0.00021023124, -786228.8, -48101.42, 0.0, 10.003013, 9.928489 
5.175193e+3, 2.346095e+2, -687821.2, -744823.25, 12.581543, 0.0004784604, -0.0000030898157, -687821.2, -46993.594, 0.0, 10.003006, 9.928157 
5.175192e+3, 2.445311e+2, -599516.5, -666892.94, 19.749554, 0.00047760888, 0.00015754646, -599516.5, -55920.695, 0.0, 10.002999, 9.914719 
5.175191e+3, 2.5444594e+2, -500789.03, -568237.9, 12.512818, 0.0004767729, -0.000025917927, -500789.03, -54358.65, 0.0, 10.002993, 9.9146185 
5.175191e+3, 2.643537e+2, -412575.78, -490906.84, 18.446478, 0.00047591282, 0.00021879624, -412575.75, -63241.35, 0.0, 10.002987, 9.900544 
5.17519e+3, 2.742548e+2, -313315.4, -391314.22, 11.214915, 0.0004750215, -0.00012861381, -313315.38, -61011.723, 0.0, 10.002981, 9.900964 
5.1751894e+3, 2.8414768e+2, -226827.03, -317971.7, 14.516634, 0.000474311, 0.00030158221, -226827.03, -71473.68, 0.0, 10.0029745, 9.884063 
5.175189e+3, 2.9403278e+2, -127142.58, -217669.77, 7.6920033, 0.0004738444, -0.00018164415, -127142.58, -68663.37, 0.0, 10.00297, 9.884845 
5.175188e+3, 3.039458e+2, -37508.32, -84822.336, 7.823266, 0.00047289353, 0.000241416, -37508.32, -37508.32, 0.0, 10.002964, 9.940697 
5.175188e+3, 3.1388837e+2, -36446.81, -82604.06, 0.03133416, 0.0004712299, 0.000005931738, -36446.81, -36446.81, 0.0, 10.002958, 9.942197 
5.185205e+3, 1.2503898e+2, -1716014.0, -1723752.5, 7.0114546, 0.00049535884, 0.00015474528, -1716014.0, -1395.0663, 0.0, 10.003173, 9.992916 
5.1852036e+3, 1.3503176e+2, -1618665.1, -1626989.0, 1.1363918, 0.00049324473, -0.000023369243, -1618665.1, -1975.3866, 0.0, 10.003164, 9.992133 
5.185203e+3, 1.45018e+2, -1530563.9, -1547675.4, 10.591724, 0.0004918619, 0.00023875435, -1530563.9, -11739.269, 0.0, 10.003156, 9.980483 
5.1852024e+3, 1.5499844e+2, -1432865.9, -1450374.9, 4.1795473, 0.00049119786, 0.00005018038, -1432865.9, -11849.803, 0.0, 10.003148, 9.979951 
5.185201e+3, 1.6497226e+2, -1344898.3, -1371639.8, 15.083817, 0.0004903278, 0.00013230511, -1344898.3, -21625.563, 0.0, 10.00314, 9.967796 
5.1852e+3, 1.7494011e+2, -1246968.4, -1274020.5, 7.634057, 0.00048925175, 0.000028216187, -1246968.4, -21380.723, 0.0, 10.003133, 9.967382 
5.1852e+3, 1.8490133e+2, -1158905.9, -1195443.1, 19.216537, 0.0004883006, 0.00017241992, -1158905.9, -30938.07, 0.0, 10.003126, 9.954949 
5.185199e+3, 1.948563e+2, -1060783.6, -1097578.1, 11.703236, 0.00048747676, 0.000039397753, -1060783.6, -30374.592, 0.0, 10.0031185, 9.954606 
5.1851976e+3, 2.0480463e+2, -972639.3, -1019196.5, 21.685131, 0.00048659276, 0.00016026328, -972639.3, -39723.887, 0.0, 10.003112, 9.941848 
5.185197e+3, 2.147465e+2, -874378.7, -921192.9, 14.193411, 0.00048564404, -0.000034799712, -874378.7, -38893.77, 0.0, 10.003105, 9.941507 
5.1851964e+3, 2.246817e+2, -786112.0, -842944.75, 22.746172, 0.0004847564, 0.00021112972, -786112.0, -47991.94, 0.0, 10.0030985, 9.928468 
5.185196e+3, 2.3461023e+2, -687704.3, -744787.44, 15.283124, 0.00048393616, -0.0000021784135, -687704.3, -46883.86, 0.0, 10.003093, 9.928137 
5.1851946e+3, 2.4453181e+2, -599399.56, -666857.7, 22.425852, 0.00048312612, 0.00015844028, -599399.56, -55810.67, 0.0, 10.003086, 9.914698 
5.1851946e+3, 2.5444663e+2, -500671.97, -568202.94, 15.02789, 0.0004823272, -0.000025077772, -500671.97, -54248.34, 0.0, 10.00308, 9.9145975 
5.185194e+3, 2.6435438e+2, -412458.63, -490872.56, 20.950531, 0.00048149683, 0.00021961298, -412458.63, -63130.746, 0.0, 10.003075, 9.900523 
5.1851934e+3, 2.7425542e+2, -313198.0, -391280.2, 13.538284, 0.00048062598, -0.00012778213, -313198.0, -60900.66, 0.0, 10.00307, 9.900943 
5.185192e+3, 2.8414828e+2, -226708.39, -317936.2, 16.812641, 0.00047993677, 0.00030240553, -226708.38, -71361.164, 0.0, 10.003064, 9.884043 
5.1851916e+3, 2.9403338e+2, -127023.64, -217634.38, 9.8503475, 0.00047949245, -0.00018086139, -127023.64, -68550.37, 0.0, 10.003059, 9.884825 
5.1851916e+3, 3.0394638e+2, -37391.91, -84792.336, 9.900949, 0.00047858612, 0.00024215919, -37391.906, -37391.906, 0.0, 10.003055, 9.940673 
5.185191e+3, 3.138889e+2, -36329.37, -82574.0, 1.8815053, 0.0004770001, 0.000006638163, -36329.37, -36329.37, 0.0, 10.00305, 9.942173 
5.195208e+3, 1.2503992e+2, -1716027.0, -1723777.8, 3.808122, 0.00050046475, 0.00015600031, -1716027.0, -1417.3698, 0.0, 10.003173, 9.992901 
5.195207e+3, 1.3503268e+2, -1618678.0, -1627014.3, -2.0647357, 0.00049838173, -0.000022496411, -1618678.0, -1997.353, 0.0, 10.003164, 9.992117 
5.195206e+3, 1.450189e+2, -1530577.6, -1547702.5, 7.600326, 0.0004970604, 0.00023960033, -1530577.6, -11762.018, 0.0, 10.003157, 9.980466 
5.195205e+3, 1.5499935e+2, -1432879.5, -1450401.8, 1.1868231, 0.0004964877, 0.00005135053, -1432879.5, -11872.201, 0.0, 10.003149, 9.979934 
5.195204e+3, 1.6497314e+2, -1344914.0, -1371671.0, 12.275244, 0.00049567677, 0.00013348645, -1344914.0, -21649.951, 0.0, 10.003141, 9.967777 
5.1952034e+3, 1.7494097e+2, -1246984.0, -1274051.5, 4.824484, 0.0004946278, 0.000029094554, -1246984.0, -21404.713, 0.0, 10.003134, 9.967363 
5.195203e+3, 1.8490216e+2, -1158921.6, -1195474.8, 16.520393, 0.0004936972, 0.00017324279, -1158921.6, -30962.049, 0.0, 10.003126, 9.954929 
5.1952016e+3, 1.9485712e+2, -1060799.1, -1097609.5, 9.00629, 0.0004928871, 0.000040420153, -1060799.1, -30398.164, 0.0, 10.003119, 9.954586 
5.195201e+3, 2.0480542e+2, -972654.94, -1019228.2, 19.1743, 0.00049202796, 0.00016128964, -972654.94, -39747.32, 0.0, 10.003113, 9.941828 
5.1952004e+3, 2.1474728e+2, -874394.1, -921224.44, 11.684027, 0.0004911161, -0.000033978264, -874394.1, -38916.805, 0.0, 10.003106, 9.941486 
5.1952e+3, 2.2468245e+2, -786127.5, -842976.7, 20.33104, 0.0004902512, 0.00021189905, -786127.5, -48014.86, 0.0, 10.003099, 9.928447 
5.1951987e+3, 2.3461096e+2, -687719.56, -744819.2, 12.86976, 0.0004894378, -0.0000012903032, -687719.56, -46906.375, 0.0, 10.003093, 9.928116 
5.195198e+3, 2.4453253e+2, -599414.9, -666889.7, 20.161285, 0.00048866816, 0.0001593382, -599414.9, -55832.992, 0.0, 10.003087, 9.914677 
5.1951975e+3, 2.5444734e+2, -500687.1, -568234.7, 12.768761, 0.00048794935, -0.00002429892, -500687.1, -54270.25, 0.0, 10.003081, 9.914577 
5.195197e+3, 2.6435503e+2, -412473.88, -490904.9, 18.867138, 0.00048716838, 0.00022036122, -412473.88, -63152.61, 0.0, 10.003076, 9.900501 
5.195196e+3, 2.7425608e+2, -313213.06, -391312.34, 11.465485, 0.00048630813, -0.00012695261, -313213.06, -60922.117, 0.0, 10.00307, 9.900921 
5.1951957e+3, 2.8414893e+2, -226722.53, -317966.7, 14.868804, 0.000485618, 0.00030322027, -226722.53, -71381.51, 0.0, 10.003065, 9.884022 
5.195195e+3, 2.94034e+2, -127037.516, -217664.55, 7.9171615, 0.00048515722, -0.00018019257, -127037.516, -68570.23, 0.0, 10.00306, 9.884805 
5.1951945e+3, 3.03947e+2, -37407.902, -84827.05, 8.165169, 0.00048429225, 0.00024278389, -37407.902, -37407.902, 0.0, 10.003056, 9.94065 
5.195194e+3, 3.138895e+2, -36345.62, -82609.26, 0.16763818, 0.00048283293, 0.0000073709575, -36345.62, -36345.62, 0.0, 10.003051, 9.942149 
5.205211e+3, 1.2504089e+2, -1715909.8, -1723733.3, 7.002726, 0.0005055703, 0.00015701164, -1715909.8, -1309.5138, 0.0, 10.003254, 9.992885 
5.20521e+3, 1.3503362e+2, -1618559.6, -1626969.4, 1.0704908, 0.0005035895, -0.000021492016, -1618559.6, -1888.2506, 0.0, 10.003246, 9.992102 
5.205209e+3, 1.4501981e+2, -1530459.4, -1547659.6, 10.803155, 0.0005023306, 0.0002405796, -1530459.4, -11652.8545, 0.0, 10.00324, 9.980449 
5.2052087e+3, 1.5500025e+2, -1432760.4, -1450358.9, 4.2004824, 0.0005017806, 0.000052286443, -1432760.4, -11762.044, 0.0, 10.003232, 9.979917 
5.2052075e+3, 1.6497403e+2, -1344796.4, -1371632.3, 15.2597275, 0.0005010217, 0.00013442016, -1344796.4, -21541.084, 0.0, 10.003225, 9.967757 
5.205206e+3, 1.7494184e+2, -1246866.0, -1274012.9, 7.633091, 0.0005000541, 0.00003006746, -1246866.0, -21295.195, 0.0, 10.003219, 9.967343 
5.2052057e+3, 1.8490301e+2, -1158803.3, -1195436.6, 19.294403, 0.0004991561, 0.00017418017, -1158803.3, -30851.973, 0.0, 10.003212, 9.954909 
5.205205e+3, 1.9485795e+2, -1060680.1, -1097571.4, 11.591252, 0.0004983284, 0.000041245035, -1060680.1, -30287.297, 0.0, 10.003206, 9.954566 
5.205204e+3, 2.0480622e+2, -972535.75, -1019190.56, 21.685825, 0.000497495, 0.00016208197, -972535.7, -39636.0, 0.0, 10.0032, 9.941807 
5.205204e+3, 2.1474808e+2, -874275.0, -921187.1, 13.998572, 0.0004966551, -0.000033133183, -874274.94, -38805.336, 0.0, 10.003194, 9.941465 
5.2052027e+3, 2.2468323e+2, -786008.25, -842939.94, 22.606041, 0.0004958312, 0.000212745, -786008.25, -47903.113, 0.0, 10.003187, 9.928426 
5.205202e+3, 2.346117e+2, -687600.1, -744782.6, 14.981758, 0.0004950242, -0.00000050144206, -687600.1, -46794.203, 0.0, 10.003181, 9.928095 
5.205201e+3, 2.4453326e+2, -599295.2, -666853.56, 22.248089, 0.0004942666, 0.00016009786, -599295.2, -55720.418, 0.0, 10.003176, 9.914656 
5.205201e+3, 2.5444803e+2, -500567.34, -568198.94, 14.678292, 0.0004935666, -0.000023535616, -500567.34, -54157.375, 0.0, 10.003171, 9.914556 
5.2052e+3, 2.6435572e+2, -412354.13, -490869.84, 20.790705, 0.00049282156, 0.00022110781, -412354.13, -63039.5, 0.0, 10.003165, 9.90048 
5.205199e+3, 2.7425674e+2, -313093.25, -391277.63, 13.240787, 0.0004920189, -0.00012624831, -313093.25, -60808.746, 0.0, 10.00316, 9.9009 
5.2051985e+3, 2.8414956e+2, -226601.44, -317930.44, 16.682447, 0.0004913546, 0.00030389728, -226601.44, -71266.63, 0.0, 10.003156, 9.884002 
5.2051985e+3, 2.940346e+2, -126915.88, -217628.28, 9.591817, 0.0004908766, -0.00017952287, -126915.88, -68454.63, 0.0, 10.003152, 9.884784 
5.2051973e+3, 3.0394757e+2, -37288.85, -84796.375, 9.831407, 0.0004900577, 0.0002434289, -37288.85, -37288.85, 0.0, 10.003148, 9.940625 
5.205197e+3, 3.1389007e+2, -36225.727, -82578.63, 1.6725621, 0.0004887381, 0.000007966662, -36225.727, -36225.727, 0.0, 10.003144, 9.942124 
5.2152145e+3, 1.2504184e+2, -1715922.9, -1723758.9, 4.193451, 0.00051067927, 0.00015779889, -1715922.9, -1332.0763, 0.0, 10.003254, 9.992868 
5.2152133e+3, 1.3503456e+2, -1618572.6, -1626994.9, -1.7402614, 0.0005088664, -0.000020365933, -1618572.6, -1910.482, 0.0, 10.003247, 9.992085 
5.215212e+3, 1.4502075e+2, -1530473.6, -1547687.5, 8.14342, 0.0005076707, 0.00024168202, -1530473.6, -11676.156, 0.0, 10.00324, 9.980431 
5.2152115e+3, 1.5500116e+2, -1432774.4, -1450386.5, 1.5419276, 0.00050708035, 0.000053006657, -1432774.4, -11784.977, 0.0, 10.003233, 9.979899 
5.215211e+3, 1.6497493e+2, -1344812.5, -1371664.3, 12.698516, 0.0005063668, 0.00013512584, -1344812.5, -21565.957, 0.0, 10.003226, 9.967737 
5.21521e+3, 1.7494272e+2, -1246881.9, -1274044.6, 5.068631, 0.0005055307, 0.000031127907, -1246881.9, -21319.66, 0.0, 10.00322, 9.967323 
5.215209e+3, 1.8490386e+2, -1158819.4, -1195469.0, 16.882399, 0.0005046766, 0.0001752234, -1158819.4, -30876.45, 0.0, 10.003213, 9.954888 
5.215208e+3, 1.9485877e+2, -1060696.1, -1097603.6, 9.179821, 0.0005038026, 0.00004188782, -1060696.1, -30311.365, 0.0, 10.003206, 9.954545 
5.2152073e+3, 2.0480704e+2, -972551.7, -1019223.1, 19.308563, 0.00050299574, 0.00016265853, -972551.7, -39659.938, 0.0, 10.003201, 9.941786 
5.215207e+3, 2.1474886e+2, -874290.75, -921219.44, 11.620321, 0.0005022601, -0.000032266063, -874290.75, -38828.863, 0.0, 10.003194, 9.941444 
5.215206e+3, 2.2468399e+2, -786024.06, -842972.5, 20.393082, 0.00050149404, 0.0002136618, -786024.06, -47926.45, 0.0, 10.003188, 9.928405 
5.215205e+3, 2.3461245e+2, -687615.75, -744815.06, 12.772775, 0.0005006932, 0.00000019585833, -687615.75, -46817.13, 0.0, 10.003182, 9.928074 
5.2152044e+3, 2.4453399e+2, -599310.9, -666886.25, 20.165297, 0.0004999216, 0.0001607299, -599310.9, -55743.176, 0.0, 10.003177, 9.914634 
5.215204e+3, 2.5444874e+2, -500582.78, -568231.44, 12.600598, 0.00049918366, -0.000022786551, -500582.78, -54179.715, 0.0, 10.003171, 9.914535 
5.215203e+3, 2.6435637e+2, -412369.66, -490902.78, 18.887384, 0.0004984622, 0.00022185293, -412369.66, -63061.74, 0.0, 10.003166, 9.900458 
5.2152026e+3, 2.7425742e+2, -313108.56, -391310.38, 11.348282, 0.0004977604, -0.00012565973, -313108.56, -60830.566, 0.0, 10.003161, 9.900878 
5.2152014e+3, 2.841502e+2, -226615.84, -317961.53, 15.021996, 0.0004971469, 0.000304447, -226615.84, -71287.32, 0.0, 10.003157, 9.883981 
5.2152014e+3, 2.9403526e+2, -126930.016, -217659.05, 7.950479, 0.0004966511, -0.00017885223, -126930.016, -68474.836, 0.0, 10.003153, 9.884764 
5.215201e+3, 3.039482e+2, -37305.152, -84831.766, 8.382372, 0.0004958827, 0.00024409282, -37305.15, -37305.15, 0.0, 10.003148, 9.940601 
5.2152e+3, 3.1389064e+2, -36242.28, -82614.58, 0.24597642, 0.00049471494, 0.000008435501, -36242.28, -36242.28, 0.0, 10.003145, 9.9421 
5.225218e+3, 1.2504281e+2, -1715803.4, -1723713.6, 7.0649066, 0.00051577605, 0.00015862483, -1715803.4, -1222.0526, 0.0, 10.003336, 9.992852 
5.225217e+3, 1.3503553e+2, -1618452.1, -1626949.4, 0.9030914, 0.00051413674, -0.00001946601, -1618452.1, -1799.2777, 0.0, 10.00333, 9.992069 
5.2252156e+3, 1.4502169e+2, -1530353.0, -1547643.9, 10.801467, 0.00051304593, 0.00024257331, -1530353.0, -11564.765, 0.0, 10.003324, 9.980413 
5.225215e+3, 1.5500209e+2, -1432652.8, -1450342.6, 4.116898, 0.0005124922, 0.00005380733, -1432652.8, -11672.354, 0.0, 10.003318, 9.979881 
5.225214e+3, 1.6497584e+2, -1344692.4, -1371624.8, 15.1708, 0.0005118022, 0.00013589927, -1344692.3, -21454.547, 0.0, 10.003312, 9.967716 
5.225213e+3, 1.7494358e+2, -1246760.9, -1274005.1, 7.262349, 0.00051097665, 0.00003193791, -1246760.9, -21207.258, 0.0, 10.003306, 9.967302 
5.2252126e+3, 1.8490472e+2, -1158698.0, -1195429.8, 18.938076, 0.0005101759, 0.00017602592, -1158698.0, -30763.44, 0.0, 10.003301, 9.954867 
5.2252114e+3, 1.9485962e+2, -1060574.6, -1097564.6, 11.089786, 0.0005093991, 0.000042637428, -1060574.6, -30198.096, 0.0, 10.003295, 9.954524 
5.22521e+3, 2.0480786e+2, -972430.1, -1019184.8, 21.133791, 0.000508633, 0.00016336644, -972430.1, -39546.35, 0.0, 10.003289, 9.941765 
5.22521e+3, 2.1474966e+2, -874168.8, -921181.3, 13.253293, 0.00050787785, -0.000031587817, -874168.8, -38714.723, 0.0, 10.0032835, 9.941423 
5.225209e+3, 2.2468477e+2, -785901.94, -842934.75, 21.96259, 0.00050713, 0.00021433087, -785901.94, -47811.926, 0.0, 10.003278, 9.928384 
5.2252084e+3, 2.3461321e+2, -687493.75, -744777.75, 14.181018, 0.0005063893, 0.0000008785768, -687493.75, -46702.547, 0.0, 10.003273, 9.928052 
5.225208e+3, 2.4453472e+2, -599188.9, -666849.5, 21.594173, 0.0005056429, 0.00016139598, -599188.9, -55628.344, 0.0, 10.003267, 9.914613 
5.225207e+3, 2.5444946e+2, -500460.6, -568194.9, 13.885498, 0.00050488894, -0.0000221729, -500460.6, -54064.5, 0.0, 10.0032625, 9.914513 
5.2252066e+3, 2.643571e+2, -412247.34, -490866.9, 20.212502, 0.00050416484, 0.00022243368, -412247.34, -62946.16, 0.0, 10.003259, 9.900436 
5.2252054e+3, 2.7425808e+2, -312986.1, -391274.78, 12.539719, 0.0005034773, -0.00012508714, -312986.1, -60714.594, 0.0, 10.003254, 9.900856 
5.225205e+3, 2.8415084e+2, -226492.19, -317924.5, 16.284012, 0.00050290924, 0.0003050318, -226492.19, -71169.98, 0.0, 10.00325, 9.88396 
5.225205e+3, 2.9403585e+2, -126806.234, -217622.22, 9.050079, 0.00050250115, -0.00017822799, -126806.234, -68357.164, 0.0, 10.003246, 9.884743 
5.2252036e+3, 3.0394876e+2, -37184.047, -84800.555, 9.569247, 0.0005018119, 0.0002446837, -37184.043, -37184.043, 0.0, 10.0032425, 9.9405775 
5.225203e+3, 3.138912e+2, -36120.023, -82583.26, 1.335934, 0.00050071056, 0.000008886681, -36120.023, -36120.023, 0.0, 10.003241, 9.942075 
5.2352214e+3, 1.250438e+2, -1715817.0, -1723740.1, 4.626669, 0.00052086543, 0.00015948665, -1715817.0, -1245.2701, 0.0, 10.003337, 9.992836 
5.23522e+3, 1.3503648e+2, -1618465.5, -1626975.8, -1.5306824, 0.0005194051, -0.000018773993, -1618465.5, -1822.1287, 0.0, 10.00333, 9.992052 
5.235219e+3, 1.4502265e+2, -1530367.4, -1547672.1, 8.533081, 0.00051845744, 0.00024327052, -1530367.4, -11588.331, 0.0, 10.0033245, 9.980395 
5.2352184e+3, 1.5500301e+2, -1432666.9, -1450370.8, 1.8437333, 0.0005180113, 0.000054682325, -1432666.9, -11695.551, 0.0, 10.003319, 9.979864 
5.235217e+3, 1.6497673e+2, -1344709.0, -1371657.9, 12.933344, 0.00051732495, 0.00013673521, -1344709.0, -21480.121, 0.0, 10.003313, 9.967695 
5.235216e+3, 1.7494448e+2, -1246777.4, -1274038.0, 5.0271487, 0.0005163989, 0.00003251735, -1246777.4, -21232.406, 0.0, 10.003307, 9.967281 
5.2352154e+3, 1.8490557e+2, -1158714.4, -1195462.8, 16.684084, 0.0005156601, 0.00017660686, -1158714.4, -30788.291, 0.0, 10.003302, 9.954846 
5.235215e+3, 1.9486046e+2, -1060590.8, -1097597.4, 8.831564, 0.0005151124, 0.000043485506, -1060590.8, -30222.53, 0.0, 10.003296, 9.954503 
5.2352136e+3, 2.0480868e+2, -972446.44, -1019218.1, 18.983797, 0.00051440013, 0.00016419534, -972446.44, -39570.75, 0.0, 10.00329, 9.941743 
5.2352136e+3, 2.1475045e+2, -874184.94, -921214.44, 11.106006, 0.0005135118, -0.000031083626, -874184.94, -38738.71, 0.0, 10.003284, 9.941402 
5.2352124e+3, 2.2468555e+2, -785918.06, -842968.0, 19.867216, 0.00051274564, 0.00021477166, -785918.06, -47835.652, 0.0, 10.003279, 9.928362 
5.235211e+3, 2.3461397e+2, -687509.7, -744810.75, 12.086542, 0.00051211467, 0.0000015478532, -687509.7, -46725.85, 0.0, 10.003273, 9.928031 
5.2352107e+3, 2.4453545e+2, -599204.75, -666882.75, 19.709618, 0.00051142974, 0.00016209332, -599204.75, -55651.453, 0.0, 10.003268, 9.914591 
5.2352107e+3, 2.5445014e+2, -500476.3, -568228.0, 12.0109, 0.00051068014, -0.000021684244, -500476.28, -54087.188, 0.0, 10.003263, 9.914491 
5.2352095e+3, 2.6435778e+2, -412263.13, -490900.4, 18.522865, 0.00050992926, 0.00022286276, -412263.13, -62968.73, 0.0, 10.003259, 9.900414 
5.235209e+3, 2.7425873e+2, -313001.66, -391308.1, 10.86088, 0.0005091761, -0.0001245293, -313001.66, -60736.74, 0.0, 10.003255, 9.900834 
5.235208e+3, 2.841515e+2, -226506.9, -317956.28, 14.815686, 0.0005086487, 0.00030564904, -226506.9, -71191.04, 0.0, 10.00325, 9.883939 
5.2352077e+3, 2.940365e+2, -126820.67, -217653.67, 7.60081, 0.00050842547, -0.00017764673, -126820.67, -68377.74, 0.0, 10.003247, 9.884722 
5.235207e+3, 3.039494e+2, -37200.55, -84836.43, 8.472222, 0.00050784193, 0.00024520696, -37200.55, -37200.55, 0.0, 10.003243, 9.940553 
5.2352065e+3, 3.138918e+2, -36136.78, -82619.67, 0.27843115, 0.0005067285, 0.0000093215185, -36136.78, -36136.78, 0.0, 10.003241, 9.94205 
5.245225e+3, 1.2504478e+2, -1715695.6, -1723694.1, 6.8804607, 0.0005260209, 0.00016021938, -1715695.6, -1133.5253, 0.0, 10.003421, 9.99282 
5.2452236e+3, 1.3503745e+2, -1618342.3, -1626929.0, 0.74650806, 0.0005246905, -0.000018085948, -1618342.3, -1708.3496, 0.0, 10.003416, 9.992036 
5.2452224e+3, 1.4502358e+2, -1530244.0, -1547627.8, 10.71554, 0.0005238625, 0.00024397358, -1530244.0, -11474.252, 0.0, 10.003411, 9.980377 
5.245222e+3, 1.5500394e+2, -1432542.5, -1450326.0, 3.668653, 0.00052352546, 0.000055459015, -1432542.5, -11580.271, 0.0, 10.003406, 9.979846 
5.2452207e+3, 1.6497764e+2, -1344585.9, -1371617.4, 14.566124, 0.0005229198, 0.00013746195, -1344585.9, -21365.943, 0.0, 10.003401, 9.967674 
5.2452195e+3, 1.7494537e+2, -1246653.6, -1273997.5, 6.6248946, 0.0005220461, 0.00003307041, -1246653.6, -21117.34, 0.0, 10.003396, 9.96726 
5.245219e+3, 1.8490645e+2, -1158590.3, -1195422.9, 18.071447, 0.0005213096, 0.00017711433, -1158590.3, -30672.662, 0.0, 10.003391, 9.954824 
5.245218e+3, 1.9486131e+2, -1060466.3, -1097557.6, 9.909165, 0.0005207129, 0.000044079152, -1060466.3, -30106.281, 0.0, 10.0033865, 9.954482 
5.245217e+3, 2.0480952e+2, -972321.7, -1019178.6, 19.894274, 0.00052002247, 0.00016482163, -972321.7, -39454.086, 0.0, 10.003381, 9.941722 
5.2452165e+3, 2.1475127e+2, -874060.44, -921175.44, 11.92949, 0.0005192315, -0.000030481837, -874060.44, -38622.094, 0.0, 10.003376, 9.9413805 
5.245216e+3, 2.2468632e+2, -785793.6, -842929.56, 20.680124, 0.0005185029, 0.00021533816, -785793.6, -47718.88, 0.0, 10.00337, 9.92834 
5.2452147e+3, 2.3461473e+2, -687385.1, -744772.6, 12.748612, 0.00051784323, 0.0000020671396, -687385.1, -46608.75, 0.0, 10.0033655, 9.928009 
5.245214e+3, 2.4453618e+2, -599080.1, -666845.06, 20.419289, 0.0005171754, 0.0001625725, -599080.1, -55534.066, 0.0, 10.003361, 9.914569 
5.2452135e+3, 2.5445086e+2, -500351.9, -568190.75, 12.627452, 0.0005164971, -0.000021236849, -500351.9, -53969.805, 0.0, 10.003357, 9.914469 
5.245213e+3, 2.6435846e+2, -412138.88, -490864.03, 19.246983, 0.00051579607, 0.00022331845, -412138.88, -62851.273, 0.0, 10.003352, 9.900392 
5.2452123e+3, 2.7425942e+2, -312877.25, -391272.03, 11.422493, 0.0005150657, -0.00012401471, -312877.25, -60618.92, 0.0, 10.003348, 9.900811 
5.245212e+3, 2.8415215e+2, -226381.14, -317918.63, 15.4893675, 0.00051453395, 0.00030617064, -226381.14, -71071.66, 0.0, 10.0033455, 9.883918 
5.245211e+3, 2.940371e+2, -126694.42, -217616.03, 8.201063, 0.00051426975, -0.00017718904, -126694.42, -68257.66, 0.0, 10.003343, 9.8847 
5.2452105e+3, 3.0394998e+2, -37077.0, -84804.49, 9.2584305, 0.00051373563, 0.00024562326, -37076.996, -37076.996, 0.0, 10.00334, 9.940528 
5.24521e+3, 3.1389236e+2, -36012.5, -82587.83, 0.91960055, 0.00051280484, 0.000009731346, -36012.5, -36012.5, 0.0, 10.003338, 9.942025 
5.255228e+3, 1.2504576e+2, -1715709.1, -1723720.6, 5.0191746, 0.00053124037, 0.00016083336, -1715709.1, -1156.7466, 0.0, 10.003421, 9.992803 
5.255227e+3, 1.3503842e+2, -1618355.6, -1626955.3, -1.1214024, 0.00052999577, -0.000017401155, -1618355.6, -1731.2163, 0.0, 10.003416, 9.99202 
5.255226e+3, 1.4502455e+2, -1530259.1, -1547657.5, 8.817961, 0.0005292661, 0.00024468233, -1530259.1, -11498.7, 0.0, 10.003411, 9.980358 
5.2552253e+3, 1.5500489e+2, -1432557.4, -1450355.6, 1.7767721, 0.0005290395, 0.00005614496, -1432557.4, -11604.319, 0.0, 10.003407, 9.979827 
5.255224e+3, 1.6497856e+2, -1344602.6, -1371650.6, 12.632266, 0.0005285852, 0.00013808787, -1344602.6, -21391.62, 0.0, 10.003402, 9.967653 
5.255223e+3, 1.7494626e+2, -1246670.0, -1274030.5, 4.685746, 0.0005279041, 0.000033599386, -1246670.0, -21142.596, 0.0, 10.003397, 9.967239 
5.2552223e+3, 1.8490733e+2, -1158607.3, -1195457.1, 16.05441, 0.00052711536, 0.00017755451, -1158607.3, -30698.225, 0.0, 10.003392, 9.9548025 
5.255222e+3, 1.9486217e+2, -1060483.0, -1097591.6, 7.8959627, 0.0005262146, 0.00004443869, -1060483.0, -30131.418, 0.0, 10.0033865, 9.95446 
5.2552205e+3, 2.0481034e+2, -972338.2, -1019212.3, 17.833551, 0.0005255166, 0.00016526128, -972338.2, -39478.707, 0.0, 10.003382, 9.9417 
5.25522e+3, 2.1475208e+2, -874076.75, -921208.9, 9.865224, 0.00052503427, -0.000029790519, -874076.75, -38646.29, 0.0, 10.003376, 9.941359 
5.2552193e+3, 2.2468711e+2, -785810.0, -842963.4, 18.762333, 0.0005243949, 0.00021602005, -785810.0, -47742.953, 0.0, 10.003371, 9.928318 
5.255218e+3, 2.3461549e+2, -687401.25, -744806.25, 10.838254, 0.0005235793, 0.000002448202, -687401.25, -46632.402, 0.0, 10.003366, 9.927987 
5.2552176e+3, 2.4453692e+2, -599096.2, -666878.7, 18.644453, 0.00052288803, 0.00016285079, -599096.2, -55557.406, 0.0, 10.003362, 9.914547 
5.255217e+3, 2.544516e+2, -500367.75, -568224.2, 10.857951, 0.0005223424, -0.000020827556, -500367.75, -53992.71, 0.0, 10.003357, 9.914447 
5.2552164e+3, 2.6435918e+2, -412154.97, -490898.2, 17.760008, 0.00052176166, 0.00022379844, -412154.97, -62874.203, 0.0, 10.003353, 9.90037 
5.255216e+3, 2.742601e+2, -312893.16, -391306.03, 9.954633, 0.0005211355, -0.00012354029, -312893.16, -60641.43, 0.0, 10.003349, 9.900788 
5.2552146e+3, 2.841528e+2, -226396.02, -317950.78, 14.304011, 0.00052055815, 0.00030660385, -226396.02, -71092.93, 0.0, 10.0033455, 9.883896 
5.2552146e+3, 2.9403776e+2, -126709.01, -217647.83, 7.0400467, 0.0005200453, -0.00017684535, -126709.01, -68278.43, 0.0, 10.003343, 9.884679 
5.255214e+3, 3.0395058e+2, -37093.805, -84841.03, 8.421136, 0.0005195088, 0.00024594084, -37093.805, -37093.805, 0.0, 10.003341, 9.940503 
5.2552134e+3, 3.1389293e+2, -36029.566, -82624.94, 0.119991265, 0.0005189401, 0.00001011782, -36029.566, -36029.566, 0.0, 10.003339, 9.941999 
5.265232e+3, 1.2504676e+2, -1715585.3, -1723674.0, 6.7996893, 0.00053633587, 0.00016114362, -1715585.3, -1042.57, 0.0, 10.003507, 9.992785 
5.2652305e+3, 1.350394e+2, -1618230.0, -1626908.0, 0.21987726, 0.0005354449, -0.000016610504, -1618230.0, -1615.1361, 0.0, 10.003503, 9.9920025 
5.2652293e+3, 1.4502549e+2, -1530132.9, -1547611.9, 9.938411, 0.00053487724, 0.00024546246, -1530132.9, -11381.914, 0.0, 10.0035, 9.98034 
5.265229e+3, 1.5500581e+2, -1432429.8, -1450309.6, 2.9878507, 0.0005346234, 0.000056430497, -1432429.8, -11485.85, 0.0, 10.003496, 9.979809 
5.2652276e+3, 1.6497947e+2, -1344476.3, -1371609.1, 13.54436, 0.0005341935, 0.00013829849, -1344476.3, -21274.29, 0.0, 10.003492, 9.967631 
5.2652264e+3, 1.7494716e+2, -1246543.3, -1273989.0, 5.225186, 0.0005335883, 0.000034155506, -1246543.3, -21024.547, 0.0, 10.003489, 9.967217 
5.265226e+3, 1.849082e+2, -1158480.1, -1195416.0, 16.303696, 0.00053286395, 0.00017815597, -1158480.1, -30579.672, 0.0, 10.003484, 9.954782 
5.265225e+3, 1.9486302e+2, -1060355.9, -1097550.9, 8.204594, 0.00053201546, 0.000044777, -1060355.9, -30012.627, 0.0, 10.003479, 9.954438 
5.265224e+3, 2.0481117e+2, -972211.06, -1019172.1, 17.993744, 0.0005313133, 0.00016553703, -972211.06, -39359.74, 0.0, 10.003474, 9.941678 
5.2652234e+3, 2.1475288e+2, -873949.75, -921169.06, 9.773907, 0.0005307666, -0.000029363679, -873949.75, -38527.223, 0.0, 10.003469, 9.941337 
5.265223e+3, 2.246879e+2, -785682.94, -842923.8, 18.673546, 0.0005301296, 0.00021650549, -785682.94, -47623.62, 0.0, 10.003465, 9.928296 
5.2652216e+3, 2.3461625e+2, -687274.5, -744767.1, 10.764961, 0.0005293907, 0.00000288903, -687274.5, -46513.152, 0.0, 10.00346, 9.927965 
5.265221e+3, 2.4453768e+2, -598969.56, -666840.4, 18.699144, 0.0005287406, 0.00016325718, -598969.56, -55438.06, 0.0, 10.003456, 9.914524 
5.2652204e+3, 2.5445232e+2, -500241.0, -568186.1, 10.763257, 0.0005281945, -0.000020443513, -500241.0, -53873.035, 0.0, 10.003452, 9.914425 
5.26522e+3, 2.6435986e+2, -412028.28, -490860.97, 17.800472, 0.00052764127, 0.00022415408, -412028.28, -62754.375, 0.0, 10.0034485, 9.900347 
5.265219e+3, 2.7426076e+2, -312766.63, -391269.28, 9.930272, 0.00052707817, -0.0001232206, -312766.6, -60521.51, 0.0, 10.003445, 9.900766 
5.265218e+3, 2.8415346e+2, -226268.34, -317912.53, 14.5089, 0.0005265404, 0.0003069265, -226268.34, -70971.664, 0.0, 10.003442, 9.883874 
5.265218e+3, 2.940384e+2, -126581.03, -217609.69, 7.1348157, 0.00052603503, -0.00017646744, -126581.03, -68156.66, 0.0, 10.00344, 9.884657 
5.2652174e+3, 3.039512e+2, -36968.523, -84808.664, 8.756972, 0.00052551104, 0.00024630554, -36968.523, -36968.523, 0.0, 10.003438, 9.940477 
5.265216e+3, 3.1389356e+2, -35903.15, -82592.484, 0.38562828, 0.0005249626, 0.000010369296, -35903.15, -35903.15, 0.0, 10.003437, 9.941974 
5.2752346e+3, 1.2504776e+2, -1715599.8, -1723702.3, 5.4637566, 0.00054132234, 0.00016117688, -1715599.8, -1066.8676, 0.0, 10.003507, 9.992768 
5.275234e+3, 1.3504037e+2, -1618244.3, -1626936.1, -1.1098512, 0.0005410299, -0.000015724198, -1618244.3, -1639.0518, 0.0, 10.003504, 9.991984 
5.275233e+3, 1.4502646e+2, -1530147.8, -1547641.3, 8.533638, 0.0005406824, 0.00024630642, -1530147.8, -11406.166, 0.0, 10.0035, 9.980322 
5.275232e+3, 1.5500677e+2, -1432444.4, -1450338.8, 1.5808285, 0.00054027577, 0.000056349643, -1432444.4, -11509.697, 0.0, 10.003497, 9.97979 
5.275231e+3, 1.6498041e+2, -1344493.8, -1371643.9, 11.8609915, 0.00053975394, 0.00013812933, -1344493.8, -21300.799, 0.0, 10.003493, 9.967609 
5.27523e+3, 1.7494807e+2, -1246560.5, -1274023.6, 3.54677, 0.000539118, 0.000034735593, -1246560.5, -21050.611, 0.0, 10.003489, 9.9671955 
5.275229e+3, 1.8490909e+2, -1158496.9, -1195449.9, 14.437233, 0.0005385649, 0.000178904, -1158496.9, -30605.092, 0.0, 10.003485, 9.95476 
5.2752286e+3, 1.9486387e+2, -1060372.5, -1097584.6, 6.336073, 0.0005380952, 0.000045095738, -1060372.5, -30037.646, 0.0, 10.00348, 9.954416 
5.2752274e+3, 2.0481199e+2, -972228.06, -1019206.75, 16.051243, 0.0005373918, 0.0001656626, -972228.06, -39384.914, 0.0, 10.003475, 9.941655 
5.275227e+3, 2.1475369e+2, -873966.5, -921203.5, 7.839028, 0.00053643924, -0.000029179957, -873966.5, -38551.97, 0.0, 10.00347, 9.941315 
5.275226e+3, 2.246887e+2, -785699.25, -842957.56, 16.846594, 0.00053572503, 0.00021681, -785699.25, -47647.688, 0.0, 10.003466, 9.928274 
5.275225e+3, 2.3461704e+2, -687290.6, -744800.7, 8.937891, 0.0005352758, 0.0000033843178, -687290.6, -46536.78, 0.0, 10.003461, 9.927943 
5.2752244e+3, 2.4453843e+2, -598985.9, -666874.6, 17.112139, 0.00053472625, 0.00016378082, -598985.9, -55461.71, 0.0, 10.003456, 9.914502 
5.275224e+3, 2.5445303e+2, -500257.13, -568220.2, 9.190255, 0.0005340575, -0.000020083153, -500257.13, -53896.266, 0.0, 10.003452, 9.914402 
5.275223e+3, 2.6436058e+2, -412044.5, -490895.47, 16.459759, 0.000533447, 0.00022439503, -412044.5, -62777.473, 0.0, 10.0034485, 9.900324 
5.2752227e+3, 2.7426144e+2, -312782.63, -391303.6, 8.604741, 0.00053290906, -0.00012304337, -312782.63, -60544.17, 0.0, 10.003446, 9.9007435 
5.2752215e+3, 2.8415412e+2, -226283.45, -317945.2, 13.558493, 0.000532489, 0.00030714727, -226283.44, -70993.195, 0.0, 10.003443, 9.883852 
5.2752215e+3, 2.9403904e+2, -126595.85, -217642.0, 6.2164836, 0.00053222635, -0.00017605851, -126595.85, -68177.69, 0.0, 10.003441, 9.884635 
5.275221e+3, 3.039518e+2, -36985.523, -84845.63, 8.2746315, 0.00053172867, 0.000246713, -36985.523, -36985.523, 0.0, 10.003439, 9.940453 
5.27522e+3, 3.1389412e+2, -35920.414, -82630.02, -0.04510947, 0.00053088693, 0.000010496339, -35920.414, -35920.414, 0.0, 10.003438, 9.941948 
5.285238e+3, 1.2504876e+2, -1715473.6, -1723654.9, 5.866545, 0.00054680253, 0.00016163244, -1715473.6, -950.473, 0.0, 10.003593, 9.992751 
5.2852374e+3, 1.3504136e+2, -1618116.1, -1626888.1, -0.6062014, 0.00054656796, -0.00001563611, -1618116.1, -1520.5449, 0.0, 10.0035925, 9.991967 
5.285236e+3, 1.4502741e+2, -1530018.8, -1547594.4, 8.867773, 0.00054626993, 0.0002463479, -1530018.8, -11286.563, 0.0, 10.003591, 9.980303 
5.2852356e+3, 1.550077e+2, -1432313.5, -1450291.3, 1.6544034, 0.0005459039, 0.000056660196, -1432313.5, -11388.1455, 0.0, 10.003589, 9.979771 
5.2852345e+3, 1.6498132e+2, -1344364.1, -1371601.0, 11.449767, 0.0005454243, 0.00013845097, -1344364.1, -21180.186, 0.0, 10.003586, 9.967587 
5.285234e+3, 1.7494896e+2, -1246429.9, -1273980.6, 3.2006474, 0.00054483215, 0.000034810426, -1246429.9, -20928.918, 0.0, 10.003583, 9.967174 
5.2852327e+3, 1.8490995e+2, -1158366.4, -1195407.1, 13.594196, 0.00054432766, 0.00017900617, -1158366.4, -30483.13, 0.0, 10.003579, 9.954738 
5.285232e+3, 1.9486474e+2, -1060243.1, -1097542.9, 5.3229313, 0.0005439116, 0.00004550671, -1060243.1, -29916.674, 0.0, 10.003573, 9.954394 
5.285231e+3, 2.0481284e+2, -972099.2, -1019165.56, 15.150698, 0.00054325274, 0.0001661068, -972099.1, -39264.188, 0.0, 10.003569, 9.941633 
5.28523e+3, 2.147545e+2, -873837.6, -921162.7, 7.1896234, 0.0005423348, -0.000028995859, -873837.6, -38431.023, 0.0, 10.003565, 9.941293 
5.2852297e+3, 2.2468948e+2, -785570.4, -842917.44, 16.315632, 0.0005416217, 0.0002169365, -785570.4, -47526.566, 0.0, 10.00356, 9.928252 
5.285229e+3, 2.346178e+2, -687161.75, -744760.94, 8.145951, 0.00054113596, 0.0000036789531, -687161.75, -46415.434, 0.0, 10.003556, 9.92792 
5.285228e+3, 2.4453917e+2, -598857.0, -666835.3, 16.402515, 0.0005405836, 0.00016414365, -598857.0, -55340.113, 0.0, 10.003552, 9.914479 
5.2852273e+3, 2.5445378e+2, -500128.4, -568181.4, 8.503861, 0.0005399518, -0.000019770057, -500128.4, -53774.637, 0.0, 10.003549, 9.914379 
5.285227e+3, 2.6436126e+2, -411915.94, -490857.56, 16.014086, 0.0005393708, 0.00022466553, -411915.94, -62655.78, 0.0, 10.003546, 9.900301 
5.285226e+3, 2.7426213e+2, -312653.9, -391266.03, 8.067548, 0.0005388531, -0.00012280612, -312653.9, -60422.1, 0.0, 10.003543, 9.900721 
5.285225e+3, 2.8415477e+2, -226153.63, -317906.28, 13.246193, 0.0005384576, 0.00030736745, -226153.63, -70869.805, 0.0, 10.003541, 9.88383 
5.2852243e+3, 2.9403964e+2, -126466.02, -217603.38, 5.7830753, 0.0005382253, -0.00017583395, -126466.02, -68054.08, 0.0, 10.003539, 9.884613 
5.2852243e+3, 3.0395243e+2, -36858.65, -84812.766, 8.197002, 0.00053779705, 0.0002469408, -36858.65, -36858.65, 0.0, 10.003538, 9.940427 
5.285224e+3, 3.1389472e+2, -35792.805, -82597.24, -0.13252963, 0.0005370825, 0.000010726684, -35792.805, -35792.805, 0.0, 10.003537, 9.941922 
5.295242e+3, 1.2504975e+2, -1715487.8, -1723682.8, 5.1218424, 0.00055273634, 0.00016247071, -1715487.8, -974.4462, 0.0, 10.003594, 9.992733 
5.2952415e+3, 1.3504234e+2, -1618130.1, -1626915.8, -1.3659648, 0.00055206765, -0.000016276017, -1618130.1, -1544.1599, 0.0, 10.0035925, 9.99195 
5.29524e+3, 1.450284e+2, -1530034.0, -1547624.9, 7.992929, 0.0005516637, 0.00024565795, -1530034.0, -11311.374, 0.0, 10.003592, 9.980284 
5.295239e+3, 1.5500866e+2, -1432328.8, -1450321.5, 0.7758759, 0.0005515148, 0.00005732656, -1432328.8, -11412.578, 0.0, 10.00359, 9.979752 
5.2952385e+3, 1.6498226e+2, -1344381.4, -1371635.5, 10.090847, 0.0005511997, 0.00013921864, -1344381.4, -21206.557, 0.0, 10.003587, 9.967566 
5.2952373e+3, 1.7494985e+2, -1246447.0, -1274014.9, 1.8683532, 0.00055071973, 0.00003442358, -1246447.0, -20954.857, 0.0, 10.003584, 9.967152 
5.295236e+3, 1.8491085e+2, -1158383.5, -1195441.8, 11.59173, 0.000550152, 0.00017851862, -1158383.5, -30508.926, 0.0, 10.003579, 9.954716 
5.2952355e+3, 1.9486558e+2, -1060260.0, -1097577.3, 3.3257034, 0.00054949214, 0.000046000725, -1060260.0, -29942.041, 0.0, 10.003574, 9.954372 
5.295235e+3, 2.0481367e+2, -972115.56, -1019199.2, 13.372522, 0.00054891955, 0.00016684062, -972115.56, -39288.813, 0.0, 10.00357, 9.941612 
5.295234e+3, 2.1475533e+2, -873853.8, -921196.06, 5.410364, 0.00054843916, -0.000028811768, -873853.8, -38455.223, 0.0, 10.003565, 9.941271 
5.295233e+3, 2.2469027e+2, -785587.2, -842952.25, 14.649333, 0.0005477985, 0.00021690018, -785587.2, -47551.156, 0.0, 10.003561, 9.928229 
5.2952325e+3, 2.3461856e+2, -687178.4, -744795.56, 6.4903393, 0.0005469783, 0.000003789221, -687178.4, -46439.6, 0.0, 10.003557, 9.927898 
5.2952313e+3, 2.4453992e+2, -598873.3, -666869.5, 14.9460335, 0.00054632884, 0.00016435832, -598873.25, -55363.742, 0.0, 10.003553, 9.914457 
5.295231e+3, 2.544545e+2, -500144.47, -568215.3, 7.0538607, 0.00054587953, -0.000019500814, -500144.47, -53797.82, 0.0, 10.00355, 9.914357 
5.29523e+3, 2.6436198e+2, -411932.34, -490892.44, 14.887887, 0.0005454076, 0.00022496267, -411932.34, -62679.066, 0.0, 10.003547, 9.900278 
5.2952296e+3, 2.7426282e+2, -312670.1, -391300.72, 6.963091, 0.00054490595, -0.00012251444, -312670.1, -60444.96, 0.0, 10.003544, 9.900697 
5.295229e+3, 2.8415543e+2, -226169.0, -317939.53, 12.471834, 0.00054444966, 0.00030758645, -226169.0, -70891.61, 0.0, 10.003541, 9.883808 
5.295228e+3, 2.940403e+2, -126481.11, -217636.28, 5.040229, 0.000544053, -0.00017577899, -126481.11, -68075.375, 0.0, 10.00354, 9.884591 
5.295228e+3, 3.0395302e+2, -36875.754, -84849.99, 7.967911, 0.00054373394, 0.00024700334, -36875.754, -36875.754, 0.0, 10.003538, 9.940401 
5.295227e+3, 3.138953e+2, -35810.164, -82635.0, -0.30501637, 0.00054353167, 0.000011051244, -35810.164, -35810.164, 0.0, 10.003538, 9.941896 
5.3052455e+3, 1.2505075e+2, -1715356.6, -1723633.8, 4.751809, 0.00055838353, 0.00016246214, -1715356.6, -853.10114, 0.0, 10.003685, 9.992715 
5.305245e+3, 1.3504332e+2, -1617998.3, -1626866.8, -2.5187728, 0.0005577127, -0.000016127113, -1617998.3, -1421.8403, 0.0, 10.003684, 9.991931 
5.305244e+3, 1.4502935e+2, -1529902.1, -1547577.4, 6.1802015, 0.00055732945, 0.0002455317, -1529902.1, -11188.862, 0.0, 10.003683, 9.980264 
5.3052425e+3, 1.550096e+2, -1432196.0, -1450274.0, -1.3593919, 0.00055722357, 0.00005649971, -1432196.0, -11289.11, 0.0, 10.003682, 9.9797325 
5.305242e+3, 1.6498317e+2, -1344248.9, -1371589.5, 7.668924, 0.00055696716, 0.00013854748, -1344248.9, -21083.129, 0.0, 10.00368, 9.9675455 
5.305241e+3, 1.7495078e+2, -1246314.6, -1273969.3, 0.3928426, 0.0005565616, 0.00003476392, -1246314.6, -20831.31, 0.0, 10.003677, 9.967132 
5.3052396e+3, 1.8491173e+2, -1158251.9, -1195398.3, 10.070724, 0.0005559851, 0.00017915675, -1158251.9, -30385.963, 0.0, 10.0036745, 9.954694 
5.305239e+3, 1.9486645e+2, -1060128.4, -1097534.0, 2.0834875, 0.00055523124, 0.000046204575, -1060128.4, -29818.775, 0.0, 10.00367, 9.95435 
5.3052384e+3, 2.0481451e+2, -971984.1, -1019156.8, 12.276999, 0.00055468513, 0.0001669037, -971984.1, -39165.574, 0.0, 10.003665, 9.941589 
5.305237e+3, 2.1475613e+2, -873722.8, -921154.3, 3.998348, 0.00055435963, -0.000028577419, -873722.8, -38332.188, 0.0, 10.003661, 9.941249 
5.3052366e+3, 2.2469106e+2, -785456.4, -842911.25, 13.319082, 0.00055378105, 0.00021714979, -785456.4, -47428.13, 0.0, 10.003657, 9.928206 
5.305236e+3, 2.3461933e+2, -687047.56, -744754.9, 5.346861, 0.00055291934, 0.000003880386, -687047.56, -46316.38, 0.0, 10.003654, 9.9278755 
5.3052354e+3, 2.4454066e+2, -598742.56, -666829.56, 13.9962225, 0.0005522586, 0.00016441579, -598742.56, -55240.363, 0.0, 10.00365, 9.914434 
5.305234e+3, 2.544552e+2, -500013.8, -568175.8, 5.89042, 0.00055183383, -0.000019330106, -500013.8, -53674.266, 0.0, 10.003647, 9.914334 
5.3052336e+3, 2.6436266e+2, -411801.88, -490853.9, 13.870393, 0.0005513921, 0.000225192, -411801.88, -62555.496, 0.0, 10.003644, 9.900254 
5.305233e+3, 2.742635e+2, -312539.88, -391262.7, 5.880688, 0.00055092777, -0.00012229529, -312539.88, -60321.38, 0.0, 10.003642, 9.900674 
5.3052324e+3, 2.8415608e+2, -226037.7, -317900.1, 11.7278385, 0.0005504928, 0.0003077695, -226037.7, -70766.74, 0.0, 10.00364, 9.883786 
5.305232e+3, 2.9404092e+2, -126349.49, -217596.98, 4.3277535, 0.0005500958, -0.00017566727, -126349.49, -67949.98, 0.0, 10.003639, 9.884569 
5.305231e+3, 3.0395365e+2, -36747.16, -84816.7, 7.6452928, 0.0005498207, 0.00024709862, -36747.156, -36747.156, 0.0, 10.003638, 9.940375 
5.3052306e+3, 3.1389588e+2, -35681.12, -82601.95, -0.7954122, 0.0005497279, 0.000011212389, -35681.12, -35681.12, 0.0, 10.003639, 9.941871 
5.3152496e+3, 1.2505175e+2, -1715372.5, -1723665.0, 4.3485436, 0.0005637749, 0.00016168438, -1715372.5, -878.7519, 0.0, 10.003686, 9.992695 
5.3152484e+3, 1.3504429e+2, -1618013.9, -1626897.8, -2.9199069, 0.0005634947, -0.000015263062, -1618013.9, -1447.1455, 0.0, 10.003685, 9.991912 
5.315248e+3, 1.4503032e+2, -1529918.1, -1547609.1, 5.6709347, 0.00056324736, 0.00024591488, -1529918.1, -11214.308, 0.0, 10.003684, 9.980244 
5.3152466e+3, 1.5501052e+2, -1432211.9, -1450305.6, -1.8717998, 0.00056302635, 0.000054312964, -1432211.9, -11314.189, 0.0, 10.003683, 9.9797125 
5.3152454e+3, 1.6498409e+2, -1344264.1, -1371619.9, 6.474383, 0.00056273234, 0.00013656674, -1344264.1, -21107.3, 0.0, 10.003681, 9.9675255 
5.315245e+3, 1.7495167e+2, -1246329.6, -1273999.4, -0.7856839, 0.00056236656, 0.0000357649, -1246329.6, -20855.13, 0.0, 10.003678, 9.967112 
5.3152436e+3, 1.849126e+2, -1158268.4, -1195431.6, 8.254577, 0.0005618312, 0.00018081792, -1158268.4, -30411.14, 0.0, 10.0036745, 9.954672 
5.3152424e+3, 1.9486731e+2, -1060144.6, -1097567.3, 0.26229393, 0.0005611199, 0.000046143556, -1060144.6, -29843.518, 0.0, 10.003671, 9.9543295 
5.3152424e+3, 2.0481536e+2, -972001.2, -1019191.7, 10.556379, 0.0005605458, 0.00016635566, -972001.2, -39190.844, 0.0, 10.003666, 9.941567 
5.315241e+3, 2.1475695e+2, -873739.6, -921189.0, 2.2891648, 0.0005601174, -0.000028298453, -873739.6, -38357.03, 0.0, 10.003662, 9.941226 
5.31524e+3, 2.2469187e+2, -785472.8, -842945.25, 11.824185, 0.0005595914, 0.00021765851, -785472.8, -47452.324, 0.0, 10.003658, 9.9281845 
5.31524e+3, 2.3462012e+2, -687063.75, -744788.7, 3.8543644, 0.0005589555, 0.0000039535457, -687063.75, -46340.137, 0.0, 10.0036545, 9.927854 
5.315239e+3, 2.445414e+2, -598759.25, -666864.6, 12.700175, 0.00055836193, 0.00016432963, -598759.25, -55264.387, 0.0, 10.003651, 9.914412 
5.315238e+3, 2.5445595e+2, -500030.3, -568210.7, 4.6078205, 0.00055781746, -0.000019250076, -500030.3, -53697.867, 0.0, 10.003648, 9.914311 
5.315237e+3, 2.6436338e+2, -411818.44, -490889.1, 12.88277, 0.00055733405, 0.00022535837, -411818.44, -62578.93, 0.0, 10.003645, 9.900231 
5.315237e+3, 2.7426416e+2, -312556.2, -391297.72, 4.9122725, 0.0005569263, -0.00012214332, -312556.2, -60344.363, 0.0, 10.003643, 9.90065 
5.3152364e+3, 2.8415674e+2, -226053.05, -317933.34, 11.202559, 0.0005565877, 0.00030791896, -226053.05, -70788.52, 0.0, 10.003641, 9.883764 
5.315235e+3, 2.9404157e+2, -126364.56, -217629.88, 3.8386908, 0.00055634044, -0.00017550417, -126364.56, -67971.26, 0.0, 10.00364, 9.884547 
5.3152347e+3, 3.0395424e+2, -36764.633, -84854.7, 7.6086693, 0.00055604987, 0.0002472233, -36764.633, -36764.633, 0.0, 10.003639, 9.94035 
5.3152347e+3, 3.1389645e+2, -35698.88, -82640.57, -0.77462244, 0.0005556981, 0.000011223215, -35698.88, -35698.88, 0.0, 10.003639, 9.941844 
5.325253e+3, 1.2505275e+2, -1715235.1, -1723614.0, 3.64446, 0.0005693648, 0.00016194549, -1715235.1, -751.1421, 0.0, 10.00378, 9.992676 
5.325252e+3, 1.3504529e+2, -1617877.1, -1626847.5, -3.7249053, 0.00056926487, -0.000015540874, -1617877.1, -1319.9225, 0.0, 10.00378, 9.991892 
5.325251e+3, 1.4503126e+2, -1529782.9, -1547561.0, 4.434603, 0.0005690926, 0.00024555632, -1529782.9, -11088.438, 0.0, 10.003779, 9.980224 
5.32525e+3, 1.5501148e+2, -1432078.1, -1450258.5, -3.4319248, 0.00056884275, 0.00005432339, -1432078.1, -11189.572, 0.0, 10.0037775, 9.9796915 
5.325249e+3, 1.6498502e+2, -1344129.3, -1371570.3, 4.4867215, 0.0005685364, 0.0001366607, -1344129.3, -20981.518, 0.0, 10.003776, 9.967507 
5.325248e+3, 1.7495258e+2, -1246195.1, -1273950.4, -2.2222893, 0.000568175, 0.000035657984, -1246195.1, -20729.459, 0.0, 10.003773, 9.967093 
5.3252476e+3, 1.8491349e+2, -1158136.1, -1195387.5, 6.490889, 0.00056768465, 0.00018073944, -1158136.1, -30287.42, 0.0, 10.00377, 9.954651 
5.3252465e+3, 1.9486816e+2, -1060011.8, -1097523.3, -1.6669531, 0.0005670598, 0.000046328096, -1060011.8, -29718.967, 0.0, 10.003766, 9.954308 
5.325246e+3, 2.0481619e+2, -971868.06, -1019148.44, 8.711989, 0.0005664742, 0.00016659198, -971868.06, -39065.89, 0.0, 10.003763, 9.9415455 
5.3252447e+3, 2.1475777e+2, -873606.3, -921146.06, 0.71742374, 0.0005659299, -0.000028234528, -873606.3, -38231.71, 0.0, 10.003759, 9.941204 
5.325244e+3, 2.2469266e+2, -785339.7, -842903.2, 10.414125, 0.0005654169, 0.00021767407, -785339.7, -47326.97, 0.0, 10.003756, 9.928163 
5.325243e+3, 2.3462088e+2, -686931.0, -744747.2, 2.1742537, 0.0005649375, 0.0000040585924, -686931.0, -46214.914, 0.0, 10.003753, 9.927831 
5.325243e+3, 2.4454217e+2, -598626.8, -666824.0, 11.133441, 0.0005644165, 0.00016447043, -598626.8, -55139.23, 0.0, 10.003749, 9.914389 
5.3252417e+3, 2.5445667e+2, -499897.9, -568170.5, 3.1157415, 0.0005638457, -0.00001913674, -499897.9, -53572.566, 0.0, 10.003746, 9.9142885 
5.325241e+3, 2.6436406e+2, -411686.22, -490849.94, 11.681365, 0.0005633621, 0.00022543891, -411686.22, -62453.59, 0.0, 10.003744, 9.9002075 
5.3252405e+3, 2.7426484e+2, -312424.03, -391259.0, 3.6276171, 0.0005629874, -0.00012210198, -312424.03, -60218.84, 0.0, 10.003742, 9.900627 
5.32524e+3, 2.841574e+2, -225920.02, -317893.38, 10.171507, 0.0005626851, 0.00030798375, -225920.0, -70661.9, 0.0, 10.003741, 9.883741 
5.3252393e+3, 2.9404217e+2, -126231.79, -217590.34, 2.621457, 0.00056247826, -0.00017533165, -126231.79, -67844.68, 0.0, 10.00374, 9.884524 
5.325239e+3, 3.0395487e+2, -36634.96, -84821.04, 6.8483768, 0.00056221354, 0.00024738218, -36634.96, -36634.96, 0.0, 10.00374, 9.940324 
5.3252375e+3, 3.1389704e+2, -35568.38, -82606.945, -1.3665982, 0.00056186604, 0.000011190757, -35568.375, -35568.375, 0.0, 10.003741, 9.941818 
5.335257e+3, 1.2505375e+2, -1715251.1, -1723645.6, 3.3007555, 0.00057513977, 0.0001631449, -1715251.1, -776.9251, 0.0, 10.003781, 9.992656 
5.335256e+3, 1.3504626e+2, -1617893.0, -1626878.9, -4.072244, 0.00057502964, -0.000016854588, -1617893.0, -1345.3574, 0.0, 10.00378, 9.991873 
5.3352547e+3, 1.4503223e+2, -1529799.6, -1547594.1, 3.7725327, 0.00057487714, 0.0002445256, -1529799.6, -11114.535, 0.0, 10.003779, 9.980203 
5.335254e+3, 1.550124e+2, -1432094.6, -1450291.5, -4.086826, 0.0005746764, 0.000056325232, -1432094.6, -11215.316, 0.0, 10.003778, 9.979671 
5.335253e+3, 1.6498592e+2, -1344143.1, -1371598.3, 3.4286823, 0.0005743806, 0.00013863413, -1344143.1, -21004.367, 0.0, 10.003777, 9.967489 
5.3352517e+3, 1.7495348e+2, -1246208.8, -1273978.1, -3.289434, 0.0005739915, 0.000034544304, -1246208.8, -20751.96, 0.0, 10.003774, 9.967075 
5.335251e+3, 1.8491437e+2, -1158152.9, -1195421.5, 5.0035114, 0.0005735496, 0.00017908163, -1158152.9, -30312.867, 0.0, 10.003771, 9.954629 
5.3352505e+3, 1.9486903e+2, -1060028.4, -1097557.0, -3.1499844, 0.0005730513, 0.000046734287, -1060028.4, -29744.016, 0.0, 10.003767, 9.954286 
5.3352493e+3, 2.0481703e+2, -971884.5, -1019182.2, 7.2157702, 0.0005724691, 0.00016753878, -971884.5, -39090.555, 0.0, 10.003763, 9.941524 
5.335249e+3, 2.1475859e+2, -873622.56, -921179.56, -0.78215945, 0.00057179737, -0.0000283667, -873622.56, -38255.938, 0.0, 10.00376, 9.941182 
5.335248e+3, 2.2469345e+2, -785356.6, -842938.3, 9.006743, 0.00057126145, 0.00021724124, -785356.6, -47351.67, 0.0, 10.0037565, 9.92814 
5.335247e+3, 2.3462164e+2, -686947.75, -744782.1, 0.7761237, 0.0005708754, 0.000004191539, -686947.75, -46239.195, 0.0, 10.003753, 9.927808 
5.3352463e+3, 2.4454291e+2, -598643.3, -666858.8, 10.005514, 0.0005704319, 0.00016481619, -598643.3, -55163.1, 0.0, 10.00375, 9.914366 
5.335246e+3, 2.5445738e+2, -499914.25, -568205.06, 1.9974618, 0.0005699196, -0.000018994038, -499914.25, -53595.992, 0.0, 10.003747, 9.914266 
5.335245e+3, 2.6436478e+2, -411702.94, -490885.5, 10.872174, 0.00056947384, 0.00022544077, -411702.94, -62477.164, 0.0, 10.003745, 9.900185 
5.335244e+3, 2.742655e+2, -312440.53, -391294.4, 2.8394036, 0.00056911085, -0.00012216193, -312440.53, -60241.99, 0.0, 10.003743, 9.900603 
5.335244e+3, 2.8415805e+2, -225935.75, -317927.47, 9.762964, 0.00056879, 0.00030797065, -225935.75, -70684.05, 0.0, 10.003742, 9.8837185 
5.335243e+3, 2.9404283e+2, -126247.25, -217624.1, 2.2491288, 0.000568524, -0.0001751518, -126247.25, -67866.33, 0.0, 10.003741, 9.884502 
5.335242e+3, 3.0395547e+2, -36652.258, -84858.71, 7.090008, 0.0005683228, 0.00024757104, -36652.258, -36652.258, 0.0, 10.003741, 9.940298 
5.3352416e+3, 3.1389764e+2, -35585.92, -82645.12, -1.0586618, 0.00056821975, 0.000011118488, -35585.92, -35585.92, 0.0, 10.003742, 9.941792 
5.3452605e+3, 1.2505475e+2, -1715109.4, -1723593.0, 3.5547829, 0.0005810939, 0.00016317515, -1715109.4, -645.0047, 0.0, 10.00388, 9.992636 
5.34526e+3, 1.3504724e+2, -1617753.0, -1626827.5, -4.1212163, 0.0005808291, -0.000016713995, -1617753.0, -1214.948, 0.0, 10.003879, 9.991852 
5.345259e+3, 1.4503318e+2, -1529661.4, -1547544.6, 3.37137, 0.0005806366, 0.00024480332, -1529661.4, -10985.646, 0.0, 10.003877, 9.980182 
5.3452575e+3, 1.5501335e+2, -1431957.5, -1450243.0, -4.385886, 0.00058050815, 0.00005676701, -1431957.5, -11087.418, 0.0, 10.003875, 9.9796505 
5.345257e+3, 1.6498685e+2, -1344004.9, -1371546.8, 2.6136158, 0.0005802547, 0.00013897338, -1344004.9, -20875.11, 0.0, 10.003873, 9.967471 
5.345256e+3, 1.7495437e+2, -1246071.3, -1273927.5, -4.5572186, 0.00057987793, 0.0000345138, -1246071.3, -20623.264, 0.0, 10.00387, 9.967057 
5.345255e+3, 1.8491524e+2, -1158018.0, -1195376.1, 3.2936394, 0.0005794437, 0.00017890114, -1158018.0, -30186.56, 0.0, 10.003867, 9.954607 
5.345254e+3, 1.9486989e+2, -1059893.1, -1097511.8, -4.702653, 0.0005789483, 0.000046629935, -1059893.1, -29617.238, 0.0, 10.003864, 9.954265 
5.3452533e+3, 2.0481786e+2, -971749.44, -1019137.94, 5.567829, 0.0005783896, 0.00016753524, -971749.44, -38963.68, 0.0, 10.003861, 9.941502 
5.345252e+3, 2.147594e+2, -873487.56, -921135.75, -2.6801286, 0.0005777632, -0.000028243669, -873487.56, -38128.918, 0.0, 10.003859, 9.94116 
5.3452516e+3, 2.2469424e+2, -785221.9, -842895.56, 7.145155, 0.0005772469, 0.00021738511, -785221.9, -47224.664, 0.0, 10.003856, 9.928117 
5.345251e+3, 2.3462242e+2, -686812.94, -744739.75, -0.9467902, 0.00057685195, 0.0000042388865, -686812.94, -46111.938, 0.0, 10.003853, 9.927786 
5.34525e+3, 2.4454366e+2, -598508.75, -666817.4, 8.487542, 0.0005764357, 0.00016482503, -598508.75, -55035.83, 0.0, 10.00385, 9.914343 
5.34525e+3, 2.5445813e+2, -499779.94, -568164.2, 0.2772773, 0.0005759934, -0.00001895555, -499779.94, -53468.777, 0.0, 10.003847, 9.914243 
5.3452486e+3, 2.6436546e+2, -411569.03, -490845.75, 9.314739, 0.00057559134, 0.0002255113, -411569.03, -62350.125, 0.0, 10.003845, 9.900161 
5.345248e+3, 2.742662e+2, -312306.9, -391255.2, 1.2257345, 0.0005752391, -0.00012205628, -312306.9, -60114.965, 0.0, 10.003844, 9.900579 
5.3452474e+3, 2.8415868e+2, -225801.22, -317887.03, 8.519547, 0.00057492, 0.00030804024, -225801.22, -70555.91, 0.0, 10.003843, 9.883696 
5.345247e+3, 2.9404345e+2, -126112.64, -217583.94, 1.0549443, 0.0005746436, -0.00017521501, -126112.64, -67737.89, 0.0, 10.003843, 9.8844795 
5.345246e+3, 3.039561e+2, -36520.938, -84824.516, 6.3376913, 0.0005744763, 0.00024750282, -36520.938, -36520.938, 0.0, 10.003843, 9.940272 
5.3452456e+3, 3.138982e+2, -35454.703, -82611.414, -2.0284238, 0.0005744723, 0.000011235012, -35454.703, -35454.703, 0.0, 10.003844, 9.941765 
5.3552645e+3, 1.2505575e+2, -1715126.0, -1723625.8, 2.9939601, 0.0005872154, 0.00016214978, -1715126.0, -671.42084, 0.0, 10.0038805, 9.992615 
5.355264e+3, 1.3504821e+2, -1617769.5, -1626860.1, -4.681897, 0.00058666524, -0.000015260272, -1617769.5, -1241.032, 0.0, 10.003879, 9.991832 
5.355263e+3, 1.4503415e+2, -1529677.8, -1547577.3, 2.6117551, 0.0005863786, 0.00024626133, -1529677.8, -11011.448, 0.0, 10.003878, 9.980161 
5.3552616e+3, 1.5501428e+2, -1431973.8, -1450275.4, -5.1484056, 0.00058634364, 0.00005579707, -1431973.8, -11112.835, 0.0, 10.003876, 9.9796295 
5.355261e+3, 1.6498776e+2, -1344019.6, -1371576.6, 1.562721, 0.0005861611, 0.00013783471, -1344019.6, -20898.887, 0.0, 10.003874, 9.967452 
5.35526e+3, 1.7495528e+2, -1246085.9, -1273957.1, -5.607952, 0.0005858327, 0.0000354624, -1246085.9, -20646.701, 0.0, 10.003871, 9.967038 
5.3552586e+3, 1.8491612e+2, -1158034.4, -1195409.4, 2.0662832, 0.00058536924, 0.00018005572, -1158034.4, -30211.59, 0.0, 10.003868, 9.954586 
5.355258e+3, 1.9487074e+2, -1059909.4, -1097544.9, -5.936367, 0.000584765, 0.000046062327, -1059909.4, -29641.861, 0.0, 10.003865, 9.954243 
5.3552574e+3, 2.048187e+2, -971766.4, -1019172.7, 4.2402616, 0.0005842481, 0.00016667074, -971766.4, -38988.797, 0.0, 10.003862, 9.941479 
5.355256e+3, 2.1476021e+2, -873504.3, -921170.25, -4.0046945, 0.0005838234, -0.000027890648, -873504.3, -38153.617, 0.0, 10.0038595, 9.941137 
5.3552556e+3, 2.2469503e+2, -785238.5, -842930.1, 5.9399314, 0.00058336527, 0.00021804991, -785238.5, -47249.047, 0.0, 10.003856, 9.928094 
5.355255e+3, 2.3462318e+2, -686829.4, -744774.1, -2.1520438, 0.00058286876, 0.0000042077563, -686829.4, -46135.88, 0.0, 10.003853, 9.927763 
5.355254e+3, 2.4454439e+2, -598525.7, -666852.94, 7.478577, 0.0005824345, 0.00016452791, -598525.7, -55060.05, 0.0, 10.003851, 9.914319 
5.355253e+3, 2.5445884e+2, -499796.66, -568199.56, -0.7198005, 0.0005820725, -0.00001901252, -499796.66, -53492.57, 0.0, 10.003848, 9.914219 
5.3552526e+3, 2.6436618e+2, -411585.88, -490881.63, 8.644353, 0.00058171956, 0.00022564293, -411585.88, -62373.805, 0.0, 10.003846, 9.900137 
5.355252e+3, 2.7426687e+2, -312323.53, -391290.88, 0.5758639, 0.00058137695, -0.000121801495, -312323.53, -60138.2, 0.0, 10.003845, 9.900556 
5.355251e+3, 2.8415936e+2, -225816.9, -317921.06, 8.312821, 0.00058107806, 0.00030818384, -225816.9, -70577.984, 0.0, 10.003844, 9.883673 
5.35525e+3, 2.9404408e+2, -126128.055, -217617.61, 0.8855542, 0.00058083603, -0.00017549947, -126128.055, -67759.46, 0.0, 10.003843, 9.884457 
5.35525e+3, 3.0395666e+2, -36538.695, -84863.16, 6.6374855, 0.00058067567, 0.0002472007, -36538.695, -36538.695, 0.0, 10.003844, 9.940246 
5.3552496e+3, 3.1389877e+2, -35472.75, -82650.664, -1.6707041, 0.0005806381, 0.000011521762, -35472.75, -35472.75, 0.0, 10.003845, 9.941738 
5.3652686e+3, 1.2505674e+2, -1714981.0, -1723572.1, 3.5579526, 0.0005932475, 0.00016227877, -1714981.0, -536.20105, 0.0, 10.003981, 9.992595 
5.3652674e+3, 1.350492e+2, -1617626.1, -1626807.8, -4.284737, 0.0005926334, -0.000015016483, -1617626.1, -1107.3486, 0.0, 10.003979, 9.991811 
5.365267e+3, 1.4503512e+2, -1529535.9, -1547526.3, 2.642582, 0.0005923066, 0.00024653136, -1529535.9, -10879.025, 0.0, 10.003977, 9.98014 
5.3652656e+3, 1.5501522e+2, -1431833.3, -1450225.4, -5.4128685, 0.00059225457, 0.000056005254, -1431833.3, -10981.448, 0.0, 10.003975, 9.979609 
5.3652644e+3, 1.6498868e+2, -1343878.3, -1371524.3, 0.9076914, 0.00059206225, 0.00013799206, -1343878.3, -20766.43, 0.0, 10.003972, 9.967433 
5.365264e+3, 1.7495616e+2, -1245945.0, -1273905.5, -6.349808, 0.0005917316, 0.00003558077, -1245945.0, -20514.643, 0.0, 10.00397, 9.967019 
5.3652626e+3, 1.84917e+2, -1157896.0, -1195362.4, 0.9631648, 0.00059127883, 0.00018011653, -1157896.0, -30081.82, 0.0, 10.003967, 9.954564 
5.3652614e+3, 1.948716e+2, -1059771.5, -1097498.5, -7.3628087, 0.0005906986, 0.00004604591, -1059771.5, -29512.344, 0.0, 10.003964, 9.954221 
5.3652614e+3, 2.0481953e+2, -971628.94, -1019127.5, 2.6217868, 0.00059022394, 0.00016665582, -971628.94, -38859.566, 0.0, 10.003962, 9.941457 
5.36526e+3, 2.1476102e+2, -873367.0, -921125.56, -5.575518, 0.0005898609, -0.000027819935, -873367.0, -38024.285, 0.0, 10.003959, 9.941115 
5.365259e+3, 2.2469582e+2, -785101.5, -842886.44, 4.3784323, 0.0005894354, 0.0002181451, -785101.5, -47119.82, 0.0, 10.003957, 9.928071 
5.365259e+3, 2.3462395e+2, -686692.6, -744730.94, -3.9668202, 0.0005889393, 0.000004259129, -686692.6, -46006.66, 0.0, 10.003954, 9.92774 
5.365258e+3, 2.4454513e+2, -598389.3, -666810.9, 5.724067, 0.0005885152, 0.00016456192, -598389.3, -54930.973, 0.0, 10.003952, 9.914296 
5.365257e+3, 2.5445956e+2, -499660.5, -568158.06, -2.4688969, 0.00058817473, -0.000018964643, -499660.5, -53363.465, 0.0, 10.00395, 9.914196 
5.365256e+3, 2.643669e+2, -411450.1, -490841.22, 7.1505055, 0.000587846, 0.00022567358, -411450.1, -62244.84, 0.0, 10.003948, 9.900113 
5.365256e+3, 2.7426755e+2, -312188.03, -391251.03, -1.0264233, 0.0005875308, -0.000121827, -312188.03, -60009.29, 0.0, 10.003947, 9.900532 
5.365255e+3, 2.8416002e+2, -225680.72, -317880.06, 6.980648, 0.00058725616, 0.00030816253, -225680.72, -70448.15, 0.0, 10.003946, 9.88365 
5.365254e+3, 2.940447e+2, -125992.27, -217577.13, -0.57839805, 0.0005870342, -0.00017543542, -125992.27, -67629.82, 0.0, 10.003946, 9.884434 
5.3652537e+3, 3.0395728e+2, -36406.324, -84828.76, 5.6299696, 0.0005868845, 0.00024724827, -36406.324, -36406.324, 0.0, 10.003947, 9.940219 
5.3652537e+3, 3.1389934e+2, -35339.94, -82616.49, -2.5673163, 0.0005868441, 0.000011404279, -35339.94, -35339.94, 0.0, 10.003949, 9.941711 
5.3752726e+3, 1.2505776e+2, -1714998.0, -1723605.6, 2.770971, 0.00059920497, 0.00016344555, -1714998.0, -562.9941, 0.0, 10.003982, 9.992573 
5.3752714e+3, 1.3505018e+2, -1617643.0, -1626841.1, -5.0704856, 0.0005987262, -0.000015863769, -1617643.0, -1133.7559, 0.0, 10.00398, 9.99179 
5.37527e+3, 1.4503607e+2, -1529552.9, -1547560.1, 1.7741103, 0.0005984077, 0.00024573074, -1529552.9, -10905.427, 0.0, 10.003978, 9.980119 
5.3752697e+3, 1.5501615e+2, -1431850.0, -1450259.1, -6.283312, 0.00059823884, 0.000057274658, -1431850.0, -11007.478, 0.0, 10.003976, 9.979588 
5.3752685e+3, 1.649896e+2, -1343893.1, -1371554.4, -0.088723585, 0.0005979641, 0.00013931625, -1343893.1, -20790.342, 0.0, 10.003973, 9.967414 
5.375268e+3, 1.7495707e+2, -1245959.8, -1273935.5, -7.351986, 0.00059758546, 0.000034949167, -1245959.8, -20538.191, 0.0, 10.003971, 9.967 
5.3752667e+3, 1.8491788e+2, -1157913.1, -1195397.0, -0.18668516, 0.0005971796, 0.00017919022, -1157913.1, -30107.473, 0.0, 10.003968, 9.954542 
5.375266e+3, 1.9487245e+2, -1059788.4, -1097533.0, -8.512367, 0.00059674314, 0.00004652602, -1059788.4, -29537.598, 0.0, 10.003965, 9.954199 
5.375265e+3, 2.0482036e+2, -971645.75, -1019161.94, 1.4629496, 0.0005963111, 0.00016740635, -971645.75, -38884.52, 0.0, 10.0039625, 9.941434 
5.375264e+3, 2.1476184e+2, -873383.6, -921159.8, -6.739185, 0.00059588335, -0.000028005144, -873383.56, -38048.805, 0.0, 10.00396, 9.941093 
5.375263e+3, 2.246966e+2, -785118.6, -842922.0, 3.3082514, 0.0005954676, 0.00021772516, -785118.6, -47144.652, 0.0, 10.003957, 9.928048 
5.3752625e+3, 2.3462473e+2, -686709.56, -744766.3, -5.0318913, 0.0005950639, 0.0000043839823, -686709.56, -46031.066, 0.0, 10.003955, 9.927717 
5.375262e+3, 2.4454588e+2, -598406.2, -666846.44, 4.868093, 0.0005946753, 0.00016489388, -598406.2, -54955.152, 0.0, 10.003952, 9.914272 
5.3752613e+3, 2.5446028e+2, -499677.2, -568193.44, -3.3178978, 0.00059430336, -0.000018822973, -499677.2, -53387.2, 0.0, 10.00395, 9.914172 
5.37526e+3, 2.6436758e+2, -411467.13, -490877.56, 6.6105313, 0.00059397635, 0.00022561208, -411467.13, -62268.695, 0.0, 10.003949, 9.900089 
5.3752595e+3, 2.742682e+2, -312204.88, -391287.22, -1.5455604, 0.0005937047, -0.00012210695, -312204.88, -60032.707, 0.0, 10.003947, 9.900508 
5.3752595e+3, 2.8416064e+2, -225696.7, -317914.72, 6.8608713, 0.000593458, 0.0003079911, -225696.7, -70470.48, 0.0, 10.003947, 9.883627 
5.3752583e+3, 2.9404533e+2, -126007.98, -217611.42, -0.6635987, 0.00059324293, -0.00017505702, -126007.98, -67651.65, 0.0, 10.003947, 9.884411 
5.375258e+3, 3.0395788e+2, -36423.996, -84867.24, 6.113054, 0.0005931075, 0.0002476113, -36423.992, -36423.992, 0.0, 10.003948, 9.940192 
5.375257e+3, 3.1389993e+2, -35357.88, -82655.51, -2.019311, 0.0005930923, 0.000010919992, -35357.88, -35357.88, 0.0, 10.003949, 9.941685 
5.385276e+3, 1.2505876e+2, -1714850.1, -1723551.0, 3.50818, 0.0006053535, 0.00016376091, -1714850.1, -425.00418, 0.0, 10.004084, 9.992552 
5.3852755e+3, 1.3505116e+2, -1617496.4, -1626787.5, -4.4951677, 0.00060484244, -0.000015731654, -1617496.4, -996.8355, 0.0, 10.004082, 9.991769 
5.385274e+3, 1.4503704e+2, -1529407.8, -1547508.1, 2.0889966, 0.000604474, 0.00024586593, -1529407.8, -10769.6875, 0.0, 10.004079, 9.980097 
5.3852737e+3, 1.5501711e+2, -1431705.9, -1450208.0, -6.2206545, 0.0006042375, 0.000057596062, -1431705.9, -10872.583, 0.0, 10.004077, 9.979566 
5.3852725e+3, 1.6499053e+2, -1343748.1, -1371500.9, -0.42428282, 0.0006039302, 0.00013962566, -1343748.1, -20654.344, 0.0, 10.004074, 9.967394 
5.3852713e+3, 1.7495796e+2, -1245815.9, -1273882.8, -8.005016, 0.00060355396, 0.000035048473, -1245815.9, -20403.023, 0.0, 10.004072, 9.96698 
5.385271e+3, 1.8491876e+2, -1157771.8, -1195349.0, -1.1137226, 0.0006031795, 0.000179215, -1157771.8, -29974.773, 0.0, 10.004069, 9.95452 
5.38527e+3, 1.948733e+2, -1059647.5, -1097485.8, -9.516514, 0.00060280424, 0.000046615507, -1059647.5, -29405.156, 0.0, 10.004066, 9.954177 
5.385269e+3, 2.048212e+2, -971505.44, -1019115.75, 0.2694697, 0.0006023989, 0.00016750833, -971505.44, -38752.4, 0.0, 10.004065, 9.941412 
5.3852683e+3, 2.1476264e+2, -873243.75, -921114.2, -8.232301, 0.0006019609, -0.000027946453, -873243.75, -37916.918, 0.0, 10.004062, 9.941071 
5.385268e+3, 2.246974e+2, -784979.4, -842877.56, 1.7524122, 0.0006015637, 0.0002177717, -784979.4, -47013.094, 0.0, 10.004059, 9.928025 
5.3852665e+3, 2.3462549e+2, -686570.56, -744722.44, -6.619888, 0.0006012105, 0.0000044532517, -686570.56, -45899.598, 0.0, 10.004057, 9.927693 
5.3852654e+3, 2.4454662e+2, -598267.7, -666803.7, 3.3671474, 0.0006008482, 0.00016495546, -598267.7, -54823.895, 0.0, 10.004055, 9.914248 
5.3852654e+3, 2.54461e+2, -499539.03, -568151.25, -5.018519, 0.000600474, -0.00001880503, -499539.03, -53256.082, 0.0, 10.004053, 9.914148 
5.385264e+3, 2.6436827e+2, -411329.47, -490836.53, 5.063305, 0.00060014986, 0.00022560645, -411329.47, -62137.844, 0.0, 10.004052, 9.900064 
5.3852636e+3, 2.742689e+2, -312067.63, -391246.8, -3.1537263, 0.0005998877, -0.00012211075, -312067.63, -59902.027, 0.0, 10.004051, 9.900484 
5.385263e+3, 2.841613e+2, -225558.86, -317873.3, 5.5493817, 0.0005996541, 0.00030798398, -225558.86, -70338.98, 0.0, 10.004051, 9.883604 
5.3852624e+3, 2.9404595e+2, -125870.5, -217570.53, -2.059461, 0.00059945683, -0.000175075, -125870.5, -67520.27, 0.0, 10.004051, 9.884388 
5.385262e+3, 3.0395848e+2, -36290.05, -84832.2, 5.1233935, 0.0005993458, 0.00024758183, -36290.047, -36290.047, 0.0, 10.004052, 9.940166 
5.385261e+3, 3.139005e+2, -35224.285, -82621.055, -3.0694065, 0.0005993646, 0.000010879486, -35224.285, -35224.285, 0.0, 10.004054, 9.941658 
5.395281e+3, 1.2505975e+2, -1714867.4, -1723585.1, 2.6089482, 0.0006116794, 0.00016331178, -1714867.4, -452.12512, 0.0, 10.004085, 9.992531 
5.3952795e+3, 1.3505214e+2, -1617513.5, -1626821.5, -5.3983846, 0.00061098544, -0.000014720358, -1617513.5, -1023.5884, 0.0, 10.004083, 9.991747 
5.395279e+3, 1.45038e+2, -1529425.3, -1547543.0, 1.1517985, 0.00061051483, 0.0002468405, -1529425.3, -10796.636, 0.0, 10.00408, 9.980075 
5.395278e+3, 1.5501803e+2, -1431723.3, -1450242.8, -7.1578183, 0.0006102551, 0.000057064466, -1431723.3, -10899.122, 0.0, 10.004078, 9.979544 
5.395277e+3, 1.6499144e+2, -1343763.6, -1371532.4, -1.4713281, 0.0006099599, 0.00013902245, -1343763.6, -20678.898, 0.0, 10.004075, 9.967374 
5.395276e+3, 1.7495885e+2, -1245831.3, -1273914.1, -9.054382, 0.0006096311, 0.000035804274, -1245831.3, -20427.217, 0.0, 10.004073, 9.96696 
5.395275e+3, 1.8491963e+2, -1157788.9, -1195384.0, -2.1808028, 0.00060927426, 0.00018009394, -1157788.9, -30000.53, 0.0, 10.00407, 9.954497 
5.395274e+3, 1.9487417e+2, -1059664.5, -1097520.4, -10.589232, 0.00060888607, 0.000046352594, -1059664.5, -29430.5, 0.0, 10.004067, 9.954154 
5.395273e+3, 2.0482203e+2, -971522.8, -1019151.4, -0.8073596, 0.00060849293, 0.00016702607, -971522.8, -38777.914, 0.0, 10.0040655, 9.941388 
5.3952724e+3, 2.1476346e+2, -873260.9, -921149.6, -9.30773, 0.00060809386, -0.000027669186, -873260.9, -37942.0, 0.0, 10.004063, 9.941048 
5.395272e+3, 2.2469819e+2, -784996.5, -842913.2, 0.8059831, 0.0006077232, 0.000218237, -784996.5, -47037.938, 0.0, 10.00406, 9.928001 
5.3952706e+3, 2.3462625e+2, -686587.5, -744757.9, -7.5666018, 0.0006073827, 0.0000044715116, -686587.5, -45924.004, 0.0, 10.004058, 9.9276705 
5.39527e+3, 2.4454737e+2, -598284.94, -666840.06, 2.618619, 0.00060703827, 0.00016477266, -598284.94, -54848.414, 0.0, 10.004056, 9.914225 
5.395269e+3, 2.544617e+2, -499556.13, -568187.44, -5.7568903, 0.00060668815, -0.00001889968, -499556.13, -53280.164, 0.0, 10.004054, 9.9141245 
5.395269e+3, 2.6436895e+2, -411346.66, -490873.2, 4.63255, 0.000606368, 0.00022565006, -411346.66, -62161.8, 0.0, 10.004053, 9.900041 
5.3952676e+3, 2.7426955e+2, -312084.6, -391283.28, -3.5670638, 0.00060608453, -0.00012186638, -312084.6, -59925.535, 0.0, 10.004052, 9.900459 
5.395267e+3, 2.8416193e+2, -225575.05, -317908.4, 5.5332675, 0.0006058506, 0.00030812412, -225575.05, -70361.46, 0.0, 10.004051, 9.88358 
5.3952664e+3, 2.9404658e+2, -125886.41, -217605.28, -2.0394013, 0.00060568115, -0.0001754517, -125886.41, -67542.26, 0.0, 10.004052, 9.884364 
5.395266e+3, 3.0395907e+2, -36307.918, -84871.14, 5.6013007, 0.0006056036, 0.0002471973, -36307.918, -36307.918, 0.0, 10.004053, 9.94014 
5.395265e+3, 3.1390107e+2, -35242.41, -82660.51, -2.5408678, 0.00060566404, 0.00001123882, -35242.41, -35242.41, 0.0, 10.004054, 9.941631 
5.405285e+3, 1.2506077e+2, -1714716.4, -1723529.5, 3.5478392, 0.0006179033, 0.00016349979, -1714716.4, -310.95816, 0.0, 10.0041895, 9.992509 
5.4052836e+3, 1.3505313e+2, -1617363.8, -1626766.9, -4.80605, 0.00061716203, -0.0000143662855, -1617363.8, -883.45074, 0.0, 10.004187, 9.991725 
5.405283e+3, 1.4503896e+2, -1529276.8, -1547490.0, 1.446201, 0.00061666686, 0.00024717904, -1529276.8, -10657.644, 0.0, 10.004184, 9.980053 
5.405282e+3, 1.5501899e+2, -1431576.0, -1450190.8, -7.058309, 0.0006164046, 0.000057208614, -1431576.0, -10761.134, 0.0, 10.004182, 9.979521 
5.4052806e+3, 1.6499236e+2, -1343615.6, -1371477.9, -1.6166369, 0.0006160933, 0.00013912805, -1343615.6, -20539.844, 0.0, 10.004179, 9.967354 
5.40528e+3, 1.7495976e+2, -1245684.0, -1273860.5, -9.387875, 0.0006157349, 0.000036027373, -1245684.0, -20288.79, 0.0, 10.004176, 9.96694 
5.405279e+3, 1.8492052e+2, -1157644.4, -1195335.0, -2.7925642, 0.0006153859, 0.0001803244, -1157644.4, -29864.57, 0.0, 10.004174, 9.954474 
5.405278e+3, 1.9487503e+2, -1059520.8, -1097472.3, -11.527472, 0.00061504374, 0.00004647728, -1059520.8, -29295.207, 0.0, 10.004171, 9.954131 
5.4052776e+3, 2.0482287e+2, -971379.8, -1019104.3, -1.8905771, 0.00061467284, 0.00016710891, -971379.8, -38643.066, 0.0, 10.0041685, 9.941365 
5.4052764e+3, 2.1476427e+2, -873118.3, -921103.1, -10.464728, 0.00061427086, -0.000027560003, -873118.3, -37807.332, 0.0, 10.004167, 9.941024 
5.405275e+3, 2.2469898e+2, -784854.5, -842867.9, -0.418866, 0.00061390427, 0.00021833634, -784854.5, -46903.68, 0.0, 10.004164, 9.9279785 
5.4052746e+3, 2.3462701e+2, -686446.2, -744713.3, -9.057738, 0.0006135757, 0.000004520707, -686446.2, -45790.17, 0.0, 10.004162, 9.927647 
5.405274e+3, 2.445481e+2, -598144.25, -666796.56, 1.175693, 0.00061324146, 0.00016479146, -598144.25, -54714.945, 0.0, 10.00416, 9.914201 
5.4052734e+3, 2.5446242e+2, -499415.8, -568144.56, -7.2665687, 0.0006128995, -0.000018888, -499415.8, -53146.88, 0.0, 10.004159, 9.914101 
5.405272e+3, 2.6436967e+2, -411206.97, -490831.56, 3.2785387, 0.0006125933, 0.00022566596, -411206.97, -62028.89, 0.0, 10.004158, 9.900016 
5.405272e+3, 2.742702e+2, -311945.5, -391242.38, -5.100557, 0.00061233103, -0.0001218319, -311945.5, -59792.977, 0.0, 10.004157, 9.9004345 
5.405271e+3, 2.8416258e+2, -225435.48, -317866.4, 4.241601, 0.0006121121, 0.0003081322, -225435.48, -70228.195, 0.0, 10.004157, 9.883557 
5.4052705e+3, 2.9404718e+2, -125747.47, -217563.9, -3.3568363, 0.00061194936, -0.00017553136, -125747.47, -67409.375, 0.0, 10.004157, 9.884341 
5.40527e+3, 3.0395967e+2, -36172.633, -84835.86, 4.671378, 0.0006118686, 0.00024711352, -36172.633, -36172.633, 0.0, 10.004158, 9.940113 
5.405269e+3, 3.1390163e+2, -35107.12, -82625.664, -3.5887382, 0.00061191147, 0.000011275652, -35107.12, -35107.12, 0.0, 10.00416, 9.941604 
5.415289e+3, 1.2506178e+2, -1714734.4, -1723565.3, 2.5416646, 0.00062404224, 0.00016425713, -1714734.4, -338.87604, 0.0, 10.00419, 9.992486 
5.415288e+3, 1.3505413e+2, -1617381.5, -1626802.4, -5.8107877, 0.000623375, -0.000014601614, -1617381.5, -910.9616, 0.0, 10.004188, 9.991703 
5.415287e+3, 1.4503992e+2, -1529294.6, -1547525.6, 0.41132432, 0.00062292465, 0.00024694746, -1529294.6, -10684.981, 0.0, 10.004185, 9.98003 
5.4152864e+3, 1.5501992e+2, -1431593.8, -1450226.3, -8.095141, 0.0006226782, 0.000057957495, -1431593.8, -10788.069, 0.0, 10.004183, 9.979499 
5.415285e+3, 1.6499329e+2, -1343631.5, -1371510.1, -2.663892, 0.00062232546, 0.00013986777, -1343631.5, -20564.775, 0.0, 10.00418, 9.967333 
5.415284e+3, 1.7496066e+2, -1245699.6, -1273892.6, -10.439454, 0.0006218687, 0.000035772122, -1245699.6, -20313.338, 0.0, 10.004177, 9.966919 
5.4152834e+3, 1.849214e+2, -1157662.1, -1195371.1, -3.8784602, 0.00062151876, 0.00017997294, -1157662.1, -29890.97, 0.0, 10.004175, 9.954452 
5.415282e+3, 1.9487588e+2, -1059538.4, -1097508.4, -12.613682, 0.0006212753, 0.000046948688, -1059538.4, -29321.188, 0.0, 10.004172, 9.954108 
5.415281e+3, 2.048237e+2, -971397.25, -1019140.25, -2.8647864, 0.0006209356, 0.00016769751, -971397.25, -38668.67, 0.0, 10.004169, 9.941342 
5.415281e+3, 2.1476507e+2, -873135.56, -921138.9, -11.442702, 0.0006204934, -0.000027602506, -873135.56, -37832.504, 0.0, 10.004168, 9.941001 
5.41528e+3, 2.2469975e+2, -784872.2, -842904.6, -1.3267137, 0.0006201108, 0.0002181066, -784872.2, -46929.01, 0.0, 10.004165, 9.927955 
5.4152787e+3, 2.3462778e+2, -686463.6, -744749.8, -9.961998, 0.0006197932, 0.0000045966267, -686463.6, -45815.055, 0.0, 10.004163, 9.927623 
5.415278e+3, 2.4454884e+2, -598161.6, -666833.25, 0.53016585, 0.00061946217, 0.00016499015, -598161.6, -54739.555, 0.0, 10.004161, 9.914177 
5.4152775e+3, 2.5446314e+2, -499433.0, -568181.0, -7.9044375, 0.00061911426, -0.00001878159, -499433.0, -53171.04, 0.0, 10.00416, 9.914077 
5.415277e+3, 2.6437032e+2, -411224.5, -490868.97, 2.9116476, 0.0006188311, 0.0002256562, -411224.5, -62053.16, 0.0, 10.004158, 9.899991 
5.4152757e+3, 2.7427086e+2, -311962.8, -391279.6, -5.448616, 0.0006186281, -0.000121987265, -311962.8, -59816.797, 0.0, 10.004158, 9.90041 
5.415275e+3, 2.841632e+2, -225451.75, -317901.72, 4.268186, 0.000618438, 0.00030802045, -225451.75, -70250.734, 0.0, 10.004157, 9.8835335 
5.415275e+3, 2.9404783e+2, -125763.445, -217598.84, -3.300983, 0.0006182628, -0.00017534448, -125763.445, -67431.4, 0.0, 10.004158, 9.884317 
5.415274e+3, 3.0396026e+2, -36190.773, -84875.4, 5.2227254, 0.00061814586, 0.00024729958, -36190.773, -36190.773, 0.0, 10.004159, 9.940085 
5.4152733e+3, 3.139022e+2, -35125.555, -82665.77, -2.9778543, 0.00061811804, 0.000011021021, -35125.555, -35125.555, 0.0, 10.004161, 9.941576 
5.425293e+3, 1.250628e+2, -1714580.1, -1723508.6, 3.449317, 0.00063029607, 0.00016467347, -1714580.1, -194.5166, 0.0, 10.004297, 9.992464 
5.425292e+3, 1.3505511e+2, -1617228.5, -1626746.9, -5.0753984, 0.0006296372, -0.000014398158, -1617228.5, -767.65424, 0.0, 10.004294, 9.99168 
5.425291e+3, 1.450409e+2, -1529143.0, -1547471.6, 0.91370344, 0.0006291889, 0.00024709888, -1529143.0, -10542.745, 0.0, 10.004292, 9.980007 
5.42529e+3, 1.5502088e+2, -1431443.1, -1450173.1, -7.855354, 0.0006289379, 0.000058214497, -1431443.1, -10646.787, 0.0, 10.004289, 9.979476 
5.425289e+3, 1.649942e+2, -1343480.1, -1371454.8, -2.675412, 0.0006285878, 0.00014014643, -1343480.1, -20422.508, 0.0, 10.004286, 9.967312 
5.425288e+3, 1.7496157e+2, -1245549.4, -1273838.1, -10.717746, 0.00062814075, 0.000035988727, -1245549.4, -20171.918, 0.0, 10.004283, 9.966898 
5.4252875e+3, 1.8492228e+2, -1157514.5, -1195321.3, -4.340471, 0.00062777195, 0.00018014896, -1157514.5, -29752.002, 0.0, 10.004281, 9.954428 
5.425287e+3, 1.9487675e+2, -1059391.5, -1097459.1, -13.209561, 0.0006274804, 0.000047106285, -1059391.5, -29182.664, 0.0, 10.004278, 9.954084 
5.4252857e+3, 2.0482452e+2, -971251.1, -1019092.2, -3.6186218, 0.00062715076, 0.00016783876, -971251.1, -38530.734, 0.0, 10.004275, 9.9413185 
5.4252845e+3, 2.1476589e+2, -872990.5, -921091.75, -12.517198, 0.0006267801, -0.000027475626, -872990.5, -37695.375, 0.0, 10.004273, 9.940977 
5.425284e+3, 2.2470054e+2, -784727.9, -842858.6, -2.4473357, 0.0006264046, 0.00021820475, -784727.9, -46792.395, 0.0, 10.004271, 9.92793 
5.4252833e+3, 2.3462853e+2, -686319.7, -744704.44, -11.15402, 0.00062602246, 0.000004650307, -686319.7, -45678.57, 0.0, 10.004269, 9.927599 
5.425282e+3, 2.4454957e+2, -598018.3, -666788.94, -0.62160903, 0.0006256847, 0.00016503202, -598018.3, -54603.473, 0.0, 10.004268, 9.914152 
5.4252815e+3, 2.5446385e+2, -499290.53, -568137.56, -9.303029, 0.0006253978, -0.000018713356, -499290.53, -53035.555, 0.0, 10.004266, 9.914052 
5.425281e+3, 2.6437104e+2, -411082.8, -490826.72, 1.6351538, 0.00062514545, 0.00022569745, -411082.8, -61918.22, 0.0, 10.004265, 9.899966 
5.4252803e+3, 2.7427155e+2, -311821.78, -391238.13, -6.7751684, 0.0006249354, -0.00012203965, -311821.78, -59682.27, 0.0, 10.004264, 9.900385 
5.42528e+3, 2.8416386e+2, -225310.33, -317859.25, 3.1701274, 0.0006247381, 0.00030797409, -225310.33, -70115.56, 0.0, 10.004264, 9.88351 
5.4252785e+3, 2.9404843e+2, -125622.65, -217557.02, -4.59856, 0.0006245557, -0.00017525058, -125622.65, -67296.625, 0.0, 10.004265, 9.884294 
5.4252785e+3, 3.0396086e+2, -36053.773, -84839.555, 4.2436733, 0.0006244433, 0.00024738006, -36053.773, -36053.773, 0.0, 10.004266, 9.940059 
5.425278e+3, 3.1390277e+2, -34989.1, -82630.61, -3.9162555, 0.00062443723, 0.000010863048, -34989.1, -34989.1, 0.0, 10.004267, 9.941548 
5.4352975e+3, 1.250638e+2, -1714598.4, -1723545.0, 2.3359241, 0.000636659, 0.00016478532, -1714598.4, -222.8125, 0.0, 10.004298, 9.992441 
5.435296e+3, 1.3505611e+2, -1617246.6, -1626783.1, -6.1883893, 0.0006359498, -0.000013803605, -1617246.6, -795.54156, 0.0, 10.004295, 9.991657 
5.4352957e+3, 1.4504185e+2, -1529161.4, -1547508.4, -0.20886967, 0.00063546526, 0.00024759135, -1529161.4, -10570.653, 0.0, 10.0042925, 9.979983 
5.4352945e+3, 1.5502182e+2, -1431461.4, -1450209.8, -8.979601, 0.00063519157, 0.00005803153, -1431461.4, -10674.263, 0.0, 10.00429, 9.979452 
5.4352933e+3, 1.6499513e+2, -1343496.6, -1371488.1, -3.7741559, 0.0006348833, 0.00014001277, -1343496.6, -20447.975, 0.0, 10.004287, 9.967291 
5.435293e+3, 1.7496248e+2, -1245565.6, -1273871.3, -11.818124, 0.00063454243, 0.000036626152, -1245565.6, -20197.006, 0.0, 10.004284, 9.966877 
5.4352915e+3, 1.8492316e+2, -1157532.6, -1195358.0, -5.385334, 0.0006341388, 0.00018079532, -1157532.6, -29778.643, 0.0, 10.004281, 9.954404 
5.435291e+3, 1.948776e+2, -1059409.3, -1097495.8, -14.258727, 0.00063366827, 0.000046982626, -1059409.3, -29208.873, 0.0, 10.004279, 9.954061 
5.4352903e+3, 2.0482536e+2, -971269.2, -1019129.44, -4.646902, 0.0006333297, 0.00016757949, -971269.2, -38556.96, 0.0, 10.004276, 9.941295 
5.435289e+3, 2.147667e+2, -873008.4, -921128.8, -13.5444975, 0.0006331302, -0.00002719823, -873008.3, -37721.15, 0.0, 10.004273, 9.940953 
5.435288e+3, 2.2470133e+2, -784745.56, -842895.6, -3.2383115, 0.00063278235, 0.00021859507, -784745.56, -46817.813, 0.0, 10.0042715, 9.927906 
5.4352874e+3, 2.3462929e+2, -686337.2, -744741.2, -11.943792, 0.0006322685, 0.000004683372, -686337.2, -45703.54, 0.0, 10.00427, 9.927575 
5.435287e+3, 2.445503e+2, -598036.2, -666826.56, -1.2663971, 0.0006319151, 0.00016493292, -598036.2, -54628.527, 0.0, 10.004268, 9.914127 
5.435286e+3, 2.5446457e+2, -499308.16, -568175.06, -9.939398, 0.000631749, -0.000018680383, -499308.16, -53060.156, 0.0, 10.004267, 9.914027 
5.435285e+3, 2.643717e+2, -411100.44, -490864.4, 1.3193566, 0.0006315344, 0.00022578327, -411100.44, -61942.56, 0.0, 10.004266, 9.899941 
5.4352844e+3, 2.742722e+2, -311839.2, -391275.6, -7.0741463, 0.0006312578, -0.00012200044, -311839.2, -59706.145, 0.0, 10.004265, 9.90036 
5.435284e+3, 2.841645e+2, -225326.98, -317895.44, 3.236387, 0.0006310211, 0.00030798567, -225326.98, -70138.46, 0.0, 10.004265, 9.883485 
5.435283e+3, 2.9404905e+2, -125639.04, -217592.86, -4.4996047, 0.00063083635, -0.0001752412, -125639.04, -67319.016, 0.0, 10.004266, 9.88427 
5.4352826e+3, 3.0396143e+2, -36071.94, -84879.18, 4.741404, 0.000630765, 0.00024736466, -36071.94, -36071.94, 0.0, 10.004266, 9.940031 
5.435282e+3, 3.1390333e+2, -35007.51, -82670.72, -3.374005, 0.0006308633, 0.000010791195, -35007.51, -35007.51, 0.0, 10.004268, 9.941522 
5.4453015e+3, 1.2506482e+2, -1714441.1, -1723487.4, 3.3529413, 0.0006430312, 0.00016519862, -1714441.1, -75.41826, 0.0, 10.004407, 9.992417 
5.445301e+3, 1.3505709e+2, -1617090.4, -1626726.5, -5.3823977, 0.0006423099, -0.0000134785705, -1617090.4, -649.0358, 0.0, 10.004404, 9.991634 
5.4453e+3, 1.4504284e+2, -1529006.4, -1547453.4, 0.35929424, 0.00064181205, 0.00024784877, -1529006.4, -10425.235, 0.0, 10.004401, 9.97996 
5.4452986e+3, 1.5502277e+2, -1431307.5, -1450155.8, -8.674021, 0.00064152345, 0.000058240967, -1431307.5, -10529.687, 0.0, 10.004398, 9.979428 
5.445298e+3, 1.6499604e+2, -1343341.9, -1371431.5, -3.6672058, 0.0006412049, 0.00014021785, -1343341.9, -20302.307, 0.0, 10.0043955, 9.967269 
5.445297e+3, 1.7496338e+2, -1245412.1, -1273815.8, -11.886041, 0.0006408584, 0.00003687082, -1245412.1, -20052.297, 0.0, 10.004393, 9.966855 
5.445296e+3, 1.8492404e+2, -1157381.9, -1195307.3, -5.615742, 0.0006404727, 0.00018104228, -1157381.9, -29636.629, 0.0, 10.00439, 9.95438 
5.445295e+3, 1.9487844e+2, -1059259.8, -1097445.9, -14.781362, 0.0006400441, 0.00004719346, -1059259.8, -29067.703, 0.0, 10.004387, 9.954037 
5.4452944e+3, 2.0482619e+2, -971120.44, -1019080.6, -5.284102, 0.0006396808, 0.00016773738, -971120.44, -38416.324, 0.0, 10.004384, 9.94127 
5.445293e+3, 2.147675e+2, -872860.1, -921080.6, -14.291898, 0.00063938583, -0.00002711087, -872860.1, -37580.836, 0.0, 10.004382, 9.940928 
5.4452926e+3, 2.247021e+2, -784598.2, -842848.6, -4.0310903, 0.0006390403, 0.00021866692, -784598.2, -46678.11, 0.0, 10.004379, 9.927881 
5.445292e+3, 2.3463005e+2, -686190.94, -744695.25, -13.045623, 0.0006386372, 0.0000048005927, -686190.94, -45564.746, 0.0, 10.004377, 9.92755 
5.445291e+3, 2.4455105e+2, -597890.8, -666781.7, -2.3485503, 0.0006383144, 0.00016504266, -597890.8, -54490.344, 0.0, 10.004375, 9.914103 
5.44529e+3, 2.5446528e+2, -499163.38, -568130.9, -11.0754175, 0.0006380848, -0.000018640156, -499163.38, -52922.324, 0.0, 10.0043745, 9.914002 
5.4452896e+3, 2.643724e+2, -410956.4, -490821.44, 0.32900953, 0.00063784263, 0.0002258076, -410956.4, -61805.23, 0.0, 10.004374, 9.899916 
5.445289e+3, 2.7427286e+2, -311696.0, -391233.53, -8.286496, 0.0006375837, -0.00012192467, -311696.0, -59569.43, 0.0, 10.004373, 9.900335 
5.445288e+3, 2.8416514e+2, -225183.66, -317852.47, 2.189577, 0.00063737243, 0.0003080437, -225183.66, -70001.34, 0.0, 10.004373, 9.883461 
5.445288e+3, 2.9404965e+2, -125496.67, -217550.7, -5.6030216, 0.0006372232, -0.00017529505, -125496.67, -67182.625, 0.0, 10.004374, 9.884245 
5.445287e+3, 3.03962e+2, -35933.37, -84842.83, 3.950276, 0.0006371528, 0.00024729382, -35933.37, -35933.37, 0.0, 10.004374, 9.940004 
5.445286e+3, 3.1390387e+2, -34869.305, -82634.93, -4.264251, 0.0006372014, 0.00001084474, -34869.305, -34869.305, 0.0, 10.004375, 9.941494 
5.455306e+3, 1.2506585e+2, -1714459.9, -1723524.6, 2.1776023, 0.0006494184, 0.00016587901, -1714459.9, -104.176575, 0.0, 10.004408, 9.992394 
5.455305e+3, 1.3505809e+2, -1617109.0, -1626763.5, -6.5615883, 0.00064871897, -0.000013393733, -1617109.0, -677.3743, 0.0, 10.004405, 9.991611 
5.4553044e+3, 1.450438e+2, -1529025.4, -1547491.3, -0.8217781, 0.000648228, 0.00024789688, -1529025.4, -10453.708, 0.0, 10.004402, 9.979937 
5.455303e+3, 1.5502371e+2, -1431326.3, -1450193.4, -9.853046, 0.00064793153, 0.00005879895, -1431326.3, -10557.726, 0.0, 10.004399, 9.979404 
5.455302e+3, 1.6499698e+2, -1343358.6, -1371465.6, -4.838816, 0.0006475562, 0.0001407235, -1343358.6, -20328.129, 0.0, 10.004396, 9.967247 
5.4553014e+3, 1.7496428e+2, -1245428.6, -1273849.6, -13.062019, 0.0006471044, 0.00003676509, -1245428.6, -20077.715, 0.0, 10.004394, 9.966833 
5.4553e+3, 1.8492492e+2, -1157400.5, -1195345.1, -6.7178125, 0.0006467837, 0.00018093307, -1157400.5, -29663.844, 0.0, 10.004391, 9.954356 
5.455299e+3, 1.9487931e+2, -1059278.1, -1097483.6, -15.884128, 0.0006465938, 0.00004770152, -1059278.1, -29094.484, 0.0, 10.004388, 9.954013 
5.455299e+3, 2.0482703e+2, -971138.7, -1019118.25, -6.241, 0.00064619153, 0.000168266, -971138.7, -38442.73, 0.0, 10.004385, 9.941246 
5.455298e+3, 2.147683e+2, -872878.1, -921118.1, -15.251347, 0.0006455637, -0.000027193557, -872878.1, -37606.785, 0.0, 10.004383, 9.940905 
5.4552966e+3, 2.247029e+2, -784616.5, -842886.9, -4.8991117, 0.0006451981, 0.0002184543, -784616.5, -46704.11, 0.0, 10.00438, 9.927856 
5.4552966e+3, 2.3463081e+2, -686209.06, -744733.25, -13.909482, 0.0006451217, 0.0000049919095, -686209.06, -45590.293, 0.0, 10.004378, 9.9275255 
5.4552954e+3, 2.4455178e+2, -597908.7, -666819.6, -2.9289138, 0.00064487045, 0.00016533757, -597908.7, -54515.465, 0.0, 10.004376, 9.914078 
5.455294e+3, 2.5446597e+2, -499181.06, -568168.56, -11.64822, 0.00064441306, -0.000018594132, -499181.06, -52946.977, 0.0, 10.004375, 9.913978 
5.4552937e+3, 2.6437306e+2, -410974.4, -490860.03, 0.015392775, 0.0006440853, 0.0002257765, -410974.4, -61829.96, 0.0, 10.0043745, 9.899891 
5.4552937e+3, 2.742735e+2, -311713.84, -391271.9, -8.583191, 0.00064391916, -0.000121817124, -311713.84, -59593.707, 0.0, 10.004374, 9.90031 
5.4552925e+3, 2.8416577e+2, -225200.45, -317889.0, 2.2183013, 0.00064379093, 0.00030814216, -225200.45, -70024.36, 0.0, 10.004374, 9.883436 
5.455292e+3, 2.9405028e+2, -125513.17, -217586.84, -5.5460534, 0.0006437111, -0.00017540625, -125513.17, -67205.1, 0.0, 10.004374, 9.884221 
5.455291e+3, 3.0396262e+2, -35951.758, -84882.97, 4.4252176, 0.0006436058, 0.00024717272, -35951.758, -35951.758, 0.0, 10.0043745, 9.939977 
5.4552907e+3, 3.1390446e+2, -34887.945, -82675.58, -3.746146, 0.00064346683, 0.000011009651, -34887.945, -34887.945, 0.0, 10.004376, 9.941465 
5.465311e+3, 1.2506688e+2, -1714298.9, -1723466.0, 3.38662, 0.0006558356, 0.0001662241, -1714298.9, 46.751003, 0.0, 10.00452, 9.992371 
5.4653096e+3, 1.350591e+2, -1616949.4, -1626706.0, -5.70738, 0.0006551357, -0.000012985752, -1616949.4, -527.57513, 0.0, 10.004517, 9.991587 
5.4653084e+3, 1.4504479e+2, -1528867.1, -1547435.1, -0.20093483, 0.00065464684, 0.00024826868, -1528867.1, -10304.996, 0.0, 10.004514, 9.979912 
5.465308e+3, 1.5502468e+2, -1431169.3, -1450138.3, -9.375532, 0.0006543546, 0.000059037426, -1431169.3, -10410.037, 0.0, 10.00451, 9.979381 
5.4653066e+3, 1.649979e+2, -1343200.8, -1371408.1, -4.5267377, 0.0006539762, 0.00014092463, -1343200.8, -20179.43, 0.0, 10.004507, 9.967225 
5.4653054e+3, 1.7496519e+2, -1245271.9, -1273793.0, -13.020821, 0.0006535144, 0.00003702428, -1245271.9, -19929.848, 0.0, 10.004504, 9.966811 
5.465305e+3, 1.849258e+2, -1157246.6, -1195293.4, -6.827901, 0.0006531737, 0.00018119096, -1157246.6, -29518.613, 0.0, 10.004501, 9.954331 
5.465304e+3, 1.9488017e+2, -1059125.3, -1097432.9, -16.168823, 0.0006529538, 0.000047897684, -1059125.3, -28950.102, 0.0, 10.0044985, 9.953988 
5.465303e+3, 2.0482786e+2, -970986.9, -1019068.5, -6.61299, 0.0006525649, 0.00016842937, -970986.9, -38299.098, 0.0, 10.004496, 9.941221 
5.4653025e+3, 2.1476912e+2, -872727.44, -921069.3, -15.9149, 0.00065199647, -0.000027032524, -872727.44, -37464.023, 0.0, 10.004493, 9.94088 
5.465301e+3, 2.2470367e+2, -784466.75, -842839.25, -5.6192865, 0.00065163145, 0.00021859315, -784466.75, -46562.02, 0.0, 10.004491, 9.927832 
5.4653007e+3, 2.3463158e+2, -686060.06, -744686.44, -14.70913, 0.0006514906, 0.0000050867548, -686060.06, -45448.73, 0.0, 10.004488, 9.9275 
5.4653e+3, 2.4455252e+2, -597760.56, -666773.9, -3.6520705, 0.0006512275, 0.000165423, -597760.56, -54374.473, 0.0, 10.004487, 9.914053 
5.465299e+3, 2.5446668e+2, -499033.9, -568123.75, -12.648399, 0.00065081974, -0.000018477742, -499033.9, -52806.75, 0.0, 10.004485, 9.913952 
5.465298e+3, 2.6437375e+2, -410828.28, -490816.53, -0.9350215, 0.0006505213, 0.00022588653, -410828.28, -61690.52, 0.0, 10.004484, 9.899865 
5.4652977e+3, 2.7427417e+2, -311568.72, -391229.38, -9.628984, 0.00065035897, -0.000121759964, -311568.72, -59455.04, 0.0, 10.004483, 9.900284 
5.465297e+3, 2.841664e+2, -225055.11, -317845.34, 1.3947133, 0.0006502199, 0.00030816422, -225055.11, -69885.195, 0.0, 10.004483, 9.883412 
5.4652965e+3, 2.9405087e+2, -125368.664, -217543.92, -6.456657, 0.0006501094, -0.0001753958, -125368.664, -67066.55, 0.0, 10.004483, 9.884196 
5.465296e+3, 3.0396318e+2, -35811.23, -84846.25, 3.750102, 0.0006499835, 0.00024718794, -35811.23, -35811.23, 0.0, 10.004484, 9.939949 
5.4652953e+3, 3.13905e+2, -34747.906, -82639.52, -4.641425, 0.0006498388, 0.000011055058, -34747.906, -34747.906, 0.0, 10.004485, 9.941438 
5.4753155e+3, 1.250679e+2, -1714318.4, -1723504.8, 2.0877912, 0.00066228653, 0.0001662723, -1714318.4, 17.175173, 0.0, 10.004521, 9.992346 
5.475314e+3, 1.350601e+2, -1616968.8, -1626744.5, -7.001763, 0.00066156633, -0.000012292109, -1616968.8, -556.71576, 0.0, 10.004518, 9.991563 
5.475313e+3, 1.4504576e+2, -1528886.3, -1547473.6, -1.4745119, 0.0006610751, 0.00024892626, -1528886.3, -10333.762, 0.0, 10.004515, 9.979888 
5.475312e+3, 1.5502562e+2, -1431188.3, -1450176.5, -10.653213, 0.0006607977, 0.000058992075, -1431188.3, -10438.354, 0.0, 10.004511, 9.979356 
5.475311e+3, 1.6499884e+2, -1343218.1, -1371443.3, -5.741978, 0.0006604641, 0.00014085554, -1343218.1, -20205.814, 0.0, 10.004508, 9.967203 
5.4753107e+3, 1.749661e+2, -1245289.0, -1273828.0, -14.23668, 0.00066007674, 0.000037606736, -1245289.0, -19955.832, 0.0, 10.004505, 9.966789 
5.4753095e+3, 1.8492669e+2, -1157265.5, -1195332.0, -7.9825006, 0.00065964076, 0.00018177375, -1157265.5, -29546.17, 0.0, 10.004502, 9.954307 
5.4753083e+3, 1.9488102e+2, -1059144.0, -1097471.3, -17.326565, 0.0006591521, 0.00004781623, -1059144.0, -28977.201, 0.0, 10.004499, 9.953963 
5.475308e+3, 2.048287e+2, -971005.6, -1019107.4, -7.6337705, 0.0006588231, 0.0001682679, -971005.6, -38326.063, 0.0, 10.004497, 9.9411955 
5.4753065e+3, 2.1476993e+2, -872746.0, -921108.0, -16.934391, 0.00065866235, -0.000026655709, -872746.0, -37490.535, 0.0, 10.004494, 9.940854 
5.475306e+3, 2.2470447e+2, -784485.2, -842877.8, -6.464579, 0.00065831625, 0.0002190434, -784485.2, -46588.145, 0.0, 10.004492, 9.927806 
5.4753053e+3, 2.3463233e+2, -686078.25, -744724.8, -15.553841, 0.0006577634, 0.0000050952544, -686078.25, -45474.375, 0.0, 10.004489, 9.927475 
5.475304e+3, 2.4455325e+2, -597779.0, -666812.9, -4.2715693, 0.00065741426, 0.00016532172, -597779.0, -54400.098, 0.0, 10.004488, 9.914027 
5.4753035e+3, 2.544674e+2, -499052.13, -568162.56, -13.257349, 0.00065730273, -0.000018299535, -499052.13, -52831.918, 0.0, 10.004486, 9.913926 
5.475303e+3, 2.6437446e+2, -410846.5, -490855.56, -1.2820466, 0.0006571358, 0.0002261211, -410846.5, -61715.42, 0.0, 10.004485, 9.899838 
5.4753023e+3, 2.7427486e+2, -311586.72, -391268.2, -9.960763, 0.0006568981, -0.00012174859, -311586.72, -59479.453, 0.0, 10.004484, 9.900258 
5.475301e+3, 2.8416702e+2, -225072.08, -317882.3, 1.4115764, 0.00065666443, 0.00030811754, -225072.08, -69908.35, 0.0, 10.004484, 9.883388 
5.4753006e+3, 2.9405147e+2, -125385.34, -217580.5, -6.4150534, 0.00065643433, -0.00017527737, -125385.34, -67089.164, 0.0, 10.004484, 9.8841715 
5.4753006e+3, 3.0396378e+2, -35830.05, -84887.36, 4.177886, 0.00065630063, 0.0002473241, -35830.05, -35830.05, 0.0, 10.004485, 9.93992 
5.4753e+3, 3.1390554e+2, -34767.027, -82681.2, -4.1614394, 0.00065631216, 0.000010992653, -34767.027, -34767.027, 0.0, 10.004486, 9.941409 
5.48532e+3, 1.2506893e+2, -1714154.1, -1723445.1, 3.2722528, 0.0006688226, 0.00016678963, -1714154.1, 171.35558, 0.0, 10.004635, 9.992321 
5.485319e+3, 1.3506112e+2, -1616805.8, -1626685.9, -5.918723, 0.0006680569, -0.000012023075, -1616805.8, -403.61472, 0.0, 10.004632, 9.991538 
5.485318e+3, 1.4504674e+2, -1528724.6, -1547416.5, -0.5844501, 0.00066754856, 0.00024912544, -1528724.6, -10181.785, 0.0, 10.004628, 9.979863 
5.485317e+3, 1.5502658e+2, -1431027.9, -1450120.5, -10.108799, 0.0006672816, 0.000059295162, -1431027.9, -10287.396, 0.0, 10.004624, 9.979331 
5.485316e+3, 1.6499977e+2, -1343057.0, -1371384.8, -5.380305, 0.00066695357, 0.00014119426, -1343057.0, -20053.865, 0.0, 10.0046215, 9.96718 
5.485315e+3, 1.74967e+2, -1245129.1, -1273770.6, -14.027966, 0.00066656683, 0.000037913745, -1245129.1, -19804.957, 0.0, 10.004618, 9.966766 
5.485314e+3, 1.8492757e+2, -1157108.6, -1195279.4, -7.878006, 0.0006661171, 0.0001820319, -1157108.6, -29398.03, 0.0, 10.004615, 9.954281 
5.485313e+3, 1.9488189e+2, -1058988.3, -1097419.5, -17.477396, 0.00066560006, 0.00004800778, -1058988.1, -28829.838, 0.0, 10.004612, 9.953938 
5.485312e+3, 2.0482953e+2, -970850.9, -1019056.8, -7.890251, 0.00066527305, 0.00016843282, -970850.9, -38179.508, 0.0, 10.004609, 9.941171 
5.485312e+3, 2.1477073e+2, -872592.56, -921058.44, -17.352917, 0.00066514657, -0.000026474987, -872592.56, -37345.016, 0.0, 10.004606, 9.940829 
5.4853106e+3, 2.2470525e+2, -784332.7, -842829.4, -6.867368, 0.00066480663, 0.00021922709, -784332.7, -46443.332, 0.0, 10.004603, 9.927781 
5.4853094e+3, 2.3463309e+2, -685926.6, -744677.2, -16.22409, 0.0006642287, 0.0000052675678, -685926.6, -45330.18, 0.0, 10.0046015, 9.927449 
5.4853094e+3, 2.4455398e+2, -597628.3, -666766.44, -4.9578824, 0.0006638789, 0.0001654768, -597628.3, -54256.625, 0.0, 10.0046, 9.914001 
5.485308e+3, 2.5446808e+2, -498902.7, -568117.2, -14.045627, 0.00066379545, -0.000018168515, -498902.7, -52689.402, 0.0, 10.004598, 9.9139 
5.4853076e+3, 2.6437512e+2, -410698.06, -490811.34, -1.9078493, 0.0006636293, 0.0002262072, -410698.06, -61573.65, 0.0, 10.004597, 9.899813 
5.4853064e+3, 2.7427548e+2, -311439.2, -391224.88, -10.734952, 0.0006633585, -0.00012173336, -311439.2, -59338.363, 0.0, 10.004596, 9.900231 
5.4853064e+3, 2.8416768e+2, -224924.5, -317838.16, 0.7366205, 0.0006631115, 0.00030816067, -224924.5, -69766.945, 0.0, 10.004595, 9.883362 
5.485305e+3, 2.9405206e+2, -125238.84, -217537.23, -7.3619537, 0.00066289486, -0.00017507377, -125238.84, -66948.59, 0.0, 10.004596, 9.884147 
5.4853046e+3, 3.0396435e+2, -35687.555, -84849.85, 3.4699676, 0.0006627672, 0.0002474859, -35687.555, -35687.555, 0.0, 10.004596, 9.939893 
5.485304e+3, 3.139061e+2, -34625.39, -82644.48, -4.676535, 0.0006627737, 0.000010817102, -34625.39, -34625.39, 0.0, 10.004597, 9.9413805 
5.495324e+3, 1.2506998e+2, -1714173.8, -1723484.3, 1.8707601, 0.00067544123, 0.00016772, -1714173.8, 141.54987, 0.0, 10.004637, 9.992297 
5.4953235e+3, 1.3506211e+2, -1616825.3, -1626724.9, -7.3215766, 0.0006746076, -0.000012129221, -1616825.3, -432.96957, 0.0, 10.004633, 9.991513 
5.4953223e+3, 1.4504772e+2, -1528744.6, -1547456.4, -1.9547238, 0.0006740692, 0.00024891994, -1528744.6, -10211.32, 0.0, 10.004629, 9.979837 
5.495321e+3, 1.5502754e+2, -1431047.5, -1450160.3, -11.476674, 0.00067380886, 0.000059905677, -1431047.5, -10316.474, 0.0, 10.004625, 9.979306 
5.4953206e+3, 1.650007e+2, -1343074.5, -1371420.5, -6.688282, 0.0006734515, 0.00014189251, -1343074.5, -20080.559, 0.0, 10.004622, 9.967157 
5.4953194e+3, 1.7496791e+2, -1245146.5, -1273806.1, -15.340439, 0.00067300006, 0.000037976577, -1245146.5, -19831.23, 0.0, 10.004619, 9.966743 
5.495318e+3, 1.8492846e+2, -1157128.0, -1195319.0, -9.067926, 0.00067260885, 0.00018200261, -1157128.0, -29426.096, 0.0, 10.004616, 9.954256 
5.4953176e+3, 1.9488275e+2, -1059007.4, -1097459.0, -18.667906, 0.000672276, 0.000048440415, -1059007.4, -28857.459, 0.0, 10.004613, 9.953913 
5.495317e+3, 2.0483036e+2, -970870.0, -1019096.3, -9.010789, 0.00067189964, 0.00016888586, -970870.0, -38206.785, 0.0, 10.00461, 9.941145 
5.495316e+3, 2.1477154e+2, -872611.44, -921097.75, -18.475445, 0.0006714765, -0.000026468451, -872611.4, -37371.8, 0.0, 10.004607, 9.940804 
5.495315e+3, 2.2470602e+2, -784351.6, -842869.0, -7.713812, 0.00067113154, 0.0002191743, -784351.6, -46469.95, 0.0, 10.004604, 9.927754 
5.4953146e+3, 2.3463385e+2, -685945.4, -744716.6, -17.063665, 0.00067087164, 0.000005584348, -685945.4, -45356.344, 0.0, 10.004602, 9.9274235 
5.4953134e+3, 2.4455471e+2, -597646.94, -666805.94, -5.6554065, 0.0006705968, 0.00016585815, -597646.94, -54282.434, 0.0, 10.004601, 9.913975 
5.495312e+3, 2.544688e+2, -498921.06, -568156.4, -14.73918, 0.0006703033, -0.000018080103, -498921.06, -52714.715, 0.0, 10.004599, 9.913875 
5.495312e+3, 2.643758e+2, -410716.53, -490850.97, -2.2727592, 0.00067002216, 0.00022616112, -410716.53, -61598.793, 0.0, 10.004598, 9.899787 
5.4953116e+3, 2.7427617e+2, -311457.47, -391264.3, -11.082464, 0.0006697556, -0.000121714904, -311457.47, -59363.035, 0.0, 10.004597, 9.900206 
5.4953104e+3, 2.8416827e+2, -224941.98, -317876.25, 0.6916568, 0.00066956744, 0.000308283, -224941.98, -69790.59, 0.0, 10.004596, 9.883337 
5.49531e+3, 2.9405266e+2, -125256.06, -217574.98, -7.375575, 0.00066948246, -0.00017479606, -125256.055, -66971.72, 0.0, 10.004596, 9.884121 
5.49531e+3, 3.039649e+2, -35706.113, -84890.48, 3.759968, 0.00066937297, 0.00024766912, -35706.113, -35706.113, 0.0, 10.004597, 9.939865 
5.4953086e+3, 3.1390664e+2, -34644.14, -82685.48, -4.364001, 0.00066923077, 0.000010541409, -34644.14, -34644.14, 0.0, 10.004598, 9.941353 
5.5053294e+3, 1.25071e+2, -1714006.3, -1723423.4, 3.25551, 0.00068206136, 0.00016806193, -1714006.3, 298.92047, 0.0, 10.004753, 9.992271 
5.505328e+3, 1.3506313e+2, -1616659.0, -1626665.1, -6.2263017, 0.0006812027, -0.000011700193, -1616659.0, -276.63165, 0.0, 10.004749, 9.991488 
5.505327e+3, 1.4504871e+2, -1528579.8, -1547398.4, -1.0420079, 0.0006806471, 0.00024933624, -1528579.8, -10056.174, 0.0, 10.0047455, 9.979812 
5.5053264e+3, 1.550285e+2, -1430884.0, -1450103.1, -10.712108, 0.00068037695, 0.000060211587, -1430884.0, -10162.354, 0.0, 10.004742, 9.97928 
5.505325e+3, 1.6500165e+2, -1342910.1, -1371360.9, -6.070631, 0.00068000326, 0.00014215379, -1342910.1, -19925.393, 0.0, 10.004738, 9.9671335 
5.505324e+3, 1.7496882e+2, -1244983.5, -1273747.6, -15.00047, 0.000679529, 0.000038258448, -1244983.5, -19677.127, 0.0, 10.004734, 9.96672 
5.5053234e+3, 1.8492936e+2, -1156968.1, -1195265.4, -8.861177, 0.0006791611, 0.00018228874, -1156968.1, -29274.947, 0.0, 10.00473, 9.95423 
5.505322e+3, 1.948836e+2, -1058849.0, -1097406.6, -18.646704, 0.00067889836, 0.00004871435, -1058849.0, -28707.557, 0.0, 10.004727, 9.953887 
5.505321e+3, 2.0483121e+2, -970712.56, -1019044.94, -9.024244, 0.00067849795, 0.00016913423, -970712.56, -38057.598, 0.0, 10.004724, 9.941119 
5.505321e+3, 2.1477236e+2, -872454.75, -921047.2, -18.725601, 0.00067795115, -0.000026259906, -872454.7, -37223.063, 0.0, 10.004722, 9.940778 
5.50532e+3, 2.2470681e+2, -784196.0, -842819.56, -8.016946, 0.000677608, 0.00021936202, -784196.0, -46322.027, 0.0, 10.004719, 9.927729 
5.5053186e+3, 2.3463461e+2, -685791.44, -744668.5, -17.522203, 0.00067748886, 0.0000057724155, -685791.44, -45209.863, 0.0, 10.004716, 9.927398 
5.5053186e+3, 2.4455544e+2, -597494.1, -666758.9, -6.027007, 0.0006772337, 0.00016602143, -597494.1, -54136.79, 0.0, 10.004714, 9.913949 
5.5053174e+3, 2.544695e+2, -498768.97, -568110.2, -15.306174, 0.0006768178, -0.000017971211, -498768.97, -52569.555, 0.0, 10.004712, 9.913848 
5.505316e+3, 2.643765e+2, -410565.4, -490806.03, -2.7992039, 0.00067648996, 0.00022628707, -410565.4, -61454.36, 0.0, 10.004711, 9.89976 
5.5053157e+3, 2.742768e+2, -311307.66, -391220.47, -11.823886, 0.00067627145, -0.00012148234, -311307.66, -59219.656, 0.0, 10.004709, 9.900179 
5.5053157e+3, 2.8416893e+2, -224792.28, -317831.44, 0.129472, 0.00067611685, 0.00030845706, -224792.28, -69647.05, 0.0, 10.004709, 9.883311 
5.5053145e+3, 2.940533e+2, -125107.64, -217531.11, -7.8692036, 0.0006760456, -0.00017490376, -125107.64, -66829.2, 0.0, 10.004708, 9.884096 
5.505314e+3, 3.0396548e+2, -35561.74, -84852.59, 3.4538722, 0.0006759073, 0.0002475542, -35561.74, -35561.74, 0.0, 10.004709, 9.9398365 
5.505313e+3, 3.139072e+2, -34500.086, -82648.15, -5.1272874, 0.0006756738, 0.000010824547, -34500.086, -34500.086, 0.0, 10.00471, 9.941324 
5.515334e+3, 1.2507205e+2, -1714026.5, -1723463.8, 1.7663814, 0.0006886905, 0.00016788651, -1714026.5, 268.4644, 0.0, 10.004754, 9.992247 
5.515333e+3, 1.3506415e+2, -1616679.0, -1626705.3, -7.7169523, 0.0006878444, -0.000010800544, -1616679.0, -306.64606, 0.0, 10.00475, 9.991463 
5.515332e+3, 1.4504969e+2, -1528599.9, -1547438.9, -2.5042653, 0.00068728294, 0.00025029905, -1528599.9, -10086.035, 0.0, 10.004746, 9.979786 
5.515331e+3, 1.5502946e+2, -1430904.0, -1450143.5, -12.173754, 0.00068698847, 0.000060248876, -1430904.0, -10191.74, 0.0, 10.004743, 9.979255 
5.51533e+3, 1.6500258e+2, -1342928.3, -1371397.9, -7.470451, 0.0006866098, 0.00014203014, -1342928.3, -19952.684, 0.0, 10.004739, 9.967111 
5.515329e+3, 1.7496975e+2, -1245001.4, -1273784.4, -16.401817, 0.0006861499, 0.00003873295, -1245001.4, -19703.996, 0.0, 10.004735, 9.966697 
5.515328e+3, 1.8493024e+2, -1156987.9, -1195305.8, -10.196093, 0.00068577396, 0.0001828522, -1156987.9, -29303.387, 0.0, 10.004731, 9.954204 
5.515327e+3, 1.9488448e+2, -1058868.5, -1097446.9, -19.984882, 0.00068548025, 0.00004884786, -1058868.5, -28735.514, 0.0, 10.004728, 9.95386 
5.515326e+3, 2.0483205e+2, -970732.1, -1019085.4, -10.099712, 0.00068507827, 0.0001692018, -970732.1, -38085.324, 0.0, 10.004725, 9.9410925 
5.515325e+3, 2.1477318e+2, -872474.0, -921087.4, -19.79795, 0.0006845611, -0.000025873596, -872474.0, -37250.332, 0.0, 10.004723, 9.940751 
5.5153245e+3, 2.2470759e+2, -784215.2, -842859.9, -9.059327, 0.00068422576, 0.00021976132, -784215.2, -46348.953, 0.0, 10.00472, 9.927703 
5.515324e+3, 2.3463537e+2, -685810.44, -744708.5, -18.566086, 0.00068409013, 0.00000584624, -685810.4, -45236.277, 0.0, 10.004717, 9.927371 
5.5153227e+3, 2.4455619e+2, -597513.06, -666799.1, -6.696055, 0.00068380556, 0.00016599172, -597513.06, -54162.93, 0.0, 10.004715, 9.913922 
5.515322e+3, 2.5447023e+2, -498787.72, -568150.2, -15.96146, 0.00068334525, -0.000017844515, -498787.72, -52595.227, 0.0, 10.004713, 9.913822 
5.5153215e+3, 2.6437718e+2, -410584.3, -490846.56, -3.2603288, 0.0006830312, 0.00022656447, -410584.3, -61479.91, 0.0, 10.004712, 9.899733 
5.515321e+3, 2.7427748e+2, -311326.34, -391260.78, -12.271337, 0.0006828991, -0.00012106167, -311326.3, -59244.727, 0.0, 10.00471, 9.900151 
5.51532e+3, 2.8416955e+2, -224809.66, -317869.38, -0.02999361, 0.0006827556, 0.00030867584, -224809.66, -69670.57, 0.0, 10.00471, 9.8832855 
5.515319e+3, 2.9405388e+2, -125124.695, -217568.63, -8.011157, 0.0006825938, -0.00017535198, -125124.695, -66852.16, 0.0, 10.004709, 9.88407 
5.515319e+3, 3.0396608e+2, -35581.082, -84894.945, 3.718657, 0.0006823849, 0.00024717613, -35581.082, -35581.082, 0.0, 10.00471, 9.939807 
5.5153185e+3, 3.1390774e+2, -34519.75, -82691.11, -4.8098044, 0.0006821111, 0.000011600592, -34519.75, -34519.75, 0.0, 10.004711, 9.941295 
5.5253386e+3, 1.2507309e+2, -1713855.3, -1723401.8, 3.3131928, 0.0006953485, 0.00016827404, -1713855.3, 429.44815, 0.0, 10.004873, 9.992221 
5.525338e+3, 1.3506515e+2, -1616509.5, -1626644.6, -6.4611015, 0.0006945055, -0.000010388139, -1616509.5, -147.04752, 0.0, 10.0048685, 9.991437 
5.525337e+3, 1.4505069e+2, -1528431.8, -1547379.5, -1.4387239, 0.0006939483, 0.00025070153, -1528431.8, -9927.61, 0.0, 10.004865, 9.97976 
5.5253357e+3, 1.5503043e+2, -1430737.3, -1450085.3, -11.3198185, 0.0006936588, 0.000060606726, -1430737.3, -10034.483, 0.0, 10.00486, 9.979229 
5.5253345e+3, 1.6500352e+2, -1342761.0, -1371337.4, -6.7444906, 0.00069328933, 0.00014235858, -1342761.0, -19794.607, 0.0, 10.004856, 9.967086 
5.525333e+3, 1.7497067e+2, -1244835.5, -1273725.1, -15.865497, 0.000692843, 0.000039047492, -1244835.4, -19547.082, 0.0, 10.004852, 9.966672 
5.525333e+3, 1.8493114e+2, -1156825.0, -1195251.3, -9.765408, 0.0006924237, 0.00018315042, -1156825.0, -29149.215, 0.0, 10.0048485, 9.954178 
5.525332e+3, 1.9488534e+2, -1058706.6, -1097393.3, -19.814976, 0.0006920287, 0.000049127088, -1058706.6, -28582.111, 0.0, 10.004845, 9.953835 
5.525331e+3, 2.0483288e+2, -970571.44, -1019033.0, -9.989459, 0.00069165655, 0.00016946968, -970571.44, -37932.902, 0.0, 10.004842, 9.941066 
5.5253303e+3, 2.1477398e+2, -872315.25, -921036.4, -19.852892, 0.00069130765, -0.00002560883, -872315.2, -37099.508, 0.0, 10.004838, 9.940725 
5.525329e+3, 2.247084e+2, -784057.5, -842809.94, -9.104739, 0.00069096213, 0.00021999748, -784057.5, -46198.98, 0.0, 10.004835, 9.927676 
5.5253285e+3, 2.3463613e+2, -685653.3, -744659.4, -18.822971, 0.00069061876, 0.000006025542, -685653.3, -45086.625, 0.0, 10.004833, 9.927344 
5.525328e+3, 2.4455692e+2, -597356.9, -666751.0, -6.9284544, 0.0006902928, 0.0001661698, -597356.9, -54013.973, 0.0, 10.00483, 9.913896 
5.525327e+3, 2.5447094e+2, -498633.25, -568103.4, -16.390598, 0.00068998587, -0.000017602531, -498633.22, -52447.67, 0.0, 10.004828, 9.913795 
5.525326e+3, 2.6437783e+2, -410431.16, -490801.06, -3.5901568, 0.00068972533, 0.00022676222, -410431.16, -61333.438, 0.0, 10.004827, 9.899706 
5.525325e+3, 2.742781e+2, -311174.4, -391216.34, -12.672838, 0.0006895215, -0.00012104311, -311174.4, -59099.203, 0.0, 10.004826, 9.900125 
5.525325e+3, 2.8417018e+2, -224657.64, -317823.88, -0.3166089, 0.0006893196, 0.00030870273, -224657.64, -69524.695, 0.0, 10.004825, 9.88326 
5.5253243e+3, 2.9405448e+2, -124973.63, -217523.95, -8.622111, 0.00068911776, -0.00017506458, -124973.63, -66706.984, 0.0, 10.004824, 9.884045 
5.525324e+3, 3.0396664e+2, -35434.215, -84856.41, 3.269663, 0.0006889081, 0.0002474597, -35434.215, -35434.215, 0.0, 10.004824, 9.939778 
5.5253226e+3, 3.1390828e+2, -34373.9, -82653.46, -5.1378064, 0.0006886908, 0.000011493546, -34373.9, -34373.9, 0.0, 10.004825, 9.941265 
5.535344e+3, 1.2507415e+2, -1713876.1, -1723443.4, 1.6479169, 0.00070203986, 0.00016915465, -1713876.1, 398.2843, 0.0, 10.004874, 9.992194 
5.5353427e+3, 1.3506618e+2, -1616530.1, -1626686.0, -8.119042, 0.0007011915, -0.000010403472, -1616530.1, -177.72575, 0.0, 10.004869, 9.991411 
5.5353415e+3, 1.450517e+2, -1528452.4, -1547420.9, -3.0175405, 0.00070064724, 0.00025061241, -1528452.4, -9957.93, 0.0, 10.004866, 9.979734 
5.5353403e+3, 1.550314e+2, -1430757.5, -1450126.5, -12.90214, 0.0007003884, 0.00006124568, -1430757.5, -10064.332, 0.0, 10.004862, 9.979203 
5.535339e+3, 1.6500448e+2, -1342779.4, -1371375.0, -8.257195, 0.00070004055, 0.00014308337, -1342779.4, -19822.305, 0.0, 10.004857, 9.967062 
5.5353385e+3, 1.749716e+2, -1244853.6, -1273762.5, -17.380562, 0.0006996069, 0.000039221282, -1244853.6, -19574.336, 0.0, 10.004853, 9.966648 
5.5353373e+3, 1.8493202e+2, -1156845.1, -1195292.8, -11.126203, 0.0006991134, 0.00018321552, -1156845.1, -29178.191, 0.0, 10.004849, 9.954151 
5.535337e+3, 1.9488622e+2, -1058726.6, -1097434.5, -21.174837, 0.0006985557, 0.000049533926, -1058726.6, -28610.62, 0.0, 10.004847, 9.953808 
5.535336e+3, 2.0483373e+2, -970591.25, -1019074.06, -11.296732, 0.0006982408, 0.00016991302, -970591.25, -37960.96, 0.0, 10.004843, 9.941039 
5.535335e+3, 2.147748e+2, -872334.8, -921077.25, -21.16352, 0.00069818133, -0.000025451336, -872334.75, -37127.06, 0.0, 10.004839, 9.940699 
5.535334e+3, 2.2470918e+2, -784077.06, -842851.06, -10.073364, 0.0006978097, 0.00022008998, -784077.06, -46226.28, 0.0, 10.004836, 9.927649 
5.535333e+3, 2.3463689e+2, -685672.7, -744700.25, -19.78355, 0.0006970911, 0.0000062973654, -685672.6, -45113.45, 0.0, 10.004834, 9.927318 
5.5353326e+3, 2.4455765e+2, -597376.25, -666792.06, -7.7789307, 0.0006967134, 0.00016653026, -597376.25, -54040.508, 0.0, 10.004831, 9.913869 
5.5353314e+3, 2.5447163e+2, -498652.34, -568144.2, -17.236567, 0.00069673324, -0.000017259821, -498652.3, -52473.703, 0.0, 10.004829, 9.913768 
5.535331e+3, 2.6437855e+2, -410450.16, -490841.9, -4.133697, 0.0006965607, 0.0002268892, -410450.16, -61359.1, 0.0, 10.0048275, 9.899679 
5.53533e+3, 2.7427876e+2, -311193.16, -391256.97, -13.201663, 0.00069614616, -0.00012137871, -311193.16, -59124.36, 0.0, 10.004827, 9.900098 
5.5353296e+3, 2.841708e+2, -224675.61, -317863.13, -0.5104823, 0.0006958249, 0.00030856064, -224675.61, -69548.8, 0.0, 10.004826, 9.883234 
5.535329e+3, 2.9405507e+2, -124991.31, -217562.83, -8.786536, 0.0006956277, -0.0001741299, -124991.31, -66730.56, 0.0, 10.004825, 9.884019 
5.5353284e+3, 3.0396724e+2, -35453.434, -84898.55, 3.367325, 0.0006954787, 0.00024832512, -35453.434, -35453.434, 0.0, 10.004825, 9.93975 
5.535328e+3, 3.1390882e+2, -34393.336, -82696.03, -5.0115423, 0.0006954028, 0.000010607943, -34393.336, -34393.336, 0.0, 10.004826, 9.941236 
5.5453485e+3, 1.2507519e+2, -1713701.8, -1723380.3, 3.2097056, 0.000708852, 0.00016970617, -1713701.8, 562.3266, 0.0, 10.004995, 9.992168 
5.545348e+3, 1.3506721e+2, -1616357.1, -1626624.0, -6.6165047, 0.00070794957, -0.000010068752, -1616357.1, -14.751051, 0.0, 10.004991, 9.9913845 
5.545347e+3, 1.4505269e+2, -1528280.9, -1547360.6, -1.6536425, 0.00070738385, 0.0002508995, -1528280.9, -9796.263, 0.0, 10.004987, 9.979708 
5.5453455e+3, 1.5503238e+2, -1430587.6, -1450067.4, -11.867104, 0.000707135, 0.0000616498, -1430587.6, -9903.926, 0.0, 10.004982, 9.9791765 
5.5453444e+3, 1.6500542e+2, -1342608.8, -1371313.5, -7.3969674, 0.0007067745, 0.00014351425, -1342608.8, -19660.947, 0.0, 10.004977, 9.967038 
5.545343e+3, 1.749725e+2, -1244684.4, -1273702.1, -16.740536, 0.00070630555, 0.00003958944, -1244684.4, -19414.113, 0.0, 10.004973, 9.966624 
5.5453426e+3, 1.8493292e+2, -1156679.1, -1195237.3, -10.548102, 0.00070582976, 0.00018353434, -1156679.1, -29020.98, 0.0, 10.004969, 9.954124 
5.545342e+3, 1.9488709e+2, -1058562.3, -1097380.4, -20.74809, 0.00070534355, 0.00004981717, -1058562.1, -28454.766, 0.0, 10.004965, 9.953781 
5.545341e+3, 2.0483458e+2, -970428.0, -1019021.0, -10.9370165, 0.00070499623, 0.00017018054, -970428.0, -37805.984, 0.0, 10.004961, 9.941012 
5.5453396e+3, 2.1477562e+2, -872172.5, -921025.06, -21.07329, 0.0007047948, -0.000025178686, -872172.5, -36972.785, 0.0, 10.004958, 9.940671 
5.545339e+3, 2.2470997e+2, -783915.94, -842799.94, -9.963041, 0.0007044172, 0.00022036687, -783915.94, -46072.867, 0.0, 10.004954, 9.927622 
5.5453384e+3, 2.3463765e+2, -685513.2, -744650.44, -19.84587, 0.00070384296, 0.0000065776658, -685513.2, -44961.48, 0.0, 10.0049515, 9.92729 
5.545337e+3, 2.4455838e+2, -597218.06, -666743.44, -7.822785, 0.00070348993, 0.00016676825, -597218.06, -53889.55, 0.0, 10.004949, 9.913841 
5.5453366e+3, 2.5447235e+2, -498495.3, -568096.6, -17.422266, 0.00070339453, -0.000017117673, -498495.3, -52323.64, 0.0, 10.004947, 9.913741 
5.545336e+3, 2.643792e+2, -410294.22, -490795.53, -4.215688, 0.0007031644, 0.00022701846, -410294.22, -61209.832, 0.0, 10.004945, 9.899652 
5.545335e+3, 2.7427942e+2, -311038.4, -391211.66, -13.521778, 0.0007027643, -0.00012115846, -311038.4, -58976.027, 0.0, 10.004943, 9.90007 
5.545334e+3, 2.841714e+2, -224521.11, -317817.06, -0.74427366, 0.00070246815, 0.00030878984, -224521.11, -69400.445, 0.0, 10.004942, 9.883207 
5.545334e+3, 2.940557e+2, -124838.41, -217517.9, -9.101899, 0.0007023102, -0.00017400303, -124838.41, -66583.54, 0.0, 10.004941, 9.883992 
5.5453336e+3, 3.039678e+2, -35304.676, -84859.26, 3.2247734, 0.0007021535, 0.00024839924, -35304.676, -35304.676, 0.0, 10.004941, 9.93972 
5.5453324e+3, 3.1390935e+2, -34245.285, -82657.42, -5.2762303, 0.0007020011, 0.000010704183, -34245.285, -34245.285, 0.0, 10.004941, 9.941207 
5.555354e+3, 1.2507625e+2, -1713722.8, -1723422.1, 1.4600594, 0.0007157777, 0.00016996992, -1713722.8, 531.0428, 0.0, 10.004997, 9.992142 
5.5553526e+3, 1.3506824e+2, -1616377.8, -1626665.6, -8.372232, 0.0007147789, -0.000009427839, -1616377.8, -45.572983, 0.0, 10.0049925, 9.991359 
5.5553514e+3, 1.450537e+2, -1528302.1, -1547403.4, -3.3831124, 0.0007141616, 0.00025151554, -1528302.1, -9827.348, 0.0, 10.004988, 9.97968 
5.555351e+3, 1.5503335e+2, -1430608.6, -1450110.0, -13.591189, 0.0007139045, 0.00006184834, -1430608.6, -9934.506, 0.0, 10.004983, 9.979149 
5.5553496e+3, 1.6500638e+2, -1342627.6, -1371352.0, -9.006951, 0.0007135011, 0.0001436878, -1342627.6, -19689.113, 0.0, 10.004979, 9.967013 
5.5553484e+3, 1.7497343e+2, -1244703.0, -1273740.5, -18.353035, 0.0007129552, 0.000040127306, -1244703.0, -19441.84, 0.0, 10.004974, 9.966599 
5.555348e+3, 1.8493383e+2, -1156699.6, -1195279.4, -12.075865, 0.0007125774, 0.00018407482, -1156699.6, -29050.268, 0.0, 10.004971, 9.954097 
5.5553466e+3, 1.9488795e+2, -1058582.4, -1097422.1, -22.279564, 0.0007123672, 0.000049992115, -1058582.4, -28483.56, 0.0, 10.004967, 9.953753 
5.5553454e+3, 2.0483541e+2, -970448.3, -1019063.2, -12.257384, 0.0007119089, 0.00017029412, -970448.3, -37834.58, 0.0, 10.004963, 9.940985 
5.555345e+3, 2.1477644e+2, -872192.56, -921067.0, -22.39017, 0.0007111882, -0.000024805462, -872192.56, -37000.875, 0.0, 10.004959, 9.940644 
5.5553436e+3, 2.2471076e+2, -783935.8, -842841.75, -11.1234455, 0.0007108224, 0.00022080485, -783935.8, -46100.51, 0.0, 10.004956, 9.927594 
5.555343e+3, 2.3463841e+2, -685532.9, -744692.06, -21.004463, 0.0007108473, 0.00000686493, -685532.9, -44988.63, 0.0, 10.004952, 9.927263 
5.5553424e+3, 2.4455912e+2, -597237.6, -666785.06, -8.739073, 0.0007105857, 0.00016689856, -597237.6, -53916.332, 0.0, 10.004951, 9.913814 
5.555341e+3, 2.5447306e+2, -498514.66, -568138.0, -18.331034, 0.0007099876, -0.000017151542, -498514.63, -52349.91, 0.0, 10.004948, 9.913713 
5.5553406e+3, 2.643799e+2, -410313.63, -490837.38, -4.8310966, 0.0007095722, 0.0002271497, -410313.63, -61235.938, 0.0, 10.004946, 9.899624 
5.55534e+3, 2.7428007e+2, -311057.63, -391253.25, -14.120271, 0.0007093843, -0.00012045084, -311057.63, -59001.65, 0.0, 10.004944, 9.900043 
5.5553395e+3, 2.8417206e+2, -224539.23, -317856.72, -1.1146426, 0.00070924, 0.00030934415, -224539.23, -69424.73, 0.0, 10.004943, 9.883181 
5.555339e+3, 2.9405627e+2, -124856.23, -217557.16, -9.450629, 0.00070915127, -0.00017458588, -124856.23, -66607.234, 0.0, 10.004942, 9.883966 
5.555338e+3, 3.0396834e+2, -35324.1, -84901.94, 3.2019172, 0.0007089267, 0.00024777855, -35324.1, -35324.1, 0.0, 10.004942, 9.939691 
5.5553377e+3, 3.1390992e+2, -34264.934, -82700.55, -5.27372, 0.0007085064, 0.000011662879, -34264.934, -34264.934, 0.0, 10.004942, 9.941176 
5.5653584e+3, 1.2507732e+2, -1713544.8, -1723357.9, 3.3604922, 0.000722624, 0.00017028101, -1713544.8, 698.61597, 0.0, 10.00512, 9.992115 
5.565357e+3, 1.3506928e+2, -1616201.5, -1626602.8, -6.894558, 0.00072163483, -0.0000088596225, -1616201.5, 120.577156, 0.0, 10.0051155, 9.991331 
5.5653566e+3, 1.450547e+2, -1528127.4, -1547342.0, -2.0914137, 0.0007210025, 0.00025210658, -1528127.4, -9662.4795, 0.0, 10.005111, 9.979653 
5.5653554e+3, 1.5503433e+2, -1430435.3, -1450049.8, -12.392845, 0.000720706, 0.000062233295, -1430435.3, -9770.751, 0.0, 10.005106, 9.979122 
5.565354e+3, 1.6500732e+2, -1342453.6, -1371289.4, -7.8815036, 0.0007202938, 0.00014399017, -1342453.6, -19524.514, 0.0, 10.005101, 9.966988 
5.5653536e+3, 1.7497437e+2, -1244530.8, -1273679.1, -17.452423, 0.00071976933, 0.000040469757, -1244530.8, -19278.645, 0.0, 10.005096, 9.966574 
5.5653524e+3, 1.8493474e+2, -1156530.6, -1195222.9, -11.305958, 0.0007193851, 0.00018444055, -1156530.6, -28890.098, 0.0, 10.005092, 9.954069 
5.565352e+3, 1.9488885e+2, -1058414.9, -1097367.0, -21.78678, 0.0007191401, 0.000050363946, -1058414.8, -28324.545, 0.0, 10.005088, 9.953726 
5.5653507e+3, 2.0483628e+2, -970281.9, -1019009.06, -11.753581, 0.00071866834, 0.00017064385, -970281.9, -37676.49, 0.0, 10.005083, 9.940957 
5.5653495e+3, 2.1477726e+2, -872027.5, -921014.06, -22.023838, 0.0007179562, -0.000024507503, -872027.5, -36843.887, 0.0, 10.005079, 9.940617 
5.565349e+3, 2.2471157e+2, -783772.06, -842789.94, -10.803748, 0.0007175928, 0.00022106575, -783772.06, -45944.523, 0.0, 10.005076, 9.927567 
5.565348e+3, 2.346392e+2, -685370.7, -744641.5, -20.898262, 0.0007176129, 0.0000071049876, -685370.7, -44833.957, 0.0, 10.005073, 9.927236 
5.565347e+3, 2.4455985e+2, -597076.6, -666735.6, -8.544047, 0.00071733195, 0.00016713308, -597076.6, -53762.563, 0.0, 10.00507, 9.913786 
5.5653465e+3, 2.5447378e+2, -498354.75, -568089.56, -18.348068, 0.0007166975, -0.0000169047, -498354.75, -52196.99, 0.0, 10.005067, 9.913686 
5.565346e+3, 2.6438057e+2, -410155.06, -490790.28, -4.832912, 0.0007162793, 0.00022740303, -410155.06, -61084.05, 0.0, 10.005065, 9.899595 
5.565345e+3, 2.7428073e+2, -310900.78, -391207.53, -14.281561, 0.0007161304, -0.00012019807, -310900.78, -58851.223, 0.0, 10.005063, 9.900014 
5.565344e+3, 2.8417265e+2, -224382.55, -317809.84, -1.1201115, 0.000715998, 0.00030953746, -224382.55, -69274.18, 0.0, 10.005061, 9.883154 
5.5653435e+3, 2.940569e+2, -124700.74, -217511.2, -9.504125, 0.00071588415, -0.00017453202, -124700.74, -66457.64, 0.0, 10.00506, 9.88394 
5.5653435e+3, 3.0396894e+2, -35172.902, -84862.336, 3.2601056, 0.00071561086, 0.00024784709, -35172.902, -35172.902, 0.0, 10.005059, 9.939661 
5.565343e+3, 3.1391045e+2, -34114.293, -82661.63, -5.6286693, 0.00071510766, 0.000011974105, -34114.293, -34114.293, 0.0, 10.005059, 9.941147 
5.5753636e+3, 1.2507838e+2, -1713566.6, -1723401.5, 1.4326687, 0.0007294101, 0.00017063394, -1713566.6, 666.32074, 0.0, 10.005122, 9.992087 
5.575363e+3, 1.3507031e+2, -1616223.1, -1626646.1, -8.815884, 0.00072852237, -0.00000835522, -1616223.1, 88.77628, 0.0, 10.005116, 9.991304 
5.575362e+3, 1.4505573e+2, -1528148.8, -1547385.1, -3.9156697, 0.0007279067, 0.00025267515, -1528148.8, -9693.765, 0.0, 10.005112, 9.979626 
5.5753607e+3, 1.5503532e+2, -1430456.4, -1450092.6, -14.2199135, 0.00072754384, 0.000062780644, -1430456.4, -9801.544, 0.0, 10.005107, 9.9790945 
5.5753595e+3, 1.6500829e+2, -1342472.9, -1371328.9, -9.658887, 0.00072715234, 0.00014440498, -1342472.9, -19553.19, 0.0, 10.005102, 9.966963 
5.575358e+3, 1.7497529e+2, -1244549.8, -1273718.5, -19.230938, 0.000726735, 0.00004064194, -1244549.8, -19306.855, 0.0, 10.005097, 9.966549 
5.5753577e+3, 1.8493564e+2, -1156551.6, -1195266.1, -12.948141, 0.0007262532, 0.00018465394, -1156551.6, -28919.965, 0.0, 10.005093, 9.9540415 
5.575357e+3, 1.9488971e+2, -1058435.6, -1097409.9, -23.429373, 0.0007257024, 0.000050907176, -1058435.5, -28353.906, 0.0, 10.005089, 9.953698 
5.575356e+3, 2.0483711e+2, -970302.44, -1019051.8, -13.176771, 0.0007253021, 0.00017119912, -970302.4, -37705.355, 0.0, 10.005085, 9.940929 
5.5753547e+3, 2.147781e+2, -872047.8, -921056.56, -23.446653, 0.0007250595, -0.000024275349, -872047.8, -36872.26, 0.0, 10.005081, 9.940589 
5.575354e+3, 2.2471236e+2, -783792.3, -842832.6, -12.129151, 0.0007246896, 0.00022117214, -783792.3, -45972.594, 0.0, 10.005077, 9.927539 
5.575353e+3, 2.3463996e+2, -685390.7, -744683.9, -22.222822, 0.0007241774, 0.00000730371, -685390.7, -44861.492, 0.0, 10.005074, 9.927208 
5.5753523e+3, 2.4456061e+2, -597096.56, -666778.06, -9.510041, 0.00072378066, 0.00016745846, -597096.56, -53789.74, 0.0, 10.005071, 9.913758 
5.575352e+3, 2.544745e+2, -498374.47, -568131.8, -19.300755, 0.0007235175, -0.000016412754, -498374.47, -52223.676, 0.0, 10.005068, 9.913657 
5.575351e+3, 2.6438126e+2, -410174.78, -490832.78, -5.640412, 0.0007232558, 0.00022776263, -410174.78, -61110.473, 0.0, 10.005066, 9.899568 
5.57535e+3, 2.7428138e+2, -310920.25, -391249.78, -15.078617, 0.00072299445, -0.0001203436, -310920.25, -58877.113, 0.0, 10.005064, 9.899986 
5.5753493e+3, 2.841733e+2, -224400.75, -317849.75, -1.5865686, 0.0007227511, 0.00030941493, -224400.75, -69298.53, 0.0, 10.005062, 9.883127 
5.575349e+3, 2.940575e+2, -124718.62, -217550.67, -9.953232, 0.0007225296, -0.00017392056, -124718.62, -66481.41, 0.0, 10.005061, 9.883913 
5.575348e+3, 3.039695e+2, -35193.055, -84906.625, 3.1633656, 0.00072222453, 0.00024851883, -35193.055, -35193.055, 0.0, 10.00506, 9.9396305 
5.5753475e+3, 3.13911e+2, -34134.77, -82706.53, -5.6716747, 0.00072180043, 0.000011717248, -34134.77, -34134.77, 0.0, 10.00506, 9.941115 
5.585369e+3, 1.2507945e+2, -1713385.0, -1723336.0, 3.3297381, 0.0007363333, 0.00017121632, -1713385.0, 837.371, 0.0, 10.005248, 9.99206 
5.5853677e+3, 1.3507137e+2, -1616043.3, -1626582.0, -7.0208035, 0.0007354097, -0.000007969253, -1616043.3, 258.41412, 0.0, 10.005243, 9.991277 
5.5853665e+3, 1.4505674e+2, -1527970.5, -1547322.6, -2.2392855, 0.00073479017, 0.0002530245, -1527970.5, -9525.495, 0.0, 10.005238, 9.979598 
5.585366e+3, 1.550363e+2, -1430279.9, -1450031.4, -12.858011, 0.00073445437, 0.00006324851, -1430279.9, -9634.766, 0.0, 10.005232, 9.979067 
5.5853647e+3, 1.6500925e+2, -1342295.9, -1371265.3, -8.452269, 0.0007340623, 0.00014489146, -1342295.9, -19385.648, 0.0, 10.005227, 9.966937 
5.5853635e+3, 1.7497624e+2, -1244374.3, -1273656.1, -18.217678, 0.000733617, 0.000041048315, -1244374.3, -19140.535, 0.0, 10.005221, 9.966523 
5.585363e+3, 1.8493655e+2, -1156379.3, -1195208.8, -11.971444, 0.00073309237, 0.00018500994, -1156379.3, -28756.588, 0.0, 10.005217, 9.954014 
5.585362e+3, 1.9489059e+2, -1058264.6, -1097353.6, -22.64478, 0.00073248363, 0.000051243078, -1058264.6, -28191.611, 0.0, 10.005213, 9.9536705 
5.585361e+3, 2.0483796e+2, -970132.9, -1018996.6, -12.4732275, 0.0007321156, 0.00017153192, -970132.9, -37544.18, 0.0, 10.005208, 9.940902 
5.58536e+3, 2.1477892e+2, -871880.3, -921002.94, -22.972979, 0.00073200045, -0.000023927809, -871880.3, -36712.867, 0.0, 10.005203, 9.94056 
5.5853593e+3, 2.2471315e+2, -783626.06, -842780.2, -11.596665, 0.0007316045, 0.00022150537, -783626.06, -45814.18, 0.0, 10.005199, 9.927511 
5.585358e+3, 2.3464072e+2, -685225.2, -744632.25, -21.885744, 0.0007308965, 0.000007590583, -685225.2, -44703.55, 0.0, 10.005196, 9.927179 
5.5853575e+3, 2.4456134e+2, -596932.25, -666727.6, -9.198586, 0.0007304744, 0.00016773629, -596932.25, -53632.723, 0.0, 10.005193, 9.91373 
5.585357e+3, 2.5447518e+2, -498212.34, -568082.9, -19.177933, 0.00073038513, -0.000016100497, -498212.34, -52068.555, 0.0, 10.005189, 9.91363 
5.585356e+3, 2.6438195e+2, -410014.13, -490785.1, -5.3820696, 0.0007301707, 0.00022802153, -410014.13, -60956.53, 0.0, 10.005186, 9.899539 
5.585356e+3, 2.7428204e+2, -310760.7, -391203.1, -14.904884, 0.00072979816, -0.000120247496, -310760.7, -58723.99, 0.0, 10.005184, 9.899958 
5.5853546e+3, 2.841739e+2, -224241.27, -317802.28, -1.362681, 0.0007294771, 0.00030955437, -224241.27, -69145.22, 0.0, 10.005182, 9.8831005 
5.585354e+3, 2.9405808e+2, -124560.5, -217504.23, -10.138629, 0.0007292235, -0.0001734609, -124560.5, -66329.195, 0.0, 10.005181, 9.883885 
5.5853534e+3, 3.039701e+2, -35039.305, -84866.03, 3.1037474, 0.0007289476, 0.00024893452, -35039.305, -35039.305, 0.0, 10.005179, 9.939601 
5.585353e+3, 3.1391153e+2, -33982.336, -82666.93, -5.437211, 0.00072864175, 0.000011556339, -33982.336, -33982.336, 0.0, 10.005178, 9.941086 
5.595374e+3, 1.2508054e+2, -1713407.0, -1723380.1, 1.2358174, 0.0007433844, 0.00017199708, -1713407.0, 804.8034, 0.0, 10.00525, 9.992032 
5.595373e+3, 1.3507243e+2, -1616065.0, -1626625.8, -9.112087, 0.0007423056, -0.000007685548, -1616065.0, 226.35406, 0.0, 10.005244, 9.991249 
5.5953723e+3, 1.4505775e+2, -1527992.5, -1547367.0, -4.2569623, 0.00074166444, 0.00025318444, -1527992.5, -9557.516, 0.0, 10.005239, 9.979569 
5.595371e+3, 1.5503731e+2, -1430301.6, -1450075.6, -14.874691, 0.00074143655, 0.00006364742, -1430301.6, -9666.268, 0.0, 10.005234, 9.979038 
5.59537e+3, 1.6501023e+2, -1342315.5, -1371305.6, -10.343805, 0.0007410251, 0.00014543986, -1342315.5, -19414.742, 0.0, 10.005228, 9.966911 
5.5953693e+3, 1.7497718e+2, -1244393.8, -1273696.1, -20.111776, 0.0007404346, 0.00004165797, -1244393.8, -19169.164, 0.0, 10.005223, 9.966497 
5.595368e+3, 1.8493746e+2, -1156400.6, -1195252.6, -13.706235, 0.00073991506, 0.00018548979, -1156400.6, -28786.873, 0.0, 10.0052185, 9.953985 
5.595367e+3, 1.9489148e+2, -1058285.8, -1097397.4, -24.379133, 0.0007394639, 0.000051398903, -1058285.8, -28221.396, 0.0, 10.005214, 9.953642 
5.5953664e+3, 2.0483884e+2, -970153.8, -1019040.3, -14.167628, 0.0007390937, 0.00017167152, -970153.8, -37573.53, 0.0, 10.005209, 9.940873 
5.595365e+3, 2.1477973e+2, -871901.0, -921046.3, -24.67026, 0.0007388079, -0.00002347999, -871901.0, -36741.668, 0.0, 10.005204, 9.940533 
5.595364e+3, 2.2471394e+2, -783646.7, -842823.6, -12.8743515, 0.0007383688, 0.00022203567, -783646.7, -45842.617, 0.0, 10.0052, 9.927483 
5.595364e+3, 2.3464149e+2, -685245.6, -744675.44, -23.153557, 0.00073775864, 0.000007954126, -685245.6, -44731.5, 0.0, 10.005198, 9.927151 
5.595363e+3, 2.4456209e+2, -596952.56, -666770.9, -10.461739, 0.00073739, 0.00016797264, -596952.56, -53660.3, 0.0, 10.005194, 9.913701 
5.5953616e+3, 2.544759e+2, -498232.38, -568125.8, -20.440836, 0.0007373019, -0.000015945052, -498232.38, -52095.58, 0.0, 10.005191, 9.913601 
5.5953616e+3, 2.6438263e+2, -410033.94, -490827.97, -6.238163, 0.0007370392, 0.00022819258, -410033.94, -60983.086, 0.0, 10.005188, 9.89951 
5.5953604e+3, 2.742827e+2, -310780.28, -391245.72, -15.743604, 0.000736557, -0.000119940225, -310780.28, -58750.023, 0.0, 10.005185, 9.899929 
5.59536e+3, 2.8417456e+2, -224260.22, -317843.78, -1.948287, 0.0007361875, 0.00030992235, -224260.22, -69170.33, 0.0, 10.005183, 9.883072 
5.595359e+3, 2.9405868e+2, -124579.17, -217545.42, -10.693426, 0.00073596777, -0.00017313496, -124579.164, -66353.76, 0.0, 10.005182, 9.883858 
5.5953586e+3, 3.0397063e+2, -35059.016, -84909.484, 2.7617738, 0.0007357739, 0.00024912573, -35059.016, -35059.016, 0.0, 10.00518, 9.93957 
5.595358e+3, 3.139121e+2, -34002.203, -82710.69, -5.7714286, 0.00073561945, 0.000011480592, -34002.203, -34002.203, 0.0, 10.00518, 9.941055 
5.6053793e+3, 1.2508161e+2, -1713222.3, -1723313.5, 3.3600368, 0.00075041945, 0.00017250296, -1713222.3, 978.94916, 0.0, 10.005379, 9.992004 
5.605378e+3, 1.3507347e+2, -1615881.8, -1626560.5, -7.1959047, 0.00074929855, -0.0000071688373, -1615881.8, 399.24225, 0.0, 10.005373, 9.99122 
5.6053776e+3, 1.450588e+2, -1527811.0, -1547303.5, -2.4850368, 0.0007486292, 0.00025367472, -1527811.0, -9386.064, 0.0, 10.005366, 9.979541 
5.6053764e+3, 1.550383e+2, -1430121.8, -1450013.4, -13.325918, 0.0007483865, 0.00006407453, -1430121.8, -9496.117, 0.0, 10.005361, 9.97901 
5.605376e+3, 1.6501118e+2, -1342135.0, -1371240.8, -8.895714, 0.00074794923, 0.00014585388, -1342135.0, -19243.697, 0.0, 10.005355, 9.966886 
5.6053746e+3, 1.7497814e+2, -1244214.8, -1273632.6, -18.896378, 0.0007473223, 0.000042108622, -1244214.8, -18999.512, 0.0, 10.00535, 9.966472 
5.6053734e+3, 1.8493839e+2, -1156225.3, -1195194.1, -12.5807905, 0.0007468441, 0.0001859252, -1156225.3, -28620.496, 0.0, 10.005344, 9.953957 
5.605373e+3, 1.9489236e+2, -1058112.4, -1097340.5, -23.430944, 0.0007465134, 0.000051766332, -1058112.4, -28056.752, 0.0, 10.005339, 9.953613 
5.6053716e+3, 2.0483969e+2, -969981.7, -1018984.5, -13.222276, 0.00074608345, 0.00017201567, -969981.7, -37409.824, 0.0, 10.005334, 9.940845 
5.6053704e+3, 2.1478058e+2, -871729.6, -920991.4, -23.974342, 0.0007455479, -0.000023111916, -871729.6, -36578.45, 0.0, 10.00533, 9.940503 
5.60537e+3, 2.2471476e+2, -783476.6, -842769.8, -12.21169, 0.00074511545, 0.00022240917, -783476.6, -45680.465, 0.0, 10.005325, 9.927454 
5.6053686e+3, 2.3464227e+2, -685078.1, -744623.44, -22.671597, 0.0007447951, 0.000008312615, -685078.1, -44571.62, 0.0, 10.0053215, 9.927122 
5.605368e+3, 2.4456283e+2, -596786.56, -666720.0, -9.903351, 0.0007444667, 0.00016827749, -596786.56, -53501.605, 0.0, 10.005317, 9.913672 
5.6053674e+3, 2.5447664e+2, -498067.13, -568075.8, -20.024082, 0.00074412767, -0.00001573899, -498067.13, -51937.363, 0.0, 10.005314, 9.913572 
5.605367e+3, 2.6438335e+2, -409869.8, -490779.22, -5.785403, 0.00074376294, 0.00022843198, -409869.8, -60825.703, 0.0, 10.005311, 9.899482 
5.6053656e+3, 2.7428335e+2, -310618.0, -391198.34, -15.620595, 0.0007433647, -0.00011950246, -310617.97, -58594.188, 0.0, 10.005308, 9.8999 
5.605365e+3, 2.841752e+2, -224098.4, -317795.6, -1.7187382, 0.000743071, 0.00031030754, -224098.4, -69014.7, 0.0, 10.005305, 9.883044 
5.6053644e+3, 2.940593e+2, -124419.09, -217498.42, -10.328087, 0.0007429157, -0.00017314071, -124419.09, -66199.59, 0.0, 10.005303, 9.88383 
5.605364e+3, 3.0397123e+2, -34903.246, -84868.42, 3.2593143, 0.0007426746, 0.0002490904, -34903.242, -34903.242, 0.0, 10.005301, 9.93954 
5.605363e+3, 3.1391263e+2, -33846.84, -82670.19, -5.8025084, 0.0007423098, 0.000011948053, -33846.84, -33846.84, 0.0, 10.0053005, 9.941025 
5.6153846e+3, 1.250827e+2, -1713244.6, -1723358.3, 1.1447142, 0.00075744966, 0.000172772, -1713244.6, 945.88947, 0.0, 10.00538, 9.991976 
5.615384e+3, 1.3507454e+2, -1615903.9, -1626605.1, -9.415323, 0.00075638434, -0.0000064506307, -1615903.9, 366.6772, 0.0, 10.005374, 9.991192 
5.615383e+3, 1.4505981e+2, -1527833.4, -1547348.9, -4.6487975, 0.00075568113, 0.0002544504, -1527833.4, -9418.622, 0.0, 10.005368, 9.979512 
5.6153816e+3, 1.5503931e+2, -1430143.9, -1450058.5, -15.484814, 0.00075531733, 0.00006452617, -1430143.9, -9528.141, 0.0, 10.0053625, 9.978981 
5.615381e+3, 1.6501217e+2, -1342155.0, -1371282.0, -10.939167, 0.0007548488, 0.00014615191, -1342155.0, -19273.328, 0.0, 10.005357, 9.966859 
5.61538e+3, 1.7497908e+2, -1244234.6, -1273673.6, -20.941044, 0.00075427955, 0.000042421845, -1244234.6, -19028.67, 0.0, 10.005351, 9.966445 
5.6153786e+3, 1.849393e+2, -1156246.9, -1195238.9, -14.565705, 0.00075387396, 0.00018632232, -1156246.9, -28651.164, 0.0, 10.005345, 9.953928 
5.615378e+3, 1.9489327e+2, -1058133.8, -1097384.9, -25.420439, 0.00075363077, 0.000052317155, -1058133.8, -28086.883, 0.0, 10.005341, 9.953585 
5.615377e+3, 2.0484056e+2, -970003.06, -1019029.2, -14.867622, 0.00075309124, 0.00017253707, -970003.06, -37439.684, 0.0, 10.005336, 9.940816 
5.615376e+3, 2.147814e+2, -871750.8, -921035.8, -25.613325, 0.00075223885, -0.000022812877, -871750.8, -36607.805, 0.0, 10.005331, 9.9404745 
5.615375e+3, 2.2471556e+2, -783497.56, -842813.94, -13.876868, 0.0007518563, 0.00022264685, -783497.56, -45709.3, 0.0, 10.005326, 9.927424 
5.615374e+3, 2.3464306e+2, -685098.8, -744667.3, -24.340433, 0.0007519901, 0.00000866664, -685098.8, -44599.9, 0.0, 10.005322, 9.9270935 
5.615373e+3, 2.4456358e+2, -596807.06, -666763.8, -11.128676, 0.0007516904, 0.00016864177, -596807.06, -53529.42, 0.0, 10.005319, 9.913644 
5.6153727e+3, 2.5447735e+2, -498087.38, -568119.4, -21.235176, 0.0007508831, -0.00001548846, -498087.38, -51964.66, 0.0, 10.005315, 9.913543 
5.6153715e+3, 2.64384e+2, -409890.25, -490823.4, -6.8478193, 0.0007503701, 0.00022873099, -409890.25, -60852.914, 0.0, 10.005312, 9.899452 
5.615371e+3, 2.7428403e+2, -310638.2, -391242.34, -16.669798, 0.00075022294, -0.00011895244, -310638.2, -58620.88, 0.0, 10.005309, 9.899871 
5.615371e+3, 2.8417584e+2, -224117.1, -317836.72, -2.5149193, 0.00075011264, 0.00031070685, -224117.1, -69039.6, 0.0, 10.005307, 9.883017 
5.6153697e+3, 2.940599e+2, -124437.43, -217539.06, -11.112147, 0.00075004797, -0.00017343301, -124437.43, -66223.85, 0.0, 10.005304, 9.883803 
5.615369e+3, 3.039718e+2, -34923.813, -84913.8, 2.8554122, 0.00074964744, 0.00024885996, -34923.813, -34923.813, 0.0, 10.005303, 9.939509 
5.6153685e+3, 3.1391317e+2, -33867.715, -82716.16, -6.1609635, 0.0007487587, 0.000012885831, -33867.715, -33867.715, 0.0, 10.005302, 9.940993 
5.6253904e+3, 1.250838e+2, -1713056.0, -1723290.5, 3.5328634, 0.00076448073, 0.0001732163, -1713056.0, 1123.7745, 0.0, 10.005511, 9.991947 
5.625389e+3, 1.350756e+2, -1615717.3, -1626538.9, -7.403474, 0.0007634507, -0.000005861396, -1615717.3, 542.848, 0.0, 10.005505, 9.991163 
5.625388e+3, 1.4506085e+2, -1527648.4, -1547284.1, -2.7794995, 0.0007627389, 0.00025504958, -1527648.4, -9243.831, 0.0, 10.005498, 9.979484 
5.6253874e+3, 1.5504031e+2, -1429960.6, -1449995.0, -13.747943, 0.00076232344, 0.00006500351, -1429960.6, -9354.687, 0.0, 10.005492, 9.978952 
5.625386e+3, 1.6501315e+2, -1341971.4, -1371216.1, -9.284737, 0.0007618645, 0.00014656365, -1341971.4, -19099.223, 0.0, 10.0054865, 9.966832 
5.625385e+3, 1.7498003e+2, -1244052.9, -1273609.3, -19.488436, 0.0007613652, 0.000042823747, -1244052.9, -18856.223, 0.0, 10.00548, 9.966418 
5.6253844e+3, 1.8494023e+2, -1156068.4, -1195179.5, -13.203396, 0.00076091324, 0.00018674773, -1156068.4, -28481.783, 0.0, 10.005474, 9.953898 
5.625383e+3, 1.9489416e+2, -1057956.5, -1097326.6, -24.354303, 0.0007605056, 0.000052799875, -1057956.5, -27918.453, 0.0, 10.005468, 9.953555 
5.625382e+3, 2.0484143e+2, -969827.3, -1018972.06, -13.812202, 0.0007599918, 0.00017300056, -969827.3, -37272.434, 0.0, 10.005464, 9.940786 
5.6253815e+3, 2.1478224e+2, -871577.44, -920980.4, -24.677095, 0.00075936515, -0.000022449227, -871577.4, -36442.613, 0.0, 10.005458, 9.940445 
5.62538e+3, 2.2471637e+2, -783325.6, -842759.8, -12.946045, 0.00075897784, 0.00022296103, -783325.6, -45545.258, 0.0, 10.005453, 9.927396 
5.6253797e+3, 2.3464383e+2, -684927.75, -744614.06, -23.642292, 0.0007588527, 0.000008986948, -684927.7, -44436.473, 0.0, 10.005448, 9.927064 
5.625379e+3, 2.4456432e+2, -596637.1, -666711.6, -10.380431, 0.0007584882, 0.00016899922, -596637.1, -53366.887, 0.0, 10.005445, 9.913614 
5.625378e+3, 2.5447807e+2, -497919.53, -568068.7, -20.73898, 0.0007578427, -0.000015057824, -497919.53, -51803.887, 0.0, 10.005441, 9.913514 
5.6253767e+3, 2.6438472e+2, -409724.1, -490774.16, -6.3069177, 0.00075739995, 0.00022910272, -409724.1, -60693.523, 0.0, 10.005437, 9.899423 
5.6253767e+3, 2.7428466e+2, -310473.66, -391194.4, -16.155556, 0.0007572089, -0.00011880397, -310473.63, -58462.82, 0.0, 10.005434, 9.899841 
5.625376e+3, 2.8417644e+2, -223952.64, -317787.63, -1.8844508, 0.000757034, 0.00031084623, -223952.64, -68881.34, 0.0, 10.005431, 9.882989 
5.625375e+3, 2.9406053e+2, -124274.19, -217490.95, -10.838464, 0.0007568774, -0.00017301535, -124274.19, -66066.555, 0.0, 10.005428, 9.883775 
5.6253743e+3, 3.039724e+2, -34765.1, -84872.14, 3.1945426, 0.000756457, 0.00024929733, -34765.1, -34765.1, 0.0, 10.005426, 9.939478 
5.6253743e+3, 3.1391373e+2, -33710.066, -82675.43, -5.8459864, 0.0007556534, 0.000012965228, -33710.066, -33710.066, 0.0, 10.0054245, 9.940961 
5.635396e+3, 1.250849e+2, -1713079.3, -1723337.0, 1.0770009, 0.00077152235, 0.00017381208, -1713079.3, 1089.7657, 0.0, 10.005513, 9.991918 
5.6353945e+3, 1.3507667e+2, -1615740.3, -1626585.1, -9.847933, 0.0007705097, -0.000005383171, -1615740.3, 509.3818, 0.0, 10.0055065, 9.991135 
5.635393e+3, 1.4506191e+2, -1527671.1, -1547329.9, -5.0801425, 0.00076981087, 0.00025549677, -1527671.1, -9276.701, 0.0, 10.0055, 9.979454 
5.6353927e+3, 1.5504132e+2, -1429983.0, -1450040.6, -16.053015, 0.0007694037, 0.00006550334, -1429983.0, -9387.034, 0.0, 10.005493, 9.978923 
5.6353915e+3, 1.6501413e+2, -1341991.8, -1371258.1, -11.548575, 0.0007689892, 0.0001470738, -1341991.8, -19129.33, 0.0, 10.005487, 9.966805 
5.635391e+3, 1.7498098e+2, -1244073.0, -1273651.1, -21.753483, 0.0007685701, 0.000043302585, -1244073.0, -18885.828, 0.0, 10.005482, 9.966392 
5.6353897e+3, 1.8494116e+2, -1156090.6, -1195225.4, -15.242623, 0.00076796947, 0.0001871978, -1156090.6, -28513.098, 0.0, 10.005476, 9.953869 
5.6353885e+3, 1.9489506e+2, -1057978.5, -1097372.3, -26.390913, 0.00076718105, 0.000053223797, -1057978.5, -27949.244, 0.0, 10.00547, 9.953526 
5.635388e+3, 2.048423e+2, -969848.9, -1019017.2, -15.787601, 0.00076680933, 0.00017341408, -969848.9, -37302.56, 0.0, 10.005465, 9.940757 
5.635387e+3, 2.147831e+2, -871598.75, -921025.2, -26.657124, 0.00076687516, -0.000022029451, -871598.75, -36472.19, 0.0, 10.00546, 9.940416 
5.6353855e+3, 2.2471718e+2, -783346.94, -842804.9, -14.599855, 0.0007664357, 0.00022334172, -783346.94, -45574.55, 0.0, 10.005454, 9.927366 
5.635385e+3, 2.346446e+2, -684948.8, -744658.94, -25.28826, 0.0007654373, 0.000009278555, -684948.8, -44465.223, 0.0, 10.00545, 9.927034 
5.6353843e+3, 2.445651e+2, -596658.1, -666756.44, -11.864528, 0.0007649278, 0.00016935094, -596658.06, -53395.23, 0.0, 10.0054455, 9.913585 
5.635383e+3, 2.5447878e+2, -497940.25, -568113.3, -22.216228, 0.00076498714, -0.000014472022, -497940.25, -51831.7, 0.0, 10.005442, 9.913485 
5.6353825e+3, 2.643854e+2, -409744.56, -490818.5, -7.533385, 0.000764803, 0.00022953699, -409744.53, -60720.793, 0.0, 10.005438, 9.899393 
5.635382e+3, 2.7428535e+2, -310493.84, -391238.44, -17.371143, 0.0007643131, -0.00011900158, -310493.8, -58489.52, 0.0, 10.005435, 9.899812 
5.6353813e+3, 2.841771e+2, -223971.94, -317830.16, -2.7715669, 0.0007638596, 0.00031076206, -223971.94, -68906.88, 0.0, 10.005432, 9.88296 
5.63538e+3, 2.9406112e+2, -124293.19, -217533.08, -11.700747, 0.00076345366, -0.00017198434, -124293.19, -66091.516, 0.0, 10.005429, 9.883746 
5.63538e+3, 3.0397296e+2, -34785.777, -84917.83, 2.6116037, 0.0007631339, 0.0002503111, -34785.777, -34785.777, 0.0, 10.005427, 9.939446 
5.6353796e+3, 3.1391424e+2, -33731.0, -82721.586, -6.391113, 0.0007629417, 0.000012302726, -33730.996, -33730.996, 0.0, 10.005426, 9.940929 
5.6454015e+3, 1.2508601e+2, -1712887.3, -1723268.0, 3.47078, 0.000778709, 0.00017451716, -1712887.3, 1270.835, 0.0, 10.005647, 9.991888 
5.6454e+3, 1.3507776e+2, -1615549.9, -1626517.4, -7.472697, 0.0007775909, -0.0000049408586, -1615549.9, 689.136, 0.0, 10.00564, 9.991105 
5.6453997e+3, 1.4506294e+2, -1527482.6, -1547264.0, -2.805913, 0.0007768838, 0.00025587316, -1527482.6, -9098.505, 0.0, 10.005632, 9.979424 
5.6453985e+3, 1.5504235e+2, -1429796.5, -1449976.3, -14.138545, 0.0007765624, 0.00006600442, -1429796.5, -9210.593, 0.0, 10.005626, 9.978893 
5.645397e+3, 1.6501512e+2, -1341804.8, -1371191.3, -9.786677, 0.00077613123, 0.00014763353, -1341804.8, -18952.098, 0.0, 10.005619, 9.966778 
5.645396e+3, 1.7498195e+2, -1243887.6, -1273585.4, -20.197054, 0.0007755945, 0.00004385598, -1243887.6, -18709.81, 0.0, 10.005612, 9.966364 
5.645395e+3, 1.849421e+2, -1155908.6, -1195164.9, -13.700146, 0.00077498815, 0.00018768421, -1155908.6, -28340.33, 0.0, 10.005607, 9.953839 
5.6453943e+3, 1.9489597e+2, -1057798.6, -1097313.3, -24.98262, 0.0007743074, 0.0000535817, -1057798.6, -27778.22, 0.0, 10.0056, 9.953496 
5.645393e+3, 2.0484316e+2, -969670.5, -1018959.4, -14.46118, 0.00077393756, 0.0001737641, -969670.5, -37132.734, 0.0, 10.005594, 9.940727 
5.645392e+3, 2.1478394e+2, -871421.9, -920968.7, -25.633104, 0.0007738938, -0.000021560405, -871421.8, -36303.61, 0.0, 10.005589, 9.940387 
5.6453913e+3, 2.24718e+2, -783171.4, -842749.5, -13.505681, 0.0007734194, 0.00022383124, -783171.4, -45407.023, 0.0, 10.005584, 9.927336 
5.645391e+3, 2.346454e+2, -684774.94, -744604.9, -24.364124, 0.000772468, 0.000009679945, -684774.94, -44299.09, 0.0, 10.005579, 9.927005 
5.6453896e+3, 2.4456584e+2, -596485.75, -666703.6, -10.969085, 0.0007719815, 0.00016968467, -596485.75, -53230.32, 0.0, 10.005574, 9.913555 
5.645389e+3, 2.5447953e+2, -497769.8, -568061.94, -21.467066, 0.0007720359, -0.000014182055, -497769.8, -51668.4, 0.0, 10.005569, 9.913454 
5.6453884e+3, 2.6438612e+2, -409575.47, -490768.3, -6.6498775, 0.0007718181, 0.00022983273, -409575.47, -60558.566, 0.0, 10.005565, 9.8993635 
5.645387e+3, 2.74286e+2, -310326.1, -391189.38, -16.729265, 0.00077125855, -0.00011863823, -310326.1, -58328.33, 0.0, 10.005562, 9.899782 
5.6453866e+3, 2.8417772e+2, -223804.6, -317780.5, -2.1015973, 0.0007707851, 0.00031114276, -223804.6, -68745.79, 0.0, 10.005558, 9.882932 
5.645386e+3, 2.9406175e+2, -124127.625, -217484.7, -11.22231, 0.0007704262, -0.00017165451, -124127.625, -65931.93, 0.0, 10.005555, 9.883718 
5.6453854e+3, 3.0397356e+2, -34624.703, -84875.11, 3.21323, 0.0007701268, 0.00025056044, -34624.703, -34624.703, 0.0, 10.005552, 9.939415 
5.645385e+3, 3.139148e+2, -33571.227, -82679.82, -5.725695, 0.0007699157, 0.000012430765, -33571.227, -33571.227, 0.0, 10.00555, 9.940898 
5.6554073e+3, 1.2508713e+2, -1712910.5, -1723314.5, 0.889678, 0.0007860295, 0.00017531536, -1712910.5, 1236.7494, 0.0, 10.005648, 9.991859 
5.6554055e+3, 1.3507885e+2, -1615572.9, -1626563.6, -10.058577, 0.00078470114, -0.000004528176, -1615572.9, 655.5748, 0.0, 10.005641, 9.9910755 
5.655405e+3, 1.4506401e+2, -1527506.0, -1547311.4, -5.3624787, 0.00078396744, 0.00025619037, -1527506.0, -9132.254, 0.0, 10.005634, 9.979395 
5.655404e+3, 1.5504338e+2, -1429819.8, -1450023.4, -16.688204, 0.0007837974, 0.00006650697, -1429819.6, -9243.776, 0.0, 10.005628, 9.978864 
5.6554025e+3, 1.6501613e+2, -1341825.6, -1371234.1, -12.148628, 0.0007832972, 0.00014823569, -1341825.6, -18982.67, 0.0, 10.005621, 9.96675 
5.655402e+3, 1.7498292e+2, -1243908.1, -1273628.0, -22.561483, 0.00078247377, 0.000044473425, -1243908.1, -18739.896, 0.0, 10.005614, 9.966336 
5.655401e+3, 1.8494304e+2, -1155931.1, -1195211.3, -15.986904, 0.0007819845, 0.00018820215, -1155931.1, -28371.96, 0.0, 10.005608, 9.95381 
5.6554e+3, 1.9489688e+2, -1057820.8, -1097359.4, -27.271688, 0.00078182993, 0.00005388373, -1057820.8, -27809.313, 0.0, 10.005602, 9.953466 
5.655399e+3, 2.0484406e+2, -969692.6, -1019005.7, -16.569431, 0.000781341, 0.0001740604, -969692.6, -37163.508, 0.0, 10.005596, 9.940698 
5.655398e+3, 2.1478479e+2, -871443.75, -921014.75, -27.739649, 0.00078049954, -0.000021048827, -871443.7, -36333.813, 0.0, 10.00559, 9.940356 
5.655397e+3, 2.2471882e+2, -783193.0, -842795.25, -15.325427, 0.00078000524, 0.00022441424, -783193.0, -45436.67, 0.0, 10.005585, 9.927306 
5.655396e+3, 2.346462e+2, -684796.3, -744650.4, -26.178024, 0.0007798912, 0.000010175885, -684796.3, -44328.22, 0.0, 10.00558, 9.926974 
5.655395e+3, 2.445666e+2, -596506.94, -666749.06, -12.680148, 0.0007795717, 0.00017000332, -596506.94, -53258.98, 0.0, 10.005575, 9.913525 
5.655395e+3, 2.5448024e+2, -497790.72, -568107.06, -23.17613, 0.0007790108, -0.0000141459195, -497790.72, -51696.465, 0.0, 10.00557, 9.9134245 
5.6553936e+3, 2.643868e+2, -409596.34, -490813.6, -7.9680796, 0.00077850814, 0.00023001003, -409596.34, -60586.29, 0.0, 10.005567, 9.899333 
5.655393e+3, 2.742867e+2, -310346.72, -391234.44, -18.029156, 0.00077807636, -0.000117791846, -310346.72, -58355.523, 0.0, 10.005563, 9.899752 
5.655392e+3, 2.8417838e+2, -223824.25, -317823.84, -3.1954882, 0.00077780563, 0.0003119234, -223824.25, -68771.74, 0.0, 10.00556, 9.882902 
5.655392e+3, 2.9406235e+2, -124146.98, -217527.64, -12.289423, 0.0007777484, -0.0001719286, -124146.97, -65957.266, 0.0, 10.005556, 9.883689 
5.655391e+3, 3.0397412e+2, -34645.26, -84920.67, 2.3688002, 0.0007774, 0.000250152, -34645.26, -34645.26, 0.0, 10.005554, 9.9393835 
5.6553906e+3, 3.1391534e+2, -33591.94, -82725.73, -6.5694547, 0.00077662675, 0.00001324101, -33591.94, -33591.94, 0.0, 10.005551, 9.940866 
5.6654125e+3, 1.2508824e+2, -1712714.9, -1723244.3, 3.6708694, 0.000793219, 0.0001757736, -1712714.9, 1421.304, 0.0, 10.005784, 9.991829 
5.6654114e+3, 1.3507992e+2, -1615379.3, -1626495.0, -7.669395, 0.0007919445, -0.0000038607195, -1615379.3, 838.44653, 0.0, 10.005776, 9.991046 
5.665411e+3, 1.4506507e+2, -1527314.3, -1547244.5, -3.1305294, 0.0007911862, 0.00025687282, -1527314.3, -8950.867, 0.0, 10.00577, 9.979364 
5.6654096e+3, 1.550444e+2, -1429629.5, -1449957.8, -14.560184, 0.00079091516, 0.000067015535, -1429629.5, -9063.661, 0.0, 10.005762, 9.978833 
5.665409e+3, 1.6501711e+2, -1341634.9, -1371165.9, -10.061782, 0.0007904002, 0.0001486724, -1341634.9, -18801.822, 0.0, 10.005755, 9.9667225 
5.665407e+3, 1.749839e+2, -1243719.6, -1273561.5, -20.712645, 0.00078964734, 0.000044939126, -1243719.5, -18560.855, 0.0, 10.005748, 9.966309 
5.665406e+3, 1.8494399e+2, -1155746.1, -1195149.8, -14.269642, 0.0007891844, 0.00018869682, -1155746.1, -28196.318, 0.0, 10.005741, 9.953779 
5.6654054e+3, 1.948978e+2, -1057637.8, -1097299.4, -25.79918, 0.0007890114, 0.00005440738, -1057637.8, -27635.271, 0.0, 10.005734, 9.953436 
5.665404e+3, 2.0484494e+2, -969511.0, -1018947.0, -15.041568, 0.0007884609, 0.00017456204, -969511.0, -36990.555, 0.0, 10.005728, 9.940667 
5.6654036e+3, 2.1478565e+2, -871263.4, -920957.1, -26.396109, 0.0007875123, -0.000020622756, -871263.4, -36161.836, 0.0, 10.005722, 9.940326 
5.665403e+3, 2.2471964e+2, -783014.2, -842738.8, -14.059679, 0.0007870456, 0.00022480534, -783014.2, -45265.934, 0.0, 10.005716, 9.927276 
5.665402e+3, 2.3464699e+2, -684620.1, -744595.7, -25.110498, 0.0007871076, 0.000010576704, -684620.06, -44159.773, 0.0, 10.005711, 9.926945 
5.6654006e+3, 2.4456736e+2, -596332.25, -666695.6, -11.478211, 0.00078678445, 0.00017039661, -596332.25, -53091.734, 0.0, 10.005705, 9.913495 
5.6654e+3, 2.54481e+2, -497616.84, -568054.5, -22.176699, 0.0007860103, -0.0000137803845, -497616.84, -51529.785, 0.0, 10.0057, 9.913394 
5.6653994e+3, 2.6438752e+2, -409423.84, -490762.5, -7.002087, 0.00078544265, 0.00023039005, -409423.84, -60420.684, 0.0, 10.005696, 9.8993025 
5.665398e+3, 2.7428734e+2, -310176.5, -391184.97, -17.333565, 0.00078513083, -0.000117344374, -310176.5, -58191.906, 0.0, 10.005692, 9.899721 
5.665398e+3, 2.84179e+2, -223654.55, -317773.2, -2.3532276, 0.0007849297, 0.00031229822, -223654.55, -68608.33, 0.0, 10.005688, 9.882874 
5.6653976e+3, 2.9406297e+2, -123978.984, -217478.2, -11.335364, 0.0007848738, -0.00017181544, -123978.984, -65795.3, 0.0, 10.005684, 9.88366 
5.6653965e+3, 3.039747e+2, -34481.86, -84877.87, 3.403436, 0.00078445295, 0.0002502852, -34481.86, -34481.86, 0.0, 10.005681, 9.939351 
5.665396e+3, 3.1391594e+2, -33428.72, -82683.43, -6.228136, 0.0007835001, 0.0000138089135, -33428.72, -33428.72, 0.0, 10.005679, 9.940834 
5.6754184e+3, 1.2508938e+2, -1712738.9, -1723292.5, 0.86847997, 0.0008003073, 0.00017594382, -1712738.9, 1386.2454, 0.0, 10.005786, 9.991798 
5.675417e+3, 1.3508102e+2, -1615403.0, -1626542.9, -10.466395, 0.00079931115, -0.0000029759744, -1615403.0, 803.9311, 0.0, 10.005778, 9.991015 
5.6754166e+3, 1.4506613e+2, -1527337.8, -1547292.3, -5.804719, 0.0007985297, 0.00025786646, -1527337.8, -8984.89, 0.0, 10.005771, 9.979334 
5.6754154e+3, 1.5504543e+2, -1429652.8, -1450005.1, -17.235449, 0.0007979428, 0.00006752995, -1429652.8, -9097.124, 0.0, 10.005764, 9.978803 
5.675414e+3, 1.6501814e+2, -1341656.3, -1371209.8, -12.6734295, 0.00079745974, 0.00014896906, -1341656.3, -18832.98, 0.0, 10.005756, 9.966694 
5.675413e+3, 1.7498487e+2, -1243740.6, -1273605.0, -23.322718, 0.0007970819, 0.000045275967, -1243740.6, -18591.506, 0.0, 10.00575, 9.96628 
5.675412e+3, 1.8494494e+2, -1155769.0, -1195197.1, -16.764233, 0.0007965674, 0.00018917215, -1155769.0, -28228.5, 0.0, 10.005742, 9.953749 
5.675411e+3, 1.9489872e+2, -1057660.4, -1097346.5, -28.297813, 0.00079591054, 0.00005512083, -1057660.3, -27666.877, 0.0, 10.005735, 9.953405 
5.67541e+3, 2.0484583e+2, -969533.44, -1018994.0, -17.209187, 0.00079534797, 0.00017523955, -969533.44, -37021.73, 0.0, 10.00573, 9.940637 
5.6754094e+3, 2.147865e+2, -871285.56, -921003.94, -28.557886, 0.00079488335, -0.00002026929, -871285.56, -36192.49, 0.0, 10.005724, 9.940295 
5.675408e+3, 2.2472048e+2, -783036.2, -842785.4, -16.267431, 0.00079448434, 0.0002250329, -783036.2, -45296.04, 0.0, 10.005717, 9.927245 
5.675407e+3, 2.3464778e+2, -684641.75, -744642.0, -27.323387, 0.0007941554, 0.000010896655, -684641.75, -44189.258, 0.0, 10.005712, 9.926914 
5.6754065e+3, 2.4456814e+2, -596353.75, -666741.8, -13.163131, 0.0007936826, 0.00017085439, -596353.75, -53120.766, 0.0, 10.005706, 9.913465 
5.675406e+3, 2.5448173e+2, -497638.13, -568100.5, -23.84362, 0.0007930405, -0.000013132024, -497638.13, -51558.3, 0.0, 10.005702, 9.913363 
5.6754047e+3, 2.643882e+2, -409445.22, -490808.9, -8.623252, 0.00079259643, 0.00023094406, -409445.22, -60449.0, 0.0, 10.005697, 9.899272 
5.675404e+3, 2.7428803e+2, -310197.6, -391231.13, -18.944706, 0.00079239707, -0.000117239215, -310197.6, -58219.637, 0.0, 10.0056925, 9.89969 
5.675404e+3, 2.8417966e+2, -223673.97, -317816.2, -3.6544802, 0.00079215085, 0.00031232534, -223673.97, -68634.086, 0.0, 10.005689, 9.882845 
5.675403e+3, 2.9406357e+2, -123998.016, -217520.67, -12.631956, 0.0007918386, -0.0001713681, -123998.016, -65820.38, 0.0, 10.005685, 9.883631 
5.675402e+3, 3.0397528e+2, -34503.566, -84925.984, 2.5584548, 0.0007913258, 0.00025088465, -34503.566, -34503.566, 0.0, 10.005682, 9.939319 
5.6754017e+3, 3.1391647e+2, -33450.816, -82732.26, -6.9979405, 0.0007905222, 0.000014167037, -33450.816, -33450.816, 0.0, 10.00568, 9.9408 
5.685424e+3, 1.2509051e+2, -1712539.5, -1723221.0, 3.7383153, 0.0008075898, 0.00017660507, -1712539.5, 1574.4617, 0.0, 10.005925, 9.991768 
5.6854236e+3, 1.3508214e+2, -1615205.8, -1626473.0, -7.7696376, 0.0008065368, -0.0000024467256, -1615205.8, 990.39777, 0.0, 10.005917, 9.990985 
5.6854224e+3, 1.4506721e+2, -1527142.3, -1547224.0, -3.2011647, 0.0008057459, 0.00025837266, -1527142.3, -8799.978, 0.0, 10.005909, 9.979303 
5.6854206e+3, 1.550465e+2, -1429459.3, -1449938.4, -14.920231, 0.00080519484, 0.00006811795, -1429459.3, -8913.895, 0.0, 10.005901, 9.978772 
5.68542e+3, 1.6501915e+2, -1341462.4, -1371140.5, -10.499211, 0.0008047284, 0.00014955658, -1341462.4, -18649.13, 0.0, 10.005893, 9.966666 
5.685419e+3, 1.7498587e+2, -1243548.8, -1273537.4, -21.295855, 0.00080434844, 0.000045782243, -1243548.8, -18409.357, 0.0, 10.005885, 9.966252 
5.685418e+3, 1.849459e+2, -1155580.8, -1195134.6, -14.746663, 0.00080376613, 0.0001896576, -1155580.8, -28049.592, 0.0, 10.005878, 9.953718 
5.685417e+3, 1.9489965e+2, -1057473.4, -1097285.3, -26.567713, 0.000802975, 0.000055646597, -1057473.4, -27489.023, 0.0, 10.005871, 9.953374 
5.685416e+3, 2.0484672e+2, -969348.2, -1018933.9, -15.56194, 0.00080247014, 0.00017575266, -969348.1, -36845.234, 0.0, 10.005864, 9.940605 
5.685415e+3, 2.1478736e+2, -871103.2, -920945.8, -27.04763, 0.0008022651, -0.000019824518, -871103.2, -36018.58, 0.0, 10.005857, 9.940265 
5.685414e+3, 2.2472131e+2, -782855.3, -842728.5, -14.669395, 0.0008018266, 0.00022544609, -782855.25, -45123.34, 0.0, 10.005851, 9.927215 
5.685413e+3, 2.3464859e+2, -684461.4, -744585.9, -25.981184, 0.0008011289, 0.0000113188125, -684461.4, -44016.742, 0.0, 10.005845, 9.926883 
5.685413e+3, 2.4456891e+2, -596174.7, -666686.9, -11.869308, 0.00080060423, 0.0001713064, -596174.7, -52949.285, 0.0, 10.005839, 9.913433 
5.6854117e+3, 2.5448248e+2, -497462.03, -568047.5, -22.79029, 0.00080027943, -0.000012625973, -497462.03, -51389.465, 0.0, 10.005834, 9.913333 
5.6854105e+3, 2.6438892e+2, -409270.97, -490757.28, -7.4278846, 0.00079993444, 0.00023136113, -409270.97, -60281.72, 0.0, 10.005828, 9.8992405 
5.68541e+3, 2.7428868e+2, -310024.66, -391180.66, -17.715103, 0.00079956197, -0.000117088864, -310024.63, -58053.34, 0.0, 10.005823, 9.899659 
5.6854093e+3, 2.8418034e+2, -223501.13, -317764.9, -2.3882887, 0.0007991871, 0.000312529, -223501.13, -68467.62, 0.0, 10.005819, 9.882814 
5.685409e+3, 2.9406416e+2, -123826.555, -217470.45, -11.996012, 0.00079880666, -0.00017068206, -123826.55, -65655.0, 0.0, 10.0058155, 9.883601 
5.685408e+3, 3.0397588e+2, -34336.86, -84881.89, 3.252527, 0.00079834217, 0.00025154618, -34336.86, -34336.86, 0.0, 10.005812, 9.939285 
5.6854075e+3, 3.13917e+2, -33286.094, -82689.484, -5.819947, 0.00079775613, 0.000014063836, -33286.094, -33286.094, 0.0, 10.005809, 9.940767 
5.69543e+3, 1.2509167e+2, -1712563.9, -1723269.9, 0.7018738, 0.0008150474, 0.00017768303, -1712563.9, 1538.8998, 0.0, 10.005927, 9.991737 
5.6954294e+3, 1.3508326e+2, -1615229.8, -1626521.6, -10.798404, 0.0008136532, -0.0000022181896, -1615229.8, 955.42017, 0.0, 10.0059185, 9.990953 
5.695428e+3, 1.450683e+2, -1527166.4, -1547272.9, -6.094792, 0.00081286434, 0.00025846643, -1527166.4, -8834.71, 0.0, 10.00591, 9.979272 
5.695427e+3, 1.5504755e+2, -1429483.1, -1449987.1, -17.812752, 0.00081264786, 0.00006876902, -1429483.1, -8948.066, 0.0, 10.005902, 9.978741 
5.695426e+3, 1.6502017e+2, -1341483.9, -1371184.9, -13.326379, 0.0008121847, 0.0001503916, -1341483.9, -18680.658, 0.0, 10.005895, 9.966638 
5.6954247e+3, 1.7498687e+2, -1243570.0, -1273581.5, -24.127415, 0.00081148144, 0.000046433513, -1243570.0, -18440.344, 0.0, 10.005887, 9.966224 
5.695424e+3, 1.8494686e+2, -1155604.1, -1195183.1, -17.313519, 0.00081081805, 0.00019015263, -1155604.1, -28082.43, 0.0, 10.005879, 9.953687 
5.695423e+3, 1.9490057e+2, -1057496.5, -1097333.5, -29.128458, 0.00081019104, 0.000056013105, -1057496.5, -27521.328, 0.0, 10.005873, 9.953343 
5.6954217e+3, 2.0484762e+2, -969370.8, -1018981.5, -18.179888, 0.00080980285, 0.00017612631, -969370.8, -36876.754, 0.0, 10.005866, 9.940575 
5.695421e+3, 2.1478824e+2, -871125.56, -920993.06, -29.67494, 0.0008096642, -0.000019301135, -871125.56, -36049.473, 0.0, 10.005858, 9.940233 
5.69542e+3, 2.2472215e+2, -782877.7, -842776.06, -16.75131, 0.00080909504, 0.00022601834, -782877.6, -45153.94, 0.0, 10.005852, 9.927183 
5.695419e+3, 2.346494e+2, -684483.5, -744633.2, -28.048126, 0.0008080499, 0.000011828885, -684483.5, -44046.83, 0.0, 10.005846, 9.926852 
5.695419e+3, 2.4456969e+2, -596196.7, -666734.06, -14.0177555, 0.000807557, 0.00017175391, -596196.7, -52978.89, 0.0, 10.00584, 9.913402 
5.6954175e+3, 2.5448322e+2, -497483.72, -568094.44, -24.93995, 0.0008077053, -0.000012241488, -497483.7, -51418.453, 0.0, 10.005835, 9.913301 
5.6954163e+3, 2.6438963e+2, -409292.2, -490803.56, -9.131244, 0.0008074375, 0.00023166173, -409292.2, -60309.95, 0.0, 10.00583, 9.89921 
5.695416e+3, 2.742894e+2, -310045.6, -391226.63, -19.40638, 0.0008066494, -0.00011689762, -310045.6, -58080.984, 0.0, 10.005825, 9.899629 
5.695415e+3, 2.8418097e+2, -223521.66, -317810.3, -3.8003306, 0.00080607523, 0.00031288518, -223521.66, -68494.555, 0.0, 10.00582, 9.882784 
5.6954145e+3, 2.9406482e+2, -123846.81, -217515.55, -13.366699, 0.00080578757, -0.00016979418, -123846.81, -65681.37, 0.0, 10.005816, 9.883571 
5.695414e+3, 3.0397648e+2, -34357.83, -84928.55, 2.0171127, 0.00080549065, 0.00025225873, -34357.83, -34357.83, 0.0, 10.005813, 9.939254 
5.6954134e+3, 3.1391758e+2, -33307.17, -82736.37, -7.0653944, 0.00080517866, 0.000013570076, -33307.168, -33307.168, 0.0, 10.00581, 9.940735 
5.7054365e+3, 1.2509282e+2, -1712361.3, -1723197.3, 3.762572, 0.00082241796, 0.0001783453, -1712361.3, 1730.2375, 0.0, 10.006068, 9.991706 
5.705435e+3, 1.3508438e+2, -1615028.8, -1626450.3, -7.8737407, 0.0008209559, -0.0000016188395, -1615028.8, 1145.4558, 0.0, 10.00606, 9.990923 
5.705434e+3, 1.4506939e+2, -1526967.4, -1547203.5, -3.3009605, 0.0008201602, 0.0002590233, -1526967.4, -8646.383, 0.0, 10.006051, 9.97924 
5.705433e+3, 1.550486e+2, -1429286.4, -1449919.4, -15.259049, 0.00081999577, 0.00006930273, -1429286.4, -8761.659, 0.0, 10.0060425, 9.978709 
5.705432e+3, 1.6502121e+2, -1341286.6, -1371114.5, -10.860834, 0.00081949163, 0.0001509517, -1341286.6, -18493.42, 0.0, 10.006034, 9.966608 
5.7054305e+3, 1.7498787e+2, -1243374.3, -1273512.4, -21.947401, 0.00081865577, 0.000047068927, -1243374.3, -18254.354, 0.0, 10.006026, 9.966194 
5.70543e+3, 1.8494783e+2, -1155412.1, -1195119.4, -15.206422, 0.0008180369, 0.00019074572, -1155412.1, -27900.021, 0.0, 10.006018, 9.953655 
5.705429e+3, 1.9490153e+2, -1057307.4, -1097271.6, -27.09123, 0.0008176335, 0.000056444944, -1057307.4, -27341.363, 0.0, 10.00601, 9.953312 
5.7054275e+3, 2.0484854e+2, -969183.2, -1018920.94, -16.136536, 0.00081718963, 0.00017653615, -969183.2, -36698.004, 0.0, 10.006002, 9.940543 
5.705427e+3, 2.1478912e+2, -870938.7, -920933.4, -28.002443, 0.00081670214, -0.000018767116, -870938.6, -35871.16, 0.0, 10.005996, 9.940202 
5.705426e+3, 2.24723e+2, -782692.25, -842717.56, -15.103552, 0.00081612513, 0.00022658946, -782692.25, -44976.83, 0.0, 10.005988, 9.927152 
5.7054245e+3, 2.3465021e+2, -684301.2, -744576.75, -26.537844, 0.00081544725, 0.000012341318, -684301.2, -43872.496, 0.0, 10.005981, 9.926821 
5.7054245e+3, 2.4457048e+2, -596016.1, -666678.94, -12.43368, 0.000815015, 0.00017217001, -596016.1, -52806.03, 0.0, 10.005975, 9.913371 
5.7054234e+3, 2.5448397e+2, -497304.2, -568040.25, -23.462852, 0.0008148671, -0.000011965553, -497304.2, -51246.3, 0.0, 10.005969, 9.91327 
5.705422e+3, 2.6439035e+2, -409113.97, -490750.72, -7.6114616, 0.0008144745, 0.00023199775, -409113.97, -60138.758, 0.0, 10.005963, 9.8991785 
5.705422e+3, 2.7429006e+2, -309869.34, -391175.3, -18.368149, 0.0008137749, -0.00011625232, -309869.34, -57911.492, 0.0, 10.005959, 9.899597 
5.705421e+3, 2.8418165e+2, -223346.13, -317758.16, -2.6897078, 0.00081329147, 0.0003134877, -223346.13, -68325.46, 0.0, 10.005953, 9.882754 
5.7054204e+3, 2.9406542e+2, -123673.52, -217464.88, -11.9659815, 0.00081309676, -0.00016970791, -123673.52, -65514.223, 0.0, 10.005948, 9.883541 
5.70542e+3, 3.0397707e+2, -34189.223, -84884.05, 3.538908, 0.00081275473, 0.00025227875, -34189.223, -34189.223, 0.0, 10.005944, 9.93922 
5.705419e+3, 3.1391814e+2, -33138.96, -82692.42, -6.2291927, 0.0008121962, 0.000014185379, -33138.96, -33138.96, 0.0, 10.00594, 9.9407015 
5.7154423e+3, 1.2509398e+2, -1712385.8, -1723246.6, 0.617306, 0.0008297253, 0.00017865744, -1712385.8, 1694.3248, 0.0, 10.006069, 9.991675 
5.715442e+3, 1.3508551e+2, -1615053.0, -1626499.4, -11.025268, 0.00082842703, -0.0000007050718, -1615053.0, 1110.0728, 0.0, 10.006061, 9.990891 
5.7154405e+3, 1.450705e+2, -1526992.0, -1547253.5, -6.478996, 0.00082761684, 0.00025997256, -1526992.0, -8681.76, 0.0, 10.006052, 9.979209 
5.715439e+3, 1.5504967e+2, -1429310.6, -1449969.0, -18.430393, 0.0008272648, 0.00006973835, -1429310.6, -8796.415, 0.0, 10.006043, 9.978678 
5.715438e+3, 1.6502225e+2, -1341308.6, -1371160.1, -13.785091, 0.0008266824, 0.00015128033, -1341308.6, -18525.627, 0.0, 10.006036, 9.966579 
5.715437e+3, 1.7498888e+2, -1243396.0, -1273557.8, -24.869366, 0.0008258763, 0.000047691214, -1243396.0, -18286.059, 0.0, 10.006027, 9.966166 
5.715436e+3, 1.849488e+2, -1155435.6, -1195168.1, -18.182156, 0.00082540786, 0.00019142224, -1155435.6, -27933.07, 0.0, 10.00602, 9.953624 
5.7154346e+3, 1.9490246e+2, -1057330.5, -1097320.1, -30.076437, 0.0008252767, 0.00005693365, -1057330.5, -27373.8, 0.0, 10.006011, 9.95328 
5.7154334e+3, 2.0484945e+2, -969206.56, -1018970.0, -18.683226, 0.0008246313, 0.00017697824, -969206.56, -36730.313, 0.0, 10.006003, 9.940511 
5.715433e+3, 2.1478999e+2, -870961.75, -920982.2, -30.537354, 0.00082344527, -0.00001822357, -870961.75, -35902.918, 0.0, 10.005997, 9.94017 
5.715432e+3, 2.2472385e+2, -782714.9, -842765.7, -17.679497, 0.00082296476, 0.00022715972, -782714.9, -45007.8, 0.0, 10.00599, 9.92712 
5.715431e+3, 2.3465103e+2, -684323.56, -744624.56, -29.119814, 0.0008232575, 0.000012856184, -684323.56, -43902.855, 0.0, 10.005982, 9.926789 
5.7154304e+3, 2.4457125e+2, -596038.25, -666726.5, -14.590913, 0.0008229097, 0.0001725605, -596038.25, -52835.83, 0.0, 10.005977, 9.91334 
5.715429e+3, 2.544847e+2, -497326.0, -568087.56, -25.609352, 0.0008218147, -0.000011779754, -497326.0, -51275.51, 0.0, 10.00597, 9.913239 
5.7154286e+3, 2.643911e+2, -409136.06, -490798.94, -9.549813, 0.00082112657, 0.00023236527, -409136.06, -60167.97, 0.0, 10.005965, 9.899146 
5.715428e+3, 2.7429077e+2, -309891.22, -391223.28, -20.285341, 0.00082094286, -0.000115222545, -309891.22, -57940.152, 0.0, 10.0059595, 9.899565 
5.7154274e+3, 2.8418228e+2, -223366.14, -317802.6, -4.4103527, 0.0008207957, 0.0003142983, -223366.14, -68351.95, 0.0, 10.005955, 9.882725 
5.715426e+3, 2.9406607e+2, -123693.125, -217508.77, -13.685704, 0.0008206935, -0.00017029983, -123693.12, -65539.99, 0.0, 10.00595, 9.883512 
5.7154256e+3, 3.0397767e+2, -34211.26, -84933.12, 2.226624, 0.00082012574, 0.00025171388, -34211.26, -34211.26, 0.0, 10.005945, 9.939187 
5.715425e+3, 3.139187e+2, -33161.324, -82742.14, -7.4917426, 0.00081887934, 0.000015741978, -33161.32, -33161.32, 0.0, 10.005942, 9.940667 
5.725449e+3, 1.2509516e+2, -1712178.8, -1723172.5, 4.0449443, 0.0008370333, 0.00017918134, -1712178.8, 1889.7773, 0.0, 10.006214, 9.991643 
5.7254475e+3, 1.3508666e+2, -1614848.8, -1626427.3, -8.00983, 0.0008358817, -0.000000006454897, -1614848.8, 1303.1134, 0.0, 10.006205, 9.99086 
5.7254463e+3, 1.450716e+2, -1526789.6, -1547183.0, -3.5839143, 0.00083505927, 0.0002607046, -1526789.6, -8490.309, 0.0, 10.006195, 9.979177 
5.725445e+3, 1.5505075e+2, -1429109.8, -1449899.8, -15.677022, 0.0008345407, 0.000070366266, -1429109.8, -8606.068, 0.0, 10.0061865, 9.978645 
5.725444e+3, 1.6502328e+2, -1341107.4, -1371088.3, -11.087998, 0.00083397015, 0.00015181562, -1341107.4, -18334.686, 0.0, 10.006177, 9.96655 
5.725443e+3, 1.7498988e+2, -1243197.6, -1273487.8, -22.310968, 0.0008333513, 0.000048145543, -1243197.6, -18097.549, 0.0, 10.006168, 9.966136 
5.725442e+3, 1.849498e+2, -1155241.0, -1195103.6, -15.728445, 0.0008328503, 0.00019192282, -1155241.0, -27748.04, 0.0, 10.00616, 9.953591 
5.725441e+3, 1.9490343e+2, -1057137.1, -1097256.8, -28.018694, 0.00083246425, 0.000057608988, -1057137.0, -27189.67, 0.0, 10.006151, 9.953248 
5.72544e+3, 2.0485038e+2, -969014.7, -1018907.8, -16.603065, 0.0008318135, 0.00017764063, -969014.6, -36547.453, 0.0, 10.006144, 9.940479 
5.725439e+3, 2.147909e+2, -870772.6, -920921.94, -28.494759, 0.0008308837, -0.000017770932, -870772.56, -35722.453, 0.0, 10.006135, 9.940138 
5.725438e+3, 2.247247e+2, -782527.5, -842706.75, -15.653893, 0.00083043036, 0.00022753427, -782527.5, -44828.8, 0.0, 10.006127, 9.927089 
5.725437e+3, 2.3465185e+2, -684137.6, -744566.9, -27.37453, 0.00083049864, 0.0000132973655, -684137.56, -43724.98, 0.0, 10.006121, 9.926757 
5.725436e+3, 2.4457206e+2, -595853.6, -666669.94, -12.778422, 0.00083007466, 0.00017307856, -595853.6, -52658.99, 0.0, 10.006113, 9.913307 
5.7254356e+3, 2.544855e+2, -497143.38, -568032.56, -24.098671, 0.0008290757, -0.000011173044, -497143.38, -51100.344, 0.0, 10.006107, 9.913207 
5.7254344e+3, 2.643918e+2, -408955.3, -490745.44, -8.014027, 0.00082844554, 0.00023288894, -408955.3, -59994.36, 0.0, 10.006101, 9.899115 
5.725434e+3, 2.742915e+2, -309712.7, -391171.44, -18.701681, 0.0008282724, -0.000114994895, -309712.7, -57768.453, 0.0, 10.006095, 9.899532 
5.725433e+3, 2.8418297e+2, -223187.95, -317749.56, -2.7063928, 0.00082808774, 0.00031451165, -223187.95, -68180.28, 0.0, 10.006089, 9.882693 
5.7254326e+3, 2.940667e+2, -123516.305, -217456.78, -12.45558, 0.00082788384, -0.00016972367, -123516.305, -65369.4, 0.0, 10.0060835, 9.883481 
5.7254314e+3, 3.0397826e+2, -34039.297, -84888.0, 3.470853, 0.0008272797, 0.00025234127, -34039.297, -34039.297, 0.0, 10.00608, 9.939153 
5.7254314e+3, 3.1391928e+2, -32990.477, -82697.984, -6.257523, 0.0008260923, 0.00001596643, -32990.477, -32990.477, 0.0, 10.006075, 9.940633 
5.735455e+3, 1.2509634e+2, -1712204.3, -1723223.6, 0.50420517, 0.0008443539, 0.00017988503, -1712204.3, 1852.7487, 0.0, 10.006216, 9.991611 
5.7354534e+3, 1.350878e+2, -1614874.0, -1626478.1, -11.53529, 0.0008433329, 0.00000051182695, -1614874.0, 1266.7175, 0.0, 10.006206, 9.990828 
5.735453e+3, 1.4507271e+2, -1526814.5, -1547233.5, -6.8217745, 0.0008424999, 0.0002612544, -1526814.5, -8526.043, 0.0, 10.006197, 9.979145 
5.735451e+3, 1.5505183e+2, -1429134.3, -1449950.0, -18.918545, 0.0008418341, 0.00007115689, -1429134.3, -8641.242, 0.0, 10.006187, 9.978614 
5.7354504e+3, 1.6502434e+2, -1341129.8, -1371134.4, -14.406315, 0.000841351, 0.00015252609, -1341129.8, -18367.3, 0.0, 10.006179, 9.96652 
5.735449e+3, 1.7499092e+2, -1243219.6, -1273533.6, -25.631153, 0.0008410505, 0.000048460184, -1243219.6, -18129.588, 0.0, 10.00617, 9.966106 
5.735448e+3, 1.8495078e+2, -1155265.3, -1195154.0, -18.7316, 0.00084036257, 0.00019227676, -1155265.1, -27781.982, 0.0, 10.006162, 9.953559 
5.7354474e+3, 1.9490437e+2, -1057161.0, -1097306.9, -31.017351, 0.0008392791, 0.00005844188, -1057161.0, -27223.037, 0.0, 10.006153, 9.953216 
5.7354456e+3, 2.048513e+2, -969038.06, -1018957.0, -19.54399, 0.00083878863, 0.0001784888, -969038.0, -36579.91, 0.0, 10.006145, 9.940447 
5.735445e+3, 2.1479177e+2, -870795.7, -920970.8, -31.441547, 0.0008389186, -0.000017393655, -870795.7, -35754.316, 0.0, 10.006137, 9.940106 
5.7354444e+3, 2.2472557e+2, -782550.6, -842756.0, -18.333052, 0.0008384333, 0.00022774555, -782550.6, -44860.37, 0.0, 10.006129, 9.927056 
5.735443e+3, 2.3465268e+2, -684160.44, -744615.8, -30.04784, 0.00083726965, 0.000013677706, -684160.4, -43755.93, 0.0, 10.006122, 9.926724 
5.7354426e+3, 2.4457286e+2, -595876.25, -666718.8, -15.160749, 0.0008366344, 0.0001737051, -595876.25, -52689.44, 0.0, 10.006115, 9.913275 
5.7354414e+3, 2.5448626e+2, -497165.75, -568081.1, -26.468372, 0.00083661184, -0.000010210859, -497165.75, -51130.24, 0.0, 10.006108, 9.913175 
5.73544e+3, 2.6439255e+2, -408977.3, -490793.5, -10.239815, 0.00083633774, 0.00023354466, -408977.3, -60023.55, 0.0, 10.006103, 9.899082 
5.7354397e+3, 2.7429217e+2, -309734.38, -391219.16, -20.92491, 0.0008357478, -0.00011544309, -309734.38, -57796.996, 0.0, 10.006096, 9.899501 
5.735439e+3, 2.8418362e+2, -223208.75, -317795.8, -4.5496826, 0.0008352099, 0.00031422265, -223208.75, -68207.63, 0.0, 10.00609, 9.882663 
5.7354385e+3, 2.9406735e+2, -123536.766, -217502.63, -14.270447, 0.0008347405, -0.00016815974, -123536.766, -65396.133, 0.0, 10.006085, 9.88345 
5.735438e+3, 3.039789e+2, -34061.426, -84937.375, 1.9738442, 0.00083426037, 0.00025397597, -34061.426, -34061.426, 0.0, 10.006081, 9.939118 
5.735437e+3, 3.1391987e+2, -33012.87, -82747.836, -7.710366, 0.0008337633, 0.000015065082, -33012.87, -33012.87, 0.0, 10.006077, 9.9405985 
5.745461e+3, 1.2509753e+2, -1711994.3, -1723148.5, 3.9489934, 0.00085194496, 0.00018069563, -1711994.3, 2051.053, 0.0, 10.006362, 9.991578 
5.74546e+3, 1.3508897e+2, -1614665.4, -1626404.3, -8.107394, 0.00085066695, 0.0000010802211, -1614665.4, 1463.9806, 0.0, 10.006352, 9.990795 
5.745459e+3, 1.4507383e+2, -1526607.9, -1547161.4, -3.4731307, 0.000849816, 0.00026175086, -1526607.9, -8330.526, 0.0, 10.006343, 9.979113 
5.7454574e+3, 1.5505293e+2, -1428930.6, -1449879.9, -15.907142, 0.00084936304, 0.00007174541, -1428930.5, -8448.227, 0.0, 10.006332, 9.978581 
5.745457e+3, 1.6502541e+2, -1340925.6, -1371061.5, -11.553785, 0.0008488833, 0.0001531774, -1340925.6, -18173.594, 0.0, 10.006323, 9.96649 
5.7454556e+3, 1.7499195e+2, -1243017.0, -1273462.1, -23.009583, 0.00084838056, 0.000049145645, -1243017.0, -17937.043, 0.0, 10.006313, 9.966076 
5.745454e+3, 1.8495178e+2, -1155066.4, -1195088.1, -16.090391, 0.0008476605, 0.00019290166, -1155066.4, -27593.004, 0.0, 10.006305, 9.9535265 
5.745453e+3, 1.9490536e+2, -1056964.8, -1097242.8, -28.490425, 0.00084671646, 0.000058910737, -1056964.6, -27036.168, 0.0, 10.006295, 9.953183 
5.745452e+3, 2.0485224e+2, -968843.44, -1018894.06, -17.117208, 0.00084626704, 0.00017894243, -968843.44, -36394.496, 0.0, 10.006287, 9.940414 
5.7454515e+3, 2.147927e+2, -870603.2, -920909.44, -29.336473, 0.00084633497, -0.000016807768, -870603.2, -35570.656, 0.0, 10.006278, 9.940074 
5.74545e+3, 2.2472644e+2, -782359.6, -842695.94, -16.122381, 0.0008457835, 0.00022836053, -782359.6, -44677.93, 0.0, 10.006269, 9.927024 
5.745449e+3, 2.3465352e+2, -683970.9, -744557.06, -28.02196, 0.00084454886, 0.000014208544, -683970.9, -43574.62, 0.0, 10.006262, 9.926692 
5.7454485e+3, 2.4457365e+2, -595688.44, -666661.3, -13.187706, 0.0008439347, 0.00017416853, -595688.44, -52509.516, 0.0, 10.006254, 9.913242 
5.745448e+3, 2.54487e+2, -496980.72, -568025.5, -24.639645, 0.0008440405, -0.000009795412, -496980.72, -50952.766, 0.0, 10.006247, 9.913142 
5.7454467e+3, 2.6439327e+2, -408794.0, -490739.16, -8.264534, 0.00084377633, 0.00023396374, -408794.0, -59847.47, 0.0, 10.00624, 9.89905 
5.745446e+3, 2.742929e+2, -309552.28, -391165.97, -19.226948, 0.00084304897, -0.0001149562, -309552.28, -57621.85, 0.0, 10.006233, 9.899468 
5.7454455e+3, 2.841843e+2, -223027.1, -317742.06, -2.8327355, 0.0008424438, 0.00031473185, -223027.1, -68032.61, 0.0, 10.0062275, 9.882631 
5.745445e+3, 2.9406798e+2, -123357.164, -217450.33, -12.752027, 0.0008420018, -0.00016768984, -123357.164, -65222.844, 0.0, 10.006222, 9.883418 
5.7454437e+3, 3.039795e+2, -33886.758, -84890.99, 3.5889046, 0.0008415642, 0.0002543594, -33886.758, -33886.758, 0.0, 10.006216, 9.939085 
5.745443e+3, 3.1392044e+2, -32840.01, -82702.65, -6.018309, 0.0008411309, 0.000015295649, -32840.008, -32840.008, 0.0, 10.006211, 9.940564 
5.7554674e+3, 1.2509872e+2, -1712019.6, -1723199.8, 0.3695533, 0.0008597726, 0.0001815958, -1712019.6, 2013.923, 0.0, 10.006364, 9.991546 
5.755466e+3, 1.3509011e+2, -1614690.5, -1626455.1, -11.691194, 0.0008579152, 0.0000016924433, -1614690.5, 1427.417, 0.0, 10.006354, 9.990763 
5.7554656e+3, 1.4507498e+2, -1526633.5, -1547213.4, -7.1337967, 0.0008570403, 0.00026220497, -1526633.5, -8367.168, 0.0, 10.006344, 9.979079 
5.755464e+3, 1.5505403e+2, -1428955.8, -1449931.5, -19.558788, 0.0008570997, 0.000072165945, -1428955.8, -8484.223, 0.0, 10.006334, 9.978548 
5.7554626e+3, 1.6502647e+2, -1340948.4, -1371108.6, -14.93765, 0.00085655256, 0.00015378004, -1340948.3, -18206.764, 0.0, 10.006325, 9.966459 
5.755462e+3, 1.7499298e+2, -1243039.4, -1273508.9, -26.396805, 0.0008554127, 0.00005014277, -1243039.4, -17969.674, 0.0, 10.006315, 9.966045 
5.75546e+3, 1.8495281e+2, -1155090.8, -1195138.9, -19.416065, 0.0008547907, 0.00019375468, -1155090.8, -27627.28, 0.0, 10.006306, 9.953493 
5.7554597e+3, 1.9490632e+2, -1056988.9, -1097293.3, -31.815758, 0.0008546871, 0.000059075734, -1056988.8, -27069.85, 0.0, 10.006297, 9.95315 
5.7554585e+3, 2.0485318e+2, -968867.44, -1018944.56, -20.304197, 0.00085417775, 0.00017906679, -968867.44, -36427.684, 0.0, 10.006289, 9.940382 
5.755457e+3, 2.147936e+2, -870626.8, -920959.6, -32.52568, 0.0008532421, -0.000016045615, -870626.8, -35603.2, 0.0, 10.00628, 9.940041 
5.7554567e+3, 2.247273e+2, -782383.06, -842745.94, -18.88959, 0.0008525965, 0.0002293152, -782383.06, -44709.91, 0.0, 10.006271, 9.9269905 
5.7554555e+3, 2.3465437e+2, -683994.06, -744606.75, -30.778416, 0.0008522667, 0.000014866649, -683994.06, -43606.06, 0.0, 10.006264, 9.92666 
5.7554543e+3, 2.4457446e+2, -595711.3, -666710.7, -15.9893875, 0.00085186836, 0.00017449594, -595711.3, -52540.355, 0.0, 10.006256, 9.91321 
5.7554543e+3, 2.5448778e+2, -497003.25, -568074.56, -27.445755, 0.00085138826, -0.000009838177, -497003.25, -50982.92, 0.0, 10.006248, 9.913109 
5.755453e+3, 2.6439404e+2, -408816.4, -490788.3, -10.554828, 0.0008508429, 0.0002341855, -408816.4, -59877.184, 0.0, 10.006242, 9.899017 
5.755452e+3, 2.742936e+2, -309574.47, -391214.84, -21.495155, 0.000850214, -0.00011368149, -309574.44, -57651.0, 0.0, 10.006235, 9.899435 
5.755452e+3, 2.84185e+2, -223048.27, -317789.16, -4.9228654, 0.0008497827, 0.00031591306, -223048.27, -68060.445, 0.0, 10.006229, 9.8826 
5.755451e+3, 2.9406863e+2, -123377.99, -217497.0, -14.812388, 0.0008496142, -0.00016814064, -123377.99, -65250.016, 0.0, 10.006224, 9.883387 
5.75545e+3, 3.039801e+2, -33908.73, -84940.18, 1.708316, 0.00084915, 0.00025369046, -33908.73, -33908.73, 0.0, 10.006218, 9.939051 
5.7554495e+3, 3.1392103e+2, -32862.11, -82752.16, -7.9118996, 0.000848252, 0.000016482001, -32862.105, -32862.105, 0.0, 10.006213, 9.94053 
5.765474e+3, 1.2509994e+2, -1711805.4, -1723122.9, 4.2472653, 0.00086718926, 0.00018213797, -1711805.4, 2216.3647, 0.0, 10.006514, 9.991513 
5.7654727e+3, 1.3509129e+2, -1614478.9, -1626380.3, -8.179773, 0.0008655288, 0.000002447494, -1614478.9, 1627.504, 0.0, 10.006502, 9.990729 
5.7654715e+3, 1.4507613e+2, -1526423.9, -1547140.4, -3.782001, 0.0008646514, 0.00026297662, -1526423.9, -8168.839, 0.0, 10.006492, 9.979046 
5.76547e+3, 1.5505515e+2, -1428747.9, -1449859.9, -16.315083, 0.0008645153, 0.000072763876, -1428747.8, -8287.154, 0.0, 10.006482, 9.978515 
5.765469e+3, 1.6502756e+2, -1340740.0, -1371034.3, -11.709775, 0.0008639266, 0.0001543318, -1340740.0, -18008.969, 0.0, 10.006472, 9.966429 
5.7654685e+3, 1.7499404e+2, -1242833.5, -1273436.5, -23.426067, 0.00086289627, 0.00005077388, -1242833.5, -17774.027, 0.0, 10.006461, 9.966015 
5.7654667e+3, 1.8495381e+2, -1154889.0, -1195071.9, -16.584953, 0.0008623354, 0.00019438911, -1154889.0, -27435.438, 0.0, 10.006452, 9.953461 
5.765466e+3, 1.9490731e+2, -1056789.4, -1097228.0, -29.176447, 0.00086224417, 0.000059636674, -1056789.4, -26880.033, 0.0, 10.006441, 9.953116 
5.765465e+3, 2.0485413e+2, -968669.5, -1018880.75, -17.574583, 0.00086164044, 0.00017961352, -968669.5, -36239.105, 0.0, 10.006433, 9.940349 
5.765464e+3, 2.1479452e+2, -870430.06, -920896.94, -30.054522, 0.00086049834, -0.000015450796, -870430.06, -35415.44, 0.0, 10.006424, 9.940007 
5.765463e+3, 2.247282e+2, -782188.06, -842684.4, -16.51864, 0.00085990154, 0.0002298977, -782188.06, -44523.605, 0.0, 10.006414, 9.926958 
5.765462e+3, 2.3465522e+2, -683802.56, -744547.5, -28.574497, 0.0008599009, 0.000015370439, -683802.56, -43422.883, 0.0, 10.006406, 9.926626 
5.765461e+3, 2.4457529e+2, -595521.6, -666652.8, -13.629987, 0.00085951627, 0.00017495781, -595521.6, -52358.64, 0.0, 10.006397, 9.913177 
5.765461e+3, 2.544886e+2, -496814.16, -568017.5, -25.302132, 0.00085868314, -0.00000937558, -496814.13, -50801.504, 0.0, 10.00639, 9.913076 
5.7654595e+3, 2.643948e+2, -408628.75, -490732.78, -8.455419, 0.00085802545, 0.00023469885, -408628.75, -59696.91, 0.0, 10.006382, 9.898984 
5.7654583e+3, 2.7429432e+2, -309389.63, -391161.28, -19.731768, 0.0008575836, -0.00011305499, -309389.63, -57473.215, 0.0, 10.006375, 9.899402 
5.765458e+3, 2.8418568e+2, -222864.19, -317734.28, -3.018395, 0.00085727265, 0.00031644737, -222864.19, -67883.09, 0.0, 10.006368, 9.882568 
5.765457e+3, 2.9406932e+2, -123195.99, -217443.52, -12.724735, 0.00085713394, -0.0001679746, -123195.99, -65074.43, 0.0, 10.006362, 9.883355 
5.7654566e+3, 3.0398074e+2, -33731.73, -84893.87, 3.863797, 0.00085657503, 0.00025386762, -33731.73, -33731.73, 0.0, 10.006355, 9.939015 
5.765456e+3, 3.139216e+2, -32685.156, -82706.32, -6.565358, 0.0008554015, 0.000017227292, -32685.156, -32685.156, 0.0, 10.0063505, 9.940495 
5.77548e+3, 1.2510116e+2, -1711831.5, -1723175.6, 0.30541116, 0.0008742767, 0.00018238458, -1711831.5, 2178.2546, 0.0, 10.0065155, 9.99148 
5.7754797e+3, 1.3509248e+2, -1614504.8, -1626432.8, -12.115371, 0.00087345805, 0.0000033223173, -1614504.8, 1590.0005, 0.0, 10.006504, 9.990697 
5.775478e+3, 1.4507727e+2, -1526449.6, -1547192.8, -7.539032, 0.0008725954, 0.0002640133, -1526449.6, -8205.805, 0.0, 10.006494, 9.9790125 
5.775477e+3, 1.5505625e+2, -1428773.1, -1449911.9, -20.074099, 0.0008716751, 0.000073511335, -1428773.1, -8323.495, 0.0, 10.006483, 9.978481 
5.7754755e+3, 1.6502865e+2, -1340763.1, -1371082.4, -15.410335, 0.00087106694, 0.000154843, -1340763.1, -18042.83, 0.0, 10.006474, 9.966398 
5.775475e+3, 1.7499508e+2, -1242856.4, -1273484.4, -27.121452, 0.0008707683, 0.000051100884, -1242856.4, -17807.328, 0.0, 10.006463, 9.965984 
5.775474e+3, 1.8495484e+2, -1154913.8, -1195123.4, -20.206415, 0.0008702368, 0.0001948424, -1154913.8, -27470.193, 0.0, 10.0064535, 9.953427 
5.775472e+3, 1.9490829e+2, -1056813.8, -1097279.3, -32.806816, 0.0008694661, 0.00006052973, -1056813.8, -26914.135, 0.0, 10.006443, 9.953083 
5.7754713e+3, 2.0485508e+2, -968693.94, -1018932.25, -20.770103, 0.00086873997, 0.00018051435, -968693.94, -36272.89, 0.0, 10.006434, 9.940315 
5.77547e+3, 2.1479544e+2, -870454.25, -920948.2, -33.23935, 0.0008680591, -0.000014994702, -870454.25, -35448.67, 0.0, 10.006425, 9.939974 
5.775469e+3, 2.2472909e+2, -782211.8, -842735.0, -19.865194, 0.00086763, 0.00023017034, -782211.8, -44556.055, 0.0, 10.006416, 9.926925 
5.7754683e+3, 2.3465608e+2, -683825.9, -744597.75, -31.931173, 0.00086747453, 0.000015746547, -683825.9, -43454.625, 0.0, 10.006407, 9.926593 
5.775467e+3, 2.4457611e+2, -595544.75, -666703.0, -16.332483, 0.00086693437, 0.00017553369, -595544.75, -52389.88, 0.0, 10.006399, 9.913143 
5.7754666e+3, 2.544894e+2, -496837.1, -568067.5, -27.984003, 0.0008659454, -0.000008488306, -496837.06, -50832.195, 0.0, 10.006392, 9.913043 
5.775466e+3, 2.6439553e+2, -408651.84, -490783.3, -11.155646, 0.00086531753, 0.00023545732, -408651.84, -59727.418, 0.0, 10.006384, 9.89895 
5.775465e+3, 2.7429503e+2, -309412.4, -391211.5, -22.420334, 0.0008651354, -0.000112971575, -309412.4, -57503.074, 0.0, 10.006376, 9.899368 
5.775464e+3, 2.8418636e+2, -222884.97, -317780.78, -5.386053, 0.00086489867, 0.00031644045, -222884.97, -67910.63, 0.0, 10.00637, 9.882537 
5.7754636e+3, 2.9406995e+2, -123216.31, -217489.39, -15.096867, 0.0008645853, -0.00016728802, -123216.31, -65101.227, 0.0, 10.006363, 9.883325 
5.775463e+3, 3.0398136e+2, -33755.02, -84946.0, 2.00455, 0.00086387526, 0.00025475697, -33755.02, -33755.02, 0.0, 10.006357, 9.93898 
5.7754624e+3, 3.1392217e+2, -32708.879, -82759.234, -8.334455, 0.0008625867, 0.000017600874, -32708.877, -32708.877, 0.0, 10.006352, 9.940458 
5.785487e+3, 1.2510239e+2, -1711613.5, -1723097.6, 4.3563786, 0.00088187016, 0.00018310662, -1711613.5, 2384.2695, 0.0, 10.006667, 9.9914465 
5.785486e+3, 1.3509369e+2, -1614289.0, -1626356.5, -8.261302, 0.0008809679, 0.0000039341776, -1614289.0, 1793.9832, 0.0, 10.006656, 9.990663 
5.785485e+3, 1.4507845e+2, -1526236.0, -1547118.3, -3.7346249, 0.0008800947, 0.00026462463, -1526236.0, -8003.6123, 0.0, 10.006644, 9.978979 
5.785483e+3, 1.5505739e+2, -1428561.8, -1449839.1, -16.585972, 0.0008792338, 0.00007422703, -1428561.8, -8123.1914, 0.0, 10.006634, 9.978448 
5.7854825e+3, 1.6502973e+2, -1340551.5, -1371006.9, -12.07795, 0.0008786677, 0.00015554274, -1340551.5, -17841.967, 0.0, 10.006622, 9.966367 
5.785481e+3, 1.7499615e+2, -1242647.3, -1273410.6, -23.871988, 0.0008783943, 0.000051666797, -1242647.3, -17608.615, 0.0, 10.006612, 9.965953 
5.78548e+3, 1.8495587e+2, -1154708.4, -1195055.5, -16.941032, 0.0008777697, 0.00019539328, -1154708.4, -27275.041, 0.0, 10.006601, 9.953393 
5.785479e+3, 1.949093e+2, -1056609.8, -1097212.5, -29.916288, 0.0008767865, 0.000061185456, -1056609.8, -26719.963, 0.0, 10.006591, 9.95305 
5.785478e+3, 2.0485607e+2, -968491.9, -1018866.75, -17.969124, 0.0008761345, 0.00018117284, -968491.9, -36080.31, 0.0, 10.006581, 9.940281 
5.785477e+3, 2.1479636e+2, -870255.75, -920885.06, -30.50958, 0.000875828, -0.000014440418, -870255.75, -35259.32, 0.0, 10.006571, 9.93994 
5.785476e+3, 2.2473e+2, -782015.06, -842673.3, -17.03619, 0.00087536953, 0.00023067482, -782015.06, -44368.117, 0.0, 10.006561, 9.92689 
5.7854754e+3, 2.3465693e+2, -683629.56, -744536.8, -29.402143, 0.0008747419, 0.000016261065, -683629.5, -43266.76, 0.0, 10.006553, 9.926559 
5.785474e+3, 2.4457695e+2, -595349.94, -666643.3, -13.845822, 0.00087412726, 0.00017609794, -595349.94, -52203.19, 0.0, 10.006543, 9.91311 
5.785473e+3, 2.5449017e+2, -496645.7, -568010.06, -25.780062, 0.0008735258, -0.0000078284265, -496645.66, -50648.62, 0.0, 10.006535, 9.913009 
5.7854724e+3, 2.643963e+2, -408462.56, -490727.28, -8.818446, 0.0008730245, 0.00023601235, -408462.56, -59545.637, 0.0, 10.006526, 9.898916 
5.785472e+3, 2.7429578e+2, -309224.63, -391156.75, -19.97713, 0.0008726447, -0.000112769914, -309224.63, -57322.457, 0.0, 10.006518, 9.899335 
5.7854706e+3, 2.8418708e+2, -222697.42, -317725.22, -2.9031105, 0.00087225676, 0.00031670005, -222697.42, -67729.93, 0.0, 10.006512, 9.882504 
5.78547e+3, 2.9407063e+2, -123030.32, -217435.06, -13.387288, 0.00087185524, -0.00016642027, -123030.32, -64921.766, 0.0, 10.006504, 9.883292 
5.7854694e+3, 3.03982e+2, -33574.246, -84898.2, 3.71643, 0.0008712114, 0.00025561763, -33574.246, -33574.246, 0.0, 10.006497, 9.938945 
5.785469e+3, 3.139228e+2, -32530.486, -82712.97, -6.0657, 0.0008702128, 0.000017557586, -32530.486, -32530.486, 0.0, 10.006492, 9.940423 
5.795494e+3, 1.2510362e+2, -1711640.0, -1723151.1, 0.12338384, 0.00088989484, 0.00018422352, -1711640.0, 2345.512, 0.0, 10.006669, 9.991412 
5.7954925e+3, 1.350949e+2, -1614315.3, -1626409.8, -12.482942, 0.00088814227, 0.000004330222, -1614315.3, 1755.9076, 0.0, 10.006658, 9.990629 
5.7954913e+3, 1.4507963e+2, -1526262.3, -1547171.9, -7.74581, 0.00088723784, 0.00026488563, -1526262.3, -8041.4023, 0.0, 10.006646, 9.978945 
5.79549e+3, 1.5505853e+2, -1428587.8, -1449892.5, -20.592247, 0.00088713586, 0.00007491739, -1428587.8, -8160.3726, 0.0, 10.006636, 9.978414 
5.795489e+3, 1.6503085e+2, -1340574.8, -1371055.4, -16.084404, 0.00088666205, 0.00015639988, -1340574.8, -17876.111, 0.0, 10.006624, 9.966336 
5.795488e+3, 1.7499724e+2, -1242670.3, -1273458.8, -27.88766, 0.0008858269, 0.00005243329, -1242670.3, -17642.139, 0.0, 10.006614, 9.965922 
5.7954866e+3, 1.8495692e+2, -1154733.9, -1195108.5, -20.603764, 0.00088500837, 0.00019602735, -1154733.9, -27310.688, 0.0, 10.006603, 9.953359 
5.7954854e+3, 1.949103e+2, -1056635.0, -1097265.4, -33.56836, 0.0008842022, 0.00006164487, -1056634.9, -26755.033, 0.0, 10.006593, 9.953015 
5.795484e+3, 2.0485702e+2, -968516.4, -1018918.5, -21.75945, 0.000883787, 0.00018163076, -968516.4, -36114.363, 0.0, 10.006582, 9.940248 
5.7954836e+3, 2.1479732e+2, -870279.9, -920936.5, -34.314148, 0.00088377926, -0.00001380266, -870279.9, -35292.676, 0.0, 10.006573, 9.939906 
5.7954824e+3, 2.247309e+2, -782039.2, -842725.06, -20.220425, 0.00088312756, 0.00023137427, -782039.2, -44401.176, 0.0, 10.006563, 9.926857 
5.795481e+3, 2.3465782e+2, -683653.5, -744588.3, -32.568882, 0.0008817673, 0.00001689257, -683653.44, -43299.254, 0.0, 10.006554, 9.926525 
5.7954806e+3, 2.445778e+2, -595373.7, -666694.75, -17.112576, 0.00088114646, 0.0001766536, -595373.6, -52235.16, 0.0, 10.006545, 9.913075 
5.7954794e+3, 2.5449097e+2, -496669.1, -568061.1, -29.046331, 0.0008813815, -0.0000073579004, -496669.06, -50679.918, 0.0, 10.0065365, 9.912975 
5.795479e+3, 2.6439705e+2, -408485.3, -490777.38, -11.633445, 0.0008810863, 0.00023639877, -408485.3, -59575.953, 0.0, 10.006528, 9.898883 
5.795478e+3, 2.7429652e+2, -309247.06, -391206.5, -22.787294, 0.00088012917, -0.00011246571, -309247.03, -57352.12, 0.0, 10.00652, 9.899302 
5.795477e+3, 2.8418776e+2, -222719.55, -317774.63, -5.41695, 0.0008794031, 0.00031718521, -222719.55, -67758.97, 0.0, 10.006513, 9.882471 
5.7954764e+3, 2.940713e+2, -123052.164, -217484.16, -15.849292, 0.00087898626, -0.00016540356, -123052.164, -64950.188, 0.0, 10.006506, 9.883259 
5.795476e+3, 3.0398265e+2, -33596.684, -84948.65, 1.3839564, 0.0008785892, 0.000256452, -33596.684, -33596.684, 0.0, 10.006499, 9.93891 
5.795475e+3, 3.1392336e+2, -32553.006, -82763.61, -8.41787, 0.00087821553, 0.000017171637, -32553.006, -32553.006, 0.0, 10.006493, 9.940388 
5.805501e+3, 1.2510489e+2, -1711418.8, -1723071.9, 4.3561835, 0.00089760305, 0.00018496472, -1711418.8, 2554.488, 0.0, 10.006824, 9.991379 
5.805499e+3, 1.3509612e+2, -1614095.4, -1626331.9, -8.371031, 0.0008957032, 0.0000050972517, -1614095.4, 1963.7849, 0.0, 10.006812, 9.990595 
5.805498e+3, 1.4508079e+2, -1526044.6, -1547096.0, -3.7688744, 0.0008947963, 0.0002655855, -1526044.6, -7835.4146, 0.0, 10.0068, 9.97891 
5.8054966e+3, 1.550597e+2, -1428373.1, -1449818.8, -16.79205, 0.00089483114, 0.000075459844, -1428373.1, -7956.9775, 0.0, 10.006787, 9.978379 
5.8054954e+3, 1.6503197e+2, -1340359.8, -1370978.6, -12.325599, 0.000894311, 0.00015697318, -1340359.8, -17671.959, 0.0, 10.006776, 9.966304 
5.805495e+3, 1.7499833e+2, -1242456.5, -1273383.4, -24.483248, 0.0008932498, 0.000053222146, -1242456.5, -17439.107, 0.0, 10.006765, 9.96589 
5.805493e+3, 1.8495798e+2, -1154524.4, -1195039.0, -17.279633, 0.0008924854, 0.00019679242, -1154524.4, -27111.578, 0.0, 10.006754, 9.953324 
5.8054924e+3, 1.9491133e+2, -1056428.9, -1097198.0, -30.243422, 0.00089201547, 0.000062145125, -1056428.9, -26558.947, 0.0, 10.0067425, 9.952981 
5.805491e+3, 2.0485802e+2, -968312.1, -1018852.75, -18.420143, 0.0008915648, 0.00018208692, -968312.1, -35919.766, 0.0, 10.006731, 9.940213 
5.80549e+3, 2.1479826e+2, -870076.44, -920871.6, -31.40907, 0.00089113286, -0.0000131598745, -870076.44, -35098.55, 0.0, 10.0067215, 9.939872 
5.8054894e+3, 2.2473182e+2, -781837.4, -842661.4, -17.319372, 0.00089044013, 0.00023208148, -781837.4, -44208.31, 0.0, 10.006711, 9.926823 
5.805488e+3, 2.346587e+2, -683454.94, -744526.9, -29.79984, 0.00088945846, 0.000017530301, -683454.94, -43109.39, 0.0, 10.006701, 9.926491 
5.805487e+3, 2.4457863e+2, -595177.2, -666634.75, -14.287731, 0.00088891824, 0.00017716536, -595177.2, -52047.016, 0.0, 10.006691, 9.913041 
5.8054864e+3, 2.5449178e+2, -496474.03, -568002.44, -26.305883, 0.00088888826, -0.0000070376527, -496474.03, -50492.855, 0.0, 10.006682, 9.912941 
5.805485e+3, 2.6439786e+2, -408291.8, -490720.1, -8.844241, 0.0008884777, 0.00023680743, -408291.8, -59390.08, 0.0, 10.006674, 9.898849 
5.8054847e+3, 2.7429724e+2, -309055.7, -391150.88, -20.594154, 0.00088759116, -0.00011162127, -309055.7, -57168.08, 0.0, 10.006665, 9.899266 
5.805484e+3, 2.8418848e+2, -222528.97, -317718.06, -3.1656427, 0.0008869496, 0.00031798368, -222528.97, -67575.36, 0.0, 10.006657, 9.882439 
5.805483e+3, 2.9407197e+2, -122864.13, -217429.25, -13.194989, 0.0008866353, -0.00016529692, -122864.13, -64768.81, 0.0, 10.006649, 9.883226 
5.805482e+3, 3.0398327e+2, -33413.867, -84900.484, 4.1508384, 0.00088619697, 0.00025646482, -33413.867, -33413.867, 0.0, 10.006641, 9.938874 
5.8054817e+3, 3.1392398e+2, -32370.803, -82716.13, -6.455815, 0.00088557275, 0.000017967439, -32370.8, -32370.8, 0.0, 10.006635, 9.9403515 
5.815507e+3, 1.2510616e+2, -1711445.5, -1723125.9, 0.08940738, 0.0009050623, 0.00018539783, -1711445.5, 2515.3933, 0.0, 10.006825, 9.991344 
5.815506e+3, 1.3509735e+2, -1614121.9, -1626385.6, -12.646124, 0.0009035965, 0.000006171757, -1614121.9, 1925.2444, 0.0, 10.006814, 9.990561 
5.815505e+3, 1.45082e+2, -1526071.3, -1547150.4, -8.214682, 0.0009027104, 0.00026664906, -1526071.3, -7873.8003, 0.0, 10.006802, 9.978876 
5.8155036e+3, 1.5506086e+2, -1428399.4, -1449872.8, -21.228867, 0.00090236706, 0.00007588268, -1428399.4, -7994.629, 0.0, 10.006789, 9.978345 
5.8155024e+3, 1.650331e+2, -1340383.6, -1371028.5, -16.38099, 0.0009016863, 0.00015731443, -1340383.6, -17706.973, 0.0, 10.006778, 9.966272 
5.815501e+3, 1.7499942e+2, -1242480.3, -1273433.0, -28.535975, 0.00090067857, 0.000054030083, -1242480.3, -17473.584, 0.0, 10.006767, 9.965858 
5.8155e+3, 1.8495904e+2, -1154549.8, -1195092.0, -21.481474, 0.00090017274, 0.00019766642, -1154549.8, -27147.348, 0.0, 10.006756, 9.95329 
5.815499e+3, 1.9491236e+2, -1056453.9, -1097250.8, -34.457184, 0.00090016774, 0.000062681946, -1056453.9, -26594.03, 0.0, 10.006744, 9.952947 
5.815498e+3, 2.04859e+2, -968337.4, -1018906.25, -22.137508, 0.0008994564, 0.00018254461, -968337.4, -35954.78, 0.0, 10.006733, 9.940178 
5.8154964e+3, 2.1479923e+2, -870101.44, -920924.9, -35.1119, 0.00089800544, -0.000012511761, -870101.44, -35132.953, 0.0, 10.006723, 9.939837 
5.815496e+3, 2.2473274e+2, -781861.75, -842713.75, -21.036188, 0.00089739804, 0.00023279559, -781861.75, -44241.79, 0.0, 10.006713, 9.926788 
5.8154947e+3, 2.346596e+2, -683479.06, -744578.9, -33.522232, 0.0008977117, 0.000018174158, -683479.06, -43142.207, 0.0, 10.006702, 9.926456 
5.8154935e+3, 2.4457948e+2, -595201.0, -666686.44, -17.644737, 0.0008973231, 0.00017764274, -595201.0, -52079.184, 0.0, 10.006693, 9.913007 
5.815493e+3, 2.544926e+2, -496497.5, -568053.8, -29.657818, 0.0008961174, -0.000006838393, -496497.5, -50524.36, 0.0, 10.006684, 9.912907 
5.815492e+3, 2.6439866e+2, -408315.66, -490772.56, -11.921541, 0.0008953263, 0.00023723724, -408315.66, -59421.637, 0.0, 10.006675, 9.898813 
5.815491e+3, 2.74298e+2, -309079.28, -391203.1, -23.641556, 0.0008950467, -0.00011033029, -309079.28, -57199.043, 0.0, 10.006667, 9.899232 
5.8154905e+3, 2.841892e+2, -222550.38, -317766.1, -6.0376186, 0.0008948391, 0.00031904064, -222550.36, -67603.805, 0.0, 10.006659, 9.882406 
5.81549e+3, 2.9407266e+2, -122885.06, -217476.64, -16.073898, 0.0008947241, -0.00016594052, -122885.055, -64796.45, 0.0, 10.006651, 9.883194 
5.8154887e+3, 3.0398393e+2, -33437.543, -84953.734, 1.679664, 0.0008940057, 0.00025580177, -33437.543, -33437.543, 0.0, 10.006643, 9.938837 
5.815488e+3, 3.139246e+2, -32394.82, -82770.086, -8.873872, 0.000892406, 0.00001974251, -32394.818, -32394.818, 0.0, 10.006637, 9.940314 
5.825514e+3, 1.2510742e+2, -1711219.0, -1723044.8, 4.811259, 0.00091256713, 0.00018599702, -1711219.0, 2729.2817, 0.0, 10.006984, 9.991309 
5.825513e+3, 1.3509859e+2, -1613899.3, -1626307.0, -8.351006, 0.0009114382, 0.0000068935146, -1613899.3, 2135.6196, 0.0, 10.00697, 9.990526 
5.825512e+3, 1.450832e+2, -1525850.9, -1547073.6, -3.9943376, 0.00091054814, 0.00026742453, -1525850.9, -7665.2266, 0.0, 10.006957, 9.978841 
5.82551e+3, 1.5506202e+2, -1428180.0, -1449797.0, -17.174488, 0.000909872, 0.00007664458, -1428180.0, -7786.749, 0.0, 10.006946, 9.97831 
5.8255094e+3, 1.6503423e+2, -1340164.0, -1370950.3, -12.386383, 0.0009091874, 0.00015798221, -1340164.0, -17498.516, 0.0, 10.006933, 9.96624 
5.825508e+3, 1.7500053e+2, -1242264.0, -1273357.0, -24.639177, 0.0009084981, 0.0000545251, -1242264.0, -17268.225, 0.0, 10.006921, 9.965826 
5.825507e+3, 1.8496011e+2, -1154337.8, -1195021.8, -17.686274, 0.0009079893, 0.00019820908, -1154337.8, -26945.871, 0.0, 10.006908, 9.953256 
5.825506e+3, 1.949134e+2, -1056243.1, -1097181.8, -31.09391, 0.0009076578, 0.00006349412, -1056243.1, -26393.479, 0.0, 10.006897, 9.952911 
5.8255047e+3, 2.0486002e+2, -968128.4, -1018838.6, -18.71871, 0.0009069088, 0.00018335368, -968128.3, -35755.605, 0.0, 10.006886, 9.940144 
5.8255035e+3, 2.1480021e+2, -869895.3, -920859.3, -31.71886, 0.0009057219, -0.000011990543, -869895.25, -34936.31, 0.0, 10.006874, 9.939802 
5.825502e+3, 2.2473368e+2, -781657.7, -842649.56, -17.681536, 0.00090517517, 0.0002332137, -781657.6, -44046.84, 0.0, 10.006864, 9.926753 
5.8255017e+3, 2.3466049e+2, -683276.94, -744516.3, -30.45703, 0.00090532703, 0.000018691544, -683276.94, -42948.934, 0.0, 10.006852, 9.926422 
5.8255005e+3, 2.4458036e+2, -595000.5, -666625.1, -14.50296, 0.00090486504, 0.00017827592, -595000.5, -51887.168, 0.0, 10.006843, 9.912972 
5.825499e+3, 2.5449345e+2, -496298.88, -567994.0, -26.87532, 0.00090368843, -0.000006070475, -496298.88, -50333.89, 0.0, 10.006832, 9.912871 
5.825499e+3, 2.6439944e+2, -408119.03, -490714.4, -9.129431, 0.00090292847, 0.00023789442, -408119.03, -59232.8, 0.0, 10.006823, 9.898778 
5.825498e+3, 2.7429876e+2, -308885.34, -391146.88, -20.753265, 0.00090268266, -0.00011008749, -308885.34, -57012.555, 0.0, 10.006813, 9.899197 
5.825497e+3, 2.841899e+2, -222356.95, -317708.56, -3.026881, 0.0009024597, 0.00031927522, -222356.95, -67417.51, 0.0, 10.006804, 9.882373 
5.8254963e+3, 2.9407337e+2, -122693.305, -217420.31, -13.623668, 0.00090226356, -0.00016517169, -122693.305, -64611.496, 0.0, 10.006796, 9.883161 
5.825496e+3, 3.0398458e+2, -33251.17, -84904.94, 4.102629, 0.0009015206, 0.00025663877, -33251.168, -33251.168, 0.0, 10.006788, 9.9388 
5.825495e+3, 3.1392524e+2, -32209.637, -82722.336, -6.430369, 0.00089997886, 0.000019969231, -32209.637, -32209.637, 0.0, 10.006781, 9.940277 
5.835521e+3, 1.2510872e+2, -1711246.8, -1723100.8, -0.11397409, 0.0009201246, 0.0001867354, -1711246.8, 2688.9016, 0.0, 10.006986, 9.991274 
5.83552e+3, 1.3509986e+2, -1613926.6, -1626362.6, -13.252576, 0.00091924873, 0.000007327341, -1613926.6, 2096.0085, 0.0, 10.006972, 9.990491 
5.835519e+3, 1.4508443e+2, -1525877.8, -1547128.5, -8.38369, 0.00091833406, 0.00026796482, -1525877.8, -7704.0337, 0.0, 10.006959, 9.978806 
5.8355176e+3, 1.550632e+2, -1428206.6, -1449851.6, -21.571936, 0.00091736583, 0.00007768653, -1428206.6, -7824.961, 0.0, 10.0069475, 9.978274 
5.835516e+3, 1.6503538e+2, -1340188.1, -1371000.5, -16.995827, 0.0009168062, 0.0001589202, -1340188.1, -17533.945, 0.0, 10.006935, 9.9662075 
5.835515e+3, 1.7500165e+2, -1242287.9, -1273407.0, -29.244558, 0.0009166501, 0.0000547658, -1242287.9, -17302.99, 0.0, 10.006923, 9.965794 
5.8355135e+3, 1.849612e+2, -1154363.9, -1195076.5, -21.905937, 0.00091592286, 0.000198482, -1154363.9, -26982.648, 0.0, 10.00691, 9.953219 
5.835513e+3, 1.9491445e+2, -1056269.0, -1097236.1, -35.310314, 0.00091461657, 0.00006453358, -1056269.0, -26429.621, 0.0, 10.006899, 9.952876 
5.8355117e+3, 2.0486104e+2, -968153.6, -1018892.2, -22.849377, 0.0009140142, 0.00018445232, -968153.6, -35790.805, 0.0, 10.006887, 9.940108 
5.8355105e+3, 2.1480118e+2, -869920.25, -920912.5, -35.853386, 0.00091414497, -0.000011571653, -869920.25, -34970.867, 0.0, 10.006876, 9.939767 
5.8355093e+3, 2.2473462e+2, -781682.56, -842703.0, -21.626835, 0.0009136376, 0.00023339108, -781682.56, -44080.996, 0.0, 10.006865, 9.926718 
5.835508e+3, 2.346614e+2, -683301.5, -744569.44, -34.40058, 0.00091242854, 0.000019107367, -683301.5, -42982.387, 0.0, 10.006854, 9.926387 
5.8355075e+3, 2.4458124e+2, -595024.9, -666678.3, -18.043892, 0.0009117088, 0.0001790392, -595024.9, -51920.14, 0.0, 10.006844, 9.912937 
5.8355063e+3, 2.5449428e+2, -496323.03, -568046.9, -30.396303, 0.0009115539, -0.0000048337884, -496323.03, -50366.27, 0.0, 10.006834, 9.912836 
5.835506e+3, 2.6440024e+2, -408142.66, -490766.56, -12.581245, 0.000911164, 0.00023873935, -408142.66, -59264.324, 0.0, 10.0068245, 9.898744 
5.835505e+3, 2.7429953e+2, -308908.63, -391198.63, -24.208805, 0.00091047864, -0.00011070567, -308908.6, -57043.344, 0.0, 10.006815, 9.899161 
5.835504e+3, 2.8419065e+2, -222379.25, -317758.7, -6.0844073, 0.0009098695, 0.00031883566, -222379.25, -67446.99, 0.0, 10.006806, 9.882339 
5.8355033e+3, 2.9407406e+2, -122715.24, -217470.0, -16.653101, 0.00090936135, -0.00016323687, -122715.24, -64640.31, 0.0, 10.006798, 9.883127 
5.835502e+3, 3.0398527e+2, -33274.88, -84958.4, 1.4337934, 0.0009088052, 0.0002587128, -33274.88, -33274.88, 0.0, 10.00679, 9.938764 
5.835502e+3, 3.1392586e+2, -32233.64, -82776.305, -9.047636, 0.0009081741, 0.00001892005, -32233.64, -32233.64, 0.0, 10.006783, 9.94024 
5.845528e+3, 1.2511003e+2, -1711018.1, -1723018.9, 4.636649, 0.0009281603, 0.00018766095, -1711018.1, 2904.7915, 0.0, 10.007145, 9.991239 
5.845527e+3, 1.3510112e+2, -1613698.6, -1626281.8, -8.447763, 0.0009267561, 0.000007923446, -1613698.6, 2311.5044, 0.0, 10.007132, 9.990456 
5.845526e+3, 1.4508566e+2, -1525652.1, -1547049.9, -3.6312172, 0.00092579436, 0.00026849232, -1525652.1, -7490.4956, 0.0, 10.007118, 9.97877 
5.8455247e+3, 1.550644e+2, -1427984.8, -1449775.5, -17.205297, 0.0009252415, 0.00007839558, -1427984.8, -7614.818, 0.0, 10.007105, 9.978239 
5.8455235e+3, 1.6503656e+2, -1339966.0, -1370921.1, -12.777138, 0.0009247351, 0.0001596942, -1339966.0, -17323.152, 0.0, 10.0070915, 9.966175 
5.8455217e+3, 1.7500278e+2, -1242067.0, -1273329.0, -25.202028, 0.0009242781, 0.000055490607, -1242067.0, -17093.252, 0.0, 10.007079, 9.965761 
5.845521e+3, 1.849623e+2, -1154147.3, -1195004.8, -17.812243, 0.0009234743, 0.0001991448, -1154147.3, -26776.777, 0.0, 10.007067, 9.953184 
5.8455193e+3, 1.9491552e+2, -1056055.0, -1097166.4, -31.379112, 0.0009223168, 0.000065121814, -1056055.0, -26226.027, 0.0, 10.007054, 9.952841 
5.845519e+3, 2.0486206e+2, -967941.6, -1018823.56, -19.040405, 0.0009217885, 0.00018502657, -967941.6, -35588.887, 0.0, 10.007042, 9.940073 
5.8455175e+3, 2.1480218e+2, -869710.9, -920845.8, -32.33663, 0.0009219159, -0.000010948357, -869710.9, -34771.215, 0.0, 10.00703, 9.939732 
5.8455163e+3, 2.2473559e+2, -781474.94, -842637.9, -17.989765, 0.00092134025, 0.00023405661, -781474.94, -43882.746, 0.0, 10.007018, 9.926682 
5.845515e+3, 2.3466232e+2, -683095.2, -744505.5, -31.007092, 0.0009199916, 0.000019807818, -683095.1, -42785.07, 0.0, 10.007007, 9.926351 
5.845514e+3, 2.4458212e+2, -594820.4, -666615.7, -14.717008, 0.00091928995, 0.00017966876, -594820.4, -51724.316, 0.0, 10.006996, 9.912902 
5.845514e+3, 2.5449514e+2, -496121.97, -567986.56, -27.18121, 0.0009193363, -0.0000043977907, -496121.97, -50173.51, 0.0, 10.006985, 9.912801 
5.845513e+3, 2.6440105e+2, -407943.6, -490707.63, -9.196966, 0.00091897324, 0.00023914812, -407943.6, -59073.223, 0.0, 10.006974, 9.898708 
5.8455116e+3, 2.7430034e+2, -308710.78, -391140.88, -21.142214, 0.0009180985, -0.000110117966, -308710.78, -56853.15, 0.0, 10.006965, 9.899126 
5.845511e+3, 2.841914e+2, -222181.9, -317700.38, -3.0538094, 0.00091739534, 0.00031948974, -222181.9, -67256.94, 0.0, 10.006955, 9.882305 
5.8455104e+3, 2.9407477e+2, -122520.24, -217413.33, -13.863497, 0.00091692124, -0.00016266787, -122520.24, -64452.258, 0.0, 10.006947, 9.883093 
5.845509e+3, 3.0398592e+2, -33085.395, -84908.12, 4.2731223, 0.0009164385, 0.00025918588, -33085.395, -33085.395, 0.0, 10.006937, 9.938726 
5.8455086e+3, 3.139265e+2, -32046.45, -82727.47, -6.1356816, 0.00091593695, 0.000019284787, -32046.447, -32046.447, 0.0, 10.006928, 9.940203 
5.855536e+3, 1.2511134e+2, -1711045.5, -1723074.4, -0.14955415, 0.00093659654, 0.00018873937, -1711045.5, 2864.473, 0.0, 10.007147, 9.991203 
5.855534e+3, 1.351024e+2, -1613725.9, -1626337.0, -13.244528, 0.0009340315, 0.0000086549735, -1613725.9, 2271.7878, 0.0, 10.0071335, 9.99042 
5.855533e+3, 1.4508691e+2, -1525679.9, -1547106.5, -8.660019, 0.0009330049, 0.00026901285, -1525679.9, -7530.4463, 0.0, 10.00712, 9.978734 
5.8555317e+3, 1.5506561e+2, -1428012.1, -1449831.8, -22.216284, 0.00093344075, 0.00007883452, -1428012.0, -7654.0127, 0.0, 10.007107, 9.978203 
5.8555305e+3, 1.6503774e+2, -1339990.4, -1370972.1, -17.404612, 0.00093292806, 0.00016033564, -1339990.4, -17359.037, 0.0, 10.007093, 9.966142 
5.8555293e+3, 1.7500392e+2, -1242091.1, -1273379.6, -29.834503, 0.0009314912, 0.000056612924, -1242091.1, -17128.549, 0.0, 10.007081, 9.965728 
5.855528e+3, 1.849634e+2, -1154173.8, -1195060.1, -22.389872, 0.000930728, 0.00020012824, -1154173.8, -26814.082, 0.0, 10.007069, 9.953148 
5.855527e+3, 1.9491658e+2, -1056081.1, -1097221.5, -35.949795, 0.00093063683, 0.00006534316, -1056081.1, -26262.678, 0.0, 10.007056, 9.952805 
5.855525e+3, 2.048631e+2, -967967.44, -1018878.25, -23.527945, 0.00093012233, 0.00018517427, -967967.44, -35624.83, 0.0, 10.007044, 9.940037 
5.8555245e+3, 2.1480317e+2, -869736.3, -920900.2, -36.829926, 0.0009291644, -0.000010155549, -869736.25, -34806.414, 0.0, 10.007031, 9.939696 
5.8555233e+3, 2.2473654e+2, -781500.25, -842692.3, -21.96217, 0.0009284332, 0.00023512353, -781500.2, -43917.473, 0.0, 10.00702, 9.926646 
5.855523e+3, 2.3466325e+2, -683120.2, -744559.6, -34.96449, 0.00092794676, 0.000020742727, -683120.2, -42819.223, 0.0, 10.007009, 9.926315 
5.8555216e+3, 2.4458301e+2, -594845.0, -666669.25, -18.812727, 0.0009274889, 0.00018019018, -594845.0, -51757.695, 0.0, 10.006998, 9.912867 
5.8555204e+3, 2.5449598e+2, -496146.2, -568039.75, -31.28416, 0.00092706154, -0.000004615691, -496146.16, -50206.117, 0.0, 10.006987, 9.9127655 
5.85552e+3, 2.6440188e+2, -407967.7, -490760.97, -12.699904, 0.0009264437, 0.00023920232, -407967.7, -59105.367, 0.0, 10.006976, 9.898672 
5.8555186e+3, 2.743011e+2, -308734.63, -391193.9, -24.622223, 0.00092558644, -0.00010853885, -308734.63, -56884.695, 0.0, 10.006967, 9.899091 
5.855518e+3, 2.8419214e+2, -222204.67, -317751.53, -6.4112563, 0.0009250298, 0.00032104208, -222204.67, -67287.08, 0.0, 10.006957, 9.88227 
5.8555174e+3, 2.9407546e+2, -122542.63, -217464.02, -17.188532, 0.00092487334, -0.00016321945, -122542.625, -64481.66, 0.0, 10.006948, 9.883059 
5.855516e+3, 3.039866e+2, -33108.945, -84961.41, 1.1049367, 0.00092436996, 0.00025834647, -33108.945, -33108.945, 0.0, 10.006939, 9.938689 
5.8555156e+3, 3.1392714e+2, -32070.1, -82781.07, -9.329754, 0.0009233547, 0.000020814554, -32070.098, -32070.098, 0.0, 10.00693, 9.9401655 
5.865542e+3, 1.2511268e+2, -1710811.5, -1722990.4, 5.1506395, 0.0009441552, 0.00018932109, -1710811.5, 3085.3806, 0.0, 10.00731, 9.991168 
5.8655417e+3, 1.351037e+2, -1613495.4, -1626255.5, -8.371067, 0.0009420236, 0.000009473851, -1613495.4, 2489.4978, 0.0, 10.007296, 9.990384 
5.86554e+3, 1.4508817e+2, -1525451.8, -1547027.1, -3.9278364, 0.00094102096, 0.00026985668, -1525451.8, -7314.746, 0.0, 10.007281, 9.978698 
5.865539e+3, 1.5506683e+2, -1427785.4, -1449753.6, -17.481947, 0.000941087, 0.00007949841, -1427785.4, -7439.35, 0.0, 10.007268, 9.978167 
5.8655375e+3, 1.6503893e+2, -1339763.1, -1370891.0, -12.637492, 0.000940489, 0.0001609583, -1339763.1, -17143.518, 0.0, 10.007254, 9.966108 
5.8655363e+3, 1.7500508e+2, -1241866.8, -1273300.5, -25.412455, 0.0009392448, 0.00005733029, -1241866.8, -16915.521, 0.0, 10.00724, 9.965694 
5.865535e+3, 1.8496452e+2, -1153954.0, -1194987.3, -18.118547, 0.0009386, 0.00020084757, -1153954.0, -26605.371, 0.0, 10.007227, 9.953113 
5.865534e+3, 1.9491766e+2, -1055864.1, -1097150.5, -31.789774, 0.000938553, 0.00006597117, -1055864.1, -26056.35, 0.0, 10.007214, 9.952768 
5.865533e+3, 2.0486414e+2, -967752.1, -1018808.9, -19.244915, 0.0009379287, 0.00018578673, -967752.1, -35419.824, 0.0, 10.0072, 9.9400015 
5.8655316e+3, 2.1480419e+2, -869522.0, -920831.9, -32.874878, 0.00093670015, -0.00000947939, -869522.0, -34602.066, 0.0, 10.007188, 9.93966 
5.8655304e+3, 2.2473752e+2, -781287.94, -842625.4, -18.133623, 0.0009360056, 0.00023579049, -781287.94, -43714.74, 0.0, 10.007175, 9.926611 
5.865529e+3, 2.346642e+2, -682911.94, -744495.3, -31.291422, 0.000935892, 0.00002132062, -682911.9, -42620.133, 0.0, 10.007163, 9.926279 
5.8655286e+3, 2.445839e+2, -594638.6, -666606.25, -14.98387, 0.0009354536, 0.00018073045, -594638.6, -51560.188, 0.0, 10.007152, 9.91283 
5.8655274e+3, 2.5449684e+2, -495940.4, -567977.56, -27.678658, 0.0009346362, -0.0000040535865, -495940.4, -50008.86, 0.0, 10.00714, 9.912729 
5.865526e+3, 2.6440272e+2, -407763.7, -490700.7, -9.161362, 0.00093392323, 0.00023981211, -407763.7, -58909.53, 0.0, 10.00713, 9.898636 
5.8655256e+3, 2.7430192e+2, -308533.97, -391135.94, -21.490181, 0.0009333362, -0.00010784892, -308533.97, -56691.85, 0.0, 10.007118, 9.899055 
5.865525e+3, 2.841929e+2, -222004.89, -317692.03, -3.145278, 0.0009329277, 0.00032163996, -222004.89, -67094.75, 0.0, 10.007108, 9.882236 
5.865524e+3, 2.940762e+2, -122345.07, -217406.0, -13.672837, 0.0009327552, -0.00016294485, -122345.07, -64291.227, 0.0, 10.007098, 9.883024 
5.865523e+3, 3.039873e+2, -32916.844, -84911.266, 4.6456227, 0.000932099, 0.00025864106, -32916.844, -32916.844, 0.0, 10.007089, 9.938651 
5.8655226e+3, 3.139278e+2, -31878.004, -82731.43, -6.7265706, 0.00093073334, 0.000021632539, -31878.004, -31878.004, 0.0, 10.00708, 9.940126 
5.87555e+3, 1.2511402e+2, -1710839.9, -1723047.8, -0.18580826, 0.0009510183, 0.00018950371, -1710839.9, 3043.8572, 0.0, 10.007312, 9.991132 
5.875549e+3, 1.3510501e+2, -1613523.5, -1626312.5, -13.694078, 0.0009506096, 0.000010364384, -1613523.5, 2448.6536, 0.0, 10.0072975, 9.990348 
5.8755475e+3, 1.4508945e+2, -1525479.4, -1547083.6, -8.972045, 0.0009497021, 0.00027096344, -1525479.4, -7354.8066, 0.0, 10.007283, 9.978662 
5.875546e+3, 1.5506808e+2, -1427812.6, -1449809.8, -22.536592, 0.0009482984, 0.00008034799, -1427812.6, -7478.7183, 0.0, 10.00727, 9.978131 
5.875545e+3, 1.6504012e+2, -1339788.3, -1370943.4, -17.659967, 0.0009475521, 0.00016156898, -1339788.3, -17180.39, 0.0, 10.007256, 9.966075 
5.8755434e+3, 1.7500626e+2, -1241891.6, -1273352.6, -30.415962, 0.00094745174, 0.00005771989, -1241891.6, -16951.775, 0.0, 10.007242, 9.965661 
5.875543e+3, 1.8496566e+2, -1153980.6, -1195043.0, -23.060022, 0.00094698713, 0.00020135354, -1153980.6, -26643.037, 0.0, 10.007229, 9.953076 
5.875541e+3, 1.9491877e+2, -1055890.4, -1097205.9, -36.74641, 0.0009461518, 0.00006693283, -1055890.4, -26093.275, 0.0, 10.0072155, 9.952732 
5.87554e+3, 2.048652e+2, -967778.5, -1018864.94, -23.689032, 0.0009453185, 0.00018678016, -967778.5, -35456.555, 0.0, 10.007202, 9.939964 
5.8755386e+3, 2.148052e+2, -869548.1, -920887.6, -37.300762, 0.0009444855, -0.000008896458, -869548.06, -34638.203, 0.0, 10.007191, 9.939623 
5.8755374e+3, 2.2473851e+2, -781313.5, -842680.4, -22.796291, 0.00094398344, 0.00023613323, -781313.5, -43750.004, 0.0, 10.007177, 9.926575 
5.875537e+3, 2.3466514e+2, -682937.06, -744549.94, -35.965958, 0.00094383984, 0.000021609541, -682937.06, -42654.6, 0.0, 10.007165, 9.926243 
5.8755356e+3, 2.4458483e+2, -594663.5, -666660.7, -18.955849, 0.0009432377, 0.00018128865, -594663.5, -51594.01, 0.0, 10.0071535, 9.912794 
5.8755344e+3, 2.5449774e+2, -495965.03, -568031.7, -31.633488, 0.00094210217, -0.0000028522452, -495965.0, -50042.094, 0.0, 10.007142, 9.912694 
5.875534e+3, 2.6440355e+2, -407788.6, -490755.7, -13.1874695, 0.00094142527, 0.0002408772, -407788.6, -58942.695, 0.0, 10.007132, 9.8986 
5.8755326e+3, 2.743027e+2, -308558.53, -391190.63, -25.49749, 0.00094131223, -0.000107884756, -308558.53, -56724.297, 0.0, 10.00712, 9.899017 
5.875532e+3, 2.841937e+2, -222027.11, -317742.28, -6.7961364, 0.00094105164, 0.00032145975, -222027.11, -67124.5, 0.0, 10.00711, 9.882202 
5.8755314e+3, 2.9407695e+2, -122366.79, -217455.58, -17.338074, 0.00094059046, -0.00016199023, -122366.78, -64320.156, 0.0, 10.0071, 9.882991 
5.87553e+3, 3.03988e+2, -32941.918, -84967.945, 1.5065668, 0.00093967456, 0.0002598665, -32941.918, -32941.918, 0.0, 10.007091, 9.938612 
5.8755296e+3, 3.1392846e+2, -31903.56, -82788.984, -9.7592945, 0.0009380945, 0.00002186681, -31903.559, -31903.559, 0.0, 10.007082, 9.940087 
5.8855575e+3, 1.2511538e+2, -1710602.3, -1722962.5, 5.3153486, 0.0009588677, 0.00019030804, -1710602.3, 3268.1572, 0.0, 10.007478, 9.991095 
5.8855563e+3, 1.3510633e+2, -1613288.5, -1626229.3, -8.288922, 0.0009583235, 0.000010912982, -1613288.5, 2670.6519, 0.0, 10.0074625, 9.990312 
5.8855546e+3, 1.4509073e+2, -1525246.9, -1547002.6, -3.5358312, 0.0009574291, 0.0002715397, -1525246.9, -7134.9624, 0.0, 10.007447, 9.978625 
5.8855534e+3, 1.5506934e+2, -1427582.6, -1449730.6, -17.570955, 0.0009561802, 0.00008122263, -1427582.6, -7260.997, 0.0, 10.007433, 9.978094 
5.885552e+3, 1.6504134e+2, -1339557.9, -1370860.9, -12.861876, 0.00095549796, 0.00016242945, -1339557.9, -16961.916, 0.0, 10.007419, 9.966042 
5.885551e+3, 1.7500743e+2, -1241663.9, -1273272.1, -25.535707, 0.0009553736, 0.000058261212, -1241663.9, -16735.652, 0.0, 10.007403, 9.965628 
5.88555e+3, 1.8496682e+2, -1153757.3, -1194969.1, -18.117065, 0.0009547816, 0.00020186848, -1153757.3, -26430.918, 0.0, 10.00739, 9.953039 
5.8855486e+3, 1.9491987e+2, -1055668.3, -1097133.3, -32.306755, 0.0009537149, 0.00006771525, -1055668.3, -25882.082, 0.0, 10.007377, 9.952696 
5.8855474e+3, 2.0486629e+2, -967558.44, -1018793.5, -19.360338, 0.0009529818, 0.00018760275, -967558.44, -35247.035, 0.0, 10.007362, 9.939928 
5.8855456e+3, 2.1480624e+2, -869332.1, -920818.9, -32.97305, 0.00095259474, -0.00000827064, -869332.06, -34432.348, 0.0, 10.007348, 9.939587 
5.885545e+3, 2.247395e+2, -781099.5, -842613.3, -18.339832, 0.00095207675, 0.00023665112, -781099.5, -43545.8, 0.0, 10.007336, 9.9265375 
5.885544e+3, 2.3466611e+2, -682723.44, -744483.7, -31.829193, 0.0009514124, 0.000022116632, -682723.44, -42450.44, 0.0, 10.007323, 9.926207 
5.885543e+3, 2.4458575e+2, -594451.56, -666595.75, -14.921372, 0.0009507187, 0.00018189372, -594451.56, -51391.145, 0.0, 10.007311, 9.912757 
5.885542e+3, 2.5449863e+2, -495756.9, -567969.4, -27.983746, 0.00094998814, -0.000002023451, -495756.88, -49842.684, 0.0, 10.007298, 9.912657 
5.885541e+3, 2.6440442e+2, -407582.75, -490694.72, -9.418841, 0.00094944553, 0.00024161622, -407582.75, -58745.203, 0.0, 10.007286, 9.898563 
5.88554e+3, 2.7430353e+2, -308354.3, -391131.03, -21.51016, 0.00094913144, -0.00010762317, -308354.3, -56528.07, 0.0, 10.007275, 9.898981 
5.885539e+3, 2.8419447e+2, -221823.3, -317682.0, -2.7576742, 0.0009487213, 0.00032173158, -221823.3, -66928.336, 0.0, 10.007264, 9.882167 
5.8855385e+3, 2.940777e+2, -122164.875, -217396.72, -14.234034, 0.0009481805, -0.00016105731, -122164.875, -64125.55, 0.0, 10.007254, 9.882956 
5.885538e+3, 3.039887e+2, -32745.764, -84916.125, 4.552069, 0.0009473411, 0.0002608114, -32745.764, -32745.764, 0.0, 10.007243, 9.938574 
5.885537e+3, 3.1392914e+2, -31710.076, -82738.85, -6.022256, 0.00094606343, 0.000021879543, -31710.076, -31710.076, 0.0, 10.007233, 9.940048 
5.895565e+3, 1.2511677e+2, -1710630.8, -1723020.4, -0.36727536, 0.000967526, 0.0001916147, -1710630.8, 3226.1357, 0.0, 10.00748, 9.991058 
5.8955634e+3, 1.3510767e+2, -1613316.6, -1626286.8, -13.962512, 0.00096534763, 0.000011189976, -1613316.6, 2629.4097, 0.0, 10.007464, 9.990275 
5.895562e+3, 1.4509203e+2, -1525275.5, -1547061.1, -8.887925, 0.0009644008, 0.000271692, -1525275.5, -7176.2744, 0.0, 10.007449, 9.978588 
5.895561e+3, 1.5507059e+2, -1427611.0, -1449788.9, -22.90505, 0.00096461806, 0.000082117804, -1427610.9, -7301.6567, 0.0, 10.007435, 9.978057 
5.89556e+3, 1.6504258e+2, -1339582.8, -1370912.8, -18.212141, 0.0009641702, 0.00016349187, -1339582.6, -16998.775, 0.0, 10.007421, 9.966008 
5.895558e+3, 1.7500862e+2, -1241688.4, -1273323.8, -30.90016, 0.00096307707, 0.000058929327, -1241688.3, -16771.807, 0.0, 10.007406, 9.965594 
5.8955574e+3, 1.8496796e+2, -1153784.8, -1195027.0, -23.0776, 0.00096211035, 0.00020239501, -1153784.8, -26469.83, 0.0, 10.007392, 9.953002 
5.8955556e+3, 1.94921e+2, -1055695.6, -1097190.9, -37.24598, 0.00096126535, 0.00006835347, -1055695.5, -25920.357, 0.0, 10.007379, 9.952658 
5.8955544e+3, 2.0486738e+2, -967584.75, -1018849.5, -24.485592, 0.00096088176, 0.0001882874, -967584.75, -35283.96, 0.0, 10.007364, 9.939891 
5.895553e+3, 2.148073e+2, -869358.0, -920874.5, -38.117996, 0.00096097693, -0.0000076071633, -869357.94, -34468.492, 0.0, 10.007351, 9.93955 
5.895552e+3, 2.2474052e+2, -781125.56, -842669.56, -22.820684, 0.0009602741, 0.00023731479, -781125.56, -43581.754, 0.0, 10.007338, 9.9265 
5.8955514e+3, 2.3466708e+2, -682749.25, -744539.6, -36.289433, 0.0009586964, 0.000022803693, -682749.25, -42485.785, 0.0, 10.007325, 9.926169 
5.89555e+3, 2.445867e+2, -594477.25, -666651.8, -19.52812, 0.00095797057, 0.00018253851, -594477.25, -51426.0, 0.0, 10.007313, 9.91272 
5.895549e+3, 2.5449952e+2, -495782.2, -568025.0, -32.585552, 0.00095822715, -0.0000014971129, -495782.2, -49876.79, 0.0, 10.0073, 9.91262 
5.8955485e+3, 2.6440528e+2, -407607.1, -490748.84, -13.563536, 0.0009578969, 0.00024209173, -407607.1, -58778.0, 0.0, 10.007288, 9.898526 
5.895547e+3, 2.7430436e+2, -308378.28, -391184.75, -25.661764, 0.0009568357, -0.000107113985, -308378.28, -56560.145, 0.0, 10.007277, 9.898945 
5.8955467e+3, 2.8419524e+2, -221847.14, -317735.78, -6.6309257, 0.0009560361, 0.00032237585, -221847.14, -66959.94, 0.0, 10.007266, 9.882131 
5.8955455e+3, 2.9407844e+2, -122188.43, -217450.19, -18.039812, 0.0009555859, -0.00016014461, -122188.42, -64156.496, 0.0, 10.007256, 9.882919 
5.895545e+3, 3.0398944e+2, -32769.754, -84970.65, 0.88494706, 0.00095509534, 0.00026152536, -32769.754, -32769.754, 0.0, 10.007245, 9.938536 
5.8955437e+3, 3.139298e+2, -31734.133, -82793.54, -9.727903, 0.00095453684, 0.000021719788, -31734.13, -31734.13, 0.0, 10.007235, 9.94001 
5.905572e+3, 1.2511815e+2, -1710390.3, -1722934.0, 5.326145, 0.00097543886, 0.00019229972, -1710390.3, 3453.06, 0.0, 10.0076475, 9.991022 
5.9055716e+3, 1.3510902e+2, -1613077.3, -1626201.6, -8.45896, 0.0009731303, 0.000012218612, -1613077.3, 2855.5112, 0.0, 10.007632, 9.990238 
5.90557e+3, 1.4509335e+2, -1525038.6, -1546978.4, -3.4738588, 0.00097220717, 0.00027261928, -1525038.6, -6952.303, 0.0, 10.007617, 9.978551 
5.9055686e+3, 1.5507187e+2, -1427377.8, -1449708.6, -17.465643, 0.0009725955, 0.000082516075, -1427377.8, -7080.955, 0.0, 10.007601, 9.97802 
5.905567e+3, 1.650438e+2, -1339349.0, -1370829.3, -12.668432, 0.00097211334, 0.00016391226, -1339349.0, -16777.23, 0.0, 10.007586, 9.965974 
5.905566e+3, 1.7500985e+2, -1241455.9, -1273241.5, -25.842794, 0.00097078533, 0.00005990963, -1241455.9, -16551.184, 0.0, 10.00757, 9.96556 
5.9055644e+3, 1.8496914e+2, -1153556.9, -1194951.3, -18.115223, 0.00096987525, 0.00020338553, -1153556.9, -26253.467, 0.0, 10.007556, 9.952964 
5.905563e+3, 1.9492213e+2, -1055471.3, -1097117.6, -32.170063, 0.00096937915, 0.000068803114, -1055471.3, -25707.191, 0.0, 10.007541, 9.9526205 
5.905562e+3, 2.0486847e+2, -967362.4, -1018777.75, -19.402588, 0.0009689445, 0.0001886564, -967362.4, -35072.355, 0.0, 10.007526, 9.939854 
5.905561e+3, 2.1480834e+2, -869136.5, -920803.8, -33.56234, 0.0009685722, -0.0000068397385, -869136.5, -34257.418, 0.0, 10.007513, 9.939513 
5.9055597e+3, 2.2474155e+2, -780905.9, -842600.25, -18.31154, 0.00096785143, 0.00023820421, -780905.9, -43372.137, 0.0, 10.007499, 9.926463 
5.9055585e+3, 2.3466808e+2, -682533.3, -744472.8, -31.908333, 0.0009667463, 0.000023513365, -682533.3, -42279.52, 0.0, 10.007485, 9.926132 
5.905558e+3, 2.4458764e+2, -594263.6, -666586.6, -15.0615425, 0.000966121, 0.00018305238, -594263.56, -51221.664, 0.0, 10.007472, 9.912683 
5.9055567e+3, 2.5450045e+2, -495570.06, -567961.2, -28.141928, 0.00096604816, -0.0000011976393, -495570.06, -49673.62, 0.0, 10.007459, 9.912582 
5.9055555e+3, 2.6440614e+2, -407396.63, -490686.6, -9.118364, 0.0009655651, 0.00024254015, -407396.63, -58576.13, 0.0, 10.007446, 9.898489 
5.905555e+3, 2.7430516e+2, -308170.22, -391124.3, -21.991198, 0.0009645697, -0.00010606731, -308170.22, -56360.31, 0.0, 10.007435, 9.898908 
5.9055537e+3, 2.8419605e+2, -221639.86, -317674.1, -2.9300013, 0.00096386264, 0.00032336215, -221639.86, -66760.51, 0.0, 10.007422, 9.882094 
5.905553e+3, 2.940792e+2, -121983.92, -217390.33, -13.73893, 0.00096353993, -0.00016009904, -121983.92, -63959.496, 0.0, 10.007411, 9.882884 
5.9055525e+3, 3.0399016e+2, -32571.254, -84918.59, 5.2474, 0.0009630355, 0.00026145676, -32571.254, -32571.254, 0.0, 10.0074, 9.938497 
5.9055513e+3, 3.1393048e+2, -31536.627, -82742.42, -6.463867, 0.0009622577, 0.000022745113, -31536.625, -31536.625, 0.0, 10.007389, 9.939971 
5.91558e+3, 1.2511955e+2, -1710419.0, -1722992.5, -0.2933731, 0.0009827678, 0.00019248902, -1710419.0, 3410.5327, 0.0, 10.007649, 9.990985 
5.9155786e+3, 1.351104e+2, -1613105.9, -1626259.9, -14.088904, 0.0009815381, 0.000013851274, -1613105.9, 2813.5144, 0.0, 10.007634, 9.990201 
5.9155774e+3, 1.4509468e+2, -1525067.1, -1547036.8, -9.407618, 0.0009806987, 0.00027416955, -1525067.1, -6993.874, 0.0, 10.007619, 9.978514 
5.915576e+3, 1.5507317e+2, -1427405.8, -1449766.6, -23.38956, 0.0009802154, 0.000082519626, -1427405.8, -7121.6675, 0.0, 10.007603, 9.9779825 
5.9155744e+3, 1.6504507e+2, -1339374.8, -1370883.3, -18.003252, 0.0009794836, 0.00016382142, -1339374.8, -16815.305, 0.0, 10.007587, 9.965939 
5.915573e+3, 1.7501107e+2, -1241481.4, -1273295.1, -31.16386, 0.0009785137, 0.00006114138, -1241481.4, -16588.695, 0.0, 10.007573, 9.965525 
5.915572e+3, 1.8497033e+2, -1153584.1, -1195008.5, -23.634447, 0.0009780067, 0.00020474917, -1153584.1, -26292.352, 0.0, 10.007558, 9.952928 
5.915571e+3, 1.949233e+2, -1055498.1, -1097174.5, -37.702778, 0.0009779582, 0.00006910517, -1055498.1, -25745.29, 0.0, 10.007543, 9.952583 
5.915569e+3, 2.0486958e+2, -967389.6, -1018835.9, -24.453901, 0.0009771502, 0.0001887763, -967389.6, -35110.504, 0.0, 10.007528, 9.9398155 
5.9155685e+3, 2.1480943e+2, -869163.44, -920861.56, -38.597282, 0.00097554986, -0.0000059866934, -869163.44, -34294.89, 0.0, 10.007515, 9.939475 
5.915567e+3, 2.2474259e+2, -780932.2, -842657.06, -23.394014, 0.0009749461, 0.000239276, -780932.2, -43408.58, 0.0, 10.007501, 9.926426 
5.915566e+3, 2.3466907e+2, -682559.25, -744529.25, -36.995113, 0.0009754259, 0.000024242527, -682559.25, -42315.24, 0.0, 10.007487, 9.926094 
5.915565e+3, 2.4458861e+2, -594289.1, -666642.6, -19.76408, 0.0009750066, 0.00018346364, -594289.1, -51256.64, 0.0, 10.007474, 9.912645 
5.915564e+3, 2.5450137e+2, -495595.28, -568016.9, -32.841595, 0.00097354554, -0.0000010755319, -495595.25, -49707.87, 0.0, 10.007461, 9.912545 
5.915563e+3, 2.6440704e+2, -407422.4, -490743.78, -13.5634775, 0.00097261666, 0.00024297106, -407422.4, -58610.594, 0.0, 10.007448, 9.898451 
5.915562e+3, 2.7430603e+2, -308195.72, -391181.25, -26.39775, 0.00097234204, -0.00010458892, -308195.72, -56394.125, 0.0, 10.007437, 9.8988695 
5.9155613e+3, 2.8419688e+2, -221662.63, -317725.78, -7.1849446, 0.0009721156, 0.0003246225, -221662.63, -66791.234, 0.0, 10.007424, 9.88206 
5.915561e+3, 2.9408e+2, -122006.14, -217441.25, -18.018568, 0.0009719493, -0.00016074625, -122006.14, -63989.324, 0.0, 10.007413, 9.88285 
5.9155595e+3, 3.039909e+2, -32596.955, -84976.914, 1.3361478, 0.00097113807, 0.00026076494, -32596.955, -32596.955, 0.0, 10.007401, 9.938457 
5.915559e+3, 3.139312e+2, -31562.734, -82801.61, -10.309088, 0.00096938404, 0.000024725436, -31562.732, -31562.732, 0.0, 10.007391, 9.93993 
5.925588e+3, 1.2512098e+2, -1710172.6, -1722903.9, 5.889116, 0.0009904745, 0.00019307935, -1710172.6, 3643.0454, 0.0, 10.007822, 9.990947 
5.925586e+3, 1.3511176e+2, -1612864.6, -1626174.6, -8.296084, 0.0009896989, 0.000014577726, -1612864.6, 3041.1775, 0.0, 10.007804, 9.990164 
5.925585e+3, 1.4509602e+2, -1524828.1, -1546953.3, -3.5319726, 0.0009888314, 0.0002749756, -1524828.1, -6768.1357, 0.0, 10.007787, 9.978476 
5.925583e+3, 1.5507448e+2, -1427167.3, -1449683.8, -17.69551, 0.0009878564, 0.000083349565, -1427167.3, -6895.9946, 0.0, 10.0077715, 9.977945 
5.9255826e+3, 1.6504633e+2, -1339135.8, -1370797.6, -12.282952, 0.0009871144, 0.00016456301, -1339135.8, -16588.879, 0.0, 10.007756, 9.965904 
5.925581e+3, 1.750123e+2, -1241246.4, -1273212.3, -25.45949, 0.0009866034, 0.000061685816, -1241246.4, -16365.839, 0.0, 10.00774, 9.96549 
5.9255797e+3, 1.8497153e+2, -1153353.8, -1194932.1, -17.958334, 0.0009861663, 0.00020531396, -1153353.8, -26073.791, 0.0, 10.007724, 9.952889 
5.9255785e+3, 1.9492446e+2, -1055268.9, -1097099.3, -32.492516, 0.0009857977, 0.00006990798, -1055268.9, -25527.49, 0.0, 10.0077095, 9.952546 
5.925577e+3, 2.0487072e+2, -967162.2, -1018762.3, -19.252287, 0.0009849453, 0.00018960504, -967162.2, -34894.145, 0.0, 10.007694, 9.939778 
5.925576e+3, 2.1481052e+2, -868939.0, -920790.2, -33.43548, 0.0009835873, -0.0000053524436, -868938.94, -34081.098, 0.0, 10.007679, 9.939437 
5.925575e+3, 2.2474363e+2, -780709.8, -842587.0, -18.329924, 0.000983007, 0.0002398025, -780709.8, -43196.508, 0.0, 10.007665, 9.926388 
5.925574e+3, 2.3467009e+2, -682339.2, -744460.94, -32.209133, 0.0009832719, 0.000024755798, -682339.2, -42105.105, 0.0, 10.00765, 9.926057 
5.9255725e+3, 2.4458958e+2, -594071.0, -666575.94, -14.890968, 0.0009827863, 0.000184092, -594071.0, -51048.043, 0.0, 10.007636, 9.912608 
5.925572e+3, 2.545023e+2, -495379.28, -567951.8, -28.379446, 0.0009814302, -0.00000018409715, -495379.28, -49501.082, 0.0, 10.007623, 9.912507 
5.925571e+3, 2.6440793e+2, -407208.66, -490680.6, -9.077034, 0.000980567, 0.00024374976, -407208.66, -58405.65, 0.0, 10.007609, 9.898413 
5.9255695e+3, 2.743069e+2, -307984.84, -391120.13, -21.714151, 0.0009803091, -0.00010438658, -307984.84, -56191.684, 0.0, 10.007596, 9.898831 
5.925569e+3, 2.841977e+2, -221452.3, -317663.2, -2.4425275, 0.0009800568, 0.00032483484, -221452.3, -66588.984, 0.0, 10.007584, 9.882024 
5.925568e+3, 2.940808e+2, -121797.73, -217380.03, -14.078581, 0.0009798079, -0.00015974275, -121797.73, -63788.64, 0.0, 10.007571, 9.882813 
5.925567e+3, 3.0399165e+2, -32394.502, -84924.05, 5.1509, 0.0009789664, 0.00026184632, -32394.502, -32394.502, 0.0, 10.00756, 9.9384165 
5.9255666e+3, 3.139319e+2, -31361.525, -82749.86, -6.249912, 0.0009772578, 0.000024848598, -31361.523, -31361.523, 0.0, 10.007548, 9.939889 
5.9355956e+3, 1.2512243e+2, -1710202.4, -1722964.1, -0.69449234, 0.0009985011, 0.00019399275, -1710202.4, 3599.17, 0.0, 10.007824, 9.990909 
5.9355944e+3, 1.3511318e+2, -1612893.9, -1626234.5, -14.850991, 0.0009976744, 0.000014583897, -1612893.9, 2998.2058, 0.0, 10.007806, 9.990126 
5.9355927e+3, 1.4509739e+2, -1524856.9, -1547012.3, -9.223199, 0.0009966887, 0.0002751901, -1524856.9, -6810.1655, 0.0, 10.00779, 9.978438 
5.9355915e+3, 1.550758e+2, -1427195.8, -1449742.6, -23.396257, 0.0009955318, 0.000084840445, -1427195.8, -6937.481, 0.0, 10.007773, 9.977907 
5.9355897e+3, 1.6504763e+2, -1339161.6, -1370851.6, -18.265087, 0.0009949709, 0.00016597101, -1339161.6, -16627.367, 0.0, 10.007758, 9.965869 
5.935589e+3, 1.7501356e+2, -1241271.8, -1273265.9, -31.431868, 0.0009949948, 0.00006168592, -1241271.8, -16403.52, 0.0, 10.007742, 9.965455 
5.935587e+3, 1.8497275e+2, -1153381.9, -1194991.3, -23.4326, 0.0009943602, 0.00020524547, -1153381.9, -26113.787, 0.0, 10.007727, 9.952851 
5.935586e+3, 1.9492564e+2, -1055296.6, -1097158.1, -37.964535, 0.0009930611, 0.00007111264, -1055296.6, -25566.762, 0.0, 10.007711, 9.952507 
5.935585e+3, 2.0487185e+2, -967189.44, -1018820.5, -24.708738, 0.0009924289, 0.0001910009, -967189.44, -34932.56, 0.0, 10.007696, 9.93974 
5.935584e+3, 2.1481161e+2, -868965.94, -920848.06, -38.89625, 0.0009924877, -0.0000048908505, -868965.9, -34118.84, 0.0, 10.007682, 9.939399 
5.9355825e+3, 2.247447e+2, -780736.56, -842644.8, -23.69128, 0.0009918546, 0.00023989643, -780736.56, -43233.695, 0.0, 10.007667, 9.92635 
5.9355813e+3, 2.3467112e+2, -682365.56, -744518.44, -37.566013, 0.0009904637, 0.00002510026, -682365.5, -42141.508, 0.0, 10.007652, 9.926019 
5.93558e+3, 2.4459058e+2, -594097.25, -666633.56, -19.82239, 0.0009896945, 0.00018489729, -594097.25, -51084.0, 0.0, 10.007638, 9.912569 
5.935579e+3, 2.5450328e+2, -495405.3, -568009.2, -33.288563, 0.0009896404, 0.0000013243075, -495405.28, -49536.4, 0.0, 10.007625, 9.912469 
5.9355783e+3, 2.6440886e+2, -407234.03, -490737.03, -13.916309, 0.0009892521, 0.00024480792, -407234.03, -58439.957, 0.0, 10.007611, 9.8983755 
5.935577e+3, 2.7430776e+2, -308009.78, -391176.13, -26.561253, 0.0009884455, -0.00010520229, -308009.78, -56225.176, 0.0, 10.007598, 9.898793 
5.935576e+3, 2.8419852e+2, -221476.38, -317717.84, -6.9294734, 0.0009877607, 0.0003242127, -221476.38, -66621.25, 0.0, 10.007586, 9.881987 
5.935576e+3, 2.9408157e+2, -121821.42, -217434.23, -18.532162, 0.0009872378, -0.0001574142, -121821.42, -63820.176, 0.0, 10.007573, 9.882776 
5.935575e+3, 3.039924e+2, -32419.86, -84981.81, 1.0553921, 0.0009865884, 0.0002643493, -32419.86, -32419.86, 0.0, 10.007562, 9.938376 
5.9355736e+3, 3.1393263e+2, -31387.176, -82808.11, -10.305057, 0.0009857465, 0.000023484728, -31387.174, -31387.174, 0.0, 10.00755, 9.939849 
5.945603e+3, 1.2512387e+2, -1709954.5, -1722875.3, 5.6557703, 0.0010069867, 0.00019489281, -1709954.4, 3832.7952, 0.0, 10.007997, 9.99087 
5.945602e+3, 1.351146e+2, -1612646.0, -1626146.3, -8.473778, 0.0010053216, 0.000015265632, -1612646.0, 3232.1067, 0.0, 10.007979, 9.9900875 
5.945601e+3, 1.4509878e+2, -1524611.8, -1546926.3, -2.8782418, 0.0010042202, 0.00027572742, -1524611.8, -6578.5596, 0.0, 10.007962, 9.978399 
5.945599e+3, 1.5507714e+2, -1426956.0, -1449660.0, -17.442783, 0.0010036386, 0.00008530358, -1426956.0, -6710.8604, 0.0, 10.007944, 9.977869 
5.945598e+3, 1.6504894e+2, -1338921.5, -1370765.6, -12.10575, 0.0010031661, 0.00016663628, -1338921.5, -16399.998, 0.0, 10.007927, 9.965835 
5.9455967e+3, 1.7501484e+2, -1241032.0, -1273180.6, -25.362509, 0.0010028046, 0.000062821884, -1241031.9, -16176.136, 0.0, 10.007912, 9.965421 
5.9455955e+3, 1.8497398e+2, -1153146.1, -1194913.0, -17.283949, 0.0010021287, 0.00020632247, -1153146.1, -25890.125, 0.0, 10.007896, 9.952812 
5.945594e+3, 1.9492683e+2, -1055063.1, -1097081.6, -32.026142, 0.001001132, 0.00007160147, -1055063.1, -25345.063, 0.0, 10.00788, 9.952469 
5.9455925e+3, 2.04873e+2, -966958.3, -1018745.6, -19.128914, 0.001000611, 0.00019131575, -966958.3, -34712.785, 0.0, 10.007865, 9.939701 
5.9455913e+3, 2.1481274e+2, -868738.1, -920775.44, -33.62729, 0.0010005832, -0.000004320193, -868738.1, -33902.01, 0.0, 10.007849, 9.939361 
5.94559e+3, 2.2474578e+2, -780510.7, -842573.7, -18.276817, 0.0009998322, 0.00024063438, -780510.7, -43018.42, 0.0, 10.007833, 9.9263115 
5.945589e+3, 2.3467214e+2, -682141.06, -744448.6, -32.337894, 0.0009982885, 0.000025909461, -682141.06, -41927.24, 0.0, 10.007818, 9.92598 
5.945588e+3, 2.4459156e+2, -593874.94, -666565.5, -14.625198, 0.0009975338, 0.00018561445, -593874.94, -50871.473, 0.0, 10.007804, 9.912531 
5.945587e+3, 2.5450423e+2, -495186.53, -567943.56, -28.211811, 0.0009976873, 0.0000017608608, -495186.53, -49327.098, 0.0, 10.007789, 9.912431 
5.945586e+3, 2.6440978e+2, -407017.4, -490672.84, -8.694916, 0.0009973434, 0.00024525402, -407017.4, -58232.41, 0.0, 10.007774, 9.898336 
5.945585e+3, 2.7430865e+2, -307794.6, -391113.28, -21.74121, 0.000996379, -0.000104388324, -307794.6, -56018.69, 0.0, 10.007761, 9.898755 
5.945584e+3, 2.8419936e+2, -221261.7, -317654.34, -2.164823, 0.0009956161, 0.0003250589, -221261.7, -66414.91, 0.0, 10.007748, 9.881949 
5.945583e+3, 2.940824e+2, -121609.24, -217372.5, -13.884014, 0.0009951219, -0.0001569842, -121609.234, -63615.953, 0.0, 10.007734, 9.882739 
5.9455824e+3, 3.039932e+2, -32213.834, -84927.336, 5.6448393, 0.0009945377, 0.00026465848, -32213.834, -32213.834, 0.0, 10.007722, 9.938336 
5.945582e+3, 3.1393334e+2, -31183.809, -82755.305, -5.90152, 0.0009938132, 0.000024106612, -31183.807, -31183.807, 0.0, 10.007709, 9.939808 
5.955612e+3, 1.2512535e+2, -1709983.9, -1722935.3, -0.5877543, 0.001015846, 0.0001957837, -1709983.9, 3788.9326, 0.0, 10.007999, 9.990832 
5.95561e+3, 1.3511603e+2, -1612675.3, -1626206.0, -14.7293625, 0.0010127277, 0.000016486598, -1612675.3, 3188.825, 0.0, 10.007982, 9.990049 
5.955609e+3, 1.4510018e+2, -1524641.4, -1546987.1, -9.575858, 0.0010115136, 0.00027652498, -1524641.4, -6621.906, 0.0, 10.007964, 9.978361 
5.955607e+3, 1.550785e+2, -1426985.3, -1449720.4, -24.11579, 0.0010121006, 0.00008495528, -1426985.1, -6753.3784, 0.0, 10.007946, 9.97783 
5.955606e+3, 1.6505027e+2, -1338947.4, -1370819.9, -17.813618, 0.0010116413, 0.00016671537, -1338947.3, -16438.762, 0.0, 10.00793, 9.965799 
5.9556043e+3, 1.7501612e+2, -1241057.5, -1273234.5, -31.11285, 0.0010101687, 0.000064860455, -1241057.4, -16214.258, 0.0, 10.007914, 9.965385 
5.955603e+3, 1.8497524e+2, -1153174.6, -1194973.1, -23.064665, 0.0010095768, 0.00020830958, -1153174.6, -25930.877, 0.0, 10.007898, 9.952773 
5.955602e+3, 1.9492804e+2, -1055091.3, -1097141.4, -37.764202, 0.0010098601, 0.00007152505, -1055091.3, -25385.027, 0.0, 10.007883, 9.95243 
5.955601e+3, 2.0487417e+2, -966986.1, -1018805.06, -25.085808, 0.0010093622, 0.00019077638, -966986.1, -34752.035, 0.0, 10.007867, 9.939662 
5.955599e+3, 2.1481387e+2, -868765.5, -920834.5, -39.58388, 0.0010080509, -0.0000036594558, -868765.5, -33940.5, 0.0, 10.007851, 9.9393215 
5.9555984e+3, 2.2474687e+2, -780537.7, -842632.25, -23.644913, 0.0010071313, 0.0002418869, -780537.7, -43056.137, 0.0, 10.007835, 9.926272 
5.955597e+3, 2.346732e+2, -682167.8, -744506.9, -37.697445, 0.0010066344, 0.000027090784, -682167.8, -41964.324, 0.0, 10.00782, 9.925941 
5.955596e+3, 2.4459259e+2, -593901.44, -666623.7, -20.133118, 0.0010061312, 0.00018626392, -593901.44, -50907.957, 0.0, 10.007806, 9.912492 
5.955595e+3, 2.5450522e+2, -495212.6, -568001.3, -33.722694, 0.0010056172, 0.0000013469811, -495212.6, -49362.72, 0.0, 10.007791, 9.912392 
5.9555936e+3, 2.644107e+2, -407043.34, -490730.8, -13.59811, 0.0010049737, 0.00024521656, -407043.34, -58267.55, 0.0, 10.007776, 9.898297 
5.955593e+3, 2.7430958e+2, -307820.28, -391170.94, -26.625784, 0.0010041653, -0.00010227196, -307820.25, -56053.18, 0.0, 10.007763, 9.898716 
5.955592e+3, 2.8420025e+2, -221286.03, -317709.53, -6.9601607, 0.0010036081, 0.0003270776, -221286.03, -66447.67, 0.0, 10.00775, 9.881912 
5.9555906e+3, 2.940832e+2, -121633.12, -217427.16, -18.64659, 0.0010033838, -0.00015806718, -121633.12, -63647.895, 0.0, 10.007737, 9.882702 
5.95559e+3, 3.0399397e+2, -32239.436, -84985.78, 0.96377295, 0.0010027624, 0.00026322046, -32239.436, -32239.436, 0.0, 10.007724, 9.938295 
5.9555894e+3, 3.1393412e+2, -31209.547, -82814.19, -10.621772, 0.0010015545, 0.000026318467, -31209.545, -31209.545, 0.0, 10.007711, 9.939768 
5.9656197e+3, 1.2512684e+2, -1709729.4, -1722843.5, 6.4261494, 0.0010234108, 0.0001963993, -1709729.4, 4028.828, 0.0, 10.008177, 9.990794 
5.965618e+3, 1.3511749e+2, -1612425.5, -1626117.4, -8.098305, 0.001021122, 0.000017301192, -1612425.5, 3424.317, 0.0, 10.008157, 9.99001 
5.965617e+3, 1.4510159e+2, -1524394.6, -1546900.8, -3.137234, 0.0010199784, 0.0002774491, -1524394.6, -6389.013, 0.0, 10.008139, 9.978322 
5.9656155e+3, 1.5507989e+2, -1426740.1, -1449635.6, -17.672768, 0.0010199103, 0.00008590192, -1426740.1, -6521.8022, 0.0, 10.00812, 9.977792 
5.965614e+3, 1.6505161e+2, -1338702.1, -1370732.8, -10.95109, 0.0010193168, 0.00016744583, -1338702.1, -16206.672, 0.0, 10.008102, 9.965763 
5.9656125e+3, 1.7501742e+2, -1240814.9, -1273149.5, -25.142546, 0.0010182163, 0.00006514315, -1240814.9, -15984.474, 0.0, 10.008086, 9.965349 
5.9656113e+3, 1.849765e+2, -1152935.5, -1194892.6, -17.233679, 0.0010177841, 0.00020862535, -1152935.5, -25704.16, 0.0, 10.00807, 9.952735 
5.96561e+3, 1.9492926e+2, -1054854.0, -1097062.5, -31.523684, 0.0010180151, 0.000072354196, -1054854.0, -25159.816, 0.0, 10.008054, 9.952392 
5.9656084e+3, 2.0487536e+2, -966751.1, -1018728.9, -18.95639, 0.0010173728, 0.00019173091, -966751.1, -34528.684, 0.0, 10.008038, 9.939623 
5.965607e+3, 2.1481502e+2, -868532.5, -920760.0, -33.647083, 0.001015821, -0.0000029818766, -868532.5, -33718.74, 0.0, 10.008021, 9.939282 
5.965606e+3, 2.2474799e+2, -780307.25, -842559.5, -17.647379, 0.0010149836, 0.00024245089, -780307.25, -42836.563, 0.0, 10.008004, 9.926233 
5.965605e+3, 2.3467427e+2, -681941.5, -744436.8, -31.998842, 0.0010149204, 0.0000277189, -681941.44, -41748.484, 0.0, 10.007988, 9.925902 
5.9656036e+3, 2.4459364e+2, -593677.06, -666555.0, -14.297878, 0.0010144424, 0.0001869299, -593677.06, -50693.67, 0.0, 10.007973, 9.912454 
5.9656024e+3, 2.545062e+2, -494988.72, -567933.56, -28.066908, 0.0010134826, 0.000002020289, -494988.72, -49148.574, 0.0, 10.007958, 9.912353 
5.965602e+3, 2.644117e+2, -406821.4, -490665.34, -8.038814, 0.0010127126, 0.00024589486, -406821.4, -58054.96, 0.0, 10.007943, 9.898258 
5.9656006e+3, 2.743105e+2, -307601.84, -391107.88, -21.543121, 0.0010121725, -0.000101590755, -307601.8, -55843.703, 0.0, 10.007929, 9.898676 
5.9655994e+3, 2.8420112e+2, -221068.28, -317644.44, -1.823942, 0.0010117673, 0.00032769475, -221068.28, -66238.51, 0.0, 10.007915, 9.881875 
5.965599e+3, 2.9408404e+2, -121417.78, -217363.64, -13.302806, 0.0010115387, -0.000157605, -121417.77, -63440.777, 0.0, 10.0079, 9.882666 
5.9655976e+3, 3.0399477e+2, -32030.424, -84931.625, 6.204304, 0.001010803, 0.0002636908, -32030.422, -32030.422, 0.0, 10.007887, 9.938253 
5.965597e+3, 3.1393486e+2, -31000.635, -82760.68, -6.3476505, 0.0010093227, 0.00002703796, -31000.635, -31000.635, 0.0, 10.0078745, 9.939725 
5.975628e+3, 1.2512834e+2, -1709759.6, -1722905.1, -0.6343782, 0.0010299769, 0.00019680243, -1709759.6, 3983.6973, 0.0, 10.008179, 9.990755 
5.975627e+3, 1.3511896e+2, -1612455.5, -1626178.6, -15.142636, 0.0010303076, 0.000017797187, -1612455.5, 3379.9485, 0.0, 10.00816, 9.989971 
5.975625e+3, 1.4510302e+2, -1524424.1, -1546961.5, -9.8844185, 0.0010293778, 0.00027847462, -1524424.0, -6432.4834, 0.0, 10.008141, 9.978283 
5.975624e+3, 1.5508129e+2, -1426769.1, -1449695.9, -24.42592, 0.0010272228, 0.00008787353, -1426769.1, -6564.514, 0.0, 10.008122, 9.977753 
5.975622e+3, 1.6505297e+2, -1338729.9, -1370791.0, -16.990911, 0.0010263807, 0.00016869348, -1338729.9, -16247.725, 0.0, 10.008105, 9.965725 
5.975621e+3, 1.7501874e+2, -1240842.4, -1273207.4, -31.218737, 0.0010268195, 0.00006404214, -1240842.4, -16024.832, 0.0, 10.008089, 9.965311 
5.975619e+3, 1.8497778e+2, -1152963.0, -1194950.8, -23.145168, 0.0010266043, 0.00020762453, -1152963.0, -25744.135, 0.0, 10.008073, 9.952697 
5.975618e+3, 1.9493051e+2, -1054881.1, -1097120.3, -37.389603, 0.0010257302, 0.00007390216, -1054881.1, -25199.063, 0.0, 10.008057, 9.9523535 
5.9756166e+3, 2.0487657e+2, -966779.25, -1018789.0, -25.067924, 0.0010248132, 0.00019386891, -966779.25, -34568.62, 0.0, 10.00804, 9.939584 
5.9756154e+3, 2.148162e+2, -868560.4, -920819.8, -39.75819, 0.0010238489, -0.0000022876861, -868560.3, -33757.984, 0.0, 10.008023, 9.939242 
5.975614e+3, 2.2474912e+2, -780334.9, -842619.3, -23.72523, 0.0010232908, 0.00024247375, -780334.9, -42875.19, 0.0, 10.008007, 9.926194 
5.975613e+3, 2.3467536e+2, -681968.6, -744496.2, -38.073467, 0.0010231708, 0.000027911696, -681968.56, -41786.242, 0.0, 10.007991, 9.925863 
5.975612e+3, 2.4459466e+2, -593703.7, -666613.8, -19.619442, 0.0010225389, 0.00018761201, -593703.7, -50730.566, 0.0, 10.007975, 9.912415 
5.9756106e+3, 2.545072e+2, -495015.1, -567992.0, -33.3813, 0.0010213136, 0.0000035595826, -495015.1, -49184.824, 0.0, 10.00796, 9.912313 
5.9756094e+3, 2.6441264e+2, -406848.34, -490725.22, -13.480651, 0.001020556, 0.0002471438, -406848.3, -58091.36, 0.0, 10.007946, 9.898218 
5.975608e+3, 2.743114e+2, -307628.34, -391167.44, -26.95699, 0.0010203699, -0.00010204738, -307628.34, -55879.297, 0.0, 10.007931, 9.898636 
5.9756076e+3, 2.84202e+2, -221092.08, -317698.88, -6.9267945, 0.001020072, 0.00032720185, -221092.08, -66271.01, 0.0, 10.007916, 9.881838 
5.9756064e+3, 2.940849e+2, -121441.016, -217417.31, -18.443071, 0.0010196214, -0.0001559095, -121441.016, -63472.37, 0.0, 10.007902, 9.882628 
5.975606e+3, 3.0399558e+2, -32057.584, -84993.56, 1.5346515, 0.0010187117, 0.000265682, -32057.584, -32057.584, 0.0, 10.007889, 9.9382105 
5.975605e+3, 3.1393564e+2, -31028.354, -82823.625, -10.895948, 0.0010171294, 0.000026570544, -31028.352, -31028.352, 0.0, 10.007876, 9.939681 
5.985636e+3, 1.2512988e+2, -1709502.5, -1722812.5, 6.7365274, 0.0010382014, 0.00019763761, -1709502.5, 4225.8726, 0.0, 10.008358, 9.990716 
5.985635e+3, 1.3512045e+2, -1612200.9, -1626088.1, -7.8418713, 0.0010381079, 0.000018357818, -1612200.9, 3619.9192, 0.0, 10.008338, 9.989932 
5.985633e+3, 1.4510448e+2, -1524171.8, -1546873.0, -2.4911993, 0.0010372113, 0.00027908318, -1524171.8, -6194.4663, 0.0, 10.008319, 9.978244 
5.985632e+3, 1.5508269e+2, -1426519.3, -1449609.4, -17.46434, 0.0010355249, 0.0000888371, -1426519.3, -6328.4995, 0.0, 10.0083, 9.977714 
5.98563e+3, 1.6505434e+2, -1338481.8, -1370705.1, -9.990244, 0.0010347888, 0.00016959062, -1338481.8, -16013.118, 0.0, 10.008282, 9.965687 
5.985629e+3, 1.7502007e+2, -1240597.3, -1273123.8, -25.04489, 0.0010349823, 0.000064462634, -1240597.3, -15792.857, 0.0, 10.008264, 9.965273 
5.985627e+3, 1.8497908e+2, -1152718.6, -1194866.0, -16.820797, 0.001034538, 0.00020798828, -1152718.6, -25512.46, 0.0, 10.008246, 9.952661 
5.985626e+3, 1.9493176e+2, -1054638.8, -1097037.1, -30.584106, 0.0010334501, 0.00007462995, -1054638.8, -24969.09, 0.0, 10.00823, 9.952316 
5.985625e+3, 2.048778e+2, -966541.4, -1018711.9, -18.54228, 0.0010326676, 0.00019472872, -966541.4, -34342.707, 0.0, 10.008213, 9.939545 
5.9856236e+3, 2.1481737e+2, -868325.8, -920745.06, -33.432926, 0.0010321994, -0.0000015375515, -868325.8, -33535.047, 0.0, 10.008195, 9.939203 
5.985622e+3, 2.2475025e+2, -780102.0, -842546.0, -17.13211, 0.0010316453, 0.00024311926, -780102.0, -42653.5, 0.0, 10.008179, 9.926154 
5.985621e+3, 2.3467647e+2, -681736.2, -744423.8, -31.670286, 0.001030994, 0.000028458615, -681736.2, -41564.656, 0.0, 10.0081625, 9.925823 
5.9856194e+3, 2.4459574e+2, -593473.25, -666543.3, -13.297109, 0.0010302995, 0.00018822399, -593473.25, -50510.547, 0.0, 10.008146, 9.9123745 
5.985619e+3, 2.5450823e+2, -494788.7, -567924.2, -27.617228, 0.0010295516, 0.000004425034, -494788.7, -48968.445, 0.0, 10.00813, 9.912273 
5.9856176e+3, 2.6441363e+2, -406624.2, -490658.75, -7.6423054, 0.0010289295, 0.00024792185, -406624.16, -57876.84, 0.0, 10.008114, 9.898178 
5.9856164e+3, 2.7431235e+2, -307405.7, -391102.34, -20.802029, 0.0010284572, -0.00010177683, -307405.7, -55665.9, 0.0, 10.0081, 9.898597 
5.985616e+3, 2.842029e+2, -220869.86, -317633.2, -0.838251, 0.0010279837, 0.00032750648, -220869.86, -66057.65, 0.0, 10.008084, 9.8818 
5.9856147e+3, 2.9408577e+2, -121220.92, -217353.23, -13.517736, 0.0010275064, -0.00015485013, -121220.92, -63260.77, 0.0, 10.00807, 9.88259 
5.985614e+3, 3.0399638e+2, -31843.813, -84937.13, 6.21339, 0.0010267053, 0.00026675768, -31843.81, -31843.81, 0.0, 10.008056, 9.938169 
5.985613e+3, 3.139364e+2, -30817.61, -82769.08, -5.3742733, 0.0010254259, 0.000026591699, -30817.61, -30817.61, 0.0, 10.00804, 9.939639 
5.9956443e+3, 1.2513143e+2, -1709533.0, -1722874.5, -0.6518459, 0.0010477381, 0.0001988138, -1709533.0, 4180.1704, 0.0, 10.00836, 9.990677 
5.995643e+3, 1.3512196e+2, -1612230.9, -1626149.6, -15.213292, 0.0010448399, 0.00001897427, -1612230.9, 3575.1194, 0.0, 10.008341, 9.989893 
5.9956414e+3, 1.4510594e+2, -1524202.1, -1546935.5, -9.513968, 0.0010438365, 0.00027936997, -1524202.1, -6239.175, 0.0, 10.008321, 9.978204 
5.99564e+3, 1.5508412e+2, -1426549.3, -1449671.5, -24.47326, 0.0010446191, 0.00008901255, -1426549.3, -6372.482, 0.0, 10.008302, 9.977674 
5.995639e+3, 1.6505572e+2, -1338511.4, -1370766.9, -16.419413, 0.0010442655, 0.00017021509, -1338511.4, -16056.325, 0.0, 10.008284, 9.965647 
5.995637e+3, 1.7502142e+2, -1240626.5, -1273185.1, -31.468527, 0.001042814, 0.00006608086, -1240626.5, -15835.285, 0.0, 10.008266, 9.965233 
5.995636e+3, 1.8498039e+2, -1152744.8, -1194921.8, -22.840752, 0.001041792, 0.00020942651, -1152744.8, -25551.52, 0.0, 10.008249, 9.952623 
5.995634e+3, 1.9493304e+2, -1054664.8, -1097092.8, -36.602562, 0.0010411924, 0.00007471616, -1054664.8, -25007.572, 0.0, 10.008233, 9.95228 
5.995633e+3, 2.0487903e+2, -966569.9, -1018772.75, -25.16977, 0.0010408647, 0.00019458738, -966569.9, -34383.367, 0.0, 10.008216, 9.939505 
5.995631e+3, 2.1481857e+2, -868353.9, -920805.56, -40.06536, 0.0010408161, -0.00000074030794, -868353.8, -33574.83, 0.0, 10.008198, 9.939163 
5.9956306e+3, 2.2475141e+2, -780129.75, -842606.5, -23.0153, 0.0010400497, 0.00024425806, -780129.75, -42692.656, 0.0, 10.008181, 9.926115 
5.995629e+3, 2.3467758e+2, -681763.7, -744483.94, -37.543312, 0.0010384993, 0.000029289591, -681763.7, -41603.13, 0.0, 10.008164, 9.925783 
5.9956276e+3, 2.4459682e+2, -593501.06, -666604.4, -19.299889, 0.0010378148, 0.0001887849, -593501.06, -50548.918, 0.0, 10.008148, 9.9123335 
5.995627e+3, 2.5450927e+2, -494816.06, -567984.94, -33.597836, 0.0010381242, 0.0000047592152, -494816.06, -49005.992, 0.0, 10.008132, 9.912233 
5.995625e+3, 2.644146e+2, -406650.28, -490717.34, -13.134098, 0.0010377329, 0.00024832974, -406650.28, -57912.727, 0.0, 10.008117, 9.898139 
5.9956247e+3, 2.743133e+2, -307431.4, -391160.47, -26.320042, 0.0010364722, -0.000100924066, -307431.4, -55700.996, 0.0, 10.008101, 9.898557 
5.9956235e+3, 2.8420383e+2, -220895.72, -317692.0, -6.2047358, 0.0010356023, 0.00032844808, -220895.72, -66092.516, 0.0, 10.008087, 9.88176 
5.995622e+3, 2.9408664e+2, -121246.45, -217411.72, -18.799864, 0.0010352529, -0.00015429636, -121246.445, -63294.91, 0.0, 10.008072, 9.88255 
5.9956217e+3, 3.0399725e+2, -31869.592, -84996.33, 0.9571931, 0.001034782, 0.0002671068, -31869.592, -31869.592, 0.0, 10.008058, 9.9381275 
5.995621e+3, 3.1393722e+2, -30843.402, -82828.4, -10.718416, 0.001034121, 0.000027009584, -30843.4, -30843.4, 0.0, 10.008043, 9.939598 
6.0056525e+3, 1.2513301e+2, -1709273.3, -1722780.8, 6.7546124, 0.0010559179, 0.00019959465, -1709273.3, 4424.5854, 0.0, 10.008541, 9.990637 
6.0056514e+3, 1.3512349e+2, -1611971.8, -1626056.8, -7.8844385, 0.001052901, 0.000019934423, -1611971.8, 3819.291, 0.0, 10.008522, 9.989854 
6.00565e+3, 1.4510743e+2, -1523945.1, -1546845.4, -2.2842228, 0.0010519188, 0.00028023007, -1523945.1, -5996.862, 0.0, 10.008502, 9.978164 
6.0056484e+3, 1.5508558e+2, -1426295.5, -1449583.6, -17.36562, 0.0010528561, 0.00008950497, -1426295.5, -6132.9844, 0.0, 10.008482, 9.977633 
6.005647e+3, 1.6505712e+2, -1338259.9, -1370680.8, -8.723367, 0.001052472, 0.00017071264, -1338259.9, -15818.66, 0.0, 10.008463, 9.965607 
6.0056454e+3, 1.750228e+2, -1240377.1, -1273100.8, -23.971222, 0.0010508103, 0.00006694579, -1240377.1, -15599.357, 0.0, 10.008445, 9.965193 
6.005644e+3, 1.8498172e+2, -1152495.4, -1194834.1, -15.426768, 0.0010498042, 0.00021032419, -1152495.4, -25315.26, 0.0, 10.008427, 9.952587 
6.0056424e+3, 1.9493434e+2, -1054419.9, -1097008.0, -29.373789, 0.0010494458, 0.000075312506, -1054419.8, -24775.322, 0.0, 10.008409, 9.952244 
6.005641e+3, 2.048803e+2, -966329.7, -1018695.06, -18.134527, 0.0010490725, 0.00019509473, -966329.7, -34155.5, 0.0, 10.00839, 9.939465 
6.0056394e+3, 2.1481979e+2, -868113.9, -920728.7, -33.257027, 0.0010486807, -0.00000010158703, -868113.9, -33346.813, 0.0, 10.008373, 9.939123 
6.005639e+3, 2.2475259e+2, -779891.44, -842531.25, -16.179893, 0.0010479449, 0.00024502343, -779891.44, -42465.867, 0.0, 10.008356, 9.926074 
6.005637e+3, 2.3467873e+2, -681528.94, -744411.2, -31.038757, 0.0010468303, 0.000030176208, -681528.94, -41379.484, 0.0, 10.008339, 9.925743 
6.0056365e+3, 2.4459791e+2, -593268.4, -666533.2, -12.705513, 0.0010462115, 0.0001895071, -593268.4, -50326.973, 0.0, 10.008322, 9.912293 
6.0056347e+3, 2.545103e+2, -494584.78, -567915.06, -26.833117, 0.0010461601, 0.000004988014, -494584.78, -48785.063, 0.0, 10.008306, 9.912192 
6.005634e+3, 2.6441565e+2, -406420.94, -490649.66, -6.39639, 0.0010456458, 0.00024865702, -406420.94, -57693.332, 0.0, 10.008289, 9.898098 
6.005633e+3, 2.7431428e+2, -307204.75, -391094.8, -20.624945, 0.0010445544, -0.00009976885, -307204.75, -55483.89, 0.0, 10.008273, 9.898517 
6.0056317e+3, 2.8420478e+2, -220669.61, -317624.53, -0.58817524, 0.0010438054, 0.0003295773, -220669.61, -65875.57, 0.0, 10.008258, 9.8817215 
6.005631e+3, 2.9408756e+2, -121023.1, -217346.08, -12.315377, 0.0010435112, -0.0001543311, -121023.1, -63080.34, 0.0, 10.008242, 9.882512 
6.00563e+3, 3.039981e+2, -31652.918, -84939.984, 7.345962, 0.001042966, 0.00026695276, -31652.918, -31652.918, 0.0, 10.008226, 9.938085 
6.005629e+3, 3.1393802e+2, -30627.457, -82772.97, -5.924347, 0.0010420443, 0.000028258753, -30627.455, -30627.455, 0.0, 10.008212, 9.939554 
6.0156614e+3, 1.251346e+2, -1709303.5, -1722842.9, -0.38719052, 0.0010630578, 0.00020007006, -1709303.5, 4378.6772, 0.0, 10.008544, 9.990598 
6.01566e+3, 1.3512504e+2, -1612001.9, -1626118.8, -15.044901, 0.0010620162, 0.000021164497, -1612001.9, 3773.887, 0.0, 10.008524, 9.989814 
6.0156584e+3, 1.4510895e+2, -1523975.9, -1546908.4, -9.750685, 0.0010611537, 0.0002815397, -1523975.9, -6042.351, 0.0, 10.008505, 9.978124 
6.0156566e+3, 1.5508704e+2, -1426325.6, -1449646.3, -24.812862, 0.001060439, 0.00009024885, -1426325.6, -6177.4956, 0.0, 10.008484, 9.977592 
6.0156554e+3, 1.6505857e+2, -1338289.8, -1370743.3, -15.326567, 0.0010597039, 0.00017111549, -1338289.8, -15862.518, 0.0, 10.008466, 9.965567 
6.0156536e+3, 1.7502418e+2, -1240406.8, -1273162.9, -30.565582, 0.001058954, 0.00006722563, -1240406.8, -15642.589, 0.0, 10.008448, 9.965153 
6.0156524e+3, 1.8498307e+2, -1152522.0, -1194890.6, -22.193438, 0.0010584258, 0.00021080275, -1152522.0, -25355.063, 0.0, 10.00843, 9.95255 
6.0156506e+3, 1.9493565e+2, -1054446.0, -1097064.1, -36.144753, 0.0010581119, 0.000076311226, -1054446.0, -24814.342, 0.0, 10.00841, 9.952207 
6.0156494e+3, 2.0488156e+2, -966358.44, -1018756.75, -24.467295, 0.0010573022, 0.00019611318, -966358.44, -34196.758, 0.0, 10.008393, 9.939424 
6.015648e+3, 2.1482103e+2, -868142.4, -920790.06, -39.582493, 0.0010559763, 0.00000041779768, -868142.3, -33387.36, 0.0, 10.008376, 9.939082 
6.015647e+3, 2.2475378e+2, -779919.94, -842593.1, -22.60049, 0.001055461, 0.0002455003, -779919.94, -42506.05, 0.0, 10.008358, 9.926033 
6.015645e+3, 2.3467988e+2, -681557.0, -744472.7, -37.452923, 0.0010558218, 0.000031106803, -681557.0, -41418.86, 0.0, 10.008341, 9.925702 
6.0156447e+3, 2.4459903e+2, -593295.6, -666593.5, -18.730618, 0.0010553106, 0.00019035737, -593295.6, -50365.164, 0.0, 10.008324, 9.912253 
6.015643e+3, 2.545114e+2, -494611.66, -567975.0, -32.871693, 0.0010537922, 0.000005143183, -494611.66, -48822.438, 0.0, 10.008307, 9.912152 
6.015642e+3, 2.6441666e+2, -406449.0, -490712.3, -12.248409, 0.0010528791, 0.00024892896, -406449.0, -57731.49, 0.0, 10.008291, 9.898056 
6.015641e+3, 2.7431527e+2, -307232.5, -391157.25, -26.419441, 0.0010527062, -0.000098380304, -307232.5, -55521.348, 0.0, 10.008276, 9.898474 
6.01564e+3, 2.842057e+2, -220693.84, -317680.16, -6.287129, 0.0010524818, 0.00033084984, -220693.84, -65909.11, 0.0, 10.00826, 9.881683 
6.0156393e+3, 2.9408848e+2, -121046.69, -217400.8, -18.076132, 0.0010521846, -0.00015481537, -121046.68, -63112.848, 0.0, 10.0082445, 9.882475 
6.015638e+3, 3.0399898e+2, -31681.213, -85004.695, 1.8954034, 0.0010512485, 0.00026641786, -31681.213, -31681.213, 0.0, 10.008229, 9.93804 
6.015637e+3, 3.1393886e+2, -30656.303, -82838.83, -11.275371, 0.0010493788, 0.000030154602, -30656.3, -30656.3, 0.0, 10.008214, 9.939508 
6.02567e+3, 1.2513621e+2, -1709036.5, -1722746.1, 7.693559, 0.001070816, 0.00020055227, -1709036.5, 4629.889, 0.0, 10.00873, 9.990558 
6.0256684e+3, 1.3512662e+2, -1611741.0, -1626025.9, -7.4210954, 0.0010705129, 0.00002189979, -1611741.0, 4019.3394, 0.0, 10.008707, 9.989774 
6.025667e+3, 1.4511047e+2, -1523717.8, -1546817.9, -1.7930347, 0.00106969, 0.00028240457, -1523717.8, -5799.2056, 0.0, 10.008686, 9.978084 
6.0256654e+3, 1.5508853e+2, -1426067.4, -1449556.4, -16.938057, 0.0010683475, 0.00009112429, -1426067.3, -5933.7646, 0.0, 10.008667, 9.977552 
6.025664e+3, 1.6506001e+2, -1338033.4, -1370655.0, -7.383372, 0.0010675443, 0.00017184649, -1338033.4, -15620.364, 0.0, 10.008648, 9.965526 
6.0256624e+3, 1.7502558e+2, -1240155.0, -1273077.8, -22.767836, 0.0010672702, 0.00006766195, -1240155.0, -15404.644, 0.0, 10.008628, 9.965112 
6.025661e+3, 1.8498445e+2, -1152270.1, -1194802.3, -14.260052, 0.0010668086, 0.00021124928, -1152270.1, -25116.578, 0.0, 10.008609, 9.952513 
6.0256594e+3, 1.9493699e+2, -1054195.3, -1096977.1, -28.478174, 0.0010661532, 0.0000770722, -1054195.3, -24576.744, 0.0, 10.00859, 9.952169 
6.025658e+3, 2.0488286e+2, -966112.3, -1018676.56, -16.821486, 0.0010653008, 0.00019700859, -966112.3, -33963.28, 0.0, 10.008572, 9.9393835 
6.0256565e+3, 2.1482228e+2, -867899.25, -920712.2, -32.129677, 0.0010642412, 0.0000012608622, -867899.2, -33156.54, 0.0, 10.0085535, 9.939042 
6.025655e+3, 2.2475499e+2, -779679.06, -842517.25, -15.2044325, 0.0010637661, 0.00024616712, -779679.06, -42277.07, 0.0, 10.008535, 9.925992 
6.025654e+3, 2.3468104e+2, -681317.94, -744398.4, -30.175005, 0.001063922, 0.000031463194, -681317.94, -41191.31, 0.0, 10.008518, 9.925661 
6.025653e+3, 2.4460016e+2, -593058.25, -666520.8, -11.425217, 0.001063354, 0.00019082776, -593058.25, -50138.867, 0.0, 10.0085, 9.912211 
6.0256517e+3, 2.545125e+2, -494376.34, -567904.0, -26.21506, 0.0010619488, 0.0000062153663, -494376.34, -48597.813, 0.0, 10.008484, 9.912111 
6.0256505e+3, 2.6441774e+2, -406215.84, -490643.34, -5.6492624, 0.0010611007, 0.0002499057, -406215.84, -57508.62, 0.0, 10.008467, 9.898015 
6.0256493e+3, 2.7431628e+2, -307002.16, -391090.38, -19.378952, 0.0010609332, -0.00009835647, -307002.16, -55300.863, 0.0, 10.00845, 9.898433 
6.025649e+3, 2.842067e+2, -220463.92, -317611.75, 0.7276748, 0.0010606715, 0.00033086515, -220463.92, -65688.66, 0.0, 10.008433, 9.881644 
6.0256475e+3, 2.9408938e+2, -120818.62, -217333.8, -12.294507, 0.0010602806, -0.00015355398, -120818.62, -62893.875, 0.0, 10.008417, 9.882435 
6.0256463e+3, 3.0399984e+2, -31459.729, -84946.96, 7.3225555, 0.0010593485, 0.0002677919, -31459.729, -31459.729, 0.0, 10.008402, 9.937996 
6.025646e+3, 3.139397e+2, -30436.527, -82782.49, -5.146191, 0.0010576244, 0.000029998766, -30436.527, -30436.527, 0.0, 10.008386, 9.939465 
6.035679e+3, 1.2513784e+2, -1709068.3, -1722810.4, -0.6433172, 0.0010790753, 0.00020104641, -1709068.3, 4582.213, 0.0, 10.008732, 9.990517 
6.035677e+3, 1.351282e+2, -1611772.0, -1626089.6, -15.709129, 0.0010785428, 0.000022255363, -1611772.0, 3972.7551, 0.0, 10.00871, 9.989734 
6.035676e+3, 1.4511202e+2, -1523748.3, -1546881.1, -8.822272, 0.0010776968, 0.00028292742, -1523748.3, -5844.92, 0.0, 10.008689, 9.978043 
6.035674e+3, 1.5509005e+2, -1426097.8, -1449619.4, -23.97984, 0.0010765286, 0.000092104885, -1426097.6, -5978.949, 0.0, 10.00867, 9.977512 
6.0356724e+3, 1.6506147e+2, -1338063.6, -1370718.3, -14.799432, 0.0010758779, 0.00017283567, -1338063.6, -15665.085, 0.0, 10.00865, 9.965486 
6.0356706e+3, 1.7502703e+2, -1240184.8, -1273140.5, -30.17198, 0.0010757343, 0.00006822426, -1240184.8, -15448.411, 0.0, 10.00863, 9.965072 
6.0356694e+3, 1.8498585e+2, -1152297.0, -1194859.9, -20.97448, 0.001075019, 0.0002116755, -1152297.0, -25157.113, 0.0, 10.008611, 9.952476 
6.035668e+3, 1.9493833e+2, -1054222.0, -1097034.4, -35.185684, 0.0010737278, 0.00007765229, -1054221.9, -24616.629, 0.0, 10.008593, 9.952132 
6.0356665e+3, 2.0488417e+2, -966141.44, -1018739.06, -23.556288, 0.0010731395, 0.00019781149, -966141.44, -34005.277, 0.0, 10.0085745, 9.9393425 
6.035665e+3, 2.1482354e+2, -867928.0, -920774.3, -38.867947, 0.0010732748, 0.0000023578466, -867928.0, -33197.77, 0.0, 10.008556, 9.939001 
6.035664e+3, 2.2475623e+2, -779707.7, -842579.44, -21.747192, 0.0010726984, 0.00024698512, -779707.6, -42317.727, 0.0, 10.008538, 9.925951 
6.035663e+3, 2.3468223e+2, -681346.1, -744460.2, -36.71861, 0.0010713452, 0.000031380154, -681346.06, -41231.098, 0.0, 10.00852, 9.92562 
6.0356617e+3, 2.4460131e+2, -593086.75, -666583.75, -17.629301, 0.001070594, 0.00019100867, -593086.75, -50178.598, 0.0, 10.008503, 9.912169 
6.03566e+3, 2.545136e+2, -494404.53, -567966.6, -32.390675, 0.0010705311, 0.000007999805, -494404.53, -48636.84, 0.0, 10.008486, 9.912069 
6.0356593e+3, 2.6441878e+2, -406243.0, -490704.3, -11.831702, 0.0010701076, 0.0002514301, -406243.0, -57546.23, 0.0, 10.00847, 9.897974 
6.0356575e+3, 2.743173e+2, -307028.8, -391150.8, -25.591454, 0.0010692339, -0.000099385004, -307028.78, -55337.53, 0.0, 10.008452, 9.898392 
6.035657e+3, 2.8420767e+2, -220490.2, -317671.94, -5.1851206, 0.0010684978, 0.00032991252, -220490.2, -65724.56, 0.0, 10.008436, 9.881603 
6.035656e+3, 2.9409033e+2, -120844.54, -217393.6, -18.152836, 0.0010679433, -0.00015093572, -120844.53, -62929.043, 0.0, 10.00842, 9.882395 
6.0356545e+3, 3.0400077e+2, -31486.896, -85009.46, 1.6211405, 0.0010673235, 0.00027064764, -31486.896, -31486.896, 0.0, 10.008404, 9.937952 
6.035654e+3, 3.1394055e+2, -30463.918, -82845.38, -10.864071, 0.0010665964, 0.000028254184, -30463.916, -30463.916, 0.0, 10.0083885, 9.939421 
6.045688e+3, 1.2513949e+2, -1708801.5, -1722714.0, 7.501231, 0.001087887, 0.00020207079, -1708801.5, 4832.7754, 0.0, 10.008918, 9.990477 
6.045686e+3, 1.3512982e+2, -1611504.0, -1625993.3, -7.3508987, 0.0010862236, 0.000022850185, -1611504.0, 4224.991, 0.0, 10.008897, 9.989693 
6.045685e+3, 1.451136e+2, -1523482.9, -1546787.6, -0.29673636, 0.0010852863, 0.0002834235, -1523482.9, -5594.9673, 0.0, 10.008876, 9.978002 
6.045683e+3, 1.5509158e+2, -1425838.3, -1449529.6, -15.83737, 0.001085015, 0.00009281575, -1425838.3, -5734.563, 0.0, 10.008854, 9.97747 
6.045681e+3, 1.6506298e+2, -1337806.8, -1370630.0, -6.4333296, 0.0010844985, 0.00017361887, -1337806.8, -15422.714, 0.0, 10.008833, 9.965445 
6.0456795e+3, 1.7502847e+2, -1239928.0, -1273053.1, -21.92118, 0.0010837509, 0.000068941874, -1239927.9, -15205.832, 0.0, 10.008814, 9.965031 
6.045678e+3, 1.8498725e+2, -1152039.1, -1194768.9, -12.582269, 0.0010829179, 0.00021235702, -1152039.0, -24913.006, 0.0, 10.008795, 9.952437 
6.0456765e+3, 1.9493972e+2, -1053967.4, -1096945.9, -26.90077, 0.0010819929, 0.00007832726, -1053967.4, -24375.57, 0.0, 10.008775, 9.952094 
6.045675e+3, 2.0488551e+2, -965892.3, -1018658.06, -15.308429, 0.0010815298, 0.00019846474, -965892.25, -33769.215, 0.0, 10.008756, 9.939301 
6.045674e+3, 2.1482484e+2, -867681.2, -920695.25, -30.907328, 0.0010815416, 0.0000029736211, -867681.2, -32963.63, 0.0, 10.008737, 9.938959 
6.045672e+3, 2.2475748e+2, -779462.44, -842502.0, -13.711896, 0.0010808604, 0.0002476622, -779462.44, -42084.754, 0.0, 10.0087185, 9.92591 
6.045671e+3, 2.3468345e+2, -681102.2, -744384.06, -28.999657, 0.0010794216, 0.0000322256, -681102.1, -40999.027, 0.0, 10.0087, 9.925578 
6.04567e+3, 2.4460247e+2, -592844.94, -666509.75, -10.021296, 0.0010787167, 0.00019174219, -592844.94, -49948.23, 0.0, 10.008683, 9.912128 
6.045669e+3, 2.5451472e+2, -494166.06, -567895.0, -24.806702, 0.0010788519, 0.000008299477, -494166.06, -48409.418, 0.0, 10.008665, 9.912027 
6.0456675e+3, 2.6441985e+2, -406006.47, -490634.22, -4.219359, 0.0010784545, 0.00025178783, -406006.47, -57320.3, 0.0, 10.008647, 9.897932 
6.0456663e+3, 2.7431834e+2, -306793.4, -391081.97, -18.651678, 0.001077395, -0.000098364435, -306793.4, -55112.367, 0.0, 10.008631, 9.89835 
6.045666e+3, 2.842087e+2, -220255.17, -317602.25, 1.5490828, 0.0010766016, 0.0003309323, -220255.17, -65499.344, 0.0, 10.008614, 9.881563 
6.0456645e+3, 2.9409128e+2, -120612.33, -217325.86, -11.215334, 0.0010761607, -0.00015079927, -120612.33, -62706.246, 0.0, 10.008596, 9.882354 
6.0456634e+3, 3.040017e+2, -31261.549, -84950.266, 8.315402, 0.0010756139, 0.00027067028, -31261.549, -31261.549, 0.0, 10.008579, 9.937908 
6.045663e+3, 3.1394145e+2, -30240.857, -82787.766, -4.924184, 0.0010748998, 0.000029283334, -30240.857, -30240.857, 0.0, 10.008563, 9.939376 
6.0556966e+3, 1.2514117e+2, -1708832.3, -1722777.1, -0.12705067, 0.0010971314, 0.00020350263, -1708832.3, 4785.5327, 0.0, 10.008921, 9.990437 
6.055695e+3, 1.3513145e+2, -1611534.8, -1626056.1, -14.997593, 0.0010936606, 0.000023634468, -1611534.6, 4178.2813, 0.0, 10.0089, 9.989653 
6.0556936e+3, 1.451152e+2, -1523514.5, -1546852.6, -8.48494, 0.001092581, 0.00028390557, -1523514.5, -5642.2446, 0.0, 10.008878, 9.97796 
6.055692e+3, 1.5509312e+2, -1425869.4, -1449594.1, -23.984556, 0.0010937492, 0.00009332228, -1425869.4, -5780.8145, 0.0, 10.008856, 9.977429 
6.05569e+3, 1.6506448e+2, -1337837.0, -1370693.5, -13.504933, 0.0010933506, 0.00017424596, -1337836.9, -15467.772, 0.0, 10.008836, 9.965404 
6.055688e+3, 1.7502993e+2, -1239957.9, -1273116.3, -29.000473, 0.0010914423, 0.00006978306, -1239957.9, -15250.227, 0.0, 10.008817, 9.96499 
6.055687e+3, 1.8498868e+2, -1152066.3, -1194827.0, -19.800787, 0.0010905988, 0.00021323972, -1152066.3, -24954.23, 0.0, 10.008797, 9.9524 
6.055685e+3, 1.9494112e+2, -1053994.3, -1097003.6, -34.111744, 0.001090807, 0.00007907965, -1053994.3, -24416.021, 0.0, 10.008778, 9.952056 
6.055684e+3, 2.0488685e+2, -965921.9, -1018721.6, -22.274908, 0.0010903598, 0.00019900681, -965921.9, -33812.066, 0.0, 10.008759, 9.93926 
6.055683e+3, 2.1482615e+2, -867710.4, -920758.44, -37.8694, 0.0010892323, 0.0000032226144, -867710.3, -33005.637, 0.0, 10.008739, 9.938918 
6.055681e+3, 2.2475876e+2, -779491.5, -842565.5, -20.22171, 0.0010884451, 0.00024823463, -779491.5, -42126.297, 0.0, 10.008721, 9.925868 
6.05568e+3, 2.3468468e+2, -681131.0, -744447.2, -35.503117, 0.001088022, 0.000033790402, -681130.94, -41039.875, 0.0, 10.008703, 9.925536 
6.055679e+3, 2.4460365e+2, -592873.44, -666572.7, -16.716242, 0.0010875396, 0.00019290528, -592873.44, -49988.37, 0.0, 10.008685, 9.9120865 
6.0556775e+3, 2.5451586e+2, -494194.03, -567957.5, -31.50606, 0.0010869853, 0.0000074584254, -494194.03, -48448.586, 0.0, 10.008667, 9.911985 
6.0556763e+3, 2.6442096e+2, -406034.7, -490697.72, -10.369087, 0.0010863058, 0.00025125092, -406034.7, -57359.316, 0.0, 10.00865, 9.897889 
6.055675e+3, 2.743194e+2, -306821.34, -391145.2, -24.780704, 0.001085466, -0.00009575797, -306821.34, -55150.695, 0.0, 10.008633, 9.898307 
6.055674e+3, 2.842097e+2, -220281.11, -317661.72, -4.711972, 0.001084939, 0.00033347728, -220281.11, -65535.273, 0.0, 10.008616, 9.881522 
6.055673e+3, 2.9409227e+2, -120637.71, -217384.67, -17.474724, 0.0010848247, -0.00015257708, -120637.71, -62741.188, 0.0, 10.008599, 9.882314 
6.055672e+3, 3.040026e+2, -31289.824, -85015.35, 2.0957828, 0.0010841641, 0.0002685092, -31289.824, -31289.824, 0.0, 10.008582, 9.937862 
6.055671e+3, 3.139423e+2, -30269.389, -82853.555, -11.175441, 0.0010827001, 0.000032462656, -30269.387, -30269.387, 0.0, 10.008565, 9.93933 
6.0657054e+3, 1.2514287e+2, -1708558.5, -1722677.4, 8.612033, 0.001104758, 0.00020409262, -1708558.5, 5042.685, 0.0, 10.00911, 9.990396 
6.065704e+3, 1.3513312e+2, -1611266.8, -1625960.3, -6.644888, 0.0011024014, 0.000024523388, -1611266.8, 4429.932, 0.0, 10.009088, 9.989613 
6.0657024e+3, 1.4511682e+2, -1523249.4, -1546759.4, 0.118506305, 0.00110138, 0.0002847901, -1523249.4, -5392.9316, 0.0, 10.009065, 9.977919 
6.0657007e+3, 1.5509471e+2, -1425603.9, -1449501.4, -15.194341, 0.0011016028, 0.00009391293, -1425603.9, -5530.7695, 0.0, 10.009044, 9.977388 
6.0656995e+3, 1.6506602e+2, -1337573.3, -1370602.6, -4.3533382, 0.0011010687, 0.00017477773, -1337573.3, -15219.141, 0.0, 10.009024, 9.965362 
6.065697e+3, 1.7503144e+2, -1239698.4, -1273028.1, -20.214876, 0.0010998079, 0.00007048332, -1239698.4, -15005.349, 0.0, 10.009002, 9.964948 
6.065696e+3, 1.8499012e+2, -1151806.4, -1194735.3, -11.002834, 0.0010991625, 0.00021400563, -1151806.4, -24708.584, 0.0, 10.008982, 9.952362 
6.065694e+3, 1.9494253e+2, -1053736.1, -1096913.5, -25.415607, 0.0010991222, 0.00007980903, -1053736.0, -24171.758, 0.0, 10.008962, 9.952019 
6.065693e+3, 2.0488824e+2, -965668.1, -1018639.06, -13.411791, 0.0010985024, 0.00019969637, -965668.1, -33571.805, 0.0, 10.008943, 9.939218 
6.065691e+3, 2.1482748e+2, -867458.0, -920677.25, -29.218353, 0.0010972805, 0.0000038687967, -867458.0, -32766.389, 0.0, 10.008924, 9.938876 
6.06569e+3, 2.2476004e+2, -779241.56, -842486.56, -11.664949, 0.001096599, 0.0002488444, -779241.56, -41889.0, 0.0, 10.008904, 9.925825 
6.065689e+3, 2.3468593e+2, -680884.7, -744370.9, -27.2394, 0.0010964985, 0.000034371566, -680884.7, -40805.82, 0.0, 10.008885, 9.925494 
6.0656875e+3, 2.4460486e+2, -592628.7, -666497.56, -8.380037, 0.0010960086, 0.00019353119, -592628.7, -49755.45, 0.0, 10.008867, 9.912044 
6.065686e+3, 2.5451702e+2, -493949.56, -567883.2, -23.389137, 0.0010950671, 0.000008212555, -493949.56, -48215.527, 0.0, 10.00885, 9.911943 
6.065685e+3, 2.644221e+2, -405792.3, -490626.25, -2.447564, 0.0010943199, 0.00025196566, -405792.3, -57127.938, 0.0, 10.008832, 9.897845 
6.065684e+3, 2.7432048e+2, -306582.63, -391076.28, -17.260807, 0.0010938052, -0.00009528731, -306582.63, -54922.547, 0.0, 10.008814, 9.898264 
6.065683e+3, 2.842107e+2, -220042.64, -317590.25, 2.6868937, 0.001093413, 0.0003339127, -220042.64, -65306.96, 0.0, 10.008796, 9.881482 
6.0656816e+3, 2.9409325e+2, -120401.09, -217314.55, -10.157265, 0.0010931803, -0.00015190194, -120401.09, -62514.332, 0.0, 10.008779, 9.882274 
6.0656804e+3, 3.0400357e+2, -31060.197, -84956.23, 9.042718, 0.0010923967, 0.0002692458, -31060.195, -31060.195, 0.0, 10.008761, 9.937817 
6.06568e+3, 3.139432e+2, -30040.113, -82795.32, -5.0066676, 0.001090805, 0.000033006894, -30040.113, -30040.113, 0.0, 10.008744, 9.939283 
6.075715e+3, 1.2514459e+2, -1708590.3, -1722742.3, -0.0825687, 0.0011111773, 0.00020404678, -1708590.3, 4993.9883, 0.0, 10.009113, 9.990355 
6.075713e+3, 1.351348e+2, -1611298.1, -1626024.6, -15.318795, 0.0011121491, 0.000025493542, -1611298.1, 4382.113, 0.0, 10.009089, 9.989572 
6.075711e+3, 1.4511846e+2, -1523280.3, -1546823.4, -7.5820746, 0.0011113369, 0.00028598297, -1523280.3, -5439.9395, 0.0, 10.009068, 9.977878 
6.07571e+3, 1.550963e+2, -1425634.5, -1449565.0, -22.910738, 0.0011088052, 0.000094573654, -1425634.5, -5577.067, 0.0, 10.009047, 9.977347 
6.075708e+3, 1.6506758e+2, -1337604.5, -1370667.8, -12.134879, 0.0011079449, 0.00017524339, -1337604.5, -15265.571, 0.0, 10.009026, 9.96532 
6.0757065e+3, 1.7503296e+2, -1239729.1, -1273092.9, -27.96861, 0.0011087059, 0.00007107972, -1239729.1, -15050.894, 0.0, 10.009005, 9.964906 
6.075705e+3, 1.8499161e+2, -1151833.6, -1194793.6, -18.269823, 0.0011084148, 0.00021468515, -1151833.6, -24750.25, 0.0, 10.008985, 9.952324 
6.0757035e+3, 1.9494396e+2, -1053762.9, -1096971.5, -32.690502, 0.0011070713, 0.000080524675, -1053762.9, -24212.662, 0.0, 10.008965, 9.951981 
6.0757023e+3, 2.0488964e+2, -965698.06, -1018703.44, -20.371273, 0.0011061376, 0.0002005034, -965698.06, -33615.42, 0.0, 10.008945, 9.939175 
6.0757005e+3, 2.1482885e+2, -867487.6, -920741.3, -36.174572, 0.0011056237, 0.0000048242155, -867487.6, -32809.285, 0.0, 10.008926, 9.938833 
6.0756993e+3, 2.2476135e+2, -779271.25, -842551.2, -18.747232, 0.001105208, 0.00024948712, -779271.25, -41931.535, 0.0, 10.008907, 9.925782 
6.0756975e+3, 2.346872e+2, -680913.8, -744435.06, -34.31084, 0.0011048939, 0.00003420194, -680913.8, -40847.383, 0.0, 10.008888, 9.925451 
6.0756963e+3, 2.446061e+2, -592657.4, -666561.3, -14.784819, 0.00110422, 0.00019374941, -592657.4, -49796.15, 0.0, 10.00887, 9.912002 
6.075695e+3, 2.545182e+2, -493977.97, -567946.56, -29.797844, 0.0011031292, 0.000010196671, -493977.94, -48255.53, 0.0, 10.008853, 9.9119005 
6.075694e+3, 2.6442322e+2, -405821.34, -490691.34, -9.150163, 0.0011024802, 0.00025364547, -405821.34, -57168.16, 0.0, 10.008835, 9.897802 
6.075693e+3, 2.743216e+2, -306611.2, -391141.03, -23.938425, 0.001102367, -0.0000964554, -306611.2, -54961.844, 0.0, 10.008817, 9.89822 
6.0756916e+3, 2.8421178e+2, -220068.52, -317650.0, -3.7196887, 0.0011020064, 0.0003327311, -220068.52, -65343.14, 0.0, 10.008799, 9.881441 
6.0756904e+3, 2.9409426e+2, -120426.375, -217373.52, -16.612274, 0.0011013144, -0.00014933318, -120426.375, -62549.566, 0.0, 10.008781, 9.882234 
6.075689e+3, 3.0400455e+2, -31089.734, -85024.14, 2.8157356, 0.0011004028, 0.00027221633, -31089.734, -31089.734, 0.0, 10.008764, 9.937769 
6.0756886e+3, 3.1394416e+2, -30070.238, -82864.31, -11.128604, 0.0010991644, 0.000031523075, -30070.234, -30070.234, 0.0, 10.008747, 9.939235 
6.085724e+3, 1.2514634e+2, -1708315.0, -1722642.4, 9.144793, 0.0011197509, 0.00020479865, -1708315.0, 5252.1567, 0.0, 10.009305, 9.990314 
6.0857224e+3, 1.351365e+2, -1611024.6, -1625926.4, -6.1981864, 0.0011200097, 0.000025948391, -1611024.6, 4638.963, 0.0, 10.009281, 9.98953 
6.0857207e+3, 1.4512011e+2, -1523009.4, -1546727.5, 1.99682, 0.00111919, 0.00028647247, -1523009.4, -5185.28, 0.0, 10.009258, 9.977837 
6.085719e+3, 1.5509793e+2, -1425367.1, -1449471.8, -13.769556, 0.001117318, 0.00009541061, -1425367.1, -5325.6284, 0.0, 10.009236, 9.977305 
6.085717e+3, 1.6506916e+2, -1337339.3, -1370576.4, -2.8928483, 0.0011165697, 0.00017613736, -1337339.3, -15015.923, 0.0, 10.009214, 9.965279 
6.085716e+3, 1.7503448e+2, -1239465.4, -1273002.9, -18.631845, 0.001116915, 0.000071750495, -1239465.4, -14802.291, 0.0, 10.009193, 9.964865 
6.085714e+3, 1.849931e+2, -1151568.5, -1194699.9, -8.593254, 0.0011164674, 0.00021526928, -1151568.5, -24499.904, 0.0, 10.009172, 9.952285 
6.0857123e+3, 1.9494542e+2, -1053499.9, -1096879.5, -23.317406, 0.001115224, 0.00008115777, -1053499.9, -23963.912, 0.0, 10.009152, 9.9519415 
6.085711e+3, 2.0489106e+2, -965440.4, -1018619.44, -11.088357, 0.001114446, 0.00020118347, -965440.4, -33371.637, 0.0, 10.009132, 9.939133 
6.0857093e+3, 2.1483022e+2, -867233.1, -920659.7, -27.130816, 0.0011141453, 0.00000554916, -867233.06, -32568.229, 0.0, 10.009112, 9.938791 
6.085708e+3, 2.247627e+2, -779018.2, -842471.2, -9.540809, 0.0011136458, 0.00025015822, -779018.2, -41691.527, 0.0, 10.009093, 9.92574 
6.0857064e+3, 2.3468849e+2, -680661.0, -744355.8, -25.178284, 0.0011129262, 0.000034712317, -680661.0, -40607.207, 0.0, 10.009075, 9.925408 
6.085705e+3, 2.4460734e+2, -592406.56, -666484.5, -5.7974963, 0.0011122569, 0.00019430144, -592406.56, -49557.543, 0.0, 10.009056, 9.911958 
6.085704e+3, 2.545194e+2, -493730.94, -567872.44, -21.450785, 0.0011116414, 0.000011022644, -493730.9, -48020.305, 0.0, 10.009037, 9.911857 
6.085703e+3, 2.644244e+2, -405576.2, -490618.53, -0.8709583, 0.0011110954, 0.00025441713, -405576.2, -56934.383, 0.0, 10.009019, 9.8977585 
6.0857016e+3, 2.743227e+2, -306366.9, -391069.34, -15.380388, 0.0011106279, -0.0000961412, -306366.9, -54728.516, 0.0, 10.009001, 9.898176 
6.0857004e+3, 2.8421286e+2, -219824.44, -317577.78, 4.5953083, 0.0011101104, 0.00033305513, -219824.44, -65109.598, 0.0, 10.008984, 9.881399 
6.085699e+3, 2.940953e+2, -120184.67, -217303.1, -9.486134, 0.0011095238, -0.00014837964, -120184.67, -62317.984, 0.0, 10.0089655, 9.882191 
6.085698e+3, 3.0400553e+2, -30854.95, -84962.37, 9.417731, 0.0011087557, 0.0002731826, -30854.947, -30854.947, 0.0, 10.008947, 9.937723 
6.0856974e+3, 3.1394508e+2, -29838.34, -82804.414, -3.7759128, 0.0011077138, 0.00003161125, -29838.34, -29838.34, 0.0, 10.008928, 9.939188 
6.0957336e+3, 1.251481e+2, -1708347.1, -1722707.8, 0.3460481, 0.0011299689, 0.00020615861, -1708347.1, 5202.674, 0.0, 10.009307, 9.990272 
6.095731e+3, 1.3513823e+2, -1611056.1, -1625991.4, -14.964441, 0.001126461, 0.000026019223, -1611056.1, 4590.4375, 0.0, 10.009284, 9.989489 
6.09573e+3, 1.4512181e+2, -1523041.3, -1546793.5, -6.253458, 0.0011254714, 0.00028643516, -1523041.3, -5233.7124, 0.0, 10.009261, 9.977794 
6.095728e+3, 1.5509959e+2, -1425398.8, -1449537.4, -21.996382, 0.001126842, 0.00009638393, -1425398.8, -5373.308, 0.0, 10.009238, 9.977263 
6.0957265e+3, 1.6507077e+2, -1337370.1, -1370640.9, -10.647295, 0.0011265357, 0.00017735836, -1337370.1, -15062.455, 0.0, 10.009217, 9.965237 
6.0957247e+3, 1.7503606e+2, -1239495.8, -1273067.0, -26.393557, 0.0011246183, 0.000072482835, -1239495.8, -14847.936, 0.0, 10.009196, 9.964823 
6.095723e+3, 1.8499462e+2, -1151596.4, -1194759.5, -16.001293, 0.0011236288, 0.00021578709, -1151596.4, -24542.625, 0.0, 10.009175, 9.952247 
6.095722e+3, 1.9494691e+2, -1053527.4, -1096938.8, -30.710201, 0.0011235517, 0.00008173314, -1053527.4, -24005.926, 0.0, 10.009155, 9.951902 
6.09572e+3, 2.048925e+2, -965470.75, -1018684.75, -18.46407, 0.0011232843, 0.0002017708, -965470.75, -33416.137, 0.0, 10.009135, 9.93909 
6.095719e+3, 2.1483162e+2, -867263.0, -920724.6, -34.50384, 0.0011228173, 0.000006101376, -867263.0, -32611.814, 0.0, 10.009115, 9.938748 
6.0957175e+3, 2.2476403e+2, -779047.75, -842536.0, -16.317554, 0.001121969, 0.00025085508, -779047.75, -41734.41, 0.0, 10.009096, 9.925697 
6.095716e+3, 2.346898e+2, -680690.25, -744420.25, -31.961754, 0.0011207032, 0.000035748777, -680690.25, -40649.336, 0.0, 10.009078, 9.925365 
6.0957146e+3, 2.4460861e+2, -592436.56, -666550.9, -12.81014, 0.0011201828, 0.00019511422, -592436.56, -49599.977, 0.0, 10.009059, 9.911914 
6.095713e+3, 2.5452065e+2, -493760.44, -567938.4, -28.430428, 0.0011205124, 0.000010964858, -493760.44, -48061.805, 0.0, 10.00904, 9.911813 
6.095712e+3, 2.6442558e+2, -405604.44, -490682.44, -7.415739, 0.0011200715, 0.0002544971, -405604.44, -56974.188, 0.0, 10.009022, 9.897716 
6.0957104e+3, 2.7432382e+2, -306394.72, -391132.75, -21.974428, 0.0011186776, -0.00009468425, -306394.72, -54767.477, 0.0, 10.009004, 9.898133 
6.095709e+3, 2.8421396e+2, -219852.42, -317641.97, -2.1066203, 0.0011178615, 0.00033453884, -219852.42, -65148.305, 0.0, 10.008986, 9.881355 
6.0957086e+3, 2.9409638e+2, -120212.266, -217366.92, -16.100933, 0.0011178107, -0.00014866395, -120212.266, -62355.86, 0.0, 10.008968, 9.882148 
6.095707e+3, 3.0400652e+2, -30883.154, -85027.72, 2.6559465, 0.0011173915, 0.00027261363, -30883.154, -30883.154, 0.0, 10.00895, 9.937677 
6.095706e+3, 3.1394604e+2, -29866.555, -82869.96, -10.678945, 0.001116423, 0.000032915254, -29866.553, -29866.553, 0.0, 10.008931, 9.939143 
6.1057425e+3, 1.251499e+2, -1708069.3, -1722606.5, 9.574386, 0.0011382023, 0.00020702693, -1708069.3, 5462.9443, 0.0, 10.0095005, 9.990231 
6.105741e+3, 1.3513999e+2, -1610779.3, -1625891.3, -5.622515, 0.0011347906, 0.000026778504, -1610779.3, 4850.139, 0.0, 10.009478, 9.989447 
6.1057395e+3, 1.4512353e+2, -1522766.9, -1546696.4, 3.3442218, 0.0011338021, 0.00028710093, -1522766.9, -4976.123, 0.0, 10.009454, 9.977752 
6.105737e+3, 1.5510124e+2, -1425127.6, -1449442.8, -12.373722, 0.0011350835, 0.00009696966, -1425127.6, -5118.606, 0.0, 10.00943, 9.9772215 
6.105736e+3, 1.6507238e+2, -1337101.0, -1370547.9, -0.4237039, 0.0011347603, 0.0001779694, -1337101.0, -14809.304, 0.0, 10.009408, 9.965195 
6.105734e+3, 1.7503764e+2, -1239228.1, -1272975.5, -16.527266, 0.0011328951, 0.00007322081, -1239228.1, -14595.782, 0.0, 10.009387, 9.964781 
6.1057323e+3, 1.8499617e+2, -1151327.6, -1194664.3, -6.1269064, 0.0011319749, 0.0002165593, -1151327.6, -24289.045, 0.0, 10.009366, 9.952208 
6.105731e+3, 1.949484e+2, -1053261.4, -1096845.6, -20.838495, 0.0011319845, 0.0000824478, -1053261.4, -23754.764, 0.0, 10.009345, 9.951864 
6.1057293e+3, 2.0489395e+2, -965209.6, -1018599.7, -8.354137, 0.0011316409, 0.00020237183, -965209.6, -33169.367, 0.0, 10.009325, 9.939047 
6.105728e+3, 2.1483304e+2, -867002.6, -920640.7, -24.608734, 0.0011309292, 0.000006530931, -867002.6, -32365.387, 0.0, 10.009306, 9.9387045 
6.1057264e+3, 2.2476542e+2, -778789.25, -842454.1, -6.479338, 0.0011301432, 0.00025140872, -778789.25, -41489.367, 0.0, 10.009286, 9.925653 
6.105725e+3, 2.3469113e+2, -680434.8, -744340.7, -22.629036, 0.0011292712, 0.000036746227, -680434.8, -40406.957, 0.0, 10.009267, 9.925322 
6.1057234e+3, 2.4460989e+2, -592182.75, -666472.94, -3.4895513, 0.0011287788, 0.00019599765, -592182.75, -49358.83, 0.0, 10.009248, 9.91187 
6.105722e+3, 2.5452188e+2, -493507.44, -567861.56, -18.843475, 0.0011287173, 0.000011094667, -493507.44, -47821.02, 0.0, 10.00923, 9.911769 
6.105721e+3, 2.644268e+2, -405353.38, -490608.4, 1.9859486, 0.0011281791, 0.00025466888, -405353.38, -56734.902, 0.0, 10.009211, 9.897671 
6.10572e+3, 2.7432498e+2, -306146.3, -391060.84, -13.813624, 0.0011270484, -0.00009349367, -306146.3, -54530.406, 0.0, 10.009192, 9.898088 
6.1057186e+3, 2.8421506e+2, -219603.97, -317567.5, 5.726501, 0.0011263775, 0.0003357421, -219603.97, -64910.773, 0.0, 10.009173, 9.881313 
6.1057174e+3, 2.9409745e+2, -119966.14, -217294.11, -7.2968826, 0.0011263142, -0.00014878422, -119966.14, -62120.24, 0.0, 10.009154, 9.882106 
6.105716e+3, 3.0400756e+2, -30644.424, -84966.195, 11.077221, 0.0011258025, 0.0002723529, -30644.422, -30644.422, 0.0, 10.009136, 9.93763 
6.105715e+3, 3.1394702e+2, -29628.188, -82809.34, -4.219552, 0.001124627, 0.00003423324, -29628.188, -29628.188, 0.0, 10.009118, 9.939094 
6.1157525e+3, 1.2515172e+2, -1708100.9, -1722671.1, 0.98059, 0.0011449613, 0.00020752706, -1708100.9, 5413.5923, 0.0, 10.009503, 9.99019 
6.1157507e+3, 1.3514176e+2, -1610810.8, -1625955.8, -14.237261, 0.0011445549, 0.000028059874, -1610810.8, 4801.276, 0.0, 10.0094795, 9.989406 
6.115748e+3, 1.4512525e+2, -1522798.9, -1546762.3, -5.3647943, 0.0011436944, 0.00028830097, -1522798.9, -5025.1563, 0.0, 10.009457, 9.97771 
6.115747e+3, 1.5510294e+2, -1425159.0, -1449508.1, -21.06052, 0.0011423754, 0.00009726887, -1425159.0, -5166.543, 0.0, 10.009433, 9.97718 
6.1157453e+3, 1.6507404e+2, -1337132.5, -1370613.9, -8.16466, 0.0011416908, 0.00017812618, -1337132.5, -14856.915, 0.0, 10.009411, 9.965152 
6.1157435e+3, 1.7503925e+2, -1239259.3, -1273041.1, -24.255045, 0.001141625, 0.00007396694, -1239259.3, -14642.704, 0.0, 10.00939, 9.964738 
6.115742e+3, 1.8499774e+2, -1151355.5, -1194723.9, -13.851405, 0.001141234, 0.0002175267, -1151355.5, -24332.229, 0.0, 10.009369, 9.952168 
6.11574e+3, 1.9494994e+2, -1053288.8, -1096904.8, -28.567719, 0.0011405126, 0.000083271596, -1053288.8, -23797.06, 0.0, 10.009348, 9.951825 
6.115739e+3, 2.0489545e+2, -965240.3, -1018665.8, -15.557381, 0.0011396502, 0.00020298867, -965240.3, -33214.594, 0.0, 10.009328, 9.939003 
6.1157376e+3, 2.1483448e+2, -867032.94, -920706.5, -31.804148, 0.0011386389, 0.0000068755166, -867032.94, -32409.834, 0.0, 10.009309, 9.938662 
6.115736e+3, 2.2476682e+2, -778819.9, -842521.0, -13.667543, 0.001138226, 0.00025186, -778819.9, -41533.734, 0.0, 10.009289, 9.925609 
6.1157346e+3, 2.3469248e+2, -680465.0, -744407.2, -29.799742, 0.0011384542, 0.000037713642, -680464.94, -40450.418, 0.0, 10.00927, 9.925278 
6.115733e+3, 2.446112e+2, -592212.0, -666538.06, -10.321569, 0.0011378974, 0.0001969358, -592212.0, -49400.93, 0.0, 10.009251, 9.911826 
6.1157316e+3, 2.5452316e+2, -493536.22, -567926.2, -25.707222, 0.0011364371, 0.000011379012, -493536.22, -47862.23, 0.0, 10.0092325, 9.911726 
6.11573e+3, 2.6442802e+2, -405383.94, -490677.16, -4.888343, 0.0011356504, 0.00025492144, -405383.94, -56777.465, 0.0, 10.009213, 9.897625 
6.115729e+3, 2.7432618e+2, -306176.56, -391129.38, -20.620806, 0.0011356822, -0.00009251038, -306176.56, -54572.184, 0.0, 10.009195, 9.898043 
6.1157274e+3, 2.842162e+2, -219630.05, -317628.0, -1.155101, 0.0011354907, 0.0003367275, -219630.05, -64947.96, 0.0, 10.009176, 9.881272 
6.115727e+3, 2.9409856e+2, -119991.46, -217353.56, -14.288425, 0.0011349985, -0.00014876336, -119991.46, -62156.254, 0.0, 10.009158, 9.882065 
6.1157256e+3, 3.040086e+2, -30675.723, -85038.33, 4.210297, 0.0011340602, 0.00027234468, -30675.723, -30675.723, 0.0, 10.009139, 9.937579 
6.1157244e+3, 3.1394804e+2, -29660.195, -82882.914, -10.965737, 0.001132468, 0.00003555323, -29660.193, -29660.193, 0.0, 10.009121, 9.939043 
6.125762e+3, 1.2515357e+2, -1707817.0, -1722567.3, 10.98472, 0.0011528565, 0.00020787568, -1707817.0, 5679.379, 0.0, 10.0097, 9.990148 
6.12576e+3, 1.3514356e+2, -1610533.3, -1625856.0, -4.6527333, 0.0011531257, 0.000028800736, -1610533.3, 5061.1167, 0.0, 10.009674, 9.989365 
6.125758e+3, 1.4512701e+2, -1522524.0, -1546664.9, 4.9491863, 0.0011523424, 0.00028915063, -1522524.0, -4767.428, 0.0, 10.009649, 9.977668 
6.1257565e+3, 1.5510467e+2, -1424883.1, -1449410.9, -10.7977495, 0.0011505325, 0.00009795685, -1424883.1, -4907.532, 0.0, 10.009628, 9.977137 
6.125755e+3, 1.6507572e+2, -1336858.3, -1370518.9, 2.2971122, 0.0011497866, 0.00017873895, -1336858.3, -14599.147, 0.0, 10.009605, 9.965109 
6.125753e+3, 1.7504087e+2, -1238989.0, -1272948.9, -13.8759, 0.0011500743, 0.00007458836, -1238989.0, -14388.487, 0.0, 10.009583, 9.964695 
6.125752e+3, 1.8499933e+2, -1151084.3, -1194627.6, -3.0855262, 0.0011497249, 0.00021813446, -1151084.3, -24076.545, 0.0, 10.009562, 9.952129 
6.1257493e+3, 1.9495149e+2, -1053018.0, -1096809.6, -18.055555, 0.0011487359, 0.00008384352, -1053018.0, -23541.477, 0.0, 10.0095415, 9.951786 
6.125748e+3, 2.0489696e+2, -964974.06, -1018578.75, -5.0023417, 0.0011478675, 0.0002036476, -964974.06, -32963.203, 0.0, 10.0095215, 9.938959 
6.1257464e+3, 2.1483596e+2, -866769.2, -920621.44, -21.453472, 0.00114712, 0.00000774784, -866769.2, -32160.494, 0.0, 10.009501, 9.938618 
6.125745e+3, 2.2476825e+2, -778558.06, -842438.2, -3.232413, 0.0011467377, 0.00025259555, -778558.06, -41285.84, 0.0, 10.009481, 9.925565 
6.1257434e+3, 2.3469388e+2, -680204.4, -744325.75, -19.40797, 0.0011467444, 0.000037934427, -680204.4, -40203.36, 0.0, 10.009462, 9.925233 
6.125742e+3, 2.4461254e+2, -591952.8, -666458.44, -0.025478868, 0.0011461489, 0.00019727275, -591952.8, -49154.832, 0.0, 10.009443, 9.911781 
6.125741e+3, 2.5452444e+2, -493278.84, -567848.25, -16.247057, 0.0011448588, 0.000012554025, -493278.84, -47617.484, 0.0, 10.009424, 9.911681 
6.125739e+3, 2.6442927e+2, -405128.53, -490601.56, 4.321724, 0.0011441454, 0.00025599723, -405128.53, -56534.246, 0.0, 10.009406, 9.897579 
6.125738e+3, 2.7432737e+2, -305923.4, -391055.7, -10.85166, 0.0011441319, -0.00009268156, -305923.4, -54330.777, 0.0, 10.009387, 9.897997 
6.125737e+3, 2.8421736e+2, -219376.73, -317552.56, 8.349837, 0.0011438805, 0.00033655154, -219376.73, -64705.965, 0.0, 10.009368, 9.881228 
6.1257356e+3, 2.9409963e+2, -119739.53, -217279.38, -6.3892927, 0.001143309, -0.00014730009, -119739.53, -61915.227, 0.0, 10.009349, 9.882022 
6.125735e+3, 3.0400968e+2, -30430.922, -84974.66, 11.340093, 0.0011424163, 0.0002739451, -30430.92, -30430.92, 0.0, 10.00933, 9.9375305 
6.125734e+3, 3.1394905e+2, -29417.395, -82820.875, -2.8424785, 0.0011410498, 0.000035121568, -29417.395, -29417.395, 0.0, 10.009311, 9.938993 
6.135771e+3, 1.2515543e+2, -1707850.0, -1722634.1, 1.1400914, 0.0011616257, 0.00020811985, -1707850.0, 5628.1055, 0.0, 10.009703, 9.990106 
6.1357695e+3, 1.3514538e+2, -1610565.4, -1625922.1, -14.440804, 0.0011608164, 0.000029141325, -1610565.4, 5011.1123, 0.0, 10.009677, 9.989322 
6.135768e+3, 1.451288e+2, -1522555.6, -1546730.8, -3.1370285, 0.0011600726, 0.00028974094, -1522555.6, -4816.6294, 0.0, 10.009652, 9.977626 
6.135766e+3, 1.551064e+2, -1424914.8, -1449476.5, -18.893682, 0.0011593606, 0.0000989404, -1424914.8, -4956.237, 0.0, 10.00963, 9.977095 
6.135764e+3, 1.6507742e+2, -1336890.1, -1370585.3, -6.0903263, 0.0011587784, 0.00017969831, -1336890.1, -14647.663, 0.0, 10.009608, 9.965066 
6.135763e+3, 1.7504254e+2, -1239020.3, -1273014.8, -22.249779, 0.0011583293, 0.00007512153, -1239020.3, -14435.886, 0.0, 10.009586, 9.964653 
6.1357605e+3, 1.8500094e+2, -1151112.4, -1194688.1, -10.549533, 0.0011576556, 0.00021847809, -1151112.4, -24120.5, 0.0, 10.009564, 9.95209 
6.1357594e+3, 1.9495307e+2, -1053045.8, -1096869.8, -25.50698, 0.0011567512, 0.000084232044, -1053045.8, -23584.754, 0.0, 10.009544, 9.951746 
6.1357576e+3, 2.0489849e+2, -965005.2, -1018645.7, -12.442945, 0.0011562628, 0.00020434277, -965005.2, -33009.344, 0.0, 10.009524, 9.938915 
6.135756e+3, 2.1483745e+2, -866799.9, -920688.0, -28.898642, 0.0011561986, 0.000009018926, -866799.9, -32205.75, 0.0, 10.009504, 9.938574 
6.1357546e+3, 2.247697e+2, -778588.6, -842505.2, -10.379928, 0.0011555881, 0.0002535486, -778588.6, -41330.59, 0.0, 10.009484, 9.925521 
6.135753e+3, 2.3469527e+2, -680234.5, -744392.25, -26.552177, 0.0011543826, 0.000037604088, -680234.44, -40247.168, 0.0, 10.009465, 9.925189 
6.1357516e+3, 2.446139e+2, -591983.6, -666526.94, -6.942375, 0.0011537692, 0.00019716633, -591983.6, -49198.953, 0.0, 10.009446, 9.911736 
6.13575e+3, 2.5452575e+2, -493309.3, -567916.44, -23.136435, 0.0011538285, 0.000014396361, -493309.3, -47660.82, 0.0, 10.009427, 9.911635 
6.135749e+3, 2.6443052e+2, -405157.94, -490668.03, -2.7090025, 0.0011534293, 0.0002576905, -405157.94, -56576.06, 0.0, 10.009409, 9.897534 
6.1357474e+3, 2.743286e+2, -305952.2, -391121.6, -17.935226, 0.0011524607, -0.00009370699, -305952.2, -54371.53, 0.0, 10.00939, 9.897952 
6.135747e+3, 2.8421855e+2, -219405.52, -317619.0, 1.3936653, 0.001151744, 0.00033551696, -219405.52, -64746.258, 0.0, 10.009371, 9.881184 
6.135745e+3, 2.9410076e+2, -119767.93, -217345.44, -13.278674, 0.0011513587, -0.00014475654, -119767.93, -61954.727, 0.0, 10.009352, 9.881976 
6.135744e+3, 3.0401078e+2, -30460.545, -85043.43, 4.2079916, 0.0011508676, 0.00027674797, -30460.543, -30460.543, 0.0, 10.009333, 9.937483 
6.135743e+3, 3.1395006e+2, -29447.168, -82890.0, -10.078899, 0.0011502076, 0.00003338613, -29447.166, -29447.166, 0.0, 10.009314, 9.938946 
6.145781e+3, 1.2515733e+2, -1707567.8, -1722531.3, 11.215699, 0.0011705405, 0.00020905172, -1707567.8, 5891.7344, 0.0, 10.009899, 9.990064 
6.1457795e+3, 1.3514724e+2, -1610280.6, -1625818.6, -4.1449256, 0.0011685928, 0.00002965005, -1610280.6, 5277.629, 0.0, 10.009875, 9.98928 
6.145778e+3, 1.4513062e+2, -1522273.1, -1546629.9, 7.601334, 0.0011677995, 0.0002901811, -1522273.1, -4551.899, 0.0, 10.0098505, 9.977583 
6.145776e+3, 1.5510817e+2, -1424638.5, -1449379.8, -8.433924, 0.0011680657, 0.000099645236, -1424638.5, -4697.268, 0.0, 10.009826, 9.977052 
6.145774e+3, 1.6507915e+2, -1336616.1, -1370490.6, 4.9786577, 0.001167618, 0.00018046427, -1336616.1, -14390.512, 0.0, 10.009803, 9.965023 
6.1457723e+3, 1.7504422e+2, -1238745.0, -1272920.1, -11.287434, 0.0011664914, 0.00007575291, -1238745.0, -14177.156, 0.0, 10.009783, 9.96461 
6.1457705e+3, 1.850026e+2, -1150834.9, -1194589.1, 0.6618501, 0.0011656889, 0.0002190702, -1150834.9, -23859.154, 0.0, 10.009762, 9.95205 
6.145769e+3, 1.9495468e+2, -1052771.4, -1096773.1, -14.333361, 0.0011651979, 0.00008487933, -1052771.4, -23326.094, 0.0, 10.00974, 9.951707 
6.145767e+3, 2.0490006e+2, -964736.4, -1018558.06, -1.1118022, 0.0011648409, 0.00020496266, -964736.4, -32755.81, 0.0, 10.00972, 9.938871 
6.145766e+3, 2.1483895e+2, -866532.2, -920601.7, -17.876556, 0.0011646181, 0.0000095266, -866532.2, -31952.953, 0.0, 10.0097, 9.938529 
6.145764e+3, 2.2477116e+2, -778321.8, -842420.4, 0.71250534, 0.0011639287, 0.00025414492, -778321.8, -41078.23, 0.0, 10.009681, 9.925476 
6.145763e+3, 2.346967e+2, -679968.6, -744308.7, -15.763296, 0.0011627293, 0.00003850549, -679968.6, -39995.31, 0.0, 10.009662, 9.925144 
6.145761e+3, 2.4461529e+2, -591719.8, -666446.2, 3.6783707, 0.0011621731, 0.00019792518, -591719.8, -48948.65, 0.0, 10.009643, 9.91169 
6.14576e+3, 2.545271e+2, -493048.1, -567837.75, -12.56363, 0.0011623477, 0.0000145011345, -493048.1, -47412.688, 0.0, 10.009623, 9.91159 
6.145758e+3, 2.644318e+2, -404898.06, -490590.97, 7.6748476, 0.0011619409, 0.00025788564, -404898.06, -56328.83, 0.0, 10.009604, 9.897489 
6.1457574e+3, 2.7432984e+2, -305692.84, -391045.56, -8.421143, 0.0011608131, -0.000092510425, -305692.84, -54124.37, 0.0, 10.009585, 9.897906 
6.1457556e+3, 2.842197e+2, -219145.98, -317541.75, 10.431607, 0.0011600864, 0.0003367106, -219145.98, -64498.477, 0.0, 10.009567, 9.881139 
6.1457545e+3, 2.9410192e+2, -119511.2, -217270.22, -3.84032, 0.0011598885, -0.00014489575, -119511.2, -61709.3, 0.0, 10.009547, 9.881932 
6.145753e+3, 3.0401188e+2, -30211.29, -84978.58, 12.991045, 0.0011594447, 0.00027646695, -30211.285, -30211.285, 0.0, 10.009527, 9.937432 
6.1457527e+3, 3.1395113e+2, -29199.213, -82826.4, -2.6626625, 0.0011586299, 0.000034689427, -29199.213, -29199.213, 0.0, 10.009507, 9.938895 
6.155791e+3, 1.2515925e+2, -1707599.8, -1722596.8, 2.37755, 0.0011795715, 0.00021049434, -1707599.8, 5840.867, 0.0, 10.009901, 9.990022 
6.1557895e+3, 1.3514912e+2, -1610312.6, -1625884.0, -12.982009, 0.0011764618, 0.000030289893, -1610312.6, 5227.2427, 0.0, 10.009877, 9.989239 
6.155788e+3, 1.4513245e+2, -1522306.0, -1546697.3, -1.6915687, 0.0011755537, 0.0002905174, -1522306.0, -4602.684, 0.0, 10.009853, 9.97754 
6.155786e+3, 1.5510996e+2, -1424670.5, -1449446.4, -17.689291, 0.0011766918, 0.000100147365, -1424670.5, -4746.8286, 0.0, 10.009829, 9.977009 
6.1557835e+3, 1.650809e+2, -1336647.8, -1370557.3, -2.7165504, 0.0011763545, 0.00018108987, -1336647.8, -14439.348, 0.0, 10.009806, 9.96498 
6.1557823e+3, 1.7504592e+2, -1238776.5, -1272986.4, -18.979277, 0.0011746073, 0.00007646178, -1238776.4, -14225.343, 0.0, 10.009785, 9.964566 
6.1557806e+3, 1.8500426e+2, -1150863.3, -1194649.9, -7.2076073, 0.0011738241, 0.00021985242, -1150863.3, -23903.848, 0.0, 10.009764, 9.95201 
6.155779e+3, 1.949563e+2, -1052799.3, -1096833.4, -22.203161, 0.0011739844, 0.00008572503, -1052799.3, -23369.861, 0.0, 10.009743, 9.951667 
6.155777e+3, 2.0490164e+2, -964767.94, -1018626.2, -8.482222, 0.001173571, 0.00020553228, -964767.94, -32802.91, 0.0, 10.009723, 9.938827 
6.155775e+3, 2.148405e+2, -866563.3, -920669.44, -25.225695, 0.0011725649, 0.0000094709685, -866563.3, -31999.148, 0.0, 10.009703, 9.938485 
6.155774e+3, 2.2477266e+2, -778352.94, -842488.5, -6.2759247, 0.0011719099, 0.00025448037, -778352.94, -41123.973, 0.0, 10.009684, 9.92543 
6.155772e+3, 2.3469815e+2, -679999.4, -744376.5, -22.76045, 0.0011716267, 0.000040328658, -679999.4, -40040.25, 0.0, 10.009665, 9.925099 
6.155771e+3, 2.4461669e+2, -591750.7, -666514.75, -3.5326633, 0.0011711821, 0.0001993332, -591750.7, -48993.28, 0.0, 10.009645, 9.911644 
6.15577e+3, 2.5452846e+2, -493078.34, -567905.8, -19.771421, 0.0011705479, 0.000013317876, -493078.34, -47456.242, 0.0, 10.009626, 9.911544 
6.155768e+3, 2.6443312e+2, -404928.88, -490660.78, 0.8807155, 0.0011698931, 0.0002569714, -404928.88, -56372.48, 0.0, 10.009607, 9.897441 
6.155767e+3, 2.7433112e+2, -305723.34, -391115.06, -15.201919, 0.0011692051, -0.00008965381, -305723.34, -54167.285, 0.0, 10.009589, 9.897859 
6.1557657e+3, 2.8422093e+2, -219174.02, -317606.66, 3.1774058, 0.0011688095, 0.0003395678, -219174.02, -64538.473, 0.0, 10.00957, 9.881095 
6.155764e+3, 2.941031e+2, -119538.52, -217334.3, -11.13524, 0.0011687964, -0.00014702992, -119538.52, -61748.12, 0.0, 10.00955, 9.881887 
6.155763e+3, 3.04013e+2, -30242.936, -85051.99, 5.572855, 0.0011681338, 0.00027389365, -30242.936, -30242.936, 0.0, 10.009531, 9.937382 
6.1557615e+3, 3.139522e+2, -29231.277, -82900.84, -10.1070385, 0.0011665208, 0.00003826528, -29231.275, -29231.275, 0.0, 10.00951, 9.938843 
6.165801e+3, 1.251612e+2, -1707310.5, -1722490.0, 12.684902, 0.0011872629, 0.00021104113, -1707310.5, 6111.0415, 0.0, 10.010102, 9.98998 
6.1657995e+3, 1.3515103e+2, -1610029.8, -1625781.4, -2.7313044, 0.0011854587, 0.000031055464, -1610029.8, 5491.3945, 0.0, 10.010075, 9.989197 
6.165797e+3, 1.4513431e+2, -1522025.6, -1546597.8, 9.361229, 0.0011845969, 0.00029128863, -1522025.6, -4340.585, 0.0, 10.010051, 9.977497 
6.1657953e+3, 1.5511179e+2, -1424387.9, -1449346.5, -6.562178, 0.0011845924, 0.00010072116, -1424387.9, -4482.094, 0.0, 10.010028, 9.976966 
6.165794e+3, 1.6508268e+2, -1336366.4, -1370459.1, 8.981213, 0.0011841225, 0.00018159243, -1336366.4, -14175.313, 0.0, 10.010006, 9.964937 
6.165792e+3, 1.7504767e+2, -1238499.3, -1272891.3, -7.4687696, 0.0011832135, 0.00007701479, -1238499.3, -13965.207, 0.0, 10.009983, 9.964523 
6.16579e+3, 1.8500595e+2, -1150585.0, -1194550.9, 4.6173496, 0.0011826403, 0.00022047653, -1150585.0, -23642.186, 0.0, 10.009962, 9.951971 
6.165789e+3, 1.9495796e+2, -1052521.0, -1096735.0, -10.570448, 0.0011823903, 0.00008644054, -1052521.0, -23107.832, 0.0, 10.009941, 9.951627 
6.1657864e+3, 2.0490324e+2, -964493.75, -1018536.2, 3.4067674, 0.001181802, 0.00020622677, -964493.75, -32544.479, 0.0, 10.009922, 9.938782 
6.165785e+3, 2.1484207e+2, -866290.2, -920580.8, -13.381237, 0.0011808623, 0.0000100289335, -866290.2, -31741.379, 0.0, 10.009902, 9.93844 
6.1657834e+3, 2.2477418e+2, -778081.9, -842402.75, 5.5226207, 0.0011803404, 0.00025498282, -778081.9, -40867.836, 0.0, 10.009883, 9.9253845 
6.165782e+3, 2.3469964e+2, -679730.75, -744292.75, -11.423771, 0.0011802631, 0.000040863182, -679730.75, -39786.11, 0.0, 10.009863, 9.925054 
6.165781e+3, 2.4461812e+2, -591482.9, -666432.25, 7.738834, 0.0011797806, 0.00019994388, -591482.9, -48739.46, 0.0, 10.009844, 9.911598 
6.165779e+3, 2.5452983e+2, -492810.1, -567823.94, -8.671815, 0.0011788297, 0.000014054154, -492810.1, -47201.56, 0.0, 10.009827, 9.911497 
6.165778e+3, 2.6443446e+2, -404662.53, -490582.28, 11.625138, 0.001178156, 0.00025761622, -404662.53, -56119.25, 0.0, 10.009808, 9.897394 
6.165776e+3, 2.743324e+2, -305460.25, -391039.06, -4.89167, 0.0011778135, -0.0000893641, -305460.25, -53916.82, 0.0, 10.0097885, 9.897811 
6.165775e+3, 2.842222e+2, -218910.25, -317527.44, 13.020529, 0.0011775177, 0.00033990573, -218910.25, -64286.88, 0.0, 10.0097685, 9.88105 
6.165774e+3, 2.941043e+2, -119275.51, -217255.95, -1.6687015, 0.0011772792, -0.00014611389, -119275.51, -61496.848, 0.0, 10.009749, 9.881844 
6.1657727e+3, 3.0401415e+2, -29987.484, -84986.58, 14.228773, 0.0011765097, 0.00027480943, -29987.48, -29987.48, 0.0, 10.00973, 9.937329 
6.1657715e+3, 3.139533e+2, -28976.377, -82836.586, -2.0132368, 0.0011749626, 0.000038352733, -28976.377, -28976.377, 0.0, 10.00971, 9.93879 
6.175811e+3, 1.2516318e+2, -1707343.0, -1722555.9, 2.6595526, 0.001194, 0.00021093308, -1707343.0, 6059.262, 0.0, 10.010104, 9.989938 
6.1758095e+3, 1.3515297e+2, -1610061.6, -1625846.9, -12.744874, 0.0011952961, 0.000031918124, -1610061.6, 5440.6743, 0.0, 10.010077, 9.989155 
6.175808e+3, 1.451362e+2, -1522057.9, -1546664.5, 1.0161792, 0.0011945971, 0.00029238465, -1522057.9, -4391.379, 0.0, 10.010053, 9.977454 
6.175806e+3, 1.5511364e+2, -1424419.9, -1449413.0, -14.901539, 0.0011919843, 0.00010135273, -1424419.9, -4532.2173, 0.0, 10.010031, 9.976924 
6.1758035e+3, 1.6508447e+2, -1336398.8, -1370526.6, 0.53976357, 0.0011912065, 0.00018200996, -1336398.8, -14225.361, 0.0, 10.010008, 9.964893 
6.175802e+3, 1.7504942e+2, -1238531.0, -1272958.3, -15.892997, 0.0011921981, 0.00007745912, -1238531.0, -14014.17, 0.0, 10.009986, 9.964479 
6.1758006e+3, 1.8500768e+2, -1150613.5, -1194612.3, -2.8602679, 0.0011919718, 0.00022098943, -1150613.5, -23687.535, 0.0, 10.009965, 9.951931 
6.175798e+3, 1.9495964e+2, -1052549.1, -1096796.1, -18.03774, 0.0011905344, 0.000087063134, -1052549.1, -23152.412, 0.0, 10.009944, 9.951587 
6.175797e+3, 2.049049e+2, -964525.4, -1018604.44, -3.8518186, 0.0011896873, 0.00020701755, -964525.4, -32592.148, 0.0, 10.009925, 9.938737 
6.175795e+3, 2.1484366e+2, -866321.44, -920648.7, -20.652477, 0.0011894417, 0.0000110482, -866321.44, -31788.19, 0.0, 10.009905, 9.9383955 
6.1757934e+3, 2.2477573e+2, -778113.9, -842472.8, -1.736635, 0.0011891241, 0.0002556158, -778113.9, -40914.99, 0.0, 10.009886, 9.925339 
6.175792e+3, 2.3470113e+2, -679762.2, -744362.25, -18.650051, 0.0011887226, 0.000040447077, -679762.2, -39832.2, 0.0, 10.009866, 9.925007 
6.1757904e+3, 2.4461956e+2, -591513.8, -666501.44, 1.0425297, 0.0011880924, 0.00019996802, -591513.8, -48784.64, 0.0, 10.009848, 9.911552 
6.175789e+3, 2.5453126e+2, -492840.72, -567892.7, -15.394609, 0.001187196, 0.000016219954, -492840.72, -47245.953, 0.0, 10.0098295, 9.911451 
6.1757874e+3, 2.6443583e+2, -404694.22, -490653.72, 4.392992, 0.0011866741, 0.00025942293, -404694.22, -56164.242, 0.0, 10.00981, 9.897346 
6.175786e+3, 2.7433372e+2, -305491.34, -391110.1, -12.099395, 0.001186601, -0.00009097457, -305491.34, -53960.742, 0.0, 10.009791, 9.897763 
6.1757845e+3, 2.8422344e+2, -218938.64, -317593.6, 5.9321017, 0.0011862316, 0.0003383797, -218938.64, -64327.637, 0.0, 10.009772, 9.881005 
6.175784e+3, 2.9410553e+2, -119303.3, -217321.31, -8.823712, 0.0011854662, -0.00014292648, -119303.3, -61536.6, 0.0, 10.009753, 9.881799 
6.175782e+3, 3.040153e+2, -30020.012, -85061.95, 6.8043056, 0.0011846754, 0.00027832077, -30020.01, -30020.01, 0.0, 10.009733, 9.937277 
6.1757815e+3, 3.1395444e+2, -29009.486, -82913.12, -9.385164, 0.001183837, 0.00003585068, -29009.484, -29009.484, 0.0, 10.009713, 9.938737 
6.185822e+3, 1.2516518e+2, -1707054.6, -1722450.1, 13.635555, 0.0012027984, 0.0002112449, -1707054.6, 6328.044, 0.0, 10.010304, 9.989896 
6.18582e+3, 1.3515492e+2, -1609772.9, -1625741.5, -2.032327, 0.0012031252, 0.000032610948, -1609772.9, 5710.216, 0.0, 10.010279, 9.989113 
6.185818e+3, 1.4513813e+2, -1521771.1, -1546561.8, 12.617645, 0.0012024479, 0.00029314987, -1521771.1, -4123.445, 0.0, 10.010254, 9.977411 
6.185816e+3, 1.5511551e+2, -1424137.3, -1449313.0, -3.3921974, 0.001200788, 0.00010189744, -1424137.3, -4267.886, 0.0, 10.01023, 9.976881 
6.185814e+3, 1.650863e+2, -1336117.8, -1370429.1, 12.58904, 0.0012001179, 0.0001825348, -1336117.8, -13962.363, 0.0, 10.010208, 9.964849 
6.185812e+3, 1.7505121e+2, -1238249.4, -1272861.1, -3.9052634, 0.0012004081, 0.00007815694, -1238249.4, -13750.001, 0.0, 10.010187, 9.964437 
6.18581e+3, 1.8500942e+2, -1150329.1, -1194510.3, 9.665529, 0.0012000191, 0.00022165412, -1150329.1, -23420.264, 0.0, 10.010166, 9.95189 
6.185809e+3, 1.9496134e+2, -1052266.6, -1096695.9, -5.574965, 0.0011989493, 0.00008749138, -1052266.6, -22886.596, 0.0, 10.010146, 9.951547 
6.1858064e+3, 2.0490655e+2, -964248.25, -1018513.75, 8.689649, 0.0011983011, 0.00020748377, -964248.25, -32331.303, 0.0, 10.010126, 9.938691 
6.185805e+3, 2.1484527e+2, -866045.7, -920559.5, -8.531558, 0.0011980815, 0.000011833691, -866045.7, -31528.32, 0.0, 10.010106, 9.93835 
6.1858034e+3, 2.247773e+2, -777838.75, -842385.3, 10.541542, 0.0011976376, 0.00025637154, -777838.75, -40655.227, 0.0, 10.010088, 9.925292 
6.1858016e+3, 2.3470265e+2, -679486.56, -744275.4, -6.273336, 0.0011969454, 0.000040797207, -679486.56, -39571.543, 0.0, 10.01007, 9.924961 
6.1858004e+3, 2.4462105e+2, -591239.8, -666417.5, 13.174979, 0.001196369, 0.00020030448, -591239.8, -48525.156, 0.0, 10.010051, 9.911505 
6.1857986e+3, 2.5453267e+2, -492569.63, -567811.06, -4.0943913, 0.001195919, 0.00001699029, -492569.63, -46988.883, 0.0, 10.010032, 9.911404 
6.1857975e+3, 2.644372e+2, -404424.13, -490573.44, 15.367706, 0.001195473, 0.00026022774, -404424.13, -55907.727, 0.0, 10.010014, 9.897298 
6.1857957e+3, 2.7433506e+2, -305221.0, -391030.44, -0.8631863, 0.0011950233, -0.00009062376, -305221.0, -53703.484, 0.0, 10.009995, 9.897716 
6.185795e+3, 2.8422472e+2, -218667.84, -317513.3, 16.618315, 0.0011945256, 0.0003386641, -218667.83, -64069.457, 0.0, 10.009976, 9.880959 
6.185793e+3, 2.9410675e+2, -119034.74, -217242.88, 0.64013904, 0.0011939604, -0.00014219643, -119034.74, -61280.215, 0.0, 10.009957, 9.881752 
6.185792e+3, 3.040165e+2, -29758.775, -84993.61, 15.235359, 0.0011933255, 0.00027908687, -29758.771, -29758.771, 0.0, 10.009937, 9.937225 
6.185791e+3, 3.1395558e+2, -28750.129, -82846.28, -0.4757682, 0.0011925773, 0.00003606449, -28750.129, -28750.129, 0.0, 10.009916, 9.938685 
6.195832e+3, 1.251672e+2, -1707087.6, -1722517.4, 4.0086756, 0.0012131125, 0.00021187235, -1707087.6, 6275.073, 0.0, 10.010307, 9.989854 
6.19583e+3, 1.351569e+2, -1609805.5, -1625808.4, -11.607537, 0.0012095128, 0.000033182954, -1609805.4, 5658.1597, 0.0, 10.010282, 9.98907 
6.1958283e+3, 1.4514007e+2, -1521803.8, -1546629.0, 3.6344993, 0.0012087562, 0.00029367575, -1521803.8, -4175.082, 0.0, 10.010257, 9.977368 
6.195826e+3, 1.551174e+2, -1424169.3, -1449379.8, -12.359877, 0.0012106396, 0.00010238439, -1424169.3, -4318.6064, 0.0, 10.010233, 9.976837 
6.195824e+3, 1.6508816e+2, -1336150.1, -1370496.9, 4.714805, 0.0012103786, 0.00018314448, -1336150.1, -14012.895, 0.0, 10.010211, 9.964807 
6.1958224e+3, 1.7505303e+2, -1238281.3, -1272928.4, -11.7716675, 0.0012080728, 0.000079044534, -1238281.1, -13799.629, 0.0, 10.010189, 9.964393 
6.1958206e+3, 1.8501118e+2, -1150357.9, -1194572.0, 2.0852525, 0.0012071513, 0.00022243455, -1150357.9, -23466.33, 0.0, 10.010169, 9.95185 
6.195819e+3, 1.9496307e+2, -1052294.9, -1096757.1, -13.145913, 0.0012075843, 0.00008778497, -1052294.9, -22931.807, 0.0, 10.010149, 9.951507 
6.195817e+3, 2.0490824e+2, -964280.7, -1018583.75, 1.447029, 0.0012074673, 0.0002077188, -964280.7, -32380.293, 0.0, 10.010129, 9.938645 
6.195815e+3, 2.1484692e+2, -866077.6, -920629.06, -15.7557, 0.0012067831, 0.000012448936, -866077.6, -31576.328, 0.0, 10.01011, 9.938304 
6.1958134e+3, 2.247789e+2, -777870.4, -842454.75, 3.7982554, 0.0012059726, 0.0002572201, -777870.4, -40702.477, 0.0, 10.010091, 9.925246 
6.195812e+3, 2.3470421e+2, -679517.75, -744344.4, -13.041162, 0.0012050195, 0.000041721505, -679517.75, -39617.93, 0.0, 10.010073, 9.924914 
6.1958104e+3, 2.4462256e+2, -591272.5, -666490.0, 6.099924, 0.0012046442, 0.00020088033, -591272.5, -48572.53, 0.0, 10.010055, 9.911456 
6.195809e+3, 2.5453413e+2, -492601.7, -567883.1, -11.119702, 0.0012049219, 0.000016732718, -492601.7, -47035.195, 0.0, 10.0100355, 9.911355 
6.1958075e+3, 2.644386e+2, -404454.97, -490643.66, 8.641589, 0.001204495, 0.00026029506, -404454.97, -55952.34, 0.0, 10.010016, 9.89725 
6.195806e+3, 2.743364e+2, -305251.38, -391100.16, -7.6662455, 0.001203199, -0.00008881525, -305251.38, -53747.176, 0.0, 10.009998, 9.897668 
6.1958045e+3, 2.8422603e+2, -218698.39, -317583.97, 9.286768, 0.0012025357, 0.00034029453, -218698.39, -64112.875, 0.0, 10.00998, 9.880911 
6.195803e+3, 2.9410803e+2, -119064.8, -217313.1, -6.618795, 0.001202704, -0.00014328191, -119064.8, -61322.633, 0.0, 10.00996, 9.881704 
6.195802e+3, 3.0401772e+2, -29790.25, -85067.17, 7.5346465, 0.001202353, 0.0002778254, -29790.248, -29790.248, 0.0, 10.00994, 9.937174 
6.195801e+3, 3.1395674e+2, -28781.664, -82920.21, -8.384663, 0.0012012371, 0.00003829913, -28781.664, -28781.664, 0.0, 10.009919, 9.938634 
6.2058425e+3, 1.2516926e+2, -1706796.3, -1722409.6, 14.715606, 0.0012212542, 0.00021282017, -1706796.3, 6546.3, 0.0, 10.010509, 9.989812 
6.20584e+3, 1.3515893e+2, -1609515.6, -1625702.1, -0.53136426, 0.0012181161, 0.00003357532, -1609515.6, 5928.194, 0.0, 10.010484, 9.989028 
6.2058383e+3, 1.4514203e+2, -1521515.9, -1546525.9, 15.50466, 0.0012173584, 0.00029397695, -1521515.9, -3906.5388, 0.0, 10.010459, 9.977325 
6.2058365e+3, 1.5511934e+2, -1423882.5, -1449278.0, -0.59101087, 0.0012188056, 0.000103029146, -1423882.5, -4050.716, 0.0, 10.010435, 9.976794 
6.205835e+3, 1.6509005e+2, -1335864.6, -1370397.3, 17.460495, 0.0012185386, 0.00018385227, -1335864.6, -13745.903, 0.0, 10.010413, 9.964763 
6.2058324e+3, 1.7505488e+2, -1237997.0, -1272830.0, 0.8344605, 0.0012166379, 0.00007954707, -1237997.0, -13533.435, 0.0, 10.010392, 9.964349 
6.2058306e+3, 1.8501298e+2, -1150071.3, -1194469.0, 14.991061, 0.0012158244, 0.00022294845, -1150071.3, -23197.336, 0.0, 10.010372, 9.95181 
6.2058294e+3, 1.9496483e+2, -1052009.0, -1096655.4, -0.3148468, 0.0012160728, 0.000088523426, -1052009.0, -22663.127, 0.0, 10.010352, 9.951467 
6.205827e+3, 2.0490995e+2, -963999.25, -1018491.44, 14.664148, 0.0012158359, 0.00020837056, -963999.25, -32115.654, 0.0, 10.010333, 9.9386 
6.205826e+3, 2.148486e+2, -865796.25, -920537.56, -2.6125364, 0.0012150971, 0.000012695533, -865796.25, -31311.303, 0.0, 10.010315, 9.938257 
6.205824e+3, 2.2478051e+2, -777590.1, -842365.75, 16.86896, 0.0012144053, 0.0002575625, -777590.1, -40438.156, 0.0, 10.010297, 9.9251995 
6.205822e+3, 2.3470578e+2, -679239.25, -744257.0, -0.6396426, 0.0012137569, 0.000042698193, -679239.25, -39354.86, 0.0, 10.010279, 9.924868 
6.205821e+3, 2.4462408e+2, -590994.7, -666404.56, 18.381397, 0.0012133676, 0.00020178578, -590994.7, -48309.72, 0.0, 10.010261, 9.911408 
6.2058187e+3, 2.5453562e+2, -492323.4, -567798.2, 1.5268899, 0.0012132681, 0.000016762633, -492323.4, -46771.418, 0.0, 10.010243, 9.911307 
6.2058175e+3, 2.6444003e+2, -404178.03, -490562.0, 20.849964, 0.0012127894, 0.00026032949, -404178.03, -55689.438, 0.0, 10.010225, 9.897202 
6.205816e+3, 2.7433777e+2, -304976.5, -391020.44, 3.1253, 0.0012118383, -0.000087701235, -304976.5, -53485.867, 0.0, 10.010207, 9.897618 
6.205815e+3, 2.842274e+2, -218422.39, -317501.0, 19.35703, 0.0012113192, 0.00034144404, -218422.39, -63849.95, 0.0, 10.010188, 9.880864 
6.205813e+3, 2.941093e+2, -118789.78, -217231.2, 4.3693786, 0.0012113662, -0.0001434777, -118789.78, -61060.24, 0.0, 10.010169, 9.881658 
6.205812e+3, 3.0401894e+2, -29523.074, -84998.96, 17.564928, 0.0012108855, 0.00027752478, -29523.07, -29523.07, 0.0, 10.010149, 9.9371195 
6.205811e+3, 3.1395793e+2, -28514.318, -82852.86, -0.6680623, 0.00120963, 0.00003968956, -28514.318, -28514.318, 0.0, 10.010129, 9.938579 
6.215853e+3, 1.2517135e+2, -1706828.4, -1722475.0, 5.1128182, 0.0012278463, 0.00021399895, -1706828.4, 6493.763, 0.0, 10.010511, 9.98977 
6.215851e+3, 1.3516097e+2, -1609547.5, -1625767.4, -10.131004, 0.0012283458, 0.000033844713, -1609547.5, 5876.326, 0.0, 10.010486, 9.988986 
6.215849e+3, 1.4514403e+2, -1521548.9, -1546593.6, 6.604092, 0.0012276414, 0.00029412442, -1521548.9, -3959.132, 0.0, 10.010462, 9.977282 
6.2158465e+3, 1.551213e+2, -1423914.9, -1449345.3, -9.468052, 0.0012257684, 0.000103792874, -1423914.9, -4102.185, 0.0, 10.010438, 9.976751 
6.215845e+3, 1.6509196e+2, -1335897.1, -1370465.5, 9.637166, 0.001225196, 0.0001846344, -1335897.1, -13797.186, 0.0, 10.010416, 9.964718 
6.215843e+3, 1.7505673e+2, -1238029.1, -1272897.9, -6.967487, 0.0012258781, 0.000079775506, -1238029.1, -13583.893, 0.0, 10.010395, 9.964305 
6.215841e+3, 1.8501481e+2, -1150100.1, -1194531.0, 7.62372, 0.001225636, 0.00022327463, -1150100.1, -23244.078, 0.0, 10.010375, 9.951769 
6.2158394e+3, 1.9496661e+2, -1052037.3, -1096716.9, -7.6871367, 0.0012244742, 0.00008958893, -1052037.3, -22708.926, 0.0, 10.010355, 9.951426 
6.2158376e+3, 2.049117e+2, -964031.7, -1018561.6, 7.7732735, 0.0012236453, 0.0002093301, -964031.7, -32165.207, 0.0, 10.010336, 9.938554 
6.215836e+3, 2.1485028e+2, -865828.25, -920607.4, -9.495844, 0.0012231526, 0.000012683937, -865828.25, -31359.947, 0.0, 10.010318, 9.938211 
6.215834e+3, 2.2478217e+2, -777623.1, -842438.0, 10.062029, 0.001222932, 0.00025754477, -777623.1, -40487.3, 0.0, 10.0103, 9.925152 
6.215832e+3, 2.3470739e+2, -679271.7, -744328.8, -7.417123, 0.0012229965, 0.000043710992, -679271.7, -39402.984, 0.0, 10.010282, 9.92482 
6.215831e+3, 2.4462564e+2, -591026.4, -666475.4, 11.855316, 0.0012224362, 0.00020293125, -591026.3, -48356.598, 0.0, 10.010263, 9.911361 
6.215829e+3, 2.545371e+2, -492354.53, -567868.56, -5.0487895, 0.0012211585, 0.000017018183, -492354.53, -46817.316, 0.0, 10.010246, 9.91126 
6.2158275e+3, 2.644415e+2, -404211.56, -490637.75, 13.949648, 0.001220578, 0.0002603546, -404211.56, -55737.227, 0.0, 10.010228, 9.89715 
6.215826e+3, 2.7433917e+2, -305009.6, -391095.97, -3.7053711, 0.0012208383, -0.0000871021, -305009.6, -53532.723, 0.0, 10.01021, 9.897568 
6.215825e+3, 2.8422877e+2, -218451.0, -317568.03, 12.229485, 0.0012206876, 0.00034223477, -218451.0, -63891.863, 0.0, 10.010192, 9.880818 
6.215824e+3, 2.9411063e+2, -118817.55, -217297.1, -2.9181893, 0.0012199889, -0.00014300154, -118817.55, -61100.86, 0.0, 10.010173, 9.881612 
6.215822e+3, 3.0402023e+2, -29558.219, -85080.5, 9.911313, 0.0012190781, 0.00027794988, -29558.217, -29558.217, 0.0, 10.010153, 9.937063 
6.2158215e+3, 3.139591e+2, -28550.271, -82936.12, -8.207339, 0.0012178533, 0.00004044807, -28550.271, -28550.271, 0.0, 10.010133, 9.93852 
6.225863e+3, 1.2517345e+2, -1706534.4, -1722365.6, 16.290443, 0.0012361383, 0.00021428168, -1706534.4, 6767.1357, 0.0, 10.010715, 9.989728 
6.2258613e+3, 1.3516304e+2, -1609257.1, -1625660.6, 0.90110624, 0.0012368584, 0.000034593697, -1609257.1, 6146.4385, 0.0, 10.010688, 9.988945 
6.2258595e+3, 1.4514606e+2, -1521260.5, -1546490.4, 18.993202, 0.0012361755, 0.00029492515, -1521260.5, -3690.5483, 0.0, 10.010664, 9.977239 
6.225857e+3, 1.5512328e+2, -1423625.1, -1449242.0, 2.9185739, 0.0012341343, 0.00010425426, -1423625.1, -3831.9402, 0.0, 10.010642, 9.976707 
6.2258554e+3, 1.650939e+2, -1335608.1, -1370364.0, 22.624804, 0.0012335398, 0.00018502673, -1335608.1, -13527.096, 0.0, 10.010621, 9.964674 
6.2258536e+3, 1.7505862e+2, -1237742.0, -1272798.3, 6.0313687, 0.0012343411, 0.000080357466, -1237742.0, -13315.345, 0.0, 10.0106, 9.964261 
6.225852e+3, 1.8501666e+2, -1149810.6, -1194427.0, 21.364567, 0.001234132, 0.00022386009, -1149810.6, -22972.744, 0.0, 10.01058, 9.951729 
6.2258494e+3, 1.9496843e+2, -1051747.3, -1096613.4, 5.829754, 0.0012329174, 0.00008999501, -1051747.3, -22436.709, 0.0, 10.010562, 9.951385 
6.225848e+3, 2.0491347e+2, -963745.94, -1018467.5, 21.409603, 0.0012321232, 0.00020982111, -963745.94, -31896.744, 0.0, 10.010544, 9.938507 
6.2258464e+3, 2.14852e+2, -865543.25, -920514.5, 3.9267604, 0.0012317549, 0.000013529828, -865543.25, -31091.816, 0.0, 10.010526, 9.938165 
6.2258446e+3, 2.2478384e+2, -777338.94, -842347.75, 23.638597, 0.0012315167, 0.00025824673, -777338.94, -40219.563, 0.0, 10.010509, 9.925104 
6.225843e+3, 2.3470901e+2, -678987.4, -744239.3, 6.177066, 0.001231411, 0.000043733966, -678987.4, -39134.59, 0.0, 10.010491, 9.924772 
6.225841e+3, 2.4462721e+2, -590742.6, -666388.1, 25.175505, 0.0012308722, 0.00020307583, -590742.6, -48088.332, 0.0, 10.010475, 9.911312 
6.22584e+3, 2.5453866e+2, -492071.63, -567782.56, 7.293602, 0.0012298338, 0.00001819507, -492071.63, -46549.387, 0.0, 10.010458, 9.911211 
6.2258387e+3, 2.6444295e+2, -403929.66, -490554.28, 25.787172, 0.001229309, 0.00026145816, -403929.66, -55469.832, 0.0, 10.010441, 9.8971 
6.225837e+3, 2.743406e+2, -304728.28, -391013.66, 8.717388, 0.0012294014, -0.000087418615, -304728.28, -53265.426, 0.0, 10.010423, 9.897517 
6.2258357e+3, 2.8423014e+2, -218168.42, -317483.78, 23.946865, 0.0012291654, 0.00034190036, -218168.4, -63622.8, 0.0, 10.010405, 9.88077 
6.225834e+3, 2.9411197e+2, -118535.625, -217213.89, 6.88899, 0.0012284894, -0.0001415072, -118535.625, -60832.008, 0.0, 10.010386, 9.881564 
6.2258327e+3, 3.040215e+2, -29283.674, -85009.445, 18.3852, 0.0012276794, 0.0002795612, -29283.666, -29283.666, 0.0, 10.010367, 9.937008 
6.2258315e+3, 3.139603e+2, -28276.816, -82866.4, 1.4320612, 0.0012266668, 0.000039715935, -28276.816, -28276.816, 0.0, 10.010346, 9.938464 
6.235874e+3, 1.251756e+2, -1706567.1, -1722432.0, 6.105444, 0.0012456739, 0.00021392855, -1706567.1, 6713.3555, 0.0, 10.010717, 9.989686 
6.235872e+3, 1.3516513e+2, -1609289.1, -1625726.4, -9.25347, 0.0012441505, 0.000035691977, -1609289.1, 6093.9004, 0.0, 10.010691, 9.988903 
6.23587e+3, 1.4514811e+2, -1521293.3, -1546558.0, 10.761291, 0.0012434686, 0.00029619873, -1521293.3, -3743.415, 0.0, 10.010667, 9.977196 
6.2358683e+3, 1.5512529e+2, -1423657.8, -1449309.4, -5.2845507, 0.0012435359, 0.000104502615, -1423657.8, -3884.197, 0.0, 10.010645, 9.976665 
6.235866e+3, 1.6509587e+2, -1335640.9, -1370432.4, 14.653115, 0.0012431226, 0.00018514448, -1335640.9, -13579.161, 0.0, 10.010623, 9.96463 
6.235864e+3, 1.7506054e+2, -1237774.0, -1272865.9, -1.9398208, 0.0012422613, 0.00008120051, -1237774.0, -13366.18, 0.0, 10.010602, 9.964216 
6.2358624e+3, 1.8501855e+2, -1149839.8, -1194489.9, 14.479925, 0.0012416971, 0.00022463819, -1149839.8, -23020.307, 0.0, 10.010583, 9.951688 
6.2358606e+3, 1.9497027e+2, -1051776.0, -1096675.9, -1.0263075, 0.0012414138, 0.000089930916, -1051776.0, -22483.516, 0.0, 10.010565, 9.951344 
6.235858e+3, 2.0491527e+2, -963778.9, -1018538.56, 14.7155075, 0.0012411074, 0.00020997899, -963778.9, -31947.307, 0.0, 10.010547, 9.93846 
6.235857e+3, 2.1485376e+2, -865575.6, -920585.1, -2.7755904, 0.001240773, 0.000014997612, -865575.6, -31141.365, 0.0, 10.010529, 9.938118 
6.235855e+3, 2.2478555e+2, -777371.75, -842419.75, 17.247215, 0.0012401635, 0.00025947284, -777371.75, -40269.027, 0.0, 10.010511, 9.925056 
6.2358534e+3, 2.3471066e+2, -679019.56, -744310.9, -0.20958614, 0.0012392512, 0.000043053205, -679019.56, -39183.016, 0.0, 10.010495, 9.924725 
6.2358516e+3, 2.4462882e+2, -590776.1, -666462.9, 18.820215, 0.0012388744, 0.00020250693, -590776.1, -48137.598, 0.0, 10.010478, 9.9112625 
6.23585e+3, 2.545402e+2, -492104.7, -567856.94, 0.9673062, 0.0012391, 0.000020034877, -492104.7, -46597.72, 0.0, 10.010461, 9.911161 
6.2358487e+3, 2.644445e+2, -403961.84, -490627.53, 19.188822, 0.0012387439, 0.0002633393, -403961.84, -55516.78, 0.0, 10.010444, 9.897051 
6.235847e+3, 2.7434206e+2, -304759.78, -391086.34, 2.041145, 0.0012376697, -0.00008838049, -304759.78, -53311.207, 0.0, 10.0104265, 9.897468 
6.2358457e+3, 2.8423154e+2, -218200.28, -317557.84, 16.949724, 0.0012370205, 0.0003407694, -218200.28, -63668.434, 0.0, 10.010408, 9.880719 
6.2358445e+3, 2.941133e+2, -118567.05, -217287.56, -0.045229632, 0.0012369264, -0.00013928454, -118567.05, -60876.727, 0.0, 10.01039, 9.881514 
6.2358433e+3, 3.0402282e+2, -29316.705, -85086.76, 10.746944, 0.0012366022, 0.00028201946, -29316.701, -29316.701, 0.0, 10.01037, 9.936954 
6.2358415e+3, 3.1396157e+2, -28309.979, -82944.13, -6.4012947, 0.0012359313, 0.00003792379, -28309.979, -28309.979, 0.0, 10.01035, 9.93841 
6.2458855e+3, 1.2517777e+2, -1706274.6, -1722323.8, 17.427176, 0.0012543477, 0.00021445422, -1706274.6, 6984.685, 0.0, 10.01092, 9.989644 
6.245883e+3, 1.3516726e+2, -1608994.1, -1625617.6, 2.0252106, 0.0012521723, 0.0000362434, -1608994.1, 6368.117, 0.0, 10.010896, 9.988861 
6.245881e+3, 1.451502e+2, -1520999.5, -1546451.5, 23.074743, 0.0012515396, 0.0002967361, -1520999.4, -3470.0522, 0.0, 10.010872, 9.977153 
6.245879e+3, 1.5512732e+2, -1423368.0, -1449205.9, 7.1999283, 0.0012523129, 0.00010498617, -1423368.0, -3614.49, 0.0, 10.010849, 9.976622 
6.245877e+3, 1.6509786e+2, -1335352.5, -1370331.8, 28.353716, 0.0012519606, 0.00018564414, -1335352.5, -13310.317, 0.0, 10.010828, 9.964586 
6.245875e+3, 1.750625e+2, -1237482.9, -1272764.6, 11.5265045, 0.0012505443, 0.00008178368, -1237482.9, -13094.231, 0.0, 10.01081, 9.964172 
6.245873e+3, 1.8502046e+2, -1149544.8, -1194383.0, 28.399729, 0.0012498868, 0.0002252202, -1149544.8, -22744.002, 0.0, 10.010792, 9.951647 
6.245871e+3, 1.9497214e+2, -1051482.5, -1096570.6, 13.029859, 0.0012499639, 0.00009042844, -1051482.5, -22208.299, 0.0, 10.010774, 9.9513035 
6.2458694e+3, 2.0491709e+2, -963490.5, -1018444.06, 29.187777, 0.0012497742, 0.00021039348, -963490.44, -31676.742, 0.0, 10.0107565, 9.938414 
6.245867e+3, 2.1485554e+2, -865286.56, -920491.06, 11.336627, 0.0012493077, 0.000015330934, -865286.56, -30869.7, 0.0, 10.01074, 9.938071 
6.245866e+3, 2.2478728e+2, -777082.44, -842327.4, 31.349155, 0.0012486621, 0.00025995943, -777082.44, -39996.63, 0.0, 10.010724, 9.925008 
6.245864e+3, 2.3471235e+2, -678729.9, -744219.06, 13.5762005, 0.0012478171, 0.000043943804, -678729.9, -38909.773, 0.0, 10.010709, 9.924676 
6.245862e+3, 2.4463044e+2, -590487.4, -666374.3, 32.34282, 0.0012474761, 0.00020323342, -590487.4, -47864.81, 0.0, 10.010693, 9.911212 
6.245861e+3, 2.5454178e+2, -491816.6, -567769.6, 14.449356, 0.0012477022, 0.000019952051, -491816.6, -46325.1, 0.0, 10.010676, 9.911111 
6.245859e+3, 2.6444602e+2, -403674.03, -490542.2, 32.14457, 0.0012473321, 0.00026335556, -403674.03, -55243.977, 0.0, 10.01066, 9.896999 
6.245858e+3, 2.7434358e+2, -304471.53, -391001.66, 13.912353, 0.0012462257, -0.00008715952, -304471.53, -53037.457, 0.0, 10.010644, 9.897417 
6.245856e+3, 2.8423297e+2, -217910.64, -317471.4, 27.904093, 0.0012456207, 0.00034196847, -217910.63, -63392.8, 0.0, 10.010628, 9.88067 
6.245855e+3, 2.9411468e+2, -118278.88, -217202.61, 11.438472, 0.0012456713, -0.00013972339, -118278.88, -60602.08, 0.0, 10.010609, 9.881464 
6.2458533e+3, 3.0402413e+2, -29036.133, -85014.266, 20.985939, 0.0012453767, 0.00028142572, -29036.125, -29036.125, 0.0, 10.01059, 9.936897 
6.245852e+3, 3.1396285e+2, -28029.484, -82872.5, 1.9643943, 0.0012445701, 0.000039314345, -28029.484, -28029.484, 0.0, 10.01057, 9.938354 
6.255896e+3, 1.2517996e+2, -1706307.4, -1722390.3, 8.213084, 0.0012624203, 0.00021561074, -1706307.4, 6930.4326, 0.0, 10.010922, 9.989602 
6.2558943e+3, 1.351694e+2, -1609026.8, -1625683.8, -7.133818, 0.0012607443, 0.000036405978, -1609026.8, 6314.4453, 0.0, 10.010898, 9.988818 
6.2558913e+3, 1.4515232e+2, -1521032.3, -1546518.6, 14.190181, 0.0012601943, 0.00029675095, -1521032.3, -3523.4827, 0.0, 10.010875, 9.97711 
6.2558895e+3, 1.5512939e+2, -1423399.9, -1449272.3, -1.6872865, 0.0012606563, 0.00010564498, -1423399.9, -3666.6125, 0.0, 10.010851, 9.976579 
6.255888e+3, 1.6509989e+2, -1335385.5, -1370400.8, 21.400734, 0.001260279, 0.00018642345, -1335385.5, -13363.105, 0.0, 10.010831, 9.964541 
6.255886e+3, 1.7506449e+2, -1237515.6, -1272833.4, 4.6110992, 0.001259113, 0.000082183615, -1237515.6, -13146.307, 0.0, 10.010813, 9.964128 
6.2558836e+3, 1.8502238e+2, -1149573.8, -1194445.3, 21.512983, 0.0012585517, 0.00022566505, -1149573.8, -22792.035, 0.0, 10.010795, 9.951606 
6.255882e+3, 1.9497404e+2, -1051511.0, -1096632.4, 6.1251774, 0.0012585726, 0.00009133538, -1051510.9, -22255.26, 0.0, 10.0107765, 9.951262 
6.25588e+3, 2.0491894e+2, -963524.0, -1018516.5, 22.999056, 0.0012582316, 0.00021099947, -963524.0, -31728.426, 0.0, 10.010759, 9.938366 
6.255878e+3, 2.1485732e+2, -865319.6, -920563.06, 5.188561, 0.0012575169, 0.000014856648, -865319.6, -30920.395, 0.0, 10.010743, 9.938024 
6.2558764e+3, 2.2478904e+2, -777115.8, -842400.6, 25.463104, 0.0012570785, 0.0002599204, -777115.8, -40047.195, 0.0, 10.010727, 9.924959 
6.2558746e+3, 2.3471405e+2, -678762.75, -744291.94, 7.669592, 0.0012569282, 0.00004596477, -678762.75, -38959.39, 0.0, 10.010712, 9.924627 
6.255873e+3, 2.4463211e+2, -590520.9, -666449.1, 26.196903, 0.0012565313, 0.00020489338, -590520.9, -47914.574, 0.0, 10.010696, 9.911162 
6.2558717e+3, 2.545434e+2, -491849.44, -567843.94, 8.311058, 0.001255848, 0.000018498855, -491849.44, -46373.67, 0.0, 10.01068, 9.911061 
6.25587e+3, 2.6444757e+2, -403708.06, -490619.6, 26.061325, 0.0012553335, 0.00026204248, -403708.06, -55293.234, 0.0, 10.010664, 9.896948 
6.255868e+3, 2.7434507e+2, -304505.2, -391078.75, 7.830236, 0.0012550146, -0.00008437139, -304505.2, -53085.855, 0.0, 10.010648, 9.897365 
6.255867e+3, 2.842344e+2, -217941.42, -317543.25, 20.979134, 0.0012547834, 0.00034483962, -217941.4, -63437.832, 0.0, 10.010631, 9.880621 
6.2558657e+3, 2.9411608e+2, -118308.81, -217273.5, 4.4211245, 0.0012546608, -0.00014206306, -118308.81, -60645.742, 0.0, 10.0106125, 9.881415 
6.2558645e+3, 3.0402547e+2, -29071.922, -85097.85, 13.349071, 0.0012540659, 0.00027865384, -29071.92, -29071.92, 0.0, 10.010593, 9.936839 
6.255863e+3, 3.1396413e+2, -28065.8, -82957.43, -5.7304387, 0.001252782, 0.000042994063, -28065.799, -28065.799, 0.0, 10.010573, 9.938293 
6.265907e+3, 1.2518218e+2, -1706010.5, -1722278.8, 19.294212, 0.0012703717, 0.00021621263, -1706010.5, 7205.554, 0.0, 10.011127, 9.989561 
6.265905e+3, 1.3517159e+2, -1608734.3, -1625575.4, 4.4581842, 0.0012696495, 0.000036601305, -1608734.3, 6585.572, 0.0, 10.011102, 9.988777 
6.265903e+3, 1.4515445e+2, -1520741.3, -1546414.1, 27.319765, 0.001269089, 0.00029696853, -1520741.3, -3253.4507, 0.0, 10.011079, 9.977066 
6.2659e+3, 1.5513149e+2, -1423105.3, -1449166.5, 11.099461, 0.001268636, 0.00010628429, -1423105.3, -3392.4604, 0.0, 10.011059, 9.976536 
6.2658983e+3, 1.6510195e+2, -1335090.8, -1370296.6, 35.128952, 0.0012682334, 0.00018709066, -1335090.6, -13088.404, 0.0, 10.01104, 9.964497 
6.2658966e+3, 1.7506649e+2, -1237223.5, -1272731.4, 18.545324, 0.0012678908, 0.00008250357, -1237223.5, -12873.865, 0.0, 10.011021, 9.964084 
6.265895e+3, 1.8502435e+2, -1149278.9, -1194339.0, 36.207558, 0.0012674874, 0.00022597009, -1149278.9, -22516.344, 0.0, 10.0110035, 9.951565 
6.2658924e+3, 1.9497596e+2, -1051213.8, -1096525.6, 20.476248, 0.0012670128, 0.00009195152, -1051213.8, -21976.871, 0.0, 10.010987, 9.951221 
6.2658906e+3, 2.0492081e+2, -963230.0, -1018419.25, 37.690254, 0.0012665195, 0.00021166158, -963229.94, -31452.773, 0.0, 10.010973, 9.938318 
6.2658894e+3, 2.1485916e+2, -865025.25, -920466.5, 19.992525, 0.0012660023, 0.000015294268, -865025.25, -30643.95, 0.0, 10.010958, 9.937976 
6.265887e+3, 2.2479081e+2, -776822.4, -842307.6, 40.28537, 0.0012657072, 0.00026025416, -776822.4, -39771.246, 0.0, 10.010943, 9.92491 
6.265885e+3, 2.3471577e+2, -678469.5, -744199.8, 21.92387, 0.0012656423, 0.00004632432, -678469.5, -38683.113, 0.0, 10.010928, 9.924578 
6.265884e+3, 2.446338e+2, -590227.0, -666358.3, 40.177494, 0.0012651975, 0.00020537699, -590227.0, -47637.137, 0.0, 10.010914, 9.911112 
6.265882e+3, 2.5454503e+2, -491553.75, -567753.06, 22.091648, 0.0012643143, 0.000019216941, -491553.75, -46093.984, 0.0, 10.0109005, 9.911011 
6.265881e+3, 2.6444915e+2, -403413.38, -490532.78, 39.1756, 0.0012638243, 0.00026263297, -403413.38, -55014.027, 0.0, 10.010886, 9.896894 
6.2658787e+3, 2.743466e+2, -304212.03, -390993.72, 20.512281, 0.0012638029, -0.0000843466, -304212.0, -52807.645, 0.0, 10.01087, 9.897311 
6.2658775e+3, 2.842359e+2, -217645.94, -317454.44, 32.68674, 0.0012636412, 0.00034491927, -217645.92, -63156.813, 0.0, 10.010854, 9.880571 
6.2658757e+3, 2.941175e+2, -118012.55, -217184.94, 15.377529, 0.0012632874, -0.0001411163, -118012.55, -60363.457, 0.0, 10.010837, 9.881366 
6.265875e+3, 3.0402684e+2, -28783.219, -85024.24, 22.77404, 0.0012626045, 0.00027967602, -28783.21, -28783.21, 0.0, 10.010819, 9.936781 
6.2658733e+3, 3.1396544e+2, -27776.473, -82884.59, 3.1722102, 0.0012614399, 0.00004296202, -27776.473, -27776.473, 0.0, 10.0108, 9.938234 
6.275918e+3, 1.2518443e+2, -1706042.5, -1722343.1, 9.348545, 0.001278267, 0.0002164217, -1706042.5, 7151.5815, 0.0, 10.011129, 9.98952 
6.275916e+3, 1.351738e+2, -1608765.4, -1625639.3, -5.4950767, 0.0012788009, 0.000036831818, -1608765.4, 6532.8115, 0.0, 10.011104, 9.988736 
6.275914e+3, 1.451566e+2, -1520774.6, -1546482.6, 19.659243, 0.0012781641, 0.00029734155, -1520774.6, -3308.0042, 0.0, 10.011081, 9.977022 
6.2759113e+3, 1.551336e+2, -1423138.3, -1449234.8, 3.4992912, 0.0012763874, 0.00010690979, -1423138.3, -3446.2935, 0.0, 10.011062, 9.976492 
6.2759095e+3, 1.6510402e+2, -1335123.5, -1370365.0, 27.842688, 0.0012759612, 0.00018767768, -1335123.5, -13141.59, 0.0, 10.011042, 9.964453 
6.275908e+3, 1.7506853e+2, -1237255.5, -1272799.0, 11.249877, 0.0012768334, 0.00008277593, -1237255.5, -12925.82, 0.0, 10.0110235, 9.96404 
6.275906e+3, 1.8502635e+2, -1149308.5, -1194402.6, 30.255169, 0.0012766285, 0.00022618544, -1149308.5, -22565.42, 0.0, 10.011006, 9.951524 
6.2759036e+3, 1.9497791e+2, -1051242.9, -1096588.9, 14.558917, 0.0012753566, 0.000092361974, -1051242.9, -22025.127, 0.0, 10.010991, 9.9511795 
6.275902e+3, 2.0492272e+2, -963263.3, -1018491.2, 31.973335, 0.0012747145, 0.00021236464, -963263.3, -31504.793, 0.0, 10.010976, 9.9382715 
6.2759e+3, 2.1486102e+2, -865058.06, -920538.0, 14.246696, 0.0012747089, 0.000016389984, -865058.06, -30694.94, 0.0, 10.010961, 9.937929 
6.275898e+3, 2.2479261e+2, -776856.9, -842383.2, 34.686356, 0.001274509, 0.00026086267, -776856.9, -39823.46, 0.0, 10.010946, 9.92486 
6.2758964e+3, 2.3471755e+2, -678503.3, -744274.9, 16.383692, 0.0012740934, 0.00004550309, -678503.3, -38734.152, 0.0, 10.010932, 9.924528 
6.2758946e+3, 2.446355e+2, -590260.7, -666433.75, 34.92434, 0.0012736081, 0.00020502473, -590260.6, -47687.543, 0.0, 10.010918, 9.911061 
6.275893e+3, 2.5454667e+2, -491587.0, -567828.06, 16.786942, 0.0012730369, 0.000021489379, -491587.0, -46143.484, 0.0, 10.010904, 9.91096 
6.2758917e+3, 2.6445076e+2, -403448.2, -490611.72, 33.09478, 0.0012726922, 0.0002645874, -403448.2, -55064.6, 0.0, 10.010889, 9.896842 
6.27589e+3, 2.7434814e+2, -304246.16, -391072.22, 14.447998, 0.0012726124, -0.0000862881, -304246.16, -52856.973, 0.0, 10.010874, 9.897258 
6.2758887e+3, 2.8423738e+2, -217677.66, -317528.84, 26.348734, 0.0012723013, 0.00034301335, -217677.66, -63203.223, 0.0, 10.010858, 9.88052 
6.2758875e+3, 2.94119e+2, -118043.6, -217258.53, 8.943647, 0.0012716794, -0.00013781694, -118043.6, -60408.74, 0.0, 10.010841, 9.881315 
6.2758857e+3, 3.0402827e+2, -28819.734, -85109.484, 15.472029, 0.0012710631, 0.00028341083, -28819.73, -28819.73, 0.0, 10.010823, 9.936721 
6.2758845e+3, 3.139668e+2, -27813.588, -82971.125, -4.1489067, 0.0012704452, 0.000040279192, -27813.588, -27813.588, 0.0, 10.010804, 9.938173 
6.285929e+3, 1.251867e+2, -1705748.9, -1722233.5, 20.8528, 0.0012870408, 0.00021645178, -1705748.8, 7422.948, 0.0, 10.0113325, 9.989479 
6.285927e+3, 1.3517603e+2, -1608468.8, -1625528.9, 5.583255, 0.0012867546, 0.000037801805, -1608468.8, 6807.495, 0.0, 10.01131, 9.988695 
6.285925e+3, 1.451588e+2, -1520478.6, -1546375.0, 32.30852, 0.0012861607, 0.0002983113, -1520478.6, -3033.5378, 0.0, 10.011288, 9.976979 
6.285923e+3, 1.5513575e+2, -1422844.8, -1449129.0, 16.653124, 0.0012852306, 0.0001069987, -1422844.8, -3173.763, 0.0, 10.011268, 9.976449 
6.285921e+3, 1.6510612e+2, -1334830.4, -1370262.0, 42.214878, 0.0012848704, 0.00018770082, -1334830.4, -12869.061, 0.0, 10.01125, 9.964409 
6.2859184e+3, 1.7507058e+2, -1236959.4, -1272695.3, 25.29876, 0.0012850668, 0.00008350908, -1236959.4, -12649.785, 0.0, 10.011233, 9.963995 
6.2859166e+3, 1.8502836e+2, -1149007.6, -1194293.3, 45.13754, 0.0012847655, 0.0002269469, -1149007.6, -22284.361, 0.0, 10.011219, 9.951482 
6.285915e+3, 1.9497988e+2, -1050942.3, -1096480.4, 29.640474, 0.0012839636, 0.00009248475, -1050942.3, -21743.844, 0.0, 10.011204, 9.9511385 
6.285913e+3, 2.0492466e+2, -962967.25, -1018393.75, 47.33873, 0.0012835053, 0.0002124966, -962967.2, -31227.605, 0.0, 10.01119, 9.938223 
6.285911e+3, 2.148629e+2, -864760.7, -920440.75, 29.03954, 0.0012833929, 0.000017190445, -864760.7, -30416.05, 0.0, 10.011178, 9.9378805 
6.2859094e+3, 2.2479445e+2, -776558.5, -842287.75, 49.637394, 0.0012830587, 0.00026167603, -776558.44, -39543.01, 0.0, 10.011166, 9.92481 
6.2859076e+3, 2.3471934e+2, -678202.75, -744179.2, 31.586641, 0.001282479, 0.000045628367, -678202.75, -38451.063, 0.0, 10.011153, 9.924479 
6.285906e+3, 2.4463724e+2, -589960.6, -666341.8, 49.699207, 0.0012820882, 0.00020504894, -589960.56, -47404.46, 0.0, 10.011141, 9.91101 
6.285904e+3, 2.5454837e+2, -491287.75, -567737.44, 30.569963, 0.0012819045, 0.000022078508, -491287.72, -45860.7, 0.0, 10.011127, 9.910909 
6.285902e+3, 2.644524e+2, -403148.4, -490522.56, 46.165092, 0.0012816028, 0.00026531555, -403148.38, -54780.766, 0.0, 10.011115, 9.896789 
6.285901e+3, 2.743497e+2, -303944.16, -390982.88, 27.655909, 0.0012811475, -0.00008593885, -303944.16, -52570.42, 0.0, 10.011102, 9.897205 
6.285899e+3, 2.8423893e+2, -217373.64, -317438.66, 38.50338, 0.0012807214, 0.0003432598, -217373.63, -62914.125, 0.0, 10.011087, 9.880467 
6.285898e+3, 2.9412046e+2, -117740.266, -217169.55, 19.864, 0.0012803266, -0.00013731032, -117740.266, -60119.816, 0.0, 10.011071, 9.881263 
6.2858963e+3, 3.0402967e+2, -28523.555, -85032.54, 24.620266, 0.0012798811, 0.00028394215, -28523.543, -28523.543, 0.0, 10.011054, 9.936662 
6.285895e+3, 3.1396815e+2, -27517.723, -82895.125, 5.0586996, 0.001279352, 0.00004050054, -27517.723, -27517.723, 0.0, 10.011035, 9.938114 
6.295941e+3, 1.2518899e+2, -1705781.8, -1722299.9, 11.904403, 0.0012964406, 0.00021637043, -1705781.8, 7367.4507, 0.0, 10.011334, 9.989437 
6.2959385e+3, 1.3517828e+2, -1608501.4, -1625594.9, -3.2879918, 0.0012938961, 0.000039285696, -1608501.4, 6752.7856, 0.0, 10.011312, 9.988653 
6.295936e+3, 1.4516102e+2, -1520511.1, -1546441.4, 24.410694, 0.0012934308, 0.00029969373, -1520511.1, -3087.7458, 0.0, 10.011291, 9.976937 
6.2959343e+3, 1.5513793e+2, -1422876.5, -1449194.9, 8.759468, 0.0012948568, 0.00010672108, -1422876.5, -3226.8647, 0.0, 10.0112705, 9.976406 
6.295932e+3, 1.6510825e+2, -1334863.9, -1370331.8, 36.00838, 0.0012946231, 0.00018734047, -1334863.8, -12923.399, 0.0, 10.011252, 9.964364 
6.2959296e+3, 1.7507266e+2, -1236992.3, -1272764.4, 19.126865, 0.001292826, 0.00008456635, -1236992.3, -12703.139, 0.0, 10.011236, 9.96395 
6.295928e+3, 1.8503042e+2, -1149036.9, -1194356.0, 39.4904, 0.0012922243, 0.00022809143, -1149036.9, -22333.643, 0.0, 10.011222, 9.951441 
6.295926e+3, 1.9498187e+2, -1050970.9, -1096542.6, 23.98994, 0.0012927783, 0.00009241535, -1050970.9, -21792.139, 0.0, 10.011208, 9.9510975 
6.2959236e+3, 2.0492661e+2, -963001.75, -1018468.06, 42.27796, 0.0012927356, 0.0002122365, -963001.75, -31281.299, 0.0, 10.011193, 9.938174 
6.2959224e+3, 2.148648e+2, -864794.56, -920514.56, 24.017256, 0.0012920812, 0.000017780085, -864794.56, -30468.643, 0.0, 10.011181, 9.937832 
6.2959206e+3, 2.2479631e+2, -776592.3, -842362.1, 44.99993, 0.001291454, 0.00026263227, -776592.25, -39595.047, 0.0, 10.0111685, 9.924761 
6.295918e+3, 2.3472112e+2, -678236.06, -744253.06, 26.903942, 0.0012908471, 0.000046435944, -678236.06, -38502.11, 0.0, 10.011157, 9.924429 
6.295917e+3, 2.44639e+2, -589996.3, -666421.25, 44.564327, 0.0012906451, 0.00020535258, -589996.3, -47457.406, 0.0, 10.011145, 9.910956 
6.295915e+3, 2.5455007e+2, -491322.75, -567816.5, 25.502537, 0.0012908947, 0.000021474056, -491322.72, -45912.41, 0.0, 10.011131, 9.910855 
6.2959135e+3, 2.6445404e+2, -403182.56, -490600.7, 41.128258, 0.0012905629, 0.000265173, -403182.56, -54831.125, 0.0, 10.011119, 9.896736 
6.295912e+3, 2.7435133e+2, -303977.78, -391060.47, 22.510895, 0.0012895155, -0.00008395442, -303977.78, -52619.74, 0.0, 10.011106, 9.897153 
6.2959105e+3, 2.8424048e+2, -217407.55, -317517.5, 32.342865, 0.0012890021, 0.0003450436, -217407.53, -62963.2, 0.0, 10.011091, 9.880414 
6.295909e+3, 2.9412195e+2, -117773.54, -217247.9, 13.752876, 0.0012891827, -0.0001387879, -117773.54, -60167.71, 0.0, 10.011075, 9.881208 
6.2959075e+3, 3.040311e+2, -28559.592, -85117.2, 17.459879, 0.0012889791, 0.000282198, -28559.586, -28559.586, 0.0, 10.011059, 9.936603 
6.2959063e+3, 3.1396955e+2, -27553.867, -82980.43, -2.377358, 0.0012882116, 0.000042798194, -27553.865, -27553.865, 0.0, 10.01104, 9.938054 
6.305952e+3, 1.2519132e+2, -1705485.5, -1722188.3, 22.621283, 0.0013045041, 0.00021741043, -1705485.5, 7640.943, 0.0, 10.011539, 9.989396 
6.3059497e+3, 1.3518058e+2, -1608206.6, -1625484.8, 8.0788145, 0.0013026235, 0.000039177587, -1608206.6, 7025.166, 0.0, 10.011517, 9.988612 
6.305948e+3, 1.4516325e+2, -1520217.0, -1546334.4, 37.50404, 0.0013022209, 0.00029952748, -1520217.0, -2815.5818, 0.0, 10.011496, 9.976894 
6.3059455e+3, 1.5514012e+2, -1422580.1, -1449087.5, 21.65527, 0.001303148, 0.00010751019, -1422580.1, -2952.074, 0.0, 10.011478, 9.976364 
6.305943e+3, 1.6511041e+2, -1334567.1, -1370227.0, 50.383793, 0.0013028603, 0.00018820282, -1334567.1, -12647.824, 0.0, 10.011462, 9.964319 
6.3059413e+3, 1.7507479e+2, -1236694.8, -1272660.0, 33.661903, 0.0013014317, 0.000084664905, -1236694.8, -12426.295, 0.0, 10.011448, 9.963905 
6.3059396e+3, 1.8503247e+2, -1148734.8, -1194246.0, 54.74541, 0.001300932, 0.00022815412, -1148734.8, -22051.78, 0.0, 10.011435, 9.9514 
6.305938e+3, 1.949839e+2, -1050666.9, -1096432.5, 39.06322, 0.0013013284, 0.00009315324, -1050666.9, -21507.97, 0.0, 10.011423, 9.9510565 
6.3059354e+3, 2.0492859e+2, -962701.1, -1018368.9, 57.954597, 0.0013011959, 0.00021293448, -962701.06, -31000.1, 0.0, 10.011412, 9.938126 
6.3059336e+3, 2.1486674e+2, -864491.9, -920415.1, 39.773376, 0.0013005206, 0.000017711842, -864491.9, -30184.871, 0.0, 10.011401, 9.937783 
6.305932e+3, 2.247982e+2, -776289.2, -842265.44, 60.618977, 0.0013000248, 0.00026263038, -776289.1, -39310.402, 0.0, 10.011391, 9.92471 
6.3059294e+3, 2.3472297e+2, -677932.3, -744157.0, 41.68353, 0.0012997121, 0.00004738894, -677932.25, -38216.313, 0.0, 10.011381, 9.924378 
6.305928e+3, 2.4464078e+2, -589691.56, -666327.25, 59.04892, 0.0012994809, 0.00020629117, -589691.5, -47170.1, 0.0, 10.011371, 9.910904 
6.305927e+3, 2.545518e+2, -491015.06, -567722.0, 40.4151, 0.0012993349, 0.000021300382, -491015.06, -45621.688, 0.0, 10.011361, 9.910803 
6.3059247e+3, 2.644557e+2, -402874.8, -490509.97, 55.228405, 0.0012989496, 0.0002649315, -402874.78, -54539.78, 0.0, 10.011351, 9.896681 
6.3059235e+3, 2.7435294e+2, -303670.25, -390970.94, 35.059303, 0.0012982631, -0.0000829953, -303670.22, -52328.09, 0.0, 10.011338, 9.897098 
6.3059217e+3, 2.8424203e+2, -217097.02, -317424.1, 43.580185, 0.0012979313, 0.0003461113, -217097.0, -62668.043, 0.0, 10.011326, 9.880362 
6.3059205e+3, 2.9412344e+2, -117462.11, -217154.75, 25.723331, 0.0012980575, -0.00013904864, -117462.1, -59871.13, 0.0, 10.011312, 9.881157 
6.3059187e+3, 3.0403256e+2, -28255.674, -85039.94, 27.800034, 0.0012977234, 0.0002817565, -28255.66, -28255.66, 0.0, 10.011296, 9.936541 
6.3059175e+3, 3.1397092e+2, -27247.828, -82903.29, 5.6313825, 0.0012967191, 0.00004383225, -27247.828, -27247.828, 0.0, 10.011279, 9.937991 
6.315964e+3, 1.2519369e+2, -1705517.3, -1722251.9, 13.659784, 0.0013116667, 0.00021922003, -1705517.3, 7586.1167, 0.0, 10.011541, 9.989356 
6.3159615e+3, 1.3518287e+2, -1608237.8, -1625548.0, -0.84318477, 0.0013124712, 0.000037971306, -1608237.8, 6971.373, 0.0, 10.0115185, 9.988572 
6.315959e+3, 1.4516553e+2, -1520250.0, -1546401.6, 30.474257, 0.0013120826, 0.000298297, -1520250.0, -2870.8242, 0.0, 10.011498, 9.976851 
6.3159573e+3, 1.5514235e+2, -1422612.5, -1449154.4, 14.637459, 0.0013105307, 0.0001090425, -1422612.5, -3006.2617, 0.0, 10.01148, 9.976321 
6.3159543e+3, 1.651126e+2, -1334600.3, -1370296.0, 44.695915, 0.0013100671, 0.00018991418, -1334600.3, -12702.364, 0.0, 10.011465, 9.964274 
6.3159525e+3, 1.7507692e+2, -1236727.3, -1272728.4, 28.0083, 0.0013106505, 0.000084101775, -1236727.3, -12479.837, 0.0, 10.011451, 9.963861 
6.315951e+3, 1.8503457e+2, -1148764.5, -1194309.5, 49.926315, 0.0013105319, 0.00022747112, -1148764.5, -22102.018, 0.0, 10.011437, 9.951359 
6.315949e+3, 1.9498596e+2, -1050696.0, -1096495.5, 34.238777, 0.0013097146, 0.00009445569, -1050695.9, -21557.158, 0.0, 10.011426, 9.9510145 
6.3159466e+3, 2.049306e+2, -962735.4, -1018442.75, 53.763535, 0.0013091421, 0.00021430258, -962735.3, -31054.049, 0.0, 10.011415, 9.938077 
6.315945e+3, 2.1486871e+2, -864525.56, -920488.56, 35.59492, 0.0013088126, 0.000017195354, -864525.56, -30237.783, 0.0, 10.011405, 9.937735 
6.315943e+3, 2.2480011e+2, -776324.75, -842343.3, 56.492714, 0.0013087443, 0.00026196876, -776324.75, -39364.71, 0.0, 10.0113945, 9.924659 
6.315941e+3, 2.3472482e+2, -677967.2, -744234.3, 37.591793, 0.0013089456, 0.000048437818, -677967.2, -38269.434, 0.0, 10.011384, 9.924327 
6.3159394e+3, 2.446426e+2, -589726.06, -666404.7, 55.09592, 0.0013085329, 0.00020766995, -589726.06, -47222.36, 0.0, 10.011374, 9.910852 
6.315938e+3, 2.5455356e+2, -491049.03, -567798.9, 36.39934, 0.0013074182, 0.000021446753, -491049.0, -45672.855, 0.0, 10.011365, 9.910751 
6.315936e+3, 2.644574e+2, -402911.94, -490594.1, 50.48417, 0.0013069651, 0.00026463816, -402911.9, -54593.598, 0.0, 10.011354, 9.896625 
6.3159347e+3, 2.7435458e+2, -303706.8, -391054.84, 30.38323, 0.0013073034, -0.000082767016, -303706.8, -52380.797, 0.0, 10.011342, 9.89704 
6.315933e+3, 2.842436e+2, -217129.19, -317499.78, 38.152687, 0.0013073392, 0.00034666434, -217129.17, -62715.797, 0.0, 10.01133, 9.88031 
6.3159317e+3, 2.94125e+2, -117493.31, -217229.28, 20.080288, 0.0013069689, -0.00013843186, -117493.305, -59917.418, 0.0, 10.011315, 9.881105 
6.31593e+3, 3.0403405e+2, -28295.3, -85132.45, 21.173763, 0.0013062456, 0.000282256, -28295.293, -28295.293, 0.0, 10.0113, 9.936476 
6.3159287e+3, 3.1397235e+2, -27288.314, -82997.73, -0.9330855, 0.0013050123, 0.000043961707, -27288.314, -27288.314, 0.0, 10.011284, 9.937925 
6.3259757e+3, 1.2519605e+2, -1705223.5, -1722140.5, 24.66927, 0.0013203063, 0.0002189972, -1705223.5, 7856.5503, 0.0, 10.011744, 9.989316 
6.325973e+3, 1.3518523e+2, -1607942.5, -1625436.5, 10.326258, 0.0013208268, 0.00003857013, -1607942.4, 7243.779, 0.0, 10.011723, 9.988532 
6.325971e+3, 1.4516781e+2, -1519955.0, -1546294.6, 43.665718, 0.0013203695, 0.00029900676, -1519955.0, -2598.3142, 0.0, 10.011704, 9.976809 
6.3259685e+3, 1.551446e+2, -1422315.4, -1449046.9, 27.775434, 0.0013189462, 0.00010919997, -1422315.4, -2731.2004, 0.0, 10.011689, 9.976278 
6.325966e+3, 1.651148e+2, -1334302.0, -1370189.8, 59.094822, 0.001318589, 0.00019001178, -1334301.9, -12425.648, 0.0, 10.011676, 9.964231 
6.3259643e+3, 1.7507909e+2, -1236427.8, -1272622.4, 42.549984, 0.0013192595, 0.00008460596, -1236427.6, -12201.41, 0.0, 10.011663, 9.963818 
6.3259625e+3, 1.850367e+2, -1148460.3, -1194199.0, 65.59775, 0.0013191145, 0.00022799689, -1148460.1, -21818.543, 0.0, 10.011653, 9.951317 
6.32596e+3, 1.9498804e+2, -1050388.6, -1096384.1, 49.724266, 0.0013181589, 0.00009462824, -1050388.6, -21270.201, 0.0, 10.011644, 9.9509735 
6.3259584e+3, 2.0493263e+2, -962430.75, -1018341.6, 69.546005, 0.0013176427, 0.00021453803, -962430.7, -30769.336, 0.0, 10.011636, 9.938028 
6.3259566e+3, 2.1487069e+2, -864219.2, -920387.4, 51.19119, 0.0013175675, 0.000017915261, -864219.1, -29950.81, 0.0, 10.011627, 9.937686 
6.325955e+3, 2.2480205e+2, -776017.56, -842245.6, 72.26975, 0.001317481, 0.00026255116, -776017.5, -39076.457, 0.0, 10.0116205, 9.924607 
6.3259524e+3, 2.3472671e+2, -677657.0, -744136.0, 53.362274, 0.0013173737, 0.00004822058, -677656.94, -37977.664, 0.0, 10.011613, 9.924275 
6.325951e+3, 2.4464442e+2, -589414.56, -666308.6, 70.32646, 0.001316973, 0.00020758495, -589414.5, -46928.746, 0.0, 10.011606, 9.910799 
6.3259494e+3, 2.545553e+2, -490736.2, -567703.06, 50.57238, 0.0013162325, 0.000022546845, -490736.16, -45377.426, 0.0, 10.011599, 9.910697 
6.3259476e+3, 2.6445913e+2, -402598.56, -490501.34, 63.774292, 0.0013159042, 0.0002656696, -402598.5, -54297.074, 0.0, 10.01159, 9.896568 
6.3259465e+3, 2.7435628e+2, -303391.47, -390962.16, 44.210644, 0.001316065, -0.000083321764, -303391.47, -52081.777, 0.0, 10.01158, 9.896984 
6.3259447e+3, 2.8424525e+2, -216810.48, -317404.84, 50.68021, 0.0013159586, 0.00034604967, -216810.45, -62412.87, 0.0, 10.01157, 9.880256 
6.325943e+3, 2.9412657e+2, -117173.17, -217134.47, 30.523474, 0.0013154922, -0.00013710801, -117173.164, -59612.543, 0.0, 10.011559, 9.881051 
6.3259417e+3, 3.0403554e+2, -27981.982, -85051.64, 29.464426, 0.001314905, 0.00028377256, -27981.967, -27981.967, 0.0, 10.011545, 9.936413 
6.32594e+3, 3.1397378e+2, -26974.166, -82917.51, 8.187972, 0.0013141397, 0.000043175525, -26974.164, -26974.164, 0.0, 10.011529, 9.937861 
6.3359874e+3, 1.2519845e+2, -1705255.0, -1722203.5, 16.38478, 0.0013299768, 0.00021738271, -1705255.0, 7801.5493, 0.0, 10.011745, 9.989276 
6.335985e+3, 1.3518758e+2, -1607973.3, -1625499.1, 2.0199676, 0.0013281718, 0.000040420076, -1607973.3, 7189.7827, 0.0, 10.011724, 9.988492 
6.3359827e+3, 1.4517015e+2, -1519988.3, -1546362.3, 37.39323, 0.0013275938, 0.00030105712, -1519988.3, -2654.3079, 0.0, 10.011707, 9.976766 
6.33598e+3, 1.5514688e+2, -1422348.1, -1449114.1, 21.604864, 0.0013281002, 0.000108408814, -1422348.1, -2786.2932, 0.0, 10.011692, 9.976234 
6.335978e+3, 1.6511704e+2, -1334335.0, -1370258.1, 54.050594, 0.0013280418, 0.00018899824, -1334334.9, -12480.543, 0.0, 10.011678, 9.964187 
6.335976e+3, 1.7508127e+2, -1236459.9, -1272690.0, 37.470516, 0.0013274648, 0.00008585457, -1236459.9, -12255.054, 0.0, 10.011666, 9.963774 
6.3359743e+3, 1.8503883e+2, -1148490.3, -1194263.3, 61.84428, 0.0013270135, 0.00022936375, -1148490.3, -21869.6, 0.0, 10.011656, 9.951275 
6.335972e+3, 1.9499014e+2, -1050418.1, -1096448.0, 46.03129, 0.0013266697, 0.000094021496, -1050418.1, -21320.355, 0.0, 10.011647, 9.950932 
6.33597e+3, 2.0493469e+2, -962465.5, -1018416.25, 66.17419, 0.0013265542, 0.00021399205, -962465.44, -30824.24, 0.0, 10.011639, 9.93798 
6.3359684e+3, 2.1487272e+2, -864253.2, -920461.5, 47.793495, 0.0013266649, 0.000019493866, -864253.1, -30004.549, 0.0, 10.011631, 9.937637 
6.3359666e+3, 2.24804e+2, -776053.0, -842323.3, 69.24405, 0.0013262513, 0.00026399954, -776052.94, -39131.113, 0.0, 10.011623, 9.924556 
6.335964e+3, 2.3472862e+2, -677691.75, -744213.2, 50.362694, 0.0013252702, 0.000047136127, -677691.75, -38031.15, 0.0, 10.011617, 9.924224 
6.335963e+3, 2.4464627e+2, -589451.2, -666390.3, 67.08119, 0.0013250178, 0.00020649306, -589451.1, -46983.56, 0.0, 10.011609, 9.910745 
6.335961e+3, 2.5455713e+2, -490772.22, -567784.4, 47.3426, 0.0013255805, 0.00002430149, -490772.2, -45431.13, 0.0, 10.011601, 9.910643 
6.3359594e+3, 2.6446086e+2, -402634.34, -490583.03, 59.995743, 0.0013255088, 0.00026761513, -402634.3, -54349.996, 0.0, 10.011594, 9.896513 
6.3359576e+3, 2.7435794e+2, -303426.53, -391043.22, 40.333195, 0.001324658, -0.000084400635, -303426.53, -52133.395, 0.0, 10.011584, 9.89693 
6.335956e+3, 2.8424686e+2, -216846.19, -317488.13, 45.928215, 0.0013240575, 0.0003446442, -216846.16, -62464.59, 0.0, 10.011575, 9.8801985 
6.3359547e+3, 2.9412815e+2, -117208.29, -217217.34, 25.803959, 0.0013237768, -0.00013530652, -117208.29, -59663.137, 0.0, 10.011562, 9.880994 
6.335953e+3, 3.0403706e+2, -28019.908, -85140.83, 23.361313, 0.0013236912, 0.0002859786, -28019.898, -28019.898, 0.0, 10.01155, 9.936351 
6.3359517e+3, 3.1397524e+2, -27012.297, -83007.38, 1.8062727, 0.0013238745, 0.000041775707, -27012.297, -27012.297, 0.0, 10.011534, 9.9377985 
6.345999e+3, 1.2520087e+2, -1704962.0, -1722093.1, 27.000814, 0.0013381465, 0.00021757522, -1704962.0, 8070.842, 0.0, 10.011948, 9.989236 
6.345997e+3, 1.3518997e+2, -1607678.0, -1625388.3, 12.248403, 0.0013364486, 0.000041053227, -1607677.9, 7461.7744, 0.0, 10.0119295, 9.988452 
6.345994e+3, 1.4517249e+2, -1519692.1, -1546253.0, 49.630215, 0.0013360505, 0.0003016397, -1519692.0, -2381.0237, 0.0, 10.011913, 9.976724 
6.345992e+3, 1.5514919e+2, -1422051.3, -1449005.3, 34.659176, 0.001336803, 0.00010848063, -1422051.3, -2511.9138, 0.0, 10.0119, 9.976193 
6.34599e+3, 1.6511929e+2, -1334037.6, -1370153.4, 68.94616, 0.0013366842, 0.00018906004, -1334037.5, -12205.207, 0.0, 10.0118885, 9.964142 
6.345988e+3, 1.7508349e+2, -1236157.9, -1272583.5, 51.849655, 0.0013357569, 0.000086381515, -1236157.9, -11974.758, 0.0, 10.011881, 9.963729 
6.345986e+3, 1.8504101e+2, -1148181.8, -1194149.9, 77.13235, 0.0013353401, 0.0002299327, -1148181.6, -21582.297, 0.0, 10.011873, 9.951234 
6.345984e+3, 1.9499227e+2, -1050107.9, -1096334.5, 61.743523, 0.0013354062, 0.00009421977, -1050107.8, -21030.852, 0.0, 10.011867, 9.950891 
6.345982e+3, 2.0493677e+2, -962158.9, -1018315.3, 82.486595, 0.0013353439, 0.00021408699, -962158.75, -30537.96, 0.0, 10.011861, 9.93793 
6.34598e+3, 2.1487474e+2, -863942.9, -920359.5, 63.575043, 0.0013351465, 0.000019756804, -863942.8, -29714.111, 0.0, 10.011857, 9.937588 
6.345978e+3, 2.2480598e+2, -775740.25, -842222.94, 85.006, 0.0013347109, 0.00026443638, -775740.1, -38837.734, 0.0, 10.011853, 9.924504 
6.345976e+3, 2.3473054e+2, -677376.0, -744112.25, 65.96216, 0.0013340118, 0.000047752572, -677375.94, -37734.254, 0.0, 10.011849, 9.924172 
6.345975e+3, 2.4464814e+2, -589134.5, -666293.2, 82.2086, 0.0013338348, 0.00020688487, -589134.4, -46685.22, 0.0, 10.011845, 9.910689 
6.3459724e+3, 2.5455895e+2, -490453.16, -567687.06, 62.27471, 0.0013342397, 0.000024012974, -490453.13, -45129.9, 0.0, 10.01184, 9.910588 
6.345971e+3, 2.6446265e+2, -402313.56, -490487.88, 73.9099, 0.0013341048, 0.0002675092, -402313.5, -54046.5, 0.0, 10.011835, 9.896457 
6.3459694e+3, 2.7435964e+2, -303103.03, -390947.78, 53.06133, 0.001333305, -0.000083280414, -303103.0, -51826.63, 0.0, 10.011829, 9.8968725 
6.3459677e+3, 2.8424853e+2, -216519.14, -317390.66, 57.154007, 0.0013328078, 0.00034572298, -216519.1, -62153.734, 0.0, 10.011822, 9.880142 
6.3459665e+3, 2.9412973e+2, -116879.945, -217120.14, 37.375225, 0.0013326982, -0.00013592961, -116879.93, -59350.426, 0.0, 10.011812, 9.880938 
6.3459647e+3, 3.040386e+2, -27698.33, -85058.11, 32.774666, 0.0013326065, 0.00028522257, -27698.31, -27698.31, 0.0, 10.011801, 9.936286 
6.3459635e+3, 3.139767e+2, -26688.768, -82924.766, 9.134534, 0.0013325321, 0.000043138654, -26688.768, -26688.768, 0.0, 10.011786, 9.937733 
6.356011e+3, 1.2520333e+2, -1704994.8, -1722158.3, 19.482624, 0.0013453135, 0.00021901214, -1704994.8, 8014.064, 0.0, 10.01195, 9.989195 
6.356008e+3, 1.3519236e+2, -1607710.3, -1625452.9, 4.8992167, 0.0013453885, 0.00004084321, -1607710.3, 7405.8896, 0.0, 10.011931, 9.988411 
6.356006e+3, 1.4517485e+2, -1519723.8, -1546317.1, 43.91107, 0.0013453724, 0.00030120971, -1519723.6, -2435.823, 0.0, 10.011915, 9.976684 
6.356004e+3, 1.551515e+2, -1422082.1, -1449068.9, 28.867346, 0.0013452115, 0.00010915604, -1422082.0, -2565.494, 0.0, 10.011902, 9.976152 
6.356002e+3, 1.6512157e+2, -1334071.8, -1370224.0, 65.24246, 0.0013447888, 0.00018987087, -1334071.6, -12261.708, 0.0, 10.011891, 9.964096 
6.356e+3, 1.7508572e+2, -1236191.5, -1272653.8, 48.25141, 0.0013441358, 0.00008640819, -1236191.5, -12030.278, 0.0, 10.011883, 9.963683 
6.3559973e+3, 1.850432e+2, -1148211.0, -1194212.3, 74.196785, 0.0013439886, 0.0002299488, -1148210.9, -21633.04, 0.0, 10.011876, 9.951193 
6.3559955e+3, 1.9499443e+2, -1050136.4, -1096396.4, 58.74845, 0.0013443185, 0.0000949801, -1050136.3, -21080.484, 0.0, 10.011869, 9.95085 
6.355994e+3, 2.0493889e+2, -962194.6, -1018392.1, 80.311195, 0.0013440696, 0.0002146327, -962194.5, -30594.404, 0.0, 10.011865, 9.93788 
6.355992e+3, 2.148768e+2, -863977.94, -920435.8, 61.47473, 0.0013432299, 0.000019115649, -863977.9, -29769.363, 0.0, 10.01186, 9.937537 
6.3559896e+3, 2.24808e+2, -775776.0, -842301.25, 83.14964, 0.0013429848, 0.00026417614, -775775.9, -38893.1, 0.0, 10.011856, 9.924453 
6.355988e+3, 2.3473251e+2, -677411.1, -744190.06, 64.0648, 0.0013433623, 0.000049542003, -677411.06, -37788.55, 0.0, 10.011852, 9.92412 
6.3559866e+3, 2.4465005e+2, -589171.44, -666375.44, 79.90325, 0.0013432093, 0.00020830304, -589171.3, -46740.785, 0.0, 10.011848, 9.910635 
6.355984e+3, 2.545608e+2, -490489.28, -567768.8, 59.988483, 0.0013424497, 0.000022326494, -490489.25, -45184.09, 0.0, 10.011844, 9.910533 
6.355983e+3, 2.6446444e+2, -402351.38, -490574.03, 71.24299, 0.0013420329, 0.00026599746, -402351.3, -54101.836, 0.0, 10.011839, 9.896399 
6.355981e+3, 2.743614e+2, -303140.34, -391033.6, 50.36698, 0.0013420192, -0.00008065011, -303140.3, -51880.914, 0.0, 10.011833, 9.896814 
6.3559794e+3, 2.842502e+2, -216553.98, -317472.25, 53.20718, 0.001342038, 0.00034850818, -216553.95, -62204.996, 0.0, 10.011826, 9.880087 
6.355978e+3, 2.9413134e+2, -116913.89, -217200.81, 33.309933, 0.0013420882, -0.00013821152, -116913.88, -59400.21, 0.0, 10.011816, 9.880882 
6.3559765e+3, 3.0404016e+2, -27739.326, -85154.14, 27.2039, 0.0013416391, 0.0002824404, -27739.313, -27739.313, 0.0, 10.011806, 9.936218 
6.355975e+3, 3.1397822e+2, -26730.188, -83022.305, 3.4161143, 0.0013404744, 0.000046400983, -26730.188, -26730.188, 0.0, 10.011791, 9.937664 
6.366023e+3, 1.252058e+2, -1704702.8, -1722046.3, 28.713116, 0.0013537157, 0.00022010431, -1704702.8, 8281.923, 0.0, 10.01215, 9.989157 
6.3660204e+3, 1.351948e+2, -1607417.5, -1625341.3, 15.550234, 0.0013540726, 0.00004030516, -1607417.5, 7674.8105, 0.0, 10.012133, 9.988373 
6.366018e+3, 1.4517725e+2, -1519430.6, -1546210.3, 57.090004, 0.0013539748, 0.00030062985, -1519430.5, -2166.1343, 0.0, 10.01212, 9.976641 
6.366016e+3, 1.5515386e+2, -1421783.9, -1448959.9, 41.1887, 0.0013533912, 0.0001100056, -1421783.8, -2290.2036, 0.0, 10.012111, 9.97611 
6.366014e+3, 1.6512387e+2, -1333771.0, -1370116.5, 79.161446, 0.0013530273, 0.00019081018, -1333770.8, -11983.474, 0.0, 10.012103, 9.964052 
6.3660115e+3, 1.7508799e+2, -1235888.9, -1272545.9, 62.973343, 0.0013528889, 0.000086171385, -1235888.8, -11749.659, 0.0, 10.012097, 9.963639 
6.36601e+3, 1.850454e+2, -1147902.8, -1194099.8, 90.104385, 0.0013528086, 0.00022962253, -1147902.5, -21346.365, 0.0, 10.012094, 9.951151 
6.3660073e+3, 1.949966e+2, -1049823.4, -1096282.3, 73.99369, 0.0013527692, 0.00009562118, -1049823.3, -20788.715, 0.0, 10.012092, 9.950808 
6.3660055e+3, 2.04941e+2, -961883.1, -1018288.56, 96.15905, 0.0013524473, 0.00021539208, -961882.94, -30303.68, 0.0, 10.01209, 9.93783 
6.366004e+3, 2.1487887e+2, -863662.44, -920331.06, 77.68873, 0.0013518342, 0.000019134599, -863662.3, -29474.16, 0.0, 10.01209, 9.937488 
6.366002e+3, 2.2481002e+2, -775459.1, -842200.4, 99.27951, 0.0013517139, 0.0002640323, -775458.94, -38596.043, 0.0, 10.012089, 9.924399 
6.366e+3, 2.3473448e+2, -677091.5, -744088.7, 79.43436, 0.0013521079, 0.000049849732, -677091.4, -37488.215, 0.0, 10.012089, 9.9240675 
6.365998e+3, 2.4465196e+2, -588849.0, -666275.8, 94.80223, 0.001351916, 0.00020882644, -588848.9, -46437.12, 0.0, 10.012088, 9.91058 
6.3659966e+3, 2.5456268e+2, -490162.0, -567667.7, 74.73851, 0.0013510543, 0.000022798484, -490161.94, -44875.035, 0.0, 10.012088, 9.910478 
6.3659954e+3, 2.6446626e+2, -402022.78, -490477.3, 84.85309, 0.0013506524, 0.00026625526, -402022.7, -53790.914, 0.0, 10.012087, 9.896339 
6.365993e+3, 2.7436313e+2, -302810.06, -390937.25, 63.36857, 0.0013507956, -0.00008080049, -302810.03, -51567.746, 0.0, 10.012083, 9.896755 
6.365992e+3, 2.842519e+2, -216219.08, -317371.7, 64.52225, 0.0013508898, 0.00034847713, -216219.03, -61886.633, 0.0, 10.012078, 9.880031 
6.36599e+3, 2.94133e+2, -116576.28, -217099.73, 43.75725, 0.0013509076, -0.00013743853, -116576.266, -59078.6, 0.0, 10.012073, 9.880826 
6.365989e+3, 3.0404174e+2, -27408.31, -85070.06, 35.431046, 0.0013503999, 0.00028323286, -27408.287, -27408.287, 0.0, 10.012064, 9.936151 
6.365987e+3, 3.1397972e+2, -26394.805, -82937.41, 10.888356, 0.0013491412, 0.000046102232, -26394.803, -26394.803, 0.0, 10.012054, 9.937595 
6.376035e+3, 1.2520829e+2, -1704732.5, -1722105.0, 21.716864, 0.0013629753, 0.00022094189, -1704732.5, 8227.752, 0.0, 10.012151, 9.98912 
6.376033e+3, 1.3519725e+2, -1607446.5, -1625399.6, 8.490214, 0.0013625965, 0.000039566192, -1607446.5, 7621.878, 0.0, 10.012135, 9.988336 
6.3760304e+3, 1.4517964e+2, -1519464.4, -1546278.4, 52.78785, 0.0013621049, 0.0002999721, -1519464.3, -2223.4756, 0.0, 10.012122, 9.976598 
6.376028e+3, 1.5515622e+2, -1421817.0, -1449027.6, 37.01981, 0.001361443, 0.00011096118, -1421817.0, -2346.6094, 0.0, 10.012114, 9.976067 
6.3760257e+3, 1.651262e+2, -1333803.5, -1370183.5, 76.2739, 0.0013613849, 0.0001918214, -1333803.4, -12038.775, 0.0, 10.012106, 9.964009 
6.376024e+3, 1.7509025e+2, -1235920.6, -1272612.4, 60.03799, 0.0013619154, 0.00008576894, -1235920.5, -11803.74, 0.0, 10.0121, 9.963596 
6.3760215e+3, 1.8504766e+2, -1147933.4, -1194165.1, 88.577934, 0.0013617624, 0.0002290799, -1147933.3, -21399.021, 0.0, 10.012096, 9.951109 
6.37602e+3, 1.949988e+2, -1049853.4, -1096347.0, 72.53669, 0.0013609295, 0.00009617468, -1049853.3, -20840.283, 0.0, 10.0120945, 9.950765 
6.3760173e+3, 2.0494317e+2, -961918.06, -1018363.7, 95.36086, 0.0013606162, 0.00021628829, -961917.94, -30359.713, 0.0, 10.012094, 9.93778 
6.3760155e+3, 2.1488097e+2, -863696.8, -920405.75, 76.84895, 0.0013608221, 0.000019613242, -863696.75, -29529.137, 0.0, 10.012093, 9.937438 
6.376014e+3, 2.2481208e+2, -775496.5, -842281.9, 98.38621, 0.0013607793, 0.00026397983, -775496.4, -38653.5, 0.0, 10.012093, 9.924346 
6.376012e+3, 2.3473647e+2, -677127.94, -744169.6, 78.60928, 0.0013604624, 0.00004914436, -677127.9, -37544.22, 0.0, 10.012093, 9.924013 
6.37601e+3, 2.4465391e+2, -588885.9, -666358.5, 94.175964, 0.0013601905, 0.00020873513, -588885.75, -46493.027, 0.0, 10.012092, 9.910524 
6.376009e+3, 2.5456455e+2, -490198.44, -567749.94, 74.05233, 0.0013599604, 0.000024749666, -490198.34, -44929.945, 0.0, 10.012092, 9.910422 
6.3760066e+3, 2.6446807e+2, -402061.78, -490565.66, 82.9948, 0.0013597787, 0.00026772812, -402061.72, -53847.848, 0.0, 10.012091, 9.89628 
6.3760054e+3, 2.743649e+2, -302848.28, -391025.13, 61.524178, 0.0013596438, -0.000082850274, -302848.22, -51623.258, 0.0, 10.012087, 9.896695 
6.3760036e+3, 2.842536e+2, -216255.05, -317456.16, 61.69442, 0.0013595088, 0.0003465224, -216255.02, -61939.332, 0.0, 10.012083, 9.879972 
6.376002e+3, 2.9413465e+2, -116611.35, -217183.3, 40.767143, 0.0013593624, -0.00013457182, -116611.336, -59129.87, 0.0, 10.012076, 9.880768 
6.3760006e+3, 3.0404332e+2, -27450.215, -85168.29, 31.134811, 0.0013590051, 0.00028647264, -27450.2, -27450.2, 0.0, 10.012069, 9.936082 
6.375999e+3, 3.1398124e+2, -26437.533, -83037.266, 6.5503902, 0.0013583458, 0.000043362572, -26437.533, -26437.533, 0.0, 10.012059, 9.937526 
6.3860476e+3, 1.2521079e+2, -1704445.8, -1721995.6, 31.517294, 0.0013716086, 0.00021999984, -1704445.8, 8489.996, 0.0, 10.012348, 9.989081 
6.386045e+3, 1.3519973e+2, -1607153.8, -1625287.8, 17.50473, 0.0013707586, 0.000040787767, -1607153.8, 7890.4263, 0.0, 10.012337, 9.988297 
6.386042e+3, 1.4518207e+2, -1519169.8, -1546169.8, 64.16235, 0.001370301, 0.00030129653, -1519169.6, -1952.6366, 0.0, 10.012327, 9.976556 
6.3860404e+3, 1.551586e+2, -1421520.3, -1448918.5, 49.47551, 0.0013701379, 0.00011047849, -1421520.1, -2073.0935, 0.0, 10.0123205, 9.976026 
6.386038e+3, 1.6512854e+2, -1333504.5, -1370077.0, 90.687645, 0.0013701469, 0.00019118212, -1333504.4, -11762.735, 0.0, 10.012317, 9.963965 
6.386036e+3, 1.7509256e+2, -1235616.4, -1272503.8, 73.860886, 0.0013703384, 0.000086529624, -1235616.1, -11521.967, 0.0, 10.012316, 9.963552 
6.386034e+3, 1.850499e+2, -1147621.8, -1194050.6, 103.71716, 0.0013700991, 0.00022996607, -1147621.5, -21109.39, 0.0, 10.012316, 9.951067 
6.3860315e+3, 1.95001e+2, -1049537.0, -1096231.0, 88.166565, 0.0013694246, 0.00009594992, -1049536.9, -20545.514, 0.0, 10.012319, 9.950724 
6.38603e+3, 2.0494533e+2, -961603.94, -1018259.56, 111.42354, 0.0013692823, 0.00021596541, -961603.75, -30066.762, 0.0, 10.0123205, 9.93773 
6.386028e+3, 2.1488309e+2, -863379.06, -920300.56, 92.23485, 0.0013696718, 0.000020214362, -863378.94, -29232.05, 0.0, 10.012324, 9.937387 
6.386026e+3, 2.2481413e+2, -775175.44, -842179.25, 113.99359, 0.0013695369, 0.00026467833, -775175.25, -38352.65, 0.0, 10.012328, 9.924293 
6.3860244e+3, 2.3473848e+2, -676800.4, -744064.6, 94.463844, 0.0013688349, 0.000049063496, -676800.25, -37236.34, 0.0, 10.012333, 9.92396 
6.3860226e+3, 2.4465586e+2, -588556.0, -666257.0, 109.221405, 0.0013685947, 0.00020853481, -588555.8, -46182.27, 0.0, 10.012338, 9.910467 
6.386021e+3, 2.5456646e+2, -489866.56, -567648.6, 88.05213, 0.0013688655, 0.00002517293, -489866.47, -44616.68, 0.0, 10.01234, 9.910365 
6.386019e+3, 2.6446992e+2, -401727.5, -490466.44, 95.89569, 0.0013688355, 0.000268268, -401727.38, -53531.566, 0.0, 10.0123415, 9.896221 
6.386018e+3, 2.7436668e+2, -302508.8, -390924.47, 74.51, 0.001368431, -0.000082805534, -302508.75, -51301.234, 0.0, 10.012343, 9.896636 
6.386016e+3, 2.842553e+2, -215910.61, -317354.13, 72.95043, 0.0013680941, 0.00034646882, -215910.56, -61611.766, 0.0, 10.012343, 9.879913 
6.386015e+3, 2.941363e+2, -116263.7, -217080.75, 50.572617, 0.0013678343, -0.00013420613, -116263.68, -58798.516, 0.0, 10.012341, 9.880709 
6.3860124e+3, 3.0404493e+2, -27108.49, -85079.56, 38.2575, 0.0013676982, 0.00028685975, -27108.465, -27108.465, 0.0, 10.012336, 9.936014 
6.386011e+3, 3.1398275e+2, -26094.717, -82949.02, 13.573657, 0.0013677367, 0.000043208776, -26094.713, -26094.713, 0.0, 10.012326, 9.937456 
6.3960594e+3, 1.252133e+2, -1704477.5, -1722058.3, 26.132793, 0.00137983, 0.00021788733, -1704477.4, 8433.59, 0.0, 10.01235, 9.989041 
6.396057e+3, 1.3520221e+2, -1607185.1, -1625350.0, 12.216124, 0.0013787037, 0.00004330857, -1607185.0, 7834.743, 0.0, 10.012339, 9.988257 
6.3960546e+3, 1.4518453e+2, -1519201.4, -1546233.1, 60.713127, 0.0013785702, 0.00030393063, -1519201.3, -2008.2012, 0.0, 10.012329, 9.976516 
6.396053e+3, 1.5516101e+2, -1421551.0, -1448981.4, 46.03054, 0.0013792835, 0.00010904062, -1421550.9, -2127.4795, 0.0, 10.012322, 9.975986 
6.3960505e+3, 1.651309e+2, -1333538.5, -1370146.9, 89.300156, 0.0013791966, 0.00018945048, -1333538.4, -11819.878, 0.0, 10.01232, 9.963921 
6.396048e+3, 1.7509487e+2, -1235649.5, -1272572.9, 72.52552, 0.0013783767, 0.00008806633, -1235649.4, -11577.895, 0.0, 10.012318, 9.963508 
6.396046e+3, 1.8505219e+2, -1147651.4, -1194113.8, 103.69103, 0.0013780469, 0.00023180318, -1147651.3, -21161.375, 0.0, 10.012319, 9.951026 
6.396044e+3, 1.9500324e+2, -1049566.1, -1096293.6, 88.13627, 0.0013781749, 0.00009520862, -1049566.0, -20596.533, 0.0, 10.012321, 9.950683 
6.396042e+3, 2.0494752e+2, -961640.56, -1018337.7, 111.79155, 0.0013783097, 0.00021483125, -961640.3, -30124.799, 0.0, 10.012324, 9.937679 
6.3960403e+3, 2.1488522e+2, -863414.7, -920378.06, 92.64319, 0.0013784455, 0.000020891926, -863414.56, -29288.633, 0.0, 10.012327, 9.937336 
6.3960385e+3, 2.2481622e+2, -775212.0, -842259.44, 115.13818, 0.0013781071, 0.0002658768, -775211.8, -38409.64, 0.0, 10.012332, 9.924239 
6.396037e+3, 2.3474051e+2, -676836.5, -744144.4, 95.57826, 0.0013772555, 0.000049415114, -676836.4, -37292.348, 0.0, 10.012337, 9.923906 
6.396035e+3, 2.4465784e+2, -588595.25, -666344.0, 109.38998, 0.0013771242, 0.0002082713, -588595.06, -46240.867, 0.0, 10.012341, 9.91041 
6.396033e+3, 2.5456837e+2, -489904.84, -567735.0, 88.27454, 0.0013777935, 0.000024553705, -489904.75, -44673.75, 0.0, 10.012343, 9.910307 
6.396032e+3, 2.6447177e+2, -401765.78, -490553.97, 95.83449, 0.0013778656, 0.00026816846, -401765.7, -53588.082, 0.0, 10.012346, 9.896162 
6.3960296e+3, 2.7436846e+2, -302546.5, -391011.5, 74.315994, 0.0013772063, -0.00008132809, -302546.44, -51356.57, 0.0, 10.012348, 9.896577 
6.3960284e+3, 2.8425705e+2, -215949.13, -317443.72, 71.29325, 0.0013766927, 0.00034771688, -215949.08, -61667.344, 0.0, 10.012348, 9.879852 
6.3960266e+3, 2.9413798e+2, -116301.52, -217169.88, 48.952705, 0.001376358, -0.0001355489, -116301.5, -58852.777, 0.0, 10.012345, 9.880648 
6.3960254e+3, 3.0404654e+2, -27150.164, -85177.51, 34.478886, 0.0013764873, 0.0002853, -27150.143, -27150.143, 0.0, 10.012341, 9.9359455 
6.3960236e+3, 3.1398427e+2, -26136.36, -83047.74, 9.388022, 0.0013772753, 0.000044830158, -26136.36, -26136.36, 0.0, 10.012332, 9.937387 
6.4060724e+3, 1.2521584e+2, -1704190.0, -1721948.0, 33.985523, 0.0013876858, 0.00021877342, -1704189.9, 8696.272, 0.0, 10.0125475, 9.989004 
6.40607e+3, 1.352047e+2, -1606896.3, -1625239.9, 20.851788, 0.0013873279, 0.000042798176, -1606896.3, 8099.131, 0.0, 10.012538, 9.988219 
6.4060676e+3, 1.4518698e+2, -1518910.5, -1546125.1, 72.138626, 0.0013873732, 0.00030336593, -1518910.3, -1741.3417, 0.0, 10.012532, 9.976476 
6.406065e+3, 1.5516342e+2, -1421254.4, -1448871.3, 57.335266, 0.0013877172, 0.00010965723, -1421254.3, -1854.503, 0.0, 10.01253, 9.9759445 
6.406063e+3, 1.6513328e+2, -1333238.9, -1370040.1, 102.73809, 0.0013875026, 0.00019017943, -1333238.6, -11543.485, 0.0, 10.012531, 9.963877 
6.4060605e+3, 1.7509721e+2, -1235344.3, -1272464.0, 86.25691, 0.0013867829, 0.00008790293, -1235344.0, -11295.388, 0.0, 10.012534, 9.963463 
6.4060587e+3, 1.8505448e+2, -1147338.3, -1193998.1, 118.630066, 0.0013866512, 0.00023154916, -1147338.0, -20870.574, 0.0, 10.012539, 9.950985 
6.406057e+3, 1.9500549e+2, -1049248.5, -1096176.5, 102.919, 0.001387072, 0.00009563983, -1049248.3, -20300.904, 0.0, 10.012546, 9.950641 
6.4060545e+3, 2.0494972e+2, -961324.2, -1018233.1, 127.44839, 0.0013870571, 0.00021528984, -961323.94, -29829.947, 0.0, 10.012553, 9.937628 
6.406053e+3, 2.1488738e+2, -863090.75, -920270.5, 108.34121, 0.0013865976, 0.000020715881, -863090.56, -28985.709, 0.0, 10.012563, 9.937285 
6.406051e+3, 2.2481832e+2, -774884.7, -842154.56, 130.5697, 0.0013863692, 0.00026572836, -774884.44, -38102.81, 0.0, 10.012572, 9.924185 
6.406049e+3, 2.3474255e+2, -676506.1, -744038.94, 110.27311, 0.0013863745, 0.000049995175, -676505.94, -36981.957, 0.0, 10.01258, 9.923852 
6.4060473e+3, 2.4465984e+2, -588261.56, -666241.3, 123.60307, 0.0013863412, 0.00020881575, -588261.4, -45926.664, 0.0, 10.0125885, 9.910352 
6.406046e+3, 2.545703e+2, -489563.9, -567629.7, 102.73699, 0.0013862558, 0.000024203679, -489563.78, -44351.688, 0.0, 10.012598, 9.91025 
6.406044e+3, 2.6447365e+2, -401421.72, -490452.5, 108.8586, 0.0013861102, 0.00026784404, -401421.6, -53262.33, 0.0, 10.012605, 9.8961 
6.4060426e+3, 2.743703e+2, -302199.4, -390909.75, 85.71209, 0.0013858803, -0.00008051714, -302199.3, -51027.2, 0.0, 10.01261, 9.896515 
6.406041e+3, 2.842588e+2, -215596.58, -317338.03, 80.7504, 0.0013857104, 0.00034856383, -215596.52, -61331.93, 0.0, 10.012614, 9.879792 
6.406039e+3, 2.9413968e+2, -115945.39, -217063.34, 58.960857, 0.0013856061, -0.00013610322, -115945.35, -58513.18, 0.0, 10.012615, 9.880588 
6.406038e+3, 3.0404815e+2, -26799.79, -85088.42, 41.931465, 0.0013855335, 0.0002846471, -26799.758, -26799.758, 0.0, 10.012614, 9.935874 
6.406036e+3, 3.1398585e+2, -25779.441, -82956.86, 14.281651, 0.0013855083, 0.00004594666, -25779.44, -25779.44, 0.0, 10.012611, 9.937314 
6.416085e+3, 1.252184e+2, -1704220.6, -1722007.6, 29.103683, 0.0013953298, 0.00022163696, -1704220.6, 8640.533, 0.0, 10.012548, 9.988967 
6.4160824e+3, 1.3520722e+2, -1606926.0, -1625298.8, 16.09159, 0.0013964197, 0.00004027531, -1606926.0, 8044.721, 0.0, 10.012539, 9.988182 
6.41608e+3, 1.4518945e+2, -1518942.4, -1546189.3, 70.34348, 0.0013965425, 0.00030068235, -1518942.3, -1797.568, 0.0, 10.012533, 9.976435 
6.4160776e+3, 1.5516587e+2, -1421285.6, -1448934.8, 55.529694, 0.0013956955, 0.00011163806, -1421285.5, -1909.6495, 0.0, 10.012532, 9.975904 
6.416075e+3, 1.6513568e+2, -1333272.4, -1370108.6, 102.977516, 0.0013953379, 0.00019253866, -1333272.1, -11600.418, 0.0, 10.012533, 9.963833 
6.4160734e+3, 1.7509957e+2, -1235377.0, -1272532.0, 86.5617, 0.0013954628, 0.00008660657, -1235376.9, -11351.241, 0.0, 10.012537, 9.963419 
6.416071e+3, 1.8505678e+2, -1147368.5, -1194062.0, 119.966484, 0.0013957184, 0.0002299051, -1147368.3, -20923.445, 0.0, 10.012542, 9.950943 
6.416069e+3, 1.9500776e+2, -1049277.9, -1096239.8, 104.231544, 0.0013960822, 0.00009685217, -1049277.6, -20352.463, 0.0, 10.012548, 9.9506 
6.4160675e+3, 2.0495194e+2, -961360.5, -1018310.9, 130.01132, 0.0013956368, 0.00021680952, -961360.25, -29888.035, 0.0, 10.012556, 9.937577 
6.4160657e+3, 2.1488954e+2, -863126.5, -920347.8, 110.93624, 0.0013943712, 0.00001997519, -863126.3, -29042.729, 0.0, 10.012566, 9.937234 
6.4160633e+3, 2.2482044e+2, -774923.06, -842238.0, 132.76224, 0.0013944629, 0.00026468397, -774922.75, -38161.902, 0.0, 10.012575, 9.9241295 
6.4160615e+3, 2.3474462e+2, -676543.5, -744121.7, 112.49221, 0.0013959793, 0.000050718096, -676543.3, -37039.55, 0.0, 10.012584, 9.923797 
6.4160603e+3, 2.4466184e+2, -588299.8, -666326.8, 126.035866, 0.0013960347, 0.00020989333, -588299.6, -45984.574, 0.0, 10.012592, 9.910295 
6.416058e+3, 2.5457224e+2, -489601.56, -567714.75, 105.10908, 0.0013944407, 0.000024049048, -489601.44, -44408.434, 0.0, 10.012602, 9.9101925 
6.416057e+3, 2.6447552e+2, -401463.28, -490546.4, 109.91569, 0.0013938699, 0.00026738204, -401463.16, -53322.383, 0.0, 10.0126095, 9.896037 
6.416055e+3, 2.743721e+2, -302240.22, -391003.34, 86.82369, 0.0013945198, -0.00008017252, -302240.13, -51085.9, 0.0, 10.012614, 9.896452 
6.416053e+3, 2.8426057e+2, -215633.6, -317424.94, 80.540535, 0.0013950374, 0.00034912265, -215633.52, -61386.207, 0.0, 10.012618, 9.879733 
6.416052e+3, 2.9414135e+2, -115981.305, -217149.1, 58.480896, 0.0013953658, -0.00013610524, -115981.27, -58565.797, 0.0, 10.01262, 9.880528 
6.41605e+3, 3.040498e+2, -26845.295, -85194.79, 39.77657, 0.0013947815, 0.00028462938, -26845.268, -26845.268, 0.0, 10.01262, 9.9358 
6.416049e+3, 3.139874e+2, -25825.799, -83065.336, 12.126873, 0.0013929086, 0.000046697383, -25825.797, -25825.797, 0.0, 10.012616, 9.937239 
6.426097e+3, 1.2522097e+2, -1703940.6, -1721898.9, 36.057213, 0.0014042202, 0.00022162152, -1703940.6, 8895.399, 0.0, 10.01274, 9.988931 
6.426095e+3, 1.3520975e+2, -1606638.9, -1625187.0, 23.857336, 0.0014047326, 0.000040425683, -1606638.9, 8307.092, 0.0, 10.012736, 9.988147 
6.426093e+3, 1.4519194e+2, -1518652.8, -1546082.8, 81.12679, 0.0014046687, 0.00030082488, -1518652.5, -1532.2007, 0.0, 10.012735, 9.976394 
6.4260906e+3, 1.5516832e+2, -1420990.0, -1448825.8, 66.10737, 0.0014039912, 0.0001116118, -1420989.8, -1637.944, 0.0, 10.012739, 9.975863 
6.4260876e+3, 1.6513808e+2, -1332972.6, -1370000.6, 115.56524, 0.0014038775, 0.00019251098, -1332972.3, -11324.137, 0.0, 10.012744, 9.963789 
6.426086e+3, 1.751019e+2, -1235072.3, -1272422.0, 99.56172, 0.001404317, 0.00008673359, -1235072.0, -11069.489, 0.0, 10.012753, 9.963376 
6.426084e+3, 1.850591e+2, -1147055.6, -1193947.3, 134.593, 0.001404413, 0.00023005354, -1147055.3, -20633.172, 0.0, 10.012763, 9.950901 
6.426082e+3, 1.9501004e+2, -1048956.6, -1096121.6, 118.54886, 0.001404158, 0.000096894306, -1048956.4, -20053.443, 0.0, 10.012775, 9.950558 
6.42608e+3, 2.0495416e+2, -961039.4, -1018203.75, 144.86333, 0.0014038754, 0.00021693535, -961039.0, -29588.646, 0.0, 10.012789, 9.937526 
6.426078e+3, 2.1489172e+2, -862800.56, -920239.1, 125.7259, 0.0014035588, 0.00002037516, -862800.25, -28738.047, 0.0, 10.012803, 9.937183 
6.426076e+3, 2.2482255e+2, -774593.3, -842132.94, 147.62834, 0.0014036535, 0.00026491744, -774593.0, -37852.953, 0.0, 10.012817, 9.924075 
6.4260745e+3, 2.347467e+2, -676205.6, -744013.5, 127.24688, 0.0014041731, 0.000050320006, -676205.44, -36721.926, 0.0, 10.012833, 9.923742 
6.426073e+3, 2.4466385e+2, -587957.7, -666221.4, 139.94156, 0.0014041102, 0.00020964851, -587957.44, -45662.1, 0.0, 10.012847, 9.910236 
6.426071e+3, 2.545742e+2, -489254.97, -567608.2, 117.95, 0.0014033825, 0.000024837274, -489254.78, -44080.96, 0.0, 10.01286, 9.910133 
6.426069e+3, 2.6447743e+2, -401113.38, -490442.97, 121.37275, 0.0014031092, 0.00026806977, -401113.22, -52991.016, 0.0, 10.012873, 9.895975 
6.426068e+3, 2.7437392e+2, -301884.3, -390898.16, 98.67715, 0.0014033718, -0.00008094704, -301884.22, -50747.926, 0.0, 10.012883, 9.896389 
6.426066e+3, 2.8426233e+2, -215271.2, -317317.3, 90.31454, 0.0014036112, 0.00034836459, -215271.13, -61041.15, 0.0, 10.012893, 9.87967 
6.4260644e+3, 2.9414308e+2, -115614.016, -217040.11, 66.03674, 0.0014038037, -0.00013492463, -115613.97, -58215.23, 0.0, 10.012898, 9.880466 
6.426063e+3, 3.0405146e+2, -26483.021, -85101.54, 44.42789, 0.001403413, 0.00028596265, -26482.988, -26482.988, 0.0, 10.012902, 9.935726 
6.4260614e+3, 3.1398898e+2, -25458.955, -82971.11, 17.221567, 0.0014022018, 0.000045648845, -25458.951, -25458.951, 0.0, 10.012903, 9.937164 
6.43611e+3, 1.2522353e+2, -1703969.4, -1721954.8, 33.17661, 0.0014139368, 0.0002197048, -1703969.4, 8841.464, 0.0, 10.012741, 9.988895 
6.436107e+3, 1.3521229e+2, -1606667.0, -1625242.6, 20.899395, 0.0014125503, 0.000042345146, -1606667.0, 8254.073, 0.0, 10.012737, 9.9881115 
6.4361054e+3, 1.4519444e+2, -1518685.6, -1546148.0, 80.8255, 0.0014121332, 0.00030283452, -1518685.4, -1589.6473, 0.0, 10.012737, 9.976353 
6.436103e+3, 1.5517078e+2, -1421022.3, -1448890.6, 65.98065, 0.0014125245, 0.000110252535, -1421022.1, -1694.336, 0.0, 10.01274, 9.9758215 
6.4361006e+3, 1.6514051e+2, -1333005.4, -1370067.4, 117.29432, 0.0014129047, 0.00019090135, -1333005.0, -11380.616, 0.0, 10.012746, 9.963747 
6.436099e+3, 1.7510429e+2, -1235104.0, -1272488.0, 101.229385, 0.0014132988, 0.000087805274, -1235103.8, -11124.5625, 0.0, 10.012754, 9.963334 
6.4360964e+3, 1.8506142e+2, -1147086.5, -1194012.6, 138.1977, 0.0014128777, 0.00023139, -1147086.1, -20686.94, 0.0, 10.012765, 9.950858 
6.4360946e+3, 1.9501233e+2, -1048987.0, -1096186.4, 122.23745, 0.0014116497, 0.00009615824, -1048986.6, -20106.195, 0.0, 10.012778, 9.950515 
6.436093e+3, 2.0495641e+2, -961076.06, -1018281.9, 148.91011, 0.0014119241, 0.00021613359, -961075.7, -29647.326, 0.0, 10.012792, 9.937475 
6.436091e+3, 2.1489392e+2, -862836.4, -920316.56, 129.74652, 0.0014137018, 0.000021526295, -862836.1, -28795.38, 0.0, 10.012806, 9.937132 
6.4360887e+3, 2.2482471e+2, -774631.75, -842216.56, 152.16197, 0.0014135882, 0.00026599655, -774631.4, -37912.344, 0.0, 10.012821, 9.92402 
6.4360875e+3, 2.3474878e+2, -676243.25, -744096.56, 131.80788, 0.001411466, 0.00004918699, -676243.0, -36779.938, 0.0, 10.012836, 9.923687 
6.4360857e+3, 2.4466588e+2, -587998.2, -666311.25, 143.83269, 0.0014111524, 0.00020853154, -587997.9, -45722.438, 0.0, 10.012851, 9.910176 
6.436084e+3, 2.5457618e+2, -489294.75, -567697.56, 121.86476, 0.0014128553, 0.000026234942, -489294.56, -44140.016, 0.0, 10.012864, 9.910073 
6.436082e+3, 2.6447934e+2, -401153.8, -490534.78, 124.42502, 0.001413355, 0.0002695063, -401153.66, -53050.133, 0.0, 10.0128765, 9.895913 
6.4360803e+3, 2.743758e+2, -301923.94, -390989.38, 101.60814, 0.0014123964, -0.00008244723, -301923.8, -50805.586, 0.0, 10.012888, 9.896327 
6.436079e+3, 2.8426412e+2, -215312.05, -317412.25, 91.68588, 0.0014117204, 0.00034675063, -215311.95, -61099.426, 0.0, 10.012897, 9.879605 
6.4360774e+3, 2.941448e+2, -115654.05, -217134.58, 67.407074, 0.0014113993, -0.00013298103, -115654.0, -58272.09, 0.0, 10.012903, 9.880402 
6.436076e+3, 3.040531e+2, -26527.379, -85205.695, 43.776962, 0.0014116719, 0.0002881651, -26527.346, -26527.346, 0.0, 10.012908, 9.935654 
6.4360744e+3, 3.1399053e+2, -25503.713, -83076.31, 16.255928, 0.0014127917, 0.000043421645, -25503.707, -25503.707, 0.0, 10.012908, 9.937091 
6.446123e+3, 1.2522611e+2, -1703692.0, -1721848.0, 39.309868, 0.0014220144, 0.0002192656, -1703692.0, 9093.555, 0.0, 10.012932, 9.988859 
6.446121e+3, 1.3521484e+2, -1606383.6, -1625133.4, 26.325527, 0.001420891, 0.000043011645, -1606383.6, 8512.485, 0.0, 10.012933, 9.988075 
6.4461184e+3, 1.4519696e+2, -1518398.4, -1546040.4, 89.16021, 0.0014207273, 0.00030352065, -1518398.0, -1326.8293, 0.0, 10.012937, 9.976314 
6.446116e+3, 1.5517323e+2, -1420729.3, -1448780.8, 75.64065, 0.0014213597, 0.0001099541, -1420729.0, -1425.4624, 0.0, 10.012944, 9.975782 
6.4461136e+3, 1.6514291e+2, -1332708.5, -1369961.6, 129.62367, 0.0014215257, 0.00019050007, -1332708.1, -11107.402, 0.0, 10.012956, 9.963703 
6.446111e+3, 1.7510667e+2, -1234797.9, -1272378.1, 112.89082, 0.0014212796, 0.000088129476, -1234797.5, -10841.691, 0.0, 10.012971, 9.96329 
6.4461094e+3, 1.8506376e+2, -1146770.3, -1193895.3, 151.30667, 0.001420988, 0.00023183513, -1146769.8, -20393.477, 0.0, 10.012988, 9.950817 
6.4461076e+3, 1.9501461e+2, -1048664.4, -1096066.8, 135.90833, 0.0014206314, 0.000096140044, -1048664.0, -19806.115, 0.0, 10.013006, 9.950474 
6.446105e+3, 2.0495866e+2, -960754.3, -1018175.5, 163.28496, 0.0014209782, 0.00021593648, -960753.8, -29347.527, 0.0, 10.013025, 9.937424 
6.446104e+3, 2.1489611e+2, -862506.44, -920206.9, 143.59245, 0.0014220265, 0.000021436666, -862506.06, -28486.908, 0.0, 10.013046, 9.93708 
6.446102e+3, 2.2482684e+2, -774296.2, -842109.0, 166.0986, 0.0014218685, 0.00026614402, -774295.8, -37597.75, 0.0, 10.013067, 9.923964 
6.4461e+3, 2.3475087e+2, -675900.1, -743986.1, 145.50531, 0.0014204241, 0.000049707945, -675899.8, -36457.23, 0.0, 10.013089, 9.923631 
6.4460987e+3, 2.446679e+2, -587650.7, -666204.5, 156.51689, 0.0014202276, 0.00020880869, -587650.4, -45394.844, 0.0, 10.013109, 9.910116 
6.446097e+3, 2.5457814e+2, -488940.88, -567588.75, 134.396, 0.0014214201, 0.000025577245, -488940.66, -43805.42, 0.0, 10.013128, 9.910013 
6.446095e+3, 2.6448125e+2, -400795.5, -490428.75, 135.53355, 0.0014217852, 0.00026898982, -400795.28, -52710.492, 0.0, 10.013146, 9.895849 
6.446094e+3, 2.743776e+2, -301559.25, -390881.44, 111.420296, 0.0014211432, -0.00008152979, -301559.1, -50458.973, 0.0, 10.013164, 9.896263 
6.446092e+3, 2.842659e+2, -214940.38, -317301.9, 99.321495, 0.0014206296, 0.00034768172, -214940.28, -60745.22, 0.0, 10.013178, 9.879541 
6.446091e+3, 2.941465e+2, -115276.48, -217022.47, 75.19058, 0.001420269, -0.00013388526, -115276.42, -57911.34, 0.0, 10.01319, 9.880338 
6.446089e+3, 3.0405474e+2, -26154.424, -85109.414, 48.538063, 0.0014205218, 0.00028704255, -26154.383, -26154.383, 0.0, 10.013199, 9.935578 
6.4460874e+3, 3.139921e+2, -25126.063, -82979.01, 19.04727, 0.0014216534, 0.000044390305, -25126.057, -25126.057, 0.0, 10.013204, 9.937015 
6.4561355e+3, 1.252287e+2, -1703723.0, -1721907.8, 37.928707, 0.0014290413, 0.00021980015, -1703722.9, 9037.221, 0.0, 10.012933, 9.988822 
6.456133e+3, 1.3521738e+2, -1606414.1, -1625192.6, 25.160515, 0.0014295974, 0.00004283244, -1606414.0, 8457.063, 0.0, 10.012934, 9.988038 
6.456131e+3, 1.4519946e+2, -1518428.4, -1546099.8, 90.57971, 0.0014300797, 0.00030331753, -1518428.1, -1381.5215, 0.0, 10.012938, 9.976276 
6.456129e+3, 1.5517572e+2, -1420758.5, -1448839.6, 76.94039, 0.001430402, 0.00011036133, -1420758.3, -1478.918, 0.0, 10.012946, 9.975745 
6.4561266e+3, 1.6514535e+2, -1332743.0, -1370031.6, 133.67831, 0.0014298952, 0.00019090246, -1332742.5, -11165.739, 0.0, 10.012958, 9.963658 
6.456125e+3, 1.7510907e+2, -1234831.8, -1272447.5, 117.106514, 0.0014286381, 0.000087948305, -1234831.4, -10898.941, 0.0, 10.012973, 9.963245 
6.4561224e+3, 1.8506612e+2, -1146800.3, -1193958.1, 156.76385, 0.0014289019, 0.00023167775, -1146799.8, -20446.535, 0.0, 10.01299, 9.950776 
6.4561206e+3, 1.9501694e+2, -1048693.6, -1096129.0, 141.30554, 0.0014306109, 0.00009659415, -1048693.3, -19857.945, 0.0, 10.013008, 9.950433 
6.456119e+3, 2.0496093e+2, -960792.2, -1018255.9, 169.58153, 0.0014307081, 0.00021614133, -960791.7, -29407.537, 0.0, 10.013028, 9.93737 
6.4561164e+3, 2.1489833e+2, -862543.2, -920286.5, 149.95753, 0.0014291834, 0.000020527285, -862542.75, -28545.242, 0.0, 10.013049, 9.937028 
6.456115e+3, 2.2482899e+2, -774334.9, -842193.44, 172.88635, 0.0014290947, 0.00026567094, -774334.44, -37657.516, 0.0, 10.013071, 9.923908 
6.4561135e+3, 2.3475295e+2, -675938.44, -744070.2, 152.24995, 0.0014305074, 0.000051307597, -675938.06, -36516.063, 0.0, 10.013092, 9.923575 
6.4561117e+3, 2.4466996e+2, -587691.6, -666294.75, 162.31886, 0.0014306685, 0.00020999859, -587691.25, -45455.74, 0.0, 10.013113, 9.910056 
6.45611e+3, 2.545801e+2, -488980.72, -567678.4, 140.21007, 0.0014294186, 0.000023576556, -488980.47, -43864.62, 0.0, 10.013132, 9.909953 
6.4561087e+3, 2.6448315e+2, -400838.16, -490525.4, 140.58023, 0.001429054, 0.00026719578, -400837.94, -52771.934, 0.0, 10.013151, 9.895784 
6.456107e+3, 2.743795e+2, -301601.3, -390977.8, 116.44211, 0.0014297406, -0.00007903728, -301601.16, -50519.2, 0.0, 10.013167, 9.896198 
6.456106e+3, 2.842677e+2, -214980.72, -317395.72, 102.7016, 0.0014301009, 0.0003502695, -214980.61, -60803.086, 0.0, 10.013183, 9.8794775 
6.456104e+3, 2.9414824e+2, -115315.86, -217115.39, 78.433914, 0.0014300183, -0.00013665535, -115315.8, -57967.594, 0.0, 10.013195, 9.880274 
6.456102e+3, 3.040564e+2, -26201.66, -85219.7, 49.090424, 0.0014298001, 0.00028374686, -26201.62, -26201.62, 0.0, 10.013204, 9.935502 
6.4561003e+3, 3.1399372e+2, -25173.469, -83090.84, 19.31152, 0.001429406, 0.00004745275, -25173.463, -25173.463, 0.0, 10.013208, 9.936936 
6.466149e+3, 1.2523128e+2, -1703449.5, -1721800.8, 41.447403, 0.001437199, 0.000220564, -1703449.4, 9285.399, 0.0, 10.01312, 9.988788 
6.466147e+3, 1.3521993e+2, -1606135.3, -1625083.6, 30.324091, 0.0014383432, 0.00004181558, -1606135.3, 8710.846, 0.0, 10.013124, 9.988004 
6.4661443e+3, 1.4520198e+2, -1518146.1, -1545995.4, 99.15341, 0.0014387466, 0.0003023612, -1518145.8, -1123.7692, 0.0, 10.013135, 9.976237 
6.4661413e+3, 1.5517819e+2, -1420466.6, -1448730.9, 84.40324, 0.0014383729, 0.00011115401, -1420466.4, -1211.2847, 0.0, 10.013149, 9.975706 
6.4661396e+3, 1.651478e+2, -1332445.3, -1369923.9, 143.49422, 0.001437965, 0.00019178582, -1332444.6, -10891.712, 0.0, 10.013167, 9.963615 
6.466138e+3, 1.7511147e+2, -1234527.1, -1272337.0, 128.07304, 0.0014375518, 0.000087370456, -1234526.8, -10617.772, 0.0, 10.013188, 9.963202 
6.466136e+3, 1.8506847e+2, -1146486.6, -1193842.6, 169.63834, 0.0014379448, 0.00023088991, -1146486.0, -20155.78, 0.0, 10.013211, 9.950735 
6.4661336e+3, 1.9501925e+2, -1048370.7, -1096009.5, 153.59265, 0.0014390941, 0.00009680172, -1048370.2, -19557.5, 0.0, 10.013237, 9.950391 
6.466132e+3, 2.0496318e+2, -960466.75, -1018147.75, 182.91893, 0.0014389886, 0.00021655408, -960466.1, -29104.168, 0.0, 10.013265, 9.937319 
6.46613e+3, 2.1490054e+2, -862206.56, -920173.56, 163.50511, 0.0014376186, 0.000020353627, -862206.1, -28230.225, 0.0, 10.013293, 9.9369755 
6.466128e+3, 2.2483115e+2, -773993.5, -842084.7, 185.61783, 0.0014377127, 0.00026530444, -773993.0, -37337.203, 0.0, 10.013322, 9.923851 
6.4661264e+3, 2.3475507e+2, -675592.0, -743959.94, 164.17332, 0.0014393381, 0.000051163144, -675591.6, -36190.164, 0.0, 10.013348, 9.923518 
6.466125e+3, 2.4467199e+2, -587339.56, -666186.06, 173.66891, 0.0014395324, 0.00021015125, -587339.1, -45123.59, 0.0, 10.013374, 9.909996 
6.4661235e+3, 2.545821e+2, -488618.53, -567565.75, 151.35378, 0.0014381141, 0.000024109644, -488618.25, -43521.813, 0.0, 10.013402, 9.909893 
6.4661217e+3, 2.644851e+2, -400471.03, -490417.28, 150.00021, 0.0014376809, 0.00026752776, -400470.78, -52423.535, 0.0, 10.013428, 9.895719 
6.46612e+3, 2.7438134e+2, -301228.25, -390868.06, 125.2947, 0.0014384189, -0.000079601356, -301228.06, -50164.223, 0.0, 10.01345, 9.8961315 
6.4661187e+3, 2.8426948e+2, -214599.95, -317281.97, 109.32224, 0.0014389077, 0.00034971288, -214599.83, -60439.785, 0.0, 10.013471, 9.879413 
6.466117e+3, 2.9414997e+2, -114928.94, -216999.7, 84.07464, 0.0014390523, -0.00013603608, -114928.87, -57597.51, 0.0, 10.013488, 9.880209 
6.466116e+3, 3.0405805e+2, -25818.564, -85122.086, 51.63209, 0.0014387696, 0.000284532, -25818.52, -25818.52, 0.0, 10.013504, 9.935424 
6.4661145e+3, 3.1399527e+2, -24780.135, -82989.766, 20.638721, 0.0014379007, 0.000046980724, -24780.129, -24780.129, 0.0, 10.013516, 9.936857 
6.476162e+3, 1.2523387e+2, -1703477.3, -1721853.4, 41.542988, 0.0014461138, 0.00022144517, -1703477.1, 9232.237, 0.0, 10.01312, 9.988755 
6.4761597e+3, 1.352225e+2, -1606162.0, -1625135.6, 30.381912, 0.0014471201, 0.000040277806, -1606161.9, 8659.145, 0.0, 10.013125, 9.987971 
6.4761573e+3, 1.452045e+2, -1518178.9, -1546060.3, 102.91079, 0.0014469769, 0.0003009381, -1518178.5, -1181.2903, 0.0, 10.013136, 9.976196 
6.476155e+3, 1.5518068e+2, -1420498.8, -1448795.1, 88.32814, 0.0014456782, 0.00011216624, -1420498.5, -1267.7577, 0.0, 10.013151, 9.975665 
6.4761525e+3, 1.6515024e+2, -1332477.3, -1369988.6, 149.475, 0.0014458735, 0.0001929487, -1332476.6, -10947.672, 0.0, 10.013169, 9.963574 
6.476151e+3, 1.7511386e+2, -1234558.8, -1272401.3, 133.96344, 0.0014474944, 0.00008654879, -1234558.3, -10672.796, 0.0, 10.013189, 9.963161 
6.476149e+3, 1.8507083e+2, -1146518.4, -1193908.4, 177.4545, 0.0014477345, 0.00022971074, -1146517.6, -20210.553, 0.0, 10.013213, 9.950692 
6.476147e+3, 1.9502154e+2, -1048401.1, -1096074.4, 161.45851, 0.0014466236, 0.000096829994, -1048400.56, -19610.557, 0.0, 10.013239, 9.950349 
6.476145e+3, 2.0496546e+2, -960503.94, -1018226.94, 192.24051, 0.0014463557, 0.00021707863, -960503.3, -29163.545, 0.0, 10.0132675, 9.937267 
6.4761436e+3, 2.1490276e+2, -862243.25, -920252.3, 172.81137, 0.0014469255, 0.000020663705, -862242.75, -28288.563, 0.0, 10.013296, 9.936924 
6.476142e+3, 2.2483331e+2, -774034.3, -842172.7, 193.80606, 0.0014472723, 0.00026501724, -774033.75, -37399.12, 0.0, 10.013325, 9.923793 
6.47614e+3, 2.3475717e+2, -675631.56, -744047.2, 172.46962, 0.0014473719, 0.00004987411, -675631.1, -36250.293, 0.0, 10.013351, 9.92346 
6.476138e+3, 2.4467403e+2, -587380.3, -666276.8, 182.47841, 0.0014473889, 0.00020961397, -587379.94, -45184.37, 0.0, 10.013378, 9.909935 
6.4761364e+3, 2.5458407e+2, -488659.0, -567656.1, 160.0958, 0.0014473023, 0.000026285476, -488658.66, -43581.67, 0.0, 10.013406, 9.909832 
6.476135e+3, 2.64487e+2, -400515.06, -490515.94, 156.94565, 0.0014472372, 0.00026923986, -400514.8, -52486.383, 0.0, 10.013432, 9.895652 
6.476134e+3, 2.743832e+2, -301271.2, -390966.25, 132.24704, 0.0014471867, -0.000082161176, -301271.0, -50225.305, 0.0, 10.013454, 9.896066 
6.476132e+3, 2.8427127e+2, -214641.55, -317378.9, 114.7086, 0.0014473123, 0.00034710523, -214641.42, -60498.86, 0.0, 10.013475, 9.879347 
6.476131e+3, 2.9415166e+2, -114969.47, -217095.75, 89.23401, 0.0014476469, -0.00013321034, -114969.39, -57654.914, 0.0, 10.013494, 9.880142 
6.4761287e+3, 3.0405968e+2, -25867.348, -85235.97, 54.905365, 0.0014475719, 0.00028797064, -25867.297, -25867.297, 0.0, 10.013509, 9.935344 
6.4761275e+3, 3.1399682e+2, -24829.879, -83105.59, 23.862509, 0.0014469355, 0.000044190558, -24829.87, -24829.87, 0.0, 10.013521, 9.936776 
6.486175e+3, 1.2523647e+2, -1703213.5, -1721750.6, 44.448456, 0.0014552294, 0.00022056683, -1703213.4, 9470.7, 0.0, 10.0133, 9.988722 
6.4861727e+3, 1.3522504e+2, -1605886.0, -1625027.1, 32.800114, 0.0014549593, 0.000041320684, -1605885.9, 8910.151, 0.0, 10.013314, 9.987938 
6.48617e+3, 1.4520702e+2, -1517897.0, -1545955.1, 108.655815, 0.0014547122, 0.00030185335, -1517896.6, -923.9617, 0.0, 10.013332, 9.976157 
6.4861685e+3, 1.5518315e+2, -1420209.1, -1448686.8, 95.28005, 0.0014543801, 0.00011107352, -1420208.8, -1002.28516, 0.0, 10.013353, 9.975626 
6.486166e+3, 1.6515267e+2, -1332183.0, -1369883.0, 158.51636, 0.0014548352, 0.00019189881, -1332182.4, -10677.19, 0.0, 10.013376, 9.9635315 
6.4861643e+3, 1.7511624e+2, -1234257.1, -1272292.5, 142.1534, 0.0014560567, 0.00008745746, -1234256.6, -10394.611, 0.0, 10.013403, 9.963119 
6.486162e+3, 1.8507318e+2, -1146205.0, -1193793.3, 188.3662, 0.0014560265, 0.00023063562, -1146204.3, -19920.186, 0.0, 10.013434, 9.95065 
6.48616e+3, 1.9502386e+2, -1048074.1, -1095953.0, 172.64226, 0.0014547682, 0.00009590401, -1048073.5, -19306.088, 0.0, 10.01347, 9.950307 
6.486159e+3, 2.049677e+2, -960174.44, -1018117.3, 203.75494, 0.0014548103, 0.0002160269, -960173.75, -28856.135, 0.0, 10.013506, 9.937215 
6.4861566e+3, 2.1490495e+2, -861906.44, -920139.75, 183.8604, 0.0014561478, 0.000021211474, -861905.8, -27973.29, 0.0, 10.013541, 9.936872 
6.4861554e+3, 2.2483547e+2, -773690.56, -842062.5, 204.55429, 0.0014563921, 0.00026582947, -773689.94, -37076.426, 0.0, 10.013577, 9.923737 
6.4861536e+3, 2.3475926e+2, -675275.7, -743931.8, 183.74417, 0.0014554731, 0.00004954728, -675275.2, -35914.84, 0.0, 10.013613, 9.923403 
6.486152e+3, 2.4467607e+2, -587019.1, -666165.8, 192.83365, 0.0014554133, 0.0002089629, -587018.6, -44843.047, 0.0, 10.013647, 9.909873 
6.4861506e+3, 2.5458607e+2, -488292.88, -567543.9, 169.275, 0.0014563014, 0.00002622006, -488292.53, -43234.855, 0.0, 10.0136795, 9.909769 
6.486149e+3, 2.644889e+2, -400143.2, -490405.66, 164.73157, 0.0014565449, 0.0002694267, -400142.9, -52133.195, 0.0, 10.013711, 9.895586 
6.4861476e+3, 2.7438504e+2, -300888.66, -390851.94, 140.07808, 0.0014560045, -0.00008212098, -300888.44, -49860.816, 0.0, 10.013742, 9.895999 
6.486146e+3, 2.8427303e+2, -214250.14, -317263.7, 119.95552, 0.0014558092, 0.0003470723, -214250.0, -60124.848, 0.0, 10.013771, 9.879278 
6.4861447e+3, 2.941534e+2, -114569.99, -216977.95, 92.71612, 0.0014560428, -0.00013322248, -114569.914, -57272.17, 0.0, 10.013797, 9.8800745 
6.486143e+3, 3.0406135e+2, -25470.715, -85132.53, 55.00567, 0.0014562284, 0.0002879331, -25470.664, -25470.664, 0.0, 10.013819, 9.935266 
6.486141e+3, 3.1399837e+2, -24428.057, -83000.82, 23.893866, 0.0014563657, 0.000044071116, -24428.047, -24428.047, 0.0, 10.013835, 9.936696 
6.4961886e+3, 1.2523904e+2, -1703242.5, -1721805.8, 47.566463, 0.0014644638, 0.0002185742, -1703242.4, 9416.417, 0.0, 10.013301, 9.988688 
6.496186e+3, 1.3522759e+2, -1605914.5, -1625081.9, 36.019733, 0.0014622268, 0.000043985867, -1605914.4, 8856.621, 0.0, 10.013315, 9.987904 
6.496184e+3, 1.4520954e+2, -1517927.6, -1546014.6, 114.45898, 0.0014621699, 0.00030423523, -1517927.3, -979.2461, 0.0, 10.013332, 9.97612 
6.4961815e+3, 1.5518562e+2, -1420239.0, -1448745.9, 101.11793, 0.0014639989, 0.00010864103, -1420238.6, -1056.3739, 0.0, 10.013354, 9.975589 
6.4961797e+3, 1.6515511e+2, -1332217.4, -1369951.8, 166.33398, 0.0014644825, 0.00018944306, -1332216.6, -10735.274, 0.0, 10.013378, 9.963488 
6.496178e+3, 1.7511864e+2, -1234290.1, -1272360.4, 150.06091, 0.0014637419, 0.00008945235, -1234289.6, -10451.008, 0.0, 10.013405, 9.963076 
6.4961755e+3, 1.8507554e+2, -1146235.8, -1193857.5, 199.86069, 0.0014633777, 0.00023288318, -1146234.9, -19973.8, 0.0, 10.013436, 9.950609 
6.496174e+3, 1.9502617e+2, -1048104.56, -1096016.9, 183.84306, 0.0014633514, 0.00009437045, -1048103.9, -19359.08, 0.0, 10.013473, 9.950265 
6.496172e+3, 2.0496997e+2, -960213.44, -1018198.8, 214.77219, 0.0014640026, 0.00021397075, -960212.6, -28917.172, 0.0, 10.013508, 9.937161 
6.49617e+3, 2.1490717e+2, -861943.94, -920220.3, 195.22978, 0.0014653245, 0.000021888904, -861943.25, -28032.371, 0.0, 10.013544, 9.936818 
6.4961684e+3, 2.2483762e+2, -773729.94, -842147.75, 216.26927, 0.0014652408, 0.00026732395, -773729.25, -37136.813, 0.0, 10.01358, 9.92368 
6.496167e+3, 2.3476136e+2, -675314.7, -744016.75, 195.37057, 0.0014636667, 0.000049846058, -675314.2, -35974.38, 0.0, 10.013617, 9.9233465 
6.4961654e+3, 2.446781e+2, -587063.0, -666261.56, 203.08073, 0.0014635994, 0.00020824738, -587062.5, -44906.844, 0.0, 10.013651, 9.909809 
6.496164e+3, 2.5458804e+2, -488335.38, -567638.94, 179.6134, 0.0014652009, 0.000024690595, -488334.97, -43296.64, 0.0, 10.013683, 9.909705 
6.4961624e+3, 2.644908e+2, -400186.34, -490503.5, 174.88821, 0.001465707, 0.0002686092, -400186.0, -52194.992, 0.0, 10.013716, 9.89552 
6.496161e+3, 2.7438688e+2, -300931.22, -390949.3, 150.05493, 0.0014648909, -0.00008039779, -300930.97, -49921.395, 0.0, 10.013747, 9.895933 
6.4961594e+3, 2.8427482e+2, -214295.03, -317366.94, 127.75914, 0.0014644141, 0.00034870638, -214294.86, -60187.113, 0.0, 10.013776, 9.879209 
6.496158e+3, 2.941551e+2, -114614.01, -217080.77, 100.57615, 0.0014643584, -0.00013509192, -114613.91, -57332.844, 0.0, 10.013802, 9.880004 
6.4961565e+3, 3.0406296e+2, -25519.158, -85245.74, 59.86707, 0.0014648336, 0.00028562607, -25519.098, -25519.098, 0.0, 10.0138235, 9.935186 
6.496155e+3, 3.1399995e+2, -24476.375, -83114.89, 28.210514, 0.0014660803, 0.000045689776, -24476.361, -24476.361, 0.0, 10.013841, 9.936617 
6.506202e+3, 1.252416e+2, -1702981.0, -1721703.5, 47.588856, 0.0014718611, 0.0002189735, -1702980.9, 9652.714, 0.0, 10.013479, 9.988655 
6.5062e+3, 1.3523012e+2, -1605645.8, -1624976.5, 36.818855, 0.0014710877, 0.000043349763, -1605645.6, 9100.595, 0.0, 10.013499, 9.98787 
6.5061975e+3, 1.4521204e+2, -1517652.9, -1545911.4, 118.76764, 0.0014714192, 0.00030363956, -1517652.4, -728.84644, 0.0, 10.013523, 9.976083 
6.506195e+3, 1.5518808e+2, -1419953.4, -1448637.6, 105.63792, 0.0014726485, 0.00010906528, -1419953.0, -794.90924, 0.0, 10.013553, 9.975552 
6.5061927e+3, 1.6515751e+2, -1331924.1, -1369847.1, 173.53517, 0.0014726545, 0.00018988372, -1331923.4, -10465.749, 0.0, 10.013585, 9.963445 
6.506191e+3, 1.7512102e+2, -1233983.4, -1272249.3, 157.64755, 0.0014715511, 0.000088975416, -1233982.8, -10167.467, 0.0, 10.013621, 9.963032 
6.506189e+3, 1.8507786e+2, -1145920.9, -1193746.1, 208.95128, 0.0014715869, 0.00023231418, -1145920.0, -19681.736, 0.0, 10.01366, 9.950563 
6.5061873e+3, 1.9502845e+2, -1047783.4, -1095903.0, 190.54214, 0.001472692, 0.00009450077, -1047782.56, -19060.225, 0.0, 10.013701, 9.950219 
6.5061855e+3, 2.0497221e+2, -959883.2, -1018084.3, 222.71657, 0.0014732169, 0.00021406719, -959882.3, -28608.807, 0.0, 10.013745, 9.937113 
6.5061843e+3, 2.1490936e+2, -861598.56, -920099.0, 205.53394, 0.0014731567, 0.000021220334, -861597.8, -27708.414, 0.0, 10.013793, 9.9367695 
6.506182e+3, 2.2483975e+2, -773380.7, -842036.1, 225.98769, 0.0014731088, 0.00026678637, -773379.94, -36808.48, 0.0, 10.013837, 9.923622 
6.506181e+3, 2.3476344e+2, -674959.5, -743903.2, 203.94722, 0.0014730585, 0.000050379986, -674958.9, -35639.5, 0.0, 10.013878, 9.923288 
6.506179e+3, 2.4468014e+2, -586700.5, -666150.3, 211.28325, 0.0014731502, 0.00020879053, -586699.94, -44564.137, 0.0, 10.01392, 9.909747 
6.506178e+3, 2.5458997e+2, -487958.66, -567521.7, 188.26234, 0.0014733896, 0.000024058505, -487958.22, -42939.055, 0.0, 10.013964, 9.909643 
6.506176e+3, 2.6449272e+2, -399802.53, -490390.7, 181.56895, 0.0014735837, 0.00026787902, -399802.2, -51829.703, 0.0, 10.014005, 9.895452 
6.506175e+3, 2.743887e+2, -300540.56, -390834.6, 154.7136, 0.0014737119, -0.00007993623, -300540.3, -49548.61, 0.0, 10.014043, 9.895864 
6.5061736e+3, 2.8427657e+2, -213895.05, -317247.75, 129.87328, 0.0014736849, 0.00034928086, -213894.89, -59804.324, 0.0, 10.014078, 9.87914 
6.506172e+3, 2.9415676e+2, -114204.914, -216958.28, 103.38327, 0.0014734361, -0.00013580653, -114204.81, -56940.26, 0.0, 10.0141115, 9.879935 
6.5061706e+3, 3.0406457e+2, -25112.47, -85141.9, 59.30579, 0.0014736265, 0.00028478235, -25112.412, -25112.412, 0.0, 10.014142, 9.935103 
6.506169e+3, 3.1400147e+2, -24058.072, -83007.03, 24.610641, 0.0014744658, 0.000046374564, -24058.06, -24058.06, 0.0, 10.014168, 9.936532 
6.516215e+3, 1.2524417e+2, -1703009.1, -1721755.8, 52.51774, 0.0014781303, 0.00022086162, -1703009.0, 9599.549, 0.0, 10.013479, 9.988624 
6.516213e+3, 1.3523266e+2, -1605673.0, -1625028.1, 41.885082, 0.0014809696, 0.000040609597, -1605672.9, 9048.579, 0.0, 10.013499, 9.987839 
6.516211e+3, 1.4521453e+2, -1517683.3, -1545970.3, 127.27655, 0.0014818055, 0.00030115078, -1517682.8, -783.6434, 0.0, 10.013524, 9.976047 
6.5162086e+3, 1.5519054e+2, -1419982.8, -1448695.9, 114.0929, 0.0014806897, 0.00011128825, -1419982.4, -848.3037, 0.0, 10.013554, 9.975515 
6.516206e+3, 1.6515994e+2, -1331957.5, -1369914.1, 184.71236, 0.0014799125, 0.00019214525, -1331956.6, -10522.771, 0.0, 10.013587, 9.963403 
6.5162045e+3, 1.751234e+2, -1234016.1, -1272315.9, 168.91156, 0.0014794845, 0.00008691905, -1234015.4, -10223.376, 0.0, 10.013623, 9.96299 
6.5162027e+3, 1.8508019e+2, -1145957.8, -1193821.6, 222.10289, 0.0014803787, 0.00022994803, -1145956.6, -19741.27, 0.0, 10.013662, 9.950515 
6.516201e+3, 1.9503073e+2, -1047819.0, -1095977.8, 203.72217, 0.0014825155, 0.00009567045, -1047818.1, -19118.133, 0.0, 10.013704, 9.9501705 
6.516199e+3, 2.0497444e+2, -959916.2, -1018154.6, 238.12125, 0.0014824502, 0.00021551535, -959915.25, -28663.605, 0.0, 10.013748, 9.937067 
6.516198e+3, 2.1491155e+2, -861631.5, -920169.06, 220.89502, 0.0014801827, 0.000019696545, -861630.7, -27762.668, 0.0, 10.013795, 9.936724 
6.516196e+3, 2.248419e+2, -773423.44, -842126.6, 239.21199, 0.0014804058, 0.00026495423, -773422.6, -36872.05, 0.0, 10.01384, 9.923563 
6.516195e+3, 2.3476551e+2, -675000.7, -743992.9, 217.24707, 0.0014832256, 0.000051034007, -675000.0, -35700.95, 0.0, 10.013882, 9.923229 
6.516193e+3, 2.4468215e+2, -586742.8, -666243.6, 225.49918, 0.0014835784, 0.00021010893, -586742.1, -44626.07, 0.0, 10.013924, 9.909685 
6.516192e+3, 2.5459194e+2, -488000.38, -567614.56, 202.393, 0.001481172, 0.00002401178, -487999.84, -42999.83, 0.0, 10.0139675, 9.90958 
6.51619e+3, 2.644946e+2, -399850.13, -490496.66, 193.68463, 0.0014806994, 0.00026721685, -399849.72, -51895.715, 0.0, 10.0140085, 9.895381 
6.516189e+3, 2.743905e+2, -300587.2, -390940.22, 166.94284, 0.0014825262, -0.00008031739, -300586.88, -49612.934, 0.0, 10.014047, 9.895792 
6.516188e+3, 2.8427833e+2, -213938.05, -317347.56, 140.5739, 0.0014834063, 0.00034914011, -213937.86, -59864.395, 0.0, 10.014083, 9.879072 
6.516186e+3, 2.9415846e+2, -114246.73, -217056.89, 113.72027, 0.0014830352, -0.00013576307, -114246.6, -56998.496, 0.0, 10.014117, 9.879868 
6.516185e+3, 3.0406615e+2, -25165.682, -85265.1, 66.97836, 0.0014825829, 0.000284899, -25165.605, -25165.605, 0.0, 10.014147, 9.935018 
6.516183e+3, 3.14003e+2, -24112.168, -83132.664, 32.32566, 0.0014820554, 0.000046415178, -24112.15, -24112.15, 0.0, 10.0141735, 9.936444 
6.526229e+3, 1.252467e+2, -1702757.5, -1721656.1, 50.135998, 0.0014870845, 0.00022052982, -1702757.4, 9826.331, 0.0, 10.013651, 9.988593 
6.5262264e+3, 1.3523516e+2, -1605409.9, -1624923.3, 40.394924, 0.0014892564, 0.000040200266, -1605409.9, 9287.073, 0.0, 10.013679, 9.987808 
6.5262246e+3, 1.45217e+2, -1517413.3, -1545870.4, 129.70247, 0.0014897735, 0.00030084653, -1517412.6, -537.80804, 0.0, 10.013712, 9.976008 
6.526222e+3, 1.5519297e+2, -1419699.0, -1448589.4, 115.99612, 0.0014886511, 0.00011125418, -1419698.5, -588.294, 0.0, 10.013751, 9.975477 
6.5262204e+3, 1.6516234e+2, -1331664.4, -1369808.0, 188.7971, 0.0014883444, 0.00019209016, -1331663.4, -10253.009, 0.0, 10.013793, 9.963361 
6.526218e+3, 1.7512575e+2, -1233712.4, -1272204.9, 173.46144, 0.0014888322, 0.000086571374, -1233711.5, -9942.572, 0.0, 10.013838, 9.962948 
6.526217e+3, 1.850825e+2, -1145646.5, -1193715.4, 229.26521, 0.0014894301, 0.000229544, -1145645.5, -19452.645, 0.0, 10.0138855, 9.950466 
6.526215e+3, 1.9503298e+2, -1047493.75, -1095864.9, 210.87039, 0.0014901082, 0.00009543705, -1047492.8, -18814.93, 0.0, 10.013937, 9.950123 
6.526213e+3, 2.0497665e+2, -959578.9, -1018034.44, 245.93062, 0.0014901832, 0.00021550493, -959577.8, -28347.875, 0.0, 10.013989, 9.93702 
6.526212e+3, 2.1491371e+2, -861287.8, -920046.6, 228.11676, 0.0014896494, 0.000019961317, -861286.94, -27440.145, 0.0, 10.014041, 9.936677 
6.52621e+3, 2.2484401e+2, -773076.8, -842016.9, 245.91019, 0.0014899315, 0.00026490682, -773075.94, -36546.04, 0.0, 10.014094, 9.923504 
6.5262085e+3, 2.3476756e+2, -674637.1, -743875.7, 224.25055, 0.0014910547, 0.000050059556, -674636.44, -35357.484, 0.0, 10.014149, 9.92317 
6.5262073e+3, 2.4468413e+2, -586370.0, -666129.06, 231.54803, 0.001491255, 0.00020937792, -586369.4, -44272.76, 0.0, 10.014201, 9.90962 
6.526206e+3, 2.5459385e+2, -487619.25, -567497.06, 207.0461, 0.0014904145, 0.000024826506, -487618.72, -42637.574, 0.0, 10.014252, 9.909516 
6.5262043e+3, 2.6449645e+2, -399461.7, -490381.97, 196.60515, 0.0014903054, 0.00026797713, -399461.25, -51525.484, 0.0, 10.014301, 9.895311 
6.526203e+3, 2.743923e+2, -300186.56, -390820.9, 170.68134, 0.0014910602, -0.00008152023, -300186.25, -49229.85, 0.0, 10.014349, 9.895723 
6.5262014e+3, 2.8428003e+2, -213527.11, -317226.78, 141.69711, 0.0014915447, 0.00034786473, -213526.92, -59470.293, 0.0, 10.014395, 9.879 
6.526201e+3, 2.941601e+2, -113826.27, -216932.88, 112.00654, 0.0014916533, -0.00013466932, -113826.15, -56594.188, 0.0, 10.014437, 9.879795 
6.526199e+3, 3.0406776e+2, -24745.92, -85155.586, 61.65383, 0.0014915564, 0.00028618518, -24745.857, -24745.857, 0.0, 10.014475, 9.934935 
6.526198e+3, 3.1400445e+2, -23682.121, -83019.445, 28.05479, 0.0014912073, 0.000044824992, -23682.107, -23682.107, 0.0, 10.014508, 9.93636 
6.536243e+3, 1.2524924e+2, -1702784.0, -1721704.8, 57.777355, 0.0014977247, 0.00021878828, -1702783.9, 9775.105, 0.0, 10.01365, 9.988564 
6.53624e+3, 1.3523763e+2, -1605435.1, -1624971.1, 47.996845, 0.0014965499, 0.000041256677, -1605435.0, 9237.415, 0.0, 10.013679, 9.987778 
6.536238e+3, 1.4521945e+2, -1517445.1, -1545932.0, 141.43045, 0.0014962435, 0.0003019109, -1517444.4, -593.68085, 0.0, 10.013713, 9.97597 
6.536236e+3, 1.5519539e+2, -1419730.4, -1448650.5, 127.93583, 0.0014965968, 0.00010977315, -1419729.8, -643.3234, 0.0, 10.013752, 9.975439 
6.536234e+3, 1.6516472e+2, -1331697.4, -1369873.3, 202.73656, 0.0014975414, 0.00019055155, -1331696.3, -10309.201, 0.0, 10.013794, 9.96332 
6.536232e+3, 1.7512809e+2, -1233744.1, -1272269.3, 187.32057, 0.001499072, 0.000087292494, -1233743.1, -9997.123, 0.0, 10.013839, 9.962907 
6.5362304e+3, 1.8508479e+2, -1145683.4, -1193790.9, 245.94609, 0.0014986531, 0.00023037122, -1145682.1, -19511.883, 0.0, 10.013887, 9.9504175 
6.536229e+3, 1.9503523e+2, -1047530.0, -1095939.9, 227.6837, 0.0014963425, 0.00009430592, -1047528.94, -18873.082, 0.0, 10.013939, 9.950074 
6.536227e+3, 2.0497885e+2, -959613.75, -1018107.6, 262.9853, 0.0014970192, 0.00021455606, -959612.56, -28404.164, 0.0, 10.013991, 9.936973 
6.5362257e+3, 2.1491586e+2, -861321.75, -920119.1, 245.11884, 0.0015006633, 0.000021328608, -861320.75, -27495.043, 0.0, 10.014044, 9.936629 
6.536224e+3, 2.248461e+2, -773118.3, -842105.56, 263.69485, 0.001500868, 0.00026596693, -773117.3, -36608.016, 0.0, 10.014097, 9.923446 
6.5362227e+3, 2.3476961e+2, -674677.9, -743963.9, 242.05008, 0.0014974562, 0.000048063834, -674677.0, -35418.05, 0.0, 10.014152, 9.923112 
6.5362215e+3, 2.4468611e+2, -586415.7, -666228.4, 248.08447, 0.0014972526, 0.00020735418, -586414.9, -44337.676, 0.0, 10.014205, 9.9095545 
6.5362203e+3, 2.545958e+2, -487663.94, -567595.9, 223.65176, 0.0015006039, 0.000026142698, -487663.3, -42700.92, 0.0, 10.014256, 9.90945 
6.5362185e+3, 2.644983e+2, -399507.25, -490483.94, 212.28969, 0.0015015007, 0.00026959582, -399506.75, -51589.07, 0.0, 10.014305, 9.895243 
6.536218e+3, 2.7439407e+2, -300231.13, -390922.2, 186.17673, 0.0014994586, -0.000083221916, -300230.75, -49291.742, 0.0, 10.014354, 9.895655 
6.536216e+3, 2.8428173e+2, -213575.34, -317337.06, 155.0552, 0.0014987356, 0.00034589513, -213575.11, -59535.176, 0.0, 10.0144, 9.878925 
6.536215e+3, 2.941617e+2, -113873.7, -217042.92, 125.44978, 0.0014996965, -0.00013296494, -113873.55, -56657.563, 0.0, 10.0144415, 9.879721 
6.536213e+3, 3.0406928e+2, -24796.848, -85273.97, 72.28624, 0.0015005822, 0.00028815094, -24796.76, -24796.76, 0.0, 10.01448, 9.934852 
6.5362126e+3, 3.140059e+2, -23733.0, -83138.58, 38.14314, 0.0015013899, 0.00004223457, -23732.977, -23732.977, 0.0, 10.014514, 9.936277 
6.5462565e+3, 1.2525171e+2, -1702541.9, -1721610.3, 52.728874, 0.0015060853, 0.00021821982, -1702541.8, 9992.872, 0.0, 10.013816, 9.988532 
6.546254e+3, 1.352401e+2, -1605176.1, -1624868.4, 42.463203, 0.0015045941, 0.000041938372, -1605176.0, 9472.371, 0.0, 10.013856, 9.987747 
6.546252e+3, 1.4522187e+2, -1517176.8, -1545830.8, 139.34428, 0.0015044999, 0.00030246805, -1517176.0, -349.07834, 0.0, 10.013899, 9.975934 
6.54625e+3, 1.5519778e+2, -1419452.0, -1448544.8, 127.31296, 0.0015055417, 0.00010894853, -1419451.5, -388.3705, 0.0, 10.013946, 9.975403 
6.546248e+3, 1.6516706e+2, -1331411.0, -1369771.8, 205.3169, 0.001506341, 0.00018961841, -1331409.9, -10045.846, 0.0, 10.013997, 9.963277 
6.546246e+3, 1.7513038e+2, -1233441.5, -1272160.1, 189.07823, 0.0015069532, 0.0000874353, -1233440.5, -9717.123, 0.0, 10.014053, 9.962864 
6.5462446e+3, 1.8508705e+2, -1145370.5, -1193682.0, 249.58748, 0.0015066903, 0.00023072124, -1145369.3, -19221.06, 0.0, 10.014111, 9.950371 
6.546243e+3, 1.9503744e+2, -1047206.2, -1095826.3, 232.0457, 0.0015055613, 0.00009403135, -1047205.06, -18570.88, 0.0, 10.014171, 9.9500265 
6.546241e+3, 2.0498101e+2, -959278.3, -1017990.5, 268.04907, 0.0015061697, 0.00021394338, -959277.1, -28089.918, 0.0, 10.014232, 9.936924 
6.54624e+3, 2.1491799e+2, -860972.7, -919995.94, 249.52428, 0.0015085019, 0.000020663989, -860971.7, -27166.697, 0.0, 10.014295, 9.936581 
6.546238e+3, 2.2484817e+2, -772763.56, -841991.94, 268.17654, 0.0015087196, 0.00026569772, -772762.56, -36273.465, 0.0, 10.014358, 9.923388 
6.5462375e+3, 2.3477161e+2, -674310.75, -743845.1, 246.118, 0.0015067066, 0.00004865806, -674309.9, -35070.586, 0.0, 10.014421, 9.923053 
6.5462357e+3, 2.4468805e+2, -586040.1, -666113.56, 250.7972, 0.0015066627, 0.00020764768, -586039.4, -43981.184, 0.0, 10.014484, 9.90949 
6.5462345e+3, 2.5459766e+2, -487275.66, -567475.9, 226.52869, 0.0015087966, 0.000024841907, -487275.03, -42331.016, 0.0, 10.014545, 9.909385 
6.546233e+3, 2.6450008e+2, -399110.03, -490366.94, 213.43958, 0.0015094383, 0.00026846686, -399109.53, -51209.566, 0.0, 10.014605, 9.895172 
6.546232e+3, 2.7439582e+2, -299822.13, -390800.8, 185.5271, 0.0015082882, -0.000082072154, -299821.75, -48899.785, 0.0, 10.014663, 9.895583 
6.546231e+3, 2.842834e+2, -213155.06, -317213.0, 151.49295, 0.0015079472, 0.00034706088, -213154.84, -59131.24, 0.0, 10.014717, 9.878853 
6.54623e+3, 2.9416332e+2, -113442.47, -216914.88, 122.599396, 0.0015086291, -0.0001347093, -113442.33, -56241.938, 0.0, 10.014769, 9.879647 
6.546228e+3, 3.040708e+2, -24365.992, -85162.53, 66.16114, 0.0015092867, 0.0002862217, -24365.92, -24365.92, 0.0, 10.014816, 9.934766 
6.5462273e+3, 3.1400734e+2, -23289.623, -83022.555, 28.875095, 0.0015099463, 0.000043986227, -23289.61, -23289.61, 0.0, 10.01486, 9.936189 
6.556271e+3, 1.2525418e+2, -1702569.5, -1721661.4, 64.47021, 0.0015130257, 0.0002183729, -1702569.4, 9941.073, 0.0, 10.013816, 9.988502 
6.5562683e+3, 1.3524254e+2, -1605203.8, -1624919.4, 54.385895, 0.0015131374, 0.000042334774, -1605203.6, 9420.92, 0.0, 10.013855, 9.987716 
6.5562654e+3, 1.4522427e+2, -1517206.1, -1545886.0, 153.63124, 0.0015139005, 0.0003026628, -1517205.4, -401.90985, 0.0, 10.013899, 9.9759 
6.5562636e+3, 1.5520015e+2, -1419480.0, -1448599.4, 141.51776, 0.0015151111, 0.00010853432, -1419479.3, -439.43695, 0.0, 10.013947, 9.9753685 
6.5562624e+3, 1.6516939e+2, -1331445.9, -1369840.8, 223.17778, 0.0015148959, 0.00018906765, -1331444.6, -10103.342, 0.0, 10.013998, 9.963233 
6.55626e+3, 1.7513268e+2, -1233475.6, -1272228.5, 207.11238, 0.001513398, 0.00008718538, -1233474.5, -9773.513, 0.0, 10.014054, 9.96282 
6.556259e+3, 1.8508929e+2, -1145406.3, -1193754.4, 269.09454, 0.0015140271, 0.00023073582, -1145404.8, -19278.586, 0.0, 10.014112, 9.950324 
6.556257e+3, 1.9503964e+2, -1047241.2, -1095897.9, 251.44595, 0.0015166588, 0.00009427658, -1047239.9, -18627.197, 0.0, 10.014173, 9.949981 
6.556255e+3, 2.0498317e+2, -959314.94, -1018066.7, 288.50128, 0.0015167779, 0.00021353403, -959313.5, -28147.379, 0.0, 10.014235, 9.936874 
6.5562546e+3, 2.1492007e+2, -861008.06, -920071.25, 270.09647, 0.0015143938, 0.000018719307, -861006.8, -27222.383, 0.0, 10.0142975, 9.936531 
6.556253e+3, 2.2485021e+2, -772805.94, -842082.25, 289.3316, 0.0015146872, 0.00026457934, -772804.75, -36335.668, 0.0, 10.01436, 9.923327 
6.5562516e+3, 2.3477359e+2, -674352.75, -743935.1, 267.23114, 0.0015177628, 0.000050836483, -674351.7, -35131.85, 0.0, 10.014424, 9.922994 
6.5562505e+3, 2.4468997e+2, -586085.6, -666211.9, 270.80258, 0.0015182273, 0.00020936196, -586084.7, -44045.395, 0.0, 10.014487, 9.909424 
6.556249e+3, 2.545995e+2, -487319.75, -567573.44, 246.52058, 0.0015157799, 0.000021913345, -487319.0, -42393.176, 0.0, 10.014549, 9.909319 
6.556248e+3, 2.645019e+2, -399159.03, -490475.9, 232.41588, 0.0015153867, 0.0002656241, -399158.44, -51275.96, 0.0, 10.014608, 9.895099 
6.556247e+3, 2.7439752e+2, -299870.6, -390909.63, 204.55316, 0.0015174312, -0.00007919195, -299870.13, -48964.977, 0.0, 10.014667, 9.89551 
6.5562457e+3, 2.8428504e+2, -213201.84, -317319.78, 168.22148, 0.0015184619, 0.00035013407, -213201.58, -59194.082, 0.0, 10.014722, 9.87878 
6.556244e+3, 2.941649e+2, -113487.77, -217020.52, 139.03825, 0.0015181535, -0.00013858947, -113487.586, -56302.55, 0.0, 10.014773, 9.879575 
6.5562433e+3, 3.040723e+2, -24421.785, -85291.305, 79.81008, 0.0015178305, 0.0002818857, -24421.682, -24421.682, 0.0, 10.014822, 9.934676 
6.5562415e+3, 3.1400877e+2, -23346.166, -83153.586, 42.427162, 0.0015175409, 0.000048390775, -23346.137, -23346.137, 0.0, 10.014865, 9.936098 
6.5662843e+3, 1.2525661e+2, -1702330.0, -1721566.4, 55.52955, 0.0015204358, 0.0002186713, -1702329.8, 10156.885, 0.0, 10.013979, 9.988472 
6.566282e+3, 1.3524494e+2, -1604955.6, -1624820.5, 46.793114, 0.0015222365, 0.000040900395, -1604955.5, 9645.605, 0.0, 10.014025, 9.987687 
6.5662795e+3, 1.4522664e+2, -1516949.3, -1545790.9, 150.20795, 0.0015231551, 0.0003013464, -1516948.5, -168.15685, 0.0, 10.014078, 9.975864 
6.566278e+3, 1.5520246e+2, -1419204.0, -1448494.9, 137.25757, 0.0015231194, 0.00010901628, -1419203.4, -186.24924, 0.0, 10.014138, 9.975332 
6.566276e+3, 1.6517168e+2, -1331158.5, -1369737.6, 221.60805, 0.0015227449, 0.00018969401, -1331157.3, -9838.397, 0.0, 10.014201, 9.963191 
6.566274e+3, 1.7513491e+2, -1233175.5, -1272119.5, 206.56439, 0.001522097, 0.000086423475, -1233174.4, -9495.353, 0.0, 10.014266, 9.962778 
6.566273e+3, 1.850915e+2, -1145097.6, -1193648.8, 270.08325, 0.001522917, 0.00022973612, -1145096.1, -18991.482, 0.0, 10.014334, 9.950276 
6.566272e+3, 1.9504179e+2, -1046919.06, -1095786.1, 251.4686, 0.0015251089, 0.00009413671, -1046917.75, -18326.168, 0.0, 10.014403, 9.949933 
6.56627e+3, 2.0498526e+2, -958977.44, -1017948.06, 289.92197, 0.0015251286, 0.00021369128, -958976.0, -27830.467, 0.0, 10.014476, 9.936826 
6.566269e+3, 2.1492213e+2, -860653.75, -919945.0, 272.04758, 0.001522983, 0.000018615892, -860652.5, -26888.242, 0.0, 10.014551, 9.936483 
6.5662676e+3, 2.248522e+2, -772447.0, -841968.44, 290.63794, 0.0015233041, 0.00026417273, -772445.8, -35996.313, 0.0, 10.014625, 9.923267 
6.566266e+3, 2.3477553e+2, -673983.4, -743817.25, 267.7409, 0.0015261873, 0.000050082468, -673982.4, -34781.51, 0.0, 10.014697, 9.922933 
6.566265e+3, 2.4469185e+2, -585706.0, -666095.4, 270.6459, 0.0015266717, 0.0002089358, -585705.06, -43684.137, 0.0, 10.01477, 9.909359 
6.5662634e+3, 2.5460133e+2, -486923.47, -567449.8, 245.89014, 0.0015244792, 0.0000225643, -486922.72, -42014.633, 0.0, 10.014844, 9.909253 
6.566263e+3, 2.6450363e+2, -398753.2, -490356.44, 229.4614, 0.0015242373, 0.0002659689, -398752.6, -50887.203, 0.0, 10.0149145, 9.895026 
6.5662616e+3, 2.743992e+2, -299454.2, -390786.47, 201.50885, 0.0015263096, -0.000080797836, -299453.75, -48564.945, 0.0, 10.014981, 9.895436 
6.5662605e+3, 2.8428662e+2, -212773.45, -317193.8, 162.71574, 0.0015271823, 0.00034866907, -212773.2, -58781.32, 0.0, 10.015046, 9.878705 
6.566259e+3, 2.9416642e+2, -113044.984, -216888.92, 131.62907, 0.001526476, -0.00013722116, -113044.82, -55874.684, 0.0, 10.01511, 9.879499 
6.566258e+3, 3.0407372e+2, -23977.506, -85175.875, 68.544945, 0.0015262688, 0.00028337474, -23977.43, -23977.43, 0.0, 10.015169, 9.9345875 
6.566257e+3, 3.140101e+2, -22888.857, -83033.37, 31.144712, 0.0015268226, 0.000046187644, -22888.842, -22888.842, 0.0, 10.015222, 9.9360075 
6.5762985e+3, 1.25259e+2, -1702356.0, -1721612.3, 69.19488, 0.0015281809, 0.00021901351, -1702355.8, 10107.492, 0.0, 10.013977, 9.988444 
6.576296e+3, 1.3524729e+2, -1604979.8, -1624865.5, 60.50093, 0.0015316634, 0.000038346647, -1604979.6, 9598.287, 0.0, 10.014025, 9.987659 
6.576294e+3, 1.4522897e+2, -1516980.4, -1545850.1, 169.05461, 0.0015323006, 0.0002991062, -1516979.4, -221.87146, 0.0, 10.014078, 9.975827 
6.576292e+3, 1.5520477e+2, -1419234.6, -1448553.8, 156.21056, 0.0015301935, 0.00011000244, -1419233.8, -239.23291, 0.0, 10.014138, 9.975296 
6.576291e+3, 1.6517393e+2, -1331191.8, -1369802.3, 242.63069, 0.0015302009, 0.00019099393, -1331190.3, -9893.521, 0.0, 10.014201, 9.963151 
6.5762883e+3, 1.7513713e+2, -1233207.9, -1272183.5, 227.57286, 0.0015322099, 0.00008533935, -1233206.5, -9549.189, 0.0, 10.014267, 9.962738 
6.576287e+3, 1.8509366e+2, -1145135.9, -1193725.6, 292.82486, 0.0015327771, 0.0002281107, -1145134.1, -19050.771, 0.0, 10.014335, 9.950227 
6.5762854e+3, 1.9504392e+2, -1046955.94, -1095862.0, 274.3106, 0.0015319383, 0.00009372635, -1046954.4, -18383.574, 0.0, 10.014405, 9.949883 
6.576285e+3, 2.0498733e+2, -959012.6, -1018021.56, 314.80682, 0.0015321111, 0.00021416032, -959010.94, -27885.717, 0.0, 10.014478, 9.936778 
6.576283e+3, 2.1492414e+2, -860688.9, -920018.3, 296.82913, 0.001533281, 0.000019633253, -860687.4, -26942.953, 0.0, 10.014553, 9.936435 
6.5762824e+3, 2.2485417e+2, -772492.0, -842062.56, 314.353, 0.0015335978, 0.0002641948, -772490.56, -36060.414, 0.0, 10.014627, 9.923206 
6.5762806e+3, 2.3477744e+2, -674026.56, -743910.3, 291.5852, 0.0015330067, 0.000047495647, -674025.3, -34843.188, 0.0, 10.0147, 9.922872 
6.57628e+3, 2.446937e+2, -585751.8, -666195.2, 295.23526, 0.0015332125, 0.00020715866, -585750.75, -43747.87, 0.0, 10.014773, 9.909292 
6.576279e+3, 2.5460312e+2, -486969.16, -567549.5, 270.4303, 0.0015342884, 0.000025389929, -486968.25, -42077.64, 0.0, 10.014847, 9.909187 
6.5762776e+3, 2.6450533e+2, -398802.9, -490465.47, 251.41948, 0.0015349326, 0.00026825434, -398802.22, -50953.594, 0.0, 10.014918, 9.894953 
6.5762764e+3, 2.7440083e+2, -299502.3, -390894.72, 223.40594, 0.0015350529, -0.00008517262, -299501.75, -48628.96, 0.0, 10.014985, 9.895364 
6.576275e+3, 2.842882e+2, -212823.22, -317307.3, 183.45427, 0.0015348222, 0.0003444013, -212822.9, -58846.297, 0.0, 10.015051, 9.878629 
6.5762746e+3, 2.9416788e+2, -113094.17, -217002.1, 152.29893, 0.0015341119, -0.00013265932, -113093.945, -55938.4, 0.0, 10.015115, 9.879422 
6.5762734e+3, 3.0407512e+2, -24033.363, -85303.76, 85.72699, 0.001534706, 0.00028840805, -24033.244, -24033.244, 0.0, 10.015174, 9.934499 
6.576272e+3, 3.1401142e+2, -22944.855, -83162.58, 48.050884, 0.0015371897, 0.000039904153, -22944.818, -22944.818, 0.0, 10.015227, 9.935918 
6.586312e+3, 1.2526134e+2, -1702133.0, -1721524.8, 57.54686, 0.0015379442, 0.00021805782, -1702132.8, 10307.57, 0.0, 10.01413, 9.988417 
6.58631e+3, 1.352496e+2, -1604733.9, -1624766.5, 48.763813, 0.0015390798, 0.000038924773, -1604733.8, 9821.567, 0.0, 10.014192, 9.987632 
6.586308e+3, 1.4523125e+2, -1516723.1, -1545754.8, 160.97746, 0.0015394115, 0.00029955865, -1516722.3, 12.954409, 0.0, 10.014257, 9.975792 
6.586306e+3, 1.5520701e+2, -1418964.9, -1448452.4, 148.7826, 0.0015388449, 0.000108819695, -1418964.1, 8.520528, 0.0, 10.014326, 9.97526 
6.586305e+3, 1.6517614e+2, -1330911.8, -1369702.4, 237.86325, 0.0015393657, 0.00018978663, -1330910.4, -9635.16, 0.0, 10.0144, 9.96311 
6.586303e+3, 1.751393e+2, -1232911.9, -1272076.0, 222.44159, 0.0015409391, 0.00008559961, -1232910.6, -9274.497, 0.0, 10.014476, 9.962697 
6.586302e+3, 1.8509577e+2, -1144827.9, -1193620.5, 289.8663, 0.0015410888, 0.00022849694, -1144826.1, -18763.52, 0.0, 10.014556, 9.950179 
6.5863e+3, 1.95046e+2, -1046629.25, -1095748.0, 271.8279, 0.0015398484, 0.00009295886, -1046627.75, -18077.219, 0.0, 10.01464, 9.949836 
6.586299e+3, 2.0498936e+2, -958672.3, -1017902.9, 312.59457, 0.0015402957, 0.00021329483, -958670.7, -27565.23, 0.0, 10.014723, 9.9367285 
6.586298e+3, 2.1492612e+2, -860338.7, -919895.5, 293.59048, 0.0015424112, 0.000019718065, -860337.2, -26612.086, 0.0, 10.014805, 9.936386 
6.586297e+3, 2.248561e+2, -772134.2, -841949.1, 311.65747, 0.0015426936, 0.00026444008, -772132.8, -35721.39, 0.0, 10.014891, 9.923145 
6.586296e+3, 2.347793e+2, -673647.56, -743787.25, 289.37503, 0.0015410454, 0.0000470778, -673646.4, -34482.387, 0.0, 10.014978, 9.922811 
6.586294e+3, 2.4469548e+2, -585362.4, -666076.25, 291.38803, 0.0015412199, 0.00020635215, -585361.4, -43376.027, 0.0, 10.015063, 9.9092245 
6.5862936e+3, 2.5460482e+2, -486570.9, -567427.4, 265.5053, 0.0015434012, 0.00002449896, -486570.03, -41696.27, 0.0, 10.015144, 9.909119 
6.5862924e+3, 2.64507e+2, -398394.06, -490344.84, 244.87914, 0.0015441435, 0.0002678584, -398393.4, -50560.977, 0.0, 10.015226, 9.89488 
6.586292e+3, 2.744024e+2, -299074.66, -390766.25, 216.50371, 0.0015431644, -0.00008438313, -299074.16, -48216.84, 0.0, 10.015307, 9.89529 
6.5862906e+3, 2.8428972e+2, -212382.55, -317178.6, 173.44131, 0.0015428701, 0.00034492032, -212382.25, -58420.383, 0.0, 10.015386, 9.878551 
6.5862894e+3, 2.941693e+2, -112642.86, -216869.84, 141.32452, 0.0015434304, -0.0001342892, -112642.664, -55501.063, 0.0, 10.015458, 9.879344 
6.586289e+3, 3.0407646e+2, -23579.627, -85184.14, 71.520164, 0.0015442185, 0.00028669188, -23579.545, -23579.545, 0.0, 10.015527, 9.934409 
6.5862876e+3, 3.1401268e+2, -22475.148, -83036.43, 33.045128, 0.0015453805, 0.00004102441, -22475.129, -22475.129, 0.0, 10.015593, 9.935828 
6.596326e+3, 1.2526363e+2, -1702158.8, -1721571.1, 76.678764, 0.0015488921, 0.00021629862, -1702158.4, 10259.441, 0.0, 10.014129, 9.988389 
6.5963244e+3, 1.3525186e+2, -1604759.5, -1624812.6, 67.931625, 0.0015453118, 0.000041362837, -1604759.3, 9773.833, 0.0, 10.014191, 9.987603 
6.596322e+3, 1.4523348e+2, -1516753.9, -1545811.6, 182.68202, 0.0015453409, 0.00030160477, -1516752.8, -39.559216, 0.0, 10.0142565, 9.975757 
6.596321e+3, 1.5520921e+2, -1418994.5, -1448508.6, 170.61488, 0.0015484699, 0.00010630266, -1418993.5, -42.470245, 0.0, 10.014326, 9.975225 
6.596319e+3, 1.651783e+2, -1330946.0, -1369768.6, 262.73395, 0.001549566, 0.00018704095, -1330944.1, -9690.184, 0.0, 10.0144, 9.963068 
6.596317e+3, 1.7514142e+2, -1232945.0, -1272141.5, 247.32263, 0.0015488295, 0.00008663731, -1232943.4, -9328.043, 0.0, 10.014477, 9.962655 
6.5963167e+3, 1.8509786e+2, -1144865.1, -1193695.1, 317.2371, 0.0015484816, 0.0002300666, -1144863.1, -18820.846, 0.0, 10.014557, 9.950131 
6.596315e+3, 1.9504802e+2, -1046666.1, -1095822.3, 299.2149, 0.0015484698, 0.00009196187, -1046664.3, -18133.672, 0.0, 10.014641, 9.949788 
6.596314e+3, 2.0499133e+2, -958710.75, -1017981.44, 339.8046, 0.0015492562, 0.00021160248, -958708.8, -27622.771, 0.0, 10.014724, 9.936678 
6.5963125e+3, 2.1492806e+2, -860375.3, -919972.94, 320.88492, 0.0015508272, 0.000019185678, -860373.6, -26667.395, 0.0, 10.014808, 9.936335 
6.5963113e+3, 2.2485797e+2, -772177.3, -842040.44, 341.0601, 0.0015510637, 0.00026477326, -772175.6, -35782.633, 0.0, 10.014893, 9.923086 
6.596311e+3, 2.3478112e+2, -673690.8, -743878.5, 318.68716, 0.0015498918, 0.00004797075, -673689.4, -34543.15, 0.0, 10.014981, 9.92275 
6.5963095e+3, 2.4469723e+2, -585411.7, -666180.94, 318.18927, 0.0015501896, 0.00020613242, -585410.44, -43442.285, 0.0, 10.015066, 9.909156 
6.5963084e+3, 2.5460652e+2, -486618.25, -567531.1, 292.42563, 0.0015521003, 0.000021311987, -486617.22, -41759.895, 0.0, 10.015148, 9.90905 
6.5963084e+3, 2.645086e+2, -398443.56, -490454.63, 272.07785, 0.0015524548, 0.00026578936, -398442.75, -50626.074, 0.0, 10.01523, 9.894807 
6.596307e+3, 2.7440396e+2, -299123.94, -390875.8, 243.57397, 0.0015509512, -0.000080475744, -299123.3, -48281.066, 0.0, 10.015311, 9.895216 
6.596306e+3, 2.8429118e+2, -212434.78, -317295.4, 197.25629, 0.0015512417, 0.00034833074, -212434.42, -58486.883, 0.0, 10.015389, 9.878472 
6.5963054e+3, 2.9417068e+2, -112693.69, -216986.02, 165.10661, 0.0015538112, -0.00013972024, -112693.43, -55565.32, 0.0, 10.015462, 9.879266 
6.596304e+3, 3.0407774e+2, -23636.027, -85313.625, 92.72802, 0.0015544127, 0.00028084117, -23635.889, -23635.889, 0.0, 10.0155325, 9.9343195 
6.596303e+3, 3.140139e+2, -22531.51, -83167.06, 53.74658, 0.0015523005, 0.000046645127, -22531.463, -22531.463, 0.0, 10.015598, 9.935737 
6.606341e+3, 1.2526585e+2, -1701937.8, -1721484.6, 60.25295, 0.0015557607, 0.00021610272, -1701937.6, 10458.454, 0.0, 10.01428, 9.988361 
6.6063386e+3, 1.3525406e+2, -1604525.3, -1624719.8, 51.78581, 0.0015545301, 0.000040703937, -1604525.1, 9986.384, 0.0, 10.014351, 9.987576 
6.606337e+3, 1.4523564e+2, -1516508.1, -1545720.1, 170.3851, 0.0015549673, 0.0003010202, -1516507.1, 184.90997, 0.0, 10.014428, 9.975723 
6.606335e+3, 1.5521133e+2, -1418729.3, -1448407.6, 158.92972, 0.0015567369, 0.00010627535, -1418728.4, 201.79082, 0.0, 10.01451, 9.975191 
6.606333e+3, 1.6518039e+2, -1330668.1, -1369670.9, 253.96329, 0.0015572818, 0.00018690934, -1330666.5, -9432.991, 0.0, 10.014597, 9.963026 
6.606332e+3, 1.7514347e+2, -1232648.9, -1272034.9, 238.29434, 0.001556742, 0.00008579244, -1232647.4, -9052.143, 0.0, 10.014687, 9.962613 
6.606331e+3, 1.8509986e+2, -1144557.6, -1193589.8, 309.57123, 0.0015569449, 0.0002293552, -1144555.6, -18533.086, 0.0, 10.014777, 9.950084 
6.6063297e+3, 1.9504997e+2, -1046345.56, -1095710.9, 291.41202, 0.0015578198, 0.00009218785, -1046343.8, -17832.375, 0.0, 10.014871, 9.94974 
6.6063285e+3, 2.0499326e+2, -958374.0, -1017865.3, 333.29993, 0.0015582768, 0.00021167766, -958372.1, -27304.797, 0.0, 10.014966, 9.936628 
6.606328e+3, 2.1492992e+2, -860016.56, -919846.44, 314.58762, 0.0015583142, 0.000018034449, -860014.94, -26326.945, 0.0, 10.015065, 9.936285 
6.6063267e+3, 2.2485977e+2, -771811.3, -841924.56, 334.21658, 0.0015587109, 0.00026360623, -771809.75, -35434.39, 0.0, 10.015162, 9.923024 
6.6063255e+3, 2.3478284e+2, -673315.3, -743759.0, 310.6171, 0.0015594633, 0.000048049234, -673314.0, -34184.855, 0.0, 10.015258, 9.9226885 
6.606325e+3, 2.4469891e+2, -585024.06, -666062.56, 309.4472, 0.0015598322, 0.00020656374, -585022.9, -43071.14, 0.0, 10.015355, 9.909088 
6.6063243e+3, 2.546081e+2, -486208.06, -567402.7, 284.31958, 0.0015597626, 0.000021108208, -486207.06, -41365.555, 0.0, 10.015453, 9.908982 
6.606323e+3, 2.6451012e+2, -398021.94, -490330.97, 261.66452, 0.0015599029, 0.00026510263, -398021.22, -50219.613, 0.0, 10.015548, 9.894731 
6.6063225e+3, 2.744054e+2, -298692.47, -390748.97, 231.44955, 0.0015602836, -0.00008146218, -298691.88, -47863.977, 0.0, 10.015638, 9.89514 
6.606322e+3, 2.8429255e+2, -211989.78, -317164.56, 182.35179, 0.001560957, 0.00034764377, -211989.47, -58055.516, 0.0, 10.015726, 9.878394 
6.606321e+3, 2.94172e+2, -112230.84, -216847.84, 150.42241, 0.0015619742, -0.00013934277, -112230.625, -55115.344, 0.0, 10.015814, 9.879188 
6.6063195e+3, 3.0407897e+2, -23169.31, -85192.91, 74.80014, 0.0015622113, 0.00028134286, -23169.22, -23169.22, 0.0, 10.015897, 9.934226 
6.606319e+3, 3.1401497e+2, -22047.01, -83039.47, 32.913807, 0.0015614174, 0.000045965644, -22046.992, -22046.992, 0.0, 10.015976, 9.935641 
6.616355e+3, 1.2526803e+2, -1701964.1, -1721530.5, 82.39964, 0.0015602208, 0.00021680711, -1701963.9, 10410.907, 0.0, 10.014278, 9.988334 
6.616353e+3, 1.3525622e+2, -1604550.6, -1624765.0, 74.12232, 0.0015655358, 0.00003813599, -1604550.4, 9940.155, 0.0, 10.01435, 9.987549 
6.616351e+3, 1.4523776e+2, -1516537.5, -1545774.4, 196.88026, 0.0015667983, 0.00029881287, -1516536.1, 135.11774, 0.0, 10.014427, 9.97569 
6.61635e+3, 1.5521343e+2, -1418757.8, -1448461.3, 185.31508, 0.0015642006, 0.00010771708, -1418756.5, 153.17789, 0.0, 10.01451, 9.975158 
6.616348e+3, 1.6518244e+2, -1330703.4, -1369738.5, 283.12778, 0.0015635354, 0.00018832333, -1330701.3, -9487.909, 0.0, 10.014597, 9.962984 
6.616347e+3, 1.7514548e+2, -1232683.4, -1272102.0, 267.61142, 0.0015647049, 0.000083782135, -1232681.5, -9105.881, 0.0, 10.014687, 9.96257 
6.6163456e+3, 1.8510182e+2, -1144595.8, -1193665.1, 340.10754, 0.0015660776, 0.00022723332, -1144593.4, -18590.0, 0.0, 10.014778, 9.950036 
6.6163445e+3, 1.9505188e+2, -1046382.4, -1095785.4, 321.91882, 0.0015676067, 0.00009310366, -1046380.25, -17887.537, 0.0, 10.014872, 9.949693 
6.616344e+3, 2.0499511e+2, -958411.75, -1017942.7, 366.11502, 0.001567344, 0.00021277867, -958409.5, -27360.418, 0.0, 10.014968, 9.936578 
6.6163427e+3, 2.1493171e+2, -860054.0, -919923.44, 347.38403, 0.0015653034, 0.000016499876, -860051.94, -26381.717, 0.0, 10.015067, 9.936234 
6.616342e+3, 2.2486153e+2, -771858.25, -842021.75, 365.85742, 0.001565982, 0.00026152097, -771856.4, -35498.203, 0.0, 10.015164, 9.922961 
6.6163415e+3, 2.3478454e+2, -673360.56, -743855.25, 342.38092, 0.0015694703, 0.000047582376, -673358.94, -34246.383, 0.0, 10.015261, 9.922626 
6.61634e+3, 2.4470054e+2, -585071.1, -666163.75, 342.36838, 0.0015698788, 0.00020733125, -585069.7, -43133.89, 0.0, 10.015358, 9.909021 
6.616339e+3, 2.5460967e+2, -486254.97, -567503.6, 317.1052, 0.0015668676, 0.00002268664, -486253.72, -41427.504, 0.0, 10.015456, 9.9089155 
6.616339e+3, 2.6451162e+2, -398076.13, -490447.9, 291.45584, 0.0015669131, 0.00026523694, -398075.2, -50288.188, 0.0, 10.015551, 9.894653 
6.6163385e+3, 2.7440682e+2, -298745.16, -390865.38, 261.4092, 0.0015705783, -0.000085448104, -298744.44, -47930.297, 0.0, 10.015641, 9.8950615 
6.6163373e+3, 2.842939e+2, -212040.78, -317279.6, 211.30429, 0.0015714958, 0.00034443717, -212040.36, -58119.42, 0.0, 10.015731, 9.878317 
6.616337e+3, 2.9417324e+2, -112280.58, -216961.86, 178.97624, 0.0015688429, -0.00013547252, -112280.27, -55177.31, 0.0, 10.015818, 9.879109 
6.616336e+3, 3.0408016e+2, -23230.936, -85332.4, 100.43218, 0.0015686288, 0.00028566213, -23230.773, -23230.773, 0.0, 10.015902, 9.93413 
6.616335e+3, 3.1401604e+2, -22110.07, -83181.71, 58.82867, 0.0015719269, 0.00004140857, -22110.014, -22110.014, 0.0, 10.01598, 9.935543 
6.6263694e+3, 1.2527011e+2, -1701756.4, -1721448.9, 61.849903, 0.001569419, 0.00021635213, -1701756.3, 10598.056, 0.0, 10.0144205, 9.988308 
6.626367e+3, 1.3525827e+2, -1604322.5, -1624673.3, 54.521168, 0.0015732008, 0.000037089958, -1604322.3, 10147.955, 0.0, 10.014505, 9.987522 
6.626366e+3, 1.4523979e+2, -1516296.9, -1545687.1, 181.15988, 0.001574262, 0.0002978914, -1516295.8, 355.61154, 0.0, 10.014596, 9.975655 
6.626364e+3, 1.5521543e+2, -1418497.6, -1448364.4, 168.66206, 0.0015726588, 0.00010756536, -1418496.6, 393.4741, 0.0, 10.014691, 9.975122 
6.626363e+3, 1.6518441e+2, -1330429.4, -1369641.4, 268.76746, 0.0015724159, 0.00018830813, -1330427.5, -9233.3125, 0.0, 10.014791, 9.962943 
6.6263616e+3, 1.7514738e+2, -1232392.1, -1271996.6, 254.055, 0.0015734825, 0.00008332118, -1232390.5, -8833.735, 0.0, 10.014893, 9.96253 
6.6263604e+3, 1.851037e+2, -1144292.0, -1193563.1, 328.25507, 0.0015744703, 0.0002264861, -1144289.9, -18304.799, 0.0, 10.0149975, 9.949987 
6.626359e+3, 1.9505371e+2, -1046058.44, -1095673.6, 309.4802, 0.0015753447, 0.00009221953, -1046056.5, -17581.703, 0.0, 10.015104, 9.949643 
6.6263586e+3, 2.0499688e+2, -958071.75, -1017825.5, 354.34683, 0.0015754397, 0.00021223839, -958069.7, -27038.018, 0.0, 10.015212, 9.936527 
6.626358e+3, 2.1493344e+2, -859700.06, -919800.0, 335.12012, 0.0015747577, 0.000016781298, -859698.2, -26044.87, 0.0, 10.015322, 9.936184 
6.6263574e+3, 2.2486319e+2, -771494.8, -841907.6, 353.69473, 0.0015752149, 0.00026165237, -771493.0, -35151.25, 0.0, 10.015432, 9.922898 
6.626356e+3, 2.3478615e+2, -672975.0, -743731.06, 330.61612, 0.0015768372, 0.000046552967, -672973.44, -33876.668, 0.0, 10.015544, 9.922564 
6.626356e+3, 2.4470207e+2, -584673.25, -666042.56, 329.29956, 0.0015772866, 0.00020618914, -584671.94, -42751.273, 0.0, 10.015655, 9.908952 
6.626355e+3, 2.5461113e+2, -485845.72, -567378.06, 302.36566, 0.0015764243, 0.000022590468, -485844.6, -41032.81, 0.0, 10.015761, 9.908846 
6.6263545e+3, 2.6451305e+2, -397654.4, -490323.28, 274.84604, 0.0015768193, 0.00026536122, -397653.6, -49880.313, 0.0, 10.015868, 9.894578 
6.626354e+3, 2.7440813e+2, -298303.03, -390732.13, 246.01068, 0.0015786983, -0.000086080334, -298302.38, -47501.223, 0.0, 10.015975, 9.894986 
6.626353e+3, 2.842951e+2, -211583.97, -317148.03, 193.4458, 0.0015790446, 0.00034366376, -211583.61, -57674.887, 0.0, 10.016078, 9.878234 
6.6263527e+3, 2.941744e+2, -111807.8, -216824.39, 157.96407, 0.0015773848, -0.00013560009, -111807.555, -54715.992, 0.0, 10.016178, 9.879027 
6.626352e+3, 3.0408123e+2, -22752.227, -85203.54, 75.66771, 0.0015777249, 0.0002854477, -22752.135, -22752.135, 0.0, 10.0162735, 9.934037 
6.626351e+3, 3.1401706e+2, -21617.594, -83047.164, 36.447308, 0.0015809571, 0.000040094288, -21617.572, -21617.572, 0.0, 10.016362, 9.935451 
6.6363835e+3, 1.2527214e+2, -1701781.1, -1721490.9, 88.644196, 0.0015814172, 0.00021516101, -1701780.8, 10553.604, 0.0, 10.014419, 9.988283 
6.636382e+3, 1.3526028e+2, -1604345.9, -1624714.6, 81.27059, 0.0015788944, 0.00003694045, -1604345.5, 10105.116, 0.0, 10.014504, 9.987497 
6.6363806e+3, 1.4524178e+2, -1516328.9, -1545746.0, 211.96388, 0.0015791546, 0.0002977198, -1516327.3, 304.6906, 0.0, 10.014595, 9.975618 
6.636379e+3, 1.5521736e+2, -1418529.0, -1448422.8, 199.71724, 0.0015817232, 0.00010640139, -1418527.6, 343.48282, 0.0, 10.014691, 9.975086 
6.6363776e+3, 1.651863e+2, -1330463.1, -1369705.5, 302.1195, 0.0015828691, 0.00018737646, -1330460.9, -9285.267, 0.0, 10.014791, 9.962903 
6.6363764e+3, 1.7514925e+2, -1232425.0, -1272060.0, 287.2769, 0.0015827582, 0.000083754545, -1232422.9, -8884.312, 0.0, 10.014893, 9.96249 
6.636376e+3, 1.851055e+2, -1144331.8, -1193641.3, 363.55493, 0.0015824446, 0.00022653797, -1144329.1, -18361.846, 0.0, 10.0149975, 9.949938 
6.6363746e+3, 1.9505548e+2, -1046097.25, -1095751.0, 344.9303, 0.0015818992, 0.000090227724, -1046094.8, -17637.305, 0.0, 10.015105, 9.9495945 
6.636374e+3, 2.049986e+2, -958111.1, -1017905.25, 390.58807, 0.0015829894, 0.00021067438, -958108.56, -27093.742, 0.0, 10.015214, 9.936477 
6.636373e+3, 2.1493512e+2, -859738.44, -919879.06, 371.3151, 0.0015856886, 0.000018090106, -859736.1, -26099.129, 0.0, 10.015324, 9.936132 
6.636373e+3, 2.2486481e+2, -771540.75, -842002.7, 391.04938, 0.0015856324, 0.00026305876, -771538.6, -35212.586, 0.0, 10.015434, 9.922837 
6.636372e+3, 2.3478769e+2, -673020.3, -743825.7, 367.97266, 0.0015826927, 0.0000451711, -673018.4, -33936.746, 0.0, 10.015547, 9.922502 
6.6363716e+3, 2.4470355e+2, -584724.94, -666151.3, 365.07913, 0.0015831876, 0.00020388539, -584723.3, -42817.1, 0.0, 10.015656, 9.90888 
6.636371e+3, 2.5461254e+2, -485896.06, -567486.1, 338.30548, 0.0015874604, 0.000021425683, -485894.66, -41096.66, 0.0, 10.015764, 9.908773 
6.6363704e+3, 2.645144e+2, -397705.44, -490434.34, 310.32477, 0.0015884583, 0.0002654161, -397704.38, -49944.176, 0.0, 10.015872, 9.894505 
6.63637e+3, 2.7440938e+2, -298353.03, -390842.5, 281.1573, 0.0015855655, -0.00008470684, -298352.2, -47563.418, 0.0, 10.015978, 9.894913 
6.636369e+3, 2.842963e+2, -211641.63, -317275.28, 226.56631, 0.0015848796, 0.00034434465, -211641.14, -57743.996, 0.0, 10.016082, 9.878149 
6.6363686e+3, 2.941755e+2, -111865.16, -216952.02, 191.49223, 0.0015869983, -0.00013820393, -111864.805, -54783.95, 0.0, 10.016182, 9.878941 
6.636368e+3, 3.0408224e+2, -22809.639, -85332.94, 105.112724, 0.0015884782, 0.00028243888, -22809.46, -22809.46, 0.0, 10.016277, 9.9339485 
6.6363674e+3, 3.1401798e+2, -21673.37, -83176.08, 64.847725, 0.0015891254, 0.00004075244, -21673.3, -21673.3, 0.0, 10.016367, 9.935361 
6.646398e+3, 1.2527408e+2, -1701584.9, -1721415.8, 63.342472, 0.0015892558, 0.00021437727, -1701584.8, 10730.746, 0.0, 10.014553, 9.988257 
6.6463965e+3, 1.3526218e+2, -1604124.5, -1624626.8, 55.383095, 0.0015874727, 0.00003752571, -1604124.4, 10307.566, 0.0, 10.014655, 9.987472 
6.646395e+3, 1.4524363e+2, -1516092.1, -1545659.1, 189.25606, 0.001587815, 0.00029807558, -1516091.0, 522.67444, 0.0, 10.014761, 9.975585 
6.6463935e+3, 1.552192e+2, -1418274.3, -1448327.0, 178.37, 0.001589863, 0.00010508006, -1418273.3, 579.9014, 0.0, 10.014869, 9.975053 
6.6463923e+3, 1.6518809e+2, -1330195.5, -1369613.0, 283.43622, 0.0015909438, 0.00018593975, -1330193.5, -9035.595, 0.0, 10.014981, 9.962861 
6.646392e+3, 1.7515102e+2, -1232136.9, -1271957.5, 267.48422, 0.0015911893, 0.000083644074, -1232135.0, -8613.687, 0.0, 10.015098, 9.962448 
6.6463906e+3, 1.8510722e+2, -1144028.6, -1193538.8, 345.21115, 0.0015910537, 0.00022675414, -1144026.3, -18075.793, 0.0, 10.015216, 9.949889 
6.64639e+3, 1.9505714e+2, -1045775.25, -1095639.5, 327.1319, 0.0015905151, 0.000089820176, -1045773.06, -17331.896, 0.0, 10.015336, 9.949546 
6.6463894e+3, 2.050002e+2, -957773.0, -1017790.94, 373.41025, 0.0015913538, 0.00020988626, -957770.6, -26771.637, 0.0, 10.015458, 9.936424 
6.646389e+3, 2.1493667e+2, -859381.25, -919755.94, 353.44385, 0.0015935455, 0.000017163582, -859379.2, -25757.482, 0.0, 10.015581, 9.936081 
6.646388e+3, 2.248663e+2, -771173.25, -841886.94, 373.2224, 0.0015938197, 0.00026244257, -771171.25, -34860.02, 0.0, 10.015705, 9.922774 
6.6463876e+3, 2.3478913e+2, -672636.3, -743702.75, 349.60132, 0.0015920812, 0.000045332265, -672634.6, -33567.133, 0.0, 10.015829, 9.922439 
6.646387e+3, 2.4470493e+2, -584327.4, -666030.5, 345.65878, 0.0015924902, 0.00020380557, -584325.94, -42433.258, 0.0, 10.015953, 9.908811 
6.646387e+3, 2.5461385e+2, -485478.4, -567356.56, 319.5646, 0.0015952548, 0.00001998039, -485477.16, -40691.945, 0.0, 10.016076, 9.908704 
6.646387e+3, 2.645156e+2, -397274.4, -490308.7, 289.67938, 0.001595925, 0.00026419468, -397273.5, -49525.38, 0.0, 10.016197, 9.894426 
6.6463864e+3, 2.7441055e+2, -297905.28, -390710.2, 257.8198, 0.0015941048, -0.000083818355, -297904.56, -47127.113, 0.0, 10.016316, 9.894834 
6.646386e+3, 2.8429738e+2, -211178.36, -317138.84, 200.22273, 0.0015941354, 0.00034519102, -211177.98, -57291.387, 0.0, 10.016433, 9.878068 
6.646385e+3, 2.9417652e+2, -111387.195, -216809.92, 167.50267, 0.0015965095, -0.0001401688, -111386.93, -54315.813, 0.0, 10.016545, 9.8788595 
6.6463846e+3, 3.0408314e+2, -22325.809, -85207.484, 78.927574, 0.001597438, 0.0002804126, -22325.709, -22325.709, 0.0, 10.016656, 9.933851 
6.646384e+3, 3.1401876e+2, -21162.213, -83039.125, 33.502613, 0.0015964103, 0.00004255376, -21162.195, -21162.195, 0.0, 10.016765, 9.935263 
6.6564125e+3, 1.2527592e+2, -1701610.8, -1721460.6, 96.05983, 0.0015946458, 0.00021379936, -1701610.3, 10687.057, 0.0, 10.014552, 9.988231 
6.656411e+3, 1.3526401e+2, -1604150.5, -1624671.6, 88.2404, 0.0015977613, 0.000038456645, -1604150.1, 10263.909, 0.0, 10.014653, 9.987445 
6.6564095e+3, 1.4524543e+2, -1516122.0, -1545712.3, 224.38603, 0.0015987098, 0.0002986636, -1516120.4, 475.64868, 0.0, 10.014759, 9.975553 
6.656409e+3, 1.5522096e+2, -1418302.8, -1448379.4, 213.39868, 0.0015974747, 0.0001036477, -1418301.3, 534.6491, 0.0, 10.014868, 9.97502 
6.656408e+3, 1.6518982e+2, -1330232.1, -1369682.4, 321.48233, 0.0015976329, 0.0001841911, -1330229.5, -9088.459, 0.0, 10.014981, 9.962818 
6.6564065e+3, 1.7515269e+2, -1232172.5, -1272026.3, 305.69775, 0.0015991335, 0.000083148305, -1232170.1, -8665.339, 0.0, 10.015098, 9.962404 
6.656406e+3, 1.8510886e+2, -1144067.4, -1193614.3, 385.17514, 0.0016000519, 0.00022699455, -1144064.4, -18130.023, 0.0, 10.015216, 9.9498415 
6.6564053e+3, 1.9505873e+2, -1045813.25, -1095714.4, 367.00262, 0.0016003752, 0.000090306035, -1045810.56, -17384.973, 0.0, 10.015337, 9.949498 
6.656405e+3, 2.0500176e+2, -957814.56, -1017874.0, 414.21408, 0.0016002331, 0.00020952501, -957811.7, -26827.803, 0.0, 10.015459, 9.936371 
6.656404e+3, 2.1493815e+2, -859421.56, -919838.1, 394.35803, 0.0015996252, 0.000014877988, -859419.0, -25811.9, 0.0, 10.015582, 9.936028 
6.6564035e+3, 2.2486773e+2, -771220.7, -841984.44, 414.77158, 0.0016007237, 0.00026058187, -771218.25, -34921.023, 0.0, 10.015706, 9.922711 
6.6564035e+3, 2.3479052e+2, -672683.1, -743799.75, 391.13937, 0.0016035731, 0.000046335786, -672680.94, -33626.867, 0.0, 10.015831, 9.922375 
6.6564035e+3, 2.4470624e+2, -584377.7, -666135.94, 386.66092, 0.0016038216, 0.000204986, -584375.9, -42495.953, 0.0, 10.015955, 9.908742 
6.656403e+3, 2.5461507e+2, -485527.5, -567461.25, 360.46524, 0.0016011843, 0.000018372513, -485525.9, -40752.766, 0.0, 10.016078, 9.908634 
6.656403e+3, 2.6451674e+2, -397331.53, -490431.0, 329.5094, 0.0016009925, 0.00026220627, -397330.38, -49593.574, 0.0, 10.0162, 9.894345 
6.6564023e+3, 2.7441162e+2, -297961.97, -390832.6, 298.0118, 0.0016036914, -0.00008333389, -297961.03, -47194.113, 0.0, 10.016319, 9.894752 
6.656402e+3, 2.8429836e+2, -211231.64, -317256.03, 237.83801, 0.0016054517, 0.0003460259, -211231.11, -57354.273, 0.0, 10.016436, 9.87799 
6.656402e+3, 2.9417744e+2, -111438.24, -216925.4, 204.36853, 0.0016059646, -0.00014171559, -111437.84, -54375.707, 0.0, 10.016549, 9.878781 
6.656401e+3, 3.0408394e+2, -22391.701, -85355.09, 114.65605, 0.0016053629, 0.00027901586, -22391.494, -22391.494, 0.0, 10.01666, 9.933749 
6.656401e+3, 3.140195e+2, -21230.322, -83190.36, 69.932625, 0.0016032942, 0.000044880482, -21230.244, -21230.244, 0.0, 10.016768, 9.935159 
6.666427e+3, 1.2527767e+2, -1701417.3, -1721386.3, 64.99092, 0.0016026476, 0.00021365906, -1701417.0, 10863.233, 0.0, 10.014685, 9.988205 
6.666426e+3, 1.3526572e+2, -1603941.0, -1624589.3, 57.95176, 0.0016061147, 0.00003684674, -1603940.9, 10456.421, 0.0, 10.014797, 9.987419 
6.666425e+3, 1.4524712e+2, -1515898.1, -1545632.6, 197.7447, 0.0016072637, 0.00029723154, -1515896.9, 682.65564, 0.0, 10.014916, 9.975519 
6.666423e+3, 1.5522261e+2, -1418052.9, -1448286.8, 185.75346, 0.0016060817, 0.00010387739, -1418051.8, 767.8826, 0.0, 10.015042, 9.974986 
6.6664225e+3, 1.6519144e+2, -1329965.5, -1369590.3, 295.6368, 0.001606008, 0.00018449569, -1329963.3, -8838.09, 0.0, 10.015171, 9.962776 
6.666422e+3, 1.7515427e+2, -1231886.0, -1271924.4, 280.54926, 0.0016070165, 0.00008207012, -1231884.0, -8394.561, 0.0, 10.015301, 9.962363 
6.666421e+3, 1.8511038e+2, -1143767.3, -1193514.8, 361.25287, 0.0016080564, 0.00022572122, -1143764.6, -17845.244, 0.0, 10.015432, 9.949793 
6.6664207e+3, 1.9506021e+2, -1045494.56, -1095606.0, 342.08255, 0.001609081, 0.00008996106, -1045492.2, -17081.074, 0.0, 10.015567, 9.949449 
6.6664207e+3, 2.0500319e+2, -957477.9, -1017760.56, 390.20377, 0.0016091057, 0.0002094603, -957475.3, -26505.383, 0.0, 10.015702, 9.936318 
6.66642e+3, 2.1493953e+2, -859063.7, -919714.75, 370.58337, 0.0016081372, 0.0000144570995, -859061.4, -25467.725, 0.0, 10.015841, 9.935975 
6.66642e+3, 2.2486904e+2, -770851.8, -841869.7, 390.6908, 0.0016089566, 0.0002597815, -770849.7, -34565.277, 0.0, 10.015979, 9.922647 
6.6664195e+3, 2.3479174e+2, -672296.56, -743677.2, 366.4764, 0.0016116104, 0.00004513169, -672294.7, -33252.848, 0.0, 10.016116, 9.922311 
6.6664195e+3, 2.447074e+2, -583976.7, -666014.56, 361.02396, 0.001612012, 0.00020436295, -583975.06, -42106.723, 0.0, 10.016254, 9.90867 
6.6664195e+3, 2.546162e+2, -485106.28, -567331.1, 333.71664, 0.0016099132, 0.000019417383, -485104.94, -40342.69, 0.0, 10.016393, 9.908564 
6.666419e+3, 2.6451778e+2, -396895.88, -490302.0, 300.9925, 0.0016100002, 0.00026264065, -396894.9, -49168.273, 0.0, 10.016528, 9.894267 
6.666419e+3, 2.744126e+2, -297510.2, -390697.16, 271.30038, 0.0016126691, -0.000086204906, -297509.4, -46751.855, 0.0, 10.01666, 9.894674 
6.666419e+3, 2.8429925e+2, -210764.9, -317123.4, 208.8526, 0.0016138363, 0.0003434496, -210764.5, -56896.234, 0.0, 10.016791, 9.877904 
6.6664183e+3, 2.9417822e+2, -110947.836, -216783.19, 170.864, 0.0016130345, -0.00013938153, -110947.555, -53893.188, 0.0, 10.016923, 9.8786955 
6.666418e+3, 3.0408466e+2, -21890.682, -85218.945, 77.932396, 0.0016129477, 0.00028157304, -21890.586, -21890.586, 0.0, 10.017049, 9.933655 
6.666418e+3, 3.140201e+2, -20715.137, -83048.3, 37.01895, 0.001613964, 0.000041094096, -20715.115, -20715.115, 0.0, 10.017168, 9.935062 
6.676442e+3, 1.252793e+2, -1701443.1, -1721428.6, 101.06931, 0.0016121934, 0.00021370067, -1701442.6, 10821.465, 0.0, 10.014682, 9.988181 
6.67644e+3, 1.3526735e+2, -1603964.6, -1624630.6, 94.1096, 0.0016133306, 0.000033731183, -1603964.3, 10417.161, 0.0, 10.014795, 9.987394 
6.6764396e+3, 1.4524871e+2, -1515929.6, -1545690.3, 238.87572, 0.0016144395, 0.00029459645, -1515927.8, 636.1308, 0.0, 10.014915, 9.975484 
6.6764385e+3, 1.5522417e+2, -1418084.4, -1448344.3, 226.95776, 0.0016152767, 0.00010499751, -1418082.8, 721.6654, 0.0, 10.015041, 9.974951 
6.676438e+3, 1.6519296e+2, -1330001.3, -1369656.8, 338.41257, 0.001615389, 0.00018591712, -1329998.4, -8888.132, 0.0, 10.01517, 9.962735 
6.676437e+3, 1.7515574e+2, -1231920.6, -1271990.1, 323.2986, 0.0016148988, 0.000080617414, -1231918.0, -8443.071, 0.0, 10.0153, 9.962322 
6.6764367e+3, 1.8511182e+2, -1143808.8, -1193594.9, 405.51035, 0.0016155108, 0.00022353421, -1143805.4, -17900.021, 0.0, 10.015432, 9.949742 
6.6764367e+3, 1.9506158e+2, -1045534.9, -1095685.4, 386.46048, 0.0016171203, 0.000089063746, -1045531.9, -17134.3, 0.0, 10.015567, 9.949398 
6.676436e+3, 2.0500451e+2, -957518.94, -1017842.4, 436.35175, 0.001617984, 0.000209495, -957515.8, -26558.922, 0.0, 10.015703, 9.936266 
6.676436e+3, 2.1494082e+2, -859104.3, -919796.06, 416.5974, 0.0016181056, 0.000015074363, -859101.44, -25520.322, 0.0, 10.0158415, 9.935923 
6.6764355e+3, 2.2487026e+2, -770901.4, -841969.94, 436.4321, 0.0016180092, 0.00025956417, -770898.75, -34626.33, 0.0, 10.01598, 9.922583 
6.6764355e+3, 2.347929e+2, -672344.7, -743776.6, 412.3409, 0.0016176645, 0.000042608383, -672342.3, -33311.78, 0.0, 10.016118, 9.922246 
6.6764355e+3, 2.447085e+2, -584029.5, -666124.75, 407.34518, 0.0016184038, 0.00020263222, -584027.5, -42169.805, 0.0, 10.016256, 9.908599 
6.6764355e+3, 2.546172e+2, -485158.9, -567441.06, 380.1545, 0.0016203223, 0.000021895456, -485157.13, -40404.87, 0.0, 10.016395, 9.908491 
6.6764355e+3, 2.6451874e+2, -396950.03, -490416.44, 345.2145, 0.0016213494, 0.00026440134, -396948.75, -49231.363, 0.0, 10.01653, 9.894192 
6.6764355e+3, 2.7441347e+2, -297562.5, -390810.53, 315.15927, 0.0016213142, -0.00009098843, -297561.44, -46812.387, 0.0, 10.016663, 9.894599 
6.6764355e+3, 2.8430003e+2, -210826.83, -317258.25, 252.49959, 0.0016205484, 0.00033891646, -210826.23, -56965.637, 0.0, 10.016795, 9.877813 
6.6764355e+3, 2.941789e+2, -111009.84, -216918.81, 215.11525, 0.0016188105, -0.00013495548, -111009.41, -53961.86, 0.0, 10.016926, 9.878604 
6.676435e+3, 3.0408525e+2, -21950.885, -85351.836, 117.97377, 0.001620428, 0.00028625506, -21950.666, -21950.666, 0.0, 10.017052, 9.933563 
6.676435e+3, 3.140206e+2, -20774.139, -83180.56, 76.11921, 0.0016268416, 0.000033818676, -20774.047, -20774.047, 0.0, 10.017172, 9.934972 
6.686457e+3, 1.2528083e+2, -1701268.3, -1721363.8, 64.73542, 0.0016212093, 0.00021255125, -1701268.1, 10981.137, 0.0, 10.014803, 9.988156 
6.6864556e+3, 1.3526882e+2, -1603756.6, -1624548.6, 57.612446, 0.0016211615, 0.00003382322, -1603756.4, 10610.32, 0.0, 10.014938, 9.98737 
6.6864544e+3, 1.4525019e+2, -1515704.5, -1545610.9, 204.67241, 0.001621985, 0.0002946268, -1515703.1, 846.49414, 0.0, 10.015075, 9.975449 
6.686454e+3, 1.552256e+2, -1417841.4, -1448256.1, 192.92723, 0.0016233373, 0.00010378909, -1417840.1, 950.28296, 0.0, 10.015212, 9.974916 
6.686453e+3, 1.6519435e+2, -1329742.9, -1369569.0, 306.586, 0.0016238992, 0.00018471733, -1329740.5, -8643.793, 0.0, 10.015354, 9.962693 
6.6864526e+3, 1.7515709e+2, -1231638.6, -1271890.9, 290.93506, 0.0016238005, 0.00008057598, -1231636.6, -8174.824, 0.0, 10.015501, 9.96228 
6.686452e+3, 1.8511312e+2, -1143510.3, -1193496.8, 374.03857, 0.0016241595, 0.00022351573, -1143507.4, -17614.785, 0.0, 10.015649, 9.949692 
6.686452e+3, 1.9506283e+2, -1045214.75, -1095576.8, 355.2155, 0.0016249035, 0.00008799096, -1045212.25, -16826.912, 0.0, 10.015798, 9.949348 
6.6864514e+3, 2.050057e+2, -957182.44, -1017731.3, 405.538, 0.0016257841, 0.00020830259, -957179.7, -26234.543, 0.0, 10.015947, 9.936212 
6.6864514e+3, 2.1494195e+2, -858750.1, -919676.9, 384.52084, 0.0016267918, 0.000014686044, -858747.7, -25177.793, 0.0, 10.016099, 9.935868 
6.6864514e+3, 2.2487135e+2, -770533.7, -841855.7, 404.45108, 0.001626874, 0.00025961112, -770531.44, -34269.645, 0.0, 10.016252, 9.922519 
6.686452e+3, 2.3479393e+2, -671953.75, -743651.6, 380.62952, 0.0016259744, 0.0000427091, -671951.75, -32931.203, 0.0, 10.016406, 9.922182 
6.686452e+3, 2.4470946e+2, -583624.06, -666002.0, 374.64856, 0.0016266223, 0.00020192108, -583622.3, -41773.99, 0.0, 10.016559, 9.908527 
6.686452e+3, 2.5461808e+2, -484738.0, -567311.94, 347.5415, 0.0016289591, 0.000019417603, -484736.53, -39992.887, 0.0, 10.016708, 9.90842 
6.686452e+3, 2.6451954e+2, -396514.34, -490289.47, 310.8519, 0.0016298979, 0.0002628305, -396513.3, -48803.82, 0.0, 10.016859, 9.894113 
6.6864526e+3, 2.7441418e+2, -297102.84, -390673.3, 278.54993, 0.0016291757, -0.00008848397, -297102.03, -46360.105, 0.0, 10.01701, 9.894519 
6.6864526e+3, 2.8430066e+2, -210349.58, -317119.63, 213.84927, 0.0016287167, 0.0003409373, -210349.16, -56494.887, 0.0, 10.017158, 9.877729 
6.6864526e+3, 2.9417947e+2, -110517.04, -216774.38, 179.17154, 0.0016285597, -0.00013927373, -110516.734, -53474.64, 0.0, 10.017301, 9.878519 
6.6864526e+3, 3.0408576e+2, -21449.242, -85217.914, 80.08366, 0.0016299598, 0.0002816486, -21449.14, -21449.14, 0.0, 10.017443, 9.933466 
6.686452e+3, 3.1402096e+2, -20246.033, -83035.09, 34.05717, 0.0016336344, 0.000037453923, -20246.014, -20246.014, 0.0, 10.017581, 9.934874 
6.6964716e+3, 1.2528224e+2, -1701293.3, -1721406.4, 108.69321, 0.0016298733, 0.00021066745, -1701292.6, 10942.739, 0.0, 10.014801, 9.988131 
6.696471e+3, 1.3527022e+2, -1603782.1, -1624591.6, 101.51669, 0.001629377, 0.00003568565, -1603781.6, 10571.489, 0.0, 10.0149355, 9.987344 
6.69647e+3, 1.4525154e+2, -1515737.4, -1545668.6, 249.66399, 0.0016297897, 0.0002961171, -1515735.3, 800.9651, 0.0, 10.015073, 9.975414 
6.6964686e+3, 1.5522692e+2, -1417872.4, -1448312.8, 238.06007, 0.0016307528, 0.00010118831, -1417870.5, 906.97076, 0.0, 10.015211, 9.974881 
6.696468e+3, 1.6519561e+2, -1329779.4, -1369637.8, 354.90872, 0.001631903, 0.00018195708, -1329776.3, -8692.135, 0.0, 10.015354, 9.96265 
6.696468e+3, 1.7515832e+2, -1231675.0, -1271959.3, 339.22513, 0.0016332944, 0.00008126997, -1231672.1, -8222.549, 0.0, 10.0155, 9.962237 
6.696468e+3, 1.8511432e+2, -1143551.8, -1193576.0, 423.41638, 0.0016335159, 0.00022467125, -1143548.1, -17667.252, 0.0, 10.015648, 9.949642 
6.696468e+3, 1.9506398e+2, -1045255.2, -1095655.1, 404.6047, 0.0016325803, 0.00008677447, -1045251.94, -16877.852, 0.0, 10.015798, 9.949299 
6.696468e+3, 2.0500681e+2, -957226.94, -1017819.0, 455.77466, 0.0016330013, 0.0002063613, -957223.56, -26289.084, 0.0, 10.015948, 9.936156 
6.696468e+3, 2.1494299e+2, -858793.56, -919763.8, 434.84586, 0.0016347505, 0.0000136437075, -858790.44, -25230.719, 0.0, 10.016099, 9.935812 
6.696468e+3, 2.2487234e+2, -770582.8, -841954.56, 456.23856, 0.0016356464, 0.0002597236, -770579.9, -34327.703, 0.0, 10.0162525, 9.922455 
6.696468e+3, 2.3479484e+2, -672002.6, -743750.25, 432.362, 0.0016356355, 0.00004424148, -672000.0, -32988.438, 0.0, 10.016407, 9.922118 
6.6964686e+3, 2.447103e+2, -583677.9, -666111.94, 424.6864, 0.001635947, 0.00020174524, -583675.7, -41835.633, 0.0, 10.01656, 9.908456 
6.6964686e+3, 2.5461885e+2, -484790.03, -567420.94, 397.581, 0.001636596, 0.000014087248, -484788.1, -40052.01, 0.0, 10.01671, 9.908348 
6.696469e+3, 2.6452023e+2, -396572.84, -490413.1, 361.37048, 0.0016368566, 0.00025931327, -396571.47, -48868.77, 0.0, 10.016861, 9.894032 
6.696469e+3, 2.744148e+2, -297161.34, -390797.06, 329.29288, 0.0016366527, -0.00008194486, -297160.16, -46424.324, 0.0, 10.017012, 9.894437 
6.69647e+3, 2.8430122e+2, -210407.56, -317243.47, 262.08218, 0.0016377954, 0.0003465875, -210406.92, -56557.93, 0.0, 10.017159, 9.877646 
6.69647e+3, 2.941799e+2, -110573.41, -216897.08, 226.96666, 0.0016406238, -0.00014855807, -110572.92, -53535.188, 0.0, 10.017303, 9.878436 
6.69647e+3, 3.040861e+2, -21516.498, -85365.195, 125.93587, 0.0016406996, 0.0002717805, -21516.25, -21516.25, 0.0, 10.017446, 9.933366 
6.69647e+3, 3.1402123e+2, -20313.455, -83184.47, 80.0854, 0.0016370125, 0.000047184956, -20313.354, -20313.354, 0.0, 10.017585, 9.934771 
6.7064863e+3, 1.252835e+2, -1701117.6, -1721342.3, 65.407036, 0.0016368794, 0.00021023782, -1701117.4, 11105.654, 0.0, 10.014923, 9.988105 
6.706485e+3, 1.3527146e+2, -1603588.6, -1624518.5, 57.813, 0.0016382645, 0.000034794873, -1603588.5, 10752.599, 0.0, 10.01507, 9.987318 
6.706485e+3, 1.4525273e+2, -1515525.9, -1545595.9, 208.89597, 0.0016390102, 0.00029525647, -1515524.4, 1000.0633, 0.0, 10.015223, 9.97538 
6.7064846e+3, 1.552281e+2, -1417630.6, -1448224.6, 197.50064, 0.001638901, 0.00010079794, -1417629.3, 1136.7083, 0.0, 10.015381, 9.974847 
6.706484e+3, 1.6519675e+2, -1329520.5, -1369551.8, 315.30573, 0.0016396632, 0.00018148705, -1329518.0, -8444.953, 0.0, 10.01554, 9.962607 
6.706484e+3, 1.7515941e+2, -1231396.9, -1271863.9, 299.0245, 0.001641297, 0.00008021793, -1231394.6, -7955.6816, 0.0, 10.015699, 9.9621935 
6.7064834e+3, 1.8511535e+2, -1143257.6, -1193480.5, 384.2101, 0.0016418487, 0.0002237625, -1143254.8, -17384.006, 0.0, 10.0158615, 9.949593 
6.706484e+3, 1.9506498e+2, -1044938.7, -1095548.8, 364.9357, 0.0016413247, 0.0000866938, -1044936.06, -16571.656, 0.0, 10.0160265, 9.949249 
6.706484e+3, 2.0500773e+2, -956892.0, -1017710.06, 416.45767, 0.0016416087, 0.00020626032, -956889.1, -25963.871, 0.0, 10.0161915, 9.9361 
6.7064846e+3, 2.1494387e+2, -858436.6, -919644.44, 395.54022, 0.0016426792, 0.000012689475, -858434.06, -24882.945, 0.0, 10.016358, 9.935757 
6.7064846e+3, 2.2487316e+2, -770213.4, -841840.7, 416.8536, 0.0016436267, 0.0002583943, -770211.0, -33966.82, 0.0, 10.016525, 9.92239 
6.706485e+3, 2.347956e+2, -671616.56, -743629.06, 392.11716, 0.0016444238, 0.000043033346, -671614.44, -32610.252, 0.0, 10.016692, 9.922053 
6.706485e+3, 2.4471098e+2, -583275.2, -665990.7, 383.5881, 0.0016447561, 0.00020139996, -583273.4, -41440.06, 0.0, 10.01686, 9.908384 
6.706486e+3, 2.5461948e+2, -484361.84, -567288.25, 356.21747, 0.0016445586, 0.000015423215, -484360.3, -39630.25, 0.0, 10.01703, 9.908276 
6.7064863e+3, 2.645208e+2, -396129.03, -490283.1, 318.56937, 0.0016447713, 0.00025969362, -396127.94, -48430.55, 0.0, 10.017196, 9.893951 
6.706487e+3, 2.7441525e+2, -296702.03, -390661.13, 287.07642, 0.0016454639, -0.00008563715, -296701.16, -45969.766, 0.0, 10.017359, 9.894357 
6.706487e+3, 2.8430158e+2, -209932.22, -317107.13, 217.70154, 0.0016467123, 0.00034349962, -209931.78, -56086.44, 0.0, 10.017521, 9.877561 
6.7064875e+3, 2.941802e+2, -110074.95, -216751.25, 180.06346, 0.0016486312, -0.0001450462, -110074.65, -53039.773, 0.0, 10.017683, 9.87835 
6.7064875e+3, 3.040863e+2, -21004.584, -85227.7, 77.68361, 0.0016485815, 0.0002756699, -21004.49, -21004.49, 0.0, 10.017843, 9.933268 
6.7064875e+3, 3.1402132e+2, -19774.258, -83035.03, 33.124214, 0.001645875, 0.000042733755, -19774.242, -19774.242, 0.0, 10.018002, 9.934671 
6.716502e+3, 1.2528464e+2, -1701145.6, -1721388.1, 113.0759, 0.0016429878, 0.00021056703, -1701145.0, 11066.95, 0.0, 10.01492, 9.988078 
6.7165005e+3, 1.3527256e+2, -1603614.4, -1624563.3, 105.69913, 0.0016475029, 0.000032256405, -1603613.9, 10716.291, 0.0, 10.015068, 9.987291 
6.7165e+3, 1.452538e+2, -1515557.1, -1545652.0, 261.2085, 0.0016490009, 0.0002929814, -1515554.9, 959.0047, 0.0, 10.015222, 9.975346 
6.7164993e+3, 1.5522914e+2, -1417662.1, -1448280.9, 249.6436, 0.0016474942, 0.000101598656, -1417660.1, 1095.5886, 0.0, 10.015379, 9.9748125 
6.7164993e+3, 1.6519777e+2, -1329559.9, -1369623.9, 367.80533, 0.0016473271, 0.00018225676, -1329556.5, -8493.345, 0.0, 10.015538, 9.962563 
6.7164993e+3, 1.7516036e+2, -1231434.5, -1271935.0, 351.67447, 0.0016484621, 0.0000781045, -1231431.4, -8001.933, 0.0, 10.015698, 9.96215 
6.7164993e+3, 1.8511628e+2, -1143299.9, -1193561.5, 438.9993, 0.0016496024, 0.00022160495, -1143296.0, -17434.287, 0.0, 10.015861, 9.949541 
6.7165e+3, 1.9506584e+2, -1044980.7, -1095629.4, 419.70547, 0.0016506945, 0.00008717477, -1044977.25, -16621.307, 0.0, 10.016026, 9.949198 
6.7165e+3, 2.0500855e+2, -956937.44, -1017797.9, 472.03214, 0.0016510375, 0.00020712678, -956933.75, -26016.465, 0.0, 10.0161915, 9.936045 
6.7165005e+3, 2.1494463e+2, -858481.06, -919731.56, 451.06497, 0.0016506345, 0.000011726641, -858477.75, -24934.055, 0.0, 10.016358, 9.935701 
6.716501e+3, 2.2487384e+2, -770265.1, -841943.6, 472.49603, 0.0016511941, 0.00025619392, -770262.0, -34024.67, 0.0, 10.016526, 9.922323 
6.716502e+3, 2.3479623e+2, -671667.0, -743731.2, 447.86993, 0.0016527268, 0.00004020729, -671664.2, -32666.195, 0.0, 10.016693, 9.921987 
6.7165023e+3, 2.4471155e+2, -583329.56, -666101.6, 440.31055, 0.0016532899, 0.00020087867, -583327.2, -41499.375, 0.0, 10.016861, 9.908312 
6.716503e+3, 2.5462e+2, -484416.22, -567399.0, 412.91852, 0.0016527681, 0.00002043417, -484414.16, -39688.93, 0.0, 10.01703, 9.908204 
6.7165035e+3, 2.6452118e+2, -396188.13, -490404.6, 373.09338, 0.0016533, 0.0002621997, -396186.66, -48493.336, 0.0, 10.017197, 9.893871 
6.716504e+3, 2.7441558e+2, -296759.47, -390781.78, 341.67764, 0.0016550726, -0.00009513528, -296758.22, -46030.047, 0.0, 10.01736, 9.894277 
6.716504e+3, 2.8430182e+2, -209994.88, -317240.72, 272.09134, 0.0016555638, 0.0003354418, -209994.19, -56151.242, 0.0, 10.017523, 9.877472 
6.7165047e+3, 2.9418036e+2, -110136.71, -216884.7, 234.40273, 0.0016543717, -0.00013443713, -110136.195, -53102.973, 0.0, 10.017685, 9.878261 
6.716505e+3, 3.0408636e+2, -21070.496, -85370.11, 130.74811, 0.0016548992, 0.00028719168, -21070.23, -21070.23, 0.0, 10.017845, 9.93317 
6.716506e+3, 3.140213e+2, -19841.568, -83178.93, 86.408936, 0.0016579466, 0.000030245536, -19841.45, -19841.45, 0.0, 10.018003, 9.934573 
6.7265165e+3, 1.2528561e+2, -1700986.0, -1721332.4, 63.51254, 0.0016523829, 0.00021009208, -1700985.9, 11216.596, 0.0, 10.015033, 9.988052 
6.726516e+3, 1.3527352e+2, -1603419.9, -1624489.3, 56.540245, 0.0016547552, 0.0000312546, -1603419.8, 10901.217, 0.0, 10.0152025, 9.987266 
6.726515e+3, 1.4525473e+2, -1515344.6, -1545581.3, 213.23828, 0.0016561289, 0.00029199195, -1515343.1, 1161.8625, 0.0, 10.015373, 9.975309 
6.726515e+3, 1.5523002e+2, -1417430.4, -1448200.5, 200.36371, 0.0016563026, 0.00010110437, -1417429.1, 1318.1031, 0.0, 10.015544, 9.974776 
6.726515e+3, 1.651986e+2, -1329309.5, -1369542.4, 319.81998, 0.0016563652, 0.00018185936, -1329307.0, -8251.958, 0.0, 10.015719, 9.962519 
6.726515e+3, 1.7516117e+2, -1231155.8, -1271839.3, 303.92886, 0.0016564012, 0.00007744258, -1231153.5, -7731.7256, 0.0, 10.015898, 9.962106 
6.726516e+3, 1.85117e+2, -1143004.4, -1193467.1, 391.18716, 0.0016573175, 0.00022075878, -1143001.3, -17146.785, 0.0, 10.016076, 9.94949 
6.726516e+3, 1.9506653e+2, -1044666.9, -1095526.3, 371.2033, 0.0016590102, 0.000086217406, -1044664.2, -16315.029, 0.0, 10.016253, 9.949146 
6.7265165e+3, 2.0500919e+2, -956607.06, -1017692.8, 424.07996, 0.0016596351, 0.00020632349, -956604.1, -25693.053, 0.0, 10.016433, 9.935988 
6.726517e+3, 2.1494521e+2, -858128.9, -919616.1, 402.28833, 0.0016592006, 0.000011342272, -858126.25, -24588.213, 0.0, 10.016616, 9.935644 
6.7265177e+3, 2.2487436e+2, -769896.56, -841830.6, 423.53336, 0.0016595084, 0.00025599374, -769894.06, -33661.785, 0.0, 10.016799, 9.922258 
6.726518e+3, 2.3479667e+2, -671275.2, -743607.5, 399.07068, 0.0016605603, 0.00003994913, -671272.94, -32279.395, 0.0, 10.016983, 9.921921 
6.726519e+3, 2.4471194e+2, -582923.1, -665980.1, 390.62323, 0.001661266, 0.00020005165, -582921.3, -41097.215, 0.0, 10.017165, 9.908239 
6.72652e+3, 2.5462028e+2, -483994.1, -567271.0, 362.50815, 0.0016615738, 0.000018474433, -483992.53, -39270.324, 0.0, 10.017346, 9.908131 
6.726521e+3, 2.6452142e+2, -395748.7, -490274.78, 321.758, 0.0016622479, 0.00026098057, -395747.6, -48056.57, 0.0, 10.017528, 9.893793 
6.726521e+3, 2.7441573e+2, -296294.63, -390640.88, 290.78784, 0.0016633496, -0.00009339025, -296293.72, -45567.094, 0.0, 10.01771, 9.894198 
6.7265224e+3, 2.843019e+2, -209513.2, -317105.75, 219.85107, 0.0016634373, 0.00033670574, -209512.77, -55670.53, 0.0, 10.017891, 9.877382 
6.726523e+3, 2.9418036e+2, -109633.16, -216741.3, 181.13852, 0.0016621865, -0.00013808304, -109632.85, -52599.406, 0.0, 10.01807, 9.87817 
6.7265236e+3, 3.0408624e+2, -20552.248, -85225.17, 76.0965, 0.0016631657, 0.00028320888, -20552.158, -20552.158, 0.0, 10.018246, 9.933076 
6.7265236e+3, 3.1402108e+2, -19305.025, -83025.52, 32.886826, 0.0016673775, 0.00003238725, -19305.008, -19305.008, 0.0, 10.018416, 9.934478 
6.736531e+3, 1.2528643e+2, -1701011.8, -1721375.6, 119.43235, 0.0016635689, 0.00020906377, -1701011.1, 11183.203, 0.0, 10.01503, 9.988028 
6.7365307e+3, 1.352743e+2, -1603445.9, -1624532.9, 112.27667, 0.0016609331, 0.000031061576, -1603445.3, 10867.767, 0.0, 10.0152, 9.98724 
6.7365307e+3, 1.4525549e+2, -1515380.5, -1545644.4, 269.46066, 0.001661697, 0.00029167163, -1515378.0, 1119.3567, 0.0, 10.015371, 9.975271 
6.7365307e+3, 1.5523075e+2, -1417464.4, -1448262.6, 256.82428, 0.0016652062, 0.00009978092, -1417462.3, 1277.7146, 0.0, 10.015543, 9.974738 
6.7365307e+3, 1.651993e+2, -1329347.4, -1369612.6, 379.2428, 0.00166615, 0.00018070207, -1329343.9, -8295.672, 0.0, 10.015718, 9.962476 
6.736531e+3, 1.7516182e+2, -1231194.0, -1271909.6, 363.20026, 0.00166482, 0.000077526245, -1231190.9, -7775.4253, 0.0, 10.015897, 9.962062 
6.736532e+3, 1.8511762e+2, -1143049.6, -1193551.8, 449.9338, 0.0016650653, 0.00022058701, -1143045.6, -17196.975, 0.0, 10.016075, 9.949437 
6.7365324e+3, 1.9506708e+2, -1044710.44, -1095609.8, 430.06595, 0.0016667403, 0.00008437361, -1044706.8, -16363.026, 0.0, 10.0162525, 9.949094 
6.7365324e+3, 2.0500967e+2, -956654.0, -1017784.06, 484.94843, 0.0016677621, 0.00020449585, -956650.1, -25743.912, 0.0, 10.016433, 9.93593 
6.7365336e+3, 2.1494564e+2, -858175.56, -919707.0, 463.10834, 0.001668133, 0.000011193342, -858172.06, -24638.31, 0.0, 10.016615, 9.935587 
6.736535e+3, 2.2487473e+2, -769948.9, -841933.06, 484.9737, 0.0016682852, 0.00025683083, -769945.6, -33717.02, 0.0, 10.016798, 9.922193 
6.7365354e+3, 2.3479699e+2, -671326.9, -743709.44, 460.5041, 0.0016681858, 0.00004105505, -671323.94, -32333.438, 0.0, 10.016982, 9.921856 
6.7365366e+3, 2.4471217e+2, -582980.44, -666094.6, 451.1206, 0.0016689776, 0.00019898025, -582978.0, -41156.246, 0.0, 10.017165, 9.908165 
6.736538e+3, 2.5462043e+2, -484049.9, -567384.7, 423.20963, 0.0016707322, 0.000012532751, -484047.75, -39327.137, 0.0, 10.017346, 9.908056 
6.736538e+3, 2.645215e+2, -395806.63, -490394.03, 383.04575, 0.0016714461, 0.00025759428, -395805.06, -48114.9, 0.0, 10.017529, 9.893715 
6.736539e+3, 2.7441576e+2, -296352.3, -390759.88, 351.7901, 0.0016709252, -0.000085439846, -296351.0, -45624.55, 0.0, 10.017711, 9.89412 
6.73654e+3, 2.8430182e+2, -209579.9, -317243.94, 279.9375, 0.001670834, 0.00034310494, -209579.19, -55736.297, 0.0, 10.017891, 9.877291 
6.736541e+3, 2.9418018e+2, -109699.35, -216879.83, 241.84586, 0.0016712566, -0.00014976841, -109698.81, -52663.668, 0.0, 10.01807, 9.8780775 
6.7365414e+3, 3.04086e+2, -20616.951, -85362.766, 133.71826, 0.0016725976, 0.00027049717, -20616.676, -20616.676, 0.0, 10.018247, 9.932982 
6.7365426e+3, 3.1402075e+2, -19367.604, -83162.21, 89.535515, 0.0016753247, 0.00004263889, -19367.477, -19367.477, 0.0, 10.018419, 9.934384 
6.7465466e+3, 1.2528707e+2, -1700853.1, -1721322.9, 62.606895, 0.001670392, 0.00020757985, -1700852.9, 11335.177, 0.0, 10.015143, 9.987999 
6.7465466e+3, 1.3527492e+2, -1603263.3, -1624467.9, 54.05261, 0.0016702175, 0.000031086518, -1603263.1, 11043.96, 0.0, 10.015328, 9.987211 
6.746546e+3, 1.4525607e+2, -1515177.0, -1545578.8, 212.4662, 0.0016710081, 0.00029171532, -1515175.5, 1316.2601, 0.0, 10.015517, 9.975235 
6.7465466e+3, 1.5523128e+2, -1417229.5, -1448181.0, 200.2925, 0.0016723421, 0.00009850128, -1417228.3, 1506.5133, 0.0, 10.01571, 9.974702 
6.7465466e+3, 1.6519979e+2, -1329095.1, -1369532.6, 322.70477, 0.0016732924, 0.00017931018, -1329092.5, -8049.211, 0.0, 10.015901, 9.96243 
6.7465466e+3, 1.7516226e+2, -1230923.9, -1271820.9, 305.3378, 0.0016739715, 0.00007713632, -1230921.6, -7510.612, 0.0, 10.016091, 9.962016 
6.746548e+3, 1.85118e+2, -1142761.6, -1193462.0, 392.33856, 0.0016743551, 0.00022041556, -1142758.6, -16913.99, 0.0, 10.016285, 9.949385 
6.7465484e+3, 1.9506744e+2, -1044395.44, -1095506.6, 372.4177, 0.0016743984, 0.00008367895, -1044392.7, -16052.34, 0.0, 10.016481, 9.949041 
6.7465496e+3, 2.0500998e+2, -956321.25, -1017680.3, 427.03067, 0.0016750877, 0.00020358374, -956318.25, -25414.904, 0.0, 10.016678, 9.935871 
6.74655e+3, 2.1494588e+2, -857824.5, -919594.75, 404.34766, 0.0016764031, 0.000010366954, -857821.9, -24290.408, 0.0, 10.016872, 9.935528 
6.7465514e+3, 2.2487491e+2, -769583.7, -841822.44, 426.21805, 0.0016770457, 0.0002560925, -769581.1, -33354.246, 0.0, 10.01707, 9.922127 
6.7465526e+3, 2.3479709e+2, -670941.94, -743589.8, 401.24643, 0.0016769666, 0.000040408853, -670939.7, -31950.217, 0.0, 10.017267, 9.92179 
6.746554e+3, 2.447122e+2, -582577.1, -665973.44, 391.59924, 0.0016774358, 0.00019846098, -582575.25, -40753.89, 0.0, 10.017467, 9.908093 
6.746555e+3, 2.546204e+2, -483621.88, -567252.4, 364.5237, 0.0016784902, 0.000012180478, -483620.28, -38899.316, 0.0, 10.017666, 9.907984 
6.746556e+3, 2.645214e+2, -395363.34, -490266.13, 322.87955, 0.0016791063, 0.00025703368, -395362.25, -47670.99, 0.0, 10.017863, 9.893634 
6.7465574e+3, 2.7441555e+2, -295891.5, -390625.03, 289.4711, 0.0016792, -0.000086651184, -295890.63, -45162.27, 0.0, 10.01806, 9.894037 
6.746558e+3, 2.8430155e+2, -209100.69, -317104.88, 217.05461, 0.0016796825, 0.00034208712, -209100.25, -55254.637, 0.0, 10.018255, 9.877206 
6.746559e+3, 2.941798e+2, -109198.04, -216731.56, 181.94025, 0.0016806246, -0.00014950859, -109197.73, -52159.043, 0.0, 10.018452, 9.877993 
6.7465603e+3, 3.0408555e+2, -20100.818, -85224.97, 74.08827, 0.0016813377, 0.00027093073, -20100.734, -20100.734, 0.0, 10.018649, 9.932882 
6.746561e+3, 3.1402022e+2, -18815.33, -83008.414, 25.787252, 0.0016818312, 0.000041717525, -18815.32, -18815.32, 0.0, 10.0188465, 9.934283 
6.7565614e+3, 1.2528755e+2, -1700883.1, -1721373.3, 123.6396, 0.0016748294, 0.00020579027, -1700882.4, 11300.994, 0.0, 10.015141, 9.987969 
6.7565614e+3, 1.3527538e+2, -1603292.0, -1624517.5, 115.25892, 0.0016811849, 0.000031105315, -1603291.4, 11011.305, 0.0, 10.0153265, 9.987182 
6.7565614e+3, 1.4525649e+2, -1515211.0, -1545639.1, 276.29816, 0.0016823633, 0.00029183543, -1515208.5, 1279.1981, 0.0, 10.015515, 9.975198 
6.756562e+3, 1.5523165e+2, -1417263.6, -1448241.5, 263.93826, 0.001678552, 0.000097179436, -1417261.4, 1469.614, 0.0, 10.015707, 9.974665 
6.7565626e+3, 1.6520011e+2, -1329137.5, -1369609.8, 385.79236, 0.0016790216, 0.00017772804, -1329133.8, -8093.782, 0.0, 10.015899, 9.962383 
6.756563e+3, 1.7516255e+2, -1230964.5, -1271896.9, 368.56143, 0.0016834986, 0.000076377444, -1230961.3, -7553.126, 0.0, 10.01609, 9.961969 
6.756564e+3, 1.8511826e+2, -1142806.1, -1193546.1, 457.74533, 0.0016844705, 0.00022013017, -1142802.0, -16959.777, 0.0, 10.016284, 9.949332 
6.756565e+3, 1.9506761e+2, -1044440.2, -1095590.8, 437.75674, 0.0016820705, 0.00008353554, -1044436.44, -16097.972, 0.0, 10.01648, 9.948989 
6.756566e+3, 2.050101e+2, -956371.8, -1017776.06, 492.02576, 0.0016820402, 0.00020310274, -956367.9, -25465.828, 0.0, 10.016676, 9.935811 
6.7565674e+3, 2.1494596e+2, -857873.8, -919689.56, 469.3803, 0.0016843295, 0.000009078499, -857870.25, -24339.518, 0.0, 10.016871, 9.935468 
6.7565686e+3, 2.2487493e+2, -769637.3, -841927.06, 492.49454, 0.0016858007, 0.00025438445, -769633.94, -33407.145, 0.0, 10.017069, 9.92206 
6.75657e+3, 2.3479703e+2, -670994.9, -743693.9, 467.57892, 0.0016863993, 0.00003868246, -670991.9, -32001.803, 0.0, 10.017267, 9.921723 
6.7565715e+3, 2.4471208e+2, -582633.1, -666084.25, 458.3785, 0.00168634, 0.00019815206, -582630.6, -40808.043, 0.0, 10.017466, 9.908022 
6.756573e+3, 2.546202e+2, -483677.7, -567362.9, 431.1318, 0.0016855372, 0.000014871051, -483675.47, -38952.61, 0.0, 10.017665, 9.907912 
6.756574e+3, 2.6452112e+2, -395427.9, -490395.34, 388.47104, 0.0016859848, 0.00025797298, -395426.3, -47732.383, 0.0, 10.017862, 9.89355 
6.756575e+3, 2.744152e+2, -295954.88, -390753.9, 355.68918, 0.0016879067, -0.000093077826, -295953.53, -45221.605, 0.0, 10.018059, 9.893953 
6.756577e+3, 2.843011e+2, -209161.75, -317230.8, 283.52573, 0.0016893581, 0.00033682963, -209161.0, -55311.016, 0.0, 10.018255, 9.877123 
6.7565775e+3, 2.941793e+2, -109257.92, -216856.42, 247.5056, 0.0016901661, -0.00014266296, -109257.35, -52213.586, 0.0, 10.018452, 9.87791 
6.7565787e+3, 3.0408493e+2, -20174.207, -85378.26, 139.82393, 0.0016897365, 0.00027862238, -20173.906, -20173.906, 0.0, 10.018649, 9.932778 
6.75658e+3, 3.1401947e+2, -18890.725, -83164.945, 92.946594, 0.0016876813, 0.00003445205, -18890.59, -18890.59, 0.0, 10.0188465, 9.934177 
6.766577e+3, 1.2528782e+2, -1700732.5, -1721326.5, 58.86127, 0.0016842611, 0.0002060829, -1700732.4, 11448.441, 0.0, 10.015249, 9.987941 
6.7665774e+3, 1.352756e+2, -1603108.4, -1624453.6, 50.472008, 0.0016880374, 0.000029503417, -1603108.3, 11192.131, 0.0, 10.015456, 9.987153 
6.7665774e+3, 1.4525668e+2, -1515007.9, -1545576.6, 211.43976, 0.0016893409, 0.0002901324, -1515006.4, 1479.3456, 0.0, 10.015663, 9.975159 
6.7665774e+3, 1.5523182e+2, -1417037.9, -1448167.5, 197.47784, 0.0016880749, 0.000096986594, -1417036.6, 1692.7582, 0.0, 10.01587, 9.974626 
6.7665786e+3, 1.6520025e+2, -1328891.9, -1369534.8, 318.9363, 0.0016884271, 0.00017772686, -1328889.4, -7850.5327, 0.0, 10.016079, 9.962336 
6.76658e+3, 1.7516263e+2, -1230690.0, -1271807.5, 301.59534, 0.001690345, 0.000075362244, -1230687.8, -7280.393, 0.0, 10.016289, 9.961923 
6.7665803e+3, 1.8511827e+2, -1142514.4, -1193456.4, 389.9624, 0.0016912841, 0.00021891136, -1142511.4, -16669.336, 0.0, 10.016499, 9.949278 
6.7665815e+3, 1.9506758e+2, -1044131.75, -1095493.1, 368.89316, 0.0016912374, 0.000082876824, -1044129.1, -15790.297, 0.0, 10.0167055, 9.948935 
6.766583e+3, 2.0501001e+2, -956047.56, -1017678.3, 423.1614, 0.0016916138, 0.00020266812, -956044.7, -25141.719, 0.0, 10.016915, 9.935751 
6.7665845e+3, 2.1494581e+2, -857525.56, -919580.4, 400.10046, 0.0016923938, 0.000008541143, -857523.0, -23990.785, 0.0, 10.017128, 9.935407 
6.766586e+3, 2.248747e+2, -769271.06, -841816.6, 423.22556, 0.0016932214, 0.0002536135, -769268.6, -33039.695, 0.0, 10.017341, 9.921993 
6.7665875e+3, 2.3479675e+2, -670608.1, -743574.1, 398.14432, 0.0016940723, 0.00003754424, -670605.94, -31613.146, 0.0, 10.017554, 9.921657 
6.7665887e+3, 2.4471173e+2, -582231.6, -665965.75, 387.95316, 0.001694529, 0.00019734542, -582229.8, -40403.785, 0.0, 10.017767, 9.9079485 
6.7665905e+3, 2.5461978e+2, -483258.22, -567236.7, 359.3752, 0.0016945334, 0.000015164904, -483256.7, -38529.664, 0.0, 10.01798, 9.907839 
6.7665917e+3, 2.6452062e+2, -394989.34, -490265.03, 317.1382, 0.0016949781, 0.00025791783, -394988.28, -47289.426, 0.0, 10.018193, 9.893473 
6.7665935e+3, 2.744146e+2, -295491.5, -390612.75, 287.65118, 0.0016959375, -0.000095186995, -295490.66, -44753.035, 0.0, 10.018408, 9.893875 
6.7665946e+3, 2.8430045e+2, -208683.81, -317100.28, 214.43025, 0.0016968134, 0.00033497394, -208683.39, -54826.9, 0.0, 10.018622, 9.87703 
6.7665964e+3, 2.9417852e+2, -108757.26, -216717.25, 172.8436, 0.0016975454, -0.00014131598, -108756.984, -51705.81, 0.0, 10.018836, 9.877816 
6.7665976e+3, 3.0408406e+2, -19652.205, -85227.84, 66.04336, 0.0016978199, 0.00028011584, -19652.139, -19652.139, 0.0, 10.019051, 9.932687 
6.766599e+3, 3.1401852e+2, -18345.205, -83002.875, 26.351109, 0.0016975562, 0.000031835178, -18345.195, -18345.195, 0.0, 10.019263, 9.934087 
6.776592e+3, 1.252879e+2, -1700762.3, -1721376.6, 127.453064, 0.0016963871, 0.00020738655, -1700761.5, 11418.399, 0.0, 10.015246, 9.987911 
6.776592e+3, 1.3527566e+2, -1603137.6, -1624503.5, 118.97848, 0.001692677, 0.000026939284, -1603136.9, 11162.897, 0.0, 10.015453, 9.987123 
6.776593e+3, 1.4525671e+2, -1515046.1, -1545644.6, 280.036, 0.0016939593, 0.00028736278, -1515043.5, 1441.9574, 0.0, 10.015661, 9.975118 
6.776594e+3, 1.552318e+2, -1417075.1, -1448234.9, 266.18002, 0.0016993728, 0.00009729365, -1417072.9, 1656.6989, 0.0, 10.015868, 9.974585 
6.7765945e+3, 1.6520017e+2, -1328933.9, -1369611.9, 389.00787, 0.001699816, 0.00017846668, -1328930.1, -7890.7544, 0.0, 10.016077, 9.962289 
6.776596e+3, 1.7516252e+2, -1230732.1, -1271884.4, 371.5724, 0.0016957872, 0.00007411219, -1230728.8, -7320.259, 0.0, 10.016287, 9.961875 
6.776597e+3, 1.8511811e+2, -1142562.8, -1193546.0, 458.89502, 0.001696358, 0.00021709337, -1142558.6, -16714.928, 0.0, 10.016497, 9.949223 
6.776598e+3, 1.9506736e+2, -1044178.94, -1095581.8, 437.92007, 0.0017012083, 0.000081831335, -1044175.2, -15834.271, 0.0, 10.016705, 9.948879 
6.7766e+3, 2.0500973e+2, -956098.75, -1017775.5, 494.04053, 0.0017025961, 0.0002021479, -956094.8, -25189.172, 0.0, 10.016914, 9.93569 
6.7766017e+3, 2.1494547e+2, -857576.56, -919677.2, 470.85403, 0.0017005673, 0.00000830526, -857573.0, -24037.486, 0.0, 10.017126, 9.935346 
6.776603e+3, 2.2487432e+2, -769326.44, -841922.44, 494.31754, 0.0016999734, 0.00025326037, -769323.06, -33090.26, 0.0, 10.017339, 9.9219265 
6.776605e+3, 2.3479629e+2, -670662.94, -743679.4, 469.28027, 0.0017008376, 0.00003665854, -670659.9, -31662.527, 0.0, 10.017552, 9.921589 
6.7766064e+3, 2.4471118e+2, -582291.94, -666083.0, 459.17538, 0.0017023644, 0.00019617133, -582289.44, -40458.13, 0.0, 10.017765, 9.907873 
6.776608e+3, 2.5461918e+2, -483317.66, -567353.4, 430.9011, 0.0017046016, 0.000013970503, -483315.44, -38582.418, 0.0, 10.017978, 9.9077635 
6.7766106e+3, 2.6451993e+2, -395047.56, -490380.2, 389.37103, 0.0017051387, 0.00025717652, -395046.0, -47340.414, 0.0, 10.018191, 9.893398 
6.776612e+3, 2.7441385e+2, -295549.25, -390727.25, 359.3343, 0.0017036608, -0.00009491087, -295547.9, -44802.867, 0.0, 10.018406, 9.893801 
6.7766136e+3, 2.8429958e+2, -208758.2, -317249.97, 286.30945, 0.0017031399, 0.00033498296, -208757.45, -54892.688, 0.0, 10.0186205, 9.876933 
6.7766154e+3, 2.941776e+2, -108831.4, -216868.19, 246.02899, 0.0017038152, -0.0001432382, -108830.836, -51770.387, 0.0, 10.018835, 9.877717 
6.7766166e+3, 3.0408305e+2, -19714.041, -85354.34, 138.74924, 0.0017057817, 0.0002779494, -19713.748, -19713.748, 0.0, 10.01905, 9.932602 
6.7766184e+3, 3.140174e+2, -18405.652, -83127.055, 97.72784, 0.0017096476, 0.000031824664, -18405.504, -18405.504, 0.0, 10.019263, 9.934003 
6.7866075e+3, 1.2528776e+2, -1700614.8, -1721334.0, 54.74653, 0.0017033815, 0.00020582452, -1700614.6, 11566.795, 0.0, 10.015354, 9.98788 
6.786608e+3, 1.3527548e+2, -1602959.1, -1624444.9, 44.968113, 0.0017022011, 0.000026902937, -1602959.0, 11342.551, 0.0, 10.015581, 9.987091 
6.7866087e+3, 1.452565e+2, -1514845.8, -1545586.4, 204.81842, 0.0017032967, 0.00028743056, -1514844.5, 1643.1537, 0.0, 10.015808, 9.975076 
6.786609e+3, 1.5523154e+2, -1416845.9, -1448161.9, 190.48566, 0.001706067, 0.000096184835, -1416844.8, 1887.3215, 0.0, 10.016034, 9.974543 
6.786611e+3, 1.6519988e+2, -1328686.3, -1369538.4, 312.16605, 0.0017066543, 0.0001771293, -1328683.9, -7641.432, 0.0, 10.016259, 9.962239 
6.786612e+3, 1.7516217e+2, -1230464.0, -1271800.9, 293.4895, 0.0017053299, 0.00007342079, -1230462.0, -7050.036, 0.0, 10.016483, 9.961825 
6.786614e+3, 1.851177e+2, -1142277.0, -1193461.3, 379.4407, 0.0017059895, 0.00021662164, -1142274.3, -16426.584, 0.0, 10.016707, 9.949167 
6.786615e+3, 1.950669e+2, -1043868.94, -1095485.1, 358.08752, 0.0017084524, 0.00008117382, -1043866.5, -15521.017, 0.0, 10.016932, 9.948824 
6.7866164e+3, 2.0500922e+2, -955773.06, -1017680.1, 413.86337, 0.0017094172, 0.00020134266, -955770.25, -24859.54, 0.0, 10.017157, 9.935626 
6.786619e+3, 2.1494488e+2, -857232.5, -919573.25, 389.37027, 0.0017089002, 0.0000073935566, -857230.06, -23688.871, 0.0, 10.017382, 9.935283 
6.7866206e+3, 2.2487366e+2, -768965.75, -841815.2, 412.41763, 0.001709003, 0.0002526372, -768963.44, -32724.254, 0.0, 10.017608, 9.92186 
6.7866224e+3, 2.3479556e+2, -670282.44, -743563.1, 387.21005, 0.0017097183, 0.000036735597, -670280.44, -31276.018, 0.0, 10.017835, 9.921522 
6.786625e+3, 2.447104e+2, -581894.06, -665964.8, 377.55493, 0.0017106659, 0.00019565427, -581892.4, -40053.344, 0.0, 10.018063, 9.907802 
6.7866266e+3, 2.5461832e+2, -482898.0, -567225.56, 350.60126, 0.0017118494, 0.000011433037, -482896.56, -38155.1, 0.0, 10.018291, 9.907691 
6.7866284e+3, 2.6451898e+2, -394612.28, -490254.63, 308.2764, 0.0017124759, 0.00025549892, -394611.28, -46896.547, 0.0, 10.01852, 9.893317 
6.78663e+3, 2.7441284e+2, -295094.53, -390593.7, 275.01083, 0.0017124414, -0.0000923141, -295093.75, -44338.77, 0.0, 10.01875, 9.893721 
6.7866325e+3, 2.8429848e+2, -208284.58, -317114.66, 203.22328, 0.001712354, 0.00033698112, -208284.2, -54408.68, 0.0, 10.018981, 9.876846 
6.7866343e+3, 2.941764e+2, -108332.99, -216722.55, 169.22981, 0.0017121657, -0.00014810049, -108332.734, -51260.63, 0.0, 10.019215, 9.87763 
6.786636e+3, 3.0408177e+2, -19198.545, -85212.15, 64.02758, 0.0017135295, 0.00027275734, -19198.482, -19198.482, 0.0, 10.019448, 9.932507 
6.786638e+3, 3.14016e+2, -17860.932, -82971.66, 16.418644, 0.0017171609, 0.000035530134, -17860.926, -17860.926, 0.0, 10.019683, 9.933907 
6.796622e+3, 1.2528741e+2, -1700646.8, -1721389.6, 130.4628, 0.001707609, 0.0002026131, -1700645.9, 11538.851, 0.0, 10.015352, 9.987846 
6.7966235e+3, 1.352751e+2, -1602991.0, -1624500.6, 120.58017, 0.0017143325, 0.00002809753, -1602990.4, 11314.88, 0.0, 10.015579, 9.987058 
6.7966247e+3, 1.4525609e+2, -1514885.1, -1545656.4, 280.15952, 0.0017151649, 0.0002889025, -1514882.6, 1609.0767, 0.0, 10.015805, 9.975034 
6.796625e+3, 1.5523107e+2, -1416884.6, -1448231.5, 265.74603, 0.0017103177, 0.00009421, -1416882.4, 1854.2072, 0.0, 10.016032, 9.974501 
6.796627e+3, 1.6519937e+2, -1328731.6, -1369621.3, 386.6487, 0.0017110769, 0.00017457402, -1328727.9, -7680.5513, 0.0, 10.016257, 9.962189 
6.796628e+3, 1.751616e+2, -1230509.0, -1271883.3, 367.99808, 0.0017170695, 0.000072914525, -1230505.6, -7088.306, 0.0, 10.016481, 9.961775 
6.7966306e+3, 1.851171e+2, -1142326.0, -1193552.0, 454.1536, 0.0017180648, 0.0002167548, -1142322.0, -16468.451, 0.0, 10.0167055, 9.949111 
6.7966324e+3, 1.9506624e+2, -1043917.5, -1095575.4, 432.75772, 0.001714266, 0.000080612874, -1043913.9, -15561.909, 0.0, 10.01693, 9.948768 
6.796634e+3, 2.0500849e+2, -955828.2, -1017783.56, 488.85886, 0.0017140481, 0.00020027564, -955824.3, -24906.5, 0.0, 10.017155, 9.935562 
6.796636e+3, 2.149441e+2, -857287.4, -919676.25, 464.40518, 0.0017173435, 0.0000060069165, -857283.94, -23734.97, 0.0, 10.017379, 9.935218 
6.7966384e+3, 2.248728e+2, -769022.4, -841922.0, 488.42505, 0.0017192711, 0.00025174493, -769019.1, -32771.56, 0.0, 10.017605, 9.921792 
6.796641e+3, 2.3479465e+2, -670338.5, -743669.4, 463.21988, 0.0017197521, 0.00003718092, -670335.56, -31322.166, 0.0, 10.017833, 9.921454 
6.7966425e+3, 2.4470942e+2, -581952.5, -666076.5, 454.10632, 0.0017192502, 0.00019537461, -581950.06, -40101.348, 0.0, 10.018061, 9.90773 
6.796645e+3, 2.5461724e+2, -482955.94, -567336.7, 427.02325, 0.0017176453, 0.000008157061, -482953.78, -38201.895, 0.0, 10.01829, 9.90762 
6.796647e+3, 2.6451784e+2, -394679.25, -490384.78, 385.21985, 0.0017183583, 0.00025325763, -394677.72, -46951.793, 0.0, 10.018518, 9.893234 
6.7966497e+3, 2.7441162e+2, -295161.25, -390723.94, 352.65436, 0.0017218114, -0.000088751214, -295159.94, -44393.0, 0.0, 10.018747, 9.893637 
6.7966515e+3, 2.842972e+2, -208348.2, -317239.28, 282.38937, 0.0017231368, 0.0003398042, -208347.47, -54459.17, 0.0, 10.018978, 9.876766 
6.796653e+3, 2.9417503e+2, -108395.68, -216846.0, 247.59622, 0.0017216969, -0.00015443165, -108395.11, -51309.4, 0.0, 10.019212, 9.87755 
6.796655e+3, 3.0408025e+2, -19274.6, -85364.52, 142.31735, 0.001721245, 0.0002660689, -19274.293, -19274.293, 0.0, 10.019445, 9.9324045 
6.7966574e+3, 3.1401446e+2, -17937.465, -83126.58, 96.16191, 0.0017222798, 0.00004088879, -17937.324, -17937.324, 0.0, 10.019681, 9.933803 
6.806638e+3, 1.252868e+2, -1700497.4, -1721351.0, 49.706337, 0.001716757, 0.00020219022, -1700497.3, 11693.464, 0.0, 10.015464, 9.98781 
6.8066394e+3, 1.3527445e+2, -1602812.5, -1624446.8, 38.191624, 0.0017211523, 0.000026586515, -1602812.4, 11499.137, 0.0, 10.015709, 9.987022 
6.80664e+3, 1.452554e+2, -1514685.3, -1545601.6, 195.66083, 0.001722146, 0.0002874771, -1514684.0, 1814.2762, 0.0, 10.015954, 9.974989 
6.806642e+3, 1.5523036e+2, -1416657.4, -1448162.9, 179.77402, 0.0017196912, 0.00009392667, -1416656.4, 2087.2915, 0.0, 10.016198, 9.974456 
6.8066436e+3, 1.651986e+2, -1328485.1, -1369551.5, 297.8034, 0.0017204554, 0.00017444986, -1328482.9, -7427.991, 0.0, 10.016439, 9.962136 
6.806645e+3, 1.7516078e+2, -1230239.6, -1271802.1, 278.28915, 0.0017242582, 0.00007205049, -1230237.8, -6812.3477, 0.0, 10.016679, 9.961722 
6.806647e+3, 1.8511622e+2, -1142039.5, -1193469.4, 363.00662, 0.0017250663, 0.000215694, -1142037.0, -16174.75, 0.0, 10.016918, 9.949053 
6.806649e+3, 1.9506529e+2, -1043610.3, -1095482.8, 340.4254, 0.0017229764, 0.00007986764, -1043608.06, -15246.892, 0.0, 10.017157, 9.9487095 
6.8066514e+3, 2.050075e+2, -955506.75, -1017692.7, 395.25336, 0.0017231475, 0.00019969634, -955504.25, -24576.64, 0.0, 10.017395, 9.935496 
6.806654e+3, 2.1494302e+2, -856947.7, -919576.75, 370.31863, 0.0017255282, 0.0000054500642, -856945.5, -23386.11, 0.0, 10.0176325, 9.935153 
6.8066555e+3, 2.2487168e+2, -768665.4, -841817.44, 394.67783, 0.0017269594, 0.00025086215, -768663.25, -32404.594, 0.0, 10.017872, 9.921724 
6.806658e+3, 2.3479344e+2, -669962.25, -743556.0, 369.10138, 0.0017273788, 0.00003561233, -669960.44, -30935.238, 0.0, 10.018113, 9.921387 
6.806661e+3, 2.4470815e+2, -581559.94, -665961.4, 359.59378, 0.0017272972, 0.00019459311, -581558.4, -39697.242, 0.0, 10.018355, 9.907658 
6.806663e+3, 2.546159e+2, -482543.84, -567213.0, 331.60422, 0.0017266448, 0.000009788011, -482542.53, -37777.527, 0.0, 10.018599, 9.907548 
6.8066657e+3, 2.6451644e+2, -394249.72, -490258.4, 290.79337, 0.0017272288, 0.0002538189, -394248.84, -46509.043, 0.0, 10.018842, 9.893157 
6.806668e+3, 2.7441013e+2, -294711.34, -390588.94, 261.66177, 0.0017292683, -0.000093382216, -294710.63, -43929.027, 0.0, 10.019087, 9.893559 
6.8066704e+3, 2.8429562e+2, -207884.42, -317112.16, 192.49278, 0.0017303796, 0.0003359757, -207884.1, -53980.31, 0.0, 10.019334, 9.876677 
6.806673e+3, 2.9417333e+2, -107909.32, -216710.11, 152.86148, 0.0017302737, -0.00014975473, -107909.11, -50807.09, 0.0, 10.019585, 9.87746 
6.806675e+3, 3.0407852e+2, -18763.021, -85216.19, 50.936745, 0.0017301856, 0.00027107378, -18762.982, -18762.982, 0.0, 10.019839, 9.932316 
6.806677e+3, 3.1401262e+2, -17391.803, -82961.516, 12.513027, 0.001730206, 0.000034734534, -17391.8, -17391.8, 0.0, 10.020097, 9.933714 
6.8166536e+3, 1.2528598e+2, -1700533.9, -1721414.5, 131.62485, 0.0017285116, 0.00020314829, -1700533.0, 11665.664, 0.0, 10.015462, 9.987773 
6.816655e+3, 1.352736e+2, -1602847.4, -1624509.4, 120.19056, 0.001725153, 0.000023523718, -1602846.8, 11473.2, 0.0, 10.015708, 9.986984 
6.816656e+3, 1.4525451e+2, -1514727.1, -1545677.8, 277.22607, 0.0017265375, 0.00028439175, -1514724.6, 1782.5315, 0.0, 10.015952, 9.974943 
6.816658e+3, 1.5522942e+2, -1416699.8, -1448239.1, 261.25507, 0.001731793, 0.00009440368, -1416697.6, 2055.3357, 0.0, 10.016196, 9.974409 
6.8166596e+3, 1.651976e+2, -1328532.8, -1369638.3, 377.48334, 0.0017324724, 0.00017548283, -1328529.4, -7464.6694, 0.0, 10.016438, 9.962083 
6.8166614e+3, 1.7515972e+2, -1230286.3, -1271888.1, 357.9199, 0.0017290387, 0.000070881855, -1230283.3, -6847.4697, 0.0, 10.016677, 9.96167 
6.8166643e+3, 1.8511511e+2, -1142091.3, -1193565.3, 442.43985, 0.0017293907, 0.00021388433, -1142087.4, -16214.374, 0.0, 10.016916, 9.948994 
6.816667e+3, 1.9506413e+2, -1043662.56, -1095578.8, 419.9536, 0.0017332535, 0.00007888956, -1043659.1, -15286.579, 0.0, 10.017154, 9.94865 
6.816669e+3, 2.0500627e+2, -955564.2, -1017798.6, 474.56302, 0.0017346485, 0.00019923747, -955560.6, -24620.963, 0.0, 10.017392, 9.935431 
6.8166715e+3, 2.1494173e+2, -857004.25, -919681.94, 449.45267, 0.0017335976, 0.0000052045007, -857001.0, -23428.969, 0.0, 10.01763, 9.935087 
6.816674e+3, 2.2487031e+2, -768723.4, -841926.0, 475.11304, 0.0017333016, 0.00024987172, -768720.3, -32448.35, 0.0, 10.017869, 9.921657 
6.816676e+3, 2.3479202e+2, -670020.06, -743664.25, 449.6154, 0.0017337595, 0.000032883905, -670017.3, -30978.143, 0.0, 10.01811, 9.921319 
6.816679e+3, 2.4470663e+2, -581622.0, -666077.94, 441.0424, 0.0017350928, 0.00019342093, -581619.7, -39743.86, 0.0, 10.018352, 9.907584 
6.8166816e+3, 2.5461432e+2, -482606.1, -567329.44, 413.2654, 0.0017373732, 0.000013802669, -482604.1, -37823.695, 0.0, 10.018594, 9.907474 
6.8166846e+3, 2.645148e+2, -394311.66, -490374.7, 373.0853, 0.0017377208, 0.00025569406, -394310.22, -46554.31, 0.0, 10.018838, 9.893084 
6.816687e+3, 2.744084e+2, -294772.0, -390704.16, 343.72964, 0.0017357705, -0.000102323414, -294770.75, -43972.254, 0.0, 10.019083, 9.893485 
6.81669e+3, 2.842938e+2, -207959.45, -317258.0, 277.01956, 0.0017358038, 0.00032862468, -207958.75, -54037.27, 0.0, 10.01933, 9.876583 
6.8166924e+3, 2.9417145e+2, -107984.86, -216857.33, 238.26865, 0.0017383696, -0.00013958979, -107984.34, -50863.797, 0.0, 10.019581, 9.877364 
6.816695e+3, 3.0407655e+2, -18827.672, -85340.49, 138.55536, 0.0017398065, 0.00028193285, -18827.383, -18827.383, 0.0, 10.0198345, 9.932235 
6.816697e+3, 3.1401053e+2, -17456.035, -83084.016, 99.793076, 0.00173971, 0.000022614839, -17455.883, -17455.883, 0.0, 10.020092, 9.933634 
6.826669e+3, 1.2528488e+2, -1700386.4, -1721380.5, 41.402138, 0.001735691, 0.00020245086, -1700386.3, 11823.24, 0.0, 10.0155735, 9.987734 
6.82667e+3, 1.3527246e+2, -1602662.6, -1624456.0, 28.891562, 0.0017341643, 0.000023554201, -1602662.6, 11668.526, 0.0, 10.015843, 9.986945 
6.8266726e+3, 1.4525332e+2, -1514521.3, -1545624.8, 181.34471, 0.0017356004, 0.00028415516, -1514520.3, 1998.5854, 0.0, 10.016107, 9.974895 
6.8266743e+3, 1.5522818e+2, -1416472.4, -1448175.3, 163.7633, 0.0017392897, 0.00009300158, -1416471.5, 2293.584, 0.0, 10.016364, 9.97436 
6.826676e+3, 1.651963e+2, -1328286.5, -1369572.4, 277.30194, 0.0017397878, 0.00017409593, -1328284.6, -7207.337, 0.0, 10.016622, 9.962028 
6.8266785e+3, 1.7515838e+2, -1230014.3, -1271809.4, 256.30328, 0.0017374498, 0.00007060119, -1230012.8, -6563.8296, 0.0, 10.016878, 9.961615 
6.826681e+3, 1.8511371e+2, -1141802.6, -1193483.9, 337.3303, 0.0017380882, 0.00021372394, -1141800.4, -15913.605, 0.0, 10.017131, 9.948934 
6.826684e+3, 1.9506267e+2, -1043359.1, -1095490.4, 314.21387, 0.0017414642, 0.00007791325, -1043357.25, -14970.342, 0.0, 10.017379, 9.94859 
6.826686e+3, 2.0500475e+2, -955249.44, -1017714.94, 368.2363, 0.0017426417, 0.00019804868, -955247.3, -24292.69, 0.0, 10.01763, 9.935363 
6.826689e+3, 2.1494015e+2, -856668.94, -919588.5, 341.54495, 0.0017416414, 0.000004401876, -856667.06, -23079.402, 0.0, 10.017881, 9.935019 
6.8266916e+3, 2.2486866e+2, -768368.4, -841822.7, 366.65506, 0.0017414173, 0.00024955836, -768366.56, -32078.303, 0.0, 10.018134, 9.921589 
6.8266946e+3, 2.3479028e+2, -669648.3, -743553.3, 341.18106, 0.0017419679, 0.000033169017, -669646.75, -30590.598, 0.0, 10.018388, 9.921251 
6.8266976e+3, 2.4470483e+2, -581236.5, -665965.44, 333.08887, 0.0017432726, 0.0001928715, -581235.2, -39341.684, 0.0, 10.018641, 9.907513 
6.8267006e+3, 2.5461245e+2, -482205.16, -567210.4, 306.19824, 0.0017453897, 0.000010832053, -482204.06, -37405.313, 0.0, 10.018895, 9.907402 
6.8267035e+3, 2.6451284e+2, -393893.8, -490252.8, 267.54486, 0.0017457999, 0.00025368296, -393893.06, -46118.066, 0.0, 10.019154, 9.893007 
6.8267065e+3, 2.7440637e+2, -294330.56, -390571.97, 237.1324, 0.0017441815, -0.00009935174, -294330.0, -43511.684, 0.0, 10.019416, 9.893409 
6.8267095e+3, 2.842917e+2, -207503.0, -317133.03, 172.34605, 0.0017441371, 0.00033102685, -207502.73, -53560.645, 0.0, 10.01968, 9.876494 
6.8267125e+3, 2.9416925e+2, -107507.414, -216724.3, 137.05943, 0.001746099, -0.0001449224, -107507.24, -50365.168, 0.0, 10.019947, 9.877275 
6.826715e+3, 3.0407426e+2, -18327.299, -85194.01, 42.830223, 0.001747543, 0.00027640123, -18327.271, -18327.271, 0.0, 10.020218, 9.932149 
6.826718e+3, 3.1400818e+2, -16928.05, -82923.74, 2.1678474, 0.0017483057, 0.000027580589, -16928.05, -16928.05, 0.0, 10.020494, 9.933548 
6.8366843e+3, 1.2528352e+2, -1700422.6, -1721447.0, 132.33171, 0.0017404393, 0.00020073388, -1700421.9, 11800.824, 0.0, 10.015573, 9.987693 
6.836687e+3, 1.3527107e+2, -1602700.8, -1624523.4, 119.462, 0.0017458309, 0.000025068075, -1602700.0, 11644.639, 0.0, 10.0158415, 9.986904 
6.8366885e+3, 1.4525187e+2, -1514567.9, -1545708.6, 267.50726, 0.0017471411, 0.0002852877, -1514565.6, 1967.1365, 0.0, 10.016105, 9.974843 
6.8366903e+3, 1.552267e+2, -1416517.1, -1448257.9, 249.98416, 0.0017443517, 0.000090485526, -1416515.1, 2264.4414, 0.0, 10.016363, 9.974309 
6.8366927e+3, 1.6519478e+2, -1328336.4, -1369664.8, 363.07834, 0.0017446252, 0.00017130267, -1328333.1, -7240.8174, 0.0, 10.016621, 9.961971 
6.836695e+3, 1.751568e+2, -1230065.5, -1271902.3, 341.98956, 0.0017478094, 0.0000706294, -1230062.8, -6598.206, 0.0, 10.016876, 9.961557 
6.836698e+3, 1.8511206e+2, -1141857.0, -1193582.9, 419.93948, 0.0017491229, 0.00021427726, -1141853.6, -15950.681, 0.0, 10.017128, 9.948873 
6.836701e+3, 1.9506095e+2, -1043412.25, -1095588.3, 396.7901, 0.0017485849, 0.000076815755, -1043409.2, -15005.546, 0.0, 10.017377, 9.948529 
6.836704e+3, 2.0500296e+2, -955310.06, -1017827.75, 452.36194, 0.001748785, 0.00019635816, -955306.8, -24334.809, 0.0, 10.017627, 9.935292 
6.836707e+3, 2.149383e+2, -856730.3, -919701.3, 425.6687, 0.0017497013, 0.000003161217, -856727.44, -23121.658, 0.0, 10.017879, 9.934948 
6.83671e+3, 2.2486673e+2, -768428.44, -841932.0, 451.20285, 0.001750513, 0.00024943726, -768425.6, -32118.61, 0.0, 10.01813, 9.92152 
6.836713e+3, 2.347883e+2, -669708.1, -743662.2, 425.7086, 0.001751184, 0.000034862223, -669705.7, -30630.127, 0.0, 10.018383, 9.921183 
6.8367165e+3, 2.4470279e+2, -581298.25, -666078.7, 418.1388, 0.0017516894, 0.00019250921, -581296.2, -39382.57, 0.0, 10.018637, 9.907441 
6.8367195e+3, 2.5461033e+2, -482265.94, -567322.9, 391.27682, 0.0017519916, 0.0000041397834, -482264.13, -37444.53, 0.0, 10.018891, 9.907331 
6.8367225e+3, 2.6451066e+2, -393959.3, -490374.78, 355.7298, 0.001752625, 0.00024954285, -393958.0, -46161.445, 0.0, 10.019149, 9.89293 
6.836726e+3, 2.744041e+2, -294397.2, -390694.4, 325.66052, 0.0017536472, -0.000090404435, -294396.06, -43555.54, 0.0, 10.01941, 9.893332 
6.836729e+3, 2.8428936e+2, -207575.17, -317266.72, 262.77014, 0.0017540652, 0.0003383011, -207574.53, -53609.426, 0.0, 10.019673, 9.8764105 
6.836732e+3, 2.941668e+2, -107578.41, -216857.55, 227.70683, 0.0017536886, -0.00015833684, -107577.93, -50411.848, 0.0, 10.019941, 9.877191 
6.8367356e+3, 3.0407172e+2, -18397.838, -85327.555, 136.44856, 0.0017543357, 0.0002623197, -18397.56, -18397.56, 0.0, 10.020212, 9.932061 
6.836738e+3, 3.1400555e+2, -16998.574, -83057.44, 96.38825, 0.0017564712, 0.000041119893, -16998.434, -16998.434, 0.0, 10.020489, 9.933461 
6.8467003e+3, 1.2528189e+2, -1700261.9, -1721413.5, 33.529766, 0.0017490063, 0.00020003584, -1700261.9, 11976.976, 0.0, 10.015697, 9.987648 
6.8467027e+3, 1.3526937e+2, -1602518.0, -1624478.6, 17.589794, 0.0017538675, 0.000023933313, -1602518.0, 11843.277, 0.0, 10.015979, 9.986858 
6.8467045e+3, 1.4525014e+2, -1514363.0, -1545660.5, 161.08841, 0.0017550237, 0.00028429442, -1514362.1, 2187.7046, 0.0, 10.01626, 9.974791 
6.846707e+3, 1.552249e+2, -1416279.1, -1448192.9, 142.13734, 0.0017524154, 0.000090155925, -1416278.5, 2518.736, 0.0, 10.016541, 9.9742565 
6.846709e+3, 1.6519292e+2, -1328081.1, -1369599.0, 249.46616, 0.0017528753, 0.00017086335, -1328079.6, -6969.1577, 0.0, 10.016812, 9.961911 
6.846712e+3, 1.751549e+2, -1229797.6, -1271830.5, 226.75114, 0.0017562452, 0.000069372356, -1229796.4, -6313.1167, 0.0, 10.0170765, 9.961497 
6.846715e+3, 1.8511008e+2, -1141573.4, -1193507.5, 301.7114, 0.0017573562, 0.00021309924, -1141571.6, -15649.367, 0.0, 10.017341, 9.94881 
6.846718e+3, 1.9505891e+2, -1043105.5, -1095501.6, 277.0669, 0.0017562497, 0.00007656667, -1043104.0, -14680.391, 0.0, 10.017606, 9.948466 
6.846722e+3, 2.0500085e+2, -954992.4, -1017745.7, 330.4611, 0.0017564588, 0.00019623419, -954990.6, -23998.012, 0.0, 10.017868, 9.935221 
6.8467253e+3, 2.149361e+2, -856401.4, -919614.3, 303.04337, 0.0017579509, 0.0000023709151, -856399.94, -22772.826, 0.0, 10.018127, 9.934877 
6.8467283e+3, 2.2486448e+2, -768083.56, -841834.44, 328.74423, 0.0017590865, 0.00024817386, -768082.1, -31753.057, 0.0, 10.01839, 9.9214525 
6.8467313e+3, 2.3478599e+2, -669348.06, -743557.8, 302.87933, 0.0017598209, 0.000033326924, -669346.8, -30248.596, 0.0, 10.018653, 9.921115 
6.846735e+3, 2.447004e+2, -580921.8, -665969.5, 296.0293, 0.0017599158, 0.00019174011, -580920.75, -38983.81, 0.0, 10.01892, 9.907371 
6.846739e+3, 2.546079e+2, -481869.53, -567204.7, 269.31055, 0.0017592843, 0.0000052875503, -481868.66, -37025.027, 0.0, 10.019189, 9.90726 
6.846742e+3, 2.6450813e+2, -393548.75, -490255.25, 235.31493, 0.0017600115, 0.00025006686, -393548.2, -45726.867, 0.0, 10.019459, 9.892856 
6.8467456e+3, 2.7440152e+2, -293974.28, -390570.13, 206.6169, 0.0017623446, -0.00009352549, -293973.84, -43107.773, 0.0, 10.01973, 9.893256 
6.846749e+3, 2.8428668e+2, -207139.02, -317147.1, 148.19128, 0.0017630296, 0.00033541294, -207138.81, -53147.402, 0.0, 10.020008, 9.876327 
6.846752e+3, 2.9416403e+2, -107115.74, -216726.86, 113.87652, 0.0017615805, -0.00015597946, -107115.625, -49922.46, 0.0, 10.020295, 9.877106 
6.846755e+3, 3.0406886e+2, -17908.885, -85184.195, 29.040783, 0.001761838, 0.00026478918, -17908.873, -17908.873, 0.0, 10.020588, 9.931978 
6.846759e+3, 3.1400263e+2, -16478.045, -82898.58, -8.270398, 0.0017645359, 0.000036465986, -16478.045, -16478.045, 0.0, 10.020885, 9.933377 
6.856716e+3, 1.2527998e+2, -1700307.4, -1721495.0, 128.67879, 0.0017596084, 0.00019974579, -1700306.6, 11950.902, 0.0, 10.015695, 9.987598 
6.856718e+3, 1.3526742e+2, -1602560.5, -1624558.4, 112.9129, 0.001759967, 0.000021256123, -1602559.9, 11820.567, 0.0, 10.015979, 9.98681 
6.8567204e+3, 1.4524813e+2, -1514409.9, -1545748.8, 255.32706, 0.0017609572, 0.0002820326, -1514407.9, 2161.7212, 0.0, 10.01626, 9.974736 
6.8567234e+3, 1.5522283e+2, -1416328.4, -1448282.3, 236.03496, 0.0017620896, 0.00009082081, -1416326.6, 2490.7026, 0.0, 10.016538, 9.974202 
6.8567264e+3, 1.651908e+2, -1328136.6, -1369699.6, 337.57672, 0.0017629539, 0.00017151456, -1328133.9, -7002.6084, 0.0, 10.016809, 9.96185 
6.8567294e+3, 1.751527e+2, -1229851.1, -1271929.8, 314.93604, 0.0017636585, 0.00006730728, -1229848.8, -6344.1836, 0.0, 10.017075, 9.961436 
6.856733e+3, 1.8510783e+2, -1141629.9, -1193612.1, 389.96683, 0.0017641096, 0.00021086786, -1141626.9, -15682.607, 0.0, 10.017339, 9.948745 
6.856736e+3, 1.9505662e+2, -1043163.5, -1095606.8, 365.36035, 0.001764244, 0.000076583055, -1043160.94, -14714.671, 0.0, 10.017602, 9.948401 
6.8567395e+3, 2.0499848e+2, -955056.9, -1017862.6, 417.028, 0.0017649878, 0.00019675262, -955054.1, -24038.184, 0.0, 10.017863, 9.935149 
6.856743e+3, 2.1493365e+2, -856465.1, -919730.44, 389.43542, 0.0017663155, 0.0000016676877, -856462.75, -22811.623, 0.0, 10.018124, 9.934805 
6.8567467e+3, 2.2486195e+2, -768144.7, -841945.5, 416.756, 0.0017673847, 0.00024618497, -768142.4, -31788.598, 0.0, 10.018385, 9.921383 
6.85675e+3, 2.347834e+2, -669409.4, -743668.56, 390.9476, 0.001768154, 0.000029985042, -669407.3, -30283.682, 0.0, 10.018648, 9.921045 
6.856754e+3, 2.4469773e+2, -580985.06, -666083.25, 386.11038, 0.0017680684, 0.00019060324, -580983.3, -39020.32, 0.0, 10.018913, 9.9073 
6.856758e+3, 2.5460514e+2, -481933.53, -567318.5, 359.4603, 0.001767018, 0.000010288524, -481932.0, -37061.66, 0.0, 10.019182, 9.907189 
6.8567616e+3, 2.645053e+2, -393615.0, -490373.38, 326.48828, 0.0017677651, 0.00025282544, -393613.9, -45765.164, 0.0, 10.019451, 9.892782 
6.856765e+3, 2.7439862e+2, -294039.53, -390687.5, 298.11884, 0.0017706399, -0.000102967846, -294038.63, -43144.316, 0.0, 10.019723, 9.893183 
6.8567693e+3, 2.8428373e+2, -207211.55, -317279.56, 245.54857, 0.0017714798, 0.0003271787, -207211.0, -53190.586, 0.0, 10.02, 9.876243 
6.8567723e+3, 2.9416102e+2, -107189.28, -216860.13, 211.45772, 0.0017696917, -0.00014572819, -107188.875, -49966.027, 0.0, 10.0202875, 9.877022 
6.8567765e+3, 3.0406576e+2, -17979.428, -85310.28, 130.07451, 0.0017698036, 0.00027557337, -17979.176, -17979.176, 0.0, 10.020578, 9.931897 
6.85678e+3, 3.139994e+2, -16548.637, -83024.23, 93.926125, 0.0017726116, 0.000022421124, -16548.504, -16548.504, 0.0, 10.020877, 9.933297 
6.8667316e+3, 1.2527773e+2, -1700147.4, -1721467.8, 20.63221, 0.0017689404, 0.00019937317, -1700147.4, 12132.13, 0.0, 10.0158205, 9.987548 
6.8667346e+3, 1.3526514e+2, -1602356.5, -1624508.0, 3.4097323, 0.0017672703, 0.00002046171, -1602356.5, 12046.441, 0.0, 10.016132, 9.986759 
6.866737e+3, 1.4524578e+2, -1514186.3, -1545698.8, 136.77057, 0.0017681193, 0.00028120234, -1514185.6, 2406.938, 0.0, 10.016431, 9.974676 
6.86674e+3, 1.5522043e+2, -1416093.0, -1448226.5, 114.37428, 0.0017708057, 0.0000903, -1416092.6, 2748.3396, 0.0, 10.016717, 9.974142 
6.8667436e+3, 1.6518834e+2, -1327884.3, -1369639.5, 210.5938, 0.001771734, 0.00017110682, -1327883.1, -6727.674, 0.0, 10.017001, 9.961787 
6.8667465e+3, 1.7515017e+2, -1229572.1, -1271856.4, 186.62807, 0.0017711302, 0.00006684008, -1229571.3, -6041.8486, 0.0, 10.017284, 9.961373 
6.86675e+3, 1.8510523e+2, -1141336.3, -1193535.6, 256.5021, 0.0017715279, 0.00021014099, -1141335.0, -15365.298, 0.0, 10.01756, 9.948678 
6.8667537e+3, 1.9505395e+2, -1042862.44, -1095527.1, 230.56993, 0.0017727963, 0.000075402895, -1042861.44, -14389.077, 0.0, 10.017829, 9.948335 
6.866757e+3, 2.0499574e+2, -954749.8, -1017790.06, 280.4016, 0.0017737094, 0.00019564826, -954748.56, -23705.88, 0.0, 10.0181, 9.935074 
6.8667614e+3, 2.1493085e+2, -856141.44, -919650.1, 251.26701, 0.0017742536, 0.000001166396, -856140.44, -22461.822, 0.0, 10.018371, 9.934731 
6.866765e+3, 2.2485909e+2, -767801.56, -841849.2, 278.03564, 0.0017749094, 0.000245981, -767800.56, -31418.59, 0.0, 10.018642, 9.921314 
6.866769e+3, 2.3478046e+2, -669054.56, -743567.06, 252.2108, 0.0017756509, 0.000029761019, -669053.75, -29901.201, 0.0, 10.018915, 9.920977 
6.866773e+3, 2.4469474e+2, -580619.8, -665979.06, 248.57112, 0.0017760891, 0.00018991875, -580619.06, -38626.496, 0.0, 10.019189, 9.90723 
6.866777e+3, 2.5460207e+2, -481557.84, -567210.1, 222.23068, 0.0017761731, 0.000008651286, -481557.28, -36656.656, 0.0, 10.019465, 9.90712 
6.866781e+3, 2.6450217e+2, -393223.44, -490258.03, 192.33504, 0.0017766898, 0.00025150378, -393223.03, -45343.355, 0.0, 10.019747, 9.892712 
6.866785e+3, 2.7439538e+2, -293627.03, -390562.8, 165.9385, 0.001777705, -0.00010244478, -293626.75, -42700.832, 0.0, 10.020034, 9.893113 
6.866789e+3, 2.842804e+2, -206789.66, -317167.94, 118.18933, 0.0017783198, 0.00032768096, -206789.53, -52736.742, 0.0, 10.020326, 9.876158 
6.866793e+3, 2.9415762e+2, -106751.086, -216742.89, 83.86645, 0.0017784273, -0.00014767952, -106751.02, -49494.93, 0.0, 10.020625, 9.876936 
6.8667966e+3, 3.0406228e+2, -17512.355, -85164.89, 11.528481, 0.0017791425, 0.00027341742, -17512.354, -17512.354, 0.0, 10.020933, 9.931825 
6.866801e+3, 3.1399587e+2, -16050.784, -82862.3, -19.025763, 0.0017806932, 0.000023322284, -16050.779, -16050.779, 0.0, 10.021252, 9.933226 
6.8767476e+3, 1.2527521e+2, -1700190.9, -1721552.1, 126.76728, 0.0017774941, 0.00019876246, -1700190.1, 12114.065, 0.0, 10.015821, 9.987495 
6.8767506e+3, 1.3526256e+2, -1602403.5, -1624594.4, 108.935356, 0.0017752765, 0.000020498, -1602403.0, 12025.127, 0.0, 10.016131, 9.986706 
6.876754e+3, 1.4524315e+2, -1514242.9, -1545802.4, 232.84471, 0.0017760138, 0.0002809809, -1514241.1, 2377.2102, 0.0, 10.016429, 9.974613 
6.8767565e+3, 1.5521772e+2, -1416147.3, -1448328.5, 210.61737, 0.0017789783, 0.00008898493, -1416145.9, 2721.5117, 0.0, 10.016716, 9.974079 
6.87676e+3, 1.6518557e+2, -1327940.0, -1369744.3, 305.45245, 0.0017797839, 0.0001699595, -1327937.8, -6755.2764, 0.0, 10.017, 9.961722 
6.876764e+3, 1.7514735e+2, -1229630.3, -1271962.0, 281.24747, 0.0017786893, 0.000067025794, -1229628.4, -6071.2954, 0.0, 10.017282, 9.9613085 
6.876768e+3, 1.8510236e+2, -1141397.9, -1193646.9, 345.96994, 0.0017793599, 0.00021003468, -1141395.6, -15397.576, 0.0, 10.017556, 9.94861 
6.8767715e+3, 1.95051e+2, -1042923.0, -1095637.5, 320.14252, 0.0017816245, 0.00007345852, -1042921.06, -14419.705, 0.0, 10.017826, 9.948267 
6.8767756e+3, 2.0499273e+2, -954817.3, -1017913.6, 370.9973, 0.0017825067, 0.00019355238, -954815.2, -23742.75, 0.0, 10.018096, 9.934998 
6.87678e+3, 2.1492775e+2, -856210.0, -919773.8, 341.7025, 0.0017820025, 0.00000058610937, -856208.1, -22499.074, 0.0, 10.018366, 9.934653 
6.876784e+3, 2.248559e+2, -767864.8, -841961.25, 368.77597, 0.0017820874, 0.00024650386, -767863.0, -31449.898, 0.0, 10.018637, 9.921246 
6.876788e+3, 2.3477721e+2, -669117.8, -743678.6, 342.91333, 0.0017827532, 0.000030957155, -669116.2, -29931.885, 0.0, 10.0189085, 9.920908 
6.8767923e+3, 2.446914e+2, -580684.4, -666092.56, 340.9784, 0.0017840565, 0.00018930464, -580683.0, -38657.92, 0.0, 10.019182, 9.90716 
6.8767965e+3, 2.5459868e+2, -481622.94, -567323.5, 314.88358, 0.0017860502, 0.0000034717436, -481621.78, -36687.938, 0.0, 10.019458, 9.907049 
6.8768007e+3, 2.6449868e+2, -393288.03, -490369.47, 288.91583, 0.0017862233, 0.00024793996, -393287.2, -45373.605, 0.0, 10.019738, 9.892643 
6.8768054e+3, 2.743919e+2, -293691.88, -390673.88, 262.51987, 0.00178421, -0.000097029144, -293691.16, -42730.746, 0.0, 10.020024, 9.893044 
6.8768096e+3, 2.8427678e+2, -206867.39, -317304.8, 219.56514, 0.0017844129, 0.00033245768, -206866.95, -52778.918, 0.0, 10.020316, 9.876073 
6.876814e+3, 2.9415393e+2, -106829.664, -216881.05, 186.32458, 0.0017875031, -0.00015599362, -106829.35, -49537.063, 0.0, 10.020615, 9.876849 
6.876818e+3, 3.040585e+2, -17576.412, -85272.66, 120.08271, 0.0017891886, 0.0002645328, -17576.2, -17576.2, 0.0, 10.020922, 9.931757 
6.8768215e+3, 3.1399202e+2, -16113.287, -82967.06, 89.44731, 0.0017888157, 0.000031650285, -16113.168, -16113.168, 0.0, 10.02124, 9.933161 
6.8867636e+3, 1.2527233e+2, -1700000.1, -1721519.4, 9.435438, 0.0017829026, 0.00019694182, -1700000.1, 12332.151, 0.0, 10.015971, 9.987435 
6.8867666e+3, 1.3525963e+2, -1602199.8, -1624555.0, -12.967326, 0.0017850826, 0.000020236082, -1602199.8, 12257.106, 0.0, 10.01629, 9.986646 
6.88677e+3, 1.4524016e+2, -1514019.3, -1545758.5, 102.15462, 0.0017861581, 0.00028095065, -1514018.9, 2628.7576, 0.0, 10.0166025, 9.974548 
6.886774e+3, 1.5521468e+2, -1415891.0, -1448268.0, 78.33901, 0.0017857834, 0.00008798383, -1415890.9, 3006.532, 0.0, 10.0169115, 9.974014 
6.886777e+3, 1.6518246e+2, -1327668.9, -1369681.4, 164.46806, 0.001786232, 0.0001687226, -1327668.3, -6455.0396, 0.0, 10.017208, 9.961653 
6.8867815e+3, 1.7514415e+2, -1229354.1, -1271897.1, 137.525, 0.0017875306, 0.000066237546, -1229353.8, -5765.2817, 0.0, 10.017492, 9.961239 
6.8867856e+3, 1.8509908e+2, -1141110.1, -1193577.0, 197.10149, 0.0017884953, 0.0002095667, -1141109.4, -15079.358, 0.0, 10.017776, 9.948541 
6.88679e+3, 1.9504765e+2, -1042617.6, -1095559.3, 169.91847, 0.0017890533, 0.00007318972, -1042617.06, -14083.017, 0.0, 10.018057, 9.948196 
6.886794e+3, 2.049893e+2, -954507.2, -1017844.2, 217.70381, 0.0017896333, 0.00019314166, -954506.44, -23400.578, 0.0, 10.018335, 9.934918 
6.886798e+3, 2.1492426e+2, -855893.9, -919702.06, 186.9949, 0.0017902204, -0.00000030426258, -855893.4, -22150.086, 0.0, 10.018611, 9.934575 
6.886803e+3, 2.2485234e+2, -767532.8, -841871.2, 213.81526, 0.001790544, 0.00024546668, -767532.25, -31084.184, 0.0, 10.0188875, 9.921176 
6.886807e+3, 2.3477358e+2, -668775.7, -743584.2, 187.62364, 0.0017905568, 0.000030123148, -668775.25, -29555.3, 0.0, 10.019167, 9.920839 
6.886811e+3, 2.4468769e+2, -580330.8, -665991.25, 186.85802, 0.0017916424, 0.00018871787, -580330.4, -38269.01, 0.0, 10.019448, 9.907092 
6.886816e+3, 2.5459492e+2, -481260.0, -567218.4, 162.04782, 0.0017939009, 0.0000031853408, -481259.7, -36288.914, 0.0, 10.0197315, 9.906982 
6.886821e+3, 2.6449487e+2, -392914.44, -490261.6, 140.52406, 0.0017943041, 0.00024757042, -392914.22, -44963.03, 0.0, 10.0200205, 9.892574 
6.886825e+3, 2.7438796e+2, -293304.94, -390560.47, 114.30181, 0.0017924766, -0.00009793776, -293304.8, -42306.11, 0.0, 10.020317, 9.892975 
6.8868303e+3, 2.8427282e+2, -206470.72, -317198.03, 77.44377, 0.001792714, 0.00033137645, -206470.66, -52343.613, 0.0, 10.02062, 9.875995 
6.8868345e+3, 2.9414988e+2, -106414.87, -216767.23, 48.505203, 0.00179565, -0.0001567628, -106414.85, -49082.78, 0.0, 10.020934, 9.876771 
6.8868387e+3, 3.0405438e+2, -17134.535, -85137.54, -5.7341657, 0.0017970988, 0.0002642218, -17134.535, -17134.535, 0.0, 10.021258, 9.931686 
6.8868434e+3, 3.1398785e+2, -15638.739, -82815.06, -36.880447, 0.0017963428, 0.000032033066, -15638.719, -15638.719, 0.0, 10.021599, 9.93309 
6.8967795e+3, 1.2526916e+2, -1700056.6, -1721625.9, 117.62964, 0.0017868382, 0.00019440273, -1700056.0, 12307.448, 0.0, 10.015971, 9.98737 
6.896783e+3, 1.352564e+2, -1602253.5, -1624659.8, 95.36233, 0.0017956928, 0.00001960374, -1602253.1, 12235.494, 0.0, 10.016291, 9.98658 
6.8967867e+3, 1.4523685e+2, -1514075.0, -1545866.1, 206.6499, 0.0017973281, 0.00028079282, -1514073.6, 2606.4548, 0.0, 10.016603, 9.974481 
6.89679e+3, 1.552113e+2, -1415949.9, -1448377.0, 182.32903, 0.00179198, 0.00008698356, -1415948.9, 2981.5508, 0.0, 10.01691, 9.973947 
6.896795e+3, 1.65179e+2, -1327733.4, -1369799.6, 259.66583, 0.0017919719, 0.0001672969, -1327731.8, -6484.926, 0.0, 10.017205, 9.96158 
6.8967986e+3, 1.7514063e+2, -1229417.8, -1272014.5, 232.80109, 0.001796984, 0.00006477403, -1229416.5, -5793.59, 0.0, 10.01749, 9.961166 
6.8968034e+3, 1.8509549e+2, -1141173.4, -1193692.9, 291.06717, 0.0017982358, 0.00020871712, -1141171.8, -15106.518, 0.0, 10.017773, 9.948469 
6.8968076e+3, 1.95044e+2, -1042682.25, -1095675.5, 263.93283, 0.0017958202, 0.000073572046, -1042680.94, -14111.082, 0.0, 10.018053, 9.948125 
6.896812e+3, 2.0498556e+2, -954579.94, -1017975.1, 309.43875, 0.0017959755, 0.00019339693, -954578.4, -23435.982, 0.0, 10.018331, 9.934838 
6.896817e+3, 2.1492045e+2, -855966.25, -919832.4, 278.48706, 0.0017986634, -0.0000015245154, -855965.0, -22184.365, 0.0, 10.018605, 9.934494 
6.896821e+3, 2.2484845e+2, -767597.44, -841985.0, 306.8859, 0.0017996309, 0.000243468, -767596.1, -31109.994, 0.0, 10.018882, 9.921106 
6.896826e+3, 2.3476961e+2, -668841.7, -743698.2, 280.76947, 0.0017987647, 0.000028075016, -668840.7, -29581.908, 0.0, 10.019159, 9.92077 
6.896831e+3, 2.4468368e+2, -580395.4, -666100.6, 281.445, 0.0017990901, 0.00018795273, -580394.44, -38293.59, 0.0, 10.01944, 9.907026 
6.896836e+3, 2.545908e+2, -481324.72, -567327.3, 256.57678, 0.0018007233, 0.0000051828324, -481323.94, -36313.066, 0.0, 10.019722, 9.906916 
6.896841e+3, 2.644907e+2, -392982.1, -490375.0, 240.22327, 0.0018016408, 0.00024863376, -392981.5, -44989.555, 0.0, 10.02001, 9.892506 
6.8968457e+3, 2.7438372e+2, -293374.03, -390674.3, 214.80159, 0.001801686, -0.00010222356, -293373.56, -42333.375, 0.0, 10.020305, 9.892906 
6.8968505e+3, 2.8426853e+2, -206544.52, -317320.6, 184.04059, 0.0018021861, 0.00032716233, -206544.22, -52374.99, 0.0, 10.020608, 9.87592 
6.896855e+3, 2.9414546e+2, -106487.98, -216889.42, 155.0809, 0.0018033098, -0.00015389503, -106487.76, -49112.848, 0.0, 10.020921, 9.876696 
6.8968606e+3, 3.0404994e+2, -17204.576, -85252.336, 109.92423, 0.0018039291, 0.00026805577, -17204.398, -17204.398, 0.0, 10.021245, 9.931615 
6.8968654e+3, 3.1398332e+2, -15711.072, -82930.43, 81.00754, 0.0018037073, 0.000028160272, -15710.975, -15710.975, 0.0, 10.021584, 9.93302 
6.9067955e+3, 1.2526561e+2, -1699859.4, -1721598.9, -9.108268, 0.0017980348, 0.0001952951, -1699859.4, 12538.872, 0.0, 10.0161295, 9.987301 
6.906799e+3, 1.3525276e+2, -1602016.3, -1624611.9, -33.784073, 0.0018009768, 0.000018064451, -1602016.1, 12507.901, 0.0, 10.016475, 9.986512 
6.906804e+3, 1.4523315e+2, -1513820.8, -1545816.9, 64.22403, 0.0018022306, 0.00027888193, -1513820.6, 2895.6406, 0.0, 10.016802, 9.974406 
6.9068074e+3, 1.5520753e+2, -1415690.3, -1448325.4, 35.489025, 0.0018015277, 0.00008656921, -1415690.1, 3277.0977, 0.0, 10.017112, 9.973872 
6.906812e+3, 1.6517517e+2, -1327462.0, -1369743.0, 103.18549, 0.0018020319, 0.000167311, -1327461.8, -6177.2813, 0.0, 10.017415, 9.961505 
6.9068164e+3, 1.7513672e+2, -1229128.9, -1271949.4, 74.48805, 0.0018037187, 0.000064235035, -1229128.8, -5467.538, 0.0, 10.017713, 9.961091 
6.906821e+3, 1.8509151e+2, -1140873.3, -1193621.5, 126.409325, 0.0018044913, 0.00020784637, -1140873.0, -14768.667, 0.0, 10.0180025, 9.948395 
6.906826e+3, 1.9503993e+2, -1042379.25, -1095603.3, 97.33942, 0.0018043146, 0.00007257956, -1042379.1, -13769.422, 0.0, 10.018285, 9.948051 
6.9068307e+3, 2.0498143e+2, -954278.0, -1017915.25, 139.51202, 0.0018047038, 0.00019255703, -954277.7, -23094.691, 0.0, 10.018567, 9.934754 
6.9068354e+3, 2.1491621e+2, -855655.0, -919768.44, 106.862625, 0.0018056285, -0.0000019348377, -855654.8, -21832.758, 0.0, 10.018849, 9.934411 
6.90684e+3, 2.2484414e+2, -767269.56, -841896.94, 133.8032, 0.0018065803, 0.0002431278, -767269.3, -30741.018, 0.0, 10.01913, 9.921038 
6.9068456e+3, 2.3476525e+2, -668513.44, -743610.5, 107.859, 0.0018075312, 0.000027430162, -668513.25, -29211.7, 0.0, 10.019409, 9.9207 
6.9068503e+3, 2.4467924e+2, -580060.5, -666007.44, 110.783356, 0.0018078382, 0.00018720183, -580060.4, -37916.04, 0.0, 10.019693, 9.90696 
6.906856e+3, 2.545863e+2, -480981.66, -567230.8, 86.06045, 0.001807404, 0.000004548082, -480981.6, -35926.57, 0.0, 10.019982, 9.906849 
6.906861e+3, 2.6448613e+2, -392628.25, -490269.66, 75.01271, 0.0018083594, 0.00024795768, -392628.2, -44591.473, 0.0, 10.020276, 9.892443 
6.9068664e+3, 2.7437907e+2, -293013.53, -390566.4, 53.325066, 0.0018109602, -0.000103114064, -293013.5, -41927.938, 0.0, 10.020577, 9.892844 
6.906871e+3, 2.8426382e+2, -206180.66, -317228.63, 31.71325, 0.001811526, 0.00032651116, -206180.66, -51965.367, 0.0, 10.02089, 9.875843 
6.9068766e+3, 2.9414073e+2, -106102.914, -216789.22, 2.2880206, 0.0018094868, -0.00015373317, -106102.914, -48681.184, 0.0, 10.021219, 9.876617 
6.906882e+3, 3.0404508e+2, -16786.912, -85114.305, -29.881895, 0.0018101308, 0.00026755044, -16786.898, -16786.898, 0.0, 10.021559, 9.931558 
6.9068867e+3, 3.1397843e+2, -15272.403, -82779.766, -49.990997, 0.00181444, 0.000024950703, -15272.366, -15272.366, 0.0, 10.021911, 9.932964 
6.9168115e+3, 1.2526175e+2, -1699916.6, -1721712.5, 109.13738, 0.0018127526, 0.00019766427, -1699916.1, 12519.971, 0.0, 10.016132, 9.987229 
6.9168156e+3, 1.3524882e+2, -1602075.9, -1624726.6, 83.924866, 0.0018037134, 0.000015927737, -1602075.6, 12487.088, 0.0, 10.016476, 9.986441 
6.9168204e+3, 1.4522915e+2, -1513888.1, -1545945.1, 169.16138, 0.0018041169, 0.00027596456, -1513887.3, 2868.3354, 0.0, 10.016802, 9.974327 
6.9168246e+3, 1.5520345e+2, -1415756.6, -1448452.8, 140.5168, 0.001812678, 0.00008623095, -1415756.0, 3251.4268, 0.0, 10.017112, 9.973793 
6.9168293e+3, 1.65171e+2, -1327527.9, -1369867.5, 203.0904, 0.0018141647, 0.00016781033, -1327526.9, -6201.444, 0.0, 10.017415, 9.961428 
6.916835e+3, 1.7513247e+2, -1229197.6, -1272075.0, 174.08409, 0.0018091594, 0.000063962165, -1229196.9, -5493.9956, 0.0, 10.01771, 9.961014 
6.9168395e+3, 1.8508717e+2, -1140942.6, -1193746.4, 220.56418, 0.0018090864, 0.00020678862, -1140941.8, -14795.041, 0.0, 10.017998, 9.9483185 
6.916844e+3, 1.9503552e+2, -1042448.4, -1095727.6, 191.32158, 0.0018136491, 0.00007072185, -1042447.7, -13794.796, 0.0, 10.01828, 9.947975 
6.916849e+3, 2.0497695e+2, -954354.7, -1018053.9, 233.19394, 0.0018145941, 0.0001909792, -954353.8, -23126.86, 0.0, 10.018562, 9.9346695 
6.9168544e+3, 2.1491165e+2, -855732.3, -919906.94, 200.6096, 0.0018119087, -0.0000021589647, -855731.7, -21864.863, 0.0, 10.018843, 9.934325 
6.916859e+3, 2.248395e+2, -767335.5, -842010.7, 226.68748, 0.0018125128, 0.00024339986, -767334.8, -30760.955, 0.0, 10.019122, 9.920968 
6.9168645e+3, 2.3476051e+2, -668580.94, -743724.44, 200.69682, 0.001816537, 0.000027301421, -668580.4, -29232.588, 0.0, 10.0194, 9.920631 
6.91687e+3, 2.4467446e+2, -580127.7, -666118.2, 207.43983, 0.0018172031, 0.00018627646, -580127.2, -37935.96, 0.0, 10.019682, 9.906894 
6.916875e+3, 2.5458145e+2, -481049.94, -567341.56, 183.12991, 0.0018141005, 0.0000023815614, -481049.56, -35946.98, 0.0, 10.01997, 9.906783 
6.916881e+3, 2.644812e+2, -392692.3, -490370.03, 176.50711, 0.0018148483, 0.00024620094, -392692.0, -44607.09, 0.0, 10.020263, 9.892384 
6.9168866e+3, 2.7437413e+2, -293077.9, -390666.1, 154.71413, 0.001820194, -0.00010248279, -293077.66, -41943.35, 0.0, 10.020563, 9.892785 
6.916892e+3, 2.8425878e+2, -206260.3, -317357.66, 143.47807, 0.0018207402, 0.00032746178, -206260.11, -51995.434, 0.0, 10.020875, 9.875766 
6.916897e+3, 2.941356e+2, -106185.1, -216920.56, 115.70573, 0.0018150922, -0.00015517787, -106184.98, -48713.055, 0.0, 10.021203, 9.876539 
6.916903e+3, 3.040399e+2, -16848.354, -85200.84, 91.114716, 0.0018161888, 0.00026466235, -16848.23, -16848.23, 0.0, 10.021541, 9.931507 
6.9169086e+3, 3.139732e+2, -15331.63, -82861.73, 71.32456, 0.0018266974, 0.000022022825, -15331.555, -15331.555, 0.0, 10.021893, 9.932918 
6.926828e+3, 1.2525748e+2, -1699682.4, -1721678.3, -26.153221, 0.0018171024, 0.00019485805, -1699682.3, 12795.643, 0.0, 10.016319, 9.98715 
6.926833e+3, 1.3524447e+2, -1601825.6, -1624684.4, -56.435936, 0.0018141796, 0.00001625889, -1601825.4, 12779.8545, 0.0, 10.016673, 9.9863615 
6.9268376e+3, 1.4522472e+2, -1513621.5, -1545898.9, 13.489273, 0.0018148972, 0.00027671308, -1513621.5, 3177.4343, 0.0, 10.017012, 9.974244 
6.9268423e+3, 1.5519893e+2, -1415468.8, -1448395.8, -17.706984, 0.001818487, 0.00008491352, -1415468.8, 3582.9004, 0.0, 10.017336, 9.97371 
6.926847e+3, 1.651664e+2, -1327231.5, -1369807.5, 32.091354, 0.0018193676, 0.00016601224, -1327231.5, -5861.068, 0.0, 10.017645, 9.961345 
6.926852e+3, 1.7512779e+2, -1228904.4, -1272017.3, -0.578212, 0.0018178121, 0.000063167114, -1228904.4, -5155.6304, 0.0, 10.017939, 9.960931 
6.926857e+3, 1.850824e+2, -1140645.3, -1193685.1, 38.74306, 0.0018182539, 0.0002065863, -1140645.3, -14451.898, 0.0, 10.0182295, 9.948236 
6.9268626e+3, 1.9503069e+2, -1042143.75, -1095663.4, 6.1550217, 0.0018205125, 0.00007071934, -1042143.75, -13443.444, 0.0, 10.0185175, 9.947893 
6.926868e+3, 2.0497201e+2, -954049.0, -1017994.1, 44.048473, 0.001821144, 0.00019071034, -954048.94, -22773.738, 0.0, 10.018803, 9.934584 
6.9268733e+3, 2.1490663e+2, -855426.5, -919847.8, 11.249624, 0.0018201368, -0.0000031593154, -855426.5, -21510.57, 0.0, 10.019085, 9.93424 
6.9268787e+3, 2.2483441e+2, -767018.5, -841928.25, 34.729458, 0.001820781, 0.00024240276, -767018.5, -30394.785, 0.0, 10.019363, 9.920898 
6.926884e+3, 2.3475537e+2, -668267.75, -743644.44, 8.524107, 0.0018231178, 0.000027085574, -668267.75, -28869.428, 0.0, 10.01964, 9.920562 
6.92689e+3, 2.4466923e+2, -579810.9, -666029.7, 19.759521, 0.0018239749, 0.00018608336, -579810.9, -37568.473, 0.0, 10.019922, 9.906831 
6.926896e+3, 2.5457618e+2, -480732.47, -567253.3, -2.427713, 0.001823168, 0.00000136457, -480732.47, -35578.1, 0.0, 10.020211, 9.906721 
6.9269013e+3, 2.6447585e+2, -392368.7, -490276.66, -3.315749, 0.0018237726, 0.00024520644, -392368.7, -44231.402, 0.0, 10.020508, 9.8923235 
6.9269073e+3, 2.743687e+2, -292746.7, -390569.7, -24.84006, 0.00182603, -0.00010242839, -292746.7, -41559.418, 0.0, 10.020814, 9.892725 
6.926913e+3, 2.8425333e+2, -205926.86, -317271.2, -24.869446, 0.0018269146, 0.00032735112, -205926.84, -51608.586, 0.0, 10.021132, 9.875697 
6.926919e+3, 2.9413006e+2, -105843.3, -216831.63, -46.781094, 0.0018260995, -0.00015704452, -105843.27, -48317.066, 0.0, 10.021468, 9.87647 
6.9269246e+3, 3.040343e+2, -16477.004, -85075.69, -54.64551, 0.0018274013, 0.00026297846, -16476.96, -16476.96, 0.0, 10.021818, 9.931458 
6.9269305e+3, 3.1396753e+2, -14928.652, -82718.74, -72.33813, 0.0018314221, 0.000023358001, -14928.575, -14928.575, 0.0, 10.022191, 9.93287 
6.936844e+3, 1.2525287e+2, -1699749.8, -1721813.5, 95.84576, 0.0018163618, 0.00018933155, -1699749.3, 12773.803, 0.0, 10.016323, 9.987065 
6.9368494e+3, 1.352398e+2, -1601893.9, -1624819.6, 65.24337, 0.0018283848, 0.000017547964, -1601893.6, 12757.55, 0.0, 10.016676, 9.986276 
6.936855e+3, 1.4521994e+2, -1513692.0, -1546036.1, 124.17515, 0.0018300127, 0.00027902468, -1513691.5, 3154.2007, 0.0, 10.017014, 9.974158 
6.9368595e+3, 1.5519406e+2, -1415540.8, -1448533.6, 92.58422, 0.0018217423, 0.00008294535, -1415540.5, 3558.7334, 0.0, 10.017336, 9.973624 
6.936865e+3, 1.6516143e+2, -1327306.4, -1369948.8, 130.81377, 0.0018212348, 0.00016291936, -1327305.9, -5887.012, 0.0, 10.017644, 9.961256 
6.93687e+3, 1.7512275e+2, -1228979.8, -1272158.5, 98.225174, 0.001828023, 0.00006188623, -1228979.5, -5181.458, 0.0, 10.017937, 9.960843 
6.9368756e+3, 1.850773e+2, -1140720.5, -1193824.0, 135.00655, 0.0018296341, 0.00020655936, -1140720.1, -14476.641, 0.0, 10.018227, 9.948151 
6.936881e+3, 1.9502549e+2, -1042220.6, -1095802.8, 101.46431, 0.0018261882, 0.00007140922, -1042220.44, -13469.11, 0.0, 10.018513, 9.947807 
6.936887e+3, 2.0496672e+2, -954127.56, -1018133.75, 137.03455, 0.0018260939, 0.0001908832, -954127.25, -22800.158, 0.0, 10.018796, 9.934499 
6.936893e+3, 2.1490125e+2, -855507.0, -919987.94, 104.9608, 0.0018293317, -0.000004738029, -855506.8, -21538.135, 0.0, 10.019076, 9.9341545 
6.936898e+3, 2.2482894e+2, -767087.94, -842044.3, 126.79552, 0.0018302021, 0.0002405682, -767087.7, -30410.494, 0.0, 10.019354, 9.920829 
6.936904e+3, 2.3474984e+2, -668337.44, -743760.0, 100.54649, 0.0018285341, 0.000026571577, -668337.3, -28884.797, 0.0, 10.0196295, 9.920493 
6.93691e+3, 2.4466364e+2, -579875.6, -666132.56, 116.51987, 0.0018294844, 0.00018601089, -579875.5, -37578.27, 0.0, 10.01991, 9.90677 
6.936916e+3, 2.545705e+2, -480799.88, -567356.8, 94.24505, 0.0018333666, 0.00000074337976, -480799.78, -35590.016, 0.0, 10.020197, 9.90666 
6.936922e+3, 2.6447016e+2, -392437.4, -490379.97, 99.821785, 0.001833882, 0.00024441717, -392437.3, -44244.043, 0.0, 10.020492, 9.892263 
6.936928e+3, 2.7436295e+2, -292815.47, -390672.53, 79.226166, 0.0018302915, -0.000102929414, -292815.4, -41571.57, 0.0, 10.020798, 9.892666 
6.936934e+3, 2.8424746e+2, -206000.14, -317381.1, 89.523895, 0.0018316562, 0.00032645703, -206000.08, -51624.625, 0.0, 10.021115, 9.875633 
6.9369406e+3, 2.9412416e+2, -105919.15, -216942.67, 67.84995, 0.0018396142, -0.00015924653, -105919.11, -48335.094, 0.0, 10.021448, 9.876406 
6.9369465e+3, 3.0402836e+2, -16541.5, -85160.766, 72.42393, 0.0018410267, 0.00026177845, -16541.424, -16541.424, 0.0, 10.021797, 9.931411 
6.936953e+3, 3.1396154e+2, -14991.855, -82801.07, 56.77334, 0.001832666, 0.000026499678, -14991.808, -14991.808, 0.0, 10.02217, 9.932825 
6.9468606e+3, 1.2524785e+2, -1699482.8, -1721777.1, -47.78146, 0.0018257736, 0.00018949943, -1699482.6, 13089.578, 0.0, 10.016537, 9.986973 
6.946866e+3, 1.3523468e+2, -1601607.5, -1624773.4, -83.36428, 0.0018335348, 0.000015331136, -1601607.3, 13094.103, 0.0, 10.016902, 9.986183 
6.946872e+3, 1.4521474e+2, -1513393.4, -1545984.9, -42.21008, 0.0018351357, 0.0002768617, -1513393.3, 3503.4226, 0.0, 10.017248, 9.974065 
6.946877e+3, 1.5518877e+2, -1415235.9, -1448479.6, -78.52592, 0.0018307394, 0.000083067294, -1415235.6, 3915.4736, 0.0, 10.017576, 9.973531 
6.9468826e+3, 1.6515605e+2, -1326994.4, -1369889.3, -56.005516, 0.0018306826, 0.00016332818, -1326994.3, -5522.606, 0.0, 10.017888, 9.961165 
6.946888e+3, 1.7511728e+2, -1228664.6, -1272098.1, -91.07351, 0.0018347054, 0.000060725368, -1228664.4, -4812.634, 0.0, 10.018184, 9.960752 
6.946894e+3, 1.8507172e+2, -1140412.4, -1193776.3, -63.254574, 0.0018356587, 0.0002050949, -1140412.3, -14114.153, 0.0, 10.018474, 9.948052 
6.9469e+3, 1.9501981e+2, -1041918.94, -1095759.0, -103.52181, 0.0018335901, 0.00007085956, -1041918.75, -13111.849, 0.0, 10.018757, 9.947709 
6.946906e+3, 2.0496097e+2, -953818.94, -1018066.06, -73.71308, 0.0018340702, 0.00019075435, -953818.8, -22435.287, 0.0, 10.019035, 9.934419 
6.946912e+3, 2.1489541e+2, -855208.44, -919926.1, -103.49278, 0.0018370718, -0.000004939151, -855208.25, -21182.383, 0.0, 10.01931, 9.934074 
6.946918e+3, 2.2482303e+2, -766787.44, -841970.4, -81.913666, 0.0018376361, 0.00023996174, -766787.3, -30052.172, 0.0, 10.019585, 9.920759 
6.946924e+3, 2.3474385e+2, -668039.8, -743688.0, -108.19886, 0.0018355913, 0.000025208825, -668039.6, -28528.512, 0.0, 10.019859, 9.9204235 
6.94693e+3, 2.4465759e+2, -579578.06, -666052.3, -89.90711, 0.0018365427, 0.00018494486, -579578.0, -37221.508, 0.0, 10.020136, 9.906709 
6.946936e+3, 2.545644e+2, -480512.78, -567282.25, -112.16322, 0.0018408461, 0.0000011623832, -480512.63, -35242.992, 0.0, 10.020417, 9.906599 
6.946943e+3, 2.64464e+2, -392146.3, -490293.97, -96.40012, 0.0018417465, 0.00024476845, -392146.22, -43892.504, 0.0, 10.020711, 9.892212 
6.9469494e+3, 2.7435672e+2, -292518.28, -390583.75, -112.235374, 0.0018384897, -0.00010451456, -292518.16, -41213.355, 0.0, 10.021022, 9.892614 
6.9469553e+3, 2.842412e+2, -205707.58, -317311.13, -91.4901, 0.001839449, 0.00032476828, -205707.52, -51270.535, 0.0, 10.021343, 9.875567 
6.946962e+3, 2.941178e+2, -105623.63, -216873.22, -112.927635, 0.0018460467, -0.00015863913, -105623.516, -47977.336, 0.0, 10.02168, 9.876339 
6.946969e+3, 3.0402195e+2, -16213.562, -85043.27, -86.60661, 0.0018477541, 0.00026310261, -16213.452, -16213.452, 0.0, 10.022039, 9.931374 
6.946975e+3, 3.139551e+2, -14633.657, -82665.29, -94.005, 0.0018420018, 0.000026327483, -14633.527, -14633.527, 0.0, 10.022431, 9.93279 
6.956878e+3, 1.2524249e+2, -1699561.1, -1721933.5, 78.44239, 0.0018401704, 0.00019226322, -1699560.8, 13064.037, 0.0, 10.0165415, 9.986875 
6.956883e+3, 1.352292e+2, -1601684.9, -1624928.9, 42.724133, 0.0018343132, 0.000011222848, -1601684.8, 13070.189, 0.0, 10.016907, 9.986085 
6.9568884e+3, 1.4520916e+2, -1513472.1, -1546141.6, 69.860466, 0.0018354014, 0.0002723183, -1513471.9, 3479.4172, 0.0, 10.017252, 9.973966 
6.9568944e+3, 1.551831e+2, -1415316.8, -1448637.0, 33.250694, 0.0018425067, 0.000083949744, -1415316.8, 3889.9485, 0.0, 10.017578, 9.973432 
6.9569004e+3, 1.651503e+2, -1327073.3, -1370040.4, 43.61503, 0.0018438074, 0.00016519605, -1327073.3, -5545.077, 0.0, 10.017888, 9.961071 
6.9569063e+3, 1.7511141e+2, -1228744.5, -1272249.5, 8.2600975, 0.0018397109, 0.000059437418, -1228744.5, -4835.3467, 0.0, 10.018183, 9.960657 
6.956912e+3, 1.8506576e+2, -1140503.8, -1193946.8, 31.283056, 0.001839131, 0.00020274098, -1140503.8, -14147.161, 0.0, 10.018471, 9.947947 
6.956918e+3, 1.9501373e+2, -1042012.9, -1095930.3, -8.885753, 0.001841873, 0.000069448964, -1042012.9, -13146.51, 0.0, 10.018751, 9.947603 
6.956925e+3, 2.049548e+2, -953892.4, -1018194.0, 17.67762, 0.0018435288, 0.00019020175, -953892.4, -22448.473, 0.0, 10.019029, 9.9343405 
6.9569314e+3, 2.1488917e+2, -855283.4, -920054.3, -12.412622, 0.0018440571, -0.0000047223853, -855283.4, -21196.365, 0.0, 10.019301, 9.933997 
6.9569373e+3, 2.2481672e+2, -766858.56, -842087.2, 9.070729, 0.0018440794, 0.00023973457, -766858.56, -30061.578, 0.0, 10.019574, 9.92069 
6.956944e+3, 2.3473747e+2, -668114.1, -743805.9, -17.118872, 0.0018435329, 0.000023254493, -668114.1, -28540.465, 0.0, 10.019845, 9.920354 
6.9569504e+3, 2.4465114e+2, -579648.06, -666158.6, 3.9113014, 0.0018444305, 0.00018319252, -579648.06, -37228.402, 0.0, 10.020122, 9.906647 
6.9569564e+3, 2.545579e+2, -480582.13, -567387.56, -18.00468, 0.0018469413, 0.0000017755415, -480582.13, -35248.754, 0.0, 10.020402, 9.906538 
6.9569635e+3, 2.6445743e+2, -392208.03, -490380.22, 8.507601, 0.0018484349, 0.00024538214, -392208.03, -43890.063, 0.0, 10.020694, 9.892163 
6.95697e+3, 2.7435014e+2, -292584.47, -390671.03, -7.028744, 0.0018486491, -0.000106768035, -292584.47, -41214.92, 0.0, 10.021001, 9.892567 
6.956977e+3, 2.8423452e+2, -205789.31, -317427.03, 23.315882, 0.001848814, 0.00032255973, -205789.31, -51287.043, 0.0, 10.02132, 9.875503 
6.956984e+3, 2.9411107e+2, -105704.03, -216989.52, 3.421076, 0.0018490452, -0.0001569982, -105704.03, -47991.93, 0.0, 10.021658, 9.876272 
6.956991e+3, 3.0401516e+2, -16269.274, -85105.24, 48.539536, 0.0018511034, 0.00026528377, -16269.24, -16269.24, 0.0, 10.022016, 9.931342 
6.9569975e+3, 3.139483e+2, -14694.176, -82725.125, 43.22462, 0.0018552748, 0.000024314779, -14694.148, -14694.148, 0.0, 10.022403, 9.932763 
6.966894e+3, 1.2523668e+2, -1699258.0, -1721891.6, -74.14101, 0.0018460972, 0.00019062603, -1699257.9, 13423.906, 0.0, 10.016784, 9.98677 
6.9668996e+3, 1.352233e+2, -1601358.0, -1624874.9, -114.57308, 0.0018426189, 0.000011017982, -1601357.5, 13455.36, 0.0, 10.017165, 9.98598 
6.966906e+3, 1.4520316e+2, -1513135.4, -1546084.9, -110.429665, 0.0018437344, 0.000272122, -1513135.0, 3875.2878, 0.0, 10.017518, 9.97386 
6.966912e+3, 1.5517698e+2, -1414981.1, -1448581.5, -151.8106, 0.0018487192, 0.00008244456, -1414980.5, 4286.1826, 0.0, 10.017844, 9.973326 
6.966919e+3, 1.6514407e+2, -1326735.5, -1369979.0, -158.4162, 0.0018498085, 0.00016372924, -1326734.9, -5145.7676, 0.0, 10.018153, 9.96097 
6.9669247e+3, 1.7510508e+2, -1228410.1, -1272190.8, -198.11417, 0.0018472881, 0.000059288377, -1228409.3, -4438.071, 0.0, 10.018447, 9.960556 
6.966931e+3, 1.8505932e+2, -1140184.8, -1193905.5, -186.01878, 0.0018474021, 0.00020274652, -1140184.1, -13764.594, 0.0, 10.018729, 9.947838 
6.966938e+3, 1.950072e+2, -1041709.94, -1095898.1, -228.58878, 0.0018499786, 0.00006848327, -1041708.94, -12778.553, 0.0, 10.019001, 9.9474945 
6.966944e+3, 2.0494817e+2, -953581.94, -1018127.25, -207.67523, 0.0018507595, 0.00018890583, -953581.25, -22072.38, 0.0, 10.01927, 9.934259 
6.96695e+3, 2.1488246e+2, -854986.6, -919995.3, -240.07666, 0.0018497017, -0.0000057039088, -854985.75, -20832.984, 0.0, 10.019535, 9.933916 
6.966957e+3, 2.2480993e+2, -766568.25, -842017.0, -221.76682, 0.0018504643, 0.00023928017, -766567.6, -29704.105, 0.0, 10.019797, 9.920622 
6.966964e+3, 2.3473062e+2, -667844.44, -743746.6, -247.46025, 0.0018531263, 0.00002355726, -667843.6, -28202.795, 0.0, 10.020056, 9.920286 
6.96697e+3, 2.4464422e+2, -579381.8, -666089.56, -220.00621, 0.0018537053, 0.00018310151, -579381.25, -36893.78, 0.0, 10.020325, 9.9065895 
6.966977e+3, 2.545509e+2, -480317.97, -567319.75, -239.48904, 0.0018519086, -0.000000009773839, -480317.28, -34915.543, 0.0, 10.020605, 9.906481 
6.966984e+3, 2.644504e+2, -391945.44, -490302.44, -204.98021, 0.0018533751, 0.00024374833, -391945.0, -43558.13, 0.0, 10.020892, 9.892117 
6.9669914e+3, 2.7434304e+2, -292339.56, -390602.13, -219.03587, 0.0018587497, -0.00010599378, -292339.1, -40900.2, 0.0, 10.021188, 9.89252 
6.966998e+3, 2.8422743e+2, -205552.75, -317373.78, -170.76108, 0.0018594263, 0.00032357476, -205552.48, -50980.38, 0.0, 10.021507, 9.875446 
6.967005e+3, 2.941039e+2, -105448.88, -216928.48, -183.85773, 0.0018540586, -0.00015861262, -105448.58, -47666.063, 0.0, 10.021858, 9.876216 
6.967013e+3, 3.0400795e+2, -15983.068, -84992.28, -117.580795, 0.0018556626, 0.00026237895, -15982.868, -15982.868, 0.0, 10.0222225, 9.931318 
6.96702e+3, 3.1394103e+2, -14409.946, -82609.0, -116.751595, 0.0018667298, 0.000022150163, -14409.747, -14409.747, 0.0, 10.022607, 9.932743 
6.976911e+3, 1.252305e+2, -1699340.3, -1722064.0, 59.00829, 0.0018478582, 0.00018661698, -1699340.1, 13402.203, 0.0, 10.016792, 9.986659 
6.976917e+3, 1.3521701e+2, -1601444.6, -1625049.3, 17.696997, 0.0018545897, 0.0000124527605, -1601444.6, 13429.775, 0.0, 10.01717, 9.98587 
6.9769233e+3, 1.4519675e+2, -1513225.3, -1546262.5, 1.3225071, 0.0018560307, 0.00027380962, -1513225.3, 3847.6555, 0.0, 10.017521, 9.973748 
6.97693e+3, 1.5517047e+2, -1415070.5, -1448758.3, -40.20339, 0.0018523, 0.000079589074, -1415070.5, 4259.9785, 0.0, 10.017847, 9.973214 
6.9769365e+3, 1.6513745e+2, -1326822.1, -1370148.3, -59.126038, 0.001852399, 0.00016043287, -1326822.0, -5167.963, 0.0, 10.018155, 9.960863 
6.976943e+3, 1.7509837e+2, -1228499.8, -1272361.3, -98.963326, 0.0018561251, 0.00005940267, -1228499.5, -4462.4634, 0.0, 10.018446, 9.960449 
6.9769496e+3, 1.8505248e+2, -1140281.6, -1194085.9, -95.250084, 0.0018579895, 0.00020361009, -1140281.5, -13794.94, 0.0, 10.018726, 9.947726 
6.976957e+3, 1.9500026e+2, -1041808.8, -1096079.0, -138.09444, 0.0018579733, 0.00006751962, -1041808.44, -12809.95, 0.0, 10.018996, 9.947383 
6.9769627e+3, 2.0494112e+2, -953661.4, -1018265.9, -119.62809, 0.0018569363, 0.00018705087, -953661.1, -22083.195, 0.0, 10.019262, 9.934175 
6.97697e+3, 2.1487534e+2, -855069.3, -920135.0, -151.90129, 0.0018548361, -0.0000075109765, -855069.0, -20846.305, 0.0, 10.019525, 9.933831 
6.9769764e+3, 2.2480273e+2, -766640.7, -842132.7, -135.7066, 0.0018568942, 0.0002384332, -766640.44, -29706.277, 0.0, 10.019785, 9.920553 
6.976984e+3, 2.3472334e+2, -667917.7, -743861.94, -161.66829, 0.0018633426, 0.000024638994, -667917.4, -28205.252, 0.0, 10.020042, 9.920218 
6.9769907e+3, 2.446369e+2, -579448.3, -666186.9, -126.622696, 0.001863506, 0.00018354815, -579448.2, -36888.83, 0.0, 10.0203085, 9.906534 
6.976998e+3, 2.5454354e+2, -480388.8, -567418.3, -145.8071, 0.0018565407, -0.0000031093844, -480388.56, -34914.387, 0.0, 10.020585, 9.906426 
6.977005e+3, 2.6444295e+2, -392012.22, -490388.47, -105.205185, 0.00185767, 0.00024085719, -392012.13, -43552.313, 0.0, 10.02087, 9.892071 
6.977012e+3, 2.7433556e+2, -292405.9, -390686.94, -118.54678, 0.0018685876, -0.000104117324, -292405.75, -40893.543, 0.0, 10.021165, 9.892475 
6.97702e+3, 2.842199e+2, -205626.13, -317468.13, -50.4998, 0.0018703826, 0.00032578618, -205626.11, -50980.203, 0.0, 10.021482, 9.875396 
6.977027e+3, 2.9409632e+2, -105529.195, -217026.25, -62.09612, 0.0018603022, -0.00016194001, -105529.164, -47672.316, 0.0, 10.021829, 9.876165 
6.9770354e+3, 3.0400032e+2, -16041.735, -85040.94, 15.209753, 0.0018611086, 0.00025698807, -16041.732, -16041.732, 0.0, 10.022191, 9.931301 
6.977043e+3, 3.139334e+2, -14462.698, -82650.59, 17.882935, 0.0018769637, 0.000019777628, -14462.693, -14462.693, 0.0, 10.022577, 9.932729 
6.986928e+3, 1.2522389e+2, -1698971.9, -1722008.6, -100.027115, 0.0018537954, 0.0001854, -1698971.4, 13835.675, 0.0, 10.017085, 9.986536 
6.9869345e+3, 1.3521028e+2, -1601080.3, -1624996.6, -149.46602, 0.0018612315, 0.000010876924, -1601079.4, 13861.13, 0.0, 10.017462, 9.985746 
6.9869417e+3, 1.451899e+2, -1512856.0, -1546202.6, -190.53502, 0.0018632299, 0.00027261575, -1512854.9, 4285.264, 0.0, 10.017814, 9.97363 
6.986948e+3, 1.551635e+2, -1414697.0, -1448696.9, -236.86473, 0.0018599741, 0.00007946384, -1414695.4, 4703.519, 0.0, 10.018143, 9.973096 
6.986955e+3, 1.6513036e+2, -1326450.0, -1370081.6, -276.6453, 0.0018600808, 0.00016014664, -1326448.3, -4724.7007, 0.0, 10.018448, 9.960751 
6.9869614e+3, 1.7509116e+2, -1228145.1, -1272304.8, -320.4235, 0.0018633475, 0.000057805188, -1228142.9, -4035.2039, 0.0, 10.018729, 9.960337 
6.9869685e+3, 1.8504518e+2, -1139950.5, -1194049.9, -329.91992, 0.001864793, 0.00020206398, -1139948.5, -13390.163, 0.0, 10.018999, 9.947607 
6.9869757e+3, 1.9499281e+2, -1041497.3, -1096053.9, -377.14148, 0.0018644067, 0.00006735477, -1041494.7, -12423.324, 0.0, 10.019257, 9.947264 
6.986982e+3, 2.0493358e+2, -953345.9, -1018199.6, -365.84903, 0.0018643374, 0.00018710572, -953343.8, -21691.998, 0.0, 10.019508, 9.934091 
6.98699e+3, 2.1486771e+2, -854782.56, -920084.06, -398.6795, 0.0018645582, -0.000008418681, -854780.1, -20482.754, 0.0, 10.0197525, 9.933747 
6.9869965e+3, 2.2479503e+2, -766365.7, -842071.4, -384.10632, 0.0018655818, 0.00023705405, -766363.75, -29354.148, 0.0, 10.019999, 9.920485 
6.9870037e+3, 2.3471558e+2, -667661.4, -743810.44, -410.723, 0.0018674093, 0.000023315268, -667659.1, -27870.87, 0.0, 10.020245, 9.92015 
6.9870114e+3, 2.4462906e+2, -579202.44, -666122.44, -370.76694, 0.0018681912, 0.00018281452, -579200.9, -36564.766, 0.0, 10.020496, 9.906482 
6.9870186e+3, 2.5453565e+2, -480171.16, -567368.06, -388.1327, 0.0018678015, -0.000002637906, -480169.4, -34617.977, 0.0, 10.020755, 9.906374 
6.987026e+3, 2.6443502e+2, -391801.13, -490326.8, -335.25415, 0.0018688875, 0.00024112476, -391799.97, -43262.46, 0.0, 10.021029, 9.892032 
6.9870335e+3, 2.743276e+2, -292197.16, -390626.13, -343.84915, 0.0018716466, -0.00010576968, -292195.97, -40605.64, 0.0, 10.021323, 9.892437 
6.987041e+3, 2.8421184e+2, -205433.66, -317425.78, -258.05032, 0.0018734002, 0.0003238647, -205433.06, -50708.64, 0.0, 10.021634, 9.87535 
6.9870496e+3, 2.9408824e+2, -105357.4, -216995.3, -265.76816, 0.0018740864, -0.00016192999, -105356.766, -47420.957, 0.0, 10.021967, 9.876118 
6.9870573e+3, 3.039922e+2, -15839.079, -84948.7, -159.81744, 0.0018755815, 0.00025814513, -15838.71, -15838.71, 0.0, 10.022332, 9.931294 
6.9870657e+3, 3.1392533e+2, -14221.425, -82534.35, -147.28938, 0.0018773206, 0.000020989653, -14221.107, -14221.107, 0.0, 10.022742, 9.932728 
6.9969445e+3, 1.2521689e+2, -1699074.1, -1722217.8, 31.423628, 0.0018618725, 0.00018536873, -1699074.0, 13801.619, 0.0, 10.017094, 9.986403 
6.996952e+3, 1.3520314e+2, -1601180.3, -1625203.9, -17.962395, 0.0018653062, 0.0000076243364, -1601180.3, 13830.086, 0.0, 10.01747, 9.985614 
6.996959e+3, 1.4518264e+2, -1512950.5, -1546397.4, -76.59194, 0.0018679287, 0.0002697762, -1512950.4, 4260.9385, 0.0, 10.01782, 9.973505 
6.9969666e+3, 1.551561e+2, -1414795.9, -1448893.4, -123.51784, 0.0018696289, 0.00008036342, -1414795.4, 4675.8237, 0.0, 10.0181465, 9.972972 
6.996973e+3, 1.6512285e+2, -1326546.1, -1370268.4, -181.51547, 0.0018702556, 0.00016104644, -1326545.4, -4748.2397, 0.0, 10.01845, 9.960633 
6.9969803e+3, 1.7508355e+2, -1228242.9, -1272492.0, -225.29553, 0.0018698464, 0.00005518313, -1228241.8, -4059.3965, 0.0, 10.018728, 9.960219 
6.9969875e+3, 1.8503743e+2, -1140056.5, -1194249.1, -243.53204, 0.0018698346, 0.00019913417, -1140055.4, -13421.232, 0.0, 10.018996, 9.947483 
6.9969946e+3, 1.9498494e+2, -1041606.56, -1096254.3, -290.79642, 0.0018701568, 0.000067244575, -1041605.0, -12456.504, 0.0, 10.019251, 9.94714 
6.997002e+3, 2.0492561e+2, -953427.1, -1018340.44, -284.5939, 0.0018723275, 0.0001877443, -953425.9, -21695.889, 0.0, 10.0195, 9.934005 
6.9970095e+3, 2.1485965e+2, -854866.56, -920225.6, -317.8529, 0.0018763408, -0.000009140806, -854865.0, -20488.664, 0.0, 10.019742, 9.933662 
6.9970167e+3, 2.2478689e+2, -766441.06, -842190.9, -302.64163, 0.0018752924, 0.00023521042, -766439.8, -29350.484, 0.0, 10.019985, 9.920414 
6.997024e+3, 2.3470737e+2, -667739.6, -743930.6, -329.03876, 0.001868773, 0.00002060619, -667738.2, -27869.488, 0.0, 10.020228, 9.92008 
6.9970316e+3, 2.4462079e+2, -579269.75, -666215.3, -284.53983, 0.0018705948, 0.0001812344, -579268.8, -36551.695, 0.0, 10.020478, 9.906431 
6.9970393e+3, 2.5452733e+2, -480241.44, -567461.2, -301.80548, 0.0018819415, -0.0000008343725, -480240.38, -34607.46, 0.0, 10.020734, 9.906324 
6.997047e+3, 2.6442668e+2, -391863.1, -490397.34, -235.8622, 0.0018831481, 0.0002425733, -391862.53, -43243.117, 0.0, 10.021005, 9.891997 
6.9970554e+3, 2.743192e+2, -292261.97, -390696.63, -243.57982, 0.0018718002, -0.00010925723, -292261.34, -40588.785, 0.0, 10.0212965, 9.892404 
6.997063e+3, 2.8420344e+2, -205509.06, -317513.06, -143.69753, 0.0018729296, 0.00031984114, -205508.88, -50701.824, 0.0, 10.021605, 9.875306 
6.9970715e+3, 2.9407978e+2, -105435.484, -217084.33, -150.16653, 0.0018909537, -0.00016065987, -105435.28, -47416.445, 0.0, 10.021935, 9.876074 
6.99708e+3, 3.0398375e+2, -15887.005, -84969.61, -18.441404, 0.0018938369, 0.00026204286, -15887.0, -15887.0, 0.0, 10.022298, 9.931296 
6.997088e+3, 3.1391683e+2, -14270.821, -82550.05, -3.2908773, 0.0018735549, 0.000023629616, -14270.821, -14270.821, 0.0, 10.022705, 9.9327345 
7.006962e+3, 1.2520944e+2, -1698657.3, -1722154.8, -135.26785, 0.0018699367, 0.00018536589, -1698656.5, 14292.232, 0.0, 10.017425, 9.986264 
7.0069695e+3, 1.3519555e+2, -1600746.3, -1625132.5, -190.16315, 0.0018711135, 0.0000066220823, -1600744.8, 14339.99, 0.0, 10.017813, 9.985475 
7.006977e+3, 1.451749e+2, -1512517.1, -1546323.3, -279.74472, 0.0018733805, 0.00026827524, -1512514.9, 4772.1626, 0.0, 10.018163, 9.97337 
7.0069844e+3, 1.5514825e+2, -1414386.3, -1448832.8, -333.86026, 0.001876541, 0.00007882002, -1414383.1, 5165.1714, 0.0, 10.018475, 9.972836 
7.0069915e+3, 1.6511486e+2, -1326146.4, -1370199.4, -414.71613, 0.0018779106, 0.00015991706, -1326142.5, -4267.08, 0.0, 10.018765, 9.96051 
7.006999e+3, 1.7507543e+2, -1227861.1, -1272433.5, -462.7122, 0.0018775504, 0.000054919918, -1227856.4, -3594.4666, 0.0, 10.019034, 9.960096 
7.007007e+3, 1.850292e+2, -1139703.8, -1194213.5, -496.51764, 0.0018775801, 0.00019851657, -1139699.3, -12984.2705, 0.0, 10.019287, 9.947354 
7.007014e+3, 1.9497658e+2, -1041285.0, -1096235.5, -547.2224, 0.0018779376, 0.00006507818, -1041279.5, -12049.011, 0.0, 10.019524, 9.94701 
7.0070213e+3, 2.0491713e+2, -953107.7, -1018278.56, -550.3643, 0.001879466, 0.00018564171, -953103.0, -21289.97, 0.0, 10.019752, 9.933915 
7.007029e+3, 2.1485108e+2, -854583.94, -920183.1, -586.249, 0.0018821442, -0.000009536655, -854578.7, -20118.4, 0.0, 10.019971, 9.933573 
7.007037e+3, 2.2477825e+2, -766176.44, -842132.6, -571.76294, 0.001882021, 0.00023523858, -766172.1, -28998.064, 0.0, 10.020191, 9.920347 
7.0070446e+3, 2.3469865e+2, -667509.56, -743890.06, -596.872, 0.0018788609, 0.000019682455, -667504.9, -27550.8, 0.0, 10.020413, 9.920012 
7.0070523e+3, 2.4461201e+2, -579058.25, -666163.75, -547.0747, 0.0018802391, 0.00017969274, -579054.8, -36251.742, 0.0, 10.020641, 9.906383 
7.00706e+3, 2.545185e+2, -480060.28, -567424.6, -562.6385, 0.0018867761, -0.0000026083308, -480056.7, -34337.3, 0.0, 10.020877, 9.906276 
7.0070684e+3, 2.6441783e+2, -391694.38, -490345.3, -481.2337, 0.0018880289, 0.00024128701, -391692.03, -42985.79, 0.0, 10.021131, 9.891969 
7.007076e+3, 2.743103e+2, -292115.47, -390654.84, -484.49518, 0.0018826924, -0.00010915032, -292113.06, -40353.406, 0.0, 10.021407, 9.892376 
7.0070845e+3, 2.8419453e+2, -205385.63, -317494.47, -365.8597, 0.0018837544, 0.00032036687, -205384.42, -50489.97, 0.0, 10.021706, 9.875269 
7.0070934e+3, 2.9407084e+2, -105319.75, -217070.66, -367.1188, 0.0018936049, -0.00016102633, -105318.55, -47211.914, 0.0, 10.022033, 9.876036 
7.007102e+3, 3.0397475e+2, -15743.593, -84889.69, -201.72618, 0.0018960983, 0.00026167062, -15743.005, -15743.005, 0.0, 10.022391, 9.931305 
7.007111e+3, 3.1390786e+2, -14125.271, -82463.05, -178.64159, 0.0018867087, 0.000024639627, -14124.805, -14124.805, 0.0, 10.022798, 9.932748 
7.0169795e+3, 1.2520158e+2, -1698762.6, -1722381.3, 2.2940595, 0.0018778881, 0.00018504748, -1698762.6, 14263.02, 0.0, 10.017438, 9.986117 
7.016987e+3, 1.3518757e+2, -1600857.5, -1625361.6, -53.804203, 0.0018778823, 0.000006454639, -1600857.4, 14305.664, 0.0, 10.017822, 9.985329 
7.016995e+3, 1.4516677e+2, -1512629.8, -1546550.5, -171.76512, 0.0018793573, 0.00026721088, -1512628.9, 4737.915, 0.0, 10.018168, 9.973226 
7.0170027e+3, 1.5513997e+2, -1414498.5, -1449059.0, -225.70497, 0.0018821717, 0.00007585524, -1414497.1, 5132.358, 0.0, 10.01848, 9.972692 
7.0170105e+3, 1.6510645e+2, -1326248.0, -1370401.9, -322.5914, 0.0018843284, 0.00015752508, -1326245.6, -4287.6563, 0.0, 10.018769, 9.960382 
7.017019e+3, 1.7506687e+2, -1227967.0, -1272637.8, -370.49622, 0.0018858119, 0.000055450786, -1227964.0, -3618.3242, 0.0, 10.019034, 9.959968 
7.017026e+3, 1.850205e+2, -1139817.9, -1194427.9, -416.9992, 0.0018866161, 0.00019870857, -1139814.6, -13014.696, 0.0, 10.019284, 9.947221 
7.0170337e+3, 1.9496776e+2, -1041402.3, -1096451.0, -468.3541, 0.0018867104, 0.000061736675, -1041398.4, -12081.456, 0.0, 10.019518, 9.946877 
7.0170414e+3, 2.049082e+2, -953195.3, -1018431.5, -478.03983, 0.0018862606, 0.00018201457, -953191.8, -21291.248, 0.0, 10.019743, 9.933823 
7.017049e+3, 2.1484205e+2, -854673.56, -920336.25, -513.9489, 0.0018852061, -0.000010139115, -854669.56, -20120.838, 0.0, 10.01996, 9.93348 
7.017057e+3, 2.2476915e+2, -766249.7, -842246.75, -498.6083, 0.0018873401, 0.00023577623, -766246.44, -28983.182, 0.0, 10.020177, 9.92028 
7.0170647e+3, 2.3468949e+2, -667588.8, -744006.1, -523.9314, 0.001892886, 0.000019327936, -667585.25, -27541.33, 0.0, 10.020394, 9.919948 
7.017073e+3, 2.446028e+2, -579127.4, -666252.9, -468.73175, 0.0018931704, 0.000177963, -579124.9, -36231.43, 0.0, 10.020619, 9.906336 
7.017081e+3, 2.5450924e+2, -480130.5, -567513.06, -483.73404, 0.0018873948, -0.000006280076, -480127.84, -34317.63, 0.0, 10.020853, 9.90623 
7.017089e+3, 2.644085e+2, -391752.8, -490403.03, -387.4552, 0.0018886223, 0.00023845484, -391751.3, -42953.88, 0.0, 10.021104, 9.891944 
7.0170975e+3, 2.74301e+2, -292180.34, -390713.97, -389.8387, 0.0018983836, -0.00010773192, -292178.78, -40327.746, 0.0, 10.021376, 9.892353 
7.0171064e+3, 2.8418514e+2, -205461.98, -317570.22, -252.94914, 0.0018996712, 0.00032265423, -205461.4, -50475.297, 0.0, 10.02167, 9.875236 
7.0171154e+3, 2.9406142e+2, -105396.516, -217147.02, -252.27802, 0.0018899043, -0.00016241074, -105395.945, -47197.313, 0.0, 10.0219965, 9.876002 
7.017124e+3, 3.0396536e+2, -15789.142, -84894.97, -59.97905, 0.0018911451, 0.000259072, -15789.089, -15789.089, 0.0, 10.022353, 9.931319 
7.017134e+3, 3.138985e+2, -14176.687, -82464.81, -32.861374, 0.0019072706, 0.000024472703, -14176.671, -14176.671, 0.0, 10.022752, 9.932769 
7.026997e+3, 1.251933e+2, -1698255.5, -1722297.5, -168.25343, 0.0018814248, 0.00018169223, -1698254.3, 14852.614, 0.0, 10.017838, 9.985954 
7.0270056e+3, 1.3517909e+2, -1600371.8, -1625290.3, -234.96486, 0.0018860257, 0.000005483856, -1600369.5, 14876.447, 0.0, 10.018209, 9.985166 
7.027014e+3, 1.4515814e+2, -1512149.3, -1546467.6, -386.49683, 0.0018883487, 0.00026673844, -1512144.9, 5306.3257, 0.0, 10.018547, 9.973076 
7.0270216e+3, 1.5513119e+2, -1414031.5, -1448984.3, -445.32724, 0.0018885778, 0.00007411135, -1414025.9, 5689.48, 0.0, 10.018852, 9.972542 
7.02703e+3, 1.6509753e+2, -1325796.1, -1370322.0, -569.2426, 0.0018898466, 0.00015529124, -1325788.9, -3743.6035, 0.0, 10.019125, 9.960245 
7.027038e+3, 1.7505783e+2, -1227553.1, -1272578.9, -624.02136, 0.0018920355, 0.000053489865, -1227544.5, -3110.2554, 0.0, 10.019368, 9.95983 
7.0270455e+3, 1.8501133e+2, -1139445.9, -1194395.4, -689.2548, 0.0018937017, 0.00019734669, -1139437.3, -12547.232, 0.0, 10.019594, 9.94708 
7.027053e+3, 1.9495843e+2, -1041071.9, -1096440.9, -744.2086, 0.0018948229, 0.00006129872, -1041061.9, -11653.636, 0.0, 10.019802, 9.946736 
7.027061e+3, 2.0489876e+2, -952869.7, -1018371.2, -763.28375, 0.0018944377, 0.00018110409, -952860.8, -20867.742, 0.0, 10.02, 9.933728 
7.0270693e+3, 2.1483251e+2, -854391.5, -920298.7, -800.3414, 0.0018924584, -0.000012964807, -854381.8, -19739.652, 0.0, 10.02019, 9.933386 
7.027077e+3, 2.2475952e+2, -765996.1, -842193.8, -788.564, 0.0018941662, 0.00023301945, -765987.94, -28630.469, 0.0, 10.020376, 9.920213 
7.0270854e+3, 2.3467979e+2, -667391.0, -743981.44, -814.3247, 0.0018998206, 0.000018794748, -667382.4, -27243.557, 0.0, 10.020557, 9.919881 
7.027094e+3, 2.4459305e+2, -578954.3, -666211.7, -748.95044, 0.0019003421, 0.00017815108, -578947.9, -35959.004, 0.0, 10.020754, 9.906294 
7.027102e+3, 2.5449947e+2, -479988.63, -567486.94, -760.14325, 0.0018949568, -0.0000070946553, -479982.03, -34076.0, 0.0, 10.020967, 9.90619 
7.0271105e+3, 2.643987e+2, -391632.5, -490364.2, -649.899, 0.0018966204, 0.00023700007, -391628.22, -42734.68, 0.0, 10.0211935, 9.891925 
7.0271194e+3, 2.7429116e+2, -292103.4, -390695.6, -647.90356, 0.0019068301, -0.00010936426, -292099.16, -40151.793, 0.0, 10.021436, 9.892335 
7.027128e+3, 2.8417534e+2, -205416.38, -317574.34, -482.7667, 0.0019079196, 0.00032117823, -205414.3, -50331.688, 0.0, 10.021712, 9.875212 
7.027137e+3, 2.940516e+2, -105356.125, -217154.22, -474.3083, 0.001897146, -0.00016327233, -105354.11, -47058.734, 0.0, 10.022036, 9.8759775 
7.027146e+3, 3.0395547e+2, -15720.934, -84824.37, -249.31523, 0.0018981642, 0.00025756596, -15720.034, -15720.034, 0.0, 10.022383, 9.931352 
7.0271564e+3, 3.1388867e+2, -14127.173, -82395.836, -209.0315, 0.0019150097, 0.00002053661, -14126.532, -14126.532, 0.0, 10.022766, 9.932808 
7.037015e+3, 1.2518458e+2, -1698384.0, -1722570.6, -35.9187, 0.0018831274, 0.00017684135, -1698383.9, 14808.22, 0.0, 10.017853, 9.985779 
7.0370233e+3, 1.3517022e+2, -1600500.8, -1625562.6, -102.69351, 0.001894784, 0.0000037706523, -1600500.4, 14832.519, 0.0, 10.018223, 9.98499 
7.037032e+3, 1.4514911e+2, -1512266.1, -1546711.3, -279.81934, 0.0018986759, 0.00026614673, -1512263.9, 5275.9146, 0.0, 10.018558, 9.972919 
7.0370406e+3, 1.55122e+2, -1414155.0, -1449230.6, -339.6454, 0.0018954445, 0.00007271303, -1414151.8, 5653.713, 0.0, 10.018857, 9.972386 
7.037049e+3, 1.6508818e+2, -1325915.0, -1370554.0, -486.39096, 0.00189509, 0.00015293853, -1325909.6, -3772.8586, 0.0, 10.019128, 9.960098 
7.037057e+3, 1.7504834e+2, -1227672.9, -1272810.8, -540.3662, 0.0018973898, 0.000050050836, -1227666.4, -3139.0398, 0.0, 10.019369, 9.959684 
7.037065e+3, 1.850017e+2, -1139566.4, -1194626.3, -618.99896, 0.0018998786, 0.0001948982, -1139559.5, -12575.028, 0.0, 10.019593, 9.946935 
7.0370734e+3, 1.9494866e+2, -1041194.75, -1096672.3, -674.97437, 0.0019025385, 0.00006188192, -1041186.5, -11682.411, 0.0, 10.019798, 9.946591 
7.037081e+3, 2.0488885e+2, -952958.3, -1018527.8, -701.24994, 0.0019031889, 0.0001811817, -952950.8, -20860.705, 0.0, 10.019993, 9.933632 
7.0370895e+3, 2.1482253e+2, -854487.7, -920458.25, -738.2484, 0.00190172, -0.000017042697, -854479.44, -19739.3, 0.0, 10.020177, 9.9332905 
7.037098e+3, 2.2474945e+2, -766075.5, -842312.6, -729.2999, 0.0019017782, 0.00022848064, -766068.56, -28612.26, 0.0, 10.020359, 9.920146 
7.037106e+3, 2.3466964e+2, -667471.4, -744099.6, -754.9629, 0.0019034456, 0.00001780273, -667463.94, -27225.715, 0.0, 10.020538, 9.919813 
7.0371145e+3, 2.4458286e+2, -579017.0, -666286.56, -677.7288, 0.001904764, 0.0001788421, -579011.75, -35922.94, 0.0, 10.020731, 9.906257 
7.037123e+3, 2.544892e+2, -480059.53, -567564.2, -688.61273, 0.0019056991, -0.0000068971035, -480054.13, -34047.805, 0.0, 10.020938, 9.906154 
7.037132e+3, 2.6438844e+2, -391692.7, -490411.3, -567.6954, 0.0019080007, 0.00023594397, -391689.4, -42695.316, 0.0, 10.02116, 9.89191 
7.037141e+3, 2.7428088e+2, -292163.1, -390740.7, -564.64545, 0.0019117976, -0.00011262655, -292159.88, -40111.813, 0.0, 10.021401, 9.892322 
7.0371497e+3, 2.84165e+2, -205484.47, -317628.06, -370.72333, 0.0019124832, 0.0003177222, -205483.23, -50299.766, 0.0, 10.021674, 9.875195 
7.037159e+3, 2.9404125e+2, -105435.98, -217213.67, -359.6737, 0.0019094404, -0.00016423722, -105434.82, -47038.434, 0.0, 10.02199, 9.87596 
7.037169e+3, 3.0394518e+2, -15761.54, -84793.95, -114.37264, 0.0019107418, 0.0002563299, -15761.351, -15761.351, 0.0, 10.022333, 9.931396 
7.0371795e+3, 3.1387842e+2, -14158.837, -82352.83, -72.03911, 0.0019166865, 0.000014957547, -14158.762, -14158.762, 0.0, 10.022718, 9.932858 
7.0470333e+3, 1.2517545e+2, -1697798.4, -1722469.5, -212.55318, 0.0018931094, 0.00017937654, -1697796.5, 15485.1875, 0.0, 10.018312, 9.985594 
7.047042e+3, 1.351609e+2, -1599922.9, -1625466.9, -286.7043, 0.001900491, -0.00000032441483, -1599919.6, 15504.645, 0.0, 10.01868, 9.984805 
7.0470506e+3, 1.451396e+2, -1511705.5, -1546612.3, -504.65237, 0.0019035821, 0.00026099975, -1511698.3, 5934.7583, 0.0, 10.018998, 9.972747 
7.0470595e+3, 1.5511233e+2, -1413641.0, -1449157.5, -574.636, 0.0019029236, 0.00007175927, -1413631.8, 6268.53, 0.0, 10.01927, 9.972214 
7.047068e+3, 1.6507834e+2, -1325423.0, -1370466.9, -749.42596, 0.0019034247, 0.00015261042, -1325410.6, -3177.3604, 0.0, 10.019515, 9.9599495 
7.047077e+3, 1.7503835e+2, -1227218.6, -1272744.5, -807.9018, 0.0019049012, 0.000046941157, -1227204.4, -2579.1255, 0.0, 10.019734, 9.959535 
7.047085e+3, 1.8499155e+2, -1139161.3, -1194592.9, -907.7945, 0.0019061778, 0.0001913628, -1139146.4, -12062.507, 0.0, 10.019931, 9.94678 
7.0470935e+3, 1.9493836e+2, -1040841.7, -1096666.8, -968.84796, 0.0019072494, 0.000060255206, -1040824.9, -11219.827, 0.0, 10.020104, 9.946437 
7.047102e+3, 2.0487843e+2, -952620.44, -1018463.0, -1009.9637, 0.0019088929, 0.00018028567, -952604.94, -20412.695, 0.0, 10.02026, 9.933537 
7.0471096e+3, 2.14812e+2, -854223.8, -920431.56, -1047.5138, 0.0019110899, -0.000018432427, -854207.25, -19364.047, 0.0, 10.020396, 9.933195 
7.047118e+3, 2.2473885e+2, -765848.94, -842270.8, -1036.855, 0.0019112267, 0.0002264081, -765834.9, -28274.709, 0.0, 10.020539, 9.92008 
7.047126e+3, 2.3465899e+2, -667291.94, -744081.44, -1061.0933, 0.001909058, 0.000014844321, -667277.25, -26934.531, 0.0, 10.020688, 9.919749 
7.047135e+3, 2.4457215e+2, -578872.1, -666252.6, -976.2717, 0.0019101264, 0.00017624708, -578861.25, -35667.457, 0.0, 10.0208435, 9.906221 
7.047144e+3, 2.5447848e+2, -479982.56, -567563.44, -984.9979, 0.0019149649, -0.000007667554, -479971.47, -33859.848, 0.0, 10.021006, 9.90612 
7.047153e+3, 2.6437765e+2, -391644.25, -490392.88, -843.35236, 0.00191709, 0.00023580996, -391637.06, -42537.438, 0.0, 10.021195, 9.891904 
7.047162e+3, 2.7427012e+2, -292140.28, -390733.1, -833.5213, 0.0019155912, -0.00011359105, -292133.22, -39979.605, 0.0, 10.021419, 9.892317 
7.0471716e+3, 2.8415424e+2, -205503.67, -317647.06, -613.4935, 0.0019169203, 0.00031610503, -205500.31, -50211.207, 0.0, 10.021666, 9.875185 
7.047181e+3, 2.9403046e+2, -105509.625, -217259.77, -595.1548, 0.0019225989, -0.00016626577, -105506.46, -47004.344, 0.0, 10.021944, 9.875951 
7.047191e+3, 3.0393443e+2, -15814.049, -84758.766, -306.4273, 0.0019239084, 0.00025571272, -15812.6875, -15812.6875, 0.0, 10.022271, 9.931449 
7.047202e+3, 3.1386772e+2, -14186.357, -82297.09, -253.50174, 0.0019167099, 0.000018534878, -14185.414, -14185.414, 0.0, 10.02267, 9.932919 
7.057051e+3, 1.251659e+2, -1697936.6, -1722769.1, -79.67173, 0.0019069226, 0.00018487303, -1697936.4, 15438.903, 0.0, 10.018331, 9.9854 
7.0570606e+3, 1.3515113e+2, -1600064.4, -1625767.4, -154.69356, 0.0019049575, -0.0000056615995, -1600063.5, 15456.372, 0.0, 10.018695, 9.9846115 
7.0570695e+3, 1.4512965e+2, -1511843.3, -1546900.1, -408.4084, 0.0019061295, 0.0002536235, -1511838.5, 5891.8496, 0.0, 10.019011, 9.972562 
7.0570785e+3, 1.5510221e+2, -1413782.6, -1449446.4, -478.30493, 0.001910683, 0.000070600116, -1413776.3, 6223.1914, 0.0, 10.019279, 9.972029 
7.0570874e+3, 1.6506806e+2, -1325545.6, -1370713.0, -673.7114, 0.0019131433, 0.00015277875, -1325535.6, -3201.5505, 0.0, 10.019521, 9.959793 
7.0570964e+3, 1.7502789e+2, -1227345.8, -1272992.3, -734.2771, 0.0019134199, 0.00004372892, -1227333.9, -2606.3386, 0.0, 10.019736, 9.959378 
7.057105e+3, 1.8498093e+2, -1139295.4, -1194848.5, -851.6982, 0.0019126091, 0.0001871007, -1139282.4, -12094.565, 0.0, 10.019929, 9.94662 
7.057113e+3, 1.9492759e+2, -1040978.8, -1096923.0, -911.1928, 0.0019107254, 0.00005725865, -1040964.0, -11253.45, 0.0, 10.0201, 9.946277 
7.0571214e+3, 2.0486754e+2, -952711.0, -1018621.8, -965.14526, 0.0019132339, 0.00017856725, -952696.9, -20397.908, 0.0, 10.020251, 9.93344 
7.05713e+3, 2.1480101e+2, -854319.2, -920591.5, -1003.1155, 0.001920265, -0.000018880151, -854304.0, -19353.092, 0.0, 10.020384, 9.9331 
7.0571387e+3, 2.2472776e+2, -765925.8, -842383.6, -988.0685, 0.0019213026, 0.00022522717, -765913.06, -28244.428, 0.0, 10.020521, 9.920017 
7.057147e+3, 2.3464786e+2, -667377.06, -744197.06, -1012.1522, 0.0019157211, 0.000010737276, -667363.75, -26911.895, 0.0, 10.020664, 9.919686 
7.057156e+3, 2.4456096e+2, -578939.9, -666324.5, -922.11346, 0.001916071, 0.00017186598, -578930.2, -35626.805, 0.0, 10.020815, 9.906189 
7.057165e+3, 2.5446728e+2, -480051.4, -567634.06, -930.4666, 0.0019233507, -0.000009255458, -480041.53, -33820.02, 0.0, 10.020975, 9.906089 
7.057174e+3, 2.6436642e+2, -391694.72, -490417.44, -766.7666, 0.0019249106, 0.00023572483, -391688.78, -42479.133, 0.0, 10.021161, 9.891905 
7.0571834e+3, 2.7425888e+2, -292199.06, -390759.28, -755.6128, 0.0019190534, -0.00011382278, -292193.28, -39929.664, 0.0, 10.021378, 9.89232 
7.057193e+3, 2.84143e+2, -205572.6, -317683.94, -515.959, 0.0019214281, 0.0003150814, -205570.22, -50171.13, 0.0, 10.02162, 9.875183 
7.057203e+3, 2.9401922e+2, -105580.3, -217297.61, -495.8809, 0.0019355757, -0.00016897377, -105578.1, -46965.95, 0.0, 10.021896, 9.875948 
7.057214e+3, 3.0392322e+2, -15844.618, -84703.984, -166.30951, 0.0019367889, 0.00025508253, -15844.217, -15844.217, 0.0, 10.02222, 9.93151 
7.0572245e+3, 3.1385657e+2, -14224.077, -82237.04, -108.14699, 0.0019164714, 0.000025577501, -14223.905, -14223.905, 0.0, 10.02261, 9.932988 
7.06707e+3, 1.2515591e+2, -1697246.4, -1722641.5, -256.72968, 0.0019130838, 0.00017755739, -1697243.9, 16229.288, 0.0, 10.018868, 9.98519 
7.0670795e+3, 1.3514094e+2, -1599399.6, -1625654.8, -342.8461, 0.0019129068, -0.0000068898116, -1599395.1, 16224.597, 0.0, 10.019219, 9.984402 
7.067089e+3, 1.4511926e+2, -1511199.5, -1546780.4, -644.1304, 0.0019139446, 0.00025321214, -1511187.8, 6644.392, 0.0, 10.019514, 9.972369 
7.067098e+3, 1.5509161e+2, -1413185.4, -1449352.8, -720.5925, 0.0019166541, 0.00006597678, -1413171.1, 6932.1343, 0.0, 10.019755, 9.971836 
7.0671076e+3, 1.6505727e+2, -1324996.0, -1370634.6, -949.69336, 0.0019186964, 0.00014742008, -1324976.3, -2536.6055, 0.0, 10.019963, 9.95961 
7.0671165e+3, 1.7501694e+2, -1226861.9, -1272949.5, -1025.2041, 0.0019199097, 0.000041035324, -1226839.1, -2004.1215, 0.0, 10.020139, 9.959194 
7.067125e+3, 1.849698e+2, -1138851.3, -1194788.0, -1166.5425, 0.0019198023, 0.00018498901, -1138826.9, -11530.091, 0.0, 10.020289, 9.946471 
7.067133e+3, 1.9491631e+2, -1040605.56, -1096900.3, -1221.9895, 0.0019184032, 0.00005364508, -1040579.06, -10758.022, 0.0, 10.020415, 9.946128 
7.067142e+3, 2.0485614e+2, -952371.0, -1018560.25, -1290.3042, 0.00191945, 0.00017540094, -952345.9, -19935.139, 0.0, 10.020521, 9.93334 
7.0671505e+3, 2.1478952e+2, -854054.56, -920568.8, -1330.1879, 0.0019229844, -0.000019576762, -854027.94, -18964.371, 0.0, 10.020606, 9.933001 
7.0671594e+3, 2.2471619e+2, -765711.7, -842343.9, -1314.2318, 0.001925252, 0.00022492794, -765689.2, -27907.064, 0.0, 10.020692, 9.919955 
7.067168e+3, 2.3463622e+2, -667248.0, -744200.06, -1336.9291, 0.0019261065, 0.0000085564425, -667224.75, -26658.875, 0.0, 10.020779, 9.919626 
7.0671767e+3, 2.4454927e+2, -578855.5, -666312.1, -1234.4567, 0.0019271072, 0.00016873407, -578838.06, -35420.176, 0.0, 10.020884, 9.906162 
7.067186e+3, 2.5445554e+2, -480019.0, -567646.44, -1238.9042, 0.0019282462, -0.000012231626, -480001.5, -33665.22, 0.0, 10.021009, 9.906063 
7.067195e+3, 2.643547e+2, -391697.8, -490409.97, -1054.6193, 0.0019291829, 0.00023345774, -391686.56, -42362.043, 0.0, 10.021155, 9.8919115 
7.067205e+3, 2.7424717e+2, -292270.1, -390783.22, -1037.7892, 0.0019296135, -0.00011467663, -292259.16, -39880.773, 0.0, 10.021325, 9.892328 
7.067215e+3, 2.8413132e+2, -205696.77, -317737.97, -767.1517, 0.0019316318, 0.00031497196, -205691.5, -50177.707, 0.0, 10.021533, 9.875189 
7.067225e+3, 2.9400754e+2, -105730.2, -217364.13, -739.07184, 0.001936379, -0.00016924125, -105725.31, -46998.51, 0.0, 10.021792, 9.875954 
7.067236e+3, 3.0391157e+2, -15975.837, -84679.586, -363.02048, 0.0019375839, 0.0002537091, -15973.919, -15973.919, 0.0, 10.022092, 9.931586 
7.067247e+3, 3.13845e+2, -14394.9795, -82222.1, -290.30148, 0.0019310949, 0.000021764206, -14393.737, -14393.737, 0.0, 10.02245, 9.933073 
7.077089e+3, 1.2514551e+2, -1697400.9, -1722984.4, -127.034584, 0.0019157758, 0.00016402722, -1697400.3, 16174.755, 0.0, 10.018893, 9.984966 
7.077099e+3, 1.3513035e+2, -1599558.9, -1625999.3, -214.43881, 0.0019225081, -0.0000066939283, -1599557.1, 16166.569, 0.0, 10.019239, 9.984178 
7.0771086e+3, 1.4510845e+2, -1511344.9, -1547091.9, -557.34344, 0.0019242463, 0.00025562552, -1511336.1, 6602.0796, 0.0, 10.01953, 9.972167 
7.077118e+3, 1.5508059e+2, -1413334.9, -1449665.8, -634.6245, 0.0019219222, 0.00005961155, -1413323.8, 6887.498, 0.0, 10.019768, 9.971634 
7.0771277e+3, 1.6504604e+2, -1325150.0, -1370948.8, -889.0, 0.0019224356, 0.00013941497, -1325132.8, -2583.035, 0.0, 10.019972, 9.959409 
7.077136e+3, 1.750055e+2, -1227021.5, -1273265.8, -965.19104, 0.0019254927, 0.00003833308, -1227001.4, -2054.3662, 0.0, 10.020143, 9.958994 
7.077145e+3, 1.849582e+2, -1138972.0, -1195019.4, -1125.164, 0.0019273186, 0.00018355179, -1138949.4, -11538.923, 0.0, 10.020288, 9.946326 
7.077154e+3, 1.9490455e+2, -1040733.56, -1097134.5, -1180.1797, 0.0019279631, 0.000049411025, -1040708.9, -10772.755, 0.0, 10.020409, 9.945983 
7.077163e+3, 2.0484427e+2, -952470.44, -1018729.44, -1263.5211, 0.0019265823, 0.00017121599, -952446.4, -19919.307, 0.0, 10.02051, 9.933238 
7.077171e+3, 2.1477754e+2, -854158.25, -920738.94, -1303.6487, 0.001923006, -0.000020746233, -854132.75, -18951.838, 0.0, 10.020591, 9.932899 
7.0771796e+3, 2.2470415e+2, -765788.3, -842452.25, -1286.6624, 0.0019264913, 0.00022471308, -765766.7, -27866.52, 0.0, 10.020673, 9.919896 
7.0771885e+3, 2.346241e+2, -667329.7, -744309.3, -1309.1432, 0.0019377632, 0.000006996643, -667307.44, -26622.842, 0.0, 10.020755, 9.919567 
7.077198e+3, 2.4453713e+2, -578917.4, -666370.06, -1192.4744, 0.0019400376, 0.00016595978, -578901.1, -35364.13, 0.0, 10.020855, 9.906139 
7.077207e+3, 2.5444338e+2, -480089.16, -567706.5, -1196.1366, 0.0019317087, -0.000016077416, -480072.84, -33617.26, 0.0, 10.020973, 9.906041 
7.0772165e+3, 2.6434252e+2, -391749.97, -490421.44, -995.32947, 0.0019320191, 0.00022993544, -391739.94, -42296.07, 0.0, 10.021113, 9.891924 
7.077226e+3, 2.74235e+2, -292326.1, -390793.84, -977.2239, 0.0019429799, -0.00011616174, -292316.4, -39818.81, 0.0, 10.02128, 9.8923435 
7.077236e+3, 2.8411916e+2, -205760.88, -317755.0, -674.8985, 0.0019440308, 0.00031488255, -205756.81, -50123.953, 0.0, 10.021483, 9.875201 
7.0772463e+3, 2.9399538e+2, -105801.945, -217384.8, -643.5647, 0.0019321252, -0.00016884008, -105798.234, -46952.51, 0.0, 10.021737, 9.875966 
7.0772576e+3, 3.0389947e+2, -16000.393, -84590.21, -233.27841, 0.0019333074, 0.00025173248, -15999.599, -15999.599, 0.0, 10.022031, 9.931676 
7.0772696e+3, 3.13833e+2, -14420.987, -82122.76, -156.14397, 0.0019514916, 0.000013122788, -14420.627, -14420.627, 0.0, 10.022385, 9.933172 
7.087108e+3, 1.251347e+2, -1696580.8, -1722827.4, -304.39252, 0.0019214455, 0.00015918301, -1696577.1, 17103.615, 0.0, 10.01953, 9.984721 
7.0871186e+3, 1.3511929e+2, -1598785.6, -1625868.9, -405.7257, 0.0019297499, -0.000012332626, -1598779.5, 17052.42, 0.0, 10.01985, 9.9839325 
7.087128e+3, 1.4509717e+2, -1510600.4, -1546946.6, -802.97906, 0.0019317338, 0.00025085258, -1510582.6, 7466.071, 0.0, 10.020109, 9.97195 
7.087138e+3, 1.550691e+2, -1412649.8, -1449553.6, -890.24023, 0.0019285359, 0.000057281835, -1412628.3, 7695.6426, 0.0, 10.020312, 9.971416 
7.087147e+3, 1.6503434e+2, -1324533.3, -1370869.8, -1182.6364, 0.0019283858, 0.00013860589, -1324503.1, -1838.6256, 0.0, 10.020473, 9.959195 
7.087157e+3, 1.7499357e+2, -1226489.8, -1273232.6, -1266.7621, 0.0019309487, 0.000038173195, -1226455.4, -1391.6514, 0.0, 10.020591, 9.95878 
7.087166e+3, 1.849461e+2, -1138476.9, -1194926.6, -1453.1027, 0.001933039, 0.00018193031, -1138439.5, -10910.454, 0.0, 10.0206785, 9.946182 
7.087174e+3, 1.9489232e+2, -1040341.7, -1097096.1, -1508.6992, 0.0019347335, 0.00004418394, -1040301.6, -10245.482, 0.0, 10.020734, 9.945839 
7.087183e+3, 2.048319e+2, -952140.25, -1018676.2, -1606.0264, 0.0019340526, 0.00016566072, -952101.5, -19453.246, 0.0, 10.020775, 9.933136 
7.087192e+3, 2.1476507e+2, -853914.9, -920730.44, -1646.9822, 0.0019308069, -0.000023168746, -853874.25, -18571.203, 0.0, 10.020801, 9.932797 
7.087201e+3, 2.2469158e+2, -765595.44, -842417.5, -1629.6633, 0.0019324167, 0.00022411635, -765560.94, -27537.762, 0.0, 10.020826, 9.91984 
7.087209e+3, 2.346115e+2, -667222.56, -744317.2, -1650.1112, 0.0019393633, 0.0000067538654, -667187.25, -26379.17, 0.0, 10.020853, 9.919513 
7.087219e+3, 2.4452448e+2, -578869.1, -666364.25, -1519.174, 0.001942314, 0.00016539161, -578842.75, -35181.945, 0.0, 10.020895, 9.906122 
7.0872283e+3, 2.544307e+2, -480130.38, -567743.9, -1518.486, 0.0019405695, -0.000017747834, -480104.06, -33524.465, 0.0, 10.020954, 9.906026 
7.087237e+3, 2.6432985e+2, -391841.75, -490441.22, -1293.2529, 0.0019424626, 0.000227517, -391824.78, -42256.918, 0.0, 10.021041, 9.891946 
7.087247e+3, 2.7422237e+2, -292480.13, -390841.53, -1267.8083, 0.0019485772, -0.00011886897, -292463.78, -39842.43, 0.0, 10.021164, 9.892367 
7.0872575e+3, 2.8410655e+2, -205974.92, -317831.0, -928.3735, 0.0019486912, 0.0003120966, -205967.22, -50210.83, 0.0, 10.021326, 9.875226 
7.087269e+3, 2.939828e+2, -106071.92, -217487.5, -886.3968, 0.0019413251, -0.00017139659, -106064.87, -47095.867, 0.0, 10.021541, 9.875992 
7.0872796e+3, 3.0388692e+2, -16259.295, -84595.15, -427.4314, 0.0019428653, 0.00024955333, -16256.622, -16256.622, 0.0, 10.021802, 9.931782 
7.087292e+3, 3.138206e+2, -14711.001, -82131.49, -335.10544, 0.0019547392, 0.000011624224, -14709.336, -14709.336, 0.0, 10.022129, 9.933288 
7.0971274e+3, 1.2512352e+2, -1696767.3, -1723231.3, -187.16867, 0.0019288703, 0.00015894261, -1696765.9, 17024.549, 0.0, 10.019555, 9.98446 
7.097138e+3, 1.3510783e+2, -1598972.6, -1626271.9, -287.5471, 0.0019360876, -0.000020607706, -1598969.6, 16974.59, 0.0, 10.019873, 9.983671 
7.097149e+3, 1.4508547e+2, -1510763.3, -1547299.5, -727.86774, 0.0019379979, 0.00024249562, -1510748.8, 7414.701, 0.0, 10.02013, 9.971721 
7.0971584e+3, 1.5505716e+2, -1412816.8, -1449908.1, -815.11945, 0.0019358736, 0.000056398854, -1412798.9, 7641.862, 0.0, 10.0203285, 9.971187 
7.097168e+3, 1.6502218e+2, -1324701.5, -1371217.8, -1139.6808, 0.0019354809, 0.00014067946, -1324673.6, -1890.0803, 0.0, 10.020484, 9.958972 
7.0971775e+3, 1.749812e+2, -1226664.9, -1273583.3, -1225.1903, 0.001936482, 0.00003879851, -1226632.9, -1447.8081, 0.0, 10.020597, 9.958557 
7.0971864e+3, 1.8493353e+2, -1138595.4, -1195157.0, -1435.7551, 0.0019380288, 0.00017998299, -1138559.0, -10906.867, 0.0, 10.0206785, 9.946036 
7.0971954e+3, 1.948796e+2, -1040467.7, -1097329.3, -1491.3477, 0.0019402421, 0.00003848011, -1040428.6, -10247.959, 0.0, 10.020728, 9.945694 
7.0972043e+3, 2.0481907e+2, -952241.3, -1018848.0, -1599.5034, 0.0019415986, 0.00015940475, -952202.94, -19428.906, 0.0, 10.020763, 9.933033 
7.0972127e+3, 2.1475214e+2, -854024.4, -920905.3, -1639.9451, 0.001941988, -0.00002657893, -853984.2, -18554.346, 0.0, 10.020782, 9.932695 
7.0972216e+3, 2.2467858e+2, -765674.56, -842520.5, -1621.7114, 0.0019404808, 0.00022283902, -765640.3, -27489.654, 0.0, 10.0208025, 9.9197855 
7.0972306e+3, 2.3459843e+2, -667306.75, -744420.8, -1642.2587, 0.0019367986, 0.0000067726173, -667271.75, -26335.67, 0.0, 10.020824, 9.91946 
7.0972395e+3, 2.4451138e+2, -578929.2, -666408.94, -1499.3085, 0.0019400065, 0.00016557502, -578903.5, -35114.293, 0.0, 10.020862, 9.90611 
7.0972484e+3, 2.5441763e+2, -480196.6, -567789.3, -1497.6405, 0.0019514391, -0.000018763805, -480170.97, -33462.92, 0.0, 10.020915, 9.906015 
7.0972586e+3, 2.6431677e+2, -391886.03, -490429.8, -1248.9583, 0.0019558156, 0.00022529674, -391870.22, -42173.96, 0.0, 10.020997, 9.891974 
7.0972687e+3, 2.742093e+2, -292530.88, -390830.16, -1221.8053, 0.0019507478, -0.00012234795, -292515.7, -39766.223, 0.0, 10.021114, 9.8924 
7.097279e+3, 2.840935e+2, -206033.1, -317819.9, -849.93005, 0.0019499637, 0.0003079361, -206026.63, -50142.47, 0.0, 10.02127, 9.875261 
7.09729e+3, 2.939698e+2, -106140.64, -217481.1, -805.10925, 0.0019560196, -0.00017546106, -106134.82, -47038.383, 0.0, 10.021477, 9.876026 
7.0973015e+3, 3.0387402e+2, -16275.896, -84468.195, -307.842, 0.001958095, 0.00024706495, -16274.507, -16274.507, 0.0, 10.021732, 9.9319 
7.097314e+3, 3.138078e+2, -14724.046, -81990.81, -210.82898, 0.0019506466, 0.000012901313, -14723.386, -14723.386, 0.0, 10.022057, 9.933417 
7.1071476e+3, 1.2511192e+2, -1695810.6, -1723027.0, -375.7963, 0.0019423123, 0.00016754391, -1695805.5, 18098.605, 0.0, 10.0202875, 9.984192 
7.107159e+3, 1.3509597e+2, -1598072.0, -1626099.6, -484.37875, 0.0019443284, -0.000020997322, -1598063.6, 17996.86, 0.0, 10.020574, 9.983404 
7.107169e+3, 1.4507334e+2, -1509908.1, -1547122.9, -981.5882, 0.0019442711, 0.0002379588, -1509882.3, 8399.972, 0.0, 10.020791, 9.971479 
7.107179e+3, 1.5504478e+2, -1412043.4, -1449776.6, -1077.9779, 0.0019434592, 0.00005230452, -1412012.6, 8549.372, 0.0, 10.020941, 9.970946 
7.1071887e+3, 1.6500957e+2, -1324016.6, -1371128.0, -1445.9954, 0.0019434193, 0.00013744531, -1323972.4, -1065.267, 0.0, 10.021039, 9.958736 
7.107198e+3, 1.7496836e+2, -1226086.6, -1273550.8, -1537.0011, 0.001943792, 0.00003690157, -1226036.9, -726.026, 0.0, 10.021087, 9.958323 
7.107207e+3, 1.849205e+2, -1138056.9, -1195045.5, -1777.2505, 0.001944488, 0.00017991017, -1138001.5, -10221.724, 0.0, 10.021098, 9.945889 
7.1072155e+3, 1.9486642e+2, -1040046.8, -1097279.4, -1834.9878, 0.0019456522, 0.000040695897, -1039988.0, -9678.225, 0.0, 10.021074, 9.945547 
7.107225e+3, 2.0480576e+2, -951898.4, -1018784.1, -1955.817, 0.0019472663, 0.00015973128, -951841.2, -18936.867, 0.0, 10.021035, 9.932934 
7.1072334e+3, 2.1473874e+2, -853797.06, -920900.8, -1995.0808, 0.0019492975, -0.000032579806, -853737.75, -18176.598, 0.0, 10.02098, 9.932596 
7.1072423e+3, 2.246651e+2, -765520.0, -842501.6, -1973.4534, 0.0019488442, 0.00021631719, -765469.44, -27186.65, 0.0, 10.02093, 9.919732 
7.1072507e+3, 2.345849e+2, -667251.94, -744451.5, -1993.2212, 0.001945563, 0.000006239829, -667200.5, -26131.818, 0.0, 10.020886, 9.919408 
7.10726e+3, 2.4449782e+2, -578936.25, -666416.5, -1836.6948, 0.0019471801, 0.00016704969, -578897.7, -34975.656, 0.0, 10.020859, 9.906105 
7.10727e+3, 2.5440404e+2, -480298.28, -567842.0, -1829.7192, 0.0019546219, -0.0000200388, -480260.06, -33419.113, 0.0, 10.020848, 9.9060135 
7.1072793e+3, 2.6430324e+2, -392048.4, -490465.56, -1552.5201, 0.0019582713, 0.00022289537, -392023.94, -42194.945, 0.0, 10.020869, 9.892014 
7.1072894e+3, 2.741958e+2, -292776.97, -390903.97, -1517.5511, 0.001956612, -0.00012375925, -292753.5, -39871.734, 0.0, 10.020928, 9.892441 
7.1072996e+3, 2.8408006e+2, -206359.39, -317929.88, -1107.9268, 0.0019576072, 0.0003068925, -206348.39, -50332.336, 0.0, 10.0210285, 9.875305 
7.107311e+3, 2.939564e+2, -106543.51, -217627.44, -1053.5952, 0.0019631847, -0.00017697833, -106533.516, -47305.61, 0.0, 10.021182, 9.876071 
7.1073234e+3, 3.038607e+2, -16670.69, -84506.94, -499.02075, 0.0019645984, 0.0002454406, -16667.02, -16667.02, 0.0, 10.021396, 9.9320345 
7.107336e+3, 3.137946e+2, -15145.074, -82029.34, -385.75528, 0.0019559423, 0.000011789619, -15142.85, -15142.85, 0.0, 10.021696, 9.933563 
7.117168e+3, 1.2509994e+2, -1696002.9, -1723454.8, -268.3302, 0.0019583753, 0.00017790828, -1696000.3, 18021.436, 0.0, 10.020319, 9.983912 
7.117179e+3, 1.3508368e+2, -1598270.0, -1626529.4, -378.77652, 0.0019535038, -0.000018131688, -1598264.9, 17915.918, 0.0, 10.0206, 9.983125 
7.11719e+3, 1.450608e+2, -1510087.9, -1547511.8, -926.98724, 0.0019506525, 0.00023555408, -1510064.9, 8340.286, 0.0, 10.020813, 9.971227 
7.1172e+3, 1.5503198e+2, -1412225.5, -1450165.6, -1022.7897, 0.0019512231, 0.000046640274, -1412197.9, 8489.476, 0.0, 10.02096, 9.970694 
7.11721e+3, 1.6499652e+2, -1324194.1, -1371500.9, -1428.5731, 0.0019517521, 0.00013146842, -1324151.1, -1116.1761, 0.0, 10.021054, 9.958496 
7.117219e+3, 1.7495508e+2, -1226270.8, -1273925.9, -1518.933, 0.0019518463, 0.000033562108, -1226222.4, -781.27405, 0.0, 10.021096, 9.958081 
7.1172285e+3, 1.8490703e+2, -1138176.8, -1195282.4, -1785.6652, 0.0019515759, 0.0001803325, -1138120.9, -10209.003, 0.0, 10.021101, 9.945739 
7.1172374e+3, 1.948528e+2, -1040178.25, -1097521.0, -1843.6732, 0.0019511099, 0.0000459837, -1040119.06, -9675.752, 0.0, 10.021068, 9.945397 
7.1172464e+3, 2.0479201e+2, -951998.06, -1018949.2, -1975.6864, 0.0019521756, 0.00016268126, -951939.8, -18900.723, 0.0, 10.021022, 9.932836 
7.117254e+3, 2.1472488e+2, -853902.9, -921067.44, -2014.6414, 0.001954819, -0.000039685478, -853842.5, -18145.582, 0.0, 10.020961, 9.9325 
7.117263e+3, 2.2465117e+2, -765599.1, -842602.2, -1988.2001, 0.001957124, 0.00020747601, -765547.8, -27128.541, 0.0, 10.0209055, 9.919681 
7.117272e+3, 2.3457092e+2, -667340.8, -744555.1, -2007.3578, 0.0019590103, 0.000005026491, -667288.6, -26083.008, 0.0, 10.020854, 9.919357 
7.117281e+3, 2.4448383e+2, -578994.44, -666444.75, -1838.2513, 0.0019583516, 0.0001685818, -578955.8, -34896.59, 0.0, 10.02082, 9.906106 
7.1172905e+3, 2.5439006e+2, -480361.78, -567869.9, -1830.7784, 0.0019546223, -0.000021678745, -480323.5, -33345.383, 0.0, 10.020804, 9.906017 
7.1173e+3, 2.6428926e+2, -392088.13, -490432.0, -1528.6136, 0.001956115, 0.00022028119, -392064.38, -42098.445, 0.0, 10.02082, 9.892059 
7.117311e+3, 2.7418187e+2, -292824.7, -390870.97, -1491.8281, 0.0019638692, -0.00012455814, -292802.0, -39783.78, 0.0, 10.020872, 9.89249 
7.1173215e+3, 2.840662e+2, -206413.55, -317896.0, -1048.352, 0.0019676655, 0.00030685266, -206403.69, -50251.68, 0.0, 10.020966, 9.875358 
7.117333e+3, 2.9394257e+2, -106604.38, -217596.39, -990.4917, 0.0019668746, -0.00017776163, -106595.55, -47232.203, 0.0, 10.021114, 9.876123 
7.117345e+3, 3.0384696e+2, -16674.406, -84341.414, -385.95416, 0.0019671407, 0.00024391203, -16672.205, -16672.205, 0.0, 10.021321, 9.932182 
7.117357e+3, 3.1378102e+2, -15155.401, -81853.25, -266.575, 0.0019649793, 0.000009457624, -15154.336, -15154.336, 0.0, 10.021611, 9.9337225 
7.1271884e+3, 1.2508757e+2, -1694866.6, -1723203.5, -445.7265, 0.0019668562, 0.00016931261, -1694859.6, 19283.137, 0.0, 10.021186, 9.983603 
7.1272004e+3, 1.3507102e+2, -1597235.8, -1626335.0, -575.74243, 0.0019599944, -0.0000119985125, -1597224.4, 19080.58, 0.0, 10.021407, 9.982815 
7.127211e+3, 1.4504784e+2, -1509114.1, -1547294.1, -1188.1743, 0.0019564345, 0.00024429525, -1509077.1, 9454.931, 0.0, 10.021559, 9.970966 
7.127221e+3, 1.5501876e+2, -1411357.6, -1450006.4, -1291.9471, 0.001957742, 0.000046182246, -1411314.5, 9502.316, 0.0, 10.021642, 9.970433 
7.1272314e+3, 1.6498306e+2, -1323421.6, -1371365.6, -1743.94, 0.0019578629, 0.0001272044, -1323358.3, -191.40176, 0.0, 10.021666, 9.958261 
7.127241e+3, 1.7494138e+2, -1225624.6, -1273858.3, -1832.8905, 0.0019563548, 0.000030927844, -1225555.1, 20.203316, 0.0, 10.021628, 9.957847 
7.127249e+3, 1.8489315e+2, -1137598.4, -1195159.3, -2131.6804, 0.0019563264, 0.00017919877, -1137519.6, -9471.525, 0.0, 10.02155, 9.945583 
7.127258e+3, 1.9483876e+2, -1039741.25, -1097471.8, -2193.606, 0.001958047, 0.000046190376, -1039658.0, -9077.049, 0.0, 10.021428, 9.945243 
7.127267e+3, 2.0477784e+2, -951646.7, -1018878.25, -2336.1306, 0.001959309, 0.00016393139, -951565.6, -18387.662, 0.0, 10.021297, 9.932739 
7.1272755e+3, 2.1471062e+2, -853674.5, -921059.4, -2375.461, 0.0019600005, -0.000037714806, -853590.9, -17754.117, 0.0, 10.021158, 9.932404 
7.1272844e+3, 2.2463682e+2, -765459.6, -842584.3, -2346.8877, 0.0019618026, 0.00020781292, -765388.3, -26828.502, 0.0, 10.02102, 9.919633 
7.127293e+3, 2.3455654e+2, -667331.9, -744602.3, -2363.8137, 0.0019648268, 0.0000010668698, -667259.6, -25912.977, 0.0, 10.020884, 9.919312 
7.1273017e+3, 2.444694e+2, -579067.4, -666474.6, -2177.0447, 0.0019653188, 0.00016418858, -579013.2, -34812.727, 0.0, 10.020769, 9.906112 
7.127311e+3, 2.5437567e+2, -480542.22, -567950.9, -2165.955, 0.001962749, -0.000021846092, -480488.56, -33369.34, 0.0, 10.020681, 9.906025 
7.127321e+3, 2.6427487e+2, -392339.63, -490492.9, -1835.8025, 0.00196401, 0.00022153562, -392305.3, -42198.57, 0.0, 10.020624, 9.892115 
7.127331e+3, 2.7416757e+2, -293178.6, -390978.3, -1791.0688, 0.001969636, -0.00012550631, -293145.78, -39987.324, 0.0, 10.020606, 9.892549 
7.1273416e+3, 2.8405195e+2, -206854.78, -318036.84, -1303.5443, 0.0019720118, 0.0003044889, -206839.5, -50547.855, 0.0, 10.020636, 9.875424 
7.1273535e+3, 2.9392838e+2, -107121.266, -217772.27, -1233.242, 0.0019708774, -0.00018035855, -107107.52, -47605.195, 0.0, 10.020731, 9.876191 
7.1273655e+3, 3.038329e+2, -17196.363, -84408.234, -568.597, 0.0019719622, 0.00024170859, -17191.553, -17191.553, 0.0, 10.020884, 9.932346 
7.127379e+3, 3.1376716e+2, -15750.757, -81941.49, -432.146, 0.0019719915, 0.000008640704, -15747.936, -15747.936, 0.0, 10.021117, 9.933899 
7.13721e+3, 1.2507485e+2, -1695078.6, -1723706.0, -357.93698, 0.001972183, 0.0001562513, -1695074.1, 19193.352, 0.0, 10.021235, 9.983268 
7.1372217e+3, 1.3505799e+2, -1597462.8, -1626844.3, -491.2161, 0.0019653603, -0.0000043002574, -1597454.5, 18978.256, 0.0, 10.021444, 9.98248 
7.137233e+3, 1.450345e+2, -1509301.6, -1547709.3, -1157.0817, 0.001962029, 0.00025693906, -1509266.8, 9396.009, 0.0, 10.021585, 9.9706955 
7.137243e+3, 1.5500516e+2, -1411557.8, -1450426.8, -1262.4099, 0.0019640247, 0.000048315876, -1411516.8, 9433.531, 0.0, 10.02166, 9.970161 
7.1372527e+3, 1.6496919e+2, -1323600.3, -1371730.5, -1757.8326, 0.0019634098, 0.0001242927, -1323536.1, -233.34114, 0.0, 10.021676, 9.958027 
7.137262e+3, 1.7492728e+2, -1225810.3, -1274225.4, -1843.132, 0.001959672, 0.0000284579, -1225740.3, -26.643875, 0.0, 10.021633, 9.957613 
7.137271e+3, 1.8487883e+2, -1137732.0, -1195414.5, -2171.5005, 0.0019602496, 0.00017695328, -1137650.4, -9462.1455, 0.0, 10.021548, 9.945423 
7.1372795e+3, 1.948243e+2, -1039882.25, -1097729.1, -2232.8518, 0.0019655738, 0.000043914733, -1039796.2, -9073.468, 0.0, 10.0214205, 9.945084 
7.1372885e+3, 2.0476325e+2, -951747.75, -1019043.6, -2381.6062, 0.001967325, 0.00016417871, -951663.56, -18342.582, 0.0, 10.021283, 9.932641 
7.137297e+3, 2.1469592e+2, -853785.1, -921227.9, -2421.3425, 0.0019651405, -0.0000322414, -853698.3, -17717.703, 0.0, 10.021136, 9.932307 
7.137305e+3, 2.2462207e+2, -765538.4, -842676.56, -2391.572, 0.0019650494, 0.00021178217, -765464.3, -26759.92, 0.0, 10.020992, 9.919589 
7.137314e+3, 2.3454173e+2, -667415.8, -744695.0, -2408.0403, 0.0019673104, -0.0000041381186, -667340.9, -25849.158, 0.0, 10.02085, 9.919269 
7.137323e+3, 2.4445459e+2, -579120.44, -666491.25, -2203.2969, 0.0019702467, 0.0001571916, -579064.9, -34719.18, 0.0, 10.02073, 9.90612 
7.137332e+3, 2.5436085e+2, -480605.97, -567969.75, -2191.3132, 0.0019740101, -0.000021737167, -480551.03, -33286.688, 0.0, 10.020634, 9.906036 
7.1373415e+3, 2.642601e+2, -392375.2, -490437.56, -1835.9729, 0.0019758744, 0.0002240438, -392340.8, -42089.316, 0.0, 10.020569, 9.892179 
7.1373516e+3, 2.7415287e+2, -293220.22, -390921.8, -1789.1896, 0.0019746134, -0.00012682899, -293187.47, -39884.88, 0.0, 10.020544, 9.892616 
7.1373624e+3, 2.840373e+2, -206899.39, -317969.53, -1261.3353, 0.001973818, 0.00030094845, -206885.06, -50449.973, 0.0, 10.020567, 9.875502 
7.137374e+3, 2.939138e+2, -107178.375, -217709.98, -1187.6737, 0.0019748732, -0.00018382235, -107165.61, -47520.62, 0.0, 10.020654, 9.876269 
7.137386e+3, 3.0381846e+2, -17193.564, -84204.375, -475.88324, 0.0019775482, 0.00023914459, -17190.184, -17190.184, 0.0, 10.020798, 9.932525 
7.1374e+3, 3.137529e+2, -15746.896, -81722.17, -333.05945, 0.0019777785, 0.000008103461, -15745.215, -15745.215, 0.0, 10.021026, 9.934091 
7.1472317e+3, 1.2506185e+2, -1693716.1, -1723407.1, -517.07367, 0.00197486, 0.0001375594, -1693707.1, 20687.719, 0.0, 10.022276, 9.982895 
7.1472436e+3, 1.3504462e+2, -1596261.5, -1626634.5, -672.6808, 0.0019676748, -0.000007977739, -1596246.6, 20317.025, 0.0, 10.022389, 9.982106 
7.147255e+3, 1.4502081e+2, -1508194.5, -1547461.0, -1408.0171, 0.0019672562, 0.0002648015, -1508144.1, 10652.895, 0.0, 10.022433, 9.970401 
7.147265e+3, 1.5499118e+2, -1410614.1, -1450267.5, -1528.0063, 0.0019756106, 0.00006379501, -1410555.4, 10532.006, 0.0, 10.022408, 9.969867 
7.1472746e+3, 1.6495496e+2, -1322743.5, -1371526.0, -2070.1409, 0.0019771669, 0.000137508, -1322655.9, 786.4488, 0.0, 10.022328, 9.957812 
7.147284e+3, 1.7491281e+2, -1225100.5, -1274099.5, -2151.1792, 0.0019713042, 0.000029586276, -1225006.3, 848.97266, 0.0, 10.022196, 9.957399 
7.147293e+3, 1.8486418e+2, -1137123.1, -1195281.9, -2511.0918, 0.0019690886, 0.00017357185, -1137014.9, -8683.151, 0.0, 10.02202, 9.945263 
7.1473014e+3, 1.948095e+2, -1039415.6, -1097671.1, -2575.8464, 0.001970972, 0.00004389876, -1039301.94, -8434.17, 0.0, 10.021803, 9.944923 
7.14731e+3, 2.047483e+2, -951383.06, -1018974.4, -2737.604, 0.0019724956, 0.00016540021, -951272.4, -17805.035, 0.0, 10.021572, 9.932537 
7.147318e+3, 2.146809e+2, -853573.0, -921236.7, -2781.6782, 0.0019735836, -0.000032112603, -853458.8, -17330.822, 0.0, 10.021326, 9.932205 
7.1473265e+3, 2.2460696e+2, -765422.2, -842664.3, -2749.8152, 0.0019738728, 0.00021164614, -765324.4, -26471.916, 0.0, 10.021089, 9.919547 
7.147334e+3, 2.3452657e+2, -667432.94, -744748.6, -2764.8484, 0.0019731864, -0.000003576076, -667334.2, -25694.03, 0.0, 10.02086, 9.9192295 
7.147343e+3, 2.4443942e+2, -579235.2, -666532.7, -2544.119, 0.0019746446, 0.00015750896, -579161.1, -34666.813, 0.0, 10.020647, 9.906134 
7.1473527e+3, 2.543457e+2, -480863.03, -568079.56, -2528.409, 0.0019787112, -0.000022823146, -480789.8, -33376.984, 0.0, 10.020455, 9.906053 
7.1473616e+3, 2.64245e+2, -392720.0, -490523.5, -2139.6082, 0.0019810388, 0.00022206888, -392673.22, -42273.688, 0.0, 10.020303, 9.892253 
7.1473724e+3, 2.7413782e+2, -293677.8, -391058.13, -2083.6147, 0.0019803618, -0.00012899094, -293633.25, -40183.37, 0.0, 10.020199, 9.892694 
7.147383e+3, 2.8402233e+2, -207464.75, -318148.84, -1510.228, 0.0019799313, 0.00029968863, -207444.14, -50862.598, 0.0, 10.020144, 9.875588 
7.1473944e+3, 2.93899e+2, -107853.06, -217940.63, -1426.1396, 0.0019810824, -0.00018257178, -107834.586, -48044.01, 0.0, 10.020154, 9.876357 
7.147407e+3, 3.038037e+2, -17877.65, -84310.26, -648.4812, 0.0019835827, 0.00024023883, -17871.32, -17871.32, 0.0, 10.020232, 9.932723 
7.1474206e+3, 3.137384e+2, -16493.105, -81841.36, -485.19495, 0.0019828249, 0.0000048985253, -16489.502, -16489.502, 0.0, 10.020411, 9.934305 
7.1572536e+3, 1.2504855e+2, -1693979.1, -1724011.0, -465.82474, 0.0019765352, 0.000107257605, -1693971.9, 20553.244, 0.0, 10.022327, 9.982496 
7.157266e+3, 1.3503094e+2, -1596535.9, -1627243.0, -617.40106, 0.0019691035, -0.000018809911, -1596523.5, 20174.295, 0.0, 10.022432, 9.981709 
7.1572775e+3, 1.4500679e+2, -1508408.5, -1547938.1, -1402.7496, 0.0019725529, 0.0002709105, -1508358.8, 10575.709, 0.0, 10.022467, 9.970088 
7.1572876e+3, 1.5497686e+2, -1410839.9, -1450749.4, -1524.0748, 0.0019891057, 0.00008351351, -1410781.8, 10445.96, 0.0, 10.022432, 9.969555 
7.157297e+3, 1.6494037e+2, -1322900.8, -1371855.4, -2107.2876, 0.0019939912, 0.00015603575, -1322810.3, 775.0672, 0.0, 10.022342, 9.957601 
7.157306e+3, 1.7489801e+2, -1225275.1, -1274436.3, -2189.1792, 0.001986442, 0.000032050095, -1225177.8, 822.6355, 0.0, 10.022196, 9.957188 
7.157315e+3, 1.8484919e+2, -1137271.1, -1195551.1, -2580.2651, 0.0019802311, 0.00016994617, -1137157.1, -8678.23, 0.0, 10.022013, 9.945097 
7.1573234e+3, 1.9479433e+2, -1039566.6, -1097940.4, -2644.7769, 0.0019757606, 0.000044594402, -1039447.06, -8430.613, 0.0, 10.021791, 9.944758 
7.157332e+3, 2.04733e+2, -951495.2, -1019158.6, -2816.3347, 0.001976596, 0.00016663685, -951378.2, -17760.873, 0.0, 10.021556, 9.932428 
7.1573395e+3, 2.1466547e+2, -853692.56, -921422.9, -2860.102, 0.0019832137, -0.000034528217, -853572.0, -17292.932, 0.0, 10.021305, 9.932097 
7.157347e+3, 2.2459148e+2, -765499.4, -842751.1, -2822.578, 0.0019847958, 0.00020952054, -765396.4, -26392.096, 0.0, 10.02106, 9.919506 
7.1573555e+3, 2.3451106e+2, -667521.06, -744838.06, -2838.0115, 0.001980501, -0.00000089575684, -667417.0, -25624.678, 0.0, 10.020822, 9.91919 
7.1573645e+3, 2.444239e+2, -579290.4, -666540.4, -2603.6726, 0.0019788977, 0.00016063139, -579212.75, -34566.18, 0.0, 10.020602, 9.906152 
7.157373e+3, 2.5433016e+2, -480923.8, -568086.7, -2586.8813, 0.001980602, -0.000024655094, -480847.1, -33282.18, 0.0, 10.020405, 9.906073 
7.1573824e+3, 2.6422954e+2, -392744.0, -490439.75, -2166.2898, 0.0019832011, 0.00021808034, -392695.97, -42144.81, 0.0, 10.020246, 9.892336 
7.157392e+3, 2.7412245e+2, -293712.56, -390974.6, -2108.517, 0.0019862014, -0.00013155668, -293666.88, -40066.266, 0.0, 10.020132, 9.892782 
7.1574026e+3, 2.8400704e+2, -207505.78, -318058.22, -1494.8386, 0.0019875423, 0.00029925132, -207485.56, -50754.18, 0.0, 10.020069, 9.875684 
7.1574146e+3, 2.938838e+2, -107904.03, -217854.13, -1406.1715, 0.0019878317, -0.00017992815, -107886.055, -47946.598, 0.0, 10.020072, 9.876453 
7.157427e+3, 3.0378866e+2, -17857.256, -84055.59, -571.0642, 0.001989434, 0.00024234726, -17852.33, -17852.33, 0.0, 10.020142, 9.93294 
7.157441e+3, 3.1372356e+2, -16478.436, -81571.336, -400.94067, 0.001987297, 0.000000678926, -16475.967, -16475.967, 0.0, 10.020308, 9.934537 
7.167277e+3, 1.2503524e+2, -1692424.1, -1723617.6, -610.3434, 0.001998742, 0.00030138486, -1692412.3, 22243.3, 0.0, 10.023492, 9.982115 
7.167289e+3, 1.3501713e+2, -1595159.9, -1626948.6, -760.94617, 0.001981516, 0.000004250809, -1595141.6, 21691.563, 0.0, 10.02349, 9.981327 
7.1673006e+3, 1.4499256e+2, -1507166.5, -1547665.1, -1603.7631, 0.0019770742, 0.00022331464, -1507103.1, 11970.803, 0.0, 10.023419, 9.969752 
7.167311e+3, 1.5496232e+2, -1409767.6, -1450568.5, -1740.0455, 0.0019879828, 0.0000671878, -1409693.5, 11676.739, 0.0, 10.023282, 9.96922 
7.1673197e+3, 1.6492555e+2, -1321926.3, -1371610.5, -2383.3452, 0.00199417, 0.0001564088, -1321812.1, 1918.3257, 0.0, 10.023079, 9.957368 
7.1673286e+3, 1.7488296e+2, -1224498.8, -1274296.8, -2479.6382, 0.001994927, 0.00003392365, -1224375.6, 1772.2523, 0.0, 10.02281, 9.956956 
7.1673375e+3, 1.8483394e+2, -1136621.1, -1195411.0, -2903.2375, 0.001992603, 0.00017187012, -1136478.1, -7849.8237, 0.0, 10.022517, 9.944924 
7.167345e+3, 1.947789e+2, -1039068.0, -1097879.5, -2974.7588, 0.0019873984, 0.000045152734, -1038917.94, -7750.3906, 0.0, 10.022201, 9.944587 
7.167353e+3, 2.0471744e+2, -951106.56, -1019085.6, -3165.557, 0.0019858242, 0.00016630566, -950959.44, -17189.596, 0.0, 10.021864, 9.932318 
7.167361e+3, 2.146498e+2, -853470.44, -921435.0, -3212.5183, 0.0019881958, -0.000035267767, -853318.94, -16886.232, 0.0, 10.021505, 9.931987 
7.1673685e+3, 2.2457571e+2, -765397.25, -842751.1, -3175.0852, 0.001989396, 0.00020889357, -765267.1, -26108.484, 0.0, 10.02115, 9.91946 
7.167376e+3, 2.3449525e+2, -667592.44, -744924.1, -3193.0989, 0.0019891982, -0.00000079656894, -667460.8, -25513.709, 0.0, 10.020798, 9.919147 
7.1673846e+3, 2.4440809e+2, -579471.7, -666603.2, -2940.7112, 0.0019885346, 0.00016066755, -579372.56, -34571.043, 0.0, 10.020472, 9.906176 
7.167393e+3, 2.543144e+2, -481250.13, -568218.06, -2918.8806, 0.0019872573, -0.000025657306, -481152.28, -33432.715, 0.0, 10.020175, 9.9061 
7.1674025e+3, 2.642138e+2, -393172.94, -490551.1, -2465.067, 0.0019884352, 0.00021776733, -393110.56, -42405.324, 0.0, 10.019916, 9.892425 
7.167412e+3, 2.741068e+2, -294288.63, -391152.84, -2400.4092, 0.0019919954, -0.00012888112, -294229.2, -40475.418, 0.0, 10.0197, 9.892876 
7.167423e+3, 2.8399152e+2, -208203.88, -318272.03, -1735.0889, 0.0019931146, 0.0003008506, -208176.53, -51292.984, 0.0, 10.019544, 9.875798 
7.1674347e+3, 2.9386836e+2, -108717.6, -218120.55, -1630.9226, 0.001992107, -0.00018516558, -108693.3, -48602.777, 0.0, 10.0194645, 9.87657 
7.1674466e+3, 3.0377343e+2, -18696.12, -84198.75, -725.8306, 0.0019938485, 0.00023636449, -18688.076, -18688.076, 0.0, 10.019454, 9.933172 
7.167461e+3, 3.1370857e+2, -17420.46, -81746.55, -536.94763, 0.00199369, 0.0000035494686, -17415.98, -17415.98, 0.0, 10.019541, 9.934786 
7.1773005e+3, 1.250214e+2, -1692643.5, -1724173.9, -582.5892, 0.0020006178, 0.00007186201, -1692632.8, 22158.67, 0.0, 10.02356, 9.981738 
7.1773124e+3, 1.3500312e+2, -1595422.1, -1627536.4, -741.1839, 0.0020000404, 0.00005921277, -1595405.0, 21565.492, 0.0, 10.023534, 9.980942 
7.1773237e+3, 1.4497806e+2, -1507421.4, -1548209.6, -1635.7786, 0.001981283, 0.00014019497, -1507355.9, 11860.009, 0.0, 10.023448, 9.9694 
7.177333e+3, 1.549475e+2, -1410027.0, -1451113.3, -1768.8423, 0.0019812775, 0.000036248224, -1409951.0, 11564.287, 0.0, 10.023306, 9.968868 
7.1773434e+3, 1.6491047e+2, -1322109.8, -1371998.4, -2459.5952, 0.001987843, 0.00015405013, -1321988.8, 1889.4666, 0.0, 10.023096, 9.957117 
7.177352e+3, 1.7486763e+2, -1224692.4, -1274687.6, -2556.972, 0.0020004425, 0.000035027515, -1224561.9, 1736.1877, 0.0, 10.022819, 9.956706 
7.17736e+3, 1.8481839e+2, -1136771.6, -1195701.4, -2999.306, 0.0020050649, 0.00017379918, -1136619.4, -7838.747, 0.0, 10.022517, 9.944742 
7.177368e+3, 1.9476317e+2, -1039230.1, -1098173.9, -3072.1438, 0.002001662, 0.000045366356, -1039070.44, -7748.7275, 0.0, 10.022192, 9.944406 
7.177375e+3, 2.0470157e+2, -951226.3, -1019281.75, -3279.2598, 0.0019971665, 0.00016584803, -951068.7, -17143.195, 0.0, 10.021848, 9.932202 
7.177382e+3, 2.1463381e+2, -853597.2, -921632.44, -3326.9414, 0.0019914121, -0.000035406196, -853434.9, -16845.445, 0.0, 10.021482, 9.931873 
7.17739e+3, 2.2455965e+2, -765481.0, -842850.44, -3287.4387, 0.00199143, 0.00020851813, -765341.56, -26025.383, 0.0, 10.021121, 9.919412 
7.177397e+3, 2.3447914e+2, -667683.75, -745024.4, -3305.2139, 0.0019981496, -0.000002058714, -667542.75, -25437.605, 0.0, 10.0207615, 9.919101 
7.177405e+3, 2.4439193e+2, -579516.9, -666592.94, -3032.69, 0.0019999715, 0.00015923413, -579411.4, -34451.797, 0.0, 10.020427, 9.906205 
7.177413e+3, 2.542983e+2, -481307.8, -568209.4, -3010.5684, 0.0019956802, -0.000026445914, -481203.66, -33326.32, 0.0, 10.020121, 9.906134 
7.1774226e+3, 2.641978e+2, -393196.75, -490452.34, -2527.7366, 0.0019947833, 0.00021882915, -393131.1, -42268.695, 0.0, 10.019852, 9.892521 
7.1774316e+3, 2.740909e+2, -294320.75, -391053.0, -2460.5374, 0.0019975062, -0.0001245125, -294258.2, -40348.273, 0.0, 10.0196295, 9.892976 
7.1774423e+3, 2.8397572e+2, -208229.9, -318138.22, -1747.1084, 0.0019975624, 0.00030295932, -208202.14, -51163.543, 0.0, 10.019463, 9.875925 
7.1774536e+3, 2.9385266e+2, -108758.24, -217991.16, -1638.5677, 0.0019952464, -0.00019339376, -108733.67, -48489.293, 0.0, 10.019374, 9.876699 
7.177466e+3, 3.037579e+2, -18666.44, -83902.586, -676.5061, 0.001997474, 0.00022741458, -18659.426, -18659.426, 0.0, 10.019353, 9.93342 
7.1774805e+3, 3.136933e+2, -17388.588, -81430.79, -480.5631, 0.0020001458, 0.000008853713, -17384.982, -17384.982, 0.0, 10.019434, 9.935051 
7.187325e+3, 1.2500773e+2, -1690841.1, -1723699.8, -666.0218, 0.0019977312, 0.00002483861, -1690827.6, 24097.506, 0.0, 10.024901, 9.981312 
7.1873367e+3, 1.3498937e+2, -1593943.1, -1627295.5, -871.64154, 0.002044337, 0.00049213116, -1593920.3, 23184.86, 0.0, 10.024706, 9.980467 
7.1873474e+3, 1.449633e+2, -1506053.6, -1547884.5, -1818.9604, 0.0019794109, -0.00020228706, -1505974.6, 13386.08, 0.0, 10.024487, 9.969052 
7.1873575e+3, 1.5493266e+2, -1408819.6, -1450875.0, -1958.2882, 0.0019903297, 0.00004216902, -1408728.6, 12932.181, 0.0, 10.024247, 9.968522 
7.1873665e+3, 1.648954e+2, -1321014.1, -1371734.3, -2713.3652, 0.0019986231, 0.00027632556, -1320869.4, 3156.4604, 0.0, 10.02393, 9.956846 
7.187375e+3, 1.7485219e+2, -1223788.1, -1274525.4, -2825.061, 0.0020032052, 0.000030181189, -1223631.4, 2817.9744, 0.0, 10.023534, 9.956436 
7.1873826e+3, 1.8480268e+2, -1136011.6, -1195540.1, -3301.6294, 0.0020058223, 0.00012557121, -1135829.1, -6894.6094, 0.0, 10.0231085, 9.944538 
7.18739e+3, 1.947473e+2, -1038676.6, -1098120.5, -3387.935, 0.0020069252, 0.00004442343, -1038484.1, -7006.9043, 0.0, 10.022653, 9.944202 
7.187397e+3, 2.0468555e+2, -950809.5, -1019211.1, -3618.0552, 0.0020053678, 0.00018319578, -950618.7, -16536.201, 0.0, 10.0221815, 9.932076 
7.187404e+3, 2.1461764e+2, -853370.6, -921658.6, -3672.33, 0.002000786, -0.00003251242, -853173.7, -16425.955, 0.0, 10.021693, 9.931749 
7.1874106e+3, 2.245434e+2, -765384.6, -842857.06, -3634.8347, 0.0019998306, 0.00020456195, -765214.5, -25739.023, 0.0, 10.021209, 9.919363 
7.187418e+3, 2.3446284e+2, -667773.2, -745122.8, -3653.1057, 0.0020030732, -0.0000037999814, -667601.06, -25336.229, 0.0, 10.020727, 9.919054 
7.1874255e+3, 2.4437565e+2, -579739.44, -666673.06, -3363.5173, 0.0020040662, 0.00015949801, -579609.5, -34490.152, 0.0, 10.0202675, 9.906233 
7.187433e+3, 2.5428203e+2, -481721.3, -568380.56, -3340.1091, 0.0020022334, -0.000024492127, -481592.75, -33555.977, 0.0, 10.019832, 9.906165 
7.187442e+3, 2.6418158e+2, -393732.63, -490595.16, -2820.1985, 0.002002111, 0.00022017056, -393650.6, -42629.39, 0.0, 10.019442, 9.892629 
7.187451e+3, 2.740748e+2, -295015.0, -391266.53, -2742.432, 0.0020032478, -0.00012684874, -294936.9, -40869.297, 0.0, 10.019108, 9.89309 
7.187461e+3, 2.8395975e+2, -209064.63, -318390.16, -1973.8029, 0.0020033184, 0.00030085043, -209029.0, -51833.94, 0.0, 10.018833, 9.876065 
7.1874726e+3, 2.9383686e+2, -109744.055, -218312.27, -1852.0756, 0.002003406, -0.00018949543, -109712.47, -49313.066, 0.0, 10.018637, 9.876842 
7.187485e+3, 3.037423e+2, -19689.346, -84096.31, -812.4955, 0.0020047782, 0.00023253221, -19679.098, -19679.098, 0.0, 10.018523, 9.933687 
7.1874994e+3, 3.1367797e+2, -18506.436, -81650.89, -595.057, 0.002000963, 0.0000074455525, -18500.828, -18500.828, 0.0, 10.018531, 9.935335 
7.1973497e+3, 1.2499387e+2, -1691059.8, -1724293.6, -697.15, 0.0019566217, -0.00020096934, -1691045.3, 24015.857, 0.0, 10.024987, 9.980903 
7.1973616e+3, 1.3497566e+2, -1594311.9, -1628106.1, -912.44226, 0.0021034747, 0.0011431952, -1594287.3, 22952.176, 0.0, 10.02476, 9.9799385 
7.1973723e+3, 1.4494821e+2, -1506314.8, -1548440.9, -1879.0547, 0.0019706448, -0.00070609647, -1506231.1, 13277.359, 0.0, 10.024515, 9.968694 
7.197382e+3, 1.5491764e+2, -1409105.5, -1451441.5, -2019.5453, 0.0020060248, 0.00006102477, -1409009.4, 12798.44, 0.0, 10.024258, 9.9681635 
7.197391e+3, 1.6488022e+2, -1321251.3, -1372193.0, -2830.9656, 0.0020182864, 0.00046754998, -1321094.4, 3080.264, 0.0, 10.023932, 9.956559 
7.1973985e+3, 1.7483656e+2, -1224017.4, -1274977.5, -2940.9658, 0.0020051901, 0.000024059169, -1223848.3, 2754.3264, 0.0, 10.02354, 9.95615 
7.1974057e+3, 1.8478674e+2, -1136187.5, -1195887.8, -3439.9915, 0.0020014928, 0.00005115728, -1135990.0, -6899.167, 0.0, 10.023112, 9.944318 
7.197413e+3, 1.947312e+2, -1038859.44, -1098469.6, -3527.9683, 0.002008633, 0.00004226672, -1038651.4, -7016.301, 0.0, 10.02265, 9.943983 
7.197419e+3, 2.0466928e+2, -950933.7, -1019430.9, -3771.3777, 0.0020124228, 0.00020918011, -950726.7, -16484.84, 0.0, 10.022171, 9.931942 
7.1974254e+3, 2.1460125e+2, -853505.0, -921880.56, -3827.234, 0.002012382, -0.000028631737, -853291.44, -16382.843, 0.0, 10.021675, 9.931618 
7.197432e+3, 2.2452688e+2, -765467.6, -842957.75, -3788.7827, 0.0020104968, 0.00019832377, -765282.8, -25645.56, 0.0, 10.021181, 9.919313 
7.1974385e+3, 2.3444629e+2, -667868.5, -745226.0, -3807.6545, 0.0020063515, -0.0000058064134, -667681.56, -25254.492, 0.0, 10.02069, 9.919007 
7.1974456e+3, 2.4435908e+2, -579789.44, -666664.9, -3501.3386, 0.0020051866, 0.00016062651, -579648.5, -34366.84, 0.0, 10.02022, 9.906262 
7.1974534e+3, 2.542655e+2, -481780.4, -568372.2, -3476.73, 0.0020077857, -0.000021745334, -481641.03, -33442.27, 0.0, 10.019776, 9.9061985 
7.197461e+3, 2.641651e+2, -393741.94, -490463.84, -2920.3987, 0.0020094763, 0.00022130259, -393653.84, -42471.336, 0.0, 10.019377, 9.892747 
7.19747e+3, 2.7405843e+2, -295036.3, -391133.9, -2840.3984, 0.002008844, -0.00013187708, -294952.44, -40724.7, 0.0, 10.0190325, 9.893215 
7.19748e+3, 2.8394353e+2, -209081.7, -318224.16, -2023.6593, 0.0020092556, 0.00029710957, -209044.19, -51690.36, 0.0, 10.018747, 9.876216 
7.197491e+3, 2.938208e+2, -109773.27, -218149.63, -1897.5516, 0.0020128812, -0.0001811479, -109740.055, -49183.48, 0.0, 10.018542, 9.876995 
7.197504e+3, 3.0372646e+2, -19642.758, -83750.945, -788.2736, 0.0020129366, 0.0002428886, -19633.066, -19633.066, 0.0, 10.018416, 9.933972 
7.1975183e+3, 3.1366244e+2, -18467.709, -81288.53, -561.0284, 0.0019995451, 0.0000033707129, -18462.7, -18462.7, 0.0, 10.01841, 9.935638 
7.207376e+3, 1.2498012e+2, -1688909.4, -1723570.3, -765.3639, 0.0019495396, -0.00052633975, -1688892.4, 26303.234, 0.0, 10.026515, 9.98053 
7.2073865e+3, 1.3496214e+2, -1592683.5, -1627946.8, -1034.915, 0.002165975, 0.0018456472, -1592653.1, 24718.705, 0.0, 10.0261, 9.979325 
7.207397e+3, 1.4493307e+2, -1504779.5, -1548080.4, -2038.8522, 0.0019183129, -0.0013807986, -1504683.8, 14973.081, 0.0, 10.025683, 9.9683 
7.207407e+3, 1.5490267e+2, -1407820.3, -1451214.5, -2202.716, 0.0020147113, 0.00004789361, -1407708.8, 14246.134, 0.0, 10.025272, 9.9677725 
7.207415e+3, 1.6486506e+2, -1320086.3, -1371912.8, -3066.193, 0.0020475225, 0.00069201144, -1319905.5, 4417.622, 0.0, 10.024819, 9.95627 
7.207422e+3, 1.7482096e+2, -1223015.0, -1274783.5, -3182.763, 0.0020121252, 0.00003522697, -1222820.0, 3935.4463, 0.0, 10.024326, 9.955863 
7.2074294e+3, 1.847708e+2, -1135338.8, -1195725.5, -3725.898, 0.0020008623, -0.00001919451, -1135109.8, -5862.774, 0.0, 10.023781, 9.944076 
7.2074354e+3, 1.9471507e+2, -1038229.8, -1098422.6, -3828.017, 0.0020166105, 0.000035530924, -1037987.3, -6194.245, 0.0, 10.02318, 9.943742 
7.2074413e+3, 2.0465297e+2, -950454.0, -1019357.25, -4097.7725, 0.0020223665, 0.0002275464, -950211.2, -15809.576, 0.0, 10.022559, 9.931791 
7.207447e+3, 2.1458478e+2, -853253.25, -921922.8, -4163.2837, 0.0020167106, -0.00002955936, -853001.75, -15931.775, 0.0, 10.021915, 9.931469 
7.207453e+3, 2.245103e+2, -765372.2, -842973.9, -4130.7256, 0.0020136137, 0.0001909528, -765152.94, -25353.234, 0.0, 10.021273, 9.919257 
7.207459e+3, 2.3442967e+2, -668000.4, -745354.06, -4152.6685, 0.002013536, -0.000004043955, -667778.1, -25188.158, 0.0, 10.020631, 9.918955 
7.207466e+3, 2.4434245e+2, -580072.56, -666766.7, -3826.5361, 0.0020137355, 0.00016519809, -579904.0, -34459.336, 0.0, 10.020017, 9.906298 
7.207473e+3, 2.542489e+2, -482267.63, -568570.4, -3796.8225, 0.0020142326, -0.000022468035, -482100.94, -33739.53, 0.0, 10.019434, 9.9062395 
7.2074807e+3, 2.641486e+2, -394369.66, -490633.25, -3200.214, 0.0020152659, 0.00021916893, -394263.38, -42919.043, 0.0, 10.018897, 9.892873 
7.207489e+3, 2.7404207e+2, -295859.47, -391391.28, -3111.9004, 0.0020158521, -0.00013012231, -295758.22, -41369.953, 0.0, 10.018416, 9.893347 
7.2074986e+3, 2.8392732e+2, -210068.03, -318523.4, -2235.2456, 0.002015262, 0.00030000662, -210021.98, -52509.066, 0.0, 10.018003, 9.87638 
7.207509e+3, 2.9380473e+2, -110922.57, -218522.77, -2094.6594, 0.002014649, -0.00018102062, -110881.805, -50167.76, 0.0, 10.017683, 9.877163 
7.207521e+3, 3.0371064e+2, -20842.635, -83981.39, -902.83655, 0.0020153988, 0.00024189305, -20829.727, -20829.727, 0.0, 10.017445, 9.934283 
7.2075355e+3, 3.1364694e+2, -19813.568, -81566.71, -649.87646, 0.0020102402, 0.0000037673267, -19806.73, -19806.73, 0.0, 10.017327, 9.93597 
7.217402e+3, 1.2496655e+2, -1689099.0, -1724042.5, -818.70776, 0.0019371228, -0.00070853595, -1689079.9, 26248.904, 0.0, 10.02657, 9.980212 
7.217413e+3, 1.3494864e+2, -1593181.1, -1628987.4, -1101.6788, 0.0022328133, 0.0025828741, -1593147.3, 24356.922, 0.0, 10.026149, 9.978658 
7.217423e+3, 1.4491782e+2, -1505074.6, -1548734.9, -2110.5244, 0.0018453707, -0.0021302223, -1504972.9, 14833.291, 0.0, 10.025728, 9.967872 
7.2174317e+3, 1.5488756e+2, -1408111.5, -1451862.0, -2287.2683, 0.0020202214, 0.000020438842, -1407992.3, 14110.57, 0.0, 10.025316, 9.967347 
7.21744e+3, 1.6484982e+2, -1320280.8, -1372366.8, -3193.6545, 0.002081669, 0.00093147665, -1320085.8, 4386.8745, 0.0, 10.0248575, 9.955968 
7.2174466e+3, 1.7480524e+2, -1223220.3, -1275239.6, -3321.9148, 0.0020217178, 0.00005317719, -1223009.0, 3900.56, 0.0, 10.024355, 9.955563 
7.217453e+3, 1.8475473e+2, -1135524.5, -1196124.1, -3912.0164, 0.0020018523, -0.00008897927, -1135273.0, -5868.5186, 0.0, 10.023799, 9.943815 
7.2174585e+3, 1.946988e+2, -1038429.25, -1098826.5, -4016.9177, 0.0020267044, 0.000027000875, -1038163.3, -6210.6484, 0.0, 10.023188, 9.943482 
7.217464e+3, 2.046365e+2, -950591.06, -1019616.25, -4303.976, 0.002033058, 0.00024347335, -950323.7, -15760.682, 0.0, 10.022555, 9.93163 
7.217469e+3, 2.1456812e+2, -853405.06, -922185.6, -4370.025, 0.002018229, -0.000032293723, -853128.56, -15895.421, 0.0, 10.0219, 9.93131 
7.2174746e+3, 2.2449355e+2, -765461.1, -843089.25, -4337.282, 0.0020138626, 0.00018291612, -765219.5, -25255.512, 0.0, 10.021247, 9.919197 
7.21748e+3, 2.3441286e+2, -668099.75, -745469.94, -4359.7246, 0.002021996, -0.0000010316459, -667854.9, -25100.154, 0.0, 10.020596, 9.918899 
7.217486e+3, 2.4432562e+2, -580113.06, -666740.94, -4012.5178, 0.0020248366, 0.0001710096, -579927.56, -34318.063, 0.0, 10.01997, 9.906339 
7.2174925e+3, 2.542321e+2, -482322.38, -568545.5, -3982.1563, 0.0020208757, -0.000024591964, -482138.84, -33613.004, 0.0, 10.019376, 9.906285 
7.2174996e+3, 2.641319e+2, -394375.1, -490482.2, -3349.3508, 0.002020227, 0.0002157777, -394258.53, -42750.57, 0.0, 10.018827, 9.893006 
7.2175074e+3, 2.740255e+2, -295875.1, -391237.66, -3258.2441, 0.0020229223, -0.00012587641, -295763.9, -41213.46, 0.0, 10.018337, 9.893487 
7.217517e+3, 2.8391093e+2, -210073.73, -318322.5, -2325.0376, 0.0020208, 0.00030534112, -210023.81, -52350.254, 0.0, 10.017913, 9.876556 
7.2175276e+3, 2.9378852e+2, -110945.56, -218326.73, -2177.9683, 0.0020133299, -0.00018433844, -110901.41, -50028.406, 0.0, 10.017579, 9.877342 
7.217539e+3, 3.0369464e+2, -20776.91, -83573.71, -915.7807, 0.0020154535, 0.00023635574, -20763.557, -20763.557, 0.0, 10.017328, 9.934614 
7.217553e+3, 3.1363136e+2, -19747.693, -81134.4, -654.8498, 0.002024492, 0.0000059449353, -19740.709, -19740.709, 0.0, 10.017201, 9.936323 
7.227429e+3, 1.2495353e+2, -1686761.5, -1723088.9, -734.23724, 0.0019498395, -0.0009906702, -1686746.6, 28709.572, 0.0, 10.028155, 9.979952 
7.22744e+3, 1.3493575e+2, -1591430.0, -1628889.1, -1072.1188, 0.0023094863, 0.0033291434, -1591399.3, 26231.318, 0.0, 10.027624, 9.977936 
7.2274494e+3, 1.4490318e+2, -1503361.9, -1548454.6, -2124.0679, 0.0017552265, -0.0027401138, -1503262.1, 16687.53, 0.0, 10.027088, 9.967328 
7.227458e+3, 1.5487288e+2, -1406595.6, -1451686.5, -2355.9153, 0.002021521, 0.000013147755, -1406472.9, 15773.772, 0.0, 10.026555, 9.966806 
7.2274655e+3, 1.6483484e+2, -1318873.5, -1372090.9, -3354.5823, 0.0021204993, 0.0011385126, -1318662.9, 5956.4956, 0.0, 10.025958, 9.955566 
7.2274715e+3, 1.7478967e+2, -1222066.1, -1275097.3, -3530.3152, 0.0020399601, 0.000051930932, -1221832.1, 5229.839, 0.0, 10.025297, 9.955163 
7.227477e+3, 1.8473877e+2, -1134538.1, -1195943.3, -4194.578, 0.0020059864, -0.00016471202, -1134253.0, -4692.118, 0.0, 10.024579, 9.943527 
7.227482e+3, 1.946826e+2, -1037708.44, -1098783.6, -4315.494, 0.0020242454, 0.00002742379, -1037405.0, -5293.7344, 0.0, 10.0238, 9.943196 
7.227487e+3, 2.0462012e+2, -950045.4, -1019531.2, -4631.153, 0.0020313356, 0.00027340144, -949738.06, -15014.397, 0.0, 10.022996, 9.931459 
7.227491e+3, 2.1455154e+2, -853129.9, -922237.25, -4702.994, 0.002025508, -0.000027635386, -852811.3, -15415.72, 0.0, 10.022165, 9.931143 
7.2274953e+3, 2.2447684e+2, -765368.1, -843116.06, -4670.7334, 0.002023841, 0.00017638401, -765088.56, -24960.818, 0.0, 10.021341, 9.919133 
7.2275007e+3, 2.3439609e+2, -668256.8, -745619.56, -4695.25, 0.0020271295, -0.0000013163818, -667972.94, -25053.96, 0.0, 10.020524, 9.9188385 
7.2275054e+3, 2.4430886e+2, -580443.8, -666860.44, -4328.574, 0.0020289253, 0.00017394214, -580227.56, -34453.68, 0.0, 10.019732, 9.90638 
7.2275114e+3, 2.542154e+2, -482900.78, -568782.06, -4295.3735, 0.0020287698, -0.000022525232, -482686.47, -33996.754, 0.0, 10.0189705, 9.906333 
7.2275174e+3, 2.6411527e+2, -395118.22, -490687.2, -3617.343, 0.002028551, 0.00021710175, -394981.47, -43310.555, 0.0, 10.018262, 9.893151 
7.227525e+3, 2.7400902e+2, -296832.13, -391538.13, -3515.2756, 0.0020269009, -0.00012503935, -296701.8, -41989.883, 0.0, 10.017622, 9.8936405 
7.227534e+3, 2.8389463e+2, -211211.36, -318656.75, -2515.696, 0.0020243714, 0.00030521973, -211152.48, -53319.15, 0.0, 10.017051, 9.876756 
7.227544e+3, 2.9377243e+2, -112284.88, -218751.77, -2349.3691, 0.0020224147, -0.00018593362, -112233.07, -51202.273, 0.0, 10.016575, 9.877546 
7.2275555e+3, 3.0367884e+2, -22190.822, -83866.36, -996.49384, 0.0020247323, 0.00023538097, -22174.727, -22174.727, 0.0, 10.016192, 9.934962 
7.227569e+3, 3.136159e+2, -21311.598, -81476.2, -713.5487, 0.0020248836, 0.000008683394, -21303.137, -21303.137, 0.0, 10.015952, 9.936692 
7.2374576e+3, 1.2494081e+2, -1686852.5, -1723359.6, -872.50977, 0.0019453366, -0.0012051413, -1686831.6, 28749.307, 0.0, 10.028202, 9.979761 
7.237468e+3, 1.3492304e+2, -1591995.9, -1630087.0, -1246.2186, 0.0023939358, 0.004079958, -1591955.3, 25800.05, 0.0, 10.027685, 9.977165 
7.237476e+3, 1.4488873e+2, -1503765.5, -1549369.0, -2302.0947, 0.0016574963, -0.0032937063, -1503649.5, 16441.762, 0.0, 10.027158, 9.966726 
7.2374845e+3, 1.5485828e+2, -1406988.0, -1452588.5, -2527.2, 0.0020218613, 0.000012456189, -1406848.4, 15541.377, 0.0, 10.026627, 9.9662075 
7.237491e+3, 1.6481987e+2, -1319153.3, -1372762.6, -3568.3765, 0.0021620146, 0.0013321327, -1318916.8, 5849.3867, 0.0, 10.026021, 9.955115 
7.2374964e+3, 1.747741e+2, -1222371.9, -1275777.4, -3739.4617, 0.002060659, 0.00004394215, -1222111.3, 5103.4536, 0.0, 10.02534, 9.954715 
7.237502e+3, 1.8472275e+2, -1134752.3, -1196411.6, -4444.5356, 0.0020102623, -0.00024210746, -1134433.5, -4715.6978, 0.0, 10.024604, 9.94322 
7.237506e+3, 1.9466634e+2, -1037939.3, -1099256.0, -4565.2803, 0.0020174359, 0.000031165928, -1037601.3, -5330.6436, 0.0, 10.02381, 9.942892 
7.2375095e+3, 2.0460364e+2, -950191.1, -1019813.0, -4899.8833, 0.0020256552, 0.0003085136, -949848.0, -14962.8125, 0.0, 10.022995, 9.931282 
7.237513e+3, 2.1453486e+2, -853285.75, -922519.1, -4973.335, 0.0020349242, -0.00002026112, -852930.3, -15371.301, 0.0, 10.022155, 9.930969 
7.237517e+3, 2.2446002e+2, -765455.8, -843238.7, -4937.2183, 0.0020372092, 0.00017032129, -765143.7, -24851.238, 0.0, 10.021319, 9.919066 
7.237521e+3, 2.3437923e+2, -668361.4, -745745.4, -4961.7295, 0.0020309142, -0.0000029191247, -668044.56, -24960.299, 0.0, 10.020489, 9.9187765 
7.2375256e+3, 2.4429198e+2, -580484.9, -666830.25, -4575.2114, 0.0020301912, 0.00017577154, -580243.1, -34303.9, 0.0, 10.019684, 9.9064245 
7.2375304e+3, 2.5419858e+2, -482954.84, -568751.2, -4540.7656, 0.002036696, -0.000018949842, -482715.2, -33860.586, 0.0, 10.01891, 9.9063835 
7.2375363e+3, 2.6409855e+2, -395112.0, -490505.53, -3819.0618, 0.0020376623, 0.00022023875, -394959.34, -43124.523, 0.0, 10.018189, 9.893306 
7.237543e+3, 2.7399248e+2, -296839.38, -391353.8, -3713.6191, 0.0020295824, -0.00012558234, -296693.7, -41819.426, 0.0, 10.017536, 9.893804 
7.237551e+3, 2.8387824e+2, -211199.17, -318402.06, -2656.6062, 0.0020270038, 0.0003030477, -211133.38, -53139.527, 0.0, 10.016953, 9.876971 
7.237561e+3, 2.9375625e+2, -112287.74, -218499.03, -2484.9153, 0.0020346688, -0.00018672485, -112229.64, -51040.523, 0.0, 10.016464, 9.877768 
7.237572e+3, 3.0366293e+2, -22110.355, -83412.586, -1050.8218, 0.002036643, 0.00023637337, -22092.348, -22092.348, 0.0, 10.01607, 9.9353285 
7.237585e+3, 3.136004e+2, -21234.313, -81000.13, -756.72687, 0.0020196666, 0.000011521967, -21224.734, -21224.734, 0.0, 10.015818, 9.937079 
7.247486e+3, 1.2492835e+2, -1684211.6, -1722187.4, -911.6417, 0.0019145334, -0.0014846456, -1684189.8, 31513.354, 0.0, 10.029949, 9.979548 
7.247497e+3, 1.3491042e+2, -1590072.5, -1630097.4, -1383.0632, 0.0025012249, 0.0047134077, -1590024.8, 27854.104, 0.0, 10.029361, 9.97627 
7.247504e+3, 1.4487442e+2, -1501737.8, -1548960.0, -2487.9531, 0.0015790813, -0.003845584, -1501607.0, 18624.498, 0.0, 10.028732, 9.966148 
7.247512e+3, 1.548438e+2, -1405170.1, -1452288.5, -2709.1033, 0.0020381883, -0.000014324777, -1405014.9, 17516.646, 0.0, 10.028072, 9.965635 
7.2475183e+3, 1.6480507e+2, -1317486.3, -1372381.1, -3819.435, 0.0022037413, 0.0015062935, -1317221.8, 7689.38, 0.0, 10.0273, 9.954686 
7.247523e+3, 1.7475873e+2, -1221036.4, -1275570.8, -3988.0552, 0.0020517567, 0.000056428966, -1220746.3, 6618.9805, 0.0, 10.026412, 9.9542885 
7.2475266e+3, 1.8470697e+2, -1133643.3, -1196192.9, -4732.8887, 0.0019888438, -0.00029262854, -1133287.3, -3414.713, 0.0, 10.025475, 9.942909 
7.24753e+3, 1.9465029e+2, -1037139.8, -1099198.1, -4860.06, 0.0020263868, 0.000032524782, -1036761.5, -4333.643, 0.0, 10.024485, 9.942584 
7.247533e+3, 2.0458736e+2, -949597.56, -1019728.1, -5216.2407, 0.0020451273, 0.0003292898, -949211.7, -14166.968, 0.0, 10.023478, 9.931091 
7.2475356e+3, 2.1451838e+2, -852979.3, -922579.5, -5298.024, 0.0020418179, -0.000019611542, -852578.3, -14857.792, 0.0, 10.022451, 9.930781 
7.2475386e+3, 2.244434e+2, -765349.7, -843264.25, -5265.9585, 0.0020394307, 0.00016322322, -764995.44, -24540.1, 0.0, 10.021424, 9.918998 
7.2475415e+3, 2.3436254e+2, -668553.3, -745917.1, -5291.4927, 0.0020381536, -0.000002021767, -668193.06, -24945.396, 0.0, 10.020396, 9.918713 
7.247545e+3, 2.442753e+2, -580878.75, -666970.75, -4880.4067, 0.0020385461, 0.00018010201, -580603.0, -34500.254, 0.0, 10.019401, 9.906477 
7.2475487e+3, 2.5418195e+2, -483621.16, -569019.8, -4840.3564, 0.0020410533, -0.000017332282, -483347.7, -34330.133, 0.0, 10.018441, 9.906443 
7.2475535e+3, 2.6408204e+2, -395965.97, -490740.66, -4067.6345, 0.0020421261, 0.0002208029, -395791.72, -43794.996, 0.0, 10.017539, 9.893474 
7.24756e+3, 2.7397615e+2, -297946.0, -391702.06, -3950.5583, 0.0020397394, -0.00012365059, -297779.84, -42745.418, 0.0, 10.016709, 9.89398 
7.247567e+3, 2.8386208e+2, -212512.5, -318786.53, -2822.7449, 0.0020373277, 0.0003055613, -212437.58, -54285.547, 0.0, 10.015958, 9.877203 
7.247577e+3, 2.9374036e+2, -113823.516, -218982.92, -2634.058, 0.0020367901, -0.00018458729, -113757.58, -52412.6, 0.0, 10.015311, 9.878004 
7.2475874e+3, 3.0364734e+2, -23736.982, -83758.59, -1101.153, 0.0020367373, 0.0002381674, -23716.787, -23716.787, 0.0, 10.014769, 9.935721 
7.2476006e+3, 3.135852e+2, -23042.545, -81408.41, -778.48706, 0.0020277142, 0.000012643213, -23032.164, -23032.164, 0.0, 10.0143795, 9.937495 
7.2575164e+3, 1.2491618e+2, -1684238.6, -1722417.0, -1038.4788, 0.0018534679, -0.0015777281, -1684210.4, 31612.096, 0.0, 10.030032, 9.979363 
7.257526e+3, 1.3489783e+2, -1590777.5, -1631602.6, -1558.2164, 0.0026217464, 0.0052978853, -1590718.1, 27284.107, 0.0, 10.029444, 9.975298 
7.2575325e+3, 1.4486015e+2, -1502117.3, -1549836.3, -2693.4856, 0.0015068894, -0.004391722, -1501965.6, 18405.764, 0.0, 10.028806, 9.965569 
7.25754e+3, 1.5482938e+2, -1405567.4, -1453163.3, -2911.867, 0.0020599142, -0.000050842777, -1405389.9, 17283.125, 0.0, 10.028127, 9.965063 
7.2575456e+3, 1.647903e+2, -1317781.4, -1373036.1, -4104.184, 0.0022457046, 0.0016723878, -1317478.3, 7577.769, 0.0, 10.027342, 9.954256 
7.257549e+3, 1.7474341e+2, -1221338.3, -1276223.6, -4273.0283, 0.002032389, 0.00007708424, -1221007.5, 6507.859, 0.0, 10.026445, 9.953862 
7.257552e+3, 1.8469122e+2, -1133867.4, -1196681.0, -5055.6865, 0.0019582845, -0.00033256147, -1133463.0, -3436.2349, 0.0, 10.025499, 9.942591 
7.2575545e+3, 1.9463427e+2, -1037371.5, -1099686.0, -5184.12, 0.0020414046, 0.00003270005, -1036943.2, -4358.1914, 0.0, 10.024502, 9.942267 
7.257557e+3, 2.0457107e+2, -949751.25, -1020040.75, -5554.3916, 0.002074096, 0.00034430277, -949315.06, -14110.824, 0.0, 10.023483, 9.930891 
7.257558e+3, 2.145019e+2, -853152.25, -922896.94, -5635.5156, 0.002047641, -0.00002150326, -852699.8, -14817.712, 0.0, 10.022442, 9.930585 
7.25756e+3, 2.2442679e+2, -765443.8, -843393.94, -5603.524, 0.0020372265, 0.00015585346, -765043.06, -24424.797, 0.0, 10.0214, 9.918929 
7.257562e+3, 2.3434587e+2, -668663.7, -746048.4, -5628.547, 0.0020465492, -0.00000015663629, -668256.44, -24845.264, 0.0, 10.020358, 9.918649 
7.2575647e+3, 2.4425863e+2, -580913.94, -666923.56, -5192.271, 0.0020494433, 0.00018541142, -580601.6, -34335.35, 0.0, 10.019349, 9.906533 
7.2575676e+3, 2.5416532e+2, -483666.44, -568969.3, -5151.1284, 0.0020438458, -0.000016558972, -483356.53, -34176.01, 0.0, 10.01838, 9.906507 
7.257571e+3, 2.6406553e+2, -395944.78, -490525.13, -4332.7524, 0.0020443408, 0.00022037244, -395746.72, -43588.176, 0.0, 10.017466, 9.893651 
7.2575766e+3, 2.7395982e+2, -297942.88, -391485.16, -4212.423, 0.002051961, -0.000120863966, -297753.56, -42559.188, 0.0, 10.01662, 9.894168 
7.257584e+3, 2.83846e+2, -212488.2, -318490.8, -3020.3188, 0.0020498163, 0.0003099105, -212402.22, -54092.336, 0.0, 10.015853, 9.877449 
7.257592e+3, 2.937245e+2, -113813.56, -218688.19, -2824.6365, 0.0020347694, -0.00018125428, -113737.54, -52237.16, 0.0, 10.015195, 9.878256 
7.257602e+3, 3.036318e+2, -23633.47, -83238.26, -1202.6658, 0.0020320583, 0.00024048511, -23609.215, -23609.215, 0.0, 10.014638, 9.936135 
7.257615e+3, 3.135701e+2, -22946.227, -80864.39, -868.1584, 0.0020396786, 0.0000132210525, -22933.215, -22933.215, 0.0, 10.014234, 9.937934 
7.267547e+3, 1.2490443e+2, -1681109.0, -1720980.3, -972.1706, 0.0018163804, -0.0018333839, -1681085.3, 34852.375, 0.0, 10.032082, 9.979153 
7.267557e+3, 1.3488564e+2, -1588625.0, -1631691.6, -1595.8961, 0.002765478, 0.005808061, -1588566.0, 29555.795, 0.0, 10.031355, 9.97423 
7.267563e+3, 1.4484638e+2, -1499836.8, -1549303.4, -2811.4302, 0.0014246734, -0.00481209, -1499677.4, 20829.018, 0.0, 10.030543, 9.964981 
7.267569e+3, 1.5481538e+2, -1403620.3, -1452801.3, -3039.7305, 0.0020526377, -0.00004824945, -1403433.1, 19377.283, 0.0, 10.029657, 9.964486 
7.2675735e+3, 1.647759e+2, -1316041.5, -1372627.6, -4317.48, 0.0022703637, 0.0018324584, -1315713.9, 9483.16, 0.0, 10.028672, 9.953817 
7.2675765e+3, 1.7472847e+2, -1219903.9, -1275976.4, -4497.53, 0.0020398262, 0.00008902036, -1219545.4, 8116.4976, 0.0, 10.027586, 9.953427 
7.267578e+3, 1.8467584e+2, -1132659.0, -1196438.5, -5329.163, 0.0019596622, -0.00038082036, -1132216.8, -2039.168, 0.0, 10.026446, 9.942256 
7.2675794e+3, 1.946186e+2, -1036474.6, -1099605.9, -5468.8184, 0.002050331, 0.000029296722, -1036004.4, -3265.741, 0.0, 10.025251, 9.941935 
7.2675806e+3, 2.0455514e+2, -949075.44, -1019923.94, -5867.5137, 0.002084549, 0.0003598821, -948592.8, -13232.455, 0.0, 10.024023, 9.930691 
7.2675806e+3, 2.1448576e+2, -852820.6, -922954.0, -5951.077, 0.0020521756, -0.000019534602, -852319.25, -14278.9375, 0.0, 10.0227585, 9.930388 
7.267582e+3, 2.244105e+2, -765348.9, -843421.6, -5918.1504, 0.0020406046, 0.00015215638, -764902.8, -24125.008, 0.0, 10.021497, 9.918864 
7.267582e+3, 2.3432955e+2, -668897.1, -746236.8, -5941.552, 0.0020547942, 0.000001060579, -668443.3, -24872.076, 0.0, 10.020237, 9.91859 
7.2675836e+3, 2.4424228e+2, -581372.8, -667085.9, -5472.86, 0.0020591433, 0.00018846635, -581024.8, -34598.45, 0.0, 10.019018, 9.906595 
7.2675854e+3, 2.5414905e+2, -484421.16, -569270.9, -5426.706, 0.0020503956, -0.00001598572, -484075.5, -34735.598, 0.0, 10.017847, 9.906576 
7.2675884e+3, 2.6404938e+2, -396911.25, -490792.38, -4559.8926, 0.0020485765, 0.00021964687, -396690.28, -44373.55, 0.0, 10.01673, 9.893841 
7.2675925e+3, 2.7394387e+2, -299205.1, -391885.44, -4428.637, 0.0020549495, -0.00012102537, -298993.94, -43643.313, 0.0, 10.015678, 9.894366 
7.2675985e+3, 2.8383029e+2, -213984.0, -318923.6, -3154.1594, 0.0020536394, 0.0003113627, -213889.28, -55425.426, 0.0, 10.014718, 9.877717 
7.267606e+3, 2.9370907e+2, -115557.734, -219230.75, -2936.94, 0.002042476, -0.00017640462, -115474.6, -53822.96, 0.0, 10.013883, 9.878531 
7.2676164e+3, 3.0361673e+2, -25493.4, -83643.13, -1211.5149, 0.0020405191, 0.00024561668, -25468.17, -25468.17, 0.0, 10.013153, 9.936577 
7.2676283e+3, 3.1355548e+2, -25031.09, -81350.61, -848.44354, 0.0020434572, 0.00001304113, -25018.31, -25018.31, 0.0, 10.012583, 9.938399 
7.2775793e+3, 1.24893166e+2, -1681132.5, -1721221.6, -1131.7466, 0.0017754656, -0.0018665286, -1681100.5, 34947.566, 0.0, 10.032174, 9.978956 
7.2775877e+3, 1.3487366e+2, -1589461.1, -1633451.1, -1812.6193, 0.0029206758, 0.006280493, -1589386.5, 28852.787, 0.0, 10.031441, 9.973101 
7.277593e+3, 1.4483283e+2, -1500232.3, -1550216.4, -3085.8801, 0.0013362028, -0.005175166, -1500042.5, 20596.67, 0.0, 10.03062, 9.964377 
7.2775984e+3, 1.5480155e+2, -1404023.4, -1453702.3, -3313.2913, 0.002034819, -0.00003189291, -1403803.4, 19142.469, 0.0, 10.029719, 9.963894 
7.277602e+3, 1.6476168e+2, -1316342.3, -1373314.0, -4665.142, 0.0022900163, 0.0019863166, -1315962.8, 9373.846, 0.0, 10.028723, 9.953363 
7.277604e+3, 1.7471367e+2, -1220209.6, -1276659.6, -4848.2188, 0.002057916, 0.00009747289, -1219796.3, 8010.6763, 0.0, 10.02763, 9.952976 
7.2776043e+3, 1.846606e+2, -1132895.1, -1196966.0, -5721.1743, 0.0019731096, -0.00043116632, -1132388.3, -2061.2554, 0.0, 10.026479, 9.941909 
7.277605e+3, 1.9460304e+2, -1036730.56, -1100139.8, -5860.2417, 0.0020568054, 0.000024585734, -1036193.5, -3302.4353, 0.0, 10.025268, 9.941589 
7.2776043e+3, 2.0453934e+2, -949238.4, -1020245.0, -6283.9717, 0.002087883, 0.00037548438, -948686.56, -13171.195, 0.0, 10.024025, 9.930488 
7.277604e+3, 2.1446975e+2, -853000.5, -923277.56, -6367.7573, 0.0020564615, -0.000016004135, -852428.2, -14230.876, 0.0, 10.022746, 9.93019 
7.277603e+3, 2.2439435e+2, -765439.8, -843543.0, -6333.128, 0.002046259, 0.00015005675, -764929.6, -23993.463, 0.0, 10.021471, 9.9188 
7.2776026e+3, 2.3431332e+2, -668997.4, -746355.5, -6357.1953, 0.0020624935, 0.000002084561, -668478.44, -24748.24, 0.0, 10.020202, 9.918532 
7.2776026e+3, 2.4422607e+2, -581397.75, -667022.56, -5857.22, 0.0020676886, 0.00019075071, -580998.94, -34413.723, 0.0, 10.018969, 9.906662 
7.277604e+3, 2.5413293e+2, -484469.84, -569210.9, -5808.5986, 0.0020581705, -0.000015413321, -484073.53, -34575.445, 0.0, 10.017779, 9.90665 
7.2776055e+3, 2.6403335e+2, -396888.06, -490551.44, -4898.358, 0.0020534196, 0.00021909093, -396632.6, -44158.95, 0.0, 10.016646, 9.89404 
7.2776085e+3, 2.7392808e+2, -299187.88, -391635.84, -4763.47, 0.0020538946, -0.00012218115, -298943.1, -43437.58, 0.0, 10.015587, 9.894576 
7.277613e+3, 2.8381473e+2, -213931.47, -318568.13, -3413.8843, 0.0020533365, 0.000311793, -213820.2, -55203.87, 0.0, 10.014612, 9.878003 
7.27762e+3, 2.936938e+2, -115531.75, -218880.19, -3189.2866, 0.0020530932, -0.00017112277, -115433.42, -53632.22, 0.0, 10.013757, 9.878825 
7.2776294e+3, 3.0360183e+2, -25374.771, -83060.19, -1372.2085, 0.002053273, 0.00025185567, -25342.148, -25342.148, 0.0, 10.01301, 9.93704 
7.2776407e+3, 3.1354108e+2, -24910.93, -80738.29, -996.5171, 0.0020432658, 0.000012964182, -24893.146, -24893.146, 0.0, 10.012428, 9.938888 
7.2876126e+3, 1.248824e+2, -1677623.3, -1719566.9, -1017.1488, 0.0017318362, -0.0021089858, -1677598.5, 38555.04, 0.0, 10.034453, 9.978757 
7.287621e+3, 1.3486221e+2, -1587066.0, -1633508.4, -1790.58, 0.0030582084, 0.0066224197, -1586997.1, 31354.275, 0.0, 10.033548, 9.971948 
7.2876245e+3, 1.4482e+2, -1497701.9, -1549591.0, -3153.3152, 0.001225268, -0.00545653, -1497510.9, 23253.998, 0.0, 10.032533, 9.963756 
7.2876287e+3, 1.5478832e+2, -1401839.3, -1453252.0, -3396.3103, 0.0020354106, -0.00005049283, -1401615.9, 21459.63, 0.0, 10.031416, 9.963285 
7.2876316e+3, 1.6474797e+2, -1314398.3, -1372850.4, -4833.469, 0.0023347768, 0.0020734975, -1314001.4, 11469.446, 0.0, 10.030206, 9.952881 
7.2876316e+3, 1.7469943e+2, -1218601.4, -1276373.4, -5036.435, 0.00207005, 0.00009926189, -1218165.5, 9780.971, 0.0, 10.028904, 9.952497 
7.2876316e+3, 1.8464592e+2, -1131536.6, -1196664.0, -5971.5825, 0.0019702667, -0.00046365606, -1130993.6, -522.7395, 0.0, 10.027529, 9.941558 
7.2876304e+3, 1.9458804e+2, -1035751.06, -1100034.6, -6116.8984, 0.0020601877, 0.000022701779, -1035174.2, -2136.0278, 0.0, 10.026078, 9.941242 
7.2876287e+3, 2.0452407e+2, -948521.06, -1020112.75, -6569.628, 0.002096205, 0.00038698837, -947923.2, -12258.155, 0.0, 10.024594, 9.930283 
7.287626e+3, 2.1445425e+2, -852655.2, -923333.1, -6656.966, 0.0020678015, -0.000013960546, -852033.6, -13684.568, 0.0, 10.023074, 9.92999 
7.2876245e+3, 2.2437872e+2, -765350.94, -843576.75, -6617.432, 0.0020560592, 0.00014762169, -764795.1, -23705.834, 0.0, 10.0215645, 9.918734 
7.2876227e+3, 2.3429763e+2, -669250.0, -746556.56, -6642.949, 0.0020652176, 0.0000021801322, -668683.3, -24799.467, 0.0, 10.020069, 9.918471 
7.287621e+3, 2.4421039e+2, -581900.9, -667189.94, -6117.165, 0.002069638, 0.00019224743, -581464.4, -34725.473, 0.0, 10.0186, 9.906739 
7.287621e+3, 2.541173e+2, -485339.03, -569551.2, -6061.0903, 0.0020676013, -0.000014277053, -484905.03, -35254.13, 0.0, 10.017162, 9.906736 
7.2876215e+3, 2.640179e+2, -398002.5, -490861.63, -5086.945, 0.0020638676, 0.00022018305, -397724.66, -45099.64, 0.0, 10.0157995, 9.894257 
7.287623e+3, 2.7391288e+2, -300596.6, -392076.7, -4937.3, 0.002055941, -0.00012048229, -300330.88, -44676.25, 0.0, 10.014533, 9.894804 
7.2876275e+3, 2.8379977e+2, -215595.5, -319043.22, -3508.2388, 0.0020528836, 0.0003128519, -215476.66, -56713.76, 0.0, 10.013347, 9.878307 
7.2876334e+3, 2.9367918e+2, -117512.305, -219497.31, -3264.5105, 0.0020591917, -0.00017232112, -117407.92, -55463.168, 0.0, 10.012267, 9.879137 
7.287641e+3, 3.035876e+2, -27504.932, -83538.375, -1329.9178, 0.0020621796, 0.0002512671, -27473.385, -27473.385, 0.0, 10.011317, 9.937532 
7.2876525e+3, 3.1352735e+2, -27273.748, -81298.695, -921.5978, 0.0020483958, 0.00001728877, -27258.031, -27258.031, 0.0, 10.010563, 9.939408 
7.297647e+3, 1.2487222e+2, -1677640.1, -1719803.3, -1214.2505, 0.001679678, -0.0021340742, -1677605.3, 38648.06, 0.0, 10.034549, 9.978561 
7.297654e+3, 1.3485111e+2, -1587941.6, -1635351.6, -2065.0723, 0.0031922392, 0.0069021303, -1587851.9, 30608.326, 0.0, 10.033639, 9.970765 
7.2976565e+3, 1.4480758e+2, -1498120.1, -1550563.4, -3505.75, 0.0011044765, -0.0056958757, -1497886.8, 23000.014, 0.0, 10.032617, 9.963111 
7.29766e+3, 1.5477541e+2, -1402252.8, -1454202.6, -3749.3672, 0.0020432125, -0.000081906364, -1401983.6, 21218.277, 0.0, 10.031491, 9.962655 
7.297662e+3, 1.6473457e+2, -1314723.1, -1373610.6, -5255.044, 0.0023900305, 0.002132291, -1314257.9, 11344.137, 0.0, 10.03027, 9.952374 
7.2976613e+3, 1.7468546e+2, -1218944.6, -1277137.6, -5457.7627, 0.002080189, 0.00009883235, -1218437.3, 9646.001, 0.0, 10.028952, 9.951993 
7.297659e+3, 1.8463151e+2, -1131782.4, -1197209.9, -6446.974, 0.001961216, -0.00048780986, -1131153.3, -541.1674, 0.0, 10.027561, 9.941199 
7.2976565e+3, 1.9457328e+2, -1036013.9, -1100583.6, -6592.7095, 0.0020627673, 0.000022178545, -1035347.6, -2165.007, 0.0, 10.026095, 9.9408865 
7.2976536e+3, 2.0450905e+2, -948684.56, -1020441.56, -7071.104, 0.002106648, 0.00039672034, -947994.4, -12182.181, 0.0, 10.024599, 9.930074 
7.2976494e+3, 2.1443902e+2, -852829.44, -923660.7, -7159.92, 0.0020811888, -0.000012484664, -852112.94, -13614.679, 0.0, 10.023067, 9.929786 
7.297646e+3, 2.2436336e+2, -765439.4, -843702.56, -7112.4014, 0.0020667377, 0.00014520237, -764798.25, -23558.363, 0.0, 10.0215435, 9.918666 
7.297643e+3, 2.3428221e+2, -669363.06, -746687.56, -7136.6343, 0.0020662318, 0.0000020684197, -668709.9, -24674.824, 0.0, 10.020028, 9.918409 
7.29764e+3, 2.4419497e+2, -581923.94, -667105.44, -6589.4004, 0.002069195, 0.00019373406, -581417.25, -34527.23, 0.0, 10.018544, 9.906824 
7.2976375e+3, 2.54102e+2, -485370.84, -569460.44, -6532.645, 0.002076729, -0.000012736023, -484866.34, -35065.246, 0.0, 10.017096, 9.90683 
7.2976375e+3, 2.6400274e+2, -397954.13, -490573.6, -5498.538, 0.002075259, 0.00022228777, -397628.8, -44855.133, 0.0, 10.015718, 9.894485 
7.297638e+3, 2.7389792e+2, -300571.5, -391787.6, -5344.182, 0.0020590727, -0.000117462645, -300259.47, -44458.52, 0.0, 10.014432, 9.895044 
7.2976404e+3, 2.8378513e+2, -215536.88, -318643.8, -3848.8008, 0.0020524198, 0.00031445656, -215393.4, -56486.906, 0.0, 10.013228, 9.878629 
7.297645e+3, 2.9366484e+2, -117465.64, -219095.33, -3597.0088, 0.0020624956, -0.00017570097, -117338.484, -55253.324, 0.0, 10.012138, 9.879466 
7.297653e+3, 3.0357367e+2, -27351.49, -82879.1, -1550.551, 0.0020681664, 0.0002484823, -27308.225, -27308.225, 0.0, 10.011172, 9.938048 
7.297663e+3, 3.1351396e+2, -27133.232, -80613.96, -1128.5391, 0.002054691, 0.000023564353, -27109.43, -27109.43, 0.0, 10.010395, 9.939952 
7.307683e+3, 1.2486284e+2, -1673809.9, -1718041.9, -1023.3829, 0.0016375345, -0.0022810348, -1673786.3, 42559.035, 0.0, 10.037059, 9.978306 
7.307689e+3, 1.3484079e+2, -1585253.6, -1635315.4, -1984.4135, 0.0033388517, 0.0070743915, -1585175.1, 33386.227, 0.0, 10.035958, 9.969559 
7.3076904e+3, 1.4479603e+2, -1495312.0, -1549846.6, -3529.8467, 0.0009865131, -0.005847211, -1495084.5, 25915.25, 0.0, 10.03473, 9.962441 
7.307693e+3, 1.5476334e+2, -1399798.8, -1453663.5, -3793.1726, 0.0020459276, -0.00009804153, -1399532.9, 23787.33, 0.0, 10.033382, 9.961999 
7.307693e+3, 1.6472195e+2, -1312535.9, -1373054.3, -5391.1763, 0.002439078, 0.002176782, -1312059.4, 13666.354, 0.0, 10.031923, 9.95186 
7.3076904e+3, 1.7467232e+2, -1217166.8, -1276797.6, -5605.1567, 0.0020897207, 0.00010280565, -1216644.4, 11567.803, 0.0, 10.03035, 9.951483 
7.3076874e+3, 1.8461789e+2, -1130294.3, -1196856.6, -6657.0073, 0.0019560382, -0.0005018196, -1129635.0, 1110.4764, 0.0, 10.028702, 9.940835 
7.307683e+3, 1.9455932e+2, -1034934.75, -1100442.3, -6810.4346, 0.002072714, 0.000022738343, -1034234.25, -914.7731, 0.0, 10.026976, 9.940526 
7.3076785e+3, 2.044948e+2, -947893.2, -1020287.3, -7316.8335, 0.0021195926, 0.0004025171, -947161.1, -11209.233, 0.0, 10.025222, 9.929855 
7.307673e+3, 2.1442457e+2, -852428.5, -923703.9, -7412.1763, 0.002082166, -0.000015037549, -851665.9, -13025.773, 0.0, 10.023438, 9.929572 
7.307668e+3, 2.2434874e+2, -765324.44, -843716.8, -7365.811, 0.0020659298, 0.00013952857, -764638.4, -23255.24, 0.0, 10.021651, 9.918605 
7.3076624e+3, 2.3426755e+2, -669666.5, -746907.0, -7387.081, 0.0020765567, 0.0000006680452, -668966.3, -24787.527, 0.0, 10.019858, 9.918355 
7.307658e+3, 2.441803e+2, -582515.0, -667302.25, -6804.328, 0.0020807893, 0.00019528743, -581972.44, -34938.824, 0.0, 10.018111, 9.906915 
7.3076546e+3, 2.5408745e+2, -486322.94, -569826.8, -6741.5835, 0.0020762556, -0.000010285741, -485782.2, -35838.465, 0.0, 10.0164175, 9.90693 
7.307652e+3, 2.6398838e+2, -399174.72, -490907.16, -5646.9478, 0.0020733143, 0.00022502753, -398828.4, -45913.73, 0.0, 10.014788, 9.894728 
7.3076516e+3, 2.738838e+2, -302170.06, -392291.8, -5479.4365, 0.0020706756, -0.00011508708, -301838.16, -45898.707, 0.0, 10.013238, 9.8953 
7.3076534e+3, 2.8377128e+2, -217424.16, -319173.94, -3892.0386, 0.0020666835, 0.00031591268, -217275.5, -58233.438, 0.0, 10.011789, 9.878981 
7.307657e+3, 2.9365137e+2, -119661.016, -219759.84, -3613.4377, 0.0020621803, -0.00017574744, -119530.74, -57313.56, 0.0, 10.010479, 9.879829 
7.3076624e+3, 3.0356064e+2, -29726.316, -83427.414, -1447.4233, 0.0020642744, 0.00024866444, -29687.332, -29687.332, 0.0, 10.009292, 9.938584 
7.307672e+3, 3.135015e+2, -29822.049, -81285.38, -997.91046, 0.0020659403, 0.000026472733, -29802.705, -29802.705, 0.0, 10.008288, 9.940514 
7.31772e+3, 1.24854185e+2, -1673886.9, -1718424.5, -1270.8564, 0.0015971351, -0.002217801, -1673850.6, 42579.47, 0.0, 10.037169, 9.978012 
7.317725e+3, 1.3483097e+2, -1586144.4, -1637227.1, -2321.9836, 0.003492656, 0.0071927453, -1586039.0, 32618.59, 0.0, 10.036066, 9.968325 
7.317725e+3, 1.4478505e+2, -1495749.0, -1550889.3, -3954.8396, 0.00086879963, -0.0059529454, -1495466.8, 25640.568, 0.0, 10.034829, 9.961745 
7.317726e+3, 1.5475173e+2, -1400241.4, -1454687.9, -4216.949, 0.0020471092, -0.00010769259, -1399916.8, 23517.057, 0.0, 10.033466, 9.96132 
7.317725e+3, 1.647098e+2, -1312872.4, -1373847.4, -5897.865, 0.0024866615, 0.002212388, -1312307.1, 13537.686, 0.0, 10.031991, 9.951331 
7.317721e+3, 1.7465961e+2, -1217519.8, -1277593.0, -6113.229, 0.0020993305, 0.000108715096, -1216904.0, 11432.727, 0.0, 10.030402, 9.950957 
7.317716e+3, 1.8460473e+2, -1130542.5, -1197421.9, -7221.987, 0.0019520855, -0.0005103616, -1129771.5, 1103.0083, 0.0, 10.02874, 9.940461 
7.31771e+3, 1.9454579e+2, -1035198.3, -1101009.8, -7377.6846, 0.0020847989, 0.000023705661, -1034381.4, -929.3628, 0.0, 10.027, 9.940156 
7.3177034e+3, 2.0448098e+2, -948062.7, -1020637.56, -7906.773, 0.0021331504, 0.00040641864, -947211.25, -11123.905, 0.0, 10.025231, 9.92963 
7.317696e+3, 2.1441051e+2, -852622.25, -924060.25, -8001.9355, 0.002079082, -0.000018633753, -851736.94, -12959.119, 0.0, 10.023427, 9.929353 
7.317689e+3, 2.2433455e+2, -765413.44, -843831.9, -7958.239, 0.00206118, 0.00013354702, -764613.94, -23091.705, 0.0, 10.021625, 9.918547 
7.317682e+3, 2.342533e+2, -669766.4, -747018.44, -7979.902, 0.0020894497, -0.00000054202087, -668950.7, -24632.287, 0.0, 10.01982, 9.918304 
7.3176765e+3, 2.4416609e+2, -582522.7, -667195.9, -7362.433, 0.0020958118, 0.0001974142, -581887.3, -34714.33, 0.0, 10.018058, 9.907012 
7.317671e+3, 2.5407332e+2, -486352.3, -569720.9, -7297.3877, 0.0020723157, -0.000007424079, -485718.38, -35636.336, 0.0, 10.016346, 9.907036 
7.317667e+3, 2.6397443e+2, -399118.97, -490586.63, -6151.394, 0.0020663915, 0.00022816229, -398707.16, -45655.848, 0.0, 10.014698, 9.894982 
7.317665e+3, 2.738701e+2, -302130.0, -391965.1, -5979.997, 0.0020841106, -0.000112853064, -301733.66, -45660.21, 0.0, 10.013133, 9.895567 
7.317665e+3, 2.8375793e+2, -217331.19, -318695.97, -4309.7993, 0.0020848364, 0.0003176772, -217148.27, -57975.277, 0.0, 10.011667, 9.879355 
7.3176676e+3, 2.936384e+2, -119589.58, -219280.52, -4023.3477, 0.0020602548, -0.00017374582, -119427.47, -57083.152, 0.0, 10.010339, 9.880216 
7.317672e+3, 3.0354813e+2, -29564.36, -82717.36, -1750.5588, 0.0020566601, 0.00025092086, -29506.768, -29506.768, 0.0, 10.009132, 9.939141 
7.31768e+3, 3.1348956e+2, -29667.467, -80550.12, -1284.1561, 0.0020772233, 0.000028130462, -29635.078, -29635.078, 0.0, 10.008112, 9.941096 
7.3277587e+3, 1.24846496e+2, -1669711.1, -1716614.4, -1009.1342, 0.0015608574, -0.0023087307, -1669689.4, 46816.02, 0.0, 10.039959, 9.977638 
7.327763e+3, 1.3482216e+2, -1583048.4, -1636990.6, -2168.5332, 0.0036417062, 0.007224633, -1582961.4, 35782.535, 0.0, 10.038649, 9.967102 
7.3277605e+3, 1.4477524e+2, -1492599.8, -1550032.8, -3917.6191, 0.00074812537, -0.005974725, -1492333.8, 28869.834, 0.0, 10.037175, 9.961039 
7.3277605e+3, 1.5474124e+2, -1397517.0, -1454046.6, -4194.585, 0.002049903, -0.00011632703, -1397207.5, 26329.156, 0.0, 10.035546, 9.9606285 
7.327758e+3, 1.646987e+2, -1310463.8, -1373209.9, -5972.6772, 0.0025368049, 0.002218108, -1309900.3, 16053.363, 0.0, 10.0338, 9.950787 
7.327752e+3, 1.7464796e+2, -1215554.3, -1277190.0, -6202.7793, 0.0021078817, 0.00011353837, -1214936.3, 13514.646, 0.0, 10.031936, 9.950417 
7.3277456e+3, 1.845926e+2, -1128895.9, -1197016.4, -7378.564, 0.0019416801, -0.0005111491, -1128105.8, 2887.529, 0.0, 10.029995, 9.94007 
7.327737e+3, 1.9453327e+2, -1033992.5, -1100833.1, -7546.291, 0.0020831907, 0.000017884231, -1033151.1, 423.5098, 0.0, 10.027975, 9.93977 
7.327729e+3, 2.0446815e+2, -947177.9, -1020441.6, -8109.0303, 0.0021391488, 0.00040119956, -946291.06, -10078.112, 0.0, 10.025917, 9.929407 
7.32772e+3, 2.1439748e+2, -852199.5, -924097.94, -8206.188, 0.0020906834, -0.000018657403, -851274.75, -12369.249, 0.0, 10.023813, 9.929134 
7.327711e+3, 2.2432137e+2, -765309.5, -843845.8, -8157.012, 0.0020713382, 0.00013688924, -764471.25, -22819.9, 0.0, 10.021721, 9.91849 
7.327702e+3, 2.3424008e+2, -670081.56, -747237.3, -8177.333, 0.0020893575, 0.0000044775693, -669224.44, -24776.479, 0.0, 10.019639, 9.918257 
7.3276937e+3, 2.441529e+2, -583149.1, -667391.8, -7526.0454, 0.0020946236, 0.00020115443, -582482.06, -35179.76, 0.0, 10.017592, 9.907119 
7.327687e+3, 2.5406027e+2, -487411.4, -570121.5, -7453.0166, 0.0020822154, -0.00000913968, -486745.2, -36534.945, 0.0, 10.015587, 9.907153 
7.327681e+3, 2.6396155e+2, -400488.38, -490962.78, -6241.4736, 0.0020779823, 0.00022404293, -400059.84, -46882.156, 0.0, 10.013655, 9.895253 
7.3276776e+3, 2.738575e+2, -303893.97, -392518.66, -6055.478, 0.0020835332, -0.00011474675, -303482.13, -47285.09, 0.0, 10.011815, 9.895851 
7.327676e+3, 2.8374565e+2, -219413.61, -319276.2, -4288.086, 0.0020820126, 0.0003194276, -219229.81, -59936.52, 0.0, 10.010077, 9.879749 
7.327677e+3, 2.9362652e+2, -122048.7, -220026.92, -3979.8987, 0.002070516, -0.0001658758, -121887.305, -59426.688, 0.0, 10.008482, 9.88062 
7.32768e+3, 3.0353674e+2, -32234.77, -83335.9, -1582.3632, 0.0020708947, 0.00025793325, -32185.818, -32185.818, 0.0, 10.00702, 9.939742 
7.327688e+3, 3.1347883e+2, -32667.723, -81295.234, -1075.8331, 0.0020794154, 0.00002194735, -32643.932, -32643.932, 0.0, 10.005759, 9.941727 
7.3377985e+3, 1.24839656e+2, -1669888.6, -1717216.8, -1316.4924, 0.0015289279, -0.0022708469, -1669852.0, 46720.504, 0.0, 10.040084, 9.977202 
7.337802e+3, 1.3481404e+2, -1583923.3, -1638892.6, -2572.074, 0.003790926, 0.0072123623, -1583803.1, 35020.195, 0.0, 10.038766, 9.96587 
7.337798e+3, 1.4476618e+2, -1493051.3, -1551119.5, -4432.5225, 0.00062686624, -0.0059543718, -1492714.9, 28577.572, 0.0, 10.037282, 9.960312 
7.337796e+3, 1.5473145e+2, -1397971.3, -1455113.4, -4710.041, 0.0020534748, -0.00012322533, -1397585.6, 26047.17, 0.0, 10.03564, 9.959917 
7.3377913e+3, 1.6468826e+2, -1310812.6, -1374048.8, -6575.7427, 0.002587991, 0.002210155, -1310136.1, 15919.884, 0.0, 10.033878, 9.950224 
7.337784e+3, 1.7463696e+2, -1215921.1, -1278031.8, -6807.765, 0.0021161502, 0.000118026335, -1215183.8, 13374.867, 0.0, 10.031997, 9.949858 
7.337775e+3, 1.8458113e+2, -1129159.4, -1197624.6, -8040.8643, 0.001929199, -0.0005076015, -1128227.8, 2878.0095, 0.0, 10.030039, 9.939667 
7.3377657e+3, 1.9452141e+2, -1034278.94, -1101446.8, -8208.903, 0.0020772922, 0.000010351066, -1033290.25, 400.81174, 0.0, 10.028001, 9.93937 
7.337755e+3, 2.0445594e+2, -947348.56, -1020795.0, -8802.36, 0.0021427625, 0.00039310707, -946308.3, -9975.814, 0.0, 10.025926, 9.92918 
7.3377436e+3, 2.1438506e+2, -852384.4, -924450.3, -8900.577, 0.0021068754, -0.000016659207, -851301.4, -12274.199, 0.0, 10.0238085, 9.928914 
7.3377323e+3, 2.2430882e+2, -765386.56, -843950.25, -8844.836, 0.0020860147, 0.00014436612, -764403.1, -22628.777, 0.0, 10.021699, 9.918437 
7.3377216e+3, 2.342275e+2, -670181.06, -747343.9, -8864.957, 0.0020846946, 0.000011847533, -669175.7, -24604.31, 0.0, 10.019598, 9.918211 
7.3377115e+3, 2.4414034e+2, -583151.9, -667261.94, -8186.839, 0.0020875875, 0.00020563601, -582362.4, -34936.957, 0.0, 10.017533, 9.907235 
7.3377025e+3, 2.540478e+2, -487434.63, -569990.3, -8112.772, 0.002096132, -0.000011988693, -486644.94, -36312.715, 0.0, 10.01551, 9.907279 
7.337695e+3, 2.6394928e+2, -400417.4, -490600.97, -6842.928, 0.0020950122, 0.00021836642, -399901.16, -46603.42, 0.0, 10.01356, 9.895537 
7.3376894e+3, 2.7384555e+2, -303834.7, -392147.8, -6652.669, 0.0020774964, -0.00011722217, -303336.34, -47022.176, 0.0, 10.011707, 9.896149 
7.337686e+3, 2.8373405e+2, -219297.55, -318744.5, -4800.641, 0.0020712304, 0.00032176852, -219066.33, -59659.367, 0.0, 10.009953, 9.88016 
7.337685e+3, 2.9361537e+2, -121961.56, -219497.1, -4482.5605, 0.00208405, -0.0001561405, -121755.984, -59185.875, 0.0, 10.008333, 9.881043 
7.337687e+3, 3.035261e+2, -32036.44, -82525.766, -1968.4565, 0.0020916292, 0.0002667704, -31959.81, -31959.81, 0.0, 10.00685, 9.940372 
7.337693e+3, 3.134688e+2, -32470.72, -80450.49, -1448.7627, 0.0020771218, 0.000014628477, -32427.016, -32427.016, 0.0, 10.005574, 9.942388 
7.34784e+3, 1.24834076e+2, -1665382.3, -1715405.4, -982.1418, 0.001476398, -0.0022904132, -1665363.0, 51264.047, 0.0, 10.043162, 9.976676 
7.347842e+3, 1.3480726e+2, -1580394.0, -1638378.9, -2334.9622, 0.0039379233, 0.007157011, -1580300.1, 38589.57, 0.0, 10.041598, 9.964686 
7.3478365e+3, 1.4475851e+2, -1489582.5, -1550135.4, -4323.5254, 0.00051959464, -0.005894397, -1489275.3, 32092.145, 0.0, 10.039849, 9.959568 
7.347833e+3, 1.54723e+2, -1394961.1, -1454364.6, -4619.567, 0.002052044, -0.000122057274, -1394604.0, 29111.352, 0.0, 10.03792, 9.959188 
7.347827e+3, 1.6467915e+2, -1308153.0, -1373319.6, -6590.033, 0.0026273679, 0.0021938323, -1307493.3, 18651.91, 0.0, 10.035865, 9.949644 
7.347817e+3, 1.746273e+2, -1213747.9, -1277560.8, -6837.436, 0.0021192, 0.00011721876, -1213023.4, 15629.869, 0.0, 10.03368, 9.949282 
7.347806e+3, 1.8457098e+2, -1127338.3, -1197145.1, -8139.5884, 0.0019205342, -0.0005044347, -1126401.8, 4803.4634, 0.0, 10.031412, 9.939261 
7.347794e+3, 1.9451085e+2, -1032958.3, -1101227.3, -8313.438, 0.0020871863, 0.000008943075, -1031960.56, 1834.0059, 0.0, 10.029056, 9.93897 
7.347781e+3, 2.0444506e+2, -946379.1, -1020560.0, -8935.807, 0.0021567533, 0.00039264187, -945317.94, -8878.829, 0.0, 10.026667, 9.928952 
7.3477674e+3, 2.1437396e+2, -851890.6, -924455.94, -9036.951, 0.0021069194, -0.0000112625585, -850782.1, -11646.251, 0.0, 10.024241, 9.928692 
7.347754e+3, 2.242976e+2, -765242.4, -843937.44, -8978.007, 0.002083327, 0.00014909438, -764231.1, -22346.697, 0.0, 10.021817, 9.918386 
7.347741e+3, 2.342162e+2, -670524.56, -747570.6, -8996.017, 0.0020936644, 0.000007929068, -669488.1, -24806.158, 0.0, 10.019394, 9.918168 
7.347729e+3, 2.4412909e+2, -583853.2, -667476.6, -8283.897, 0.002098835, 0.00019940476, -583040.44, -35504.797, 0.0, 10.017009, 9.907359 
7.347718e+3, 2.540367e+2, -488604.44, -570426.8, -8202.412, 0.0020968106, -0.000011947908, -487790.28, -37349.184, 0.0, 10.0146675, 9.9074135 
7.347708e+3, 2.639384e+2, -401923.25, -491012.78, -6858.046, 0.0020930937, 0.00022285992, -401398.44, -47993.918, 0.0, 10.012411, 9.895836 
7.3477e+3, 2.73835e+2, -305764.44, -392750.16, -6652.4536, 0.0020842787, -0.00011075378, -305258.63, -48840.734, 0.0, 10.010263, 9.8964615 
7.3476946e+3, 2.8372386e+2, -221572.47, -319361.94, -4705.369, 0.0020820436, 0.000324865, -221346.58, -61839.54, 0.0, 10.008209, 9.880604 
7.347692e+3, 2.936056e+2, -124672.04, -220306.36, -4359.8022, 0.0020911128, -0.00016448183, -124473.695, -61807.91, 0.0, 10.006281, 9.881501 
7.347693e+3, 3.0351686e+2, -35014.844, -83243.76, -1708.403, 0.0020963599, 0.00025928553, -34954.402, -34954.402, 0.0, 10.004506, 9.941017 
7.347697e+3, 3.1346026e+2, -35818.496, -81316.15, -1160.6886, 0.0020816987, 0.00002893356, -35788.906, -35788.906, 0.0, 10.002965, 9.943061 
7.3578835e+3, 1.24829516e+2, -1665684.9, -1716274.1, -1365.8489, 0.0014292115, -0.0022280554, -1665648.1, 51023.777, 0.0, 10.043303, 9.976068 
7.357884e+3, 1.348014e+2, -1581195.4, -1640179.6, -2814.0386, 0.0040842784, 0.007076391, -1581061.5, 37885.688, 0.0, 10.041733, 9.963508 
7.3578763e+3, 1.4475182e+2, -1490040.9, -1551271.1, -4930.9194, 0.0004176897, -0.0058117304, -1489646.4, 31786.748, 0.0, 10.039971, 9.958802 
7.357871e+3, 1.547155e+2, -1395430.6, -1455488.3, -5228.948, 0.002049613, -0.0001171466, -1394978.8, 28810.29, 0.0, 10.038025, 9.958436 
7.3578626e+3, 1.6467094e+2, -1308517.1, -1374207.8, -7294.291, 0.0026634322, 0.0021724014, -1307716.9, 18508.69, 0.0, 10.035951, 9.949046 
7.3578507e+3, 1.7461851e+2, -1214135.1, -1278454.4, -7542.638, 0.0021212169, 0.00011500328, -1213262.4, 15477.016, 0.0, 10.033747, 9.9486885 
7.3578376e+3, 1.8456168e+2, -1127602.1, -1197764.8, -8908.346, 0.0019135487, -0.0004996524, -1126488.8, 4807.573, 0.0, 10.03146, 9.9388485 
7.357823e+3, 1.9450115e+2, -1033241.5, -1101849.8, -9083.982, 0.0021021334, 0.000010704387, -1032059.1, 1830.4816, 0.0, 10.029086, 9.938561 
7.3578084e+3, 2.0443505e+2, -946544.9, -1020915.8, -9732.994, 0.0021739223, 0.00039538313, -945292.2, -8754.854, 0.0, 10.026679, 9.928722 
7.357792e+3, 2.1436372e+2, -852079.75, -924816.06, -9834.901, 0.00210157, -0.0000044451886, -850773.4, -11537.105, 0.0, 10.024235, 9.928468 
7.357776e+3, 2.242872e+2, -765320.5, -844035.4, -9776.564, 0.0020745855, 0.00015329632, -764124.44, -22138.258, 0.0, 10.021791, 9.91834 
7.3577607e+3, 2.3420578e+2, -670626.5, -747671.0, -9795.29, 0.0021067236, 0.00000092489836, -669400.6, -24616.482, 0.0, 10.019348, 9.918129 
7.3577464e+3, 2.441187e+2, -583847.4, -667323.44, -9054.224, 0.002115617, 0.00019063486, -582876.56, -35239.098, 0.0, 10.016946, 9.907492 
7.3577327e+3, 2.5402647e+2, -488608.66, -570266.5, -8971.725, 0.0020922832, -0.000010139114, -487634.56, -37093.086, 0.0, 10.014594, 9.9075575 
7.35772e+3, 2.6392838e+2, -401826.88, -490605.6, -7560.858, 0.0020838648, 0.0002316636, -401187.56, -47684.906, 0.0, 10.01232, 9.896149 
7.3577106e+3, 2.738253e+2, -305698.44, -392342.4, -7350.234, 0.002095075, -0.000100956364, -305079.3, -48566.5, 0.0, 10.010145, 9.896789 
7.357703e+3, 2.8371453e+2, -221434.78, -318755.4, -5326.131, 0.0020997305, 0.00032863056, -221144.16, -61545.965, 0.0, 10.008071, 9.881071 
7.3576987e+3, 2.9359677e+2, -124542.56, -219688.08, -4973.957, 0.0020943221, -0.0001777628, -124283.24, -61530.91, 0.0, 10.006132, 9.881984 
7.3576975e+3, 3.035086e+2, -34789.176, -82381.445, -2189.639, 0.0020936714, 0.0002476511, -34688.65, -34688.65, 0.0, 10.004339, 9.941681 
7.3577005e+3, 3.1345272e+2, -35619.92, -80436.984, -1622.4277, 0.0020878664, 0.000050435192, -35561.266, -35561.266, 0.0, 10.002766, 9.943751 
7.367928e+3, 1.24826565e+2, -1660868.3, -1714522.9, -936.7428, 0.0013879603, -0.0022109991, -1660851.9, 55848.81, 0.0, 10.04668, 9.975345 
7.3679274e+3, 1.3479728e+2, -1577161.8, -1639319.3, -2467.764, 0.0042101066, 0.0069880094, -1577064.0, 41923.75, 0.0, 10.044845, 9.962389 
7.3679173e+3, 1.4474685e+2, -1486206.5, -1550142.1, -4732.7803, 0.00031188878, -0.0057331687, -1485858.0, 35623.73, 0.0, 10.04279, 9.9580145 
7.367911e+3, 1.5470968e+2, -1392116.5, -1454632.3, -5052.027, 0.0020515, -0.00011845835, -1391710.9, 32135.043, 0.0, 10.040522, 9.957659 
7.3679e+3, 1.6466443e+2, -1305591.6, -1373367.6, -7227.21, 0.0027077782, 0.0021451768, -1304829.5, 21460.037, 0.0, 10.038117, 9.948441 
7.367885e+3, 1.746114e+2, -1211749.4, -1277900.9, -7486.8335, 0.0021309427, 0.00011306106, -1210912.6, 17896.416, 0.0, 10.035577, 9.948086 
7.3678696e+3, 1.8455407e+2, -1125602.3, -1197208.3, -8920.851, 0.0019070571, -0.00049131154, -1124507.6, 6863.2544, 0.0, 10.032953, 9.938429 
7.367853e+3, 1.9449311e+2, -1031771.9, -1101568.6, -9103.943, 0.0021024956, 0.000015476422, -1030603.94, 3364.3586, 0.0, 10.030243, 9.938147 
7.367835e+3, 2.0442669e+2, -945460.94, -1020623.75, -9783.815, 0.0021794557, 0.0003966396, -944208.3, -7589.0693, 0.0, 10.0274935, 9.928493 
7.3678166e+3, 2.1435514e+2, -851532.2, -924795.75, -9886.9, 0.0021095874, -0.000008026113, -850221.44, -10901.037, 0.0, 10.024701, 9.928245 
7.367798e+3, 2.242785e+2, -765169.06, -844011.4, -9826.653, 0.0020817474, 0.00014898862, -763962.75, -21891.127, 0.0, 10.02191, 9.918296 
7.3677796e+3, 2.3419702e+2, -671004.94, -747907.94, -9843.092, 0.002108791, 0.0000015376867, -669765.06, -24895.11, 0.0, 10.019115, 9.918094 
7.367763e+3, 2.4411e+2, -584604.94, -667545.8, -9057.851, 0.002116463, 0.00019373948, -583627.25, -35904.453, 0.0, 10.016375, 9.907634 
7.367747e+3, 2.540179e+2, -489847.13, -570716.1, -8966.2, 0.0020968823, -0.000007895534, -488864.97, -38239.68, 0.0, 10.013696, 9.90771 
7.367732e+3, 2.6392004e+2, -403438.34, -491035.53, -7488.46, 0.0020919107, 0.00023089202, -402802.78, -49218.58, 0.0, 10.011084, 9.896478 
7.36772e+3, 2.7381733e+2, -307826.16, -393007.66, -7262.819, 0.0021058645, -0.00010767596, -307211.34, -50620.313, 0.0, 10.008553, 9.897132 
7.36771e+3, 2.8370696e+2, -223951.98, -319440.5, -5129.1196, 0.0021082205, 0.00032365872, -223677.27, -64004.883, 0.0, 10.006143, 9.88156 
7.3677033e+3, 2.935897e+2, -127487.29, -220558.67, -4752.22, 0.0020919556, -0.00016853462, -127245.27, -64423.777, 0.0, 10.0039, 9.882487 
7.3677003e+3, 3.0350214e+2, -38028.85, -83162.8, -1839.7023, 0.0020917912, 0.00025690402, -37953.99, -37953.99, 0.0, 10.001791, 9.942382 
7.367701e+3, 3.1344697e+2, -39336.348, -81416.92, -1235.859, 0.0021057369, 0.00003497129, -39300.082, -39300.082, 0.0, 9.99988, 9.944481 
7.377975e+3, 1.2482483e+2, -1661330.6, -1715730.0, -1418.3307, 0.0013742744, -0.002170325, -1661293.6, 55424.133, 0.0, 10.046838, 9.97452 
7.377972e+3, 1.3479431e+2, -1577869.9, -1640987.8, -3026.6921, 0.00432872, 0.006891234, -1577725.0, 41291.64, 0.0, 10.044997, 9.961281 
7.3779607e+3, 1.4474308e+2, -1486672.4, -1551333.1, -5443.8525, 0.00020774046, -0.0056497506, -1486217.3, 35301.54, 0.0, 10.042931, 9.957205 
7.377951e+3, 1.5470505e+2, -1392605.4, -1455822.8, -5765.715, 0.0020554746, -0.00012059523, -1392083.9, 31807.605, 0.0, 10.040639, 9.956859 
7.377938e+3, 1.6465904e+2, -1305958.0, -1374283.3, -8042.007, 0.0027545085, 0.0021153085, -1305024.3, 21318.025, 0.0, 10.038213, 9.947821 
7.377921e+3, 1.7460544e+2, -1212140.5, -1278822.4, -8303.999, 0.0021434636, 0.00011229775, -1211122.0, 17745.582, 0.0, 10.035651, 9.947471 
7.377903e+3, 1.845476e+2, -1125868.1, -1197846.6, -9801.726, 0.0019011674, -0.00048004315, -1124557.3, 6877.0806, 0.0, 10.033007, 9.938002 
7.3778826e+3, 1.944862e+2, -1032064.2, -1102213.3, -9985.9, 0.00209822, 0.000021721922, -1030670.4, 3365.6338, 0.0, 10.030274, 9.937724 
7.3778623e+3, 2.0441945e+2, -945629.56, -1020982.3, -10697.279, 0.0021810448, 0.00039763426, -944140.4, -7450.156, 0.0, 10.027504, 9.928262 
7.3778415e+3, 2.1434768e+2, -851725.94, -925158.44, -10802.277, 0.0021219002, -0.000014113501, -850169.9, -10776.243, 0.0, 10.024691, 9.9280205 
7.37782e+3, 2.2427088e+2, -765242.8, -844099.3, -10744.305, 0.0020938225, 0.00014319176, -763805.06, -21658.908, 0.0, 10.021881, 9.918256 
7.3777986e+3, 2.3418939e+2, -671091.25, -747992.7, -10761.94, 0.0021066112, 0.0000057381885, -669613.56, -24668.832, 0.0, 10.019074, 9.918061 
7.377779e+3, 2.4410242e+2, -584577.56, -667360.06, -9937.798, 0.002111278, 0.00020195823, -583401.3, -35604.285, 0.0, 10.0163145, 9.907785 
7.3777604e+3, 2.540105e+2, -489852.16, -570534.0, -9844.512, 0.002104465, -0.000004858389, -488668.34, -37970.4, 0.0, 10.01361, 9.907873 
7.377743e+3, 2.639129e+2, -403337.38, -490590.9, -8315.216, 0.002105346, 0.00022777547, -402552.0, -48897.516, 0.0, 10.010979, 9.896821 
7.377728e+3, 2.7381048e+2, -307729.66, -392548.8, -8087.6074, 0.0021149274, -0.000118868054, -306965.38, -50307.508, 0.0, 10.008438, 9.8974905 
7.3777163e+3, 2.837006e+2, -223771.55, -318764.56, -5855.8804, 0.0021115984, 0.00031682386, -223411.92, -63676.91, 0.0, 10.006011, 9.88207 
7.3777074e+3, 2.9358387e+2, -127342.266, -219883.77, -5468.697, 0.0020875318, -0.0001511894, -127020.22, -64141.414, 0.0, 10.003739, 9.883013 
7.377702e+3, 3.034969e+2, -37783.125, -82218.734, -2438.8535, 0.0020901605, 0.00027408975, -37649.67, -37649.67, 0.0, 10.001605, 9.9431095 
7.3777014e+3, 3.1344244e+2, -39094.91, -80441.79, -1819.7535, 0.002124729, 0.000008430984, -39014.973, -39014.973, 0.0, 9.999677, 9.945238 
7.388024e+3, 1.2482509e+2, -1656202.0, -1714072.6, -900.2541, 0.0013192295, -0.00216032, -1656188.0, 60527.293, 0.0, 10.050533, 9.973571 
7.388019e+3, 1.3479349e+2, -1573282.3, -1639719.4, -2554.6768, 0.0044405237, 0.0068323314, -1573184.3, 45840.61, 0.0, 10.048405, 9.960257 
7.3880047e+3, 1.4474143e+2, -1482448.9, -1550041.1, -5145.2188, 0.00013407752, -0.0055937273, -1482059.4, 39475.598, 0.0, 10.046015, 9.956378 
7.3879933e+3, 1.5470251e+2, -1388972.5, -1454848.8, -5487.389, 0.0020564166, -0.00012149905, -1388518.5, 35397.688, 0.0, 10.04336, 9.956037 
7.387977e+3, 1.6465577e+2, -1302753.4, -1373325.5, -7874.7676, 0.0027843742, 0.0020971324, -1301885.4, 24488.889, 0.0, 10.040569, 9.947188 
7.3879576e+3, 1.7460157e+2, -1209521.3, -1278175.6, -8148.9106, 0.002148222, 0.00011600096, -1208567.3, 20338.387, 0.0, 10.037642, 9.946842 
7.387937e+3, 1.8454318e+2, -1123670.1, -1197195.1, -9715.671, 0.001896948, -0.00047121433, -1122408.0, 9069.596, 0.0, 10.034628, 9.9375725 
7.387914e+3, 1.9448137e+2, -1030453.4, -1101867.1, -9903.4795, 0.0021050458, 0.000018487373, -1029105.44, 4978.0425, 0.0, 10.031523, 9.937301 
7.387891e+3, 2.0441428e+2, -944450.25, -1020642.06, -10645.215, 0.002191046, 0.00039140924, -942990.94, -6249.9966, 0.0, 10.028378, 9.92803 
7.3878664e+3, 2.1434227e+2, -851127.56, -925113.8, -10751.568, 0.0021251552, -0.0000132834475, -849596.8, -10150.337, 0.0, 10.025188, 9.927794 
7.387842e+3, 2.2426535e+2, -765061.8, -844050.25, -10684.007, 0.0020946923, 0.00014653594, -763642.2, -21441.84, 0.0, 10.022012, 9.91822 
7.387818e+3, 2.3418382e+2, -671450.1, -748209.7, -10697.644, 0.002110647, 0.0000060612015, -669987.1, -24987.879, 0.0, 10.018848, 9.918034 
7.387795e+3, 2.4409692e+2, -585354.06, -667567.6, -9837.256, 0.0021191076, 0.00020002977, -584193.4, -36342.47, 0.0, 10.0157175, 9.907948 
7.3877734e+3, 2.5400516e+2, -491209.34, -571018.4, -9734.513, 0.0021169148, -0.000007903112, -490039.16, -39288.996, 0.0, 10.012621, 9.908047 
7.387753e+3, 2.6390782e+2, -405114.25, -491073.34, -8124.621, 0.0021149286, 0.0002263728, -404353.06, -50648.914, 0.0, 10.009619, 9.897176 
7.387736e+3, 2.738058e+2, -309998.34, -393254.1, -7882.5986, 0.0021101548, -0.000114231734, -309258.6, -52554.695, 0.0, 10.006737, 9.89786 
7.387721e+3, 2.8369632e+2, -226444.28, -319469.4, -5549.8306, 0.002107422, 0.0003195976, -226114.34, -66337.664, 0.0, 10.003953, 9.8826065 
7.38771e+3, 2.9358017e+2, -130561.414, -220829.23, -5135.5864, 0.0021073848, -0.000162474, -130270.17, -67355.016, 0.0, 10.001295, 9.883567 
7.387702e+3, 3.0349383e+2, -41365.28, -83099.2, -1967.2579, 0.0021134303, 0.0002622956, -41272.754, -41272.754, 0.0, 9.9987955, 9.943869 
7.3876995e+3, 3.1344017e+2, -43149.484, -81518.26, -1313.4594, 0.0021148445, 0.000019387973, -43104.574, -43104.574, 0.0, 9.996532, 9.946026 
7.398074e+3, 1.2482682e+2, -1656839.5, -1715652.1, -1501.0203, 0.0013073366, -0.0021177921, -1656801.3, 59897.008, 0.0, 10.05071, 9.972506 
7.398067e+3, 1.3479415e+2, -1573867.9, -1641199.4, -3195.7583, 0.00454706, 0.006781945, -1573716.5, 45301.86, 0.0, 10.048576, 9.959254 
7.398051e+3, 1.4474124e+2, -1482917.5, -1551278.0, -5971.797, 0.00007349229, -0.0055428515, -1482399.8, 39137.14, 0.0, 10.046172, 9.95553 
7.398036e+3, 1.5470144e+2, -1389472.3, -1456095.9, -6318.862, 0.0020573959, -0.00012033958, -1388878.1, 35048.543, 0.0, 10.043492, 9.955193 
7.398018e+3, 1.6465394e+2, -1303122.6, -1374273.6, -8807.909, 0.002808674, 0.002083182, -1302048.5, 24343.664, 0.0, 10.040675, 9.946543 
7.397995e+3, 1.7459911e+2, -1209925.8, -1279135.0, -9083.112, 0.0021510408, 0.00012168141, -1208753.5, 20176.154, 0.0, 10.037721, 9.946201 
7.397971e+3, 1.8454021e+2, -1123937.8, -1197840.1, -10716.651, 0.0018938767, -0.00046213125, -1122415.0, 9091.876, 0.0, 10.034681, 9.937141 
7.3979455e+3, 1.9447793e+2, -1030748.3, -1102518.9, -10907.167, 0.0021155055, 0.000013483373, -1029127.3, 4989.743, 0.0, 10.031553, 9.936874 
7.3979187e+3, 2.0441051e+2, -944615.5, -1021000.1, -11682.171, 0.0022035206, 0.00038420368, -942868.75, -6090.987, 0.0, 10.028389, 9.927799 
7.397891e+3, 2.143383e+2, -851311.8, -925474.3, -11790.993, 0.0021252332, -0.000008985021, -849482.3, -9996.839, 0.0, 10.025184, 9.927569 
7.397864e+3, 2.2426124e+2, -765121.75, -844120.56, -11717.664, 0.002091537, 0.00015419254, -763420.3, -21179.72, 0.0, 10.021986, 9.91819 
7.397837e+3, 2.341797e+2, -671542.1, -748286.6, -11732.203, 0.0021166732, 0.00000617368, -669788.7, -24748.908, 0.0, 10.018797, 9.918012 
7.397811e+3, 2.4409285e+2, -585323.8, -667355.94, -10849.853, 0.0021308102, 0.00019611297, -583913.06, -36022.246, 0.0, 10.015648, 9.908121 
7.397786e+3, 2.540013e+2, -491186.3, -570797.3, -10749.363, 0.0021295266, -0.000011777811, -489760.44, -38972.227, 0.0, 10.012541, 9.908232 
7.397763e+3, 2.639042e+2, -404978.9, -490583.75, -9067.712, 0.0021214515, 0.00022697463, -404028.94, -50289.42, 0.0, 10.009522, 9.897543 
7.397743e+3, 2.7380258e+2, -309891.84, -392763.25, -8821.914, 0.0021004837, -0.00010314586, -308963.13, -52227.695, 0.0, 10.006617, 9.898242 
7.397725e+3, 2.8369358e+2, -226241.1, -318722.1, -6412.291, 0.0021004274, 0.00032681113, -225798.61, -65994.91, 0.0, 10.00381, 9.883168 
7.397711e+3, 2.9357794e+2, -130375.18, -220070.34, -5991.7295, 0.0021335266, -0.0001822472, -129976.695, -67039.984, 0.0, 10.001134, 9.884148 
7.3977005e+3, 3.034923e+2, -41072.563, -82070.234, -2687.1614, 0.0021426615, 0.00024234863, -40897.184, -40897.184, 0.0, 9.998614, 9.944651 
7.397696e+3, 3.134395e+2, -42869.71, -80463.75, -2019.4739, 0.0020938101, 0.000044526132, -42761.54, -42761.54, 0.0, 9.996329, 9.946836 
7.408127e+3, 1.24830924e+2, -1651402.5, -1714123.4, -893.04004, 0.0012565858, -0.0021682691, -1651389.8, 65268.26, 0.0, 10.054736, 9.971301 
7.408118e+3, 1.3479738e+2, -1568690.6, -1639463.6, -2577.2175, 0.0046160473, 0.0067692343, -1568596.9, 50389.8, 0.0, 10.052283, 9.958358 
7.4080986e+3, 1.4474359e+2, -1478299.4, -1549817.9, -5557.0713, 0.000017087672, -0.0055426545, -1477870.1, 43643.566, 0.0, 10.049522, 9.954664 
7.408081e+3, 1.5470295e+2, -1385506.1, -1454996.6, -5925.2563, 0.0020612588, -0.000120441546, -1385004.5, 38907.63, 0.0, 10.046446, 9.954324 
7.40806e+3, 1.6465467e+2, -1299617.3, -1373171.1, -8526.047, 0.0028355157, 0.0020817344, -1298641.9, 27743.225, 0.0, 10.043226, 9.945895 
7.408034e+3, 1.7459919e+2, -1207071.5, -1278378.8, -8807.027, 0.0021583666, 0.000116564916, -1205999.9, 22929.055, 0.0, 10.039865, 9.945559 
7.408007e+3, 1.8453974e+2, -1121553.9, -1197099.0, -10503.758, 0.0018925421, -0.00046684296, -1120120.6, 11390.733, 0.0, 10.036422, 9.936704 
7.4079776e+3, 1.9447705e+2, -1028992.1, -1102105.1, -10698.083, 0.0021187358, 0.00001502039, -1027458.9, 6666.8604, 0.0, 10.032895, 9.936442 
7.407948e+3, 2.044093e+2, -943315.44, -1020596.1, -11498.578, 0.0022091488, 0.00038738427, -941640.9, -4851.1436, 0.0, 10.029336, 9.927567 
7.407917e+3, 2.1433686e+2, -850612.75, -925376.44, -11606.401, 0.0021303645, -0.0000102287595, -848852.4, -9352.704, 0.0, 10.025743, 9.927342 
7.407886e+3, 2.2425966e+2, -764880.4, -844025.6, -11527.806, 0.002097926, 0.00015118542, -763235.5, -20979.393, 0.0, 10.022145, 9.918165 
7.4078554e+3, 2.341781e+2, -671928.7, -748502.7, -11536.924, 0.00212656, 0.000005000906, -670228.25, -25172.867, 0.0, 10.018542, 9.917995 
7.4078256e+3, 2.4409133e+2, -586169.94, -667583.9, -10608.807, 0.0021387052, 0.0001962857, -584810.25, -36904.53, 0.0, 10.014995, 9.908295 
7.4077976e+3, 2.5399995e+2, -492590.66, -571291.5, -10501.479, 0.0021275731, -0.000010630014, -491213.5, -40412.203, 0.0, 10.011512, 9.908417 
7.407772e+3, 2.6390314e+2, -406824.06, -491072.7, -8747.278, 0.002120582, 0.00022658739, -405925.44, -52175.5, 0.0, 10.008102, 9.89792 
7.4077487e+3, 2.7380192e+2, -312336.7, -393528.0, -8487.76, 0.002116427, -0.00010835036, -311458.88, -54716.797, 0.0, 10.004784, 9.898633 
7.407727e+3, 2.8369337e+2, -229138.63, -319477.4, -5973.781, 0.0021184923, 0.0003222534, -228745.31, -68939.68, 0.0, 10.0015745, 9.883757 
7.407711e+3, 2.9357836e+2, -133822.38, -221063.77, -5526.117, 0.0021294502, -0.0001771037, -133473.73, -70541.14, 0.0, 9.998509, 9.884757 
7.407698e+3, 3.034934e+2, -44931.293, -83050.85, -2084.1318, 0.0021338558, 0.00024938246, -44817.684, -44817.684, 0.0, 9.995603, 9.945438 
7.40769e+3, 3.134414e+2, -47282.242, -81686.15, -1393.9343, 0.0021106214, 0.00003931598, -47225.855, -47225.855, 0.0, 9.99293, 9.947647 
7.418182e+3, 1.24836914e+2, -1652241.3, -1716125.5, -1642.576, 0.0013128533, -0.0020621913, -1652199.1, 64400.223, 0.0, 10.054932, 9.969966 
7.4181706e+3, 1.348024e+2, -1569106.8, -1640690.1, -3309.6675, 0.0046679843, 0.006762525, -1568954.1, 49983.332, 0.0, 10.0524845, 9.957496 
7.4181485e+3, 1.4474776e+2, -1478757.3, -1551093.1, -6510.6577, -0.000031640677, -0.0055508446, -1478175.9, 43297.016, 0.0, 10.049705, 9.953779 
7.4181277e+3, 1.5470621e+2, -1386031.1, -1456310.0, -6883.094, 0.0020673592, -0.000119000164, -1385363.4, 38516.69, 0.0, 10.046584, 9.953435 
7.418103e+3, 1.6465718e+2, -1299992.1, -1374131.3, -9589.301, 0.0028621175, 0.0020840312, -1298771.9, 27588.65, 0.0, 10.043331, 9.945242 
7.418074e+3, 1.7460103e+2, -1207474.9, -1279346.1, -9872.289, 0.0021674517, 0.00010981586, -1206143.4, 22767.344, 0.0, 10.039946, 9.94491 
7.418043e+3, 1.8454105e+2, -1121817.9, -1197751.6, -11632.1455, 0.0018924768, -0.00047337127, -1120075.9, 11422.698, 0.0, 10.036479, 9.936265 
7.418011e+3, 1.9447792e+2, -1029284.7, -1102765.0, -11829.289, 0.00211979, 0.000019994257, -1027427.3, 6689.8584, 0.0, 10.032929, 9.936008 
7.417977e+3, 2.0440984e+2, -943476.8, -1020950.5, -12658.472, 0.0022124532, 0.00039492128, -941461.0, -4676.5884, 0.0, 10.029346, 9.927338 
7.417942e+3, 2.1433716e+2, -850804.75, -925738.44, -12768.793, 0.0021372465, -0.000011749293, -848688.7, -9192.101, 0.0, 10.025728, 9.92712 
7.4179083e+3, 2.2425984e+2, -764936.94, -844079.44, -12697.362, 0.0021071571, 0.00014664582, -762949.75, -20695.469, 0.0, 10.022113, 9.918148 
7.417874e+3, 2.3417829e+2, -671996.44, -748552.56, -12711.412, 0.002136687, 0.0000049194746, -669941.0, -24887.396, 0.0, 10.018498, 9.917987 
7.417841e+3, 2.440916e+2, -586115.0, -667349.0, -11746.27, 0.0021440731, 0.00019958931, -584450.6, -36547.54, 0.0, 10.014934, 9.908478 
7.4178094e+3, 2.5400043e+2, -492564.53, -571059.9, -11639.757, 0.002120363, -0.0000064020037, -490874.88, -40078.12, 0.0, 10.011427, 9.90861 
7.4177796e+3, 2.6390386e+2, -406681.88, -490553.34, -9830.608, 0.002116614, 0.00022745889, -405545.03, -51802.38, 0.0, 10.0079975, 9.898312 
7.417753e+3, 2.7380303e+2, -312211.75, -393001.03, -9569.834, 0.0021397686, -0.00011777447, -311093.63, -54362.766, 0.0, 10.004662, 9.89904 
7.4177295e+3, 2.83695e+2, -228888.08, -318648.13, -6970.457, 0.002143162, 0.000315116, -228350.0, -68560.484, 0.0, 10.001435, 9.884369 
7.417709e+3, 2.9358065e+2, -133581.06, -220216.31, -6519.1343, 0.0021134734, -0.00016180323, -133093.25, -70183.17, 0.0, 9.998357, 9.885391 
7.417693e+3, 3.0349642e+2, -44615.574, -81987.63, -2941.0776, 0.0021105353, 0.000267529, -44385.535, -44385.535, 0.0, 9.995426, 9.946241 
7.417683e+3, 3.1344518e+2, -47014.08, -80622.36, -2230.2458, 0.0021384875, 0.000024475978, -46866.727, -46866.727, 0.0, 9.992711, 9.948471 
7.428239e+3, 1.2484556e+2, -1646516.3, -1714787.4, -941.7602, 0.0012246612, -0.0022615534, -1646503.3, 70011.336, 0.0, 10.059299, 9.968459 
7.428225e+3, 1.3481046e+2, -1563270.5, -1638411.5, -2524.1536, 0.004681766, 0.006766485, -1563185.8, 55672.71, 0.0, 10.056517, 9.9567585 
7.4281996e+3, 1.44755e+2, -1473702.8, -1549421.9, -5981.2866, -0.000038280894, -0.005553812, -1473233.1, 48168.77, 0.0, 10.053338, 9.952891 
7.4281764e+3, 1.5471256e+2, -1381747.3, -1455072.6, -6368.6763, 0.0020750053, -0.000119239034, -1381198.3, 42619.645, 0.0, 10.049751, 9.952537 
7.428148e+3, 1.6466275e+2, -1296221.0, -1372894.1, -9164.999, 0.0028727865, 0.002084592, -1295140.8, 31165.25, 0.0, 10.04605, 9.944587 
7.428115e+3, 1.7460595e+2, -1204379.3, -1278468.8, -9451.567, 0.002171001, 0.000113427064, -1203192.5, 25670.037, 0.0, 10.042243, 9.94426 
7.4280804e+3, 1.8454541e+2, -1119219.9, -1196899.3, -11271.275, 0.001894065, -0.00047037523, -1117617.5, 13838.281, 0.0, 10.038353, 9.935824 
7.4280447e+3, 1.9448186e+2, -1027354.8, -1102262.8, -11468.228, 0.0021249673, 0.000017633518, -1025638.4, 8440.26, 0.0, 10.034379, 9.935572 
7.428007e+3, 2.0441344e+2, -942045.2, -1020467.56, -12320.175, 0.0022197824, 0.00039141183, -940155.2, -3406.0508, 0.0, 10.03037, 9.927112 
7.4279684e+3, 2.1434055e+2, -850040.06, -925597.25, -12426.565, 0.0021450021, -0.0000112971275, -848048.8, -8585.318, 0.0, 10.02632, 9.926899 
7.42793e+3, 2.242631e+2, -764665.5, -843965.94, -12342.36, 0.002112976, 0.00014847015, -762788.9, -20566.52, 0.0, 10.022285, 9.918123 
7.427892e+3, 2.3418152e+2, -672339.6, -748745.1, -12354.414, 0.0021372747, 0.0000049377627, -670391.6, -25369.707, 0.0, 10.018267, 9.917969 
7.427856e+3, 2.4409491e+2, -586938.06, -667547.7, -11350.984, 0.0021456734, 0.00019846273, -585370.1, -37499.54, 0.0, 10.014283, 9.908664 
7.4278206e+3, 2.540039e+2, -494039.6, -571571.94, -11235.245, 0.0021313254, -0.0000072097323, -492444.3, -41681.914, 0.0, 10.010339, 9.908807 
7.427787e+3, 2.6390767e+2, -408651.56, -491072.2, -9349.534, 0.0021298216, 0.00022690432, -407604.28, -53898.887, 0.0, 10.006477, 9.898713 
7.427757e+3, 2.7380726e+2, -314797.7, -393803.3, -9073.435, 0.002144377, -0.000117963566, -313769.03, -57079.484, 0.0, 10.002717, 9.899457 
7.4277294e+3, 2.8369975e+2, -231946.08, -319441.88, -6363.836, 0.0021441642, 0.00031429122, -231485.64, -71742.445, 0.0, 9.999073, 9.88499 
7.427707e+3, 2.9358602e+2, -137224.64, -221265.66, -5892.3716, 0.002117903, -0.00016433962, -136813.52, -73956.0, 0.0, 9.995581, 9.886032 
7.427687e+3, 3.035025e+2, -48722.86, -83015.51, -2199.2937, 0.0021179132, 0.00026265718, -48582.387, -48582.387, 0.0, 9.992213, 9.94709 
7.4276745e+3, 3.1345218e+2, -51812.94, -81955.02, -1450.4045, 0.002148318, 0.000015974696, -51743.31, -51743.31, 0.0, 9.9890175, 9.949346 
7.4382985e+3, 1.24856696e+2, -1647559.9, -1717263.0, -1859.3645, 0.0013489658, -0.001972685, -1647510.3, 68895.16, 0.0, 10.059534, 9.966812 
7.438281e+3, 1.3482065e+2, -1563525.8, -1639354.3, -3345.5518, 0.004676148, 0.006755263, -1563378.4, 55380.254, 0.0, 10.0567255, 9.956066 
7.438253e+3, 1.4476442e+2, -1474172.6, -1550717.9, -7084.957, -0.00002237755, -0.0055389567, -1473522.4, 47787.277, 0.0, 10.053517, 9.951994 
7.4382263e+3, 1.5472105e+2, -1382272.0, -1456409.6, -7475.336, 0.0020841176, -0.00011679231, -1381525.8, 42208.83, 0.0, 10.049897, 9.951628 
7.4381936e+3, 1.6467045e+2, -1296580.8, -1373852.4, -10354.304, 0.0028760396, 0.0020821402, -1295217.4, 31013.037, 0.0, 10.046164, 9.943929 
7.438157e+3, 1.7461303e+2, -1204785.4, -1279444.6, -10642.372, 0.0021734315, 0.00012126492, -1203298.0, 25495.32, 0.0, 10.042321, 9.943606 
7.438119e+3, 1.8455194e+2, -1119488.9, -1197552.9, -12526.84, 0.0018977479, -0.00046137653, -1117528.0, 13863.888, 0.0, 10.038403, 9.935388 
7.4380785e+3, 1.9448793e+2, -1027653.2, -1102926.4, -12726.964, 0.0021317895, 0.000015089324, -1025559.6, 8459.505, 0.0, 10.034407, 9.935138 
7.4380374e+3, 2.044192e+2, -942196.75, -1020806.2, -13612.885, 0.0022279292, 0.00038610326, -939906.2, -3213.3184, 0.0, 10.030377, 9.926893 
7.4379945e+3, 2.1434608e+2, -850208.9, -925938.5, -13726.573, 0.0021524779, -0.000008343066, -847797.56, -8388.363, 0.0, 10.026314, 9.926684 
7.437953e+3, 2.2426853e+2, -764706.5, -844014.3, -13640.035, 0.0021170245, 0.00015458903, -762426.1, -20256.889, 0.0, 10.022261, 9.918105 
7.4379104e+3, 2.3418692e+2, -672411.75, -748802.06, -13656.155, 0.0021346111, 0.0000068611507, -670043.9, -25074.957, 0.0, 10.018218, 9.917956 
7.43787e+3, 2.441004e+2, -586877.44, -667292.6, -12631.824, 0.0021456094, 0.00019806458, -584939.9, -37123.1, 0.0, 10.014215, 9.908862 
7.4378306e+3, 2.540096e+2, -493993.6, -571312.5, -12521.164, 0.0021474687, -0.000008209878, -492016.44, -41309.934, 0.0, 10.010257, 9.909016 
7.4377936e+3, 2.639137e+2, -408472.25, -490503.8, -10577.542, 0.0021470755, 0.00022763213, -407130.28, -53483.773, 0.0, 10.006381, 9.899131 
7.437759e+3, 2.7381372e+2, -314632.66, -393226.25, -10304.569, 0.002140776, -0.00011275849, -313304.06, -56677.723, 0.0, 10.002605, 9.89989 
7.4377286e+3, 2.8370672e+2, -231663.44, -318563.38, -7507.0044, 0.0021351657, 0.00031798318, -231019.7, -71344.85, 0.0, 9.9989395, 9.885632 
7.4377024e+3, 2.9359365e+2, -136981.06, -220385.22, -7027.21, 0.002128983, -0.00017195604, -136393.14, -73610.336, 0.0, 9.995414, 9.886694 
7.43768e+3, 3.035109e+2, -48368.92, -81849.01, -3227.381, 0.0021354104, 0.00025136978, -48060.65, -48060.65, 0.0, 9.992024, 9.947968 
7.437663e+3, 3.1346145e+2, -51445.15, -80751.305, -2475.0164, 0.00214761, 0.000013038407, -51237.594, -51237.594, 0.0, 9.988825, 9.950251 
7.4483603e+3, 1.2487072e+2, -1641470.4, -1716058.4, -1089.3522, 0.0012236306, -0.0023124518, -1641454.5, 74813.49, 0.0, 10.064282, 9.965018 
7.44834e+3, 1.348343e+2, -1557068.4, -1636490.6, -2400.3184, 0.0046139657, 0.006620636, -1556995.9, 61629.02, 0.0, 10.061031, 9.955541 
7.4483085e+3, 1.4477757e+2, -1468761.6, -1548840.5, -6408.563, 0.00005014003, -0.0054424712, -1468252.0, 52928.84, 0.0, 10.057366, 9.951115 
7.4482775e+3, 1.5473323e+2, -1377639.0, -1454979.5, -6802.308, 0.00208936, -0.00010793556, -1377045.3, 46569.953, 0.0, 10.053279, 9.950731 
7.448242e+3, 1.6468182e+2, -1292496.6, -1372444.9, -9759.762, 0.0028550504, 0.0020503118, -1291322.5, 34796.47, 0.0, 10.049075, 9.943274 
7.448201e+3, 1.7462374e+2, -1201452.0, -1278439.8, -10047.151, 0.0021779614, 0.00011435134, -1200162.4, 28525.75, 0.0, 10.044765, 9.942953 
7.448158e+3, 1.8456213e+2, -1116701.1, -1196590.9, -11977.958, 0.0019128963, -0.00045517768, -1114944.0, 16347.995, 0.0, 10.040388, 9.934951 
7.4481136e+3, 1.9449769e+2, -1025565.94, -1102333.0, -12174.003, 0.002138534, 0.000017253184, -1023681.6, 10241.854, 0.0, 10.035948, 9.934705 
7.448068e+3, 2.044286e+2, -940637.0, -1020265.8, -13077.952, 0.0022294878, 0.0003856136, -938544.1, -1943.6415, 0.0, 10.031481, 9.926654 
7.448022e+3, 2.1435528e+2, -849316.1, -925742.2, -13192.921, 0.0021533954, -0.000008929124, -847102.8, -7783.6226, 0.0, 10.026988, 9.92645 
7.447975e+3, 2.2427757e+2, -764328.8, -843838.2, -13100.948, 0.0021204057, 0.00015461353, -762225.75, -20145.223, 0.0, 10.022492, 9.918082 
7.447929e+3, 2.3419596e+2, -672730.75, -748974.1, -13110.821, 0.0021441255, 0.000008327847, -670539.2, -25658.867, 0.0, 10.017992, 9.91794 
7.447884e+3, 2.4410953e+2, -587724.6, -667491.9, -12043.3545, 0.0021565263, 0.00019850736, -585946.0, -38218.58, 0.0, 10.013538, 9.909054 
7.4478406e+3, 2.5401893e+2, -495499.75, -571829.8, -11925.657, 0.002153368, -0.000011149861, -493679.9, -43064.727, 0.0, 10.009138, 9.909217 
7.4477994e+3, 2.6392332e+2, -410495.47, -491043.25, -9910.0625, 0.0021489626, 0.00022579198, -409294.13, -55741.848, 0.0, 10.004818, 9.899533 
7.447761e+3, 2.7382374e+2, -317312.0, -394070.78, -9631.469, 0.0021395397, -0.00010669166, -316121.9, -59593.926, 0.0, 10.000593, 9.900306 
7.447726e+3, 2.8371727e+2, -234847.13, -319348.25, -6738.112, 0.0021396154, 0.00032424525, -234313.2, -74741.96, 0.0, 9.996459, 9.88631 
7.447696e+3, 2.936049e+2, -140877.14, -221480.38, -6225.201, 0.0021521628, -0.0001772291, -140399.19, -77726.81, 0.0, 9.992433, 9.887398 
7.44767e+3, 3.0352294e+2, -52813.652, -83021.66, -2295.2285, 0.002156288, 0.0002460636, -52640.254, -52640.254, 0.0, 9.988573, 9.948829 
7.44765e+3, 3.134744e+2, -56497.12, -82200.36, -1533.8563, 0.0021309499, 0.000027084763, -56405.91, -56405.91, 0.0, 9.984957, 9.951127 
7.4584246e+3, 1.2488816e+2, -1642526.0, -1718848.1, -2198.8147, 0.0015442919, -0.0015064104, -1642462.6, 73634.41, 0.0, 10.064649, 9.963107 
7.4584013e+3, 1.3485041e+2, -1557116.8, -1637072.3, -3369.9285, 0.0045162416, 0.006401435, -1556975.0, 61491.96, 0.0, 10.061251, 9.955063 
7.458366e+3, 1.4479332e+2, -1469283.5, -1550134.0, -7675.071, 0.00015536053, -0.005276212, -1468561.4, 52464.996, 0.0, 10.057494, 9.950244 
7.4583304e+3, 1.54748e+2, -1378215.8, -1456319.1, -8053.687, 0.0020957852, -0.000092744456, -1377393.9, 46076.785, 0.0, 10.053377, 9.949843 
7.4582905e+3, 1.6469575e+2, -1292901.6, -1373420.9, -11085.115, 0.0028234252, 0.0019986185, -1291403.4, 34579.14, 0.0, 10.049153, 9.942621 
7.458246e+3, 1.7463705e+2, -1201868.0, -1279416.6, -11373.292, 0.0021835342, 0.000105010084, -1200234.4, 28323.305, 0.0, 10.044831, 9.942304 
7.4581987e+3, 1.8457492e+2, -1116954.5, -1197229.0, -13359.902, 0.0019331239, -0.00044244577, -1114789.4, 16377.261, 0.0, 10.04044, 9.93452 
7.45815e+3, 1.9451004e+2, -1025840.1, -1102976.1, -13565.297, 0.0021452373, 0.000023685525, -1023524.0, 10278.386, 0.0, 10.035982, 9.9342785 
7.4581e+3, 2.0444061e+2, -940784.56, -1020620.75, -14500.23, 0.0022284992, 0.0003874931, -938232.56, -1749.7816, 0.0, 10.031495, 9.92642 
7.4580485e+3, 2.1436705e+2, -849495.5, -926108.6, -14621.797, 0.0021526495, -0.000008319383, -846799.75, -7596.028, 0.0, 10.0269785, 9.926219 
7.457998e+3, 2.2428924e+2, -764362.0, -843875.25, -14542.413, 0.0021237521, 0.00015595331, -761785.75, -19819.498, 0.0, 10.022465, 9.918072 
7.4579465e+3, 2.3420763e+2, -672778.56, -749011.06, -14562.734, 0.0021566618, 0.000011639027, -670091.4, -25325.227, 0.0, 10.017952, 9.917935 
7.457897e+3, 2.4412128e+2, -587635.6, -667217.06, -13470.986, 0.002169452, 0.00020164062, -585417.2, -37804.97, 0.0, 10.013483, 9.909258 
7.4578494e+3, 2.540309e+2, -495434.97, -571557.7, -13360.49, 0.0021545563, -0.000012090586, -493158.13, -42660.176, 0.0, 10.009063, 9.90943 
7.4578035e+3, 2.6393557e+2, -410311.63, -490478.34, -11290.575, 0.002144305, 0.0002257658, -408751.8, -55319.777, 0.0, 10.004723, 9.899947 
7.457762e+3, 2.7383646e+2, -317152.34, -393505.25, -11013.334, 0.002138737, -0.00009918957, -315595.5, -59191.94, 0.0, 10.000478, 9.900731 
7.4577224e+3, 2.8373057e+2, -234505.89, -318362.8, -8056.824, 0.0021474203, 0.00033266944, -233738.83, -74297.45, 0.0, 9.996327, 9.887019 
7.4576885e+3, 2.9361892e+2, -140535.08, -220463.86, -7549.94, 0.0021761598, -0.00017864983, -139828.17, -77292.87, 0.0, 9.9922905, 9.888136 
7.457658e+3, 3.0353773e+2, -52423.72, -81848.336, -3480.8044, 0.0021747798, 0.00024667758, -52017.563, -52017.563, 0.0, 9.98841, 9.949697 
7.457635e+3, 3.134901e+2, -56160.61, -81041.86, -2702.62, 0.0021073665, 0.000048430677, -55870.434, -55870.434, 0.0, 9.984753, 9.952004 
7.4684924e+3, 1.249083e+2, -1635855.1, -1717850.3, -1392.2527, 0.0011918752, -0.0025074624, -1635831.5, 80068.24, 0.0, 10.070001, 9.960858 
7.468465e+3, 1.3487034e+2, -1550198.9, -1633931.3, -2384.3132, 0.004248477, 0.0057881894, -1550131.0, 68140.766, 0.0, 10.065832, 9.954557 
7.4684256e+3, 1.4481354e+2, -1463595.0, -1547945.9, -6868.1353, 0.00036576192, -0.0047595715, -1463039.4, 57788.86, 0.0, 10.06144, 9.949498 
7.4683857e+3, 1.5476705e+2, -1373322.0, -1454586.9, -7202.1855, 0.002114914, -0.000067831286, -1372688.6, 50595.375, 0.0, 10.056846, 9.949081 
7.4683416e+3, 1.6471396e+2, -1288637.4, -1371886.8, -10268.378, 0.0027653817, 0.0018311508, -1287389.5, 38414.605, 0.0, 10.05216, 9.941985 
7.468292e+3, 1.7465475e+2, -1198309.6, -1278267.9, -10547.464, 0.0021840145, 0.00009917799, -1196941.6, 31442.658, 0.0, 10.047401, 9.941666 
7.46824e+3, 1.8459211e+2, -1113951.8, -1196173.9, -12583.066, 0.0019566678, -0.0003835791, -1112069.3, 18928.893, 0.0, 10.042565, 9.93406 
7.4681866e+3, 1.9452673e+2, -1023551.94, -1102300.4, -12792.216, 0.002147877, 0.000028941018, -1021526.06, 12112.75, 0.0, 10.037657, 9.933819 
7.468132e+3, 2.0445694e+2, -939044.0, -1019987.75, -13751.882, 0.002225194, 0.00037007834, -936771.44, -448.626, 0.0, 10.032709, 9.926174 
7.468076e+3, 2.1438316e+2, -848486.0, -925853.56, -13868.448, 0.002162396, -0.0000087885655, -846075.1, -7029.104, 0.0, 10.027721, 9.925976 
7.46802e+3, 2.243052e+2, -763908.8, -843672.2, -13778.82, 0.0021361476, 0.00016215225, -761595.6, -19785.734, 0.0, 10.022744, 9.918032 
7.467964e+3, 2.3422354e+2, -673019.44, -749157.5, -13799.369, 0.0021581384, 0.000010752352, -670595.6, -25985.434, 0.0, 10.017776, 9.917901 
7.46791e+3, 2.4413727e+2, -588418.06, -667383.1, -12674.777, 0.002167373, 0.00020031731, -586433.5, -38977.906, 0.0, 10.012841, 9.909443 
7.467858e+3, 2.540471e+2, -496937.0, -572073.3, -12559.259, 0.0021583813, -0.0000036216243, -494893.28, -44553.938, 0.0, 10.00794, 9.909624 
7.4678075e+3, 2.6395205e+2, -412378.03, -491014.5, -10416.784, 0.002154612, 0.00023288852, -411021.56, -57751.063, 0.0, 10.003115, 9.900365 
7.467761e+3, 2.7385336e+2, -319942.2, -394379.3, -10123.457, 0.002155906, -0.00010943912, -318589.94, -62352.04, 0.0, 9.998376, 9.901162 
7.4677175e+3, 2.8374797e+2, -237830.84, -319195.44, -7071.302, 0.0021591138, 0.00032140256, -237220.86, -77950.53, 0.0, 9.993739, 9.88771 
7.467679e+3, 2.936371e+2, -144537.98, -221592.33, -6556.4165, 0.002161909, -0.00016478501, -143984.1, -81626.98, 0.0, 9.989225, 9.88885 
7.467645e+3, 3.035567e+2, -57018.64, -83053.1, -2385.2764, 0.0021608234, 0.0002648035, -56801.902, -56801.902, 0.0, 9.9848385, 9.950587 
7.4676174e+3, 3.1350994e+2, -61580.086, -82627.42, -1579.5186, 0.0021402948, 0.00003358461, -61462.21, -61462.21, 0.0, 9.980617, 9.952911 
7.4785626e+3, 1.2493356e+2, -1637193.5, -1721228.8, -2661.3096, 0.0017966683, -0.0009176788, -1637109.4, 78542.805, 0.0, 10.070387, 9.958571 
7.4785304e+3, 1.3489315e+2, -1550221.3, -1634550.5, -3454.7117, 0.0039148885, 0.004996693, -1550079.9, 67968.336, 0.0, 10.066087, 9.954033 
7.478488e+3, 1.4483692e+2, -1463909.8, -1548957.0, -8119.94, 0.0006302588, -0.0040767933, -1463141.5, 57457.715, 0.0, 10.061614, 9.948773 
7.478443e+3, 1.5478915e+2, -1373684.4, -1455637.1, -8496.431, 0.0021381634, -0.00003697911, -1372812.8, 50254.543, 0.0, 10.0569935, 9.948343 
7.4783933e+3, 1.6473518e+2, -1288947.1, -1372790.5, -11662.7705, 0.0026920189, 0.0016117448, -1287355.0, 38241.086, 0.0, 10.052282, 9.941351 
7.478339e+3, 1.7467552e+2, -1198658.8, -1279194.0, -11969.251, 0.0021835158, 0.00009675663, -1196917.5, 31263.35, 0.0, 10.047497, 9.941029 
7.478283e+3, 1.8461241e+2, -1114190.4, -1196837.4, -14084.312, 0.0019846163, -0.0003008728, -1111856.1, 18943.166, 0.0, 10.042636, 9.9336 
7.478224e+3, 1.945465e+2, -1023827.2, -1102982.4, -14305.766, 0.002150201, 0.00003680507, -1021321.0, 12124.118, 0.0, 10.037702, 9.933359 
7.4781644e+3, 2.0447633e+2, -939168.9, -1020333.1, -15311.3955, 0.0022206602, 0.00034701012, -936376.5, -243.72543, 0.0, 10.032733, 9.925938 
7.4781036e+3, 2.1440233e+2, -848634.5, -926208.1, -15444.511, 0.002174638, -0.000006859691, -845672.6, -6814.5454, 0.0, 10.027728, 9.925741 
7.478043e+3, 2.2432426e+2, -763925.8, -843723.75, -15364.969, 0.0021504455, 0.00017427684, -761069.56, -19446.379, 0.0, 10.022731, 9.918001 
7.4779826e+3, 2.3424256e+2, -673069.1, -749221.8, -15395.825, 0.0021558318, 0.000011359389, -670074.3, -25650.469, 0.0, 10.017739, 9.917873 
7.4779236e+3, 2.4415636e+2, -588324.25, -667113.2, -14259.531, 0.0021600986, 0.00020020522, -585822.9, -38554.43, 0.0, 10.012786, 9.909641 
7.477866e+3, 2.540664e+2, -496861.38, -571803.75, -14155.086, 0.0021622502, 0.000009522178, -494276.9, -44126.813, 0.0, 10.00787, 9.90983 
7.477811e+3, 2.6397172e+2, -412154.34, -490401.7, -11967.681, 0.0021680058, 0.0002443921, -410364.84, -57286.684, 0.0, 10.003029, 9.900803 
7.477759e+3, 2.7387342e+2, -319736.8, -393761.53, -11683.929, 0.002177069, -0.00012238987, -317936.44, -61895.125, 0.0, 9.998272, 9.901614 
7.4777114e+3, 2.8376862e+2, -237468.11, -318202.78, -8561.558, 0.0021695052, 0.00030696962, -236570.19, -77502.016, 0.0, 9.993618, 9.888416 
7.477668e+3, 2.9365847e+2, -144193.08, -220585.52, -8045.264, 0.0021330973, -0.00014427901, -143354.98, -81207.38, 0.0, 9.989085, 9.889579 
7.477629e+3, 3.035789e+2, -56588.332, -81810.31, -3770.2842, 0.0021346624, 0.0002902857, -56036.797, -56036.797, 0.0, 9.984676, 9.951499 
7.477598e+3, 3.13533e+2, -61175.676, -81378.73, -2962.646, 0.0021891897, 0.000009519733, -60750.184, -60750.184, 0.0, 9.98043, 9.953839 
7.488636e+3, 1.2496316e+2, -1629777.6, -1719515.5, -1362.1471, 0.0016694741, -0.0013822027, -1629757.0, 85605.16, 0.0, 10.0760565, 9.956579 
7.488599e+3, 1.3492137e+2, -1542868.6, -1631251.3, -2019.1282, 0.0034171308, 0.0035888478, -1542822.5, 74949.016, 0.0, 10.070973, 9.953451 
7.488552e+3, 1.4486651e+2, -1457894.9, -1546810.4, -6780.161, 0.0010894933, -0.0028734538, -1457380.9, 62928.32, 0.0, 10.065862, 9.947828 
7.4885017e+3, 1.5481684e+2, -1368463.5, -1453944.6, -7224.974, 0.0021513975, -0.0000039685424, -1367857.1, 54938.87, 0.0, 10.060761, 9.947386 
7.4884474e+3, 1.6476166e+2, -1284346.8, -1371231.1, -10508.475, 0.0025393406, 0.001207231, -1283093.9, 42242.85, 0.0, 10.055567, 9.940573 
7.4883884e+3, 1.7470153e+2, -1194840.5, -1278060.5, -10857.723, 0.0021806948, 0.00008348362, -1193447.3, 34478.777, 0.0, 10.050295, 9.940249 
7.4883264e+3, 1.8463789e+2, -1110911.8, -1195675.3, -13050.664, 0.0020423245, -0.00016336911, -1108948.0, 21601.65, 0.0, 10.044947, 9.933099 
7.488263e+3, 1.9457138e+2, -1021315.5, -1102226.5, -13274.734, 0.0021634516, 0.000042187094, -1019193.25, 14008.103, 0.0, 10.039527, 9.932859 
7.4881977e+3, 2.0450078e+2, -937243.8, -1019649.1, -14308.061, 0.0022116434, 0.00030024443, -934830.2, 1063.1215, 0.0, 10.034077, 9.925643 
7.488132e+3, 2.144265e+2, -847451.25, -925912.2, -14449.347, 0.0021712428, -0.0000073116416, -844874.9, -6253.7163, 0.0, 10.028596, 9.9254465 
7.4880654e+3, 2.2434826e+2, -763305.2, -843440.8, -14369.862, 0.0021540031, 0.00019378374, -760806.3, -19418.5, 0.0, 10.023112, 9.917948 
7.488e+3, 2.342665e+2, -673212.94, -749325.0, -14394.346, 0.002166976, 0.000017129367, -670581.6, -26392.637, 0.0, 10.01762, 9.917824 
7.4879354e+3, 2.4418038e+2, -589057.8, -667257.56, -13219.939, 0.0021725777, 0.0001955641, -586883.4, -39850.25, 0.0, 10.012169, 9.909814 
7.487873e+3, 2.5409058e+2, -498338.25, -572312.1, -13109.674, 0.0021679571, 0.00000007337979, -496083.7, -46170.61, 0.0, 10.006757, 9.91001 
7.487813e+3, 2.6399618e+2, -414221.28, -490940.8, -10859.966, 0.0021693183, 0.00024063738, -412713.66, -59875.38, 0.0, 10.001413, 9.901209 
7.4877566e+3, 2.738983e+2, -322561.38, -394657.75, -10573.903, 0.0021763893, -0.000105656894, -321042.56, -65245.38, 0.0, 9.996142, 9.902031 
7.4877036e+3, 2.837941e+2, -240844.94, -319004.1, -7356.4277, 0.0021742294, 0.00032368343, -240158.56, -81340.016, 0.0, 9.990965, 9.889147 
7.487656e+3, 2.936847e+2, -148336.66, -221721.63, -6808.913, 0.0021533133, -0.00015819666, -147710.25, -85819.46, 0.0, 9.985895, 9.890337 
7.4876124e+3, 3.036059e+2, -61412.086, -83107.75, -2446.1545, 0.002153589, 0.0002698304, -61139.707, -61139.707, 0.0, 9.98094, 9.952396 
7.487576e+3, 3.1356096e+2, -66837.055, -83073.016, -1635.2836, 0.0021816934, 0.000022034097, -66673.984, -66673.984, 0.0, 9.976125, 9.954743 
7.498712e+3, 1.24997474e+2, -1630992.8, -1722451.3, -2901.2124, 0.0018197842, -0.00080081995, -1630900.8, 84125.02, 0.0, 10.076336, 9.954616 
7.498669e+3, 1.3495328e+2, -1542980.0, -1632058.6, -3451.3306, 0.0028678284, 0.001990995, -1542846.4, 74612.49, 0.0, 10.07123, 9.952805 
7.4986184e+3, 1.4490001e+2, -1458335.0, -1548213.3, -8259.897, 0.0016135053, -0.0014816131, -1457582.3, 62398.688, 0.0, 10.066099, 9.946824 
7.4985623e+3, 1.5484822e+2, -1368930.8, -1455372.1, -8708.776, 0.0021620728, 0.000030990795, -1368062.1, 54426.26, 0.0, 10.060984, 9.946371 
7.498503e+3, 1.6479173e+2, -1284687.5, -1372358.4, -12070.555, 0.0023619076, 0.0007403488, -1283056.0, 41986.094, 0.0, 10.055756, 9.93976 
7.4984384e+3, 1.7473114e+2, -1195255.5, -1279227.0, -12430.251, 0.0021789228, 0.00007106818, -1193454.1, 34181.656, 0.0, 10.050435, 9.939436 
7.498372e+3, 1.8466699e+2, -1111125.4, -1196374.8, -14697.3955, 0.0021108233, -0.0000011330054, -1108662.6, 21601.809, 0.0, 10.045048, 9.932597 
7.4983025e+3, 1.9459987e+2, -1021567.0, -1102940.6, -14941.773, 0.0021790792, 0.000051053958, -1018910.1, 14012.107, 0.0, 10.039599, 9.932361 
7.498232e+3, 2.0452881e+2, -937369.4, -1020059.75, -16019.149, 0.0021999364, 0.00024866068, -934374.5, 1244.0167, 0.0, 10.0341215, 9.925351 
7.49816e+3, 2.1445428e+2, -847620.0, -926345.06, -16172.776, 0.0021639536, -0.0000053703748, -844427.06, -6078.1816, 0.0, 10.028612, 9.925155 
7.498089e+3, 2.2437592e+2, -763309.1, -843494.94, -16115.321, 0.0021548583, 0.00021964389, -760191.56, -19074.553, 0.0, 10.023104, 9.917909 
7.4980175e+3, 2.342941e+2, -673243.4, -749388.25, -16157.861, 0.0021811845, 0.000027117208, -669956.56, -26037.904, 0.0, 10.017593, 9.917789 
7.497948e+3, 2.4420802e+2, -588944.4, -666987.4, -14973.161, 0.0021893256, 0.00019280509, -586170.3, -39408.156, 0.0, 10.012123, 9.910005 
7.49788e+3, 2.541184e+2, -498249.2, -572048.4, -14876.126, 0.0021731127, -0.000013047696, -495363.38, -45723.16, 0.0, 10.006694, 9.910206 
7.497814e+3, 2.6402432e+2, -413991.5, -490347.44, -12590.639, 0.0021649932, 0.00023548384, -411968.94, -59406.547, 0.0, 10.001334, 9.901628 
7.497753e+3, 2.7392694e+2, -322347.75, -394062.53, -12315.932, 0.002166805, -0.00007701909, -320291.63, -64774.746, 0.0, 9.996049, 9.90246 
7.497695e+3, 2.838233e+2, -240413.31, -317908.72, -9040.474, 0.0021749502, 0.00035285653, -239372.66, -80840.13, 0.0, 9.990854, 9.889913 
7.4976414e+3, 2.9371464e+2, -147924.6, -220604.48, -8501.61, 0.002188859, -0.00018093306, -146943.38, -85346.06, 0.0, 9.985761, 9.891133 
7.497593e+3, 3.0363673e+2, -60962.49, -81863.16, -4050.2632, 0.0021861165, 0.00023759773, -60205.05, -60205.05, 0.0, 9.980788, 9.953301 
7.497552e+3, 3.1359273e+2, -66395.875, -81830.7, -3241.5854, 0.002149126, 0.0000515206, -65742.72, -65742.72, 0.0, 9.975966, 9.95565 
7.508792e+3, 1.2503906e+2, -1623298.8, -1720378.1, -1402.8928, 0.002334566, 0.00057225145, -1623278.5, 91339.766, 0.0, 10.082081, 9.952789 
7.508743e+3, 1.349919e+2, -1535519.5, -1629179.1, -1962.3403, 0.002506242, 0.0009361125, -1535478.5, 81602.04, 0.0, 10.076405, 9.951798 
7.508687e+3, 1.449392e+2, -1451770.1, -1545882.6, -6826.988, 0.0019134856, -0.0005702223, -1451277.5, 68319.445, 0.0, 10.07074, 9.945773 
7.508626e+3, 1.5488563e+2, -1363173.3, -1453496.6, -7289.839, 0.0021760003, 0.000063798296, -1362588.8, 59533.105, 0.0, 10.065133, 9.945313 
7.5085604e+3, 1.6482793e+2, -1279587.6, -1370602.3, -10751.378, 0.00227013, 0.00044242077, -1278334.8, 46352.61, 0.0, 10.059381, 9.938911 
7.5084907e+3, 1.747667e+2, -1191050.1, -1277958.9, -11112.76, 0.0021842264, 0.00005705357, -1189651.6, 37635.6, 0.0, 10.053503, 9.938584 
7.5084186e+3, 1.8470195e+2, -1107538.5, -1195126.0, -13421.95, 0.0021499884, 0.00009820245, -1105527.9, 24394.096, 0.0, 10.047581, 9.932017 
7.5083435e+3, 1.9463415e+2, -1018783.6, -1102120.4, -13677.539, 0.0021786306, 0.000063330444, -1016596.25, 15989.926, 0.0, 10.041625, 9.931782 
7.508267e+3, 2.0456263e+2, -935177.6, -1019250.7, -14782.171, 0.002188677, 0.00022264163, -932654.3, 2632.877, 0.0, 10.035632, 9.925034 
7.5081897e+3, 2.144878e+2, -846238.25, -925960.0, -14925.764, 0.0021767612, -0.0000094447805, -843535.44, -5515.0513, 0.0, 10.029604, 9.924836 
7.508112e+3, 2.2440922e+2, -762543.4, -843162.44, -14858.541, 0.0021729327, 0.00022500273, -759892.06, -19101.62, 0.0, 10.02358, 9.917821 
7.5080353e+3, 2.3432733e+2, -673261.3, -749456.1, -14900.419, 0.0021809528, 0.000026632373, -670451.06, -26858.053, 0.0, 10.017558, 9.917703 
7.5079596e+3, 2.4424128e+2, -589561.75, -667073.1, -13681.396, 0.0021845773, 0.00019301251, -587217.75, -40781.563, 0.0, 10.011572, 9.910164 
7.5078857e+3, 2.5415188e+2, -499655.63, -572522.1, -13575.292, 0.0021819617, -0.0000026492883, -497208.7, -47896.137, 0.0, 10.005617, 9.910373 
7.507815e+3, 2.6405805e+2, -416027.63, -490871.2, -11224.835, 0.0021787926, 0.00024320498, -414380.4, -62148.355, 0.0, 9.99973, 9.90202 
7.5077474e+3, 2.7396104e+2, -325173.88, -394962.63, -10941.425, 0.002172392, -0.00008955409, -323498.7, -68315.94, 0.0, 9.99391, 9.902863 
7.507684e+3, 2.8385794e+2, -243814.97, -318685.8, -7588.636, 0.002178363, 0.00033980949, -243053.55, -84860.68, 0.0, 9.988161, 9.890662 
7.507625e+3, 2.9375008e+2, -152166.5, -221751.5, -7037.1826, 0.0021968246, -0.0001654565, -151461.95, -90212.11, 0.0, 9.982482, 9.891911 
7.507572e+3, 3.03673e+2, -65955.17, -83251.266, -2503.8586, 0.0021948677, 0.00025918774, -65600.0, -65600.0, 0.0, 9.976935, 9.954178 
7.5075257e+3, 3.136299e+2, -72220.38, -83623.44, -1693.8586, 0.0021549445, 0.000045014505, -71974.086, -71974.086, 0.0, 9.971558, 9.956525 
7.518874e+3, 1.250835e+2, -1624079.3, -1722369.8, -3060.161, 0.0021837861, 0.00011240248, -1623984.0, 90198.73, 0.0, 10.0822935, 9.951435 
7.518819e+3, 1.350349e+2, -1536030.1, -1630763.0, -3596.3652, 0.002217774, 0.000095939686, -1535893.8, 80765.336, 0.0, 10.076663, 9.950667 
7.5187576e+3, 1.4498238e+2, -1452220.4, -1547364.6, -8458.84, 0.0021426775, 0.00016990185, -1451474.1, 67699.57, 0.0, 10.070996, 9.944704 
7.518691e+3, 1.5492716e+2, -1363695.9, -1455020.8, -8922.128, 0.0021913804, 0.00009489269, -1362832.4, 58882.457, 0.0, 10.065343, 9.94424 
7.51862e+3, 1.6486828e+2, -1279963.0, -1371786.4, -12496.829, 0.0022067842, 0.00020987845, -1278292.5, 45999.27, 0.0, 10.059557, 9.938065 
7.518544e+3, 1.7480642e+2, -1191452.1, -1279158.4, -12873.377, 0.0021918165, 0.00004919642, -1189601.6, 37296.62, 0.0, 10.05366, 9.937735 
7.518466e+3, 1.8474099e+2, -1107759.8, -1195918.5, -15233.435, 0.0021798254, 0.00018013724, -1105201.8, 24337.463, 0.0, 10.047708, 9.931438 
7.518385e+3, 1.946726e+2, -1019068.8, -1102946.6, -15501.438, 0.0021745102, 0.000079321944, -1016295.7, 15913.998, 0.0, 10.04171, 9.931201 
7.518303e+3, 2.0460059e+2, -935286.2, -1019660.06, -16655.55, 0.002178716, 0.00020866803, -932117.4, 2797.8372, 0.0, 10.035682, 9.924734 
7.5182194e+3, 2.1452548e+2, -846387.9, -926390.56, -16820.58, 0.0021949217, -0.000010717412, -842995.2, -5343.981, 0.0, 10.029627, 9.924537 
7.518136e+3, 2.2444671e+2, -762547.1, -843254.4, -16774.254, 0.0021945075, 0.00022938548, -759199.56, -18776.549, 0.0, 10.02358, 9.91775 
7.5180525e+3, 2.3436475e+2, -673294.7, -749565.0, -16832.697, 0.0021753933, 0.000026229887, -669744.94, -26518.574, 0.0, 10.017539, 9.91763 
7.5179714e+3, 2.4427876e+2, -589428.7, -666801.6, -15610.734, 0.002172501, 0.00019762882, -586397.75, -40328.77, 0.0, 10.011534, 9.910347 
7.5178915e+3, 2.5418955e+2, -499550.13, -572259.25, -15524.567, 0.002190544, 0.000018313436, -496374.1, -47430.742, 0.0, 10.00556, 9.910561 
7.517815e+3, 2.6409602e+2, -415780.3, -490272.75, -13145.279, 0.0021960044, 0.00025835203, -413528.7, -61668.703, 0.0, 9.999655, 9.902436 
7.517742e+3, 2.739994e+2, -324945.88, -394366.9, -12876.4795, 0.0021818497, -0.00011324882, -322634.44, -67827.62, 0.0, 9.99382, 9.903285 
7.517672e+3, 2.838969e+2, -243348.61, -317563.22, -9489.237, 0.0021802704, 0.00031580133, -242154.5, -84343.3, 0.0, 9.988061, 9.891438 
7.517608e+3, 2.937899e+2, -151695.03, -220598.11, -8953.539, 0.0021916712, -0.0001325936, -150550.58, -89690.68, 0.0, 9.982376, 9.892713 
7.517549e+3, 3.0371365e+2, -65468.984, -82013.266, -4318.2534, 0.0021922847, 0.00030318947, -64409.695, -64409.695, 0.0, 9.976811, 9.955062 
7.5174975e+3, 3.1367135e+2, -71793.58, -82420.81, -3507.6619, 0.002172284, 0.000027423772, -70740.234, -70740.234, 0.0, 9.971396, 9.957402 
7.528959e+3, 1.2513489e+2, -1615877.0, -1719399.0, -1386.014, 0.0020562275, -0.0002755296, -1615858.5, 97820.85, 0.0, 10.088066, 9.9501295 
7.528899e+3, 1.3508518e+2, -1528435.4, -1628098.1, -1963.6995, 0.0021653043, -0.00007427526, -1528396.6, 87769.83, 0.0, 10.082053, 9.9494 
7.5288314e+3, 1.4503178e+2, -1445199.4, -1544766.0, -6888.954, 0.0022105537, 0.00035094997, -1444725.0, 73964.62, 0.0, 10.075909, 9.943658 
7.528758e+3, 1.5497537e+2, -1357606.4, -1452942.5, -7329.6724, 0.0021991176, 0.00008333343, -1357046.3, 64196.316, 0.0, 10.069684, 9.943188 
7.528681e+3, 1.6491547e+2, -1274598.3, -1369918.8, -10965.865, 0.0021904246, 0.00013584379, -1273352.9, 50476.555, 0.0, 10.0633545, 9.937175 
7.5285995e+3, 1.7485276e+2, -1186908.9, -1277744.9, -11339.14, 0.0021918884, 0.000059193324, -1185514.9, 40929.18, 0.0, 10.05695, 9.936839 
7.528515e+3, 1.8478662e+2, -1103814.6, -1194489.4, -13741.65, 0.0021901815, 0.00021473978, -1101777.9, 27314.303, 0.0, 10.050462, 9.930836 
7.528428e+3, 1.9471756e+2, -1016010.56, -1101994.8, -13994.57, 0.002187881, 0.00007054129, -1013790.2, 17978.703, 0.0, 10.043904, 9.930595 
7.528339e+3, 2.0464508e+2, -932881.94, -1018767.56, -15154.51, 0.0021885165, 0.00018842179, -930286.4, 4192.8027, 0.0, 10.03733, 9.9243765 
7.528249e+3, 2.1456963e+2, -844814.6, -925938.3, -15314.937, 0.002194558, -0.0000049011524, -842019.7, -4801.1143, 0.0, 10.030743, 9.924174 
7.5281596e+3, 2.2449064e+2, -761585.56, -842816.4, -15250.472, 0.0021942873, 0.0002429187, -758816.8, -18824.21, 0.0, 10.024167, 9.917649 
7.52807e+3, 2.3440857e+2, -673143.25, -749544.1, -15292.025, 0.0021862916, 0.000026179443, -670196.1, -27399.15, 0.0, 10.0176, 9.917528 
7.5279826e+3, 2.4432258e+2, -589915.9, -666832.5, -14034.328, 0.0021853228, 0.00018964581, -587435.1, -41795.598, 0.0, 10.01106, 9.9104805 
7.527897e+3, 2.542335e+2, -500865.7, -572703.4, -13942.439, 0.0021934584, 0.000011490007, -498254.63, -49742.03, 0.0, 10.004538, 9.910696 
7.5278133e+3, 2.6414022e+2, -417746.5, -490750.88, -11499.383, 0.0021980733, 0.00025639252, -415978.0, -64551.35, 0.0, 9.998081, 9.902822 
7.5277346e+3, 2.74044e+2, -327743.66, -395243.8, -11218.647, 0.0021934947, -0.000105802916, -325927.94, -71558.375, 0.0, 9.991686, 9.903678 
7.527659e+3, 2.8394207e+2, -246734.48, -318318.9, -7755.999, 0.002191921, 0.00032323945, -245903.78, -88535.3, 0.0, 9.985363, 9.892181 
7.5275886e+3, 2.9383582e+2, -155898.67, -221717.73, -7210.652, 0.0021877936, -0.00013910524, -155117.98, -94708.195, 0.0, 9.979111, 9.893481 
7.5275236e+3, 3.037604e+2, -70488.2, -83405.97, -2528.618, 0.002189082, 0.00029305558, -70010.875, -70010.875, 0.0, 9.972932, 9.955929 
7.527467e+3, 3.1371897e+2, -77850.79, -84321.3, -1714.524, 0.0021977776, 0.00003044838, -77424.56, -77424.56, 0.0, 9.966823, 9.958264 
7.5390476e+3, 1.2519167e+2, -1616454.1, -1721247.5, -3102.8174, 0.0022521564, 0.0003261467, -1616362.4, 96760.305, 0.0, 10.088383, 9.948803 
7.53898e+3, 1.3514026e+2, -1529053.4, -1629955.6, -3699.155, 0.0022173256, 0.00005277516, -1528917.9, 86708.71, 0.0, 10.082334, 9.948082 
7.538907e+3, 1.4508554e+2, -1445623.0, -1546187.1, -8724.627, 0.0021974146, 0.0002717177, -1444871.8, 73291.11, 0.0, 10.07615, 9.942628 
7.538828e+3, 1.5502813e+2, -1358093.3, -1454397.6, -9189.989, 0.0022055183, 0.000068663496, -1357224.1, 63501.133, 0.0, 10.069882, 9.942157 
7.538745e+3, 1.6496733e+2, -1274998.8, -1371139.1, -12905.247, 0.0022015318, 0.00015514132, -1273296.6, 50024.668, 0.0, 10.063514, 9.936308 
7.538656e+3, 1.7490375e+2, -1187363.4, -1278998.8, -13263.33, 0.002191751, 0.00007748372, -1185482.3, 40462.15, 0.0, 10.057075, 9.9359665 
7.5385654e+3, 1.8483688e+2, -1104059.6, -1195289.8, -15731.854, 0.00219179, 0.00022387554, -1101423.0, 27176.686, 0.0, 10.05056, 9.930261 
7.538472e+3, 1.9476722e+2, -1016284.6, -1102814.3, -16003.378, 0.0022049316, 0.00006138068, -1013419.7, 17862.506, 0.0, 10.043984, 9.930016 
7.5383765e+3, 2.0469429e+2, -932989.3, -1019219.2, -17201.697, 0.002203784, 0.0001790425, -929684.44, 4312.496, 0.0, 10.037388, 9.924041 
7.53828e+3, 2.1461852e+2, -844964.7, -926417.6, -17380.572, 0.0021888837, 0.000006408718, -841411.0, -4671.4775, 0.0, 10.030775, 9.923833 
7.5381833e+3, 2.2453934e+2, -761560.44, -842888.5, -17336.902, 0.0021867554, 0.00026126535, -758018.94, -18503.422, 0.0, 10.024172, 9.9175825 
7.538088e+3, 2.3445717e+2, -673165.0, -749643.3, -17403.477, 0.0022009052, 0.000030554384, -669390.9, -27070.223, 0.0, 10.017576, 9.917459 
7.537994e+3, 2.4437124e+2, -589790.94, -666590.0, -16155.252, 0.0022045486, 0.00018333807, -586530.94, -41368.098, 0.0, 10.011016, 9.910642 
7.537901e+3, 2.542823e+2, -500755.47, -572469.7, -16084.075, 0.0021928584, -0.0000005988697, -497313.34, -49278.957, 0.0, 10.004486, 9.910857 
7.5378114e+3, 2.641893e+2, -417466.1, -490137.66, -13619.438, 0.0021923922, 0.0002527774, -414997.53, -64051.906, 0.0, 9.998017, 9.903236 
7.537726e+3, 2.7409354e+2, -327483.9, -394635.53, -13362.507, 0.002204224, -0.000083566214, -324922.6, -71038.414, 0.0, 9.991608, 9.9040985 
7.537644e+3, 2.839922e+2, -246240.66, -317183.72, -9869.218, 0.0022045681, 0.0003451773, -244893.3, -88015.95, 0.0, 9.9852705, 9.892956 
7.5375676e+3, 2.938867e+2, -155415.75, -220565.31, -9337.438, 0.0021824944, -0.00015771198, -154103.9, -94192.73, 0.0, 9.979004, 9.894278 
7.5374967e+3, 3.0381215e+2, -69978.375, -82160.9, -4606.658, 0.0021837098, 0.0002668749, -68432.57, -68432.57, 0.0, 9.9728155, 9.956808 
7.5374335e+3, 3.137716e+2, -77353.88, -83091.58, -3812.822, 0.002221561, 0.00004992405, -75451.16, -75451.16, 0.0, 9.966701, 9.959135 
7.5491387e+3, 1.252553e+2, -1607626.1, -1717983.0, -1341.6393, 0.0022607495, 0.0003520168, -1607609.9, 104889.37, 0.0, 10.094566, 9.947441 
7.549066e+3, 1.3520248e+2, -1521121.3, -1627182.5, -1946.3136, 0.0022257871, 0.000036343263, -1521085.5, 93931.25, 0.0, 10.087967, 9.9467325 
7.548986e+3, 1.4514655e+2, -1438394.4, -1543532.5, -7051.944, 0.0022028228, 0.00025133716, -1437923.5, 79641.54, 0.0, 10.081212, 9.941516 
7.5489e+3, 1.5508805e+2, -1351811.5, -1452266.4, -7522.8496, 0.002206105, 0.00008615146, -1351251.3, 68886.89, 0.0, 10.074361, 9.941045 
7.54881e+3, 1.6502634e+2, -1269269.1, -1368847.8, -11251.434, 0.0022047812, 0.00017408411, -1268013.8, 54729.28, 0.0, 10.067429, 9.935598 
7.5487155e+3, 1.74962e+2, -1182498.3, -1277189.3, -11523.064, 0.0022033947, 0.00006253477, -1181116.1, 44257.254, 0.0, 10.060455, 9.935246 
7.548618e+3, 1.8489449e+2, -1099934.5, -1193750.9, -13986.844, 0.0022029693, 0.00020608788, -1097893.6, 30141.496, 0.0, 10.05341, 9.92965 
7.5485164e+3, 1.9482423e+2, -1012992.94, -1101733.8, -14238.243, 0.0022087183, 0.00007232796, -1010764.4, 19959.191, 0.0, 10.046312, 9.929395 
7.5484145e+3, 2.047508e+2, -930320.7, -1018169.5, -15435.044, 0.0022062925, 0.000192788, -927687.7, 5755.4297, 0.0, 10.039182, 9.923678 
7.5483114e+3, 2.1467464e+2, -843151.9, -925827.2, -15587.803, 0.0021960873, -0.000003509696, -840310.56, -4121.083, 0.0, 10.032025, 9.923462 
7.548208e+3, 2.2459522e+2, -760406.75, -842355.5, -15521.122, 0.0021959916, 0.00024610586, -757565.56, -18597.68, 0.0, 10.02487, 9.917458 
7.548106e+3, 2.3451293e+2, -672878.0, -749562.25, -15574.096, 0.0022094261, 0.00003189791, -669835.7, -28061.469, 0.0, 10.0177145, 9.917327 
7.5480044e+3, 2.4442698e+2, -590145.75, -666534.06, -14274.391, 0.0022120285, 0.0001897437, -587565.5, -42949.105, 0.0, 10.010605, 9.910771 
7.5479054e+3, 2.5433818e+2, -501921.56, -572823.0, -14181.566, 0.0021988936, -0.0000013436456, -499190.22, -51703.535, 0.0, 10.003541, 9.910984 
7.547809e+3, 2.6424542e+2, -419304.16, -490564.7, -11660.296, 0.0021971648, 0.00024834916, -417444.72, -67049.11, 0.0, 9.99652, 9.903588 
7.5477165e+3, 2.7415e+2, -330188.06, -395485.94, -11400.575, 0.0022071549, -0.00008595488, -328254.8, -74924.12, 0.0, 9.989531, 9.904452 
7.5476277e+3, 2.840492e+2, -249532.75, -317837.16, -7835.986, 0.0022115947, 0.00034312348, -248645.33, -92326.85, 0.0, 9.9826, 9.893727 
7.547545e+3, 2.939445e+2, -159598.56, -221617.58, -7276.9067, 0.0021999064, -0.00016164998, -158756.17, -99411.68, 0.0, 9.975718, 9.895073 
7.547468e+3, 3.0387074e+2, -75068.14, -83648.62, -2522.1387, 0.002197647, 0.00026139885, -74381.695, -74381.695, 0.0, 9.968905, 9.957601 
7.547398e+3, 3.13831e+2, -83412.125, -85070.14, -1760.0156, 0.0022135088, 0.000040566676, -82295.65, -82295.65, 0.0, 9.9621525, 9.959908 
7.5592333e+3, 1.2532376e+2, -1608148.0, -1719832.8, -3157.4814, 0.0022001553, 0.00015902927, -1608058.8, 103769.7, 0.0, 10.09492, 9.946083 
7.559154e+3, 1.3526969e+2, -1521677.8, -1629027.9, -3783.4983, 0.002221793, -0.000018388057, -1521544.5, 92813.7, 0.0, 10.088284, 9.945393 
7.5590676e+3, 1.4521259e+2, -1438816.5, -1545036.8, -8990.906, 0.002218729, 0.00027278395, -1438060.9, 78856.93, 0.0, 10.08148, 9.940411 
7.5589746e+3, 1.55153e+2, -1352311.6, -1453801.1, -9477.098, 0.0022080634, 0.00011362911, -1351434.1, 68067.55, 0.0, 10.074571, 9.939948 
7.5588775e+3, 1.6509043e+2, -1269462.0, -1369689.6, -13290.248, 0.002206138, 0.00018917157, -1267729.8, 54385.332, 0.0, 10.067584, 9.93496 
7.558776e+3, 1.750254e+2, -1182773.8, -1278080.9, -13613.944, 0.002217783, 0.000047254773, -1180867.3, 43884.777, 0.0, 10.060559, 9.934603 
7.5586706e+3, 1.849573e+2, -1100192.4, -1194546.8, -16158.052, 0.0022169396, 0.00019293059, -1097502.0, 29917.566, 0.0, 10.05348, 9.929084 
7.558563e+3, 1.9488649e+2, -1013279.94, -1102556.3, -16408.068, 0.0022081705, 0.000093193485, -1010359.8, 19753.639, 0.0, 10.046369, 9.928818 
7.558454e+3, 2.0481262e+2, -930419.8, -1018592.06, -17649.979, 0.00220421, 0.00021594591, -927017.94, 5819.3545, 0.0, 10.03922, 9.923363 
7.5583434e+3, 2.1473612e+2, -843288.94, -926280.0, -17828.203, 0.0022073379, -0.0000134118645, -839621.2, -4034.0964, 0.0, 10.032043, 9.923137 
7.558233e+3, 2.2465648e+2, -760381.5, -842450.5, -17794.912, 0.0022094573, 0.00022963804, -756689.2, -18321.646, 0.0, 10.024872, 9.91737 
7.558123e+3, 2.3457411e+2, -672879.44, -749680.44, -17876.068, 0.002213177, 0.000036743775, -668922.5, -27747.855, 0.0, 10.017702, 9.9172325 
7.558015e+3, 2.4448822e+2, -589972.6, -666252.4, -16577.752, 0.0022131132, 0.00020442826, -586525.56, -42509.227, 0.0, 10.010573, 9.910945 
7.557909e+3, 2.5439957e+2, -501795.44, -572569.06, -16514.834, 0.0022057847, 0.0000068183385, -498131.44, -51246.45, 0.0, 10.003481, 9.911156 
7.557806e+3, 2.643071e+2, -419046.97, -489999.03, -13993.571, 0.00220353, 0.00024942824, -416386.8, -66595.58, 0.0, 9.996444, 9.903972 
7.557706e+3, 2.7421206e+2, -329937.0, -394926.78, -13757.098, 0.002205433, -0.00009420118, -327144.84, -74422.164, 0.0, 9.989452, 9.904835 
7.557611e+3, 2.8411186e+2, -248969.23, -316615.4, -10179.45, 0.002213801, 0.000335734, -247470.61, -91765.94, 0.0, 9.982519, 9.8945465 
7.557521e+3, 2.94008e+2, -159032.33, -220370.16, -9650.411, 0.0022234793, -0.00015259322, -157549.84, -98827.6, 0.0, 9.975631, 9.895917 
7.557436e+3, 3.0393505e+2, -74578.766, -82523.34, -4855.899, 0.0022163638, 0.00026938153, -72277.39, -72277.39, 0.0, 9.968809, 9.958383 
7.55736e+3, 3.1389603e+2, -82965.84, -83996.016, -4107.2393, 0.0021886798, 0.000013785509, -79341.516, -79341.516, 0.0, 9.962041, 9.960663 
7.5693315e+3, 1.2540063e+2, -1598797.6, -1716275.8, -1140.1349, 0.002208969, 0.0001348287, -1598786.5, 112288.555, 0.0, 10.101423, 9.944705 
7.569245e+3, 1.3534524e+2, -1513311.9, -1626001.4, -1774.5962, 0.002219569, 0.0000065258037, -1513284.0, 100334.02, 0.0, 10.094174, 9.944035 
7.5691515e+3, 1.4528692e+2, -1431223.9, -1542151.0, -7055.8047, 0.0022189913, 0.00029406336, -1430776.9, 85412.625, 0.0, 10.086746, 9.939304 
7.569052e+3, 1.5522617e+2, -1345724.0, -1451459.4, -7522.888, 0.0022198397, 0.00008867345, -1345191.5, 73593.19, 0.0, 10.07921, 9.938851 
7.568947e+3, 1.6516264e+2, -1263602.8, -1367418.4, -11361.961, 0.002219886, 0.00016304555, -1262373.8, 59033.44, 0.0, 10.0716095, 9.934148 
7.568838e+3, 1.7509685e+2, -1177867.4, -1276332.9, -11692.582, 0.0022235382, 0.000061622835, -1176498.0, 47553.996, 0.0, 10.063991, 9.933786 
7.568726e+3, 1.850281e+2, -1095837.8, -1192663.6, -14205.422, 0.0022188965, 0.0002092545, -1093796.6, 32928.93, 0.0, 10.056362, 9.928642 
7.568611e+3, 1.9495682e+2, -1009725.5, -1101118.6, -14357.334, 0.0022126061, 0.00007619262, -1007523.1, 21901.045, 0.0, 10.048752, 9.928361 
7.568494e+3, 2.0488255e+2, -927588.44, -1017424.4, -15568.903, 0.0022130874, 0.00019664697, -924966.8, 7185.1777, 0.0, 10.041087, 9.923003 
7.568376e+3, 2.1480569e+2, -841295.2, -925570.2, -15718.53, 0.0022220223, -0.0000053187155, -838458.94, -3553.7078, 0.0, 10.033381, 9.922761 
7.568258e+3, 2.247258e+2, -759026.5, -841799.3, -15655.954, 0.0022214497, 0.00024035956, -756164.25, -18476.143, 0.0, 10.025676, 9.917231 
7.568141e+3, 2.3464327e+2, -672359.75, -749471.25, -15710.382, 0.0022129861, 0.000027807904, -669281.8, -28784.973, 0.0, 10.01797, 9.917082 
7.5680256e+3, 2.4455735e+2, -590119.06, -666088.2, -14371.038, 0.0022121805, 0.0001915711, -587491.4, -44152.594, 0.0, 10.01028, 9.911049 
7.567912e+3, 2.5446883e+2, -502844.28, -572866.3, -14294.006, 0.002218518, 0.000007105156, -500038.78, -53832.39, 0.0, 10.002596, 9.911252 
7.5678015e+3, 2.6437658e+2, -420776.38, -490334.2, -11695.632, 0.0022203322, 0.00025137013, -418862.5, -69752.11, 0.0, 9.994986, 9.904329 
7.567694e+3, 2.742819e+2, -332498.7, -395672.28, -11430.638, 0.0022125745, -0.00010155842, -330494.06, -78455.64, 0.0, 9.987439, 9.9051895 
7.5675917e+3, 2.8418222e+2, -252113.3, -317193.1, -7793.43, 0.0022155647, 0.00032627102, -251193.03, -96177.93, 0.0, 9.979931, 9.895291 
7.567495e+3, 2.9407912e+2, -163062.08, -221356.39, -7266.1763, 0.0022234244, -0.00015363375, -162170.02, -104144.83, 0.0, 9.972437, 9.896676 
7.5674033e+3, 3.0400696e+2, -79558.4, -83976.58, -2483.0337, 0.0022225208, 0.00028272334, -78444.01, -78444.01, 0.0, 9.964971, 9.959131 
7.56732e+3, 3.139687e+2, -89016.61, -85991.5, -1737.557, 0.0022139165, 0.00004489182, -85200.38, -85200.38, 0.0, 9.957497, 9.961389 
7.5794333e+3, 1.2548313e+2, -1599289.6, -1718121.3, -3091.0374, 0.0022446646, 0.00019202006, -1599209.3, 111057.24, 0.0, 10.101786, 9.943332 
7.579339e+3, 1.3542634e+2, -1513869.6, -1627852.1, -3752.0718, 0.0022249185, 0.00005174891, -1513746.3, 99076.72, 0.0, 10.094479, 9.942687 
7.5792384e+3, 1.453668e+2, -1431605.8, -1543594.4, -9148.238, 0.002217638, 0.00031178055, -1430863.4, 84543.14, 0.0, 10.087005, 9.938229 
7.579131e+3, 1.5530497e+2, -1346129.5, -1452894.8, -9644.382, 0.0022352936, 0.00006356448, -1345265.3, 72747.266, 0.0, 10.079441, 9.937793 
7.579019e+3, 1.6524053e+2, -1263828.9, -1368450.6, -13540.613, 0.0022365, 0.00014235577, -1262104.8, 58539.24, 0.0, 10.071806, 9.933357 
7.5789016e+3, 1.7517397e+2, -1178150.9, -1277390.6, -13899.502, 0.0022264204, 0.00008719365, -1176240.9, 47055.383, 0.0, 10.064146, 9.933001 
7.5787824e+3, 1.8510467e+2, -1095831.3, -1193058.0, -16466.633, 0.0022185417, 0.00023513079, -1093118.1, 32857.17, 0.0, 10.056468, 9.9283 
7.578659e+3, 1.95033e+2, -1009820.7, -1101578.3, -16681.85, 0.002218489, 0.0000577175, -1006882.0, 21795.662, 0.0, 10.048798, 9.928008 
7.578535e+3, 2.0495841e+2, -927691.3, -1017833.75, -17977.092, 0.0022230863, 0.00017724879, -924238.44, 7170.143, 0.0, 10.0411005, 9.9227 
7.57841e+3, 2.1488126e+2, -841418.75, -926006.1, -18140.557, 0.002235044, 0.000013235147, -837692.5, -3527.8086, 0.0, 10.033388, 9.922444 
7.578284e+3, 2.2480118e+2, -758987.0, -841878.5, -18110.805, 0.002230915, 0.00026391877, -755202.8, -18253.37, 0.0, 10.025667, 9.9171505 
7.578159e+3, 2.3471853e+2, -672366.4, -749589.4, -18196.322, 0.0022098578, 0.000021477352, -668293.5, -28534.207, 0.0, 10.017938, 9.916988 
7.5780356e+3, 2.4463265e+2, -589961.4, -665840.2, -16885.125, 0.0022096243, 0.00017835891, -586373.6, -43772.69, 0.0, 10.010233, 9.9112 
7.577914e+3, 2.5454426e+2, -502705.03, -572638.0, -16842.525, 0.0022305404, 0.000008824409, -498860.1, -53393.055, 0.0, 10.0025425, 9.911396 
7.577796e+3, 2.644523e+2, -420456.97, -489700.28, -14231.544, 0.0022369018, 0.00025917956, -417646.06, -69277.8, 0.0, 9.994919, 9.904744 
7.5776815e+3, 2.74358e+2, -332217.97, -395063.44, -14003.13, 0.0022209978, -0.000101502934, -329239.0, -77946.76, 0.0, 9.98735, 9.9056015 
7.577572e+3, 2.8425893e+2, -251574.5, -316026.8, -10374.763, 0.0022148055, 0.00032188208, -249945.66, -95682.45, 0.0, 9.979836, 9.896073 
7.5774676e+3, 2.9415664e+2, -162505.1, -220173.45, -9870.178, 0.0022119717, -0.00015912268, -160862.55, -103596.945, 0.0, 9.972354, 9.897468 
7.577368e+3, 3.0408525e+2, -79029.28, -82853.64, -5088.295, 0.0022213776, 0.00030467933, -75505.73, -75505.73, 0.0, 9.964895, 9.959894 
7.5772774e+3, 3.1404778e+2, -88499.805, -84899.57, -4383.89, 0.0022558721, 0.00013711397, -81960.6, -81960.6, 0.0, 9.957423, 9.96213 
7.5895387e+3, 1.2557492e+2, -1589489.3, -1714277.3, -830.0641, 0.002239708, 0.00021477356, -1589483.8, 119883.38, 0.0, 10.108545, 9.941959 
7.589437e+3, 1.355167e+2, -1505166.3, -1624592.4, -1484.0118, 0.0022391968, 0.000019988827, -1505147.9, 106789.61, 0.0, 10.10055, 9.941342 
7.589328e+3, 1.4545596e+2, -1423709.5, -1540489.0, -6908.4517, 0.002233644, 0.00027900597, -1423302.1, 91230.56, 0.0, 10.092425, 9.937139 
7.5892127e+3, 1.5539306e+2, -1339196.4, -1450295.4, -7380.7227, 0.0022387085, 0.00008266767, -1338708.1, 78440.87, 0.0, 10.084252, 9.936727 
7.589093e+3, 1.6532768e+2, -1257659.5, -1366012.5, -11269.662, 0.0022374468, 0.00016233271, -1256499.8, 63289.99, 0.0, 10.076012, 9.932514 
7.588968e+3, 1.7526026e+2, -1172921.5, -1275452.4, -11603.732, 0.0022317162, 0.00006603584, -1171624.8, 50825.84, 0.0, 10.067758, 9.932168 
7.58884e+3, 1.8519028e+2, -1091318.6, -1191202.1, -14171.67, 0.002228245, 0.00021090102, -1089346.9, 35789.5, 0.0, 10.059482, 9.927731 
7.5887096e+3, 1.9511804e+2, -1006249.1, -1100234.9, -14399.019, 0.0022349071, 0.00006550575, -1004092.6, 23751.574, 0.0, 10.051219, 9.927432 
7.588577e+3, 2.0504306e+2, -924677.4, -1016378.1, -15645.64, 0.002235133, 0.00018772403, -922081.44, 8497.513, 0.0, 10.042981, 9.922477 
7.588444e+3, 2.1496566e+2, -839172.06, -924975.75, -15711.883, 0.00223142, -0.000000691861, -836385.5, -3047.9194, 0.0, 10.034786, 9.9222 
7.58831e+3, 2.2488539e+2, -757441.44, -841078.0, -15635.082, 0.0022293497, 0.00024673098, -754614.2, -18490.031, 0.0, 10.026552, 9.917022 
7.5881773e+3, 2.3480262e+2, -671675.3, -749250.9, -15683.797, 0.002227831, 0.000024331546, -668624.44, -29689.15, 0.0, 10.018277, 9.916841 
7.588046e+3, 2.447167e+2, -589930.25, -665562.6, -14320.127, 0.0022292635, 0.00018460791, -587309.7, -45532.555, 0.0, 10.010025, 9.911289 
7.587916e+3, 2.546284e+2, -503520.4, -572802.44, -14249.802, 0.0022329902, 0.000001933274, -500704.03, -56061.426, 0.0, 10.001784, 9.911471 
7.5877905e+3, 2.6453662e+2, -421970.72, -489922.13, -11576.881, 0.0022341134, 0.00024863757, -420052.5, -72510.68, 0.0, 9.993581, 9.905071 
7.587668e+3, 2.7444264e+2, -334669.22, -395757.28, -11338.201, 0.002225927, -0.0001038675, -332632.7, -82170.04, 0.0, 9.985393, 9.905919 
7.58755e+3, 2.8434414e+2, -254559.3, -316426.97, -7613.752, 0.0022261287, 0.0003285998, -253636.08, -100207.95, 0.0, 9.977296, 9.89687 
7.587438e+3, 2.9424268e+2, -166279.97, -220939.23, -7057.551, 0.0022283003, -0.00014198176, -165383.4, -108960.914, 0.0, 9.969274, 9.898274 
7.5873315e+3, 3.04172e+2, -83823.14, -84362.24, -2328.6145, 0.0022238947, 0.0002726273, -81748.53, -81748.53, 0.0, 9.961229, 9.960478 
7.5872326e+3, 3.1413496e+2, -94300.83, -86940.125, -1701.1371, 0.0022221014, -0.000027364365, -86565.984, -86565.984, 0.0, 9.953106, 9.962675 
7.599647e+3, 1.2567283e+2, -1589954.0, -1716070.0, -2946.1335, 0.0022316629, 0.00022266297, -1589885.3, 118522.195, 0.0, 10.108889, 9.940614 
7.5995374e+3, 1.3561326e+2, -1505669.8, -1626368.1, -3631.9663, 0.002258483, -0.000014980656, -1505560.6, 105430.66, 0.0, 10.100847, 9.940027 
7.5994205e+3, 1.4555135e+2, -1424036.9, -1541862.0, -9138.539, 0.0022529794, 0.00025589613, -1423332.3, 90265.56, 0.0, 10.09268, 9.936093 
7.599297e+3, 1.5548748e+2, -1339551.4, -1451652.0, -9653.025, 0.0022416273, 0.000115092254, -1338726.3, 77497.78, 0.0, 10.084473, 9.935708 
7.599169e+3, 1.6542119e+2, -1257863.0, -1367031.1, -13599.472, 0.0022369893, 0.00019398861, -1256194.4, 62679.16, 0.0, 10.076203, 9.931721 
7.5990355e+3, 1.7535292e+2, -1173148.5, -1276468.1, -13967.003, 0.0022377342, 0.000044453995, -1171293.8, 50248.67, 0.0, 10.0679245, 9.931387 
7.5989e+3, 1.8528229e+2, -1091388.1, -1191861.5, -16579.074, 0.0022396776, 0.0001880357, -1088723.1, 35511.527, 0.0, 10.059621, 9.927189 
7.598761e+3, 1.9520953e+2, -1006368.44, -1100923.5, -16845.037, 0.002250658, 0.000087375185, -1003457.1, 23490.371, 0.0, 10.051327, 9.926888 
7.59862e+3, 2.0513424e+2, -924511.6, -1016423.3, -18136.43, 0.0022440648, 0.00021250972, -921062.3, 8623.034, 0.0, 10.043049, 9.922363 
7.598479e+3, 2.1505667e+2, -839096.94, -925084.2, -18274.969, 0.0022232006, -0.000016100414, -835374.1, -2928.5942, 0.0, 10.034803, 9.922075 
7.598337e+3, 2.2497633e+2, -757361.2, -841110.2, -18292.615, 0.0022249722, 0.00022910564, -753540.06, -18307.129, 0.0, 10.02654, 9.916963 
7.598195e+3, 2.348935e+2, -671625.8, -749321.9, -18380.691, 0.0022485305, 0.000037922226, -667496.9, -29452.281, 0.0, 10.018255, 9.916762 
7.5980556e+3, 2.4480765e+2, -589744.6, -665292.5, -17052.158, 0.0022514744, 0.00020381836, -586074.06, -45188.113, 0.0, 10.0099745, 9.911447 
7.597918e+3, 2.5471947e+2, -503419.2, -572592.4, -17023.115, 0.0022301555, 0.00000020057131, -499456.84, -55706.71, 0.0, 10.001687, 9.911615 
7.597784e+3, 2.6462796e+2, -421720.22, -489357.16, -14361.59, 0.002222834, 0.0002412858, -418797.1, -72150.29, 0.0, 9.993465, 9.905457 
7.597654e+3, 2.7453437e+2, -334417.2, -395207.53, -14148.425, 0.0022280128, -0.00010751545, -331285.6, -81721.625, 0.0, 9.985286, 9.906292 
7.597528e+3, 2.844365e+2, -253923.67, -315094.94, -10397.697, 0.0022392627, 0.00034305808, -252204.61, -99681.42, 0.0, 9.977198, 9.897754 
7.597407e+3, 2.9433593e+2, -165638.9, -219596.8, -9888.738, 0.0022522802, -0.000092408365, -163883.72, -108375.28, 0.0, 9.969179, 9.899169 
7.5972927e+3, 3.042659e+2, -83431.75, -83546.195, -5204.152, 0.002224008, 0.00021399584, -78284.51, -78284.51, 0.0, 9.961145, 9.961029 
7.5971854e+3, 3.1422913e+2, -93916.39, -86184.62, -4592.217, 0.0021503582, -0.00039082937, -84047.71, -84047.71, 0.0, 9.953041, 9.963175 
7.6097596e+3, 1.2578109e+2, -1579839.0, -1711966.4, -424.4426, 0.0022442285, 0.00017963271, -1579837.6, 127508.945, 0.0, 10.115796, 9.939279 
7.6096416e+3, 1.3572022e+2, -1496675.1, -1622856.8, -1089.9542, 0.002260456, 0.000014490302, -1496665.8, 113277.21, 0.0, 10.107048, 9.9387245 
7.6095164e+3, 1.4565715e+2, -1415890.1, -1538555.9, -6577.805, 0.0022533298, 0.00028032903, -1415538.4, 97022.75, 0.0, 10.098215, 9.93502 
7.609384e+3, 1.5559213e+2, -1332379.6, -1448852.5, -7058.563, 0.0022465675, 0.000083465144, -1331953.4, 83244.81, 0.0, 10.089387, 9.934665 
7.6092476e+3, 1.6552494e+2, -1251429.9, -1364372.6, -10960.095, 0.0022480653, 0.00016327584, -1250376.1, 67480.47, 0.0, 10.080523, 9.930905 
7.609106e+3, 1.754559e+2, -1167591.3, -1274264.6, -11289.036, 0.0022531569, 0.000058009704, -1166409.6, 54123.555, 0.0, 10.071685, 9.930593 
7.608961e+3, 1.8538457e+2, -1086569.1, -1189863.6, -13860.854, 0.002249214, 0.00020345158, -1084741.5, 38490.727, 0.0, 10.0628195, 9.926561 
7.6088136e+3, 1.9531116e+2, -1002420.75, -1099388.3, -14091.362, 0.0022483105, 0.000071343966, -1000414.5, 25537.145, 0.0, 10.053971, 9.926265 
7.6086646e+3, 2.0523538e+2, -921260.5, -1014989.5, -15369.73, 0.002245343, 0.0001933492, -918804.5, 9889.804, 0.0, 10.045125, 9.921972 
7.6085144e+3, 2.151574e+2, -836749.6, -924137.94, -15536.449, 0.0022411204, -0.000009651538, -834069.6, -2611.3296, 0.0, 10.036305, 9.921675 
7.6083636e+3, 2.2507682e+2, -755606.2, -840125.06, -15533.769, 0.0022416401, 0.00024039675, -752841.6, -18593.664, 0.0, 10.027505, 9.916863 
7.608214e+3, 2.3499386e+2, -670649.5, -748762.75, -15556.5625, 0.0022510302, 0.000031892992, -667665.4, -30604.361, 0.0, 10.018726, 9.91664 
7.608066e+3, 2.4490799e+2, -589494.4, -664870.3, -14211.497, 0.0022501792, 0.00019018745, -586903.94, -47001.406, 0.0, 10.009872, 9.911527 
7.6079196e+3, 2.5481987e+2, -504181.56, -572707.6, -14153.706, 0.0022352054, -0.0000071281265, -501373.28, -58607.164, 0.0, 10.00093, 9.911671 
7.607777e+3, 2.6472864e+2, -423115.4, -489353.88, -11356.438, 0.0022347835, 0.00024809287, -421222.47, -75562.234, 0.0, 9.992112, 9.905887 
7.6076376e+3, 2.746355e+2, -336630.1, -395623.28, -11062.087, 0.0022481796, -0.00007618937, -334624.03, -86050.93, 0.0, 9.983396, 9.906706 
7.607504e+3, 2.8453815e+2, -256708.0, -315392.8, -7192.143, 0.0022496749, 0.0003368044, -255839.42, -104312.54, 0.0, 9.97477, 9.89851 
7.607375e+3, 2.9443827e+2, -169243.64, -220294.55, -6689.617, 0.0022312328, -0.00020651105, -168381.61, -113875.96, 0.0, 9.966201, 9.8999195 
7.607252e+3, 3.043691e+2, -87922.42, -84821.58, -2042.5892, 0.002236581, 0.000288773, -83807.63, -83807.63, 0.0, 9.957632, 9.961648 
7.607137e+3, 3.1433335e+2, -99217.445, -87889.48, -1372.0096, 0.00227692, 0.0002445358, -87725.67, -87725.67, 0.0, 9.949006, 9.9637575 
7.6198757e+3, 1.2589614e+2, -1580244.3, -1713657.3, -2705.6155, 0.002264221, 0.00015659591, -1580189.5, 126029.57, 0.0, 10.116122, 9.937984 
7.619749e+3, 1.3583404e+2, -1497093.4, -1624510.3, -3416.1494, 0.0022647583, 0.000056210018, -1497001.8, 111825.74, 0.0, 10.107341, 9.9374695 
7.619614e+3, 1.4576985e+2, -1416150.3, -1539838.6, -8956.018, 0.0022531634, 0.00031571806, -1415505.1, 95951.58, 0.0, 10.098466, 9.934015 
7.6194733e+3, 1.5570378e+2, -1332679.0, -1450118.1, -9480.644, 0.0022552593, 0.000054269418, -1331918.6, 82185.516, 0.0, 10.089592, 9.933693 
7.619328e+3, 1.6563573e+2, -1251593.5, -1365315.4, -13419.373, 0.0022623565, 0.00013849541, -1250031.4, 66739.38, 0.0, 10.080692, 9.930154 
7.619177e+3, 1.7556599e+2, -1167772.4, -1275185.3, -13800.195, 0.0022676948, 0.00008633797, -1166027.8, 53426.625, 0.0, 10.071827, 9.929869 
7.619024e+3, 1.8549404e+2, -1086639.3, -1190540.8, -16417.402, 0.0022565227, 0.00023447309, -1084106.9, 38052.664, 0.0, 10.062944, 9.926 
7.618867e+3, 1.9542003e+2, -1002496.25, -1100055.6, -16691.008, 0.002241323, 0.00005774737, -999719.7, 25165.043, 0.0, 10.054086, 9.925715 
7.618709e+3, 2.053438e+2, -921221.44, -1015395.94, -18012.682, 0.0022437053, 0.00017680785, -917893.75, 9738.119, 0.0, 10.04522, 9.921599 
7.61855e+3, 2.1526547e+2, -836759.44, -924577.8, -18224.191, 0.0022624163, 0.000010726646, -833127.75, -2728.3772, 0.0, 10.036373, 9.921296 
7.618391e+3, 2.2518472e+2, -755353.8, -839993.3, -18277.316, 0.0022610684, 0.0002688594, -751575.6, -18384.914, 0.0, 10.02755, 9.916864 
7.6182324e+3, 2.3510171e+2, -670446.2, -748677.5, -18373.701, 0.0022439335, 0.000031081025, -666345.8, -30341.709, 0.0, 10.018748, 9.916626 
7.6180756e+3, 2.4501592e+2, -589175.6, -664546.8, -17171.377, 0.0022385991, 0.0001781501, -585447.94, -46602.95, 0.0, 10.0098915, 9.911671 
7.6179206e+3, 2.549279e+2, -503859.47, -572410.1, -17191.953, 0.0022415714, -0.000013277753, -499789.5, -58082.195, 0.0, 10.000965, 9.911795 
7.6177686e+3, 2.6483703e+2, -422639.0, -488489.75, -14405.424, 0.0022517857, 0.0002697333, -419625.56, -75027.73, 0.0, 9.992044, 9.906434 
7.617621e+3, 2.7474448e+2, -336494.1, -394948.63, -14202.336, 0.0022710243, -0.0000098864175, -333226.13, -85721.03, 0.0, 9.983113, 9.90724 
7.6174784e+3, 2.8464776e+2, -256410.27, -314289.88, -10278.369, 0.002253961, 0.00032901866, -254639.2, -104186.46, 0.0, 9.974453, 9.899343 
7.617341e+3, 2.945485e+2, -168771.92, -219124.39, -9722.698, 0.0021893354, -0.00043313424, -166959.77, -113534.516, 0.0, 9.966011, 9.900736 
7.6172096e+3, 3.0448043e+2, -87304.98, -83732.02, -5105.878, 0.0022556866, 0.00047593226, -80109.11, -80109.11, 0.0, 9.95761, 9.962342 
7.617086e+3, 3.1444636e+2, -98309.164, -86692.09, -4570.189, 0.002491242, 0.0016457197, -85109.71, -85109.71, 0.0, 9.949194, 9.964427 
7.6299953e+3, 1.2602264e+2, -1569915.8, -1709344.6, 74.341125, 0.0022699786, 0.00018719395, -1569915.6, 135063.66, 0.0, 10.12311, 9.936684 
7.6298594e+3, 1.3595918e+2, -1487886.4, -1620782.8, -611.41754, 0.0022700706, 0.000016374495, -1487883.6, 119717.555, 0.0, 10.113615, 9.936208 
7.629716e+3, 1.4589387e+2, -1407786.1, -1536282.4, -6092.832, 0.00226176, 0.00027801076, -1407497.9, 102743.28, 0.0, 10.10406, 9.93301 
7.629566e+3, 1.5582684e+2, -1325303.4, -1447070.8, -6565.1772, 0.0022666783, 0.00007349698, -1324950.4, 87947.55, 0.0, 10.094553, 9.932721 
7.6294106e+3, 1.6575795e+2, -1244995.5, -1362488.3, -10405.634, 0.0022709426, 0.00015529661, -1244081.0, 71492.19, 0.0, 10.08506, 9.929359 
7.6292515e+3, 1.7568736e+2, -1162023.1, -1272785.1, -10733.623, 0.0022667393, 0.00006309469, -1160992.5, 57272.316, 0.0, 10.075645, 9.929107 
7.629088e+3, 1.8561475e+2, -1081572.8, -1188326.8, -13263.903, 0.0022581203, 0.00021157214, -1079949.4, 41027.17, 0.0, 10.06624, 9.925395 
7.628923e+3, 1.9554016e+2, -998188.3, -1098232.1, -13481.4, 0.0022559597, 0.00006586239, -996403.5, 27304.004, 0.0, 10.056893, 9.925126 
7.6287556e+3, 2.0546341e+2, -917605.2, -1013801.56, -14751.817, 0.0022575553, 0.00018644097, -915393.8, 11065.818, 0.0, 10.047521, 9.921129 
7.6285875e+3, 2.1538459e+2, -833948.3, -923408.6, -14918.284, 0.0022657274, 0.000002695114, -831526.1, -2294.0906, 0.0, 10.0381565, 9.920826 
7.6284194e+3, 2.2530347e+2, -753202.6, -838960.1, -14949.575, 0.0022605, 0.0002560893, -750671.25, -18644.28, 0.0, 10.028815, 9.916576 
7.6282513e+3, 2.3522016e+2, -669098.44, -748072.5, -15079.308, 0.0022456583, 0.000022055678, -666317.2, -31473.85, 0.0, 10.0195, 9.916328 
7.6280856e+3, 2.4513417e+2, -588480.94, -664116.1, -13942.547, 0.0022497433, 0.00018865537, -585992.6, -48306.46, 0.0, 10.01015, 9.911514 
7.627921e+3, 2.55046e+2, -503892.5, -572374.1, -14007.088, 0.002267522, 0.000034304674, -501138.28, -60588.3, 0.0, 10.000757, 9.911617 
7.62776e+3, 2.6495507e+2, -423812.53, -488682.7, -11493.391, 0.002262202, 0.00026416674, -421836.38, -78395.29, 0.0, 9.990937, 9.906559 
7.627603e+3, 2.748625e+2, -339726.94, -396184.28, -11406.489, 0.00223502, -0.00015290453, -337509.5, -91161.055, 0.0, 9.980649, 9.907349 
7.6274514e+3, 2.847668e+2, -259623.47, -313761.1, -6827.853, 0.0022448103, 0.0003327014, -258775.61, -109489.125, 0.0, 9.97128, 9.90096 
7.6273054e+3, 2.9466954e+2, -172007.64, -218602.23, -5818.9175, 0.0022839848, 0.000018337167, -171291.95, -119052.34, 0.0, 9.962821, 9.902334 
7.6271653e+3, 3.0460155e+2, -91459.13, -85784.516, -1051.7825, 0.0022317674, 0.00021170577, -85595.84, -85595.84, 0.0, 9.954718, 9.962077 
7.6270336e+3, 3.1456542e+2, -101576.305, -88419.516, -985.2697, 0.0021020263, -0.00068155373, -88346.14, -88346.14, 0.0, 9.94695, 9.964084 
7.640118e+3, 1.261566e+2, -1570258.5, -1710925.9, -2358.4104, 0.002280765, 0.00023231766, -1570218.9, 133447.67, 0.0, 10.123414, 9.935446 
7.639973e+3, 1.3609184e+2, -1488260.3, -1622328.4, -3086.7036, 0.0022816202, -0.000016642047, -1488189.3, 118111.9, 0.0, 10.113871, 9.935015 
7.63982e+3, 1.460255e+2, -1407983.4, -1537425.9, -8596.168, 0.0022733386, 0.00025299835, -1407415.0, 101536.26, 0.0, 10.104276, 9.932087 
7.639661e+3, 1.559576e+2, -1325513.0, -1448176.4, -9128.728, 0.0022802365, 0.00010875379, -1324837.4, 86779.31, 0.0, 10.094737, 9.931838 
7.6394963e+3, 1.6588792e+2, -1245087.0, -1363323.3, -12979.283, 0.0022790888, 0.0001876078, -1243679.0, 70620.49, 0.0, 10.085218, 9.928659 
7.6393265e+3, 1.7581661e+2, -1162122.4, -1273585.0, -13365.792, 0.0022618496, 0.000045102024, -1160542.0, 56456.402, 0.0, 10.075779, 9.928442 
7.639155e+3, 1.857434e+2, -1081592.3, -1188915.3, -15926.947, 0.002258448, 0.00019535773, -1079278.6, 40437.14, 0.0, 10.066345, 9.924881 
7.63898e+3, 1.9566834e+2, -998239.2, -1098809.6, -16206.384, 0.002273323, 0.00008859222, -995692.1, 26759.203, 0.0, 10.056965, 9.924638 
7.638803e+3, 2.0559117e+2, -917588.4, -1014231.7, -17541.568, 0.0022716231, 0.00021489742, -914502.94, 10704.672, 0.0, 10.047583, 9.920741 
7.638626e+3, 2.1551193e+2, -833919.44, -923828.3, -17760.283, 0.00225992, 0.0000010989633, -830538.3, -2554.1702, 0.0, 10.038224, 9.920444 
7.6384485e+3, 2.254305e+2, -753108.9, -839216.9, -17841.027, 0.002253652, 0.00024494628, -749558.7, -18776.44, 0.0, 10.028868, 9.916307 
7.638271e+3, 2.3534691e+2, -669069.94, -748379.5, -18024.66, 0.0022486264, 0.0000183641, -665165.7, -31564.416, 0.0, 10.019517, 9.916048 
7.6380956e+3, 2.4526075e+2, -588315.1, -664179.4, -16963.625, 0.0022634051, 0.00022029014, -584694.75, -48249.004, 0.0, 10.010181, 9.911385 
7.637922e+3, 2.551725e+2, -503677.16, -572443.75, -17068.865, 0.0022952561, 0.00011986466, -499673.5, -60362.85, 0.0, 10.000835, 9.911462 
7.637751e+3, 2.6508144e+2, -423212.94, -488326.06, -14974.744, 0.002264291, 0.0002542386, -419934.16, -77731.22, 0.0, 9.9911585, 9.9066105 
7.6375836e+3, 2.7498868e+2, -338766.34, -395680.3, -15029.627, 0.002175093, -0.0004152392, -335041.22, -89929.195, 0.0, 9.981125, 9.907379 
7.637422e+3, 2.8489423e+2, -257783.1, -310463.28, -10034.692, 0.0022294908, 0.0003611014, -255936.39, -107898.99, 0.0, 9.971361, 9.903039 
7.6372683e+3, 2.9479977e+2, -171682.13, -216060.81, -9352.341, 0.0024329037, 0.0009241869, -169791.73, -118828.57, 0.0, 9.961905, 9.904421 
7.63712e+3, 3.047313e+2, -93010.695, -87250.64, -4186.2983, 0.0021704854, -0.00045036047, -85049.36, -85049.36, 0.0, 9.953875, 9.961456 
7.63698e+3, 3.1469092e+2, -101824.016, -89371.97, -3731.3313, 0.0014057084, -0.005773292, -88339.46, -88339.46, 0.0, 9.947037, 9.963346 
7.650245e+3, 1.2630297e+2, -1559758.6, -1706325.5, 676.44183, 0.002292212, 0.00018317721, -1559755.5, 142476.66, 0.0, 10.1304035, 9.934258 
7.65009e+3, 1.3623708e+2, -1478927.0, -1618333.3, 0.5633217, 0.0022893476, 0.000017791906, -1478927.0, 125950.695, 0.0, 10.120113, 9.933869 
7.649927e+3, 1.4616972e+2, -1399546.9, -1533701.9, -5381.6436, 0.0022781403, 0.00027864348, -1399331.3, 108206.65, 0.0, 10.109838, 9.931135 
7.649758e+3, 1.5610082e+2, -1318027.5, -1444929.4, -5852.4624, 0.0022835855, 0.000081086655, -1317758.1, 92454.945, 0.0, 10.099682, 9.93093 
7.649583e+3, 1.6603035e+2, -1238345.0, -1360282.1, -9554.715, 0.0022849836, 0.00016163166, -1237600.9, 75302.88, 0.0, 10.089594, 9.927925 
7.649405e+3, 1.7595834e+2, -1156176.9, -1270939.6, -9872.36, 0.0022705104, 0.000060872197, -1155333.9, 60275.664, 0.0, 10.079636, 9.927743 
7.6492226e+3, 1.8588449e+2, -1076357.3, -1186537.1, -12323.511, 0.0022660661, 0.00021031876, -1074995.8, 43337.316, 0.0, 10.069692, 9.924281 
7.649038e+3, 1.9580881e+2, -993751.75, -1096799.8, -12544.65, 0.0022799978, 0.0000777524, -992246.56, 28828.213, 0.0, 10.059821, 9.9240675 
7.648852e+3, 2.0573114e+2, -913712.9, -1012424.9, -13777.573, 0.0022742667, 0.00020103734, -911826.0, 12009.997, 0.0, 10.04999, 9.920277 
7.6486653e+3, 2.1565142e+2, -830669.25, -922340.0, -13925.738, 0.0022575164, -0.000004801305, -828600.5, -1983.4539, 0.0, 10.040227, 9.91999 
7.648478e+3, 2.255696e+2, -750510.06, -837976.25, -13961.884, 0.0022589278, 0.00025925436, -748335.44, -18916.574, 0.0, 10.030408, 9.915935 
7.6482916e+3, 2.3548567e+2, -667250.3, -747548.5, -14088.895, 0.0022747754, 0.00007447136, -664850.06, -32608.572, 0.0, 10.020555, 9.9156685 
7.648106e+3, 2.453992e+2, -586936.1, -663320.1, -12909.502, 0.0022700394, 0.00020995847, -584813.3, -49724.4, 0.0, 10.010827, 9.911227 
7.6479226e+3, 2.5531062e+2, -502779.03, -571875.06, -12952.869, 0.0022487275, -0.000052442196, -500430.7, -62473.742, 0.0, 10.001185, 9.911263 
7.6477426e+3, 2.652192e+2, -422873.94, -488792.63, -11102.134, 0.0022620643, 0.0002818751, -421054.34, -80201.61, 0.0, 9.991472, 9.905768 
7.6475656e+3, 2.7512604e+2, -338105.34, -395994.28, -11504.851, 0.00229866, 0.00013952026, -335902.7, -92136.66, 0.0, 9.981655, 9.906546 
7.6473933e+3, 2.8503048e+2, -260494.61, -312106.3, -8235.619, 0.0022642645, 0.00036287983, -259212.33, -112510.09, 0.0, 9.969482, 9.902536 
7.647226e+3, 2.9493427e+2, -181990.27, -221406.7, -8699.856, 0.0021827037, -0.00063899613, -180155.47, -130510.24, 0.0, 9.954951, 9.903974 
7.64707e+3, 3.0486953e+2, -100478.72, -86642.04, 173.64316, 0.002326321, 0.0007205315, -86639.86, -86639.86, 0.0, 9.946984, 9.96497 
7.646927e+3, 3.1483838e+2, -101140.19, -84818.38, 2798.371, 0.0026594277, 0.0024942728, -84351.94, -84351.94, 0.0, 9.945638, 9.966774 
7.660376e+3, 1.2645747e+2, -1560010.3, -1707693.0, -1904.738, 0.0023070846, 0.00015780961, -1559985.8, 140732.38, 0.0, 10.130657, 9.933148 
7.66021e+3, 1.3639055e+2, -1479193.5, -1619651.4, -2646.9143, 0.002303911, 0.00006937652, -1479143.6, 124230.22, 0.0, 10.120327, 9.932811 
7.660037e+3, 1.4632224e+2, -1399672.3, -1534704.8, -8011.9023, 0.0022834328, 0.00031839742, -1399198.5, 106844.805, 0.0, 10.110022, 9.930289 
7.659857e+3, 1.5625244e+2, -1318140.3, -1445869.8, -8542.457, 0.0022868973, 0.000060295788, -1317571.5, 91155.69, 0.0, 10.099846, 9.930135 
7.659673e+3, 1.661813e+2, -1238358.0, -1360972.9, -12227.154, 0.0022918805, 0.00015011858, -1237150.6, 74273.875, 0.0, 10.089727, 9.927304 
7.659484e+3, 1.7610869e+2, -1156212.9, -1271597.0, -12619.266, 0.00228139, 0.00009699263, -1154848.8, 59287.203, 0.0, 10.079732, 9.927163 
7.659292e+3, 1.8603434e+2, -1076345.0, -1187077.6, -15097.734, 0.002273945, 0.00024346179, -1074323.4, 42541.227, 0.0, 10.069775, 9.923785 
7.659098e+3, 1.9595812e+2, -993710.5, -1097281.3, -15387.295, 0.0022797491, 0.00007360746, -991472.8, 28138.707, 0.0, 10.059903, 9.923613 
7.6589024e+3, 2.0588006e+2, -913634.2, -1012774.3, -16661.72, 0.002272767, 0.00019883267, -910908.9, 11467.596, 0.0, 10.050045, 9.919923 
7.658705e+3, 2.1580002e+2, -830648.9, -922695.1, -16887.158, 0.0022546898, 0.0000057159773, -827648.5, -2487.5974, 0.0, 10.040232, 9.919661 
7.6585084e+3, 2.2571795e+2, -750459.8, -838246.56, -17024.91, 0.002265229, 0.00029386627, -747273.75, -19308.457, 0.0, 10.0304, 9.9156685 
7.658312e+3, 2.3563376e+2, -667186.44, -747810.1, -17200.656, 0.0022994913, 0.00015832856, -663670.1, -32879.863, 0.0, 10.0205555, 9.915407 
7.6581174e+3, 2.4554707e+2, -586861.1, -663332.5, -16030.326, 0.0022662533, 0.00019812115, -583636.7, -49996.848, 0.0, 10.010733, 9.911178 
7.657924e+3, 2.5545824e+2, -503020.66, -572124.2, -16144.492, 0.0021820266, -0.0003159394, -499434.9, -62924.39, 0.0, 10.000917, 9.91115 
7.657734e+3, 2.6536652e+2, -423749.94, -490410.75, -14243.479, 0.0022604545, 0.00035534892, -420834.06, -81424.75, 0.0, 9.99124, 9.904737 
7.657547e+3, 2.7527297e+2, -338747.66, -397552.66, -14459.765, 0.0024813465, 0.0011093852, -335384.47, -93058.375, 0.0, 9.981596, 9.905453 
7.657362e+3, 2.851753e+2, -260949.83, -314095.47, -12749.99, 0.0022985372, 0.00028583567, -258049.31, -112765.88, 0.0, 9.9697, 9.900984 
7.6571804e+3, 2.9507503e+2, -181579.38, -223011.14, -13087.536, 0.0017551603, -0.003697631, -177791.56, -129525.92, 0.0, 9.955759, 9.902378 
7.6570183e+3, 3.0501693e+2, -94617.305, -77698.91, -518.9099, 0.0026234551, 0.0034780023, -77683.01, -77683.01, 0.0, 9.948304, 9.970368 
7.656875e+3, 3.1500342e+2, -95708.54, -76015.56, -467.9059, 0.004899151, 0.02035886, -76004.45, -76004.45, 0.0, 9.946635, 9.972332 
7.6705104e+3, 1.2662567e+2, -1549526.3, -1702934.9, 1397.334, 0.0023128355, 0.00019046113, -1549513.5, 149556.22, 0.0, 10.13754, 9.932039 
7.6703334e+3, 1.365576e+2, -1469881.0, -1615484.0, 712.201, 0.0023158034, 0.000035133646, -1469877.5, 131859.33, 0.0, 10.12645, 9.931759 
7.67015e+3, 1.4648835e+2, -1391213.0, -1530750.6, -4442.817, 0.0022894656, 0.0002843133, -1391071.6, 113343.65, 0.0, 10.115476, 9.92946 
7.6699597e+3, 1.5641779e+2, -1310583.3, -1442364.0, -4885.2725, 0.0022843264, 0.00007561766, -1310402.5, 96704.484, 0.0, 10.104712, 9.92935 
7.6697654e+3, 1.6634592e+2, -1231567.9, -1357765.5, -8376.567, 0.0022965986, 0.00017045464, -1231014.4, 78796.85, 0.0, 10.094046, 9.926621 
7.6695657e+3, 1.7627262e+2, -1150177.4, -1268749.6, -8689.474, 0.0022971109, 0.00009659738, -1149544.0, 62985.586, 0.0, 10.08355, 9.926527 
7.669364e+3, 1.8619767e+2, -1070952.0, -1184498.3, -10997.863, 0.002280342, 0.00022201071, -1069896.6, 45367.41, 0.0, 10.073145, 9.923216 
7.66916e+3, 1.9612086e+2, -988914.1, -1094984.5, -11209.593, 0.0022679325, 0.0000337607, -987742.44, 30274.207, 0.0, 10.062877, 9.923079 
7.6689535e+3, 2.0604236e+2, -909507.2, -1010811.6, -12398.014, 0.002272881, 0.0002229025, -908011.94, 12774.145, 0.0, 10.052577, 9.919407 
7.668747e+3, 2.159619e+2, -827208.25, -921049.94, -12572.015, 0.0022879736, 0.00015178107, -825553.2, -1978.5415, 0.0, 10.042304, 9.919186 
7.668539e+3, 2.2587928e+2, -747523.56, -836686.6, -12615.6455, 0.0022695896, 0.00025102592, -745772.94, -19388.742, 0.0, 10.032068, 9.915348 
7.668333e+3, 2.3579445e+2, -664799.75, -746527.7, -12699.369, 0.0022378396, -0.0002794246, -662871.94, -33656.332, 0.0, 10.021864, 9.915092 
7.668128e+3, 2.4570797e+2, -585388.94, -662358.06, -11560.734, 0.002269491, 0.00029737613, -583690.0, -51626.887, 0.0, 10.0113735, 9.911001 
7.667925e+3, 2.556199e+2, -502905.8, -571779.2, -11575.916, 0.002340115, 0.0009894174, -501012.22, -66086.02, 0.0, 10.000643, 9.911021 
7.667725e+3, 2.655276e+2, -422828.53, -488015.88, -8652.189, 0.0022532016, 0.00018107524, -421699.7, -83869.086, 0.0, 9.99081, 9.906007 
7.6675284e+3, 2.754324e+2, -337232.0, -394993.8, -7805.47, 0.0020658248, -0.0025892854, -336195.8, -95432.13, 0.0, 9.981615, 9.906558 
7.667332e+3, 2.8533855e+2, -259608.42, -312837.63, -6615.076, 0.0023102933, 0.000647685, -258798.66, -115115.164, 0.0, 9.970062, 9.901002 
7.667138e+3, 2.9524657e+2, -179875.7, -221957.42, -6014.4946, 0.0028635066, 0.006943664, -179032.97, -132448.05, 0.0, 9.956532, 9.902034 
7.6669675e+3, 3.0515864e+2, -108044.89, -111810.66, 4002.6335, 0.0015620597, -0.007120265, -105504.39, -105504.39, 0.0, 9.951055, 9.945878 
7.666821e+3, 3.1509662e+2, -105799.12, -110128.51, -11693.59, 0.00014870676, -0.020735435, -96071.555, -96071.555, 0.0, 9.952337, 9.946981 
7.6806474e+3, 1.2680267e+2, -1549745.9, -1704144.5, -1341.711, 0.0023256291, 0.00024425617, -1549734.3, 147600.94, 0.0, 10.1377125, 9.931037 
7.68046e+3, 1.3673353e+2, -1470048.6, -1616589.3, -2079.9238, 0.0023319547, 0.000019243023, -1470019.1, 129993.484, 0.0, 10.126615, 9.930823 
7.6802653e+3, 1.4666352e+2, -1391226.1, -1531510.8, -7162.2607, 0.0022954075, 0.0002727936, -1390861.5, 111837.41, 0.0, 10.115613, 9.928757 
7.6800644e+3, 1.5659228e+2, -1310609.4, -1443075.3, -7686.1426, 0.0022864381, 0.00010947453, -1310164.9, 95232.016, 0.0, 10.104813, 9.928698 
7.679859e+3, 1.6651984e+2, -1231522.0, -1358328.3, -11136.516, 0.002304519, 0.00021036182, -1230551.4, 77555.42, 0.0, 10.094142, 9.926071 
7.6796496e+3, 1.7644598e+2, -1150081.8, -1269231.5, -11528.192, 0.0023074648, 0.000106493644, -1148976.6, 61854.17, 0.0, 10.0836525, 9.926027 
7.679437e+3, 1.8637057e+2, -1070839.1, -1184909.5, -13837.496, 0.0022843783, 0.00021593158, -1069184.5, 44385.273, 0.0, 10.07323, 9.922776 
7.679222e+3, 1.9629331e+2, -988823.25, -1095360.4, -14145.12, 0.0022540397, 0.000011017119, -986977.2, 29349.617, 0.0, 10.062925, 9.922683 
7.6790065e+3, 2.0621447e+2, -909430.1, -1011216.2, -15415.393, 0.0022732045, 0.00027158723, -907146.7, 11952.743, 0.0, 10.052624, 9.918999 
7.678789e+3, 2.1613371e+2, -827070.2, -921362.9, -15665.7705, 0.0023206866, 0.0003402522, -824535.6, -2644.7405, 0.0, 10.042364, 9.918833 
7.678572e+3, 2.2605067e+2, -747324.8, -836786.5, -15808.751, 0.0022661537, 0.00019824665, -744613.44, -19908.725, 0.0, 10.032087, 9.915159 
7.6783544e+3, 2.3596522e+2, -664700.2, -746650.94, -16025.852, 0.0021517803, -0.00085758814, -661677.75, -34135.59, 0.0, 10.021807, 9.914933 
7.67814e+3, 2.4587929e+2, -585095.3, -662250.5, -15184.769, 0.0022758078, 0.00049483683, -582214.4, -51830.082, 0.0, 10.011378, 9.910963 
7.677926e+3, 2.5579256e+2, -502261.47, -571305.56, -15256.066, 0.0025645855, 0.0029224716, -499040.7, -65806.57, 0.0, 10.000799, 9.911153 
7.677716e+3, 2.656997e+2, -421334.38, -484589.47, -12153.444, 0.0022154371, -0.00023953365, -419079.66, -82935.38, 0.0, 9.990462, 9.908338 
7.677509e+3, 2.756023e+2, -337225.47, -392421.25, -11832.241, 0.0014057043, -0.008589609, -334795.94, -95697.164, 0.0, 9.980333, 9.908818 
7.6773024e+3, 2.855158e+2, -258858.42, -311458.63, -12213.73, 0.0023655167, 0.0017341578, -256160.75, -114213.57, 0.0, 9.969879, 9.901918 
7.677096e+3, 2.9543898e+2, -176877.4, -221507.56, -11267.355, 0.00472388, 0.025762212, -174194.16, -129494.17, 0.0, 9.95873, 9.901183 
7.676917e+3, 3.052972e+2, -137850.11, -172934.34, 5045.119, -0.00043806154, -0.028455194, -137139.03, -137139.03, 0.0, 9.950937, 9.905132 
7.676771e+3, 3.1522325e+2, -72308.28, -27474.72, -6191.407, -0.0016890087, -0.0073543545, -26635.416, -26635.416, 0.0, 9.94657, 10.005671 
7.6907885e+3, 1.2699436e+2, -1539381.6, -1699132.1, 2227.2075, 0.0023412395, 0.0001950028, -1539350.6, 156106.1, 0.0, 10.144347, 9.930129 
7.69059e+3, 1.3692439e+2, -1460826.0, -1612152.5, 1586.8151, 0.0023263635, 0.000055591732, -1460809.4, 137333.03, 0.0, 10.132506, 9.929969 
7.690383e+3, 1.468536e+2, -1382910.1, -1527411.3, -3211.348, 0.0022958703, 0.00030501845, -1382838.9, 117997.29, 0.0, 10.120849, 9.9280405 
7.6901716e+3, 1.5678161e+2, -1303154.4, -1439389.3, -3628.4546, 0.0023085384, 0.00009959153, -1303057.9, 100483.71, 0.0, 10.109478, 9.928036 
7.689955e+3, 1.6670856e+2, -1224751.0, -1354931.4, -6797.387, 0.0023168745, 0.0001857096, -1224397.1, 81860.4, 0.0, 10.098331, 9.925479 
7.689735e+3, 1.7663409e+2, -1143906.6, -1266116.5, -7090.3086, 0.002290407, 0.00008882391, -1143496.6, 65490.48, 0.0, 10.087447, 9.925476 
7.6895124e+3, 1.8655817e+2, -1065316.8, -1182192.1, -9220.521, 0.002277214, 0.0002419261, -1064593.9, 47137.406, 0.0, 10.076626, 9.922184 
7.6892865e+3, 1.9648038e+2, -983851.1, -1092882.0, -9458.814, 0.0022792218, 0.00009064458, -983036.6, 31457.082, 0.0, 10.065946, 9.922143 
7.68906e+3, 2.0640092e+2, -904983.6, -1009038.8, -10599.654, 0.0022854288, 0.0002325152, -903914.9, 13357.5205, 0.0, 10.055316, 9.918441 
7.688832e+3, 2.1631946e+2, -823051.3, -919383.94, -10790.552, 0.0023019463, 0.00011993731, -821857.4, -1786.6836, 0.0, 10.044769, 9.9183035 
7.688605e+3, 2.2623609e+2, -744041.9, -835316.8, -10976.669, 0.0022590803, 0.00028114274, -742740.44, -19852.668, 0.0, 10.03407, 9.914525 
7.6883775e+3, 2.3615044e+2, -662161.94, -745519.2, -11223.596, 0.0021782327, -0.00023714338, -660677.2, -34949.99, 0.0, 10.023286, 9.914348 
7.6881516e+3, 2.4606337e+2, -582794.6, -661101.5, -10411.188, 0.002284839, 0.00033049102, -581434.06, -52853.668, 0.0, 10.012646, 9.910506 
7.6879275e+3, 2.5597498e+2, -499983.2, -570157.7, -10594.16, 0.0025228756, 0.0012752165, -498418.66, -66972.22, 0.0, 10.002048, 9.910716 
7.687706e+3, 2.6588327e+2, -422401.97, -485241.47, -8806.781, 0.002200625, 0.00009962105, -421191.06, -86845.59, 0.0, 9.9895315, 9.907835 
7.687487e+3, 2.7578864e+2, -343865.94, -395615.56, -9322.958, 0.001463897, -0.0042684264, -342237.6, -104964.36, 0.0, 9.975626, 9.908562 
7.6872724e+3, 2.8569907e+2, -256178.2, -307415.63, -6656.162, 0.0023980688, 0.0011017082, -255327.64, -115176.71, 0.0, 9.970402, 9.903925 
7.6870626e+3, 2.9561576e+2, -157327.06, -211602.3, -5426.3467, 0.004673709, 0.014772866, -156789.86, -113823.28, 0.0, 9.971544, 9.901069 
7.686866e+3, 3.054787e+2, -159386.86, -208991.42, 6076.5073, -0.0005262725, -0.018632099, -158653.34, -158653.34, 0.0, 9.946954, 9.882484 
7.686703e+3, 3.1540295e+2, -58982.465, 105587.87, 4503.9814, 0.011021602, 0.024367265, 105711.05, 105711.05, 0.0, 9.900794, 10.119226 
7.700933e+3, 1.2719555e+2, -1539457.6, -1699980.1, -629.26373, 0.002357723, 0.0001871358, -1539455.1, 154029.97, 0.0, 10.144438, 9.929352 
7.700722e+3, 1.3712485e+2, -1460906.8, -1612937.3, -1354.2297, 0.0023305037, 0.000108269895, -1460894.8, 135283.19, 0.0, 10.132559, 9.929252 
7.7005047e+3, 1.4705345e+2, -1382865.3, -1527955.5, -6026.8926, 0.0022997533, 0.0003574261, -1382615.3, 116262.336, 0.0, 10.120901, 9.927481 
7.700281e+3, 1.5698087e+2, -1303032.6, -1439828.3, -6520.071, 0.0023281744, 0.000103692706, -1302722.5, 98866.4, 0.0, 10.109549, 9.927535 
7.7000535e+3, 1.6690737e+2, -1224591.0, -1355281.8, -9591.139, 0.002327303, 0.00018199715, -1223890.9, 80418.36, 0.0, 10.098399, 9.925045 
7.699823e+3, 1.7683248e+2, -1143743.1, -1266420.4, -9982.365, 0.0022716795, 0.00009367598, -1142936.1, 64106.895, 0.0, 10.087495, 9.925085 
7.699589e+3, 1.8675618e+2, -1065195.0, -1182603.4, -12114.653, 0.0022705344, 0.00029320765, -1063958.0, 45832.85, 0.0, 10.076686, 9.921726 
7.6993525e+3, 1.96678e+2, -983654.44, -1093187.0, -12442.614, 0.00230415, 0.00020175247, -982258.75, 30298.434, 0.0, 10.066024, 9.921748 
7.699115e+3, 2.0659803e+2, -904828.3, -1009424.5, -13642.359, 0.0022934098, 0.00019992438, -903078.25, 12262.592, 0.0, 10.055394, 9.918003 
7.698877e+3, 2.1651593e+2, -822916.4, -919764.5, -13950.358, 0.0022668948, -0.0001521242, -820947.0, -2801.7017, 0.0, 10.044827, 9.917885 
7.6986384e+3, 2.2643241e+2, -743963.25, -835925.94, -14316.89, 0.0022500607, 0.00044146675, -741785.94, -20822.2, 0.0, 10.034174, 9.91394 
7.6984006e+3, 2.3634678e+2, -661929.94, -745997.9, -14631.336, 0.0022282554, 0.00067966536, -659456.25, -35653.25, 0.0, 10.023468, 9.913813 
7.698164e+3, 2.4625826e+2, -582601.3, -661510.1, -13901.214, 0.0022820926, -0.0000101091, -580224.0, -53553.35, 0.0, 10.012767, 9.910055 
7.697929e+3, 2.5616747e+2, -500075.84, -570813.9, -14331.067, 0.0023973903, -0.0014540452, -497282.75, -67722.74, 0.0, 10.002018, 9.910183 
7.6976955e+3, 2.660777e+2, -421977.25, -486641.03, -13771.685, 0.0021994265, 0.0010117362, -419166.44, -86726.41, 0.0, 9.99022, 9.906443 
7.697463e+3, 2.7598757e+2, -341301.6, -395530.1, -13879.3, 0.0017623112, 0.00395602, -337955.75, -102631.97, 0.0, 9.977577, 9.907539 
7.697243e+3, 2.8589043e+2, -253988.22, -303362.97, -6696.286, 0.002362583, -0.0012252356, -253096.17, -114821.17, 0.0, 9.970602, 9.906521 
7.697033e+3, 2.9579175e+2, -162847.77, -214005.97, -7408.5176, 0.0038475976, -0.0097474335, -161796.5, -120555.89, 0.0, 9.967672, 9.90139 
7.696813e+3, 3.0569044e+2, -171799.77, -232387.97, -10967.032, 0.0005293148, 0.01100328, -169875.73, -169875.73, 0.0, 9.945156, 9.867555 
7.696596e+3, 3.1559703e+2, -82924.27, 41109.156, -8951.253, 0.000785618, 0.050826266, 41751.82, 41751.82, 0.0, 9.906733, 10.070912 
7.7110803e+3, 1.2741274e+2, -1529447.0, -1694855.1, 3203.8193, 0.0023492558, 0.0002244046, -1529385.0, 161971.8, 0.0, 10.150676, 9.928622 
7.7108574e+3, 1.3734125e+2, -1452064.8, -1608386.9, 2596.105, 0.002356974, 0.00006622032, -1452021.6, 142035.69, 0.0, 10.138027, 9.928586 
7.710628e+3, 1.472693e+2, -1374841.3, -1523684.9, -1654.1691, 0.002308542, 0.00032531234, -1374822.9, 121939.664, 0.0, 10.1257715, 9.926958 
7.710393e+3, 1.5719622e+2, -1295708.1, -1435884.1, -2008.5186, 0.00230531, 0.0001232077, -1295679.4, 103799.18, 0.0, 10.113952, 9.927064 
7.710154e+3, 1.6712227e+2, -1217928.6, -1351723.5, -4737.2554, 0.002322921, 0.00020333778, -1217761.1, 84442.26, 0.0, 10.102395, 9.924549 
7.709912e+3, 1.7704688e+2, -1137582.4, -1263086.8, -5013.472, 0.0023022222, 0.000100704594, -1137382.4, 67559.76, 0.0, 10.091151, 9.924634 
7.709667e+3, 1.8697008e+2, -1059554.3, -1179677.6, -6889.848, 0.0022861646, 0.0002843734, -1059160.4, 48534.465, 0.0, 10.08007, 9.921163 
7.7094203e+3, 1.9689131e+2, -978313.06, -1090381.5, -7123.771, 0.0022931495, 0.00019015516, -977862.06, 32604.68, 0.0, 10.0692, 9.921226 
7.7091724e+3, 2.0681074e+2, -900001.6, -1007100.3, -8206.077, 0.002277728, 0.00019984365, -899376.5, 13879.643, 0.0, 10.0583315, 9.917302 
7.708923e+3, 2.1672797e+2, -818437.9, -917599.56, -8468.559, 0.002257345, -0.00013898035, -817719.8, -1652.3928, 0.0, 10.04753, 9.9172125 
7.708674e+3, 2.2664374e+2, -739830.4, -834134.6, -8794.248, 0.0022742732, 0.0004632695, -739017.25, -20124.262, 0.0, 10.036738, 9.913108 
7.7084255e+3, 2.3655726e+2, -657919.0, -744262.8, -9090.208, 0.0022997991, 0.0007075053, -656972.3, -35231.96, 0.0, 10.02595, 9.912995 
7.7081776e+3, 2.4646775e+2, -579368.44, -660395.56, -8534.775, 0.0022508057, -0.00006941442, -578479.25, -53861.695, 0.0, 10.014834, 9.909059 
7.7079314e+3, 2.563759e+2, -497896.7, -570443.1, -9009.064, 0.0021849265, -0.0015956521, -496794.66, -69276.88, 0.0, 10.003488, 9.909017 
7.7076876e+3, 2.6628456e+2, -417728.25, -486709.56, -8447.782, 0.0022783356, 0.0012157398, -416708.78, -86295.74, 0.0, 9.993719, 9.904027 
7.707445e+3, 2.761924e+2, -331607.53, -393104.6, -9057.923, 0.0024025938, 0.0046148202, -330301.16, -96984.76, 0.0, 9.984777, 9.904982 
7.707213e+3, 2.8609067e+2, -256938.56, -309459.3, -4892.577, 0.0021656137, -0.0018180801, -256486.69, -120173.47, 0.0, 9.970351, 9.902144 
7.7069896e+3, 2.9598644e+2, -187621.06, -228856.84, -9064.56, 0.0019605993, -0.011995845, -185716.44, -146382.31, 0.0, 9.952012, 9.898883 
7.706758e+3, 3.059029e+2, -157336.0, -197737.69, -3094.2478, 0.002526966, 0.016970044, -157100.39, -157100.39, 0.0, 9.9426985, 9.890548 
7.706522e+3, 3.1572187e+2, -47081.246, 38168.152, 17449.02, 0.000470614, -0.078344196, 41601.387, 41601.387, 0.0, 9.939235, 10.050843 
7.7212316e+3, 1.276401e+2, -1529501.9, -1695417.6, 194.42522, 0.0023554522, 0.00028211338, -1529501.6, 159627.05, 0.0, 10.150604, 9.92806 
7.7209955e+3, 1.3756801e+2, -1452007.8, -1608809.9, -479.24707, 0.0023827066, 0.000058990827, -1452006.3, 139828.92, 0.0, 10.137987, 9.928097 
7.7207536e+3, 1.4749567e+2, -1374659.6, -1523871.4, -4498.4775, 0.0023100376, 0.00032821132, -1374524.1, 120019.96, 0.0, 10.125742, 9.926622 
7.720507e+3, 1.5742232e+2, -1295479.6, -1435984.0, -4946.158, 0.0022877855, 0.00016443571, -1295305.8, 101957.195, 0.0, 10.113922, 9.926788 
7.7202564e+3, 1.6734809e+2, -1217718.1, -1351894.5, -7545.9253, 0.0023248785, 0.00024717156, -1217295.1, 82695.37, 0.0, 10.10239, 9.924229 
7.720003e+3, 1.7727235e+2, -1137290.5, -1263158.9, -7923.7153, 0.0023292718, 0.00013328722, -1136793.6, 65938.89, 0.0, 10.091173, 9.924368 
7.719747e+3, 1.8719524e+2, -1059362.5, -1179970.1, -9760.967, 0.0022981497, 0.00029935536, -1058577.6, 46910.723, 0.0, 10.080109, 9.920759 
7.71949e+3, 1.9711606e+2, -978102.2, -1090625.3, -10102.71, 0.0022715006, 0.00019099546, -977202.3, 31061.932, 0.0, 10.069232, 9.920862 
7.7192307e+3, 2.0703508e+2, -899945.6, -1007680.0, -11253.55, 0.0022573294, 0.00023317225, -898782.7, 12275.223, 0.0, 10.058378, 9.916726 
7.718971e+3, 2.1695176e+2, -818348.0, -918133.06, -11601.205, 0.0022444502, -0.000078369776, -817016.94, -3142.3315, 0.0, 10.0475855, 9.916667 
7.718711e+3, 2.2686686e+2, -739929.3, -834991.1, -12022.64, 0.0022981532, 0.00048600824, -738432.4, -21725.775, 0.0, 10.03677, 9.912374 
7.7184516e+3, 2.3677957e+2, -658091.1, -745156.7, -12414.788, 0.0023761708, 0.00064574974, -656355.5, -36793.78, 0.0, 10.025931, 9.912266 
7.718193e+3, 2.4668929e+2, -579659.6, -661650.06, -12124.646, 0.002191983, -0.000057745303, -577904.2, -55457.445, 0.0, 10.014855, 9.908071 
7.717935e+3, 2.565966e+2, -498286.88, -572082.2, -12486.202, 0.0018989341, -0.0013537286, -496231.44, -70876.016, 0.0, 10.003598, 9.90774 
7.717681e+3, 2.6650295e+2, -419826.44, -490889.94, -11024.702, 0.0024152368, 0.0012654449, -418155.38, -89882.75, 0.0, 9.993476, 9.901276 
7.7174306e+3, 2.7640733e+2, -335167.3, -398761.16, -11763.711, 0.003309158, 0.0038834584, -333061.0, -101851.71, 0.0, 9.983855, 9.901558 
7.717183e+3, 2.8630042e+2, -262932.7, -320985.88, -9897.452, 0.0017749786, -0.0019303869, -261291.67, -127033.53, 0.0, 9.969624, 9.894625 
7.7169394e+3, 2.9619104e+2, -188123.81, -231646.8, -12533.607, -0.00091387535, -0.009474063, -184772.48, -147440.7, 0.0, 9.952374, 9.896528 
7.7167034e+3, 3.0612943e+2, -122588.53, -127429.1, -4319.124, 0.006035581, 0.015775247, -120057.8, -120057.8, 0.0, 9.943165, 9.937017 
7.7164626e+3, 3.1604674e+2, -102241.58, -73019.71, 3980.0698, 0.003112682, -0.008117784, -72487.32, -72487.32, 0.0, 9.937736, 9.975611 
7.7313846e+3, 1.278844e+2, -1520086.9, -1690141.1, 4288.8643, 0.002392648, 0.00022616863, -1519978.8, 166755.9, 0.0, 10.156209, 9.927646 
7.731136e+3, 1.3781199e+2, -1443664.5, -1604049.9, 3786.4675, 0.0023488468, 0.00011987672, -1443575.3, 145869.14, 0.0, 10.1428795, 9.927746 
7.7308816e+3, 1.4773934e+2, -1367115.0, -1519470.3, 320.70047, 0.00228808, 0.00036135578, -1367114.4, 125041.96, 0.0, 10.1301, 9.926334 
7.730623e+3, 1.5766566e+2, -1288522.4, -1431845.5, 47.679626, 0.0023301581, 0.00014705087, -1288522.4, 106356.055, 0.0, 10.117883, 9.92655 
7.7303606e+3, 1.6759112e+2, -1211317.1, -1348203.8, -2107.4514, 0.0023493296, 0.00022341355, -1211284.8, 86324.016, 0.0, 10.106072, 9.92386 
7.730096e+3, 1.7751506e+2, -1131142.9, -1259548.3, -2345.4702, 0.0022980706, 0.00013192646, -1131100.1, 69254.11, 0.0, 10.094669, 9.924052 
7.729829e+3, 1.8743753e+2, -1053627.1, -1176821.3, -3882.573, 0.0022780253, 0.0003034008, -1053504.9, 49609.055, 0.0, 10.083455, 9.920234 
7.729561e+3, 1.9735783e+2, -972500.06, -1087516.6, -4116.93, 0.0022951025, 0.00018819745, -972352.9, 33542.15, 0.0, 10.072481, 9.920371 
7.729291e+3, 2.0727625e+2, -894700.4, -1005040.2, -5103.9746, 0.0022840828, 0.00025182153, -894464.8, 14229.54, 0.0, 10.0615225, 9.915995 
7.72902e+3, 2.1719223e+2, -813186.56, -915476.3, -5364.9326, 0.0022503138, -0.000027682512, -812905.94, -1388.0001, 0.0, 10.050652, 9.915997 
7.7287495e+3, 2.2710653e+2, -735155.56, -832742.9, -5707.711, 0.0022787326, 0.00044184987, -734822.9, -20464.93, 0.0, 10.039672, 9.911528 
7.7284783e+3, 2.370183e+2, -653634.1, -743042.8, -5985.1733, 0.0023391517, 0.00047368094, -653235.25, -36012.69, 0.0, 10.028616, 9.91145 
7.728209e+3, 2.4692735e+2, -575387.6, -659764.8, -5653.034, 0.0022109977, 0.000023920915, -575010.6, -54896.8, 0.0, 10.017473, 9.907143 
7.72794e+3, 2.568341e+2, -493933.03, -569988.75, -5762.5303, 0.0020031894, -0.00080877956, -493498.9, -70471.14, 0.0, 10.006203, 9.906958 
7.7276754e+3, 2.6673967e+2, -416731.94, -488432.06, -3257.9927, 0.0023888221, 0.0011360499, -416584.2, -90630.82, 0.0, 9.994831, 9.90131 
7.727414e+3, 2.766429e+2, -334729.47, -396866.13, -2796.7976, 0.003067917, 0.0023779897, -334603.84, -105702.1, 0.0, 9.983103, 9.9021635 
7.727152e+3, 2.8654042e+2, -259818.25, -312847.38, 1652.0546, 0.001896035, -0.0016140423, -259766.83, -127860.86, 0.0, 9.96844, 9.899219 
7.726892e+3, 2.9643846e+2, -185518.67, -226976.4, 5560.2866, -0.00021478097, -0.004969357, -184785.89, -149880.78, 0.0, 9.952267, 9.897951 
7.7266455e+3, 3.063599e+2, -133517.1, -149137.08, 687.9089, 0.005088744, 0.009732749, -133486.86, -133486.86, 0.0, 9.94268, 9.922237 
7.726399e+3, 3.1630257e+2, -97954.18, -61477.152, -17774.63, 0.0023290096, 0.03170646, -54248.414, -54248.414, 0.0, 9.936392, 9.985144 
7.741541e+3, 1.2813962e+2, -1519967.0, -1690174.6, 1182.9133, 0.0024118228, 0.00023325693, -1519958.8, 164274.89, 0.0, 10.155995, 9.927433 
7.741279e+3, 1.3806707e+2, -1443523.8, -1603993.5, 597.19025, 0.0023431373, 0.0001972242, -1443521.6, 143423.2, 0.0, 10.14264, 9.927607 
7.7410114e+3, 1.4799431e+2, -1366871.1, -1519288.9, -2545.2207, 0.0022747687, 0.0004135124, -1366828.6, 122829.086, 0.0, 10.129915, 9.926266 
7.740741e+3, 1.5792051e+2, -1288122.6, -1431524.1, -2915.5571, 0.0023634161, 0.00015249773, -1288063.4, 104317.31, 0.0, 10.117771, 9.926538 
7.7404666e+3, 1.6784593e+2, -1210997.3, -1348106.0, -4872.851, 0.0023694085, 0.00023497775, -1210824.3, 84287.375, 0.0, 10.10601, 9.9237 
7.7401906e+3, 1.7776974e+2, -1130749.9, -1259358.4, -5217.4243, 0.002262214, 0.00016270786, -1130538.6, 67319.86, 0.0, 10.094629, 9.923946 
7.739913e+3, 1.87692e+2, -1053409.8, -1177016.1, -6704.543, 0.0022586866, 0.0003322059, -1053047.1, 47573.137, 0.0, 10.083444, 9.919887 
7.739633e+3, 1.9761194e+2, -972242.56, -1087658.3, -7059.2495, 0.0023150034, 0.00019712723, -971812.44, 31592.477, 0.0, 10.07248, 9.920058 
7.739352e+3, 2.0752998e+2, -894643.75, -1005612.44, -8121.861, 0.002306772, 0.0003148417, -894052.5, 12155.549, 0.0, 10.061539, 9.91541 
7.7390707e+3, 2.1744542e+2, -813070.2, -915931.7, -8503.913, 0.0022511154, 0.00009445003, -812371.9, -3335.168, 0.0, 10.050667, 9.915495 
7.7387893e+3, 2.27359e+2, -735232.5, -833508.94, -9054.029, 0.002241102, 0.00036888622, -734405.3, -22521.523, 0.0, 10.039648, 9.910852 
7.7385074e+3, 2.3726988e+2, -653762.06, -743789.1, -9438.746, 0.0022646645, 0.00013894717, -652783.06, -38025.918, 0.0, 10.02854, 9.910823 
7.738226e+3, 2.4717876e+2, -575617.25, -660669.9, -9358.259, 0.0022565587, 0.00027430826, -574599.75, -56949.77, 0.0, 10.017369, 9.906431 
7.7379465e+3, 2.5708553e+2, -493908.5, -570268.8, -9578.672, 0.0022278863, 0.0003124665, -492725.28, -72162.06, 0.0, 10.006051, 9.906685 
7.73767e+3, 2.6699054e+2, -416102.8, -486429.06, -7552.6016, 0.002245979, 0.0005985964, -415300.84, -91805.82, 0.0, 9.994209, 9.902768 
7.737396e+3, 2.7689314e+2, -333598.53, -392642.0, -7725.025, 0.0022969753, -0.0009679924, -332604.56, -106153.734, 0.0, 9.981948, 9.905358 
7.7371204e+3, 2.8680226e+2, -250911.27, -295993.25, -5831.3037, 0.0023767555, -0.00016675654, -250169.2, -120830.4, 0.0, 9.968604, 9.910129 
7.736847e+3, 2.967174e+2, -181064.66, -223584.98, -2504.446, 0.0024055934, 0.004984669, -180917.64, -148750.64, 0.0, 9.954339, 9.899177 
7.7365845e+3, 3.0659056e+2, -166738.02, -218901.75, -1923.657, 0.0008760956, -0.007736874, -166667.17, -166667.17, 0.0, 9.943092, 9.875808 
7.736332e+3, 3.164883e+2, -35314.758, 73479.54, -12615.675, -0.0021710468, 0.004093982, 74923.28, 74923.28, 0.0, 9.933811, 10.078976 
7.751699e+3, 1.2841298e+2, -1511480.4, -1684885.3, 5505.0615, 0.0023389666, 0.00027288718, -1511305.8, 170249.0, 0.0, 10.160724, 9.92736 
7.751423e+3, 1.3834026e+2, -1436094.0, -1599195.4, 5151.371, 0.002426131, 0.00013955464, -1435931.4, 148335.92, 0.0, 10.14666, 9.927606 
7.751143e+3, 1.4826755e+2, -1360115.6, -1514846.9, 2769.31, 0.0023055135, 0.00036139507, -1360066.0, 126913.98, 0.0, 10.133529, 9.926267 
7.75086e+3, 1.5819381e+2, -1281665.4, -1427183.5, 2609.8235, 0.0023141492, 0.00016439072, -1281618.5, 108084.01, 0.0, 10.121169, 9.92659 
7.7505744e+3, 1.6811922e+2, -1204937.5, -1344220.9, 1184.4531, 0.0023553115, 0.00027306014, -1204927.5, 87506.15, 0.0, 10.109284, 9.923536 
7.750287e+3, 1.7804286e+2, -1124715.0, -1255465.3, 1011.779, 0.002304622, 0.00020188835, -1124707.3, 70474.766, 0.0, 10.097879, 9.923804 
7.7499974e+3, 1.8796475e+2, -1047663.56, -1173683.0, -125.734344, 0.0022817955, 0.00030429746, -1047663.44, 50283.914, 0.0, 10.086702, 9.919393 
7.749707e+3, 1.9788413e+2, -966365.94, -1084217.5, -369.11404, 0.0022993514, 0.00009151078, -966364.75, 34372.72, 0.0, 10.075809, 9.919606 
7.7494156e+3, 2.0780167e+2, -888974.94, -1002713.3, -1260.9583, 0.0022852677, 0.00035877436, -888961.0, 14584.611, 0.0, 10.064928, 9.914587 
7.749123e+3, 2.1771646e+2, -807293.4, -912923.25, -1575.0203, 0.0022470541, 0.00036457868, -807269.9, -889.29016, 0.0, 10.054104, 9.914728 
7.7488303e+3, 2.276288e+2, -729780.25, -830999.7, -2183.3428, 0.0022716424, 0.00020783264, -729733.2, -20493.453, 0.0, 10.043012, 9.909809 
7.7485377e+3, 2.3753816e+2, -648496.0, -741345.3, -2533.7466, 0.002319719, -0.00062700757, -648426.94, -36298.805, 0.0, 10.031771, 9.9098215 
7.748245e+3, 2.4744698e+2, -570813.0, -658747.06, -2560.067, 0.0022147463, 0.0008111949, -570738.56, -55717.105, 0.0, 10.020417, 9.905198 
7.7479535e+3, 2.5735402e+2, -489391.13, -568238.0, -2967.9077, 0.0020732002, 0.0026856158, -489279.56, -71347.56, 0.0, 10.00879, 9.905689 
7.7476645e+3, 2.6725516e+2, -413892.16, -484970.53, -2101.221, 0.0023279195, -0.0010285489, -413830.1, -92928.3, 0.0, 9.995125, 9.902321 
7.747377e+3, 2.7715266e+2, -335366.06, -393797.0, -2652.1733, 0.0026950652, -0.008353216, -335245.94, -111338.25, 0.0, 9.980527, 9.904419 
7.747091e+3, 2.870692e+2, -248042.39, -298113.97, -4168.2275, 0.0021212928, 0.00475531, -247697.77, -120974.625, 0.0, 9.971771, 9.906696 
7.746807e+3, 2.9699588e+2, -167007.31, -220714.55, -8310.239, 0.0013143596, 0.028128026, -165750.84, -136312.42, 0.0, 9.965128, 9.895796 
7.7465284e+3, 3.0682284e+2, -166694.23, -219696.67, 566.2959, 0.0020524603, -0.039238896, -166688.19, -166688.19, 0.0, 9.942885, 9.874362 
7.746264e+3, 3.1674835e+2, -42416.54, 106777.195, 9327.054, 0.0096078385, 0.004424554, 107358.03, 107358.03, 0.0, 9.912832, 10.11054 
7.76186e+3, 1.2869789e+2, -1511363.5, -1684437.9, 2257.768, 0.002322119, 0.00032714385, -1511334.0, 167428.75, 0.0, 10.160226, 9.927538 
7.76157e+3, 1.3862532e+2, -1435735.0, -1598532.5, 1849.0785, 0.002477293, 0.00013008506, -1435714.0, 145759.94, 0.0, 10.146277, 9.927865 
7.7612764e+3, 1.4855291e+2, -1359687.0, -1514144.4, -37.36925, 0.0023108206, 0.0003644626, -1359687.0, 124496.72, 0.0, 10.133232, 9.9265375 
7.760981e+3, 1.5847948e+2, -1281106.9, -1426369.0, -297.53592, 0.0022764662, 0.00020695021, -1281106.3, 105796.95, 0.0, 10.120936, 9.926907 
7.7606833e+3, 1.684051e+2, -1204532.6, -1343792.9, -1487.6068, 0.0023519872, 0.00033986178, -1204516.6, 85115.43, 0.0, 10.1091175, 9.9236 
7.7603847e+3, 1.7832881e+2, -1124221.8, -1254972.9, -1789.756, 0.002334092, 0.0002617512, -1124197.3, 68182.44, 0.0, 10.097762, 9.923894 
7.760084e+3, 1.8825057e+2, -1047408.06, -1173784.9, -2843.0483, 0.0022959798, 0.0003112932, -1047344.1, 47802.438, 0.0, 10.086658, 9.919088 
7.7597827e+3, 1.9816959e+2, -966010.2, -1084226.9, -3203.9941, 0.0022746162, 0.000035921952, -965923.44, 32016.693, 0.0, 10.07581, 9.919346 
7.75948e+3, 2.0808677e+2, -888951.2, -1003376.0, -4194.4287, 0.002253732, 0.00042801411, -888797.6, 11954.055, 0.0, 10.06493, 9.913921 
7.759177e+3, 2.1800105e+2, -807268.8, -913542.56, -4650.069, 0.0022417495, 0.00061344996, -807065.7, -3474.0266, 0.0, 10.054085, 9.914109 
7.758873e+3, 2.279123e+2, -729945.1, -832114.6, -5530.5757, 0.0023059472, 0.00006684705, -729646.6, -23185.19, 0.0, 10.043032, 9.908855 
7.758569e+3, 2.3782027e+2, -648577.94, -742378.2, -5978.781, 0.0023695158, -0.0013328652, -648198.4, -38834.965, 0.0, 10.031829, 9.908911 
7.758266e+3, 2.4772917e+2, -571321.2, -660287.44, -6294.0264, 0.0021393301, 0.001468135, -570878.1, -58622.11, 0.0, 10.020308, 9.904045 
7.757962e+3, 2.5763655e+2, -490102.16, -569732.56, -7021.733, 0.0018387353, 0.0051258183, -489487.72, -74324.04, 0.0, 10.008463, 9.904671 
7.7576596e+3, 2.6753306e+2, -413609.2, -485882.63, -7314.616, 0.0024898874, -0.0031500799, -412876.34, -94697.86, 0.0, 9.995345, 9.901388 
7.7573586e+3, 2.7742442e+2, -335592.6, -397443.06, -7266.847, 0.0034114756, -0.016559318, -334750.28, -113506.58, 0.0, 9.981537, 9.901347 
7.757062e+3, 2.8734574e+2, -255250.77, -313523.16, -5760.1196, 0.0014480843, 0.011605243, -254686.84, -130672.54, 0.0, 9.971869, 9.896354 
7.756769e+3, 2.9727885e+2, -172615.39, -229238.3, -10864.7295, -0.0013263272, 0.055254735, -170602.27, -143933.77, 0.0, 9.963521, 9.8906765 
7.756474e+3, 3.0706424e+2, -148355.95, -182790.06, -9675.4375, 0.006742089, -0.08011155, -145823.56, -145823.56, 0.0, 9.942387, 9.898414 
7.7561706e+3, 3.1703448e+2, -97156.08, -12118.59, 1385.018, 0.0031969424, 0.0022636233, -12096.038, -12096.038, 0.0, 9.915129, 10.026677 
7.772021e+3, 1.2900168e+2, -1504272.6, -1679222.6, 6813.054, 0.0024411683, 0.00025199386, -1504007.8, 171778.1, 0.0, 10.163702, 9.927947 
7.771718e+3, 1.3892962e+2, -1429456.8, -1593674.3, 6709.9307, 0.0023557968, 0.00020346574, -1429183.0, 149308.9, 0.0, 10.149201, 9.928337 
7.771411e+3, 1.4885765e+2, -1353931.1, -1509622.5, 5779.06, 0.0022441107, 0.00040990592, -1353716.9, 127480.445, 0.0, 10.135899, 9.926951 
7.7711034e+3, 1.5878458e+2, -1275406.3, -1421860.9, 5779.747, 0.002350433, 0.00018517184, -1275178.5, 108734.74, 0.0, 10.123565, 9.927326 
7.770794e+3, 1.6871041e+2, -1199077.0, -1339869.3, 5224.716, 0.0023969004, 0.00029559032, -1198883.4, 87756.82, 0.0, 10.111829, 9.923621 
7.770484e+3, 1.7863414e+2, -1118435.5, -1250822.4, 5116.069, 0.0022980357, 0.00022044838, -1118238.1, 71149.516, 0.0, 10.100666, 9.923958 
7.7701724e+3, 1.8855579e+2, -1041620.06, -1170153.8, 4490.9775, 0.0022666072, 0.0003316489, -1041463.4, 50692.105, 0.0, 10.089818, 9.918699 
7.7698606e+3, 1.9847447e+2, -959738.25, -1080332.9, 4264.516, 0.0022948424, 0.00013940726, -959587.6, 35364.59, 0.0, 10.079282, 9.918969 
7.769547e+3, 2.0839089e+2, -882757.06, -1000146.5, 3416.5947, 0.002296156, 0.00037009126, -882657.7, 15113.662, 0.0, 10.06863, 9.913008 
7.7692336e+3, 2.1830411e+2, -800743.1, -910109.8, 3045.9424, 0.0022805647, 0.00036219342, -800658.4, -36.47768, 0.0, 10.05799, 9.913236 
7.768918e+3, 2.2821462e+2, -723388.25, -829148.1, 2133.4063, 0.0022498153, 0.00021258922, -723345.2, -19846.283, 0.0, 10.04716, 9.907575 
7.768603e+3, 2.3812169e+2, -641732.44, -739225.56, 1684.851, 0.0022188523, -0.0006975418, -641703.3, -35293.793, 0.0, 10.036127, 9.907679 
7.7682877e+3, 2.4802846e+2, -565172.4, -657652.94, 1085.8268, 0.002273776, 0.0010343653, -565159.6, -55836.676, 0.0, 10.024187, 9.902683 
7.767973e+3, 2.579333e+2, -484963.5, -567782.3, 483.79068, 0.0023211015, 0.0033363495, -484960.66, -72705.24, 0.0, 10.011758, 9.9031725 
7.767657e+3, 2.678303e+2, -406471.8, -483482.84, -57.007915, 0.0021800485, -0.00213714, -406471.78, -91206.67, 0.0, 10.000193, 9.89944 
7.767343e+3, 2.777229e+2, -324938.97, -392848.5, -46.384754, 0.0021119576, -0.011705206, -324938.94, -106620.6, 0.0, 9.988532, 9.899817 
7.7670354e+3, 2.8763747e+2, -251086.66, -310751.88, 4579.1294, 0.0021772243, 0.009211265, -250737.27, -129582.9, 0.0, 9.973949, 9.895801 
7.766732e+3, 2.9756147e+2, -180030.9, -231737.52, 3662.4585, 0.0019814142, 0.042661685, -179772.78, -155874.45, 0.0, 9.9576435, 9.890136 
7.766416e+3, 3.073695e+2, -135981.88, -169410.2, -2492.0315, 0.0035360092, -0.06792521, -135797.13, -135797.13, 0.0, 9.9469795, 9.903709 
7.766093e+3, 3.1738076e+2, -76584.55, -14255.644, 289.8616, -0.0014510644, 0.0589343, -14254.296, -14254.296, 0.0, 9.933385, 10.015256 
7.782185e+3, 1.2931766e+2, -1503965.1, -1678008.6, 3492.8337, 0.002486065, 0.0002795836, -1503895.0, 168794.25, 0.0, 10.162961, 9.928672 
7.781867e+3, 1.3924639e+2, -1428981.6, -1592312.4, 3344.9363, 0.0022996068, 0.00028206778, -1428913.1, 146474.67, 0.0, 10.148544, 9.92912 
7.781547e+3, 1.4917518e+2, -1353394.3, -1508313.3, 3059.1772, 0.0022042063, 0.00048831163, -1353333.9, 124751.67, 0.0, 10.1353855, 9.927671 
7.781227e+3, 1.5910281e+2, -1274664.6, -1420443.0, 2947.2805, 0.0024040672, 0.00020885107, -1274605.1, 106189.63, 0.0, 10.123185, 9.928057 
7.780906e+3, 1.6902912e+2, -1198556.0, -1339089.0, 2719.8738, 0.002427633, 0.00028426916, -1198503.4, 85013.56, 0.0, 10.111584, 9.923914 
7.7805847e+3, 1.7895316e+2, -1117749.8, -1249933.3, 2505.065, 0.0022574163, 0.00022099819, -1117702.4, 68559.11, 0.0, 10.100518, 9.92428 
7.780262e+3, 1.8887493e+2, -1041291.56, -1170054.9, 1973.223, 0.0022416648, 0.0004033293, -1041261.3, 47766.69, 0.0, 10.089732, 9.918512 
7.779939e+3, 1.9879349e+2, -959364.9, -1080207.5, 1584.0244, 0.002308418, 0.00026679615, -959344.06, 32481.926, 0.0, 10.079221, 9.9187975 
7.7796155e+3, 2.087093e+2, -882731.75, -1000884.75, 597.75476, 0.0023323232, 0.00031902676, -882728.7, 11922.35, 0.0, 10.0686455, 9.912258 
7.779291e+3, 2.1862158e+2, -800612.56, -910780.0, 103.9178, 0.0023043875, 0.00008044214, -800612.5, -3101.889, 0.0, 10.058066, 9.912507 
7.778965e+3, 2.285316e+2, -723731.06, -830570.0, -1108.2738, 0.002176852, 0.00049128797, -723719.6, -23327.166, 0.0, 10.047136, 9.90642 
7.7786386e+3, 2.3843808e+2, -642158.6, -740557.8, -1775.5469, 0.0020510675, 0.00023901562, -642126.56, -38817.695, 0.0, 10.035981, 9.906649 
7.778312e+3, 2.4834232e+2, -565350.1, -659125.2, -3005.122, 0.0024544762, 0.0001817986, -565253.9, -59006.67, 0.0, 10.02428, 9.901437 
7.777985e+3, 2.582441e+2, -484933.72, -569359.44, -3566.6858, 0.002899886, 0.00029865128, -484783.28, -75573.9, 0.0, 10.012093, 9.901757 
7.777657e+3, 2.6814395e+2, -407943.56, -486552.7, -4110.5146, 0.0016470269, 0.0005405034, -407729.22, -95537.875, 0.0, 9.999859, 9.897388 
7.7773297e+3, 2.7804065e+2, -326186.56, -393621.22, -4525.5537, 0.00021203219, -0.0017531296, -325884.2, -110680.27, 0.0, 9.987372, 9.899662 
7.777011e+3, 2.8794333e+2, -247775.67, -303710.25, -1796.6742, 0.0037015397, 0.0006823625, -247718.02, -129562.16, 0.0, 9.973331, 9.900502 
7.7766937e+3, 2.978524e+2, -178191.17, -229726.0, -2571.366, 0.0076127737, 0.01048034, -178063.2, -157018.16, 0.0, 9.957931, 9.891142 
7.776356e+3, 3.07724e+2, -140173.98, -177953.03, -5118.285, -0.004906064, -0.017782137, -139492.84, -139492.84, 0.0, 9.946651, 9.897998 
7.776026e+3, 3.176559e+2, -62604.406, 15728.836, -13646.973, -0.0016971296, 0.014367418, 18038.281, 18038.281, 0.0, 9.931578, 10.03602 
7.792349e+3, 1.2965332e+2, -1498734.9, -1672958.4, 8192.192, 0.0023314261, 0.00033726403, -1498350.5, 171049.5, 0.0, 10.164806, 9.929701 
7.792016e+3, 1.3958295e+2, -1424399.4, -1587553.9, 8452.574, 0.0024674179, 0.00019379909, -1423962.6, 148126.95, 0.0, 10.1499605, 9.93018 
7.7916825e+3, 1.4951272e+2, -1349090.1, -1503896.3, 9379.535, 0.0022565303, 0.0004315033, -1348523.9, 126253.79, 0.0, 10.136798, 9.928547 
7.7913505e+3, 1.5944129e+2, -1269972.1, -1415772.3, 9578.1455, 0.002341964, 0.00023244052, -1269345.6, 108132.09, 0.0, 10.124833, 9.928957 
7.7910185e+3, 1.6936824e+2, -1193764.9, -1334936.6, 10119.52, 0.0024097664, 0.00029026452, -1193043.1, 87150.5, 0.0, 10.1136055, 9.924306 
7.7906865e+3, 1.7929263e+2, -1112246.4, -1245448.5, 10147.908, 0.0022983463, 0.00021843876, -1111477.8, 71456.73, 0.0, 10.103026, 9.924625 
7.7903533e+3, 1.8921438e+2, -1035617.2, -1166274.9, 10066.875, 0.0022731107, 0.00039700785, -1034846.1, 50855.254, 0.0, 10.092735, 9.918162 
7.790021e+3, 1.9913259e+2, -952844.8, -1075949.1, 9828.972, 0.0023157755, 0.0002516566, -952065.0, 36437.887, 0.0, 10.082762, 9.918482 
7.7896863e+3, 2.0904778e+2, -875844.9, -997159.06, 9016.824, 0.0022973209, 0.0002927055, -875178.4, 16155.766, 0.0, 10.072751, 9.911319 
7.7893513e+3, 2.1895911e+2, -792927.0, -906680.4, 8580.542, 0.0022427547, 0.00005271558, -792283.4, 1919.5948, 0.0, 10.06271, 9.911546 
7.789015e+3, 2.288679e+2, -716205.06, -827292.56, 7182.181, 0.0022741812, 0.00055258215, -715742.6, -18645.902, 0.0, 10.051975, 9.904826 
7.788678e+3, 2.3877288e+2, -634479.8, -737146.6, 6582.9907, 0.0023058986, 0.00042546363, -634059.44, -34031.72, 0.0, 10.040902, 9.905128 
7.7883387e+3, 2.4867511e+2, -556875.5, -655688.94, 5110.814, 0.0022287518, -0.000084705396, -556611.9, -53625.918, 0.0, 10.029866, 9.89961 
7.7879995e+3, 2.5857458e+2, -475596.1, -565542.9, 4245.886, 0.0021995762, -0.00054670457, -475396.13, -69425.18, 0.0, 10.018251, 9.899913 
7.787659e+3, 2.6847386e+2, -402048.3, -484726.13, 3001.163, 0.00224314, 0.001443476, -401939.5, -92981.766, 0.0, 10.003773, 9.895331 
7.787319e+3, 2.7837038e+2, -324579.0, -393692.63, 3036.6658, 0.0021831624, 0.0014234014, -324445.84, -112474.0, 0.0, 9.988374, 9.897828 
7.7869844e+3, 2.882664e+2, -242341.45, -301385.75, 3876.8894, 0.0024538776, -0.0025212637, -242087.98, -127097.53, 0.0, 9.976692, 9.899296 
7.786651e+3, 2.9816833e+2, -165814.69, -221099.69, -109.37865, 0.0029927304, -0.0006481558, -165814.48, -147863.83, 0.0, 9.964618, 9.892669 
7.786305e+3, 3.080711e+2, -135810.75, -165957.72, 279.9169, 0.00022937244, 0.0034497457, -135808.16, -135808.16, 0.0, 9.944781, 9.905525 
7.7859646e+3, 3.179617e+2, -62003.883, 28667.107, -3204.2034, 0.010407866, -0.026726488, 28780.2, 28780.2, 0.0, 9.9260235, 10.045967 
7.802513e+3, 1.3000159e+2, -1498270.5, -1670859.5, 4807.432, 0.0022650876, 0.00039215526, -1498136.8, 167850.28, 0.0, 10.163734, 9.93109 
7.802166e+3, 1.3993257e+2, -1423759.8, -1585317.4, 5071.8164, 0.002575754, 0.00018984995, -1423600.6, 145062.67, 0.0, 10.1489935, 9.931618 
7.8018194e+3, 1.498637e+2, -1348371.3, -1501845.5, 6874.699, 0.0022574451, 0.00043150698, -1348064.0, 123274.13, 0.0, 10.136085, 9.929799 
7.8014755e+3, 1.597936e+2, -1268923.5, -1413559.0, 6977.14, 0.0022911746, 0.00028773956, -1268587.6, 105437.734, 0.0, 10.124341, 9.930209 
7.8011316e+3, 1.6972148e+2, -1193065.4, -1333594.3, 7873.325, 0.0024017727, 0.0003476379, -1192625.6, 84106.37, 0.0, 10.113254, 9.92498 
7.800789e+3, 1.7964654e+2, -1111462.0, -1244137.5, 7753.12, 0.002310711, 0.00025692754, -1111010.5, 68455.86, 0.0, 10.102765, 9.925249 
7.8004456e+3, 1.895685e+2, -1035215.7, -1166012.6, 7806.134, 0.0022870253, 0.0004180508, -1034751.44, 47479.563, 0.0, 10.092634, 9.918062 
7.8001034e+3, 1.9948661e+2, -952275.3, -1075614.9, 7453.3145, 0.0023122067, 0.0002411954, -951826.56, 33207.01, 0.0, 10.082775, 9.918379 
7.799759e+3, 2.0940138e+2, -875819.2, -997895.3, 6483.548, 0.0022614992, 0.00033721296, -875475.75, 12392.993, 0.0, 10.072761, 9.91055 
7.799414e+3, 2.1931195e+2, -792946.5, -907478.0, 5831.3647, 0.0021848753, 0.00011066607, -792650.4, -1905.3348, 0.0, 10.062699, 9.910757 
7.799067e+3, 2.2921954e+2, -716475.56, -829039.75, 3961.3337, 0.002393008, 0.000538608, -716336.3, -22685.736, 0.0, 10.052129, 9.90334 
7.798719e+3, 2.3912308e+2, -634553.1, -738743.5, 3332.5974, 0.0025844385, 0.0004073193, -634446.6, -37850.664, 0.0, 10.041169, 9.903694 
7.798369e+3, 2.4902377e+2, -557871.0, -658202.94, 1445.0132, 0.0018587316, -0.000016676722, -557850.2, -58280.832, 0.0, 10.029693, 9.897803 
7.7980167e+3, 2.589214e+2, -477133.03, -568255.75, 13.374305, 0.0011969331, -0.00052394526, -477133.03, -74560.87, 0.0, 10.017644, 9.898181 
7.797664e+3, 2.6881897e+2, -402020.7, -486727.63, -2519.8723, 0.0033311136, 0.0014606565, -401945.8, -96370.33, 0.0, 10.004123, 9.893551 
7.79731e+3, 2.7871358e+2, -323911.63, -396328.3, -1842.4214, 0.005411623, 0.0014937443, -323864.78, -115257.13, 0.0, 9.989632, 9.895233 
7.7969587e+3, 2.886058e+2, -245559.66, -307780.78, -400.11533, -0.0005464603, -0.002693525, -245557.08, -133891.25, 0.0, 9.97622, 9.895113 
7.796608e+3, 2.9850465e+2, -167214.97, -219596.23, -5993.2505, -0.006351651, -0.00078623986, -166537.98, -151879.27, 0.0, 9.962219, 9.894568 
7.79626e+3, 3.0841848e+2, -122552.23, -140668.77, -7787.2095, 0.0148099335, 0.002183164, -119665.086, -119665.086, 0.0, 9.944837, 9.921873 
7.795884e+3, 3.1834465e+2, -91137.82, -38235.105, 2025.7191, 0.0014905378, 0.009078426, -38157.65, -38157.65, 0.0, 9.929588, 9.998671 
7.812677e+3, 1.3036968e+2, -1495603.3, -1666270.1, 9526.177, 0.00239775, 0.00025642462, -1495073.1, 167306.61, 0.0, 10.163457, 9.932823 
7.812314e+3, 1.4030258e+2, -1421329.3, -1580724.4, 10364.908, 0.0024415257, 0.00028565776, -1420658.0, 144379.3, 0.0, 10.148531, 9.93343 
7.811955e+3, 1.5023535e+2, -1345828.4, -1497459.3, 13699.94, 0.002180871, 0.00043190338, -1344600.5, 123095.65, 0.0, 10.13595, 9.9313545 
7.8116e+3, 1.6016668e+2, -1265541.5, -1408830.5, 14153.724, 0.0023724493, 0.00021927216, -1264156.9, 106212.22, 0.0, 10.124803, 9.9316435 
7.8112453e+3, 1.7009564e+2, -1189347.9, -1329519.6, 15879.288, 0.002459334, 0.00034114928, -1187571.5, 85493.68, 0.0, 10.114378, 9.925674 
7.810893e+3, 1.8002142e+2, -1106521.1, -1239387.8, 16053.452, 0.0022852435, 0.00028262165, -1104609.0, 71183.63, 0.0, 10.104677, 9.925953 
7.81054e+3, 1.8994367e+2, -1029559.1, -1161702.6, 16680.424, 0.0022536402, 0.00036434366, -1027486.1, 51068.504, 0.0, 10.095417, 9.918045 
7.810188e+3, 1.998617e+2, -945290.75, -1070731.1, 16517.355, 0.0023240128, 0.00017180639, -943152.3, 38205.41, 0.0, 10.086481, 9.918253 
7.809834e+3, 2.0977595e+2, -868376.75, -993824.25, 15676.75, 0.0023229185, 0.0004127789, -866447.4, 17750.627, 0.0, 10.07723, 9.909509 
7.809479e+3, 2.1968554e+2, -784410.7, -902817.3, 15160.919, 0.0022559585, 0.0002674617, -782500.3, 4583.6113, 0.0, 10.067879, 9.909747 
7.809122e+3, 2.2959143e+2, -707131.1, -824822.6, 13184.273, 0.0022936345, 0.0002736983, -705672.25, -15666.09, 0.0, 10.058188, 9.90159 
7.8087634e+3, 2.3949301e+2, -624148.06, -734064.2, 12474.791, 0.0023928015, -0.000099107274, -622750.06, -29779.475, 0.0, 10.04795, 9.901896 
7.8084016e+3, 2.4939255e+2, -548733.2, -654880.3, 9945.433, 0.0020865984, 0.00069796824, -547809.44, -51854.047, 0.0, 10.035875, 9.89541 
7.8080374e+3, 2.5928855e+2, -468861.13, -565187.06, 8818.567, 0.0017603018, 0.0010154418, -468060.47, -69085.56, 0.0, 10.023201, 9.895979 
7.807672e+3, 2.6918107e+2, -389059.97, -481255.78, 6281.2427, 0.0028728645, -0.0006028521, -388634.0, -86607.414, 0.0, 10.012751, 9.891413 
7.807305e+3, 2.7907097e+2, -307797.2, -391072.3, 5866.9604, 0.0040879385, -0.0032756364, -307385.88, -102281.59, 0.0, 10.001032, 9.891594 
7.8069365e+3, 2.8896695e+2, -243521.33, -311941.13, 4598.7227, 0.00028045932, 0.0035063613, -243213.61, -135084.23, 0.0, 9.979079, 9.889452 
7.806569e+3, 2.9886833e+2, -174991.05, -221831.7, 70.076225, -0.0036202706, 0.014133093, -174990.95, -163891.44, 0.0, 9.955795, 9.894839 
7.8062075e+3, 3.0875793e+2, -99964.73, -117013.49, -2472.6006, 0.013197865, -0.021534212, -99613.36, -99613.36, 0.0, 9.954323, 9.932189 
7.805818e+3, 3.1871024e+2, -71543.836, -48666.76, 7220.9434, -0.008046901, 0.010369428, -46578.21, -46578.21, 0.0, 9.951178, 9.980355 
7.8228396e+3, 1.3075078e+2, -1495113.9, -1663188.3, 6111.006, 0.002443858, 0.00028465514, -1494892.0, 163752.95, 0.0, 10.1619, 9.935032 
7.8224623e+3, 1.4068596e+2, -1420280.8, -1577293.4, 7069.9487, 0.0023635891, 0.00037411117, -1419963.0, 141317.3, 0.0, 10.147335, 9.93569 
7.822091e+3, 1.506208e+2, -1344833.1, -1494432.0, 11474.875, 0.0021218923, 0.00047065478, -1343958.1, 119960.734, 0.0, 10.13503, 9.933307 
7.8217244e+3, 1.6055404e+2, -1264336.8, -1405852.5, 11786.796, 0.0024225926, 0.00022457114, -1263361.8, 103211.2, 0.0, 10.124095, 9.933473 
7.8213596e+3, 1.7048444e+2, -1188490.1, -1327617.1, 13977.016, 0.0025019753, 0.0003848308, -1187099.9, 82155.234, 0.0, 10.113917, 9.926741 
7.820998e+3, 1.804113e+2, -1105396.1, -1237390.4, 14081.661, 0.0022515452, 0.00033461704, -1103910.5, 68061.45, 0.0, 10.104416, 9.9269905 
7.8206354e+3, 1.9033413e+2, -1028905.1, -1160877.6, 14846.113, 0.0022247182, 0.0003706759, -1027255.6, 47472.496, 0.0, 10.095301, 9.918299 
7.820274e+3, 2.0025238e+2, -944619.7, -1070062.5, 14481.215, 0.0023227169, 0.00015154066, -942969.6, 34559.375, 0.0, 10.086445, 9.918379 
7.819911e+3, 2.1016634e+2, -868254.0, -994541.5, 13413.641, 0.0023772456, 0.0005056764, -866845.0, 13527.313, 0.0, 10.077318, 9.908692 
7.8195477e+3, 2.2007519e+2, -784159.25, -903460.6, 12802.549, 0.0023217737, 0.00042469057, -782800.8, 464.7629, 0.0, 10.068047, 9.908949 
7.81918e+3, 2.2997959e+2, -707594.1, -826746.25, 10375.69, 0.0021490953, 0.000059275426, -706697.4, -20495.166, 0.0, 10.058256, 9.900018 
7.8188103e+3, 2.3987938e+2, -624873.44, -736277.0, 9280.347, 0.0020963005, -0.00056963554, -624105.6, -34921.586, 0.0, 10.047885, 9.900201 
7.818437e+3, 2.49778e+2, -549433.6, -657759.25, 5789.086, 0.0025050403, 0.0015920773, -549125.1, -56947.004, 0.0, 10.036032, 9.893139 
7.818062e+3, 2.5967246e+2, -469158.53, -567580.75, 5203.9014, 0.0026990215, 0.002759001, -468884.16, -73671.28, 0.0, 10.023563, 9.893963 
7.817684e+3, 2.6955926e+2, -390707.56, -484442.6, 2579.9077, 0.0016439944, -0.0035278504, -390636.6, -92316.59, 0.0, 10.012272, 9.889323 
7.817303e+3, 2.794441e+2, -312044.66, -397639.0, -46.057644, 0.001026195, -0.009378671, -312044.66, -110597.516, 0.0, 9.999508, 9.887705 
7.816918e+3, 2.8934774e+2, -246859.64, -320412.94, -4022.3533, 0.003501814, 0.013562955, -246640.33, -142239.88, 0.0, 9.978835, 9.883451 
7.816531e+3, 2.9925343e+2, -172499.7, -221685.88, -3816.3574, 0.004716927, 0.035539877, -172205.36, -164874.83, 0.0, 9.957412, 9.893782 
7.81615e+3, 3.0909604e+2, -94515.4, -107731.83, -460.36816, -0.00092771836, -0.06350361, -94499.38, -94499.38, 0.0, 9.955285, 9.9379225 
7.8157747e+3, 3.1908047e+2, -95171.0, -94829.86, -3751.717, -0.0005874411, 0.011916644, -91244.836, -91244.836, 0.0, 9.949037, 9.949654 
7.833e+3, 1.3115166e+2, -1495637.4, -1659062.0, 10787.469, 0.0023892473, 0.00040172588, -1494928.4, 159788.03, 0.0, 10.158962, 9.93779 
7.8326076e+3, 1.4108934e+2, -1420512.8, -1573039.6, 12441.058, 0.002467853, 0.0002253366, -1419504.6, 137822.56, 0.0, 10.144638, 9.938371 
7.8322244e+3, 1.5102667e+2, -1344604.5, -1490429.1, 18594.508, 0.0021308581, 0.00042223232, -1342270.9, 117670.47, 0.0, 10.133035, 9.935524 
7.831848e+3, 1.6096221e+2, -1262637.9, -1401090.3, 19315.152, 0.0024057515, 0.0002806357, -1259993.8, 102579.38, 0.0, 10.123069, 9.935626 
7.8314734e+3, 1.7089427e+2, -1185852.0, -1323178.0, 22496.887, 0.0025165873, 0.0003554891, -1182260.5, 82978.266, 0.0, 10.11396, 9.928149 
7.8311026e+3, 1.8082245e+2, -1101124.9, -1232250.5, 22979.309, 0.0022706285, 0.00024295754, -1097214.4, 70728.26, 0.0, 10.105602, 9.928231 
7.830732e+3, 1.9074604e+2, -1023676.4, -1156341.9, 24355.344, 0.0022319655, 0.00038650195, -1019346.44, 51344.918, 0.0, 10.097657, 9.918557 
7.830363e+3, 2.006646e+2, -937587.75, -1064646.6, 24250.299, 0.0023448903, 0.00025653915, -933116.7, 40372.773, 0.0, 10.09001, 9.918569 
7.829991e+3, 2.1057802e+2, -860102.7, -989641.1, 23413.867, 0.002370344, 0.00035314035, -856000.56, 20337.266, 0.0, 10.082102, 9.9079075 
7.8296185e+3, 2.2048603e+2, -774304.5, -897736.0, 23005.654, 0.002324833, 0.00018833454, -770156.0, 9083.352, 0.0, 10.073977, 9.908116 
7.829242e+3, 2.3038954e+2, -697217.75, -821881.25, 20388.615, 0.0021549442, 0.00041275637, -693967.94, -11783.109, 0.0, 10.06498, 9.898202 
7.828862e+3, 2.402877e+2, -613401.8, -730844.56, 19376.574, 0.0020997322, 0.00002683701, -610287.5, -25104.871, 0.0, 10.055322, 9.898406 
7.828478e+3, 2.5018284e+2, -536677.94, -652538.2, 15408.88, 0.002607503, 0.0005440213, -534663.6, -46453.277, 0.0, 10.044606, 9.890596 
7.8280896e+3, 2.6007405e+2, -455487.03, -562070.75, 14936.336, 0.0028692451, 0.0008729183, -453433.47, -62156.84, 0.0, 10.032828, 9.891305 
7.8276986e+3, 2.6996157e+2, -381046.2, -481488.72, 11477.476, 0.0012969164, -0.00089266856, -379751.34, -85372.86, 0.0, 10.019013, 9.886234 
7.8273034e+3, 2.798461e+2, -304425.6, -393232.44, 8531.332, 0.0003466283, -0.0038996525, -303613.44, -106103.41, 0.0, 10.003748, 9.886759 
7.826903e+3, 2.8974053e+2, -227817.95, -307497.28, 6587.2314, 0.004600753, 0.0067654504, -227277.05, -126730.36, 0.0, 9.989331, 9.8846655 
7.8264993e+3, 2.99639e+2, -151031.27, -217255.36, 10665.491, 0.0070631816, 0.020643642, -149355.95, -145812.08, 0.0, 9.973828, 9.886438 
7.8261006e+3, 3.0949432e+2, -104159.71, -130024.33, 3760.0608, -0.0058537074, -0.04409651, -103624.19, -103624.19, 0.0, 9.95588, 9.921652 
7.825724e+3, 3.194737e+2, -90589.03, -53799.387, -8613.834, 0.010085101, 0.030587543, -51882.45, -51882.45, 0.0, 9.934557, 9.983457 
7.843158e+3, 1.3156529e+2, -1494840.6, -1654607.8, 7474.435, 0.0023174004, 0.0004428562, -1494491.8, 156171.25, 0.0, 10.157011, 9.941034 
7.8427523e+3, 1.4150615e+2, -1419356.6, -1568451.5, 9298.646, 0.0025474017, 0.00021032842, -1418778.9, 134463.52, 0.0, 10.142985, 9.941577 
7.842357e+3, 1.5144649e+2, -1343403.3, -1486365.9, 16789.975, 0.0021099178, 0.00046111154, -1341457.9, 114369.43, 0.0, 10.13184, 9.938265 
7.841971e+3, 1.6138475e+2, -1261006.8, -1396977.9, 17431.549, 0.0023813155, 0.0003546448, -1258807.5, 99624.72, 0.0, 10.122239, 9.938224 
7.8415877e+3, 1.713189e+2, -1184585.4, -1320210.1, 21055.787, 0.0025101725, 0.00035708467, -1181391.6, 79685.664, 0.0, 10.113407, 9.929939 
7.841208e+3, 1.8124883e+2, -1099708.4, -1229439.8, 21407.291, 0.0022588586, 0.00023180216, -1096267.1, 67496.945, 0.0, 10.10526, 9.929836 
7.8408295e+3, 1.9117357e+2, -1022717.75, -1154876.3, 22969.531, 0.0022393472, 0.00047197758, -1018839.4, 47662.22, 0.0, 10.097553, 9.919213 
7.840453e+3, 2.0109281e+2, -936465.0, -1063220.8, 22735.6, 0.0023592038, 0.00037342502, -932510.4, 36782.76, 0.0, 10.090068, 9.919128 
7.840073e+3, 2.1100608e+2, -859560.5, -989678.44, 21649.074, 0.0023623228, 0.00022349617, -856053.06, 16089.852, 0.0, 10.082287, 9.907475 
7.839692e+3, 2.2091354e+2, -773806.44, -897965.3, 21018.043, 0.0022928067, -0.0000505461, -770344.94, 4704.508, 0.0, 10.074199, 9.907553 
7.8393066e+3, 2.3081657e+2, -697459.56, -823634.44, 17732.467, 0.0021872371, 0.0009345534, -695014.9, -17014.922, 0.0, 10.065162, 9.896667 
7.8389174e+3, 2.407134e+2, -613643.75, -732553.2, 16549.281, 0.0021475523, 0.0007836637, -611383.44, -30372.553, 0.0, 10.055476, 9.896923 
7.838522e+3, 2.5060472e+2, -537281.94, -655438.3, 11647.237, 0.0025585908, -0.0010806367, -536144.75, -52069.65, 0.0, 10.044871, 9.888266 
7.838123e+3, 2.6049277e+2, -456356.2, -565336.94, 10774.544, 0.0027411531, -0.0016962853, -455301.16, -68129.41, 0.0, 10.0329895, 9.888787 
7.8377175e+3, 2.7038372e+2, -383172.1, -486157.88, 6063.337, 0.0013249913, 0.004369347, -382816.34, -92573.22, 0.0, 10.018537, 9.883052 
7.837307e+3, 2.802694e+2, -303691.97, -391485.44, 3172.7742, 0.0005767793, 0.005261507, -303577.47, -110212.87, 0.0, 10.003045, 9.887921 
7.8368914e+3, 2.901468e+2, -222446.81, -298549.1, 205.8824, 0.0043493356, -0.010771464, -222446.25, -125889.984, 0.0, 9.989603, 9.890192 
7.8364724e+3, 3.000347e+2, -158795.33, -236205.42, 3192.113, 0.006109844, -0.0110836625, -158663.92, -158663.92, 0.0, 9.974401, 9.873453 
7.836057e+3, 3.0994424e+2, -126650.05, -176961.73, -2560.7146, -0.004018709, 0.02460439, -126520.055, -126520.055, 0.0, 9.955273, 9.890148 
7.8356516e+3, 3.198365e+2, -43666.902, 42917.457, -11877.007, 0.0016189412, 0.002203747, 44517.105, 44517.105, 0.0, 9.933837, 10.049515 
7.8533113e+3, 1.3199735e+2, -1499420.9, -1651517.9, 11748.636, 0.00224752, 0.00021542716, -1498518.8, 147910.02, 0.0, 10.150921, 9.944782 
7.852892e+3, 1.4194228e+2, -1422725.8, -1564575.0, 14499.832, 0.0025991618, 0.00038626633, -1421258.8, 127709.76, 0.0, 10.137676, 9.94537 
7.852487e+3, 1.5188599e+2, -1345603.0, -1482381.9, 23994.623, 0.0020829511, 0.0004412847, -1341515.9, 110004.305, 0.0, 10.127744, 9.941564 
7.852091e+3, 1.6182734e+2, -1261361.9, -1392357.3, 25087.65, 0.002403768, 0.00022247032, -1256721.6, 97373.14, 0.0, 10.119504, 9.941167 
7.8517e+3, 1.71764e+2, -1183616.8, -1315880.8, 29739.125, 0.0025450033, 0.0003378822, -1177237.6, 79477.836, 0.0, 10.112081, 9.931979 
7.851313e+3, 1.8169598e+2, -1096558.9, -1224027.4, 30554.83, 0.0022746422, 0.00031086657, -1089613.3, 69768.87, 0.0, 10.105395, 9.931775 
7.850928e+3, 1.9162211e+2, -1018019.6, -1149585.8, 32875.86, 0.0022329988, 0.00042845157, -1010262.0, 51844.023, 0.0, 10.0991745, 9.920296 
7.8505445e+3, 2.0154232e+2, -929560.5, -1056965.4, 33060.344, 0.0023831439, 0.00026870833, -921492.56, 43395.37, 0.0, 10.093226, 9.920015 
7.8501576e+3, 2.1145596e+2, -851155.2, -983881.6, 32312.564, 0.0023831865, 0.00025522785, -843706.6, 24027.375, 0.0, 10.086979, 9.907246 
7.84977e+3, 2.2136317e+2, -763286.9, -891336.06, 31960.148, 0.0023033642, 0.000039511287, -755753.06, 14890.061, 0.0, 10.080396, 9.907076 
7.849376e+3, 2.3126486e+2, -685841.4, -817718.75, 28519.553, 0.0022479568, 0.00075904146, -679938.06, -6331.3555, 0.0, 10.072581, 9.895047 
7.8489774e+3, 2.4116004e+2, -600211.56, -725729.94, 27685.22, 0.0022672764, 0.0005564639, -594376.4, -17742.443, 0.0, 10.064124, 9.895294 
7.848572e+3, 2.5104946e+2, -522663.9, -649359.06, 22277.846, 0.0023727226, -0.0008487852, -518860.78, -39144.12, 0.0, 10.05479, 9.885459 
7.848161e+3, 2.6093495e+2, -440512.2, -558435.0, 20874.176, 0.00241873, -0.0012365105, -436926.16, -54087.426, 0.0, 10.043557, 9.886184 
7.847741e+3, 2.7082232e+2, -369211.1, -480971.06, 14944.996, 0.0018350014, 0.0040325266, -367247.1, -81302.46, 0.0, 10.027977, 9.879775 
7.8473157e+3, 2.8070426e+2, -291425.25, -388145.47, 12981.031, 0.0016216835, 0.004503305, -289713.3, -100610.74, 0.0, 10.0119295, 9.8838825 
7.8468865e+3, 2.9057693e+2, -206554.17, -294582.34, 5780.288, 0.00334932, -0.01150422, -206176.23, -113835.85, 0.0, 10.001413, 9.885678 
7.8464514e+3, 3.004609e+2, -140899.38, -230208.83, 3687.7585, 0.0038794966, -0.011559298, -140747.36, -140747.36, 0.0, 9.986775, 9.87015 
7.8460145e+3, 3.1037763e+2, -122103.625, -176019.16, 7179.037, -0.000748424, 0.036658596, -121164.086, -121164.086, 0.0, 9.957691, 9.886783 
7.845582e+3, 3.2023463e+2, -36231.707, 69310.836, 2417.5088, 0.0014442492, -0.033736218, 69366.18, 69366.18, 0.0, 9.928299, 10.067793 
7.863462e+3, 1.324418e+2, -1498524.0, -1645621.6, 8656.565, 0.0022989144, 0.0002582791, -1498016.3, 144056.73, 0.0, 10.148383, 9.949229 
7.863029e+3, 1.4239119e+2, -1421210.4, -1558492.4, 11834.333, 0.0025649488, 0.00046662887, -1420197.6, 124371.586, 0.0, 10.135672, 9.949699 
7.862614e+3, 1.5233882e+2, -1344034.9, -1476983.1, 22659.576, 0.002019884, 0.00044895418, -1340279.0, 106803.3, 0.0, 10.126307, 9.945303 
7.86221e+3, 1.6228382e+2, -1259423.0, -1387129.8, 23593.363, 0.002435298, 0.0002090341, -1255203.6, 94417.58, 0.0, 10.118483, 9.944607 
7.861812e+3, 1.722235e+2, -1181926.1, -1311734.3, 28794.701, 0.0025669853, 0.00038203225, -1175825.5, 76387.06, 0.0, 10.111417, 9.934601 
7.861419e+3, 1.8215808e+2, -1094598.9, -1219966.1, 29598.297, 0.002242322, 0.0004003945, -1087962.3, 66891.4, 0.0, 10.105022, 9.934212 
7.861027e+3, 1.920861e+2, -1016282.1, -1146586.5, 32086.176, 0.0022089654, 0.0004097511, -1008809.7, 48749.18, 0.0, 10.099126, 9.92192 
7.860638e+3, 2.0200785e+2, -927777.9, -1054261.6, 32088.738, 0.002367574, 0.00019105198, -920102.75, 40222.895, 0.0, 10.0933485, 9.921382 
7.8602445e+3, 2.1192248e+2, -850001.9, -982697.0, 31085.117, 0.0024086172, 0.00041214013, -843080.9, 20081.213, 0.0, 10.087212, 9.907595 
7.85985e+3, 2.2183e+2, -762190.25, -890544.1, 30466.762, 0.0022973516, 0.00023199862, -755325.6, 10742.664, 0.0, 10.080735, 9.907123 
7.859448e+3, 2.3173068e+2, -685173.9, -818552.5, 26332.541, 0.0023071622, 0.0004876612, -680163.3, -11121.741, 0.0, 10.073189, 9.893887 
7.859042e+3, 2.4162464e+2, -599662.2, -726804.9, 25443.416, 0.0023317647, 0.00022099783, -594759.56, -22678.635, 0.0, 10.064737, 9.893993 
7.858627e+3, 2.5151315e+2, -523729.66, -652598.7, 18996.621, 0.0021265869, 0.000048409354, -520987.7, -45814.793, 0.0, 10.054806, 9.883012 
7.8582036e+3, 2.6139647e+2, -441855.78, -561746.75, 16585.613, 0.0020560536, -0.000037274276, -439603.66, -61287.543, 0.0, 10.04325, 9.883803 
7.85777e+3, 2.712781e+2, -369066.16, -484077.25, 8756.205, 0.0025149728, 0.0012587233, -368403.3, -86926.73, 0.0, 10.028686, 9.876954 
7.857328e+3, 2.8115493e+2, -293873.4, -397295.28, 8668.918, 0.0027664604, 0.00042384054, -293151.78, -108467.734, 0.0, 10.013189, 9.876969 
7.8568864e+3, 2.910292e+2, -214083.36, -309500.38, 2095.516, 0.0017315358, -0.0023676734, -214037.36, -126124.27, 0.0, 10.000655, 9.875886 
7.856436e+3, 3.0091095e+2, -140045.28, -225335.86, -4179.635, 0.0008637714, 0.0025018486, -139840.95, -139840.95, 0.0, 9.984451, 9.873915 
7.855974e+3, 3.108028e+2, -108607.375, -149777.95, -3785.0002, 0.0031579204, 0.0024341005, -108262.3, -108262.3, 0.0, 9.956892, 9.903636 
7.8555113e+3, 3.207059e+2, -83461.76, -31509.04, -2550.4023, 0.0020980202, -0.002859871, -31384.137, -31384.137, 0.0, 9.929291, 9.997519 
7.873605e+3, 1.3290305e+2, -1507342.1, -1643119.9, 12247.299, 0.0025776345, 0.00046069585, -1506246.3, 131306.66, 0.0, 10.138819, 9.954524 
7.87316e+3, 1.4285715e+2, -1428150.4, -1555457.4, 16571.807, 0.0023758924, 0.00018085874, -1426028.5, 113974.13, 0.0, 10.127631, 9.954495 
7.872737e+3, 1.5280929e+2, -1349276.5, -1473867.8, 29407.088, 0.0019757338, 0.00040869514, -1342684.4, 99787.33, 0.0, 10.119981, 9.949332 
7.8723264e+3, 1.6275847e+2, -1261988.5, -1382576.6, 30765.105, 0.0025859564, 0.000345616, -1254593.0, 90376.86, 0.0, 10.11388, 9.948581 
7.8719217e+3, 1.7270164e+2, -1182538.5, -1306739.3, 37087.84, 0.0026078282, 0.0003699652, -1172306.5, 75220.11, 0.0, 10.108456, 9.937999 
7.8715223e+3, 1.8263939e+2, -1092944.8, -1214155.8, 38519.0, 0.0021770007, 0.00027201677, -1081739.8, 68396.914, 0.0, 10.103729, 9.937216 
7.871126e+3, 1.9257003e+2, -1012728.44, -1140563.5, 41886.938, 0.002211817, 0.00036374174, -1000226.25, 52590.05, 0.0, 10.09949, 9.924178 
7.870732e+3, 2.0249397e+2, -921863.5, -1047343.56, 42440.87, 0.002469718, 0.00023543651, -908856.94, 46704.637, 0.0, 10.095422, 9.923283 
7.870334e+3, 2.1240993e+2, -842238.7, -975796.4, 42010.563, 0.0024228417, 0.000413398, -830123.3, 28261.996, 0.0, 10.09094, 9.9085655 
7.869934e+3, 2.2231835e+2, -751746.0, -882355.0, 42053.45, 0.002270436, 0.0002101257, -739377.0, 21905.643, 0.0, 10.086295, 9.90795 
7.869526e+3, 2.3221904e+2, -672414.2, -810619.25, 38193.293, 0.002285816, 0.00035217742, -662561.75, 1693.9265, 0.0, 10.080856, 9.893359 
7.869112e+3, 2.4211244e+2, -584404.8, -717872.2, 37710.066, 0.002416407, 0.00021844715, -574487.1, -7187.056, 0.0, 10.074169, 9.893171 
7.868687e+3, 2.5199944e+2, -508446.94, -645274.7, 30790.693, 0.0022612659, 0.00018707309, -501837.3, -31429.81, 0.0, 10.064804, 9.880706 
7.8682524e+3, 2.6188034e+2, -424798.06, -553567.75, 29033.162, 0.0021492732, -0.000009036413, -418554.78, -44980.277, 0.0, 10.05448, 9.881457 
7.867806e+3, 2.7175832e+2, -347060.38, -475161.56, 20148.69, 0.0024728759, 0.0007137365, -343965.97, -67196.13, 0.0, 10.043774, 9.873094 
7.86735e+3, 2.816312e+2, -270055.44, -387851.44, 19966.428, 0.0026850824, -0.00019043598, -266763.16, -86747.125, 0.0, 10.029576, 9.872799 
7.8668904e+3, 2.915028e+2, -204798.44, -308616.0, 13885.338, 0.0015332007, -0.00011215931, -202973.39, -119699.016, 0.0, 10.007607, 9.870321 
7.8664196e+3, 3.0138132e+2, -137071.22, -220927.6, 8988.506, 0.0007508989, 0.005653509, -136118.58, -136118.58, 0.0, 9.984289, 9.873953 
7.8659374e+3, 3.112644e+2, -80124.61, -127107.61, 732.53577, 0.0043182573, -0.010982401, -80113.195, -80113.195, 0.0, 9.971251, 9.909673 
7.865451e+3, 3.2118905e+2, -64242.492, -44538.695, 5104.262, 0.0021141653, 0.0125434445, -43294.945, -43294.945, 0.0, 9.950828, 9.97566 
7.8837425e+3, 1.3337472e+2, -1506737.0, -1635877.5, 9563.756, 0.0024566995, 0.00046952374, -1506032.6, 126897.99, 0.0, 10.135463, 9.960328 
7.8832877e+3, 1.433345e+2, -1425838.0, -1547675.0, 14262.295, 0.002354578, 0.0001471646, -1424190.6, 111133.984, 0.0, 10.125616, 9.959987 
7.882856e+3, 1.5329173e+2, -1347460.6, -1467212.0, 28588.81, 0.0019292341, 0.00044167318, -1340985.6, 96758.27, 0.0, 10.118255, 9.954075 
7.88244e+3, 1.6324562e+2, -1259899.9, -1376084.1, 29944.09, 0.0026315048, 0.0004417658, -1252636.4, 87559.51, 0.0, 10.112485, 9.953063 
7.88203e+3, 1.7319293e+2, -1180091.6, -1300603.4, 36672.266, 0.0026002675, 0.0003810666, -1169809.4, 72902.71, 0.0, 10.107625, 9.942019 
7.881626e+3, 1.8313454e+2, -1090233.8, -1208367.1, 38057.21, 0.002097049, 0.00024746635, -1079035.0, 66249.125, 0.0, 10.103312, 9.940837 
7.8812253e+3, 1.9306855e+2, -1009966.75, -1135363.1, 41620.816, 0.0022121544, 0.00042049732, -997409.7, 50521.293, 0.0, 10.099428, 9.927272 
7.880828e+3, 2.0299548e+2, -919043.1, -1042597.25, 41999.79, 0.0025321608, 0.00032248913, -906118.2, 44528.773, 0.0, 10.095614, 9.925971 
7.880425e+3, 2.1291359e+2, -839480.56, -971974.4, 41419.88, 0.0024297913, 0.0004293368, -827597.7, 25851.775, 0.0, 10.09149, 9.910481 
7.88002e+3, 2.2282384e+2, -749067.1, -878838.94, 41303.156, 0.002206757, 0.00020417728, -737036.6, 19292.275, 0.0, 10.086909, 9.909657 
7.8796065e+3, 2.3272562e+2, -670866.1, -809089.5, 36735.633, 0.0022302829, 0.00036283507, -661709.5, -2418.346, 0.0, 10.081279, 9.893857 
7.8791857e+3, 2.4261944e+2, -583165.94, -716984.06, 35699.53, 0.0024046316, 0.00028317963, -574237.8, -11906.378, 0.0, 10.074546, 9.893263 
7.878752e+3, 2.5250554e+2, -507547.0, -646502.06, 27446.674, 0.0024453544, 0.00018377604, -502322.13, -36874.297, 0.0, 10.065645, 9.879114 
7.878307e+3, 2.623847e+2, -424210.5, -555279.8, 26122.79, 0.0022522833, -0.00015106892, -419195.94, -50563.914, 0.0, 10.055319, 9.879604 
7.8778493e+3, 2.7226037e+2, -349427.7, -480412.88, 15825.533, 0.0020663342, 0.001171779, -347542.78, -75693.0, 0.0, 10.043342, 9.869493 
7.877379e+3, 2.821302e+2, -272399.72, -391479.88, 13556.104, 0.0020694057, 0.00044957234, -270875.97, -95750.734, 0.0, 10.028207, 9.870591 
7.8768975e+3, 2.9199788e+2, -205280.64, -311830.9, 4889.5723, 0.0021188967, -0.001787953, -205056.73, -126633.17, 0.0, 10.007358, 9.867656 
7.8764045e+3, 3.0187398e+2, -136493.75, -223604.38, 2662.623, 0.0016111521, 0.0040898053, -136412.44, -136412.44, 0.0, 9.985119, 9.871349 
7.875907e+3, 3.1176084e+2, -80931.69, -130572.36, -3621.5525, 0.0026405412, -0.004606225, -80668.87, -80668.87, 0.0, 9.971276, 9.906804 
7.875401e+3, 3.216721e+2, -65573.16, -47342.273, -3396.7686, 0.00054646184, 0.0063799154, -46729.957, -46729.957, 0.0, 9.949601, 9.973497 
7.8938705e+3, 1.3385901e+2, -1520407.5, -1635135.4, 12495.425, 0.0019658238, 0.00019826891, -1519062.4, 109122.195, 0.0, 10.122561, 9.966571 
7.8934073e+3, 1.4382556e+2, -1435709.5, -1544753.6, 17882.215, 0.0027644548, 0.000466972, -1432851.9, 97660.66, 0.0, 10.115119, 9.966258 
7.89297e+3, 1.5378836e+2, -1354999.3, -1463756.5, 33955.09, 0.0018923284, 0.00039489346, -1345268.8, 87608.2, 0.0, 10.1097975, 9.959667 
7.892549e+3, 1.6374744e+2, -1265129.4, -1372075.5, 35940.84, 0.002507737, 0.00023786542, -1254173.4, 81104.484, 0.0, 10.105855, 9.957997 
7.892135e+3, 1.7369966e+2, -1182876.6, -1295496.6, 43710.777, 0.0026649549, 0.00037818687, -1167902.3, 69843.84, 0.0, 10.102761, 9.946712 
7.8917277e+3, 1.8364593e+2, -1090687.4, -1202249.5, 45752.723, 0.0022023118, 0.00032761446, -1074323.9, 65948.87, 0.0, 10.100081, 9.945258 
7.891324e+3, 1.9358411e+2, -1008268.06, -1128235.0, 50351.84, 0.0021932442, 0.00042147315, -989936.0, 52942.41, 0.0, 10.097723, 9.931497 
7.8909236e+3, 2.0351508e+2, -915059.1, -1034629.6, 51615.8, 0.0025198527, 0.00029178738, -895860.4, 49694.555, 0.0, 10.095592, 9.929782 
7.890518e+3, 2.1343665e+2, -832986.56, -963076.0, 52015.72, 0.0024785441, 0.00032652472, -814745.94, 33577.58, 0.0, 10.093307, 9.913826 
7.8901094e+3, 2.233501e+2, -740156.8, -869167.8, 52770.86, 0.002351061, 0.0002366804, -721321.3, 29850.232, 0.0, 10.090544, 9.912463 
7.8896904e+3, 2.332541e+2, -660044.1, -799453.2, 48939.85, 0.0022344387, 0.00043254477, -644579.25, 9532.972, 0.0, 10.086588, 9.895601 
7.889264e+3, 2.4314955e+2, -568973.8, -705815.4, 49109.176, 0.0022941092, 0.0002568275, -553173.94, 3962.8005, 0.0, 10.082221, 9.894718 
7.888823e+3, 2.5303602e+2, -489597.03, -635208.4, 41125.625, 0.002578234, 0.000034761117, -478784.63, -18535.701, 0.0, 10.07646, 9.878821 
7.8883696e+3, 2.6291493e+2, -403305.72, -542887.75, 40478.215, 0.0024585503, -0.00015596217, -392416.7, -28981.086, 0.0, 10.068237, 9.87885 
7.887898e+3, 2.7278906e+2, -331294.56, -471412.03, 29495.605, 0.0015725013, 0.001510262, -325338.72, -58669.168, 0.0, 10.0549555, 9.866845 
7.8874123e+3, 2.8265634e+2, -253641.45, -381390.34, 27861.184, 0.0018225048, 0.00075974537, -247829.53, -77859.63, 0.0, 10.03988, 9.868578 
7.886914e+3, 2.9252082e+2, -179936.44, -298618.72, 17637.738, 0.0037558645, -0.0029109214, -177370.7, -104073.95, 0.0, 10.023153, 9.865454 
7.886399e+3, 3.0239388e+2, -113418.12, -214407.98, 15126.68, 0.0025284307, 0.0030355144, -111201.055, -111201.055, 0.0, 10.0005245, 9.866718 
7.885875e+3, 3.1227922e+2, -78362.56, -132387.94, 4511.969, -0.00051330647, -0.0011477268, -77988.336, -77988.336, 0.0, 9.973042, 9.901792 
7.885351e+3, 3.221801e+2, -55531.01, -22866.02, 4094.1526, 0.0040788148, -0.005528648, -22360.686, -22360.686, 0.0, 9.946822, 9.988657 
7.9039925e+3, 1.3435179e+2, -1518736.0, -1625787.8, 10529.103, 0.0022803347, 0.0002624475, -1517710.3, 105645.16, 0.0, 10.119273, 9.973744 
7.9035217e+3, 1.4432538e+2, -1434796.3, -1536430.0, 16608.684, 0.0026533967, 0.0005690769, -1432151.0, 93463.33, 0.0, 10.111741, 9.972899 
7.9030794e+3, 1.542943e+2, -1352780.4, -1455559.4, 33534.26, 0.0018100226, 0.00038634535, -1342806.8, 85111.984, 0.0, 10.107807, 9.965628 
7.9026544e+3, 1.6425914e+2, -1262118.4, -1364004.8, 35432.586, 0.0025479011, 0.00019220567, -1251007.8, 79255.48, 0.0, 10.104645, 9.963508 
7.902237e+3, 1.7421696e+2, -1179529.9, -1287131.0, 43623.94, 0.0027014236, 0.0004203835, -1164066.0, 68610.77, 0.0, 10.101787, 9.952319 
7.9018277e+3, 1.841687e+2, -1087247.0, -1194307.5, 45716.688, 0.0021663688, 0.00041751243, -1070381.9, 64767.68, 0.0, 10.099407, 9.950466 
7.901422e+3, 1.9411209e+2, -1003975.56, -1119633.9, 50501.063, 0.002116901, 0.0004374136, -985028.6, 52675.785, 0.0, 10.097554, 9.936894 
7.901018e+3, 2.0404825e+2, -910757.6, -1026557.0, 51676.336, 0.0024731578, 0.0002815901, -891050.5, 49279.387, 0.0, 10.095687, 9.934738 
7.9006106e+3, 2.1397467e+2, -828372.9, -954931.3, 51967.223, 0.0024885128, 0.00029593467, -809768.94, 33281.89, 0.0, 10.0936575, 9.918702 
7.9002e+3, 2.2389278e+2, -735635.7, -861856.3, 52361.855, 0.002371673, 0.00027419592, -716741.9, 29111.436, 0.0, 10.091166, 9.916673 
7.899777e+3, 2.3380071e+2, -655273.56, -792878.5, 48141.773, 0.002240282, 0.000633713, -640103.4, 8652.593, 0.0, 10.087725, 9.899044 
7.899347e+3, 2.4369939e+2, -564620.44, -700019.4, 48189.703, 0.0022133004, 0.00030617457, -549220.8, 2527.8684, 0.0, 10.083339, 9.897697 
7.8989e+3, 2.5358784e+2, -487056.4, -632121.6, 39018.266, 0.002768561, -0.000056401597, -477227.6, -22386.795, 0.0, 10.077017, 9.880261 
7.8984374e+3, 2.6346818e+2, -401871.97, -541055.2, 37182.137, 0.0024762668, -0.00009416795, -392561.72, -34548.29, 0.0, 10.068214, 9.879699 
7.897952e+3, 2.7334216e+2, -330741.5, -472642.0, 23967.084, 0.0008148749, 0.0018124358, -326802.75, -65552.43, 0.0, 10.055164, 9.865423 
7.8974515e+3, 2.8320792e+2, -252791.03, -381680.4, 22851.596, 0.0016117565, 0.00087048917, -248859.45, -84294.414, 0.0, 10.040033, 9.867868 
7.8969383e+3, 2.9307032e+2, -181112.84, -301293.4, 10312.606, 0.005949466, -0.0039084195, -180234.34, -112326.92, 0.0, 10.022213, 9.8635845 
7.8963995e+3, 3.0293992e+2, -117172.28, -222202.69, 4822.4014, 0.0026162434, 0.0018491903, -116951.33, -116951.33, 0.0, 9.999102, 9.861548 
7.895842e+3, 3.1282064e+2, -82076.836, -143017.5, -5410.9, -0.006132868, 0.0010033901, -81600.13, -81600.13, 0.0, 9.972626, 9.8938465 
7.8953e+3, 3.227227e+2, -48394.695, -13777.556, -510.65662, 0.00451066, 0.0013011344, -13770.024, -13770.024, 0.0, 9.948313, 9.993382 
7.914104e+3, 1.3485283e+2, -1535471.8, -1624761.0, 10901.895, 0.0034504212, 0.0004744622, -1534159.9, 84285.47, 0.0, 10.103566, 9.982014 
7.913625e+3, 1.4483364e+2, -1447917.3, -1535134.1, 18815.26, 0.001763537, 0.0002932064, -1444031.4, 76601.734, 0.0, 10.0993185, 9.979641 
7.913181e+3, 1.5480907e+2, -1362795.4, -1453355.1, 36873.715, 0.0018699614, 0.0004667877, -1349680.6, 73193.38, 0.0, 10.097849, 9.971664 
7.912755e+3, 1.6478011e+2, -1269139.0, -1359903.5, 38897.895, 0.0030310964, 0.00034810405, -1254750.1, 70407.78, 0.0, 10.0964365, 9.969743 
7.9123354e+3, 1.7474425e+2, -1184043.4, -1280996.1, 47989.242, 0.0026689835, 0.00037239125, -1164307.4, 63202.0, 0.0, 10.094942, 9.959087 
7.911924e+3, 1.8470247e+2, -1090253.9, -1187940.8, 50945.754, 0.0019415161, 0.0002922008, -1068520.0, 61398.703, 0.0, 10.093836, 9.956653 
7.911517e+3, 1.9465232e+2, -1004697.25, -1111200.5, 56786.53, 0.0022041881, 0.00035946397, -980100.0, 52310.13, 0.0, 10.093141, 9.94372 
7.9111135e+3, 2.0459512e+2, -910101.6, -1017810.3, 58928.19, 0.0027151352, 0.0002741965, -884126.0, 50844.59, 0.0, 10.092383, 9.941073 
7.9107034e+3, 2.1452817e+2, -825430.56, -944101.7, 60570.477, 0.0024959147, 0.00035999442, -799975.25, 37651.523, 0.0, 10.091514, 9.925635 
7.910291e+3, 2.244529e+2, -730502.56, -850329.44, 62420.75, 0.002191933, 0.00028882187, -703894.5, 36469.85, 0.0, 10.0907, 9.923024 
7.909866e+3, 2.3436695e+2, -646926.56, -779342.6, 59835.19, 0.0022416564, 0.00046920055, -623894.75, 19311.781, 0.0, 10.08925, 9.90542 
7.9094326e+3, 2.4427165e+2, -553487.1, -685761.3, 61502.133, 0.0025261622, 0.0002710231, -529310.2, 16830.313, 0.0, 10.087038, 9.903192 
7.90898e+3, 2.5416505e+2, -473577.94, -617725.75, 53842.26, 0.0028405963, 0.00007354386, -455687.22, -6502.1333, 0.0, 10.082635, 9.884434 
7.90851e+3, 2.6404947e+2, -384003.34, -524338.0, 53989.613, 0.0025112892, -0.000032474818, -365636.3, -13318.706, 0.0, 10.076737, 9.883645 
7.9080135e+3, 2.7392498e+2, -308259.25, -457125.13, 41208.07, 0.0009369971, 0.0012236802, -297613.6, -42076.145, 0.0, 10.068003, 9.865907 
7.9075e+3, 2.8379127e+2, -225968.9, -363968.5, 41064.58, 0.0018941145, 0.0003212048, -214673.8, -55826.25, 0.0, 10.055702, 9.8681965 
7.906966e+3, 2.9365298e+2, -161805.08, -291862.3, 25782.69, 0.0058164666, -0.0028896655, -156880.36, -94680.0, 0.0, 10.03418, 9.859923 
7.906403e+3, 3.0351934e+2, -99700.14, -211483.44, 20926.037, 0.0024264453, 0.0027152786, -95911.18, -95911.18, 0.0, 10.008804, 9.859709 
7.9058224e+3, 3.1339833e+2, -54918.633, -126833.984, 11440.955, -0.0049377987, 0.00030139904, -53142.37, -53142.37, 0.0, 9.988272, 9.892357 
7.905258e+3, 3.232974e+2, -28631.451, -6917.0903, 12146.774, 0.007229486, -0.00053966895, -1482.4785, -1482.4785, 0.0, 9.961581, 9.987619 
7.9242057e+3, 1.3535774e+2, -1535814.0, -1615379.1, 9839.003, 0.002255014, 0.00049129536, -1534615.4, 78881.67, 0.0, 10.098714, 9.990308 
7.923725e+3, 1.4534643e+2, -1444356.6, -1524676.1, 18058.545, 0.0023146917, 0.00018288879, -1440483.3, 75124.33, 0.0, 10.097475, 9.98706 
7.923278e+3, 1.5532896e+2, -1360695.3, -1444304.3, 36815.426, 0.0018813392, 0.00047180578, -1346795.3, 70983.734, 0.0, 10.095452, 9.978505 
7.922851e+3, 1.6530684e+2, -1266869.4, -1350898.9, 38893.113, 0.0029694908, 0.00040879071, -1251631.0, 68364.9, 0.0, 10.094228, 9.976465 
7.92243e+3, 1.7527811e+2, -1179748.3, -1269878.6, 48072.996, 0.0025793668, 0.0003443448, -1158920.5, 63356.99, 0.0, 10.093605, 9.966733 
7.9220176e+3, 1.8524371e+2, -1085649.1, -1177373.5, 51115.867, 0.0018332878, 0.00028361494, -1062836.9, 61777.53, 0.0, 10.093068, 9.9637 
7.92161e+3, 1.952012e+2, -998630.25, -1098496.8, 57025.305, 0.0022487896, 0.00037570318, -972766.3, 54264.707, 0.0, 10.092741, 9.951966 
7.921206e+3, 2.0515206e+2, -904042.56, -1005785.0, 59048.266, 0.0027903898, 0.00035437872, -876974.2, 52538.402, 0.0, 10.092302, 9.948751 
7.920795e+3, 2.1509348e+2, -817713.06, -929679.94, 60820.4, 0.0024619862, 0.00049859216, -791032.94, 41053.984, 0.0, 10.091879, 9.93465 
7.9203814e+3, 2.2502689e+2, -723132.44, -836943.1, 62498.332, 0.0020429282, 0.00031119736, -695514.06, 39225.33, 0.0, 10.091235, 9.931315 
7.919956e+3, 2.3494948e+2, -638673.75, -764393.75, 59794.64, 0.0022025476, 0.00031372035, -614776.75, 22720.861, 0.0, 10.089901, 9.914677 
7.9195195e+3, 2.4486294e+2, -545758.7, -672112.94, 60855.77, 0.0025187274, 0.00020982475, -521215.97, 19129.863, 0.0, 10.0877495, 9.911556 
7.9190624e+3, 2.5476474e+2, -465606.13, -604835.2, 52529.906, 0.0025681152, 0.00041097752, -448010.7, -4701.347, 0.0, 10.083824, 9.892 
7.918587e+3, 2.6465642e+2, -376180.5, -512319.53, 52086.13, 0.0025027879, 0.00018839452, -358538.75, -12169.007, 0.0, 10.078145, 9.890569 
7.918082e+3, 2.745361e+2, -302989.9, -450861.88, 37195.715, 0.0015148412, 0.00052379625, -294160.84, -44614.285, 0.0, 10.069361, 9.868937 
7.9175556e+3, 2.844056e+2, -224019.19, -361435.72, 34942.297, 0.0018743294, 0.00012900063, -215644.45, -62817.61, 0.0, 10.055438, 9.869466 
7.9169977e+3, 2.9426807e+2, -164452.14, -297073.28, 16142.388, 0.0036620698, -0.00040620912, -162515.61, -106335.68, 0.0, 10.032548, 9.856473 
7.916412e+3, 3.041312e+2, -97213.55, -207692.48, 12886.497, 0.0019408418, 0.0033019353, -95730.35, -95730.35, 0.0, 10.00814, 9.861883 
7.915813e+3, 3.1400928e+2, -49965.316, -120031.195, 3434.8816, -0.00037965484, -0.0037427056, -49797.332, -49797.332, 0.0, 9.988289, 9.895946 
7.9152155e+3, 3.2389662e+2, -60495.348, -76772.11, 6755.098, 0.002530572, 0.0015061857, -58057.125, -58057.125, 0.0, 9.962247, 9.939217 
7.934293e+3, 1.3586333e+2, -1554726.1, -1616250.9, 10099.534, -0.00032953944, 0.0002915986, -1553110.6, 55430.914, 0.0, 10.082491, 9.998441 
7.9338175e+3, 1.4586051e+2, -1457443.4, -1522355.1, 17339.695, 0.0049646883, 0.00022163146, -1453101.9, 57468.047, 0.0, 10.0847435, 9.995207 
7.9333675e+3, 1.5585059e+2, -1370962.9, -1441026.8, 36262.688, 0.0014819216, 0.00025391107, -1355574.5, 57092.63, 0.0, 10.084767, 9.986117 
7.932939e+3, 1.6583575e+2, -1275778.5, -1347468.9, 38955.766, 0.0020807593, 0.0001948518, -1258685.8, 56126.63, 0.0, 10.084719, 9.9835415 
7.9325193e+3, 1.7581502e+2, -1185998.5, -1263418.3, 48636.93, 0.0027654974, 0.00042508208, -1162547.3, 54468.336, 0.0, 10.08508, 9.975158 
7.932106e+3, 1.8578891e+2, -1091197.8, -1170928.8, 52256.023, 0.002161843, 0.0004516651, -1065336.9, 53934.71, 0.0, 10.085184, 9.971704 
7.9316986e+3, 1.9575512e+2, -1002178.44, -1089013.4, 58982.688, 0.002136072, 0.00047135228, -972356.4, 49246.3, 0.0, 10.085292, 9.961602 
7.931294e+3, 2.0571539e+2, -907078.9, -996311.9, 61981.523, 0.0026388895, 0.0003839011, -875325.6, 48666.563, 0.0, 10.0853405, 9.9580145 
7.930884e+3, 2.1566696e+2, -818414.94, -916393.8, 65038.383, 0.0025871908, 0.00039766057, -785979.8, 40487.016, 0.0, 10.085328, 9.946003 
7.93047e+3, 2.2561143e+2, -723777.0, -824272.4, 68035.586, 0.002381783, 0.00027802467, -689445.3, 39565.688, 0.0, 10.085037, 9.941892 
7.930043e+3, 2.3554586e+2, -636761.44, -747341.1, 67306.53, 0.0023678893, 0.0005028107, -604947.1, 26706.504, 0.0, 10.084091, 9.927616 
7.929605e+3, 2.4547203e+2, -542828.1, -654579.75, 70705.22, 0.0024284362, 0.00039874014, -508585.5, 25791.676, 0.0, 10.082671, 9.924062 
7.9291445e+3, 2.5538683e+2, -459249.63, -583075.44, 65851.51, 0.0023765587, 0.0004050583, -430776.56, 6435.8745, 0.0, 10.0800085, 9.906055 
7.928665e+3, 2.6529163e+2, -366294.0, -490326.13, 69868.86, 0.0025217894, 0.0004166257, -334888.16, 5257.1475, 0.0, 10.07749, 9.902581 
7.928155e+3, 2.7518353e+2, -286361.6, -425042.88, 58944.766, 0.0023129643, 0.0013630693, -264693.38, -21489.756, 0.0, 10.072782, 9.880197 
7.927614e+3, 2.850638e+2, -205365.34, -331657.8, 59648.133, 0.0026470197, 0.00036569173, -181647.63, -35270.016, 0.0, 10.058382, 9.882063 
7.927031e+3, 2.9493263e+2, -151440.64, -280870.84, 48561.98, 0.002806034, -0.0023104022, -135246.47, -85580.25, 0.0, 10.036137, 9.858181 
7.926428e+3, 3.0479872e+2, -67469.625, -186637.73, 53004.465, 0.001192718, 0.0036043087, -47305.742, -47305.742, 0.0, 10.025431, 9.860329 
7.9258204e+3, 3.1466284e+2, -8274.283, -122797.195, 25603.635, 0.0038517427, -0.003286605, -2810.781, -2810.781, 0.0, 10.025585, 9.870978 
7.925192e+3, 3.2452554e+2, -20951.506, -68857.5, 15001.358, 0.0003235174, -0.0010543659, -16641.688, -16641.688, 0.0, 9.991828, 9.925741 
7.944377e+3, 1.3636838e+2, -1552625.9, -1604701.1, 9812.06, 0.00237369, 0.00013749104, -1550838.4, 52753.918, 0.0, 10.078926, 10.007542 
7.9438996e+3, 1.4637445e+2, -1459098.9, -1514139.6, 18124.283, 0.0035652993, 0.00034301198, -1453666.9, 51866.52, 0.0, 10.07955, 10.003142 
7.9434514e+3, 1.5637219e+2, -1368119.0, -1430729.0, 36216.777, 0.0013659562, 0.0003124069, -1351552.8, 56002.67, 0.0, 10.082523, 9.993809 
7.943024e+3, 1.663648e+2, -1271679.8, -1336830.5, 38770.043, 0.0023483557, 0.00019399208, -1253616.5, 56011.188, 0.0, 10.0834465, 9.990984 
7.942604e+3, 1.7635249e+2, -1180746.8, -1250129.4, 48301.133, 0.0028329396, 0.00044003048, -1155969.6, 55778.746, 0.0, 10.083628, 9.984403 
7.9421914e+3, 1.863355e+2, -1086040.9, -1158085.3, 52015.27, 0.0020861195, 0.00052759197, -1058792.3, 55122.68, 0.0, 10.083888, 9.980617 
7.9417837e+3, 1.9631162e+2, -994878.8, -1072696.3, 58804.535, 0.0020340073, 0.0004647319, -963276.06, 52872.96, 0.0, 10.084355, 9.972578 
7.9413795e+3, 2.0628268e+2, -899736.3, -980502.0, 61842.51, 0.0025866325, 0.00036481104, -866259.3, 52173.598, 0.0, 10.084717, 9.968553 
7.9409695e+3, 2.1624619e+2, -808330.3, -895876.5, 64845.402, 0.0025576998, 0.00034069712, -773866.5, 46923.9, 0.0, 10.085062, 9.959437 
7.940555e+3, 2.2620383e+2, -714174.0, -804980.1, 67775.77, 0.0023202419, 0.00036563285, -677998.94, 45206.86, 0.0, 10.084924, 9.954476 
7.9401267e+3, 2.3615295e+2, -623492.94, -721570.8, 66978.52, 0.0022932861, 0.00077685254, -589520.2, 36184.457, 0.0, 10.0843935, 9.944232 
7.939688e+3, 2.4609552e+2, -530131.9, -630192.7, 69964.64, 0.002323597, 0.0006730279, -494150.13, 34117.12, 0.0, 10.083074, 9.939733 
7.939224e+3, 2.5602803e+2, -443611.3, -551709.8, 65310.23, 0.0021420412, 0.00035064277, -412885.88, 18042.346, 0.0, 10.080059, 9.92652 
7.9387426e+3, 2.6595223e+2, -352345.78, -461808.56, 69689.13, 0.0020353624, 0.0006605166, -318465.1, 15206.605, 0.0, 10.0773535, 9.921274 
7.9382277e+3, 2.7586526e+2, -270580.06, -392981.6, 57133.24, 0.0026514186, 0.0028892418, -248056.64, -11530.698, 0.0, 10.072484, 9.90106 
7.9376715e+3, 2.8576544e+2, -186756.67, -293037.22, 51353.21, 0.0025068254, 0.00010631466, -165998.1, -26495.363, 0.0, 10.056738, 9.907411 
7.937065e+3, 2.9564923e+2, -147927.58, -270120.97, 44043.168, 0.0015051349, -0.0070565795, -133707.56, -91069.39, 0.0, 10.033581, 9.865526 
7.9364526e+3, 3.0552596e+2, -76712.35, -200140.36, 55860.348, 0.00023052072, 0.0055957153, -55185.76, -55185.76, 0.0, 10.023128, 9.852072 
7.935849e+3, 3.1535846e+2, -47032.324, -204578.14, 26301.066, 0.0073440312, 0.0010384767, -42757.55, -42757.55, 0.0, 10.025344, 9.815779 
7.935171e+3, 3.2519245e+2, -3394.8032, -14329.494, -10340.077, -0.0026782765, 0.0016049726, 2834.3923, 2834.3923, 0.0, 9.978868, 9.964501 
7.9544514e+3, 1.3686776e+2, -1568686.6, -1602792.0, 4188.1387, 0.0075377296, -0.000017349817, -1568179.9, 30519.775, 0.0, 10.0637, 10.017289 
7.953967e+3, 1.4688277e+2, -1471693.6, -1513227.6, 15392.094, -0.0031390258, 0.0007749857, -1466611.4, 33940.36, 0.0, 10.06823, 10.0104265 
7.95353e+3, 1.5688786e+2, -1377686.8, -1428235.0, 32108.45, 0.0027355596, 0.000991561, -1362098.5, 40403.39, 0.0, 10.072945, 10.00105 
7.953104e+3, 1.6688752e+2, -1280448.9, -1333563.0, 33908.09, 0.004664826, 0.00058985676, -1263935.8, 40569.57, 0.0, 10.074106, 9.998516 
7.9526824e+3, 1.7688319e+2, -1187693.4, -1243648.5, 43416.613, 0.0023772516, 0.00019077634, -1164020.8, 42527.254, 0.0, 10.074391, 9.993874 
7.95227e+3, 1.868756e+2, -1092882.1, -1151331.9, 47549.39, 0.0014074295, 0.00008282494, -1066294.5, 42327.83, 0.0, 10.074643, 9.99025 
7.951864e+3, 1.968625e+2, -1000219.5, -1062591.8, 54584.066, 0.0025513468, 0.000064920285, -968540.75, 42209.652, 0.0, 10.074905, 9.984406 
7.951459e+3, 2.0684527e+2, -905686.2, -971073.06, 58141.707, 0.0029726638, 0.000197648, -871676.44, 41242.863, 0.0, 10.075052, 9.980012 
7.9510486e+3, 2.1682234e+2, -812148.94, -881345.2, 61506.99, 0.0021113735, 0.00065643765, -776176.94, 38967.043, 0.0, 10.074992, 9.97434 
7.9506344e+3, 2.2679456e+2, -718830.94, -790750.6, 65102.066, 0.0019867509, 0.00028782664, -680417.44, 36999.074, 0.0, 10.074241, 9.9693775 
7.950206e+3, 2.367601e+2, -626453.25, -701155.6, 65224.984, 0.002655077, -0.00010645358, -588641.94, 31112.543, 0.0, 10.072468, 9.963641 
7.949764e+3, 2.4672237e+2, -536276.9, -611670.1, 69225.14, 0.002640012, 0.00028271409, -495149.9, 26974.305, 0.0, 10.069107, 9.958636 
7.949296e+3, 2.5667784e+2, -447428.53, -522837.97, 66609.98, 0.002434818, 0.00055271527, -408592.2, 15968.49, 0.0, 10.063598, 9.953065 
7.9488105e+3, 2.6662797e+2, -361257.84, -433453.28, 74771.71, 0.0026596591, -0.00071625365, -314326.34, 12723.347, 0.0, 10.056564, 9.948878 
7.948286e+3, 2.7657193e+2, -281080.0, -351739.9, 68947.7, 0.0021842609, -0.0006884517, -238937.44, -9337.52, 0.0, 10.044629, 9.939251 
7.9477173e+3, 2.8651276e+2, -190692.56, -250120.66, 72428.28, 0.0031641594, 0.0020030453, -142120.08, -9941.007, 0.0, 10.033988, 9.942248 
7.947081e+3, 2.9644608e+2, -149365.8, -196188.78, 70725.086, 0.0022477575, 0.0031424414, -98278.055, -63447.594, 0.0, 9.997413, 9.922136 
7.96451e+3, 1.3736218e+2, -1569833.4, -1594524.4, 5446.1514, 0.0028940015, 0.00054210855, -1568685.5, 25168.697, 0.0, 10.059057, 10.025116 
7.9640365e+3, 1.4738387e+2, -1468267.5, -1503971.8, 16727.912, -0.0014250648, 0.0005819909, -1461655.0, 33986.04, 0.0, 10.067234, 10.017066 
7.9636025e+3, 1.5739562e+2, -1375997.8, -1419234.8, 31521.418, 0.003042559, 0.000638658, -1359393.8, 38132.176, 0.0, 10.070322, 10.008293 
7.963177e+3, 1.6740306e+2, -1278149.9, -1323337.5, 33234.22, 0.004640163, 0.00041547714, -1260556.6, 38896.4, 0.0, 10.071444, 10.00654 
7.962756e+3, 1.7740798e+2, -1182604.9, -1229617.5, 42735.22, 0.0020112875, 0.0001613691, -1157337.8, 44067.254, 0.0, 10.072444, 10.003929 
7.962344e+3, 1.8741024e+2, -1087391.5, -1137547.1, 46901.844, 0.0012264146, 0.000120351666, -1059284.0, 44098.77, 0.0, 10.073218, 9.999949 
7.9619384e+3, 1.974082e+2, -992076.25, -1044564.0, 53471.582, 0.002765273, 0.00006587071, -958755.5, 46647.117, 0.0, 10.073913, 9.996682 
7.961534e+3, 2.074033e+2, -897243.2, -952871.6, 57153.273, 0.002990613, 0.0003194564, -861495.44, 45955.19, 0.0, 10.074297, 9.992322 
7.9611236e+3, 2.1739472e+2, -800703.0, -857535.75, 60429.875, 0.0017947749, 0.0009328575, -762341.7, 47192.977, 0.0, 10.074399, 9.990235 
7.960709e+3, 2.2738266e+2, -707606.7, -767134.94, 63838.598, 0.0019274371, 0.00030908408, -666934.5, 44718.496, 0.0, 10.073582, 9.9852495 
7.9602784e+3, 2.3736633e+2, -611289.7, -669255.44, 63199.39, 0.0029327404, -0.0007505816, -570744.4, 43068.805, 0.0, 10.0715885, 9.985114 
7.959833e+3, 2.4735051e+2, -522241.13, -581214.6, 66876.13, 0.0024922108, 0.00020298638, -478639.66, 37328.93, 0.0, 10.067884, 9.979364 
7.95936e+3, 2.5733268e+2, -424125.88, -475402.1, 63261.668, 0.002272619, 0.0012677963, -381504.56, 36639.555, 0.0, 10.063105, 9.984783 
7.958867e+3, 2.6731402e+2, -337148.5, -385919.72, 68963.11, 0.0018964204, -0.0016828742, -288386.53, 31939.826, 0.0, 10.056554, 9.9804735 
7.958329e+3, 2.7729785e+2, -240554.95, -271773.03, 61386.76, -0.0003945849, -0.0050265295, -192823.83, 29660.363, 0.0, 10.045101, 9.992804 
7.9577535e+3, 2.8729716e+2, -161841.23, -188406.13, 67685.695, 0.0041033537, 0.0074430252, -106147.05, 18345.416, 0.0, 10.032583, 9.984959 
7.957076e+3, 2.9729915e+2, -58283.72, -14636.461, 40422.117, 0.00005504169, 0.0033521655, 9477.022, 35953.395, 0.0, 9.994776, 10.044859 
7.974558e+3, 1.3784517e+2, -1580571.3, -1595323.8, 1806.7101, -0.0041545, 0.0017774293, -1580353.1, 8766.517, 0.0, 10.050533, 10.030456 
7.974109e+3, 1.4787051e+2, -1476398.8, -1503385.5, 10061.466, 0.010398083, -0.00042855245, -1473060.5, 17811.787, 0.0, 10.060005, 10.022473 
7.973666e+3, 1.5788715e+2, -1383034.1, -1417093.9, 22334.45, -0.00006292601, -0.0012759322, -1371977.6, 20731.39, 0.0, 10.063047, 10.014585 
7.973241e+3, 1.6790271e+2, -1284399.4, -1318888.3, 23816.438, 0.0011192329, -0.00048000162, -1272239.9, 22316.068, 0.0, 10.063809, 10.014559 
7.9728246e+3, 1.7791799e+2, -1187937.6, -1223217.3, 32525.443, 0.0028783148, 0.0010953648, -1168576.5, 27829.125, 0.0, 10.064657, 10.013297 
7.9724133e+3, 1.8792908e+2, -1093946.9, -1133307.3, 35998.313, 0.0018829938, 0.0015348152, -1072600.4, 25697.045, 0.0, 10.065316, 10.008068 
7.9720074e+3, 1.9793652e+2, -996717.7, -1035840.9, 41594.945, 0.0018644801, 0.0013550116, -970314.1, 29911.063, 0.0, 10.065603, 10.007969 
7.971604e+3, 2.0794283e+2, -901555.0, -942379.5, 44768.813, 0.002904163, 0.00062011246, -872764.56, 29399.184, 0.0, 10.065456, 10.005098 
7.971194e+3, 2.1794775e+2, -803945.25, -843106.1, 47270.52, 0.0030280573, -0.000025976195, -772360.3, 31755.254, 0.0, 10.064653, 10.006072 
7.9707766e+3, 2.2795193e+2, -712778.7, -754124.9, 50127.68, 0.0024043107, 0.0004982913, -679228.56, 26846.084, 0.0, 10.062739, 10.000793 
7.970343e+3, 2.3795512e+2, -614048.2, -649569.5, 47726.3, 0.0022088164, 0.0011566567, -580884.94, 27158.373, 0.0, 10.059795, 10.005685 
7.969894e+3, 2.4795943e+2, -526462.44, -562453.0, 49959.063, 0.0019477278, 0.0017422597, -491356.5, 18644.355, 0.0, 10.055151, 9.999992 
7.969416e+3, 2.579653e+2, -427190.66, -451084.66, 43449.746, 0.0018935888, 0.0032847289, -394075.34, 17867.81, 0.0, 10.048866, 10.010383 
7.9689187e+3, 2.6797035e+2, -342091.9, -368811.34, 42747.566, 0.0032677148, 0.0008670463, -310665.06, 3229.6265, 0.0, 10.04359, 10.001467 
7.968374e+3, 2.779814e+2, -228744.14, -233729.5, 22657.564, 0.0047001573, -0.0015072289, -208442.55, 7345.0083, 0.0, 10.037791, 10.027583 
7.967775e+3, 2.8800714e+2, -166849.33, -169866.8, 12862.451, 0.00092559116, 0.004565416, -155407.42, -37874.64, 0.0, 10.018038, 10.01231 
7.967097e+3, 2.9803568e+2, 8906.048, 29036.47, -24845.014, 0.007156551, -0.0054265065, 45777.66, 65034.11, 0.0, 10.039437, 10.071343 
7.9846114e+3, 1.3831197e+2, -1581907.4, -1588918.4, 3221.7258, 0.00073391414, 0.0007502174, -1580651.8, 3892.837, 0.0, 10.047061, 10.037211 
7.984169e+3, 1.4834471e+2, -1475455.6, -1496968.3, 9260.999, 0.010843971, 0.00019517583, -1472018.1, 14206.469, 0.0, 10.058134, 10.028063 
7.983728e+3, 1.5836751e+2, -1380150.9, -1408998.5, 20092.004, -0.0012405625, -0.00009224025, -1369841.5, 18159.762, 0.0, 10.061849, 10.020653 
7.9833055e+3, 1.683884e+2, -1280837.0, -1310446.9, 21023.479, 0.000710893, -0.00016291623, -1269928.6, 19867.557, 0.0, 10.063086, 10.020724 
7.98289e+3, 1.7841029e+2, -1182431.1, -1211593.0, 28388.174, 0.0036398629, 0.00070527365, -1165098.3, 26483.008, 0.0, 10.0641575, 10.021513 
7.982479e+3, 1.8842961e+2, -1089804.8, -1122085.8, 32358.416, 0.0021669257, 0.0010399002, -1069784.8, 23607.58, 0.0, 10.063808, 10.016496 
7.982072e+3, 1.984468e+2, -992064.06, -1020960.06, 38774.965, 0.0015441492, 0.0006165789, -965132.8, 30091.74, 0.0, 10.062888, 10.019297 
7.981669e+3, 2.0846465e+2, -895908.5, -925997.56, 42298.176, 0.0028624136, -0.0002605216, -866059.0, 30990.877, 0.0, 10.063004, 10.017319 
7.9812586e+3, 2.1848343e+2, -794758.0, -821417.5, 44127.156, 0.0032985278, -0.0012493663, -761991.25, 36874.69, 0.0, 10.062921, 10.021458 
7.98084e+3, 2.2850326e+2, -700950.25, -731028.9, 47433.586, 0.0023798945, 0.00008005646, -666228.9, 34443.01, 0.0, 10.062811, 10.0162325 
7.9804033e+3, 2.3852491e+2, -597200.5, -620266.8, 44108.41, 0.0016543044, 0.0019148455, -563142.4, 39317.273, 0.0, 10.061475, 10.024427 
7.9799485e+3, 2.4854796e+2, -511434.84, -533171.4, 46031.863, 0.0011282144, 0.002326824, -475005.63, 29227.334, 0.0, 10.055231, 10.019582 
7.979464e+3, 2.5857428e+2, -414222.38, -423036.72, 39584.953, 0.0011478197, 0.0037000573, -378800.0, 27174.195, 0.0, 10.0476465, 10.029825 
7.978965e+3, 2.685971e+2, -336001.25, -350403.2, 41157.99, 0.006015775, 0.0027655154, -301419.06, 6334.611, 0.0, 10.040595, 10.01506 
7.978417e+3, 2.786237e+2, -223024.19, -213459.17, 20981.162, 0.012835073, 0.0025385288, -196722.34, 12773.906, 0.0, 10.03334, 10.04284 
7.9777795e+3, 2.8865573e+2, -157125.27, -154056.45, 4027.6658, -0.014073267, 0.000093228744, -151280.81, -40108.56, 0.0, 10.018085, 10.021901 
7.9771286e+3, 2.9866764e+2, -31759.963, -54791.8, 19281.367, -0.0044258577, -0.012049942, -20817.309, -7754.681, 0.0, 10.046322, 10.01283 
7.99466e+3, 1.3875772e+2, -1578866.6, -1581262.4, 1680.288, 0.0041785524, -0.004402899, -1578001.0, 2174.698, 0.0, 10.046832, 10.043401 
7.994215e+3, 1.488006e+2, -1476969.0, -1493486.0, 2833.7087, -0.0022450667, 0.0012665697, -1476496.4, 5258.7183, 0.0, 10.055422, 10.03288 
7.9937905e+3, 1.5883209e+2, -1382550.5, -1406651.9, 10779.957, 0.0024914346, 0.005111909, -1378432.5, 5015.1265, 0.0, 10.058649, 10.0250025 
7.993368e+3, 1.6885309e+2, -1285638.1, -1313148.4, 10030.271, 0.0034386348, 0.002406199, -1282369.4, 2874.3135, 0.0, 10.060083, 10.021957 
7.992951e+3, 1.7887352e+2, -1184597.6, -1208811.1, 14934.9795, 0.0028996551, -0.0017313436, -1177478.6, 9566.523, 0.0, 10.06085, 10.02656 
7.9925406e+3, 1.8889973e+2, -1090355.1, -1113705.3, 16960.111, 0.002956953, -0.0023865395, -1081440.1, 7346.697, 0.0, 10.059269, 10.025914 
7.992133e+3, 1.9892861e+2, -993073.1, -1010718.9, 22657.086, 0.0033850493, -0.0018483868, -977581.7, 12919.975, 0.0, 10.057081, 10.030694 
7.9917264e+3, 2.0896034e+2, -898850.1, -917517.56, 25680.729, 0.0017475379, 0.0014038235, -880859.5, 11330.561, 0.0, 10.056313, 10.0282 
7.9913145e+3, 2.1899523e+2, -795596.5, -807903.8, 26170.67, -0.00013212216, 0.004450535, -774865.75, 18982.535, 0.0, 10.055781, 10.036056 
7.990899e+3, 2.290266e+2, -699057.3, -713375.1, 30024.412, 0.0021900528, 0.0006100552, -675350.1, 20191.736, 0.0, 10.056344, 10.033393 
7.9904646e+3, 2.3906173e+2, -591724.75, -598627.25, 24531.998, 0.0050483095, -0.003514544, -570402.44, 26796.393, 0.0, 10.056198, 10.043692 
7.9900026e+3, 2.4910402e+2, -505046.1, -509083.88, 25959.652, 0.0035198042, -0.00369636, -481026.94, 17757.045, 0.0, 10.049562, 10.040652 
7.9895085e+3, 2.591491e+2, -405206.16, -395271.13, 19152.39, 0.0014716282, -0.005747151, -380452.53, 19889.113, 0.0, 10.042885, 10.053465 
7.9889953e+3, 2.6919946e+2, -317180.06, -308310.06, 24047.666, -0.0026970757, -0.0060517644, -288291.88, 13558.7705, 0.0, 10.0384245, 10.046898 
7.988438e+3, 2.7925292e+2, -207336.11, -194723.55, 10589.545, -0.0043967026, -0.0025168369, -188704.73, 14623.745, 0.0, 10.039156, 10.054466 
7.987837e+3, 2.893056e+2, -96116.58, -111086.11, -4693.345, 0.0113621345, 0.005794444, -94766.8, 10035.182, 0.0, 10.054466, 10.035169 
7.987203e+3, 2.993345e+2, -5252.9224, -44932.44, 20196.297, 0.0148679, 0.017725851, 3218.2075, 9749.865, 0.0, 10.065454, 10.008858 
8.004708e+3, 1.3920599e+2, -1574505.4, -1577772.6, 1836.9385, 0.00684589, 0.003363499, -1573680.8, 2104.3162, 0.0, 10.049392, 10.04477 
8.004264e+3, 1.4924194e+2, -1480280.0, -1493883.3, -461.4971, -0.0073594567, -0.00023688197, -1480264.4, -2832.7163, 0.0, 10.052969, 10.034732 
8.003852e+3, 1.5927039e+2, -1376573.8, -1400203.5, 2480.0632, 0.006068596, -0.0028774536, -1376316.3, 2837.1152, 0.0, 10.061018, 10.028945 
8.0034304e+3, 1.6930142e+2, -1278129.0, -1302923.9, 3893.3174, 0.0061194315, -0.00062754785, -1277532.1, 3315.4355, 0.0, 10.062007, 10.028211 
8.0030096e+3, 1.7933223e+2, -1183212.0, -1204547.3, 11175.516, 0.0013431555, 0.0011763107, -1178430.0, 4114.8057, 0.0, 10.060069, 10.030073 
8.0025965e+3, 1.8936148e+2, -1088736.3, -1112088.0, 7244.202, 0.000030912805, 0.0021338123, -1086671.5, -2411.7021, 0.0, 10.059879, 10.0276575 
8.0021894e+3, 1.9939348e+2, -984840.1, -1001744.3, 5326.693, 0.0022022254, 0.0016950233, -983301.6, 2645.6353, 0.0, 10.060187, 10.036784 
8.001786e+3, 2.0942771e+2, -888451.75, -906436.94, 4687.622, 0.0035188692, -0.00044345125, -887303.3, 308.7308, 0.0, 10.060446, 10.035704 
8.001374e+3, 2.1946979e+2, -781072.06, -786849.44, 1761.41, 0.0032454655, -0.0017391563, -780577.4, 8622.434, 0.0, 10.058993, 10.050947 
8.0009544e+3, 2.295239e+2, -696667.2, -694739.2, 6610.9453, 0.0016575668, 0.00095295283, -689022.3, 1646.782, 0.0, 10.049844, 10.051664 
8.000516e+3, 2.3958161e+2, -596942.94, -578627.56, 2580.6995, 0.0028333496, -0.0005343472, -578270.9, 13832.392, 0.0, 10.042198, 10.066552 
8.0000496e+3, 2.4965325e+2, -496766.84, -479721.94, 8795.771, 0.0005426537, 0.0058828327, -475997.03, 17402.807, 0.0, 10.043508, 10.065384 
7.999554e+3, 2.5972408e+2, -386494.94, -366772.75, 6767.578, 0.0029795037, 0.007894254, -364673.84, 30031.02, 0.0, 10.046832, 10.07243 
7.999041e+3, 2.6978585e+2, -294691.97, -266411.44, 343.85983, 0.005777639, -0.007763131, -266407.28, 29695.371, 0.0, 10.039694, 10.077955 
7.998478e+3, 2.7986708e+2, -200948.98, -177913.11, -5585.8433, -0.0032085222, 0.0006128188, -176630.1, 20677.895, 0.0, 10.038185, 10.070123 
7.997891e+3, 2.8994545e+2, -78533.89, -67465.06, 6985.094, 0.009796815, 0.009033523, -64087.613, 34444.254, 0.0, 10.052296, 10.066119 
7.997239e+3, 2.9997322e+2, -12547.895, 698.5347, -7163.7197, -0.006707463, -0.010728263, 3831.6438, 4105.6064, 0.0, 10.029721, 10.049049 
